# vtk DataFile Version 2.0
phase field modeling fracture
ASCII
DATASET UNSTRUCTURED_GRID
POINTS 2538 float
0.0 0.0 0.0
10.0 0.0 0.0
0.0 10.0 0.0
10.0 10.0 0.0
0.0 4.9995 0.0
0.0 5.0005 0.0
5.0 5.0 0.0
0.9416964895726688 0.0 0.0
1.803581725054446 0.0 0.0
2.592419885431098 0.0 0.0
3.314401822861676 0.0 0.0
3.975193910351406 0.0 0.0
4.579982132660152 0.0 0.0
5.133512780936812 0.0 0.0
5.640130319506143 0.0 0.0
6.103810708661955 0.0 0.0
6.528192895506818 0.0 0.0
6.916607540127679 0.0 0.0
7.272102969376355 0.0 0.0
7.597469242948583 0.0 0.0
7.895259826292669 0.0 0.0
8.167811885738017 0.0 0.0
8.417264413845215 0.0 0.0
8.645575169389538 0.0 0.0
8.854535961159101 0.0 0.0
9.045786767735546 0.0 0.0
9.220828555767493 0.0 0.0
9.38103509633881 0.0 0.0
9.527663687265145 0.0 0.0
9.661865124984566 0.0 0.0
9.784692609918062 0.0 0.0
9.897110148790482 0.0 0.0
10.0 0.09999999999992584 0.0
10.0 0.199999999999856 0.0
10.0 0.2999999999997771 0.0
10.0 0.3999999999996677 0.0
10.0 0.4999999999995511 0.0
10.0 0.5999999999994683 0.0
10.0 0.6999999999993983 0.0
10.0 0.7999999999993286 0.0
10.0 0.8999999999992587 0.0
10.0 0.9999999999991888 0.0
10.0 1.099999999999119 0.0
10.0 1.199999999999033 0.0
10.0 1.299999999998852 0.0
10.0 1.399999999998576 0.0
10.0 1.499999999998284 0.0
10.0 1.599999999997992 0.0
10.0 1.6999999999977 0.0
10.0 1.799999999997408 0.0
10.0 1.899999999997116 0.0
10.0 1.999999999996825 0.0
10.0 2.099999999996533 0.0
10.0 2.199999999996241 0.0
10.0 2.299999999995949 0.0
10.0 2.399999999995657 0.0
10.0 2.499999999995365 0.0
10.0 2.599999999995073 0.0
10.0 2.699999999994782 0.0
10.0 2.79999999999449 0.0
10.0 2.899999999994198 0.0
10.0 2.999999999993906 0.0
10.0 3.099999999993614 0.0
10.0 3.199999999993322 0.0
10.0 3.299999999993029 0.0
10.0 3.399999999992738 0.0
10.0 3.499999999992446 0.0
10.0 3.599999999992154 0.0
10.0 3.699999999991863 0.0
10.0 3.799999999991571 0.0
10.0 3.899999999991278 0.0
10.0 3.999999999991022 0.0
10.0 4.099999999991035 0.0
10.0 4.199999999991187 0.0
10.0 4.299999999991338 0.0
10.0 4.399999999991491 0.0
10.0 4.499999999991642 0.0
10.0 4.599999999991795 0.0
10.0 4.699999999991947 0.0
10.0 4.799999999992099 0.0
10.0 4.89999999999225 0.0
10.0 4.999999999992403 0.0
10.0 5.099999999992555 0.0
10.0 5.199999999992706 0.0
10.0 5.299999999992858 0.0
10.0 5.39999999999301 0.0
10.0 5.499999999993161 0.0
10.0 5.599999999993313 0.0
10.0 5.699999999993466 0.0
10.0 5.799999999993618 0.0
10.0 5.899999999993771 0.0
10.0 5.999999999993922 0.0
10.0 6.099999999994074 0.0
10.0 6.199999999994227 0.0
10.0 6.299999999994378 0.0
10.0 6.39999999999453 0.0
10.0 6.499999999994682 0.0
10.0 6.599999999994833 0.0
10.0 6.699999999994986 0.0
10.0 6.799999999995138 0.0
10.0 6.899999999995289 0.0
10.0 6.999999999995442 0.0
10.0 7.099999999995594 0.0
10.0 7.199999999995747 0.0
10.0 7.299999999995897 0.0
10.0 7.39999999999605 0.0
10.0 7.499999999996202 0.0
10.0 7.599999999996353 0.0
10.0 7.699999999996505 0.0
10.0 7.799999999996658 0.0
10.0 7.899999999996808 0.0
10.0 7.999999999996962 0.0
10.0 8.099999999997113 0.0
10.0 8.199999999997265 0.0
10.0 8.299999999997418 0.0
10.0 8.399999999997569 0.0
10.0 8.499999999997721 0.0
10.0 8.599999999997873 0.0
10.0 8.699999999998024 0.0
10.0 8.799999999998176 0.0
10.0 8.899999999998329 0.0
10.0 8.99999999999848 0.0
10.0 9.099999999998634 0.0
10.0 9.199999999998786 0.0
10.0 9.299999999998937 0.0
10.0 9.399999999999089 0.0
10.0 9.499999999999241 0.0
10.0 9.599999999999392 0.0
10.0 9.699999999999545 0.0
10.0 9.799999999999697 0.0
10.0 9.899999999999848 0.0
9.897110148790565 10.0 0.0
9.784692609918244 10.0 0.0
9.66186512498486 10.0 0.0
9.527663687265571 10.0 0.0
9.381035096339392 10.0 0.0
9.220828555768257 10.0 0.0
9.045786767736512 10.0 0.0
8.854535961160305 10.0 0.0
8.645575169391027 10.0 0.0
8.417264413847017 10.0 0.0
8.167811885740178 10.0 0.0
7.895259826295246 10.0 0.0
7.597469242951631 10.0 0.0
7.272102969379938 10.0 0.0
6.916607540131873 10.0 0.0
6.528192895511704 10.0 0.0
6.103810708667616 10.0 0.0
5.640130319512691 10.0 0.0
5.13351278094435 10.0 0.0
4.579982132668816 10.0 0.0
3.975193910361222 10.0 0.0
3.314401822869852 10.0 0.0
2.592419885437257 10.0 0.0
1.803581725058137 10.0 0.0
0.9416964895740705 10.0 0.0
0.0 9.00010000000243 0.0
0.0 8.000200000005481 0.0
0.0 7.000300000005135 0.0
0.0 6.000400000002569 0.0
0.901790731451151 5.000409820926855 0.0
1.657200899774397 5.000334279910023 0.0
2.289991063707192 5.000271000893629 0.0
2.820065163538221 5.000217993483646 0.0
3.264096435579811 5.000173590356442 0.0
3.636051481595835 5.00013639485184 0.0
3.947629914072366 5.000105237008593 0.0
4.208632181002628 5.0000791367819 0.0
4.427267949625672 5.000057273205037 0.0
4.610414277633563 5.000038958572237 0.0
4.763831845154243 5.000023616815485 0.0
4.892346298799659 5.00001076537012 0.0
4.892346298799748 4.99998923462988 0.0
4.763831845154455 4.999976383184515 0.0
4.610414277633943 4.999961041427763 0.0
4.427267949626277 4.999942726794963 0.0
4.208632181003523 4.9999208632181 0.0
3.94762991407365 4.999894762991407 0.0
3.636051481597624 4.99986360514816 0.0
3.264096435582253 4.999826409643559 0.0
2.820065163541503 4.999782006516354 0.0
2.289991063711534 4.999728999106371 0.0
1.657200899778495 4.999665720089978 0.0
0.9017907314530094 4.999590179073145 0.0
0.0 3.999600000002013 0.0
0.0 2.999700000005187 0.0
0.0 1.99980000000512 0.0
0.0 0.9999000000025537 0.0
9.897889398521345 2.93573355845387 0.0
9.906568249974548 7.060009441434234 0.0
9.913122631074113 3.64016132281653 0.0
9.922462129543863 6.354535290629151 0.0
9.917693659967533 4.354211663134567 0.0
9.909873057440208 5.637584487339942 0.0
9.914183254994697 4.950672966925282 0.0
9.913885043715895 7.666887930262611 0.0
9.91009668007573 2.351889069770817 0.0
9.905135696074536 8.138152454502785 0.0
9.913397459621809 1.849999999997262 0.0
7.099302372137626 0.297750452375005 0.0
7.095143729410097 9.700359990366296 0.0
4.942912558701401 5.095838627899509 0.0
4.315009232304429 5.165022115481685 0.0
4.946182472483878 4.906763777264103 0.0
4.317967462990024 4.825955043772673 0.0
9.916390871492647 8.64999999999792 0.0
9.921504649680616 1.368376469890358 0.0
8.292538149791614 0.206877570318844 0.0
8.292538149793597 9.793122429681448 0.0
5.884594439766573 9.587645267048616 0.0
5.794826292691579 0.3794853783929359 0.0
9.913397459621425 9.049999999998557 0.0
9.908526577714177 0.9568239351922434 0.0
3.456851160380649 5.315740054130451 0.0
3.457889657868442 4.707121019609468 0.0
8.945214200703926 0.1503383337970344 0.0
8.950161364448409 9.8413906539257 0.0
9.913862335499305 4.055887885208452 0.0
9.916697353372683 4.650158482607802 0.0
9.919076340414442 6.049999999994006 0.0
9.906994308667635 5.25749687748192 0.0
9.917490342358025 6.655979201891897 0.0
9.915757520293784 7.343848891656911 0.0
9.910049507471042 3.363474386285078 0.0
9.914471988502868 2.647400064832979 0.0
9.91474124160965 9.337490423485129 0.0
9.916971008170838 0.6499999999994355 0.0
4.307157269264427 9.509674045029644 0.0
4.331527375865619 0.4401616696422582 0.0
9.45434939180249 9.878397030523757 0.0
9.457696120412969 0.1270877537061785 0.0
2.555070293622606 5.422044496190925 0.0
2.566232917480916 4.608001224030952 0.0
3.026511860837692 9.332320638257093 0.0
2.945561971800619 0.5895662714727601 0.0
7.7395404387124 0.2511088946967771 0.0
7.736379255744154 9.745848826372828 0.0
4.687135269408529 5.122111433928926 0.0
4.688420821504113 4.871895064967488 0.0
9.910554884115975 0.3448356354522978 0.0
9.911230082250466 9.65764729394159 0.0
9.921953841410854 6.851023993342036 0.0
9.912065178606017 5.448170483544033 0.0
9.911660025326261 3.861846960030188 0.0
9.914847467973438 3.14501593945607 0.0
9.913397459621425 5.849999999993703 0.0
9.913397459621425 7.849999999996735 0.0
9.906916878988277 2.15455769998631 0.0
9.913397459621425 8.349999999997479 0.0
9.909472363117661 1.640528221515488 0.0
9.913987325695956 1.152857110636247 0.0
9.913397459621425 8.849999999998241 0.0
0.9100099990995943 2.614215977520411 0.0
0.8395284981715456 7.451196254860987 0.0
9.723278867451556 9.898135916635193 0.0
9.723316350887044 0.09841820909386662 0.0
1.385819164827588 4.454539963646463 0.0
1.338343629665047 5.523111536005823 0.0
1.377179700550677 0.6809168304959698 0.0
1.418060461092743 9.285896715136046 0.0
9.91268220142518 0.1457914080939694 0.0
9.906737126737994 9.845745933882352 0.0
0.7108351382691361 6.537941170074089 0.0
1.527735020267026 6.915620208855231 0.0
1.630993885659103 7.838271825205868 0.0
2.232760943566823 7.370850737296832 0.0
2.243414218068206 6.688299277952821 0.0
2.779655053105118 7.021588754814074 0.0
2.80227799359795 7.632420170547022 0.0
3.282022065908813 7.305859666021318 0.0
3.327597298795347 7.857554136825748 0.0
3.743210251018715 7.549183328204379 0.0
3.716353232200752 7.062036086888612 0.0
4.111978858674101 7.27497101169417 0.0
4.104192177581432 6.879858986267289 0.0
4.436230765617037 7.045693351607117 0.0
4.430360014817357 6.703971783962796 0.0
4.732390145036301 6.849841042423394 0.0
5.056161327708878 5.095276573498806 0.0
5.111586796021131 4.999081142133581 0.0
5.169267363407189 5.09444870412406 0.0
5.223795108752053 4.996986220359468 0.0
5.281480803887719 5.092780870372803 0.0
5.335670761900611 4.994887492556936 0.0
5.393485214772442 5.090486192743301 0.0
5.447323082877892 4.992601527033996 0.0
5.505243219343024 5.087953380710069 0.0
5.558739102026105 4.990287787962959 0.0
5.616491581184779 5.085335255235766 0.0
5.669852346908056 4.9879269227514 0.0
5.727502713908907 5.082679981817038 0.0
5.780766004135139 4.988313988715834 0.0
5.838244881129535 5.080480568766611 0.0
5.891357695677371 4.986433849408193 0.0
5.948696036767613 5.077969900389505 0.0
6.001601341641615 4.981313698556656 0.0
6.058851024265095 5.074871552128682 0.0
6.111614020704875 4.978360695880202 0.0
6.168801161530775 5.072044953270978 0.0
6.221368818778567 4.975825765213497 0.0
6.278268309066882 5.066182320461055 0.0
6.330814273567539 4.972837984645718 0.0
6.387565032421376 5.062889771971895 0.0
6.437476667631405 4.971693683589553 0.0
6.496181111585419 5.060210690175857 0.0
6.539454812256072 4.964658165361536 0.0
6.604198202576491 5.056387520850258 0.0
6.648506025747331 4.939374587506267 0.0
6.714026758992516 5.05873885840664 0.0
6.764418045981209 4.959246676066148 0.0
6.8219334571197 5.055299567406268 0.0
6.873708540948134 4.960426349093742 0.0
6.930181428849307 5.053461390218819 0.0
6.981893615341967 4.96435459462232 0.0
7.037791764774784 5.051219747103022 0.0
7.090993561518408 4.96392420322464 0.0
5.504417457283294 4.900897920552702 0.0
7.145434864123609 5.048960634292441 0.0
6.054532384032612 4.883956083938546 0.0
6.738027949040956 4.850032323068674 0.0
7.198432914526514 4.956325226333323 0.0
7.252637187936749 5.046012229327236 0.0
7.30926729605109 4.948903216650376 0.0
7.248106275544042 4.860306312845646 0.0
7.363100274863074 4.849952416808486 0.0
7.365733472701664 5.039519554615095 0.0
7.308483293090149 5.137557220352172 0.0
6.768399513646964 5.145609705119954 0.0
7.422800035311104 5.132251445551834 0.0
7.358273518796229 5.235980394389298 0.0
7.480824155801127 5.227946127939927 0.0
7.302193400058628 4.761917474298247 0.0
7.413570879789824 4.754555110721153 0.0
7.414392998903179 5.334729114426734 0.0
7.352769630272076 4.660405502266205 0.0
7.467556835255426 4.658352623795039 0.0
7.536246869015014 5.328986926716081 0.0
7.478865844607288 5.432598185493195 0.0
7.406396991826072 4.556956233957538 0.0
7.523581002009154 4.552005631348623 0.0
7.597792398573263 5.429506106314967 0.0
7.540511043402902 5.53619421580439 0.0
7.46214474876342 4.452580994318881 0.0
7.5852185078634 4.446021810672608 0.0
7.663329342323453 5.533453399066901 0.0
7.603478967594521 5.643227430483237 0.0
7.513450346818673 4.347641323140766 0.0
7.640744971722214 4.333388343316237 0.0
7.727671715775243 5.642390483050116 0.0
7.667774597993788 5.753188858425915 0.0
7.570065256728661 4.230515669344811 0.0
7.702881065467917 4.218307808529532 0.0
7.638288257073729 4.107994211855027 0.0
7.493362356301017 4.120843902105771 0.0
7.779018500630071 5.521233457321821 0.0
7.794641287388929 5.752364621610818 0.0
7.73369774483611 5.865894287356292 0.0
7.600834531784728 5.867752110500446 0.0
6.233038857278689 5.15645045634683 0.0
7.669727996028819 5.985665563643058 0.0
7.528582452554481 5.987393423295551 0.0
7.598722674572824 6.11001923494443 0.0
7.778305000222867 4.104318908265786 0.0
7.704329019832056 3.987744174608892 0.0
7.838453459801382 4.213322728668484 0.0
7.864495721576461 5.862306066517277 0.0
7.846552353360407 3.98481756181946 0.0
7.769730409703277 3.86544808681145 0.0
5.785249360396857 5.177248808588045 0.0
7.908837087876153 3.861484036275285 0.0
7.834824606222196 3.740586825753288 0.0
7.97685993406276 3.736209527152902 0.0
7.89665098770825 3.615501862931453 0.0
7.753228010315262 3.617800245018972 0.0
7.826063013090472 3.483173292579822 0.0
7.66789744383048 3.48859328808356 0.0
8.042515855796823 3.595394268381807 0.0
7.75200750488492 3.341279823834038 0.0
7.582870318332553 3.346584916806707 0.0
8.120807847415062 3.732493963388337 0.0
8.189783970303546 3.61159165475499 0.0
7.657801000286734 3.200439907646711 0.0
7.486781956172036 3.201402473247712 0.0
7.452595103886905 6.11418616185016 0.0
7.527098033550077 6.243191052852112 0.0
8.260502906807751 3.728437634721859 0.0
8.327629317451398 3.608173631356984 0.0
7.372763970891452 6.247552889754036 0.0
7.456170570815929 6.384992468962936 0.0
7.621837793616884 6.376077080857113 0.0
7.548039512904141 6.520750676893614 0.0
7.717475944451644 6.514856553988943 0.0
7.636658166268699 6.661648164052906 0.0
7.807468267259438 6.664076174524672 0.0
7.718022764310774 6.817938967122142 0.0
7.887785766941087 6.807440365887151 0.0
7.545993589083432 6.815070675854734 0.0
7.809874785067209 6.967537287475282 0.0
7.975643812145337 6.948729406725126 0.0
8.396477808021062 3.725446935061211 0.0
7.565651643157136 3.044354774611752 0.0
7.384328725505071 3.043048915147076 0.0
8.056405351948353 6.802790889114673 0.0
8.14128318237188 6.940027831915737 0.0
8.064621760266059 7.086348792208953 0.0
8.225003598857908 6.805225152373254 0.0
8.463085452993242 3.606998510553562 0.0
8.230426869720718 7.079551841000411 0.0
8.155262284174286 7.224761758176069 0.0
8.530696760758996 3.721683301125054 0.0
8.596669886994064 3.604516769862316 0.0
8.528531058025589 3.490411531312337 0.0
8.320451770844851 7.218191678954744 0.0
8.245273958732774 7.363444652121271 0.0
8.66324687389452 3.717094013035765 0.0
8.600103125209296 3.831913857228569 0.0
8.662131102573216 3.488322280861316 0.0
8.594166125380536 3.374071873435548 0.0
8.411074336066186 7.353871649576861 0.0
8.339644223432472 7.505172120620427 0.0
8.165883718619623 7.513159193685373 0.0
8.483453820080417 7.2082285366806 0.0
8.261200365730348 7.657400951288149 0.0
8.081570576666843 7.670933304838066 0.0
7.471613195794025 2.872548423100142 0.0
7.268733678357991 2.881209199257603 0.0
7.184255506995786 3.084448584600423 0.0
7.065899603697895 2.883902449336828 0.0
6.960163891183182 3.081014635802978 0.0
6.847612128388715 2.885646860602812 0.0
6.739800729737967 3.078895733381448 0.0
8.729373804596847 3.827689165637365 0.0
8.668550856907444 3.938702277545298 0.0
8.72770789162863 3.371798381178293 0.0
8.659764090070603 3.257493349874974 0.0
8.436453928793245 7.648724489148887 0.0
6.619080287792762 2.90880017416788 0.0
6.511740956842646 3.09340654756684 0.0
8.793527829963288 3.935174834810256 0.0
8.736430500996828 4.042719556852617 0.0
7.631260330584174 4.565300771328012 0.0
8.359058396840432 7.801678182761817 0.0
5.339436215072359 5.184870243702279 0.0
4.994031736761993 5.193306795607908 0.0
6.383387675268097 4.87760645722207 0.0
7.29117392392962 6.382172868329505 0.0
6.378196825372041 2.907113079755629 0.0
6.269817199014261 3.12412150658573 0.0
8.793149127377946 3.255386294257182 0.0
8.725774239201558 3.141596687892195 0.0
8.857434600673502 4.041295940541356 0.0
8.802868937128341 4.1471119953668 0.0
8.532045262478793 7.7905977476835 0.0
7.364542641624493 2.699128473342751 0.0
7.571677611088925 2.695732556686516 0.0
6.723058333614999 2.672341359410618 0.0
8.456744924757372 7.94483904450548 0.0
6.140831279784704 2.921247401137864 0.0
6.02419219050745 3.14358702955763 0.0
8.916255604212301 3.934279868822481 0.0
8.859287250884009 3.140226640574265 0.0
8.791092798057303 3.025929352146465 0.0
7.210445465986021 6.245773134960393 0.0
7.120884161792869 6.385155584680196 0.0
7.036931702064287 6.240721609143972 0.0
6.943722280007011 6.3869279517155 0.0
8.920094519678617 4.144837222494242 0.0
8.864374107136287 4.250930406527029 0.0
7.347569838739255 4.463467417508182 0.0
5.90383431757064 2.935113219563906 0.0
5.783476009580765 3.156456199832474 0.0
8.626013191558314 7.935092223505354 0.0
8.687240186957197 7.796697889991163 0.0
5.642059327424706 2.903018174330269 0.0
5.52647853955939 3.162549070310043 0.0
8.555300051897738 8.086169516016518 0.0
8.405624441178524 8.083972416481254 0.0
5.374124307190728 2.945480555950917 0.0
8.935805220807357 3.249260758206028 0.0
8.981625171409894 4.247375537584228 0.0
8.924725364486765 4.352101286657735 0.0
8.807208588134106 4.356163101450244 0.0
8.868277832430604 4.45657124153171 0.0
8.75099635287701 4.460644845248524 0.0
8.812385950597063 4.560891222623518 0.0
8.693833206943118 4.564602972998703 0.0
8.756474732548273 4.665720853686476 0.0
8.63721608225855 4.669394550615355 0.0
8.700108119351134 4.770682016274914 0.0
8.81920502916846 4.767536120893284 0.0
8.76355311338807 4.871451945248518 0.0
8.881442328033694 4.868382238751069 0.0
8.826433523510634 4.97132552240372 0.0
8.943387824985514 4.967694248194483 0.0
8.888718468126953 5.071044784833541 0.0
8.580377663835254 4.774669738817985 0.0
8.770572242937233 5.073880380431421 0.0
8.832915096600454 5.174518948293615 0.0
8.952224483821848 5.170970838320107 0.0
8.897282771771884 5.275476392171722 0.0
7.463928467290875 2.513944501591933 0.0
7.675935950092034 2.509420347143072 0.0
8.924252417741767 3.024418701372628 0.0
8.857265893102921 2.911213535286156 0.0
8.776981063213334 5.27944309004916 0.0
8.840710910770163 5.380165700477552 0.0
8.960876896785969 5.375521424256389 0.0
8.904555918255223 5.482125846038813 0.0
7.567193097677677 2.32750151280277 0.0
7.780880844888839 2.323064027160363 0.0
6.851602118390116 6.234522818184622 0.0
6.758680682687229 6.389359516748128 0.0
6.66345977321418 6.231254850996584 0.0
8.715764716958308 8.079994249772627 0.0
8.65189989696114 8.227534663647639 0.0
9.042229096541828 4.348551764001607 0.0
6.436774206993324 3.316782326998922 0.0
7.590527613340588 5.22651784724799 0.0
9.024366884701616 5.476726561488805 0.0
8.968734351641839 5.583879050892151 0.0
8.845941080047659 5.586406316932274 0.0
8.909881305857882 5.690482454668167 0.0
7.348726871578975 5.44047403999932 0.0
6.567070253986433 6.398115757512583 0.0
6.697077150072261 6.553426749743366 0.0
5.252377383990728 3.187782967482479 0.0
8.988440431820699 2.908621158637298 0.0
8.922541972760119 2.796420836075996 0.0
6.466806010659505 6.229115583261771 0.0
9.033851153821296 5.686506775615425 0.0
8.978340519963718 5.795772485582058 0.0
8.85111463793018 5.798672910287243 0.0
8.922171984280597 5.907237880910408 0.0
8.795190680908043 5.911854068712683 0.0
8.864373398892472 6.019728357749566 0.0
8.991346995940626 6.014539153309398 0.0
8.93374019140187 6.12698887312768 0.0
5.095192648098848 2.952353430985476 0.0
7.672651464908932 2.141715359830917 0.0
7.886266921042761 2.136211284120189 0.0
9.098474286589756 4.245971410451114 0.0
8.813172564986438 8.216887361735234 0.0
8.74802978243154 8.366104673219047 0.0
9.059985162956899 6.120982589539211 0.0
9.00342813739303 6.233245043891739 0.0
4.961413514304496 3.214209167276753 0.0
9.05248113004685 2.794651022570942 0.0
8.986028039118027 2.681341972594222 0.0
5.671890458441996 3.377122473800023 0.0
4.755829262593116 7.184480462344647 0.0
9.158258644940048 4.34465968221255 0.0
4.799687186662534 2.961354824469195 0.0
6.030554747591715 2.726787502996874 0.0
8.938327180212585 8.34758372042188 0.0
8.847392320655468 8.503370672816716 0.0
8.67342124373679 8.518117686968314 0.0
5.234423106934083 2.694925204361751 0.0
8.964923046453565 8.185313058214797 0.0
7.456650986668838 2.134076476407834 0.0
9.111732084821366 2.897226832609386 0.0
6.368055837513985 6.402805870976705 0.0
6.265629899005033 6.226581076317183 0.0
8.736327196352686 6.026404178766982 0.0
9.117473097358854 2.67987006607594 0.0
9.052137415465204 2.565428515518978 0.0
7.781001557847192 1.955874236406257 0.0
7.992134447300669 1.949184538864554 0.0
8.593074792993455 3.143159483125708 0.0
9.1291360203536 6.226877897052981 0.0
9.072154326613617 6.338696745620542 0.0
8.916532550320525 2.566986282201109 0.0
8.984021113721658 2.449252898983242 0.0
9.178032243215632 6.120533546076094 0.0
9.213703592343162 4.244823670856978 0.0
9.11972142641474 2.449071238668887 0.0
9.052853896812186 2.33190758581705 0.0
8.635035926402708 4.462329956179506 0.0
8.773614475966344 8.657865377672689 0.0
8.596400917257634 8.67759750279447 0.0
8.942023339420883 8.644678093589654 0.0
9.19471670675691 6.33096438039349 0.0
9.138460613363325 6.443043552768813 0.0
8.66620319432524 5.916297234509582 0.0
8.606669825267202 6.032658196729024 0.0
9.27222540210304 4.341341907533128 0.0
9.013782808177437 6.451040569407859 0.0
9.08360982569773 6.55729980456602 0.0
7.885622149776354 1.768093045890686 0.0
8.095672144455353 1.768790621151345 0.0
9.208772072925791 6.549717411809656 0.0
9.154272208194383 6.662613503537815 0.0
9.187669783927937 2.334640996932141 0.0
9.122379015831417 2.215832190697178 0.0
6.164077036161143 6.404611236428829 0.0
6.062367614988677 6.224307160647549 0.0
8.987075041759633 2.211477580983978 0.0
9.056972755801603 2.093573581203428 0.0
9.194557288902232 2.096029761809264 0.0
9.131223008370409 1.972713028695079 0.0
8.87381302587057 8.795793668920256 0.0
9.039169086943392 8.781606667490083 0.0
4.662813350519927 3.228118291851354 0.0
4.474181267994617 2.945703616023359 0.0
6.562627723301209 6.075544382232434 0.0
9.326886053211574 4.243083624343211 0.0
9.280374192897945 6.656072830232892 0.0
9.224718905178564 6.766740750539347 0.0
4.703284910421452 6.528907865005451 0.0
8.955136474970331 6.565989985649191 0.0
8.998148826814893 4.865480736169776 0.0
8.99429836796776 1.965972383552685 0.0
9.065669391141741 1.847195105148808 0.0
9.207236162050343 1.853010386995843 0.0
9.143218073349985 1.725630086781897 0.0
8.998867447699345 1.719378449325465 0.0
9.082595782768397 1.592017827427701 0.0
8.92804562738841 1.585238202229766 0.0
9.01637794607019 1.453847302675876 0.0
8.854253119154375 1.446306868730686 0.0
8.941620273019874 1.320083886766936 0.0
8.775393064215876 1.308487027359826 0.0
9.102170347200483 1.324733726345249 0.0
9.013857060361985 1.178821526410403 0.0
7.991031819452564 1.587689878441685 0.0
7.767218744640202 1.595993197647291 0.0
9.191539171305216 1.194087248761656 0.0
9.123965901037613 1.057102462689568 0.0
4.853921953226772 3.470213116851758 0.0
7.496563223334782 3.470157221608763 0.0
8.536691379028115 5.921845852206257 0.0
8.475496498707471 6.037633662010236 0.0
7.978668526342969 2.307231488316941 0.0
9.384721922092124 4.337357165846226 0.0
9.331039180200886 4.435926256444196 0.0
8.546261775564837 6.150267290476958 0.0
8.411727261785726 6.155319300628062 0.0
8.972203609044218 8.930944433074036 0.0
9.133480321468399 8.90955269607895 0.0
9.197778815538276 8.768743880012563 0.0
6.162231825784922 6.05277753404107 0.0
5.962111081146334 6.046949845237622 0.0
9.268727788642101 4.146883230687689 0.0
9.380694211527906 4.144811697563401 0.0
9.323823335199954 4.049557759546529 0.0
9.283324894520613 1.736313094621396 0.0
5.858151623803662 6.22041808248046 0.0
5.759668475561988 6.038806123495502 0.0
7.836860473863919 3.191674397465999 0.0
9.348591928839294 6.75855034547469 0.0
9.293979592221298 6.870213350675044 0.0
9.170543172728557 6.879819332293818 0.0
9.240028263813034 6.983394994050525 0.0
4.347372565145963 3.312731475520695 0.0
4.114183445909965 2.96879678229065 0.0
8.616264880152233 4.042035981070631 0.0
9.403174760076901 6.650407069150438 0.0
4.173860112179449 7.723461240865885 0.0
9.365302975518428 6.973476802087294 0.0
9.312420275675276 7.088420778208979 0.0
9.184876614539778 7.0978133687822 0.0
9.25921281729617 7.204979813006656 0.0
9.12816413817609 7.21569648263899 0.0
9.203944409919862 7.322703303071253 0.0
9.334311975087337 7.311477957762272 0.0
9.280415785210538 7.428795599957155 0.0
9.274060219641907 1.066603180421249 0.0
9.211820491509728 0.9316562593680151 0.0
9.050684011148748 0.9017681241401576 0.0
9.441953732403995 4.432092590771756 0.0
9.394725873909666 4.526051349391942 0.0
9.43453556160865 4.048003950509361 0.0
9.378043599351757 3.952631412328806 0.0
9.289691247910705 8.890746792319852 0.0
9.228148443138926 9.030109127390128 0.0
4.440757888677695 6.389562448928118 0.0
4.689874463978985 6.239329075084555 0.0
4.291519540095677 2.622920583112654 0.0
3.886073352912894 2.632778677714434 0.0
9.344015622314338 1.202401041544343 0.0
8.193292196814806 3.849649660906171 0.0
6.960946604527747 6.07044529864598 0.0
9.347708267319902 8.756364147482309 0.0
6.826423138602714 3.261415861395883 0.0
6.06309517882478 5.884563187328262 0.0
9.4085057714426 7.414123963607981 0.0
9.356416821537886 7.532359471354527 0.0
5.042074134251055 6.938947182785697 0.0
5.063988238156824 7.311205832605263 0.0
3.946666851334923 3.30681624613374 0.0
8.189857914071878 1.939951128540477 0.0
7.880690277686857 1.38928908049477 0.0
7.63766396748483 1.399736360041063 0.0
9.345004233592562 1.857695941115052 0.0
9.440465164139875 7.085860901905448 0.0
7.918332480761888 5.744468010879592 0.0
9.08007135068879 5.372457017512481 0.0
8.78639561093144 3.718391405525285 0.0
9.356843485085705 0.9414458825132457 0.0
9.29705128845331 0.8103081541678832 0.0
9.251825423225316 2.451701826351773 0.0
8.483895366325516 6.270717564685176 0.0
8.346386886249478 6.275973306650227 0.0
9.493299170161215 4.138582531223591 0.0
5.321115649032961 7.117073603021904 0.0
5.354076009109965 7.436189411362466 0.0
5.597984079819928 7.254284331170681 0.0
5.644042313435943 7.564172740776336 0.0
5.383963016128051 7.753854027984002 0.0
5.681168258142109 7.880444993178456 0.0
5.935548099874979 7.687258900444162 0.0
5.979508404301389 7.994332725561488 0.0
6.21936843555201 7.802335560754011 0.0
6.267092590637372 8.104873033518185 0.0
6.498845418385807 7.917606504106031 0.0
6.544600005636809 8.209910620392591 0.0
6.77336078689533 8.027284686082275 0.0
6.814840179123049 8.311778392637773 0.0
6.721304148677048 7.737863326704131 0.0
7.031320924898797 8.1335673274533 0.0
7.077388928622946 8.403901803728003 0.0
5.417471987089176 8.090112295667405 0.0
8.845427688507666 2.446352368201366 0.0
9.318512319918124 2.339233739859646 0.0
9.380241452597096 2.451895615249572 0.0
7.283805558009199 8.237518806365102 0.0
7.329200330160381 8.497045124353782 0.0
7.233272584416691 7.991590926766813 0.0
9.142592248414191 5.471315142785471 0.0
9.196303265878848 5.36738298742727 0.0
9.25795832955665 5.465260877691205 0.0
9.310581303233182 5.36341558704714 0.0
9.371094700882272 5.459458038195667 0.0
9.422767107822985 5.360687090455724 0.0
9.36402660964156 5.264821436196721 0.0
9.474220736978928 5.262802348886269 0.0
9.41680330511366 5.169477108906666 0.0
5.168675939028436 4.895496152382537 0.0
9.482591449057548 5.454699312257291 0.0
9.431567605310825 5.552723344040521 0.0
7.531449703396948 4.741663470323411 0.0
8.517293123442691 4.672601123164268 0.0
8.459978676626639 4.778466809901586 0.0
8.396595115309985 4.67568709170855 0.0
8.338966609235166 4.782101664607259 0.0
8.275355646032752 4.678829956447008 0.0
8.217675280223542 4.785699596769931 0.0
8.28149024865807 4.888803783902183 0.0
8.16019781596952 4.892696417098926 0.0
8.22433278506531 4.995725219088695 0.0
8.102825704443651 4.999629142625341 0.0
8.166887930010795 5.098242831115916 0.0
8.034904900788316 4.896825406879729 0.0
8.15353539905931 4.682103688185489 0.0
8.211891449058882 4.574219757233394 0.0
8.290305306104333 5.094007100958221 0.0
8.225684228618732 5.201525567655179 0.0
9.444618942559746 2.343141375196729 0.0
6.929446520625337 4.868116916840016 0.0
5.737810725167649 4.893891407574175 0.0
8.720389971487277 5.38508368411851 0.0
8.805734920311323 8.951818172412821 0.0
8.905272694453211 9.083303226359831 0.0
6.006155038818204 5.171375272745409 0.0
6.431496448228514 5.152985998213245 0.0
9.052675024457304 7.106590131831544 0.0
7.740007013494393 6.09727525827826 0.0
9.375852260355511 9.013078430361404 0.0
9.32035844773103 9.14584923943073 0.0
6.989707597683965 5.146377438798643 0.0
9.488190206836386 3.951168069367155 0.0
9.432429152094464 3.855725756072153 0.0
5.568386402814275 5.185723849666124 0.0
9.525561551078322 5.166162126187324 0.0
9.465026391994275 5.072601962964018 0.0
9.320357339516937 3.857795423728873 0.0
9.375955927831914 3.759314274140895 0.0
9.261783786753899 3.761412578759438 0.0
9.31820665563318 3.661845422072752 0.0
9.431798673168924 3.660830894813109 0.0
9.374584413615914 3.563138564686839 0.0
9.48759661134647 3.562294297118573 0.0
9.431339678707085 3.464016717943268 0.0
9.417896212887529 1.746970678437863 0.0
8.731705369070733 9.110902182838881 0.0
5.652297951447118 6.21188565774667 0.0
5.569122518069258 6.024400786163834 0.0
8.257007204149394 3.505875091031567 0.0
8.717428603143034 2.925525757227976 0.0
6.882852832747376 8.57686572931064 0.0
6.337330066435714 8.416819098143066 0.0
9.50188906539997 4.521022403818629 0.0
9.453500859905136 4.617181635748691 0.0
9.46806769570129 6.749352117850711 0.0
8.836822104875719 1.72282859852854 0.0
7.481071063421426 5.64593758994851 0.0
5.668814988976305 5.86611128457842 0.0
5.487644760735084 5.847591822776978 0.0
8.993992818065195 7.228173913870249 0.0
7.98322414937693 7.229980191466666 0.0
9.22810751684646 7.54864871395298 0.0
9.304103360459063 7.654622011545798 0.0
9.432787371848761 7.633691049023619 0.0
9.382619818023882 7.759136995934441 0.0
7.239096822516492 4.679179578301165 0.0
9.47692479956498 1.861231395362419 0.0
8.041243110813022 5.095895152648969 0.0
6.190208781188077 7.509864122823853 0.0
9.283062812782122 4.549418667685757 0.0
9.503847665760087 2.450295046295932 0.0
9.443345385250678 2.557904120404248 0.0
9.52009568463353 6.644015937008899 0.0
9.203119005973903 3.662458522935253 0.0
8.406198651282708 5.92630414760378 0.0
8.467263597743843 5.811987729136874 0.0
9.461423029059445 9.128120577356565 0.0
9.408445330070542 9.26024300250086 0.0
9.266505293379728 9.277952925446408 0.0
4.14874709022218 3.631681332690154 0.0
9.437448107949258 0.8198473430736303 0.0
9.376993771693973 0.6910550697058979 0.0
9.22882356848217 0.6931820370818127 0.0
4.451823867195988 6.103664366188579 0.0
4.200031743909027 6.232039028149317 0.0
4.687154754667774 5.975132870483986 0.0
6.268889397098538 6.592235545990395 0.0
7.509366161722768 8.340075462391164 0.0
7.564775703413765 8.59800936579159 0.0
9.542148732924264 3.854614593058991 0.0
7.036231103929761 6.550562550831048 0.0
4.089373665437328 2.268193930262139 0.0
3.642558884866483 2.250386188148396 0.0
3.442182385618804 2.651948803899947 0.0
3.146832503011753 2.222630466765926 0.0
2.948870467975985 2.805088883766417 0.0
9.352005315330274 5.067356449300542 0.0
9.31729677031493 3.462944187594675 0.0
9.37428383619102 3.365546369736205 0.0
9.4883538239391 3.365384871181599 0.0
9.432147665178338 3.267287636377487 0.0
9.25034519267688 7.775848812012313 0.0
9.332091350002502 7.881724023243533 0.0
9.462101000264603 7.86490055671988 0.0
9.413353271651825 7.98561007219363 0.0
8.273592814723814 6.158623919352561 0.0
8.207135014732339 6.280394934566054 0.0
9.541483811580331 5.548224291759592 0.0
9.491365919893726 5.644847811894615 0.0
8.088095771120983 4.577581369371366 0.0
8.14760102783746 4.468303741922308 0.0
9.556217963323956 4.414867468889523 0.0
9.543667331547693 3.266908751519594 0.0
9.489307652535885 3.169908976697059 0.0
9.26285575842982 8.635341362685686 0.0
9.403220742003983 8.621447866627538 0.0
9.326013417886902 8.506778946171965 0.0
9.455477927154853 8.503896705359047 0.0
9.566646674069602 4.611465258087684 0.0
9.499341049870914 0.9352184973273918 0.0
8.683891958597638 1.444705608998412 0.0
8.599973456173778 1.287265568270043 0.0
7.760988189317371 1.175381292562583 0.0
7.50927661322749 1.171223823957793 0.0
7.380927152434357 1.411062577009695 0.0
7.242417847270241 1.170759311509981 0.0
7.107236746116019 1.421234419770886 0.0
6.960799033544566 1.169618322344823 0.0
6.817786081200392 1.434174581170586 0.0
9.48095050141868 8.738557748483624 0.0
9.319762046171894 3.263060331456388 0.0
8.920653400180534 7.117307656029475 0.0
9.452431221190624 6.544166520883111 0.0
9.571407933653493 6.540336592280795 0.0
9.507586285214174 6.443281357841339 0.0
9.575252974749443 5.070210512157044 0.0
5.755172844377253 6.370710487467459 0.0
9.541351959064952 7.969072511059531 0.0
9.354607289792183 9.3921968735401 0.0
9.495213435762107 9.37218405175897 0.0
3.77688136092967 3.643094492921176 0.0
5.460967180339239 6.159077196937325 0.0
8.656589552918996 5.283032675040985 0.0
8.599307076390474 5.387421722684671 0.0
9.584017606465821 5.263931993965828 0.0
9.51536593891754 4.977534386249715 0.0
7.788544970111893 2.70578432810479 0.0
7.381746833264364 8.755477463411431 0.0
7.615969996822885 8.852710176548548 0.0
7.783643411970649 8.691528137204457 0.0
7.845017394185501 8.938777577473743 0.0
8.570520580943368 7.342304222498308 0.0
9.103648004226827 5.781084627507008 0.0
8.338082930126799 5.815990105349368 0.0
8.930848895071895 4.561111316304916 0.0
7.381089602119859 5.983657236035151 0.0
8.42066837692862 6.393608568217351 0.0
8.888256157021065 6.459558428285236 0.0
8.826495664731354 6.575679897210801 0.0
4.22522220414496 5.921354747981145 0.0
3.943296448343383 6.075578573904587 0.0
9.563175937841836 2.554860696349795 0.0
9.505342423182917 2.656889632284623 0.0
6.660863480070611 1.168750929063519 0.0
6.518316961679488 1.436478598119306 0.0
6.683474168246802 1.694104067636375 0.0
6.376799057174731 1.707382100972048 0.0
6.205091481342603 1.443621641108414 0.0
6.058670988071357 1.728841803855816 0.0
5.877457486049096 1.454297236926778 0.0
5.724979192982589 1.756666409586195 0.0
5.529885788012015 1.462283739157555 0.0
9.514953777019835 0.7018468683209754 0.0
8.398665270372675 5.702731562702358 0.0
9.456442249775696 0.5772068858285652 0.0
9.565795671866349 2.345573662774494 0.0
8.830758563027459 9.247271599108435 0.0
8.523580738257648 4.88015211128435 0.0
5.580123316488715 5.701889892660689 0.0
5.398591029446707 5.685938459654249 0.0
5.367686360823392 1.778740548277203 0.0
9.546603444041448 1.754984055696778 0.0
9.489649223089446 1.641312329051244 0.0
9.617973952467912 3.363804764345866 0.0
9.584322830999731 6.729956156156573 0.0
9.597221861144487 3.948534024289882 0.0
9.49401963819799 8.089507968561776 0.0
9.207321074262563 9.416906871900888 0.0
8.27185428346661 4.464932191097996 0.0
8.207416067213774 4.35878753684812 0.0
8.332747746635944 4.354903699457511 0.0
3.990181919126853 3.930792395858886 0.0
8.267392138262498 4.254008221702929 0.0
7.997788712685495 1.196805377512679 0.0
9.600316638269724 5.639973985281733 0.0
9.550939606739425 5.737313319038155 0.0
9.44084303195315 5.74233753256161 0.0
9.50112296154558 5.834555019909565 0.0
8.897429225733994 6.685415510921676 0.0
8.762930941408914 6.695907295903629 0.0
8.654628175336732 9.278157371342388 0.0
8.544676900803436 9.133790942553834 0.0
5.294904777716057 5.855935872688884 0.0
5.216749389964556 5.66865685845661 0.0
9.508453581298625 2.239460033375932 0.0
9.599691370793206 3.169496930704394 0.0
9.546615051106684 3.073514534194011 0.0
7.484714626923596 5.028675123117963 0.0
9.588496050271255 7.850836295555126 0.0
5.153197381012662 1.471340286561097 0.0
9.433168304679345 3.071871997104804 0.0
9.610464706874994 5.829217654498672 0.0
9.561407772947403 5.926179534044419 0.0
8.273381980676042 5.705233340662362 0.0
8.330794188929296 5.594351887246082 0.0
8.207319603076424 5.596747949305344 0.0
7.251338559467102 5.233758892662348 0.0
8.708518799790543 1.130513882092466 0.0
9.590155250193266 0.5878623138195824 0.0
9.389919385420015 5.841079912164009 0.0
7.991397852194216 5.859910582924319 0.0
9.624951589233206 4.975554514425905 0.0
7.240016788025947 2.531866266726309 0.0
7.635666783493215 3.873554782053258 0.0
9.608476620993713 1.863530872936442 0.0
9.365330459496413 8.10677840682376 0.0
8.775076110585598 2.572737931759856 0.0
8.699389445914996 2.444602334375113 0.0
8.625078713232146 2.580891022578613 0.0
8.54447196848446 2.447624719286678 0.0
8.468898498943965 2.586757328881282 0.0
8.62282309213608 2.307826916202421 0.0
9.622102662978762 6.439307895185218 0.0
9.561995355724862 6.35103962032292 0.0
3.898245450818314 1.856155797593496 0.0
9.681759177700954 5.07069253017652 0.0
9.059254996454502 4.963357716933865 0.0
9.113144532326562 4.861710138088372 0.0
9.62140874877204 2.656009146517733 0.0
7.884510615470827 0.9666888912541309 0.0
8.14902661050739 1.005010215149227 0.0
8.491263206618079 8.527197931363634 0.0
8.408859203395778 8.697060715788105 0.0
6.54422152733529 1.954566069381189 0.0
9.563546573097593 2.755667904356369 0.0
9.453065492925557 2.761122255953964 0.0
9.676889098520615 2.755084315170127 0.0
9.678287124781653 2.556838324720633 0.0
2.60254317790297 2.278874965850319 0.0
9.211706272534968 4.050470567310489 0.0
8.526711683538949 5.698821878547752 0.0
8.296604023060945 8.533761944401608 0.0
9.649704314258118 5.543946557831669 0.0
9.651176136337964 3.85122804518279 0.0
9.44590154800397 9.498503704959054 0.0
9.580491248736612 9.476376347552954 0.0
4.3239388803087 3.921156392977062 0.0
9.65737873521736 3.075324100817917 0.0
8.128000846282253 6.160273991836929 0.0
8.06242981852327 6.292371360998262 0.0
8.500465019503922 1.442700595221201 0.0
9.615253212967009 1.649819368149096 0.0
9.561768620580791 1.538553925606111 0.0
9.435477757657937 1.527391516499924 0.0
9.627993450010088 2.242685831452484 0.0
9.5338252733548 0.4673994795805215 0.0
9.398055066504014 0.4589059948533885 0.0
9.669486082509058 5.920177035588319 0.0
9.621072177439727 6.016493814615133 0.0
9.506185962103057 6.018397021409126 0.0
9.196884440497488 7.898824858961557 0.0
9.112591143666748 7.789491461180181 0.0
9.664357762385308 7.950712034233033 0.0
8.46233617997115 2.308903464128035 0.0
8.547917980328803 2.169381684694277 0.0
8.139931430059324 6.410762600521521 0.0
7.672499127532963 9.099143622036436 0.0
7.91372855627271 9.178704612763656 0.0
8.463425076318451 9.290653726808348 0.0
9.643938029094286 9.335632419679458 0.0
9.647017668702574 0.7068996148634754 0.0
6.241662276606473 5.884018212993202 0.0
6.157742245066693 5.73500474100449 0.0
6.318815619949124 5.730068085823802 0.0
6.247706374231452 5.593094310939028 0.0
6.406948541886973 5.593272398468375 0.0
6.092564106310554 5.587409338401505 0.0
8.535507922245372 5.286142900439676 0.0
8.022959839404006 4.471630490587016 0.0
7.963561162854596 4.581393556789843 0.0
9.683487139413305 1.546750704925431 0.0
9.630761777960082 1.435922217091829 0.0
5.121714348989337 7.950140247572198 0.0
5.136464096196084 8.310254432483559 0.0
5.47349124035624 8.455234262268478 0.0
5.176273618280354 8.687190323573228 0.0
4.796664658962938 8.592678692862421 0.0
9.568705729418735 4.887269869750176 0.0
9.462711651199594 4.88832222094458 0.0
9.674903475028225 4.882285174433025 0.0
5.4996067353406 5.546583260717527 0.0
5.663632234555963 5.557613452957074 0.0
6.829408195405585 1.947174574944512 0.0
5.336529198289861 1.127585641139875 0.0
9.672387559812332 6.34138351957329 0.0
4.463988917379896 2.271060678869338 0.0
8.618048281355405 6.263841736419089 0.0
6.480949808711781 5.74815588680617 0.0
6.562207427719153 5.592185077216444 0.0
6.643040463857446 5.721233693378952 0.0
6.712825900331884 5.588664360236 0.0
6.79240375630333 5.711383948285569 0.0
6.86115931532141 5.584697050428064 0.0
6.939210100691576 5.704407337029545 0.0
7.007668476576536 5.580801046893123 0.0
7.084627386867475 5.702817970154801 0.0
6.633257976075473 5.460881327825488 0.0
6.931430743764456 5.461960451448691 0.0
9.682652370938209 6.533133024505995 0.0
8.761108695241376 9.450742747770144 0.0
9.146031326900015 3.764292700000154 0.0
9.089378801805193 3.661317181076136 0.0
9.514354521818781 8.994988681611192 0.0
8.157650730500988 4.262987189670279 0.0
6.329633198899328 5.4647789391701 0.0
2.340685767996258 2.811285337457589 0.0
7.379572471323651 0.9290892725587991 0.0
4.171878172186605 4.222320767259098 0.0
4.4876601621649 4.16473354200826 0.0
5.336389369563535 6.806464508860387 0.0
9.595468321212476 9.108133206829102 0.0
9.645038675267227 8.982113951305912 0.0
8.393140678816192 4.246338342095281 0.0
8.309440721624494 4.155300532283633 0.0
9.418269339704423 1.9925512363779 0.0
9.662781807969623 0.477809346089035 0.0
8.011297869803792 0.7518828483803571 0.0
8.250149975885678 0.7646904662196189 0.0
9.608674873602773 0.3618049194050078 0.0
8.692696069692623 6.582927327365709 0.0
8.628225948401226 6.705702462696891 0.0
8.701883181418305 6.822086652299242 0.0
8.559276855155542 6.829564723911442 0.0
7.069268463354993 5.459534423493629 0.0
2.654575201159115 3.323490466195074 0.0
3.610801136544596 4.044075244426243 0.0
8.263757217166944 5.48730323490738 0.0
8.138838162809126 5.491254533497952 0.0
7.90196833683664 4.477386962763833 0.0
7.987943097943191 3.978756490171551 0.0
9.704623491880403 3.945605151832784 0.0
9.461009573830147 7.301728818091931 0.0
9.532468631193666 7.399916015174975 0.0
9.582688928417856 7.292330983701011 0.0
9.652579613269625 7.387768793572397 0.0
9.699264016151023 7.282867433965265 0.0
9.633305589700536 7.188543855060478 0.0
9.505576100168666 6.961225778216469 0.0
9.43876966151099 6.342441564206569 0.0
4.908483672172518 6.098703904450545 0.0
9.135448256237908 5.269827196966999 0.0
5.905650502271389 2.025036080946255 0.0
9.709890722072377 9.452748507541063 0.0
9.663337613522643 9.572126259365891 0.0
9.603900123387826 7.495180532331903 0.0
9.720147629525837 7.483400774981126 0.0
9.674588415444239 7.588303295299578 0.0
9.653186673863587 4.039274180923234 0.0
9.053164539680804 4.764545162185531 0.0
9.164908495749003 4.763017269285045 0.0
9.226019227262443 4.858029410614327 0.0
8.809947621994619 3.4964384919072 0.0
9.10538997155458 4.665865142902959 0.0
9.331074106432244 5.748993480915537 0.0
9.055854333858068 7.918554535314415 0.0
9.446431573964945 8.209836764658437 0.0
9.573844810886287 8.191100251691205 0.0
9.309704769895653 8.244395007943949 0.0
7.240329561730736 1.676197957122907 0.0
9.543389817573933 3.660019800390455 0.0
9.598599341122098 3.563130123982772 0.0
9.652615161407017 3.658119804270645 0.0
9.706336063693934 3.564815526226687 0.0
8.632284427755456 6.946688912416058 0.0
9.682863230715835 2.349655023034811 0.0
9.571538455120994 2.142369886250143 0.0
8.090821900439733 9.017409120951333 0.0
6.812258669899192 0.9007667548831626 0.0
6.50135254578461 0.8974046495177885 0.0
9.598335906230732 6.246437748035812 0.0
9.719677442549804 6.253968775436637 0.0
8.593026822691716 5.180101360605356 0.0
5.537586126848265 8.836083861509138 0.0
9.688689404995035 2.143487155934306 0.0
2.821389253975936 6.507820864074362 0.0
9.176571289960709 8.507736431357309 0.0
2.918303740542162 8.256728920338826 0.0
3.428955230180972 8.401446814887457 0.0
8.490587404589881 6.715350139132777 0.0
8.86049054904785 7.243279881821806 0.0
8.93696309213556 7.356650230611625 0.0
3.951931175165697 5.78308550088855 0.0
3.65055612573298 5.91672400098539 0.0
3.668142216548471 6.247526235973777 0.0
9.717269848920886 5.821831227352286 0.0
9.708364917734201 3.164198601626433 0.0
8.45581975650687 4.569560863828342 0.0
8.204448312099833 6.040774355519757 0.0
8.65969449127868 5.485991799508151 0.0
9.707534571012967 5.634423933296901 0.0
9.62102991883279 2.849662850313935 0.0
9.144093558002634 3.560383427867003 0.0
8.29763273805118 1.77155302934031 0.0
5.280452715709455 9.01633391004168 0.0
8.984558945859158 6.99932633710603 0.0
8.4157550875812 1.275784953143711 0.0
2.068078118650995 3.355462780535101 0.0
9.205703884756806 5.568274778556933 0.0
9.745857863753141 7.178456670302003 0.0
9.681628895748586 7.081494416756802 0.0
8.875818787971069 6.240744812097083 0.0
7.993733797566922 6.414830952863579 0.0
8.462810157069566 3.377071044664789 0.0
9.29428363519789 4.759591981903337 0.0
7.933956818298286 5.97437536746848 0.0
9.028281726378319 3.558713145763133 0.0
9.083461773461467 3.455531762175701 0.0
9.73231939683535 2.849247643393067 0.0
6.70072305037728 2.192432536215492 0.0
6.423245125077639 2.212870246546939 0.0
4.931537051605536 1.135086496804522 0.0
4.746426561586179 1.500381091957315 0.0
9.707706579932626 7.836419656220658 0.0
8.590593344701457 1.595639668013959 0.0
8.708946574109854 2.1688179918246 0.0
8.634728854549891 2.028564483452208 0.0
9.230357659411311 8.129337203173913 0.0
9.102841374461482 4.452881308250647 0.0
8.472081531214734 5.388993924853032 0.0
4.925996806199801 5.844046944846857 0.0
4.702806345752284 5.745688656289065 0.0
4.884357002239844 5.633237011762874 0.0
4.709628434300812 5.536404116679045 0.0
4.530800966746534 5.627044171217377 0.0
6.040296145349247 6.603808099703576 0.0
6.162203578696918 6.795213950202512 0.0
5.923135943221574 6.824060069869489 0.0
6.046693245732212 7.010423490915212 0.0
6.297337598588478 6.979895528204233 0.0
7.760448385794147 0.7294020304851334 0.0
8.492228348169641 6.958778476405878 0.0
2.89219822877093 1.704113597264478 0.0
2.26178643438086 1.7814602252425 0.0
9.726968895980871 6.009547057102511 0.0
6.63195110828313 0.6072886418835157 0.0
7.984023036954866 7.515675826210831 0.0
7.893857204140559 7.681876703427663 0.0
7.778465117872411 7.537836322197895 0.0
7.998204230811618 7.844922503023499 0.0
7.798554315988981 7.858161805718108 0.0
7.917846202023782 8.03040048103727 0.0
8.547520504556728 2.721261126162116 0.0
8.39253850806587 2.732073315877738 0.0
8.306047241032278 2.59069854402512 0.0
8.233011054235162 2.739783364361515 0.0
8.318836035587811 2.879838477099622 0.0
8.159530874574331 2.888511553151382 0.0
8.245490421394788 3.024568439743106 0.0
9.759103003747676 3.077839427881478 0.0
8.083610090773394 3.033523757291178 0.0
8.174562583800352 3.166768504406541 0.0
6.046769434852523 1.155662270344939 0.0
6.968371001421964 2.176347877216873 0.0
8.324858098380334 3.152966249334499 0.0
8.145556596142626 2.609897633546475 0.0
8.970652052821418 7.804556541250797 0.0
9.033737629244714 7.681328986528639 0.0
9.62347010002576 4.796939565664328 0.0
9.72520380348743 4.790261082613535 0.0
4.882631186210167 5.455006233451049 0.0
4.618356368594037 3.933076284395493 0.0
4.748083507220199 4.151025177732873 0.0
4.641724290430313 4.358202249373887 0.0
4.87055838101999 4.337900676660481 0.0
4.974114446887331 4.149149057174687 0.0
5.081577844806959 4.3240148266423 0.0
5.179521650033781 4.148725180298481 0.0
5.276261408871418 4.316673822529601 0.0
5.369189110897883 4.148362797753505 0.0
5.463892033849439 4.338819369807593 0.0
5.550828466075906 4.146274465971151 0.0
5.646554822352869 4.303571429647391 0.0
5.728109623160046 4.138582010823754 0.0
5.821689108984419 4.291959598724587 0.0
5.906082534948073 4.141649907302701 0.0
5.99655838673762 4.288752711512514 0.0
6.077312859438928 4.141011188943332 0.0
6.164215275138099 4.281164574562373 0.0
6.241782344986693 4.140701084167517 0.0
6.324316420613108 4.277393447415522 0.0
6.40284165425941 4.140026953305852 0.0
6.483655157361099 4.273418937894759 0.0
6.561170698911611 4.136221843106807 0.0
6.63512300179586 4.269917278694155 0.0
6.720306110251473 4.133393659385058 0.0
6.63777078218551 3.99617001426095 0.0
6.802492763973074 3.994355399489989 0.0
6.798834760478153 4.276914787769972 0.0
6.15377608509923 4.000134206628027 0.0
6.548727135071258 4.400510710520637 0.0
6.251479300130713 4.421887359316258 0.0
5.275876048175579 3.979624500657822 0.0
5.910905077162284 4.431174408784691 0.0
6.717070288412452 3.851239795555301 0.0
6.883499045994213 3.852555480300214 0.0
6.96664848901999 3.994033961856844 0.0
7.048208567116626 3.854750001965969 0.0
5.810004974283072 3.982497501655442 0.0
5.586615391658107 4.471070246359201 0.0
6.547331954052155 3.853872077215347 0.0
5.179081233207816 4.485638492900557 0.0
7.126615227065496 3.995337770596979 0.0
7.209459742762513 3.856893463870469 0.0
7.130226097876905 3.713620439679428 0.0
6.63075064074106 3.699684148676045 0.0
6.446985573861992 3.697358756862005 0.0
7.043151422977365 4.131713936060725 0.0
7.198322215260019 4.129850614748363 0.0
7.119378405252723 4.26005098890218 0.0
4.797146270976422 4.525762781577414 0.0
4.608329098388589 4.573584257851931 0.0
7.294442092743627 3.720853338661503 0.0
7.215753312764997 3.571378507508807 0.0
7.049631633956289 3.568047985538775 0.0
7.133765707749521 3.414282375958479 0.0
9.755079417839903 5.539705890434435 0.0
9.698955703441971 5.450920012703194 0.0
9.717604099406742 9.09084770432896 0.0
9.276716006673976 5.847248422342224 0.0
9.339081208926798 5.941174203394446 0.0
9.031261921742963 3.750271483819014 0.0
9.08721978689863 3.853416037308712 0.0
4.801461566647803 7.510704110489921 0.0
8.206553504932042 5.818005960412773 0.0
7.362361315389098 3.863102442315545 0.0
9.492826845316191 2.963845037486267 0.0
9.376710375304633 2.97229517374228 0.0
9.3192743723601 3.070687802230453 0.0
7.915389082113898 6.293241865913004 0.0
6.735006382384437 5.832450056405368 0.0
8.456481836836168 4.35369289249905 0.0
8.517718268476031 4.246675068616396 0.0
5.583512022030555 5.411069060406398 0.0
5.73625200174779 5.422617752052123 0.0
5.81006929286229 5.548584937688919 0.0
5.903438861894402 5.420604003204523 0.0
5.43801870974416 5.402925156167655 0.0
7.022641548594327 5.825217331839047 0.0
7.165095795605366 5.826005223633447 0.0
7.223078558430726 5.690146755650336 0.0
7.841396000338385 4.586693006493787 0.0
7.904793170875705 4.690826189066096 0.0
7.785999820520073 4.696719777099973 0.0
7.846448506395101 4.798518978096564 0.0
7.728149182067156 4.803800941124008 0.0
7.788983823826226 4.904802634695232 0.0
7.672018889153144 4.910077510508749 0.0
7.731996012352178 5.014717724244488 0.0
7.852072803124419 5.00743796185411 0.0
7.779278698005006 5.118909346425974 0.0
8.088113864063853 5.605434545811022 0.0
8.016457362785575 5.494849890158723 0.0
8.072290383394757 5.385594956317259 0.0
7.95068657972964 5.38825563681957 0.0
8.309366678475389 1.438342408757099 0.0
9.748160780780179 1.447794693754379 0.0
9.696454228162398 1.337889922375316 0.0
9.568813761940916 1.329560834053294 0.0
9.638326779791626 1.226729570935787 0.0
8.472132467407484 5.182856496818138 0.0
8.066211547412054 6.53691730655352 0.0
8.217035586462373 6.522976700918602 0.0
3.544839338670893 3.324491119989469 0.0
6.999740002965287 5.347729916247808 0.0
6.874544698914502 5.347027470386579 0.0
4.880451234715014 5.193043717957879 0.0
9.104510033763066 9.313204713465637 0.0
9.0466357104558 9.45359399494339 0.0
9.146803165140184 9.569652364413551 0.0
8.134107047896672 0.5527712356100052 0.0
8.369770412730738 0.5571215815175228 0.0
8.47386979744655 0.7564607169846485 0.0
8.585193608569258 0.5749174254532757 0.0
8.683868132726584 0.75505070091701 0.0
8.787381435061018 0.5813987798627239 0.0
8.697570280442534 0.3771156480326233 0.0
8.530048434259976 5.077280516000916 0.0
7.995091351438729 2.90367515012593 0.0
9.731083608815164 1.662638626153251 0.0
7.260488865351954 4.255073962371814 0.0
9.760728358076392 8.990038509880067 0.0
9.716710396257366 8.884160310398862 0.0
8.794627466210242 7.369659405098349 0.0
8.868068657550866 7.515048014893154 0.0
8.702594597629135 7.510501129643432 0.0
5.132320689147051 0.7610757801158905 0.0
9.755852887652699 3.853180024615871 0.0
9.787424819067885 2.757921105725315 0.0
9.731193479931608 0.3736343090103709 0.0
9.796526908308536 0.489684029254899 0.0
8.226019692057042 2.453349105940535 0.0
4.560989821496479 5.428206018250252 0.0
4.348810639659689 5.517048281386008 0.0
8.785190163106925 7.119142251269924 0.0
9.015515413043023 7.464769766852701 0.0
9.754861440190705 3.659036930324926 0.0
9.7543610723378 4.033687839160082 0.0
9.707881226943384 4.127219992296752 0.0
9.52841017383273 8.309020665649431 0.0
9.65186044414544 8.289498614805698 0.0
9.714051275521857 8.173576484362068 0.0
8.209758892476394 8.715513071423135 0.0
8.097084883671858 8.548851201381087 0.0
8.177989947800599 8.367872862579052 0.0
7.974142434808908 8.36779470623567 0.0
8.409012054919861 2.142624252464372 0.0
7.707002321497132 8.039129945341395 0.0
7.574653123518228 7.83895791570255 0.0
9.229858094382692 5.951357214361815 0.0
9.75307989876696 1.229893222503321 0.0
9.715811155868643 1.128779429890018 0.0
9.597960915003707 1.117058287635912 0.0
9.672063923518955 1.020806103150243 0.0
8.99090422125785 9.593878510105375 0.0
8.133165456134304 9.257620998029804 0.0
7.976779931497633 9.420725324095141 0.0
9.77231778617502 7.927819487779705 0.0
7.957213679655531 4.364530256281665 0.0
9.609903116082736 8.403725680286847 0.0
9.724891358972584 8.388392708395173 0.0
9.687487059868507 8.495935345161797 0.0
9.810055520269009 8.494090598382963 0.0
9.755967487162335 8.599790818513082 0.0
9.645698986824481 8.606121319182705 0.0
9.721376049217765 8.699989876681524 0.0
9.773009257015609 4.884557953188837 0.0
9.830105798750992 4.796546393900876 0.0
9.775335108731761 4.686093304257503 0.0
7.455611517737074 3.730099283949135 0.0
8.906943567829634 0.4197477661467797 0.0
8.980613334153533 0.5814185917581446 0.0
9.081059111759728 0.4263421860552371 0.0
9.821654809259165 3.576985724143072 0.0
9.761309244784803 3.4792267780002 0.0
9.763329553045937 9.353068233045157 0.0
4.463051839136694 1.164440352584939 0.0
8.0213168204867 5.283436382300235 0.0
7.89385412333227 5.290429544753158 0.0
5.806940001023414 8.583716119232427 0.0
5.88977793877374 8.96065112858812 0.0
9.177759062826041 8.25539130897928 0.0
9.626582559276994 2.05283181283147 0.0
9.747673294325121 2.064954301745188 0.0
8.775905508647185 6.951821187702613 0.0
2.3581644273991 6.029034686663493 0.0
9.777798009058461 9.548066962498762 0.0
9.737129197219856 9.662299853506903 0.0
9.615080366030512 9.683349544763068 0.0
3.315839678697904 6.042943273456425 0.0
8.915083018115329 7.937748428923896 0.0
9.489832173860055 4.712364754630572 0.0
8.118313727862493 8.013944064029838 0.0
8.902248750797776 7.67372145952523 0.0
8.954075939212636 3.463080912810881 0.0
9.45247551997678 2.133243108303608 0.0
8.311151553157742 8.899233004613622 0.0
3.28672004268868 6.826745674539142 0.0
9.86008383798735 3.468233656255824 0.0
8.389990589860254 1.947086063498656 0.0
7.144231739553659 5.329544660076687 0.0
9.654500729007207 7.743301971143119 0.0
9.761920842881946 7.740144345898896 0.0
9.692820773976567 0.2651585113981998 0.0
9.690951720399688 6.100517071814821 0.0
9.775704281989471 6.077882312279847 0.0
9.823117117198079 4.115168542267924 0.0
9.764391943581737 4.214465954230587 0.0
9.659455011849253 4.218716850797838 0.0
9.713462125022623 4.30742830316693 0.0
9.849638067150842 4.208845651573708 0.0
6.376241713254513 3.858766051594979 0.0
6.274931849158213 3.701528298009006 0.0
7.097780104117746 1.926449727602711 0.0
2.457742027508782 3.810157622192786 0.0
2.963634206580268 3.740748099915693 0.0
5.065585416063965 5.544355730437482 0.0
9.783560252464587 7.566507987677117 0.0
9.825819294611026 7.470942204664841 0.0
9.799976114123012 1.01659516618323 0.0
9.745559590633832 0.9150866860898854 0.0
8.20473400632469 9.495828670767946 0.0
8.784586030320169 2.054461500762216 0.0
8.758471587067168 1.888286802854785 0.0
0.9188935087347281 8.510730800272478 0.0
9.674192026048217 9.20389587377276 0.0
9.796314981283475 9.185916994648775 0.0
7.206882433199502 5.452024361489832 0.0
9.773927048949279 6.334665846819535 0.0
9.830288393591173 6.225300227041885 0.0
8.25177349297509 3.282767705830209 0.0
8.099233469407428 3.304040153764131 0.0
9.607860512870598 4.315652630490023 0.0
9.403674738018715 8.367349042046314 0.0
7.611756786273919 5.018691202305147 0.0
7.549513964643336 4.923310232561835 0.0
9.80986724662116 0.2915868356190958 0.0
0.7757562810577034 3.504187313079081 0.0
7.659562100664981 4.698467529240196 0.0
6.539424975891206 3.541729955691742 0.0
6.717348880400739 3.55221857686142 0.0
6.836337579501807 2.417476958454302 0.0
7.096480496160066 5.959124656438389 0.0
7.189742782777612 4.377051328076039 0.0
7.051723187622053 4.38470822973091 0.0
7.125489805519186 4.497018383456762 0.0
6.994915621927777 4.501504591168814 0.0
7.056755276274058 4.607929817497045 0.0
6.932937068803914 4.613249390039674 0.0
6.86629288290367 4.50541343988659 0.0
6.80427099775847 4.617607827251794 0.0
6.739195362053689 4.511124964201849 0.0
6.677260697693361 4.624288827143181 0.0
6.996760608675822 4.711715831373894 0.0
6.316045249462968 0.6456945497683586 0.0
7.321834163850416 5.816449323512759 0.0
7.833101485370825 4.390058096386987 0.0
4.996572652976738 4.498711166259074 0.0
5.112334577457371 4.663858846723513 0.0
5.271923064784868 4.629759173373871 0.0
4.93773508827367 4.668006487116195 0.0
5.348137647919096 4.485934621930562 0.0
5.413454827497575 4.62999925573761 0.0
5.356581113747675 4.770594395332836 0.0
5.013422223730484 4.793321773780133 0.0
8.58674425943957 0.9312335381466886 0.0
8.776450596582496 0.9362399987293505 0.0
4.783496233934828 9.486061758876032 0.0
4.544176394620909 9.034071856445296 0.0
4.082330493623582 9.015765881393772 0.0
9.820867469965414 7.285959215547852 0.0
9.852697883440127 7.166089674802766 0.0
9.260999083164238 2.971390964911171 0.0
9.197701900169713 3.073162109379564 0.0
9.31960210441945 2.867465579641856 0.0
6.660951583415121 3.383363199709994 0.0
5.210469976037585 4.761678854423166 0.0
6.740780285297665 4.733615686805694 0.0
6.611362405615225 4.731958642073806 0.0
6.549091884465382 4.629620704100811 0.0
6.491761716522486 4.733409494449344 0.0
6.425259228542098 4.640546096196947 0.0
9.715556659367534 2.986725573570596 0.0
3.710524324925069 9.463213827486557 0.0
4.768537031214573 4.727001037865238 0.0
5.039413681704655 5.378508462165627 0.0
5.188746429211535 5.440476671296013 0.0
5.172214816037712 5.298914527247826 0.0
4.469063601436893 3.667917323494335 0.0
3.799121596584382 4.741629285988305 0.0
3.661085664896249 4.442847704416992 0.0
3.316563386321876 4.380147387454913 0.0
3.802087298647255 5.26743535640985 0.0
9.738116341343215 8.047178982429934 0.0
9.85106076399546 8.021725551312715 0.0
9.837581050304836 2.844176011307251 0.0
9.664579962075123 4.402853107737106 0.0
9.76433159763034 4.39807801415352 0.0
9.718924973226878 4.487825491046641 0.0
9.826405563645343 4.494594135148365 0.0
4.931068003413168 6.359330991212394 0.0
5.130175746947236 6.201075257041828 0.0
5.143884286052002 6.445382329515047 0.0
4.953395875296406 6.628748468717369 0.0
7.833019185167153 5.400347121613631 0.0
7.766636138801143 5.313240048256084 0.0
9.767038723422333 4.578090619166644 0.0
7.315369355237483 3.441501197259575 0.0
9.556068971301514 0.2347811136726856 0.0
5.733871280791703 4.444861510772459 0.0
5.828809543126846 4.569791247698539 0.0
5.986701526182213 4.562881783985375 0.0
5.912543327921148 4.692966271273211 0.0
6.052130330528581 4.682477327897978 0.0
5.773525984744635 4.697697018456535 0.0
6.121646311546238 4.572302645403103 0.0
6.182349700936326 4.67713231096357 0.0
5.846371383601797 4.808939734754761 0.0
5.117807918383606 5.974361363083184 0.0
6.256132501905665 4.575863546153224 0.0
6.324770064521816 9.645040261272253 0.0
7.345522892050965 4.12581088034536 0.0
9.338523512844539 4.854480276600515 0.0
9.286984287289403 4.959628690044808 0.0
5.676298026114105 4.589279806918992 0.0
5.631257891894775 4.722749088404111 0.0
7.970415275563177 5.621040275419208 0.0
9.565118337557308 7.081391220827488 0.0
9.626201005045262 6.980441083020495 0.0
9.733729506193331 6.979928568877979 0.0
9.684556253529976 6.887102896543928 0.0
9.780785815410074 6.890287441101827 0.0
9.740054813822885 6.794211367612523 0.0
6.462628988057306 7.629921412015864 0.0
6.692564520952154 7.473594130811262 0.0
6.927983108788191 7.570982428592125 0.0
6.899878641134941 7.329306734748538 0.0
7.117542472438434 7.416951094809493 0.0
7.089537168123128 7.186691566729968 0.0
7.296585396514727 7.275888419524222 0.0
6.879678873774065 7.097443005287856 0.0
7.063454637059129 6.967740076426161 0.0
7.329105042924355 7.496317641003757 0.0
6.867084781778411 6.878842928865059 0.0
7.494278796275744 7.351949197351029 0.0
7.462564159480594 7.150140034494138 0.0
7.644835001206406 7.21506678718646 0.0
6.682478929414216 7.008358327294905 0.0
6.449199855715812 7.365660640952548 0.0
7.548139855358765 7.57299228324251 0.0
7.008502809092701 7.844601794812628 0.0
7.371739019901781 7.707688433423657 0.0
5.665345294602155 5.290628720253272 0.0
3.987583013016546 4.486920698115711 0.0
8.893480480320447 0.7785000884179994 0.0
9.715485963651112 0.5955299613117169 0.0
9.761785841543585 0.7048670948649375 0.0
9.670304314877074 4.578896619304786 0.0
8.058509626083154 5.744161686650483 0.0
6.181795443628869 5.462040811515966 0.0
6.256771804808641 5.338464817889848 0.0
6.124070400983443 5.352376180901929 0.0
6.399679261813415 5.349186390888865 0.0
6.477776305607503 5.46505688468465 0.0
6.541624525938461 5.346017118512589 0.0
6.673064575428321 5.339051516933525 0.0
6.599301548842115 5.241958624987057 0.0
9.573774011620444 0.815274945835158 0.0
5.86493292693426 5.877588788523632 0.0
5.552663040119136 6.957487930464628 0.0
5.535080960199246 6.663033131707637 0.0
3.708603689392072 0.5979254716153909 0.0
3.31896983256719 1.188583855309964 0.0
3.895664898001925 1.128137111173669 0.0
6.363360407965353 6.032416442205533 0.0
9.445959758065749 1.070139246426051 0.0
9.50632172780449 1.214052376665338 0.0
9.441030033980638 1.325047485624912 0.0
9.295799464644857 1.341410624832976 0.0
9.184164107767781 1.461677744200096 0.0
6.407191016756832 4.407273313799791 0.0
5.544591888593027 0.7652641669375747 0.0
7.883090151006535 2.497506182548758 0.0
8.073420508370992 2.120510489750234 0.0
5.494822040671399 4.732314720081375 0.0
0.8986976806403217 1.464611451578306 0.0
9.536325549598013 6.83286654168725 0.0
5.972289519322897 5.727532110854501 0.0
9.82203607053145 9.443411729566549 0.0
7.263199949874008 7.064207941227515 0.0
7.233659553805083 6.853135694774254 0.0
9.793310082768443 7.072747972018893 0.0
6.734168931095253 9.67499220075154 0.0
6.941134861034159 9.382328333169653 0.0
7.285822522704258 9.443989747444657 0.0
6.576263515512108 9.333035011158342 0.0
7.160560566479093 9.127732577621245 0.0
6.218711947378506 9.298064908857533 0.0
6.432383355119106 8.980985203293491 0.0
6.795390278360442 9.046043538032663 0.0
8.54677014121837 0.1957422484480979 0.0
8.528696320820908 9.804850950580938 0.0
8.42644965647489 9.604735484095604 0.0
8.010239224104339 9.715048083583248 0.0
8.644359648763341 9.628432815860457 0.0
5.344212921686536 5.526744195650314 0.0
9.760936589662048 7.38409687515441 0.0
9.128187788393989 0.1445485608215519 0.0
9.133307661752394 9.854833215426817 0.0
4.867351616228264 3.944459575003425 0.0
5.905323253270366 7.385600364255367 0.0
5.909045412185362 3.361969954191194 0.0
5.80580919758911 3.569999290452344 0.0
5.578230704221431 3.587842862412673 0.0
6.013352753603037 3.550699073477782 0.0
5.936624955014758 3.721630401607248 0.0
5.735413275357409 3.78528948606432 0.0
5.512538847486775 3.794760621907932 0.0
5.360571639388366 3.618649018042938 0.0
5.134141179590394 3.459385929220745 0.0
6.167399567008798 3.367365990358096 0.0
9.766756262206602 8.291756450136036 0.0
5.486063578307141 9.64505925252771 0.0
9.497624614180321 4.328873442170357 0.0
9.811387324954623 1.570516917365688 0.0
9.389210081887331 4.69150887571586 0.0
9.704395728912932 3.754226393630331 0.0
9.808172776193384 3.748784464356272 0.0
6.549660911932182 4.839747932361234 0.0
6.757415124099031 6.077939876843736 0.0
3.805578542126494 8.040840085419626 0.0
4.232580149691158 8.198659880701744 0.0
4.559765382564095 7.87091698350757 0.0
8.3829075948167 0.9495097054886067 0.0
9.8571301061408 1.456307792614791 0.0
2.005900212453279 4.535525273813588 0.0
1.85904408608185 3.956445706785572 0.0
1.979307922430775 5.474327285927505 0.0
4.387923194305381 4.427191306527721 0.0
9.429258370703248 8.873693567695483 0.0
8.99196583083892 4.664567567015693 0.0
3.050357122593155 5.368999067452741 0.0
2.861107385476722 5.785089447130829 0.0
5.005058958272409 3.711196438448062 0.0
9.8972295764837 2.755337284632969 0.0
9.581048890980513 8.853909321617065 0.0
9.668838904423916 1.762418716497425 0.0
9.716576458425756 1.852218615166234 0.0
9.799043132681442 1.780583141193779 0.0
7.661868217848455 2.880323287492419 0.0
6.780136552904057 5.443858690999834 0.0
6.489544866845868 5.913957888434588 0.0
6.880149522020364 4.134257616716107 0.0
6.970134365280068 4.264072319341612 0.0
2.225481516813409 9.348422240784 0.0
1.843418032490818 8.641605249943353 0.0
2.198000805242772 0.6459947140825729 0.0
8.740020306282506 0.1903932731609072 0.0
6.86957996016679 4.720776242956433 0.0
7.430920333506809 0.2702852342693345 0.0
7.302066064947383 0.6134316505458445 0.0
9.305398039877746 4.64854361125207 0.0
4.078151380865065 5.203425462519088 0.0
4.080704120371218 4.778853303303787 0.0
8.052525541571825 5.965483159581719 0.0
6.367194027835946 4.754896037842673 0.0
8.604191121620719 7.648182513679963 0.0
9.546446695207845 9.234701521982952 0.0
9.018652854946867 3.351011585453845 0.0
9.143853648154607 3.350173119015413 0.0
9.067079866763024 3.245174561579149 0.0
8.991492136849105 3.135578770028028 0.0
9.29603967712795 0.1426516429033488 0.0
9.392428271030795 0.2506306237151588 0.0
9.223973843394301 0.2912279164401488 0.0
8.39375191941536 3.018777714002827 0.0
8.4836475746111 2.88135207267795 0.0
8.741089053946197 9.821127577434911 0.0
9.803966507713174 5.448064463539533 0.0
9.748132240148552 5.359371181503531 0.0
9.850258990973547 5.355211921626304 0.0
9.7965346514158 5.266762244994661 0.0
9.84142096963129 5.171050273734619 0.0
9.738843612428232 5.167483913244169 0.0
9.64168976006725 5.359875132194057 0.0
3.335917453809221 5.671837672982919 0.0
6.962669142802881 1.683222554707996 0.0
7.365210844496719 1.887492842536114 0.0
7.517378971174123 1.677983072937792 0.0
8.00383870208024 6.089394601875145 0.0
1.725435941000569 2.759295503019395 0.0
7.907977929549089 5.102827208603365 0.0
8.052861051278896 0.2683271125209605 0.0
9.80169732768395 3.385443381464333 0.0
9.831597648680848 3.28491948963525 0.0
9.736335895866404 3.316207814499244 0.0
9.597256128490281 3.756160701977744 0.0
8.865819925321706 3.366235906378775 0.0
8.489614436807788 1.757152185195495 0.0
8.88089641144391 1.078983279100314 0.0
7.430923851187758 9.724389499796425 0.0
7.584252919312249 9.509430586267927 0.0
9.744026095940516 2.247117754488748 0.0
9.729961521243718 2.659836747108116 0.0
9.790866569780063 2.558993767350471 0.0
9.736606445116795 2.455104424879619 0.0
9.846806182714698 2.452157456754448 0.0
4.518102112052724 5.141350889745285 0.0
4.519880229178207 4.85678334497067 0.0
9.7302407894617 6.434012603549242 0.0
9.787537474544765 6.523591663056312 0.0
9.744262337067932 6.617499601377625 0.0
9.8406238811518 6.41591236129004 0.0
8.914967252734657 3.579360039684312 0.0
9.154797282599406 5.670753066089419 0.0
4.228839454580575 4.612979739018002 0.0
6.095037541675208 4.42126627187728 0.0
9.304166983880842 9.864854494751789 0.0
9.406445527105628 9.759007358529582 0.0
9.256225114941945 9.700832989525724 0.0
9.796206564635622 2.351215649506205 0.0
9.849373673349081 2.25090453834006 0.0
6.332048155295931 3.511675163099286 0.0
9.069679774213784 3.022879178706259 0.0
9.070599961450037 9.055284879641471 0.0
1.808685691036764 6.331557276533421 0.0
7.120156826652838 4.698481230214924 0.0
7.052894345811342 4.799848851879358 0.0
4.739957520484086 5.369107149361242 0.0
9.389197839958292 7.197139943834638 0.0
9.046688232613976 4.560364044038737 0.0
9.162685461967492 4.562194096410666 0.0
4.227377821420887 1.564128177298305 0.0
9.201090975245227 2.794301402811909 0.0
9.251941624303948 2.677556975242327 0.0
9.186758273070138 2.563916005021366 0.0
9.317609833868786 2.560335260954038 0.0
6.57599191748324 2.437689779955877 0.0
6.305556560534859 2.459112595979303 0.0
6.981058048792093 2.642476994448363 0.0
9.886113463139504 6.510498309609482 0.0
9.250462794607717 6.221362629571698 0.0
9.305373999084068 6.108271307139882 0.0
9.390477915810829 6.228015172491477 0.0
9.44452571968143 6.114582165110393 0.0
9.502105740270528 6.197677857389309 0.0
9.31559697209813 6.331647407124485 0.0
9.370938253597153 6.437386206819511 0.0
9.594764406124872 0.1099001288712305 0.0
9.602872681151728 9.894988341116305 0.0
9.622661196143387 8.076680696281343 0.0
9.769069277144705 5.9102532189237 0.0
2.615076109785583 8.807551523115547 0.0
9.658920005405456 5.730890135691177 0.0
9.76063135061807 5.720703211793342 0.0
8.63963723169499 7.177334225227945 0.0
7.841904391869763 6.41346852896409 0.0
7.764520718520185 6.297267738834625 0.0
9.546492996136271 3.465225175657335 0.0
9.25600964352143 2.219157062786616 0.0
7.625057159226293 7.012987957636062 0.0
9.529121062829038 7.730283486008674 0.0
8.329887090625894 3.845190321147069 0.0
8.265841850823831 3.95687001944245 0.0
8.402006523775544 3.947660780406651 0.0
8.128436391670505 3.968543393650448 0.0
8.46705122470662 3.835767362024195 0.0
8.218867047074696 4.063481375518748 0.0
8.089763413611255 4.08062363292928 0.0
7.939578083855268 4.111915744184436 0.0
3.74991304509639 6.615676756107112 0.0
2.627714335615619 1.170993030860914 0.0
7.046129971268607 6.759930788612616 0.0
8.534603732661887 7.486325780553722 0.0
1.569381386467569 2.042794535871475 0.0
6.228703743210918 1.986421863690014 0.0
6.467030855792859 2.67190498312861 0.0
9.272246093269825 1.975478263632296 0.0
8.05269609263041 3.854522845257449 0.0
8.008595521536957 3.177870309354594 0.0
7.929796740504207 3.350600835935766 0.0
8.048703574664067 3.449582532910417 0.0
9.72947480375618 4.973926800124758 0.0
9.784850360535604 5.072865219810449 0.0
9.896036387646596 5.069261557893528 0.0
9.633140953203334 5.168645132864771 0.0
9.558102991128836 7.602453108835212 0.0
7.278758746505716 3.994295887299482 0.0
8.306681733482405 6.936428510427854 0.0
9.487163072013963 3.757777670075558 0.0
9.532950522284125 5.359403698944497 0.0
9.816036650072329 3.927268437107025 0.0
6.173882586235392 8.734645960664665 0.0
7.972518459433741 5.003005338485466 0.0
8.398453459336153 1.601072016988848 0.0
8.97460527296194 4.040886705742754 0.0
9.037941657530773 4.143578781749325 0.0
8.849604200183613 3.828506169652706 0.0
9.545296177100065 4.042698359132156 0.0
8.595941796785514 5.806754902023664 0.0
8.65588412428292 5.694192853853139 0.0
8.723710665131787 5.801528918332044 0.0
6.861288985046249 6.673713222735126 0.0
8.87477249219366 4.664500928777609 0.0
8.72385765226959 3.608276264790996 0.0
7.145228858696953 5.573648565429618 0.0
7.282945121585866 5.558559688509987 0.0
9.224761401603633 1.602363370249125 0.0
9.609115686587552 2.986868833620756 0.0
9.633989947851914 6.628120633848649 0.0
6.046214325132457 5.45615093027661 0.0
9.017014346798927 5.271996636983457 0.0
9.070824864071271 5.168510834798647 0.0
9.189021391555556 5.166867900487267 0.0
9.123328759137758 5.064718588163964 0.0
9.240587446378079 5.06459430516883 0.0
9.250848280531756 5.267364371053135 0.0
5.773050603406019 5.7192906317521 0.0
8.576466432793914 4.3559007860436 0.0
8.634627802680399 4.253467736542067 0.0
8.461790117175607 5.591735227444779 0.0
8.907610717370224 3.713397213891439 0.0
9.80665594564509 5.628066492225966 0.0
8.985935132601089 4.455263493464225 0.0
9.00640209566022 5.067597672073404 0.0
9.833659276096986 6.976519563917422 0.0
8.0283368553477 4.687271895436317 0.0
8.326580191759327 9.127498457128247 0.0
8.650637373791266 5.07513089931925 0.0
8.701067313435203 2.700069743477523 0.0
4.825307249916392 4.884175191874744 0.0
9.418335984190309 6.858444798015129 0.0
3.91434687300816 8.542956908935874 0.0
5.569239724399552 2.064135034637056 0.0
5.234271567762738 2.128974435011933 0.0
5.757920427527626 2.312422707096966 0.0
5.43365689737979 2.427455772745759 0.0
5.673210219624612 2.602111218343444 0.0
7.214258468265766 6.652783071431555 0.0
9.823626269633962 4.30685540664529 0.0
7.96996639420014 4.794005510174826 0.0
7.616003332725032 0.502676560965646 0.0
3.050634530589821 4.659174799474146 0.0
2.870894249800723 4.246924313393336 0.0
5.285393339952368 6.079037173753393 0.0
9.439954241218905 4.23581687956071 0.0
9.67709722097145 4.710772408106511 0.0
7.40767785509217 4.259947873553335 0.0
8.396202587439676 5.486075637998701 0.0
8.323689688705493 5.372061002264632 0.0
8.191312386254125 5.384662546230823 0.0
5.304380054816289 5.369675374029755 0.0
9.093848379546637 4.047647920840374 0.0
7.916313220758624 3.045043876114836 0.0
8.435854831444637 4.144861908356168 0.0
9.060262453079693 0.7340576053322918 0.0
7.053195520344596 5.238809779682351 0.0
9.621762679347093 2.45205452967588 0.0
8.410730269104743 5.287995309529392 0.0
9.655094569234972 3.472720279371932 0.0
7.982140513923982 6.667914768024983 0.0
8.402690325256646 4.883576657130221 0.0
9.17488654147479 4.962006474835693 0.0
9.013188196102961 8.49700148123058 0.0
9.795977244531603 2.156818021002043 0.0
9.893813711206834 9.545820400859157 0.0
7.965349232662289 4.250048884270795 0.0
8.644264557989125 4.874751532150782 0.0
8.215430976121077 1.26077208565765 0.0
8.379717637669398 8.37324652769609 0.0
9.320026533461409 5.559861899725609 0.0
7.885778178744864 0.4977439426642278 0.0
7.547066983926719 5.125166613071239 0.0
7.657542898944819 5.122996245335209 0.0
7.423918840193691 9.000935553397358 0.0
9.854133000712425 5.541931969512857 0.0
9.328508174398952 2.101486405523264 0.0
9.300749600926641 9.530012105354274 0.0
8.130307182491519 5.277079344947874 0.0
8.346752967392757 4.987627363826086 0.0
9.118404185029991 6.007087846617186 0.0
9.048232213728614 5.89431792713258 0.0
9.088340967655858 5.576242562571367 0.0
8.094762487139027 4.789727191449318 0.0
9.915265904493378 5.749591413470928 0.0
9.92169805280126 6.154216704502091 0.0
9.918022441582268 4.549125436287157 0.0
9.919332362905616 4.849536560132457 0.0
9.914800786693318 6.750595509794719 0.0
9.811792900437824 6.703950687575952 0.0
9.900643083988882 3.749855087409844 0.0
9.912423171222734 3.043228996968949 0.0
9.91892875832665 5.949999999993851 0.0
9.913300070218703 3.960831593817277 0.0
7.709347001661226 4.444236534782706 0.0
7.479443107717332 8.071637285053104 0.0
8.839057072155848 6.807845119358974 0.0
8.972330068019902 6.78765448182788 0.0
8.542093772125282 3.941452413628317 0.0
8.279144752968262 5.930387616620717 0.0
9.393455876855919 4.973162505621418 0.0
9.507123333872533 2.855087674515822 0.0
8.77504684283825 2.317347145885344 0.0
8.394133129040345 4.464046960801843 0.0
5.725509852450801 8.210843960481027 0.0
5.62632390239664 3.967637659758752 0.0
7.910815814627989 4.900765971697654 0.0
8.595808444085467 5.590040244353608 0.0
9.705160502006024 0.8106158419444889 0.0
9.82021247904746 0.808810893177099 0.0
9.218352146075844 4.447736986422823 0.0
9.20781892622228 3.858281726888132 0.0
8.713609974387523 5.178241668554946 0.0
3.55755059259364 8.921522400238844 0.0
9.59122926011489 5.452844834281716 0.0
9.70565100407009 9.77887811062354 0.0
9.826938454219809 9.74303055702321 0.0
7.238962096855633 3.278078153406256 0.0
8.575609105166194 4.567807831727537 0.0
8.936449841121737 4.765835458965493 0.0
5.59323463391086 9.248527978398117 0.0
5.280809113285124 4.886132326418428 0.0
9.328132730893216 6.544753806716806 0.0
9.026944889277736 6.67247283515637 0.0
9.81946239021469 3.007926663525007 0.0
8.677633568960493 6.144049349297466 0.0
8.33427489656924 4.571212803519522 0.0
8.55734024448315 6.382535186588269 0.0
8.692399379422756 6.372347713955898 0.0
8.495817478252626 6.503308565233578 0.0
9.905494734661673 2.544078755559835 0.0
6.177101405266569 7.228490244483556 0.0
9.825373011845263 5.807482724503027 0.0
9.808678508609606 8.118683092442964 0.0
8.397717712407108 7.08010313863416 0.0
7.428555529689225 4.935946611338556 0.0
9.575504958128711 6.125633853639113 0.0
9.154066996197898 4.146562596982661 0.0
8.074381802159323 4.337569667261167 0.0
7.018337246891919 8.843475095716133 0.0
7.970627172560641 2.658650028065857 0.0
7.382546388883145 6.723381543491632 0.0
6.822972334933889 4.884555620881615 0.0
8.343732976791593 6.041576709398377 0.0
7.743680217306919 8.423336160305476 0.0
8.505717922983454 1.115022897794028 0.0
9.113973198216474 6.992972408167606 0.0
5.818882632841168 5.300437503812764 0.0
5.951991891717714 5.279516346785062 0.0
9.450183479138845 5.92934813870612 0.0
8.783346541536119 5.48419035750989 0.0
9.38074895894124 5.65076274999803 0.0
9.513658728876734 7.193620441323493 0.0
6.396040948797887 6.776064256962667 0.0
5.389661780244388 4.89715084345563 0.0
4.473247649068957 5.85935163892416 0.0
9.249586607512612 8.37680799459232 0.0
9.103796366487646 8.379197231055114 0.0
6.274057301184156 4.87985402946409 0.0
9.259628836118232 3.561431822636308 0.0
4.037922477011971 5.489409780163391 0.0
5.62712958624254 4.893925433488392 0.0
8.806426003347967 6.133410188141932 0.0
9.53304466499349 9.59279975429444 0.0
9.542890959420024 1.966631379116419 0.0
7.459736176874619 5.863847835420528 0.0
5.937613117200432 4.89232797168023 0.0
6.171611131472617 4.879541833448487 0.0
6.100695199816815 2.291172318314745 0.0
2.315194906726768 8.081958163666464 0.0
6.878489987598286 5.148099521847569 0.0
9.105264414399338 8.639184652727645 0.0
9.20047261316883 3.457820810661327 0.0
9.895329010385955 7.55944047105717 0.0
9.912742873006831 7.76210330502246 0.0
9.37761459375249 3.168397068877758 0.0
8.946121261512507 6.345629828835438 0.0
9.918632496443566 4.449809517365367 0.0
6.848211525651934 5.945010613369067 0.0
9.915721525903255 2.047407395915179 0.0
6.117255841708726 5.163321965161054 0.0
7.276595248786602 5.347247322210079 0.0
6.32682869954104 5.23674259421017 0.0
8.785886448438022 5.692775375342819 0.0
9.099994401883361 6.776698531382792 0.0
9.913397459621638 0.2499999999998165 0.0
9.910352525643928 0.4481571029410266 0.0
9.907850422008579 0.5479735220323012 0.0
9.911983631350465 9.24778487019403 0.0
9.917634740384067 0.7514684821956668 0.0
9.195214232985496 3.254172408378337 0.0
5.000896927376288 1.846006038077654 0.0
9.917172478547403 8.250155740683276 0.0
9.908120476950126 1.742986232208194 0.0
9.914524635720774 1.949567899316728 0.0
9.907358878377153 9.145625165175748 0.0
9.917695944922635 8.949999999998397 0.0
7.648387553139914 5.325741673607362 0.0
9.605343588986079 4.130627398479715 0.0
6.648113233057817 6.774798386229164 0.0
9.910347203087213 8.446729917003672 0.0
9.913623694530468 8.548470085896316 0.0
9.9201245863254 1.536225488581779 0.0
9.906538426683255 1.059019360781604 0.0
9.912867352010919 8.74999999999809 0.0
9.799662981388353 8.79550485462418 0.0
9.831828680383174 5.99966894118311 0.0
9.91414179906643 1.263025320602998 0.0
9.920690092699912 7.240982963665807 0.0
9.385889285950551 2.235126904097426 0.0
9.28133998925606 8.00415195851526 0.0
9.817074723108401 3.172398890123306 0.0
9.482030285089927 7.512954023388035 0.0
6.682432918504054 7.233889573028878 0.0
8.528699633246763 3.260502457553277 0.0
8.91699963742029 2.327016692708648 0.0
9.267676068834481 3.954520684561369 0.0
8.70811637467455 4.974101624783084 0.0
8.18184214270768 7.816666208279135 0.0
9.690393137288163 5.264344933127836 0.0
6.937111790104696 5.245184991960528 0.0
5.895846026722989 5.174232967273284 0.0
8.281683356622615 6.400073017261236 0.0
9.150883172924027 7.444273543454419 0.0
5.430406600793122 3.390815886517273 0.0
5.049583827974758 5.697634876048387 0.0
8.3966710383105 3.495813899905868 0.0
9.007538428392454 8.046563579784266 0.0
4.645155158868719 2.637132843684674 0.0
4.887444326771336 2.30020425915506 0.0
6.483736782775559 4.522536327482678 0.0
7.843169154548308 8.2116075844056 0.0
5.06295551628385 4.901632590583318 0.0
7.201400991012747 5.138239336380897 0.0
8.519791031104612 8.848807089071627 0.0
8.658623737989732 3.031313729049854 0.0
7.585566208322493 3.629882964874684 0.0
8.411818469596405 6.834326722716643 0.0
9.172363528634236 7.669230647622864 0.0
8.85455683341768 2.682483055215344 0.0
9.359398739738925 1.631421337140716 0.0
9.071793864444992 7.337030604117359 0.0
6.968394563521436 3.712808894519514 0.0
7.899236117684646 7.094583340182754 0.0
9.54362864504834 9.781852543872333 0.0
7.151298729743687 7.644795130415299 0.0
5.452218361466201 5.186873761308322 0.0
5.517642289161902 5.293540933999446 0.0
7.802500357665464 5.978295671754199 0.0
6.594850839687122 8.491429270558893 0.0
6.029132431949566 8.294997405201931 0.0
9.31286590869111 0.5672913838331921 0.0
9.25238720319541 0.4415953739444106 0.0
9.550589523211062 4.228044955453704 0.0
8.748611832783206 6.250900951984038 0.0
7.566980108995873 3.995148257893202 0.0
7.426142759241261 3.996743578498081 0.0
6.478912513785404 4.000296412419969 0.0
9.30435638148753 5.168210982711592 0.0
7.542154188520517 5.752525075248498 0.0
7.219033852073297 2.139582470800704 0.0
7.370913620388047 6.545121498197235 0.0
5.226731036024996 5.187572666585561 0.0
8.515591031124366 4.462223215179979 0.0
6.762864307079274 0.3078036604979366 0.0
8.587432696997471 4.977010533175154 0.0
8.703948448756302 8.815629076400704 0.0
8.081003990931544 7.370949680119862 0.0
7.424404567669909 6.949730915714445 0.0
8.578903262311433 8.377992954045473 0.0
7.301258690263783 6.106184350645308 0.0
5.991600556904204 3.99820087171043 0.0
8.203048538477193 1.601044215405025 0.0
7.289972483120081 4.572350254111052 0.0
7.714697186439165 5.420586967696794 0.0
8.918853780709807 1.841796898567452 0.0
9.919941345877513 4.749808449067644 0.0
7.245589454939737 5.94251251443003 0.0
9.258480524497795 3.358952871140391 0.0
3.705877615124628 5.574038727593425 0.0
8.287096858129765 7.962370605242409 0.0
6.799629860952143 3.705385600481528 0.0
4.146753450763018 6.544154457143895 0.0
7.413973555029582 5.545687501585183 0.0
8.466524978378082 4.980481756569235 0.0
7.336312153537934 2.337983522449311 0.0
7.695505222753409 3.747498713679684 0.0
4.898236813123799 4.795853653580084 0.0
4.59779105899602 1.896916774247134 0.0
8.560170375862322 7.072369101894893 0.0
8.386150468360862 2.449771437140704 0.0
8.41200018115259 5.084601315536367 0.0
5.102189912301071 7.621598618277815 0.0
8.336320418935243 6.71651223072348 0.0
5.081745734883095 3.977838926197614 0.0
7.63590698378166 0.9500570055008507 0.0
7.743369677149255 3.051233984704873 0.0
5.357527459690566 0.3809996753407537 0.0
5.967373112873382 0.7731113464301924 0.0
8.169449265206127 6.666271947462212 0.0
5.95122726745053 5.55758205410881 0.0
9.922289489207834 3.53923011719877 0.0
9.39154684476555 2.659037023454942 0.0
7.701415639167884 7.690060291860976 0.0
9.819179654793023 1.329863870021845 0.0
8.358229579054417 6.506108206863729 0.0
9.269720555169467 5.657096143475924 0.0
4.473187658045934 7.435037860084884 0.0
9.65807158077373 3.255496360750368 0.0
9.605155446454205 8.713645566904637 0.0
7.097383547728313 5.141197376985936 0.0
9.812212483832656 1.89920712759492 0.0
9.83875570675407 6.81603549325055 0.0
8.926246869879279 2.079976511571457 0.0
9.166785856141402 9.169070814302419 0.0
8.763479010228052 1.587152667342957 0.0
5.957377924852992 6.404530806530254 0.0
7.14506854375872 6.10342416684208 0.0
5.672595070581394 5.164323323112049 0.0
4.899782787268781 0.3801727265981219 0.0
4.447133848117348 4.673614099606824 0.0
7.044865074789195 3.253639989243549 0.0
9.818461337102992 7.819456450952447 0.0
9.925334577033155 7.954012377173311 0.0
6.352907898232792 1.173665225954276 0.0
7.351721385581032 5.660361289755705 0.0
9.337367583861807 2.76534436379692 0.0
8.693118347802024 4.360254099729149 0.0
9.476812970101324 0.3524826622168163 0.0
7.109868985890334 0.9024224571333925 0.0
7.899106846231403 5.511805431542581 0.0
8.352799544476607 5.187887629361129 0.0
6.957483547582747 0.6176251309213842 0.0
8.099559500483094 1.412323841044818 0.0
9.913030944540278 0.8542404645334569 0.0
9.143075088381442 8.022165366829135 0.0
8.819861450593166 6.356592599428041 0.0
9.319444417409162 1.49938505915629 0.0
6.490262520326714 7.118204362551877 0.0
6.490874470087819 6.582907761235813 0.0
9.82506653058937 0.6146757679104559 0.0
6.803129818897624 4.419048038171804 0.0
9.840901379354312 0.08198751964190581 0.0
9.839740374244226 9.918356239418472 0.0
8.551927134544655 9.449788917425456 0.0
9.92097857388158 3.249999999993177 0.0
5.797087413057367 7.077351493358238 0.0
9.255412859987286 6.433984412022419 0.0
8.668174522249984 1.740767926084485 0.0
9.920991430240607 6.25262219124529 0.0
7.57275248448898 1.94367954756322 0.0
8.052865444445507 8.19900054463639 0.0
8.748697149245206 4.25201068974208 0.0
9.158270227735827 0.5542256343091421 0.0
5.997487767477439 4.787924707603557 0.0
6.119759900601896 4.78043793682227 0.0
4.353034750397793 8.619182743639561 0.0
8.721093521611476 5.588932824583312 0.0
5.717101151444983 1.123034066822819 0.0
9.825602081347064 8.68753399402474 0.0
8.005502510832988 8.7824052910506 0.0
5.548184234622668 6.408009287230429 0.0
5.77830300433981 6.598697187164234 0.0
9.613093825495433 4.50282172481406 0.0
9.928981132641653 9.74928475696928 0.0
6.613628176297015 4.515513362596662 0.0
1.822126723816303 1.297795131355289 0.0
9.514164594137375 1.43081427463862 0.0
4.735494753432723 3.698541604583975 0.0
9.52844959749262 8.615213629960298 0.0
4.660704511759056 0.7947595073298008 0.0
6.82340845160293 5.239926830264399 0.0
7.885938077030673 7.380147032865134 0.0
7.884599891021201 6.09005968568029 0.0
8.846834820720167 9.653276456345532 0.0
8.457777199486827 0.3851010632068662 0.0
6.66485224572131 8.771510767670392 0.0
9.091499342133352 9.708315832477556 0.0
9.824286725109655 4.976315293637262 0.0
7.848197684391786 5.632217046637356 0.0
3.88430598115417 4.225391362015386 0.0
8.776890759183289 2.809688928468134 0.0
7.393884285023409 3.59397875231041 0.0
6.927568893329758 4.396788356869783 0.0
4.96854327720728 2.662368428358774 0.0
9.1480130720193 3.951479613991279 0.0
7.071049729490975 2.38092990636632 0.0
3.40193058782919 1.686321186206593 0.0
7.612042194200681 4.815904436723407 0.0
9.043395868401339 6.888481825015849 0.0
9.098933057562759 8.152197681006806 0.0
6.058682303253315 3.857501492181965 0.0
3.707092669281355 2.986685502034343 0.0
5.113272509841263 5.189455016444592 0.0
6.960565857079232 3.416349532571279 0.0
8.755151527375476 7.649255597361291 0.0
3.393680865444538 3.679982303262531 0.0
3.117424600120088 3.35605258976247 0.0
8.530814041264104 5.488376426140491 0.0
4.820719767306654 5.106646490188182 0.0
9.918899263509473 4.144927088739744 0.0
9.918194630017027 7.447268230913605 0.0
8.461970084137805 3.144844565847669 0.0
9.924415919486059 6.949999999995354 0.0
7.184050152099684 2.72771667662237 0.0
8.834356715215904 7.801565642745232 0.0
8.689015446783005 4.145232831954543 0.0
8.490778532265319 8.234414357968106 0.0
8.63666290918932 2.83060276219705 0.0
4.61028976098935 4.741894230894578 0.0
6.314735925012879 4.003132559161639 0.0
9.20786580425652 4.67001723737971 0.0
7.141401229301469 4.873205425098625 0.0
6.235177809922153 4.774126344778935 0.0
9.12491895896937 3.145675090615719 0.0
9.255747684068178 3.162525801823036 0.0
8.312852272796098 2.290855459722148 0.0
1.449266720542303 3.363629101350872 0.0
9.525687840398492 4.800807314407045 0.0
4.829905263804087 8.14474456977717 0.0
9.09338914689732 7.563794106183232 0.0
5.389401689694107 5.283808684471545 0.0
8.530979415204587 3.029374286908943 0.0
7.901489077080633 6.535344047486632 0.0
9.218572924671975 5.760893551533255 0.0
8.562382833959296 4.143913974026883 0.0
8.62959127904665 8.974877485888243 0.0
9.408442441596518 9.62276529745719 0.0
7.5034765601713 3.869833107932387 0.0
9.842813436634783 6.600620949014236 0.0
9.826116984327193 8.911617279149695 0.0
7.529907780698261 0.7369111006685982 0.0
7.832164962480427 2.905293639437395 0.0
8.39517908433056 3.267417602291069 0.0
9.823014010107707 9.085319632577246 0.0
9.022314123618541 3.944559746338292 0.0
4.243701230676532 5.332574856090426 0.0
9.816740542566388 1.127839952679595 0.0
8.166775715766304 5.693916696568397 0.0
8.865374421689054 8.068986769641638 0.0
8.761145809863661 6.470583506581853 0.0
8.998345275919851 9.209303502026401 0.0
9.698477487436316 6.706902829754045 0.0
6.439032098063426 0.3109134377713525 0.0
7.562681994382136 4.643158005207056 0.0
9.03999088074715 0.2799354672273258 0.0
5.180741540467516 3.805018725608906 0.0
6.243990330956698 2.718077286244967 0.0
9.79416634023361 0.1815240178579244 0.0
9.926540005061975 2.847049370876555 0.0
9.826476210374608 2.670192168078066 0.0
6.365816673179121 4.536333049275508 0.0
5.546353765219417 4.618331215552614 0.0
9.820703096450293 2.000649418331399 0.0
6.884388790679166 3.561583980715254 0.0
7.431303395649604 5.747824222777201 0.0
8.849816832721245 2.19318290395604 0.0
4.185147517585975 5.697469360586313 0.0
9.165905238119013 5.873664931582344 0.0
7.70479478158537 1.788324620089049 0.0
9.627376046933474 0.9196091445437269 0.0
6.657687963328663 5.144792385996769 0.0
9.83245016645186 0.3925568446109945 0.0
7.483092985762584 9.253837199159435 0.0
5.445348362202234 3.977855663863651 0.0
7.476680532833337 4.837183287808616 0.0
9.572749890969304 8.505160319814301 0.0
9.915853314998252 9.437014513917465 0.0
7.679469018350979 7.390484878021194 0.0
9.418139053434402 4.790576000488359 0.0
8.096967733471567 5.865447162201908 0.0
9.829153508938724 8.378494945652118 0.0
9.926595955569645 5.157718300415699 0.0
8.774484245600224 7.939747459426853 0.0
8.629764448155779 6.481031318922794 0.0
8.961169458302376 3.839036702328818 0.0
4.617199205561317 5.256318959792646 0.0
8.480815774219478 4.031210317621497 0.0
9.708341592512763 3.401018043990571 0.0
7.183974816647467 4.77882314543966 0.0
9.821437962294304 7.659391965474772 0.0
8.150320284869602 2.286501016204562 0.0
9.828114434347311 1.684891358832554 0.0
5.349187766238684 6.538177907133678 0.0
8.076053471314525 2.76180604769483 0.0
4.907713691134565 5.29818629967416 0.0
0.6874399366049438 4.328593906714074 0.0
0.6980011780697519 5.702671170050627 0.0
8.263861466707834 8.182284285231713 0.0
5.838783785156478 4.913981390426639 0.0
7.807619472656604 7.235706382002089 0.0
9.388504256318683 6.022122644748753 0.0
9.929839894767033 6.436189192303577 0.0
8.3205848711706 3.39107920408397 0.0
3.240770542267401 4.019899919523968 0.0
8.059047070496568 2.468855909103855 0.0
9.932479519490421 2.449625056415224 0.0
7.737639000139152 4.580708137963557 0.0
8.26141077223695 0.3940397126348397 0.0
9.69568953371801 1.959951226402445 0.0
6.469120930453264 4.892267070266994 0.0
9.167223997255698 0.8102256463122337 0.0
6.236889648241256 0.9291076084031108 0.0
8.306379082772498 5.268830342852036 0.0
6.716089118890225 5.239344620507032 0.0
9.82511981852641 9.282822358664017 0.0
6.68375719572285 4.404998642130821 0.0
8.913754712375674 6.908138360584365 0.0
6.173250048857013 5.251634416326969 0.0
4.235907497612446 1.924052997345291 0.0
5.151007663981651 2.438629730660893 0.0
8.924254300637541 9.3764975797567 0.0
4.438612423541503 5.287968640901957 0.0
8.571203234299599 1.897009944569934 0.0
6.878800676380218 5.821332862798138 0.0
5.710626178601224 4.792560699857408 0.0
7.149510071621283 5.216310009157644 0.0
2.099966541549645 2.334742113488256 0.0
9.93396330620579 5.350566393301629 0.0
7.143046479323961 8.646955109387985 0.0
7.965747313080266 5.193641450105844 0.0
6.3314394693073 5.135050228240639 0.0
7.665821333021348 6.222698255001823 0.0
6.305321657053551 4.659816230868476 0.0
7.833020917089713 5.208837056143474 0.0
9.41455902676429 2.869725681199307 0.0
8.567151507735133 6.598605357295113 0.0
7.405527786978573 4.377085529441429 0.0
6.552969697053132 5.137148974085434 0.0
9.93630620742063 8.042778076596578 0.0
7.166743296019233 4.593171678848165 0.0
6.595561806063966 5.839366735225723 0.0
6.066152182102007 5.262519562574559 0.0
9.834694151277489 0.9093455747994099 0.0
8.98259191950674 7.579732466796592 0.0
6.465071238839505 5.25485771955322 0.0
9.759759896588413 3.236659507608532 0.0
4.775529448101694 5.224235675150505 0.0
9.935991245222917 7.153416415978829 0.0
0.6530736820718381 9.352299998916202 0.0
0.6449439415299687 0.6468300344151556 0.0
7.804690364869245 4.495816547678174 0.0
9.84503784553893 5.70620404704573 0.0
9.83525329400959 3.826992990746767 0.0
9.922964894244684 4.265000406933376 0.0
8.333767638401964 1.121219971446645 0.0
8.876012546033895 7.019147158538482 0.0
8.172413577824324 3.413096916572049 0.0
7.232233017296214 4.478957103028363 0.0
6.214597295185415 3.852860083673202 0.0
9.85013791746415 4.400709747289421 0.0
3.941627380932058 6.342995010255737 0.0
3.097271569675528 8.77391871286929 0.0
9.292917152323044 6.010976049411984 0.0
8.104342196673183 5.184165973282902 0.0
8.994300084006271 3.652611812846807 0.0
9.937157897030163 5.549999999993244 0.0
8.721368888525245 7.274540720770752 0.0
8.920003648712827 0.9516585309368178 0.0
7.910527456030004 8.536826514867816 0.0
9.846441288756814 4.60515911863952 0.0
9.584942233925151 4.712073182517884 0.0
9.642357858573972 6.805672051759494 0.0
9.797024725252207 9.838837222258014 0.0
9.842451438022124 4.018973836958878 0.0
6.112723137676118 3.704473949316424 0.0
7.574641969193845 3.765362276156904 0.0
7.826594968121701 6.200366572362263 0.0
7.762805366733504 9.34009502796868 0.0
9.56854033867856 1.012566255816665 0.0
7.71256563655353 5.219373702836014 0.0
9.68039392238282 8.786964504862018 0.0
5.910362452777086 9.277662068919813 0.0
7.418090653922814 3.326443419100716 0.0
9.857704179097952 4.697553149694669 0.0
8.452469674653342 8.996585816905599 0.0
9.522351366699843 2.057525484575908 0.0
7.802315574700843 9.548878971475935 0.0
9.938875656926385 3.449999999992592 0.0
8.425189037911712 6.608575180629274 0.0
5.925965231566842 2.523669697740033 0.0
6.654918072256329 5.95749128982984 0.0
9.826748589235729 9.631118448471485 0.0
8.6684585637523 7.39633999085442 0.0
9.844673843931567 3.090088625379724 0.0
9.93613850661301 2.250382721159617 0.0
9.218291993658738 2.892108990205171 0.0
9.83502846611296 8.212781989607324 0.0
7.754136409732265 7.104288507262783 0.0
8.510570542791681 2.036933285735889 0.0
7.757745059307245 4.315798612475442 0.0
7.989231770559189 6.201656630465583 0.0
8.068934521422738 4.198631572122605 0.0
4.957478134450373 9.038766150325067 0.0
7.208661142641733 6.501402463831379 0.0
7.299506095906239 4.363561999234681 0.0
8.250303873550486 2.105322217421675 0.0
8.678637541413377 7.053471135702286 0.0
9.761528395137384 6.163503990672834 0.0
9.84494857233395 8.59999999999775 0.0
9.83825138794677 3.672838954969637 0.0
5.121008544047756 5.808127183024784 0.0
8.343911550360986 4.043535893276861 0.0
9.85324441775315 5.899999999993774 0.0
9.51114465213134 8.41035540646284 0.0
6.505812179224195 6.93390566262983 0.0
6.15572847138365 9.023097246950844 0.0
3.352081892333425 3.024853379890529 0.0
6.433163283162099 8.675072413910678 0.0
8.825744236698243 3.624446391299867 0.0
4.883007294861279 7.819620905924936 0.0
5.876659170760434 5.638247433601083 0.0
6.859400040348503 6.510797998354633 0.0
7.946400945409184 3.500317276373196 0.0
7.496830255505493 6.653194511698024 0.0
9.852183479755313 4.891525833556942 0.0
9.77998778436291 2.922486526124376 0.0
6.774672660492365 5.324728659740495 0.0
5.717254072187427 6.824125962512845 0.0
9.713440940838062 4.63793103997539 0.0
8.859858662536796 0.2721395536350836 0.0
8.37556017530946 9.436653414116012 0.0
7.395237381047616 7.885576562773319 0.0
5.4709157802033 4.511152089197594 0.0
9.489749416979361 9.691840729914848 0.0
4.599216022837964 3.46438688931078 0.0
5.572287492757569 4.807021644849729 0.0
9.926499336309957 9.92730688390086 0.0
9.926499336310107 0.07269311609890093 0.0
9.338127766332573 0.3585313952168247 0.0
6.810761948165162 3.414693294319008 0.0
8.166274345037138 5.943611545564389 0.0
5.2892644736731 6.301081312912763 0.0
9.731911074791544 7.649313380659622 0.0
8.90251102352767 9.50983415326544 0.0
8.997881406541017 1.033666784655452 0.0
5.835124768755703 2.738139962594905 0.0
9.665357480775825 6.185331297099201 0.0
7.656532192558493 8.217157287499347 0.0
9.170463887605525 2.975444721032631 0.0
4.208158615905443 0.8648302238584886 0.0
6.97015686031129 5.933674629077266 0.0
6.181941366523793 3.565885175921835 0.0
3.30313590337911 6.393402837735046 0.0
6.447482061767014 4.816169316820496 0.0
8.185341428749446 4.169172087371246 0.0
4.552595724340015 8.298301336212145 0.0
9.84850676569699 8.999999999998423 0.0
9.846941514449377 7.393642828194986 0.0
7.924592433490734 2.788309934035703 0.0
8.154308714226714 8.853640122009672 0.0
8.876629743004642 1.96110242719995 0.0
7.228849192966834 8.90811350348676 0.0
9.852301635085423 8.296637825215246 0.0
5.219795195341889 5.547413133147649 0.0
9.861497117995457 6.901363010201344 0.0
2.953911258021604 6.136007283255669 0.0
6.93158841067062 4.77708273647784 0.0
9.67540418457871 2.912802891506324 0.0
4.194055958522277 4.437353127730132 0.0
6.133959559341536 0.406856611599261 0.0
8.29952795189331 9.309744645643846 0.0
9.843692337952948 1.209647690818311 0.0
5.164986286280336 6.671544079402435 0.0
9.838533350075606 2.081705440779448 0.0
8.301244777513975 6.604088853319459 0.0
5.471494771710784 2.714598185146428 0.0
8.86534684892311 1.208599471795828 0.0
9.940610684232212 1.451558535868664 0.0
9.40896208432968 1.428353940655538 0.0
2.329177605337097 4.238803555614174 0.0
5.980761651517799 7.182207186682233 0.0
9.66541573964336 0.1719254072074424 0.0
7.220979380229172 7.806128737674462 0.0
1.251721227904697 6.151932667911503 0.0
8.104967286191181 6.057912607875576 0.0
6.650768762224724 4.817922869198292 0.0
6.634976350437587 3.213339182992986 0.0
7.034320437500567 4.898219100342838 0.0
9.502772020064167 6.283064492634301 0.0
8.13187938667684 3.518506862055515 0.0
9.855471943454193 2.599999999994991 0.0
9.056747742708522 8.263936599935574 0.0
4.352645795441222 5.724453640019 0.0
3.744263984699181 1.488951698361357 0.0
5.175860134287045 3.6375726667098 0.0
7.736434712114619 6.400417475661193 0.0
9.857658576695343 6.316607183405179 0.0
7.876525261950537 4.304285002335559 0.0
9.856114384785611 7.914602773442983 0.0
9.848334119947063 0.7059644476295188 0.0
9.59694321995579 6.895814046141667 0.0
5.906465212962551 3.869023950643881 0.0
9.840676994268005 9.364956386459765 0.0
5.355015287544095 3.83518170601625 0.0
6.374090407153147 5.855743754257685 0.0
8.227401290513832 5.297819733684674 0.0
5.451235131977493 4.825706629991923 0.0
6.022070213762754 5.355923882747634 0.0
9.845674433677614 6.108401449483281 0.0
9.835067400944396 7.739582406783081 0.0
8.602026805792988 2.941372356914139 0.0
5.059869081004962 5.269480960018243 0.0
5.284714507903736 5.26496663762182 0.0
9.627110479149561 7.660076105040499 0.0
6.820001127809743 4.792514421153957 0.0
5.120512795059439 4.806607659110254 0.0
9.56933817216883 2.911464407429096 0.0
9.74091654291531 9.267545397628387 0.0
9.93006767325302 6.576784040838644 0.0
9.642486276936268 4.650227701598451 0.0
5.185183328569137 9.410919109238325 0.0
9.37052946854105 4.605636695802024 0.0
1.677077220416309 5.871167715901136 0.0
7.345783833404538 3.184020711886284 0.0
5.419239942654976 5.982692039856376 0.0
6.133318300188262 2.551919945731369 0.0
6.187291396343277 4.499077117404439 0.0
1.231465237822878 3.921479198315213 0.0
8.969849937139944 9.699215363213542 0.0
9.218303154263054 6.037447959776716 0.0
CELLS 4886 19544
3 1113 1356 1450
3 1402 231 1659
3 272 269 1414
3 396 394 1777
3 1451 945 1452
3 194 81 1801
3 1847 1501 2104
3 2024 2121 2479
3 1115 1113 1450
3 1124 1413 1844
3 1061 1955 2409
3 307 305 1645
3 1592 1369 1593
3 238 1501 1847
3 1955 1883 2409
3 1808 243 1910
3 1885 978 2362
3 1440 793 2092
3 189 1488 1608
3 353 350 1864
3 2007 2231 2232
3 307 1645 2493
3 1096 1760 2496
3 2178 874 2179
3 621 625 1595
3 1493 1480 1938
3 1655 1268 2137
3 1341 1410 2212
3 243 1808 2360
3 1902 1446 2516
3 1760 1096 1763
3 856 790 2180
3 2008 2046 2105
3 789 1809 2067
3 694 1543 1575
3 1127 1762 1953
3 1748 807 2228
3 1543 1308 1575
3 820 1872 2170
3 1417 954 1998
3 1369 1592 2386
3 272 1414 1787
3 329 333 1998
3 1544 1095 1545
3 2231 1490 2232
3 1342 1683 1790
3 374 377 1797
3 807 1678 2228
3 1665 198 2128
3 141 142 1620
3 325 322 1952
3 231 1402 1654
3 198 1665 2010
3 1890 1307 2387
3 208 1438 1619
3 2016 1970 2156
3 1436 212 2020
3 954 1417 2333
3 1736 1894 2244
3 1491 1750 2143
3 1677 1064 2146
3 1474 1258 1475
3 1500 233 1930
3 1446 2415 2516
3 1700 973 1800
3 2128 2270 2316
3 1316 1315 1593
3 1307 2341 2387
3 2258 1324 2328
3 1083 1507 1508
3 693 1095 1544
3 621 1595 1596
3 667 1571 1872
3 1932 1766 2061
3 393 391 2240
3 1342 1790 2400
3 252 1707 2234
3 931 978 1885
3 1430 1116 1704
3 1411 1109 1714
3 1478 1227 2440
3 1990 195 2297
3 1792 1167 1985
3 1682 444 1975
3 394 397 1777
3 1711 2028 2162
3 1574 856 2180
3 2008 1851 2046
3 736 1493 1938
3 1069 1060 1662
3 1458 455 1754
3 862 691 1705
3 1161 1642 2286
3 1699 1700 1800
3 447 516 1637
3 955 1482 1483
3 2024 206 2121
3 391 1773 2240
3 1072 1412 1893
3 212 1436 2350
3 1566 1365 1568
3 259 1441 1672
3 872 870 1764
3 330 328 1889
3 1539 1161 2286
3 1897 1898 2275
3 1434 1990 2297
3 1109 1411 1730
3 319 307 2493
3 1762 1761 1953
3 1369 1316 1593
3 1540 834 1832
3 1505 652 2442
3 1732 1655 2137
3 921 1712 2295
3 1872 1388 2170
3 1712 921 2125
3 2028 244 2162
3 1506 1570 1680
3 1569 368 1964
3 1571 667 2375
3 1587 2178 2179
3 196 1723 1737
3 524 2016 2156
3 1528 1250 1733
3 1115 1450 1973
3 1938 1480 1971
3 1809 1396 2067
3 1641 249 2299
3 1223 1258 1474
3 1365 1566 2120
3 1981 962 2316
3 1538 353 1864
3 455 1458 1756
3 152 233 1500
3 1116 1430 1703
3 817 652 1505
3 1347 2003 2004
3 1607 1958 2085
3 194 1801 2195
3 1410 1341 2351
3 223 1415 1710
3 197 1511 2346
3 2198 787 2225
3 81 82 1801
3 1438 208 1620
3 1444 522 1823
3 1511 197 1950
3 726 718 1567
3 1637 516 1739
3 1708 2337 2341
3 1280 1649 2124
3 2337 1395 2341
3 1327 1709 2315
3 1225 1227 1478
3 691 624 1705
3 476 2224 2305
3 830 832 2204
3 1750 1491 2403
3 1366 1897 2275
3 2345 1583 2352
3 2054 405 2110
3 1984 2172 2230
3 1846 2198 2225
3 1177 2042 2418
3 2121 1367 2479
3 1527 1531 1541
3 916 1039 1834
3 1413 1124 2467
3 1622 1503 1868
3 249 1641 2019
3 1805 405 2054
3 1761 1007 1953
3 1415 223 2395
3 960 1756 2203
3 368 1569 2135
3 1402 1659 2473
3 941 1433 2471
3 1267 1477 1501
3 260 2002 2265
3 1704 558 2077
3 2224 1886 2305
3 2053 1386 2199
3 1452 945 1952
3 1717 1611 1718
3 1682 1975 2230
3 1760 1762 2496
3 1481 203 2104
3 1264 1266 1670
3 142 236 1620
3 2133 1182 2179
3 1791 1602 2183
3 350 346 1864
3 1412 1072 2393
3 1281 1575 2255
3 1565 1948 2155
3 849 1449 1513
3 1958 396 2085
3 1339 1069 1662
3 834 1540 1917
3 269 267 1414
3 1268 1267 1501
3 1440 2092 2468
3 1399 1981 2316
3 1635 1636 2041
3 1454 252 2234
3 1451 1305 1890
3 1375 1883 1955
3 362 366 1786
3 1484 2410 2528
3 1449 849 1640
3 1267 1474 1477
3 200 1611 1717
3 1054 1581 1582
3 1350 1977 2253
3 190 1390 2118
3 788 1956 2193
3 1709 1327 1888
3 2233 2298 2413
3 1488 189 2355
3 478 1685 1714
3 230 1525 1690
3 1687 478 1688
3 427 429 1756
3 1570 1065 2476
3 1880 1133 1988
3 1649 656 2124
3 1537 209 1614
3 1134 1769 1986
3 1220 1268 1655
3 396 1777 2085
3 1167 1755 1985
3 2229 1744 2296
3 1575 1281 2287
3 127 240 1882
3 377 647 1797
3 954 329 1998
3 220 1697 1698
3 1342 1341 2212
3 1441 264 1672
3 1512 188 2433
3 763 2345 2352
3 1685 1411 1714
3 1805 1188 1951
3 1347 2004 2157
3 1054 1582 1667
3 1333 1617 1674
3 2217 73 2361
3 1539 1036 1917
3 1039 1292 1834
3 208 141 1620
3 1965 1964 2038
3 693 1544 1969
3 1453 239 2279
3 203 1481 2049
3 945 1451 1889
3 680 1459 2134
3 354 2147 2196
3 1405 1932 2061
3 1723 1722 1737
3 1748 1175 1927
3 1532 1528 1733
3 2057 1824 2154
3 1406 1659 1702
3 1948 1186 2155
3 210 1598 2114
3 1685 478 1687
3 1324 1325 2328
3 1526 1250 1527
3 165 166 1509
3 1493 736 2523
3 1526 1527 1541
3 1390 190 2417
3 522 1444 1998
3 1680 1570 1732
3 1017 1442 2525
3 374 1797 2430
3 1507 1083 2197
3 1756 960 2221
3 2270 1400 2316
3 2205 1452 2282
3 1074 1187 1888
3 2158 1245 2200
3 1442 1017 1684
3 864 1116 1703
3 1750 1751 2143
3 1456 516 1492
3 1677 2146 2149
3 2022 1339 2388
3 1602 258 2183
3 678 1594 1595
3 1245 1670 2200
3 972 830 2204
3 2143 983 2342
3 1268 1501 2226
3 1266 1461 1670
3 1487 222 2465
3 1382 2022 2388
3 58 59 1661
3 2147 1543 2196
3 1484 1485 2410
3 628 2053 2199
3 1906 1549 2259
3 364 362 1786
3 1339 2022 2247
3 1636 525 2041
3 625 678 1595
3 678 1593 1594
3 2212 1410 2222
3 1837 1865 2215
3 1699 1800 1801
3 866 864 1703
3 893 1472 1982
3 1735 1736 2244
3 1633 1255 1922
3 126 127 1882
3 681 867 1656
3 1351 1401 2363
3 11 228 1588
3 1127 1953 2454
3 265 266 267
3 1722 1122 1737
3 1389 1691 2069
3 1613 1610 1616
3 1227 1256 2440
3 429 455 1756
3 1535 1177 2418
3 322 324 1952
3 973 1700 1802
3 1964 368 2038
3 1176 1865 1866
3 1096 872 1764
3 1176 1866 1875
3 193 1839 1892
3 156 157 1441
3 615 617 1596
3 686 1520 2480
3 1409 2097 2305
3 2410 1151 2528
3 1427 2217 2361
3 440 1911 2314
3 1744 1743 2296
3 516 1456 1739
3 1939 589 2164
3 690 931 2150
3 1062 1579 1580
3 1054 1580 1581
3 955 1483 1716
3 1064 1677 2248
3 1956 1616 2193
3 1776 1893 2026
3 1398 1115 1973
3 2002 1453 2265
3 1541 1531 1542
3 216 2191 2536
3 1736 1326 1894
3 1065 994 1066
3 1598 2115 2175
3 2314 1911 2358
3 1433 941 2042
3 2115 1209 2175
3 717 1550 1551
3 188 1941 2433
3 267 1132 1414
3 771 1569 2064
3 1157 1545 1546
3 1231 1250 1526
3 1933 240 2181
3 222 1487 2025
3 1525 230 1765
3 1430 1704 2077
3 757 1744 2495
3 264 263 265
3 883 773 1917
3 739 2205 2282
3 1667 1582 2434
3 1744 757 2474
3 239 1453 2002
3 1441 259 2356
3 2005 1443 2012
3 254 1766 1932
3 1509 166 1679
3 1477 1475 1481
3 793 1440 2165
3 1385 1523 2377
3 1481 1475 2523
3 156 1441 2356
3 1066 1220 1655
3 945 325 1952
3 2094 2087 2134
3 1747 1175 1748
3 253 262 263
3 1327 1074 1888
3 718 715 1567
3 2046 1043 2105
3 240 1933 2399
3 1305 1307 1890
3 224 58 1661
3 1195 1566 2285
3 1590 1393 1749
3 1255 1230 1922
3 353 1538 2073
3 358 1999 2325
3 882 1802 2036
3 1024 1020 1604
3 333 522 1998
3 1401 1351 2414
3 1475 1258 1476
3 2310 786 2364
3 328 945 1889
3 807 1748 1927
3 825 724 1912
3 1742 263 2491
3 267 266 1132
3 2077 2102 2203
3 1431 1432 1860
3 1212 1957 2312
3 2097 476 2305
3 1132 1402 2473
3 717 713 1550
3 1746 693 1969
3 1372 1124 1844
3 1256 1541 2269
3 1977 1350 2274
3 2332 1978 2443
3 874 2133 2179
3 1983 1534 2171
3 1157 1544 1545
3 1230 1228 1922
3 1580 1579 1581
3 1565 806 1948
3 1416 1363 2413
3 1287 1995 2398
3 265 263 266
3 1534 1529 2171
3 1604 1834 2428
3 1255 1633 2509
3 1344 1643 1644
3 1332 1388 1571
3 1423 217 2217
3 2191 1057 2451
3 458 447 1637
3 1250 1233 1733
3 472 2212 2222
3 1175 1747 1840
3 1652 256 1653
3 1073 1347 1572
3 200 145 1609
3 683 640 1585
3 1116 862 1705
3 1221 1223 1474
3 1778 801 1803
3 1503 1622 2471
3 1475 1493 2523
3 464 680 2134
3 14 210 2114
3 579 1880 1988
3 1434 1435 1990
3 1447 2310 2364
3 275 274 276
3 2294 1871 2419
3 814 1068 1684
3 1172 1439 2273
3 273 272 274
3 1363 1416 2406
3 1220 1219 1221
3 1060 1656 1662
3 1099 1792 1985
3 2048 1198 2168
3 1241 1245 2323
3 699 723 1753
3 1640 1862 2070
3 910 1018 1584
3 1586 1067 1587
3 1656 867 1662
3 1067 686 2480
3 654 2242 2294
3 1593 1315 1594
3 1880 553 1974
3 236 1717 1718
3 617 621 1596
3 1723 196 2313
3 402 1877 2116
3 273 274 275
3 2202 1869 2252
3 1510 1358 1767
3 193 1892 2373
3 1188 1805 2054
3 1220 1221 1267
3 1066 1218 1219
3 1517 1097 1518
3 1677 1676 1858
3 686 277 1520
3 268 267 269
3 697 857 1592
3 220 1698 1699
3 1802 1700 2036
3 1612 1537 1614
3 929 817 994
3 228 12 2136
3 2110 2116 2482
3 1659 1658 1702
3 1611 1613 2280
3 1344 991 1643
3 683 1585 1604
3 1638 1358 2404
3 1485 1034 2410
3 2214 833 2424
3 271 272 273
3 1482 955 1962
3 1066 1219 1220
3 931 1885 2150
3 1613 1891 2280
3 1189 1589 2204
3 1566 1195 2120
3 726 1567 2490
3 1122 1722 1874
3 1494 319 2493
3 1671 259 1672
3 1267 1221 1474
3 603 528 1591
3 1664 2128 2316
3 1817 1924 2174
3 1626 1660 2111
3 1474 1475 1477
3 1023 1062 1580
3 1957 1599 2312
3 1764 1939 2164
3 1358 1950 2404
3 200 1609 1610
3 1431 1082 1432
3 1778 1803 2521
3 1830 1832 2075
3 1930 233 2369
3 1329 1482 1650
3 757 1959 2522
3 1239 1247 1597
3 758 1978 2332
3 1569 1290 2064
3 216 1694 2191
3 1453 1420 2265
3 1549 1906 2129
3 24 215 1674
3 19 235 1676
3 1621 1057 2191
3 1691 1389 2262
3 1617 1333 2192
3 929 994 1065
3 1769 1672 1986
3 1893 1412 2026
3 1609 1537 1612
3 271 269 272
3 1373 1438 1620
3 217 1423 2381
3 517 330 1889
3 1322 1055 1667
3 1974 553 2499
3 228 2136 2187
3 1589 1189 1788
3 1999 1577 2325
3 2110 405 2116
3 189 1608 1842
3 1055 1050 1667
3 739 1455 2205
3 1865 1176 2215
3 319 1494 2522
3 2474 757 2522
3 1484 227 1485
3 10 11 1588
3 723 809 1753
3 27 230 1689
3 1550 806 1565
3 1179 1180 1217
3 207 1617 2192
3 1433 1217 1502
3 1562 1556 1606
3 1379 2017 2018
3 1245 2158 2323
3 675 1097 1517
3 884 501 1599
3 1020 683 1604
3 1603 1095 1848
3 1001 2057 2154
3 1604 1585 1834
3 1610 1612 1616
3 1764 870 1939
3 2242 1871 2294
3 1669 1264 1670
3 1658 213 1702
3 1995 1646 2398
3 631 539 1600
3 1491 2143 2342
3 1801 1800 2195
3 1200 1199 1693
3 1535 940 1861
3 1534 758 2332
3 914 2258 2328
3 1588 228 2457
3 216 138 1694
3 151 152 1500
3 1133 1880 1974
3 1677 1858 2248
3 1294 1622 1868
3 875 1010 1767
3 1379 2018 2416
3 1279 2202 2252
3 182 256 1652
3 1592 857 2386
3 672 681 1656
3 615 1596 1824
3 1093 1487 1623
3 1823 522 2100
3 1245 1242 1669
3 1582 1581 1583
3 758 1534 2306
3 1975 1984 2230
3 1358 1510 1950
3 1663 1336 1665
3 2102 960 2203
3 366 1087 1786
3 1740 1490 2231
3 21 207 1709
3 145 146 1609
3 2339 765 2384
3 603 1591 1668
3 2081 199 2149
3 1540 1832 1879
3 1721 1723 1947
3 1754 455 1793
3 1751 1753 2119
3 882 1701 1807
3 1540 1539 1917
3 242 1695 1697
3 1521 354 2091
3 1363 2233 2413
3 1584 1018 1925
3 703 1067 1586
3 1177 1178 1179
3 795 916 1834
3 277 276 607
3 1571 1388 1872
3 22 23 1617
3 1097 823 1177
3 25 26 1624
3 419 418 1790
3 1728 1906 2259
3 440 1455 2261
3 1877 1318 2116
3 1488 1156 1608
3 1439 2130 2273
3 1889 1451 1890
3 1614 209 2389
3 1472 893 2094
3 675 821 823
3 23 24 1674
3 1788 1190 2183
3 917 941 1622
3 1763 1096 1764
3 1068 1442 1684
3 1034 1485 2173
3 2172 1533 2230
3 138 139 1694
3 1065 1570 2197
3 607 674 675
3 1536 1248 2268
3 229 135 1734
3 1437 1925 1926
3 680 510 1646
3 147 209 1537
3 26 27 1689
3 1627 705 2163
3 206 1651 2121
3 2409 1785 2462
3 1492 682 2447
3 1223 1225 1258
3 889 1772 2374
3 253 263 264
3 275 276 277
3 1455 739 2261
3 2022 1382 2176
3 150 227 1484
3 639 1019 1591
3 1449 1640 2070
3 1082 833 2214
3 1503 1502 1504
3 144 200 1717
3 1643 991 1713
3 1190 1791 2183
3 1538 1804 2073
3 1256 2269 2440
3 18 19 1676
3 521 531 2000
3 790 849 2180
3 1075 1329 1650
3 1087 1782 1785
3 1066 994 1218
3 270 269 271
3 682 1492 2494
3 185 252 1454
3 253 158 262
3 1629 1632 1633
3 200 1610 1611
3 1477 1481 2104
3 1623 1487 2465
3 1518 1097 1535
3 1414 1132 2460
3 1179 1217 1433
3 177 1506 1680
3 1392 1017 2525
3 1832 834 2075
3 675 823 1097
3 1459 2094 2134
3 1782 1087 1795
3 1838 1730 2372
3 1639 149 2528
3 1617 23 1674
3 2265 1420 2489
3 180 232 1859
3 1527 1250 1528
3 20 21 1709
3 1083 1508 2311
3 903 866 1703
3 1455 440 2314
3 1187 1858 1888
3 1659 1406 2473
3 1446 1902 2166
3 421 1951 2106
3 1598 210 2115
3 154 259 1671
3 1288 1835 2080
3 1832 1831 1879
3 1258 1225 1478
3 1024 1604 2117
3 1263 1429 1739
3 706 705 1627
3 1583 1581 2352
3 407 1805 1951
3 856 1574 2527
3 1701 882 2036
3 1624 26 1689
3 717 1551 1552
3 1385 2377 2391
3 2302 1745 2354
3 1572 1347 2157
3 1036 883 1917
3 1689 1690 1691
3 1664 1665 2128
3 1476 1479 1480
3 1751 2119 2143
3 815 814 1684
3 1790 889 2400
3 1606 1607 2085
3 265 267 268
3 418 889 1790
3 1522 1521 2091
3 135 136 1734
3 1726 1445 1729
3 647 1796 1797
3 1346 1453 2279
3 1293 1827 2117
3 1242 1244 1669
3 1853 1852 1854
3 889 2374 2400
3 1039 1038 1290
3 1524 628 2199
3 1331 1332 1571
3 1291 1290 1569
3 1475 1476 1493
3 1850 1852 1853
3 1490 1740 2456
3 1689 230 1690
3 1256 1526 1541
3 1704 1705 2167
3 1465 1470 1675
3 956 1073 1572
3 1613 1616 1956
3 916 917 1038
3 2014 1522 2091
3 1221 1222 1223
3 1999 763 2352
3 234 10 1588
3 1697 220 2335
3 1527 1528 1529
3 2298 1600 2413
3 1436 2020 2254
3 1642 1161 1678
3 1523 1385 2436
3 1730 1838 2426
3 795 796 916
3 713 711 1550
3 1456 1263 1739
3 999 1336 1663
3 1785 1784 2462
3 409 415 1783
3 607 675 1517
3 1229 1231 1526
3 1958 1855 2078
3 1589 1588 1590
3 1933 261 2380
3 762 1965 2038
3 1756 1458 2203
3 1776 597 1893
3 1794 1072 1893
3 188 1512 2266
3 1774 2339 2384
3 188 1908 1941
3 1010 1510 1767
3 2189 2285 2307
3 773 834 1917
3 1245 1669 1670
3 1248 1597 2268
3 146 1537 1609
3 818 910 1584
3 1641 1313 1651
3 1217 1745 2302
3 1065 1066 1655
3 1597 1247 2047
3 1360 2177 2376
3 1612 1615 1616
3 2126 867 2186
3 1019 683 1020
3 1747 892 1840
3 1092 1093 1623
3 261 1933 2181
3 400 424 1666
3 1516 1903 2377
3 1100 1392 1605
3 247 1738 1881
3 268 1134 1986
3 1177 823 1178
3 884 1599 1957
3 263 262 2491
3 806 1627 1948
3 1227 1229 1256
3 191 1729 2504
3 1636 1635 2502
3 1480 1479 1601
3 1721 1947 2498
3 1924 1146 2174
3 229 1734 1735
3 175 204 1725
3 1179 1178 1180
3 354 1521 2147
3 665 697 1592
3 640 646 1585
3 627 545 1636
3 1882 240 2399
3 1556 1555 1606
3 1373 1620 2394
3 1871 1071 2419
3 548 1628 1629
3 455 436 1793
3 974 1831 1841
3 1844 1413 2392
3 1612 1614 1615
3 209 1639 1937
3 1329 1330 1331
3 1823 2100 2142
3 1097 1177 1535
3 1021 1020 1022
3 825 1912 2455
3 913 1122 1874
3 400 1666 2113
3 1256 1229 1526
3 1419 1418 2450
3 1552 1551 1553
3 1850 1099 1852
3 1629 1631 1632
3 801 685 2029
3 1618 1619 1621
3 265 268 1986
3 1715 2165 2330
3 1531 1529 1534
3 1022 1024 1576
3 658 693 1746
3 703 686 1067
3 1062 1576 1577
3 1023 1022 1062
3 236 1718 2394
3 1688 502 1740
3 1501 1477 2104
3 213 165 1509
3 646 795 1585
3 196 1737 1738
3 379 679 1795
3 639 640 683
3 924 875 1767
3 1752 699 1753
3 207 2192 2315
3 627 1636 1660
3 1217 1180 1745
3 730 728 1833
3 528 561 1591
3 1444 1417 1998
3 252 186 1602
3 1729 1445 2504
3 460 502 1688
3 1418 946 1778
3 1203 1200 1693
3 548 470 1628
3 849 668 1640
3 646 785 795
3 607 276 674
3 14 15 210
3 147 148 209
3 478 460 1688
3 1709 207 2315
3 1157 1546 1608
3 1155 1731 1899
3 1524 1934 2390
3 1775 921 1876
3 1433 1502 1503
3 470 458 1628
3 1223 1224 1225
3 1291 1569 1964
3 871 1056 1826
3 1781 1783 1915
3 1587 1067 2300
3 916 1038 1039
3 1388 1387 1389
3 1611 1610 1613
3 1075 1328 1329
3 1039 1290 1291
3 1538 1265 1804
3 1184 1185 2163
3 597 598 1794
3 1450 1356 2421
3 1835 576 2080
3 1629 1628 1631
3 1331 1330 1332
3 561 639 1591
3 1476 1480 1493
3 705 703 1586
3 639 683 1019
3 1951 1188 2106
3 436 446 1793
3 1472 1297 2142
3 1332 1387 1388
3 1345 984 1720
3 1329 1328 1330
3 1050 1048 1667
3 150 151 227
3 11 12 228
3 557 541 2256
3 1831 974 1879
3 134 229 1766
3 1357 1358 1638
3 1336 1641 2299
3 1650 1482 1962
3 1591 1019 2512
3 1506 1507 1570
3 1803 801 2029
3 1178 823 1972
3 1552 1553 1554
3 1290 1038 1294
3 1028 1313 1641
3 1237 1239 1597
3 993 1017 1100
3 893 2087 2094
3 149 1484 2528
3 1768 1142 1949
3 9 234 1673
3 1554 1553 1555
3 668 632 1640
3 711 806 1550
3 1628 458 1637
3 1098 1829 1830
3 1482 1331 1483
3 531 1818 2000
3 435 419 1790
3 1156 1157 1608
3 1182 1184 2179
3 510 512 1646
3 1231 1233 1250
3 946 841 1778
3 1483 1331 1571
3 1459 680 2458
3 1166 1040 1210
3 892 1657 1820
3 1042 1445 1726
3 1019 1020 1021
3 749 805 1810
3 234 1588 1589
3 1695 242 1892
3 556 1853 2483
3 1018 1572 1573
3 1529 1528 1530
3 1606 1558 1607
3 1761 1759 2308
3 1396 1032 1921
3 1018 956 1572
3 689 1150 1416
3 1827 1293 2515
3 149 150 1484
3 1647 656 1648
3 1543 694 2196
3 399 409 1783
3 545 525 1636
3 268 269 270
3 715 713 717
3 1100 1017 1392
3 1657 892 1747
3 207 22 1617
3 1666 884 2249
3 1671 1672 1769
3 1554 1555 1556
3 146 147 1537
3 1081 1444 1822
3 711 709 806
3 1443 2005 2322
3 660 658 1746
3 1166 1458 1754
3 916 796 917
3 1056 1728 1826
3 1068 1069 1275
3 184 185 1454
3 158 159 262
3 2007 1687 2231
3 805 1708 1810
3 1672 264 1986
3 1561 1562 1563
3 978 1075 1650
3 1590 1588 2457
3 215 25 1624
3 1551 1550 1565
3 1073 1346 1347
3 857 818 1584
3 1648 656 1649
3 675 674 821
3 561 594 639
3 1731 529 1899
3 2303 1454 2535
3 981 903 1040
3 1630 1629 1633
3 993 877 1017
3 724 718 726
3 512 603 1646
3 1676 235 1858
3 814 1060 1068
3 715 717 1567
3 1796 647 1870
3 1715 1171 2165
3 678 1592 1593
3 644 613 1824
3 1690 1525 2145
3 1297 1822 1823
3 271 656 1647
3 1704 1116 1705
3 1225 1226 1227
3 1275 1069 1338
3 910 956 1018
3 1824 1596 2154
3 1403 1100 1605
3 1221 1219 1222
3 1068 1060 1069
3 1901 245 1949
3 1081 1055 1321
3 1751 563 1752
3 1021 1022 1023
3 672 638 681
3 1095 657 1848
3 1235 1237 1248
3 1561 1556 1562
3 1265 1259 1804
3 524 1819 2016
3 978 1650 2362
3 1492 516 2494
3 229 1735 2061
3 185 186 252
3 157 158 253
3 152 153 233
3 9 10 234
3 1527 1529 1531
3 1808 1344 2360
3 1062 1577 1579
3 1509 1679 1977
3 424 454 1666
3 637 638 672
3 981 1040 1166
3 1555 1558 1606
3 751 749 1810
3 1166 1210 1458
3 1651 1313 2121
3 15 16 2260
3 1633 1632 2509
3 2167 1705 2276
3 551 602 2045
3 697 818 857
3 364 1786 1883
3 832 1189 2204
3 1476 1478 1479
3 678 665 1592
3 213 1509 2096
3 1015 888 1124
3 1062 1022 1576
3 679 1782 1795
3 680 1646 1995
3 1101 1100 1403
3 1109 433 1714
3 1248 1237 1597
3 733 730 1833
3 1702 213 2096
3 499 498 1828
3 1418 1778 2521
3 637 600 638
3 1048 1046 1054
3 1577 1576 1578
3 814 766 1060
3 1279 2252 2292
3 474 470 548
3 199 18 1676
3 157 253 1441
3 1048 1054 1667
3 471 472 2290
3 625 665 678
3 795 785 796
3 1264 1265 1266
3 1437 1926 2350
3 1362 2048 2168
3 1394 2337 2371
3 454 884 1666
3 1022 1020 1024
3 751 1810 1923
3 1046 1023 1580
3 1807 1701 1931
3 1618 208 1619
3 566 588 689
3 1828 498 1829
3 501 509 1599
3 1118 780 1775
3 878 817 929
3 1510 1511 1950
3 1618 1621 1694
3 1052 1081 1822
3 1416 1150 1715
3 1239 1241 1247
3 1396 1921 2067
3 1751 1752 1753
3 1264 1259 1265
3 539 566 1600
3 1762 1127 2496
3 1673 1788 2183
3 1555 1557 1558
3 1052 1050 1055
3 725 724 825
3 1142 1770 1771
3 681 853 867
3 454 501 884
3 1346 1420 1453
3 932 1147 1770
3 1546 1545 1547
3 533 582 1818
3 1266 1337 1460
3 1872 820 2318
3 1117 1119 1713
3 1081 1321 1417
3 1253 1259 1264
3 1569 771 2135
3 1052 1055 1081
3 1181 1178 1972
3 709 706 1627
3 1073 1076 1346
3 1098 1828 1829
3 1382 1380 2176
3 1442 1275 1443
3 919 999 1663
3 1789 828 1855
3 877 815 1684
3 509 539 631
3 992 877 993
3 1266 1265 1337
3 2268 1498 2340
3 1130 1032 1396
3 1095 1603 2508
3 886 826 887
3 531 533 1818
3 1131 1400 1881
3 447 437 516
3 2460 1132 2473
3 940 1535 2418
3 768 1873 2037
3 1813 1869 1954
3 1627 2163 2488
3 1497 1495 1645
3 1198 1409 2168
3 724 726 1912
3 1869 987 1954
3 763 1999 2338
3 1010 1170 1374
3 984 976 1720
3 1470 1743 1744
3 689 588 1150
3 1901 1949 2359
3 1640 632 1862
3 274 272 1787
3 563 564 1752
3 994 817 1505
3 737 1807 1931
3 1770 1147 1771
3 1233 1235 1733
3 2450 1418 2521
3 414 410 1821
3 908 1099 1850
3 1227 1228 1229
3 1692 1203 1693
3 1625 216 2194
3 512 528 603
3 1377 1357 1638
3 1465 1464 1470
3 1360 1359 2177
3 1686 2007 2095
3 1336 1028 1641
3 1857 751 1923
3 1758 572 1759
3 553 541 557
3 1171 1715 1811
3 956 1003 1073
3 1467 1465 1675
3 719 718 724
3 1509 1977 2096
3 1734 1625 1736
3 1503 1504 1868
3 592 597 1776
3 180 181 232
3 162 163 231
3 2308 1759 2370
3 1357 1114 1358
3 875 946 1010
3 509 631 1599
3 17 18 199
3 144 145 200
3 1099 906 1792
3 1469 1467 1494
3 605 589 1939
3 1208 1205 1211
3 354 344 2091
3 692 782 804
3 1010 946 1170
3 1463 1462 1464
3 716 715 718
3 714 713 715
3 271 273 656
3 139 1618 1694
3 549 277 686
3 673 672 766
3 1378 1377 1379
3 2007 868 2095
3 999 1028 1336
3 1208 1211 1447
3 601 545 627
3 1119 1643 1713
3 1332 1333 1387
3 910 912 956
3 520 521 2000
3 828 1789 1819
3 277 607 1520
3 1338 1339 2247
3 818 819 910
3 767 766 814
3 712 711 713
3 1494 1467 1675
3 639 594 640
3 2044 557 2256
3 235 20 1709
3 1620 236 2394
3 804 919 962
3 1862 702 2070
3 681 852 853
3 1559 1556 1561
3 1622 941 2471
3 2165 1440 2330
3 612 644 692
3 697 698 818
3 1903 1516 1994
3 371 379 1795
3 428 426 2138
3 1290 1294 2064
3 1384 1904 2432
3 566 689 1600
3 471 452 472
3 1092 1091 1093
3 1002 1131 1719
3 1090 1089 1091
3 875 841 946
3 1758 1760 1763
3 1562 1606 2085
3 1833 1830 2075
3 178 179 214
3 164 165 213
3 769 923 1815
3 692 644 782
3 804 782 919
3 182 183 256
3 160 161 257
3 1329 1331 1482
3 962 1663 1664
3 1177 1179 2042
3 403 405 1805
3 1461 1460 1462
3 140 208 1618
3 1859 232 1860
3 274 1787 2099
3 1381 2126 2186
3 1558 1560 1789
3 430 428 682
3 452 435 1683
3 1487 1156 1488
3 1470 1464 1743
3 597 1794 1893
3 1244 1253 1669
3 962 919 1663
3 258 8 1673
3 1087 1785 1786
3 970 1042 1726
3 199 1677 2149
3 1664 1663 1665
3 1229 1230 1231
3 991 827 1713
3 792 1603 1848
3 1822 1444 1823
3 665 666 697
3 19 20 235
3 142 143 236
3 728 1098 1833
3 532 530 1898
3 1015 1124 1372
3 1546 1547 1548
3 1851 1850 1853
3 1877 393 2240
3 923 1105 1815
3 1090 1091 1092
3 687 686 703
3 1683 435 1790
3 887 826 1961
3 684 663 1089
3 426 1934 2138
3 464 510 680
3 853 854 855
3 568 572 1758
3 1376 1357 1377
3 1205 1203 1692
3 1607 1789 1855
3 710 709 711
3 780 781 1775
3 1434 1103 1435
3 876 815 877
3 766 672 1656
3 1393 1590 2457
3 684 1089 1090
3 530 890 1898
3 926 1920 1943
3 696 414 1821
3 1563 1562 1777
3 1054 1046 1580
3 1398 1973 1974
3 137 216 1625
3 1210 1040 1430
3 1750 563 1751
3 2010 1665 2299
3 1510 1374 1511
3 1777 1562 2085
3 1707 252 1791
3 1932 1404 1933
3 459 438 1814
3 139 140 1618
3 1093 1156 1487
3 231 163 1658
3 699 722 723
3 1545 1095 2508
3 598 612 1794
3 579 554 1880
3 1941 1908 2401
3 1231 1232 1233
3 1831 1829 1841
3 1037 1383 1799
3 177 178 1506
3 636 600 637
3 1036 1539 2286
3 1356 1114 1357
3 1523 1516 2377
3 704 703 705
3 403 402 405
3 648 792 1848
3 723 756 808
3 1388 1389 2170
3 933 932 1770
3 223 1710 1711
3 1779 399 1783
3 1223 1222 1224
3 1028 1029 1313
3 257 161 1654
3 418 412 421
3 734 882 1807
3 693 657 1095
3 1368 1370 1436
3 136 137 1625
3 688 652 817
3 1075 1327 1328
3 540 479 1813
3 398 395 402
3 548 1629 1630
3 574 591 699
3 1469 1494 1495
3 1041 1598 2175
3 167 168 202
3 175 176 204
3 2045 2046 2201
3 186 187 1602
3 886 887 888
3 1253 1254 1259
3 8 9 1673
3 792 655 810
3 843 1145 1960
3 1180 1349 1745
3 1165 1345 1512
3 708 706 709
3 136 1625 1734
3 21 22 207
3 140 141 208
3 625 626 665
3 1093 1094 1156
3 1585 795 1834
3 1117 1713 1806
3 599 579 600
3 810 871 1826
3 1047 1046 1048
3 1292 1291 1293
3 161 162 1654
3 199 1676 1677
3 1260 1282 1804
3 1005 1142 1768
3 1233 1234 1235
3 792 810 922
3 1122 1719 1737
3 976 985 1720
3 1278 1279 2292
3 2390 1934 2531
3 1436 1437 2350
3 270 271 1647
3 1199 966 1846
3 1683 1342 2212
3 656 273 2124
3 699 591 722
3 1977 1139 2096
3 1738 1719 1881
3 1722 985 1874
3 1797 1448 1798
3 162 231 1654
3 632 604 1862
3 252 1602 1791
3 1051 1050 1052
3 1045 1023 1046
3 648 655 792
3 993 1100 1101
3 1321 1055 1322
3 806 709 1627
3 904 903 981
3 1220 1267 1268
3 648 605 655
3 1737 1719 1738
3 385 399 1779
3 506 499 1828
3 1132 266 1402
3 1170 1418 1419
3 1323 2302 2354
3 24 25 215
3 137 138 216
3 721 965 1919
3 1787 1414 2460
3 778 1117 1806
3 723 722 756
3 407 403 1805
3 564 574 1752
3 1049 1048 1050
3 842 841 875
3 1608 1546 1842
3 809 808 899
3 1517 1519 1520
3 1530 1532 1533
3 889 421 1772
3 913 1002 1122
3 1314 1316 1367
3 1017 877 1684
3 841 802 1778
3 1235 1236 1237
3 751 1857 1900
3 1114 924 1767
3 1344 1644 2360
3 1895 1394 2371
3 1518 1535 1861
3 1758 1759 1760
3 1122 1002 1719
3 546 563 1750
3 1056 1726 1727
3 663 660 1746
3 621 622 625
3 1720 985 1721
3 1857 1843 1900
3 808 756 913
3 1056 970 1726
3 27 28 230
3 134 135 229
3 908 906 1099
3 163 164 1658
3 1727 1726 1729
3 7 8 258
3 154 155 259
3 1101 1403 1404
3 808 913 1874
3 1260 1269 1282
3 1389 1387 2262
3 1297 1053 1822
3 1555 1553 1557
3 1463 1464 1465
3 230 28 1765
3 1237 1238 1239
3 554 553 1880
3 775 778 1806
3 985 899 1874
3 1270 1524 2199
3 489 1820 1936
3 692 1072 1794
3 1472 2142 2272
3 1845 496 1929
3 438 431 1814
3 613 615 1824
3 1241 1242 1245
3 1783 415 1915
3 1192 2081 2149
3 178 214 1506
3 1816 988 1817
3 1760 1759 1761
3 1103 1092 1623
3 1512 1345 1661
3 1876 921 2295
3 1165 984 1345
3 978 1074 1075
3 1239 1240 1241
3 542 541 553
3 813 988 1816
3 1148 984 1165
3 871 970 1056
3 472 452 1683
3 1207 1796 1870
3 1167 1166 1754
3 1296 1053 1297
3 966 964 1846
3 976 899 985
3 982 976 984
3 702 1815 2015
3 900 899 976
3 1143 995 1206
3 1576 1024 1827
3 1235 1248 1733
3 1558 1557 1560
3 943 995 1143
3 1920 1144 1943
3 1471 2115 2477
3 29 30 255
3 132 133 254
3 1630 1633 1634
3 1225 1224 1226
3 1925 1573 1926
3 1211 1205 1692
3 725 825 826
3 1113 924 1114
3 600 579 1988
3 717 1552 1567
3 1820 1657 1936
3 674 276 2099
3 395 393 1877
3 572 543 1897
3 1575 1308 2255
3 999 1000 1028
3 1118 1775 1876
3 1797 1798 2430
3 526 546 559
3 867 853 2186
3 1142 1771 1949
3 1068 1275 1442
3 679 385 1779
3 1607 1558 1789
3 580 568 1758
3 1244 1252 1253
3 1760 1761 1762
3 398 402 403
3 1476 1258 1478
3 418 421 889
3 1771 1147 1839
3 164 213 1658
3 1720 1721 2267
3 1668 1591 2512
3 1042 1128 1445
3 1098 1830 1833
3 1102 1092 1103
3 2249 884 2466
3 1104 1103 1434
3 410 416 1821
3 514 513 541
3 580 1758 1763
3 637 673 1741
3 1913 936 1914
3 1394 1395 2337
3 919 920 999
3 577 554 579
3 2111 1660 2263
3 231 1658 1659
3 612 613 644
3 568 543 572
3 770 775 1806
3 1445 1128 1446
3 1546 1548 1842
3 448 460 478
3 810 870 871
3 1789 1560 1819
3 1154 1082 1431
3 873 973 1802
3 379 385 679
3 837 850 921
3 1461 1462 1463
3 1346 1076 1420
3 1088 1344 1808
3 2125 1143 2353
3 931 977 978
3 882 772 1802
3 29 255 1765
3 849 1513 2180
3 1713 827 1806
3 1130 1396 1397
3 681 638 852
3 1417 1321 1873
3 1654 1402 2530
3 502 526 1740
3 1124 888 2177
3 1266 1460 1461
3 515 1175 1840
3 1253 1264 1669
3 479 466 1813
3 1727 1729 1757
3 379 380 385
3 1971 1480 2514
3 1637 1739 2459
3 1207 1205 1208
3 529 519 1899
3 1129 1845 1929
3 224 1661 2267
3 192 1856 2361
3 732 734 1807
3 1184 2163 2435
3 1119 1120 1353
3 415 414 431
3 719 724 725
3 559 546 1750
3 871 872 970
3 1038 917 1622
3 574 699 1752
3 166 167 1679
3 1117 1118 1119
3 1409 1196 2035
3 617 619 621
3 1172 1173 1439
3 1191 1005 1768
3 664 663 684
3 494 493 1841
3 890 529 1731
3 840 802 841
3 493 974 1841
3 385 386 399
3 679 1779 1780
3 371 376 379
3 416 433 1109
3 670 769 1815
3 902 866 903
3 1780 1779 1781
3 480 515 1840
3 970 971 1042
3 433 448 1714
3 28 29 1765
3 1005 949 1142
3 778 780 1117
3 959 1037 1799
3 1073 1003 1076
3 535 532 1898
3 1119 1118 1120
3 658 657 693
3 1378 1379 1380
3 1397 1396 1809
3 1610 1609 1612
3 1819 1560 2016
3 1837 952 1865
3 1719 1131 1881
3 1131 1399 1400
3 1352 1138 2058
3 399 406 409
3 548 1630 2041
3 1275 1338 2251
3 582 1816 1818
3 1835 1836 2144
3 993 1101 1980
3 1699 1698 1700
3 2407 364 2505
3 1189 1190 1788
3 1117 780 1118
3 1830 1829 1831
3 637 672 673
3 692 804 1072
3 1204 1203 1205
3 1374 1170 2139
3 612 692 1794
3 1642 1408 2286
3 723 808 809
3 450 459 1812
3 409 410 414
3 802 801 1778
3 1853 1854 2483
3 1042 1127 1128
3 1199 1846 2225
3 1147 990 1273
3 1383 1384 2432
3 432 431 438
3 1353 1120 1390
3 1093 1091 1094
3 2020 250 2254
3 148 149 1639
3 606 605 648
3 1970 2016 2422
3 2201 2046 2327
3 475 471 513
3 412 407 1951
3 1991 246 2139
3 727 695 728
3 1673 234 1788
3 1554 1556 1559
3 1089 663 1746
3 1846 964 2056
3 923 991 1088
3 409 406 410
3 729 728 730
3 1424 1427 1856
3 1473 1911 2407
3 1376 1377 1378
3 1010 1374 1510
3 853 852 854
3 366 369 1087
3 772 873 1802
3 1219 1218 1626
3 1766 229 2061
3 1088 991 1344
3 922 810 1826
3 518 506 695
3 405 402 2116
3 962 1664 2316
3 913 942 1002
3 932 990 1147
3 629 813 1816
3 876 877 992
3 399 386 406
3 932 845 990
3 1002 1123 1131
3 843 996 1145
3 781 837 1775
3 262 2304 2491
3 431 696 1814
3 1273 1695 1892
3 731 730 732
3 737 732 1807
3 439 438 450
3 1829 498 1841
3 800 685 801
3 767 814 815
3 1060 766 1656
3 673 766 767
3 1403 1605 1882
3 716 718 719
3 1338 1069 1339
3 847 752 1843
3 864 862 1116
3 2302 443 2519
3 923 827 991
3 526 559 1740
3 1911 1473 2358
3 1085 1310 1867
3 809 899 900
3 1227 1226 1228
3 729 730 731
3 1436 1370 1437
3 731 732 737
3 769 827 923
3 456 452 471
3 1433 1503 2471
3 1435 1103 1623
3 385 380 386
3 1141 1787 2460
3 1354 1088 1808
3 657 649 1848
3 415 431 432
3 484 892 1820
3 727 728 729
3 855 854 1450
3 1721 1722 1723
3 1643 1353 1644
3 1145 1916 1960
3 1421 1191 1422
3 466 1812 1813
3 943 944 995
3 1356 1357 1376
3 714 715 716
3 1156 1094 1157
3 598 611 612
3 631 1600 2298
3 590 589 605
3 965 969 1919
3 416 1109 1821
3 242 1697 2335
3 1548 1547 1549
3 550 573 584
3 584 604 632
3 409 414 415
3 712 713 714
3 642 670 702
3 818 698 819
3 1006 1005 1191
3 1624 1689 1691
3 169 170 237
3 173 174 238
3 956 912 1003
3 937 936 1913
3 1317 1025 1875
3 515 540 550
3 973 1799 1800
3 973 959 1799
3 518 695 727
3 910 819 912
3 584 573 604
3 1170 946 1418
3 173 238 1847
3 550 540 573
3 982 984 1148
3 900 976 982
3 441 435 452
3 448 478 1714
3 1849 1648 2173
3 1631 1628 1637
3 1830 1831 1832
3 1383 1216 1384
3 734 772 882
3 949 933 1770
3 1332 1330 1333
3 574 575 591
3 1105 1088 1354
3 702 670 1815
3 498 494 1841
3 827 770 1806
3 873 959 973
3 1390 1391 1415
3 450 438 459
3 950 949 1005
3 351 362 364
3 1313 1029 1314
3 432 438 439
3 837 838 850
3 1273 1274 1695
3 850 851 943
3 911 952 1837
3 1259 1260 1804
3 566 587 588
3 1037 1216 1383
3 1337 1265 1538
3 1087 369 1795
3 810 655 870
3 1559 1561 1566
3 1147 1273 1839
3 732 733 734
3 1662 867 2126
3 890 1731 2241
3 1854 1852 2397
3 515 479 540
3 451 450 466
3 697 666 698
3 1367 1316 1368
3 662 660 663
3 365 355 694
3 1358 1114 1767
3 379 376 380
3 1796 1448 1797
3 179 180 1859
3 790 668 849
3 569 568 580
3 690 860 931
3 466 450 1812
3 431 414 696
3 1973 1133 1974
3 651 649 657
3 467 466 479
3 1288 1289 1835
3 264 265 1986
3 1302 1303 1304
3 592 596 597
3 1873 1321 2037
3 544 543 568
3 275 277 549
3 209 1937 2389
3 539 565 566
3 1485 227 1486
3 2384 2190 2408
3 1781 1779 1783
3 480 479 515
3 689 1416 2413
3 1108 1161 1539
3 1867 1310 1895
3 1300 1301 1302
3 1695 1696 1697
3 633 632 668
3 1304 1451 1452
3 988 911 1837
3 168 169 1724
3 969 1012 1172
3 582 629 1816
3 1843 752 1900
3 629 812 813
3 710 711 712
3 1782 1780 1784
3 536 535 543
3 1089 1746 1969
3 1108 1107 1161
3 1514 1426 1856
3 486 484 1820
3 369 371 1795
3 1817 988 1924
3 493 609 974
3 1422 1191 2023
3 1426 1424 1856
3 842 875 924
3 922 1826 2259
3 989 1361 1886
3 928 1070 1288
3 669 668 790
3 1113 1114 1356
3 1027 847 1843
3 728 695 1098
3 734 735 772
3 975 1107 1108
3 955 859 1962
3 813 911 988
3 1208 1448 1796
3 1101 1405 1980
3 602 676 2045
3 586 581 589
3 546 547 563
3 493 491 609
3 628 1524 2390
3 348 344 354
3 1298 1299 1300
3 509 538 539
3 974 609 975
3 813 891 911
3 871 870 872
3 1355 1354 1423
3 489 486 1820
3 778 779 780
3 1025 1176 1875
3 772 773 873
3 803 1743 2347
3 167 202 1679
3 873 883 959
3 1483 1571 2375
3 427 1756 2221
3 540 1813 1954
3 1202 1200 1203
3 959 1035 1037
3 837 921 1775
3 1304 1305 1451
3 1799 1383 2195
3 604 642 1862
3 1470 1744 2474
3 1854 2397 2453
3 1282 1269 1386
3 1573 1572 2157
3 472 2222 2290
3 1307 1708 2341
3 769 770 827
3 1037 1215 1216
3 791 790 856
3 1053 1052 1822
3 1056 1727 1728
3 1341 1138 1352
3 1300 1299 1301
3 1814 696 1838
3 1198 1196 1409
3 492 491 493
3 439 450 451
3 1171 858 2132
3 1259 1254 1260
3 665 626 666
3 970 872 971
3 258 1602 2357
3 1296 1297 1472
3 490 489 491
3 516 437 2494
3 1298 1027 1299
3 846 845 932
3 501 508 509
3 460 461 502
3 448 449 460
3 482 480 1840
3 1229 1228 1230
3 604 641 642
3 1424 1423 1427
3 502 503 526
3 1028 1000 1029
3 935 933 949
3 1084 1085 1867
3 2028 1711 2353
3 1513 1426 1514
3 892 482 1840
3 852 638 1988
3 402 395 1877
3 738 737 845
3 413 412 418
3 1119 1353 1643
3 526 527 546
3 280 279 281
3 1731 1155 2123
3 1042 971 1127
3 1208 1447 1448
3 433 434 448
3 262 159 2304
3 184 1454 2303
3 1051 1052 1053
3 1816 1817 1818
3 1081 1417 1444
3 781 836 837
3 911 951 952
3 1090 1092 1102
3 202 168 1724
3 1085 1309 1310
3 408 407 412
3 1337 1538 1864
3 1515 1514 1516
3 530 529 890
3 1517 1518 1519
3 549 686 687
3 923 1088 1105
3 404 403 407
3 1835 1289 1836
3 1314 1367 2121
3 1380 1379 2416
3 670 671 769
3 899 808 1874
3 1040 903 1703
3 1596 1595 2154
3 1496 1495 1497
3 636 637 1741
3 1377 1638 2288
3 1288 1070 1289
3 1072 804 1981
3 1129 1334 1845
3 1865 1084 1866
3 792 922 1603
3 1253 1252 1254
3 981 1167 1792
3 1302 1301 1303
3 1641 1651 2019
3 952 953 1084
3 1813 1812 1869
3 732 730 733
3 975 1106 1107
3 1142 949 1770
3 981 1166 1167
3 840 841 842
3 451 466 467
3 1273 990 1274
3 1049 1050 1051
3 1473 2407 2505
3 968 966 1199
3 642 643 670
3 1310 1309 1311
3 422 419 435
3 1063 833 1082
3 919 782 920
3 911 891 951
3 1084 953 1085
3 1763 1764 2164
3 1498 1497 1682
3 515 550 1175
3 1079 937 1913
3 642 702 1862
3 845 737 1931
3 1394 1311 1395
3 1395 1521 1522
3 467 479 480
3 1755 1754 1793
3 1231 1230 1232
3 1557 1553 2030
3 1624 1691 2262
3 584 632 633
3 1094 1091 1969
3 708 709 710
3 1948 1627 2488
3 952 951 953
3 1102 1103 1104
3 1047 1048 1049
3 1310 1311 1394
3 1852 1099 1985
3 143 144 1717
3 813 812 891
3 1944 1044 1945
3 1105 1354 1355
3 1300 1302 1455
3 1914 936 1940
3 1415 1391 1710
3 1299 1027 1843
3 952 1084 1865
3 1695 1274 1696
3 776 774 1928
3 282 281 283
3 2003 1347 2279
3 1206 995 1499
3 1164 1685 1686
3 1551 1565 2030
3 969 1172 1919
3 633 668 669
3 734 733 735
3 1373 1372 1438
3 599 600 636
3 1431 1860 2487
3 1579 1577 1999
3 484 482 892
3 917 940 941
3 2144 1836 2169
3 1866 1084 1867
3 1110 1747 1748
3 998 1171 1811
3 1390 1120 1391
3 644 1824 2057
3 1362 1961 2048
3 944 1283 1825
3 1086 1027 1298
3 679 1780 1782
3 974 975 1879
3 507 506 518
3 1121 1079 1401
3 775 777 778
3 1965 762 2349
3 1045 1046 1047
3 1772 421 2106
3 16 17 2081
3 416 417 433
3 921 850 2125
3 1607 1855 1958
3 649 648 1848
3 1241 1240 1242
3 2012 1443 2251
3 926 928 1920
3 1487 1488 2025
3 1006 1191 1421
3 1355 1423 1424
3 1133 852 1988
3 591 592 1776
3 1299 1843 1857
3 1085 1308 1309
3 490 491 492
3 958 694 1575
3 1384 1216 1385
3 741 915 1878
3 1233 1232 1234
3 669 790 791
3 481 480 482
3 687 703 704
3 492 493 494
3 1634 1633 1922
3 1697 1696 1698
3 1721 985 1722
3 1839 1273 1892
3 772 735 773
3 488 486 489
3 950 1005 1006
3 1513 1514 1515
3 454 500 501
3 873 773 883
3 284 283 285
3 2185 1505 2442
3 959 883 1035
3 543 535 1897
3 1904 1384 2093
3 800 801 802
3 1037 1035 1215
3 1293 1964 1965
3 1239 1238 1240
3 943 1143 2125
3 1782 1784 1785
3 913 756 942
3 488 490 1884
3 1590 1749 2501
3 1235 1234 1236
3 791 856 1408
3 702 2015 2070
3 1108 1539 1540
3 1021 1023 1045
3 695 506 1828
3 1530 1528 1532
3 488 489 490
3 1621 1619 2161
3 704 705 706
3 1304 1303 1305
3 558 1704 2167
3 625 622 626
3 542 553 554
3 604 573 641
3 664 684 685
3 564 571 574
3 1108 1540 1879
3 1856 1427 2361
3 880 1025 1129
3 1395 1311 1521
3 1466 1465 1467
3 915 495 1884
3 1515 1516 1523
3 1237 1236 1238
3 606 648 649
3 999 920 1000
3 676 829 1043
3 2100 794 2142
3 227 151 1500
3 577 579 599
3 153 154 1671
3 1175 550 1927
3 1014 888 1015
3 286 285 287
3 1649 1280 2427
3 1725 204 2137
3 975 609 1106
3 1129 1317 1334
3 1109 1730 2426
3 1468 1467 1469
3 1131 1123 1399
3 1215 2235 2378
3 1976 1149 1989
3 397 395 398
3 746 743 1878
3 1041 1343 1598
3 975 1108 1879
3 741 495 915
3 1167 1754 1755
3 288 287 289
3 743 741 1878
3 1274 990 1931
3 1506 214 1507
3 857 1584 2277
3 2341 1522 2387
3 846 932 933
3 1107 1106 1110
3 584 633 1927
3 290 289 291
3 722 591 1776
3 1544 1094 1969
3 1135 270 1647
3 935 949 950
3 1920 1288 2080
3 754 1896 2108
3 1693 1199 2225
3 292 291 293
3 394 393 395
3 745 743 746
3 1002 942 1123
3 731 737 738
3 294 293 295
3 1018 1573 1925
3 296 295 297
3 298 297 299
3 321 322 325
3 317 320 321
3 314 315 317
3 312 313 314
3 310 311 312
3 308 309 310
3 1898 890 2275
3 306 307 308
3 304 305 306
3 1401 1079 1913
3 300 299 301
3 302 303 304
3 300 301 302
3 302 301 303
3 491 489 1936
3 298 299 300
3 304 303 305
3 306 305 307
3 308 307 309
3 310 309 311
3 312 311 313
3 314 313 315
3 317 315 320
3 321 320 322
3 1301 1299 1857
3 514 541 542
3 296 297 298
3 850 838 851
3 1310 1394 1895
3 294 295 296
3 590 605 606
3 292 293 294
3 651 657 658
3 290 291 292
3 1207 1208 1796
3 835 1976 1989
3 621 619 622
3 746 1878 1896
3 481 482 483
3 1026 847 1027
3 1335 1207 1870
3 1661 59 2266
3 727 729 1155
3 288 289 290
3 1058 776 1928
3 662 663 664
3 495 488 1884
3 1959 319 2522
3 943 851 944
3 1293 1291 1964
3 534 532 535
3 640 645 646
3 2280 1014 2385
3 286 287 288
3 591 575 592
3 521 519 529
3 13 14 2114
3 780 779 781
3 918 908 1850
3 837 836 838
3 209 148 1639
3 754 748 1896
3 745 746 747
3 769 671 770
3 929 1065 2197
3 1278 1058 1279
3 483 482 484
3 1564 1557 2030
3 633 807 1927
3 392 391 393
3 1057 1621 2161
3 569 580 581
3 284 285 286
3 876 992 1894
3 497 494 498
3 1630 1635 2041
3 982 1148 1918
3 612 611 613
3 700 634 1044
3 822 674 2099
3 880 1129 1929
3 432 439 654
3 1039 1291 1292
3 1164 1686 1989
3 1129 1025 1317
3 738 845 846
3 582 583 629
3 278 6 279
3 544 568 569
3 1701 1274 1931
3 747 749 751
3 1085 953 1308
3 928 930 1070
3 747 748 749
3 1421 1422 2415
3 902 903 904
3 1309 1308 1543
3 642 641 643
3 904 981 1792
3 646 784 785
3 536 543 544
3 1204 1205 1207
3 365 694 958
3 71 72 217
3 88 89 1901
3 87 88 193
3 101 102 189
3 85 86 242
3 99 100 241
3 74 75 192
3 91 92 219
3 94 95 191
3 83 84 220
3 97 98 221
3 77 78 218
3 80 81 194
3 89 90 245
3 62 63 244
3 60 61 188
3 64 65 223
3 67 68 190
3 90 91 1909
3 98 99 1905
3 61 62 1908
3 69 70 243
3 68 69 1907
3 70 71 1910
3 410 411 416
3 586 589 590
3 685 684 2029
3 390 389 391
3 1715 1150 1811
3 1924 1837 2215
3 282 283 284
3 496 497 1929
3 233 1671 1769
3 627 2185 2442
3 1567 1552 2062
3 629 630 812
3 424 453 454
3 583 562 1942
3 749 750 805
3 744 743 745
3 1897 535 1898
3 467 480 481
3 504 759 880
3 670 643 671
3 89 245 1901
3 193 88 1901
3 221 98 1905
3 245 90 1909
3 91 219 1909
3 62 244 1908
3 188 61 1908
3 99 241 1905
3 190 68 1907
3 71 217 1910
3 69 243 1907
3 243 70 1910
3 505 499 506
3 475 513 514
3 1945 1044 2071
3 1712 2125 2353
3 339 343 440
3 989 1360 1361
3 764 869 1152
3 778 777 779
3 1686 1685 1687
3 742 741 743
3 979 989 1886
3 729 731 1887
3 926 927 928
3 1305 1306 1307
3 1838 1278 2292
3 747 746 748
3 181 182 1652
3 1886 1361 2305
3 1595 1594 2486
3 597 596 598
3 928 1288 1920
3 1970 824 2156
3 1425 1424 1426
3 497 504 1929
3 748 746 1896
3 745 747 1900
3 998 858 1171
3 563 547 564
3 1155 729 1887
3 634 583 1942
3 1439 1173 1440
3 1026 1027 1086
3 79 80 1904
3 1533 1532 1536
3 1449 1426 1513
3 1106 609 1936
3 1318 1013 1319
3 1098 695 1828
3 492 494 496
3 750 748 754
3 731 738 1887
3 2415 1422 2516
3 533 562 582
3 988 1837 1924
3 1216 1215 1863
3 534 535 536
3 747 751 1900
3 1753 809 2119
3 1183 824 1970
3 740 495 741
3 80 194 1904
3 893 383 2087
3 655 605 1939
3 1884 2034 2082
3 1301 1857 1923
3 1307 1306 1708
3 752 745 1900
3 750 754 755
3 76 77 1903
3 2090 2347 2365
3 255 30 2159
3 132 254 2160
3 448 434 449
3 753 848 926
3 1075 1074 1327
3 487 488 495
3 377 381 647
3 483 484 485
3 755 754 2148
3 1584 1925 2277
3 1186 1183 1970
3 951 891 1281
3 485 484 486
3 546 527 547
3 133 134 1766
3 1786 1785 2409
3 280 281 282
3 460 449 461
3 744 745 752
3 77 218 1903
3 983 1918 2342
3 1708 1306 1810
3 1389 2069 2170
3 487 486 488
3 641 573 1954
3 507 518 519
3 502 461 503
3 519 518 1899
3 1202 1203 1204
3 821 897 1972
3 92 93 1902
3 521 529 530
3 749 748 750
3 2176 1380 2416
3 885 826 886
3 485 486 487
3 371 372 376
3 1289 1070 1871
3 1110 1657 1747
3 753 926 1943
3 700 1044 1944
3 880 881 1025
3 496 1845 2034
3 1072 1981 2393
3 462 464 2134
3 1949 1771 2359
3 1044 634 1942
3 550 584 1927
3 1390 1415 2118
3 526 503 527
3 990 845 1931
3 1009 1213 1214
3 740 742 1144
3 219 92 1902
3 727 1155 1899
3 369 370 371
3 623 690 2150
3 1279 1058 1928
3 1408 2235 2286
3 487 495 740
3 979 1886 2086
3 1305 1303 1306
3 421 412 1951
3 843 844 996
3 633 669 807
3 518 727 1899
3 826 825 1961
3 1657 1106 1936
3 1172 1012 1173
3 740 741 742
3 433 417 434
3 505 506 507
3 1333 1674 2437
3 742 743 744
3 469 458 470
3 1381 1380 1382
3 1293 1965 2515
3 1554 1559 2062
3 553 557 2499
3 1774 389 2339
3 497 498 499
3 483 485 576
3 740 1144 1935
3 773 735 834
3 366 367 369
3 1120 1118 1876
3 1515 1523 1574
3 1319 1013 2039
3 1303 1301 1923
3 457 447 458
3 561 593 594
3 1355 1424 1425
3 609 491 1936
3 204 1732 2137
3 791 1408 1642
3 995 944 1825
3 456 471 475
3 1692 1693 2239
3 580 1763 2164
3 1292 1293 2117
3 441 452 456
3 388 384 389
3 823 821 1972
3 504 880 1929
3 176 177 1680
3 1070 1071 1871
3 15 2260 2477
3 362 363 366
3 2178 2300 2449
3 1035 883 1036
3 2285 1563 2307
3 978 977 1074
3 1090 1102 2029
3 1810 1306 1923
3 496 494 497
3 1306 1303 1923
3 432 654 1915
3 934 933 935
3 356 355 365
3 398 403 404
3 635 701 843
3 1110 1106 1657
3 574 571 575
3 1025 881 1176
3 386 380 786
3 415 432 1915
3 343 347 1911
3 1070 930 1071
3 1688 1740 2231
3 1385 1216 1863
3 1696 1274 1701
3 1645 305 2317
3 880 759 881
3 926 848 927
3 1427 1423 2217
3 1339 1662 2388
3 770 774 775
3 1263 1257 1428
3 1337 1864 2412
3 349 348 355
3 2267 1721 2498
3 753 752 847
3 1375 1086 1473
3 900 982 983
3 332 335 739
3 429 428 430
3 744 752 753
3 1171 2132 2165
3 1425 1426 1449
3 987 641 1954
3 1883 1786 2409
3 427 426 428
3 928 927 930
3 1815 1105 2015
3 1206 1499 1941
3 410 406 411
3 573 540 1954
3 497 499 504
3 528 560 561
3 1933 1404 2399
3 1091 1089 1969
3 1804 1282 2073
3 504 505 759
3 963 924 1113
3 1711 1710 1712
3 881 759 1146
3 968 1199 1200
3 351 352 362
3 848 847 1026
3 521 530 531
3 1884 490 2034
3 1277 957 1966
3 1349 1350 2329
3 676 1043 2045
3 997 1159 1286
3 517 1889 1890
3 781 835 836
3 944 948 1283
3 722 1776 2026
3 507 519 520
3 2040 1352 2058
3 1276 957 1277
3 446 437 447
3 931 860 977
3 361 359 765
3 1248 1536 2534
3 512 523 528
3 408 412 413
3 1368 1369 1370
3 451 2169 2223
3 192 75 1994
3 942 756 2026
3 345 344 348
3 764 1152 1963
3 413 418 419
3 1286 1773 1774
3 770 671 774
3 275 549 2124
3 1497 1645 2461
3 1982 1472 2272
3 422 435 441
3 281 279 736
3 1134 270 1135
3 582 562 583
3 1421 2415 2454
3 485 487 1935
3 2300 1067 2480
3 1578 1576 1827
3 930 927 1061
3 1026 1086 1375
3 922 2259 2379
3 1391 1120 1876
3 1495 1494 2493
3 404 407 408
3 879 2178 2449
3 1700 1698 2036
3 607 1517 1520
3 753 847 848
3 416 411 417
3 1144 742 1943
3 775 776 777
3 754 2108 2148
3 1006 1421 1953
3 585 581 586
3 531 530 532
3 235 1709 1888
3 520 519 521
3 1180 1181 1349
3 1146 759 1967
3 708 710 1921
3 1350 2253 2329
3 436 430 437
3 504 499 505
3 643 641 987
3 336 330 517
3 811 1059 1149
3 1164 1411 1685
3 846 933 934
3 635 843 1960
3 983 982 1918
3 971 872 1096
3 1149 1163 1164
3 169 237 1724
3 1314 1315 1316
3 629 583 630
3 891 812 1916
3 462 463 464
3 487 740 1935
3 798 2084 2189
3 1814 1838 2292
3 1284 1489 1491
3 340 336 2014
3 1670 1461 2200
3 920 782 2057
3 890 2241 2275
3 510 511 512
3 278 279 280
3 839 802 840
3 1858 235 1888
3 1698 1696 2036
3 104 105 222
3 57 58 224
3 1185 1183 1186
3 588 587 623
3 638 600 1988
3 1282 1386 2245
3 811 776 1058
3 816 815 876
3 2034 1845 2082
3 761 636 1741
3 566 565 587
3 174 175 1725
3 347 350 351
3 1469 1495 1496
3 1059 1058 1278
3 811 1149 1976
3 576 485 1935
3 659 658 660
3 859 1153 1962
3 76 1903 1994
3 1821 1109 2426
3 1294 1038 1622
3 733 1833 2075
3 992 993 1980
3 1566 1561 2285
3 525 474 2041
3 464 465 510
3 343 346 347
3 360 893 1982
3 650 649 651
3 896 608 936
3 950 1006 1007
3 1508 1859 1860
3 539 538 565
3 440 343 1911
3 341 340 344
3 221 1905 1906
3 1297 1823 2142
3 759 505 1967
3 1295 1053 1296
3 473 470 474
3 1463 1465 1466
3 1143 1206 2028
3 799 685 800
3 1210 2077 2203
3 509 508 538
3 492 496 2034
3 1553 1551 2030
3 1260 1261 1269
3 1430 1040 1703
3 586 590 1940
3 838 836 868
3 1705 624 2276
3 1749 972 2501
3 742 744 1943
3 804 962 1981
3 1367 1368 2254
3 531 532 533
3 337 336 340
3 1157 1094 1544
3 536 544 1158
3 812 630 1960
3 781 779 835
3 56 57 1947
3 630 583 634
3 1405 1404 1932
3 1281 891 1916
3 339 342 343
3 1411 1163 1730
3 322 323 324
3 344 340 2091
3 1735 1734 1736
3 75 76 1994
3 430 682 2494
3 1907 243 2360
3 589 581 2164
3 694 355 2196
3 744 753 1943
3 775 774 776
3 1210 1430 2077
3 335 338 339
3 1102 1803 2029
3 1078 937 1079
3 870 655 1939
3 505 507 1967
3 357 360 1982
3 1896 1878 2101
3 326 325 328
3 934 935 957
3 585 608 895
3 333 330 336
3 1270 1272 1524
3 688 817 878
3 507 520 1967
3 1428 1257 2074
3 1818 1817 2000
3 896 937 1077
3 934 957 1111
3 329 328 330
3 1499 995 1825
3 944 851 948
3 387 445 462
3 1678 1161 2228
3 777 776 811
3 313 311 757
3 324 331 332
3 848 1026 1955
3 1312 998 1811
3 1321 1322 2037
3 1080 1079 1121
3 1105 1355 2015
3 1645 2317 2461
3 1559 1568 2062
3 332 334 335
3 501 500 508
3 321 325 326
3 394 395 397
3 322 320 323
3 1529 1530 2171
3 1137 797 1138
3 811 1058 1059
3 661 660 662
3 569 581 585
3 183 4 2303
3 5 160 2304
3 1340 1138 1341
3 1660 1626 2185
3 1743 1464 2347
3 1026 1375 1955
3 1149 1059 1163
3 1736 1625 2194
3 1322 1667 2434
3 311 309 1959
3 309 307 319
3 894 700 1944
3 533 534 562
3 1276 1277 1366
3 2190 1706 2408
3 533 532 534
3 1214 1213 1410
3 1164 1163 1411
3 843 701 844
3 1009 1214 2055
3 234 1589 1788
3 2000 1817 2174
3 317 321 2050
3 328 325 945
3 392 393 394
3 588 623 2089
3 1162 958 1681
3 1078 1080 1136
3 927 848 1955
3 1496 1497 1498
3 390 391 392
3 1061 927 1955
3 1283 948 1284
3 635 634 700
3 1244 1251 1252
3 218 78 2093
3 756 722 2026
3 1071 1784 2419
3 1218 1505 2185
3 1284 948 1285
3 1489 1285 1490
3 918 1850 1851
3 684 1090 2029
3 1759 572 2537
3 1691 1690 2446
3 1979 1158 2071
3 606 649 650
3 2045 1043 2046
3 103 104 2025
3 630 634 635
3 360 383 893
3 406 386 2043
3 1909 219 2023
3 1111 957 1276
3 1925 1437 2277
3 1536 2268 2340
3 854 852 1133
3 233 153 1671
3 651 658 659
3 2099 1787 2368
3 1033 1032 1130
3 1015 1372 1373
3 1412 942 2026
3 253 264 1441
3 1531 1534 2332
3 701 700 894
3 106 107 1990
3 2048 1961 2455
3 276 274 2099
3 738 846 1968
3 1325 925 1326
3 896 936 937
3 585 586 608
3 1450 854 1973
3 1361 1360 1362
3 1045 1668 2512
3 303 301 444
3 996 844 997
3 79 1904 2093
3 1989 1686 2095
3 1928 774 2033
3 1942 562 1979
3 287 285 316
3 935 950 1966
3 1466 1467 1468
3 1242 1243 1244
3 1887 738 1968
3 2115 210 2477
3 878 929 1083
3 1326 1736 2194
3 886 888 1014
3 895 608 896
3 289 287 1978
3 821 822 897
3 936 608 1940
3 613 614 615
3 51 52 1996
3 417 411 1160
3 1149 1164 1989
3 386 786 2043
3 285 283 1971
3 1309 1543 2147
3 375 373 2053
3 371 370 372
3 779 777 1976
3 1286 1159 1773
3 2177 887 2376
3 1560 1557 1564
3 1403 1882 2399
3 1727 1757 2246
3 279 6 2049
3 1619 1438 2438
3 291 289 758
3 1781 1915 2294
3 425 401 426
3 349 355 356
3 66 67 2118
3 474 548 2041
3 1686 1687 2007
3 1262 1456 1457
3 1123 942 1412
3 1916 812 1960
3 1355 1425 2015
3 735 733 2075
3 1861 879 2449
3 1284 1285 1489
3 490 492 2034
3 366 363 367
3 980 578 2051
3 906 904 1792
3 534 536 1979
3 842 924 963
3 2051 578 2083
3 1077 937 1078
3 1102 1104 1803
3 894 1944 1946
3 398 404 2060
3 1007 1006 1953
3 369 367 370
3 348 354 2196
3 1078 1079 1080
3 1378 1380 1381
3 1568 1365 2439
3 608 586 1940
3 598 610 611
3 760 636 761
3 869 1137 1351
3 671 643 2033
3 1661 1345 2267
3 938 914 1057
3 783 761 914
3 576 1835 2144
3 388 389 390
3 297 295 318
3 454 453 500
3 1906 1728 2246
3 1439 1440 2468
3 1159 1013 1318
3 764 797 869
3 236 143 1717
3 782 644 2057
3 592 595 596
3 1542 2332 2443
3 1521 1311 2147
3 345 348 349
3 1304 1452 2205
3 1644 1907 2360
3 2146 1125 2149
3 997 844 1013
3 628 375 2053
3 299 297 1984
3 957 935 1966
3 664 685 799
3 301 299 1975
3 362 352 363
3 777 811 1976
3 1942 1979 2071
3 1001 920 2057
3 312 314 768
3 1552 1554 2062
3 615 616 617
3 357 1982 2076
3 800 802 839
3 774 671 2033
3 1749 1169 2105
3 365 958 1162
3 617 618 619
3 283 281 1938
3 1351 1772 2414
3 1525 1765 2489
3 846 934 1968
3 635 700 701
3 555 554 577
3 536 1158 1979
3 1101 1404 1405
3 630 635 1960
3 1811 1150 2089
3 2113 1666 2249
3 172 173 1847
3 107 108 195
3 54 55 196
3 1191 1768 2023
3 1455 1302 2205
3 115 116 2017
3 1387 1333 2437
3 659 661 764
3 1080 1121 1188
3 50 51 2011
3 411 406 2043
3 295 293 1983
3 643 987 2033
3 707 706 708
3 129 130 261
3 32 33 260
3 2159 260 2265
3 449 434 567
3 1314 1029 1315
3 917 796 940
3 378 375 628
3 108 109 1991
3 2370 1759 2537
3 341 344 345
3 997 1013 1159
3 544 569 1993
3 950 1007 1966
3 477 474 525
3 351 350 352
3 1696 1701 2036
3 334 331 803
3 1137 1138 1340
3 562 534 1979
3 109 110 246
3 52 53 247
3 1368 1316 1369
3 659 660 661
3 33 34 2002
3 123 124 2005
3 835 779 1976
3 851 838 1992
3 1530 1533 2172
3 1668 1045 2348
3 1162 1681 1706
3 342 338 468
3 298 300 358
3 765 359 2065
3 725 826 885
3 35 36 2003
3 46 47 2019
3 38 39 2006
3 336 517 2014
3 934 1111 1968
3 116 117 2018
3 650 651 1963
3 223 1711 2162
3 640 594 645
3 1333 1330 2192
3 104 222 2025
3 1603 922 2379
3 963 1113 1115
3 2084 1193 2189
3 564 570 571
3 36 37 2004
3 57 224 1947
3 1542 1601 2269
3 122 123 2012
3 1000 920 1001
3 127 128 240
3 34 35 239
3 383 387 2087
3 1161 1107 2228
3 1781 2294 2419
3 1201 1200 1202
3 124 125 225
3 37 38 226
3 1340 1341 1342
3 869 797 1137
3 839 840 1008
3 1158 544 1993
3 1326 925 1894
3 352 350 353
3 326 329 954
3 1864 2344 2412
3 836 835 2095
3 1051 1053 1295
3 1031 720 1032
3 503 461 787
3 1407 1112 2044
3 661 662 2058
3 838 868 1992
3 112 113 197
3 49 50 198
3 1359 980 1413
3 121 122 211
3 40 41 212
3 48 49 2010
3 113 114 2009
3 1741 673 2131
3 41 42 2020
3 120 121 2013
3 1409 2035 2097
3 1511 1374 2506
3 114 115 248
3 47 48 249
3 42 43 250
3 119 120 251
3 171 6 201
3 6 172 203
3 585 895 1993
3 43 44 2024
3 118 119 2021
3 905 904 906
3 764 661 797
3 337 340 341
3 1413 980 2051
3 117 118 205
3 44 45 206
3 347 346 350
3 1420 1076 1525
3 324 323 331
3 434 417 2031
3 965 967 969
3 716 719 788
3 1260 1254 1261
3 2053 373 2103
3 2069 2068 2170
3 326 328 329
3 1706 996 2408
3 273 275 2124
3 969 1011 1012
3 590 606 2001
3 1718 1611 2280
3 1914 1940 2001
3 915 1884 2082
3 329 330 333
3 620 859 955
3 2168 1409 2305
3 296 298 1997
3 915 2082 2101
3 339 338 342
3 1218 994 1505
3 333 336 337
3 266 263 1742
3 1873 768 2127
3 244 63 2162
3 64 223 2162
3 343 342 346
3 914 761 2258
3 310 312 1987
3 799 800 2055
3 302 304 763
3 1559 1566 1568
3 1598 1343 2114
3 592 575 595
3 341 345 794
3 189 1842 2220
3 767 815 816
3 1003 912 1004
3 839 1008 1009
3 1263 1428 1429
3 564 547 570
3 1845 1334 2082
3 332 331 334
3 901 866 902
3 651 659 1963
3 1009 1112 1213
3 335 334 338
3 569 585 1993
3 1665 1336 2299
3 1945 2071 2153
3 863 862 864
3 907 906 908
3 1849 1486 1930
3 1935 1144 2080
3 967 966 968
3 809 900 2119
3 865 864 866
3 835 1989 2095
3 190 1907 2417
3 333 337 522
3 1110 1748 2228
3 1193 1194 1195
3 94 191 2166
3 473 1854 2453
3 1769 1134 2369
3 948 851 1992
3 237 170 2216
3 420 419 422
3 1448 1447 2364
3 483 576 2144
3 721 1919 2032
3 885 886 1891
3 613 611 614
3 886 1014 1891
3 1160 411 2043
3 1918 1283 2342
3 1651 206 2485
3 1242 1240 1243
3 598 596 610
3 1295 1296 1459
3 1185 1186 1948
3 1425 1449 2070
3 294 296 762
3 1285 948 1992
3 925 876 1894
3 712 714 789
3 603 1668 2398
3 1940 590 2001
3 721 570 964
3 834 735 2075
3 1144 1920 2080
3 2263 1635 2511
3 1204 1207 1335
3 2235 1408 2378
3 965 964 966
3 1990 1435 2218
3 397 398 2060
3 1138 797 2058
3 1787 1141 2368
3 2068 820 2170
3 360 359 361
3 387 462 2087
3 1524 1272 1934
3 819 698 820
3 1197 1196 1198
3 1662 2126 2388
3 78 79 2093
3 1150 588 2089
3 1269 1261 1270
3 1878 915 2101
3 451 467 2169
3 2262 1387 2437
3 1009 1008 1112
3 757 311 1959
3 897 898 1139
3 1854 473 2483
3 2015 1425 2070
3 2082 1334 2101
3 963 1115 1174
3 1047 1049 1287
3 1194 423 1196
3 321 326 2050
3 417 1160 2031
3 854 1133 1973
3 1201 1212 1348
3 705 1586 2163
3 309 319 1959
3 1353 1390 2417
3 427 428 429
3 357 356 359
3 606 650 2001
3 549 1280 2124
3 1213 1112 1407
3 256 2303 2535
3 356 365 2065
3 662 664 2040
3 701 894 2039
3 1325 1371 2451
3 666 626 667
3 1902 93 2166
3 1236 1234 1246
3 800 839 2055
3 1869 1812 2252
3 1197 1364 1365
3 576 1935 2080
3 404 408 798
3 1678 807 2529
3 1560 1564 2016
3 1319 2039 2122
3 425 426 427
3 349 356 357
3 308 310 327
3 1716 622 2484
3 1801 82 2289
3 1768 1949 2420
3 2006 1926 2507
3 351 364 2407
3 420 423 1193
3 659 764 1963
3 292 294 2038
3 840 842 2027
3 736 279 2049
3 372 373 374
3 461 449 2052
3 2189 1195 2285
3 1174 1115 1398
3 367 363 961
3 909 908 918
3 1738 247 2402
3 1007 1761 2308
3 288 290 2135
3 422 441 2035
3 623 624 690
3 537 525 545
3 1953 1421 2454
3 1887 1968 2123
3 861 691 862
3 654 439 2223
3 1136 1080 2054
3 1312 1811 2089
3 575 571 2032
3 383 361 384
3 968 1200 1201
3 797 661 2058
3 1423 1354 2381
3 1180 1178 1181
3 1513 1515 2180
3 72 73 2217
3 462 445 463
3 12 13 2136
3 457 458 469
3 542 554 555
3 599 636 760
3 254 133 1766
3 1130 1397 1937
3 404 798 2060
3 1044 1942 2071
3 690 691 860
3 357 359 360
3 1008 2027 2152
3 1232 1230 1255
3 372 370 373
3 850 943 2125
3 1457 1456 1492
3 1952 324 2282
3 155 2 2356
3 0 7 2357
3 2017 1379 2288
3 918 1851 2008
3 195 1991 2517
3 2090 803 2347
3 1244 1243 1251
3 290 292 368
3 1432 1082 2214
3 1008 840 2027
3 1743 803 2296
3 1013 844 2039
3 365 1162 2065
3 1594 1315 2184
3 387 384 388
3 1508 1860 2311
3 547 527 2056
3 2005 225 2322
3 314 317 2127
3 1853 556 2327
3 201 6 278
3 1907 1644 2417
3 1896 2101 2108
3 646 645 784
3 538 508 558
3 374 375 377
3 1630 1634 1635
3 1579 1999 2352
3 1647 1648 1849
3 1313 1314 2121
3 1179 1433 2042
3 844 701 2039
3 1252 1251 2098
3 816 876 925
3 1922 1228 2281
3 392 394 396
3 1915 654 2294
3 1652 1653 2487
3 429 430 436
3 456 475 476
3 1605 1392 2510
3 126 1882 2284
3 1784 1780 2419
3 500 453 960
3 377 378 381
3 2178 1587 2300
3 1222 1219 1626
3 413 419 420
3 381 382 400
3 2169 1836 2223
3 1906 1905 2129
3 616 614 793
3 1170 1419 2139
3 101 189 2220
3 241 100 2220
3 1968 1111 2123
3 567 434 2031
3 615 614 616
3 1032 720 1921
3 682 428 2138
3 469 470 473
3 339 440 2261
3 1501 238 2226
3 1154 1431 1653
3 446 447 457
3 1251 1243 1257
3 2229 315 2495
3 1201 1202 1212
3 785 784 879
3 464 463 465
3 66 2118 2395
3 324 332 2282
3 286 288 771
3 17 199 2081
3 571 570 721
3 611 610 2092
3 617 616 618
3 1542 1531 2332
3 400 401 424
3 1325 1326 1371
3 1140 1406 1702
3 1323 443 2302
3 1926 1573 2507
3 436 437 446
3 1262 1457 2098
3 67 190 2118
3 1518 1861 2449
3 989 1359 1360
3 1063 1082 1154
3 1757 96 2526
3 969 967 1011
3 868 836 2095
3 1215 1035 2235
3 96 1757 2309
3 261 2160 2380
3 1381 1382 2126
3 1468 1469 2182
3 1334 1317 2108
3 861 863 1064
3 1270 1261 1271
3 360 361 383
3 287 316 1978
3 1856 192 2367
3 1905 241 2129
3 1615 1809 2425
3 528 523 560
3 979 980 989
3 662 2040 2058
3 721 964 965
3 170 171 2216
3 664 799 2040
3 512 511 523
3 1201 1348 2107
3 620 618 858
3 758 289 1978
3 859 858 998
3 424 425 453
3 1616 1615 2193
3 444 301 1975
3 561 560 593
3 965 966 967
3 1798 376 2430
3 340 2014 2091
3 510 465 511
3 107 195 1990
3 1080 1188 2054
3 1153 998 1312
3 1226 1224 1249
3 1012 1011 1363
3 902 904 905
3 842 963 2027
3 268 270 1134
3 865 901 1125
3 2077 558 2102
3 282 284 442
3 1977 1679 2253
3 1496 1498 2047
3 284 286 2063
3 281 736 1938
3 2132 793 2165
3 1674 215 2437
3 2078 1855 2411
3 839 1009 2055
3 1182 824 1183
3 1168 947 1169
3 1289 1871 2242
3 316 285 1971
3 1270 1271 1272
3 1755 1793 2264
3 51 1996 2011
3 383 384 387
3 1146 1924 2215
3 1279 1928 2202
3 619 618 620
3 1194 1196 1197
3 555 578 979
3 1937 1639 2528
3 1262 1257 1263
3 389 384 2339
3 2251 1338 2464
3 1155 1887 2123
3 1151 1937 2528
3 465 463 828
3 1318 1319 2116
3 1687 1688 2231
3 326 954 2050
3 297 318 1984
3 1308 953 2255
3 1846 2056 2198
3 320 315 2229
3 1254 1252 2059
3 760 761 783
3 951 1281 2255
3 1459 1296 2094
3 2288 1638 2470
3 1975 299 1984
3 52 247 1996
3 468 338 2090
3 2140 1511 2506
3 1125 1126 1192
3 593 824 1182
3 720 708 1921
3 704 706 707
3 623 587 624
3 2044 1112 2152
3 1393 1169 1749
3 900 983 2119
3 783 914 938
3 255 2265 2489
3 2039 894 2122
3 317 2050 2127
3 1866 1867 2513
3 374 373 375
3 429 436 455
3 387 388 445
3 1193 423 1194
3 555 577 578
3 1074 977 1187
3 449 567 2052
3 1197 1198 1364
3 2154 1595 2486
3 1486 1849 2173
3 318 295 1983
3 939 1016 1844
3 131 132 2160
3 30 31 2159
3 881 1146 2215
3 1294 1868 2238
3 1300 1455 2314
3 1365 1364 1912
3 783 938 939
3 2061 1735 2441
3 551 545 601
3 2194 216 2536
3 1251 1257 1262
3 888 887 2177
3 1364 1198 2048
3 1498 1682 2340
3 1589 1590 2501
3 60 188 2266
3 1401 1913 2324
3 195 108 1991
3 420 422 423
3 1675 1470 2474
3 258 1673 2183
3 2161 1619 2438
3 1296 1472 2094
3 1808 1910 2381
3 334 803 2090
3 1490 1285 2232
3 523 511 524
3 1240 1238 2074
3 1184 1183 1185
3 39 40 2151
3 473 474 477
3 1461 1463 2200
3 2072 353 2073
3 861 862 863
3 1206 1941 2401
3 958 1575 2287
3 614 611 2092
3 110 111 2140
3 1136 2054 2110
3 645 594 2133
3 260 33 2002
3 673 767 2131
3 989 980 1359
3 1741 2131 2258
3 1317 1875 2148
3 894 1946 2122
3 863 864 865
3 787 461 2052
3 857 2277 2386
3 109 246 1991
3 2017 116 2018
3 1182 1183 1184
3 377 375 378
3 816 925 1324
3 865 866 901
3 1262 1263 1456
3 359 356 2065
3 2129 241 2472
3 283 1938 1971
3 1458 1210 2203
3 1076 1003 2145
3 196 1738 2402
3 1033 1130 1151
3 1188 1121 2106
3 1140 1702 2096
3 549 687 1280
3 1694 1621 2191
3 861 1064 2112
3 1548 1549 2129
3 1784 1071 2462
3 714 716 2066
3 1961 825 2455
3 1447 1211 2250
3 979 578 980
3 905 907 1209
3 381 378 382
3 457 469 552
3 595 575 2032
3 408 413 2084
3 481 483 2144
3 1745 1349 2293
3 1980 1405 2441
3 198 50 2011
3 248 115 2017
3 912 819 2068
3 620 858 859
3 707 708 720
3 821 674 822
3 514 542 2086
3 400 382 401
3 123 2005 2012
3 1772 1351 2374
3 34 239 2002
3 768 314 2127
3 2003 36 2004
3 280 282 2079
3 124 225 2005
3 596 595 2130
3 593 560 824
3 1504 1502 2519
3 239 35 2003
3 1311 1309 2147
3 1318 1877 2240
3 1860 1432 2311
3 1416 1715 2330
3 859 998 1153
3 352 353 2072
3 312 768 1987
3 2027 1174 2152
3 226 38 2006
3 1827 1024 2117
3 1710 1391 2295
3 690 624 691
3 37 226 2004
3 1153 1312 1885
3 853 855 2186
3 1892 242 2373
3 1967 520 2174
3 939 938 1016
3 47 249 2019
3 388 390 2078
3 1991 2139 2517
3 905 906 907
3 571 721 2032
3 1196 423 2035
3 1324 925 1325
3 1151 1130 1937
3 363 352 2072
3 345 349 2076
3 1031 1032 1033
3 214 179 1859
3 211 122 2012
3 602 601 652
3 117 205 2018
3 710 712 2067
3 1602 187 2357
3 520 2000 2174
3 85 242 2335
3 220 84 2335
3 381 400 2113
3 1586 1587 2435
3 424 401 425
3 963 1174 2027
3 860 691 861
3 610 596 2130
3 1958 2078 2431
3 570 547 2056
3 237 2216 2354
3 1211 1692 2219
3 298 358 1997
3 909 947 1041
3 441 456 2097
3 1135 1647 1849
3 1601 1542 2443
3 197 113 2009
3 49 198 2010
3 1911 347 2407
3 1729 191 2309
3 212 41 2020
3 121 211 2013
3 222 105 2218
3 1125 901 1126
3 114 248 2009
3 249 48 2010
3 42 250 2020
3 251 120 2013
3 233 1769 2369
3 1870 647 2113
3 794 345 2076
3 250 43 2024
3 119 251 2021
3 901 902 2141
3 964 570 2056
3 739 335 2261
3 2108 1317 2148
3 577 599 2083
3 205 118 2021
3 44 206 2024
3 1247 1241 2323
3 1894 992 2244
3 6 203 2049
3 1642 1678 2529
3 1417 1873 2333
3 1422 2023 2516
3 341 794 2100
3 73 74 2361
3 1234 1232 2088
3 1261 1254 2059
3 896 1077 2257
3 1921 710 2067
3 125 126 2284
3 220 1699 2289
3 159 5 2304
3 4 184 2303
3 2059 1252 2098
3 1003 1004 2145
3 2328 1325 2451
3 1486 227 1500
3 63 64 2162
3 2081 1192 2260
3 508 500 2102
3 667 1872 2318
3 338 334 2090
3 423 422 2035
3 1192 1126 1471
3 907 908 909
3 1330 1328 2192
3 1972 897 2500
3 2443 316 2514
3 242 86 2373
3 87 193 2373
3 420 1193 2084
3 1473 1086 2358
3 1987 768 2037
3 522 337 2100
3 627 1660 2185
3 1793 446 2264
3 1405 2061 2441
3 1502 1217 2302
3 171 201 2216
3 1158 1993 2153
3 1197 1365 2120
3 1712 1710 2295
3 1121 1401 2414
3 93 94 2166
3 653 652 688
3 622 1716 2452
3 1345 1720 2267
3 477 537 556
3 128 129 2181
3 2331 1295 2458
3 784 645 874
3 1269 1270 2199
3 189 102 2355
3 1041 1168 1343
3 246 110 2140
3 477 525 537
3 755 1895 2371
3 1947 1723 2313
3 1134 1135 2369
3 223 65 2395
3 968 1201 2107
3 1577 1578 2325
3 210 15 2477
3 961 363 2072
3 1581 1579 2352
3 349 357 2076
3 337 341 2100
3 305 303 2317
3 370 367 2103
3 762 296 1997
3 581 580 2164
3 1278 1838 2372
3 1548 2129 2472
3 594 593 2133
3 2021 251 2022
3 2047 1247 2182
3 967 968 2107
3 1169 947 2008
3 481 2144 2169
3 793 614 2092
3 1910 217 2381
3 1251 1262 2098
3 716 788 2066
3 2101 1334 2108
3 2006 39 2151
3 1603 2379 2508
3 1926 2006 2151
3 96 97 2526
3 750 755 2371
3 789 714 2066
3 909 918 947
3 1993 895 2153
3 106 1990 2218
3 1243 1240 2074
3 832 986 1189
3 1283 1284 2342
3 2297 195 2517
3 1043 829 2326
3 767 816 2131
3 602 653 676
3 1004 912 2068
3 2086 1886 2224
3 1124 2177 2467
3 426 401 2531
3 707 720 1030
3 1000 1001 2184
3 1315 1029 2184
3 467 481 2169
3 541 513 2256
3 647 381 2113
3 225 2284 2510
3 2 156 2356
3 187 0 2357
3 40 212 2151
3 2245 1386 2383
3 676 677 829
3 1004 2068 2069
3 1860 232 2487
3 1031 1033 1034
3 829 830 972
3 996 997 2408
3 1195 1194 2120
3 987 1869 2202
3 1410 1213 2222
3 819 820 2068
3 1485 1486 2173
3 1564 2030 2155
3 807 669 2529
3 129 261 2181
3 1525 1076 2145
3 578 577 2083
3 327 310 1987
3 1083 929 2197
3 2131 1324 2258
3 798 408 2084
3 1838 696 2426
3 1486 1500 1930
3 1946 1944 2291
3 2257 1077 2291
3 1512 1661 2266
3 445 388 2078
3 1192 1471 2260
3 2118 1415 2395
3 1466 1468 2158
3 830 677 831
3 211 2012 2251
3 652 601 2442
3 537 545 551
3 558 508 2102
3 198 2011 2128
3 1718 2280 2385
3 500 960 2102
3 1168 1169 1393
3 1127 971 2496
3 95 96 2309
3 2030 1565 2155
3 1919 1172 2273
3 977 860 2112
3 240 128 2181
3 294 762 2038
3 1800 1799 2195
3 712 789 2067
3 972 1749 2326
3 472 1683 2212
3 874 645 2133
3 551 2045 2201
3 2105 1043 2326
3 1957 1212 2301
3 1514 1856 2367
3 565 538 2167
3 373 370 2103
3 355 348 2196
3 1934 1272 2138
3 1934 426 2531
3 1881 1400 2481
3 2046 1851 2327
3 367 961 2103
3 1963 1152 2206
3 201 278 443
3 3 131 2444
3 31 1 2445
3 2035 441 2097
3 503 787 2198
3 1135 1849 1930
3 1534 1983 2306
3 2089 623 2150
3 687 704 2109
3 869 1351 2363
3 1302 1304 2205
3 955 1716 2484
3 1030 720 1031
3 1159 1318 2240
3 1228 1226 2281
3 947 918 2008
3 413 420 2084
3 785 879 2532
3 1041 947 1168
3 1468 2182 2323
3 1246 1234 2088
3 1730 1163 2372
3 542 555 2086
3 1599 631 2312
3 1146 1967 2174
3 1078 1136 2343
3 1515 1574 2180
3 2336 885 2469
3 1257 1243 2074
3 1347 1346 2279
3 2001 650 2206
3 1480 1601 2514
3 1029 1000 2184
3 1956 788 2336
3 1271 1261 2059
3 130 3 2444
3 1 32 2445
3 1570 1507 2197
3 1232 1255 2088
3 791 1642 2529
3 1601 1479 2269
3 1361 1362 2168
3 1634 1922 2281
3 765 2065 2190
3 2071 1158 2153
3 1699 1801 2289
3 832 831 833
3 1864 346 2344
3 456 476 2097
3 1855 828 2411
3 2065 1162 2190
3 1125 1192 2149
3 599 760 2083
3 361 765 2339
3 1731 2123 2241
3 1349 1181 1350
3 1443 1275 2251
3 1819 524 2429
3 1021 1045 2512
3 858 618 2132
3 1999 358 2338
3 368 292 2038
3 290 368 2135
3 803 331 2296
3 1112 1008 2152
3 56 1947 2313
3 555 979 2086
3 1469 1496 2182
3 1011 967 2107
3 248 2017 2288
3 1809 789 2425
3 960 453 2221
3 538 558 2167
3 1858 1187 2248
3 2246 1757 2526
3 902 905 2141
3 1851 1853 2327
3 1224 1222 2111
3 771 288 2135
3 1945 2153 2257
3 1420 1525 2489
3 1399 1123 2393
3 103 2025 2355
3 897 822 898
3 1861 940 2532
3 865 1125 2146
3 1675 2474 2522
3 1573 2157 2507
3 1632 1631 2382
3 551 601 602
3 527 503 2198
3 1708 805 2337
3 1059 1278 2372
3 2056 527 2198
3 860 861 2112
3 1668 2348 2398
3 255 2159 2265
3 1541 1542 2269
3 1428 2074 2227
3 1582 1583 2321
3 389 1774 2503
3 2004 226 2157
3 1777 397 2405
3 1368 1436 2254
3 1061 2409 2462
3 1071 930 2462
3 1126 901 2141
3 1194 1197 2120
3 1452 1952 2282
3 2116 1319 2482
3 105 106 2218
3 1981 1399 2393
3 2119 983 2143
3 444 1682 2461
3 2173 1648 2463
3 616 793 2132
3 1791 1190 2334
3 1826 1728 2259
3 602 652 653
3 1834 1292 2428
3 556 2201 2327
3 1014 1015 2385
3 1995 1287 2331
3 1193 1195 2189
3 816 1324 2131
3 879 1861 2532
3 593 1182 2133
3 1402 266 1742
3 2216 1323 2354
3 1660 1636 2502
3 620 955 2484
3 1162 1706 2190
3 1870 2113 2249
3 204 1680 1732
3 1909 2023 2420
3 217 72 2217
3 376 372 2430
3 905 1209 2141
3 1378 1381 2283
3 1236 1246 2227
3 286 771 2063
3 1635 2263 2502
3 100 101 2220
3 1139 898 1140
3 2114 1343 2136
3 442 284 2063
3 1772 2106 2414
3 1985 1755 2533
3 2192 1328 2315
3 1064 863 2146
3 1631 1637 2459
3 736 2049 2523
3 221 1906 2246
3 318 1983 2171
3 1496 2047 2182
3 1374 2139 2506
3 196 55 2313
3 2087 462 2134
3 676 653 677
3 2304 257 2491
3 1401 2324 2363
3 829 677 830
3 654 2223 2242
3 1187 977 2112
3 1463 1466 2200
3 2023 219 2516
3 1176 881 2215
3 513 471 2290
3 1812 459 2252
3 1386 1269 2199
3 291 758 2306
3 618 616 2132
3 278 280 2210
3 83 220 2289
3 82 83 2289
3 938 1057 2161
3 1189 986 1190
3 788 719 2336
3 1914 2001 2206
3 232 181 1652
3 1567 2062 2490
3 313 757 2495
3 622 619 2484
3 688 878 1320
3 1222 1626 2111
3 282 442 2079
3 1169 2008 2105
3 1966 1007 2308
3 2040 799 2237
3 1744 2229 2495
3 986 833 1063
3 2284 1605 2510
3 887 1961 2376
3 215 1624 2262
3 830 831 832
3 476 475 2224
3 439 451 2223
3 1932 1933 2380
3 2227 1246 2366
3 1212 1202 2301
3 1107 1110 2228
3 249 2010 2299
3 1983 293 2306
3 2055 1214 2237
3 1438 1372 2478
3 824 560 2156
3 2320 1866 2513
3 1351 1137 2374
3 868 2007 2232
3 2063 771 2064
3 1507 214 1508
3 1728 1727 2246
3 1045 1047 2348
3 1139 1140 2096
3 1648 1649 2463
3 1502 2302 2519
3 704 707 2109
3 2343 1136 2396
3 650 1963 2206
3 2153 895 2257
3 396 1958 2431
3 1379 1377 2288
3 2115 1471 2319
3 2033 987 2202
3 2239 1693 2518
3 2025 1488 2355
3 1209 2115 2319
3 523 524 2156
3 783 939 2243
3 376 1798 2497
3 2066 788 2193
3 1984 318 2172
3 425 427 2221
3 203 172 1847
3 446 457 2264
3 1312 2089 2150
3 2138 1272 2211
3 897 1139 2274
3 828 1819 2429
3 1249 1224 2111
3 666 667 2318
3 1371 1326 2194
3 2433 1499 2475
3 1272 1271 2211
3 1367 2254 2479
3 1386 2053 2383
3 2074 1238 2227
3 755 2148 2320
3 2117 1604 2428
3 475 514 2224
3 228 2187 2457
3 1868 1504 2520
3 1626 1218 2185
3 2123 1111 2241
3 1287 1049 2331
3 1280 687 2109
3 459 1814 2292
3 54 196 2402
3 863 865 2146
3 204 176 1680
3 514 2086 2224
3 1646 603 2398
3 112 197 2346
3 358 300 2338
3 1140 898 1141
3 1204 1335 2301
3 1016 2161 2438
3 909 1041 2175
3 1681 2448 2492
3 2252 459 2292
3 1992 868 2232
3 1035 1036 2235
3 1051 1295 2331
3 1836 1289 2242
3 1508 214 1859
3 247 53 2402
3 1016 938 2161
3 1408 856 2378
3 1466 2158 2200
3 725 885 2336
3 855 1450 2421
3 2023 1768 2420
3 1238 1236 2227
3 1679 202 2253
3 2107 1348 2233
3 1653 1431 2487
3 1946 2291 2343
3 2253 202 2329
3 1885 1312 2150
3 378 628 2390
3 2195 1383 2432
3 1520 1519 2480
3 1532 1733 2534
3 308 327 2278
3 953 951 2255
3 1213 1407 2222
3 1561 1563 2285
3 302 763 2338
3 1928 2033 2202
3 763 304 2345
3 832 833 986
3 1352 2040 2237
3 247 1881 2481
3 560 523 2156
3 335 339 2261
3 346 342 2344
3 201 443 1323
3 2301 1335 2466
3 323 320 2229
3 1136 2110 2396
3 1139 1977 2274
3 1809 1615 2423
3 1707 1791 2334
3 46 2019 2485
3 2064 1294 2238
3 1950 197 2404
3 2021 2022 2176
3 1949 245 2420
3 2044 2152 2207
3 1063 1154 1707
3 1012 1363 2406
3 280 2079 2210
3 2237 1214 2351
3 820 698 2318
3 1140 1141 1406
3 205 2021 2176
3 2043 786 2310
3 2145 1004 2446
3 707 1030 2109
3 1406 2460 2473
3 2137 1268 2226
3 16 2081 2260
3 567 2031 2219
3 2112 1064 2248
3 206 45 2485
3 2347 1462 2365
3 1650 1962 2362
3 453 425 2221
3 1209 907 2175
3 1111 1276 2241
3 2448 1145 2492
3 2051 2083 2243
3 59 60 2266
3 1402 1742 2530
3 831 677 2209
3 624 587 2276
3 238 174 1725
3 1011 2107 2233
3 468 2365 2412
3 2337 805 2371
3 254 1932 2380
3 1174 1398 2207
3 2140 111 2346
3 1381 2186 2283
3 1987 2037 2188
3 1740 559 2456
3 1773 391 2503
3 1335 1870 2249
3 1945 2257 2291
3 828 463 2411
3 1246 2088 2208
3 2060 798 2307
3 1773 1159 2240
3 1187 2112 2248
3 1352 2237 2351
3 2037 1322 2188
3 1941 1499 2433
3 2322 225 2510
3 1031 1034 2236
3 327 2188 2321
3 595 2032 2273
3 1464 1462 2347
3 1285 1992 2232
3 799 2055 2237
3 443 278 2210
3 784 874 2178
3 392 396 2431
3 191 95 2309
3 879 784 2178
3 524 511 2429
3 2128 2011 2270
3 895 896 2257
3 2206 1152 2324
3 318 2171 2172
3 2259 1549 2379
3 1214 1410 2351
3 306 308 2278
3 2022 251 2247
3 1757 1729 2309
3 1283 1918 2524
3 996 1706 2492
3 557 2044 2207
3 1798 1448 2364
3 1447 2250 2310
3 559 1750 2403
3 1363 1011 2233
3 1343 1168 2187
3 1407 2044 2256
3 1462 1460 2365
3 1995 2331 2458
3 327 1987 2188
3 2160 254 2380
3 1681 958 2287
3 2031 1160 2250
3 1600 689 2413
3 2219 1692 2239
3 1494 1675 2522
3 1281 1916 2448
3 907 909 2175
3 565 2167 2276
3 2241 1276 2275
3 1978 316 2443
3 2151 212 2350
3 203 1847 2104
3 2049 1481 2523
3 1961 1362 2376
3 2187 1393 2457
3 940 796 2532
3 2293 1349 2329
3 572 1897 2537
3 332 739 2282
3 2052 567 2239
3 1437 1370 2277
3 567 2219 2239
3 667 626 2452
3 1914 2206 2324
3 2243 939 2392
3 2136 1343 2187
3 257 1654 2530
3 1376 1378 2283
3 2076 1982 2272
3 2083 760 2243
3 1944 1945 2291
3 1771 1839 2359
3 1404 1403 2399
3 1875 1866 2320
3 1460 1337 2412
3 760 783 2243
3 1276 1366 2275
3 1428 2227 2366
3 1882 1605 2284
3 1739 1429 2459
3 2321 2188 2434
3 1328 1327 2315
3 798 2189 2307
3 2152 1174 2207
3 2182 1247 2323
3 1516 1514 2367
3 293 291 2306
3 556 537 2201
3 1298 1300 2314
3 1400 1399 2316
3 1649 2236 2463
3 833 831 2424
3 2127 2050 2333
3 1057 914 2328
3 1839 193 2359
3 761 1741 2258
3 1186 1970 2422
3 1429 2366 2382
3 2211 1271 2271
3 1733 1248 2534
3 13 2114 2136
3 2078 390 2431
3 1533 1536 2340
3 1690 2145 2446
3 1277 2308 2370
3 1168 1393 2187
3 1597 2047 2268
3 587 565 2276
3 1908 244 2401
3 225 125 2284
3 610 2130 2468
3 1749 2105 2326
3 1913 1914 2324
3 2366 2208 2382
3 1391 1876 2295
3 457 552 2264
3 653 688 2209
3 1601 2443 2514
3 682 2138 2211
3 992 1980 2244
3 55 56 2313
3 1645 1495 2493
3 473 477 2483
3 202 1724 2329
3 465 828 2429
3 1277 1966 2308
3 1416 2330 2406
3 1912 1364 2455
3 1716 1483 2375
3 2019 1651 2485
3 1725 2137 2226
3 201 1323 2216
3 878 1083 2213
3 2072 2073 2245
3 1563 1777 2405
3 244 2028 2401
3 2016 1564 2422
3 1682 1497 2461
3 1962 1153 2362
3 1298 2314 2358
3 1384 1385 2391
3 688 1320 2209
3 1587 2179 2435
3 786 380 2497
3 1395 1522 2341
3 2032 1919 2273
3 251 2013 2247
3 2219 2031 2250
3 2397 552 2453
3 1765 255 2489
3 2475 1825 2524
3 1202 1204 2301
3 445 2078 2411
3 323 2229 2296
3 1286 2384 2408
3 537 551 2201
3 1724 237 2293
3 84 85 2335
3 1471 1126 2319
3 1635 1634 2511
3 300 302 2338
3 698 666 2318
3 1030 1031 2236
3 2098 1457 2271
3 696 1821 2426
3 1457 1492 2447
3 1956 2336 2469
3 331 323 2296
3 1284 1491 2342
3 2011 1996 2270
3 256 183 2303
3 160 257 2304
3 2204 1589 2501
3 1891 1014 2280
3 719 725 2336
3 1354 1808 2381
3 437 430 2494
3 2377 218 2391
3 2211 2271 2447
3 1407 2256 2290
3 2365 1460 2412
3 2047 1498 2268
3 1825 1283 2524
3 1499 1825 2475
3 1226 1249 2281
3 2051 2243 2392
3 2250 1160 2310
3 111 112 2346
3 304 306 2345
3 1341 1352 2351
3 2166 191 2504
3 2223 1836 2242
3 1996 247 2481
3 1049 1051 2331
3 1086 1298 2358
3 2130 595 2273
3 1249 2111 2263
3 680 1995 2458
3 1511 2140 2346
3 102 103 2355
3 469 473 2453
3 961 2072 2245
3 2073 1282 2245
3 1442 1443 2525
3 74 192 2361
3 2163 1586 2435
3 1519 1518 2449
3 897 2274 2500
3 303 444 2317
3 1615 1614 2423
3 197 2009 2404
3 1634 2281 2511
3 1780 1781 2419
3 1435 1623 2465
3 1286 1774 2384
3 384 361 2339
3 193 1901 2359
3 1165 2433 2475
3 2277 1370 2386
3 677 653 2209
3 1994 1516 2367
3 1479 1478 2440
3 1165 1512 2433
3 1644 1353 2417
3 1711 1712 2353
3 2193 1615 2425
3 1613 1956 2469
3 1440 1173 2330
3 2269 1479 2440
3 222 2218 2465
3 391 389 2503
3 306 2278 2345
3 468 2090 2365
3 221 2246 2526
3 1445 1446 2504
3 939 1844 2392
3 86 87 2373
3 1429 1428 2366
3 2053 2103 2383
3 1348 1212 2312
3 805 750 2371
3 997 1286 2408
3 1152 869 2363
3 2063 2064 2238
3 192 1994 2367
3 1160 2043 2310
3 1926 2151 2350
3 2059 2098 2271
3 1897 1366 2537
3 215 2262 2437
3 1655 1732 2476
3 2415 1128 2454
3 1320 2213 2214
3 7 258 2357
3 259 155 2356
3 2171 1530 2172
3 347 351 2407
3 1077 1078 2343
3 239 2003 2279
3 1446 1128 2415
3 1034 1033 2410
3 601 627 2442
3 1154 1653 2234
3 397 2060 2405
3 2142 794 2272
3 442 2063 2238
3 1863 1215 2378
3 794 2076 2272
3 1883 1375 2505
3 1320 878 2213
3 342 468 2344
3 1903 218 2377
3 380 376 2497
3 1549 1547 2379
3 1148 1165 2475
3 2157 226 2507
3 829 972 2326
3 884 1957 2466
3 2291 1077 2343
3 65 66 2395
3 787 2052 2518
3 2298 1348 2312
3 1946 2343 2396
3 1653 256 2535
3 1842 1548 2472
3 1957 2301 2466
3 1366 1277 2370
3 2213 1432 2214
3 961 2245 2383
3 218 2093 2391
3 1376 2283 2421
3 1873 2127 2333
3 1019 1021 2512
3 1128 1127 2454
3 1104 1434 2450
3 2130 1439 2468
3 2396 2110 2482
3 2186 855 2283
3 1724 2293 2329
3 1163 1059 2372
3 1614 2389 2423
3 53 54 2402
3 1063 1707 2334
3 2283 855 2421
3 1385 1863 2436
3 364 1883 2505
3 517 1890 2387
3 1145 996 2492
3 1047 1287 2348
3 2148 1875 2320
3 205 2176 2416
3 1372 1844 2478
3 1211 2219 2250
3 1141 898 2368
3 245 1909 2420
3 2278 327 2321
3 2389 1397 2423
3 2256 513 2290
3 559 2403 2456
3 1137 1340 2374
3 2093 1384 2391
3 1918 1148 2524
3 1030 2236 2427
3 1867 1895 2513
3 2014 517 2387
3 2271 1457 2447
3 1143 2028 2353
3 1904 194 2432
3 1148 2475 2524
3 1574 1523 2436
3 2213 1083 2311
3 1997 358 2325
3 2139 246 2506
3 1370 1369 2386
3 1271 2059 2271
3 1034 2173 2463
3 1123 1412 2393
3 1578 1827 2515
3 2209 1320 2424
3 2079 1504 2210
3 1361 2168 2305
3 1491 1489 2403
3 238 1725 2226
3 1190 986 2334
3 1547 1545 2508
3 1891 1613 2469
3 1153 1885 2362
3 2208 1632 2382
3 2287 1281 2448
3 1356 1376 2421
3 1965 2349 2515
3 2155 1186 2422
3 1522 2014 2387
3 2158 1468 2323
3 2050 954 2333
3 1397 1809 2423
3 1362 1360 2376
3 1852 1985 2397
3 2069 1691 2446
3 789 2066 2425
3 1895 755 2513
3 1707 1154 2234
3 372 374 2430
3 2225 787 2518
3 2028 1206 2401
3 986 1063 2334
3 1912 726 2439
3 1340 1342 2400
3 1916 1145 2448
3 2236 1649 2427
3 2374 1340 2400
3 2222 1407 2290
3 2324 1152 2363
3 241 2220 2472
3 765 2190 2384
3 2375 667 2452
3 2330 1173 2406
3 1181 1972 2500
3 2126 1382 2388
3 1173 1012 2406
3 315 313 2495
3 1015 1373 2385
3 97 221 2526
3 1937 1397 2389
3 930 1061 2462
3 971 1096 2496
3 45 46 2485
3 669 791 2529
3 1104 2450 2521
3 382 378 2390
3 2191 1371 2536
3 2235 1036 2286
3 831 2209 2424
3 762 1997 2349
3 2379 1547 2508
3 2177 1359 2467
3 2403 1489 2456
3 796 785 2532
3 219 1902 2516
3 1519 2300 2480
3 1065 1655 2476
3 1375 1473 2505
3 1489 1490 2456
3 390 392 2431
3 2247 2013 2464
3 1135 1930 2369
3 2278 1583 2345
3 626 622 2452
3 631 2298 2312
3 2233 1348 2298
3 1398 1974 2499
3 1706 1681 2492
3 261 130 2444
3 32 260 2445
3 822 2099 2368
3 1365 1912 2439
3 941 940 2418
3 1446 2166 2504
3 2106 1121 2414
3 2300 1519 2449
3 1803 1104 2521
3 1732 1570 2476
3 1413 2051 2392
3 2122 1946 2396
3 2238 1868 2520
3 477 556 2483
3 2397 1985 2533
3 463 445 2411
3 2163 1185 2488
3 1126 2141 2319
3 1755 2264 2533
3 972 2204 2501
3 2230 1533 2340
3 1774 1773 2503
3 1997 2325 2349
3 1004 2069 2446
3 2159 31 2445
3 131 2160 2444
3 1371 2191 2451
3 1001 2154 2486
3 1682 2230 2340
3 2103 961 2383
3 1033 1151 2410
3 382 2390 2531
3 1504 2079 2520
3 1583 2278 2321
3 511 465 2429
3 250 2024 2479
3 2208 2088 2509
3 619 620 2484
3 1246 2208 2366
3 2141 1209 2319
3 1359 1413 2467
3 1295 1459 2458
3 2218 1435 2465
3 2281 1249 2511
3 2293 237 2354
3 2207 1398 2499
3 1564 2155 2422
3 552 469 2453
3 1947 224 2498
3 2062 1568 2490
3 2018 205 2416
3 260 2159 2445
3 2160 261 2444
3 2092 610 2468
3 194 2195 2432
3 1432 2213 2311
3 211 2251 2464
3 2378 856 2527
3 1536 1532 2534
3 2364 786 2497
3 2438 1438 2478
3 1185 1948 2488
3 2042 941 2418
3 1582 2321 2434
3 885 1891 2469
3 1364 2048 2455
3 1693 2225 2518
3 401 382 2531
3 1338 2247 2464
3 442 2238 2520
3 1292 2117 2428
3 2274 1350 2500
3 2066 2193 2425
3 2179 1184 2435
3 898 822 2368
3 2436 1863 2527
3 1844 1016 2478
3 2184 1001 2486
3 557 2207 2499
3 2013 211 2464
3 2254 250 2479
3 1350 1181 2500
3 2009 248 2470
3 246 2140 2506
3 1574 2436 2527
3 2139 1419 2517
3 316 1971 2514
3 1319 2122 2482
3 226 2006 2507
3 1400 2270 2481
3 1681 2287 2448
3 2325 1578 2349
3 232 1652 2487
3 1320 2214 2424
3 1632 2208 2509
3 248 2288 2470
3 1406 1141 2460
3 2188 1322 2434
3 2244 1980 2441
3 2088 1255 2509
3 1280 2109 2427
3 2060 2307 2405
3 2236 1034 2463
3 1745 2293 2354
3 2122 2396 2482
3 2109 1030 2427
3 2307 1563 2405
3 1429 2382 2459
3 224 2267 2498
3 682 2211 2447
3 2079 442 2520
3 2348 1287 2398
3 2220 1842 2472
3 1335 2249 2466
3 1249 2263 2511
3 443 2210 2519
3 2385 1373 2394
3 1594 2184 2486
3 2052 2239 2518
3 1568 2439 2490
3 2349 1578 2515
3 2344 468 2412
3 2270 1996 2481
3 1735 2244 2441
3 2260 1471 2477
3 2210 1504 2519
3 1434 2297 2450
3 2297 1419 2450
3 2263 1660 2502
3 2404 2009 2470
3 1718 2385 2394
3 1371 2194 2536
3 2317 444 2461
3 1443 2322 2525
3 1716 2375 2452
3 1863 2378 2527
3 2439 726 2490
3 1057 2328 2451
3 1638 2404 2470
3 1454 2234 2535
3 755 2320 2513
3 2234 1653 2535
3 2264 552 2533
3 1419 2297 2517
3 1392 2322 2510
3 552 2397 2533
3 1798 2364 2497
3 2322 1392 2525
3 2382 1631 2459
3 1016 2438 2478
3 1366 2370 2537
3 1742 2491 2530
3 2491 257 2530
CELL_TYPES 4886
5
5
5
5
5
5
5
5
5
5
5
5
5
5
5
5
5
5
5
5
5
5
5
5
5
5
5
5
5
5
5
5
5
5
5
5
5
5
5
5
5
5
5
5
5
5
5
5
5
5
5
5
5
5
5
5
5
5
5
5
5
5
5
5
5
5
5
5
5
5
5
5
5
5
5
5
5
5
5
5
5
5
5
5
5
5
5
5
5
5
5
5
5
5
5
5
5
5
5
5
5
5
5
5
5
5
5
5
5
5
5
5
5
5
5
5
5
5
5
5
5
5
5
5
5
5
5
5
5
5
5
5
5
5
5
5
5
5
5
5
5
5
5
5
5
5
5
5
5
5
5
5
5
5
5
5
5
5
5
5
5
5
5
5
5
5
5
5
5
5
5
5
5
5
5
5
5
5
5
5
5
5
5
5
5
5
5
5
5
5
5
5
5
5
5
5
5
5
5
5
5
5
5
5
5
5
5
5
5
5
5
5
5
5
5
5
5
5
5
5
5
5
5
5
5
5
5
5
5
5
5
5
5
5
5
5
5
5
5
5
5
5
5
5
5
5
5
5
5
5
5
5
5
5
5
5
5
5
5
5
5
5
5
5
5
5
5
5
5
5
5
5
5
5
5
5
5
5
5
5
5
5
5
5
5
5
5
5
5
5
5
5
5
5
5
5
5
5
5
5
5
5
5
5
5
5
5
5
5
5
5
5
5
5
5
5
5
5
5
5
5
5
5
5
5
5
5
5
5
5
5
5
5
5
5
5
5
5
5
5
5
5
5
5
5
5
5
5
5
5
5
5
5
5
5
5
5
5
5
5
5
5
5
5
5
5
5
5
5
5
5
5
5
5
5
5
5
5
5
5
5
5
5
5
5
5
5
5
5
5
5
5
5
5
5
5
5
5
5
5
5
5
5
5
5
5
5
5
5
5
5
5
5
5
5
5
5
5
5
5
5
5
5
5
5
5
5
5
5
5
5
5
5
5
5
5
5
5
5
5
5
5
5
5
5
5
5
5
5
5
5
5
5
5
5
5
5
5
5
5
5
5
5
5
5
5
5
5
5
5
5
5
5
5
5
5
5
5
5
5
5
5
5
5
5
5
5
5
5
5
5
5
5
5
5
5
5
5
5
5
5
5
5
5
5
5
5
5
5
5
5
5
5
5
5
5
5
5
5
5
5
5
5
5
5
5
5
5
5
5
5
5
5
5
5
5
5
5
5
5
5
5
5
5
5
5
5
5
5
5
5
5
5
5
5
5
5
5
5
5
5
5
5
5
5
5
5
5
5
5
5
5
5
5
5
5
5
5
5
5
5
5
5
5
5
5
5
5
5
5
5
5
5
5
5
5
5
5
5
5
5
5
5
5
5
5
5
5
5
5
5
5
5
5
5
5
5
5
5
5
5
5
5
5
5
5
5
5
5
5
5
5
5
5
5
5
5
5
5
5
5
5
5
5
5
5
5
5
5
5
5
5
5
5
5
5
5
5
5
5
5
5
5
5
5
5
5
5
5
5
5
5
5
5
5
5
5
5
5
5
5
5
5
5
5
5
5
5
5
5
5
5
5
5
5
5
5
5
5
5
5
5
5
5
5
5
5
5
5
5
5
5
5
5
5
5
5
5
5
5
5
5
5
5
5
5
5
5
5
5
5
5
5
5
5
5
5
5
5
5
5
5
5
5
5
5
5
5
5
5
5
5
5
5
5
5
5
5
5
5
5
5
5
5
5
5
5
5
5
5
5
5
5
5
5
5
5
5
5
5
5
5
5
5
5
5
5
5
5
5
5
5
5
5
5
5
5
5
5
5
5
5
5
5
5
5
5
5
5
5
5
5
5
5
5
5
5
5
5
5
5
5
5
5
5
5
5
5
5
5
5
5
5
5
5
5
5
5
5
5
5
5
5
5
5
5
5
5
5
5
5
5
5
5
5
5
5
5
5
5
5
5
5
5
5
5
5
5
5
5
5
5
5
5
5
5
5
5
5
5
5
5
5
5
5
5
5
5
5
5
5
5
5
5
5
5
5
5
5
5
5
5
5
5
5
5
5
5
5
5
5
5
5
5
5
5
5
5
5
5
5
5
5
5
5
5
5
5
5
5
5
5
5
5
5
5
5
5
5
5
5
5
5
5
5
5
5
5
5
5
5
5
5
5
5
5
5
5
5
5
5
5
5
5
5
5
5
5
5
5
5
5
5
5
5
5
5
5
5
5
5
5
5
5
5
5
5
5
5
5
5
5
5
5
5
5
5
5
5
5
5
5
5
5
5
5
5
5
5
5
5
5
5
5
5
5
5
5
5
5
5
5
5
5
5
5
5
5
5
5
5
5
5
5
5
5
5
5
5
5
5
5
5
5
5
5
5
5
5
5
5
5
5
5
5
5
5
5
5
5
5
5
5
5
5
5
5
5
5
5
5
5
5
5
5
5
5
5
5
5
5
5
5
5
5
5
5
5
5
5
5
5
5
5
5
5
5
5
5
5
5
5
5
5
5
5
5
5
5
5
5
5
5
5
5
5
5
5
5
5
5
5
5
5
5
5
5
5
5
5
5
5
5
5
5
5
5
5
5
5
5
5
5
5
5
5
5
5
5
5
5
5
5
5
5
5
5
5
5
5
5
5
5
5
5
5
5
5
5
5
5
5
5
5
5
5
5
5
5
5
5
5
5
5
5
5
5
5
5
5
5
5
5
5
5
5
5
5
5
5
5
5
5
5
5
5
5
5
5
5
5
5
5
5
5
5
5
5
5
5
5
5
5
5
5
5
5
5
5
5
5
5
5
5
5
5
5
5
5
5
5
5
5
5
5
5
5
5
5
5
5
5
5
5
5
5
5
5
5
5
5
5
5
5
5
5
5
5
5
5
5
5
5
5
5
5
5
5
5
5
5
5
5
5
5
5
5
5
5
5
5
5
5
5
5
5
5
5
5
5
5
5
5
5
5
5
5
5
5
5
5
5
5
5
5
5
5
5
5
5
5
5
5
5
5
5
5
5
5
5
5
5
5
5
5
5
5
5
5
5
5
5
5
5
5
5
5
5
5
5
5
5
5
5
5
5
5
5
5
5
5
5
5
5
5
5
5
5
5
5
5
5
5
5
5
5
5
5
5
5
5
5
5
5
5
5
5
5
5
5
5
5
5
5
5
5
5
5
5
5
5
5
5
5
5
5
5
5
5
5
5
5
5
5
5
5
5
5
5
5
5
5
5
5
5
5
5
5
5
5
5
5
5
5
5
5
5
5
5
5
5
5
5
5
5
5
5
5
5
5
5
5
5
5
5
5
5
5
5
5
5
5
5
5
5
5
5
5
5
5
5
5
5
5
5
5
5
5
5
5
5
5
5
5
5
5
5
5
5
5
5
5
5
5
5
5
5
5
5
5
5
5
5
5
5
5
5
5
5
5
5
5
5
5
5
5
5
5
5
5
5
5
5
5
5
5
5
5
5
5
5
5
5
5
5
5
5
5
5
5
5
5
5
5
5
5
5
5
5
5
5
5
5
5
5
5
5
5
5
5
5
5
5
5
5
5
5
5
5
5
5
5
5
5
5
5
5
5
5
5
5
5
5
5
5
5
5
5
5
5
5
5
5
5
5
5
5
5
5
5
5
5
5
5
5
5
5
5
5
5
5
5
5
5
5
5
5
5
5
5
5
5
5
5
5
5
5
5
5
5
5
5
5
5
5
5
5
5
5
5
5
5
5
5
5
5
5
5
5
5
5
5
5
5
5
5
5
5
5
5
5
5
5
5
5
5
5
5
5
5
5
5
5
5
5
5
5
5
5
5
5
5
5
5
5
5
5
5
5
5
5
5
5
5
5
5
5
5
5
5
5
5
5
5
5
5
5
5
5
5
5
5
5
5
5
5
5
5
5
5
5
5
5
5
5
5
5
5
5
5
5
5
5
5
5
5
5
5
5
5
5
5
5
5
5
5
5
5
5
5
5
5
5
5
5
5
5
5
5
5
5
5
5
5
5
5
5
5
5
5
5
5
5
5
5
5
5
5
5
5
5
5
5
5
5
5
5
5
5
5
5
5
5
5
5
5
5
5
5
5
5
5
5
5
5
5
5
5
5
5
5
5
5
5
5
5
5
5
5
5
5
5
5
5
5
5
5
5
5
5
5
5
5
5
5
5
5
5
5
5
5
5
5
5
5
5
5
5
5
5
5
5
5
5
5
5
5
5
5
5
5
5
5
5
5
5
5
5
5
5
5
5
5
5
5
5
5
5
5
5
5
5
5
5
5
5
5
5
5
5
5
5
5
5
5
5
5
5
5
5
5
5
5
5
5
5
5
5
5
5
5
5
5
5
5
5
5
5
5
5
5
5
5
5
5
5
5
5
5
5
5
5
5
5
5
5
5
5
5
5
5
5
5
5
5
5
5
5
5
5
5
5
5
5
5
5
5
5
5
5
5
5
5
5
5
5
5
5
5
5
5
5
5
5
5
5
5
5
5
5
5
5
5
5
5
5
5
5
5
5
5
5
5
5
5
5
5
5
5
5
5
5
5
5
5
5
5
5
5
5
5
5
5
5
5
5
5
5
5
5
5
5
5
5
5
5
5
5
5
5
5
5
5
5
5
5
5
5
5
5
5
5
5
5
5
5
5
5
5
5
5
5
5
5
5
5
5
5
5
5
5
5
5
5
5
5
5
5
5
5
5
5
5
5
5
5
5
5
5
5
5
5
5
5
5
5
5
5
5
5
5
5
5
5
5
5
5
5
5
5
5
5
5
5
5
5
5
5
5
5
5
5
5
5
5
5
5
5
5
5
5
5
5
5
5
5
5
5
5
5
5
5
5
5
5
5
5
5
5
5
5
5
5
5
5
5
5
5
5
5
5
5
5
5
5
5
5
5
5
5
5
5
5
5
5
5
5
5
5
5
5
5
5
5
5
5
5
5
5
5
5
5
5
5
5
5
5
5
5
5
5
5
5
5
5
5
5
5
5
5
5
5
5
5
5
5
5
5
5
5
5
5
5
5
5
5
5
5
5
5
5
5
5
5
5
5
5
5
5
5
5
5
5
5
5
5
5
5
5
5
5
5
5
5
5
5
5
5
5
5
5
5
5
5
5
5
5
5
5
5
5
5
5
5
5
5
5
5
5
5
5
5
5
5
5
5
5
5
5
5
5
5
5
5
5
5
5
5
5
5
5
5
5
5
5
5
5
5
5
5
5
5
5
5
5
5
5
5
5
5
5
5
5
5
5
5
5
5
5
5
5
5
5
5
5
5
5
5
5
5
5
5
5
5
5
5
5
5
5
5
5
5
5
5
5
5
5
5
5
5
5
5
5
5
5
5
5
5
5
5
5
5
5
5
5
5
5
5
5
5
5
5
5
5
5
5
5
5
5
5
5
5
5
5
5
5
5
5
5
5
5
5
5
5
5
5
5
5
5
5
5
5
5
5
5
5
5
5
5
5
5
5
5
5
5
5
5
5
5
5
5
5
5
5
5
5
5
5
5
5
5
5
5
5
5
5
5
5
5
5
5
5
5
5
5
5
5
5
5
5
5
5
5
5
5
5
5
5
5
5
5
5
5
5
5
5
5
5
5
5
5
5
5
5
5
5
5
5
5
5
5
5
5
5
5
5
5
5
5
5
5
5
5
5
5
5
5
5
5
5
5
5
5
5
5
5
5
5
5
5
5
5
5
5
5
5
5
5
5
5
5
5
5
5
5
5
5
5
5
5
5
5
5
5
5
5
5
5
5
5
5
5
5
5
5
5
5
5
5
5
5
5
5
5
5
5
5
5
5
5
5
5
5
5
5
5
5
5
5
5
5
5
5
5
5
5
5
5
5
5
5
5
5
5
5
5
5
5
5
5
5
5
5
5
5
5
5
5
5
5
5
5
5
5
5
5
5
5
5
5
5
5
5
5
5
5
5
5
5
5
5
5
5
5
5
5
5
5
5
5
5
5
5
5
5
5
5
5
5
5
5
5
5
5
5
5
5
5
5
5
5
5
5
5
5
5
5
5
5
5
5
5
5
5
5
5
5
5
5
5
5
5
5
5
5
5
5
5
5
5
5
5
5
5
5
5
5
5
5
5
5
5
5
5
5
5
5
5
5
5
5
5
5
5
5
5
5
5
5
5
5
5
5
5
5
5
5
5
5
5
5
5
5
5
5
5
5
5
5
5
5
5
5
5
5
5
5
5
5
5
5
5
5
5
5
5
5
5
5
5
5
5
5
5
5
5
5
5
5
5
5
5
5
5
5
5
5
5
5
5
5
5
5
5
5
5
5
5
5
5
5
5
5
5
5
5
5
5
5
5
5
5
5
5
5
5
5
5
5
5
5
5
5
5
5
5
5
5
5
5
5
5
5
5
5
5
5
5
5
5
5
5
5
5
5
5
5
5
5
5
5
5
5
5
5
5
5
5
5
5
5
5
5
5
5
5
5
5
5
5
5
5
5
5
5
5
5
5
5
5
5
5
5
5
5
5
5
5
5
5
5
5
5
5
5
5
5
5
5
5
5
5
5
5
5
5
5
5
5
5
5
5
5
5
5
5
5
5
5
5
5
5
5
5
5
5
5
5
5
5
5
5
5
5
5
5
5
5
5
5
5
5
5
5
5
5
5
5
5
5
5
5
5
5
5
5
5
5
5
5
5
5
5
5
5
5
5
5
5
5
5
5
5
5
5
5
5
5
5
5
5
5
5
5
5
5
5
5
5
5
5
5
5
5
5
5
5
5
5
5
5
5
5
5
5
5
5
5
5
5
5
5
5
5
5
5
5
5
5
5
5
5
5
5
5
5
5
5
5
5
5
5
5
5
5
5
5
5
5
5
5
5
5
5
5
5
5
5
5
5
5
5
5
5
5
5
5
5
5
5
5
5
5
5
5
5
5
5
5
5
5
5
5
5
5
5
5
5
5
5
5
5
5
5
5
5
5
5
5
5
5
5
5
5
5
5
5
5
5
5
5
5
5
5
5
5
5
5
5
5
5
5
5
5
5
5
5
5
5
5
5
5
5
5
5
5
5
5
5
5
5
5
5
5
5
5
5
5
5
5
5
5
5
5
5
5
5
5
5
5
5
5
5
5
5
5
5
5
5
5
5
5
5
5
5
5
5
5
5
5
5
5
5
5
5
5
5
5
5
5
5
5
5
5
5
5
5
5
5
5
5
5
5
5
5
5
5
5
5
5
5
5
5
5
5
5
5
5
5
5
5
5
5
5
5
5
5
5
5
5
5
5
5
5
5
5
5
5
5
5
5
5
5
5
5
5
5
5
5
5
5
5
5
5
5
5
5
5
5
5
5
5
5
5
5
5
5
5
5
5
5
5
5
5
5
5
5
5
5
5
5
5
5
5
5
5
5
5
5
5
5
5
5
5
5
5
5
5
5
5
5
5
5
5
5
5
5
5
5
5
5
5
5
5
5
5
5
5
5
5
5
5
5
5
5
5
5
5
5
5
5
5
5
5
5
5
5
5
5
5
5
5
5
5
5
5
5
5
5
5
5
5
5
5
5
5
5
5
5
5
5
5
5
5
5
5
5
5
5
5
5
5
5
5
5
5
5
5
5
5
5
5
5
5
5
5
5
5
5
5
5
5
5
5
5
5
5
5
5
5
5
5
5
5
5
5
5
5
5
5
5
5
5
5
5
5
5
5
5
5
5
5
5
5
5
5
5
5
5
5
5
5
5
5
5
5
5
5
5
5
5
5
5
5
5
5
5
5
5
5
5
5
5
5
5
5
5
5
5
5
5
5
5
5
5
5
5
5
5
5
5
5
5
5
5
5
5
5
5
5
5
5
5
5
5
5
5
5
5
5
5
5
5
5
5
5
5
5
5
5
5
5
5
5
5
5
5
5
5
5
5
5
5
5
5
5
5
5
5
5
5
5
5
5
5
5
5
5
5
5
5
5
5
5
5
5
5
5
5
5
5
5
5
5
5
5
5
5
5
5
5
5
5
5
5
5
5
5
5
5
5
5
5
5
5
5
5
5
5
5
5
5
5
5
5
5
5
5
5
5
5
5
5
5
5
5
5
5
5
5
5
5
5
5
5
5
5
5
5
5
5
5
5
5
5
5
5
5
5
5
5
5
5
5
5
5
5
5
5
5
5
5
5
5
5
5
5
5
5
5
5
5
5
5
5
5
5
5
5
5
5
5
5
5
5
5
5
5
5
5
5
5
5
5
5
5
5
5
5
5
5
5
5
5
5
5
5
5
5
5
5
5
5
5
5
5
5
5
5
5
5
5
5
5
5
5
5
5
5
5
5
5
5
5
5
5
5
5
5
5
5
5
5
5
5
5
5
5
5
5
5
5
5
5
5
5
5
5
5
5
5
5
5
5
5
5
5
5
5
5
5
5
5
5
5
5
5
5
5
5
5
5
5
5
5
5
5
5
5
5
5
5
5
5
5
5
5
5
5
5
5
5
5
5
5
5
5
5
5
5
5
5
5
5
5
5
5
5
5
5
5
5
5
5
5
5
5
5
5
5
5
5
5
5
5
5
5
5
5
5
5
5
5
5
5
5
5
5
5
5
5
5
5
5
5
5
5
5
5
5
5
5
5
5
5
5
5
5
5
5
5
5
5
5
5
5
5
5
5
5
5
5
5
5
5
5
5
5
5
5
5
5
5
5
5
5
5
5
5
5
5
5
5
5
5
5
5
5
5
5
5
5
5
5
5
5
5
5
5
5
5
5
5
5
5
5
5
5
5
5
5
5
5
5
5
5
5
5
5
5
5
5
5
5
5
5
5
5
5
5
5
5
5
5
5
5
5
5
5
5
5
5
5
5
5
5
5
5
5
5
5
5
5
5
5
5
5
5
5
5
5
5
5
5
5
5
5
5
5
5
5
5
5
5
5
5
5
5
5
5
5
5
5
5
5
5
5
5
5
5
5
5
5
5
5
5
5
5
5
5
5
5
5
5
5
5
5
5
5
5
5
5
5
5
5
5
5
5
5
5
5
5
5
5
5
5
5
5
5
5
5
5
5
5
5
5
5
5
5
5
5
5
5
5
5
5
5
5
5
5
5
5
5
5
5
5
5
5
5
5
5
5
5
5
5
5
5
5
5
5
5
5
5
5
5
5
5
5
5
5
5
5
5
5
5
5
5
5
5
5
5
5
5
5
5
5
5
5
5
5
5
5
5
5
5
5
5
5
5
5
5
5
5
5
5
5
5
5
5
5
5
5
5
5
5
5
5
5
5
5
5
5
5
5
5
5
5
5
5
5
5
5
5
5
5
5
5
5
5
5
5
5
5
5
5
5
5
5
5
5
5
5
5
5
5
5
5
5
5
5
5
5
5
5
5
5
5
5
5
5
5
5
5
5
5
5
5
5
5
5
5
5
5
5
5
5
5
5
5
5
5
5
5
5
5
5
5
5
5
5
5
5
5
5
5
5
5
5
5
5
5
5
5
5
5
5
5
5
5
5
5
5
5
5
5
5
5
5
5
5
5
5
5
5
5
5
5
5
5
5
5
5
5
5
5
5
5
5
5
5
5
5
5
5
5
5
5
5
5
5
5
5
5
5
5
5
5
5
5
5
5
5
5
5
5
5
5
5
5
5
5
5
5
5
5
5
5
5
5
5
5
5
5
5
5
5
5
5
5
5
5
5
5
5
5
5
5
5
5
5
5
5
5
5
5
5
5
5
5
5
5
5
5
5
5
5
5
5
5
5
5
5
5
5
5
5
5
5
5
5
5
5
5
5
5
5
5
5
5
5
5
5
5
5
5
5
5
5
5
5
5
5
5
5
5
5
5
5
5
5
5
5
5
5
5
5
5
5
5
5
5
5
5
5
5
5
5
5
5
5
5
5
5
5
5
5
5
5
5
5
5
5
5
5
5
5
5
5
5
5
5
5
5
5
5
5
5
5
5
5
5
5
5
5
5
5
5
5
5
5
5
5
5
5
5
5
5
5
5
5
5
5
5
5
5
5
5
5
5
5
5
5
5
5
5
5
5
5
5
5
5
5
5
5
5
5
5
5
5
5
5
5
5
5
5
5
5
5
5
5
5
5
5
5
5
5
5
5
5
5
5
5
5
5
5
5
5
5
5
5
5
5
5
5
5
5
5
5
5
5
5
5
5
5
5
5
5
5
5
5
5
5
5
5
5
5
5
5
5
5
5
5
5
5
5
5
5
5
5
5
5
5
5
5
5
5
5
5
5
5
5
5
5
5
5
5
5
5
5
5
5
5
5
5
5
5
5
5
5
5
5
5
5
5
5
5
5
5
5
5
5
5
5
5
5
5
5
5
5
5
5
5
5
5
5
5
5
5
5
5
5
5
5
5
5
5
5
5
5
5
5
5
5
5
5
5
5
5
5
5
5
5
5
5
5
5
5
5
5
5
5
5
5
5
5
5
5
5
5
5
5
5
5
5
5
5
5
5
5
5
5
5
5
5
5
5
5
5
5
5
5
5
5
5
5
5
5
5
5
5
5
5
5
5
5
5
5
5
5
5
5
5
5
5
5
5
5
5
5
5
5
5
5
5
5
5
5
5
5
5
5
5
5
5
5
5
5
5
5
5
5
5
5
5
5
5
5
5
5
5
5
5
5
5
5
5
5
5
5
5
5
5
5
5
5
5
5
5
5
5
5
5
5
5
5
5
5
5
5
5
5
5
5
5
5
5
5
5
5
5
5
5
5
5
5
5
5
5
5
5
5
5
5
5
5
5
5
5
5
5
5
5
5
5
5
5
5
5
5
5
5
5
5
5
5
5
5
5
5
5
5
5
5
5
5
5
5
5
5
5
5
5
5
5
5
5
5
5
5
5
5
5
5
5
5
5
5
5
5
5
5
5
5
5
5
5
5
5
5
5
5
5
5
5
5
5
5
5
5
5
5
5
5
5
5
5
5
5
5
5
5
5
5
5
5
5
5
5
5
5
5
5
5
5
5
5
5
5
5
5
5
5
5
5
5
5
5
5
5
5
5
5
5
5
5
5
5
5
5
5
5
5
5
5
5
5
5
5
5
5
5
5
5
5
5
5
5
5
5
5
5
5
5
5
5
5
POINT_DATA 2538
VECTORS disp float
1.3312788139469142e-11 2.714714738372413e-11 0.0
1.7701038588774486e-11 -4.322303381052754e-11 0.0
0.002399999997907378 7.485877048111034e-12 0.0
0.00239999997346243 -6.797007525860379e-11 0.0
0.0009126870796241916 0.0003709590966644575 0.0
0.001767476701888085 6.835942652086842e-5 0.0
0.0012284374456437588 2.4519411727024172e-5 0.0
6.178334972275521e-13 -2.41338095741885e-12 0.0
3.7341382948914076e-12 2.8446344089754075e-12 0.0
2.7720938597914948e-12 3.471023772178403e-13 0.0
2.41230815246953e-12 4.2100815237138165e-13 0.0
1.7428223744094809e-12 1.5729055711808798e-13 0.0
1.5707513063545262e-12 -2.7095586318665333e-13 0.0
1.2865283341761337e-12 -4.80804851245669e-13 0.0
1.1060474321975306e-12 -9.184461554256576e-13 0.0
7.962041148898349e-13 -1.385673993496916e-12 0.0
1.015361023015676e-12 -1.9939233830728562e-12 0.0
9.982215584150728e-13 -2.63882574258856e-12 0.0
1.1381996956812645e-12 -3.3188448397856725e-12 0.0
1.3086109297969819e-12 -3.991010380540073e-12 0.0
1.3697269967442504e-12 -4.4661903427834604e-12 0.0
1.6465762120095632e-12 -5.145729642271054e-12 0.0
1.6848610087450953e-12 -5.4971183283779e-12 0.0
1.831821669753414e-12 -6.087850130904118e-12 0.0
2.0243648802618482e-12 -6.610313265602294e-12 0.0
2.0831316163903576e-12 -7.092092859024202e-12 0.0
2.2556835609477023e-12 -7.712745388910687e-12 0.0
2.4914913526530125e-12 -8.39872005579614e-12 0.0
2.8174033383000452e-12 -9.305362579985809e-12 0.0
2.78556272510452e-12 -1.0258913260267268e-11 0.0
4.2745731068269965e-12 -1.3308412949251688e-11 0.0
1.60216859712211e-12 -1.0145232681344627e-11 0.0
3.362625070910627e-5 -3.079339587233594e-5 0.0
5.881643176238297e-5 -5.2132573622592204e-5 0.0
8.310250205848885e-5 -7.074465754945854e-5 0.0
0.00010589661215998224 -8.758054560133638e-5 0.0
0.00012760749613117207 -0.00010320973827030452 0.0
0.0001486866483335439 -0.00011818099663125388 0.0
0.00016951552300703394 -0.00013241531762886886 0.0
0.00018986345550358203 -0.0001461069200948739 0.0
0.00020996027752770996 -0.00015941127445797917 0.0
0.0002299031491122802 -0.0001722726446004262 0.0
0.0002496676201785749 -0.00018485278793334113 0.0
0.00026947414477475795 -0.0001971029615871549 0.0
0.0002891984050609321 -0.00020902509644856636 0.0
0.00030891993380797154 -0.00022075322665438652 0.0
0.0003287463308673572 -0.00023218694339396717 0.0
0.0003485112156494003 -0.00024332286483426166 0.0
0.0003683717364945097 -0.00025426369930092697 0.0
0.0003883632735195942 -0.0002649013509334095 0.0
0.00040844206660003497 -0.0002753247805911154 0.0
0.0004286388585045415 -0.0002855349743412741 0.0
0.00044896109639403593 -0.000295527748893588 0.0
0.00046940424150992077 -0.0003052995257624686 0.0
0.0004900920291966809 -0.00031487754258813726 0.0
0.000510806680632514 -0.00032423449556991525 0.0
0.0005318308477957689 -0.00033338504887083143 0.0
0.0005528659698963936 -0.00034230630605643146 0.0
0.0005741354489676658 -0.0003510389458168898 0.0
0.0005955512899929377 -0.0003595241506958875 0.0
0.000617237102247487 -0.0003678145710427268 0.0
0.0006389504111602687 -0.00037591254405755026 0.0
0.0006609633724445283 -0.0003838077570068423 0.0
0.0006831395667166025 -0.00039147297150819705 0.0
0.0007055601560477659 -0.00039899261537738856 0.0
0.0007281641658785177 -0.0004063412382621862 0.0
0.0007510234719023143 -0.0004135935549256101 0.0
0.0007739053670633285 -0.0004206334865631988 0.0
0.000797124951489813 -0.00042748622837572125 0.0
0.000820351711745346 -0.00043398867688161115 0.0
0.0008436691120721886 -0.0004401562171448838 0.0
0.0008671862068786137 -0.0004461470154277651 0.0
0.0008907132611389983 -0.0004517601893197487 0.0
0.000914547842324544 -0.0004571349702575978 0.0
0.000938627335999444 -0.00046217705877336224 0.0
0.0009628957606992686 -0.0004670346974079733 0.0
0.000987454528614044 -0.00047152984425403836 0.0
0.001012092286582265 -0.00047579832012737794 0.0
0.0010370213731661206 -0.0004798517969234639 0.0
0.001062097140555638 -0.00048359616587537104 0.0
0.0010873016856761586 -0.0004872240092963897 0.0
0.0011127323149025502 -0.0004905018931298445 0.0
0.0011381022197107338 -0.0004934243060092374 0.0
0.0011637170021259605 -0.0004961773538095734 0.0
0.001189088654650006 -0.0004985688550049628 0.0
0.001214889343448748 -0.0005006749608031133 0.0
0.0012403189425297797 -0.0005024364462138295 0.0
0.0012662949623835147 -0.0005039898772791982 0.0
0.00129185552040483 -0.0005053653889206417 0.0
0.0013173326856330198 -0.0005063693144061271 0.0
0.001342738527458843 -0.0005071757036088216 0.0
0.0013679808580974238 -0.0005073963114182401 0.0
0.001393025719031472 -0.0005072489834132618 0.0
0.0014180680116560537 -0.0005063142323377341 0.0
0.001443045103842446 -0.0005048985031434381 0.0
0.0014665215643260689 -0.0005024755431800919 0.0
0.0014902404944191654 -0.0005000994543843363 0.0
0.0015148022034112698 -0.0004975013160588953 0.0
0.001538196802931193 -0.0004942723560645939 0.0
0.0015611463564766705 -0.0004903586703657243 0.0
0.0015847398297143904 -0.0004855337700952079 0.0
0.0016089097717625503 -0.00048067395450188474 0.0
0.0016322886634286592 -0.00047549168286595755 0.0
0.0016571479377498353 -0.00047023555928593457 0.0
0.0016806471454485577 -0.000464691292741737 0.0
0.0017040077436397839 -0.0004585517681748547 0.0
0.0017282269651891916 -0.000451505430847256 0.0
0.001751303992111723 -0.0004436822210441442 0.0
0.0017750486044439931 -0.00043506836436101547 0.0
0.0017983907700899007 -0.0004258171283786775 0.0
0.0018221360807100472 -0.00041591859444623744 0.0
0.0018458759530953076 -0.00040507962300210626 0.0
0.0018701509635870946 -0.00039378313511545445 0.0
0.0018940648587353385 -0.00038178033881103524 0.0
0.0019180151398096549 -0.00036908584241969656 0.0
0.0019422677957568434 -0.0003554861612078323 0.0
0.0019665657139722086 -0.0003412319329019222 0.0
0.0019911321515840344 -0.0003265098155336826 0.0
0.0020163158233949398 -0.0003110374652438295 0.0
0.0020416409696181557 -0.0002949581252021399 0.0
0.0020670713164945673 -0.00027833107933250274 0.0
0.0020929863840467326 -0.000260977110944391 0.0
0.002119474045901663 -0.0002427467006634604 0.0
0.002146318599550061 -0.00022369457420363636 0.0
0.002173531024144872 -0.00020385464202223746 0.0
0.0022013846027610345 -0.00018293707621633252 0.0
0.0022302944127617695 -0.0001606277124142963 0.0
0.002259885156216582 -0.0001367519804587485 0.0
0.0022904781567288676 -0.0001107621068077113 0.0
0.0023233480201352032 -8.144460031968112e-5 0.0
0.002357574609026227 -4.74425800249736e-5 0.0
0.0023999999972106447 -1.2471591637954605e-11 0.0
0.0023999999937121446 -1.4769381206863346e-11 0.0
0.0023999999968413784 -7.027257791510011e-12 0.0
0.0023999999965076814 -6.004250746817636e-12 0.0
0.002399999996956991 -4.3301162920159336e-12 0.0
0.0023999999970059924 -3.2884869599593916e-12 0.0
0.0023999999970260076 -2.5808247370527855e-12 0.0
0.0023999999971476504 -2.0263749091322424e-12 0.0
0.002399999997152044 -1.5262641318769257e-12 0.0
0.002399999997256765 -1.1322113600483648e-12 0.0
0.0023999999973415777 -8.424621941215763e-13 0.0
0.0023999999974565413 -4.831007792305307e-13 0.0
0.002399999997519846 -2.1316545089173383e-13 0.0
0.0023999999976127206 1.4365018388033252e-13 0.0
0.0023999999976677656 5.056229394940569e-13 0.0
0.002399999997702905 9.435196905921874e-13 0.0
0.002399999997743969 1.3990353360107536e-12 0.0
0.002399999997593822 1.968176599043166e-12 0.0
0.0023999999978195083 2.4101007830166044e-12 0.0
0.002399999997558958 2.993565706250505e-12 0.0
0.0023999999976626932 3.3719439756469422e-12 0.0
0.002399999997617961 3.644198354010308e-12 0.0
0.002399999997771375 3.5942186612786255e-12 0.0
0.002399999998233847 4.03308924518739e-12 0.0
0.0023999999990212883 2.2360349978310417e-12 0.0
0.0022351196684250833 6.371216825918485e-5 0.0
0.002091577692402244 9.213869338339714e-5 0.0
0.0019619994010557254 9.009937316019586e-5 0.0
0.0018463614900503253 7.522416344629015e-5 0.0
0.001765836747225265 -2.9791431067848568e-6 0.0
0.0017603048928084627 -4.408922620357111e-5 0.0
0.001746454528717659 -8.028290428894143e-5 0.0
0.0017182891192371714 -9.478568865168805e-5 0.0
0.0016777335052488027 -9.195288457693377e-5 0.0
0.001632672623263455 -8.070358990393893e-5 0.0
0.0015852907917540931 -6.558108378704811e-5 0.0
0.0015372412186800278 -4.7440686787043665e-5 0.0
0.001487792247785021 -2.9903808150410437e-5 0.0
0.001436869618259762 -1.3885885847545498e-5 0.0
0.0013814988242919519 6.775723807228599e-7 0.0
0.0013163196283373074 1.3415660414785512e-5 0.0
0.0011646105379822783 6.601648030029834e-5 0.0
0.0011187575848657454 8.6239304621972e-5 0.0
0.001080380271493467 0.00010064221146501224 0.0
0.0010464942513465393 0.00011326949539646479 0.0
0.0010153785998287285 0.00012524442916966012 0.0
0.0009871354050265898 0.00013725592383714415 0.0
0.0009614589667148533 0.00015017082147664846 0.0
0.0009393356906900945 0.00016404841562715221 0.0
0.0009222807468300851 0.00018337440055455636 0.0
0.000909589620813839 0.00020390323871566685 0.0
0.0009113968407829626 0.0002448672005048292 0.0
0.0009090303468310514 0.00029285576994000516 0.0
0.0008256202312901139 0.00038576485659371927 0.0
0.0007045710777169881 0.0003840433940993842 0.0
0.0005185797505933019 0.0003237032860125809 0.0
0.00028475356265413525 0.0002109453118766103 0.0
0.0006201175236651412 -0.0003545889363807204 0.0
0.0016265227236702637 -0.00044854413250352133 0.0
0.0007796305728526579 -0.0004085028379332208 0.0
0.0014577972101632209 -0.00048513853162786443 0.0
0.0009493004670715426 -0.0004496677827807124 0.0
0.0012752784716145793 -0.0004850522412634119 0.0
0.0010985519550530958 -0.0004719315676725558 0.0
0.0017718331394046016 -0.00040798016560388744 0.0
0.0004960367055260329 -0.0003060252447900543 0.0
0.0018862826063615206 -0.00035625694796392405 0.0
0.00039341213401125396 -0.00025722171468614655 0.0
3.7662031459838396e-5 -8.247937651298133e-6 0.0
0.002352761571749045 -2.1496625804573217e-6 0.0
0.001316499641346868 3.612492418187421e-5 0.0
0.0015023721005604335 -2.059676917765562e-5 0.0
0.0011354709576526258 6.055712377034767e-5 0.0
0.001007866439451302 0.0001296496707187603 0.0
0.0020113268790239226 -0.0002905501055288507 0.0
0.00029775709702571147 -0.00020546935132308782 0.0
3.0348971338508197e-5 -1.0879378003338573e-5 0.0
0.002365678109095841 -4.652877113291793e-6 0.0
0.002334547674623487 3.73126191566048e-6 0.0
4.70594738301246e-5 -5.598119023056573e-7 0.0
0.0021149394748348448 -0.00022339191180944972 0.0
0.00021522029611847112 -0.0001530853257503685 0.0
0.0016362085297330136 -6.152233821141792e-5 0.0
0.0009182021578593141 0.000165954929067541 0.0
2.425658958481267e-5 -1.0211642043055366e-5 0.0
0.0023730574251138816 -5.750012213245509e-6 0.0
0.0008774327154757063 -0.0004338683034711042 0.0
0.001022523030829096 -0.0004620743005092847 0.0
0.0013808662595025506 -0.00048822277732920335 0.0
0.001177062883831833 -0.0004784427408995308 0.0
0.00153044847242621 -0.00047368572788123717 0.0
0.0016940975259670656 -0.0004336511883978656 0.0
0.0007159546895057847 -0.00038896466321713366 0.0
0.0005585970894310992 -0.00033316284710408975 0.0
0.0021931197309309524 -0.00016848939249475078 0.0
0.00015324684971270566 -0.00011231513017550214 0.0
0.0023180069562385368 1.2278816399161234e-5 0.0
6.540417542133462e-5 6.622486768617269e-6 0.0
0.002378309132128693 -8.336692011749706e-6 0.0
2.3189066390806526e-5 -1.1416720847259025e-5 0.0
0.0017279468217945482 -6.922796281481699e-5 0.0
0.0008766770707919161 0.00019708971484504048 0.0
0.002286332713456253 1.8529769918987226e-5 0.0
0.00010202641383450594 1.4226959909049009e-5 0.0
3.439374845039959e-5 -1.0443374566002104e-5 0.0
0.0023588859928759115 -3.937664146277499e-6 0.0
0.0014091476162549465 1.0469318682095401e-5 0.0
0.0010725096580283494 0.0001031561449958227 0.0
8.647061191414665e-5 -6.344555875876227e-5 0.0
0.0022882796451963697 -9.42404356821152e-5 0.0
0.001576461401646337 -0.0004652274716300671 0.0
0.001226311779555421 -0.00048306672581739055 0.0
0.0008315345000264753 -0.0004222754876248045 0.0
0.0006670720880984807 -0.0003735938463983249 0.0
0.0013298523628706154 -0.0004872333727568509 0.0
0.0018155362475328926 -0.0003907540849031268 0.0
0.0004549913622881569 -0.0002868297355958565 0.0
0.001937306381276265 -0.0003323670182482801 0.0
0.00035112854292118905 -0.00023438183288815716 0.0
0.0002545791860835032 -0.00017862274133297328 0.0
0.0020625888993157713 -0.0002579515961261069 0.0
0.0005947710720649514 0.00020193141887765487 0.0
0.0020035536423935927 3.653368714993227e-5 0.0
0.002377922475498847 -1.3240085680828636e-5 0.0
2.0163899810582984e-5 -1.1445244510137243e-5 0.0
0.000865813040724485 0.0002612547750611519 0.0
0.001787773963400744 -2.1879645084965674e-5 0.0
0.0001286266997169807 2.42468200341362e-5 0.0
0.0022910135318866694 1.7049395409047903e-5 0.0
3.824169866736624e-5 -2.7343285035000423e-5 0.0
0.0023509381018166574 -4.114654413147204e-5 0.0
0.0018922391135761717 2.4187750656552645e-5 0.0
0.0019082226356893883 1.3047807490709007e-5 0.0
0.002049365950231402 2.5168348405640774e-5 0.0
0.001955487816590273 2.1769661451947794e-5 0.0
0.0018446012590034434 1.6480178174478855e-6 0.0
0.0018731923009587253 2.2892549047307517e-5 0.0
0.001982100447076753 3.46856141078889e-5 0.0
0.0019058714660460689 4.069674477841423e-5 0.0
0.00201186708964062 4.3640819937531874e-5 0.0
0.0019426795881952342 5.005059238959907e-5 0.0
0.0018436650182508947 4.786319509280004e-5 0.0
0.0018789785889088506 5.468003249166524e-5 0.0
0.001794023964383957 5.448134628867171e-5 0.0
0.0018242950518207411 5.6917538578738096e-5 0.0
0.0017483225850318566 5.8575759302694044e-5 0.0
0.001776832319272447 5.673041275065632e-5 0.0
0.0012873686079526165 1.6006528834460905e-5 0.0
0.0012172764301689614 3.053293101023331e-6 0.0
0.0012658744127013967 8.125167922326031e-7 0.0
0.0012078900856646684 -9.964443521761762e-6 0.0
0.0012511224988766638 -1.199778250296097e-5 0.0
0.001200817317180234 -2.0444891159630793e-5 0.0
0.0012398908098681233 -2.1906066920917216e-5 0.0
0.0011942542955943939 -2.92122764333804e-5 0.0
0.0012305952040179377 -3.0194524721050372e-5 0.0
0.0011882351238466649 -3.6832168276007924e-5 0.0
0.0012226849947991466 -3.7327730177192476e-5 0.0
0.0011827167566412669 -4.3609707408003414e-5 0.0
0.0012158007082844781 -4.412699438334917e-5 0.0
0.001178606884064087 -4.997268403042685e-5 0.0
0.001209705786724907 -5.044322528240575e-5 0.0
0.001173832787847866 -5.617125278358993e-5 0.0
0.0012039658084153611 -5.655815559535511e-5 0.0
0.001168189572485748 -6.229870452352832e-5 0.0
0.001198475881995041 -6.271286471419653e-5 0.0
0.0011636220438418778 -6.83208885458547e-5 0.0
0.0011934976546030653 -6.89187857217462e-5 0.0
0.0011593751996071648 -7.442853049505048e-5 0.0
0.0011877813757388027 -7.518904823364756e-5 0.0
0.0011550421122635689 -8.067617517118097e-5 0.0
0.001183074622170536 -8.156112030586041e-5 0.0
0.0011514785546075236 -8.688101698387366e-5 0.0
0.0011786725938664386 -8.810842081703026e-5 0.0
0.0011461392465032365 -9.316535408209872e-5 0.0
0.0011740361453783784 -9.485612866881974e-5 0.0
0.0011348471189755044 -0.00010050331097466495 0.0
0.0011714874537565368 -0.00010180234845709118 0.0
0.0011380173423187923 -0.00010740898502323145 0.0
0.0011672189235832269 -0.00010902980208121385 0.0
0.0011353831778401749 -0.00011468878515407546 0.0
0.0011635073110705556 -0.00011653990337729162 0.0
0.0011337277244090579 -0.00012206540353882961 0.0
0.0011597677373224825 -0.00012425564551083474 0.0
0.0011306978444638304 -0.00012990305490918091 0.0
0.0011539385408801265 -3.4096286779457115e-5 0.0
0.0011560700515903404 -0.00013226195984159789 0.0
0.0011331935068788234 -6.720297769395555e-5 0.0
0.0011039059821741715 -0.0001079358964118873 0.0
0.001125528300157561 -0.00013802772656194072 0.0
0.0011522340359871486 -0.00014055299934129085 0.0
0.001120430586100488 -0.000146692126083188 0.0
0.0010944249977861095 -0.0001432915534152924 0.0
0.0010885725543368194 -0.0001523069553785152 0.0
0.0011472129073721244 -0.00014966584026412754 0.0
0.001179527941753018 -0.00014312503127194697 0.0
0.001197950748516643 -0.00010309908301372318 0.0
0.0011746775808822733 -0.00015259717807814118 0.0
0.0012091794346384003 -0.00014497495972436112 0.0
0.0012030824745063917 -0.00015550988385870055 0.0
0.0010629136959346833 -0.0001485951822106298 0.0
0.001058335123418049 -0.00015726655803851203 0.0
0.0012387971273416138 -0.00014724878265426087 0.0
0.001031015777664531 -0.00015328374661804743 0.0
0.0010282186857123819 -0.00016218980544066339 0.0
0.0012332791596269949 -0.0001580065355262601 0.0
0.0012678759092923494 -0.0001502307951933909 0.0
0.0009990071413306762 -0.00015783910369831204 0.0
0.0009955593897463383 -0.00016690497818613013 0.0
0.0012631278281640902 -0.00016100989556169573 0.0
0.0012988280506752103 -0.00015275730659654974 0.0
0.0009672485809390953 -0.00016215219673936193 0.0
0.0009635384459355061 -0.00017163949954802896 0.0
0.001293862803054356 -0.00016421181157402965 0.0
0.0013307299155816115 -0.00015520593223762046 0.0
0.0009359280354039901 -0.00016576794711567174 0.0
0.000930277625416704 -0.00017545544452265396 0.0
0.0013261089568431656 -0.000167034788730363 0.0
0.001363365068296808 -0.0001575401898115657 0.0
0.0009016852419697998 -0.00016920086264570492 0.0
0.0008969232839207271 -0.00017924824838812096 0.0
0.0008664831146415261 -0.0001729412204800445 0.0
0.0008713247862243678 -0.00016245420549542054 0.0
0.0012861850782188542 -0.00017567692364819823 0.0
0.001358462373386833 -0.00016997329637563713 0.0
0.0013966665847315424 -0.0001598321053014321 0.0
0.001402306432416311 -0.0001469692024066193 0.0
0.0012196739997428474 -6.9851037525381e-5 0.0
0.0014371688535392635 -0.00014890435581363322 0.0
0.0014432393404708822 -0.0001355176882790611 0.0
0.0014794362575893346 -0.00013693490440569315 0.0
0.0008644659443244549 -0.00018361187535734772 0.0
0.0008327353640278708 -0.00017601846978724451 0.0
0.0008944368615705345 -0.0001900488906276737 0.0
0.0013905682091002627 -0.0001731035886263649 0.0
0.000831289405501186 -0.00018686087527486264 0.0
0.0007991563772302959 -0.00017850794133310928 0.0
0.0012475005337952152 -4.3562462637703206e-5 0.0
0.000797874226373304 -0.0001889827318720547 0.0
0.0007656966914474119 -0.00018030958153988154 0.0
0.000764719942673403 -0.00019092007051155804 0.0
0.0007329891210236737 -0.000181294231480518 0.0
0.0007332606205750913 -0.00017105507551703458 0.0
0.0006984232756047381 -0.00017209153110313513 0.0
0.000699255339871086 -0.0001613301712538605 0.0
0.0007283480183323286 -0.00019158277564180977 0.0
0.0006617049135237205 -0.00016215439775390522 0.0
0.0006622435195339161 -0.00015118491593843036 0.0
0.000764236692443934 -0.00020216682825071962 0.0
0.0007333757411520966 -0.00020372974238554723 0.0
0.0006255114583747461 -0.00015091260837123935 0.0
0.0006246232815222991 -0.00014008863445083455 0.0
0.001486540987158413 -0.00012334971161618414 0.0
0.001524328194874024 -0.00012451060085237687 0.0
0.0007639195493504917 -0.000213627147073037 0.0
0.0007336499533386565 -0.00021501151458162783 0.0
0.0015318641319315182 -0.00011052055519173073 0.0
0.001571524221386948 -0.00011172505665363733 0.0
0.0015620522528908285 -0.00012724338850211717 0.0
0.0016097098270994286 -0.00011369429482805914 0.0
0.001600910082642542 -0.00012962094706025752 0.0
0.0016487890123283333 -0.00011494617169150153 0.0
0.001642284740236325 -0.0001307631140275146 0.0
0.0016919327168733944 -0.00011451229279354712 0.0
0.001681456821398143 -0.00013096648999671775 0.0
0.0016980771223102386 -9.952908602446083e-5 0.0
0.001731609516363043 -0.00011503154888710428 0.0
0.001718729389671666 -0.00013170939678443567 0.0
0.0007641911531378752 -0.00022537688523499946 0.0
0.0005857753185909971 -0.0001392016385866616 0.0
0.0005839304891211226 -0.0001279689852893847 0.0
0.0016722690782268708 -0.0001482198302141156 0.0
0.001708086889824561 -0.0001489579165400965 0.0
0.0017537809700738233 -0.00013224904383850103 0.0
0.0016645876832273698 -0.00016614059942331795 0.0
0.0007348132596171834 -0.00022674168661816508 0.0
0.001743218325076124 -0.00014953520106386528 0.0
0.0017879026798293296 -0.00013239029015615767 0.0
0.0007646096517664721 -0.00023752273133632442 0.0
0.000735943763848402 -0.00023890252456122438 0.0
0.0007066039832971814 -0.00022760680938130182 0.0
0.001776958981299382 -0.00014983871459295597 0.0
0.0018210286988752352 -0.0001319576008210889 0.0
0.0007651381717250685 -0.00025013613509444874 0.0
0.0007934777474291096 -0.00024843145465609984 0.0
0.0007082159896552229 -0.0002398029286042902 0.0
0.0006790975350618222 -0.00022805104927461315 0.0
0.001808458643009128 -0.0001497745099746739 0.0
0.0018533496762559918 -0.0001309129565292967 0.0
0.0018654379598308179 -0.00011433635251187853 0.0
0.0017644345251235584 -0.0001687011464148745 0.0
0.0018978359828587025 -0.00011250334258874184 0.0
0.001910806373308282 -9.718216734005687e-5 0.0
0.0005425608734912846 -0.00012664907237879876 0.0
0.0005425730092333568 -0.0001148758264640435 0.0
0.0005927275721277145 -0.00011707130360429084 0.0
0.0005411747692776525 -0.00010257546982713676 0.0
0.0005900390108272255 -0.00010266822495237366 0.0
0.0005391762545439481 -8.87524770022236e-5 0.0
0.0005874002772312674 -8.77641317032054e-5 0.0
0.0007939520117683977 -0.0002613206116028493 0.0
0.0008216238194509301 -0.00025923524445863565 0.0
0.0006810460939212112 -0.0002402998479707137 0.0
0.0006521422916008009 -0.00022805498283845021 0.0
0.0018846283099960704 -0.00012923637153083303 0.0
0.0005422371499154418 -7.395404420023557e-5 0.0
0.0005885323425155276 -7.189942050956095e-5 0.0
0.0008221625486829177 -0.0002723195859803817 0.0
0.0008491914512979344 -0.0002700512550821267 0.0
0.000997812686056838 -0.00017553039950112085 0.0
0.001928853263715452 -0.00011002446986235438 0.0
0.0012859395730677023 -1.1085189030446596e-5 0.0
0.001346703280216284 3.6265719077758444e-5 0.0
0.001122180269381119 -8.57757953222293e-5 0.0
0.001577199281551258 -9.758254014428583e-5 0.0
0.0005384835842824804 -5.647643983148901e-5 0.0
0.0005933830602102384 -5.402053647160125e-5 0.0
0.0006544860850055053 -0.00024036290467456718 0.0
0.000625931624552811 -0.0002277342111213645 0.0
0.0008501649146289883 -0.0002833845904236447 0.0
0.0008770021809960492 -0.0002808826263914941 0.0
0.001914247804199377 -0.0001266309285505194 0.0
0.0004994921065587612 -0.00011327843564832289 0.0
0.0005012554272596179 -0.00012496453215880398 0.0
0.0004848524763190929 -7.339018278009416e-5 0.0
0.0019586336557949886 -0.00010681974932890602 0.0
0.0005384869787712156 -3.81860434712679e-5 0.0
0.0005945597284113592 -3.3712383844621064e-5 0.0
0.0008236377617464249 -0.00028593913269902953 0.0
0.000628774679455395 -0.00024022581893450923 0.0
0.0006003121011196759 -0.0002270027153715734 0.0
0.001537715765289627 -9.674321960727454e-5 0.0
0.0015848344836645544 -8.332910302068684e-5 0.0
0.0015430445361590843 -8.280147181915385e-5 0.0
0.0015924964260734182 -6.915223682160488e-5 0.0
0.0008776201776303886 -0.000294304816248003 0.0
0.0009047245411100295 -0.0002912250256613347 0.0
0.0009722660353750801 -0.0001536281114462291 0.0
0.0005382172972466083 -1.8679173580452605e-5 0.0
0.0005935924935972556 -1.2046274196555138e-5 0.0
0.0019440344059877838 -0.00012328155978931377 0.0
0.0019039667483023105 -0.00014234041756878247 0.0
0.0005258639472837019 4.283684357464834e-6 0.0
0.0005907323516079168 1.2117506911696435e-5 0.0
0.001987577471964854 -0.00010349728122639752 0.0
0.0019966744634002374 -9.201088741979059e-5 0.0
0.0005333929214043379 2.6415559268693236e-5 0.0
0.0006564204480269878 -0.00025420751124775393 0.0
0.0009049093083122158 -0.00030515732485011005 0.0
0.000931834547575221 -0.0003014264545457754 0.0
0.000932155076116898 -0.0002875389329883881 0.0
0.0009592141653644793 -0.00029735339318298366 0.0
0.0009599231960226169 -0.000283541434358845 0.0
0.000987097176572283 -0.0002929271277623211 0.0
0.0009881143182739237 -0.00027898559840299034 0.0
0.001015675328909486 -0.000288075184841734 0.0
0.0010170845369031707 -0.0002740811219449025 0.0
0.0010448534418361667 -0.00028273255314855257 0.0
0.001043434697024637 -0.00029724327194453876 0.0
0.0010724586049998164 -0.0002914982106667997 0.0
0.0010709117519221549 -0.0003064056918998576 0.0
0.0010998023737171837 -0.0003002531238242831 0.0
0.0010979693086749127 -0.00031560555865535966 0.0
0.001127100141821153 -0.00030901711071627314 0.0
0.0010467584271103352 -0.00026871019859854074 0.0
0.0011291348601025616 -0.000293540472362227 0.0
0.001156822183757593 -0.0003018158529206488 0.0
0.0011544297108358693 -0.0003180422476529315 0.0
0.0011845142362084486 -0.00031044248942843514 0.0
0.00045725157247622776 -0.00011085872325805853 0.0
0.00045927703236469313 -0.00012215168934212334 0.0
0.0006034856294214568 -0.00023950519813155987 0.0
0.0005755374054925797 -0.00022597651503352952 0.0
0.001187488841001559 -0.00029412132134798115 0.0
0.001215189506092533 -0.000302122504290805 0.0
0.0012118462148076195 -0.0003190492453098052 0.0
0.0012430678777457305 -0.0003101762245586875 0.0
0.00041633515651056405 -0.00010765293294527846 0.0
0.0004187945699400092 -0.00011839314267540552 0.0
0.001548632974439988 -6.841766116662475e-5 0.0
0.0016009037078606046 -5.459925177712452e-5 0.0
0.0015556338079693512 -5.394864808107762e-5 0.0
0.0019739120516655147 -0.00011917262902563945 0.0
0.0020161913496364032 -9.95419939377737e-5 0.0
0.0009319065673585155 -0.0003159220606789808 0.0
0.0006476029223369616 -7.270245394307364e-5 0.0
0.0011995371037103585 -0.00016514106625160408 0.0
0.0012393214511752276 -0.00032770546912471213 0.0
0.0012706733842405113 -0.0003183156635265691 0.0
0.001274216972131202 -0.00030044394323153797 0.0
0.0013025050223300987 -0.000307863023218763 0.0
0.0012745904468895687 -0.00013876618281402357 0.0
0.0016118730619473025 -3.9467718678530106e-5 0.0
0.001653429605488272 -4.31185621263494e-5 0.0
0.0005934865411583134 3.733770605362027e-5 0.0
0.0005787355178287006 -0.000238372082333918 0.0
0.0005512595634516253 -0.0002244886096655627 0.0
0.0015638736599515736 -3.8918028418359844e-5 0.0
0.0012982539305916897 -0.0003266082782231676 0.0
0.0013307723015055228 -0.0003159355523239226 0.0
0.0013354545729112946 -0.0002967293902585136 0.0
0.0013646857601223408 -0.00030435249619103236 0.0
0.0013704662824924373 -0.0002852487775954465 0.0
0.0013996337240449932 -0.0002918033880144549 0.0
0.0013933034903552393 -0.00031169676093361503 0.0
0.0014284260494125893 -0.00029835712857478045 0.0
0.0005334947604797118 4.810499149917337e-5 0.0
0.000377017959967634 -0.00010368196298291906 0.0
0.0003796153287156484 -0.0001136592304177635 0.0
0.0009059002221371373 -0.00031974291884058736 0.0
0.002000915370844838 -0.00011660933804342112 0.0
0.0020439458149692376 -9.564850331630013e-5 0.0
0.0014216066022709867 -0.0003190203958139312 0.0
0.0014565551478541844 -0.0003050061019623866 0.0
0.00059816203231807 6.196791257942851e-5 0.0
0.000554918368352758 -0.0002369346930214821 0.0
0.000527339846507358 -0.00022246632467763286 0.0
0.0006512129114171556 -5.308889442592872e-6 0.0
0.0018524822520912042 5.289377380585283e-5 0.0
0.0009321218422390103 -0.0003308757036166534 0.0
0.0005361159997140906 6.817543251494017e-5 0.0
0.00048793140252699924 -2.499297348801193e-5 0.0
0.002023864056605393 -0.00011785415743837715 0.0
0.0020712596173933307 -9.230207888288892e-5 0.0
0.0020871811746919484 -7.638975343392978e-5 0.0
0.0004723412301193554 3.5260299177278035e-5 0.0
0.0019799457941132807 -0.00013807341263478886 0.0
0.00037177497094913225 -9.296084426374963e-5 0.0
0.0005800386111994611 -0.00025020141471573465 0.0
0.0016222911379254346 -2.3992616732214265e-5 0.0
0.0015729169011375298 -2.3381890516266873e-5 0.0
0.0014066603726447394 -0.00027265025327342235 0.0
0.0005314517312767229 -0.0002352525578366436 0.0
0.0005038674406498488 -0.0002202616010394468 0.0
0.000339185604957809 -9.888930406000552e-5 0.0
0.00034180438801665805 -0.00010796002328863677 0.0
0.0006234714070142234 -0.000216094549870361 0.0
0.0014492885418813735 -0.00032637242650683073 0.0
0.0014840321688763167 -0.00031150813926795307 0.0
0.000499660088834058 -0.00020789111343753587 0.0
0.0004759987377051744 -0.00020516505915251225 0.0
0.0014169943890458563 -0.0003389082743051694 0.0
0.000907182048966809 -0.0003347994610662354 0.0
0.00048085184199886865 -0.00021780524502398955 0.0
0.00045298387528381744 -0.000202218941471143 0.0
0.0009602508694202932 -0.0002703639599224047 0.0
0.0021155231337030246 -7.19045783752699e-5 0.0
0.0021303492103793968 -5.951154876539372e-5 0.0
0.002100044308829447 -8.795633374319929e-5 0.0
0.00147631555656105 -0.0003333594934573381 0.0
0.0015108336677911297 -0.0003177931936063128 0.0
0.0013765173520880573 -0.00026677950256816875 0.0
0.0014137961138249119 -0.0002542452444439544 0.0
0.00093271764175421 -0.0003462325578280142 0.0
0.0015192835068083752 -0.00029574742034710376 0.0
0.0015460583352580684 -0.00030165467365758555 0.0
0.0003021980682585187 -9.289741706301595e-5 0.0
0.0003065487369885062 -0.00010162259190915942 0.0
0.001537382769494045 -0.00032476792492655657 0.0
0.001571749038246165 -0.00030778837003099844 0.0
0.0004587535099047165 -0.00021522487771012035 0.0
0.0004307405881759724 -0.00019910752587991098 0.0
0.0016323696261635288 -8.299806467475808e-6 0.0
0.0015828558636968078 -7.395733826609612e-6 0.0
0.00042469118860163576 -0.00018679290987877746 0.0
0.0004022399266073417 -0.0001830271500779317 0.0
0.00040828753283542104 -0.0001955826349489757 0.0
0.000379807280406253 -0.00017899508850263305 0.0
0.0021435721613930767 -6.743482677934432e-5 0.0
0.0021278033943139293 -8.436091086138645e-5 0.0
0.0006018939631774932 8.392507552243492e-5 0.0
0.0005354514007823665 8.607516418747e-5 0.0
0.0015105140344811338 -5.297701394574284e-5 0.0
0.0009085408494845572 -0.00035024241741440476 0.0
0.0015627772224373398 -0.0003318698095564994 0.0
0.001596036970790518 -0.00031378879947617245 0.0
0.0017032098725883677 5.919505974084804e-5 0.0
0.001555365350136888 -0.00027938722098810095 0.0
0.0010696899828252628 -0.0003217737978955451 0.0
0.0003730084899350439 -0.00016710579705738268 0.0
0.0003510968906147808 -0.00016242275024047455 0.0
0.0003581530891731064 -0.00017488458780165312 0.0
0.0003291985022501748 -0.00015766118073651665 0.0
0.00032216420568607603 -0.00014607566420777357 0.0
0.00029945899882645254 -0.0001406349439350614 0.0
0.000292186738620376 -0.00012948742858805002 0.0
0.00026897102628317964 -0.00012330232895177125 0.0
0.0002617397597491012 -0.00011314642979969683 0.0
0.00023966260718216742 -0.00010681287085000218 0.0
0.00023209874505812153 -9.76603087458528e-5 0.0
0.00024644936575920947 -0.00011674237515146878 0.0
0.0002142801259719775 -9.783843215286505e-5 0.0
0.0002679568545260297 -8.645691342333187e-5 0.0
0.0002654167924314618 -7.876644389124308e-5 0.0
0.00022400898260101134 -0.00010979555306148413 0.0
0.0001944294184079493 -9.228676059014634e-5 0.0
0.0006639258636434483 7.49562894599922e-5 0.0
0.0006940951769871687 -0.00014934344383624694 0.0
0.0013831089689117955 -0.0002490954950011669 0.0
0.0014207207647262744 -0.0002366345430140298 0.0
0.00041878902788137183 -0.000127851511794843 0.0
0.000933385183064728 -0.0003620792033597709 0.0
0.000957773367016035 -0.00035774361579444337 0.0
0.0014520060774789658 -0.00024108110929589347 0.0
0.0014594515081541698 -0.00022336893913818879 0.0
0.0021713068053551433 -6.299500340098352e-5 0.0
0.002153612455255061 -8.13350364570133e-5 0.0
0.0021108533540644464 -0.00010630190534649125 0.0
0.0015233136113997619 -2.328179795742931e-5 0.0
0.001533249955388227 -7.515723235695463e-6 0.0
0.0008832319760661613 -0.00033840771186989847 0.0
0.0008848447355143404 -0.0003538453057578475 0.0
0.0008599368515409932 -0.00034176855683635074 0.0
0.0003374932709328308 -0.00017076277697653124 0.0
0.0015927836441762125 8.537399599002904e-6 0.0
0.0015435169271572375 8.85331560083759e-6 0.0
0.0006247089534380783 -0.00016220366720979819 0.0
0.0015861607947751514 -0.00033842773610359467 0.0
0.0016189318098771184 -0.00031941292501786063 0.0
0.001629734962882414 -0.00029551065432320035 0.0
0.0016518545874293798 -0.00030016944143778745 0.0
0.0006252163551076143 0.00010629751988188928 0.0
0.0005465261880114092 0.00010355332618945887 0.0
0.0008479570312949317 -0.00025734460413532543 0.0
0.0015543637418970477 -0.0003565185339764684 0.0
0.001973584025115882 5.065361799095753e-5 0.0
0.001640343115740184 -0.00032543003026800786 0.0
0.0016730738376209329 -0.00030533704430329436 0.0
0.001685146279980123 -0.00028040492180304817 0.0
0.0017065972207924792 -0.0002848180788735064 0.0
0.0017197041429286711 -0.0002599938665950585 0.0
0.001740706931176663 -0.00026375823859552843 0.0
0.0017273398063898787 -0.000289944472225353 0.0
0.0017610599439877768 -0.00026823257749984653 0.0
0.00020223876311410553 -0.00010207445876692527 0.0
0.0001731298972190389 -8.445350830551342e-5 0.0
0.00016184973077632526 -7.396401642810127e-5 0.0
0.000958376596716077 -0.0003740216177870308 0.0
0.0009818262249959326 -0.0003700425199909026 0.0
0.0008620010858175824 -0.00035722853922070017 0.0
0.0008371947999413334 -0.0003447618385582589 0.0
0.0021348654412882183 -0.00010506943431440823 0.0
0.0021776512547895593 -7.900269846443896e-5 0.0
0.001677737085401512 5.776736510123771e-5 0.0
0.0016357078027933326 5.971528984160352e-5 0.0
0.0004651789386021937 8.167847266476048e-5 0.0
0.00047654433969496446 9.54724646801926e-5 0.0
0.00023236971841966632 -0.00012159267068429506 0.0
0.0007951549909345836 -0.00021174202054595551 0.0
0.001491957966540282 -8.39604192292356e-5 0.0
0.002093795823002441 -0.0001319882856092907 0.0
0.0006362706901697994 -9.938019956384542e-5 0.0
0.001474254352998237 -2.4055932548839994e-5 0.0
0.0017468912444513472 -0.0002958112424748329 0.0
0.001780400508093301 -0.0002734856529549792 0.0
0.0017946542535829128 4.990574415011439e-5 0.0
0.0018797054259728314 4.5188461150217515e-5 0.0
0.0006292086445653689 0.00012587073189107068 0.0
0.00034402084838755644 -0.00011660102036210617 0.0
0.0002272635019901033 -7.113535964867819e-5 0.0
0.0002250615207004813 -6.402797970514932e-5 0.0
0.0003652948724260379 -0.00018833501117145222 0.0
0.0016629000141267986 -0.00033195073141983064 0.0
0.0013514696625842443 -0.00018283405821782614 0.0
0.0012092791295783343 -0.0003365301778701244 0.0
0.0007673060947792473 -0.00026265630597449975 0.0
0.0001808902172258408 -9.428542640583857e-5 0.0
0.00015242372297778598 -7.65268176521449e-5 0.0
0.00048654672823347176 -0.00023136791885733105 0.0
0.0014914716750724958 -0.00022718299868539283 0.0
0.001499371221025881 -0.00020952677845591553 0.0
0.0008857198892981157 -0.00036994719994283255 0.0
0.001834122010013501 4.033937431085657e-5 0.0
0.0019070386943434948 3.634402975166818e-5 0.0
0.0018643219909177148 3.0261261320847493e-5 0.0
0.0019350363014685997 2.6749176544408667e-5 0.0
0.001977532387531737 3.218334647204551e-5 0.0
0.0020048962842346215 2.323080086280639e-5 0.0
0.0019616494223410035 1.6736749035045798e-5 0.0
0.002029204064920297 1.409152231561428e-5 0.0
0.0019861158511241196 6.745026217351776e-6 0.0
0.0020523263988459772 5.282503953011282e-6 0.0
0.002010041510619041 -3.1247652985526215e-6 0.0
0.0020735044097401406 -2.977581971129948e-6 0.0
0.00203195127529391 -1.2418090739252302e-5 0.0
0.002093404182390942 -1.0564990818972471e-5 0.0
0.0019665904371059494 -1.4079415983402742e-5 0.0
0.0020524202041460353 -2.0849436992938353e-5 0.0
0.002110420655675027 -1.7653157291039e-5 0.0
0.002049634685580773 2.7459055922154995e-5 0.0
0.000470761834142271 -0.00019305135251988575 0.0
0.000465129536759988 -0.00022908112479350597 0.0
0.000491911623016133 -0.0002453833358047977 0.0
0.0020716236581551505 -2.8274270694167775e-5 0.0
0.0021269128193886194 -2.3589375806204814e-5 0.0
0.0020169755895133898 -3.245951078775371e-5 0.0
0.001235914312140792 -0.0003456833978836961 0.0
0.0012064947351978538 -0.0003542562888934154 0.0
0.001232700318184355 -0.0003639108533477317 0.0
0.0012043393021488504 -0.0003723597996387494 0.0
0.0012299164300191168 -0.0003824729741824048 0.0
0.0012028443051660391 -0.00039082883932398224 0.0
0.0011772807925166048 -0.0003804997893901151 0.0
0.001176421270745455 -0.000398733862990961 0.0
0.0011515134728824232 -0.00038814324365308585 0.0
0.0011533077649973943 -8.115245524692545e-7 0.0
0.0012277699130466126 -0.00040149000307265715 0.0
0.0012545583124436745 -0.00039275239764506966 0.0
0.0010520717574608704 -0.0001668155603902517 0.0
0.0010186172259904745 -0.00026055076444789677 0.0
0.0010488668721550228 -0.0002551435832280705 0.0
0.0010203634591101737 -0.000247451610104931 0.0
0.0010511668988373612 -0.00024203635937986452 0.0
0.0010223545002878275 -0.00023480309913706754 0.0
0.0010536773026323645 -0.00022939711457940366 0.0
0.001082635001300853 -0.0002361776820783951 0.0
0.001085634570878308 -0.00022353729189384058 0.0
0.0011147739389658984 -0.00022986850319192234 0.0
0.0011181746574545218 -0.00021721477164180912 0.0
0.001146181253948306 -0.00022308608480863087 0.0
0.001088972077011027 -0.0002109751443142768 0.0
0.0010246025156330006 -0.00022258766141727824 0.0
0.0009932031686315337 -0.00022758379425782081 0.0
0.0011424451405282533 -0.00023641870722580232 0.0
0.0011756443374960172 -0.0002283550977917991 0.0
0.0004714673552235761 -0.00024347941136054004 0.0
0.0011047037198214894 -0.00012026298992751138 0.0
0.0011453298249186471 -4.923811823176771e-5 0.0
0.0012189043582586485 -0.00028584539672735866 0.0
0.0021859420113849518 -5.039861489345118e-5 0.0
0.0022128988158842027 -4.573326682924757e-5 0.0
0.001234113336654807 -5.6334974815227765e-5 0.0
0.0012114247749839726 -8.147797975427014e-5 0.0
0.001697371030934796 -0.0002566929942834282 0.0
0.0014697162841015585 -0.00015111701006214305 0.0
0.002159733813149753 -0.00010272222487281371 0.0
0.002200837752693299 -7.670180792162952e-5 0.0
0.0011915133946069222 -0.00011856954564193606 0.0
0.0008395972413287286 -0.0003603262482323205 0.0
0.0008149313959615167 -0.00034752319252499126 0.0
0.0012649246217192845 -2.9444692105518744e-5 0.0
0.0011507375528236018 -0.0004062436317851451 0.0
0.0011257374428774614 -0.0003946370678996031 0.0
0.0008125681621067784 -0.00033228450494829647 0.0
0.0007900889043845169 -0.00033470530659473997 0.0
0.0007876306985728287 -0.00031975616634870074 0.0
0.0007650197764118011 -0.00032180016796105117 0.0
0.0007680045801475935 -0.000336933511191971 0.0
0.0007430029747781102 -0.00032366177010774764 0.0
0.000746277850041931 -0.00033893053578519294 0.0
0.0007212886959381663 -0.00032531673018779535 0.0
0.0003460225998987644 -0.00018489283950890473 0.0
0.0022260704518650724 -3.661038628583791e-5 0.0
0.0016011906318701447 2.3729666586048192e-5 0.0
0.001551077956051337 2.4414530824980814e-5 0.0
0.0007071363683916268 -0.00020521280836652183 0.0
0.0005751577531597053 -0.0002143632845322447 0.0
0.002147969386493037 -9.636274665930529e-6 0.0
0.0021174294416711832 3.3972877774663726e-6 0.0
0.0009819870709217727 -0.0003864010613593258 0.0
0.0010060528991483711 -0.00038193174515085715 0.0
0.0015764894460478928 -0.0003634540121357384 0.0
0.0003170013959052827 -0.00013547985033326721 0.0
0.0013359016679767863 -0.00014391734276691131 0.0
0.0014948201921726005 8.017611744947652e-6 0.0
0.0015025906478962976 2.3616116726048747e-5 0.0
0.0017334943543473426 -0.00023653892125701588 0.0
0.0017979408528061257 -0.00011594832065256138 0.0
0.001795305068946151 -0.0002465595987405345 0.0
0.0018152893100056833 -0.0002505850250203915 0.0
0.0017990535417005155 -0.00027971927087428887 0.0
0.0018346735148227734 -0.00025586598014311546 0.0
0.001038984017319453 -0.0001446838045397759 0.0
0.00037234284661629644 -0.00020246154445384068 0.0
0.0011481432387193717 -0.00021015851019780715 0.0
0.0019193848379395315 7.398507932585619e-6 0.0
0.0009865714606173276 -0.0003543821390440067 0.0
0.0004969881374280052 -0.00025977878343626275 0.0
0.0005174819859554092 -0.0002615230955738754 0.0
0.001546240837658988 -0.0003812694584596288 0.0
0.0007621500797433201 -0.000307237001450891 0.0
0.0013895418467652874 -0.00023219502177457572 0.0
0.0013524633001131363 -0.00024386763726891192 0.0
0.0021829327889359633 -0.00010102733155586983 0.0
0.0022244184063177504 -7.368109510942399e-5 0.0
0.002240791483162033 -5.4272812831510295e-5 0.0
0.000707290014700388 0.00012959115205852685 0.0
0.0001602119753647997 -8.602381004448642e-5 0.0
0.00013193064883831946 -6.781418861183451e-5 0.0
0.00012722205201084487 -6.13288491937266e-5 0.0
0.0016135334187088299 5.415725357677986e-5 0.0
0.0016536052205392124 4.740802136134662e-5 0.0
0.0015741548645543 5.829331423021618e-5 0.0
0.001682390751023591 -9.877548442001581e-6 0.0
0.0020899751373516123 -3.401018078416392e-5 0.0
0.002144398737686495 -2.7834346284963637e-5 0.0
0.000817715502175651 -0.00036321975368627265 0.0
0.0016389202466047018 -6.941833475570882e-5 0.0
0.00039442474127656096 7.25240275889037e-5 0.0
0.0004026432463749726 8.169909598488473e-5 0.0
0.0004925857602863326 0.00010730775821493361 0.0
0.00041105983745976806 8.759738924226705e-5 0.0
0.000539211427258614 0.0001244661376852203 0.0
0.0011241037946358252 -0.00037635188218046857 0.0
0.000717522507568862 -0.00031039823069246365 0.0
0.0006963750824212372 -0.00031174864154448717 0.0
0.0007001406802390236 -0.0003267800359718333 0.0
0.000675481552314675 -0.00031292280299702096 0.0
0.0018504166596768807 -0.0002277208955292532 0.0
0.0018699368982720837 -0.00023245221154282199 0.0
0.0018543390803143415 -0.00026223425433868355 0.0
0.0018890664297568885 -0.00023818492938371564 0.0
0.0014665350657202543 -0.0002062571295396944 0.0
0.0015070433979598717 -0.00019274891315683402 0.0
0.001252409242717378 -0.0004121805671636559 0.0
0.001278705124717311 -0.0004031136675735763 0.0
0.000995334605421088 -0.00021565775319588474 0.0
0.0009637826796505332 -0.00022028968512091538 0.0
0.000955938117305457 -0.0003910856989905764 0.0
0.0006793707930673414 -0.0003278154416875732 0.0
0.0006551821693303472 -0.0003138457543511489 0.0
0.002069796025057007 -0.00013260769075771066 0.0
0.002052950530739086 -0.00015998717754656556 0.0
0.00203025885904188 -0.00015962769371647933 0.0
0.0020174247401904804 -0.00018585519825275402 0.0
0.0010060801296209554 -0.00039979800329591837 0.0
0.0001864032112603265 -0.00010420401169395952 0.0
0.00025615537767700777 -0.00010447769708814743 0.0
0.00022306203226023734 -8.860359681220955e-5 0.0
0.00018538401343488474 -5.593585860639086e-5 0.0
0.0001807744807288496 -4.9036649953646746e-5 0.0
0.00022312358867665447 -5.620760600604308e-5 0.0
0.00017694418294394496 -4.1633449255232014e-5 0.0
0.00022101128837356758 -4.7301088884056345e-5 0.0
0.00017317478453866548 -3.343781570349424e-5 0.0
0.00021956940237976663 -3.724761403175429e-5 0.0
0.0020763407575721195 -0.00016041473832558863 0.0
0.0006707355159174138 -0.0002983810535124765 0.0
0.0017098884301859798 -0.00023460597710850008 0.0
0.0015234469230549234 -0.00037280454944082776 0.0
0.001516761430889729 -0.00039801829258028664 0.0
0.0014940124906854886 -0.00038912630418610935 0.0
0.0011256485147114672 -0.00041308531703792965 0.0
0.0016405011792293873 2.019099330823192e-5 0.0
0.001873683050460394 -0.000269651728126394 0.0
0.002264949491552737 -4.9874628517443586e-5 0.0
0.0022476105228112267 -6.985515053282751e-5 0.0
0.0007119192384534459 0.00014706986581941388 0.0
0.0015948039695487634 3.578057666277612e-5 0.0
0.0011906422230577196 -0.00027844236239706635 0.0
0.0012221625884560057 -0.00027013546307670997 0.0
0.0011767146258373975 -0.0004177040912674979 0.0
0.0011008606794354104 -0.0004011116373207494 0.0
0.0005065021287927665 -0.00013792437944777717 0.0
0.0021794317841042337 -1.9079290324453e-5 0.0
0.0021959373378437033 -2.1884818789039112e-5 0.0
0.0021599319420781225 -3.0976821355845584e-5 0.0
0.002209777714439485 -2.4098023737394132e-5 0.0
0.0017947945734264309 -0.00016843824166898544 0.0
0.0013231995917428099 -0.0003358541108689502 0.0
0.0013583761471390983 -0.00022770508745554246 0.0
0.000987398410253818 -0.0003075117172281618 0.0
0.0014477599247760882 -0.00012241445798484137 0.0
0.0015318133229631186 -0.00021285029195795607 0.0
0.001528150654034292 -0.000274908683921813 0.0
0.0015651178869176773 -0.0002585566013759596 0.0
0.0015917467345229323 3.6595913191039915e-5 0.0
0.0016406847786238513 2.7480265018492545e-5 0.0
0.0005220960168175761 -0.0002760544034928443 0.0
0.0005416261983614846 -0.00027720008000603426 0.0
0.00016979485908323434 -2.437088430301764e-5 0.0
0.0002165616948830086 -2.595085277417159e-5 0.0
0.0002680505524020916 -3.9646869338651826e-5 0.0
0.0002669826434710506 -2.5936456884663275e-5 0.0
0.00021521632956531184 -1.410302881004988e-5 0.0
0.0002683197439830859 -1.1496699500149328e-5 0.0
0.00021569157262644927 -2.2022729023927635e-6 0.0
0.0002722628726305119 3.292924201794191e-6 0.0
0.0002175564770040645 9.209082687659275e-6 0.0
0.00013999038039900526 -7.738971079733698e-5 0.0
0.0013217479103534476 -0.00023859175396627984 0.0
0.00011220893355131448 -5.9068509858846445e-5 0.0
0.0004775636184093822 -0.00025827320490764375 0.0
0.0022539467031597654 -3.170905388241062e-5 0.0
0.001077062818444158 -0.0002628852371233917 0.0
0.0014486800535131223 5.95438814591566e-6 0.0
0.0014599570402645974 2.3302765174428117e-5 0.0
0.00027715788120003833 1.7774435057719772e-5 0.0
0.0003541053147758082 -0.00019969662941915644 0.0
0.0003280593935716995 -0.0001817270243084867 0.0
0.0007044051947007812 -0.00034470866598413545 0.0
0.0015646256342373417 -0.0003898197787014823 0.0
0.0008419528293580477 -0.00037638200048696884 0.0
0.0019081773766412118 -0.00024463203362924907 0.0
0.002280118168599663 -3.571872543802298e-5 0.0
0.0009619965156524216 -0.0002322749245481618 0.0
0.0009327207618895143 -0.00022450367734462427 0.0
0.0009311925796350252 -0.00023657411014088163 0.0
0.0007818355003588269 0.00014764295937762893 0.0
0.0009036689422717954 -0.00022837478306700034 0.0
0.00019325744656014526 -6.345139003009673e-5 0.0
0.001276441891753343 -0.0004231406765978122 0.0
0.001302811176449689 -0.0004137174791888539 0.0
0.0013055696060074353 -0.0003935329626866672 0.0
0.0013295081462381334 -0.0004037749865490012 0.0
0.0015926642920681103 -0.000262639435152312 0.0
0.0016033263774747758 -0.00024152617462182058 0.0
0.0022647560381111867 -2.5524507011933405e-5 0.0
0.0022363449103456716 -3.0180159973721426e-5 0.0
0.0015190582734557782 4.112407960728636e-5 0.0
0.001470273651385124 4.1131020923198696e-5 0.0
0.0004524819750683732 -0.00024176959698316342 0.0
0.0006592907760997284 -0.00032875627893124733 0.0
0.000635539606269454 -0.00031462162719999263 0.0
0.0011407993463492204 -0.00015962775505444157 0.0
0.0018402444760192932 -0.0002941764555222739 0.0
0.00022197218863672874 1.9624012964228416e-5 0.0
0.0006308133731636066 -0.00029967693611985857 0.0
0.0013265957101561863 -0.00042456415679672724 0.0
0.0013530301201184476 -0.0004142138780527055 0.0
0.0013267563949206848 -0.00022345858556259174 0.0
0.0012910933463294555 -0.0002332559121281085 0.0
0.0012957208807520349 -0.00021879654583948643 0.0
0.0012116770047974294 -0.00013632068077732573 0.0
0.00019577386519303464 -8.044752009989062e-5 0.0
0.00012017941800320459 -6.850346241217244e-5 0.0
0.0013332176129237272 -0.00038331245262854133 0.0
0.0013850262325300737 -0.00018653436106484287 0.0
0.0011012222786817392 -0.0004196762258414201 0.0
0.0004583607115895208 -9.930620567740676e-5 0.0
0.0008018139402030411 -0.00016882847695507493 0.0
0.0003794918863462648 -0.00021798409644373918 0.0
0.0019240880894890752 -0.0002145285887428805 0.0
0.0004965724194089887 -0.00019627753183330685 0.0
0.00046594335352072465 -0.00018141175187348267 0.0
0.000494223631383191 -0.0001850076069203333 0.0
0.0004623819719511192 -0.00017037974947568227 0.0
0.0004916568053640871 -0.00017402599519392395 0.0
0.0004337547331040441 -0.00016630714984465337 0.0
0.0014882114139072495 -0.0004139173692702512 0.0
0.001466983901068778 -0.00040450907799639493 0.0
0.0003168126349009859 5.768936713977216e-5 0.0
0.0011265544099306648 -0.00043178671629594636 0.0
0.001096234475107016 -0.00033142397647346346 0.0
0.0010685242960488564 -0.00033751519854898865 0.0
0.000546555937896767 -0.00029208509743461006 0.0
0.00015009033256864447 -4.7630649955437855e-5 0.0
0.0001609592518046559 -5.573714305366854e-5 0.0
0.002099694201409544 -6.475199678309403e-5 0.0
0.002143170886605199 -4.9940239943888834e-5 0.0
0.00031947598661097824 -4.030258838662518e-5 0.0
0.0005656966278876674 -0.0002925928023019867 0.0
0.0005622523047276223 -0.00027900461409246775 0.0
0.000570585330951201 -0.0003077356348919506 0.0
0.0005278174633459344 -0.0002913501530334687 0.0
0.00043892307672121095 9.637769306053416e-5 0.0
0.0008579441442217452 -0.0003268226680064662 0.0
0.001316354780831574 -0.0002548017822344835 0.0
0.0021100713637754254 -5.5208056013094564e-5 0.0
0.0012507148148075558 -0.00043217950514699323 0.0
0.0008201831072655865 -0.0003793886772849344 0.0
0.0022868838701307916 -4.5673885090104894e-5 0.0
0.0022692962438642713 -6.637353402409642e-5 0.0
0.0007827629596851585 0.00012808602828344876 0.0
0.0006403936538662957 -0.0003299701143338881 0.0
0.0014733602065034792 -0.00018933177783491594 0.0
0.00151717781211105 -0.00017585080014602023 0.0
0.0002507583462480937 -9.629854970295063e-5 0.0
0.0003363763553164406 -0.00019673779822991256 0.0
0.0003109941099524398 -0.00017877242503751736 0.0
0.00030220591054578346 -0.00016430299587939852 0.0
0.00045889773945799765 -0.0002568332293247339 0.0
9.281924444947502e-5 -5.005290464649323e-5 0.0
8.663394321210207e-5 -4.34864388415881e-5 0.0
0.0013499067510238532 -0.00043560973099073127 0.0
0.0013759601838597198 -0.00042490032146344926 0.0
0.001378733908804429 -0.000402084788412717 0.0
0.0018862599854477253 -0.00020499388792986247 0.0
0.0018659526135867157 -0.00020182575125176854 0.0
0.0018587996894961383 -0.0003035497599542951 0.0
0.00042970768859238264 -0.00015570540658110772 0.0
0.0004016804523993084 -0.0001516317365101988 0.0
0.001550190946939945 -0.00017859387570738145 0.0
0.0022436673419219543 -1.652299369464916e-5 0.0
0.002256149643538086 -1.7888221142272123e-5 0.0
0.002270642702033924 -2.167296051580911e-5 0.0
0.0022224710052719285 -0.00010144264313580002 0.0
0.0001478431054627242 -8.868161302301291e-5 0.0
0.0014639885663236675 -3.7586359161424975e-5 0.0
0.001419104544553357 -3.8857822547579376e-5 0.0
0.001408974073741205 -5.068000925379201e-5 0.0
0.0013666293921610806 -5.220765036563651e-5 0.0
0.0013591269091945662 -6.310511485034298e-5 0.0
0.0013729590287791496 -4.177859929139851e-5 0.0
0.0011939206436685403 -0.0002632897716515974 0.0
0.0009657540615738633 -0.00020875821112815738 0.0
0.0009978153591757232 -0.00020412630909861002 0.0
0.0003193119283030559 -0.00019389075997846707 0.0
0.0002940965592009908 -0.0001753996619725038 0.0
0.0020197548768097597 3.5450847664067107e-5 0.0
0.002094613781492786 2.9754316478458183e-5 0.0
0.002124689195427966 2.1660660062684468e-5 0.0
0.002169759737585273 2.307688428190577e-5 0.0
0.0021505170136884126 2.9655214587323157e-5 0.0
0.0010776053257094667 -0.00040798848979593756 0.0
0.0010769761343736436 -0.00039060033759306554 0.0
0.0010774790338283645 -0.0004260673683807515 0.0
0.0014036483889067995 2.5762588278404503e-6 0.0
0.0013925040797093686 -1.1680055190608455e-5 0.0
0.00032196684563049854 -5.475030922846645e-5 0.0
0.00016122563139345158 1.0406866645278268e-5 0.0
0.0014607938167581686 -0.00042843223951593624 0.0
0.0003868748678183931 6.20174890718983e-5 0.0
0.001483206073496012 -0.00024551235801807366 0.0
0.001407337276314744 -6.151423856436242e-5 0.0
0.0013520900322542735 -7.387925011582878e-5 0.0
0.0013914491589111675 -7.434691611345701e-5 0.0
0.0013449739983030296 -8.459446081808907e-5 0.0
0.0013822212199241085 -8.561086277899873e-5 0.0
0.0013381096597944906 -9.549345050272706e-5 0.0
0.0013743347288449376 -9.693086182606454e-5 0.0
0.0013315280055497558 -0.00010671794381028745 0.0
0.0013684244200120258 -0.00010837451482936827 0.0
0.0013059010120724272 -8.382298238294139e-5 0.0
0.0012954642279040338 -0.0001050015629536141 0.0
0.001509810937817177 -0.00042312932595852304 0.0
0.0022990472798185206 -1.9497912285151576e-5 0.0
0.0007855783096467843 -0.000305420790025455 0.0
0.0007591305726876037 -0.0002934978952598644 0.0
0.0021414010757402754 -0.00013061502701165829 0.0
0.0009064799234917403 -0.0002183563914788993 0.0
0.0013195007633687464 -6.349136451904015e-5 0.0
0.000561812893662498 0.00013468884364706195 0.0
0.00013671163557349647 -3.5043606728616705e-5 0.0
0.0008597005982822693 0.00014455567360414226 0.0
0.0008515794966129775 0.00012200685720218837 0.0
0.0017606884869956379 4.2149998326004336e-5 0.0
0.002164017379514391 -0.00012983954020993888 0.0
0.002124687728358114 -0.00016109409324606763 0.0
0.0009014732295543724 -0.00024037028806207287 0.0
0.0008768227293621712 -0.00023024252357900564 0.0
0.0003966019388049298 -0.00020873540758489865 0.0
0.00010071570022549982 -5.921439270615094e-5 0.0
0.00011492505023137687 -3.816316862943556e-5 0.0
0.00012043622582566199 -4.3061135798634775e-5 0.0
7.356604765454653e-5 -4.067815929629834e-5 0.0
0.001574484631756378 -0.00023849094158618728 0.0
0.001613756464354777 -0.0002218501833605112 0.0
0.0016429932002246697 -0.0002243493770979048 0.0
0.0016533551960691095 -0.00020469360755343303 0.0
0.0012899674893556293 -0.00011556682245919681 0.0
0.0006544487869406707 0.00015938934099250324 0.0
0.0008021877645334923 0.00016422086161867262 0.0
0.0012606171154184993 -0.00022785110148999433 0.0
0.001265506712904166 -0.00021370306628136433 0.0
0.000968619391172804 -0.00019806721861088448 0.0
0.0008292786528310847 -0.0001980144275264171 0.0
0.0008444471768470191 -0.0003928457347949238 0.0
0.0017148775196471188 -0.00031768338677360324 0.0
0.0017334429956540678 -0.00032492914168547304 0.0
0.0017032321229283021 -0.0003466135413367353 0.0
0.001721197817927948 -0.0003553385520548749 0.0
0.00169241787098135 -0.0003764681702820534 0.0
0.0016743142383587486 -0.00036774085063884503 0.0
0.0016273619412569885 -0.00035602626766874216 0.0
0.0014697561470377884 -0.0003796622659810076 0.0
0.001596204109726116 5.829554705701846e-5 0.0
0.001180159966804206 -0.00034480181082452844 0.0
0.0003271344629227801 -6.671441690890571e-6 0.0
0.002249283580097988 -9.311151339988846e-5 0.0
0.0022892166721109925 -6.2444724922966e-5 0.0
0.0017512079648978273 -0.00033322814962856104 0.0
0.0017399250811285325 -0.0003648347028160563 0.0
0.001768786511970533 -0.0003431294409860244 0.0
0.0008654712071282343 -0.00038963806380407773 0.0
0.0010422938515297615 -0.00032756955341703295 0.0
0.0010421187981733198 -0.00034294848130402846 0.0
0.0010676892650779953 -0.0003536279107706759 0.0
0.0007129351582002098 -0.00025466082316916725 0.0
0.0010159702421503524 -0.0003326456528625368 0.0
0.0013092401982259417 -0.00037416448377029733 0.0
0.0019037876074565908 -0.00017919070575571347 0.0
0.0019429536965885395 -0.0002197881935530331 0.0
0.0019267839705774646 -0.0002522038969334687 0.0
0.001964274524998808 -0.00018776124060439483 0.0
0.0002725314567750428 -6.277097695221698e-5 0.0
0.0007712179879355885 -0.00035255233429552514 0.0
0.0007501180885699816 -0.0003547348737293442 0.0
0.0007743338952187058 -0.0003684732330207936 0.0
0.000754297486389869 -0.0003707777603453965 0.0
0.001682291382897941 -0.00020630410317969296 0.0
0.00048404634461774403 -0.00027372650803948094 0.0
0.0004351601495800874 -0.00024047133012315824 0.0
0.0022214967594814247 -2.599959550498553e-5 0.0
0.00012597511157951986 -2.1330566052840913e-5 0.0
0.00012319745262485512 -1.422828153825854e-5 0.0
0.0014380781630542656 -0.00041544341393379505 0.0
0.0014365801051429324 -0.0004412588677132404 0.0
0.001162036829867035 -0.00027110711087158847 0.0
0.0021993730572418824 1.566596465980987e-5 0.0
0.0004412408096089265 -0.0002554551563909466 0.0
0.0017859635992341675 5.118450101434916e-6 0.0
0.00204421868349204 -0.0001337323068701653 0.0
0.002094300433208804 3.61813895036201e-5 0.0
0.0021151171830574825 3.894601981700264e-5 0.0
0.001624129751964082 -0.00020326955471850478 0.0
0.0017477630172867034 -0.0002149094253558086 0.0
0.0017711092128038597 -0.00021605215713648286 0.0
0.0015982748590546935 8.318111497035834e-6 0.0
0.0016454837344468893 -1.497484217549042e-6 0.0
0.0016892583676988665 2.1155337551064574e-5 0.0
0.0013236169231578485 -0.00044577752863477616 0.0
0.0006624493719176405 -0.00034377754745901695 0.0
0.0009902067456382976 -0.0002525900346230074 0.0
0.00143306041504615 -0.00020330260835319506 0.0
0.001249594286766208 -0.00027655916558045983 0.0
0.001274411546747694 -0.00044374480559787897 0.0
0.0005888053916500706 -0.00030771135633705113 0.0
0.0007360255168898882 -0.0002946431207594026 0.0
0.00031162460557533286 -0.0001106645485881122 0.0
0.0022323542055151086 1.627724042642357e-5 0.0
0.0016740866828953698 -0.000254334666022694 0.0
0.00021643620222605846 -8.109539080904487e-5 0.0
0.0006767904833645116 0.00017309618965074105 0.0
0.0012617778105866318 -0.00035502591545606856 0.0
0.0016641767001977796 -0.00039705581076695243 0.0
0.00164512743974589 -0.0003881910503154122 0.0
0.001464466439660699 -0.0002843010375197168 0.0
0.0015580613733973073 -0.00016243807869626814 0.0
0.0006777002098391151 -0.00021671079370459058 0.0
0.0010417758653184046 -0.0003615236445078479 0.0
0.0014231935636431136 -0.00017604844641728868 0.0
0.0007328031639776233 -0.0002811758328951251 0.0
0.0007093133289560184 -0.0002818398242252523 0.0
0.0005936315927781395 -0.00032309022106680033 0.0
0.00037305029118143735 -5.609246592389769e-5 0.0
0.00037358147713868387 -4.035059180529176e-5 0.0
0.00016660084171653527 1.73058551961714e-5 0.0
0.00023248230238375812 2.9471529375071668e-5 0.0
0.0018270660636534 -0.00032787328132127857 0.0
0.0002835544569618632 -0.0001117795376782465 0.0
0.00040622432956356806 -0.0001622450155120854 0.0
0.00037410786219910957 -0.00014699076642208931 0.0
0.0019420454230958378 -0.00018599675812432174 0.0
0.0009597513914926563 -0.0003268559391610785 0.0
0.0012255680753031858 -0.0002543104919519597 0.0
0.0015330289678164748 5.78800703373476e-5 0.0
0.0015212865387243695 5.4946275312178544e-5 0.0
0.0014826313460079802 5.5725331373400046e-5 0.0
0.001474700605977606 4.805348474086665e-5 0.0
0.0015114828606652036 4.100312038423987e-5 0.0
0.001694333394353409 6.290639570499203e-6 0.0
0.0017422161591906867 2.2903074343042784e-6 0.0
0.001755956980078293 1.6550995767285694e-5 0.0
0.0018004469519664885 1.1500092796432307e-5 0.0
0.0017872703426065192 -2.73096218082455e-6 0.0
0.00010817171554507717 -3.292437039704248e-5 0.0
0.0016940655535997726 -0.00018755168195055516 0.0
0.0003133059436987941 6.141688429406469e-5 0.0
0.00034510377989175895 7.017142884826e-5 0.0
0.0013725998610045296 -0.00044661828061654717 0.0
7.947652923458115e-5 -1.094445049523653e-5 0.0
0.0018749969271194638 -9.905094900822003e-5 0.0
0.0019219773691703122 -8.283568686068217e-5 0.0
0.0018894237962247466 -8.22042028038517e-5 0.0
0.0019585482410282677 -8.068122779764819e-5 0.0
0.0019697665893146483 -6.73661819726931e-5 0.0
0.0020070691036882878 -6.547621282908582e-5 0.0
0.0005240500334834054 -0.00018806674416492133 0.0
0.0005230535247190642 -0.00017741300158998513 0.0
0.0004889356362774789 -0.00016328600980403842 0.0
0.0005216690475860808 -0.00016695602349481317 0.0
0.0005558976195461788 -0.00018046151310586547 0.0
0.0005551672588324652 -0.00016993490238200235 0.0
0.0005888866821390477 -0.00018275066221012243 0.0
0.0006452598259342993 -0.0003447921713164328 0.0
0.0005886619434506733 -0.00017188277248843286 0.0
0.000622178199002025 -0.0001844266659533331 0.0
0.00016371581554711594 -5.951411172252448e-6 0.0
0.0003734787838604109 -7.025453984456331e-5 0.0
0.0006210100451325782 -0.00019498612807547378 0.0
0.0004901687460289333 -0.00015423790213894178 0.0
0.0018822310423995488 -0.0001779214052466958 0.0
0.0018453284762120473 -0.00019998697653635488 0.0
0.0010547388928443546 -0.0004148676814943311 0.0
0.00105438662471018 -0.0004323357171926036 0.0
0.001438313145421468 5.170013622509883e-5 0.0
0.0007880797005884137 0.00010516425806184794 0.0
0.0008523523289272534 9.631536791950874e-5 0.0
0.0009116097914742522 0.00011112878256671892 0.0
0.0009126811760663536 8.255128594185338e-5 0.0
0.0008574391629888933 6.820603429757654e-5 0.0
0.000917059064184963 4.964803522560716e-5 0.0
0.0008648345103457522 3.84496189714952e-5 0.0
0.0009243852085295635 1.7674005269702145e-5 0.0
0.0008725802377749126 1.0620001628448515e-5 0.0
0.0009401961728526978 -1.014969648764817e-5 0.0
0.0008786543848720961 -1.3109625611879978e-5 0.0
0.0009338268633001185 -2.992821514233748e-5 0.0
0.0008811454954727661 -3.2681480288561276e-5 0.0
0.000933435988068512 -4.668487698948137e-5 0.0
0.0008855065281143034 -5.008764772598132e-5 0.0
0.0009340859926385401 -6.139533544059416e-5 0.0
0.000887082260643113 -6.467862121426303e-5 0.0
0.000931973849323198 -7.389700329699107e-5 0.0
0.0008876152737980167 -7.733074042583002e-5 0.0
0.0009302068618013444 -8.507434475932732e-5 0.0
0.0008871870041233795 -8.886011494358396e-5 0.0
0.0009277388167680422 -9.565683474084343e-5 0.0
0.0008851708676630427 -9.962640249559105e-5 0.0
0.0009250804089560571 -0.00010553493423795116 0.0
0.0008830385099315599 -0.00011020479233628255 0.0
0.0008427945450468049 -0.00010307334328650088 0.0
0.000841339139182511 -0.00011411945980720473 0.0
0.000925149393647855 -0.00011622297471535467 0.0
0.0008436067327327162 -6.764834943307744e-5 0.0
0.0009663709269854772 -0.00010032838202790134 0.0
0.000976670564245389 -8.138984926873488e-5 0.0
0.0008157692566426717 2.8640669865686368e-5 0.0
0.0009809123883844717 -5.7491051305754176e-5 0.0
0.0008000725098814237 -0.00010614472283231888 0.0
0.000799897748205819 -0.00011740600160408298 0.0
0.0008400440655467357 -0.00012499622719817002 0.0
0.0007997125870604319 -0.00012839456646192003 0.0
0.0008330853849357249 -3.6079469487560676e-5 0.0
0.0009906095427030931 -2.9923293120943822e-5 0.0
0.0008009991536330184 -9.435146220376574e-5 0.0
0.000978293963977838 2.6125916990650186e-5 0.0
0.0008390967702048272 -0.00013563648796992465 0.0
0.0007994059835399853 -0.00013916420254149245 0.0
0.0007599093928370483 -0.00013122172599851296 0.0
0.0007564083616274492 -9.707568865110859e-5 0.0
0.0007549917593209133 -8.354765000830753e-5 0.0
0.0008792020070020522 -0.0001314381306425022 0.0
0.0008769545312362758 -0.00014186319767346225 0.0
0.0009157606492941116 -0.00013731379501622236 0.0
0.0009703843420297021 9.369598774258471e-5 0.0
0.0009755564773683834 0.00011672528983916468 0.0
0.0007614203050422831 -0.0001422423763772571 0.0
0.0007208744584330692 -0.00013362838833783363 0.0
0.0007199578455974088 -0.00012264083947298508 0.0
0.0006785581492418658 -0.00012414764187324075 0.0
0.0012494549524258102 -0.00045248220867944014 0.0
0.0012261033133506953 -0.000440803025114172 0.0
0.0021465531279392575 -0.0001608244782505017 0.0
0.0013373867697159141 -0.0003633474358524549 0.0
0.0013617968145865236 -0.0003724872786499132 0.0
0.0007796614515454836 -0.00029106010716487674 0.0
0.0008063582368936836 -0.00030248142965260246 0.0
0.001924876124585424 4.789518058592651e-5 0.0
0.0013638092249629648 -0.0002120168773483391 0.0
0.0008002838706450378 -0.00014959455817628668 0.0
0.0006087626347676546 -0.0002994852929825272 0.0
0.0006062511938617102 -0.0002855301084628868 0.0
0.0006264474465634802 -0.0002855218617543223 0.0
0.0015239099729885256 -0.000160179786778188 0.0
0.0014240756773556743 -7.648343307854913e-5 0.0
0.0009306651175189519 -0.0002490313417786859 0.0
0.0009017237139108861 -0.0002529642088377113 0.0
0.0013477373937044034 -1.540103663489209e-5 0.0
0.0013392648159791572 -2.6534244897984894e-5 0.0
0.0013778925728669892 -2.3965528946873533e-5 0.0
0.0013270553807457218 -3.807989828970177e-5 0.0
0.0013590015706805222 -2.4907789118800115e-6 0.0
0.0014104651420234855 -9.879227804291604e-5 0.0
0.0014053416866308891 -0.00011028232650787991 0.0
0.0013592883309645298 -0.00012014032093184914 0.0
0.0010009282762564527 -0.00019325800923954142 0.0
0.0010304395043162378 -0.00019905586230242777 0.0
0.0010340552322382981 -0.00018840940764227725 0.0
0.0010631664831407582 -0.00019353660285592836 0.0
0.0010668894890625853 -0.0001829838153281916 0.0
0.0010960071033790455 -0.0001877026047597902 0.0
0.001100057613696423 -0.0001772132790792575 0.0
0.0011305443007215384 -0.00018138593330410173 0.0
0.0011256258880246199 -0.00019258974702918825 0.0
0.0011612659468405318 -0.00018431264446665472 0.0
0.001302225055471403 -0.00020522538739730603 0.0
0.0012703883612222775 -0.00020049292978328094 0.0
0.001235180020166764 -0.000208863126762639 0.0
0.0012394813115097004 -0.00019616392622193168 0.0
0.0002453253889223729 -8.861989195877397e-5 0.0
0.0003031890363102917 -0.0001910240431308126 0.0
0.00027822424125288294 -0.000172024068822455 0.0
0.000269364606779639 -0.00015656435850641188 0.0
0.0002526157684501138 -0.00015236681572461134 0.0
0.001165041106492817 -0.0002565538205698324 0.0
0.0015920890630542832 -0.0001639140396771415 0.0
0.0015807186642796498 -0.0001814003094867669 0.0
0.0006394389292483254 0.00014094222197783872 0.0
0.001256100521673386 -0.00011372525541017692 0.0
0.0012600225807786881 -0.00010461026086237124 0.0
0.0013681750099234758 3.8355280731700325e-5 0.0
0.0022592365978120494 -3.8328827097529954e-5 0.0
0.0022941630147806295 -2.5982922697598505e-5 0.0
0.0023176676294249304 -2.1654120115421823e-5 0.0
8.35156299176983e-5 -2.8824148959141277e-5 0.0
8.694380994681076e-5 -3.196775494974042e-5 0.0
0.00012241348418904577 -4.651827485841257e-5 0.0
9.25756965524452e-5 -3.6010410080904525e-5 0.0
0.00012582385592513226 -5.068662734546699e-5 0.0
9.657466780809985e-5 -3.9804291555471145e-5 0.0
6.0253888962209794e-5 -2.3966964191684553e-5 0.0
0.0011334044374483013 -0.00026388369269441276 0.0
0.0005563004014129889 -0.00015992463759547545 0.0
0.0003453545556367643 -0.00021246265106976788 0.0
0.0009124046453839671 -0.0001469710810084862 0.0
0.0021148082252889543 -0.00018926176705768547 0.0
0.0020910445756862103 -0.0001947204048354403 0.0
0.0017858166984115638 -0.00019462986848503422 0.0
0.0018172078232666605 -0.00019136949066095652 0.0
0.0018291864372174298 -0.00017015512180153274 0.0
0.00010551580201395783 8.151483996099697e-6 0.0
0.0008240109738374316 -0.0003959302421763873 0.0
0.0005762595374435581 -0.0003235907422016215 0.0
8.167549119254337e-5 -4.979437768831238e-5 0.0
0.0001109083260597821 -7.288616251138538e-5 0.0
0.00045624511473457463 -0.00015019304930662147 0.0
0.0014742947858263414 2.9622037628641158e-5 0.0
0.0015177172139061352 1.7701459880818433e-5 0.0
0.001720066724467692 -0.00021431463193081666 0.0
0.0017923321337830998 -0.00021809769218831122 0.0
0.0007781285996903945 -0.00038419141666381785 0.0
0.0008670527932485549 -0.00040555548686633006 0.0
0.0008883012921657568 -0.0004027192984708637 0.0
0.0019609094211217445 -0.00022682725326714402 0.0
0.001944896533176699 -0.00026081713185869583 0.0
0.0019101700704799403 -0.00029210537123923496 0.0
0.002154149310240594 -4.2113510615669486e-5 0.0
0.0021208273977862107 -4.668819384237703e-5 0.0
0.0020764048534633673 -5.9831374762004954e-5 0.0
0.0020838141672958927 -5.08555812198447e-5 0.0
0.00039228071023764675 -0.00014136111508434253 0.0
0.002016360538203825 -5.3799460930552005e-5 0.0
0.001972539573136561 -5.513304929889797e-5 0.0
0.0013675763874531892 -0.0003531024123933714 0.0
0.000259932578877034 -0.00016640793587698188 0.0
0.00023741645340993474 -0.00014970314937996117 0.0
0.00022819299946931864 -0.0001350605210907894 0.0
0.00021316704781748 -0.00013139147656993677 0.0
0.002325205054197221 -1.6865006818323238e-5 0.0
0.0022686670401292205 -1.826520294526964e-5 0.0
0.0023010668805487724 -1.2004373889408983e-5 0.0
0.0018444684777531293 -0.0003372253590677752 0.0
0.0009360559000808986 -0.00020185822555751702 0.0
0.0019774126278657433 -0.0002353949137566637 0.0
0.0019632737258567213 -0.00026869300349734274 0.0
0.001993626004015746 -0.00024381889420891766 0.0
0.001981877815435865 -0.0002795413096851098 0.0
0.002013655857684729 -0.000248705932312874 0.0
0.0020257754549751284 -0.00021742258101528346 0.0
0.0020428090413348926 -0.00022423482939839403 0.0
0.0010793814540072846 -0.00044370444088848686 0.0
0.00105772350891554 -0.00045142250084157247 0.0
0.001028630731718622 -0.0004378850036241514 0.0
0.0007634797231638839 -0.00015330676172651105 0.0
6.99770604606668e-5 -2.9501931942220705e-5 0.0
0.00010006678611698614 -4.370473443178801e-5 0.0
7.369861258935351e-5 -3.277062768252441e-5 0.0
0.0007614191615286795 -0.0003894492063288396 0.0
0.0007364595532859219 -0.0003736193361680786 0.0
0.0022143624487015144 -0.00012442671554338438 0.0
0.00017838349293591388 2.39931298559334e-5 0.0
0.0012053907817818831 -0.00020547294066578707 0.0
0.001210964420984609 -0.0001924431743698236 0.0
0.002150945851332355 1.406271857399669e-5 0.0
0.002223612353331407 9.295727138358772e-6 0.0
0.0019791418499217187 -0.00016278686569981814 0.0
0.0004192928789078941 -0.0002388419001209411 0.0
0.0004281064652789596 -0.0002556821561856062 0.0
0.001674967876481355 -0.00022573181887586331 0.0
0.0017705436249980256 -3.1602145866444506e-5 0.0
0.0022699329737946978 -8.782158011176884e-5 0.0
0.002309187594930084 -5.6732165374947e-5 0.0
0.002326178101761161 -3.717978618555558e-5 0.0
0.0016922339300083204 -8.84143807076212e-6 0.0
0.001920992428462676 -0.0001567452429907823 0.0
0.0010312109605335677 -0.0003905039339153532 0.0
0.0019946411331322454 -7.807427551223753e-5 0.0
0.0018547226566132122 -0.00018098714789777212 0.0
0.0007079654973458185 -0.00026795515323030014 0.0
0.0004275582830113571 -0.00022558359916086457 0.0
0.002191688933325678 -3.570272197287468e-5 0.0
0.0018147112106193795 3.0202827319926223e-5 0.0
0.0007378061294815101 -0.0003883412007496572 0.0
0.00035022770829793207 -0.00012709748169572617 0.0
0.0012455673250812535 -0.00012531746697427165 0.0
0.001807990669783069 -0.00032269400888867305 0.0
0.0017991690833170134 -0.00035334488367542007 0.0
5.5876555630668325e-5 -3.19332298857807e-5 0.0
0.0013971076248595433 -0.0004381152712587124 0.0
0.00138977948985094 -0.0004562006717776124 0.0
0.0008886840725799629 -0.00042126316728756353 0.0
0.0009110279537438068 -0.000416338663009656 0.0
0.0009093614191569583 -0.00039924491374362226 0.0
0.0009324999051845506 -0.00041210003549303943 0.0
0.000912067319015429 -0.0004305821555647372 0.0
0.0008020338588769677 -8.19096842948792e-5 0.0
0.0007548071633301594 -7.021916266269869e-5 0.0
0.0003216389107660327 -6.694887233633034e-5 0.0
0.0007490589933363093 0.0001837043850357457 0.0
0.0007336942417372652 0.00017058761623244806 0.0
0.0014460916652405268 4.9265866566956264e-5 0.0
0.0017559224148589324 -0.0003754962309574714 0.0
0.001729857974317566 -0.00039646200349361706 0.0
0.00022011913939720516 -0.00014602201373131355 0.0
0.00019631049289272321 -0.00012641482713930834 0.0
0.00231323184296831 -1.1842063991000725e-5 0.0
0.00038429315672291315 -0.00015874468372947538 0.0
0.0003485424294782426 -0.0001439719059769315 0.0
0.0021698816047617995 3.0554726413258476e-5 0.0
0.0021820733034319368 -0.00013084573258452238 0.0
0.0021640902777383805 -0.00016419539127022378 0.0
0.0012829621242612878 -0.00012667386292375163 0.0
0.0014559164330471216 -0.00045123394690378465 0.0
0.0014268872118755986 -0.0004659789520705076 0.0
0.000651611824399737 -0.0001954375105585944 0.0
0.0006551211813721523 -0.0001849055384283023 0.0
0.0009321230424755474 -0.00039527081882953654 0.0
0.0019869880704118732 -0.00019187596733350585 0.0
0.0011345839391837956 -0.00017063409128341534 0.0
0.0011068055637735816 -0.0001665734488567887 0.0
6.761609817383686e-5 -4.350828580861612e-5 0.0
0.0007614717932433602 0.0002807126227623588 0.0
0.0010367231472542147 -0.00017762652067694802 0.0
0.0007111072566971494 -8.662821573800245e-5 0.0
0.0007149849933906591 -9.970921318448455e-5 0.0
0.00042599774270532547 -7.167600860295286e-5 0.0
0.0014508970038405616 -9.942661205198506e-5 0.0
0.0009492099786007793 -0.00014239600795571707 0.0
0.0009536695973570285 -0.00013294986111099576 0.0
0.0009860600236641479 -0.0001377571510322314 0.0
0.0009897712177097475 -0.00012881976366579736 0.0
0.0010210010456583513 -0.0001323583635724308 0.0
0.0010251917875323305 -0.00012386941756093185 0.0
0.0009933828997746633 -0.00012025876900746735 0.0
0.0010292136598230896 -0.000115392176026151 0.0
0.000997514484858622 -0.00011204002345750843 0.0
0.0010339448395907508 -0.00010726756511042857 0.0
0.0010542647775224861 -0.00012714709859822004 0.0
8.405840307616546e-5 -6.986378716298038e-6 0.0
0.0013964202027109756 -0.00012383123491414727 0.0
0.0009444783360576492 -0.00019155125037427186 0.0
0.0009714235489034534 6.0581551848594404e-5 0.0
0.0010409216272876188 2.911128815962597e-5 0.0
0.0010382697908694366 1.7276729349753998e-6 0.0
0.0010288236863733253 6.858549233944475e-5 0.0
0.0009875611270414248 -1.3765958406546479e-6 0.0
0.001044371872426844 -1.7639897641659505e-5 0.0
0.0010999807395738717 -1.7903016323455535e-5 0.0
0.0010873197884130107 4.476395815803644e-5 0.0
0.00015572876769121891 -6.140419985876125e-5 0.0
0.00016095084124850958 -6.724015258085134e-5 0.0
0.002315079014944892 1.0757082582516118e-5 0.0
0.002233423643433324 2.2499658110420756e-5 0.0
0.0022288667185378537 2.5640880850738366e-5 0.0
0.0016852294011431928 -0.00040910492299151403 0.0
0.00165473248473307 -0.0004264882991312099 0.0
0.0006018959150780537 -0.0002717838480934338 0.0
0.0006228982937393068 -0.00027151772677085154 0.0
0.0005805598042199408 -0.00027114549006986135 0.0
0.0006680129630926174 -9.129989134374361e-5 0.0
0.0010908563868561431 2.4116047469833315e-6 0.0
0.001066889531345442 -0.00010998241449184532 0.0
0.0010693724557291715 -0.00010188771709851536 0.0
0.0010382698813749948 -9.931583272355443e-5 0.0
0.0010726133686074983 -9.465055789817408e-5 0.0
0.0010441864405160606 -9.173927225245799e-5 0.0
0.0006230962602277772 -0.00033151780290119895 0.0
0.0023088338822465867 1.5112101295080527e-5 0.0
0.0010375158972280572 9.849768237110152e-5 0.0
0.0014005270400157673 4.430862196066338e-5 0.0
0.0014021514102694106 3.088336945385634e-5 0.0
0.0013552043155349957 2.1192816462884853e-5 0.0
0.0007156208637781366 0.0001101470304466366 0.0
0.0009448841616024018 0.00015387008130962672 0.0
0.0008858779445777279 0.00016377878279548344 0.0
0.0008597176745014692 0.00017459440117799973 0.0
0.0015902652564257897 -4.844102339020188e-5 0.0
0.0018767896190182679 -0.0003136926854976816 0.0
0.0018618565002093202 -0.0003518972499949194 0.0
0.0005973528551652422 -0.00033807730583423597 0.0
0.0009550642790688071 -0.000408091454780436 0.0
0.0009561410194837566 -0.0004247026366773857 0.0
0.0009775277799615731 -0.0004206309087938529 0.0
0.0009816281163154581 -0.00043954116677846593 0.0
0.0016588406621060817 5.6937578684628815e-5 0.0
0.0016158931411133356 5.1911778200908754e-5 0.0
0.0016759709534245849 5.0535133519584965e-5 0.0
0.001722825235222021 5.4684522909275315e-5 0.0
0.0012467137039185116 -0.00018410132533539013 0.0
0.0012215863071054528 -0.00017959909045834178 0.0
0.0010012360183387276 -0.0004324414946819555 0.0
0.0006862247084022848 -0.0001366779324223125 0.0
4.56348105578383e-5 -2.3754734908172196e-5 0.0
0.0009841418512613106 -4.318035767231955e-5 0.0
0.0010281823802948484 -5.3742596911500576e-5 0.0
0.001025223097124702 -6.474884186384904e-5 0.0
0.0010704380400780717 -6.06343393191185e-5 0.0
0.001064888158528767 -6.915486912023693e-5 0.0
0.0010735112722107438 -5.152965915409987e-5 0.0
0.0010270631846333006 -7.353507084411308e-5 0.0
0.0010608335405992435 -7.692191388092263e-5 0.0
0.001112091554270544 -5.6451443917611585e-5 0.0
0.0015587965930991482 5.224159543767369e-5 0.0
0.0010262566980200805 -8.185731499491821e-5 0.0
0.002344191565336709 1.174829222434762e-6 0.0
0.0008742181897826119 -0.00015196860319480055 0.0
0.0010672523282565201 -0.0003703582716061679 0.0
0.0010950676356601856 -0.00036458288654908383 0.0
0.0010343973969448466 -4.218735588399719e-5 0.0
0.0010831871618759627 -4.1597304501602964e-5 0.0
0.0013110158007763704 -0.00019224055727488587 0.0
0.0016529572307035047 -0.0003600836335973067 0.0
0.0016239278546089362 -0.0003822520995280009 0.0
0.0016172019756764413 -0.00040857316359321083 0.0
0.0015977137399729121 -0.0004027943881973173 0.0
0.0015930407939356188 -0.00042637676362780293 0.0
0.0015719388353613104 -0.0004221327183137227 0.0
0.0019446309448719727 -3.688373859422338e-6 0.0
0.001903819455062476 -1.6686043826685285e-5 0.0
0.0019231194672452016 -2.735173078734667e-5 0.0
0.0018629092497059328 -3.1687085142402396e-5 0.0
0.001879735137551366 -4.27439462281424e-5 0.0
0.0018197733511345598 -4.8545473244623885e-5 0.0
0.0018372125322594914 -5.965326134765323e-5 0.0
0.0018020534376203953 -3.707838313606903e-5 0.0
0.001760119055859525 -5.46383773089995e-5 0.0
0.0018941387802476524 -5.346992181543386e-5 0.0
0.0017417789782188386 -4.347136763766716e-5 0.0
0.0018509424322923505 -7.054904082082302e-5 0.0
0.0017971092396490056 -7.714571877144081e-5 0.0
0.0018081884290435534 -8.832768468642019e-5 0.0
0.0017838511827957318 -2.6437474560627185e-5 0.0
0.0018816096455692485 -5.622553034978079e-6 0.0
0.0019069312578775884 -6.459218322805157e-5 0.0
0.0019871152835635765 -2.551259623399307e-5 0.0
0.0019460082876694826 -4.837509164799081e-5 0.0
0.0012969381575476389 -2.9900931973976605e-5 0.0
0.0009132677764097906 0.00015345210172363274 0.0
0.00013438380077331044 -5.7785329940377614e-5 0.0
0.00012852898699967322 -8.006558741767245e-5 0.0
0.0001542870676728226 -0.00010019412555933967 0.0
0.000999532201741131 -0.00041589286025628814 0.0
0.0013462915817584018 -0.00019781966211431881 0.0
0.0013255324726183955 -5.4013355511900246e-5 0.0
0.001280133388847706 -6.424493690005736e-5 0.0
0.0012910732637835833 -5.551850401056121e-5 0.0
0.0012777820041668137 -7.264818351179594e-5 0.0
0.001313326225779632 -7.321015989333987e-5 0.0
0.0012712996595035852 -8.186347533359227e-5 0.0
0.0012642817878599946 -9.080760556870614e-5 0.0
0.0012349390647778305 -8.908652677839562e-5 0.0
0.00016603496745498571 -9.598292676490741e-5 0.0
0.001484665047751904 -8.437534897657438e-6 0.0
0.0017946056708796091 3.33957938525065e-5 0.0
0.0017228677436830543 3.474254363924036e-5 0.0
9.552311835492334e-5 1.2119940338266993e-5 0.0
0.00020454988138109639 3.367673881979167e-5 0.0
0.00018344713830230572 2.8907600882787537e-5 0.0
0.001506148611671927 -3.9763707076434524e-5 0.0
0.00021078168596973642 -0.00011530978525628288 0.0
0.00024284700892212606 -0.00013711923398282406 0.0
0.00026171171620603765 -0.0001433089202885641 0.0
0.00025799467616964154 -0.00013231318084643622 0.0
0.0002772703419858575 -0.00013583112948687334 0.0
0.0009703465928338934 -9.131132224831299e-5 0.0
0.00010290410722109218 3.3825955882539347e-6 0.0
0.0004598139101729395 -0.00013290279484361758 0.0
0.000379883091977336 -0.00012198730301658152 0.0
0.0010865048322642244 -3.0322869222854866e-5 0.0
0.0003335457863225728 9.663503966643679e-5 0.0
0.0015933869040268933 -0.000372210596558118 0.0
0.0014275684303499238 -2.5554252369043455e-5 0.0
0.002234041260204972 -0.0001203199045901338 0.0
0.0017803002461743774 -6.571037942226605e-5 0.0
0.0017211443199530827 -7.224052115790226e-5 0.0
0.0016360189125020279 -0.00041718011189802135 0.0
0.002349016273450151 -7.457948378562828e-7 0.0
0.002299414310085293 -3.589704226362627e-6 0.0
0.002309053188390059 -5.9653592664753735e-6 0.0
0.002291351965078596 -3.4688824522418034e-7 0.0
0.0022530540504200973 -8.663515144625016e-6 0.0
0.0022851600293531523 3.1835312132134097e-6 0.0
0.002227935860900384 1.2267623955187381e-6 0.0
0.00223937421948359 -4.0718189930375e-6 0.0
2.9793073885375568e-5 -1.1347080927652727e-5 0.0
0.0023672316663417253 -5.102199557663649e-6 0.0
0.002331699020981643 -1.0293949402611332e-5 0.0
0.0023531531194645153 -5.352429509428762e-6 0.0
0.002334901109024381 -1.117218471560878e-5 0.0
0.001412763289237495 1.866531424654984e-5 0.0
0.0017126666282504662 -0.0003847893578907165 0.0
2.4136118329461973e-5 -1.0728491900804743e-5 0.0
0.002375161282873421 -6.27455477965553e-6 0.0
0.0007943556288165195 8.041742879210131e-5 0.0
0.0018928291874995649 1.8621350443904842e-5 0.0
0.0006519275015611577 -2.8565949442639534e-5 0.0
0.0007086954580428765 -2.3633946209175806e-5 0.0
0.0007083819809876249 3.262747960806479e-7 0.0
0.00070725160548099 -4.328114976345919e-5 0.0
0.0007559245179786255 -4.076694907642169e-5 0.0
0.0007705566138224908 -2.2187198580230055e-5 0.0
0.0007674508219241014 2.9954070918338367e-6 0.0
0.0007117846741987322 2.4508764063770745e-5 0.0
0.0006634631663958014 4.928113805271973e-5 0.0
0.0006579218323835285 -5.21602147723115e-5 0.0
0.0019355955603764382 -0.0002933482216822986 0.0
0.0023430743147598997 5.015559715859454e-6 0.0
0.0009332089020693931 -0.00037862666639043596 0.0
0.0003314280801797442 -0.00021299320607223732 0.0
0.0010247199485453903 -0.00037413300831351184 0.0
0.0007988441440635569 -0.00038208558429431405 0.0
0.0008011760002459927 -0.00039808806590331037 0.0
0.0011053942541964128 -9.644355566750487e-5 0.0
0.0015027326071949609 -6.78134798131042e-5 0.0
0.00204157837052767 4.6035163198969274e-5 0.0
0.0020712041454411354 4.28261554194746e-5 0.0
0.0020030030274135737 4.583616452200437e-5 0.0
0.000155100135929012 -5.7646628025216375e-5 0.0
0.0003113507304259952 -0.0002064838004101171 0.0
0.000867050200440036 0.00021558856844260504 0.0
0.0007865984038213863 0.00020928797809950783 0.0
0.0017669934222670255 -5.1612836485169766e-5 0.0
0.0009217281661748548 0.00013400102353905357 0.0
0.002117116039797266 -0.00013127380758275984 0.0
0.0010152924436047164 -0.00031752621932390484 0.0
0.0016815641690553908 -6.88190052189016e-5 0.0
0.0017134947907621392 -3.959298956544792e-5 0.0
0.0007305478568576694 6.36768688136279e-5 0.0
0.0005809176213158389 -0.0003397004374607369 0.0
0.002096779061713265 -0.00016573759920138258 0.0
0.0003621025274713162 -0.00021501936009898472 0.0
0.00038293754454858355 -0.00023035301222401695 0.0
0.00037294625149330207 -0.0002338297528775695 0.0
0.0005465357819982003 -0.00013835909191926146 0.0
0.0012949026296444426 -9.464439196057245e-5 0.0
0.0014614754257680775 -5.470439473019177e-5 0.0
0.0008817139821607299 -0.00012072338735544751 0.0
0.000918993604675479 -0.00012732553317758657 0.0
0.002293084172124248 1.5816061093403467e-5 0.0
0.0021782355841104815 2.3458272822794963e-5 0.0
0.00011795074534977443 1.711993674993068e-5 0.0
2.9923280796251253e-5 -1.1993908934215686e-5 0.0
0.001059939413567919 -0.00011849746065963689 0.0
3.557176685725254e-5 -9.501326327186421e-6 0.0
8.484049399631653e-5 -2.100309755261171e-5 0.0
0.0010127233319381346 -0.00036032789638142934 0.0
0.0015469352639332773 -3.6397629513939766e-5 0.0
0.0009745885389051564 0.0001419860557050362 0.0
0.001415715773496638 -0.0001891150507737666 0.0
0.0010823902656567658 -8.70081030361535e-5 0.0
0.0018724177775402396 -0.0001464338871180723 0.0
0.0022040307866239804 -9.994026999110485e-5 0.0
0.0006826877958943904 -0.0002687461447717575 0.0
0.0006858314649886349 -0.0002827453931943692 0.0
0.0006589387295530177 -0.0002678619116698155 0.0
0.0006311874561216162 -0.0002531909305269599 0.0
2.487147508381031e-5 -1.163280992674536e-5 0.0
4.5887472475843026e-5 -2.2374726640826746e-5 0.0
5.112396526524946e-5 -2.3572768769700755e-5 0.0
0.0005900674731333949 -0.00019343571298590485 0.0
0.0005595175893285694 -0.00019272378805477823 0.0
0.0023697344798803994 -5.419567888090868e-6 0.0
0.001225600969113046 -0.0004611898045298427 0.0
0.0012021981412727524 -0.0004490997047242242 0.0
0.0012017357348551928 -0.00046901600432533913 0.0
0.0011783963120235066 -0.00045688334928848995 0.0
0.0011540536693615546 -0.00046365811705081385 0.0
0.0011521713245687237 -0.00044412158510757075 0.0
0.0012020782628363326 -0.0004291791476656265 0.0
0.001657965291122334 -3.6630837928123514e-5 0.0
0.0002697626968034557 -5.15576284302847e-5 0.0
0.00031767556945688454 -7.73450517520883e-5 0.0
0.00027729655453373356 -7.365943981182674e-5 0.0
0.001456435606453273 -0.00017876856896565708 0.0
0.0005782633685373269 0.00014998309159223555 0.0
0.0011532704139047107 -0.000196814373435013 0.0
3.835178677549373e-5 -1.2811517141874074e-5 0.0
0.0007164742221743848 -0.0003734706750234605 0.0
0.0006948422179390269 -0.0003709921487400432 0.0
0.0006980763299621131 -0.0003587591076748414 0.0
0.0007958070808960072 -0.0003659325059245744 0.0
0.0006826354874251553 -0.0002535589589601552 0.0
0.0003135143384797024 -0.00011880037546933228 0.0
0.000190717818904032 -8.291625239550581e-5 0.0
0.0023560476644643924 -3.19474556227175e-6 0.0
0.0023191545470613363 -7.150066289468163e-6 0.0
0.0004656048740747006 -0.00027255412647691287 0.0
0.0005523789098664868 -0.0003072471770905049 0.0
0.0005336673469022902 -0.0003072276143803737 0.0
0.0005089549436701685 -0.0002904539732648712 0.0
0.000513821925077209 -0.0003058669843817558 0.0
0.0014561290082165377 -4.929324443417737e-6 0.0
0.0010409486452186724 0.00011633656497218692 0.0
0.0014829245725848004 -0.0004380035128678365 0.0
0.001503211325894353 -0.0004476268997944725 0.0
0.0015280915227604281 -0.0004331595674510977 0.0
0.001474746029238844 -0.0004641909336035865 0.0
0.0007352877432023925 -0.00026975665646176403 0.0
0.0012911425123389817 -0.0003458160119802928 0.0
0.0009567585880167861 0.00014087617787098713 0.0
0.0009774594252870974 -7.08312365221908e-5 0.0
0.0023764850919065802 -7.2284484592028905e-6 0.0
0.0023538222835098 -1.644511953544152e-5 0.0
0.0023441921378734897 -1.5975331324442195e-5 0.0
0.0004900264609978076 -0.0002894154051202407 0.0
0.0004718382522592075 -0.0002877022322656378 0.0
0.0007007560376303299 -6.981450734215348e-5 0.0
0.0006073536525800984 -0.0002541999530788234 0.0
0.0021964881149310733 -5.942717460728027e-5 0.0
0.001834354069257553 -1.1554985912127496e-5 0.0
0.001047417941988612 -0.000135920895319128 0.0
0.0010802958652218655 -0.00012989078486317466 0.0
0.0014362520755809025 4.059127713452852e-5 0.0
0.0016944800875741298 -0.0003115486794220107 0.0
0.0009876820171897938 -0.00032234635869552103 0.0
0.0009889008319400572 -0.0003378943413207643 0.0
0.00025395619170933044 4.118313411575353e-5 0.0
0.0005598760113133224 -0.00025240274352738353 0.0
0.0005358631640581588 -0.00024918990527484795 0.0
0.000508442595515395 -0.00023351629151665383 0.0
0.0005127588891900933 -0.00024725505021446317 0.0
0.0004269236313200646 -5.6316025582557856e-5 0.0
0.0004279675896090939 -3.898692584480667e-5 0.0
0.0004810320919462953 -8.858941146582908e-5 0.0
0.0014963244810188338 -0.0004712491033676696 0.0
0.0014428118152976241 -0.0003480537532321153 0.0
0.001408864175658452 -0.00036223300639153454 0.0
0.001439499683632489 -0.0003743934882135476 0.0
0.0014062909245156291 -0.00038810572001281947 0.0
0.0014277464292438257 -0.0003974968088069296 0.0
0.0014715366930915547 -0.0003559024613708037 0.0
0.0014985024200504951 -0.00036192815230381335 0.0
2.1219050618230213e-5 -1.1073610112782572e-5 0.0
0.0023802797797701316 -9.365686381834097e-6 0.0
0.0018937057537253062 -0.0002783187358968956 0.0
0.001346256647120024 -0.0004561474325114069 0.0
0.0021962906388326704 2.7185785533285312e-5 0.0
0.0013001065276009467 -0.0004343469725508205 0.0
0.0012968525951491832 -0.0004546520774987621 0.0
0.0017457923365869624 -0.00019008570750140264 0.0
0.0015643578638550781 -0.0001468576844435652 0.0
0.0015315691743480993 -0.00014461234904888164 0.0
0.0007253984917793469 -0.00034121098881958036 0.0
0.00043690509524267444 -0.0002122942603149059 0.0
0.0017523870316664373 -9.658030618938945e-5 0.0
0.0018149362733206576 -0.0002919008435772009 0.0
0.0007946408700225239 -0.00022352309392711388 0.0
0.0008236979984144653 -0.0002211549319096085 0.0
0.0008218505910851208 -0.0002333412351255405 0.0
0.0008265168177697551 -0.00020947960308043416 0.0
0.0007931779084581512 -0.00023577600813185984 0.0
0.0008520512042083292 -0.00021975668234177365 0.0
0.0008567424458051218 -0.00020878407852464048 0.0
0.000865713578128835 -0.00019672316874924295 0.0
0.0017519769816828482 4.004798405805848e-5 0.0
0.00021453567878174215 3.652964905848471e-5 0.0
0.0017009232128529102 -6.151497017758033e-5 0.0
0.0018355568258308103 -0.00015265953066038033 0.0
0.0004270586413550081 0.00010374340638683103 0.0
0.0003222019105329035 -2.3998014229675475e-5 0.0
0.0004811387406309554 -5.602216647341839e-5 0.0
0.0003863791839293257 -0.00019218846325948794 0.0
0.000796080235174825 -0.00020020932327180125 0.0
0.0006229178563529264 -0.00017318591008960517 0.0
0.0006652156672484326 -0.0001746687797780952 0.0
0.000691095638215275 -0.00018694501884179002 0.0
0.0011019155265590416 -0.00043814824924982143 0.0
0.001128130088691169 -0.00045066160871232337 0.0
0.0011285968156406192 -0.000471749143684118 0.0
0.0011518016630587761 -0.0004249734975950975 0.0
0.001781065843624472 -0.00031158951438870527 0.0
0.000837527950557587 -0.00014589228885240373 0.0
0.0016983093655974192 -0.00016713664894273431 0.0
0.0007928521669761393 -0.0003500420718613224 0.0
0.001202067450090371 -0.0004097259143162338 0.0
0.000843596524433523 -0.00040989482837234197 0.0
0.002181070889394002 6.170878411343771e-6 0.0
0.0011217450993457802 -0.00020419888729383 0.0
0.00027957043121499934 -0.00010341754812877528 0.0
0.0008516127662326396 -0.0002969257723337126 0.0
0.0008787719555551381 -0.0003084689469296419 0.0
0.0007958900479699636 -0.0002741406660765204 0.0
0.000863409421313305 -0.0003732694860602099 0.0
0.0013463220590879826 -0.00026078797011381676 0.0
0.0013109009509509257 -0.00027190963519671996 0.0
0.0013404181897401536 -0.0002784005978016186 0.0
0.0016825039078916084 -5.077185910318145e-5 0.0
0.001015187938697389 -0.00030255926735196526 0.0
0.0007388701928696124 -0.0002514283813733488 0.0
0.0013243397898261384 -0.00011780969085788006 0.0
0.0013147103788909596 -0.0001295934047735637 0.0
0.0003075371384022673 -0.00015270656727395636 0.0
0.0006186069293787449 -0.00031667881549868007 0.0
0.0015361756325427106 -0.00040704953009886767 0.0
0.0013307128100934925 -4.545334382801344e-5 0.0
0.0011819905073588138 -0.00032736161211654563 0.0
0.001152659144370368 -0.0003348520845244133 0.0
0.0011514334797084703 -0.00035232480296714844 0.0
0.0011237511626787185 -0.0003416769312261408 0.0
0.0011233866409755646 -0.0003590874391721273 0.0
0.0011785793531998896 -0.0003624810760950398 0.0
0.0014386571134858148 -1.0014818012621062e-5 0.0
0.0009313104761375653 -0.00026170032917976756 0.0
0.0009039377098666708 -0.00026547405766737427 0.0
0.0012862921851254832 -0.000249234992136827 0.0
0.0007681504291905182 -0.0002753485606118221 0.0
0.0012726341500061218 -0.0004635306153732728 0.0
0.0009594995337365641 -0.0003118555331893957 0.0
0.0011251885770723281 -0.0003250601180977155 0.0
0.001610624976836154 -0.00043438400956564505 0.0
0.0010276521272520375 -0.00021052021941459908 0.0
0.0022396206406740888 -2.6014056479159015e-5 0.0
0.001131011380697931 -0.00027845142941352474 0.0
0.0005231374261498898 -0.0001987598319812263 0.0
0.001101344862803762 8.689952438888257e-5 0.0
0.0016075200031748014 -0.00034537685486579127 0.0
0.0021398243941004626 3.7227795307552516e-5 0.0
0.00033366905383348854 1.112640403031919e-5 0.0
0.00034767273045042144 2.803314393400997e-5 0.0
0.00038794222392113907 -8.686782124310229e-8 0.0
0.0004114786183222714 2.038764276673871e-5 0.0
0.0004532969237551706 4.047650940616671e-6 0.0
0.0016627843395682006 -7.930468918604824e-5 0.0
0.000935155190278455 -0.0004307892049804291 0.0
0.0010597328906660046 -0.0002050193022198606 0.0
7.077831288542657e-5 -2.041627770747749e-5 0.0
0.0008934219486035392 0.00017940880850212746 0.0
0.0008264592036182772 0.0001844101547847415 0.0
0.001580052262046926 4.4661503064751224e-5 0.0
0.0009087642501727307 -0.00036622667408559354 0.0
0.0010332976126459779 -0.0004215192329907803 0.0
0.0009119552912312804 -0.00015746250737272042 0.0
0.001256507142990157 -0.0002434803928718758 0.0
0.0012242449115578437 -0.00023696054031850747 0.0
0.001231591287968576 -0.000221714020336138 0.0
0.001362687831945891 9.635486693872309e-6 0.0
0.00085515421710974 -0.0003116958007634798 0.0
0.0005894062317244249 -0.00016128878067374407 0.0
0.0008742227191891104 -0.00024215763164518207 0.0
0.00013027367238894523 -5.9177738600539744e-5 0.0
0.0012192529886200375 -0.00012086673189236295 0.0
0.0005027944934923266 -0.0002747781104436322 0.0
0.0011971574210383658 -0.00024836335601707767 0.0
0.0007310025736380404 -0.00035722601106338706 0.0
0.001635581136251473 -0.00014796165649401532 0.0
0.0010794715881408431 -0.00024928315769648867 0.0
0.0010956303175634961 -0.0003479158236263249 0.0
0.002055956545610442 -0.00011158979443753028 0.0
0.00044955085053516715 -0.00027114855048506105 0.0
0.0022559858011303676 -0.00011634018919844914 0.0
0.000903868153455253 -0.0002011258347422336 0.0
0.001074337045924359 -0.00027699681772565 0.0
0.00020928618148447308 -7.368139743591187e-5 0.0
0.0020684906732956762 -6.94993995737504e-5 0.0
0.0012577903992282988 -0.00037377092123913066 0.0
7.230050334219645e-5 -2.300042242639032e-5 0.0
0.0011691252769006687 -0.00016328576721020261 0.0
0.0011655751062831703 -0.00017310072372379956 0.0
0.0022272944470906504 -1.4661800477144497e-5 0.0
0.001250265800078238 -0.00047251714616825755 0.0
0.0004152323795458835 -0.00020932612182998438 0.0
0.002303653701456933 -3.104197309016713e-5 0.0
0.0012006409071149036 -0.00021702624435647027 0.0
0.0011103337013859567 -0.00024311741080718904 0.0
0.0013866463257029339 -0.000332685318002246 0.0
0.0013568259648659151 -0.0003244587001074807 0.0
0.0012660676722385002 -0.00033649342066362047 0.0
0.0010565466314803327 -0.00021707546113241934 0.0
0.001304217776227775 -0.0004872051806544913 0.0
0.001407469786281626 -0.00048798806349285753 0.0
0.0009974130550466805 -0.0004583007723050199 0.0
0.0010728264748365525 -0.0004697699125465289 0.0
0.0015528511258123528 -0.00046874999053300953 0.0
0.0015462454476616054 -0.0004447665976470793 0.0
0.0008048548487548905 -0.0004134601600747741 0.0
0.0006443749179380554 -0.00036536138058058866 0.0
0.001355581311518139 -0.0004885365063686523 0.0
0.0008548281243066166 -0.0004283984645687054 0.0
0.0009613853934369286 -0.00018165047711381224 0.0
0.002030302392373741 -4.1434489228357766e-5 0.0
0.0016307390797272675 -0.00024539300415634535 0.0
0.0016171328272080422 -0.00026794442242696385 0.0
0.0008211832925507189 -0.00024659349051658056 0.0
0.0013958119067218457 -0.0002165795658923312 0.0
0.001099044663946015 -0.00038131953121077076 0.0
0.0005851553582057297 -0.00029308568642656723 0.0
0.0004403547617909487 -0.00017801134505467412 0.0
0.0009611633653307169 -0.0002445903828698927 0.0
0.0020752408817760006 1.9204210160329776e-5 0.0
0.000823843400693584 -1.5659774625357833e-5 0.0
0.001092411778387952 -0.00019899985409838557 0.0
0.0012818732340259353 -0.0002663212568831779 0.0
0.0001725555599596293 -0.00010815355788580986 0.0
0.00017940763829627084 -0.00012140018658153074 0.0
0.0009595034690032155 -0.00034227887472360757 0.0
0.0008100662293102802 -0.00031765840718489655 0.0
0.0011595532833645992 -0.0002862335106829058 0.0
0.002211307387458174 2.8916140698776508e-5 0.0
0.0012267492012218509 -0.0004207992238381627 0.0
0.002347197596682168 -3.013035763625428e-5 0.0
0.0023254318387298783 -5.346675412882876e-5 0.0
0.0006430310929921505 -0.00012686832360143043 0.0
0.000989239148181825 -0.00026562481773416256 0.0
0.0010426731895778962 -0.0003121278022589758 0.0
0.0022756125429467824 9.669033722103855e-6 0.0
0.001150609921181182 -1.4193984562212438e-5 0.0
0.0015298956502534152 -0.0003478345971320251 0.0
0.0015816923427367012 -0.0002847587406421181 0.0
0.0006323760833714808 -0.0003483978303049727 0.0
0.0014443980604823806 -0.00025940673872929047 0.0
0.0009913985334460418 -0.00023987221272007677 0.0
0.001521898230354019 -0.00023120463525489433 0.0
0.0015122654029518978 -0.0002504162480683269 0.0
0.001561239776909427 -0.0002165422749663341 0.0
0.0005362353844915613 -0.0003227269602114135 0.0
0.0018523799076320762 6.8062888762745186e-6 0.0
0.0013192023830609536 -0.00046814459712464095 0.0
0.001888999984363829 -0.00032735043103528577 0.0
0.0017339919084508962 -0.00016793285333354738 0.0
0.0011135221384242751 -0.00015639395297854656 0.0
0.001406197438132023 -0.00041383367248768295 0.0
0.0008812235511797472 -0.00032324974514288046 0.0
0.0009275711068956063 -0.00021191340434137875 0.0
0.0022000374030328286 -9.749489332943112e-6 0.0
0.0004983480565934387 -0.00014627050754364288 0.0
0.0016774021223448948 -8.999314972788718e-5 0.0
0.0011126561730897464 -0.00011280581336801136 0.0
0.0014274308751360376 -0.0002198847471065366 0.0
0.002103048722487146 -3.949829789396386e-5 0.0
0.00018806507154006194 -7.251937857078968e-5 0.0
0.0016633472573684132 -0.0002765620120061016 0.0
0.0012899182267929177 -3.9228583450700965e-5 0.0
0.0012747626044739412 -4.8455251523954275e-5 0.0
0.0013560394162347364 -0.00039306676322639974 0.0
0.001246197177092169 -0.0002931888428767967 0.0
0.0012816769939721449 -0.0003836134079986257 0.0
0.0016841707581474212 -0.0003390514176787319 0.0
0.0017294817752717215 -1.35464528152523e-5 0.0
0.0011547878466660402 -2.4946050853616492e-5 0.0
0.001561239531338107 4.746241363197733e-5 0.0
0.002003604886623652 -0.00016118193843171175 0.0
0.002017434504784233 -0.00013716624883858137 0.0
0.0011258804042031246 -7.952081286294538e-5 0.0
0.0007393227678597578 -0.0003087869452182658 0.0
0.0015595079075932498 -1.1248289796617147e-5 0.0
0.0011482445554200603 -4.2395188722383935e-5 0.0
0.0014356714362458898 -0.000278562932029748 0.0
0.0023065126145151017 -4.2106315041075916e-5 0.0
0.00039736247917216295 -0.00022027561823254274 0.0
0.0014064013862053173 -0.00013414239436406925 0.0
0.0011392545478972858 -6.074902949451221e-5 0.0
0.0011285375638884168 -7.375161738914307e-5 0.0
0.0003866959793044092 -2.186896225148398e-5 0.0
0.0020745427030604154 2.9488159889646475e-5 0.0
0.0011953991665190132 -0.000110587948422549 0.0
0.0020849597462147193 -0.00010819906886567637 0.0
0.0007129625341504381 -0.0002956678259030605 0.0
0.0017471438434973373 -0.0004108630882104871 0.0
0.0017945905199004376 -0.0003990927219676729 0.0
0.0006508210298430203 -0.00029933866353153816 0.0
0.0014920322388248344 -0.00029025204172111204 0.0
0.0009728909641276964 -0.0004541628072684728 0.0
0.0014560833734807454 -8.042407775632217e-5 0.0
0.0004335416004983773 -0.00027761540533420803 0.0
0.00122657510086163 -6.297679164340656e-5 0.0
0.0012470539288271733 -0.00013538396789920473 0.0
0.0012430471374382853 -7.243214967498176e-5 0.0
0.001306606951039554 -0.00028989175940528054 0.0
0.0016064065798235695 -0.00029045247699136466 0.0
6.421756829163394e-5 -4.7039894596181965e-5 0.0
0.00010977089630927004 -8.064642578886392e-5 0.0
0.0001309679910037197 -9.584072710637154e-5 0.0
0.002168531808966755 -0.00018574861068192748 0.0
0.0001742959372747229 -0.00012684077610683803 0.0
0.0006647761194837962 -0.00028285253656499496 0.0
0.00029325457563377335 3.153990316857958e-5 0.0
0.0019125200129730408 -0.00034671853290363017 0.0
0.0003716083861997911 -0.0002452085466890219 0.0
0.0004135910754661764 -0.0002676018339016722 0.0
0.002141279630941093 -0.0002038922999928597 0.0
0.0020880462205567865 -0.0002424680402949268 0.0
0.0012289225313356646 -0.00016824012205737327 0.0
0.0008864442891949477 -0.0003866308311953025 0.0
0.0017200397817057425 -3.123187026132787e-5 0.0
0.0019613334018030643 -0.00031817741991728286 0.0
0.0019860056347077116 -0.00030483540979919007 0.0
0.00033107660081650107 -0.00022439438458642604 0.0
0.00023541876691627632 -0.00016588590479575826 0.0
0.0020371184958133367 -0.0002738798873674271 0.0
0.002059731004968603 -0.00023168073932075336 0.0
0.0013688305297672315 -0.00046894810049261944 0.0
0.0002764911886304377 -0.0001919983405196418 0.0
0.0016695217215875024 -0.00044183025700863507 0.0
0.000445940166796415 -0.00022736461542947946 0.0
0.0019054819947452466 -0.0002092580653755132 0.0
0.0006688793724229245 -0.0003604979091012782 0.0
0.0017652804301560303 -0.0003025539755886626 0.0
0.0018436892481998722 -2.0727782117955005e-5 0.0
0.0006503804902676455 -0.00021671034611933594 0.0
0.00044709462706732936 -0.0001900271777603025 0.0
0.0008351490894648305 -0.00032991641064199505 0.0
0.0011016814785942942 -0.00028532262241054435 0.0
0.001942733143246119 -9.51269377623946e-5 0.0
0.0011771161831435777 -0.00043685926429349497 0.0
0.001224941999755755 -0.00011213440632431178 0.0
0.0012403849255655827 -4.996593671140946e-5 0.0
0.001540318425713097 -0.00019546798506446715 0.0
0.0017757887542926669 -0.00024274891579777232 0.0
0.0006500018458258745 1.938762708639113e-5 0.0
0.0014889207000042433 5.263022718889529e-5 0.0
0.0007061642944344368 -0.00021634562358724033 0.0
0.0019407068130997667 -0.00015852816271232212 0.0
0.0004624092203963455 6.743672125872882e-5 0.0
0.0003860799614751441 4.6952306539102296e-5 0.0
0.0010056270869140205 -9.604301942048173e-5 0.0
0.0020524095684107137 -5.2661333223662276e-5 0.0
0.0011513210058791995 1.763984767755628e-5 0.0
0.0011827834660423403 -0.0001346167617169762 0.0
0.002173615791450604 -4.495951375756206e-5 0.0
0.0005984270780632535 -0.00021551756515761125 0.0
0.0007363416479969233 -0.00015971580970534853 0.0
0.0016630382132503461 -0.00018606690310520035 0.0
0.0018302996770113969 -0.00022439316079204787 0.0
0.000523501323232975 -0.00021057946157520998 0.0
0.0003196164203199351 -0.00016752347233190925 0.0
0.0017551324935490523 -0.00023931516841203528 0.0
0.0007600894280257112 -0.00012046294337584662 0.0
0.0017639512528098442 -0.00011622403512989235 0.0
0.002355426893394206 -1.9329169495817864e-5 0.0
0.0019362745949317707 -3.789865296094612e-5 0.0
0.0012751933424921483 -2.0782629704366157e-5 0.0
0.0013105135716267651 -1.846751545066998e-5 0.0
0.0014296034815516915 -0.00016232617604534076 0.0
0.002131995654129933 -3.060475479846131e-6 0.0
0.002092833042044478 1.1278852487387635e-5 0.0
0.00010537723833180013 -5.17944926030861e-5 0.0
7.970684189572345e-5 -3.7648475440863934e-5 0.0
0.000909126703969937 -0.000382565047911636 0.0
0.001473291460406282 -0.0002646724148468943 0.0
0.0008355963842706888 -0.00016605120971165824 0.0
0.0008370282467154338 -0.00015609215625957224 0.0
0.0008445272474379995 -9.213037361775418e-5 0.0
0.001151339491319041 -0.0003701014083226335 0.0
0.0013677756917212746 -0.0001457919674959237 0.0
0.00036919389885746814 -8.165915628330342e-5 0.0
0.0016242075824366748 -9.70626414753855e-5 0.0
0.0013013458667097085 1.952411473065013e-6 0.0
0.000960321596166633 -0.0002573019006487578 0.0
3.770691414765193e-5 -6.1753750118493795e-6 0.0
0.001103874550941817 -0.0002706882476611251 0.0
0.0021580704889006346 -5.514233147256937e-5 0.0
0.0018317607553646966 -0.00011605995780133229 0.0
0.0017419642730353584 -8.318007200243724e-5 0.0
0.002058502603684472 -8.121850830603857e-5 0.0
0.0014899472438632657 -0.00011040976085107776 0.0
0.0008412596629748658 -5.3849648058726195e-5 0.0
0.0002750067026154372 -9.537831248653531e-5 0.0
0.0010056994513867221 -0.00014911614220930057 0.0
0.0012566605925597551 -0.00017215197754741292 0.0
0.0003444300310355852 -0.00015095737570757653 0.0
0.0010477136253171666 -0.0004664188716965412 0.0
0.0014397926135426456 -0.00011242430799438619 0.0
0.0006912270509979014 -0.00029685930504257406 0.0
0.0016092267979891395 -2.6198635223381242e-5 0.0
0.001973355509796953 -9.255721896248771e-5 0.0
0.0007581975579511191 -0.00010893932987090518 0.0
0.0017217091687301272 5.1932512809998536e-5 0.0
0.0013061093502051311 -0.00014120080496560672 0.0
0.0011064609844551095 -0.0002565695179429676 0.0
0.0004151690092157339 -9.624650255656319e-5 0.0
0.0007675994810556709 -0.00017038292559049488 0.0
0.0010768387843356647 7.515114201141928e-5 0.0
0.00030912290007732604 4.506163817179207e-5 0.0
0.001721972253221188 -0.00018799894256552645 0.0
0.0004589778696159719 -0.0001599211059396083 0.0
0.0011374594874171103 -0.0002501043775295488 0.0
0.0019487731784167035 4.0389830535419676e-5 0.0
0.0016326916338483932 -0.00018440720624804654 0.0
0.000808958763418154 5.472309346205434e-5 0.0
0.00014369272857524682 -4.149150967509146e-5 0.0
0.0005891046400833685 -0.0001505264138836427 0.0
4.904364388376323e-5 1.9180745685617027e-6 0.0
0.0001024240753478245 -2.4939901561449846e-6 0.0
0.001626241535104609 -0.0001681082413705566 0.0
0.0013713256092212909 -3.340657983326466e-5 0.0
0.0007567079483139752 -0.0004032861737663599 0.0
0.0005373323391315571 -0.00026357374175738134 0.0
0.0019313363427558002 -6.94243972162859e-5 0.0
0.0002838698004586216 -0.00018674277671471386 0.0
0.001568868701967212 -0.00019909275024548807 0.0
0.001285154971599499 -0.00036472453839068764 0.0
0.0019097555640241592 5.2869707644029344e-5 0.0
0.0006810971654050116 -0.0003430403838284929 0.0
0.002057620165503147 -0.00019182934242237916 0.0
0.0011867123887503198 -0.00012659706383876912 0.0
0.0003977268233751061 -0.0002479288370252441 0.0
0.0015722079314268085 -0.00044539720189622304 0.0
0.0003945199343812461 -0.00017122633720405484 0.0
0.0022192232742709902 -5.642974723355126e-5 0.0
0.0002870168763373564 -0.00011998828786809082 0.0
0.001641719617074124 7.295794892522087e-6 0.0
0.0014951694160750153 -9.739774332059224e-5 0.0
0.001249651547048987 -3.716558015183881e-5 0.0
5.194492031019473e-5 3.868227772037496e-6 0.0
0.000990098300503768 0.00012783560597769963 0.0
0.0006356084194665095 -0.00011366289852610372 0.0
0.0018146191617053747 -0.00036255131732463236 0.0
0.0018400542992232593 -0.00038414565030349407 0.0
0.00016822082671130522 -1.5130928480222713e-5 0.0
0.0013450838396507716 -0.00013202548184164942 0.0
0.0005585564261250746 -0.00026555660255977087 0.0
0.0009327486987245915 -0.0002746045379504224 0.0
6.754594304948512e-5 -3.4596804091900125e-5 0.0
0.00012910358554754154 -2.8083730084525078e-5 0.0
0.0012793444073698518 -0.00018792564217809512 0.0
0.0011688808924570817 -0.00024263187183421747 0.0
8.288534530217744e-5 -1.6148447536609292e-5 0.0
0.00023581782502678423 -7.959686840794041e-5 0.0
0.0001948110811322574 -0.00014021168922848025 0.0
0.0019224626086712898 -0.0001824789982377108 0.0
0.0015013757147978848 -0.00026997293667233984 0.0
0.00029096644186792753 -0.00015055101176826384 0.0
0.0018183279290424751 -1.1484914358533977e-5 0.0
0.0016706455771708345 -2.6507174639289485e-5 0.0
0.00013952888995092105 -9.478327745497583e-5 0.0
0.0009681121365739522 -0.00011646835609095201 0.0
1.845130763448065e-5 -1.1450314629024647e-5 0.0
0.0023799479492747624 -1.4995112073261073e-5 0.0
0.0023012912133235676 -1.6639628150376387e-5 0.0
0.0006907915360785052 -0.00038243692015671677 0.0
0.001820765966421814 2.3333582874683657e-5 0.0
0.001502805625929105 -0.0003397576968984842 0.0
0.0003152499197489761 -0.00012699731144414072 0.0
0.0014323465065415992 -0.00048648297459706304 0.0
0.00033292156338403356 -8.909071765191576e-5 0.0
0.0020418233659685535 -6.338303097765082e-5 0.0
0.0009041637430583941 -0.00027797297356237533 0.0
9.881582262942283e-5 -4.571940567312453e-5 0.0
0.0011017372112232917 -6.533410779402339e-5 0.0
0.0010965564708581912 -7.237315444908592e-5 0.0
0.0021545682110583352 3.3326474538585624e-5 0.0
0.0012781161223751156 -0.0002830307661583571 0.0
0.000158266029363287 2.3061207849909043e-6 0.0
0.0020293847946057098 -0.0002561858832370035 0.0
0.0021743622786246806 -3.3201234082275376e-5 0.0
0.0016578924855966918 3.3353820874370306e-5 0.0
0.0017012427920353322 2.2546484361594812e-5 0.0
0.0009791885235446154 -0.0004035571204464733 0.0
0.002315189847853836 -7.473843888225178e-5 0.0
0.001001179812676466 -0.00010414641379844919 0.0
0.00025858591699188957 4.562256529840163e-5 0.0
0.0002867391600674581 -0.00016206122582454222 0.0
0.0007243989757357395 8.960261107169463e-5 0.0
0.0020394555289792843 -0.00018759098357091816 0.0
0.00011572910638891011 1.2670737822500574e-5 0.0
0.001226845147377431 -0.00010419723004054239 0.0
0.0018432735477496348 -9.893946168155217e-5 0.0
0.0014615519339708624 -0.00016610485820806083 0.0
0.002338304234142137 -1.2182054421643996e-5 0.0
5.950181987689486e-5 -2.2254404466094698e-5 0.0
0.0021875588895389946 -3.2893989866286803e-6 0.0
0.0023473150997985162 -1.2812568693095504e-5 0.0
0.001103731418251647 -0.00045565892854390686 0.0
0.0013187185767390296 -0.00017928693617989534 0.0
0.0008503229097731231 0.00015717115192717343 0.0
0.0005501127920945534 -0.00021225662500288557 0.0
0.0007268614259743764 -0.00014591298214948234 0.0
0.0009592881082955574 -0.00012470519969613722 0.0
0.0004652780064445902 5.132274492608831e-5 0.0
0.0008319514506879846 -0.00031436678680389434 0.0
0.0004209762535156605 -8.378068276043982e-5 0.0
0.0002967058689848802 5.669854630994755e-5 0.0
0.001072807032842109 -0.00017291935805970423 0.0
0.001640488258851337 -0.00027259840620636003 0.0
0.0019597257295974908 -0.00016129263131651363 0.0
0.0007989417292878786 -5.595390038910486e-5 0.0
0.000559285465809326 0.00011889441778027964 0.0
0.0013203497745241078 1.8306556291902168e-5 0.0
0.0006785581847954593 -0.0001128211222569438 0.0
0.0018607892467942366 -0.00016404923871864434 0.0
0.0007201276846633923 0.00015971658989875838 0.0
0.0006522800381656054 0.00015165792958280104 0.0
0.001253547940425711 -0.0002599692383151406 0.0
0.0013644745331312423 2.315666123123913e-5 0.0
0.000898736619842931 -0.0004395078016095869 0.0
0.0017189692899460983 -0.0004269621383752518 0.0
0.0006213678279109334 -0.00020533051258357987 0.0
0.0015997352217703238 -0.0004600910885651422 0.0
0.0005042276652527875 -0.00010390580119489405 0.0
0.0018931095756177757 -0.00015952707113104763 0.0
0.0008755831006433492 -0.0002682448797804946 0.0
0.002028646501248726 -8.647970179582668e-5 0.0
0.0005513030941548382 -0.00020178356876116935 0.0
0.0010251488193835042 0.00011410352904522283 0.0
0.0008453388336761716 -8.02242925948211e-5 0.0
0.001017598448832696 -0.00034697557232976563 0.0
0.0011010024957508937 -0.00013515763579895337 0.0
0.0010918309010137248 -7.901291909131607e-5 0.0
0.0006374106783042871 -0.00026804357482266216 0.0
0.0006453671080757958 -0.00028412054934321356 0.0
0.00042212779874146593 -0.00014543492412920573 0.0
0.0007010758827556973 0.00020590820975061307 0.0
0.0010545967207344885 -0.0003986878778075938 0.0
0.0020601697977164655 3.7312942570623784e-5 0.0
0.0018105807174876836 -0.0002213142082759045 0.0
0.001319979259940844 -7.783170842560232e-6 0.0
0.0005952613385816558 -0.0002047291830540916 0.0
0.0015991073619995783 -0.00014670529704885932 0.0
0.001314790013980849 -0.0003549056053414243 0.0
0.0008744722041191299 -0.0002548535750826115 0.0
0.002198624655436232 -4.137497736175306e-5 0.0
0.0023216795616988082 -2.8303467437720834e-5 0.0
0.0008014016463604706 -0.0001593832680850079 0.0
0.0015196238350735558 -0.0004572239289901418 0.0
0.002087248836959845 -0.00022082113312857615 0.0
0.00010692576125161461 -2.9548463205233175e-5 0.0
0.0005545912230970663 -0.000149748453914341 0.0
0.0006498561325409885 -0.00020599757371991047 0.0
0.0021338325546496092 -0.0001899623913930652 0.0
0.0008279352156853095 -0.00029872415194606553 0.0
0.0015194092243204622 -8.524678360086047e-6 0.0
0.00024343258618714323 -0.00016215372140505202 0.0
0.0013269809601090306 -0.0002114585786734127 0.0
0.001958792296796856 -0.00013722995583155802 0.0
0.0015379307925762857 -0.0002549888660615573 0.0
0.0022390608531934354 -4.092675389889536e-5 0.0
0.001552679241945007 -0.00041737737715062906 0.0
3.757820557562912e-5 -3.966742300496812e-6 0.0
0.0010219819982933277 -0.00016984925379971694 0.0
4.707306491093062e-5 -2.0417916410374192e-5 0.0
0.0007610377351539737 4.3451742773550174e-5 0.0
0.0004890605976134168 -4.1191837235508074e-5 0.0
4.068298900320181e-5 -2.4685933253942186e-5 0.0
0.0006021896203030293 -0.00035184226968357684 0.0
0.0005592038719956368 -0.00032194517695652086 0.0
0.0010118883441969278 -8.87862926022452e-5 0.0
0.001043274004209817 -3.138824316703896e-5 0.0
0.0004187958273513187 -0.00025932243322424834 0.0
0.0007180368244374191 -0.00011142755992780546 0.0
0.0013703539886402243 -0.0001359505042117756 0.0
0.00041597037569476446 -0.00017432856039341463 0.0
0.0015607954361766172 1.8984617079453026e-5 0.0
0.0013475125162511193 -0.00034402273187606494 0.0
0.00030306794672286706 -8.667140203403094e-5 0.0
0.00019021328214366531 -0.0001140968641706693 0.0
0.0012011654137913893 -9.582327478266757e-5 0.0
9.189596444256512e-5 -6.193754031533304e-5 0.0
0.0022742062214714657 -1.077055007525808e-5 0.0
0.0008212965891907717 6.113044532863463e-6 0.0
0.0010821421691402176 -0.0001615201418722645 0.0
0.002006719163352542 -0.00021284389308907423 0.0
0.002221302375227428 -0.00014764066978219037 0.0
0.0018544814294562373 -8.23640263712421e-5 0.0
0.0010509218303760613 -0.0003812123286228305 0.0
0.0013827651339910858 -0.0001978644746541881 0.0
0.0019515423759632706 -0.00030115519637622696 0.0
0.0011517517153408728 -0.0004800560778558424 0.0
0.0019333754754239654 -0.00013891608401440288 0.0
0.0015477823391992214 -0.00023565474174782073 0.0
0.0008004225422074538 -0.00028701161830208606 0.0
0.0014403872922078335 1.8690747226285898e-5 0.0
0.0008442440937707884 -0.00024340660433006745 0.0
0.0007163700715870592 -0.0003604138496023777 0.0
0.0010707369044991855 -0.0001395770734782068 0.0
0.0017755892560381607 -0.0003787091496472105 0.0
0.00041760783279657396 -0.00013593850149167335 0.0
0.0003553073440582874 -0.000227693523041164 0.0
0.0016952338981981601 4.278090720765793e-5 0.0
0.0005240344503206027 -0.00015803503871985805 0.0
0.0013941022423363122 4.607453658424574e-5 0.0
0.0008614304086448585 0.00030772976118516803 0.0
0.0018152251456528521 1.710727712298814e-5 0.0
0.002028439942930068 -7.590981999492589e-5 0.0
0.0011497205544930029 -5.4732327429172036e-5 0.0
0.0018073508839811364 -0.00010046745450994572 0.0
0.0013826408643958172 -0.0003798879681369084 0.0
0.0014767401265282985 -0.00048457278586924984 0.0
0.0006792142152450079 -0.0002055799490685852 0.0
0.0007897427642216101 0.00017226489442733565 0.0
0.00045642186245693333 -0.0001412908873213575 0.0
0.0005176856422224728 -0.00031836009452896935 0.0
0.0010007192611150217 -0.0001843547915209883 0.0
5.948166093368621e-5 -2.1100593238919426e-5 0.0
0.00040381832758780526 -0.000238454647256672 0.0
0.0011246046183813162 -9.05728970207038e-5 0.0
0.0001478894131939032 -7.031322204091455e-5 0.0
0.00012722900809634453 -8.759449869618735e-6 0.0
0.001193828689731555 -0.0002364858209874584 0.0
0.0012301477214350452 -9.686636802358923e-5 0.0
0.0021878702389617837 -0.00015373020922374695 0.0
0.0009657708045423946 -0.0001089365994661806 0.0
0.0016542078337529894 -0.00024992718272784386 0.0
0.0012544096545839933 -6.282146605871578e-5 0.0
0.00032219105556164127 5.47271774162142e-5 0.0
0.00041444649049891585 3.693868981616106e-5 0.0
0.0022799679640480783 -2.673214665233863e-5 0.0
0.001480613357336088 3.936356112709395e-6 0.0
0.0003446945316723576 -0.00013336453711154048 0.0
0.0014147426161836437 -8.776355881266138e-5 0.0
0.0011084529857328343 -4.7967937573093256e-5 0.0
0.0012091529221778742 -0.00012871450496110517 0.0
0.0004685125648658869 0.00010950450496663941 0.0
0.0012013519714108728 -0.0004858018861476426 0.0
0.0021600692391328213 -1.5419515887704625e-5 0.0
0.0011794693253813914 -0.00020125698661804342 0.0
0.0012089591796541818 -7.611066234003528e-5 0.0
0.001512269335118481 -0.0001383730468579928 0.0
0.0010527385743991369 -8.442967232896942e-5 0.0
0.001187480876085133 -0.00018797760353918768 0.0
0.0005846585656933978 -0.00028266304981778125 0.0
0.0015858190659988373 -0.00022030708846653113 0.0
0.0009460021702150139 -0.00015777991685318846 0.0
0.0012020670966281651 -8.938309939213361e-5 0.0
0.0018606108182298805 -0.0003780090616775953 0.0
0.0010143197688714436 -0.00014013982648435048 0.0
0.0014322423966659863 -6.58719491619737e-5 0.0
0.0012630625282193221 -5.609529082231769e-5 0.0
0.0002007974520193165 -0.0001367253347507425 0.0
0.0018239776691556155 -0.000202115085499635 0.0
0.0012438787422270584 -8.014468374484529e-5 0.0
0.0006809320181643973 -0.00035662390284913874 0.0
0.0013998710987142473 3.185129353895835e-5 0.0
0.001647852853177889 -0.0004517752708471053 0.0
0.002307750985017045 1.6805354060528013e-5 0.0
0.00013285354391880168 4.755783051641839e-5 0.0
0.0009750976774126105 -0.0001898204768488807 0.0
0.0012929088713167364 -0.0004719429205023251 0.0
0.000820582834174519 -0.00040724521544534807 0.0
0.000927829333736889 -0.0004463319683440897 0.0
0.000185692250364972 -6.790497378322412e-5 0.0
0.0016868035524140149 -0.00023574401209671986 0.0
0.0006830498279110572 -0.00019487721674580483 0.0
0.0009787916825112182 -0.00014531583224102753 0.0
0.000799255817259913 -6.907694368590825e-5 0.0
0.0009589427552444677 -0.0004396873946237469 0.0
0.0016898007495212682 3.9239804257389935e-5 0.0
0.0021863778619628034 3.0384403806953657e-5 0.0
0.0013821971145397526 -0.0003626156736662521 0.0
0.0011732228305051469 -0.00021559194921723463 0.0
0.0007549139513877959 -0.0002821509677017063 0.0
0.0012527811679628384 -0.0004897148257287812 0.0
0.0017662035038338473 -0.0001929001804992457 0.0
0.00016771477106605412 -7.351482561635919e-5 0.0
0.0021235873734187023 -4.0793504641606417e-5 0.0
0.0010097336933933638 -0.00044755961566361133 0.0
0.0010323225652273378 -0.00040591677325018706 0.0
0.00158025887680049 -0.0003982531995772295 0.0
0.002358099866931439 -2.804571072426489e-5 0.0
0.0008663109719222093 -0.0004194324332486609 0.0
0.0007537571098496228 -5.655365914401107e-5 0.0
0.0007726766658827281 -0.00016220330385919638 0.0
0.0014986312415387155 -0.00015526584088718402 0.0
0.0022879442426898843 -1.1946611866386119e-5 0.0
0.00020569403927070922 -0.00011980821693074434 0.0
0.0011939478463094471 -0.00017640217202458705 0.0
0.0020694524665505064 -0.000200243164085689 0.0
0.002281043349849017 6.2905565790021384e-6 0.0
0.0006563706689388342 -0.00013987802541784265 0.0
0.001033149623196904 -0.00045300008551288004 0.0
0.0022089378150001115 -3.472186230953777e-5 0.0
0.0004150749778877309 -0.0002266224433939715 0.0
0.0023249541158644705 -7.817828565962184e-6 0.0
0.0007369447999938478 -0.00039981774946638035 0.0
0.0015962262039251143 -0.00020157429862848597 0.0
0.0004377595780214972 -1.3629988315181672e-5 0.0
0.001468187275764387 -6.515130103178411e-5 0.0
0.0022897054327417473 -8.009971896394398e-5 0.0
0.001802307682431986 -0.00017597769279251627 0.0
0.0006517127517601942 -0.0003585300952421327 0.0
0.00047635029625189775 -0.0003003980515871201 0.0
0.0005825485941465553 -0.0002613582522701407 0.0
0.001909925859856776 -0.0003244191501413243 0.0
0.001772895078409482 -0.00010292510976895743 0.0
0.00037236414013482993 -0.000140030962973113 0.0
0.0009240222598550276 -0.00018465663989674768 0.0
0.001492241256089395 -0.00017220681991093108 0.0
0.0008890580750426679 -0.00020927757565221368 0.0
0.0022356199500447793 1.909036634664356e-5 0.0
0.001617148536152946 -8.547215757178576e-5 0.0
0.0009435926828848849 -0.0001501465781328182 0.0
0.00038046198030152405 -0.00013020091113400068 0.0
0.0017091678375821368 -0.0002048364584209994 0.0
0.0014121641081748086 -0.00045199206088223975 0.0
0.002005333713654066 -0.00027522792818366996 0.0
0.0007844248194601784 -0.0003982597416032415 0.0
0.00151522039422794 5.0327066025527095e-5 0.0
0.0008469473549398493 -0.00023067294374222585 0.0
0.0013430018581890666 -0.0004739846211106243 0.0
0.0019880097168899743 -0.0002104110091005881 0.0
0.0017689605698694411 -1.66541560020999e-5 0.0
0.0022354181223844423 5.1687819560708074e-6 0.0
0.000576209926419205 0.0001302071122461889 0.0
0.0021691000831102376 1.11999457280077e-6 0.0
0.0007446684409949045 -0.0002624799754505429 0.0
0.0019917907933872368 4.172005930532973e-5 0.0
0.0014034643830318967 -2.3317160768569268e-5 0.0
0.0016338792592771986 -5.7323502290202846e-5 0.0
0.0007034165499924321 -0.00018120419308171134 0.0
0.0016518845025005713 -0.00010299573777533585 0.0
0.0010823951784563282 -0.0004584514590585321 0.0
0.0006118038026815928 -0.0003358146801975759 0.0
0.0012561040322630417 -9.819527229520202e-5 0.0
0.001759714316362319 2.6537539394658896e-5 0.0
0.0010152572158899848 -0.00042541119065307823 0.0
4.4155969935131005e-5 -1.8221167642996328e-5 0.0
0.002300440815328087 -1.531224626168983e-5 0.0
0.0019884043078380927 -4.354266247054019e-5 0.0
0.0010016584974030962 -1.8724064478934388e-5 0.0
0.0023353243757956764 -2.62875940225485e-5 0.0
0.0006624659018137926 9.477863886278229e-5 0.0
0.001115750166129659 -3.8328270850449304e-5 0.0
0.0023779772119694063 -2.0195862679725143e-5 0.0
1.874945061834544e-5 -1.3653713035472649e-5 0.0
6.566540643737883e-5 -3.170020406334284e-5 0.0
0.0006774688982746202 -0.000102606044487626 0.0
0.0014043424102529129 -0.00020273577205187526 0.0
0.0016371890787405124 4.544325277143237e-5 0.0
0.0017793113099658575 -0.00035329810561164583 0.0
0.002309027330364257 -1.9260840196334038e-5 0.0
0.0001856687296464857 -8.385641162884789e-5 0.0
0.0004879395232097767 -9.719279832407659e-6 0.0
0.0014198696652119609 -0.00043128142776926136 0.0
0.0020590117892728584 -4.4108858762977415e-5 0.0
0.0005997860077527606 -0.0002619348555139715 0.0
0.00013287776952051995 1.7103887472662933e-5 0.0
0.0014475840839498287 -9.03242080301706e-5 0.0
0.0007143298294595098 -5.876585931280131e-5 0.0
0.0017375797333326146 1.2389832163573667e-5 0.0
0.0011003683790168208 -9.076385087219227e-5 0.0
0.0008806716547369765 -0.00021909874320532455 0.0
0.002091230365099966 3.808912333359271e-5 0.0
0.0021083218411415993 -0.00021246795027053328 0.0
0.0017098531218386736 -0.0004088475072968883 0.0
0.0005279476006194425 -0.00014999163168924782 0.0
0.0021858979721312106 -3.423372431049983e-5 0.0
0.00036772590133926566 -0.0001578800450739553 0.0
0.002211027382444366 -1.2982101592811334e-5 0.0
0.0019293878934814918 -0.0003193107745403556 0.0
0.0014317530872348962 3.376372116934489e-5 0.0
0.0015914036278350126 -0.00044625552485754664 0.0
0.0017330854505686268 -1.4528992522347972e-5 0.0
0.0010760867384269576 -0.00012184982086996207 0.0
0.0006050324205480325 -0.00032012116203559445 0.0
0.0009133062898767933 0.00014308933167308827 0.0
5.0315813945656516e-5 -2.703742345955669e-6 0.0
0.0022767531539981934 -1.8812788926178718e-5 0.0
0.000261458095224496 -0.00017576297228434685 0.0
0.0017303510694742742 4.851094029699912e-5 0.0
0.00043636845437040666 -0.0002698673407772382 0.0
0.0016011531321768744 -0.0001868293447918431 0.0
0.0004783219924577608 1.861934986793846e-5 0.0
0.00021534852360011083 -9.335782453625016e-5 0.0
0.0003154857200951897 -0.00021783033518481393 0.0
0.0002808832781068948 -0.00015137112456480609 0.0
0.0008239669959005459 0.0002002429548169447 0.0
0.00184366856936889 1.5188702292259814e-5 0.0
3.505752143004439e-5 -1.9187376912435583e-5 0.0
0.001973506966398997 -3.700106086226028e-5 0.0
0.0018424103878095653 1.3060838584399834e-7 0.0
0.0014424963440523599 -0.0001911697571334209 0.0
0.0010958660099038946 -0.00010297743020219513 0.0
0.0006218097363585061 -8.445647503268653e-5 0.0
0.001111506582623818 -0.00012699991051482888 0.0
0.0014509356416680115 -0.0003950650661811424 0.0
0.0007092634273441676 -0.00019583941282477757 0.0
0.0005455648630811608 -0.00032026019971690106 0.0
0.0019922390027102698 -0.00014288766932323623 0.0
0.001546645282498694 3.304439430177784e-5 0.0
0.000250835869463645 4.359353308085862e-5 0.0
0.0007135504435635464 4.467047354871412e-5 0.0
0.0015647297940116225 -0.00013701104693314873 0.0
0.0014495609560394238 -0.00047053772120109346 0.0
0.0009197519785553768 -0.00019434524709769854 0.0
0.0018351903921519322 -0.0003650278240527712 0.0
0.00016015852842720115 -0.00011086687191481951 0.0
0.0016053108913918748 -0.0003816527120828082 0.0
0.0007999887697604528 -4.214096072028135e-5 0.0
0.0022091092164720307 -0.0001416435093277985 0.0
0.0007749616411208553 2.1430026719070393e-5 0.0
0.0014479304968078007 -4.8837174768159356e-5 0.0
0.0012043916391363987 -0.00022722704434445385 0.0
0.001123970470725636 -2.9060146022847317e-5 0.0
0.001297642079850366 -4.91042243430028e-5 0.0
0.0013966639696020228 -0.0004709931785036032 0.0
0.0017939679961650082 -0.00037562181803986157 0.0
0.0005761004445149765 -0.00020558228881767645 0.0
0.0013617847576171585 3.4957560691029004e-5 0.0
0.0013254033217648454 1.9319951252354526e-6 0.0
0.00178995145228854 -0.0003237444932351202 0.0
0.0010836129874393144 -0.00011425078116927695 0.0
0.0011056584882174275 1.53736470673758e-5 0.0
0.0006002473497059047 -0.0003056183288662466 0.0
0.00219292090120085 -0.00013530059167777184 0.0
0.0015108767944634288 -0.00047977725994101925 0.0
0.0010171793690404284 -0.0004136891922753318 0.0
0.002303116181539139 1.046960528310641e-5 0.0
0.0010020904315432315 -0.00036887287854903383 0.0
0.001802080509034005 -2.8889492980817844e-5 0.0
0.0006193245958656194 -0.0001305996616575851 0.0
0.0015477664703157322 3.505851591033616e-5 0.0
0.0004473653503035578 -2.9093344339399158e-5 0.0
0.001002323675346686 -7.760218627386133e-5 0.0
0.0008019349353743775 0.0002578482516846526 0.0
0.0023462289611282483 -1.1860882314824948e-5 0.0
0.001391777085992121 -0.00034880388567757627 0.0
SCALARS damage float 1
LOOKUP_TABLE damage
0.5763694065445512
0.4297425619338313
0.8294540471388371
0.28804334212028204
0.9844015666014821
0.9959093723630132
0.1870228359186994
0.7742215094557282
0.7756204723926188
0.7896974272224098
0.8148177343001616
0.832635462025237
0.8536946378506818
0.8738853310520572
0.8828395187040675
0.8846220933901265
0.8779007183375718
0.8693216225833327
0.856831561783506
0.8423792846650136
0.8287087226491057
0.8216922938731782
0.8084589323676371
0.7963809942380009
0.7880075055985339
0.7782666043429187
0.7640068467068688
0.7507832015003068
0.7322133443406625
0.7134582603469962
0.6838950470344624
0.6472483908824995
0.39825243025357104
0.546555698711756
0.5658031370489774
0.59687882205772
0.6170210343839174
0.6304193867060219
0.6448089435176549
0.6535349671186289
0.6627442079311606
0.672032783700662
0.6785996674716396
0.6854351856899643
0.6941960076564616
0.6986684359865973
0.6983186486751608
0.7063237777080148
0.7138845753832441
0.7232942771100572
0.7281789264937282
0.7347073667653847
0.7398171305752428
0.7496409399001318
0.7503571877925254
0.7601459285876251
0.7628504314147815
0.7705961179855664
0.7758963993394361
0.7855602557457124
0.7862112568043192
0.7954511151158912
0.8008322509814016
0.8088105608836109
0.8143484596662504
0.8179992270092872
0.8160436253245499
0.8158601454704955
0.8216395962556359
0.8171852717718319
0.8343142096938018
0.8396086517066832
0.8405748046902108
0.8606111285783703
0.8663571413941358
0.875027821092332
0.8862875328364985
0.8876278675857547
0.9023800220611587
0.9047087698245618
0.9129287818590832
0.9184855433208124
0.919887478695451
0.9166563575225116
0.9288044274240957
0.9329613197806944
0.9513125939371867
0.9511395501851545
0.9663694825962669
0.9727708655413313
0.97718661584809
0.9818876113926782
0.9841055293410801
0.9865696252966164
0.9868626572728633
0.9888882529226681
0.9873600543689852
0.987358420247959
0.9843714788527471
0.9795602419787662
0.9764128411759421
0.9742103133509518
0.9677753114045636
0.961191635110598
0.943668483852622
0.929235069361687
0.9194173332655936
0.9051995896073236
0.8989586899944718
0.8838011076306741
0.8691229828090522
0.8499185065697824
0.8545196870287775
0.8320353285702842
0.8253157488016826
0.8061331046706485
0.7928008960152028
0.7812287278493052
0.7624016959244978
0.7488364654094415
0.7395336461875002
0.723858811504249
0.7033995685900117
0.6798754568912841
0.666356325649283
0.6484440402245949
0.6302612261537518
0.5845378703690025
0.5454284475940615
0.5337730142563649
0.3792580644239721
0.5035704469554143
0.6021981033634501
0.6929922935007466
0.7264345582083197
0.7438135795124922
0.7526204535257777
0.7587261529226472
0.7630488774031333
0.766658089411638
0.7727834254902571
0.7775466145817813
0.7811164046125608
0.7842553234497226
0.7863545953910717
0.7864852823675018
0.7849591908460017
0.7815000525535375
0.7796261063598076
0.7772834717965008
0.7785519729309726
0.7833387014467889
0.7907971035064558
0.8087413251757114
0.8390774574102298
0.8863100387275601
0.872974436114563
0.9832400627637047
0.9978668270355302
0.9962533129892562
0.9931561789758477
0.9971704548794732
0.9622159970203102
0.9067345444490902
0.8390035031655045
0.7697782835023321
0.6954901982649689
0.6372646362218534
0.5677919070432274
0.4912722915556824
0.41096288747681986
0.3661476670645176
0.0990112120488889
0.25650962054288906
0.3782455357008213
0.48152186398160157
0.5751419061376308
0.6730638567553601
0.7531819264055086
0.8346147865426805
0.9104548047297084
0.9583408402991893
0.9971182215901625
0.9930680640527887
0.9965101568245794
0.982642322934655
0.899272834122912
0.7192586885251345
0.7893176215075103
0.9681086466659586
0.8283650289681699
0.986286848219925
0.8701408799349439
0.9550828330007178
0.9169019678259007
0.9116340822630917
0.7528169899116294
0.8518495273824405
0.7206137458696921
0.8347287237784647
0.7829643609533229
0.6343930676240987
0.6530425158672649
0.21019521385517217
0.5491938734368247
0.7866011906763022
0.694083846215103
0.794352610133226
0.7743820772088161
0.774936362608376
0.8721688404754205
0.7312894926124728
0.6600472940736171
0.8240487522354912
0.7663075352283287
0.7675392928068534
0.7540340258470317
0.8359907825102657
0.8986731115893826
0.978867660988369
0.9209020535285375
0.9839092519725737
0.941288034721771
0.8189182297864462
0.7707142368727259
0.671735956039519
0.6278102354259827
0.7783428747215128
0.8633838415202406
0.7222623670190619
0.7190328835833466
0.9332269953700087
0.9180725144823482
0.8094340872368528
0.7996392181158578
0.8152286503697768
0.7827891205193566
0.5752690720415481
0.4005120945983032
0.5709587900636508
0.5932607179129251
0.9758391890089537
0.9388423890823689
0.8246224528890963
0.8029498903591418
0.9696312007790459
0.8875232055641938
0.7403750820805601
0.8283927404215866
0.7072148374133167
0.6770076501945239
0.7561836465083138
0.906826388802988
0.9646856157833739
0.6612597031259282
0.6684898025774264
0.9920615967889709
0.9942940981956769
0.7354124679495359
0.8714453031528164
0.5157621306238536
0.5344342749639568
0.9958978098828172
0.9608370784959193
0.9097262892009214
0.9103448680278602
0.9405145345556198
0.8946261761708038
0.8636674100896533
0.8444751143058624
0.8215063760431145
0.8021111136632852
0.8202955641535209
0.7832901117655882
0.7959008311262168
0.7682444517679248
0.7796602287454857
0.7627065039760806
0.7394223460785656
0.4818325980003905
0.6769635351251173
0.5230250473868489
0.6878474330687093
0.5884157576350368
0.6907755715713494
0.630596563893417
0.7008936363368449
0.6550489344575323
0.7052305857843962
0.6782302135288093
0.7169273103501714
0.690963193223044
0.7226524331227384
0.7052105388534342
0.7297543863755152
0.7110447698877548
0.7310022811815979
0.7182140935613044
0.7345356169438908
0.7264247277594725
0.7395984551477682
0.7346341683598565
0.7471694489183743
0.7431762336370115
0.753313383311607
0.748989300405572
0.7589783576808384
0.7522208026171249
0.7612663184310208
0.7597653097563628
0.7666363589114836
0.76738136438924
0.7722479886436523
0.7714393426157454
0.7768730625093815
0.7779981819932024
0.5981599740396797
0.7832407197546266
0.6998597343159043
0.7542700181219361
0.783781418668776
0.789061787649631
0.7891468267655161
0.7838934793833122
0.7892407981704436
0.7943643798561117
0.793694646638261
0.7662921858673539
0.7991675504220688
0.7979851914267709
0.8030121334853385
0.7833843602220906
0.7888941048706294
0.8014462306136507
0.7828812813421995
0.7882923841968584
0.8077905328759201
0.8062416711969678
0.7824598595704698
0.7883962959753001
0.8128722195629142
0.8112438370057958
0.7810557456129182
0.7861385879232177
0.8182923293399915
0.8166598312699158
0.7789018928212484
0.7839088399338171
0.8240047117477686
0.822085231472191
0.7754807616922541
0.7828078618957037
0.7725419306060451
0.7648079965201277
0.8254708856082922
0.8296415383223252
0.8268131678633405
0.8183773767156612
0.7462721597845722
0.8236779221860352
0.813634389561519
0.8187246256639817
0.7808459675211004
0.7717816561534065
0.787616092325282
0.8347212582429215
0.7776402649341658
0.7674716315010132
0.7454475122213141
0.7735327720271477
0.7637612382353974
0.770443561814245
0.7598594852600726
0.7530811866981564
0.7482591041145588
0.7423669281530877
0.7670331732681337
0.7408439399149194
0.7331218225493689
0.7770519747019112
0.7738161666748604
0.7311461418019516
0.7236750127905965
0.8098544148828228
0.8139493615678034
0.7822032396471118
0.7775120969122021
0.8059521709987837
0.8106446702948281
0.8201290019442931
0.8145138144926829
0.8273013002266262
0.8198045660373865
0.8328685088718633
0.8244590941099983
0.838976429860797
0.812631325406019
0.8277398043162502
0.8447057333545737
0.7865131485623914
0.7225547379866063
0.7154391419661346
0.8535107250469796
0.8607942239267317
0.8507906492317471
0.871293315132762
0.7821832653802121
0.8683480141738056
0.8580127333694603
0.790983925676399
0.7871520620625724
0.7788322178346074
0.8765687061519425
0.8666756682818051
0.796446350122861
0.8009322703860696
0.782810986429349
0.7737348281471582
0.8839674769908654
0.875215843284935
0.8502864241940737
0.891802363325746
0.8583807080982996
0.835784441863695
0.7150003007916962
0.7103198299132045
0.7090807553666149
0.7070964655618927
0.7004577877324136
0.7011496554472205
0.6937100301808498
0.8061086698163958
0.8100355283184617
0.7777115756842451
0.7687172297556373
0.8823473834292197
0.6991337500896724
0.689066596938041
0.8146250619534813
0.8185840510928184
0.7932079631247885
0.8645566669848257
0.7545670257305269
0.8416553613342541
0.7319574863173008
0.8027553360185881
0.6997777214083347
0.6897872318246384
0.7735489484839364
0.7651824585347471
0.822988943756304
0.827007232886785
0.8878173211879661
0.7126138103574549
0.7167218176286049
0.7078731031756734
0.8674340037149065
0.7076958475455806
0.6934296374841634
0.8186734011022971
0.7687301462571458
0.7602005671289491
0.7989956694454072
0.7991617583486309
0.7948852962457693
0.7968540209995322
0.8312379372695154
0.8347710800548782
0.7739635787899675
0.7154868079288568
0.7089044673016328
0.8903758494729725
0.9025826034431134
0.742519424264216
0.7315956520090827
0.873535868170512
0.8488409599822498
0.7673814574963087
0.7776530267348186
0.8393837024429543
0.8423472983316417
0.837640827292656
0.8451742783633294
0.8402952328259659
0.8476803707927582
0.8426781633094367
0.849588051094999
0.8443983073690488
0.8510592836522137
0.8561552971872045
0.8578606930164641
0.8629430277374555
0.8647552681724607
0.8698512995619421
0.8717678548965355
0.8459298006615279
0.8661650380227187
0.8734971754481934
0.8794418654978101
0.8813372535000222
0.7136447752347134
0.7168379017460014
0.7643232193614157
0.7564795053832647
0.8750070846360617
0.882782709872414
0.8894766606723531
0.8909162993787829
0.7153514303214972
0.7170943122255444
0.7939259048815549
0.7985651352855173
0.7966652025782387
0.8926680132479237
0.8765164401861354
0.8471395679859481
0.6793815882756462
0.8092794636023095
0.8978522517403663
0.8990439249315272
0.8921747370122958
0.9005321192209683
0.7992716884698021
0.8038930407318099
0.8051129007589706
0.7607104033070655
0.7604579468010702
0.7523838157391866
0.8031596178472563
0.9068864130390858
0.9086864696765473
0.9014141229241202
0.910507300483214
0.9019149866207894
0.9105926871104553
0.9192037433357739
0.9189881903347011
0.7913885842829297
0.717053698135123
0.7167379166152453
0.8445235932161037
0.8940251905306801
0.8804555901317271
0.9264210932950578
0.9277663012154437
0.7828531565435314
0.7572357551144153
0.7484416206417884
0.6945468627427077
0.7567781632815772
0.8518671948039925
0.8077999665326455
0.727073498798309
0.8942341289211926
0.8808713625412418
0.853535050847734
0.7918952493251544
0.898543813234498
0.7189434272442977
0.7620942132183478
0.8135145516851138
0.8138768585900688
0.9015725826661782
0.7521517874497011
0.7434130145758773
0.7188671920154434
0.7175331096875789
0.7607235932492297
0.9352067289517093
0.9349879408383555
0.7397969732362827
0.7353837488611419
0.9343937317324474
0.8486384232111767
0.7380038095678638
0.7304851750619947
0.8353700164018818
0.8552447858326435
0.8255064840950245
0.8802593216894473
0.9425015410744565
0.9419049355954467
0.8931600853397823
0.8922897481882551
0.8559157942560421
0.9336555520573726
0.9399185654412185
0.721177596546553
0.7184890600619585
0.9486952608326854
0.9456725901655335
0.7327185355692936
0.7251128361927005
0.8240211544219718
0.8286380892227857
0.723552954157038
0.7185156093029134
0.7191516418225242
0.7129941709570816
0.8554341795451968
0.8770689831475176
0.8039266091397658
0.8213820097504749
0.7946196326940989
0.8523352362932559
0.9539730305050889
0.9499173951085701
0.7727777688812854
0.9310677584008188
0.8676516810085717
0.7130046577211322
0.7079754343176619
0.7082361254378097
0.7023824024667443
0.7027338879932243
0.697868939185012
0.7005189228153147
0.6960857369912049
0.7017594220739848
0.6973412378929057
0.7049151612037036
0.6907911020179545
0.6949919701044949
0.7228242246999874
0.7272368072968589
0.6819481410320638
0.6877167284912956
0.7819588966840662
0.7347867948265836
0.8841810881417611
0.8829968385531313
0.7182185108973034
0.858542693411451
0.8610569598272024
0.8905315357420387
0.8808518563493835
0.8558436997093555
0.8691043489973974
0.8724878327269564
0.8164410017573241
0.8349506069966762
0.8442979429671518
0.8467166819378761
0.8395600412539495
0.7012528761327631
0.8397721447892489
0.8506071987328522
0.7377339463125385
0.9573779730322504
0.952177686933788
0.9454898722978041
0.9469239464643696
0.8087041854712166
0.8249869787695645
0.8137830257115035
0.9606027728114963
0.7765895322902351
0.9520181325881767
0.9459086452392216
0.9405585514918768
0.9398367907473748
0.9352741752117357
0.9343809330852717
0.9378254615327245
0.9316828204798981
0.6773632493536896
0.6808965769355131
0.6963577570427346
0.8616236803785334
0.8661356080465393
0.8409780735608827
0.8335721600095647
0.8583632739947638
0.8571335088782884
0.7962228657300242
0.7851311366732378
0.8345726329320473
0.8359770650217326
0.6748222393200375
0.7860919100941385
0.7911219135013721
0.8583772381236134
0.6959438889934352
0.8164534689736564
0.9344191898708104
0.9278317924136106
0.7597086129433188
0.7534867408259871
0.8123127904234438
0.7169982967604998
0.7307774244341386
0.7375932007734054
0.7083001211213585
0.9504257988266209
0.8379815530728889
0.8962899437377503
0.8006149019342202
0.6692064335890922
0.6749332949284956
0.7411581833292602
0.8880987446949693
0.8776523819927866
0.8469590497425807
0.7582322786488627
0.7533100578259784
0.7592821615829309
0.7549736192289924
0.752550576409864
0.752073656686479
0.7571999437826039
0.7532293437328317
0.7614709012803619
0.7587316885550799
0.7667038232388756
0.7634189214386912
0.7729805086366291
0.7684363079721424
0.7773959285705873
0.7768193204363865
0.7741380804260075
0.7517371530328195
0.7321613524109202
0.7357432080834715
0.7438523024799226
0.7829084329241569
0.7788821737092149
0.7854223699228361
0.9046872521040813
0.9031678880521801
0.9112137824930324
0.9099062677900436
0.9172722760324065
0.916060107409875
0.9083190749489575
0.9140035905209452
0.905524470533966
0.37856561411071143
0.9232724978553134
0.9244015734052056
0.7946190444503938
0.8392209428888318
0.8407282990355301
0.8339391651770282
0.8351704981208586
0.8283534934513146
0.8293939156348419
0.8360069846139316
0.8302028226962833
0.8370673009328251
0.8302742336283715
0.836899783666278
0.8243439966136208
0.8224946634985745
0.8214315914204832
0.8432705982097672
0.8435314673491111
0.7386745763162526
0.7655773657232537
0.6540594617087122
0.8762394860946936
0.8212262630233217
0.8174939311311225
0.7443900991079446
0.7555859438678675
0.9340932137959033
0.8294446352137894
0.8444032034313775
0.8445340547794425
0.7770539727625471
0.835331343987061
0.82750109628829
0.7506899970542376
0.9099350265651267
0.9011399838396863
0.8252707135500732
0.8205514823323102
0.817405077530268
0.8137204438482317
0.8172201068676397
0.8103755051499358
0.8153554122925076
0.8080003215525839
0.7033688447312337
0.7925546570242719
0.8475383204662803
0.860617050478457
0.77018622099941
0.7533197720136918
0.7673268203402769
0.7580038219257216
0.86684989413699
0.8704652948985855
0.9628872543311195
0.7051024082552014
0.8091787049363062
0.8579881459154617
0.8765233721428579
0.9289715805822597
0.839305123392673
0.9252772066702718
0.9203980307778593
0.9227889364496897
0.9142464631811186
0.7769744926192683
0.7110131145212697
0.8301990000650096
0.7686594272792999
0.8633285963634741
0.7468601501808446
0.7519604136490554
0.9661351172670459
0.8100137300708522
0.8745672317784643
0.8758791181565079
0.8266881241516414
0.8269050730001827
0.8366017788495551
0.7942506224383457
0.6584652998132631
0.6665602447804865
0.6871837675828656
0.8173020294843931
0.8370902665895914
0.7998173849624148
0.8154364671618141
0.786368980279276
0.7830037618629924
0.8303888104833521
0.7997025029728482
0.8378562943116303
0.8349720900012524
0.8253910142236731
0.8138063519027339
0.8239578944193692
0.8957681707229342
0.8034660558975296
0.8000437960913209
0.8050306799358973
0.7972121964521616
0.9153125662787236
0.909002748044551
0.9086096341741946
0.9006621810480369
0.8703498188002528
0.8661439905201961
0.9297992054856195
0.9310180330244855
0.8152156946086742
0.8145788215385233
0.8609187449965089
0.800830152332547
0.7931982761608303
0.8719155948232243
0.8629708878556547
0.8758764210861498
0.8649699540288981
0.875009551380378
0.6559319907046576
0.7076963503403703
0.7123468710473256
0.7436664804036738
0.7522508283782975
0.7437231694404098
0.7624400770476696
0.7528892922502456
0.7733113502497682
0.7648496312292158
0.848040938706843
0.7920417104671631
0.9259702401652417
0.9627568628471322
0.9692534350909873
0.9650441045759082
0.9056138710283396
0.829451442934967
0.8993049400226993
0.8224049669776982
0.8031745082098397
0.7868556995757441
0.829041608680803
0.8689092847114982
0.8693739583936178
0.9180670868334858
0.8969906527679009
0.7207403975350607
0.7759000434932491
0.7799486542061267
0.7843131158225527
0.7801997538907574
0.9001644442938188
0.9149491435185286
0.866775037486214
0.8524788107753493
0.805521241548273
0.8847635435937468
0.9247035413141199
0.9214441387366299
0.854604404137755
0.8697672098491719
0.7552971160870086
0.7607390682418246
0.7875664690711949
0.7800634368114019
0.7561105868797376
0.7718941495178032
0.7971468816656252
0.790143146575569
0.8147350182459866
0.8091254895890386
0.8303452689616696
0.6493009053979284
0.8684178399222865
0.6597825340545815
0.7420378087394438
0.7863569488313843
0.8471930913315048
0.865832124575256
0.8931392805859878
0.8254669183742069
0.7057586890247489
0.6980466958444581
0.8090160789552945
0.968396650330681
0.8378409453007944
0.8897577529660204
0.8032464276665758
0.8195933476919557
0.8125961513090593
0.8171591027969146
0.7472301610734944
0.8104010293919464
0.7355227746714098
0.9360647484551098
0.9376203831012386
0.9330916455973561
0.9400799341882158
0.9277054834842365
0.9173485783788319
0.7753927441044258
0.7831660536525844
0.8694962619706295
0.8867608567451281
0.7339461264375464
0.7974317506298171
0.7893460002539692
0.8002669148166746
0.9075930846260971
0.8404936647136331
0.7854101561495238
0.9454805389821764
0.9487251120229968
0.8613009969298342
0.8612447493124193
0.8534889265375984
0.7928631072044376
0.7115958869625411
0.6378593288065679
0.9345879830911326
0.8424514240135453
0.9013591063075116
0.711561826820565
0.7617322187493317
0.712250264045871
0.8946827997566128
0.7370408743824803
0.7302235690654367
0.7349148318502509
0.7282291416896826
0.7318782952047008
0.7240808609329021
0.9713521818166252
0.9667367273717338
0.8341004682598049
0.9096415708439708
0.8747481850068021
0.8718992322033184
0.7626314958632884
0.751100645320027
0.7401731568623683
0.8254723742033082
0.8075071195711907
0.7486841166529428
0.768325022739882
0.7659073724599413
0.7707215461272823
0.7583116255503698
0.8100706353132922
0.8363109493430108
0.8765771350404292
0.810596652117528
0.9338333304350679
0.8348494988802728
0.8014328909416403
0.7809109460196695
0.7666732694488154
0.7923933877838526
0.8588263744462443
0.8551352570954412
0.7132147435078976
0.6995131781859063
0.6917444082006368
0.6920089877896337
0.7381475930741178
0.649940319256717
0.6774696122463976
0.9542978931750774
0.9556607298038141
0.9487044877932787
0.9094636741974841
0.9134090123554092
0.8964617658265148
0.722431835098982
0.7197405736050723
0.8619481032401344
0.7772785088615614
0.7781926607923499
0.773616493756118
0.7698490405367299
0.6345656297702558
0.8035587657791365
0.7991645158602964
0.7911823816788819
0.7850277019458574
0.7788746999099265
0.7918260078722358
0.862347573054249
0.8089106565141967
0.8092793743177418
0.6939861042164985
0.6853899601005307
0.7535118188523994
0.7535486097733742
0.753289179059979
0.7580076336315653
0.7623853649260269
0.8929319621465314
0.8884264034424273
0.8980284238979723
0.8579537015249354
0.8362987393489287
0.7369831663727446
0.8499858058416163
0.9741089372247703
0.8391516379606573
0.8984430254234704
0.7856268025395402
0.77640918120448
0.7821784185271183
0.7776416567712588
0.7824961001090621
0.7809031486638134
0.7850766507808313
0.7848274067307439
0.7893465061319783
0.772475417474636
0.7803593305485272
0.9745342174244933
0.7641444608394361
0.8142882903195148
0.8066970317590709
0.8283345606152563
0.8071990862199643
0.7732079350284983
0.855725651996586
0.7720749762342862
0.713011567214684
0.7418144231976749
0.7677179532321549
0.8022648699268791
0.8016075546607603
0.8152672932846841
0.8076260156219239
0.7167576481245498
0.6227508034884173
0.7607386484258718
0.7498246991395034
0.6390328601268257
0.911715537381374
0.9063042960358162
0.9122104079450266
0.8998323659830196
0.7857032231845031
0.8564869885947727
0.740941341857852
0.854157864304796
0.8465491088177333
0.8045919915541047
0.7830647998189288
0.8403919401036792
0.9402733868410854
0.936122449336754
0.9432419400439717
0.940301233816444
0.9467797568136335
0.9503343126638029
0.9573632169706731
0.9586261394413883
0.7884323596862299
0.8945808993777846
0.7818835464976838
0.7353708638052049
0.7439451667269575
0.9341777703500368
0.9379559129424879
0.9294858120353173
0.8466281300674591
0.8647222861240786
0.869235591782008
0.8750772643409067
0.7877379366863253
0.8629133221388994
0.9278965925435365
0.9087174184701592
0.8856794228586523
0.8787848921834955
0.8889113456799793
0.7374911412885091
0.8220962913028184
0.8198705016404048
0.8260469587793505
0.8258723325728534
0.907132176187034
0.7454122768267519
0.7302130076747095
0.7822433040890668
0.7994657883883609
0.813512072434081
0.9663002928878752
0.9742929594943639
0.8616842463300466
0.7592523616944795
0.7323354025958594
0.9274950698441069
0.8837721655994253
0.8373081994124612
0.8072967960675215
0.8935846606715347
0.9217249335560369
0.9247277875959755
0.8609070221756415
0.8859423609690631
0.8857361386416606
0.9525326937804031
0.7999733936639806
0.8321513042691149
0.8647245929620663
0.8770038789550009
0.9403959726791707
0.7748101212686845
0.8022356024867794
0.715235448017765
0.7599851558829321
0.9332511596034043
0.7196404126143747
0.9013269958208392
0.9125158272119089
0.9551129849517892
0.9579174132671288
0.91856279156657
0.8493679124737099
0.7698251877299273
0.8715977907851699
0.8411449864507834
0.7979839161093533
0.793736179242239
0.7791960048376751
0.7290998970288853
0.7398844554606696
0.8533631441541781
0.8486794724868287
0.9037091746484958
0.7100130213742688
0.7191037916663847
0.714827410623292
0.8980313355608891
0.8540702129955666
0.8619886079596483
0.8134621721120908
0.820678999460037
0.8245224237232515
0.8234831831393538
0.8401066034102657
0.8151987482387288
0.8051658396346425
0.7964863589081294
0.7856188923638232
0.7990942086722328
0.7710727230582327
0.894226346253736
0.8213723174359026
0.8309470412334249
0.9612192380755012
0.8261233590815245
0.8299961014469562
0.8208546224639809
0.8157972113963285
0.8240391357188609
0.8121285786481592
0.8122118187763665
0.7378646709935166
0.7358098246896873
0.728884696261482
0.73269945294248
0.7395098842294461
0.7350737375717554
0.7433584004993248
0.7948167184790597
0.7399685352318122
0.7477569196875999
0.8222089054438739
0.7231511212760807
0.751920459415364
0.7263554235158811
0.9121046877648034
0.9168391317561957
0.8938621241451552
0.9002326268801066
0.8357272622210119
0.7684312828706334
0.74641066118141
0.7131492887662589
0.7112043364597047
0.7142721509146249
0.6473392099435791
0.6522405492751254
0.581254067866054
0.6055440128384338
0.563154133105057
0.593626449338148
0.5778185740399676
0.6010686820333065
0.6009927755964899
0.6160869519266653
0.6274908948438782
0.6336878220254757
0.6479266154581276
0.6535384127919708
0.668825029916111
0.6728593483050294
0.6881127923391326
0.6906189459012777
0.7052746056250476
0.7069327605006109
0.6916339530363403
0.7070706161585567
0.7235060815745853
0.6432622609733363
0.7053598259439996
0.6700035791393189
0.6638243925490843
0.6179332143469392
0.6939631269422337
0.7080504294547781
0.7214051303914348
0.7214258401555268
0.6224154728629037
0.5573004778588015
0.6787554739670968
0.5543260205529639
0.7341309857427472
0.7330938129996002
0.7206701495565734
0.6838142954605723
0.6697997458518619
0.7351568574915939
0.7469596757781958
0.7488015601154766
0.687122677685992
0.6190221706087383
0.7318257389016113
0.7211604735625788
0.7105663351356828
0.7110510434750471
0.9376134166294336
0.9307944561051529
0.7727496817530939
0.9288532689152893
0.9371769428207954
0.8121376427364794
0.819400154647129
0.755467827498686
0.8583951625514232
0.7437640161982244
0.780531878924493
0.7781519811203946
0.7808831246178386
0.8435363430632105
0.7844718702430457
0.8222129487366749
0.8203780766903142
0.8168164573851663
0.8008374709311119
0.8203083547275483
0.7899296134210239
0.832352553202186
0.788704951985817
0.7941580683260773
0.794758890894745
0.8052099361708295
0.8120848281537957
0.8062738612105027
0.8124109377033559
0.8064875647107485
0.8124944696025421
0.8066663005146629
0.8124277813332623
0.8183016234583952
0.8171679563976583
0.8454646056957388
0.8390636879382338
0.8393654522312128
0.832711154671369
0.7182176273607429
0.6889046036055202
0.6812146954918457
0.6774827452233163
0.672314327146838
0.8557364411523739
0.854991675404762
0.868066069510055
0.803533984621481
0.781101132888395
0.7766354811878823
0.7773450028553639
0.8066587723092409
0.7719023830556369
0.7620231647556116
0.7693046747298307
0.7583467695785604
0.740033418220695
0.7483503457250019
0.7288594270764899
0.7344701708999822
0.7578777518132721
0.8544051882651683
0.7320677609710464
0.7036120474388758
0.7577561547518245
0.773413528466271
0.7948558236673668
0.9190879736113807
0.9194916326985865
0.9129001583001645
0.8639881068565437
0.8353192710056082
0.7747529719640084
0.6007226221991727
0.6013654771635368
0.7222978341325277
0.8014901043563439
0.8185500008143867
0.918067105810626
0.9271468161472312
0.8287567275228553
0.8386689643883645
0.8463099492381736
0.8737318354569964
0.8651487857113396
0.8706836245115879
0.7944468106413632
0.802008548062641
0.8114705616777171
0.8006319497875556
0.7185997044629443
0.8012175760320579
0.8012967759515496
0.9326316523085146
0.6745053849699919
0.6644108486862809
0.6662598969895163
0.6584539734410172
0.75504849884257
0.776998862555262
0.7766705285162205
0.8923539491890983
0.8018910768078014
0.8569079420156186
0.8500761631569586
0.8410793405336331
0.8311794849332309
0.8274548819689643
0.8360088146866371
0.8192013325494008
0.9032629176643202
0.9034070423088513
0.8918024421566391
0.7422976028775794
0.738554801014286
0.7188680043168598
0.7234339101998144
0.8273337740909368
0.8210181905301934
0.7234371300924453
0.8573352576014999
0.8340354669744197
0.8274126872349375
0.7541023424339123
0.7597397957316017
0.8933442513864314
0.7256219321518238
0.7278809443184143
0.9186846085812727
0.9590326336539633
0.6958273238116605
0.6994489548618796
0.7419768787796518
0.9128892708730675
0.9067766009155411
0.8763483516225791
0.8252865309043126
0.9143934320882089
0.7902377522125618
0.726887760707834
0.7881397327789231
0.8760011611624007
0.8189717348279528
0.7147880770670887
0.7873901899797215
0.9100806518282591
0.9146869014176766
0.6200685657950405
0.9647009681073688
0.968269905676798
0.8393719102338157
0.8462898896300323
0.8496118878875766
0.8540655070986672
0.8460146211784009
0.664175028109104
0.6592382696795114
0.7299727570676134
0.8640975150980984
0.8203470989659272
0.8721597488487565
0.9263120820567141
0.9366285451180105
0.6578708810931816
0.6482376471028558
0.7722543303279149
0.7158958833725524
0.7109357670950017
0.909226891854172
0.776616992732089
0.7464962766451155
0.7917223455475573
0.978126583872724
0.9783795247303042
0.7567778895047879
0.752714780523097
0.8562793121050319
0.8782813715468992
0.8062010654061248
0.8007896779364928
0.5738194667991646
0.9765239984096227
0.7998126484704238
0.6796576901180177
0.690189475821531
0.7162182437128365
0.7927662303694192
0.7592395466233685
0.7502789478781721
0.7607139784098237
0.7536666363165127
0.7626292808406849
0.7549086845395652
0.7455395573062599
0.7446827351184282
0.7327941635609353
0.7358705848676234
0.7653543150715968
0.8357585111046806
0.801250377286926
0.7975966911496634
0.6341831399411373
0.48251761009189875
0.48152024960388573
0.6152905819429033
0.5356968193886235
0.5150922762825515
0.5006259294338299
0.4710058519273346
0.7231148376697027
0.7138024382420036
0.7744180750128395
0.7679941882002628
0.7751061165383832
0.9530948845344149
0.9627728318138106
0.7750476456449022
0.7778385006897158
0.7709871608573162
0.6870936670059234
0.4213927687076875
0.7470998678443922
0.7361599923919127
0.7239405280763859
0.7277038390927648
0.7112216474968287
0.7873054360387939
0.7876232943176432
0.5536518984347512
0.8806164635481779
0.8992195761253758
0.8534998863882288
0.7884117671639805
0.6992413250819813
0.7014054267835771
0.7594068991792099
0.766774731445285
0.8863506546505066
0.8750522163886975
0.7813427566960764
0.8601964864521432
0.8643182278743519
0.8739969967096365
0.877782624079701
0.775355051958768
0.794141597959202
0.7772442113591714
0.7645398511330276
0.8264187858383445
0.8204307748025984
0.8835725080034347
0.7237811556908053
0.6738697062573131
0.5859185810020248
0.6110119303913365
0.6387854431404802
0.6451085153165279
0.6668442631618479
0.618895078934033
0.6676600940284281
0.6884445880537597
0.6573085438075479
0.8245419413489109
0.6861771368897246
0.7782221735372135
0.7572187115797653
0.8799557044832722
0.8847265029599826
0.5791912792442754
0.5870003283972464
0.8389747771934731
0.9543347533603398
0.9602970847407757
0.9644599760561626
0.9666561532327891
0.97008413832081
0.9726723638373
0.7734050918970674
0.7844887390955264
0.78773140223179
0.7941998112593776
0.795365189214252
0.7985894452527623
0.8009289538998599
0.7976603110032646
0.800273594688924
0.7990360193051805
0.8005134160601217
0.8065525859102438
0.8077222006942075
0.8131378896545154
0.8002129811662044
0.7820446067962653
0.806842283615654
0.7833947305910377
0.7978258996126696
0.77882325256414
0.657263631028302
0.7132766260116418
0.6194247884074121
0.6262807208544975
0.8809634867940653
0.8469199474201378
0.7793511670587762
0.7674057396645778
0.7709705376755677
0.764768832203469
0.7713270933207556
0.7664998744139735
0.7698896087430217
0.7647483295365498
0.6463609008791835
0.8364554476894506
0.7691051365156881
0.784182797121109
0.8349309784543162
0.82922054745764
0.8540917093271306
0.8023782056609033
0.6674534709952661
0.6698544883532523
0.6788897806346782
0.6830739778678204
0.6905460640296606
0.6887974056621902
0.8580315552276278
0.718453255862557
0.7167846797102984
0.5461696189975868
0.8064106038089011
0.9643650250137009
0.8133138447896671
0.6876698181780081
0.8025123663964183
0.8027457363602049
0.9618856807326917
0.7806631874333124
0.773258222855559
0.7757494735385557
0.7694422956949132
0.7722673771146896
0.7665554646665591
0.763278463367217
0.7676357311632354
0.7840633457085531
0.7680683520513406
0.7670312877635971
0.7790153368495416
0.7620662793594682
0.8808427158980427
0.9439640029546571
0.7530859932732443
0.7445777217596277
0.7527807657736882
0.7640179167694126
0.6784030686169547
0.6613715950092851
0.6768111044330334
0.6592009958092189
0.643491225359169
0.6402437937339717
0.6540807102801497
0.7017915671500361
0.7536930102971214
0.6733115083448716
0.8535632325283282
0.7737390007155048
0.8589048046079325
0.6986600940663408
0.8728321618692086
0.8312359574579864
0.8373039221914286
0.7385704350543061
0.7912045196452342
0.792228209517819
0.7728705005045597
0.7632986815410991
0.7334618067170511
0.6929121660432866
0.9617439665206887
0.940448262428117
0.9773062163969589
0.6579957731708381
0.8429457005656292
0.8590300200207689
0.8746699462425439
0.9190746731800254
0.751739009121923
0.7787623475481218
0.8255711244394014
0.7081992583187602
0.7134602853317262
0.710846415835037
0.7200890765129421
0.7762984615637305
0.790088775162154
0.7211139910488353
0.7366467559081682
0.8453101027286066
0.8690210691967671
0.7426886161831704
0.7774332044650913
0.7555049658269416
0.8249954112430362
0.7973685543086112
0.8678426177317106
0.7156509820407813
0.6147583337383438
0.8486562681726632
0.7197078793527251
0.8992453136581894
0.8001519747740964
0.7854797040548874
0.7901623112155861
0.7812885104858297
0.7723395509153534
0.738534272882575
0.7048882229388649
0.7230908567161586
0.7465307609295295
0.743768905876828
0.7614933504912497
0.9350636630036308
0.9266117069560972
0.9262587778316016
0.921818298844154
0.9148487339693755
0.916115056716019
0.9237776372784354
0.8851956894465929
0.744679206984956
0.7246076825674264
0.7293380454791873
0.8472260251033641
0.8872956726814375
0.8237974721187566
0.7998385298015332
0.8162724915592126
0.8115933430573999
0.8100455017468327
0.8278609620902034
0.7817859657003949
0.7123891212775518
0.7029570022391173
0.7837274915260093
0.7778334942939912
0.7407908874377804
0.7660860177995457
0.7616307227113858
0.7530260837320589
0.7553293983665977
0.61224119549683
0.4721301458252725
0.977100042507076
0.9785958230622172
0.9753795768619095
0.9818783192342899
0.7973378977683999
0.9138227357498258
0.6042502511305018
0.6462165999982381
0.7406087315255995
0.7383510182448839
0.7489298747488123
0.7486709522819154
0.7426703763933931
0.6658782318345993
0.7702833661152287
0.8527566976502085
0.9811605973781665
0.771619635584893
0.7728597790775089
0.7990521819388477
0.9434131656645511
0.8566888563524253
0.8604935166891139
0.8523723049418737
0.7607297823420022
0.7540020489597172
0.7465591092097822
0.7492101307419977
0.7209535059926071
0.7259395573304012
0.7076161592041483
0.983418437457798
0.9437160631616394
0.9419509224842554
0.9506906461667292
0.9472445899618285
0.9550323577740598
0.9502769065808597
0.9576954815866636
0.7008831418572005
0.7106794540099249
0.8891081956669789
0.9593241097117486
0.8335066100264857
0.9434918487880606
0.9497446249738516
0.9064427358907589
0.8382067216188376
0.8323466023651288
0.8122303733659461
0.7272364065215087
0.8151468316495513
0.9156033299468691
0.7914036962956099
0.7942707387355747
0.8000846384066552
0.7884969037035394
0.7958474983256363
0.7978257136083219
0.7931473348638716
0.7873572888639874
0.8449397334510514
0.8015257514221611
0.7999216455707691
0.8948574638402922
0.8688066988967763
0.763848973812664
0.7099066217279922
0.7146686792109476
0.7798038214505133
0.7433378906498969
0.7480205397140379
0.7583818934112072
0.9071663812275557
0.9137381536813872
0.9154639277543043
0.9139416047802169
0.926644256384876
0.7454104216834773
0.8788364413550247
0.8235577985044569
0.9211542490939032
0.8311953877025692
0.755904700486232
0.8242836769296071
0.714293514831268
0.8281111865590579
0.8365014299093148
0.8092214868263724
0.842851865521618
0.8846232679318146
0.8848917511783914
0.8931470442286529
0.8006605186685475
0.8545365363258884
0.7904186995495064
0.7903844401786002
0.7969599945557173
0.6954122157594836
0.7862458181644383
0.97135708979364
0.7861188825460999
0.8878166596225411
0.8856824640869373
0.8923107711613761
0.8830107935442841
0.8892901855872613
0.9015050804409529
0.8392953020536174
0.8276890101405862
0.8251098182184584
0.8692240949360583
0.8056275168752409
0.9472317114709204
0.8497412121988085
0.8772678409264567
0.96872508382704
0.8168271301288917
0.7785816835744183
0.8603626419169266
0.741050259398635
0.3766389288299198
0.9579869015805236
0.7849082746794964
0.8029053197703476
0.8199088745129645
0.7767967978304191
0.7932523486589661
0.7616596749625497
0.8020286490419345
0.8572120036281423
0.818335653408495
0.7933058794280156
0.8488077261899101
0.8308390163114351
0.8234952247091771
0.8537286518834062
0.8920533421428618
0.7678349060473769
0.861575879292874
0.854520255539585
0.8466704897308923
0.8433773881317655
0.8325212207540417
0.7352699781677781
0.8125465423847335
0.7025134910187572
0.781655881283186
0.7501711356830731
0.8566776102659671
0.8185780820829106
0.8479529238716192
0.8416872770497621
0.8799033860476195
0.8890318766149808
0.7361131375378813
0.6411002926279388
0.7955897653029544
0.8525277829440523
0.7265451859108822
0.8263436021752949
0.9185728409838894
0.7833379479176942
0.805119598227923
0.8110330758681344
0.7739575930864828
0.9442715803387687
0.7215217339125877
0.7944758852469898
0.8397013825690368
0.8426451807170988
0.9261893496630932
0.9173385498393936
0.9058593705264864
0.8236207476643777
0.9648747496442737
0.9830441495358974
0.8880448020809105
0.9135145194395755
0.9802638349653483
0.9775390188823988
0.827693986589666
0.7960068679853216
0.9738705807292473
0.8344018986891566
0.7931070174983083
0.7922417307796877
0.9229373782441254
0.932682913664992
0.8052984567322921
0.8657876904113355
0.8912565018123622
0.7722124457789397
0.7253607046006798
0.8246574488643077
0.7513384094732924
0.6193981798328487
0.818509464595058
0.8770867014960059
0.6388864875189006
0.6386242258487969
0.8582248539788685
0.8226660747072201
0.8675612284926479
0.7913423190636716
0.9276002488909736
0.7006013127545913
0.632809170762838
0.7159924876466726
0.8373639631521619
0.8608569293476965
0.7647021324406658
0.47144729393020657
0.956285209229737
0.9370375929024519
0.7908831101093031
0.9002205025951535
0.827006501630064
0.8954689298028384
0.9067791532184977
0.8919652888554078
0.7634179415537846
0.7809216180726177
0.9587565541847519
0.8665577862243194
0.8842770147749791
0.795087512502962
0.9571764136080841
0.8406671214079038
0.8072708878148788
0.7686802275452911
0.7235971955042735
0.8060120884616464
0.7622494771700083
0.8732695953623537
0.792367621925948
0.721532113126603
0.940415744370275
0.7701406864403932
0.7633316306216766
0.9424284423717273
0.8841287623305433
0.9259658135263985
0.9473333571976371
0.8079376703551431
0.5527670799957533
0.830546985164367
0.8858115384038185
0.891240282813002
0.7215406387843117
0.8066294356367734
0.8218515774521047
0.6323542702935576
0.9098522904823808
0.7764366149621311
0.7189992801577273
0.8099108434168446
0.689041670723614
0.711809674429167
0.7527934053854456
0.8704754925149552
0.7715257738667372
0.8832424318158589
0.7988080589713527
0.9196206418364884
0.8986116686429804
0.7886238811823019
0.9267491389948221
0.8795291253682216
0.7865513064502494
0.7328553242261046
0.7439729262217007
0.7946211445914277
0.7591173627014361
0.893094542369094
0.9415784349798983
0.5499520263798016
0.5883519827311151
0.6129335091723278
0.6916189572730947
0.6386997877623352
0.7870768085314529
0.835336965509204
0.8408687382135558
0.7121941245120572
0.7285314987661092
0.7164081409899955
0.7425058992957174
0.8140987410502319
0.8478814764732541
0.804865744864805
0.816801969736361
0.7994396065192332
0.6999648298156932
0.6698020389512229
0.7742346207832423
0.7906957325319887
0.9673471563911481
0.6845475915227989
0.9573581771792727
0.7303387706917399
0.9032170540825908
0.8018122689743155
0.9299793842650251
0.792299745113575
0.7644046693549134
0.7279881749146121
0.8313294524729666
0.8593775001760994
0.8403443411585779
0.920021383744159
0.7762605932150711
0.7427887721923905
0.8740297520020659
0.9285591269965416
0.7240843091981228
0.8507374953500626
0.7744890333899914
0.9035943268555826
0.8252307595765968
0.8289483815766906
0.7073415700842904
0.8041499021261507
0.266452889867597
0.7881181376066809
0.8003278458947051
0.7572083469217921
0.7455976749245944
0.8875527250924764
0.9199407359912011
0.7442631759726838
0.6962174187207704
0.9299166500905569
0.7096665445345177
0.83412165035867
0.7412564240404479
0.7936753138406267
0.7521570822016728
0.7901558214255183
0.8327317393980381
0.7623379945979655
0.7544932455496112
0.6823554716929282
0.7006614641488176
0.8532017475951821
0.9086074668305713
0.7629532000575069
0.7547714326830598
0.6756533099359011
0.899139032664547
0.8146633849810369
0.719747630203939
0.8057224308597773
0.7692145920835723
0.8298978362544214
0.8506046379624496
0.853706270931022
0.8219993270777356
0.8443352198473055
0.8064838577606172
0.8498146940934783
0.8018852178988962
0.6301420381986178
0.7184483889271572
0.7761108592336925
0.8195308519675142
0.7084841516799503
0.9048546144117434
0.7981040009945296
0.7952388019972971
0.8556198332988356
0.8429487816407851
0.6967595592288147
0.8131361720423098
0.8042384906349628
0.8481571694586364
0.7139001114960793
0.7587296147223691
0.5481115875706504
0.8412377323401101
0.8988715508128884
0.7249607580573413
0.848748022649853
0.7529082688132495
0.8835282105410724
0.7152349587365178
0.7597666587396682
0.7283047402781316
0.8774731182977245
0.845312001519226
0.8646289653349677
0.803730490482547
0.8209781781631422
0.7562743699796476
0.8096940385327193
0.6842827629149173
0.8804816647947847
0.920183197838069
0.7652123555114303
0.8026139572884715
0.8365503033468535
0.7814401999676076
0.7197124706110674
0.9755094727014891
0.7177459118514883
0.8450242507758035
0.705728717626291
0.8269587642034225
0.7954421294743922
0.7417332743308683
0.8737302412447319
0.5572062348606409
0.7043776595249969
0.9026394467624035
0.8656067576132929
0.803607278152043
0.8013555359909493
0.7621347645850509
0.8325615704180489
0.674679726175976
0.7842025490047733
0.832401714790973
0.8501279995191571
0.8122045260586324
0.7252808582947233
0.6514943130479496
0.904989931863038
0.9171201395538815
0.6892205376994838
0.7924536427010958
0.809556252853659
0.61345407088958
0.73489206290547
0.602595158266337
0.5841421949773654
0.7656226211209516
0.8109881770297661
0.7721667111735583
0.9501755462191437
0.7086747863984251
0.9844261232685929
0.7219851366879348
0.8142459781824449
0.8301157661310872
0.7040300553159474
0.6770277965264441
0.6928324323827172
0.7697906605859205
0.8849755368517482
0.8369224354077536
0.8059583777501189
0.7877323252350428
0.8063474013641183
0.804676052229164
0.86877364293467
0.5456442403182784
0.7217195911007384
0.7954533188484126
0.6845598504402602
0.7785230771771997
0.8507130355004743
0.8596252862888049
0.7715162590533262
0.8277094033768726
0.8386238784592419
0.7561210798262987
0.7697512323067867
0.7619405451403115
0.7439907188525213
0.9104032721693441
0.8317867939844674
0.6943837330784289
0.7493050579053887
0.7333629950207775
0.7419419949760101
0.8104733001987781
0.8278763388473923
0.7137553170850893
0.8362549955380948
0.8019219924307588
0.9376832137333119
0.9013184617089569
0.6402695956604262
0.8267773329204784
0.7784461765156396
0.702210286802303
0.9100863180089754
0.7816720188559534
0.817216003805575
0.8690617266674523
0.5368383647508456
0.847861817157588
0.9331895470160844
0.7555203164074398
0.9748462888079736
0.7088674882212774
0.909398493629077
0.8221041960272577
0.8501879624370958
0.7463662043113315
0.5045732782585799
0.6598555015129093
0.8644006822286581
0.7788625275646455
0.7078418787579845
0.7791015392042413
0.7838738760589359
0.7200338342803357
0.9444421340970004
0.8865748307020047
0.7599727858897295
0.9240647896816603
0.7961806421597365
0.7527126687876222
0.8418506663289093
0.9219719670894297
0.8170454839517227
0.7988427356426296
0.7710239859334665
0.7529098308396897
0.9800379821291648
0.7713952867612262
0.7757339254062244
0.7280378001996809
0.7607944944282257
0.7515917431211744
0.8237804840125328
0.7771345419031878
0.666900057910434
0.854299535616022
0.9001821479535248
0.914944468113792
0.8163047961001964
0.9730138061798618
0.8635782161115938
0.7929779150231068
0.7432846507817116
0.706757408644011
0.71463217803611
0.5819983234594299
0.784265725173153
0.7709806257529015
0.695583098589805
0.5487192782303519
0.7279379927009922
0.7002625634805907
0.8080189676159965
0.7212287039120628
0.8445112603951695
0.9222619871280459
0.7219889624973347
0.6489757595244717
0.7630690259368844
0.5796819938416229
0.7756060425528861
0.629661118354035
0.7955860209916384
0.8517674715846721
0.6516732064673011
0.8155018871187908
0.879631953241041
0.8510719708706284
0.8438182900678476
0.9148876100387868
0.9020720695513423
0.9039229235679755
0.8143742652499952
0.7469320691229372
0.8085193849333502
0.8162066830055928
0.7783864654214587
0.9191718394971414
0.7190568247133812
0.7060714261340176
0.7846830861154072
0.7294038642123594
0.8304309759727482
0.9929737637299756
0.995526265036297
0.828593774543268
0.6825788028321358
0.8238953913312038
0.9435299901038828
0.9870489392214155
0.7659778086626716
0.7715990222203886
0.720144324749354
0.759660667847581
0.8007786076846749
0.7753093140332172
0.7208517312118967
0.7371343306887417
0.6898052863424236
0.8243761646473713
0.8503689387152538
0.7680221248113762
0.7147891704830625
0.7182800024578648
0.9299334403047209
0.7582766029040972
0.8389686121901794
0.8098836432501185
0.7753199833019551
0.7498997284794007
0.7130654217082901
0.7854161325329048
0.6271279372823778
0.7858827105757761
0.826016133389214
0.9253141471055398
0.7735339168608066
0.8292941826840984
0.7497551958963622
0.8235992144152365
0.7034780374438389
0.8220981835970084
0.7710424743060392
0.9005229223790551
0.7742173570079914
0.7588864637663861
0.8566290660522852
0.7692991328089243
0.7867907214661539
0.7604067709595341
0.6497243059469107
0.9211606886827046
0.7615754847970823
0.8039210228286482
0.7453888258098181
0.9666515377643835
0.853480508509434
0.6650382418290655
0.8017148818295403
0.9539863037088061
0.8330765392175737
0.8605778065150353
0.7264463898871573
0.9269681526168002
0.7619128786466767
0.7682846864644394
0.6527095608042017
0.8724401636936869
0.8532469070219817
0.8204606485392127
0.9383281299703183
0.835863911986707
0.8049100566922898
0.9507258543377523
0.9139231017739143
0.7030400241270066
0.7933946829669294
0.8922002780328286
0.8850077965489614
0.9692767020290379
0.6433233563645026
0.8265662426495302
0.6511295804310627
0.7544673561346614
0.8350754046726144
0.7775145039523795
0.6582734795453384
0.8155527158071222
0.8139107093942275
0.7664719915003775
0.7253524498860402
0.8966386800652547
0.7887007429371382
0.7257079173863841
0.7761532503572867
0.8193241228258705
0.8887766811699257
0.7489734176440356
0.7871341365669643
0.6623742765446005
0.9121875202531045
0.7964119394805597
0.7463190249457351
0.7675300411111616
0.8535648425567082
0.8222748277415038
0.7167062432953583
0.7886064445322811
0.8461178893467727
0.7991129599642488
0.762369850413542
0.8007787394430136
0.7651589834013245
0.7164483759538725
0.9092298037490024
0.9710955537306332
0.8108978887332826
0.8341867085530085
0.8424328341466364
0.803198428825602
0.9635255979093629
0.8644930550003235
0.802465959202208
0.7609511269090536
0.8129570307989041
0.759714982465831
0.7959479422896698
0.7558417555854634
0.8160810442950901
0.8006899309812439
0.7569049110126532
0.8119724732983238
0.9120435050090121
0.7853977269311555
0.7730398875668122
0.7811283774564314
0.8838793515153023
0.7549618020087805
0.7696512329523971
0.7931112724982388
0.545980066815649
0.765697631208391
0.790387051037955
0.5936827690174632
0.42146233434619174
0.4817263463443164
0.6974028174246668
0.6961472752230742
0.8584264974587987
0.799997658530649
0.9178762458377799
0.7676276573136772
0.6970076187456036
0.739956214088627
0.9689549386314054
0.7954350127282654
0.7704175484464747
0.8521536795069119
0.7890191009963721
0.6635523069365407
0.902088362869861
0.7325402548603531
0.8031515645276697
0.7615244880305112
0.7541996744087289
0.944340366335863
0.7270152318637367
0.7895938733085068
0.7146435085488282
0.7730061703090388
0.8443815689489262
0.9062010543883179
0.9733421440589016
0.9273729062211132
0.7638324743747842
0.7824419101300775
0.6511594510306064
0.8659358646085541
0.7743251087103868
0.6746826684237981
0.7689631219456333
0.7326635692579141
0.8791334402662536
0.7750929080194187
0.701718905194547
0.6966546152421831
0.6882154323592701
0.8868285475169969
0.776096707557002
0.6589616092354152
0.7907983331604947
0.9930376575331663
0.8547592481713847
0.7433532982033331
0.6879216346643182
0.7731446463241016
0.9595965801420732
0.7667746585423284
0.7669160764258898
0.9004911638109847
0.8470258702151503
0.8482876940724362
0.7338903674950596
0.8294263945904186
0.9813388525519924
0.7922742266208727
0.8916734861538043
0.6259529467611897
0.9642676150999311
0.6303416289030251
0.6979142959287231
0.674067482073058
0.7966690158351031
0.8467866123431566
0.560231572014988
0.774887293524506
0.9751250564577759
0.9148136531673094
0.751464816724984
0.8703634846733784
0.7958871671595084
0.9177805849747457
0.7579941029130829
0.367413886139514
0.7800733569868393
0.7535816606962722
0.985481030193342
0.8842400332702077
0.7707574449126761
0.8692260982493928
0.9855696243452046
0.7181089796974155
0.8588814113716369
0.7334022651832165
0.6678897332618241
0.9721047217753465
0.7595651700963156
0.9348117797400113
CELL_DATA 4886
TENSORS stress float
-1.2083354681449834e7 2.244110928158156e6 0.0
2.244110928158156e6 1.9545144360192858e7 0.0
0.0 0.0 0.0

-1.6259844165490575e7 4.3414654068284305e6 0.0
4.3414654068284305e6 8.611170156193756e6 0.0
0.0 0.0 0.0

-6.583900538475307e6 1.6835727603252556e7 0.0
1.6835727603252556e7 2.4621653586723655e6 0.0
0.0 0.0 0.0

-5.616485493599197e6 1.5590770335833872e7 0.0
1.5590770335833872e7 8.320160754347645e6 0.0
0.0 0.0 0.0

-4.567442656277874e6 1.7062022960703164e7 0.0
1.7062022960703164e7 1.2860961926654486e6 0.0
0.0 0.0 0.0

2.048597681906172e6 4.338407833644758e6 0.0
4.338407833644758e6 -5.189930765070801e6 0.0
0.0 0.0 0.0

2.3104030951469798e7 1.482433483130036e7 0.0
1.482433483130036e7 4.759771736702684e6 0.0
0.0 0.0 0.0

5.832784495751705e6 4.576523179849262e6 0.0
4.576523179849262e6 -2.2212987131568678e7 0.0
0.0 0.0 0.0

-1.2079452657095369e7 3.9462446406574887e6 0.0
3.9462446406574887e6 2.0774522170376506e7 0.0
0.0 0.0 0.0

-1.916197792757573e6 1.4687015635530403e7 0.0
1.4687015635530403e7 8.1916036938258745e6 0.0
0.0 0.0 0.0

-2.0791036548126047e6 1.432453996462675e7 0.0
1.432453996462675e7 -3.7031165350073287e6 0.0
0.0 0.0 0.0

-4.8605687602789e6 2.0114052557862338e7 0.0
2.0114052557862338e7 2.7712385932034766e6 0.0
0.0 0.0 0.0

4.205463401136612e6 8.094597299044048e6 0.0
8.094597299044048e6 -2.1034074271760833e7 0.0
0.0 0.0 0.0

3.746676221137643e7 1.732108801870193e7 0.0
1.732108801870193e7 4.85379668333955e6 0.0
0.0 0.0 0.0

-2.1875518026861823e6 1.4690139239376066e7 0.0
1.4690139239376066e7 -3.7727844913407126e6 0.0
0.0 0.0 0.0

3.6824608097862448e6 4.991264981504817e6 0.0
4.991264981504817e6 -1.0703934221686613e7 0.0
0.0 0.0 0.0

-235806.63947071927 1.2178408970643809e7 0.0
1.2178408970643809e7 -1.2754073896891786e7 0.0
0.0 0.0 0.0

2.0459535638990365e6 1.0704207595592745e7 0.0
1.0704207595592745e7 -1.606557276895086e7 0.0
0.0 0.0 0.0

-7.86683255084529e6 -2.4630181089142323e6 0.0
-2.4630181089142323e6 1.1912478989079596e7 0.0
0.0 0.0 0.0

-3.1906671250091516e6 1.6222557615077607e7 0.0
1.6222557615077607e7 -2.902759514294145e6 0.0
0.0 0.0 0.0

2.7017758027310134e6 9.023322626916599e6 0.0
9.023322626916599e6 -1.1599916893882416e7 0.0
0.0 0.0 0.0

-4.238171822394736e6 2.0001861254057113e7 0.0
2.0001861254057113e7 2.57747632976257e6 0.0
0.0 0.0 0.0

-5.068867785717049e6 5.81229320702457e6 0.0
5.81229320702457e6 6.459216987436225e6 0.0
0.0 0.0 0.0

-6.685751406201728e6 1.6107077400884425e7 0.0
1.6107077400884425e7 1.2906844100703183e6 0.0
0.0 0.0 0.0

2.5690540024568876e6 9.931444484789953e6 0.0
9.931444484789953e6 -1.966169622284196e7 0.0
0.0 0.0 0.0

3.8007315735544562e6 2.501173859958947e7 0.0
2.501173859958947e7 -1.0221092569740713e7 0.0
0.0 0.0 0.0

1.519042609443072e7 1.437078436037639e7 0.0
1.437078436037639e7 3.084954203839846e6 0.0
0.0 0.0 0.0

-1.21940100706852e7 9.516438434867615e6 0.0
9.516438434867615e6 1.5059682498613823e7 0.0
0.0 0.0 0.0

3.9221177611163836e6 5.115319457931376e6 0.0
5.115319457931376e6 -1.0616677345160212e7 0.0
0.0 0.0 0.0

-1.9609803392985673e6 1.9850682552629742e6 0.0
1.9850682552629742e6 1.907866550431739e6 0.0
0.0 0.0 0.0

-6.166190505314225e6 6.522475238879357e6 0.0
6.522475238879357e6 5.494653298872365e6 0.0
0.0 0.0 0.0

1.4035329885032163e6 7.291018083880762e6 0.0
7.291018083880762e6 -6.321694774484366e6 0.0
0.0 0.0 0.0

-1.3360908682480764e6 1.3128062995837972e7 0.0
1.3128062995837972e7 4.876538207700886e6 0.0
0.0 0.0 0.0

-122201.19887848702 1.3569316912643997e7 0.0
1.3569316912643997e7 -772091.666666156 0.0
0.0 0.0 0.0

-5.916076888288825e6 1.5816724572169885e7 0.0
1.5816724572169885e7 4.450914340905406e6 0.0
0.0 0.0 0.0

-4.807543393329271e6 5.43330158079686e6 0.0
5.43330158079686e6 3.406262918570693e6 0.0
0.0 0.0 0.0

178156.121305099 9.4532125423269e6 0.0
9.4532125423269e6 -5.084251194759344e6 0.0
0.0 0.0 0.0

-5.342180547467614e6 1.5711145561187018e7 0.0
1.5711145561187018e7 4.539254680506618e6 0.0
0.0 0.0 0.0

-56264.54067758378 1.1890959644122241e7 0.0
1.1890959644122241e7 -1.8866761098235685e7 0.0
0.0 0.0 0.0

-5.188661057958581e6 1.839897210484814e7 0.0
1.839897210484814e7 3.6337008448591065e6 0.0
0.0 0.0 0.0

3.6754029857744463e6 8.271483371071233e6 0.0
8.271483371071233e6 -2.2855826447437994e7 0.0
0.0 0.0 0.0

-8.216322754558961e6 1.7878966123228878e7 0.0
1.7878966123228878e7 1.4920424742621998e6 0.0
0.0 0.0 0.0

-5.204006056401178e6 1.7978554573267672e7 0.0
1.7978554573267672e7 3.365742054882236e6 0.0
0.0 0.0 0.0

-9.594704040030992e6 1.2585072012375817e6 0.0
1.2585072012375817e6 1.3182401512458237e7 0.0
0.0 0.0 0.0

2.4149519595244015e6 8.999644568560772e6 0.0
8.999644568560772e6 -1.2634901653949426e7 0.0
0.0 0.0 0.0

-1.0711675669944623e7 1.1017037191499196e7 0.0
1.1017037191499196e7 1.453238218241442e7 0.0
0.0 0.0 0.0

-860658.0852455797 1.4374148549872313e7 0.0
1.4374148549872313e7 -7.104684334838709e6 0.0
0.0 0.0 0.0

-133696.7010492715 9.1596073013865e6 0.0
9.1596073013865e6 -5.591741153817814e6 0.0
0.0 0.0 0.0

5.494679846351266e6 4.670413026490434e6 0.0
4.670413026490434e6 -1.8970285999220874e7 0.0
0.0 0.0 0.0

1.2384804298046315e6 1.2646365085279554e7 0.0
1.2646365085279554e7 4.128268380552073e6 0.0
0.0 0.0 0.0

-4.210122913983852e6 1.7777551072277557e7 0.0
1.7777551072277557e7 2.0832024517080504e6 0.0
0.0 0.0 0.0

-1.0377306616718251e7 1.839715324993782e6 0.0
1.839715324993782e6 7.615397571738441e6 0.0
0.0 0.0 0.0

5.581677421302261e6 4.639610497653357e6 0.0
4.639610497653357e6 -1.9390280612119198e7 0.0
0.0 0.0 0.0

-4.316538195659889e6 1.6706731829796694e7 0.0
1.6706731829796694e7 2.3012227001082315e6 0.0
0.0 0.0 0.0

841755.9043991844 1.3218997893407298e7 0.0
1.3218997893407298e7 5.427210703182903e6 0.0
0.0 0.0 0.0

-5.7574536700154925e6 1.6686544773555057e7 0.0
1.6686544773555057e7 4.819560488228524e6 0.0
0.0 0.0 0.0

5.719189826425534e6 4.877513240866543e6 0.0
4.877513240866543e6 -2.386259869522513e7 0.0
0.0 0.0 0.0

-4.875808409514187e6 1.85367361597968e7 0.0
1.85367361597968e7 3.7988503058440965e6 0.0
0.0 0.0 0.0

-1.5369411689339876e6 1.4474252588561142e7 0.0
1.4474252588561142e7 1.5027703809836496e7 0.0
0.0 0.0 0.0

3.342042423596911e6 8.436997715981767e6 0.0
8.436997715981767e6 -1.3850352061174735e7 0.0
0.0 0.0 0.0

116677.93462872319 1.0721296367139725e7 0.0
1.0721296367139725e7 -7.783588510154546e6 0.0
0.0 0.0 0.0

1.0530530946232174e7 1.4063018871177446e7 0.0
1.4063018871177446e7 -7.929058346498117e6 0.0
0.0 0.0 0.0

-2.0395703467281938e6 1.3875276798002452e7 0.0
1.3875276798002452e7 -5.701348745268088e6 0.0
0.0 0.0 0.0

-2.633257126065514e6 3.0787988107110625e6 0.0
3.0787988107110625e6 2.0930756027324281e6 0.0
0.0 0.0 0.0

861081.8165790185 5.860802112656236e6 0.0
5.860802112656236e6 -3.6821568080902332e6 0.0
0.0 0.0 0.0

5.126188905412881e6 5.322497458340058e6 0.0
5.322497458340058e6 -1.868203123953764e7 0.0
0.0 0.0 0.0

4.682888900584314e6 7.318345496645138e6 0.0
7.318345496645138e6 -2.0925802279074766e7 0.0
0.0 0.0 0.0

-4.842626689851805e6 1.6369907780085461e7 0.0
1.6369907780085461e7 1.7164925727857372e6 0.0
0.0 0.0 0.0

-3.1712555381901274e6 1.4500779946728418e7 0.0
1.4500779946728418e7 1.2404742096862094e7 0.0
0.0 0.0 0.0

8.681074821020566e6 1.3313473911165375e7 0.0
1.3313473911165375e7 3.1877137962068557e6 0.0
0.0 0.0 0.0

-1.0517875984495115e7 1.9366166083902067e6 0.0
1.9366166083902067e6 1.2185034353905546e7 0.0
0.0 0.0 0.0

2.9820921421644203e6 9.809884484362433e6 0.0
9.809884484362433e6 -1.8346175355826583e7 0.0
0.0 0.0 0.0

-237927.51309850253 1.210948519867247e7 0.0
1.210948519867247e7 -1.8073814683299344e7 0.0
0.0 0.0 0.0

-2.1476087436721353e6 1.38074170381052e7 0.0
1.38074170381052e7 2.371670439431113e7 0.0
0.0 0.0 0.0

-6.164726412850721e6 1.576558948357972e7 0.0
1.576558948357972e7 8.514077012034968e6 0.0
0.0 0.0 0.0

-1.0830991424314626e7 1.0875594312149374e7 0.0
1.0875594312149374e7 1.3918336118661247e7 0.0
0.0 0.0 0.0

-7.59616782108472e6 8.095404485268126e6 0.0
8.095404485268126e6 9.452752651797667e6 0.0
0.0 0.0 0.0

172651.59642148297 1.1946071840043003e7 0.0
1.1946071840043003e7 -1.249703379283504e7 0.0
0.0 0.0 0.0

506586.953534381 1.2287604360049697e7 0.0
1.2287604360049697e7 -8.318592521816528e6 0.0
0.0 0.0 0.0

1.2116640919943545e6 1.0566099269224565e7 0.0
1.0566099269224565e7 -1.0304925263769235e7 0.0
0.0 0.0 0.0

6.287505064435646e6 1.713555436039298e7 0.0
1.713555436039298e7 -6.987257395717796e6 0.0
0.0 0.0 0.0

-7.758729336076909e6 -6.397524149039609e6 0.0
-6.397524149039609e6 1.4206233510290582e7 0.0
0.0 0.0 0.0

1.3684789058851209e6 1.1901952177745814e7 0.0
1.1901952177745814e7 -3.3937085029781763e6 0.0
0.0 0.0 0.0

-4.800138550566639e6 2.0845009737825602e7 0.0
2.0845009737825602e7 2.0689252719588606e6 0.0
0.0 0.0 0.0

-5.699766523846351e6 1.5609233576388294e7 0.0
1.5609233576388294e7 8.3382056665710425e6 0.0
0.0 0.0 0.0

4.562153044034168e6 5.280359459627329e6 0.0
5.280359459627329e6 -1.3242283485101309e7 0.0
0.0 0.0 0.0

1.2864255859542708e6 6.763723336690799e6 0.0
6.763723336690799e6 -6.956335284715468e6 0.0
0.0 0.0 0.0

-939452.5027893302 1.2188877998658301e7 0.0
1.2188877998658301e7 4.350996044020113e6 0.0
0.0 0.0 0.0

-788831.6568762334 2.668215850523444e7 0.0
2.668215850523444e7 -1.2837256466816045e7 0.0
0.0 0.0 0.0

-1.2706292174925415e7 3.8024904944349974e6 0.0
3.8024904944349974e6 2.52830896674383e7 0.0
0.0 0.0 0.0

1.0215560768227396e6 1.3530315012897689e7 0.0
1.3530315012897689e7 -6.518814706469334e6 0.0
0.0 0.0 0.0

335035.58852947317 1.2468918964317398e7 0.0
1.2468918964317398e7 -9.641857996827528e6 0.0
0.0 0.0 0.0

39675.797348992666 8.450737897959473e6 0.0
8.450737897959473e6 -5.390732417078524e6 0.0
0.0 0.0 0.0

533964.783865589 5.306326489520175e6 0.0
5.306326489520175e6 -4.459026469153652e6 0.0
0.0 0.0 0.0

997081.3551884526 1.4564866976756709e7 0.0
1.4564866976756709e7 -5.013033522732211e6 0.0
0.0 0.0 0.0

-179735.48517009523 1.2187801731775451e7 0.0
1.2187801731775451e7 -1.56579613129744e7 0.0
0.0 0.0 0.0

5.692643013493467e6 4.5416000605758475e6 0.0
4.5416000605758475e6 -2.19294372765584e7 0.0
0.0 0.0 0.0

-6.403297315495396e6 1.6020508905822666e7 0.0
1.6020508905822666e7 7.944229258208557e6 0.0
0.0 0.0 0.0

3.914904211493767e6 7.824987564606973e6 0.0
7.824987564606973e6 -1.756630107386452e7 0.0
0.0 0.0 0.0

5.816033035619294e6 4.937630616846216e6 0.0
4.937630616846216e6 -2.4478717015708834e7 0.0
0.0 0.0 0.0

-4.0326982423414527e6 1.4581347852087183e7 0.0
1.4581347852087183e7 7.1033570223468e6 0.0
0.0 0.0 0.0

-4.0695871806798987e6 1.2292682698436163e7 0.0
1.2292682698436163e7 -3.967155701106511e6 0.0
0.0 0.0 0.0

-6.345675739070078e6 5.093745231691379e6 0.0
5.093745231691379e6 8.446020114904333e6 0.0
0.0 0.0 0.0

-4.512680234445516e6 1.7560011397672668e7 0.0
1.7560011397672668e7 2.844319925576007e6 0.0
0.0 0.0 0.0

243970.90271055722 8.567502735120816e6 0.0
8.567502735120816e6 -4.226517888943804e6 0.0
0.0 0.0 0.0

-4.672935871311063e6 9.33606229653573e6 0.0
9.33606229653573e6 4.098344765944625e6 0.0
0.0 0.0 0.0

-7.888709005048443e6 -5.613055041591676e6 0.0
-5.613055041591676e6 1.6048085705568258e7 0.0
0.0 0.0 0.0

1.4173395244996026e6 1.0639666692140983e7 0.0
1.0639666692140983e7 -9.66337049446331e6 0.0
0.0 0.0 0.0

-4.403514290531751e6 1.9738188648441866e7 0.0
1.9738188648441866e7 2.515152203449254e6 0.0
0.0 0.0 0.0

-3.6347673951325333e6 5.866477672112005e6 0.0
5.866477672112005e6 3.8157323033064026e6 0.0
0.0 0.0 0.0

4.1079319735559244e6 7.5834351260933345e6 0.0
7.5834351260933345e6 -2.267000792268324e7 0.0
0.0 0.0 0.0

-1.1071931159880308e6 8.855892193765102e6 0.0
8.855892193765102e6 -3.524602981866131e6 0.0
0.0 0.0 0.0

716783.4006063505 1.4691706467974251e7 0.0
1.4691706467974251e7 6.89488841184006e6 0.0
0.0 0.0 0.0

1.706479533047729e7 1.5492777345118959e7 0.0
1.5492777345118959e7 2.8337550607677163e6 0.0
0.0 0.0 0.0

3.9689469786838554e6 6.341694762006992e6 0.0
6.341694762006992e6 -1.2344814720163543e7 0.0
0.0 0.0 0.0

-1.0962039801573073e6 1.2445609474157792e7 0.0
1.2445609474157792e7 -1.8007346105635557e7 0.0
0.0 0.0 0.0

3.941288963188827e6 6.371970887224523e6 0.0
6.371970887224523e6 -1.2764011286717046e7 0.0
0.0 0.0 0.0

4.729038759980803e6 5.258598537135358e6 0.0
5.258598537135358e6 -1.361740543884961e7 0.0
0.0 0.0 0.0

1.6057050067940746e7 1.1194288091513779e7 0.0
1.1194288091513779e7 -572957.0772621958 0.0
0.0 0.0 0.0

-1.1673682588127932e7 2.3002346592362113e7 0.0
2.3002346592362113e7 7.035165312402782e6 0.0
0.0 0.0 0.0

314073.58280049823 1.1718252056428252e7 0.0
1.1718252056428252e7 -1.6970334277133763e7 0.0
0.0 0.0 0.0

-4.602356832839845e6 1.5714305251466988e7 0.0
1.5714305251466988e7 -798991.2817969159 0.0
0.0 0.0 0.0

5.38213229701008e6 4.968865641124212e6 0.0
4.968865641124212e6 -1.6413675699543132e7 0.0
0.0 0.0 0.0

-6.742377279161014e6 1.6645543136818634e7 0.0
1.6645543136818634e7 5.387078348214314e6 0.0
0.0 0.0 0.0

-996124.7298202063 2.0280503188250538e7 0.0
2.0280503188250538e7 -2.900615844115993e6 0.0
0.0 0.0 0.0

-1.2777887110444639e7 4.8419383365678545e6 0.0
4.8419383365678545e6 1.885713125991826e7 0.0
0.0 0.0 0.0

-3.251921350267059e6 2.606574332532483e7 0.0
2.606574332532483e7 -7.104157967169769e6 0.0
0.0 0.0 0.0

-461516.552358747 1.3963497828480078e7 0.0
1.3963497828480078e7 -1.1880608812359062e6 0.0
0.0 0.0 0.0

5.603752628547189e6 4.559516353051796e6 0.0
4.559516353051796e6 -1.9898950547570605e7 0.0
0.0 0.0 0.0

1.1648048406402554e7 1.157298931330191e7 0.0
1.157298931330191e7 -2.5723804119957057e6 0.0
0.0 0.0 0.0

-4.1801794018003005e6 1.4330908386731468e7 0.0
1.4330908386731468e7 7.12555477596103e6 0.0
0.0 0.0 0.0

4.624379400916095e6 6.350722451601315e6 0.0
6.350722451601315e6 -1.8754713592476964e7 0.0
0.0 0.0 0.0

-2.7153312237186497e6 1.6519716554705156e7 0.0
1.6519716554705156e7 -2.408322321650368e6 0.0
0.0 0.0 0.0

474907.8619389972 1.3352652499868367e7 0.0
1.3352652499868367e7 -6.796590162340818e6 0.0
0.0 0.0 0.0

-1.7633639031826386e6 1.3110408492097741e7 0.0
1.3110408492097741e7 -6.109043370190141e6 0.0
0.0 0.0 0.0

674900.098604768 1.2573884623714207e7 0.0
1.2573884623714207e7 -7.853445727873334e6 0.0
0.0 0.0 0.0

1.533111452052271e6 1.4699553120338222e7 0.0
1.4699553120338222e7 7.042160074440876e6 0.0
0.0 0.0 0.0

4.725252340426065e6 6.862630573879986e6 0.0
6.862630573879986e6 -2.9652860661003046e7 0.0
0.0 0.0 0.0

-5.597162250556834e6 1.633369601152651e7 0.0
1.633369601152651e7 7.303183533132058e6 0.0
0.0 0.0 0.0

1.5634205416261156e6 5.144611099005261e6 0.0
5.144611099005261e6 -5.002045624217752e6 0.0
0.0 0.0 0.0

-1.2193826484506011e7 8.1367715124794375e6 0.0
8.1367715124794375e6 1.5843348294192761e7 0.0
0.0 0.0 0.0

4.579521888038619e6 5.49359695852012e6 0.0
5.49359695852012e6 -1.2409430528841218e7 0.0
0.0 0.0 0.0

-8.683628821493665e6 -6.992938700359966e6 0.0
-6.992938700359966e6 2.1075696232743196e7 0.0
0.0 0.0 0.0

1.618413484965819e6 1.1200019768629164e7 0.0
1.1200019768629164e7 -1.1756673444835111e7 0.0
0.0 0.0 0.0

1.68194260289634e6 4.1424340898112864e6 0.0
4.1424340898112864e6 -5.340242977898873e6 0.0
0.0 0.0 0.0

625419.3126567244 1.3326926374015093e7 0.0
1.3326926374015093e7 5.294838577312268e6 0.0
0.0 0.0 0.0

-5.133441186685751e6 1.8367761640624937e7 0.0
1.8367761640624937e7 4.784593465730287e6 0.0
0.0 0.0 0.0

-9.699538361623514e6 -5.877272787729123e6 0.0
-5.877272787729123e6 1.954367136623374e7 0.0
0.0 0.0 0.0

-2.171225637246849e6 1.4117094057907017e7 0.0
1.4117094057907017e7 3.266545770397665e6 0.0
0.0 0.0 0.0

1.236623832713297e6 1.5286245866651295e7 0.0
1.5286245866651295e7 -5.448151878782466e6 0.0
0.0 0.0 0.0

-4.694426206665403e6 1.5862803158905469e7 0.0
1.5862803158905469e7 1.33679297514818e6 0.0
0.0 0.0 0.0

-1.655430017172548e6 1.558640303434207e7 0.0
1.558640303434207e7 -3.2478966454303088e6 0.0
0.0 0.0 0.0

-4.343616430239344e6 1.6052969475211754e7 0.0
1.6052969475211754e7 2.3574668191791824e6 0.0
0.0 0.0 0.0

-2.0909147183771422e6 1.1524888765650818e7 0.0
1.1524888765650818e7 -1.1485076284563657e7 0.0
0.0 0.0 0.0

5.862845799522264e6 1.6395340892677445e7 0.0
1.6395340892677445e7 -8.680534404858489e6 0.0
0.0 0.0 0.0

261775.86422300804 1.2134841264074702e7 0.0
1.2134841264074702e7 -1.0048432692531249e7 0.0
0.0 0.0 0.0

-7.319453602064446e6 1.3880190977926217e7 0.0
1.3880190977926217e7 1.2317830186410049e7 0.0
0.0 0.0 0.0

-2.8537561920953947e6 1.4238046580789547e7 0.0
1.4238046580789547e7 9.265197897380985e6 0.0
0.0 0.0 0.0

3.0316609015146513e6 8.585147018517874e6 0.0
8.585147018517874e6 -1.3393186235394374e7 0.0
0.0 0.0 0.0

-4.949769147559631e6 8.580796148324369e6 0.0
8.580796148324369e6 3.3217419771625763e6 0.0
0.0 0.0 0.0

-5.645239649297334e6 2.041964383042876e7 0.0
2.041964383042876e7 4.498884034510553e6 0.0
0.0 0.0 0.0

-7.847025748583112e6 1.3538021070135659e7 0.0
1.3538021070135659e7 9.70240031065818e6 0.0
0.0 0.0 0.0

-3.9398908280735137e6 2.1375762851035237e7 0.0
2.1375762851035237e7 1.9658571251978802e6 0.0
0.0 0.0 0.0

1.3494880232707579e6 1.1080389190944213e7 0.0
1.1080389190944213e7 -1.2551404650118962e7 0.0
0.0 0.0 0.0

-9.077582732034493e6 1.7492882408489052e7 0.0
1.7492882408489052e7 -1.9740667707051856e6 0.0
0.0 0.0 0.0

5.70465536365237e6 5.336364189799227e6 0.0
5.336364189799227e6 -2.1838596732403632e7 0.0
0.0 0.0 0.0

-23094.63809349877 2.143168179297668e7 0.0
2.143168179297668e7 -3.276826931783749e6 0.0
0.0 0.0 0.0

-1.3529905404327925e7 1.9409487968142e7 0.0
1.9409487968142e7 1.0066920659707569e7 0.0
0.0 0.0 0.0

-2.423925090045021e6 1.4359071720447803e7 0.0
1.4359071720447803e7 7.657563216733148e6 0.0
0.0 0.0 0.0

-2.184887371720289e7 1.7099462264741294e7 0.0
1.7099462264741294e7 1.1465132778346192e7 0.0
0.0 0.0 0.0

5.78093534584169e6 4.520161867571674e6 0.0
4.520161867571674e6 -2.026683417977181e7 0.0
0.0 0.0 0.0

-7.4691637367547685e6 1.3348405866688646e7 0.0
1.3348405866688646e7 1.078428941506056e7 0.0
0.0 0.0 0.0

-3.9748457035194193e6 5.644780748023552e6 0.0
5.644780748023552e6 2.491000340510123e6 0.0
0.0 0.0 0.0

4.516646386770685e6 5.109661614787131e6 0.0
5.109661614787131e6 -1.2925310414141772e7 0.0
0.0 0.0 0.0

191269.985335337 1.3549584251605447e7 0.0
1.3549584251605447e7 -7.591781433694752e6 0.0
0.0 0.0 0.0

-9.993946897288986e6 2.3682851662102383e7 0.0
2.3682851662102383e7 7.782266691478819e6 0.0
0.0 0.0 0.0

-1.2401376939704522e7 7.130009315986307e6 0.0
7.130009315986307e6 9.68519527876917e6 0.0
0.0 0.0 0.0

-1.7970899853036664e7 1.6426044487736885e7 0.0
1.6426044487736885e7 6.250736145023884e6 0.0
0.0 0.0 0.0

1.4928902679387549e7 1.2773192725120762e7 0.0
1.2773192725120762e7 4.2108968214985235e6 0.0
0.0 0.0 0.0

-460940.8883377407 1.3049951500059152e7 0.0
1.3049951500059152e7 -3.78317748783861e7 0.0
0.0 0.0 0.0

487847.07563309325 1.26861965293578e7 0.0
1.26861965293578e7 -8.914000153326465e6 0.0
0.0 0.0 0.0

-7.335063407181158e6 1.3843882735014519e7 0.0
1.3843882735014519e7 1.2167967003838759e7 0.0
0.0 0.0 0.0

-1.7846304474115332e6 1.55308280266559e7 0.0
1.55308280266559e7 -5.270299008302697e6 0.0
0.0 0.0 0.0

-4.1276370442680325e6 1.736235567565613e7 0.0
1.736235567565613e7 1.7889857479208722e6 0.0
0.0 0.0 0.0

167927.30468077993 1.2490061154518098e7 0.0
1.2490061154518098e7 2.7429654182810388e6 0.0
0.0 0.0 0.0

-4.0384949780299608e6 2.0960616946731236e7 0.0
2.0960616946731236e7 2.10421187015759e6 0.0
0.0 0.0 0.0

-4.924468014892843e6 5.616779353560541e6 0.0
5.616779353560541e6 4.528758811084308e6 0.0
0.0 0.0 0.0

2.119430309522897e7 1.696243795011625e7 0.0
1.696243795011625e7 2.8832035965241157e6 0.0
0.0 0.0 0.0

-3.4170096020338787e6 1.738117273722437e7 0.0
1.738117273722437e7 -2.212486132697866e6 0.0
0.0 0.0 0.0

590845.0464209941 1.2320873663695902e7 0.0
1.2320873663695902e7 3.6758478313715043e6 0.0
0.0 0.0 0.0

-5.603936193223795e6 1.6522416892361928e7 0.0
1.6522416892361928e7 2.5074897249551704e6 0.0
0.0 0.0 0.0

-5.277739487896336e6 1.29022352845788e7 0.0
1.29022352845788e7 1.10452969957957e7 0.0
0.0 0.0 0.0

-2.877177233093819e6 1.6424756845754497e7 0.0
1.6424756845754497e7 -2.097533917866294e6 0.0
0.0 0.0 0.0

4.337173311208949e6 7.234939521665187e6 0.0
7.234939521665187e6 -1.7083021831799936e7 0.0
0.0 0.0 0.0

-5.713075812516603e6 1.5126593979062038e7 0.0
1.5126593979062038e7 4.533364883022299e6 0.0
0.0 0.0 0.0

-3.3791958337506144e6 1.5328065830236044e7 0.0
1.5328065830236044e7 1.959659446910587e6 0.0
0.0 0.0 0.0

1.5622547782731182e6 6.823001243614538e6 0.0
6.823001243614538e6 -7.916016875651862e6 0.0
0.0 0.0 0.0

-5.210140845795346e6 1.601631914980645e7 0.0
1.601631914980645e7 7.561300975308124e6 0.0
0.0 0.0 0.0

-1.1859987410012154e7 1.4774780174517387e6 0.0
1.4774780174517387e6 2.8590546426889848e7 0.0
0.0 0.0 0.0

-290190.2628341174 8.638177229422692e6 0.0
8.638177229422692e6 -3.200001440018226e6 0.0
0.0 0.0 0.0

-7.855400728981828e6 1.6367102076231385e7 0.0
1.6367102076231385e7 2.0688788683992391e6 0.0
0.0 0.0 0.0

1.3463359648319611e7 1.7058455961785037e7 0.0
1.7058455961785037e7 5.391984414938749e6 0.0
0.0 0.0 0.0

2.186381664280422e6 1.0784249359422628e7 0.0
1.0784249359422628e7 -1.5711070083913479e7 0.0
0.0 0.0 0.0

4.935788218818948e6 6.272267824154822e6 0.0
6.272267824154822e6 -1.7680710759438846e7 0.0
0.0 0.0 0.0

3.4990637399760433e6 1.3375837020701012e7 0.0
1.3375837020701012e7 -769422.6490579958 0.0
0.0 0.0 0.0

-6.592755570902731e6 6.448415583502801e6 0.0
6.448415583502801e6 1.2842030197931865e7 0.0
0.0 0.0 0.0

-4.137061413187192e6 1.6807442969299953e7 0.0
1.6807442969299953e7 1.8350675740176698e6 0.0
0.0 0.0 0.0

-2.5624815497223553e6 1.4758627096560707e7 0.0
1.4758627096560707e7 -3.3095114615327492e6 0.0
0.0 0.0 0.0

-2.37865096266299e6 1.4941395688220106e7 0.0
1.4941395688220106e7 -4.461140224120499e6 0.0
0.0 0.0 0.0

-526860.5459475648 1.3427691678782642e7 0.0
1.3427691678782642e7 -4.236570015615351e6 0.0
0.0 0.0 0.0

1.878870784866314e6 7.300391507614236e6 0.0
7.300391507614236e6 -7.202773909007854e6 0.0
0.0 0.0 0.0

1.1088286427639723e7 1.4630422857815854e7 0.0
1.4630422857815854e7 1.1370388480992792e6 0.0
0.0 0.0 0.0

283017.81410588895 1.2678304773475228e7 0.0
1.2678304773475228e7 2.4716005588816954e6 0.0
0.0 0.0 0.0

-5.537451808462033e6 2.0286923102908183e7 0.0
2.0286923102908183e7 5.481906284796654e6 0.0
0.0 0.0 0.0

-2.474236339802618e7 1.1983997490621217e7 0.0
1.1983997490621217e7 1.1350197141054394e7 0.0
0.0 0.0 0.0

4.354877462998149e6 5.253745157494938e6 0.0
5.253745157494938e6 -1.1980940269426895e7 0.0
0.0 0.0 0.0

-441121.0231722136 1.3656623293438941e7 0.0
1.3656623293438941e7 1.844698767752781e6 0.0
0.0 0.0 0.0

-1.1497755165863521e6 1.1078268862053182e7 0.0
1.1078268862053182e7 -1.093436045858362e7 0.0
0.0 0.0 0.0

680785.6623238204 1.2339893872733276e7 0.0
1.2339893872733276e7 -1.2391861165993541e7 0.0
0.0 0.0 0.0

-6.195134282576855e6 -3.998977026463855e6 0.0
-3.998977026463855e6 9.790723057925234e6 0.0
0.0 0.0 0.0

1.5177004173283945e6 1.0265145167976685e7 0.0
1.0265145167976685e7 -1.1009708335949715e7 0.0
0.0 0.0 0.0

-2.7088987883160976e6 1.344887428105267e7 0.0
1.344887428105267e7 -2.0448040356308803e7 0.0
0.0 0.0 0.0

1.8132058897972284e6 9.925631941891281e6 0.0
9.925631941891281e6 -1.1620189132393021e7 0.0
0.0 0.0 0.0

97067.41910370998 1.3969219123106372e7 0.0
1.3969219123106372e7 -7.086425381944525e6 0.0
0.0 0.0 0.0

1.2769666840683108e7 1.482114472566968e7 0.0
1.482114472566968e7 3.5102829854999646e6 0.0
0.0 0.0 0.0

-1.1881732065301064e7 9.112114234247817e6 0.0
9.112114234247817e6 1.974991734042481e7 0.0
0.0 0.0 0.0

-2.284739876683833e6 1.602132841401134e7 0.0
1.602132841401134e7 -3.641125187068114e6 0.0
0.0 0.0 0.0

-338472.93772024807 1.2688963202869242e7 0.0
1.2688963202869242e7 -937656.3715990527 0.0
0.0 0.0 0.0

-4.542011009500264e6 1.4530111984518023e7 0.0
1.4530111984518023e7 -3.1257105724422894e6 0.0
0.0 0.0 0.0

1.019680078706475e7 1.6676852914057747e7 0.0
1.6676852914057747e7 5.566959263415977e6 0.0
0.0 0.0 0.0

-5.554737072876533e6 1.603267978454265e7 0.0
1.603267978454265e7 7.847202657416243e6 0.0
0.0 0.0 0.0

1.5921786577528864e6 1.2659379889333207e7 0.0
1.2659379889333207e7 -4.465292790809569e6 0.0
0.0 0.0 0.0

-4.131976420188822e6 1.83583738567332e7 0.0
1.83583738567332e7 1.6693326916313097e6 0.0
0.0 0.0 0.0

-5.916549633112596e6 1.5304472551098049e7 0.0
1.5304472551098049e7 5.361524838970734e6 0.0
0.0 0.0 0.0

-1.0112658054481516e7 -835264.221020642 0.0
-835264.221020642 4.640764596396876e7 0.0
0.0 0.0 0.0

-1.0876918900424333e6 1.4050208964406084e7 0.0
1.4050208964406084e7 -8.016381138048904e6 0.0
0.0 0.0 0.0

-4.847108775449004e6 1.8224163731515836e7 0.0
1.8224163731515836e7 3.8232147636855757e6 0.0
0.0 0.0 0.0

936142.699517936 4.722467202566504e6 0.0
4.722467202566504e6 -3.262333488107515e6 0.0
0.0 0.0 0.0

-1.1299680538128462e7 9.776166763514925e6 0.0
9.776166763514925e6 1.5317897288744561e7 0.0
0.0 0.0 0.0

-3.1286226876312997e6 1.2039494427138867e7 0.0
1.2039494427138867e7 -959162.7349123678 0.0
0.0 0.0 0.0

4.733128819171906e6 5.251470650643111e6 0.0
5.251470650643111e6 -1.4876852507076679e7 0.0
0.0 0.0 0.0

-5.297592342565795e6 2.069500721002564e7 0.0
2.069500721002564e7 5.03336036944697e6 0.0
0.0 0.0 0.0

1.8070371919404087e6 1.037092798920107e7 0.0
1.037092798920107e7 -1.0109678272443848e7 0.0
0.0 0.0 0.0

-7.979458481091807e6 1.2782523029634736e7 0.0
1.2782523029634736e7 1.1501476243865423e7 0.0
0.0 0.0 0.0

5.458186449848672e6 6.410093001281017e6 0.0
6.410093001281017e6 -2.746310852840006e7 0.0
0.0 0.0 0.0

-5.781848234501751e6 1.99972338433542e7 0.0
1.99972338433542e7 5.178875926871324e6 0.0
0.0 0.0 0.0

-3.1616716211756584e6 1.2189640223998547e7 0.0
1.2189640223998547e7 -1.4007310005948853e7 0.0
0.0 0.0 0.0

3.5055252894466333e6 4.482661557410712e6 0.0
4.482661557410712e6 -9.07600452408051e6 0.0
0.0 0.0 0.0

56896.926431215834 8.257681127392631e6 0.0
8.257681127392631e6 -3.8542925054546986e6 0.0
0.0 0.0 0.0

-1.309249902261725e7 1.9917496919566564e7 0.0
1.9917496919566564e7 8.950506419150434e6 0.0
0.0 0.0 0.0

1.0699062144275112e6 1.2454903088036127e7 0.0
1.2454903088036127e7 4.432419493697644e6 0.0
0.0 0.0 0.0

-9.559898664171029e6 2.2724714069383357e7 0.0
2.2724714069383357e7 6.601166461885401e6 0.0
0.0 0.0 0.0

-9.969360218554026e6 1.765952252684951e6 0.0
1.765952252684951e6 1.4073845620888641e7 0.0
0.0 0.0 0.0

4.640332517804088e6 8.471239275015645e6 0.0
8.471239275015645e6 -2.9963747445269734e7 0.0
0.0 0.0 0.0

2.9515511171972513e7 1.1333576220523007e7 0.0
1.1333576220523007e7 -7.290674820430096e6 0.0
0.0 0.0 0.0

-4.27352523678248e6 1.7244192324945357e7 0.0
1.7244192324945357e7 2.157878784325608e6 0.0
0.0 0.0 0.0

-6.0627390315161925e6 1.845431889697341e7 0.0
1.845431889697341e7 6.403874350310333e6 0.0
0.0 0.0 0.0

-5.161586980230502e6 1.6433759483443141e7 0.0
1.6433759483443141e7 4.371898414592229e6 0.0
0.0 0.0 0.0

-1.220958557939658e6 1.5339063170625279e7 0.0
1.5339063170625279e7 2.6564734364840694e7 0.0
0.0 0.0 0.0

4.903069262284654e6 5.265784819726592e6 0.0
5.265784819726592e6 -1.68574495419903e7 0.0
0.0 0.0 0.0

292733.33840537677 9.74841508150582e6 0.0
9.74841508150582e6 -5.356200911684298e6 0.0
0.0 0.0 0.0

-2.4969907302943002e6 2.041729270992281e7 0.0
2.041729270992281e7 -2.051350369749811e6 0.0
0.0 0.0 0.0

3.365678456521565e6 8.84944551520937e6 0.0
8.84944551520937e6 -1.936975370034664e7 0.0
0.0 0.0 0.0

-1.6111085611786194e7 8.58106624050009e6 0.0
8.58106624050009e6 1.0407399744305378e7 0.0
0.0 0.0 0.0

-3.5668748434130815e6 1.5244396369135858e7 0.0
1.5244396369135858e7 1.3681893820575718e6 0.0
0.0 0.0 0.0

-456606.11944461765 1.0499282214753855e7 0.0
1.0499282214753855e7 1.1747419048976202e6 0.0
0.0 0.0 0.0

2.0921578589809318e6 1.0058357156393958e7 0.0
1.0058357156393958e7 -1.0723528631255377e7 0.0
0.0 0.0 0.0

-2.372040218637854e6 1.510256547411039e7 0.0
1.510256547411039e7 1.3651223482643476e7 0.0
0.0 0.0 0.0

431362.46675418667 2.027150164196894e7 0.0
2.027150164196894e7 -4.237145957711784e6 0.0
0.0 0.0 0.0

-2.7453482120881587e7 -1.203310068915957e6 0.0
-1.203310068915957e6 9.872884508901369e6 0.0
0.0 0.0 0.0

1.245090947213531e7 2.3621530868772596e7 0.0
2.3621530868772596e7 -1.2636260810503054e7 0.0
0.0 0.0 0.0

-760193.9949147922 2.081842269840216e7 0.0
2.081842269840216e7 -5.14427085612389e6 0.0
0.0 0.0 0.0

4.137927811108392e6 5.304491988813116e6 0.0
5.304491988813116e6 -1.1445658084066369e7 0.0
0.0 0.0 0.0

-5.3888185530533735e6 1.8295899269710816e7 0.0
1.8295899269710816e7 3.967688117414622e6 0.0
0.0 0.0 0.0

1.680520988339498e7 1.1164164298352472e7 0.0
1.1164164298352472e7 -394193.87329380214 0.0
0.0 0.0 0.0

-1.2185673222036574e7 4.0583113754131263e6 0.0
4.0583113754131263e6 3.0446185166535497e7 0.0
0.0 0.0 0.0

-1.2132465381939295e6 1.4150215755923476e7 0.0
1.4150215755923476e7 -7.527892664890132e6 0.0
0.0 0.0 0.0

8.995079695026964e6 1.365171413823339e7 0.0
1.365171413823339e7 3.1659244517503413e6 0.0
0.0 0.0 0.0

473411.71825925494 1.3822580719490329e7 0.0
1.3822580719490329e7 -7.902092882041428e6 0.0
0.0 0.0 0.0

5.260083586968979e6 5.363134958806482e6 0.0
5.363134958806482e6 -1.7836567759710565e7 0.0
0.0 0.0 0.0

-3.9158804391518105e6 1.7058764532874323e7 0.0
1.7058764532874323e7 1.039332177463256e6 0.0
0.0 0.0 0.0

-670023.3554090662 1.117843667205914e7 0.0
1.117843667205914e7 -1.0527792622909911e7 0.0
0.0 0.0 0.0

-3.6632809428049903e6 1.8202612844358824e7 0.0
1.8202612844358824e7 -1.0445185642536147e6 0.0
0.0 0.0 0.0

-1.1085247257182734e7 6.4392444993450595e6 0.0
6.4392444993450595e6 3.216716920297405e7 0.0
0.0 0.0 0.0

695401.1632902366 1.176336376107556e7 0.0
1.176336376107556e7 -7.606881050928441e6 0.0
0.0 0.0 0.0

3.1858147625909457e6 8.400467230624836e6 0.0
8.400467230624836e6 -1.4375877157912608e7 0.0
0.0 0.0 0.0

-4152.146114881383 1.5677795970538277e7 0.0
1.5677795970538277e7 -5.565363922116937e6 0.0
0.0 0.0 0.0

-581266.8366553385 1.1054954118373014e7 0.0
1.1054954118373014e7 -7.003850538070523e6 0.0
0.0 0.0 0.0

-1.147709950997038e7 -1.1893854766257773e6 0.0
-1.1893854766257773e6 2.8472289467726994e7 0.0
0.0 0.0 0.0

-4.0383517854902735e6 1.4988579476962542e7 0.0
1.4988579476962542e7 1.1970341723477084e7 0.0
0.0 0.0 0.0

3.5106142678284375e6 8.710840151922805e6 0.0
8.710840151922805e6 -2.0464081440638285e7 0.0
0.0 0.0 0.0

-3.037125190383956e6 1.8030105747986697e7 0.0
1.8030105747986697e7 -1.1249830813214935e6 0.0
0.0 0.0 0.0

-2.7571875461465167e6 1.4173468874676764e7 0.0
1.4173468874676764e7 9.353015362404805e6 0.0
0.0 0.0 0.0

3.7860532038272833e6 7.806832377015296e6 0.0
7.806832377015296e6 -1.4040162430732347e7 0.0
0.0 0.0 0.0

2.22947441960779e7 1.4880273163809849e7 0.0
1.4880273163809849e7 3.805947611153276e6 0.0
0.0 0.0 0.0

-3.091968339915653e6 1.767121032810291e7 0.0
1.767121032810291e7 -1.1945174081508068e6 0.0
0.0 0.0 0.0

-6.843578790590457e6 -4.8829592765522795e6 0.0
-4.8829592765522795e6 1.3206327093382295e7 0.0
0.0 0.0 0.0

-1.232060014060616e7 -1.14658517918577e6 0.0
-1.14658517918577e6 2.564315324506653e7 0.0
0.0 0.0 0.0

5.245209142026337e6 4.472373384570147e6 0.0
4.472373384570147e6 -1.5396847015425684e7 0.0
0.0 0.0 0.0

-5.725029772826079e6 1.6077197191179676e7 0.0
1.6077197191179676e7 3.885546826583674e6 0.0
0.0 0.0 0.0

-712303.2705881688 1.3147527928076167e7 0.0
1.3147527928076167e7 -4.562260463966249e6 0.0
0.0 0.0 0.0

-1.8474794951409367e6 1.520976421580886e7 0.0
1.520976421580886e7 -6.095277479226422e6 0.0
0.0 0.0 0.0

-7.128995147317791e6 342197.5856579017 0.0
342197.5856579017 9.84030335571569e6 0.0
0.0 0.0 0.0

-2.1376126716584824e6 1.5176566447106058e7 0.0
1.5176566447106058e7 -3.5555079339378416e6 0.0
0.0 0.0 0.0

-1.1610313773970021e7 -1.398475177514401e6 0.0
-1.398475177514401e6 2.7886410413285892e7 0.0
0.0 0.0 0.0

3.472743091956091e6 1.2586619244536268e7 0.0
1.2586619244536268e7 1.0526871830258453e6 0.0
0.0 0.0 0.0

2.932405130602938e6 9.828995985987598e6 0.0
9.828995985987598e6 -1.952573512740109e7 0.0
0.0 0.0 0.0

3.9519304207514906e6 8.58170719138297e6 0.0
8.58170719138297e6 -2.0314081866058983e7 0.0
0.0 0.0 0.0

-1.1948911597436797e7 9.562628409918604e6 0.0
9.562628409918604e6 1.6025543582177682e7 0.0
0.0 0.0 0.0

-4.515975808142878e6 1.352666845735272e7 0.0
1.352666845735272e7 3.0060052997922506e6 0.0
0.0 0.0 0.0

1.2572729831083938e6 5.109136731485045e6 0.0
5.109136731485045e6 -4.15663646928039e6 0.0
0.0 0.0 0.0

603127.8556393431 1.2096253203251494e7 0.0
1.2096253203251494e7 -7.08081273430863e6 0.0
0.0 0.0 0.0

-5.671860214558673e6 1.7843203775754176e7 0.0
1.7843203775754176e7 6.262699533010448e6 0.0
0.0 0.0 0.0

-253318.0003816299 1.5300021945196336e7 0.0
1.5300021945196336e7 1.722440160800528e7 0.0
0.0 0.0 0.0

3.6604635720610227e6 1.5280548570030056e7 0.0
1.5280548570030056e7 -4.760375441797662e6 0.0
0.0 0.0 0.0

-9.369734762644494e6 -1.3954103654576659e6 0.0
-1.3954103654576659e6 4.494054348225031e7 0.0
0.0 0.0 0.0

-1.1689599624638619e7 5.439493256984647e6 0.0
5.439493256984647e6 2.4743979750460006e7 0.0
0.0 0.0 0.0

-9.339114903049476e6 9.354360920713969e6 0.0
9.354360920713969e6 1.2527342503810551e7 0.0
0.0 0.0 0.0

-740701.6868272156 1.1663871957906952e7 0.0
1.1663871957906952e7 3.460697001323977e6 0.0
0.0 0.0 0.0

-4.0620515562374005e6 4.382459179229119e6 0.0
4.382459179229119e6 4.1273716209101304e6 0.0
0.0 0.0 0.0

-8.407655008750992e6 1.406249612879137e7 0.0
1.406249612879137e7 3.4395465743503957e6 0.0
0.0 0.0 0.0

5.109159700349989e6 5.661929479468973e6 0.0
5.661929479468973e6 -1.6208486212940546e7 0.0
0.0 0.0 0.0

-1.8606141054404238e6 1.277830792116016e7 0.0
1.277830792116016e7 -1.85058970513761e7 0.0
0.0 0.0 0.0

-100515.48813418299 1.2726879782167887e7 0.0
1.2726879782167887e7 1.494287690554415e6 0.0
0.0 0.0 0.0

3.102191109805617e6 1.8698228072376307e7 0.0
1.8698228072376307e7 -8.103710038628412e6 0.0
0.0 0.0 0.0

697028.7510449206 1.4127716160522157e7 0.0
1.4127716160522157e7 -6.838580169637949e6 0.0
0.0 0.0 0.0

-8.779550564880803e6 1.7274299626908302e7 0.0
1.7274299626908302e7 -471928.8480977472 0.0
0.0 0.0 0.0

-4.483656841224158e6 1.7600270982943643e7 0.0
1.7600270982943643e7 1.3111702481430937e6 0.0
0.0 0.0 0.0

48997.94764223206 6.117908632048269e6 0.0
6.117908632048269e6 -4.078970913915394e6 0.0
0.0 0.0 0.0

-8.650381742089894e6 2.328486448168374e7 0.0
2.328486448168374e7 7.5272515774249835e6 0.0
0.0 0.0 0.0

-4.317634214976605e6 1.384311284381545e7 0.0
1.384311284381545e7 2.4087770519268084e6 0.0
0.0 0.0 0.0

-6.938663522408753e6 5.387652651392192e6 0.0
5.387652651392192e6 6.568740431597186e6 0.0
0.0 0.0 0.0

-4.61441414652851e6 1.3693836928600125e7 0.0
1.3693836928600125e7 1.2243402403341606e6 0.0
0.0 0.0 0.0

-315242.5027396795 4.0761233067518543e6 0.0
4.0761233067518543e6 -2.111596850849251e6 0.0
0.0 0.0 0.0

-675223.2418189137 7.102445374000585e6 0.0
7.102445374000585e6 -5.888440584766705e6 0.0
0.0 0.0 0.0

2.758077776710647e6 1.008183528553149e7 0.0
1.008183528553149e7 -1.7514343603288792e7 0.0
0.0 0.0 0.0

-3.1224375154013364e6 1.5947382988573743e7 0.0
1.5947382988573743e7 -2.4363462466062983e6 0.0
0.0 0.0 0.0

-6.719074726487663e6 1.3869324647417342e7 0.0
1.3869324647417342e7 1.175557638552513e7 0.0
0.0 0.0 0.0

-604038.0030061001 1.3077682920969602e7 0.0
1.3077682920969602e7 -3.602850455697761e6 0.0
0.0 0.0 0.0

3.2800548444361254e6 5.034191675129675e6 0.0
5.034191675129675e6 -9.191980938076328e6 0.0
0.0 0.0 0.0

-3.44569862852213e6 1.6056988913302645e7 0.0
1.6056988913302645e7 -1.5737227212807164e6 0.0
0.0 0.0 0.0

-4.368843118376324e6 1.8215783190293778e7 0.0
1.8215783190293778e7 1.0291945328301392e6 0.0
0.0 0.0 0.0

359662.4185104808 1.5438193971613908e7 0.0
1.5438193971613908e7 -5.226533707497018e6 0.0
0.0 0.0 0.0

-7.781158131675854e6 6.698534858518013e6 0.0
6.698534858518013e6 8.16951223913471e6 0.0
0.0 0.0 0.0

301346.57729389844 1.2000003661991106e7 0.0
1.2000003661991106e7 -1.1833962929746065e7 0.0
0.0 0.0 0.0

-6.699657113341127e6 2.0738171661895014e7 0.0
2.0738171661895014e7 5.873534535327978e6 0.0
0.0 0.0 0.0

-6.1212145764396675e6 2.0380209205639455e7 0.0
2.0380209205639455e7 5.48548387309668e6 0.0
0.0 0.0 0.0

578150.4311068347 1.1540678666747408e7 0.0
1.1540678666747408e7 -1.6128861880152874e7 0.0
0.0 0.0 0.0

-686117.9330695828 1.1280037371967554e7 0.0
1.1280037371967554e7 -8.342843921045541e6 0.0
0.0 0.0 0.0

-333699.11992965976 1.3137890171647402e7 0.0
1.3137890171647402e7 1.1930319443584015e6 0.0
0.0 0.0 0.0

3.6578652545600757e6 8.159507105450484e6 0.0
8.159507105450484e6 -1.6883252180729058e7 0.0
0.0 0.0 0.0

-1.221723386968589e7 5.861893920573015e6 0.0
5.861893920573015e6 2.019659944550133e7 0.0
0.0 0.0 0.0

3.2478962659558356e6 1.0664524040884573e7 0.0
1.0664524040884573e7 -3.04543761293527e7 0.0
0.0 0.0 0.0

-2.1925286347300317e6 2.2372815923515387e7 0.0
2.2372815923515387e7 -4.727273105322426e6 0.0
0.0 0.0 0.0

1.4534684609914299e6 1.3471104513201987e7 0.0
1.3471104513201987e7 8.678351505595962e6 0.0
0.0 0.0 0.0

-1.9393805439263145e6 1.445625789629623e7 0.0
1.445625789629623e7 1.4919921522309747e7 0.0
0.0 0.0 0.0

6.405256847356847e6 1.5339229674753238e7 0.0
1.5339229674753238e7 6.026082198083717e6 0.0
0.0 0.0 0.0

-643017.0238530423 1.0978654636327004e7 0.0
1.0978654636327004e7 552438.0275448986 0.0
0.0 0.0 0.0

-3.1488141593585685e6 1.589279612164229e7 0.0
1.589279612164229e7 -1.4067629962086235e6 0.0
0.0 0.0 0.0

-1.3134620424012726e7 1.5886650936227007e7 0.0
1.5886650936227007e7 -932355.9448514283 0.0
0.0 0.0 0.0

-107242.19264935446 1.0416590336223364e7 0.0
1.0416590336223364e7 -816122.3760945009 0.0
0.0 0.0 0.0

-2.2919500474901777e6 1.4827364302873567e7 0.0
1.4827364302873567e7 2.29414759819772e6 0.0
0.0 0.0 0.0

4.94907966955681e6 5.315316526130754e6 0.0
5.315316526130754e6 -1.406333940241757e7 0.0
0.0 0.0 0.0

-8.92984415517335e6 1.4937334960562602e7 0.0
1.4937334960562602e7 4.704860653875716e6 0.0
0.0 0.0 0.0

-1.4188597072868505e7 2.361745186354533e7 0.0
2.361745186354533e7 8.94206240839619e6 0.0
0.0 0.0 0.0

-8.527585644775357e6 -74237.53058709399 0.0
-74237.53058709399 1.2500937627139617e7 0.0
0.0 0.0 0.0

79278.14330433193 1.948703067198804e7 0.0
1.948703067198804e7 -4.896151219455348e6 0.0
0.0 0.0 0.0

-9.432623034746423e6 7.130791320489594e6 0.0
7.130791320489594e6 4.84181110811404e7 0.0
0.0 0.0 0.0

-6.867991863553526e6 -4.767953154970088e6 0.0
-4.767953154970088e6 1.0979688528119687e7 0.0
0.0 0.0 0.0

-4.593270727457225e6 1.4472212940702504e7 0.0
1.4472212940702504e7 -2.2346721202982455e7 0.0
0.0 0.0 0.0

733009.3666403214 1.2973078806926219e7 0.0
1.2973078806926219e7 -8.442843253611859e6 0.0
0.0 0.0 0.0

-4.383191435461274e6 1.8742128198745698e7 0.0
1.8742128198745698e7 1.959281412220202e6 0.0
0.0 0.0 0.0

-6.682792819875139e6 1.23842810728417e7 0.0
1.23842810728417e7 528668.3784260913 0.0
0.0 0.0 0.0

33178.02383539616 7.909040156700668e6 0.0
7.909040156700668e6 -3.495795604458282e6 0.0
0.0 0.0 0.0

-4.186356440833353e6 1.688899352873994e7 0.0
1.688899352873994e7 316155.3701806017 0.0
0.0 0.0 0.0

-5.378861189112609e6 1.993788731234985e7 0.0
1.993788731234985e7 4.972060589478297e6 0.0
0.0 0.0 0.0

-4.274880461090593e6 1.88102169024862e7 0.0
1.88102169024862e7 1.8778878011003046e6 0.0
0.0 0.0 0.0

2.0522122957652789e6 1.01268940448141e7 0.0
1.01268940448141e7 -3.461106091179879e7 0.0
0.0 0.0 0.0

-2.831489885446457e6 1.2323589546786487e7 0.0
1.2323589546786487e7 -4.1883968522474063e6 0.0
0.0 0.0 0.0

-1.09177421741773e7 -1.2855505598118578e6 0.0
-1.2855505598118578e6 3.4855279510080546e7 0.0
0.0 0.0 0.0

3.883694568552007e6 1.73476390675487e7 0.0
1.73476390675487e7 3.0555578159301993e7 0.0
0.0 0.0 0.0

-3.1763945195866928e7 -735296.6583096348 0.0
-735296.6583096348 1.058301287372871e7 0.0
0.0 0.0 0.0

1.3935278821910964e7 1.4737955122946521e7 0.0
1.4737955122946521e7 -6.376712145963814e6 0.0
0.0 0.0 0.0

1.8793320698445411e6 1.1323399492448242e7 0.0
1.1323399492448242e7 -1.526177831825824e7 0.0
0.0 0.0 0.0

2.215853271897276e6 5.704076216494326e6 0.0
5.704076216494326e6 -6.682829344867384e6 0.0
0.0 0.0 0.0

2.0105174587207932e7 1.4037229072530705e7 0.0
1.4037229072530705e7 -1.0186385165913306e7 0.0
0.0 0.0 0.0

2.095285207104072e6 8.934845428510858e6 0.0
8.934845428510858e6 -6.040309400570264e6 0.0
0.0 0.0 0.0

8.877564708766744e6 1.4963293263554765e7 0.0
1.4963293263554765e7 5.217791033323115e6 0.0
0.0 0.0 0.0

-4.653628793418085e6 1.74886720422e7 0.0
1.74886720422e7 1.604963679371866e6 0.0
0.0 0.0 0.0

-5.894060988892667e6 1.813050056861889e7 0.0
1.813050056861889e7 6.409746349169277e6 0.0
0.0 0.0 0.0

-438910.19402482035 9.96795197036143e6 0.0
9.96795197036143e6 -5.69979320366841e6 0.0
0.0 0.0 0.0

-7.559406117197085e6 8.1661465712951375e6 0.0
8.1661465712951375e6 1.0354424780938262e6 0.0
0.0 0.0 0.0

-1.5861649090317194e6 1.1676782819210198e7 0.0
1.1676782819210198e7 -1.1273686873340322e7 0.0
0.0 0.0 0.0

-1.8510226970624628e6 1.4343285023180733e7 0.0
1.4343285023180733e7 3.314260356788486e6 0.0
0.0 0.0 0.0

-1.3729664375034678e6 1.2646120349374568e7 0.0
1.2646120349374568e7 5.950712334048576e6 0.0
0.0 0.0 0.0

-1.0036964553990737e7 5.937915191364395e6 0.0
5.937915191364395e6 4.46673227235435e7 0.0
0.0 0.0 0.0

-4.629890336904614e6 1.650828899504739e7 0.0
1.650828899504739e7 1.311087070999016e6 0.0
0.0 0.0 0.0

5.265404298122068e6 4.486506370060259e6 0.0
4.486506370060259e6 -1.5530703397701623e7 0.0
0.0 0.0 0.0

-4.799912728741623e6 1.478420120393031e7 0.0
1.478420120393031e7 8.0756714235008955e6 0.0
0.0 0.0 0.0

-2.0441985114042317e6 1.2779672273999186e7 0.0
1.2779672273999186e7 6.691416640386712e6 0.0
0.0 0.0 0.0

3.0439141040111305e6 1.6335827992523735e7 0.0
1.6335827992523735e7 -6.100855511412738e6 0.0
0.0 0.0 0.0

-3.052311790483284e6 1.6191070242321908e7 0.0
1.6191070242321908e7 -3.4393964102784004e6 0.0
0.0 0.0 0.0

-6.608170110209329e6 2.1546323641220752e7 0.0
2.1546323641220752e7 5.37457016404129e6 0.0
0.0 0.0 0.0

-483168.7753731344 6.374238433907663e6 0.0
6.374238433907663e6 -3.4468687326832535e6 0.0
0.0 0.0 0.0

-9.576255473859813e6 2.0383462780708104e7 0.0
2.0383462780708104e7 7.607110484389305e6 0.0
0.0 0.0 0.0

-4.92515935942743e6 1.81355714243115e7 0.0
1.81355714243115e7 4.1920378191565545e6 0.0
0.0 0.0 0.0

-9.531110865717039e6 1.0581169396148775e7 0.0
1.0581169396148775e7 1.2293121807941202e7 0.0
0.0 0.0 0.0

1.056296832230125e7 1.4814171694340581e7 0.0
1.4814171694340581e7 -7.160087529269354e6 0.0
0.0 0.0 0.0

-187924.82162412023 1.3171641522542141e7 0.0
1.3171641522542141e7 -8.077777445650114e6 0.0
0.0 0.0 0.0

-4.799541979248192e6 1.7379456196456604e7 0.0
1.7379456196456604e7 1.9687746894745147e6 0.0
0.0 0.0 0.0

-135498.17418012535 9.289352814284397e6 0.0
9.289352814284397e6 -6.010285261002857e6 0.0
0.0 0.0 0.0

-2.446015919878227e6 1.419823474916067e7 0.0
1.419823474916067e7 5.690199408006328e6 0.0
0.0 0.0 0.0

-8.684379640093345e6 5.6569995479827775e6 0.0
5.6569995479827775e6 2.9405587735210145e6 0.0
0.0 0.0 0.0

-8.549253986635525e6 1.407615085904706e7 0.0
1.407615085904706e7 4.634503073550543e6 0.0
0.0 0.0 0.0

381323.06775515806 1.3041937933063574e7 0.0
1.3041937933063574e7 -8.23556824630652e6 0.0
0.0 0.0 0.0

347216.266830632 1.2271575828197988e7 0.0
1.2271575828197988e7 4.731960736104776e6 0.0
0.0 0.0 0.0

144160.99555725558 1.2929669366723273e7 0.0
1.2929669366723273e7 -1.086408357050164e7 0.0
0.0 0.0 0.0

-7.412770276462053e6 1.375618046485665e7 0.0
1.375618046485665e7 1.1523352385771748e7 0.0
0.0 0.0 0.0

-1.4355034204211012e7 1.0047476218557283e7 0.0
1.0047476218557283e7 7.546250476349183e6 0.0
0.0 0.0 0.0

-1.8281461417310704e6 1.4264242617723197e7 0.0
1.4264242617723197e7 932579.834098959 0.0
0.0 0.0 0.0

-1.1211111806562578e7 2.325674002650403e6 0.0
2.325674002650403e6 1.3159137829713602e7 0.0
0.0 0.0 0.0

-1.2355117985703996e6 1.405890993342882e7 0.0
1.405890993342882e7 6.648960067436454e6 0.0
0.0 0.0 0.0

431258.7440932351 2.0779398599792678e7 0.0
2.0779398599792678e7 -6.829874031157407e6 0.0
0.0 0.0 0.0

-2.6068182923293218e7 1.489952740884894e7 0.0
1.489952740884894e7 9.12912588567015e6 0.0
0.0 0.0 0.0

-2.991613762943661e6 2.4003233591187064e7 0.0
2.4003233591187064e7 -1.4273627978489536e6 0.0
0.0 0.0 0.0

-7.488724873404257e6 1.56747424146519e7 0.0
1.56747424146519e7 1.1717314757677163e6 0.0
0.0 0.0 0.0

-3.697964671874038e6 2.2350357953734934e7 0.0
2.2350357953734934e7 1.108897534071669e6 0.0
0.0 0.0 0.0

-9.965862838910483e6 419839.1925412125 0.0
419839.1925412125 1.1727778651339296e7 0.0
0.0 0.0 0.0

3.9518013421440492e6 1.590607621637692e7 0.0
1.590607621637692e7 -5.411769983949738e6 0.0
0.0 0.0 0.0

-5.877839694032326e6 2.065143334270287e7 0.0
2.065143334270287e7 5.902723533693373e6 0.0
0.0 0.0 0.0

-2.555731649257229e6 1.4682643132710584e7 0.0
1.4682643132710584e7 100151.63168843184 0.0
0.0 0.0 0.0

919802.769913598 1.2174076317291824e7 0.0
1.2174076317291824e7 -1.3254423547350619e7 0.0
0.0 0.0 0.0

-6.381543879549004e6 1.9218432576308105e7 0.0
1.9218432576308105e7 6.434713102730833e6 0.0
0.0 0.0 0.0

-6.300534580306374e6 1.1944330462083422e7 0.0
1.1944330462083422e7 3.985252320079965e6 0.0
0.0 0.0 0.0

-4.252379449927495e6 2.2250458846444115e7 0.0
2.2250458846444115e7 -726334.18754879 0.0
0.0 0.0 0.0

-1.1332399344996756e7 2.033329692156751e7 0.0
2.033329692156751e7 8.838797863947656e6 0.0
0.0 0.0 0.0

2.4152904684986416e6 1.603138330108163e7 0.0
1.603138330108163e7 -5.736048890612935e6 0.0
0.0 0.0 0.0

3.8273432447827747e6 6.07343080355736e6 0.0
6.07343080355736e6 -1.0479576562984992e7 0.0
0.0 0.0 0.0

-1.3310663378079813e6 1.2456206892563201e7 0.0
1.2456206892563201e7 -1.6472548659856739e7 0.0
0.0 0.0 0.0

3.321375634559117e6 4.89565250323162e6 0.0
4.89565250323162e6 -9.7040157338573e6 0.0
0.0 0.0 0.0

54027.60124538839 1.406815927211135e7 0.0
1.406815927211135e7 8.620573036326798e6 0.0
0.0 0.0 0.0

1.8387089232132595e6 1.442233670024532e7 0.0
1.442233670024532e7 -5.068744705531822e6 0.0
0.0 0.0 0.0

-1.3418705974340078e6 1.959849080440037e7 0.0
1.959849080440037e7 -3.7421655615108507e6 0.0
0.0 0.0 0.0

-1.2006264202927025e7 1.039211399974163e7 0.0
1.039211399974163e7 1.4803156914532004e7 0.0
0.0 0.0 0.0

-16446.196784981526 1.0382104891724264e7 0.0
1.0382104891724264e7 -5.074609834550505e6 0.0
0.0 0.0 0.0

-1.6554132308302769e6 5.0406408305395e6 0.0
5.0406408305395e6 5.617290916264972e6 0.0
0.0 0.0 0.0

3.6219206857717764e6 9.264370124862297e6 0.0
9.264370124862297e6 -2.627271565808075e7 0.0
0.0 0.0 0.0

158960.9144833903 1.1771658531650482e7 0.0
1.1771658531650482e7 980026.0633403104 0.0
0.0 0.0 0.0

-1.0639627483014835e7 1.8685733288218662e7 0.0
1.8685733288218662e7 7.150382918583677e6 0.0
0.0 0.0 0.0

508151.8794526686 1.1984297990001194e7 0.0
1.1984297990001194e7 -8.93566985718355e6 0.0
0.0 0.0 0.0

8.454991417103387e6 1.3468347370746003e7 0.0
1.3468347370746003e7 -208502.53312534047 0.0
0.0 0.0 0.0

-1.1316931170547685e7 1.344791586990879e6 0.0
1.344791586990879e6 1.7031764120775554e7 0.0
0.0 0.0 0.0

-1.844911142738009e7 1.4988815122926654e7 0.0
1.4988815122926654e7 6.327046301281431e6 0.0
0.0 0.0 0.0

7.597870089896165e6 2.0249262080699652e7 0.0
2.0249262080699652e7 -1.48274170621945e7 0.0
0.0 0.0 0.0

-5.848596455291833e6 1.8229238137345128e7 0.0
1.8229238137345128e7 6.804228384431658e6 0.0
0.0 0.0 0.0

-846608.181431842 9.232108796641886e6 0.0
9.232108796641886e6 -87281.21319861186 0.0
0.0 0.0 0.0

-1.1678787254692977e7 1.0586493415091231e7 0.0
1.0586493415091231e7 1.6882477686609793e7 0.0
0.0 0.0 0.0

-8.46927190118913e6 -5.1081704287421275e6 0.0
-5.1081704287421275e6 1.3808661711124366e7 0.0
0.0 0.0 0.0

-470550.16489389073 1.3013157073548099e7 0.0
1.3013157073548099e7 -8.867656920387274e6 0.0
0.0 0.0 0.0

-4.735963270880397e6 1.788555079422727e7 0.0
1.788555079422727e7 -2.4251265174889364e6 0.0
0.0 0.0 0.0

-852223.0893014242 1.3076751526660467e7 0.0
1.3076751526660467e7 -5.607510188830755e6 0.0
0.0 0.0 0.0

-1.1214406484201336e7 6.675232362456256e6 0.0
6.675232362456256e6 2.910688011988308e7 0.0
0.0 0.0 0.0

1.9348738928678548e6 1.0841028841665667e7 0.0
1.0841028841665667e7 -1.5095293680116624e7 0.0
0.0 0.0 0.0

-5.86806621551579e6 1.7898682833946202e7 0.0
1.7898682833946202e7 -1.7274118716619574e6 0.0
0.0 0.0 0.0

1.0854266069430783e6 1.196722516666956e7 0.0
1.196722516666956e7 -1.3153700640062243e7 0.0
0.0 0.0 0.0

7.431675225896474e6 1.3691844332923226e7 0.0
1.3691844332923226e7 3.777943451485262e6 0.0
0.0 0.0 0.0

-1.1773685138770187e7 4.783356072620698e6 0.0
4.783356072620698e6 2.665182984699864e7 0.0
0.0 0.0 0.0

1.2413502126801913e6 1.2344145371149e7 0.0
1.2344145371149e7 -2.900379153239979e6 0.0
0.0 0.0 0.0

-4.630322274991231e6 1.4397551072648512e7 0.0
1.4397551072648512e7 8.792882092050709e6 0.0
0.0 0.0 0.0

-2.8922305698635476e6 1.8505372723521374e7 0.0
1.8505372723521374e7 -1.2083342896792097e6 0.0
0.0 0.0 0.0

3.8204614892009255e6 8.243771057307871e6 0.0
8.243771057307871e6 -1.4899268463372517e7 0.0
0.0 0.0 0.0

1.9397221649422143e6 7.6380248366128495e6 0.0
7.6380248366128495e6 -7.416120887596976e6 0.0
0.0 0.0 0.0

3.319074616700327e6 9.3820345514345e6 0.0
9.3820345514345e6 -2.340467359103715e7 0.0
0.0 0.0 0.0

-3.1988255355869927e6 1.581173746503968e7 0.0
1.581173746503968e7 -1.4097705229569098e6 0.0
0.0 0.0 0.0

-1.295703914709108e7 4.1729383251265357e6 0.0
4.1729383251265357e6 2.3222771663267657e7 0.0
0.0 0.0 0.0

-2.5574947946742694e6 1.5850541611813303e7 0.0
1.5850541611813303e7 -2.5063987285640845e6 0.0
0.0 0.0 0.0

-502099.68487753044 1.253959617155738e7 0.0
1.253959617155738e7 -5.902031217605304e6 0.0
0.0 0.0 0.0

4.058694380764939e6 7.793866802422103e6 0.0
7.793866802422103e6 -2.1664076231140938e7 0.0
0.0 0.0 0.0

-1.2096789464016413e7 9.317276302688934e6 0.0
9.317276302688934e6 1.857640814190831e7 0.0
0.0 0.0 0.0

467610.611715651 1.278485909034793e7 0.0
1.278485909034793e7 3.3143280349617787e6 0.0
0.0 0.0 0.0

2.386569311152803e6 1.0072276172129812e7 0.0
1.0072276172129812e7 -1.876484100354566e7 0.0
0.0 0.0 0.0

5.196142841112097e6 4.708361843192564e6 0.0
4.708361843192564e6 -1.687844802587692e7 0.0
0.0 0.0 0.0

-6.623757258359973e6 1.4689981167575827e7 0.0
1.4689981167575827e7 9.41958699894924e6 0.0
0.0 0.0 0.0

-3.576388490543768e6 1.71148626514598e7 0.0
1.71148626514598e7 -1.000551310088661e6 0.0
0.0 0.0 0.0

1.273440503282284e6 9.945032136687893e6 0.0
9.945032136687893e6 -7.826835662104717e6 0.0
0.0 0.0 0.0

-1.0464790557590395e7 -2.1467942002645265e6 0.0
-2.1467942002645265e6 2.0501805083689135e7 0.0
0.0 0.0 0.0

415417.4555247654 4.0310578429934424e6 0.0
4.0310578429934424e6 -2.0677725981918285e6 0.0
0.0 0.0 0.0

-8.378468546257836e6 1.2971099399127927e7 0.0
1.2971099399127927e7 1.0316798340648666e7 0.0
0.0 0.0 0.0

7.988796901095362e6 1.5089808278347746e7 0.0
1.5089808278347746e7 4.576714554983983e6 0.0
0.0 0.0 0.0

5.098797158516042e6 1.4346007511311235e7 0.0
1.4346007511311235e7 5.043382867329659e6 0.0
0.0 0.0 0.0

-5.261053913872799e6 1.6526255863885147e7 0.0
1.6526255863885147e7 -2.143977765254254e6 0.0
0.0 0.0 0.0

-1.0093358571639387e6 1.0356920772975642e7 0.0
1.0356920772975642e7 -7.868395951692767e6 0.0
0.0 0.0 0.0

-2.8281641125655244e6 1.6554086145304052e7 0.0
1.6554086145304052e7 -2.832781590365361e6 0.0
0.0 0.0 0.0

-6.833752448027016e6 1.5745481123853e7 0.0
1.5745481123853e7 1.625708394761345e6 0.0
0.0 0.0 0.0

3.048066399454672e6 9.611718696374029e6 0.0
9.611718696374029e6 -2.144266493158905e7 0.0
0.0 0.0 0.0

694705.3543826572 4.758687087984136e6 0.0
4.758687087984136e6 -4.111675904705873e6 0.0
0.0 0.0 0.0

361459.178621416 6.107019111881402e6 0.0
6.107019111881402e6 -3.0360148332809275e6 0.0
0.0 0.0 0.0

-34742.6490298507 1.2332589824417187e7 0.0
1.2332589824417187e7 -581718.4189428241 0.0
0.0 0.0 0.0

4.1873327078269375e6 1.5142738137442067e7 0.0
1.5142738137442067e7 7.204917838953214e6 0.0
0.0 0.0 0.0

-1.0063393113364158e6 1.0794234163345499e7 0.0
1.0794234163345499e7 2.316038103274447e6 0.0
0.0 0.0 0.0

-7.325963074576189e6 1.3949829647184031e7 0.0
1.3949829647184031e7 9.284517360549156e6 0.0
0.0 0.0 0.0

-1.89143311944094e7 4.0155673726508394e6 0.0
4.0155673726508394e6 1.0719623566283848e7 0.0
0.0 0.0 0.0

-81511.1917604499 1.2853986668067062e7 0.0
1.2853986668067062e7 2.606824908139516e6 0.0
0.0 0.0 0.0

3.2191647408013726e6 6.206124461968829e6 0.0
6.206124461968829e6 -1.0694404482574578e7 0.0
0.0 0.0 0.0

-1.042412463893172e7 1.951498770601926e7 0.0
1.951498770601926e7 8.125429592909666e6 0.0
0.0 0.0 0.0

-1.0060349150448479e7 -4.285157640131957e6 0.0
-4.285157640131957e6 2.237265455227873e7 0.0
0.0 0.0 0.0

-676547.0327302786 1.3971107232525852e7 0.0
1.3971107232525852e7 -4.361921396057694e6 0.0
0.0 0.0 0.0

-1.7390340520541775e6 1.518475976453581e7 0.0
1.518475976453581e7 1.0278606600028466e7 0.0
0.0 0.0 0.0

-4.320243001129266e6 1.6897288192132846e7 0.0
1.6897288192132846e7 -566364.7021935337 0.0
0.0 0.0 0.0

267574.2966249557 1.177475419851816e7 0.0
1.177475419851816e7 -1.4955907682986408e7 0.0
0.0 0.0 0.0

5.484509224289975e6 1.5231427260505585e7 0.0
1.5231427260505585e7 5.932300318773078e6 0.0
0.0 0.0 0.0

-53349.59843370505 1.2300723445111888e7 0.0
1.2300723445111888e7 -1.2258917687618574e7 0.0
0.0 0.0 0.0

-452129.3764481263 1.3343861232148958e7 0.0
1.3343861232148958e7 3.5880020234492924e6 0.0
0.0 0.0 0.0

-2.5707141258990373e6 1.399059073579884e7 0.0
1.399059073579884e7 8.732645316826988e6 0.0
0.0 0.0 0.0

-4.861487780501472e6 1.4439340926911205e7 0.0
1.4439340926911205e7 8.349303115981311e6 0.0
0.0 0.0 0.0

-2.8635650263521355e6 1.436527077553116e7 0.0
1.436527077553116e7 4.688682210612891e6 0.0
0.0 0.0 0.0

4.600718560013488e6 5.972379916776245e6 0.0
5.972379916776245e6 -1.6676827567135394e7 0.0
0.0 0.0 0.0

-4.356492979244962e6 1.958731076640274e7 0.0
1.958731076640274e7 1.9122070619128875e6 0.0
0.0 0.0 0.0

-2.985219609917763e6 1.2878346184571614e7 0.0
1.2878346184571614e7 -2.980117578872437e6 0.0
0.0 0.0 0.0

1.0491690062019391e7 1.2281153221071184e7 0.0
1.2281153221071184e7 1.9724200153693834e6 0.0
0.0 0.0 0.0

-7.404877007651771e6 1.8637329490258362e7 0.0
1.8637329490258362e7 6.619215931758169e6 0.0
0.0 0.0 0.0

5.249936372657531e6 5.40596810496164e6 0.0
5.40596810496164e6 -1.866351613861475e7 0.0
0.0 0.0 0.0

-4.492006589933932e6 1.2410189463507207e7 0.0
1.2410189463507207e7 3.2835509578841086e6 0.0
0.0 0.0 0.0

5.198982273793471e6 1.287334065414013e7 0.0
1.287334065414013e7 1.7456750143202234e6 0.0
0.0 0.0 0.0

1.5059509195166133e7 1.0717196056434706e7 0.0
1.0717196056434706e7 -1.7935044768427955e6 0.0
0.0 0.0 0.0

-6.4939308049329985e6 2.0627862885561373e7 0.0
2.0627862885561373e7 6.5575025368898995e6 0.0
0.0 0.0 0.0

513050.03918837896 1.3316210344419561e7 0.0
1.3316210344419561e7 -1.033053442670779e7 0.0
0.0 0.0 0.0

-6.3936764540684875e6 6.216603827930225e6 0.0
6.216603827930225e6 8.905537981486898e6 0.0
0.0 0.0 0.0

-1.0225169880125917e7 -4.589963433392982e6 0.0
-4.589963433392982e6 2.0236731983688273e7 0.0
0.0 0.0 0.0

116196.64059196622 1.2622665832709808e7 0.0
1.2622665832709808e7 1.362294530585809e6 0.0
0.0 0.0 0.0

1.8950117087914555e6 1.3278984698531829e7 0.0
1.3278984698531829e7 8.927509876219919e6 0.0
0.0 0.0 0.0

-1.0766611711692248e7 -685260.6692743619 0.0
-685260.6692743619 1.595530385158452e7 0.0
0.0 0.0 0.0

-1.6354709668803955e6 9.094475130040502e6 0.0
9.094475130040502e6 -2.7949150433243914e6 0.0
0.0 0.0 0.0

-2.0552006149832248e6 1.40064388911667e7 0.0
1.40064388911667e7 -4.774361297649929e6 0.0
0.0 0.0 0.0

-375002.281827969 1.1819998632037867e7 0.0
1.1819998632037867e7 -1.3963922434497803e7 0.0
0.0 0.0 0.0

-4.501408827455949e6 1.916164914569384e7 0.0
1.916164914569384e7 2.2237713776670042e6 0.0
0.0 0.0 0.0

-3.1765958387013217e6 1.8988348883197635e7 0.0
1.8988348883197635e7 -1.760817071745798e6 0.0
0.0 0.0 0.0

-5.495637875299514e6 2.3779656753859576e7 0.0
2.3779656753859576e7 -838499.047676258 0.0
0.0 0.0 0.0

-1.4091061290866636e7 2.2165895610220138e7 0.0
2.2165895610220138e7 9.515926339809533e6 0.0
0.0 0.0 0.0

1.9746958684480768e6 1.3903276623043187e7 0.0
1.3903276623043187e7 7.998760794166416e6 0.0
0.0 0.0 0.0

-460363.67417252064 1.3521686415217651e7 0.0
1.3521686415217651e7 -3.2563992703296594e7 0.0
0.0 0.0 0.0

-7.699263050140064e6 -283239.1112105597 0.0
-283239.1112105597 8.47905681051977e6 0.0
0.0 0.0 0.0

-3.552995683733215e6 1.1935502658998795e7 0.0
1.1935502658998795e7 -1.4157183574635249e7 0.0
0.0 0.0 0.0

-1.542494250873467e6 9.919766885192038e6 0.0
9.919766885192038e6 -8.164399536489299e6 0.0
0.0 0.0 0.0

1.0419521144526333e6 1.438519874485001e7 0.0
1.438519874485001e7 8.378019870939868e6 0.0
0.0 0.0 0.0

-2.910130101492397e6 1.281408465043257e7 0.0
1.281408465043257e7 -1.70643141737875e7 0.0
0.0 0.0 0.0

-2.2162980744352983e6 1.1667623158702698e7 0.0
1.1667623158702698e7 -1.3050286811602002e7 0.0
0.0 0.0 0.0

3.9442536020893017e6 1.5600716159106538e7 0.0
1.5600716159106538e7 6.2776860701252585e6 0.0
0.0 0.0 0.0

-3.4341939590550084e6 1.381507523009194e7 0.0
1.381507523009194e7 -2.165014846004988e6 0.0
0.0 0.0 0.0

4.1894860476828134e6 7.823734470780286e6 0.0
7.823734470780286e6 -1.6421386777002577e7 0.0
0.0 0.0 0.0

-57395.08233959219 1.2625161574273007e7 0.0
1.2625161574273007e7 189727.30878747342 0.0
0.0 0.0 0.0

-5.979188105418557e6 1.717391210841971e7 0.0
1.717391210841971e7 -1.0991433499232172e6 0.0
0.0 0.0 0.0

414676.5294903929 1.3119767455142042e7 0.0
1.3119767455142042e7 4.803642755012709e6 0.0
0.0 0.0 0.0

3.507486065943511e6 4.987231548469134e6 0.0
4.987231548469134e6 -9.757168833700363e6 0.0
0.0 0.0 0.0

-4.941378837992094e6 1.727973989987613e7 0.0
1.727973989987613e7 2.3643114853129163e6 0.0
0.0 0.0 0.0

-5.615998862178641e6 1.9499416428831466e7 0.0
1.9499416428831466e7 4.794547785069311e6 0.0
0.0 0.0 0.0

-1.226083393632159e7 9.03224659519128e6 0.0
9.03224659519128e6 1.742333231468183e7 0.0
0.0 0.0 0.0

-447614.5505503558 1.1269602770298405e7 0.0
1.1269602770298405e7 3.792140571730991e6 0.0
0.0 0.0 0.0

-1.0109202255691057e6 1.4577867602052914e7 0.0
1.4577867602052914e7 9.56727405829971e6 0.0
0.0 0.0 0.0

-6.456828425783473e6 2.1336865178419963e7 0.0
2.1336865178419963e7 6.075612878376178e6 0.0
0.0 0.0 0.0

-7.113075510396219e6 1.3867152600710586e7 0.0
1.3867152600710586e7 9.964603909230754e6 0.0
0.0 0.0 0.0

-8.157232139012926e6 -2.2670290469726003e6 0.0
-2.2670290469726003e6 1.0706245958433364e7 0.0
0.0 0.0 0.0

-5.425626914810334e6 1.957120072363524e7 0.0
1.957120072363524e7 5.53622191659856e6 0.0
0.0 0.0 0.0

-3.6711564379598475e6 1.6738429387897283e7 0.0
1.6738429387897283e7 273451.81394163915 0.0
0.0 0.0 0.0

-4.920058986595156e6 1.3444243280831186e7 0.0
1.3444243280831186e7 1.6456449615575287e6 0.0
0.0 0.0 0.0

-4.4079055131268455e6 1.9352681619622562e7 0.0
1.9352681619622562e7 1.8823844979298946e6 0.0
0.0 0.0 0.0

-4.2392205316804685e6 1.906807513243311e7 0.0
1.906807513243311e7 1.9043446215919277e6 0.0
0.0 0.0 0.0

-958999.5476751983 1.344928247844019e7 0.0
1.344928247844019e7 -5.021109803331467e6 0.0
0.0 0.0 0.0

1.3364822754487628e6 1.2289043295145702e7 0.0
1.2289043295145702e7 4.454941593600189e6 0.0
0.0 0.0 0.0

3.654111165261538e6 7.789529681507556e6 0.0
7.789529681507556e6 -1.5651043611133398e7 0.0
0.0 0.0 0.0

-4.160966524450587e6 1.3190168193709835e7 0.0
1.3190168193709835e7 -1.838120572649053e7 0.0
0.0 0.0 0.0

-2.160623143370291e6 1.4938298477435606e7 0.0
1.4938298477435606e7 1.272298126748044e6 0.0
0.0 0.0 0.0

-1.8951433848148357e7 2.1624353957613755e7 0.0
2.1624353957613755e7 -1.2297157124840347e6 0.0
0.0 0.0 0.0

-2.8845518894024547e6 1.1898860370021973e7 0.0
1.1898860370021973e7 -1.2804312178955572e7 0.0
0.0 0.0 0.0

-1.954140160826132e7 2.00136574110569e7 0.0
2.00136574110569e7 1.0698531895875158e6 0.0
0.0 0.0 0.0

-4.781155478307745e6 1.5340479497352585e7 0.0
1.5340479497352585e7 6.647220604439957e6 0.0
0.0 0.0 0.0

-1.0232634410055133e7 -5.623009860077504e6 0.0
-5.623009860077504e6 2.52090390441465e7 0.0
0.0 0.0 0.0

-3.5086653038223516e6 1.8433780970802724e7 0.0
1.8433780970802724e7 -1.0164298272309222e6 0.0
0.0 0.0 0.0

-5.725101424200367e6 1.7934363740851574e7 0.0
1.7934363740851574e7 -2.597976836418165e6 0.0
0.0 0.0 0.0

267060.99844971625 1.3589684778207544e7 0.0
1.3589684778207544e7 -9.709236717875868e6 0.0
0.0 0.0 0.0

-9.521069037091544e6 1.9813599777643286e7 0.0
1.9813599777643286e7 7.591888826809552e6 0.0
0.0 0.0 0.0

-9.48631991116469e6 2.912892215647864e6 0.0
2.912892215647864e6 1.2259534799767882e7 0.0
0.0 0.0 0.0

3.956474512614824e6 8.31359008148959e6 0.0
8.31359008148959e6 -1.880963481603111e7 0.0
0.0 0.0 0.0

-1.1508650707196768e7 1.927346472141507e7 0.0
1.927346472141507e7 7.866102610560709e6 0.0
0.0 0.0 0.0

-102305.32381187705 1.3063467858824655e7 0.0
1.3063467858824655e7 1.0921488635183496e6 0.0
0.0 0.0 0.0

-7.7392258837779295e6 5.505705123242313e6 0.0
5.505705123242313e6 7.932445008623822e6 0.0
0.0 0.0 0.0

-1.0280486398070765e6 1.2675873127139017e7 0.0
1.2675873127139017e7 -6.066627552618105e6 0.0
0.0 0.0 0.0

-2.721579627819579e6 1.7604227583508383e7 0.0
1.7604227583508383e7 -1.8637239630871324e6 0.0
0.0 0.0 0.0

-1.857911216486998e7 4.0505170987417307e6 0.0
4.0505170987417307e6 1.033343122323049e7 0.0
0.0 0.0 0.0

-6.36669543257969e6 1.8932930491280463e7 0.0
1.8932930491280463e7 6.646859479655134e6 0.0
0.0 0.0 0.0

623178.513358539 1.3012152297807157e7 0.0
1.3012152297807157e7 -1.109058280310637e7 0.0
0.0 0.0 0.0

3.346044827372825e6 7.889069253390238e6 0.0
7.889069253390238e6 -1.4099365736179147e7 0.0
0.0 0.0 0.0

1.041377562260234e6 5.179135247957519e6 0.0
5.179135247957519e6 -4.898320478168656e6 0.0
0.0 0.0 0.0

1.1147356146038985e6 1.2133135704685578e7 0.0
1.2133135704685578e7 -1.1292514233378228e7 0.0
0.0 0.0 0.0

-8.509757719397338e6 1.6758651360390034e7 0.0
1.6758651360390034e7 160292.17098925728 0.0
0.0 0.0 0.0

-3.597231340367356e6 2.351116068186588e7 0.0
2.351116068186588e7 -204642.39955570665 0.0
0.0 0.0 0.0

-3.7222086264118133e6 1.4496855823327463e7 0.0
1.4496855823327463e7 1.2339271938004643e7 0.0
0.0 0.0 0.0

-350115.5753537656 1.1812542158639157e7 0.0
1.1812542158639157e7 4.669786945665957e6 0.0
0.0 0.0 0.0

2.0806850526462838e6 1.2671550503494175e7 0.0
1.2671550503494175e7 7.2944020567884045e6 0.0
0.0 0.0 0.0

-1.8562364246911015e6 1.3064379169277236e7 0.0
1.3064379169277236e7 -6.187454794100038e6 0.0
0.0 0.0 0.0

-1.2440818542419177e7 8.929741745811341e6 0.0
8.929741745811341e6 1.7756169585707087e7 0.0
0.0 0.0 0.0

-464488.58643151773 1.1133942027259298e7 0.0
1.1133942027259298e7 -8.940708552726297e6 0.0
0.0 0.0 0.0

-1.941281556582129e7 1.8125564406399865e7 0.0
1.8125564406399865e7 1.1360688944957707e7 0.0
0.0 0.0 0.0

-1.0846370153423991e7 -698621.0567562009 0.0
-698621.0567562009 1.9695312306811087e7 0.0
0.0 0.0 0.0

-1.064935507627935e7 -5.326900005938841e6 0.0
-5.326900005938841e6 2.6113145036817834e7 0.0
0.0 0.0 0.0

993915.1465574973 9.828121423279671e6 0.0
9.828121423279671e6 -8.823588228260467e6 0.0
0.0 0.0 0.0

-1.6326868105943853e6 1.0619826894048683e6 0.0
1.0619826894048683e6 922243.2003853607 0.0
0.0 0.0 0.0

3.8628643399846666e6 8.40001480195845e6 0.0
8.40001480195845e6 -2.2627898265691884e7 0.0
0.0 0.0 0.0

-1.2541980392108593e7 7.100162385804123e6 0.0
7.100162385804123e6 2.1416784958832078e7 0.0
0.0 0.0 0.0

2.813295882906908e6 9.629710598340701e6 0.0
9.629710598340701e6 -1.865517016840917e7 0.0
0.0 0.0 0.0

-8.88642518369165e6 -2.3638496372127663e6 0.0
-2.3638496372127663e6 1.38518248920268e7 0.0
0.0 0.0 0.0

-5.525751305753343e6 1.808428179726435e7 0.0
1.808428179726435e7 4.33632571665683e6 0.0
0.0 0.0 0.0

-2.5680811800204683e6 1.7927436165493324e7 0.0
1.7927436165493324e7 -1.9592091213119375e6 0.0
0.0 0.0 0.0

-5.7435773859861195e6 2.024560219774179e7 0.0
2.024560219774179e7 4.808069969849087e6 0.0
0.0 0.0 0.0

-5.212951112595982e6 2.3030656184460137e7 0.0
2.3030656184460137e7 887994.9974907131 0.0
0.0 0.0 0.0

-4.872954466480333e6 2.11996977780827e7 0.0
2.11996977780827e7 1.722650134053937e6 0.0
0.0 0.0 0.0

-1.0020751029259555e7 -4.487187587959956e6 0.0
-4.487187587959956e6 1.9448931895964544e7 0.0
0.0 0.0 0.0

5.083457495638096e6 5.58391417140667e6 0.0
5.58391417140667e6 -1.977075647341332e7 0.0
0.0 0.0 0.0

582722.7825068729 1.3580462202020863e7 0.0
1.3580462202020863e7 -8.333719118104564e6 0.0
0.0 0.0 0.0

-1.8258536557994862e6 1.4845368585936386e7 0.0
1.4845368585936386e7 -4.398658026447405e6 0.0
0.0 0.0 0.0

2.5939928284221883e6 9.264505392945923e6 0.0
9.264505392945923e6 -1.1825832637335617e7 0.0
0.0 0.0 0.0

-2.4770887324564075e6 1.0753848046453184e7 0.0
1.0753848046453184e7 -1.0694620752749579e7 0.0
0.0 0.0 0.0

151298.91209734773 1.2066864001325425e7 0.0
1.2066864001325425e7 504329.76730344666 0.0
0.0 0.0 0.0

-6.1932447411242705e6 1.6606134604555406e7 0.0
1.6606134604555406e7 6.740351717077682e6 0.0
0.0 0.0 0.0

-7.691800790814815e6 1.918155347517574e7 0.0
1.918155347517574e7 6.71147736835053e6 0.0
0.0 0.0 0.0

-921624.1454962693 1.047888191063902e7 0.0
1.047888191063902e7 -5.836139135149595e6 0.0
0.0 0.0 0.0

-733612.6883414962 9.318264083176246e6 0.0
9.318264083176246e6 -2.918618945899504e6 0.0
0.0 0.0 0.0

5.073773108591964e6 5.003541518225645e6 0.0
5.003541518225645e6 -1.6406084757450527e7 0.0
0.0 0.0 0.0

1.102304552052444e6 1.309615696222145e7 0.0
1.309615696222145e7 -5.725327149361739e6 0.0
0.0 0.0 0.0

3.41969609599414e6 8.124767156118424e6 0.0
8.124767156118424e6 -1.5010917836246943e7 0.0
0.0 0.0 0.0

-1.02826253029205e6 6.626645156874332e6 0.0
6.626645156874332e6 -2.7279275778695266e6 0.0
0.0 0.0 0.0

-601946.9281126581 8.592876699591102e6 0.0
8.592876699591102e6 -4.345766727769499e6 0.0
0.0 0.0 0.0

294359.4255222748 4.447010691301848e6 0.0
4.447010691301848e6 -3.2324016043299707e6 0.0
0.0 0.0 0.0

-4.959284979438874e6 1.6648636653255938e7 0.0
1.6648636653255938e7 3.834008932580377e6 0.0
0.0 0.0 0.0

994105.8433001167 1.2401718763943871e7 0.0
1.2401718763943871e7 -1.2387518995697886e7 0.0
0.0 0.0 0.0

3.7355016909056325e6 8.383964969413806e6 0.0
8.383964969413806e6 -2.5512556346573252e7 0.0
0.0 0.0 0.0

-2.254590110207201e6 1.5448204114116162e7 0.0
1.5448204114116162e7 -2.1883947079985435e6 0.0
0.0 0.0 0.0

-1.2146464030271811e7 1.9995549313111037e7 0.0
1.9995549313111037e7 -1.9735710985423874e6 0.0
0.0 0.0 0.0

-1.3888081095004367e7 1.8203199467922904e7 0.0
1.8203199467922904e7 7.873513425847981e6 0.0
0.0 0.0 0.0

-4.260491415704147e6 1.7572742590592604e7 0.0
1.7572742590592604e7 -2.7685320046418877e6 0.0
0.0 0.0 0.0

-195631.507726592 1.1844993396256087e7 0.0
1.1844993396256087e7 -1.7092820981022112e7 0.0
0.0 0.0 0.0

-3.822162950217924e6 1.1708125136262966e7 0.0
1.1708125136262966e7 -1.2740543596517736e7 0.0
0.0 0.0 0.0

-8.126324042677196e6 1.8818203438228842e7 0.0
1.8818203438228842e7 -2.1235260207332983e6 0.0
0.0 0.0 0.0

-4.89366736098019e6 1.2844294473875545e7 0.0
1.2844294473875545e7 -1.6312225193784447e7 0.0
0.0 0.0 0.0

-9.43779808321026e6 1.24224288731742e7 0.0
1.24224288731742e7 1.225770635998721e7 0.0
0.0 0.0 0.0

-7.526593094314562e6 688793.6973453177 0.0
688793.6973453177 8.433807471019706e6 0.0
0.0 0.0 0.0

-3.5669515187084116e6 1.650794452847734e7 0.0
1.650794452847734e7 -769482.0888994134 0.0
0.0 0.0 0.0

-6.879545208781955e6 1.4970157028007418e7 0.0
1.4970157028007418e7 8.54545920937374e6 0.0
0.0 0.0 0.0

-8.704837145149678e6 -2.1708377526344145e6 0.0
-2.1708377526344145e6 1.1462301623166423e7 0.0
0.0 0.0 0.0

2.3508682061249083e6 1.0633608250753127e7 0.0
1.0633608250753127e7 -1.478853817785646e7 0.0
0.0 0.0 0.0

-4.7269330012599705e6 1.692478569419149e7 0.0
1.692478569419149e7 1.625743674674383e6 0.0
0.0 0.0 0.0

-174491.6656751652 1.2560431939595204e7 0.0
1.2560431939595204e7 -1.8611686552528532e6 0.0
0.0 0.0 0.0

-5.924003737258462e6 1.809338168834887e7 0.0
1.809338168834887e7 5.977463671376906e6 0.0
0.0 0.0 0.0

-8.419420865836835e6 1.9522516290832784e7 0.0
1.9522516290832784e7 -1.4913736408854246e6 0.0
0.0 0.0 0.0

-4.1535434200134845e6 1.2089663715763798e7 0.0
1.2089663715763798e7 -1.3845145347666442e7 0.0
0.0 0.0 0.0

-1.5804109264124585e6 1.516058733488297e7 0.0
1.516058733488297e7 1.02016211825136e7 0.0
0.0 0.0 0.0

-1.501985822066947e7 1.7095110664331287e7 0.0
1.7095110664331287e7 8.43836035340362e6 0.0
0.0 0.0 0.0

-5.439088190066872e6 6.0210451231599e6 0.0
6.0210451231599e6 7.5854310908564115e6 0.0
0.0 0.0 0.0

-1.2821628075408302e7 5.481502482018089e6 0.0
5.481502482018089e6 2.759570330980128e7 0.0
0.0 0.0 0.0

-954340.1423111672 1.3807382238714432e7 0.0
1.3807382238714432e7 -4.623546652426067e6 0.0
0.0 0.0 0.0

-4.382560471625384e6 2.1152524016381744e7 0.0
2.1152524016381744e7 583637.8427665464 0.0
0.0 0.0 0.0

1.997703306143197e6 1.3015514894547973e7 0.0
1.3015514894547973e7 6.659011034495045e6 0.0
0.0 0.0 0.0

7.903102539122108e6 1.4077692507104404e7 0.0
1.4077692507104404e7 2.988982058304402e6 0.0
0.0 0.0 0.0

-6.154264683970818e6 1.8532679940540627e7 0.0
1.8532679940540627e7 -2.26627395189237e6 0.0
0.0 0.0 0.0

-3.3203760450232094e6 1.9916176272138577e7 0.0
1.9916176272138577e7 -1.2190613425050534e6 0.0
0.0 0.0 0.0

3.1878054615122885e6 1.2558453254209792e7 0.0
1.2558453254209792e7 1.311675762542088e7 0.0
0.0 0.0 0.0

5.25193269694859e6 6.611774827977253e6 0.0
6.611774827977253e6 -2.4322191432955477e7 0.0
0.0 0.0 0.0

-6.232445856959632e6 1.847577628712556e7 0.0
1.847577628712556e7 6.712568437254573e6 0.0
0.0 0.0 0.0

-135999.27690871502 1.1774080587886376e7 0.0
1.1774080587886376e7 -1.3218276186551636e6 0.0
0.0 0.0 0.0

-5.376719574937481e6 1.341162375075907e7 0.0
1.341162375075907e7 -1.7922399564390708e7 0.0
0.0 0.0 0.0

-1.998628587360536e6 1.5373517199356275e7 0.0
1.5373517199356275e7 -1.0675197093462015e6 0.0
0.0 0.0 0.0

5.837034075289264e6 4.540083902102389e6 0.0
4.540083902102389e6 -2.1065664953939993e7 0.0
0.0 0.0 0.0

-1.9471327380757648e6 1.4147256773514338e7 0.0
1.4147256773514338e7 -4.577188816752451e6 0.0
0.0 0.0 0.0

-369799.8984806682 1.5376267304683834e7 0.0
1.5376267304683834e7 -5.742004454840248e6 0.0
0.0 0.0 0.0

8.161643584731591e6 1.402314365038328e7 0.0
1.402314365038328e7 -6.636261656548962e6 0.0
0.0 0.0 0.0

-1.0048891757113066e7 1.0841377309049003e7 0.0
1.0841377309049003e7 1.2575544561971134e7 0.0
0.0 0.0 0.0

-2.908324372958824e6 1.0230184819867805e7 0.0
1.0230184819867805e7 2.246988799927801e6 0.0
0.0 0.0 0.0

-3.1922355368289473e6 1.6826911849272463e7 0.0
1.6826911849272463e7 -1.9151315936267427e6 0.0
0.0 0.0 0.0

-3.8389215304781697e6 1.666411743411008e7 0.0
1.666411743411008e7 -246624.51316723798 0.0
0.0 0.0 0.0

-1.113653816109358e7 -2.321689868601454e6 0.0
-2.321689868601454e6 2.8228080474635642e7 0.0
0.0 0.0 0.0

-1.034523531634451e6 1.2441882380018765e7 0.0
1.2441882380018765e7 -4.8383853930016635e6 0.0
0.0 0.0 0.0

-8.28442314067664e6 1.922377575084891e7 0.0
1.922377575084891e7 7.21545620897161e6 0.0
0.0 0.0 0.0

1.5759481424202663e6 7.172377504337619e6 0.0
7.172377504337619e6 -8.119030261438795e6 0.0
0.0 0.0 0.0

-625361.3030032134 1.4659912358411843e7 0.0
1.4659912358411843e7 1.0944647187510144e7 0.0
0.0 0.0 0.0

-2.3802849468582794e7 1.714287360566301e7 0.0
1.714287360566301e7 9.453948549033534e6 0.0
0.0 0.0 0.0

277240.6340012549 1.1906691448278736e7 0.0
1.1906691448278736e7 1.9651615830569658e6 0.0
0.0 0.0 0.0

3.5170273895472274e6 6.6251027628215095e6 0.0
6.6251027628215095e6 -1.0037742803988583e7 0.0
0.0 0.0 0.0

-3.665306803931921e6 1.4727464457457852e7 0.0
1.4727464457457852e7 1.30216558232521e7 0.0
0.0 0.0 0.0

-2.51451875848695e6 1.6466819492678747e7 0.0
1.6466819492678747e7 -2.9871184727701335e6 0.0
0.0 0.0 0.0

4.24179183040853e6 1.9651746466008767e7 0.0
1.9651746466008767e7 -6.771837195790928e6 0.0
0.0 0.0 0.0

-2.317776650437483e6 1.0123711081528215e7 0.0
1.0123711081528215e7 -7.725922517292939e6 0.0
0.0 0.0 0.0

-4.483514287305221e6 1.1154321719737453e7 0.0
1.1154321719737453e7 3.5404020027392497e6 0.0
0.0 0.0 0.0

1.091052379225762e6 7.174403430475073e6 0.0
7.174403430475073e6 -7.274599057379779e6 0.0
0.0 0.0 0.0

-986621.9837788935 1.2204525920596719e7 0.0
1.2204525920596719e7 -1.35103271429253e7 0.0
0.0 0.0 0.0

-1.4968264032383019e6 1.433968598027582e7 0.0
1.433968598027582e7 -4.952513977583299e6 0.0
0.0 0.0 0.0

3.350933814437999e6 1.5304348254557341e7 0.0
1.5304348254557341e7 6.632905599730437e6 0.0
0.0 0.0 0.0

-4.700923891564799e6 1.632705708518783e7 0.0
1.632705708518783e7 -644724.380097339 0.0
0.0 0.0 0.0

-276213.0225948889 1.5387318735549357e7 0.0
1.5387318735549357e7 -5.977121454880491e6 0.0
0.0 0.0 0.0

-5.590866720892709e6 532963.2571407212 0.0
532963.2571407212 1.0785632651968867e7 0.0
0.0 0.0 0.0

-2.190800973474997e6 3.6490666713088313e6 0.0
3.6490666713088313e6 4.213336936745192e6 0.0
0.0 0.0 0.0

2.732298349737142e6 1.4873007786040457e7 0.0
1.4873007786040457e7 -4.416664686436095e6 0.0
0.0 0.0 0.0

76106.48209433537 1.2337894688503088e7 0.0
1.2337894688503088e7 1.7451489498601162e6 0.0
0.0 0.0 0.0

1.9960414114298977e7 1.0920020780643566e7 0.0
1.0920020780643566e7 -82852.75616126228 0.0
0.0 0.0 0.0

-8.369299115685928e6 -3.4312051823088303e6 0.0
-3.4312051823088303e6 1.190115108349988e7 0.0
0.0 0.0 0.0

-6.188276911971377e6 1.727164415433597e7 0.0
1.727164415433597e7 -1.8326620982582504e6 0.0
0.0 0.0 0.0

-1.0125536864632785e7 1.5450077507138278e7 0.0
1.5450077507138278e7 5.373575017476918e6 0.0
0.0 0.0 0.0

-1.5922845614931528e7 1.7305666658147257e7 0.0
1.7305666658147257e7 -212667.72482564952 0.0
0.0 0.0 0.0

1.7089323173937358e7 5.764026804946049e6 0.0
5.764026804946049e6 -3.5446253376996927e6 0.0
0.0 0.0 0.0

-1.1712024357361797e7 4.5936354048362365e6 0.0
4.5936354048362365e6 3.3419326133383412e7 0.0
0.0 0.0 0.0

-788097.7026063835 8.865523239703562e6 0.0
8.865523239703562e6 -2.4568911087454995e6 0.0
0.0 0.0 0.0

-6.375178418156105e6 1.7714232305729687e7 0.0
1.7714232305729687e7 -829897.5646606542 0.0
0.0 0.0 0.0

-5.7760242137695905e6 1.8259806662633628e7 0.0
1.8259806662633628e7 6.635550018219209e6 0.0
0.0 0.0 0.0

-1.7572440061235477e6 1.4124179609206822e7 0.0
1.4124179609206822e7 -5.696529098990876e6 0.0
0.0 0.0 0.0

1.2383553562677512e6 1.0326171408752281e7 0.0
1.0326171408752281e7 -9.202075566241272e6 0.0
0.0 0.0 0.0

-203587.59850432642 1.2372294108678661e7 0.0
1.2372294108678661e7 -3.686187655133479e6 0.0
0.0 0.0 0.0

-2.900083814399355e6 1.1514263908422729e7 0.0
1.1514263908422729e7 -1.2970891753193429e7 0.0
0.0 0.0 0.0

-2.2923492456649933e6 1.3994576885680448e7 0.0
1.3994576885680448e7 -2.607527928478723e7 0.0
0.0 0.0 0.0

4.450431464575982e6 5.05377686674576e6 0.0
5.05377686674576e6 -1.1036277013764076e6 0.0
0.0 0.0 0.0

-1.8258272780057811e6 2.0641718207835812e7 0.0
2.0641718207835812e7 -3.4719846169468276e6 0.0
0.0 0.0 0.0

-3.14807932648568e6 1.0994555292650195e7 0.0
1.0994555292650195e7 -1.0493598432129845e7 0.0
0.0 0.0 0.0

5.404830979161328e6 1.2869512081562938e7 0.0
1.2869512081562938e7 3.8602351633998826e6 0.0
0.0 0.0 0.0

901565.9407241726 1.1513761149717102e7 0.0
1.1513761149717102e7 -6.1129732076764405e6 0.0
0.0 0.0 0.0

-3.272194012660092e6 1.6326696039230727e7 0.0
1.6326696039230727e7 -591807.6438869403 0.0
0.0 0.0 0.0

-1.3169050408203774e6 1.146230507964635e7 0.0
1.146230507964635e7 -1.0095238916530034e7 0.0
0.0 0.0 0.0

-1.6120559173370186e7 8.625539207389627e6 0.0
8.625539207389627e6 7.7608596808097465e6 0.0
0.0 0.0 0.0

-2.6007102435074365e6 1.7321392783496862e6 0.0
1.7321392783496862e6 1.9481885635256898e6 0.0
0.0 0.0 0.0

-8.451569572092831e6 1.2174103569646928e7 0.0
1.2174103569646928e7 1.2322726585088443e7 0.0
0.0 0.0 0.0

-751669.2154945319 9.875883278556041e6 0.0
9.875883278556041e6 12288.619459998125 0.0
0.0 0.0 0.0

-3.7087522990425937e6 1.2166878758894563e7 0.0
1.2166878758894563e7 -5.92388783104012e6 0.0
0.0 0.0 0.0

-1.1675362981071905e6 1.2909352302930469e7 0.0
1.2909352302930469e7 -4.127738764146123e6 0.0
0.0 0.0 0.0

-1.5294849382979022e6 9.528730887784023e6 0.0
9.528730887784023e6 -3.218274347049891e6 0.0
0.0 0.0 0.0

9.04463670573596e6 1.4432488663271224e7 0.0
1.4432488663271224e7 -5.986880921960974e6 0.0
0.0 0.0 0.0

-9.528240877271825e6 2.0578196424367886e7 0.0
2.0578196424367886e7 8.138091972401187e6 0.0
0.0 0.0 0.0

75541.8963157374 1.6079056766593134e7 0.0
1.6079056766593134e7 -5.102090224003417e6 0.0
0.0 0.0 0.0

-1.5150784989228365e6 1.4898091733913267e7 0.0
1.4898091733913267e7 -1.6727571547920047e6 0.0
0.0 0.0 0.0

-5.402945653706237e6 2.052110026739085e7 0.0
2.052110026739085e7 5.242692249918426e6 0.0
0.0 0.0 0.0

-8.08901967965726e6 1.3362249379600238e7 0.0
1.3362249379600238e7 1.042827645754984e7 0.0
0.0 0.0 0.0

1.4187895764163416e6 6.767745288398641e6 0.0
6.767745288398641e6 -6.334528790313706e6 0.0
0.0 0.0 0.0

-145276.57124808116 6.359845329363785e6 0.0
6.359845329363785e6 -2.3209941532385973e6 0.0
0.0 0.0 0.0

-3.771060961451412e6 1.2673114310710877e7 0.0
1.2673114310710877e7 -1.6779358465701118e7 0.0
0.0 0.0 0.0

-2.725133105019453e6 1.4436030068791205e7 0.0
1.4436030068791205e7 2.279916492937509e6 0.0
0.0 0.0 0.0

1.9332961295304457e6 5.589868903316506e6 0.0
5.589868903316506e6 -6.848812792394901e6 0.0
0.0 0.0 0.0

-3.0552549989674106e7 2.1254208845872283e7 0.0
2.1254208845872283e7 6.088725217276508e6 0.0
0.0 0.0 0.0

3.8957166995068397e6 8.200912492007759e6 0.0
8.200912492007759e6 -2.8936579264393944e7 0.0
0.0 0.0 0.0

-293116.16601652536 7.922351835086389e6 0.0
7.922351835086389e6 -4.58354901935778e6 0.0
0.0 0.0 0.0

-2.88105099037345e6 1.301008650162708e7 0.0
1.301008650162708e7 -1.828304775132965e7 0.0
0.0 0.0 0.0

5.222751172779458e6 5.398359945170582e6 0.0
5.398359945170582e6 -1.9259702018552244e7 0.0
0.0 0.0 0.0

5.551242078232992e6 2.122591021228293e7 0.0
2.122591021228293e7 -9.772215882347308e6 0.0
0.0 0.0 0.0

3.6914091986461664e6 8.20926938650463e6 0.0
8.20926938650463e6 -1.4157053560721448e7 0.0
0.0 0.0 0.0

-1.1968913218003534e7 8.540038858874708e6 0.0
8.540038858874708e6 2.4640071258686382e7 0.0
0.0 0.0 0.0

-1.011115782853028e7 1.1138962345143156e7 0.0
1.1138962345143156e7 1.2852777064945407e7 0.0
0.0 0.0 0.0

-4.988362684748536e6 1.5893251841728207e7 0.0
1.5893251841728207e7 6.890846174941215e6 0.0
0.0 0.0 0.0

-6.6224065694973525e6 1.4897710999160882e7 0.0
1.4897710999160882e7 1.7705173638439225e6 0.0
0.0 0.0 0.0

-9.189113593531039e6 1.1950987407925878e7 0.0
1.1950987407925878e7 1.3612743353080254e7 0.0
0.0 0.0 0.0

-5.276746357576948e6 1.6516172251959564e7 0.0
1.6516172251959564e7 2.889332112262843e6 0.0
0.0 0.0 0.0

3.5265748187513947e6 1.3384379901702343e7 0.0
1.3384379901702343e7 1.1755249599747788e7 0.0
0.0 0.0 0.0

-4.940607266444223e6 1.9790483541303717e6 0.0
1.9790483541303717e6 4.736415036748593e6 0.0
0.0 0.0 0.0

-473066.9831257481 1.4012341070850827e7 0.0
1.4012341070850827e7 -7.9809638039746145e6 0.0
0.0 0.0 0.0

2.1305407524643857e6 1.060280600439938e7 0.0
1.060280600439938e7 -3.1859118419021178e7 0.0
0.0 0.0 0.0

-9.436923884735167e6 2.1406882305422887e7 0.0
2.1406882305422887e7 8.587660398279298e6 0.0
0.0 0.0 0.0

-2.87659388422724e6 1.756365083327835e7 0.0
1.756365083327835e7 -3.0047185920655774e6 0.0
0.0 0.0 0.0

1.5182925548399296e6 1.2556392169837425e7 0.0
1.2556392169837425e7 -479829.9266203984 0.0
0.0 0.0 0.0

-9.783724012565635e6 1.0927764038200548e7 0.0
1.0927764038200548e7 1.4084823367439743e7 0.0
0.0 0.0 0.0

-1.5198805814500723e7 2.0284673840737835e7 0.0
2.0284673840737835e7 1.0579077831900243e7 0.0
0.0 0.0 0.0

-1.4556804459919664e6 1.5393690147149995e7 0.0
1.5393690147149995e7 -5.78701313968372e6 0.0
0.0 0.0 0.0

-589764.9097447777 1.196541235782478e7 0.0
1.196541235782478e7 -1.571193893445252e7 0.0
0.0 0.0 0.0

-1.381797376734526e7 2.2102739791002966e7 0.0
2.2102739791002966e7 9.335178753496986e6 0.0
0.0 0.0 0.0

1.1260200659183804e7 1.882825726029798e7 0.0
1.882825726029798e7 -1.3224065939415138e7 0.0
0.0 0.0 0.0

1.0052906533652544e6 1.1789767052412577e7 0.0
1.1789767052412577e7 745924.3095932424 0.0
0.0 0.0 0.0

2.5704513246198734e6 9.149570556985434e6 0.0
9.149570556985434e6 -1.2785274098614845e7 0.0
0.0 0.0 0.0

-4.4264351951716365e6 1.38610111222341e7 0.0
1.38610111222341e7 -1.986937702521909e7 0.0
0.0 0.0 0.0

2.2022295987675544e6 2.0009989731662665e7 0.0
2.0009989731662665e7 -5.585326747038878e6 0.0
0.0 0.0 0.0

674780.139478955 1.2487226884515e7 0.0
1.2487226884515e7 -9.607845853179054e6 0.0
0.0 0.0 0.0

-4.274220865299756e6 1.866111040622037e7 0.0
1.866111040622037e7 781543.896275362 0.0
0.0 0.0 0.0

2.5803617379311994e6 9.887939641289713e6 0.0
9.887939641289713e6 -2.715534349453987e7 0.0
0.0 0.0 0.0

-303742.1682595818 1.336835116702786e7 0.0
1.336835116702786e7 2.18608024495766e6 0.0
0.0 0.0 0.0

-1.5246354550120123e7 1.8108112067648683e7 0.0
1.8108112067648683e7 1.0365968760326933e7 0.0
0.0 0.0 0.0

-4.778042351381308e6 1.686210700630429e7 0.0
1.686210700630429e7 3.392731586884816e6 0.0
0.0 0.0 0.0

8.468699953348614e6 1.2220300502172876e7 0.0
1.2220300502172876e7 559984.3221696406 0.0
0.0 0.0 0.0

-6.038318463496625e6 2.082952332146134e7 0.0
2.082952332146134e7 4.76767659122262e6 0.0
0.0 0.0 0.0

-807119.686736682 1.2582657714493359e7 0.0
1.2582657714493359e7 4.2081038741381075e6 0.0
0.0 0.0 0.0

781064.5436147272 4.344000806161503e6 0.0
4.344000806161503e6 -3.8915510229306286e6 0.0
0.0 0.0 0.0

-1.3444850616976528e6 2.118807124952695e7 0.0
2.118807124952695e7 -2.0666712813046707e6 0.0
0.0 0.0 0.0

851150.8200197448 1.2732149522172762e7 0.0
1.2732149522172762e7 -1.1773309840890683e7 0.0
0.0 0.0 0.0

5.860564372262787e6 4.8491826793879215e6 0.0
4.8491826793879215e6 -2.3118254070703942e7 0.0
0.0 0.0 0.0

176521.84199436032 8.542576893375823e6 0.0
8.542576893375823e6 -5.131731166033305e6 0.0
0.0 0.0 0.0

1.921637701023214e6 6.114369565867664e6 0.0
6.114369565867664e6 -6.851601632005273e6 0.0
0.0 0.0 0.0

1.1068675867736829e6 1.0820707988928828e7 0.0
1.0820707988928828e7 -9.170527354962071e6 0.0
0.0 0.0 0.0

-1.2536449575458972e7 1.764685365109469e7 0.0
1.764685365109469e7 8.741968927942192e6 0.0
0.0 0.0 0.0

-1.4485220679967888e6 1.464245036539082e7 0.0
1.464245036539082e7 916582.8380710906 0.0
0.0 0.0 0.0

109004.74605128868 1.6125920534036614e7 0.0
1.6125920534036614e7 -5.190451824470778e6 0.0
0.0 0.0 0.0

5.312739716602021e6 5.992458302610308e6 0.0
5.992458302610308e6 -1.9043685466557655e7 0.0
0.0 0.0 0.0

-1.5146744731075184e6 1.4061795218291897e7 0.0
1.4061795218291897e7 -4.783605329913332e6 0.0
0.0 0.0 0.0

-406519.529774426 1.2275116296189785e7 0.0
1.2275116296189785e7 -7.796575793512132e6 0.0
0.0 0.0 0.0

-4.5996656106911e6 1.7167872165060073e7 0.0
1.7167872165060073e7 -1.6384926756108138e6 0.0
0.0 0.0 0.0

2.3181439867056613e6 1.8887097364171296e7 0.0
1.8887097364171296e7 -5.964629773865469e6 0.0
0.0 0.0 0.0

-5.690566081909909e6 1.681347283864818e7 0.0
1.681347283864818e7 7.300009636917839e6 0.0
0.0 0.0 0.0

-1.8729800599024734e6 1.2891517141744839e7 0.0
1.2891517141744839e7 6.107438113288851e6 0.0
0.0 0.0 0.0

-3.9516337949808035e6 1.391696938960121e7 0.0
1.391696938960121e7 4.354568518733258e7 0.0
0.0 0.0 0.0

-7.555793385234721e6 2.2722880367906373e7 0.0
2.2722880367906373e7 6.638145929899674e6 0.0
0.0 0.0 0.0

817515.4432226075 1.3640104665778173e7 0.0
1.3640104665778173e7 -7.389898165021697e6 0.0
0.0 0.0 0.0

3.81887657612209e6 8.5958682776537e6 0.0
8.5958682776537e6 -1.6108877886586193e7 0.0
0.0 0.0 0.0

4.0842001740790782e6 8.14075416345227e6 0.0
8.14075416345227e6 -1.6797342455672808e7 0.0
0.0 0.0 0.0

5.123057239761077e6 5.023437850153537e6 0.0
5.023437850153537e6 -1.4487897789033053e7 0.0
0.0 0.0 0.0

-5.988584115852483e6 1.6530200087192317e7 0.0
1.6530200087192317e7 7.562916858132238e6 0.0
0.0 0.0 0.0

4.799484172230375e6 5.172027414837697e6 0.0
5.172027414837697e6 -1.4486054660881648e7 0.0
0.0 0.0 0.0

-1.1055205227173615e7 -2.2354837704111543e6 0.0
-2.2354837704111543e6 1.8286584583107837e7 0.0
0.0 0.0 0.0

-5.477372475444747e6 1.4857014088894244e7 0.0
1.4857014088894244e7 8.892432045951642e6 0.0
0.0 0.0 0.0

-738706.4169918369 8.153852660945648e6 0.0
8.153852660945648e6 -3.838958838587703e6 0.0
0.0 0.0 0.0

-3.3814659320698697e6 1.7802456934159167e7 0.0
1.7802456934159167e7 -2.141990061505611e6 0.0
0.0 0.0 0.0

-2.416073963849788e6 1.9587765166665867e7 0.0
1.9587765166665867e7 -902517.7074049074 0.0
0.0 0.0 0.0

21979.9911230191 1.1724000200617649e7 0.0
1.1724000200617649e7 -123085.5165082585 0.0
0.0 0.0 0.0

2.7227141423854893e6 9.746748478470312e6 0.0
9.746748478470312e6 -2.3959726649488404e7 0.0
0.0 0.0 0.0

5.758256819241546e6 5.099897097492741e6 0.0
5.099897097492741e6 -2.0345456271705635e7 0.0
0.0 0.0 0.0

-2.822518423052998e7 2.3891334940163452e7 0.0
2.3891334940163452e7 348775.18477220647 0.0
0.0 0.0 0.0

6.752174808606738e6 1.6069859116998393e7 0.0
1.6069859116998393e7 6.014954276011094e6 0.0
0.0 0.0 0.0

-2.787883333038741e6 1.9315639485042628e7 0.0
1.9315639485042628e7 -592635.5292970135 0.0
0.0 0.0 0.0

-3.4215847816110933e6 1.41123809571175e7 0.0
1.41123809571175e7 7.821217966096572e6 0.0
0.0 0.0 0.0

-77084.93621462774 1.2737655633877594e7 0.0
1.2737655633877594e7 299605.4481663543 0.0
0.0 0.0 0.0

-1.2829347486471685e7 2.6898426115370644e6 0.0
2.6898426115370644e6 2.279484377575949e7 0.0
0.0 0.0 0.0

-9.041374682622522e6 1.9799676848238077e7 0.0
1.9799676848238077e7 7.511064508388724e6 0.0
0.0 0.0 0.0

-779340.0135464014 1.0577976510529885e7 0.0
1.0577976510529885e7 -5.372840718172414e6 0.0
0.0 0.0 0.0

-1.0107419531052012e7 -2.0036354988457419e6 0.0
-2.0036354988457419e6 1.3307529371288387e7 0.0
0.0 0.0 0.0

-7.158609114140842e6 8.923836488432897e6 0.0
8.923836488432897e6 5.705013198995332e7 0.0
0.0 0.0 0.0

-269402.5340776313 1.4283416374847312e7 0.0
1.4283416374847312e7 -8.1356545020121075e6 0.0
0.0 0.0 0.0

2.553565516200427e6 5.292604329321317e6 0.0
5.292604329321317e6 -7.173759693653384e6 0.0
0.0 0.0 0.0

-1.1852519004295522e7 4.911919861121372e6 0.0
4.911919861121372e6 3.4982093741450205e7 0.0
0.0 0.0 0.0

5.4642823129997635e6 4.875693748688542e6 0.0
4.875693748688542e6 -1.7286302426623516e7 0.0
0.0 0.0 0.0

-4.464533901960841e6 1.496226045117244e7 0.0
1.496226045117244e7 -1.2688877392606477e6 0.0
0.0 0.0 0.0

-9.449321600516343e6 1.7976825984872054e7 0.0
1.7976825984872054e7 171677.03477629507 0.0
0.0 0.0 0.0

-57308.43962200871 1.3227927911352426e7 0.0
1.3227927911352426e7 -1.0196807487303741e7 0.0
0.0 0.0 0.0

-3.621233216635788e6 5.324147020995265e6 0.0
5.324147020995265e6 4.1586381834972063e6 0.0
0.0 0.0 0.0

-2.1255055555155296e6 1.5191784212961731e7 0.0
1.5191784212961731e7 166663.4880954899 0.0
0.0 0.0 0.0

4.469488757782338e6 1.8033944266300533e7 0.0
1.8033944266300533e7 -6.977178895457499e6 0.0
0.0 0.0 0.0

-2.7481680674881637e6 887768.0770296254 0.0
887768.0770296254 3.7671138965254785e6 0.0
0.0 0.0 0.0

4.1086070487899478e6 1.288547016629746e7 0.0
1.288547016629746e7 1.170169537183771e6 0.0
0.0 0.0 0.0

142894.65257657366 2.3019360149421394e7 0.0
2.3019360149421394e7 -8.564135976869905e6 0.0
0.0 0.0 0.0

5.237926008259024e6 4.996830640447884e6 0.0
4.996830640447884e6 -1.5821107070261924e7 0.0
0.0 0.0 0.0

-4.92670754716325e6 1.2321858272445267e7 0.0
1.2321858272445267e7 1.840972762540825e6 0.0
0.0 0.0 0.0

3.4007962182562905e6 1.4902534781262405e7 0.0
1.4902534781262405e7 1.5727679261571044e7 0.0
0.0 0.0 0.0

2.7744457134985507e7 5.7453618703613095e6 0.0
5.7453618703613095e6 -3.340338758339314e6 0.0
0.0 0.0 0.0

-1.4606863232021261e7 1.8869177676354483e7 0.0
1.8869177676354483e7 2.3692331228373833e6 0.0
0.0 0.0 0.0

-5.48726485142254e6 1.6306016444130398e7 0.0
1.6306016444130398e7 3.3543241254251394e6 0.0
0.0 0.0 0.0

2.6540360572454734e6 9.693552002350785e6 0.0
9.693552002350785e6 -2.153213603784053e7 0.0
0.0 0.0 0.0

-1.0507147341234697e7 1.8495793326839235e7 0.0
1.8495793326839235e7 7.460504690791979e6 0.0
0.0 0.0 0.0

2.670446404973418e6 1.3021076970874181e7 0.0
1.3021076970874181e7 3.294228622848986e6 0.0
0.0 0.0 0.0

-9.347897424079578e6 5.012229513210872e6 0.0
5.012229513210872e6 4.423486108033299e7 0.0
0.0 0.0 0.0

-4.828020989245603e6 1.5647785491621308e7 0.0
1.5647785491621308e7 6.507267759657895e6 0.0
0.0 0.0 0.0

136941.21360709006 1.314393481038253e7 0.0
1.314393481038253e7 4.716430145082768e6 0.0
0.0 0.0 0.0

-1.3667649394620974e6 1.3183930417677943e7 0.0
1.3183930417677943e7 -5.585680011102132e6 0.0
0.0 0.0 0.0

2.941865228847419e6 1.4126970774571862e7 0.0
1.4126970774571862e7 -4.272553137750922e6 0.0
0.0 0.0 0.0

972299.7694776887 1.3930290465772184e7 0.0
1.3930290465772184e7 -6.146358662630522e6 0.0
0.0 0.0 0.0

-1.9486414863236952e6 1.0198164989705916e7 0.0
1.0198164989705916e7 -2.813557661680489e6 0.0
0.0 0.0 0.0

-2.3063294110390465e6 1.4476637910159169e7 0.0
1.4476637910159169e7 8.113210029375937e6 0.0
0.0 0.0 0.0

-98590.17967337457 1.3110163735541089e7 0.0
1.3110163735541089e7 -120113.16576824905 0.0
0.0 0.0 0.0

-152651.2493772494 1.2761023728215462e7 0.0
1.2761023728215462e7 -2.669227162447941e6 0.0
0.0 0.0 0.0

-810420.9048160338 1.190105652799924e7 0.0
1.190105652799924e7 -1.4311573144451946e7 0.0
0.0 0.0 0.0

-5.2647127861754615e6 1.8161758362498444e7 0.0
1.8161758362498444e7 5.164616679905793e6 0.0
0.0 0.0 0.0

-7.206368932494129e6 1.6668411067805544e7 0.0
1.6668411067805544e7 -2.236446051065574e6 0.0
0.0 0.0 0.0

-8.359708014509264e6 2.0348604890047397e7 0.0
2.0348604890047397e7 7.18902157505876e6 0.0
0.0 0.0 0.0

-2.842195728890256e6 1.4090335036924891e7 0.0
1.4090335036924891e7 5.607230992189249e6 0.0
0.0 0.0 0.0

4.797468334983553e6 6.36642173153815e6 0.0
6.36642173153815e6 -1.6004756145195276e7 0.0
0.0 0.0 0.0

-705000.470887698 1.4041474843721293e7 0.0
1.4041474843721293e7 -8.525702263575617e6 0.0
0.0 0.0 0.0

1.5864539030981674e6 1.91639459090942e7 0.0
1.91639459090942e7 -6.399334411957881e6 0.0
0.0 0.0 0.0

-1.0354064088093828e7 -3.016527610469653e6 0.0
-3.016527610469653e6 1.5464960585855529e7 0.0
0.0 0.0 0.0

-3.2599579132733624e6 1.5101620798862772e7 0.0
1.5101620798862772e7 3.898037544007344e6 0.0
0.0 0.0 0.0

907417.1388758032 1.2383003441027986e7 0.0
1.2383003441027986e7 -638969.2319805345 0.0
0.0 0.0 0.0

2.565961921252153e6 1.5118061821096981e7 0.0
1.5118061821096981e7 -5.029213525640182e6 0.0
0.0 0.0 0.0

-1.143070034088523e7 2.334634430293226e6 0.0
2.334634430293226e6 1.679422767013734e7 0.0
0.0 0.0 0.0

881047.097339371 1.3292511499550931e7 0.0
1.3292511499550931e7 6.194409633378027e6 0.0
0.0 0.0 0.0

-6.429803958453073e6 1.4600307168380104e7 0.0
1.4600307168380104e7 -191392.46527368994 0.0
0.0 0.0 0.0

1.4540107332500024e6 1.1814574234280199e7 0.0
1.1814574234280199e7 -1.4248825669308936e7 0.0
0.0 0.0 0.0

-2.3029309402195555e6 2.2144180019856375e7 0.0
2.2144180019856375e7 -956285.2129951757 0.0
0.0 0.0 0.0

-8.511573285847038e6 2.0875531107203815e7 0.0
2.0875531107203815e7 7.142556939881571e6 0.0
0.0 0.0 0.0

-1.0537987693584833e7 3.338815744753963e6 0.0
3.338815744753963e6 1.4518337373630958e7 0.0
0.0 0.0 0.0

-2.499905615211721e6 1.5871866881700872e7 0.0
1.5871866881700872e7 -2.2072441582928584e6 0.0
0.0 0.0 0.0

-7.483876544825356e6 2.1069354903953474e7 0.0
2.1069354903953474e7 6.436941891970495e6 0.0
0.0 0.0 0.0

-7.522366559606457e6 2.0652537882644016e7 0.0
2.0652537882644016e7 6.585787329250018e6 0.0
0.0 0.0 0.0

214262.51644086686 1.2659989802825239e7 0.0
1.2659989802825239e7 3.5858549215525026e6 0.0
0.0 0.0 0.0

2.322927259222221e6 9.995172631731315e6 0.0
9.995172631731315e6 -1.1623416825123155e7 0.0
0.0 0.0 0.0

1.9359606700238533e7 1.7312029201003358e7 0.0
1.7312029201003358e7 5.076483494446723e6 0.0
0.0 0.0 0.0

-2.550373239039457e7 -1.5010664840692577e6 0.0
-1.5010664840692577e6 1.0227437860110005e7 0.0
0.0 0.0 0.0

-1.2151977675031196e7 1.7860309794730216e7 0.0
1.7860309794730216e7 6.461729275333889e6 0.0
0.0 0.0 0.0

5.123929173430201e6 4.873077112741663e6 0.0
4.873077112741663e6 -1.7279353329294443e7 0.0
0.0 0.0 0.0

-1.447562823504827e6 1.3790373794760872e7 0.0
1.3790373794760872e7 -6.5002277417657515e6 0.0
0.0 0.0 0.0

-9.578681304804789e6 1.893986526408928e7 0.0
1.893986526408928e7 7.511120909863805e6 0.0
0.0 0.0 0.0

-1.2006343296172174e7 84175.88054138917 0.0
84175.88054138917 1.8218840241380483e7 0.0
0.0 0.0 0.0

3.19751961411311e6 8.49899155743845e6 0.0
8.49899155743845e6 -1.530408418438473e7 0.0
0.0 0.0 0.0

-2.101298171761076e6 1.1417991209839445e7 0.0
1.1417991209839445e7 -1.1832953813894281e7 0.0
0.0 0.0 0.0

2.623947918656496e6 1.3823540708656147e7 0.0
1.3823540708656147e7 2.8684672710163556e6 0.0
0.0 0.0 0.0

-2.106480942486439e7 1.9658056592033397e7 0.0
1.9658056592033397e7 4.268878636199244e6 0.0
0.0 0.0 0.0

-2.3342103678142745e6 8.88000033333803e6 0.0
8.88000033333803e6 -1.548233783728315e6 0.0
0.0 0.0 0.0

-7.782353346143441e6 1.857139706076082e7 0.0
1.857139706076082e7 6.70788567632987e6 0.0
0.0 0.0 0.0

-5.014263652792383e6 1.857857115759204e7 0.0
1.857857115759204e7 4.469939746560608e6 0.0
0.0 0.0 0.0

-9.253011420691095e6 2.381300613695542e6 0.0
2.381300613695542e6 1.5930442426880123e7 0.0
0.0 0.0 0.0

-3.1714081794559676e6 1.9037393007458367e6 0.0
1.9037393007458367e6 4.108735852980652e6 0.0
0.0 0.0 0.0

1.6941964129276476e6 1.0226410591275053e7 0.0
1.0226410591275053e7 -1.1985392936734121e7 0.0
0.0 0.0 0.0

-1.078646984766088e7 -520521.38459867047 0.0
-520521.38459867047 1.8281828454680733e7 0.0
0.0 0.0 0.0

568975.1001861766 1.2176170508643106e7 0.0
1.2176170508643106e7 -1.132484960637698e7 0.0
0.0 0.0 0.0

3.174996967926181e6 1.3237516273233108e7 0.0
1.3237516273233108e7 -2.9863718814569283e6 0.0
0.0 0.0 0.0

1.1092095023261504e6 7.511032087091106e6 0.0
7.511032087091106e6 -7.489436272640323e6 0.0
0.0 0.0 0.0

-1.0679193673510008e7 1.769011708054794e7 0.0
1.769011708054794e7 6.752910877988324e6 0.0
0.0 0.0 0.0

-4.60223794602191e6 1.7521989083421778e7 0.0
1.7521989083421778e7 -839962.4018548592 0.0
0.0 0.0 0.0

-97265.03806618435 9.53912752628516e6 0.0
9.53912752628516e6 -324216.34806991107 0.0
0.0 0.0 0.0

-596615.2687803117 1.2209861169194987e7 0.0
1.2209861169194987e7 -1.9887177784775454e6 0.0
0.0 0.0 0.0

2.0036049815046699e6 1.0372347342551501e7 0.0
1.0372347342551501e7 -1.099479777542778e7 0.0
0.0 0.0 0.0

-2.1725780095930416e6 1.1583256445551772e7 0.0
1.1583256445551772e7 -1.1780467961142203e7 0.0
0.0 0.0 0.0

-9.10591262370599e6 -860836.8189849962 0.0
-860836.8189849962 1.1338764298114026e7 0.0
0.0 0.0 0.0

-3.109112337577389e6 9.280838165166277e6 0.0
9.280838165166277e6 1.433128705287407e6 0.0
0.0 0.0 0.0

-1.1859325820459018e6 1.523627287901119e7 0.0
1.523627287901119e7 -6.322916925708099e6 0.0
0.0 0.0 0.0

3.4545238337848857e6 6.85986785653275e6 0.0
6.85986785653275e6 -1.2208740344086964e7 0.0
0.0 0.0 0.0

-2.114434593058841e7 1.4052265180828491e7 0.0
1.4052265180828491e7 3.08991605643552e6 0.0
0.0 0.0 0.0

2.463900534713869e6 1.3936324307465747e7 0.0
1.3936324307465747e7 -4.1777987884652605e6 0.0
0.0 0.0 0.0

9.092813310776712e6 1.2347257451940233e7 0.0
1.2347257451940233e7 -2.9686290126492935e6 0.0
0.0 0.0 0.0

-1.109849293275842e7 2.2532090570527293e7 0.0
2.2532090570527293e7 8.71256877808265e6 0.0
0.0 0.0 0.0

-6.459051578565101e6 2.4492734622445563e6 0.0
2.4492734622445563e6 9.158750112147868e6 0.0
0.0 0.0 0.0

-761742.8534993259 1.2620933333949018e7 0.0
1.2620933333949018e7 -7.050704308180281e6 0.0
0.0 0.0 0.0

-3.521074790031396e6 1.5607742785322579e7 0.0
1.5607742785322579e7 -1.9118004487273511e6 0.0
0.0 0.0 0.0

-1.5347722686900405e7 1.8873306326585203e7 0.0
1.8873306326585203e7 9.240633197010927e6 0.0
0.0 0.0 0.0

-2.1164426471179463e6 1.2596754471286695e7 0.0
1.2596754471286695e7 -1.6772565525146777e7 0.0
0.0 0.0 0.0

-78857.45312411222 1.304540351411247e7 0.0
1.304540351411247e7 2.4003674951503547e6 0.0
0.0 0.0 0.0

-882714.9580109655 1.1712138512725161e7 0.0
1.1712138512725161e7 -1.3004852097273504e7 0.0
0.0 0.0 0.0

-1.352511810867608e7 2.0942635309307855e7 0.0
2.0942635309307855e7 9.55365089871774e6 0.0
0.0 0.0 0.0

-3.107999579948282e6 1.6576730847381596e7 0.0
1.6576730847381596e7 -3.1715460073828525e6 0.0
0.0 0.0 0.0

-3.0033775132307955e6 1.554576369453078e7 0.0
1.554576369453078e7 -165875.87307366403 0.0
0.0 0.0 0.0

3.5820384045697674e6 9.021681628965925e6 0.0
9.021681628965925e6 -1.6393893677502666e7 0.0
0.0 0.0 0.0

-1.1877698199890183e7 2.2869964059060826e6 0.0
2.2869964059060826e6 2.126673871770798e7 0.0
0.0 0.0 0.0

-1.5836037717559142e6 1.2541850032721888e7 0.0
1.2541850032721888e7 -4.7216524300441025e6 0.0
0.0 0.0 0.0

2.6355959437820306e6 1.427179906008287e7 0.0
1.427179906008287e7 -4.088545946918117e6 0.0
0.0 0.0 0.0

-1.677123198804255e6 1.2338865136235341e7 0.0
1.2338865136235341e7 -1.4996738247412e7 0.0
0.0 0.0 0.0

-8.706139102586577e6 1.8440569955292538e7 0.0
1.8440569955292538e7 6.475951727242671e6 0.0
0.0 0.0 0.0

4.3273897750706095e6 2.1568810596642215e7 0.0
2.1568810596642215e7 -1.0289095349278687e7 0.0
0.0 0.0 0.0

-2.1004685868258663e6 1.5568421789982272e7 0.0
1.5568421789982272e7 -1.7126300274599434e6 0.0
0.0 0.0 0.0

-9.175199661026366e6 1.9178624338331603e7 0.0
1.9178624338331603e7 7.08139603110064e6 0.0
0.0 0.0 0.0

-8.827622921158794e6 1.2432562513455074e7 0.0
1.2432562513455074e7 1.095307927777206e7 0.0
0.0 0.0 0.0

1.1123450061702414e6 1.3590758795009587e7 0.0
1.3590758795009587e7 -5.517741105930151e6 0.0
0.0 0.0 0.0

-5.479199483453857e6 1.8313235014693905e7 0.0
1.8313235014693905e7 5.640643114863841e6 0.0
0.0 0.0 0.0

-1.2182024105859902e6 1.2131786784819605e7 0.0
1.2131786784819605e7 -1.6096623832185114e7 0.0
0.0 0.0 0.0

4.531273857796024e6 5.797453113486195e6 0.0
5.797453113486195e6 -1.541141279686043e7 0.0
0.0 0.0 0.0

-1.7258492894402868e6 1.2183079680449124e7 0.0
1.2183079680449124e7 -1.3726316204226766e7 0.0
0.0 0.0 0.0

-5.88716077181053e6 1.967945433468954e7 0.0
1.967945433468954e7 5.372315522891024e6 0.0
0.0 0.0 0.0

-1.6511304198761492e6 1.286319221064101e7 0.0
1.286319221064101e7 -5.503767951904907e6 0.0
0.0 0.0 0.0

992016.0888754086 1.1430096289109157e7 0.0
1.1430096289109157e7 3.3067204859277504e6 0.0
0.0 0.0 0.0

-1.2352364557066698e7 1.0261262307520714e7 0.0
1.0261262307520714e7 1.561289417588162e7 0.0
0.0 0.0 0.0

-1.1674360095722175e6 1.000067361568726e7 0.0
1.000067361568726e7 -2.5331609281038037e6 0.0
0.0 0.0 0.0

3.5730378245506557e6 1.2849105149938308e7 0.0
1.2849105149938308e7 1.6669080617818723e7 0.0
0.0 0.0 0.0

-1.1186598227482367e7 -2.458832383809236e6 0.0
-2.458832383809236e6 1.999950633932302e7 0.0
0.0 0.0 0.0

5.2350989018621575e6 5.275957355572352e6 0.0
5.275957355572352e6 -2.0276508495591987e7 0.0
0.0 0.0 0.0

-394111.3149044663 1.2289242983915936e7 0.0
1.2289242983915936e7 -1.4403886582582764e7 0.0
0.0 0.0 0.0

-8.248315082076467e6 1.9340647048087288e7 0.0
1.9340647048087288e7 6.886427266339864e6 0.0
0.0 0.0 0.0

1.2110396629992453e7 1.0794791053846685e7 0.0
1.0794791053846685e7 -323930.28064594045 0.0
0.0 0.0 0.0

-1.1789917040005548e7 1.1993630419471373e6 0.0
1.1993630419471373e6 1.547660156124015e7 0.0
0.0 0.0 0.0

-1.2490029470738465e7 2.0569416674601186e7 0.0
2.0569416674601186e7 -267177.7048596302 0.0
0.0 0.0 0.0

-3.657207973511951e6 1.4697916414018752e7 0.0
1.4697916414018752e7 3.90632996689912e6 0.0
0.0 0.0 0.0

-1.6398501589372251e7 1.9961139662787307e7 0.0
1.9961139662787307e7 1.0103566509178348e7 0.0
0.0 0.0 0.0

5.1898317116268035e6 5.547191477065867e6 0.0
5.547191477065867e6 -2.101780491263905e7 0.0
0.0 0.0 0.0

-2.0493874821451905e6 1.9029686819358997e7 0.0
1.9029686819358997e7 -1.7256512641337202e6 0.0
0.0 0.0 0.0

-1.1280708668398755e7 8.536939630242763e6 0.0
8.536939630242763e6 3.06189224823338e7 0.0
0.0 0.0 0.0

-5.645497038154155e6 1.792596198829441e7 0.0
1.792596198829441e7 6.644590249250651e6 0.0
0.0 0.0 0.0

-975537.2642943944 1.234200762869861e7 0.0
1.234200762869861e7 -3.9192784053192576e6 0.0
0.0 0.0 0.0

-1.1567583752608376e6 4.1035065679059043e6 0.0
4.1035065679059043e6 382581.5928669178 0.0
0.0 0.0 0.0

-63983.57768019079 1.3524243802158479e7 0.0
1.3524243802158479e7 5.041826252779061e6 0.0
0.0 0.0 0.0

-4.192574800543759e6 1.537323216605309e7 0.0
1.537323216605309e7 5.340127228103255e6 0.0
0.0 0.0 0.0

1.4728776218331135e6 7.999116970866472e6 0.0
7.999116970866472e6 -6.735925446086309e6 0.0
0.0 0.0 0.0

-1.6855471180929644e6 1.4418922777370416e7 0.0
1.4418922777370416e7 -124254.6156893557 0.0
0.0 0.0 0.0

2.247605628904909e6 1.3931935477398865e7 0.0
1.3931935477398865e7 -4.1895511620373335e6 0.0
0.0 0.0 0.0

-1.692925832949445e6 9.824940664388554e6 0.0
9.824940664388554e6 -1.283892234208675e6 0.0
0.0 0.0 0.0

-62730.81219678745 1.1809353255369829e7 0.0
1.1809353255369829e7 -1.5353879407005558e7 0.0
0.0 0.0 0.0

-5.558303673200579e6 1.1464554676135575e7 0.0
1.1464554676135575e7 3.076056426102147e6 0.0
0.0 0.0 0.0

-9.105404084331786e6 1.2205995787879746e7 0.0
1.2205995787879746e7 1.3585257381190619e7 0.0
0.0 0.0 0.0

-8.779081513061866e6 -1.187916195730777e6 0.0
-1.187916195730777e6 1.2675528500425788e7 0.0
0.0 0.0 0.0

-6.037694603835711e6 1.5439987002729416e7 0.0
1.5439987002729416e7 876720.8475055634 0.0
0.0 0.0 0.0

-6.570135824799385e6 1.8554062248893093e7 0.0
1.8554062248893093e7 6.598644018511107e6 0.0
0.0 0.0 0.0

620723.2623106176 1.9243200586284745e7 0.0
1.9243200586284745e7 -4.5011432633173065e6 0.0
0.0 0.0 0.0

-1.1767131142035933e7 732130.0818342761 0.0
732130.0818342761 1.6491106301241804e7 0.0
0.0 0.0 0.0

-715148.6864911234 1.2185564580947416e7 0.0
1.2185564580947416e7 -1.5923702858174901e7 0.0
0.0 0.0 0.0

-5.775554472816443e6 1.857688000445831e7 0.0
1.857688000445831e7 6.491076770315653e6 0.0
0.0 0.0 0.0

941200.9947523791 1.238138259956467e7 0.0
1.238138259956467e7 -6.581170716964374e6 0.0
0.0 0.0 0.0

-1.246055376038114e6 1.0883514411080232e7 0.0
1.0883514411080232e7 -4.645962758067921e6 0.0
0.0 0.0 0.0

-4.464054527876274e6 2.771828306192035e6 0.0
2.771828306192035e6 5.752573031860834e6 0.0
0.0 0.0 0.0

-8.361566266774224e6 1.992477101268114e7 0.0
1.992477101268114e7 7.295742145789038e6 0.0
0.0 0.0 0.0

-3.6906059217453254e6 1.5314986444962686e7 0.0
1.5314986444962686e7 804746.6123034286 0.0
0.0 0.0 0.0

-31116.777417841367 1.342618846144813e7 0.0
1.342618846144813e7 6.875842698927124e6 0.0
0.0 0.0 0.0

563716.7513810722 4.385922457740313e6 0.0
4.385922457740313e6 -2.3350604840982053e6 0.0
0.0 0.0 0.0

1.5193762715398788e6 1.2426745641178818e7 0.0
1.2426745641178818e7 1.0809407648100345e6 0.0
0.0 0.0 0.0

3.8904424675319195e6 8.263904447845609e6 0.0
8.263904447845609e6 -2.6945718642659348e7 0.0
0.0 0.0 0.0

-3.350489202509009e6 2.1397469026190136e7 0.0
2.1397469026190136e7 -1.66723182145959e6 0.0
0.0 0.0 0.0

-5.353342808490666e6 1.6149363012429168e7 0.0
1.6149363012429168e7 6.694151432688806e6 0.0
0.0 0.0 0.0

-5.188713762687897e6 6.730492053117066e6 0.0
6.730492053117066e6 3.3331591503025405e6 0.0
0.0 0.0 0.0

-511577.10211957677 1.41408918183118e7 0.0
1.41408918183118e7 -2.077963198490836e6 0.0
0.0 0.0 0.0

3.343773693487389e6 9.404788949627565e6 0.0
9.404788949627565e6 -2.4840793716675002e7 0.0
0.0 0.0 0.0

754114.987329388 1.2111124504496027e7 0.0
1.2111124504496027e7 -1.3230532414823322e7 0.0
0.0 0.0 0.0

-9.790084551169725e6 2.152763775388451e7 0.0
2.152763775388451e7 7.459886700601865e6 0.0
0.0 0.0 0.0

-1.3800451087291809e6 1.2710444020308213e7 0.0
1.2710444020308213e7 -4.600150676235141e6 0.0
0.0 0.0 0.0

-2.581420325276628e6 1.575248203848587e7 0.0
1.575248203848587e7 -4.0318632869236204e6 0.0
0.0 0.0 0.0

-5.396395674144518e6 1.617334237099914e7 0.0
1.617334237099914e7 4.931193515965157e6 0.0
0.0 0.0 0.0

-92025.37764704274 1.2666623836406063e7 0.0
1.2666623836406063e7 -7.174109030081346e6 0.0
0.0 0.0 0.0

2.1665166703004395e6 1.3614538816039262e7 0.0
1.3614538816039262e7 2.13324715194148e6 0.0
0.0 0.0 0.0

-5.581542712023554e6 1.612524441195006e7 0.0
1.612524441195006e7 -859994.807597389 0.0
0.0 0.0 0.0

-1.625980395116847e6 1.4531194544446243e7 0.0
1.4531194544446243e7 2.0612271534807356e6 0.0
0.0 0.0 0.0

-1.1371732278171435e7 5.388329381984294e6 0.0
5.388329381984294e6 3.571542946699634e7 0.0
0.0 0.0 0.0

-472122.7074975675 1.0689153715090426e7 0.0
1.0689153715090426e7 -4.354870316556353e6 0.0
0.0 0.0 0.0

-2.679642285296877e6 1.115920479386303e7 0.0
1.115920479386303e7 -1.1834700576400537e7 0.0
0.0 0.0 0.0

-325496.7166164154 1.3709135417635659e7 0.0
1.3709135417635659e7 -9.322065304429915e6 0.0
0.0 0.0 0.0

-3.8726627529069693e6 1.3665041330813766e7 0.0
1.3665041330813766e7 -4.199571389100535e6 0.0
0.0 0.0 0.0

-4.277126454242155e6 1.507143860496678e7 0.0
1.507143860496678e7 5.411765018733233e6 0.0
0.0 0.0 0.0

-218225.30812371577 1.2094206299155997e7 0.0
1.2094206299155997e7 -727417.6292382922 0.0
0.0 0.0 0.0

-5.142101605831592e6 1.8802448644476593e7 0.0
1.8802448644476593e7 5.03276165414683e6 0.0
0.0 0.0 0.0

-1.356655892553573e6 1.4851870822188016e7 0.0
1.4851870822188016e7 -141136.61845885107 0.0
0.0 0.0 0.0

-1.1456869905854573e7 -925532.2855680971 0.0
-925532.2855680971 3.5416565979927324e7 0.0
0.0 0.0 0.0

-1.1576517393024068e7 3.957355077137877e6 0.0
3.957355077137877e6 1.342549293695075e7 0.0
0.0 0.0 0.0

966229.8781704842 1.2716146157364745e7 0.0
1.2716146157364745e7 -6.147616948944214e6 0.0
0.0 0.0 0.0

-1.591783551257758e7 1.634670065865404e7 0.0
1.634670065865404e7 6.697052699987719e6 0.0
0.0 0.0 0.0

-7.440201849799432e6 1.5802245309980519e6 0.0
1.5802245309980519e6 7.862269798304311e6 0.0
0.0 0.0 0.0

-1.2650209616715372e7 3.0346674000772266e6 0.0
3.0346674000772266e6 2.7597105111113e7 0.0
0.0 0.0 0.0

-1.0687857216628366e6 -1.0198763775281168e6 0.0
-1.0198763775281168e6 23691.21506241616 0.0
0.0 0.0 0.0

-4.0553652455308437e6 2.507826019741082e6 0.0
2.507826019741082e6 1.7587299030619292e6 0.0
0.0 0.0 0.0

2.2190645167585653e6 9.291933545847943e6 0.0
9.291933545847943e6 -1.2051448362144982e7 0.0
0.0 0.0 0.0

-4.383689494151394e6 1.5494674786507096e7 0.0
1.5494674786507096e7 596324.9472189969 0.0
0.0 0.0 0.0

-5.211027070020046e6 1.3397131973527603e7 0.0
1.3397131973527603e7 -2.40193655398601e6 0.0
0.0 0.0 0.0

-5.014171675794681e6 1.5010166260914754e7 0.0
1.5010166260914754e7 7.463484166446209e6 0.0
0.0 0.0 0.0

-461959.0364580415 1.1741567381373858e7 0.0
1.1741567381373858e7 -1.2621418740521943e7 0.0
0.0 0.0 0.0

-1.457330785456012e6 1.2560476326920759e7 0.0
1.2560476326920759e7 6.498666780664939e6 0.0
0.0 0.0 0.0

-3.7041635373026608e6 1.225418035994456e7 0.0
1.225418035994456e7 -1.5376013399334187e7 0.0
0.0 0.0 0.0

-2.612171797463497e6 1.4569687942041874e7 0.0
1.4569687942041874e7 1.1866363346819864e6 0.0
0.0 0.0 0.0

2.640651701520901e6 1.0075888790056108e7 0.0
1.0075888790056108e7 -2.8982638382663283e7 0.0
0.0 0.0 0.0

3.197677037887009e6 9.503132504591566e6 0.0
9.503132504591566e6 -2.2300012984370492e7 0.0
0.0 0.0 0.0

-1.5548762071567127e6 1.5325172042170925e7 0.0
1.5325172042170925e7 -3.6003115065714354e6 0.0
0.0 0.0 0.0

-6.617120677810781e6 1.8388658202844717e7 0.0
1.8388658202844717e7 662653.627963955 0.0
0.0 0.0 0.0

-8.457644151386172e6 1.8263608717481934e7 0.0
1.8263608717481934e7 6.767194806385698e6 0.0
0.0 0.0 0.0

-4.0934641542325816e6 9.51307140815355e6 0.0
9.51307140815355e6 1.1593384332595055e6 0.0
0.0 0.0 0.0

-2.805456220152246e6 3.5431299097333103e6 0.0
3.5431299097333103e6 4.148218851613988e6 0.0
0.0 0.0 0.0

1.1077948798782467e6 1.1808478415989041e7 0.0
1.1808478415989041e7 -5.671362381851471e6 0.0
0.0 0.0 0.0

3.517623868296571e6 1.444987500112075e7 0.0
1.444987500112075e7 -4.631654646661984e6 0.0
0.0 0.0 0.0

-1.0193056152786821e7 9.113268662661925e6 0.0
9.113268662661925e6 3.1450376011419162e7 0.0
0.0 0.0 0.0

-2.043562423952251e6 1.42997188672696e7 0.0
1.42997188672696e7 4.425308826211323e6 0.0
0.0 0.0 0.0

-6.776368223145732e6 1.857448683085164e7 0.0
1.857448683085164e7 6.652879990985099e6 0.0
0.0 0.0 0.0

-1.6260716698161573e6 1.0889278269756082e7 0.0
1.0889278269756082e7 -8.97519413176511e6 0.0
0.0 0.0 0.0

-1.2513436015840836e7 6.0550865763342455e6 0.0
6.0550865763342455e6 2.5326925941026904e7 0.0
0.0 0.0 0.0

-2.0245223946593413e6 1.4099103268683458e7 0.0
1.4099103268683458e7 2.1575593566385685e6 0.0
0.0 0.0 0.0

-768472.9925074873 1.3725353264065191e7 0.0
1.3725353264065191e7 -8.781049260065656e6 0.0
0.0 0.0 0.0

1.1866566587198135e6 1.156158913404059e7 0.0
1.156158913404059e7 -1.4956431676966937e7 0.0
0.0 0.0 0.0

3.428813815372536e6 8.799677526640926e6 0.0
8.799677526640926e6 -2.194755762536649e7 0.0
0.0 0.0 0.0

3.1777246172545087e6 9.11302479018269e6 0.0
9.11302479018269e6 -1.8477376982860297e7 0.0
0.0 0.0 0.0

-3.021588889237568e6 1.380526851304014e7 0.0
1.380526851304014e7 -2.1829776817006018e7 0.0
0.0 0.0 0.0

-5.304289869858991e6 1.8561051694419917e7 0.0
1.8561051694419917e7 5.3361199304471575e6 0.0
0.0 0.0 0.0

-2.813749482253926e6 1.5954110388551045e7 0.0
1.5954110388551045e7 -2.6033917179189394e6 0.0
0.0 0.0 0.0

463035.5004096045 1.2712418020014979e7 0.0
1.2712418020014979e7 -9.045411394535469e6 0.0
0.0 0.0 0.0

7.41762157979371e6 1.4521535265024455e7 0.0
1.4521535265024455e7 -5.278350130503691e6 0.0
0.0 0.0 0.0

-1.1441880812084412e7 1.1636704249522712e6 0.0
1.1636704249522712e6 3.114149080120663e7 0.0
0.0 0.0 0.0

2.679727573992502e6 9.792298570837844e6 0.0
9.792298570837844e6 -2.540863502829421e7 0.0
0.0 0.0 0.0

3.5158274918732475e6 9.24741417516247e6 0.0
9.24741417516247e6 -1.820483370600026e7 0.0
0.0 0.0 0.0

-1.0244300986303259e7 5.480251298229969e6 0.0
5.480251298229969e6 4.00384196653394e7 0.0
0.0 0.0 0.0

6.019909489682831e6 1.4009007342117256e7 0.0
1.4009007342117256e7 3.367466680799296e6 0.0
0.0 0.0 0.0

-1.1492062157824041e7 4.24069170118008e6 0.0
4.24069170118008e6 2.906701192679847e7 0.0
0.0 0.0 0.0

-788829.8936053666 3.1129514374656314e6 0.0
3.1129514374656314e6 -1.0921895408597295e6 0.0
0.0 0.0 0.0

-5.475946084777093e6 1.9081288131148867e7 0.0
1.9081288131148867e7 4.5287503960621655e6 0.0
0.0 0.0 0.0

2.9197152118127663e6 8.87044810863363e6 0.0
8.87044810863363e6 -1.4664933300210983e7 0.0
0.0 0.0 0.0

-7.357133308142198e6 2.0408580620289832e7 0.0
2.0408580620289832e7 7.134202403111562e6 0.0
0.0 0.0 0.0

-1.1538943111150006e7 8.113529215094454e6 0.0
8.113529215094454e6 2.2742364200356938e7 0.0
0.0 0.0 0.0

-1.0481027927581692e7 3.181953334174894e6 0.0
3.181953334174894e6 1.203557628641966e7 0.0
0.0 0.0 0.0

-1.4168913697355909e6 1.9211540677857734e7 0.0
1.9211540677857734e7 -2.386953612915796e6 0.0
0.0 0.0 0.0

-4.859920059876457e6 1.540429876184657e7 0.0
1.540429876184657e7 7.344024824656025e6 0.0
0.0 0.0 0.0

-2.516298114750524e6 1.6801329146651555e7 0.0
1.6801329146651555e7 -2.818582403689853e6 0.0
0.0 0.0 0.0

-5.738412826039434e6 1.6822194061616674e7 0.0
1.6822194061616674e7 5.746007415416384e6 0.0
0.0 0.0 0.0

-329452.47727009375 1.226778414656547e7 0.0
1.226778414656547e7 -1.3419163178664247e7 0.0
0.0 0.0 0.0

474919.2080338937 1.5054766856578493e7 0.0
1.5054766856578493e7 -5.634822701393348e6 0.0
0.0 0.0 0.0

105206.12053565122 1.3854475625001699e7 0.0
1.3854475625001699e7 1.6395167608235842e7 0.0
0.0 0.0 0.0

-5.221889816562574e6 880919.5787560168 0.0
880919.5787560168 1.0502661595245088e7 0.0
0.0 0.0 0.0

-4.284010254140372e6 4.976259172222685e6 0.0
4.976259172222685e6 -877298.2411184842 0.0
0.0 0.0 0.0

-1.8298346988154217e6 1.3095563158706928e7 0.0
1.3095563158706928e7 -6.099448854391573e6 0.0
0.0 0.0 0.0

1.5910700259374452e6 1.3311795237054076e7 0.0
1.3311795237054076e7 5.303567085345232e6 0.0
0.0 0.0 0.0

-2.9775816285924315e6 2.185479327334702e7 0.0
2.185479327334702e7 -3.1273725853856015e6 0.0
0.0 0.0 0.0

3.8470446069462835e6 5.748792015806702e6 0.0
5.748792015806702e6 -1.0317511889317922e7 0.0
0.0 0.0 0.0

-6.402553617684317e6 2.1057757353478014e7 0.0
2.1057757353478014e7 6.416948590352469e6 0.0
0.0 0.0 0.0

-2.693112501415654e7 6.830436852293392e6 0.0
6.830436852293392e6 1.1370290656293867e7 0.0
0.0 0.0 0.0

-421397.95359748695 1.385428555323553e7 0.0
1.385428555323553e7 -8.797721770035611e6 0.0
0.0 0.0 0.0

-1.1878037222119726e7 9.627265652938582e6 0.0
9.627265652938582e6 1.9278246920121957e7 0.0
0.0 0.0 0.0

1.0062933941983953e6 1.2638399773006994e7 0.0
1.2638399773006994e7 -6.197229798021324e6 0.0
0.0 0.0 0.0

-4.715040138026705e6 1.5633956874635005e7 0.0
1.5633956874635005e7 5.89200437297627e6 0.0
0.0 0.0 0.0

-3.986852491494801e6 1.5179061538926579e7 0.0
1.5179061538926579e7 -154167.01457839808 0.0
0.0 0.0 0.0

961236.6504391488 1.3157078591965219e7 0.0
1.3157078591965219e7 -6.922577098820059e6 0.0
0.0 0.0 0.0

5.369135003866642e6 5.134347860040774e6 0.0
5.134347860040774e6 -2.1643230856188547e7 0.0
0.0 0.0 0.0

-841209.3473010035 9.29722147104442e6 0.0
9.29722147104442e6 -2.8040315019460204e6 0.0
0.0 0.0 0.0

3.1485685715017053e6 1.5527343691289192e7 0.0
1.5527343691289192e7 -5.08936786086272e6 0.0
0.0 0.0 0.0

292570.7675415403 1.2754444177049913e7 0.0
1.2754444177049913e7 -9.853909162122753e6 0.0
0.0 0.0 0.0

-77073.17366680014 1.3482925390631702e7 0.0
1.3482925390631702e7 5.808157797243442e6 0.0
0.0 0.0 0.0

2.6924033903624713e6 9.753662030851461e6 0.0
9.753662030851461e6 -2.268922555803304e7 0.0
0.0 0.0 0.0

-2.391852814288092e6 1.4984700464089246e7 0.0
1.4984700464089246e7 -4.0128583390403166e6 0.0
0.0 0.0 0.0

-2.047244056603259e6 1.490032427172149e7 0.0
1.490032427172149e7 1.02076917162678e7 0.0
0.0 0.0 0.0

5.980820102622885e6 1.8332819351974364e7 0.0
1.8332819351974364e7 -8.3828095045414325e6 0.0
0.0 0.0 0.0

3.0905476731145913e6 9.503926221551778e6 0.0
9.503926221551778e6 -2.010908092604078e7 0.0
0.0 0.0 0.0

-2.2779119393825203e7 5.481135431502639e6 0.0
5.481135431502639e6 1.0828604411855873e7 0.0
0.0 0.0 0.0

-1.3844441088318212e6 1.3854287191491518e7 0.0
1.3854287191491518e7 5.770913138239441e6 0.0
0.0 0.0 0.0

-7.276798185077008e6 2.094449257882312e7 0.0
2.094449257882312e7 7.107856712978294e6 0.0
0.0 0.0 0.0

-1.1543375958892736e6 1.4020701944379061e7 0.0
1.4020701944379061e7 -5.588701560201697e6 0.0
0.0 0.0 0.0

-6.270367269584844e6 1.885365263621113e7 0.0
1.885365263621113e7 6.464502263699863e6 0.0
0.0 0.0 0.0

-1.1259786983132102e7 8.471300987091165e6 0.0
8.471300987091165e6 3.37515787195695e7 0.0
0.0 0.0 0.0

1.3380134876449858e6 1.1060903580974035e7 0.0
1.1060903580974035e7 -9.705093553755175e6 0.0
0.0 0.0 0.0

-2.8651207512273113e6 1.9359381704524733e7 0.0
1.9359381704524733e7 -2.2491583569636866e6 0.0
0.0 0.0 0.0

-1.4305201988962262e6 8.633804942701247e6 0.0
8.633804942701247e6 -1.1865890832555753e6 0.0
0.0 0.0 0.0

-2.2152611507602736e7 5.327024016951337e6 0.0
5.327024016951337e6 1.081740429429718e7 0.0
0.0 0.0 0.0

-2.9422025567709855e6 1.07487056453851e7 0.0
1.07487056453851e7 -1.2013663631084543e6 0.0
0.0 0.0 0.0

-1.1347568005179808e7 -950032.6289311701 0.0
-950032.6289311701 1.594713880677674e7 0.0
0.0 0.0 0.0

-1.095446740704599e7 1.045763687398308e7 0.0
1.045763687398308e7 2.0420024819436815e7 0.0
0.0 0.0 0.0

-6.199786516160598e6 2.0009697777424302e7 0.0
2.0009697777424302e7 5.6824663719093725e6 0.0
0.0 0.0 0.0

-7.289451772186788e6 2.1381446843094446e7 0.0
2.1381446843094446e7 6.9754917024228005e6 0.0
0.0 0.0 0.0

-1.1351462087992117e7 7.056535342367333e6 0.0
7.056535342367333e6 2.6586809125257708e7 0.0
0.0 0.0 0.0

1.2667523704269212e6 1.0162138031548122e7 0.0
1.0162138031548122e7 -8.160829244754296e6 0.0
0.0 0.0 0.0

2.7173408100757543e6 1.3504071352815168e7 0.0
1.3504071352815168e7 -2.6287537019135356e6 0.0
0.0 0.0 0.0

-1.1071767297447887e6 9.434769949329872e6 0.0
9.434769949329872e6 -6.612912592041448e6 0.0
0.0 0.0 0.0

-502122.8913420048 6.960001343238153e6 0.0
6.960001343238153e6 -280618.280357581 0.0
0.0 0.0 0.0

-5.635268332596548e6 1.994719421705776e7 0.0
1.994719421705776e7 5.740933095806873e6 0.0
0.0 0.0 0.0

-1.1604076032053504e7 1.1239127258764517e7 0.0
1.1239127258764517e7 1.4494792444614362e7 0.0
0.0 0.0 0.0

2.6170087536004437e6 9.822106189408546e6 0.0
9.822106189408546e6 -2.058992052111586e7 0.0
0.0 0.0 0.0

-1.3300256606658459e7 1.6745769372522589e7 0.0
1.6745769372522589e7 5.285239507135244e6 0.0
0.0 0.0 0.0

-2.7990794124089475e6 1.7241097551620666e7 0.0
1.7241097551620666e7 -2.0070447587884984e6 0.0
0.0 0.0 0.0

5.076143456632651e6 6.098609651134067e6 0.0
6.098609651134067e6 -2.5382344415694427e7 0.0
0.0 0.0 0.0

-4.616476298629558e6 1.4131377804099996e7 0.0
1.4131377804099996e7 8.979926867459808e6 0.0
0.0 0.0 0.0

-4.262922383995294e6 1.5492587730507253e7 0.0
1.5492587730507253e7 1.994059141593601e6 0.0
0.0 0.0 0.0

-41856.11740021221 1.393752914977984e7 0.0
1.393752914977984e7 -8.886579018107267e6 0.0
0.0 0.0 0.0

-8.357913167718299e6 2.0541467211628348e7 0.0
2.0541467211628348e7 7.550284608399154e6 0.0
0.0 0.0 0.0

-3.534755662172497e6 1.551171387788606e7 0.0
1.551171387788606e7 389910.3057477218 0.0
0.0 0.0 0.0

-6.768659648227268e6 2.033532175700078e7 0.0
2.033532175700078e7 6.096552686372958e6 0.0
0.0 0.0 0.0

-688484.6045924112 6.609872251619592e6 0.0
6.609872251619592e6 -1.595900176113406e6 0.0
0.0 0.0 0.0

1.3157802458760543e6 1.3496982432938946e7 0.0
1.3496982432938946e7 5.918069472708956e6 0.0
0.0 0.0 0.0

513153.54161380464 1.2372224368217116e7 0.0
1.2372224368217116e7 -1.2220572026658041e7 0.0
0.0 0.0 0.0

-2.0985001276708427e6 1.0531838671163555e7 0.0
1.0531838671163555e7 -895970.1524195977 0.0
0.0 0.0 0.0

60623.06056407513 1.3167388726221094e7 0.0
1.3167388726221094e7 -1.0191504174280396e7 0.0
0.0 0.0 0.0

3.086551300688019e6 7.162198933598554e6 0.0
7.162198933598554e6 -1.1595681859614149e7 0.0
0.0 0.0 0.0

1.3026746923845783e6 1.5441520243178984e7 0.0
1.5441520243178984e7 7.594885766641537e6 0.0
0.0 0.0 0.0

-9.150373546540825e6 -5.038425516417451e6 0.0
-5.038425516417451e6 2.061846268891632e7 0.0
0.0 0.0 0.0

1.6255601895385068e6 1.3685894042419082e7 0.0
1.3685894042419082e7 6.85326938204361e6 0.0
0.0 0.0 0.0

-5.605559779610222e6 1.891010023976466e7 0.0
1.891010023976466e7 4.894371276702623e6 0.0
0.0 0.0 0.0

1.0453039001504751e6 1.2235526723542383e7 0.0
1.2235526723542383e7 -1.340877524471529e7 0.0
0.0 0.0 0.0

-2.505207686540169e6 1.8769435532788996e7 0.0
1.8769435532788996e7 -1.4169400600969433e6 0.0
0.0 0.0 0.0

-177544.10314546264 1.376368677626852e7 0.0
1.376368677626852e7 -1.7751733220962414e6 0.0
0.0 0.0 0.0

3.522656897685188e6 8.60352937679219e6 0.0
8.60352937679219e6 -1.4242679785748497e7 0.0
0.0 0.0 0.0

-3.111283531975192e6 1.692429857292272e7 0.0
1.692429857292272e7 -3.015195114850348e6 0.0
0.0 0.0 0.0

390580.6795035396 1.2592083378837168e7 0.0
1.2592083378837168e7 -1.157010232588373e7 0.0
0.0 0.0 0.0

-4.6919776690375935e6 5.39163108069587e6 0.0
5.39163108069587e6 4.603060933278838e6 0.0
0.0 0.0 0.0

-2.3091373702635523e6 1.5213808468107322e7 0.0
1.5213808468107322e7 7.494407845064388e6 0.0
0.0 0.0 0.0

-4.891979617339127e6 1.5874953937594771e7 0.0
1.5874953937594771e7 5.766255455282573e6 0.0
0.0 0.0 0.0

-5.713901765556578e6 1.9307947947816186e7 0.0
1.9307947947816186e7 5.110491580803428e6 0.0
0.0 0.0 0.0

-2.0901765183284688e6 1.3803184610992774e7 0.0
1.3803184610992774e7 4.261683147793857e6 0.0
0.0 0.0 0.0

-1.1110037889434528e6 4.830123883839357e6 0.0
4.830123883839357e6 117371.98491424369 0.0
0.0 0.0 0.0

-1.2702919890257316e7 5.147106712362121e6 0.0
5.147106712362121e6 2.1531758632283397e7 0.0
0.0 0.0 0.0

-173841.49323038943 1.3480418358341651e7 0.0
1.3480418358341651e7 -9.514363151893739e6 0.0
0.0 0.0 0.0

1.838148498528121e6 1.1757299456866898e7 0.0
1.1757299456866898e7 -2.7634413103221726e7 0.0
0.0 0.0 0.0

-1.1228816505906675e6 5.504494774073e6 0.0
5.504494774073e6 -218619.7761859552 0.0
0.0 0.0 0.0

-9.059364761812424e6 -153422.11374146203 0.0
-153422.11374146203 1.0731489616623128e7 0.0
0.0 0.0 0.0

-6.088456888305081e6 1.1845564344361484e7 0.0
1.1845564344361484e7 4.179095653270115e6 0.0
0.0 0.0 0.0

-3.0954368772696853e6 1.734169819855017e7 0.0
1.734169819855017e7 -1.3749429689325197e6 0.0
0.0 0.0 0.0

-82486.45665450767 1.1963309751067994e7 0.0
1.1963309751067994e7 -1.916268534128931e7 0.0
0.0 0.0 0.0

3.422697976947094e6 6.977737908740412e6 0.0
6.977737908740412e6 -1.0363038051001716e7 0.0
0.0 0.0 0.0

-5.04444869040045e6 1.897242496662964e7 0.0
1.897242496662964e7 4.6855352977591045e6 0.0
0.0 0.0 0.0

-2.470236870874439e6 1.712132241832656e7 0.0
1.712132241832656e7 -2.715842648394634e6 0.0
0.0 0.0 0.0

-1.1942778897096595e7 2.3639552479516175e7 0.0
2.3639552479516175e7 7.19699744793337e6 0.0
0.0 0.0 0.0

-5.241570652372162e6 1.9178966790303566e7 0.0
1.9178966790303566e7 5.295821545770124e6 0.0
0.0 0.0 0.0

-1.4336028814723909e7 1.9064316355236936e7 0.0
1.9064316355236936e7 3.87893244098696e6 0.0
0.0 0.0 0.0

-1.3486362630592522e6 1.504278277928113e7 0.0
1.504278277928113e7 -990586.9152571207 0.0
0.0 0.0 0.0

1.396355019736316e6 1.1614484356576992e7 0.0
1.1614484356576992e7 -2.5777643568931505e7 0.0
0.0 0.0 0.0

-2.5564443910030765e6 1.0054679807422552e7 0.0
1.0054679807422552e7 -1.6127709165937244e6 0.0
0.0 0.0 0.0

-1.2037288261554401e7 -2.4776736269396804e6 0.0
-2.4776736269396804e6 2.525863552152904e7 0.0
0.0 0.0 0.0

-1.2323303135876324e7 1.9253378922587542e6 0.0
1.9253378922587542e6 3.0287934457369477e7 0.0
0.0 0.0 0.0

4.68893432473245e6 6.48468541759035e6 0.0
6.48468541759035e6 -1.9746337958835207e7 0.0
0.0 0.0 0.0

-5.395065967597406e6 1.6810036055304807e7 0.0
1.6810036055304807e7 6.68164808477942e6 0.0
0.0 0.0 0.0

-1.054989162661004e7 9.265934471704632e6 0.0
9.265934471704632e6 2.8610531894457325e7 0.0
0.0 0.0 0.0

245039.33019725233 1.287473572315269e7 0.0
1.287473572315269e7 -1.0882364348072886e7 0.0
0.0 0.0 0.0

-9.427983954203261e6 1.130772713135132e7 0.0
1.130772713135132e7 2.525186733161428e7 0.0
0.0 0.0 0.0

-3.421903402122411e6 1.7011780443359815e7 0.0
1.7011780443359815e7 -2.3660199816758e6 0.0
0.0 0.0 0.0

-3.9424390512725185e6 2.0089521511717733e7 0.0
2.0089521511717733e7 -5291.16029203427 0.0
0.0 0.0 0.0

-91171.47933205857 1.366497017057946e7 0.0
1.366497017057946e7 -2.5735789161983244e6 0.0
0.0 0.0 0.0

-9.067559191563724e6 1.546924745179776e6 0.0
1.546924745179776e6 1.1497213776640004e7 0.0
0.0 0.0 0.0

-1.8312630992331803e6 1.377923993101318e7 0.0
1.377923993101318e7 5.192729392236017e6 0.0
0.0 0.0 0.0

-5.093735325215376e6 1.1551187101232313e7 0.0
1.1551187101232313e7 4.610122827091014e6 0.0
0.0 0.0 0.0

4.941709606373746e6 5.54332243938757e6 0.0
5.54332243938757e6 -1.8085665395140387e7 0.0
0.0 0.0 0.0

1.1488263791734697e6 1.4732055253534758e7 0.0
1.4732055253534758e7 -5.587607832393832e6 0.0
0.0 0.0 0.0

-1.1810856749700468e7 1.1266349073209133e7 0.0
1.1266349073209133e7 9.17801159209074e6 0.0
0.0 0.0 0.0

-1.0242302736767333e7 1.579896380854135e7 0.0
1.579896380854135e7 -984124.02252685 0.0
0.0 0.0 0.0

-5.184956512055691e6 1.9063893789125428e7 0.0
1.9063893789125428e7 3.6127315728442734e6 0.0
0.0 0.0 0.0

568066.5398705951 9.87909979376573e6 0.0
9.87909979376573e6 -7.818148369766383e6 0.0
0.0 0.0 0.0

-2.387341503839063e6 1.4852883056088816e7 0.0
1.4852883056088816e7 -645281.6786939121 0.0
0.0 0.0 0.0

-4.046345450478906e6 2.004514401919606e7 0.0
2.004514401919606e7 1.9821512132302762e6 0.0
0.0 0.0 0.0

-5.413526387771482e6 1.3999461853838943e7 0.0
1.3999461853838943e7 1.015023693181816e7 0.0
0.0 0.0 0.0

-2.535669353695249e6 1.3938675580232779e7 0.0
1.3938675580232779e7 4.492186932263693e6 0.0
0.0 0.0 0.0

1.2844641405640831e6 9.64770845021574e6 0.0
9.64770845021574e6 -7.462997567920373e6 0.0
0.0 0.0 0.0

-5.520737372031427e6 2.107464756254185e7 0.0
2.107464756254185e7 5.037529654831774e6 0.0
0.0 0.0 0.0

-1.0878632243473507e7 -3.3036883633855633e6 0.0
-3.3036883633855633e6 1.7291750626310155e7 0.0
0.0 0.0 0.0

4.74526997678642e6 6.151751437446501e6 0.0
6.151751437446501e6 -1.4847882175711956e7 0.0
0.0 0.0 0.0

-4.024337464920457e6 1.8451859147017676e7 0.0
1.8451859147017676e7 1.4427759796034358e6 0.0
0.0 0.0 0.0

725477.3893898898 1.2519276939273128e7 0.0
1.2519276939273128e7 -1.2452640372687526e7 0.0
0.0 0.0 0.0

-150907.9775070977 3.460841187122363e6 0.0
3.460841187122363e6 -883377.4554439423 0.0
0.0 0.0 0.0

1.1447005401227567e6 7.870179359975822e6 0.0
7.870179359975822e6 -7.763365511275298e6 0.0
0.0 0.0 0.0

-5.893659437242788e6 1.762859638041297e7 0.0
1.762859638041297e7 2.1278470231454084e6 0.0
0.0 0.0 0.0

3.1139392117705615e6 9.301881675549762e6 0.0
9.301881675549762e6 -1.3926678655676333e7 0.0
0.0 0.0 0.0

1.4097330982145057e6 1.5265819782736635e7 0.0
1.5265819782736635e7 7.194141138502919e6 0.0
0.0 0.0 0.0

-1.5617781403284695e6 6.86840211597762e6 0.0
6.86840211597762e6 -1.9825346684852706e6 0.0
0.0 0.0 0.0

-1.4512629679184298e6 4.89010674479094e6 0.0
4.89010674479094e6 -1.1063970082253758e6 0.0
0.0 0.0 0.0

-536108.2732302818 1.9266257051529787e7 0.0
1.9266257051529787e7 -3.2163875905743977e6 0.0
0.0 0.0 0.0

-1.0127786251883376e7 -2.2723279694360755e6 0.0
-2.2723279694360755e6 1.7358270042544987e7 0.0
0.0 0.0 0.0

644271.5097718094 1.1758391592537777e7 0.0
1.1758391592537777e7 -8.263323353015796e6 0.0
0.0 0.0 0.0

791931.986416635 1.1437342051958306e7 0.0
1.1437342051958306e7 -42985.14812778169 0.0
0.0 0.0 0.0

4.033296722817002e6 1.6732190412148327e7 0.0
1.6732190412148327e7 -6.133112526324543e6 0.0
0.0 0.0 0.0

823150.0603018599 1.2411186229611892e7 0.0
1.2411186229611892e7 -1.045867207672252e7 0.0
0.0 0.0 0.0

2.507407614390542e6 1.4192368845335094e7 0.0
1.4192368845335094e7 1.0034640047982141e7 0.0
0.0 0.0 0.0

-7.099725945336783e6 1.8634043235755533e7 0.0
1.8634043235755533e7 6.582318695360919e6 0.0
0.0 0.0 0.0

-1.020708482251991e7 -2.8071134222476585e6 0.0
-2.8071134222476585e6 2.320898835288312e7 0.0
0.0 0.0 0.0

-3.8093891714131786e6 1.8500657201373536e7 0.0
1.8500657201373536e7 1.0270513729832154e6 0.0
0.0 0.0 0.0

-2.950456695303416e6 1.462352139153191e7 0.0
1.462352139153191e7 8.439767971641969e6 0.0
0.0 0.0 0.0

2.289554836403946e6 8.962965330602057e6 0.0
8.962965330602057e6 -1.175495177897686e7 0.0
0.0 0.0 0.0

5.543736440225828e6 5.516362868565338e6 0.0
5.516362868565338e6 -1.975460107865339e7 0.0
0.0 0.0 0.0

-3.8311660603534775e6 1.5348686935693054e7 0.0
1.5348686935693054e7 -556137.5850365221 0.0
0.0 0.0 0.0

-5.535140198801652e6 7.915129929090755e6 0.0
7.915129929090755e6 5.985512387847906e6 0.0
0.0 0.0 0.0

-1.1705925909355678e7 1.055075348391755e7 0.0
1.055075348391755e7 1.7488314822374247e7 0.0
0.0 0.0 0.0

1.0685492964985417e6 1.2036618686793536e7 0.0
1.2036618686793536e7 -1.4069512656832483e7 0.0
0.0 0.0 0.0

1.5796449582623495e6 1.1176710503449304e7 0.0
1.1176710503449304e7 -2.445577396754643e7 0.0
0.0 0.0 0.0

-3.8057004666796844e6 1.8880041405829184e7 0.0
1.8880041405829184e7 1.1312596639628226e6 0.0
0.0 0.0 0.0

-1.7077787931319212e6 1.384148498687993e7 0.0
1.384148498687993e7 3.10866146116494e6 0.0
0.0 0.0 0.0

-2.5792776195511e7 6.552738613778526e6 0.0
6.552738613778526e6 1.11036503988148e7 0.0
0.0 0.0 0.0

2.8372561384130237e6 1.4549982234046686e7 0.0
1.4549982234046686e7 1.2034801103937434e7 0.0
0.0 0.0 0.0

-2.2818916532768473e7 1.6486752736753723e7 0.0
1.6486752736753723e7 9.936902389635317e6 0.0
0.0 0.0 0.0

3.2058357932596207e6 8.886921442296512e6 0.0
8.886921442296512e6 -1.6550792520130942e7 0.0
0.0 0.0 0.0

4.605964299582722e6 4.7821776433629105e6 0.0
4.7821776433629105e6 -601508.2348353022 0.0
0.0 0.0 0.0

-8.816467931467399e6 -2.9108480046410654e6 0.0
-2.9108480046410654e6 6.035708059204439e6 0.0
0.0 0.0 0.0

-4.283447669813713e6 7.210260893820985e6 0.0
7.210260893820985e6 4.210601013359548e6 0.0
0.0 0.0 0.0

-1.0809676608852547e7 -1.225302290722766e6 0.0
-1.225302290722766e6 2.188775223047602e7 0.0
0.0 0.0 0.0

-1.157258221659551e7 -822272.0992689133 0.0
-822272.0992689133 1.7270673880236886e7 0.0
0.0 0.0 0.0

471826.515358699 1.3276036320636801e7 0.0
1.3276036320636801e7 -1.0395871803017102e7 0.0
0.0 0.0 0.0

-1.8264282649618434e6 9.729890227953473e6 0.0
9.729890227953473e6 -6.0880944790428765e6 0.0
0.0 0.0 0.0

473020.9615326409 1.21269687900399e7 0.0
1.21269687900399e7 1.5767366416685919e6 0.0
0.0 0.0 0.0

1.1807886818351094e6 1.1395486853807975e7 0.0
1.1395486853807975e7 -2.07956311557454e6 0.0
0.0 0.0 0.0

-3.7745665448064767e6 1.9235923045985725e7 0.0
1.9235923045985725e7 1.2611724728412873e6 0.0
0.0 0.0 0.0

-7.226048165560769e6 6.35821370746036e6 0.0
6.35821370746036e6 1.0153005078704057e7 0.0
0.0 0.0 0.0

-74042.03349294607 1.2809866561112374e7 0.0
1.2809866561112374e7 -9.837858495448839e6 0.0
0.0 0.0 0.0

-5.5353486138469465e6 1.678674131828634e7 0.0
1.678674131828634e7 3.643670709579111e6 0.0
0.0 0.0 0.0

3.949356116923772e6 7.7838561628040355e6 0.0
7.7838561628040355e6 -1.877939880546521e7 0.0
0.0 0.0 0.0

-1.043167196075565e7 -1.7095571081898208e6 0.0
-1.7095571081898208e6 1.9007609204910584e7 0.0
0.0 0.0 0.0

-3.530278102858167e6 1.8128067897813708e7 0.0
1.8128067897813708e7 219826.54696910386 0.0
0.0 0.0 0.0

-1.464903970961236e6 1.383660252129677e7 0.0
1.383660252129677e7 1.960526118650964e6 0.0
0.0 0.0 0.0

-1.2168719668844482e6 1.3995640519777395e7 0.0
1.3995640519777395e7 872889.7551877499 0.0
0.0 0.0 0.0

-3.806896520874952e6 1.678930799596126e7 0.0
1.678930799596126e7 -3.084724121377633e6 0.0
0.0 0.0 0.0

1.618890610931306e6 1.268683009873581e7 0.0
1.268683009873581e7 6.153839834242197e6 0.0
0.0 0.0 0.0

-2.3492382272146796e6 1.5959680993786128e7 0.0
1.5959680993786128e7 -2.7298688530978146e6 0.0
0.0 0.0 0.0

-1.182617757590704e7 9.273752944003833e6 0.0
9.273752944003833e6 2.0923500301745586e7 0.0
0.0 0.0 0.0

-1.1626602144684099e7 -3.021213442790205e6 0.0
-3.021213442790205e6 2.2634132657265387e7 0.0
0.0 0.0 0.0

2.828419249952856e6 8.714810551027883e6 0.0
8.714810551027883e6 -1.1356607814191565e7 0.0
0.0 0.0 0.0

4.9021455020342525e6 6.033172227487119e6 0.0
6.033172227487119e6 -2.0424633956591826e7 0.0
0.0 0.0 0.0

224213.6350283618 1.3044070000536399e7 0.0
1.3044070000536399e7 -9.009297528192999e6 0.0
0.0 0.0 0.0

1.2162760255419675e6 1.4159078540997623e7 0.0
1.4159078540997623e7 4.416032035962295e6 0.0
0.0 0.0 0.0

3.2276965956336274e6 6.584823069564277e6 0.0
6.584823069564277e6 -1.0996824003241261e7 0.0
0.0 0.0 0.0

-2.301473159937633e6 1.2396610759692153e7 0.0
1.2396610759692153e7 -1.5167195385556096e7 0.0
0.0 0.0 0.0

1.754938602868801e6 1.0873139333740294e7 0.0
1.0873139333740294e7 -2.313226014550891e7 0.0
0.0 0.0 0.0

-4.939057882337347e6 1.1094849935515752e7 0.0
1.1094849935515752e7 2.0298885813656955e6 0.0
0.0 0.0 0.0

-5.918457271300709e6 1.6966738285100024e7 0.0
1.6966738285100024e7 6.506420187908217e6 0.0
0.0 0.0 0.0

-3.4114471336004427e6 1.654672680740623e7 0.0
1.654672680740623e7 -2.2776638446239475e6 0.0
0.0 0.0 0.0

-1.1238371910894902e7 -1.0853962607586093e6 0.0
-1.0853962607586093e6 3.0287914397107378e7 0.0
0.0 0.0 0.0

1.9624529583646515e6 1.0686084312941296e7 0.0
1.0686084312941296e7 -2.2002330013355225e7 0.0
0.0 0.0 0.0

-1.1794968074007541e7 8.826902415178679e6 0.0
8.826902415178679e6 2.2616339232529126e7 0.0
0.0 0.0 0.0

-1.0427477469853294e6 1.4153557392317535e7 0.0
1.4153557392317535e7 -155239.7003449525 0.0
0.0 0.0 0.0

-4.289102922236705e6 1.9020423032703586e7 0.0
1.9020423032703586e7 923982.2288445486 0.0
0.0 0.0 0.0

-9.884343766841091e6 1.7907034314783618e7 0.0
1.7907034314783618e7 6.228212069543134e6 0.0
0.0 0.0 0.0

-1.2053608483844437e7 9.471926400017874e6 0.0
9.471926400017874e6 1.7698138846059144e7 0.0
0.0 0.0 0.0

-1.8654770232726564e6 1.0379253904916354e7 0.0
1.0379253904916354e7 -9.509845647855882e6 0.0
0.0 0.0 0.0

875225.2851355318 1.29739485602473e7 0.0
1.29739485602473e7 3.9971603752087555e6 0.0
0.0 0.0 0.0

4.415636404022349e6 6.825630840907573e6 0.0
6.825630840907573e6 -1.912227612649507e7 0.0
0.0 0.0 0.0

1.62254266416275e6 7.505062230950859e6 0.0
7.505062230950859e6 -8.40717288915598e6 0.0
0.0 0.0 0.0

-1.1882906957896054e7 6.322700740455223e6 0.0
6.322700740455223e6 2.296960497132683e7 0.0
0.0 0.0 0.0

-4.439904750510609e6 1.4850524030953225e7 0.0
1.4850524030953225e7 6.339957804362964e6 0.0
0.0 0.0 0.0

-1.821549632211919e7 1.565143541413911e7 0.0
1.565143541413911e7 6.126894143013655e6 0.0
0.0 0.0 0.0

1.4832542823022082e6 1.1301105049273603e7 0.0
1.1301105049273603e7 -1.5188482518273316e7 0.0
0.0 0.0 0.0

3.4670183980237246e6 8.609699790524222e6 0.0
8.609699790524222e6 -1.832597329410598e7 0.0
0.0 0.0 0.0

2.1208721977216555e6 1.058462575609229e7 0.0
1.058462575609229e7 -2.094785860564096e7 0.0
0.0 0.0 0.0

2.726919228875938e6 5.2121800828354275e6 0.0
5.2121800828354275e6 -7.735139020746947e6 0.0
0.0 0.0 0.0

-1.090870666186126e6 1.4154727106853021e7 0.0
1.4154727106853021e7 -5.921499271608382e6 0.0
0.0 0.0 0.0

-375102.8268955562 1.5097723846700268e7 0.0
1.5097723846700268e7 -6.592124669059344e6 0.0
0.0 0.0 0.0

-1.6427874149362184e7 2.1435454645710573e7 0.0
2.1435454645710573e7 1.072747335469183e7 0.0
0.0 0.0 0.0

1.8198184318059697e6 5.241752176575945e6 0.0
5.241752176575945e6 -5.535037398057219e6 0.0
0.0 0.0 0.0

698169.8721995321 1.2749396110278625e7 0.0
1.2749396110278625e7 -1.1753508644552967e7 0.0
0.0 0.0 0.0

-1.0746423099357741e7 1.1611380750153273e7 0.0
1.1611380750153273e7 1.5044702884096632e7 0.0
0.0 0.0 0.0

-1.0091820224775195e7 -532930.2773885787 0.0
-532930.2773885787 1.5118442872746807e7 0.0
0.0 0.0 0.0

4.717833895304245e6 5.8936031084121065e6 0.0
5.8936031084121065e6 -1.7500846409342505e7 0.0
0.0 0.0 0.0

-1.0680891609849356e7 1.1127313828305956e6 0.0
1.1127313828305956e6 1.5587566498987067e7 0.0
0.0 0.0 0.0

-1.10499080255992e7 701234.4915862582 0.0
701234.4915862582 1.900658215922238e7 0.0
0.0 0.0 0.0

-5.438297882844473e6 7.098630360481481e6 0.0
7.098630360481481e6 6.586391226824047e6 0.0
0.0 0.0 0.0

-5.262858334052296e6 1.581912125849588e7 0.0
1.581912125849588e7 7.361236773169482e6 0.0
0.0 0.0 0.0

-1.2909646682931748e6 9.116519310295071e6 0.0
9.116519310295071e6 -1.6438623459369363e6 0.0
0.0 0.0 0.0

1.1011693427489715e7 5.712750547543551e6 0.0
5.712750547543551e6 -2.939156884779036e6 0.0
0.0 0.0 0.0

-2.14869954088561e7 -2.10269924767881e6 0.0
-2.10269924767881e6 9.144549718495322e6 0.0
0.0 0.0 0.0

2.821029721097893e6 7.275201535693144e6 0.0
7.275201535693144e6 -8.913563412638009e6 0.0
0.0 0.0 0.0

4.080381997085709e6 8.279219329968042e6 0.0
8.279219329968042e6 -1.7824906525031894e7 0.0
0.0 0.0 0.0

4.57700578236679e6 7.348968873335363e6 0.0
7.348968873335363e6 -1.81218292706566e7 0.0
0.0 0.0 0.0

789807.5348355803 1.4260423990261983e6 0.0
1.4260423990261983e6 549678.0231828715 0.0
0.0 0.0 0.0

-995763.2376276094 -487616.49568309926 0.0
-487616.49568309926 1.5595712401463422e6 0.0
0.0 0.0 0.0

-916061.863540431 1.2232401615887448e7 0.0
1.2232401615887448e7 -1.4683042235497868e7 0.0
0.0 0.0 0.0

4.8252466458663875e6 6.032232544339386e6 0.0
6.032232544339386e6 -1.9379293859992925e7 0.0
0.0 0.0 0.0

-1.2128409564867007e7 1.7403817492004447e7 0.0
1.7403817492004447e7 -622030.8563756314 0.0
0.0 0.0 0.0

-7.648659105310948e6 1.3945344606684983e7 0.0
1.3945344606684983e7 9.708766093747072e6 0.0
0.0 0.0 0.0

-3.322281377770368e6 1.772408781094836e7 0.0
1.772408781094836e7 -582014.2081656869 0.0
0.0 0.0 0.0

1.2303407749230778e6 1.2601833616109539e7 0.0
1.2601833616109539e7 5.242638932734097e6 0.0
0.0 0.0 0.0

4.272176136474711e6 9.0427933639998e6 0.0
9.0427933639998e6 2.074643247881439e6 0.0
0.0 0.0 0.0

-7.654379252667593e6 1.8661677029145498e7 0.0
1.8661677029145498e7 34820.45491568744 0.0
0.0 0.0 0.0

-1.156506758611361e7 1.2835631366126884e6 0.0
1.2835631366126884e6 2.5803844901761062e7 0.0
0.0 0.0 0.0

-5.529614930686078e6 1.6405530280029608e7 0.0
1.6405530280029608e7 6.204236469785472e6 0.0
0.0 0.0 0.0

-13982.26059312676 1.5072497599550195e7 0.0
1.5072497599550195e7 -6.341930543985385e6 0.0
0.0 0.0 0.0

-1.0063273570366722e7 1.1924450005736029e7 0.0
1.1924450005736029e7 1.443200580619314e7 0.0
0.0 0.0 0.0

-8.477332965506004e6 -2.2023724177865395e6 0.0
-2.2023724177865395e6 1.2286025068499584e7 0.0
0.0 0.0 0.0

-4.306263954500145e6 1.826396483834697e7 0.0
1.826396483834697e7 650539.0472661017 0.0
0.0 0.0 0.0

3.4608486305269273e6 8.521851025205417e6 0.0
8.521851025205417e6 -1.7334621929899722e7 0.0
0.0 0.0 0.0

-2.294582499096172e6 1.741347443509222e7 0.0
1.741347443509222e7 -2.771111676305574e6 0.0
0.0 0.0 0.0

5.030031279372631e6 6.492525611144455e6 0.0
6.492525611144455e6 -1.8592245785217278e7 0.0
0.0 0.0 0.0

921707.306229712 1.3718554705980463e7 0.0
1.3718554705980463e7 6.476056491717774e6 0.0
0.0 0.0 0.0

-2.0364809635942513e6 1.4450234804352364e7 0.0
1.4450234804352364e7 -4.824039808405579e6 0.0
0.0 0.0 0.0

-5.641766200105791e6 3.1093806013653986e6 0.0
3.1093806013653986e6 5.251937174868993e6 0.0
0.0 0.0 0.0

-417417.42409515264 1.0015944753091594e7 0.0
1.0015944753091594e7 -6.3478007614409905e6 0.0
0.0 0.0 0.0

5.395345895372933e6 5.574670270591644e6 0.0
5.574670270591644e6 -1.867744745318891e7 0.0
0.0 0.0 0.0

2.216952901494544e6 1.778485422344724e7 0.0
1.778485422344724e7 -5.663706776161389e6 0.0
0.0 0.0 0.0

2.8871947770413538e6 6.869223016762801e6 0.0
6.869223016762801e6 -1.0421070046997009e7 0.0
0.0 0.0 0.0

-9.636089135718994e6 3.2721939340789425e6 0.0
3.2721939340789425e6 1.0875473472937148e7 0.0
0.0 0.0 0.0

-5.537205679996645e6 1.8503415156455528e7 0.0
1.8503415156455528e7 4.587295283682944e6 0.0
0.0 0.0 0.0

2.0772930423366362e6 1.0483689264428552e7 0.0
1.0483689264428552e7 -1.9876749014367323e7 0.0
0.0 0.0 0.0

-2.7421324864779096e6 1.0535958223185051e7 0.0
1.0535958223185051e7 -9.140441758414166e6 0.0
0.0 0.0 0.0

1.0215422951235726e6 1.2443836779153783e7 0.0
1.2443836779153783e7 3.4051411254663677e6 0.0
0.0 0.0 0.0

-1.808912138565111e6 9.354057380439088e6 0.0
9.354057380439088e6 -808721.7704668234 0.0
0.0 0.0 0.0

-5.585965874765797e6 1.0056779822018664e7 0.0
1.0056779822018664e7 3.289468555277161e6 0.0
0.0 0.0 0.0

-898038.6775920372 1.420979663760798e7 0.0
1.420979663760798e7 6.670764926772226e6 0.0
0.0 0.0 0.0

-7.882920664505949e6 -574283.89610212 0.0
-574283.89610212 1.138932844812975e7 0.0
0.0 0.0 0.0

389859.7311862345 1.268745727737376e7 0.0
1.268745727737376e7 1.5516548196440586e6 0.0
0.0 0.0 0.0

-6.526200017247485e6 1.5610343879217872e7 0.0
1.5610343879217872e7 8.2635637149132155e6 0.0
0.0 0.0 0.0

2.496369957058504e6 6.869104768248856e6 0.0
6.869104768248856e6 -9.552786410467416e6 0.0
0.0 0.0 0.0

-1.1196166272137702e7 34418.67805735252 0.0
34418.67805735252 1.4142052868144926e7 0.0
0.0 0.0 0.0

-1.7359803304030849e6 1.550202421041879e7 0.0
1.550202421041879e7 -2.7347697293667034e6 0.0
0.0 0.0 0.0

-1.0380473323639575e7 1.2031981028734831e7 0.0
1.2031981028734831e7 1.3371628529797103e7 0.0
0.0 0.0 0.0

-2.2256246154865995e6 1.426100975468763e7 0.0
1.426100975468763e7 6.576177050250811e6 0.0
0.0 0.0 0.0

-1.1113129861339726e7 2.786264937198596e6 0.0
2.786264937198596e6 1.5819881671221592e7 0.0
0.0 0.0 0.0

-884197.5468058423 1.4940971768678991e7 0.0
1.4940971768678991e7 -6.771625903731583e6 0.0
0.0 0.0 0.0

-6.192849001978049e6 1.8400643676358756e7 0.0
1.8400643676358756e7 6.555792325752008e6 0.0
0.0 0.0 0.0

-1.1854575152130961e7 4.697336873488594e6 0.0
4.697336873488594e6 2.2703300996480796e7 0.0
0.0 0.0 0.0

-6.479111872484735e6 8.3111862626803545e6 0.0
8.3111862626803545e6 5.351579163693398e6 0.0
0.0 0.0 0.0

-1.158823939853487e7 -1.6504034195982835e6 0.0
-1.6504034195982835e6 2.095878039711657e7 0.0
0.0 0.0 0.0

261211.4814733239 1.2500083660939328e7 0.0
1.2500083660939328e7 -1.0600911202055415e7 0.0
0.0 0.0 0.0

-5.704320094112726e6 1.665760647279551e7 0.0
1.665760647279551e7 6.860663372262774e6 0.0
0.0 0.0 0.0

-948838.578360363 1.436800578055068e7 0.0
1.436800578055068e7 -1.0436015519557276e6 0.0
0.0 0.0 0.0

3.353628103592046e6 7.527379737238676e6 0.0
7.527379737238676e6 -1.096852854864375e7 0.0
0.0 0.0 0.0

-8.57942944653818e6 -3.475142042858357e6 0.0
-3.475142042858357e6 1.579095864963733e7 0.0
0.0 0.0 0.0

-1.0001940183169287e7 1.1467770671083221e7 0.0
1.1467770671083221e7 2.2996370675270192e7 0.0
0.0 0.0 0.0

-1.151610708020137e7 7.610324011640743e6 0.0
7.610324011640743e6 2.443080434747488e7 0.0
0.0 0.0 0.0

-2.2159201685537505e6 1.2149237674005741e7 0.0
1.2149237674005741e7 5.75737872010957e6 0.0
0.0 0.0 0.0

-1.1698441768255055e7 1.7527741460529813e6 0.0
1.7527741460529813e6 1.442550001970756e7 0.0
0.0 0.0 0.0

-4.376615909604699e6 9.81114828073404e6 0.0
9.81114828073404e6 3.533768159113831e6 0.0
0.0 0.0 0.0

-1.8624119905641563e6 1.3742583934482846e7 0.0
1.3742583934482846e7 -3.0144374289666433e6 0.0
0.0 0.0 0.0

357288.8379639522 1.1425833507072126e7 0.0
1.1425833507072126e7 -8.791111743870422e6 0.0
0.0 0.0 0.0

-5.35725165230995e6 1.5485445431063872e7 0.0
1.5485445431063872e7 8.099814910090622e6 0.0
0.0 0.0 0.0

-5.948087992846746e6 2.027203447418392e7 0.0
2.027203447418392e7 6.089076237164387e6 0.0
0.0 0.0 0.0

-1.2702668372091845e7 7.091704361264494e6 0.0
7.091704361264494e6 1.8110229530839536e7 0.0
0.0 0.0 0.0

2.394579366743775e6 1.2669641473017206e7 0.0
1.2669641473017206e7 8.665944849606093e6 0.0
0.0 0.0 0.0

862607.5118159037 1.2847287667058293e7 0.0
1.2847287667058293e7 -7.400780511170134e6 0.0
0.0 0.0 0.0

3.22077198801523e6 8.9792653778388e6 0.0
8.9792653778388e6 -1.367674777297642e7 0.0
0.0 0.0 0.0

5.529532789518116e6 4.655410873012873e6 0.0
4.655410873012873e6 -1.9745952682011902e7 0.0
0.0 0.0 0.0

-9.661547665464379e6 -5.010082573011066e6 0.0
-5.010082573011066e6 1.853191210804533e7 0.0
0.0 0.0 0.0

-5.133287129619526e6 1.5466544345844144e7 0.0
1.5466544345844144e7 7.572253054500332e6 0.0
0.0 0.0 0.0

-7.834946879530037e6 1.1223562025143113e7 0.0
1.1223562025143113e7 1.3963881617890986e7 0.0
0.0 0.0 0.0

-7.217614204085592e6 1.2758862344114985e7 0.0
1.2758862344114985e7 3.613870012686741e7 0.0
0.0 0.0 0.0

316848.2302945242 1.0947355495373122e7 0.0
1.0947355495373122e7 -8.190149887190826e6 0.0
0.0 0.0 0.0

1.7238549510771753e6 1.2916490330247927e7 0.0
1.2916490330247927e7 5.746183476042741e6 0.0
0.0 0.0 0.0

-9.294098282130986e6 -2.2284512877580835e6 0.0
-2.2284512877580835e6 1.252014376736582e7 0.0
0.0 0.0 0.0

-1.7169216285252288e7 -2.3604111930173314e6 0.0
-2.3604111930173314e6 7.952211576605362e6 0.0
0.0 0.0 0.0

3.508080102303353e6 8.153517858833716e6 0.0
8.153517858833716e6 -1.5941727341768567e7 0.0
0.0 0.0 0.0

-1.0021753278380163e7 1.1024669252819798e6 0.0
1.1024669252819798e6 1.1403875618616613e7 0.0
0.0 0.0 0.0

3.240973046417174e6 8.935756387370585e6 0.0
8.935756387370585e6 -1.7546726651802257e7 0.0
0.0 0.0 0.0

-1.111558807624531e7 1.1276213854599595e7 0.0
1.1276213854599595e7 1.7852392452378757e7 0.0
0.0 0.0 0.0

4.851386575513385e6 5.23220789591207e6 0.0
5.23220789591207e6 -1.3785883531631632e7 0.0
0.0 0.0 0.0

485611.606797762 1.843994147557592e7 0.0
1.843994147557592e7 -4.824165342569344e6 0.0
0.0 0.0 0.0

-1.619181970084637e6 1.026673008025516e7 0.0
1.026673008025516e7 -1.7279968727783377e6 0.0
0.0 0.0 0.0

1.2885676937959604e6 6.113827271148918e6 0.0
6.113827271148918e6 -4.637388591322788e6 0.0
0.0 0.0 0.0

1.5438847559237331e7 5.751600249896515e6 0.0
5.751600249896515e6 -3.4678430287762284e6 0.0
0.0 0.0 0.0

-1.0153724438776964e7 1.2053070907430151e7 0.0
1.2053070907430151e7 1.65340967591709e7 0.0
0.0 0.0 0.0

-214071.55935019464 8.258845065586454e6 0.0
8.258845065586454e6 -5.024250569687455e6 0.0
0.0 0.0 0.0

-1.1985801879980104e7 -154405.61572697642 0.0
-154405.61572697642 1.964343156520047e7 0.0
0.0 0.0 0.0

2.098184267008627e6 5.667902736536897e6 0.0
5.667902736536897e6 -7.475212541404458e6 0.0
0.0 0.0 0.0

-1.5726695970307617e6 1.5163408300008215e7 0.0
1.5163408300008215e7 -2.3183980591803747e6 0.0
0.0 0.0 0.0

-6.923408876629573e6 1.4200297941737724e7 0.0
1.4200297941737724e7 1.0104025744345192e7 0.0
0.0 0.0 0.0

-8.651979835943412e6 4.0522573890649043e6 0.0
4.0522573890649043e6 1.1958273333943354e7 0.0
0.0 0.0 0.0

3.891412412945656e6 7.411320994822138e6 0.0
7.411320994822138e6 -1.625550532688579e7 0.0
0.0 0.0 0.0

-1.0664624690672876e6 1.2239627647555374e7 0.0
1.2239627647555374e7 -1.7604171311525542e7 0.0
0.0 0.0 0.0

-2.0315459578039672e6 5.782553271312628e6 0.0
5.782553271312628e6 -631095.6577341399 0.0
0.0 0.0 0.0

4.368917769146763e6 5.383989318032574e6 0.0
5.383989318032574e6 -1.2989697822617905e7 0.0
0.0 0.0 0.0

-789557.0071723377 1.280403507433622e7 0.0
1.280403507433622e7 -7.3477880311144935e6 0.0
0.0 0.0 0.0

6.931172216462987e6 1.334741067586073e7 0.0
1.334741067586073e7 -1.336381221604906e6 0.0
0.0 0.0 0.0

5.398621212776225e6 6.016894386311987e6 0.0
6.016894386311987e6 -2.0132799117539443e7 0.0
0.0 0.0 0.0

-5.569414770552749e6 -837704.2989574724 0.0
-837704.2989574724 1.3053960529570591e6 0.0
0.0 0.0 0.0

-8.302114964187589e6 1.2400770732564459e7 0.0
1.2400770732564459e7 1.2452043601427125e7 0.0
0.0 0.0 0.0

-593546.4707135796 7.1412354534465745e6 0.0
7.1412354534465745e6 -1.9384773910113452e6 0.0
0.0 0.0 0.0

-1.0103425189078297e7 2.8648196926956554e6 0.0
2.8648196926956554e6 1.3570441816714749e7 0.0
0.0 0.0 0.0

5.37198310905501e6 6.270462201803333e6 0.0
6.270462201803333e6 -2.271425800966978e7 0.0
0.0 0.0 0.0

2.849871701875048e6 1.3161897049214339e7 0.0
1.3161897049214339e7 9.499572415814184e6 0.0
0.0 0.0 0.0

-212962.287494828 1.5335570505220324e7 0.0
1.5335570505220324e7 8.381072209320944e6 0.0
0.0 0.0 0.0

-1.472512402701098e6 1.197918806260573e7 0.0
1.197918806260573e7 -1.253940028706483e7 0.0
0.0 0.0 0.0

168153.10077129863 1.0218401083270902e7 0.0
1.0218401083270902e7 -7.160639742332035e6 0.0
0.0 0.0 0.0

-6.41817121738684e6 1.4763777856997399e7 0.0
1.4763777856997399e7 9.551455700545609e6 0.0
0.0 0.0 0.0

3.7876665473763705e6 1.3447776633203259e7 0.0
1.3447776633203259e7 -3.0191835054628276e6 0.0
0.0 0.0 0.0

3.0865219306144025e6 8.856558202769276e6 0.0
8.856558202769276e6 -1.5581427881160274e7 0.0
0.0 0.0 0.0

-4.338055269792147e6 1.9394974245128583e7 0.0
1.9394974245128583e7 1.0173882973827543e6 0.0
0.0 0.0 0.0

-819369.8031868159 1.0491021644773018e7 0.0
1.0491021644773018e7 1.1968068822502973e6 0.0
0.0 0.0 0.0

-4.2389966427183084e7 1.1299570027442318e6 0.0
1.1299570027442318e6 9.484843896220649e6 0.0
0.0 0.0 0.0

2.733660098654905e7 5.988684118937421e6 0.0
5.988684118937421e6 -3.74735320127088e6 0.0
0.0 0.0 0.0

-274236.0823432007 1.2990318607760824e7 0.0
1.2990318607760824e7 4.645465800006781e6 0.0
0.0 0.0 0.0

-7.208651217356168e6 3.71859749025853e6 0.0
3.71859749025853e6 2.0391254846950606e7 0.0
0.0 0.0 0.0

-1.5179289110681978e6 1.4123939242224626e7 0.0
1.4123939242224626e7 6.210324027517968e6 0.0
0.0 0.0 0.0

-2.7663778663097243e6 1.6795305934904184e7 0.0
1.6795305934904184e7 -3.726212399575221e6 0.0
0.0 0.0 0.0

1.747362223678625e6 1.4045213764623016e7 0.0
1.4045213764623016e7 5.8245415586429965e6 0.0
0.0 0.0 0.0

-7.771419508766253e6 3.9847779941147896e6 0.0
3.9847779941147896e6 1.0941133352214556e7 0.0
0.0 0.0 0.0

-6.311403146223586e6 1.4576309094541546e7 0.0
1.4576309094541546e7 7.092912164199466e6 0.0
0.0 0.0 0.0

-2.8043823697853453e7 2.1871417658209596e7 0.0
2.1871417658209596e7 3.4396386531210225e6 0.0
0.0 0.0 0.0

4.615187542501547e6 5.501094330129314e6 0.0
5.501094330129314e6 -1.5183006327431671e7 0.0
0.0 0.0 0.0

-948033.3193442728 1.4610220144986412e7 0.0
1.4610220144986412e7 -1.7769116699163371e6 0.0
0.0 0.0 0.0

2.6631789849554803e6 1.2624527398765894e7 0.0
1.2624527398765894e7 1.0458319524251636e7 0.0
0.0 0.0 0.0

-3.4673709075707407e6 1.1284626470919386e7 0.0
1.1284626470919386e7 -1.1557903127552656e7 0.0
0.0 0.0 0.0

1.4829206730363623e6 1.2761872753341306e7 0.0
1.2761872753341306e7 4.943069136785961e6 0.0
0.0 0.0 0.0

2.1930889363420047e6 1.057224418541964e7 0.0
1.057224418541964e7 -1.9088232194653545e7 0.0
0.0 0.0 0.0

-9.51085876316781e6 -1.0013859733049397e6 0.0
-1.0013859733049397e6 1.4011074095290644e7 0.0
0.0 0.0 0.0

-1.1646282876162525e7 1.8808853247373894e7 0.0
1.8808853247373894e7 8.65175390600387e6 0.0
0.0 0.0 0.0

2.8568605610106336e6 7.197876680639127e6 0.0
7.197876680639127e6 -1.070836899106347e7 0.0
0.0 0.0 0.0

-1.0007429246472515e7 1.2346496789747579e7 0.0
1.2346496789747579e7 1.5638950299558321e7 0.0
0.0 0.0 0.0

-7.988022240768686e6 3.0399725927676274e6 0.0
3.0399725927676274e6 8.242548590552386e6 0.0
0.0 0.0 0.0

-6.0292925912607685e6 1.996626774220114e7 0.0
1.996626774220114e7 6.260537372839112e6 0.0
0.0 0.0 0.0

-1.1147031128077365e7 2.1435753155453272e7 0.0
2.1435753155453272e7 8.742665849697625e6 0.0
0.0 0.0 0.0

-3.29374585914596e6 -2.170118487177424e6 0.0
-2.170118487177424e6 3.610760039752266e6 0.0
0.0 0.0 0.0

-1.1099195034545197e6 1.0690692362292347e7 0.0
1.0690692362292347e7 -7.544832505106155e6 0.0
0.0 0.0 0.0

-2.2198399176783888e6 1.635999056570209e7 0.0
1.635999056570209e7 -3.639129813830185e6 0.0
0.0 0.0 0.0

-2.0924128464726517e6 4.331050231008502e6 0.0
4.331050231008502e6 41269.10780603532 0.0
0.0 0.0 0.0

-847115.3524458425 1.87485286768713e7 0.0
1.87485286768713e7 -4.055087267657195e6 0.0
0.0 0.0 0.0

-8.863663823177425e6 3.200931047551066e6 0.0
3.200931047551066e6 9.788984003007144e6 0.0
0.0 0.0 0.0

4.814243337096887e6 5.574314221195114e6 0.0
5.574314221195114e6 -1.720256831796929e7 0.0
0.0 0.0 0.0

4.464314054893291e6 6.054767627113945e6 0.0
6.054767627113945e6 -1.5817709040532261e7 0.0
0.0 0.0 0.0

1.0118228738928847e6 1.0100998786731072e7 0.0
1.0100998786731072e7 -9.108845606762975e6 0.0
0.0 0.0 0.0

-1.081024960397048e6 1.4910717387206053e7 0.0
1.4910717387206053e7 -6.877431536562664e6 0.0
0.0 0.0 0.0

5.545212109483131e6 5.9074011028998e6 0.0
5.9074011028998e6 -2.3690598130474668e7 0.0
0.0 0.0 0.0

-4.069396421757101e6 1.628523686899647e7 0.0
1.628523686899647e7 -3.071350993538713e6 0.0
0.0 0.0 0.0

1.261100475980796e6 1.137108801731928e7 0.0
1.137108801731928e7 -1.2671087410630826e7 0.0
0.0 0.0 0.0

-1.1500899252539886e7 1.0793413758929823e7 0.0
1.0793413758929823e7 1.423812167047077e7 0.0
0.0 0.0 0.0

-2.518299055214e6 1.6235147319493562e7 0.0
1.6235147319493562e7 -2.5206556880095294e6 0.0
0.0 0.0 0.0

3.683473610971207e6 8.600754598492399e6 0.0
8.600754598492399e6 -1.518106338971188e7 0.0
0.0 0.0 0.0

-2.188559489215344e7 1.2482981599042641e7 0.0
1.2482981599042641e7 1.068355424693321e7 0.0
0.0 0.0 0.0

5.01529100874651e6 5.169644048286104e6 0.0
5.169644048286104e6 -1.7755462027282897e7 0.0
0.0 0.0 0.0

4.892787138788608e6 6.053798683721277e6 0.0
6.053798683721277e6 -1.5682394482387831e7 0.0
0.0 0.0 0.0

-522445.52849049354 1.3794863398149649e7 0.0
1.3794863398149649e7 -7.892468459591456e6 0.0
0.0 0.0 0.0

-1.2094425228196857e7 -2.144735789687272e6 0.0
-2.144735789687272e6 4.968794909360052e6 0.0
0.0 0.0 0.0

1.5358970166974575e6 8.354050357098913e6 0.0
8.354050357098913e6 -7.010618492446496e6 0.0
0.0 0.0 0.0

-6.431486936610829e6 1.2218748194371222e7 0.0
1.2218748194371222e7 1.6524957906630825e7 0.0
0.0 0.0 0.0

-5.507368129924811e6 1.927834445536178e7 0.0
1.927834445536178e7 5.807255959309597e6 0.0
0.0 0.0 0.0

-6.5967009948092755e6 2.0209367141704924e7 0.0
2.0209367141704924e7 6.677479563246269e6 0.0
0.0 0.0 0.0

-9.110749683187336e6 4.528425437852318e6 0.0
4.528425437852318e6 1.0076874141056199e7 0.0
0.0 0.0 0.0

-9.627229904865727e6 9.480843973661534e6 0.0
9.480843973661534e6 3.507713706238218e7 0.0
0.0 0.0 0.0

-5.128192444571171e6 1.9368124600010104e7 0.0
1.9368124600010104e7 5.005875673970721e6 0.0
0.0 0.0 0.0

-1.6057266638592198e6 1.4650328700905768e7 0.0
1.4650328700905768e7 -962811.8064957773 0.0
0.0 0.0 0.0

923552.0414961379 1.2165088874443658e7 0.0
1.2165088874443658e7 -5.132013481093039e6 0.0
0.0 0.0 0.0

1.1420990298942788e7 1.4193249969883185e7 0.0
1.4193249969883185e7 4.898745090847298e6 0.0
0.0 0.0 0.0

-7.910546630073141e6 5.232870398150636e6 0.0
5.232870398150636e6 1.1136610472845009e7 0.0
0.0 0.0 0.0

5.319454144985759e6 5.246310488484632e6 0.0
5.246310488484632e6 -1.6713606889015375e7 0.0
0.0 0.0 0.0

-485363.13237501937 1.3186805632927723e7 0.0
1.3186805632927723e7 -6.740849971374188e6 0.0
0.0 0.0 0.0

-2.589495587515117e6 1.0784324429803595e7 0.0
1.0784324429803595e7 -31652.654942463036 0.0
0.0 0.0 0.0

-1.183726144757679e7 9.47076923363566e6 0.0
9.47076923363566e6 7.336661522795804e6 0.0
0.0 0.0 0.0

-9.483775735860756e6 -2.662634526585885e6 0.0
-2.662634526585885e6 1.828312983597593e7 0.0
0.0 0.0 0.0

-4.3173319414967805e7 2.9191052585977964e7 0.0
2.9191052585977964e7 -2.3040034929259084e6 0.0
0.0 0.0 0.0

-4.478529206077813e6 1.2411281091137603e7 0.0
1.2411281091137603e7 -1.492843089177655e7 0.0
0.0 0.0 0.0

2.3902848080262314e6 1.3066730002397351e7 0.0
1.3066730002397351e7 7.967616450778346e6 0.0
0.0 0.0 0.0

1.8228276258059815e6 1.0793496149893098e7 0.0
1.0793496149893098e7 -1.4169678077513183e7 0.0
0.0 0.0 0.0

-9.338686028049197e6 1.6660472240666848e7 0.0
1.6660472240666848e7 5.727869047145462e6 0.0
0.0 0.0 0.0

3.080467589916522e6 7.576920750592547e6 0.0
7.576920750592547e6 -1.0086733582420578e7 0.0
0.0 0.0 0.0

4.080008796904615e6 7.863689503912212e6 0.0
7.863689503912212e6 -1.5488110314720921e7 0.0
0.0 0.0 0.0

-7.328900671814646e6 1.3623316741378117e7 0.0
1.3623316741378117e7 1.0836991429508481e7 0.0
0.0 0.0 0.0

2.813569144794019e6 9.20192464614829e6 0.0
9.20192464614829e6 -1.4918558548278518e7 0.0
0.0 0.0 0.0

-5.692386213043127e6 1.964582296864091e7 0.0
1.964582296864091e7 6.030790514400643e6 0.0
0.0 0.0 0.0

-1.2295971024585366e7 1.5470532643975466e6 0.0
1.5470532643975466e6 1.7402376181020193e7 0.0
0.0 0.0 0.0

-7.953326378850542e6 -1.2404947192260302e6 0.0
-1.2404947192260302e6 1.1914417289211622e7 0.0
0.0 0.0 0.0

4.01881593998974e6 7.0560624605627395e6 0.0
7.0560624605627395e6 -1.5916895777809214e7 0.0
0.0 0.0 0.0

-3.9332270437982758e6 1.6245818477187201e7 0.0
1.6245818477187201e7 -2.394561550159992e6 0.0
0.0 0.0 0.0

-3.702055407648019e6 2.097855265943373e7 0.0
2.097855265943373e7 -674799.9349179696 0.0
0.0 0.0 0.0

-9.213623402730089e6 1.1412428942500016e7 0.0
1.1412428942500016e7 1.3341917493733723e7 0.0
0.0 0.0 0.0

4.50134655839655e6 6.281476868766238e6 0.0
6.281476868766238e6 -1.7021253110992398e7 0.0
0.0 0.0 0.0

5.252444988309169e6 6.208602871500719e6 0.0
6.208602871500719e6 -2.1325076758686785e7 0.0
0.0 0.0 0.0

-1.190951819278421e7 8.077012795770616e6 0.0
8.077012795770616e6 2.717991112743844e7 0.0
0.0 0.0 0.0

-1.1623228673155047e7 1.9669767994721173e6 0.0
1.9669767994721173e6 1.822603664913893e7 0.0
0.0 0.0 0.0

-1.7436178638372687e6 1.8741338752923816e7 0.0
1.8741338752923816e7 -3.3817131859093895e6 0.0
0.0 0.0 0.0

-3.195829179349741e6 1.5202028850015009e7 0.0
1.5202028850015009e7 -353941.7357729949 0.0
0.0 0.0 0.0

-1.1182230260673163e7 160176.80283037282 0.0
160176.80283037282 2.0983643531170607e7 0.0
0.0 0.0 0.0

3.617962869898646e6 5.659157170359932e6 0.0
5.659157170359932e6 -1.1074439695189634e7 0.0
0.0 0.0 0.0

-4.782079057400877e6 1.5165752239538098e7 0.0
1.5165752239538098e7 1.3570765344385572e6 0.0
0.0 0.0 0.0

-6.863789262093026e6 1.5975294827241825e7 0.0
1.5975294827241825e7 -1.8494505459997933e6 0.0
0.0 0.0 0.0

-5.952083380964266e6 7.113984831624368e6 0.0
7.113984831624368e6 4.868327057303201e6 0.0
0.0 0.0 0.0

4.99801983734347e6 5.962682114380318e6 0.0
5.962682114380318e6 -1.6539761237591788e7 0.0
0.0 0.0 0.0

2.588914387834997e6 9.18277537067329e6 0.0
9.18277537067329e6 -1.3961116915625922e7 0.0
0.0 0.0 0.0

-6.175030289157387e6 1.6992395311743137e6 0.0
1.6992395311743137e6 6.078933548240126e6 0.0
0.0 0.0 0.0

-1.1048541891506054e7 3.8337122685915576e6 0.0
3.8337122685915576e6 1.527049305150788e7 0.0
0.0 0.0 0.0

2.124637158587207e6 1.0643127817721467e7 0.0
1.0643127817721467e7 -1.8102429556890287e7 0.0
0.0 0.0 0.0

4.953269323284382e6 5.772092018590105e6 0.0
5.772092018590105e6 -1.5393319886160022e7 0.0
0.0 0.0 0.0

-3.4975668053021645e6 1.5033056325564405e7 0.0
1.5033056325564405e7 -1.3129319266015107e6 0.0
0.0 0.0 0.0

4.475837810573525e6 7.104260047543626e6 0.0
7.104260047543626e6 -1.5773243405445155e7 0.0
0.0 0.0 0.0

-5.1022972721112585e6 2.551558334823296e6 0.0
2.551558334823296e6 7.301992218276581e6 0.0
0.0 0.0 0.0

-5.923074065308036e6 1.4035766787337044e7 0.0
1.4035766787337044e7 -1.9743581699496258e7 0.0
0.0 0.0 0.0

4.520215094679316e6 1.3721111801920477e7 0.0
1.3721111801920477e7 1.5067385691776112e7 0.0
0.0 0.0 0.0

633627.6183010552 1.201773810860602e7 0.0
1.201773810860602e7 -1.19068437948524e6 0.0
0.0 0.0 0.0

-1.5694959259558238e7 -2.7815268812081777e6 0.0
-2.7815268812081777e6 8.576332209723838e6 0.0
0.0 0.0 0.0

-4.7068378484396115e6 1.3229089430525503e6 0.0
1.3229089430525503e6 6.609720547483237e6 0.0
0.0 0.0 0.0

2.347852019913666e6 1.453094008614233e7 0.0
1.453094008614233e7 7.826170989256111e6 0.0
0.0 0.0 0.0

-1.574192298697229e6 1.1740002677094758e7 0.0
1.1740002677094758e7 -5.247307053239844e6 0.0
0.0 0.0 0.0

-9.092605151271801e6 9.90718390692118e6 0.0
9.90718390692118e6 3.904335557467795e7 0.0
0.0 0.0 0.0

4.26708562089118e6 6.681533850272817e6 0.0
6.681533850272817e6 -1.6488023663427103e7 0.0
0.0 0.0 0.0

-2.484907509237726e6 1.602996341502084e7 0.0
1.602996341502084e7 -4.643921838765433e6 0.0
0.0 0.0 0.0

-2.053834612637191e6 1.2462160902404606e7 0.0
1.2462160902404606e7 -1.6607350879695619e7 0.0
0.0 0.0 0.0

-5.695047429976287e6 1.864984237887044e7 0.0
1.864984237887044e7 5.224113566474603e6 0.0
0.0 0.0 0.0

-4.286133791495154e6 1.5223803589593343e7 0.0
1.5223803589593343e7 4.532194294893511e6 0.0
0.0 0.0 0.0

-4.1303870881651286e6 1.8246207119444065e7 0.0
1.8246207119444065e7 46359.90168829099 0.0
0.0 0.0 0.0

-4.256234775742284e6 1.3698848181017973e7 0.0
1.3698848181017973e7 -2.0279776655885886e7 0.0
0.0 0.0 0.0

-2.4078330467899777e6 1.8618851987023026e7 0.0
1.8618851987023026e7 -2.833730899253824e6 0.0
0.0 0.0 0.0

-1.1641082361569498e7 1.1041667427587185e7 0.0
1.1041667427587185e7 1.6171340107061349e7 0.0
0.0 0.0 0.0

2.497376625588098e6 7.810000849091051e6 0.0
7.810000849091051e6 -1.045345518957755e7 0.0
0.0 0.0 0.0

4.360946665607979e6 6.353708428802073e6 0.0
6.353708428802073e6 -1.61485109619471e7 0.0
0.0 0.0 0.0

-1.8152656570488228e6 1.5466056341805823e7 0.0
1.5466056341805823e7 -5.905884882133239e6 0.0
0.0 0.0 0.0

-1.6791001926733253e6 1.1198349082676083e7 0.0
1.1198349082676083e7 -3.904788334301304e6 0.0
0.0 0.0 0.0

3.7434473738325676e6 8.089934684606275e6 0.0
8.089934684606275e6 -1.803648692485888e7 0.0
0.0 0.0 0.0

-5.630787178315295e6 1.79640903949611e7 0.0
1.79640903949611e7 5.424529527016927e6 0.0
0.0 0.0 0.0

-2.697359221510755e6 1.221196449680796e7 0.0
1.221196449680796e7 -538369.0988470732 0.0
0.0 0.0 0.0

602395.655022488 1.1346316849577576e7 0.0
1.1346316849577576e7 -7.588177214895014e6 0.0
0.0 0.0 0.0

3.171399625479658e6 9.638254773882827e6 0.0
9.638254773882827e6 -1.7436486432377614e7 0.0
0.0 0.0 0.0

-3.146814942876126e6 1.8091449239696585e7 0.0
1.8091449239696585e7 -2.2159530342371827e6 0.0
0.0 0.0 0.0

-111331.65709649259 1.2459752467785517e7 0.0
1.2459752467785517e7 -6.856580620437559e6 0.0
0.0 0.0 0.0

-180079.79359651147 9.754485346289532e6 0.0
9.754485346289532e6 -4.573736241527696e6 0.0
0.0 0.0 0.0

1.253890797861607e7 5.755234616091778e6 0.0
5.755234616091778e6 -3.1357213860036638e6 0.0
0.0 0.0 0.0

-5.032670737832659e6 1.2805572544181883e7 0.0
1.2805572544181883e7 4.255384810545931e6 0.0
0.0 0.0 0.0

-4.750546801117619e6 6.96757399394981e6 0.0
6.96757399394981e6 4.896720354687053e6 0.0
0.0 0.0 0.0

-9.503383991939029e6 -1.7808405065741665e6 0.0
-1.7808405065741665e6 1.5262337650706362e7 0.0
0.0 0.0 0.0

5.07000990372084e6 5.2523203265482e6 0.0
5.2523203265482e6 -1.47837324166512e7 0.0
0.0 0.0 0.0

3.868582666603026e6 6.497387505648903e6 0.0
6.497387505648903e6 -1.1797067646404622e7 0.0
0.0 0.0 0.0

4.7898415967382295e6 5.879257495478165e6 0.0
5.879257495478165e6 -1.4529559501220917e7 0.0
0.0 0.0 0.0

-941547.0702711833 1.2085197269263811e7 0.0
1.2085197269263811e7 -1.2286649406828457e7 0.0
0.0 0.0 0.0

-2.8397506465563383e6 1.837894056690279e7 0.0
1.837894056690279e7 -2.455516105280206e6 0.0
0.0 0.0 0.0

-1.1615043639680013e7 1.1189828800896225e7 0.0
1.1189828800896225e7 1.5215985459629353e7 0.0
0.0 0.0 0.0

-5.948308656819485e6 1.3082614863985477e7 0.0
1.3082614863985477e7 3.8446927591045126e6 0.0
0.0 0.0 0.0

4.3342354629940465e6 6.172860466670707e6 0.0
6.172860466670707e6 -1.5007403824541701e7 0.0
0.0 0.0 0.0

-7.030398331517523e6 2.8386939791276352e6 0.0
2.8386939791276352e6 7.008051420104044e6 0.0
0.0 0.0 0.0

-1.1088982598393038e7 1.1574863567144915e7 0.0
1.1574863567144915e7 1.3884954728965636e7 0.0
0.0 0.0 0.0

-156851.93505185563 1.3646738428430518e7 0.0
1.3646738428430518e7 -8.745652645614976e6 0.0
0.0 0.0 0.0

1.218309018850612e6 1.2937538834400317e7 0.0
1.2937538834400317e7 -5.818944453506147e6 0.0
0.0 0.0 0.0

-5.5066129171153065e6 1.8609729307199795e7 0.0
1.8609729307199795e7 5.901376760282758e6 0.0
0.0 0.0 0.0

1.8268086588245947e6 1.1242549903752457e7 0.0
1.1242549903752457e7 -1.2497043313402928e7 0.0
0.0 0.0 0.0

4.651078194886272e6 6.452403528521235e6 0.0
6.452403528521235e6 -1.516582950108926e7 0.0
0.0 0.0 0.0

4.259262726854728e6 6.440508401987561e6 0.0
6.440508401987561e6 -1.5304670968884705e7 0.0
0.0 0.0 0.0

2.0928701031972668e6 7.179956823959325e6 0.0
7.179956823959325e6 -8.961149181866324e6 0.0
0.0 0.0 0.0

4.1383793256357014e6 6.733764602032382e6 0.0
6.733764602032382e6 -1.5615585715632375e7 0.0
0.0 0.0 0.0

4.496785426151554e6 6.153205826582068e6 0.0
6.153205826582068e6 -1.3211072432900224e7 0.0
0.0 0.0 0.0

-8.2815812285195105e6 2.1170566117213447e7 0.0
2.1170566117213447e7 7.730353109343236e6 0.0
0.0 0.0 0.0

-2.1418197652588626e6 1.9545694661338687e7 0.0
1.9545694661338687e7 -2.926687233431161e6 0.0
0.0 0.0 0.0

-4.89049668256497e6 1.5815728914093299e7 0.0
1.5815728914093299e7 5.211309521153258e6 0.0
0.0 0.0 0.0

3.922337338976751e6 6.412530897503587e6 0.0
6.412530897503587e6 -1.3621694946752775e7 0.0
0.0 0.0 0.0

-2.280188432505704e6 1.3380122054784216e7 0.0
1.3380122054784216e7 -3.5896522926718798e6 0.0
0.0 0.0 0.0

-597802.9760670059 9.746131946994057e6 0.0
9.746131946994057e6 -1.4476652742230413e6 0.0
0.0 0.0 0.0

-7.667589909269062e6 1.5759977456822468e7 0.0
1.5759977456822468e7 -2.555864111274914e7 0.0
0.0 0.0 0.0

8.569962684381666e6 1.6671924020128993e7 0.0
1.6671924020128993e7 2.856655926570922e7 0.0
0.0 0.0 0.0

4.2718327170588225e6 1.3836855339574484e7 0.0
1.3836855339574484e7 -3.3757638068694733e6 0.0
0.0 0.0 0.0

6.533535126060924e6 1.4145104586673718e7 0.0
1.4145104586673718e7 -5.868405959556659e6 0.0
0.0 0.0 0.0

4.696762589228747e6 6.8519902586734975e6 0.0
6.8519902586734975e6 -2.6206828531353284e7 0.0
0.0 0.0 0.0

539171.6583354878 1.2729017347050231e7 0.0
1.2729017347050231e7 -9.747957767855765e6 0.0
0.0 0.0 0.0

-1.902664457957261e6 1.412945965919313e7 0.0
1.412945965919313e7 5.556199198491762e6 0.0
0.0 0.0 0.0

-1.2286615238681078e7 1.206181018214297e6 0.0
1.206181018214297e6 1.8791171930945814e7 0.0
0.0 0.0 0.0

-1.1014826936018232e7 1.0906102882891204e7 0.0
1.0906102882891204e7 1.900974189862925e7 0.0
0.0 0.0 0.0

-2.44995105074108e6 1.4730111880900634e7 0.0
1.4730111880900634e7 3.405100160401309e6 0.0
0.0 0.0 0.0

-938901.7330235725 1.1006281229165325e7 0.0
1.1006281229165325e7 -3.6215112789290566e6 0.0
0.0 0.0 0.0

-6.832634303120628e6 1.8847264059047244e7 0.0
1.8847264059047244e7 -1.3928696317264969e6 0.0
0.0 0.0 0.0

-6.288381521057144e6 1.5288606606549365e7 0.0
1.5288606606549365e7 8.996078802789371e6 0.0
0.0 0.0 0.0

-6.1293137797851795e6 9.163605956379691e6 0.0
9.163605956379691e6 4.887244082018933e6 0.0
0.0 0.0 0.0

-5.609493763872071e6 1.5230285012782795e7 0.0
1.5230285012782795e7 4.1997968859341e6 0.0
0.0 0.0 0.0

5.098376053800775e6 6.513970924602594e6 0.0
6.513970924602594e6 -1.9503009496072885e7 0.0
0.0 0.0 0.0

3.714947269033465e6 6.954649998183603e6 0.0
6.954649998183603e6 -1.1270311639358103e7 0.0
0.0 0.0 0.0

-1.0678565340999519e6 1.3907934770998621e7 0.0
1.3907934770998621e7 -7.415788229198458e6 0.0
0.0 0.0 0.0

2.3007873646091884e6 9.558247783007076e6 0.0
9.558247783007076e6 -1.3343485770395564e7 0.0
0.0 0.0 0.0

-1.170627886060746e7 3.7712343653889108e6 0.0
3.7712343653889108e6 2.4106299592079517e7 0.0
0.0 0.0 0.0

-1.3974688158546446e6 4.23249978903359e6 0.0
4.23249978903359e6 -622980.494342685 0.0
0.0 0.0 0.0

-1.120058231879174e7 3.5085216242625704e6 0.0
3.5085216242625704e6 3.212098915514496e7 0.0
0.0 0.0 0.0

-1.1264356737788147e6 1.3307434513637455e7 0.0
1.3307434513637455e7 -6.911199327257022e6 0.0
0.0 0.0 0.0

-5.133871215114716e6 1.622830925032988e7 0.0
1.622830925032988e7 6.358945560157547e6 0.0
0.0 0.0 0.0

-5.969535322647702e6 8.341099100329155e6 0.0
8.341099100329155e6 7.049022064794414e6 0.0
0.0 0.0 0.0

-2.578571503497539e6 1.706002103063997e7 0.0
1.706002103063997e7 -3.711754368961163e6 0.0
0.0 0.0 0.0

-4.808247593760603e6 6.051175694629491e6 0.0
6.051175694629491e6 3.6739681416125675e6 0.0
0.0 0.0 0.0

-6.988874774234038e6 1.4625928898827262e7 0.0
1.4625928898827262e7 9.33697414248658e6 0.0
0.0 0.0 0.0

7.643942293480886e6 1.6822928549724795e7 0.0
1.6822928549724795e7 -1.0619616025492981e7 0.0
0.0 0.0 0.0

-9.629277559734292e6 1.2134396316253101e7 0.0
1.2134396316253101e7 1.2004311325238781e7 0.0
0.0 0.0 0.0

-490979.63650491677 4.692683046883261e6 0.0
4.692683046883261e6 -835305.2074338523 0.0
0.0 0.0 0.0

-2.099621991450274e7 -2.339675174478332e6 0.0
-2.339675174478332e6 9.52793522725568e6 0.0
0.0 0.0 0.0

4.779277442527218e6 5.489873375410702e6 0.0
5.489873375410702e6 -1.587828722827907e7 0.0
0.0 0.0 0.0

-7.325694920947966e6 1.940100851920626e7 0.0
1.940100851920626e7 7.169655107380351e6 0.0
0.0 0.0 0.0

-5.045114051369411e6 2.88477522241845e6 0.0
2.88477522241845e6 3.7238928336826973e6 0.0
0.0 0.0 0.0

-2.1639257230613506e6 9.353158757979458e6 0.0
9.353158757979458e6 -1.9935713398947176e6 0.0
0.0 0.0 0.0

-1.0126519684110632e7 -1.259783082557815e6 0.0
-1.259783082557815e6 1.4282545861511726e7 0.0
0.0 0.0 0.0

-137124.9712603623 1.3641857048732763e7 0.0
1.3641857048732763e7 -9.235065986101994e6 0.0
0.0 0.0 0.0

-9.542819586120509e6 -2.67708648845803e6 0.0
-2.67708648845803e6 1.4202088404026926e7 0.0
0.0 0.0 0.0

353431.1860314701 1.15675822855801e7 0.0
1.15675822855801e7 -9.284391238837697e6 0.0
0.0 0.0 0.0

-1.1228497579463324e7 1.1760271480340293e7 0.0
1.1760271480340293e7 1.4593376387838984e7 0.0
0.0 0.0 0.0

-6.46411466818296e6 7.542224203783115e6 0.0
7.542224203783115e6 5.881537007527141e6 0.0
0.0 0.0 0.0

-1.0276297711557604e7 1.1764320877286792e7 0.0
1.1764320877286792e7 1.7693203481272414e7 0.0
0.0 0.0 0.0

-8.746226851109613e6 9.48896386568005e6 0.0
9.48896386568005e6 1.0351549358671572e7 0.0
0.0 0.0 0.0

-4.888222744182899e6 1.5692923173598707e7 0.0
1.5692923173598707e7 1.6884946806693573e6 0.0
0.0 0.0 0.0

4.831072159489578e6 6.939657854413382e6 0.0
6.939657854413382e6 -1.888151165902928e7 0.0
0.0 0.0 0.0

-9.937351280568369e6 1.259699780861031e7 0.0
1.259699780861031e7 1.499303829678011e7 0.0
0.0 0.0 0.0

4.2493191694849e6 1.3356349877859982e7 0.0
1.3356349877859982e7 1.1637091296320974e6 0.0
0.0 0.0 0.0

-1.4842733046771366e7 3.436169545915792e6 0.0
3.436169545915792e6 1.0393401190066803e7 0.0
0.0 0.0 0.0

3.520935424626128e6 9.146864136625044e6 0.0
9.146864136625044e6 -1.7289962731153086e7 0.0
0.0 0.0 0.0

-5.678230156379184e6 9.068560215771638e6 0.0
9.068560215771638e6 6.3940557258142615e6 0.0
0.0 0.0 0.0

2.7814316617030827e6 7.887551836842872e6 0.0
7.887551836842872e6 -9.51534913748199e6 0.0
0.0 0.0 0.0

-3.2823297998315124e6 2.817017767270204e6 0.0
2.817017767270204e6 3.551060422259466e6 0.0
0.0 0.0 0.0

-8.440055425881255e6 -1.2948642618867913e6 0.0
-1.2948642618867913e6 1.0302374718474656e7 0.0
0.0 0.0 0.0

1.3674354438220314e6 1.0564769697349459e7 0.0
1.0564769697349459e7 -1.126307498007625e7 0.0
0.0 0.0 0.0

-6.709137601345511e6 3.892872475063748e6 0.0
3.892872475063748e6 9.503080537540477e6 0.0
0.0 0.0 0.0

-5.337557473025674e6 1.6480816293089686e7 0.0
1.6480816293089686e7 5.944538624906801e6 0.0
0.0 0.0 0.0

-3.448038445534856e6 1.2455415735353252e7 0.0
1.2455415735353252e7 7.25026271794761e6 0.0
0.0 0.0 0.0

451742.14908850193 6.605686227078439e6 0.0
6.605686227078439e6 -3.3759323651164128e6 0.0
0.0 0.0 0.0

-841839.7219617763 1.3669882953857806e7 0.0
1.3669882953857806e7 -6.33791193035116e6 0.0
0.0 0.0 0.0

3.389791375366113e6 7.064076881060581e6 0.0
7.064076881060581e6 -1.2511187082238905e7 0.0
0.0 0.0 0.0

-3.8402517491605673e6 1.783988748016921e7 0.0
1.783988748016921e7 -730984.1453652533 0.0
0.0 0.0 0.0

392771.18981792405 1.2417028780134218e7 0.0
1.2417028780134218e7 -2.8527460783923894e7 0.0
0.0 0.0 0.0

3.221858768155045e6 5.869752457655505e6 0.0
5.869752457655505e6 -1.035552511221168e7 0.0
0.0 0.0 0.0

4.0528098227631655e6 6.105625951961476e6 0.0
6.105625951961476e6 -1.3375319543534312e7 0.0
0.0 0.0 0.0

-517364.63073425693 1.2149095274671242e7 0.0
1.2149095274671242e7 -1.1712385905345332e7 0.0
0.0 0.0 0.0

-39704.57441065577 6.893971783435709e6 0.0
6.893971783435709e6 -2.6733775029903175e6 0.0
0.0 0.0 0.0

-5.049117606158295e6 1.4333478082839955e7 0.0
1.4333478082839955e7 -2.3202585527638722e7 0.0
0.0 0.0 0.0

1.876668194141001e6 6.9555782430181e6 0.0
6.9555782430181e6 -6.96005864192594e6 0.0
0.0 0.0 0.0

3.1329549771496835e6 7.260934925378387e6 0.0
7.260934925378387e6 -9.79548408628222e6 0.0
0.0 0.0 0.0

-467776.66055525804 1.3682200691674788e7 0.0
1.3682200691674788e7 -2.0208450185435212e6 0.0
0.0 0.0 0.0

-1.2428761381596593e7 7.793087567528345e6 0.0
7.793087567528345e6 1.994817994168501e7 0.0
0.0 0.0 0.0

-5.262035023635766e6 1.890185012209864e7 0.0
1.890185012209864e7 4.004727717379077e6 0.0
0.0 0.0 0.0

-9.439069750961062e6 2.346962379651156e6 0.0
2.346962379651156e6 6.386488811579756e6 0.0
0.0 0.0 0.0

2.0165550500098607e6 9.85247247178365e6 0.0
9.85247247178365e6 -1.2631907600904647e7 0.0
0.0 0.0 0.0

-1.6035147344994592e6 1.4422798145184204e7 0.0
1.4422798145184204e7 7.088784168575086e6 0.0
0.0 0.0 0.0

-3.644195416995952e6 1.7454025733375248e7 0.0
1.7454025733375248e7 -1.533990711295582e6 0.0
0.0 0.0 0.0

-322359.49537951825 1.027789816862959e7 0.0
1.027789816862959e7 -6.077178548694682e6 0.0
0.0 0.0 0.0

-3.06167590865326e6 1.727419977354224e7 0.0
1.727419977354224e7 -2.9535453735994245e6 0.0
0.0 0.0 0.0

546147.9953000066 1.062042188786997e7 0.0
1.062042188786997e7 -6.536254563518407e6 0.0
0.0 0.0 0.0

-5.654854595594285e6 881349.5315353113 0.0
881349.5315353113 5.940975928366746e6 0.0
0.0 0.0 0.0

-1.1221887037554025e6 1.3476897334579801e7 0.0
1.3476897334579801e7 -7.226102775330386e6 0.0
0.0 0.0 0.0

-1.5961415467237069e6 2.5527096863448765e7 0.0
2.5527096863448765e7 -6.338794692859948e6 0.0
0.0 0.0 0.0

818801.0532828979 1.5373731712049339e7 0.0
1.5373731712049339e7 -5.187218802848513e6 0.0
0.0 0.0 0.0

171329.29143225402 1.3212465550936302e7 0.0
1.3212465550936302e7 -9.260056529134938e6 0.0
0.0 0.0 0.0

-3.5190986750592813e6 1.0057024791068519e7 0.0
1.0057024791068519e7 1.9480685684843713e6 0.0
0.0 0.0 0.0

-3.4804881531498726e6 1.2404629536457099e7 0.0
1.2404629536457099e7 -818485.119465828 0.0
0.0 0.0 0.0

5.132471810148014e6 5.017012923247597e6 0.0
5.017012923247597e6 -1.5345433827768575e7 0.0
0.0 0.0 0.0

3.0808153985552713e6 5.0568754138666075e6 0.0
5.0568754138666075e6 -8.641339070391512e6 0.0
0.0 0.0 0.0

-1.4870526505330605e6 7.404500892279761e6 0.0
7.404500892279761e6 -2.336559347410107e6 0.0
0.0 0.0 0.0

-3.819586361145863e6 1.5255330465022342e7 0.0
1.5255330465022342e7 -617977.5992647121 0.0
0.0 0.0 0.0

3.5079576129257763e6 6.28759438325027e6 0.0
6.28759438325027e6 -1.164440343109274e7 0.0
0.0 0.0 0.0

-58358.78904045513 1.1719381437373552e7 0.0
1.1719381437373552e7 -8.161050140787388e6 0.0
0.0 0.0 0.0

-1.5637978083086023e6 1.4091039873413661e7 0.0
1.4091039873413661e7 4.272683490365062e6 0.0
0.0 0.0 0.0

2.8910906352918027e6 9.313139068323873e6 0.0
9.313139068323873e6 -1.2956503908991553e7 0.0
0.0 0.0 0.0

-5.86674990182464e6 3.612878083074527e6 0.0
3.612878083074527e6 8.161298032699563e6 0.0
0.0 0.0 0.0

-1.773052228026993e7 1.682879338459772e7 0.0
1.682879338459772e7 8.168514377510932e6 0.0
0.0 0.0 0.0

3.393928313273561e6 8.960917171826499e6 0.0
8.960917171826499e6 -1.453747176864093e7 0.0
0.0 0.0 0.0

-3.394070544398234e7 -72918.53620836491 0.0
-72918.53620836491 9.599933995861884e6 0.0
0.0 0.0 0.0

3.1423510767540694e6 6.888099895323283e6 0.0
6.888099895323283e6 -1.1284858995976359e7 0.0
0.0 0.0 0.0

-6.313337170659686e6 1.376064075282908e7 0.0
1.376064075282908e7 1.0964750215825401e7 0.0
0.0 0.0 0.0

2.080634076547644e6 1.0727869115737433e7 0.0
1.0727869115737433e7 -1.740938324914273e7 0.0
0.0 0.0 0.0

1.9878722904429976e6 1.1293015610355983e7 0.0
1.1293015610355983e7 -1.4208952983362582e7 0.0
0.0 0.0 0.0

-1.757232102834482e6 4.264136337431279e6 0.0
4.264136337431279e6 1.2531162211603045e6 0.0
0.0 0.0 0.0

-1.2027636360883737e7 3.450823671971501e6 0.0
3.450823671971501e6 1.4580085055514578e7 0.0
0.0 0.0 0.0

-2.343066031167259e6 1.0846227989118923e7 0.0
1.0846227989118923e7 -2.4017108457452226e6 0.0
0.0 0.0 0.0

-3.7314597143594306e6 9.516336990505625e6 0.0
9.516336990505625e6 2.4279354541430967e6 0.0
0.0 0.0 0.0

-1.248525222319407e7 2.750404045993926e6 0.0
2.750404045993926e6 1.6657827817609131e7 0.0
0.0 0.0 0.0

-1.5745049244701583e6 1.0658827730425395e7 0.0
1.0658827730425395e7 -2.138124841115543e6 0.0
0.0 0.0 0.0

-774941.1184405314 1.297855318041223e7 0.0
1.297855318041223e7 -7.66776764832616e6 0.0
0.0 0.0 0.0

-839141.5781875758 1.351990727063979e7 0.0
1.351990727063979e7 -6.010775848408093e6 0.0
0.0 0.0 0.0

-1.3807594517183923e6 1.3915221715481305e7 0.0
1.3915221715481305e7 -6.83605513842673e6 0.0
0.0 0.0 0.0

731700.9090727065 1.1221503405100483e7 0.0
1.1221503405100483e7 -9.927597419528335e6 0.0
0.0 0.0 0.0

2.1044162485925774e6 7.5157104750005845e6 0.0
7.5157104750005845e6 -9.282869498685215e6 0.0
0.0 0.0 0.0

631450.6954424425 1.1886687064462062e7 0.0
1.1886687064462062e7 -5.578015296076603e6 0.0
0.0 0.0 0.0

-1.1446577076472952e6 1.3151595546965932e7 0.0
1.3151595546965932e7 -6.610265015638388e6 0.0
0.0 0.0 0.0

74315.46505460795 1.068460043489997e7 0.0
1.068460043489997e7 -5.4591418358860295e6 0.0
0.0 0.0 0.0

-4.717381178593648e6 3.8215004106572284e6 0.0
3.8215004106572284e6 6.320822958785636e6 0.0
0.0 0.0 0.0

1.0499405136126848e6 1.091194333402451e7 0.0
1.091194333402451e7 -1.0617809835108433e7 0.0
0.0 0.0 0.0

-6.643554539544294e6 1.4851978829677403e7 0.0
1.4851978829677403e7 -2.2145181640307747e7 0.0
0.0 0.0 0.0

-1.6686213286678114e6 4.959086553426044e6 0.0
4.959086553426044e6 924279.6061837295 0.0
0.0 0.0 0.0

2.803136543184681e6 7.4910594467165405e6 0.0
7.4910594467165405e6 -1.1005908941553902e7 0.0
0.0 0.0 0.0

611521.853269205 6.3963598717025425e6 0.0
6.3963598717025425e6 -5.085527980190691e6 0.0
0.0 0.0 0.0

992305.1146976817 1.1776857517274085e7 0.0
1.1776857517274085e7 -2.602394169830046e7 0.0
0.0 0.0 0.0

-5.092353304895691e6 1.012978259713935e7 0.0
1.012978259713935e7 4.921975016786414e6 0.0
0.0 0.0 0.0

3.729572440111073e6 6.692285602510574e6 0.0
6.692285602510574e6 -1.0979440322098054e7 0.0
0.0 0.0 0.0

-1.1092735249471094e7 3.4041319938248447e6 0.0
3.4041319938248447e6 1.2655601942254389e7 0.0
0.0 0.0 0.0

-1.0752918291918397e7 -2.7490540413708114e6 0.0
-2.7490540413708114e6 2.5512887537021138e7 0.0
0.0 0.0 0.0

103063.12225516117 1.3398452422992101e7 0.0
1.3398452422992101e7 -1.7105348720395635e6 0.0
0.0 0.0 0.0

45960.15162910777 1.2281294471538637e7 0.0
1.2281294471538637e7 640369.7478153374 0.0
0.0 0.0 0.0

-5.986332220893807e6 1.6635094641499897e7 0.0
1.6635094641499897e7 5.739041435745623e6 0.0
0.0 0.0 0.0

-5.349842859965561e6 1.3796458770305213e7 0.0
1.3796458770305213e7 2.594116430458965e6 0.0
0.0 0.0 0.0

5.220065746452567e6 5.600274101725261e6 0.0
5.600274101725261e6 -1.7047345041898314e7 0.0
0.0 0.0 0.0

5.227416541690674e6 5.906112814776851e6 0.0
5.906112814776851e6 -1.7323724848170914e7 0.0
0.0 0.0 0.0

-1.152882236909116e7 7.4503181975793205e6 0.0
7.4503181975793205e6 1.5792692805290418e7 0.0
0.0 0.0 0.0

-387792.81448920025 1.247410900975051e7 0.0
1.247410900975051e7 -8.115449830554876e6 0.0
0.0 0.0 0.0

3.333521200769468e6 1.3634305080911469e7 0.0
1.3634305080911469e7 -2.8394997023029444e6 0.0
0.0 0.0 0.0

-1.2367656888126086e7 129558.21769684742 0.0
129558.21769684742 2.9809897473276213e7 0.0
0.0 0.0 0.0

-5.314780414252735e6 1.2383028589945206e7 0.0
1.2383028589945206e7 4.977273137943551e6 0.0
0.0 0.0 0.0

-1.1695751069895583e6 1.2220292911659323e7 0.0
1.2220292911659323e7 -5.437064369422083e6 0.0
0.0 0.0 0.0

-9.064949450287124e6 1.1722683227950512e7 0.0
1.1722683227950512e7 2.8247795160771374e7 0.0
0.0 0.0 0.0

853589.4299575929 5.299789220902715e6 0.0
5.299789220902715e6 -3.391666458201837e6 0.0
0.0 0.0 0.0

-2.7251268727091597e6 1.5317396523704497e7 0.0
1.5317396523704497e7 -3.3339678804760245e6 0.0
0.0 0.0 0.0

-2.410909031627539e6 1.4656508146433529e7 0.0
1.4656508146433529e7 9.376306540888576e6 0.0
0.0 0.0 0.0

3.3646956247089016e6 7.271742880886547e6 0.0
7.271742880886547e6 -1.0661224642465103e7 0.0
0.0 0.0 0.0

-2.037555868356619e6 9.788710781278409e6 0.0
9.788710781278409e6 -2.428965400219265e6 0.0
0.0 0.0 0.0

-1.0925099410097042e7 1.012226859714422e7 0.0
1.012226859714422e7 2.205875670393821e7 0.0
0.0 0.0 0.0

4.298743858889382e6 7.813612769239406e6 0.0
7.813612769239406e6 -1.7605301587684646e7 0.0
0.0 0.0 0.0

497939.5070959497 1.2919475390660187e7 0.0
1.2919475390660187e7 -9.99110905910087e6 0.0
0.0 0.0 0.0

-9.422871038856992e6 -4.0905844339563544e6 0.0
-4.0905844339563544e6 1.8651075384963386e7 0.0
0.0 0.0 0.0

3.8408313287428534e6 8.627619032719115e6 0.0
8.627619032719115e6 -1.707023902121235e7 0.0
0.0 0.0 0.0

585768.1532767785 8.004719290249181e6 0.0
8.004719290249181e6 -4.922869061289346e6 0.0
0.0 0.0 0.0

4.212930521569176e6 7.505910644021726e6 0.0
7.505910644021726e6 -1.5193854073720153e7 0.0
0.0 0.0 0.0

292266.1675884882 1.07273087015438e7 0.0
1.07273087015438e7 -7.857754502144803e6 0.0
0.0 0.0 0.0

-18695.161823637784 1.1936765939259034e7 0.0
1.1936765939259034e7 -8.532901900426136e6 0.0
0.0 0.0 0.0

-1.2230611975035354e7 1.7993262134881243e6 0.0
1.7993262134881243e6 1.6256490060480185e7 0.0
0.0 0.0 0.0

1.3843809559832052e6 1.242992506809077e7 0.0
1.242992506809077e7 1.0414914635692157e6 0.0
0.0 0.0 0.0

-4.26259099767223e6 3.606736884383922e6 0.0
3.606736884383922e6 4.843405610317452e6 0.0
0.0 0.0 0.0

1.5514892261726274e6 1.1556490870444091e7 0.0
1.1556490870444091e7 -1.1880203596023183e7 0.0
0.0 0.0 0.0

-603974.3510283406 5.379681148544286e6 0.0
5.379681148544286e6 -1.0929992267879308e6 0.0
0.0 0.0 0.0

1.3442330248956366e6 5.588370562257909e6 0.0
5.588370562257909e6 -5.866878359542452e6 0.0
0.0 0.0 0.0

-50600.71005263133 1.1521558280417502e7 0.0
1.1521558280417502e7 -7.851543835245205e6 0.0
0.0 0.0 0.0

4.0371972224623193e6 6.038514391090363e6 0.0
6.038514391090363e6 -1.1262055365325943e7 0.0
0.0 0.0 0.0

-1.0652009302808484e7 -495587.15916496783 0.0
-495587.15916496783 1.3186116746484432e7 0.0
0.0 0.0 0.0

5.700387741600985e6 4.76286829292651e6 0.0
4.76286829292651e6 -2.3257591409261364e7 0.0
0.0 0.0 0.0

-931693.9333590901 1.233698495362795e7 0.0
1.233698495362795e7 -3.10564614754622e6 0.0
0.0 0.0 0.0

-9.287207597628128e6 5.755911836383392e6 0.0
5.755911836383392e6 1.0319803657017738e7 0.0
0.0 0.0 0.0

-6.01638460923311e6 1.5783934965568757e7 0.0
1.5783934965568757e7 3.995678692604535e6 0.0
0.0 0.0 0.0

-262221.5623909822 1.3097979629795332e7 0.0
1.3097979629795332e7 4.584874389207581e6 0.0
0.0 0.0 0.0

-1.0854983495990131e7 1.2197311301779008e7 0.0
1.2197311301779008e7 1.4102437290994044e7 0.0
0.0 0.0 0.0

-7.750087967863358e6 1.3044440972875586e7 0.0
1.3044440972875586e7 1.1549008947631452e7 0.0
0.0 0.0 0.0

-8.345955545284335e6 -6.89076996184433e6 0.0
-6.89076996184433e6 1.6959038327493586e7 0.0
0.0 0.0 0.0

-2.360267297119597e6 9.58388321180188e6 0.0
9.58388321180188e6 43227.41440533416 0.0
0.0 0.0 0.0

957680.6384600122 1.4513189753157625e7 0.0
1.4513189753157625e7 7.8478886722164685e6 0.0
0.0 0.0 0.0

-4.220460558186896e6 1.522619490452594e7 0.0
1.522619490452594e7 6.256371290408663e6 0.0
0.0 0.0 0.0

-1.1659760145012949e7 2.857497900269431e6 0.0
2.857497900269431e6 1.3915935624289107e7 0.0
0.0 0.0 0.0

1.648087940700096e6 1.077664104156455e7 0.0
1.077664104156455e7 -1.3273002751606356e7 0.0
0.0 0.0 0.0

2.922466742367085e6 6.572713431870165e6 0.0
6.572713431870165e6 -1.0108941221079282e7 0.0
0.0 0.0 0.0

258375.16904129414 1.2329629783690434e7 0.0
1.2329629783690434e7 -7.902520075870308e6 0.0
0.0 0.0 0.0

-1.98324326752473e6 8.865940589513589e6 0.0
8.865940589513589e6 -369801.6930372827 0.0
0.0 0.0 0.0

3.0839231955586076e6 5.603981126361903e6 0.0
5.603981126361903e6 -8.531772002038142e6 0.0
0.0 0.0 0.0

-2.9702802545823087e6 1.5629732226111118e7 0.0
1.5629732226111118e7 -2.5057152483793274e6 0.0
0.0 0.0 0.0

-1.0636614443386963e7 -1.5542376544066025e6 0.0
-1.5542376544066025e6 2.4194591453614872e7 0.0
0.0 0.0 0.0

-1.0060141772848021e7 -3.0604797858536495e6 0.0
-3.0604797858536495e6 1.993201728153635e7 0.0
0.0 0.0 0.0

-1.27677624536242e7 6.009063651512141e6 0.0
6.009063651512141e6 2.020760509114592e7 0.0
0.0 0.0 0.0

-2.1109745760113914e6 1.4593189565991687e7 0.0
1.4593189565991687e7 -5.260124801684757e6 0.0
0.0 0.0 0.0

-391343.7539039074 6.90591832268368e6 0.0
6.90591832268368e6 -3.845011581589237e6 0.0
0.0 0.0 0.0

3.9062999835524196e6 1.4420449468824804e7 0.0
1.4420449468824804e7 4.986911108852528e6 0.0
0.0 0.0 0.0

3.790359504981712e6 1.6010328204203993e7 0.0
1.6010328204203993e7 2.0615433532120027e7 0.0
0.0 0.0 0.0

3.5196849807357276e6 6.298934376430996e6 0.0
6.298934376430996e6 -9.67659577141741e6 0.0
0.0 0.0 0.0

-7.4864219990287945e6 2.767829087348128e6 0.0
2.767829087348128e6 1.0372215904786116e7 0.0
0.0 0.0 0.0

-2.728590935817521e6 1.030561201909831e7 0.0
1.030561201909831e7 455571.11118445743 0.0
0.0 0.0 0.0

-7.194875041963752e6 1.4520944295995401e7 0.0
1.4520944295995401e7 9.238716787231755e6 0.0
0.0 0.0 0.0

5.146588626441009e6 6.101441682765959e6 0.0
6.101441682765959e6 -1.8336371431810915e7 0.0
0.0 0.0 0.0

4.697627453423586e6 6.67789484650586e6 0.0
6.67789484650586e6 -1.6335888816889873e7 0.0
0.0 0.0 0.0

-1.4632306621855006e6 5.601154880405152e6 0.0
5.601154880405152e6 -1.406175454994897e6 0.0
0.0 0.0 0.0

-5.512718070571038e6 1.3175967351951499e7 0.0
1.3175967351951499e7 5.270901860989996e6 0.0
0.0 0.0 0.0

-8.907514020471068e6 1.2046982331599941e7 0.0
1.2046982331599941e7 2.611864314958313e7 0.0
0.0 0.0 0.0

-91128.15865653707 1.285922638831169e7 0.0
1.285922638831169e7 -7.4986830215742085e6 0.0
0.0 0.0 0.0

-1.198375919804507e6 6.186055506118036e6 0.0
6.186055506118036e6 -546422.1625312779 0.0
0.0 0.0 0.0

4.929873456844436e6 6.269924094389403e6 0.0
6.269924094389403e6 -1.6844199766205996e7 0.0
0.0 0.0 0.0

-6.706666171628734e6 1.490198608503066e7 0.0
1.490198608503066e7 6.558387010518802e6 0.0
0.0 0.0 0.0

3.048433466179031e6 7.405959600259255e6 0.0
7.405959600259255e6 -1.1997231309002342e7 0.0
0.0 0.0 0.0

-5.125118101585104e6 4.199359469466092e6 0.0
4.199359469466092e6 274645.93116946565 0.0
0.0 0.0 0.0

315378.81553204404 1.115196478084113e7 0.0
1.115196478084113e7 -8.55648173483841e6 0.0
0.0 0.0 0.0

-331910.3443753664 4.58083583458466e6 0.0
4.58083583458466e6 -2.6453643155288184e6 0.0
0.0 0.0 0.0

-1.5846122037551398e6 8.145711533825049e6 0.0
8.145711533825049e6 -784903.3846188958 0.0
0.0 0.0 0.0

-1.1435766976024855e6 7.3907326876891125e6 0.0
7.3907326876891125e6 -1.1897776244287512e6 0.0
0.0 0.0 0.0

-48886.37785146618 1.1274832062168017e7 0.0
1.1274832062168017e7 -7.543554750495706e6 0.0
0.0 0.0 0.0

-2.43967796914723e6 1.0476857112425953e7 0.0
1.0476857112425953e7 -2.0248180325225035e6 0.0
0.0 0.0 0.0

-1.2430476221236292e7 2.93008193094795e6 0.0
2.93008193094795e6 1.5710751434764385e7 0.0
0.0 0.0 0.0

-1.0673242786494015e7 9.45079556879626e6 0.0
9.45079556879626e6 2.5827208628392152e7 0.0
0.0 0.0 0.0

-1.2522601805353671e7 6.510853434025809e6 0.0
6.510853434025809e6 2.3123753963217944e7 0.0
0.0 0.0 0.0

-1.0841749237908063e7 9.770254081053497e6 0.0
9.770254081053497e6 2.382423930481509e7 0.0
0.0 0.0 0.0

-1.143224709116198e7 4.0587444368788875e6 0.0
4.0587444368788875e6 3.8235371045977056e7 0.0
0.0 0.0 0.0

-1.2954713803252396e6 1.410163767959036e7 0.0
1.410163767959036e7 3.1050835485900315e6 0.0
0.0 0.0 0.0

-1.2427962902490832e7 1.0244488037872466e6 0.0
1.0244488037872466e6 2.7723063356515944e7 0.0
0.0 0.0 0.0

-3.1248605356687754e6 1.4707788636486864e7 0.0
1.4707788636486864e7 -2.0984245630151057e6 0.0
0.0 0.0 0.0

457402.7556864708 1.2318148843321817e7 0.0
1.2318148843321817e7 -8.43400835356092e6 0.0
0.0 0.0 0.0

-3.0471696884793013e7 2.0189439063318606e7 0.0
2.0189439063318606e7 -1.2355566953821834e6 0.0
0.0 0.0 0.0

3.171717714491963e6 6.960825212927804e6 0.0
6.960825212927804e6 -9.494614476988142e6 0.0
0.0 0.0 0.0

2.6035355802213736e6 9.687014656511458e6 0.0
9.687014656511458e6 -1.2413572342425557e7 0.0
0.0 0.0 0.0

-2.8410024276626594e6 1.5690008207692767e7 0.0
1.5690008207692767e7 -2.0143436433640006e6 0.0
0.0 0.0 0.0

-4.646168108604862e6 1.5131774556712262e7 0.0
1.5131774556712262e7 3.0236544328649146e6 0.0
0.0 0.0 0.0

4.320729689466629e6 7.156344813517365e6 0.0
7.156344813517365e6 -1.493066433217952e7 0.0
0.0 0.0 0.0

5.309181452275741e6 1.5794083765998442e7 0.0
1.5794083765998442e7 -7.175477449511785e6 0.0
0.0 0.0 0.0

-2.4535804862056714e6 8.3713900781459715e6 0.0
8.3713900781459715e6 -1.1089151771693649e6 0.0
0.0 0.0 0.0

4.863498360917315e6 6.400415178275962e6 0.0
6.400415178275962e6 -2.445201083741032e7 0.0
0.0 0.0 0.0

-2.0103794526408936e6 7.637273758311267e6 0.0
7.637273758311267e6 -1.5505471730731842e6 0.0
0.0 0.0 0.0

2.535703626585459e6 7.186884058710423e6 0.0
7.186884058710423e6 -9.84781001659017e6 0.0
0.0 0.0 0.0

-1.0264282493831601e7 1.2331695661275553e7 0.0
1.2331695661275553e7 1.3581911093929108e7 0.0
0.0 0.0 0.0

-1.804505793406229e7 1.568660945715735e7 0.0
1.568660945715735e7 5.8760254028425515e6 0.0
0.0 0.0 0.0

-9.123672879068702e6 -3.2531111129226186e6 0.0
-3.2531111129226186e6 1.3658714913207725e7 0.0
0.0 0.0 0.0

-450396.5477729419 1.3357560578929728e7 0.0
1.3357560578929728e7 -7.065172956338191e6 0.0
0.0 0.0 0.0

-1.0194828858066738e7 1.725942814680337e7 0.0
1.725942814680337e7 5.388484020067908e6 0.0
0.0 0.0 0.0

3.466476706873183e6 5.924630925388089e6 0.0
5.924630925388089e6 -9.552532219150698e6 0.0
0.0 0.0 0.0

-9.564533507289262e6 4.074331515995222e6 0.0
4.074331515995222e6 1.3263707226099668e7 0.0
0.0 0.0 0.0

237662.3760425644 1.1919845292669786e7 0.0
1.1919845292669786e7 -7.228085992721607e6 0.0
0.0 0.0 0.0

-794544.4194456525 1.1293198561515613e7 0.0
1.1293198561515613e7 -4.0094257459884873e6 0.0
0.0 0.0 0.0

-2.8811812273761197e6 9.092753374628346e6 0.0
9.092753374628346e6 -692805.1943483974 0.0
0.0 0.0 0.0

-1.2615482171188027e7 4.493370610953162e6 0.0
4.493370610953162e6 2.0202543979351923e7 0.0
0.0 0.0 0.0

5.202950015399506e6 5.3577429759324845e6 0.0
5.3577429759324845e6 -1.5877037026265478e7 0.0
0.0 0.0 0.0

3.6155095213929364e6 6.052612042956294e6 0.0
6.052612042956294e6 -1.118208421838211e7 0.0
0.0 0.0 0.0

-6.665522753570407e6 1.4584819481508804e7 0.0
1.4584819481508804e7 5.912819568977876e6 0.0
0.0 0.0 0.0

-2.905023317552492e6 4.0208295337095633e6 0.0
4.0208295337095633e6 1.1377685819966896e6 0.0
0.0 0.0 0.0

243369.0041935807 1.0473570765383866e7 0.0
1.0473570765383866e7 -7.5322711941262875e6 0.0
0.0 0.0 0.0

4.122904839214677e6 6.757673014930174e6 0.0
6.757673014930174e6 -1.301926849384117e7 0.0
0.0 0.0 0.0

-1.1262602734564714e7 -254865.90157748302 0.0
-254865.90157748302 2.2403790023891225e7 0.0
0.0 0.0 0.0

-1.0710071005107046e6 1.4223223406150056e7 0.0
1.4223223406150056e7 1.9235248203720339e6 0.0
0.0 0.0 0.0

-9.985434460304335e6 -909565.8082075041 0.0
-909565.8082075041 1.2316271544291941e7 0.0
0.0 0.0 0.0

3.285945586243391e6 9.440959632391628e6 0.0
9.440959632391628e6 -1.6603104038271626e7 0.0
0.0 0.0 0.0

395387.85003300244 1.2616787441252435e7 0.0
1.2616787441252435e7 -1.1666378492437167e7 0.0
0.0 0.0 0.0

-8.542452165582726e6 6.855759462225335e6 0.0
6.855759462225335e6 9.378518480468754e6 0.0
0.0 0.0 0.0

1.918025108548698e6 1.124654684000001e7 0.0
1.124654684000001e7 -1.3391981431239627e7 0.0
0.0 0.0 0.0

980834.5637464323 1.1393195140129048e7 0.0
1.1393195140129048e7 -9.006949207084162e6 0.0
0.0 0.0 0.0

1.0052876448186671e6 4.339715637575613e6 0.0
4.339715637575613e6 -3.135002534612131e6 0.0
0.0 0.0 0.0

-8.451089376150776e6 -263458.0414139049 0.0
-263458.0414139049 9.578592094526023e6 0.0
0.0 0.0 0.0

411173.6131504923 9.312602623322707e6 0.0
9.312602623322707e6 -7.099818963323948e6 0.0
0.0 0.0 0.0

758607.741197696 8.626642041387096e6 0.0
8.626642041387096e6 -7.433848117618793e6 0.0
0.0 0.0 0.0

288422.5999671961 1.2104714800618963e7 0.0
1.2104714800618963e7 -7.556036583102455e6 0.0
0.0 0.0 0.0

-1.007840618941092e6 1.4326586645891989e7 0.0
1.4326586645891989e7 795218.116347343 0.0
0.0 0.0 0.0

1.68959168020338e6 7.875410211898006e6 0.0
7.875410211898006e6 -8.692349401920287e6 0.0
0.0 0.0 0.0

1.7395538835704708e6 1.076744148663913e7 0.0
1.076744148663913e7 -2.2127662911665533e7 0.0
0.0 0.0 0.0

-2.6265962495393464e6 4.514621292860708e6 0.0
4.514621292860708e6 887728.4449493652 0.0
0.0 0.0 0.0

-4.0916336913104984e6 1.3344136611977834e7 0.0
1.3344136611977834e7 -1.7914098458610848e7 0.0
0.0 0.0 0.0

-7.010155710629356e7 7.2828583748948155e6 0.0
7.2828583748948155e6 6.938562889753114e6 0.0
0.0 0.0 0.0

4.990886126488692e7 9.22621270915958e6 0.0
9.22621270915958e6 -389145.49329034984 0.0
0.0 0.0 0.0

1.2462130504766423e6 1.1257635197886696e7 0.0
1.1257635197886696e7 -2.4590093603544265e7 0.0
0.0 0.0 0.0

-8.036527200577764e6 1.0163236180918038e7 0.0
1.0163236180918038e7 1.130392773559444e7 0.0
0.0 0.0 0.0

-4.210929218706692e6 1.3334748834621176e7 0.0
1.3334748834621176e7 358717.8237453862 0.0
0.0 0.0 0.0

74876.0166285946 9.945263906674445e6 0.0
9.945263906674445e6 -6.786114129894697e6 0.0
0.0 0.0 0.0

555944.9758280439 5.91438175707116e6 0.0
5.91438175707116e6 -4.690851011195196e6 0.0
0.0 0.0 0.0

925071.8829561244 6.371374326170295e6 0.0
6.371374326170295e6 -4.0362168775019697e6 0.0
0.0 0.0 0.0

-3.292047394689937e6 9.819702094059393e6 0.0
9.819702094059393e6 -291556.4878407469 0.0
0.0 0.0 0.0

1.5200372297084918e6 1.0984819419663789e7 0.0
1.0984819419663789e7 -2.3298249283444863e7 0.0
0.0 0.0 0.0

1.166060149958016e6 9.071149790334169e6 0.0
9.071149790334169e6 -6.729380120135821e6 0.0
0.0 0.0 0.0

-1.1102421604176665e7 -1.537998110510547e6 0.0
-1.537998110510547e6 1.647848049232674e7 0.0
0.0 0.0 0.0

3.703550625412857e7 1.0569483438482024e7 0.0
1.0569483438482024e7 -2.01378750452259e6 0.0
0.0 0.0 0.0

802893.4335497469 9.723869795526745e6 0.0
9.723869795526745e6 -6.44906264743065e6 0.0
0.0 0.0 0.0

4.525608400441907e6 6.521218199785281e6 0.0
6.521218199785281e6 -1.4420382550038008e7 0.0
0.0 0.0 0.0

4.429215573432484e6 6.8330257473575305e6 0.0
6.8330257473575305e6 -1.465248955125259e7 0.0
0.0 0.0 0.0

-9.722036966416582e6 1.2597854378184529e7 0.0
1.2597854378184529e7 1.3005491918279244e7 0.0
0.0 0.0 0.0

1.6753195474116812e6 1.0690772839613784e7 0.0
1.0690772839613784e7 -1.0278200106437745e7 0.0
0.0 0.0 0.0

-1.5842821736870776e6 1.4866401170547266e7 0.0
1.4866401170547266e7 -4.693808331240865e6 0.0
0.0 0.0 0.0

1.9634548538594802e6 1.483432683441748e7 0.0
1.483432683441748e7 -4.974392485624077e6 0.0
0.0 0.0 0.0

-1.1962470751572298e6 9.563314113848139e6 0.0
9.563314113848139e6 -2.1077953618210377e6 0.0
0.0 0.0 0.0

1.6844801173972695e6 5.887596294672653e6 0.0
5.887596294672653e6 -5.336300872656018e6 0.0
0.0 0.0 0.0

-936961.9428080533 7.161668460614105e6 0.0
7.161668460614105e6 -3.081740723478812e6 0.0
0.0 0.0 0.0

-1.6798434542114125e6 5.699685615782532e6 0.0
5.699685615782532e6 597210.2440245311 0.0
0.0 0.0 0.0

-1.494473574676482e6 1.1923570806736676e7 0.0
1.1923570806736676e7 -1.4501775352351014e7 0.0
0.0 0.0 0.0

3.2424185896060904e6 9.312038021048851e6 0.0
9.312038021048851e6 -1.4804211616276609e7 0.0
0.0 0.0 0.0

2.806117447330651e6 6.155770032439331e6 0.0
6.155770032439331e6 -9.91400495094688e6 0.0
0.0 0.0 0.0

2.4130996968011498e6 7.614023721386705e6 0.0
7.614023721386705e6 -8.287836783867342e6 0.0
0.0 0.0 0.0

-2.014439974431699e6 1.0938850328506859e7 0.0
1.0938850328506859e7 -1.3270119918588563e6 0.0
0.0 0.0 0.0

2.5174617594342832e6 7.488296031672538e6 0.0
7.488296031672538e6 -1.0151811520903205e7 0.0
0.0 0.0 0.0

124756.22932206932 6.646791145674322e6 0.0
6.646791145674322e6 -4.464340786695835e6 0.0
0.0 0.0 0.0

4.333356412696693e6 5.746421962758921e6 0.0
5.746421962758921e6 -1.1785717294399492e7 0.0
0.0 0.0 0.0

593617.0647092466 1.1097356204985488e7 0.0
1.1097356204985488e7 -7.27691996245948e6 0.0
0.0 0.0 0.0

-2.664279688594045e6 5.22116266980741e6 0.0
5.22116266980741e6 556152.6342671184 0.0
0.0 0.0 0.0

-2.748157517626332e6 1.5322539335254513e7 0.0
1.5322539335254513e7 -3.782972542004798e6 0.0
0.0 0.0 0.0

4.938000330142655e6 6.066074442895575e6 0.0
6.066074442895575e6 -2.1672889540483512e7 0.0
0.0 0.0 0.0

235777.30471790815 1.167627498679568e7 0.0
1.167627498679568e7 -6.932584275558388e6 0.0
0.0 0.0 0.0

3.57665399631715e6 7.47541982667567e6 0.0
7.47541982667567e6 -1.1850855320399571e7 0.0
0.0 0.0 0.0

-60182.19009346067 5.16640714245379e6 0.0
5.16640714245379e6 -1.752785260388338e6 0.0
0.0 0.0 0.0

3.8724637993410546e6 7.130630087106379e6 0.0
7.130630087106379e6 -1.247334652563748e7 0.0
0.0 0.0 0.0

-4.960917434963212e6 1.3890210229093324e7 0.0
1.3890210229093324e7 3.875854024990813e6 0.0
0.0 0.0 0.0

-2.825860146400387e6 1.6474185537244016e7 0.0
1.6474185537244016e7 -3.831183775090659e6 0.0
0.0 0.0 0.0

520285.86954527907 1.2737503126898844e7 0.0
1.2737503126898844e7 -1.1615929269231204e7 0.0
0.0 0.0 0.0

983887.9624245786 6.090874284870991e6 0.0
6.090874284870991e6 -5.6592607177328365e6 0.0
0.0 0.0 0.0

-2.7824588660554998e6 1.6889404338074606e7 0.0
1.6889404338074606e7 -2.158480159780846e6 0.0
0.0 0.0 0.0

-1.4524728410404306e6 1.4483907436497968e7 0.0
1.4483907436497968e7 -5.156379584324169e6 0.0
0.0 0.0 0.0

-8.348285434023142e6 4.379254932913189e6 0.0
4.379254932913189e6 8.811885254892357e6 0.0
0.0 0.0 0.0

-4.437105443136638e6 1.5040657932086835e7 0.0
1.5040657932086835e7 7.266622833115153e6 0.0
0.0 0.0 0.0

-776107.7579081359 4.831441332004007e6 0.0
4.831441332004007e6 -1.8759595509628276e6 0.0
0.0 0.0 0.0

-1.0476328807024239e6 7.910621697159426e6 0.0
7.910621697159426e6 -1.5709711517528207e6 0.0
0.0 0.0 0.0

-1.182802527585223e7 3.000439857403236e6 0.0
3.000439857403236e6 2.5979440387769796e7 0.0
0.0 0.0 0.0

-4.329805383450238e6 8.937023952289497e6 0.0
8.937023952289497e6 1.6271204845503552e6 0.0
0.0 0.0 0.0

1.616920521232698e6 1.2023222586087419e7 0.0
1.2023222586087419e7 -874152.5784939516 0.0
0.0 0.0 0.0

479759.2334250056 1.0360174616643583e7 0.0
1.0360174616643583e7 -6.136269394669568e6 0.0
0.0 0.0 0.0

-94609.36426216085 1.105682522767186e7 0.0
1.105682522767186e7 -7.17966112740994e6 0.0
0.0 0.0 0.0

1.7018792098661726e6 1.0636666257764202e7 0.0
1.0636666257764202e7 -2.1054814979657575e7 0.0
0.0 0.0 0.0

4.793698235852771e6 6.323878027584719e6 0.0
6.323878027584719e6 -2.2830154046470772e7 0.0
0.0 0.0 0.0

-1.1957720998540975e7 4.500860101125568e6 0.0
4.500860101125568e6 1.404364612064503e7 0.0
0.0 0.0 0.0

-5.620994356972387e6 1.642264620834676e7 0.0
1.642264620834676e7 5.538820314536737e6 0.0
0.0 0.0 0.0

-1.1681731660610821e7 -1.4239449732154587e6 0.0
-1.4239449732154587e6 1.906258612400846e7 0.0
0.0 0.0 0.0

-863083.9733085486 1.3812427477753915e7 0.0
1.3812427477753915e7 -6.681861518041641e6 0.0
0.0 0.0 0.0

-786291.2111109709 1.3625255101510944e7 0.0
1.3625255101510944e7 -8.50136057056345e6 0.0
0.0 0.0 0.0

7.2642982161343e6 5.169117749601683e6 0.0
5.169117749601683e6 -1.3845115375539227e6 0.0
0.0 0.0 0.0

1.4196110681880037e6 7.6500577597731305e6 0.0
7.6500577597731305e6 -6.574117679462038e6 0.0
0.0 0.0 0.0

-6.979214481665216e6 8.641542657317422e6 0.0
8.641542657317422e6 6.6014615835945625e6 0.0
0.0 0.0 0.0

-104790.0004505394 1.2305114029013367e7 0.0
1.2305114029013367e7 -1.125906397382715e7 0.0
0.0 0.0 0.0

575512.8870059666 1.0880707932701213e7 0.0
1.0880707932701213e7 -6.91820734546603e6 0.0
0.0 0.0 0.0

609765.9181757434 1.1565693760845618e7 0.0
1.1565693760845618e7 -7.936463398607869e6 0.0
0.0 0.0 0.0

-1.2075033426968273e7 7.45318226152206e6 0.0
7.45318226152206e6 2.0152664897969477e7 0.0
0.0 0.0 0.0

-1.0663684122493856e7 4.708614458459277e6 0.0
4.708614458459277e6 1.2161532697378924e7 0.0
0.0 0.0 0.0

-154517.58159394283 1.0815307743105127e7 0.0
1.0815307743105127e7 -6.829937220572715e6 0.0
0.0 0.0 0.0

-1.4568353938223151e6 1.2731207480623694e7 0.0
1.2731207480623694e7 -5.121503236841761e6 0.0
0.0 0.0 0.0

-4.537971452853894e6 1.3287366739382766e7 0.0
1.3287366739382766e7 750251.8390991399 0.0
0.0 0.0 0.0

-4.15962628939875e6 1.6277870026499266e7 0.0
1.6277870026499266e7 172543.20621289406 0.0
0.0 0.0 0.0

3.324464161847925e6 9.373669531874374e6 0.0
9.373669531874374e6 -1.5703540747234475e7 0.0
0.0 0.0 0.0

-4.931703084432216e6 1.9180287868782215e7 0.0
1.9180287868782215e7 4.408749181808277e6 0.0
0.0 0.0 0.0

-6.828206850408677e6 9.357545659441777e6 0.0
9.357545659441777e6 5.998144475837802e6 0.0
0.0 0.0 0.0

-2.9804619804479764e6 1.6841108718345236e7 0.0
1.6841108718345236e7 -3.0771685212970427e6 0.0
0.0 0.0 0.0

-321599.48586584034 1.2529898870075231e7 0.0
1.2529898870075231e7 -1.910986872240495e6 0.0
0.0 0.0 0.0

530762.8634470338 1.294463069049283e7 0.0
1.294463069049283e7 -1.0999229634700418e7 0.0
0.0 0.0 0.0

-1.0013932313730571e6 1.3337480046921302e7 0.0
1.3337480046921302e7 -5.180003047711092e6 0.0
0.0 0.0 0.0

-6.327462817834078e6 1.6128286335509524e7 0.0
1.6128286335509524e7 6.763121929095359e6 0.0
0.0 0.0 0.0

-483586.0816102859 1.2997068174732253e7 0.0
1.2997068174732253e7 -6.42981710072341e6 0.0
0.0 0.0 0.0

-232564.06826557498 1.0569518913995776e7 0.0
1.0569518913995776e7 -6.454693351665605e6 0.0
0.0 0.0 0.0

943554.0784363989 1.2431852584227256e7 0.0
1.2431852584227256e7 -1.249710514416784e7 0.0
0.0 0.0 0.0

-551382.373005941 8.994924752727535e6 0.0
8.994924752727535e6 -4.851087203181478e6 0.0
0.0 0.0 0.0

-4.945650609871944e6 1.5046499094845442e7 0.0
1.5046499094845442e7 2.0309844369030898e6 0.0
0.0 0.0 0.0

-3.8371014657105193e6 1.5976576816732142e7 0.0
1.5976576816732142e7 -643797.5568684911 0.0
0.0 0.0 0.0

461621.8940138611 4.960942738455043e6 0.0
4.960942738455043e6 -2.5032390166710257e6 0.0
0.0 0.0 0.0

718444.2460056464 8.243087358065818e6 0.0
8.243087358065818e6 -7.111213181198538e6 0.0
0.0 0.0 0.0

-3.981559269996195e6 1.6939108506980013e7 0.0
1.6939108506980013e7 1.4406563890244141e6 0.0
0.0 0.0 0.0

-5.63579074444474e6 1.3449785457719745e7 0.0
1.3449785457719745e7 3.1721545435359636e6 0.0
0.0 0.0 0.0

-5.316289949113952e7 3.240503693954708e6 0.0
3.240503693954708e6 8.155631219655234e6 0.0
0.0 0.0 0.0

1.7387546172162304e6 1.1526430985597054e7 0.0
1.1526430985597054e7 -1.352011645885295e7 0.0
0.0 0.0 0.0

-6.250456363848462e6 1.2682840994019987e7 0.0
1.2682840994019987e7 4.525805436213588e6 0.0
0.0 0.0 0.0

-2.817671416989518e6 1.4892602844170073e7 0.0
1.4892602844170073e7 -1.1356347815440018e6 0.0
0.0 0.0 0.0

-6.343848123031823e6 1.3476156005880069e7 0.0
1.3476156005880069e7 4.804359511953676e6 0.0
0.0 0.0 0.0

-870252.8729051879 1.4526543407894285e7 0.0
1.4526543407894285e7 -261553.82094906658 0.0
0.0 0.0 0.0

-1.1913789448154718e6 1.3829561073087621e7 0.0
1.3829561073087621e7 -5.411361065929692e6 0.0
0.0 0.0 0.0

-6.470705875043677e6 9.984536529560804e6 0.0
9.984536529560804e6 5.188163904938763e6 0.0
0.0 0.0 0.0

-1.0649611102179443e7 2.208235917472194e6 0.0
2.208235917472194e6 1.5064217030693855e7 0.0
0.0 0.0 0.0

-333143.3197623814 9.400039272856021e6 0.0
9.400039272856021e6 -4.043633861406997e6 0.0
0.0 0.0 0.0

2.698035101668197e6 5.898112444386909e6 0.0
5.898112444386909e6 -7.929983118378108e6 0.0
0.0 0.0 0.0

-1.5501167813765001e6 1.1482971105400778e7 0.0
1.1482971105400778e7 -4.28974228803222e6 0.0
0.0 0.0 0.0

-1.7463389788361175e6 1.4266478420162968e7 0.0
1.4266478420162968e7 -6.0510446680080425e6 0.0
0.0 0.0 0.0

-5.472045289831574e6 1.2713541192244798e7 0.0
1.2713541192244798e7 2.813779077944095e6 0.0
0.0 0.0 0.0

-1.8965650396545557e6 1.0548759292615809e7 0.0
1.0548759292615809e7 -3.1803715280963164e6 0.0
0.0 0.0 0.0

-1.8061264285631706e6 3.667405646939182e6 0.0
3.667405646939182e6 1.6405747782903267e6 0.0
0.0 0.0 0.0

2.446508550775975e6 5.767845070251428e6 0.0
5.767845070251428e6 -8.76260205365776e6 0.0
0.0 0.0 0.0

-1.1539991272484016e7 1.6356480650253529e6 0.0
1.6356480650253529e6 1.9952375500649102e7 0.0
0.0 0.0 0.0

-7.995443110887646e6 1.7998957652322664e6 0.0
1.7998957652322664e6 9.016433869612597e6 0.0
0.0 0.0 0.0

-5.824495828246346e6 1.4297637755818428e7 0.0
1.4297637755818428e7 1.0921572570586164e7 0.0
0.0 0.0 0.0

-1.7447928704895487e6 1.3228899194459053e7 0.0
1.3228899194459053e7 -4.754122961883803e6 0.0
0.0 0.0 0.0

652538.6947852704 7.851721566476899e6 0.0
7.851721566476899e6 -6.846278404976259e6 0.0
0.0 0.0 0.0

-1.1462345441743199e7 1.4456460502098824e6 0.0
1.4456460502098824e6 2.1404067626003798e7 0.0
0.0 0.0 0.0

-2.678546016125e6 1.5067398244570084e7 0.0
1.5067398244570084e7 -1.53769381241332e6 0.0
0.0 0.0 0.0

-2.718360285127698e6 9.596518650488012e6 0.0
9.596518650488012e6 -1.1621710301205528e6 0.0
0.0 0.0 0.0

-501738.7228675729 7.656050769985953e6 0.0
7.656050769985953e6 -2.327250974841488e6 0.0
0.0 0.0 0.0

-1.0327924392556485e6 9.60415703981404e6 0.0
9.60415703981404e6 -4.342528921049085e6 0.0
0.0 0.0 0.0

205257.3385179937 1.2075750874441009e7 0.0
1.2075750874441009e7 -1.4964166594971994e7 0.0
0.0 0.0 0.0

-5.213451632412888e6 1.3548519854310485e7 0.0
1.3548519854310485e7 4.557736381100455e6 0.0
0.0 0.0 0.0

-136971.72753578983 1.3541381171772175e7 0.0
1.3541381171772175e7 -8.482003649201252e6 0.0
0.0 0.0 0.0

-7.597687778592046e6 1.27770456404599e7 0.0
1.27770456404599e7 3.1963673875073828e7 0.0
0.0 0.0 0.0

-1.2725082961677844e6 1.4272315629924776e7 0.0
1.4272315629924776e7 7.069959233741347e6 0.0
0.0 0.0 0.0

-7.890817910045449e6 7.836380046391306e6 0.0
7.836380046391306e6 8.467055178670358e6 0.0
0.0 0.0 0.0

2.7982248704641573e6 9.65517586103631e6 0.0
9.65517586103631e6 -1.319641747730498e7 0.0
0.0 0.0 0.0

-1.48147060824901e6 1.0983149843303297e7 0.0
1.0983149843303297e7 -2.51238212834965e6 0.0
0.0 0.0 0.0

-1.536190732137038e6 1.5095552687880795e7 0.0
1.5095552687880795e7 -6.523401934474675e6 0.0
0.0 0.0 0.0

-5.236528585444288e6 1.6896988086798698e7 0.0
1.6896988086798698e7 4.569927422543284e6 0.0
0.0 0.0 0.0

-3.5651884639859083e6 1.56462892614958e7 0.0
1.56462892614958e7 -1.285992898476596e6 0.0
0.0 0.0 0.0

459067.67522968305 1.3205609250599781e7 0.0
1.3205609250599781e7 -1.0350261721748924e7 0.0
0.0 0.0 0.0

-1.1166164202296545e6 1.0358076063411554e7 0.0
1.0358076063411554e7 -2.9091528525138907e6 0.0
0.0 0.0 0.0

-6.032447239926389e6 1.382781805328341e7 0.0
1.382781805328341e7 4.128153466995301e6 0.0
0.0 0.0 0.0

-7.387590586439642e6 4.253900384413931e6 0.0
4.253900384413931e6 7.133367010837303e6 0.0
0.0 0.0 0.0

2.8252325437645824e6 5.767387237070372e6 0.0
5.767387237070372e6 -9.625705384970453e6 0.0
0.0 0.0 0.0

-1.2429827346078611e6 1.160448429605918e7 0.0
1.160448429605918e7 -3.276495675023074e6 0.0
0.0 0.0 0.0

3.035554101509286e6 7.875429886763542e6 0.0
7.875429886763542e6 -1.0385082831610775e7 0.0
0.0 0.0 0.0

-3.840037728176623e6 1.3459894145936098e7 0.0
1.3459894145936098e7 1.5797365521170008e6 0.0
0.0 0.0 0.0

56558.058172022575 7.40928783014142e6 0.0
7.40928783014142e6 -3.0924348942807703e6 0.0
0.0 0.0 0.0

-4.1825027819844545e6 1.7879880020459972e7 0.0
1.7879880020459972e7 354815.02940887073 0.0
0.0 0.0 0.0

-3.7109066362317294e7 211430.19999017575 0.0
211430.19999017575 1.0545096144129843e7 0.0
0.0 0.0 0.0

480837.73968492285 7.116434975542484e6 0.0
7.116434975542484e6 -3.7559769705862887e6 0.0
0.0 0.0 0.0

268238.87556974124 1.1834542939755566e7 0.0
1.1834542939755566e7 -1.7029740221579306e7 0.0
0.0 0.0 0.0

60928.424431393854 1.424265699710814e7 0.0
1.424265699710814e7 -7.352499226201383e6 0.0
0.0 0.0 0.0

858448.2435124354 9.998708611459952e6 0.0
9.998708611459952e6 -6.821572408628447e6 0.0
0.0 0.0 0.0

770987.7052609366 1.2615984950910937e7 0.0
1.2615984950910937e7 -1.0697301141145583e7 0.0
0.0 0.0 0.0

893800.3959133029 6.857621399906227e6 0.0
6.857621399906227e6 -4.378694570225428e6 0.0
0.0 0.0 0.0

3.663086848770854e6 7.160323381560958e6 0.0
7.160323381560958e6 -1.1609964731618185e7 0.0
0.0 0.0 0.0

-4.433706706723739e6 1.6598395245542571e7 0.0
1.6598395245542571e7 903052.9257118576 0.0
0.0 0.0 0.0

968686.372221756 5.716150800396903e6 0.0
5.716150800396903e6 -5.20126239940279e6 0.0
0.0 0.0 0.0

1.1959148782287538e6 8.227829005242932e6 0.0
8.227829005242932e6 -8.087003195075339e6 0.0
0.0 0.0 0.0

-4.345131950950109e6 1.8593051693850297e7 0.0
1.8593051693850297e7 1.2151585758507152e6 0.0
0.0 0.0 0.0

1.9543530607286182e6 1.272267942998603e7 0.0
1.272267942998603e7 -2.0362830159089672e6 0.0
0.0 0.0 0.0

-1.9359814663361649e6 1.5930287046967428e7 0.0
1.5930287046967428e7 -4.468658937335955e6 0.0
0.0 0.0 0.0

4.9970612678381875e6 7.55364451696706e6 0.0
7.55364451696706e6 -2.5978124795872994e7 0.0
0.0 0.0 0.0

-1.167426182795218e7 1.0439768420650067e7 0.0
1.0439768420650067e7 1.5927235552650455e7 0.0
0.0 0.0 0.0

-4.1943684320199685e6 1.6205698455025958e7 0.0
1.6205698455025958e7 1.960769358742515e6 0.0
0.0 0.0 0.0

2.801696902194227e6 7.58535653276991e6 0.0
7.58535653276991e6 -9.212588093723627e6 0.0
0.0 0.0 0.0

1.2058280987732017e6 6.527622687191902e6 0.0
6.527622687191902e6 -4.977161665697911e6 0.0
0.0 0.0 0.0

674431.6254847161 7.485313801877528e6 0.0
7.485313801877528e6 -6.56590397841913e6 0.0
0.0 0.0 0.0

-5.394162217197576e6 1.8918674147803664e7 0.0
1.8918674147803664e7 5.600962253018191e6 0.0
0.0 0.0 0.0

-5.710345552417783e6 1.3163445494158452e6 0.0
1.3163445494158452e6 7.978307063633042e6 0.0
0.0 0.0 0.0

-1.1967324720211357e7 8.084718432857225e6 0.0
8.084718432857225e6 1.4487559467623245e7 0.0
0.0 0.0 0.0

-3.286505079262702e6 1.5835089595801631e7 0.0
1.5835089595801631e7 -431905.60858359095 0.0
0.0 0.0 0.0

945536.3609048966 1.1014826196067452e7 0.0
1.1014826196067452e7 -8.349987452999791e6 0.0
0.0 0.0 0.0

-5.490894206140691e6 1.4247167049159512e7 0.0
1.4247167049159512e7 9.706672490846112e6 0.0
0.0 0.0 0.0

-2.2512222477168376e6 1.1174459327758666e7 0.0
1.1174459327758666e7 -2.7860213747275136e6 0.0
0.0 0.0 0.0

237899.51672848966 1.1443223762636093e7 0.0
1.1443223762636093e7 -6.604377957378613e6 0.0
0.0 0.0 0.0

1.2738903853613483e6 1.1427860765625944e7 0.0
1.1427860765625944e7 -1.5649828105120165e7 0.0
0.0 0.0 0.0

-2.1930312866222593e6 1.666947551789493e7 0.0
1.666947551789493e7 -3.531954974870569e6 0.0
0.0 0.0 0.0

1.862167398327455e6 1.0678213273695972e7 0.0
1.0678213273695972e7 -2.014597173162068e7 0.0
0.0 0.0 0.0

-6.454876706549821e6 4.118154572984023e6 0.0
4.118154572984023e6 6.041131232548704e6 0.0
0.0 0.0 0.0

840828.4727216312 1.6591407079462511e7 0.0
1.6591407079462511e7 1.443531896857477e7 0.0
0.0 0.0 0.0

-5.765965897983126e6 1.8375736507354464e7 0.0
1.8375736507354464e7 5.594386359928755e6 0.0
0.0 0.0 0.0

-2.135126511555879e6 1.1487994558352936e7 0.0
1.1487994558352936e7 -3.162933001242577e6 0.0
0.0 0.0 0.0

221330.52373135276 1.4883081602103619e7 0.0
1.4883081602103619e7 -5.631076059556456e6 0.0
0.0 0.0 0.0

-2.921122824607538e6 1.5553305624169815e7 0.0
1.5553305624169815e7 -1.1715897542931526e6 0.0
0.0 0.0 0.0

-2.036444079030796e6 6.4381279904929735e6 0.0
6.4381279904929735e6 -919526.9030969127 0.0
0.0 0.0 0.0

328817.93624402676 1.3467714266740235e7 0.0
1.3467714266740235e7 -9.710620637981035e6 0.0
0.0 0.0 0.0

1.9115038756508883e6 1.0666224430091418e7 0.0
1.0666224430091418e7 -1.1280562256601775e7 0.0
0.0 0.0 0.0

1.5714744021732425e6 1.0981944672948692e7 0.0
1.0981944672948692e7 -1.0578486559972614e7 0.0
0.0 0.0 0.0

-651134.6504536166 1.08782275487118e7 0.0
1.08782275487118e7 -5.75090152282811e6 0.0
0.0 0.0 0.0

3.715195393679923e6 1.7024481574604645e7 0.0
1.7024481574604645e7 -6.62823046240686e6 0.0
0.0 0.0 0.0

1.60211799889301e6 8.689264350246713e6 0.0
8.689264350246713e6 -7.365088220145113e6 0.0
0.0 0.0 0.0

2.804133899828673e6 5.47610212387985e6 0.0
5.47610212387985e6 -9.40273696977337e6 0.0
0.0 0.0 0.0

2.212101266451479e6 1.0309896209947212e7 0.0
1.0309896209947212e7 -1.1907288593819361e7 0.0
0.0 0.0 0.0

4.6974863404085925e6 6.519245321185944e6 0.0
6.519245321185944e6 -2.085484730699624e7 0.0
0.0 0.0 0.0

-2.6558849695547856e6 5.976969733793484e6 0.0
5.976969733793484e6 196469.4127716862 0.0
0.0 0.0 0.0

-5.192486519813646e6 1.4692647694069227e7 0.0
1.4692647694069227e7 2.383558196361519e6 0.0
0.0 0.0 0.0

4.425567688887327e6 5.760348129652529e6 0.0
5.760348129652529e6 -1.3443061516306007e7 0.0
0.0 0.0 0.0

2.0558489286416653e6 6.109608528510637e6 0.0
6.109608528510637e6 -8.260184198262865e6 0.0
0.0 0.0 0.0

-348717.94789638766 1.0989436165720971e7 0.0
1.0989436165720971e7 -4.753184967118046e6 0.0
0.0 0.0 0.0

-1.161638001039942e7 8.622151137806192e6 0.0
8.622151137806192e6 2.1134822952499747e7 0.0
0.0 0.0 0.0

-6.637680192382117e6 1.5127266752933772e7 0.0
1.5127266752933772e7 8.730982729757164e6 0.0
0.0 0.0 0.0

-2.071872440449526e6 7.073864816552206e6 0.0
7.073864816552206e6 -1.2075422725335557e6 0.0
0.0 0.0 0.0

-8.620450899840629e6 1.2988813109733291e7 0.0
1.2988813109733291e7 1.1326777242401086e7 0.0
0.0 0.0 0.0

3.7946639110447043e6 6.382976916751175e6 0.0
6.382976916751175e6 -1.0681065629430346e7 0.0
0.0 0.0 0.0

2.452628900186578e6 9.987476276351454e6 0.0
9.987476276351454e6 -1.2653426242404576e7 0.0
0.0 0.0 0.0

-1.3069034550087998e7 3.375176282383188e7 0.0
3.375176282383188e7 5.3094269197887415e6 0.0
0.0 0.0 0.0

-3.6452317714529e6 8.731815403279122e6 0.0
8.731815403279122e6 636518.3912837601 0.0
0.0 0.0 0.0

-5.242543542954708e6 3.9105737670009225e6 0.0
3.9105737670009225e6 4.459299041309418e6 0.0
0.0 0.0 0.0

-464642.20566164143 1.3146741312999237e7 0.0
1.3146741312999237e7 -9.100575687852051e6 0.0
0.0 0.0 0.0

1.2809853956216183e6 1.1313382440939268e7 0.0
1.1313382440939268e7 -9.973704945174867e6 0.0
0.0 0.0 0.0

-513669.4475315665 1.0119657875689894e6 0.0
1.0119657875689894e6 1.7844323204956756e6 0.0
0.0 0.0 0.0

51879.64741487615 -173391.36436739273 0.0
-173391.36436739273 3.93673500966422e6 0.0
0.0 0.0 0.0

-5.788943276932565e6 1.903638590188435e7 0.0
1.903638590188435e7 5.425616974666882e6 0.0
0.0 0.0 0.0

-5.777990956722647e6 1.2288252297730373e7 0.0
1.2288252297730373e7 3.4591435809088703e6 0.0
0.0 0.0 0.0

-5.383896605396269e6 1.871133263535267e7 0.0
1.871133263535267e7 4.262951230713768e6 0.0
0.0 0.0 0.0

3.2805254110799264e6 7.832826614504761e6 0.0
7.832826614504761e6 -1.1293011225914296e7 0.0
0.0 0.0 0.0

-5.731810573082043e6 1.4138930135779506e7 0.0
1.4138930135779506e7 3.4974151171612204e6 0.0
0.0 0.0 0.0

-1.0678698181925489e7 66934.49614068122 0.0
66934.49614068122 1.5892844119084274e7 0.0
0.0 0.0 0.0

-4.4094873690239854e7 1.4333308317131894e6 0.0
1.4333308317131894e6 1.0431100790348262e7 0.0
0.0 0.0 0.0

-5.352183373418706e6 1.5320925669551983e7 0.0
1.5320925669551983e7 2.749550863939216e6 0.0
0.0 0.0 0.0

-7.852195783147139e6 1.3548097279540105e7 0.0
1.3548097279540105e7 1.0589772590686718e7 0.0
0.0 0.0 0.0

-3.291711247425073e6 1.6626245661116702e7 0.0
1.6626245661116702e7 -2.5980437526161703e6 0.0
0.0 0.0 0.0

2.140285281689618e6 5.874544635801199e6 0.0
5.874544635801199e6 -7.817677296149141e6 0.0
0.0 0.0 0.0

-4.784396209848763e6 9.766008149473945e6 0.0
9.766008149473945e6 2.1631900731160576e6 0.0
0.0 0.0 0.0

-4.525485799561174e6 1.6811309741573993e7 0.0
1.6811309741573993e7 -2.165331563212192e6 0.0
0.0 0.0 0.0

-2.0213836693164394e6 1.6040602520836992e7 0.0
1.6040602520836992e7 -2.9020085546890683e6 0.0
0.0 0.0 0.0

3.2052517365628006e6 6.625845312133145e6 0.0
6.625845312133145e6 -9.17678146409592e6 0.0
0.0 0.0 0.0

-7.419161506572323e6 1.4097796780980177e7 0.0
1.4097796780980177e7 9.949933119465321e6 0.0
0.0 0.0 0.0

-800724.3656957407 1.2572438071698798e7 0.0
1.2572438071698798e7 -4.870681353629458e6 0.0
0.0 0.0 0.0

5.146197308514371e6 5.588507128798286e6 0.0
5.588507128798286e6 -2.224931584302559e7 0.0
0.0 0.0 0.0

-1.151870920425004e7 -3.531514115403688e6 0.0
-3.531514115403688e6 2.435140786440576e7 0.0
0.0 0.0 0.0

2.434041592447898e6 7.947950224137224e6 0.0
7.947950224137224e6 -8.599558281774517e6 0.0
0.0 0.0 0.0

4.569665378315244e6 6.7723488018782465e6 0.0
6.7723488018782465e6 -1.5466989792978264e7 0.0
0.0 0.0 0.0

840856.9724982167 1.237759257395346e7 0.0
1.237759257395346e7 -6.609543425913868e6 0.0
0.0 0.0 0.0

3.054353256344891e6 9.386320622397037e6 0.0
9.386320622397037e6 -1.9779464106934965e7 0.0
0.0 0.0 0.0

-4.342552000992788e6 1.9822363970854193e7 0.0
1.9822363970854193e7 1.0177882669261908e6 0.0
0.0 0.0 0.0

-9.397520613157447e6 1.249112424739805e7 0.0
1.249112424739805e7 1.8662742853249297e7 0.0
0.0 0.0 0.0

-1.128909714379502e7 -3.967841920560131e6 0.0
-3.967841920560131e6 2.1694785000316795e7 0.0
0.0 0.0 0.0

-1.1080154161010957e6 1.308695596944399e7 0.0
1.308695596944399e7 -4.545198765010299e6 0.0
0.0 0.0 0.0

4.308856278650624e6 7.201314141774625e6 0.0
7.201314141774625e6 -1.836056301733198e7 0.0
0.0 0.0 0.0

-2.991161460649879e6 1.2826609588427382e7 0.0
1.2826609588427382e7 -157175.62363452988 0.0
0.0 0.0 0.0

-5.035961512387807e6 1.408359458923409e7 0.0
1.408359458923409e7 2.041624741706483e6 0.0
0.0 0.0 0.0

-8.537001143288292e6 2.8059443779134317e6 0.0
2.8059443779134317e6 1.1608741017930202e7 0.0
0.0 0.0 0.0

-2.0461002188874157e6 1.693440446474535e7 0.0
1.693440446474535e7 -3.524590007435037e6 0.0
0.0 0.0 0.0

1.1978079755295652e6 1.241179552447705e7 0.0
1.241179552447705e7 -4.760356602461666e6 0.0
0.0 0.0 0.0

-3.530669594200559e6 1.6176783578329716e7 0.0
1.6176783578329716e7 305869.9641023674 0.0
0.0 0.0 0.0

5.662281535466005e6 4.5496702546602925e6 0.0
4.5496702546602925e6 -2.096147513206457e7 0.0
0.0 0.0 0.0

-5.4501738127184175e6 1.4446062033079885e7 0.0
1.4446062033079885e7 2.879016601020855e6 0.0
0.0 0.0 0.0

888277.2461781381 1.025583905419646e7 0.0
1.025583905419646e7 -7.196669793367221e6 0.0
0.0 0.0 0.0

-1.92770755068446e6 8.153540566151329e6 0.0
8.153540566151329e6 -1.9322641248116954e6 0.0
0.0 0.0 0.0

-674703.1588110027 1.0061141335174644e7 0.0
1.0061141335174644e7 -3.6535677404701747e6 0.0
0.0 0.0 0.0

-1.996527666180322e6 5.090136731057628e6 0.0
5.090136731057628e6 -264675.8478146368 0.0
0.0 0.0 0.0

1.2490099265816265e6 1.2095878732098173e7 0.0
1.2095878732098173e7 -5.167728222739344e6 0.0
0.0 0.0 0.0

-1.176412425979086e7 2.917719692603039e6 0.0
2.917719692603039e6 1.8992164492616113e7 0.0
0.0 0.0 0.0

199311.05996091478 1.1215088056580372e7 0.0
1.1215088056580372e7 -6.22545558435696e6 0.0
0.0 0.0 0.0

-920946.6378455902 5.44636217876524e6 0.0
5.44636217876524e6 -2.1781752964089457e6 0.0
0.0 0.0 0.0

-5.938981739764983e6 1.939540228514554e7 0.0
1.939540228514554e7 5.6417023438352905e6 0.0
0.0 0.0 0.0

-2.455442815593615e6 1.55043566383754e7 0.0
1.55043566383754e7 -2.5707112322200653e6 0.0
0.0 0.0 0.0

1.3967003989145323e6 1.1816974100506116e7 0.0
1.1816974100506116e7 -1.1966750862063378e7 0.0
0.0 0.0 0.0

2.0250394434938328e6 8.310122596953844e6 0.0
8.310122596953844e6 -8.002886884909501e6 0.0
0.0 0.0 0.0

-4.744749717511409e6 1.5669664079387972e7 0.0
1.5669664079387972e7 3.277905876154308e6 0.0
0.0 0.0 0.0

-8.880476073526725e6 1.293826981764759e7 0.0
1.293826981764759e7 1.2058104287642337e7 0.0
0.0 0.0 0.0

-3.879554946000553e6 1.4319326036406973e7 0.0
1.4319326036406973e7 1.046839607569935e7 0.0
0.0 0.0 0.0

4.173511486883699e6 7.343785921177629e6 0.0
7.343785921177629e6 -1.9485665282522704e7 0.0
0.0 0.0 0.0

-5.346359204543097e6 1.424038854492143e7 0.0
1.424038854492143e7 4.766226975851998e6 0.0
0.0 0.0 0.0

-4.847937224808107e6 1.4851398610362018e7 0.0
1.4851398610362018e7 3.4918883874872555e6 0.0
0.0 0.0 0.0

-7.081010807843611e6 6.58499138947377e6 0.0
6.58499138947377e6 6.702665481151298e6 0.0
0.0 0.0 0.0

-4.285832878680362e6 2.023596644773433e7 0.0
2.023596644773433e7 954669.3025805526 0.0
0.0 0.0 0.0

394466.151784973 1.0067026464845361e7 0.0
1.0067026464845361e7 -5.75269533694531e6 0.0
0.0 0.0 0.0

-8.821612536448335e6 1.0680532636183247e7 0.0
1.0680532636183247e7 1.039001922612943e7 0.0
0.0 0.0 0.0

2.0005814375971342e6 7.963542970439964e6 0.0
7.963542970439964e6 -7.688684039240837e6 0.0
0.0 0.0 0.0

-1.220701234519654e6 6.824910460726268e6 0.0
6.824910460726268e6 -838165.2324240216 0.0
0.0 0.0 0.0

-4.542757565382166e6 1.5848602174024584e7 0.0
1.5848602174024584e7 2.7758919604934747e6 0.0
0.0 0.0 0.0

-4.678224799750815e6 1.636844462052347e7 0.0
1.636844462052347e7 3.040296237786561e6 0.0
0.0 0.0 0.0

154259.994508303 1.0966349559745805e7 0.0
1.0966349559745805e7 -5.837609662436149e6 0.0
0.0 0.0 0.0

1.3484977146532512e6 1.3233905615123205e7 0.0
1.3233905615123205e7 -5.525138159388802e6 0.0
0.0 0.0 0.0

2.0298030275688688e6 1.7860739460500862e7 0.0
1.7860739460500862e7 -5.783996860298439e6 0.0
0.0 0.0 0.0

-4.224972045462001e6 1.5529029311460463e7 0.0
1.5529029311460463e7 4.48082505130644e6 0.0
0.0 0.0 0.0

-2.7900643064385746e6 1.2648587825988026e7 0.0
1.2648587825988026e7 -1.6748617214681322e7 0.0
0.0 0.0 0.0

1.093239308229921e6 8.733753429489154e6 0.0
8.733753429489154e6 -6.347166013046631e6 0.0
0.0 0.0 0.0

-1.0002918013050959e7 573661.6232221944 0.0
573661.6232221944 1.4689556273452546e7 0.0
0.0 0.0 0.0

-876993.7136690274 1.4726753067884322e7 0.0
1.4726753067884322e7 -1.1577526631372692e6 0.0
0.0 0.0 0.0

-2.484953175164225e6 1.4960224022495558e7 0.0
1.4960224022495558e7 -553850.7479328183 0.0
0.0 0.0 0.0

-5.0882499300388545e6 1.4518002609181056e7 0.0
1.4518002609181056e7 4.0746951775666466e6 0.0
0.0 0.0 0.0

-9.777926134888045e6 -1.444334733082616e6 0.0
-1.444334733082616e6 1.564982173965881e7 0.0
0.0 0.0 0.0

-6.234652739208786e6 1.974181523953427e7 0.0
1.974181523953427e7 5.920357085910745e6 0.0
0.0 0.0 0.0

-5.068762676656898e6 1.5529692241644317e7 0.0
1.5529692241644317e7 2.222876497288201e6 0.0
0.0 0.0 0.0

1.48820980900796e6 1.1727093056648912e7 0.0
1.1727093056648912e7 -1.5685292435531016e6 0.0
0.0 0.0 0.0

764276.19806483 1.2267125797028076e7 0.0
1.2267125797028076e7 2.547587517180198e6 0.0
0.0 0.0 0.0

-5.618343896044519e6 1.3918638899450088e7 0.0
1.3918638899450088e7 5.488064866575498e6 0.0
0.0 0.0 0.0

-7.406039882836649e6 1.250962260209597e7 0.0
1.250962260209597e7 7.719542163920177e6 0.0
0.0 0.0 0.0

3.122675871646773e6 6.27166605554552e6 0.0
6.27166605554552e6 -8.904980974852987e6 0.0
0.0 0.0 0.0

-3.428634831788705e6 1.632562469350732e7 0.0
1.632562469350732e7 -102817.66051079193 0.0
0.0 0.0 0.0

-7.951912215229677e6 8.989542690677231e6 0.0
8.989542690677231e6 1.1261291734238978e7 0.0
0.0 0.0 0.0

4.067098876219904e6 5.635530610933558e6 0.0
5.635530610933558e6 -1.2596457718472216e7 0.0
0.0 0.0 0.0

-3.3562501060548127e6 1.5199567957068989e7 0.0
1.5199567957068989e7 -1.7178083239014982e6 0.0
0.0 0.0 0.0

-4.669584821241772e6 1.4198693414537983e7 0.0
1.4198693414537983e7 3.25395032230008e6 0.0
0.0 0.0 0.0

-397180.927846844 5.220429117656697e6 0.0
5.220429117656697e6 -2.891403170609661e6 0.0
0.0 0.0 0.0

1.7643744644588833e6 8.799636483219134e6 0.0
8.799636483219134e6 -9.644550051775064e6 0.0
0.0 0.0 0.0

-9.605321912863841e6 3.0067660569938764e7 0.0
3.0067660569938764e7 4.0769818831946864e6 0.0
0.0 0.0 0.0

5.091262969782019e6 7.358198850860559e6 0.0
7.358198850860559e6 -3.036393897059177e7 0.0
0.0 0.0 0.0

4.227252595134642e6 6.093767022367446e6 0.0
6.093767022367446e6 -1.4123948638421852e7 0.0
0.0 0.0 0.0

2.195780120040524e6 9.691918660689427e6 0.0
9.691918660689427e6 -1.0483479854728302e7 0.0
0.0 0.0 0.0

-3.2157943752433145e6 1.5212502313192934e7 0.0
1.5212502313192934e7 2.8635892807888687e6 0.0
0.0 0.0 0.0

1.6744138485667855e6 1.1096904453815797e7 0.0
1.1096904453815797e7 -1.4295961642441826e7 0.0
0.0 0.0 0.0

1.0376149666012675e6 8.377036873556408e6 0.0
8.377036873556408e6 -6.083725718960616e6 0.0
0.0 0.0 0.0

-1.3936239430729584e6 7.92144975983442e6 0.0
7.92144975983442e6 -2.727171935646683e6 0.0
0.0 0.0 0.0

-60235.83554126904 1.390558021793188e7 0.0
1.390558021793188e7 5.91980709767958e6 0.0
0.0 0.0 0.0

-9.421369719984159e6 1.2676972456051774e7 0.0
1.2676972456051774e7 1.7385285481763702e7 0.0
0.0 0.0 0.0

2.390572270188641e6 1.1205719403467061e7 0.0
1.1205719403467061e7 6.653911662010172e6 0.0
0.0 0.0 0.0

-6.64773323942539e6 2.1095473131516423e7 0.0
2.1095473131516423e7 5.61045484272586e6 0.0
0.0 0.0 0.0

-1.1007475839458758e6 1.1177479373627901e7 0.0
1.1177479373627901e7 -5.031976968497179e6 0.0
0.0 0.0 0.0

-1.5843029313822761e7 1.4908890398374064e7 0.0
1.4908890398374064e7 3.7603733585597947e6 0.0
0.0 0.0 0.0

-484050.9600041264 1.207320757488783e7 0.0
1.207320757488783e7 -5.206891103026358e6 0.0
0.0 0.0 0.0

-4.556666281156945e6 1.4494840121543558e7 0.0
1.4494840121543558e7 2.662200095958963e6 0.0
0.0 0.0 0.0

-140984.88396836724 1.0072133672964916e7 0.0
1.0072133672964916e7 -4.691701697025763e6 0.0
0.0 0.0 0.0

891722.4295472512 1.179104644554929e7 0.0
1.179104644554929e7 -1.4600034808624938e7 0.0
0.0 0.0 0.0

3.8125510432535214e6 5.955165111634363e6 0.0
5.955165111634363e6 -1.211632372041659e7 0.0
0.0 0.0 0.0

3.748371923783726e6 8.787198248853482e6 0.0
8.787198248853482e6 -1.801857336099542e7 0.0
0.0 0.0 0.0

-3.4988096393104894e6 1.437001892888336e7 0.0
1.437001892888336e7 7.749397917883177e6 0.0
0.0 0.0 0.0

4.055850364627286e6 6.995913837476268e6 0.0
6.995913837476268e6 -1.3292721528848296e7 0.0
0.0 0.0 0.0

-3.2089358802578645e6 1.5322643936200608e7 0.0
1.5322643936200608e7 -2.049211612817446e6 0.0
0.0 0.0 0.0

-1.4522395855814407e6 1.3650803746813029e7 0.0
1.3650803746813029e7 -6.165542138307092e6 0.0
0.0 0.0 0.0

-1.4918410424629075e6 9.901068096813738e6 0.0
9.901068096813738e6 -3.604866863407617e6 0.0
0.0 0.0 0.0

-3.6675856097871154e6 1.0543107335340813e7 0.0
1.0543107335340813e7 115945.78921223269 0.0
0.0 0.0 0.0

-8.938650498887615e6 1.1045735029880835e7 0.0
1.1045735029880835e7 1.0900353632133292e7 0.0
0.0 0.0 0.0

2.740064302570788e6 8.20465399665668e6 0.0
8.20465399665668e6 -9.815298269884242e6 0.0
0.0 0.0 0.0

-8.245576037141442e6 2.2316783255184926e7 0.0
2.2316783255184926e7 6.029621776821936e6 0.0
0.0 0.0 0.0

-6.683266888701227e6 1.997008652427916e7 0.0
1.997008652427916e7 6.3219383458763985e6 0.0
0.0 0.0 0.0

-9.431179265858307e6 1.1804965807213726e7 0.0
1.1804965807213726e7 1.1743877224714978e7 0.0
0.0 0.0 0.0

-1.3228154219075458e6 9.423317891018603e6 0.0
9.423317891018603e6 -4.409384710274005e6 0.0
0.0 0.0 0.0

966311.9699859596 1.1629252550799362e7 0.0
1.1629252550799362e7 -9.27266586046739e6 0.0
0.0 0.0 0.0

3.9151244303555917e6 6.8826787740463065e6 0.0
6.8826787740463065e6 -1.2255787951703114e7 0.0
0.0 0.0 0.0

-5.249083241635296e6 1.6402537081937613e7 0.0
1.6402537081937613e7 7.057738956331583e6 0.0
0.0 0.0 0.0

-1.003386035801974e7 4.510995838854825e6 0.0
4.510995838854825e6 1.1286314879373219e7 0.0
0.0 0.0 0.0

-2.246441623186952e6 1.81799883172917e7 0.0
1.81799883172917e7 -2.1443685878611133e6 0.0
0.0 0.0 0.0

-1.1650500136075709e7 -1.5566880115692376e6 0.0
-1.5566880115692376e6 3.2193893661342993e7 0.0
0.0 0.0 0.0

-2.1595646161761656e6 1.3574318533567816e7 0.0
1.3574318533567816e7 -3.9945445548815373e6 0.0
0.0 0.0 0.0

-6.324994191889574e6 -4.356785504976466e6 0.0
-4.356785504976466e6 1.1271061973922443e7 0.0
0.0 0.0 0.0

-2.341629622086389e6 4.57156094892562e6 0.0
4.57156094892562e6 1.8173539191778346e6 0.0
0.0 0.0 0.0

3.0880392664037845e6 5.842087704701567e6 0.0
5.842087704701567e6 -8.789788198140297e6 0.0
0.0 0.0 0.0

-1.238264705229577e7 8.387432614083236e6 0.0
8.387432614083236e6 1.862569090603165e7 0.0
0.0 0.0 0.0

3.5286632095463555e6 8.978561319597904e6 0.0
8.978561319597904e6 -1.5452874521621762e7 0.0
0.0 0.0 0.0

-3.054097531580108e6 1.5389565322526239e7 0.0
1.5389565322526239e7 -755601.6481361719 0.0
0.0 0.0 0.0

-5.022235070992943e6 1.544002928849255e7 0.0
1.544002928849255e7 3.821853406299079e6 0.0
0.0 0.0 0.0

-1.8176073821643256e6 1.160278813342789e7 0.0
1.160278813342789e7 -2.128318403036273e6 0.0
0.0 0.0 0.0

-5.623387919887796e6 1.5907414458370367e7 0.0
1.5907414458370367e7 5.424840768261531e6 0.0
0.0 0.0 0.0

1.432901947975323e6 5.788612480194126e6 0.0
5.788612480194126e6 -6.236159271286754e6 0.0
0.0 0.0 0.0

-2.979623274560025e6 1.3232972164071107e7 0.0
1.3232972164071107e7 -2.0252718950627858e6 0.0
0.0 0.0 0.0

678997.9066064998 1.8348852449315924e7 0.0
1.8348852449315924e7 -4.676932756490826e6 0.0
0.0 0.0 0.0

932916.4620441466 7.922175991499635e6 0.0
7.922175991499635e6 -5.934262834219181e6 0.0
0.0 0.0 0.0

-252725.39844998717 1.1270505418643693e7 0.0
1.1270505418643693e7 -5.143398268176669e6 0.0
0.0 0.0 0.0

-1.617950738905076e6 1.559147286174211e7 0.0
1.559147286174211e7 -2.4468650604558364e6 0.0
0.0 0.0 0.0

-1.9280237897972951e6 1.1284118605678324e7 0.0
1.1284118605678324e7 -1.735135875560272e6 0.0
0.0 0.0 0.0

3.7916754477869137e6 1.492507214941468e7 0.0
1.492507214941468e7 -5.388318622371547e6 0.0
0.0 0.0 0.0

129435.14365615277 4.955908241387543e6 0.0
4.955908241387543e6 -3.6143433029427915e6 0.0
0.0 0.0 0.0

4.677306679919012e6 5.655861507332596e6 0.0
5.655861507332596e6 -1.6333529371673495e7 0.0
0.0 0.0 0.0

44088.567023222626 4.528110847787851e6 0.0
4.528110847787851e6 -1.4003978356589493e6 0.0
0.0 0.0 0.0

-840903.8156177705 7.665444948774188e6 0.0
7.665444948774188e6 -3.4634864975538678e6 0.0
0.0 0.0 0.0

-1.9905333098988857e6 1.1790110742831709e7 0.0
1.1790110742831709e7 -3.544913107293106e6 0.0
0.0 0.0 0.0

-2.344976791195272e6 5.078718159242785e6 0.0
5.078718159242785e6 1.6998329704249883e6 0.0
0.0 0.0 0.0

2.3732436338691567e6 6.259829046318153e6 0.0
6.259829046318153e6 -7.257593234178098e6 0.0
0.0 0.0 0.0

198031.13627093472 1.3785328342435805e7 0.0
1.3785328342435805e7 -9.030137023121906e6 0.0
0.0 0.0 0.0

-285682.78068007226 7.420503079799609e6 0.0
7.420503079799609e6 -4.236981217183006e6 0.0
0.0 0.0 0.0

-8.846838482457409e6 2.776662921597224e7 0.0
2.776662921597224e7 3.7079436100736856e6 0.0
0.0 0.0 0.0

2.208628062828472e6 1.4076461495887464e7 0.0
1.4076461495887464e7 5.543698623612719e6 0.0
0.0 0.0 0.0

172798.02249097312 7.118678641163165e6 0.0
7.118678641163165e6 -4.784145482558666e6 0.0
0.0 0.0 0.0

-5.397288660463823e6 9.669661332035018e6 0.0
9.669661332035018e6 5.649282390678415e6 0.0
0.0 0.0 0.0

2.027921753201533e6 5.148639815493279e6 0.0
5.148639815493279e6 -6.337916048402229e6 0.0
0.0 0.0 0.0

-1.177719380658153e7 3.1278806495693647e6 0.0
3.1278806495693647e6 1.777421795299782e7 0.0
0.0 0.0 0.0

582874.5673711444 6.790005160183019e6 0.0
6.790005160183019e6 -5.394382126699628e6 0.0
0.0 0.0 0.0

-9.456235727473252e6 2.2257692523127537e7 0.0
2.2257692523127537e7 7.668170619057443e6 0.0
0.0 0.0 0.0

-1.809841789666743e6 1.8385800999099083e7 0.0
1.8385800999099083e7 -2.466260219298611e6 0.0
0.0 0.0 0.0

4.201286201343378e6 6.516037611346009e6 0.0
6.516037611346009e6 -1.2729192519753445e7 0.0
0.0 0.0 0.0

-1.719534726410844e6 1.3944546363207523e7 0.0
1.3944546363207523e7 -5.361923113332074e6 0.0
0.0 0.0 0.0

4.1544910295733726e6 7.015879817506282e6 0.0
7.015879817506282e6 -1.686110541996125e7 0.0
0.0 0.0 0.0

-2.4419291866870564e6 1.2088331325126631e7 0.0
1.2088331325126631e7 -2.7865674284936963e6 0.0
0.0 0.0 0.0

-2.273803094762262e6 1.2864306325904418e7 0.0
1.2864306325904418e7 6.566296640708369e6 0.0
0.0 0.0 0.0

-346348.67066016863 1.853547990988478e7 0.0
1.853547990988478e7 -3.7146556815494318e6 0.0
0.0 0.0 0.0

1.0043558253030644e6 7.680019898582675e6 0.0
7.680019898582675e6 -5.543554163331655e6 0.0
0.0 0.0 0.0

2.3830136494669677e6 7.253468492732122e6 0.0
7.253468492732122e6 -8.024969843908851e6 0.0
0.0 0.0 0.0

-207146.6412869282 9.036203634462584e6 0.0
9.036203634462584e6 -3.7114827549739517e6 0.0
0.0 0.0 0.0

-7.46635722702156e6 2.016105319052548e7 0.0
2.016105319052548e7 6.674952638103435e6 0.0
0.0 0.0 0.0

-3.0965261533625e6 1.0306653853646697e7 0.0
1.0306653853646697e7 -773576.6486575142 0.0
0.0 0.0 0.0

-2.2586596013780152e6 2.092714349974118e7 0.0
2.092714349974118e7 -931398.1485521772 0.0
0.0 0.0 0.0

-1.6774539223720473e6 1.1902462429710375e7 0.0
1.1902462429710375e7 -2.5248815044532595e6 0.0
0.0 0.0 0.0

941298.8814805849 1.4115589134679383e7 0.0
1.4115589134679383e7 7.210322506551928e6 0.0
0.0 0.0 0.0

-1.43197931347293e6 1.5291990992756547e7 0.0
1.5291990992756547e7 -1.8027405641130102e6 0.0
0.0 0.0 0.0

-3.86348402447044e6 1.6475603666831968e7 0.0
1.6475603666831968e7 1.0880041404106342e6 0.0
0.0 0.0 0.0

332615.51473285444 1.3057412469713878e7 0.0
1.3057412469713878e7 -9.313618034525603e6 0.0
0.0 0.0 0.0

1.7938955669377428e6 1.0652212477482006e7 0.0
1.0652212477482006e7 -1.922327421828938e7 0.0
0.0 0.0 0.0

-1.0985981834803546e7 1.1573591949260607e7 0.0
1.1573591949260607e7 1.7040815591859106e7 0.0
0.0 0.0 0.0

847012.2686032895 8.954672513515482e6 0.0
8.954672513515482e6 -7.7781044810256325e6 0.0
0.0 0.0 0.0

-1.156423381115979e7 3.3214933813122073e6 0.0
3.3214933813122073e6 1.6323301317908317e7 0.0
0.0 0.0 0.0

2.961443380317823e6 9.653472921018343e6 0.0
9.653472921018343e6 -1.4166007063786797e7 0.0
0.0 0.0 0.0

-1.0602961620013688e6 9.229875320859618e6 0.0
9.229875320859618e6 -3.9927789526475337e6 0.0
0.0 0.0 0.0

3.072207138372681e6 5.078878157467556e6 0.0
5.078878157467556e6 -8.904683803832028e6 0.0
0.0 0.0 0.0

-3.922992713229465e6 1.2695059924408317e7 0.0
1.2695059924408317e7 7480.830062474823 0.0
0.0 0.0 0.0

-5.1959741477694195e6 1.6027149454609867e7 0.0
1.6027149454609867e7 2.5030772308031176e6 0.0
0.0 0.0 0.0

-4.110776665608371e6 1.863097008430907e7 0.0
1.863097008430907e7 184187.74611200695 0.0
0.0 0.0 0.0

-2.7140544351747134e6 1.266461945131133e7 0.0
1.266461945131133e7 -2.4002032508004108e6 0.0
0.0 0.0 0.0

2.385661954061186e6 5.938986405493414e6 0.0
5.938986405493414e6 -6.954140971488064e6 0.0
0.0 0.0 0.0

-1.1801246549550712e6 1.8520191267644584e7 0.0
1.8520191267644584e7 -3.0327596910509486e6 0.0
0.0 0.0 0.0

-8.726454960018259e6 5.313543567058197e6 0.0
5.313543567058197e6 1.2471373791976167e7 0.0
0.0 0.0 0.0

4.443585446418841e6 6.974843699897708e6 0.0
6.974843699897708e6 -2.0170411218368955e7 0.0
0.0 0.0 0.0

-2.018292720173424e6 1.4115581917836946e7 0.0
1.4115581917836946e7 7.789031908979194e6 0.0
0.0 0.0 0.0

-5.627949984092698e6 1.787617856702762e7 0.0
1.787617856702762e7 4.720332528751269e6 0.0
0.0 0.0 0.0

-1.278545363919595e6 1.2775094979564803e7 0.0
1.2775094979564803e7 -5.751977844538256e6 0.0
0.0 0.0 0.0

-9.460469037053466e6 1.2908240033770146e7 0.0
1.2908240033770146e7 1.6397198390461866e7 0.0
0.0 0.0 0.0

-1.6004491155728844e6 1.2622122460267881e7 0.0
1.2622122460267881e7 -5.334829994396161e6 0.0
0.0 0.0 0.0

-32502.83101581526 9.630467729590623e6 0.0
9.630467729590623e6 -6.401059748741278e6 0.0
0.0 0.0 0.0

-910043.2314707246 1.3953377126253344e7 0.0
1.3953377126253344e7 5.801290478572906e6 0.0
0.0 0.0 0.0

-7.973484307523834e6 2.6233337191047423e7 0.0
2.6233337191047423e7 3.7785277759639593e6 0.0
0.0 0.0 0.0

-1.118167903793918e6 1.5494098797648326e7 0.0
1.5494098797648326e7 -3.52738005096484e6 0.0
0.0 0.0 0.0

2.5848737421459943e7 1.2790416092937184e7 0.0
1.2790416092937184e7 -36179.47053028457 0.0
0.0 0.0 0.0

-1.4309337132614418e6 1.0251892320805237e7 0.0
1.0251892320805237e7 -3.930023356881017e6 0.0
0.0 0.0 0.0

-3.7845108467256515e6 1.3026514565255372e7 0.0
1.3026514565255372e7 -448708.1222409605 0.0
0.0 0.0 0.0

998493.7674698811 1.0749121134834202e7 0.0
1.0749121134834202e7 -9.305318065981112e6 0.0
0.0 0.0 0.0

-4.1112066894196454e6 1.8992057006158534e7 0.0
1.8992057006158534e7 241742.37105668127 0.0
0.0 0.0 0.0

4.624842317689769e6 6.224494671855881e6 0.0
6.224494671855881e6 -1.7865006903350797e7 0.0
0.0 0.0 0.0

603767.8262935246 7.090905977780171e6 0.0
7.090905977780171e6 -5.782016827750607e6 0.0
0.0 0.0 0.0

2.0354081277276035e6 9.03528919187516e6 0.0
9.03528919187516e6 -1.0793232037221285e7 0.0
0.0 0.0 0.0

-6.277415586774728e6 1.515494357480676e7 0.0
1.515494357480676e7 8.822242860046675e6 0.0
0.0 0.0 0.0

-3.236363443231036e6 1.3789036980161482e7 0.0
1.3789036980161482e7 -1.6546226640979573e6 0.0
0.0 0.0 0.0

-906122.015423011 1.113229426382907e7 0.0
1.113229426382907e7 2.262240746078476e6 0.0
0.0 0.0 0.0

-717900.7913935981 9.703915305574851e6 0.0
9.703915305574851e6 -3.3177855378569625e6 0.0
0.0 0.0 0.0

-2.2551848832452623e6 1.3062205161743745e7 0.0
1.3062205161743745e7 -1.785508827688145e6 0.0
0.0 0.0 0.0

1.3955612638656562e6 1.242258137147463e7 0.0
1.242258137147463e7 -4.796304085089265e6 0.0
0.0 0.0 0.0

-7.031988238973984e6 2.517639472827786e7 0.0
2.517639472827786e7 4.1789760430827024e6 0.0
0.0 0.0 0.0

-2.5124396350673228e6 1.3620759290663041e7 0.0
1.3620759290663041e7 -1.4204723940989994e6 0.0
0.0 0.0 0.0

-654962.864803734 6.007257860319549e6 0.0
6.007257860319549e6 -1.3294802323954646e6 0.0
0.0 0.0 0.0

1.2260923033802416e7 1.0433863415331649e7 0.0
1.0433863415331649e7 153193.08431036398 0.0
0.0 0.0 0.0

3.6887190878046816e6 8.543201462337743e6 0.0
8.543201462337743e6 -2.4098393526772637e7 0.0
0.0 0.0 0.0

-4.507464857932766e6 1.6572223287971266e7 0.0
1.6572223287971266e7 2.702917135260553e6 0.0
0.0 0.0 0.0

-1.7058446531490125e6 6.365732014802836e6 0.0
6.365732014802836e6 217461.56933646963 0.0
0.0 0.0 0.0

-960441.508945533 9.995796114198158e6 0.0
9.995796114198158e6 -4.59882109903991e6 0.0
0.0 0.0 0.0

309810.2828174345 8.98796882395532e6 0.0
8.98796882395532e6 -6.735295573754466e6 0.0
0.0 0.0 0.0

-6.484004343530853e6 2.4232616966923162e7 0.0
2.4232616966923162e7 3.956409811608465e6 0.0
0.0 0.0 0.0

3.3751922893580515e6 8.516775796199962e6 0.0
8.516775796199962e6 -1.6238176827118646e7 0.0
0.0 0.0 0.0

-1.0611302081984133e7 668163.7413939841 0.0
668163.7413939841 1.2615507645353056e7 0.0
0.0 0.0 0.0

-3.196243894062211e6 1.5456087703071097e7 0.0
1.5456087703071097e7 -3.019174780648954e6 0.0
0.0 0.0 0.0

-2.2901411083719553e6 5.854667434554054e6 0.0
5.854667434554054e6 1.4766522109890687e6 0.0
0.0 0.0 0.0

-1.8723753748585756e6 1.3064526690568794e7 0.0
1.3064526690568794e7 -4.3715475023264615e6 0.0
0.0 0.0 0.0

-3.8156281890827403e6 1.3838777580591552e7 0.0
1.3838777580591552e7 -457229.0996882153 0.0
0.0 0.0 0.0

1.0082299056101069e6 1.163775474902884e7 0.0
1.163775474902884e7 -1.1847916492443806e7 0.0
0.0 0.0 0.0

-6.193131436504575e6 2.3459461393424045e7 0.0
2.3459461393424045e7 4.049273365584926e6 0.0
0.0 0.0 0.0

-6.148902190245848e6 1.5671944424796801e7 0.0
1.5671944424796801e7 8.377530519798096e6 0.0
0.0 0.0 0.0

-2.750877631410888e6 1.4163986293775413e7 0.0
1.4163986293775413e7 -1.0741950440647658e6 0.0
0.0 0.0 0.0

4.38059241983125e6 6.624600309604122e6 0.0
6.624600309604122e6 -1.7407506610936414e7 0.0
0.0 0.0 0.0

-1.6815586332796114e6 7.592215472787491e6 0.0
7.592215472787491e6 -431615.63019582996 0.0
0.0 0.0 0.0

-5.707104140334606e6 2.283417473640052e7 0.0
2.283417473640052e7 4.23276680434747e6 0.0
0.0 0.0 0.0

4.551464508972444e6 7.857215536189427e6 0.0
7.857215536189427e6 -2.4677727497386888e7 0.0
0.0 0.0 0.0

-5.212802190182451e6 2.226986533019596e7 0.0
2.226986533019596e7 4.156221404409748e6 0.0
0.0 0.0 0.0

-4.996051827368334e6 2.174883879331584e7 0.0
2.174883879331584e7 3.941855095635612e6 0.0
0.0 0.0 0.0

-4.713054278954053e6 1.788056234326113e7 0.0
1.788056234326113e7 1.9445663616700675e6 0.0
0.0 0.0 0.0

-4.759944262924609e6 1.8256359225586057e7 0.0
1.8256359225586057e7 2.228371248463147e6 0.0
0.0 0.0 0.0

-4.798404101860833e6 1.8626674369569086e7 0.0
1.8626674369569086e7 2.483356815111318e6 0.0
0.0 0.0 0.0

-4.820819580727745e6 1.8969683713476416e7 0.0
1.8969683713476416e7 2.6834968406379856e6 0.0
0.0 0.0 0.0

-4.89238802707019e6 1.929287805097329e7 0.0
1.929287805097329e7 2.9302148971865503e6 0.0
0.0 0.0 0.0

-4.9383213599454295e6 1.9639466356288902e7 0.0
1.9639466356288902e7 3.0778697064498113e6 0.0
0.0 0.0 0.0

-5.107892063223034e6 9.22605831574516e6 0.0
9.22605831574516e6 2.683988778798065e6 0.0
0.0 0.0 0.0

-5.03228082410594e6 1.9979989218088783e7 0.0
1.9979989218088783e7 3.3137333964374773e6 0.0
0.0 0.0 0.0

-5.2451222866158895e6 2.0360306059704673e7 0.0
2.0360306059704673e7 3.433165920733492e6 0.0
0.0 0.0 0.0

-8.441199035191622e6 1.0378879411913339e7 0.0
1.0378879411913339e7 1.198260663943093e7 0.0
0.0 0.0 0.0

-4.915460786307593e6 2.132538674194121e7 0.0
2.132538674194121e7 3.938412929126559e6 0.0
0.0 0.0 0.0

-5.431444686375293e6 2.0697979493909933e7 0.0
2.0697979493909933e7 3.5086956297537074e6 0.0
0.0 0.0 0.0

-5.524159040011929e6 2.1124759124736466e7 0.0
2.1124759124736466e7 3.625283218956346e6 0.0
0.0 0.0 0.0

-4.807064768710453e6 2.094072011472807e7 0.0
2.094072011472807e7 3.888532159329201e6 0.0
0.0 0.0 0.0

-1.3712001644614772e6 1.129909244982064e7 0.0
1.129909244982064e7 -2.890472953258577e6 0.0
0.0 0.0 0.0

-5.758787970917829e6 2.15450445610323e7 0.0
2.15450445610323e7 3.6226278184610046e6 0.0
0.0 0.0 0.0

-4.84667578413561e6 2.0549068845718168e7 0.0
2.0549068845718168e7 3.7102958486285284e6 0.0
0.0 0.0 0.0

-4.593335601757143e6 2.0204791759901926e7 0.0
2.0204791759901926e7 3.616838469461834e6 0.0
0.0 0.0 0.0

-4.544073332909341e6 1.989012112441282e7 0.0
1.989012112441282e7 3.454035270644907e6 0.0
0.0 0.0 0.0

-4.5305264962741835e6 1.9512298145246245e7 0.0
1.9512298145246245e7 3.2729609196410244e6 0.0
0.0 0.0 0.0

-4.456688460809417e6 1.9201826572898008e7 0.0
1.9201826572898008e7 3.0582385670449194e6 0.0
0.0 0.0 0.0

-4.44687181488367e6 1.885272857905435e7 0.0
1.885272857905435e7 2.858214120122755e6 0.0
0.0 0.0 0.0

-4.375676551114611e6 1.8514717419978116e7 0.0
1.8514717419978116e7 2.642885140758886e6 0.0
0.0 0.0 0.0

-4.293736647142177e6 1.81503197168734e7 0.0
1.81503197168734e7 2.3813325214762455e6 0.0
0.0 0.0 0.0

-3.6835386395350676e6 1.551802211394461e7 0.0
1.551802211394461e7 -924474.9788768607 0.0
0.0 0.0 0.0

-1.0727109065034265e7 1.1917911579357449e7 0.0
1.1917911579357449e7 1.6195566136919916e7 0.0
0.0 0.0 0.0

-6.2009940460015945e6 2.1957574525845967e7 0.0
2.1957574525845967e7 3.6673888767923154e6 0.0
0.0 0.0 0.0

3.2835172294816887e6 7.354578016903452e6 0.0
7.354578016903452e6 -1.2824453796149213e7 0.0
0.0 0.0 0.0

-4.412438866469961e6 1.5353527377187928e7 0.0
1.5353527377187928e7 2.5060626567348205e6 0.0
0.0 0.0 0.0

-6.871629525792028e6 2.2551593230756514e7 0.0
2.2551593230756514e7 3.7903895007610335e6 0.0
0.0 0.0 0.0

-7.978748208946669e6 6.497370142110544e6 0.0
6.497370142110544e6 1.1435566578446148e7 0.0
0.0 0.0 0.0

-7.660102030941618e6 2.322975898157238e7 0.0
2.322975898157238e7 3.70703056839837e6 0.0
0.0 0.0 0.0

-1.020339218541016e7 4.364814928351186e6 0.0
4.364814928351186e6 1.3966567170836365e7 0.0
0.0 0.0 0.0

-8.509187715565057e6 2.3904467755618833e7 0.0
2.3904467755618833e7 3.465567291296743e6 0.0
0.0 0.0 0.0

-421179.69168168074 1.3282373130960835e7 0.0
1.3282373130960835e7 -9.289988870907009e6 0.0
0.0 0.0 0.0

2.5894123383125374e6 8.804479643599054e6 0.0
8.804479643599054e6 -1.0429418613196576e7 0.0
0.0 0.0 0.0

1.845404991092071e6 1.0710064458368292e7 0.0
1.0710064458368292e7 -1.8199962362469435e7 0.0
0.0 0.0 0.0

-2.918390485421047e6 1.3938519168687806e7 0.0
1.3938519168687806e7 -644916.9231342708 0.0
0.0 0.0 0.0

-972990.2084121199 1.1450813107520204e7 0.0
1.1450813107520204e7 -5.407472443778151e6 0.0
0.0 0.0 0.0

-2.983855591080976e6 1.4862441486113794e7 0.0
1.4862441486113794e7 -2.503748907283845e6 0.0
0.0 0.0 0.0

-412381.30334315076 1.3415765632080698e7 0.0
1.3415765632080698e7 -9.469809281115929e6 0.0
0.0 0.0 0.0

5.1988000305732535e6 4.562820707632752e6 0.0
4.562820707632752e6 -1.487118144251014e7 0.0
0.0 0.0 0.0

-2.5321337186719403e6 9.061652225421218e6 0.0
9.061652225421218e6 494772.5376597311 0.0
0.0 0.0 0.0

-9.557839023524445e6 2.4680206976613346e7 0.0
2.4680206976613346e7 3.402591733822861e6 0.0
0.0 0.0 0.0

2.070997686550544e6 9.21839216190105e6 0.0
9.21839216190105e6 -8.979239559488283e6 0.0
0.0 0.0 0.0

-1.142966902958294e7 4.436431791087951e6 0.0
4.436431791087951e6 1.5893705649293829e7 0.0
0.0 0.0 0.0

-1.96787213879282e6 1.2491619441928465e7 0.0
1.2491619441928465e7 -2.164460922501691e6 0.0
0.0 0.0 0.0

-4.447129879308639e6 1.937021380525941e7 0.0
1.937021380525941e7 2.2224929941978185e6 0.0
0.0 0.0 0.0

3.591430005438652e6 7.004167624083642e6 0.0
7.004167624083642e6 -1.3406074010518078e7 0.0
0.0 0.0 0.0

-1.1302106662997259e7 2.2233980625751514e7 0.0
2.2233980625751514e7 8.142153224134004e6 0.0
0.0 0.0 0.0

-6.2501130831732275e6 1.0445881060300991e7 0.0
1.0445881060300991e7 4.469586863517804e6 0.0
0.0 0.0 0.0

-1.100847162779633e7 1.714229294533703e7 0.0
1.714229294533703e7 5.306737408291523e6 0.0
0.0 0.0 0.0

-343458.99827510444 1.3506368051376302e7 0.0
1.3506368051376302e7 4.548313360720834e6 0.0
0.0 0.0 0.0

-1.136500965463001e7 2.5892121225810822e7 0.0
2.5892121225810822e7 3.2446182357752007e6 0.0
0.0 0.0 0.0

2.938946028096876e6 9.22133204403786e6 0.0
9.22133204403786e6 -1.583301046551219e7 0.0
0.0 0.0 0.0

-4.551646909406664e6 1.0305819738677027e7 0.0
1.0305819738677027e7 1.6017284440640248e6 0.0
0.0 0.0 0.0

331933.27418661816 9.90181387829873e6 0.0
9.90181387829873e6 1.1064444847866269e6 0.0
0.0 0.0 0.0

2.740414083428265e6 7.77760021305655e6 0.0
7.77760021305655e6 -1.1362714299564578e7 0.0
0.0 0.0 0.0

27835.405947393097 1.221443645799512e7 0.0
1.221443645799512e7 1.0297957281571821e6 0.0
0.0 0.0 0.0

2.9952740021358915e6 7.723476066019216e6 0.0
7.723476066019216e6 -1.224251328204334e7 0.0
0.0 0.0 0.0

-436368.1998087609 1.1902571343912218e7 0.0
1.1902571343912218e7 -2.527426561767526e6 0.0
0.0 0.0 0.0

-3.3347040937652173e6 1.423432887492541e7 0.0
1.423432887492541e7 148516.24874008028 0.0
0.0 0.0 0.0

-3.4685001722489744e6 1.431867437285411e7 0.0
1.431867437285411e7 -1.288083703120563e6 0.0
0.0 0.0 0.0

2.1303621713119517e6 7.831959278142441e6 0.0
7.831959278142441e6 -9.599002207983563e6 0.0
0.0 0.0 0.0

8.839465224331617e6 1.549583692228348e7 0.0
1.549583692228348e7 5.979986410313114e6 0.0
0.0 0.0 0.0

1.666314761717428e6 9.825130397874953e6 0.0
9.825130397874953e6 -8.67796027863615e6 0.0
0.0 0.0 0.0

-663323.4539663029 1.1580944447430868e7 0.0
1.1580944447430868e7 -4.410788134238304e6 0.0
0.0 0.0 0.0

-4.387017489942235e6 1.5378783045711791e7 0.0
1.5378783045711791e7 3.744553854140316e6 0.0
0.0 0.0 0.0

626280.0517441467 9.105149659022959e6 0.0
9.105149659022959e6 -5.754396725246247e6 0.0
0.0 0.0 0.0

-6.110169197145014e6 1.6118774267222913e7 0.0
1.6118774267222913e7 7.8885441978566805e6 0.0
0.0 0.0 0.0

-62237.103969314136 1.3870090248076335e7 0.0
1.3870090248076335e7 7.534198213658826e6 0.0
0.0 0.0 0.0

-6.516454891617535e6 8.488205436454978e6 0.0
8.488205436454978e6 8.247835610576941e6 0.0
0.0 0.0 0.0

-1.38996407554389e7 2.710764546445089e7 0.0
2.710764546445089e7 2.6854876218061214e6 0.0
0.0 0.0 0.0

-6.098175063157938e6 1.3831032597533986e7 0.0
1.3831032597533986e7 1.9425111880283967e7 0.0
0.0 0.0 0.0

-2.8223735697574834e6 1.1139722389486792e7 0.0
1.1139722389486792e7 -1.6091750967451776e6 0.0
0.0 0.0 0.0

4.42820541401315e6 1.274222977622457e7 0.0
1.274222977622457e7 -1.0920201078035368e6 0.0
0.0 0.0 0.0

4.0697770613024365e6 6.741608696770216e6 0.0
6.741608696770216e6 -1.477710639676857e7 0.0
0.0 0.0 0.0

2.9655478231324116e6 9.408415387803793e6 0.0
9.408415387803793e6 -1.7688245571831122e7 0.0
0.0 0.0 0.0

-7.0955156132796835e6 1.3040856802903285e7 0.0
1.3040856802903285e7 7.042848455306552e6 0.0
0.0 0.0 0.0

-7.114142514926617e6 1.860358534006606e7 0.0
1.860358534006606e7 1.7952484284730474e6 0.0
0.0 0.0 0.0

-3.14581055290978e6 1.2502729819577074e7 0.0
1.2502729819577074e7 284789.7656945551 0.0
0.0 0.0 0.0

-381224.78884964576 1.1826543325224325e7 0.0
1.1826543325224325e7 -7.135859386147909e6 0.0
0.0 0.0 0.0

-1.272851363341127e7 2.097169928483567e7 0.0
2.097169928483567e7 9.607429111246895e6 0.0
0.0 0.0 0.0

1.9742461127461893e6 9.3114874267098e6 0.0
9.3114874267098e6 -1.1105423643204238e7 0.0
0.0 0.0 0.0

-3.442838473055326e6 1.3123249672649743e7 0.0
1.3123249672649743e7 672857.8633219704 0.0
0.0 0.0 0.0

-1.7437373116488936e6 7.001963717096979e6 0.0
7.001963717096979e6 -82519.11782775255 0.0
0.0 0.0 0.0

-5.800214535912536e6 1.2772535385662057e7 0.0
1.2772535385662057e7 6.001510172967262e6 0.0
0.0 0.0 0.0

-1.9184703186983008e7 3.707986489752048e7 0.0
3.707986489752048e7 -969576.8925343519 0.0
0.0 0.0 0.0

-6.355776259076707e6 9.319106207006084e6 0.0
9.319106207006084e6 7.602292775036152e6 0.0
0.0 0.0 0.0

-987411.529616968 6.061161566773762e6 0.0
6.061161566773762e6 -2.447072795153749e6 0.0
0.0 0.0 0.0

-3.358166216032869e6 1.501147786800692e7 0.0
1.501147786800692e7 78332.84439817327 0.0
0.0 0.0 0.0

-5.457323877452642e6 1.5017509144869208e7 0.0
1.5017509144869208e7 3.255640446329773e6 0.0
0.0 0.0 0.0

-1.409103054887847e6 1.3597737417112224e7 0.0
1.3597737417112224e7 -4.1695649219830865e6 0.0
0.0 0.0 0.0

-3.854360653651782e6 1.4640679030353239e7 0.0
1.4640679030353239e7 -494403.17173242336 0.0
0.0 0.0 0.0

-2.873535707157131e6 3.7711808431336395e6 0.0
3.7711808431336395e6 2.0305868539662652e6 0.0
0.0 0.0 0.0

1.0232062953735522e6 1.1273142525949601e7 0.0
1.1273142525949601e7 -4.461134779979446e6 0.0
0.0 0.0 0.0

-5.648538906242859e6 1.5604978130218906e7 0.0
1.5604978130218906e7 3.5898064690858936e6 0.0
0.0 0.0 0.0

1.282984569697307e6 8.571988440978058e6 0.0
8.571988440978058e6 -8.41114599501588e6 0.0
0.0 0.0 0.0

1.2067426901631518e6 1.1568412431070393e7 0.0
1.1568412431070393e7 -3.965688556896369e6 0.0
0.0 0.0 0.0

-1.1396465834843576e7 1.6197306723765755e7 0.0
1.6197306723765755e7 3.3226585643831077e6 0.0
0.0 0.0 0.0

-5.965764162664802e6 9.95874797510381e6 0.0
9.95874797510381e6 6.89366143805014e6 0.0
0.0 0.0 0.0

-92375.11911614612 1.2977941418887744e7 0.0
1.2977941418887744e7 -1.0033714990356779e7 0.0
0.0 0.0 0.0

-6.0170586633255e6 1.610581619068438e7 0.0
1.610581619068438e7 5.098764985612443e6 0.0
0.0 0.0 0.0

3.7041330024114707e6 4.331044653790261e6 0.0
4.331044653790261e6 -1.0115107883235948e7 0.0
0.0 0.0 0.0

44172.76504176238 2.659701681729355e6 0.0
2.659701681729355e6 -1.9945991414586415e6 0.0
0.0 0.0 0.0

613014.4514948719 3.0575117627239646e6 0.0
3.0575117627239646e6 -2.5671189474429204e6 0.0
0.0 0.0 0.0

-5.012399406632347e6 -5.908601003634461e6 0.0
-5.908601003634461e6 8.86082344983716e6 0.0
0.0 0.0 0.0

905858.3030364083 3.4157480291663213e6 0.0
3.4157480291663213e6 -3.251213330514138e6 0.0
0.0 0.0 0.0

-6.046064681430001e6 -4.194305287058019e6 0.0
-4.194305287058019e6 7.83598113658463e6 0.0
0.0 0.0 0.0

3.4279393759146472e6 4.515746591491495e6 0.0
4.515746591491495e6 -8.686895456438476e6 0.0
0.0 0.0 0.0

-888651.8691385667 1.1096383215676842e6 0.0
1.1096383215676842e6 28060.44921501848 0.0
0.0 0.0 0.0

-3.9272887192846388e6 -233588.82446760728 0.0
-233588.82446760728 3.6677333108925205e6 0.0
0.0 0.0 0.0

1.3581978625824412e6 3.7114597261701184e6 0.0
3.7114597261701184e6 -4.375543032006982e6 0.0
0.0 0.0 0.0

-4.663850351002285e6 -2.52207135505267e6 0.0
-2.52207135505267e6 5.058764883285312e6 0.0
0.0 0.0 0.0

2.7974554853684874e6 4.625771241246303e6 0.0
4.625771241246303e6 -7.267716946568371e6 0.0
0.0 0.0 0.0

2.0290950132644875e6 4.365559713466778e6 0.0
4.365559713466778e6 -5.947039162928056e6 0.0
0.0 0.0 0.0

-66648.76980980753 2.187685136729851e6 0.0
2.187685136729851e6 -1.6327730363242077e6 0.0
0.0 0.0 0.0

4.945151201837861e6 4.714717747370165e6 0.0
4.714717747370165e6 -1.3846883642196495e7 0.0
0.0 0.0 0.0

5.161070007220791e6 4.559356122648431e6 0.0
4.559356122648431e6 -1.4647625027523343e7 0.0
0.0 0.0 0.0

4.813847810261149e6 4.823142647469644e6 0.0
4.823142647469644e6 -1.3253091426563594e7 0.0
0.0 0.0 0.0

4.589118432909993e6 4.68366963605092e6 0.0
4.68366963605092e6 -1.2328748095203934e7 0.0
0.0 0.0 0.0

-746253.3966904741 1.627030266298387e6 0.0
1.627030266298387e6 -665091.6378422382 0.0
0.0 0.0 0.0

-5.268971005785477e6 -3.601854512804711e6 0.0
-3.601854512804711e6 6.246680095985448e6 0.0
0.0 0.0 0.0

5.062211240542552e6 4.667610268589601e6 0.0
4.667610268589601e6 -1.4271762526475107e7 0.0
0.0 0.0 0.0

3.9900643341409024e6 4.415598455571091e6 0.0
4.415598455571091e6 -1.1138061226318099e7 0.0
0.0 0.0 0.0

4.228588263112872e6 4.49778839655638e6 0.0
4.49778839655638e6 -1.1736320532879371e7 0.0
0.0 0.0 0.0

4.02704101085366e6 4.424858547125622e6 0.0
4.424858547125622e6 -1.0773484262548614e7 0.0
0.0 0.0 0.0

597241.2438076767 1.197185675379549e7 0.0
1.197185675379549e7 -8.634586307479806e6 0.0
0.0 0.0 0.0

-7.357468227513637e6 7.558747552298432e6 0.0
7.558747552298432e6 1.041249495264075e7 0.0
0.0 0.0 0.0

-1.1915263020407647e7 2.3228144129170943e6 0.0
2.3228144129170943e6 1.506917661038349e7 0.0
0.0 0.0 0.0

-5.988649244814863e6 1.661656315738412e7 0.0
1.661656315738412e7 7.509414453188047e6 0.0
0.0 0.0 0.0

845364.072845296 1.1935339108109808e7 0.0
1.1935339108109808e7 -1.3887951662362937e7 0.0
0.0 0.0 0.0

-5.175990346929172e6 1.307998991084024e7 0.0
1.307998991084024e7 2.2218671040887604e6 0.0
0.0 0.0 0.0

-1.7462945007919807e7 2.89180542375668e7 0.0
2.89180542375668e7 2.3105365374357905e6 0.0
0.0 0.0 0.0

-3.1701797110232334e6 1.1781668851261739e7 0.0
1.1781668851261739e7 -1.210027518457189e6 0.0
0.0 0.0 0.0

-2.3205151391602177e6 1.3725878849821331e7 0.0
1.3725878849821331e7 -4.4669324094169885e6 0.0
0.0 0.0 0.0

1.4786839617499758e6 1.4332465078389725e7 0.0
1.4332465078389725e7 5.143960187652163e6 0.0
0.0 0.0 0.0

-2.9732577397447485e6 1.4238865929875432e7 0.0
1.4238865929875432e7 3.676333615435915e6 0.0
0.0 0.0 0.0

-5.919588055335593e6 1.3548019079216616e7 0.0
1.3548019079216616e7 6.202224924203886e6 0.0
0.0 0.0 0.0

-20799.657743876334 1.4119526859846218e7 0.0
1.4119526859846218e7 -8.374944141230639e6 0.0
0.0 0.0 0.0

-6.088778755799616e6 1.2358708262805616e7 0.0
1.2358708262805616e7 6.729613561405344e6 0.0
0.0 0.0 0.0

-4.1673879449394224e6 1.4979513414654974e7 0.0
1.4979513414654974e7 228049.0921322608 0.0
0.0 0.0 0.0

-3.060073903506716e6 1.4010270346380895e7 0.0
1.4010270346380895e7 -2.0679741220908733e6 0.0
0.0 0.0 0.0

-5.923414763180701e6 9.467625135905163e6 0.0
9.467625135905163e6 3.9808982195189353e6 0.0
0.0 0.0 0.0

-552877.291979121 1.1149320763852006e7 0.0
1.1149320763852006e7 -6.111098429768951e6 0.0
0.0 0.0 0.0

-3.2951509636715897e6 1.2151979334620485e7 0.0
1.2151979334620485e7 754336.9657509641 0.0
0.0 0.0 0.0

1.720807410746174e6 8.207090485753564e6 0.0
8.207090485753564e6 -9.00505955120157e6 0.0
0.0 0.0 0.0

336929.49739868334 2.4484346346336855e6 0.0
2.4484346346336855e6 -786970.4125061005 0.0
0.0 0.0 0.0

566105.7460253915 2.9795487147843894e6 0.0
2.9795487147843894e6 -1.561876197369398e6 0.0
0.0 0.0 0.0

-4.0904975005917153e6 -2.8713925171033987e6 0.0
-2.8713925171033987e6 7.652856037560788e6 0.0
0.0 0.0 0.0

36825.004576559004 2.0904941015185118e6 0.0
2.0904941015185118e6 -49729.85768331497 0.0
0.0 0.0 0.0

-429464.32778260397 1.3902167926606312e6 0.0
1.3902167926606312e6 567917.7467902745 0.0
0.0 0.0 0.0

4.935000529912119e6 4.70919284471033e6 0.0
4.70919284471033e6 -1.3929972579802865e7 0.0
0.0 0.0 0.0

5.00061779489389e6 4.62148880936684e6 0.0
4.62148880936684e6 -1.423448115405123e7 0.0
0.0 0.0 0.0

-5.277356241842134e6 -3.6751361912947455e6 0.0
-3.6751361912947455e6 9.502541788710987e6 0.0
0.0 0.0 0.0

4.477485802055627e6 4.670930676537727e6 0.0
4.670930676537727e6 -1.1648969215118073e7 0.0
0.0 0.0 0.0

4.0122714841410955e6 4.492226382314241e6 0.0
4.492226382314241e6 -1.0092959097753795e7 0.0
0.0 0.0 0.0

4.214138436132216e6 4.532554436607469e6 0.0
4.532554436607469e6 -1.1023593555699727e7 0.0
0.0 0.0 0.0

4.023709899928044e6 4.443901109726042e6 0.0
4.443901109726042e6 -1.0578063154257363e7 0.0
0.0 0.0 0.0

-3.4773016924004513e6 1.1013720854794847e7 0.0
1.1013720854794847e7 -357946.55403327476 0.0
0.0 0.0 0.0

-1.0483075349604912e7 1.2291727719530746e7 0.0
1.2291727719530746e7 1.5316081407531366e7 0.0
0.0 0.0 0.0

-6.747117608310387e6 1.2145787052465666e7 0.0
1.2145787052465666e7 8.343997934845183e6 0.0
0.0 0.0 0.0

4.288069286634594e6 6.223341285510848e6 0.0
6.223341285510848e6 -1.2712345399317838e7 0.0
0.0 0.0 0.0

-3.47612476388113e6 1.6412400484249199e7 0.0
1.6412400484249199e7 -1.3999307757754922e6 0.0
0.0 0.0 0.0

-4.387063577682152e6 1.4660915028200185e7 0.0
1.4660915028200185e7 9.765196754385823e6 0.0
0.0 0.0 0.0

-1.0850499472912299e7 7.915172097537108e6 0.0
7.915172097537108e6 1.2769516849309027e7 0.0
0.0 0.0 0.0

2.45176058556512e6 8.118617316899255e6 0.0
8.118617316899255e6 -1.0769881827904286e7 0.0
0.0 0.0 0.0

1.9304793225931227e6 9.568660440609982e6 0.0
9.568660440609982e6 -1.1360781141250882e7 0.0
0.0 0.0 0.0

-2.824497615472981e6 1.3479931332109325e7 0.0
1.3479931332109325e7 -2.4267498413727237e6 0.0
0.0 0.0 0.0

-5.699532074464729e6 1.4516144379897801e7 0.0
1.4516144379897801e7 1.1245803149434956e7 0.0
0.0 0.0 0.0

-2.121506038420062e6 8.331172865700964e6 0.0
8.331172865700964e6 24946.320934118587 0.0
0.0 0.0 0.0

-1.7409486776248799e6 1.3940472487023678e7 0.0
1.3940472487023678e7 -3.4172638116377494e6 0.0
0.0 0.0 0.0

-4.02310665709543e6 1.635293140927602e7 0.0
1.635293140927602e7 1.5672961158436816e6 0.0
0.0 0.0 0.0

1.232247603830784e6 1.038106250719868e7 0.0
1.038106250719868e7 -8.489275556248171e6 0.0
0.0 0.0 0.0

-3.151696668290868e6 1.4482627174957624e7 0.0
1.4482627174957624e7 -274520.22421866143 0.0
0.0 0.0 0.0

322740.831108139 2.2043226621225057e6 0.0
2.2043226621225057e6 2.9859986992960507e6 0.0
0.0 0.0 0.0

-5.813773726224228e6 1.444207503214522e7 0.0
1.444207503214522e7 1.0990814522394037e7 0.0
0.0 0.0 0.0

3.6530707827457553e6 8.690011323003665e6 0.0
8.690011323003665e6 -1.9948895844731297e7 0.0
0.0 0.0 0.0

3.003271605875521e6 9.279054300584752e6 0.0
9.279054300584752e6 -1.6789873026266675e7 0.0
0.0 0.0 0.0

-1.4475800532991136e6 1.3433896475243192e7 0.0
1.3433896475243192e7 -3.7805167075584764e6 0.0
0.0 0.0 0.0

-6.95994796999884e6 1.6221822043139778e7 0.0
1.6221822043139778e7 4.1036777691220758e6 0.0
0.0 0.0 0.0

2.7294776212415094e6 6.185498537441328e6 0.0
6.185498537441328e6 -8.1088637388992775e6 0.0
0.0 0.0 0.0

-2.8293595282648834e6 1.1870558581712263e7 0.0
1.1870558581712263e7 -94710.69213059405 0.0
0.0 0.0 0.0

-3.6548151895049023e6 1.4104417505648002e7 0.0
1.4104417505648002e7 -857314.3396339813 0.0
0.0 0.0 0.0

-2.9716625126002645e6 1.4695762269953487e7 0.0
1.4695762269953487e7 -705276.1439564044 0.0
0.0 0.0 0.0

1.0165867386288643e6 1.1893175229131201e7 0.0
1.1893175229131201e7 -1.4781306879695797e7 0.0
0.0 0.0 0.0

2.4773453282455606e6 9.510998820234355e6 0.0
9.510998820234355e6 -1.425242495976671e7 0.0
0.0 0.0 0.0

-3.0098578325887104e6 8.546449009746753e6 0.0
8.546449009746753e6 -263650.8891625877 0.0
0.0 0.0 0.0

-6.859089536717317e6 1.2689041908774817e7 0.0
1.2689041908774817e7 6.199446979929453e6 0.0
0.0 0.0 0.0

1.7658045204058597e6 1.1179534059078962e7 0.0
1.1179534059078962e7 -1.5212396892096728e7 0.0
0.0 0.0 0.0

-2.58757064576476e6 1.5232658220070567e7 0.0
1.5232658220070567e7 -1.929576209029668e6 0.0
0.0 0.0 0.0

2.392619571565969e6 4.489979827002669e6 0.0
4.489979827002669e6 -6.5379009705628725e6 0.0
0.0 0.0 0.0

-3.0062708924509566e6 2.0670095952043664e7 0.0
2.0670095952043664e7 -185775.9717597803 0.0
0.0 0.0 0.0

2.3111150053754295e6 6.585570450546499e6 0.0
6.585570450546499e6 -7.561679992761717e6 0.0
0.0 0.0 0.0

-1.0297913276637713e6 1.0678332206608886e7 0.0
1.0678332206608886e7 -3.265279698054044e6 0.0
0.0 0.0 0.0

-6.994693363233751e6 1.4870910795169279e7 0.0
1.4870910795169279e7 8.179525618228329e6 0.0
0.0 0.0 0.0

-2.2012967441925914e6 1.0069504983264776e7 0.0
1.0069504983264776e7 -430095.3639713278 0.0
0.0 0.0 0.0

-2.700577385633159e6 1.147400610162945e7 0.0
1.147400610162945e7 -2.005523469699266e6 0.0
0.0 0.0 0.0

-4.049324969980992e6 1.4403086749662146e7 0.0
1.4403086749662146e7 -67614.78710768861 0.0
0.0 0.0 0.0

-2.5386306637312295e6 7.812166395145996e6 0.0
7.812166395145996e6 -737830.1784627623 0.0
0.0 0.0 0.0

-2.3356345741547425e6 3.2194553811432356e6 0.0
3.2194553811432356e6 1.9389594195511e6 0.0
0.0 0.0 0.0

-5.6174448533684e6 1.193923631495359e7 0.0
1.193923631495359e7 5.726733629397031e6 0.0
0.0 0.0 0.0

-4.761229140211621e6 1.317374707778879e7 0.0
1.317374707778879e7 3.5947933487679027e6 0.0
0.0 0.0 0.0

910159.2186595385 6.419386825014223e6 0.0
6.419386825014223e6 -5.913318772232473e6 0.0
0.0 0.0 0.0

-5.742256882446668e6 1.0604708041298596e7 0.0
1.0604708041298596e7 6.11449517946055e6 0.0
0.0 0.0 0.0

-3.668271225675059e6 1.4849712316931406e7 0.0
1.4849712316931406e7 -912398.800077547 0.0
0.0 0.0 0.0

3.960011452502406e6 7.897494913610793e6 0.0
7.897494913610793e6 -1.4648332844755646e7 0.0
0.0 0.0 0.0

-5.286056412086109e6 1.6341715913178943e7 0.0
1.6341715913178943e7 3.5032094307229863e6 0.0
0.0 0.0 0.0

-2.5667221967296605e6 1.2927299505402768e7 0.0
1.2927299505402768e7 -2.790114337382793e6 0.0
0.0 0.0 0.0

2.258299293785233e6 4.510223769106913e6 0.0
4.510223769106913e6 -5.60048490027863e6 0.0
0.0 0.0 0.0

-5.955933084792164e6 1.7769422699948505e7 0.0
1.7769422699948505e7 6.385004466887806e6 0.0
0.0 0.0 0.0

-8.45191158890373e6 5.641109075037469e6 0.0
5.641109075037469e6 9.155919577308863e6 0.0
0.0 0.0 0.0

-2.878134604365643e6 1.2394909591129819e7 0.0
1.2394909591129819e7 -2.01914342096001e6 0.0
0.0 0.0 0.0

-3.398576679147024e6 1.568604780816908e7 0.0
1.568604780816908e7 -24187.09726204467 0.0
0.0 0.0 0.0

-4.529576431023384e6 1.602233073129987e7 0.0
1.602233073129987e7 997066.9194714106 0.0
0.0 0.0 0.0

-3.2844087635687944e6 1.4528941862930626e7 0.0
1.4528941862930626e7 -1.7036259745673495e6 0.0
0.0 0.0 0.0

-3.737298986016919e6 1.4540518776076568e7 0.0
1.4540518776076568e7 935163.270849633 0.0
0.0 0.0 0.0

2.936000441006369e6 4.571094427693451e6 0.0
4.571094427693451e6 -7.6561516143725775e6 0.0
0.0 0.0 0.0

-3.9738414636049746e6 1.7526341710263662e7 0.0
1.7526341710263662e7 -405768.2769994264 0.0
0.0 0.0 0.0

-5.015416883316472e6 1.512609694117841e7 0.0
1.512609694117841e7 -2.6989141977554016e7 0.0
0.0 0.0 0.0

5.272994473898352e6 1.4486639575978568e7 0.0
1.4486639575978568e7 3.264626460138461e7 0.0
0.0 0.0 0.0

1.0084632833964378e6 1.1165555250372736e7 0.0
1.1165555250372736e7 -1.0862544954888571e7 0.0
0.0 0.0 0.0

-2.147745327969015e6 1.4240127334775835e7 0.0
1.4240127334775835e7 -2.674360366291061e6 0.0
0.0 0.0 0.0

-691528.0406079637 1.1466017136345038e7 0.0
1.1466017136345038e7 -1.1736443614860015e7 0.0
0.0 0.0 0.0

-2.2798362370775677e6 1.2365644524913633e7 0.0
1.2365644524913633e7 -3.1713555543214823e6 0.0
0.0 0.0 0.0

-679715.5266768618 1.4376614008332564e7 0.0
1.4376614008332564e7 -7.493423702620708e6 0.0
0.0 0.0 0.0

-1.418082399209748e6 1.17589283544025e7 0.0
1.17589283544025e7 -4.666301364869188e6 0.0
0.0 0.0 0.0

-4.188979980788032e6 1.4186366646377621e7 0.0
1.4186366646377621e7 345498.6291781452 0.0
0.0 0.0 0.0

4.325478343132714e6 8.11773689075669e6 0.0
8.11773689075669e6 -2.3456270567735124e7 0.0
0.0 0.0 0.0

-5.758224154570065e6 1.552013413124741e7 0.0
1.552013413124741e7 2.493010981019708e6 0.0
0.0 0.0 0.0

-5.996975742161526e6 1.4467062683882436e7 0.0
1.4467062683882436e7 4.4125807431166405e6 0.0
0.0 0.0 0.0

-1.112085507050663e6 1.18823138619884e7 0.0
1.18823138619884e7 -3.6768585323282387e6 0.0
0.0 0.0 0.0

2.184437921242523e6 9.871533911941139e6 0.0
9.871533911941139e6 -1.3534204910022698e7 0.0
0.0 0.0 0.0

5.880465213920496e6 1.4445440801337687e7 0.0
1.4445440801337687e7 1.960154905537582e7 0.0
0.0 0.0 0.0

-1.8672835469371844e6 1.454421503699597e7 0.0
1.454421503699597e7 -4.3716320607422e6 0.0
0.0 0.0 0.0

-2.4070180274579655e7 3.17155142138293e7 0.0
3.17155142138293e7 2.1984405195635986e6 0.0
0.0 0.0 0.0

1.286437899117244e6 1.0823671129735868e7 0.0
1.0823671129735868e7 -1.1514831098884251e7 0.0
0.0 0.0 0.0

-2.5954149589172746e6 1.4379237496607343e7 0.0
1.4379237496607343e7 -1.4961980116743864e6 0.0
0.0 0.0 0.0

2.7866320791049683e6 4.625154292285233e6 0.0
4.625154292285233e6 -7.128948536185684e6 0.0
0.0 0.0 0.0

3.704465577285571e6 7.357911056610331e6 0.0
7.357911056610331e6 -1.4484999845015742e7 0.0
0.0 0.0 0.0

-3.849861511975339e6 1.5863706457141157e7 0.0
1.5863706457141157e7 1.2335945668822108e6 0.0
0.0 0.0 0.0

-1.7737779034305643e6 1.2663606044537209e7 0.0
1.2663606044537209e7 -1.830019897665099e7 0.0
0.0 0.0 0.0

-1.5391803430124437e6 1.219166674106294e7 0.0
1.219166674106294e7 -2.9253984378831466e6 0.0
0.0 0.0 0.0

1.229624302301818e6 9.37577771222942e6 0.0
9.37577771222942e6 -7.105260446259322e6 0.0
0.0 0.0 0.0

-3.2818783849870954e6 1.0554522686838748e7 0.0
1.0554522686838748e7 1.4051219086179025e6 0.0
0.0 0.0 0.0

1.6261970232847608e6 1.0508849735304106e7 0.0
1.0508849735304106e7 -1.2216476747427009e7 0.0
0.0 0.0 0.0

-3.91185854155947e6 1.0041680423956791e7 0.0
1.0041680423956791e7 631065.2346649899 0.0
0.0 0.0 0.0

235866.15847115545 1.2673780182128474e7 0.0
1.2673780182128474e7 -1.0755533749891238e7 0.0
0.0 0.0 0.0

-1.3508991666944228e7 1.9970184686232816e7 0.0
1.9970184686232816e7 2.3362825308905365e6 0.0
0.0 0.0 0.0

-1.8170936487995638e6 839427.0629883463 0.0
839427.0629883463 1.3243740564126438e6 0.0
0.0 0.0 0.0

-4.130979413856188e6 1.0330724068405427e7 0.0
1.0330724068405427e7 3.001397315188004e6 0.0
0.0 0.0 0.0

-3.5369313739678427e6 1.4778618431285094e7 0.0
1.4778618431285094e7 528476.7952857486 0.0
0.0 0.0 0.0

-1.0692134760173945e7 -3.419994042831186e6 0.0
-3.419994042831186e6 2.7108974359261e7 0.0
0.0 0.0 0.0

-1.3912016958737387e6 1.3974528390398405e7 0.0
1.3974528390398405e7 5.205062147986007e6 0.0
0.0 0.0 0.0

-1.850371703311129e6 1.2060023778775524e7 0.0
1.2060023778775524e7 -3.930441707413494e6 0.0
0.0 0.0 0.0

-1.0959122252778425e6 1.426897266029109e7 0.0
1.426897266029109e7 -6.352124140895367e6 0.0
0.0 0.0 0.0

-1.3604279450172628e6 1.2927294603386475e7 0.0
1.2927294603386475e7 -5.390332751589603e6 0.0
0.0 0.0 0.0

-912989.1254579575 1.0267192990879923e7 0.0
1.0267192990879923e7 -4.994616564502154e6 0.0
0.0 0.0 0.0

-2.5352657978123934e6 1.3887302971672876e7 0.0
1.3887302971672876e7 -3.227205057513372e6 0.0
0.0 0.0 0.0

-6.704780723975477e6 1.295646330354323e7 0.0
1.295646330354323e7 8.393586794358414e6 0.0
0.0 0.0 0.0

-3.577547720832775e6 1.2795248529083338e7 0.0
1.2795248529083338e7 1.1389206391387195e6 0.0
0.0 0.0 0.0

-3.0265153084989586e6 1.2095452351253571e7 0.0
1.2095452351253571e7 -1.6253856496909629e6 0.0
0.0 0.0 0.0

4.475809929664904e6 7.193762975866737e6 0.0
7.193762975866737e6 -1.7702816344588142e7 0.0
0.0 0.0 0.0

-6.006107545513973e6 1.8127686442499522e7 0.0
1.8127686442499522e7 6.610715091724345e6 0.0
0.0 0.0 0.0

-638497.6258811275 4.14865884197219e6 0.0
4.14865884197219e6 -661531.6462652971 0.0
0.0 0.0 0.0

-6.436850652504994e6 1.2695045115057189e7 0.0
1.2695045115057189e7 7.614064979459949e6 0.0
0.0 0.0 0.0

721863.4316293094 9.426533291536344e6 0.0
9.426533291536344e6 -6.0903427300022645e6 0.0
0.0 0.0 0.0

4.31064726144737e6 5.255601992423941e6 0.0
5.255601992423941e6 -1.2258337322660243e7 0.0
0.0 0.0 0.0

1.900767572371222e6 1.0160635598849904e7 0.0
1.0160635598849904e7 -1.2920700328407157e7 0.0
0.0 0.0 0.0

-1.532472315409909e6 6.255016413569504e6 0.0
6.255016413569504e6 -1.6891305685369326e6 0.0
0.0 0.0 0.0

-1.2793524015010312e7 7.4304146708916845e6 0.0
7.4304146708916845e6 1.5798057171041751e7 0.0
0.0 0.0 0.0

-2.4183822385646193e6 1.3172146658755114e7 0.0
1.3172146658755114e7 -3.19010292170933e6 0.0
0.0 0.0 0.0

-1.1196134315180108e6 1.1710261036511562e6 0.0
1.1710261036511562e6 1.3232559250547662e6 0.0
0.0 0.0 0.0

-3.4759053336800695e6 9.288603257177442e6 0.0
9.288603257177442e6 188484.95813263254 0.0
0.0 0.0 0.0

-1.3970325351600877e6 1.4605366296898862e7 0.0
1.4605366296898862e7 -5.524208903080076e6 0.0
0.0 0.0 0.0

182216.07730279816 1.2487649573471328e7 0.0
1.2487649573471328e7 -1.1783075545263354e7 0.0
0.0 0.0 0.0

1.3530339159796117e6 9.461282872329865e6 0.0
9.461282872329865e6 -9.347211206711939e6 0.0
0.0 0.0 0.0

232562.85861865687 7.751110065233121e6 0.0
7.751110065233121e6 -5.47587751639798e6 0.0
0.0 0.0 0.0

-1.8314662327399394e6 1.2761784870400665e7 0.0
1.2761784870400665e7 -2.5578069919618326e6 0.0
0.0 0.0 0.0

-7.365524246657534e6 1.4046095243587252e7 0.0
1.4046095243587252e7 1.274169084918987e7 0.0
0.0 0.0 0.0

-4.352895626389166e6 1.6134766655422918e7 0.0
1.6134766655422918e7 571642.35886195 0.0
0.0 0.0 0.0

-8.632009023563385e6 1.2779626342742916e7 0.0
1.2779626342742916e7 1.113655547200735e7 0.0
0.0 0.0 0.0

-6.382923891308088e6 1.4867400275577312e7 0.0
1.4867400275577312e7 7.641347202083671e6 0.0
0.0 0.0 0.0

410826.17043117015 8.584975505855229e6 0.0
8.584975505855229e6 -6.3861168750415575e6 0.0
0.0 0.0 0.0

-2.9212259879150316e6 9.80252515343182e6 0.0
9.80252515343182e6 959287.3079790983 0.0
0.0 0.0 0.0

-2.4955640812945096e6 1.3914636891346773e7 0.0
1.3914636891346773e7 5.525247680265423e6 0.0
0.0 0.0 0.0

-1.3328135322880133e6 1.0593705196587536e7 0.0
1.0593705196587536e7 -4.26761680509033e6 0.0
0.0 0.0 0.0

1.5035793621539949e6 1.1345652457666298e7 0.0
1.1345652457666298e7 -1.429857837337314e7 0.0
0.0 0.0 0.0

-2.1096884828985254e6 1.3313590381720714e7 0.0
1.3313590381720714e7 -2.1904893848405397e6 0.0
0.0 0.0 0.0

677791.8191908649 1.147205765474024e7 0.0
1.147205765474024e7 -1.0212030079807183e7 0.0
0.0 0.0 0.0

-3.1094125729125133e6 1.1035370576260434e7 0.0
1.1035370576260434e7 866646.6492820797 0.0
0.0 0.0 0.0

-2.819730346901602e6 1.2068027044178827e7 0.0
1.2068027044178827e7 -1.3994080225677462e7 0.0
0.0 0.0 0.0

-2.36317087681796e6 1.385335281205945e7 0.0
1.385335281205945e7 -1.8468390725289695e6 0.0
0.0 0.0 0.0

2.6485162335120896e6 1.2989805105860228e7 0.0
1.2989805105860228e7 -3.114250315281424e6 0.0
0.0 0.0 0.0

-1.1059032005470332e7 -1.308385127712385e6 0.0
-1.308385127712385e6 2.653054088050567e7 0.0
0.0 0.0 0.0

-9.033620865376912e6 2.2013564123690017e7 0.0
2.2013564123690017e7 7.521252487327965e6 0.0
0.0 0.0 0.0

-3.811100672138961e6 1.4611037266332759e7 0.0
1.4611037266332759e7 4.950804100380945e6 0.0
0.0 0.0 0.0

-1.2153524679071069e7 9.00362289350779e6 0.0
9.00362289350779e6 1.6700422500395304e7 0.0
0.0 0.0 0.0

-6.0246183089575935e6 1.660357423797773e7 0.0
1.660357423797773e7 7.140966651470639e6 0.0
0.0 0.0 0.0

-2.4840064512305288e6 1.1213203021842962e7 0.0
1.1213203021842962e7 -497244.5895922793 0.0
0.0 0.0 0.0

-993343.6136190474 1.2144970905528106e7 0.0
1.2144970905528106e7 -4.0604382181612235e6 0.0
0.0 0.0 0.0

-1.6873783273895073e6 1.3009212167333238e7 0.0
1.3009212167333238e7 -2.9529242366636833e6 0.0
0.0 0.0 0.0

-417852.1076063488 8.148150690455128e6 0.0
8.148150690455128e6 -2.7647158807431585e6 0.0
0.0 0.0 0.0

-1.7266884359125698e6 1.4943405385456206e7 0.0
1.4943405385456206e7 -4.74347326468462e6 0.0
0.0 0.0 0.0

3.4468260319983438e6 6.576728173013998e6 0.0
6.576728173013998e6 -1.1938308494620811e7 0.0
0.0 0.0 0.0

1.7296225643677642e6 6.210851722287466e6 0.0
6.210851722287466e6 -7.37740764916602e6 0.0
0.0 0.0 0.0

-6.706513327254381e6 1.455200568410924e7 0.0
1.455200568410924e7 8.78547177858224e6 0.0
0.0 0.0 0.0

-3.9937760949889175e6 1.5831717213003067e7 0.0
1.5831717213003067e7 -229731.45197824086 0.0
0.0 0.0 0.0

1.884911614203181e6 1.3531487017242359e7 0.0
1.3531487017242359e7 -4.286799028964706e6 0.0
0.0 0.0 0.0

-8.883316613956263e6 1.7309512516786296e7 0.0
1.7309512516786296e7 5.255204836316459e6 0.0
0.0 0.0 0.0

2.410513757193766e6 6.070258107203859e6 0.0
6.070258107203859e6 -9.1367170667515e6 0.0
0.0 0.0 0.0

-1.7983366431198511e6 1.0872888439801607e7 0.0
1.0872888439801607e7 -3.546779928258808e6 0.0
0.0 0.0 0.0

1.933776089952391e7 1.1398764466223633e7 0.0
1.1398764466223633e7 -470243.6824916452 0.0
0.0 0.0 0.0

319186.44504507 7.990537267030864e6 0.0
7.990537267030864e6 -5.976359889090092e6 0.0
0.0 0.0 0.0

3.8593455316817695e6 6.696331460467725e6 0.0
6.696331460467725e6 -1.390720443621683e7 0.0
0.0 0.0 0.0

-9.943299144615237e6 1.250118112785133e7 0.0
1.250118112785133e7 1.4577210842498763e7 0.0
0.0 0.0 0.0

623106.9153654594 1.2093887393264519e7 0.0
1.2093887393264519e7 -1.104844664482237e7 0.0
0.0 0.0 0.0

-5.878137624537725e6 7.277157129547599e6 0.0
7.277157129547599e6 7.822001161966269e6 0.0
0.0 0.0 0.0

-1.1213379581186771e7 2.1270299785119187e7 0.0
2.1270299785119187e7 8.387527857283246e6 0.0
0.0 0.0 0.0

-9.421073960520124e6 1.2608008065961717e7 0.0
1.2608008065961717e7 1.4015645581021339e7 0.0
0.0 0.0 0.0

-5.933298885213273e6 1.7028700056339614e7 0.0
1.7028700056339614e7 7.121951791984869e6 0.0
0.0 0.0 0.0

-9.635985079481028e6 1.8736894501480196e7 0.0
1.8736894501480196e7 3.1891876728050546e6 0.0
0.0 0.0 0.0

-3.6418432554612067e6 1.2073336204759544e7 0.0
1.2073336204759544e7 -384047.4171601812 0.0
0.0 0.0 0.0

2.0542342742565434e7 5.837362284553174e6 0.0
5.837362284553174e6 -3.657753740734335e6 0.0
0.0 0.0 0.0

-1.1409775169355967e6 1.3315333893512852e7 0.0
1.3315333893512852e7 -4.91335241427294e6 0.0
0.0 0.0 0.0

-1.0225611673543102e6 9.060665398834113e6 0.0
9.060665398834113e6 -1.5456288097159155e6 0.0
0.0 0.0 0.0

-2.0813731935762311e6 1.5267337379722213e7 0.0
1.5267337379722213e7 -3.9332885622928333e6 0.0
0.0 0.0 0.0

-5.146090200965997e6 1.5678906056832064e7 0.0
1.5678906056832064e7 -1.4161307384579047e6 0.0
0.0 0.0 0.0

501285.9713429243 7.57145822937527e6 0.0
7.57145822937527e6 -4.025137065246431e6 0.0
0.0 0.0 0.0

-5.407705028557899e6 1.4677468152542038e7 0.0
1.4677468152542038e7 8.372045685232383e6 0.0
0.0 0.0 0.0

-258344.11960103502 1.160027028198094e7 0.0
1.160027028198094e7 -1.1530804771909399e7 0.0
0.0 0.0 0.0

-1.144936055628116e7 600648.7620161036 0.0
600648.7620161036 1.4884336023116581e7 0.0
0.0 0.0 0.0

-4.1853162469107793e6 1.5659674742206017e7 0.0
1.5659674742206017e7 176168.39758913522 0.0
0.0 0.0 0.0

-2.3698615614275862e6 1.1582853127685582e7 0.0
1.1582853127685582e7 -923891.903672955 0.0
0.0 0.0 0.0

-3.690579902183294e6 1.6013611795524582e7 0.0
1.6013611795524582e7 731876.952600714 0.0
0.0 0.0 0.0

-146751.9019692291 1.2213511887195226e7 0.0
1.2213511887195226e7 -6.573248569989356e6 0.0
0.0 0.0 0.0

-2.2569397137441495e6 6.540463925111859e6 0.0
6.540463925111859e6 1.0274349242992771e6 0.0
0.0 0.0 0.0

-6.008269683708515e6 1.6588108144239496e7 0.0
1.6588108144239496e7 5.273510388514737e6 0.0
0.0 0.0 0.0

-6.769849589346578e6 1.427677816433108e7 0.0
1.427677816433108e7 1.0233666645051192e7 0.0
0.0 0.0 0.0

-6.473534063993324e6 1.4180400105267815e7 0.0
1.4180400105267815e7 7.710956569656539e6 0.0
0.0 0.0 0.0

-613480.2529079713 1.040098302368274e7 0.0
1.040098302368274e7 -3.9825864843076114e6 0.0
0.0 0.0 0.0

2.66194885942482e6 9.540273476257887e6 0.0
9.540273476257887e6 -1.516301421719701e7 0.0
0.0 0.0 0.0

-4.381871385210709e6 1.3013668203873396e7 0.0
1.3013668203873396e7 821241.1839412067 0.0
0.0 0.0 0.0

-728068.9853792232 1.3128075367668508e7 0.0
1.3128075367668508e7 -7.943060025836049e6 0.0
0.0 0.0 0.0

-414543.39559923764 1.207527498683253e7 0.0
1.207527498683253e7 -7.441073614430639e6 0.0
0.0 0.0 0.0

-3.289731497776186e6 1.6004831425309293e7 0.0
1.6004831425309293e7 -2.1712922761339005e6 0.0
0.0 0.0 0.0

-1.6667343549913068e6 1.344945070248873e7 0.0
1.344945070248873e7 -4.9587780938653825e6 0.0
0.0 0.0 0.0

2.1208216850191196e6 9.636060066588705e6 0.0
9.636060066588705e6 -1.2337675401607696e7 0.0
0.0 0.0 0.0

1.634605870962675e6 6.2285029951610295e6 0.0
6.2285029951610295e6 -5.62981487139416e6 0.0
0.0 0.0 0.0

-134078.51480083173 5.784312862009667e6 0.0
5.784312862009667e6 -2.0259400845477271e6 0.0
0.0 0.0 0.0

-4.579316320974913e6 2.038844493888392e7 0.0
2.038844493888392e7 2.912310958856959e6 0.0
0.0 0.0 0.0

-4.1238337656617966e6 1.2359892865722043e7 0.0
1.2359892865722043e7 456776.17494279216 0.0
0.0 0.0 0.0

-2.440678907947738e6 1.4082792155138155e7 0.0
1.4082792155138155e7 -3.6159009056320735e6 0.0
0.0 0.0 0.0

3.3094146449523917e6 5.088268529891746e6 0.0
5.088268529891746e6 -8.996402085673196e6 0.0
0.0 0.0 0.0

-1.2182923706826396e7 976234.7820301105 0.0
976234.7820301105 2.6158331171531506e7 0.0
0.0 0.0 0.0

2.1425831094661835e6 8.134478082819913e6 0.0
8.134478082819913e6 -9.903858859475818e6 0.0
0.0 0.0 0.0

-941116.2044854965 1.685506167480597e7 0.0
1.685506167480597e7 -4.682493133291512e6 0.0
0.0 0.0 0.0

-3.0390311081053494e6 1.699217942583503e7 0.0
1.699217942583503e7 -1.6475633731076466e6 0.0
0.0 0.0 0.0

-5.876867912976604e6 1.6821833823882733e7 0.0
1.6821833823882733e7 4.8026961221781e6 0.0
0.0 0.0 0.0

4.984153895543652e6 5.112792427669381e6 0.0
5.112792427669381e6 -1.5512622834448697e7 0.0
0.0 0.0 0.0

-2.4656677133892453e6 1.4572146910066599e7 0.0
1.4572146910066599e7 -1.916912526853956e6 0.0
0.0 0.0 0.0

-2.59835431724973e6 1.5326425537512379e7 0.0
1.5326425537512379e7 -2.349806105999111e6 0.0
0.0 0.0 0.0

3.886521426821285e6 7.073246586492613e6 0.0
7.073246586492613e6 -1.5034708876066223e7 0.0
0.0 0.0 0.0

-4.02322937621926e6 1.7031827047734134e7 0.0
1.7031827047734134e7 11237.898447531741 0.0
0.0 0.0 0.0

-45998.66245017992 1.4425740598310193e7 0.0
1.4425740598310193e7 -6.502595513932867e6 0.0
0.0 0.0 0.0

-2.901735498459454e6 1.4209313487241043e7 0.0
1.4209313487241043e7 -2.4798372806294803e6 0.0
0.0 0.0 0.0

1.4789179324054979e6 1.1622837199589228e7 0.0
1.1622837199589228e7 -1.5044990970740661e7 0.0
0.0 0.0 0.0

1.9966815163536319e6 6.463189738240565e6 0.0
6.463189738240565e6 -8.545165756139249e6 0.0
0.0 0.0 0.0

922484.8827898107 9.251105268355248e6 0.0
9.251105268355248e6 -8.13210433449659e6 0.0
0.0 0.0 0.0

-2.2176522108747405e6 1.467016872869646e7 0.0
1.467016872869646e7 -3.8119925406705975e6 0.0
0.0 0.0 0.0

-498249.28237134125 1.4501603460611572e7 0.0
1.4501603460611572e7 -7.082136324963592e6 0.0
0.0 0.0 0.0

-2.0261679766490671e6 1.3714366599851577e7 0.0
1.3714366599851577e7 -4.30985352558548e6 0.0
0.0 0.0 0.0

2.779245872517671e6 6.955653256298409e6 0.0
6.955653256298409e6 -8.630862107284414e6 0.0
0.0 0.0 0.0

4.690970126175751e6 5.782233251623327e6 0.0
5.782233251623327e6 -1.367271439821662e7 0.0
0.0 0.0 0.0

-32539.052060065325 1.2111900779392729e7 0.0
1.2111900779392729e7 -8.838153638293283e6 0.0
0.0 0.0 0.0

499021.7795851417 9.602773375045342e6 0.0
9.602773375045342e6 -7.451816077420933e6 0.0
0.0 0.0 0.0

-3.3077861484968024e6 1.1419391956090674e7 0.0
1.1419391956090674e7 -786596.573689541 0.0
0.0 0.0 0.0

-7.982759343928531e6 1.775475977791403e7 0.0
1.775475977791403e7 5.9503308803131115e6 0.0
0.0 0.0 0.0

-7.641295753499616e6 1.0890805439575389e7 0.0
1.0890805439575389e7 4.536416966563863e7 0.0
0.0 0.0 0.0

-1.1237776840888001e7 1.1938471708409844e6 0.0
1.1938471708409844e6 1.3641615227994356e7 0.0
0.0 0.0 0.0

-2.7988582627578373e6 1.6140828752616104e7 0.0
1.6140828752616104e7 -3.982674287659655e6 0.0
0.0 0.0 0.0

-3.810476127853591e6 1.1699487499594143e7 0.0
1.1699487499594143e7 57387.5148783715 0.0
0.0 0.0 0.0

-1.1759225720292306e7 2.753783629507808e6 0.0
2.753783629507808e6 2.054030825724285e7 0.0
0.0 0.0 0.0

4.35359551165913e6 5.846669579246872e6 0.0
5.846669579246872e6 -1.2625454192966536e7 0.0
0.0 0.0 0.0

-3.7447326526496313e6 1.2451031580295932e7 0.0
1.2451031580295932e7 1.7066066493729746e6 0.0
0.0 0.0 0.0

838190.7722363123 1.190321977935371e7 0.0
1.190321977935371e7 -1.2086859039624825e7 0.0
0.0 0.0 0.0

-2.3654847238491564e6 1.565683189449524e7 0.0
1.565683189449524e7 -3.1816227511641993e6 0.0
0.0 0.0 0.0

-2.3434227441447005e6 1.4732051631646946e7 0.0
1.4732051631646946e7 -2.32498312114734e6 0.0
0.0 0.0 0.0

-5.248985105907956e6 1.058848646531896e7 0.0
1.058848646531896e7 2.659530745889334e6 0.0
0.0 0.0 0.0

-2.123965645925045e6 1.2203813143701438e7 0.0
1.2203813143701438e7 -1.751977516136662e6 0.0
0.0 0.0 0.0

-3.998018704840663e6 6.9515586322192745e6 0.0
6.9515586322192745e6 1.775605034477495e6 0.0
0.0 0.0 0.0

-2.9501072985352937e7 1.5008577604988927e7 0.0
1.5008577604988927e7 1.0797130307156427e7 0.0
0.0 0.0 0.0

-1.2791444525718568e6 1.3290966097367423e7 0.0
1.3290966097367423e7 6.704070952383908e6 0.0
0.0 0.0 0.0

-6.369567693034168e6 1.5608939559870297e7 0.0
1.5608939559870297e7 8.0706612688819785e6 0.0
0.0 0.0 0.0

-4.424916540628924e6 1.7135763480277117e7 0.0
1.7135763480277117e7 2.597677534326045e6 0.0
0.0 0.0 0.0

2.662284130108915e6 8.071081924715661e6 0.0
8.071081924715661e6 -1.1667578525627567e7 0.0
0.0 0.0 0.0

3.56439058053019e6 7.281953834734494e6 0.0
7.281953834734494e6 -1.3717336826139877e7 0.0
0.0 0.0 0.0

3.954669990598646e6 8.218292281537488e6 0.0
8.218292281537488e6 -1.578015448625293e7 0.0
0.0 0.0 0.0

-4.281270146169385e6 1.0806695241708178e7 0.0
1.0806695241708178e7 1.0465495801568117e6 0.0
0.0 0.0 0.0

-1.2329392225524474e7 6.628047098867517e6 0.0
6.628047098867517e6 1.4702531002256352e7 0.0
0.0 0.0 0.0

-3.5484144267658135e6 7.622203571074391e6 0.0
7.622203571074391e6 2.75599439343278e6 0.0
0.0 0.0 0.0

1.0303612181191198e6 1.4003567619465614e7 0.0
1.4003567619465614e7 -5.155803193641146e6 0.0
0.0 0.0 0.0

78036.77957019443 1.1730354179612055e7 0.0
1.1730354179612055e7 -1.1097396311269514e7 0.0
0.0 0.0 0.0

-6.130513432452375e6 1.694311032405261e7 0.0
1.694311032405261e7 6.371086750102054e6 0.0
0.0 0.0 0.0

-2.7066652730078697e6 2.01489458758309e7 0.0
2.01489458758309e7 -1.0537526361340652e6 0.0
0.0 0.0 0.0

-7.158755355806917e6 1.799938859768379e7 0.0
1.799938859768379e7 6.3256251179714855e6 0.0
0.0 0.0 0.0

-7.551463599629678e6 1.3224605843732668e7 0.0
1.3224605843732668e7 1.1709147147830434e7 0.0
0.0 0.0 0.0

4.614806564406626e6 6.852816336610889e6 0.0
6.852816336610889e6 -2.346768950452522e7 0.0
0.0 0.0 0.0

-149293.23452748358 1.1739184627128283e7 0.0
1.1739184627128283e7 -5.911765385783478e6 0.0
0.0 0.0 0.0

3.185263165050291e6 4.6639875123108085e6 0.0
4.6639875123108085e6 -8.083393068546194e6 0.0
0.0 0.0 0.0

4.354692053115428e6 7.455223154440834e6 0.0
7.455223154440834e6 -1.6085437879488286e7 0.0
0.0 0.0 0.0

-5.715825912711242e6 1.7052354296951257e7 0.0
1.7052354296951257e7 4.3296016298606265e6 0.0
0.0 0.0 0.0

-9.847285512852209e6 7.231514470495489e6 0.0
7.231514470495489e6 1.393579172037416e7 0.0
0.0 0.0 0.0

-8.247760731778462e6 1.2703704665017169e7 0.0
1.2703704665017169e7 1.272605196184711e7 0.0
0.0 0.0 0.0

-6.137042816313424e6 1.604411496107723e7 0.0
1.604411496107723e7 7.865066590638762e6 0.0
0.0 0.0 0.0

2.4395457751709837e6 8.249433474793189e6 0.0
8.249433474793189e6 -8.931377696775096e6 0.0
0.0 0.0 0.0

-2.265466361618605e6 1.629085291126472e7 0.0
1.629085291126472e7 -2.599051430299726e6 0.0
0.0 0.0 0.0

-4.506274332719226e6 2.021644419664446e7 0.0
2.021644419664446e7 1.7141897624167001e6 0.0
0.0 0.0 0.0

-5.816693535065249e6 1.7876926651593734e7 0.0
1.7876926651593734e7 5.6602451284454e6 0.0
0.0 0.0 0.0

-8.534814402200421e6 1.276160143791832e7 0.0
1.276160143791832e7 1.3295374376532001e7 0.0
0.0 0.0 0.0

-1.7789657083604332e7 3.5451499154687576e7 0.0
3.5451499154687576e7 -1.0717985830025893e7 0.0
0.0 0.0 0.0

-3.6954386161824097e6 1.5438328554253979e7 0.0
1.5438328554253979e7 -3.144295594152714e6 0.0
0.0 0.0 0.0

-6.547158879434859e6 1.2260952537695002e7 0.0
1.2260952537695002e7 5.231997160317164e6 0.0
0.0 0.0 0.0

-3.429574307862619e6 3.8920772090975535e6 0.0
3.8920772090975535e6 2.317901376533091e6 0.0
0.0 0.0 0.0

-1.4045431934273974e6 1.2457184178705879e7 0.0
1.2457184178705879e7 -3.315035299339006e6 0.0
0.0 0.0 0.0

-3.4497496621176647e6 1.609976079103204e7 0.0
1.609976079103204e7 -1.8294835849599317e6 0.0
0.0 0.0 0.0

-8.495662020666113e6 2.1302791023308106e7 0.0
2.1302791023308106e7 7.062736798705129e6 0.0
0.0 0.0 0.0

-1.7343675811121226e6 1.4069447295934133e7 0.0
1.4069447295934133e7 -3.7327457900654115e6 0.0
0.0 0.0 0.0

-2.8922161134171914e6 1.4978248543226223e7 0.0
1.4978248543226223e7 -2.8463863492794335e6 0.0
0.0 0.0 0.0

-7.776272923771394e6 1.5178500571142002e6 0.0
1.5178500571142002e6 1.0422904787591588e7 0.0
0.0 0.0 0.0

3.9818255588224065e6 6.293777723400701e6 0.0
6.293777723400701e6 -1.1492724514865078e7 0.0
0.0 0.0 0.0

-4.052962770346433e6 1.9700454660171855e7 0.0
1.9700454660171855e7 2.0020860943690378e6 0.0
0.0 0.0 0.0

-7.153838892315712e6 1.377940431952573e7 0.0
1.377940431952573e7 1.095263050601201e7 0.0
0.0 0.0 0.0

-5.838071266444187e6 1.6436324276208164e7 0.0
1.6436324276208164e7 -205660.5421982275 0.0
0.0 0.0 0.0

82269.3948012595 5.567582747878657e6 0.0
5.567582747878657e6 -3.8095349829965415e6 0.0
0.0 0.0 0.0

-4.190774696322293e6 1.7207481239419762e7 0.0
1.7207481239419762e7 -2.677854010491496e6 0.0
0.0 0.0 0.0

-2.765835508341495e6 1.4379614918429604e7 0.0
1.4379614918429604e7 -2.8742933301672377e6 0.0
0.0 0.0 0.0

323344.11164551554 1.1797225982880134e7 0.0
1.1797225982880134e7 -9.52456751098244e6 0.0
0.0 0.0 0.0

-1.978868735469348e6 1.3541959423596352e7 0.0
1.3541959423596352e7 -2.6037647959918217e6 0.0
0.0 0.0 0.0

2.1328518960863636e6 8.452290979990575e6 0.0
8.452290979990575e6 -1.0207037096225375e7 0.0
0.0 0.0 0.0

-3.469934864522769e6 1.3994375856164645e7 0.0
1.3994375856164645e7 610042.0077197156 0.0
0.0 0.0 0.0

-3.477442419355104e6 4.7304656031503845e6 0.0
4.7304656031503845e6 1.945129467001195e6 0.0
0.0 0.0 0.0

-7.05012852838769e6 8.571425506206477e6 0.0
8.571425506206477e6 9.515465859017711e6 0.0
0.0 0.0 0.0

-4.783096362727482e6 1.0669772286441537e7 0.0
1.0669772286441537e7 4.198857560571223e6 0.0
0.0 0.0 0.0

-2.2134950918685575e6 1.1246866340866894e7 0.0
1.1246866340866894e7 -1.02632227658816e7 0.0
0.0 0.0 0.0

-3.868632696454319e6 1.0826223292693334e7 0.0
1.0826223292693334e7 2.4202893884240948e6 0.0
0.0 0.0 0.0

-2.1887075375403907e7 1.8686910982107855e7 0.0
1.8686910982107855e7 7.132819937527165e6 0.0
0.0 0.0 0.0

-4.368453992627089e6 1.1987002971646529e7 0.0
1.1987002971646529e7 935801.4392597694 0.0
0.0 0.0 0.0

-514507.1720219774 1.4268851893069347e7 0.0
1.4268851893069347e7 -1.8567309040268266e6 0.0
0.0 0.0 0.0

-3.2940058942648232e7 1.365801785902318e7 0.0
1.365801785902318e7 8.826535189573703e6 0.0
0.0 0.0 0.0

501400.72269313084 1.4301078427699331e7 0.0
1.4301078427699331e7 -5.938467945271184e6 0.0
0.0 0.0 0.0

-2.9574257906772876e6 1.1481714869572876e7 0.0
1.1481714869572876e7 367262.2808856919 0.0
0.0 0.0 0.0

1.6432998040547748e6 8.99447957505283e6 0.0
8.99447957505283e6 -7.731318213154243e6 0.0
0.0 0.0 0.0

-4.668380343948608e6 1.744989524738248e7 0.0
1.744989524738248e7 3.2555642222914454e6 0.0
0.0 0.0 0.0

1.7509286581706014e6 9.364172768927457e6 0.0
9.364172768927457e6 -1.0243000343049875e7 0.0
0.0 0.0 0.0

1.6247435259851003e6 9.922554456563275e6 0.0
9.922554456563275e6 -1.084925178037912e7 0.0
0.0 0.0 0.0

-2.588820947653833e6 6.596620959788268e6 0.0
6.596620959788268e6 -108238.33812908898 0.0
0.0 0.0 0.0

-6.829602195728926e6 1.4224457281981157e7 0.0
1.4224457281981157e7 6.512846337932121e6 0.0
0.0 0.0 0.0

4.162991082479609e6 7.1368935065495325e6 0.0
7.1368935065495325e6 -1.4133729642808022e7 0.0
0.0 0.0 0.0

-6.035910640343583e6 4.911422517359478e6 0.0
4.911422517359478e6 7.3770634709529895e6 0.0
0.0 0.0 0.0

1.7043925319415117e6 9.63010289262016e6 0.0
9.63010289262016e6 -1.0553938421749631e7 0.0
0.0 0.0 0.0

-5.355610019511752e7 4.407444767776904e6 0.0
4.407444767776904e6 1.0485764667296566e7 0.0
0.0 0.0 0.0

4.6253918180010505e6 6.729499088866278e6 0.0
6.729499088866278e6 -2.211470595620755e7 0.0
0.0 0.0 0.0

-6.609384942924113e6 1.3090152828804823e7 0.0
1.3090152828804823e7 5.499948171477033e6 0.0
0.0 0.0 0.0

-6.403268110067541e6 1.4238781607179236e7 0.0
1.4238781607179236e7 4.979749313680094e6 0.0
0.0 0.0 0.0

-5.86168791680624e6 1.77576966510895e7 0.0
1.77576966510895e7 6.999737056754114e6 0.0
0.0 0.0 0.0

-2.140523304202952e6 1.2626348326430555e7 0.0
1.2626348326430555e7 -3.5587764263577075e6 0.0
0.0 0.0 0.0

-6.317035776415256e6 1.4379124281308195e7 0.0
1.4379124281308195e7 9.741502436680958e6 0.0
0.0 0.0 0.0

752570.4601428872 1.0654817093781156e7 0.0
1.0654817093781156e7 -8.870193346540676e6 0.0
0.0 0.0 0.0

3.084271079635392e6 8.254154706648073e6 0.0
8.254154706648073e6 -1.3636957354062907e7 0.0
0.0 0.0 0.0

-4.849800975474833e6 1.7279249405261252e7 0.0
1.7279249405261252e7 3.653709157998408e6 0.0
0.0 0.0 0.0

-3.6703874050932224e6 1.783460842844367e7 0.0
1.783460842844367e7 -1.4220100161089434e6 0.0
0.0 0.0 0.0

4.327453897460298e6 7.846126081773415e6 0.0
7.846126081773415e6 -1.8485074461995427e7 0.0
0.0 0.0 0.0

-3.9434770954967276e6 8.98101035179653e6 0.0
8.98101035179653e6 2.974624751273128e6 0.0
0.0 0.0 0.0

-6.557200428649307e6 1.8027512126666848e7 0.0
1.8027512126666848e7 6.562456439390739e6 0.0
0.0 0.0 0.0

-3.697482576181458e7 3.7527562722294115e7 0.0
3.7527562722294115e7 407108.80679991096 0.0
0.0 0.0 0.0

-1.198387713360452e7 4.053849538177108e6 0.0
4.053849538177108e6 1.819845878108797e7 0.0
0.0 0.0 0.0

-1.1126630706228162e6 1.064158097162157e7 0.0
1.064158097162157e7 -9.283541608586498e6 0.0
0.0 0.0 0.0

399959.38314698695 5.530260422912186e6 0.0
5.530260422912186e6 -2.7562787613704926e6 0.0
0.0 0.0 0.0

-4.318749355853323e6 -7.915286469960499e6 0.0
-7.915286469960499e6 1.098342432700593e7 0.0
0.0 0.0 0.0

5.42196607461319e6 4.414771936853775e6 0.0
4.414771936853775e6 -1.5838689698593691e7 0.0
0.0 0.0 0.0

-3.743455090658481e6 1.5703096332639972e7 0.0
1.5703096332639972e7 1.5132818089714567e6 0.0
0.0 0.0 0.0

458608.0969771105 1.2321182461973047e7 0.0
1.2321182461973047e7 -1.1833511691402595e7 0.0
0.0 0.0 0.0

-1.176516810995217e7 1.0108737084643045e7 0.0
1.0108737084643045e7 1.7913288311533835e7 0.0
0.0 0.0 0.0

-2.4444754505930496e6 1.5748133587023277e7 0.0
1.5748133587023277e7 -4.743885652964613e6 0.0
0.0 0.0 0.0

1.7781273807007615e6 9.096187354959108e6 0.0
9.096187354959108e6 -9.930904070304872e6 0.0
0.0 0.0 0.0

-9.17930464595023e6 1.1822731367918959e7 0.0
1.1822731367918959e7 2.3508333936595716e7 0.0
0.0 0.0 0.0

-2.555492414124324e6 1.2506060718494136e7 0.0
1.2506060718494136e7 -965034.7192272521 0.0
0.0 0.0 0.0

-7.106004249457917e6 1.3775841429470295e7 0.0
1.3775841429470295e7 1.4487475788880844e7 0.0
0.0 0.0 0.0

423078.685457401 1.2521721218263526e7 0.0
1.2521721218263526e7 -1.1242752199204084e7 0.0
0.0 0.0 0.0

3.630746504665027e7 6.883143776989375e6 0.0
6.883143776989375e6 -2.3122648223197907e6 0.0
0.0 0.0 0.0

-2.6779149691619542e6 1.6014494147777276e7 0.0
1.6014494147777276e7 -2.463312200145363e6 0.0
0.0 0.0 0.0

-3.711724942390023e6 1.9608780097922977e7 0.0
1.9608780097922977e7 1.3480585480782022e6 0.0
0.0 0.0 0.0

1.4357695717293294e6 9.688986167160103e6 0.0
9.688986167160103e6 -9.634753036133984e6 0.0
0.0 0.0 0.0

2.306589782271723e6 9.13497726180445e6 0.0
9.13497726180445e6 -9.88122538778491e6 0.0
0.0 0.0 0.0

-1.7155928775852094e6 1.2316826107381683e7 0.0
1.2316826107381683e7 -4.321127891897518e6 0.0
0.0 0.0 0.0

-1.0787132278124798e7 4.926022351250573e6 0.0
4.926022351250573e6 1.4728976493785955e7 0.0
0.0 0.0 0.0

450834.60940328334 1.183152047823005e7 0.0
1.183152047823005e7 -1.4582233826181158e7 0.0
0.0 0.0 0.0

3.0191335811998593e6 4.618672156601448e6 0.0
4.618672156601448e6 -7.656963580170499e6 0.0
0.0 0.0 0.0

729864.9851622502 1.1149361723928615e7 0.0
1.1149361723928615e7 -9.511173132300071e6 0.0
0.0 0.0 0.0

-1.730701748455239e7 1.8545176941886377e7 0.0
1.8545176941886377e7 1.166224097862865e7 0.0
0.0 0.0 0.0

-1.7841555322038196e6 8.647400072362373e6 0.0
8.647400072362373e6 -2.369833446751021e6 0.0
0.0 0.0 0.0

-8.101681360464379e6 1.2109797583093317e7 0.0
1.2109797583093317e7 2.8815247791530855e7 0.0
0.0 0.0 0.0

-4.82686794109753e6 1.4523340502415953e7 0.0
1.4523340502415953e7 7.50481781144689e6 0.0
0.0 0.0 0.0

2.696274697761269e6 1.3311344785753692e7 0.0
1.3311344785753692e7 -621702.8420736772 0.0
0.0 0.0 0.0

-6.09079563171975e6 1.7946186167797044e7 0.0
1.7946186167797044e7 6.7648988805147e6 0.0
0.0 0.0 0.0

-2.88809259205658e6 1.6373736625393244e7 0.0
1.6373736625393244e7 -1.6365791619687323e6 0.0
0.0 0.0 0.0

-5.949988589361988e6 1.7687737321792502e7 0.0
1.7687737321792502e7 5.999781717578331e6 0.0
0.0 0.0 0.0

-9.487636940048587e6 5.492721852729137e6 0.0
5.492721852729137e6 1.329626921108482e7 0.0
0.0 0.0 0.0

-7.683896553823266e6 9.924419446817653e6 0.0
9.924419446817653e6 1.0561389775967842e7 0.0
0.0 0.0 0.0

-3.494914116387006e6 5.2722277898116615e6 0.0
5.2722277898116615e6 1.4979040977828938e6 0.0
0.0 0.0 0.0

6.396692237389277e6 9.862051201720987e6 0.0
9.862051201720987e6 1.3373901524036615e6 0.0
0.0 0.0 0.0

334333.54749516724 1.2752460261661971e7 0.0
1.2752460261661971e7 -1.0665465196251422e7 0.0
0.0 0.0 0.0

-2.985481268853916e6 1.6288133789550204e7 0.0
1.6288133789550204e7 -1.1918255456393403e6 0.0
0.0 0.0 0.0

-5.5114299474239005e6 1.7235658372102488e7 0.0
1.7235658372102488e7 3.8684672913289447e6 0.0
0.0 0.0 0.0

-6.384972720638813e6 -1.3560965919082165e6 0.0
-1.3560965919082165e6 7.078219758348235e6 0.0
0.0 0.0 0.0

-5.659559315413452e6 1.8294897571834862e7 0.0
1.8294897571834862e7 4.965212099419996e6 0.0
0.0 0.0 0.0

-3.441737496923253e6 1.1748168944746407e7 0.0
1.1748168944746407e7 1.2754385340549047e6 0.0
0.0 0.0 0.0

-5.837145086583316e6 1.872962563849505e7 0.0
1.872962563849505e7 5.7158802150936965e6 0.0
0.0 0.0 0.0

3.009409045374246e6 1.2562894655607909e7 0.0
1.2562894655607909e7 -1.459784821034991e6 0.0
0.0 0.0 0.0

-3.628527581302777e6 1.847999071411261e7 0.0
1.847999071411261e7 413551.7908137657 0.0
0.0 0.0 0.0

4.324526684496882e6 5.826738556357506e6 0.0
5.826738556357506e6 -1.375869764389432e7 0.0
0.0 0.0 0.0

-1.177808663877768e7 4.033187824284679e6 0.0
4.033187824284679e6 1.7089967538311087e7 0.0
0.0 0.0 0.0

813580.3390238346 1.3294603272502247e7 0.0
1.3294603272502247e7 -7.818569011950024e6 0.0
0.0 0.0 0.0

207480.5065864441 1.303473299830439e7 0.0
1.303473299830439e7 -1.0037571076860959e7 0.0
0.0 0.0 0.0

-2.2608557164166565e6 1.1899147927453583e7 0.0
1.1899147927453583e7 -1.343010141440881e6 0.0
0.0 0.0 0.0

-3.5803582760517085e6 1.4837992377709704e7 0.0
1.4837992377709704e7 2.795991685967275e6 0.0
0.0 0.0 0.0

-1.9007822584343075e6 1.6235174107368473e7 0.0
1.6235174107368473e7 -4.32612468798828e6 0.0
0.0 0.0 0.0

809181.0465400964 1.2068527746230857e7 0.0
1.2068527746230857e7 -7.05037789973157e6 0.0
0.0 0.0 0.0

-8.41307969452908e6 8.114042377276405e6 0.0
8.114042377276405e6 9.475816322953844e6 0.0
0.0 0.0 0.0

3.2160794663141915e6 8.102504074935621e6 0.0
8.102504074935621e6 -1.1606319694789557e7 0.0
0.0 0.0 0.0

583724.6501444629 1.2604006736799913e7 0.0
1.2604006736799913e7 -1.0510015152804004e7 0.0
0.0 0.0 0.0

-2.1998367165635573e6 1.3660799477022234e7 0.0
1.3660799477022234e7 8.001014938827752e6 0.0
0.0 0.0 0.0

-2.668662201427048e6 1.3698436827702237e7 0.0
1.3698436827702237e7 -2.8323416296856664e6 0.0
0.0 0.0 0.0

4.809814525937458e6 6.869349068335827e6 0.0
6.869349068335827e6 -1.780050043487481e7 0.0
0.0 0.0 0.0

5.641783601671855e6 5.811891795204653e6 0.0
5.811891795204653e6 -2.2173538911201153e7 0.0
0.0 0.0 0.0

-5.851758859547077e6 1.0973371899342377e7 0.0
1.0973371899342377e7 3.7634594459612207e6 0.0
0.0 0.0 0.0

-5.304368550673938e6 1.7413286073615562e7 0.0
1.7413286073615562e7 3.451648060344667e6 0.0
0.0 0.0 0.0

-9.403576104155887e6 69142.1494017686 0.0
69142.1494017686 1.359938018047579e7 0.0
0.0 0.0 0.0

-7.044104453955836e6 1.0329395822549976e7 0.0
1.0329395822549976e7 6.329112666323101e6 0.0
0.0 0.0 0.0

-6.638909049359729e6 1.3853123735728363e7 0.0
1.3853123735728363e7 5.7146839980963385e6 0.0
0.0 0.0 0.0

2.9516500185593176e6 8.186975355159456e6 0.0
8.186975355159456e6 -1.0693317830184797e7 0.0
0.0 0.0 0.0

5.437608593188647e6 4.304872187248185e6 0.0
4.304872187248185e6 -1.6211231793290421e7 0.0
0.0 0.0 0.0

-6.18083716981436e6 1.3161427208520478e7 0.0
1.3161427208520478e7 6.911161917250521e6 0.0
0.0 0.0 0.0

-6.338756437716618e6 1.3522991668833908e7 0.0
1.3522991668833908e7 3.689119346759137e7 0.0
0.0 0.0 0.0

-5.66028672319733e6 1.4590321192239827e7 0.0
1.4590321192239827e7 5.519292784215981e6 0.0
0.0 0.0 0.0

-3.1960858449676796e6 1.6662056154898526e7 0.0
1.6662056154898526e7 -991712.1022514924 0.0
0.0 0.0 0.0

1.4214827085189424e6 1.0161123407463318e7 0.0
1.0161123407463318e7 -1.0095740912654404e7 0.0
0.0 0.0 0.0

-4.085232461562967e6 1.7874054238374196e7 0.0
1.7874054238374196e7 1.7379325836892736e6 0.0
0.0 0.0 0.0

-5.027572433163208e6 1.709301739050204e7 0.0
1.709301739050204e7 4.0803836492997943e6 0.0
0.0 0.0 0.0

1.0246868196182107e6 1.3389917310019612e7 0.0
1.3389917310019612e7 1.254044046925272e7 0.0
0.0 0.0 0.0

3.079566522643302e6 4.605841072184528e6 0.0
4.605841072184528e6 -8.066423735333744e6 0.0
0.0 0.0 0.0

75327.901021305 1.484064670970509e7 0.0
1.484064670970509e7 -6.02794801037102e6 0.0
0.0 0.0 0.0

3.878165007425155e6 5.099674440665437e6 0.0
5.099674440665437e6 -1.1266892348646205e7 0.0
0.0 0.0 0.0

-6.658692712288462e6 7.410409371703231e6 0.0
7.410409371703231e6 9.11597358666013e6 0.0
0.0 0.0 0.0

-5.896171702027699e6 1.6355077572212223e7 0.0
1.6355077572212223e7 4.6479663054866735e6 0.0
0.0 0.0 0.0

-2.236490962745092e6 1.4060214395289415e7 0.0
1.4060214395289415e7 -2.2663554796490506e6 0.0
0.0 0.0 0.0

2.426032564756498e6 8.544933421540366e6 0.0
8.544933421540366e6 -9.243538497136364e6 0.0
0.0 0.0 0.0

545966.3815377126 1.2582939766884739e7 0.0
1.2582939766884739e7 -7.798799921626122e6 0.0
0.0 0.0 0.0

-3.455650473982687e6 1.7002275868262798e7 0.0
1.7002275868262798e7 -304065.35904843686 0.0
0.0 0.0 0.0

-1.09218309047984e7 554634.4301747605 0.0
554634.4301747605 1.6827471356386922e7 0.0
0.0 0.0 0.0

-7.95720395686836e6 1.12208011818736e7 0.0
1.12208011818736e7 1.1182252683858924e7 0.0
0.0 0.0 0.0

-7.149540879249221e6 5.149073921796434e6 0.0
5.149073921796434e6 9.912799327259792e6 0.0
0.0 0.0 0.0

-4.029430808318089e6 1.1271776056212278e7 0.0
1.1271776056212278e7 526482.1245132431 0.0
0.0 0.0 0.0

-5.673125905230238e6 1.7480834964359276e7 0.0
1.7480834964359276e7 6.327134489018353e6 0.0
0.0 0.0 0.0

-3.400337667200029e6 1.3545585306396656e7 0.0
1.3545585306396656e7 -1.252080504825207e6 0.0
0.0 0.0 0.0

-4.886568849856776e6 1.779613108992318e7 0.0
1.779613108992318e7 2.3023638015290853e6 0.0
0.0 0.0 0.0

-3.2512674607878616e6 6.731532048935295e6 0.0
6.731532048935295e6 800133.3356305361 0.0
0.0 0.0 0.0

-7.296868978923406e6 9.681382688419446e6 0.0
9.681382688419446e6 9.749848326092688e6 0.0
0.0 0.0 0.0

-5.160134618274858e6 1.756495807370353e7 0.0
1.756495807370353e7 3.075657950202587e6 0.0
0.0 0.0 0.0

-1.3015520601814913e6 1.5637059769002983e7 0.0
1.5637059769002983e7 -5.671624195146836e6 0.0
0.0 0.0 0.0

1.5387719327659316e6 1.520528287477751e7 0.0
1.520528287477751e7 8.44716799034667e6 0.0
0.0 0.0 0.0

-3.6312589774177363e6 1.1310896635243302e7 0.0
1.1310896635243302e7 1.8491102512543213e6 0.0
0.0 0.0 0.0

-710075.3437710976 1.732082356706533e7 0.0
1.732082356706533e7 -4.026221616745657e6 0.0
0.0 0.0 0.0

-4.791548662830606e6 1.1985836392352425e7 0.0
1.1985836392352425e7 3.912327627882626e6 0.0
0.0 0.0 0.0

-7.711546215236407e6 1.0967490374915302e7 0.0
1.0967490374915302e7 1.0526873830265395e7 0.0
0.0 0.0 0.0

-2.883231172742678e6 7.351788586313029e6 0.0
7.351788586313029e6 1.7175473645170263e6 0.0
0.0 0.0 0.0

-5.027603527126243e6 1.768434017470963e7 0.0
1.768434017470963e7 2.6631732464210005e6 0.0
0.0 0.0 0.0

4.447232589845239e6 6.43196522265229e6 0.0
6.43196522265229e6 -1.3493908052460674e7 0.0
0.0 0.0 0.0

3.841605456433421e6 7.37426542873948e6 0.0
7.37426542873948e6 -1.2781107878498591e7 0.0
0.0 0.0 0.0

-5.751522811625358e6 1.7497756134538993e7 0.0
1.7497756134538993e7 7.148543473183606e6 0.0
0.0 0.0 0.0

61860.4819771396 9.229956702467402e6 0.0
9.229956702467402e6 -4.985669313468283e6 0.0
0.0 0.0 0.0

2.378827690356591e6 8.856882836627347e6 0.0
8.856882836627347e6 -9.55312269777927e6 0.0
0.0 0.0 0.0

-4.646599634047926e6 1.9024210791304514e7 0.0
1.9024210791304514e7 2.366517755426208e6 0.0
0.0 0.0 0.0

-3.85271787376701e6 1.759975009800283e7 0.0
1.759975009800283e7 1.0822134343704775e6 0.0
0.0 0.0 0.0

-2.6202197472538725e6 1.4522696094579265e7 0.0
1.4522696094579265e7 -3.201095227526806e6 0.0
0.0 0.0 0.0

656529.7350757914 1.2211644238877408e7 0.0
1.2211644238877408e7 -1.3764639107566647e7 0.0
0.0 0.0 0.0

-5.36934496999627e6 1.931744181008958e7 0.0
1.931744181008958e7 4.199492346090771e6 0.0
0.0 0.0 0.0

-8.099364846845004e6 1.1455900085969925e7 0.0
1.1455900085969925e7 1.1546428981004097e7 0.0
0.0 0.0 0.0

2.4522407354094097e6 6.51788765313391e6 0.0
6.51788765313391e6 -9.289561270186815e6 0.0
0.0 0.0 0.0

-4.424877186487453e6 2.044432462658076e7 0.0
2.044432462658076e7 2.5928850753107537e6 0.0
0.0 0.0 0.0

-3.673070570312872e6 1.486199396583488e7 0.0
1.486199396583488e7 6.047438928785891e6 0.0
0.0 0.0 0.0

-3.658277167811377e6 1.730489566074993e7 0.0
1.730489566074993e7 445213.63837267226 0.0
0.0 0.0 0.0

50642.298110465985 1.3320188818206588e7 0.0
1.3320188818206588e7 -9.435957655322334e6 0.0
0.0 0.0 0.0

-4.451392815843585e6 1.8062983451879404e7 0.0
1.8062983451879404e7 2.733817713643619e6 0.0
0.0 0.0 0.0

-6.033528760819846e6 1.5264381938869296e7 0.0
1.5264381938869296e7 8.987889738351582e6 0.0
0.0 0.0 0.0

-4.550715514039702e6 1.7979130720008366e7 0.0
1.7979130720008366e7 1.6137669904761168e6 0.0
0.0 0.0 0.0

-2.771568628818104e6 2.1653383406972654e7 0.0
2.1653383406972654e7 126331.1541892318 0.0
0.0 0.0 0.0

-1.0989082520911876e7 8.209301449148036e6 0.0
8.209301449148036e6 1.5137520433626968e7 0.0
0.0 0.0 0.0

2.0269299470675313e6 9.482974168550508e6 0.0
9.482974168550508e6 -9.31237969298752e6 0.0
0.0 0.0 0.0

-1.1275358438496508e7 5.438889569717538e6 0.0
5.438889569717538e6 1.5327867648773737e7 0.0
0.0 0.0 0.0

-7.5305125139863e6 8.812428584094498e6 0.0
8.812428584094498e6 7.75809020157494e6 0.0
0.0 0.0 0.0

-530114.0653222144 -1.105601939139051e6 0.0
-1.105601939139051e6 941081.080387029 0.0
0.0 0.0 0.0

-25860.799654844974 -715780.9144737013 0.0
-715780.9144737013 1.1215128496783897e6 0.0
0.0 0.0 0.0

-1.1357064105255783e7 8.797792564395549e6 0.0
8.797792564395549e6 1.5414163969809245e7 0.0
0.0 0.0 0.0

3.0934824955238546e6 1.4031490000133887e7 0.0
1.4031490000133887e7 3.8449766710119774e6 0.0
0.0 0.0 0.0

-3.7253531010020874e6 1.8158544010365956e7 0.0
1.8158544010365956e7 745975.2222491933 0.0
0.0 0.0 0.0

-2.336552298346648e6 1.4902938701870505e7 0.0
1.4902938701870505e7 -2.7590062535714936e6 0.0
0.0 0.0 0.0

1.9660297995028375e6 9.735158868416784e6 0.0
9.735158868416784e6 -9.668123076955434e6 0.0
0.0 0.0 0.0

1.0208974879032131e6 1.3539150664258225e7 0.0
1.3539150664258225e7 1.0198346247877983e7 0.0
0.0 0.0 0.0

-5.252671175020041e6 1.9662589750854738e7 0.0
1.9662589750854738e7 5.042525530133769e6 0.0
0.0 0.0 0.0

-4.741527468447171e6 1.931829097130755e7 0.0
1.931829097130755e7 2.551219780809561e6 0.0
0.0 0.0 0.0

-4.684273921888793e6 1.96864006366229e7 0.0
1.96864006366229e7 2.6049391797484057e6 0.0
0.0 0.0 0.0

-7.267573902893279e6 1.3332806010824302e7 0.0
1.3332806010824302e7 7.740297553568961e6 0.0
0.0 0.0 0.0

-6.428724501053693e6 1.1375736827264966e7 0.0
1.1375736827264966e7 4.877430153128386e6 0.0
0.0 0.0 0.0

-4.66204571916691e6 7.857412637976141e6 0.0
7.857412637976141e6 2.4688422267341483e6 0.0
0.0 0.0 0.0

-6.101081929942239e6 1.5972017597717e7 0.0
1.5972017597717e7 7.10246360050458e6 0.0
0.0 0.0 0.0

-5.364253305727769e6 1.1044392865937015e7 0.0
1.1044392865937015e7 5.372546051301957e6 0.0
0.0 0.0 0.0

-1.2219212910856225e7 8.071206478559864e6 0.0
8.071206478559864e6 1.674740289025638e7 0.0
0.0 0.0 0.0

1.908740091663191e6 1.0027502630804123e7 0.0
1.0027502630804123e7 -9.94638675554181e6 0.0
0.0 0.0 0.0

-6.928939682965465e6 1.4530847073245792e7 0.0
1.4530847073245792e7 7.115639056504628e6 0.0
0.0 0.0 0.0

-1.2060410822886031e7 6.666009212109698e6 0.0
6.666009212109698e6 1.7319917489765137e7 0.0
0.0 0.0 0.0

-1.851047418465103e6 1.3694497339205083e7 0.0
1.3694497339205083e7 6.5660917510305345e6 0.0
0.0 0.0 0.0

-5.232119447199609e6 1.1913791801544484e7 0.0
1.1913791801544484e7 2.4500392278602747e6 0.0
0.0 0.0 0.0

-4.520247647870079e6 1.841931607264217e7 0.0
1.841931607264217e7 2.9902571428294242e6 0.0
0.0 0.0 0.0

-4.35681251269111e6 1.768039923790611e7 0.0
1.768039923790611e7 2.464231074294094e6 0.0
0.0 0.0 0.0

-5.913637050771536e6 1.5749812282789506e7 0.0
1.5749812282789506e7 8.49856865270916e6 0.0
0.0 0.0 0.0

456275.88093064167 1.253939137875312e7 0.0
1.253939137875312e7 -1.2197722699653931e7 0.0
0.0 0.0 0.0

-6.204604455217203e6 1.5863212400658267e7 0.0
1.5863212400658267e7 5.683768274992306e6 0.0
0.0 0.0 0.0

-7.763820063957099e6 1.2203840772087729e7 0.0
1.2203840772087729e7 1.0858757486012029e7 0.0
0.0 0.0 0.0

-2.1208747049948703e6 1.443447166817407e7 0.0
1.443447166817407e7 -3.0668163381033386e6 0.0
0.0 0.0 0.0

-3.5207024525103043e6 1.9996685516136598e7 0.0
1.9996685516136598e7 1.2887404820620036e6 0.0
0.0 0.0 0.0

-5.8535293011068385e6 1.6238353872258702e7 0.0
1.6238353872258702e7 8.075960135355815e6 0.0
0.0 0.0 0.0

-2.271507522360825e6 1.4207772000614464e7 0.0
1.4207772000614464e7 -3.953648667991294e6 0.0
0.0 0.0 0.0

3.672781579999256e6 7.674217343435666e6 0.0
7.674217343435666e6 -1.3097970030327424e7 0.0
0.0 0.0 0.0

-6.471617903182557e6 1.3467494278075512e7 0.0
1.3467494278075512e7 7.689078190015359e6 0.0
0.0 0.0 0.0

-1.7511352405551402e6 1.7138386278968457e7 0.0
1.7138386278968457e7 -3.6068958157075457e6 0.0
0.0 0.0 0.0

2.644803438745252e6 4.691543411760611e6 0.0
4.691543411760611e6 -6.682379039803526e6 0.0
0.0 0.0 0.0

3.7558092287226124e6 7.781296671829238e6 0.0
7.781296671829238e6 -1.6594130930212278e7 0.0
0.0 0.0 0.0

-1.179156988318917e6 1.3594379277477266e7 0.0
1.3594379277477266e7 -5.207306729879252e6 0.0
0.0 0.0 0.0

2.097081085783952e6 1.4784961127597323e7 0.0
1.4784961127597323e7 5.894587321398885e6 0.0
0.0 0.0 0.0

3.1587282031410504e6 7.90240627217676e6 0.0
7.90240627217676e6 -1.345804484215908e7 0.0
0.0 0.0 0.0

2.823670354234093e6 8.522299283386592e6 0.0
8.522299283386592e6 -1.3135750179381002e7 0.0
0.0 0.0 0.0

44086.69615423202 1.1677055536909757e7 0.0
1.1677055536909757e7 2.1863516943606623e6 0.0
0.0 0.0 0.0

-1.1179351465140693e7 1.7057202310359513e6 0.0
1.7057202310359513e6 1.6276786623537771e7 0.0
0.0 0.0 0.0

-5.884033142602515e6 8.138851560310196e6 0.0
8.138851560310196e6 4.596120829445215e6 0.0
0.0 0.0 0.0

-2.94266826406587e6 1.3475663085232677e7 0.0
1.3475663085232677e7 -1.973920203535178e7 0.0
0.0 0.0 0.0

-7.119689806144586e6 1.130508880085347e7 0.0
1.130508880085347e7 6.669456057972735e6 0.0
0.0 0.0 0.0

-9.969123994778551e6 5.993716209708604e6 0.0
5.993716209708604e6 1.1316363366369309e7 0.0
0.0 0.0 0.0

-1.4459246975858882e6 1.3591441766204176e7 0.0
1.3591441766204176e7 6.27686749638052e6 0.0
0.0 0.0 0.0

-3.946034412576628e6 -7.270308771891928e6 0.0
-7.270308771891928e6 9.904722764610589e6 0.0
0.0 0.0 0.0

-6.858048245082881e6 1.348149589583723e7 0.0
1.348149589583723e7 6.39086296071843e6 0.0
0.0 0.0 0.0

-5.733379112280676e6 1.7569890530653957e7 0.0
1.7569890530653957e7 6.697294384911923e6 0.0
0.0 0.0 0.0

-373682.88840334956 1.2636942278258255e7 0.0
1.2636942278258255e7 -8.424030383589454e6 0.0
0.0 0.0 0.0

-1.5122121635159643e6 2.3032638909123675e6 0.0
2.3032638909123675e6 239592.05549169407 0.0
0.0 0.0 0.0

-3.957334679756811e6 7.592297069630689e6 0.0
7.592297069630689e6 1.3947920890776026e6 0.0
0.0 0.0 0.0

4.319451168712517e6 7.316103191570139e6 0.0
7.316103191570139e6 -2.5210494224016972e7 0.0
0.0 0.0 0.0

-2.7946591756523065e6 2.019520115256585e7 0.0
2.019520115256585e7 213964.39199633943 0.0
0.0 0.0 0.0

-1.188999261667549e7 6.922478293608129e6 0.0
6.922478293608129e6 2.152086321373079e7 0.0
0.0 0.0 0.0

-2.8217975475074966e6 1.3062437876953863e7 0.0
1.3062437876953863e7 -6.024190792742889e6 0.0
0.0 0.0 0.0

-1.1318641977015745e7 4.991148999575361e6 0.0
4.991148999575361e6 1.2885264859141055e7 0.0
0.0 0.0 0.0

-7.039409377062019e6 1.804634293642244e7 0.0
1.804634293642244e7 3.389071606121871e6 0.0
0.0 0.0 0.0

-598970.32521007 1.3909249883282252e7 0.0
1.3909249883282252e7 -2.8205228395553706e6 0.0
0.0 0.0 0.0

-551435.946776784 1.360298364823269e7 0.0
1.360298364823269e7 5.298248642385287e6 0.0
0.0 0.0 0.0

4.0188216584017044e6 7.397616569976597e6 0.0
7.397616569976597e6 -1.7226992855170935e7 0.0
0.0 0.0 0.0

-4.622362526019428e6 1.1262289241522957e7 0.0
1.1262289241522957e7 -2.334919621095886e6 0.0
0.0 0.0 0.0

-3.8271757798527535e6 2.272660210224462e7 0.0
2.272660210224462e7 -1.8689749868026436e6 0.0
0.0 0.0 0.0

-6.665240795386096e6 1.3713667137304667e7 0.0
1.3713667137304667e7 8.3168125700244345e6 0.0
0.0 0.0 0.0

-5.759954155883657e6 -8.699227248317685e6 0.0
-8.699227248317685e6 1.3918433359466152e7 0.0
0.0 0.0 0.0

-3.582302926738284e6 1.3930992372664217e7 0.0
1.3930992372664217e7 7.167903666380744e6 0.0
0.0 0.0 0.0

-5.001080096558642e6 1.7693938973528855e7 0.0
1.7693938973528855e7 471268.1086443963 0.0
0.0 0.0 0.0

-2.6048267531252964e6 7.229781808041538e6 0.0
7.229781808041538e6 -403033.2599330508 0.0
0.0 0.0 0.0

-2.6234285584590547e6 1.4515676776252227e7 0.0
1.4515676776252227e7 1.4181664114965297e7 0.0
0.0 0.0 0.0

-8.455364592777396e6 1.042709945255058e7 0.0
1.042709945255058e7 9.699419425864074e6 0.0
0.0 0.0 0.0

-7.976769031785062e6 9.021879661965948e6 0.0
9.021879661965948e6 8.771635096034413e6 0.0
0.0 0.0 0.0

-1.1989822050257917e7 5.198914859930328e6 0.0
5.198914859930328e6 2.132208984511091e7 0.0
0.0 0.0 0.0

-4.517863703952527e6 1.4239808320447927e7 0.0
1.4239808320447927e7 9.230587631130187e6 0.0
0.0 0.0 0.0

-7.7200651777362935e6 1.966109379210949e7 0.0
1.966109379210949e7 6.659903258799493e6 0.0
0.0 0.0 0.0

-5.146342932342277e6 2.081797446701392e7 0.0
2.081797446701392e7 2.7686270110421637e6 0.0
0.0 0.0 0.0

-6.728090721310781e6 1.5130281047935342e7 0.0
1.5130281047935342e7 7.176847208465963e6 0.0
0.0 0.0 0.0

2.478034356411939e6 4.55314520504279e6 0.0
4.55314520504279e6 -6.212352150633214e6 0.0
0.0 0.0 0.0

2.5606914210481e6 9.084725649178447e6 0.0
9.084725649178447e6 -1.0752320328843698e7 0.0
0.0 0.0 0.0

2.0597463800522536e6 8.9212450316591e6 0.0
8.9212450316591e6 -8.664475821478289e6 0.0
0.0 0.0 0.0

-6.819304664359116e6 1.1836541963335132e7 0.0
1.1836541963335132e7 5.957288697344106e6 0.0
0.0 0.0 0.0

-9.282899858335458e6 2.6395923784150906e7 0.0
2.6395923784150906e7 -621212.6967081092 0.0
0.0 0.0 0.0

-3.536504867431746e6 6.1272294802363645e6 0.0
6.1272294802363645e6 1.1311635904272308e6 0.0
0.0 0.0 0.0

-3.576057751748284e6 1.8827513139326677e7 0.0
1.8827513139326677e7 491897.0526543851 0.0
0.0 0.0 0.0

-1.985851610066242e6 1.7648862538698833e7 0.0
1.7648862538698833e7 -2.907587346300271e6 0.0
0.0 0.0 0.0

-2.2212762905539568e6 7.747880523305832e6 0.0
7.747880523305832e6 369493.08601679036 0.0
0.0 0.0 0.0

-545183.6464550282 1.0408120612883145e7 0.0
1.0408120612883145e7 -607786.4875987245 0.0
0.0 0.0 0.0

5.260893422109126e6 1.5095792146126479e7 0.0
1.5095792146126479e7 7.209483417145261e6 0.0
0.0 0.0 0.0

1.6978889156836448e6 1.4880661226133911e7 0.0
1.4880661226133911e7 1.1937406662392696e7 0.0
0.0 0.0 0.0

-1.2412215276825333e6 1.3635621052159974e7 0.0
1.3635621052159974e7 4.874754520973517e6 0.0
0.0 0.0 0.0

-8.110367620809484e6 1.0153452367860377e7 0.0
1.0153452367860377e7 8.962481972595247e6 0.0
0.0 0.0 0.0

-8.148098661474621e6 2.4991014532223564e7 0.0
2.4991014532223564e7 487693.7006766079 0.0
0.0 0.0 0.0

-1.06701249949328e7 1.8515249837900966e7 0.0
1.8515249837900966e7 4.51269555451104e6 0.0
0.0 0.0 0.0

-8.357670964941548e6 9.263778422466649e6 0.0
9.263778422466649e6 9.620695273218835e6 0.0
0.0 0.0 0.0

2.6423509489828907e6 9.8653903703661e6 0.0
9.8653903703661e6 -1.777515061487317e7 0.0
0.0 0.0 0.0

5.750101259253293e6 4.0802359642730164e6 0.0
4.0802359642730164e6 -1.826051872692848e7 0.0
0.0 0.0 0.0

572161.0289334045 1.217129324101059e7 0.0
1.217129324101059e7 -8.922978899917176e6 0.0
0.0 0.0 0.0

2.2388847850363385e6 9.409455325978931e6 0.0
9.409455325978931e6 -1.0205638373736586e7 0.0
0.0 0.0 0.0

-108059.9612348373 1.2997579529284906e7 0.0
1.2997579529284906e7 -7.797505652711111e6 0.0
0.0 0.0 0.0

-1.0744755347710729e7 2.8079242832531355e7 0.0
2.8079242832531355e7 -2.6820494353406923e6 0.0
0.0 0.0 0.0

-5.082011971337096e6 1.5953708291781636e7 0.0
1.5953708291781636e7 4.0328602751496853e6 0.0
0.0 0.0 0.0

-1.8021494242152602e6 1.485197201829153e7 0.0
1.485197201829153e7 -6.382772060595871e6 0.0
0.0 0.0 0.0

-1.681424689975392e6 1.4343352702503683e7 0.0
1.4343352702503683e7 -6.404718359391556e6 0.0
0.0 0.0 0.0

2.656277527917796e6 8.517114980686117e6 0.0
8.517114980686117e6 -1.0119849166375684e7 0.0
0.0 0.0 0.0

-6.571391241793254e6 1.587221406286076e7 0.0
1.587221406286076e7 7.5934029436562415e6 0.0
0.0 0.0 0.0

-2.4051682066205363e6 1.4524934324919116e7 0.0
1.4524934324919116e7 7.546983024445754e6 0.0
0.0 0.0 0.0

-5.088584162896721e6 1.6051618805407213e7 0.0
1.6051618805407213e7 5.117112448150817e6 0.0
0.0 0.0 0.0

-9.615405628187656e6 4.937102467094902e6 0.0
4.937102467094902e6 4.415081238752915e7 0.0
0.0 0.0 0.0

-5.48811845853478e6 492944.165490089 0.0
492944.165490089 7.003414315459972e6 0.0
0.0 0.0 0.0

-2.419779475465976e7 4.084246927134701e7 0.0
4.084246927134701e7 -1.7951900284742117e7 0.0
0.0 0.0 0.0

68762.94889248116 1.3831540671972677e7 0.0
1.3831540671972677e7 6.538377101225401e6 0.0
0.0 0.0 0.0

-7.217812731078683e6 2.4033730642193474e7 0.0
2.4033730642193474e7 1.5042759485303415e6 0.0
0.0 0.0 0.0

-476100.7289398345 1.2742753307782754e7 0.0
1.2742753307782754e7 -6.139951904828474e6 0.0
0.0 0.0 0.0

-706631.3107818738 1.4458640684105773e7 0.0
1.4458640684105773e7 -7.529939850454294e6 0.0
0.0 0.0 0.0

-5.611355019059666e6 1.6854735469044145e7 0.0
1.6854735469044145e7 5.685999605855025e6 0.0
0.0 0.0 0.0

4.669027215157932e6 4.664731834788927e6 0.0
4.664731834788927e6 -1.2679155110654468e7 0.0
0.0 0.0 0.0

3.6881378507292923e6 1.2710814373148305e7 0.0
1.2710814373148305e7 -1.187027079931539e6 0.0
0.0 0.0 0.0

2.481070272761302e6 9.387925242968235e6 0.0
9.387925242968235e6 -1.1105418230925614e7 0.0
0.0 0.0 0.0

-501227.75711638853 1.6291974221335288e7 0.0
1.6291974221335288e7 -5.044096276807884e6 0.0
0.0 0.0 0.0

4.5609895889179865e6 7.025402852729837e6 0.0
7.025402852729837e6 -1.6657447791451015e7 0.0
0.0 0.0 0.0

-5.978437899201084e6 1.4285458154806258e7 0.0
1.4285458154806258e7 6.387256042421306e6 0.0
0.0 0.0 0.0

2.737834591577095e6 6.5864028498637425e6 0.0
6.5864028498637425e6 -8.354186444432186e6 0.0
0.0 0.0 0.0

-893304.1138209294 8.390904109955685e6 0.0
8.390904109955685e6 -1.9866702538256836e6 0.0
0.0 0.0 0.0

-7.081850962690827e6 1.5792421429156378e7 0.0
1.5792421429156378e7 -1.236991045416846e6 0.0
0.0 0.0 0.0

3.337765221784343e6 8.303269070823784e6 0.0
8.303269070823784e6 -1.278849341703721e7 0.0
0.0 0.0 0.0

-2.581902840779137e6 1.1790121893269954e7 0.0
1.1790121893269954e7 -2.392746601607798e6 0.0
0.0 0.0 0.0

-2.364625645674759e6 1.5036082231946534e7 0.0
1.5036082231946534e7 -4.837377717014451e6 0.0
0.0 0.0 0.0

-5.414709872988999e6 1.4512771947632996e7 0.0
1.4512771947632996e7 1.1412790810499327e7 0.0
0.0 0.0 0.0

912448.9304901878 1.2025805428711098e7 0.0
1.2025805428711098e7 -3.282163208303911e6 0.0
0.0 0.0 0.0

-6.712175302185364e6 1.0926728490069594e7 0.0
1.0926728490069594e7 5.62648199374265e6 0.0
0.0 0.0 0.0

-1.2555855274974266e7 2.6249583858108316e6 0.0
2.6249583858108316e6 1.78899460332011e7 0.0
0.0 0.0 0.0

-4.974267960037015e6 1.4638409694415456e7 0.0
1.4638409694415456e7 1.1615053459087662e7 0.0
0.0 0.0 0.0

-8.34465719723344e6 1.1436523656100804e7 0.0
1.1436523656100804e7 9.731267734028526e6 0.0
0.0 0.0 0.0

-1.0609177750158852e7 -1.0488075098516084e6 0.0
-1.0488075098516084e6 1.4983643160706572e7 0.0
0.0 0.0 0.0

-6.935982956651185e6 1.318514817342341e7 0.0
1.318514817342341e7 8.974105305240992e6 0.0
0.0 0.0 0.0

-6.642226203790953e6 1.4708703351829732e7 0.0
1.4708703351829732e7 9.386249986612283e6 0.0
0.0 0.0 0.0

-3.1002165442330614e6 5.426557330391254e6 0.0
5.426557330391254e6 2.792481180764693e6 0.0
0.0 0.0 0.0

-2.0143005161337312e6 1.4701526555239959e7 0.0
1.4701526555239959e7 -5.644649284707666e6 0.0
0.0 0.0 0.0

-5.704926151341783e6 1.658564459356027e7 0.0
1.658564459356027e7 4.147721031168522e6 0.0
0.0 0.0 0.0

-8.458025772117022e6 1.1781052347361458e7 0.0
1.1781052347361458e7 1.0191690092378037e7 0.0
0.0 0.0 0.0

-1.203542581858273e7 -1.5614855417641967e6 0.0
-1.5614855417641967e6 2.337032448100486e7 0.0
0.0 0.0 0.0

-3.354767159423121e6 1.4313934338210072e7 0.0
1.4313934338210072e7 5.896453216212439e6 0.0
0.0 0.0 0.0

-7.522295036402646e6 8.780925381186908e6 0.0
8.780925381186908e6 1.045134148268081e7 0.0
0.0 0.0 0.0

2.7945450577691533e6 9.669526943913227e6 0.0
9.669526943913227e6 -1.6955711725269653e7 0.0
0.0 0.0 0.0

-6.900713452990769e6 1.4075677535882644e7 0.0
1.4075677535882644e7 1.4874306175864173e7 0.0
0.0 0.0 0.0

-1.0091627337679949e7 9.06625631711465e6 0.0
9.06625631711465e6 1.4046403027560726e7 0.0
0.0 0.0 0.0

2.0511397408042261e6 8.62261269973823e6 0.0
8.62261269973823e6 -8.3428103285340145e6 0.0
0.0 0.0 0.0

4.836804213262793e6 5.141784314767886e6 0.0
5.141784314767886e6 -1.5539808835663468e7 0.0
0.0 0.0 0.0

-1.8948056760242311e6 1.4407806590575382e7 0.0
1.4407806590575382e7 9.643437633669473e6 0.0
0.0 0.0 0.0

-4.1665564041043352e6 1.4666984813789262e7 0.0
1.4666984813789262e7 1.2039121276456723e7 0.0
0.0 0.0 0.0

-892275.6056850897 1.2373584339256687e7 0.0
1.2373584339256687e7 -4.458999370085651e6 0.0
0.0 0.0 0.0

-5.804617968022691e6 1.673776102697979e7 0.0
1.673776102697979e7 7.691708772826925e6 0.0
0.0 0.0 0.0

-5.728815815623589e6 2.213048695290256e7 0.0
2.213048695290256e7 2.464909887619766e6 0.0
0.0 0.0 0.0

-166524.98979730392 1.3661523527752014e7 0.0
1.3661523527752014e7 -8.795956765960041e6 0.0
0.0 0.0 0.0

-6.3995221562830275e6 673822.3463305008 0.0
673822.3463305008 8.043094030571112e6 0.0
0.0 0.0 0.0

2.1056717547398983e6 1.079140821369393e7 0.0
1.079140821369393e7 -1.4958363192527767e7 0.0
0.0 0.0 0.0

-6.491422482214578e6 1.5122057085571604e7 0.0
1.5122057085571604e7 8.581396270435592e6 0.0
0.0 0.0 0.0

-1.033669352577514e7 7.806094894031427e6 0.0
7.806094894031427e6 1.4595675529706229e7 0.0
0.0 0.0 0.0

460648.0510613948 1.2099108744121004e7 0.0
1.2099108744121004e7 2.8662534298313684e6 0.0
0.0 0.0 0.0

3.6940547462532995e6 8.281606217235205e6 0.0
8.281606217235205e6 -1.9136013952351775e7 0.0
0.0 0.0 0.0

2.763211508237184e6 9.581709618695527e6 0.0
9.581709618695527e6 -1.602856392455894e7 0.0
0.0 0.0 0.0

-3.639344371501534e6 2.3558900821655694e7 0.0
2.3558900821655694e7 -3.24297429240598e6 0.0
0.0 0.0 0.0

-4.855520879969765e6 1.6180717244992418e7 0.0
1.6180717244992418e7 3.533842703178505e6 0.0
0.0 0.0 0.0

-5.44423319550183e6 1.7098330065731004e7 0.0
1.7098330065731004e7 5.232349775590803e6 0.0
0.0 0.0 0.0

-4.299973417321008e6 1.6745739607324136e7 0.0
1.6745739607324136e7 528539.5160169145 0.0
0.0 0.0 0.0

4.2044866603590585e6 5.366435533364153e6 0.0
5.366435533364153e6 -1.0691500079753669e7 0.0
0.0 0.0 0.0

149708.7424474638 1.0354045600391425e7 0.0
1.0354045600391425e7 -5.926189726022748e6 0.0
0.0 0.0 0.0

-6.457568510750367e6 1.5031778288210472e7 0.0
1.5031778288210472e7 8.170068290391162e6 0.0
0.0 0.0 0.0

-1.4329914546035605e6 1.5117024641978417e7 0.0
1.5117024641978417e7 -5.951915403494362e6 0.0
0.0 0.0 0.0

-5.381579257601467e6 2.1623747132498223e7 0.0
2.1623747132498223e7 2.679764502342459e6 0.0
0.0 0.0 0.0

-2.884466770943513e6 6.717903135144095e6 0.0
6.717903135144095e6 2.0427299950989387e6 0.0
0.0 0.0 0.0

-1.2358322809179204e7 3.91971312002797e6 0.0
3.91971312002797e6 1.5187862476891827e7 0.0
0.0 0.0 0.0

-5.254000543871669e6 2.1212940494210843e7 0.0
2.1212940494210843e7 2.834060037716166e6 0.0
0.0 0.0 0.0

-2.657884984282935e6 1.5390818149320468e7 0.0
1.5390818149320468e7 -4.097676835840652e6 0.0
0.0 0.0 0.0

2.0956848379903468e6 8.752439230294054e6 0.0
8.752439230294054e6 -1.0492190894302003e7 0.0
0.0 0.0 0.0

-6.3678131808893895e6 1.1857643047386574e7 0.0
1.1857643047386574e7 7.478678673301851e6 0.0
0.0 0.0 0.0

3.935325847276207e6 7.875590308481619e6 0.0
7.875590308481619e6 -1.9795708453737058e7 0.0
0.0 0.0 0.0

-4.607747324211281e6 1.9092896364726234e7 0.0
1.9092896364726234e7 3.372397338696979e6 0.0
0.0 0.0 0.0

-3.3818823740696684e6 1.4976835039153153e7 0.0
1.4976835039153153e7 4.929098846622087e6 0.0
0.0 0.0 0.0

2.27016758411189e6 1.0330881274157984e7 0.0
1.0330881274157984e7 -1.7884480070864666e7 0.0
0.0 0.0 0.0

-5.905337028761381e6 1.7463877931177024e7 0.0
1.7463877931177024e7 5.547218202276985e6 0.0
0.0 0.0 0.0

-1.2603772800784457e7 3.9145317044696095e6 0.0
3.9145317044696095e6 1.6187589243012665e7 0.0
0.0 0.0 0.0

1.7522654638596019e6 8.499215363903213e6 0.0
8.499215363903213e6 -9.32161965288065e6 0.0
0.0 0.0 0.0

-1.9299485930573158e6 1.2904273969872134e7 0.0
1.2904273969872134e7 5.890469814423422e6 0.0
0.0 0.0 0.0

-5.730718967093112e6 1.610797360608302e7 0.0
1.610797360608302e7 6.053910141263362e6 0.0
0.0 0.0 0.0

1.7901188346906928e6 1.084099645063712e7 0.0
1.084099645063712e7 -1.7586805446801957e7 0.0
0.0 0.0 0.0

-1.2546229788414214e7 3.0388499642386675e7 0.0
3.0388499642386675e7 -5.788745167578751e6 0.0
0.0 0.0 0.0

-9.686734700025525e6 1.0664402269913131e7 0.0
1.0664402269913131e7 1.2349636742408898e7 0.0
0.0 0.0 0.0

-2.921831524279154e6 1.3939561238982785e7 0.0
1.3939561238982785e7 -2.2437504349720635e7 0.0
0.0 0.0 0.0

-2.273251088651935e6 7.168466274731704e6 0.0
7.168466274731704e6 740585.8754648619 0.0
0.0 0.0 0.0

-7.012106410281637e6 1.3803734334501725e7 0.0
1.3803734334501725e7 7.125464449034916e6 0.0
0.0 0.0 0.0

-9.328761451333495e6 1.3029534844490416e7 0.0
1.3029534844490416e7 1.561652639801669e7 0.0
0.0 0.0 0.0

-6.228088250925681e6 1.0942732963407245e7 0.0
1.0942732963407245e7 7.245607658367943e6 0.0
0.0 0.0 0.0

-8.21991723067289e6 1.2545979342588218e7 0.0
1.2545979342588218e7 3.1613714017810125e7 0.0
0.0 0.0 0.0

-6.238555169144399e6 1.389938038004181e7 0.0
1.389938038004181e7 7.040800204879084e6 0.0
0.0 0.0 0.0

720063.1937999399 1.2360393805883836e7 0.0
1.2360393805883836e7 -1.3150806003509453e7 0.0
0.0 0.0 0.0

-238206.79125016462 1.406606897378316e7 0.0
1.406606897378316e7 -8.522057925009245e6 0.0
0.0 0.0 0.0

7.25248737635874e7 1.4031558014978994e7 0.0
1.4031558014978994e7 3.9107711356048062e6 0.0
0.0 0.0 0.0

-6.180141449651781e6 -8.479508419457514e6 0.0
-8.479508419457514e6 1.5373670931324422e7 0.0
0.0 0.0 0.0

5.574486888335172e6 4.205907563239352e6 0.0
4.205907563239352e6 -1.7041559897080924e7 0.0
0.0 0.0 0.0

-2.117555174547634e6 3.698150052084769e6 0.0
3.698150052084769e6 547817.519772202 0.0
0.0 0.0 0.0

-4.000362764727497e6 1.6394190354858648e7 0.0
1.6394190354858648e7 -154596.7062758142 0.0
0.0 0.0 0.0

-9.505325985169584e6 -7.605399142350987e6 0.0
-7.605399142350987e6 2.565685881630553e7 0.0
0.0 0.0 0.0

-2.250980150268005e6 1.2277576146560289e7 0.0
1.2277576146560289e7 -1.5218068332659958e7 0.0
0.0 0.0 0.0

-1.065938006406678e7 6.420456073827579e6 0.0
6.420456073827579e6 1.4746763798191732e7 0.0
0.0 0.0 0.0

-8.723802340263257e6 1.1998901034918794e7 0.0
1.1998901034918794e7 1.0612876577044155e7 0.0
0.0 0.0 0.0

5.769817553815617e6 4.0311716112525454e6 0.0
4.0311716112525454e6 -1.8689442234232143e7 0.0
0.0 0.0 0.0

245582.41286716936 1.2497605675960008e7 0.0
1.2497605675960008e7 -8.221086906561048e6 0.0
0.0 0.0 0.0

-6.235888002779085e6 2.2746774565083716e7 0.0
2.2746774565083716e7 2.4939721837942326e6 0.0
0.0 0.0 0.0

1.336566175092416e6 8.880373377045734e6 0.0
8.880373377045734e6 -8.745916132214513e6 0.0
0.0 0.0 0.0

-992340.913164739 1.4954941481918383e7 0.0
1.4954941481918383e7 -1.8952930040343192e6 0.0
0.0 0.0 0.0

-5.701550646791421e6 5.919731963264722e6 0.0
5.919731963264722e6 6.629357539535689e7 0.0
0.0 0.0 0.0

3.346675096149018e6 7.729405504135922e6 0.0
7.729405504135922e6 -4.167435297169691e7 0.0
0.0 0.0 0.0

945208.7677769046 1.3545823143453328e7 0.0
1.3545823143453328e7 -3.314932342797507e7 0.0
0.0 0.0 0.0

1.1915679190641884e6 1.1536456240824241e7 0.0
1.1536456240824241e7 -1.0259026995633082e7 0.0
0.0 0.0 0.0

5.088816351172755e6 6.599846544321733e6 0.0
6.599846544321733e6 -2.0624096846494656e7 0.0
0.0 0.0 0.0

-1.2542209157056555e7 1.653259895248996e7 0.0
1.653259895248996e7 6.391180064436955e6 0.0
0.0 0.0 0.0

-1.5957397935647296e6 1.4826345523771022e7 0.0
1.4826345523771022e7 -6.796185177312801e6 0.0
0.0 0.0 0.0

-6.6091148655421855e6 -8.694565054105798e6 0.0
-8.694565054105798e6 1.6519737504983805e7 0.0
0.0 0.0 0.0

-4.806526009957903e6 7.859001667258896e6 0.0
7.859001667258896e6 3.844497606130994e6 0.0
0.0 0.0 0.0

-5.245233136554216e6 1.7316128928177554e7 0.0
1.7316128928177554e7 4.7415432929636175e6 0.0
0.0 0.0 0.0

-6.76107487829021e6 1.5331294628444877e7 0.0
1.5331294628444877e7 7.629844908972662e6 0.0
0.0 0.0 0.0

-7.354913502713449e6 9.645534884422576e6 0.0
9.645534884422576e6 7.111230922362856e6 0.0
0.0 0.0 0.0

-3.088661329306461e6 5.958960911511503e6 0.0
5.958960911511503e6 2.669318542880466e6 0.0
0.0 0.0 0.0

2.8660772364648194e6 1.250951622852673e7 0.0
1.250951622852673e7 617623.3238995151 0.0
0.0 0.0 0.0

-2.993588427539274e6 1.5769130157567896e7 0.0
1.5769130157567896e7 -3.3421828870675433e6 0.0
0.0 0.0 0.0

-471903.73359729734 5.791413295800543e6 0.0
5.791413295800543e6 -3.1523920875448915e6 0.0
0.0 0.0 0.0

-3.7485336274638167e6 1.7709262948877715e7 0.0
1.7709262948877715e7 726489.2956100581 0.0
0.0 0.0 0.0

-1.1815638837898342e7 8.999156714309184e6 0.0
8.999156714309184e6 1.3681666909712825e7 0.0
0.0 0.0 0.0

-5.933830811714845e6 1.1499872497920884e7 0.0
1.1499872497920884e7 6.484198633491497e6 0.0
0.0 0.0 0.0

-6.854879947075646e6 -8.482371790602872e6 0.0
-8.482371790602872e6 1.774060388071107e7 0.0
0.0 0.0 0.0

5.653180631035732e6 4.1318302369856974e6 0.0
4.1318302369856974e6 -1.7847599548525065e7 0.0
0.0 0.0 0.0

5.131737328478262e6 6.813369144786414e6 0.0
6.813369144786414e6 -2.17262833445348e7 0.0
0.0 0.0 0.0

-1.1768084584219787e7 5.586624626963132e6 0.0
5.586624626963132e6 1.3544280019237371e7 0.0
0.0 0.0 0.0

4.8379094214770235e6 5.892199551664964e6 0.0
5.892199551664964e6 -3.577279502731895e7 0.0
0.0 0.0 0.0

-9.91591603726493e6 -3.9451488062417246e6 0.0
-3.9451488062417246e6 3.670508955146537e7 0.0
0.0 0.0 0.0

2.376278898447101e6 8.42342134919731e6 0.0
8.42342134919731e6 -1.1065867231230231e7 0.0
0.0 0.0 0.0

3.531372956301787e6 7.735897051697146e6 0.0
7.735897051697146e6 -1.2187724416004388e7 0.0
0.0 0.0 0.0

-3.284938148870349e6 2.1227526042456254e7 0.0
2.1227526042456254e7 633668.1638352463 0.0
0.0 0.0 0.0

-6.795059891404703e6 1.9621055065316103e7 0.0
1.9621055065316103e7 6.940541821767421e6 0.0
0.0 0.0 0.0

-5.96982373899414e6 1.5843768223800572e7 0.0
1.5843768223800572e7 6.492857127120893e6 0.0
0.0 0.0 0.0

-3.335239687498532e6 1.705085826302591e7 0.0
1.705085826302591e7 -666290.794614168 0.0
0.0 0.0 0.0

-5.4578554763030205e6 2.1581621220317792e7 0.0
2.1581621220317792e7 4.617406756180052e6 0.0
0.0 0.0 0.0

-5.870451234688858e6 1.674609954461051e7 0.0
1.674609954461051e7 6.708690724919917e6 0.0
0.0 0.0 0.0

-1.5737719253206109e6 1.3704225004374707e7 0.0
1.3704225004374707e7 4.154135482601683e6 0.0
0.0 0.0 0.0

5.829171158119762e6 4.292516936284693e6 0.0
4.292516936284693e6 -2.9509633990533814e7 0.0
0.0 0.0 0.0

5.946615606720291e6 3.8142888764368147e6 0.0
3.8142888764368147e6 -2.0487858198639296e7 0.0
0.0 0.0 0.0

6.161833364133302e6 3.8647977659602705e6 0.0
3.8647977659602705e6 -2.5534654922790173e7 0.0
0.0 0.0 0.0

-5.119093042097641e6 1.7145031546327643e7 0.0
1.7145031546327643e7 2.7875390899930205e6 0.0
0.0 0.0 0.0

-3.250514057584165e6 7.385809405551507e6 0.0
7.385809405551507e6 461347.46255469276 0.0
0.0 0.0 0.0

-9.459302020777166e6 -7.161079766051255e6 0.0
-7.161079766051255e6 2.6606444130232792e7 0.0
0.0 0.0 0.0

-1.0612543273266215e7 6.150189600495199e6 0.0
6.150189600495199e6 1.2165629612348236e7 0.0
0.0 0.0 0.0

4.649113368543118e6 5.344780406596926e6 0.0
5.344780406596926e6 -1.3123251912084844e7 0.0
0.0 0.0 0.0

-8.999416000661168e6 1.781808025471037e7 0.0
1.781808025471037e7 6.3536858027600795e6 0.0
0.0 0.0 0.0

-2.442978017182864e6 1.2232779295357423e7 0.0
1.2232779295357423e7 -1.397215329708635e7 0.0
0.0 0.0 0.0

-3.7765597851729593e6 -7.559435308834315e6 0.0
-7.559435308834315e6 1.1552380186720047e7 0.0
0.0 0.0 0.0

-8.778609444855005e6 1.7482648208713622e6 0.0
1.7482648208713622e6 1.0215300134911738e7 0.0
0.0 0.0 0.0

-1.2773448121650584e7 3.761877876407481e6 0.0
3.761877876407481e6 1.8404764870651145e7 0.0
0.0 0.0 0.0

-6.20041020670628e6 1.4057137732027784e7 0.0
1.4057137732027784e7 1.0265452103762299e7 0.0
0.0 0.0 0.0

2.367471983308932e6 9.854812569852596e6 0.0
9.854812569852596e6 -1.4479240979122799e7 0.0
0.0 0.0 0.0

6.232417047694825e6 4.0678834869771125e6 0.0
4.0678834869771125e6 -2.8072791607612785e7 0.0
0.0 0.0 0.0

5.330698173615637e6 4.356958949316653e6 0.0
4.356958949316653e6 -1.5901190115510274e7 0.0
0.0 0.0 0.0

-1.3912082561727301e6 2.274391412122611e7 0.0
2.274391412122611e7 -6.203274837029366e6 0.0
0.0 0.0 0.0

-1.0112714213680789e7 -4.394742949472355e6 0.0
-4.394742949472355e6 3.507043865548538e7 0.0
0.0 0.0 0.0

4.585725904259119e6 7.451570964176511e6 0.0
7.451570964176511e6 -1.9181773417798568e7 0.0
0.0 0.0 0.0

-9.50003841284826e6 -322098.4830395645 0.0
-322098.4830395645 4.912973577804731e7 0.0
0.0 0.0 0.0

5.735263321918931e6 4.764969305422535e6 0.0
4.764969305422535e6 -3.195119710721077e7 0.0
0.0 0.0 0.0

-5.746197661341791e6 1.7580123298220403e7 0.0
1.7580123298220403e7 7.002545695732623e6 0.0
0.0 0.0 0.0

-572967.8367987961 9.345494135142606e6 0.0
9.345494135142606e6 -4.832207660195753e6 0.0
0.0 0.0 0.0

-1.1012660109780869e6 1.2960469108081868e7 0.0
1.2960469108081868e7 -6.365379888366892e6 0.0
0.0 0.0 0.0

511296.32284039445 1.2375672560855664e7 0.0
1.2375672560855664e7 -1.1467672322158566e7 0.0
0.0 0.0 0.0

-9.785505282713776e6 -3.4064176646963e6 0.0
-3.4064176646963e6 3.889948002675695e7 0.0
0.0 0.0 0.0

6.111070736334462e6 3.993950325467086e6 0.0
3.993950325467086e6 -2.6635320774347883e7 0.0
0.0 0.0 0.0

-1.1626607567201216e7 9.646103235761793e6 0.0
9.646103235761793e6 1.4194586630100247e7 0.0
0.0 0.0 0.0

-1.1422972943602476e7 8.56189934505944e6 0.0
8.56189934505944e6 1.327135762508722e7 0.0
0.0 0.0 0.0

-1.2769252806233298e7 4.824796155621358e6 0.0
4.824796155621358e6 1.659698564333701e7 0.0
0.0 0.0 0.0

-6.543294080322809e6 1.0271229679516189e7 0.0
1.0271229679516189e7 8.046146916255771e6 0.0
0.0 0.0 0.0

-1.8003932223543022e6 1.4776058103746038e7 0.0
1.4776058103746038e7 1.4586676301174402e7 0.0
0.0 0.0 0.0

-2.5114287556685735e6 1.6107310180773407e7 0.0
1.6107310180773407e7 -2.8077182858766317e6 0.0
0.0 0.0 0.0

-5.102185685050418e6 1.807773970418568e7 0.0
1.807773970418568e7 2.9454429505350683e6 0.0
0.0 0.0 0.0

-3.4112616711308584e6 1.683918093004048e7 0.0
1.683918093004048e7 -1.8277430257602576e6 0.0
0.0 0.0 0.0

2.91040992621673e6 8.469455450401884e6 0.0
8.469455450401884e6 -1.1003897147376541e7 0.0
0.0 0.0 0.0

-5.6045758017325625e6 1.895485266521112e7 0.0
1.895485266521112e7 6.048124237561646e6 0.0
0.0 0.0 0.0

-670120.9879201044 1.438686401089099e7 0.0
1.438686401089099e7 -2.812642285694935e6 0.0
0.0 0.0 0.0

1.8133089777830085e6 1.091913567532555e7 0.0
1.091913567532555e7 -1.1539701358280446e7 0.0
0.0 0.0 0.0

-1.217005683799964e7 8.50240907159655e6 0.0
8.50240907159655e6 1.7694093425069313e7 0.0
0.0 0.0 0.0

-1.207056522972034e7 6.058141675820673e6 0.0
6.058141675820673e6 1.4174353344539106e7 0.0
0.0 0.0 0.0

2.928033292368996e6 8.001316130446608e6 0.0
8.001316130446608e6 -1.2603756404028049e7 0.0
0.0 0.0 0.0

-8.321878839493231e6 -8.320447980534007e6 0.0
-8.320447980534007e6 2.1509028956965823e7 0.0
0.0 0.0 0.0

5.792408274218196e6 3.9947254249443924e6 0.0
3.9947254249443924e6 -1.9109136833201993e7 0.0
0.0 0.0 0.0

-4.0199413284854223e6 1.453980244200278e7 0.0
1.453980244200278e7 9.56115873234475e6 0.0
0.0 0.0 0.0

-1.0082338386135286e7 -4.912811952416438e6 0.0
-4.912811952416438e6 3.343611904599522e7 0.0
0.0 0.0 0.0

6.109707670280218e6 3.875141403450186e6 0.0
3.875141403450186e6 -2.3889827983826026e7 0.0
0.0 0.0 0.0

5.800265838827735e6 3.9686172863108357e6 0.0
3.9686172863108357e6 -1.953522351337392e7 0.0
0.0 0.0 0.0

-8.725539409569522e6 -8.225956844645042e6 0.0
-8.225956844645042e6 2.2771330959796652e7 0.0
0.0 0.0 0.0

-9.336891476686552e6 1.2254906829231635e7 0.0
1.2254906829231635e7 2.0347040419030216e7 0.0
0.0 0.0 0.0

6.165704263849326e6 3.83598674311034e6 0.0
3.83598674311034e6 -2.331057538668651e7 0.0
0.0 0.0 0.0

-9.966967485660858e6 -5.473983368115032e6 0.0
-5.473983368115032e6 3.1717846530486204e7 0.0
0.0 0.0 0.0

-6.842660584080111e6 1.3916640745685743e7 0.0
1.3916640745685743e7 1.0992315009482773e7 0.0
0.0 0.0 0.0

-8.72037342929927e6 -5.327735114218111e6 0.0
-5.327735114218111e6 1.892874054118854e7 0.0
0.0 0.0 0.0

-9.216318910448493e6 -7.919084987382444e6 0.0
-7.919084987382444e6 2.443446675048571e7 0.0
0.0 0.0 0.0

5.973392751898575e6 3.91219468575571e6 0.0
3.91219468575571e6 -2.0089651107835695e7 0.0
0.0 0.0 0.0

6.123759209903718e6 3.87329951894923e6 0.0
3.87329951894923e6 -2.266321954467867e7 0.0
0.0 0.0 0.0

-9.930229283913132e6 -5.924217509646245e6 0.0
-5.924217509646245e6 3.027502295396805e7 0.0
0.0 0.0 0.0

-1.6737035503605884e8 4.121405036669494e7 0.0
4.121405036669494e7 -1.3702365783311255e7 0.0
0.0 0.0 0.0

1.1947606722829376e8 2.072818131075891e7 0.0
2.072818131075891e7 3.036569904120952e6 0.0
0.0 0.0 0.0

-7.743783688409896e6 9.900979979165444e6 0.0
9.900979979165444e6 8.107844271466231e6 0.0
0.0 0.0 0.0

5.998634061396755e6 3.8671188214040175e6 0.0
3.8671188214040175e6 -2.204467950445378e7 0.0
0.0 0.0 0.0

-9.930527538292745e6 -6.225201113061228e6 0.0
-6.225201113061228e6 2.9179521821818523e7 0.0
0.0 0.0 0.0

935070.3289818576 1.1096010500426443e7 0.0
1.1096010500426443e7 -2.6537530044550947e6 0.0
0.0 0.0 0.0

-1.1674325430145266e7 7.095513680682757e6 0.0
7.095513680682757e6 1.3540551191713605e7 0.0
0.0 0.0 0.0

-5.041266129940808e6 1.7518488422403637e7 0.0
1.7518488422403637e7 4.306699465458773e6 0.0
0.0 0.0 0.0

-3.4659891035708915e6 1.4873663565854624e7 0.0
1.4873663565854624e7 1.00518558005389e7 0.0
0.0 0.0 0.0

-9.783889774314912e6 -6.594501066730198e6 0.0
-6.594501066730198e6 2.800953364736633e7 0.0
0.0 0.0 0.0

6.060083547933444e6 3.827229665841116e6 0.0
3.827229665841116e6 -2.163823534731712e7 0.0
0.0 0.0 0.0

-3.2288739285218487e6 1.610894725541005e7 0.0
1.610894725541005e7 -2.5494431976508154e6 0.0
0.0 0.0 0.0

-1.5711433880840968e6 1.3441414209032236e7 0.0
1.3441414209032236e7 -2.4361624413862187e7 0.0
0.0 0.0 0.0

-4.35038998011915e6 1.7703186951419543e7 0.0
1.7703186951419543e7 968772.2812443064 0.0
0.0 0.0 0.0

923871.8456077073 1.186299365670181e7 0.0
1.186299365670181e7 -9.584580782139543e6 0.0
0.0 0.0 0.0

1.3934584969401192e6 1.1345588746591521e7 0.0
1.1345588746591521e7 -1.3543349975317217e7 0.0
0.0 0.0 0.0

-1.0344993030406153e6 1.3608396988057034e7 0.0
1.3608396988057034e7 1.9820433377669638e6 0.0
0.0 0.0 0.0

-2.461169255065175e6 1.6325710915805383e7 0.0
1.6325710915805383e7 -4.465853698329138e6 0.0
0.0 0.0 0.0

-1.5375587509784342e6 1.5045828283262212e7 0.0
1.5045828283262212e7 -5.609874365624253e6 0.0
0.0 0.0 0.0

-666220.413385802 1.2349875781771261e7 0.0
1.2349875781771261e7 -1.972044724350575e7 0.0
0.0 0.0 0.0

-4.619078970539767e6 1.7962725897883575e7 0.0
1.7962725897883575e7 3.132368400025407e6 0.0
0.0 0.0 0.0

-6.454624172573615e6 1.5626972332449486e7 0.0
1.5626972332449486e7 6.884551438798684e6 0.0
0.0 0.0 0.0

-3.4505842861943664e6 1.6943947437614705e7 0.0
1.6943947437614705e7 -3.106460328110965e6 0.0
0.0 0.0 0.0

1.246749711078737e6 1.1593328297274629e7 0.0
1.1593328297274629e7 -1.3627203293525705e7 0.0
0.0 0.0 0.0

-9.139399385944974e6 7.137307212579102e6 0.0
7.137307212579102e6 1.0342921264137387e7 0.0
0.0 0.0 0.0

1503.5580022120848 1.3088738623166144e7 0.0
1.3088738623166144e7 3.4467952025681906e6 0.0
0.0 0.0 0.0

-8.911782127011329e6 8.345334526488488e6 0.0
8.345334526488488e6 1.0332283324046832e7 0.0
0.0 0.0 0.0

-2.3999357848786614e6 1.278945799972558e7 0.0
1.278945799972558e7 -1.3954797909770738e6 0.0
0.0 0.0 0.0

-4.733379964132776e6 1.785255135848647e7 0.0
1.785255135848647e7 3.559927722028125e6 0.0
0.0 0.0 0.0

835476.5248759994 1.1670311751220992e7 0.0
1.1670311751220992e7 -1.5948914675640848e7 0.0
0.0 0.0 0.0

-5.814134601352258e6 1.4201615805607338e7 0.0
1.4201615805607338e7 1.0270564964074742e7 0.0
0.0 0.0 0.0

-5.797045030425605e6 2.2015552554671984e7 0.0
2.2015552554671984e7 5.003644740880728e6 0.0
0.0 0.0 0.0

-3.1316812722654366e6 1.2972184531778062e7 0.0
1.2972184531778062e7 -1.6423812416979875e6 0.0
0.0 0.0 0.0

-3.72508206435326e6 1.6758122362025823e7 0.0
1.6758122362025823e7 -1.1171336326247088e6 0.0
0.0 0.0 0.0

3.2629201975642834e6 1.4641784197555283e7 0.0
1.4641784197555283e7 6.104301306282742e6 0.0
0.0 0.0 0.0

-4.897508519435663e6 1.7699066551849794e7 0.0
1.7699066551849794e7 3.9018401064722836e6 0.0
0.0 0.0 0.0

-9.958023471115988e6 7.369244014239562e6 0.0
7.369244014239562e6 5.147851822044831e6 0.0
0.0 0.0 0.0

-4.732352946896123e6 1.898678092716063e7 0.0
1.898678092716063e7 3.6825826612987034e6 0.0
0.0 0.0 0.0

4.844469267430531e6 4.743359812946026e6 0.0
4.743359812946026e6 -1.3504820462168992e7 0.0
0.0 0.0 0.0

4.820783976071158e6 4.831870642772366e6 0.0
4.831870642772366e6 -1.3202002108081024e7 0.0
0.0 0.0 0.0

-3.4320349687248347e6 1.6465488715184335e7 0.0
1.6465488715184335e7 -1.6933902439112074e6 0.0
0.0 0.0 0.0

-3.4172952693455266e6 1.4950794851935023e7 0.0
1.4950794851935023e7 1.247127371412399e7 0.0
0.0 0.0 0.0

-4.673348312634965e6 1.9406808368900254e7 0.0
1.9406808368900254e7 3.644203261607205e6 0.0
0.0 0.0 0.0

-1.2551588726538206e7 4.792676805876958e6 0.0
4.792676805876958e6 1.5611527505420102e7 0.0
0.0 0.0 0.0

-5.140879154913594e6 2.0839406390425112e7 0.0
2.0839406390425112e7 4.448744386338862e6 0.0
0.0 0.0 0.0

-4.066194334812097e6 1.443452273615898e7 0.0
1.443452273615898e7 6.171182919111121e6 0.0
0.0 0.0 0.0

-1.088055301792535e6 1.0176707820057023e7 0.0
1.0176707820057023e7 1.571440799441262e6 0.0
0.0 0.0 0.0

3.0503153447073465e6 9.67923799429241e6 0.0
9.67923799429241e6 -1.5041236283640452e7 0.0
0.0 0.0 0.0

-5.692465437337896e6 1.7478798063105974e7 0.0
1.7478798063105974e7 4.48690503893276e6 0.0
0.0 0.0 0.0

-7.183004807315124e6 -2.305192290079948e6 0.0
-2.305192290079948e6 1.023423632941926e7 0.0
0.0 0.0 0.0

-1.0050474109761065e7 1.133549921214345e7 0.0
1.133549921214345e7 2.1015504903694794e7 0.0
0.0 0.0 0.0

-72703.80746124778 1.2189952191977331e7 0.0
1.2189952191977331e7 -2.2278048443922393e7 0.0
0.0 0.0 0.0

-1.2169698859867929e7 5.848667913489744e6 0.0
5.848667913489744e6 1.789436734702423e7 0.0
0.0 0.0 0.0

220869.59352477686 1.6692595304432778e7 0.0
1.6692595304432778e7 -4.745912656553529e6 0.0
0.0 0.0 0.0

2.663188510749357e6 9.969307813739838e6 0.0
9.969307813739838e6 -1.3504528487511063e7 0.0
0.0 0.0 0.0

-3.32560432541149e6 1.2710551163806947e7 0.0
1.2710551163806947e7 -1.2551117698685713e6 0.0
0.0 0.0 0.0

-4.1175996599845295e6 1.7415411938400917e7 0.0
1.7415411938400917e7 294564.9219796257 0.0
0.0 0.0 0.0

792602.957344024 1.098809152453795e7 0.0
1.098809152453795e7 -4.980815807852225e6 0.0
0.0 0.0 0.0

-1.0112017382781545e7 5.817979771101965e6 0.0
5.817979771101965e6 1.4086881238627493e7 0.0
0.0 0.0 0.0

-1.2257238164630774e7 7.498831463984681e6 0.0
7.498831463984681e6 1.7583755624591727e7 0.0
0.0 0.0 0.0

-3.9242606640302804e6 1.708002770892354e7 0.0
1.708002770892354e7 -407368.1798338342 0.0
0.0 0.0 0.0

-6.881690006462329e6 9.491475791522592e6 0.0
9.491475791522592e6 8.777466120651511e6 0.0
0.0 0.0 0.0

5.497416328104936e6 5.26610965603335e6 0.0
5.26610965603335e6 -1.925669553054918e7 0.0
0.0 0.0 0.0

-7.426408863201519e6 1.1622483508883532e7 0.0
1.1622483508883532e7 7.608724882632551e6 0.0
0.0 0.0 0.0

493266.5747237471 1.1516861965392021e7 0.0
1.1516861965392021e7 -8.054669904407824e6 0.0
0.0 0.0 0.0

580685.5337241914 1.1107742913426215e7 0.0
1.1107742913426215e7 -697745.8578526458 0.0
0.0 0.0 0.0

-1.6544038309522057e6 1.4345958310977323e7 0.0
1.4345958310977323e7 -5.257961208534903e6 0.0
0.0 0.0 0.0

-1.9968778862703224e6 1.2854918441792347e7 0.0
1.2854918441792347e7 -3.965676975658802e6 0.0
0.0 0.0 0.0

1.125903222167801e6 1.1624756568253234e7 0.0
1.1624756568253234e7 -1.2810421132391369e7 0.0
0.0 0.0 0.0

3.76268382227497e6 7.416254695104489e6 0.0
7.416254695104489e6 -1.535199987573426e7 0.0
0.0 0.0 0.0

646046.4132999345 1.1247494680735163e7 0.0
1.1247494680735163e7 -6.605819538467588e6 0.0
0.0 0.0 0.0

2.316835746046822e6 8.708690280674867e6 0.0
8.708690280674867e6 -1.137998477281817e7 0.0
0.0 0.0 0.0

4.186428822287849e6 5.352960247750573e6 0.0
5.352960247750573e6 -1.1530317799286133e7 0.0
0.0 0.0 0.0

-5.356645135965797e6 1.784022959723906e7 0.0
1.784022959723906e7 3.6945862722947667e6 0.0
0.0 0.0 0.0

-577687.5147789367 9.630606215113152e6 0.0
9.630606215113152e6 -5.3875313622539565e6 0.0
0.0 0.0 0.0

-5.550884681027109e6 1.4147343075021127e7 0.0
1.4147343075021127e7 9.61488545080776e6 0.0
0.0 0.0 0.0

-2.078202733440159e6 526248.1396983175 0.0
526248.1396983175 2.7165721261197757e6 0.0
0.0 0.0 0.0

1.8086171276457529e6 1.2570235812025068e7 0.0
1.2570235812025068e7 -932660.4480882062 0.0
0.0 0.0 0.0

-2.6162061950347694e6 1.4346013994694509e7 0.0
1.4346013994694509e7 -3.4220223836419624e6 0.0
0.0 0.0 0.0

3.241884961957872e6 7.619153527875484e6 0.0
7.619153527875484e6 -1.3166925112743633e7 0.0
0.0 0.0 0.0

-6.310367048366607e7 1.0008113776893474e7 0.0
1.0008113776893474e7 1.1236346734895099e7 0.0
0.0 0.0 0.0

-7.7896824590056995e6 1.3121881917799225e7 0.0
1.3121881917799225e7 1.2366244591969233e7 0.0
0.0 0.0 0.0

-165668.82104629558 1.3346123739612857e7 0.0
1.3346123739612857e7 -8.2988127194606755e6 0.0
0.0 0.0 0.0

-1.2955056525518538e6 1.200595816175296e7 0.0
1.200595816175296e7 -5.05077075863786e6 0.0
0.0 0.0 0.0

2.3517199186618784e6 1.0633299643351806e7 0.0
1.0633299643351806e7 -1.3918794845992923e7 0.0
0.0 0.0 0.0

-1.0558418398869538e6 1.3537609793052088e7 0.0
1.3537609793052088e7 4.0022638603771003e6 0.0
0.0 0.0 0.0

2.9554275119642057e6 9.930287324245116e6 0.0
9.930287324245116e6 -1.6701075464110289e7 0.0
0.0 0.0 0.0

-872802.1450100623 1.3744964139324563e7 0.0
1.3744964139324563e7 4.901096713000653e6 0.0
0.0 0.0 0.0

-43275.97506377613 1.23032803041305e7 0.0
1.23032803041305e7 -9.119489561636906e6 0.0
0.0 0.0 0.0

3.9502168814323265e6 7.530778424518604e6 0.0
7.530778424518604e6 -1.3856504401017293e7 0.0
0.0 0.0 0.0

5.736618603298923e6 4.356990746194618e6 0.0
4.356990746194618e6 -2.145271465422947e7 0.0
0.0 0.0 0.0

-2.5624614233935988e6 1.7804640538841523e7 0.0
1.7804640538841523e7 -3.1409041314265938e6 0.0
0.0 0.0 0.0

3.0942441730437223e6 9.77540037595519e6 0.0
9.77540037595519e6 -1.5903772215979118e7 0.0
0.0 0.0 0.0

-5.668689085453464e6 1.8605946109491028e7 0.0
1.8605946109491028e7 6.271523274170402e6 0.0
0.0 0.0 0.0

-4.063511121169239e6 1.5070785373203743e7 0.0
1.5070785373203743e7 1.0981021437657694e6 0.0
0.0 0.0 0.0

2.328164916185987e6 6.952167156902142e6 0.0
6.952167156902142e6 -7.79958551300769e6 0.0
0.0 0.0 0.0

-6.423325409653369e6 2.2503890688896142e7 0.0
2.2503890688896142e7 5.2999912867842605e6 0.0
0.0 0.0 0.0

3.4454584441608256e6 8.030574067198775e6 0.0
8.030574067198775e6 -1.2490410437425543e7 0.0
0.0 0.0 0.0

-6.149083672040125e6 1.3781101698287714e7 0.0
1.3781101698287714e7 1.936408478762804e7 0.0
0.0 0.0 0.0

-596057.4641820082 1.3793938057229575e7 0.0
1.3793938057229575e7 -34843.802168972936 0.0
0.0 0.0 0.0

-6.8670661994820945e6 1.9135157520403355e7 0.0
1.9135157520403355e7 6.853461964130914e6 0.0
0.0 0.0 0.0

-7.940450682021387e6 7.789269595723582e6 0.0
7.789269595723582e6 1.1302878971893575e7 0.0
0.0 0.0 0.0

1.970604296531316e6 1.0486044574398581e7 0.0
1.0486044574398581e7 -1.3984077030267447e7 0.0
0.0 0.0 0.0

-1.2334501576109445e6 8.388828239060467e6 0.0
8.388828239060467e6 -3.121129279718215e6 0.0
0.0 0.0 0.0

-1.5656910233999444e6 1.3230930473210325e7 0.0
1.3230930473210325e7 -3.370237726356469e6 0.0
0.0 0.0 0.0

5.286430546490725e6 1.3012570206257824e7 0.0
1.3012570206257824e7 -1.8908076534390212e6 0.0
0.0 0.0 0.0

188768.16850006394 1.3356921975736149e7 0.0
1.3356921975736149e7 -9.463682548997499e6 0.0
0.0 0.0 0.0

976235.466552471 7.478618556268437e6 0.0
7.478618556268437e6 -5.067650799023729e6 0.0
0.0 0.0 0.0

1.5248531656125821e6 1.1056321349411797e7 0.0
1.1056321349411797e7 -1.3424071310797645e7 0.0
0.0 0.0 0.0

-7.105010294991185e6 -5.377085459921777e6 0.0
-5.377085459921777e6 1.3952003129046813e7 0.0
0.0 0.0 0.0

-6.188044581377089e6 1.4785091662717812e7 0.0
1.4785091662717812e7 9.512282389756493e6 0.0
0.0 0.0 0.0

-1.1989852548027638e7 7.470720714433251e6 0.0
7.470720714433251e6 1.4122042930398736e7 0.0
0.0 0.0 0.0

-1.1078248102465687e7 1.818979215406702e7 0.0
1.818979215406702e7 4.618364693159314e6 0.0
0.0 0.0 0.0

-585344.5380966337 1.2302795028215399e7 0.0
1.2302795028215399e7 -1.9480203748587105e7 0.0
0.0 0.0 0.0

-5.802818123429736e6 1.7171896400422227e7 0.0
1.7171896400422227e7 6.738106334902879e6 0.0
0.0 0.0 0.0

-5.891327430601715e6 1.778112193637149e7 0.0
1.778112193637149e7 6.709296089254277e6 0.0
0.0 0.0 0.0

-1.3538202794531186e6 1.526728472897874e7 0.0
1.526728472897874e7 -6.3778868336101435e6 0.0
0.0 0.0 0.0

782190.900678657 1.1520851892072845e7 0.0
1.1520851892072845e7 -2.0444602593347806e7 0.0
0.0 0.0 0.0

-5.185868909932724e6 1.3938841255434101e7 0.0
1.3938841255434101e7 9.374932614339327e6 0.0
0.0 0.0 0.0

-1.2190034341572408e7 863578.5025731211 0.0
863578.5025731211 2.4917258950803407e7 0.0
0.0 0.0 0.0

2.466025108377392e6 4.590273512807785e6 0.0
4.590273512807785e6 -6.7489303712857235e6 0.0
0.0 0.0 0.0

609210.959251943 1.2190207987754304e7 0.0
1.2190207987754304e7 -1.2879448141113345e7 0.0
0.0 0.0 0.0

-2.1231564231347213e6 1.5894645389554236e7 0.0
1.5894645389554236e7 -5.202596107625639e6 0.0
0.0 0.0 0.0

-2.6661621366333724e6 1.3365467804440042e7 0.0
1.3365467804440042e7 -1.0104670717748598e6 0.0
0.0 0.0 0.0

-477260.36500363424 1.137278072742703e7 0.0
1.137278072742703e7 -6.45839157075585e6 0.0
0.0 0.0 0.0

-2.9275931590051115e6 1.2548350854264732e7 0.0
1.2548350854264732e7 -1.558807058542607e7 0.0
0.0 0.0 0.0

-1.2830221732707534e7 6.5643706180406995e6 0.0
6.5643706180406995e6 1.6385029888479449e7 0.0
0.0 0.0 0.0

-4.350017340131371e6 1.921785476786979e7 0.0
1.921785476786979e7 2.6863489831018727e6 0.0
0.0 0.0 0.0

-1.6603770006255463e7 1.6265898564002935e7 0.0
1.6265898564002935e7 8.53061406627755e6 0.0
0.0 0.0 0.0

1.9626224018212305e6 1.2777352394667385e7 0.0
1.2777352394667385e7 -832038.2004190843 0.0
0.0 0.0 0.0

2.0302157949355422e6 6.821567067144114e6 0.0
6.821567067144114e6 -8.716005485271804e6 0.0
0.0 0.0 0.0

-2.8214382296870113e6 1.3094910742257537e7 0.0
1.3094910742257537e7 -636265.6007816491 0.0
0.0 0.0 0.0

-1.2143245701729389e7 4.89693810173234e6 0.0
4.89693810173234e6 1.9749661209638376e7 0.0
0.0 0.0 0.0

-6.14645385546981e6 1.9532489866581447e7 0.0
1.9532489866581447e7 6.33968237626639e6 0.0
0.0 0.0 0.0

-5.88944253348363e6 1.3846986792976841e7 0.0
1.3846986792976841e7 1.0211534718904613e7 0.0
0.0 0.0 0.0

-4.901901600685531e6 1.816476161773069e7 0.0
1.816476161773069e7 2.5886876273120632e6 0.0
0.0 0.0 0.0

300159.18012130866 1.2004668338618042e7 0.0
1.2004668338618042e7 -9.798058719547722e6 0.0
0.0 0.0 0.0

-1.2686979713751085e7 6.652032099607314e6 0.0
6.652032099607314e6 1.8878928069329556e7 0.0
0.0 0.0 0.0

420377.1735171359 1.2563189359566178e7 0.0
1.2563189359566178e7 -1.1555091659170061e7 0.0
0.0 0.0 0.0

-2.2439233105698046e6 1.5180201070744094e7 0.0
1.5180201070744094e7 -1.5973830834335398e6 0.0
0.0 0.0 0.0

-4.466167331695858e6 1.9461337496136736e7 0.0
1.9461337496136736e7 2.8024934188704276e6 0.0
0.0 0.0 0.0

3.8390453096209113e6 5.816232117008741e6 0.0
5.816232117008741e6 -1.175956030850453e7 0.0
0.0 0.0 0.0

177606.41374677606 1.4638395305660544e7 0.0
1.4638395305660544e7 -6.864265958383273e6 0.0
0.0 0.0 0.0

-5.726458314488484e6 1.7046879664839763e7 0.0
1.7046879664839763e7 6.247685109503671e6 0.0
0.0 0.0 0.0

-8.626171965937063e6 6.716524641317929e6 0.0
6.716524641317929e6 1.2384947714969816e7 0.0
0.0 0.0 0.0

-2.05546842346885e6 1.6203199725281984e7 0.0
1.6203199725281984e7 -3.345195976132311e6 0.0
0.0 0.0 0.0

-1.276998473828885e7 8.3406238209307855e6 0.0
8.3406238209307855e6 1.5777921981099337e7 0.0
0.0 0.0 0.0

-1.771003180167279e6 4.0837263286379375e6 0.0
4.0837263286379375e6 4.883441069401771e6 0.0
0.0 0.0 0.0

-5.75170938235901e6 1.6605353924759489e7 0.0
1.6605353924759489e7 6.126558006246118e6 0.0
0.0 0.0 0.0

-1.2322025063242301e7 5.101245162430164e6 0.0
5.101245162430164e6 1.4649833821175579e7 0.0
0.0 0.0 0.0

-7.078005714655236e6 1.4052427767487405e7 0.0
1.4052427767487405e7 7.731363253480432e6 0.0
0.0 0.0 0.0

-740724.9257727372 1.447724930214849e7 0.0
1.447724930214849e7 1.0776129879809702e7 0.0
0.0 0.0 0.0

1.1866641605910808e6 1.1253645314626368e7 0.0
1.1253645314626368e7 -1.876654671710781e7 0.0
0.0 0.0 0.0

-1.8333032908147583e6 825937.7855238862 0.0
825937.7855238862 2.161455705292211e6 0.0
0.0 0.0 0.0

-523440.7439389761 1.7978261705904167e7 0.0
1.7978261705904167e7 -4.295863419273091e6 0.0
0.0 0.0 0.0

-1.1944488220553182e7 4.962361532798405e6 0.0
4.962361532798405e6 1.7543859294656526e7 0.0
0.0 0.0 0.0

632474.7690685391 1.0145103353300676e7 0.0
1.0145103353300676e7 -8.1127563241308825e6 0.0
0.0 0.0 0.0

-4.269658173042783e6 1.401781024450215e7 0.0
1.401781024450215e7 7.790849000418557e6 0.0
0.0 0.0 0.0

-1.2833672330477552e6 1.2693449560491784e7 0.0
1.2693449560491784e7 -3.7196874171864977e6 0.0
0.0 0.0 0.0

-6.982457727563344e6 1.4264975904637493e7 0.0
1.4264975904637493e7 9.978478756733993e6 0.0
0.0 0.0 0.0

272410.4748472674 8.700869012620118e6 0.0
8.700869012620118e6 -5.216056959935694e6 0.0
0.0 0.0 0.0

-5.178011194442923e6 1.5958421088936433e7 0.0
1.5958421088936433e7 4.629211286579207e6 0.0
0.0 0.0 0.0

-7.056704461302176e6 1.419492856922501e7 0.0
1.419492856922501e7 8.244020733085363e6 0.0
0.0 0.0 0.0

-139774.18110797135 1.4607951256610014e7 0.0
1.4607951256610014e7 -7.283694723979422e6 0.0
0.0 0.0 0.0

-5.97951391768023e6 1.7030346401543878e7 0.0
1.7030346401543878e7 5.405670728144683e6 0.0
0.0 0.0 0.0

-4.686664585857883e6 1.975458385280454e7 0.0
1.975458385280454e7 3.887412250409909e6 0.0
0.0 0.0 0.0

1.2736041380252587e6 1.1258658769872237e7 0.0
1.1258658769872237e7 -1.6868277566731818e7 0.0
0.0 0.0 0.0

1.8286592911056096e6 4.237130726279311e6 0.0
4.237130726279311e6 -4.325739614218963e6 0.0
0.0 0.0 0.0

-1.5090661217557106e6 3.6578938435329692e6 0.0
3.6578938435329692e6 -314917.53745529684 0.0
0.0 0.0 0.0

5.864228290691791e6 5.197074092147068e6 0.0
5.197074092147068e6 -2.6293110768379234e7 0.0
0.0 0.0 0.0

-2.4357510090833716e6 1.5568509925408646e7 0.0
1.5568509925408646e7 -2.8160677144195605e6 0.0
0.0 0.0 0.0

-6.518452112776982e6 1.371052598322103e7 0.0
1.371052598322103e7 1.0901662297987606e7 0.0
0.0 0.0 0.0

-1.1205145398928136e7 6.527438826252608e6 0.0
6.527438826252608e6 1.2840388432487886e7 0.0
0.0 0.0 0.0

-7.109132010301804e6 2.3056271564303827e7 0.0
2.3056271564303827e7 5.580717139788298e6 0.0
0.0 0.0 0.0

-1.2598098916779023e7 3.7797742954323534e6 0.0
3.7797742954323534e6 1.7163326796244718e7 0.0
0.0 0.0 0.0

8.394684501541449e6 3.61996122847598e7 0.0
3.61996122847598e7 -9.646477284077311e6 0.0
0.0 0.0 0.0

-1.5571598293301652e6 1.4469865598968297e7 0.0
1.4469865598968297e7 -6.706229525299406e6 0.0
0.0 0.0 0.0

1.4952716058155634e6 1.122466421227374e7 0.0
1.122466421227374e7 -1.0868153356473532e7 0.0
0.0 0.0 0.0

-5.507960233686874e6 1.4391263822863879e7 0.0
1.4391263822863879e7 8.993500608060325e6 0.0
0.0 0.0 0.0

-1.2889474423478944e7 5.84479923664499e6 0.0
5.84479923664499e6 1.7920109281190507e7 0.0
0.0 0.0 0.0

-1.9752290027532722e6 1.5342334400088135e7 0.0
1.5342334400088135e7 -4.36562621598855e6 0.0
0.0 0.0 0.0

-40097.48225063045 1.131671930861247e7 0.0
1.131671930861247e7 1.2875662354951333e6 0.0
0.0 0.0 0.0

5.320276413421211e6 4.596252583908557e6 0.0
4.596252583908557e6 -1.776308883607123e7 0.0
0.0 0.0 0.0

-3.769491526356144e6 6.375597433570401e6 0.0
6.375597433570401e6 3.8543921372332107e6 0.0
0.0 0.0 0.0

-8.683581478367744e6 2.4525516797920696e7 0.0
2.4525516797920696e7 6.353978784740571e6 0.0
0.0 0.0 0.0

-7.873570395755108e6 1.3494780657696184e7 0.0
1.3494780657696184e7 1.1672638414026383e7 0.0
0.0 0.0 0.0

328133.85129982047 1.2177122467571491e7 0.0
1.2177122467571491e7 -1.1289622112521684e7 0.0
0.0 0.0 0.0

2.136194596228658e6 1.2818316909101635e7 0.0
1.2818316909101635e7 2.6740249309476367e6 0.0
0.0 0.0 0.0

-3.579292792501254e6 4.266071643234979e6 0.0
4.266071643234979e6 2.5874178575244416e6 0.0
0.0 0.0 0.0

-3.1174724354651636e6 7.958201516854568e6 0.0
7.958201516854568e6 99053.96234358824 0.0
0.0 0.0 0.0

332693.6831073575 1.1725518695073768e7 0.0
1.1725518695073768e7 -9.363623706764331e6 0.0
0.0 0.0 0.0

-126749.80065664952 1.1995705438195392e7 0.0
1.1995705438195392e7 -6.279185337820623e6 0.0
0.0 0.0 0.0

-8.2685377547638165e6 1.2726137535159372e7 0.0
1.2726137535159372e7 9.977586810759787e6 0.0
0.0 0.0 0.0

615869.9083017437 1.2041476509099318e7 0.0
1.2041476509099318e7 -1.3498510222427119e7 0.0
0.0 0.0 0.0

2.7904609925035797e6 9.998092712797603e6 0.0
9.998092712797603e6 -1.4390733636979e7 0.0
0.0 0.0 0.0

-5.807611006949111e6 1.7236708948083e7 0.0
1.7236708948083e7 7.051323469425924e6 0.0
0.0 0.0 0.0

1.0127898630931838e6 1.2335719619955676e7 0.0
1.2335719619955676e7 -1.1438047596846342e7 0.0
0.0 0.0 0.0

-1.1224087304610118e7 6.855835067633287e6 0.0
6.855835067633287e6 1.528079143750526e7 0.0
0.0 0.0 0.0

3.4611367080887407e6 5.585926840085841e6 0.0
5.585926840085841e6 -9.452645665357884e6 0.0
0.0 0.0 0.0

-1.8457733378222793e7 2.127537995437347e7 0.0
2.127537995437347e7 1.4216940197417364e6 0.0
0.0 0.0 0.0

1.7029393654598012e6 6.499967701584551e6 0.0
6.499967701584551e6 -7.629452450066321e6 0.0
0.0 0.0 0.0

3.731971530490508e6 4.422705324943269e6 0.0
4.422705324943269e6 -9.629970416554892e6 0.0
0.0 0.0 0.0

-5.818961423672061e6 1.767803805140271e7 0.0
1.767803805140271e7 6.842336001210628e6 0.0
0.0 0.0 0.0

670873.9214615369 1.0510388310221493e7 0.0
1.0510388310221493e7 2.2362467471870384e6 0.0
0.0 0.0 0.0

2.0350828207779555e6 1.3622709115257042e7 0.0
1.3622709115257042e7 -4.147120331116758e6 0.0
0.0 0.0 0.0

-9.830778564713044e6 1.2743659559500787e7 0.0
1.2743659559500787e7 1.4120939303750794e7 0.0
0.0 0.0 0.0

-7.210454031036423e6 1.3933232151179584e7 0.0
1.3933232151179584e7 1.3953233209182236e7 0.0
0.0 0.0 0.0

1.7157536867035516e6 1.2825254506870402e7 0.0
1.2825254506870402e7 2.228717298970463e7 0.0
0.0 0.0 0.0

-42679.483987165615 1.3135884812509174e7 0.0
1.3135884812509174e7 -2.5539851631025504e6 0.0
0.0 0.0 0.0

-6.471101482382972e6 1.4355773489456395e7 0.0
1.4355773489456395e7 1.011455370067481e7 0.0
0.0 0.0 0.0

-7.150241691221567e6 1.2212566427715622e7 0.0
1.2212566427715622e7 6.899548312580045e6 0.0
0.0 0.0 0.0

229600.76233175304 1.1899339723420313e7 0.0
1.1899339723420313e7 -1.0612320826208716e7 0.0
0.0 0.0 0.0

-6.04218740049569e6 1.724175162587102e7 0.0
1.724175162587102e7 5.932430893466828e6 0.0
0.0 0.0 0.0

-1.285321650053757e7 5.712484065831354e6 0.0
5.712484065831354e6 1.693508125543868e7 0.0
0.0 0.0 0.0

2.2505347235009493e6 1.6968837967996225e7 0.0
1.6968837967996225e7 -5.1809392954829205e6 0.0
0.0 0.0 0.0

-1.3130853607165955e6 1.4676403283876203e7 0.0
1.4676403283876203e7 -5.920723233899394e6 0.0
0.0 0.0 0.0

3.6347458717080215e6 6.748501948703519e6 0.0
6.748501948703519e6 -1.309958019026486e7 0.0
0.0 0.0 0.0

-488344.25921766344 1.5718361831394542e7 0.0
1.5718361831394542e7 -5.297186540190226e6 0.0
0.0 0.0 0.0

-3.9950474641476376e6 1.7485642816038955e7 0.0
1.7485642816038955e7 1.4205290727318653e6 0.0
0.0 0.0 0.0

-1.7107378399142916e6 1.0955809301270755e7 0.0
1.0955809301270755e7 -5.702460254965159e6 0.0
0.0 0.0 0.0

4.847763082398169e6 1.5799361373921646e7 0.0
1.5799361373921646e7 1.6159219261954442e7 0.0
0.0 0.0 0.0

-1.0469869107352342e7 -5.703191241556843e6 0.0
-5.703191241556843e6 2.3612698679282058e7 0.0
0.0 0.0 0.0

-582175.5707638843 1.2608609688943915e7 0.0
1.2608609688943915e7 3.049555470622536e6 0.0
0.0 0.0 0.0

-7.5272856513292845e6 -6.908533715620024e6 0.0
-6.908533715620024e6 1.5622773763677735e7 0.0
0.0 0.0 0.0

-3.6496096532332217e6 1.7770001529254038e7 0.0
1.7770001529254038e7 384109.1325038802 0.0
0.0 0.0 0.0

-2.2637814240181576e6 1.726688358615165e7 0.0
1.726688358615165e7 -3.7978774279628084e6 0.0
0.0 0.0 0.0

-7.847799213712527e6 2.370438313889647e7 0.0
2.370438313889647e7 5.707321969494402e6 0.0
0.0 0.0 0.0

-1.4569518611673745e6 1.4185196362065196e7 0.0
1.4185196362065196e7 7.836069646864055e6 0.0
0.0 0.0 0.0

-1.215973559872686e7 4.965466680853621e6 0.0
4.965466680853621e6 1.8569968699765734e7 0.0
0.0 0.0 0.0

-3.8748697553555854e6 1.809185615762983e7 0.0
1.809185615762983e7 1.1432372764539418e6 0.0
0.0 0.0 0.0

-6.979877863714587e6 1.47434472169608e7 0.0
1.47434472169608e7 7.730699062619355e6 0.0
0.0 0.0 0.0

-6.161367799944207e6 1.632666406058163e7 0.0
1.632666406058163e7 5.696549800497853e6 0.0
0.0 0.0 0.0

4.474240253561003e6 7.707129441671683e6 0.0
7.707129441671683e6 -2.0300321741751503e7 0.0
0.0 0.0 0.0

-5.790628563547634e6 1.7189828460958473e7 0.0
1.7189828460958473e7 7.356185113544647e6 0.0
0.0 0.0 0.0

4.665230793509271e6 1.2689024617274653e7 0.0
1.2689024617274653e7 3.7686059529160964e6 0.0
0.0 0.0 0.0

2.3773296276047044e6 1.0310549081897458e7 0.0
1.0310549081897458e7 -1.2842153346431071e7 0.0
0.0 0.0 0.0

-1.1060819488744432e7 -764281.1397099227 0.0
-764281.1397099227 3.6928650055535845e7 0.0
0.0 0.0 0.0

-4.5727288496056255e6 1.8761205273689758e7 0.0
1.8761205273689758e7 3.212108657625798e6 0.0
0.0 0.0 0.0

473643.6510751954 1.2948194948766353e7 0.0
1.2948194948766353e7 2.612231198647234e6 0.0
0.0 0.0 0.0

-5.468634666710503e7 4.541038737075526e7 0.0
4.541038737075526e7 -1.334159732434501e7 0.0
0.0 0.0 0.0

3.972261632750586e6 5.3646909362316625e6 0.0
5.3646909362316625e6 -1.1466073539662585e7 0.0
0.0 0.0 0.0

-3.082884092176218e6 1.3671591781655952e7 0.0
1.3671591781655952e7 -248274.42013539805 0.0
0.0 0.0 0.0

-9.128118607760735e6 1.7287931635791592e7 0.0
1.7287931635791592e7 5.093784556665976e6 0.0
0.0 0.0 0.0

414623.79346108343 1.3311657824636843e7 0.0
1.3311657824636843e7 -9.590231992512444e6 0.0
0.0 0.0 0.0

-1.4574068998158113e6 1.4440303612248568e7 0.0
1.4440303612248568e7 -7.220385818598015e6 0.0
0.0 0.0 0.0

4.155663415016775e6 1.3791238403173447e7 0.0
1.3791238403173447e7 -3.4384554561717077e6 0.0
0.0 0.0 0.0

-5.811209017611004e6 2.097060720121375e7 0.0
2.097060720121375e7 5.736484743908156e6 0.0
0.0 0.0 0.0

-1.842005547321499e6 1.5017924211422184e7 0.0
1.5017924211422184e7 -4.0120834526321325e6 0.0
0.0 0.0 0.0

5.526864718078228e6 5.542488445615691e6 0.0
5.542488445615691e6 -2.093726451553068e7 0.0
0.0 0.0 0.0

-1.369370513817511e7 1.893015167729846e7 0.0
1.893015167729846e7 -265719.82298684306 0.0
0.0 0.0 0.0

-6.587886130576134e6 1.4418667731459618e7 0.0
1.4418667731459618e7 8.286947563090052e6 0.0
0.0 0.0 0.0

-1.9827485789418719e6 1.6747469809906704e7 0.0
1.6747469809906704e7 -4.405875262591713e6 0.0
0.0 0.0 0.0

-6.563242937025217e6 1.3705874944708904e7 0.0
1.3705874944708904e7 1.797418882080964e7 0.0
0.0 0.0 0.0

4.598919922310993e6 1.523069529258258e7 0.0
1.523069529258258e7 -6.112898801523058e6 0.0
0.0 0.0 0.0

-5.738667491743522e6 1.6101201173236458e7 0.0
1.6101201173236458e7 7.9863702541975975e6 0.0
0.0 0.0 0.0

-739043.7735063743 1.2392769217674624e7 0.0
1.2392769217674624e7 -6.811397946219729e6 0.0
0.0 0.0 0.0

200299.01947449625 8.439142536934914e6 0.0
8.439142536934914e6 3.778314261031874e6 0.0
0.0 0.0 0.0

602152.6792098996 1.4499144616929075e7 0.0
1.4499144616929075e7 -6.393192190183926e6 0.0
0.0 0.0 0.0

-9.032499113407735e6 1.3219250231542295e7 0.0
1.3219250231542295e7 1.2854282551187946e7 0.0
0.0 0.0 0.0

-1.0832716785947349e7 2.767024488804888e6 0.0
2.767024488804888e6 3.8988814855370134e7 0.0
0.0 0.0 0.0

-1.0461513392735215e7 -1.954233835684047e6 0.0
-1.954233835684047e6 4.139190048999634e7 0.0
0.0 0.0 0.0

-1.4184849398590992e6 1.3466264492261698e7 0.0
1.3466264492261698e7 -5.878822416084284e6 0.0
0.0 0.0 0.0

247244.38792058174 1.3889082488596734e7 0.0
1.3889082488596734e7 -8.442971083383853e6 0.0
0.0 0.0 0.0

-1.3035337492294067e6 1.444719170842881e7 0.0
1.444719170842881e7 -7.528978876461588e6 0.0
0.0 0.0 0.0

-4.568133008704919e6 1.6025410741779044e7 0.0
1.6025410741779044e7 -747213.042659566 0.0
0.0 0.0 0.0

5.826429033872688e6 1.3142898217084585e7 0.0
1.3142898217084585e7 2.7847155634683794e6 0.0
0.0 0.0 0.0

-8.064851598784981e6 1.3383650084640123e7 0.0
1.3383650084640123e7 1.1338073129597731e7 0.0
0.0 0.0 0.0

-1.0235845715882631e6 1.4398346391050693e7 0.0
1.4398346391050693e7 -7.81486406460829e6 0.0
0.0 0.0 0.0

-776449.3378562147 1.190120646402649e7 0.0
1.190120646402649e7 -6.162983718277203e6 0.0
0.0 0.0 0.0

-6.3257353258787505e6 -1.2152129800381763e6 0.0
-1.2152129800381763e6 9.410707765668578e6 0.0
0.0 0.0 0.0

2.1464733149233432e6 1.0545793212609554e7 0.0
1.0545793212609554e7 -1.698599695350541e7 0.0
0.0 0.0 0.0

-9.988041588314418e6 -3.8814439176742374e6 0.0
-3.8814439176742374e6 1.6320592639153197e7 0.0
0.0 0.0 0.0

-4.259976796344673e6 -5.457217402322885e6 0.0
-5.457217402322885e6 9.700412036918819e6 0.0
0.0 0.0 0.0

-5.3537188094482515e6 -4.707428727873077e6 0.0
-4.707428727873077e6 1.0252481905226737e7 0.0
0.0 0.0 0.0

-2.7771148074234175e6 7.929993551986178e6 0.0
7.929993551986178e6 1.2589983042471837e6 0.0
0.0 0.0 0.0

642602.2280735308 1.1686915164802114e7 0.0
1.1686915164802114e7 -1.0488550500848522e7 0.0
0.0 0.0 0.0

2.6046273174620904e6 1.0389174300834429e7 0.0
1.0389174300834429e7 -1.674075990090573e7 0.0
0.0 0.0 0.0

-226998.26516872202 1.409630473035293e7 0.0
1.409630473035293e7 -2.5725343701726017e6 0.0
0.0 0.0 0.0

-673443.6663269817 1.4955297684946578e7 0.0
1.4955297684946578e7 -6.415334934397284e6 0.0
0.0 0.0 0.0

2.3072396222448554e6 1.3301295966446014e7 0.0
1.3301295966446014e7 -2.6326212268275367e6 0.0
0.0 0.0 0.0

-3.3061821769255553e6 1.6633416184253197e7 0.0
1.6633416184253197e7 -556693.819823728 0.0
0.0 0.0 0.0

2.183208475058677e7 1.5347372205904141e7 0.0
1.5347372205904141e7 1.8284743686037231e6 0.0
0.0 0.0 0.0

-1.0687151749547818e6 1.1171560959925711e7 0.0
1.1171560959925711e7 9.593551320814578e6 0.0
0.0 0.0 0.0

1.5629696874162236e6 1.4000523977219176e7 0.0
1.4000523977219176e7 -5.130960429741978e6 0.0
0.0 0.0 0.0

-1.3155642967577304e6 1.727264744139013e7 0.0
1.727264744139013e7 -3.7882229097663118e6 0.0
0.0 0.0 0.0

-4.281861525592103e6 1.857880298860169e7 0.0
1.857880298860169e7 2.298698849829348e6 0.0
0.0 0.0 0.0

679710.5031030718 1.2785905876533674e7 0.0
1.2785905876533674e7 -1.0893715326990971e7 0.0
0.0 0.0 0.0

-8.2913796187293315e6 1.6698875429705175e7 0.0
1.6698875429705175e7 3.0483204902683934e6 0.0
0.0 0.0 0.0

-6.00807721766473e6 1.7927708994423445e7 0.0
1.7927708994423445e7 6.719992817331355e6 0.0
0.0 0.0 0.0

4.754735060694236e6 4.722120722507183e6 0.0
4.722120722507183e6 -1.2594336544555776e7 0.0
0.0 0.0 0.0

-4.266737989631405e6 1.7317654469510004e7 0.0
1.7317654469510004e7 649522.8766656166 0.0
0.0 0.0 0.0

-1.041679238887602e7 2.5239810177747224e7 0.0
2.5239810177747224e7 6.543954992418444e6 0.0
0.0 0.0 0.0

-761866.920374885 9.033027242759448e6 0.0
9.033027242759448e6 -4.926615810304159e6 0.0
0.0 0.0 0.0

2.5198254033139246e6 1.0315795653563991e7 0.0
1.0315795653563991e7 -1.3721887912862424e7 0.0
0.0 0.0 0.0

2.7354238189138044e6 1.0169036793378733e7 0.0
1.0169036793378733e7 -1.607648682066245e7 0.0
0.0 0.0 0.0

2.0520589751680382e6 1.0907029623863645e7 0.0
1.0907029623863645e7 -1.6681090385756133e7 0.0
0.0 0.0 0.0

-1.436931647413488e6 2.2647124584699098e7 0.0
2.2647124584699098e7 -2.411294743124645e6 0.0
0.0 0.0 0.0

-746599.9340608935 1.4251478744579116e7 0.0
1.4251478744579116e7 -8.085928281437069e6 0.0
0.0 0.0 0.0

439299.1519990405 1.4876268482314978e7 0.0
1.4876268482314978e7 1.1384872656261902e7 0.0
0.0 0.0 0.0

-1.8403724575534586e7 1.0598067475681577e7 0.0
1.0598067475681577e7 1.0009694571080714e7 0.0
0.0 0.0 0.0

-3.654043750024866e7 2.132367251026533e7 0.0
2.132367251026533e7 4.684713972975664e6 0.0
0.0 0.0 0.0

5.393674131273909e6 6.415943102430285e6 0.0
6.415943102430285e6 -2.5515119227085516e7 0.0
0.0 0.0 0.0

986900.3854260859 1.4341909436644327e7 0.0
1.4341909436644327e7 -5.8903502100825235e6 0.0
0.0 0.0 0.0

-1.2730743789776377e6 1.6312844998358741e7 0.0
1.6312844998358741e7 -4.96993635956598e6 0.0
0.0 0.0 0.0

4.537362700176926e6 4.62524639510653e6 0.0
4.62524639510653e6 -1.2076349383842885e7 0.0
0.0 0.0 0.0

-5.916781657502279e6 1.6497346190324804e7 0.0
1.6497346190324804e7 -919748.6908651304 0.0
0.0 0.0 0.0

-4.577696170320363e6 1.4325806578524651e7 0.0
1.4325806578524651e7 9.34242962807298e6 0.0
0.0 0.0 0.0

-2.014129909973478e6 1.3656065954151532e7 0.0
1.3656065954151532e7 1.150054656647915e7 0.0
0.0 0.0 0.0

-4.42965891542761e6 -741031.8271882035 0.0
-741031.8271882035 6.082681460375435e6 0.0
0.0 0.0 0.0

1.487818941802851e6 1.1786932069438616e7 0.0
1.1786932069438616e7 -1.2834786549800143e7 0.0
0.0 0.0 0.0

2.629280762529441e6 8.359249744327899e6 0.0
8.359249744327899e6 -1.200528557329233e7 0.0
0.0 0.0 0.0

949901.2950751872 7.216800612758307e6 0.0
7.216800612758307e6 -4.666118080924838e6 0.0
0.0 0.0 0.0

-4.660821179916567e6 -380635.67876911664 0.0
-380635.67876911664 4.995382037914098e6 0.0
0.0 0.0 0.0

-3.20740013323055e6 1.4336730237359038e7 0.0
1.4336730237359038e7 4.628885609888366e7 0.0
0.0 0.0 0.0

-1.2136612589654086e7 -221349.91509866773 0.0
-221349.91509866773 2.416852363918562e7 0.0
0.0 0.0 0.0

-3.4974498192695933e6 1.9179166085435644e7 0.0
1.9179166085435644e7 534594.8464219421 0.0
0.0 0.0 0.0

-3.219176582917921e6 1.3409529103354195e7 0.0
1.3409529103354195e7 151214.456786972 0.0
0.0 0.0 0.0

254649.5597231225 1.129103988578389e7 0.0
1.129103988578389e7 -8.517578942267206e6 0.0
0.0 0.0 0.0

-1.48521644531149e6 1.6057449449918898e7 0.0
1.6057449449918898e7 -4.961149662514978e6 0.0
0.0 0.0 0.0

-5.993882797063777e6 1.738522620122799e7 0.0
1.738522620122799e7 6.392078154193891e6 0.0
0.0 0.0 0.0

-4.557657145287469e6 2.546709037410894e7 0.0
2.546709037410894e7 660978.9257728171 0.0
0.0 0.0 0.0

2.9063796392449657e6 5.202272640685626e6 0.0
5.202272640685626e6 -8.015476279010518e6 0.0
0.0 0.0 0.0

-7.279135818573652e6 -1.7165261339163792e6 0.0
-1.7165261339163792e6 8.548003292219147e6 0.0
0.0 0.0 0.0

-415445.28728099784 1.3300923045990948e7 0.0
1.3300923045990948e7 -64728.793752142126 0.0
0.0 0.0 0.0

-7.10742629837522e6 1.7997720893419642e7 0.0
1.7997720893419642e7 6.325518227977535e6 0.0
0.0 0.0 0.0

-5.732130586586374e6 1.4389365391871208e7 0.0
1.4389365391871208e7 1.1173956679503616e7 0.0
0.0 0.0 0.0

-1.1592112672687676e7 6.031580759489736e6 0.0
6.031580759489736e6 1.585435140632112e7 0.0
0.0 0.0 0.0

2.0914811883010399e6 1.0941682807714203e7 0.0
1.0941682807714203e7 -1.3258378481801964e7 0.0
0.0 0.0 0.0

-1.0105103197052582e8 1.6158373910842549e7 0.0
1.6158373910842549e7 1.2718651715641804e6 0.0
0.0 0.0 0.0

-1.184304157201774e7 4.948179378643427e6 0.0
4.948179378643427e6 1.6485484221196443e7 0.0
0.0 0.0 0.0

-6.658438809404897e6 1.8090485253422633e7 0.0
1.8090485253422633e7 6.458932322002523e6 0.0
0.0 0.0 0.0

955623.586056985 1.2543320987865135e7 0.0
1.2543320987865135e7 -1.1545112764662122e7 0.0
0.0 0.0 0.0

1.277962575566086e6 1.1329085277110586e7 0.0
1.1329085277110586e7 -1.6356451700504925e7 0.0
0.0 0.0 0.0

-4.761546697420026e6 2.437035751342063e7 0.0
2.437035751342063e7 1.6068984235634424e6 0.0
0.0 0.0 0.0

886068.1358151753 1.1685364976431599e7 0.0
1.1685364976431599e7 -1.5236221194331104e7 0.0
0.0 0.0 0.0

-393866.9607250234 1.4020050152767193e7 0.0
1.4020050152767193e7 -8.160438840346601e6 0.0
0.0 0.0 0.0

-261625.37719701626 1.3426628922170362e7 0.0
1.3426628922170362e7 815811.3195650838 0.0
0.0 0.0 0.0

-4.481652270757845e6 2.1029322392325908e7 0.0
2.1029322392325908e7 3.0990244725784417e6 0.0
0.0 0.0 0.0

-7.555576702963811e6 1.7749561934041563e7 0.0
1.7749561934041563e7 5.941093351664765e6 0.0
0.0 0.0 0.0

1.6601990875313142e6 1.153116052195686e7 0.0
1.153116052195686e7 -1.268460380526247e7 0.0
0.0 0.0 0.0

-896049.7145037302 1.4024538999946406e7 0.0
1.4024538999946406e7 -7.253374583058258e6 0.0
0.0 0.0 0.0

-5.29787845712992e6 1.699185825015576e7 0.0
1.699185825015576e7 3.2313514707707595e6 0.0
0.0 0.0 0.0

-6.287910272303091e6 1.805355660682798e7 0.0
1.805355660682798e7 6.589856866774054e6 0.0
0.0 0.0 0.0

-5.888518520118283e6 -8.32860083424349e6 0.0
-8.32860083424349e6 1.5590993480587501e7 0.0
0.0 0.0 0.0

-7.903063359629142e6 1.2435620818672655e7 0.0
1.2435620818672655e7 1.128129556358337e7 0.0
0.0 0.0 0.0

563329.6290561007 1.1914271002637245e7 0.0
1.1914271002637245e7 -1.4134675572917113e7 0.0
0.0 0.0 0.0

7.4174870097246e6 1.2845245834365794e7 0.0
1.2845245834365794e7 -2.900342805632803e6 0.0
0.0 0.0 0.0

1.2989979496863307e6 1.1975318413428718e7 0.0
1.1975318413428718e7 -1.2944973192240098e7 0.0
0.0 0.0 0.0

584483.6682148133 1.1719709835162625e7 0.0
1.1719709835162625e7 -3.813466929075775e6 0.0
0.0 0.0 0.0

-1.19241064064945e7 3.9141178456103676e6 0.0
3.9141178456103676e6 1.937882715602994e7 0.0
0.0 0.0 0.0

-4.916681447225718e6 1.547971538375814e7 0.0
1.547971538375814e7 -1.6428249139981086e6 0.0
0.0 0.0 0.0

497876.4772350476 1.0727520916418161e7 0.0
1.0727520916418161e7 -5.525979695840657e6 0.0
0.0 0.0 0.0

565661.2194150188 1.335863719830019e7 0.0
1.335863719830019e7 -8.789479103619676e6 0.0
0.0 0.0 0.0

-1.5808947768646665e7 2.680275035806326e7 0.0
2.680275035806326e7 8.207003983921737e6 0.0
0.0 0.0 0.0

-3.308961727951531e7 8.3412494404317355e6 0.0
8.3412494404317355e6 1.01901594729538e7 0.0
0.0 0.0 0.0

-3.9313160314625353e6 1.971621143310715e7 0.0
1.971621143310715e7 107023.27553410502 0.0
0.0 0.0 0.0

-1.2534919928047871e7 2.6028155275374476e7 0.0
2.6028155275374476e7 7.454049235972481e6 0.0
0.0 0.0 0.0

2.7837144802860413e6 3.12004279629628e7 0.0
3.12004279629628e7 -4.0186670229567112e6 0.0
0.0 0.0 0.0

1.6203129834562782e6 1.112519579125307e7 0.0
1.112519579125307e7 -1.5966086907947281e7 0.0
0.0 0.0 0.0

-3.4693362847447544e6 1.246449167433975e7 0.0
1.246449167433975e7 -1.4866539834420783e7 0.0
0.0 0.0 0.0

-5.485038078686711e6 1.689467964164378e7 0.0
1.689467964164378e7 7.118360224408193e6 0.0
0.0 0.0 0.0

-1.274905274135359e7 5.745307748772621e6 0.0
5.745307748772621e6 1.5995504340924539e7 0.0
0.0 0.0 0.0

-6.884637253462689e6 1.5772290547410151e7 0.0
1.5772290547410151e7 2.6133490168137937e6 0.0
0.0 0.0 0.0

-1.5166704962931948e6 1.1606603252303233e7 0.0
1.1606603252303233e7 3.9101189997472093e6 0.0
0.0 0.0 0.0

-795872.2475615256 1.2799113496534323e7 0.0
1.2799113496534323e7 -5.3005779185382e6 0.0
0.0 0.0 0.0

-4.452700252406932e6 2.66541007971998e7 0.0
2.66541007971998e7 -627244.6233532304 0.0
0.0 0.0 0.0

-1.6951042071693644e6 1.5668124716907606e7 0.0
1.5668124716907606e7 -5.729367694543956e6 0.0
0.0 0.0 0.0

1.3922078456975322e6 1.2881209507569423e7 0.0
1.2881209507569423e7 -4.698541819185449e6 0.0
0.0 0.0 0.0

5.712183936414176e6 4.055345709538024e6 0.0
4.055345709538024e6 -1.838749919572434e7 0.0
0.0 0.0 0.0

-5.956555836178102e6 1.7424097034904208e7 0.0
1.7424097034904208e7 6.744215608911153e6 0.0
0.0 0.0 0.0

-4.252513317215218e6 1.2798590376915386e7 0.0
1.2798590376915386e7 2.640551027409333e6 0.0
0.0 0.0 0.0

1.6369028038047361e6 9.54398627386981e6 0.0
9.54398627386981e6 -8.367207677774626e6 0.0
0.0 0.0 0.0

1.4286508574777031e6 1.1362233381123975e7 0.0
1.1362233381123975e7 -1.6415718031167155e7 0.0
0.0 0.0 0.0

-5.175431935438719e6 1.4348250006608795e7 0.0
1.4348250006608795e7 9.171402379602002e6 0.0
0.0 0.0 0.0

-7.365643219381716e6 1.4100405088264944e7 0.0
1.4100405088264944e7 1.3155860271304112e7 0.0
0.0 0.0 0.0

-831405.6397285166 1.252231800997371e7 0.0
1.252231800997371e7 -2.99822220169634e6 0.0
0.0 0.0 0.0

-567241.349130437 1.6772004133447558e7 0.0
1.6772004133447558e7 -4.571926218095022e6 0.0
0.0 0.0 0.0

-5.922922784067074e6 1.6903596122179534e7 0.0
1.6903596122179534e7 7.39302307757136e6 0.0
0.0 0.0 0.0

-1.1136847744719652e7 -1.2934274229727837e6 0.0
-1.2934274229727837e6 3.240433272497827e7 0.0
0.0 0.0 0.0

-2.674721858940101e6 8.497759800359719e6 0.0
8.497759800359719e6 903780.0980657488 0.0
0.0 0.0 0.0

-143816.44668781862 1.3210876329116454e7 0.0
1.3210876329116454e7 -3.404531971744775e6 0.0
0.0 0.0 0.0

-5.971940957982052e6 1.7448674981655672e7 0.0
1.7448674981655672e7 6.882031272952631e6 0.0
0.0 0.0 0.0

-6.744913208705773e6 1.470410066762354e7 0.0
1.470410066762354e7 9.171876145844469e6 0.0
0.0 0.0 0.0

2.4008898553947713e6 9.727596192658782e6 0.0
9.727596192658782e6 -1.1326387365285106e7 0.0
0.0 0.0 0.0

-4.680013559643438e6 1.830928223374706e7 0.0
1.830928223374706e7 3.320425877813983e6 0.0
0.0 0.0 0.0

-4.517139245313667e6 2.180940512859931e7 0.0
2.180940512859931e7 2.942583477794807e6 0.0
0.0 0.0 0.0

-5.148846223276049e6 1.5121255350945e7 0.0
1.5121255350945e7 4.234059227494523e6 0.0
0.0 0.0 0.0

1.956770813402119e6 1.0928419136461975e7 0.0
1.0928419136461975e7 -1.2358825312139276e7 0.0
0.0 0.0 0.0

-4.619643399358351e6 1.8341933671360686e7 0.0
1.8341933671360686e7 1.924821515426893e6 0.0
0.0 0.0 0.0

-2.2926007989881486e6 1.6571376852257812e7 0.0
1.6571376852257812e7 -4.388645327735314e6 0.0
0.0 0.0 0.0

-4.06186525875053e6 1.4799170374905324e7 0.0
1.4799170374905324e7 1.2218390388803234e7 0.0
0.0 0.0 0.0

-5.491586217092106e6 1.476214242529054e7 0.0
1.476214242529054e7 4.8918556557740085e6 0.0
0.0 0.0 0.0

-5.913279197710507e6 1.842287807095233e7 0.0
1.842287807095233e7 5.995815638112083e6 0.0
0.0 0.0 0.0

-1.0212777822467616e7 -4.998047348411698e6 0.0
-4.998047348411698e6 2.369864992412979e7 0.0
0.0 0.0 0.0

-4.466727798203206e6 2.1371267001045067e7 0.0
2.1371267001045067e7 3.0813086171995737e6 0.0
0.0 0.0 0.0

5.644574074379093e6 4.1227213650832516e6 0.0
4.1227213650832516e6 -1.7989131562367722e7 0.0
0.0 0.0 0.0

-3.8613121520424928e6 1.713767595961047e7 0.0
1.713767595961047e7 -770194.6033801443 0.0
0.0 0.0 0.0

-8.260412239366941e6 -7.021395636351354e6 0.0
-7.021395636351354e6 1.8857917739137173e7 0.0
0.0 0.0 0.0

180153.03510739794 1.0104799400965061e7 0.0
1.0104799400965061e7 -4.245503601218001e6 0.0
0.0 0.0 0.0

-6.287380349207347e6 1.680421617509432e7 0.0
1.680421617509432e7 4.1631564931524983e6 0.0
0.0 0.0 0.0

-672074.3711693716 1.4593009044373734e7 0.0
1.4593009044373734e7 -2.0151291100399436e6 0.0
0.0 0.0 0.0

-1.0059036807994535e6 1.4889015347509354e7 0.0
1.4889015347509354e7 -2.3851957265890813e6 0.0
0.0 0.0 0.0

372308.117980544 1.26393301929185e7 0.0
1.26393301929185e7 -1.1291054508182272e7 0.0
0.0 0.0 0.0

-1.2798071986669227e7 7.423625389283153e6 0.0
7.423625389283153e6 1.6484812536890775e7 0.0
0.0 0.0 0.0

-2.188979189022915e6 1.2223937022402873e7 0.0
1.2223937022402873e7 5.747924292028505e6 0.0
0.0 0.0 0.0

4.050773807867038e6 7.512587506335631e6 0.0
7.512587506335631e6 -1.4406434899267808e7 0.0
0.0 0.0 0.0

-1.3824166614001007e6 1.5023625771049388e7 0.0
1.5023625771049388e7 1.0486120506321363e7 0.0
0.0 0.0 0.0

-2.7198267802914865e6 1.4689370985981397e7 0.0
1.4689370985981397e7 -2.706728877918463e7 0.0
0.0 0.0 0.0

-6.770675757390663e6 1.390040207583475e7 0.0
1.390040207583475e7 8.824294851975907e6 0.0
0.0 0.0 0.0

-4.8964672640332775e6 1.8519251890249804e7 0.0
1.8519251890249804e7 2.845257138599298e6 0.0
0.0 0.0 0.0

-4.804199915304295e6 1.4497501733823491e7 0.0
1.4497501733823491e7 1.8114367280029682e6 0.0
0.0 0.0 0.0

-1.1479998940303503e6 1.4746357037980687e7 0.0
1.4746357037980687e7 -6.276592416657979e6 0.0
0.0 0.0 0.0

445247.7304738667 1.3831428450913308e7 0.0
1.3831428450913308e7 -6.326012413088567e6 0.0
0.0 0.0 0.0

-5.851999421920301e6 1.740142924161503e7 0.0
1.740142924161503e7 6.985555517993877e6 0.0
0.0 0.0 0.0

-5.946563047144748e6 1.4270380613951534e7 0.0
1.4270380613951534e7 9.802775197934505e6 0.0
0.0 0.0 0.0

-7.41062808589118e6 1.3993022635071905e7 0.0
1.3993022635071905e7 1.3007650403478198e7 0.0
0.0 0.0 0.0

-974757.9411548506 1.1883933082113564e7 0.0
1.1883933082113564e7 -1.1005972663931148e7 0.0
0.0 0.0 0.0

931106.7773590912 1.138695970199467e7 0.0
1.138695970199467e7 -1.1112330524274118e7 0.0
0.0 0.0 0.0

-4.337641559265656e6 1.4370167414565979e7 0.0
1.4370167414565979e7 8.289619971018979e6 0.0
0.0 0.0 0.0

3.683709226914826e6 8.581377783570612e6 0.0
8.581377783570612e6 -1.928820576388503e7 0.0
0.0 0.0 0.0

-1.2926565452476281e6 1.4080844742273958e7 0.0
1.4080844742273958e7 -4.938088379443235e6 0.0
0.0 0.0 0.0

-4.571821843122544e6 2.2385447326531485e7 0.0
2.2385447326531485e7 2.86598607005525e6 0.0
0.0 0.0 0.0

-1.7380608109803828e6 1.4415463779244568e7 0.0
1.4415463779244568e7 8.2157824540215e6 0.0
0.0 0.0 0.0

1.2109784751302714e7 1.889262824109969e7 0.0
1.889262824109969e7 4.036592842394988e7 0.0
0.0 0.0 0.0

-9.208297289293036e6 1.731155319890883e7 0.0
1.731155319890883e7 -3.069430844955583e7 0.0
0.0 0.0 0.0

-4.654981691194941e6 1.2714413050896311e7 0.0
1.2714413050896311e7 1.3111088085372103e6 0.0
0.0 0.0 0.0

-2.0707606055514764e7 2.02966747200459e7 0.0
2.02966747200459e7 1.192232342654195e7 0.0
0.0 0.0 0.0

-3.7035671591881993e6 1.6090432828884233e7 0.0
1.6090432828884233e7 -991596.4144796035 0.0
0.0 0.0 0.0

-3.457514756883645e6 1.4481389344591439e7 0.0
1.4481389344591439e7 6.745436060153774e6 0.0
0.0 0.0 0.0

-2.6780068975753547e6 1.4650174039853975e7 0.0
1.4650174039853975e7 9.886954238247799e6 0.0
0.0 0.0 0.0

359381.7435675636 1.5587085520458369e7 0.0
1.5587085520458369e7 2.0076272901657954e7 0.0
0.0 0.0 0.0

1.2115656624593898e6 1.334839080485779e7 0.0
1.334839080485779e7 4.729888035508662e6 0.0
0.0 0.0 0.0

1.6056402422369206e6 1.3620264692749267e7 0.0
1.3620264692749267e7 8.775348077082112e6 0.0
0.0 0.0 0.0

-1.540573702160998e6 1.6836572055691384e7 0.0
1.6836572055691384e7 -4.480145586057259e6 0.0
0.0 0.0 0.0

-2.06571816289104e6 1.4046141540884145e7 0.0
1.4046141540884145e7 6.128436359493511e6 0.0
0.0 0.0 0.0

-4.324203584884612e6 1.4055175083710346e7 0.0
1.4055175083710346e7 8.448323076380447e6 0.0
0.0 0.0 0.0

-3.4694563986267024e6 2.0402259148335297e7 0.0
2.0402259148335297e7 1.2299213133465184e6 0.0
0.0 0.0 0.0

-1.3440949779697424e6 1.3470147653096372e7 0.0
1.3470147653096372e7 7.385761612397609e6 0.0
0.0 0.0 0.0

5.1269801152774235e6 4.568856895560851e6 0.0
4.568856895560851e6 -1.4881279420480158e7 0.0
0.0 0.0 0.0

-9.031529909010004e6 9.728527897003468e6 0.0
9.728527897003468e6 1.112808354177e7 0.0
0.0 0.0 0.0

-6.058260171798489e6 -8.498608088995501e6 0.0
-8.498608088995501e6 1.6013694542490415e7 0.0
0.0 0.0 0.0

-7.236290904580059e6 1.377488781087061e7 0.0
1.377488781087061e7 1.0988141267297355e7 0.0
0.0 0.0 0.0

-3.9903738132144045e6 1.8806143770993993e7 0.0
1.8806143770993993e7 1.6514301835643107e6 0.0
0.0 0.0 0.0

1.7551376555521684e6 1.5885244916567909e7 0.0
1.5885244916567909e7 8.46573847848548e6 0.0
0.0 0.0 0.0

137499.63098281785 1.3753215869152576e7 0.0
1.3753215869152576e7 6.616502227179771e6 0.0
0.0 0.0 0.0

-5.586762326553669e6 1.8265920992636003e7 0.0
1.8265920992636003e7 6.2573036326583205e6 0.0
0.0 0.0 0.0

3.71988549858812e6 5.1310665268015275e6 0.0
5.1310665268015275e6 -9.811197449068557e6 0.0
0.0 0.0 0.0

-4.0556385159222507e6 1.7481273628532507e7 0.0
1.7481273628532507e7 -31387.80222787871 0.0
0.0 0.0 0.0

3.134195707240279e6 8.68567900030256e6 0.0
8.68567900030256e6 -1.2128221465916721e7 0.0
0.0 0.0 0.0

-6.824980993416522e6 1.7443980766701557e7 0.0
1.7443980766701557e7 6.15809381688627e6 0.0
0.0 0.0 0.0

-2.111420495651319e6 1.7999403395638853e7 0.0
1.7999403395638853e7 -3.3926509771400895e6 0.0
0.0 0.0 0.0

-5.074890933892938e6 1.5235940091255436e7 0.0
1.5235940091255436e7 782321.9184040886 0.0
0.0 0.0 0.0

6.271733337878134e6 3.8620649366189754e6 0.0
3.8620649366189754e6 -2.4727188724866666e7 0.0
0.0 0.0 0.0

2.2537439769726386e6 1.3210252408279618e7 0.0
1.3210252408279618e7 -744477.5044842705 0.0
0.0 0.0 0.0

-3.289838500820584e6 1.8096573632831905e7 0.0
1.8096573632831905e7 -344002.4572108672 0.0
0.0 0.0 0.0

-2.386520106188696e6 1.6099255702219034e7 0.0
1.6099255702219034e7 -3.292789114149722e6 0.0
0.0 0.0 0.0

136656.54010842927 1.2032208492072858e7 0.0
1.2032208492072858e7 -8.89971139772899e6 0.0
0.0 0.0 0.0

4.483472622711591e6 5.577045182628837e6 0.0
5.577045182628837e6 -1.414692970667221e7 0.0
0.0 0.0 0.0

-6.054758563096371e6 1.5661382449727349e7 0.0
1.5661382449727349e7 5.029703123320539e6 0.0
0.0 0.0 0.0

2.456607991704858e6 1.013607052705675e7 0.0
1.013607052705675e7 -1.702025407310853e7 0.0
0.0 0.0 0.0

-7.852936741219167e6 -8.44081560577761e6 0.0
-8.44081560577761e6 1.9322061865859542e7 0.0
0.0 0.0 0.0

-7.4979065484787775e6 1.3072914155606437e7 0.0
1.3072914155606437e7 1.0542154866838984e7 0.0
0.0 0.0 0.0

-9.5672779022373e6 1.6640112849210136e7 0.0
1.6640112849210136e7 4.264071991983443e6 0.0
0.0 0.0 0.0

5.465305008269846e6 6.264799385900372e6 0.0
6.264799385900372e6 -3.5933067932248056e7 0.0
0.0 0.0 0.0

-1.0182699251724456e7 1.1445430341250766e7 0.0
1.1445430341250766e7 1.9265597408452444e7 0.0
0.0 0.0 0.0

-3.836944627208563e6 1.4772456964211164e7 0.0
1.4772456964211164e7 9.995129312974438e6 0.0
0.0 0.0 0.0

-7.095669086657622e6 1.367155483438352e7 0.0
1.367155483438352e7 1.5201208201973602e7 0.0
0.0 0.0 0.0

-3.6882001827053316e6 1.3666786581043374e7 0.0
1.3666786581043374e7 896446.1664423349 0.0
0.0 0.0 0.0

-7.37455190705278e6 1.3558647849643908e7 0.0
1.3558647849643908e7 8.286266457488359e6 0.0
0.0 0.0 0.0

256978.88905784162 1.1831637581344765e7 0.0
1.1831637581344765e7 -7.572938292018659e6 0.0
0.0 0.0 0.0

1.2229644649077482e6 1.1075460007570576e7 0.0
1.1075460007570576e7 -1.17275669396298e7 0.0
0.0 0.0 0.0

4.038590424603116e6 8.386698281409708e6 0.0
8.386698281409708e6 -2.270285499199573e7 0.0
0.0 0.0 0.0

-6.790927505963624e6 -8.450355970076188e6 0.0
-8.450355970076188e6 1.7455666694224834e7 0.0
0.0 0.0 0.0

-9.837191463636065e6 -7.407148747294803e6 0.0
-7.407148747294803e6 2.5476734082545526e7 0.0
0.0 0.0 0.0

-4.523574477248487e6 1.6043788701568637e7 0.0
1.6043788701568637e7 1.8174625047866446e6 0.0
0.0 0.0 0.0

-1.0338424766179349e6 1.4756834603959778e7 0.0
1.4756834603959778e7 -6.71176526486263e6 0.0
0.0 0.0 0.0

-6.005493970767012e6 1.4002181754311258e7 0.0
1.4002181754311258e7 1.8391156377913494e7 0.0
0.0 0.0 0.0

337724.56149541005 1.1618098914871704e7 0.0
1.1618098914871704e7 -6.037511412287414e6 0.0
0.0 0.0 0.0

-662920.1837423039 1.6239040958960805e7 0.0
1.6239040958960805e7 -4.949491600590914e6 0.0
0.0 0.0 0.0

-6.12335072453852e6 1.6782621224817887e7 0.0
1.6782621224817887e7 5.839980294389095e6 0.0
0.0 0.0 0.0

-6.792889549087387e6 -1.973537648198597e6 0.0
-1.973537648198597e6 1.0005072078262897e7 0.0
0.0 0.0 0.0

-2.4651986420411263e6 2.831794406938302e7 0.0
2.831794406938302e7 -2.351690920652873e6 0.0
0.0 0.0 0.0

547763.2899211524 1.2916615140797017e7 0.0
1.2916615140797017e7 -7.298831731218989e6 0.0
0.0 0.0 0.0

-769602.8169298703 1.280818586727402e7 0.0
1.280818586727402e7 -2.3365845976644527e7 0.0
0.0 0.0 0.0

5.563850872910945e6 4.670772120068824e6 0.0
4.670772120068824e6 -1.695496950657991e7 0.0
0.0 0.0 0.0

-166404.7078688969 1.3466837717905499e7 0.0
1.3466837717905499e7 -3.3082121793448017e6 0.0
0.0 0.0 0.0

-8.363048307234747e6 1.1829917521654733e7 0.0
1.1829917521654733e7 1.197289751789267e7 0.0
0.0 0.0 0.0

-1.8545496643430643e7 1.058943184127256e7 0.0
1.058943184127256e7 1.0446247306962173e7 0.0
0.0 0.0 0.0

-1.5076108215029228e6 1.5577165794363607e7 0.0
1.5577165794363607e7 -2.96162509684394e6 0.0
0.0 0.0 0.0

1.0151408030016655e6 1.3417331375832299e7 0.0
1.3417331375832299e7 7.200744496908838e6 0.0
0.0 0.0 0.0

-217411.48976159468 1.1822727605317034e7 0.0
1.1822727605317034e7 -9.33457571600673e6 0.0
0.0 0.0 0.0

-7.060220818709111e6 -632973.604504986 0.0
-632973.604504986 1.0185920248166695e7 0.0
0.0 0.0 0.0

-1.6915748581952127e6 1.3705554239469362e7 0.0
1.3705554239469362e7 -5.122922076779679e6 0.0
0.0 0.0 0.0

-769845.2958096382 1.3744885239878692e7 0.0
1.3744885239878692e7 780543.0269418347 0.0
0.0 0.0 0.0

-2.6952548881151364e6 1.435934381183048e7 0.0
1.435934381183048e7 6.784227684678642e6 0.0
0.0 0.0 0.0

-114379.68760098843 1.2675887936238393e7 0.0
1.2675887936238393e7 -9.598569230737308e6 0.0
0.0 0.0 0.0

-5.339650920691347e6 1.4644963134023944e7 0.0
1.4644963134023944e7 1.1548141075681338e7 0.0
0.0 0.0 0.0

405000.2872708569 1.0760931335842013e7 0.0
1.0760931335842013e7 -1.5166344404315534e6 0.0
0.0 0.0 0.0

-812448.187659187 1.4711765983103035e7 0.0
1.4711765983103035e7 -7.126298569024592e6 0.0
0.0 0.0 0.0

2.126773604290575e6 1.2884532974016381e7 0.0
1.2884532974016381e7 -3.459658640193787e6 0.0
0.0 0.0 0.0

2.504112164083614e6 9.89635674247943e6 0.0
9.89635674247943e6 -1.5380878803878685e7 0.0
0.0 0.0 0.0

-7.393715075607039e6 1.379329511764359e7 0.0
1.379329511764359e7 1.0588748720390134e7 0.0
0.0 0.0 0.0

-558778.0233889704 1.1841740182876743e7 0.0
1.1841740182876743e7 -4.803848919079841e6 0.0
0.0 0.0 0.0

-3.014156348583584e7 1.811339589586179e7 0.0
1.811339589586179e7 9.710388476873657e6 0.0
0.0 0.0 0.0

-3.793588523961154e6 1.450017788511725e7 0.0
1.450017788511725e7 2.3950526163249668e7 0.0
0.0 0.0 0.0

5.746653328841379e6 4.015007246627151e6 0.0
4.015007246627151e6 -1.878711109419664e7 0.0
0.0 0.0 0.0

-9.63508007658486e6 -7.664361083426955e6 0.0
-7.664361083426955e6 2.426995490124274e7 0.0
0.0 0.0 0.0

412409.8103801664 1.1820730938695287e7 0.0
1.1820730938695287e7 -2.127953022059745e7 0.0
0.0 0.0 0.0

961817.4154303977 1.1783418971913476e7 0.0
1.1783418971913476e7 -1.538345458909692e7 0.0
0.0 0.0 0.0

-591138.3559519725 1.4549253935096359e7 0.0
1.4549253935096359e7 -2.4848481624634215e6 0.0
0.0 0.0 0.0

-9.09197870804593e6 1.9747478924935553e7 0.0
1.9747478924935553e7 60379.08210871974 0.0
0.0 0.0 0.0

-9.599022935076453e6 1.295707217411298e7 0.0
1.295707217411298e7 1.3765988269649131e7 0.0
0.0 0.0 0.0

-576981.1312052216 1.4606094725495407e7 0.0
1.4606094725495407e7 -7.498305770149198e6 0.0
0.0 0.0 0.0

-1.0385150484795641e7 -4.243182471840183e6 0.0
-4.243182471840183e6 3.536239524571662e7 0.0
0.0 0.0 0.0

-9.785817932017963e6 1.0394231503525458e7 0.0
1.0394231503525458e7 1.3680288049419638e7 0.0
0.0 0.0 0.0

6.099192169782395e6 5.092021588186336e6 0.0
5.092021588186336e6 -3.379275814762798e7 0.0
0.0 0.0 0.0

-4.936154721729703e6 1.8874410394162618e7 0.0
1.8874410394162618e7 3.0456526538535403e6 0.0
0.0 0.0 0.0

6.195163422606427e6 4.0708919451372554e6 0.0
4.0708919451372554e6 -2.939471203137193e7 0.0
0.0 0.0 0.0

-2.1995208860660385e7 2.6529681639444437e7 0.0
2.6529681639444437e7 9.788145407489605e6 0.0
0.0 0.0 0.0

-1.034026152502722e7 -3.7218291931533087e6 0.0
-3.7218291931533087e6 3.738064901189558e7 0.0
0.0 0.0 0.0

2.8179419133492466e6 1.0033634993642373e7 0.0
1.0033634993642373e7 -1.5253024400906116e7 0.0
0.0 0.0 0.0

-8.021740760986688e6 1.6625199187838979e7 0.0
1.6625199187838979e7 4.4731122920709755e6 0.0
0.0 0.0 0.0

-2.7826887288794678e7 1.4617134310359197e7 0.0
1.4617134310359197e7 3.6198347378160264e6 0.0
0.0 0.0 0.0

6.146122893914457e6 4.516241496127464e6 0.0
4.516241496127464e6 -3.1517384255264066e7 0.0
0.0 0.0 0.0

-5.404985208649893e6 1.5826080632804621e7 0.0
1.5826080632804621e7 3.0547802396692266e6 0.0
0.0 0.0 0.0

-6.413224888082383e6 1.521663231128665e7 0.0
1.521663231128665e7 8.955189426806668e6 0.0
0.0 0.0 0.0

4.855137725751229e6 1.291409998628383e7 0.0
1.291409998628383e7 6.254420604304581e6 0.0
0.0 0.0 0.0

1.113915747022546e6 1.1751304900019927e7 0.0
1.1751304900019927e7 -1.4126677578070361e7 0.0
0.0 0.0 0.0

461394.1253995076 1.2097343862779079e7 0.0
1.2097343862779079e7 -1.4401157635103116e7 0.0
0.0 0.0 0.0

-2.8594321002761824e6 1.580983054545557e7 0.0
1.580983054545557e7 -3.7613947310492867e6 0.0
0.0 0.0 0.0

-5.012190269205413e6 1.9170762146502804e7 0.0
1.9170762146502804e7 3.2754181913683144e6 0.0
0.0 0.0 0.0

-1.2226449923867157e7 5.896518988649025e6 0.0
5.896518988649025e6 1.8918062116861165e7 0.0
0.0 0.0 0.0

6.298541013108399e6 3.8832906454382367e6 0.0
3.8832906454382367e6 -2.653655496561222e7 0.0
0.0 0.0 0.0

-9.901019985443577e6 2.0997992750143804e7 0.0
2.0997992750143804e7 7.600019242706729e6 0.0
0.0 0.0 0.0

4.291290564629623e6 6.087848359844386e6 0.0
6.087848359844386e6 -1.2032968532083165e7 0.0
0.0 0.0 0.0

248438.4723569099 1.2504380131181426e7 0.0
1.2504380131181426e7 -1.0775988318151819e7 0.0
0.0 0.0 0.0

6.262529889486769e6 4.042871845820247e6 0.0
4.042871845820247e6 -2.756731950270454e7 0.0
0.0 0.0 0.0

255729.08383759856 1.2284780141546754e7 0.0
1.2284780141546754e7 -1.3365960939920584e7 0.0
0.0 0.0 0.0

-1.2608140452799637e7 3.527135839526223e6 0.0
3.527135839526223e6 2.1183500357323106e7 0.0
0.0 0.0 0.0

171960.4513087325 4.072764323242047e6 0.0
4.072764323242047e6 -2.867030519958998e6 0.0
0.0 0.0 0.0

-4.635729641556438e6 1.1574781300483484e7 0.0
1.1574781300483484e7 1.4605893273692932e6 0.0
0.0 0.0 0.0

-763794.4133788696 1.481713349374267e7 0.0
1.481713349374267e7 8.83766759175421e6 0.0
0.0 0.0 0.0

5.850533712705346e6 3.841874948983411e6 0.0
3.841874948983411e6 -2.0427289978670277e7 0.0
0.0 0.0 0.0

-5.7178001064798795e6 1.6943357885626413e7 0.0
1.6943357885626413e7 7.256466477848951e6 0.0
0.0 0.0 0.0

-7.607833330014314e6 -6.485823404634524e6 0.0
-6.485823404634524e6 1.67348404983471e7 0.0
0.0 0.0 0.0

394148.9025398175 1.168888649691e7 0.0
1.168888649691e7 -1.8159021663381713e6 0.0
0.0 0.0 0.0

2.2371065030018743e6 1.0188478836760724e7 0.0
1.0188478836760724e7 -1.4688664490840068e7 0.0
0.0 0.0 0.0

-6.348436873072768e6 1.403968160945652e7 0.0
1.403968160945652e7 1.0434634531845484e7 0.0
0.0 0.0 0.0

-2.842427709183662e6 1.4625781217784854e7 0.0
1.4625781217784854e7 1.3048275347972251e7 0.0
0.0 0.0 0.0

-592803.9761140873 1.3323269634390183e7 0.0
1.3323269634390183e7 -2.7759549873882853e6 0.0
0.0 0.0 0.0

-2.2604814244422745e6 1.5696803005811622e7 0.0
1.5696803005811622e7 -3.617996982683697e6 0.0
0.0 0.0 0.0

-5.873624771912096e6 1.7277030373392474e7 0.0
1.7277030373392474e7 4.949673838223854e6 0.0
0.0 0.0 0.0

-247618.95569192502 1.3984662815432152e7 0.0
1.3984662815432152e7 -3.2545184441889287e6 0.0
0.0 0.0 0.0

8.936623186347682e6 5.724366976156114e6 0.0
5.724366976156114e6 -2.5855902764821677e6 0.0
0.0 0.0 0.0

-1.0545292715169953e7 -4.635817701111311e6 0.0
-4.635817701111311e6 3.3461914896952543e7 0.0
0.0 0.0 0.0

204853.50082269614 1.3809215170016363e7 0.0
1.3809215170016363e7 6.80505325144638e6 0.0
0.0 0.0 0.0

-1.009179071327357e7 -6.809881238331487e6 0.0
-6.809881238331487e6 2.6968075470693342e7 0.0
0.0 0.0 0.0

-523850.5584804257 1.4071321353842288e7 0.0
1.4071321353842288e7 -1.0752485814244875e6 0.0
0.0 0.0 0.0

-1.1194943577712035e7 6.444526377357402e6 0.0
6.444526377357402e6 2.034016775176052e7 0.0
0.0 0.0 0.0

-4.208939538001011e6 1.1625510658175584e7 0.0
1.1625510658175584e7 2.876083322124197e6 0.0
0.0 0.0 0.0

1.2824895242362607e6 3.6563669298504046e6 0.0
3.6563669298504046e6 -3.469461738277432e6 0.0
0.0 0.0 0.0

1.298600497080598e6 3.834609361140175e6 0.0
3.834609361140175e6 -3.383160185203494e6 0.0
0.0 0.0 0.0

-527043.1634228127 1.4382598449450567e7 0.0
1.4382598449450567e7 -7.814789038968453e6 0.0
0.0 0.0 0.0

-3.188558527887347e6 1.5475378299943775e7 0.0
1.5475378299943775e7 -1.3544488926868301e6 0.0
0.0 0.0 0.0

-210442.82978163566 1.4489303704835918e7 0.0
1.4489303704835918e7 -7.720297076582397e6 0.0
0.0 0.0 0.0

-1.2808131020418892e7 4.7509669358916115e6 0.0
4.7509669358916115e6 1.7559450029989645e7 0.0
0.0 0.0 0.0

11176.94437464187 1.2204896581030918e7 0.0
1.2204896581030918e7 -1.0131579114259632e7 0.0
0.0 0.0 0.0

2.570131372803609e6 9.953485592052156e6 0.0
9.953485592052156e6 -1.6182133560894705e7 0.0
0.0 0.0 0.0

-5.470978589481322e6 1.6534427745444873e7 0.0
1.6534427745444873e7 7.412439696871404e6 0.0
0.0 0.0 0.0

2.0867456089442242e6 1.0160717462579308e7 0.0
1.0160717462579308e7 -1.3799714828833655e7 0.0
0.0 0.0 0.0

-6.128423223263095e7 2.222221740810997e7 0.0
2.222221740810997e7 4.731353326884672e6 0.0
0.0 0.0 0.0

267870.05969249224 1.2360579316396175e7 0.0
1.2360579316396175e7 -1.0292730834966345e7 0.0
0.0 0.0 0.0

-6.509529737038465e6 2.1745561095829617e7 0.0
2.1745561095829617e7 4.580182537596124e6 0.0
0.0 0.0 0.0

-857928.1637606818 1.1178646905408965e7 0.0
1.1178646905408965e7 2.187474984392126e6 0.0
0.0 0.0 0.0

-8.490566437738057e6 1.3327622685227709e7 0.0
1.3327622685227709e7 1.2352556529993124e7 0.0
0.0 0.0 0.0

-2.6213459192050095e6 1.528951750808996e7 0.0
1.528951750808996e7 -4.36728024783399e6 0.0
0.0 0.0 0.0

-678539.3037834972 2.3415671445905607e7 0.0
2.3415671445905607e7 -4.20667843627658e6 0.0
0.0 0.0 0.0

-8.618427034255177e6 -8.200248572367958e6 0.0
-8.200248572367958e6 2.1948735533697825e7 0.0
0.0 0.0 0.0

5.763095308767179e6 3.974003636457059e6 0.0
3.974003636457059e6 -1.9250857718608502e7 0.0
0.0 0.0 0.0

-2.7022771996333515e6 1.595247717393141e7 0.0
1.595247717393141e7 -2.1312118797929445e6 0.0
0.0 0.0 0.0

-4.959833987827865e6 -4633.44242140895 0.0
-4633.44242140895 4.141745822517844e6 0.0
0.0 0.0 0.0

6.190182885747563e6 3.8211795448970515e6 0.0
3.8211795448970515e6 -2.3774899967155386e7 0.0
0.0 0.0 0.0

-1.0500681997113334e7 -5.192258763143942e6 0.0
-5.192258763143942e6 3.2146978613395635e7 0.0
0.0 0.0 0.0

-4.726309677903892e6 -7.890967504504377e6 0.0
-7.890967504504377e6 1.3139645863470154e7 0.0
0.0 0.0 0.0

-23883.71973205032 1.115051474165047e7 0.0
1.115051474165047e7 -4.827824385760636e6 0.0
0.0 0.0 0.0

-9.238191431135228e6 -7.956498178062839e6 0.0
-7.956498178062839e6 2.334018458380297e7 0.0
0.0 0.0 0.0

5.7937922250539e6 3.9805523298540446e6 0.0
3.9805523298540446e6 -1.978877998013147e7 0.0
0.0 0.0 0.0

6.156920777157867e6 3.8782369025756256e6 0.0
3.8782369025756256e6 -2.29403297603827e7 0.0
0.0 0.0 0.0

-1.0307263548790352e7 -5.70843515532587e6 0.0
-5.70843515532587e6 3.0737552076981127e7 0.0
0.0 0.0 0.0

-3.1462799197814837e6 1.4089864316278253e7 0.0
1.4089864316278253e7 -5.058045689764323e6 0.0
0.0 0.0 0.0

-364548.70487122936 1.406123308255233e7 0.0
1.406123308255233e7 -8.259315189896262e6 0.0
0.0 0.0 0.0

-5.436635267164519e6 1.7519492182184592e7 0.0
1.7519492182184592e7 5.333121047285126e6 0.0
0.0 0.0 0.0

6.120205156366205e6 3.875495174394249e6 0.0
3.875495174394249e6 -2.2404454972416952e7 0.0
0.0 0.0 0.0

-1.0159668608216096e7 -6.086469407071671e6 0.0
-6.086469407071671e6 2.916314293111632e7 0.0
0.0 0.0 0.0

296094.68831213703 1.1428148002060218e7 0.0
1.1428148002060218e7 -4.323976674128164e6 0.0
0.0 0.0 0.0

2.2516566570858434e6 1.0623296115969287e7 0.0
1.0623296115969287e7 -1.3091145544404643e7 0.0
0.0 0.0 0.0

-3.5166140094874674e6 1.6940653257748652e7 0.0
1.6940653257748652e7 54719.926578888204 0.0
0.0 0.0 0.0

-3.9881452368295584e6 1.357094520889767e7 0.0
1.357094520889767e7 -73565.30967775802 0.0
0.0 0.0 0.0

-7.316171356391044e6 1.3953395356046153e7 0.0
1.3953395356046153e7 1.3471617681467518e7 0.0
0.0 0.0 0.0

-1.0148554652901916e7 -6.381689345469877e6 0.0
-6.381689345469877e6 2.7916685818733066e7 0.0
0.0 0.0 0.0

6.088854990206299e6 3.828076084699813e6 0.0
3.828076084699813e6 -2.1682492286717318e7 0.0
0.0 0.0 0.0

-3.3644651197774154e6 1.867855404096195e7 0.0
1.867855404096195e7 -1.4607194870516325e6 0.0
0.0 0.0 0.0

-5.156820534206997e6 1.4382044915907014e7 0.0
1.4382044915907014e7 2.1865256877630204e7 0.0
0.0 0.0 0.0

2.7272001355060555e7 4.007940120995951e7 0.0
4.007940120995951e7 -2.5831215117851138e7 0.0
0.0 0.0 0.0

103115.98225994967 8.577673095803317e6 0.0
8.577673095803317e6 -5.691924166865073e6 0.0
0.0 0.0 0.0

-4.861875816909692e6 1.8837662344830737e7 0.0
1.8837662344830737e7 3.8394975598091222e6 0.0
0.0 0.0 0.0

-2.519435013526203e6 3.277735055358842e6 0.0
3.277735055358842e6 962052.4752783523 0.0
0.0 0.0 0.0

-5.239858216860733e6 1.7749630545877725e7 0.0
1.7749630545877725e7 4.908399825888984e6 0.0
0.0 0.0 0.0

3.4379188153780466e6 4.46278396445827e6 0.0
4.46278396445827e6 -9.05280138691574e6 0.0
0.0 0.0 0.0

656535.5141932392 1.7640876567420468e7 0.0
1.7640876567420468e7 -4.728921948173103e6 0.0
0.0 0.0 0.0

-1.7767576170540634e6 1.6475419915066963e7 0.0
1.6475419915066963e7 -4.242879735824043e6 0.0
0.0 0.0 0.0

-8.122555274759015e6 1.1193053735987768e7 0.0
1.1193053735987768e7 9.037595675381582e6 0.0
0.0 0.0 0.0

-513336.0131482143 1.4393422458152091e7 0.0
1.4393422458152091e7 -1.2117172542324308e6 0.0
0.0 0.0 0.0

-9.363998182357881e6 -2.479239408960681e6 0.0
-2.479239408960681e6 4.180952814933871e7 0.0
0.0 0.0 0.0

1.4023248396102458e6 4.632767846093072e6 0.0
4.632767846093072e6 -4.0470494005340897e6 0.0
0.0 0.0 0.0

-1.9553787187072637e6 -110829.66086777252 0.0
-110829.66086777252 786471.0779379967 0.0
0.0 0.0 0.0

1.31372067781632e6 -1.4887330099345823e6 0.0
-1.4887330099345823e6 -2.5673319273264785e6 0.0
0.0 0.0 0.0

-1.541591019844924e6 1.6664437822658705e7 0.0
1.6664437822658705e7 -4.2816711918533705e6 0.0
0.0 0.0 0.0

-306683.25223369524 1.2493483407864016e7 0.0
1.2493483407864016e7 -2.290062088745984e7 0.0
0.0 0.0 0.0

-836185.0362505019 1.448694314530356e7 0.0
1.448694314530356e7 1.0092890729628513e7 0.0
0.0 0.0 0.0

-1.4006246331532744e6 1.3624378287565809e7 0.0
1.3624378287565809e7 -5.581560133879796e6 0.0
0.0 0.0 0.0

4.93866988772123e6 4.79051781790078e6 0.0
4.79051781790078e6 -1.355768677209696e7 0.0
0.0 0.0 0.0

-868452.8422910208 1.0248559632165248e7 0.0
1.0248559632165248e7 -4.05759463919978e6 0.0
0.0 0.0 0.0

371305.8394946079 1.3577647469693255e7 0.0
1.3577647469693255e7 -9.030014483562412e6 0.0
0.0 0.0 0.0

503783.58822168875 1.155756994646738e7 0.0
1.155756994646738e7 -1.7935541338946834e7 0.0
0.0 0.0 0.0

-3.5420968992862604e6 1.738503683457449e7 0.0
1.738503683457449e7 52775.99708190048 0.0
0.0 0.0 0.0

-7.076185114222672e6 1.3494975432780467e7 0.0
1.3494975432780467e7 1.1717470793317588e7 0.0
0.0 0.0 0.0

-295353.2339142462 1.0600694784576027e7 0.0
1.0600694784576027e7 -3.676821458160189e6 0.0
0.0 0.0 0.0

-129242.82349102006 1.1827331358497564e7 0.0
1.1827331358497564e7 288519.3190516346 0.0
0.0 0.0 0.0

-1.4455290826915577e6 1.1720133866384594e7 0.0
1.1720133866384594e7 -1.3111280683754036e7 0.0
0.0 0.0 0.0

-1.358769595162873e7 1.8149987486151632e7 0.0
1.8149987486151632e7 6.992311445611838e6 0.0
0.0 0.0 0.0

-2.028115899817466e6 2.494487391680434e7 0.0
2.494487391680434e7 -2.921007630439227e6 0.0
0.0 0.0 0.0

714399.5481572723 3.5001308503215276e6 0.0
3.5001308503215276e6 -2.361141242336797e6 0.0
0.0 0.0 0.0

953195.5666505037 3.3498391806272115e6 0.0
3.3498391806272115e6 -2.5236677819125294e6 0.0
0.0 0.0 0.0

-6.669953624644682e6 1.4061095235948041e7 0.0
1.4061095235948041e7 1.0354292592900893e7 0.0
0.0 0.0 0.0

-3.1649445292755887e6 1.5395600065257678e7 0.0
1.5395600065257678e7 -2.2999665151765686e6 0.0
0.0 0.0 0.0

-4.791559111331029e6 1.9310332425482254e7 0.0
1.9310332425482254e7 3.9926462019223906e6 0.0
0.0 0.0 0.0

-5.087761363196626e6 1.794732192659942e7 0.0
1.794732192659942e7 4.544082194825917e6 0.0
0.0 0.0 0.0

3.1444132022645622e6 1.3328883076742524e7 0.0
1.3328883076742524e7 3.7279099190436914e6 0.0
0.0 0.0 0.0

1.6307922466411795e6 1.3643563418262513e7 0.0
1.3643563418262513e7 -5.37834228652778e6 0.0
0.0 0.0 0.0

-4.02325995005452e6 1.370161935585951e7 0.0
1.370161935585951e7 2.3650303150484744e7 0.0
0.0 0.0 0.0

-2.263551618903197e7 1.783254581254481e7 0.0
1.783254581254481e7 -644528.060438945 0.0
0.0 0.0 0.0

-7.100616132736751e7 2.4704199938540876e7 0.0
2.4704199938540876e7 1.3279646223928068e7 0.0
0.0 0.0 0.0

-7.457557104701539e6 1.0677133561790168e7 0.0
1.0677133561790168e7 7.386308922237821e6 0.0
0.0 0.0 0.0

-4.358465602663551e6 1.4574952504563041e7 0.0
1.4574952504563041e7 7.912606846884778e6 0.0
0.0 0.0 0.0

4.046688472700442e6 5.938909914382559e6 0.0
5.938909914382559e6 -1.2686816173655525e7 0.0
0.0 0.0 0.0

-8.53836659296627e6 1.078791028103039e7 0.0
1.078791028103039e7 1.2159633598325409e7 0.0
0.0 0.0 0.0

-2.223816213446715e6 630674.8061985613 0.0
630674.8061985613 2.1643135245614834e6 0.0
0.0 0.0 0.0

-224544.7353958045 1.449774539957031e7 0.0
1.449774539957031e7 8.235171271704885e6 0.0
0.0 0.0 0.0

961662.2229631543 1.1546928247964019e7 0.0
1.1546928247964019e7 -1.80190670261642e7 0.0
0.0 0.0 0.0

5.011428710317782e6 5.551444659875567e6 0.0
5.551444659875567e6 -1.5016810773984257e7 0.0
0.0 0.0 0.0

1.7464197891624393e6 1.2538532715799028e7 0.0
1.2538532715799028e7 2.113136603035389e6 0.0
0.0 0.0 0.0

-7.011201449538853e6 1.9162823106128813e6 0.0
1.9162823106128813e6 5.653165254081149e7 0.0
0.0 0.0 0.0

-5.789793779125962e6 1.8912277024157822e7 0.0
1.8912277024157822e7 6.352112516231796e6 0.0
0.0 0.0 0.0

-9.811057930378076e6 1.5894727188006662e7 0.0
1.5894727188006662e7 2.3020326896522925e6 0.0
0.0 0.0 0.0

-1.6962457832147076e6 1.5818836761491634e7 0.0
1.5818836761491634e7 -5.078778446210992e6 0.0
0.0 0.0 0.0

-4.864767926928616e6 -5.752154877092615e6 0.0
-5.752154877092615e6 1.1545919068927778e7 0.0
0.0 0.0 0.0

-1.2538029596213014e6 1.0847673241222208e7 0.0
1.0847673241222208e7 2.720900350100162e6 0.0
0.0 0.0 0.0

-7.25456385919493e6 -8.26127391438162e6 0.0
-8.26127391438162e6 1.857529787511136e7 0.0
0.0 0.0 0.0

1.6796164691732181e6 1.3332690076629834e7 0.0
1.3332690076629834e7 1.7201144121380197e6 0.0
0.0 0.0 0.0

-4.137697031298338e6 1.4946903472704157e7 0.0
1.4946903472704157e7 1.6663247518461733e6 0.0
0.0 0.0 0.0

5.438291465570485e6 4.81643134484943e6 0.0
4.81643134484943e6 -1.6096906180767456e7 0.0
0.0 0.0 0.0

-3.317452453618266e6 1.4713546986225208e7 0.0
1.4713546986225208e7 -3.8961281261072783e6 0.0
0.0 0.0 0.0

4.805471384544047e6 4.903499753422017e6 0.0
4.903499753422017e6 -1.2684112209118605e7 0.0
0.0 0.0 0.0

767774.3767699022 1.2132007508149484e7 0.0
1.2132007508149484e7 -1.221340860318578e7 0.0
0.0 0.0 0.0

-7.4518427969291285e6 2.1527146503027875e7 0.0
2.1527146503027875e7 6.27804919035127e6 0.0
0.0 0.0 0.0

-493599.53601456026 9.067513260586547e6 0.0
9.067513260586547e6 -1.3909093669604568e6 0.0
0.0 0.0 0.0

-2.561302623045601e6 1.5449429857163731e7 0.0
1.5449429857163731e7 -4.5129577560763275e6 0.0
0.0 0.0 0.0

-6.095041735142879e6 2.0674670703166388e7 0.0
2.0674670703166388e7 5.173116079368421e6 0.0
0.0 0.0 0.0

-5.6131744297651835e6 1.7284087243769255e7 0.0
1.7284087243769255e7 5.818238380245099e6 0.0
0.0 0.0 0.0

-5.499560231083749e6 1.766226362480136e7 0.0
1.766226362480136e7 4.0855564962462317e6 0.0
0.0 0.0 0.0

-5.070246005294137e6 2.049186794617422e7 0.0
2.049186794617422e7 2.98888163046843e6 0.0
0.0 0.0 0.0

-1.6194535150145367e6 1.502866407622975e7 0.0
1.502866407622975e7 -5.1497329383171275e6 0.0
0.0 0.0 0.0

-7.105076057650169e6 2.2205436728992812e7 0.0
2.2205436728992812e7 4.83327113901522e6 0.0
0.0 0.0 0.0

-7.180622818354863e6 7.721435121766872e6 0.0
7.721435121766872e6 7.1308366739581525e6 0.0
0.0 0.0 0.0

1.1354851023079567e6 1.025892715162127e7 0.0
1.025892715162127e7 -9.384140257457718e6 0.0
0.0 0.0 0.0

-7.865694371769253e6 -1.1611787757642816e6 0.0
-1.1611787757642816e6 9.178905408102931e6 0.0
0.0 0.0 0.0

-7.491177770207159e6 1.728692365935877e7 0.0
1.728692365935877e7 5.263808002929749e6 0.0
0.0 0.0 0.0

-1.0743731930712244e7 -4.066687814339957e6 0.0
-4.066687814339957e6 2.896010039416963e7 0.0
0.0 0.0 0.0

-3.6834073315299167e6 1.92451034757865e7 0.0
1.92451034757865e7 -715390.622871994 0.0
0.0 0.0 0.0

1.2681347775090616e6 1.2063744978952883e7 0.0
1.2063744978952883e7 -1.2129479657924924e7 0.0
0.0 0.0 0.0

-1.2824783283113984e6 1.250241335120821e7 0.0
1.250241335120821e7 4.139180586380829e6 0.0
0.0 0.0 0.0

-864578.7679068572 1.1688646233395537e7 0.0
1.1688646233395537e7 -5.779396300270571e6 0.0
0.0 0.0 0.0

2.440153811472548e6 1.0645845895856563e7 0.0
1.0645845895856563e7 -1.6024203914586227e7 0.0
0.0 0.0 0.0

3.508076524660191e6 4.97476450062547e6 0.0
4.97476450062547e6 -1.0251622660481561e7 0.0
0.0 0.0 0.0

-1.1385259394998734e6 1.6771972716158347e7 0.0
1.6771972716158347e7 -4.385035983219908e6 0.0
0.0 0.0 0.0

-663721.564706191 1.3965765641565504e7 0.0
1.3965765641565504e7 1.82742483825692e6 0.0
0.0 0.0 0.0

-3.543086888749283e6 1.3265917790974515e7 0.0
1.3265917790974515e7 -863057.2528705656 0.0
0.0 0.0 0.0

6.255112813322317e6 3.8096963265306074e6 0.0
3.8096963265306074e6 -2.5516631789828572e7 0.0
0.0 0.0 0.0

-8.68427745699773e6 1.515995694992812e6 0.0
1.515995694992812e6 1.1271373355210539e7 0.0
0.0 0.0 0.0

5.69830400808873e6 5.123093127242836e6 0.0
5.123093127242836e6 -2.552959335055028e7 0.0
0.0 0.0 0.0

-3.87107617185642e6 -1.265689842738048e6 0.0
-1.265689842738048e6 4.0349537993114535e6 0.0
0.0 0.0 0.0

-4.353759731629217e6 1.474058610155077e7 0.0
1.474058610155077e7 623589.4301780486 0.0
0.0 0.0 0.0

-551252.9993652755 1.400769014321879e7 0.0
1.400769014321879e7 716577.3593570789 0.0
0.0 0.0 0.0

-740051.9401005548 1.2097814444149371e7 0.0
1.2097814444149371e7 2.3891905059160916e6 0.0
0.0 0.0 0.0

-7.023127845414724e6 1.0503193029928828e7 0.0
1.0503193029928828e7 9.002639884542817e6 0.0
0.0 0.0 0.0

-4.667879601463703e6 -8.042702990100332e6 0.0
-8.042702990100332e6 1.315923024467173e7 0.0
0.0 0.0 0.0

-1.5532683545880034e6 1.7819670367804084e7 0.0
1.7819670367804084e7 -3.1164752464605924e6 0.0
0.0 0.0 0.0

-2.9673464371074685e6 1.4843022992291357e7 0.0
1.4843022992291357e7 1.0228201097434519e7 0.0
0.0 0.0 0.0

3.4460502317740265e6 7.610627596750719e6 0.0
7.610627596750719e6 -1.3825273559011757e7 0.0
0.0 0.0 0.0

-7.024061198677614e6 -6.524689429431018e6 0.0
-6.524689429431018e6 1.6613694966947757e7 0.0
0.0 0.0 0.0

-2.1530590493265926e6 1.3254683643665869e7 0.0
1.3254683643665869e7 7.282623535528149e6 0.0
0.0 0.0 0.0

-9.180264374738704e6 1.2075715069859307e7 0.0
1.2075715069859307e7 2.196379245253405e7 0.0
0.0 0.0 0.0

-947827.3614645465 1.3913390458056742e7 0.0
1.3913390458056742e7 7.6469146830440955e6 0.0
0.0 0.0 0.0

145408.80975924432 1.203602364632634e7 0.0
1.203602364632634e7 -2.205167716173303e7 0.0
0.0 0.0 0.0

-7.421335360951843e6 1.397451487943816e7 0.0
1.397451487943816e7 1.2540521994061787e7 0.0
0.0 0.0 0.0

-2.272649950127522e6 1.4041631369322969e7 0.0
1.4041631369322969e7 7.3462215606429e6 0.0
0.0 0.0 0.0

-485250.8078601174 1.4735233398526562e7 0.0
1.4735233398526562e7 -7.258808762226319e6 0.0
0.0 0.0 0.0

-890173.7290808703 1.485323596463124e7 0.0
1.485323596463124e7 -2.6508443676960208e6 0.0
0.0 0.0 0.0

4.195411011358204e6 7.485897958756914e6 0.0
7.485897958756914e6 -2.0487480178949952e7 0.0
0.0 0.0 0.0

4.460300574081577e6 7.036146925895189e6 0.0
7.036146925895189e6 -2.1332202868067563e7 0.0
0.0 0.0 0.0

-194212.38398762117 1.1525031948884586e7 0.0
1.1525031948884586e7 -5.526974850629215e6 0.0
0.0 0.0 0.0

-1.1521194403097931e7 1.0953564480291413e7 0.0
1.0953564480291413e7 1.6424336744650371e7 0.0
0.0 0.0 0.0

-941256.7514215445 1.4107541543365287e7 0.0
1.4107541543365287e7 -8.256540150030871e6 0.0
0.0 0.0 0.0

-1.0246374821803069e7 61586.1065697794 0.0
61586.1065697794 3.94567245348406e7 0.0
0.0 0.0 0.0

696886.5294848122 9.802713639035562e6 0.0
9.802713639035562e6 -1.2534640566499611e7 0.0
0.0 0.0 0.0

-3.5895755313877407e6 1.1302932867799485e7 0.0
1.1302932867799485e7 4.111640361399585e7 0.0
0.0 0.0 0.0

6.219777629534533e6 3.8997014064076976e6 0.0
3.8997014064076976e6 -2.4561080864066046e7 0.0
0.0 0.0 0.0

-2.078771999181528e6 1.5672015259202115e7 0.0
1.5672015259202115e7 -4.604382223662366e6 0.0
0.0 0.0 0.0

-2.0861837812008276e6 1.381179831692366e7 0.0
1.381179831692366e7 8.289576316899994e6 0.0
0.0 0.0 0.0

-1.093949465921713e6 1.2616963336725695e7 0.0
1.2616963336725695e7 -2.011099247894903e7 0.0
0.0 0.0 0.0

1.2267470344310177e6 8.599406590892075e6 0.0
8.599406590892075e6 2.4329814211097183e6 0.0
0.0 0.0 0.0

-837271.5029310671 1.4305995099714039e7 0.0
1.4305995099714039e7 -3.5139414742023195e6 0.0
0.0 0.0 0.0

-2.7412703090974647e6 1.3709151099510401e7 0.0
1.3709151099510401e7 8.454769892102566e6 0.0
0.0 0.0 0.0

-6.424119366840366e6 1.5456969040012725e7 0.0
1.5456969040012725e7 7.649718209290328e6 0.0
0.0 0.0 0.0

-5.013468348753166e6 1.451227412519441e7 0.0
1.451227412519441e7 8.446063770991571e6 0.0
0.0 0.0 0.0

984302.2914453433 9.532314856912173e6 0.0
9.532314856912173e6 -8.48927852429177e6 0.0
0.0 0.0 0.0

-1.2502163861388527e7 9.066184342582747e6 0.0
9.066184342582747e6 1.5265862574408717e7 0.0
0.0 0.0 0.0

617499.4716369202 1.164078910780631e7 0.0
1.164078910780631e7 -2.1008848931760382e7 0.0
0.0 0.0 0.0

-1.019804079665134e6 1.4084195461464332e7 0.0
1.4084195461464332e7 -4.983806946180489e6 0.0
0.0 0.0 0.0

-4.42933099567604e6 1.5537303375086898e7 0.0
1.5537303375086898e7 3.7319438878446007e6 0.0
0.0 0.0 0.0

564501.0490466154 8.587193347049713e6 0.0
8.587193347049713e6 -5.798900776324721e6 0.0
0.0 0.0 0.0

-9.781255002478536e6 3.5649419179218356e6 0.0
3.5649419179218356e6 5.31272324543972e7 0.0
0.0 0.0 0.0

-935092.324608163 1.301824635202323e7 0.0
1.301824635202323e7 -2.3795096142291266e7 0.0
0.0 0.0 0.0

-7.170763882831916e6 1.412887003362314e7 0.0
1.412887003362314e7 1.3701818440857675e7 0.0
0.0 0.0 0.0

-5.046436666959244e6 1.95109911536088e7 0.0
1.95109911536088e7 3.4884070550192697e6 0.0
0.0 0.0 0.0

5.111861088629209e6 1.5438036162965281e7 0.0
1.5438036162965281e7 5.26130963489121e6 0.0
0.0 0.0 0.0

-6.302783390073444e6 1.4125837909465818e7 0.0
1.4125837909465818e7 1.724771434146444e7 0.0
0.0 0.0 0.0

-6.763564037345694e6 1.3921379384481033e7 0.0
1.3921379384481033e7 1.080077166081658e7 0.0
0.0 0.0 0.0

709727.4769043382 1.0887791932914967e7 0.0
1.0887791932914967e7 -9.094468490358679e6 0.0
0.0 0.0 0.0

-1.3865259102712383e6 1.3688582868617535e7 0.0
1.3688582868617535e7 -5.413551858537558e6 0.0
0.0 0.0 0.0

-7.606325727918537e6 1.2780632662209176e7 0.0
1.2780632662209176e7 8.363667970068933e6 0.0
0.0 0.0 0.0

-7.380209850323008e6 1.1657559367408149e7 0.0
1.1657559367408149e7 9.806157440240538e6 0.0
0.0 0.0 0.0

4.884997677964581e6 4.98290853924597e6 0.0
4.98290853924597e6 -1.5295334686932694e7 0.0
0.0 0.0 0.0

-5.714679178053075e6 1.7030748582871713e7 0.0
1.7030748582871713e7 7.388743028266652e6 0.0
0.0 0.0 0.0

-393776.10699115996 9.652926715546658e6 0.0
9.652926715546658e6 -2.970013614938046e6 0.0
0.0 0.0 0.0

4.717157160378526e6 5.208776595878819e6 0.0
5.208776595878819e6 -1.2366756567401748e7 0.0
0.0 0.0 0.0

-3.9018463657826185e6 1.8599473350226555e7 0.0
1.8599473350226555e7 -511347.1416552281 0.0
0.0 0.0 0.0

-2.543782333997981e6 1.4311495696316633e7 0.0
1.4311495696316633e7 9.552790234306665e6 0.0
0.0 0.0 0.0

-1.0641573380571572e7 -2.202459017742779e6 0.0
-2.202459017742779e6 3.383338240593741e7 0.0
0.0 0.0 0.0

683629.0842214734 1.4746682911554338e7 0.0
1.4746682911554338e7 5.99221498924741e6 0.0
0.0 0.0 0.0

920885.070415127 1.3761816431443272e7 0.0
1.3761816431443272e7 3.9823410829094597e6 0.0
0.0 0.0 0.0

255545.1431653155 1.309376531026631e7 0.0
1.309376531026631e7 -9.22660377760847e6 0.0
0.0 0.0 0.0

5.454064197781325e6 4.636695708002562e6 0.0
4.636695708002562e6 -1.889315304324495e7 0.0
0.0 0.0 0.0

-92084.29917047662 1.295390532273489e7 0.0
1.295390532273489e7 3.578308092819537e6 0.0
0.0 0.0 0.0

104185.86309824884 1.3414406201592982e7 0.0
1.3414406201592982e7 -8.59284569578666e6 0.0
0.0 0.0 0.0

-1.3685384109652047e6 1.2347363484988831e7 0.0
1.2347363484988831e7 4.974490757941037e6 0.0
0.0 0.0 0.0

-4.942968876782853e6 5.006564412190036e6 0.0
5.006564412190036e6 5.542218534087105e6 0.0
0.0 0.0 0.0

-3.5546736355675347e6 -440359.45450541266 0.0
-440359.45450541266 3.6857755008473275e6 0.0
0.0 0.0 0.0

-3.4491030659133345e6 1.505526776050667e7 0.0
1.505526776050667e7 1.8217767847782501e6 0.0
0.0 0.0 0.0

2.1542675537625365e6 1.096574935013436e7 0.0
1.096574935013436e7 -1.4082608254444206e7 0.0
0.0 0.0 0.0

-402499.4443661547 1.2010400625222791e7 0.0
1.2010400625222791e7 -1.0588790894945553e7 0.0
0.0 0.0 0.0

-9.85098017093769e6 102360.19128887582 0.0
102360.19128887582 5.18871862826816e7 0.0
0.0 0.0 0.0

-8.030482498324236e6 2.2719355040284667e7 0.0
2.2719355040284667e7 5.053413748000996e6 0.0
0.0 0.0 0.0

1.2362867996515671e6 5.675120250449679e6 0.0
5.675120250449679e6 -4.316517372121956e6 0.0
0.0 0.0 0.0

-668601.2543228015 1.4147247839795789e7 0.0
1.4147247839795789e7 -263235.13079212036 0.0
0.0 0.0 0.0

-2.39407768394675e6 1.3360904105305724e7 0.0
1.3360904105305724e7 6.8856312413121015e6 0.0
0.0 0.0 0.0

-1.1186462104140798e7 1.0705592023758551e7 0.0
1.0705592023758551e7 1.5280994920498794e7 0.0
0.0 0.0 0.0

-7.281018671502339e6 1.6900450900154933e7 0.0
1.6900450900154933e7 3.88834395563409e6 0.0
0.0 0.0 0.0

-242107.88292781916 1.382974110281274e7 0.0
1.382974110281274e7 5.33404514168554e6 0.0
0.0 0.0 0.0

-2.2127928140309285e6 1.3562790065072108e7 0.0
1.3562790065072108e7 6.686748720821755e6 0.0
0.0 0.0 0.0

408861.52023221925 1.3139196693707881e7 0.0
1.3139196693707881e7 -1.0384133383388761e7 0.0
0.0 0.0 0.0

2.4907741275289785e6 5.625796523216529e6 0.0
5.625796523216529e6 -8.427921027024653e6 0.0
0.0 0.0 0.0

465887.87276662514 1.305942462504545e7 0.0
1.305942462504545e7 -1.0153156879219033e7 0.0
0.0 0.0 0.0

-1.9060443373001604e6 1.476341991381596e7 0.0
1.476341991381596e7 -5.997236788427648e6 0.0
0.0 0.0 0.0

-5.420346144057797e6 1.6653230679125126e7 0.0
1.6653230679125126e7 5.066676067921201e6 0.0
0.0 0.0 0.0

-875423.7667568023 1.54108234063673e7 0.0
1.54108234063673e7 -6.199592666010288e6 0.0
0.0 0.0 0.0

-949425.6324119628 1.4969314538733227e7 0.0
1.4969314538733227e7 -6.807670851990467e6 0.0
0.0 0.0 0.0

5.357351456621523e6 5.156992160379378e6 0.0
5.156992160379378e6 -1.7499070714725357e7 0.0
0.0 0.0 0.0

-12559.462337209843 1.2906593482130656e7 0.0
1.2906593482130656e7 3.245982244165823e6 0.0
0.0 0.0 0.0

-2.2611883044806547e6 1.5091477323616125e7 0.0
1.5091477323616125e7 -5.196439147360442e6 0.0
0.0 0.0 0.0

-1.038546607094784e7 7.53487164096855e6 0.0
7.53487164096855e6 1.1998505000356194e7 0.0
0.0 0.0 0.0

-4.982806939971582e7 2.0496742990434855e7 0.0
2.0496742990434855e7 3.9255620139631145e6 0.0
0.0 0.0 0.0

1.8317962661274962e7 2.3304226811249435e7 0.0
2.3304226811249435e7 6.106002941226473e7 0.0
0.0 0.0 0.0

-1.238413032983004e7 1.9840436549199063e7 0.0
1.9840436549199063e7 -4.1280538744123735e7 0.0
0.0 0.0 0.0

-7.671492272164178e6 1.3351488732032662e7 0.0
1.3351488732032662e7 1.2468799895047994e7 0.0
0.0 0.0 0.0

1.530652154421932e6 1.0773167765028877e7 0.0
1.0773167765028877e7 -1.2378750312636495e7 0.0
0.0 0.0 0.0

-2.0233600732286435e6 1.4461789523504334e7 0.0
1.4461789523504334e7 -4.575081986614084e6 0.0
0.0 0.0 0.0

-5.3196957255216595e6 2.292323907506665e7 0.0
2.292323907506665e7 836273.734979009 0.0
0.0 0.0 0.0

456912.52561606653 1.215922334525537e7 0.0
1.215922334525537e7 -1.2405885483951142e7 0.0
0.0 0.0 0.0

-1.1973597707358412e6 1.5197620097691124e7 0.0
1.5197620097691124e7 -2.8318111571413986e6 0.0
0.0 0.0 0.0

-1.049303622218119e7 9.152086551301634e6 0.0
9.152086551301634e6 1.2697548150040876e7 0.0
0.0 0.0 0.0

-3.692931025947047e6 1.661900020150438e7 0.0
1.661900020150438e7 694486.5654022014 0.0
0.0 0.0 0.0

636694.507528645 1.1816516223083174e7 0.0
1.1816516223083174e7 -1.6876215891188e7 0.0
0.0 0.0 0.0

-395794.61180929083 1.4449519061910685e7 0.0
1.4449519061910685e7 -3.119286389572716e6 0.0
0.0 0.0 0.0

-6.695014337179983e6 1.5445769446146036e7 0.0
1.5445769446146036e7 8.03460388528616e6 0.0
0.0 0.0 0.0

6.035983667968379e6 1.4332870694347596e7 0.0
1.4332870694347596e7 -4.6061694710362675e6 0.0
0.0 0.0 0.0

-957023.2209760505 1.1696530906484224e7 0.0
1.1696530906484224e7 3.2891718693306176e6 0.0
0.0 0.0 0.0

-7.177358149629672e6 1.344748583024272e7 0.0
1.344748583024272e7 1.1452421104688913e7 0.0
0.0 0.0 0.0

-1.0786413256371126e7 1.5587168304405134e7 0.0
1.5587168304405134e7 1.2372977328561991e6 0.0
0.0 0.0 0.0

-1.0390592345162758e6 1.1894268625707809e7 0.0
1.1894268625707809e7 3.2692716048325826e6 0.0
0.0 0.0 0.0

-3.811264729415238e6 1.8921857075831916e7 0.0
1.8921857075831916e7 -437091.84064371395 0.0
0.0 0.0 0.0

712565.4377373087 1.76645617090085e7 0.0
1.76645617090085e7 -4.774142967109621e6 0.0
0.0 0.0 0.0

1.6288947187745622e6 1.0283769751933753e7 0.0
1.0283769751933753e7 -9.543854190304987e6 0.0
0.0 0.0 0.0

-9.24948988645851e6 1.3206373397747265e7 0.0
1.3206373397747265e7 1.4794435768314756e7 0.0
0.0 0.0 0.0

162964.67664549313 1.289560321891814e7 0.0
1.289560321891814e7 -1.0949349609479964e7 0.0
0.0 0.0 0.0

-3.9725648558453573e6 1.2053142933321545e7 0.0
1.2053142933321545e7 2.2479252434248114e6 0.0
0.0 0.0 0.0

-8.095847944257528e6 1.241407138216926e7 0.0
1.241407138216926e7 9.605390654366445e6 0.0
0.0 0.0 0.0

1.9766560123540065e6 6.597714114815905e6 0.0
6.597714114815905e6 -6.7861571734976815e6 0.0
0.0 0.0 0.0

-848239.2712819229 1.3464922333465502e7 0.0
1.3464922333465502e7 3.1242927552468195e6 0.0
0.0 0.0 0.0

-1.8446152896429074e6 1.7418020907998502e7 0.0
1.7418020907998502e7 -3.999000789028164e6 0.0
0.0 0.0 0.0

3.5423644903198145e6 9.657150469008435e6 0.0
9.657150469008435e6 -2.8322194911954135e7 0.0
0.0 0.0 0.0

-9.846829304450978e6 7.389389441462258e6 0.0
7.389389441462258e6 1.1231208650478084e7 0.0
0.0 0.0 0.0

1.2824030677231108e6 2.381389827116905e7 0.0
2.381389827116905e7 -6.140452251401903e6 0.0
0.0 0.0 0.0

4.901505572772035e6 7.031665465191807e6 0.0
7.031665465191807e6 -1.9854615256631866e7 0.0
0.0 0.0 0.0

-724071.5193784602 1.3328614162989646e7 0.0
1.3328614162989646e7 2.30167071533603e6 0.0
0.0 0.0 0.0

-2.0122928863198257e6 1.6112006268830523e7 0.0
1.6112006268830523e7 -5.043852909351391e6 0.0
0.0 0.0 0.0

4.914691174700864e6 1.7677787808796823e7 0.0
1.7677787808796823e7 9.635943146189736e7 0.0
0.0 0.0 0.0

-3.2756582077818736e6 1.6728814567757675e7 0.0
1.6728814567757675e7 -6.256940276098589e7 0.0
0.0 0.0 0.0

1.181255270650971e7 1.445053117799297e7 0.0
1.445053117799297e7 3.178212341660572e6 0.0
0.0 0.0 0.0

1.819812672999627e6 1.720252647962527e7 0.0
1.720252647962527e7 -5.561595397589043e6 0.0
0.0 0.0 0.0

676317.9818894765 8.271117308404909e6 0.0
8.271117308404909e6 -5.369117625824215e6 0.0
0.0 0.0 0.0

3.1608545317330463e6 2.1860699641142044e7 0.0
2.1860699641142044e7 -6.845631101661688e6 0.0
0.0 0.0 0.0

-4.469148248809905e6 1.4440270124995867e7 0.0
1.4440270124995867e7 9.393638659125993e6 0.0
0.0 0.0 0.0

5.058743635035447e6 1.4131566489145549e7 0.0
1.4131566489145549e7 -4.021564041293946e6 0.0
0.0 0.0 0.0

-6.254099857181567e6 1.6472411663412774e7 0.0
1.6472411663412774e7 6.29111991808547e6 0.0
0.0 0.0 0.0

-6.6736469201209e6 1.1254119296651956e7 0.0
1.1254119296651956e7 8.2216716011864e6 0.0
0.0 0.0 0.0

1.1941007660512445e6 4.66191285916595e6 0.0
4.66191285916595e6 -4.840350795307355e6 0.0
0.0 0.0 0.0

-2.646622539571056e6 1.4856990592655674e7 0.0
1.4856990592655674e7 1.071579019893763e7 0.0
0.0 0.0 0.0

-3.3723428911971906e6 1.6558925004070252e7 0.0
1.6558925004070252e7 -1.8294553705158676e6 0.0
0.0 0.0 0.0

-8.19239216802584e6 1.3469599814673685e7 0.0
1.3469599814673685e7 1.324800482628997e7 0.0
0.0 0.0 0.0

-5.885418671786233e6 1.7100097302937604e7 0.0
1.7100097302937604e7 6.978988344741155e6 0.0
0.0 0.0 0.0

-5.887453205280699e6 1.6280298790942235e7 0.0
1.6280298790942235e7 6.624088021246895e6 0.0
0.0 0.0 0.0

-499818.37478197506 1.0759419637777612e7 0.0
1.0759419637777612e7 -5.365322733699542e6 0.0
0.0 0.0 0.0

-7.030220134826983e6 1.4160007631689658e7 0.0
1.4160007631689658e7 1.424703747172422e7 0.0
0.0 0.0 0.0

-5.925775835298315e6 1.6850481223811477e7 0.0
1.6850481223811477e7 7.145288490583696e6 0.0
0.0 0.0 0.0

-3.295238861366002e6 8.705549497793032e6 0.0
8.705549497793032e6 1.8839921449039883e6 0.0
0.0 0.0 0.0

-2.5021147471451323e7 1.9394772384996105e7 0.0
1.9394772384996105e7 6.540171182028916e6 0.0
0.0 0.0 0.0

-1.1159852886589512e7 449351.36203173955 0.0
449351.36203173955 3.372311491504376e7 0.0
0.0 0.0 0.0

-6.50545419735438e6 1.709511474272516e7 0.0
1.709511474272516e7 6.269271052323418e6 0.0
0.0 0.0 0.0

-7.27115078937953e6 1.989604316970207e7 0.0
1.989604316970207e7 7.083951584715541e6 0.0
0.0 0.0 0.0

1.45958528722917e6 1.1481601693768812e7 0.0
1.1481601693768812e7 -1.5738452761284119e7 0.0
0.0 0.0 0.0

-5.771683759460402e6 2.1327440180738084e7 0.0
2.1327440180738084e7 4.992534321664451e6 0.0
0.0 0.0 0.0

-9.341471156004552e6 2.337790820304306e7 0.0
2.337790820304306e7 5.196367679210627e6 0.0
0.0 0.0 0.0

-1.0720513864279771e7 2.3938290859448496e7 0.0
2.3938290859448496e7 5.52488838065589e6 0.0
0.0 0.0 0.0

-4.269733902292466e6 1.780067241468507e7 0.0
1.780067241468507e7 684709.8933396626 0.0
0.0 0.0 0.0

-1.2265973306535816e7 6.70721573019522e6 0.0
6.70721573019522e6 1.8200029265982933e7 0.0
0.0 0.0 0.0

5.440886676586612e6 4.325028077161324e6 0.0
4.325028077161324e6 -1.647050296088037e7 0.0
0.0 0.0 0.0

-7.48984466932613e6 1.4052842975298114e7 0.0
1.4052842975298114e7 1.2759428154177096e7 0.0
0.0 0.0 0.0

-4.062490994373184e6 1.9353834096597746e7 0.0
1.9353834096597746e7 265115.75822623493 0.0
0.0 0.0 0.0

1.023442423939188e6 1.1852121904566266e7 0.0
1.1852121904566266e7 -1.2920692203798082e7 0.0
0.0 0.0 0.0

-9.877927018251048e6 -6.050015491306754e6 0.0
-6.050015491306754e6 2.4329716669548314e7 0.0
0.0 0.0 0.0

-136768.32472764803 1.3871417410938982e7 0.0
1.3871417410938982e7 -333907.50184257864 0.0
0.0 0.0 0.0

-147378.4467348368 1.3781335291275682e7 0.0
1.3781335291275682e7 -8.072454309195321e6 0.0
0.0 0.0 0.0

404096.4856233201 1.2797168139816245e7 0.0
1.2797168139816245e7 -9.783806780972617e6 0.0
0.0 0.0 0.0

-640620.8807176943 1.0930456946644843e7 0.0
1.0930456946644843e7 -9.173656432711683e6 0.0
0.0 0.0 0.0

-5.107700784170426e6 -495769.2872647622 0.0
-495769.2872647622 5.704697911711706e6 0.0
0.0 0.0 0.0

710863.7564178817 1.0804062674064597e7 0.0
1.0804062674064597e7 -3.210250066203136e6 0.0
0.0 0.0 0.0

428482.36683697643 1.2081946991172627e7 0.0
1.2081946991172627e7 2.7593233634650633e6 0.0
0.0 0.0 0.0

7.238799048443522e6 1.2394152405608673e7 0.0
1.2394152405608673e7 -293896.43869434437 0.0
0.0 0.0 0.0

-1.1517452393866222e7 2.4961428172669355e7 0.0
2.4961428172669355e7 6.088268536007312e6 0.0
0.0 0.0 0.0

-7.058307607007371e6 1.1459953039993064e7 0.0
1.1459953039993064e7 9.079100390746038e6 0.0
0.0 0.0 0.0

-2.4569380968377246e6 1.4142621280617809e7 0.0
1.4142621280617809e7 -2.622752392221735e7 0.0
0.0 0.0 0.0

4.829592283808621e6 6.648365331591692e6 0.0
6.648365331591692e6 -1.711886568162692e7 0.0
0.0 0.0 0.0

-3.1045613988333237e6 -6.703338915249495e6 0.0
-6.703338915249495e6 1.0278350258522404e7 0.0
0.0 0.0 0.0

-1.2290364898767203e7 1.9028657263096523e7 0.0
1.9028657263096523e7 4.144780689674096e6 0.0
0.0 0.0 0.0

-9.201909729694616e6 1.6091884202883115e7 0.0
1.6091884202883115e7 -120156.35361308465 0.0
0.0 0.0 0.0

-47090.30300522363 1.1366608251878085e7 0.0
1.1366608251878085e7 -6.53342192225669e6 0.0
0.0 0.0 0.0

-4.415622143133381e6 1.900683578041359e7 0.0
1.900683578041359e7 1.358300423308112e6 0.0
0.0 0.0 0.0

4.751409585417511e6 6.761055517441899e6 0.0
6.761055517441899e6 -2.7619102435589228e7 0.0
0.0 0.0 0.0

1.7868134349963372e6 1.5365209897150299e7 0.0
1.5365209897150299e7 -4.803900452376114e6 0.0
0.0 0.0 0.0

-121616.0789429401 1.4248191030045606e7 0.0
1.4248191030045606e7 5.980007887960936e6 0.0
0.0 0.0 0.0

2.0685175611211061e6 1.0611852011745742e7 0.0
1.0611852011745742e7 -1.2186261937833281e7 0.0
0.0 0.0 0.0

-4.0493163082325044e6 1.5657753049254214e7 0.0
1.5657753049254214e7 1.6459462989009563e6 0.0
0.0 0.0 0.0

1.6687257574267355e6 1.0010812577731563e7 0.0
1.0010812577731563e7 -9.041680993334688e6 0.0
0.0 0.0 0.0

1.7669649187996816e6 1.0493211502771733e7 0.0
1.0493211502771733e7 -1.31211289125254e7 0.0
0.0 0.0 0.0

130839.11994453147 1.1529700052759657e7 0.0
1.1529700052759657e7 -9.829114179362632e6 0.0
0.0 0.0 0.0

-7.133685899727623e6 1.9425257203729063e7 0.0
1.9425257203729063e7 6.582450330401732e6 0.0
0.0 0.0 0.0

-5.469284336481849e6 1.6291119508501256e7 0.0
1.6291119508501256e7 -3.0106978658322793e7 0.0
0.0 0.0 0.0

1.5041340887535817e6 2.1663733875648707e7 0.0
2.1663733875648707e7 -4.659049168688744e6 0.0
0.0 0.0 0.0

-1.2239668591585425e6 1.7477954362370897e7 0.0
1.7477954362370897e7 -4.240084303077465e6 0.0
0.0 0.0 0.0

-5.2723378279904425e6 2.0147332224766266e7 0.0
2.0147332224766266e7 4.884862877732554e6 0.0
0.0 0.0 0.0

-6.18566064806081e6 1.650363578912405e7 0.0
1.650363578912405e7 7.689064519546403e6 0.0
0.0 0.0 0.0

5.008985746487912e6 6.0797861210419405e6 0.0
6.0797861210419405e6 -2.8408812841403313e7 0.0
0.0 0.0 0.0

-5.819860765085174e6 1.5219112608058771e7 0.0
1.5219112608058771e7 8.887325841455182e6 0.0
0.0 0.0 0.0

5.186529461684428e6 5.828525398475533e6 0.0
5.828525398475533e6 -2.369279390555653e7 0.0
0.0 0.0 0.0

-1.78644758513841e6 1.4254447716872258e7 0.0
1.4254447716872258e7 -4.208188183145456e6 0.0
0.0 0.0 0.0

-1.4799544524821965e6 1.3818172422229933e7 0.0
1.3818172422229933e7 -4.503463705787271e6 0.0
0.0 0.0 0.0

420093.9062318492 1.0525982002816997e7 0.0
1.0525982002816997e7 -3.7854499181113304e6 0.0
0.0 0.0 0.0

-4.967289134447353e6 1.4080653965346467e7 0.0
1.4080653965346467e7 8.760882504008882e6 0.0
0.0 0.0 0.0

-4.415166458232887e6 1.717724671585157e7 0.0
1.717724671585157e7 971551.8017123425 0.0
0.0 0.0 0.0

-6.982661985967852e6 1.424680438396683e7 0.0
1.424680438396683e7 8.7168771581104e6 0.0
0.0 0.0 0.0

-4.79364549404914e6 -7.942234868569403e6 0.0
-7.942234868569403e6 1.2654581006936198e7 0.0
0.0 0.0 0.0

4.5177367626683535e6 6.499635481364133e6 0.0
6.499635481364133e6 -1.810638166579493e7 0.0
0.0 0.0 0.0

3.552388482335979e6 7.760811518423459e6 0.0
7.760811518423459e6 -1.4807585316514283e7 0.0
0.0 0.0 0.0

-4.565171530427102e6 2.055190941967501e7 0.0
2.055190941967501e7 2.236766686394261e6 0.0
0.0 0.0 0.0

-1.122229379086074e6 1.4572381782750433e7 0.0
1.4572381782750433e7 -4.366066570729473e6 0.0
0.0 0.0 0.0

1.9859220415164558e6 1.108172307995748e7 0.0
1.108172307995748e7 -1.5895997983444571e7 0.0
0.0 0.0 0.0

-4.225695079780338e6 1.4420845464356158e7 0.0
1.4420845464356158e7 1.152655060787645e7 0.0
0.0 0.0 0.0

-6.991044495585507e6 1.4323385090641913e6 0.0
1.4323385090641913e6 9.530321645174377e6 0.0
0.0 0.0 0.0

-804118.6082445299 1.4862274890466427e7 0.0
1.4862274890466427e7 7.597137468150688e6 0.0
0.0 0.0 0.0

-1.192925717627478e7 2.0179565555818934e7 0.0
2.0179565555818934e7 9.398862330420934e6 0.0
0.0 0.0 0.0

649947.7536809524 1.2628988221810427e7 0.0
1.2628988221810427e7 2.926551862097976e6 0.0
0.0 0.0 0.0

-633854.2099465611 1.3380230425144712e7 0.0
1.3380230425144712e7 4.628270785268862e6 0.0
0.0 0.0 0.0

-6.067750036787472e6 1.91626223653727e7 0.0
1.91626223653727e7 6.323706100400396e6 0.0
0.0 0.0 0.0

-5.58661074856962e6 1.4472364753594598e7 0.0
1.4472364753594598e7 9.175516805257685e6 0.0
0.0 0.0 0.0

-6.921859504461583e6 1.3357581297442771e7 0.0
1.3357581297442771e7 1.6259154454167143e7 0.0
0.0 0.0 0.0

-8.063698466148804e6 1.6757195055832854e7 0.0
1.6757195055832854e7 1.181133973945335e6 0.0
0.0 0.0 0.0

-8.228218149949815e6 1.5956130986501155e7 0.0
1.5956130986501155e7 2.802517724731079e6 0.0
0.0 0.0 0.0

-9.979841188084463e6 7.095697349812867e6 0.0
7.095697349812867e6 6.757511050386727e6 0.0
0.0 0.0 0.0

-4.54756365108593e7 2.3352063079758484e7 0.0
2.3352063079758484e7 8.432041158046145e6 0.0
0.0 0.0 0.0

4.332676047321428e6 1.2713994388263071e7 0.0
1.2713994388263071e7 1.3321553582967424e6 0.0
0.0 0.0 0.0

934649.0480940025 1.1642586373257317e7 0.0
1.1642586373257317e7 -1.5904183915557891e7 0.0
0.0 0.0 0.0

-6.359342040868101e6 1.6003153535337098e7 0.0
1.6003153535337098e7 6.240010033145479e6 0.0
0.0 0.0 0.0

-617784.339989081 1.3771415777866557e7 0.0
1.3771415777866557e7 -9.0164405630501e6 0.0
0.0 0.0 0.0

1.997414519120912e7 1.1723570881940953e7 0.0
1.1723570881940953e7 -759385.6443449073 0.0
0.0 0.0 0.0

-920336.9184098642 2.663314221243013e6 0.0
2.663314221243013e6 227508.881299206 0.0
0.0 0.0 0.0

3.660318904971604e6 4.378028576292768e6 0.0
4.378028576292768e6 -9.527114722032867e6 0.0
0.0 0.0 0.0

-1.355408006232101e6 1.4097483529377835e7 0.0
1.4097483529377835e7 -7.051606828930036e6 0.0
0.0 0.0 0.0

147982.19287673617 1.1322670358371038e7 0.0
1.1322670358371038e7 -2.399076650269494e6 0.0
0.0 0.0 0.0

-1.1221796289730817e7 -175136.44048734198 0.0
-175136.44048734198 2.493177464071622e7 0.0
0.0 0.0 0.0

-235797.22678431915 1.7861690505880963e7 0.0
1.7861690505880963e7 -4.1108023653959334e6 0.0
0.0 0.0 0.0

-1.488769365941258e7 2.5507856072513424e7 0.0
2.5507856072513424e7 6.627897926448941e6 0.0
0.0 0.0 0.0

4.002550343556537e6 1.3343082705938647e7 0.0
1.3343082705938647e7 383939.7089042313 0.0
0.0 0.0 0.0

-5.258526213450877e6 -4.828189342076996e6 0.0
-4.828189342076996e6 8.142073322610095e6 0.0
0.0 0.0 0.0

-1.612486068265295e7 1.5743795242626749e7 0.0
1.5743795242626749e7 8.633822467210945e6 0.0
0.0 0.0 0.0

-536526.8130043584 1.079887327863513e7 0.0
1.079887327863513e7 2.611281461942365e6 0.0
0.0 0.0 0.0

-1.8346885519484967e7 2.629426784196531e7 0.0
2.629426784196531e7 7.445935997559641e6 0.0
0.0 0.0 0.0

-8.935586052701239e6 1.1219074637990445e7 0.0
1.1219074637990445e7 1.2973140080132514e7 0.0
0.0 0.0 0.0

1.3578637510167223e6 1.256773343088749e7 0.0
1.256773343088749e7 -3.4373918943491015e6 0.0
0.0 0.0 0.0

-2.357610841477079e6 1.1902874945472443e7 0.0
1.1902874945472443e7 -1.2885358138416931e7 0.0
0.0 0.0 0.0

-171774.50521481875 1.160837571107469e7 0.0
1.160837571107469e7 -7.988814692366752e6 0.0
0.0 0.0 0.0

1.8642040342413927e6 1.4884099037742414e7 0.0
1.4884099037742414e7 -4.785308055186484e6 0.0
0.0 0.0 0.0

5.039810292046805e6 2.54142087781959e7 0.0
2.54142087781959e7 -1.5457773920861108e7 0.0
0.0 0.0 0.0

-5.342907344929963e6 -544729.2513605789 0.0
-544729.2513605789 7.293448843525001e6 0.0
0.0 0.0 0.0

-5.140909268750836e6 2.2265486002417207e7 0.0
2.2265486002417207e7 1.0147515133705505e6 0.0
0.0 0.0 0.0

-3.298433948774335e6 1.948697895237087e7 0.0
1.948697895237087e7 464889.5808913482 0.0
0.0 0.0 0.0

-9.317158714006115e6 -5.493091167872574e6 0.0
-5.493091167872574e6 1.702224221263522e7 0.0
0.0 0.0 0.0

5.461683083008501e6 4.2847768038164815e6 0.0
4.2847768038164815e6 -1.6555412926062763e7 0.0
0.0 0.0 0.0

-5.729757149397827e6 1.7903245862194587e7 0.0
1.7903245862194587e7 6.92310328495021e6 0.0
0.0 0.0 0.0

-1.9079517381103197e6 1.4670224363997312e7 0.0
1.4670224363997312e7 8.703503368401604e6 0.0
0.0 0.0 0.0

-2.405161574082505e6 2.393392681700664e6 0.0
2.393392681700664e6 4.8154009630402895e6 0.0
0.0 0.0 0.0

-9.144315299237024e6 9.258785259288652e6 0.0
9.258785259288652e6 1.2519183300921626e7 0.0
0.0 0.0 0.0

-2.5633444075585743e6 1.4443757155254427e7 0.0
1.4443757155254427e7 9.30581907078865e6 0.0
0.0 0.0 0.0

-739123.3816066869 1.215610210800142e7 0.0
1.215610210800142e7 -6.482930707456149e6 0.0
0.0 0.0 0.0

-183145.73721399764 1.1371212581672458e7 0.0
1.1371212581672458e7 -1.0223755572524913e7 0.0
0.0 0.0 0.0

-3.9187666202684706e6 1.8213858799469534e7 0.0
1.8213858799469534e7 -486319.9981992289 0.0
0.0 0.0 0.0

-1.6422201030440948e6 2.3533061734635294e6 0.0
2.3533061734635294e6 1.5197641772707999e6 0.0
0.0 0.0 0.0

-3.996610775317235e6 1.315524528320801e7 0.0
1.315524528320801e7 2.0908678772776697e6 0.0
0.0 0.0 0.0

-1.1247454731688766e7 1.1332907001166329e7 0.0
1.1332907001166329e7 1.5712654083155558e7 0.0
0.0 0.0 0.0

919434.000028376 1.0534011291261138e7 0.0
1.0534011291261138e7 -7.555223098804403e6 0.0
0.0 0.0 0.0

-2.168667850662546e6 1.561268004585475e7 0.0
1.561268004585475e7 -5.4117710280109765e6 0.0
0.0 0.0 0.0

-5.206122545569869e6 2.3663408265396673e7 0.0
2.3663408265396673e7 2.17085454594356e6 0.0
0.0 0.0 0.0

1.7204323979390282e6 1.0961111237174073e7 0.0
1.0961111237174073e7 -1.6769161034265656e7 0.0
0.0 0.0 0.0

-3.407015440824326e7 2.5370749967435494e7 0.0
2.5370749967435494e7 1.086222407410913e7 0.0
0.0 0.0 0.0

1.7362204690718825e6 3.922216591310545e6 0.0
3.922216591310545e6 -4.325926588295257e6 0.0
0.0 0.0 0.0

1.582890017777017e6 4.0293794341993495e6 0.0
4.0293794341993495e6 -5.031228595318162e6 0.0
0.0 0.0 0.0

302337.78372918535 1.4771287122086683e7 0.0
1.4771287122086683e7 8.785140855204834e6 0.0
0.0 0.0 0.0

-1.751436087136014e6 1.5309022139169095e7 0.0
1.5309022139169095e7 1.0949734329000987e7 0.0
0.0 0.0 0.0

-939483.901273804 1.385479032551441e7 0.0
1.385479032551441e7 2.9954695255308496e6 0.0
0.0 0.0 0.0

-8.436527151641898e6 8.021646339426307e6 0.0
8.021646339426307e6 1.2199552826265603e7 0.0
0.0 0.0 0.0

915800.5277632764 4.290972865098386e6 0.0
4.290972865098386e6 -804354.6649516246 0.0
0.0 0.0 0.0

-2.769004287595781e6 1.4652466293084353e7 0.0
1.4652466293084353e7 4.533093072404562e6 0.0
0.0 0.0 0.0

-4.380670312651968e6 1.890975333784861e7 0.0
1.890975333784861e7 2.545436422685663e6 0.0
0.0 0.0 0.0

1.2604157502524918e6 1.1407814178358033e7 0.0
1.1407814178358033e7 -1.721773860409919e7 0.0
0.0 0.0 0.0

-316850.3533205283 1.5605812353561321e7 0.0
1.5605812353561321e7 8.925915618744316e6 0.0
0.0 0.0 0.0

5.020019867824719e6 1.3571845290168205e7 0.0
1.3571845290168205e7 2.1267753720359425e6 0.0
0.0 0.0 0.0

-2.226115457806777e7 2.64217360365341e7 0.0
2.64217360365341e7 9.617944432497764e6 0.0
0.0 0.0 0.0

-1.599339277168559e6 1.2107117270430999e7 0.0
1.2107117270430999e7 5.134448889883835e6 0.0
0.0 0.0 0.0

-4.29384542387232e6 6.328595402949322e6 0.0
6.328595402949322e6 2.1141535604011966e6 0.0
0.0 0.0 0.0

-1.2524601734835831e7 5.637102021567586e6 0.0
5.637102021567586e6 1.5101581602354098e7 0.0
0.0 0.0 0.0

-4.478652703634755e6 1.84634433429072e7 0.0
1.84634433429072e7 1.7954818163585367e6 0.0
0.0 0.0 0.0

-3.4686397866578186e6 1.5188789787291186e7 0.0
1.5188789787291186e7 1.1761744644532401e7 0.0
0.0 0.0 0.0

-1.1914906514329277e7 1.0043231828151405e6 0.0
1.0043231828151405e6 3.761302833655349e7 0.0
0.0 0.0 0.0

-2.7619336600462906e6 1.4070832116322536e7 0.0
1.4070832116322536e7 6.500367087392266e6 0.0
0.0 0.0 0.0

-3.8867437247854015e6 1.287301099031517e7 0.0
1.287301099031517e7 -1.6156742854472043e7 0.0
0.0 0.0 0.0

-2.601686138886572e6 1.4969493234153507e7 0.0
1.4969493234153507e7 1.0472185807559935e7 0.0
0.0 0.0 0.0

-8.8286071922196e6 1.3158649585358553e7 0.0
1.3158649585358553e7 1.3526651752126567e7 0.0
0.0 0.0 0.0

-414624.30729412567 1.1597633549532557e7 0.0
1.1597633549532557e7 -6.817200266754143e6 0.0
0.0 0.0 0.0

-4.13987890103456e6 1.448807015141379e7 0.0
1.448807015141379e7 4.398400101832208e7 0.0
0.0 0.0 0.0

-353002.99187655863 1.734943976989942e7 0.0
1.734943976989942e7 -4.584694636727935e6 0.0
0.0 0.0 0.0

213563.4562727469 1.279819026646634e7 0.0
1.279819026646634e7 -1.0835865468038758e7 0.0
0.0 0.0 0.0

-254811.84931849642 9.771514324955119e6 0.0
9.771514324955119e6 -4.2561373993081115e6 0.0
0.0 0.0 0.0

5.668168361326511e6 4.60072274183997e6 0.0
4.60072274183997e6 -1.980517068253562e7 0.0
0.0 0.0 0.0

-4.871373923325943e6 2.2859120352656066e7 0.0
2.2859120352656066e7 2.7346844027450057e6 0.0
0.0 0.0 0.0

-1.2643760717378287e7 6.470788188244246e6 0.0
6.470788188244246e6 1.5480827838029847e7 0.0
0.0 0.0 0.0

-394139.7502790736 1.3649552319165021e7 0.0
1.3649552319165021e7 6.05339292419697e6 0.0
0.0 0.0 0.0

-6.514588256880655e6 1.7129545961447e7 0.0
1.7129545961447e7 5.263683224308464e6 0.0
0.0 0.0 0.0

-4.363673662985039e6 1.4358544850266771e7 0.0
1.4358544850266771e7 1.5282461688336951e6 0.0
0.0 0.0 0.0

-1.065048317860761e7 9.764092146827007e6 0.0
9.764092146827007e6 1.2851950607136473e7 0.0
0.0 0.0 0.0

2.556527273393429e6 8.647679087991083e6 0.0
8.647679087991083e6 -1.2319391524034716e7 0.0
0.0 0.0 0.0

-1.4174649630745372e7 2.3778134234412786e7 0.0
2.3778134234412786e7 9.15385702421368e6 0.0
0.0 0.0 0.0

9.428165711576562e6 9.973944652076773e6 0.0
9.973944652076773e6 38237.66885021422 0.0
0.0 0.0 0.0

-6.701562111737272e6 630639.3432436062 0.0
630639.3432436062 7.008049013736909e6 0.0
0.0 0.0 0.0

-6.7562039468890205e6 1.9672202179413393e7 0.0
1.9672202179413393e7 6.528631235208614e6 0.0
0.0 0.0 0.0

-2.0483298192835554e7 1.2017727224345028e7 0.0
1.2017727224345028e7 1.0515450466839258e7 0.0
0.0 0.0 0.0

-1.576444172013009e6 1.5176640205746347e7 0.0
1.5176640205746347e7 -4.128829104273125e6 0.0
0.0 0.0 0.0

-2.8193837378969707e7 2.0623213497189675e7 0.0
2.0623213497189675e7 6.482686894724587e6 0.0
0.0 0.0 0.0

-1.1958394587148067e6 1.5236929098757116e7 0.0
1.5236929098757116e7 -2.525974719855251e6 0.0
0.0 0.0 0.0

-7.474714747220558e6 1.2770711607101258e7 0.0
1.2770711607101258e7 1.0210820130373087e7 0.0
0.0 0.0 0.0

-9.35710151633145e6 6.84676666534945e6 0.0
6.84676666534945e6 1.321240996111378e7 0.0
0.0 0.0 0.0

-7.800971920301948e6 1.092990513551962e7 0.0
1.092990513551962e7 8.279869387969279e6 0.0
0.0 0.0 0.0

-5.786672874461801e6 1.6372906795546178e7 0.0
1.6372906795546178e7 7.69826809062557e6 0.0
0.0 0.0 0.0

-1.0481663377327457e7 -3.888982418464389e6 0.0
-3.888982418464389e6 2.4395193650482032e7 0.0
0.0 0.0 0.0

8528.863155932282 1.0489195377099596e7 0.0
1.0489195377099596e7 -2.192394498762745e6 0.0
0.0 0.0 0.0

1.6497083504237672e6 9.277508874199733e6 0.0
9.277508874199733e6 -8.089173178895747e6 0.0
0.0 0.0 0.0

980636.9463535706 1.1859952184093205e7 0.0
1.1859952184093205e7 -1.0774863059216475e7 0.0
0.0 0.0 0.0

-6.048161429222925e6 -4.210851642275882e6 0.0
-4.210851642275882e6 1.0620663307784263e7 0.0
0.0 0.0 0.0

-490458.70791938284 1.0762147611470737e7 0.0
1.0762147611470737e7 -1.1047786167442338e6 0.0
0.0 0.0 0.0

-6.292576460687146e6 1.7418366450928375e7 0.0
1.7418366450928375e7 5.9585672478715675e6 0.0
0.0 0.0 0.0

-2.4136681957148477e6 1.5000099415543694e7 0.0
1.5000099415543694e7 1.0419570774886912e7 0.0
0.0 0.0 0.0

-888504.6692532278 1.3685944551149994e7 0.0
1.3685944551149994e7 -7.288502293587597e6 0.0
0.0 0.0 0.0

-455737.31508194905 1.3453659088622563e7 0.0
1.3453659088622563e7 919430.4774737684 0.0
0.0 0.0 0.0

-4.955887024711809e6 2.1653702451910157e7 0.0
2.1653702451910157e7 1.5248744824392209e6 0.0
0.0 0.0 0.0

-260304.62155210273 1.4083315345500983e7 0.0
1.4083315345500983e7 -7.62526891567541e6 0.0
0.0 0.0 0.0

4.041362067206014e7 1.713089594412653e7 0.0
1.713089594412653e7 -23121.848377054557 0.0
0.0 0.0 0.0

1.6255971197157414e6 1.325409631220631e7 0.0
1.325409631220631e7 -4.530113166370146e6 0.0
0.0 0.0 0.0

365978.35269076936 1.2394409845329035e7 0.0
1.2394409845329035e7 -1.277438591505126e7 0.0
0.0 0.0 0.0

-1.2079257276049298e6 1.5374440483639402e7 0.0
1.5374440483639402e7 -6.139654550500798e6 0.0
0.0 0.0 0.0

-1.8315668383037686e7 1.7440591851010084e7 0.0
1.7440591851010084e7 7.731286833211041e6 0.0
0.0 0.0 0.0

-5.796912159136668e6 1.702087699762977e7 0.0
1.702087699762977e7 6.4839850472832415e6 0.0
0.0 0.0 0.0

5.869977150591878e6 1.3410887769242058e7 0.0
1.3410887769242058e7 -1.9296065705461577e6 0.0
0.0 0.0 0.0

869648.4849310853 1.1445182297010837e7 0.0
1.1445182297010837e7 -1.96000447782534e7 0.0
0.0 0.0 0.0

77367.0501387585 1.4245601615322532e7 0.0
1.4245601615322532e7 1.1006041674808232e7 0.0
0.0 0.0 0.0

4.70269531634041e6 5.946043515811509e6 0.0
5.946043515811509e6 -1.3891475295394847e7 0.0
0.0 0.0 0.0

-1.0135498774922943e6 1.579237335821914e7 0.0
1.579237335821914e7 -5.534705421662097e6 0.0
0.0 0.0 0.0

5.396856486296314e6 5.32939977410998e6 0.0
5.32939977410998e6 -2.303479220049617e7 0.0
0.0 0.0 0.0

-2.0401326266227863e6 1.5410636038075596e7 0.0
1.5410636038075596e7 -5.375728686671537e6 0.0
0.0 0.0 0.0

-996695.0758107681 1.789858211297921e7 0.0
1.789858211297921e7 -3.544862844032296e6 0.0
0.0 0.0 0.0

-3.9071218802482286e6 1.4223976854984362e7 0.0
1.4223976854984362e7 1.2827724518076272e6 0.0
0.0 0.0 0.0

-1.04864087449688e7 2.028297062453601e7 0.0
2.028297062453601e7 7.959664710638403e6 0.0
0.0 0.0 0.0

-9.320744328576867e6 1.310669323202698e7 0.0
1.310669323202698e7 1.3406620602881607e7 0.0
0.0 0.0 0.0

-1.551504079406185e6 1.1429696369116057e7 0.0
1.1429696369116057e7 4.1073508390622335e6 0.0
0.0 0.0 0.0

-2.615102525386611e7 1.8695983472514093e7 0.0
1.8695983472514093e7 1.2165691971567277e7 0.0
0.0 0.0 0.0

3.825983580063867e6 1.3664002835054811e7 0.0
1.3664002835054811e7 4.41566378697088e6 0.0
0.0 0.0 0.0

-3.7233835078510623e6 8.116753297540984e6 0.0
8.116753297540984e6 1.0439594262599396e6 0.0
0.0 0.0 0.0

-6.095291967568388e6 1.9349750833017055e7 0.0
1.9349750833017055e7 6.102267283487393e6 0.0
0.0 0.0 0.0

-1.4519347270157407e6 1.5590717329556419e7 0.0
1.5590717329556419e7 -3.0310221492694365e6 0.0
0.0 0.0 0.0

983987.4864119869 1.078716977705441e7 0.0
1.078716977705441e7 -7.965735257065075e6 0.0
0.0 0.0 0.0

5.573526609795766e6 4.200226837760224e6 0.0
4.200226837760224e6 -1.7272852857697163e7 0.0
0.0 0.0 0.0

402223.3155044848 1.1004849106400443e7 0.0
1.1004849106400443e7 -7.117798976340013e6 0.0
0.0 0.0 0.0

2.233127861963113e7 5.769685757222795e6 0.0
5.769685757222795e6 -3.6139124436507346e6 0.0
0.0 0.0 0.0

-9.102808085654542e6 1.3183909964383436e7 0.0
1.3183909964383436e7 1.4108367576347187e7 0.0
0.0 0.0 0.0

-6.810045043478313e6 1.9038035397462804e7 0.0
1.9038035397462804e7 6.590003543190637e6 0.0
0.0 0.0 0.0

-8.137644538167609e6 -7.993761230864076e6 0.0
-7.993761230864076e6 2.030607358256747e7 0.0
0.0 0.0 0.0

-5.888584113160191e6 2.1409709667287152e7 0.0
2.1409709667287152e7 4.352409756287573e6 0.0
0.0 0.0 0.0

-1.56687488439749e7 1.5447834040153477e7 0.0
1.5447834040153477e7 8.318153678350541e6 0.0
0.0 0.0 0.0

-77994.24741785554 1.3104940297244607e7 0.0
1.3104940297244607e7 -1.0169240655278191e7 0.0
0.0 0.0 0.0

280214.15672276076 1.4446911267123282e7 0.0
1.4446911267123282e7 7.556572874874113e6 0.0
0.0 0.0 0.0

-687206.9721330832 1.1571403020931825e7 0.0
1.1571403020931825e7 1.5255039670330079e6 0.0
0.0 0.0 0.0

-6.056343978461631e6 1.542852623874958e7 0.0
1.542852623874958e7 6.425706205443672e6 0.0
0.0 0.0 0.0

676419.8178774123 1.0387990316066654e7 0.0
1.0387990316066654e7 -8.515728211833337e6 0.0
0.0 0.0 0.0

3.1507118958626036e6 8.395878155920226e6 0.0
8.395878155920226e6 -1.191612923462832e7 0.0
0.0 0.0 0.0

173541.24276779313 7.50453868207283e6 0.0
7.50453868207283e6 -5.11218620017077e6 0.0
0.0 0.0 0.0

-5.946321709058063e6 1.9074810822069608e7 0.0
1.9074810822069608e7 5.867328819979085e6 0.0
0.0 0.0 0.0

-1.0519853878064007e6 1.2406029076005688e7 0.0
1.2406029076005688e7 -5.801640998126221e6 0.0
0.0 0.0 0.0

8.370057825649491e6 9.9397726935166e6 0.0
9.9397726935166e6 -47948.7715743836 0.0
0.0 0.0 0.0

5.602816746286068e6 4.191731365366316e6 0.0
4.191731365366316e6 -1.737298762421616e7 0.0
0.0 0.0 0.0

-1.1347096887941677e6 1.422450328877435e7 0.0
1.422450328877435e7 7.925560019174646e6 0.0
0.0 0.0 0.0

677115.3064706828 7.416953859467913e6 0.0
7.416953859467913e6 -6.063108016939433e6 0.0
0.0 0.0 0.0

-3.3454701035253643e6 1.8395069703212727e7 0.0
1.8395069703212727e7 -204037.2472496936 0.0
0.0 0.0 0.0

-1.2362468521321565e6 1.3854722792836543e7 0.0
1.3854722792836543e7 4.1619751619627224e6 0.0
0.0 0.0 0.0

-1.213593843266587e7 2.6466506645850902e6 0.0
2.6466506645850902e6 2.2184539841162853e7 0.0
0.0 0.0 0.0

-1.2640179705759585e6 3.5613605767469616e6 0.0
3.5613605767469616e6 647794.3941907166 0.0
0.0 0.0 0.0

-1.4210203227500403e6 1.8071275348768603e7 0.0
1.8071275348768603e7 -3.819502434682133e6 0.0
0.0 0.0 0.0

-3.3409660007051412e7 8.262720646899459e6 0.0
8.262720646899459e6 1.1554063590443183e7 0.0
0.0 0.0 0.0

719152.238731652 1.2275444477266015e7 0.0
1.2275444477266015e7 -1.2282590145117901e7 0.0
0.0 0.0 0.0

-2.9103187920283433e6 1.0180247139719905e7 0.0
1.0180247139719905e7 4.687759090173066e6 0.0
0.0 0.0 0.0

-7.306181628401081e6 1.2578074688441196e7 0.0
1.2578074688441196e7 9.778235349720031e6 0.0
0.0 0.0 0.0

-3.5549452180079885e7 8.300154998138803e6 0.0
8.300154998138803e6 1.1328877409102635e7 0.0
0.0 0.0 0.0

407765.4528084388 1.2053153618087068e7 0.0
1.2053153618087068e7 -1.3014836059362516e7 0.0
0.0 0.0 0.0

-1.1689498742719218e6 1.503987697399984e7 0.0
1.503987697399984e7 -6.435850300838278e6 0.0
0.0 0.0 0.0

1.5836997638858005e6 5.607083570405958e6 0.0
5.607083570405958e6 -5.034754431044298e6 0.0
0.0 0.0 0.0

-3.3450269237382654e6 1.6445931508712392e7 0.0
1.6445931508712392e7 -2.273034054654133e6 0.0
0.0 0.0 0.0

-2.3173640555898235e6 2.0115529998253487e7 0.0
2.0115529998253487e7 -1.863060725827369e6 0.0
0.0 0.0 0.0

-5.171896387551838e6 1.9875964207367655e7 0.0
1.9875964207367655e7 3.7140294619839815e6 0.0
0.0 0.0 0.0

-5.828018381578701e6 1.475050141281145e7 0.0
1.475050141281145e7 3.7194589601825443e6 0.0
0.0 0.0 0.0

-1.2064719569906402e7 9.09144254143332e6 0.0
9.09144254143332e6 1.6730954970601656e7 0.0
0.0 0.0 0.0

-5.002524612392837e6 1.51817616103495e7 0.0
1.51817616103495e7 8.217121526572742e6 0.0
0.0 0.0 0.0

-5.69318258581792e6 2.0975011524071492e7 0.0
2.0975011524071492e7 4.226607297946723e6 0.0
0.0 0.0 0.0

1.369706221630007e6 9.168202246833567e6 0.0
9.168202246833567e6 -9.048472928004475e6 0.0
0.0 0.0 0.0

-5.604068565182165e6 2.0608478959580947e7 0.0
2.0608478959580947e7 4.059578752735802e6 0.0
0.0 0.0 0.0

-2.5309735679360735e6 1.53888543325548e7 0.0
1.53888543325548e7 1.1224755877117649e7 0.0
0.0 0.0 0.0

-1.1997718887234092e7 6.417941605808563e6 0.0
6.417941605808563e6 1.6189871939905155e7 0.0
0.0 0.0 0.0

5.219349621614457e6 4.793018438685072e6 0.0
4.793018438685072e6 -1.808915536955088e7 0.0
0.0 0.0 0.0

-7.419574014588527e6 1.7116797902619623e7 0.0
1.7116797902619623e7 5.46352729919648e6 0.0
0.0 0.0 0.0

-3.823489053510617e6 1.672464249723378e7 0.0
1.672464249723378e7 -727892.3218891679 0.0
0.0 0.0 0.0

-3.1540624447534913e6 1.6705980369925937e7 0.0
1.6705980369925937e7 -1.3458157236376037e6 0.0
0.0 0.0 0.0

-4.102432315764504e7 3.00849800941917e7 0.0
3.00849800941917e7 -1.0085937821460566e7 0.0
0.0 0.0 0.0

213559.9362029587 1.3438489489418581e7 0.0
1.3438489489418581e7 -9.629036122564847e6 0.0
0.0 0.0 0.0

-4.188949589704286e6 1.8252120753138643e7 0.0
1.8252120753138643e7 2.0257412010508873e6 0.0
0.0 0.0 0.0

-7.838137707026879e6 1.3241473098308232e7 0.0
1.3241473098308232e7 9.396849149724355e6 0.0
0.0 0.0 0.0

-2.1729279609247476e7 1.3371590959929932e7 0.0
1.3371590959929932e7 1.1412295446639145e7 0.0
0.0 0.0 0.0

71646.75809056003 1.3353357671400713e7 0.0
1.3353357671400713e7 -861127.9698051235 0.0
0.0 0.0 0.0

-4.828762974186228e6 1.4801878532360997e7 0.0
1.4801878532360997e7 1.2678501858159482e7 0.0
0.0 0.0 0.0

5.924875232412859e6 3.8333436047580224e6 0.0
3.8333436047580224e6 -2.0942371914163813e7 0.0
0.0 0.0 0.0

-1.7042840118780058e7 2.1515459235769864e7 0.0
2.1515459235769864e7 1.1075594630053278e7 0.0
0.0 0.0 0.0

-8.977206894480947e6 -6.171881510103221e6 0.0
-6.171881510103221e6 2.1699407206629742e7 0.0
0.0 0.0 0.0

-1.1081099891152166e7 -4.1267424150611814e6 0.0
-4.1267424150611814e6 2.709439574875062e7 0.0
0.0 0.0 0.0

-669307.9673770634 3.0992027394091254e6 0.0
3.0992027394091254e6 315567.204959328 0.0
0.0 0.0 0.0

-1.2204814819397802e7 7.659737612939615e6 0.0
7.659737612939615e6 1.826728546357397e7 0.0
0.0 0.0 0.0

-5.725610777552895e6 1.232959713367789e7 0.0
1.232959713367789e7 9.43533463146586e6 0.0
0.0 0.0 0.0

1.1646940717305867e6 1.1810150310402298e7 0.0
1.1810150310402298e7 -1.3764814871608358e7 0.0
0.0 0.0 0.0

-2.8460566494168013e7 2.591342369189087e7 0.0
2.591342369189087e7 1.1493919007080648e7 0.0
0.0 0.0 0.0

-1.1933449214705933e7 7.227028407040883e6 0.0
7.227028407040883e6 1.6594954789350692e7 0.0
0.0 0.0 0.0

929048.6907779304 1.131528169190213e7 0.0
1.131528169190213e7 -2.010440207130513e7 0.0
0.0 0.0 0.0

-1.4991161905453008e7 1.4140937104752863e7 0.0
1.4140937104752863e7 8.700479608634062e6 0.0
0.0 0.0 0.0

-1.031792564173034e7 -4.580669841194352e6 0.0
-4.580669841194352e6 2.8031121531813353e7 0.0
0.0 0.0 0.0

-394303.90355327446 1.281090551610646e7 0.0
1.281090551610646e7 -8.648337724574769e6 0.0
0.0 0.0 0.0

-1.8881506486835498e6 1.3104879640235784e7 0.0
1.3104879640235784e7 -2.10242684660358e7 0.0
0.0 0.0 0.0

-753546.6157897603 1.4869924423343316e7 0.0
1.4869924423343316e7 -2.9628534722075015e6 0.0
0.0 0.0 0.0

-1.3589554973267715e7 1.2158723510243386e7 0.0
1.2158723510243386e7 8.268373812430962e6 0.0
0.0 0.0 0.0

1.9245467829791937e7 1.6580821246938588e7 0.0
1.6580821246938588e7 2.8400334728629547e6 0.0
0.0 0.0 0.0

-629457.5287102183 8.796149615517428e6 0.0
8.796149615517428e6 -3.139804589247928e6 0.0
0.0 0.0 0.0

864448.2086529252 1.2081520205875846e7 0.0
1.2081520205875846e7 -9.870066233698798e6 0.0
0.0 0.0 0.0

15467.305899769999 1.1096145872623136e7 0.0
1.1096145872623136e7 -9.069036306483982e6 0.0
0.0 0.0 0.0

6.098978432248757e6 3.8673189017202146e6 0.0
3.8673189017202146e6 -2.1064552024490695e7 0.0
0.0 0.0 0.0

-3.4182737145225997e6 1.7793831862071134e7 0.0
1.7793831862071134e7 18910.37801860622 0.0
0.0 0.0 0.0

-1382.3771457318217 1.190133134895416e7 0.0
1.190133134895416e7 -1.362534170430491e7 0.0
0.0 0.0 0.0

98211.44324420113 1.4222256727182388e7 0.0
1.4222256727182388e7 -7.846331832363639e6 0.0
0.0 0.0 0.0

-247348.3878911311 1.1444454962445298e7 0.0
1.1444454962445298e7 -386062.42183104454 0.0
0.0 0.0 0.0

-3.364922089169262e6 8.140201462487814e6 0.0
8.140201462487814e6 2.258626640150306e6 0.0
0.0 0.0 0.0

-6.44457386674073e6 1.5120073161138615e7 0.0
1.5120073161138615e7 5.949690155995643e6 0.0
0.0 0.0 0.0

-4.881682670587305e6 1.4742165059913933e7 0.0
1.4742165059913933e7 1.1776085262038881e7 0.0
0.0 0.0 0.0

5.198808459618005e6 4.55289666289906e6 0.0
4.55289666289906e6 -1.502119815587762e7 0.0
0.0 0.0 0.0

-1.1984173905761447e7 5.818372562547602e6 0.0
5.818372562547602e6 4.713343451660138e6 0.0
0.0 0.0 0.0

-2.299077820171232e6 1.5076428750722827e7 0.0
1.5076428750722827e7 1.0085022534984326e7 0.0
0.0 0.0 0.0

321393.3982478995 1.238603370537706e7 0.0
1.238603370537706e7 -1.075268957695277e7 0.0
0.0 0.0 0.0

3.367114515745317e7 7.226632326541355e6 0.0
7.226632326541355e6 -2.654889414945537e6 0.0
0.0 0.0 0.0

1.1335831242763964e6 1.2283702491576012e7 0.0
1.2283702491576012e7 -1.2254540346918356e7 0.0
0.0 0.0 0.0

-3.733965088135278e6 1.7158677869408865e7 0.0
1.7158677869408865e7 -1.1532814329784967e6 0.0
0.0 0.0 0.0

-4.595378362514867e6 1.5305798293371556e7 0.0
1.5305798293371556e7 982340.476209821 0.0
0.0 0.0 0.0

-2.011997478806574e6 1.4471018839609968e7 0.0
1.4471018839609968e7 3.001768353152428e7 0.0
0.0 0.0 0.0

-1.2235517467738446e7 6.8188389137927815e6 0.0
6.8188389137927815e6 1.9121947902416795e7 0.0
0.0 0.0 0.0

-7.976226624048098e6 -8.4098944851527e6 0.0
-8.4098944851527e6 2.0074934664467122e7 0.0
0.0 0.0 0.0

-1.2589630723362884e7 1.1004067067851094e6 0.0
1.1004067067851094e6 2.2450675671200026e7 0.0
0.0 0.0 0.0

-5.18739136394261e6 1.9413974425878968e7 0.0
1.9413974425878968e7 3.838662273717345e6 0.0
0.0 0.0 0.0

2.6018396180546004e6 9.179033085366094e6 0.0
9.179033085366094e6 -1.2871289830243625e7 0.0
0.0 0.0 0.0

-6.011900325957974e6 1.6147311215566682e7 0.0
1.6147311215566682e7 7.821137982139291e6 0.0
0.0 0.0 0.0

-114844.11196418572 1.3727679813017363e7 0.0
1.3727679813017363e7 -8.974919857971717e6 0.0
0.0 0.0 0.0

-7.76082741111263e6 1.18684376961848e7 0.0
1.18684376961848e7 8.364104526807541e6 0.0
0.0 0.0 0.0

-5.68806682845379e6 1.7404017581904992e7 0.0
1.7404017581904992e7 6.829270705063439e6 0.0
0.0 0.0 0.0

700127.4646597882 1.7011406759391997e7 0.0
1.7011406759391997e7 -4.883135074628337e6 0.0
0.0 0.0 0.0

-6.114590625060858e6 1.4792026929305123e7 0.0
1.4792026929305123e7 9.28497170336281e6 0.0
0.0 0.0 0.0

-6.314151655281218e6 1.5666336076919282e7 0.0
1.5666336076919282e7 8.43506242815705e6 0.0
0.0 0.0 0.0

-779031.3337326678 1.1607406239573853e7 0.0
1.1607406239573853e7 -9.82828673875902e6 0.0
0.0 0.0 0.0

-1.2491915861087378e7 7.008513843889167e6 0.0
7.008513843889167e6 1.4900501625644956e7 0.0
0.0 0.0 0.0

-4.994107385300354e6 1.9518826438694943e7 0.0
1.9518826438694943e7 4.529476591118498e6 0.0
0.0 0.0 0.0

4.492898997833118e6 5.699815612438199e6 0.0
5.699815612438199e6 -1.459899538203612e7 0.0
0.0 0.0 0.0

-1.134535760938291e7 -604793.8943425624 0.0
-604793.8943425624 3.692634957587573e7 0.0
0.0 0.0 0.0

-468366.82809337997 1.439325156756949e7 0.0
1.439325156756949e7 -3.779777539085703e6 0.0
0.0 0.0 0.0

-5.286229460504024e6 1.975913702377354e7 0.0
1.975913702377354e7 4.0714124972305777e6 0.0
0.0 0.0 0.0

2.596725217129154e6 1.0345240182621833e7 0.0
1.0345240182621833e7 -1.4592283104487717e7 0.0
0.0 0.0 0.0

-4.081017967920975e6 1.788515040915982e7 0.0
1.788515040915982e7 -170229.38025575667 0.0
0.0 0.0 0.0

2.8695924204286337e6 8.289747750299311e6 0.0
8.289747750299311e6 -1.2904502354433488e7 0.0
0.0 0.0 0.0

-1.1963144562120214e7 5.766469132231457e6 0.0
5.766469132231457e6 1.6916421432555277e7 0.0
0.0 0.0 0.0

-3.77165318404106e7 2.5228813892383378e7 0.0
2.5228813892383378e7 1.1391390784929836e7 0.0
0.0 0.0 0.0

-6.641754306753412e6 1.6140988625796637e7 0.0
1.6140988625796637e7 1.3941523126187306e6 0.0
0.0 0.0 0.0

-5.63719143780636e6 1.6089365122982776e7 0.0
1.6089365122982776e7 7.960477448585028e6 0.0
0.0 0.0 0.0

-3.5674575338899847e6 -473776.35933369154 0.0
-473776.35933369154 4.659571193101895e6 0.0
0.0 0.0 0.0

-7.99857532762979e6 1.5451716965778206e7 0.0
1.5451716965778206e7 327980.94691579184 0.0
0.0 0.0 0.0

-6.151507011234396e6 1.7561879629093762e7 0.0
1.7561879629093762e7 6.39009778231103e6 0.0
0.0 0.0 0.0

5.4917420516932355e6 4.630560459035943e6 0.0
4.630560459035943e6 -1.8423806052963264e7 0.0
0.0 0.0 0.0

-7.393571309504454e6 1.0719788274171477e7 0.0
1.0719788274171477e7 9.831669254163478e6 0.0
0.0 0.0 0.0

-9.150873655403797e6 8.118411334677123e6 0.0
8.118411334677123e6 1.2902808238491863e7 0.0
0.0 0.0 0.0

-3.7945118831184213e6 2.1819559739799492e7 0.0
2.1819559739799492e7 1.7054038899705056e6 0.0
0.0 0.0 0.0

-8.472797660408976e6 752836.7150627177 0.0
752836.7150627177 9.189175511645198e6 0.0
0.0 0.0 0.0

-1.2562958691629805e7 7.955569288285243e6 0.0
7.955569288285243e6 1.5531180166889273e7 0.0
0.0 0.0 0.0

-4.804619489145794e6 2.009916078963126e7 0.0
2.009916078963126e7 4.0958068665091596e6 0.0
0.0 0.0 0.0

-1.0998508069874296e7 -3.845020135004958e6 0.0
-3.845020135004958e6 2.9512757232330073e7 0.0
0.0 0.0 0.0

-4.669505269016858e6 508781.11580000503 0.0
508781.11580000503 6.514326330316886e6 0.0
0.0 0.0 0.0

3.984066608393836e6 6.930687122501302e6 0.0
6.930687122501302e6 -1.4053051281027675e7 0.0
0.0 0.0 0.0

-6.2248987573567275e6 1.549148578126426e7 0.0
1.549148578126426e7 6.646100663125571e6 0.0
0.0 0.0 0.0

-1.2542926784667302e7 8.293019878867044e6 0.0
8.293019878867044e6 1.6625723842935842e7 0.0
0.0 0.0 0.0

-739670.5199153696 1.3398295057508258e7 0.0
1.3398295057508258e7 -8.304318352418441e6 0.0
0.0 0.0 0.0

201235.10297467886 1.2889584904682215e7 0.0
1.2889584904682215e7 -8.714618496884787e6 0.0
0.0 0.0 0.0

2.7772244844621597e6 9.044213247712608e6 0.0
9.044213247712608e6 -1.3674163468735378e7 0.0
0.0 0.0 0.0

974307.0120565668 1.2045860908654418e7 0.0
1.2045860908654418e7 -1.3071716867359204e7 0.0
0.0 0.0 0.0

-957924.7490189443 1.150770525781621e7 0.0
1.150770525781621e7 3.7331737025848604e6 0.0
0.0 0.0 0.0

-1.2668774623074373e7 9.283831786938893e6 0.0
9.283831786938893e6 1.5759221380183468e7 0.0
0.0 0.0 0.0

-3.8416670124868643e6 1.7461639017313953e7 0.0
1.7461639017313953e7 -989364.5059601222 0.0
0.0 0.0 0.0

-6.038945770965645e6 1.900268690721614e7 0.0
1.900268690721614e7 6.225943728301076e6 0.0
0.0 0.0 0.0

-4.832160376867775e6 1.9652304153050445e7 0.0
1.9652304153050445e7 4.231516946873533e6 0.0
0.0 0.0 0.0

5.175631856998042e6 1.882038225938606e7 0.0
1.882038225938606e7 3.953828493447491e7 0.0
0.0 0.0 0.0

-5.746924971280642e6 1.5632866964906715e7 0.0
1.5632866964906715e7 6.051374376649046e6 0.0
0.0 0.0 0.0

556668.1680984837 1.2389821105111774e7 0.0
1.2389821105111774e7 -9.177553218705364e6 0.0
0.0 0.0 0.0

557107.3727640593 1.2355810541020537e7 0.0
1.2355810541020537e7 -1.2488810214960234e7 0.0
0.0 0.0 0.0

855624.8485961375 1.2265704873713369e7 0.0
1.2265704873713369e7 -1.0141766542013677e7 0.0
0.0 0.0 0.0

-4.015632428025198e6 1.9207689048307177e7 0.0
1.9207689048307177e7 1.6966398784344667e6 0.0
0.0 0.0 0.0

-6.257596203130251e6 1.4744005373188166e7 0.0
1.4744005373188166e7 5.304304630738931e6 0.0
0.0 0.0 0.0

-151550.7247465434 1.0864246331914583e7 0.0
1.0864246331914583e7 406169.8013295143 0.0
0.0 0.0 0.0

451689.19267039234 1.2573397692745486e7 0.0
1.2573397692745486e7 -1.0450496543484055e7 0.0
0.0 0.0 0.0

-4.37452196737088e6 8.318646433311741e6 0.0
8.318646433311741e6 2.0762493271084852e6 0.0
0.0 0.0 0.0

-5.599518398912621e6 2.4721732713540997e7 0.0
2.4721732713540997e7 -2.4752360686080297e6 0.0
0.0 0.0 0.0

5.737154942656487e6 4.985896363777692e6 0.0
4.985896363777692e6 -2.4580944136857197e7 0.0
0.0 0.0 0.0

4.1201383240063146e7 1.7846163730120454e7 0.0
1.7846163730120454e7 4.228615678075671e6 0.0
0.0 0.0 0.0

1.4087289912776472e7 2.195438130034364e7 0.0
2.195438130034364e7 -2.22602604414114e7 0.0
0.0 0.0 0.0

-3.49479582926383e6 1.4292948732043931e7 0.0
1.4292948732043931e7 7.965321992488088e6 0.0
0.0 0.0 0.0

-966775.6982617613 1.2090812068257863e7 0.0
1.2090812068257863e7 5.246281032759447e6 0.0
0.0 0.0 0.0

-1.3336883930744391e7 1.6040572358190907e7 0.0
1.6040572358190907e7 3.912876904351658e6 0.0
0.0 0.0 0.0

-3.805201817893902e7 1.7759678169587363e7 0.0
1.7759678169587363e7 7.821848689482952e6 0.0
0.0 0.0 0.0

-5.480715794583486e6 8.773689286489911e6 0.0
8.773689286489911e6 5.485036959474052e6 0.0
0.0 0.0 0.0

-3.753709242000502e6 1.718517406239173e7 0.0
1.718517406239173e7 792205.4276022064 0.0
0.0 0.0 0.0

1.0873000120229493e6 1.1742582462812055e7 0.0
1.1742582462812055e7 -1.0515761667208355e7 0.0
0.0 0.0 0.0

4.929533123953645e6 7.0556416464499e6 0.0
7.0556416464499e6 -2.308100689378382e7 0.0
0.0 0.0 0.0

590994.1813969943 1.1899711353683267e7 0.0
1.1899711353683267e7 -1.07617734128659e7 0.0
0.0 0.0 0.0

1.1018889825314656e6 1.1131631586090947e7 0.0
1.1131631586090947e7 -1.8613211149432696e7 0.0
0.0 0.0 0.0

-9.446677394629773e6 8.642020365848908e6 0.0
8.642020365848908e6 1.1097172452936485e7 0.0
0.0 0.0 0.0

-3.297802334303909e6 1.4596062943053212e7 0.0
1.4596062943053212e7 9.791661272615004e6 0.0
0.0 0.0 0.0

-1.365211062598998e6 1.0693963773987057e7 0.0
1.0693963773987057e7 2.866592977662748e6 0.0
0.0 0.0 0.0

-4.45885765219073e6 1.771504512638101e6 0.0
1.771504512638101e6 3.3185910957018426e6 0.0
0.0 0.0 0.0

-1.2195022057981975e7 -393684.5104325519 0.0
-393684.5104325519 2.177831626453124e7 0.0
0.0 0.0 0.0

-5.603817853267463e6 1.7640870373190776e7 0.0
1.7640870373190776e7 5.865425135271945e6 0.0
0.0 0.0 0.0

-4.659333829849647e6 1.4840127446321063e7 0.0
1.4840127446321063e7 1.1922839071567185e7 0.0
0.0 0.0 0.0

-7.012543086180268e6 1.2359359882528272e7 0.0
1.2359359882528272e7 9.154402485664964e6 0.0
0.0 0.0 0.0

-863708.1530550208 4.190972380933788e6 0.0
4.190972380933788e6 -1.5566218336601409e6 0.0
0.0 0.0 0.0

-1.1044284548855176e7 8.796837252116479e6 0.0
8.796837252116479e6 3.7623446877169296e7 0.0
0.0 0.0 0.0

-4.0518057195434375e6 1.399374098418674e7 0.0
1.399374098418674e7 1.7741624811534963e6 0.0
0.0 0.0 0.0

-3.5800919179524654e6 1.706686753373303e7 0.0
1.706686753373303e7 -1.8162843609201072e6 0.0
0.0 0.0 0.0

-4.711080682738837e6 1.4650878939635549e7 0.0
1.4650878939635549e7 1.1968564295914581e7 0.0
0.0 0.0 0.0

-4.006790064896865e6 8.437552748816963e6 0.0
8.437552748816963e6 3.259631414962059e6 0.0
0.0 0.0 0.0

-90490.2623395659 1.7229665730945595e7 0.0
1.7229665730945595e7 -4.388911816519127e6 0.0
0.0 0.0 0.0

-1.012727297658983e7 1.5337375681554656e6 0.0
1.5337375681554656e6 4.3339381649799004e7 0.0
0.0 0.0 0.0

1.2592728516166497e6 1.5803133755589701e7 0.0
1.5803133755589701e7 -5.06903591908063e6 0.0
0.0 0.0 0.0

-5.080732315983923e6 1.98341803330113e7 0.0
1.98341803330113e7 4.7599927833393235e6 0.0
0.0 0.0 0.0

-1.3113590897192513e6 1.1418508232938208e7 0.0
1.1418508232938208e7 -1.2091469988130301e7 0.0
0.0 0.0 0.0

-6.038906406089447e6 1.4357304156974945e7 0.0
1.4357304156974945e7 9.66136140529401e6 0.0
0.0 0.0 0.0

-1.283367334346585e7 6.643765623669651e6 0.0
6.643765623669651e6 1.721810681801728e7 0.0
0.0 0.0 0.0

-3.0620667098881486e6 1.9013572075688984e7 0.0
1.9013572075688984e7 -352476.0952237152 0.0
0.0 0.0 0.0

2.7184318291112618e6 5.74028056689591e6 0.0
5.74028056689591e6 -7.636362909856495e6 0.0
0.0 0.0 0.0

-6.788249584270038e6 2.3383731794917617e7 0.0
2.3383731794917617e7 2.0749741112506255e6 0.0
0.0 0.0 0.0

544919.7765860412 1.3375812292988162e7 0.0
1.3375812292988162e7 3.39394278373316e6 0.0
0.0 0.0 0.0

-3.223511465772358e6 1.5977891939274026e7 0.0
1.5977891939274026e7 -798983.0503992155 0.0
0.0 0.0 0.0

4.870727582613608e6 5.878155069094944e6 0.0
5.878155069094944e6 -1.8575177715469714e7 0.0
0.0 0.0 0.0

-698299.0566298657 1.488598996149513e7 0.0
1.488598996149513e7 -3.8782887631737916e6 0.0
0.0 0.0 0.0

-2.138319307042861e6 1.544253268021852e7 0.0
1.544253268021852e7 1.0818929751364624e7 0.0
0.0 0.0 0.0

-4.672865383494635e6 1.863756735274748e7 0.0
1.863756735274748e7 3.563190987105418e6 0.0
0.0 0.0 0.0

-683012.8105109311 1.4997307591689065e7 0.0
1.4997307591689065e7 1.0416827107666243e7 0.0
0.0 0.0 0.0

27694.167568979145 3.8924531204805044e6 0.0
3.8924531204805044e6 -1.0891974431500286e6 0.0
0.0 0.0 0.0

-6.694793655988305e6 1.3986928385785734e7 0.0
1.3986928385785734e7 1.5647376002831275e7 0.0
0.0 0.0 0.0

-4.691989933944225e6 1.6010419046935035e7 0.0
1.6010419046935035e7 3.2321373684581723e6 0.0
0.0 0.0 0.0

884450.9628094914 1.6441199468725026e7 0.0
1.6441199468725026e7 -4.980741335840161e6 0.0
0.0 0.0 0.0

-1.4660224186501596e6 1.5805691766846908e7 0.0
1.5805691766846908e7 -5.534815626645574e6 0.0
0.0 0.0 0.0

-1.8572197383842997e6 1.9969305954315457e7 0.0
1.9969305954315457e7 -1.9633989800019688e6 0.0
0.0 0.0 0.0

-948032.9359448657 9.870544264619369e6 0.0
9.870544264619369e6 1.2250458392716462e6 0.0
0.0 0.0 0.0

-5.732354395664474e6 1.6574368341322688e7 0.0
1.6574368341322688e7 7.6746161195714725e6 0.0
0.0 0.0 0.0

-4.03430523480875e6 2.0510865302416082e7 0.0
2.0510865302416082e7 -262288.18712949974 0.0
0.0 0.0 0.0

-1.6913975112583367e6 1.3013767463496061e7 0.0
1.3013767463496061e7 -2.0329956449508492e7 0.0
0.0 0.0 0.0

-4.66512060343052e6 7.008838724579359e6 0.0
7.008838724579359e6 2.670158538972457e6 0.0
0.0 0.0 0.0

-1.7356356779665765e6 1.1435411508083303e7 0.0
1.1435411508083303e7 4.237848937143393e6 0.0
0.0 0.0 0.0

-3.5362419191268794e6 1.9629153193511203e7 0.0
1.9629153193511203e7 -1.094877923877111e6 0.0
0.0 0.0 0.0

445294.17812082125 1.2821579140333096e7 0.0
1.2821579140333096e7 -1.0764040761410864e7 0.0
0.0 0.0 0.0

4.838903364254659e6 5.206060910861478e6 0.0
5.206060910861478e6 -1.3989525980468757e7 0.0
0.0 0.0 0.0

-1.0473525528090505e7 -3.1763688581446493e6 0.0
-3.1763688581446493e6 3.948267827485011e7 0.0
0.0 0.0 0.0

2.616870909009101e6 1.0402955825042963e7 0.0
1.0402955825042963e7 -1.5404013097141366e7 0.0
0.0 0.0 0.0

-2.2853058844109336e6 1.278876841204863e7 0.0
1.278876841204863e7 6.953465883241615e6 0.0
0.0 0.0 0.0

-8.3731617161863465e6 9.261045371151805e6 0.0
9.261045371151805e6 1.2012893515887886e7 0.0
0.0 0.0 0.0

680364.519477678 1.6475610424043613e7 0.0
1.6475610424043613e7 -5.011552849223276e6 0.0
0.0 0.0 0.0

3.7479215440866733e6 6.2658371498925e6 0.0
6.2658371498925e6 -1.2296413477794506e7 0.0
0.0 0.0 0.0

1.8170193766486677e6 1.3406257521678155e7 0.0
1.3406257521678155e7 -4.303646609825418e6 0.0
0.0 0.0 0.0

-1.4355146715314314e6 1.5278282208130524e7 0.0
1.5278282208130524e7 9.249788194890752e6 0.0
0.0 0.0 0.0

-2.9957761316256914e6 2.445368730008717e7 0.0
2.445368730008717e7 -5.685996378291777e6 0.0
0.0 0.0 0.0

-502898.44495207793 1.5453844360902451e7 0.0
1.5453844360902451e7 -5.99911412647314e6 0.0
0.0 0.0 0.0

-5.322676329455671e6 1.3781279211441197e7 0.0
1.3781279211441197e7 2.1345535591145433e7 0.0
0.0 0.0 0.0

5.535948179164251e6 4.306670969753044e6 0.0
4.306670969753044e6 -1.6640322148136977e7 0.0
0.0 0.0 0.0

-4.525407647126094e6 1.9881406734912947e7 0.0
1.9881406734912947e7 1.7265945952648846e6 0.0
0.0 0.0 0.0

2.2093475534291496e6 1.2317305323667593e7 0.0
1.2317305323667593e7 433748.3918253247 0.0
0.0 0.0 0.0

-4.165243065380547e7 1.0489004260532642e7 0.0
1.0489004260532642e7 9.34268556245964e6 0.0
0.0 0.0 0.0

-6.087679801780809e6 1.7586171735492002e7 0.0
1.7586171735492002e7 6.661004559057696e6 0.0
0.0 0.0 0.0

-3.6963946330988402e6 6.802191164465196e6 0.0
6.802191164465196e6 2.9601296542573273e6 0.0
0.0 0.0 0.0

1.3289176291329153e6 1.19517271006704e7 0.0
1.19517271006704e7 -1.3831212772706578e7 0.0
0.0 0.0 0.0

-3.512398495070239e6 1.4081547955789639e7 0.0
1.4081547955789639e7 7.081494481223389e6 0.0
0.0 0.0 0.0

326464.41925514117 1.1866781931113575e7 0.0
1.1866781931113575e7 -1.679738182582082e7 0.0
0.0 0.0 0.0

5.991029108023032e6 4.352191688685493e6 0.0
4.352191688685493e6 -2.0593871273717325e7 0.0
0.0 0.0 0.0

2.3681668760142453e7 1.2399426352288453e7 0.0
1.2399426352288453e7 63990.36306218617 0.0
0.0 0.0 0.0

-7.416075188350245e7 3.1602778435340255e7 0.0
3.1602778435340255e7 -2.921642951915454e6 0.0
0.0 0.0 0.0

2.05575928867695e6 1.5010930865711082e7 0.0
1.5010930865711082e7 6.679099925182976e6 0.0
0.0 0.0 0.0

-2.685355943800439e6 1.5809717884682497e7 0.0
1.5809717884682497e7 -4.260860120775632e6 0.0
0.0 0.0 0.0

-5.370270640854595e6 1.5086431041406251e7 0.0
1.5086431041406251e7 8.197851632860431e6 0.0
0.0 0.0 0.0

4.676663705450307e6 5.240058685848353e6 0.0
5.240058685848353e6 -1.3787300518814176e7 0.0
0.0 0.0 0.0

-5.213534004027959e6 1.6137770415973924e7 0.0
1.6137770415973924e7 4.550198350670325e6 0.0
0.0 0.0 0.0

-3.9703489784892537e6 2.034903044558092e7 0.0
2.034903044558092e7 1.924010222730475e6 0.0
0.0 0.0 0.0

-78337.05893586017 1.2203266477758154e7 0.0
1.2203266477758154e7 -1.3977590656265905e7 0.0
0.0 0.0 0.0

-3.4498738182527423e6 1.5735725457482975e7 0.0
1.5735725457482975e7 -1.6836431920746812e6 0.0
0.0 0.0 0.0

2.0644842029652358e6 5.761994934396716e6 0.0
5.761994934396716e6 -6.162212255382354e6 0.0
0.0 0.0 0.0

-190121.0280107502 1.4963197212276522e7 0.0
1.4963197212276522e7 9.597405981491717e6 0.0
0.0 0.0 0.0

-4.512989378531062e6 1.5729908528554188e7 0.0
1.5729908528554188e7 -465295.52132499265 0.0
0.0 0.0 0.0

-475404.58918151143 1.3472628817099234e7 0.0
1.3472628817099234e7 -7.324776754410746e6 0.0
0.0 0.0 0.0

-4.987046390379772e6 1.6236469332295384e7 0.0
1.6236469332295384e7 2.128153599697191e6 0.0
0.0 0.0 0.0

2.092612503704952e6 1.0518788705239398e7 0.0
1.0518788705239398e7 -1.4863497837486036e7 0.0
0.0 0.0 0.0

-1.0852943131941367e7 -3.6872150711836e6 0.0
-3.6872150711836e6 3.034874812992559e7 0.0
0.0 0.0 0.0

274970.38303698506 1.219365643956732e7 0.0
1.219365643956732e7 -1.0035411000810832e7 0.0
0.0 0.0 0.0

2.0480176889908744e6 1.2370434568482157e7 0.0
1.2370434568482157e7 -2.4343188993270383e6 0.0
0.0 0.0 0.0

-5.293655005690429e6 1.5212648067125045e7 0.0
1.5212648067125045e7 -2.4737116775434542e7 0.0
0.0 0.0 0.0

4.35335841702146e6 6.566774975328351e6 0.0
6.566774975328351e6 -1.3704305493792493e7 0.0
0.0 0.0 0.0

495653.2337063011 1.3070548400456864e7 0.0
1.3070548400456864e7 -1.0189923572819881e7 0.0
0.0 0.0 0.0

-5.767458286462929e6 1.726945964007878e7 0.0
1.726945964007878e7 7.058075453250693e6 0.0
0.0 0.0 0.0

-4.450447009769128e6 1.808601399995273e7 0.0
1.808601399995273e7 1.2964036522997853e6 0.0
0.0 0.0 0.0

-6.078055778253293e6 1.5967079705812206e7 0.0
1.5967079705812206e7 7.583552917922551e6 0.0
0.0 0.0 0.0

838397.1087936088 1.2970476482468067e7 0.0
1.2970476482468067e7 3.916163158120224e6 0.0
0.0 0.0 0.0

-5.1126605120865144e7 1.5210291298136663e7 0.0
1.5210291298136663e7 7.779316179726601e6 0.0
0.0 0.0 0.0

1.217838481564472e6 3.734486990229955e6 0.0
3.734486990229955e6 -3.8468600518167764e6 0.0
0.0 0.0 0.0

-135004.96522878343 1.0078781373217488e7 0.0
1.0078781373217488e7 -2.5301914050823e6 0.0
0.0 0.0 0.0

4.87191434278876e6 1.3153280656484753e7 0.0
1.3153280656484753e7 -2.005524384974352e6 0.0
0.0 0.0 0.0

-5.221663673724621e6 2.12036171495946e7 0.0
2.12036171495946e7 4.615734307845042e6 0.0
0.0 0.0 0.0

1.1282913563899007e6 1.132926455067663e7 0.0
1.132926455067663e7 -1.9440182023482006e7 0.0
0.0 0.0 0.0

-970225.8480486948 1.4722295623757802e7 0.0
1.4722295623757802e7 -3.3198015786446575e6 0.0
0.0 0.0 0.0

-979079.0675160453 1.6301615022317244e7 0.0
1.6301615022317244e7 -4.9490894782797685e6 0.0
0.0 0.0 0.0

921783.2496373295 1.1297580623210559e7 0.0
1.1297580623210559e7 -8.595533213999538e6 0.0
0.0 0.0 0.0

-575412.023759976 1.5881857815202326e7 0.0
1.5881857815202326e7 -5.461057130007974e6 0.0
0.0 0.0 0.0

-829603.8215675072 1.366720516112833e7 0.0
1.366720516112833e7 2.949414470927261e6 0.0
0.0 0.0 0.0

-4.0036901898598345e6 1.797621635906342e7 0.0
1.797621635906342e7 1.3970786969424721e6 0.0
0.0 0.0 0.0

3.5601343078162847e6 8.068961282753348e6 0.0
8.068961282753348e6 -1.3347327498102477e7 0.0
0.0 0.0 0.0

5.494131970461174e6 4.6322182187667815e6 0.0
4.6322182187667815e6 -1.8471234105539937e7 0.0
0.0 0.0 0.0

-1.5836122208892023e6 521194.9454723634 0.0
521194.9454723634 -667893.2514434125 0.0
0.0 0.0 0.0

-4.753511246156474e6 420637.7520604376 0.0
420637.7520604376 954539.7728986312 0.0
0.0 0.0 0.0

-2.296968543775575e6 1.3745882025511628e7 0.0
1.3745882025511628e7 8.914727872965856e6 0.0
0.0 0.0 0.0

-551447.6519413502 1.3266068270461291e7 0.0
1.3266068270461291e7 3.611352806173941e6 0.0
0.0 0.0 0.0

-1.3177503409184786e6 1.3640235005350107e7 0.0
1.3640235005350107e7 3.06173777991128e6 0.0
0.0 0.0 0.0

3.2214694065832244e6 5.519979549550217e6 0.0
5.519979549550217e6 -1.0220824031099577e7 0.0
0.0 0.0 0.0

561976.9762055397 1.4898434444516387e7 0.0
1.4898434444516387e7 -6.067943242480775e6 0.0
0.0 0.0 0.0

2.289164075680797e6 5.203431324517067e6 0.0
5.203431324517067e6 -6.623859539795848e6 0.0
0.0 0.0 0.0

-783414.0282938787 1.5857668726023804e7 0.0
1.5857668726023804e7 -5.439039521553556e6 0.0
0.0 0.0 0.0

-1.1883211436274556e7 1.0051881781376252e7 0.0
1.0051881781376252e7 1.667810745960126e7 0.0
0.0 0.0 0.0

-3.1914203200386777e6 1.7378008017032e7 0.0
1.7378008017032e7 -807171.8668845536 0.0
0.0 0.0 0.0

-3.0505853615067387e6 1.9856071635744497e7 0.0
1.9856071635744497e7 353314.268911137 0.0
0.0 0.0 0.0

3.887641394378704e6 6.8727435810010405e6 0.0
6.8727435810010405e6 -1.4173221603776537e7 0.0
0.0 0.0 0.0

4.1665582954375213e6 6.290340788900179e6 0.0
6.290340788900179e6 -1.4427842178055963e7 0.0
0.0 0.0 0.0

5.712739001945758e6 1.41186674859237e7 0.0
1.41186674859237e7 -4.905317044321653e6 0.0
0.0 0.0 0.0

-3.0917966363035757e6 1.4943797717956362e7 0.0
1.4943797717956362e7 1.0122451035956679e7 0.0
0.0 0.0 0.0

-96207.85000186693 1.2517204222083839e7 0.0
1.2517204222083839e7 -9.348882287805608e6 0.0
0.0 0.0 0.0

-7.563433342047209e6 -8.183947189587929e6 0.0
-8.183947189587929e6 2.0323945770653505e7 0.0
0.0 0.0 0.0

-4.990230891441177e6 2.0442491354502812e7 0.0
2.0442491354502812e7 4.260730086219478e6 0.0
0.0 0.0 0.0

-1.1864622796697032e7 7.935284541066503e6 0.0
7.935284541066503e6 1.5748170555488642e7 0.0
0.0 0.0 0.0

-3.1324912827924863e6 1.1532434550608632e6 0.0
1.1532434550608632e6 2.3769587985015158e6 0.0
0.0 0.0 0.0

-484797.1956207147 1.2271562021260489e7 0.0
1.2271562021260489e7 -5.6244723212912865e6 0.0
0.0 0.0 0.0

5.487083283740446e6 4.677282989412058e6 0.0
4.677282989412058e6 -1.7916689583624594e7 0.0
0.0 0.0 0.0

-5.796769861007857e6 1.9277108451439302e7 0.0
1.9277108451439302e7 6.168104252308069e6 0.0
0.0 0.0 0.0

-2.8217412646318427e6 1.5662679465415308e7 0.0
1.5662679465415308e7 -1.5125962345816884e6 0.0
0.0 0.0 0.0

2.3524600338357557e6 1.0248486710887032e7 0.0
1.0248486710887032e7 -1.5571938698731717e7 0.0
0.0 0.0 0.0

6.3421944809158435e6 1.2429063383360557e7 0.0
1.2429063383360557e7 -433432.3599739969 0.0
0.0 0.0 0.0

-6.019922954315063e6 1.8801301507357456e7 0.0
1.8801301507357456e7 6.458122675919417e6 0.0
0.0 0.0 0.0

-9.001621626949511e6 -7.140941446012391e6 0.0
-7.140941446012391e6 1.9371961918492965e7 0.0
0.0 0.0 0.0

-4.3810716856557485e6 -6.004788251937839e6 0.0
-6.004788251937839e6 9.197925654347638e6 0.0
0.0 0.0 0.0

2.624050291081534e6 1.2588189619285326e7 0.0
1.2588189619285326e7 -2.323596763332491e6 0.0
0.0 0.0 0.0

-2.15464789995296e6 1.5711527920642147e7 0.0
1.5711527920642147e7 -4.095848927611768e6 0.0
0.0 0.0 0.0

-2.2146149259133493e6 1.6067279325603396e7 0.0
1.6067279325603396e7 -3.839423764357788e6 0.0
0.0 0.0 0.0

-1.0905450642022528e7 2.7593626270764847e6 0.0
2.7593626270764847e6 3.42020195682552e7 0.0
0.0 0.0 0.0

3.415663418305288e6 4.514317819517432e6 0.0
4.514317819517432e6 -8.62538820807993e6 0.0
0.0 0.0 0.0

-2.887095484875268e6 1.5685983807983186e7 0.0
1.5685983807983186e7 -789015.5716243935 0.0
0.0 0.0 0.0

-4.950020035787048e6 1.6049350288076311e7 0.0
1.6049350288076311e7 -2.1802061957050813e6 0.0
0.0 0.0 0.0

-1.983798582588488e7 1.779268993850121e7 0.0
1.779268993850121e7 7.153953766051302e6 0.0
0.0 0.0 0.0

-4.593439642139238e6 2.0576102817325413e7 0.0
2.0576102817325413e7 3.1512267346994216e6 0.0
0.0 0.0 0.0

-147772.02910958687 1.2766267030629104e7 0.0
1.2766267030629104e7 -808899.1979566381 0.0
0.0 0.0 0.0

-9.40490013473763e6 -6.417801140968816e6 0.0
-6.417801140968816e6 2.122131018771864e7 0.0
0.0 0.0 0.0

4.85436581187648e6 1.3920926448687162e7 0.0
1.3920926448687162e7 -4.266214899271089e6 0.0
0.0 0.0 0.0

-867006.4111013515 1.3309247564610181e7 0.0
1.3309247564610181e7 -5.765559414470436e6 0.0
0.0 0.0 0.0

-7.743333014363363e6 -3.557936116803384e6 0.0
-3.557936116803384e6 1.3941888260057818e7 0.0
0.0 0.0 0.0

-6.382606844788966e6 1.6210922107974853e7 0.0
1.6210922107974853e7 7.006078802559455e6 0.0
0.0 0.0 0.0

-6.031974041348446e6 1.706326946810887e7 0.0
1.706326946810887e7 6.783106259714669e6 0.0
0.0 0.0 0.0

-276205.23454972124 3.5810081612863136e6 0.0
3.5810081612863136e6 -1.8881364738415838e6 0.0
0.0 0.0 0.0

4.4319471576483715e6 5.89457390285814e6 0.0
5.89457390285814e6 -1.4860647361076424e7 0.0
0.0 0.0 0.0

4.028548473449028e6 7.706100804453345e6 0.0
7.706100804453345e6 -2.397470849367335e7 0.0
0.0 0.0 0.0

-1.5581800410144082e6 1.440994095890471e7 0.0
1.440994095890471e7 9.171332712591251e6 0.0
0.0 0.0 0.0

2.7666182418925576e6 5.25241060577954e6 0.0
5.25241060577954e6 -7.951675808351906e6 0.0
0.0 0.0 0.0

4.64750656164781e6 1.9015291033306524e7 0.0
1.9015291033306524e7 -9.3743786626621e6 0.0
0.0 0.0 0.0

4.898342335803743e6 5.54626888485599e6 0.0
5.54626888485599e6 -1.4251469577547286e7 0.0
0.0 0.0 0.0

4.0488392134896144e6 5.875791118612397e6 0.0
5.875791118612397e6 -1.0902279153202862e7 0.0
0.0 0.0 0.0

4.243519933537562e6 5.815762766799869e6 0.0
5.815762766799869e6 -1.3042478210049614e7 0.0
0.0 0.0 0.0

-64588.66936829829 1.3320857863274232e7 0.0
1.3320857863274232e7 40658.25905335693 0.0
0.0 0.0 0.0

-418408.74392934213 1.307481228728645e7 0.0
1.307481228728645e7 2.5927828637045273e6 0.0
0.0 0.0 0.0

1.7398093311591279e6 1.1449638937488852e7 0.0
1.1449638937488852e7 -1.4388029709002018e7 0.0
0.0 0.0 0.0

2.530407391537843e6 2.030456720463606e7 0.0
2.030456720463606e7 -7.782264130636368e6 0.0
0.0 0.0 0.0

-7.127613237715189e6 -5.123762895522635e6 0.0
-5.123762895522635e6 1.2250894079468917e7 0.0
0.0 0.0 0.0

-6.082516574766351e6 1.6427570578867888e7 0.0
1.6427570578867888e7 7.923450838094518e6 0.0
0.0 0.0 0.0

-5.317977415529937e6 2.023065056406865e7 0.0
2.023065056406865e7 3.901548231050261e6 0.0
0.0 0.0 0.0

-3.3942547092909343e6 1.7440954933073632e7 0.0
1.7440954933073632e7 -304565.41208877834 0.0
0.0 0.0 0.0

-5.048379174150449e6 -502874.11867886304 0.0
-502874.11867886304 5.984418205680681e6 0.0
0.0 0.0 0.0

-3.425179645176634e6 2.1506002395767006e6 0.0
2.1506002395767006e6 2.575478598109695e6 0.0
0.0 0.0 0.0

-1.5691456907086708e6 1.4887849561518643e7 0.0
1.4887849561518643e7 8.898706808002042e6 0.0
0.0 0.0 0.0

814607.0408524564 3.458657605782248e6 0.0
3.458657605782248e6 -2.862480018485655e6 0.0
0.0 0.0 0.0

-168199.65829840815 1.6748643778155673e7 0.0
1.6748643778155673e7 -4.801994172753718e6 0.0
0.0 0.0 0.0

-2.1161382172074346e6 1.5135646961213622e7 0.0
1.5135646961213622e7 -5.455843477397133e6 0.0
0.0 0.0 0.0

714084.7791414456 1.2960053650633143e7 0.0
1.2960053650633143e7 -1.0967664078951001e7 0.0
0.0 0.0 0.0

-3.859375824467876e6 1.5089521097735122e7 0.0
1.5089521097735122e7 1.2736798121436837e6 0.0
0.0 0.0 0.0

-6.651492428527081e6 1.5695756019683419e7 0.0
1.5695756019683419e7 7.126357325981617e6 0.0
0.0 0.0 0.0

-9.61229231287719e6 8.473434891407901e6 0.0
8.473434891407901e6 1.3640573468376908e7 0.0
0.0 0.0 0.0

-1.777225155035294e7 2.3512591177192308e7 0.0
2.3512591177192308e7 9.940176290044209e6 0.0
0.0 0.0 0.0

2.935515732743697e6 5.201042313102825e6 0.0
5.201042313102825e6 -8.17200881573032e6 0.0
0.0 0.0 0.0

188331.5677911383 1.268216832441886e7 0.0
1.268216832441886e7 -8.517095086007703e6 0.0
0.0 0.0 0.0

5.874598002035823e6 5.031270412171112e6 0.0
5.031270412171112e6 -2.4755734028908357e7 0.0
0.0 0.0 0.0

-1.70465529054264e6 1.6258699564392889e7 0.0
1.6258699564392889e7 -4.984105939552732e6 0.0
0.0 0.0 0.0

-5.4035242859705e6 8.2391076113622915e6 0.0
8.2391076113622915e6 3.8121736483655437e6 0.0
0.0 0.0 0.0

-2.808889849701262e6 1.2346705173585428e7 0.0
1.2346705173585428e7 -1.5266239791408384e7 0.0
0.0 0.0 0.0

1.2053960302290533e7 1.4561879721080244e7 0.0
1.4561879721080244e7 2.9596225767913493e6 0.0
0.0 0.0 0.0

-3.2320363310435237e6 3.8164005685137575e6 0.0
3.8164005685137575e6 3.2802938650531545e6 0.0
0.0 0.0 0.0

-144622.9244303787 1.5329969748275595e7 0.0
1.5329969748275595e7 8.660304323696299e6 0.0
0.0 0.0 0.0

503932.86216023937 1.2614089406397775e7 0.0
1.2614089406397775e7 1.1688582521312946e7 0.0
0.0 0.0 0.0

-3.669685281378284e6 1.1126694342787217e7 0.0
1.1126694342787217e7 -6.124269877021056e6 0.0
0.0 0.0 0.0

-4.324642765265524e6 2.1620467888350032e7 0.0
2.1620467888350032e7 24938.133286872413 0.0
0.0 0.0 0.0

-3.0479065625985763e6 1.5678826378254827e7 0.0
1.5678826378254827e7 -2.983130122018386e6 0.0
0.0 0.0 0.0

-7.642329840620598e6 1.1899252290355584e7 0.0
1.1899252290355584e7 1.0438570521765292e7 0.0
0.0 0.0 0.0

4.0418234125739727e6 8.036673301902023e6 0.0
8.036673301902023e6 -3.2130740043664623e7 0.0
0.0 0.0 0.0

-3.2717613718270906e6 3.2006433059236994e6 0.0
3.2006433059236994e6 2.485185239860907e6 0.0
0.0 0.0 0.0

-492013.77627596306 1.3611666241023332e7 0.0
1.3611666241023332e7 -3.9787004046522994e6 0.0
0.0 0.0 0.0

1.608646430789946e6 1.3687770463355448e7 0.0
1.3687770463355448e7 5.449826919419127e6 0.0
0.0 0.0 0.0

-5.365413893989285e6 9.028676973850226e6 0.0
9.028676973850226e6 6.784521729019761e6 0.0
0.0 0.0 0.0

-5.895786123821781e6 1.5107783482726527e7 0.0
1.5107783482726527e7 8.752461015968125e6 0.0
0.0 0.0 0.0

-5.414750876629064e6 1.791849961569475e7 0.0
1.791849961569475e7 5.416291520624255e6 0.0
0.0 0.0 0.0

-1.737691472508329e7 2.3719868983529136e7 0.0
2.3719868983529136e7 1.028550117601727e7 0.0
0.0 0.0 0.0

1.2505235049540456e6 6.767242098414437e6 0.0
6.767242098414437e6 -5.310067736371623e6 0.0
0.0 0.0 0.0

-5.846096347663427e6 1.7686361815322958e7 0.0
1.7686361815322958e7 5.070218332923137e6 0.0
0.0 0.0 0.0

-2.4566026136597544e6 1.513438698199319e7 0.0
1.513438698199319e7 -3.2087015362136317e6 0.0
0.0 0.0 0.0

2.7642455296877893e6 1.5235208484378176e7 0.0
1.5235208484378176e7 8.916144752988683e6 0.0
0.0 0.0 0.0

-3.6289439336492093e6 1.682908019319969e7 0.0
1.682908019319969e7 -1.4846530386479492e6 0.0
0.0 0.0 0.0

2.3614814908894324e6 5.205916168715792e6 0.0
5.205916168715792e6 -7.236622143231586e6 0.0
0.0 0.0 0.0

-1.0350177568116519e6 1.359472264752894e7 0.0
1.359472264752894e7 -7.493125011647843e6 0.0
0.0 0.0 0.0

-8.027930803191959e6 545121.8032698266 0.0
545121.8032698266 1.0958271514312556e7 0.0
0.0 0.0 0.0

4.614350837379616e6 6.190398528087602e6 0.0
6.190398528087602e6 -1.407421359053325e7 0.0
0.0 0.0 0.0

5.88077871735421e6 5.534013233665913e6 0.0
5.534013233665913e6 -2.6519077188335273e7 0.0
0.0 0.0 0.0

-2.4058646603818047e6 1.3994609843469555e7 0.0
1.3994609843469555e7 8.117156690311291e6 0.0
0.0 0.0 0.0

198558.86033219006 1.3478808461497327e7 0.0
1.3478808461497327e7 -9.845418407332417e6 0.0
0.0 0.0 0.0

-7.9721323132932745e6 1.2104667914268991e7 0.0
1.2104667914268991e7 9.04986192238083e6 0.0
0.0 0.0 0.0

4.7431314803981595e6 4.811067607334325e6 0.0
4.811067607334325e6 -1.3081693882762022e7 0.0
0.0 0.0 0.0

1.445082815793306e6 1.1478650336016905e7 0.0
1.1478650336016905e7 -1.1087512162380356e7 0.0
0.0 0.0 0.0

437407.6621554652 1.2607431014195504e7 0.0
1.2607431014195504e7 -1.1622544846850002e7 0.0
0.0 0.0 0.0

-7.8123445365073e6 1.30134599484861e7 0.0
1.30134599484861e7 8.918051124378357e6 0.0
0.0 0.0 0.0

-5.02066868275808e6 3.8447723135729125e6 0.0
3.8447723135729125e6 4.347428834320742e6 0.0
0.0 0.0 0.0

-7.395629915076796e6 -1.4444779827103207e6 0.0
-1.4444779827103207e6 1.0481793955743002e7 0.0
0.0 0.0 0.0

-36277.65349637391 1.3203845173216728e7 0.0
1.3203845173216728e7 -1.0151669689361878e7 0.0
0.0 0.0 0.0

-4.322291283610726e6 7.62145205443087e6 0.0
7.62145205443087e6 3.8284538480698275e6 0.0
0.0 0.0 0.0

2.349760989084992e6 1.4731832921637276e7 0.0
1.4731832921637276e7 8.993368976046778e6 0.0
0.0 0.0 0.0

-2.399250111281303e6 1.5462676753996132e7 0.0
1.5462676753996132e7 -4.974035910237777e6 0.0
0.0 0.0 0.0

2.4374270326647856e6 5.233150192905575e6 0.0
5.233150192905575e6 -6.790248125851363e6 0.0
0.0 0.0 0.0

-1.1042891332264863e7 911831.6604841435 0.0
911831.6604841435 2.327280755543029e7 0.0
0.0 0.0 0.0

-5.024291138298623e6 1.8763260706029247e7 0.0
1.8763260706029247e7 3.372694725901857e6 0.0
0.0 0.0 0.0

-7.929556842729393e6 1.9793645531252235e7 0.0
1.9793645531252235e7 7.133780358123945e6 0.0
0.0 0.0 0.0

-4.750685672935644e6 4.0045073299371684e6 0.0
4.0045073299371684e6 3.413907017811973e6 0.0
0.0 0.0 0.0

-9.218730587057445e6 -3.039026396644839e6 0.0
-3.039026396644839e6 1.6157562311932907e7 0.0
0.0 0.0 0.0

2.1259378355961787e6 1.0594838518966723e7 0.0
1.0594838518966723e7 -1.5688888369778898e7 0.0
0.0 0.0 0.0

-7.181558171477832e6 1.3474575326951908e7 0.0
1.3474575326951908e7 9.711780711387478e6 0.0
0.0 0.0 0.0

-1.1695847552875856e7 2.152377073661748e6 0.0
2.152377073661748e6 2.373752345786225e7 0.0
0.0 0.0 0.0

-3.9893137872939005e7 1.1761578398072915e7 0.0
1.1761578398072915e7 1.132169550190184e7 0.0
0.0 0.0 0.0

1.4287790596234403e6 9.912550151037581e6 0.0
9.912550151037581e6 -9.942640957724988e6 0.0
0.0 0.0 0.0

-20688.994852823205 1.3141036205639215e7 0.0
1.3141036205639215e7 -1.0037021006529924e6 0.0
0.0 0.0 0.0

5.651021879702934e6 4.197052444299625e6 0.0
4.197052444299625e6 -1.746072708749096e7 0.0
0.0 0.0 0.0

-5.432013629210272e6 1.4460924136455672e7 0.0
1.4460924136455672e7 1.2034642501446737e7 0.0
0.0 0.0 0.0

-1.2449745828428067e7 2.0765290233992334e6 0.0
2.0765290233992334e6 2.1216558108067665e7 0.0
0.0 0.0 0.0

1.4587603127377802e6 6.22605681508916e6 0.0
6.22605681508916e6 -6.351325955598099e6 0.0
0.0 0.0 0.0

-2.358800568581856e6 1.5192167529577158e7 0.0
1.5192167529577158e7 -3.1418712404332333e6 0.0
0.0 0.0 0.0

-4.899524446676131e6 1.68416246858941e7 0.0
1.68416246858941e7 2.096051748063418e6 0.0
0.0 0.0 0.0

-6.196491438894423e6 1.5106251923241522e7 0.0
1.5106251923241522e7 6.882154028426297e6 0.0
0.0 0.0 0.0

-6.523657921755269e6 1.9562140922629815e7 0.0
1.9562140922629815e7 6.4416047781249415e6 0.0
0.0 0.0 0.0

-4.277164470472907e6 1.3831026908515953e7 0.0
1.3831026908515953e7 644569.8281643582 0.0
0.0 0.0 0.0

-1.0919235344164565e7 -4.890706491807813e6 0.0
-4.890706491807813e6 2.619338419486049e7 0.0
0.0 0.0 0.0

-740172.239585103 1.4354872516789664e7 0.0
1.4354872516789664e7 7.2361582117133485e6 0.0
0.0 0.0 0.0

547503.4453003672 1.2565083926341075e7 0.0
1.2565083926341075e7 -9.456808791494902e6 0.0
0.0 0.0 0.0

-1.0705455470655296e7 1.799587211293377e7 0.0
1.799587211293377e7 5.6465340678299405e6 0.0
0.0 0.0 0.0

-1.0490949108380612e6 2.81653453131001e6 0.0
2.81653453131001e6 -476990.2045414694 0.0
0.0 0.0 0.0

-4.952543834308658e6 2.000036208217499e7 0.0
2.000036208217499e7 4.453286080049416e6 0.0
0.0 0.0 0.0

-153716.06689453492 1.2888020476911085e7 0.0
1.2888020476911085e7 -1.766767219171256e6 0.0
0.0 0.0 0.0

-1.1955705543924421e7 1.0824661755335314e7 0.0
1.0824661755335314e7 1.503545163222526e7 0.0
0.0 0.0 0.0

3.0254378457179265e6 9.122933475117546e6 0.0
9.122933475117546e6 -1.2873972153797373e7 0.0
0.0 0.0 0.0

-1.0326854482701052e7 9.573674642728735e6 0.0
9.573674642728735e6 1.4575225550442047e7 0.0
0.0 0.0 0.0

2.1961877107348726e6 5.266447945421839e6 0.0
5.266447945421839e6 -6.500014280100054e6 0.0
0.0 0.0 0.0

4.3038970121500185e6 6.822124756147398e6 0.0
6.822124756147398e6 -1.4024782759340595e7 0.0
0.0 0.0 0.0

-645957.913468218 1.4871808908292146e7 0.0
1.4871808908292146e7 -3.4701422328463043e6 0.0
0.0 0.0 0.0

-4.507040028224302e6 1.4881809371454448e7 0.0
1.4881809371454448e7 2.2892550292628407e6 0.0
0.0 0.0 0.0

-4.609650078965269e6 1.7015752547209207e7 0.0
1.7015752547209207e7 2.9830954869355573e6 0.0
0.0 0.0 0.0

-1.0587388332580118e6 1.5848000087402571e7 0.0
1.5848000087402571e7 -5.439932133610807e6 0.0
0.0 0.0 0.0

4.5161937227779e6 5.907117021984224e6 0.0
5.907117021984224e6 -1.3055003610740079e7 0.0
0.0 0.0 0.0

1.7188051200601384e6 5.179217814530822e6 0.0
5.179217814530822e6 -5.672434263599914e6 0.0
0.0 0.0 0.0

4.0512800470431084e6 6.524440150040486e6 0.0
6.524440150040486e6 -1.4716352572140623e7 0.0
0.0 0.0 0.0

1.9581302292930041e6 6.199474280430368e6 0.0
6.199474280430368e6 -6.614733222250036e6 0.0
0.0 0.0 0.0

6.06207491154013e6 1.4629917310727905e7 0.0
1.4629917310727905e7 7.090990767211044e6 0.0
0.0 0.0 0.0

-6.158848056385716e6 2.1773504616450425e7 0.0
2.1773504616450425e7 5.7472152889953535e6 0.0
0.0 0.0 0.0

-8.169665631546092e6 -6.726715401509567e6 0.0
-6.726715401509567e6 1.8526769519770533e7 0.0
0.0 0.0 0.0

4.655940657718791e6 7.453239904114399e6 0.0
7.453239904114399e6 -2.202053597693508e7 0.0
0.0 0.0 0.0

-1.3183461353627825e6 1.6205986682025617e7 0.0
1.6205986682025617e7 -4.903859166681867e6 0.0
0.0 0.0 0.0

-761486.8176256069 1.4583835196180815e7 0.0
1.4583835196180815e7 -4.380529452401799e6 0.0
0.0 0.0 0.0

4.250418964436349e6 7.018540841003988e6 0.0
7.018540841003988e6 -1.7716153546745088e7 0.0
0.0 0.0 0.0

-8.162649971157117e6 2.1653474053164195e7 0.0
2.1653474053164195e7 7.780443212892663e6 0.0
0.0 0.0 0.0

-1.6626445374548095e6 1.53730939871377e7 0.0
1.53730939871377e7 1.0037727374985099e7 0.0
0.0 0.0 0.0

-2.854011988331949e7 2.0197545883827567e7 0.0
2.0197545883827567e7 1.2051134929418257e7 0.0
0.0 0.0 0.0

-5.750294014018197e6 1.4100952060587814e7 0.0
1.4100952060587814e7 1.0558099910235953e7 0.0
0.0 0.0 0.0

3.087941382609155e6 8.570297848617075e6 0.0
8.570297848617075e6 -1.3124646144924104e7 0.0
0.0 0.0 0.0

3.331915576457261e7 1.4725405989356738e7 0.0
1.4725405989356738e7 2.1299551168648787e6 0.0
0.0 0.0 0.0

-3.417878914148625e6 1.4916710268689116e7 0.0
1.4916710268689116e7 1.2091358854982868e7 0.0
0.0 0.0 0.0

-8.910534485014848e6 591626.4161399526 0.0
591626.4161399526 1.2088146078938337e7 0.0
0.0 0.0 0.0

-492151.34162459953 1.335639871231866e7 0.0
1.335639871231866e7 2.8117899832597524e6 0.0
0.0 0.0 0.0

245685.24645941332 1.19648086268918e7 0.0
1.19648086268918e7 -1.3611809743097877e7 0.0
0.0 0.0 0.0

1.8521286698914056e6 1.6064973890792258e7 0.0
1.6064973890792258e7 -5.189863185241584e6 0.0
0.0 0.0 0.0

-6.005750346500006e6 1.5191748634602763e7 0.0
1.5191748634602763e7 5.740737578505594e6 0.0
0.0 0.0 0.0

-1.1934515198463773e7 548294.4745607096 0.0
548294.4745607096 2.0474212018955886e7 0.0
0.0 0.0 0.0

-8.129455294452291e6 2.2013282396539994e7 0.0
2.2013282396539994e7 6.867657835751735e6 0.0
0.0 0.0 0.0

-4.92947602018419e6 1.5665206908893373e7 0.0
1.5665206908893373e7 3.0888328595506805e6 0.0
0.0 0.0 0.0

-5.081362887829239e6 1.671452004964271e7 0.0
1.671452004964271e7 2.4865190174625022e6 0.0
0.0 0.0 0.0

-3.3897218947398756e6 1.878684711438472e7 0.0
1.878684711438472e7 -224921.8965385327 0.0
0.0 0.0 0.0

-4.992696019808194e6 1.841002659120422e7 0.0
1.841002659120422e7 3.1621670798212336e6 0.0
0.0 0.0 0.0

-256385.4501613939 1.3379379202964896e7 0.0
1.3379379202964896e7 -954090.7325560125 0.0
0.0 0.0 0.0

-3.3623553767401027e6 1.4592047252078822e7 0.0
1.4592047252078822e7 8.292884323660271e6 0.0
0.0 0.0 0.0

1.4486270789936269e6 1.255003338652888e7 0.0
1.255003338652888e7 -2.1499270326966625e6 0.0
0.0 0.0 0.0

-2.1603545535432533e6 1.2985926007221982e7 0.0
1.2985926007221982e7 -1.868908062030393e7 0.0
0.0 0.0 0.0

-309765.0509195451 1.349432836325777e7 0.0
1.349432836325777e7 16303.631637508195 0.0
0.0 0.0 0.0

-4.647243093315542e6 1.4693205468153093e7 0.0
1.4693205468153093e7 1.3338273201365594e6 0.0
0.0 0.0 0.0

-3.5534466243121913e6 1.0330171783616658e7 0.0
1.0330171783616658e7 1.2678663975541465e7 0.0
0.0 0.0 0.0

-1.0620126758098123e6 1.4423861149977367e7 0.0
1.4423861149977367e7 -6.628104667791037e6 0.0
0.0 0.0 0.0

1.1816426133486568e6 1.1293382247631343e7 0.0
1.1293382247631343e7 -1.1783969619975042e7 0.0
0.0 0.0 0.0

4.662790108317877e6 5.631486881426934e6 0.0
5.631486881426934e6 -1.3436836666121084e7 0.0
0.0 0.0 0.0

-3.5998967862046375e6 1.4951339766999116e7 0.0
1.4951339766999116e7 1.1426118808755286e7 0.0
0.0 0.0 0.0

-2.766952568645019e6 1.4480294764750877e7 0.0
1.4480294764750877e7 5.696486264902835e6 0.0
0.0 0.0 0.0

-1.0822094944893839e7 9.946403334548712e6 0.0
9.946403334548712e6 1.4662564505608827e7 0.0
0.0 0.0 0.0

-5.934088267918438e6 1.4849080869583938e7 0.0
1.4849080869583938e7 6.317908824738849e6 0.0
0.0 0.0 0.0

-1.354130087803163e6 1.4985851629834706e7 0.0
1.4985851629834706e7 -3.6164445593670886e6 0.0
0.0 0.0 0.0

-1.1037349320419546e7 1.0265311367033739e7 0.0
1.0265311367033739e7 1.3143822313356882e7 0.0
0.0 0.0 0.0

-1.2310215399440922e7 9.949655508922132e6 0.0
9.949655508922132e6 1.5266492613444703e7 0.0
0.0 0.0 0.0

-1.0000523944607254e7 8.682161816063726e6 0.0
8.682161816063726e6 1.1827586592246566e7 0.0
0.0 0.0 0.0

-7.202896438648799e6 -2.208550341534835e6 0.0
-2.208550341534835e6 9.537121837072484e6 0.0
0.0 0.0 0.0

-5.995403562254229e6 1.6407716371867742e7 0.0
1.6407716371867742e7 7.188223527958005e6 0.0
0.0 0.0 0.0

298171.02051541116 1.1853848295717694e7 0.0
1.1853848295717694e7 -1.794150719835582e7 0.0
0.0 0.0 0.0

1.3115455495415498e6 1.1455113245815862e7 0.0
1.1455113245815862e7 -1.4426189892876396e7 0.0
0.0 0.0 0.0

-1.7438911190057147e7 2.0034014930987038e7 0.0
2.0034014930987038e7 3.760967047238617e6 0.0
0.0 0.0 0.0

-1.1192560072662959e7 -10544.128678887142 0.0
-10544.128678887142 2.7228482127407826e7 0.0
0.0 0.0 0.0

1.602403726065904e6 1.1732511938748345e7 0.0
1.1732511938748345e7 -1.3607635669706892e7 0.0
0.0 0.0 0.0

-4.662266601024667e6 1.8707292925911643e7 0.0
1.8707292925911643e7 2.145170216544966e6 0.0
0.0 0.0 0.0

-315061.32867327426 1.3663184213484606e7 0.0
1.3663184213484606e7 5.312633891789479e6 0.0
0.0 0.0 0.0

-3.112946400469972e6 -1.6758098618176922e6 0.0
-1.6758098618176922e6 6.032269020184434e6 0.0
0.0 0.0 0.0

-476402.0696381444 1.3176264553207425e7 0.0
1.3176264553207425e7 -1.9110581253075765e6 0.0
0.0 0.0 0.0

-1.9855652758914782e6 1.3943917264992561e7 0.0
1.3943917264992561e7 -4.496417456750582e6 0.0
0.0 0.0 0.0

-6.539920475851107e6 5.221121089218478e6 0.0
5.221121089218478e6 5.862179800874751e6 0.0
0.0 0.0 0.0

5.992463921495689e6 3.829765701032959e6 0.0
3.829765701032959e6 -2.1069694302787855e7 0.0
0.0 0.0 0.0

502171.9899929804 8.096486867861102e6 0.0
8.096486867861102e6 -6.211164204380247e6 0.0
0.0 0.0 0.0

-1.0889183317081125e7 -2.189845786640708e6 0.0
-2.189845786640708e6 1.4660039264240421e7 0.0
0.0 0.0 0.0

-1.276309248056939e6 1.475181960305461e7 0.0
1.475181960305461e7 -7.131931865848987e6 0.0
0.0 0.0 0.0

878379.9982547266 1.4125185567159375e7 0.0
1.4125185567159375e7 9.20189041366213e6 0.0
0.0 0.0 0.0

511734.8072196976 7.849474650171608e6 0.0
7.849474650171608e6 -4.435341923268522e6 0.0
0.0 0.0 0.0

-1.6812198156012674e6 1.4805245801161246e7 0.0
1.4805245801161246e7 1.0523858524385657e7 0.0
0.0 0.0 0.0

-6.761478717831725e6 2.2223569599077206e7 0.0
2.2223569599077206e7 5.985580783695813e6 0.0
0.0 0.0 0.0

-9.325199520140622e6 909681.430971805 0.0
909681.430971805 1.0379659453012133e7 0.0
0.0 0.0 0.0

-2.9923301053693844e6 1.4628996985265415e7 0.0
1.4628996985265415e7 8.205326340421153e6 0.0
0.0 0.0 0.0

2.6528283159168195e6 8.773298214193838e6 0.0
8.773298214193838e6 -1.344075341995237e7 0.0
0.0 0.0 0.0

-1.0852562368532635e7 1.6922553765215583e7 0.0
1.6922553765215583e7 5.28813064492256e6 0.0
0.0 0.0 0.0

-2.083804053510263e6 2.0925605608367436e6 0.0
2.0925605608367436e6 974268.2987159417 0.0
0.0 0.0 0.0

-3.7818503361699907e6 1.5898909510022618e7 0.0
1.5898909510022618e7 -2.267560312584233e6 0.0
0.0 0.0 0.0

1.2222528575032687e7 1.5116310072121505e7 0.0
1.5116310072121505e7 3.272050909387193e6 0.0
0.0 0.0 0.0

-2.7987668623647406e6 1.5247317491054697e7 0.0
1.5247317491054697e7 -2.9534818493718468e6 0.0
0.0 0.0 0.0

2.9461007427715864e6 8.877534378329763e6 0.0
8.877534378329763e6 -1.2497915089760056e7 0.0
0.0 0.0 0.0

-5.81349308785504e6 1.6500885621100714e7 0.0
1.6500885621100714e7 7.584491277767206e6 0.0
0.0 0.0 0.0

-1.1041866122138688e7 -3.4220073676177207e6 0.0
-3.4220073676177207e6 3.1233714713632025e7 0.0
0.0 0.0 0.0

-2.5539232979905503e6 1.4583830644525971e7 0.0
1.4583830644525971e7 -4.784104934635632e6 0.0
0.0 0.0 0.0

-5.109478070404686e6 2.0327796885539263e7 0.0
2.0327796885539263e7 4.670544566093458e6 0.0
0.0 0.0 0.0

1.3811210155201731e6 1.103370849231901e7 0.0
1.103370849231901e7 -1.775047407819781e7 0.0
0.0 0.0 0.0

688834.5348849362 1.2996956869570518e7 0.0
1.2996956869570518e7 -1.106098458379968e7 0.0
0.0 0.0 0.0

873917.742746105 1.2678351845199976e7 0.0
1.2678351845199976e7 -1.1667907081849784e7 0.0
0.0 0.0 0.0

-1.2340065168129675e7 7.614326473218589e6 0.0
7.614326473218589e6 1.8996230848088022e7 0.0
0.0 0.0 0.0

-6.245309712886902e6 1.5585439323180249e7 0.0
1.5585439323180249e7 6.174072955098781e6 0.0
0.0 0.0 0.0

-1.0164203798366006e7 8.71623223029585e6 0.0
8.71623223029585e6 6.056286307452065e7 0.0
0.0 0.0 0.0

6.967588569940556e6 1.0156199554719592e7 0.0
1.0156199554719592e7 -4.1144420305817895e7 0.0
0.0 0.0 0.0

-9.584352995422164e6 1.9268084530582037e7 0.0
1.9268084530582037e7 1.4177834272384988e6 0.0
0.0 0.0 0.0

-3.4892822997134514e6 1.4009950483577784e7 0.0
1.4009950483577784e7 6.212915159219841e6 0.0
0.0 0.0 0.0

-1.0658375058382463e7 1.7236800260492522e7 0.0
1.7236800260492522e7 1.7836928029463794e6 0.0
0.0 0.0 0.0

-2.237713278411648e6 1.6290248943678706e6 0.0
1.6290248943678706e6 3.249695595228493e6 0.0
0.0 0.0 0.0

-9.311571957958005e6 1.1415423830112629e7 0.0
1.1415423830112629e7 1.1317532777770473e7 0.0
0.0 0.0 0.0

-4.300691681953004e6 1.6361992982451465e7 0.0
1.6361992982451465e7 -1.6702509823043193e6 0.0
0.0 0.0 0.0

-1.0109284695314787e7 -1.0705648379687823e6 0.0
-1.0705648379687823e6 1.6752483731191484e7 0.0
0.0 0.0 0.0

1.23331868405994e7 1.4257589117232451e7 0.0
1.4257589117232451e7 3.191861969475804e6 0.0
0.0 0.0 0.0

-3.49114924252423e6 1.4862030888606144e7 0.0
1.4862030888606144e7 9.979793156270966e6 0.0
0.0 0.0 0.0

-7.03121395999213e6 1.3353570197553972e7 0.0
1.3353570197553972e7 9.468380954908404e6 0.0
0.0 0.0 0.0

-2.0153926509621546e7 2.068107150689238e7 0.0
2.068107150689238e7 1.2790556164769437e7 0.0
0.0 0.0 0.0

1.4192110698905322e6 1.3093108353615705e7 0.0
1.3093108353615705e7 1.2304178924199129e6 0.0
0.0 0.0 0.0

2.0375318000664625e6 1.2214238287726363e7 0.0
1.2214238287726363e7 -3.127685810180762e6 0.0
0.0 0.0 0.0

-5.756314272041906e6 1.7295065001666944e7 0.0
1.7295065001666944e7 7.109549694671312e6 0.0
0.0 0.0 0.0

-3.174467284670729e6 1.5323951473297365e7 0.0
1.5323951473297365e7 -221828.82680538006 0.0
0.0 0.0 0.0

-4971.769039297127 1.0993710439726014e7 0.0
1.0993710439726014e7 -3.07527550059493e6 0.0
0.0 0.0 0.0

1.977301007366832e6 1.2978647872157384e7 0.0
1.2978647872157384e7 -4.492358461067285e6 0.0
0.0 0.0 0.0

-2.4904561770923045e6 1.3610358579416981e7 0.0
1.3610358579416981e7 8.02097952571452e6 0.0
0.0 0.0 0.0

-3.5350997818283536e6 2.08147839683279e7 0.0
2.08147839683279e7 1.1117514073416032e6 0.0
0.0 0.0 0.0

-6.128812025967166e6 1.6225731848138234e7 0.0
1.6225731848138234e7 7.500982443420576e6 0.0
0.0 0.0 0.0

-7.492109357046202e6 2.1953314649234854e7 0.0
2.1953314649234854e7 5.564808277163683e6 0.0
0.0 0.0 0.0

-1.2584325168208126e6 1.2782954374349408e7 0.0
1.2782954374349408e7 -2.0504514430463847e7 0.0
0.0 0.0 0.0

-4.576396767455192e6 1.55026845059702e7 0.0
1.55026845059702e7 -3.536465676659776e7 0.0
0.0 0.0 0.0

4.664022936041305e6 1.515003126156635e7 0.0
1.515003126156635e7 5.0086153396441445e7 0.0
0.0 0.0 0.0

1.1109376871202076e6 1.4345920578661386e7 0.0
1.4345920578661386e7 9.079466546555473e6 0.0
0.0 0.0 0.0

3.582075680553127e6 8.41810954662473e6 0.0
8.41810954662473e6 -2.0059989863554824e7 0.0
0.0 0.0 0.0

-4.49602310012519e6 2.0649108225319985e7 0.0
2.0649108225319985e7 896680.2579904303 0.0
0.0 0.0 0.0

-1.8506878645073464e6 1.5356452203265857e7 0.0
1.5356452203265857e7 -4.812821837411198e6 0.0
0.0 0.0 0.0

-488908.36958551896 1.3791375423409784e7 0.0
1.3791375423409784e7 -3.650001818337493e6 0.0
0.0 0.0 0.0

-886232.4122433432 1.4915594668566886e7 0.0
1.4915594668566886e7 -6.875489549837962e6 0.0
0.0 0.0 0.0

-2.378650905652135e7 2.1206973280556686e7 0.0
2.1206973280556686e7 1.3744423415469533e7 0.0
0.0 0.0 0.0

-5.448042322627066e6 2.0106616792051498e7 0.0
2.0106616792051498e7 4.306200996263318e6 0.0
0.0 0.0 0.0

-6.310920460303068e6 1.7523029353336725e7 0.0
1.7523029353336725e7 6.573570225783233e6 0.0
0.0 0.0 0.0

5.800470875203675e6 4.630467001404553e6 0.0
4.630467001404553e6 -2.250312702217265e7 0.0
0.0 0.0 0.0

1.6863750325162532e6 1.6589176051155204e7 0.0
1.6589176051155204e7 -5.367908278014885e6 0.0
0.0 0.0 0.0

1.2421285073250113e6 1.13350177150714e7 0.0
1.13350177150714e7 -1.7063516616763916e7 0.0
0.0 0.0 0.0

770218.2014656109 1.6985596949041124e7 0.0
1.6985596949041124e7 -4.843197688732862e6 0.0
0.0 0.0 0.0

296217.7308829549 1.0459675776668979e7 0.0
1.0459675776668979e7 -2.3446749535117517e6 0.0
0.0 0.0 0.0

-2.737172467651844e6 1.5066699426084101e7 0.0
1.5066699426084101e7 8.722615706814596e6 0.0
0.0 0.0 0.0

-5.960218462908916e6 1.872445263312597e7 0.0
1.872445263312597e7 6.085871251809543e6 0.0
0.0 0.0 0.0

-7.219385930526078e6 -5.171817952493259e6 0.0
-5.171817952493259e6 1.288979268967628e7 0.0
0.0 0.0 0.0

6.341912415422374e6 1.2995854541942904e7 0.0
1.2995854541942904e7 -2.7057761267842795e6 0.0
0.0 0.0 0.0

-4.358149434435296e7 1.6767186424507571e7 0.0
1.6767186424507571e7 1.0309490937501859e7 0.0
0.0 0.0 0.0

-1.2846628000675453e7 7.690021374230211e6 0.0
7.690021374230211e6 1.7234607120885067e7 0.0
0.0 0.0 0.0

-4.581610405267876e6 1.5434270467335427e7 0.0
1.5434270467335427e7 3.1401659297257625e6 0.0
0.0 0.0 0.0

2.0072966326416973e6 1.3154191761727454e7 0.0
1.3154191761727454e7 -2.970527216752537e6 0.0
0.0 0.0 0.0

5.294245854296762e6 4.936414130537411e6 0.0
4.936414130537411e6 -1.6043074116412435e7 0.0
0.0 0.0 0.0

-3.4743501849113973e6 1.4265167990506206e7 0.0
1.4265167990506206e7 4.90902002035277e6 0.0
0.0 0.0 0.0

-1.0461607433912486e7 -5.162325330816234e6 0.0
-5.162325330816234e6 2.674060459713658e7 0.0
0.0 0.0 0.0

-5.655686754352903e6 1.737509937090599e7 0.0
1.737509937090599e7 -4.093032301716274e7 0.0
0.0 0.0 0.0

5.523085402893174e6 1.9769470124969546e7 0.0
1.9769470124969546e7 5.732776623265573e7 0.0
0.0 0.0 0.0

2.400111488120922e6 1.0245909656405495e7 0.0
1.0245909656405495e7 -1.618697415803439e7 0.0
0.0 0.0 0.0

1.49785432801444e6 5.1834416074694265e6 0.0
5.1834416074694265e6 -5.426328234038007e6 0.0
0.0 0.0 0.0

1.1863704405292934e6 1.4009425686691714e7 0.0
1.4009425686691714e7 5.811531366737371e6 0.0
0.0 0.0 0.0

-1.14985669198968e7 -2.633677392308661e6 0.0
-2.633677392308661e6 3.1256176232109297e7 0.0
0.0 0.0 0.0

1.1584974218440438e6 6.966249268147999e6 0.0
6.966249268147999e6 -5.71809183687441e6 0.0
0.0 0.0 0.0

-3.2036109716162574e6 2.0221934848607466e7 0.0
2.0221934848607466e7 -948060.7880192404 0.0
0.0 0.0 0.0

-748760.292861236 1.3310039242632331e7 0.0
1.3310039242632331e7 -8.117867222330714e6 0.0
0.0 0.0 0.0

310453.330176753 1.4062449268826917e7 0.0
1.4062449268826917e7 6.6773774528051615e6 0.0
0.0 0.0 0.0

-2.703945879643726e6 1.5580994078367312e7 0.0
1.5580994078367312e7 121699.3551618671 0.0
0.0 0.0 0.0

-1.2490583017809687e7 1.6444063647169473e7 0.0
1.6444063647169473e7 501246.61256837146 0.0
0.0 0.0 0.0

-5.477897049331004e6 1.9941664618449833e7 0.0
1.9941664618449833e7 4.615690453556921e6 0.0
0.0 0.0 0.0

-850097.1352727343 1.3695961101777256e7 0.0
1.3695961101777256e7 3.9870429815533264e6 0.0
0.0 0.0 0.0

-3.506062494241847e6 1.4378348996181566e7 0.0
1.4378348996181566e7 7.307094872810956e6 0.0
0.0 0.0 0.0

1.1575843402887913e6 1.1714533843974376e7 0.0
1.1714533843974376e7 -1.1436246161275977e7 0.0
0.0 0.0 0.0

-954652.6823239017 1.4611296839848751e7 0.0
1.4611296839848751e7 -7.457090289708169e6 0.0
0.0 0.0 0.0

-1.1881738114356458e7 -1.4215833683681497e6 0.0
-1.4215833683681497e6 2.9688316350495595e7 0.0
0.0 0.0 0.0

-2.1676495232646678e7 2.2964792637383197e7 0.0
2.2964792637383197e7 1.1149769483429894e7 0.0
0.0 0.0 0.0

-1.098809418841918e7 2.0380722842613086e7 0.0
2.0380722842613086e7 8.649716259834208e6 0.0
0.0 0.0 0.0

-1.87861168989543e7 1.6438225620622573e7 0.0
1.6438225620622573e7 8.892133505744286e6 0.0
0.0 0.0 0.0

-422502.4715396959 1.3717763802448101e7 0.0
1.3717763802448101e7 752576.5009923074 0.0
0.0 0.0 0.0

-3.69185547196989e6 1.5842628262497067e7 0.0
1.5842628262497067e7 -193836.86771577923 0.0
0.0 0.0 0.0

-1.0568194197961446e7 1.7993349805597417e7 0.0
1.7993349805597417e7 5.6876666517766025e6 0.0
0.0 0.0 0.0

1.715957956497356e6 6.5852825715185255e6 0.0
6.5852825715185255e6 -5.833516203334292e6 0.0
0.0 0.0 0.0

-552909.3617441496 1.4509855745536555e7 0.0
1.4509855745536555e7 7.348769333802076e6 0.0
0.0 0.0 0.0

4.338572489368261e6 7.882802441614429e6 0.0
7.882802441614429e6 -1.950265118569666e7 0.0
0.0 0.0 0.0

-1.1923670407130979e7 8.60671755972259e6 0.0
8.60671755972259e6 1.8326449831597015e7 0.0
0.0 0.0 0.0

-1.0675195869202003e7 -3.1282713300339566e6 0.0
-3.1282713300339566e6 3.2325718488628346e7 0.0
0.0 0.0 0.0

5.947969997716305e6 4.708314942015144e6 0.0
4.708314942015144e6 -2.237581067558843e7 0.0
0.0 0.0 0.0

-2.1576106055741306e7 1.738165278350821e7 0.0
1.738165278350821e7 8.010643249329888e6 0.0
0.0 0.0 0.0

-9.897503096478796e6 -6.410953254140383e6 0.0
-6.410953254140383e6 2.329524693118092e7 0.0
0.0 0.0 0.0

-8.316746524759034e6 -6.97113699818281e6 0.0
-6.97113699818281e6 1.7882930514181793e7 0.0
0.0 0.0 0.0

1.349419139308093e6 6.351025858874796e6 0.0
6.351025858874796e6 -6.788017616591791e6 0.0
0.0 0.0 0.0

-8.590047746818868e6 -4.5866515212801015e6 0.0
-4.5866515212801015e6 1.7519398406084538e7 0.0
0.0 0.0 0.0

-5.306982079864209e6 2.5688879826738514e7 0.0
2.5688879826738514e7 -3.7582148445679434e6 0.0
0.0 0.0 0.0

-6.820316556239656e6 1.4081007923045421e7 0.0
1.4081007923045421e7 9.19164632189221e6 0.0
0.0 0.0 0.0

5.583407567149097e6 5.377421627777949e6 0.0
5.377421627777949e6 -2.6776478596677992e7 0.0
0.0 0.0 0.0

5.093732257888205e6 5.183825556446405e6 0.0
5.183825556446405e6 -1.8431622713949446e7 0.0
0.0 0.0 0.0

-6.33751160280214e6 1.5311067670798875e7 0.0
1.5311067670798875e7 5.591848599269974e6 0.0
0.0 0.0 0.0

-7.22779997746931e6 2.177734988132984e7 0.0
2.177734988132984e7 6.634958424320812e6 0.0
0.0 0.0 0.0

601924.0023430425 8.37462843960507e6 0.0
8.37462843960507e6 2.9412398570386213e6 0.0
0.0 0.0 0.0

236046.79457867378 1.5268533241689092e7 0.0
1.5268533241689092e7 9.990624908081328e6 0.0
0.0 0.0 0.0

1.6485148605595923e6 1.6103140387105737e7 0.0
1.6103140387105737e7 -5.171274717422095e6 0.0
0.0 0.0 0.0

-1.0287978715392979e7 -6.176222492622981e6 0.0
-6.176222492622981e6 2.2794155372338176e7 0.0
0.0 0.0 0.0

-1.3879828210887907e7 1.3489031057668198e7 0.0
1.3489031057668198e7 8.307066205261267e6 0.0
0.0 0.0 0.0

-5.384104447656956e6 1.96031322930198e7 0.0
1.96031322930198e7 4.386982110209236e6 0.0
0.0 0.0 0.0

-4.512763694326233e6 1.4211963798977142e7 0.0
1.4211963798977142e7 2.3519942672855046e7 0.0
0.0 0.0 0.0

2.223761323451044e6 1.6298647591022734e7 0.0
1.6298647591022734e7 -4.878501067546248e6 0.0
0.0 0.0 0.0

-1.0792027049899765e6 1.5172973795598572e7 0.0
1.5172973795598572e7 -3.2931106084868335e6 0.0
0.0 0.0 0.0

-5.841476798055394e6 1.4742355889601655e7 0.0
1.4742355889601655e7 9.15102391241722e6 0.0
0.0 0.0 0.0

-1.2629533679180704e6 1.452936527965952e7 0.0
1.452936527965952e7 -3.9878594034342295e6 0.0
0.0 0.0 0.0

-4.181413363628915e7 2.2960754672326054e7 0.0
2.2960754672326054e7 4.449030839678001e6 0.0
0.0 0.0 0.0

-7.509165789319396e6 1.3777974131639075e7 0.0
1.3777974131639075e7 8.71099051038994e6 0.0
0.0 0.0 0.0

-1.1414939304304216e6 1.5189367277894357e7 0.0
1.5189367277894357e7 -3.127399580188792e6 0.0
0.0 0.0 0.0

-5.4858090269603e6 1.5194184465548228e7 0.0
1.5194184465548228e7 8.698229847149562e6 0.0
0.0 0.0 0.0

843996.2226154935 1.581791076703901e7 0.0
1.581791076703901e7 -5.017522190111004e6 0.0
0.0 0.0 0.0

5.028951256348478e6 4.975750343696242e6 0.0
4.975750343696242e6 -1.5661645059579741e7 0.0
0.0 0.0 0.0

-900999.5159912263 1.5487730151879655e7 0.0
1.5487730151879655e7 -5.86659813865931e6 0.0
0.0 0.0 0.0

-2.230726445960129e7 2.2486135893261366e7 0.0
2.2486135893261366e7 1.0283394453991385e7 0.0
0.0 0.0 0.0

-6.469667896366008e6 1.9358248126627587e7 0.0
1.9358248126627587e7 6.711300091471054e6 0.0
0.0 0.0 0.0

-7.23209724077096e6 -2.2245935132096554e6 0.0
-2.2245935132096554e6 9.726033502435377e6 0.0
0.0 0.0 0.0

-316281.5376649732 1.3459893709349234e7 0.0
1.3459893709349234e7 -9.623516764366873e6 0.0
0.0 0.0 0.0

5.0598058808824755e6 1.3440073919607326e7 0.0
1.3440073919607326e7 -2.0100844598785436e6 0.0
0.0 0.0 0.0

-3.863882434630637e7 1.779840518696994e7 0.0
1.779840518696994e7 1.0394760621553013e7 0.0
0.0 0.0 0.0

113363.68981114589 1.3081824919358773e7 0.0
1.3081824919358773e7 4.303779335319286e6 0.0
0.0 0.0 0.0

4.025186376969086e6 7.871227060408276e6 0.0
7.871227060408276e6 -2.0551358222428355e7 0.0
0.0 0.0 0.0

853396.3909195196 1.1633394962161075e7 0.0
1.1633394962161075e7 -1.1310375951606188e7 0.0
0.0 0.0 0.0

-3.1646493089549104e6 1.4497065805691125e7 0.0
1.4497065805691125e7 5.887226256672351e6 0.0
0.0 0.0 0.0

-8.484959633225482e6 2.1861820584642593e7 0.0
2.1861820584642593e7 6.639061400651524e6 0.0
0.0 0.0 0.0

-3.265340020971569e6 1.708854246855222e7 0.0
1.708854246855222e7 -1.0244860649402391e6 0.0
0.0 0.0 0.0

5.466755597164562e6 4.671597347881391e6 0.0
4.671597347881391e6 -1.8039107346078664e7 0.0
0.0 0.0 0.0

-1.387759020449737e6 1.4377259468965368e7 0.0
1.4377259468965368e7 1.684912375437462e7 0.0
0.0 0.0 0.0

-310975.16371183895 1.0134094559635721e7 0.0
1.0134094559635721e7 -2.476791848629792e6 0.0
0.0 0.0 0.0

-2.9245485241017964e7 1.9750635497807823e7 0.0
1.9750635497807823e7 1.2728700505648434e7 0.0
0.0 0.0 0.0

-9.45931063634605e6 -4.132271585213093e6 0.0
-4.132271585213093e6 1.4174595890260536e7 0.0
0.0 0.0 0.0

-8.721710047363784e6 -4.108162806798888e6 0.0
-4.108162806798888e6 1.6756510454666365e7 0.0
0.0 0.0 0.0

4.670649893373255e6 1.3072911799442295e7 0.0
1.3072911799442295e7 604335.7193768967 0.0
0.0 0.0 0.0

-9.449054526021091e6 -6.246963178771866e6 0.0
-6.246963178771866e6 2.2949144703372166e7 0.0
0.0 0.0 0.0

144417.1005564907 1.318931731805163e7 0.0
1.318931731805163e7 4.25860924736483e6 0.0
0.0 0.0 0.0

1.684738684048567e6 1.439968112033709e7 0.0
1.439968112033709e7 9.558506835573975e6 0.0
0.0 0.0 0.0

-4.772384727852194e6 2.054229512494638e7 0.0
2.054229512494638e7 2.440605661217071e6 0.0
0.0 0.0 0.0

-1.221656690759514e7 2.0131231827525548e6 0.0
2.0131231827525548e6 3.2918445867806625e7 0.0
0.0 0.0 0.0

980848.6337972619 1.1417580166563148e7 0.0
1.1417580166563148e7 -1.702805134566737e7 0.0
0.0 0.0 0.0

997662.1690558996 6.794398073221425e6 0.0
6.794398073221425e6 -6.156772796626581e6 0.0
0.0 0.0 0.0

-3.0086641186326835e6 1.4278351376144439e7 0.0
1.4278351376144439e7 4.660732734033176e6 0.0
0.0 0.0 0.0

-741754.6158325826 1.4958318817590661e7 0.0
1.4958318817590661e7 1.0320379127415882e7 0.0
0.0 0.0 0.0

-1.0848150485386267e7 -4.665132761995291e6 0.0
-4.665132761995291e6 2.1726038287555013e7 0.0
0.0 0.0 0.0

-8.857593508521793e6 4.535143880270868e6 0.0
4.535143880270868e6 8.174033221237043e6 0.0
0.0 0.0 0.0

-4.372330509258905e6 1.4366618029571194e7 0.0
1.4366618029571194e7 1.431364135885457e6 0.0
0.0 0.0 0.0

-3.364609313359594e6 6.677328778143962e6 0.0
6.677328778143962e6 1.13022273511932e7 0.0
0.0 0.0 0.0

1.8941686200126784e6 1.2622075255906e7 0.0
1.2622075255906e7 -3.76627582292207e6 0.0
0.0 0.0 0.0

-9.277006638668302e6 -4.838479800785305e6 0.0
-4.838479800785305e6 1.5245895579983499e7 0.0
0.0 0.0 0.0

-1.1514588574972669e7 2.0794082500330545e6 0.0
2.0794082500330545e6 3.554489031968711e7 0.0
0.0 0.0 0.0

1.7514178763452831e6 1.2922008929054573e7 0.0
1.2922008929054573e7 -3.2478088405302544e6 0.0
0.0 0.0 0.0

-453512.68895591586 1.3609770990465144e7 0.0
1.3609770990465144e7 -7.757283435737723e6 0.0
0.0 0.0 0.0

-1.1564500458562974e7 1.9780716390490956e6 0.0
1.9780716390490956e6 3.5273863942898154e7 0.0
0.0 0.0 0.0

1.55326403848127e6 1.5618394249952324e7 0.0
1.5618394249952324e7 -5.258812695697274e6 0.0
0.0 0.0 0.0

-848368.1557064969 1.4003471614387913e7 0.0
1.4003471614387913e7 6.85686474255698e6 0.0
0.0 0.0 0.0

-4.877490004215442e6 7.792504211930009e6 0.0
7.792504211930009e6 3.8046169165217537e6 0.0
0.0 0.0 0.0

-5.805008524412109e6 3.4835973846936338e6 0.0
3.4835973846936338e6 7.874962226802794e6 0.0
0.0 0.0 0.0

-7.200087517860011e6 2.428903223975779e6 0.0
2.428903223975779e6 3.47298833575631e6 0.0
0.0 0.0 0.0

