# vtk DataFile Version 2.0
phase field modeling fracture
ASCII
DATASET UNSTRUCTURED_GRID
POINTS 2538 float
0.0 0.0 0.0
10.0 0.0 0.0
0.0 10.0 0.0
10.0 10.0 0.0
0.0 4.9995 0.0
0.0 5.0005 0.0
5.0 5.0 0.0
0.9416964895726688 0.0 0.0
1.803581725054446 0.0 0.0
2.592419885431098 0.0 0.0
3.314401822861676 0.0 0.0
3.975193910351406 0.0 0.0
4.579982132660152 0.0 0.0
5.133512780936812 0.0 0.0
5.640130319506143 0.0 0.0
6.103810708661955 0.0 0.0
6.528192895506818 0.0 0.0
6.916607540127679 0.0 0.0
7.272102969376355 0.0 0.0
7.597469242948583 0.0 0.0
7.895259826292669 0.0 0.0
8.167811885738017 0.0 0.0
8.417264413845215 0.0 0.0
8.645575169389538 0.0 0.0
8.854535961159101 0.0 0.0
9.045786767735546 0.0 0.0
9.220828555767493 0.0 0.0
9.38103509633881 0.0 0.0
9.527663687265145 0.0 0.0
9.661865124984566 0.0 0.0
9.784692609918062 0.0 0.0
9.897110148790482 0.0 0.0
10.0 0.09999999999992584 0.0
10.0 0.199999999999856 0.0
10.0 0.2999999999997771 0.0
10.0 0.3999999999996677 0.0
10.0 0.4999999999995511 0.0
10.0 0.5999999999994683 0.0
10.0 0.6999999999993983 0.0
10.0 0.7999999999993286 0.0
10.0 0.8999999999992587 0.0
10.0 0.9999999999991888 0.0
10.0 1.099999999999119 0.0
10.0 1.199999999999033 0.0
10.0 1.299999999998852 0.0
10.0 1.399999999998576 0.0
10.0 1.499999999998284 0.0
10.0 1.599999999997992 0.0
10.0 1.6999999999977 0.0
10.0 1.799999999997408 0.0
10.0 1.899999999997116 0.0
10.0 1.999999999996825 0.0
10.0 2.099999999996533 0.0
10.0 2.199999999996241 0.0
10.0 2.299999999995949 0.0
10.0 2.399999999995657 0.0
10.0 2.499999999995365 0.0
10.0 2.599999999995073 0.0
10.0 2.699999999994782 0.0
10.0 2.79999999999449 0.0
10.0 2.899999999994198 0.0
10.0 2.999999999993906 0.0
10.0 3.099999999993614 0.0
10.0 3.199999999993322 0.0
10.0 3.299999999993029 0.0
10.0 3.399999999992738 0.0
10.0 3.499999999992446 0.0
10.0 3.599999999992154 0.0
10.0 3.699999999991863 0.0
10.0 3.799999999991571 0.0
10.0 3.899999999991278 0.0
10.0 3.999999999991022 0.0
10.0 4.099999999991035 0.0
10.0 4.199999999991187 0.0
10.0 4.299999999991338 0.0
10.0 4.399999999991491 0.0
10.0 4.499999999991642 0.0
10.0 4.599999999991795 0.0
10.0 4.699999999991947 0.0
10.0 4.799999999992099 0.0
10.0 4.89999999999225 0.0
10.0 4.999999999992403 0.0
10.0 5.099999999992555 0.0
10.0 5.199999999992706 0.0
10.0 5.299999999992858 0.0
10.0 5.39999999999301 0.0
10.0 5.499999999993161 0.0
10.0 5.599999999993313 0.0
10.0 5.699999999993466 0.0
10.0 5.799999999993618 0.0
10.0 5.899999999993771 0.0
10.0 5.999999999993922 0.0
10.0 6.099999999994074 0.0
10.0 6.199999999994227 0.0
10.0 6.299999999994378 0.0
10.0 6.39999999999453 0.0
10.0 6.499999999994682 0.0
10.0 6.599999999994833 0.0
10.0 6.699999999994986 0.0
10.0 6.799999999995138 0.0
10.0 6.899999999995289 0.0
10.0 6.999999999995442 0.0
10.0 7.099999999995594 0.0
10.0 7.199999999995747 0.0
10.0 7.299999999995897 0.0
10.0 7.39999999999605 0.0
10.0 7.499999999996202 0.0
10.0 7.599999999996353 0.0
10.0 7.699999999996505 0.0
10.0 7.799999999996658 0.0
10.0 7.899999999996808 0.0
10.0 7.999999999996962 0.0
10.0 8.099999999997113 0.0
10.0 8.199999999997265 0.0
10.0 8.299999999997418 0.0
10.0 8.399999999997569 0.0
10.0 8.499999999997721 0.0
10.0 8.599999999997873 0.0
10.0 8.699999999998024 0.0
10.0 8.799999999998176 0.0
10.0 8.899999999998329 0.0
10.0 8.99999999999848 0.0
10.0 9.099999999998634 0.0
10.0 9.199999999998786 0.0
10.0 9.299999999998937 0.0
10.0 9.399999999999089 0.0
10.0 9.499999999999241 0.0
10.0 9.599999999999392 0.0
10.0 9.699999999999545 0.0
10.0 9.799999999999697 0.0
10.0 9.899999999999848 0.0
9.897110148790565 10.0 0.0
9.784692609918244 10.0 0.0
9.66186512498486 10.0 0.0
9.527663687265571 10.0 0.0
9.381035096339392 10.0 0.0
9.220828555768257 10.0 0.0
9.045786767736512 10.0 0.0
8.854535961160305 10.0 0.0
8.645575169391027 10.0 0.0
8.417264413847017 10.0 0.0
8.167811885740178 10.0 0.0
7.895259826295246 10.0 0.0
7.597469242951631 10.0 0.0
7.272102969379938 10.0 0.0
6.916607540131873 10.0 0.0
6.528192895511704 10.0 0.0
6.103810708667616 10.0 0.0
5.640130319512691 10.0 0.0
5.13351278094435 10.0 0.0
4.579982132668816 10.0 0.0
3.975193910361222 10.0 0.0
3.314401822869852 10.0 0.0
2.592419885437257 10.0 0.0
1.803581725058137 10.0 0.0
0.9416964895740705 10.0 0.0
0.0 9.00010000000243 0.0
0.0 8.000200000005481 0.0
0.0 7.000300000005135 0.0
0.0 6.000400000002569 0.0
0.901790731451151 5.000409820926855 0.0
1.657200899774397 5.000334279910023 0.0
2.289991063707192 5.000271000893629 0.0
2.820065163538221 5.000217993483646 0.0
3.264096435579811 5.000173590356442 0.0
3.636051481595835 5.00013639485184 0.0
3.947629914072366 5.000105237008593 0.0
4.208632181002628 5.0000791367819 0.0
4.427267949625672 5.000057273205037 0.0
4.610414277633563 5.000038958572237 0.0
4.763831845154243 5.000023616815485 0.0
4.892346298799659 5.00001076537012 0.0
4.892346298799748 4.99998923462988 0.0
4.763831845154455 4.999976383184515 0.0
4.610414277633943 4.999961041427763 0.0
4.427267949626277 4.999942726794963 0.0
4.208632181003523 4.9999208632181 0.0
3.94762991407365 4.999894762991407 0.0
3.636051481597624 4.99986360514816 0.0
3.264096435582253 4.999826409643559 0.0
2.820065163541503 4.999782006516354 0.0
2.289991063711534 4.999728999106371 0.0
1.657200899778495 4.999665720089978 0.0
0.9017907314530094 4.999590179073145 0.0
0.0 3.999600000002013 0.0
0.0 2.999700000005187 0.0
0.0 1.99980000000512 0.0
0.0 0.9999000000025537 0.0
9.897889398521345 2.93573355845387 0.0
9.906568249974548 7.060009441434234 0.0
9.913122631074113 3.64016132281653 0.0
9.922462129543863 6.354535290629151 0.0
9.917693659967533 4.354211663134567 0.0
9.909873057440208 5.637584487339942 0.0
9.914183254994697 4.950672966925282 0.0
9.913885043715895 7.666887930262611 0.0
9.91009668007573 2.351889069770817 0.0
9.905135696074536 8.138152454502785 0.0
9.913397459621809 1.849999999997262 0.0
7.099302372137626 0.297750452375005 0.0
7.095143729410097 9.700359990366296 0.0
4.942912558701401 5.095838627899509 0.0
4.315009232304429 5.165022115481685 0.0
4.946182472483878 4.906763777264103 0.0
4.317967462990024 4.825955043772673 0.0
9.916390871492647 8.64999999999792 0.0
9.921504649680616 1.368376469890358 0.0
8.292538149791614 0.206877570318844 0.0
8.292538149793597 9.793122429681448 0.0
5.884594439766573 9.587645267048616 0.0
5.794826292691579 0.3794853783929359 0.0
9.913397459621425 9.049999999998557 0.0
9.908526577714177 0.9568239351922434 0.0
3.456851160380649 5.315740054130451 0.0
3.457889657868442 4.707121019609468 0.0
8.945214200703926 0.1503383337970344 0.0
8.950161364448409 9.8413906539257 0.0
9.913862335499305 4.055887885208452 0.0
9.916697353372683 4.650158482607802 0.0
9.919076340414442 6.049999999994006 0.0
9.906994308667635 5.25749687748192 0.0
9.917490342358025 6.655979201891897 0.0
9.915757520293784 7.343848891656911 0.0
9.910049507471042 3.363474386285078 0.0
9.914471988502868 2.647400064832979 0.0
9.91474124160965 9.337490423485129 0.0
9.916971008170838 0.6499999999994355 0.0
4.307157269264427 9.509674045029644 0.0
4.331527375865619 0.4401616696422582 0.0
9.45434939180249 9.878397030523757 0.0
9.457696120412969 0.1270877537061785 0.0
2.555070293622606 5.422044496190925 0.0
2.566232917480916 4.608001224030952 0.0
3.026511860837692 9.332320638257093 0.0
2.945561971800619 0.5895662714727601 0.0
7.7395404387124 0.2511088946967771 0.0
7.736379255744154 9.745848826372828 0.0
4.687135269408529 5.122111433928926 0.0
4.688420821504113 4.871895064967488 0.0
9.910554884115975 0.3448356354522978 0.0
9.911230082250466 9.65764729394159 0.0
9.921953841410854 6.851023993342036 0.0
9.912065178606017 5.448170483544033 0.0
9.911660025326261 3.861846960030188 0.0
9.914847467973438 3.14501593945607 0.0
9.913397459621425 5.849999999993703 0.0
9.913397459621425 7.849999999996735 0.0
9.906916878988277 2.15455769998631 0.0
9.913397459621425 8.349999999997479 0.0
9.909472363117661 1.640528221515488 0.0
9.913987325695956 1.152857110636247 0.0
9.913397459621425 8.849999999998241 0.0
0.9100099990995943 2.614215977520411 0.0
0.8395284981715456 7.451196254860987 0.0
9.723278867451556 9.898135916635193 0.0
9.723316350887044 0.09841820909386662 0.0
1.385819164827588 4.454539963646463 0.0
1.338343629665047 5.523111536005823 0.0
1.377179700550677 0.6809168304959698 0.0
1.418060461092743 9.285896715136046 0.0
9.91268220142518 0.1457914080939694 0.0
9.906737126737994 9.845745933882352 0.0
0.7108351382691361 6.537941170074089 0.0
1.527735020267026 6.915620208855231 0.0
1.630993885659103 7.838271825205868 0.0
2.232760943566823 7.370850737296832 0.0
2.243414218068206 6.688299277952821 0.0
2.779655053105118 7.021588754814074 0.0
2.80227799359795 7.632420170547022 0.0
3.282022065908813 7.305859666021318 0.0
3.327597298795347 7.857554136825748 0.0
3.743210251018715 7.549183328204379 0.0
3.716353232200752 7.062036086888612 0.0
4.111978858674101 7.27497101169417 0.0
4.104192177581432 6.879858986267289 0.0
4.436230765617037 7.045693351607117 0.0
4.430360014817357 6.703971783962796 0.0
4.732390145036301 6.849841042423394 0.0
5.056161327708878 5.095276573498806 0.0
5.111586796021131 4.999081142133581 0.0
5.169267363407189 5.09444870412406 0.0
5.223795108752053 4.996986220359468 0.0
5.281480803887719 5.092780870372803 0.0
5.335670761900611 4.994887492556936 0.0
5.393485214772442 5.090486192743301 0.0
5.447323082877892 4.992601527033996 0.0
5.505243219343024 5.087953380710069 0.0
5.558739102026105 4.990287787962959 0.0
5.616491581184779 5.085335255235766 0.0
5.669852346908056 4.9879269227514 0.0
5.727502713908907 5.082679981817038 0.0
5.780766004135139 4.988313988715834 0.0
5.838244881129535 5.080480568766611 0.0
5.891357695677371 4.986433849408193 0.0
5.948696036767613 5.077969900389505 0.0
6.001601341641615 4.981313698556656 0.0
6.058851024265095 5.074871552128682 0.0
6.111614020704875 4.978360695880202 0.0
6.168801161530775 5.072044953270978 0.0
6.221368818778567 4.975825765213497 0.0
6.278268309066882 5.066182320461055 0.0
6.330814273567539 4.972837984645718 0.0
6.387565032421376 5.062889771971895 0.0
6.437476667631405 4.971693683589553 0.0
6.496181111585419 5.060210690175857 0.0
6.539454812256072 4.964658165361536 0.0
6.604198202576491 5.056387520850258 0.0
6.648506025747331 4.939374587506267 0.0
6.714026758992516 5.05873885840664 0.0
6.764418045981209 4.959246676066148 0.0
6.8219334571197 5.055299567406268 0.0
6.873708540948134 4.960426349093742 0.0
6.930181428849307 5.053461390218819 0.0
6.981893615341967 4.96435459462232 0.0
7.037791764774784 5.051219747103022 0.0
7.090993561518408 4.96392420322464 0.0
5.504417457283294 4.900897920552702 0.0
7.145434864123609 5.048960634292441 0.0
6.054532384032612 4.883956083938546 0.0
6.738027949040956 4.850032323068674 0.0
7.198432914526514 4.956325226333323 0.0
7.252637187936749 5.046012229327236 0.0
7.30926729605109 4.948903216650376 0.0
7.248106275544042 4.860306312845646 0.0
7.363100274863074 4.849952416808486 0.0
7.365733472701664 5.039519554615095 0.0
7.308483293090149 5.137557220352172 0.0
6.768399513646964 5.145609705119954 0.0
7.422800035311104 5.132251445551834 0.0
7.358273518796229 5.235980394389298 0.0
7.480824155801127 5.227946127939927 0.0
7.302193400058628 4.761917474298247 0.0
7.413570879789824 4.754555110721153 0.0
7.414392998903179 5.334729114426734 0.0
7.352769630272076 4.660405502266205 0.0
7.467556835255426 4.658352623795039 0.0
7.536246869015014 5.328986926716081 0.0
7.478865844607288 5.432598185493195 0.0
7.406396991826072 4.556956233957538 0.0
7.523581002009154 4.552005631348623 0.0
7.597792398573263 5.429506106314967 0.0
7.540511043402902 5.53619421580439 0.0
7.46214474876342 4.452580994318881 0.0
7.5852185078634 4.446021810672608 0.0
7.663329342323453 5.533453399066901 0.0
7.603478967594521 5.643227430483237 0.0
7.513450346818673 4.347641323140766 0.0
7.640744971722214 4.333388343316237 0.0
7.727671715775243 5.642390483050116 0.0
7.667774597993788 5.753188858425915 0.0
7.570065256728661 4.230515669344811 0.0
7.702881065467917 4.218307808529532 0.0
7.638288257073729 4.107994211855027 0.0
7.493362356301017 4.120843902105771 0.0
7.779018500630071 5.521233457321821 0.0
7.794641287388929 5.752364621610818 0.0
7.73369774483611 5.865894287356292 0.0
7.600834531784728 5.867752110500446 0.0
6.233038857278689 5.15645045634683 0.0
7.669727996028819 5.985665563643058 0.0
7.528582452554481 5.987393423295551 0.0
7.598722674572824 6.11001923494443 0.0
7.778305000222867 4.104318908265786 0.0
7.704329019832056 3.987744174608892 0.0
7.838453459801382 4.213322728668484 0.0
7.864495721576461 5.862306066517277 0.0
7.846552353360407 3.98481756181946 0.0
7.769730409703277 3.86544808681145 0.0
5.785249360396857 5.177248808588045 0.0
7.908837087876153 3.861484036275285 0.0
7.834824606222196 3.740586825753288 0.0
7.97685993406276 3.736209527152902 0.0
7.89665098770825 3.615501862931453 0.0
7.753228010315262 3.617800245018972 0.0
7.826063013090472 3.483173292579822 0.0
7.66789744383048 3.48859328808356 0.0
8.042515855796823 3.595394268381807 0.0
7.75200750488492 3.341279823834038 0.0
7.582870318332553 3.346584916806707 0.0
8.120807847415062 3.732493963388337 0.0
8.189783970303546 3.61159165475499 0.0
7.657801000286734 3.200439907646711 0.0
7.486781956172036 3.201402473247712 0.0
7.452595103886905 6.11418616185016 0.0
7.527098033550077 6.243191052852112 0.0
8.260502906807751 3.728437634721859 0.0
8.327629317451398 3.608173631356984 0.0
7.372763970891452 6.247552889754036 0.0
7.456170570815929 6.384992468962936 0.0
7.621837793616884 6.376077080857113 0.0
7.548039512904141 6.520750676893614 0.0
7.717475944451644 6.514856553988943 0.0
7.636658166268699 6.661648164052906 0.0
7.807468267259438 6.664076174524672 0.0
7.718022764310774 6.817938967122142 0.0
7.887785766941087 6.807440365887151 0.0
7.545993589083432 6.815070675854734 0.0
7.809874785067209 6.967537287475282 0.0
7.975643812145337 6.948729406725126 0.0
8.396477808021062 3.725446935061211 0.0
7.565651643157136 3.044354774611752 0.0
7.384328725505071 3.043048915147076 0.0
8.056405351948353 6.802790889114673 0.0
8.14128318237188 6.940027831915737 0.0
8.064621760266059 7.086348792208953 0.0
8.225003598857908 6.805225152373254 0.0
8.463085452993242 3.606998510553562 0.0
8.230426869720718 7.079551841000411 0.0
8.155262284174286 7.224761758176069 0.0
8.530696760758996 3.721683301125054 0.0
8.596669886994064 3.604516769862316 0.0
8.528531058025589 3.490411531312337 0.0
8.320451770844851 7.218191678954744 0.0
8.245273958732774 7.363444652121271 0.0
8.66324687389452 3.717094013035765 0.0
8.600103125209296 3.831913857228569 0.0
8.662131102573216 3.488322280861316 0.0
8.594166125380536 3.374071873435548 0.0
8.411074336066186 7.353871649576861 0.0
8.339644223432472 7.505172120620427 0.0
8.165883718619623 7.513159193685373 0.0
8.483453820080417 7.2082285366806 0.0
8.261200365730348 7.657400951288149 0.0
8.081570576666843 7.670933304838066 0.0
7.471613195794025 2.872548423100142 0.0
7.268733678357991 2.881209199257603 0.0
7.184255506995786 3.084448584600423 0.0
7.065899603697895 2.883902449336828 0.0
6.960163891183182 3.081014635802978 0.0
6.847612128388715 2.885646860602812 0.0
6.739800729737967 3.078895733381448 0.0
8.729373804596847 3.827689165637365 0.0
8.668550856907444 3.938702277545298 0.0
8.72770789162863 3.371798381178293 0.0
8.659764090070603 3.257493349874974 0.0
8.436453928793245 7.648724489148887 0.0
6.619080287792762 2.90880017416788 0.0
6.511740956842646 3.09340654756684 0.0
8.793527829963288 3.935174834810256 0.0
8.736430500996828 4.042719556852617 0.0
7.631260330584174 4.565300771328012 0.0
8.359058396840432 7.801678182761817 0.0
5.339436215072359 5.184870243702279 0.0
4.994031736761993 5.193306795607908 0.0
6.383387675268097 4.87760645722207 0.0
7.29117392392962 6.382172868329505 0.0
6.378196825372041 2.907113079755629 0.0
6.269817199014261 3.12412150658573 0.0
8.793149127377946 3.255386294257182 0.0
8.725774239201558 3.141596687892195 0.0
8.857434600673502 4.041295940541356 0.0
8.802868937128341 4.1471119953668 0.0
8.532045262478793 7.7905977476835 0.0
7.364542641624493 2.699128473342751 0.0
7.571677611088925 2.695732556686516 0.0
6.723058333614999 2.672341359410618 0.0
8.456744924757372 7.94483904450548 0.0
6.140831279784704 2.921247401137864 0.0
6.02419219050745 3.14358702955763 0.0
8.916255604212301 3.934279868822481 0.0
8.859287250884009 3.140226640574265 0.0
8.791092798057303 3.025929352146465 0.0
7.210445465986021 6.245773134960393 0.0
7.120884161792869 6.385155584680196 0.0
7.036931702064287 6.240721609143972 0.0
6.943722280007011 6.3869279517155 0.0
8.920094519678617 4.144837222494242 0.0
8.864374107136287 4.250930406527029 0.0
7.347569838739255 4.463467417508182 0.0
5.90383431757064 2.935113219563906 0.0
5.783476009580765 3.156456199832474 0.0
8.626013191558314 7.935092223505354 0.0
8.687240186957197 7.796697889991163 0.0
5.642059327424706 2.903018174330269 0.0
5.52647853955939 3.162549070310043 0.0
8.555300051897738 8.086169516016518 0.0
8.405624441178524 8.083972416481254 0.0
5.374124307190728 2.945480555950917 0.0
8.935805220807357 3.249260758206028 0.0
8.981625171409894 4.247375537584228 0.0
8.924725364486765 4.352101286657735 0.0
8.807208588134106 4.356163101450244 0.0
8.868277832430604 4.45657124153171 0.0
8.75099635287701 4.460644845248524 0.0
8.812385950597063 4.560891222623518 0.0
8.693833206943118 4.564602972998703 0.0
8.756474732548273 4.665720853686476 0.0
8.63721608225855 4.669394550615355 0.0
8.700108119351134 4.770682016274914 0.0
8.81920502916846 4.767536120893284 0.0
8.76355311338807 4.871451945248518 0.0
8.881442328033694 4.868382238751069 0.0
8.826433523510634 4.97132552240372 0.0
8.943387824985514 4.967694248194483 0.0
8.888718468126953 5.071044784833541 0.0
8.580377663835254 4.774669738817985 0.0
8.770572242937233 5.073880380431421 0.0
8.832915096600454 5.174518948293615 0.0
8.952224483821848 5.170970838320107 0.0
8.897282771771884 5.275476392171722 0.0
7.463928467290875 2.513944501591933 0.0
7.675935950092034 2.509420347143072 0.0
8.924252417741767 3.024418701372628 0.0
8.857265893102921 2.911213535286156 0.0
8.776981063213334 5.27944309004916 0.0
8.840710910770163 5.380165700477552 0.0
8.960876896785969 5.375521424256389 0.0
8.904555918255223 5.482125846038813 0.0
7.567193097677677 2.32750151280277 0.0
7.780880844888839 2.323064027160363 0.0
6.851602118390116 6.234522818184622 0.0
6.758680682687229 6.389359516748128 0.0
6.66345977321418 6.231254850996584 0.0
8.715764716958308 8.079994249772627 0.0
8.65189989696114 8.227534663647639 0.0
9.042229096541828 4.348551764001607 0.0
6.436774206993324 3.316782326998922 0.0
7.590527613340588 5.22651784724799 0.0
9.024366884701616 5.476726561488805 0.0
8.968734351641839 5.583879050892151 0.0
8.845941080047659 5.586406316932274 0.0
8.909881305857882 5.690482454668167 0.0
7.348726871578975 5.44047403999932 0.0
6.567070253986433 6.398115757512583 0.0
6.697077150072261 6.553426749743366 0.0
5.252377383990728 3.187782967482479 0.0
8.988440431820699 2.908621158637298 0.0
8.922541972760119 2.796420836075996 0.0
6.466806010659505 6.229115583261771 0.0
9.033851153821296 5.686506775615425 0.0
8.978340519963718 5.795772485582058 0.0
8.85111463793018 5.798672910287243 0.0
8.922171984280597 5.907237880910408 0.0
8.795190680908043 5.911854068712683 0.0
8.864373398892472 6.019728357749566 0.0
8.991346995940626 6.014539153309398 0.0
8.93374019140187 6.12698887312768 0.0
5.095192648098848 2.952353430985476 0.0
7.672651464908932 2.141715359830917 0.0
7.886266921042761 2.136211284120189 0.0
9.098474286589756 4.245971410451114 0.0
8.813172564986438 8.216887361735234 0.0
8.74802978243154 8.366104673219047 0.0
9.059985162956899 6.120982589539211 0.0
9.00342813739303 6.233245043891739 0.0
4.961413514304496 3.214209167276753 0.0
9.05248113004685 2.794651022570942 0.0
8.986028039118027 2.681341972594222 0.0
5.671890458441996 3.377122473800023 0.0
4.755829262593116 7.184480462344647 0.0
9.158258644940048 4.34465968221255 0.0
4.799687186662534 2.961354824469195 0.0
6.030554747591715 2.726787502996874 0.0
8.938327180212585 8.34758372042188 0.0
8.847392320655468 8.503370672816716 0.0
8.67342124373679 8.518117686968314 0.0
5.234423106934083 2.694925204361751 0.0
8.964923046453565 8.185313058214797 0.0
7.456650986668838 2.134076476407834 0.0
9.111732084821366 2.897226832609386 0.0
6.368055837513985 6.402805870976705 0.0
6.265629899005033 6.226581076317183 0.0
8.736327196352686 6.026404178766982 0.0
9.117473097358854 2.67987006607594 0.0
9.052137415465204 2.565428515518978 0.0
7.781001557847192 1.955874236406257 0.0
7.992134447300669 1.949184538864554 0.0
8.593074792993455 3.143159483125708 0.0
9.1291360203536 6.226877897052981 0.0
9.072154326613617 6.338696745620542 0.0
8.916532550320525 2.566986282201109 0.0
8.984021113721658 2.449252898983242 0.0
9.178032243215632 6.120533546076094 0.0
9.213703592343162 4.244823670856978 0.0
9.11972142641474 2.449071238668887 0.0
9.052853896812186 2.33190758581705 0.0
8.635035926402708 4.462329956179506 0.0
8.773614475966344 8.657865377672689 0.0
8.596400917257634 8.67759750279447 0.0
8.942023339420883 8.644678093589654 0.0
9.19471670675691 6.33096438039349 0.0
9.138460613363325 6.443043552768813 0.0
8.66620319432524 5.916297234509582 0.0
8.606669825267202 6.032658196729024 0.0
9.27222540210304 4.341341907533128 0.0
9.013782808177437 6.451040569407859 0.0
9.08360982569773 6.55729980456602 0.0
7.885622149776354 1.768093045890686 0.0
8.095672144455353 1.768790621151345 0.0
9.208772072925791 6.549717411809656 0.0
9.154272208194383 6.662613503537815 0.0
9.187669783927937 2.334640996932141 0.0
9.122379015831417 2.215832190697178 0.0
6.164077036161143 6.404611236428829 0.0
6.062367614988677 6.224307160647549 0.0
8.987075041759633 2.211477580983978 0.0
9.056972755801603 2.093573581203428 0.0
9.194557288902232 2.096029761809264 0.0
9.131223008370409 1.972713028695079 0.0
8.87381302587057 8.795793668920256 0.0
9.039169086943392 8.781606667490083 0.0
4.662813350519927 3.228118291851354 0.0
4.474181267994617 2.945703616023359 0.0
6.562627723301209 6.075544382232434 0.0
9.326886053211574 4.243083624343211 0.0
9.280374192897945 6.656072830232892 0.0
9.224718905178564 6.766740750539347 0.0
4.703284910421452 6.528907865005451 0.0
8.955136474970331 6.565989985649191 0.0
8.998148826814893 4.865480736169776 0.0
8.99429836796776 1.965972383552685 0.0
9.065669391141741 1.847195105148808 0.0
9.207236162050343 1.853010386995843 0.0
9.143218073349985 1.725630086781897 0.0
8.998867447699345 1.719378449325465 0.0
9.082595782768397 1.592017827427701 0.0
8.92804562738841 1.585238202229766 0.0
9.01637794607019 1.453847302675876 0.0
8.854253119154375 1.446306868730686 0.0
8.941620273019874 1.320083886766936 0.0
8.775393064215876 1.308487027359826 0.0
9.102170347200483 1.324733726345249 0.0
9.013857060361985 1.178821526410403 0.0
7.991031819452564 1.587689878441685 0.0
7.767218744640202 1.595993197647291 0.0
9.191539171305216 1.194087248761656 0.0
9.123965901037613 1.057102462689568 0.0
4.853921953226772 3.470213116851758 0.0
7.496563223334782 3.470157221608763 0.0
8.536691379028115 5.921845852206257 0.0
8.475496498707471 6.037633662010236 0.0
7.978668526342969 2.307231488316941 0.0
9.384721922092124 4.337357165846226 0.0
9.331039180200886 4.435926256444196 0.0
8.546261775564837 6.150267290476958 0.0
8.411727261785726 6.155319300628062 0.0
8.972203609044218 8.930944433074036 0.0
9.133480321468399 8.90955269607895 0.0
9.197778815538276 8.768743880012563 0.0
6.162231825784922 6.05277753404107 0.0
5.962111081146334 6.046949845237622 0.0
9.268727788642101 4.146883230687689 0.0
9.380694211527906 4.144811697563401 0.0
9.323823335199954 4.049557759546529 0.0
9.283324894520613 1.736313094621396 0.0
5.858151623803662 6.22041808248046 0.0
5.759668475561988 6.038806123495502 0.0
7.836860473863919 3.191674397465999 0.0
9.348591928839294 6.75855034547469 0.0
9.293979592221298 6.870213350675044 0.0
9.170543172728557 6.879819332293818 0.0
9.240028263813034 6.983394994050525 0.0
4.347372565145963 3.312731475520695 0.0
4.114183445909965 2.96879678229065 0.0
8.616264880152233 4.042035981070631 0.0
9.403174760076901 6.650407069150438 0.0
4.173860112179449 7.723461240865885 0.0
9.365302975518428 6.973476802087294 0.0
9.312420275675276 7.088420778208979 0.0
9.184876614539778 7.0978133687822 0.0
9.25921281729617 7.204979813006656 0.0
9.12816413817609 7.21569648263899 0.0
9.203944409919862 7.322703303071253 0.0
9.334311975087337 7.311477957762272 0.0
9.280415785210538 7.428795599957155 0.0
9.274060219641907 1.066603180421249 0.0
9.211820491509728 0.9316562593680151 0.0
9.050684011148748 0.9017681241401576 0.0
9.441953732403995 4.432092590771756 0.0
9.394725873909666 4.526051349391942 0.0
9.43453556160865 4.048003950509361 0.0
9.378043599351757 3.952631412328806 0.0
9.289691247910705 8.890746792319852 0.0
9.228148443138926 9.030109127390128 0.0
4.440757888677695 6.389562448928118 0.0
4.689874463978985 6.239329075084555 0.0
4.291519540095677 2.622920583112654 0.0
3.886073352912894 2.632778677714434 0.0
9.344015622314338 1.202401041544343 0.0
8.193292196814806 3.849649660906171 0.0
6.960946604527747 6.07044529864598 0.0
9.347708267319902 8.756364147482309 0.0
6.826423138602714 3.261415861395883 0.0
6.06309517882478 5.884563187328262 0.0
9.4085057714426 7.414123963607981 0.0
9.356416821537886 7.532359471354527 0.0
5.042074134251055 6.938947182785697 0.0
5.063988238156824 7.311205832605263 0.0
3.946666851334923 3.30681624613374 0.0
8.189857914071878 1.939951128540477 0.0
7.880690277686857 1.38928908049477 0.0
7.63766396748483 1.399736360041063 0.0
9.345004233592562 1.857695941115052 0.0
9.440465164139875 7.085860901905448 0.0
7.918332480761888 5.744468010879592 0.0
9.08007135068879 5.372457017512481 0.0
8.78639561093144 3.718391405525285 0.0
9.356843485085705 0.9414458825132457 0.0
9.29705128845331 0.8103081541678832 0.0
9.251825423225316 2.451701826351773 0.0
8.483895366325516 6.270717564685176 0.0
8.346386886249478 6.275973306650227 0.0
9.493299170161215 4.138582531223591 0.0
5.321115649032961 7.117073603021904 0.0
5.354076009109965 7.436189411362466 0.0
5.597984079819928 7.254284331170681 0.0
5.644042313435943 7.564172740776336 0.0
5.383963016128051 7.753854027984002 0.0
5.681168258142109 7.880444993178456 0.0
5.935548099874979 7.687258900444162 0.0
5.979508404301389 7.994332725561488 0.0
6.21936843555201 7.802335560754011 0.0
6.267092590637372 8.104873033518185 0.0
6.498845418385807 7.917606504106031 0.0
6.544600005636809 8.209910620392591 0.0
6.77336078689533 8.027284686082275 0.0
6.814840179123049 8.311778392637773 0.0
6.721304148677048 7.737863326704131 0.0
7.031320924898797 8.1335673274533 0.0
7.077388928622946 8.403901803728003 0.0
5.417471987089176 8.090112295667405 0.0
8.845427688507666 2.446352368201366 0.0
9.318512319918124 2.339233739859646 0.0
9.380241452597096 2.451895615249572 0.0
7.283805558009199 8.237518806365102 0.0
7.329200330160381 8.497045124353782 0.0
7.233272584416691 7.991590926766813 0.0
9.142592248414191 5.471315142785471 0.0
9.196303265878848 5.36738298742727 0.0
9.25795832955665 5.465260877691205 0.0
9.310581303233182 5.36341558704714 0.0
9.371094700882272 5.459458038195667 0.0
9.422767107822985 5.360687090455724 0.0
9.36402660964156 5.264821436196721 0.0
9.474220736978928 5.262802348886269 0.0
9.41680330511366 5.169477108906666 0.0
5.168675939028436 4.895496152382537 0.0
9.482591449057548 5.454699312257291 0.0
9.431567605310825 5.552723344040521 0.0
7.531449703396948 4.741663470323411 0.0
8.517293123442691 4.672601123164268 0.0
8.459978676626639 4.778466809901586 0.0
8.396595115309985 4.67568709170855 0.0
8.338966609235166 4.782101664607259 0.0
8.275355646032752 4.678829956447008 0.0
8.217675280223542 4.785699596769931 0.0
8.28149024865807 4.888803783902183 0.0
8.16019781596952 4.892696417098926 0.0
8.22433278506531 4.995725219088695 0.0
8.102825704443651 4.999629142625341 0.0
8.166887930010795 5.098242831115916 0.0
8.034904900788316 4.896825406879729 0.0
8.15353539905931 4.682103688185489 0.0
8.211891449058882 4.574219757233394 0.0
8.290305306104333 5.094007100958221 0.0
8.225684228618732 5.201525567655179 0.0
9.444618942559746 2.343141375196729 0.0
6.929446520625337 4.868116916840016 0.0
5.737810725167649 4.893891407574175 0.0
8.720389971487277 5.38508368411851 0.0
8.805734920311323 8.951818172412821 0.0
8.905272694453211 9.083303226359831 0.0
6.006155038818204 5.171375272745409 0.0
6.431496448228514 5.152985998213245 0.0
9.052675024457304 7.106590131831544 0.0
7.740007013494393 6.09727525827826 0.0
9.375852260355511 9.013078430361404 0.0
9.32035844773103 9.14584923943073 0.0
6.989707597683965 5.146377438798643 0.0
9.488190206836386 3.951168069367155 0.0
9.432429152094464 3.855725756072153 0.0
5.568386402814275 5.185723849666124 0.0
9.525561551078322 5.166162126187324 0.0
9.465026391994275 5.072601962964018 0.0
9.320357339516937 3.857795423728873 0.0
9.375955927831914 3.759314274140895 0.0
9.261783786753899 3.761412578759438 0.0
9.31820665563318 3.661845422072752 0.0
9.431798673168924 3.660830894813109 0.0
9.374584413615914 3.563138564686839 0.0
9.48759661134647 3.562294297118573 0.0
9.431339678707085 3.464016717943268 0.0
9.417896212887529 1.746970678437863 0.0
8.731705369070733 9.110902182838881 0.0
5.652297951447118 6.21188565774667 0.0
5.569122518069258 6.024400786163834 0.0
8.257007204149394 3.505875091031567 0.0
8.717428603143034 2.925525757227976 0.0
6.882852832747376 8.57686572931064 0.0
6.337330066435714 8.416819098143066 0.0
9.50188906539997 4.521022403818629 0.0
9.453500859905136 4.617181635748691 0.0
9.46806769570129 6.749352117850711 0.0
8.836822104875719 1.72282859852854 0.0
7.481071063421426 5.64593758994851 0.0
5.668814988976305 5.86611128457842 0.0
5.487644760735084 5.847591822776978 0.0
8.993992818065195 7.228173913870249 0.0
7.98322414937693 7.229980191466666 0.0
9.22810751684646 7.54864871395298 0.0
9.304103360459063 7.654622011545798 0.0
9.432787371848761 7.633691049023619 0.0
9.382619818023882 7.759136995934441 0.0
7.239096822516492 4.679179578301165 0.0
9.47692479956498 1.861231395362419 0.0
8.041243110813022 5.095895152648969 0.0
6.190208781188077 7.509864122823853 0.0
9.283062812782122 4.549418667685757 0.0
9.503847665760087 2.450295046295932 0.0
9.443345385250678 2.557904120404248 0.0
9.52009568463353 6.644015937008899 0.0
9.203119005973903 3.662458522935253 0.0
8.406198651282708 5.92630414760378 0.0
8.467263597743843 5.811987729136874 0.0
9.461423029059445 9.128120577356565 0.0
9.408445330070542 9.26024300250086 0.0
9.266505293379728 9.277952925446408 0.0
4.14874709022218 3.631681332690154 0.0
9.437448107949258 0.8198473430736303 0.0
9.376993771693973 0.6910550697058979 0.0
9.22882356848217 0.6931820370818127 0.0
4.451823867195988 6.103664366188579 0.0
4.200031743909027 6.232039028149317 0.0
4.687154754667774 5.975132870483986 0.0
6.268889397098538 6.592235545990395 0.0
7.509366161722768 8.340075462391164 0.0
7.564775703413765 8.59800936579159 0.0
9.542148732924264 3.854614593058991 0.0
7.036231103929761 6.550562550831048 0.0
4.089373665437328 2.268193930262139 0.0
3.642558884866483 2.250386188148396 0.0
3.442182385618804 2.651948803899947 0.0
3.146832503011753 2.222630466765926 0.0
2.948870467975985 2.805088883766417 0.0
9.352005315330274 5.067356449300542 0.0
9.31729677031493 3.462944187594675 0.0
9.37428383619102 3.365546369736205 0.0
9.4883538239391 3.365384871181599 0.0
9.432147665178338 3.267287636377487 0.0
9.25034519267688 7.775848812012313 0.0
9.332091350002502 7.881724023243533 0.0
9.462101000264603 7.86490055671988 0.0
9.413353271651825 7.98561007219363 0.0
8.273592814723814 6.158623919352561 0.0
8.207135014732339 6.280394934566054 0.0
9.541483811580331 5.548224291759592 0.0
9.491365919893726 5.644847811894615 0.0
8.088095771120983 4.577581369371366 0.0
8.14760102783746 4.468303741922308 0.0
9.556217963323956 4.414867468889523 0.0
9.543667331547693 3.266908751519594 0.0
9.489307652535885 3.169908976697059 0.0
9.26285575842982 8.635341362685686 0.0
9.403220742003983 8.621447866627538 0.0
9.326013417886902 8.506778946171965 0.0
9.455477927154853 8.503896705359047 0.0
9.566646674069602 4.611465258087684 0.0
9.499341049870914 0.9352184973273918 0.0
8.683891958597638 1.444705608998412 0.0
8.599973456173778 1.287265568270043 0.0
7.760988189317371 1.175381292562583 0.0
7.50927661322749 1.171223823957793 0.0
7.380927152434357 1.411062577009695 0.0
7.242417847270241 1.170759311509981 0.0
7.107236746116019 1.421234419770886 0.0
6.960799033544566 1.169618322344823 0.0
6.817786081200392 1.434174581170586 0.0
9.48095050141868 8.738557748483624 0.0
9.319762046171894 3.263060331456388 0.0
8.920653400180534 7.117307656029475 0.0
9.452431221190624 6.544166520883111 0.0
9.571407933653493 6.540336592280795 0.0
9.507586285214174 6.443281357841339 0.0
9.575252974749443 5.070210512157044 0.0
5.755172844377253 6.370710487467459 0.0
9.541351959064952 7.969072511059531 0.0
9.354607289792183 9.3921968735401 0.0
9.495213435762107 9.37218405175897 0.0
3.77688136092967 3.643094492921176 0.0
5.460967180339239 6.159077196937325 0.0
8.656589552918996 5.283032675040985 0.0
8.599307076390474 5.387421722684671 0.0
9.584017606465821 5.263931993965828 0.0
9.51536593891754 4.977534386249715 0.0
7.788544970111893 2.70578432810479 0.0
7.381746833264364 8.755477463411431 0.0
7.615969996822885 8.852710176548548 0.0
7.783643411970649 8.691528137204457 0.0
7.845017394185501 8.938777577473743 0.0
8.570520580943368 7.342304222498308 0.0
9.103648004226827 5.781084627507008 0.0
8.338082930126799 5.815990105349368 0.0
8.930848895071895 4.561111316304916 0.0
7.381089602119859 5.983657236035151 0.0
8.42066837692862 6.393608568217351 0.0
8.888256157021065 6.459558428285236 0.0
8.826495664731354 6.575679897210801 0.0
4.22522220414496 5.921354747981145 0.0
3.943296448343383 6.075578573904587 0.0
9.563175937841836 2.554860696349795 0.0
9.505342423182917 2.656889632284623 0.0
6.660863480070611 1.168750929063519 0.0
6.518316961679488 1.436478598119306 0.0
6.683474168246802 1.694104067636375 0.0
6.376799057174731 1.707382100972048 0.0
6.205091481342603 1.443621641108414 0.0
6.058670988071357 1.728841803855816 0.0
5.877457486049096 1.454297236926778 0.0
5.724979192982589 1.756666409586195 0.0
5.529885788012015 1.462283739157555 0.0
9.514953777019835 0.7018468683209754 0.0
8.398665270372675 5.702731562702358 0.0
9.456442249775696 0.5772068858285652 0.0
9.565795671866349 2.345573662774494 0.0
8.830758563027459 9.247271599108435 0.0
8.523580738257648 4.88015211128435 0.0
5.580123316488715 5.701889892660689 0.0
5.398591029446707 5.685938459654249 0.0
5.367686360823392 1.778740548277203 0.0
9.546603444041448 1.754984055696778 0.0
9.489649223089446 1.641312329051244 0.0
9.617973952467912 3.363804764345866 0.0
9.584322830999731 6.729956156156573 0.0
9.597221861144487 3.948534024289882 0.0
9.49401963819799 8.089507968561776 0.0
9.207321074262563 9.416906871900888 0.0
8.27185428346661 4.464932191097996 0.0
8.207416067213774 4.35878753684812 0.0
8.332747746635944 4.354903699457511 0.0
3.990181919126853 3.930792395858886 0.0
8.267392138262498 4.254008221702929 0.0
7.997788712685495 1.196805377512679 0.0
9.600316638269724 5.639973985281733 0.0
9.550939606739425 5.737313319038155 0.0
9.44084303195315 5.74233753256161 0.0
9.50112296154558 5.834555019909565 0.0
8.897429225733994 6.685415510921676 0.0
8.762930941408914 6.695907295903629 0.0
8.654628175336732 9.278157371342388 0.0
8.544676900803436 9.133790942553834 0.0
5.294904777716057 5.855935872688884 0.0
5.216749389964556 5.66865685845661 0.0
9.508453581298625 2.239460033375932 0.0
9.599691370793206 3.169496930704394 0.0
9.546615051106684 3.073514534194011 0.0
7.484714626923596 5.028675123117963 0.0
9.588496050271255 7.850836295555126 0.0
5.153197381012662 1.471340286561097 0.0
9.433168304679345 3.071871997104804 0.0
9.610464706874994 5.829217654498672 0.0
9.561407772947403 5.926179534044419 0.0
8.273381980676042 5.705233340662362 0.0
8.330794188929296 5.594351887246082 0.0
8.207319603076424 5.596747949305344 0.0
7.251338559467102 5.233758892662348 0.0
8.708518799790543 1.130513882092466 0.0
9.590155250193266 0.5878623138195824 0.0
9.389919385420015 5.841079912164009 0.0
7.991397852194216 5.859910582924319 0.0
9.624951589233206 4.975554514425905 0.0
7.240016788025947 2.531866266726309 0.0
7.635666783493215 3.873554782053258 0.0
9.608476620993713 1.863530872936442 0.0
9.365330459496413 8.10677840682376 0.0
8.775076110585598 2.572737931759856 0.0
8.699389445914996 2.444602334375113 0.0
8.625078713232146 2.580891022578613 0.0
8.54447196848446 2.447624719286678 0.0
8.468898498943965 2.586757328881282 0.0
8.62282309213608 2.307826916202421 0.0
9.622102662978762 6.439307895185218 0.0
9.561995355724862 6.35103962032292 0.0
3.898245450818314 1.856155797593496 0.0
9.681759177700954 5.07069253017652 0.0
9.059254996454502 4.963357716933865 0.0
9.113144532326562 4.861710138088372 0.0
9.62140874877204 2.656009146517733 0.0
7.884510615470827 0.9666888912541309 0.0
8.14902661050739 1.005010215149227 0.0
8.491263206618079 8.527197931363634 0.0
8.408859203395778 8.697060715788105 0.0
6.54422152733529 1.954566069381189 0.0
9.563546573097593 2.755667904356369 0.0
9.453065492925557 2.761122255953964 0.0
9.676889098520615 2.755084315170127 0.0
9.678287124781653 2.556838324720633 0.0
2.60254317790297 2.278874965850319 0.0
9.211706272534968 4.050470567310489 0.0
8.526711683538949 5.698821878547752 0.0
8.296604023060945 8.533761944401608 0.0
9.649704314258118 5.543946557831669 0.0
9.651176136337964 3.85122804518279 0.0
9.44590154800397 9.498503704959054 0.0
9.580491248736612 9.476376347552954 0.0
4.3239388803087 3.921156392977062 0.0
9.65737873521736 3.075324100817917 0.0
8.128000846282253 6.160273991836929 0.0
8.06242981852327 6.292371360998262 0.0
8.500465019503922 1.442700595221201 0.0
9.615253212967009 1.649819368149096 0.0
9.561768620580791 1.538553925606111 0.0
9.435477757657937 1.527391516499924 0.0
9.627993450010088 2.242685831452484 0.0
9.5338252733548 0.4673994795805215 0.0
9.398055066504014 0.4589059948533885 0.0
9.669486082509058 5.920177035588319 0.0
9.621072177439727 6.016493814615133 0.0
9.506185962103057 6.018397021409126 0.0
9.196884440497488 7.898824858961557 0.0
9.112591143666748 7.789491461180181 0.0
9.664357762385308 7.950712034233033 0.0
8.46233617997115 2.308903464128035 0.0
8.547917980328803 2.169381684694277 0.0
8.139931430059324 6.410762600521521 0.0
7.672499127532963 9.099143622036436 0.0
7.91372855627271 9.178704612763656 0.0
8.463425076318451 9.290653726808348 0.0
9.643938029094286 9.335632419679458 0.0
9.647017668702574 0.7068996148634754 0.0
6.241662276606473 5.884018212993202 0.0
6.157742245066693 5.73500474100449 0.0
6.318815619949124 5.730068085823802 0.0
6.247706374231452 5.593094310939028 0.0
6.406948541886973 5.593272398468375 0.0
6.092564106310554 5.587409338401505 0.0
8.535507922245372 5.286142900439676 0.0
8.022959839404006 4.471630490587016 0.0
7.963561162854596 4.581393556789843 0.0
9.683487139413305 1.546750704925431 0.0
9.630761777960082 1.435922217091829 0.0
5.121714348989337 7.950140247572198 0.0
5.136464096196084 8.310254432483559 0.0
5.47349124035624 8.455234262268478 0.0
5.176273618280354 8.687190323573228 0.0
4.796664658962938 8.592678692862421 0.0
9.568705729418735 4.887269869750176 0.0
9.462711651199594 4.88832222094458 0.0
9.674903475028225 4.882285174433025 0.0
5.4996067353406 5.546583260717527 0.0
5.663632234555963 5.557613452957074 0.0
6.829408195405585 1.947174574944512 0.0
5.336529198289861 1.127585641139875 0.0
9.672387559812332 6.34138351957329 0.0
4.463988917379896 2.271060678869338 0.0
8.618048281355405 6.263841736419089 0.0
6.480949808711781 5.74815588680617 0.0
6.562207427719153 5.592185077216444 0.0
6.643040463857446 5.721233693378952 0.0
6.712825900331884 5.588664360236 0.0
6.79240375630333 5.711383948285569 0.0
6.86115931532141 5.584697050428064 0.0
6.939210100691576 5.704407337029545 0.0
7.007668476576536 5.580801046893123 0.0
7.084627386867475 5.702817970154801 0.0
6.633257976075473 5.460881327825488 0.0
6.931430743764456 5.461960451448691 0.0
9.682652370938209 6.533133024505995 0.0
8.761108695241376 9.450742747770144 0.0
9.146031326900015 3.764292700000154 0.0
9.089378801805193 3.661317181076136 0.0
9.514354521818781 8.994988681611192 0.0
8.157650730500988 4.262987189670279 0.0
6.329633198899328 5.4647789391701 0.0
2.340685767996258 2.811285337457589 0.0
7.379572471323651 0.9290892725587991 0.0
4.171878172186605 4.222320767259098 0.0
4.4876601621649 4.16473354200826 0.0
5.336389369563535 6.806464508860387 0.0
9.595468321212476 9.108133206829102 0.0
9.645038675267227 8.982113951305912 0.0
8.393140678816192 4.246338342095281 0.0
8.309440721624494 4.155300532283633 0.0
9.418269339704423 1.9925512363779 0.0
9.662781807969623 0.477809346089035 0.0
8.011297869803792 0.7518828483803571 0.0
8.250149975885678 0.7646904662196189 0.0
9.608674873602773 0.3618049194050078 0.0
8.692696069692623 6.582927327365709 0.0
8.628225948401226 6.705702462696891 0.0
8.701883181418305 6.822086652299242 0.0
8.559276855155542 6.829564723911442 0.0
7.069268463354993 5.459534423493629 0.0
2.654575201159115 3.323490466195074 0.0
3.610801136544596 4.044075244426243 0.0
8.263757217166944 5.48730323490738 0.0
8.138838162809126 5.491254533497952 0.0
7.90196833683664 4.477386962763833 0.0
7.987943097943191 3.978756490171551 0.0
9.704623491880403 3.945605151832784 0.0
9.461009573830147 7.301728818091931 0.0
9.532468631193666 7.399916015174975 0.0
9.582688928417856 7.292330983701011 0.0
9.652579613269625 7.387768793572397 0.0
9.699264016151023 7.282867433965265 0.0
9.633305589700536 7.188543855060478 0.0
9.505576100168666 6.961225778216469 0.0
9.43876966151099 6.342441564206569 0.0
4.908483672172518 6.098703904450545 0.0
9.135448256237908 5.269827196966999 0.0
5.905650502271389 2.025036080946255 0.0
9.709890722072377 9.452748507541063 0.0
9.663337613522643 9.572126259365891 0.0
9.603900123387826 7.495180532331903 0.0
9.720147629525837 7.483400774981126 0.0
9.674588415444239 7.588303295299578 0.0
9.653186673863587 4.039274180923234 0.0
9.053164539680804 4.764545162185531 0.0
9.164908495749003 4.763017269285045 0.0
9.226019227262443 4.858029410614327 0.0
8.809947621994619 3.4964384919072 0.0
9.10538997155458 4.665865142902959 0.0
9.331074106432244 5.748993480915537 0.0
9.055854333858068 7.918554535314415 0.0
9.446431573964945 8.209836764658437 0.0
9.573844810886287 8.191100251691205 0.0
9.309704769895653 8.244395007943949 0.0
7.240329561730736 1.676197957122907 0.0
9.543389817573933 3.660019800390455 0.0
9.598599341122098 3.563130123982772 0.0
9.652615161407017 3.658119804270645 0.0
9.706336063693934 3.564815526226687 0.0
8.632284427755456 6.946688912416058 0.0
9.682863230715835 2.349655023034811 0.0
9.571538455120994 2.142369886250143 0.0
8.090821900439733 9.017409120951333 0.0
6.812258669899192 0.9007667548831626 0.0
6.50135254578461 0.8974046495177885 0.0
9.598335906230732 6.246437748035812 0.0
9.719677442549804 6.253968775436637 0.0
8.593026822691716 5.180101360605356 0.0
5.537586126848265 8.836083861509138 0.0
9.688689404995035 2.143487155934306 0.0
2.821389253975936 6.507820864074362 0.0
9.176571289960709 8.507736431357309 0.0
2.918303740542162 8.256728920338826 0.0
3.428955230180972 8.401446814887457 0.0
8.490587404589881 6.715350139132777 0.0
8.86049054904785 7.243279881821806 0.0
8.93696309213556 7.356650230611625 0.0
3.951931175165697 5.78308550088855 0.0
3.65055612573298 5.91672400098539 0.0
3.668142216548471 6.247526235973777 0.0
9.717269848920886 5.821831227352286 0.0
9.708364917734201 3.164198601626433 0.0
8.45581975650687 4.569560863828342 0.0
8.204448312099833 6.040774355519757 0.0
8.65969449127868 5.485991799508151 0.0
9.707534571012967 5.634423933296901 0.0
9.62102991883279 2.849662850313935 0.0
9.144093558002634 3.560383427867003 0.0
8.29763273805118 1.77155302934031 0.0
5.280452715709455 9.01633391004168 0.0
8.984558945859158 6.99932633710603 0.0
8.4157550875812 1.275784953143711 0.0
2.068078118650995 3.355462780535101 0.0
9.205703884756806 5.568274778556933 0.0
9.745857863753141 7.178456670302003 0.0
9.681628895748586 7.081494416756802 0.0
8.875818787971069 6.240744812097083 0.0
7.993733797566922 6.414830952863579 0.0
8.462810157069566 3.377071044664789 0.0
9.29428363519789 4.759591981903337 0.0
7.933956818298286 5.97437536746848 0.0
9.028281726378319 3.558713145763133 0.0
9.083461773461467 3.455531762175701 0.0
9.73231939683535 2.849247643393067 0.0
6.70072305037728 2.192432536215492 0.0
6.423245125077639 2.212870246546939 0.0
4.931537051605536 1.135086496804522 0.0
4.746426561586179 1.500381091957315 0.0
9.707706579932626 7.836419656220658 0.0
8.590593344701457 1.595639668013959 0.0
8.708946574109854 2.1688179918246 0.0
8.634728854549891 2.028564483452208 0.0
9.230357659411311 8.129337203173913 0.0
9.102841374461482 4.452881308250647 0.0
8.472081531214734 5.388993924853032 0.0
4.925996806199801 5.844046944846857 0.0
4.702806345752284 5.745688656289065 0.0
4.884357002239844 5.633237011762874 0.0
4.709628434300812 5.536404116679045 0.0
4.530800966746534 5.627044171217377 0.0
6.040296145349247 6.603808099703576 0.0
6.162203578696918 6.795213950202512 0.0
5.923135943221574 6.824060069869489 0.0
6.046693245732212 7.010423490915212 0.0
6.297337598588478 6.979895528204233 0.0
7.760448385794147 0.7294020304851334 0.0
8.492228348169641 6.958778476405878 0.0
2.89219822877093 1.704113597264478 0.0
2.26178643438086 1.7814602252425 0.0
9.726968895980871 6.009547057102511 0.0
6.63195110828313 0.6072886418835157 0.0
7.984023036954866 7.515675826210831 0.0
7.893857204140559 7.681876703427663 0.0
7.778465117872411 7.537836322197895 0.0
7.998204230811618 7.844922503023499 0.0
7.798554315988981 7.858161805718108 0.0
7.917846202023782 8.03040048103727 0.0
8.547520504556728 2.721261126162116 0.0
8.39253850806587 2.732073315877738 0.0
8.306047241032278 2.59069854402512 0.0
8.233011054235162 2.739783364361515 0.0
8.318836035587811 2.879838477099622 0.0
8.159530874574331 2.888511553151382 0.0
8.245490421394788 3.024568439743106 0.0
9.759103003747676 3.077839427881478 0.0
8.083610090773394 3.033523757291178 0.0
8.174562583800352 3.166768504406541 0.0
6.046769434852523 1.155662270344939 0.0
6.968371001421964 2.176347877216873 0.0
8.324858098380334 3.152966249334499 0.0
8.145556596142626 2.609897633546475 0.0
8.970652052821418 7.804556541250797 0.0
9.033737629244714 7.681328986528639 0.0
9.62347010002576 4.796939565664328 0.0
9.72520380348743 4.790261082613535 0.0
4.882631186210167 5.455006233451049 0.0
4.618356368594037 3.933076284395493 0.0
4.748083507220199 4.151025177732873 0.0
4.641724290430313 4.358202249373887 0.0
4.87055838101999 4.337900676660481 0.0
4.974114446887331 4.149149057174687 0.0
5.081577844806959 4.3240148266423 0.0
5.179521650033781 4.148725180298481 0.0
5.276261408871418 4.316673822529601 0.0
5.369189110897883 4.148362797753505 0.0
5.463892033849439 4.338819369807593 0.0
5.550828466075906 4.146274465971151 0.0
5.646554822352869 4.303571429647391 0.0
5.728109623160046 4.138582010823754 0.0
5.821689108984419 4.291959598724587 0.0
5.906082534948073 4.141649907302701 0.0
5.99655838673762 4.288752711512514 0.0
6.077312859438928 4.141011188943332 0.0
6.164215275138099 4.281164574562373 0.0
6.241782344986693 4.140701084167517 0.0
6.324316420613108 4.277393447415522 0.0
6.40284165425941 4.140026953305852 0.0
6.483655157361099 4.273418937894759 0.0
6.561170698911611 4.136221843106807 0.0
6.63512300179586 4.269917278694155 0.0
6.720306110251473 4.133393659385058 0.0
6.63777078218551 3.99617001426095 0.0
6.802492763973074 3.994355399489989 0.0
6.798834760478153 4.276914787769972 0.0
6.15377608509923 4.000134206628027 0.0
6.548727135071258 4.400510710520637 0.0
6.251479300130713 4.421887359316258 0.0
5.275876048175579 3.979624500657822 0.0
5.910905077162284 4.431174408784691 0.0
6.717070288412452 3.851239795555301 0.0
6.883499045994213 3.852555480300214 0.0
6.96664848901999 3.994033961856844 0.0
7.048208567116626 3.854750001965969 0.0
5.810004974283072 3.982497501655442 0.0
5.586615391658107 4.471070246359201 0.0
6.547331954052155 3.853872077215347 0.0
5.179081233207816 4.485638492900557 0.0
7.126615227065496 3.995337770596979 0.0
7.209459742762513 3.856893463870469 0.0
7.130226097876905 3.713620439679428 0.0
6.63075064074106 3.699684148676045 0.0
6.446985573861992 3.697358756862005 0.0
7.043151422977365 4.131713936060725 0.0
7.198322215260019 4.129850614748363 0.0
7.119378405252723 4.26005098890218 0.0
4.797146270976422 4.525762781577414 0.0
4.608329098388589 4.573584257851931 0.0
7.294442092743627 3.720853338661503 0.0
7.215753312764997 3.571378507508807 0.0
7.049631633956289 3.568047985538775 0.0
7.133765707749521 3.414282375958479 0.0
9.755079417839903 5.539705890434435 0.0
9.698955703441971 5.450920012703194 0.0
9.717604099406742 9.09084770432896 0.0
9.276716006673976 5.847248422342224 0.0
9.339081208926798 5.941174203394446 0.0
9.031261921742963 3.750271483819014 0.0
9.08721978689863 3.853416037308712 0.0
4.801461566647803 7.510704110489921 0.0
8.206553504932042 5.818005960412773 0.0
7.362361315389098 3.863102442315545 0.0
9.492826845316191 2.963845037486267 0.0
9.376710375304633 2.97229517374228 0.0
9.3192743723601 3.070687802230453 0.0
7.915389082113898 6.293241865913004 0.0
6.735006382384437 5.832450056405368 0.0
8.456481836836168 4.35369289249905 0.0
8.517718268476031 4.246675068616396 0.0
5.583512022030555 5.411069060406398 0.0
5.73625200174779 5.422617752052123 0.0
5.81006929286229 5.548584937688919 0.0
5.903438861894402 5.420604003204523 0.0
5.43801870974416 5.402925156167655 0.0
7.022641548594327 5.825217331839047 0.0
7.165095795605366 5.826005223633447 0.0
7.223078558430726 5.690146755650336 0.0
7.841396000338385 4.586693006493787 0.0
7.904793170875705 4.690826189066096 0.0
7.785999820520073 4.696719777099973 0.0
7.846448506395101 4.798518978096564 0.0
7.728149182067156 4.803800941124008 0.0
7.788983823826226 4.904802634695232 0.0
7.672018889153144 4.910077510508749 0.0
7.731996012352178 5.014717724244488 0.0
7.852072803124419 5.00743796185411 0.0
7.779278698005006 5.118909346425974 0.0
8.088113864063853 5.605434545811022 0.0
8.016457362785575 5.494849890158723 0.0
8.072290383394757 5.385594956317259 0.0
7.95068657972964 5.38825563681957 0.0
8.309366678475389 1.438342408757099 0.0
9.748160780780179 1.447794693754379 0.0
9.696454228162398 1.337889922375316 0.0
9.568813761940916 1.329560834053294 0.0
9.638326779791626 1.226729570935787 0.0
8.472132467407484 5.182856496818138 0.0
8.066211547412054 6.53691730655352 0.0
8.217035586462373 6.522976700918602 0.0
3.544839338670893 3.324491119989469 0.0
6.999740002965287 5.347729916247808 0.0
6.874544698914502 5.347027470386579 0.0
4.880451234715014 5.193043717957879 0.0
9.104510033763066 9.313204713465637 0.0
9.0466357104558 9.45359399494339 0.0
9.146803165140184 9.569652364413551 0.0
8.134107047896672 0.5527712356100052 0.0
8.369770412730738 0.5571215815175228 0.0
8.47386979744655 0.7564607169846485 0.0
8.585193608569258 0.5749174254532757 0.0
8.683868132726584 0.75505070091701 0.0
8.787381435061018 0.5813987798627239 0.0
8.697570280442534 0.3771156480326233 0.0
8.530048434259976 5.077280516000916 0.0
7.995091351438729 2.90367515012593 0.0
9.731083608815164 1.662638626153251 0.0
7.260488865351954 4.255073962371814 0.0
9.760728358076392 8.990038509880067 0.0
9.716710396257366 8.884160310398862 0.0
8.794627466210242 7.369659405098349 0.0
8.868068657550866 7.515048014893154 0.0
8.702594597629135 7.510501129643432 0.0
5.132320689147051 0.7610757801158905 0.0
9.755852887652699 3.853180024615871 0.0
9.787424819067885 2.757921105725315 0.0
9.731193479931608 0.3736343090103709 0.0
9.796526908308536 0.489684029254899 0.0
8.226019692057042 2.453349105940535 0.0
4.560989821496479 5.428206018250252 0.0
4.348810639659689 5.517048281386008 0.0
8.785190163106925 7.119142251269924 0.0
9.015515413043023 7.464769766852701 0.0
9.754861440190705 3.659036930324926 0.0
9.7543610723378 4.033687839160082 0.0
9.707881226943384 4.127219992296752 0.0
9.52841017383273 8.309020665649431 0.0
9.65186044414544 8.289498614805698 0.0
9.714051275521857 8.173576484362068 0.0
8.209758892476394 8.715513071423135 0.0
8.097084883671858 8.548851201381087 0.0
8.177989947800599 8.367872862579052 0.0
7.974142434808908 8.36779470623567 0.0
8.409012054919861 2.142624252464372 0.0
7.707002321497132 8.039129945341395 0.0
7.574653123518228 7.83895791570255 0.0
9.229858094382692 5.951357214361815 0.0
9.75307989876696 1.229893222503321 0.0
9.715811155868643 1.128779429890018 0.0
9.597960915003707 1.117058287635912 0.0
9.672063923518955 1.020806103150243 0.0
8.99090422125785 9.593878510105375 0.0
8.133165456134304 9.257620998029804 0.0
7.976779931497633 9.420725324095141 0.0
9.77231778617502 7.927819487779705 0.0
7.957213679655531 4.364530256281665 0.0
9.609903116082736 8.403725680286847 0.0
9.724891358972584 8.388392708395173 0.0
9.687487059868507 8.495935345161797 0.0
9.810055520269009 8.494090598382963 0.0
9.755967487162335 8.599790818513082 0.0
9.645698986824481 8.606121319182705 0.0
9.721376049217765 8.699989876681524 0.0
9.773009257015609 4.884557953188837 0.0
9.830105798750992 4.796546393900876 0.0
9.775335108731761 4.686093304257503 0.0
7.455611517737074 3.730099283949135 0.0
8.906943567829634 0.4197477661467797 0.0
8.980613334153533 0.5814185917581446 0.0
9.081059111759728 0.4263421860552371 0.0
9.821654809259165 3.576985724143072 0.0
9.761309244784803 3.4792267780002 0.0
9.763329553045937 9.353068233045157 0.0
4.463051839136694 1.164440352584939 0.0
8.0213168204867 5.283436382300235 0.0
7.89385412333227 5.290429544753158 0.0
5.806940001023414 8.583716119232427 0.0
5.88977793877374 8.96065112858812 0.0
9.177759062826041 8.25539130897928 0.0
9.626582559276994 2.05283181283147 0.0
9.747673294325121 2.064954301745188 0.0
8.775905508647185 6.951821187702613 0.0
2.3581644273991 6.029034686663493 0.0
9.777798009058461 9.548066962498762 0.0
9.737129197219856 9.662299853506903 0.0
9.615080366030512 9.683349544763068 0.0
3.315839678697904 6.042943273456425 0.0
8.915083018115329 7.937748428923896 0.0
9.489832173860055 4.712364754630572 0.0
8.118313727862493 8.013944064029838 0.0
8.902248750797776 7.67372145952523 0.0
8.954075939212636 3.463080912810881 0.0
9.45247551997678 2.133243108303608 0.0
8.311151553157742 8.899233004613622 0.0
3.28672004268868 6.826745674539142 0.0
9.86008383798735 3.468233656255824 0.0
8.389990589860254 1.947086063498656 0.0
7.144231739553659 5.329544660076687 0.0
9.654500729007207 7.743301971143119 0.0
9.761920842881946 7.740144345898896 0.0
9.692820773976567 0.2651585113981998 0.0
9.690951720399688 6.100517071814821 0.0
9.775704281989471 6.077882312279847 0.0
9.823117117198079 4.115168542267924 0.0
9.764391943581737 4.214465954230587 0.0
9.659455011849253 4.218716850797838 0.0
9.713462125022623 4.30742830316693 0.0
9.849638067150842 4.208845651573708 0.0
6.376241713254513 3.858766051594979 0.0
6.274931849158213 3.701528298009006 0.0
7.097780104117746 1.926449727602711 0.0
2.457742027508782 3.810157622192786 0.0
2.963634206580268 3.740748099915693 0.0
5.065585416063965 5.544355730437482 0.0
9.783560252464587 7.566507987677117 0.0
9.825819294611026 7.470942204664841 0.0
9.799976114123012 1.01659516618323 0.0
9.745559590633832 0.9150866860898854 0.0
8.20473400632469 9.495828670767946 0.0
8.784586030320169 2.054461500762216 0.0
8.758471587067168 1.888286802854785 0.0
0.9188935087347281 8.510730800272478 0.0
9.674192026048217 9.20389587377276 0.0
9.796314981283475 9.185916994648775 0.0
7.206882433199502 5.452024361489832 0.0
9.773927048949279 6.334665846819535 0.0
9.830288393591173 6.225300227041885 0.0
8.25177349297509 3.282767705830209 0.0
8.099233469407428 3.304040153764131 0.0
9.607860512870598 4.315652630490023 0.0
9.403674738018715 8.367349042046314 0.0
7.611756786273919 5.018691202305147 0.0
7.549513964643336 4.923310232561835 0.0
9.80986724662116 0.2915868356190958 0.0
0.7757562810577034 3.504187313079081 0.0
7.659562100664981 4.698467529240196 0.0
6.539424975891206 3.541729955691742 0.0
6.717348880400739 3.55221857686142 0.0
6.836337579501807 2.417476958454302 0.0
7.096480496160066 5.959124656438389 0.0
7.189742782777612 4.377051328076039 0.0
7.051723187622053 4.38470822973091 0.0
7.125489805519186 4.497018383456762 0.0
6.994915621927777 4.501504591168814 0.0
7.056755276274058 4.607929817497045 0.0
6.932937068803914 4.613249390039674 0.0
6.86629288290367 4.50541343988659 0.0
6.80427099775847 4.617607827251794 0.0
6.739195362053689 4.511124964201849 0.0
6.677260697693361 4.624288827143181 0.0
6.996760608675822 4.711715831373894 0.0
6.316045249462968 0.6456945497683586 0.0
7.321834163850416 5.816449323512759 0.0
7.833101485370825 4.390058096386987 0.0
4.996572652976738 4.498711166259074 0.0
5.112334577457371 4.663858846723513 0.0
5.271923064784868 4.629759173373871 0.0
4.93773508827367 4.668006487116195 0.0
5.348137647919096 4.485934621930562 0.0
5.413454827497575 4.62999925573761 0.0
5.356581113747675 4.770594395332836 0.0
5.013422223730484 4.793321773780133 0.0
8.58674425943957 0.9312335381466886 0.0
8.776450596582496 0.9362399987293505 0.0
4.783496233934828 9.486061758876032 0.0
4.544176394620909 9.034071856445296 0.0
4.082330493623582 9.015765881393772 0.0
9.820867469965414 7.285959215547852 0.0
9.852697883440127 7.166089674802766 0.0
9.260999083164238 2.971390964911171 0.0
9.197701900169713 3.073162109379564 0.0
9.31960210441945 2.867465579641856 0.0
6.660951583415121 3.383363199709994 0.0
5.210469976037585 4.761678854423166 0.0
6.740780285297665 4.733615686805694 0.0
6.611362405615225 4.731958642073806 0.0
6.549091884465382 4.629620704100811 0.0
6.491761716522486 4.733409494449344 0.0
6.425259228542098 4.640546096196947 0.0
9.715556659367534 2.986725573570596 0.0
3.710524324925069 9.463213827486557 0.0
4.768537031214573 4.727001037865238 0.0
5.039413681704655 5.378508462165627 0.0
5.188746429211535 5.440476671296013 0.0
5.172214816037712 5.298914527247826 0.0
4.469063601436893 3.667917323494335 0.0
3.799121596584382 4.741629285988305 0.0
3.661085664896249 4.442847704416992 0.0
3.316563386321876 4.380147387454913 0.0
3.802087298647255 5.26743535640985 0.0
9.738116341343215 8.047178982429934 0.0
9.85106076399546 8.021725551312715 0.0
9.837581050304836 2.844176011307251 0.0
9.664579962075123 4.402853107737106 0.0
9.76433159763034 4.39807801415352 0.0
9.718924973226878 4.487825491046641 0.0
9.826405563645343 4.494594135148365 0.0
4.931068003413168 6.359330991212394 0.0
5.130175746947236 6.201075257041828 0.0
5.143884286052002 6.445382329515047 0.0
4.953395875296406 6.628748468717369 0.0
7.833019185167153 5.400347121613631 0.0
7.766636138801143 5.313240048256084 0.0
9.767038723422333 4.578090619166644 0.0
7.315369355237483 3.441501197259575 0.0
9.556068971301514 0.2347811136726856 0.0
5.733871280791703 4.444861510772459 0.0
5.828809543126846 4.569791247698539 0.0
5.986701526182213 4.562881783985375 0.0
5.912543327921148 4.692966271273211 0.0
6.052130330528581 4.682477327897978 0.0
5.773525984744635 4.697697018456535 0.0
6.121646311546238 4.572302645403103 0.0
6.182349700936326 4.67713231096357 0.0
5.846371383601797 4.808939734754761 0.0
5.117807918383606 5.974361363083184 0.0
6.256132501905665 4.575863546153224 0.0
6.324770064521816 9.645040261272253 0.0
7.345522892050965 4.12581088034536 0.0
9.338523512844539 4.854480276600515 0.0
9.286984287289403 4.959628690044808 0.0
5.676298026114105 4.589279806918992 0.0
5.631257891894775 4.722749088404111 0.0
7.970415275563177 5.621040275419208 0.0
9.565118337557308 7.081391220827488 0.0
9.626201005045262 6.980441083020495 0.0
9.733729506193331 6.979928568877979 0.0
9.684556253529976 6.887102896543928 0.0
9.780785815410074 6.890287441101827 0.0
9.740054813822885 6.794211367612523 0.0
6.462628988057306 7.629921412015864 0.0
6.692564520952154 7.473594130811262 0.0
6.927983108788191 7.570982428592125 0.0
6.899878641134941 7.329306734748538 0.0
7.117542472438434 7.416951094809493 0.0
7.089537168123128 7.186691566729968 0.0
7.296585396514727 7.275888419524222 0.0
6.879678873774065 7.097443005287856 0.0
7.063454637059129 6.967740076426161 0.0
7.329105042924355 7.496317641003757 0.0
6.867084781778411 6.878842928865059 0.0
7.494278796275744 7.351949197351029 0.0
7.462564159480594 7.150140034494138 0.0
7.644835001206406 7.21506678718646 0.0
6.682478929414216 7.008358327294905 0.0
6.449199855715812 7.365660640952548 0.0
7.548139855358765 7.57299228324251 0.0
7.008502809092701 7.844601794812628 0.0
7.371739019901781 7.707688433423657 0.0
5.665345294602155 5.290628720253272 0.0
3.987583013016546 4.486920698115711 0.0
8.893480480320447 0.7785000884179994 0.0
9.715485963651112 0.5955299613117169 0.0
9.761785841543585 0.7048670948649375 0.0
9.670304314877074 4.578896619304786 0.0
8.058509626083154 5.744161686650483 0.0
6.181795443628869 5.462040811515966 0.0
6.256771804808641 5.338464817889848 0.0
6.124070400983443 5.352376180901929 0.0
6.399679261813415 5.349186390888865 0.0
6.477776305607503 5.46505688468465 0.0
6.541624525938461 5.346017118512589 0.0
6.673064575428321 5.339051516933525 0.0
6.599301548842115 5.241958624987057 0.0
9.573774011620444 0.815274945835158 0.0
5.86493292693426 5.877588788523632 0.0
5.552663040119136 6.957487930464628 0.0
5.535080960199246 6.663033131707637 0.0
3.708603689392072 0.5979254716153909 0.0
3.31896983256719 1.188583855309964 0.0
3.895664898001925 1.128137111173669 0.0
6.363360407965353 6.032416442205533 0.0
9.445959758065749 1.070139246426051 0.0
9.50632172780449 1.214052376665338 0.0
9.441030033980638 1.325047485624912 0.0
9.295799464644857 1.341410624832976 0.0
9.184164107767781 1.461677744200096 0.0
6.407191016756832 4.407273313799791 0.0
5.544591888593027 0.7652641669375747 0.0
7.883090151006535 2.497506182548758 0.0
8.073420508370992 2.120510489750234 0.0
5.494822040671399 4.732314720081375 0.0
0.8986976806403217 1.464611451578306 0.0
9.536325549598013 6.83286654168725 0.0
5.972289519322897 5.727532110854501 0.0
9.82203607053145 9.443411729566549 0.0
7.263199949874008 7.064207941227515 0.0
7.233659553805083 6.853135694774254 0.0
9.793310082768443 7.072747972018893 0.0
6.734168931095253 9.67499220075154 0.0
6.941134861034159 9.382328333169653 0.0
7.285822522704258 9.443989747444657 0.0
6.576263515512108 9.333035011158342 0.0
7.160560566479093 9.127732577621245 0.0
6.218711947378506 9.298064908857533 0.0
6.432383355119106 8.980985203293491 0.0
6.795390278360442 9.046043538032663 0.0
8.54677014121837 0.1957422484480979 0.0
8.528696320820908 9.804850950580938 0.0
8.42644965647489 9.604735484095604 0.0
8.010239224104339 9.715048083583248 0.0
8.644359648763341 9.628432815860457 0.0
5.344212921686536 5.526744195650314 0.0
9.760936589662048 7.38409687515441 0.0
9.128187788393989 0.1445485608215519 0.0
9.133307661752394 9.854833215426817 0.0
4.867351616228264 3.944459575003425 0.0
5.905323253270366 7.385600364255367 0.0
5.909045412185362 3.361969954191194 0.0
5.80580919758911 3.569999290452344 0.0
5.578230704221431 3.587842862412673 0.0
6.013352753603037 3.550699073477782 0.0
5.936624955014758 3.721630401607248 0.0
5.735413275357409 3.78528948606432 0.0
5.512538847486775 3.794760621907932 0.0
5.360571639388366 3.618649018042938 0.0
5.134141179590394 3.459385929220745 0.0
6.167399567008798 3.367365990358096 0.0
9.766756262206602 8.291756450136036 0.0
5.486063578307141 9.64505925252771 0.0
9.497624614180321 4.328873442170357 0.0
9.811387324954623 1.570516917365688 0.0
9.389210081887331 4.69150887571586 0.0
9.704395728912932 3.754226393630331 0.0
9.808172776193384 3.748784464356272 0.0
6.549660911932182 4.839747932361234 0.0
6.757415124099031 6.077939876843736 0.0
3.805578542126494 8.040840085419626 0.0
4.232580149691158 8.198659880701744 0.0
4.559765382564095 7.87091698350757 0.0
8.3829075948167 0.9495097054886067 0.0
9.8571301061408 1.456307792614791 0.0
2.005900212453279 4.535525273813588 0.0
1.85904408608185 3.956445706785572 0.0
1.979307922430775 5.474327285927505 0.0
4.387923194305381 4.427191306527721 0.0
9.429258370703248 8.873693567695483 0.0
8.99196583083892 4.664567567015693 0.0
3.050357122593155 5.368999067452741 0.0
2.861107385476722 5.785089447130829 0.0
5.005058958272409 3.711196438448062 0.0
9.8972295764837 2.755337284632969 0.0
9.581048890980513 8.853909321617065 0.0
9.668838904423916 1.762418716497425 0.0
9.716576458425756 1.852218615166234 0.0
9.799043132681442 1.780583141193779 0.0
7.661868217848455 2.880323287492419 0.0
6.780136552904057 5.443858690999834 0.0
6.489544866845868 5.913957888434588 0.0
6.880149522020364 4.134257616716107 0.0
6.970134365280068 4.264072319341612 0.0
2.225481516813409 9.348422240784 0.0
1.843418032490818 8.641605249943353 0.0
2.198000805242772 0.6459947140825729 0.0
8.740020306282506 0.1903932731609072 0.0
6.86957996016679 4.720776242956433 0.0
7.430920333506809 0.2702852342693345 0.0
7.302066064947383 0.6134316505458445 0.0
9.305398039877746 4.64854361125207 0.0
4.078151380865065 5.203425462519088 0.0
4.080704120371218 4.778853303303787 0.0
8.052525541571825 5.965483159581719 0.0
6.367194027835946 4.754896037842673 0.0
8.604191121620719 7.648182513679963 0.0
9.546446695207845 9.234701521982952 0.0
9.018652854946867 3.351011585453845 0.0
9.143853648154607 3.350173119015413 0.0
9.067079866763024 3.245174561579149 0.0
8.991492136849105 3.135578770028028 0.0
9.29603967712795 0.1426516429033488 0.0
9.392428271030795 0.2506306237151588 0.0
9.223973843394301 0.2912279164401488 0.0
8.39375191941536 3.018777714002827 0.0
8.4836475746111 2.88135207267795 0.0
8.741089053946197 9.821127577434911 0.0
9.803966507713174 5.448064463539533 0.0
9.748132240148552 5.359371181503531 0.0
9.850258990973547 5.355211921626304 0.0
9.7965346514158 5.266762244994661 0.0
9.84142096963129 5.171050273734619 0.0
9.738843612428232 5.167483913244169 0.0
9.64168976006725 5.359875132194057 0.0
3.335917453809221 5.671837672982919 0.0
6.962669142802881 1.683222554707996 0.0
7.365210844496719 1.887492842536114 0.0
7.517378971174123 1.677983072937792 0.0
8.00383870208024 6.089394601875145 0.0
1.725435941000569 2.759295503019395 0.0
7.907977929549089 5.102827208603365 0.0
8.052861051278896 0.2683271125209605 0.0
9.80169732768395 3.385443381464333 0.0
9.831597648680848 3.28491948963525 0.0
9.736335895866404 3.316207814499244 0.0
9.597256128490281 3.756160701977744 0.0
8.865819925321706 3.366235906378775 0.0
8.489614436807788 1.757152185195495 0.0
8.88089641144391 1.078983279100314 0.0
7.430923851187758 9.724389499796425 0.0
7.584252919312249 9.509430586267927 0.0
9.744026095940516 2.247117754488748 0.0
9.729961521243718 2.659836747108116 0.0
9.790866569780063 2.558993767350471 0.0
9.736606445116795 2.455104424879619 0.0
9.846806182714698 2.452157456754448 0.0
4.518102112052724 5.141350889745285 0.0
4.519880229178207 4.85678334497067 0.0
9.7302407894617 6.434012603549242 0.0
9.787537474544765 6.523591663056312 0.0
9.744262337067932 6.617499601377625 0.0
9.8406238811518 6.41591236129004 0.0
8.914967252734657 3.579360039684312 0.0
9.154797282599406 5.670753066089419 0.0
4.228839454580575 4.612979739018002 0.0
6.095037541675208 4.42126627187728 0.0
9.304166983880842 9.864854494751789 0.0
9.406445527105628 9.759007358529582 0.0
9.256225114941945 9.700832989525724 0.0
9.796206564635622 2.351215649506205 0.0
9.849373673349081 2.25090453834006 0.0
6.332048155295931 3.511675163099286 0.0
9.069679774213784 3.022879178706259 0.0
9.070599961450037 9.055284879641471 0.0
1.808685691036764 6.331557276533421 0.0
7.120156826652838 4.698481230214924 0.0
7.052894345811342 4.799848851879358 0.0
4.739957520484086 5.369107149361242 0.0
9.389197839958292 7.197139943834638 0.0
9.046688232613976 4.560364044038737 0.0
9.162685461967492 4.562194096410666 0.0
4.227377821420887 1.564128177298305 0.0
9.201090975245227 2.794301402811909 0.0
9.251941624303948 2.677556975242327 0.0
9.186758273070138 2.563916005021366 0.0
9.317609833868786 2.560335260954038 0.0
6.57599191748324 2.437689779955877 0.0
6.305556560534859 2.459112595979303 0.0
6.981058048792093 2.642476994448363 0.0
9.886113463139504 6.510498309609482 0.0
9.250462794607717 6.221362629571698 0.0
9.305373999084068 6.108271307139882 0.0
9.390477915810829 6.228015172491477 0.0
9.44452571968143 6.114582165110393 0.0
9.502105740270528 6.197677857389309 0.0
9.31559697209813 6.331647407124485 0.0
9.370938253597153 6.437386206819511 0.0
9.594764406124872 0.1099001288712305 0.0
9.602872681151728 9.894988341116305 0.0
9.622661196143387 8.076680696281343 0.0
9.769069277144705 5.9102532189237 0.0
2.615076109785583 8.807551523115547 0.0
9.658920005405456 5.730890135691177 0.0
9.76063135061807 5.720703211793342 0.0
8.63963723169499 7.177334225227945 0.0
7.841904391869763 6.41346852896409 0.0
7.764520718520185 6.297267738834625 0.0
9.546492996136271 3.465225175657335 0.0
9.25600964352143 2.219157062786616 0.0
7.625057159226293 7.012987957636062 0.0
9.529121062829038 7.730283486008674 0.0
8.329887090625894 3.845190321147069 0.0
8.265841850823831 3.95687001944245 0.0
8.402006523775544 3.947660780406651 0.0
8.128436391670505 3.968543393650448 0.0
8.46705122470662 3.835767362024195 0.0
8.218867047074696 4.063481375518748 0.0
8.089763413611255 4.08062363292928 0.0
7.939578083855268 4.111915744184436 0.0
3.74991304509639 6.615676756107112 0.0
2.627714335615619 1.170993030860914 0.0
7.046129971268607 6.759930788612616 0.0
8.534603732661887 7.486325780553722 0.0
1.569381386467569 2.042794535871475 0.0
6.228703743210918 1.986421863690014 0.0
6.467030855792859 2.67190498312861 0.0
9.272246093269825 1.975478263632296 0.0
8.05269609263041 3.854522845257449 0.0
8.008595521536957 3.177870309354594 0.0
7.929796740504207 3.350600835935766 0.0
8.048703574664067 3.449582532910417 0.0
9.72947480375618 4.973926800124758 0.0
9.784850360535604 5.072865219810449 0.0
9.896036387646596 5.069261557893528 0.0
9.633140953203334 5.168645132864771 0.0
9.558102991128836 7.602453108835212 0.0
7.278758746505716 3.994295887299482 0.0
8.306681733482405 6.936428510427854 0.0
9.487163072013963 3.757777670075558 0.0
9.532950522284125 5.359403698944497 0.0
9.816036650072329 3.927268437107025 0.0
6.173882586235392 8.734645960664665 0.0
7.972518459433741 5.003005338485466 0.0
8.398453459336153 1.601072016988848 0.0
8.97460527296194 4.040886705742754 0.0
9.037941657530773 4.143578781749325 0.0
8.849604200183613 3.828506169652706 0.0
9.545296177100065 4.042698359132156 0.0
8.595941796785514 5.806754902023664 0.0
8.65588412428292 5.694192853853139 0.0
8.723710665131787 5.801528918332044 0.0
6.861288985046249 6.673713222735126 0.0
8.87477249219366 4.664500928777609 0.0
8.72385765226959 3.608276264790996 0.0
7.145228858696953 5.573648565429618 0.0
7.282945121585866 5.558559688509987 0.0
9.224761401603633 1.602363370249125 0.0
9.609115686587552 2.986868833620756 0.0
9.633989947851914 6.628120633848649 0.0
6.046214325132457 5.45615093027661 0.0
9.017014346798927 5.271996636983457 0.0
9.070824864071271 5.168510834798647 0.0
9.189021391555556 5.166867900487267 0.0
9.123328759137758 5.064718588163964 0.0
9.240587446378079 5.06459430516883 0.0
9.250848280531756 5.267364371053135 0.0
5.773050603406019 5.7192906317521 0.0
8.576466432793914 4.3559007860436 0.0
8.634627802680399 4.253467736542067 0.0
8.461790117175607 5.591735227444779 0.0
8.907610717370224 3.713397213891439 0.0
9.80665594564509 5.628066492225966 0.0
8.985935132601089 4.455263493464225 0.0
9.00640209566022 5.067597672073404 0.0
9.833659276096986 6.976519563917422 0.0
8.0283368553477 4.687271895436317 0.0
8.326580191759327 9.127498457128247 0.0
8.650637373791266 5.07513089931925 0.0
8.701067313435203 2.700069743477523 0.0
4.825307249916392 4.884175191874744 0.0
9.418335984190309 6.858444798015129 0.0
3.91434687300816 8.542956908935874 0.0
5.569239724399552 2.064135034637056 0.0
5.234271567762738 2.128974435011933 0.0
5.757920427527626 2.312422707096966 0.0
5.43365689737979 2.427455772745759 0.0
5.673210219624612 2.602111218343444 0.0
7.214258468265766 6.652783071431555 0.0
9.823626269633962 4.30685540664529 0.0
7.96996639420014 4.794005510174826 0.0
7.616003332725032 0.502676560965646 0.0
3.050634530589821 4.659174799474146 0.0
2.870894249800723 4.246924313393336 0.0
5.285393339952368 6.079037173753393 0.0
9.439954241218905 4.23581687956071 0.0
9.67709722097145 4.710772408106511 0.0
7.40767785509217 4.259947873553335 0.0
8.396202587439676 5.486075637998701 0.0
8.323689688705493 5.372061002264632 0.0
8.191312386254125 5.384662546230823 0.0
5.304380054816289 5.369675374029755 0.0
9.093848379546637 4.047647920840374 0.0
7.916313220758624 3.045043876114836 0.0
8.435854831444637 4.144861908356168 0.0
9.060262453079693 0.7340576053322918 0.0
7.053195520344596 5.238809779682351 0.0
9.621762679347093 2.45205452967588 0.0
8.410730269104743 5.287995309529392 0.0
9.655094569234972 3.472720279371932 0.0
7.982140513923982 6.667914768024983 0.0
8.402690325256646 4.883576657130221 0.0
9.17488654147479 4.962006474835693 0.0
9.013188196102961 8.49700148123058 0.0
9.795977244531603 2.156818021002043 0.0
9.893813711206834 9.545820400859157 0.0
7.965349232662289 4.250048884270795 0.0
8.644264557989125 4.874751532150782 0.0
8.215430976121077 1.26077208565765 0.0
8.379717637669398 8.37324652769609 0.0
9.320026533461409 5.559861899725609 0.0
7.885778178744864 0.4977439426642278 0.0
7.547066983926719 5.125166613071239 0.0
7.657542898944819 5.122996245335209 0.0
7.423918840193691 9.000935553397358 0.0
9.854133000712425 5.541931969512857 0.0
9.328508174398952 2.101486405523264 0.0
9.300749600926641 9.530012105354274 0.0
8.130307182491519 5.277079344947874 0.0
8.346752967392757 4.987627363826086 0.0
9.118404185029991 6.007087846617186 0.0
9.048232213728614 5.89431792713258 0.0
9.088340967655858 5.576242562571367 0.0
8.094762487139027 4.789727191449318 0.0
9.915265904493378 5.749591413470928 0.0
9.92169805280126 6.154216704502091 0.0
9.918022441582268 4.549125436287157 0.0
9.919332362905616 4.849536560132457 0.0
9.914800786693318 6.750595509794719 0.0
9.811792900437824 6.703950687575952 0.0
9.900643083988882 3.749855087409844 0.0
9.912423171222734 3.043228996968949 0.0
9.91892875832665 5.949999999993851 0.0
9.913300070218703 3.960831593817277 0.0
7.709347001661226 4.444236534782706 0.0
7.479443107717332 8.071637285053104 0.0
8.839057072155848 6.807845119358974 0.0
8.972330068019902 6.78765448182788 0.0
8.542093772125282 3.941452413628317 0.0
8.279144752968262 5.930387616620717 0.0
9.393455876855919 4.973162505621418 0.0
9.507123333872533 2.855087674515822 0.0
8.77504684283825 2.317347145885344 0.0
8.394133129040345 4.464046960801843 0.0
5.725509852450801 8.210843960481027 0.0
5.62632390239664 3.967637659758752 0.0
7.910815814627989 4.900765971697654 0.0
8.595808444085467 5.590040244353608 0.0
9.705160502006024 0.8106158419444889 0.0
9.82021247904746 0.808810893177099 0.0
9.218352146075844 4.447736986422823 0.0
9.20781892622228 3.858281726888132 0.0
8.713609974387523 5.178241668554946 0.0
3.55755059259364 8.921522400238844 0.0
9.59122926011489 5.452844834281716 0.0
9.70565100407009 9.77887811062354 0.0
9.826938454219809 9.74303055702321 0.0
7.238962096855633 3.278078153406256 0.0
8.575609105166194 4.567807831727537 0.0
8.936449841121737 4.765835458965493 0.0
5.59323463391086 9.248527978398117 0.0
5.280809113285124 4.886132326418428 0.0
9.328132730893216 6.544753806716806 0.0
9.026944889277736 6.67247283515637 0.0
9.81946239021469 3.007926663525007 0.0
8.677633568960493 6.144049349297466 0.0
8.33427489656924 4.571212803519522 0.0
8.55734024448315 6.382535186588269 0.0
8.692399379422756 6.372347713955898 0.0
8.495817478252626 6.503308565233578 0.0
9.905494734661673 2.544078755559835 0.0
6.177101405266569 7.228490244483556 0.0
9.825373011845263 5.807482724503027 0.0
9.808678508609606 8.118683092442964 0.0
8.397717712407108 7.08010313863416 0.0
7.428555529689225 4.935946611338556 0.0
9.575504958128711 6.125633853639113 0.0
9.154066996197898 4.146562596982661 0.0
8.074381802159323 4.337569667261167 0.0
7.018337246891919 8.843475095716133 0.0
7.970627172560641 2.658650028065857 0.0
7.382546388883145 6.723381543491632 0.0
6.822972334933889 4.884555620881615 0.0
8.343732976791593 6.041576709398377 0.0
7.743680217306919 8.423336160305476 0.0
8.505717922983454 1.115022897794028 0.0
9.113973198216474 6.992972408167606 0.0
5.818882632841168 5.300437503812764 0.0
5.951991891717714 5.279516346785062 0.0
9.450183479138845 5.92934813870612 0.0
8.783346541536119 5.48419035750989 0.0
9.38074895894124 5.65076274999803 0.0
9.513658728876734 7.193620441323493 0.0
6.396040948797887 6.776064256962667 0.0
5.389661780244388 4.89715084345563 0.0
4.473247649068957 5.85935163892416 0.0
9.249586607512612 8.37680799459232 0.0
9.103796366487646 8.379197231055114 0.0
6.274057301184156 4.87985402946409 0.0
9.259628836118232 3.561431822636308 0.0
4.037922477011971 5.489409780163391 0.0
5.62712958624254 4.893925433488392 0.0
8.806426003347967 6.133410188141932 0.0
9.53304466499349 9.59279975429444 0.0
9.542890959420024 1.966631379116419 0.0
7.459736176874619 5.863847835420528 0.0
5.937613117200432 4.89232797168023 0.0
6.171611131472617 4.879541833448487 0.0
6.100695199816815 2.291172318314745 0.0
2.315194906726768 8.081958163666464 0.0
6.878489987598286 5.148099521847569 0.0
9.105264414399338 8.639184652727645 0.0
9.20047261316883 3.457820810661327 0.0
9.895329010385955 7.55944047105717 0.0
9.912742873006831 7.76210330502246 0.0
9.37761459375249 3.168397068877758 0.0
8.946121261512507 6.345629828835438 0.0
9.918632496443566 4.449809517365367 0.0
6.848211525651934 5.945010613369067 0.0
9.915721525903255 2.047407395915179 0.0
6.117255841708726 5.163321965161054 0.0
7.276595248786602 5.347247322210079 0.0
6.32682869954104 5.23674259421017 0.0
8.785886448438022 5.692775375342819 0.0
9.099994401883361 6.776698531382792 0.0
9.913397459621638 0.2499999999998165 0.0
9.910352525643928 0.4481571029410266 0.0
9.907850422008579 0.5479735220323012 0.0
9.911983631350465 9.24778487019403 0.0
9.917634740384067 0.7514684821956668 0.0
9.195214232985496 3.254172408378337 0.0
5.000896927376288 1.846006038077654 0.0
9.917172478547403 8.250155740683276 0.0
9.908120476950126 1.742986232208194 0.0
9.914524635720774 1.949567899316728 0.0
9.907358878377153 9.145625165175748 0.0
9.917695944922635 8.949999999998397 0.0
7.648387553139914 5.325741673607362 0.0
9.605343588986079 4.130627398479715 0.0
6.648113233057817 6.774798386229164 0.0
9.910347203087213 8.446729917003672 0.0
9.913623694530468 8.548470085896316 0.0
9.9201245863254 1.536225488581779 0.0
9.906538426683255 1.059019360781604 0.0
9.912867352010919 8.74999999999809 0.0
9.799662981388353 8.79550485462418 0.0
9.831828680383174 5.99966894118311 0.0
9.91414179906643 1.263025320602998 0.0
9.920690092699912 7.240982963665807 0.0
9.385889285950551 2.235126904097426 0.0
9.28133998925606 8.00415195851526 0.0
9.817074723108401 3.172398890123306 0.0
9.482030285089927 7.512954023388035 0.0
6.682432918504054 7.233889573028878 0.0
8.528699633246763 3.260502457553277 0.0
8.91699963742029 2.327016692708648 0.0
9.267676068834481 3.954520684561369 0.0
8.70811637467455 4.974101624783084 0.0
8.18184214270768 7.816666208279135 0.0
9.690393137288163 5.264344933127836 0.0
6.937111790104696 5.245184991960528 0.0
5.895846026722989 5.174232967273284 0.0
8.281683356622615 6.400073017261236 0.0
9.150883172924027 7.444273543454419 0.0
5.430406600793122 3.390815886517273 0.0
5.049583827974758 5.697634876048387 0.0
8.3966710383105 3.495813899905868 0.0
9.007538428392454 8.046563579784266 0.0
4.645155158868719 2.637132843684674 0.0
4.887444326771336 2.30020425915506 0.0
6.483736782775559 4.522536327482678 0.0
7.843169154548308 8.2116075844056 0.0
5.06295551628385 4.901632590583318 0.0
7.201400991012747 5.138239336380897 0.0
8.519791031104612 8.848807089071627 0.0
8.658623737989732 3.031313729049854 0.0
7.585566208322493 3.629882964874684 0.0
8.411818469596405 6.834326722716643 0.0
9.172363528634236 7.669230647622864 0.0
8.85455683341768 2.682483055215344 0.0
9.359398739738925 1.631421337140716 0.0
9.071793864444992 7.337030604117359 0.0
6.968394563521436 3.712808894519514 0.0
7.899236117684646 7.094583340182754 0.0
9.54362864504834 9.781852543872333 0.0
7.151298729743687 7.644795130415299 0.0
5.452218361466201 5.186873761308322 0.0
5.517642289161902 5.293540933999446 0.0
7.802500357665464 5.978295671754199 0.0
6.594850839687122 8.491429270558893 0.0
6.029132431949566 8.294997405201931 0.0
9.31286590869111 0.5672913838331921 0.0
9.25238720319541 0.4415953739444106 0.0
9.550589523211062 4.228044955453704 0.0
8.748611832783206 6.250900951984038 0.0
7.566980108995873 3.995148257893202 0.0
7.426142759241261 3.996743578498081 0.0
6.478912513785404 4.000296412419969 0.0
9.30435638148753 5.168210982711592 0.0
7.542154188520517 5.752525075248498 0.0
7.219033852073297 2.139582470800704 0.0
7.370913620388047 6.545121498197235 0.0
5.226731036024996 5.187572666585561 0.0
8.515591031124366 4.462223215179979 0.0
6.762864307079274 0.3078036604979366 0.0
8.587432696997471 4.977010533175154 0.0
8.703948448756302 8.815629076400704 0.0
8.081003990931544 7.370949680119862 0.0
7.424404567669909 6.949730915714445 0.0
8.578903262311433 8.377992954045473 0.0
7.301258690263783 6.106184350645308 0.0
5.991600556904204 3.99820087171043 0.0
8.203048538477193 1.601044215405025 0.0
7.289972483120081 4.572350254111052 0.0
7.714697186439165 5.420586967696794 0.0
8.918853780709807 1.841796898567452 0.0
9.919941345877513 4.749808449067644 0.0
7.245589454939737 5.94251251443003 0.0
9.258480524497795 3.358952871140391 0.0
3.705877615124628 5.574038727593425 0.0
8.287096858129765 7.962370605242409 0.0
6.799629860952143 3.705385600481528 0.0
4.146753450763018 6.544154457143895 0.0
7.413973555029582 5.545687501585183 0.0
8.466524978378082 4.980481756569235 0.0
7.336312153537934 2.337983522449311 0.0
7.695505222753409 3.747498713679684 0.0
4.898236813123799 4.795853653580084 0.0
4.59779105899602 1.896916774247134 0.0
8.560170375862322 7.072369101894893 0.0
8.386150468360862 2.449771437140704 0.0
8.41200018115259 5.084601315536367 0.0
5.102189912301071 7.621598618277815 0.0
8.336320418935243 6.71651223072348 0.0
5.081745734883095 3.977838926197614 0.0
7.63590698378166 0.9500570055008507 0.0
7.743369677149255 3.051233984704873 0.0
5.357527459690566 0.3809996753407537 0.0
5.967373112873382 0.7731113464301924 0.0
8.169449265206127 6.666271947462212 0.0
5.95122726745053 5.55758205410881 0.0
9.922289489207834 3.53923011719877 0.0
9.39154684476555 2.659037023454942 0.0
7.701415639167884 7.690060291860976 0.0
9.819179654793023 1.329863870021845 0.0
8.358229579054417 6.506108206863729 0.0
9.269720555169467 5.657096143475924 0.0
4.473187658045934 7.435037860084884 0.0
9.65807158077373 3.255496360750368 0.0
9.605155446454205 8.713645566904637 0.0
7.097383547728313 5.141197376985936 0.0
9.812212483832656 1.89920712759492 0.0
9.83875570675407 6.81603549325055 0.0
8.926246869879279 2.079976511571457 0.0
9.166785856141402 9.169070814302419 0.0
8.763479010228052 1.587152667342957 0.0
5.957377924852992 6.404530806530254 0.0
7.14506854375872 6.10342416684208 0.0
5.672595070581394 5.164323323112049 0.0
4.899782787268781 0.3801727265981219 0.0
4.447133848117348 4.673614099606824 0.0
7.044865074789195 3.253639989243549 0.0
9.818461337102992 7.819456450952447 0.0
9.925334577033155 7.954012377173311 0.0
6.352907898232792 1.173665225954276 0.0
7.351721385581032 5.660361289755705 0.0
9.337367583861807 2.76534436379692 0.0
8.693118347802024 4.360254099729149 0.0
9.476812970101324 0.3524826622168163 0.0
7.109868985890334 0.9024224571333925 0.0
7.899106846231403 5.511805431542581 0.0
8.352799544476607 5.187887629361129 0.0
6.957483547582747 0.6176251309213842 0.0
8.099559500483094 1.412323841044818 0.0
9.913030944540278 0.8542404645334569 0.0
9.143075088381442 8.022165366829135 0.0
8.819861450593166 6.356592599428041 0.0
9.319444417409162 1.49938505915629 0.0
6.490262520326714 7.118204362551877 0.0
6.490874470087819 6.582907761235813 0.0
9.82506653058937 0.6146757679104559 0.0
6.803129818897624 4.419048038171804 0.0
9.840901379354312 0.08198751964190581 0.0
9.839740374244226 9.918356239418472 0.0
8.551927134544655 9.449788917425456 0.0
9.92097857388158 3.249999999993177 0.0
5.797087413057367 7.077351493358238 0.0
9.255412859987286 6.433984412022419 0.0
8.668174522249984 1.740767926084485 0.0
9.920991430240607 6.25262219124529 0.0
7.57275248448898 1.94367954756322 0.0
8.052865444445507 8.19900054463639 0.0
8.748697149245206 4.25201068974208 0.0
9.158270227735827 0.5542256343091421 0.0
5.997487767477439 4.787924707603557 0.0
6.119759900601896 4.78043793682227 0.0
4.353034750397793 8.619182743639561 0.0
8.721093521611476 5.588932824583312 0.0
5.717101151444983 1.123034066822819 0.0
9.825602081347064 8.68753399402474 0.0
8.005502510832988 8.7824052910506 0.0
5.548184234622668 6.408009287230429 0.0
5.77830300433981 6.598697187164234 0.0
9.613093825495433 4.50282172481406 0.0
9.928981132641653 9.74928475696928 0.0
6.613628176297015 4.515513362596662 0.0
1.822126723816303 1.297795131355289 0.0
9.514164594137375 1.43081427463862 0.0
4.735494753432723 3.698541604583975 0.0
9.52844959749262 8.615213629960298 0.0
4.660704511759056 0.7947595073298008 0.0
6.82340845160293 5.239926830264399 0.0
7.885938077030673 7.380147032865134 0.0
7.884599891021201 6.09005968568029 0.0
8.846834820720167 9.653276456345532 0.0
8.457777199486827 0.3851010632068662 0.0
6.66485224572131 8.771510767670392 0.0
9.091499342133352 9.708315832477556 0.0
9.824286725109655 4.976315293637262 0.0
7.848197684391786 5.632217046637356 0.0
3.88430598115417 4.225391362015386 0.0
8.776890759183289 2.809688928468134 0.0
7.393884285023409 3.59397875231041 0.0
6.927568893329758 4.396788356869783 0.0
4.96854327720728 2.662368428358774 0.0
9.1480130720193 3.951479613991279 0.0
7.071049729490975 2.38092990636632 0.0
3.40193058782919 1.686321186206593 0.0
7.612042194200681 4.815904436723407 0.0
9.043395868401339 6.888481825015849 0.0
9.098933057562759 8.152197681006806 0.0
6.058682303253315 3.857501492181965 0.0
3.707092669281355 2.986685502034343 0.0
5.113272509841263 5.189455016444592 0.0
6.960565857079232 3.416349532571279 0.0
8.755151527375476 7.649255597361291 0.0
3.393680865444538 3.679982303262531 0.0
3.117424600120088 3.35605258976247 0.0
8.530814041264104 5.488376426140491 0.0
4.820719767306654 5.106646490188182 0.0
9.918899263509473 4.144927088739744 0.0
9.918194630017027 7.447268230913605 0.0
8.461970084137805 3.144844565847669 0.0
9.924415919486059 6.949999999995354 0.0
7.184050152099684 2.72771667662237 0.0
8.834356715215904 7.801565642745232 0.0
8.689015446783005 4.145232831954543 0.0
8.490778532265319 8.234414357968106 0.0
8.63666290918932 2.83060276219705 0.0
4.61028976098935 4.741894230894578 0.0
6.314735925012879 4.003132559161639 0.0
9.20786580425652 4.67001723737971 0.0
7.141401229301469 4.873205425098625 0.0
6.235177809922153 4.774126344778935 0.0
9.12491895896937 3.145675090615719 0.0
9.255747684068178 3.162525801823036 0.0
8.312852272796098 2.290855459722148 0.0
1.449266720542303 3.363629101350872 0.0
9.525687840398492 4.800807314407045 0.0
4.829905263804087 8.14474456977717 0.0
9.09338914689732 7.563794106183232 0.0
5.389401689694107 5.283808684471545 0.0
8.530979415204587 3.029374286908943 0.0
7.901489077080633 6.535344047486632 0.0
9.218572924671975 5.760893551533255 0.0
8.562382833959296 4.143913974026883 0.0
8.62959127904665 8.974877485888243 0.0
9.408442441596518 9.62276529745719 0.0
7.5034765601713 3.869833107932387 0.0
9.842813436634783 6.600620949014236 0.0
9.826116984327193 8.911617279149695 0.0
7.529907780698261 0.7369111006685982 0.0
7.832164962480427 2.905293639437395 0.0
8.39517908433056 3.267417602291069 0.0
9.823014010107707 9.085319632577246 0.0
9.022314123618541 3.944559746338292 0.0
4.243701230676532 5.332574856090426 0.0
9.816740542566388 1.127839952679595 0.0
8.166775715766304 5.693916696568397 0.0
8.865374421689054 8.068986769641638 0.0
8.761145809863661 6.470583506581853 0.0
8.998345275919851 9.209303502026401 0.0
9.698477487436316 6.706902829754045 0.0
6.439032098063426 0.3109134377713525 0.0
7.562681994382136 4.643158005207056 0.0
9.03999088074715 0.2799354672273258 0.0
5.180741540467516 3.805018725608906 0.0
6.243990330956698 2.718077286244967 0.0
9.79416634023361 0.1815240178579244 0.0
9.926540005061975 2.847049370876555 0.0
9.826476210374608 2.670192168078066 0.0
6.365816673179121 4.536333049275508 0.0
5.546353765219417 4.618331215552614 0.0
9.820703096450293 2.000649418331399 0.0
6.884388790679166 3.561583980715254 0.0
7.431303395649604 5.747824222777201 0.0
8.849816832721245 2.19318290395604 0.0
4.185147517585975 5.697469360586313 0.0
9.165905238119013 5.873664931582344 0.0
7.70479478158537 1.788324620089049 0.0
9.627376046933474 0.9196091445437269 0.0
6.657687963328663 5.144792385996769 0.0
9.83245016645186 0.3925568446109945 0.0
7.483092985762584 9.253837199159435 0.0
5.445348362202234 3.977855663863651 0.0
7.476680532833337 4.837183287808616 0.0
9.572749890969304 8.505160319814301 0.0
9.915853314998252 9.437014513917465 0.0
7.679469018350979 7.390484878021194 0.0
9.418139053434402 4.790576000488359 0.0
8.096967733471567 5.865447162201908 0.0
9.829153508938724 8.378494945652118 0.0
9.926595955569645 5.157718300415699 0.0
8.774484245600224 7.939747459426853 0.0
8.629764448155779 6.481031318922794 0.0
8.961169458302376 3.839036702328818 0.0
4.617199205561317 5.256318959792646 0.0
8.480815774219478 4.031210317621497 0.0
9.708341592512763 3.401018043990571 0.0
7.183974816647467 4.77882314543966 0.0
9.821437962294304 7.659391965474772 0.0
8.150320284869602 2.286501016204562 0.0
9.828114434347311 1.684891358832554 0.0
5.349187766238684 6.538177907133678 0.0
8.076053471314525 2.76180604769483 0.0
4.907713691134565 5.29818629967416 0.0
0.6874399366049438 4.328593906714074 0.0
0.6980011780697519 5.702671170050627 0.0
8.263861466707834 8.182284285231713 0.0
5.838783785156478 4.913981390426639 0.0
7.807619472656604 7.235706382002089 0.0
9.388504256318683 6.022122644748753 0.0
9.929839894767033 6.436189192303577 0.0
8.3205848711706 3.39107920408397 0.0
3.240770542267401 4.019899919523968 0.0
8.059047070496568 2.468855909103855 0.0
9.932479519490421 2.449625056415224 0.0
7.737639000139152 4.580708137963557 0.0
8.26141077223695 0.3940397126348397 0.0
9.69568953371801 1.959951226402445 0.0
6.469120930453264 4.892267070266994 0.0
9.167223997255698 0.8102256463122337 0.0
6.236889648241256 0.9291076084031108 0.0
8.306379082772498 5.268830342852036 0.0
6.716089118890225 5.239344620507032 0.0
9.82511981852641 9.282822358664017 0.0
6.68375719572285 4.404998642130821 0.0
8.913754712375674 6.908138360584365 0.0
6.173250048857013 5.251634416326969 0.0
4.235907497612446 1.924052997345291 0.0
5.151007663981651 2.438629730660893 0.0
8.924254300637541 9.3764975797567 0.0
4.438612423541503 5.287968640901957 0.0
8.571203234299599 1.897009944569934 0.0
6.878800676380218 5.821332862798138 0.0
5.710626178601224 4.792560699857408 0.0
7.149510071621283 5.216310009157644 0.0
2.099966541549645 2.334742113488256 0.0
9.93396330620579 5.350566393301629 0.0
7.143046479323961 8.646955109387985 0.0
7.965747313080266 5.193641450105844 0.0
6.3314394693073 5.135050228240639 0.0
7.665821333021348 6.222698255001823 0.0
6.305321657053551 4.659816230868476 0.0
7.833020917089713 5.208837056143474 0.0
9.41455902676429 2.869725681199307 0.0
8.567151507735133 6.598605357295113 0.0
7.405527786978573 4.377085529441429 0.0
6.552969697053132 5.137148974085434 0.0
9.93630620742063 8.042778076596578 0.0
7.166743296019233 4.593171678848165 0.0
6.595561806063966 5.839366735225723 0.0
6.066152182102007 5.262519562574559 0.0
9.834694151277489 0.9093455747994099 0.0
8.98259191950674 7.579732466796592 0.0
6.465071238839505 5.25485771955322 0.0
9.759759896588413 3.236659507608532 0.0
4.775529448101694 5.224235675150505 0.0
9.935991245222917 7.153416415978829 0.0
0.6530736820718381 9.352299998916202 0.0
0.6449439415299687 0.6468300344151556 0.0
7.804690364869245 4.495816547678174 0.0
9.84503784553893 5.70620404704573 0.0
9.83525329400959 3.826992990746767 0.0
9.922964894244684 4.265000406933376 0.0
8.333767638401964 1.121219971446645 0.0
8.876012546033895 7.019147158538482 0.0
8.172413577824324 3.413096916572049 0.0
7.232233017296214 4.478957103028363 0.0
6.214597295185415 3.852860083673202 0.0
9.85013791746415 4.400709747289421 0.0
3.941627380932058 6.342995010255737 0.0
3.097271569675528 8.77391871286929 0.0
9.292917152323044 6.010976049411984 0.0
8.104342196673183 5.184165973282902 0.0
8.994300084006271 3.652611812846807 0.0
9.937157897030163 5.549999999993244 0.0
8.721368888525245 7.274540720770752 0.0
8.920003648712827 0.9516585309368178 0.0
7.910527456030004 8.536826514867816 0.0
9.846441288756814 4.60515911863952 0.0
9.584942233925151 4.712073182517884 0.0
9.642357858573972 6.805672051759494 0.0
9.797024725252207 9.838837222258014 0.0
9.842451438022124 4.018973836958878 0.0
6.112723137676118 3.704473949316424 0.0
7.574641969193845 3.765362276156904 0.0
7.826594968121701 6.200366572362263 0.0
7.762805366733504 9.34009502796868 0.0
9.56854033867856 1.012566255816665 0.0
7.71256563655353 5.219373702836014 0.0
9.68039392238282 8.786964504862018 0.0
5.910362452777086 9.277662068919813 0.0
7.418090653922814 3.326443419100716 0.0
9.857704179097952 4.697553149694669 0.0
8.452469674653342 8.996585816905599 0.0
9.522351366699843 2.057525484575908 0.0
7.802315574700843 9.548878971475935 0.0
9.938875656926385 3.449999999992592 0.0
8.425189037911712 6.608575180629274 0.0
5.925965231566842 2.523669697740033 0.0
6.654918072256329 5.95749128982984 0.0
9.826748589235729 9.631118448471485 0.0
8.6684585637523 7.39633999085442 0.0
9.844673843931567 3.090088625379724 0.0
9.93613850661301 2.250382721159617 0.0
9.218291993658738 2.892108990205171 0.0
9.83502846611296 8.212781989607324 0.0
7.754136409732265 7.104288507262783 0.0
8.510570542791681 2.036933285735889 0.0
7.757745059307245 4.315798612475442 0.0
7.989231770559189 6.201656630465583 0.0
8.068934521422738 4.198631572122605 0.0
4.957478134450373 9.038766150325067 0.0
7.208661142641733 6.501402463831379 0.0
7.299506095906239 4.363561999234681 0.0
8.250303873550486 2.105322217421675 0.0
8.678637541413377 7.053471135702286 0.0
9.761528395137384 6.163503990672834 0.0
9.84494857233395 8.59999999999775 0.0
9.83825138794677 3.672838954969637 0.0
5.121008544047756 5.808127183024784 0.0
8.343911550360986 4.043535893276861 0.0
9.85324441775315 5.899999999993774 0.0
9.51114465213134 8.41035540646284 0.0
6.505812179224195 6.93390566262983 0.0
6.15572847138365 9.023097246950844 0.0
3.352081892333425 3.024853379890529 0.0
6.433163283162099 8.675072413910678 0.0
8.825744236698243 3.624446391299867 0.0
4.883007294861279 7.819620905924936 0.0
5.876659170760434 5.638247433601083 0.0
6.859400040348503 6.510797998354633 0.0
7.946400945409184 3.500317276373196 0.0
7.496830255505493 6.653194511698024 0.0
9.852183479755313 4.891525833556942 0.0
9.77998778436291 2.922486526124376 0.0
6.774672660492365 5.324728659740495 0.0
5.717254072187427 6.824125962512845 0.0
9.713440940838062 4.63793103997539 0.0
8.859858662536796 0.2721395536350836 0.0
8.37556017530946 9.436653414116012 0.0
7.395237381047616 7.885576562773319 0.0
5.4709157802033 4.511152089197594 0.0
9.489749416979361 9.691840729914848 0.0
4.599216022837964 3.46438688931078 0.0
5.572287492757569 4.807021644849729 0.0
9.926499336309957 9.92730688390086 0.0
9.926499336310107 0.07269311609890093 0.0
9.338127766332573 0.3585313952168247 0.0
6.810761948165162 3.414693294319008 0.0
8.166274345037138 5.943611545564389 0.0
5.2892644736731 6.301081312912763 0.0
9.731911074791544 7.649313380659622 0.0
8.90251102352767 9.50983415326544 0.0
8.997881406541017 1.033666784655452 0.0
5.835124768755703 2.738139962594905 0.0
9.665357480775825 6.185331297099201 0.0
7.656532192558493 8.217157287499347 0.0
9.170463887605525 2.975444721032631 0.0
4.208158615905443 0.8648302238584886 0.0
6.97015686031129 5.933674629077266 0.0
6.181941366523793 3.565885175921835 0.0
3.30313590337911 6.393402837735046 0.0
6.447482061767014 4.816169316820496 0.0
8.185341428749446 4.169172087371246 0.0
4.552595724340015 8.298301336212145 0.0
9.84850676569699 8.999999999998423 0.0
9.846941514449377 7.393642828194986 0.0
7.924592433490734 2.788309934035703 0.0
8.154308714226714 8.853640122009672 0.0
8.876629743004642 1.96110242719995 0.0
7.228849192966834 8.90811350348676 0.0
9.852301635085423 8.296637825215246 0.0
5.219795195341889 5.547413133147649 0.0
9.861497117995457 6.901363010201344 0.0
2.953911258021604 6.136007283255669 0.0
6.93158841067062 4.77708273647784 0.0
9.67540418457871 2.912802891506324 0.0
4.194055958522277 4.437353127730132 0.0
6.133959559341536 0.406856611599261 0.0
8.29952795189331 9.309744645643846 0.0
9.843692337952948 1.209647690818311 0.0
5.164986286280336 6.671544079402435 0.0
9.838533350075606 2.081705440779448 0.0
8.301244777513975 6.604088853319459 0.0
5.471494771710784 2.714598185146428 0.0
8.86534684892311 1.208599471795828 0.0
9.940610684232212 1.451558535868664 0.0
9.40896208432968 1.428353940655538 0.0
2.329177605337097 4.238803555614174 0.0
5.980761651517799 7.182207186682233 0.0
9.66541573964336 0.1719254072074424 0.0
7.220979380229172 7.806128737674462 0.0
1.251721227904697 6.151932667911503 0.0
8.104967286191181 6.057912607875576 0.0
6.650768762224724 4.817922869198292 0.0
6.634976350437587 3.213339182992986 0.0
7.034320437500567 4.898219100342838 0.0
9.502772020064167 6.283064492634301 0.0
8.13187938667684 3.518506862055515 0.0
9.855471943454193 2.599999999994991 0.0
9.056747742708522 8.263936599935574 0.0
4.352645795441222 5.724453640019 0.0
3.744263984699181 1.488951698361357 0.0
5.175860134287045 3.6375726667098 0.0
7.736434712114619 6.400417475661193 0.0
9.857658576695343 6.316607183405179 0.0
7.876525261950537 4.304285002335559 0.0
9.856114384785611 7.914602773442983 0.0
9.848334119947063 0.7059644476295188 0.0
9.59694321995579 6.895814046141667 0.0
5.906465212962551 3.869023950643881 0.0
9.840676994268005 9.364956386459765 0.0
5.355015287544095 3.83518170601625 0.0
6.374090407153147 5.855743754257685 0.0
8.227401290513832 5.297819733684674 0.0
5.451235131977493 4.825706629991923 0.0
6.022070213762754 5.355923882747634 0.0
9.845674433677614 6.108401449483281 0.0
9.835067400944396 7.739582406783081 0.0
8.602026805792988 2.941372356914139 0.0
5.059869081004962 5.269480960018243 0.0
5.284714507903736 5.26496663762182 0.0
9.627110479149561 7.660076105040499 0.0
6.820001127809743 4.792514421153957 0.0
5.120512795059439 4.806607659110254 0.0
9.56933817216883 2.911464407429096 0.0
9.74091654291531 9.267545397628387 0.0
9.93006767325302 6.576784040838644 0.0
9.642486276936268 4.650227701598451 0.0
5.185183328569137 9.410919109238325 0.0
9.37052946854105 4.605636695802024 0.0
1.677077220416309 5.871167715901136 0.0
7.345783833404538 3.184020711886284 0.0
5.419239942654976 5.982692039856376 0.0
6.133318300188262 2.551919945731369 0.0
6.187291396343277 4.499077117404439 0.0
1.231465237822878 3.921479198315213 0.0
8.969849937139944 9.699215363213542 0.0
9.218303154263054 6.037447959776716 0.0
CELLS 4886 19544
3 1113 1356 1450
3 1402 231 1659
3 272 269 1414
3 396 394 1777
3 1451 945 1452
3 194 81 1801
3 1847 1501 2104
3 2024 2121 2479
3 1115 1113 1450
3 1124 1413 1844
3 1061 1955 2409
3 307 305 1645
3 1592 1369 1593
3 238 1501 1847
3 1955 1883 2409
3 1808 243 1910
3 1885 978 2362
3 1440 793 2092
3 189 1488 1608
3 353 350 1864
3 2007 2231 2232
3 307 1645 2493
3 1096 1760 2496
3 2178 874 2179
3 621 625 1595
3 1493 1480 1938
3 1655 1268 2137
3 1341 1410 2212
3 243 1808 2360
3 1902 1446 2516
3 1760 1096 1763
3 856 790 2180
3 2008 2046 2105
3 789 1809 2067
3 694 1543 1575
3 1127 1762 1953
3 1748 807 2228
3 1543 1308 1575
3 820 1872 2170
3 1417 954 1998
3 1369 1592 2386
3 272 1414 1787
3 329 333 1998
3 1544 1095 1545
3 2231 1490 2232
3 1342 1683 1790
3 374 377 1797
3 807 1678 2228
3 1665 198 2128
3 141 142 1620
3 325 322 1952
3 231 1402 1654
3 198 1665 2010
3 1890 1307 2387
3 208 1438 1619
3 2016 1970 2156
3 1436 212 2020
3 954 1417 2333
3 1736 1894 2244
3 1491 1750 2143
3 1677 1064 2146
3 1474 1258 1475
3 1500 233 1930
3 1446 2415 2516
3 1700 973 1800
3 2128 2270 2316
3 1316 1315 1593
3 1307 2341 2387
3 2258 1324 2328
3 1083 1507 1508
3 693 1095 1544
3 621 1595 1596
3 667 1571 1872
3 1932 1766 2061
3 393 391 2240
3 1342 1790 2400
3 252 1707 2234
3 931 978 1885
3 1430 1116 1704
3 1411 1109 1714
3 1478 1227 2440
3 1990 195 2297
3 1792 1167 1985
3 1682 444 1975
3 394 397 1777
3 1711 2028 2162
3 1574 856 2180
3 2008 1851 2046
3 736 1493 1938
3 1069 1060 1662
3 1458 455 1754
3 862 691 1705
3 1161 1642 2286
3 1699 1700 1800
3 447 516 1637
3 955 1482 1483
3 2024 206 2121
3 391 1773 2240
3 1072 1412 1893
3 212 1436 2350
3 1566 1365 1568
3 259 1441 1672
3 872 870 1764
3 330 328 1889
3 1539 1161 2286
3 1897 1898 2275
3 1434 1990 2297
3 1109 1411 1730
3 319 307 2493
3 1762 1761 1953
3 1369 1316 1593
3 1540 834 1832
3 1505 652 2442
3 1732 1655 2137
3 921 1712 2295
3 1872 1388 2170
3 1712 921 2125
3 2028 244 2162
3 1506 1570 1680
3 1569 368 1964
3 1571 667 2375
3 1587 2178 2179
3 196 1723 1737
3 524 2016 2156
3 1528 1250 1733
3 1115 1450 1973
3 1938 1480 1971
3 1809 1396 2067
3 1641 249 2299
3 1223 1258 1474
3 1365 1566 2120
3 1981 962 2316
3 1538 353 1864
3 455 1458 1756
3 152 233 1500
3 1116 1430 1703
3 817 652 1505
3 1347 2003 2004
3 1607 1958 2085
3 194 1801 2195
3 1410 1341 2351
3 223 1415 1710
3 197 1511 2346
3 2198 787 2225
3 81 82 1801
3 1438 208 1620
3 1444 522 1823
3 1511 197 1950
3 726 718 1567
3 1637 516 1739
3 1708 2337 2341
3 1280 1649 2124
3 2337 1395 2341
3 1327 1709 2315
3 1225 1227 1478
3 691 624 1705
3 476 2224 2305
3 830 832 2204
3 1750 1491 2403
3 1366 1897 2275
3 2345 1583 2352
3 2054 405 2110
3 1984 2172 2230
3 1846 2198 2225
3 1177 2042 2418
3 2121 1367 2479
3 1527 1531 1541
3 916 1039 1834
3 1413 1124 2467
3 1622 1503 1868
3 249 1641 2019
3 1805 405 2054
3 1761 1007 1953
3 1415 223 2395
3 960 1756 2203
3 368 1569 2135
3 1402 1659 2473
3 941 1433 2471
3 1267 1477 1501
3 260 2002 2265
3 1704 558 2077
3 2224 1886 2305
3 2053 1386 2199
3 1452 945 1952
3 1717 1611 1718
3 1682 1975 2230
3 1760 1762 2496
3 1481 203 2104
3 1264 1266 1670
3 142 236 1620
3 2133 1182 2179
3 1791 1602 2183
3 350 346 1864
3 1412 1072 2393
3 1281 1575 2255
3 1565 1948 2155
3 849 1449 1513
3 1958 396 2085
3 1339 1069 1662
3 834 1540 1917
3 269 267 1414
3 1268 1267 1501
3 1440 2092 2468
3 1399 1981 2316
3 1635 1636 2041
3 1454 252 2234
3 1451 1305 1890
3 1375 1883 1955
3 362 366 1786
3 1484 2410 2528
3 1449 849 1640
3 1267 1474 1477
3 200 1611 1717
3 1054 1581 1582
3 1350 1977 2253
3 190 1390 2118
3 788 1956 2193
3 1709 1327 1888
3 2233 2298 2413
3 1488 189 2355
3 478 1685 1714
3 230 1525 1690
3 1687 478 1688
3 427 429 1756
3 1570 1065 2476
3 1880 1133 1988
3 1649 656 2124
3 1537 209 1614
3 1134 1769 1986
3 1220 1268 1655
3 396 1777 2085
3 1167 1755 1985
3 2229 1744 2296
3 1575 1281 2287
3 127 240 1882
3 377 647 1797
3 954 329 1998
3 220 1697 1698
3 1342 1341 2212
3 1441 264 1672
3 1512 188 2433
3 763 2345 2352
3 1685 1411 1714
3 1805 1188 1951
3 1347 2004 2157
3 1054 1582 1667
3 1333 1617 1674
3 2217 73 2361
3 1539 1036 1917
3 1039 1292 1834
3 208 141 1620
3 1965 1964 2038
3 693 1544 1969
3 1453 239 2279
3 203 1481 2049
3 945 1451 1889
3 680 1459 2134
3 354 2147 2196
3 1405 1932 2061
3 1723 1722 1737
3 1748 1175 1927
3 1532 1528 1733
3 2057 1824 2154
3 1406 1659 1702
3 1948 1186 2155
3 210 1598 2114
3 1685 478 1687
3 1324 1325 2328
3 1526 1250 1527
3 165 166 1509
3 1493 736 2523
3 1526 1527 1541
3 1390 190 2417
3 522 1444 1998
3 1680 1570 1732
3 1017 1442 2525
3 374 1797 2430
3 1507 1083 2197
3 1756 960 2221
3 2270 1400 2316
3 2205 1452 2282
3 1074 1187 1888
3 2158 1245 2200
3 1442 1017 1684
3 864 1116 1703
3 1750 1751 2143
3 1456 516 1492
3 1677 2146 2149
3 2022 1339 2388
3 1602 258 2183
3 678 1594 1595
3 1245 1670 2200
3 972 830 2204
3 2143 983 2342
3 1268 1501 2226
3 1266 1461 1670
3 1487 222 2465
3 1382 2022 2388
3 58 59 1661
3 2147 1543 2196
3 1484 1485 2410
3 628 2053 2199
3 1906 1549 2259
3 364 362 1786
3 1339 2022 2247
3 1636 525 2041
3 625 678 1595
3 678 1593 1594
3 2212 1410 2222
3 1837 1865 2215
3 1699 1800 1801
3 866 864 1703
3 893 1472 1982
3 1735 1736 2244
3 1633 1255 1922
3 126 127 1882
3 681 867 1656
3 1351 1401 2363
3 11 228 1588
3 1127 1953 2454
3 265 266 267
3 1722 1122 1737
3 1389 1691 2069
3 1613 1610 1616
3 1227 1256 2440
3 429 455 1756
3 1535 1177 2418
3 322 324 1952
3 973 1700 1802
3 1964 368 2038
3 1176 1865 1866
3 1096 872 1764
3 1176 1866 1875
3 193 1839 1892
3 156 157 1441
3 615 617 1596
3 686 1520 2480
3 1409 2097 2305
3 2410 1151 2528
3 1427 2217 2361
3 440 1911 2314
3 1744 1743 2296
3 516 1456 1739
3 1939 589 2164
3 690 931 2150
3 1062 1579 1580
3 1054 1580 1581
3 955 1483 1716
3 1064 1677 2248
3 1956 1616 2193
3 1776 1893 2026
3 1398 1115 1973
3 2002 1453 2265
3 1541 1531 1542
3 216 2191 2536
3 1736 1326 1894
3 1065 994 1066
3 1598 2115 2175
3 2314 1911 2358
3 1433 941 2042
3 2115 1209 2175
3 717 1550 1551
3 188 1941 2433
3 267 1132 1414
3 771 1569 2064
3 1157 1545 1546
3 1231 1250 1526
3 1933 240 2181
3 222 1487 2025
3 1525 230 1765
3 1430 1704 2077
3 757 1744 2495
3 264 263 265
3 883 773 1917
3 739 2205 2282
3 1667 1582 2434
3 1744 757 2474
3 239 1453 2002
3 1441 259 2356
3 2005 1443 2012
3 254 1766 1932
3 1509 166 1679
3 1477 1475 1481
3 793 1440 2165
3 1385 1523 2377
3 1481 1475 2523
3 156 1441 2356
3 1066 1220 1655
3 945 325 1952
3 2094 2087 2134
3 1747 1175 1748
3 253 262 263
3 1327 1074 1888
3 718 715 1567
3 2046 1043 2105
3 240 1933 2399
3 1305 1307 1890
3 224 58 1661
3 1195 1566 2285
3 1590 1393 1749
3 1255 1230 1922
3 353 1538 2073
3 358 1999 2325
3 882 1802 2036
3 1024 1020 1604
3 333 522 1998
3 1401 1351 2414
3 1475 1258 1476
3 2310 786 2364
3 328 945 1889
3 807 1748 1927
3 825 724 1912
3 1742 263 2491
3 267 266 1132
3 2077 2102 2203
3 1431 1432 1860
3 1212 1957 2312
3 2097 476 2305
3 1132 1402 2473
3 717 713 1550
3 1746 693 1969
3 1372 1124 1844
3 1256 1541 2269
3 1977 1350 2274
3 2332 1978 2443
3 874 2133 2179
3 1983 1534 2171
3 1157 1544 1545
3 1230 1228 1922
3 1580 1579 1581
3 1565 806 1948
3 1416 1363 2413
3 1287 1995 2398
3 265 263 266
3 1534 1529 2171
3 1604 1834 2428
3 1255 1633 2509
3 1344 1643 1644
3 1332 1388 1571
3 1423 217 2217
3 2191 1057 2451
3 458 447 1637
3 1250 1233 1733
3 472 2212 2222
3 1175 1747 1840
3 1652 256 1653
3 1073 1347 1572
3 200 145 1609
3 683 640 1585
3 1116 862 1705
3 1221 1223 1474
3 1778 801 1803
3 1503 1622 2471
3 1475 1493 2523
3 464 680 2134
3 14 210 2114
3 579 1880 1988
3 1434 1435 1990
3 1447 2310 2364
3 275 274 276
3 2294 1871 2419
3 814 1068 1684
3 1172 1439 2273
3 273 272 274
3 1363 1416 2406
3 1220 1219 1221
3 1060 1656 1662
3 1099 1792 1985
3 2048 1198 2168
3 1241 1245 2323
3 699 723 1753
3 1640 1862 2070
3 910 1018 1584
3 1586 1067 1587
3 1656 867 1662
3 1067 686 2480
3 654 2242 2294
3 1593 1315 1594
3 1880 553 1974
3 236 1717 1718
3 617 621 1596
3 1723 196 2313
3 402 1877 2116
3 273 274 275
3 2202 1869 2252
3 1510 1358 1767
3 193 1892 2373
3 1188 1805 2054
3 1220 1221 1267
3 1066 1218 1219
3 1517 1097 1518
3 1677 1676 1858
3 686 277 1520
3 268 267 269
3 697 857 1592
3 220 1698 1699
3 1802 1700 2036
3 1612 1537 1614
3 929 817 994
3 228 12 2136
3 2110 2116 2482
3 1659 1658 1702
3 1611 1613 2280
3 1344 991 1643
3 683 1585 1604
3 1638 1358 2404
3 1485 1034 2410
3 2214 833 2424
3 271 272 273
3 1482 955 1962
3 1066 1219 1220
3 931 1885 2150
3 1613 1891 2280
3 1189 1589 2204
3 1566 1195 2120
3 726 1567 2490
3 1122 1722 1874
3 1494 319 2493
3 1671 259 1672
3 1267 1221 1474
3 603 528 1591
3 1664 2128 2316
3 1817 1924 2174
3 1626 1660 2111
3 1474 1475 1477
3 1023 1062 1580
3 1957 1599 2312
3 1764 1939 2164
3 1358 1950 2404
3 200 1609 1610
3 1431 1082 1432
3 1778 1803 2521
3 1830 1832 2075
3 1930 233 2369
3 1329 1482 1650
3 757 1959 2522
3 1239 1247 1597
3 758 1978 2332
3 1569 1290 2064
3 216 1694 2191
3 1453 1420 2265
3 1549 1906 2129
3 24 215 1674
3 19 235 1676
3 1621 1057 2191
3 1691 1389 2262
3 1617 1333 2192
3 929 994 1065
3 1769 1672 1986
3 1893 1412 2026
3 1609 1537 1612
3 271 269 272
3 1373 1438 1620
3 217 1423 2381
3 517 330 1889
3 1322 1055 1667
3 1974 553 2499
3 228 2136 2187
3 1589 1189 1788
3 1999 1577 2325
3 2110 405 2116
3 189 1608 1842
3 1055 1050 1667
3 739 1455 2205
3 1865 1176 2215
3 319 1494 2522
3 2474 757 2522
3 1484 227 1485
3 10 11 1588
3 723 809 1753
3 27 230 1689
3 1550 806 1565
3 1179 1180 1217
3 207 1617 2192
3 1433 1217 1502
3 1562 1556 1606
3 1379 2017 2018
3 1245 2158 2323
3 675 1097 1517
3 884 501 1599
3 1020 683 1604
3 1603 1095 1848
3 1001 2057 2154
3 1604 1585 1834
3 1610 1612 1616
3 1764 870 1939
3 2242 1871 2294
3 1669 1264 1670
3 1658 213 1702
3 1995 1646 2398
3 631 539 1600
3 1491 2143 2342
3 1801 1800 2195
3 1200 1199 1693
3 1535 940 1861
3 1534 758 2332
3 914 2258 2328
3 1588 228 2457
3 216 138 1694
3 151 152 1500
3 1133 1880 1974
3 1677 1858 2248
3 1294 1622 1868
3 875 1010 1767
3 1379 2018 2416
3 1279 2202 2252
3 182 256 1652
3 1592 857 2386
3 672 681 1656
3 615 1596 1824
3 1093 1487 1623
3 1823 522 2100
3 1245 1242 1669
3 1582 1581 1583
3 758 1534 2306
3 1975 1984 2230
3 1358 1510 1950
3 1663 1336 1665
3 2102 960 2203
3 366 1087 1786
3 1740 1490 2231
3 21 207 1709
3 145 146 1609
3 2339 765 2384
3 603 1591 1668
3 2081 199 2149
3 1540 1832 1879
3 1721 1723 1947
3 1754 455 1793
3 1751 1753 2119
3 882 1701 1807
3 1540 1539 1917
3 242 1695 1697
3 1521 354 2091
3 1363 2233 2413
3 1584 1018 1925
3 703 1067 1586
3 1177 1178 1179
3 795 916 1834
3 277 276 607
3 1571 1388 1872
3 22 23 1617
3 1097 823 1177
3 25 26 1624
3 419 418 1790
3 1728 1906 2259
3 440 1455 2261
3 1877 1318 2116
3 1488 1156 1608
3 1439 2130 2273
3 1889 1451 1890
3 1614 209 2389
3 1472 893 2094
3 675 821 823
3 23 24 1674
3 1788 1190 2183
3 917 941 1622
3 1763 1096 1764
3 1068 1442 1684
3 1034 1485 2173
3 2172 1533 2230
3 138 139 1694
3 1065 1570 2197
3 607 674 675
3 1536 1248 2268
3 229 135 1734
3 1437 1925 1926
3 680 510 1646
3 147 209 1537
3 26 27 1689
3 1627 705 2163
3 206 1651 2121
3 2409 1785 2462
3 1492 682 2447
3 1223 1225 1258
3 889 1772 2374
3 253 263 264
3 275 276 277
3 1455 739 2261
3 2022 1382 2176
3 150 227 1484
3 639 1019 1591
3 1449 1640 2070
3 1082 833 2214
3 1503 1502 1504
3 144 200 1717
3 1643 991 1713
3 1190 1791 2183
3 1538 1804 2073
3 1256 2269 2440
3 18 19 1676
3 521 531 2000
3 790 849 2180
3 1075 1329 1650
3 1087 1782 1785
3 1066 994 1218
3 270 269 271
3 682 1492 2494
3 185 252 1454
3 253 158 262
3 1629 1632 1633
3 200 1610 1611
3 1477 1481 2104
3 1623 1487 2465
3 1518 1097 1535
3 1414 1132 2460
3 1179 1217 1433
3 177 1506 1680
3 1392 1017 2525
3 1832 834 2075
3 675 823 1097
3 1459 2094 2134
3 1782 1087 1795
3 1838 1730 2372
3 1639 149 2528
3 1617 23 1674
3 2265 1420 2489
3 180 232 1859
3 1527 1250 1528
3 20 21 1709
3 1083 1508 2311
3 903 866 1703
3 1455 440 2314
3 1187 1858 1888
3 1659 1406 2473
3 1446 1902 2166
3 421 1951 2106
3 1598 210 2115
3 154 259 1671
3 1288 1835 2080
3 1832 1831 1879
3 1258 1225 1478
3 1024 1604 2117
3 1263 1429 1739
3 706 705 1627
3 1583 1581 2352
3 407 1805 1951
3 856 1574 2527
3 1701 882 2036
3 1624 26 1689
3 717 1551 1552
3 1385 2377 2391
3 2302 1745 2354
3 1572 1347 2157
3 1036 883 1917
3 1689 1690 1691
3 1664 1665 2128
3 1476 1479 1480
3 1751 2119 2143
3 815 814 1684
3 1790 889 2400
3 1606 1607 2085
3 265 267 268
3 418 889 1790
3 1522 1521 2091
3 135 136 1734
3 1726 1445 1729
3 647 1796 1797
3 1346 1453 2279
3 1293 1827 2117
3 1242 1244 1669
3 1853 1852 1854
3 889 2374 2400
3 1039 1038 1290
3 1524 628 2199
3 1331 1332 1571
3 1291 1290 1569
3 1475 1476 1493
3 1850 1852 1853
3 1490 1740 2456
3 1689 230 1690
3 1256 1526 1541
3 1704 1705 2167
3 1465 1470 1675
3 956 1073 1572
3 1613 1616 1956
3 916 917 1038
3 2014 1522 2091
3 1221 1222 1223
3 1999 763 2352
3 234 10 1588
3 1697 220 2335
3 1527 1528 1529
3 2298 1600 2413
3 1436 2020 2254
3 1642 1161 1678
3 1523 1385 2436
3 1730 1838 2426
3 795 796 916
3 713 711 1550
3 1456 1263 1739
3 999 1336 1663
3 1785 1784 2462
3 409 415 1783
3 607 675 1517
3 1229 1231 1526
3 1958 1855 2078
3 1589 1588 1590
3 1933 261 2380
3 762 1965 2038
3 1756 1458 2203
3 1776 597 1893
3 1794 1072 1893
3 188 1512 2266
3 1774 2339 2384
3 188 1908 1941
3 1010 1510 1767
3 2189 2285 2307
3 773 834 1917
3 1245 1669 1670
3 1248 1597 2268
3 146 1537 1609
3 818 910 1584
3 1641 1313 1651
3 1217 1745 2302
3 1065 1066 1655
3 1597 1247 2047
3 1360 2177 2376
3 1612 1615 1616
3 2126 867 2186
3 1019 683 1020
3 1747 892 1840
3 1092 1093 1623
3 261 1933 2181
3 400 424 1666
3 1516 1903 2377
3 1100 1392 1605
3 247 1738 1881
3 268 1134 1986
3 1177 823 1178
3 884 1599 1957
3 263 262 2491
3 806 1627 1948
3 1227 1229 1256
3 191 1729 2504
3 1636 1635 2502
3 1480 1479 1601
3 1721 1947 2498
3 1924 1146 2174
3 229 1734 1735
3 175 204 1725
3 1179 1178 1180
3 354 1521 2147
3 665 697 1592
3 640 646 1585
3 627 545 1636
3 1882 240 2399
3 1556 1555 1606
3 1373 1620 2394
3 1871 1071 2419
3 548 1628 1629
3 455 436 1793
3 974 1831 1841
3 1844 1413 2392
3 1612 1614 1615
3 209 1639 1937
3 1329 1330 1331
3 1823 2100 2142
3 1097 1177 1535
3 1021 1020 1022
3 825 1912 2455
3 913 1122 1874
3 400 1666 2113
3 1256 1229 1526
3 1419 1418 2450
3 1552 1551 1553
3 1850 1099 1852
3 1629 1631 1632
3 801 685 2029
3 1618 1619 1621
3 265 268 1986
3 1715 2165 2330
3 1531 1529 1534
3 1022 1024 1576
3 658 693 1746
3 703 686 1067
3 1062 1576 1577
3 1023 1022 1062
3 236 1718 2394
3 1688 502 1740
3 1501 1477 2104
3 213 165 1509
3 646 795 1585
3 196 1737 1738
3 379 679 1795
3 639 640 683
3 924 875 1767
3 1752 699 1753
3 207 2192 2315
3 627 1636 1660
3 1217 1180 1745
3 730 728 1833
3 528 561 1591
3 1444 1417 1998
3 252 186 1602
3 1729 1445 2504
3 460 502 1688
3 1418 946 1778
3 1203 1200 1693
3 548 470 1628
3 849 668 1640
3 646 785 795
3 607 276 674
3 14 15 210
3 147 148 209
3 478 460 1688
3 1709 207 2315
3 1157 1546 1608
3 1155 1731 1899
3 1524 1934 2390
3 1775 921 1876
3 1433 1502 1503
3 470 458 1628
3 1223 1224 1225
3 1291 1569 1964
3 871 1056 1826
3 1781 1783 1915
3 1587 1067 2300
3 916 1038 1039
3 1388 1387 1389
3 1611 1610 1613
3 1075 1328 1329
3 1039 1290 1291
3 1538 1265 1804
3 1184 1185 2163
3 597 598 1794
3 1450 1356 2421
3 1835 576 2080
3 1629 1628 1631
3 1331 1330 1332
3 561 639 1591
3 1476 1480 1493
3 705 703 1586
3 639 683 1019
3 1951 1188 2106
3 436 446 1793
3 1472 1297 2142
3 1332 1387 1388
3 1345 984 1720
3 1329 1328 1330
3 1050 1048 1667
3 150 151 227
3 11 12 228
3 557 541 2256
3 1831 974 1879
3 134 229 1766
3 1357 1358 1638
3 1336 1641 2299
3 1650 1482 1962
3 1591 1019 2512
3 1506 1507 1570
3 1803 801 2029
3 1178 823 1972
3 1552 1553 1554
3 1290 1038 1294
3 1028 1313 1641
3 1237 1239 1597
3 993 1017 1100
3 893 2087 2094
3 149 1484 2528
3 1768 1142 1949
3 9 234 1673
3 1554 1553 1555
3 668 632 1640
3 711 806 1550
3 1628 458 1637
3 1098 1829 1830
3 1482 1331 1483
3 531 1818 2000
3 435 419 1790
3 1156 1157 1608
3 1182 1184 2179
3 510 512 1646
3 1231 1233 1250
3 946 841 1778
3 1483 1331 1571
3 1459 680 2458
3 1166 1040 1210
3 892 1657 1820
3 1042 1445 1726
3 1019 1020 1021
3 749 805 1810
3 234 1588 1589
3 1695 242 1892
3 556 1853 2483
3 1018 1572 1573
3 1529 1528 1530
3 1606 1558 1607
3 1761 1759 2308
3 1396 1032 1921
3 1018 956 1572
3 689 1150 1416
3 1827 1293 2515
3 149 150 1484
3 1647 656 1648
3 1543 694 2196
3 399 409 1783
3 545 525 1636
3 268 269 270
3 715 713 717
3 1100 1017 1392
3 1657 892 1747
3 207 22 1617
3 1666 884 2249
3 1671 1672 1769
3 1554 1555 1556
3 146 147 1537
3 1081 1444 1822
3 711 709 806
3 1443 2005 2322
3 660 658 1746
3 1166 1458 1754
3 916 796 917
3 1056 1728 1826
3 1068 1069 1275
3 184 185 1454
3 158 159 262
3 2007 1687 2231
3 805 1708 1810
3 1672 264 1986
3 1561 1562 1563
3 978 1075 1650
3 1590 1588 2457
3 215 25 1624
3 1551 1550 1565
3 1073 1346 1347
3 857 818 1584
3 1648 656 1649
3 675 674 821
3 561 594 639
3 1731 529 1899
3 2303 1454 2535
3 981 903 1040
3 1630 1629 1633
3 993 877 1017
3 724 718 726
3 512 603 1646
3 1676 235 1858
3 814 1060 1068
3 715 717 1567
3 1796 647 1870
3 1715 1171 2165
3 678 1592 1593
3 644 613 1824
3 1690 1525 2145
3 1297 1822 1823
3 271 656 1647
3 1704 1116 1705
3 1225 1226 1227
3 1275 1069 1338
3 910 956 1018
3 1824 1596 2154
3 1403 1100 1605
3 1221 1219 1222
3 1068 1060 1069
3 1901 245 1949
3 1081 1055 1321
3 1751 563 1752
3 1021 1022 1023
3 672 638 681
3 1095 657 1848
3 1235 1237 1248
3 1561 1556 1562
3 1265 1259 1804
3 524 1819 2016
3 978 1650 2362
3 1492 516 2494
3 229 1735 2061
3 185 186 252
3 157 158 253
3 152 153 233
3 9 10 234
3 1527 1529 1531
3 1808 1344 2360
3 1062 1577 1579
3 1509 1679 1977
3 424 454 1666
3 637 638 672
3 981 1040 1166
3 1555 1558 1606
3 751 749 1810
3 1166 1210 1458
3 1651 1313 2121
3 15 16 2260
3 1633 1632 2509
3 2167 1705 2276
3 551 602 2045
3 697 818 857
3 364 1786 1883
3 832 1189 2204
3 1476 1478 1479
3 678 665 1592
3 213 1509 2096
3 1015 888 1124
3 1062 1022 1576
3 679 1782 1795
3 680 1646 1995
3 1101 1100 1403
3 1109 433 1714
3 1248 1237 1597
3 733 730 1833
3 1702 213 2096
3 499 498 1828
3 1418 1778 2521
3 637 600 638
3 1048 1046 1054
3 1577 1576 1578
3 814 766 1060
3 1279 2252 2292
3 474 470 548
3 199 18 1676
3 157 253 1441
3 1048 1054 1667
3 471 472 2290
3 625 665 678
3 795 785 796
3 1264 1265 1266
3 1437 1926 2350
3 1362 2048 2168
3 1394 2337 2371
3 454 884 1666
3 1022 1020 1024
3 751 1810 1923
3 1046 1023 1580
3 1807 1701 1931
3 1618 208 1619
3 566 588 689
3 1828 498 1829
3 501 509 1599
3 1118 780 1775
3 878 817 929
3 1510 1511 1950
3 1618 1621 1694
3 1052 1081 1822
3 1416 1150 1715
3 1239 1241 1247
3 1396 1921 2067
3 1751 1752 1753
3 1264 1259 1265
3 539 566 1600
3 1762 1127 2496
3 1673 1788 2183
3 1555 1557 1558
3 1052 1050 1055
3 725 724 825
3 1142 1770 1771
3 681 853 867
3 454 501 884
3 1346 1420 1453
3 932 1147 1770
3 1546 1545 1547
3 533 582 1818
3 1266 1337 1460
3 1872 820 2318
3 1117 1119 1713
3 1081 1321 1417
3 1253 1259 1264
3 1569 771 2135
3 1052 1055 1081
3 1181 1178 1972
3 709 706 1627
3 1073 1076 1346
3 1098 1828 1829
3 1382 1380 2176
3 1442 1275 1443
3 919 999 1663
3 1789 828 1855
3 877 815 1684
3 509 539 631
3 992 877 993
3 1266 1265 1337
3 2268 1498 2340
3 1130 1032 1396
3 1095 1603 2508
3 886 826 887
3 531 533 1818
3 1131 1400 1881
3 447 437 516
3 2460 1132 2473
3 940 1535 2418
3 768 1873 2037
3 1813 1869 1954
3 1627 2163 2488
3 1497 1495 1645
3 1198 1409 2168
3 724 726 1912
3 1869 987 1954
3 763 1999 2338
3 1010 1170 1374
3 984 976 1720
3 1470 1743 1744
3 689 588 1150
3 1901 1949 2359
3 1640 632 1862
3 274 272 1787
3 563 564 1752
3 994 817 1505
3 737 1807 1931
3 1770 1147 1771
3 1233 1235 1733
3 2450 1418 2521
3 414 410 1821
3 908 1099 1850
3 1227 1228 1229
3 1692 1203 1693
3 1625 216 2194
3 512 528 603
3 1377 1357 1638
3 1465 1464 1470
3 1360 1359 2177
3 1686 2007 2095
3 1336 1028 1641
3 1857 751 1923
3 1758 572 1759
3 553 541 557
3 1171 1715 1811
3 956 1003 1073
3 1467 1465 1675
3 719 718 724
3 1509 1977 2096
3 1734 1625 1736
3 1503 1504 1868
3 592 597 1776
3 180 181 232
3 162 163 231
3 2308 1759 2370
3 1357 1114 1358
3 875 946 1010
3 509 631 1599
3 17 18 199
3 144 145 200
3 1099 906 1792
3 1469 1467 1494
3 605 589 1939
3 1208 1205 1211
3 354 344 2091
3 692 782 804
3 1010 946 1170
3 1463 1462 1464
3 716 715 718
3 714 713 715
3 271 273 656
3 139 1618 1694
3 549 277 686
3 673 672 766
3 1378 1377 1379
3 2007 868 2095
3 999 1028 1336
3 1208 1211 1447
3 601 545 627
3 1119 1643 1713
3 1332 1333 1387
3 910 912 956
3 520 521 2000
3 828 1789 1819
3 277 607 1520
3 1338 1339 2247
3 818 819 910
3 767 766 814
3 712 711 713
3 1494 1467 1675
3 639 594 640
3 2044 557 2256
3 235 20 1709
3 1620 236 2394
3 804 919 962
3 1862 702 2070
3 681 852 853
3 1559 1556 1561
3 1622 941 2471
3 2165 1440 2330
3 612 644 692
3 697 698 818
3 1903 1516 1994
3 371 379 1795
3 428 426 2138
3 1290 1294 2064
3 1384 1904 2432
3 566 689 1600
3 471 452 472
3 1092 1091 1093
3 1002 1131 1719
3 1090 1089 1091
3 875 841 946
3 1758 1760 1763
3 1562 1606 2085
3 1833 1830 2075
3 178 179 214
3 164 165 213
3 769 923 1815
3 692 644 782
3 804 782 919
3 182 183 256
3 160 161 257
3 1329 1331 1482
3 962 1663 1664
3 1177 1179 2042
3 403 405 1805
3 1461 1460 1462
3 140 208 1618
3 1859 232 1860
3 274 1787 2099
3 1381 2126 2186
3 1558 1560 1789
3 430 428 682
3 452 435 1683
3 1487 1156 1488
3 1470 1464 1743
3 597 1794 1893
3 1244 1253 1669
3 962 919 1663
3 258 8 1673
3 1087 1785 1786
3 970 1042 1726
3 199 1677 2149
3 1664 1663 1665
3 1229 1230 1231
3 991 827 1713
3 792 1603 1848
3 1822 1444 1823
3 665 666 697
3 19 20 235
3 142 143 236
3 728 1098 1833
3 532 530 1898
3 1015 1124 1372
3 1546 1547 1548
3 1851 1850 1853
3 1877 393 2240
3 923 1105 1815
3 1090 1091 1092
3 687 686 703
3 1683 435 1790
3 887 826 1961
3 684 663 1089
3 426 1934 2138
3 464 510 680
3 853 854 855
3 568 572 1758
3 1376 1357 1377
3 1205 1203 1692
3 1607 1789 1855
3 710 709 711
3 780 781 1775
3 1434 1103 1435
3 876 815 877
3 766 672 1656
3 1393 1590 2457
3 684 1089 1090
3 530 890 1898
3 926 1920 1943
3 696 414 1821
3 1563 1562 1777
3 1054 1046 1580
3 1398 1973 1974
3 137 216 1625
3 1210 1040 1430
3 1750 563 1751
3 2010 1665 2299
3 1510 1374 1511
3 1777 1562 2085
3 1707 252 1791
3 1932 1404 1933
3 459 438 1814
3 139 140 1618
3 1093 1156 1487
3 231 163 1658
3 699 722 723
3 1545 1095 2508
3 598 612 1794
3 579 554 1880
3 1941 1908 2401
3 1231 1232 1233
3 1831 1829 1841
3 1037 1383 1799
3 177 178 1506
3 636 600 637
3 1036 1539 2286
3 1356 1114 1357
3 1523 1516 2377
3 704 703 705
3 403 402 405
3 648 792 1848
3 723 756 808
3 1388 1389 2170
3 933 932 1770
3 223 1710 1711
3 1779 399 1783
3 1223 1222 1224
3 1028 1029 1313
3 257 161 1654
3 418 412 421
3 734 882 1807
3 693 657 1095
3 1368 1370 1436
3 136 137 1625
3 688 652 817
3 1075 1327 1328
3 540 479 1813
3 398 395 402
3 548 1629 1630
3 574 591 699
3 1469 1494 1495
3 1041 1598 2175
3 167 168 202
3 175 176 204
3 2045 2046 2201
3 186 187 1602
3 886 887 888
3 1253 1254 1259
3 8 9 1673
3 792 655 810
3 843 1145 1960
3 1180 1349 1745
3 1165 1345 1512
3 708 706 709
3 136 1625 1734
3 21 22 207
3 140 141 208
3 625 626 665
3 1093 1094 1156
3 1585 795 1834
3 1117 1713 1806
3 599 579 600
3 810 871 1826
3 1047 1046 1048
3 1292 1291 1293
3 161 162 1654
3 199 1676 1677
3 1260 1282 1804
3 1005 1142 1768
3 1233 1234 1235
3 792 810 922
3 1122 1719 1737
3 976 985 1720
3 1278 1279 2292
3 2390 1934 2531
3 1436 1437 2350
3 270 271 1647
3 1199 966 1846
3 1683 1342 2212
3 656 273 2124
3 699 591 722
3 1977 1139 2096
3 1738 1719 1881
3 1722 985 1874
3 1797 1448 1798
3 162 231 1654
3 632 604 1862
3 252 1602 1791
3 1051 1050 1052
3 1045 1023 1046
3 648 655 792
3 993 1100 1101
3 1321 1055 1322
3 806 709 1627
3 904 903 981
3 1220 1267 1268
3 648 605 655
3 1737 1719 1738
3 385 399 1779
3 506 499 1828
3 1132 266 1402
3 1170 1418 1419
3 1323 2302 2354
3 24 25 215
3 137 138 216
3 721 965 1919
3 1787 1414 2460
3 778 1117 1806
3 723 722 756
3 407 403 1805
3 564 574 1752
3 1049 1048 1050
3 842 841 875
3 1608 1546 1842
3 809 808 899
3 1517 1519 1520
3 1530 1532 1533
3 889 421 1772
3 913 1002 1122
3 1314 1316 1367
3 1017 877 1684
3 841 802 1778
3 1235 1236 1237
3 751 1857 1900
3 1114 924 1767
3 1344 1644 2360
3 1895 1394 2371
3 1518 1535 1861
3 1758 1759 1760
3 1122 1002 1719
3 546 563 1750
3 1056 1726 1727
3 663 660 1746
3 621 622 625
3 1720 985 1721
3 1857 1843 1900
3 808 756 913
3 1056 970 1726
3 27 28 230
3 134 135 229
3 908 906 1099
3 163 164 1658
3 1727 1726 1729
3 7 8 258
3 154 155 259
3 1101 1403 1404
3 808 913 1874
3 1260 1269 1282
3 1389 1387 2262
3 1297 1053 1822
3 1555 1553 1557
3 1463 1464 1465
3 230 28 1765
3 1237 1238 1239
3 554 553 1880
3 775 778 1806
3 985 899 1874
3 1270 1524 2199
3 489 1820 1936
3 692 1072 1794
3 1472 2142 2272
3 1845 496 1929
3 438 431 1814
3 613 615 1824
3 1241 1242 1245
3 1783 415 1915
3 1192 2081 2149
3 178 214 1506
3 1816 988 1817
3 1760 1759 1761
3 1103 1092 1623
3 1512 1345 1661
3 1876 921 2295
3 1165 984 1345
3 978 1074 1075
3 1239 1240 1241
3 542 541 553
3 813 988 1816
3 1148 984 1165
3 871 970 1056
3 472 452 1683
3 1207 1796 1870
3 1167 1166 1754
3 1296 1053 1297
3 966 964 1846
3 976 899 985
3 982 976 984
3 702 1815 2015
3 900 899 976
3 1143 995 1206
3 1576 1024 1827
3 1235 1248 1733
3 1558 1557 1560
3 943 995 1143
3 1920 1144 1943
3 1471 2115 2477
3 29 30 255
3 132 133 254
3 1630 1633 1634
3 1225 1224 1226
3 1925 1573 1926
3 1211 1205 1692
3 725 825 826
3 1113 924 1114
3 600 579 1988
3 717 1552 1567
3 1820 1657 1936
3 674 276 2099
3 395 393 1877
3 572 543 1897
3 1575 1308 2255
3 999 1000 1028
3 1118 1775 1876
3 1797 1798 2430
3 526 546 559
3 867 853 2186
3 1142 1771 1949
3 1068 1275 1442
3 679 385 1779
3 1607 1558 1789
3 580 568 1758
3 1244 1252 1253
3 1760 1761 1762
3 398 402 403
3 1476 1258 1478
3 418 421 889
3 1771 1147 1839
3 164 213 1658
3 1720 1721 2267
3 1668 1591 2512
3 1042 1128 1445
3 1098 1830 1833
3 1102 1092 1103
3 2249 884 2466
3 1104 1103 1434
3 410 416 1821
3 514 513 541
3 580 1758 1763
3 637 673 1741
3 1913 936 1914
3 1394 1395 2337
3 919 920 999
3 577 554 579
3 2111 1660 2263
3 231 1658 1659
3 612 613 644
3 568 543 572
3 770 775 1806
3 1445 1128 1446
3 1546 1548 1842
3 448 460 478
3 810 870 871
3 1789 1560 1819
3 1154 1082 1431
3 873 973 1802
3 379 385 679
3 837 850 921
3 1461 1462 1463
3 1346 1076 1420
3 1088 1344 1808
3 2125 1143 2353
3 931 977 978
3 882 772 1802
3 29 255 1765
3 849 1513 2180
3 1713 827 1806
3 1130 1396 1397
3 681 638 852
3 1417 1321 1873
3 1654 1402 2530
3 502 526 1740
3 1124 888 2177
3 1266 1460 1461
3 515 1175 1840
3 1253 1264 1669
3 479 466 1813
3 1727 1729 1757
3 379 380 385
3 1971 1480 2514
3 1637 1739 2459
3 1207 1205 1208
3 529 519 1899
3 1129 1845 1929
3 224 1661 2267
3 192 1856 2361
3 732 734 1807
3 1184 2163 2435
3 1119 1120 1353
3 415 414 431
3 719 724 725
3 559 546 1750
3 871 872 970
3 1038 917 1622
3 574 699 1752
3 166 167 1679
3 1117 1118 1119
3 1409 1196 2035
3 617 619 621
3 1172 1173 1439
3 1191 1005 1768
3 664 663 684
3 494 493 1841
3 890 529 1731
3 840 802 841
3 493 974 1841
3 385 386 399
3 679 1779 1780
3 371 376 379
3 416 433 1109
3 670 769 1815
3 902 866 903
3 1780 1779 1781
3 480 515 1840
3 970 971 1042
3 433 448 1714
3 28 29 1765
3 1005 949 1142
3 778 780 1117
3 959 1037 1799
3 1073 1003 1076
3 535 532 1898
3 1119 1118 1120
3 658 657 693
3 1378 1379 1380
3 1397 1396 1809
3 1610 1609 1612
3 1819 1560 2016
3 1837 952 1865
3 1719 1131 1881
3 1131 1399 1400
3 1352 1138 2058
3 399 406 409
3 548 1630 2041
3 1275 1338 2251
3 582 1816 1818
3 1835 1836 2144
3 993 1101 1980
3 1699 1698 1700
3 2407 364 2505
3 1189 1190 1788
3 1117 780 1118
3 1830 1829 1831
3 637 672 673
3 692 804 1072
3 1204 1203 1205
3 1374 1170 2139
3 612 692 1794
3 1642 1408 2286
3 723 808 809
3 450 459 1812
3 409 410 414
3 802 801 1778
3 1853 1854 2483
3 1042 1127 1128
3 1199 1846 2225
3 1147 990 1273
3 1383 1384 2432
3 432 431 438
3 1353 1120 1390
3 1093 1091 1094
3 2020 250 2254
3 148 149 1639
3 606 605 648
3 1970 2016 2422
3 2201 2046 2327
3 475 471 513
3 412 407 1951
3 1991 246 2139
3 727 695 728
3 1673 234 1788
3 1554 1556 1559
3 1089 663 1746
3 1846 964 2056
3 923 991 1088
3 409 406 410
3 729 728 730
3 1424 1427 1856
3 1473 1911 2407
3 1376 1377 1378
3 1010 1374 1510
3 853 852 854
3 366 369 1087
3 772 873 1802
3 1219 1218 1626
3 1766 229 2061
3 1088 991 1344
3 922 810 1826
3 518 506 695
3 405 402 2116
3 962 1664 2316
3 913 942 1002
3 932 990 1147
3 629 813 1816
3 876 877 992
3 399 386 406
3 932 845 990
3 1002 1123 1131
3 843 996 1145
3 781 837 1775
3 262 2304 2491
3 431 696 1814
3 1273 1695 1892
3 731 730 732
3 737 732 1807
3 439 438 450
3 1829 498 1841
3 800 685 801
3 767 814 815
3 1060 766 1656
3 673 766 767
3 1403 1605 1882
3 716 718 719
3 1338 1069 1339
3 847 752 1843
3 864 862 1116
3 2302 443 2519
3 923 827 991
3 526 559 1740
3 1911 1473 2358
3 1085 1310 1867
3 809 899 900
3 1227 1226 1228
3 729 730 731
3 1436 1370 1437
3 731 732 737
3 769 827 923
3 456 452 471
3 1433 1503 2471
3 1435 1103 1623
3 385 380 386
3 1141 1787 2460
3 1354 1088 1808
3 657 649 1848
3 415 431 432
3 484 892 1820
3 727 728 729
3 855 854 1450
3 1721 1722 1723
3 1643 1353 1644
3 1145 1916 1960
3 1421 1191 1422
3 466 1812 1813
3 943 944 995
3 1356 1357 1376
3 714 715 716
3 1156 1094 1157
3 598 611 612
3 631 1600 2298
3 590 589 605
3 965 969 1919
3 416 1109 1821
3 242 1697 2335
3 1548 1547 1549
3 550 573 584
3 584 604 632
3 409 414 415
3 712 713 714
3 642 670 702
3 818 698 819
3 1006 1005 1191
3 1624 1689 1691
3 169 170 237
3 173 174 238
3 956 912 1003
3 937 936 1913
3 1317 1025 1875
3 515 540 550
3 973 1799 1800
3 973 959 1799
3 518 695 727
3 910 819 912
3 584 573 604
3 1170 946 1418
3 173 238 1847
3 550 540 573
3 982 984 1148
3 900 976 982
3 441 435 452
3 448 478 1714
3 1849 1648 2173
3 1631 1628 1637
3 1830 1831 1832
3 1383 1216 1384
3 734 772 882
3 949 933 1770
3 1332 1330 1333
3 574 575 591
3 1105 1088 1354
3 702 670 1815
3 498 494 1841
3 827 770 1806
3 873 959 973
3 1390 1391 1415
3 450 438 459
3 950 949 1005
3 351 362 364
3 1313 1029 1314
3 432 438 439
3 837 838 850
3 1273 1274 1695
3 850 851 943
3 911 952 1837
3 1259 1260 1804
3 566 587 588
3 1037 1216 1383
3 1337 1265 1538
3 1087 369 1795
3 810 655 870
3 1559 1561 1566
3 1147 1273 1839
3 732 733 734
3 1662 867 2126
3 890 1731 2241
3 1854 1852 2397
3 515 479 540
3 451 450 466
3 697 666 698
3 1367 1316 1368
3 662 660 663
3 365 355 694
3 1358 1114 1767
3 379 376 380
3 1796 1448 1797
3 179 180 1859
3 790 668 849
3 569 568 580
3 690 860 931
3 466 450 1812
3 431 414 696
3 1973 1133 1974
3 651 649 657
3 467 466 479
3 1288 1289 1835
3 264 265 1986
3 1302 1303 1304
3 592 596 597
3 1873 1321 2037
3 544 543 568
3 275 277 549
3 209 1937 2389
3 539 565 566
3 1485 227 1486
3 2384 2190 2408
3 1781 1779 1783
3 480 479 515
3 689 1416 2413
3 1108 1161 1539
3 1867 1310 1895
3 1300 1301 1302
3 1695 1696 1697
3 633 632 668
3 1304 1451 1452
3 988 911 1837
3 168 169 1724
3 969 1012 1172
3 582 629 1816
3 1843 752 1900
3 629 812 813
3 710 711 712
3 1782 1780 1784
3 536 535 543
3 1089 1746 1969
3 1108 1107 1161
3 1514 1426 1856
3 486 484 1820
3 369 371 1795
3 1817 988 1924
3 493 609 974
3 1422 1191 2023
3 1426 1424 1856
3 842 875 924
3 922 1826 2259
3 989 1361 1886
3 928 1070 1288
3 669 668 790
3 1113 1114 1356
3 1027 847 1843
3 728 695 1098
3 734 735 772
3 975 1107 1108
3 955 859 1962
3 813 911 988
3 1208 1448 1796
3 1101 1405 1980
3 602 676 2045
3 586 581 589
3 546 547 563
3 493 491 609
3 628 1524 2390
3 348 344 354
3 1298 1299 1300
3 509 538 539
3 974 609 975
3 813 891 911
3 871 870 872
3 1355 1354 1423
3 489 486 1820
3 778 779 780
3 1025 1176 1875
3 772 773 873
3 803 1743 2347
3 167 202 1679
3 873 883 959
3 1483 1571 2375
3 427 1756 2221
3 540 1813 1954
3 1202 1200 1203
3 959 1035 1037
3 837 921 1775
3 1304 1305 1451
3 1799 1383 2195
3 604 642 1862
3 1470 1744 2474
3 1854 2397 2453
3 1282 1269 1386
3 1573 1572 2157
3 472 2222 2290
3 1307 1708 2341
3 769 770 827
3 1037 1215 1216
3 791 790 856
3 1053 1052 1822
3 1056 1727 1728
3 1341 1138 1352
3 1300 1299 1301
3 1814 696 1838
3 1198 1196 1409
3 492 491 493
3 439 450 451
3 1171 858 2132
3 1259 1254 1260
3 665 626 666
3 970 872 971
3 258 1602 2357
3 1296 1297 1472
3 490 489 491
3 516 437 2494
3 1298 1027 1299
3 846 845 932
3 501 508 509
3 460 461 502
3 448 449 460
3 482 480 1840
3 1229 1228 1230
3 604 641 642
3 1424 1423 1427
3 502 503 526
3 1028 1000 1029
3 935 933 949
3 1084 1085 1867
3 2028 1711 2353
3 1513 1426 1514
3 892 482 1840
3 852 638 1988
3 402 395 1877
3 738 737 845
3 413 412 418
3 1119 1353 1643
3 526 527 546
3 280 279 281
3 1731 1155 2123
3 1042 971 1127
3 1208 1447 1448
3 433 434 448
3 262 159 2304
3 184 1454 2303
3 1051 1052 1053
3 1816 1817 1818
3 1081 1417 1444
3 781 836 837
3 911 951 952
3 1090 1092 1102
3 202 168 1724
3 1085 1309 1310
3 408 407 412
3 1337 1538 1864
3 1515 1514 1516
3 530 529 890
3 1517 1518 1519
3 549 686 687
3 923 1088 1105
3 404 403 407
3 1835 1289 1836
3 1314 1367 2121
3 1380 1379 2416
3 670 671 769
3 899 808 1874
3 1040 903 1703
3 1596 1595 2154
3 1496 1495 1497
3 636 637 1741
3 1377 1638 2288
3 1288 1070 1289
3 1072 804 1981
3 1129 1334 1845
3 1865 1084 1866
3 792 922 1603
3 1253 1252 1254
3 981 1167 1792
3 1302 1301 1303
3 1641 1651 2019
3 952 953 1084
3 1813 1812 1869
3 732 730 733
3 975 1106 1107
3 1142 949 1770
3 981 1166 1167
3 840 841 842
3 451 466 467
3 1273 990 1274
3 1049 1050 1051
3 1473 2407 2505
3 968 966 1199
3 642 643 670
3 1310 1309 1311
3 422 419 435
3 1063 833 1082
3 919 782 920
3 911 891 951
3 1084 953 1085
3 1763 1764 2164
3 1498 1497 1682
3 515 550 1175
3 1079 937 1913
3 642 702 1862
3 845 737 1931
3 1394 1311 1395
3 1395 1521 1522
3 467 479 480
3 1755 1754 1793
3 1231 1230 1232
3 1557 1553 2030
3 1624 1691 2262
3 584 632 633
3 1094 1091 1969
3 708 709 710
3 1948 1627 2488
3 952 951 953
3 1102 1103 1104
3 1047 1048 1049
3 1310 1311 1394
3 1852 1099 1985
3 143 144 1717
3 813 812 891
3 1944 1044 1945
3 1105 1354 1355
3 1300 1302 1455
3 1914 936 1940
3 1415 1391 1710
3 1299 1027 1843
3 952 1084 1865
3 1695 1274 1696
3 776 774 1928
3 282 281 283
3 2003 1347 2279
3 1206 995 1499
3 1164 1685 1686
3 1551 1565 2030
3 969 1172 1919
3 633 668 669
3 734 733 735
3 1373 1372 1438
3 599 600 636
3 1431 1860 2487
3 1579 1577 1999
3 484 482 892
3 917 940 941
3 2144 1836 2169
3 1866 1084 1867
3 1110 1747 1748
3 998 1171 1811
3 1390 1120 1391
3 644 1824 2057
3 1362 1961 2048
3 944 1283 1825
3 1086 1027 1298
3 679 1780 1782
3 974 975 1879
3 507 506 518
3 1121 1079 1401
3 775 777 778
3 1965 762 2349
3 1045 1046 1047
3 1772 421 2106
3 16 17 2081
3 416 417 433
3 921 850 2125
3 1607 1855 1958
3 649 648 1848
3 1241 1240 1242
3 2012 1443 2251
3 926 928 1920
3 1487 1488 2025
3 1006 1191 1421
3 1355 1423 1424
3 1133 852 1988
3 591 592 1776
3 1299 1843 1857
3 1085 1308 1309
3 490 491 492
3 958 694 1575
3 1384 1216 1385
3 741 915 1878
3 1233 1232 1234
3 669 790 791
3 481 480 482
3 687 703 704
3 492 493 494
3 1634 1633 1922
3 1697 1696 1698
3 1721 985 1722
3 1839 1273 1892
3 772 735 773
3 488 486 489
3 950 1005 1006
3 1513 1514 1515
3 454 500 501
3 873 773 883
3 284 283 285
3 2185 1505 2442
3 959 883 1035
3 543 535 1897
3 1904 1384 2093
3 800 801 802
3 1037 1035 1215
3 1293 1964 1965
3 1239 1238 1240
3 943 1143 2125
3 1782 1784 1785
3 913 756 942
3 488 490 1884
3 1590 1749 2501
3 1235 1234 1236
3 791 856 1408
3 702 2015 2070
3 1108 1539 1540
3 1021 1023 1045
3 695 506 1828
3 1530 1528 1532
3 488 489 490
3 1621 1619 2161
3 704 705 706
3 1304 1303 1305
3 558 1704 2167
3 625 622 626
3 542 553 554
3 604 573 641
3 664 684 685
3 564 571 574
3 1108 1540 1879
3 1856 1427 2361
3 880 1025 1129
3 1395 1311 1521
3 1466 1465 1467
3 915 495 1884
3 1515 1516 1523
3 1237 1236 1238
3 606 648 649
3 999 920 1000
3 676 829 1043
3 2100 794 2142
3 227 151 1500
3 577 579 599
3 153 154 1671
3 1175 550 1927
3 1014 888 1015
3 286 285 287
3 1649 1280 2427
3 1725 204 2137
3 975 609 1106
3 1129 1317 1334
3 1109 1730 2426
3 1468 1467 1469
3 1131 1123 1399
3 1215 2235 2378
3 1976 1149 1989
3 397 395 398
3 746 743 1878
3 1041 1343 1598
3 975 1108 1879
3 741 495 915
3 1167 1754 1755
3 288 287 289
3 743 741 1878
3 1274 990 1931
3 1506 214 1507
3 857 1584 2277
3 2341 1522 2387
3 846 932 933
3 1107 1106 1110
3 584 633 1927
3 290 289 291
3 722 591 1776
3 1544 1094 1969
3 1135 270 1647
3 935 949 950
3 1920 1288 2080
3 754 1896 2108
3 1693 1199 2225
3 292 291 293
3 394 393 395
3 745 743 746
3 1002 942 1123
3 731 737 738
3 294 293 295
3 1018 1573 1925
3 296 295 297
3 298 297 299
3 321 322 325
3 317 320 321
3 314 315 317
3 312 313 314
3 310 311 312
3 308 309 310
3 1898 890 2275
3 306 307 308
3 304 305 306
3 1401 1079 1913
3 300 299 301
3 302 303 304
3 300 301 302
3 302 301 303
3 491 489 1936
3 298 299 300
3 304 303 305
3 306 305 307
3 308 307 309
3 310 309 311
3 312 311 313
3 314 313 315
3 317 315 320
3 321 320 322
3 1301 1299 1857
3 514 541 542
3 296 297 298
3 850 838 851
3 1310 1394 1895
3 294 295 296
3 590 605 606
3 292 293 294
3 651 657 658
3 290 291 292
3 1207 1208 1796
3 835 1976 1989
3 621 619 622
3 746 1878 1896
3 481 482 483
3 1026 847 1027
3 1335 1207 1870
3 1661 59 2266
3 727 729 1155
3 288 289 290
3 1058 776 1928
3 662 663 664
3 495 488 1884
3 1959 319 2522
3 943 851 944
3 1293 1291 1964
3 534 532 535
3 640 645 646
3 2280 1014 2385
3 286 287 288
3 591 575 592
3 521 519 529
3 13 14 2114
3 780 779 781
3 918 908 1850
3 837 836 838
3 209 148 1639
3 754 748 1896
3 745 746 747
3 769 671 770
3 929 1065 2197
3 1278 1058 1279
3 483 482 484
3 1564 1557 2030
3 633 807 1927
3 392 391 393
3 1057 1621 2161
3 569 580 581
3 284 285 286
3 876 992 1894
3 497 494 498
3 1630 1635 2041
3 982 1148 1918
3 612 611 613
3 700 634 1044
3 822 674 2099
3 880 1129 1929
3 432 439 654
3 1039 1291 1292
3 1164 1686 1989
3 1129 1025 1317
3 738 845 846
3 582 583 629
3 278 6 279
3 544 568 569
3 1701 1274 1931
3 747 749 751
3 1085 953 1308
3 928 930 1070
3 747 748 749
3 1421 1422 2415
3 902 903 904
3 1309 1308 1543
3 642 641 643
3 904 981 1792
3 646 784 785
3 536 543 544
3 1204 1205 1207
3 365 694 958
3 71 72 217
3 88 89 1901
3 87 88 193
3 101 102 189
3 85 86 242
3 99 100 241
3 74 75 192
3 91 92 219
3 94 95 191
3 83 84 220
3 97 98 221
3 77 78 218
3 80 81 194
3 89 90 245
3 62 63 244
3 60 61 188
3 64 65 223
3 67 68 190
3 90 91 1909
3 98 99 1905
3 61 62 1908
3 69 70 243
3 68 69 1907
3 70 71 1910
3 410 411 416
3 586 589 590
3 685 684 2029
3 390 389 391
3 1715 1150 1811
3 1924 1837 2215
3 282 283 284
3 496 497 1929
3 233 1671 1769
3 627 2185 2442
3 1567 1552 2062
3 629 630 812
3 424 453 454
3 583 562 1942
3 749 750 805
3 744 743 745
3 1897 535 1898
3 467 480 481
3 504 759 880
3 670 643 671
3 89 245 1901
3 193 88 1901
3 221 98 1905
3 245 90 1909
3 91 219 1909
3 62 244 1908
3 188 61 1908
3 99 241 1905
3 190 68 1907
3 71 217 1910
3 69 243 1907
3 243 70 1910
3 505 499 506
3 475 513 514
3 1945 1044 2071
3 1712 2125 2353
3 339 343 440
3 989 1360 1361
3 764 869 1152
3 778 777 779
3 1686 1685 1687
3 742 741 743
3 979 989 1886
3 729 731 1887
3 926 927 928
3 1305 1306 1307
3 1838 1278 2292
3 747 746 748
3 181 182 1652
3 1886 1361 2305
3 1595 1594 2486
3 597 596 598
3 928 1288 1920
3 1970 824 2156
3 1425 1424 1426
3 497 504 1929
3 748 746 1896
3 745 747 1900
3 998 858 1171
3 563 547 564
3 1155 729 1887
3 634 583 1942
3 1439 1173 1440
3 1026 1027 1086
3 79 80 1904
3 1533 1532 1536
3 1449 1426 1513
3 1106 609 1936
3 1318 1013 1319
3 1098 695 1828
3 492 494 496
3 750 748 754
3 731 738 1887
3 2415 1422 2516
3 533 562 582
3 988 1837 1924
3 1216 1215 1863
3 534 535 536
3 747 751 1900
3 1753 809 2119
3 1183 824 1970
3 740 495 741
3 80 194 1904
3 893 383 2087
3 655 605 1939
3 1884 2034 2082
3 1301 1857 1923
3 1307 1306 1708
3 752 745 1900
3 750 754 755
3 76 77 1903
3 2090 2347 2365
3 255 30 2159
3 132 254 2160
3 448 434 449
3 753 848 926
3 1075 1074 1327
3 487 488 495
3 377 381 647
3 483 484 485
3 755 754 2148
3 1584 1925 2277
3 1186 1183 1970
3 951 891 1281
3 485 484 486
3 546 527 547
3 133 134 1766
3 1786 1785 2409
3 280 281 282
3 460 449 461
3 744 745 752
3 77 218 1903
3 983 1918 2342
3 1708 1306 1810
3 1389 2069 2170
3 487 486 488
3 641 573 1954
3 507 518 519
3 502 461 503
3 519 518 1899
3 1202 1203 1204
3 821 897 1972
3 92 93 1902
3 521 529 530
3 749 748 750
3 2176 1380 2416
3 885 826 886
3 485 486 487
3 371 372 376
3 1289 1070 1871
3 1110 1657 1747
3 753 926 1943
3 700 1044 1944
3 880 881 1025
3 496 1845 2034
3 1072 1981 2393
3 462 464 2134
3 1949 1771 2359
3 1044 634 1942
3 550 584 1927
3 1390 1415 2118
3 526 503 527
3 990 845 1931
3 1009 1213 1214
3 740 742 1144
3 219 92 1902
3 727 1155 1899
3 369 370 371
3 623 690 2150
3 1279 1058 1928
3 1408 2235 2286
3 487 495 740
3 979 1886 2086
3 1305 1303 1306
3 421 412 1951
3 843 844 996
3 633 669 807
3 518 727 1899
3 826 825 1961
3 1657 1106 1936
3 1172 1012 1173
3 740 741 742
3 433 417 434
3 505 506 507
3 1333 1674 2437
3 742 743 744
3 469 458 470
3 1381 1380 1382
3 1293 1965 2515
3 1554 1559 2062
3 553 557 2499
3 1774 389 2339
3 497 498 499
3 483 485 576
3 740 1144 1935
3 773 735 834
3 366 367 369
3 1120 1118 1876
3 1515 1523 1574
3 1319 1013 2039
3 1303 1301 1923
3 457 447 458
3 561 593 594
3 1355 1424 1425
3 609 491 1936
3 204 1732 2137
3 791 1408 1642
3 995 944 1825
3 456 471 475
3 1692 1693 2239
3 580 1763 2164
3 1292 1293 2117
3 441 452 456
3 388 384 389
3 823 821 1972
3 504 880 1929
3 176 177 1680
3 1070 1071 1871
3 15 2260 2477
3 362 363 366
3 2178 2300 2449
3 1035 883 1036
3 2285 1563 2307
3 978 977 1074
3 1090 1102 2029
3 1810 1306 1923
3 496 494 497
3 1306 1303 1923
3 432 654 1915
3 934 933 935
3 356 355 365
3 398 403 404
3 635 701 843
3 1110 1106 1657
3 574 571 575
3 1025 881 1176
3 386 380 786
3 415 432 1915
3 343 347 1911
3 1070 930 1071
3 1688 1740 2231
3 1385 1216 1863
3 1696 1274 1701
3 1645 305 2317
3 880 759 881
3 926 848 927
3 1427 1423 2217
3 1339 1662 2388
3 770 774 775
3 1263 1257 1428
3 1337 1864 2412
3 349 348 355
3 2267 1721 2498
3 753 752 847
3 1375 1086 1473
3 900 982 983
3 332 335 739
3 429 428 430
3 744 752 753
3 1171 2132 2165
3 1425 1426 1449
3 987 641 1954
3 1883 1786 2409
3 427 426 428
3 928 927 930
3 1815 1105 2015
3 1206 1499 1941
3 410 406 411
3 573 540 1954
3 497 499 504
3 528 560 561
3 1933 1404 2399
3 1091 1089 1969
3 1804 1282 2073
3 504 505 759
3 963 924 1113
3 1711 1710 1712
3 881 759 1146
3 968 1199 1200
3 351 352 362
3 848 847 1026
3 521 530 531
3 1884 490 2034
3 1277 957 1966
3 1349 1350 2329
3 676 1043 2045
3 997 1159 1286
3 517 1889 1890
3 781 835 836
3 944 948 1283
3 722 1776 2026
3 507 519 520
3 2040 1352 2058
3 1276 957 1277
3 446 437 447
3 931 860 977
3 361 359 765
3 1248 1536 2534
3 512 523 528
3 408 412 413
3 1368 1369 1370
3 451 2169 2223
3 192 75 1994
3 942 756 2026
3 345 344 348
3 764 1152 1963
3 413 418 419
3 1286 1773 1774
3 770 671 774
3 275 549 2124
3 1497 1645 2461
3 1982 1472 2272
3 422 435 441
3 281 279 736
3 1134 270 1135
3 582 562 583
3 1421 2415 2454
3 485 487 1935
3 2300 1067 2480
3 1578 1576 1827
3 930 927 1061
3 1026 1086 1375
3 922 2259 2379
3 1391 1120 1876
3 1495 1494 2493
3 404 407 408
3 879 2178 2449
3 1700 1698 2036
3 607 1517 1520
3 753 847 848
3 416 411 417
3 1144 742 1943
3 775 776 777
3 754 2108 2148
3 1006 1421 1953
3 585 581 586
3 531 530 532
3 235 1709 1888
3 520 519 521
3 1180 1181 1349
3 1146 759 1967
3 708 710 1921
3 1350 2253 2329
3 436 430 437
3 504 499 505
3 643 641 987
3 336 330 517
3 811 1059 1149
3 1164 1411 1685
3 846 933 934
3 635 843 1960
3 983 982 1918
3 971 872 1096
3 1149 1163 1164
3 169 237 1724
3 1314 1315 1316
3 629 583 630
3 891 812 1916
3 462 463 464
3 487 740 1935
3 798 2084 2189
3 1814 1838 2292
3 1284 1489 1491
3 340 336 2014
3 1670 1461 2200
3 920 782 2057
3 890 2241 2275
3 510 511 512
3 278 279 280
3 839 802 840
3 1858 235 1888
3 1698 1696 2036
3 104 105 222
3 57 58 224
3 1185 1183 1186
3 588 587 623
3 638 600 1988
3 1282 1386 2245
3 811 776 1058
3 816 815 876
3 2034 1845 2082
3 761 636 1741
3 566 565 587
3 174 175 1725
3 347 350 351
3 1469 1495 1496
3 1059 1058 1278
3 811 1149 1976
3 576 485 1935
3 659 658 660
3 859 1153 1962
3 76 1903 1994
3 1821 1109 2426
3 1294 1038 1622
3 733 1833 2075
3 992 993 1980
3 1566 1561 2285
3 525 474 2041
3 464 465 510
3 343 346 347
3 360 893 1982
3 650 649 651
3 896 608 936
3 950 1006 1007
3 1508 1859 1860
3 539 538 565
3 440 343 1911
3 341 340 344
3 221 1905 1906
3 1297 1823 2142
3 759 505 1967
3 1295 1053 1296
3 473 470 474
3 1463 1465 1466
3 1143 1206 2028
3 799 685 800
3 1210 2077 2203
3 509 508 538
3 492 496 2034
3 1553 1551 2030
3 1260 1261 1269
3 1430 1040 1703
3 586 590 1940
3 838 836 868
3 1705 624 2276
3 1749 972 2501
3 742 744 1943
3 804 962 1981
3 1367 1368 2254
3 531 532 533
3 337 336 340
3 1157 1094 1544
3 536 544 1158
3 812 630 1960
3 781 779 835
3 56 57 1947
3 630 583 634
3 1405 1404 1932
3 1281 891 1916
3 339 342 343
3 1411 1163 1730
3 322 323 324
3 344 340 2091
3 1735 1734 1736
3 75 76 1994
3 430 682 2494
3 1907 243 2360
3 589 581 2164
3 694 355 2196
3 744 753 1943
3 775 774 776
3 1210 1430 2077
3 335 338 339
3 1102 1803 2029
3 1078 937 1079
3 870 655 1939
3 505 507 1967
3 357 360 1982
3 1896 1878 2101
3 326 325 328
3 934 935 957
3 585 608 895
3 333 330 336
3 1270 1272 1524
3 688 817 878
3 507 520 1967
3 1428 1257 2074
3 1818 1817 2000
3 896 937 1077
3 934 957 1111
3 329 328 330
3 1499 995 1825
3 944 851 948
3 387 445 462
3 1678 1161 2228
3 777 776 811
3 313 311 757
3 324 331 332
3 848 1026 1955
3 1312 998 1811
3 1321 1322 2037
3 1080 1079 1121
3 1105 1355 2015
3 1645 2317 2461
3 1559 1568 2062
3 332 334 335
3 501 500 508
3 321 325 326
3 394 395 397
3 322 320 323
3 1529 1530 2171
3 1137 797 1138
3 811 1058 1059
3 661 660 662
3 569 581 585
3 183 4 2303
3 5 160 2304
3 1340 1138 1341
3 1660 1626 2185
3 1743 1464 2347
3 1026 1375 1955
3 1149 1059 1163
3 1736 1625 2194
3 1322 1667 2434
3 311 309 1959
3 309 307 319
3 894 700 1944
3 533 534 562
3 1276 1277 1366
3 2190 1706 2408
3 533 532 534
3 1214 1213 1410
3 1164 1163 1411
3 843 701 844
3 1009 1214 2055
3 234 1589 1788
3 2000 1817 2174
3 317 321 2050
3 328 325 945
3 392 393 394
3 588 623 2089
3 1162 958 1681
3 1078 1080 1136
3 927 848 1955
3 1496 1497 1498
3 390 391 392
3 1061 927 1955
3 1283 948 1284
3 635 634 700
3 1244 1251 1252
3 218 78 2093
3 756 722 2026
3 1071 1784 2419
3 1218 1505 2185
3 1284 948 1285
3 1489 1285 1490
3 918 1850 1851
3 684 1090 2029
3 1759 572 2537
3 1691 1690 2446
3 1979 1158 2071
3 606 649 650
3 2045 1043 2046
3 103 104 2025
3 630 634 635
3 360 383 893
3 406 386 2043
3 1909 219 2023
3 1111 957 1276
3 1925 1437 2277
3 1536 2268 2340
3 854 852 1133
3 233 153 1671
3 651 658 659
3 2099 1787 2368
3 1033 1032 1130
3 1015 1372 1373
3 1412 942 2026
3 253 264 1441
3 1531 1534 2332
3 701 700 894
3 106 107 1990
3 2048 1961 2455
3 276 274 2099
3 738 846 1968
3 1325 925 1326
3 896 936 937
3 585 586 608
3 1450 854 1973
3 1361 1360 1362
3 1045 1668 2512
3 303 301 444
3 996 844 997
3 79 1904 2093
3 1989 1686 2095
3 1928 774 2033
3 1942 562 1979
3 287 285 316
3 935 950 1966
3 1466 1467 1468
3 1242 1243 1244
3 1887 738 1968
3 2115 210 2477
3 878 929 1083
3 1326 1736 2194
3 886 888 1014
3 895 608 896
3 289 287 1978
3 821 822 897
3 936 608 1940
3 613 614 615
3 51 52 1996
3 417 411 1160
3 1149 1164 1989
3 386 786 2043
3 285 283 1971
3 1309 1543 2147
3 375 373 2053
3 371 370 372
3 779 777 1976
3 1286 1159 1773
3 2177 887 2376
3 1560 1557 1564
3 1403 1882 2399
3 1727 1757 2246
3 279 6 2049
3 1619 1438 2438
3 291 289 758
3 1781 1915 2294
3 425 401 426
3 349 355 356
3 66 67 2118
3 474 548 2041
3 1686 1687 2007
3 1262 1456 1457
3 1123 942 1412
3 1916 812 1960
3 1355 1425 2015
3 735 733 2075
3 1861 879 2449
3 1284 1285 1489
3 490 492 2034
3 366 363 367
3 980 578 2051
3 906 904 1792
3 534 536 1979
3 842 924 963
3 2051 578 2083
3 1077 937 1078
3 1102 1104 1803
3 894 1944 1946
3 398 404 2060
3 1007 1006 1953
3 369 367 370
3 348 354 2196
3 1078 1079 1080
3 1378 1380 1381
3 1568 1365 2439
3 608 586 1940
3 598 610 611
3 760 636 761
3 869 1137 1351
3 671 643 2033
3 1661 1345 2267
3 938 914 1057
3 783 761 914
3 576 1835 2144
3 388 389 390
3 297 295 318
3 454 453 500
3 1906 1728 2246
3 1439 1440 2468
3 1159 1013 1318
3 764 797 869
3 236 143 1717
3 782 644 2057
3 592 595 596
3 1542 2332 2443
3 1521 1311 2147
3 345 348 349
3 1304 1452 2205
3 1644 1907 2360
3 2146 1125 2149
3 997 844 1013
3 628 375 2053
3 299 297 1984
3 957 935 1966
3 664 685 799
3 301 299 1975
3 362 352 363
3 777 811 1976
3 1942 1979 2071
3 1001 920 2057
3 312 314 768
3 1552 1554 2062
3 615 616 617
3 357 1982 2076
3 800 802 839
3 774 671 2033
3 1749 1169 2105
3 365 958 1162
3 617 618 619
3 283 281 1938
3 1351 1772 2414
3 1525 1765 2489
3 846 934 1968
3 635 700 701
3 555 554 577
3 536 1158 1979
3 1101 1404 1405
3 630 635 1960
3 1811 1150 2089
3 2113 1666 2249
3 172 173 1847
3 107 108 195
3 54 55 196
3 1191 1768 2023
3 1455 1302 2205
3 115 116 2017
3 1387 1333 2437
3 659 661 764
3 1080 1121 1188
3 50 51 2011
3 411 406 2043
3 295 293 1983
3 643 987 2033
3 707 706 708
3 129 130 261
3 32 33 260
3 2159 260 2265
3 449 434 567
3 1314 1029 1315
3 917 796 940
3 378 375 628
3 108 109 1991
3 2370 1759 2537
3 341 344 345
3 997 1013 1159
3 544 569 1993
3 950 1007 1966
3 477 474 525
3 351 350 352
3 1696 1701 2036
3 334 331 803
3 1137 1138 1340
3 562 534 1979
3 109 110 246
3 52 53 247
3 1368 1316 1369
3 659 660 661
3 33 34 2002
3 123 124 2005
3 835 779 1976
3 851 838 1992
3 1530 1533 2172
3 1668 1045 2348
3 1162 1681 1706
3 342 338 468
3 298 300 358
3 765 359 2065
3 725 826 885
3 35 36 2003
3 46 47 2019
3 38 39 2006
3 336 517 2014
3 934 1111 1968
3 116 117 2018
3 650 651 1963
3 223 1711 2162
3 640 594 645
3 1333 1330 2192
3 104 222 2025
3 1603 922 2379
3 963 1113 1115
3 2084 1193 2189
3 564 570 571
3 36 37 2004
3 57 224 1947
3 1542 1601 2269
3 122 123 2012
3 1000 920 1001
3 127 128 240
3 34 35 239
3 383 387 2087
3 1161 1107 2228
3 1781 2294 2419
3 1201 1200 1202
3 124 125 225
3 37 38 226
3 1340 1341 1342
3 869 797 1137
3 839 840 1008
3 1158 544 1993
3 1326 925 1894
3 352 350 353
3 326 329 954
3 1864 2344 2412
3 836 835 2095
3 1051 1053 1295
3 1031 720 1032
3 503 461 787
3 1407 1112 2044
3 661 662 2058
3 838 868 1992
3 112 113 197
3 49 50 198
3 1359 980 1413
3 121 122 211
3 40 41 212
3 48 49 2010
3 113 114 2009
3 1741 673 2131
3 41 42 2020
3 120 121 2013
3 1409 2035 2097
3 1511 1374 2506
3 114 115 248
3 47 48 249
3 42 43 250
3 119 120 251
3 171 6 201
3 6 172 203
3 585 895 1993
3 43 44 2024
3 118 119 2021
3 905 904 906
3 764 661 797
3 337 340 341
3 1413 980 2051
3 117 118 205
3 44 45 206
3 347 346 350
3 1420 1076 1525
3 324 323 331
3 434 417 2031
3 965 967 969
3 716 719 788
3 1260 1254 1261
3 2053 373 2103
3 2069 2068 2170
3 326 328 329
3 1706 996 2408
3 273 275 2124
3 969 1011 1012
3 590 606 2001
3 1718 1611 2280
3 1914 1940 2001
3 915 1884 2082
3 329 330 333
3 620 859 955
3 2168 1409 2305
3 296 298 1997
3 915 2082 2101
3 339 338 342
3 1218 994 1505
3 333 336 337
3 266 263 1742
3 1873 768 2127
3 244 63 2162
3 64 223 2162
3 343 342 346
3 914 761 2258
3 310 312 1987
3 799 800 2055
3 302 304 763
3 1559 1566 1568
3 1598 1343 2114
3 592 575 595
3 341 345 794
3 189 1842 2220
3 767 815 816
3 1003 912 1004
3 839 1008 1009
3 1263 1428 1429
3 564 547 570
3 1845 1334 2082
3 332 331 334
3 901 866 902
3 651 659 1963
3 1009 1112 1213
3 335 334 338
3 569 585 1993
3 1665 1336 2299
3 1945 2071 2153
3 863 862 864
3 907 906 908
3 1849 1486 1930
3 1935 1144 2080
3 967 966 968
3 809 900 2119
3 865 864 866
3 835 1989 2095
3 190 1907 2417
3 333 337 522
3 1110 1748 2228
3 1193 1194 1195
3 94 191 2166
3 473 1854 2453
3 1769 1134 2369
3 948 851 1992
3 237 170 2216
3 420 419 422
3 1448 1447 2364
3 483 576 2144
3 721 1919 2032
3 885 886 1891
3 613 611 614
3 886 1014 1891
3 1160 411 2043
3 1918 1283 2342
3 1651 206 2485
3 1242 1240 1243
3 598 596 610
3 1295 1296 1459
3 1185 1186 1948
3 1425 1449 2070
3 294 296 762
3 1285 948 1992
3 925 876 1894
3 712 714 789
3 603 1668 2398
3 1940 590 2001
3 721 570 964
3 834 735 2075
3 1144 1920 2080
3 2263 1635 2511
3 1204 1207 1335
3 2235 1408 2378
3 965 964 966
3 1990 1435 2218
3 397 398 2060
3 1138 797 2058
3 1787 1141 2368
3 2068 820 2170
3 360 359 361
3 387 462 2087
3 1524 1272 1934
3 819 698 820
3 1197 1196 1198
3 1662 2126 2388
3 78 79 2093
3 1150 588 2089
3 1269 1261 1270
3 1878 915 2101
3 451 467 2169
3 2262 1387 2437
3 1009 1008 1112
3 757 311 1959
3 897 898 1139
3 1854 473 2483
3 2015 1425 2070
3 2082 1334 2101
3 963 1115 1174
3 1047 1049 1287
3 1194 423 1196
3 321 326 2050
3 417 1160 2031
3 854 1133 1973
3 1201 1212 1348
3 705 1586 2163
3 309 319 1959
3 1353 1390 2417
3 427 428 429
3 357 356 359
3 606 650 2001
3 549 1280 2124
3 1213 1112 1407
3 256 2303 2535
3 356 365 2065
3 662 664 2040
3 701 894 2039
3 1325 1371 2451
3 666 626 667
3 1902 93 2166
3 1236 1234 1246
3 800 839 2055
3 1869 1812 2252
3 1197 1364 1365
3 576 1935 2080
3 404 408 798
3 1678 807 2529
3 1560 1564 2016
3 1319 2039 2122
3 425 426 427
3 349 356 357
3 308 310 327
3 1716 622 2484
3 1801 82 2289
3 1768 1949 2420
3 2006 1926 2507
3 351 364 2407
3 420 423 1193
3 659 764 1963
3 292 294 2038
3 840 842 2027
3 736 279 2049
3 372 373 374
3 461 449 2052
3 2189 1195 2285
3 1174 1115 1398
3 367 363 961
3 909 908 918
3 1738 247 2402
3 1007 1761 2308
3 288 290 2135
3 422 441 2035
3 623 624 690
3 537 525 545
3 1953 1421 2454
3 1887 1968 2123
3 861 691 862
3 654 439 2223
3 1136 1080 2054
3 1312 1811 2089
3 575 571 2032
3 383 361 384
3 968 1200 1201
3 797 661 2058
3 1423 1354 2381
3 1180 1178 1181
3 1513 1515 2180
3 72 73 2217
3 462 445 463
3 12 13 2136
3 457 458 469
3 542 554 555
3 599 636 760
3 254 133 1766
3 1130 1397 1937
3 404 798 2060
3 1044 1942 2071
3 690 691 860
3 357 359 360
3 1008 2027 2152
3 1232 1230 1255
3 372 370 373
3 850 943 2125
3 1457 1456 1492
3 1952 324 2282
3 155 2 2356
3 0 7 2357
3 2017 1379 2288
3 918 1851 2008
3 195 1991 2517
3 2090 803 2347
3 1244 1243 1251
3 290 292 368
3 1432 1082 2214
3 1008 840 2027
3 1743 803 2296
3 1013 844 2039
3 365 1162 2065
3 1594 1315 2184
3 387 384 388
3 1508 1860 2311
3 547 527 2056
3 2005 225 2322
3 314 317 2127
3 1853 556 2327
3 201 6 278
3 1907 1644 2417
3 1896 2101 2108
3 646 645 784
3 538 508 558
3 374 375 377
3 1630 1634 1635
3 1579 1999 2352
3 1647 1648 1849
3 1313 1314 2121
3 1179 1433 2042
3 844 701 2039
3 1252 1251 2098
3 816 876 925
3 1922 1228 2281
3 392 394 396
3 1915 654 2294
3 1652 1653 2487
3 429 430 436
3 456 475 476
3 1605 1392 2510
3 126 1882 2284
3 1784 1780 2419
3 500 453 960
3 377 378 381
3 2178 1587 2300
3 1222 1219 1626
3 413 419 420
3 381 382 400
3 2169 1836 2223
3 1906 1905 2129
3 616 614 793
3 1170 1419 2139
3 101 189 2220
3 241 100 2220
3 1968 1111 2123
3 567 434 2031
3 615 614 616
3 1032 720 1921
3 682 428 2138
3 469 470 473
3 339 440 2261
3 1501 238 2226
3 1154 1431 1653
3 446 447 457
3 1251 1243 1257
3 2229 315 2495
3 1201 1202 1212
3 785 784 879
3 464 463 465
3 66 2118 2395
3 324 332 2282
3 286 288 771
3 17 199 2081
3 571 570 721
3 611 610 2092
3 617 616 618
3 1542 1531 2332
3 400 401 424
3 1325 1326 1371
3 1140 1406 1702
3 1323 443 2302
3 1926 1573 2507
3 436 437 446
3 1262 1457 2098
3 67 190 2118
3 1518 1861 2449
3 989 1359 1360
3 1063 1082 1154
3 1757 96 2526
3 969 967 1011
3 868 836 2095
3 1215 1035 2235
3 96 1757 2309
3 261 2160 2380
3 1381 1382 2126
3 1468 1469 2182
3 1334 1317 2108
3 861 863 1064
3 1270 1261 1271
3 360 361 383
3 287 316 1978
3 1856 192 2367
3 1905 241 2129
3 1615 1809 2425
3 528 523 560
3 979 980 989
3 662 2040 2058
3 721 964 965
3 170 171 2216
3 664 799 2040
3 512 511 523
3 1201 1348 2107
3 620 618 858
3 758 289 1978
3 859 858 998
3 424 425 453
3 1616 1615 2193
3 444 301 1975
3 561 560 593
3 965 966 967
3 1798 376 2430
3 340 2014 2091
3 510 465 511
3 107 195 1990
3 1080 1188 2054
3 1153 998 1312
3 1226 1224 1249
3 1012 1011 1363
3 902 904 905
3 842 963 2027
3 268 270 1134
3 865 901 1125
3 2077 558 2102
3 282 284 442
3 1977 1679 2253
3 1496 1498 2047
3 284 286 2063
3 281 736 1938
3 2132 793 2165
3 1674 215 2437
3 2078 1855 2411
3 839 1009 2055
3 1182 824 1183
3 1168 947 1169
3 1289 1871 2242
3 316 285 1971
3 1270 1271 1272
3 1755 1793 2264
3 51 1996 2011
3 383 384 387
3 1146 1924 2215
3 1279 1928 2202
3 619 618 620
3 1194 1196 1197
3 555 578 979
3 1937 1639 2528
3 1262 1257 1263
3 389 384 2339
3 2251 1338 2464
3 1155 1887 2123
3 1151 1937 2528
3 465 463 828
3 1318 1319 2116
3 1687 1688 2231
3 326 954 2050
3 297 318 1984
3 1308 953 2255
3 1846 2056 2198
3 320 315 2229
3 1254 1252 2059
3 760 761 783
3 951 1281 2255
3 1459 1296 2094
3 2288 1638 2470
3 1975 299 1984
3 52 247 1996
3 468 338 2090
3 2140 1511 2506
3 1125 1126 1192
3 593 824 1182
3 720 708 1921
3 704 706 707
3 623 587 624
3 2044 1112 2152
3 1393 1169 1749
3 900 983 2119
3 783 914 938
3 255 2265 2489
3 2039 894 2122
3 317 2050 2127
3 1866 1867 2513
3 374 373 375
3 429 436 455
3 387 388 445
3 1193 423 1194
3 555 577 578
3 1074 977 1187
3 449 567 2052
3 1197 1198 1364
3 2154 1595 2486
3 1486 1849 2173
3 318 295 1983
3 939 1016 1844
3 131 132 2160
3 30 31 2159
3 881 1146 2215
3 1294 1868 2238
3 1300 1455 2314
3 1365 1364 1912
3 783 938 939
3 2061 1735 2441
3 551 545 601
3 2194 216 2536
3 1251 1257 1262
3 888 887 2177
3 1364 1198 2048
3 1498 1682 2340
3 1589 1590 2501
3 60 188 2266
3 1401 1913 2324
3 195 108 1991
3 420 422 423
3 1675 1470 2474
3 258 1673 2183
3 2161 1619 2438
3 1296 1472 2094
3 1808 1910 2381
3 334 803 2090
3 1490 1285 2232
3 523 511 524
3 1240 1238 2074
3 1184 1183 1185
3 39 40 2151
3 473 474 477
3 1461 1463 2200
3 2072 353 2073
3 861 862 863
3 1206 1941 2401
3 958 1575 2287
3 614 611 2092
3 110 111 2140
3 1136 2054 2110
3 645 594 2133
3 260 33 2002
3 673 767 2131
3 989 980 1359
3 1741 2131 2258
3 1317 1875 2148
3 894 1946 2122
3 863 864 865
3 787 461 2052
3 857 2277 2386
3 109 246 1991
3 2017 116 2018
3 1182 1183 1184
3 377 375 378
3 816 925 1324
3 865 866 901
3 1262 1263 1456
3 359 356 2065
3 2129 241 2472
3 283 1938 1971
3 1458 1210 2203
3 1076 1003 2145
3 196 1738 2402
3 1033 1130 1151
3 1188 1121 2106
3 1140 1702 2096
3 549 687 1280
3 1694 1621 2191
3 861 1064 2112
3 1548 1549 2129
3 1784 1071 2462
3 714 716 2066
3 1961 825 2455
3 1447 1211 2250
3 979 578 980
3 905 907 1209
3 381 378 382
3 457 469 552
3 595 575 2032
3 408 413 2084
3 481 483 2144
3 1745 1349 2293
3 1980 1405 2441
3 198 50 2011
3 248 115 2017
3 912 819 2068
3 620 858 859
3 707 708 720
3 821 674 822
3 514 542 2086
3 400 382 401
3 123 2005 2012
3 1772 1351 2374
3 34 239 2002
3 768 314 2127
3 2003 36 2004
3 280 282 2079
3 124 225 2005
3 596 595 2130
3 593 560 824
3 1504 1502 2519
3 239 35 2003
3 1311 1309 2147
3 1318 1877 2240
3 1860 1432 2311
3 1416 1715 2330
3 859 998 1153
3 352 353 2072
3 312 768 1987
3 2027 1174 2152
3 226 38 2006
3 1827 1024 2117
3 1710 1391 2295
3 690 624 691
3 37 226 2004
3 1153 1312 1885
3 853 855 2186
3 1892 242 2373
3 1967 520 2174
3 939 938 1016
3 47 249 2019
3 388 390 2078
3 1991 2139 2517
3 905 906 907
3 571 721 2032
3 1196 423 2035
3 1324 925 1325
3 1151 1130 1937
3 363 352 2072
3 345 349 2076
3 1031 1032 1033
3 214 179 1859
3 211 122 2012
3 602 601 652
3 117 205 2018
3 710 712 2067
3 1602 187 2357
3 520 2000 2174
3 85 242 2335
3 220 84 2335
3 381 400 2113
3 1586 1587 2435
3 424 401 425
3 963 1174 2027
3 860 691 861
3 610 596 2130
3 1958 2078 2431
3 570 547 2056
3 237 2216 2354
3 1211 1692 2219
3 298 358 1997
3 909 947 1041
3 441 456 2097
3 1135 1647 1849
3 1601 1542 2443
3 197 113 2009
3 49 198 2010
3 1911 347 2407
3 1729 191 2309
3 212 41 2020
3 121 211 2013
3 222 105 2218
3 1125 901 1126
3 114 248 2009
3 249 48 2010
3 42 250 2020
3 251 120 2013
3 233 1769 2369
3 1870 647 2113
3 794 345 2076
3 250 43 2024
3 119 251 2021
3 901 902 2141
3 964 570 2056
3 739 335 2261
3 2108 1317 2148
3 577 599 2083
3 205 118 2021
3 44 206 2024
3 1247 1241 2323
3 1894 992 2244
3 6 203 2049
3 1642 1678 2529
3 1417 1873 2333
3 1422 2023 2516
3 341 794 2100
3 73 74 2361
3 1234 1232 2088
3 1261 1254 2059
3 896 1077 2257
3 1921 710 2067
3 125 126 2284
3 220 1699 2289
3 159 5 2304
3 4 184 2303
3 2059 1252 2098
3 1003 1004 2145
3 2328 1325 2451
3 1486 227 1500
3 63 64 2162
3 2081 1192 2260
3 508 500 2102
3 667 1872 2318
3 338 334 2090
3 423 422 2035
3 1192 1126 1471
3 907 908 909
3 1330 1328 2192
3 1972 897 2500
3 2443 316 2514
3 242 86 2373
3 87 193 2373
3 420 1193 2084
3 1473 1086 2358
3 1987 768 2037
3 522 337 2100
3 627 1660 2185
3 1793 446 2264
3 1405 2061 2441
3 1502 1217 2302
3 171 201 2216
3 1158 1993 2153
3 1197 1365 2120
3 1712 1710 2295
3 1121 1401 2414
3 93 94 2166
3 653 652 688
3 622 1716 2452
3 1345 1720 2267
3 477 537 556
3 128 129 2181
3 2331 1295 2458
3 784 645 874
3 1269 1270 2199
3 189 102 2355
3 1041 1168 1343
3 246 110 2140
3 477 525 537
3 755 1895 2371
3 1947 1723 2313
3 1134 1135 2369
3 223 65 2395
3 968 1201 2107
3 1577 1578 2325
3 210 15 2477
3 961 363 2072
3 1581 1579 2352
3 349 357 2076
3 337 341 2100
3 305 303 2317
3 370 367 2103
3 762 296 1997
3 581 580 2164
3 1278 1838 2372
3 1548 2129 2472
3 594 593 2133
3 2021 251 2022
3 2047 1247 2182
3 967 968 2107
3 1169 947 2008
3 481 2144 2169
3 793 614 2092
3 1910 217 2381
3 1251 1262 2098
3 716 788 2066
3 2101 1334 2108
3 2006 39 2151
3 1603 2379 2508
3 1926 2006 2151
3 96 97 2526
3 750 755 2371
3 789 714 2066
3 909 918 947
3 1993 895 2153
3 106 1990 2218
3 1243 1240 2074
3 832 986 1189
3 1283 1284 2342
3 2297 195 2517
3 1043 829 2326
3 767 816 2131
3 602 653 676
3 1004 912 2068
3 2086 1886 2224
3 1124 2177 2467
3 426 401 2531
3 707 720 1030
3 1000 1001 2184
3 1315 1029 2184
3 467 481 2169
3 541 513 2256
3 647 381 2113
3 225 2284 2510
3 2 156 2356
3 187 0 2357
3 40 212 2151
3 2245 1386 2383
3 676 677 829
3 1004 2068 2069
3 1860 232 2487
3 1031 1033 1034
3 829 830 972
3 996 997 2408
3 1195 1194 2120
3 987 1869 2202
3 1410 1213 2222
3 819 820 2068
3 1485 1486 2173
3 1564 2030 2155
3 807 669 2529
3 129 261 2181
3 1525 1076 2145
3 578 577 2083
3 327 310 1987
3 1083 929 2197
3 2131 1324 2258
3 798 408 2084
3 1838 696 2426
3 1486 1500 1930
3 1946 1944 2291
3 2257 1077 2291
3 1512 1661 2266
3 445 388 2078
3 1192 1471 2260
3 2118 1415 2395
3 1466 1468 2158
3 830 677 831
3 211 2012 2251
3 652 601 2442
3 537 545 551
3 558 508 2102
3 198 2011 2128
3 1718 2280 2385
3 500 960 2102
3 1168 1169 1393
3 1127 971 2496
3 95 96 2309
3 2030 1565 2155
3 1919 1172 2273
3 977 860 2112
3 240 128 2181
3 294 762 2038
3 1800 1799 2195
3 712 789 2067
3 972 1749 2326
3 472 1683 2212
3 874 645 2133
3 551 2045 2201
3 2105 1043 2326
3 1957 1212 2301
3 1514 1856 2367
3 565 538 2167
3 373 370 2103
3 355 348 2196
3 1934 1272 2138
3 1934 426 2531
3 1881 1400 2481
3 2046 1851 2327
3 367 961 2103
3 1963 1152 2206
3 201 278 443
3 3 131 2444
3 31 1 2445
3 2035 441 2097
3 503 787 2198
3 1135 1849 1930
3 1534 1983 2306
3 2089 623 2150
3 687 704 2109
3 869 1351 2363
3 1302 1304 2205
3 955 1716 2484
3 1030 720 1031
3 1159 1318 2240
3 1228 1226 2281
3 947 918 2008
3 413 420 2084
3 785 879 2532
3 1041 947 1168
3 1468 2182 2323
3 1246 1234 2088
3 1730 1163 2372
3 542 555 2086
3 1599 631 2312
3 1146 1967 2174
3 1078 1136 2343
3 1515 1574 2180
3 2336 885 2469
3 1257 1243 2074
3 1347 1346 2279
3 2001 650 2206
3 1480 1601 2514
3 1029 1000 2184
3 1956 788 2336
3 1271 1261 2059
3 130 3 2444
3 1 32 2445
3 1570 1507 2197
3 1232 1255 2088
3 791 1642 2529
3 1601 1479 2269
3 1361 1362 2168
3 1634 1922 2281
3 765 2065 2190
3 2071 1158 2153
3 1699 1801 2289
3 832 831 833
3 1864 346 2344
3 456 476 2097
3 1855 828 2411
3 2065 1162 2190
3 1125 1192 2149
3 599 760 2083
3 361 765 2339
3 1731 2123 2241
3 1349 1181 1350
3 1443 1275 2251
3 1819 524 2429
3 1021 1045 2512
3 858 618 2132
3 1999 358 2338
3 368 292 2038
3 290 368 2135
3 803 331 2296
3 1112 1008 2152
3 56 1947 2313
3 555 979 2086
3 1469 1496 2182
3 1011 967 2107
3 248 2017 2288
3 1809 789 2425
3 960 453 2221
3 538 558 2167
3 1858 1187 2248
3 2246 1757 2526
3 902 905 2141
3 1851 1853 2327
3 1224 1222 2111
3 771 288 2135
3 1945 2153 2257
3 1420 1525 2489
3 1399 1123 2393
3 103 2025 2355
3 897 822 898
3 1861 940 2532
3 865 1125 2146
3 1675 2474 2522
3 1573 2157 2507
3 1632 1631 2382
3 551 601 602
3 527 503 2198
3 1708 805 2337
3 1059 1278 2372
3 2056 527 2198
3 860 861 2112
3 1668 2348 2398
3 255 2159 2265
3 1541 1542 2269
3 1428 2074 2227
3 1582 1583 2321
3 389 1774 2503
3 2004 226 2157
3 1777 397 2405
3 1368 1436 2254
3 1061 2409 2462
3 1071 930 2462
3 1126 901 2141
3 1194 1197 2120
3 1452 1952 2282
3 2116 1319 2482
3 105 106 2218
3 1981 1399 2393
3 2119 983 2143
3 444 1682 2461
3 2173 1648 2463
3 616 793 2132
3 1791 1190 2334
3 1826 1728 2259
3 602 652 653
3 1834 1292 2428
3 556 2201 2327
3 1014 1015 2385
3 1995 1287 2331
3 1193 1195 2189
3 816 1324 2131
3 879 1861 2532
3 593 1182 2133
3 1402 266 1742
3 2216 1323 2354
3 1660 1636 2502
3 620 955 2484
3 1162 1706 2190
3 1870 2113 2249
3 204 1680 1732
3 1909 2023 2420
3 217 72 2217
3 376 372 2430
3 905 1209 2141
3 1378 1381 2283
3 1236 1246 2227
3 286 771 2063
3 1635 2263 2502
3 100 101 2220
3 1139 898 1140
3 2114 1343 2136
3 442 284 2063
3 1772 2106 2414
3 1985 1755 2533
3 2192 1328 2315
3 1064 863 2146
3 1631 1637 2459
3 736 2049 2523
3 221 1906 2246
3 318 1983 2171
3 1496 2047 2182
3 1374 2139 2506
3 196 55 2313
3 2087 462 2134
3 676 653 677
3 2304 257 2491
3 1401 2324 2363
3 829 677 830
3 654 2223 2242
3 1187 977 2112
3 1463 1466 2200
3 2023 219 2516
3 1176 881 2215
3 513 471 2290
3 1812 459 2252
3 1386 1269 2199
3 291 758 2306
3 618 616 2132
3 278 280 2210
3 83 220 2289
3 82 83 2289
3 938 1057 2161
3 1189 986 1190
3 788 719 2336
3 1914 2001 2206
3 232 181 1652
3 1567 2062 2490
3 313 757 2495
3 622 619 2484
3 688 878 1320
3 1222 1626 2111
3 282 442 2079
3 1169 2008 2105
3 1966 1007 2308
3 2040 799 2237
3 1744 2229 2495
3 986 833 1063
3 2284 1605 2510
3 887 1961 2376
3 215 1624 2262
3 830 831 832
3 476 475 2224
3 439 451 2223
3 1932 1933 2380
3 2227 1246 2366
3 1212 1202 2301
3 1107 1110 2228
3 249 2010 2299
3 1983 293 2306
3 2055 1214 2237
3 1438 1372 2478
3 824 560 2156
3 2320 1866 2513
3 1351 1137 2374
3 868 2007 2232
3 2063 771 2064
3 1507 214 1508
3 1728 1727 2246
3 1045 1047 2348
3 1139 1140 2096
3 1648 1649 2463
3 1502 2302 2519
3 704 707 2109
3 2343 1136 2396
3 650 1963 2206
3 2153 895 2257
3 396 1958 2431
3 1379 1377 2288
3 2115 1471 2319
3 2033 987 2202
3 2239 1693 2518
3 2025 1488 2355
3 1209 2115 2319
3 523 524 2156
3 783 939 2243
3 376 1798 2497
3 2066 788 2193
3 1984 318 2172
3 425 427 2221
3 203 172 1847
3 446 457 2264
3 1312 2089 2150
3 2138 1272 2211
3 897 1139 2274
3 828 1819 2429
3 1249 1224 2111
3 666 667 2318
3 1371 1326 2194
3 2433 1499 2475
3 1272 1271 2211
3 1367 2254 2479
3 1386 2053 2383
3 2074 1238 2227
3 755 2148 2320
3 2117 1604 2428
3 475 514 2224
3 228 2187 2457
3 1868 1504 2520
3 1626 1218 2185
3 2123 1111 2241
3 1287 1049 2331
3 1280 687 2109
3 459 1814 2292
3 54 196 2402
3 863 865 2146
3 204 176 1680
3 514 2086 2224
3 1646 603 2398
3 112 197 2346
3 358 300 2338
3 1140 898 1141
3 1204 1335 2301
3 1016 2161 2438
3 909 1041 2175
3 1681 2448 2492
3 2252 459 2292
3 1992 868 2232
3 1035 1036 2235
3 1051 1295 2331
3 1836 1289 2242
3 1508 214 1859
3 247 53 2402
3 1016 938 2161
3 1408 856 2378
3 1466 2158 2200
3 725 885 2336
3 855 1450 2421
3 2023 1768 2420
3 1238 1236 2227
3 1679 202 2253
3 2107 1348 2233
3 1653 1431 2487
3 1946 2291 2343
3 2253 202 2329
3 1885 1312 2150
3 378 628 2390
3 2195 1383 2432
3 1520 1519 2480
3 1532 1733 2534
3 308 327 2278
3 953 951 2255
3 1213 1407 2222
3 1561 1563 2285
3 302 763 2338
3 1928 2033 2202
3 763 304 2345
3 832 833 986
3 1352 2040 2237
3 247 1881 2481
3 560 523 2156
3 335 339 2261
3 346 342 2344
3 201 443 1323
3 2301 1335 2466
3 323 320 2229
3 1136 2110 2396
3 1139 1977 2274
3 1809 1615 2423
3 1707 1791 2334
3 46 2019 2485
3 2064 1294 2238
3 1950 197 2404
3 2021 2022 2176
3 1949 245 2420
3 2044 2152 2207
3 1063 1154 1707
3 1012 1363 2406
3 280 2079 2210
3 2237 1214 2351
3 820 698 2318
3 1140 1141 1406
3 205 2021 2176
3 2043 786 2310
3 2145 1004 2446
3 707 1030 2109
3 1406 2460 2473
3 2137 1268 2226
3 16 2081 2260
3 567 2031 2219
3 2112 1064 2248
3 206 45 2485
3 2347 1462 2365
3 1650 1962 2362
3 453 425 2221
3 1209 907 2175
3 1111 1276 2241
3 2448 1145 2492
3 2051 2083 2243
3 59 60 2266
3 1402 1742 2530
3 831 677 2209
3 624 587 2276
3 238 174 1725
3 1011 2107 2233
3 468 2365 2412
3 2337 805 2371
3 254 1932 2380
3 1174 1398 2207
3 2140 111 2346
3 1381 2186 2283
3 1987 2037 2188
3 1740 559 2456
3 1773 391 2503
3 1335 1870 2249
3 1945 2257 2291
3 828 463 2411
3 1246 2088 2208
3 2060 798 2307
3 1773 1159 2240
3 1187 2112 2248
3 1352 2237 2351
3 2037 1322 2188
3 1941 1499 2433
3 2322 225 2510
3 1031 1034 2236
3 327 2188 2321
3 595 2032 2273
3 1464 1462 2347
3 1285 1992 2232
3 799 2055 2237
3 443 278 2210
3 784 874 2178
3 392 396 2431
3 191 95 2309
3 879 784 2178
3 524 511 2429
3 2128 2011 2270
3 895 896 2257
3 2206 1152 2324
3 318 2171 2172
3 2259 1549 2379
3 1214 1410 2351
3 306 308 2278
3 2022 251 2247
3 1757 1729 2309
3 1283 1918 2524
3 996 1706 2492
3 557 2044 2207
3 1798 1448 2364
3 1447 2250 2310
3 559 1750 2403
3 1363 1011 2233
3 1343 1168 2187
3 1407 2044 2256
3 1462 1460 2365
3 1995 2331 2458
3 327 1987 2188
3 2160 254 2380
3 1681 958 2287
3 2031 1160 2250
3 1600 689 2413
3 2219 1692 2239
3 1494 1675 2522
3 1281 1916 2448
3 907 909 2175
3 565 2167 2276
3 2241 1276 2275
3 1978 316 2443
3 2151 212 2350
3 203 1847 2104
3 2049 1481 2523
3 1961 1362 2376
3 2187 1393 2457
3 940 796 2532
3 2293 1349 2329
3 572 1897 2537
3 332 739 2282
3 2052 567 2239
3 1437 1370 2277
3 567 2219 2239
3 667 626 2452
3 1914 2206 2324
3 2243 939 2392
3 2136 1343 2187
3 257 1654 2530
3 1376 1378 2283
3 2076 1982 2272
3 2083 760 2243
3 1944 1945 2291
3 1771 1839 2359
3 1404 1403 2399
3 1875 1866 2320
3 1460 1337 2412
3 760 783 2243
3 1276 1366 2275
3 1428 2227 2366
3 1882 1605 2284
3 1739 1429 2459
3 2321 2188 2434
3 1328 1327 2315
3 798 2189 2307
3 2152 1174 2207
3 2182 1247 2323
3 1516 1514 2367
3 293 291 2306
3 556 537 2201
3 1298 1300 2314
3 1400 1399 2316
3 1649 2236 2463
3 833 831 2424
3 2127 2050 2333
3 1057 914 2328
3 1839 193 2359
3 761 1741 2258
3 1186 1970 2422
3 1429 2366 2382
3 2211 1271 2271
3 1733 1248 2534
3 13 2114 2136
3 2078 390 2431
3 1533 1536 2340
3 1690 2145 2446
3 1277 2308 2370
3 1168 1393 2187
3 1597 2047 2268
3 587 565 2276
3 1908 244 2401
3 225 125 2284
3 610 2130 2468
3 1749 2105 2326
3 1913 1914 2324
3 2366 2208 2382
3 1391 1876 2295
3 457 552 2264
3 653 688 2209
3 1601 2443 2514
3 682 2138 2211
3 992 1980 2244
3 55 56 2313
3 1645 1495 2493
3 473 477 2483
3 202 1724 2329
3 465 828 2429
3 1277 1966 2308
3 1416 2330 2406
3 1912 1364 2455
3 1716 1483 2375
3 2019 1651 2485
3 1725 2137 2226
3 201 1323 2216
3 878 1083 2213
3 2072 2073 2245
3 1563 1777 2405
3 244 2028 2401
3 2016 1564 2422
3 1682 1497 2461
3 1962 1153 2362
3 1298 2314 2358
3 1384 1385 2391
3 688 1320 2209
3 1587 2179 2435
3 786 380 2497
3 1395 1522 2341
3 2032 1919 2273
3 251 2013 2247
3 2219 2031 2250
3 2397 552 2453
3 1765 255 2489
3 2475 1825 2524
3 1202 1204 2301
3 445 2078 2411
3 323 2229 2296
3 1286 2384 2408
3 537 551 2201
3 1724 237 2293
3 84 85 2335
3 1471 1126 2319
3 1635 1634 2511
3 300 302 2338
3 698 666 2318
3 1030 1031 2236
3 2098 1457 2271
3 696 1821 2426
3 1457 1492 2447
3 1956 2336 2469
3 331 323 2296
3 1284 1491 2342
3 2011 1996 2270
3 256 183 2303
3 160 257 2304
3 2204 1589 2501
3 1891 1014 2280
3 719 725 2336
3 1354 1808 2381
3 437 430 2494
3 2377 218 2391
3 2211 2271 2447
3 1407 2256 2290
3 2365 1460 2412
3 2047 1498 2268
3 1825 1283 2524
3 1499 1825 2475
3 1226 1249 2281
3 2051 2243 2392
3 2250 1160 2310
3 111 112 2346
3 304 306 2345
3 1341 1352 2351
3 2166 191 2504
3 2223 1836 2242
3 1996 247 2481
3 1049 1051 2331
3 1086 1298 2358
3 2130 595 2273
3 1249 2111 2263
3 680 1995 2458
3 1511 2140 2346
3 102 103 2355
3 469 473 2453
3 961 2072 2245
3 2073 1282 2245
3 1442 1443 2525
3 74 192 2361
3 2163 1586 2435
3 1519 1518 2449
3 897 2274 2500
3 303 444 2317
3 1615 1614 2423
3 197 2009 2404
3 1634 2281 2511
3 1780 1781 2419
3 1435 1623 2465
3 1286 1774 2384
3 384 361 2339
3 193 1901 2359
3 1165 2433 2475
3 2277 1370 2386
3 677 653 2209
3 1994 1516 2367
3 1479 1478 2440
3 1165 1512 2433
3 1644 1353 2417
3 1711 1712 2353
3 2193 1615 2425
3 1613 1956 2469
3 1440 1173 2330
3 2269 1479 2440
3 222 2218 2465
3 391 389 2503
3 306 2278 2345
3 468 2090 2365
3 221 2246 2526
3 1445 1446 2504
3 939 1844 2392
3 86 87 2373
3 1429 1428 2366
3 2053 2103 2383
3 1348 1212 2312
3 805 750 2371
3 997 1286 2408
3 1152 869 2363
3 2063 2064 2238
3 192 1994 2367
3 1160 2043 2310
3 1926 2151 2350
3 2059 2098 2271
3 1897 1366 2537
3 215 2262 2437
3 1655 1732 2476
3 2415 1128 2454
3 1320 2213 2214
3 7 258 2357
3 259 155 2356
3 2171 1530 2172
3 347 351 2407
3 1077 1078 2343
3 239 2003 2279
3 1446 1128 2415
3 1034 1033 2410
3 601 627 2442
3 1154 1653 2234
3 397 2060 2405
3 2142 794 2272
3 442 2063 2238
3 1863 1215 2378
3 794 2076 2272
3 1883 1375 2505
3 1320 878 2213
3 342 468 2344
3 1903 218 2377
3 380 376 2497
3 1549 1547 2379
3 1148 1165 2475
3 2157 226 2507
3 829 972 2326
3 884 1957 2466
3 2291 1077 2343
3 65 66 2395
3 787 2052 2518
3 2298 1348 2312
3 1946 2343 2396
3 1653 256 2535
3 1842 1548 2472
3 1957 2301 2466
3 1366 1277 2370
3 2213 1432 2214
3 961 2245 2383
3 218 2093 2391
3 1376 2283 2421
3 1873 2127 2333
3 1019 1021 2512
3 1128 1127 2454
3 1104 1434 2450
3 2130 1439 2468
3 2396 2110 2482
3 2186 855 2283
3 1724 2293 2329
3 1163 1059 2372
3 1614 2389 2423
3 53 54 2402
3 1063 1707 2334
3 2283 855 2421
3 1385 1863 2436
3 364 1883 2505
3 517 1890 2387
3 1145 996 2492
3 1047 1287 2348
3 2148 1875 2320
3 205 2176 2416
3 1372 1844 2478
3 1211 2219 2250
3 1141 898 2368
3 245 1909 2420
3 2278 327 2321
3 2389 1397 2423
3 2256 513 2290
3 559 2403 2456
3 1137 1340 2374
3 2093 1384 2391
3 1918 1148 2524
3 1030 2236 2427
3 1867 1895 2513
3 2014 517 2387
3 2271 1457 2447
3 1143 2028 2353
3 1904 194 2432
3 1148 2475 2524
3 1574 1523 2436
3 2213 1083 2311
3 1997 358 2325
3 2139 246 2506
3 1370 1369 2386
3 1271 2059 2271
3 1034 2173 2463
3 1123 1412 2393
3 1578 1827 2515
3 2209 1320 2424
3 2079 1504 2210
3 1361 2168 2305
3 1491 1489 2403
3 238 1725 2226
3 1190 986 2334
3 1547 1545 2508
3 1891 1613 2469
3 1153 1885 2362
3 2208 1632 2382
3 2287 1281 2448
3 1356 1376 2421
3 1965 2349 2515
3 2155 1186 2422
3 1522 2014 2387
3 2158 1468 2323
3 2050 954 2333
3 1397 1809 2423
3 1362 1360 2376
3 1852 1985 2397
3 2069 1691 2446
3 789 2066 2425
3 1895 755 2513
3 1707 1154 2234
3 372 374 2430
3 2225 787 2518
3 2028 1206 2401
3 986 1063 2334
3 1912 726 2439
3 1340 1342 2400
3 1916 1145 2448
3 2236 1649 2427
3 2374 1340 2400
3 2222 1407 2290
3 2324 1152 2363
3 241 2220 2472
3 765 2190 2384
3 2375 667 2452
3 2330 1173 2406
3 1181 1972 2500
3 2126 1382 2388
3 1173 1012 2406
3 315 313 2495
3 1015 1373 2385
3 97 221 2526
3 1937 1397 2389
3 930 1061 2462
3 971 1096 2496
3 45 46 2485
3 669 791 2529
3 1104 2450 2521
3 382 378 2390
3 2191 1371 2536
3 2235 1036 2286
3 831 2209 2424
3 762 1997 2349
3 2379 1547 2508
3 2177 1359 2467
3 2403 1489 2456
3 796 785 2532
3 219 1902 2516
3 1519 2300 2480
3 1065 1655 2476
3 1375 1473 2505
3 1489 1490 2456
3 390 392 2431
3 2247 2013 2464
3 1135 1930 2369
3 2278 1583 2345
3 626 622 2452
3 631 2298 2312
3 2233 1348 2298
3 1398 1974 2499
3 1706 1681 2492
3 261 130 2444
3 32 260 2445
3 822 2099 2368
3 1365 1912 2439
3 941 940 2418
3 1446 2166 2504
3 2106 1121 2414
3 2300 1519 2449
3 1803 1104 2521
3 1732 1570 2476
3 1413 2051 2392
3 2122 1946 2396
3 2238 1868 2520
3 477 556 2483
3 2397 1985 2533
3 463 445 2411
3 2163 1185 2488
3 1126 2141 2319
3 1755 2264 2533
3 972 2204 2501
3 2230 1533 2340
3 1774 1773 2503
3 1997 2325 2349
3 1004 2069 2446
3 2159 31 2445
3 131 2160 2444
3 1371 2191 2451
3 1001 2154 2486
3 1682 2230 2340
3 2103 961 2383
3 1033 1151 2410
3 382 2390 2531
3 1504 2079 2520
3 1583 2278 2321
3 511 465 2429
3 250 2024 2479
3 2208 2088 2509
3 619 620 2484
3 1246 2208 2366
3 2141 1209 2319
3 1359 1413 2467
3 1295 1459 2458
3 2218 1435 2465
3 2281 1249 2511
3 2293 237 2354
3 2207 1398 2499
3 1564 2155 2422
3 552 469 2453
3 1947 224 2498
3 2062 1568 2490
3 2018 205 2416
3 260 2159 2445
3 2160 261 2444
3 2092 610 2468
3 194 2195 2432
3 1432 2213 2311
3 211 2251 2464
3 2378 856 2527
3 1536 1532 2534
3 2364 786 2497
3 2438 1438 2478
3 1185 1948 2488
3 2042 941 2418
3 1582 2321 2434
3 885 1891 2469
3 1364 2048 2455
3 1693 2225 2518
3 401 382 2531
3 1338 2247 2464
3 442 2238 2520
3 1292 2117 2428
3 2274 1350 2500
3 2066 2193 2425
3 2179 1184 2435
3 898 822 2368
3 2436 1863 2527
3 1844 1016 2478
3 2184 1001 2486
3 557 2207 2499
3 2013 211 2464
3 2254 250 2479
3 1350 1181 2500
3 2009 248 2470
3 246 2140 2506
3 1574 2436 2527
3 2139 1419 2517
3 316 1971 2514
3 1319 2122 2482
3 226 2006 2507
3 1400 2270 2481
3 1681 2287 2448
3 2325 1578 2349
3 232 1652 2487
3 1320 2214 2424
3 1632 2208 2509
3 248 2288 2470
3 1406 1141 2460
3 2188 1322 2434
3 2244 1980 2441
3 2088 1255 2509
3 1280 2109 2427
3 2060 2307 2405
3 2236 1034 2463
3 1745 2293 2354
3 2122 2396 2482
3 2109 1030 2427
3 2307 1563 2405
3 1429 2382 2459
3 224 2267 2498
3 682 2211 2447
3 2079 442 2520
3 2348 1287 2398
3 2220 1842 2472
3 1335 2249 2466
3 1249 2263 2511
3 443 2210 2519
3 2385 1373 2394
3 1594 2184 2486
3 2052 2239 2518
3 1568 2439 2490
3 2349 1578 2515
3 2344 468 2412
3 2270 1996 2481
3 1735 2244 2441
3 2260 1471 2477
3 2210 1504 2519
3 1434 2297 2450
3 2297 1419 2450
3 2263 1660 2502
3 2404 2009 2470
3 1718 2385 2394
3 1371 2194 2536
3 2317 444 2461
3 1443 2322 2525
3 1716 2375 2452
3 1863 2378 2527
3 2439 726 2490
3 1057 2328 2451
3 1638 2404 2470
3 1454 2234 2535
3 755 2320 2513
3 2234 1653 2535
3 2264 552 2533
3 1419 2297 2517
3 1392 2322 2510
3 552 2397 2533
3 1798 2364 2497
3 2322 1392 2525
3 2382 1631 2459
3 1016 2438 2478
3 1366 2370 2537
3 1742 2491 2530
3 2491 257 2530
CELL_TYPES 4886
5
5
5
5
5
5
5
5
5
5
5
5
5
5
5
5
5
5
5
5
5
5
5
5
5
5
5
5
5
5
5
5
5
5
5
5
5
5
5
5
5
5
5
5
5
5
5
5
5
5
5
5
5
5
5
5
5
5
5
5
5
5
5
5
5
5
5
5
5
5
5
5
5
5
5
5
5
5
5
5
5
5
5
5
5
5
5
5
5
5
5
5
5
5
5
5
5
5
5
5
5
5
5
5
5
5
5
5
5
5
5
5
5
5
5
5
5
5
5
5
5
5
5
5
5
5
5
5
5
5
5
5
5
5
5
5
5
5
5
5
5
5
5
5
5
5
5
5
5
5
5
5
5
5
5
5
5
5
5
5
5
5
5
5
5
5
5
5
5
5
5
5
5
5
5
5
5
5
5
5
5
5
5
5
5
5
5
5
5
5
5
5
5
5
5
5
5
5
5
5
5
5
5
5
5
5
5
5
5
5
5
5
5
5
5
5
5
5
5
5
5
5
5
5
5
5
5
5
5
5
5
5
5
5
5
5
5
5
5
5
5
5
5
5
5
5
5
5
5
5
5
5
5
5
5
5
5
5
5
5
5
5
5
5
5
5
5
5
5
5
5
5
5
5
5
5
5
5
5
5
5
5
5
5
5
5
5
5
5
5
5
5
5
5
5
5
5
5
5
5
5
5
5
5
5
5
5
5
5
5
5
5
5
5
5
5
5
5
5
5
5
5
5
5
5
5
5
5
5
5
5
5
5
5
5
5
5
5
5
5
5
5
5
5
5
5
5
5
5
5
5
5
5
5
5
5
5
5
5
5
5
5
5
5
5
5
5
5
5
5
5
5
5
5
5
5
5
5
5
5
5
5
5
5
5
5
5
5
5
5
5
5
5
5
5
5
5
5
5
5
5
5
5
5
5
5
5
5
5
5
5
5
5
5
5
5
5
5
5
5
5
5
5
5
5
5
5
5
5
5
5
5
5
5
5
5
5
5
5
5
5
5
5
5
5
5
5
5
5
5
5
5
5
5
5
5
5
5
5
5
5
5
5
5
5
5
5
5
5
5
5
5
5
5
5
5
5
5
5
5
5
5
5
5
5
5
5
5
5
5
5
5
5
5
5
5
5
5
5
5
5
5
5
5
5
5
5
5
5
5
5
5
5
5
5
5
5
5
5
5
5
5
5
5
5
5
5
5
5
5
5
5
5
5
5
5
5
5
5
5
5
5
5
5
5
5
5
5
5
5
5
5
5
5
5
5
5
5
5
5
5
5
5
5
5
5
5
5
5
5
5
5
5
5
5
5
5
5
5
5
5
5
5
5
5
5
5
5
5
5
5
5
5
5
5
5
5
5
5
5
5
5
5
5
5
5
5
5
5
5
5
5
5
5
5
5
5
5
5
5
5
5
5
5
5
5
5
5
5
5
5
5
5
5
5
5
5
5
5
5
5
5
5
5
5
5
5
5
5
5
5
5
5
5
5
5
5
5
5
5
5
5
5
5
5
5
5
5
5
5
5
5
5
5
5
5
5
5
5
5
5
5
5
5
5
5
5
5
5
5
5
5
5
5
5
5
5
5
5
5
5
5
5
5
5
5
5
5
5
5
5
5
5
5
5
5
5
5
5
5
5
5
5
5
5
5
5
5
5
5
5
5
5
5
5
5
5
5
5
5
5
5
5
5
5
5
5
5
5
5
5
5
5
5
5
5
5
5
5
5
5
5
5
5
5
5
5
5
5
5
5
5
5
5
5
5
5
5
5
5
5
5
5
5
5
5
5
5
5
5
5
5
5
5
5
5
5
5
5
5
5
5
5
5
5
5
5
5
5
5
5
5
5
5
5
5
5
5
5
5
5
5
5
5
5
5
5
5
5
5
5
5
5
5
5
5
5
5
5
5
5
5
5
5
5
5
5
5
5
5
5
5
5
5
5
5
5
5
5
5
5
5
5
5
5
5
5
5
5
5
5
5
5
5
5
5
5
5
5
5
5
5
5
5
5
5
5
5
5
5
5
5
5
5
5
5
5
5
5
5
5
5
5
5
5
5
5
5
5
5
5
5
5
5
5
5
5
5
5
5
5
5
5
5
5
5
5
5
5
5
5
5
5
5
5
5
5
5
5
5
5
5
5
5
5
5
5
5
5
5
5
5
5
5
5
5
5
5
5
5
5
5
5
5
5
5
5
5
5
5
5
5
5
5
5
5
5
5
5
5
5
5
5
5
5
5
5
5
5
5
5
5
5
5
5
5
5
5
5
5
5
5
5
5
5
5
5
5
5
5
5
5
5
5
5
5
5
5
5
5
5
5
5
5
5
5
5
5
5
5
5
5
5
5
5
5
5
5
5
5
5
5
5
5
5
5
5
5
5
5
5
5
5
5
5
5
5
5
5
5
5
5
5
5
5
5
5
5
5
5
5
5
5
5
5
5
5
5
5
5
5
5
5
5
5
5
5
5
5
5
5
5
5
5
5
5
5
5
5
5
5
5
5
5
5
5
5
5
5
5
5
5
5
5
5
5
5
5
5
5
5
5
5
5
5
5
5
5
5
5
5
5
5
5
5
5
5
5
5
5
5
5
5
5
5
5
5
5
5
5
5
5
5
5
5
5
5
5
5
5
5
5
5
5
5
5
5
5
5
5
5
5
5
5
5
5
5
5
5
5
5
5
5
5
5
5
5
5
5
5
5
5
5
5
5
5
5
5
5
5
5
5
5
5
5
5
5
5
5
5
5
5
5
5
5
5
5
5
5
5
5
5
5
5
5
5
5
5
5
5
5
5
5
5
5
5
5
5
5
5
5
5
5
5
5
5
5
5
5
5
5
5
5
5
5
5
5
5
5
5
5
5
5
5
5
5
5
5
5
5
5
5
5
5
5
5
5
5
5
5
5
5
5
5
5
5
5
5
5
5
5
5
5
5
5
5
5
5
5
5
5
5
5
5
5
5
5
5
5
5
5
5
5
5
5
5
5
5
5
5
5
5
5
5
5
5
5
5
5
5
5
5
5
5
5
5
5
5
5
5
5
5
5
5
5
5
5
5
5
5
5
5
5
5
5
5
5
5
5
5
5
5
5
5
5
5
5
5
5
5
5
5
5
5
5
5
5
5
5
5
5
5
5
5
5
5
5
5
5
5
5
5
5
5
5
5
5
5
5
5
5
5
5
5
5
5
5
5
5
5
5
5
5
5
5
5
5
5
5
5
5
5
5
5
5
5
5
5
5
5
5
5
5
5
5
5
5
5
5
5
5
5
5
5
5
5
5
5
5
5
5
5
5
5
5
5
5
5
5
5
5
5
5
5
5
5
5
5
5
5
5
5
5
5
5
5
5
5
5
5
5
5
5
5
5
5
5
5
5
5
5
5
5
5
5
5
5
5
5
5
5
5
5
5
5
5
5
5
5
5
5
5
5
5
5
5
5
5
5
5
5
5
5
5
5
5
5
5
5
5
5
5
5
5
5
5
5
5
5
5
5
5
5
5
5
5
5
5
5
5
5
5
5
5
5
5
5
5
5
5
5
5
5
5
5
5
5
5
5
5
5
5
5
5
5
5
5
5
5
5
5
5
5
5
5
5
5
5
5
5
5
5
5
5
5
5
5
5
5
5
5
5
5
5
5
5
5
5
5
5
5
5
5
5
5
5
5
5
5
5
5
5
5
5
5
5
5
5
5
5
5
5
5
5
5
5
5
5
5
5
5
5
5
5
5
5
5
5
5
5
5
5
5
5
5
5
5
5
5
5
5
5
5
5
5
5
5
5
5
5
5
5
5
5
5
5
5
5
5
5
5
5
5
5
5
5
5
5
5
5
5
5
5
5
5
5
5
5
5
5
5
5
5
5
5
5
5
5
5
5
5
5
5
5
5
5
5
5
5
5
5
5
5
5
5
5
5
5
5
5
5
5
5
5
5
5
5
5
5
5
5
5
5
5
5
5
5
5
5
5
5
5
5
5
5
5
5
5
5
5
5
5
5
5
5
5
5
5
5
5
5
5
5
5
5
5
5
5
5
5
5
5
5
5
5
5
5
5
5
5
5
5
5
5
5
5
5
5
5
5
5
5
5
5
5
5
5
5
5
5
5
5
5
5
5
5
5
5
5
5
5
5
5
5
5
5
5
5
5
5
5
5
5
5
5
5
5
5
5
5
5
5
5
5
5
5
5
5
5
5
5
5
5
5
5
5
5
5
5
5
5
5
5
5
5
5
5
5
5
5
5
5
5
5
5
5
5
5
5
5
5
5
5
5
5
5
5
5
5
5
5
5
5
5
5
5
5
5
5
5
5
5
5
5
5
5
5
5
5
5
5
5
5
5
5
5
5
5
5
5
5
5
5
5
5
5
5
5
5
5
5
5
5
5
5
5
5
5
5
5
5
5
5
5
5
5
5
5
5
5
5
5
5
5
5
5
5
5
5
5
5
5
5
5
5
5
5
5
5
5
5
5
5
5
5
5
5
5
5
5
5
5
5
5
5
5
5
5
5
5
5
5
5
5
5
5
5
5
5
5
5
5
5
5
5
5
5
5
5
5
5
5
5
5
5
5
5
5
5
5
5
5
5
5
5
5
5
5
5
5
5
5
5
5
5
5
5
5
5
5
5
5
5
5
5
5
5
5
5
5
5
5
5
5
5
5
5
5
5
5
5
5
5
5
5
5
5
5
5
5
5
5
5
5
5
5
5
5
5
5
5
5
5
5
5
5
5
5
5
5
5
5
5
5
5
5
5
5
5
5
5
5
5
5
5
5
5
5
5
5
5
5
5
5
5
5
5
5
5
5
5
5
5
5
5
5
5
5
5
5
5
5
5
5
5
5
5
5
5
5
5
5
5
5
5
5
5
5
5
5
5
5
5
5
5
5
5
5
5
5
5
5
5
5
5
5
5
5
5
5
5
5
5
5
5
5
5
5
5
5
5
5
5
5
5
5
5
5
5
5
5
5
5
5
5
5
5
5
5
5
5
5
5
5
5
5
5
5
5
5
5
5
5
5
5
5
5
5
5
5
5
5
5
5
5
5
5
5
5
5
5
5
5
5
5
5
5
5
5
5
5
5
5
5
5
5
5
5
5
5
5
5
5
5
5
5
5
5
5
5
5
5
5
5
5
5
5
5
5
5
5
5
5
5
5
5
5
5
5
5
5
5
5
5
5
5
5
5
5
5
5
5
5
5
5
5
5
5
5
5
5
5
5
5
5
5
5
5
5
5
5
5
5
5
5
5
5
5
5
5
5
5
5
5
5
5
5
5
5
5
5
5
5
5
5
5
5
5
5
5
5
5
5
5
5
5
5
5
5
5
5
5
5
5
5
5
5
5
5
5
5
5
5
5
5
5
5
5
5
5
5
5
5
5
5
5
5
5
5
5
5
5
5
5
5
5
5
5
5
5
5
5
5
5
5
5
5
5
5
5
5
5
5
5
5
5
5
5
5
5
5
5
5
5
5
5
5
5
5
5
5
5
5
5
5
5
5
5
5
5
5
5
5
5
5
5
5
5
5
5
5
5
5
5
5
5
5
5
5
5
5
5
5
5
5
5
5
5
5
5
5
5
5
5
5
5
5
5
5
5
5
5
5
5
5
5
5
5
5
5
5
5
5
5
5
5
5
5
5
5
5
5
5
5
5
5
5
5
5
5
5
5
5
5
5
5
5
5
5
5
5
5
5
5
5
5
5
5
5
5
5
5
5
5
5
5
5
5
5
5
5
5
5
5
5
5
5
5
5
5
5
5
5
5
5
5
5
5
5
5
5
5
5
5
5
5
5
5
5
5
5
5
5
5
5
5
5
5
5
5
5
5
5
5
5
5
5
5
5
5
5
5
5
5
5
5
5
5
5
5
5
5
5
5
5
5
5
5
5
5
5
5
5
5
5
5
5
5
5
5
5
5
5
5
5
5
5
5
5
5
5
5
5
5
5
5
5
5
5
5
5
5
5
5
5
5
5
5
5
5
5
5
5
5
5
5
5
5
5
5
5
5
5
5
5
5
5
5
5
5
5
5
5
5
5
5
5
5
5
5
5
5
5
5
5
5
5
5
5
5
5
5
5
5
5
5
5
5
5
5
5
5
5
5
5
5
5
5
5
5
5
5
5
5
5
5
5
5
5
5
5
5
5
5
5
5
5
5
5
5
5
5
5
5
5
5
5
5
5
5
5
5
5
5
5
5
5
5
5
5
5
5
5
5
5
5
5
5
5
5
5
5
5
5
5
5
5
5
5
5
5
5
5
5
5
5
5
5
5
5
5
5
5
5
5
5
5
5
5
5
5
5
5
5
5
5
5
5
5
5
5
5
5
5
5
5
5
5
5
5
5
5
5
5
5
5
5
5
5
5
5
5
5
5
5
5
5
5
5
5
5
5
5
5
5
5
5
5
5
5
5
5
5
5
5
5
5
5
5
5
5
5
5
5
5
5
5
5
5
5
5
5
5
5
5
5
5
5
5
5
5
5
5
5
5
5
5
5
5
5
5
5
5
5
5
5
5
5
5
5
5
5
5
5
5
5
5
5
5
5
5
5
5
5
5
5
5
5
5
5
5
5
5
5
5
5
5
5
5
5
5
5
5
5
5
5
5
5
5
5
5
5
5
5
5
5
5
5
5
5
5
5
5
5
5
5
5
5
5
5
5
5
5
5
5
5
5
5
5
5
5
5
5
5
5
5
5
5
5
5
5
5
5
5
5
5
5
5
5
5
5
5
5
5
5
5
5
5
5
5
5
5
5
5
5
5
5
5
5
5
5
5
5
5
5
5
5
5
5
5
5
5
5
5
5
5
5
5
5
5
5
5
5
5
5
5
5
5
5
5
5
5
5
5
5
5
5
5
5
5
5
5
5
5
5
5
5
5
5
5
5
5
5
5
5
5
5
5
5
5
5
5
5
5
5
5
5
5
5
5
5
5
5
5
5
5
5
5
5
5
5
5
5
5
5
5
5
5
5
5
5
5
5
5
5
5
5
5
5
5
5
5
5
5
5
5
5
5
5
5
5
5
5
5
5
5
5
5
5
5
5
5
5
5
5
5
5
5
5
5
5
5
5
5
5
5
5
5
5
5
5
5
5
5
5
5
5
5
5
5
5
5
5
5
5
5
5
5
5
5
5
5
5
5
5
5
5
5
5
5
5
5
5
5
5
5
5
5
5
5
5
5
5
5
5
5
5
5
5
5
5
5
5
5
5
5
5
5
5
5
5
5
5
5
5
5
5
5
5
5
5
5
5
5
5
5
5
5
5
5
5
5
5
5
5
5
5
5
5
5
5
5
5
5
5
5
5
5
5
5
5
5
5
5
5
5
5
5
5
5
5
5
5
5
5
5
5
5
5
5
5
5
5
5
5
5
5
5
5
5
5
5
5
5
5
5
5
5
5
5
5
5
5
5
5
5
5
5
5
5
5
5
5
5
5
5
5
5
5
5
5
5
5
5
5
5
5
5
5
5
5
5
5
5
5
5
5
5
5
5
5
5
5
5
5
5
5
5
5
5
5
5
5
5
5
5
5
5
5
5
5
5
5
5
5
5
5
5
5
5
5
5
5
5
5
5
5
5
5
5
5
5
5
5
5
5
5
5
5
5
5
5
5
5
5
5
5
5
5
5
5
5
5
5
5
5
5
5
5
5
5
5
5
5
5
5
5
5
5
5
5
5
5
5
5
5
5
5
5
5
5
5
5
5
5
5
5
5
5
5
5
5
5
5
5
5
5
5
5
5
5
5
5
5
5
5
5
5
5
5
5
5
5
5
5
5
5
5
5
5
5
5
5
5
5
5
5
5
5
5
5
5
5
5
5
5
5
5
5
5
5
5
5
5
5
5
5
5
5
5
5
5
5
5
5
5
5
5
5
5
5
5
5
5
5
5
5
5
5
5
5
5
5
5
5
5
5
5
5
5
5
5
5
5
5
5
5
5
5
5
5
5
5
5
5
5
5
5
5
5
5
5
5
5
5
5
5
5
5
5
5
5
5
5
5
5
5
5
5
5
5
5
5
5
5
5
5
5
5
5
5
5
5
5
5
5
5
5
5
5
5
5
5
5
5
5
5
5
5
5
5
5
5
5
5
5
5
5
5
5
5
5
5
5
5
5
5
5
5
5
5
5
5
5
5
5
5
5
5
5
5
5
5
5
5
5
5
5
5
5
5
5
5
5
5
5
5
5
5
5
5
5
5
5
5
5
5
5
5
5
5
5
5
5
5
5
5
5
5
5
5
5
5
5
5
5
5
5
5
5
5
5
5
5
5
5
5
5
5
5
5
5
5
5
5
5
5
5
5
5
5
5
5
5
5
5
5
5
5
5
5
5
5
5
5
5
5
5
5
5
5
5
5
5
5
5
5
5
5
5
5
5
5
5
5
5
5
5
5
5
5
5
5
5
5
5
5
5
5
5
5
5
5
5
5
5
5
5
5
5
5
5
5
5
5
5
5
5
5
5
5
5
5
5
5
5
5
5
5
5
5
5
5
5
5
5
5
5
5
5
5
5
5
5
5
5
5
5
5
5
5
5
5
5
5
5
5
5
5
5
5
5
5
5
5
5
5
5
5
5
5
5
5
5
5
5
5
5
5
5
5
5
5
5
5
5
5
5
5
5
5
5
5
5
5
5
5
5
5
5
5
5
5
5
5
5
5
5
5
5
5
5
5
5
5
5
5
5
5
5
5
5
5
5
5
5
5
5
5
5
5
5
5
5
5
5
5
5
5
5
5
5
5
5
5
5
5
5
5
5
5
5
5
5
5
5
5
5
5
5
5
5
5
5
5
5
5
5
5
5
5
5
5
5
5
5
5
5
5
5
5
5
5
5
5
5
5
5
5
5
5
5
5
5
5
5
5
5
5
5
5
5
5
5
5
5
5
5
5
5
5
5
5
5
5
5
5
5
5
5
5
5
5
5
5
5
5
5
5
5
5
5
5
5
5
5
5
5
5
5
5
5
5
5
5
5
5
5
5
5
5
5
5
5
5
5
5
5
5
5
5
5
5
5
5
5
5
5
5
5
5
5
5
5
5
5
5
5
5
5
5
5
5
5
5
5
5
5
5
5
5
5
5
5
5
5
5
5
5
5
5
5
5
5
5
5
5
5
5
5
5
5
5
5
5
5
5
5
5
5
5
5
5
5
5
5
5
5
5
5
5
5
5
5
5
5
5
5
5
5
5
5
5
5
5
5
5
5
5
5
5
5
5
5
5
5
5
5
5
5
5
5
5
5
5
5
5
5
5
5
5
5
5
5
5
5
5
5
5
5
5
5
5
5
5
5
5
5
5
5
5
5
5
5
5
5
5
5
5
5
5
5
5
5
5
5
5
5
5
5
5
5
5
5
5
5
5
5
5
5
5
5
5
5
5
5
5
5
5
5
5
5
5
5
5
5
5
5
5
5
5
5
5
5
5
5
5
5
5
5
5
5
5
5
5
5
5
5
5
5
5
5
5
5
5
5
5
5
5
5
5
5
5
5
5
5
5
5
5
5
5
5
5
5
5
5
5
5
5
5
5
5
5
5
5
5
5
5
5
5
5
5
5
5
5
5
5
5
5
5
5
5
5
5
5
5
5
5
5
5
5
5
5
5
5
5
5
5
5
5
5
5
5
5
5
5
5
5
5
5
5
5
5
5
5
5
5
5
5
5
5
5
5
5
5
5
5
5
5
5
5
5
5
5
5
5
5
5
5
5
5
5
5
5
5
5
5
5
5
5
5
5
5
5
5
5
5
5
5
5
5
5
5
5
5
5
5
5
5
5
5
5
5
5
5
5
5
5
5
5
5
5
5
5
5
5
5
5
5
5
5
5
5
5
5
5
5
5
5
5
5
5
5
5
5
5
5
5
5
5
5
5
5
5
5
5
5
5
5
5
5
5
5
5
5
5
5
5
5
5
5
5
5
5
5
5
5
5
5
5
5
5
5
5
5
5
5
5
5
5
5
5
5
5
5
5
5
5
5
5
5
5
5
5
5
5
5
5
5
5
5
5
5
5
5
5
5
5
5
5
5
5
5
5
5
5
5
5
5
5
5
5
5
5
5
5
5
5
5
5
5
5
5
5
5
5
5
5
5
5
5
5
5
5
5
5
5
5
5
5
5
5
5
5
5
5
5
5
5
5
5
5
5
5
5
5
5
5
5
5
5
5
5
5
5
5
5
5
5
5
5
5
5
5
5
5
5
5
5
5
5
5
5
5
5
5
5
5
5
5
5
5
5
5
5
5
5
5
5
5
5
5
5
5
5
5
5
5
5
5
5
5
5
5
5
5
5
5
5
5
5
5
5
5
5
5
5
5
5
5
5
5
5
5
5
5
5
5
5
5
5
5
5
5
5
5
5
5
5
5
5
5
5
5
5
5
5
5
5
5
5
5
5
5
5
5
5
5
5
5
5
5
5
5
5
5
5
5
5
5
5
5
5
5
5
5
5
5
5
5
5
5
5
5
5
5
5
5
5
5
5
5
5
5
5
5
5
5
5
5
5
5
5
5
5
5
5
5
5
5
5
5
5
5
5
5
5
5
5
5
5
5
5
5
5
5
5
5
5
5
5
5
5
5
5
5
5
5
5
5
5
5
5
5
5
5
5
5
5
5
5
5
5
5
5
5
5
5
5
5
5
5
5
5
5
5
5
5
5
5
5
5
5
5
5
5
5
5
5
5
5
5
5
5
5
5
5
5
5
5
5
5
5
5
5
5
5
5
5
5
5
5
5
5
5
5
5
5
5
5
5
5
5
5
5
5
5
5
5
5
5
5
5
5
5
5
5
5
5
5
5
5
5
5
5
5
5
5
5
5
5
5
5
5
5
5
5
5
5
5
5
5
5
5
5
5
5
5
5
5
5
5
5
5
5
5
5
5
5
5
5
5
5
5
5
5
5
5
5
5
5
5
5
5
5
5
5
5
5
5
5
5
5
5
5
5
5
5
5
5
5
5
5
5
5
5
5
5
5
5
5
5
5
5
5
5
5
5
5
5
5
5
5
5
5
5
5
5
5
5
5
5
5
5
5
5
5
5
5
5
5
5
5
5
5
5
POINT_DATA 2538
VECTORS disp float
1.234995976510524e-11 1.696923483099887e-11 0.0
2.0780272529730687e-12 -6.52008345088924e-12 0.0
0.001300000000145185 1.8933188754469098e-12 0.0
0.0012999999787905617 -4.309809807665536e-11 0.0
0.000642046364844825 0.00029489139685789163 0.0
0.000970042339934624 1.3685482417663292e-5 0.0
0.0007681578408986191 -5.495994266573871e-5 0.0
-2.1279748893456103e-12 -3.609595321507004e-12 0.0
1.1373037721504462e-12 7.639626461557661e-13 0.0
5.228218767705423e-13 -1.2083551647418504e-12 0.0
6.268163567303201e-13 -8.276828209543657e-13 0.0
2.6053874463034373e-13 -7.909094734474724e-13 0.0
3.261556985476317e-13 -1.0726866431560585e-12 0.0
2.373811176210215e-13 -1.1949849249408613e-12 0.0
2.0356333641301404e-13 -1.4751060296489633e-12 0.0
1.2304908122666624e-13 -1.7197153751892135e-12 0.0
2.4478310582763177e-13 -1.996225944576103e-12 0.0
2.3990000641066683e-13 -2.1827318023189933e-12 0.0
2.8111241968386963e-13 -2.3303040355200525e-12 0.0
3.0773264248417214e-13 -2.432726317492599e-12 0.0
2.897361688763769e-13 -2.462470352140656e-12 0.0
3.424918679084371e-13 -2.584754184319968e-12 0.0
3.146867249716146e-13 -2.5922614346468785e-12 0.0
3.119954441683069e-13 -2.6796306167306354e-12 0.0
3.6986046469633514e-13 -2.728388499586286e-12 0.0
3.4296897754114697e-13 -2.737399180342927e-12 0.0
3.7083274977076557e-13 -2.7831528086398117e-12 0.0
4.340883877852331e-13 -2.8371707630295807e-12 0.0
4.524242499935488e-13 -2.914487736890859e-12 0.0
4.2954976666086826e-13 -3.0831984715813497e-12 0.0
6.240819506207149e-13 -3.374805760643468e-12 0.0
1.3272050882906312e-13 -3.1079459131231154e-12 0.0
1.6047301822960932e-5 -6.142497344389892e-6 0.0
2.9447175096311925e-5 -1.137748757050817e-5 0.0
4.2699288527016595e-5 -1.6160859744035636e-5 0.0
5.539991121378054e-5 -2.0735058849079778e-5 0.0
6.7576229111436e-5 -2.5107315076073005e-5 0.0
7.942435556963496e-5 -2.939117722842934e-5 0.0
9.120131493335737e-5 -3.34441050635377e-5 0.0
0.00010276998608263183 -3.74150850883872e-5 0.0
0.00011422158690719499 -4.13266428002781e-5 0.0
0.0001256476715554605 -4.513419855530485e-5 0.0
0.00013699599884146383 -4.887710742406928e-5 0.0
0.00014848850044088324 -5.2562623070798477e-5 0.0
0.0001599513642579561 -5.627003357664891e-5 0.0
0.0001711705797562983 -5.98783447960199e-5 0.0
0.0001829162217398805 -6.381569994993403e-5 0.0
0.0001944559837857953 -6.794444214120537e-5 0.0
0.00020611214147281108 -7.207200377835524e-5 0.0
0.0002176473824552321 -7.61361031938089e-5 0.0
0.00022908186731043556 -8.021212115857815e-5 0.0
0.00024044502473855712 -8.421228798029064e-5 0.0
0.0002520622947919839 -8.804628664962761e-5 0.0
0.0002632512022913215 -9.17658007977629e-5 0.0
0.0002750306299477354 -9.5121980519848e-5 0.0
0.00028637076209214247 -9.851910876693167e-5 0.0
0.0002980839134123002 -0.0001016802650448386 0.0
0.0003095929512490107 -0.0001047255401626421 0.0
0.00032123719488118073 -0.00010766998064515936 0.0
0.0003327220675359028 -0.0001103368841486409 0.0
0.0003446156355226343 -0.00011283530788849267 0.0
0.00035626685672137293 -0.00011522077990639532 0.0
0.0003681709804504463 -0.00011741915738237995 0.0
0.00037998865916994334 -0.0001194240314090737 0.0
0.00039194482111688876 -0.0001214076788815598 0.0
0.00040430148168797453 -0.00012339218098438113 0.0
0.0004186272134878808 -0.0001261085660861408 0.0
0.0004332355005391105 -0.00012936553687178587 0.0
0.0004473556752074421 -0.0001332790574347764 0.0
0.0004625663293425289 -0.000137124076686602 0.0
0.00047516059401141365 -0.00014174405400770065 0.0
0.0004879200149797854 -0.0001459970957042206 0.0
0.0004991719394222205 -0.0001505662305997346 0.0
0.0005076706949050666 -0.00015566043103475003 0.0
0.0005172817592193618 -0.00015812315963147194 0.0
0.0005264989823199005 -0.00016067781676967923 0.0
0.0005367213903161838 -0.00016262629574632668 0.0
0.0005470554405264395 -0.00016442205136792291 0.0
0.0005576908254388925 -0.0001660200166085949 0.0
0.0005689187360927703 -0.00016722363708515227 0.0
0.0005801602866231433 -0.00016885334556309548 0.0
0.0005922800306539669 -0.00016998852024352563 0.0
0.0006039572093978545 -0.00017147497593328792 0.0
0.0006164007258270205 -0.00017242814371801158 0.0
0.000629015978921536 -0.00017332263035019015 0.0
0.0006431345021369673 -0.00017410120772779798 0.0
0.0006572867401817616 -0.0001746929832731255 0.0
0.0006730498965782023 -0.00017504114785911183 0.0
0.0006893389963756813 -0.00017531717875796668 0.0
0.0007057091094732527 -0.00017548107280233595 0.0
0.0007218682814874124 -0.00017566467067238798 0.0
0.0007374521573758598 -0.0001758034847741469 0.0
0.0007519947628867807 -0.0001760509491548085 0.0
0.000765622798982118 -0.00017640589908040648 0.0
0.0007789336324895967 -0.00017682452061544446 0.0
0.0007916102364703173 -0.000177203900188268 0.0
0.0008040250534297827 -0.00017758288075431632 0.0
0.0008165480080936226 -0.0001778452230272914 0.0
0.0008292577284263077 -0.00017790994178949187 0.0
0.0008418984409859263 -0.00017789265170838447 0.0
0.000854840068882395 -0.00017756204617271683 0.0
0.0008679800637644325 -0.00017706754437301923 0.0
0.0008806015077575343 -0.0001765241860161825 0.0
0.000893409150122344 -0.0001758672299139007 0.0
0.0009057808363806064 -0.00017544896361230855 0.0
0.0009179034321190277 -0.0001750823908881959 0.0
0.0009298156616526684 -0.00017479106729100864 0.0
0.000940605383300302 -0.00017471895168488428 0.0
0.0009510063197372827 -0.00017454470706497303 0.0
0.000961015083579321 -0.00017441908207725386 0.0
0.000971060111423534 -0.00017413257283981163 0.0
0.0009807045203857894 -0.00017374232521567164 0.0
0.0009918672467570788 -0.0001737212533689761 0.0
0.0010036038025955337 -0.00017297369688420812 0.0
0.0010153098391872523 -0.0001718977627121252 0.0
0.0010262814812054897 -0.00016963569417187825 0.0
0.0010373404974953686 -0.00016599071150549396 0.0
0.0010487121003837645 -0.00016196789653430342 0.0
0.001061380844538696 -0.0001573107690927506 0.0
0.001074553351528617 -0.00015258257372084458 0.0
0.0010871140856965902 -0.0001484657909829855 0.0
0.001100006014183788 -0.00014406550749591066 0.0
0.0011138670904115963 -0.00013852333051049692 0.0
0.0011273370503816621 -0.00013176897475809929 0.0
0.0011414169052217928 -0.00012390136582556598 0.0
0.0011558699280622437 -0.00011507475131129641 0.0
0.0011721266755065237 -0.00010464922178271411 0.0
0.0011900410382489357 -9.181495405687995e-5 0.0
0.0012096138540417824 -7.634751606831027e-5 0.0
0.0012335886838769545 -5.781953917232548e-5 0.0
0.0012612888318555148 -3.48791710229383e-5 0.0
0.001300000000668741 3.4484963983187403e-13 0.0
0.0012999999969852904 -3.870076988159143e-12 0.0
0.0012999999991492191 5.401818462013677e-13 0.0
0.0012999999985569793 2.0873193096276715e-14 0.0
0.0012999999989106383 4.447673693852686e-13 0.0
0.0012999999988935504 6.057030500787922e-13 0.0
0.0012999999989236409 5.968772040664192e-13 0.0
0.001299999999041038 6.510567617013425e-13 0.0
0.0012999999990811221 7.142163212622182e-13 0.0
0.0012999999991690524 7.823512682102537e-13 0.0
0.0012999999992121976 8.704330154548167e-13 0.0
0.0012999999992539557 9.984598335978165e-13 0.0
0.0012999999992407679 1.0865713551480174e-12 0.0
0.0012999999992416788 1.1782939067721711e-12 0.0
0.001299999999226057 1.2477759181458052e-12 0.0
0.0012999999992165804 1.3128824545701767e-12 0.0
0.0012999999991870027 1.34708366198052e-12 0.0
0.0012999999992095795 1.4152908218059206e-12 0.0
0.0012999999992062972 1.4545812488215412e-12 0.0
0.0012999999992585227 1.3985769049656029e-12 0.0
0.001299999999313649 1.352936458569682e-12 0.0
0.001299999999330722 1.24385090281836e-12 0.0
0.0012999999995164956 1.2319202472694532e-12 0.0
0.0012999999997400067 1.347130984665725e-12 0.0
0.0012999999997545034 1.0838524186016144e-12 0.0
0.001222493097361193 1.9059071769992705e-5 0.0
0.0011457162354344208 2.2965351846505823e-5 0.0
0.0010714267628011741 1.794589770156011e-5 0.0
0.0010102518208852484 1.5267667785937294e-5 0.0
0.0009666777357597632 -1.5892894817305928e-5 0.0
0.0009645797429354711 -4.394808633699175e-5 0.0
0.0009625283724904514 -7.26608172811652e-5 0.0
0.0009569598592771152 -9.347073777407188e-5 0.0
0.0009486708139340927 -0.00010860910556786466 0.0
0.0009372691670175588 -0.00011845201285883848 0.0
0.0009232476800521848 -0.0001237921251433147 0.0
0.0009068199502370257 -0.00012267471992964303 0.0
0.0008884055829231106 -0.00011815762148644808 0.0
0.0008675404888302154 -0.00011074117617490292 0.0
0.0008425411900973311 -0.00010072181429703476 0.0
0.0008127728445443121 -8.679629366959399e-5 0.0
0.0007429283430682533 -2.1400395724278248e-5 0.0
0.0007239377291296314 -5.94225086120852e-7 0.0
0.0007071487569837433 1.6470038570365905e-5 0.0
0.0006914438250227373 3.322353682973046e-5 0.0
0.0006763243389273886 4.948113222048321e-5 0.0
0.0006630419867076759 6.581617859019855e-5 0.0
0.0006511351405218207 8.275853982641839e-5 0.0
0.0006412575438071468 9.908554121484395e-5 0.0
0.0006350524505045049 0.0001213690479258185 0.0
0.0006301727607238221 0.00014661000844014738 0.0
0.000632642703897742 0.00018201292968622645 0.0
0.0006306988602837883 0.00022490852197065692 0.0
0.0005564139086440662 0.0002929912461864287 0.0
0.00046534170400710503 0.0002890267172944337 0.0
0.00036892752368164467 0.00026088851868206277 0.0
0.0002517697162558624 0.00018907727075075594 0.0
0.0003476822782843889 -0.00010810825586049871 0.0
0.0008760227551412021 -0.0001667563653886508 0.0
0.0004365140346878076 -0.00012314185345833212 0.0
0.0007858053110168124 -0.00016823330350741291 0.0
0.0005207052525507179 -0.00015256287326056964 0.0
0.0006792279871770508 -0.00016309684677042163 0.0
0.0005858888763883617 -0.00015966132088455137 0.0
0.0009476258169443374 -0.00016699898666426861 0.0
0.00027932230773003485 -9.306560748040756e-5 0.0
0.0009972788606343909 -0.00016110214475943468 0.0
0.00022111782250539 -7.508714661193321e-5 0.0
2.6366783122962265e-5 -5.825847016429118e-6 0.0
0.0012651937964217371 9.87930054321608e-7 0.0
0.0007958741715221879 -5.99262635895165e-5 0.0
0.0008832159286738463 -0.00011088055576158254 0.0
0.0007149743914017989 -2.8541890729525393e-5 0.0
0.0006561951488544875 4.760747549607339e-5 0.0
0.001058214837592434 -0.00014548113747217442 0.0
0.00016608192073573814 -5.654541053890317e-5 0.0
2.029806470777267e-5 -4.5883353999363856e-6 0.0
0.0012754071679439796 -6.31072111514598e-7 0.0
0.0012511631442905869 1.927102092194522e-6 0.0
3.059445650328838e-5 -4.194347020050792e-6 0.0
0.0011102075327180361 -0.0001220434398387753 0.0
0.00011890271630354108 -4.038357347213691e-5 0.0
0.000936172519903686 -0.00010571275131467915 0.0
0.0006135330666799276 9.357643795320087e-5 0.0
1.5732845584172263e-5 -3.603883257772185e-6 0.0
0.0012791027629122135 -1.1721822483493015e-6 0.0
0.0004907049618972631 -0.00014102072703287198 0.0
0.000551640339453085 -0.00015701433157697353 0.0
0.0007447416435249997 -0.00016618466176459011 0.0
0.0006234786197208586 -0.00016117905288785922 0.0
0.0008238072582695351 -0.00016844015740926618 0.0
0.0009112331703022137 -0.0001671143032313585 0.0
0.00039891530290249764 -0.00011704779551271076 0.0
0.000313895568810672 -0.00010188290054930316 0.0
0.0011517689669322433 -9.908516984485338e-5 0.0
8.361491760439983e-5 -2.8198468978101064e-5 0.0
0.0012447384501106079 1.5807175075210212e-6 0.0
4.105127000213102e-5 -7.061657716068067e-8 0.0
0.0012822161010329065 -1.5480218604856027e-6 0.0
1.454220490310486e-5 -3.238528395831926e-6 0.0
0.0009673595536539844 -7.869830694140359e-5 0.0
0.000595950802142985 0.00013354046875594657 0.0
0.0012328884488572662 7.47635149026126e-7 0.0
6.612572462270964e-5 2.4021240953749087e-6 0.0
2.362443760694542e-5 -5.2999247498262e-6 0.0
0.0012705223255533712 2.133302639719329e-7 0.0
0.0008426057915966166 -9.392778774978033e-5 0.0
0.0006871736100335704 1.3980625446324475e-5 0.0
4.639655631699447e-5 -1.4624921924893971e-5 0.0
0.0012102110517023252 -5.85306649430161e-5 0.0
0.0008488376013789036 -0.00016883815460219586 0.0
0.000649877477227572 -0.00016285620471278916 0.0
0.00046707641674327116 -0.00013169190745480308 0.0
0.00037277172383041486 -0.00011345138977255899 0.0
0.0007138220085207432 -0.0001643472634707645 0.0
0.0009662170850409425 -0.00016644072840251207 0.0
0.0002561980893229094 -8.634290377743471e-5 0.0
0.0010226104463576695 -0.0001574706176838631 0.0
0.00019678330189101616 -6.652491330957215e-5 0.0
0.00014134274504043544 -4.814136830149693e-5 0.0
0.0010834888827145493 -0.0001341203590350461 0.0
0.0004057531117224731 0.00016476182014429216 0.0
0.0010953726212349644 -3.055301955663567e-6 0.0
0.0012818215121622777 -3.99065869823875e-6 0.0
1.2006465698376275e-5 -2.7920492365265246e-6 0.0
0.0005854029012239438 0.00019710519216335426 0.0
0.000984101975395173 -3.0679595478953875e-5 0.0
8.883186815126959e-5 1.27640984544443e-5 0.0
0.0012433105435404438 2.7031164833971625e-6 0.0
2.022092935284989e-5 -5.8257368014049994e-6 0.0
0.0012573673703140627 -2.3522570938111437e-5 0.0
0.0010387888363575166 -5.720273780352961e-6 0.0
0.001049866244516205 -2.1902527993575193e-5 0.0
0.0011132435187486604 -1.1175870341892034e-5 0.0
0.0010643521908885898 -2.3398962390854026e-5 0.0
0.00101637096462484 -4.034394767092491e-5 0.0
0.001020328348401085 -3.6281554383705e-5 0.0
0.0010684798754010186 -2.0660583316611893e-5 0.0
0.0010247814899686227 -2.772965012036057e-5 0.0
0.0010758296964498825 -1.5474109112672248e-5 0.0
0.0010336637963108384 -1.9165600516571965e-5 0.0
0.0009877664943887157 -3.17568736895422e-5 0.0
0.0009946959856131298 -2.0905617220005124e-5 0.0
0.000955956870508362 -3.1590047490290855e-5 0.0
0.0009607229504688644 -2.0776501164647304e-5 0.0
0.0009267811331395754 -2.9492124476134957e-5 0.0
0.0009312435103502717 -1.7942888754652405e-5 0.0
0.0007836696139966795 -5.0865298655998046e-5 0.0
0.0007568022768636657 -5.697876150208805e-5 0.0
0.0007689183957935187 -4.987899463507314e-5 0.0
0.0007456246216530956 -5.6877328376295805e-5 0.0
0.0007563125897776356 -5.008566156540956e-5 0.0
0.0007357178442756228 -5.583448112835871e-5 0.0
0.0007448051521157825 -4.8851745385418316e-5 0.0
0.0007258174805306069 -5.4394570036022896e-5 0.0
0.0007341810241551917 -4.778437624409882e-5 0.0
0.0007160670935499516 -5.369396178191614e-5 0.0
0.0007244070876261714 -4.7487809216622375e-5 0.0
0.0007071422637211377 -5.270436692609559e-5 0.0
0.0007154569055920152 -4.6984100901307894e-5 0.0
0.0006992395250969163 -5.122395510149037e-5 0.0
0.000707275380797283 -4.5780081773956705e-5 0.0
0.0006914172444603189 -4.979370984021915e-5 0.0
0.0006997452355910714 -4.490465184797912e-5 0.0
0.0006836547279686972 -4.9088528139681824e-5 0.0
0.0006926319202288675 -4.44335555707377e-5 0.0
0.0006769842436248175 -4.781789682417572e-5 0.0
0.0006861406724164938 -4.3501978965331186e-5 0.0
0.0006707865283407582 -4.667389273178255e-5 0.0
0.0006796377132409144 -4.278236694869796e-5 0.0
0.0006648108613120284 -4.585003910853842e-5 0.0
0.0006737913125625997 -4.236650466137223e-5 0.0
0.0006595571670267183 -4.526359033044098e-5 0.0
0.0006682541181099801 -4.198095998105072e-5 0.0
0.0006538511855083054 -4.506514473887921e-5 0.0
0.000662823687279077 -4.191018035480357e-5 0.0
0.0006456210796109452 -4.564987128089426e-5 0.0
0.0006583760090063456 -4.1965529142468064e-5 0.0
0.0006434235668657248 -4.4739013497762064e-5 0.0
0.0006536161095162847 -4.210536623072144e-5 0.0
0.000639231543273145 -4.4833698106023194e-5 0.0
0.0006492125003549984 -4.2543470275376464e-5 0.0
0.0006356457198818544 -4.51004822132412e-5 0.0
0.0006449334949959449 -4.318003164375391e-5 0.0
0.0006316480253242919 -4.5645275345058786e-5 0.0
0.0007027724133369883 -5.884293445601517e-5 0.0
0.0006408493184188072 -4.40312486876376e-5 0.0
0.0006669398639754196 -5.2223512968269415e-5 0.0
0.0006302444455948562 -4.786362921121979e-5 0.0
0.000626964103733622 -4.6630832512518374e-5 0.0
0.0006368632752017019 -4.5157584521639995e-5 0.0
0.0006223880381293816 -4.78515889354961e-5 0.0
0.0006129197883335063 -4.912958996419773e-5 0.0
0.0006079830425197402 -5.038547229806862e-5 0.0
0.0006323875405343989 -4.662070249257883e-5 0.0
0.0006471515415353644 -4.379735953708691e-5 0.0
0.0006675666690932953 -3.949862943637496e-5 0.0
0.0006428654735476314 -4.5506309283566003e-5 0.0
0.0006587961293272008 -4.237002227512546e-5 0.0
0.0006539812216328307 -4.452485298171259e-5 0.0
0.0005986400219690998 -5.153105728993947e-5 0.0
0.0005943468655501348 -5.2647372307298176e-5 0.0
0.0006706142527349033 -4.119978468236583e-5 0.0
0.0005841816791853576 -5.377404833910358e-5 0.0
0.0005806094553751182 -5.480055973920617e-5 0.0
0.0006662291134839398 -4.357888334196972e-5 0.0
0.000682355116576771 -4.0418960866433476e-5 0.0
0.0005695231389772656 -5.586555710325333e-5 0.0
0.0005657196150309755 -5.688592903818531e-5 0.0
0.0006785391046568372 -4.2979117028697886e-5 0.0
0.0006952736750230893 -3.972005429658668e-5 0.0
0.0005548030949169971 -5.77155631286128e-5 0.0
0.0005508376111585282 -5.886642725196383e-5 0.0
0.0006915272504146597 -4.2652329621359664e-5 0.0
0.0007089106243063011 -3.923988862299418e-5 0.0
0.0005401063286670424 -5.9419277363314534e-5 0.0
0.0005353415038189755 -6.0585085531895745e-5 0.0
0.0007055543239474402 -4.24836506067689e-5 0.0
0.0007230957943907011 -3.9023836861585586e-5 0.0
0.0005238734038919252 -6.091111333410192e-5 0.0
0.0005194987864796418 -6.206826718413135e-5 0.0
0.0005066414945101301 -6.219702645360835e-5 0.0
0.0005112251642930085 -6.129083551129812e-5 0.0
0.0006867750337182222 -4.583370403125924e-5 0.0
0.0007198742657409385 -4.2679650027908415e-5 0.0
0.0007378122659424327 -3.91079232670201e-5 0.0
0.0007413269376749534 -3.525129394431763e-5 0.0
0.0006934327441145384 -3.966767892995925e-5 0.0
0.0007566053985470204 -3.525539284045587e-5 0.0
0.0007602876018988818 -3.122395460804475e-5 0.0
0.0007759944185013266 -3.107563046289982e-5 0.0
0.0005035316722168764 -6.345231060232803e-5 0.0
0.0004896882552213984 -6.320479155268292e-5 0.0
0.0005162018380110093 -6.362407463548215e-5 0.0
0.0007343017626258454 -4.3281901874828116e-5 0.0
0.00048693719817216157 -6.452743222747316e-5 0.0
0.00047221849435375595 -6.397882173765842e-5 0.0
0.0007226555151169393 -4.13063466662852e-5 0.0
0.00046970500774242026 -6.519466007395139e-5 0.0
0.0004541880338325672 -6.438339512959546e-5 0.0
0.0004518350655048746 -6.564554016339661e-5 0.0
0.0004360963223554768 -6.452071392426777e-5 0.0
0.0004380713351101026 -6.352431693702309e-5 0.0
0.0004182645901108518 -6.348729278911152e-5 0.0
0.0004205919603231186 -6.256421785735301e-5 0.0
0.0004317277639166987 -6.582153661394537e-5 0.0
0.000398983039561536 -6.217565312264804e-5 0.0
0.0004011638848722254 -6.147419935145382e-5 0.0
0.00044972175438896144 -6.73448297604969e-5 0.0
0.0004324465657912698 -6.777252858670659e-5 0.0
0.00037998469619965325 -6.0688659454955675e-5 0.0
0.00038119603731521655 -6.0095958864564856e-5 0.0
0.0007800838618777741 -2.7082249426161355e-5 0.0
0.0007963541297689082 -2.6857176249510643e-5 0.0
0.00044774211190251985 -6.942684175195501e-5 0.0
0.00043077282330102246 -6.985143380270358e-5 0.0
0.0008006056267223832 -2.2817044450190933e-5 0.0
0.000817669105973313 -2.2578440208073142e-5 0.0
0.0008127009308553101 -2.7400645694405836e-5 0.0
0.0008343716592151523 -2.286200434910679e-5 0.0
0.0008299237015395407 -2.8217582004729103e-5 0.0
0.0008520207738374682 -2.327159948439311e-5 0.0
0.0008487921496232232 -2.8984264613489543e-5 0.0
0.0008721224116692611 -2.337968140437961e-5 0.0
0.0008671165422044319 -2.9622396822452937e-5 0.0
0.0008751585435911337 -1.8279968204869115e-5 0.0
0.0008912006016909637 -2.4037338468881442e-5 0.0
0.0008851640364061249 -3.078286301199395e-5 0.0
0.00044613847856969614 -7.182266630797057e-5 0.0
0.0003586393511203373 -5.88952980122096e-5 0.0
0.0003591862508729437 -5.8246380055555906e-5 0.0
0.0008629167374900149 -3.696379750211526e-5 0.0
0.0008803552964332436 -3.853307232548504e-5 0.0
0.0009027507233848714 -3.2095200776898115e-5 0.0
0.0008597649683874891 -4.508384081939345e-5 0.0
0.0004296049097339355 -7.226149132047487e-5 0.0
0.0008980650252610152 -4.042827326128356e-5 0.0
0.0009204528922483091 -3.355724457964704e-5 0.0
0.00044465348013396274 -7.454928692734001e-5 0.0
0.00042844302296048554 -7.503985130923973e-5 0.0
0.0004135172854821908 -7.256139304002011e-5 0.0
0.0009157435045469547 -4.26195292990019e-5 0.0
0.0009382965945234206 -3.5162698977936945e-5 0.0
0.0004432625289141591 -7.765148288952263e-5 0.0
0.00045872721300796633 -7.701421243682309e-5 0.0
0.00041256317351687883 -7.539409781953365e-5 0.0
0.0003978307839889922 -7.273417291253005e-5 0.0
0.0009328247528155252 -4.498923071952916e-5 0.0
0.0009565526003983341 -3.6874274821072556e-5 0.0
0.0009617968460083086 -2.808283989710418e-5 0.0
0.0009106774893673129 -5.2694713034133996e-5 0.0
0.0009806600091436923 -2.9186703165293876e-5 0.0
0.000986348473835107 -2.1849598305671324e-5 0.0
0.0003348843523031634 -5.658985352845495e-5 0.0
0.000336405242035426 -5.6017464913192954e-5 0.0
0.0003658135597937834 -5.8043650228665724e-5 0.0
0.0003370376145369362 -5.521862383529498e-5 0.0
0.00036585508289303933 -5.728536288174622e-5 0.0
0.00033712565016864074 -5.415587094454337e-5 0.0
0.0003656518854968707 -5.6068719325278615e-5 0.0
0.000457410867444895 -8.037861481752496e-5 0.0
0.00047173147717966923 -7.954829066276148e-5 0.0
0.0003970567775619568 -7.56302647725115e-5 0.0
0.0003824169892773533 -7.275952452975889e-5 0.0
0.000974943041529391 -3.875101799434669e-5 0.0
0.00033994272749615466 -5.264900467118897e-5 0.0
0.00036736601694147323 -5.44504140971459e-5 0.0
0.0004705334512817772 -8.315593575899176e-5 0.0
0.00048378929533463114 -8.218314172674584e-5 0.0
0.0005646408077292153 -5.789925757867501e-5 0.0
0.000999581084883149 -3.0352698233698118e-5 0.0
0.0007611324400974515 -4.2464307993565966e-5 0.0
0.0007997715501300087 -5.0836691212899125e-5 0.0
0.0006494728699014735 -4.87181263917211e-5 0.0
0.0008210361667097235 -1.871072094629811e-5 0.0
0.00033848301728601284 -4.99349896638614e-5 0.0
0.00037110828190507273 -5.1808740288369196e-5 0.0
0.00038186946716182465 -7.573994364407668e-5 0.0
0.00036732369100685684 -7.268604988951963e-5 0.0
0.00048285322262656046 -8.605039038957325e-5 0.0
0.0004955587207289972 -8.491039490913214e-5 0.0
0.0009931539166710788 -4.031098848068769e-5 0.0
0.00031099287406953025 -5.390540230196061e-5 0.0
0.00031049526979298465 -5.462616003285048e-5 0.0
0.000305874956050388 -4.995089148800867e-5 0.0
0.0010184580165658753 -3.134939625093965e-5 0.0
0.00033888190735362097 -4.577262841780533e-5 0.0
0.0003721501505854629 -4.710100466879545e-5 0.0
0.00046986396303268533 -8.71296108816625e-5 0.0
0.00036705804207739004 -7.578476460320962e-5 0.0
0.00035246680846432853 -7.248318407782705e-5 0.0
0.0008043206977775684 -1.9336850909621544e-5 0.0
0.0008254041399021867 -1.5317408052069475e-5 0.0
0.0008079790170356217 -1.6312960722763285e-5 0.0
0.0008298723969420156 -1.2302168470893523e-5 0.0
0.0004945078247410299 -8.89673579361158e-5 0.0
0.0005071379034544398 -8.757055182800331e-5 0.0
0.0005592623354098202 -5.692520172518384e-5 0.0
0.00033855161255512493 -3.985910103376339e-5 0.0
0.0003712595166801744 -4.014121153289478e-5 0.0
0.001012091536947993 -4.1694333525947e-5 0.0
0.0009892869295675345 -5.101938027619277e-5 0.0
0.0003302502007442398 -3.029550373683132e-5 0.0
0.00036856344790246005 -2.982418195622561e-5 0.0
0.0010373180981479626 -3.243835954998839e-5 0.0
0.0010405239970124659 -2.573764173299884e-5 0.0
0.0003332712443078973 -1.959899883117726e-5 0.0
0.00038094418640088754 -7.935804822459062e-5 0.0
0.0005059375349311821 -9.194630646043106e-5 0.0
0.0005184426059866242 -9.028992600323902e-5 0.0
0.0005198348490871495 -8.593920506035298e-5 0.0
0.000531049962694125 -8.85004543750636e-5 0.0
0.0005325689351109267 -8.418706527558615e-5 0.0
0.000543754024594048 -8.658389021552378e-5 0.0
0.0005453973741585046 -8.223966734592495e-5 0.0
0.0005567361404836945 -8.451741318672445e-5 0.0
0.0005585347817299607 -8.015997104734002e-5 0.0
0.000570014328903505 -8.229167184998485e-5 0.0
0.0005683361043611054 -8.698477693416798e-5 0.0
0.000581615899371724 -8.464376939778861e-5 0.0
0.0005800190609557617 -8.963964193307892e-5 0.0
0.0005933571298996264 -8.718317492850733e-5 0.0
0.0005917606034056663 -9.249528281613373e-5 0.0
0.000605364974474075 -8.990159863589017e-5 0.0
0.0005719969446723301 -7.792548364592752e-5 0.0
0.0006070065650179406 -8.45535857679848e-5 0.0
0.0006193352039174334 -8.711365125211798e-5 0.0
0.0006176261919193484 -9.286882561641965e-5 0.0
0.0006319792874802409 -8.997494394054415e-5 0.0
0.00028593462117874874 -5.1500894674314503e-5 0.0
0.00028558039913154234 -5.229876361832208e-5 0.0
0.00035239237332699696 -7.562004321265524e-5 0.0
0.00033798824866511953 -7.21453582375941e-5 0.0
0.0006339075240346247 -8.419709583464596e-5 0.0
0.0006469477463197027 -8.69067900502587e-5 0.0
0.0006449785482931707 -9.301812023569593e-5 0.0
0.0006606817939153289 -8.987916589462662e-5 0.0
0.0002614016564634462 -4.884156614977484e-5 0.0
0.0002613052641060288 -4.973904857201858e-5 0.0
0.0008119989273957789 -1.3578538068793296e-5 0.0
0.0008347544534074423 -9.667274820915947e-6 0.0
0.0008166475149228805 -1.1207173714076165e-5 0.0
0.001031318223128811 -4.25451788277918e-5 0.0
0.0010559750743712073 -3.3102162503330395e-5 0.0
0.0005172741886302226 -9.500037065182186e-5 0.0
0.0004024125218435183 -5.6923619331565454e-5 0.0
0.0006506431538480461 -4.655464425832096e-5 0.0
0.0006586738801003001 -9.630072467611828e-5 0.0
0.0006749643480736967 -9.318117353996227e-5 0.0
0.0006766521309083994 -8.663019920420927e-5 0.0
0.0006917676957360721 -8.993628360050002e-5 0.0
0.0006873556826804336 -3.7823907103221944e-5 0.0
0.000840695802476785 -7.1068091272520965e-6 0.0
0.0008574453525544574 -6.311728704392077e-6 0.0
0.00036853879475403923 -1.663565380973856e-5 0.0
0.00033794646003051774 -7.534189861981312e-5 0.0
0.0003237038948515757 -7.167369394094083e-5 0.0
0.0008219011127757455 -8.949779769415523e-6 0.0
0.0006900337354521494 -9.687378759405605e-5 0.0
0.0007075124302090828 -9.385450712563805e-5 0.0
0.0007090789178105406 -8.668824722830785e-5 0.0
0.0007250997665461006 -9.072553165986634e-5 0.0
0.0007269009102449077 -8.355283751195687e-5 0.0
0.0007423497887073282 -8.739018667321934e-5 0.0
0.0007406589000825058 -9.492418923642944e-5 0.0
0.000757234935011348 -9.147825745480904e-5 0.0
0.0003315804492615855 -6.839903481567357e-6 0.0
0.00023761432048057055 -4.600241964119862e-5 0.0
0.0002375952911776124 -4.69134804266926e-5 0.0
0.0005051360608019784 -9.669123595342581e-5 0.0
0.0010489154985419016 -4.41693782840686e-5 0.0
0.001074086536387976 -3.3685675317939793e-5 0.0
0.0007555862634302745 -9.932589751167327e-5 0.0
0.0007714634025365601 -9.579004719894376e-5 0.0
0.00036940769835037285 -1.6258949040021041e-6 0.0
0.0003239178059745108 -7.493482782069675e-5 0.0
0.00030952900961784597 -7.10293421932709e-5 0.0
0.000405529005296609 -4.030501658474301e-5 0.0
0.0009671616597226903 -1.1638639924757394e-5 0.0
0.0005162355292408393 -0.00010003356409969965 0.0
0.00033159527493753206 6.415928419818352e-6 0.0
0.0003087418725957485 -3.9605298748129084e-5 0.0
0.0010643740405052822 -4.815075182010436e-5 0.0
0.0010916193360243792 -3.453891314360529e-5 0.0
0.0010987296088631388 -2.5476126273336305e-5 0.0
0.0002960402125541463 -1.1181439021383903e-5 0.0
0.0010380273117051768 -5.828646653639257e-5 0.0
0.00023585339107909915 -4.4945793470904064e-5 0.0
0.00033693824989183585 -7.857727218103025e-5 0.0
0.0008463468074241748 -4.775256985581984e-6 0.0
0.0008275121511693147 -6.766770984929695e-6 0.0
0.0007444652545593925 -8.014139252397729e-5 0.0
0.00030996785801266506 -7.44328425185093e-5 0.0
0.0002955060232200772 -7.028282226455643e-5 0.0
0.00021445211074906466 -4.2952017895941176e-5 0.0
0.00021449283589048922 -4.379172246859201e-5 0.0
0.00036774965054051307 -7.000564876462697e-5 0.0
0.0007698527529293674 -0.00010393011271297947 0.0
0.0007851620035829159 -0.00010020976210850569 0.0
0.0002950227850132157 -6.713635775854314e-5 0.0
0.0002807934411567852 -6.615093985230576e-5 0.0
0.0007549433968822251 -0.00010688458429025312 0.0
0.0005045111969688054 -0.00010177844721983553 0.0
0.0002816427250591658 -6.934848063517519e-5 0.0
0.00026683471142017735 -6.50145587645178e-5 0.0
0.0005339779920397761 -8.025403200867263e-5 0.0
0.0011165864797307115 -2.542647494820145e-5 0.0
0.0011233543529380202 -1.909123967088978e-5 0.0
0.0011091279157034802 -3.4351618231029965e-5 0.0
0.0007834886106588106 -0.00010848023310573783 0.0
0.0007985029302029721 -0.00010465548221260956 0.0
0.0007289042533511476 -7.666970612014386e-5 0.0
0.0007467487127486407 -7.320222160614533e-5 0.0
0.0005154272287849383 -0.00010540239716680909 0.0
0.0008004000662369073 -9.612881460869271e-5 0.0
0.0008138391362903978 -0.00010064127181777906 0.0
0.0001917245677990234 -3.955681594991507e-5 0.0
0.00019280356296021538 -4.058743724261192e-5 0.0
0.0008120607675183121 -0.00010958421258474657 0.0
0.0008272127572864548 -0.0001054229766444471 0.0
0.0002682215011631489 -6.824555463094785e-5 0.0
0.00025324073518124353 -6.371831736466481e-5 0.0
0.0008517150917572739 -2.8706657172425254e-6 0.0
0.0008332112649739509 -4.8004047169530285e-6 0.0
0.00025166249016188736 -6.075774501143782e-5 0.0
0.00023790463761235735 -5.923402147042325e-5 0.0
0.00023944807744897973 -6.214540061030535e-5 0.0
0.000224070826210379 -5.7484155536001125e-5 0.0
0.0011335241310059334 -2.4769005261450834e-5 0.0
0.001125214490442572 -3.408494333882703e-5 0.0
0.0003702015825861701 1.3636194596024844e-5 0.0
0.00033016078064834785 1.9994961431953807e-5 0.0
0.0007994253085035443 -1.3150873626773689e-5 0.0
0.0005039861000039405 -0.0001071918620644158 0.0
0.0008255313104915867 -0.00011472493242024623 0.0
0.0008404964797434499 -0.00011032799295872326 0.0
0.0009000521138039286 -2.5804801785679888e-5 0.0
0.0008160542938952146 -9.17595813140385e-5 0.0
0.0005786492312982508 -9.495860540609969e-5 0.0
0.0002220407022979664 -5.479292265846657e-5 0.0
0.00020853988104105176 -5.2856309507917014e-5 0.0
0.0002106420726325486 -5.55914698608565e-5 0.0
0.00019492159716218152 -5.0764137216061746e-5 0.0
0.00019274331381078456 -4.828428846595652e-5 0.0
0.00017860961137362743 -4.592733411759562e-5 0.0
0.00017627959331924242 -4.359777051690611e-5 0.0
0.00016186932777023763 -4.098982418325806e-5 0.0
0.000159453383974191 -3.893801702885597e-5 0.0
0.00014575624144695624 -3.6301379061763e-5 0.0
0.00014293260208864957 -3.44384114997797e-5 0.0
0.00014797052128657777 -3.819914779270175e-5 0.0
0.000130379785991982 -3.289045371550697e-5 0.0
0.00017042674521726135 -3.613411771407499e-5 0.0
0.00017025704371502804 -3.5424858660170295e-5 0.0
0.00013410798743201713 -3.518808772920125e-5 0.0
0.00011785321530812822 -3.0240284094555818e-5 0.0
0.00040856496740735766 3.4772506793493004e-6 0.0
0.00041975317116389716 -6.18094291461447e-5 0.0
0.0007312913700153886 -7.015719064258924e-5 0.0
0.0007490865079338375 -6.657934525590114e-5 0.0
0.00025966559065668547 -5.052327138897291e-5 0.0
0.0005147225936675754 -0.00011117241359633216 0.0
0.0005263352292329605 -0.00010922852320528202 0.0
0.0007642704762358883 -6.950952946201297e-5 0.0
0.0007667510861969998 -6.266031296829089e-5 0.0
0.0011496998966282889 -2.3604490156937733e-5 0.0
0.001139519951982644 -3.360301940541029e-5 0.0
0.0011150021268075876 -4.7929397660294e-5 0.0
0.0008096796836712751 -9.375183494558621e-6 0.0
0.0008160888333311972 -7.375093151571921e-6 0.0
0.0004932472554591752 -0.00010338920273924198 0.0
0.0004928216804654136 -0.00010882458696338203 0.0
0.00048226191489502974 -0.00010490405875229483 0.0
0.00019776519941034373 -5.358258837995079e-5 0.0
0.0008385418664043611 -3.5842092195027323e-6 0.0
0.0008222333675136102 -6.210273771937376e-6 0.0
0.0003776259420694435 -6.152075619082683e-5 0.0
0.0008385895599334393 -0.00011974174162816467 0.0
0.0008537300669626851 -0.00011529218201231381 0.0
0.0008559715303980467 -0.00010583788799508534 0.0
0.000869096903730931 -0.00011070478737790592 0.0
0.0003836595842717649 2.965188258264848e-5 0.0
0.00033671507301211487 3.3582554728617274e-5 0.0
0.00048464133106668065 -7.871452946676903e-5 0.0
0.0008241424985550792 -0.000123956061243128 0.0
0.0010409879672606483 -1.1292801612681175e-5 0.0
0.0008668718466549364 -0.00012060512915233309 0.0
0.000882245681605372 -0.0001159839205689392 0.0
0.0008845936011140564 -0.00010579532702153938 0.0
0.0008977133092352134 -0.00011106420130088756 0.0
0.0009005042331500217 -0.00010043217345090538 0.0
0.0009131219319257604 -0.00010561631161699794 0.0
0.000910319702486695 -0.00011662271777794758 0.0
0.0009252754341381006 -0.00011105501650766034 0.0
0.0001207438438393979 -3.1937962567024916e-5 0.0
0.00010473551337558435 -2.701231183762441e-5 0.0
9.959557594828327e-5 -2.4916966992912535e-5 0.0
0.0005258651125416974 -0.00011541145651004454 0.0
0.0005367125091796608 -0.00011361312434419816 0.0
0.0004820551947132504 -0.00011035431089012672 0.0
0.00047142714879516896 -0.00010623229608539926 0.0
0.0011275988447055167 -4.833316315446914e-5 0.0
0.0011525064190702867 -3.3207065010909846e-5 0.0
0.0008995201717911066 -3.912777595585228e-5 0.0
0.0008756733872383614 -3.435280907528619e-5 0.0
0.0002883051440900318 2.2350145279261102e-5 0.0
0.0002956692395337048 3.356314977413721e-5 0.0
0.000137064654175525 -3.730819171278823e-5 0.0
0.0004646288466735857 -6.882238377582857e-5 0.0
0.0007869842434845721 -1.82854850149748e-5 0.0
0.00110407363826562 -6.395235982180088e-5 0.0
0.0003934619827083995 -5.873215656024586e-5 0.0
0.0007932601883579677 -1.277509989325976e-5 0.0
0.0009220843443691714 -0.00012234280754517914 0.0
0.0009367228775902534 -0.00011667755379955383 0.0
0.0009331846938651335 -9.237405851563318e-6 0.0
0.0009756700915898893 -4.845758660623991e-6 0.0
0.0003874880753964371 4.695845703857954e-5 0.0
0.00021417803907092307 -4.4790622771059165e-5 0.0
0.00014633691401360192 -3.130394143369589e-5 0.0
0.00014619384333271538 -3.0759999147323154e-5 0.0
0.00021277570796483816 -5.8541929422711686e-5 0.0
0.0008810221129079914 -0.0001264356440685004 0.0
0.0007158710236260267 -4.6667452411188284e-5 0.0
0.0006434115347574972 -9.945368342271885e-5 0.0
0.0004428631725355543 -8.092853923289698e-5 0.0
0.00010764959209919354 -2.8688022029764352e-5 0.0
9.200709067863187e-5 -2.3809636375296723e-5 0.0
0.00028299730729604397 -7.281711454193112e-5 0.0
0.0007818647260997697 -6.546399494100656e-5 0.0
0.0007845665092715672 -5.8399028242984545e-5 0.0
0.0004921171573051423 -0.00011462750526919217 0.0
0.0009486177056932388 -2.794096436471755e-6 0.0
0.0009863646760217286 -3.0079866512757573e-7 0.0
0.0009612489225679678 1.1638376000955807e-6 0.0
0.000998804043889052 2.7712176103845707e-6 0.0
0.0010249477759387913 1.680434747393213e-6 0.0
0.001038140369652069 3.92588200704509e-6 0.0
0.0010117064762431315 4.5655612531425945e-6 0.0
0.0010507699379031295 5.108046748734582e-6 0.0
0.0010244707748126997 5.130770856933695e-6 0.0
0.0010636094516655564 5.381701211145935e-6 0.0
0.0010377590958338466 4.719554821664193e-6 0.0
0.0010761227870248547 4.884225611717556e-6 0.0
0.00105062642076932 3.6544398874116365e-6 0.0
0.001088405127615464 3.905887642167721e-6 0.0
0.0010123011458685039 3.127165039925698e-6 0.0
0.0010632875956441564 2.06908642900734e-6 0.0
0.0010995528228735423 2.3658554206707596e-6 0.0
0.0010663823332659544 3.0520305662519126e-6 0.0
0.0002797177453712184 -6.320664302772268e-5 0.0
0.00026999083326645915 -7.167670097586454e-5 0.0
0.00028421888686497976 -7.635270212675033e-5 0.0
0.0010758376814574524 1.3025736697802837e-7 0.0
0.0011109077555551546 5.69761135675345e-7 0.0
0.0010424591151342692 -4.243535693425873e-7 0.0
0.0006568346337960108 -0.00010298510272275335 0.0
0.0006417345752172252 -0.0001060870823022573 0.0
0.0006550548012368997 -0.00010982402899845235 0.0
0.0006403301239800558 -0.00011293411851688607 0.0
0.0006534255974687227 -0.00011683863651267134 0.0
0.0006391727848894142 -0.00012003591366675507 0.0
0.000626660022454751 -0.00011613568604875327 0.0
0.000625676658373318 -0.00012328744655306024 0.0
0.000614080020515296 -0.00011927983725105013 0.0
0.0007186556473396783 -5.959194807600599e-5 0.0
0.0006520253160639288 -0.00012420356109611665 0.0
0.0006667989857876695 -0.00012100432738269252 0.0
0.0005893626841013692 -5.416252202314597e-5 0.0
0.0005604782439536664 -7.612537637615406e-5 0.0
0.0005741635979608375 -7.387014606596023e-5 0.0
0.0005626149406996688 -7.239669202223464e-5 0.0
0.0005765183095585323 -7.012921966923283e-5 0.0
0.0005649626468822557 -6.897943519180808e-5 0.0
0.0005790705744624847 -6.670696943946224e-5 0.0
0.0005907282437171249 -6.771301845447187e-5 0.0
0.000593465036862215 -6.428185511655034e-5 0.0
0.0006052953741503338 -6.514568243266283e-5 0.0
0.0006081939383671756 -6.168066899976153e-5 0.0
0.0006196912915816811 -6.243526594731068e-5 0.0
0.000596527532502761 -6.105745650520413e-5 0.0
0.0005675333058096831 -6.587493362196557e-5 0.0
0.0005533622154128607 -6.80031431050135e-5 0.0
0.0006167686176873812 -6.630470043468042e-5 0.0
0.0006322041426413485 -6.318002628905228e-5 0.0
0.0002718113493991751 -7.523592232255409e-5 0.0
0.0006250700437733501 -4.741662508166173e-5 0.0
0.0006871093155791268 -5.636512878864085e-5 0.0
0.0006491430652501307 -8.11485078399999e-5 0.0
0.001157508046057334 -1.7846433694878104e-5 0.0
0.0011734061159267692 -1.63413697706719e-5 0.0
0.0007080328347946634 -4.037171339392112e-5 0.0
0.0006831580097536981 -3.9003625498994504e-5 0.0
0.0008871441956913733 -9.546162676858869e-5 0.0
0.0007709121670237677 -3.568643792460031e-5 0.0
0.001140708800819325 -4.815949135273629e-5 0.0
0.0011651379391684092 -3.279468263488556e-5 0.0
0.0006592561844693323 -4.04255661202929e-5 0.0
0.00047149030032728103 -0.00011164042240806269 0.0
0.00046025255124582023 -0.00010737830995015236 0.0
0.0007403056352130649 -4.12221850316718e-5 0.0
0.0006130714156956814 -0.00012654020193250673 0.0
0.0006017138224329654 -0.00012209417311012004 0.0
0.0004602207935582315 -0.00010214339319818673 0.0
0.000448152615614398 -0.00010309696664646351 0.0
0.00044805614585377774 -9.808364819337787e-5 0.0
0.00043506978116158757 -9.889711653780798e-5 0.0
0.0004353721176192345 -0.00010393406587136676 0.0
0.00042194413896752314 -9.968507224847269e-5 0.0
0.0004222903018781094 -0.00010462589075128977 0.0
0.0004090000105580579 -0.00010040652498882527 0.0
0.00020074144742463905 -5.667288545594573e-5 0.0
0.0011811166995647812 -1.2516544799551473e-5 0.0
0.0008431372731431573 -4.133788489532934e-6 0.0
0.0008268257512682849 -6.764359547481471e-6 0.0
0.0004174559072927363 -6.80903023957693e-5 0.0
0.0003396418829802267 -6.938141508232144e-5 0.0
0.0011233607838764268 3.697263820299596e-6 0.0
0.0011040026336487884 5.243673566223167e-6 0.0
0.0005362196451518082 -0.00012007375883109044 0.0
0.0005472100747600434 -0.00011805636038346418 0.0
0.0008367617754405956 -0.00012896436039902502 0.0
0.00019172869284972353 -4.6090668537507825e-5 0.0
0.0007126546767676999 -3.631873583026717e-5 0.0
0.0008077019392116391 -9.411605933751e-6 0.0
0.000813209648440205 -1.0292613006164803e-5 0.0
0.0009039187776323389 -8.964266617311932e-5 0.0
0.0009249167227917297 -2.5996651247010688e-5 0.0
0.0009407325807785853 -0.00010483293076515689 0.0
0.0009525433298841963 -0.000110018426015201 0.0
0.0009477485123670442 -0.0001224811458122517 0.0
0.0009640270890060615 -0.00011549701737752525 0.0
0.0005900683277290573 -5.273470514259594e-5 0.0
0.00021489285372318527 -6.169682269530919e-5 0.0
0.0006219889812055116 -5.895224010294328e-5 0.0
0.000986973112459949 4.538942150132651e-6 0.0
0.0005395460147694642 -0.000107604809078172 0.0
0.0002853865299040208 -8.001457954697874e-5 0.0
0.00029768763140064123 -8.103363972049138e-5 0.0
0.000822838920743148 -0.00013292458283067427 0.0
0.0004348814979971431 -9.416403407691364e-5 0.0
0.0007337547899490175 -6.399710639960313e-5 0.0
0.0007157606674030753 -6.745297878304251e-5 0.0
0.0011530053146614773 -4.8505138534357336e-5 0.0
0.001178263155075709 -3.206722082286863e-5 0.0
0.0011893159388648813 -2.0486303279937503e-5 0.0
0.00043440415537301285 4.447846881940325e-5 0.0
9.493032278463869e-5 -2.5340347943864863e-5 0.0
7.944115543089252e-5 -2.0452744138337758e-5 0.0
7.797973852765776e-5 -1.962228369282731e-5 0.0
0.0008798078954179621 -5.021427432403524e-5 0.0
0.000902659124213589 -5.338419116741428e-5 0.0
0.0008571411832221892 -4.413612736758056e-5 0.0
0.0008717228754730835 -1.3390707666280894e-6 0.0
0.0010883611482041507 -2.0074720504536673e-6 0.0
0.001123321458995572 -1.3732758772100776e-6 0.0
0.0004605281994252778 -0.00011263937993923805 0.0
0.0008494729512803149 -1.1212871652593639e-5 0.0
0.0002457429921154823 2.1751573277416554e-5 0.0
0.0002514758040579883 2.9955916311342358e-5 0.0
0.0003078293950869393 4.438821305914469e-5 0.0
0.0002591952293770857 3.666232552989251e-5 0.0
0.00034215023315404397 6.056154727594285e-5 0.0
0.0006015986075635381 -0.00011488163414819188 0.0
0.00040853184325963455 -9.56082930599862e-5 0.0
0.0003963259224412835 -9.629400219894901e-5 0.0
0.00039679058607275 -0.0001009286998782553 0.0
0.0003843336583410723 -9.680373265211465e-5 0.0
0.0009691479315905382 -0.00010244326037386401 0.0
0.0009808980847921288 -0.00010763079129666023 0.0
0.0009754150795330373 -0.00012101595405377785 0.0
0.0009922430109145135 -0.00011272212580206535 0.0
0.0007693141307913388 -5.6045642089754524e-5 0.0
0.0007874855236551454 -5.1677854207240166e-5 0.0
0.0006655480919667729 -0.00012861876878384775 0.0
0.0006807361196010009 -0.00012544318419212164 0.0
0.0005560096108102342 -6.518314365272001e-5 0.0
0.0005416796498649427 -6.715708444279433e-5 0.0
0.0005241262805450754 -0.00012214271521700343 0.0
0.000384927654433712 -0.00010109180958468492 0.0
0.00037263445276254626 -9.704574631490953e-5 0.0
0.0010916901438408804 -6.333914133385522e-5 0.0
0.0010812858906595892 -7.961177221584618e-5 0.0
0.0010695896910535043 -7.87160325000287e-5 0.0
0.0010619380577204223 -9.29772324564139e-5 0.0
0.0005467439357583869 -0.0001255459282649713 0.0
0.00010901078410225886 -3.014186217221179e-5 0.0
0.00015786309414398596 -3.72423986176673e-5 0.0
0.0001390934189251433 -3.249368186233752e-5 0.0
0.00012110521071927353 -2.613851991581085e-5 0.0
0.00011923454726147978 -2.5433052196181075e-5 0.0
0.00014610000980185104 -3.019605534826197e-5 0.0
0.00011765526956344476 -2.4617735027354565e-5 0.0
0.00014565199699650345 -2.9351639017325034e-5 0.0
0.00011582332004497599 -2.3468095167958698e-5 0.0
0.00014531620110057054 -2.7999748164840154e-5 0.0
0.0010932407253436385 -8.072854474227809e-5 0.0
0.0003833231636685003 -9.232410716061754e-5 0.0
0.0008902533324416343 -8.5306025366917e-5 0.0
0.0008102801673045107 -0.000127578893389449 0.0
0.000809481907280278 -0.00013667831836298105 0.0
0.0007972855736691836 -0.000131434827128579 0.0
0.0006009504343831149 -0.0001296713342286887 0.0
0.0008573429886984125 -2.1360255347190616e-6 0.0
0.0009864279308011575 -0.00012636149820729174 0.0
0.001203531781020839 -1.8573395313828523e-5 0.0
0.001191135432116578 -3.066135569534003e-5 0.0
0.0004409321516659406 6.279804078915492e-5 0.0
0.0008425656005900409 -7.123571243723531e-6 0.0
0.0006359780629674939 -7.878517239597948e-5 0.0
0.0006511860380403993 -7.572652805472196e-5 0.0
0.0006251711225944384 -0.0001310454676982749 0.0
0.0005898746031575957 -0.0001249478726425474 0.0
0.0003117156928916073 -5.5764528751847296e-5 0.0
0.0011454136453330258 7.84135899338901e-7 0.0
0.0011573635542553556 -8.381871993354718e-7 0.0
0.0011346703899866846 -3.4236203230337795e-6 0.0
0.0011676591978898815 -2.6752606722496732e-6 0.0
0.000927314400236432 -5.553306128747742e-5 0.0
0.0007043357160952168 -0.00010116608874287191 0.0
0.000718361224246128 -6.176469120474245e-5 0.0
0.0005427647510817148 -9.129171229723346e-5 0.0
0.0007635031168113122 -2.77020307829558e-5 0.0
0.0007996488097717655 -6.110253462308881e-5 0.0
0.0008026371511733253 -8.78463482201807e-5 0.0
0.0008186871780822107 -8.321431464248472e-5 0.0
0.000886495999841172 -6.728412167764161e-5 0.0
0.0009111216182761222 -6.631787519935264e-5 0.0
0.0002986361794124491 -8.480514103017135e-5 0.0
0.00031029024084509746 -8.55758301089654e-5 0.0
0.00011381825846012432 -2.1712811286915382e-5 0.0
0.00014357465085998471 -2.5563271201620103e-5 0.0
0.0001757212474411907 -3.197396789083673e-5 0.0
0.00017518010588962868 -2.8782812588802886e-5 0.0
0.00014234011828114022 -2.2021798683699873e-5 0.0
0.000175513840741129 -2.4155266594974583e-5 0.0
0.0001416364150168382 -1.7206602519763944e-5 0.0
0.00017677548151365547 -1.789781800116245e-5 0.0
0.00014121182023298123 -1.1318346775547387e-5 0.0
8.251557612796527e-5 -2.1992288283788265e-5 0.0
0.0007003576899977008 -6.512423578014792e-5 0.0
6.73457326320522e-5 -1.7173354826670175e-5 0.0
0.00027359094831447885 -7.90343891704831e-5 0.0
0.0011981694872845083 -1.0839117627741627e-5 0.0
0.0005857643617081632 -7.55449189150158e-5 0.0
0.0007954342960095218 -1.3945452177784686e-5 0.0
0.0008033286840646682 -1.4893146935686652e-5 0.0
0.00017802958937655926 -1.0260827207397097e-5 0.0
0.0002034860943450474 -6.007128778684568e-5 0.0
0.00018947527731593417 -5.48773678296099e-5 0.0
0.0003973454548580011 -0.00010586261716492321 0.0
0.0008337903260398792 -0.00013813220548788329 0.0
0.00047160954961500645 -0.00011695288454481179 0.0
0.001003387936293105 -0.00011757673181699179 0.0
0.0012133900584135229 -1.20094376959211e-5 0.0
0.0005391974064311088 -7.000347490482207e-5 0.0
0.0005274673311013508 -6.895859276224844e-5 0.0
0.0005250974472402613 -7.183263147548209e-5 0.0
0.0004861052224451143 5.9480638935460956e-5 0.0
0.0005139674525395614 -7.055028721334379e-5 0.0
0.00012489798173638116 -2.7285927083417302e-5 0.0
0.0006796643224989392 -0.000133556711024833 0.0
0.0006955135116942692 -0.00013034927549286356 0.0
0.0006965491006133266 -0.00012245642310585518 0.0
0.0007111419247353857 -0.0001272994067104745 0.0
0.0008324971467878503 -8.718265895734696e-5 0.0
0.0008355158896009014 -7.819541360971326e-5 0.0
0.0012054160046053185 -8.11639738361529e-6 0.0
0.0011873535153083443 -9.318280887251382e-6 0.0
0.0008211333882312132 -1.4157187351243863e-5 0.0
0.0008107405004873339 -2.0430797244122227e-5 0.0
0.0002601705168110933 -7.41206289597504e-5 0.0
0.00037337578251654457 -0.00010105839669982323 0.0
0.00036123319790115675 -9.704203766238056e-5 0.0
0.0006273657819976862 -4.845243087597342e-5 0.0
0.0009709619741110232 -0.000133923894163407 0.0
0.0001420559696109276 -4.947574580673793e-6 0.0
0.00036018282555662167 -9.289101249426057e-5 0.0
0.0007102478925923907 -0.00013566984962476756 0.0
0.0007254996850445361 -0.00013248977065549383 0.0
0.000702876456334052 -5.997189904691138e-5 0.0
0.0006854499841760885 -6.316919016077035e-5 0.0
0.0006881284137217414 -5.84841053135457e-5 0.0
0.0006619260049324576 -4.089873272873354e-5 0.0
0.0001221427531160795 -2.9109043294074328e-5 0.0
7.036028823779431e-5 -1.87401226258205e-5 0.0
0.0007124060044367577 -0.00011954402636577674 0.0
0.0007312421873382019 -4.7664242738717306e-5 0.0
0.0005892851119805369 -0.00013284456567834639 0.0
0.00028796285521473096 -5.0911575016396336e-5 0.0
0.0004754080058353539 -6.296681108136965e-5 0.0
0.0002170400944049502 -6.541413540219699e-5 0.0
0.0010103096696667745 -0.00010350944840012522 0.0
0.00029517938843942056 -6.439602379641114e-5 0.0
0.00027889312652962895 -6.058493326109037e-5 0.0
0.00029578890074287445 -6.192326280955173e-5 0.0
0.00027880237480934435 -5.8311586940414414e-5 0.0
0.00029626034206591695 -5.976856972933662e-5 0.0
0.0002615517218432605 -5.6710579142598045e-5 0.0
0.0007966019778190318 -0.00014038676564479905 0.0
0.0007853415137023563 -0.00013524125052398776 0.0
0.00019767606985907467 1.77718854002703e-5 0.0
0.0006005975172203673 -0.00013792397998156625 0.0
0.0005902738904029867 -9.813256176324218e-5 0.0
0.0005773783853975335 -0.00010058257151583559 0.0
0.00031145884365797077 -8.954039828565413e-5 0.0
9.855277250265817e-5 -2.1616385563717297e-5 0.0
0.00010426353706330046 -2.323827294776807e-5 0.0
0.0011038118996363848 -1.92756829479489e-5 0.0
0.001129190271588772 -1.4076636817129872e-5 0.0
0.00020749428717913837 -3.5369609321675506e-5 0.0
0.0003228276950118042 -9.006485107926503e-5 0.0
0.00032240804531305875 -8.647435584937297e-5 0.0
0.0003240046981160066 -9.420083994997557e-5 0.0
0.0003002491680023097 -8.902400496234113e-5 0.0
0.0002822842987624024 4.774568720716961e-5 0.0
0.00048253490584179834 -9.979394369118109e-5 0.0
0.0006977726380639366 -7.074451207133787e-5 0.0
0.0011077859446921182 -1.4067542601824985e-5 0.0
0.0006645333590621832 -0.00013706142368305143 0.0
0.0004606899464610255 -0.00011747353477737572 0.0
0.0012166224652777236 -1.661153599517486e-5 0.0
0.0012036548755286368 -2.9975128116562274e-5 0.0
0.000482357422054715 3.886796415168507e-5 0.0
0.0003623640384338777 -0.00010108088680257194 0.0
0.0007720301532356946 -4.952761676209509e-5 0.0
0.0007918017036382707 -4.50485203746482e-5 0.0
0.00015630187034154435 -3.569443529795786e-5 0.0
0.00019239756428544345 -5.8263654928466746e-5 0.0
0.0001787659090216967 -5.303967975599472e-5 0.0
0.00017554600546359654 -4.9880220697623544e-5 0.0
0.0002621548772490447 -7.810502438515889e-5 0.0
5.547602661569138e-5 -1.3990813736830578e-5 0.0
5.299752815637933e-5 -1.2970827490982902e-5 0.0
0.0007246888669497499 -0.0001413228009560285 0.0
0.0007393807644547584 -0.0001379342647866498 0.0
0.0007395578289306375 -0.0001289240768203384 0.0
0.0009870445289004658 -9.390971813389134e-5 0.0
0.0009745271305746067 -8.911376604032458e-5 0.0
0.00098118716273614 -0.00013944981161715585 0.0
0.00026113245722606866 -5.463477307753501e-5 0.0
0.00024406034263299976 -5.290088714345749e-5 0.0
0.0008067673699091872 -4.6911573097458275e-5 0.0
0.0011897111596947969 -4.6412697043598864e-7 0.0
0.0011990270572453463 -1.994318987935087e-6 0.0
0.0012095073939483835 -6.015631890094659e-6 0.0
0.0011732410754946826 -5.145772843327934e-5 0.0
8.513672698923477e-5 -2.3933580306237538e-5 0.0
0.000786128312526686 -1.4451150690206777e-5 0.0
0.0007709685230709558 -1.821608527548859e-5 0.0
0.0007635216651406388 -1.9790410903165435e-5 0.0
0.0007485594528501077 -2.3641806917620876e-5 0.0
0.0007417947207402438 -2.4616559521235875e-5 0.0
0.0007549529725621448 -2.2831859653717117e-5 0.0
0.0006381890953184592 -7.370616578585256e-5 0.0
0.0005443509062621713 -6.464897119438385e-5 0.0
0.0005589273074390578 -6.269702044978503e-5 0.0
0.0001817551244911211 -5.640648297742397e-5 0.0
0.00016823945482043046 -5.1005580049813523e-5 0.0
0.0010517336973324659 5.783961304122319e-7 0.0
0.0010960442545592086 2.438458201030299e-6 0.0
0.0011121087729661374 3.895380445806464e-6 0.0
0.0011427678309677374 3.3652448177092662e-6 0.0
0.001133558186172552 1.7471372005243486e-6 0.0
0.0005788484985927651 -0.00012810503369719826 0.0
0.0005792657984016813 -0.00012091853523342408 0.0
0.0005779963979639897 -0.0001361743797944142 0.0
0.000785201408205892 -1.98083298094884e-5 0.0
0.0007756809905392267 -2.057009994668363e-5 0.0
0.00020852688677120128 -3.80735437745351e-5 0.0
0.00010395282229461613 -6.3920577131144125e-6 0.0
0.0007840227388791102 -0.00014412917543821748 0.0
0.00024152431899819934 1.3338951125086e-5 0.0
0.0007792140189710002 -7.271527135804209e-5 0.0
0.00075947661914573 -2.0543401269767752e-5 0.0
0.0007354760207110769 -2.548668438131479e-5 0.0
0.0007498040522723537 -2.2491455886363608e-5 0.0
0.0007293068621810255 -2.6562752333999624e-5 0.0
0.0007431991952622664 -2.4085272533365864e-5 0.0
0.0007234174924649687 -2.799732954145607e-5 0.0
0.0007373053736235763 -2.5942653646864916e-5 0.0
0.0007178761335502571 -2.9702798645341955e-5 0.0
0.0007324443587546188 -2.7910746012311254e-5 0.0
0.0007150317116439773 -2.963793046144604e-5 0.0
0.000704055591085548 -3.1819003914407e-5 0.0
0.0008083490286750538 -0.00014569433485788557 0.0
0.0012274305878387387 -5.984354323416339e-6 0.0
0.00044823705586127056 -9.346967698279243e-5 0.0
0.0004346291706767778 -8.993183812891645e-5 0.0
0.0011287734289570025 -6.570692747622463e-5 0.0
0.0005167317068957679 -6.832892200500781e-5 0.0
0.0007281521999193288 -2.8357765990747448e-5 0.0
0.0003669618091096886 8.521080687271155e-5 0.0
9.169542263894245e-5 -1.982336712958192e-5 0.0
0.0005380761153804997 5.425189314429159e-5 0.0
0.0005266302769788052 3.080011164288518e-5 0.0
0.0009129892569286317 -4.789726682805309e-6 0.0
0.0011402432424184852 -6.648313757568325e-5 0.0
0.0011178511159625796 -8.389768786946018e-5 0.0
0.0005113423256420546 -7.342500011719244e-5 0.0
0.0005015592166375307 -7.152704955763939e-5 0.0
0.00022959982640663446 -6.432149265449285e-5 0.0
5.843057623108137e-5 -1.5554587465534376e-5 0.0
7.595600356395755e-5 -1.6855637250171116e-5 0.0
7.85610233208505e-5 -1.7751495640424753e-5 0.0
4.370173379408846e-5 -1.0906842962210287e-5 0.0
0.0008213261662356398 -7.475301987938386e-5 0.0
0.0008387403152850877 -6.960549822696492e-5 0.0
0.0008534240745969719 -7.299592218888854e-5 0.0
0.000856718845610971 -6.387505026450395e-5 0.0
0.0006989854942775105 -3.331916039946888e-5 0.0
0.0004207538894467042 9.522251807345483e-5 0.0
0.000508456550627489 7.933137985818208e-5 0.0
0.0006711229176670013 -6.161233257326231e-5 0.0
0.0006741721143979338 -5.716115692171728e-5 0.0
0.0005474624222137356 -6.25809780573716e-5 0.0
0.00048399994920766075 -6.610214140789382e-5 0.0
0.00047203466625949677 -0.00012171416712233242 0.0
0.000908082006730193 -0.0001275116001572379 0.0
0.0009193603329272828 -0.0001333566511084692 0.0
0.0009061762133731988 -0.00013811747035671543 0.0
0.0009172020862540643 -0.000144080918958449 0.0
0.0009044876737645311 -0.00014832868087601196 0.0
0.0008931497700494037 -0.00014264930467284767 0.0
0.000864471887635644 -0.00013195342001577612 0.0
0.0007844433919763273 -0.00012594759044087448 0.0
0.0008545394865453545 -2.7315500097757993e-5 0.0
0.0006289838654586406 -0.00010256573965777313 0.0
0.0002114345499793409 -2.5383967446908396e-5 0.0
0.001188871915259495 -4.8397959640318325e-5 0.0
0.00121547937633752 -2.9394403635947694e-5 0.0
0.0009299312455947951 -0.000139374617102424 0.0
0.0009280677968288378 -0.0001500263177838673 0.0
0.0009401968384739954 -0.00014568352400308576 0.0
0.00048151119582473593 -0.0001213595692871181 0.0
0.0005660037882373821 -9.731419138675636e-5 0.0
0.000565157159779921 -0.00010282013925038368 0.0
0.0005763263588810247 -0.00010652791617492593 0.0
0.0004130945590675758 -7.910592788175092e-5 0.0
0.0005538884331447861 -9.943588501718097e-5 0.0
0.0006980411211450988 -0.00011521893823327103 0.0
0.0009942175119631207 -7.956305641329726e-5 0.0
0.0010215238938819152 -0.0001076445434004339 0.0
0.001014055271943809 -0.00012238092448653027 0.0
0.0010320534553324135 -9.202534344597193e-5 0.0
0.00017704911753692058 -3.519579087318992e-5 0.0
0.000435842202037542 -0.00010893369913562912 0.0
0.0004230245559561221 -0.0001092581942204327 0.0
0.0004363015499275664 -0.00011327899909728487 0.0
0.0004239942756298768 -0.00011309816023108305 0.0
0.0008714783059645923 -6.692342086000505e-5 0.0
0.0002756309579924973 -8.33007768047641e-5 0.0
0.00024940676822033883 -7.315917577330824e-5 0.0
0.001176537514392077 -4.799914133425726e-6 0.0
8.547999775100749e-5 -1.728024945005148e-5 0.0
8.33657921231675e-5 -1.5584192523115717e-5 0.0
0.0007717041265300678 -0.00013754204368692408 0.0
0.0007726357992312102 -0.00014781733596981172 0.0
0.000623147946326729 -7.666873831906067e-5 0.0
0.0011598463809200281 3.985873484664046e-6 0.0
0.00025123556797062695 -7.722745722282698e-5 0.0
0.0009877390691180874 -5.1392686053371514e-5 0.0
0.001077644879959852 -6.242472943689212e-5 0.0
0.0011241603283918082 -1.0257931502497966e-5 0.0
0.0011291831936741145 -6.83952718164527e-6 0.0
0.0008422795290951258 -6.128820427860086e-5 0.0
0.0009080500509333315 -7.921111764753695e-5 0.0
0.0009215345444996868 -8.33479215296874e-5 0.0
0.000903272460460761 -8.204873625499e-5 0.0
0.0009263759601149516 -7.84748759054154e-5 0.0
0.0009338694239775673 -6.218495271107972e-5 0.0
0.0007092084747587472 -0.0001448000599904803 0.0
0.0003735591477427375 -0.00010489677831916592 0.0
0.0005489664634653532 -7.455177381793457e-5 0.0
0.0007536901324578742 -5.410827621430291e-5 0.0
0.0006643243357496351 -7.786639296157826e-5 0.0
0.0006786643826062269 -0.00014255539644615238 0.0
0.0003347597768710851 -9.44886337317156e-5 0.0
0.00042114993451026415 -9.041512616024273e-5 0.0
0.00019414877764739938 -4.191019876328037e-5 0.0
0.0011828288698831672 3.2917535860068453e-6 0.0
0.0008736839987074392 -9.121246212663911e-5 0.0
0.0001364785167352121 -3.1011353003646176e-5 0.0
0.00044369196244755705 0.00012097137182132036 0.0
0.0006705837034461324 -0.00010680706207876796 0.0
0.0008915323948458788 -0.00015228631234559732 0.0
0.0008794498605872786 -0.00014672612315644957 0.0
0.0007734460967305255 -8.780315339984759e-5 0.0
0.0008101692461285725 -4.044669699795037e-5 0.0
0.0003988523534015963 -7.027707911549559e-5 0.0
0.0005641867336032539 -0.00010971453720065118 0.0
0.0007491439522912774 -4.416376323173368e-5 0.0
0.00042094537781460923 -8.643922824072228e-5 0.0
0.00040734258113734733 -8.680220555450858e-5 0.0
0.00033584238254431885 -9.868703881094235e-5 0.0
0.00023964048330813733 -4.1464772665723004e-5 0.0
0.00024034002270562408 -3.840620467031744e-5 0.0
0.00010583164665552623 -1.6885925156982142e-6 0.0
0.00014684689169788546 1.6583977248564705e-6 0.0
0.000966873087285541 -0.00014655789384371157 0.0
0.00017484769045578342 -4.019894615399315e-5 0.0
0.0002447491256756413 -5.5005175892865e-5 0.0
0.00022719952811052968 -5.09404056148796e-5 0.0
0.001018503067195033 -8.902526382184254e-5 0.0
0.0005290789766017564 -9.823168929046744e-5 0.0
0.0006534168029614352 -7.04279851849151e-5 0.0
0.0008356125537664926 -3.2822255921398906e-5 0.0
0.0008446862242372835 -5.276140815234919e-5 0.0
0.0008270768465933864 -4.27413108392767e-5 0.0
0.0008375680301108097 -6.299569889582835e-5 0.0
0.0008551442463678983 -7.072190273634754e-5 0.0
0.0008777787140675396 6.659523976284985e-9 0.0
0.0008983747035232959 1.1728329734322224e-6 0.0
0.0009057166920568662 1.5435484456673506e-6 0.0
0.0009262761907342013 2.6781778333171533e-6 0.0
0.0009189664633163339 1.8640012171454687e-6 0.0
7.238960343359275e-5 -1.5934115244678265e-5 0.0
0.0008756363337121441 -5.794452288292662e-5 0.0
0.00019942497877795842 2.4245085332401355e-5 0.0
0.00022591221298608405 3.5438969367651384e-5 0.0
0.000738502050441709 -0.00014701769799615067 0.0
5.439503625864145e-5 -1.0779425990026023e-5 0.0
0.000965733844174456 -2.112032145062427e-5 0.0
0.000991203232710456 -1.5787657958729224e-5 0.0
0.0009723939909192803 -1.4549421013568786e-5 0.0
0.001012903111732077 -1.637337233358052e-5 0.0
0.0010177327514629554 -1.106124553435154e-5 0.0
0.0010407578007434232 -1.1777029639729853e-5 0.0
0.0003134706452308709 -6.311181983252012e-5 0.0
0.000314785424425738 -6.115382602011116e-5 0.0
0.00029659731217318575 -5.792737106581237e-5 0.0
0.0003158248833010725 -5.9476455526939816e-5 0.0
0.0003339581052454505 -6.239617536827993e-5 0.0
0.0003353660324411808 -6.082394005937103e-5 0.0
0.000353112065378252 -6.340481191439553e-5 0.0
0.0003635224050390367 -0.00010500750121460978 0.0
0.0003548624705134577 -6.186211539299823e-5 0.0
0.00037230281800685667 -6.417226855770882e-5 0.0
0.00010870810828980767 -1.5633106960396023e-5 0.0
0.00023911712089818456 -4.337631777057635e-5 0.0
0.0003698375964882218 -6.589216872531384e-5 0.0
0.0002990229224299861 -5.673781389190899e-5 0.0
0.0009808912832929835 -7.553034554239262e-5 0.0
0.000962027346231084 -8.49130824231874e-5 0.0
0.0005680992036158222 -0.00013148167208331188 0.0
0.0005671142113841913 -0.0001397958349523009 0.0
0.0008199987435481094 -4.998690017649135e-5 0.0
0.0004845160909192165 1.9008647527030467e-5 0.0
0.0005256452297974309 9.150076884518484e-6 0.0
0.0005652818443778137 1.9292399098594458e-5 0.0
0.0005647110538243769 -3.8126731027222497e-6 0.0
0.0005293581115890687 -1.1455001401861772e-5 0.0
0.0005678702909850347 -2.6280187922336667e-5 0.0
0.0005349735606129594 -3.040518601819009e-5 0.0
0.0005728868775206925 -4.451133997503582e-5 0.0
0.0005404953984183504 -4.504988957841858e-5 0.0
0.0005818792841759559 -5.630827236393545e-5 0.0
0.0005438250337855873 -5.431822499843158e-5 0.0
0.0005759428183667678 -6.059809609761969e-5 0.0
0.0005440397291521532 -5.920645089953092e-5 0.0
0.0005731684799839278 -6.279180649147976e-5 0.0
0.0005446137977349227 -6.206158184205368e-5 0.0
0.0005704577175457363 -6.344584593892769e-5 0.0
0.0005431440008760334 -6.306503240917743e-5 0.0
0.0005660821435503656 -6.300241325492636e-5 0.0
0.0005408973553899044 -6.30547513971522e-5 0.0
0.0005619082538189497 -6.224456161558154e-5 0.0
0.0005380136057742441 -6.259756018671918e-5 0.0
0.0005573474830604043 -6.129085656225807e-5 0.0
0.0005342298582266888 -6.195436406609492e-5 0.0
0.000552878182448027 -6.0462009571682156e-5 0.0
0.0005303537343934092 -6.136529760341743e-5 0.0
0.0005108628469009463 -6.225928572105482e-5 0.0
0.0005076744431228802 -6.183938216853727e-5 0.0
0.0005495115762927722 -5.964766767424644e-5 0.0
0.0005177566604520804 -6.243174266458615e-5 0.0
0.000574893359320806 -5.925735371930183e-5 0.0
0.000587292827796419 -6.132709401570174e-5 0.0
0.0005047238376290033 -3.3134636464006944e-5 0.0
0.0005977542776395633 -6.338269201878136e-5 0.0
0.0004868462690870839 -6.217654296697976e-5 0.0
0.00048465450603464675 -6.198677325087606e-5 0.0
0.0005045095929789044 -6.14787503547036e-5 0.0
0.0004823841086907434 -6.181863234580896e-5 0.0
0.0005149527945671034 -5.8133317784833476e-5 0.0
0.0006101392156845045 -6.236887653259303e-5 0.0
0.0004893781967251196 -6.23154471727571e-5 0.0
0.0006076898556215931 -4.274586887905877e-5 0.0
0.0005015671400824274 -6.130875616787706e-5 0.0
0.00048005538017376124 -6.18194674879146e-5 0.0
0.00046001623046560905 -6.185352171662101e-5 0.0
0.00046355845149213104 -6.167969929948491e-5 0.0
0.0004644866254536322 -6.128255153512244e-5 0.0
0.0005227160422378361 -6.044619571906927e-5 0.0
0.0005189202761760146 -6.04253174933103e-5 0.0
0.0005386064692632025 -5.9121236547704945e-5 0.0
0.0006034173113288415 2.784239453151814e-6 0.0
0.0006114153157302316 2.4255558436239082e-5 0.0
0.000458862125953629 -6.197212316205077e-5 0.0
0.0004376448402027582 -6.157331177962737e-5 0.0
0.0004388895100134017 -6.14442651315309e-5 0.0
0.00041488968761228416 -6.0703288224628786e-5 0.0
0.0006637065230724974 -0.00014641811590407848 0.0
0.0006504539373222705 -0.0001408696774759285 0.0
0.0011286388997844637 -8.526680494404715e-5 0.0
0.0007137836098410076 -0.0001121843289115367 0.0
0.00072804176829299 -0.0001167228317718833 0.0
0.0004464198359066912 -8.903777145298633e-5 0.0
0.0004595940247023927 -9.239591311216216e-5 0.0
0.0010038029828436082 -6.4996031711412234e-6 0.0
0.0007208906901656817 -5.6282238934587475e-5 0.0
0.00047843713717721806 -6.203279277309025e-5 0.0
0.0003473744089750881 -9.265419169798894e-5 0.0
0.0003475749716012061 -8.874857701751803e-5 0.0
0.0003593701385293271 -8.871564633407345e-5 0.0
0.0007948760679482912 -3.911582792897614e-5 0.0
0.0007615048596810501 -2.0541344269195303e-5 0.0
0.0005232780900792045 -7.499302890320687e-5 0.0
0.0005098730222602961 -7.66432934694611e-5 0.0
0.0007650843121728418 -2.7559711919220104e-5 0.0
0.0007556615960131888 -2.820989212272655e-5 0.0
0.0007657085554247974 -2.268465063291038e-5 0.0
0.0007448382277387011 -2.9332400342029333e-5 0.0
0.0007754490766316353 -2.7224769052348926e-5 0.0
0.0007514356839193145 -2.43475646550597e-5 0.0
0.0007473017659921255 -2.6509647393261646e-5 0.0
0.0007264127436233885 -3.034672178608199e-5 0.0
0.000562227722622462 -6.052500050526864e-5 0.0
0.000573677517399555 -6.050119350313444e-5 0.0
0.0005771640541274586 -5.8319704725102684e-5 0.0
0.000588393077807536 -5.8127000774795946e-5 0.0
0.0005919166005965923 -5.599044720901045e-5 0.0
0.0006031517075674023 -5.565087456143546e-5 0.0
0.0006068186715301958 -5.345340862087876e-5 0.0
0.0006187165740685644 -5.2900542772363484e-5 0.0
0.0006147664054466569 -5.5507491014055216e-5 0.0
0.0006311800756027988 -5.2254001574397905e-5 0.0
0.0006917998225969061 -5.4089677201099095e-5 0.0
0.0006773455436068828 -5.312073198860201e-5 0.0
0.0006606131755002055 -5.6273648392721196e-5 0.0
0.0006637270928775428 -5.2593946905891367e-5 0.0
0.0001545564722122681 -3.434371023815352e-5 0.0
0.00017174110722571745 -5.44520963554185e-5 0.0
0.00015833343852954154 -4.893569081034136e-5 0.0
0.00015510263858458517 -4.570313916507378e-5 0.0
0.0001445938143120483 -4.340096499196878e-5 0.0
0.0006253672323890292 -7.195750756276122e-5 0.0
0.0008256449139091521 -4.175122000279478e-5 0.0
0.0008207906675740701 -4.9030896049613716e-5 0.0
0.00039784994862036 6.303549628234551e-5 0.0
0.0006859866709866028 -3.5331268442467966e-5 0.0
0.0006903969930417401 -3.436994771954372e-5 0.0
0.0008119163688075939 -6.409949595138694e-5 0.0
0.0012008213162375283 -1.3225340602406837e-5 0.0
0.0012230772211882191 -8.260573966859283e-6 0.0
0.001238086604631526 -6.163523745047303e-6 0.0
5.538606230638988e-5 -1.2463794388269303e-5 0.0
5.690155211520585e-5 -1.293408245106206e-5 0.0
7.893273863715831e-5 -1.8137009011824445e-5 0.0
5.9864904621073506e-5 -1.3807775800095357e-5 0.0
8.015986398939182e-5 -1.8849000939012077e-5 0.0
6.174433087719242e-5 -1.4578671150711565e-5 0.0
3.913998986415383e-5 -9.041781687045774e-6 0.0
0.0006106426998833774 -7.479433613409486e-5 0.0
0.000337782183735536 -5.965321402615637e-5 0.0
0.00019584119933543898 -6.200604558074593e-5 0.0
0.0005343169297717016 -5.9283836457103026e-5 0.0
0.001110950596686872 -0.0001004155944586515 0.0
0.00109880055156203 -0.00010197954238923804 0.0
0.0009261207307180866 -7.208585921155021e-5 0.0
0.0009438094408866696 -7.484843453590902e-5 0.0
0.0009473417476780325 -6.14300876373072e-5 0.0
6.701270731351784e-5 -3.1109299901061213e-6 0.0
0.00046179757591823363 -0.00012128441726583465 0.0
0.0003255248755403712 -9.879692631171031e-5 0.0
4.678194172556203e-5 -1.2522137690980462e-5 0.0
6.204501517981471e-5 -1.8142266265166176e-5 0.0
0.00027885928964396615 -5.487690353676643e-5 0.0
0.0008498395342874679 -8.066064664541137e-5 0.0
0.0008692149980132284 -8.655199865449965e-5 0.0
0.0008924907395410749 -7.528356999810716e-5 0.0
0.0009341986764326031 -8.798979808528285e-5 0.0
0.0004372401633997552 -0.00011666652576925043 0.0
0.0004817229209322265 -0.00012637943671305065 0.0
0.0004916852994684903 -0.0001260693504740805 0.0
0.0010318608264759394 -0.00011208402300817277 0.0
0.0010237223962833422 -0.00012675608028240367 0.0
0.001006839681695656 -0.00013818215488742785 0.0
0.0011342830643822316 -9.734993754430301e-6 0.0
0.0011123538449569553 -9.54556729088582e-6 0.0
0.0010857547795246013 -1.3627646053777421e-5 0.0
0.001088136623066978 -9.049435422073933e-6 0.0
0.00024018021195804196 -5.0754955479286845e-5 0.0
0.0010445633021251505 -7.181747144167338e-6 0.0
0.001017845443253208 -6.610373069288601e-6 0.0
0.0007299713100117706 -0.00010961318504251385 0.0
0.00014705807070092012 -4.630912907653595e-5 0.0
0.0001347958146184821 -4.1514586871537094e-5 0.0
0.00013133023773829883 -3.846952330351475e-5 0.0
0.00012169002112392694 -3.638345916868179e-5 0.0
0.0012441650960749054 -4.929241077387601e-6 0.0
0.0012079907281535552 -3.1994895397978134e-6 0.0
0.00122996632579822 -1.1925102462476762e-6 0.0
0.0009758752077957623 -0.00015159455006577045 0.0
0.0005326547884423832 -6.428601690859769e-5 0.0
0.0010400653622558503 -0.00011638660396383936 0.0
0.0010330134046413596 -0.00013090627116614073 0.0
0.0010484882591103913 -0.00012119230068968302 0.0
0.001043199741985797 -0.00013788321439407963 0.0
0.0010592586740498682 -0.00012539955704291445 0.0
0.0010653494798797615 -0.00010984752694965114 0.0
0.0010744253476992448 -0.00011505842246997946 0.0
0.0005780472089598788 -0.00014485283174566328 0.0
0.0005677846652815803 -0.00014957441499245476 0.0
0.0005554188201143632 -0.00014332785310888812 0.0
0.0004579761941968632 -6.234631845970314e-5 0.0
4.481285090696233e-5 -1.0520730128064413e-5 0.0
6.314339396935456e-5 -1.5190322304454147e-5 0.0
4.6630660370663526e-5 -1.1066101448625998e-5 0.0
0.00042651292671422243 -0.00011723170461937518 0.0
0.00041286071365147036 -0.00011312920769285503 0.0
0.0011662693444808947 -6.8209643670484e-5 0.0
0.00011238097309903801 2.9960080365935805e-6 0.0
0.0006475689274810888 -5.605465781890376e-5 0.0
0.0006514931140379883 -5.243046963621566e-5 0.0
0.001127031061977959 4.637168723559849e-6 0.0
0.00117448552928347 4.177546176146742e-6 0.0
0.0010398009151120732 -7.718022956841407e-5 0.0
0.00023952191961939005 -7.216829241293629e-5 0.0
0.00024289699661387878 -7.682636027268882e-5 0.0
0.0008699543967976155 -7.655592672446004e-5 0.0
0.0009897925327338603 -6.081286366496404e-5 0.0
0.0012005595219131242 -4.7381991621071415e-5 0.0
0.0012281906942907372 -2.772782920880392e-5 0.0
0.0012422517495951047 -1.381974011172047e-5 0.0
0.0009487054510607401 -7.377992394063721e-5 0.0
0.0010022047672047032 -6.531774006791424e-5 0.0
0.0005584645851905497 -0.00012137881284085691 0.0
0.0010354454601087888 -1.7258726433345423e-5 0.0
0.000964672401529999 -7.34536002613681e-5 0.0
0.00040839867751720404 -8.278620897319163e-5 0.0
0.0002467749811519038 -6.939043779219888e-5 0.0
0.0011583982121892294 -9.089962398718146e-6 0.0
0.000987029631048926 -4.201882204345273e-5 0.0
0.00041213104917876896 -0.00011643327696378978 0.0
0.00021596644088070157 -4.649366311593829e-5 0.0
0.0006785142255500065 -3.7316067823767815e-5 0.0
0.0009570851753679984 -0.0001425296877890866 0.0
0.0009556145565591495 -0.00015296258402395062 0.0
3.281357916393549e-5 -8.098910595907186e-6 0.0
0.000751762762643602 -0.00014445915712850448 0.0
0.0007485510365609747 -0.0001519579928994392 0.0
0.000492856908909829 -0.00013554758387463714 0.0
0.0005029771159095071 -0.00013346279813545653 0.0
0.0005017876044708466 -0.00012514376250567506 0.0
0.0005126024034733715 -0.00013164852280711314 0.0
0.0005045647868829128 -0.00014138402324073254 0.0
0.0004918785407904887 -6.223373084158842e-5 0.0
0.00046576320717923775 -6.042531842809287e-5 0.0
0.0002075175505688669 -3.943846214324178e-5 0.0
0.00048821949155526055 0.00012028071439505256 0.0
0.0004695840643426925 9.585909003399685e-5 0.0
0.0008108417994624635 -3.1053588852271796e-5 0.0
0.0009373386199180655 -0.00015557318292303538 0.0
0.000926298609091377 -0.00015943059851366285 0.0
0.00012360279713430488 -3.931473472272889e-5 0.0
0.00011097591235722043 -3.3994583548445026e-5 0.0
0.001238531595675834 -1.982450728521209e-6 0.0
0.0002312263504785618 -5.3502683507824785e-5 0.0
0.0002109727684116772 -4.9216089029912157e-5 0.0
0.0011802004572039927 2.2314912374452653e-6 0.0
0.0011490815738879924 -6.844207694664367e-5 0.0
0.0011374081725738503 -8.99337436467771e-5 0.0
0.0006934265443091969 -3.530335625525075e-5 0.0
0.0007830458182011271 -0.00015307979268000852 0.0
0.0007688600216385741 -0.00015783087732540836 0.0
0.00038748786404660043 -6.624021172337504e-5 0.0
0.0003912966371413681 -6.45905603935451e-5 0.0
0.0005124865890143823 -0.00012385752623502675 0.0
0.0010455570073609032 -9.567676084642205e-5 0.0
0.0006224399742691131 -5.0647317034831105e-5 0.0
0.0006118595319280025 -5.1332526773613746e-5 0.0
3.780227519808444e-5 -1.0326221127028378e-5 0.0
0.0005074196462486809 0.00021133544989431082 0.0
0.0005805159304335305 -5.645094803971703e-5 0.0
0.0004385826609639709 -6.025197041950897e-5 0.0
0.00043928536616365753 -6.0908986095697116e-5 0.0
0.00027081631480501973 -4.666880931330132e-5 0.0
0.0007678191188664338 -2.267603008029427e-5 0.0
0.0005523841032331715 -5.76567225936616e-5 0.0
0.0005573089033474323 -5.7499205247825e-5 0.0
0.0005700488481333612 -5.573336430085919e-5 0.0
0.00057467118616186 -5.561569450749979e-5 0.0
0.0005867971563678218 -5.361494641986269e-5 0.0
0.0005916976347537979 -5.3351052515522216e-5 0.0
0.0005794336450295782 -5.56263185189211e-5 0.0
0.0005967937881711121 -5.349532850163548e-5 0.0
0.0005845099752038647 -5.602577553372584e-5 0.0
0.0006023547588329346 -5.39414013870753e-5 0.0
0.0006024715977091507 -5.1245011950215646e-5 0.0
5.6747325644572537e-5 -1.0220311376519111e-5 0.0
0.0007414405499951476 -2.9587439058060762e-5 0.0
0.0005383015976985138 -6.235955292049208e-5 0.0
0.0006032771406404851 -2.1717138369236247e-5 0.0
0.0006491033280352102 -4.4015825132613885e-5 0.0
0.0006454192970998724 -5.6217571231048514e-5 0.0
0.0006421713266033721 -1.860822083631821e-5 0.0
0.0006123311715254708 -5.5350390382444026e-5 0.0
0.000645660893251049 -6.135659949523172e-5 0.0
0.000680664592750218 -6.185547270239865e-5 0.0
0.000681461160541111 -3.64751026987826e-5 0.0
9.890710856753306e-5 -2.310684235267808e-5 0.0
0.00010093269138733134 -2.4229597462558334e-5 0.0
0.001240494310913309 2.0967994777206528e-6 0.0
0.0011880853549085567 1.8910943829930876e-6 0.0
0.0011889923373913248 4.795366690257404e-7 0.0
0.0009045058690740951 -0.000158760536769997 0.0
0.0008896647157104126 -0.00016164327369361817 0.0
0.00034681523498997056 -8.472774736178253e-5 0.0
0.0003591360888654283 -8.454685474597845e-5 0.0
0.00033429024908868555 -8.457970548702944e-5 0.0
0.0004128377735832847 -5.930292081172176e-5 0.0
0.0006802358030628251 -5.774661819742118e-5 0.0
0.0006147428270033594 -5.098961161469137e-5 0.0
0.0006196104081034119 -5.1629805232900015e-5 0.0
0.000608016594844914 -5.473648632585128e-5 0.0
0.000624794209393048 -5.251938512691526e-5 0.0
0.0006143730239051263 -5.553989327203733e-5 0.0
0.000352116200980593 -0.00010126439684394789 0.0
0.0012423892653936422 1.1545181643417642e-6 0.0
0.0006522871574703752 6.0710639032503484e-6 0.0
0.0008045342851281716 -3.874303490111051e-5 0.0
0.0007970432598259614 -2.739781997783173e-5 0.0
0.0007895932753793336 -3.388708507212065e-5 0.0
0.0004389918505790759 2.68798053973138e-5 0.0
0.0006246087521256725 7.821482060043378e-5 0.0
0.0005762392164133856 8.351694867336667e-5 0.0
0.0005651209209018726 9.759083753667947e-5 0.0
0.0009184249537178748 -0.00011184402913107344 0.0
0.0009909512936711908 -0.0001446312762024089 0.0
0.0009851312992398293 -0.00015833300971138909 0.0
0.00033628621112083017 -0.00010315743042000205 0.0
0.0005235074979174098 -0.0001297483452997779 0.0
0.0005239727153068394 -0.0001385840492047927 0.0
0.000533517205232355 -0.00013590338243507215 0.0
0.0005346460344329176 -0.00014594366692039767 0.0
0.000876304974948744 -2.083449111437359e-5 0.0
0.000855388558432245 -1.5714120293028867e-5 0.0
0.0008784559366655903 -1.2189675179872594e-5 0.0
0.0009020151194662456 -1.5616319695389723e-5 0.0
0.0006682469291659771 -4.918581772156421e-5 0.0
0.0006577925260557066 -4.888539715462378e-5 0.0
0.0005434360890403747 -0.00014138965544761208 0.0
0.00041738005804331686 -6.115141944819331e-5 0.0
2.7834009822933413e-5 -6.497919011235556e-6 0.0
0.000603488593610285 -6.337511871315126e-5 0.0
0.0006251548049651799 -6.304893106566982e-5 0.0
0.0006190390991826361 -6.173948774203547e-5 0.0
0.0006440311334100138 -6.029413947155675e-5 0.0
0.0006364706693720699 -5.855354338409802e-5 0.0
0.0006505211814986733 -6.185367953281514e-5 0.0
0.0006159231277132136 -6.004143918441653e-5 0.0
0.0006300542656229225 -5.6909548887118815e-5 0.0
0.0006665400133457279 -5.8102953331922634e-5 0.0
0.000836470300833811 -1.962883455513099e-5 0.0
0.0006112648928738579 -5.862879471875231e-5 0.0
0.0012582067905774275 1.6262579326221572e-6 0.0
0.0005150731429944906 -6.069101373029849e-5 0.0
0.0005755286972311304 -0.00011295091763283838 0.0
0.0005885073122255219 -0.00011051965362571946 0.0
0.0006327796379498924 -6.36062147086435e-5 0.0
0.0006607327715173597 -6.263412930262238e-5 0.0
0.0006966362469154542 -5.002076457476191e-5 0.0
0.0008798309684033108 -0.0001368660838716252 0.0
0.0008665267055676094 -0.00014195516295209548 0.0
0.0008662035707262875 -0.0001511007763682847 0.0
0.0008541867192717924 -0.00014676381275003815 0.0
0.0008544141021630448 -0.00015515445959564264 0.0
0.0008419376095628379 -0.00015137492020933033 0.0
0.0010001777814591085 4.1842339891119185e-6 0.0
0.0009775055459957471 2.2573763461064366e-6 0.0
0.0009880618378406252 6.504129977576222e-7 0.0
0.0009559066773768721 -6.248727102885947e-7 0.0
0.0009649642402984568 -2.798624922464425e-6 0.0
0.0009340405379898826 -4.421567926182997e-6 0.0
0.0009431547370974026 -6.942657008943844e-6 0.0
0.0009252237255780402 -2.3202662646650577e-6 0.0
0.0009049087962320174 -6.2799721895690814e-6 0.0
0.0009731535398878068 -5.38395660811863e-6 0.0
0.000896481665121433 -4.354687304854937e-6 0.0
0.0009507387369227186 -9.987465958231426e-6 0.0
0.0009231204159230893 -1.170208324393621e-5 0.0
0.0009290880035883907 -1.5343143796443054e-5 0.0
0.0009165496844721711 -8.427341418523375e-7 0.0
0.0009659697353363827 3.3028931610835613e-6 0.0
0.0009807927716019166 -8.64437830948975e-6 0.0
0.001024281094477245 1.2004646681054388e-6 0.0
0.0010018323039444098 -4.178003067033711e-6 0.0
0.000744801327470907 -3.504678346596416e-5 0.0
0.0005866962654629251 6.894108430255444e-5 0.0
8.434725908068731e-5 -2.0426431133037715e-5 0.0
7.323457342279663e-5 -2.0834813493277363e-5 0.0
8.69439356842363e-5 -2.6126696381760793e-5 0.0
0.0005433780584428428 -0.00013308346075300003 0.0
0.0007127919072840407 -5.1428010241674875e-5 0.0
0.0007346837323382253 -2.7912437246801208e-5 0.0
0.0007151407883150777 -3.264885266623749e-5 0.0
0.0007237309510497755 -3.213355897557579e-5 0.0
0.0007099105227465731 -3.235273546044593e-5 0.0
0.0007218551158154965 -2.885061747795958e-5 0.0
0.000703406888757418 -3.26989399679203e-5 0.0
0.0006971410883862159 -3.335804480219617e-5 0.0
0.0006873089257732532 -3.603180095016993e-5 0.0
9.645647163731153e-5 -2.6835150714885087e-5 0.0
0.0008008218635586381 -1.0757100447246844e-5 0.0
0.0009266326022338553 -6.987438720094373e-7 0.0
0.0008935190338462383 -2.5061276317799153e-6 0.0
6.039506521097741e-5 1.82127814553761e-6 0.0
0.00013225666527477107 1.014986304443302e-5 0.0
0.00011645012645164235 7.707282412753677e-6 0.0
0.000800310988847343 -1.1948463476248908e-5 0.0
0.0001235224903976634 -3.417867430201304e-5 0.0
0.00014089880748208207 -4.029695187350251e-5 0.0
0.00015250297194819483 -4.309002398884398e-5 0.0
0.00015226765365662114 -4.123442954218856e-5 0.0
0.00016463787343129433 -4.350048645663774e-5 0.0
0.0005802892301007554 -6.020552654045545e-5 0.0
6.668721111324014e-5 -6.340224891561763e-6 0.0
0.00028416389481876865 -5.314672917173446e-5 0.0
0.00023622102571039893 -4.7651047666266986e-5 0.0
0.0006677383998264395 -6.284436760304406e-5 0.0
0.00025710837182519567 8.580951630452191e-5 0.0
0.0008474744241225908 -0.0001344133850200623 0.0
0.0007784029186977083 -1.692514330190896e-5 0.0
0.001177082475684764 -6.819675987337693e-5 0.0
0.0009146166032924943 -8.641243613372274e-6 0.0
0.0008863366197364514 -1.066146041464413e-5 0.0
0.0008780249729444321 -0.00015635675258571826 0.0
0.0012620120811434135 1.3134516834572226e-6 0.0
0.0012267101634726757 2.180730664422537e-6 0.0
0.0012342584093535868 1.382063179790458e-6 0.0
0.0012205614887540928 2.805508538278016e-6 0.0
0.0011946523132700371 2.1823717675066267e-6 0.0
0.0012161955662678367 3.1679829530053624e-6 0.0
0.0011765083092461703 4.125200190114494e-6 0.0
0.0011845547270818257 3.355768284936566e-6 0.0
1.9648637563044855e-5 -4.483668943157486e-6 0.0
0.0012760926433245316 -9.327556779688696e-7 0.0
0.0012511947172589041 -2.2339393950207622e-6 0.0
0.0012666325813465325 -2.3000774050860407e-7 0.0
0.001252697406830225 -2.8369173876165997e-6 0.0
0.0007937670902191896 -2.0613611562571737e-5 0.0
0.000916349129295802 -0.00015372061472866376 0.0
1.5544416646899154e-5 -3.555092980097193e-6 0.0
0.001280200060156348 -1.1119672168450496e-6 0.0
0.0004889575374717515 1.9349841996992325e-7 0.0
0.0009739956065596312 3.6676080392312496e-6 0.0
0.000406304343093349 -4.8338972503228185e-5 0.0
0.00044042332581323165 -4.950019943406057e-5 0.0
0.0004399344897988842 -4.0869486864138555e-5 0.0
0.0004392067595891994 -5.4412991809215695e-5 0.0
0.00046850988942754755 -5.592402408359024e-5 0.0
0.00047792910167271103 -5.1985231926172e-5 0.0
0.00047594440251815353 -4.2712329097051226e-5 0.0
0.0004410241361011404 -2.9706297946743256e-5 0.0
0.0004100208420212627 -1.3391954446496116e-5 0.0
0.0004094997800723012 -5.424643462906148e-5 0.0
0.0010195264129633154 -0.00013963134127904501 0.0
0.0012580275267365043 1.773957570875276e-6 0.0
0.0005137350638922676 -0.00011743729747892388 0.0
0.00018681591060692716 -6.087925404348446e-5 0.0
0.0005559890619426959 -0.00011476007846652648 0.0
0.0004497011135736644 -0.00011722680548168736 0.0
0.0004502519054648977 -0.00012035851623613087 0.0
0.0006366975068488267 -4.904549191739678e-5 0.0
0.0007938676678360489 -1.5346083119468226e-5 0.0
0.0010836780282944168 -9.563532520596217e-6 0.0
0.001093183197613577 -4.1568405902322046e-6 0.0
0.0010499100235732079 -4.981562181173769e-6 0.0
9.955716405078265e-5 -2.270365695069064e-5 0.0
0.00017479197827448075 -5.788977602477016e-5 0.0
0.0005902757379191198 0.0001576198122765749 0.0
0.0005225772636610342 0.00015706608776206837 0.0
0.0009794767136981817 -5.683039154951626e-5 0.0
0.0005778701661829447 4.239543822283712e-5 0.0
0.0011161988966831014 -6.464760993251138e-5 0.0
0.0005544792446927874 -9.420277323572416e-5 0.0
0.0009525908550624757 -9.522351008746029e-5 0.0
0.0009667377847903456 -7.783118277177965e-5 0.0
0.000450120932706989 -7.797726042852455e-6 0.0
0.0003263967649238506 -0.00010383620753235862 0.0
0.0011035275743117247 -8.524559810055379e-5 0.0
0.00020628730898095523 -6.368368917285464e-5 0.0
0.00021748746816459706 -6.834123835995199e-5 0.0
0.00021068810344033342 -6.849829293573201e-5 0.0
0.00033556534700749914 -5.746427412148939e-5 0.0
0.0007070734844772156 -3.1004124194669865e-5 0.0
0.000780701017383457 -1.6146697404533318e-5 0.0
0.0005268413877447652 -6.079783056076096e-5 0.0
0.000543085168813867 -5.9213175283081334e-5 0.0
0.001241051352385478 5.546562520230452e-7 0.0
0.0011791356625059314 -3.955275714906574e-6 0.0
7.805910775037703e-5 3.455815554435416e-6 0.0
1.9522779954666455e-5 -4.509563239288034e-6 0.0
0.0006082157281298116 -5.099070880809341e-5 0.0
2.4733858924749466e-5 -5.560264946477766e-6 0.0
5.8056665724701895e-5 -1.2760321179956339e-5 0.0
0.0005510766289726223 -0.00010954010958830546 0.0
0.000901180461179986 -0.00011380485552372678 0.0
0.0006385644295300544 6.288276934328065e-5 0.0
0.0007455255442348659 -4.87049850175384e-5 0.0
0.0006332357244902525 -5.2873007893720854e-5 0.0
0.0009700166560618569 -4.9633328615820825e-5 0.0
0.001163956315984496 -4.897256069772982e-5 0.0
0.0003939066139138852 -8.321104965031241e-5 0.0
0.00039386831869629154 -8.730012958858226e-5 0.0
0.00038048720160132254 -8.314862426362442e-5 0.0
0.0003665515026452918 -7.921025108873532e-5 0.0
1.5834870667080358e-5 -3.5898415135490565e-6 0.0
2.8613635427377916e-5 -6.642982446891109e-6 0.0
3.230351103082871e-5 -7.557288770963666e-6 0.0
0.0003519867476871941 -6.523606735237182e-5 0.0
0.0003340030924859602 -6.463376366756606e-5 0.0
0.0012773118933395754 -1.0802702633591404e-6 0.0
0.0006498305946376612 -0.0001508313845349333 0.0
0.0006373253027162185 -0.00014497716682266892 0.0
0.0006366141642983632 -0.00015538438818303964 0.0
0.000624731693937309 -0.00014927215478172248 0.0
0.0006126655662015256 -0.00015341023631172335 0.0
0.0006123100204286438 -0.00014320322004088667 0.0
0.0006377341390438751 -0.00013570148618038627 0.0
0.0009422958241777186 -8.975447420827496e-5 0.0
0.00017623758125172203 -3.389426944065995e-5 0.0
0.00020400917292695558 -3.9925660079567206e-5 0.0
0.0001787825125344944 -3.625644598740612e-5 0.0
0.0007642829208680355 -4.533768834503029e-5 0.0
0.00038503125777879476 0.00011150653540387956 0.0
0.0006259087902913417 -5.546362615775451e-5 0.0
2.59356610930558e-5 -5.807146026743642e-6 0.0
0.00040118849980846336 -0.00011261872893249168 0.0
0.00038903319213936594 -0.00011204431414985482 0.0
0.00039232994585293587 -0.00010901435772420448 0.0
0.00044899713168220965 -0.00011318098898695559 0.0
0.0003959942947963476 -7.901488416416186e-5 0.0
0.00019345782029994192 -4.3128757561858565e-5 0.0
0.00011784086197983726 -2.8939153553273702e-5 0.0
0.001268088605042138 6.163020391146084e-7 0.0
0.0012420772047219493 5.842057707490914e-7 0.0
0.0002643571250252062 -8.25777096927657e-5 0.0
0.00031320844878576743 -9.389094032928144e-5 0.0
0.00030195066817642136 -9.37957892208526e-5 0.0
0.00028890968819444767 -8.851336213900488e-5 0.0
0.00029014024019581824 -9.324251104095639e-5 0.0
0.0008635467403669991 -0.00010422398802776717 0.0
0.0006728635069426383 3.0678778213248014e-5 0.0
0.0007958064075105602 -0.00014945443021070992 0.0
0.0008070586907187356 -0.00015500907035374806 0.0
0.0008189758117415537 -0.00015131827846069694 0.0
0.0007934685936554739 -0.000159770395372757 0.0
0.00042383533638636056 -8.307236609097136e-5 0.0
0.0006866569588603205 -0.00010395549841229056 0.0
0.00061358204354637 5.5241519147547774e-5 0.0
0.0005914485787299164 -6.253964374985243e-5 0.0
0.001280869158216968 -1.2311101893690442e-6 0.0
0.0012629716447861068 -4.049812459610543e-6 0.0
0.0012561265918535666 -3.7809174702685456e-6 0.0
0.0002774465330096751 -8.79598851367678e-5 0.0
0.00026648774621157667 -8.713431800465684e-5 0.0
0.00043398535494066785 -5.860364644617477e-5 0.0
0.000352489305672787 -7.960364274606071e-5 0.0
0.0011640254410042585 -2.242820259766738e-5 0.0
0.0010158131749534317 -4.06343671859624e-5 0.0
0.0005964382170700355 -5.1842164161589266e-5 0.0
0.0006117917977249696 -4.933750320466665e-5 0.0
0.0008316264787321886 -7.027599561157907e-5 0.0
0.000895604320982811 -0.00012182716566195765 0.0
0.0005418712743666813 -9.62624923972097e-5 0.0
0.0005414673884322424 -0.00010165239766945788 0.0
0.0001589503693983762 9.966775873887027e-6 0.0
0.00032455218331049106 -7.922998189153635e-5 0.0
0.0003105280078820212 -7.819120197317508e-5 0.0
0.0002961785146361061 -7.375289236354582e-5 0.0
0.00029676047059980053 -7.732873842474674e-5 0.0
0.000272111147414791 -4.445573072972699e-5 0.0
0.00027307557849169455 -4.0862664687601105e-5 0.0
0.00030254658079230113 -5.136023050331788e-5 0.0
0.0008053799507843762 -0.0001647494755145876 0.0
0.00076860466037784 -0.00011202137247522626 0.0
0.0007527917667878713 -0.00011532110053761881 0.0
0.0007692501605449842 -0.00012188776869650165 0.0
0.0007535484713457843 -0.00012506657448809488 0.0
0.0007650887590194831 -0.00012993375227148845 0.0
0.0007832214238285401 -0.00011697535350332759 0.0
0.0007968516183008434 -0.0001212926357084175 0.0
1.2992957452109668e-5 -2.9239842402160708e-6 0.0
0.0012838334111480575 -1.90743643687836e-6 0.0
0.0009976708316522614 -0.0001317160176476076 0.0
0.0007232795636487818 -0.0001501897983849055 0.0
0.001183867604729459 -2.5561860941955815e-6 0.0
0.0006944337353093085 -0.00013897135983131684 0.0
0.0006929281057112113 -0.00014813013666679358 0.0
0.0009029365802126745 -6.392635609948593e-5 0.0
0.0008131597658509286 -3.4443613492045544e-5 0.0
0.0007985978434449266 -3.337575306998193e-5 0.0
0.0004096749998222922 -0.00010520662528803807 0.0
0.0002548765996527489 -6.689139740806165e-5 0.0
0.0009011461710210364 -1.7550689894024466e-5 0.0
0.000957691980208227 -0.0001302997047742808 0.0
0.0004626379847817604 -7.12052700066102e-5 0.0
0.0004776787475791087 -7.039808509730812e-5 0.0
0.0004750710285905941 -7.309568346048263e-5 0.0
0.0004808009181935594 -6.80787613615471e-5 0.0
0.00046019628457395073 -7.395077291922822e-5 0.0
0.0004915722830742278 -6.972359539454323e-5 0.0
0.0004954736387383579 -6.749685904436106e-5 0.0
0.0005017213275897611 -6.527164470588235e-5 0.0
0.0009503120878228465 -4.664253812577144e-5 0.0
0.00014459100291340632 1.2115187862027107e-5 0.0
0.0008773095698606608 -8.501176669039324e-6 0.0
0.0009487121390450131 -4.953777514508915e-5 0.0
0.00029444961032730596 8.011553761043825e-5 0.0
0.00020914747909134884 -3.134217362704147e-5 0.0
0.00030447317378599523 -4.7077801067407723e-5 0.0
0.00022585332155585595 -6.044761162904566e-5 0.0
0.00046690919168763766 -6.681362040619626e-5 0.0
0.0003746772414651073 -6.263027539931376e-5 0.0
0.0003988671388548899 -6.340466111448742e-5 0.0
0.0004114856025437066 -6.514719501592407e-5 0.0
0.0005888142789686074 -0.0001414234894583394 0.0
0.0006005134700463659 -0.00014700578300454601 0.0
0.0005999614229907258 -0.00015881486354675975 0.0
0.0006128786907691457 -0.00013445113878396506 0.0
0.0009425652423594072 -0.00013447149454273274 0.0
0.000498442182500972 -6.141733151204168e-5 0.0
0.0008763534292879858 -4.7253946430891336e-5 0.0
0.0004484917639672286 -0.0001082499356227937 0.0
0.0006382916823143468 -0.00012754244579235102 0.0
0.00047184054045753334 -0.00012569496731300447 0.0
0.0011453184370868181 4.815916460247859e-6 0.0
0.0006114100260208784 -5.8327321113771226e-5 0.0
0.0001742661525325678 -3.875742742989661e-5 0.0
0.000482214320365158 -9.01573819299118e-5 0.0
0.000493724140185628 -9.342676640340304e-5 0.0
0.00045697203264593016 -8.3909699756895e-5 0.0
0.00048158330887759077 -0.00011596374461259497 0.0
0.0007131906658609562 -7.350598553993549e-5 0.0
0.0006952704047661586 -7.679856956578521e-5 0.0
0.0007108490034591284 -7.990782559494906e-5 0.0
0.0008695164150274924 -6.767718344292158e-6 0.0
0.0005554321772857412 -8.919416132347708e-5 0.0
0.0004283399916650914 -7.815926783075253e-5 0.0
0.0007124128016211536 -3.166958312958009e-5 0.0
0.0007059969484908881 -3.4158971988573566e-5 0.0
0.00018142694068876538 -4.845377983392637e-5 0.0
0.0003511727075113483 -9.732518653910631e-5 0.0
0.0008204911657372698 -0.00014190621693650936 0.0
0.0007408724309663149 -2.7716938753929294e-5 0.0
0.0006303041550822586 -9.610423499158218e-5 0.0
0.0006162489051838499 -9.898098869124522e-5 0.0
0.0006151501920826822 -0.00010549962961253707 0.0
0.0006025763520958863 -0.00010167646043754845 0.0
0.000601832801629414 -0.0001082307247100528 0.0
0.0006277812155139488 -0.00010923179511391118 0.0
0.000787100778200223 -1.4799184209123238e-5 0.0
0.000522091577561494 -7.840196150867839e-5 0.0
0.0005094259278130636 -8.000461895794554e-5 0.0
0.0006828125144702258 -6.853689347401966e-5 0.0
0.00044181930532144925 -8.441074838340771e-5 0.0
0.000677756655012948 -0.00015208691668878627 0.0
0.0005300325172387591 -9.319327804939114e-5 0.0
0.0006038393037112737 -9.560536177602921e-5 0.0
0.0008655271368025084 -0.00016000315035839257 0.0
0.0005706037498283804 -6.30178426755452e-5 0.0
0.0011891524815844038 -6.5990799698962216e-6 0.0
0.0006086613420397985 -7.950447455972016e-5 0.0
0.00031101960507419967 -6.532815688573426e-5 0.0
0.0006992875361290891 -3.785194841690691e-6 0.0
0.0008513770958311919 -0.00012504094555913735 0.0
0.0011367236854449216 -2.795777382332033e-6 0.0
0.00021397960273460522 -1.7396344433385673e-5 0.0
0.00022073732839507848 -8.572856896708287e-6 0.0
0.0002478441727942396 -2.563019365533732e-5 0.0
0.0002605489533464941 -1.660631054482444e-5 0.0
0.00028700278866671767 -2.6887205608571393e-5 0.0
0.0008594937737255558 -1.3008884826005757e-5 0.0
0.0005142349859004372 -0.0001424747052664229 0.0
0.0005850393106127758 -6.069026966387408e-5 0.0
4.823742981061638e-5 -1.0698256141574715e-5 0.0
0.0006027028878825421 0.00010990063926544565 0.0
0.0005467177702584517 0.0001128177180603697 0.0
0.000839789796669363 -1.2081514513863211e-5 0.0
0.0005030232954827479 -0.0001130218662653452 0.0
0.0005581987910366511 -0.0001350682178456367 0.0
0.0005313973038847632 -5.9723241860662585e-5 0.0
0.0006685197087595107 -6.664463512326876e-5 0.0
0.0006536590422580668 -6.488108866901171e-5 0.0
0.0006579879654836845 -6.0117185153869816e-5 0.0
0.0007831797514212723 -2.842971354810653e-5 0.0
0.00048252762825063864 -9.482206418218746e-5 0.0
0.00035715009646777754 -6.063982926261638e-5 0.0
0.0004987501982960598 -7.440145570194934e-5 0.0
8.09022908745679e-5 -1.9988679150005815e-5 0.0
0.0006693342603728954 -3.857650615747698e-5 0.0
0.00028703512391388484 -8.399886588840609e-5 0.0
0.0006404980249995094 -6.88759955561138e-5 0.0
0.00041129470759179086 -0.00010942170710279466 0.0
0.000845615054973033 -3.5909543117873495e-5 0.0
0.000588030308041088 -7.147193581811863e-5 0.0
0.000589350636704368 -0.00010418403750063066 0.0
0.0010839997798818926 -4.7171688800858384e-5 0.0
0.00025451401413038594 -8.177743059212595e-5 0.0
0.001189013828808646 -6.988745129873531e-5 0.0
0.0005184693472746621 -6.507775354750177e-5 0.0
0.000583452865416161 -7.995237975391904e-5 0.0
0.00013348212071637774 -2.9636665948486777e-5 0.0
0.0010835105475630173 -1.8975453055466007e-5 0.0
0.0006685331383864411 -0.00011382276378618604 0.0
4.8716042463544615e-5 -1.0809864925866556e-5 0.0
0.0006382561647140483 -4.762901981955912e-5 0.0
0.0006348955570726668 -4.9696650440728764e-5 0.0
0.0011776919021100028 9.56702493267586e-7 0.0
0.0006641312849496094 -0.000156690283773678 0.0
0.00024151603484654852 -6.536137847847062e-5 0.0
0.0012280066852353704 -9.900080883216125e-6 0.0
0.0006443566436434906 -5.937682215055153e-5 0.0
0.0006020618684470376 -6.898074563164221e-5 0.0
0.0007388263711343284 -0.00010277086292964222 0.0
0.0007222292114779581 -9.816488525891744e-5 0.0
0.0006727129716581694 -9.989884401806645e-5 0.0
0.0005819072734495664 -6.35737456115774e-5 0.0
0.0006976021798431786 -0.0001641524136899347 0.0
0.0007593562590846532 -0.0001670928113155529 0.0
0.0005408945602440552 -0.00015578151034724707 0.0
0.0005738326224917164 -0.0001594171804319907 0.0
0.0008358283088280882 -0.00016822424022840926 0.0
0.0008300515734391336 -0.00015773594211715102 0.0
0.0004518803344939409 -0.00012542681862813654 0.0
0.00036056446011994373 -0.00011122731918501274 0.0
0.0007297417023209574 -0.00016556128399347356 0.0
0.00047971866782321943 -0.00013620761687284204 0.0
0.0005476869522159898 -6.0245324910177854e-5 0.0
0.0010514770927600246 -3.1450371245507658e-6 0.0
0.0008496168426942812 -8.22949843347086e-5 0.0
0.0008454342917033795 -9.177850603973734e-5 0.0
0.00047303374501624394 -7.629408835394291e-5 0.0
0.0007363430424024181 -5.836470963654674e-5 0.0
0.0005897674449422945 -0.00011701883442086943 0.0
0.0003342658391135642 -9.057289187420707e-5 0.0
0.00026340401629628465 -5.922770179623158e-5 0.0
0.0005372463877597517 -7.312322474208707e-5 0.0
0.0010798021300964516 4.488055087944064e-6 0.0
0.000510391068874504 -5.239046102103996e-5 0.0
0.0005997567094795211 -5.816879345345425e-5 0.0
0.0006804762608985239 -7.441904669105976e-5 0.0
9.818400161079499e-5 -2.901048097014401e-5 0.0
0.0001001307180406074 -3.173733020268907e-5 0.0
0.0005279958351737629 -0.0001036000521822061 0.0
0.00046014715411645636 -9.725689105797e-5 0.0
0.000621257418390213 -8.173223412664805e-5 0.0
0.0011829088892016824 -1.208883385090355e-6 0.0
0.0006511290227398722 -0.0001320172300260621 0.0
0.0012571127984709219 -1.1347924536106205e-5 0.0
0.001238685154574682 -2.804805756846479e-5 0.0
0.00039389145200676145 -5.991534724980534e-5 0.0
0.0005471644123521047 -7.825209079202185e-5 0.0
0.0005670455121437383 -9.196791106066823e-5 0.0
0.0012105154052599934 3.238853331523028e-6 0.0
0.0007123166884708949 -6.065336658822525e-5 0.0
0.0008108348039559951 -0.0001183042375218622 0.0
0.0008295129773398293 -9.625070981253406e-5 0.0
0.0003555774671778703 -0.00010604479617590736 0.0
0.000761900683407407 -7.656577021109375e-5 0.0
0.0005509787853582319 -7.112684912241744e-5 0.0
0.0007961881200813981 -6.854732412489327e-5 0.0
0.0007931058523782405 -7.629090420087387e-5 0.0
0.0008134746566466479 -6.407280923587015e-5 0.0
0.00030175590319444704 -9.85591915358528e-5 0.0
0.0009515459270769831 3.6583409869588163e-6 0.0
0.0007070185603959867 -0.00015488823287043374 0.0
0.0009977414373495 -0.00015066035098031228 0.0
0.0008945109242076865 -4.9915059433870544e-5 0.0
0.0006170265148788144 -4.9466154158858385e-5 0.0
0.0007552462718618228 -0.00013498470372467212 0.0
0.0004935625013405814 -9.825324995268603e-5 0.0
0.0005271874197836846 -6.640785720808504e-5 0.0
0.001158103406759627 2.974791638034803e-6 0.0
0.0003054108378852563 -5.617515792637313e-5 0.0
0.0008657244122234349 -1.5575798543109996e-5 0.0
0.0006313522836261439 -4.684407721537998e-5 0.0
0.0007515367598366451 -6.031045034681169e-5 0.0
0.0010981235499117185 -4.582664097807334e-6 0.0
0.00011888648989738096 -2.7464952437996818e-5 0.0
0.0008714836437382699 -0.00010095718869210896 0.0
0.0007355177245519524 -3.487349319289781e-5 0.0
0.0007248321243960281 -3.5758322926951244e-5 0.0
0.0007260326449906975 -0.00012424827630091106 0.0
0.0006624066428243876 -8.374853383139123e-5 0.0
0.0006821657740816354 -0.00011801271985610307 0.0
0.0008943538211448771 -0.00013235845837711324 0.0
0.0008918970854020035 -4.25368018338122e-7 0.0
0.0007093149927799526 -5.966445572807105e-5 0.0
0.0008659695820527346 -6.16147930630884e-5 0.0
0.0010546023315671023 -7.817147862621922e-5 0.0
0.0010619191538075439 -6.238442191934833e-5 0.0
0.0006550732878197181 -4.9617435335159376e-5 0.0
0.00042142254879697517 -9.483902241649958e-5 0.0
0.000895790818775707 -9.782986763732513e-5 0.0
0.0006937978156954628 -5.7714230283172986e-5 0.0
0.0007591575661388235 -8.388589300027636e-5 0.0
0.0012289648780340456 -1.5438868563709156e-5 0.0
0.00022823147409698795 -6.681996162690473e-5 0.0
0.0007444166337611931 -3.171005439518805e-5 0.0
0.0006746102475499072 -5.3745350216756814e-5 0.0
0.0006601686628716305 -5.077181145246202e-5 0.0
0.00024805035093703446 -3.399926725800462e-5 0.0
0.001119815558374452 -1.1006731108024867e-5 0.0
0.0006636501514742537 -3.976072875878382e-5 0.0
0.0011008889377374165 -4.746199336013272e-5 0.0
0.0004076843609904492 -9.095677937605221e-5 0.0
0.0009362336266918346 -0.0001654313060864447 0.0
0.0009573052756315885 -0.00016675923146973598 0.0
0.00037179021917864446 -9.277773846656533e-5 0.0
0.000787002504241565 -9.196425252932722e-5 0.0
0.0005305915184787645 -0.00015429361006400372 0.0
0.0007732262064948545 -1.9332800693876094e-5 0.0
0.00024397007926506582 -8.27108390765673e-5 0.0
0.0007005760069476295 -4.02223836297832e-5 0.0
0.0006766285252059519 -3.8685914753698366e-5 0.0
0.0006988592477833619 -3.6258261851308923e-5 0.0
0.0006934485084947506 -8.331899597397145e-5 0.0
0.0008427986035920896 -0.00010106219359454043 0.0
3.4186294463550434e-5 -1.0451166490070296e-5 0.0
5.932152103616087e-5 -1.928897362647423e-5 0.0
7.124270394376997e-5 -2.356538334595089e-5 0.0
0.0011387196302423163 -0.00010667551176156573 0.0
9.547629301251455e-5 -3.2443190247329616e-5 0.0
0.0003818537341097841 -8.754591179450226e-5 0.0
0.00018608541264426726 -2.3401199987455853e-6 0.0
0.0010105169243628798 -0.000160503697353569 0.0
0.00020869102609077846 -7.061182422846546e-5 0.0
0.00023257291929481606 -7.90083459050234e-5 0.0
0.0011243168562179967 -0.00011403881660299903 0.0
0.0010961233638332474 -0.00012928381304366527 0.0
0.0006626471514949024 -4.596525983470898e-5 0.0
0.0004914726679700988 -0.00012047576820160251 0.0
0.0008869258489235582 -2.815420367660098e-6 0.0
0.001034171073510687 -0.0001537900210920815 0.0
0.0010456792117579945 -0.00015019450792361363 0.0
0.00018501426377637496 -6.272861371141457e-5 0.0
0.0001304974255752429 -4.430944710287987e-5 0.0
0.001071195916524486 -0.00013941303779487272 0.0
0.0010824325656053457 -0.00012001319277487182 0.0
0.0007371853007681296 -0.0001567592696877074 0.0
0.00015395571733875426 -5.2364730521609054e-5 0.0
0.0008986659668959374 -0.0001677351242063274 0.0
0.00025817862848705013 -7.058313465201614e-5 0.0
0.000998916834888618 -9.879440930198768e-5 0.0
0.0003753511331094138 -0.00010931727552027388 0.0
0.0009329877273064035 -0.00012817907260996597 0.0
0.0009460845887178115 9.669882922420192e-7 0.0
0.00038321286437405477 -7.024152787326523e-5 0.0
0.0002653587303878306 -6.203431172465109e-5 0.0
0.0004715715063972331 -0.00010112022759935843 0.0
0.0005950547766804671 -8.217998349310075e-5 0.0
0.0010055735969552665 -2.2744037892130458e-5 0.0
0.0006246686052134413 -0.0001394003738112975 0.0
0.0006743781956284626 -3.7472464140186215e-5 0.0
0.0007150109634806769 -4.0732952727375645e-5 0.0
0.0008027275484040104 -5.3845862432618996e-5 0.0
0.0009291414890513376 -9.969079232764332e-5 0.0
0.00040371146712431016 -2.9245564179622974e-5 0.0
0.0008207966269167482 -2.8264363039338187e-5 0.0
0.00041506508574462955 -7.018261611927773e-5 0.0
0.0010148618617464617 -6.935898422856861e-5 0.0
0.00028729880977048793 1.10708031441643e-5 0.0
0.00024248657368486611 1.5417956064850049e-6 0.0
0.0005950585609972421 -5.760789702797462e-5 0.0
0.0010675151262045665 -8.141700753315806e-6 0.0
0.0007223249581553963 -5.492046943107857e-5 0.0
0.0006507668600803081 -4.2499394778989956e-5 0.0
0.0011486206786537475 -1.3860877553081513e-5 0.0
0.0003531950940689853 -6.978047056792542e-5 0.0
0.00044180323560718946 -6.265417788493271e-5 0.0
0.0008600137678402369 -5.5115530746005295e-5 0.0
0.0009570849969190187 -9.76071176280319e-5 0.0
0.00030919135868593116 -6.80591330623876e-5 0.0
0.00018650622943279055 -5.174359151662229e-5 0.0
0.0009167752817660415 -9.454878899057649e-5 0.0
0.0004619992728950084 -6.184340294227605e-5 0.0
0.000907425994458891 -2.5208432045225327e-5 0.0
0.0012638795024773916 -5.283826223521769e-6 0.0
0.0009957619213416152 -1.5857877152797239e-6 0.0
0.0007504041635156086 -4.147589057166623e-5 0.0
0.0007566224587325914 -3.442672634095414e-5 0.0
0.0007524972568425 -3.958752884529896e-5 0.0
0.001112945236155074 4.72403394419571e-6 0.0
0.001089265745705822 5.2032413013610234e-6 0.0
6.45766632418407e-5 -1.6069696867656375e-5 0.0
4.966385086548602e-5 -1.1986373889287769e-5 0.0
0.0005022756904798949 -0.00011905846485651969 0.0
0.0007760068384704673 -8.017354233771584e-5 0.0
0.0004931009105496149 -6.227009882235401e-5 0.0
0.0004959175378326444 -6.17255781670685e-5 0.0
0.0005140635097944959 -6.262930817786124e-5 0.0
0.00061457653555759 -0.00011227155406047133 0.0
0.0007262605172700374 -3.5767007709153545e-5 0.0
0.00023556467187421602 -4.4078718846323755e-5 0.0
0.0008415334021016742 -1.7923119142899395e-5 0.0
0.0007737162803369686 -4.235817548161712e-5 0.0
0.000535392523439289 -7.654723650400868e-5 0.0
2.6294843736835467e-5 -5.544557172582119e-6 0.0
0.0005969961809325816 -7.7445048957211e-5 0.0
0.001140692757568527 -1.8862831944632854e-5 0.0
0.0009430189200120612 -2.7277749614667302e-5 0.0
0.0008960478209828818 -1.3427207316827127e-5 0.0
0.0010803080831045893 -2.5522890528764737e-5 0.0
0.0007827650357196537 -2.3704736099466302e-5 0.0
0.0005181448861033323 -6.130783126680456e-5 0.0
0.00017315248946505826 -3.748893580608813e-5 0.0
0.0005748558744816314 -5.492716105694929e-5 0.0
0.0006741261169184011 -4.584661521320894e-5 0.0
0.00020662377179910945 -5.034636152899129e-5 0.0
0.0005628488193777223 -0.00015840684791102743 0.0
0.0007613285790542045 -2.5619699572188386e-5 0.0
0.0003951690127928812 -9.159826576706885e-5 0.0
0.0009196164815526447 -9.621182908871732e-5 0.0
0.0010248864974099542 -2.37716768691561e-5 0.0
0.00046282141138172906 -6.182426216252671e-5 0.0
0.00092590241850007 -4.223414498007494e-5 0.0
0.0007002454489674599 -3.686267107265718e-5 0.0
0.0005992070846043601 -7.30419749617962e-5 0.0
0.00026211428174138584 -4.8094235342160735e-5 0.0
0.0004569837564193509 -6.344703356867188e-5 0.0
0.0006765678555787051 -1.4990922826893695e-5 0.0
0.000194154680975399 6.845929381219801e-6 0.0
0.0008899743225030548 -6.039341386786042e-5 0.0
0.000278701841575685 -5.6387829097629256e-5 0.0
0.0006134430715207683 -7.046874570897473e-5 0.0
0.0010122317837627619 -1.6792102765027568e-6 0.0
0.0008452038856291463 -5.2663095684337814e-5 0.0
0.0004993130933117825 -1.7822357680291662e-5 0.0
9.537846237640316e-5 -2.0808644580691548e-5 0.0
0.0003587873253692949 -5.970325194662362e-5 0.0
3.1051642620766365e-5 -2.7570852292384003e-6 0.0
6.803566022260694e-5 -9.719670894457376e-6 0.0
0.0008415555849633025 -4.4550306534249954e-5 0.0
0.000758345682687523 -2.3282586165971788e-5 0.0
0.00042273672042221337 -0.00012099870912669921 0.0
0.0003094441364474791 -8.200992481362638e-5 0.0
0.0009952430144765238 -1.0789560156547004e-5 0.0
0.00015975705641718498 -5.196341120201428e-5 0.0
0.0008160652079486249 -5.660190727025591e-5 0.0
0.000683770104533698 -0.00011095154916368016 0.0
0.0010020102290534732 -1.2377128204145617e-5 0.0
0.0003843567498074982 -0.00010499871466211402 0.0
0.0010824835853386076 -9.783371476657374e-5 0.0
0.0006547164811929757 -4.139107535739713e-5 0.0
0.00022473322936026425 -7.343224841255806e-5 0.0
0.0008445804956416323 -0.00016044443228356296 0.0
0.00023525555143716828 -5.6449404539963364e-5 0.0
0.0011769427381738522 -2.126933803249045e-5 0.0
0.00017511424819214663 -4.17184232537899e-5 0.0
0.0008566444145125143 -1.6439897558423595e-6 0.0
0.0007864578336214517 -2.066061967896812e-5 0.0
0.0007296041761135631 -4.2528443473889945e-5 0.0
3.248788610191276e-5 -1.324676141075141e-6 0.0
0.0006306353201164707 3.9295262317417465e-5 0.0
0.0003913853410748649 -5.933225122639194e-5 0.0
0.0009635529495339694 -0.00015779069172574647 0.0
0.0009765972222141991 -0.00016701693667380243 0.0
0.00011246576888289168 -1.9283662986585216e-5 0.0
0.0007184023871798165 -3.3310511576680775e-5 0.0
0.00032193604405520825 -8.287763842441308e-5 0.0
0.0005213611758954371 -8.205506201402339e-5 0.0
4.12502119557134e-5 -9.916244472224485e-6 0.0
8.733576700710609e-5 -1.848634077122438e-5 0.0
0.0006824761013215037 -4.935650794026242e-5 0.0
0.0006280471366401963 -6.759771758794571e-5 0.0
5.691986435656323e-5 -1.212848235958756e-5 0.0
0.00015027236573623358 -3.266634543619433e-5 0.0
0.0001072082511930597 -3.6469447601330945e-5 0.0
0.0010060369437180402 -8.440316947465597e-5 0.0
0.0007896107299679958 -8.400497720562214e-5 0.0
0.00017072153099586203 -4.6767924821218306e-5 0.0
0.0009336289049444199 1.773470194755953e-6 0.0
0.0008657852163242004 -3.4960581812339587e-6 0.0
7.755597832438678e-5 -2.3972351663570416e-5 0.0
0.0005695598699293941 -5.737274840628877e-5 0.0
1.0518639089024922e-5 -2.5388844321999652e-6 0.0
0.001283351264255847 -5.848835101040201e-6 0.0
0.0012297513391662132 -4.618934659960578e-6 0.0
0.00038525226800069384 -0.00011576845656229204 0.0
0.0009375060203612237 2.035440628114445e-6 0.0
0.0007967851503237378 -0.0001129124461025227 0.0
0.00019263109084748266 -4.4542460416196056e-5 0.0
0.0007724989989461013 -0.000167471443817522 0.0
0.0002120483126316265 -4.183019629764833e-5 0.0
0.001063134168051436 -1.2805851672567357e-5 0.0
0.0005081959901086663 -8.358156433250744e-5 0.0
6.15986077230977e-5 -1.5042510232290394e-5 0.0
0.0006556295726486877 -5.643563228020851e-5 0.0
0.0006485239894685193 -5.482311159294288e-5 0.0
0.001140620478733441 -3.06760631267151e-7 0.0
0.0006785652416816965 -8.033555353565504e-5 0.0
0.00010381444323646497 -1.1183353656312715e-5 0.0
0.0010673437031713225 -0.0001300241593411399 0.0
0.0011454350617926743 -5.672323757582698e-6 0.0
0.0008656092592715381 -3.753360849717906e-6 0.0
0.0008820940634649312 -2.643618732516747e-7 0.0
0.0005345958354581191 -0.00012747363337206328 0.0
0.0012286885525036912 -4.738036486294267e-5 0.0
0.0005895216534052047 -5.679352057001733e-5 0.0
0.00018528575655826513 2.2476609333529837e-5 0.0
0.00016569469407005775 -4.820971808025713e-5 0.0
0.00044498068118989294 1.0560577200642365e-5 0.0
0.0010731012037345864 -9.443758591081667e-5 0.0
7.262800025771435e-5 -1.7504503696376395e-7 0.0
0.0006779647279833609 -3.7040084492141586e-5 0.0
0.0009481347704585819 -2.0028896647466015e-5 0.0
0.0007667441261681697 -4.0836526666191846e-5 0.0
0.001254129237751906 -3.1690562029098333e-6 0.0
3.91200181531441e-5 -8.87911413087591e-6 0.0
0.001149297167771085 4.217886021228499e-6 0.0
0.001259284284147247 -3.1003164226153252e-6 0.0
0.0005888555295089311 -0.00015038377191489794 0.0
0.0007011104937607854 -4.607885208791654e-5 0.0
0.0005389854871702102 7.052975647990277e-5 0.0
0.0003250485045529743 -6.869393845087742e-5 0.0
0.0004389202458836323 -6.19259591019396e-5 0.0
0.0005625769582152066 -5.754197385989798e-5 0.0
0.0002903721455355812 -7.367307671452433e-7 0.0
0.0004713056300062421 -9.597032098355198e-5 0.0
0.00026686876078244867 -4.761193990162806e-5 0.0
0.00018622982666947123 2.0230311410130648e-5 0.0
0.0005964807740967315 -5.401377191901959e-5 0.0
0.000858302755749827 -9.632134216290142e-5 0.0
0.001027365889778811 -7.396534284832383e-5 0.0
0.0004931544592484371 -6.017855900119613e-5 0.0
0.00034617835921351044 4.7261109437520725e-5 0.0
0.0007867216650421698 -4.192012257913251e-5 0.0
0.00041647373577361586 -6.0494856775002474e-5 0.0
0.0009655753106401307 -6.177462275245545e-5 0.0
0.00045215171491202533 7.832817257837272e-5 0.0
0.0004120747466557945 7.652793478980674e-5 0.0
0.0006666062423993948 -7.215072643704915e-5 0.0
0.000821783206768568 -8.255546957108198e-5 0.0
0.0004997105686226384 -0.00014629630448399642 0.0
0.0009235827239110778 -0.00016724227567144545 0.0
0.0003683017069623407 -6.779103643863134e-5 0.0
0.0008617612748000131 -0.00016881171843519658 0.0
0.0003148704578943615 -5.366796296238606e-5 0.0
0.0009849831515276089 -6.333612492689591e-5 0.0
0.0004962521062582888 -8.127157583828544e-5 0.0
0.0010610198266553692 -2.5642744831595594e-5 0.0
0.00032753859140622656 -6.635977632681995e-5 0.0
0.0006512144321456552 2.398934173207081e-5 0.0
0.0005167431435390139 -6.276195956929077e-5 0.0
0.0005538756170731851 -0.0001045628067341441 0.0
0.0006181363704289829 -4.8090577470280574e-5 0.0
0.0006421085228801866 -5.347535188001007e-5 0.0
0.0003680619853545713 -8.336714213380809e-5 0.0
0.0003705293968745847 -8.815463298017885e-5 0.0
0.00025840975534025435 -5.273795140787982e-5 0.0
0.00046774563979512095 0.0001608032625307933 0.0
0.000568722421561545 -0.00012451116425554122 0.0
0.0010788221198571011 -3.626095985596673e-7 0.0
0.0009451951693221488 -9.27759694328027e-5 0.0
0.0007664372888059485 -3.49193819654865e-5 0.0
0.0003531204807905883 -6.742106457362267e-5 0.0
0.0008288244282728071 -3.4761399869326996e-5 0.0
0.0007004703265278075 -0.0001081308693866787 0.0
0.0004972793781248265 -7.76456194059531e-5 0.0
0.0011643290606576824 -1.3683265804375754e-5 0.0
0.0012396333020654776 -8.535453243438886e-6 0.0
0.00047703607556789506 -6.233564379089771e-5 0.0
0.0008167307112331599 -0.0001605588180008763 0.0
0.0010958378983188595 -0.0001165442189163055 0.0
7.210544763996112e-5 -1.586399290629948e-5 0.0
0.0003385042563833328 -5.855561042154124e-5 0.0
0.0003846851216167403 -6.810223945906284e-5 0.0
0.0011205458200697392 -0.00010306140473581113 0.0
0.0004707537339110426 -9.101246171070644e-5 0.0
0.0008821324225515697 -0.00010168719885624433 0.0
0.00013661455463711783 -4.412010377239082e-5 0.0
0.0007032367767991402 -5.6013608226675006e-5 0.0
0.001024148172363963 -5.4837789955286694e-5 0.0
0.0008054707141521031 -7.979435769026665e-5 0.0
0.0011888485997454208 -1.4428707838993089e-5 0.0
0.0008305743745908443 -0.00014752545661961118 0.0
2.5798651489599924e-5 -4.905769327080996e-6 0.0
0.0005761281788786164 -5.602603196033948e-5 0.0
3.013595959161735e-5 -6.997332229244611e-6 0.0
0.0004702301818849618 -2.1977954970289024e-5 0.0
0.0003094353159037961 -4.437487452477365e-5 0.0
2.3278199077302166e-5 -5.794455123183768e-6 0.0
0.00033749034121135623 -0.00010750486919608855 0.0
0.00031556801257129374 -9.833116042438088e-5 0.0
0.000601244040299346 -5.8474324291723916e-5 0.0
0.000641404664683755 -6.328304828638301e-5 0.0
0.00023665220974912807 -7.739290450164277e-5 0.0
0.0004394717445895214 -6.126486649265606e-5 0.0
0.0007286142318476514 -3.327553257747382e-5 0.0
0.00024853074379611704 -5.776905452945413e-5 0.0
0.0008839770241056578 -8.06532229315295e-5 0.0
0.0007184060895156681 -0.00010525567851324402 0.0
0.00019334640431761273 -3.927051276485054e-5 0.0
0.00010936651778702708 -3.165985632389195e-5 0.0
0.000672037927568794 -3.917252686315124e-5 0.0
5.082713709518695e-5 -1.4897028856552896e-5 0.0
0.001210198602744415 8.693163641251633e-7 0.0
0.0005088540670245077 -4.4284685082316456e-5 0.0
0.0006029783419222099 -5.1884601581004616e-5 0.0
0.0010555442205772206 -0.00010648482411704516 0.0
0.0011674062426849988 -8.895626386541165e-5 0.0
0.0009532291987980789 -1.3929452780065646e-5 0.0
0.0005676902730374285 -0.00011738825994770939 0.0
0.000729995582826154 -5.155815184982538e-5 0.0
0.001028317972114885 -0.00014470717308423815 0.0
0.0006110143377511882 -0.00016299661722380692 0.0
0.0010077728907409468 -5.2604654277353595e-5 0.0
0.0008085301925357633 -7.185325539370636e-5 0.0
0.0004580081647201376 -8.764226516727776e-5 0.0
0.00084591210369477 -8.851101737226246e-5 0.0
0.00048459455302820307 -7.520159485545378e-5 0.0
0.0004025769584284199 -0.00010976944029007556 0.0
0.0006046076331618322 -5.041101893555229e-5 0.0
0.0009469419055434157 -0.0001587036082617141 0.0
0.0002574296664424694 -5.131724280829852e-5 0.0
0.0002002494154040613 -6.57258600596849e-5 0.0
0.0008834628927914729 -6.547711416943358e-6 0.0
0.00031884015392026675 -5.8420299409562335e-5 0.0
0.0008127899958187379 -5.467244376700861e-5 0.0
0.0005818234123013283 0.00023160462513869426 0.0
0.0009956206490123807 -5.901429815236691e-6 0.0
0.001057619445248066 -1.88790604084041e-5 0.0
0.000683986700522164 -5.384943458165565e-5 0.0
0.000929156750092852 -1.981664430250203e-5 0.0
0.0007401337376013446 -0.00012054875028227739 0.0
0.0007960102364424359 -0.00016939800517258165 0.0
0.00040156464168756716 -6.812349369583158e-5 0.0
0.000507919754206251 9.322900055618394e-5 0.0
0.00028061590311025857 -5.382196269095462e-5 0.0
0.00029110383591183316 -9.69938956851668e-5 0.0
0.0005639380515699411 -5.904034840349204e-5 0.0
3.944774417567017e-5 -8.888100696850467e-6 0.0
0.00022973603751871906 -7.137461468661058e-5 0.0
0.0006474260914077087 -4.779966642745136e-5 0.0
9.052103534937396e-5 -2.2893082398928605e-5 0.0
8.541129324481909e-5 -1.4169477640194502e-5 0.0
0.00063977474905252 -6.52539623220862e-5 0.0
0.000682143398264485 -3.649467740002616e-5 0.0
0.0011503043282352805 -8.631074136664465e-5 0.0
0.0005713845133821359 -5.8363603216689025e-5 0.0
0.0008623222046689778 -8.67691116146446e-5 0.0
0.0007086114100310036 -3.620956781954625e-5 0.0
0.00020132809591438632 1.402287031226787e-5 0.0
0.000260856554400236 -6.893867649205187e-6 0.0
0.0012143498245744272 -8.766343474021877e-6 0.0
0.0008647046960274995 -9.74132271018135e-5 0.0
0.0002108636797733217 -4.71657548812925e-5 0.0
0.0007553672302861954 -2.2470443522806694e-5 0.0
0.0006703820720131351 -6.026442872944888e-5 0.0
0.0006629904602196237 -4.0091613246228524e-5 0.0
0.0003109031061170529 7.234846322143114e-5 0.0
0.0006360501310124317 -0.00016495757488545253 0.0
0.0011318217817119984 2.2421034166042367e-6 0.0
0.0006366563028368532 -5.569573274434838e-5 0.0
0.000685780831280991 -3.998067655675115e-5 0.0
0.0007903222118084382 -3.1249215276812644e-5 0.0
0.0006221069502514093 -5.614922480396889e-5 0.0
0.0006418596584124389 -5.211228570891415e-5 0.0
0.0003352279446886236 -8.781019218314742e-5 0.0
0.0008252475161210864 -6.710868669573086e-5 0.0
0.0005466242786141249 -5.8332524078982024e-5 0.0
0.0006755573036073773 -3.930897345737875e-5 0.0
0.0009856558729225463 -0.00016669740957028895 0.0
0.0005813149147636701 -5.408632676139232e-5 0.0
0.0007671781762171708 -1.8988810315995305e-5 0.0
0.0007160109333451701 -3.61316289343835e-5 0.0
0.00011201115490074963 -3.6153612286305707e-5 0.0
0.0009497099966647317 -8.296631926687362e-5 0.0
0.0006947912442124459 -3.548460616315439e-5 0.0
0.0003827637889312136 -0.0001083345779776657 0.0
0.0008270157520188742 -7.652335619395373e-5 0.0
0.0008877542958301181 -0.0001694167638864413 0.0
0.0012541632859914384 3.7708001925359574e-6 0.0
0.00010538922620970761 3.0847915362642534e-5 0.0
0.0005518593381891625 -6.095666661084746e-5 0.0
0.0006905625102022687 -0.0001564370526333956 0.0
0.00045978631769357696 -0.00012342120118102366 0.0
0.0005126541209404103 -0.00015063384573646193 0.0
0.00011845117371463557 -2.6783493506206194e-5 0.0
0.0008776797881328738 -8.305157648353696e-5 0.0
0.0004055737552618146 -6.632889290246915e-5 0.0
0.0005645343554949664 -5.626269737812787e-5 0.0
0.0004919781518216267 -6.149505792504514e-5 0.0
0.0005248126374878281 -0.00014681391491163138 0.0
0.0009239733777036721 -5.4340039738701883e-5 0.0
0.001173460672561013 -3.917692306861793e-6 0.0
0.0007386678189123857 -0.00011400282700657033 0.0
0.0006323366135310783 -5.966111930654398e-5 0.0
0.00043353983124783666 -8.657977278524352e-5 0.0
0.0006652062239643062 -0.0001662675567585775 0.0
0.0009147370764026525 -6.828058945624871e-5 0.0
0.00010395735460002311 -2.555523360122917e-5 0.0
0.0011124414019071933 -6.350901425644442e-6 0.0
0.0005465829901006856 -0.00014933050404610207 0.0
0.0005584430445997193 -0.0001278896442267221 0.0
0.0008436102042042656 -0.00014306727420855794 0.0
0.0012648448031650633 -1.2030670852895394e-5 0.0
0.00048342729642177686 -0.0001324661352880956 0.0
0.0004663082136769811 -5.8686311881993376e-5 0.0
0.00046121394968717756 -6.270419562432352e-5 0.0
0.0007836567351834872 -3.70978627076229e-5 0.0
0.001220492109542463 -3.347237760495667e-7 0.0
0.00011896606883203148 -3.411035982915548e-5 0.0
0.0006463585148343748 -4.919587970086713e-5 0.0
0.00108845898776485 -0.00010369228667646358 0.0
0.0012138497435109931 3.1666941334068277e-6 0.0
0.0003996302851132269 -6.080634412968224e-5 0.0
0.0005567606134546566 -0.00015136341132830728 0.0
0.0011700116652530606 -1.0151723265352042e-5 0.0
0.00023863008748660475 -6.909172530969263e-5 0.0
0.0012465491448127928 -2.5285275193490892e-8 0.0
0.0004103884707697009 -0.00012020463928506773 0.0
0.000828941120703873 -5.8973083874150354e-5 0.0
0.00027847487116198995 -3.3310442144167556e-5 0.0
0.0007809661994296465 -1.6737449074514648e-5 0.0
0.0012126869986141273 -4.462809989110062e-5 0.0
0.0009327935734797625 -6.175077026599875e-5 0.0
0.0003656450826837359 -0.00010892027982764224 0.0
0.00026800463788744384 -9.07265334757968e-5 0.0
0.0003368198217561043 -8.176417028802695e-5 0.0
0.0010075294081839966 -0.00015072420580709768 0.0
0.0009115767230957208 -2.0116200739553993e-5 0.0
0.00022757413037247914 -4.965787000638814e-5 0.0
0.0005306172168656819 -6.196306682647091e-5 0.0
0.0007805452150850298 -4.3303109357013464e-5 0.0
0.0005103474574955548 -6.692111917381751e-5 0.0
0.001186561278527642 2.7926633084237603e-6 0.0
0.0008390771921901012 -1.5166800393443365e-5 0.0
0.0005476679941955596 -5.815276062344496e-5 0.0
0.0002349482203115746 -4.8625889528012646e-5 0.0
0.0008852313521476464 -6.857669015215838e-5 0.0
0.0007605477647930304 -0.00015110051870028597 0.0
0.001055161405761703 -0.00013758241869378323 0.0
0.00044000866394316876 -0.00012005750078740896 0.0
0.0008248074103913727 -2.2263668615807746e-5 0.0
0.0004875797093725589 -7.214424024924696e-5 0.0
0.0007217420614306489 -0.0001582679586755497 0.0
0.0010458711617558018 -0.00010485221887457697 0.0
0.0009098593258171642 1.7754684845943258e-7 0.0
0.0011820506311776197 4.037652763090147e-6 0.0
0.00036032923446475246 5.9174102672436314e-5 0.0
0.0011371914879997828 4.765683980137259e-6 0.0
0.00043013077982569466 -8.101047487898923e-5 0.0
0.0010389903234475683 -2.6139014778215345e-6 0.0
0.0007720402067893127 -1.9072762424623797e-5 0.0
0.0008481848526574604 -9.129241456618558e-6 0.0
0.00041947030336836105 -6.442752990385586e-5 0.0
0.0008537395432542507 -1.9430187932069275e-5 0.0
0.0005787837726296185 -0.00015257409110938227 0.0
0.0003450174106676333 -0.00010239215279571357 0.0
0.0006912433301282753 -3.434089045174122e-5 0.0
0.0009088086236249688 3.2461658452064897e-7 0.0
0.0005499887539680763 -0.00013740517162745991 0.0
2.8551142644635363e-5 -6.604160126028105e-6 0.0
0.001229550558667627 -3.6318987869076042e-6 0.0
0.0010262661279726185 -3.2022598572566427e-6 0.0
0.0006187895175884705 -6.05187292668657e-5 0.0
0.0012491981295475602 -7.926394043789914e-6 0.0
0.00040670296473304247 1.8188337714590853e-5 0.0
0.0006801248124789362 -6.123707974065581e-5 0.0
0.0012809145506153872 -1.086328451571926e-5 0.0
1.0027058309590875e-5 -2.6807715741320578e-6 0.0
4.0815078204245246e-5 -9.698558898399606e-6 0.0
0.0004170704523912908 -6.00859195146415e-5 0.0
0.0007402143977913943 -5.344040106080685e-5 0.0
0.0008605473354229592 -9.798606267123435e-6 0.0
0.0009463319829904767 -0.00015067486918381019 0.0
0.0012335942120091422 -5.904981065477856e-6 0.0
0.00011389763241833809 -2.846113689632356e-5 0.0
0.00030827901067462856 -3.408523232924259e-5 0.0
0.0007634555947546609 -0.00014281348038896463 0.0
0.0010701290406819105 -4.797087593232155e-6 0.0
0.0003469444775213877 -8.188673425501726e-5 0.0
8.333993498391096e-5 1.9986680065668508e-6 0.0
0.0007680102913453169 -2.126448211029848e-5 0.0
0.00044268415164899533 -5.758314404860072e-5 0.0
0.0009595355244781665 -5.897162948987884e-5 0.0
0.0006379893147624984 -5.0367987425915136e-5 0.0
0.000504962949257874 -6.906475228255316e-5 0.0
0.001100596389997324 -1.1200705043640537e-6 0.0
0.0011068220467102905 -0.0001139619800274307 0.0
0.000917333994446659 -0.00016106235054197935 0.0
0.0003225658847219751 -5.7717839235265846e-5 0.0
0.0011537797422190204 -7.375251285542414e-6 0.0
0.00022054447275186682 -5.2728896073392516e-5 0.0
0.001166070183621157 1.8930755924604163e-6 0.0
0.0010176728757391458 -0.000150513399048468 0.0
0.0008024021917715167 -2.3495102520302402e-5 0.0
0.0008556548520749351 -0.00016266365375296876 0.0
0.0009682186556242856 -6.716777166725806e-5 0.0
0.0006132542432443892 -4.964469203664007e-5 0.0
0.0003428521386398314 -9.801444206444367e-5 0.0
0.0005787897146284003 5.5456630965389134e-5 0.0
3.360682701346565e-5 -5.7936088268459195e-6 0.0
0.0012135857792400402 -4.394970123897532e-6 0.0
0.00014649325924194481 -4.809546300627506e-5 0.0
0.0009015813453946279 -9.320787075942069e-6 0.0
0.00024642982623133345 -8.097090994700504e-5 0.0
0.0008305389175382215 -5.2372433334342916e-5 0.0
0.00030097993734218585 -2.0903792922568814e-5 0.0
0.00013234559590700969 -3.2468780607301287e-5 0.0
0.00017578789421239183 -6.005180363944769e-5 0.0
0.00016381239357436784 -4.6041276886158155e-5 0.0
0.0005524604508766138 0.00013878817276776856 0.0
0.00094813601032579 3.073504435046578e-6 0.0
2.0950818149647925e-5 -4.892083869336505e-6 0.0
0.0010170081034473507 -1.3884506509031974e-6 0.0
0.001015990748677405 -2.2219703561866175e-5 0.0
0.0007579093975662872 -4.974373695349898e-5 0.0
0.0006295987678200005 -4.912547499225381e-5 0.0
0.00038628493272716333 -5.710632764886352e-5 0.0
0.0006251371945711362 -4.693627700216494e-5 0.0
0.0007765341603523779 -0.00013047284423626355 0.0
0.0004202587275527654 -6.655936668391267e-5 0.0
0.0003075892242878074 -9.786399154073512e-5 0.0
0.0010466021049639917 -6.375856252658764e-5 0.0
0.0008714775363616154 -7.405689101252919e-5 0.0
0.00015741304203199075 1.3474060539905701e-5 0.0
0.0004408122516024127 -1.873353935839231e-5 0.0
0.0008135563175307803 -3.076735638549319e-5 0.0
0.0007807522247127768 -0.00016103700087604628 0.0
0.0005268297127804281 -6.358081592395813e-5 0.0
0.0009731829652460081 -0.0001605296517133963 0.0
8.876146118700055e-5 -2.839097008004114e-5 0.0
0.0008555607887512805 -0.00013946887646601198 0.0
0.0004947752862148598 -5.802388641178526e-5 0.0
0.001161768245319718 -8.099950549818072e-5 0.0
0.0004798656984345931 -3.4575314615081634e-5 0.0
0.0007774758111037254 -1.6710943939327467e-5 0.0
0.0006452425956832665 -6.224809265264787e-5 0.0
0.0006897466525233428 -6.168418229427905e-5 0.0
0.0007299423812695881 -3.21556074244076e-5 0.0
0.0007529726648176346 -0.00015885083254284362 0.0
0.0009551946544432628 -0.00015971842296652868 0.0
0.0003416522413075356 -6.745540223194587e-5 0.0
0.0007973820150293221 -4.160092841472985e-5 0.0
0.000774789025795285 -3.623031004254026e-5 0.0
0.0009484849866145128 -0.0001407838486871627 0.0
0.0006194035458985501 -4.932739149360549e-5 0.0
0.0006919055043057735 -5.371227712186762e-5 0.0
0.00034169484682364454 -9.414380613453476e-5 0.0
0.0011544511036097479 -7.316146178793976e-5 0.0
0.0008136830236666935 -0.00016974077279521512 0.0
0.0005513088767837387 -0.0001317596207659664 0.0
0.0012308078960219084 2.2188750030577063e-6 0.0
0.0005459067696968359 -0.00011293605257483064 0.0
0.0009972412937697963 -4.315386874747707e-5 0.0
0.00037951339068422986 -5.95162715788108e-5 0.0
0.0008276006275699578 -9.608523316587643e-6 0.0
0.00028456012020498073 -3.90791201986759e-5 0.0
0.0006015790272887224 -6.095037003115695e-5 0.0
0.0005349133192084849 0.00019516612860426627 0.0
0.0012593443542598776 -3.2144500025441043e-6 0.0
0.0007427816586334357 -0.0001092162497019195 0.0
SCALARS damage float 1
LOOKUP_TABLE damage
0.8288190143501611
0.9089306064798377
0.9707097885295204
0.5578464389913452
0.9990834564902917
0.999869456509771
0.6114993613942569
0.9608541392107098
0.9510986014667278
0.9562952721187024
0.9598673854455353
0.96138464517621
0.9635317072055268
0.9659893983352987
0.9657600510536521
0.9640061090260338
0.96196246847332
0.9604661924630333
0.9591578517601225
0.9576167314269646
0.9562224700789232
0.9556611204884238
0.9542572705528222
0.9528875838784205
0.9518414318999469
0.9503965809805867
0.9482444951656757
0.9460835386379263
0.94327965560739
0.9404381033238651
0.9365224317493062
0.9316801618048907
0.9055525047053352
0.928594931559555
0.9310870638037906
0.933607538613708
0.9360122010450317
0.9381279820771501
0.9385099651593422
0.9386105118007054
0.939597842826122
0.9408388474288522
0.9412473281149915
0.9403856658052828
0.9438053593291439
0.9432415248403954
0.9311282556335339
0.9359840131915625
0.9399205235707851
0.9450675538204517
0.9470191593336699
0.9506840624147909
0.9517108798725892
0.9570419148009776
0.9534006096825303
0.9568632495578651
0.955519294231351
0.9576658974925806
0.9587040117593181
0.9611719177784023
0.9599376902914468
0.9622835290844728
0.962849330103787
0.9649897174204017
0.9654306208856354
0.9630013915966072
0.9578363742445716
0.9519638292891875
0.9531455026487867
0.9417056633811699
0.9586885521250347
0.9637020932559593
0.9653675137569607
0.9848011823702006
0.9893100235077474
0.9873589988867206
0.9879958773568399
0.9866245835892805
0.9876625914469562
0.9863315940669833
0.9840817408793436
0.9872875294476113
0.9878284339162403
0.9866157167142333
0.9863225349681579
0.9874427179349394
0.9934864653438824
0.9936891672528367
0.9954800216611392
0.9945021593631672
0.994555739469923
0.9951916548672096
0.9956078618223847
0.9960697402437813
0.9957783536686233
0.9966882546374727
0.9956192041084896
0.9957242336285135
0.9960252735022851
0.9962494935737328
0.99614951329132
0.9958470763111743
0.9961783941671705
0.995084643588701
0.9955587314572438
0.9965581896556929
0.9960158713775862
0.9976409802637186
0.9979295752079428
0.9982174009792362
0.9986828634107715
0.9991078216150221
0.9990311487117164
0.9970331545456064
0.99191551104335
0.9863289026211268
0.9873808159955177
0.9883592103429124
0.987109215203936
0.9849437774235519
0.9807244871569063
0.9738220503277628
0.9617019507100041
0.9414473310965213
0.9264592209075905
0.9086762970251392
0.8862814632774991
0.8375128585726046
0.7890219047067785
0.7780871109654259
0.6083380701120542
0.763695989191915
0.8247249228491546
0.872591307847113
0.8933952445377105
0.9056668850896912
0.9122577740475653
0.9173534979163731
0.9200534263232509
0.9223631924062835
0.9245497071304308
0.9259665904438202
0.9264513350517045
0.926524237125504
0.9261546240425802
0.9253583583626931
0.924468370621383
0.9234962279592448
0.9234331733112361
0.9280938875387258
0.9313743831488275
0.9391230067784784
0.9466656174299165
0.9550961750878633
0.9664337021879011
0.9770139328641024
0.9803179337771041
0.9959238165987748
0.9978764509473668
0.9991009347986025
0.9994203905673943
0.999843219978246
0.9967384518393607
0.9916533954937262
0.9824721574381322
0.9664389611198261
0.9455465781055797
0.9208994545428874
0.8937167739239813
0.8432672133274691
0.7727977506165661
0.7023139040167118
0.5424418867804535
0.6815335704641869
0.7642568279994232
0.8208678360829302
0.8646679086783927
0.9062945718109289
0.9304890932145898
0.9542856556240963
0.9756528003444389
0.9843835936221319
0.9934789114248721
0.9969135340566246
0.9989231812294721
0.9966694346096532
0.9672000726486689
0.8442471574633046
0.9590825878736271
0.9950287766324077
0.958039502103647
0.9946898787315772
0.9854665392207155
0.9922541937969095
0.9862775956334651
0.9987946462289533
0.9512396811881257
0.99799567561325
0.9398949714657
0.9547856549609802
0.924932760941983
0.8672237294041801
0.90476857474668
0.6160509433217931
0.864589054052962
0.9877927433536717
0.9393828482102086
0.951388918353547
0.9257960567461273
0.9252398416080944
0.959946789367838
0.9715556974953105
0.9367831586046838
0.9705780062323953
0.9376443537051611
0.9479701783811627
0.9192154091000274
0.9556341211435757
0.9873939750323582
0.9943907858350235
0.9844446574560141
0.9947292196901601
0.9958301826526015
0.9628204002839152
0.9557467259216326
0.9241980543875032
0.9346193850974206
0.9412654941539953
0.9635201963191063
0.9019931344739124
0.9403618199594027
0.9940416728176401
0.9796162257258964
0.9592463576726085
0.943878417661481
0.9534369336906843
0.9262658198758136
0.8239688002194643
0.8000193081416229
0.928603216124036
0.8237641534464797
0.9955490998287995
0.9890474261393735
0.945886907752725
0.9618053963245453
0.9922324203311784
0.999135093227245
0.9481876476593718
0.9905014594380159
0.9346261972547542
0.9365817463648799
0.9832909948612385
0.9807088055063097
0.9950002435847807
0.874239438470256
0.9338577453743526
0.9956470262940433
0.9992681826407627
0.9236755794568993
0.9768528639452544
0.9201875308250448
0.7700146262806333
0.9992139799286611
0.9957700577934847
0.9898168568983357
0.9910265096582026
0.9912849885127233
0.9898211374272727
0.984637675629809
0.9822859322529421
0.976533919801623
0.9738705912590995
0.9789738001216644
0.9700318119824752
0.9740782524413732
0.964899527329865
0.9693729825468148
0.9575647204790142
0.9970086091299752
0.8539322675556377
0.9570879621428932
0.8844002525113196
0.9615660784384967
0.9167617912568813
0.9661572934018647
0.9378744644439136
0.9684730464747004
0.9466580667818165
0.9697771230939608
0.9538001745523563
0.9708364116261726
0.9557692242180671
0.9705228168530631
0.9590051961761796
0.9709675520776272
0.9583489477184245
0.9685348685434159
0.9582129618159543
0.9673644960589763
0.9593621848087052
0.9677175360918008
0.9607492857733249
0.9680919928574787
0.9613754769278613
0.9678131895104198
0.9618522093928069
0.9682866429480248
0.9609641868890795
0.9667306163696693
0.9623034454060608
0.966564360249101
0.9640023497950885
0.9672351513096217
0.9640279941983724
0.9672565145831498
0.9649494874398686
0.9008625779898608
0.967843171445298
0.9451503871434178
0.957047886659364
0.9655919728312828
0.9682732829352918
0.9661558718308175
0.9634636629936223
0.9642474612471802
0.9686305007029775
0.9697787050914463
0.9685307647234374
0.9700717642355825
0.9704074006703162
0.9706355226748327
0.9613084285623493
0.9622396591486668
0.9706091384286534
0.9588154513714602
0.9599964707599851
0.9710764310628608
0.9710668583579188
0.9563112264272192
0.9582989774663225
0.971523104343846
0.9714164374074913
0.9535876604620857
0.9554756611149843
0.9719593626056998
0.9720148047351016
0.9507912541196756
0.9523650258730179
0.972743913683991
0.9728752301362306
0.9474854542643532
0.9503292583323291
0.945150119566732
0.9417750793466907
0.9725713377698901
0.9737537385126026
0.9737748162708458
0.9725410251151184
0.9711836436291909
0.9736736360471749
0.9717535331723813
0.9727372199573245
0.9483139227084983
0.9440008368749936
0.9522243662787535
0.9747299994503138
0.9462033907633361
0.9417749462016741
0.9738868404426788
0.9442918606669131
0.94023457298054
0.9432244998860532
0.9388471951736101
0.935749683231849
0.9343678292765499
0.931486688368997
0.9420914721522113
0.9318853234512442
0.9284747779465162
0.9459506619342487
0.9450036715320528
0.9289092136653772
0.9255063187434496
0.970905950683861
0.9714642237039256
0.9479178299890899
0.9465272243431031
0.9696986832278193
0.9700831241505908
0.9725646329159859
0.9700409988720031
0.973530319239571
0.9703945868482784
0.9740882066316808
0.9704034607259665
0.974680194398036
0.9665291759378838
0.9696616074250282
0.9750823838015886
0.9495481793426964
0.9262725044597356
0.9228185570142476
0.9786128350827377
0.9797194485234269
0.9759946268955572
0.9825876913231447
0.9483401348562831
0.9811932525637047
0.9770309916832732
0.9512611790346671
0.95017306276333
0.9476314698789603
0.9824374985806809
0.9781732461493591
0.9531073603844928
0.9544867340274288
0.949193773739343
0.9465287827170833
0.9833626374573885
0.9795798347775683
0.9699642764244052
0.9856547536767304
0.9711830394537395
0.9616646417560683
0.9243944315745989
0.9216954344734861
0.9190470072146103
0.9191824134738684
0.914206003344028
0.915439053885335
0.9103252159589702
0.9561015767307738
0.9577338985104814
0.9481655459672177
0.9455597577415148
0.9809004701827158
0.9128242192293162
0.906780940673075
0.9590655648862783
0.9609341507675507
0.9600930448468101
0.9713824883499204
0.9628578040940742
0.974537667731377
0.9534819547561206
0.96784898877195
0.9112627718822937
0.9052315645126067
0.9473520740339407
0.9449919580798316
0.9621329665639756
0.963399056085698
0.9811242411846047
0.9245721526989125
0.9273935575969873
0.9180503791474839
0.9714266885135244
0.9121067296728569
0.9045194964025978
0.9602350933776044
0.9464507690347682
0.9442396004684712
0.9680462601337215
0.9670125110834381
0.9673284664782517
0.9662732175655924
0.9643737583078933
0.9655604403899484
0.9510607146566443
0.912807200796007
0.9084333936651522
0.9814867826315982
0.9863985880263704
0.9216272826637156
0.9169375443264903
0.9737796483038326
0.9615090933844813
0.9316367938819066
0.9488745541027416
0.9664927687831766
0.9675545434879295
0.9666753570093246
0.9685026124440614
0.9677690655508671
0.9694667554929812
0.9688557992380062
0.9703412411714308
0.9698443308504913
0.9709703102363044
0.9713415578489222
0.9718442598121074
0.9721489014705986
0.9727970651378042
0.9731529264315131
0.9735076138241464
0.9705826559565552
0.9731725232561055
0.9735655829968176
0.9739112848766215
0.9739598070440563
0.9269447495464458
0.9297027212881004
0.9458476662478701
0.9440265162291592
0.9737030956917839
0.9740280513314162
0.974275117146056
0.9745487778086257
0.9295370582082964
0.9319455603650768
0.967111788898668
0.966262496053542
0.9675057756429407
0.9826262249424033
0.9750145692134993
0.9684177761062274
0.9006856829397505
0.9710511477977312
0.9748266757412843
0.9755087844579678
0.9754293349562186
0.9769476799800142
0.9704740062993019
0.9667914540015432
0.965018949089626
0.9290562275416033
0.9455314359328235
0.9436847570989392
0.968861830244642
0.9770736388285622
0.9789143931036076
0.9786720698354019
0.9808973308049072
0.9803054585700713
0.9824073449303868
0.9830216662574479
0.984357499780168
0.9428054551959485
0.9324199144198818
0.9336532603072889
0.9674033698914231
0.9836933359017486
0.9773085397985352
0.9848175435456563
0.9859137613292359
0.9418239796664022
0.9454755807793503
0.9435149080300403
0.9012119196030821
0.9541617162683564
0.9691736307525853
0.9531518063888331
0.9188334822040214
0.9854550714206322
0.9791246524557857
0.9650632406433832
0.9412581928261673
0.9868546647373074
0.9309722075697305
0.9464186452880926
0.9676675053636274
0.9701625431823344
0.9817956000087955
0.9449773039002775
0.9430618182261731
0.9347074932202881
0.9357755644599973
0.9432240876493546
0.9863472080053864
0.9866162827979383
0.9416964334005572
0.941464287723962
0.9856212976908268
0.9679637865993178
0.9423170581391095
0.9410708486017316
0.9670051100040029
0.9675160550165577
0.9519933379299084
0.9801138234393052
0.9871449174596137
0.9874174346414685
0.9797705350921255
0.981236296531639
0.9697308296047621
0.9868540262541852
0.9875953847876984
0.9367448422585167
0.9377874237910204
0.9889870602431853
0.9888122538851442
0.9417402575889016
0.9406053115955718
0.9681928396459756
0.9714632739950269
0.9402232006786094
0.9399790723100944
0.9401749838493771
0.9398645851836094
0.9697568326794366
0.980185323842793
0.9543940762685738
0.9614320785801008
0.9688955914784987
0.967626403748164
0.9903354259352568
0.9902397915659038
0.9622472025885616
0.9870396768951657
0.9725297839691275
0.939801548389365
0.9396001085402691
0.9398341711757872
0.9392066176733793
0.938962124411799
0.9389313422979669
0.9391829350436667
0.9391903355058788
0.9395584091652791
0.9394378174017392
0.9400147252632268
0.9387892194852707
0.9396190511427386
0.9382192116980328
0.937372548543079
0.9377989324109958
0.9387755712010745
0.943964977311513
0.9281107069437047
0.9793314711790037
0.9808082725215486
0.9335930303732012
0.9687891885173342
0.9704539402594213
0.9824713771548169
0.9819794774631055
0.971901231477647
0.9780982252319994
0.9801423137603147
0.9734031080312431
0.9759643374747607
0.9660035026737244
0.9642807158887248
0.9643869494659663
0.9389803876589933
0.9711733690118494
0.9760885018838947
0.9322116646132884
0.9914886420908413
0.9915933650432912
0.990284796694882
0.9916417180428634
0.9618147833651386
0.9663519378284068
0.9595020775872715
0.9912857818324389
0.9654473431464361
0.9928269052768133
0.9929947160422432
0.9916784647882628
0.9931133429418294
0.9919537968515028
0.9932421984888332
0.994482991875472
0.9946161155207711
0.9374074591071444
0.9378320261562971
0.9394924004554394
0.9688658298117057
0.971365644597275
0.9627204832832039
0.9612118596651605
0.9751483147064862
0.9740169991801509
0.9748524120728049
0.9661487212374831
0.9648409678415478
0.9682955964093856
0.936423443832738
0.9494614768708037
0.96770954872068
0.977208534872789
0.9107362212106593
0.9759747004098676
0.995892978849738
0.9952197823027449
0.9490332260800074
0.9469835764732907
0.9668974241925196
0.9371124887584958
0.9392009738473469
0.9390701854331042
0.9396632818443107
0.9941730423868863
0.9746649896636512
0.974819794874442
0.9545157521141635
0.9363596247152559
0.937261147698414
0.9433460414287175
0.9833714813171138
0.9827865225040074
0.9627158114595442
0.9456204327171641
0.9438213039472791
0.9450844508312327
0.9428324311389749
0.9429220168196439
0.9397229652018121
0.94196475775012
0.9381124778498751
0.9415330474402197
0.9366412029732383
0.9403663816203244
0.9356461132401128
0.9394676967467255
0.9350026676965497
0.9444043371451352
0.9381546999828045
0.9343466911397385
0.9392711981299824
0.940242401258448
0.9426870135161108
0.94428868604483
0.9375865728317094
0.9336742592715559
0.9412304852020469
0.9754652478015188
0.9757138592015554
0.9764069984398032
0.9770512223926312
0.9775686500817684
0.9786345190271248
0.9781382388486198
0.9795794827600064
0.9787908371279331
0.7465604158202627
0.979290186592089
0.9787426175324444
0.9631699458704471
0.9693127202857806
0.9702094296812225
0.9687676985558402
0.9697687633119308
0.9681281179958052
0.9692137768397608
0.9706293899081538
0.9702326379399643
0.9715766535453937
0.9711956682304868
0.9720721778369005
0.9698975061732404
0.9673366055659939
0.9658629309528176
0.9723716032311576
0.9726670988567278
0.9434688916267471
0.9602483184561564
0.9262329603469615
0.9738942713379829
0.9555938128546458
0.956541163387343
0.9734502779718163
0.9706075920121386
0.9903532249351729
0.9749454532693924
0.9699811757118759
0.9693221618108597
0.9689042509569129
0.9609494893266796
0.9573143041665476
0.974117971229822
0.9798839200317774
0.9796229549863262
0.9584824374556885
0.9564748045345685
0.9574818595138423
0.9561625838883786
0.9564946806709583
0.9554638821051854
0.9577945563559375
0.956791451789189
0.9395539232381954
0.9433779233663769
0.968591186004001
0.9728871456480034
0.9439759104221901
0.9426894699040557
0.9312911689176608
0.9329685043633429
0.9712366403767662
0.9731392852392406
0.9921364333229458
0.938906041668843
0.9711533816505569
0.9794106531477225
0.9768016831925721
0.9908254000631082
0.9701801922324932
0.9936411415014241
0.9934492910391401
0.9952171698050549
0.9937114573529653
0.9575473169231878
0.9402025921112785
0.9717365461201376
0.9463458971240809
0.9713839945855848
0.9450618753203123
0.9459789863298449
0.9915964369037834
0.9564377380356732
0.978875342750187
0.9774217100816766
0.963588602636124
0.9626813325739578
0.96695692885426
0.9619330379805902
0.9351975415985238
0.9360460345745387
0.938317608188723
0.9749016195506739
0.9806927937176015
0.9662703902761549
0.9647353874337562
0.9369982421002203
0.9336942461461244
0.9595198921102133
0.9649766679229007
0.9633291518308243
0.9640399583099006
0.9675420746399028
0.9586002879442832
0.9697360434321581
0.9781103872353792
0.95497996884762
0.9555224007463
0.9581220672856122
0.9562007785981637
0.9918887531570718
0.9921413812125224
0.9941606300826176
0.9921026972069769
0.9812456109484495
0.9816477091991318
0.9804396897326965
0.9805216050835092
0.9646919866012817
0.9633992691189106
0.9705749011553197
0.9577887980876916
0.9559529300004257
0.9816890838021781
0.982477821353499
0.9862036155020741
0.9881809836499106
0.9770048007768207
0.9342648740507921
0.9397178387339898
0.9403043555070392
0.9412309972021904
0.9414241933557861
0.9382968725122888
0.9412923400838513
0.9378848205538863
0.9413653562796246
0.9378375198083554
0.9792077864637672
0.9537725345045671
0.9890291181681815
0.9909071852936209
0.9912515425724325
0.9905218204038595
0.9807862612654585
0.9643219252004717
0.994410950616874
0.9627013899391236
0.9533706581303302
0.9614203680133009
0.9619138571439502
0.973530181866811
0.9737318531419508
0.9806930126146824
0.9801512009285065
0.9300884387491266
0.9307262819702067
0.9313709767646061
0.9339365074709184
0.9314473004116499
0.9870419534922749
0.9791381539411231
0.9770490573797076
0.9700260422209736
0.9702400406598464
0.9838147493959375
0.9865502686567138
0.9867271058468047
0.9690652786321752
0.9735085045522256
0.9470164584321832
0.9479990368270459
0.9417950363810215
0.9388388899194081
0.9344495894765631
0.9357193649123298
0.9410110919352375
0.9382830548481172
0.9443650381609103
0.9424606340285795
0.9485930767373727
0.934445366763449
0.9759966969262419
0.9353544755854938
0.9444453110260974
0.9420837846150093
0.9712498554099122
0.9830635632029886
0.9809551230281386
0.9475464750069728
0.9399118203089897
0.9393308872348154
0.9594832813429248
0.9919865698067908
0.9648898186720832
0.992747422308803
0.9541924999821547
0.9643159648658488
0.9617918898203159
0.9626372398875938
0.9492298519302361
0.9599789301408578
0.9410468007687068
0.9820399165803545
0.9824493356607558
0.9816987292534042
0.9835090695691803
0.9870540756183668
0.9867196772823148
0.935463615145245
0.9373526831730226
0.9687726041925887
0.9717975195926094
0.9428684608347521
0.957105612089161
0.9550430746622058
0.9690366914529218
0.9959307742692252
0.9528093407402042
0.9539200980850966
0.9846548719259116
0.9852093542067026
0.975892737773909
0.9748657816900385
0.9747518576151989
0.9701336474331569
0.9407179036484997
0.9334326168454072
0.9829112388873154
0.975654247571446
0.9814125863252436
0.9242102256099363
0.9394846190516213
0.939859943694027
0.99045574451895
0.9405241042064475
0.9393424256433902
0.9395492362416314
0.938351131230505
0.9380325880413192
0.9385378281662968
0.9908684967623896
0.99016267645646
0.9597412545979159
0.9820014567809255
0.9737234692734275
0.9731174160576687
0.9486590296560293
0.9432080207570066
0.9426301498360443
0.9507808249670118
0.9434023828356599
0.9308445160153137
0.949906837817275
0.9491167341803597
0.9508651250626419
0.9482677038229175
0.9596161059033311
0.9649680080194787
0.9761577177926373
0.9437698181238532
0.9822345316972583
0.9636022357034959
0.955588194784686
0.9450655580125318
0.9522875101630223
0.9558841208235319
0.9799053661138105
0.9798805983920965
0.939752187695188
0.9388417872527246
0.938182790498011
0.9388149234801257
0.9440790685517326
0.9341061545254792
0.9365457279473375
0.9869413986645176
0.9871582410623462
0.9850726654022008
0.9912708862476232
0.991131304136434
0.9962581738905545
0.9376871715874553
0.9384216075633006
0.9813242400894964
0.9288228909074441
0.9296224636558986
0.9320588346635786
0.9422802816267458
0.9325098828676726
0.9735945869318038
0.9740048779006109
0.9724173694270669
0.9731831348206296
0.9709971347733575
0.9745648088370347
0.9732814397003772
0.9622382967833956
0.963554411180649
0.9374501351262488
0.9367258608853869
0.9447060673001537
0.941203009861267
0.9353467312145118
0.9374739845579008
0.945262551529456
0.9803508981322142
0.9785442365752812
0.9825035557843974
0.9847784796178543
0.9831310191360793
0.9305324287759134
0.9539280783011787
0.9911644201870036
0.9602110072930778
0.9839822832140667
0.9704869220018291
0.9698957388403074
0.9694475368541562
0.9695397525071607
0.9690061339039595
0.969383518813915
0.9685726327876457
0.9690547670350566
0.9685559395136221
0.9702205970422823
0.9691736933379045
0.9911597054017144
0.9314757789217669
0.9578807217061797
0.9562169138584229
0.9683419040660647
0.95921341288326
0.9726125696865924
0.9793707208450815
0.9446527808428031
0.9411814823627075
0.9449064217170527
0.9486972169914528
0.9606353589434222
0.9676253873449567
0.961263196145426
0.9584759778305502
0.9404223036547069
0.931822319352098
0.9455019774568051
0.9443187511616825
0.9322557339064814
0.9863471312204517
0.9863871910617327
0.9869038276987272
0.986007816847957
0.9694206094992128
0.9805703838523097
0.9450081024607623
0.9738310921136151
0.9738325530965991
0.9613993277708495
0.9484482026087742
0.9661240959951662
0.9957716945267107
0.9972789101523487
0.9970897238905206
0.9983399940851214
0.9974685225278673
0.996530756644708
0.993812829336956
0.9890553256239578
0.9568253154517831
0.9752091461338065
0.9357997076401011
0.9252566984372159
0.9280081791544501
0.9980976491176013
0.9987247885760351
0.9985262824629302
0.9693193700125178
0.9720843452389696
0.9728122859353674
0.9739793856770462
0.950860820032508
0.9717825075102524
0.9810292416518314
0.9910442174856642
0.9916912060912326
0.9937465025860639
0.9903874480152274
0.9351175398791628
0.9597632588740416
0.9606787185171862
0.9623447703994179
0.9618290672987052
0.9872511739942021
0.9457916334839983
0.9424481464014063
0.9328559735593877
0.9456503232797605
0.946200913874276
0.9897087884889929
0.9915510592304625
0.9731411404617644
0.9327869033621128
0.942986920055303
0.988404926737667
0.9853724416678193
0.9779594577486753
0.969163293464822
0.9854370337781916
0.9896182575945358
0.9910207304442192
0.9555423604280803
0.9671717609631654
0.9798743804745553
0.987019213331457
0.9576326268822404
0.9674815174769704
0.9797956172273258
0.9743632199125576
0.9842980350945914
0.9516260336660715
0.9545032331108111
0.9384223963632871
0.9334622775949795
0.9891220984216585
0.9406537234582005
0.9842957922819294
0.9765811110564301
0.9961050821309257
0.995349705206904
0.9853420047766164
0.9789949888844028
0.9447687079231858
0.9736783605716915
0.9761765041987835
0.9539325521401654
0.9527587440825154
0.9537184014764729
0.926383602128781
0.9260739401379989
0.9565322394144805
0.9580026207313016
0.9979345083718496
0.9393848786062307
0.9386165758428979
0.9385523557073395
0.9901658056645717
0.9697547512944742
0.9735498619542031
0.9616246660230505
0.9665721036657767
0.9602032524328703
0.9557224935659147
0.9584104506582036
0.9632793458231478
0.9600010731551074
0.9571541470529192
0.9539877566658662
0.9575202058472773
0.9460261588975416
0.9861384010359006
0.9658803982788741
0.9713139749400943
0.9892825353918022
0.9501888499726843
0.9617754791793215
0.9559323406915249
0.9565600948800403
0.9538865452117182
0.950022205906727
0.9471882816985273
0.9390961257531578
0.9377342947578986
0.9362594309377605
0.9360337352190704
0.9372461273923886
0.9350892201904235
0.9370994016836769
0.9567978316539844
0.9352106910529022
0.9373950633396461
0.9467826330796163
0.9274827134777386
0.9393039637524329
0.934445671395197
0.9905646981482569
0.9911167679963669
0.9821177891662607
0.9840828184555612
0.9609601851679931
0.9458746000484659
0.9348508988651199
0.9331699492217325
0.9144940714745436
0.9104841825989044
0.8719932977113458
0.8750743155792989
0.837206855476552
0.8529107355621893
0.8328205349173068
0.8496866827877698
0.8441736295406747
0.8572008277207764
0.8603612847190736
0.8674470663443178
0.8753363253962422
0.8770793530392237
0.8865169533643639
0.8882659352282185
0.8977198248110743
0.8981909415820237
0.9072418410226548
0.9068570998157833
0.9155851748314277
0.9148635072934177
0.9065653128029836
0.9141756298173417
0.9245262068526945
0.8819427412869236
0.918696386900287
0.9017143758801373
0.8821825982214219
0.8729890959798616
0.9074134153862484
0.9142273708649279
0.9209667947448991
0.9205003201007854
0.8694711123027692
0.8353383731678234
0.899802518832126
0.8212762533045944
0.9269068176361211
0.926100884237082
0.9201286242532932
0.9023547633518356
0.8950885507643634
0.9282069071303146
0.9336733972349742
0.9359489474880188
0.9152075627446566
0.9064526527900838
0.9254963342793235
0.9209680199273659
0.9158562590189158
0.9174503879352961
0.9848255744503965
0.9826510140853554
0.9616788654171152
0.9823217715087229
0.9839448387193841
0.9580100918799369
0.9593909210162256
0.9525972751216059
0.9767800088429602
0.9312400228059355
0.9527706921077983
0.9518365266518691
0.9520950397789919
0.9778568463529662
0.9683437914915568
0.9636818851562233
0.9624789818267986
0.9803659293862418
0.9804070962715676
0.981533841999306
0.9788840631491293
0.9811827643707343
0.9681082842455718
0.968736725974013
0.9692740527257546
0.962961160761801
0.9660051997560636
0.9648680271750153
0.9674389669267518
0.9666048836663945
0.9686607374506354
0.9680925249865564
0.9700356301933034
0.970436276302713
0.9711423066494888
0.9745253483617184
0.973459939147455
0.9731118535262291
0.9727500217388632
0.9396676708339807
0.935783548599789
0.9357753100702437
0.9361381865256723
0.9348544377683604
0.9728967528386196
0.979774369769099
0.9821849978279487
0.9665311444148933
0.9694133568354932
0.969500948453882
0.9235298175573873
0.95487535953288
0.9383309894558116
0.9358506650066418
0.9470208457425842
0.9456665377892736
0.9432818332877208
0.9446512726266311
0.942435939040564
0.9431619109529092
0.9458279233841826
0.9726189923333485
0.9332658396592761
0.9377556003648135
0.9398906083062646
0.9697338911231578
0.9743360748720662
0.9906130722258717
0.9910912740265676
0.9902175781501626
0.9571661103908495
0.9616137647746442
0.9533800705344466
0.9288525996075628
0.9291300406373607
0.9349283352135013
0.9191345355103954
0.9233040687757575
0.9884751666487618
0.9923340328486173
0.96049984621703
0.964818735310169
0.9681881178870477
0.9927947291928896
0.9942188316412575
0.9955723820549459
0.938632031055688
0.9402768376571723
0.9440455916002498
0.9406619016171481
0.9377458534612036
0.9441120085282585
0.9474267456806164
0.9837881737850417
0.9343862539094097
0.9336909814225347
0.9347292207092918
0.9338945845150408
0.9293982158736476
0.9303556781771091
0.9274686708028501
0.9982349495798438
0.9590568017504442
0.9926289819201737
0.9941436415224587
0.9915266451165413
0.9917682722512877
0.9897615796375681
0.987977903244991
0.9855853826663841
0.9842557073777465
0.9860805826859306
0.9839954948578916
0.9306398996897828
0.9435100929739413
0.9414155607822575
0.9416054301638839
0.9590872417025524
0.9590086830299814
0.9275329402854088
0.9618951944730326
0.9726537707704358
0.9723879747987121
0.9320800070461756
0.9293571881131921
0.9889530236125608
0.9421377004213961
0.9423752809091143
0.9877724737780632
0.9923735307562626
0.9001122399409445
0.9055782066498909
0.9321659717127573
0.9758526466231411
0.9891403515273423
0.9760400671765685
0.951743121443713
0.9907139074103859
0.9520049096833044
0.9418342258825094
0.9368606432104422
0.9867479382134703
0.9567097788211111
0.9378390600342698
0.969763207239613
0.9976679544207084
0.9991316215850512
0.9295588448786579
0.9895774726400185
0.9912398188162199
0.9628489063132063
0.9707156398595149
0.9663142526277765
0.9728958939803922
0.9732903045388386
0.892825281709669
0.8898381044781909
0.9313139473912081
0.9753880280673487
0.9693556493263836
0.9631997267229565
0.9991188692677192
0.9973510886394112
0.9330520188879639
0.9330398942171708
0.9270215097794589
0.939321871815259
0.9389696164502381
0.98568888754499
0.9540685898888371
0.9578035630019858
0.969854817705644
0.9916022463099127
0.9928077516024941
0.939998107623922
0.9380363959909251
0.9699716224150265
0.9905128042404537
0.9694534764440987
0.9674420295110544
0.9251808976634901
0.9980677595792284
0.9635883788634356
0.9004651837151618
0.9061635675465766
0.9230867930705948
0.9680513789727001
0.9428393775892117
0.9391313370962475
0.9465411369455091
0.9440177913207679
0.9504785784191417
0.9481852968219486
0.9411295223022407
0.9442436494459773
0.9355140817895812
0.9411186683732431
0.9552679770014677
0.9503430976457515
0.9697930206568075
0.9583471898730068
0.8696197657094894
0.772283634925882
0.7775638392403674
0.8685019580418104
0.8163069011376768
0.8089578760777777
0.8116680701691368
0.7688275779975444
0.9416770928269775
0.9411120218606928
0.9357164479182362
0.9437065522574988
0.9489762280108838
0.9960424896064342
0.9951355420751978
0.9504511727166952
0.9504570574401043
0.9499411209789208
0.905973477569947
0.737954441979125
0.9504000962444751
0.9466136228885378
0.9366439100277506
0.9447365778430606
0.9318348309982988
0.9551265288817685
0.9488244977073824
0.8816491525211125
0.9685666811297824
0.9773563622201107
0.9781574669070326
0.9550505550575215
0.9184945929235713
0.9279426818666887
0.9419917927554865
0.9518811697331203
0.9969627917455883
0.9983939392221284
0.9556873020628871
0.9757920660457335
0.9812306878103506
0.9824425311116508
0.9844813294260449
0.95422268705959
0.9531977613108438
0.9506401279218979
0.9510574278523465
0.9723984070983841
0.9719214562052004
0.9848171377039636
0.92333429831317
0.9345293737605005
0.8534876674714
0.8733634024072174
0.8893185708110893
0.9016225060132078
0.9126260489700984
0.8873899520378328
0.9054675703725479
0.9236137941803553
0.9199985135659856
0.9582960186306977
0.9152582428714375
0.9236116141460895
0.9383815302318133
0.9757640198069981
0.976366759841863
0.8529103030471119
0.8686631603227388
0.9740239271280757
0.9952359935915734
0.9945645485015647
0.994091863814496
0.9934186064098294
0.9931796962076981
0.9922068818080647
0.9454482535703632
0.9492129047732009
0.948227454824591
0.9530617297100202
0.9520136444724702
0.9561681405317237
0.9556790985467569
0.9567944882344122
0.9596176113896001
0.9519982683631347
0.9602208241576216
0.9565105387550028
0.9598714157154907
0.9612622998781235
0.9580476348149786
0.9504302718566918
0.952973104817002
0.943678674943558
0.9485646104074993
0.9771023977150672
0.9120719491932912
0.9410843214915042
0.9313627380579097
0.9313109796578289
0.9828125738866503
0.975518031101513
0.9749282306282627
0.9737211502429087
0.9753942902665131
0.972052093934854
0.9709473450244891
0.971025157093855
0.9706316345669553
0.9703882357155463
0.9333616476107723
0.9785804302920738
0.9491701317854538
0.9524802181714604
0.9556844371682999
0.9594097960023501
0.9636720275350426
0.9710603589587163
0.9356734926106026
0.9351451840765864
0.9368988389091127
0.9374994132704829
0.9382106796667786
0.9110207606571915
0.9546751690083691
0.9317011209535734
0.9350803242717808
0.8443784462659661
0.9286267196860603
0.992791720624166
0.9769054009593127
0.9061329988805685
0.9593852474215251
0.9623789445231735
0.9947078845862443
0.9242033820929929
0.9249281092833902
0.9251756017209809
0.9249501245367417
0.9265084543302385
0.9256674261749543
0.9265282514561767
0.9261842431094818
0.9501725885397749
0.9243096943912987
0.925914741601827
0.9262515458993845
0.9251784076121696
0.9852266666677969
0.9978290288039924
0.9456840438972508
0.9134468828999228
0.9313883384463546
0.9460923318269164
0.8960629274109225
0.8861292535463329
0.8912678552414974
0.8872640246699753
0.8789485529903964
0.8762430898702744
0.879186257777329
0.9010105990675272
0.9282445932354367
0.8963079277931995
0.9950638000472561
0.926331176770949
0.968179410521534
0.9346623782813679
0.9740309464437086
0.9623481405239677
0.9626559444179125
0.9532725417965318
0.9680025460450792
0.9684509457225821
0.9598979279366621
0.9571125236797712
0.9423249373098339
0.9338721006236467
0.9882980731879543
0.9880356859375746
0.9980353557814978
0.9219431790336926
0.9727963878299433
0.9712640529050635
0.9848886177471272
0.9843222531430618
0.9293057008113284
0.9573360255020782
0.974323948016221
0.9397327953473077
0.9394145565054601
0.9359721395516208
0.9274123448471255
0.9699852677944959
0.9693452371193698
0.9217484104084918
0.9306206702752396
0.9700353156702355
0.9789057354764462
0.9195855375488317
0.9493184993771954
0.9524223223889613
0.9541563409242473
0.94853471945422
0.9727357724005052
0.9353158255509573
0.8907175086112888
0.9771326918026816
0.9435678569901818
0.9861764918645847
0.9539149219830647
0.9509239111557846
0.9521735989581064
0.9501318202672993
0.947913123598858
0.9432708535945076
0.9380622234602318
0.9407198485462899
0.9387956680903777
0.9392698629177101
0.9217783680120897
0.9860742426702963
0.983677219094354
0.9849666764133106
0.9828803150620359
0.9820249412576946
0.981476121094201
0.9810990784149314
0.9744227596068077
0.9343268455465278
0.9324363512965921
0.9357572236949661
0.9776506835804554
0.9788941009965163
0.9715192482197005
0.9517394404810962
0.9586357532612089
0.960274568064145
0.9592139399809579
0.9612634356323628
0.9497142265202655
0.9388669793585906
0.9402580887689874
0.9256533404162919
0.9257479044198665
0.9454175262652148
0.9503690224791722
0.9504784046665977
0.9477439103715104
0.9495762871190854
0.8717634675351253
0.8333234432893275
0.9914210745996515
0.9915679886819817
0.9910724626311318
0.9927205829827155
0.9536659258211172
0.9776451823130388
0.8914705860514045
0.889040246238165
0.9118130648723304
0.9206809606024074
0.9258665401907306
0.947690494730897
0.9460731738399304
0.8936764207514072
0.948015420209627
0.9720688199455687
0.9959019222295048
0.9565095551310965
0.9602940245364578
0.9334522536322223
0.9943486919159181
0.9705841811560718
0.9710410883806412
0.964208782114922
0.9469761228325672
0.945544515461349
0.9440741496136675
0.9449841088806074
0.9216740009499442
0.9205177419756122
0.920518680409821
0.9936852989764591
0.9869592947439202
0.9854978839040005
0.9869457907835626
0.9851231526474044
0.9870715763006062
0.9878600470897769
0.9897175978586445
0.937832405495222
0.8976523412120424
0.9947993559438951
0.9889900477468118
0.9716183811631287
0.9843320288968328
0.9872652508307911
0.9880671127782814
0.9767438445173594
0.9756476946565384
0.9592322207226945
0.9412240417486367
0.9649018767596158
0.995734118892768
0.9512742955843881
0.9525490479038146
0.9544714837705763
0.9506226333174157
0.9528140791203547
0.9545163116679787
0.9528992240360024
0.9508528597691567
0.9825662746145768
0.9520092189630753
0.9623895869751786
0.9855668408540675
0.9807068030383822
0.9322872346650997
0.9161830599210986
0.9402365942595549
0.9470694280453699
0.935168374336847
0.9354137627869392
0.9392957006536851
0.9833416532814806
0.9832008852355368
0.9857712324789801
0.9809957172835323
0.9970725343844061
0.9321791068314077
0.9838672942540154
0.957245834318479
0.9800221309429905
0.9545423545144216
0.9298476421785409
0.9708474149230787
0.9392958524593885
0.9634533595299235
0.965464225092726
0.9571115262485643
0.9643270429086087
0.9777804640327087
0.9764211008684573
0.9781946373196461
0.962941814459527
0.9708135893374811
0.9514645752288626
0.9694564890221029
0.9700231026813546
0.9385180289755317
0.954596409086478
0.9912676895689304
0.9763055835189789
0.9744072238231464
0.9745336174822467
0.9756223153751148
0.9748560388443563
0.9763168522857738
0.9764532067265028
0.9809786842361996
0.964778112020082
0.9635154253743768
0.9750017886778667
0.95621574600807
0.987468004452318
0.969182599118313
0.9739886523897451
0.9938428416477052
0.9665349348662022
0.9335726849812233
0.9728885185894536
0.940558479822421
0.8090223371847026
0.9924524338021574
0.960898270280115
0.9412146550685322
0.9478716638179799
0.9329290505564773
0.9392295768123917
0.9278435779017085
0.9645829698799281
0.9784265576734007
0.9682433151343295
0.9490625869779106
0.9624608900414406
0.9634986624300822
0.9594000493945483
0.9656387875102468
0.9831420096278732
0.9444743149464516
0.9740617999862773
0.9735133972530408
0.9732445784607265
0.9816654582823751
0.96454416850694
0.9327697225974584
0.9598417662796138
0.9398953625951884
0.9696903268902846
0.9462065771765932
0.9732585468721516
0.9606460071101504
0.9779617810769226
0.970970098460086
0.9747743087227904
0.9850552465907578
0.9444175160574808
0.8814018691833311
0.9551130030341651
0.9715356338991737
0.9409115305250304
0.950236865685334
0.9773293307148341
0.9484960485225076
0.9703928632570045
0.9707161039115346
0.928298611005524
0.9887914764988196
0.9406204772460453
0.9518330294247371
0.972599715638413
0.9717767161215711
0.9834612290867295
0.9811076775707708
0.975860153145861
0.9686430727721297
0.9926211836333573
0.9951205597455324
0.9873968689766418
0.9868530908229333
0.9954762443841123
0.9926883468828335
0.9517918134385375
0.9603663132955288
0.992850304907892
0.9554314849688361
0.957650646151665
0.9412514919103634
0.9870096299511063
0.9874566460132405
0.9562136148995242
0.9784880813449358
0.9783781349958387
0.9505765263840947
0.9392553625878043
0.965225040293698
0.9353482225414937
0.864894707653466
0.9693776954259129
0.9751329932837512
0.9322541033318766
0.9325604502332456
0.9702319770143666
0.9593568081410621
0.9733247301547113
0.9571099301393055
0.9805989483501275
0.9107402826088846
0.863007076620691
0.9208290124893953
0.9682002447817643
0.971704158009275
0.929086154021976
0.8085642271318445
0.9903105407023729
0.9875262422105843
0.9569376442385272
0.9830407530081497
0.9667352168458684
0.9844187110673251
0.9851544715631446
0.9846574832193292
0.9535691321245701
0.9515590915464864
0.9893531907464124
0.9972587917705917
0.9846974978426616
0.9668880390646547
0.987374355442202
0.9660818233576016
0.9602931351029742
0.928260310671756
0.93249699385537
0.9650168184743042
0.9600222731802274
0.980327081647928
0.937411822956734
0.9412317836339466
0.9902980230536614
0.9770957680849165
0.9760213035012617
0.9841619606395804
0.9744669977221587
0.9794183544323652
0.9956153701426089
0.9614150583259232
0.8688396794473059
0.9697515959832329
0.9882998233465542
0.9871116378135236
0.9516861253833946
0.9550130959710761
0.9422397503334767
0.9168181521798608
0.9837096774423227
0.9455660201569399
0.9412479945846622
0.9710263631860485
0.9429915112968661
0.9484828149142176
0.9276174256922162
0.9832730085006219
0.9683981068687403
0.9837741377484271
0.9538680843251282
0.9976053221932366
0.998991242739156
0.9539727815289566
0.9863098191522726
0.9863726323659894
0.9677627554558603
0.9452322738232217
0.971613012464674
0.970071530820324
0.9727303071530052
0.9767529150958001
0.9886384913877326
0.9262546914901325
0.9300638075835472
0.9330194315127618
0.9421453814382275
0.9353801707579893
0.9519929537926431
0.9525406650526397
0.9958192600023947
0.936273188287968
0.9439570422273202
0.9590011717469742
0.9778042901953624
0.9715352669414349
0.9650752724186432
0.9617004637078235
0.9892390747408755
0.9886258617431234
0.933312942386138
0.937012587767288
0.9869021236857622
0.9828602961819102
0.9911007612485634
0.9372369502334023
0.9953220425002477
0.9419581679226848
0.9903828506301481
0.9585964090147036
0.9966459615128702
0.9537772497393033
0.9436553988750961
0.9403014406601401
0.9624062127936589
0.9725037088273081
0.9605748050636811
0.9817204880663509
0.969367477639501
0.9738694984613313
0.9830757827689688
0.993255701335416
0.9131055859410375
0.9631679092093596
0.9458699483276874
0.9892040138964704
0.9580790250690016
0.9539914149089359
0.9243484443383301
0.942942921016728
0.6012319709634536
0.9694346213862227
0.9424501616814357
0.9429343274985011
0.9322873531326065
0.985005918311743
0.9919399954959498
0.9418732670681396
0.9388058428936824
0.9920587388204429
0.9148565732413798
0.9701924606076734
0.9257000275265531
0.9487080389047764
0.9715406947527268
0.9764715593495166
0.9750726931342566
0.9321769551383031
0.9332817862353541
0.9374269052824691
0.9387700395905595
0.9657067273677382
0.984650445323811
0.9403114470923564
0.9365496704747431
0.898734685962657
0.9771817769927302
0.971862935347429
0.9290550931108068
0.9672664610975262
0.9589113496399612
0.9661332033496173
0.9565561820241892
0.9722226039519175
0.9532579923064483
0.9698656056726633
0.9627549448279888
0.9620410411415367
0.9693585459280559
0.874226039540059
0.9388169746265417
0.9545964359672481
0.9719643354508138
0.939372235001902
0.9881334060864935
0.9689504149773291
0.9537146135303792
0.9605713861324807
0.9595521486002713
0.9088527947083171
0.9776269039602143
0.9707586569715276
0.9719795559692485
0.9269159457863978
0.938077011539347
0.8687269412664723
0.9567449545262632
0.9869702684595392
0.9366439368467424
0.9723917248400383
0.9460277545167364
0.9847965384680029
0.9076033499931311
0.9436374605926411
0.9293515814818152
0.9621872611282433
0.9520046296170513
0.9815743311556117
0.9779179785419999
0.9565628753379379
0.9464185383430377
0.9521885747671723
0.9342987330037243
0.983742192494125
0.9783857888615076
0.9614038635916559
0.9578884393910589
0.9839719068299967
0.9689387616019717
0.9391484388021696
0.9936606534261435
0.9397991047350844
0.9696554891259278
0.9394529551441759
0.9671977090747286
0.9680097863310466
0.9732832486162415
0.9632718408764122
0.8829067436081313
0.9151892237279534
0.999412480636331
0.9991700799704203
0.9437203614459705
0.9702352087085887
0.9479087745436505
0.9657146829321994
0.9356189459482956
0.9448459207355283
0.9730719823098469
0.972880336687699
0.9494253828162256
0.9396358023837571
0.9364344308025452
0.9908060810615477
0.9857969628839405
0.938125609863661
0.9549174970264376
0.9647513905468725
0.9299294214915715
0.9328540407167271
0.9266899404064589
0.8247552659538283
0.9291772919591761
0.9637176439645978
0.9496542064207051
0.9886756776628318
0.9388747067158687
0.9945795746066803
0.9341695661109405
0.9459799786983597
0.9645656679313885
0.9398175017719296
0.9284644467167927
0.9343473804846492
0.9520046797672335
0.9753453501840704
0.9499097361488341
0.9880230024284674
0.9352202162226646
0.9573505110005326
0.9592154093783348
0.9768592840545504
0.7875810447715115
0.9306443203541788
0.9455306573046837
0.937586079681946
0.9453177288191736
0.9857245466854961
0.9566676121201451
0.969417652008801
0.9635018300303617
0.9763529351324097
0.9256305972030715
0.9472516274507277
0.9284365737023277
0.9211664769901712
0.9847797656288101
0.9735201872506234
0.9314068499039801
0.9423698184534646
0.9266042869815149
0.9358906020770746
0.9496994823211052
0.9624523789741056
0.9248303445231442
0.9639237475427975
0.9660903502670108
0.9888404141992481
0.9894556350858523
0.8796199168830666
0.9691580836392318
0.9634890436438298
0.9133825309079288
0.9895328470132075
0.9601423821611429
0.9707645656923384
0.9741207174926326
0.7685833691891927
0.9703391984402894
0.9955644348703108
0.9410424324923338
0.9950354539404994
0.9223751474697541
0.9893327659143857
0.9621845198363004
0.9614556171519474
0.9410239190729983
0.8609425130359166
0.8909035439800183
0.9720444044882665
0.962930595327583
0.9401104030534344
0.9500972206647919
0.9518216207338422
0.9362902187485642
0.9897410951187129
0.9791974137149191
0.9492241777142983
0.9923688585541335
0.9738130398765765
0.9411407863362204
0.9770636758172463
0.9800187484231624
0.9609290608455635
0.9438014387141463
0.943539823197225
0.9354878262565484
0.9921167213046067
0.9782063313237007
0.9460512804380026
0.9310017953242886
0.9418556510598893
0.9679220520956531
0.9616877017192598
0.9210916995610631
0.9324873097502084
0.9757907797239647
0.986332290081422
0.9860751453826418
0.956713898493598
0.9914384501583327
0.957829711112342
0.9610784796672938
0.9435792196957047
0.9030350319496572
0.9164089968393384
0.9248006974878544
0.9587717265739665
0.9533360070798726
0.9193712476219614
0.8335018118745016
0.9414468718589046
0.91100450670179
0.9708532773732922
0.9395282878371307
0.9458989603011315
0.981342439835407
0.9357261030288122
0.9330348973999977
0.969731008200859
0.9262435485775744
0.9266846524343262
0.8669397802982467
0.9652254153540354
0.9897409023766796
0.904123777168239
0.9592367700558615
0.976209147761335
0.976586254266693
0.9939061395697102
0.9855746376184306
0.9863747615529734
0.9854379676336201
0.9585356828409561
0.8829936231407217
0.9579286736329781
0.9600167185867994
0.9606986435603112
0.9995240911612417
0.9350397715872767
0.9331861384326919
0.951581411551749
0.9340908639720724
0.9600130136584619
0.9983346191221683
0.9993960417194413
0.9514644624966555
0.940940645825579
0.9646218000855142
0.9845032136300138
0.9955005150329695
0.9429532601826719
0.9527790593916982
0.9332628245551468
0.9537975784513828
0.9616816431168264
0.9477867177801096
0.9410902971361205
0.9551925333542401
0.9388051766295963
0.9476676706361101
0.9733229680729999
0.9703232998752741
0.9402135828795588
0.9248130825120633
0.9879827244453998
0.9739724178935444
0.9589901032391677
0.9465225303259792
0.9398508463105858
0.8939186141978364
0.9386331138247374
0.9681278037872829
0.9031487160060753
0.9698613787244413
0.9693209075747321
0.9844105423034092
0.93109303546767
0.9722597844039025
0.9713529095172466
0.9737351427864002
0.9293361390715679
0.9719153579255655
0.9500802337636959
0.9859023627538412
0.9489877092683985
0.9695955171159902
0.999044971191252
0.952561730508373
0.9692053730755381
0.9752016221843086
0.9333470173376052
0.991585571934511
0.9711118568319049
0.9580030465597602
0.8851074269653301
0.9954116785139171
0.9743403956239044
0.8531864205002189
0.9611854375009844
0.9894371461911639
0.955622671013328
0.9844757902270422
0.9413410758291179
0.9884032808934761
0.9411148671296011
0.949278671677157
0.8867898528589864
0.9843669308928432
0.9832615207330864
0.9695743444808195
0.9848664358504493
0.9723310482979551
0.9560662315238493
0.9929438303422251
0.9894495439206311
0.9401879314078311
0.9371504270098703
0.9856885024682338
0.980676886578616
0.992428960823505
0.8743470721242219
0.9496736925926492
0.88479736199435
0.9360703044537154
0.9760119896845683
0.9276198565361924
0.9344574498528251
0.9714395430729664
0.979241216949681
0.926452033948425
0.9251190950859547
0.9860074719357764
0.938319347605517
0.9423000942288294
0.925715716811791
0.9603836997964268
0.9849829072206453
0.9245400200703944
0.9681091785551567
0.8832849666006327
0.9899602132867623
0.9580207556242324
0.9505741695288878
0.9483769507836881
0.9962807819070223
0.9659000718045551
0.9384332628817335
0.9540364065383625
0.9779190433949744
0.956198780557179
0.9393731113023475
0.9660808097048919
0.9452985484185427
0.9362923005566475
0.9878727118167899
0.9912065803335462
0.9885240289835028
0.960833656962667
0.9632023626570133
0.9562671920312936
0.9899731705389784
0.9911695924407381
0.9587251196478979
0.9266807599882809
0.966337289491768
0.9298278515116757
0.9530385412088263
0.9505086427527708
0.9790531622985185
0.9652189195215695
0.9378603177079972
0.9677803437891956
0.9861125675699178
0.9558375671631609
0.970603271007523
0.9531187764336776
0.9834362158256027
0.9451712594857927
0.9286504027820638
0.9444103054596902
0.8281766866180792
0.9422028867016732
0.9520795323867611
0.8852769009137744
0.6714452175568725
0.914119270534795
0.9377292902511314
0.9097502471417173
0.9780609459454599
0.9551112453779126
0.999088691606145
0.9335012527015448
0.9397332253407292
0.9209576984117982
0.9903095850876601
0.9402750303833219
0.9486937325714795
0.9552026963030806
0.9681654521636296
0.8912044411265092
0.9834438741019571
0.9512753969712024
0.9572173501978157
0.9527347820052081
0.9733677540569315
0.9958568089347526
0.9324730010380333
0.9359363620662416
0.9398985826097953
0.9292247243771271
0.9942622931711644
0.977721836377529
0.9939008015750934
0.9801872138922919
0.9578898136116315
0.9540548372448884
0.919352548609215
0.9576423468638166
0.9308139925824506
0.9330696173078883
0.9485037824248359
0.9429608720523763
0.9841048309126833
0.9340829550734033
0.9399712610007381
0.935666780503703
0.9385722598041311
0.9754826313800038
0.9506146524033215
0.9323372252132519
0.9453636724375474
0.9992069165358414
0.9786219497766835
0.9537270518284746
0.9059572775250653
0.962049447733609
0.9886001566193566
0.9423647386519268
0.9529979692536525
0.9886006476535748
0.9538254287638118
0.9700186467786007
0.9155700482664952
0.9747112062613349
0.9925090536838874
0.9549927589982455
0.9993968416192869
0.9312886155271812
0.9937883680332575
0.8747096957757269
0.9252308495616747
0.8887213420362104
0.9722514547801396
0.9728425632209637
0.8706624905643375
0.9761263936377256
0.9931619233246363
0.9995019806018272
0.941621551398724
0.97999018056693
0.9686143468888027
0.9979584012696152
0.9570289782191634
0.6988516181380299
0.9531101629472553
0.9446609420588286
0.9944135618479982
0.982410998328668
0.9321869126391511
0.9730305061974038
0.9992196892834296
0.9231086976954719
0.9692988344310152
0.9220151045497224
0.9035773134542
0.9945480326852175
0.9273358915642166
0.9847756489246702
CELL_DATA 4886
TENSORS stress float
-6.638458236229861e6 2.358316189047815e6 0.0
2.358316189047815e6 7.234420862683171e6 0.0
0.0 0.0 0.0

-5.833771507959477e6 232045.5102057468 0.0
232045.5102057468 2.6381386872822815e6 0.0
0.0 0.0 0.0

-7.087190691811934e6 6.607900910255638e6 0.0
6.607900910255638e6 3.853405905536152e6 0.0
0.0 0.0 0.0

-3.358658316850543e6 8.413729311963035e6 0.0
8.413729311963035e6 2.1186393585627107e6 0.0
0.0 0.0 0.0

-5.125697988325682e6 8.745211555587858e6 0.0
8.745211555587858e6 1.973859587716541e6 0.0
0.0 0.0 0.0

582225.6071971313 397386.54203543 0.0
397386.54203543 -1.8984160746865957e6 0.0
0.0 0.0 0.0

7.408419580617659e6 9.737529957021423e6 0.0
9.737529957021423e6 1.219155783256125e6 0.0
0.0 0.0 0.0

1.7077466860828022e6 6.377053456282955e6 0.0
6.377053456282955e6 -7.202172405840055e6 0.0
0.0 0.0 0.0

-5.888764127809143e6 3.026255579143309e6 0.0
3.026255579143309e6 7.889992315804416e6 0.0
0.0 0.0 0.0

-1.356435724574829e6 9.40346059374601e6 0.0
9.40346059374601e6 1.9531649137989304e6 0.0
0.0 0.0 0.0

-3.3175745996842803e6 7.904422101538768e6 0.0
7.904422101538768e6 -106735.58269938431 0.0
0.0 0.0 0.0

-7.662130506594291e6 1.0443040041552275e7 0.0
1.0443040041552275e7 4.1082423632991645e6 0.0
0.0 0.0 0.0

1.2356510682083527e6 7.430549027274207e6 0.0
7.430549027274207e6 -6.676376369894238e6 0.0
0.0 0.0 0.0

1.2928878737323169e7 1.1361219543405987e7 0.0
1.1361219543405987e7 606295.5356976935 0.0
0.0 0.0 0.0

-3.649195437449787e6 8.17301672424139e6 0.0
8.17301672424139e6 -233150.10272952484 0.0
0.0 0.0 0.0

5.255602945098009e6 2.633163580840362e6 0.0
2.633163580840362e6 -7.239624337051211e6 0.0
0.0 0.0 0.0

-282509.45564891724 8.352490542550788e6 0.0
8.352490542550788e6 -4.873817941154221e6 0.0
0.0 0.0 0.0

-17929.788410378154 8.108752592637567e6 0.0
8.108752592637567e6 -5.157979234225745e6 0.0
0.0 0.0 0.0

-639396.2539625942 2.710338516711109e6 0.0
2.710338516711109e6 141303.79979144232 0.0
0.0 0.0 0.0

-4.458298992353691e6 9.629045568691062e6 0.0
9.629045568691062e6 185173.7458539682 0.0
0.0 0.0 0.0

-468662.2348574137 6.988063577089045e6 0.0
6.988063577089045e6 -3.371413024112922e6 0.0
0.0 0.0 0.0

-7.315570445523291e6 1.0503893263327269e7 0.0
1.0503893263327269e7 3.5489124901441475e6 0.0
0.0 0.0 0.0

-329681.16011461575 4.494807224949063e6 0.0
4.494807224949063e6 -909537.9826907641 0.0
0.0 0.0 0.0

-3.9169501802969305e6 9.209202187080318e6 0.0
9.209202187080318e6 281644.3369826984 0.0
0.0 0.0 0.0

606605.6621703221 7.816219307793879e6 0.0
7.816219307793879e6 -6.196314336631962e6 0.0
0.0 0.0 0.0

-3.4219935278082998e6 1.8277984046359926e7 0.0
1.8277984046359926e7 -2.572370094716033e6 0.0
0.0 0.0 0.0

3.1734430285716457e6 9.483359518910103e6 0.0
9.483359518910103e6 2.6642771011786307e6 0.0
0.0 0.0 0.0

-4.6134396769376425e6 4.1444465018852404e6 0.0
4.1444465018852404e6 3.9871022714849077e6 0.0
0.0 0.0 0.0

5.568187621816287e6 2.871550332975348e6 0.0
2.871550332975348e6 -6.315295113785766e6 0.0
0.0 0.0 0.0

81795.48474209849 2.3723804987834734e6 0.0
2.3723804987834734e6 -1.0027927476946741e6 0.0
0.0 0.0 0.0

-715790.4311669611 4.701333886630667e6 0.0
4.701333886630667e6 -1.1986682373615552e6 0.0
0.0 0.0 0.0

115154.92230921646 3.468441868631088e6 0.0
3.468441868631088e6 -2.2675104841117444e6 0.0
0.0 0.0 0.0

-789349.1917610473 7.741807934325364e6 0.0
7.741807934325364e6 352705.07422628015 0.0
0.0 0.0 0.0

-721537.0257164204 9.924724117394082e6 0.0
9.924724117394082e6 -428950.3868649975 0.0
0.0 0.0 0.0

-3.9099872974046078e6 8.674751171469541e6 0.0
8.674751171469541e6 1.3969126931290408e6 0.0
0.0 0.0 0.0

-523488.96130838763 4.6709027494484e6 0.0
4.6709027494484e6 -1.5343393745333103e6 0.0
0.0 0.0 0.0

-1.1846526279933034e6 5.115217512208813e6 0.0
5.115217512208813e6 -1.5565077766880097e6 0.0
0.0 0.0 0.0

-3.954844782926895e6 8.749379538605407e6 0.0
8.749379538605407e6 1.244121031109785e6 0.0
0.0 0.0 0.0

201629.6529032772 8.278515070641288e6 0.0
8.278515070641288e6 -6.005088086443142e6 0.0
0.0 0.0 0.0

-5.67041377753677e6 9.495271467169112e6 0.0
9.495271467169112e6 2.7929105269906605e6 0.0
0.0 0.0 0.0

1.1339418855467504e6 7.456674141937804e6 0.0
7.456674141937804e6 -7.056579853823066e6 0.0
0.0 0.0 0.0

-7.112749117145622e6 6.624275608225557e6 0.0
6.624275608225557e6 4.617177364995532e6 0.0
0.0 0.0 0.0

-5.456314075657643e6 9.312759397692133e6 0.0
9.312759397692133e6 2.5886263344499185e6 0.0
0.0 0.0 0.0

-779148.5783509777 3.5887944501056094e6 0.0
3.5887944501056094e6 -189754.14765256367 0.0
0.0 0.0 0.0

-609712.6382067174 7.038854929603382e6 0.0
7.038854929603382e6 -3.8066099970057462e6 0.0
0.0 0.0 0.0

-4.251175528498197e6 5.282731414740856e6 0.0
5.282731414740856e6 5.087341333003938e6 0.0
0.0 0.0 0.0

-2.1391750767085985e6 1.0265475467980063e7 0.0
1.0265475467980063e7 -1.8006669703699853e6 0.0
0.0 0.0 0.0

-1.1505234170121555e6 4.94392412285914e6 0.0
4.94392412285914e6 -1.874302704380936e6 0.0
0.0 0.0 0.0

2.0675417934640655e6 6.260816183283371e6 0.0
6.260816183283371e6 -6.927734688174974e6 0.0
0.0 0.0 0.0

53220.90265293888 9.007570382550865e6 0.0
9.007570382550865e6 177403.1109836479 0.0
0.0 0.0 0.0

-5.425104001448764e6 9.09933948821074e6 0.0
9.09933948821074e6 2.4968443686469295e6 0.0
0.0 0.0 0.0

-2.841041040387718e6 -410116.90659496107 0.0
-410116.90659496107 2.680746853332897e6 0.0
0.0 0.0 0.0

2.0437979945560535e6 6.295697125303509e6 0.0
6.295697125303509e6 -7.423186897269335e6 0.0
0.0 0.0 0.0

-4.608617207192039e6 8.719783288102496e6 0.0
8.719783288102496e6 1.9906094899048521e6 0.0
0.0 0.0 0.0

-603827.7992605884 9.339715114257509e6 0.0
9.339715114257509e6 960611.8077481826 0.0
0.0 0.0 0.0

-3.4524495204950757e6 8.952894300276699e6 0.0
8.952894300276699e6 1.218274223191103e6 0.0
0.0 0.0 0.0

1.6866062966184532e6 6.346037646352437e6 0.0
6.346037646352437e6 -7.299009277833876e6 0.0
0.0 0.0 0.0

-5.822200000910426e6 9.4995107422167e6 0.0
9.4995107422167e6 3.0434731325145797e6 0.0
0.0 0.0 0.0

-3.963359202261831e6 1.0966883950471787e7 0.0
1.0966883950471787e7 5.201387787684005e6 0.0
0.0 0.0 0.0

25444.011872214265 6.975395727045026e6 0.0
6.975395727045026e6 -4.420776162968165e6 0.0
0.0 0.0 0.0

-162109.07304082834 7.872128876534904e6 0.0
7.872128876534904e6 -4.385607879701859e6 0.0
0.0 0.0 0.0

5.8128714873457365e6 9.935490992873807e6 0.0
9.935490992873807e6 -8.58889721223353e6 0.0
0.0 0.0 0.0

-1.362421816834997e6 8.59057234765137e6 0.0
8.59057234765137e6 478207.3365580557 0.0
0.0 0.0 0.0

-491765.0721436967 3.1706888436774e6 0.0
3.1706888436774e6 -891157.1554402681 0.0
0.0 0.0 0.0

-921708.0058459274 2.690610431356942e6 0.0
2.690610431356942e6 -800415.2751372519 0.0
0.0 0.0 0.0

1.484080086645829e6 6.123324951172271e6 0.0
6.123324951172271e6 -6.753751592726338e6 0.0
0.0 0.0 0.0

1.3811174138701656e6 7.2054911914744545e6 0.0
7.2054911914744545e6 -6.775575798866992e6 0.0
0.0 0.0 0.0

-4.625687875075973e6 8.553182108034968e6 0.0
8.553182108034968e6 1.661889519303034e6 0.0
0.0 0.0 0.0

-3.806475302652554e6 9.694695915660763e6 0.0
9.694695915660763e6 4.283199799156031e6 0.0
0.0 0.0 0.0

1.3566548586816918e6 9.695441572450265e6 0.0
9.695441572450265e6 3.609961921971771e6 0.0
0.0 0.0 0.0

-1.0362869554596865e6 3.583210920710296e6 0.0
3.583210920710296e6 -197111.02028487955 0.0
0.0 0.0 0.0

674845.47535341 7.792627174699799e6 0.0
7.792627174699799e6 -5.98165689103124e6 0.0
0.0 0.0 0.0

61370.20492426446 8.207696395819441e6 0.0
8.207696395819441e6 -5.919106957443505e6 0.0
0.0 0.0 0.0

-5.157741325815512e6 1.2294238043262752e7 0.0
1.2294238043262752e7 8.247076771798603e6 0.0
0.0 0.0 0.0

-3.571584135821049e6 7.838691788327206e6 0.0
7.838691788327206e6 2.4250679793269415e6 0.0
0.0 0.0 0.0

-4.4333102222218625e6 4.716735304816996e6 0.0
4.716735304816996e6 3.680999126505332e6 0.0
0.0 0.0 0.0

-6.960614847232278e6 3.2320493673394825e6 0.0
3.2320493673394825e6 7.47926700567089e6 0.0
0.0 0.0 0.0

-190041.3074299479 8.373820465341066e6 0.0
8.373820465341066e6 -4.866562720928413e6 0.0
0.0 0.0 0.0

-187091.28082346753 9.22609012840113e6 0.0
9.22609012840113e6 -3.979987615434302e6 0.0
0.0 0.0 0.0

-1.386351378029021e6 7.8280758929513665e6 0.0
7.8280758929513665e6 -3.004312393583597e6 0.0
0.0 0.0 0.0

398114.54174936214 1.3572025339150038e7 0.0
1.3572025339150038e7 -4.462214881028292e6 0.0
0.0 0.0 0.0

-206681.04144872192 1.2638524220621018e6 0.0
1.2638524220621018e6 121816.88936171246 0.0
0.0 0.0 0.0

672477.6558662718 8.722900804714385e6 0.0
8.722900804714385e6 -3.0181687167945383e6 0.0
0.0 0.0 0.0

-8.476432485985037e6 1.1354001550117183e7 0.0
1.1354001550117183e7 3.9940830919171753e6 0.0
0.0 0.0 0.0

-3.3042813167689852e6 8.313310792263996e6 0.0
8.313310792263996e6 1.9893462280615626e6 0.0
0.0 0.0 0.0

-94851.02374021825 5.559752294449457e6 0.0
5.559752294449457e6 -3.6190250970147974e6 0.0
0.0 0.0 0.0

-340781.3020103745 2.7362660640466404e6 0.0
2.7362660640466404e6 -3.185122206803962e6 0.0
0.0 0.0 0.0

-256637.31910424045 7.332711589831627e6 0.0
7.332711589831627e6 210941.88075933914 0.0
0.0 0.0 0.0

-8.480359306051183e6 2.0443469548331086e7 0.0
2.0443469548331086e7 -5.983050628298941e6 0.0
0.0 0.0 0.0

-1.017530315542018e7 1.1202300491408152e6 0.0
1.1202300491408152e6 1.2195569061558489e7 0.0
0.0 0.0 0.0

161502.05336368224 1.0026540126089752e7 0.0
1.0026540126089752e7 -3.401806712432336e6 0.0
0.0 0.0 0.0

-152043.97171914158 8.956302927201737e6 0.0
8.956302927201737e6 -4.266803464023658e6 0.0
0.0 0.0 0.0

-898962.1480511939 4.525451577964807e6 0.0
4.525451577964807e6 -2.090062555297726e6 0.0
0.0 0.0 0.0

-719029.1230316199 1.925690248020443e6 0.0
1.925690248020443e6 -1.8273861584250433e6 0.0
0.0 0.0 0.0

-222926.3239150541 1.1270548569429355e7 0.0
1.1270548569429355e7 -3.152042072384734e6 0.0
0.0 0.0 0.0

-78287.95225892798 8.205367402524518e6 0.0
8.205367402524518e6 -5.410932477663053e6 0.0
0.0 0.0 0.0

1.6982052540020058e6 6.3943306196356295e6 0.0
6.3943306196356295e6 -6.998788537021966e6 0.0
0.0 0.0 0.0

-3.684159296287413e6 7.824300354287807e6 0.0
7.824300354287807e6 2.0206143487531885e6 0.0
0.0 0.0 0.0

635561.3489601051 7.259103486741106e6 0.0
7.259103486741106e6 -5.808319938813547e6 0.0
0.0 0.0 0.0

1.7158648013653946e6 6.364313362629387e6 0.0
6.364313362629387e6 -7.434548184858661e6 0.0
0.0 0.0 0.0

-2.0101682221027282e6 9.415861896388825e6 0.0
9.415861896388825e6 1.2873803948034705e6 0.0
0.0 0.0 0.0

-2.708774196194914e6 6.379927632308932e6 0.0
6.379927632308932e6 269537.9228809631 0.0
0.0 0.0 0.0

-663062.4037816004 4.1086197439427595e6 0.0
4.1086197439427595e6 -659377.6136109291 0.0
0.0 0.0 0.0

-5.159092987299149e6 9.082330252447117e6 0.0
9.082330252447117e6 2.43724207783858e6 0.0
0.0 0.0 0.0

-791382.7586332108 4.607938708971954e6 0.0
4.607938708971954e6 -1.4194696970670735e6 0.0
0.0 0.0 0.0

-1.5182253880908592e6 6.932625160441802e6 0.0
6.932625160441802e6 -1.0590909743045717e6 0.0
0.0 0.0 0.0

-571861.5439418058 1.2815366671871974e6 0.0
1.2815366671871974e6 270151.9856422114 0.0
0.0 0.0 0.0

-1.2323375757092224e6 7.982340135601736e6 0.0
7.982340135601736e6 -2.766074867715309e6 0.0
0.0 0.0 0.0

-7.089713414451061e6 1.038966158917801e7 0.0
1.038966158917801e7 3.611064299077464e6 0.0
0.0 0.0 0.0

-136913.16710510856 4.829833211698352e6 0.0
4.829833211698352e6 -1.3372623214154695e6 0.0
0.0 0.0 0.0

1.2493557892506965e6 7.291642490528776e6 0.0
7.291642490528776e6 -7.153479304699892e6 0.0
0.0 0.0 0.0

-1.439808948218827e6 5.005755445240919e6 0.0
5.005755445240919e6 -1.337849808560458e6 0.0
0.0 0.0 0.0

7148.608137700008 8.104025995226134e6 0.0
8.104025995226134e6 1.9652971504504425e6 0.0
0.0 0.0 0.0

4.741962317225512e6 1.0368861138702929e7 0.0
1.0368861138702929e7 2.488022483797108e6 0.0
0.0 0.0 0.0

229198.33970906748 6.796581783141713e6 0.0
6.796581783141713e6 -4.011338698159542e6 0.0
0.0 0.0 0.0

-91174.61579651805 8.327442999406978e6 0.0
8.327442999406978e6 -5.9299331353164455e6 0.0
0.0 0.0 0.0

129152.43248241325 6.724147616188223e6 0.0
6.724147616188223e6 -4.15205380764527e6 0.0
0.0 0.0 0.0

223256.5091753858 5.44607100053244e6 0.0
5.44607100053244e6 -3.790198486299465e6 0.0
0.0 0.0 0.0

5.749920340213582e6 8.846603337327551e6 0.0
8.846603337327551e6 1.018373591785185e6 0.0
0.0 0.0 0.0

-1.1533406351900158e7 9.293753946767759e6 0.0
9.293753946767759e6 7.106554454784252e6 0.0
0.0 0.0 0.0

155331.72491133772 8.134929407634339e6 0.0
8.134929407634339e6 -5.691312820069325e6 0.0
0.0 0.0 0.0

-3.6575410967815975e6 9.165876434883177e6 0.0
9.165876434883177e6 -9635.304612672888 0.0
0.0 0.0 0.0

1.4919275707846498e6 5.630218204060121e6 0.0
5.630218204060121e6 -5.542393902543048e6 0.0
0.0 0.0 0.0

-3.9883583832618785e6 8.962606104621915e6 0.0
8.962606104621915e6 1.4416381768644897e6 0.0
0.0 0.0 0.0

-4.817203241688826e6 1.3920066352649568e7 0.0
1.3920066352649568e7 463977.5854938838 0.0
0.0 0.0 0.0

-7.310235139162536e6 2.884786846733475e6 0.0
2.884786846733475e6 8.720483832164653e6 0.0
0.0 0.0 0.0

-1.0386907927096171e7 1.9036361444555026e7 0.0
1.9036361444555026e7 -47301.50145096844 0.0
0.0 0.0 0.0

-741230.716890436 9.959099569467977e6 0.0
9.959099569467977e6 -463265.91044555 0.0
0.0 0.0 0.0

1.864458771397395e6 6.465536100830965e6 0.0
6.465536100830965e6 -7.023648042044843e6 0.0
0.0 0.0 0.0

6.765893389085708e6 8.057103312306842e6 0.0
8.057103312306842e6 -4.1755170251137214e6 0.0
0.0 0.0 0.0

-2.239819904251735e6 9.1654605993211e6 0.0
9.1654605993211e6 1.2856623667418552e6 0.0
0.0 0.0 0.0

1.088073620791898e6 6.6786413489619065e6 0.0
6.6786413489619065e6 -6.379576090650769e6 0.0
0.0 0.0 0.0

-4.1574653900821647e6 9.84242389493607e6 0.0
9.84242389493607e6 543838.6290005476 0.0
0.0 0.0 0.0

-363673.9043030358 1.0126443784995832e7 0.0
1.0126443784995832e7 -3.3362754374729455e6 0.0
0.0 0.0 0.0

-1.3792075655014082e6 7.992947832314748e6 0.0
7.992947832314748e6 -713762.8377843329 0.0
0.0 0.0 0.0

25837.418458936503 9.233028920276135e6 0.0
9.233028920276135e6 -3.9743755455168e6 0.0
0.0 0.0 0.0

1129.7620180648519 7.7478606952104205e6 0.0
7.7478606952104205e6 2.293007495011021e6 0.0
0.0 0.0 0.0

1.4897738229142288e6 7.229714542766324e6 0.0
7.229714542766324e6 -8.251674325243516e6 0.0
0.0 0.0 0.0

-3.2198464591266434e6 8.932312535855291e6 0.0
8.932312535855291e6 1.720369436773848e6 0.0
0.0 0.0 0.0

-401773.1678798837 1.0014444510964925e6 0.0
1.0014444510964925e6 -1.9304678068319596e6 0.0
0.0 0.0 0.0

-3.884282202794442e6 3.9003823146726657e6 0.0
3.9003823146726657e6 4.313248248554339e6 0.0
0.0 0.0 0.0

123963.7062308027 6.511195828708745e6 0.0
6.511195828708745e6 -2.98073421093343e6 0.0
0.0 0.0 0.0

-3.2464549554677205e6 802057.4826012786 0.0
802057.4826012786 3.9483752769653266e6 0.0
0.0 0.0 0.0

-788273.9142172781 8.274748211765427e6 0.0
8.274748211765427e6 -3.372458004199747e6 0.0
0.0 0.0 0.0

-120939.0370102165 -46748.769173474146 0.0
-46748.769173474146 -3.0091930906184977e6 0.0
0.0 0.0 0.0

-414617.0595955377 9.396743750327442e6 0.0
9.396743750327442e6 956983.4322864224 0.0
0.0 0.0 0.0

-5.434109074624166e6 9.570882059979087e6 0.0
9.570882059979087e6 2.798092374492673e6 0.0
0.0 0.0 0.0

-4.3427531824986115e6 264091.6738069872 0.0
264091.6738069872 4.544170342346344e6 0.0
0.0 0.0 0.0

-1.4665254890516333e6 9.685208589176174e6 0.0
9.685208589176174e6 314352.88659735705 0.0
0.0 0.0 0.0

-18925.539873405243 1.166181075089302e7 0.0
1.166181075089302e7 -3.111187623304113e6 0.0
0.0 0.0 0.0

-4.357125633756414e6 8.3168480724023e6 0.0
8.3168480724023e6 1.4181416251356388e6 0.0
0.0 0.0 0.0

-3.6496258094658856e6 9.899469603465367e6 0.0
9.899469603465367e6 1.715943594719684e6 0.0
0.0 0.0 0.0

-4.215400944683857e6 8.494307408768095e6 0.0
8.494307408768095e6 1.726073011661351e6 0.0
0.0 0.0 0.0

-896143.8970027246 7.83927958890197e6 0.0
7.83927958890197e6 -4.903313519747113e6 0.0
0.0 0.0 0.0

2.1332027084354064e6 1.2744271285128906e7 0.0
1.2744271285128906e7 -7.221793251962453e6 0.0
0.0 0.0 0.0

-302854.58223538124 8.893702487123394e6 0.0
8.893702487123394e6 -4.359416437554927e6 0.0
0.0 0.0 0.0

-2.794673500882613e6 8.647884758263864e6 0.0
8.647884758263864e6 3.1852624240434086e6 0.0
0.0 0.0 0.0

-3.4098881367010083e6 8.496804364208926e6 0.0
8.496804364208926e6 3.69229544379076e6 0.0
0.0 0.0 0.0

-161389.5504369901 7.061279618055919e6 0.0
7.061279618055919e6 -4.080413044929731e6 0.0
0.0 0.0 0.0

-1.04026990354567e6 6.802005626390976e6 0.0
6.802005626390976e6 -1.0986987289511394e6 0.0
0.0 0.0 0.0

-7.388701427535714e6 1.0012585684594087e7 0.0
1.0012585684594087e7 4.1278575484704003e6 0.0
0.0 0.0 0.0

-3.460063525439176e6 6.357380960338833e6 0.0
6.357380960338833e6 1.9825325934018549e6 0.0
0.0 0.0 0.0

-8.2749592170448275e6 1.2002314861189343e7 0.0
1.2002314861189343e7 4.278045199094336e6 0.0
0.0 0.0 0.0

-882116.9185218881 8.300377617272568e6 0.0
8.300377617272568e6 -3.7438444128084327e6 0.0
0.0 0.0 0.0

-8.431053305923479e6 9.366501699590426e6 0.0
9.366501699590426e6 921637.7603269024 0.0
0.0 0.0 0.0

1.740845497559547e6 6.621595807997581e6 0.0
6.621595807997581e6 -7.062228497011318e6 0.0
0.0 0.0 0.0

-4.972580311860309e6 1.478261465669621e7 0.0
1.478261465669621e7 820777.6598119626 0.0
0.0 0.0 0.0

-8.885001993724007e6 7.555164246666282e6 0.0
7.555164246666282e6 5.5752939181824215e6 0.0
0.0 0.0 0.0

-1.4819253160023084e6 9.324181313634302e6 0.0
9.324181313634302e6 1.6201953506017653e6 0.0
0.0 0.0 0.0

-1.198745530837497e7 7.947177209758287e6 0.0
7.947177209758287e6 5.410320934021791e6 0.0
0.0 0.0 0.0

1.720202433875415e6 6.569864615618222e6 0.0
6.569864615618222e6 -7.364527055547211e6 0.0
0.0 0.0 0.0

-3.236249481013988e6 6.344677602028948e6 0.0
6.344677602028948e6 2.7696682392270244e6 0.0
0.0 0.0 0.0

-384085.9410003273 5.448231326268949e6 0.0
5.448231326268949e6 -1.7161878816246944e6 0.0
0.0 0.0 0.0

491280.16203472577 5.974651858619252e6 0.0
5.974651858619252e6 -3.6662448731935346e6 0.0
0.0 0.0 0.0

-559435.6328618812 1.0157839469885303e7 0.0
1.0157839469885303e7 -3.3881284580336474e6 0.0
0.0 0.0 0.0

-1.2561050447156662e7 9.23396585705164e6 0.0
9.23396585705164e6 8.124831302485836e6 0.0
0.0 0.0 0.0

-6.231849749138702e6 -187885.81848458655 0.0
-187885.81848458655 5.103205008999167e6 0.0
0.0 0.0 0.0

-1.0574961530435571e7 8.911830376336936e6 0.0
8.911830376336936e6 2.125919441636924e6 0.0
0.0 0.0 0.0

5.449340730622671e6 7.622499826064749e6 0.0
7.622499826064749e6 708194.7478667627 0.0
0.0 0.0 0.0

283710.0111250412 9.25348099792387e6 0.0
9.25348099792387e6 -8.773444701820796e6 0.0
0.0 0.0 0.0

-325593.5931151615 9.50069297594512e6 0.0
9.50069297594512e6 -3.8664100944452677e6 0.0
0.0 0.0 0.0

-2.7807012179972287e6 8.6520553082286e6 0.0
8.6520553082286e6 3.250960687246385e6 0.0
0.0 0.0 0.0

-2.7840489359567063e6 1.0924227010766584e7 0.0
1.0924227010766584e7 -1.1336314182132285e6 0.0
0.0 0.0 0.0

-5.164584934844371e6 8.904559326754e6 0.0
8.904559326754e6 2.264699054186074e6 0.0
0.0 0.0 0.0

-163877.57065840482 9.112273587994996e6 0.0
9.112273587994996e6 -353152.92079216876 0.0
0.0 0.0 0.0

-8.115672587624185e6 1.1478763215441028e7 0.0
1.1478763215441028e7 4.1735865117837903e6 0.0
0.0 0.0 0.0

-564890.347038066 4.64695030124499e6 0.0
4.64695030124499e6 -1.3172538205197116e6 0.0
0.0 0.0 0.0

8.192240573184439e6 1.0570075960866747e7 0.0
1.0570075960866747e7 -5.773951307236515e6 0.0
0.0 0.0 0.0

-5.123617911441373e6 1.0791628282285918e7 0.0
1.0791628282285918e7 423174.8591142043 0.0
0.0 0.0 0.0

-227299.52885434616 8.850836337174611e6 0.0
8.850836337174611e6 -35931.65858074672 0.0
0.0 0.0 0.0

-3.5860982868585153e6 8.824025048344266e6 0.0
8.824025048344266e6 507572.0748225325 0.0
0.0 0.0 0.0

-8.212756518487347e6 5.370194814407862e6 0.0
5.370194814407862e6 9.06259676506424e6 0.0
0.0 0.0 0.0

-4.445011989273098e6 9.374495529202634e6 0.0
9.374495529202634e6 683436.4622602654 0.0
0.0 0.0 0.0

800085.417685244 7.041142888555703e6 0.0
7.041142888555703e6 -5.627704808888951e6 0.0
0.0 0.0 0.0

-3.5982148509395295e6 8.517456377425453e6 0.0
8.517456377425453e6 907426.4006684576 0.0
0.0 0.0 0.0

-2.2484803825947037e6 9.58775178641751e6 0.0
9.58775178641751e6 426141.69013453973 0.0
0.0 0.0 0.0

355029.2326597702 3.7612815170940366e6 0.0
3.7612815170940366e6 -3.97918075814656e6 0.0
0.0 0.0 0.0

-3.3512669103124845e6 8.704860612442892e6 0.0
8.704860612442892e6 1.7955705362377681e6 0.0
0.0 0.0 0.0

-9.430529023874868e6 296061.40862316865 0.0
296061.40862316865 1.3392450506737765e7 0.0
0.0 0.0 0.0

-1.1202184418354682e6 4.872595979349388e6 0.0
4.872595979349388e6 -1.1263153663727525e6 0.0
0.0 0.0 0.0

-5.841350771336308e6 6.045601641559884e6 0.0
6.045601641559884e6 4.212712958592387e6 0.0
0.0 0.0 0.0

4.376649399297731e6 1.0153715581677038e7 0.0
1.0153715581677038e7 1.3475617965363476e6 0.0
0.0 0.0 0.0

-8185.309592225589 8.078635445238667e6 0.0
8.078635445238667e6 -5.008902466654256e6 0.0
0.0 0.0 0.0

1.1894151642110348e6 6.559873691573998e6 0.0
6.559873691573998e6 -5.9945108582949955e6 0.0
0.0 0.0 0.0

2.6213464013166297e6 8.549996716928199e6 0.0
8.549996716928199e6 -3.1798724076225255e6 0.0
0.0 0.0 0.0

-5.165211247411711e6 3.2756545691037467e6 0.0
3.2756545691037467e6 6.919766472959822e6 0.0
0.0 0.0 0.0

-4.726661574545113e6 8.68704900932679e6 0.0
8.68704900932679e6 2.0004645631807563e6 0.0
0.0 0.0 0.0

-3.6781456249204315e6 8.138966441278224e6 0.0
8.138966441278224e6 41056.02236493211 0.0
0.0 0.0 0.0

-3.638463189818834e6 9.045028921792971e6 0.0
9.045028921792971e6 -594101.6986718146 0.0
0.0 0.0 0.0

-471624.2423741767 9.22584147881794e6 0.0
9.22584147881794e6 -451549.0967209093 0.0
0.0 0.0 0.0

-273014.6482219893 4.5333913778138785e6 0.0
4.5333913778138785e6 -2.861684967997103e6 0.0
0.0 0.0 0.0

5.342036656130785e6 8.809874227520216e6 0.0
8.809874227520216e6 -3.5052131279521813e6 0.0
0.0 0.0 0.0

-150729.5729997743 9.208497450462032e6 0.0
9.208497450462032e6 -493465.7651194552 0.0
0.0 0.0 0.0

-6.982246626106742e6 1.0010037167329043e7 0.0
1.0010037167329043e7 3.7865427200173005e6 0.0
0.0 0.0 0.0

-1.4086184917152602e7 621153.2635785061 0.0
621153.2635785061 8.704293022355013e6 0.0
0.0 0.0 0.0

1.4330499082921315e6 6.983750146465713e6 0.0
6.983750146465713e6 -4.670568524272333e6 0.0
0.0 0.0 0.0

-464292.3132345143 9.84017839158907e6 0.0
9.84017839158907e6 -345136.26625152625 0.0
0.0 0.0 0.0

-594341.370319906 7.7513968841108475e6 0.0
7.7513968841108475e6 -4.768838754412838e6 0.0
0.0 0.0 0.0

-692571.3084977701 9.025704039985428e6 0.0
9.025704039985428e6 -4.086123032274837e6 0.0
0.0 0.0 0.0

-744867.492230899 2.5809602776541254e6 0.0
2.5809602776541254e6 -48659.00588353886 0.0
0.0 0.0 0.0

-1.1431541420834446e6 7.633764751515965e6 0.0
7.633764751515965e6 -3.2125701735175913e6 0.0
0.0 0.0 0.0

-430615.88012743695 8.88539850717288e6 0.0
8.88539850717288e6 -5.839060432337591e6 0.0
0.0 0.0 0.0

-931490.5577958899 7.497700962994018e6 0.0
7.497700962994018e6 -3.416181926519221e6 0.0
0.0 0.0 0.0

-776470.9341774909 1.0586388059270844e7 0.0
1.0586388059270844e7 -3.079108303576849e6 0.0
0.0 0.0 0.0

2.3295495557744214e6 9.707562925687626e6 0.0
9.707562925687626e6 3.1069053915724726e6 0.0
0.0 0.0 0.0

-6.697199194351771e6 4.077298000994507e6 0.0
4.077298000994507e6 1.0193142013815468e7 0.0
0.0 0.0 0.0

-3.5091629350247625e6 9.58695055735885e6 0.0
9.58695055735885e6 1.916307205799951e6 0.0
0.0 0.0 0.0

-241716.2624368945 9.300135197848823e6 0.0
9.300135197848823e6 -954552.6235442079 0.0
0.0 0.0 0.0

-3.7544371981376465e6 7.267699729403797e6 0.0
7.267699729403797e6 1.4032799404902272e6 0.0
0.0 0.0 0.0

2.593376064172912e6 9.77658284100335e6 0.0
9.77658284100335e6 2.642497830968086e6 0.0
0.0 0.0 0.0

-3.12242352087733e6 8.751643407392386e6 0.0
8.751643407392386e6 1.7848592930201755e6 0.0
0.0 0.0 0.0

849441.0462484907 9.174553332647303e6 0.0
9.174553332647303e6 -3.4796030364732877e6 0.0
0.0 0.0 0.0

-6.05283311589919e6 9.484005589783618e6 0.0
9.484005589783618e6 2.6883173718625708e6 0.0
0.0 0.0 0.0

-3.4590840505048437e6 8.428842046209162e6 0.0
8.428842046209162e6 1.1774313334181483e6 0.0
0.0 0.0 0.0

-1.1204030706120381e7 -5.872052900509141e6 0.0
-5.872052900509141e6 2.569105120531322e7 0.0
0.0 0.0 0.0

-2.267880641010917e6 1.01372695824471e7 0.0
1.01372695824471e7 -2.292087099613629e6 0.0
0.0 0.0 0.0

-5.562474349364074e6 9.42053875723584e6 0.0
9.42053875723584e6 2.864248625334682e6 0.0
0.0 0.0 0.0

-243542.5053332178 2.023190260002166e6 0.0
2.023190260002166e6 -763856.0192577556 0.0
0.0 0.0 0.0

-3.6618078400337575e6 4.545176615819955e6 0.0
4.545176615819955e6 4.607254763306215e6 0.0
0.0 0.0 0.0

-2.1772128398702345e6 5.94273752585746e6 0.0
5.94273752585746e6 1.5820660423311926e6 0.0
0.0 0.0 0.0

468989.0016354511 5.580242224932541e6 0.0
5.580242224932541e6 -4.64090678824681e6 0.0
0.0 0.0 0.0

-7.811868519754935e6 1.0090054148906637e7 0.0
1.0090054148906637e7 4.439403550821494e6 0.0
0.0 0.0 0.0

-1.0229832101354105e6 7.70079160855644e6 0.0
7.70079160855644e6 -2.8593761986733917e6 0.0
0.0 0.0 0.0

-3.257899524365803e6 6.116231380799857e6 0.0
6.116231380799857e6 2.916982179525869e6 0.0
0.0 0.0 0.0

1.744350889192989e6 7.071497918258694e6 0.0
7.071497918258694e6 -7.545481210337794e6 0.0
0.0 0.0 0.0

-6.604895365303736e6 9.864564686713006e6 0.0
9.864564686713006e6 3.734204178264681e6 0.0
0.0 0.0 0.0

-1.1134183560073837e6 8.058938711790352e6 0.0
8.058938711790352e6 -5.225397186924746e6 0.0
0.0 0.0 0.0

3.438441117134179e6 1.0661712239362923e6 0.0
1.0661712239362923e6 -5.563012023453843e6 0.0
0.0 0.0 0.0

-999793.8036886243 4.509393294531988e6 0.0
4.509393294531988e6 -1.3481901536520324e6 0.0
0.0 0.0 0.0

-1.0571135936576324e7 7.715182805361479e6 0.0
7.715182805361479e6 5.557755114543784e6 0.0
0.0 0.0 0.0

-214059.6692447389 8.923706725244455e6 0.0
8.923706725244455e6 311858.9946071947 0.0
0.0 0.0 0.0

-1.0215596256145664e7 9.714410967646742e6 0.0
9.714410967646742e6 6.308641648520114e6 0.0
0.0 0.0 0.0

-977940.5431273466 3.3462853988582166e6 0.0
3.3462853988582166e6 72082.70144211967 0.0
0.0 0.0 0.0

1.6001242552303686e6 7.95246994020964e6 0.0
7.95246994020964e6 -7.622370725554681e6 0.0
0.0 0.0 0.0

1.2803833890677147e7 8.68062233163477e6 0.0
8.68062233163477e6 -9.293358513027534e6 0.0
0.0 0.0 0.0

-5.018556968155764e6 8.880733952162974e6 0.0
8.880733952162974e6 2.2435842111863256e6 0.0
0.0 0.0 0.0

-4.795021828499539e6 9.391655426786715e6 0.0
9.391655426786715e6 2.4586180074115917e6 0.0
0.0 0.0 0.0

-4.365343133555923e6 8.944793646091534e6 0.0
8.944793646091534e6 1.7556956847747462e6 0.0
0.0 0.0 0.0

-4.428424408150494e6 1.1961837244570516e7 0.0
1.1961837244570516e7 1.073356703934563e7 0.0
0.0 0.0 0.0

1.1457402560571325e6 5.756780617199309e6 0.0
5.756780617199309e6 -5.739035440349655e6 0.0
0.0 0.0 0.0

-1.3054691363924977e6 5.301120928955074e6 0.0
5.301120928955074e6 -1.5337484678361774e6 0.0
0.0 0.0 0.0

-6.69918193366632e6 1.382703267662567e7 0.0
1.382703267662567e7 890630.3030016818 0.0
0.0 0.0 0.0

667152.1882068207 7.557481131814944e6 0.0
7.557481131814944e6 -6.281169004097205e6 0.0
0.0 0.0 0.0

-7.759812733659774e6 -27879.729592358366 0.0
-27879.729592358366 6.118499011523643e6 0.0
0.0 0.0 0.0

-2.5875391562117427e6 9.262790001217688e6 0.0
9.262790001217688e6 261944.0569154258 0.0
0.0 0.0 0.0

-667390.623310792 6.905824943871481e6 0.0
6.905824943871481e6 -1.7425523151400054e6 0.0
0.0 0.0 0.0

-819369.8853797399 7.515253694080105e6 0.0
7.515253694080105e6 -3.0460948990319567e6 0.0
0.0 0.0 0.0

-3.0419550631209593e6 1.0367708341312297e7 0.0
1.0367708341312297e7 4.972622952484142e6 0.0
0.0 0.0 0.0

-3.775906699012233e6 1.440019898737934e7 0.0
1.440019898737934e7 -633415.1894526364 0.0
0.0 0.0 0.0

-7.5595994037502855e6 -4.590629600790336e6 0.0
-4.590629600790336e6 4.805150403932676e6 0.0
0.0 0.0 0.0

1.388027216432226e6 1.7759142446237702e7 0.0
1.7759142446237702e7 -6.170397809594383e6 0.0
0.0 0.0 0.0

-5.585844870625347e6 1.5103199169745784e7 0.0
1.5103199169745784e7 -1.7059893334080526e6 0.0
0.0 0.0 0.0

1.6492193609552546e6 6.781041021367967e6 0.0
6.781041021367967e6 -3.660731821525565e6 0.0
0.0 0.0 0.0

-5.485418218865611e6 9.491481867050428e6 0.0
9.491481867050428e6 2.680845138736106e6 0.0
0.0 0.0 0.0

4.698097949203138e6 8.878508652984047e6 0.0
8.878508652984047e6 775989.5220806855 0.0
0.0 0.0 0.0

-1.0936593810470723e7 514841.907051923 0.0
514841.907051923 1.5205752186780546e7 0.0
0.0 0.0 0.0

-2.5402603728243415e6 1.0134229119750816e7 0.0
1.0134229119750816e7 -1.974333958188693e6 0.0
0.0 0.0 0.0

792091.175297104 9.801170247290343e6 0.0
9.801170247290343e6 3.413971163073549e6 0.0
0.0 0.0 0.0

-427270.44096414885 1.0252698456958894e7 0.0
1.0252698456958894e7 -3.2215231134625482e6 0.0
0.0 0.0 0.0

1.5964911511906218e6 6.117616592050382e6 0.0
6.117616592050382e6 -6.217689254114607e6 0.0
0.0 0.0 0.0

-5.020110048629332e6 8.75792184290002e6 0.0
8.75792184290002e6 1.9737192459484648e6 0.0
0.0 0.0 0.0

-455543.18607614073 7.937629548678472e6 0.0
7.937629548678472e6 -4.735174876775098e6 0.0
0.0 0.0 0.0

-5.69877045689231e6 1.1036625282479065e7 0.0
1.1036625282479065e7 1.4824407837181657e6 0.0
0.0 0.0 0.0

-1.0246155334784543e7 2.8772728915867526e6 0.0
2.8772728915867526e6 1.6812508290816963e7 0.0
0.0 0.0 0.0

-22599.508650436997 8.833382314718932e6 0.0
8.833382314718932e6 -4.048332207195801e6 0.0
0.0 0.0 0.0

39044.58387160953 7.044967275602792e6 0.0
7.044967275602792e6 -4.518950392733481e6 0.0
0.0 0.0 0.0

-1.0772575332989458e6 1.1866163837330688e7 0.0
1.1866163837330688e7 -2.6258271292773644e6 0.0
0.0 0.0 0.0

-393947.3895224333 7.866306725686708e6 0.0
7.866306725686708e6 -4.3591753077082755e6 0.0
0.0 0.0 0.0

-8.473159325070282e6 -1.0135965600286352e6 0.0
-1.0135965600286352e6 1.1586295203000804e7 0.0
0.0 0.0 0.0

-5.827129629746223e6 9.984980275010223e6 0.0
9.984980275010223e6 9.791063761984654e6 0.0
0.0 0.0 0.0

946853.3711496838 7.5223907261466235e6 0.0
7.5223907261466235e6 -6.516947109730636e6 0.0
0.0 0.0 0.0

-5.063063978541763e6 1.0901879420166422e7 0.0
1.0901879420166422e7 1.2283006907018735e6 0.0
0.0 0.0 0.0

-2.756864321187042e6 8.554922792525006e6 0.0
8.554922792525006e6 3.7056279362664367e6 0.0
0.0 0.0 0.0

309627.2318391865 6.85435570156744e6 0.0
6.85435570156744e6 -4.632735395215924e6 0.0
0.0 0.0 0.0

6.356624661122906e6 9.451619803310968e6 0.0
9.451619803310968e6 1.854508974358264e6 0.0
0.0 0.0 0.0

-4.898630259527034e6 1.051613759624844e7 0.0
1.051613759624844e7 1.2392780646251389e6 0.0
0.0 0.0 0.0

-463772.12371134793 2.4338303038569214e6 0.0
2.4338303038569214e6 -152974.05575077914 0.0
0.0 0.0 0.0

-8.976360447983805e6 -643970.5749793185 0.0
-643970.5749793185 1.0115789052241497e7 0.0
0.0 0.0 0.0

798986.0670155003 4.860338180418959e6 0.0
4.860338180418959e6 -5.094111186870471e6 0.0
0.0 0.0 0.0

-4.202322125768021e6 8.762958173539542e6 0.0
8.762958173539542e6 1.5653702728846204e6 0.0
0.0 0.0 0.0

-1.1529804805565495e6 9.292832964561045e6 0.0
9.292832964561045e6 -486718.89034020907 0.0
0.0 0.0 0.0

-2.888104395930683e6 1.0895706306892594e7 0.0
1.0895706306892594e7 -1.5747174853176815e6 0.0
0.0 0.0 0.0

-342365.47312015214 3.1221869694987447e6 0.0
3.1221869694987447e6 -335910.5025036379 0.0
0.0 0.0 0.0

-3.4537135730512864e6 8.783957267390277e6 0.0
8.783957267390277e6 -81469.66210472817 0.0
0.0 0.0 0.0

-8.856152721160578e6 -1.5502745113791751e6 0.0
-1.5502745113791751e6 1.0114550835227633e7 0.0
0.0 0.0 0.0

2.602217983492763e6 7.930779076341434e6 0.0
7.930779076341434e6 -1.7441715054149807e6 0.0
0.0 0.0 0.0

756590.2307312838 7.83097290012248e6 0.0
7.83097290012248e6 -6.263709391482266e6 0.0
0.0 0.0 0.0

1.121685689975942e6 7.516052626034219e6 0.0
7.516052626034219e6 -6.571000247079808e6 0.0
0.0 0.0 0.0

-4.335657396754061e6 4.456546921895764e6 0.0
4.456546921895764e6 5.494220147771678e6 0.0
0.0 0.0 0.0

-3.172633902949781e6 8.046792467865802e6 0.0
8.046792467865802e6 560583.5529799392 0.0
0.0 0.0 0.0

-466854.2583567711 1.3821682634193162e6 0.0
1.3821682634193162e6 -932074.2069702209 0.0
0.0 0.0 0.0

91121.54343606299 8.828453804055678e6 0.0
8.828453804055678e6 -4.0566764606616437e6 0.0
0.0 0.0 0.0

-4.69278319226136e6 9.19991225518175e6 0.0
9.19991225518175e6 2.4023777827403257e6 0.0
0.0 0.0 0.0

-2.382476342681914e6 1.204151807819549e7 0.0
1.204151807819549e7 5.827684806382668e6 0.0
0.0 0.0 0.0

871031.5678490365 1.1871133915822327e7 0.0
1.1871133915822327e7 -3.7308214112650086e6 0.0
0.0 0.0 0.0

-9.50072104554162e6 -7.141629416304705e6 0.0
-7.141629416304705e6 2.2818319137977943e7 0.0
0.0 0.0 0.0

-8.65047271138984e6 2.3335412928112503e6 0.0
2.3335412928112503e6 1.2335346637879191e7 0.0
0.0 0.0 0.0

-2.294666356636251e6 4.826725864440644e6 0.0
4.826725864440644e6 1.6394473495608543e6 0.0
0.0 0.0 0.0

-1.2298946473525984e6 7.361803916698656e6 0.0
7.361803916698656e6 12478.452921885939 0.0
0.0 0.0 0.0

-140950.494808178 4.038176654836537e6 0.0
4.038176654836537e6 -1.1178705405839763e6 0.0
0.0 0.0 0.0

-6.275050318678275e6 4.765895977606684e6 0.0
4.765895977606684e6 3.058391329339008e6 0.0
0.0 0.0 0.0

1.270432670279046e6 5.990942495762113e6 0.0
5.990942495762113e6 -5.355524754885924e6 0.0
0.0 0.0 0.0

-247392.54256865638 8.556122666562485e6 0.0
8.556122666562485e6 -5.8595639754069615e6 0.0
0.0 0.0 0.0

-248514.77337153582 9.450088003664909e6 0.0
9.450088003664909e6 -539988.4414381131 0.0
0.0 0.0 0.0

-1.6689293735151303e6 1.4622180010974735e7 0.0
1.4622180010974735e7 -5.190540100672998e6 0.0
0.0 0.0 0.0

-185101.79861765273 1.0541006222695965e7 0.0
1.0541006222695965e7 -3.1510424303599936e6 0.0
0.0 0.0 0.0

-8.2527885852712365e6 9.738800780942412e6 0.0
9.738800780942412e6 914706.5774882948 0.0
0.0 0.0 0.0

-5.526744767783694e6 9.02330945162698e6 0.0
9.02330945162698e6 2.2199209520230554e6 0.0
0.0 0.0 0.0

-1.2585757649641503e6 3.116909202751404e6 0.0
3.116909202751404e6 -1.5122695448231385e6 0.0
0.0 0.0 0.0

-1.1133078142066788e7 9.917756573201302e6 0.0
9.917756573201302e6 6.745791041396751e6 0.0
0.0 0.0 0.0

-3.3209469459163644e6 7.942834223465779e6 0.0
7.942834223465779e6 794879.7418269594 0.0
0.0 0.0 0.0

-780712.6444692346 4.225270480963543e6 0.0
4.225270480963543e6 -1.0098860980044845e6 0.0
0.0 0.0 0.0

-3.312283884728067e6 7.709416541742779e6 0.0
7.709416541742779e6 583636.9485745912 0.0
0.0 0.0 0.0

-405229.73480850196 3.9857468277107375e6 0.0
3.9857468277107375e6 -1.1399920789728411e6 0.0
0.0 0.0 0.0

-1.3857075463237956e6 4.337778188726166e6 0.0
4.337778188726166e6 -1.1970464126170182e6 0.0
0.0 0.0 0.0

511899.2285756599 7.86460452387911e6 0.0
7.86460452387911e6 -5.689865301277132e6 0.0
0.0 0.0 0.0

-4.375149025148546e6 1.0341229898042576e7 0.0
1.0341229898042576e7 1.2470921155551642e6 0.0
0.0 0.0 0.0

-2.6406562117601885e6 8.779209494702727e6 0.0
8.779209494702727e6 2.9632130841323715e6 0.0
0.0 0.0 0.0

-852723.4734901744 9.400708168146005e6 0.0
9.400708168146005e6 -733000.1546125727 0.0
0.0 0.0 0.0

4.1088393036283017e6 440732.62398153526 0.0
440732.62398153526 -5.307512871711676e6 0.0
0.0 0.0 0.0

-4.6533986250137035e6 8.600107397832882e6 0.0
8.600107397832882e6 883063.5715178824 0.0
0.0 0.0 0.0

-6.082473483339404e6 9.544364708426839e6 0.0
9.544364708426839e6 2.4893016076559587e6 0.0
0.0 0.0 0.0

-1.0556168344019046e6 1.1933304956279809e7 0.0
1.1933304956279809e7 -2.708677597361491e6 0.0
0.0 0.0 0.0

-1.1148332771723063e6 4.380384559283064e6 0.0
4.380384559283064e6 -473580.6461670805 0.0
0.0 0.0 0.0

-235424.43650165317 8.55180336227545e6 0.0
8.55180336227545e6 -4.706119686957274e6 0.0
0.0 0.0 0.0

-7.253162043434154e6 9.885718867610779e6 0.0
9.885718867610779e6 4.325618907171572e6 0.0
0.0 0.0 0.0

-6.877082686366928e6 9.930840984749129e6 0.0
9.930840984749129e6 3.9458444543230105e6 0.0
0.0 0.0 0.0

61213.56946516107 8.068558878763711e6 0.0
8.068558878763711e6 -5.5143091730728485e6 0.0
0.0 0.0 0.0

-457191.22371402103 7.979685498886747e6 0.0
7.979685498886747e6 -4.527574291922121e6 0.0
0.0 0.0 0.0

-407287.6256121599 9.683926258413466e6 0.0
9.683926258413466e6 -447288.3987312372 0.0
0.0 0.0 0.0

471577.06706063193 7.320818193138279e6 0.0
7.320818193138279e6 -5.531772360353282e6 0.0
0.0 0.0 0.0

-6.501279618038926e6 3.1854185549410735e6 0.0
3.1854185549410735e6 9.179696256487748e6 0.0
0.0 0.0 0.0

1.2014700903886366e6 8.672146369617179e6 0.0
8.672146369617179e6 -7.395560868037327e6 0.0
0.0 0.0 0.0

-7.51403208927569e6 1.5700800399395801e7 0.0
1.5700800399395801e7 -311907.22540428676 0.0
0.0 0.0 0.0

-1.0887122840582735e6 1.0174570790193101e7 0.0
1.0174570790193101e7 2.395291251412914e6 0.0
0.0 0.0 0.0

-3.354928971774256e6 1.0925749107123325e7 0.0
1.0925749107123325e7 5.317061957426869e6 0.0
0.0 0.0 0.0

379686.2139704422 8.621509164068202e6 0.0
8.621509164068202e6 3.1062395533180665e6 0.0
0.0 0.0 0.0

-364024.7235010459 7.33441310448084e6 0.0
7.33441310448084e6 -2.063246636555893e6 0.0
0.0 0.0 0.0

-4.343647444433161e6 8.470854482843995e6 0.0
8.470854482843995e6 1.0342946853264614e6 0.0
0.0 0.0 0.0

-9.39455280903523e6 8.51417480408807e6 0.0
8.51417480408807e6 1.8845630032899138e6 0.0
0.0 0.0 0.0

117703.70395731332 7.1680447948527625e6 0.0
7.1680447948527625e6 -2.5490834781433567e6 0.0
0.0 0.0 0.0

-1.6012944435275106e6 9.7590644117311e6 0.0
9.7590644117311e6 302270.66421051323 0.0
0.0 0.0 0.0

605076.3233697263 5.636814787755364e6 0.0
5.636814787755364e6 -4.1116408310652142e6 0.0
0.0 0.0 0.0

-7.429125200166991e6 4.612012848424961e6 0.0
4.612012848424961e6 3.6535225830445113e6 0.0
0.0 0.0 0.0

-1.302940660117537e7 8.59631902687163e6 0.0
8.59631902687163e6 8.415922024872325e6 0.0
0.0 0.0 0.0

-561996.2690586356 3.395342969558256e6 0.0
3.395342969558256e6 -280437.462941859 0.0
0.0 0.0 0.0

-4.1885932936672703e6 1.4437756759850686e7 0.0
1.4437756759850686e7 -2.0601633573201085e6 0.0
0.0 0.0 0.0

-1.3970271592613949e7 1.845205894013829e6 0.0
1.845205894013829e6 2.7864959693920635e7 0.0
0.0 0.0 0.0

-660445.5018771688 2.529992933398476e6 0.0
2.529992933398476e6 154311.06088571317 0.0
0.0 0.0 0.0

-1.0914056908392294e6 9.127369775978144e6 0.0
9.127369775978144e6 -6.134589561207013e6 0.0
0.0 0.0 0.0

-34481.07466956554 9.523432636568394e6 0.0
9.523432636568394e6 -3.840013890204948e6 0.0
0.0 0.0 0.0

-6.404009923340963e6 9.731046214190328e6 0.0
9.731046214190328e6 2.8739019386311783e6 0.0
0.0 0.0 0.0

-4.796544146381286e6 4.706372030653929e6 0.0
4.706372030653929e6 1.1185385466151095e6 0.0
0.0 0.0 0.0

-1.059789694191754e6 4.445104580477898e6 0.0
4.445104580477898e6 -1.1858537760361347e6 0.0
0.0 0.0 0.0

-5.1076854721630355e6 8.711268348249992e6 0.0
8.711268348249992e6 1.7272213107404287e6 0.0
0.0 0.0 0.0

-6.720739808874214e6 9.921918519463822e6 0.0
9.921918519463822e6 3.637842188129646e6 0.0
0.0 0.0 0.0

-6.357595777605111e6 9.76078706792514e6 0.0
9.76078706792514e6 2.978077269758364e6 0.0
0.0 0.0 0.0

795793.1079648267 8.472754621311022e6 0.0
8.472754621311022e6 -8.6779367530401e6 0.0
0.0 0.0 0.0

-1.387833367241021e6 6.498861935318389e6 0.0
6.498861935318389e6 -130873.16664817993 0.0
0.0 0.0 0.0

-9.117714893567305e6 -3.37565985509595e6 0.0
-3.37565985509595e6 1.3380654842554726e7 0.0
0.0 0.0 0.0

-628927.0521130245 1.4729446135986377e7 0.0
1.4729446135986377e7 1.2711070307016686e7 0.0
0.0 0.0 0.0

-1.3683444663340855e7 -4.295135082319075e6 0.0
-4.295135082319075e6 5.240084071446186e6 0.0
0.0 0.0 0.0

6.661465161987949e6 1.066562596786633e7 0.0
1.066562596786633e7 -8.78397565581577e6 0.0
0.0 0.0 0.0

11589.819489501417 8.309684207571251e6 0.0
8.309684207571251e6 -4.89035320778246e6 0.0
0.0 0.0 0.0

-286492.9702260833 1.1070170731548467e6 0.0
1.1070170731548467e6 -2.193869497599777e6 0.0
0.0 0.0 0.0

9.455661185348213e6 1.0979841762026638e7 0.0
1.0979841762026638e7 -8.988387248666797e6 0.0
0.0 0.0 0.0

-107509.19212823448 5.179815223148306e6 0.0
5.179815223148306e6 -983281.4600853211 0.0
0.0 0.0 0.0

1.5552897915691948e6 8.35227178629479e6 0.0
8.35227178629479e6 2.605095323111599e6 0.0
0.0 0.0 0.0

-5.408478978674702e6 8.942026558717662e6 0.0
8.942026558717662e6 2.216710192275147e6 0.0
0.0 0.0 0.0

-4.523626878769208e6 9.233748875412654e6 0.0
9.233748875412654e6 2.3308856949376594e6 0.0
0.0 0.0 0.0

-1.5576888953442967e6 5.374418977169379e6 0.0
5.374418977169379e6 -1.6484681442395162e6 0.0
0.0 0.0 0.0

-3.143754133157514e6 3.199939096903939e6 0.0
3.199939096903939e6 278371.0781824591 0.0
0.0 0.0 0.0

-750620.6007282103 7.992459573407244e6 0.0
7.992459573407244e6 -4.828992628662481e6 0.0
0.0 0.0 0.0

-1.2464505781862962e6 9.837497659170069e6 0.0
9.837497659170069e6 347799.4093682984 0.0
0.0 0.0 0.0

-906011.8363921226 7.384935254193596e6 0.0
7.384935254193596e6 1.1709375158379348e6 0.0
0.0 0.0 0.0

-1.2694144856401345e7 1.6371978925087159e6 0.0
1.6371978925087159e6 2.5893889360585663e7 0.0
0.0 0.0 0.0

-4.715714263764836e6 8.537046162731724e6 0.0
8.537046162731724e6 1.685763236782555e6 0.0
0.0 0.0 0.0

1.188339884158242e6 5.112918816450866e6 0.0
5.112918816450866e6 -4.907450374318319e6 0.0
0.0 0.0 0.0

-2.533122803288649e6 8.949922223611329e6 0.0
8.949922223611329e6 1.6013293838458462e6 0.0
0.0 0.0 0.0

-2.3007545347163435e6 7.625114904002907e6 0.0
7.625114904002907e6 1.7274482109648609e6 0.0
0.0 0.0 0.0

585060.5278772148 1.2446687791968385e7 0.0
1.2446687791968385e7 -4.290863358624214e6 0.0
0.0 0.0 0.0

-4.3545339928380735e6 1.0086257534225278e7 0.0
1.0086257534225278e7 -186580.75145797944 0.0
0.0 0.0 0.0

-8.705441608599827e6 1.0057658019512223e7 0.0
1.0057658019512223e7 5.083386059806395e6 0.0
0.0 0.0 0.0

-1.4585313008233868e6 3.6763928229905316e6 0.0
3.6763928229905316e6 -1.3855433824135321e6 0.0
0.0 0.0 0.0

-7.642801156455434e6 9.240692951379906e6 0.0
9.240692951379906e6 4.701037403385411e6 0.0
0.0 0.0 0.0

-5.376820540844953e6 9.446171641042385e6 0.0
9.446171641042385e6 2.7524161466872e6 0.0
0.0 0.0 0.0

-2.629193358545997e6 5.0398780528581375e6 0.0
5.0398780528581375e6 1.5092466869073026e6 0.0
0.0 0.0 0.0

3.783870607453567e6 1.2186488268514896e7 0.0
1.2186488268514896e7 -6.639056541690754e6 0.0
0.0 0.0 0.0

-2.0147337621207703e6 9.33574821424574e6 0.0
9.33574821424574e6 -2.0032822674025577e6 0.0
0.0 0.0 0.0

-5.253863325665901e6 8.92035996034612e6 0.0
8.92035996034612e6 2.1991003305268716e6 0.0
0.0 0.0 0.0

-1.2930817402980556e6 5.052703076808092e6 0.0
5.052703076808092e6 -1.87102577345094e6 0.0
0.0 0.0 0.0

-1.241750986641115e6 9.708129163186189e6 0.0
9.708129163186189e6 742839.2050920059 0.0
0.0 0.0 0.0

-2.715421743288547e6 981874.05475785 0.0
981874.05475785 1.9846311767035702e6 0.0
0.0 0.0 0.0

-4.819657508196855e6 3.9048833574894066e6 0.0
3.9048833574894066e6 4.271019174162238e6 0.0
0.0 0.0 0.0

-402722.8756242732 9.780720682012629e6 0.0
9.780720682012629e6 -3.618961143239972e6 0.0
0.0 0.0 0.0

-1.923419982782782e6 8.04518790245374e6 0.0
8.04518790245374e6 4.481890853308843e6 0.0
0.0 0.0 0.0

-1.080223089015923e6 9.455081978500336e6 0.0
9.455081978500336e6 -3.51821549539089e6 0.0
0.0 0.0 0.0

-2.899968888224256e6 8.562084383627841e6 0.0
8.562084383627841e6 2.828216002936592e6 0.0
0.0 0.0 0.0

-7.033915090590704e6 1.5404878481847874e6 0.0
1.5404878481847874e6 5.150249558850957e6 0.0
0.0 0.0 0.0

-1.6079935355513967e6 9.732050999674946e6 0.0
9.732050999674946e6 18986.681003172416 0.0
0.0 0.0 0.0

-1.2498079557401356e6 3.348916778151764e6 0.0
3.348916778151764e6 117602.87255042011 0.0
0.0 0.0 0.0

-1.2532481508259922e6 9.284614340962227e6 0.0
9.284614340962227e6 1.3692371664956906e6 0.0
0.0 0.0 0.0

-4.90993213807404e6 1.5590765244094575e7 0.0
1.5590765244094575e7 -2.9402192309140824e6 0.0
0.0 0.0 0.0

-1.4862330234717976e7 2.6797351096804817e6 0.0
2.6797351096804817e6 7.682455757358979e6 0.0
0.0 0.0 0.0

-8.896617248515885e6 1.537407196111831e7 0.0
1.537407196111831e7 4.104273454821549e6 0.0
0.0 0.0 0.0

-4.298003888424011e6 8.60559901744099e6 0.0
8.60559901744099e6 330620.2753945824 0.0
0.0 0.0 0.0

-8.90538275011845e6 1.2957450558292337e7 0.0
1.2957450558292337e7 4.303848538631426e6 0.0
0.0 0.0 0.0

-796524.5753033276 3.4703484423184767e6 0.0
3.4703484423184767e6 -397795.04676630785 0.0
0.0 0.0 0.0

581848.9206983601 1.2508765650948675e7 0.0
1.2508765650948675e7 -4.398209927299295e6 0.0
0.0 0.0 0.0

-7.352165509041525e6 1.0018688756974457e7 0.0
1.0018688756974457e7 4.073518482444399e6 0.0
0.0 0.0 0.0

-2.1394876113639367e6 9.496431268679386e6 0.0
9.496431268679386e6 11599.197203365737 0.0
0.0 0.0 0.0

-513936.92528618313 8.843079195377618e6 0.0
8.843079195377618e6 -4.34758970213615e6 0.0
0.0 0.0 0.0

-5.37548106162932e6 9.51098575106194e6 0.0
9.51098575106194e6 2.939867882218804e6 0.0
0.0 0.0 0.0

-3.787256972104416e6 3.995509041036346e6 0.0
3.995509041036346e6 3.772912549488223e6 0.0
0.0 0.0 0.0

-8.98824637392859e6 1.3915897425078355e7 0.0
1.3915897425078355e7 2.775569992537583e6 0.0
0.0 0.0 0.0

-8.269337046600274e6 8.560496803824045e6 0.0
8.560496803824045e6 4.9446586043119915e6 0.0
0.0 0.0 0.0

333273.21329136076 1.2314458430217462e7 0.0
1.2314458430217462e7 -4.2745246193678165e6 0.0
0.0 0.0 0.0

882307.9077036052 6.526360766283054e6 0.0
6.526360766283054e6 -4.663443697968189e6 0.0
0.0 0.0 0.0

-255155.49808271532 8.278681691783193e6 0.0
8.278681691783193e6 -5.669833807780978e6 0.0
0.0 0.0 0.0

5.427329083686626e6 256985.8820533061 0.0
256985.8820533061 -9.14143736373539e6 0.0
0.0 0.0 0.0

-1.975932949532186e6 1.0104700957534032e7 0.0
1.0104700957534032e7 2.7269871327251787e6 0.0
0.0 0.0 0.0

645441.7763099065 1.0829381078404102e7 0.0
1.0829381078404102e7 -3.549577067087838e6 0.0
0.0 0.0 0.0

-5.217906192018126e6 1.396477141162544e7 0.0
1.396477141162544e7 -904595.9756387611 0.0
0.0 0.0 0.0

-5.251875155301245e6 4.637832191397901e6 0.0
4.637832191397901e6 5.197981681146203e6 0.0
0.0 0.0 0.0

-1.5527365154477758e6 5.600500307570115e6 0.0
5.600500307570115e6 -1.313838301031617e6 0.0
0.0 0.0 0.0

-517961.2430870051 4.066334930089182e6 0.0
4.066334930089182e6 3.3828163648795686e6 0.0
0.0 0.0 0.0

1.1448490945859384e6 7.873809605749724e6 0.0
7.873809605749724e6 -7.194528612694265e6 0.0
0.0 0.0 0.0

-105330.1400749237 8.914554411128007e6 0.0
8.914554411128007e6 -767652.0187046397 0.0
0.0 0.0 0.0

-7.534114956800921e6 7.941412717167791e6 0.0
7.941412717167791e6 3.008665140637921e6 0.0
0.0 0.0 0.0

-166842.71199178044 8.918784862333529e6 0.0
8.918784862333529e6 -4.2133154586407095e6 0.0
0.0 0.0 0.0

4.67764856927016e6 8.360695410402564e6 0.0
8.360695410402564e6 -3.904205915657389e6 0.0
0.0 0.0 0.0

-1.998974602177143e6 1.7456411113331374e6 0.0
1.7456411113331374e6 1.7198686614000564e6 0.0
0.0 0.0 0.0

-1.093364740655081e7 7.300719994347276e6 0.0
7.300719994347276e6 2.4001762179429075e6 0.0
0.0 0.0 0.0

90401.40303411381 1.7088090628317654e7 0.0
1.7088090628317654e7 -1.2680725241585229e7 0.0
0.0 0.0 0.0

-4.715662806654795e6 9.163122041134376e6 0.0
9.163122041134376e6 2.354735075008534e6 0.0
0.0 0.0 0.0

-807689.4245890707 5.97019852353915e6 0.0
5.97019852353915e6 -2.182151508817454e6 0.0
0.0 0.0 0.0

-6.771862255020671e6 5.351636279525756e6 0.0
5.351636279525756e6 7.7488986273614615e6 0.0
0.0 0.0 0.0

-491332.71842508845 2.018135144137399e6 0.0
2.018135144137399e6 132755.51673465894 0.0
0.0 0.0 0.0

-2.139305345472819e6 9.310297867755855e6 0.0
9.310297867755855e6 -2.4131627819571747e6 0.0
0.0 0.0 0.0

-6.156117676477224e6 9.225944117035376e6 0.0
9.225944117035376e6 3.185452132580739e6 0.0
0.0 0.0 0.0

-2.536364264670057e6 7.516060304125496e6 0.0
7.516060304125496e6 -1.133034821516254e6 0.0
0.0 0.0 0.0

-9.644962409703523e6 3.0197134058407503e6 0.0
3.0197134058407503e6 1.5446220013258843e7 0.0
0.0 0.0 0.0

-284551.14380569616 8.190631636926998e6 0.0
8.190631636926998e6 -4.772374354433305e6 0.0
0.0 0.0 0.0

-6.065439598307794e6 8.596913758361548e6 0.0
8.596913758361548e6 3.5373865745215365e6 0.0
0.0 0.0 0.0

-420939.4840669172 8.663639218203258e6 0.0
8.663639218203258e6 -4.2749801414077375e6 0.0
0.0 0.0 0.0

3.135079035560865e6 7.528383836569952e6 0.0
7.528383836569952e6 337082.5964957973 0.0
0.0 0.0 0.0

-8.865436804065108e6 1.7898909729150082e6 0.0
1.7898909729150082e6 1.3185248086607266e7 0.0
0.0 0.0 0.0

749525.0307183191 8.51971766812122e6 0.0
8.51971766812122e6 -3.242417341655153e6 0.0
0.0 0.0 0.0

-1.9709884158550575e6 9.308753503349464e6 0.0
9.308753503349464e6 1.6431528466578035e6 0.0
0.0 0.0 0.0

-4.977034458494226e6 1.1618449173615668e7 0.0
1.1618449173615668e7 1.2985465535204879e6 0.0
0.0 0.0 0.0

410051.99477400794 7.196074425528352e6 0.0
7.196074425528352e6 -4.853165662198352e6 0.0
0.0 0.0 0.0

-581578.271949731 4.526169992481419e6 0.0
4.526169992481419e6 -2.787568796290014e6 0.0
0.0 0.0 0.0

1.036713816641557e6 7.81243972964838e6 0.0
7.81243972964838e6 -6.845508685966742e6 0.0
0.0 0.0 0.0

-3.1975757123999507e6 9.898898034034425e6 0.0
9.898898034034425e6 86031.31645545294 0.0
0.0 0.0 0.0

-9.532088942707462e6 1.4384295573467975e6 0.0
1.4384295573467975e6 1.1262533680109743e7 0.0
0.0 0.0 0.0

-3.6692626344981077e6 9.88320766604541e6 0.0
9.88320766604541e6 729535.0042244906 0.0
0.0 0.0 0.0

-2.2218549277484477e6 7.192831482237912e6 0.0
7.192831482237912e6 -1.2853766891600098e6 0.0
0.0 0.0 0.0

1.182835860202385e6 7.30614144580001e6 0.0
7.30614144580001e6 -6.932370588570923e6 0.0
0.0 0.0 0.0

-6.084729502649407e6 4.381666798911575e6 0.0
4.381666798911575e6 9.15574084120629e6 0.0
0.0 0.0 0.0

-161390.0671446579 9.182895241406988e6 0.0
9.182895241406988e6 -199201.00868012256 0.0
0.0 0.0 0.0

428369.59185105073 7.808415351757852e6 0.0
7.808415351757852e6 -5.993043197947001e6 0.0
0.0 0.0 0.0

1.2576319546926105e6 5.577131953849139e6 0.0
5.577131953849139e6 -5.615151881658616e6 0.0
0.0 0.0 0.0

-3.340421609755988e6 7.196929639956206e6 0.0
7.196929639956206e6 2.4977781467447e6 0.0
0.0 0.0 0.0

-5.925230537039638e6 9.07582823674163e6 0.0
9.07582823674163e6 3.554857500604679e6 0.0
0.0 0.0 0.0

-1.0905488085162325e6 5.898979526309497e6 0.0
5.898979526309497e6 -2.3203537185890647e6 0.0
0.0 0.0 0.0

-3.965000386940046e6 1.277096319324677e6 0.0
1.277096319324677e6 5.059421629614727e6 0.0
0.0 0.0 0.0

-539781.6239169585 3.3788924163980526e6 0.0
3.3788924163980526e6 -110317.95395321553 0.0
0.0 0.0 0.0

-3.488421807894876e6 6.1017819615766965e6 0.0
6.1017819615766965e6 2.0971859458022607e6 0.0
0.0 0.0 0.0

3.297268975554823e6 8.54289842563871e6 0.0
8.54289842563871e6 89909.91400446848 0.0
0.0 0.0 0.0

1.582466606944178e6 7.864842721108396e6 0.0
7.864842721108396e6 1.2988128588614343e6 0.0
0.0 0.0 0.0

-6.555481027895666e6 9.93831185097979e6 0.0
9.93831185097979e6 2.269314140898506e6 0.0
0.0 0.0 0.0

-651809.6244473928 7.495298066248353e6 0.0
7.495298066248353e6 -4.464241637044856e6 0.0
0.0 0.0 0.0

-4.522677847394099e6 1.0132250600272072e7 0.0
1.0132250600272072e7 1.3733143348397077e6 0.0
0.0 0.0 0.0

-6.343835791052485e6 6.368343203662905e6 0.0
6.368343203662905e6 3.1921981721103354e6 0.0
0.0 0.0 0.0

909320.2056110771 7.814074656721228e6 0.0
7.814074656721228e6 -6.637997707766565e6 0.0
0.0 0.0 0.0

-678330.4392542964 1.3275615576190674e6 0.0
1.3275615576190674e6 -1.726983286357101e6 0.0
0.0 0.0 0.0

-1.0220894475464794e6 3.2897764694038006e6 0.0
3.2897764694038006e6 -740158.3665605369 0.0
0.0 0.0 0.0

-197423.68707922322 9.258863593608785e6 0.0
9.258863593608785e6 -911393.7253724962 0.0
0.0 0.0 0.0

-226323.2490857949 8.326266131834792e6 0.0
8.326266131834792e6 3.469402734496503e6 0.0
0.0 0.0 0.0

-1.319470119941249e6 6.751058849298696e6 0.0
6.751058849298696e6 -694884.6007397571 0.0
0.0 0.0 0.0

-3.3074389283700055e6 6.433918684795571e6 0.0
6.433918684795571e6 1.7852480598696042e6 0.0
0.0 0.0 0.0

-8.444547240945442e6 -393057.40363784897 0.0
-393057.40363784897 4.281530676080363e6 0.0
0.0 0.0 0.0

-270193.05366326385 9.380410128938511e6 0.0
9.380410128938511e6 -298324.4749987117 0.0
0.0 0.0 0.0

372805.51178171905 6.299526764985339e6 0.0
6.299526764985339e6 -4.346085667115338e6 0.0
0.0 0.0 0.0

-7.132835110041667e6 8.289155698409893e6 0.0
8.289155698409893e6 4.457822118754878e6 0.0
0.0 0.0 0.0

-4.854719512503681e6 459434.6209614121 0.0
459434.6209614121 6.486023412589099e6 0.0
0.0 0.0 0.0

-1.008499188326528e6 9.446512548123695e6 0.0
9.446512548123695e6 10208.109443957568 0.0
0.0 0.0 0.0

-3.9767276372091994e6 8.66704701860416e6 0.0
8.66704701860416e6 6.0152297564052595e6 0.0
0.0 0.0 0.0

-5.864973660033759e6 8.464037854270931e6 0.0
8.464037854270931e6 3.256303447739694e6 0.0
0.0 0.0 0.0

-92108.19307142869 8.148006448110089e6 0.0
8.148006448110089e6 -5.307158676935071e6 0.0
0.0 0.0 0.0

1.8457134417587896e6 8.603152735301025e6 0.0
8.603152735301025e6 1.8437873553255233e6 0.0
0.0 0.0 0.0

-286212.4178354612 8.543240356660334e6 0.0
8.543240356660334e6 -4.699044500120317e6 0.0
0.0 0.0 0.0

-452891.5712341479 9.594745519832622e6 0.0
9.594745519832622e6 -2238.598115422239 0.0
0.0 0.0 0.0

-3.4156876507378025e6 8.074742261484285e6 0.0
8.074742261484285e6 3.263410855792035e6 0.0
0.0 0.0 0.0

-2.3906682695363695e6 9.151366616422627e6 0.0
9.151366616422627e6 1.8236436952599927e6 0.0
0.0 0.0 0.0

-1.6460889158249097e6 9.748829547790963e6 0.0
9.748829547790963e6 693124.6788616454 0.0
0.0 0.0 0.0

926677.0972861736 6.207789894099542e6 0.0
6.207789894099542e6 -5.682160792650283e6 0.0
0.0 0.0 0.0

-7.286281368814617e6 1.0517072610130265e7 0.0
1.0517072610130265e7 3.2059215500652264e6 0.0
0.0 0.0 0.0

-1.6597627131616734e6 6.900809880524661e6 0.0
6.900809880524661e6 1.1341776192200286e6 0.0
0.0 0.0 0.0

5.4253453834774615e6 7.120916861397601e6 0.0
7.120916861397601e6 -1.095714014770068e6 0.0
0.0 0.0 0.0

-5.623681830979486e6 8.920431011443717e6 0.0
8.920431011443717e6 2.4697283401233163e6 0.0
0.0 0.0 0.0

1.677523246931972e6 6.249600177220226e6 0.0
6.249600177220226e6 -6.522899991055628e6 0.0
0.0 0.0 0.0

-2.772678336318642e6 7.914636500704598e6 0.0
7.914636500704598e6 42282.1768046529 0.0
0.0 0.0 0.0

3.5777659794459715e6 7.442291190231431e6 0.0
7.442291190231431e6 -1.7382019666810865e6 0.0
0.0 0.0 0.0

7.866418039860503e6 7.636650100524128e6 0.0
7.636650100524128e6 -4.1358027951009157e6 0.0
0.0 0.0 0.0

-7.342497547108759e6 9.885620652670024e6 0.0
9.885620652670024e6 4.0278291181750284e6 0.0
0.0 0.0 0.0

-748704.6511966013 9.604817732770115e6 0.0
9.604817732770115e6 -3.294794353684086e6 0.0
0.0 0.0 0.0

-778926.6384949887 4.341838680524488e6 0.0
4.341838680524488e6 -448550.8504608346 0.0
0.0 0.0 0.0

-4.7140488968399875e6 -87267.86240864647 0.0
-87267.86240864647 4.822189814509971e6 0.0
0.0 0.0 0.0

-155557.82852217607 9.245333278390802e6 0.0
9.245333278390802e6 -732792.5841786559 0.0
0.0 0.0 0.0

-1.9144297962240307e6 6.720568011512797e6 0.0
6.720568011512797e6 6.194221131078491e6 0.0
0.0 0.0 0.0

-1.748027632520008e6 1.2326879457853734e6 0.0
1.2326879457853734e6 1.476120713354753e6 0.0
0.0 0.0 0.0

-1.6081944089201167e6 5.252189729264562e6 0.0
5.252189729264562e6 -1.0591233878748734e6 0.0
0.0 0.0 0.0

-2.2959952468453227e6 8.296092548027119e6 0.0
8.296092548027119e6 1.060234859595875e6 0.0
0.0 0.0 0.0

-226349.81123936526 8.13069652904802e6 0.0
8.13069652904802e6 -5.202294483538306e6 0.0
0.0 0.0 0.0

-6.73855617971992e6 9.989622652761927e6 0.0
9.989622652761927e6 3.3823107559244274e6 0.0
0.0 0.0 0.0

-5.954591512955436e6 1.2392223589131143e7 0.0
1.2392223589131143e7 667638.1414969023 0.0
0.0 0.0 0.0

-1.09477418756383e7 1.4882515252507843e7 0.0
1.4882515252507843e7 3.7572763985822666e6 0.0
0.0 0.0 0.0

-1.3125092313156705e7 8.6587681739161e6 0.0
8.6587681739161e6 8.08590802679237e6 0.0
0.0 0.0 0.0

-242329.15871439292 1.028472874033353e7 0.0
1.028472874033353e7 2.22073123475426e6 0.0
0.0 0.0 0.0

292382.15573627315 9.231915741594337e6 0.0
9.231915741594337e6 -7.860242808365262e6 0.0
0.0 0.0 0.0

-581026.0132010264 2.976581080906636e6 0.0
2.976581080906636e6 -609479.9114282307 0.0
0.0 0.0 0.0

-1.1860791277113063e6 7.950404968500663e6 0.0
7.950404968500663e6 -5.121513898147317e6 0.0
0.0 0.0 0.0

-896828.7407635592 7.107550849597665e6 0.0
7.107550849597665e6 -4.439118020265567e6 0.0
0.0 0.0 0.0

-1.095259742434774e6 1.0181390612475423e7 0.0
1.0181390612475423e7 2.75026538572423e6 0.0
0.0 0.0 0.0

-718950.925149736 8.454876931395752e6 0.0
8.454876931395752e6 -5.697491464573428e6 0.0
0.0 0.0 0.0

-793011.2765420342 7.925245453058316e6 0.0
7.925245453058316e6 -5.018942953174611e6 0.0
0.0 0.0 0.0

18275.003585559083 9.29366724114029e6 0.0
9.29366724114029e6 4.0440618084918563e6 0.0
0.0 0.0 0.0

-2.311479350359969e6 7.180464772332442e6 0.0
7.180464772332442e6 1.6985666890928599e6 0.0
0.0 0.0 0.0

727669.3314122136 7.258002904432107e6 0.0
7.258002904432107e6 -5.426193558257087e6 0.0
0.0 0.0 0.0

-176638.34314301395 9.273189917280499e6 0.0
9.273189917280499e6 -883129.3604275723 0.0
0.0 0.0 0.0

-5.206883971518554e6 7.7712223504300015e6 0.0
7.7712223504300015e6 3.551308094240315e6 0.0
0.0 0.0 0.0

-541301.5989247054 9.251435301491017e6 0.0
9.251435301491017e6 598960.9824640858 0.0
0.0 0.0 0.0

6.850257282717405e6 1.0643982297030925e6 0.0
1.0643982297030925e6 -8.110906397095923e6 0.0
0.0 0.0 0.0

-5.087310928269003e6 8.942525118985986e6 0.0
8.942525118985986e6 2.16015110904962e6 0.0
0.0 0.0 0.0

-6.2392910396678075e6 9.866670544352584e6 0.0
9.866670544352584e6 3.4133701821980374e6 0.0
0.0 0.0 0.0

-6.224959660204523e6 4.225591456789323e6 0.0
4.225591456789323e6 8.335153866104908e6 0.0
0.0 0.0 0.0

-1.0293831138756513e6 7.061850209102303e6 0.0
7.061850209102303e6 10703.33951114054 0.0
0.0 0.0 0.0

-2.940832304204613e6 8.436104050619802e6 0.0
8.436104050619802e6 4.012165496436186e6 0.0
0.0 0.0 0.0

-8.807961532098398e6 9.84596967703546e6 0.0
9.84596967703546e6 4.915243072873435e6 0.0
0.0 0.0 0.0

-3.226204708620459e6 6.54513847518594e6 0.0
6.54513847518594e6 2.5785720117162643e6 0.0
0.0 0.0 0.0

-750380.8813401768 2.817806940617201e6 0.0
2.817806940617201e6 -352834.5080354335 0.0
0.0 0.0 0.0

-6.254111432381816e6 9.878647864572909e6 0.0
9.878647864572909e6 3.3747582501230603e6 0.0
0.0 0.0 0.0

-4.876421125339014e6 8.652523219057174e6 0.0
8.652523219057174e6 1.6694556339946021e6 0.0
0.0 0.0 0.0

-3.204131012657996e6 7.810209221027677e6 0.0
7.810209221027677e6 420420.5248349211 0.0
0.0 0.0 0.0

-6.9033118539013695e6 1.0248009281670375e7 0.0
1.0248009281670375e7 3.3040756101976265e6 0.0
0.0 0.0 0.0

-6.578637848716124e6 9.958542718393024e6 0.0
9.958542718393024e6 2.9239755099329916e6 0.0
0.0 0.0 0.0

-684820.8057376901 9.127753374655629e6 0.0
9.127753374655629e6 -228549.3448993228 0.0
0.0 0.0 0.0

200834.81858014865 7.769821555850607e6 0.0
7.769821555850607e6 669449.7648010585 0.0
0.0 0.0 0.0

401032.6807183265 7.022583749952781e6 0.0
7.022583749952781e6 -5.142329626308274e6 0.0
0.0 0.0 0.0

-1.0422658421924214e6 8.649212791237189e6 0.0
8.649212791237189e6 -5.377250512226806e6 0.0
0.0 0.0 0.0

-1.6988137973500227e6 9.77373384140112e6 0.0
9.77373384140112e6 186196.8538306282 0.0
0.0 0.0 0.0

-1.5510102911618723e7 1.0338886229620164e7 0.0
1.0338886229620164e7 3.295704286809827e6 0.0
0.0 0.0 0.0

-1.1121792857624767e6 7.934281055288703e6 0.0
7.934281055288703e6 -5.034166084384034e6 0.0
0.0 0.0 0.0

-1.4196055705034466e7 1.0566143088260371e7 0.0
1.0566143088260371e7 2.249526211931118e6 0.0
0.0 0.0 0.0

-2.9056376682861606e6 9.019123103703013e6 0.0
9.019123103703013e6 1.3698311951276476e6 0.0
0.0 0.0 0.0

-5.298414508622401e6 -1.9628095038462842e6 0.0
-1.9628095038462842e6 6.3788852829602845e6 0.0
0.0 0.0 0.0

-5.990509363007277e6 1.141995952074862e7 0.0
1.141995952074862e7 1.3650354768059328e6 0.0
0.0 0.0 0.0

-7.563071992914954e6 1.0206216401106419e7 0.0
1.0206216401106419e7 1.913442201228524e6 0.0
0.0 0.0 0.0

-802917.9564331943 9.822866773013832e6 0.0
9.822866773013832e6 -3.203607945599516e6 0.0
0.0 0.0 0.0

-7.8227433025610875e6 8.64521129310017e6 0.0
8.64521129310017e6 3.8891777314647543e6 0.0
0.0 0.0 0.0

-1.0035404378377848e6 3.993341082245659e6 0.0
3.993341082245659e6 -272468.00537760585 0.0
0.0 0.0 0.0

913594.1964710024 7.405473773709408e6 0.0
7.405473773709408e6 -6.10537974854259e6 0.0
0.0 0.0 0.0

-8.49459780918552e6 7.904507442639107e6 0.0
7.904507442639107e6 3.953352023421831e6 0.0
0.0 0.0 0.0

-212289.92381532126 9.544423424074966e6 0.0
9.544423424074966e6 -648330.2277315516 0.0
0.0 0.0 0.0

-973527.9497515218 4.1596112299443693e6 0.0
4.1596112299443693e6 -675724.5480039347 0.0
0.0 0.0 0.0

-2.561924658151574e6 7.2805914468948655e6 0.0
7.2805914468948655e6 -1.391010665073858e6 0.0
0.0 0.0 0.0

-4.379521144369632e6 1.103612990330245e7 0.0
1.103612990330245e7 805557.32414742 0.0
0.0 0.0 0.0

-6.284425558552249e6 -1.3246176540630748e6 0.0
-1.3246176540630748e6 5.660639240194457e6 0.0
0.0 0.0 0.0

-5.465297544719864e6 9.370188521998858e6 0.0
9.370188521998858e6 2.7165397593506705e6 0.0
0.0 0.0 0.0

-464654.58668313106 9.368177065199409e6 0.0
9.368177065199409e6 -3.7704331307660462e6 0.0
0.0 0.0 0.0

48134.94980383059 6.823280978028173e6 0.0
6.823280978028173e6 -4.4840326287517315e6 0.0
0.0 0.0 0.0

-795172.5380482937 1.0633887108643097e6 0.0
1.0633887108643097e6 -1.9401093389468566e6 0.0
0.0 0.0 0.0

-881691.3529316552 8.828289419894421e6 0.0
8.828289419894421e6 -3.257273521918379e6 0.0
0.0 0.0 0.0

-6.220513567763891e6 9.267968624254992e6 0.0
9.267968624254992e6 320365.3567159234 0.0
0.0 0.0 0.0

-8.62167170132545e6 1.4623265337464472e7 0.0
1.4623265337464472e7 4.4842128289999645e6 0.0
0.0 0.0 0.0

-3.359253138292864e6 9.759127649135461e6 0.0
9.759127649135461e6 4.4113275497218035e6 0.0
0.0 0.0 0.0

-1.0998287350115096e6 7.3696168071237495e6 0.0
7.3696168071237495e6 531513.6994417005 0.0
0.0 0.0 0.0

-428991.1711621344 9.866644665949596e6 0.0
9.866644665949596e6 1.2176960950465887e6 0.0
0.0 0.0 0.0

-141810.645266329 8.255791879875923e6 0.0
8.255791879875923e6 -472702.1336628267 0.0
0.0 0.0 0.0

-7.115531173202375e6 4.076769599975787e6 0.0
4.076769599975787e6 8.779869986943863e6 0.0
0.0 0.0 0.0

-308225.7810606358 7.882934269140865e6 0.0
7.882934269140865e6 -4.605578677055401e6 0.0
0.0 0.0 0.0

-1.416302295710738e7 6.462483079831093e6 0.0
6.462483079831093e6 5.8856944106541425e6 0.0
0.0 0.0 0.0

-3.519265652543395e6 1.5789750494120135e6 0.0
1.5789750494120135e6 4.451116120804956e6 0.0
0.0 0.0 0.0

-6.048503041191595e6 -1.4238143265527664e6 0.0
-1.4238143265527664e6 8.343365882360924e6 0.0
0.0 0.0 0.0

-1.3160127391592718e6 6.313234130337591e6 0.0
6.313234130337591e6 -2.8792176627907194e6 0.0
0.0 0.0 0.0

-530087.040056159 1.8663068796511174e6 0.0
1.8663068796511174e6 699831.5424474789 0.0
0.0 0.0 0.0

1.1975407418556628e6 7.497488996177682e6 0.0
7.497488996177682e6 -6.936326971650544e6 0.0
0.0 0.0 0.0

-9.411115844487427e6 3.0132434350189986e6 0.0
3.0132434350189986e6 1.10617181377961e7 0.0
0.0 0.0 0.0

473436.21520907944 7.732364085852565e6 0.0
7.732364085852565e6 -6.003024707262587e6 0.0
0.0 0.0 0.0

-698677.6246388598 2.5511489139376134e6 0.0
2.5511489139376134e6 -412890.77602565044 0.0
0.0 0.0 0.0

-5.236992176718043e6 9.425372967752507e6 0.0
9.425372967752507e6 2.563461595400047e6 0.0
0.0 0.0 0.0

-4.339772718586886e6 1.1494994185130335e7 0.0
1.1494994185130335e7 709074.9571076068 0.0
0.0 0.0 0.0

-6.950829685889278e6 9.903313656025039e6 0.0
9.903313656025039e6 3.9416461993479985e6 0.0
0.0 0.0 0.0

-1.1111456617759392e7 1.370434254888142e7 0.0
1.370434254888142e7 5.005381023492725e6 0.0
0.0 0.0 0.0

-8.890650059085185e6 1.1710892248581955e7 0.0
1.1710892248581955e7 3.8091679085536078e6 0.0
0.0 0.0 0.0

-3.8181041315160273e6 443376.1829187276 0.0
443376.1829187276 4.681346841561051e6 0.0
0.0 0.0 0.0

1.4617560461873226e6 6.449781926435536e6 0.0
6.449781926435536e6 -6.899019449479108e6 0.0
0.0 0.0 0.0

-231618.95702910295 1.0058655142187238e7 0.0
1.0058655142187238e7 -3.4262440598072163e6 0.0
0.0 0.0 0.0

-3.217457335010303e6 8.960187639447747e6 0.0
8.960187639447747e6 -519969.5475957203 0.0
0.0 0.0 0.0

-500381.880393145 7.183673414597372e6 0.0
7.183673414597372e6 -3.375828870261014e6 0.0
0.0 0.0 0.0

-1.1306323757662028e6 7.441728547400238e6 0.0
7.441728547400238e6 -4.712204978668601e6 0.0
0.0 0.0 0.0

-266458.6021274492 8.99100743749319e6 0.0
8.99100743749319e6 -888195.3566904651 0.0
0.0 0.0 0.0

-3.784451869238301e6 8.277809773477183e6 0.0
8.277809773477183e6 1.8850039978992664e6 0.0
0.0 0.0 0.0

-5.638460493540537e6 9.195630078278517e6 0.0
9.195630078278517e6 3.023891857689064e6 0.0
0.0 0.0 0.0

-658009.1884200906 7.342328846690433e6 0.0
7.342328846690433e6 -4.266132721262846e6 0.0
0.0 0.0 0.0

-1.283026586769214e6 5.24684893342938e6 0.0
5.24684893342938e6 -1.0260974455919948e6 0.0
0.0 0.0 0.0

1.0857842448601797e6 5.565990938418313e6 0.0
5.565990938418313e6 -5.455564367892951e6 0.0
0.0 0.0 0.0

69155.57284016628 9.954920820066484e6 0.0
9.954920820066484e6 -3.259795194538842e6 0.0
0.0 0.0 0.0

240386.87555783126 7.044240526894804e6 0.0
7.044240526894804e6 -4.828314622873961e6 0.0
0.0 0.0 0.0

-1.4814053744385145e6 4.5658765406240495e6 0.0
4.5658765406240495e6 -1.13140721637063e6 0.0
0.0 0.0 0.0

-1.2193111636934034e6 4.724996384324961e6 0.0
4.724996384324961e6 -1.6455918570195434e6 0.0
0.0 0.0 0.0

-358786.414700521 2.403953599151747e6 0.0
2.403953599151747e6 -1.3919262500824342e6 0.0
0.0 0.0 0.0

-4.505467700914206e6 8.961280785508497e6 0.0
8.961280785508497e6 1.9231607310319322e6 0.0
0.0 0.0 0.0

-488718.03833650844 8.950356909774503e6 0.0
8.950356909774503e6 -3.9784195227318686e6 0.0
0.0 0.0 0.0

1.2302458593904418e6 7.55250045655891e6 0.0
7.55250045655891e6 -7.409943323815878e6 0.0
0.0 0.0 0.0

-3.1464835193191497e6 9.83434415118382e6 0.0
9.83434415118382e6 478230.062945249 0.0
0.0 0.0 0.0

-1.195883065305655e7 9.86836958617885e6 0.0
9.86836958617885e6 2.8543079030068414e6 0.0
0.0 0.0 0.0

-9.456992323216217e6 7.367751913862347e6 0.0
7.367751913862347e6 3.4697221811927767e6 0.0
0.0 0.0 0.0

-5.942847681025874e6 9.83518664319803e6 0.0
9.83518664319803e6 2.6156372314719213e6 0.0
0.0 0.0 0.0

97539.65237395605 8.196588139252916e6 0.0
8.196588139252916e6 -5.730913681219428e6 0.0
0.0 0.0 0.0

-1.510283816547763e6 7.7215503593506785e6 0.0
7.7215503593506785e6 -5.034279380634014e6 0.0
0.0 0.0 0.0

-9.56576298246665e6 1.018138811464392e7 0.0
1.018138811464392e7 2.3018483844833635e6 0.0
0.0 0.0 0.0

-1.6216110811076618e6 8.272128898137678e6 0.0
8.272128898137678e6 -5.405370376481237e6 0.0
0.0 0.0 0.0

-4.1832294088877207e6 6.292565368306847e6 0.0
6.292565368306847e6 3.558544597155593e6 0.0
0.0 0.0 0.0

-523518.57345360785 2.991363398956891e6 0.0
2.991363398956891e6 -911394.8501916415 0.0
0.0 0.0 0.0

-4.809041453266669e6 8.66625780020138e6 0.0
8.66625780020138e6 1.2450124247679184e6 0.0
0.0 0.0 0.0

-3.50084058658344e6 7.178700316317636e6 0.0
7.178700316317636e6 1.9643094286399733e6 0.0
0.0 0.0 0.0

-679852.2922071196 2.9867705886843028e6 0.0
2.9867705886843028e6 -374360.04620092036 0.0
0.0 0.0 0.0

-76167.09621301969 8.076804999679485e6 0.0
8.076804999679485e6 -4.605716998611171e6 0.0
0.0 0.0 0.0

-4.984368298097688e6 8.711897593709417e6 0.0
8.711897593709417e6 1.9410132966790886e6 0.0
0.0 0.0 0.0

-340255.0696834005 9.277701406617258e6 0.0
9.277701406617258e6 -897412.5546767376 0.0
0.0 0.0 0.0

-4.679604223025267e6 9.263614841211604e6 0.0
9.263614841211604e6 2.3437733012025924e6 0.0
0.0 0.0 0.0

-1.0266980822833147e7 8.964237942271048e6 0.0
8.964237942271048e6 4.231719607856647e6 0.0
0.0 0.0 0.0

-1.561681488517039e6 7.887633054699044e6 0.0
7.887633054699044e6 -5.205605146335514e6 0.0
0.0 0.0 0.0

-4.950294697340706e6 8.1610077540425295e6 0.0
8.1610077540425295e6 5.249685781814415e6 0.0
0.0 0.0 0.0

-8.815491831701437e6 8.031764338616194e6 0.0
8.031764338616194e6 2.6329947590541886e6 0.0
0.0 0.0 0.0

-503837.24255635566 4.389594732404825e6 0.0
4.389594732404825e6 -718252.2062489368 0.0
0.0 0.0 0.0

-1.1506525061927857e7 1.9692148032628864e6 0.0
1.9692148032628864e6 1.4046130450766541e7 0.0
0.0 0.0 0.0

-1.740038833787245e6 9.483896456566965e6 0.0
9.483896456566965e6 93934.6383818374 0.0
0.0 0.0 0.0

-8.552880996032018e6 1.256171349408974e7 0.0
1.256171349408974e7 3.075363987438114e6 0.0
0.0 0.0 0.0

398198.04191216774 9.756891937848954e6 0.0
9.756891937848954e6 1.327326934257707e6 0.0
0.0 0.0 0.0

803029.3433076749 9.72892983171114e6 0.0
9.72892983171114e6 3.4829090666940873e6 0.0
0.0 0.0 0.0

-7.775369221613632e6 9.398235864761354e6 0.0
9.398235864761354e6 3.238033450323392e6 0.0
0.0 0.0 0.0

-6.523783529708502e6 1.2644730767487677e7 0.0
1.2644730767487677e7 1.5015099932982982e6 0.0
0.0 0.0 0.0

-162891.86201076838 1.0826392767652774e7 0.0
1.0826392767652774e7 2.1245549884777763e6 0.0
0.0 0.0 0.0

1.5900018988725957e6 6.992364464855725e6 0.0
6.992364464855725e6 -7.185084292938891e6 0.0
0.0 0.0 0.0

-5.066576545182408e6 9.18954895260702e6 0.0
9.18954895260702e6 2.3885194574741223e6 0.0
0.0 0.0 0.0

-173303.6772770111 9.079621365994943e6 0.0
9.079621365994943e6 -978207.4674973548 0.0
0.0 0.0 0.0

-1.6592353559640187e6 8.538751570539141e6 0.0
8.538751570539141e6 -5.530784783105429e6 0.0
0.0 0.0 0.0

-2.1652921508835424e6 9.927766369693052e6 0.0
9.927766369693052e6 -76760.38952034002 0.0
0.0 0.0 0.0

1.7416656964394902e6 6.349198994664291e6 0.0
6.349198994664291e6 -7.01490073780516e6 0.0
0.0 0.0 0.0

-3.1908360303322608e6 8.108032905690052e6 0.0
8.108032905690052e6 -616322.1963028072 0.0
0.0 0.0 0.0

-1.4562784497824952e6 1.1563052317574808e7 0.0
1.1563052317574808e7 -2.2709213538054554e6 0.0
0.0 0.0 0.0

4.607934109915514e6 1.0028823693832826e7 0.0
1.0028823693832826e7 -7.492344104800899e6 0.0
0.0 0.0 0.0

-3.3447066114915884e6 4.850466710295863e6 0.0
4.850466710295863e6 2.808592372415128e6 0.0
0.0 0.0 0.0

-1.6698778278176887e6 4.086549344131082e6 0.0
4.086549344131082e6 2.2018031209997274e6 0.0
0.0 0.0 0.0

-5.704845732212588e6 9.695276761527756e6 0.0
9.695276761527756e6 3.299746584551173e6 0.0
0.0 0.0 0.0

-4.867190170488706e6 8.697006578512726e6 0.0
8.697006578512726e6 1.5080079444716664e6 0.0
0.0 0.0 0.0

-7.642937446412809e6 -719295.3117870301 0.0
-719295.3117870301 9.69593475777673e6 0.0
0.0 0.0 0.0

-956293.4083903551 8.877073786745094e6 0.0
8.877073786745094e6 -1.0316747675061072e6 0.0
0.0 0.0 0.0

-5.8238494883471e6 8.71385050753473e6 0.0
8.71385050753473e6 3.3048141009086156e6 0.0
0.0 0.0 0.0

-480733.34686646704 4.218898266538552e6 0.0
4.218898266538552e6 -3.242461965650277e6 0.0
0.0 0.0 0.0

-3.431982527842284e6 7.092710629734961e6 0.0
7.092710629734961e6 7.419332701584393e6 0.0
0.0 0.0 0.0

-1.4068870828822747e7 9.331872858111152e6 0.0
9.331872858111152e6 3.549544038181668e6 0.0
0.0 0.0 0.0

-111222.55139750919 8.850821765318103e6 0.0
8.850821765318103e6 -585382.8325756146 0.0
0.0 0.0 0.0

363485.6032825741 6.1440878099102955e6 0.0
6.1440878099102955e6 -4.589816667838335e6 0.0
0.0 0.0 0.0

-6.814776147047721e6 6.847995758775365e6 0.0
6.847995758775365e6 1.0680469990991313e7 0.0
0.0 0.0 0.0

-3.8244446630131016e6 1.0315395904182157e7 0.0
1.0315395904182157e7 180750.39106913167 0.0
0.0 0.0 0.0

-1.0651512754697667e6 1.4762088063976679e7 0.0
1.4762088063976679e7 -2.6568900489100656e6 0.0
0.0 0.0 0.0

-1.3563845423524769e6 7.039246922414927e6 0.0
7.039246922414927e6 -4.521281862385704e6 0.0
0.0 0.0 0.0

-2.28373212733451e6 7.757271367367575e6 0.0
7.757271367367575e6 -476331.4487701687 0.0
0.0 0.0 0.0

-78286.43091726815 3.6181291048197206e6 0.0
3.6181291048197206e6 -3.2029878080752087e6 0.0
0.0 0.0 0.0

-391095.9627846794 8.221323462376437e6 0.0
8.221323462376437e6 -5.097110165239508e6 0.0
0.0 0.0 0.0

-2.964954676474529e6 8.629074250550333e6 0.0
8.629074250550333e6 -820286.9711940923 0.0
0.0 0.0 0.0

821941.1667288414 8.75525575477331e6 0.0
8.75525575477331e6 2.758201874469305e6 0.0
0.0 0.0 0.0

-5.366925472602921e6 7.864948723668738e6 0.0
7.864948723668738e6 2.714476110292491e6 0.0
0.0 0.0 0.0

-1.1921627902658186e6 1.1614503359440118e7 0.0
1.1614503359440118e7 -2.774762470643904e6 0.0
0.0 0.0 0.0

-1.7775025293927197e6 -824014.5336200226 0.0
-824014.5336200226 6.246441163017748e6 0.0
0.0 0.0 0.0

-670722.4557348327 2.6095182110530664e6 0.0
2.6095182110530664e6 1.192941535417091e6 0.0
0.0 0.0 0.0

716037.1038141614 1.164088718368907e7 0.0
1.164088718368907e7 -3.7879760152854007e6 0.0
0.0 0.0 0.0

-129105.67958375847 9.159214837282866e6 0.0
9.159214837282866e6 -614294.748448493 0.0
0.0 0.0 0.0

8.762052535863433e6 7.4562186079303045e6 0.0
7.4562186079303045e6 -3.277639469001772e6 0.0
0.0 0.0 0.0

-447841.52577321336 2.6373086445382577e6 0.0
2.6373086445382577e6 -279453.8751431581 0.0
0.0 0.0 0.0

-6.849282418769494e6 1.0068567914335312e7 0.0
1.0068567914335312e7 902185.2643521465 0.0
0.0 0.0 0.0

-7.078602578041831e6 4.252728396120658e6 0.0
4.252728396120658e6 5.651379901900936e6 0.0
0.0 0.0 0.0

-1.270844050470845e7 9.570698459180228e6 0.0
9.570698459180228e6 4.1553043251891835e6 0.0
0.0 0.0 0.0

5.9179573464663075e6 6.0116460181882065e6 0.0
6.0116460181882065e6 -1.8388827257663412e6 0.0
0.0 0.0 0.0

-1.1465894207899043e7 377921.2677908099 0.0
377921.2677908099 1.6248104685420884e7 0.0
0.0 0.0 0.0

-1.3009833343625723e6 5.120916751929395e6 0.0
5.120916751929395e6 -849439.6398507014 0.0
0.0 0.0 0.0

-8.851691760221997e6 9.71663781876682e6 0.0
9.71663781876682e6 4.636031123032458e6 0.0
0.0 0.0 0.0

-4.862464132547086e6 9.315026999539213e6 0.0
9.315026999539213e6 2.5150361458693445e6 0.0
0.0 0.0 0.0

-3.027066428170828e6 8.958552557984225e6 0.0
8.958552557984225e6 -1.242004190803192e6 0.0
0.0 0.0 0.0

-1.105322147994842e6 7.752785204101968e6 0.0
7.752785204101968e6 -2.6941989454053794e6 0.0
0.0 0.0 0.0

-433273.79012334405 9.133878871943682e6 0.0
9.133878871943682e6 -859464.4140677714 0.0
0.0 0.0 0.0

-1.062075242963806e6 7.745400430939158e6 0.0
7.745400430939158e6 -4.97844908406216e6 0.0
0.0 0.0 0.0

-249388.9565466328 9.239376389308104e6 0.0
9.239376389308104e6 -6.686843344533891e6 0.0
0.0 0.0 0.0

840104.9705593089 3.73682871789017e6 0.0
3.73682871789017e6 370471.7722168341 0.0
0.0 0.0 0.0

-6.292177759707163e6 1.4461715952028332e7 0.0
1.4461715952028332e7 -384808.5592768607 0.0
0.0 0.0 0.0

-1.426947008749881e6 7.435144367908505e6 0.0
7.435144367908505e6 -4.756490158207549e6 0.0
0.0 0.0 0.0

-650748.7958149042 9.369456758412333e6 0.0
9.369456758412333e6 3.862503954338457e6 0.0
0.0 0.0 0.0

169411.62373853498 8.671240595906332e6 0.0
8.671240595906332e6 -3.795362327665872e6 0.0
0.0 0.0 0.0

-4.518338662215296e6 8.596495294632668e6 0.0
8.596495294632668e6 1.359188815824206e6 0.0
0.0 0.0 0.0

-679356.9725582112 7.950451914612455e6 0.0
7.950451914612455e6 -4.717194954468342e6 0.0
0.0 0.0 0.0

-8.697321564660307e6 577829.8796491441 0.0
577829.8796491441 3.98605314772608e6 0.0
0.0 0.0 0.0

-327686.7387112372 2.20422786739173e6 0.0
2.20422786739173e6 -1.0184947008784657e6 0.0
0.0 0.0 0.0

-3.2968747697335375e6 5.913948151661036e6 0.0
5.913948151661036e6 3.1716947085989923e6 0.0
0.0 0.0 0.0

-384654.0099890598 6.668703364116697e6 0.0
6.668703364116697e6 -2.239292523468393e6 0.0
0.0 0.0 0.0

-2.2134540937138353e6 6.304196874769495e6 0.0
6.304196874769495e6 -1.1542918250580397e6 0.0
0.0 0.0 0.0

-2.5745722449087356e6 6.9046195669158185e6 0.0
6.9046195669158185e6 -539375.7436053238 0.0
0.0 0.0 0.0

-1.604774392810695e6 5.365316295008377e6 0.0
5.365316295008377e6 -1.210623757209008e6 0.0
0.0 0.0 0.0

3.812296599747312e6 1.1311049988129497e7 0.0
1.1311049988129497e7 -5.336459363487705e6 0.0
0.0 0.0 0.0

-8.532370409584375e6 9.185465423015928e6 0.0
9.185465423015928e6 5.041593170044068e6 0.0
0.0 0.0 0.0

-1.4814789442693638e6 1.2392982288239589e7 0.0
1.2392982288239589e7 -2.6795550575436787e6 0.0
0.0 0.0 0.0

-2.138677964936656e6 9.93517805999342e6 0.0
9.93517805999342e6 207550.75984379638 0.0
0.0 0.0 0.0

-7.415962141854754e6 9.978072279148074e6 0.0
9.978072279148074e6 4.06401926411384e6 0.0
0.0 0.0 0.0

-3.620415796374746e6 6.412881339730507e6 0.0
6.412881339730507e6 2.403176603353342e6 0.0
0.0 0.0 0.0

-119635.08954165771 2.773315855655184e6 0.0
2.773315855655184e6 -2.2693385949517353e6 0.0
0.0 0.0 0.0

-1.239681812332019e6 4.273719419763562e6 0.0
4.273719419763562e6 -635914.7933052555 0.0
0.0 0.0 0.0

-990120.0772827881 8.380834525509629e6 0.0
8.380834525509629e6 -5.278539001159327e6 0.0
0.0 0.0 0.0

-1.9371927448821818e6 9.553106547029456e6 0.0
9.553106547029456e6 263571.78865024366 0.0
0.0 0.0 0.0

-462508.015416411 1.070027335648986e6 0.0
1.070027335648986e6 -2.195738918935896e6 0.0
0.0 0.0 0.0

-1.9383869571749993e7 9.913709979705984e6 0.0
9.913709979705984e6 8.90531830264619e6 0.0
0.0 0.0 0.0

1.309865708027952e6 7.579990790530436e6 0.0
7.579990790530436e6 -7.961555927929395e6 0.0
0.0 0.0 0.0

-1.2167425006586895e6 4.320479955838859e6 0.0
4.320479955838859e6 -1.7499795776681162e6 0.0
0.0 0.0 0.0

-600384.3450773561 8.641767998070536e6 0.0
8.641767998070536e6 -5.63144098165823e6 0.0
0.0 0.0 0.0

1.6006401332596778e6 6.280411598988383e6 0.0
6.280411598988383e6 -7.068226263501685e6 0.0
0.0 0.0 0.0

-919427.2841670965 1.6400633112144789e7 0.0
1.6400633112144789e7 -3.9206249991595787e6 0.0
0.0 0.0 0.0

281381.41802500957 7.021994612862273e6 0.0
7.021994612862273e6 -4.656746644850921e6 0.0
0.0 0.0 0.0

-1.08494293565491e7 4.1649207537603728e6 0.0
4.1649207537603728e6 1.3011207391245995e7 0.0
0.0 0.0 0.0

-3.5333973874044586e6 5.143882629761467e6 0.0
5.143882629761467e6 3.4750210378135974e6 0.0
0.0 0.0 0.0

-3.1834227365417895e6 8.900879400780456e6 0.0
8.900879400780456e6 1.542051691636696e6 0.0
0.0 0.0 0.0

-4.770996494124449e6 5.604872819058397e6 0.0
5.604872819058397e6 3.735634066940956e6 0.0
0.0 0.0 0.0

-3.634946777251919e6 6.02020867484244e6 0.0
6.02020867484244e6 4.0294271230588937e6 0.0
0.0 0.0 0.0

-4.615983161312068e6 8.783659988543972e6 0.0
8.783659988543972e6 1.8103265770076336e6 0.0
0.0 0.0 0.0

600627.7295986329 1.0889027470846148e7 0.0
1.0889027470846148e7 2.0020923608879712e6 0.0
0.0 0.0 0.0

-354885.56896397285 2.624601541274907e6 0.0
2.624601541274907e6 -1.0987974588186129e6 0.0
0.0 0.0 0.0

-1.8576668449331971e6 1.0012553386667067e7 0.0
1.0012553386667067e7 -2.099971174498346e6 0.0
0.0 0.0 0.0

879926.0403048997 8.434673906034356e6 0.0
8.434673906034356e6 -8.089827330356768e6 0.0
0.0 0.0 0.0

-9.690485558471577e6 9.150125630476277e6 0.0
9.150125630476277e6 5.901771661565449e6 0.0
0.0 0.0 0.0

-4.64512308352426e6 1.1782230756717164e7 0.0
1.1782230756717164e7 -295393.31219033874 0.0
0.0 0.0 0.0

1.2334630903358296e6 8.097685453136053e6 0.0
8.097685453136053e6 -2.41415159653477e6 0.0
0.0 0.0 0.0

-3.1980049830345735e6 4.932152642389206e6 0.0
4.932152642389206e6 3.240490252213623e6 0.0
0.0 0.0 0.0

-1.0914316218849216e7 7.681828564431175e6 0.0
7.681828564431175e6 7.156261820074764e6 0.0
0.0 0.0 0.0

-2.442301699192692e6 1.102856593477407e7 0.0
1.102856593477407e7 -1.4315477730088911e6 0.0
0.0 0.0 0.0

-125682.78828827408 8.162037452579655e6 0.0
8.162037452579655e6 -5.489587823350957e6 0.0
0.0 0.0 0.0

-1.1840698822076935e7 8.599282869685033e6 0.0
8.599282869685033e6 7.722924888143375e6 0.0
0.0 0.0 0.0

4.673065763248543e6 1.4884145603568194e7 0.0
1.4884145603568194e7 -9.083240031970425e6 0.0
0.0 0.0 0.0

969542.0175349687 7.668972618227935e6 0.0
7.668972618227935e6 -1.601820309414962e6 0.0
0.0 0.0 0.0

-499064.6918589596 7.115291479741697e6 0.0
7.115291479741697e6 -3.846379611659682e6 0.0
0.0 0.0 0.0

-1.1469228975455072e6 8.84972676465726e6 0.0
8.84972676465726e6 -5.908873265246773e6 0.0
0.0 0.0 0.0

-2.4514700899735717e6 1.4713010718103753e7 0.0
1.4713010718103753e7 -1.666356166753455e6 0.0
0.0 0.0 0.0

-204954.62677431293 9.263598523515144e6 0.0
9.263598523515144e6 -4.102568482653789e6 0.0
0.0 0.0 0.0

-6.421043789061755e6 1.0162775818475492e7 0.0
1.0162775818475492e7 2.410329404253649e6 0.0
0.0 0.0 0.0

910342.8723920509 8.029046707725164e6 0.0
8.029046707725164e6 -7.41163217450895e6 0.0
0.0 0.0 0.0

-362569.90514175914 9.714358793340268e6 0.0
9.714358793340268e6 -374507.8579487231 0.0
0.0 0.0 0.0

-8.926207511159739e6 7.280687674939428e6 0.0
7.280687674939428e6 4.665430328633966e6 0.0
0.0 0.0 0.0

-4.646469725259433e6 8.965631478371665e6 0.0
8.965631478371665e6 2.054375584933938e6 0.0
0.0 0.0 0.0

4.997719876399272e6 7.318489456512477e6 0.0
7.318489456512477e6 -2.2200100282043824e6 0.0
0.0 0.0 0.0

-7.943217973861295e6 1.0046429670858989e7 0.0
1.0046429670858989e7 4.452060723922363e6 0.0
0.0 0.0 0.0

-1.671960388268629e6 8.148427887523957e6 0.0
8.148427887523957e6 213145.7797249813 0.0
0.0 0.0 0.0

-319935.4734423358 1.5449139098734844e6 0.0
1.5449139098734844e6 -1.5639504396011282e6 0.0
0.0 0.0 0.0

-5.764579898408828e6 1.4107318664892664e7 0.0
1.4107318664892664e7 1.5194043503326392e6 0.0
0.0 0.0 0.0

-440642.4294567264 9.151056692723067e6 0.0
9.151056692723067e6 -3.8894398320656093e6 0.0
0.0 0.0 0.0

1.7055917005226621e6 6.34536486841074e6 0.0
6.34536486841074e6 -7.176141044574288e6 0.0
0.0 0.0 0.0

-888404.9953223479 4.569200027704143e6 0.0
4.569200027704143e6 -1.7512027340910991e6 0.0
0.0 0.0 0.0

-416177.08649358887 1.8394201134203544e6 0.0
1.8394201134203544e6 -2.3786141441688472e6 0.0
0.0 0.0 0.0

-1.3867584649455082e6 8.081346810864392e6 0.0
8.081346810864392e6 -2.730929802357935e6 0.0
0.0 0.0 0.0

-7.104834120334337e6 7.584993802650932e6 0.0
7.584993802650932e6 3.156867489287536e6 0.0
0.0 0.0 0.0

-1.3258057003438335e6 9.931765655810837e6 0.0
9.931765655810837e6 33872.71245625161 0.0
0.0 0.0 0.0

-1.084049749119769e6 1.2226434582016412e7 0.0
1.2226434582016412e7 -2.414043885483386e6 0.0
0.0 0.0 0.0

1.44999298074046e6 6.676660835227032e6 0.0
6.676660835227032e6 -6.481212383955997e6 0.0
0.0 0.0 0.0

-3.0211641378084067e6 8.086046727289536e6 0.0
8.086046727289536e6 -747113.6196767357 0.0
0.0 0.0 0.0

-2.094300994448272e6 8.382182705982575e6 0.0
8.382182705982575e6 -2.172980784268604e6 0.0
0.0 0.0 0.0

-7.016669604912989e6 9.875745884150606e6 0.0
9.875745884150606e6 3.4066293787947665e6 0.0
0.0 0.0 0.0

-1.3700390284114517e6 1.4108063827726645e7 0.0
1.4108063827726645e7 -2.6999899692051928e6 0.0
0.0 0.0 0.0

-3.5380605421786467e6 8.898453420943191e6 0.0
8.898453420943191e6 1.8509785687442045e6 0.0
0.0 0.0 0.0

-2.659633523780035e6 8.3318997811494535e6 0.0
8.3318997811494535e6 1.6313832586822433e6 0.0
0.0 0.0 0.0

-9.700475481787238e6 1.029698877901331e7 0.0
1.029698877901331e7 2.346718272265924e7 0.0
0.0 0.0 0.0

-1.0230562686207017e7 9.978859616906933e6 0.0
9.978859616906933e6 5.907517497295445e6 0.0
0.0 0.0 0.0

-67883.30208840535 1.0108823482682927e7 0.0
1.0108823482682927e7 -3.3410330319572412e6 0.0
0.0 0.0 0.0

530537.051766203 7.472060824187487e6 0.0
7.472060824187487e6 -5.263657764947336e6 0.0
0.0 0.0 0.0

690731.8823508555 7.3753026501045665e6 0.0
7.3753026501045665e6 -5.5219578410813315e6 0.0
0.0 0.0 0.0

662578.787398997 5.378222175644395e6 0.0
5.378222175644395e6 -4.272949446457314e6 0.0
0.0 0.0 0.0

-3.7415681489192597e6 8.155534020243231e6 0.0
8.155534020243231e6 2.194204697742915e6 0.0
0.0 0.0 0.0

392257.0358173344 5.502158024672968e6 0.0
5.502158024672968e6 -4.410463089423286e6 0.0
0.0 0.0 0.0

-4.1903647601410816e6 1.2952914295806368e6 0.0
1.2952914295806368e6 4.0665311442316137e6 0.0
0.0 0.0 0.0

-2.937999971902363e6 8.62381595213152e6 0.0
8.62381595213152e6 1.9514151672616177e6 0.0
0.0 0.0 0.0

-1.384484586231895e6 4.612257876827323e6 0.0
4.612257876827323e6 -1.4723897983551049e6 0.0
0.0 0.0 0.0

-5.223032616736669e6 1.1303878591217173e7 0.0
1.1303878591217173e7 419622.3768423125 0.0
0.0 0.0 0.0

-5.670062489472498e6 1.2404597253710076e7 0.0
1.2404597253710076e7 1.541144621142183e6 0.0
0.0 0.0 0.0

-128984.22558624286 8.991216369263861e6 0.0
8.991216369263861e6 -903692.4183447248 0.0
0.0 0.0 0.0

910386.3402185575 7.916382055356633e6 0.0
7.916382055356633e6 -7.0022216212940365e6 0.0
0.0 0.0 0.0

1.7324809926717654e6 6.488600385324345e6 0.0
6.488600385324345e6 -7.00688706512371e6 0.0
0.0 0.0 0.0

-1.872190517573872e7 1.1026659762432238e7 0.0
1.1026659762432238e7 3.983675861198266e6 0.0
0.0 0.0 0.0

978691.6170415736 9.525352667586785e6 0.0
9.525352667586785e6 3.7228444838059423e6 0.0
0.0 0.0 0.0

-5.661030530395978e6 1.2020851090956664e7 0.0
1.2020851090956664e7 1.807965253614147e6 0.0
0.0 0.0 0.0

-1.4229978640484945e6 9.248206020486455e6 0.0
9.248206020486455e6 1.4982549284480368e6 0.0
0.0 0.0 0.0

-266833.2509872577 9.514309899422392e6 0.0
9.514309899422392e6 -702076.1968484939 0.0
0.0 0.0 0.0

-8.675689834190171e6 1.2089354015041222e6 0.0
1.2089354015041222e6 9.992229034203954e6 0.0
0.0 0.0 0.0

-6.683780782972071e6 8.824686039215378e6 0.0
8.824686039215378e6 4.094724961293538e6 0.0
0.0 0.0 0.0

-1.8186775392608305e6 5.67126356794721e6 0.0
5.67126356794721e6 -1.4219482628068211e6 0.0
0.0 0.0 0.0

-779652.9570729116 2.351629179473274e6 0.0
2.351629179473274e6 -50763.14131800865 0.0
0.0 0.0 0.0

-1.1939877141939476e7 5.3176590771482345e6 0.0
5.3176590771482345e6 3.65789254764636e7 0.0
0.0 0.0 0.0

-1.200904526778516e6 1.0406561909060745e7 0.0
1.0406561909060745e7 -2.5908040813016575e6 0.0
0.0 0.0 0.0

145323.5474168579 556687.3144794165 0.0
556687.3144794165 -2.4612731449832423e6 0.0
0.0 0.0 0.0

-1.2656413232173331e7 836860.1944648557 0.0
836860.1944648557 1.7996945065024134e7 0.0
0.0 0.0 0.0

1.6727111284237052e6 5.804811139574782e6 0.0
5.804811139574782e6 -6.137525324268053e6 0.0
0.0 0.0 0.0

-3.185037972396697e6 6.850597509865063e6 0.0
6.850597509865063e6 2.517938253701668e6 0.0
0.0 0.0 0.0

-1.0982096707491986e7 9.281020188205646e6 0.0
9.281020188205646e6 5.187618488714305e6 0.0
0.0 0.0 0.0

-1.110951497781618e6 9.68033265647087e6 0.0
9.68033265647087e6 -3.4137600336377695e6 0.0
0.0 0.0 0.0

-1.2336763570967522e6 1.7968145279045987e6 0.0
1.7968145279045987e6 1.4488040189051419e6 0.0
0.0 0.0 0.0

-1.900146495447413e6 9.852444123439344e6 0.0
9.852444123439344e6 39781.27250413166 0.0
0.0 0.0 0.0

284155.65900030686 1.3799360698867777e7 0.0
1.3799360698867777e7 -3.9914592135183774e6 0.0
0.0 0.0 0.0

227741.65288918413 1.6019556217040103e6 0.0
1.6019556217040103e6 -1.0756931300569482e6 0.0
0.0 0.0 0.0

3.011321222272394e6 8.267803196289529e6 0.0
8.267803196289529e6 -2.235114786592822e6 0.0
0.0 0.0 0.0

-6.558066847238132e6 1.758581575361103e7 0.0
1.758581575361103e7 -3.4183451472406695e6 0.0
0.0 0.0 0.0

1.107263185502896e6 5.471935169745543e6 0.0
5.471935169745543e6 -5.267663022794658e6 0.0
0.0 0.0 0.0

-2.7932577565277144e6 7.652111643140865e6 0.0
7.652111643140865e6 -6215.830732875736 0.0
0.0 0.0 0.0

222103.7918384734 1.2258285344042098e7 0.0
1.2258285344042098e7 4.590619072921024e6 0.0
0.0 0.0 0.0

1.0360667541047763e7 6.765347084443907e6 0.0
6.765347084443907e6 -3.5288268716568113e6 0.0
0.0 0.0 0.0

-1.3619438092043905e7 9.132960826996827e6 0.0
9.132960826996827e6 6.263204994827048e6 0.0
0.0 0.0 0.0

-4.413577646872253e6 8.778600108245466e6 0.0
8.778600108245466e6 1.7072969807540183e6 0.0
0.0 0.0 0.0

788314.2051269952 7.802542801888852e6 0.0
7.802542801888852e6 -6.588374692135426e6 0.0
0.0 0.0 0.0

-6.07360662182191e6 7.953044601614315e6 0.0
7.953044601614315e6 2.942027490886349e6 0.0
0.0 0.0 0.0

2.1229038537391974e6 7.4835165683100475e6 0.0
7.4835165683100475e6 -449367.284639013 0.0
0.0 0.0 0.0

-1.1710113756412145e7 -188924.98630645775 0.0
-188924.98630645775 2.3232315624191407e7 0.0
0.0 0.0 0.0

-2.6118299929942135e6 9.26333016696282e6 0.0
9.26333016696282e6 1.350379970174099e6 0.0
0.0 0.0 0.0

-472822.0070262707 9.307088525507877e6 0.0
9.307088525507877e6 602182.696312495 0.0
0.0 0.0 0.0

-2.7828576176371216e6 7.573217367089306e6 0.0
7.573217367089306e6 -1.1407888272257957e6 0.0
0.0 0.0 0.0

1.5957380986213214e6 1.043866073039084e7 0.0
1.043866073039084e7 -4.1466297480890807e6 0.0
0.0 0.0 0.0

71603.93661503494 1.0398366877106356e7 0.0
1.0398366877106356e7 -3.245083452192943e6 0.0
0.0 0.0 0.0

-1.8297727203062468e6 5.712435490016175e6 0.0
5.712435490016175e6 -970626.0657179275 0.0
0.0 0.0 0.0

-1.661770369949419e6 9.209198079599887e6 0.0
9.209198079599887e6 1.8970214172784898e6 0.0
0.0 0.0 0.0

-235401.14929391106 9.574707643088998e6 0.0
9.574707643088998e6 -765240.4428579578 0.0
0.0 0.0 0.0

-237757.89433548067 9.205842522243654e6 0.0
9.205842522243654e6 -818503.2196845938 0.0
0.0 0.0 0.0

-271235.66327484907 8.115304480126397e6 0.0
8.115304480126397e6 -5.287987453571183e6 0.0
0.0 0.0 0.0

-5.202243671948443e6 9.50012515296354e6 0.0
9.50012515296354e6 2.6170332118545403e6 0.0
0.0 0.0 0.0

-8.003259173281992e6 9.459778465655396e6 0.0
9.459778465655396e6 2.6346538333221083e6 0.0
0.0 0.0 0.0

-7.123424952074359e6 9.413560468721563e6 0.0
9.413560468721563e6 4.397376982581549e6 0.0
0.0 0.0 0.0

-1.4515635737592883e6 9.556146576088546e6 0.0
9.556146576088546e6 726489.8315305979 0.0
0.0 0.0 0.0

1.0709844056678924e6 6.447494838816193e6 0.0
6.447494838816193e6 -5.2748684543082155e6 0.0
0.0 0.0 0.0

-1.7255820395168616e6 1.0300580071622558e7 0.0
1.0300580071622558e7 -2.745256919027989e6 0.0
0.0 0.0 0.0

-2.9886932757169134e6 1.4729047626881137e7 0.0
1.4729047626881137e7 -3.677139275102727e6 0.0
0.0 0.0 0.0

-1.875350940321286e6 674722.2694795886 0.0
674722.2694795886 804494.893829537 0.0
0.0 0.0 0.0

-1.9345974918172972e6 9.60252134931246e6 0.0
9.60252134931246e6 695108.8438826682 0.0
0.0 0.0 0.0

757497.3456814215 8.095996004830349e6 0.0
8.095996004830349e6 -2.5511700987510756e6 0.0
0.0 0.0 0.0

972621.3653232562 1.1584154156138154e7 0.0
1.1584154156138154e7 -3.7709060897376784e6 0.0
0.0 0.0 0.0

-1.8515934181817533e6 2.1226564705813215e6 0.0
2.1226564705813215e6 1.5467255080098687e6 0.0
0.0 0.0 0.0

-991231.6385966495 9.56371942917598e6 0.0
9.56371942917598e6 1.3789701445635553e6 0.0
0.0 0.0 0.0

-5.458450561966114e6 6.009174004563575e6 0.0
6.009174004563575e6 1.926051397875184e6 0.0
0.0 0.0 0.0

-101025.36453573336 8.512723547051566e6 0.0
8.512723547051566e6 -4.633190223202187e6 0.0
0.0 0.0 0.0

-7.282498751394109e6 1.4066211499536311e7 0.0
1.4066211499536311e7 2.974380616868581e6 0.0
0.0 0.0 0.0

-7.730753536343144e6 9.418942779316174e6 0.0
9.418942779316174e6 4.85551174474722e6 0.0
0.0 0.0 0.0

-1.2851478554868407e6 3.559077796087081e6 0.0
3.559077796087081e6 383151.29970369645 0.0
0.0 0.0 0.0

-3.334193638670457e6 1.0174043625768108e7 0.0
1.0174043625768108e7 465792.80006799474 0.0
0.0 0.0 0.0

-7.858796625632091e6 9.707661726264754e6 0.0
9.707661726264754e6 4.861307895620255e6 0.0
0.0 0.0 0.0

-7.204802921202909e6 9.666511267671483e6 0.0
9.666511267671483e6 4.402794828337807e6 0.0
0.0 0.0 0.0

-295814.90162700904 9.107011461124102e6 0.0
9.107011461124102e6 -36736.56386136077 0.0
0.0 0.0 0.0

-590397.6769699086 7.585165567212307e6 0.0
7.585165567212307e6 -3.302753345539283e6 0.0
0.0 0.0 0.0

7.140694768733237e6 9.877736695355175e6 0.0
9.877736695355175e6 -1.6165975755707286e6 0.0
0.0 0.0 0.0

-1.022054500385584e7 -3.7415314744323697e6 0.0
-3.7415314744323697e6 3.5126497040557745e6 0.0
0.0 0.0 0.0

-7.565170751968044e6 7.512502765694244e6 0.0
7.512502765694244e6 2.3005240521840723e6 0.0
0.0 0.0 0.0

1.3642389144786717e6 5.612862128571382e6 0.0
5.612862128571382e6 -5.968957418383874e6 0.0
0.0 0.0 0.0

-2.784350228837231e6 9.229151879582783e6 0.0
9.229151879582783e6 -1.5739075489331933e6 0.0
0.0 0.0 0.0

-6.046255382970362e6 8.288575996136129e6 0.0
8.288575996136129e6 3.4976802354598874e6 0.0
0.0 0.0 0.0

-4.912682625399584e6 1.658625773581025e6 0.0
1.658625773581025e6 4.717853753307772e6 0.0
0.0 0.0 0.0

90750.82970011234 7.229159846913931e6 0.0
7.229159846913931e6 -4.887764173963484e6 0.0
0.0 0.0 0.0

-863960.8405385145 7.831475455258775e6 0.0
7.831475455258775e6 -4.887399802113362e6 0.0
0.0 0.0 0.0

1.9631619279938857e6 8.049333283305041e6 0.0
8.049333283305041e6 -1.1746835886445157e6 0.0
0.0 0.0 0.0

-1.6266703623928953e7 9.483800656272551e6 0.0
9.483800656272551e6 7.615639941767234e6 0.0
0.0 0.0 0.0

-1.7510780321936721e6 5.800698934252404e6 0.0
5.800698934252404e6 -776806.8126488121 0.0
0.0 0.0 0.0

-5.086111184772298e6 8.780255905145064e6 0.0
8.780255905145064e6 2.6924703864518856e6 0.0
0.0 0.0 0.0

-5.664903761692598e6 9.619121080650287e6 0.0
9.619121080650287e6 2.9649935034975656e6 0.0
0.0 0.0 0.0

-5.734413220015439e6 -1.7887725166355933e6 0.0
-1.7887725166355933e6 1.231638147153825e7 0.0
0.0 0.0 0.0

-191396.24107911924 2.4820613905264414e6 0.0
2.4820613905264414e6 -794087.1481361671 0.0
0.0 0.0 0.0

-934148.3901238496 7.731562261056494e6 0.0
7.731562261056494e6 -3.5359393976181177e6 0.0
0.0 0.0 0.0

-2.5190254849653724e6 1.4623054672283193e6 0.0
1.4623054672283193e6 3.033963990412844e6 0.0
0.0 0.0 0.0

-1.1972532981827154e6 8.91207920182894e6 0.0
8.91207920182894e6 -3.381206743800035e6 0.0
0.0 0.0 0.0

1.7783506357530828e6 9.779780827783698e6 0.0
9.779780827783698e6 -3.160399271259492e6 0.0
0.0 0.0 0.0

-274141.6606309265 4.467788944353409e6 0.0
4.467788944353409e6 -2.7264461184429624e6 0.0
0.0 0.0 0.0

-5.804550668449117e6 7.877223928445515e6 0.0
7.877223928445515e6 1.801065535798463e6 0.0
0.0 0.0 0.0

-7.408006270873241e6 9.166359020983437e6 0.0
9.166359020983437e6 4.1311032911029547e6 0.0
0.0 0.0 0.0

-728750.7781810818 6.201608378158468e6 0.0
6.201608378158468e6 -2.429169144842467e6 0.0
0.0 0.0 0.0

-308136.61084189866 9.1103141102456e6 0.0
9.1103141102456e6 -1.0271220036795167e6 0.0
0.0 0.0 0.0

-800190.22896039 7.730968821609972e6 0.0
7.730968821609972e6 -3.0875496058984348e6 0.0
0.0 0.0 0.0

-901678.2775280321 7.842015483540301e6 0.0
7.842015483540301e6 -4.893161954265115e6 0.0
0.0 0.0 0.0

-662543.1795262365 3.2871292266590423e6 0.0
3.2871292266590423e6 -441159.3153413215 0.0
0.0 0.0 0.0

-1.8010771994528363e6 7.23317889447574e6 0.0
7.23317889447574e6 -832988.0085678442 0.0
0.0 0.0 0.0

-2.0980737754949625e6 1.107660218697345e7 0.0
1.107660218697345e7 -1.8283864131761244e6 0.0
0.0 0.0 0.0

54103.39054729184 6.808916632721023e6 0.0
6.808916632721023e6 -3.967368562102065e6 0.0
0.0 0.0 0.0

-1.308374446512356e7 8.45201928887157e6 0.0
8.45201928887157e6 3.4317692903704457e6 0.0
0.0 0.0 0.0

1.3087761174571535e6 1.022126741442208e7 0.0
1.022126741442208e7 -3.911429902473437e6 0.0
0.0 0.0 0.0

5.434689194853965e6 8.58950546022601e6 0.0
8.58950546022601e6 -4.2519464153736755e6 0.0
0.0 0.0 0.0

-1.146231170352932e7 8.968075293912454e6 0.0
8.968075293912454e6 7.163704518294547e6 0.0
0.0 0.0 0.0

-545195.8041802131 3.512446508708599e6 0.0
3.512446508708599e6 -502901.9975768904 0.0
0.0 0.0 0.0

-2.3327443954742327e6 8.052838437278685e6 0.0
8.052838437278685e6 -1.8556355950665427e6 0.0
0.0 0.0 0.0

-3.736416425708775e6 9.687773693113893e6 0.0
9.687773693113893e6 349907.7020497089 0.0
0.0 0.0 0.0

-1.1482892786905702e7 7.077251652832017e6 0.0
7.077251652832017e6 4.876867805641218e6 0.0
0.0 0.0 0.0

-467579.28325444413 8.342921352123709e6 0.0
8.342921352123709e6 -5.727915027641927e6 0.0
0.0 0.0 0.0

-233752.2970499138 9.49555960336784e6 0.0
9.49555960336784e6 -417288.46509007184 0.0
0.0 0.0 0.0

-395295.8478068395 8.073376196979016e6 0.0
8.073376196979016e6 -5.063786468755205e6 0.0
0.0 0.0 0.0

-1.195612879930092e7 7.877625570738757e6 0.0
7.877625570738757e6 6.849276381900123e6 0.0
0.0 0.0 0.0

-4.494123957662186e6 1.0474912674637888e7 0.0
1.0474912674637888e7 -78129.82484032959 0.0
0.0 0.0 0.0

-2.6303128735210677e6 9.428175683909854e6 0.0
9.428175683909854e6 -45136.96825061925 0.0
0.0 0.0 0.0

464616.0742552243 7.609925435449794e6 0.0
7.609925435449794e6 -5.316841176787486e6 0.0
0.0 0.0 0.0

-7.274971985308545e6 1.787409547887346e6 0.0
1.787409547887346e6 8.455937981493242e6 0.0
0.0 0.0 0.0

-2.647338034761225e6 6.709680914712076e6 0.0
6.709680914712076e6 -858976.7364661355 0.0
0.0 0.0 0.0

965771.3395406264 1.1041173183651792e7 0.0
1.1041173183651792e7 -3.3437547780807316e6 0.0
0.0 0.0 0.0

-466532.55274600047 8.194572170746006e6 0.0
8.194572170746006e6 -5.412037476612462e6 0.0
0.0 0.0 0.0

-6.096169790719816e6 8.636611297177808e6 0.0
8.636611297177808e6 2.4380269286547755e6 0.0
0.0 0.0 0.0

-4.397373008003937e6 1.779232506001314e7 0.0
1.779232506001314e7 -6.120875231080505e6 0.0
0.0 0.0 0.0

-2.6040197876561703e6 1.0057410609323533e7 0.0
1.0057410609323533e7 104350.59424695722 0.0
0.0 0.0 0.0

-7.00246573615131e6 8.586428390536817e6 0.0
8.586428390536817e6 3.038713895468374e6 0.0
0.0 0.0 0.0

-3.5922231554624047e6 5.789072200362376e6 0.0
5.789072200362376e6 2.2322963830170427e6 0.0
0.0 0.0 0.0

27677.497772787232 1.0411040891175862e7 0.0
1.0411040891175862e7 -3.263604649102383e6 0.0
0.0 0.0 0.0

-5.119678692101823e6 9.51073263805736e6 0.0
9.51073263805736e6 2.532666634224071e6 0.0
0.0 0.0 0.0

-220576.40891374182 8.225016326379343e6 0.0
8.225016326379343e6 -5.554617859818077e6 0.0
0.0 0.0 0.0

632090.1946520312 6.030371309418126e6 0.0
6.030371309418126e6 -5.020322630440889e6 0.0
0.0 0.0 0.0

-590053.8575704182 8.1547119580581505e6 0.0
8.1547119580581505e6 -5.1898500043655615e6 0.0
0.0 0.0 0.0

-6.174418800684819e6 9.832460253427133e6 0.0
9.832460253427133e6 3.4487197928207465e6 0.0
0.0 0.0 0.0

-212558.70767970235 8.669515365568474e6 0.0
8.669515365568474e6 -708528.9648325118 0.0
0.0 0.0 0.0

-10577.85078915369 7.174159358174035e6 0.0
7.174159358174035e6 -35259.57496101467 0.0
0.0 0.0 0.0

-5.958093156728013e6 5.322804100321496e6 0.0
5.322804100321496e6 6.695059492394744e6 0.0
0.0 0.0 0.0

-1.5556283391858998e6 5.625936693165427e6 0.0
5.625936693165427e6 -840119.2563840874 0.0
0.0 0.0 0.0

-280630.36263313855 1.1203668245439513e7 0.0
1.1203668245439513e7 2.958556454215232e6 0.0
0.0 0.0 0.0

-6.056482716313219e6 917150.9284971826 0.0
917150.9284971826 5.7923927016175855e6 0.0
0.0 0.0 0.0

1.6974967436473519e6 6.541674212747945e6 0.0
6.541674212747945e6 -7.099604187450564e6 0.0
0.0 0.0 0.0

-187089.92403562926 8.26501070636683e6 0.0
8.26501070636683e6 -5.175393196290949e6 0.0
0.0 0.0 0.0

-6.672258975269e6 8.882431017759798e6 0.0
8.882431017759798e6 3.2504551749863923e6 0.0
0.0 0.0 0.0

2.5874543109514546e6 8.601399777990768e6 0.0
8.601399777990768e6 1.3903594183575418e6 0.0
0.0 0.0 0.0

-2.0638568760676333e6 1.838357109717865e6 0.0
1.838357109717865e6 1.1995544218314618e6 0.0
0.0 0.0 0.0

-1.223062885962398e7 8.370317847053663e6 0.0
8.370317847053663e6 4.656605555038553e6 0.0
0.0 0.0 0.0

-2.312706392619616e6 9.369516262009487e6 0.0
9.369516262009487e6 657085.2395067423 0.0
0.0 0.0 0.0

-1.3343243288884446e7 7.348244727693141e6 0.0
7.348244727693141e6 6.778257648755835e6 0.0
0.0 0.0 0.0

1.564384597487688e6 6.568182768921861e6 0.0
6.568182768921861e6 -7.129026052470091e6 0.0
0.0 0.0 0.0

-4.657504959300708e6 1.2581588350717995e7 0.0
1.2581588350717995e7 941562.0678848331 0.0
0.0 0.0 0.0

-1.1555194610314127e7 4.198849773151681e6 0.0
4.198849773151681e6 1.5811370569843479e7 0.0
0.0 0.0 0.0

-4.569391399567763e6 9.14385939493374e6 0.0
9.14385939493374e6 2.404497458189487e6 0.0
0.0 0.0 0.0

-729284.0862012367 8.989179204897344e6 0.0
8.989179204897344e6 -979266.2249270236 0.0
0.0 0.0 0.0

-208290.72446241693 4.967058742267546e6 0.0
4.967058742267546e6 -1.2289893274848002e6 0.0
0.0 0.0 0.0

-1.266111445296323e6 8.877072107340973e6 0.0
8.877072107340973e6 561346.2062666989 0.0
0.0 0.0 0.0

-2.3075963410127577e6 9.416010576814469e6 0.0
9.416010576814469e6 1.0454133365761075e6 0.0
0.0 0.0 0.0

-688713.255835878 4.712962576176684e6 0.0
4.712962576176684e6 -2.3539025074102622e6 0.0
0.0 0.0 0.0

-1.697692304704544e6 9.75019125994243e6 0.0
9.75019125994243e6 -58842.73187782656 0.0
0.0 0.0 0.0

822666.5498864881 1.066486268553219e7 0.0
1.066486268553219e7 -3.259629054349646e6 0.0
0.0 0.0 0.0

-1.6577900534572166e6 5.793362508063428e6 0.0
5.793362508063428e6 -537869.1500100543 0.0
0.0 0.0 0.0

-77907.75599762751 8.113761428161077e6 0.0
8.113761428161077e6 -5.430663196834686e6 0.0
0.0 0.0 0.0

-2.2318818604393415e6 7.756291638041562e6 0.0
7.756291638041562e6 -479206.67067751754 0.0
0.0 0.0 0.0

-3.840303212354956e6 6.428047560252774e6 0.0
6.428047560252774e6 4.617920360484794e6 0.0
0.0 0.0 0.0

-640627.3180943769 3.0961428027434964e6 0.0
3.0961428027434964e6 -234383.19663593135 0.0
0.0 0.0 0.0

-3.629864724484193e6 9.058478376853578e6 0.0
9.058478376853578e6 401204.15840795287 0.0
0.0 0.0 0.0

-4.677036489561448e6 9.161511428728878e6 0.0
9.161511428728878e6 2.4106938850008515e6 0.0
0.0 0.0 0.0

-2.7842501309154304e6 1.3892085966325995e7 0.0
1.3892085966325995e7 -1.2004886158600077e6 0.0
0.0 0.0 0.0

-3.523942312780372e6 1.6014352427499401e6 0.0
1.6014352427499401e6 2.779584216991172e6 0.0
0.0 0.0 0.0

-140785.67601394374 8.1779438057463e6 0.0
8.1779438057463e6 -5.525831864307803e6 0.0
0.0 0.0 0.0

-5.020664589444731e6 9.33975796341716e6 0.0
9.33975796341716e6 2.64320455420602e6 0.0
0.0 0.0 0.0

89885.22079593991 9.361474204895062e6 0.0
9.361474204895062e6 -3.6023868900606935e6 0.0
0.0 0.0 0.0

-1.9925004724672418e6 5.795248207686521e6 0.0
5.795248207686521e6 -1.1760511230828797e6 0.0
0.0 0.0 0.0

-408472.1374179608 3.048640547906803e6 0.0
3.048640547906803e6 -590199.1067611803 0.0
0.0 0.0 0.0

-7.320601838795575e6 8.981261539576473e6 0.0
8.981261539576473e6 3.8534300916460375e6 0.0
0.0 0.0 0.0

-3.8895003984704535e6 8.01850679831548e6 0.0
8.01850679831548e6 1.249220715847012e6 0.0
0.0 0.0 0.0

-1.0394359599919469e6 8.84329456811809e6 0.0
8.84329456811809e6 2.388328380662694e6 0.0
0.0 0.0 0.0

-133152.70871860906 3.1508726363673205e6 0.0
3.1508726363673205e6 -633462.8608831428 0.0
0.0 0.0 0.0

1.3962124816927467e6 7.644416000578004e6 0.0
7.644416000578004e6 -1.514741741908805e6 0.0
0.0 0.0 0.0

1.281562292720999e6 7.539752922142434e6 0.0
7.539752922142434e6 -7.617075065497797e6 0.0
0.0 0.0 0.0

-7.866820124684814e6 1.4027748993204119e7 0.0
1.4027748993204119e7 1.4469310101732085e6 0.0
0.0 0.0 0.0

-3.002691487553577e6 9.135704172030907e6 0.0
9.135704172030907e6 1.507077444804631e6 0.0
0.0 0.0 0.0

-693927.2182048401 5.851083672207877e6 0.0
5.851083672207877e6 -1.5301879856551106e6 0.0
0.0 0.0 0.0

-978854.6052614065 9.991520982309869e6 0.0
9.991520982309869e6 -312418.1897359395 0.0
0.0 0.0 0.0

1.0517722374339546e6 7.855231382398097e6 0.0
7.855231382398097e6 -7.028105792822951e6 0.0
0.0 0.0 0.0

-444697.47278567345 8.781127972423246e6 0.0
8.781127972423246e6 -4.5429907033975925e6 0.0
0.0 0.0 0.0

-9.927098777146589e6 9.495075039917244e6 0.0
9.495075039917244e6 5.864298676057981e6 0.0
0.0 0.0 0.0

-269002.0337810106 8.90644104328856e6 0.0
8.90644104328856e6 -896673.3830367852 0.0
0.0 0.0 0.0

-3.2933782227086434e6 9.205009054052623e6 0.0
9.205009054052623e6 1.8311744752754788e6 0.0
0.0 0.0 0.0

-4.1811212504378473e6 8.850919563241608e6 0.0
8.850919563241608e6 1.5661697460223283e6 0.0
0.0 0.0 0.0

-2.0250391546946582e6 8.588188862902893e6 0.0
8.588188862902893e6 -1.8442547139237828e6 0.0
0.0 0.0 0.0

1.7690418920229743e6 8.083351102185945e6 0.0
8.083351102185945e6 -1.6586799174491526e6 0.0
0.0 0.0 0.0

-4.384767593153959e6 7.314874854814512e6 0.0
7.314874854814512e6 3.121401520512308e6 0.0
0.0 0.0 0.0

-1.2497248977162156e6 9.894227018687177e6 0.0
9.894227018687177e6 168039.6072954465 0.0
0.0 0.0 0.0

-1.109790980688612e7 1.86258045022679e6 0.0
1.86258045022679e6 1.958304638740494e7 0.0
0.0 0.0 0.0

-1.711965323957753e6 5.723984947039873e6 0.0
5.723984947039873e6 -1.069143933093757e6 0.0
0.0 0.0 0.0

-1.0917341062193988e6 7.586211911572438e6 0.0
7.586211911572438e6 -4.832639414841355e6 0.0
0.0 0.0 0.0

-1.4093893983835746e6 1.0024600005863173e7 0.0
1.0024600005863173e7 -3.0239267275758423e6 0.0
0.0 0.0 0.0

-2.756895178345272e6 7.374482848268341e6 0.0
7.374482848268341e6 395117.37646574166 0.0
0.0 0.0 0.0

-2.6157344549982497e6 9.232411640894582e6 0.0
9.232411640894582e6 1.0154556806502234e6 0.0
0.0 0.0 0.0

-302078.49785396294 9.056977028560061e6 0.0
9.056977028560061e6 -1.0069283726438667e6 0.0
0.0 0.0 0.0

-5.674702858265971e6 9.718132655721784e6 0.0
9.718132655721784e6 2.939610695076838e6 0.0
0.0 0.0 0.0

-1.480212895658977e6 1.001217924241096e7 0.0
1.001217924241096e7 -63688.27294322831 0.0
0.0 0.0 0.0

-9.334531757979905e6 -3.203707458597947e6 0.0
-3.203707458597947e6 1.6321928303920735e7 0.0
0.0 0.0 0.0

-1.558971776365678e6 3.5626912184634325e6 0.0
3.5626912184634325e6 439337.0808549875 0.0
0.0 0.0 0.0

80055.67008583271 9.643667610018225e6 0.0
9.643667610018225e6 -3.4154560073788995e6 0.0
0.0 0.0 0.0

-9.511780676554518e6 7.097508225035119e6 0.0
7.097508225035119e6 2.5234102745391973e6 0.0
0.0 0.0 0.0

-597352.8930454748 3.1781172390405727e6 0.0
3.1781172390405727e6 -988409.7194544644 0.0
0.0 0.0 0.0

-1.0835272778468687e7 495178.1844761509 0.0
495178.1844761509 1.3204300658561781e7 0.0
0.0 0.0 0.0

-835393.1579636468 -895862.3997838693 0.0
-895862.3997838693 542367.1295201115 0.0
0.0 0.0 0.0

-1.1684544292313212e6 2.279215372820785e6 0.0
2.279215372820785e6 185163.2243090996 0.0
0.0 0.0 0.0

-724305.2565065394 7.139686939281556e6 0.0
7.139686939281556e6 -3.628596678065862e6 0.0
0.0 0.0 0.0

-4.1686785445220694e6 8.082848212371001e6 0.0
8.082848212371001e6 1.1837674474046065e6 0.0
0.0 0.0 0.0

-4.108062309351007e6 6.49894119868425e6 0.0
6.49894119868425e6 737711.2963604543 0.0
0.0 0.0 0.0

-2.9143066984079536e6 8.857848219231008e6 0.0
8.857848219231008e6 1.5908031295808475e6 0.0
0.0 0.0 0.0

-318368.29090691986 8.148402714694804e6 0.0
8.148402714694804e6 -4.954565136685446e6 0.0
0.0 0.0 0.0

-1.966860803401616e6 7.9568894099732125e6 0.0
7.9568894099732125e6 2.115039375655789e6 0.0
0.0 0.0 0.0

-1.0904335486982465e6 8.131261589532611e6 0.0
8.131261589532611e6 -5.188724395840036e6 0.0
0.0 0.0 0.0

-2.0109310750998145e6 9.543081716758437e6 0.0
9.543081716758437e6 123794.5148675692 0.0
0.0 0.0 0.0

945427.5211167629 8.199008335155168e6 0.0
8.199008335155168e6 -7.618605107800353e6 0.0
0.0 0.0 0.0

986118.3172379578 7.834298926289144e6 0.0
7.834298926289144e6 -6.724967177330586e6 0.0
0.0 0.0 0.0

-3.448817195172147e6 9.494306565621307e6 0.0
9.494306565621307e6 1.693339171785696e6 0.0
0.0 0.0 0.0

-9.516426660173599e6 8.49022535763832e6 0.0
8.49022535763832e6 5.237917179731259e6 0.0
0.0 0.0 0.0

-5.07932699395459e6 8.474840010243824e6 0.0
8.474840010243824e6 2.65663111158855e6 0.0
0.0 0.0 0.0

-1.8578328681189967e6 7.260239655942245e6 0.0
7.260239655942245e6 -878120.1917238745 0.0
0.0 0.0 0.0

-3.217498151165454e6 2.7123214808885427e6 0.0
2.7123214808885427e6 2.820453513387534e6 0.0
0.0 0.0 0.0

301017.3576528004 8.900553625955768e6 0.0
8.900553625955768e6 -3.581785498446512e6 0.0
0.0 0.0 0.0

1.9453021572289413e6 1.0743397934832511e7 0.0
1.0743397934832511e7 -4.33104711126064e6 0.0
0.0 0.0 0.0

-9.968095973020015e6 5.150253302694498e6 0.0
5.150253302694498e6 1.7162454633209843e7 0.0
0.0 0.0 0.0

-1.2061367467452574e6 9.823679073337976e6 0.0
9.823679073337976e6 475616.3929824444 0.0
0.0 0.0 0.0

-5.307728883233055e6 9.123181674102448e6 0.0
9.123181674102448e6 2.3955694242811874e6 0.0
0.0 0.0 0.0

-867994.9415245011 7.583976923649249e6 0.0
7.583976923649249e6 -4.60177002667446e6 0.0
0.0 0.0 0.0

-1.0583889643939875e7 2.3965658704900844e6 0.0
2.3965658704900844e6 1.2958229220664896e7 0.0
0.0 0.0 0.0

-1.5527826117159708e6 9.68857426534718e6 0.0
9.68857426534718e6 183247.24084399466 0.0
0.0 0.0 0.0

-2.0217118936070744e6 9.924180460007744e6 0.0
9.924180460007744e6 -2.594822458933594e6 0.0
0.0 0.0 0.0

-229475.24761770037 8.384675360397979e6 0.0
8.384675360397979e6 -4.96783872652274e6 0.0
0.0 0.0 0.0

1.0238749418644696e6 7.571909296554522e6 0.0
7.571909296554522e6 -6.866863167573181e6 0.0
0.0 0.0 0.0

488236.0918905998 7.631533661769403e6 0.0
7.631533661769403e6 -5.955765181977947e6 0.0
0.0 0.0 0.0

-530840.2844146802 8.957295054621086e6 0.0
8.957295054621086e6 -6.245254276976962e6 0.0
0.0 0.0 0.0

-5.404384081958805e6 9.638383933991417e6 0.0
9.638383933991417e6 2.7458567628863975e6 0.0
0.0 0.0 0.0

-4.4009800827684505e6 8.915058656799467e6 0.0
8.915058656799467e6 2.308174464879902e6 0.0
0.0 0.0 0.0

-132867.06721966527 9.28246052703925e6 0.0
9.28246052703925e6 -4.079737844069038e6 0.0
0.0 0.0 0.0

3.2513373281187746e6 1.1241320892467905e7 0.0
1.1241320892467905e7 -4.941754339760123e6 0.0
0.0 0.0 0.0

-9.58879595144689e6 -233441.07016622522 0.0
-233441.07016622522 1.4454385252166977e7 0.0
0.0 0.0 0.0

921497.7328796485 7.962565443144585e6 0.0
7.962565443144585e6 -7.181252359720338e6 0.0
0.0 0.0 0.0

773352.6127885063 7.69769613811929e6 0.0
7.69769613811929e6 -5.9096818406611355e6 0.0
0.0 0.0 0.0

-1.1201018258728467e7 1.5868512336095101e6 0.0
1.5868512336095101e6 2.2398719668494835e7 0.0
0.0 0.0 0.0

3.33905588766209e6 8.151468803865247e6 0.0
8.151468803865247e6 -912028.1163886713 0.0
0.0 0.0 0.0

-9.383798806066696e6 1.5388717884972082e6 0.0
1.5388717884972082e6 1.4544792718250582e7 0.0
0.0 0.0 0.0

-417630.79825495626 4.303985238433011e6 0.0
4.303985238433011e6 -906311.9178171587 0.0
0.0 0.0 0.0

-5.936630013316486e6 9.78304427409713e6 0.0
9.78304427409713e6 3.118354050955501e6 0.0
0.0 0.0 0.0

-123926.06122035813 7.25605904189049e6 0.0
7.25605904189049e6 -4.59695708750676e6 0.0
0.0 0.0 0.0

-7.304082403838377e6 9.63137501775486e6 0.0
9.63137501775486e6 4.0715214109980566e6 0.0
0.0 0.0 0.0

-8.525661303576268e6 3.6947295391048742e6 0.0
3.6947295391048742e6 1.1978547269028798e7 0.0
0.0 0.0 0.0

-1.1371774921561019e6 3.9496565778084346e6 0.0
3.9496565778084346e6 -77798.34889751044 0.0
0.0 0.0 0.0

-4.295302192373648e6 1.3033265488360364e7 0.0
1.3033265488360364e7 479532.8297660758 0.0
0.0 0.0 0.0

-2.576859724745936e6 9.182458606725184e6 0.0
9.182458606725184e6 1.5507729094713666e6 0.0
0.0 0.0 0.0

-3.847855469750008e6 1.0675487307750663e7 0.0
1.0675487307750663e7 230213.00631617964 0.0
0.0 0.0 0.0

-3.685615472191427e6 8.94232984620103e6 0.0
8.94232984620103e6 1.5069482073887996e6 0.0
0.0 0.0 0.0

-222425.14191369573 8.328935757916996e6 0.0
8.328935757916996e6 -5.024589519252992e6 0.0
0.0 0.0 0.0

-752341.8140238478 1.1465627068067176e7 0.0
1.1465627068067176e7 -2.592671071555992e6 0.0
0.0 0.0 0.0

-3.0278136706109988e6 1.2039044588820629e7 0.0
1.2039044588820629e7 4.356256254733173e6 0.0
0.0 0.0 0.0

-3.5589920149940522e6 -2.169912214190012e6 0.0
-2.169912214190012e6 4.560504938229863e6 0.0
0.0 0.0 0.0

-2.1702442691566674e6 3.5834846886852845e6 0.0
3.5834846886852845e6 352917.9473646049 0.0
0.0 0.0 0.0

-73829.72141277045 7.731895370507741e6 0.0
7.731895370507741e6 -246098.8998353131 0.0
0.0 0.0 0.0

268641.3762266733 8.627688569806412e6 0.0
8.627688569806412e6 895471.1580620582 0.0
0.0 0.0 0.0

-7.958431514460462e6 1.4808488150620688e7 0.0
1.4808488150620688e7 493561.3354808283 0.0
0.0 0.0 0.0

1.3997870621975046e6 6.6484235697800685e6 0.0
6.6484235697800685e6 -5.522124494205316e6 0.0
0.0 0.0 0.0

-7.9240744628869835e6 9.941220699110586e6 0.0
9.941220699110586e6 4.4745595267841e6 0.0
0.0 0.0 0.0

-1.144519246959695e7 -1.7321648278039652e6 0.0
-1.7321648278039652e6 7.908481645524238e6 0.0
0.0 0.0 0.0

-1.3252767376726128e6 1.0211410685652707e7 0.0
1.0211410685652707e7 -3.0769930841756975e6 0.0
0.0 0.0 0.0

-8.77859019727571e6 4.658046057949788e6 0.0
4.658046057949788e6 9.786015594815921e6 0.0
0.0 0.0 0.0

282564.8845666081 9.273873218174499e6 0.0
9.273873218174499e6 -3.727463885177843e6 0.0
0.0 0.0 0.0

-2.958773311247815e6 9.087509044080287e6 0.0
9.087509044080287e6 1.2123786516312803e6 0.0
0.0 0.0 0.0

-3.9885450345059894e6 7.857593834242266e6 0.0
7.857593834242266e6 954612.0279656549 0.0
0.0 0.0 0.0

153487.3166745936 9.737997968831535e6 0.0
9.737997968831535e6 -3.5865253516865377e6 0.0
0.0 0.0 0.0

1.6851917802451542e6 6.507759506256678e6 0.0
6.507759506256678e6 -7.1542551476722425e6 0.0
0.0 0.0 0.0

-1.040344776338658e6 6.382842873650511e6 0.0
6.382842873650511e6 -3.4678161123621846e6 0.0
0.0 0.0 0.0

961190.5925201434 1.1887869242371412e7 0.0
1.1887869242371412e7 -3.6147521479028026e6 0.0
0.0 0.0 0.0

-323680.51442516595 9.230744272836074e6 0.0
9.230744272836074e6 -4.1153940888951346e6 0.0
0.0 0.0 0.0

-113466.4813523533 7.360769472971793e6 0.0
7.360769472971793e6 1.0971082892974897e6 0.0
0.0 0.0 0.0

868123.6975922137 7.884310702628951e6 0.0
7.884310702628951e6 -6.802892225848742e6 0.0
0.0 0.0 0.0

-3.754256212419964e6 8.623300514947632e6 0.0
8.623300514947632e6 -377672.25750109146 0.0
0.0 0.0 0.0

-2.9209603647961607e6 9.146567655478777e6 0.0
9.146567655478777e6 4.593057519178322e6 0.0
0.0 0.0 0.0

-1.3755618921758044e6 1.4960680864568444e7 0.0
1.4960680864568444e7 -5.462256468112923e6 0.0
0.0 0.0 0.0

853626.962259776 7.746401705355167e6 0.0
7.746401705355167e6 -6.380408526599867e6 0.0
0.0 0.0 0.0

-8.56037350818517e6 -1.8400842500639712e6 0.0
-1.8400842500639712e6 6.931415292489254e6 0.0
0.0 0.0 0.0

-994221.1189079994 9.386335656738931e6 0.0
9.386335656738931e6 871614.5534923472 0.0
0.0 0.0 0.0

-7.966698887703581e6 9.66558613504019e6 0.0
9.66558613504019e6 4.494497436885499e6 0.0
0.0 0.0 0.0

-2.680632881765794e6 8.867907301448874e6 0.0
8.867907301448874e6 -1.117966002073334e6 0.0
0.0 0.0 0.0

-4.974350754583223e6 9.377663985518193e6 0.0
9.377663985518193e6 2.6369031708387146e6 0.0
0.0 0.0 0.0

-1.2958510259481208e7 4.0523808120231894e6 0.0
4.0523808120231894e6 1.7441807674639143e7 0.0
0.0 0.0 0.0

-1.2899758586528015e6 8.101568896062612e6 0.0
8.101568896062612e6 -2.6695131687094793e6 0.0
0.0 0.0 0.0

-5.881738914717196e6 1.298390380082963e7 0.0
1.298390380082963e7 330675.1841340943 0.0
0.0 0.0 0.0

-1.5506432174095924e6 5.685375708406525e6 0.0
5.685375708406525e6 -585534.3416171558 0.0
0.0 0.0 0.0

-1.0887410516330827e7 -780082.6583568683 0.0
-780082.6583568683 5.278205596061805e6 0.0
0.0 0.0 0.0

-2.179616990722483e6 6.218116109564646e6 0.0
6.218116109564646e6 -495863.4013090611 0.0
0.0 0.0 0.0

-2.783415284364734e6 761629.216178657 0.0
761629.216178657 1.4687393932958986e6 0.0
0.0 0.0 0.0

-7.23504922208799e6 5.246985350765141e6 0.0
5.246985350765141e6 1.0682525975917378e7 0.0
0.0 0.0 0.0

-6.454026769104727e6 9.904790115757626e6 0.0
9.904790115757626e6 3.684827141947112e6 0.0
0.0 0.0 0.0

-8.769357552274024e6 9.77602906120857e6 0.0
9.77602906120857e6 5.05226451272387e6 0.0
0.0 0.0 0.0

-8.983128600624042e6 3.077822814692483e6 0.0
3.077822814692483e6 1.3936018965107335e7 0.0
0.0 0.0 0.0

-993882.011769821 6.54210604825195e6 0.0
6.54210604825195e6 -2.4581102780224e6 0.0
0.0 0.0 0.0

1.7483804228185085e6 9.377254517842064e6 0.0
9.377254517842064e6 -3.735032271889755e6 0.0
0.0 0.0 0.0

-766603.0531043551 6.858581645093104e6 0.0
6.858581645093104e6 -4.243160904881997e6 0.0
0.0 0.0 0.0

-1.135063972609988e6 4.1668068251392264e6 0.0
4.1668068251392264e6 1.053473844517269e6 0.0
0.0 0.0 0.0

-6.616554578387334e6 9.96830544393389e6 0.0
9.96830544393389e6 3.58459790941316e6 0.0
0.0 0.0 0.0

-5.157696974459933e6 5.790004817831539e6 0.0
5.790004817831539e6 5.331276344496307e6 0.0
0.0 0.0 0.0

706211.966511745 7.791719029314026e6 0.0
7.791719029314026e6 -6.451901589349873e6 0.0
0.0 0.0 0.0

-7.601725945555177e6 7.57551845236549e6 0.0
7.57551845236549e6 1.437471428704544e6 0.0
0.0 0.0 0.0

-4.343042896373762e6 1.0586477222877596e7 0.0
1.0586477222877596e7 731405.7492615331 0.0
0.0 0.0 0.0

1.5448233138952912e6 6.817364619110628e6 0.0
6.817364619110628e6 -7.549971334589092e6 0.0
0.0 0.0 0.0

-1.9044700929447522e6 9.297288944832262e6 0.0
9.297288944832262e6 1.873387624690469e6 0.0
0.0 0.0 0.0

-3.9528431189388977e6 8.260633788131603e6 0.0
8.260633788131603e6 1.444640360141817e6 0.0
0.0 0.0 0.0

-1.0143119271266604e6 1.0115880151106438e7 0.0
1.0115880151106438e7 -2.925750199975348e6 0.0
0.0 0.0 0.0

-7.844140730906843e6 9.409323553654974e6 0.0
9.409323553654974e6 4.472939491957857e6 0.0
0.0 0.0 0.0

-4.0226682920041694e6 8.027517380940701e6 0.0
8.027517380940701e6 1.2459051744274287e6 0.0
0.0 0.0 0.0

-6.75814234131561e6 9.858236843537046e6 0.0
9.858236843537046e6 3.9812167263160814e6 0.0
0.0 0.0 0.0

-1.3333383496403776e6 5.071920792966569e6 0.0
5.071920792966569e6 -618807.0889524731 0.0
0.0 0.0 0.0

-254816.10925237747 9.576415208570106e6 0.0
9.576415208570106e6 1.391785755203883e6 0.0
0.0 0.0 0.0

-491435.3769490452 8.966286693857048e6 0.0
8.966286693857048e6 -4.393708536340891e6 0.0
0.0 0.0 0.0

-1.8874801906794875e6 6.129223343609382e6 0.0
6.129223343609382e6 -363866.2702168081 0.0
0.0 0.0 0.0

-944509.4484744607 9.66120428475753e6 0.0
9.66120428475753e6 -3.5988888699445985e6 0.0
0.0 0.0 0.0

-36135.11742979847 7.059978847877784e6 0.0
7.059978847877784e6 -3.8607969182377486e6 0.0
0.0 0.0 0.0

-1.125499363730939e6 9.056455371230215e6 0.0
9.056455371230215e6 4.549867911444443e6 0.0
0.0 0.0 0.0

-3.5077195078106434e6 345882.68157101684 0.0
345882.68157101684 4.739266249334821e6 0.0
0.0 0.0 0.0

-276381.8878141381 9.87715216394252e6 0.0
9.87715216394252e6 1.8857923856711728e6 0.0
0.0 0.0 0.0

-5.609374273242118e6 9.706852427400518e6 0.0
9.706852427400518e6 2.9513450806547846e6 0.0
0.0 0.0 0.0

-234105.80766367004 8.723510489932321e6 0.0
8.723510489932321e6 -4.4517114880057415e6 0.0
0.0 0.0 0.0

-4.855803274434593e6 1.2088173559733868e7 0.0
1.2088173559733868e7 1.152082038858675e6 0.0
0.0 0.0 0.0

-929144.8408190538 9.99746854173275e6 0.0
9.99746854173275e6 -303120.0597082124 0.0
0.0 0.0 0.0

192280.114706964 7.2192353730605e6 0.0
7.2192353730605e6 -4.546202955846146e6 0.0
0.0 0.0 0.0

-4.578149532592046e6 1.0873546592600893e7 0.0
1.0873546592600893e7 -82515.95875727595 0.0
0.0 0.0 0.0

-613036.6937283343 9.208610408245103e6 0.0
9.208610408245103e6 -4.157049874531094e6 0.0
0.0 0.0 0.0

-194821.09274890207 4.451542463045238e6 0.0
4.451542463045238e6 -1.2022890350782364e6 0.0
0.0 0.0 0.0

-4.373222644632621e6 1.0753723396798514e7 0.0
1.0753723396798514e7 3.475561529083157e6 0.0
0.0 0.0 0.0

-2.7009357048577494e6 9.271530979359904e6 0.0
9.271530979359904e6 1.2291463710962464e6 0.0
0.0 0.0 0.0

-5.866439522291123e6 9.786231453738796e6 0.0
9.786231453738796e6 3.2102300416390826e6 0.0
0.0 0.0 0.0

-1.173259841030893e6 9.624855166145956e6 0.0
9.624855166145956e6 376174.16582476126 0.0
0.0 0.0 0.0

-88053.10102133953 5.456785995248225e6 0.0
5.456785995248225e6 -1.213552687496434e6 0.0
0.0 0.0 0.0

-9.175234661738675e6 2.0393763267997042e6 0.0
2.0393763267997042e6 1.0847651308921758e7 0.0
0.0 0.0 0.0

-1.1138524633993758e6 9.91254535492222e6 0.0
9.91254535492222e6 -3.341998247364135e6 0.0
0.0 0.0 0.0

796072.0129470676 8.683583965262163e6 0.0
8.683583965262163e6 -7.16117189155868e6 0.0
0.0 0.0 0.0

-543236.6075613906 6.063131218012212e6 0.0
6.063131218012212e6 -1.219134839500167e6 0.0
0.0 0.0 0.0

-633091.4497329465 3.51208824659458e6 0.0
3.51208824659458e6 -522260.61160753516 0.0
0.0 0.0 0.0

-2.1624910279564126e6 7.604007178079509e6 0.0
7.604007178079509e6 -348428.74422741396 0.0
0.0 0.0 0.0

-4.795435172319972e6 1.0193631995108444e7 0.0
1.0193631995108444e7 1.1485247127990623e6 0.0
0.0 0.0 0.0

152452.95654624328 8.237694682908509e6 0.0
8.237694682908509e6 -6.098672912221755e6 0.0
0.0 0.0 0.0

4197.523267043522 7.155036975342601e6 0.0
7.155036975342601e6 -4.334087737770327e6 0.0
0.0 0.0 0.0

-5.93567199062171e6 9.770159831814675e6 0.0
9.770159831814675e6 3.1418267796680713e6 0.0
0.0 0.0 0.0

-3.841397438416657e6 1.1085579619185567e7 0.0
1.1085579619185567e7 235704.03642534977 0.0
0.0 0.0 0.0

-1.3439455272521518e7 8.87817426519318e6 0.0
8.87817426519318e6 7.810796266687501e6 0.0
0.0 0.0 0.0

-5.932908214844609e6 9.836742671614656e6 0.0
9.836742671614656e6 3.1225721690935246e6 0.0
0.0 0.0 0.0

-1.3781539696045147e7 7.15520194016652e6 0.0
7.15520194016652e6 6.980526021191313e6 0.0
0.0 0.0 0.0

-1.7936828381388392e6 1.007834607654216e7 0.0
1.007834607654216e7 -45259.34107976733 0.0
0.0 0.0 0.0

622997.9108736585 8.532404550066967e6 0.0
8.532404550066967e6 -6.91615832271864e6 0.0
0.0 0.0 0.0

-1.9595792291345778e6 5.900258769369903e6 0.0
5.900258769369903e6 -703063.4781406783 0.0
0.0 0.0 0.0

-7.7402515165232755e6 -268486.6281166585 0.0
-268486.6281166585 8.866538710294157e6 0.0
0.0 0.0 0.0

-1.038747843558184e7 -811148.3591435475 0.0
-811148.3591435475 1.4107002757761523e7 0.0
0.0 0.0 0.0

1.1751853581787748e6 6.798670593913032e6 0.0
6.798670593913032e6 -6.664861122172071e6 0.0
0.0 0.0 0.0

-3.6200589760308424e6 8.916591349224543e6 0.0
8.916591349224543e6 1.6746826337152985e6 0.0
0.0 0.0 0.0

-9.636287088324554e6 5.057057141540983e6 0.0
5.057057141540983e6 1.5913874862695877e7 0.0
0.0 0.0 0.0

-768799.7230914177 9.428773056933114e6 0.0
9.428773056933114e6 -3.866420198140645e6 0.0
0.0 0.0 0.0

-9.731933639276091e6 6.834698423507763e6 0.0
6.834698423507763e6 1.2567069036432665e7 0.0
0.0 0.0 0.0

-5.00155411790056e6 1.0373284672084618e7 0.0
1.0373284672084618e7 403713.7816051394 0.0
0.0 0.0 0.0

-7.381461322911322e6 1.2145924424812637e7 0.0
1.2145924424812637e7 2.4134733565297136e6 0.0
0.0 0.0 0.0

-842930.7139584968 9.866467061731039e6 0.0
9.866467061731039e6 -282131.85781724186 0.0
0.0 0.0 0.0

-766553.8274085654 3.762301271100017e6 0.0
3.762301271100017e6 -360389.0498909175 0.0
0.0 0.0 0.0

-976319.820650337 9.506215448425764e6 0.0
9.506215448425764e6 578719.46542618 0.0
0.0 0.0 0.0

-2.209481628191125e6 7.622937960091404e6 0.0
7.622937960091404e6 -378473.7726261121 0.0
0.0 0.0 0.0

1.2616940428204173e6 6.146107548929165e6 0.0
6.146107548929165e6 -6.382465182540405e6 0.0
0.0 0.0 0.0

6844.2442582856165 1.1198564395865804e7 0.0
1.1198564395865804e7 -3.0764401585233584e6 0.0
0.0 0.0 0.0

-8.410683966037383e6 2.183172065011197e6 0.0
2.183172065011197e6 5.521850809178181e6 0.0
0.0 0.0 0.0

-7.737514363906776e6 8.570920673349602e6 0.0
8.570920673349602e6 1.0106448158622668e6 0.0
0.0 0.0 0.0

-6.248219863907495e6 9.67091878697734e6 0.0
9.67091878697734e6 3.2400076917954856e6 0.0
0.0 0.0 0.0

-1.5794321903939391e6 5.605807138301481e6 0.0
5.605807138301481e6 -2.380704554739144e6 0.0
0.0 0.0 0.0

-2.3946591218633307e6 9.686689405317457e6 0.0
9.686689405317457e6 109694.66899528529 0.0
0.0 0.0 0.0

-7.292303023840742e6 1.0956192313935008e7 0.0
1.0956192313935008e7 3.4984470960499425e6 0.0
0.0 0.0 0.0

-2.240827980797899e6 9.10128321134801e6 0.0
9.10128321134801e6 2.2920920818774477e6 0.0
0.0 0.0 0.0

-1.4466133801281522e6 9.595948798790848e6 0.0
9.595948798790848e6 536056.0080762822 0.0
0.0 0.0 0.0

-1.184724294617131e6 5.477347452652312e6 0.0
5.477347452652312e6 -2.1832992198215188e6 0.0
0.0 0.0 0.0

-8.3176059576524645e6 9.966877933489203e6 0.0
9.966877933489203e6 4.854464750294834e6 0.0
0.0 0.0 0.0

-4.01245116615278e6 608462.0754812753 0.0
608462.0754812753 3.04295989696698e6 0.0
0.0 0.0 0.0

958162.5797339045 6.213852147046207e6 0.0
6.213852147046207e6 -4.73097335295117e6 0.0
0.0 0.0 0.0

-6.199468283509622e6 9.675610445080824e6 0.0
9.675610445080824e6 2.7691038277880237e6 0.0
0.0 0.0 0.0

-295230.1090110205 8.913297496378627e6 0.0
8.913297496378627e6 -4.310926079582742e6 0.0
0.0 0.0 0.0

-383547.26612620405 4.302132449649303e6 0.0
4.302132449649303e6 -1.1934400122959146e6 0.0
0.0 0.0 0.0

-843198.8752222984 4.518528261656937e6 0.0
4.518528261656937e6 -2.748793110394731e6 0.0
0.0 0.0 0.0

-7.424462721405638e6 7.482670891488658e6 0.0
7.482670891488658e6 4.693355953544667e6 0.0
0.0 0.0 0.0

-10678.264885432553 7.439415771649074e6 0.0
7.439415771649074e6 -4.285164402818043e6 0.0
0.0 0.0 0.0

-60582.89333280525 8.607708408683337e6 0.0
8.607708408683337e6 2.959534448491996e6 0.0
0.0 0.0 0.0

-1.481839337255065e6 5.31178649719973e6 0.0
5.31178649719973e6 -1.0442018736950117e6 0.0
0.0 0.0 0.0

-207950.3164836474 5.64528871200556e6 0.0
5.64528871200556e6 -1.795074287932315e6 0.0
0.0 0.0 0.0

-3.7139955535083227e6 1.345178322888739e7 0.0
1.345178322888739e7 -171316.1991779114 0.0
0.0 0.0 0.0

-1.4682630210887687e6 1.0091929456621843e6 0.0
1.0091929456621843e6 1.5103558134621433e6 0.0
0.0 0.0 0.0

-1.6350344533067644e6 8.477207931942254e6 0.0
8.477207931942254e6 -2.2602698656088123e6 0.0
0.0 0.0 0.0

789142.5204404427 7.651624251118219e6 0.0
7.651624251118219e6 -1.9724521308603256e6 0.0
0.0 0.0 0.0

-154959.53725831234 1.3270446452381512e7 0.0
1.3270446452381512e7 -4.634035643622012e6 0.0
0.0 0.0 0.0

-1.0722348399643002e6 8.984727813717555e6 0.0
8.984727813717555e6 -2.958587965156616e6 0.0
0.0 0.0 0.0

-99517.18539567664 1.1029144003118197e7 0.0
1.1029144003118197e7 2.7231888184641763e6 0.0
0.0 0.0 0.0

-4.856918424251889e6 9.008752665387332e6 0.0
9.008752665387332e6 2.5544139271256714e6 0.0
0.0 0.0 0.0

-5.827369028370905e6 755776.1861351166 0.0
755776.1861351166 6.529481586838251e6 0.0
0.0 0.0 0.0

-5.996992207450627e6 1.0017853001533775e7 0.0
1.0017853001533775e7 2.6314951546117626e6 0.0
0.0 0.0 0.0

-1.4060371172375767e6 9.335312465432273e6 0.0
9.335312465432273e6 1.593957010890578e6 0.0
0.0 0.0 0.0

-736591.3729435755 6.911319715275208e6 0.0
6.911319715275208e6 -3.583321654832198e6 0.0
0.0 0.0 0.0

1.6168957462576558e6 6.60447893823182e6 0.0
6.60447893823182e6 -6.867216779132542e6 0.0
0.0 0.0 0.0

-4.1229234354757904e6 7.901123206094427e6 0.0
7.901123206094427e6 945598.9592929867 0.0
0.0 0.0 0.0

-998191.5237971591 5.501751129338519e6 0.0
5.501751129338519e6 -926881.3423371896 0.0
0.0 0.0 0.0

-5.416314135216437e6 5.620199616423668e6 0.0
5.620199616423668e6 8.151418839371776e6 0.0
0.0 0.0 0.0

-126359.6075751714 8.543404624725176e6 0.0
8.543404624725176e6 -4.686158101622338e6 0.0
0.0 0.0 0.0

641930.5710677044 8.305959517567715e6 0.0
8.305959517567715e6 -6.823265058338805e6 0.0
0.0 0.0 0.0

-6.194035356590796e6 1.037206288123195e7 0.0
1.037206288123195e7 2.7562729509023027e6 0.0
0.0 0.0 0.0

-1.1352498967528194e6 9.724424981859917e6 0.0
9.724424981859917e6 177013.64148709568 0.0
0.0 0.0 0.0

-1.336016515336839e7 -878573.1581763654 0.0
-878573.1581763654 6.742982710631448e6 0.0
0.0 0.0 0.0

-46236.343697195174 1.1590689029508352e7 0.0
1.1590689029508352e7 3.190947910341751e6 0.0
0.0 0.0 0.0

-1.5097197804828815e7 6.157538420954963e6 0.0
6.157538420954963e6 4.221635504215008e6 0.0
0.0 0.0 0.0

248282.21124058962 7.509372485843879e6 0.0
7.509372485843879e6 -5.331513691110495e6 0.0
0.0 0.0 0.0

2.0069428747792158e6 3.556071139078314e6 0.0
3.556071139078314e6 558949.4987364282 0.0
0.0 0.0 0.0

-1.6254654010944706e6 -1.6309083225613574e6 0.0
-1.6309083225613574e6 1.5840182634540775e6 0.0
0.0 0.0 0.0

-675259.2147553954 5.9582737446875265e6 0.0
5.9582737446875265e6 -1.1733632752498097e6 0.0
0.0 0.0 0.0

-5.142614410491056e6 1.4551296139199901e6 0.0
1.4551296139199901e6 6.625904087293141e6 0.0
0.0 0.0 0.0

-3.8841383240353772e6 1.387207849892475e6 0.0
1.387207849892475e6 3.4140603413536837e6 0.0
0.0 0.0 0.0

-622276.3123630462 9.57896598719617e6 0.0
9.57896598719617e6 -3.4747790824829275e6 0.0
0.0 0.0 0.0

-1.2900790636450103e6 6.811791688687028e6 0.0
6.811791688687028e6 -4.3002636227697125e6 0.0
0.0 0.0 0.0

-217388.06695214703 8.935389553245809e6 0.0
8.935389553245809e6 -724626.9191365001 0.0
0.0 0.0 0.0

776113.7027825362 8.090149483168496e6 0.0
8.090149483168496e6 -2.6825058824946717e6 0.0
0.0 0.0 0.0

-6.469408676304126e6 1.072477479462104e7 0.0
1.072477479462104e7 2.9029657666720706e6 0.0
0.0 0.0 0.0

-1.0154246299934612e6 4.377794244643731e6 0.0
4.377794244643731e6 -139531.2608859965 0.0
0.0 0.0 0.0

-1.6907191528489061e6 9.257552571591886e6 0.0
9.257552571591886e6 -2.834811509130823e6 0.0
0.0 0.0 0.0

-4.630658616566878e6 8.967193082779948e6 0.0
8.967193082779948e6 1.9274342654739476e6 0.0
0.0 0.0 0.0

723235.6124610375 7.240571814418935e6 0.0
7.240571814418935e6 -6.19464203233665e6 0.0
0.0 0.0 0.0

-2.8920054306008434e6 1.110332469543829e6 0.0
1.110332469543829e6 3.743034676206566e6 0.0
0.0 0.0 0.0

-5.535311644203473e6 1.0125038547254248e7 0.0
1.0125038547254248e7 2.128404082820541e6 0.0
0.0 0.0 0.0

-1.1916561685725048e6 9.749245937098404e6 0.0
9.749245937098404e6 21233.068281498563 0.0
0.0 0.0 0.0

-1.222160813133665e6 9.83045993878274e6 0.0
9.83045993878274e6 -116890.34455234994 0.0
0.0 0.0 0.0

-4.443719859586168e6 9.000896541263197e6 0.0
9.000896541263197e6 2.672833510337691e6 0.0
0.0 0.0 0.0

-481233.1996917175 9.514321416683896e6 0.0
9.514321416683896e6 944755.8677358752 0.0
0.0 0.0 0.0

-4.386016777412904e6 1.0173111532469906e7 0.0
1.0173111532469906e7 2.127584611343161e6 0.0
0.0 0.0 0.0

-9.28969695371566e6 4.436286694313545e6 0.0
4.436286694313545e6 1.0664693862960938e7 0.0
0.0 0.0 0.0

-6.206714661043401e6 -458459.9712213234 0.0
-458459.9712213234 6.775875378939042e6 0.0
0.0 0.0 0.0

-441775.47284048086 6.780603488790958e6 0.0
6.780603488790958e6 -3.374288027981993e6 0.0
0.0 0.0 0.0

1.3269323319245442e6 6.638441235361215e6 0.0
6.638441235361215e6 -6.9455230064139785e6 0.0
0.0 0.0 0.0

-1.5417784232077198e6 9.332872619748378e6 0.0
9.332872619748378e6 -2.386955412731671e6 0.0
0.0 0.0 0.0

898449.4817886389 7.975669793071993e6 0.0
7.975669793071993e6 -42004.28628315544 0.0
0.0 0.0 0.0

624328.9228241865 7.418613580063348e6 0.0
7.418613580063348e6 -3.919118773409213e6 0.0
0.0 0.0 0.0

-636249.7339852897 8.211661900347288e6 0.0
8.211661900347288e6 -5.462484499048818e6 0.0
0.0 0.0 0.0

661551.7960541165 8.190181006204332e6 0.0
8.190181006204332e6 -6.69172442708849e6 0.0
0.0 0.0 0.0

-2.2955809349489654e6 7.576140534877462e6 0.0
7.576140534877462e6 -486806.51228310255 0.0
0.0 0.0 0.0

-3.5589159187022774e6 9.088316269727953e6 0.0
9.088316269727953e6 1.6717772583869891e6 0.0
0.0 0.0 0.0

-5.634149424004522e6 1.0170890041537441e7 0.0
1.0170890041537441e7 2.6265784794623405e6 0.0
0.0 0.0 0.0

-8.549990841166599e6 -929126.7483977756 0.0
-929126.7483977756 1.309187134214709e7 0.0
0.0 0.0 0.0

699042.1395932683 8.114370163986077e6 0.0
8.114370163986077e6 -6.581938215188313e6 0.0
0.0 0.0 0.0

-9.772934124415345e6 4.1584196225985205e6 0.0
4.1584196225985205e6 1.1670159752087977e7 0.0
0.0 0.0 0.0

-1.29116974495456e6 9.87760145847417e6 0.0
9.87760145847417e6 -160271.85445018284 0.0
0.0 0.0 0.0

-6.688958008328142e6 1.050645545642962e7 0.0
1.050645545642962e7 2.561518768381436e6 0.0
0.0 0.0 0.0

-6.432887939517861e6 8.151785088346275e6 0.0
8.151785088346275e6 2.17095921316541e6 0.0
0.0 0.0 0.0

-5.6490817222183775e6 4.635261285998192e6 0.0
4.635261285998192e6 8.484360622356642e6 0.0
0.0 0.0 0.0

-940805.1631943658 7.304597404327733e6 0.0
7.304597404327733e6 -4.558506732796779e6 0.0
0.0 0.0 0.0

-71703.19401093043 9.230016381576879e6 0.0
9.230016381576879e6 117630.95644927287 0.0
0.0 0.0 0.0

933566.4370401148 6.850312772583676e6 0.0
6.850312772583676e6 -6.409480064408144e6 0.0
0.0 0.0 0.0

-663947.8462104248 4.404609467682388e6 0.0
4.404609467682388e6 -2.991066822409511e6 0.0
0.0 0.0 0.0

-8.452960036130227e6 2.7233798833955885e6 0.0
2.7233798833955885e6 1.1718000359785357e7 0.0
0.0 0.0 0.0

-2.608497925925128e6 9.159175063991727e6 0.0
9.159175063991727e6 1.1985792690692293e6 0.0
0.0 0.0 0.0

-1.1084154597432764e7 7.29104623512792e6 0.0
7.29104623512792e6 1.8675716334027154e6 0.0
0.0 0.0 0.0

-239288.93290945073 8.343152963809786e6 0.0
8.343152963809786e6 -4.929256888689245e6 0.0
0.0 0.0 0.0

511910.9967749149 7.496189800287598e6 0.0
7.496189800287598e6 -5.946782707613512e6 0.0
0.0 0.0 0.0

691256.6406927379 8.050505623851538e6 0.0
8.050505623851538e6 -6.4445691493652165e6 0.0
0.0 0.0 0.0

386126.65682987403 436550.6250814137 0.0
436550.6250814137 -3.0009823230357845e6 0.0
0.0 0.0 0.0

-2.6126556259988034e6 9.440655782113958e6 0.0
9.440655782113958e6 -1.2375104547813132e6 0.0
0.0 0.0 0.0

-1.2203240446328074e6 1.1221512871091643e7 0.0
1.1221512871091643e7 -2.420963062003752e6 0.0
0.0 0.0 0.0

-1.3013337800593775e7 8.445909111523127e6 0.0
8.445909111523127e6 8.426613851894423e6 0.0
0.0 0.0 0.0

-707545.67584032 757992.4790656792 0.0
757992.4790656792 -1.5906842804917141e6 0.0
0.0 0.0 0.0

-367333.7343027091 9.14169426939937e6 0.0
9.14169426939937e6 -4.048790929178302e6 0.0
0.0 0.0 0.0

-4.393406164531098e6 6.208069062224156e6 0.0
6.208069062224156e6 5.926825924194655e6 0.0
0.0 0.0 0.0

-955841.0916871905 2.4301978136780113e6 0.0
2.4301978136780113e6 26793.428231738042 0.0
0.0 0.0 0.0

1.0836013298295175e6 6.274827533049103e6 0.0
6.274827533049103e6 -6.013171180449391e6 0.0
0.0 0.0 0.0

-1.169248178872487e6 2.512919666982446e6 0.0
2.512919666982446e6 388805.1237728582 0.0
0.0 0.0 0.0

-3.1518106001506215e6 1.7508286870835125e6 0.0
1.7508286870835125e6 3.9183453409729702e6 0.0
0.0 0.0 0.0

-605493.4736169352 4.865879649543708e6 0.0
4.865879649543708e6 -861177.2900939977 0.0
0.0 0.0 0.0

-2.900086460217635e6 9.042229162362602e6 0.0
9.042229162362602e6 1.6424483451833357e6 0.0
0.0 0.0 0.0

-1.4924262861465008e6 5.4593745574873155e6 0.0
5.4593745574873155e6 -652151.5020635945 0.0
0.0 0.0 0.0

5.158833711522425e6 5.261426208722589e6 0.0
5.261426208722589e6 -500327.09526286717 0.0
0.0 0.0 0.0

-5.066633689664664e6 -3.641617878130445e6 0.0
-3.641617878130445e6 3.5481415992364744e6 0.0
0.0 0.0 0.0

-279903.83847387705 4.525792163483462e6 0.0
4.525792163483462e6 -3.4009247567299427e6 0.0
0.0 0.0 0.0

816697.5904982784 7.429442307547194e6 0.0
7.429442307547194e6 -5.8373859543089885e6 0.0
0.0 0.0 0.0

1.0253182142451124e6 7.087081319886093e6 0.0
7.087081319886093e6 -5.959657865089977e6 0.0
0.0 0.0 0.0

602134.8560837539 2.1997837895753807e6 0.0
2.1997837895753807e6 297322.072615341 0.0
0.0 0.0 0.0

-429691.7291335381 -114400.9518334436 0.0
-114400.9518334436 416843.8851152265 0.0
0.0 0.0 0.0

-276385.9113877488 8.190045129216611e6 0.0
8.190045129216611e6 -5.309507227037348e6 0.0
0.0 0.0 0.0

1.2385683772611846e6 6.55956356809973e6 0.0
6.55956356809973e6 -6.727761973965684e6 0.0
0.0 0.0 0.0

-1.0683395704171106e7 9.77380255636406e6 0.0
9.77380255636406e6 3.240260113104863e6 0.0
0.0 0.0 0.0

-3.5906486292761695e6 6.709805693638217e6 0.0
6.709805693638217e6 2.136036759107734e6 0.0
0.0 0.0 0.0

-5.1840910756358635e6 1.0138471676591361e7 0.0
1.0138471676591361e7 1.6234474548744368e6 0.0
0.0 0.0 0.0

-420286.66093907726 9.174498734364651e6 0.0
9.174498734364651e6 661629.4315178833 0.0
0.0 0.0 0.0

887660.9208366986 6.585776516549452e6 0.0
6.585776516549452e6 3.243766881833194e6 0.0
0.0 0.0 0.0

-7.971194426958595e6 7.758145869821934e6 0.0
7.758145869821934e6 4.386541588449705e6 0.0
0.0 0.0 0.0

-7.947491300420252e6 923767.3920891728 0.0
923767.3920891728 1.0425123497188589e7 0.0
0.0 0.0 0.0

-3.142147941916938e6 9.160293929729959e6 0.0
9.160293929729959e6 1.4488198910751774e6 0.0
0.0 0.0 0.0

-912886.4914165798 1.1324671574662289e7 0.0
1.1324671574662289e7 -2.6793050821823035e6 0.0
0.0 0.0 0.0

-4.197390807703486e6 6.388874141349316e6 0.0
6.388874141349316e6 5.27004602040544e6 0.0
0.0 0.0 0.0

-660243.534361962 2.727962245941425e6 0.0
2.727962245941425e6 -34445.522369996965 0.0
0.0 0.0 0.0

-6.25250936951163e6 9.87143012531004e6 0.0
9.87143012531004e6 2.396608094521617e6 0.0
0.0 0.0 0.0

423514.2009147573 7.441976626134955e6 0.0
7.441976626134955e6 -5.632886498472903e6 0.0
0.0 0.0 0.0

-3.7637485807053023e6 1.1519446906871818e7 0.0
1.1519446906871818e7 114605.18628805294 0.0
0.0 0.0 0.0

1.2770109228924187e6 6.792891783895817e6 0.0
6.792891783895817e6 -6.32467046435066e6 0.0
0.0 0.0 0.0

-921413.2216415275 8.827322829061186e6 0.0
8.827322829061186e6 2.116123943013044e6 0.0
0.0 0.0 0.0

-3.237132104586778e6 8.693067985325623e6 0.0
8.693067985325623e6 -786062.1703626739 0.0
0.0 0.0 0.0

-567932.3685573605 3.3693111264994917e6 0.0
3.3693111264994917e6 -1.1636756492713501e6 0.0
0.0 0.0 0.0

-374206.14555693825 7.339990228566171e6 0.0
7.339990228566171e6 -4.237802987311198e6 0.0
0.0 0.0 0.0

1.5991965405854122e6 6.398713422992214e6 0.0
6.398713422992214e6 -6.477990458840921e6 0.0
0.0 0.0 0.0

-1.6834293119290948e6 1.3714787555583088e7 0.0
1.3714787555583088e7 -3.52941559798916e6 0.0
0.0 0.0 0.0

-150633.37917392747 5.776104721948999e6 0.0
5.776104721948999e6 -3.9768611377503797e6 0.0
0.0 0.0 0.0

-1.0018054080873353e6 4.033631102616588e6 0.0
4.033631102616588e6 -355464.2587017881 0.0
0.0 0.0 0.0

-5.414940365227524e6 9.585223329351995e6 0.0
9.585223329351995e6 2.7619179030211912e6 0.0
0.0 0.0 0.0

620348.8614535164 7.960803001450988e6 0.0
7.960803001450988e6 -6.248509065055428e6 0.0
0.0 0.0 0.0

-1.391609127676133e6 7.236957530147531e6 0.0
7.236957530147531e6 -4.638697051964897e6 0.0
0.0 0.0 0.0

-55343.67630072152 8.921907866469244e6 0.0
8.921907866469244e6 -184478.95052624214 0.0
0.0 0.0 0.0

-1.659412423631296e6 5.971848502881519e6 0.0
5.971848502881519e6 -510098.779163208 0.0
0.0 0.0 0.0

-1.6454326266803893e6 7.313966826809828e6 0.0
7.313966826809828e6 -845105.597858337 0.0
0.0 0.0 0.0

-927411.7771003542 9.514773889905214e6 0.0
9.514773889905214e6 1.3512091607390614e6 0.0
0.0 0.0 0.0

-465452.39018081955 3.3319885281333285e6 0.0
3.3319885281333285e6 -247856.38002463797 0.0
0.0 0.0 0.0

554373.8936625938 7.854118607660624e6 0.0
7.854118607660624e6 -1.4839917865240152e6 0.0
0.0 0.0 0.0

-3.6386274984362805e6 7.661090038638156e6 0.0
7.661090038638156e6 2.0421925280909026e6 0.0
0.0 0.0 0.0

-543360.0212979765 4.374357544971492e6 0.0
4.374357544971492e6 -3.638653123714714e6 0.0
0.0 0.0 0.0

-1.107984518338325e6 2.369336379372736e6 0.0
2.369336379372736e6 207735.7080887807 0.0
0.0 0.0 0.0

-3.2919587959586876e6 1.0105352906752396e7 0.0
1.0105352906752396e7 1.1815218127208103e6 0.0
0.0 0.0 0.0

-4.554914262348579e6 6.097197274716508e6 0.0
6.097197274716508e6 4.0864315001203706e6 0.0
0.0 0.0 0.0

-1.0934323152354574e6 9.639105525015464e6 0.0
9.639105525015464e6 893250.9037004896 0.0
0.0 0.0 0.0

-1.441562882269148e6 2.7069730242371936e6 0.0
2.7069730242371936e6 779126.3537378048 0.0
0.0 0.0 0.0

-1.8210876240548939e6 1.1132414712885695e7 0.0
1.1132414712885695e7 -2.3748959350159336e6 0.0
0.0 0.0 0.0

-4.543442293464461e6 9.201630959314058e6 0.0
9.201630959314058e6 2.3256913901604544e6 0.0
0.0 0.0 0.0

-7.995393486116367e6 2.384595383205384e6 0.0
2.384595383205384e6 1.0676733524584027e7 0.0
0.0 0.0 0.0

-1.0725864244539137e6 5.502867961188176e6 0.0
5.502867961188176e6 -910334.3968337624 0.0
0.0 0.0 0.0

-6.685717540062306e6 516190.7853071419 0.0
516190.7853071419 7.331262175698804e6 0.0
0.0 0.0 0.0

-1.4326810538608723e6 9.093259707169447e6 0.0
9.093259707169447e6 -3.1289381049537724e6 0.0
0.0 0.0 0.0

-3.371665880755971e6 9.048872753947185e6 0.0
9.048872753947185e6 1.6846556125633053e6 0.0
0.0 0.0 0.0

-1.4375580440762052e6 9.966893101211816e6 0.0
9.966893101211816e6 -116701.01282040868 0.0
0.0 0.0 0.0

-282808.07040029345 7.014671581738102e6 0.0
7.014671581738102e6 -3.9222492492703814e6 0.0
0.0 0.0 0.0

-653684.2514138746 1.938183916011967e6 0.0
1.938183916011967e6 17089.822054367454 0.0
0.0 0.0 0.0

-9.508672473021314e6 6.868843051736779e6 0.0
6.868843051736779e6 1.1412875627807986e7 0.0
0.0 0.0 0.0

-8.795036434117965e6 3.398120437478442e6 0.0
3.398120437478442e6 1.2784276260208853e7 0.0
0.0 0.0 0.0

-2.3837595128664104e6 7.688867276106881e6 0.0
7.688867276106881e6 1.4831226946510929e6 0.0
0.0 0.0 0.0

-1.4746669041491752e6 2.498317357985227e6 0.0
2.498317357985227e6 505053.4385061513 0.0
0.0 0.0 0.0

-1.7356232841811706e6 7.374905014068723e6 0.0
7.374905014068723e6 -955882.9229389585 0.0
0.0 0.0 0.0

-3.026384832494572e6 7.248615434799506e6 0.0
7.248615434799506e6 -28730.163085205015 0.0
0.0 0.0 0.0

-1.689920582799448e6 8.310260151440008e6 0.0
8.310260151440008e6 -2.5262325040935343e6 0.0
0.0 0.0 0.0

-2.88062178910309e6 8.862845971248688e6 0.0
8.862845971248688e6 1.8047157780454077e6 0.0
0.0 0.0 0.0

-6.922897579337178e6 9.971097407973126e6 0.0
9.971097407973126e6 3.783401029181422e6 0.0
0.0 0.0 0.0

-6.839360409412289e6 3.2893269974569594e6 0.0
3.2893269974569594e6 9.020000104351006e6 0.0
0.0 0.0 0.0

-349849.0022157817 1.0296160874463707e7 0.0
1.0296160874463707e7 1.400076267907213e6 0.0
0.0 0.0 0.0

111393.40718565881 9.471010002221668e6 0.0
9.471010002221668e6 -3.798121539010007e6 0.0
0.0 0.0 0.0

-19831.351023384137 7.2728621388887325e6 0.0
7.2728621388887325e6 -4.2521704810140645e6 0.0
0.0 0.0 0.0

2.1685105821222565e6 6.371976963676365e6 0.0
6.371976963676365e6 -7.136711618136672e6 0.0
0.0 0.0 0.0

-3.7572258677873556e6 277638.1034112222 0.0
277638.1034112222 3.9137940972522413e6 0.0
0.0 0.0 0.0

-3.138229140429353e6 8.755124809647674e6 0.0
8.755124809647674e6 1.7226462308447096e6 0.0
0.0 0.0 0.0

-6.972239592068203e6 4.709607900530484e6 0.0
4.709607900530484e6 9.98345968241469e6 0.0
0.0 0.0 0.0

-1.1371216648126267e7 9.270964865995586e6 0.0
9.270964865995586e6 1.904624390195313e7 0.0
0.0 0.0 0.0

-1.657876937279176e6 7.099657586718645e6 0.0
7.099657586718645e6 -2.4960025345972106e6 0.0
0.0 0.0 0.0

315145.8202192888 9.423706496902503e6 0.0
9.423706496902503e6 1.050486324154051e6 0.0
0.0 0.0 0.0

-677695.6368633622 2.8444278654131484e6 0.0
2.8444278654131484e6 -278049.52121869894 0.0
0.0 0.0 0.0

-5.410159688464644e6 -1.953964768998265e6 0.0
-1.953964768998265e6 1.391804376545681e6 0.0
0.0 0.0 0.0

307128.2923209681 7.206579943612792e6 0.0
7.206579943612792e6 -5.19610964164942e6 0.0
0.0 0.0 0.0

-888697.8780235221 3.7002460496417093e6 0.0
3.7002460496417093e6 -417537.78114954464 0.0
0.0 0.0 0.0

367566.86495693563 7.560230056405721e6 0.0
7.560230056405721e6 -5.649172351853289e6 0.0
0.0 0.0 0.0

-5.462129753947789e6 5.889800902284304e6 0.0
5.889800902284304e6 8.56909038986766e6 0.0
0.0 0.0 0.0

434371.62885391293 5.538760890578352e6 0.0
5.538760890578352e6 -3.9198359030727437e6 0.0
0.0 0.0 0.0

-3.132300629277255e6 1.3791191115405463e7 0.0
1.3791191115405463e7 -2.3457879877074617e6 0.0
0.0 0.0 0.0

-1.701686372321146e6 5.840697554948744e6 0.0
5.840697554948744e6 -570311.2316350591 0.0
0.0 0.0 0.0

-801686.3246584011 2.3870756513477615e6 0.0
2.3870756513477615e6 -1.1737522745290308e6 0.0
0.0 0.0 0.0

7.292225630493002e6 5.574747765994934e6 0.0
5.574747765994934e6 -1.1605270172441038e6 0.0
0.0 0.0 0.0

-6.697124213658804e6 6.785750778240429e6 0.0
6.785750778240429e6 7.002763791631218e6 0.0
0.0 0.0 0.0

-1.063393715260203e6 4.4258547744484795e6 0.0
4.4258547744484795e6 -1.8858478699501355e6 0.0
0.0 0.0 0.0

-6.924845881600058e6 1.6836883054749023e6 0.0
1.6836883054749023e6 6.76703920359631e6 0.0
0.0 0.0 0.0

-216804.48658696364 919617.6541322336 0.0
919617.6541322336 -2.7316791746822568e6 0.0
0.0 0.0 0.0

-2.57062208901811e6 1.005282811702636e7 0.0
1.005282811702636e7 564508.5890437558 0.0
0.0 0.0 0.0

-3.331488546556619e6 7.0346460927723115e6 0.0
7.0346460927723115e6 2.704092315267096e6 0.0
0.0 0.0 0.0

-1.082325795158052e6 4.1912521595970993e6 0.0
4.1912521595970993e6 -164138.11952150924 0.0
0.0 0.0 0.0

571875.3424853878 6.970461046723349e6 0.0
6.970461046723349e6 -5.432529596771452e6 0.0
0.0 0.0 0.0

-52109.958912805654 8.334832924624447e6 0.0
8.334832924624447e6 -5.800313252945289e6 0.0
0.0 0.0 0.0

-584731.0711816472 6.334450205906075e6 0.0
6.334450205906075e6 -1.7331202387489874e6 0.0
0.0 0.0 0.0

-426706.1763600854 5.94664231206928e6 0.0
5.94664231206928e6 -3.9319718171973885e6 0.0
0.0 0.0 0.0

-2.3143248199666715e6 8.656005616363792e6 0.0
8.656005616363792e6 -1.936815373531391e6 0.0
0.0 0.0 0.0

4.251167749018234e6 8.528131894588167e6 0.0
8.528131894588167e6 -4.334382412787991e6 0.0
0.0 0.0 0.0

1.63108584664167e6 6.734169636413967e6 0.0
6.734169636413967e6 -6.815243797420923e6 0.0
0.0 0.0 0.0

-973781.2952319685 -477989.34702217137 0.0
-477989.34702217137 -188069.4705384628 0.0
0.0 0.0 0.0

-3.4290073902474e6 6.191418982791012e6 0.0
6.191418982791012e6 3.548150260081698e6 0.0
0.0 0.0 0.0

-1.3877513848522385e6 4.890818093111599e6 0.0
4.890818093111599e6 -635651.4172057462 0.0
0.0 0.0 0.0

-1.1305960897445304e6 3.7734360228925217e6 0.0
3.7734360228925217e6 81525.258466848 0.0
0.0 0.0 0.0

1.6220001414277935e6 6.895742115608658e6 0.0
6.895742115608658e6 -7.060187484774011e6 0.0
0.0 0.0 0.0

505050.47810045193 1.0491878130073622e7 0.0
1.0491878130073622e7 1.683501708271523e6 0.0
0.0 0.0 0.0

-1.3123960375577358e6 8.3290059974581e6 0.0
8.3290059974581e6 3.4883905234146733e6 0.0
0.0 0.0 0.0

-609595.7152169434 8.105096739734619e6 0.0
8.105096739734619e6 -5.003354709834064e6 0.0
0.0 0.0 0.0

-1.7201859288664109e6 5.691649153538058e6 0.0
5.691649153538058e6 -2.080061754203695e6 0.0
0.0 0.0 0.0

-3.398182627479353e6 7.52163246764458e6 0.0
7.52163246764458e6 2.688970295044237e6 0.0
0.0 0.0 0.0

2.0697775994218842e6 1.0049936948801903e7 0.0
1.0049936948801903e7 -3.427150657498556e6 0.0
0.0 0.0 0.0

75908.49247001484 7.398001928564377e6 0.0
7.398001928564377e6 -4.964190885079202e6 0.0
0.0 0.0 0.0

-7.046817449877293e6 1.0831783181764508e7 0.0
1.0831783181764508e7 2.7472388606707808e6 0.0
0.0 0.0 0.0

-297719.37739154045 6.974988445474575e6 0.0
6.974988445474575e6 -1.5740512978273225e6 0.0
0.0 0.0 0.0

-1.4676915661496963e7 -5.239497199679029e6 0.0
-5.239497199679029e6 7.23216421081829e6 0.0
0.0 0.0 0.0

1.2824054768844806e7 6.52340830386194e6 0.0
6.52340830386194e6 -3.3450486764862454e6 0.0
0.0 0.0 0.0

-55672.69876036387 7.364966299798729e6 0.0
7.364966299798729e6 366933.33004070044 0.0
0.0 0.0 0.0

-7.275105330415536e6 -2.6827385099282973e6 0.0
-2.6827385099282973e6 1.2181154355695331e7 0.0
0.0 0.0 0.0

-892060.2495687301 9.59560835853088e6 0.0
9.59560835853088e6 839142.9039994468 0.0
0.0 0.0 0.0

-4.1057081285340884e6 1.1416544919222012e7 0.0
1.1416544919222012e7 -622125.3791042211 0.0
0.0 0.0 0.0

352720.95840626967 9.295039775150131e6 0.0
9.295039775150131e6 1.1757370473347676e6 0.0
0.0 0.0 0.0

-906109.3477648377 4.1123965870563565e6 0.0
4.1123965870563565e6 -331602.9541284819 0.0
0.0 0.0 0.0

-2.936953928334931e6 7.503245506683509e6 0.0
7.503245506683509e6 1.0627899449536633e6 0.0
0.0 0.0 0.0

-1.7259281987089768e7 7.319842787576527e6 0.0
7.319842787576527e6 6.317706845193711e6 0.0
0.0 0.0 0.0

528090.9782622121 5.791969150682649e6 0.0
5.791969150682649e6 -4.8722824484484885e6 0.0
0.0 0.0 0.0

-1.7057695100499792e6 1.001914990834775e7 0.0
1.001914990834775e7 104470.24117863597 0.0
0.0 0.0 0.0

-378130.9745882504 1.0596780384479662e7 0.0
1.0596780384479662e7 1.5618707553228072e6 0.0
0.0 0.0 0.0

-1.4623501364499738e6 7.54740866660472e6 0.0
7.54740866660472e6 -4.874500380523468e6 0.0
0.0 0.0 0.0

201129.57034933637 9.144327445502996e6 0.0
9.144327445502996e6 670432.0164709459 0.0
0.0 0.0 0.0

586608.9744038999 7.951079293026052e6 0.0
7.951079293026052e6 -6.128859573325204e6 0.0
0.0 0.0 0.0

-764919.6447679674 2.839871890413373e6 0.0
2.839871890413373e6 -293027.57811362937 0.0
0.0 0.0 0.0

-7.120793368328522e6 7.858188614596641e6 0.0
7.858188614596641e6 3.974706643061416e6 0.0
0.0 0.0 0.0

190787.09082588623 6.776470999111278e6 0.0
6.776470999111278e6 -3.7281473837578557e6 0.0
0.0 0.0 0.0

-5.7175097530687535e6 7.030705021342372e6 0.0
7.030705021342372e6 6.18727084324622e6 0.0
0.0 0.0 0.0

-821744.1279141838 3.703631264887851e6 0.0
3.703631264887851e6 -853078.8870455358 0.0
0.0 0.0 0.0

-6.510828734316345e6 9.861916515826438e6 0.0
9.861916515826438e6 3.503874224217238e6 0.0
0.0 0.0 0.0

-1.0789417596056217e7 8.51754129921554e6 0.0
8.51754129921554e6 6.255580434043212e6 0.0
0.0 0.0 0.0

-470658.3053559408 -903466.3889582843 0.0
-903466.3889582843 590087.8490344434 0.0
0.0 0.0 0.0

-699974.7026286509 7.488558111993529e6 0.0
7.488558111993529e6 -4.479108849624606e6 0.0
0.0 0.0 0.0

-3.349580512424562e6 1.0809142959419554e7 0.0
1.0809142959419554e7 -263620.41877484147 0.0
0.0 0.0 0.0

-193407.1607132546 5.255548464887405e6 0.0
5.255548464887405e6 -1.7195461436057817e6 0.0
0.0 0.0 0.0

-4.072287128171991e6 1.3656147333287608e7 0.0
1.3656147333287608e7 -1.4538069612444206e6 0.0
0.0 0.0 0.0

-937475.8327560573 3.937026094522307e6 0.0
3.937026094522307e6 -576494.746002289 0.0
0.0 0.0 0.0

1.0971612947395726e6 5.988846643853514e6 0.0
5.988846643853514e6 -5.933678624053448e6 0.0
0.0 0.0 0.0

791460.8886747721 6.211612188234665e6 0.0
6.211612188234665e6 -5.289437342004989e6 0.0
0.0 0.0 0.0

-1.3163370992812403e6 7.125749273538132e6 0.0
7.125749273538132e6 -2.97412325272461e6 0.0
0.0 0.0 0.0

-2.0527406492150142e6 1.0915890776714273e7 0.0
1.0915890776714273e7 -2.1299255678704423e6 0.0
0.0 0.0 0.0

1.6567823655149909e6 6.734268250634505e6 0.0
6.734268250634505e6 -7.124976191452939e6 0.0
0.0 0.0 0.0

-3.973386037343218e6 8.451067222152222e6 0.0
8.451067222152222e6 2.5839362019151067e6 0.0
0.0 0.0 0.0

-835309.7482525068 8.455753887647364e6 0.0
8.455753887647364e6 -3.81058839113304e6 0.0
0.0 0.0 0.0

-4.839505128514787e6 4.793159813597116e6 0.0
4.793159813597116e6 4.1594176138613657e6 0.0
0.0 0.0 0.0

-4.690725518454087e6 9.384262815716064e6 0.0
9.384262815716064e6 2.4647168857293134e6 0.0
0.0 0.0 0.0

378200.91124749184 7.3694245991715025e6 0.0
7.3694245991715025e6 -4.919557808430341e6 0.0
0.0 0.0 0.0

-1.1772730531532872e7 1.1046252332221523e6 0.0
1.1046252332221523e6 7.773862079252458e6 0.0
0.0 0.0 0.0

1.331237762449619e6 5.8562750224388465e6 0.0
5.8562750224388465e6 -6.2132381515826555e6 0.0
0.0 0.0 0.0

1.1033054677766107e6 6.186027001843091e6 0.0
6.186027001843091e6 -5.097157790279972e6 0.0
0.0 0.0 0.0

-2.0501454906730992e6 9.792144370205248e6 0.0
9.792144370205248e6 -1.997875331930015e6 0.0
0.0 0.0 0.0

-3.563343501685251e6 -1.062401114265375e6 0.0
-1.062401114265375e6 738996.3954952043 0.0
0.0 0.0 0.0

-924670.9471832444 4.798136727078812e6 0.0
4.798136727078812e6 -2.3152044015549677e6 0.0
0.0 0.0 0.0

-7.794214585237323e6 4.736900313000877e6 0.0
4.736900313000877e6 1.1531661803851664e7 0.0
0.0 0.0 0.0

-5.900239772733004e6 9.790890549685283e6 0.0
9.790890549685283e6 3.0962439966500415e6 0.0
0.0 0.0 0.0

-6.835491047419592e6 9.827676318825174e6 0.0
9.827676318825174e6 3.725204518643981e6 0.0
0.0 0.0 0.0

-1.1457888410025192e6 4.135960989193866e6 0.0
4.135960989193866e6 -341926.056109919 0.0
0.0 0.0 0.0

-1.0043609621169511e7 5.385755498071533e6 0.0
5.385755498071533e6 1.9310158705557607e7 0.0
0.0 0.0 0.0

-6.192064661829453e6 9.910015531276612e6 0.0
9.910015531276612e6 3.3559710657848096e6 0.0
0.0 0.0 0.0

-1.8786313253598695e6 9.830209969615113e6 0.0
9.830209969615113e6 -5128.657723495155 0.0
0.0 0.0 0.0

329859.9469240997 8.816430228776982e6 0.0
8.816430228776982e6 -3.7092428607458905e6 0.0
0.0 0.0 0.0

3.091437825713902e6 7.9864975398531575e6 0.0
7.9864975398531575e6 2.054056913722149e6 0.0
0.0 0.0 0.0

-1.088483030103391e6 4.293043566976981e6 0.0
4.293043566976981e6 -115922.74534218773 0.0
0.0 0.0 0.0

1.4991624782140797e6 5.81311470897567e6 0.0
5.81311470897567e6 -5.664789603544123e6 0.0
0.0 0.0 0.0

-2.2596625309821907e6 8.856463745042896e6 0.0
8.856463745042896e6 -1.6178918729709748e6 0.0
0.0 0.0 0.0

-2.0668192935693562e6 6.552140251805308e6 0.0
6.552140251805308e6 -203276.25935880718 0.0
0.0 0.0 0.0

-6.6547073237757925e6 1.8116606798875513e6 0.0
1.8116606798875513e6 3.866391461399141e6 0.0
0.0 0.0 0.0

-1.4979404525559829e6 1.1001223811908576e6 0.0
1.1001223811908576e6 1.957149774171697e6 0.0
0.0 0.0 0.0

-2.525206847201606e7 1.3618615339303112e7 0.0
1.3618615339303112e7 3.3718935238828305e6 0.0
0.0 0.0 0.0

-1.580558296780725e6 8.0499685776028205e6 0.0
8.0499685776028205e6 -5.268527562196757e6 0.0
0.0 0.0 0.0

487277.4732703761 1.0134835897328168e7 0.0
1.0134835897328168e7 1.624258653460481e6 0.0
0.0 0.0 0.0

-483057.4830811861 8.191608384416903e6 0.0
8.191608384416903e6 -4.382449479500713e6 0.0
0.0 0.0 0.0

-8.662985583965547e6 5.345201557122837e6 0.0
5.345201557122837e6 5.285782222750286e6 0.0
0.0 0.0 0.0

-105788.23340515886 6.7256150786385555e6 0.0
6.7256150786385555e6 -3.8024325920653553e6 0.0
0.0 0.0 0.0

606088.2998236597 7.155500967094672e6 0.0
7.155500967094672e6 -5.116210680645417e6 0.0
0.0 0.0 0.0

-3.338600864460526e6 6.780061650599389e6 0.0
6.780061650599389e6 2.964133548191145e6 0.0
0.0 0.0 0.0

-125317.15282537998 7.446975490901592e6 0.0
7.446975490901592e6 -4.668176832335392e6 0.0
0.0 0.0 0.0

-6.208369344753791e6 9.815793356415909e6 0.0
9.815793356415909e6 3.3391777476879717e6 0.0
0.0 0.0 0.0

-4.571787774734242e6 1.8974782389256607e6 0.0
1.8974782389256607e6 4.0463468220745837e6 0.0
0.0 0.0 0.0

-485375.61441143876 3.062642663094806e6 0.0
3.062642663094806e6 -36311.34636927303 0.0
0.0 0.0 0.0

595156.4942782295 6.793102128265101e6 0.0
6.793102128265101e6 -5.333319477813743e6 0.0
0.0 0.0 0.0

-5.384491188056983e6 1.0138235193925846e7 0.0
1.0138235193925846e7 1.6959948083312048e6 0.0
0.0 0.0 0.0

-7.93687213778868e6 1.3313171573721949e7 0.0
1.3313171573721949e7 2.0272364670059592e6 0.0
0.0 0.0 0.0

-3.3808555064362492e6 5.464980791887706e6 0.0
5.464980791887706e6 3.5104480227085333e6 0.0
0.0 0.0 0.0

910844.8449513013 6.445412119241924e6 0.0
6.445412119241924e6 -5.81127488805254e6 0.0
0.0 0.0 0.0

1.5844492924703932e6 6.899655193487353e6 0.0
6.899655193487353e6 -6.9392231141083725e6 0.0
0.0 0.0 0.0

-1.1469922793374326e7 3.874582460654359e6 0.0
3.874582460654359e6 1.4410074832372656e7 0.0
0.0 0.0 0.0

-2.854640947494151e6 1.9332653759787066e6 0.0
1.9332653759787066e6 3.28131907660544e6 0.0
0.0 0.0 0.0

-4.665310833382216e6 1.3221476515060741e7 0.0
1.3221476515060741e7 -794401.5022350952 0.0
0.0 0.0 0.0

-3.863661918721724e6 7.857137092887859e6 0.0
7.857137092887859e6 998524.0263942773 0.0
0.0 0.0 0.0

-4.534816715702132e6 1.8043119916634886e6 0.0
1.8043119916634886e6 5.886481591069822e6 0.0
0.0 0.0 0.0

1.1685214748286293e6 6.2724612077474985e6 0.0
6.2724612077474985e6 -5.006131752229502e6 0.0
0.0 0.0 0.0

-3.9908026831991686e6 8.121598892287548e6 0.0
8.121598892287548e6 1.0812038552591624e6 0.0
0.0 0.0 0.0

-6.34138337172617e6 9.286850581149561e6 0.0
9.286850581149561e6 1.1641535825769594e6 0.0
0.0 0.0 0.0

-761434.8246839 5.27895601895069e6 0.0
5.27895601895069e6 -1.213182154448299e6 0.0
0.0 0.0 0.0

1.2391545734963447e6 6.241820128767294e6 0.0
6.241820128767294e6 -5.503334335397605e6 0.0
0.0 0.0 0.0

-366843.49257124437 7.32051741379589e6 0.0
7.32051741379589e6 -4.2633072426883895e6 0.0
0.0 0.0 0.0

-506086.226528139 2.8373615025412347e6 0.0
2.8373615025412347e6 -1.1354221292140845e6 0.0
0.0 0.0 0.0

-1.523501464850323e6 3.2364759119786397e6 0.0
3.2364759119786397e6 731503.8384707961 0.0
0.0 0.0 0.0

477069.84231148986 7.956195745249163e6 0.0
7.956195745249163e6 -5.881402871576308e6 0.0
0.0 0.0 0.0

1.0892725932477259e6 5.96159995485917e6 0.0
5.96159995485917e6 -4.921120631155936e6 0.0
0.0 0.0 0.0

-3.9664907765095932e6 7.773857512292759e6 0.0
7.773857512292759e6 679375.3084745889 0.0
0.0 0.0 0.0

880572.6778447889 6.85450582490121e6 0.0
6.85450582490121e6 -5.250948879883005e6 0.0
0.0 0.0 0.0

-418118.66281610646 3.2307266564124255e6 0.0
3.2307266564124255e6 -601347.6748644013 0.0
0.0 0.0 0.0

-1.6801709474660775e6 8.802036974350946e6 0.0
8.802036974350946e6 -5.600569908253395e6 0.0
0.0 0.0 0.0

839348.9628213465 1.1249660346986795e7 0.0
1.1249660346986795e7 2.7978314840291347e6 0.0
0.0 0.0 0.0

500841.2843099454 8.056504536389805e6 0.0
8.056504536389805e6 -2.7415369227430774e6 0.0
0.0 0.0 0.0

-3.012505349799234e6 -2.6370092921078936e6 0.0
-2.6370092921078936e6 2.403465636941014e6 0.0
0.0 0.0 0.0

-248856.13891375432 2.47402126888146e6 0.0
2.47402126888146e6 -478639.41773714457 0.0
0.0 0.0 0.0

1.235965290688313e6 1.0035323880321028e7 0.0
1.0035323880321028e7 4.119881776607254e6 0.0
0.0 0.0 0.0

-249582.07839691915 6.106578011436587e6 0.0
6.106578011436587e6 -831940.2501099558 0.0
0.0 0.0 0.0

-1.0612752417379923e7 6.193647338274021e6 0.0
6.193647338274021e6 2.1915449681925878e7 0.0
0.0 0.0 0.0

761632.3598704075 6.653465830668904e6 0.0
6.653465830668904e6 -5.589786931511407e6 0.0
0.0 0.0 0.0

-3.6083619630708173e6 1.108305858898378e7 0.0
1.108305858898378e7 -1.0336309614374979e6 0.0
0.0 0.0 0.0

-422160.7050080525 8.370099060923471e6 0.0
8.370099060923471e6 -5.566894204480939e6 0.0
0.0 0.0 0.0

-5.308884460960227e6 9.62155591329175e6 0.0
9.62155591329175e6 2.7634562710908903e6 0.0
0.0 0.0 0.0

-2.6953855941937747e6 9.230375389791429e6 0.0
9.230375389791429e6 891232.9128203467 0.0
0.0 0.0 0.0

-6.147948109128751e6 1.0177657711315801e7 0.0
1.0177657711315801e7 2.0656033892521048e6 0.0
0.0 0.0 0.0

-996257.9619058169 8.866174567570137e6 0.0
8.866174567570137e6 -5.501911420145783e6 0.0
0.0 0.0 0.0

-5.013644078727903e6 1.2769411307179919e7 0.0
1.2769411307179919e7 -288501.31164165214 0.0
0.0 0.0 0.0

-5.928392424331075e6 5.9191953523364e6 0.0
5.9191953523364e6 6.998054739545562e6 0.0
0.0 0.0 0.0

-108417.48603817215 6.612049609573818e6 0.0
6.612049609573818e6 -3.615446137309665e6 0.0
0.0 0.0 0.0

752004.3113538434 6.422787734835779e6 0.0
6.422787734835779e6 -5.46445231611292e6 0.0
0.0 0.0 0.0

-2.81734033864656e6 1.1213008438516213e7 0.0
1.1213008438516213e7 -1.7140208948877142e6 0.0
0.0 0.0 0.0

-2.1341955724522225e6 5.978354343354421e6 0.0
5.978354343354421e6 -938298.0863499341 0.0
0.0 0.0 0.0

595409.9913403536 7.33512077013215e6 0.0
7.33512077013215e6 -5.89616229820031e6 0.0
0.0 0.0 0.0

-4.850511510682541e6 9.303196801736768e6 0.0
9.303196801736768e6 2.4998679508341835e6 0.0
0.0 0.0 0.0

-2.466044789768531e6 6.746498609819347e6 0.0
6.746498609819347e6 76069.01151341922 0.0
0.0 0.0 0.0

-1.5386454057394983e6 7.342982125964315e6 0.0
7.342982125964315e6 -2.1302777361654304e6 0.0
0.0 0.0 0.0

566359.9625464929 7.792381646586826e6 0.0
7.792381646586826e6 -5.64968170295854e6 0.0
0.0 0.0 0.0

-5.2875977788705155e6 1.17516872919543e7 0.0
1.17516872919543e7 307222.3434971799 0.0
0.0 0.0 0.0

-1.9964152097616144e6 7.962592033265473e6 0.0
7.962592033265473e6 -1.7402465295099292e6 0.0
0.0 0.0 0.0

-219074.5919672303 7.103679521114647e6 0.0
7.103679521114647e6 -3.8711226816020813e6 0.0
0.0 0.0 0.0

3.8879698763159355e6 5.525682966091531e6 0.0
5.525682966091531e6 -870107.9064436122 0.0
0.0 0.0 0.0

-2.7734127314727176e6 8.082544726947911e6 0.0
8.082544726947911e6 43237.6088610047 0.0
0.0 0.0 0.0

-525703.9905526506 5.248718926197118e6 0.0
5.248718926197118e6 -1.2043174017894363e6 0.0
0.0 0.0 0.0

-818991.1357190466 2.111942967998977e6 0.0
2.111942967998977e6 -111685.13358489345 0.0
0.0 0.0 0.0

805663.238259363 5.544298569852557e6 0.0
5.544298569852557e6 -4.46734381066962e6 0.0
0.0 0.0 0.0

-59390.36855244846 7.030364215687974e6 0.0
7.030364215687974e6 -4.192303822437329e6 0.0
0.0 0.0 0.0

798131.5485397801 6.034335055159512e6 0.0
6.034335055159512e6 -4.464859686809398e6 0.0
0.0 0.0 0.0

-462380.12659665314 8.2006702678687e6 0.0
8.2006702678687e6 -4.912871978387479e6 0.0
0.0 0.0 0.0

-5.173695554196987e6 1.226888438749712e7 0.0
1.226888438749712e7 54448.80811227113 0.0
0.0 0.0 0.0

-5.393739006082561e6 6.20443068501857e6 0.0
6.20443068501857e6 6.125597286119792e6 0.0
0.0 0.0 0.0

-2.7389137469174014e6 8.064895780762602e6 0.0
8.064895780762602e6 72429.78795437142 0.0
0.0 0.0 0.0

562769.7431161841 6.300404954055872e6 0.0
6.300404954055872e6 -4.907110104527176e6 0.0
0.0 0.0 0.0

-707987.6805115652 3.47505582935921e6 0.0
3.47505582935921e6 -1.0312600653413909e6 0.0
0.0 0.0 0.0

-4.773404865896561e6 5.903085466978724e6 0.0
5.903085466978724e6 4.549764739214095e6 0.0
0.0 0.0 0.0

-1.585755697540584e6 9.772283310391694e6 0.0
9.772283310391694e6 -2.367109931204036e6 0.0
0.0 0.0 0.0

431586.36173266196 9.52536383340362e6 0.0
9.52536383340362e6 -3.569286981146147e6 0.0
0.0 0.0 0.0

-5.32281058373288e6 9.618239642687771e6 0.0
9.618239642687771e6 2.7185285183593323e6 0.0
0.0 0.0 0.0

-538406.4552365337 8.352811252797809e6 0.0
8.352811252797809e6 -3.652254062744062e6 0.0
0.0 0.0 0.0

914557.8074834754 6.437325016486343e6 0.0
6.437325016486343e6 -4.919955074996777e6 0.0
0.0 0.0 0.0

669487.7191814987 6.4491949804417575e6 0.0
6.4491949804417575e6 -5.104876007888497e6 0.0
0.0 0.0 0.0

-517243.18728853646 4.442937866676498e6 0.0
4.442937866676498e6 -3.144124345649988e6 0.0
0.0 0.0 0.0

631347.0184881408 6.621946624908792e6 0.0
6.621946624908792e6 -5.216931199427208e6 0.0
0.0 0.0 0.0

453747.0638369429 6.390163899968532e6 0.0
6.390163899968532e6 -4.0819251187524674e6 0.0
0.0 0.0 0.0

-8.70227189393506e6 9.400597152417144e6 0.0
9.400597152417144e6 5.05215469524035e6 0.0
0.0 0.0 0.0

-5.515333145927413e6 1.3487286952879786e7 0.0
1.3487286952879786e7 -231350.54104958382 0.0
0.0 0.0 0.0

-3.0795275141639174e6 9.082457550694048e6 0.0
9.082457550694048e6 1.1033014579481524e6 0.0
0.0 0.0 0.0

219532.40942746773 6.553901986155308e6 0.0
6.553901986155308e6 -4.345343764293052e6 0.0
0.0 0.0 0.0

-3.088879869867269e6 7.05113450921627e6 0.0
7.05113450921627e6 -344309.29997089715 0.0
0.0 0.0 0.0

-378324.5217152258 6.820029107986584e6 0.0
6.820029107986584e6 -2.841428462807907e6 0.0
0.0 0.0 0.0

-1.8704964557094914e6 9.384180371613583e6 0.0
9.384180371613583e6 -6.2349892415541895e6 0.0
0.0 0.0 0.0

2.5830483212791895e6 1.3727554816860026e7 0.0
1.3727554816860026e7 8.610172816014703e6 0.0
0.0 0.0 0.0

2.153436425177325e6 1.0516715167415382e7 0.0
1.0516715167415382e7 -3.8374850813524798e6 0.0
0.0 0.0 0.0

3.883597276514322e6 1.0112028800459702e7 0.0
1.0112028800459702e7 -6.729402154484231e6 0.0
0.0 0.0 0.0

1.4627073655054518e6 7.076507529553285e6 0.0
7.076507529553285e6 -7.6211662321394645e6 0.0
0.0 0.0 0.0

-1.2926416868822267e6 9.151887742509706e6 0.0
9.151887742509706e6 -2.6799160823953203e6 0.0
0.0 0.0 0.0

-998766.9905232491 9.736248941466505e6 0.0
9.736248941466505e6 632292.3664898863 0.0
0.0 0.0 0.0

-5.93018297162076e6 1.9615985708394719e6 0.0
1.9615985708394719e6 6.0356598389612315e6 0.0
0.0 0.0 0.0

-6.190598868439982e6 5.487564232722843e6 0.0
5.487564232722843e6 9.6533302196085e6 0.0
0.0 0.0 0.0

-1.5516148017730336e6 9.728628564583808e6 0.0
9.728628564583808e6 429265.82336586167 0.0
0.0 0.0 0.0

-1.891721402245903e6 5.9120905538284695e6 0.0
5.9120905538284695e6 -839544.75723173 0.0
0.0 0.0 0.0

-7.793619173134622e6 8.644005673627121e6 0.0
8.644005673627121e6 3.970874064198065e6 0.0
0.0 0.0 0.0

-3.4867986768094357e6 7.6680732338745305e6 0.0
7.6680732338745305e6 2.550363343656853e6 0.0
0.0 0.0 0.0

-1.247464354854209e6 6.200028707582394e6 0.0
6.200028707582394e6 -894452.9889029255 0.0
0.0 0.0 0.0

-3.6557160276590004e6 8.45545175211893e6 0.0
8.45545175211893e6 1.1559508752834524e6 0.0
0.0 0.0 0.0

1.4108891545175333e6 6.853454770787808e6 0.0
6.853454770787808e6 -6.532767245090192e6 0.0
0.0 0.0 0.0

-162895.5558501843 7.383374412640577e6 0.0
7.383374412640577e6 -4.352175416607928e6 0.0
0.0 0.0 0.0

-2.42038125861604e6 9.905045283658924e6 0.0
9.905045283658924e6 -1.8733867608167508e6 0.0
0.0 0.0 0.0

-532446.8269323522 7.458386988888092e6 0.0
7.458386988888092e6 -4.0238175936498577e6 0.0
0.0 0.0 0.0

-8.417036009233322e6 1.980550140402301e6 0.0
1.980550140402301e6 1.084184127561011e7 0.0
0.0 0.0 0.0

-236548.9820592534 5.167353318253342e6 0.0
5.167353318253342e6 -1.5733092169061354e6 0.0
0.0 0.0 0.0

-9.874819310123218e6 944852.0513643447 0.0
944852.0513643447 1.6023228670509733e7 0.0
0.0 0.0 0.0

-2.558991483825519e6 8.92713200091466e6 0.0
8.92713200091466e6 -1.7222217979388929e6 0.0
0.0 0.0 0.0

-3.296429706715403e6 8.985000957716694e6 0.0
8.985000957716694e6 1.441588569066257e6 0.0
0.0 0.0 0.0

-1.0342642142486544e6 5.14566215346067e6 0.0
5.14566215346067e6 -640083.3678747052 0.0
0.0 0.0 0.0

-4.0206164058268443e6 1.1822920094153952e7 0.0
1.1822920094153952e7 -746780.9915184072 0.0
0.0 0.0 0.0

-392810.1608928238 4.965924343387493e6 0.0
4.965924343387493e6 -1.5698500423622206e6 0.0
0.0 0.0 0.0

-3.641036736464396e6 7.273960945006208e6 0.0
7.273960945006208e6 2.298232491611913e6 0.0
0.0 0.0 0.0

2.9400459694338306e6 1.3069392545966286e7 0.0
1.3069392545966286e7 -8.217294790018246e6 0.0
0.0 0.0 0.0

-3.9932748471415434e6 5.793569130239728e6 0.0
5.793569130239728e6 2.9606339476802736e6 0.0
0.0 0.0 0.0

-39116.05581057136 5.228391528460978e6 0.0
5.228391528460978e6 -1.0575065996331293e6 0.0
0.0 0.0 0.0

-7.752588419168678e6 -2.815904194670321e6 0.0
-2.815904194670321e6 2.2926148226747257e6 0.0
0.0 0.0 0.0

794879.7618813778 5.815297491201288e6 0.0
5.815297491201288e6 -5.15767813858966e6 0.0
0.0 0.0 0.0

-6.197013326975488e6 9.123916931433529e6 0.0
9.123916931433529e6 3.429606640101217e6 0.0
0.0 0.0 0.0

-604445.1430169628 3.1672591950636827e6 0.0
3.1672591950636827e6 -1.3212632415701048e6 0.0
0.0 0.0 0.0

-1.7829835049028997e6 5.583642834757224e6 0.0
5.583642834757224e6 -850660.2818578199 0.0
0.0 0.0 0.0

-768155.4671746426 1.9393478345774275e6 0.0
1.9393478345774275e6 249309.99895157886 0.0
0.0 0.0 0.0

-1.2545029053089344e6 9.840804595535088e6 0.0
9.840804595535088e6 -2.8782968880997114e6 0.0
0.0 0.0 0.0

-603748.7751455219 1.8327824197862342e6 0.0
1.8327824197862342e6 253367.8985143855 0.0
0.0 0.0 0.0

-1.74680889993766e6 8.443512548822e6 0.0
8.443512548822e6 -2.6424987942491663e6 0.0
0.0 0.0 0.0

-5.079549872549397e6 6.633599660780646e6 0.0
6.633599660780646e6 5.537534459459903e6 0.0
0.0 0.0 0.0

-878425.806857795 4.925563668340543e6 0.0
4.925563668340543e6 -948658.5788684806 0.0
0.0 0.0 0.0

-7.576338006273158e6 6.646269074453799e6 0.0
6.646269074453799e6 7.857665025963447e6 0.0
0.0 0.0 0.0

-1.9899584963556095e6 4.954778772959504e6 0.0
4.954778772959504e6 695409.3446339553 0.0
0.0 0.0 0.0

-4.259708427962168e6 8.327127389212507e6 0.0
8.327127389212507e6 1.3525308749532725e6 0.0
0.0 0.0 0.0

1.1972328200314576e6 6.9858605831518e6 0.0
6.9858605831518e6 -6.303775718728826e6 0.0
0.0 0.0 0.0

-4.916081022541987e6 7.358014461612707e6 0.0
7.358014461612707e6 5.52158489329238e6 0.0
0.0 0.0 0.0

3.0184486478484017e6 8.26389965310696e6 0.0
8.26389965310696e6 -2.492828158118873e6 0.0
0.0 0.0 0.0

-4.202487216433383e6 -683350.4557648225 0.0
-683350.4557648225 4.336737332186116e6 0.0
0.0 0.0 0.0

582699.7312492398 7.677807855677724e6 0.0
7.677807855677724e6 -5.604040120851203e6 0.0
0.0 0.0 0.0

-1.1911368638445414e6 5.684516140103204e6 0.0
5.684516140103204e6 -689690.4947212801 0.0
0.0 0.0 0.0

-86272.79326043243 5.857699443907244e6 0.0
5.857699443907244e6 -3.4511955404408555e6 0.0
0.0 0.0 0.0

-375563.0045866858 2.9163181339430436e6 0.0
2.9163181339430436e6 -854082.5969347195 0.0
0.0 0.0 0.0

-614434.9462439069 3.1660446281364155e6 0.0
3.1660446281364155e6 -498724.00464411103 0.0
0.0 0.0 0.0

-1.1754639209785478e6 7.850968598872133e6 0.0
7.850968598872133e6 -3.2597013484267793e6 0.0
0.0 0.0 0.0

-682541.0867135206 3.923602767481788e6 0.0
3.923602767481788e6 -539303.9758514847 0.0
0.0 0.0 0.0

-3.4623364198522433e6 8.995343766518345e6 0.0
8.995343766518345e6 1.3991093622243544e6 0.0
0.0 0.0 0.0

-4.816812871481429e6 6.427382800204484e6 0.0
6.427382800204484e6 5.4536308585161455e6 0.0
0.0 0.0 0.0

-1.048746048202795e6 3.537321967673914e6 0.0
3.537321967673914e6 -914277.0387871602 0.0
0.0 0.0 0.0

-2.481503369510253e6 9.123724538459448e6 0.0
9.123724538459448e6 -1.4106383251590603e6 0.0
0.0 0.0 0.0

-37186.88000778784 6.570007559655055e6 0.0
6.570007559655055e6 -3.983204049588255e6 0.0
0.0 0.0 0.0

-5.718920571532949e6 1.025516211897017e7 0.0
1.025516211897017e7 1.4752748401178352e6 0.0
0.0 0.0 0.0

426457.85466394015 8.810849372895272e6 0.0
8.810849372895272e6 -7.349941449160058e6 0.0
0.0 0.0 0.0

2.2130305224275235e6 6.204446508233404e6 0.0
6.204446508233404e6 -4.717879073350092e6 0.0
0.0 0.0 0.0

119106.31580353063 6.564215944416881e6 0.0
6.564215944416881e6 -4.237918320041689e6 0.0
0.0 0.0 0.0

-350810.9333633052 8.39040798408896e6 0.0
8.39040798408896e6 -4.761158526666388e6 0.0
0.0 0.0 0.0

-1.177115398381641e6 4.0837310636592736e6 0.0
4.0837310636592736e6 -781783.9600550479 0.0
0.0 0.0 0.0

-1.1409156407239882e6 9.127748018338265e6 0.0
9.127748018338265e6 -5.837800768837157e6 0.0
0.0 0.0 0.0

598880.1975445065 3.288780960874557e6 0.0
3.288780960874557e6 -2.661318242211579e6 0.0
0.0 0.0 0.0

97475.29535391391 5.815639771727376e6 0.0
5.815639771727376e6 -3.916998349217084e6 0.0
0.0 0.0 0.0

-801669.4541424455 9.819942285864873e6 0.0
9.819942285864873e6 -530865.1159492747 0.0
0.0 0.0 0.0

-9.033756487682782e6 3.3550835591690904e6 0.0
3.3550835591690904e6 1.0497762181972504e7 0.0
0.0 0.0 0.0

-5.986861981526631e6 9.635068535361907e6 0.0
9.635068535361907e6 3.1181036955109234e6 0.0
0.0 0.0 0.0

-3.156496534620557e6 164760.49784094692 0.0
164760.49784094692 1.5548589080906485e6 0.0
0.0 0.0 0.0

-727035.0081272523 7.559988622555345e6 0.0
7.559988622555345e6 -3.7560552280536927e6 0.0
0.0 0.0 0.0

-1.0351899778738676e6 9.521527581678312e6 0.0
9.521527581678312e6 1.239563516791149e6 0.0
0.0 0.0 0.0

-5.357094872732011e6 1.0329933930341609e7 0.0
1.0329933930341609e7 948319.4288927624 0.0
0.0 0.0 0.0

-1.65750630380392e6 5.637773124635034e6 0.0
5.637773124635034e6 -1.6701028852567922e6 0.0
0.0 0.0 0.0

-4.6529901994165825e6 1.1330568864513688e7 0.0
1.1330568864513688e7 -146533.92016646895 0.0
0.0 0.0 0.0

-1.6079705240589147e6 5.908855629774746e6 0.0
5.908855629774746e6 -1.7432822868800517e6 0.0
0.0 0.0 0.0

-379866.9633529013 2.0475619514172366e6 0.0
2.0475619514172366e6 -1.0763214613013593e6 0.0
0.0 0.0 0.0

-2.5726846922494965e6 9.386218206663858e6 0.0
9.386218206663858e6 -1.7815994068619758e6 0.0
0.0 0.0 0.0

-7.987057980078512e6 1.751429701034019e7 0.0
1.751429701034019e7 1.5763838240085728e6 0.0
0.0 0.0 0.0

-529986.9232764652 1.1880771944668448e7 0.0
1.1880771944668448e7 -3.336925394407871e6 0.0
0.0 0.0 0.0

-1.4447517843921022e6 9.471677712420482e6 0.0
9.471677712420482e6 -2.5211136046923264e6 0.0
0.0 0.0 0.0

-2.0175106165974422e6 7.416234731368163e6 0.0
7.416234731368163e6 -671457.0571683053 0.0
0.0 0.0 0.0

-2.739511877655902e6 6.813577088917295e6 0.0
6.813577088917295e6 -21389.764287244878 0.0
0.0 0.0 0.0

832111.6466924553 5.435124830036497e6 0.0
5.435124830036497e6 -4.871126459017354e6 0.0
0.0 0.0 0.0

3.193343545929835e6 -152852.68442306074 0.0
-152852.68442306074 -4.472438204652151e6 0.0
0.0 0.0 0.0

-1.5852706992021406e6 5.103055638644591e6 0.0
5.103055638644591e6 -997508.6011732495 0.0
0.0 0.0 0.0

-2.9699954236097867e6 9.536328739078652e6 0.0
9.536328739078652e6 86819.54824552429 0.0
0.0 0.0 0.0

370101.8446293557 7.964750239689545e6 0.0
7.964750239689545e6 -4.070117676968846e6 0.0
0.0 0.0 0.0

-1.882163597529727e6 8.087030881306831e6 0.0
8.087030881306831e6 -2.3492252634553537e6 0.0
0.0 0.0 0.0

-941987.0307513579 9.82691875230611e6 0.0
9.82691875230611e6 346312.43678049167 0.0
0.0 0.0 0.0

-236408.19218354032 7.334903328345184e6 0.0
7.334903328345184e6 -3.828808931366709e6 0.0
0.0 0.0 0.0

-514772.6877878003 3.725981990349975e6 0.0
3.725981990349975e6 -667066.089773675 0.0
0.0 0.0 0.0

-1.2074120687862772e7 6.393098939496556e6 0.0
6.393098939496556e6 3.522067163676818e6 0.0
0.0 0.0 0.0

183719.67944257404 7.400674520071162e6 0.0
7.400674520071162e6 -4.603925593751937e6 0.0
0.0 0.0 0.0

-1.0777337028892096e7 -4.910702135683459e6 0.0
-4.910702135683459e6 6.04071614695156e6 0.0
0.0 0.0 0.0

157775.99123705085 7.37796856754236e6 0.0
7.37796856754236e6 -3.8553318892432996e6 0.0
0.0 0.0 0.0

-2.687874042270203e6 8.753278194660816e6 0.0
8.753278194660816e6 2.693766038201269e6 0.0
0.0 0.0 0.0

395381.05903912336 7.971045905312466e6 0.0
7.971045905312466e6 -5.663798671918077e6 0.0
0.0 0.0 0.0

-177205.94230575138 8.366516580581214e6 0.0
8.366516580581214e6 -4.441191470628469e6 0.0
0.0 0.0 0.0

-141445.18094147588 4.9354226953033535e6 0.0
4.9354226953033535e6 -1.2549966289649408e6 0.0
0.0 0.0 0.0

-1.9066758512419034e6 2.7076836616722755e6 0.0
2.7076836616722755e6 900242.1329658638 0.0
0.0 0.0 0.0

-2.0696332855430387e6 6.01971735685406e6 0.0
6.01971735685406e6 -730908.0494180447 0.0
0.0 0.0 0.0

-1.7794300017933147e6 7.53418687066312e6 0.0
7.53418687066312e6 -930309.0602785335 0.0
0.0 0.0 0.0

-4.1430395071532093e6 2.079337748274043e6 0.0
2.079337748274043e6 3.3483734048573663e6 0.0
0.0 0.0 0.0

-1.8119560187564543e6 5.950224671086782e6 0.0
5.950224671086782e6 -630127.802137448 0.0
0.0 0.0 0.0

-2.354482515870015e6 9.109965172385657e6 0.0
9.109965172385657e6 -1.9828232645362332e6 0.0
0.0 0.0 0.0

-2.466202019285055e6 8.553240086164776e6 0.0
8.553240086164776e6 -1.3057554445447982e6 0.0
0.0 0.0 0.0

-2.7299160161935044e6 9.66822524148507e6 0.0
9.66822524148507e6 -1.6801913482962763e6 0.0
0.0 0.0 0.0

-1.5655618255218884e6 8.198626361996767e6 0.0
8.198626361996767e6 -2.818124427803446e6 0.0
0.0 0.0 0.0

-783033.3225078934 4.482980671372163e6 0.0
4.482980671372163e6 -3.271452526673541e6 0.0
0.0 0.0 0.0

191380.28291142895 8.628578280297637e6 0.0
8.628578280297637e6 -3.856881316350996e6 0.0
0.0 0.0 0.0

-2.579752690216271e6 8.352617834801514e6 0.0
8.352617834801514e6 -1.6339952013097014e6 0.0
0.0 0.0 0.0

-1.696489627207223e6 5.84210833541692e6 0.0
5.84210833541692e6 -1.3652331048890173e6 0.0
0.0 0.0 0.0

-379177.12047317607 3.6368052792963404e6 0.0
3.6368052792963404e6 -768417.6362144086 0.0
0.0 0.0 0.0

-1.4141682625550781e6 8.001833534866831e6 0.0
8.001833534866831e6 -3.050533848262432e6 0.0
0.0 0.0 0.0

-1.7542288444588599e6 9.094240664341325e6 0.0
9.094240664341325e6 -5.847429367896954e6 0.0
0.0 0.0 0.0

-158998.85527385236 5.54316705861175e6 0.0
5.54316705861175e6 -1.3261435238412274e6 0.0
0.0 0.0 0.0

-72236.84340033378 6.982146127728418e6 0.0
6.982146127728418e6 -3.706739261841759e6 0.0
0.0 0.0 0.0

-1.1295720517800718e6 2.8778656786020906e6 0.0
2.8778656786020906e6 -2.0040490411064976e6 0.0
0.0 0.0 0.0

534199.9197021946 8.583928298322683e6 0.0
8.583928298322683e6 -6.990836261257986e6 0.0
0.0 0.0 0.0

-1.6977273840027724e6 6.974530352898553e6 0.0
6.974530352898553e6 -712732.9419342862 0.0
0.0 0.0 0.0

43455.30580555089 7.736107429770549e6 0.0
7.736107429770549e6 -4.438763104504233e6 0.0
0.0 0.0 0.0

-1.3501655707982467e6 3.7679345743735586e6 0.0
3.7679345743735586e6 129926.80322513205 0.0
0.0 0.0 0.0

-5.832699931203492e6 -352617.1171545911 0.0
-352617.1171545911 8.009631889573911e6 0.0
0.0 0.0 0.0

-566316.9671395604 9.804053013334315e6 0.0
9.804053013334315e6 -461542.85689138726 0.0
0.0 0.0 0.0

-139735.55780724424 9.214147912022984e6 0.0
9.214147912022984e6 -803978.2215394073 0.0
0.0 0.0 0.0

-3.3933906750121443e6 9.16946120136172e6 0.0
9.16946120136172e6 1.4069490501711676e6 0.0
0.0 0.0 0.0

-3.294079816237933e6 8.087139945521021e6 0.0
8.087139945521021e6 498670.5559525527 0.0
0.0 0.0 0.0

1.442982328370262e6 6.1221510647703e6 0.0
6.1221510647703e6 -5.775533108843541e6 0.0
0.0 0.0 0.0

1.4396211019163425e6 6.378636818208201e6 0.0
6.378636818208201e6 -5.892450138308517e6 0.0
0.0 0.0 0.0

-2.5893645325123747e6 3.718788469618966e6 0.0
3.718788469618966e6 2.374579831250235e6 0.0
0.0 0.0 0.0

-2.1136759653575867e6 8.843449947455745e6 0.0
8.843449947455745e6 -2.2026143765294403e6 0.0
0.0 0.0 0.0

2.22637863069528e6 9.522394576380556e6 0.0
9.522394576380556e6 -4.05815079242655e6 0.0
0.0 0.0 0.0

-9.927840025839284e6 -1.4410360360963782e6 0.0
-1.4410360360963782e6 1.29912682168036e7 0.0
0.0 0.0 0.0

-2.459247068382594e6 7.789249534265212e6 0.0
7.789249534265212e6 -103138.91684528906 0.0
0.0 0.0 0.0

-2.4785591478608595e6 6.6432882633767305e6 0.0
6.6432882633767305e6 -1.161791613294711e6 0.0
0.0 0.0 0.0

-1.0490531039979601e7 7.230452448385345e6 0.0
7.230452448385345e6 1.4216907322047954e7 0.0
0.0 0.0 0.0

-420856.0241859575 2.0196748119885286e6 0.0
2.0196748119885286e6 -801382.9223856528 0.0
0.0 0.0 0.0

-3.9514423435309064e6 8.620322448859328e6 0.0
8.620322448859328e6 1612.1422251022886 0.0
0.0 0.0 0.0

-4.128440058785988e6 7.8842593404198345e6 0.0
7.8842593404198345e6 4.7116335510457195e6 0.0
0.0 0.0 0.0

-111707.9644113821 7.223138174354682e6 0.0
7.223138174354682e6 -4.1021002519955165e6 0.0
0.0 0.0 0.0

-1.7802421961626925e6 5.596107282909792e6 0.0
5.596107282909792e6 -922504.3018481402 0.0
0.0 0.0 0.0

-8.061296228599996e6 5.182837682546802e6 0.0
5.182837682546802e6 1.1712102932896793e7 0.0
0.0 0.0 0.0

835404.3232712676 7.280721864604633e6 0.0
7.280721864604633e6 -5.8105819369564485e6 0.0
0.0 0.0 0.0

-1.1806985819838862e6 9.304021259728795e6 0.0
9.304021259728795e6 -2.8162645829964443e6 0.0
0.0 0.0 0.0

-1.9663679493353316e6 681757.5394751651 0.0
681757.5394751651 2.403784126305996e6 0.0
0.0 0.0 0.0

621697.34823091 7.51391722097813e6 0.0
7.51391722097813e6 -5.574293701564454e6 0.0
0.0 0.0 0.0

-485559.35966829583 4.147192317679895e6 0.0
4.147192317679895e6 -1.7042353057235132e6 0.0
0.0 0.0 0.0

683817.8457665304 6.964247846535725e6 0.0
6.964247846535725e6 -5.058500367136067e6 0.0
0.0 0.0 0.0

-1.7138799116709745e6 6.424910562923005e6 0.0
6.424910562923005e6 -2.3539354078795584e6 0.0
0.0 0.0 0.0

-1.8830621818671185e6 8.565938162570074e6 0.0
8.565938162570074e6 -2.3989119881286058e6 0.0
0.0 0.0 0.0

-3.126541616739395e6 1.8700654564117116e6 0.0
1.8700654564117116e6 2.376402334974169e6 0.0
0.0 0.0 0.0

1.2102424691675415e6 8.020382415754253e6 0.0
8.020382415754253e6 -1.6970639218253172e6 0.0
0.0 0.0 0.0

-317356.2487389782 3.5067009995959857e6 0.0
3.5067009995959857e6 -795556.5800661631 0.0
0.0 0.0 0.0

-708646.7940763335 8.51434044596095e6 0.0
8.51434044596095e6 -3.4371573270382537e6 0.0
0.0 0.0 0.0

-589569.727979288 5.246616087894392e6 0.0
5.246616087894392e6 -950505.6143194486 0.0
0.0 0.0 0.0

-799354.1512646736 1.484188715663269e6 0.0
1.484188715663269e6 -2.0597551175401034e6 0.0
0.0 0.0 0.0

-1.88538476527886e6 7.429649091499919e6 0.0
7.429649091499919e6 -2.2590292161019635e6 0.0
0.0 0.0 0.0

274443.15285416227 7.929980708965461e6 0.0
7.929980708965461e6 -4.023147591840164e6 0.0
0.0 0.0 0.0

-918081.4774309169 2.7551056527747083e6 0.0
2.7551056527747083e6 -78494.69767498123 0.0
0.0 0.0 0.0

1.710168336342611e6 6.350428817479098e6 0.0
6.350428817479098e6 -7.154146505483162e6 0.0
0.0 0.0 0.0

-329531.4546615159 9.096311847812634e6 0.0
9.096311847812634e6 -1.0984381865245143e6 0.0
0.0 0.0 0.0

-1.363876043463899e6 4.305946455614123e6 0.0
4.305946455614123e6 -96216.2516408845 0.0
0.0 0.0 0.0

-3.509908489348242e6 9.049334857969567e6 0.0
9.049334857969567e6 1.0225319627645398e6 0.0
0.0 0.0 0.0

129013.33280048394 7.66372415945708e6 0.0
7.66372415945708e6 237185.211302403 0.0
0.0 0.0 0.0

-4.796047239114944e6 6.959972709782637e6 0.0
6.959972709782637e6 5.034976048797413e6 0.0
0.0 0.0 0.0

-3.383044039698665e6 6.525716735717965e6 0.0
6.525716735717965e6 3.197664611936559e6 0.0
0.0 0.0 0.0

-719692.975019552 686298.3427818454 0.0
686298.3427818454 646589.7480151025 0.0
0.0 0.0 0.0

-1.794193770381144e6 6.458324387787916e6 0.0
6.458324387787916e6 -466060.7758011256 0.0
0.0 0.0 0.0

-228292.412651374 1.0115723685988463e7 0.0
1.0115723685988463e7 3.2556893990426264e6 0.0
0.0 0.0 0.0

-2.2529468434851076e6 9.405883358689072e6 0.0
9.405883358689072e6 1.202903284323133e6 0.0
0.0 0.0 0.0

-1.4787394872028595e6 3.01771070216371e6 0.0
3.01771070216371e6 441535.690087373 0.0
0.0 0.0 0.0

-696038.6578250271 8.146085664529214e6 0.0
8.146085664529214e6 -3.993253129973923e6 0.0
0.0 0.0 0.0

278796.4410403981 5.48511888626907e6 0.0
5.48511888626907e6 -3.8214782652920736e6 0.0
0.0 0.0 0.0

-1.8622651049653706e6 8.76365761181827e6 0.0
8.76365761181827e6 -2.0794196582188013e6 0.0
0.0 0.0 0.0

-1.6553262579848978e6 6.21716933648107e6 0.0
6.21716933648107e6 -582276.2965001896 0.0
0.0 0.0 0.0

3.2195626918329676e6 779260.260241407 0.0
779260.260241407 -6.319563065352455e6 0.0
0.0 0.0 0.0

-4.099116661247525e6 8.576006141042858e6 0.0
8.576006141042858e6 431633.8775411479 0.0
0.0 0.0 0.0

-6.503271769056192e6 672607.9847842181 0.0
672607.9847842181 7.782130073027322e6 0.0
0.0 0.0 0.0

-3.4136390013936814e6 989926.532085414 0.0
989926.532085414 4.534611919727415e6 0.0
0.0 0.0 0.0

-8.850421409631789e6 2.5387369794894336e6 0.0
2.5387369794894336e6 1.051616773003331e7 0.0
0.0 0.0 0.0

-3.3357014383695074e6 9.30323142905806e6 0.0
9.30323142905806e6 -1.0445597429427715e6 0.0
0.0 0.0 0.0

-1.3774261821143492e6 3.8848833903524936e6 0.0
3.8848833903524936e6 -1.4904142213119946e6 0.0
0.0 0.0 0.0

2.0634887293435745e6 8.270947163902572e6 0.0
8.270947163902572e6 566379.8921334398 0.0
0.0 0.0 0.0

121472.0232756543 1.3473980995244795e7 0.0
1.3473980995244795e7 6.645210777300867e6 0.0
0.0 0.0 0.0

232174.4429358933 6.114224873704465e6 0.0
6.114224873704465e6 -4.845332931950068e6 0.0
0.0 0.0 0.0

-662181.8789119268 3.8673690748378118e6 0.0
3.8673690748378118e6 -499396.6388857475 0.0
0.0 0.0 0.0

-1.9978387168708376e6 6.718102616775228e6 0.0
6.718102616775228e6 -316661.457974069 0.0
0.0 0.0 0.0

-3.5283456092499876e6 6.995317920536009e6 0.0
6.995317920536009e6 2.0425622694968965e6 0.0
0.0 0.0 0.0

1.3492016030963305e6 6.632430197273609e6 0.0
6.632430197273609e6 -6.414859566259898e6 0.0
0.0 0.0 0.0

1.0479448799897644e6 6.668034817104633e6 0.0
6.668034817104633e6 -5.428359186637233e6 0.0
0.0 0.0 0.0

-715823.9543996176 5.589811781608635e6 0.0
5.589811781608635e6 -1.584888297862514e6 0.0
0.0 0.0 0.0

-2.7190343491930785e6 7.945920262714444e6 0.0
7.945920262714444e6 181192.68649946724 0.0
0.0 0.0 0.0

-8.411691291602295e6 7.917608016774261e6 0.0
7.917608016774261e6 1.3923063307587272e7 0.0
0.0 0.0 0.0

-2.0542533319875686e6 9.042267643533742e6 0.0
9.042267643533742e6 -1.8825274703651592e6 0.0
0.0 0.0 0.0

-950292.5030567992 5.981285973783971e6 0.0
5.981285973783971e6 -1.0253259081992884e6 0.0
0.0 0.0 0.0

1.2088702347079285e6 6.499323996581988e6 0.0
6.499323996581988e6 -5.62134222476264e6 0.0
0.0 0.0 0.0

-3.1011827008599676e6 7.5318844455986135e6 0.0
7.5318844455986135e6 1.0221727960745348e6 0.0
0.0 0.0 0.0

-235465.222765379 6.532387932819347e6 0.0
6.532387932819347e6 -3.8082672695467295e6 0.0
0.0 0.0 0.0

-1.1001764096216941e6 1.6724061357061649e6 0.0
1.6724061357061649e6 -194423.09240047724 0.0
0.0 0.0 0.0

-1.673555325049323e6 7.802627767351419e6 0.0
7.802627767351419e6 -2.5529664916317035e6 0.0
0.0 0.0 0.0

-274443.65069603076 3.718316159755671e6 0.0
3.718316159755671e6 -1.498066550913931e6 0.0
0.0 0.0 0.0

-1.5651428043157046e6 5.951735978458965e6 0.0
5.951735978458965e6 -620876.6293448331 0.0
0.0 0.0 0.0

-1.461203277001843e6 5.585979957726269e6 0.0
5.585979957726269e6 -632552.2554790848 0.0
0.0 0.0 0.0

-1.915804822560622e6 6.757482870264103e6 0.0
6.757482870264103e6 -2.1691887761080856e6 0.0
0.0 0.0 0.0

-2.0014696084282552e6 5.933512782142435e6 0.0
5.933512782142435e6 -709095.412291145 0.0
0.0 0.0 0.0

-2.9067685656950693e6 2.1054617511329646e6 0.0
2.1054617511329646e6 1.9282370345862717e6 0.0
0.0 0.0 0.0

-8.807475931273907e6 4.937151825961789e6 0.0
4.937151825961789e6 1.4155770886989862e7 0.0
0.0 0.0 0.0

-9.782563272432942e6 2.5572814341339967e6 0.0
2.5572814341339967e6 1.1749785869450904e7 0.0
0.0 0.0 0.0

-8.45923236203034e6 5.068995996047822e6 0.0
5.068995996047822e6 1.2888140586176194e7 0.0
0.0 0.0 0.0

-1.3319422081467204e7 -610705.0036391817 0.0
-610705.0036391817 1.9575184858586382e7 0.0
0.0 0.0 0.0

-930772.9815247126 9.872060068435414e6 0.0
9.872060068435414e6 166918.24377675127 0.0
0.0 0.0 0.0

-1.0240727109837685e7 -335470.6280332847 0.0
-335470.6280332847 1.2188328776734304e7 0.0
0.0 0.0 0.0

-3.7862653154102396e6 7.686856566195014e6 0.0
7.686856566195014e6 359263.7363688287 0.0
0.0 0.0 0.0

-38735.4615116918 8.93072968557897e6 0.0
8.93072968557897e6 -4.1926994242122388e6 0.0
0.0 0.0 0.0

-1.758998045045489e7 1.0908696567130676e7 0.0
1.0908696567130676e7 2.80415474423318e6 0.0
0.0 0.0 0.0

-179148.4217001875 5.390465932520546e6 0.0
5.390465932520546e6 -3.9680417797293616e6 0.0
0.0 0.0 0.0

-413854.3606869705 7.46387565495118e6 0.0
7.46387565495118e6 -3.6224926857422893e6 0.0
0.0 0.0 0.0

-4.26245407869343e6 8.416392843718365e6 0.0
8.416392843718365e6 687628.4603931226 0.0
0.0 0.0 0.0

-3.820584865323643e6 8.409283377517853e6 0.0
8.409283377517853e6 1.2299506024820693e6 0.0
0.0 0.0 0.0

713248.9195676621 6.793536605535343e6 0.0
6.793536605535343e6 -4.9390020281856805e6 0.0
0.0 0.0 0.0

2.3398345006782934e6 1.1967520113559239e7 0.0
1.1967520113559239e7 -6.00775816639388e6 0.0
0.0 0.0 0.0

-1.6783989783360695e6 6.060870198020118e6 0.0
6.060870198020118e6 -811359.5136068766 0.0
0.0 0.0 0.0

1.5141782678154297e6 6.934110255028871e6 0.0
6.934110255028871e6 -7.43176608040064e6 0.0
0.0 0.0 0.0

-1.5861846418014758e6 5.748189334252601e6 0.0
5.748189334252601e6 -923109.8825347677 0.0
0.0 0.0 0.0

-273671.7758214362 5.120759068182142e6 0.0
5.120759068182142e6 -3.5049277691819672e6 0.0
0.0 0.0 0.0

-4.451682816158255e6 6.958952026602935e6 0.0
6.958952026602935e6 4.4809180453439625e6 0.0
0.0 0.0 0.0

-1.08409364542867e7 8.842761640921429e6 0.0
8.842761640921429e6 1.226394380312445e6 0.0
0.0 0.0 0.0

-608620.3331788252 2.143981576376126e6 0.0
2.143981576376126e6 -46554.43416835953 0.0
0.0 0.0 0.0

-2.253082454477325e6 9.307990254225105e6 0.0
9.307990254225105e6 -1.6671096602710304e6 0.0
0.0 0.0 0.0

-7.916041596577901e6 4.829036053187734e6 0.0
4.829036053187734e6 5.739478288751515e6 0.0
0.0 0.0 0.0

1.311815946455734e6 4.6823233487084955e6 0.0
4.6823233487084955e6 -5.60662719936364e6 0.0
0.0 0.0 0.0

-1.2519541121641935e6 4.120694603622301e6 0.0
4.120694603622301e6 130462.42842501262 0.0
0.0 0.0 0.0

-1.7905230169719178e6 7.647595108982308e6 0.0
7.647595108982308e6 -1.9178551593653786e6 0.0
0.0 0.0 0.0

-1.966938201962687e6 6.010353154319759e6 0.0
6.010353154319759e6 -843188.0743018617 0.0
0.0 0.0 0.0

-1.8162772973514341e6 6.293834468003074e6 0.0
6.293834468003074e6 -707119.0786952863 0.0
0.0 0.0 0.0

-8.273699929636947e6 2.4922366082350467e6 0.0
2.4922366082350467e6 9.726845255991027e6 0.0
0.0 0.0 0.0

1.2991113715768696e6 5.721727487347804e6 0.0
5.721727487347804e6 -5.218543252405943e6 0.0
0.0 0.0 0.0

1.2674572438750137e6 8.168212887575577e6 0.0
8.168212887575577e6 -4.12187752842934e6 0.0
0.0 0.0 0.0

-3.0293369162457576e6 7.810769457472285e6 0.0
7.810769457472285e6 770170.3658091144 0.0
0.0 0.0 0.0

-254724.49216006603 4.2836101473633135e6 0.0
4.2836101473633135e6 -1.6209074424466211e6 0.0
0.0 0.0 0.0

-1.747305260878791e6 5.960876839454159e6 0.0
5.960876839454159e6 -2.2127083987225858e6 0.0
0.0 0.0 0.0

363364.3784241306 6.604495189250346e6 0.0
6.604495189250346e6 -4.26673824378577e6 0.0
0.0 0.0 0.0

-6.804518660439833e6 1.1731323809298151e6 0.0
1.1731323809298151e6 7.964680767650475e6 0.0
0.0 0.0 0.0

-972892.6040597274 9.9477061604998e6 0.0
9.9477061604998e6 6887.524815773591 0.0
0.0 0.0 0.0

-703311.4551741052 3.1490338731611874e6 0.0
3.1490338731611874e6 -329266.1602880069 0.0
0.0 0.0 0.0

389192.3907533034 7.71736764928418e6 0.0
7.71736764928418e6 -5.3565665573847275e6 0.0
0.0 0.0 0.0

-744754.4074557001 9.216044436969312e6 0.0
9.216044436969312e6 -4.0008560046292753e6 0.0
0.0 0.0 0.0

-1.3520821646825708e6 4.412118977534634e6 0.0
4.412118977534634e6 -149358.99389706895 0.0
0.0 0.0 0.0

-337557.78981818794 8.386823890276848e6 0.0
8.386823890276848e6 -4.05359606510781e6 0.0
0.0 0.0 0.0

-1.5076009716900373e6 8.377367053975839e6 0.0
8.377367053975839e6 -2.5372171954797576e6 0.0
0.0 0.0 0.0

-25577.725661342003 2.101682143950913e6 0.0
2.101682143950913e6 -844075.4914586917 0.0
0.0 0.0 0.0

-589954.7427154551 3.3521525833604787e6 0.0
3.3521525833604787e6 -658443.5263553814 0.0
0.0 0.0 0.0

-1.4027018284502141e6 5.230494252695426e6 0.0
5.230494252695426e6 -2.186322577112666e6 0.0
0.0 0.0 0.0

-1.173785361300087e6 4.889371314191508e6 0.0
4.889371314191508e6 -2.457806840698076e6 0.0
0.0 0.0 0.0

-1.7983468743831813e6 8.288886486644833e6 0.0
8.288886486644833e6 -2.0320292862588568e6 0.0
0.0 0.0 0.0

-1.0120361122671594e6 9.990500780969094e6 0.0
9.990500780969094e6 -124188.45049144622 0.0
0.0 0.0 0.0

-898450.0327075847 4.5298383071885845e6 0.0
4.5298383071885845e6 -2.9230871249061185e6 0.0
0.0 0.0 0.0

635735.0684061432 8.117908399640049e6 0.0
8.117908399640049e6 -6.591962590132459e6 0.0
0.0 0.0 0.0

-152696.8142653748 5.162364270497709e6 0.0
5.162364270497709e6 -1.6868322388471805e6 0.0
0.0 0.0 0.0

-1.1177717810985409e6 8.598945853889544e6 0.0
8.598945853889544e6 -5.725581218807042e6 0.0
0.0 0.0 0.0

-2.9440676269783e7 -2.809688848413658e6 0.0
-2.809688848413658e6 1.0504127314823797e7 0.0
0.0 0.0 0.0

2.0861172736097023e7 8.568939836519236e6 0.0
8.568939836519236e6 -3.4033690257920884e6 0.0
0.0 0.0 0.0

574099.2844676566 8.344883636899972e6 0.0
8.344883636899972e6 -6.879815662464732e6 0.0
0.0 0.0 0.0

-2.0812478565767831e6 5.227144384656083e6 0.0
5.227144384656083e6 1.0506323002534984e6 0.0
0.0 0.0 0.0

-3.1830549221615675e6 7.358466084031756e6 0.0
7.358466084031756e6 397166.49903325294 0.0
0.0 0.0 0.0

-1.605996736346581e6 5.53206425707829e6 0.0
5.53206425707829e6 -1.9694186881215614e6 0.0
0.0 0.0 0.0

-1.2103241626909554e6 2.475178543601291e6 0.0
2.475178543601291e6 -1.8031750112891272e6 0.0
0.0 0.0 0.0

-863901.5341869586 2.948487863072069e6 0.0
2.948487863072069e6 -1.1273678384004128e6 0.0
0.0 0.0 0.0

-1.9932027321753104e6 6.537364778764789e6 0.0
6.537364778764789e6 -591142.4318193571 0.0
0.0 0.0 0.0

624477.0482856473 8.234126042038243e6 0.0
8.234126042038243e6 -6.752319906240829e6 0.0
0.0 0.0 0.0

-1.1899235142134079e6 5.144718941421916e6 0.0
5.144718941421916e6 -2.0505145221742245e6 0.0
0.0 0.0 0.0

-3.371235347388436e6 971307.3707679786 0.0
971307.3707679786 2.224282533889655e6 0.0
0.0 0.0 0.0

1.1957311643994492e7 9.368399234595787e6 0.0
9.368399234595787e6 -4.30560835949229e6 0.0
0.0 0.0 0.0

-1.4067554096998833e6 5.449359375967205e6 0.0
5.449359375967205e6 -1.8380348969822817e6 0.0
0.0 0.0 0.0

791749.5421042477 6.430502770325316e6 0.0
6.430502770325316e6 -4.696469631124452e6 0.0
0.0 0.0 0.0

751756.5923307536 6.6234682686628e6 0.0
6.6234682686628e6 -4.815595937226329e6 0.0
0.0 0.0 0.0

-4.339024804260919e6 7.014409669728528e6 0.0
7.014409669728528e6 4.026686612795327e6 0.0
0.0 0.0 0.0

-1.0452375861174013e6 7.859109440458516e6 0.0
7.859109440458516e6 -2.826219059079107e6 0.0
0.0 0.0 0.0

-1.9565023312887535e6 9.256397372998409e6 0.0
9.256397372998409e6 997986.4226717246 0.0
0.0 0.0 0.0

636650.0433427228 1.1308021736327201e7 0.0
1.1308021736327201e7 -3.7639156054935483e6 0.0
0.0 0.0 0.0

-1.461594225508884e6 5.475906718489331e6 0.0
5.475906718489331e6 -734370.7760214427 0.0
0.0 0.0 0.0

-559139.2161650626 1.8007787324546408e6 0.0
1.8007787324546408e6 -1.4818193923453377e6 0.0
0.0 0.0 0.0

-1.5541431812923322e6 4.359590126532013e6 0.0
4.359590126532013e6 -1.2378536126545963e6 0.0
0.0 0.0 0.0

-490063.89715095074 6.1853400431342395e6 0.0
6.1853400431342395e6 -1.3363467230950987e6 0.0
0.0 0.0 0.0

-419082.1505466327 8.084820993545011e6 0.0
8.084820993545011e6 -5.283970586421165e6 0.0
0.0 0.0 0.0

162379.59086979367 7.57229168486921e6 0.0
7.57229168486921e6 -4.668365684651613e6 0.0
0.0 0.0 0.0

145226.4367669078 4.197465728607327e6 0.0
4.197465728607327e6 -4.795177059940945e6 0.0
0.0 0.0 0.0

-689647.9847069747 4.546774749456333e6 0.0
4.546774749456333e6 -2.984672748935251e6 0.0
0.0 0.0 0.0

-1.9499963387582463e6 6.162612340193169e6 0.0
6.162612340193169e6 -367456.51372377394 0.0
0.0 0.0 0.0

-362598.3458392895 5.694959583550905e6 0.0
5.694959583550905e6 -3.7083396137752165e6 0.0
0.0 0.0 0.0

-1.319748110212298e6 3.3660407233083285e6 0.0
3.3660407233083285e6 -1.8243919909140884e6 0.0
0.0 0.0 0.0

362021.77898603794 7.636204724900161e6 0.0
7.636204724900161e6 -3.8806722801091857e6 0.0
0.0 0.0 0.0

-1.5189421321377233e6 6.647717470570418e6 0.0
6.647717470570418e6 -2.0042442084807514e6 0.0
0.0 0.0 0.0

-301169.39705239254 5.824795114164173e6 0.0
5.824795114164173e6 -1.8502667773328093e6 0.0
0.0 0.0 0.0

-4.0104248364241663e6 8.905559679131456e6 0.0
8.905559679131456e6 -270721.1879498183 0.0
0.0 0.0 0.0

1.5173646138667264e6 6.758443648119113e6 0.0
6.758443648119113e6 -7.184463338243272e6 0.0
0.0 0.0 0.0

-1.7830016305878018e6 6.993909126644368e6 0.0
6.993909126644368e6 -1.8100531466792077e6 0.0
0.0 0.0 0.0

-54347.70977627393 6.5518245771853505e6 0.0
6.5518245771853505e6 -4.012240927365722e6 0.0
0.0 0.0 0.0

-569349.5014620341 4.269219870020682e6 0.0
4.269219870020682e6 -667612.6238611785 0.0
0.0 0.0 0.0

172599.48603108246 6.637124537208046e6 0.0
6.637124537208046e6 -4.207339565443686e6 0.0
0.0 0.0 0.0

-3.2776483453615047e6 8.267572916634509e6 0.0
8.267572916634509e6 522230.75768333045 0.0
0.0 0.0 0.0

-4.0819821164471246e6 1.0999141528200502e7 0.0
1.0999141528200502e7 -569531.9293997502 0.0
0.0 0.0 0.0

-315025.21464322787 9.08526636048167e6 0.0
9.08526636048167e6 -4.202446306550814e6 0.0
0.0 0.0 0.0

-1.068079175886033e6 2.2154031136761927e6 0.0
2.2154031136761927e6 -2.097706355418598e6 0.0
0.0 0.0 0.0

-4.2839418474712875e6 1.0197487326983372e7 0.0
1.0197487326983372e7 690232.2969355944 0.0
0.0 0.0 0.0

-2.8903032776112417e6 9.190504083898019e6 0.0
9.190504083898019e6 -895560.2611315142 0.0
0.0 0.0 0.0

-1.0047576993376153e6 3.983223217904368e6 0.0
3.983223217904368e6 -601631.2077170201 0.0
0.0 0.0 0.0

-2.3565178008596366e6 9.28875877060253e6 0.0
9.28875877060253e6 1.4146585692803178e6 0.0
0.0 0.0 0.0

-289614.31721020164 4.7513180958787175e6 0.0
4.7513180958787175e6 -1.6341909018631657e6 0.0
0.0 0.0 0.0

-1.479510950914649e6 5.35107888906241e6 0.0
5.35107888906241e6 -625164.0915402409 0.0
0.0 0.0 0.0

-8.3522088510906575e6 1.2292943996092184e6 0.0
1.2292943996092184e6 1.1181586688281832e7 0.0
0.0 0.0 0.0

-1.5137979780264455e6 7.40960409255241e6 0.0
7.40960409255241e6 -1.0666671396403557e6 0.0
0.0 0.0 0.0

1.1312385026581534e6 8.337327907090455e6 0.0
8.337327907090455e6 -2.249661161530257e6 0.0
0.0 0.0 0.0

-1.58665174533634e6 5.74228878015846e6 0.0
5.74228878015846e6 -1.640029090576256e6 0.0
0.0 0.0 0.0

-1.9439781607183765e6 6.29760483077807e6 0.0
6.29760483077807e6 -2.012063865696842e6 0.0
0.0 0.0 0.0

558330.5611417932 8.022105792614993e6 0.0
8.022105792614993e6 -6.421720865094635e6 0.0
0.0 0.0 0.0

1.4894499233713686e6 6.941398507647646e6 0.0
6.941398507647646e6 -7.246620416863674e6 0.0
0.0 0.0 0.0

-1.8855306068201456e6 3.235058672370384e6 0.0
3.235058672370384e6 818494.3154454523 0.0
0.0 0.0 0.0

-4.115476147273593e6 8.812024937285312e6 0.0
8.812024937285312e6 1.6496912180947193e6 0.0
0.0 0.0 0.0

-5.459342370059136e6 1.5224729288218336e6 0.0
1.5224729288218336e6 5.440415354911885e6 0.0
0.0 0.0 0.0

-2.4900426932492196e6 9.556730092928596e6 0.0
9.556730092928596e6 -1.5036386722827354e6 0.0
0.0 0.0 0.0

-2.1357777002293635e6 9.800097410091508e6 0.0
9.800097410091508e6 -2.396003720484534e6 0.0
0.0 0.0 0.0

3.0491511425895137e6 4.172644939029485e6 0.0
4.172644939029485e6 854498.3281780599 0.0
0.0 0.0 0.0

-295768.98742462066 4.1812086765670814e6 0.0
4.1812086765670814e6 -2.3988151383869736e6 0.0
0.0 0.0 0.0

-1.2149928802197927e6 5.132144426141725e6 0.0
5.132144426141725e6 -595049.9116624411 0.0
0.0 0.0 0.0

-251416.5147292714 8.615606273195092e6 0.0
8.615606273195092e6 -4.591335859742349e6 0.0
0.0 0.0 0.0

-1.5675947155514522e6 6.195369231322572e6 0.0
6.195369231322572e6 -1.8593516522908637e6 0.0
0.0 0.0 0.0

-1.5957562489568084e6 8.013347294731759e6 0.0
8.013347294731759e6 -2.2393652743172827e6 0.0
0.0 0.0 0.0

-6.507524683005938e6 3.236519503611981e6 0.0
3.236519503611981e6 1.013452813674864e7 0.0
0.0 0.0 0.0

-1.4056321552927566e6 4.1156953844144284e6 0.0
4.1156953844144284e6 172693.92220845778 0.0
0.0 0.0 0.0

-1.9114505079290967e6 5.999365238563406e6 0.0
5.999365238563406e6 -1.8811525439279876e6 0.0
0.0 0.0 0.0

-2.7066381663417392e6 6.919942342757441e6 0.0
6.919942342757441e6 -977601.7263630908 0.0
0.0 0.0 0.0

-2.969709734309309e6 5.69054557765979e6 0.0
5.69054557765979e6 2.7385397492636517e6 0.0
0.0 0.0 0.0

-4.692544135801883e6 8.348921262284777e6 0.0
8.348921262284777e6 1.4501939465592674e6 0.0
0.0 0.0 0.0

304289.330403676 7.683571371093699e6 0.0
7.683571371093699e6 -5.029254446508955e6 0.0
0.0 0.0 0.0

-6.215065277718579e6 9.777953603881232e6 0.0
9.777953603881232e6 3.3000820803313777e6 0.0
0.0 0.0 0.0

-1.3503004077372747e6 5.668910336760974e6 0.0
5.668910336760974e6 -636233.8287217538 0.0
0.0 0.0 0.0

-4.853812002984279e6 1.0022826758365616e7 0.0
1.0022826758365616e7 2.0167465134701678e6 0.0
0.0 0.0 0.0

-381614.3367432219 9.266631309200725e6 0.0
9.266631309200725e6 -911957.2751002997 0.0
0.0 0.0 0.0

-352719.488501686 9.331052237547789e6 0.0
9.331052237547789e6 -3.963563140857993e6 0.0
0.0 0.0 0.0

-1.3845429471821843e6 9.144157897575999e6 0.0
9.144157897575999e6 -244626.10686357992 0.0
0.0 0.0 0.0

-3.545408089296945e6 8.031113637447665e6 0.0
8.031113637447665e6 1.6908866306994401e6 0.0
0.0 0.0 0.0

-2.258738966640359e6 8.260455573068237e6 0.0
8.260455573068237e6 -1.50956513707168e6 0.0
0.0 0.0 0.0

-1.8157032193317658e6 5.81821053112495e6 0.0
5.81821053112495e6 -1.757439477350941e6 0.0
0.0 0.0 0.0

-348729.70786575787 8.93554594046574e6 0.0
8.93554594046574e6 -4.1739452349577416e6 0.0
0.0 0.0 0.0

-1.205602225314869e6 4.902365250021005e6 0.0
4.902365250021005e6 -1.8378856866413553e6 0.0
0.0 0.0 0.0

-3.858675348010489e6 8.184070129399371e6 0.0
8.184070129399371e6 1.1182524571556924e6 0.0
0.0 0.0 0.0

-4.512136864515377e6 8.2441834260690715e6 0.0
8.2441834260690715e6 1.1046635946489156e6 0.0
0.0 0.0 0.0

-380839.95727784344 3.0589012041006214e6 0.0
3.0589012041006214e6 -475765.7747263352 0.0
0.0 0.0 0.0

-752205.3370605845 4.738457451339836e6 0.0
4.738457451339836e6 -2.3942395512016527e6 0.0
0.0 0.0 0.0

-4.849688119722247e6 8.71231533708977e6 0.0
8.71231533708977e6 1.998026020995348e6 0.0
0.0 0.0 0.0

-3.0478564178079497e6 8.11278116334557e6 0.0
8.11278116334557e6 262790.11227358785 0.0
0.0 0.0 0.0

-2.0255595357797824e7 -4.78376118675778e6 0.0
-4.78376118675778e6 8.43873604740439e6 0.0
0.0 0.0 0.0

-310304.81786597474 8.51181118270922e6 0.0
8.51181118270922e6 -4.174844026597454e6 0.0
0.0 0.0 0.0

-2.4116145900665885e6 7.767131054771539e6 0.0
7.767131054771539e6 -67112.86777678702 0.0
0.0 0.0 0.0

-3.6730042148349076e6 7.7302024262130745e6 0.0
7.7302024262130745e6 723167.3151922775 0.0
0.0 0.0 0.0

-2.685435073884502e6 7.925308381976177e6 0.0
7.925308381976177e6 215877.1303343171 0.0
0.0 0.0 0.0

-1.1408203643018655e6 1.0068820681580449e7 0.0
1.0068820681580449e7 -197613.78563942417 0.0
0.0 0.0 0.0

-2.73630972008252e6 8.308367586748306e6 0.0
8.308367586748306e6 -1.051679944309812e6 0.0
0.0 0.0 0.0

-1.44316565047969e6 6.308700605085907e6 0.0
6.308700605085907e6 -679096.265910024 0.0
0.0 0.0 0.0

-1.1964378727902311e6 3.0219890577628603e6 0.0
3.0219890577628603e6 376272.03052952327 0.0
0.0 0.0 0.0

-1.2562204594123876e6 5.147483017970856e6 0.0
5.147483017970856e6 -1.3107110447622584e6 0.0
0.0 0.0 0.0

1.986151750445264e6 1.4146426040016236e6 0.0
1.4146426040016236e6 -3.664038387323637e6 0.0
0.0 0.0 0.0

-2.2447536825844324e6 6.081968252832707e6 0.0
6.081968252832707e6 -949485.7146109933 0.0
0.0 0.0 0.0

-2.9986525859923903e6 9.559949495228332e6 0.0
9.559949495228332e6 -1.415463519384196e6 0.0
0.0 0.0 0.0

-2.804633003611344e6 7.953266438019997e6 0.0
7.953266438019997e6 -20913.396293428028 0.0
0.0 0.0 0.0

-1.9332973266288533e6 5.781234620871384e6 0.0
5.781234620871384e6 -981253.8567745404 0.0
0.0 0.0 0.0

-106313.59566931037 4.058016106486563e6 0.0
4.058016106486563e6 -1.163810118093836e6 0.0
0.0 0.0 0.0

1.1154958666932406e6 1.0404166153521212e6 0.0
1.0404166153521212e6 -6.54959486132177e6 0.0
0.0 0.0 0.0

-4.1485561646924606e6 2.093459337077342e6 0.0
2.093459337077342e6 5.300383994823993e6 0.0
0.0 0.0 0.0

-663170.2046894169 3.588304491730289e6 0.0
3.588304491730289e6 -880529.2690821078 0.0
0.0 0.0 0.0

-2.1893371391916e6 8.964738793452157e6 0.0
8.964738793452157e6 2.6672027995613813e6 0.0
0.0 0.0 0.0

-2.944881943876976e6 7.202378364765356e6 0.0
7.202378364765356e6 -791180.6585464997 0.0
0.0 0.0 0.0

-569602.6986419866 4.234270351976578e6 0.0
4.234270351976578e6 -2.457569495365023e6 0.0
0.0 0.0 0.0

-5.494967380755952e6 2.0870017910674035e6 0.0
2.0870017910674035e6 7.416693422664743e6 0.0
0.0 0.0 0.0

-3.731850835192305e6 7.895156918001913e6 0.0
7.895156918001913e6 683345.058098309 0.0
0.0 0.0 0.0

-1.8979016162447794e6 6.069755643705767e6 0.0
6.069755643705767e6 -665814.6193232611 0.0
0.0 0.0 0.0

-1.304674116426791e6 4.673912025159697e6 0.0
4.673912025159697e6 -758687.4680014714 0.0
0.0 0.0 0.0

-1.513484975747962e6 5.24428395649759e6 0.0
5.24428395649759e6 -1.4621342649771303e6 0.0
0.0 0.0 0.0

-76284.64599475428 8.240877063110184e6 0.0
8.240877063110184e6 -5.190761219549162e6 0.0
0.0 0.0 0.0

-3.0213226077833585e6 8.235406542808399e6 0.0
8.235406542808399e6 318936.4867424208 0.0
0.0 0.0 0.0

-1.709961807205178e6 9.664048902456226e6 0.0
9.664048902456226e6 -2.2042056302327192e6 0.0
0.0 0.0 0.0

-8.789918685783532e6 9.1623903066421e6 0.0
9.1623903066421e6 1.7458129721531875e7 0.0
0.0 0.0 0.0

-1.0864985758384843e6 7.846083295174682e6 0.0
7.846083295174682e6 1.8746963534190936e6 0.0
0.0 0.0 0.0

-1.3191011591089033e6 4.601752404913191e6 0.0
4.601752404913191e6 -224314.684436762 0.0
0.0 0.0 0.0

-223575.94670556358 7.546610434387401e6 0.0
7.546610434387401e6 -3.898301318137489e6 0.0
0.0 0.0 0.0

-1.9253161592749453e6 6.003786115281495e6 0.0
6.003786115281495e6 -641927.6271008532 0.0
0.0 0.0 0.0

-2.5369638716415362e6 1.0973926777737211e7 0.0
1.0973926777737211e7 -1.8549081660204844e6 0.0
0.0 0.0 0.0

-4.58006085147726e6 9.100633951669171e6 0.0
9.100633951669171e6 1.9751466642182842e6 0.0
0.0 0.0 0.0

-4.367424101649209e6 8.173828714648427e6 0.0
8.173828714648427e6 904598.5888076024 0.0
0.0 0.0 0.0

-463387.999431635 9.537555832293961e6 0.0
9.537555832293961e6 -3.696182292394303e6 0.0
0.0 0.0 0.0

-1.6638613344514654e6 5.706142509827477e6 0.0
5.706142509827477e6 -870612.7262527 0.0
0.0 0.0 0.0

-2.9887573380637593e6 8.2190465174011905e6 0.0
8.2190465174011905e6 345745.89330024587 0.0
0.0 0.0 0.0

-814466.9830775235 3.9062328558380785e6 0.0
3.9062328558380785e6 -975581.2632517893 0.0
0.0 0.0 0.0

2.3272646069672178e6 2.406715983083171e6 0.0
2.406715983083171e6 -7.225276204132924e6 0.0
0.0 0.0 0.0

-2.142585827145442e6 6.1867821100927405e6 0.0
6.1867821100927405e6 -618187.2019481526 0.0
0.0 0.0 0.0

-279396.3083546205 7.0164978224799335e6 0.0
7.0164978224799335e6 -3.6460456174257468e6 0.0
0.0 0.0 0.0

-3.0845031075230595e6 7.639759421675441e6 0.0
7.639759421675441e6 689673.7967775858 0.0
0.0 0.0 0.0

-1.1281020191686193e6 4.255782394533259e6 0.0
4.255782394533259e6 -938682.2588534055 0.0
0.0 0.0 0.0

-5.884777933288373e6 9.602466915393215e6 0.0
9.602466915393215e6 2.110949217535847e6 0.0
0.0 0.0 0.0

-1.591494647122178e7 -4.892231923655258e6 0.0
-4.892231923655258e6 6.730839977647138e6 0.0
0.0 0.0 0.0

-986482.8974038506 3.802290175682893e6 0.0
3.802290175682893e6 -1.1663305288747973e6 0.0
0.0 0.0 0.0

99410.93868354731 8.131383283209959e6 0.0
8.131383283209959e6 -5.705464412463831e6 0.0
0.0 0.0 0.0

-741463.7349366931 1.0546410814402243e7 0.0
1.0546410814402243e7 -3.0347595000195093e6 0.0
0.0 0.0 0.0

-1.4392061870129022e6 5.587329714759707e6 0.0
5.587329714759707e6 -1.9164701673436654e6 0.0
0.0 0.0 0.0

-977531.913546332 9.11039311702375e6 0.0
9.11039311702375e6 -3.091123253891512e6 0.0
0.0 0.0 0.0

-865877.598572606 3.3478389393912125e6 0.0
3.3478389393912125e6 -1.28421043923645e6 0.0
0.0 0.0 0.0

-76531.53170651663 6.71927897609261e6 0.0
6.71927897609261e6 -4.130190252091906e6 0.0
0.0 0.0 0.0

-4.831942169309223e6 8.522217049180536e6 0.0
8.522217049180536e6 1.6957432455454236e6 0.0
0.0 0.0 0.0

-1.0636949734277157e6 1.916359619578067e6 0.0
1.916359619578067e6 -1.8333173649789635e6 0.0
0.0 0.0 0.0

-1.0704730272214669e6 4.660214137322905e6 0.0
4.660214137322905e6 -2.7294908493004246e6 0.0
0.0 0.0 0.0

-6.463510796261086e6 9.776339407587573e6 0.0
9.776339407587573e6 2.6109508453755477e6 0.0
0.0 0.0 0.0

1.2841576477949393e6 8.691888885052577e6 0.0
8.691888885052577e6 -2.9251861267757723e6 0.0
0.0 0.0 0.0

-2.979799976361568e6 1.090944565217035e7 0.0
1.090944565217035e7 -753686.9931664609 0.0
0.0 0.0 0.0

1.5773635696102171e6 7.352504327359312e6 0.0
7.352504327359312e6 -7.36146682376479e6 0.0
0.0 0.0 0.0

-4.830793068328178e6 5.002101804435619e6 0.0
5.002101804435619e6 6.711107619931662e6 0.0
0.0 0.0 0.0

-4.33033841126642e6 8.481444819198254e6 0.0
8.481444819198254e6 1.7678279618939417e6 0.0
0.0 0.0 0.0

-281392.01628694905 5.1903448120114105e6 0.0
5.1903448120114105e6 -3.393262459664518e6 0.0
0.0 0.0 0.0

-801123.0308438457 2.6983712475873893e6 0.0
2.6983712475873893e6 -1.3433938100412479e6 0.0
0.0 0.0 0.0

-461018.8369065453 3.7165592889835276e6 0.0
3.7165592889835276e6 -2.668559000768916e6 0.0
0.0 0.0 0.0

-5.617210407173237e6 9.75031110821592e6 0.0
9.75031110821592e6 2.905246820616969e6 0.0
0.0 0.0 0.0

-285621.04772125714 2.890341751189631e6 0.0
2.890341751189631e6 -424522.35895465844 0.0
0.0 0.0 0.0

-3.292883865053483e6 3.743450011725295e6 0.0
3.743450011725295e6 2.50968534278066e6 0.0
0.0 0.0 0.0

-4.277902364581136e6 8.179322127850221e6 0.0
8.179322127850221e6 1.2028691942160586e6 0.0
0.0 0.0 0.0

-1.3971817501971489e6 7.757234033062656e6 0.0
7.757234033062656e6 -2.486834998994827e6 0.0
0.0 0.0 0.0

-2.345256544398842e6 9.04369063376987e6 0.0
9.04369063376987e6 1.9786336225535288e6 0.0
0.0 0.0 0.0

-2.1791265386010907e6 6.069406674048542e6 0.0
6.069406674048542e6 -736818.368494175 0.0
0.0 0.0 0.0

-1.7767936641743071e6 6.520290487221726e6 0.0
6.520290487221726e6 -1.6814274649075824e6 0.0
0.0 0.0 0.0

-99820.85202841973 8.229130852166435e6 0.0
8.229130852166435e6 -5.190776542735735e6 0.0
0.0 0.0 0.0

-3.358193047049987e6 1.1194496061396081e7 0.0
1.1194496061396081e7 -276109.16342157766 0.0
0.0 0.0 0.0

535338.7708089398 7.982591944301655e6 0.0
7.982591944301655e6 -6.28434403470768e6 0.0
0.0 0.0 0.0

-657353.5951093932 3.86569964491752e6 0.0
3.86569964491752e6 -1.1862627724114708e6 0.0
0.0 0.0 0.0

-1.9595435541599859e6 1.2856193353143478e7 0.0
1.2856193353143478e7 1.460589818929548e7 0.0
0.0 0.0 0.0

-4.97834498902335e6 9.468010855482118e6 0.0
9.468010855482118e6 2.5851340288413605e6 0.0
0.0 0.0 0.0

-2.2885839017799944e6 6.143249184871575e6 0.0
6.143249184871575e6 -720521.9451529554 0.0
0.0 0.0 0.0

-772504.4561999384 1.146009595819815e7 0.0
1.146009595819815e7 -2.991382825353314e6 0.0
0.0 0.0 0.0

-4.053485479499688e6 8.141260356506957e6 0.0
8.141260356506957e6 937646.8055295558 0.0
0.0 0.0 0.0

-1.0201940797372807e6 6.22801798472964e6 0.0
6.22801798472964e6 -1.485694786259639e6 0.0
0.0 0.0 0.0

-572913.900003807 9.769843958746554e6 0.0
9.769843958746554e6 -3.4301316170677086e6 0.0
0.0 0.0 0.0

-777147.0811589048 7.954546380168727e6 0.0
7.954546380168727e6 -3.1793523017343534e6 0.0
0.0 0.0 0.0

-1.0063555597841616e6 8.068213815261934e6 0.0
8.068213815261934e6 -2.9052812507849718e6 0.0
0.0 0.0 0.0

-1.9087826308206152e6 5.905594119025437e6 0.0
5.905594119025437e6 -1.4623819518583256e6 0.0
0.0 0.0 0.0

669767.0938571794 1.3050983939736204e7 0.0
1.3050983939736204e7 -4.308658219248598e6 0.0
0.0 0.0 0.0

-1.0410578426510084e6 4.91819719205294e6 0.0
4.91819719205294e6 -2.325919300811641e6 0.0
0.0 0.0 0.0

3.466202458978657e6 1.7125627703030491e6 0.0
1.7125627703030491e6 -6.0275568974764375e6 0.0
0.0 0.0 0.0

-583552.4561688344 7.78985947002086e6 0.0
7.78985947002086e6 -3.3922714466075706e6 0.0
0.0 0.0 0.0

1.2883319159829607e6 6.82551596477291e6 0.0
6.82551596477291e6 -6.96355353821319e6 0.0
0.0 0.0 0.0

-605817.8842281187 6.430526937654879e6 0.0
6.430526937654879e6 -1.7928561053404913e6 0.0
0.0 0.0 0.0

-3.6948054258736973e6 8.209441985378192e6 0.0
8.209441985378192e6 961927.0973185692 0.0
0.0 0.0 0.0

75399.72579581453 6.314680071083735e6 0.0
6.314680071083735e6 -3.825154495311189e6 0.0
0.0 0.0 0.0

562325.9533668584 2.2903709458774747e6 0.0
2.2903709458774747e6 -5.051614930368913e6 0.0
0.0 0.0 0.0

-1.801252010639396e6 5.888046377208664e6 0.0
5.888046377208664e6 -1.1021211219124338e6 0.0
0.0 0.0 0.0

-7.60694450472286e6 3.7634329250090527e6 0.0
3.7634329250090527e6 1.1150813351395011e7 0.0
0.0 0.0 0.0

-3.5771097965905974e6 7.44380797121985e6 0.0
7.44380797121985e6 2.10981256012037e6 0.0
0.0 0.0 0.0

-1.400843014474507e6 6.0403818107641535e6 0.0
6.0403818107641535e6 -1.119558498015257e6 0.0
0.0 0.0 0.0

-4.041443953563976e6 6.492758119155229e6 0.0
6.492758119155229e6 3.047304864966775e6 0.0
0.0 0.0 0.0

212288.56529957894 7.862258108570013e6 0.0
7.862258108570013e6 -4.604260033503168e6 0.0
0.0 0.0 0.0

-438403.6543318152 7.664010092595904e6 0.0
7.664010092595904e6 -3.6936130584941627e6 0.0
0.0 0.0 0.0

-1.631541062175227e7 1.4421009258333655e7 0.0
1.4421009258333655e7 9.72026642971415e6 0.0
0.0 0.0 0.0

-1.682950759918137e6 7.095633321871206e6 0.0
7.095633321871206e6 -1.0180483378612712e6 0.0
0.0 0.0 0.0

-529276.341171195 3.7791206304535046e6 0.0
3.7791206304535046e6 -1.3913742539590267e6 0.0
0.0 0.0 0.0

-1.9914400780267543e6 9.448046542814132e6 0.0
9.448046542814132e6 -2.5426474833204336e6 0.0
0.0 0.0 0.0

-1.2261845407842011e6 8.213281618290123e6 0.0
8.213281618290123e6 -2.712440304309639e6 0.0
0.0 0.0 0.0

281213.18206153624 1.663568926313934e6 0.0
1.663568926313934e6 220050.05423307806 0.0
0.0 0.0 0.0

-360371.4732903717 -501442.11602842313 0.0
-501442.11602842313 2.7494263062915537e6 0.0
0.0 0.0 0.0

-5.490967206785275e6 9.710397484840594e6 0.0
9.710397484840594e6 2.965548988916466e6 0.0
0.0 0.0 0.0

-2.4814983474310744e6 7.905671936559869e6 0.0
7.905671936559869e6 -219189.5144486043 0.0
0.0 0.0 0.0

-5.689148416865799e6 9.6457035984908e6 0.0
9.6457035984908e6 2.9256196912563927e6 0.0
0.0 0.0 0.0

-265909.20226364187 6.583829217951258e6 0.0
6.583829217951258e6 -3.7211859403400384e6 0.0
0.0 0.0 0.0

-3.2653677820228846e6 8.254864325579464e6 0.0
8.254864325579464e6 544399.2546842278 0.0
0.0 0.0 0.0

-1.14673261836218e6 2.0565236509648836e6 0.0
2.0565236509648836e6 358281.08217410446 0.0
0.0 0.0 0.0

-1.923790735071864e7 -4.966784101071376e6 0.0
-4.966784101071376e6 8.656342237227803e6 0.0
0.0 0.0 0.0

-3.979647069174341e6 8.413303027955275e6 0.0
8.413303027955275e6 1.2399359473509619e6 0.0
0.0 0.0 0.0

-3.747637052714161e6 6.789069483368111e6 0.0
6.789069483368111e6 2.739436395198838e6 0.0
0.0 0.0 0.0

-4.75120364586456e6 9.97339833958405e6 0.0
9.97339833958405e6 321056.4086247464 0.0
0.0 0.0 0.0

-300882.19876259577 1.2200563458166781e6 0.0
1.2200563458166781e6 -3.4614721785372975e6 0.0
0.0 0.0 0.0

-1.6836382430187794e6 7.523028070495279e6 0.0
7.523028070495279e6 -932725.3076228881 0.0
0.0 0.0 0.0

-5.493190754001062e6 1.0125132657028275e7 0.0
1.0125132657028275e7 837835.5482870857 0.0
0.0 0.0 0.0

-3.642723948710138e6 1.0224071893946841e7 0.0
1.0224071893946841e7 1.0592099286552393e6 0.0
0.0 0.0 0.0

122637.9480599924 4.616486554396621e6 0.0
4.616486554396621e6 -4.1373788619505856e6 0.0
0.0 0.0 0.0

-3.74772782538937e6 7.058992605059335e6 0.0
7.058992605059335e6 2.486568307410259e6 0.0
0.0 0.0 0.0

-2.3855249968044544e6 6.837215252878444e6 0.0
6.837215252878444e6 -847153.8531791433 0.0
0.0 0.0 0.0

1.6502231324303066e6 6.708954136005598e6 0.0
6.708954136005598e6 -7.2207677722825175e6 0.0
0.0 0.0 0.0

-7.022473117093658e6 -678132.930238815 0.0
-678132.930238815 7.490367381686587e6 0.0
0.0 0.0 0.0

-476975.62299115444 4.688033075800867e6 0.0
4.688033075800867e6 -2.9484475713077197e6 0.0
0.0 0.0 0.0

908286.8778683676 6.646486870875755e6 0.0
6.646486870875755e6 -5.101511325959548e6 0.0
0.0 0.0 0.0

185037.67749523162 9.084038957963593e6 0.0
9.084038957963593e6 -3.883178849904215e6 0.0
0.0 0.0 0.0

684926.5832184856 7.681624063278317e6 0.0
7.681624063278317e6 -6.350570395304119e6 0.0
0.0 0.0 0.0

-7.465531503034954e6 1.1260629516227523e7 0.0
1.1260629516227523e7 2.8887386623233007e6 0.0
0.0 0.0 0.0

-6.023376695703145e6 7.269397787851855e6 0.0
7.269397787851855e6 8.785296517999582e6 0.0
0.0 0.0 0.0

-5.020265127110848e6 -300171.18818390724 0.0
-300171.18818390724 5.365186402084037e6 0.0
0.0 0.0 0.0

-2.620426092560528e6 7.114844667757051e6 0.0
7.114844667757051e6 -658674.687100554 0.0
0.0 0.0 0.0

879700.9996843282 7.028631032166685e6 0.0
7.028631032166685e6 -6.117242395920095e6 0.0
0.0 0.0 0.0

-2.7293946704855454e6 7.0234050426055575e6 0.0
7.0234050426055575e6 307754.1156726999 0.0
0.0 0.0 0.0

-3.460421717103359e6 8.006785963576045e6 0.0
8.006785963576045e6 691111.6714688297 0.0
0.0 0.0 0.0

-850336.4787353076 4.022154875274357e6 0.0
4.022154875274357e6 -394677.2798942615 0.0
0.0 0.0 0.0

-3.268855511102677e6 1.1584111027971951e7 0.0
1.1584111027971951e7 -377765.29713569616 0.0
0.0 0.0 0.0

525642.3901156681 8.942367136878304e6 0.0
8.942367136878304e6 -3.5651750222199e6 0.0
0.0 0.0 0.0

-4.397375480375952e6 8.334788200355209e6 0.0
8.334788200355209e6 1.4542353655951603e6 0.0
0.0 0.0 0.0

1.694495388303088e6 6.460779424588655e6 0.0
6.460779424588655e6 -7.042893333986836e6 0.0
0.0 0.0 0.0

-3.54583475709525e6 8.298788671503637e6 0.0
8.298788671503637e6 757714.599551745 0.0
0.0 0.0 0.0

-1.3757009574403076e6 5.830550992684175e6 0.0
5.830550992684175e6 -2.0105223081337535e6 0.0
0.0 0.0 0.0

-1.669723611733793e6 5.498955043529918e6 0.0
5.498955043529918e6 -874478.5282035007 0.0
0.0 0.0 0.0

-1.512994950040963e6 5.492787971067505e6 0.0
5.492787971067505e6 -1.0927557468603048e6 0.0
0.0 0.0 0.0

-267140.6332437555 5.803396305413104e6 0.0
5.803396305413104e6 -1.8504308456086589e6 0.0
0.0 0.0 0.0

402765.08077819506 9.089697545513632e6 0.0
9.089697545513632e6 -3.383740526376233e6 0.0
0.0 0.0 0.0

-3.709167536482799e6 2.2979948498560037e6 0.0
2.2979948498560037e6 4.61269789363393e6 0.0
0.0 0.0 0.0

-1.8113732547221864e6 6.216124969270502e6 0.0
6.216124969270502e6 -1.555821699993008e6 0.0
0.0 0.0 0.0

-803448.1995252855 4.71959514148629e6 0.0
4.71959514148629e6 -1.4821445311378904e6 0.0
0.0 0.0 0.0

-5.757833897925822e6 9.725718954995021e6 0.0
9.725718954995021e6 3.202452121016891e6 0.0
0.0 0.0 0.0

-3.8642122737181643e6 8.52320732314376e6 0.0
8.52320732314376e6 385156.0848126607 0.0
0.0 0.0 0.0

-698945.106225353 8.65524947410531e6 0.0
8.65524947410531e6 -3.4958989316147123e6 0.0
0.0 0.0 0.0

-837236.7430165457 4.742357797189333e6 0.0
4.742357797189333e6 -2.584970802299499e6 0.0
0.0 0.0 0.0

-4.053632450444406e6 8.591086400250169e6 0.0
8.591086400250169e6 1.4931168341068812e6 0.0
0.0 0.0 0.0

-4.074835436339663e6 7.063211989943122e6 0.0
7.063211989943122e6 3.370301795179289e6 0.0
0.0 0.0 0.0

-5.768620292604854e6 6.856510413293491e6 0.0
6.856510413293491e6 7.091016291885933e6 0.0
0.0 0.0 0.0

887437.8071147446 7.067625891095836e6 0.0
7.067625891095836e6 -6.435369503749339e6 0.0
0.0 0.0 0.0

-3.250315594729227e6 8.371921368798804e6 0.0
8.371921368798804e6 574348.613434365 0.0
0.0 0.0 0.0

-3.671350591111398e6 8.450464437007373e6 0.0
8.450464437007373e6 974054.3556770461 0.0
0.0 0.0 0.0

-910650.757822996 4.474007470454314e6 0.0
4.474007470454314e6 -854962.0381614593 0.0
0.0 0.0 0.0

-7.680236739298909e6 1.1584393451824786e7 0.0
1.1584393451824786e7 3.124095579964029e6 0.0
0.0 0.0 0.0

-1.4847804807372387e6 5.578382227167925e6 0.0
5.578382227167925e6 -1.577496200870465e6 0.0
0.0 0.0 0.0

-2.429076098196403e6 5.263302895366083e6 0.0
5.263302895366083e6 1.0420256653696366e6 0.0
0.0 0.0 0.0

-811357.6143459703 4.609985270184986e6 0.0
4.609985270184986e6 -2.668877297427435e6 0.0
0.0 0.0 0.0

-1.3824281110375198e6 5.864292855106874e6 0.0
5.864292855106874e6 -794356.545735724 0.0
0.0 0.0 0.0

-4.1472580132830935e6 8.529609285430176e6 0.0
8.529609285430176e6 1.6335685555774986e6 0.0
0.0 0.0 0.0

-4.381691909350925e6 8.74837817822958e6 0.0
8.74837817822958e6 1.8153221401006344e6 0.0
0.0 0.0 0.0

-1.7777193980285325e6 6.022709028040031e6 0.0
6.022709028040031e6 -1.44028809345735e6 0.0
0.0 0.0 0.0

494349.7808197448 9.770855891995605e6 0.0
9.770855891995605e6 -3.459891238240797e6 0.0
0.0 0.0 0.0

-916137.982245888 1.3395324453315755e7 0.0
1.3395324453315755e7 -3.0213425926088667e6 0.0
0.0 0.0 0.0

-2.4024285656908276e6 9.42710264383857e6 0.0
9.42710264383857e6 932429.7136876291 0.0
0.0 0.0 0.0

-645864.3491782378 8.429748759474095e6 0.0
8.429748759474095e6 -5.464586880517515e6 0.0
0.0 0.0 0.0

-1.0206651513163301e6 5.004916568453172e6 0.0
5.004916568453172e6 -1.9810748170596273e6 0.0
0.0 0.0 0.0

-947658.7212418255 2.8627621677924637e6 0.0
2.8627621677924637e6 66524.54579932708 0.0
0.0 0.0 0.0

-1.3644633071897198e6 1.0125644506694226e7 0.0
1.0125644506694226e7 -155599.08108881017 0.0
0.0 0.0 0.0

-2.303178308299794e6 9.611398104684148e6 0.0
9.611398104684148e6 49462.15700083086 0.0
0.0 0.0 0.0

-3.526807457494779e6 8.434529514105212e6 0.0
8.434529514105212e6 798353.9760556198 0.0
0.0 0.0 0.0

-881093.484515544 1.7079116235036792e6 0.0
1.7079116235036792e6 71164.64200734411 0.0
0.0 0.0 0.0

-6.032706202167198e6 9.777218747815644e6 0.0
9.777218747815644e6 3.389380813392842e6 0.0
0.0 0.0 0.0

-4.1148198897945057e6 8.382078968717603e6 0.0
8.382078968717603e6 1.3285586212258516e6 0.0
0.0 0.0 0.0

1.0064774398798007e6 8.146742523443655e6 0.0
8.146742523443655e6 -2.4678377097860314e6 0.0
0.0 0.0 0.0

-147437.14293967086 8.906491671794388e6 0.0
8.906491671794388e6 -491457.14126567374 0.0
0.0 0.0 0.0

-2.9592034021197623e6 8.099883733957167e6 0.0
8.099883733957167e6 476646.78081676736 0.0
0.0 0.0 0.0

-2.3540013219477744e6 6.132702749057336e6 0.0
6.132702749057336e6 498325.42297098564 0.0
0.0 0.0 0.0

355133.52203585487 4.596891657287609e6 0.0
4.596891657287609e6 -4.282049353678877e6 0.0
0.0 0.0 0.0

-4.53396981444367e6 8.445244909369748e6 0.0
8.445244909369748e6 1.4139924997771971e6 0.0
0.0 0.0 0.0

-1.7393471841435882e6 4.939246326178149e6 0.0
4.939246326178149e6 659965.8333204915 0.0
0.0 0.0 0.0

117708.4082423558 7.047117054589989e6 0.0
7.047117054589989e6 -4.1342867495994978e6 0.0
0.0 0.0 0.0

-4.077143131937499e6 7.940653831479626e6 0.0
7.940653831479626e6 630717.6464852109 0.0
0.0 0.0 0.0

-3.417389950211474e6 8.26092507328135e6 0.0
8.26092507328135e6 814167.755171668 0.0
0.0 0.0 0.0

-861709.5463720178 3.635694535683135e6 0.0
3.635694535683135e6 -1.4946643754096036e6 0.0
0.0 0.0 0.0

-771667.1146754718 6.30738471211553e6 0.0
6.30738471211553e6 -3.369954170780376e6 0.0
0.0 0.0 0.0

-1.4533223725310382e7 1.3352795644696957e7 0.0
1.3352795644696957e7 8.551174171718959e6 0.0
0.0 0.0 0.0

1.7957702391399494e6 7.5035023567391895e6 0.0
7.5035023567391895e6 -8.0475109336960735e6 0.0
0.0 0.0 0.0

334038.16242248565 6.39551577193683e6 0.0
6.39551577193683e6 -4.480547110470734e6 0.0
0.0 0.0 0.0

-804819.6528372586 7.342465041627861e6 0.0
7.342465041627861e6 -3.051214758523018e6 0.0
0.0 0.0 0.0

-2.030316456160242e6 9.594855391621638e6 0.0
9.594855391621638e6 525132.2472674305 0.0
0.0 0.0 0.0

-453901.2927415194 8.341754359326407e6 0.0
8.341754359326407e6 -4.470821118149642e6 0.0
0.0 0.0 0.0

-651376.5254067916 4.558781414831872e6 0.0
4.558781414831872e6 -2.0028824758052481e6 0.0
0.0 0.0 0.0

-1.6410220576034847e6 4.872953313994368e6 0.0
4.872953313994368e6 -1.0880722324835106e6 0.0
0.0 0.0 0.0

-688283.9818722992 9.542536113371449e6 0.0
9.542536113371449e6 1.158711788182152e6 0.0
0.0 0.0 0.0

-5.191120846858148e6 7.288736440840393e6 0.0
7.288736440840393e6 7.785373489057007e6 0.0
0.0 0.0 0.0

-920759.9094596554 7.512506324590403e6 0.0
7.512506324590403e6 5.4574995004631e6 0.0
0.0 0.0 0.0

-7.843996923337489e6 9.820485323049238e6 0.0
9.820485323049238e6 4.666124401831647e6 0.0
0.0 0.0 0.0

-2.0755620971426181e6 5.95795722393586e6 0.0
5.95795722393586e6 -1.2061151999053229e6 0.0
0.0 0.0 0.0

-9.107747235838197e6 7.991851582342697e6 0.0
7.991851582342697e6 1.5973973740810761e6 0.0
0.0 0.0 0.0

-2.174333622041048e6 6.574807576277928e6 0.0
6.574807576277928e6 -1.0546262449943312e6 0.0
0.0 0.0 0.0

-3.5565068063171348e6 8.193863807333644e6 0.0
8.193863807333644e6 963315.9300837119 0.0
0.0 0.0 0.0

-1.451530174707229e6 5.420785910070233e6 0.0
5.420785910070233e6 -1.287993274916004e6 0.0
0.0 0.0 0.0

-227944.68493239582 8.409425989594322e6 0.0
8.409425989594322e6 -4.992681552152107e6 0.0
0.0 0.0 0.0

270567.9317635575 7.796694569110444e6 0.0
7.796694569110444e6 -4.1631274101893306e6 0.0
0.0 0.0 0.0

756954.8924838726 7.585643901200661e6 0.0
7.585643901200661e6 -5.869397552005505e6 0.0
0.0 0.0 0.0

-1.5325947113991864e6 9.444218014336897e6 0.0
9.444218014336897e6 1.2773695156399338e6 0.0
0.0 0.0 0.0

377372.09951855126 6.65409074613857e6 0.0
6.65409074613857e6 -4.385523332188407e6 0.0
0.0 0.0 0.0

-4.159138555348427e6 8.129874577547117e6 0.0
8.129874577547117e6 587754.513783274 0.0
0.0 0.0 0.0

-2.7776179956155755e6 8.653188691302925e6 0.0
8.653188691302925e6 -1.452607423918516e6 0.0
0.0 0.0 0.0

-1.6795670109268292e6 5.463026038360859e6 0.0
5.463026038360859e6 -1.2369128235145928e6 0.0
0.0 0.0 0.0

-2.2023771097124405e6 6.790859544959889e6 0.0
6.790859544959889e6 -429523.71063633024 0.0
0.0 0.0 0.0

-2.6733727799578747e6 5.291135102167884e6 0.0
5.291135102167884e6 1.4083863810488165e6 0.0
0.0 0.0 0.0

-258981.01032778271 6.727593822353444e6 0.0
6.727593822353444e6 -3.423332092000709e6 0.0
0.0 0.0 0.0

-9.935286943287943e6 9.951826721968224e6 0.0
9.951826721968224e6 5.885141273867946e6 0.0
0.0 0.0 0.0

-6.372485048196438e6 9.771354592449753e6 0.0
9.771354592449753e6 3.656557218156852e6 0.0
0.0 0.0 0.0

-3.612753912979846e6 5.5157587719499925e6 0.0
5.5157587719499925e6 2.5318401326481253e6 0.0
0.0 0.0 0.0

-1.187689124302134e6 6.571332693721434e6 0.0
6.571332693721434e6 -3.9589637392925313e6 0.0
0.0 0.0 0.0

-1.4609982747824416e6 8.400538719453715e6 0.0
8.400538719453715e6 -2.493595876388507e6 0.0
0.0 0.0 0.0

179585.36591370893 6.639845828002981e6 0.0
6.639845828002981e6 -4.228109492910025e6 0.0
0.0 0.0 0.0

-3.4874720236517075e6 8.837832094392724e6 0.0
8.837832094392724e6 1.7041883780075456e6 0.0
0.0 0.0 0.0

-1.2990926412215454e6 4.1710856513963277e6 0.0
4.1710856513963277e6 -73667.25154318771 0.0
0.0 0.0 0.0

-4.166518779476332e6 1.1948442621568676e7 0.0
1.1948442621568676e7 555258.8861301942 0.0
0.0 0.0 0.0

-8.56236369850377e6 -2.842492171004901e6 0.0
-2.842492171004901e6 1.3561394827259293e7 0.0
0.0 0.0 0.0

-3.150301474798522e6 7.254055807686204e6 0.0
7.254055807686204e6 -442192.7130689188 0.0
0.0 0.0 0.0

-665504.7030313413 2.5519471797186476e6 0.0
2.5519471797186476e6 -159827.68343475368 0.0
0.0 0.0 0.0

-109693.84774285101 4.624215544656857e6 0.0
4.624215544656857e6 -1.231185631083692e6 0.0
0.0 0.0 0.0

2.9356911530904584e6 2.285676488554718e6 0.0
2.285676488554718e6 -5.013501214212285e6 0.0
0.0 0.0 0.0

-8.086261455748947e6 3.6789032219104064e6 0.0
3.6789032219104064e6 9.568103688076293e6 0.0
0.0 0.0 0.0

353746.55952800764 7.531204070722533e6 0.0
7.531204070722533e6 -4.974586941042317e6 0.0
0.0 0.0 0.0

-3.9721317550407858e6 7.963680004946503e6 0.0
7.963680004946503e6 975879.6866272937 0.0
0.0 0.0 0.0

-3.9471564285095213e6 8.623364108599879e6 0.0
8.623364108599879e6 1.2948838163460242e6 0.0
0.0 0.0 0.0

-2.185629869825072e6 6.285361536582827e6 0.0
6.285361536582827e6 -408777.647645148 0.0
0.0 0.0 0.0

-3.9104040193119734e6 8.685874474519635e6 0.0
8.685874474519635e6 1.3953129328000795e6 0.0
0.0 0.0 0.0

-773725.1980515743 1.5030043488732125e6 0.0
1.5030043488732125e6 -2.3614881315258592e6 0.0
0.0 0.0 0.0

-3.0516616353270863e6 6.927315583570482e6 0.0
6.927315583570482e6 -10886.358333589276 0.0
0.0 0.0 0.0

-2.1204432356181494e6 1.3436114093620118e7 0.0
1.3436114093620118e7 -1.7946412535160936e6 0.0
0.0 0.0 0.0

-459846.30056025716 4.150034651900513e6 0.0
4.150034651900513e6 -2.0547400813920326e6 0.0
0.0 0.0 0.0

-1.91231146504267e6 6.102260670252628e6 0.0
6.102260670252628e6 -1.15960682659812e6 0.0
0.0 0.0 0.0

-2.814956522001907e6 1.0206467935763638e7 0.0
1.0206467935763638e7 452196.200110025 0.0
0.0 0.0 0.0

-2.0653115647749475e6 6.238710883772144e6 0.0
6.238710883772144e6 -402026.8189156852 0.0
0.0 0.0 0.0

1.8799329870143419e6 1.1180304029211186e7 0.0
1.1180304029211186e7 -5.000062856564034e6 0.0
0.0 0.0 0.0

-783720.1726467884 2.541122931340256e6 0.0
2.541122931340256e6 -1.6417215996677065e6 0.0
0.0 0.0 0.0

909694.2485193568 5.922410401873628e6 0.0
5.922410401873628e6 -5.526892265087856e6 0.0
0.0 0.0 0.0

-82902.67903861636 4.22812683630263e6 0.0
4.22812683630263e6 -759153.4827281503 0.0
0.0 0.0 0.0

-1.4811174403890849e6 4.464904558008121e6 0.0
4.464904558008121e6 -1.2931110388428294e6 0.0
0.0 0.0 0.0

-2.3936442640939313e6 6.249634172179952e6 0.0
6.249634172179952e6 -709256.6928326366 0.0
0.0 0.0 0.0

-180955.21020260552 5.459497873228614e6 0.0
5.459497873228614e6 -1.2681084302304098e6 0.0
0.0 0.0 0.0

1.1872132914887257e6 1.6996756246411405e6 0.0
1.6996756246411405e6 -2.7071180168442023e6 0.0
0.0 0.0 0.0

-711016.5544580899 1.0024438056849027e7 0.0
1.0024438056849027e7 -3.1681650565652032e6 0.0
0.0 0.0 0.0

-1.364769249873868e6 4.1069610541735906e6 0.0
4.1069610541735906e6 -1.7006743290018227e6 0.0
0.0 0.0 0.0

-1.457824118948503e7 1.2390712377253884e7 0.0
1.2390712377253884e7 8.515521893268235e6 0.0
0.0 0.0 0.0

1.0857972754337445e6 7.657064335020557e6 0.0
7.657064335020557e6 984326.6489023616 0.0
0.0 0.0 0.0

-1.2115960404235935e6 3.6969201155303894e6 0.0
3.6969201155303894e6 -1.9009346591492095e6 0.0
0.0 0.0 0.0

-1.409867660247645e6 6.326574418244882e6 0.0
6.326574418244882e6 -717739.5149235954 0.0
0.0 0.0 0.0

-190108.67249133653 479483.5304850934 0.0
479483.5304850934 -2.210121012856224e6 0.0
0.0 0.0 0.0

-2.6023224613635917e6 2.2274206140335314e6 0.0
2.2274206140335314e6 2.8438249982996085e6 0.0
0.0 0.0 0.0

-1.1410059300050465e6 3.159587691639852e6 0.0
3.159587691639852e6 -2.1303329116789894e6 0.0
0.0 0.0 0.0

-1.045855389677701e7 9.326310826442815e6 0.0
9.326310826442815e6 6.008746214256091e6 0.0
0.0 0.0 0.0

-3.9456747769006994e6 1.2412837716595218e7 0.0
1.2412837716595218e7 262209.92731009074 0.0
0.0 0.0 0.0

289390.6619566011 6.625857225085874e6 0.0
6.625857225085874e6 -4.141437274493129e6 0.0
0.0 0.0 0.0

-3.0091065802991167e6 8.378268866083134e6 0.0
8.378268866083134e6 -1.0619092530783908e6 0.0
0.0 0.0 0.0

741485.5018712345 6.85272770096866e6 0.0
6.85272770096866e6 -5.715449900047018e6 0.0
0.0 0.0 0.0

-2.5466113033219907e6 6.415280624891113e6 0.0
6.415280624891113e6 -484885.9029189585 0.0
0.0 0.0 0.0

-2.1874973995893663e6 7.5903495818108665e6 0.0
7.5903495818108665e6 1.772451964028127e6 0.0
0.0 0.0 0.0

-2.9040679278949127e6 1.323051684019947e7 0.0
1.323051684019947e7 -789709.5507840136 0.0
0.0 0.0 0.0

-223804.542482601 3.9134301261572675e6 0.0
3.9134301261572675e6 -1.9586114306170393e6 0.0
0.0 0.0 0.0

-529964.6531911155 4.526641941109667e6 0.0
4.526641941109667e6 -3.2395747511516516e6 0.0
0.0 0.0 0.0

-1.0390634283907183e6 4.968707779719207e6 0.0
4.968707779719207e6 -1.2992736977243877e6 0.0
0.0 0.0 0.0

-6.762583677769467e6 9.628990529282168e6 0.0
9.628990529282168e6 3.9957800281804036e6 0.0
0.0 0.0 0.0

-2.0823701955814362e6 6.349516259750739e6 0.0
6.349516259750739e6 -516691.696680404 0.0
0.0 0.0 0.0

-6.247322441381926e6 1.3525062580010125e7 0.0
1.3525062580010125e7 2.233741537250883e6 0.0
0.0 0.0 0.0

-2.2936243460840476e6 6.354237033715254e6 0.0
6.354237033715254e6 -399151.8776949931 0.0
0.0 0.0 0.0

-850085.1656124609 9.864753754421512e6 0.0
9.864753754421512e6 2.162392453073135e6 0.0
0.0 0.0 0.0

-2.236045615682415e6 1.013552056986812e7 0.0
1.013552056986812e7 102375.194098062 0.0
0.0 0.0 0.0

-4.586416219658672e6 8.482537323135065e6 0.0
8.482537323135065e6 1.7535708769671489e6 0.0
0.0 0.0 0.0

-320906.21584682725 9.500944052347222e6 0.0
9.500944052347222e6 -3.865868178717502e6 0.0
0.0 0.0 0.0

428116.94263888034 7.910874748986357e6 0.0
7.910874748986357e6 -6.082922501717175e6 0.0
0.0 0.0 0.0

-4.920365016149849e6 6.327728022597818e6 0.0
6.327728022597818e6 7.642935435441248e6 0.0
0.0 0.0 0.0

-1.3298795612417418e6 5.030011016659157e6 0.0
5.030011016659157e6 -2.502073703969391e6 0.0
0.0 0.0 0.0

-1.8526384586912724e6 2.4463047493221634e6 0.0
2.4463047493221634e6 1.3591985008368958e6 0.0
0.0 0.0 0.0

-21301.125053541968 7.6371212319911e6 0.0
7.6371212319911e6 -4.353015005599387e6 0.0
0.0 0.0 0.0

-1.430676271574097e6 5.093198833752565e6 0.0
5.093198833752565e6 -1.4906471175420212e6 0.0
0.0 0.0 0.0

3.904653783573082e6 659842.7486225992 0.0
659842.7486225992 -6.2430783153603915e6 0.0
0.0 0.0 0.0

-2.9112586335281557e6 7.076114941621082e6 0.0
7.076114941621082e6 178282.847087609 0.0
0.0 0.0 0.0

-4.358333793835486e6 8.582861309197076e6 0.0
8.582861309197076e6 1.5528793895414395e6 0.0
0.0 0.0 0.0

-6.379257208699891e6 1.0551592415171541e7 0.0
1.0551592415171541e7 2.0838018655983084e6 0.0
0.0 0.0 0.0

-2.801908559583706e6 6.675839188495727e6 0.0
6.675839188495727e6 -245473.3416258667 0.0
0.0 0.0 0.0

65138.396919423016 1.1700992863535683e6 0.0
1.1700992863535683e6 -2.254160770081979e6 0.0
0.0 0.0 0.0

-3.5070890235507325e6 1.2843212261219013e7 0.0
1.2843212261219013e7 -211622.48576997605 0.0
0.0 0.0 0.0

-1.2775488831125828e6 4.348439064025093e6 0.0
4.348439064025093e6 170703.52441745444 0.0
0.0 0.0 0.0

1.0838031309839734e6 6.961320424662754e6 0.0
6.961320424662754e6 -6.701845852609675e6 0.0
0.0 0.0 0.0

-1.7293301396466484e6 8.029909594871262e6 0.0
8.029909594871262e6 2.390825012796168e6 0.0
0.0 0.0 0.0

-4.976927058015875e6 9.367911264753101e6 0.0
9.367911264753101e6 2.413632082519753e6 0.0
0.0 0.0 0.0

-1.1818598808439581e6 8.500671732170332e6 0.0
8.500671732170332e6 -875148.1085716682 0.0
0.0 0.0 0.0

-4.51098786408288e6 7.449343754122906e6 0.0
7.449343754122906e6 6.834261150919269e6 0.0
0.0 0.0 0.0

-56126.37508115482 6.959278849394771e6 0.0
6.959278849394771e6 -187087.72804242067 0.0
0.0 0.0 0.0

-1.4025879865073946e6 5.364028274967526e6 0.0
5.364028274967526e6 -1.8838807713597394e6 0.0
0.0 0.0 0.0

-753561.5772634969 9.548005765583538e6 0.0
9.548005765583538e6 801982.1839792151 0.0
0.0 0.0 0.0

-1.4333580209598593e7 1.128829905766137e7 0.0
1.128829905766137e7 8.63763234611489e6 0.0
0.0 0.0 0.0

-2.6394065411011977e6 9.75622141218438e6 0.0
9.75622141218438e6 1.2515674709137324e6 0.0
0.0 0.0 0.0

1.0114397301321449e7 9.916435996956557e6 0.0
9.916435996956557e6 108275.2676658472 0.0
0.0 0.0 0.0

-1.7766001067808622e6 5.5701719450592995e6 0.0
5.5701719450592995e6 -1.2088606407961487e6 0.0
0.0 0.0 0.0

-3.0115199178633536e6 7.091803742007112e6 0.0
7.091803742007112e6 208908.7156428151 0.0
0.0 0.0 0.0

-1.4304824488294173e6 8.049336826733195e6 0.0
8.049336826733195e6 -2.693272147184207e6 0.0
0.0 0.0 0.0

-6.650006353529085e6 1.0946521231182273e7 0.0
1.0946521231182273e7 2.1938420817865655e6 0.0
0.0 0.0 0.0

1.0560524123955774e6 6.5289301040284205e6 0.0
6.5289301040284205e6 -6.128427739875661e6 0.0
0.0 0.0 0.0

-1.0496966500755628e6 3.3032978519406007e6 0.0
3.3032978519406007e6 -2.272372573513802e6 0.0
0.0 0.0 0.0

-778961.1116860586 7.214011744869278e6 0.0
7.214011744869278e6 -3.371476849254213e6 0.0
0.0 0.0 0.0

-3.4481252116743824e6 7.814423446117197e6 0.0
7.814423446117197e6 2.158375016947748e6 0.0
0.0 0.0 0.0

-3.315525917644812e6 7.177955666735188e6 0.0
7.177955666735188e6 221233.29668553616 0.0
0.0 0.0 0.0

-705065.0083889225 7.232228460500646e6 0.0
7.232228460500646e6 -1.13435837432834e6 0.0
0.0 0.0 0.0

-1.394614030237822e6 5.373917491821122e6 0.0
5.373917491821122e6 -1.1013813701476962e6 0.0
0.0 0.0 0.0

-2.805839603960058e6 6.875069397875537e6 0.0
6.875069397875537e6 59970.057016192586 0.0
0.0 0.0 0.0

472176.00994325476 9.366903168531368e6 0.0
9.366903168531368e6 -3.251986588648111e6 0.0
0.0 0.0 0.0

-1.3125586551765282e7 1.1151727518011155e7 0.0
1.1151727518011155e7 7.886421009195382e6 0.0
0.0 0.0 0.0

-3.0623619656500192e6 7.123703742436559e6 0.0
7.123703742436559e6 294606.12738683366 0.0
0.0 0.0 0.0

-961433.1150948957 5.170981798631397e6 0.0
5.170981798631397e6 -807150.3357957142 0.0
0.0 0.0 0.0

3.919849083989413e6 8.365484905107215e6 0.0
8.365484905107215e6 1.816346371663421e6 0.0
0.0 0.0 0.0

1.2033785086181727e6 7.587549307836406e6 0.0
7.587549307836406e6 -7.195999285621593e6 0.0
0.0 0.0 0.0

-4.502186631400323e6 8.744293112810664e6 0.0
8.744293112810664e6 1.93469128475171e6 0.0
0.0 0.0 0.0

-899785.4765541891 6.67754589578838e6 0.0
6.67754589578838e6 -1.257330903057964e6 0.0
0.0 0.0 0.0

-1.609610104950212e6 5.40724019153614e6 0.0
5.40724019153614e6 -1.4048452169027275e6 0.0
0.0 0.0 0.0

-1.1280845217454373e6 5.076922634326736e6 0.0
5.076922634326736e6 -2.102233874206365e6 0.0
0.0 0.0 0.0

-1.2308046874061322e7 1.1118887032382773e7 0.0
1.1118887032382773e7 6.779683347617138e6 0.0
0.0 0.0 0.0

278430.1273377512 7.365974062944782e6 0.0
7.365974062944782e6 -5.254429170369526e6 0.0
0.0 0.0 0.0

-976078.693206992 3.175879750130343e6 0.0
3.175879750130343e6 -144565.2719712287 0.0
0.0 0.0 0.0

-4.05327862907862e6 8.393143939232254e6 0.0
8.393143939232254e6 1.7071203846759922e6 0.0
0.0 0.0 0.0

-513447.6080041501 6.16832882070381e6 0.0
6.16832882070381e6 -1.370900621220482e6 0.0
0.0 0.0 0.0

-2.894439669579081e6 6.983624936265132e6 0.0
6.983624936265132e6 -663363.8834926569 0.0
0.0 0.0 0.0

-3.3327300134735303e6 7.337422141352278e6 0.0
7.337422141352278e6 459880.53150690324 0.0
0.0 0.0 0.0

-990991.5933903515 8.596462071639419e6 0.0
8.596462071639419e6 -3.525982013903932e6 0.0
0.0 0.0 0.0

-1.1732495421190668e7 1.1054799977732353e7 0.0
1.1054799977732353e7 6.573290657332323e6 0.0
0.0 0.0 0.0

-3.5554364983441695e6 7.976603855135449e6 0.0
7.976603855135449e6 2.0552911590535208e6 0.0
0.0 0.0 0.0

-3.318573508032436e6 7.371298491809468e6 0.0
7.371298491809468e6 517799.10248152236 0.0
0.0 0.0 0.0

894297.0835016882 6.696849216172021e6 0.0
6.696849216172021e6 -5.934897299730686e6 0.0
0.0 0.0 0.0

-1.4947853906528295e6 6.255547547207377e6 0.0
6.255547547207377e6 -805568.6741480723 0.0
0.0 0.0 0.0

-1.0969984917887293e7 1.0761092679666048e7 0.0
1.0761092679666048e7 6.310562173876903e6 0.0
0.0 0.0 0.0

1.4152287678694949e6 7.387758257775503e6 0.0
7.387758257775503e6 -7.147742529868412e6 0.0
0.0 0.0 0.0

-9.784759951065034e6 1.104486543467316e7 0.0
1.104486543467316e7 5.464097960736571e6 0.0
0.0 0.0 0.0

-9.167353868156092e6 1.0899736518842554e7 0.0
1.0899736518842554e7 5.080619660142196e6 0.0
0.0 0.0 0.0

-5.675234165684477e6 9.123845138482304e6 0.0
9.123845138482304e6 2.476904435623916e6 0.0
0.0 0.0 0.0

-5.904889949963481e6 9.291085329420391e6 0.0
9.291085329420391e6 2.709344657375179e6 0.0
0.0 0.0 0.0

-6.171589269734675e6 9.48680310459617e6 0.0
9.48680310459617e6 2.893382593080318e6 0.0
0.0 0.0 0.0

-6.454593781213367e6 9.64419194133061e6 0.0
9.64419194133061e6 3.178067061972061e6 0.0
0.0 0.0 0.0

-6.686447160002846e6 9.772040694214497e6 0.0
9.772040694214497e6 3.3535269673901894e6 0.0
0.0 0.0 0.0

-6.959635158762434e6 9.971628283635732e6 0.0
9.971628283635732e6 3.445444111689342e6 0.0
0.0 0.0 0.0

-1.358465218141208e6 7.280472762901543e6 0.0
7.280472762901543e6 -1.0607614650294932e6 0.0
0.0 0.0 0.0

-7.437153325640134e6 9.957131977084383e6 0.0
9.957131977084383e6 4.0715220378609155e6 0.0
0.0 0.0 0.0

-7.854808966108046e6 1.0144368103042297e7 0.0
1.0144368103042297e7 4.26451230445951e6 0.0
0.0 0.0 0.0

-2.3144984122037003e6 5.273263146079329e6 0.0
5.273263146079329e6 1.4276079379111254e6 0.0
0.0 0.0 0.0

-8.73485410970186e6 1.0666190066879157e7 0.0
1.0666190066879157e7 4.915651361250334e6 0.0
0.0 0.0 0.0

-8.246827886692256e6 1.0332946083992047e7 0.0
1.0332946083992047e7 4.3602825801262725e6 0.0
0.0 0.0 0.0

-8.541388055392556e6 1.0448242782583207e7 0.0
1.0448242782583207e7 4.559541293085235e6 0.0
0.0 0.0 0.0

-8.212576534943004e6 1.0443192991289219e7 0.0
1.0443192991289219e7 4.532668422938403e6 0.0
0.0 0.0 0.0

-2.0380152970662254e6 6.080866063913948e6 0.0
6.080866063913948e6 -630388.4009337199 0.0
0.0 0.0 0.0

-9.031802297830071e6 1.0733973231758654e7 0.0
1.0733973231758654e7 4.822227633452917e6 0.0
0.0 0.0 0.0

-8.077936390058633e6 1.028806057647198e7 0.0
1.028806057647198e7 4.422237782758638e6 0.0
0.0 0.0 0.0

-7.807623450589472e6 1.0160062104093678e7 0.0
1.0160062104093678e7 4.2196581845161375e6 0.0
0.0 0.0 0.0

-7.111501778268823e6 1.0175262512743868e7 0.0
1.0175262512743868e7 3.7288069852238484e6 0.0
0.0 0.0 0.0

-6.884241425973285e6 9.903943997424908e6 0.0
9.903943997424908e6 3.5585729555624686e6 0.0
0.0 0.0 0.0

-6.563701394405321e6 9.756678345704582e6 0.0
9.756678345704582e6 3.3713380637079715e6 0.0
0.0 0.0 0.0

-6.275096275196737e6 9.636696504627576e6 0.0
9.636696504627576e6 3.1690011117866687e6 0.0
0.0 0.0 0.0

-5.989649061425352e6 9.44052913981728e6 0.0
9.44052913981728e6 2.958414395516108e6 0.0
0.0 0.0 0.0

-5.6971674846887905e6 9.27193057005307e6 0.0
9.27193057005307e6 2.7279225501917168e6 0.0
0.0 0.0 0.0

-4.241787637125596e6 8.003606333845094e6 0.0
8.003606333845094e6 931713.6593548269 0.0
0.0 0.0 0.0

-4.649981433178644e6 6.779328804359567e6 0.0
6.779328804359567e6 6.904027744679887e6 0.0
0.0 0.0 0.0

-9.5764087013909e6 1.086279835066633e7 0.0
1.086279835066633e7 5.180065569346432e6 0.0
0.0 0.0 0.0

-64079.64529809286 6.538040251452722e6 0.0
6.538040251452722e6 -4.044275956651137e6 0.0
0.0 0.0 0.0

-3.86679609557485e6 8.355748377482835e6 0.0
8.355748377482835e6 1.379154115219748e6 0.0
0.0 0.0 0.0

-1.0313739053191816e7 1.0673553691226855e7 0.0
1.0673553691226855e7 6.173970283459116e6 0.0
0.0 0.0 0.0

-1.2479107328665403e6 4.4874855148346e6 0.0
4.4874855148346e6 166552.8061620061 0.0
0.0 0.0 0.0

-1.1175865199923202e7 1.0832391677733097e7 0.0
1.0832391677733097e7 6.20050528618935e6 0.0
0.0 0.0 0.0

-1.372801518461439e6 3.9702361672320464e6 0.0
3.9702361672320464e6 386191.6960949085 0.0
0.0 0.0 0.0

-1.2257381256689385e7 1.1040769611116977e7 0.0
1.1040769611116977e7 6.651888326508037e6 0.0
0.0 0.0 0.0

-1.860097622246433e6 9.578382073369857e6 0.0
9.578382073369857e6 -2.6611382963004243e6 0.0
0.0 0.0 0.0

-672116.1934489866 7.122883763401033e6 0.0
7.122883763401033e6 -3.224614706664303e6 0.0
0.0 0.0 0.0

342648.4282556805 7.942517221879023e6 0.0
7.942517221879023e6 -5.847203467445678e6 0.0
0.0 0.0 0.0

-3.209251575990174e6 7.316129700711175e6 0.0
7.316129700711175e6 525523.8264689932 0.0
0.0 0.0 0.0

-2.155305809387841e6 6.170297766702741e6 0.0
6.170297766702741e6 -1.2615164991199132e6 0.0
0.0 0.0 0.0

-3.859451964544614e6 7.876732895045309e6 0.0
7.876732895045309e6 261698.38239547936 0.0
0.0 0.0 0.0

-1.7267202517399224e6 9.72679950081908e6 0.0
9.72679950081908e6 -2.8162785752596213e6 0.0
0.0 0.0 0.0

776895.446437384 4.950740061114714e6 0.0
4.950740061114714e6 -4.362484536874551e6 0.0
0.0 0.0 0.0

-1.750270043205139e6 6.731234994196115e6 0.0
6.731234994196115e6 -686019.5869658261 0.0
0.0 0.0 0.0

-1.3266800540331213e7 1.0825993283201179e7 0.0
1.0825993283201179e7 7.376594637079676e6 0.0
0.0 0.0 0.0

-570229.7746424007 6.575682876338392e6 0.0
6.575682876338392e6 -2.9437443770479797e6 0.0
0.0 0.0 0.0

-1.8114925196665963e6 2.984706469626335e6 0.0
2.984706469626335e6 1.2625374214138302e6 0.0
0.0 0.0 0.0

-2.5477663733139583e6 6.620371537037964e6 0.0
6.620371537037964e6 -171713.652465128 0.0
0.0 0.0 0.0

-7.068941802656487e6 1.0166892264202315e7 0.0
1.0166892264202315e7 3.268625345869977e6 0.0
0.0 0.0 0.0

145917.49855619436 6.623761650502922e6 0.0
6.623761650502922e6 -4.295850955231653e6 0.0
0.0 0.0 0.0

-1.0581316364526989e7 8.921168424325377e6 0.0
8.921168424325377e6 6.907401952219913e6 0.0
0.0 0.0 0.0

-1.639011205387539e6 6.94434047990847e6 0.0
6.94434047990847e6 -662676.7603773779 0.0
0.0 0.0 0.0

-6.446193806228285e6 7.857727757360521e6 0.0
7.857727757360521e6 1.6605296380970916e6 0.0
0.0 0.0 0.0

-484431.35851469357 9.522512628139546e6 0.0
9.522512628139546e6 340945.2465399014 0.0
0.0 0.0 0.0

-1.4450340793896472e7 1.1021731833914997e7 0.0
1.1021731833914997e7 8.220457885851042e6 0.0
0.0 0.0 0.0

55468.703702769475 7.564675630032757e6 0.0
7.564675630032757e6 -5.026520405621816e6 0.0
0.0 0.0 0.0

-2.0290514416058783e6 7.432982716583781e6 0.0
7.432982716583781e6 -701534.7337165684 0.0
0.0 0.0 0.0

-477128.38012371375 6.26926481880618e6 0.0
6.26926481880618e6 -1.590427889244317e6 0.0
0.0 0.0 0.0

-284225.78256763425 6.850605985168713e6 0.0
6.850605985168713e6 -3.6514039091483867e6 0.0
0.0 0.0 0.0

273825.999229069 7.777988384717197e6 0.0
7.777988384717197e6 -1.8164088893744876e6 0.0
0.0 0.0 0.0

-302556.27323723934 6.453358602712309e6 0.0
6.453358602712309e6 -3.841742683572433e6 0.0
0.0 0.0 0.0

-359446.14462599135 9.077923912947113e6 0.0
9.077923912947113e6 -1.0799811145079e6 0.0
0.0 0.0 0.0

-3.350241694192766e6 7.539171404689036e6 0.0
7.539171404689036e6 763545.7276898227 0.0
0.0 0.0 0.0

-3.5793651529650628e6 7.424131971695089e6 0.0
7.424131971695089e6 446218.46860896493 0.0
0.0 0.0 0.0

-578715.8538639816 5.168826246656136e6 0.0
5.168826246656136e6 -3.3431545750074987e6 0.0
0.0 0.0 0.0

861140.8972052777 9.433022164668301e6 0.0
9.433022164668301e6 3.704074855906545e6 0.0
0.0 0.0 0.0

-765632.736963953 6.961162654109972e6 0.0
6.961162654109972e6 -2.7160544923419324e6 0.0
0.0 0.0 0.0

-2.0427374780153318e6 6.168696153752271e6 0.0
6.168696153752271e6 -884425.9759631333 0.0
0.0 0.0 0.0

-2.8056174901287314e6 9.218266514517726e6 0.0
9.218266514517726e6 762714.1335151192 0.0
0.0 0.0 0.0

-1.052928089997608e6 4.9681622563844025e6 0.0
4.9681622563844025e6 -1.740499495335376e6 0.0
0.0 0.0 0.0

-3.588930483625561e6 8.106062577851766e6 0.0
8.106062577851766e6 1.955716377405669e6 0.0
0.0 0.0 0.0

-1.6906565427087357e6 9.839624178295322e6 0.0
9.839624178295322e6 2.169643289822912e6 0.0
0.0 0.0 0.0

-1.1632727735064237e6 4.907869951946126e6 0.0
4.907869951946126e6 -296263.9876483082 0.0
0.0 0.0 0.0

-1.6046999123109465e7 1.1881006591498725e7 0.0
1.1881006591498725e7 7.71793375263936e6 0.0
0.0 0.0 0.0

-6.344815451458111e6 9.61284797031428e6 0.0
9.61284797031428e6 7.901288098933982e6 0.0
0.0 0.0 0.0

-2.240414212422362e6 6.242472411486751e6 0.0
6.242472411486751e6 -483275.2829163159 0.0
0.0 0.0 0.0

2.952310122616059e6 8.898640385372473e6 0.0
8.898640385372473e6 -2.8237914524779683e6 0.0
0.0 0.0 0.0

548822.0140868423 6.55326523117048e6 0.0
6.55326523117048e6 -4.8960881408641115e6 0.0
0.0 0.0 0.0

297077.0337049025 7.71204731508589e6 0.0
7.71204731508589e6 -5.66710306882855e6 0.0
0.0 0.0 0.0

-2.3914381815134413e6 6.598897709577834e6 0.0
6.598897709577834e6 433039.64597698627 0.0
0.0 0.0 0.0

-9.493495375748385e6 7.479195417643677e6 0.0
7.479195417643677e6 5.397592386721795e6 0.0
0.0 0.0 0.0

-2.6440558307956327e6 7.011699854015461e6 0.0
7.011699854015461e6 270524.4002374626 0.0
0.0 0.0 0.0

-2.139401485078569e6 7.08995551193245e6 0.0
7.08995551193245e6 -1.9454581173432833e6 0.0
0.0 0.0 0.0

-1.0072494517395433e7 8.0128093964876495e6 0.0
8.0128093964876495e6 7.078229869493986e6 0.0
0.0 0.0 0.0

-927786.4749722495 7.14795666404137e6 0.0
7.14795666404137e6 -3.368897282747902e6 0.0
0.0 0.0 0.0

-2.911760686881643e6 7.286348615875128e6 0.0
7.286348615875128e6 503473.06737860653 0.0
0.0 0.0 0.0

-1.3173165237996464e6 6.551008590554689e6 0.0
6.551008590554689e6 -1.0218715148711852e6 0.0
0.0 0.0 0.0

-2.3908465939035816e6 7.4648399964160025e6 0.0
7.4648399964160025e6 115433.86992607231 0.0
0.0 0.0 0.0

-1.8444874657634813e7 1.569730223500066e7 0.0
1.569730223500066e7 5.142872774857732e6 0.0
0.0 0.0 0.0

-1.30760274451553e6 5.315140527776442e6 0.0
5.315140527776442e6 -336157.52229665243 0.0
0.0 0.0 0.0

-1.1505550745794298e6 4.599175761195091e6 0.0
4.599175761195091e6 -1.3495276683834333e6 0.0
0.0 0.0 0.0

-3.747155415628652e6 7.806685628582313e6 0.0
7.806685628582313e6 1.0173225233204663e6 0.0
0.0 0.0 0.0

-3.7231081453197584e6 8.410649778166197e6 0.0
8.410649778166197e6 1.0581709469774172e6 0.0
0.0 0.0 0.0

-2.8580849254044644e6 7.4146435891930815e6 0.0
7.4146435891930815e6 -453661.1446685042 0.0
0.0 0.0 0.0

-3.739634335746571e6 7.608510963872469e6 0.0
7.608510963872469e6 714845.7280999674 0.0
0.0 0.0 0.0

-429027.2465770451 3.865903819364234e6 0.0
3.865903819364234e6 -1.0984468322871553e6 0.0
0.0 0.0 0.0

364227.01301560807 8.395142578080544e6 0.0
8.395142578080544e6 -3.43495312721984e6 0.0
0.0 0.0 0.0

-3.9808957779470794e6 8.613921559462318e6 0.0
8.613921559462318e6 1.3177121788542105e6 0.0
0.0 0.0 0.0

-1.1743810308054024e6 4.855758874379659e6 0.0
4.855758874379659e6 -2.7607687666759896e6 0.0
0.0 0.0 0.0

526371.4118104372 8.555204590879763e6 0.0
8.555204590879763e6 -3.211977181463003e6 0.0
0.0 0.0 0.0

-6.10732103529858e6 7.922734124787853e6 0.0
7.922734124787853e6 804391.8517083246 0.0
0.0 0.0 0.0

-1.4133886412035045e6 5.846758123909192e6 0.0
5.846758123909192e6 -387232.5797556687 0.0
0.0 0.0 0.0

-1.5888402536412936e6 9.41577569992715e6 0.0
9.41577569992715e6 -2.9788349056257913e6 0.0
0.0 0.0 0.0

-3.8289084604598098e6 8.643887454263574e6 0.0
8.643887454263574e6 1.4645266872125447e6 0.0
0.0 0.0 0.0

5.92660262431987e6 1.9308835468331333e6 0.0
1.9308835468331333e6 -7.360289003725839e6 0.0
0.0 0.0 0.0

-484191.4463878658 2.383042922220631e6 0.0
2.383042922220631e6 -473045.52265495167 0.0
0.0 0.0 0.0

-318352.9485800137 2.2471055023968257e6 0.0
2.2471055023968257e6 -647567.6822845904 0.0
0.0 0.0 0.0

-744111.518938763 1.487983171018726e6 0.0
1.487983171018726e6 863483.2579889571 0.0
0.0 0.0 0.0

-204663.62983657562 800139.0441522297 0.0
800139.0441522297 -1.244950179603425e6 0.0
0.0 0.0 0.0

-727711.2562497801 1.1971559221354697e6 0.0
1.1971559221354697e6 442897.6944589789 0.0
0.0 0.0 0.0

2.5167921368783396e6 599215.9135537449 0.0
599215.9135537449 -4.354276635346229e6 0.0
0.0 0.0 0.0

-212547.52876482185 1.9257022739337278e6 0.0
1.9257022739337278e6 -558693.0199528228 0.0
0.0 0.0 0.0

-132383.53818092088 1.0228807261904905e6 0.0
1.0228807261904905e6 -798474.2070990689 0.0
0.0 0.0 0.0

-175091.06912277627 -25217.116296130633 0.0
-25217.116296130633 -1.8415005850950517e6 0.0
0.0 0.0 0.0

-427442.307793225 974666.3873416155 0.0
974666.3873416155 -257670.216738589 0.0
0.0 0.0 0.0

924220.5055228323 600518.5530785212 0.0
600518.5530785212 -2.9186643296898743e6 0.0
0.0 0.0 0.0

308843.9787553322 567863.408496637 0.0
567863.408496637 -2.1776961672329623e6 0.0
0.0 0.0 0.0

-205595.4872763168 2.459197003899717e6 0.0
2.459197003899717e6 -428874.3862852224 0.0
0.0 0.0 0.0

534104.0457792599 4.690923492847133e6 0.0
4.690923492847133e6 -3.8495168396637905e6 0.0
0.0 0.0 0.0

787784.5007590258 4.7592933455225155e6 0.0
4.7592933455225155e6 -4.534608685590118e6 0.0
0.0 0.0 0.0

824169.7314388368 4.699459575171357e6 0.0
4.699459575171357e6 -3.721753286223595e6 0.0
0.0 0.0 0.0

3.471675557931413e6 3.9594547989332327e6 0.0
3.9594547989332327e6 -6.785538458619892e6 0.0
0.0 0.0 0.0

-312421.95804424956 2.3353135065840185e6 0.0
2.3353135065840185e6 -371354.7909300012 0.0
0.0 0.0 0.0

-439895.03841339133 986677.6737999175 0.0
986677.6737999175 -97388.34930929204 0.0
0.0 0.0 0.0

679714.9041311056 4.814635664417374e6 0.0
4.814635664417374e6 -4.1928404807448867e6 0.0
0.0 0.0 0.0

5.111860485689921e6 2.4697290822353917e6 0.0
2.4697290822353917e6 -7.706396496501658e6 0.0
0.0 0.0 0.0

4.230586144813031e6 4.137113063947488e6 0.0
4.137113063947488e6 -6.420862660227085e6 0.0
0.0 0.0 0.0

5.316987402964149e6 2.607382854492423e6 0.0
2.607382854492423e6 -6.910987172180601e6 0.0
0.0 0.0 0.0

-1.7014279430225499e6 8.652191319919527e6 0.0
8.652191319919527e6 -2.3055350065418356e6 0.0
0.0 0.0 0.0

-1.2153024150121717e6 4.606636101280704e6 0.0
4.606636101280704e6 122984.72291854041 0.0
0.0 0.0 0.0

-1.9658049252452021e6 2.191265927019933e6 0.0
2.191265927019933e6 1.036279601115823e6 0.0
0.0 0.0 0.0

-3.6843485384031683e6 8.2919604233095385e6 0.0
8.2919604233095385e6 1.9994279228315898e6 0.0
0.0 0.0 0.0

-350692.0381321721 8.593822093450136e6 0.0
8.593822093450136e6 -4.761169954006166e6 0.0
0.0 0.0 0.0

-3.0484426082140906e6 7.890203516969083e6 0.0
7.890203516969083e6 225775.46191021602 0.0
0.0 0.0 0.0

-1.7558181380283184e7 1.2894372292363977e7 0.0
1.2894372292363977e7 7.846009207471558e6 0.0
0.0 0.0 0.0

-2.48774395323035e6 6.534069110051362e6 0.0
6.534069110051362e6 -255032.863546654 0.0
0.0 0.0 0.0

-1.4022335613940903e6 7.70709563751873e6 0.0
7.70709563751873e6 781755.3762534236 0.0
0.0 0.0 0.0

864881.3385232463 7.968018425398784e6 0.0
7.968018425398784e6 470088.0380321292 0.0
0.0 0.0 0.0

-1.8953069214677429e6 9.504987086198159e6 0.0
9.504987086198159e6 529641.3579971859 0.0
0.0 0.0 0.0

-2.650445097815344e6 7.642595012140899e6 0.0
7.642595012140899e6 416962.6336827113 0.0
0.0 0.0 0.0

-901427.9762077541 1.0319877179749228e7 0.0
1.0319877179749228e7 -2.9099356409725514e6 0.0
0.0 0.0 0.0

-2.10678694316367e6 6.8860023035131e6 0.0
6.8860023035131e6 124632.10736317991 0.0
0.0 0.0 0.0

-3.8619857468385044e6 7.856244071861875e6 0.0
7.856244071861875e6 938139.9350906776 0.0
0.0 0.0 0.0

-3.4208998467631596e6 7.275646084441118e6 0.0
7.275646084441118e6 200461.28469815734 0.0
0.0 0.0 0.0

-1.3817070685784759e6 6.827731193005897e6 0.0
6.827731193005897e6 -880551.8118869595 0.0
0.0 0.0 0.0

-2.029231029340663e6 6.093946913458418e6 0.0
6.093946913458418e6 -1.5482562928200634e6 0.0
0.0 0.0 0.0

-2.5607140824168054e6 7.10698917967725e6 0.0
7.10698917967725e6 202732.79754053184 0.0
0.0 0.0 0.0

-985501.6092900211 4.783890859471786e6 0.0
4.783890859471786e6 -3.084537643950211e6 0.0
0.0 0.0 0.0

-381105.7301249424 2.3415013399963486e6 0.0
2.3415013399963486e6 -990324.4423326816 0.0
0.0 0.0 0.0

-520301.3357968647 2.3538645037748674e6 0.0
2.3538645037748674e6 -755227.6292112637 0.0
0.0 0.0 0.0

-437309.81791195343 980434.3115368391 0.0
980434.3115368391 -324356.5872620621 0.0
0.0 0.0 0.0

-107969.56360713375 2.414394176196219e6 0.0
2.414394176196219e6 -1.0471542033829063e6 0.0
0.0 0.0 0.0

172044.8103544038 2.10713891084529e6 0.0
2.10713891084529e6 -1.1589541532841101e6 0.0
0.0 0.0 0.0

683539.5154470855 4.791155041766334e6 0.0
4.791155041766334e6 -3.8914507686766926e6 0.0
0.0 0.0 0.0

664780.9020913299 4.799104530959785e6 0.0
4.799104530959785e6 -4.0847575138385724e6 0.0
0.0 0.0 0.0

-751456.0745045939 1.1656823493714705e6 0.0
1.1656823493714705e6 185475.84926198685 0.0
0.0 0.0 0.0

3.6839133513064114e6 3.7053600811991133e6 0.0
3.7053600811991133e6 -5.2202140195227e6 0.0
0.0 0.0 0.0

6.036048200055807e6 1.9266905765448508e6 0.0
1.9266905765448508e6 -8.209247736296544e6 0.0
0.0 0.0 0.0

5.957702086590951e6 2.88258772182746e6 0.0
2.88258772182746e6 -7.548383068666095e6 0.0
0.0 0.0 0.0

5.142530339606689e6 2.48831838711189e6 0.0
2.48831838711189e6 -7.267277631120379e6 0.0
0.0 0.0 0.0

-2.315124537622557e6 6.630772544754721e6 0.0
6.630772544754721e6 -321755.88407347427 0.0
0.0 0.0 0.0

-4.456103924275408e6 7.072635336436433e6 0.0
7.072635336436433e6 6.135473938047506e6 0.0
0.0 0.0 0.0

-2.06170117120369e6 6.084489360895306e6 0.0
6.084489360895306e6 540625.1953967076 0.0
0.0 0.0 0.0

267242.13407302205 6.611023183537138e6 0.0
6.611023183537138e6 -3.770948415154695e6 0.0
0.0 0.0 0.0

-4.796643775540443e6 8.818552160507768e6 0.0
8.818552160507768e6 1.0267165879523365e6 0.0
0.0 0.0 0.0

-1.8316163822493067e6 9.217828693604255e6 0.0
9.217828693604255e6 2.0221966429300683e6 0.0
0.0 0.0 0.0

-2.213928281052573e6 4.41123602313677e6 0.0
4.41123602313677e6 1.0922727768613966e6 0.0
0.0 0.0 0.0

-299097.5418501535 6.975973706751656e6 0.0
6.975973706751656e6 -3.5763171417526524e6 0.0
0.0 0.0 0.0

-907595.4589111398 7.252152983249926e6 0.0
7.252152983249926e6 -3.3886048569303444e6 0.0
0.0 0.0 0.0

-3.1644498441400607e6 7.025162840430923e6 0.0
7.025162840430923e6 -20891.189428446232 0.0
0.0 0.0 0.0

-2.3037420324758994e6 8.99857755160441e6 0.0
8.99857755160441e6 2.7127755575498077e6 0.0
0.0 0.0 0.0

-1.609508722902749e6 6.530568669337231e6 0.0
6.530568669337231e6 -790513.6934947774 0.0
0.0 0.0 0.0

-3.0764478748038025e6 7.456114193399496e6 0.0
7.456114193399496e6 -122537.81607618171 0.0
0.0 0.0 0.0

-4.454923917897586e6 8.47568472838808e6 0.0
8.47568472838808e6 1.7890762179579185e6 0.0
0.0 0.0 0.0

-1.0449373405871319e6 7.335746345678776e6 0.0
7.335746345678776e6 -2.5517913716855533e6 0.0
0.0 0.0 0.0

-3.4715234382152343e6 7.565311411767408e6 0.0
7.565311411767408e6 767415.002105823 0.0
0.0 0.0 0.0

-166004.04264011886 2.4917713489206485e6 0.0
2.4917713489206485e6 2.0547145177371944e6 0.0
0.0 0.0 0.0

-2.2479997483649813e6 9.056774346124155e6 0.0
9.056774346124155e6 2.492536998878354e6 0.0
0.0 0.0 0.0

955296.9569860334 7.491378648292036e6 0.0
7.491378648292036e6 -6.45604963793888e6 0.0
0.0 0.0 0.0

202447.16133840708 7.643140478268827e6 0.0
7.643140478268827e6 -5.375318936334016e6 0.0
0.0 0.0 0.0

-2.8092203947861847e6 7.185387755298987e6 0.0
7.185387755298987e6 -337402.7016114505 0.0
0.0 0.0 0.0

-3.978678879645833e6 8.875712334953144e6 0.0
8.875712334953144e6 1.0786301671663907e6 0.0
0.0 0.0 0.0

1.8779542008928987e6 2.459498096180015e6 0.0
2.459498096180015e6 -4.328324867582323e6 0.0
0.0 0.0 0.0

-2.380873821114323e6 6.731694706480647e6 0.0
6.731694706480647e6 48638.7115289293 0.0
0.0 0.0 0.0

-3.4680480913292677e6 7.366876827170736e6 0.0
7.366876827170736e6 465804.13899584766 0.0
0.0 0.0 0.0

-3.5748292358389096e6 7.62539476100005e6 0.0
7.62539476100005e6 754018.7875964507 0.0
0.0 0.0 0.0

-34951.17075918778 8.371601090460748e6 0.0
8.371601090460748e6 -4.938172770290198e6 0.0
0.0 0.0 0.0

-369180.04128575244 7.503083704352894e6 0.0
7.503083704352894e6 -4.379607019932269e6 0.0
0.0 0.0 0.0

-1.6885388643514558e6 6.587026435829492e6 0.0
6.587026435829492e6 -889265.0768163158 0.0
0.0 0.0 0.0

-2.2175176557837212e6 6.89783091283403e6 0.0
6.89783091283403e6 115669.71712448762 0.0
0.0 0.0 0.0

-253932.11963170255 8.3038271000456065e6 0.0
8.3038271000456065e6 -4.826944050977642e6 0.0
0.0 0.0 0.0

-3.7985509150522244e6 8.103726434772001e6 0.0
8.103726434772001e6 612317.0598524977 0.0
0.0 0.0 0.0

709455.2124248636 433435.67462818895 0.0
433435.67462818895 -3.0465803921568445e6 0.0
0.0 0.0 0.0

-6.934558162079091e6 1.285644377021341e7 0.0
1.285644377021341e7 2.7524244201450637e6 0.0
0.0 0.0 0.0

1.0605105126720576e6 3.4142763071857262e6 0.0
3.4142763071857262e6 -3.406480160410568e6 0.0
0.0 0.0 0.0

-1.7753699337973804e6 5.794072390753485e6 0.0
5.794072390753485e6 -860509.2340116355 0.0
0.0 0.0 0.0

-3.3789420876561254e6 7.021175554223953e6 0.0
7.021175554223953e6 1.6713801394918961e6 0.0
0.0 0.0 0.0

-1.8440184599022067e6 6.2589457117598755e6 0.0
6.2589457117598755e6 -374475.0303910775 0.0
0.0 0.0 0.0

-2.317071658560118e6 6.303562168569912e6 0.0
6.303562168569912e6 -495604.57819565746 0.0
0.0 0.0 0.0

-3.630404744983537e6 7.585040609334428e6 0.0
7.585040609334428e6 719762.0894009823 0.0
0.0 0.0 0.0

-1.5290101411976432e6 6.368652680269925e6 0.0
6.368652680269925e6 -1.019048819059331e6 0.0
0.0 0.0 0.0

39110.02449122816 3.421848618205384e6 0.0
3.421848618205384e6 -1.1625159753180728e6 0.0
0.0 0.0 0.0

-2.1348298224015124e6 7.283958838162502e6 0.0
7.283958838162502e6 -159966.1175423708 0.0
0.0 0.0 0.0

-3.024592546102906e6 8.100819009888455e6 0.0
8.100819009888455e6 282216.21893351 0.0
0.0 0.0 0.0

-1.1253562202514636e6 2.3963405407082746e6 0.0
2.3963405407082746e6 -2.264163865662962e6 0.0
0.0 0.0 0.0

-1.6203613656103131e6 6.482137479763446e6 0.0
6.482137479763446e6 -435568.5014229952 0.0
0.0 0.0 0.0

-3.8534821802289775e6 7.6713653204457285e6 0.0
7.6713653204457285e6 700517.0737433517 0.0
0.0 0.0 0.0

487904.2824380372 7.021254705096908e6 0.0
7.021254705096908e6 -4.852205837897858e6 0.0
0.0 0.0 0.0

-3.2873487964144675e6 8.916297207055513e6 0.0
8.916297207055513e6 849387.6000063764 0.0
0.0 0.0 0.0

-2.9064396099356483e6 6.770808029629277e6 0.0
6.770808029629277e6 -247786.41322325007 0.0
0.0 0.0 0.0

289076.69132355496 576690.9477262462 0.0
576690.9477262462 -1.5355108233463683e6 0.0
0.0 0.0 0.0

-4.37753227044309e6 9.043786799364554e6 0.0
9.043786799364554e6 2.182863357137181e6 0.0
0.0 0.0 0.0

-1.176555521043526e6 4.197020199537944e6 0.0
4.197020199537944e6 -372736.4224867076 0.0
0.0 0.0 0.0

-2.6910110160857844e6 6.616139555254959e6 0.0
6.616139555254959e6 -257046.10613868292 0.0
0.0 0.0 0.0

-4.14516102262853e6 8.080644673657859e6 0.0
8.080644673657859e6 1.2306064981047253e6 0.0
0.0 0.0 0.0

-4.472247587809954e6 8.309359517502488e6 0.0
8.309359517502488e6 1.4677596428495871e6 0.0
0.0 0.0 0.0

-3.6844445429254035e6 7.531990904526958e6 0.0
7.531990904526958e6 414061.0009796929 0.0
0.0 0.0 0.0

-3.5206810471507246e6 7.773707772476759e6 0.0
7.773707772476759e6 1.0304807110381203e6 0.0
0.0 0.0 0.0

1.2381902208508644e6 698731.4384025155 0.0
698731.4384025155 -3.2200541769352853e6 0.0
0.0 0.0 0.0

-5.608778591682723e6 9.647222811335068e6 0.0
9.647222811335068e6 1.6707880746322542e6 0.0
0.0 0.0 0.0

-894263.7025231265 9.46245225270688e6 0.0
9.46245225270688e6 -6.189575866887727e6 0.0
0.0 0.0 0.0

-788069.4518243372 1.26969046546789e7 0.0
1.26969046546789e7 1.0663707568257313e7 0.0
0.0 0.0 0.0

-1.343016766021001e6 8.192029941947808e6 0.0
8.192029941947808e6 -3.099264187346871e6 0.0
0.0 0.0 0.0

-3.288528276119966e6 7.5148158261209335e6 0.0
7.5148158261209335e6 177665.47946951934 0.0
0.0 0.0 0.0

-413642.73069487605 8.002083546723964e6 0.0
8.002083546723964e6 -4.842163664586202e6 0.0
0.0 0.0 0.0

-2.649619488564491e6 6.515295133017323e6 0.0
6.515295133017323e6 -481927.7372227764 0.0
0.0 0.0 0.0

-1.8736998223837845e6 1.0319078388656162e7 0.0
1.0319078388656162e7 -2.0048057586532552e6 0.0
0.0 0.0 0.0

-2.3309538629609803e6 6.239778300442588e6 0.0
6.239778300442588e6 -987588.3325731338 0.0
0.0 0.0 0.0

-3.4882185231003063e6 7.587009278194804e6 0.0
7.587009278194804e6 701046.4823899893 0.0
0.0 0.0 0.0

1.3415594663287224e6 7.46294791552927e6 0.0
7.46294791552927e6 -7.009838747924091e6 0.0
0.0 0.0 0.0

-3.3067611134016593e6 9.089200702749977e6 0.0
9.089200702749977e6 657810.6346093146 0.0
0.0 0.0 0.0

-3.188936657542238e6 8.318803245022326e6 0.0
8.318803245022326e6 661407.4000325061 0.0
0.0 0.0 0.0

-2.220346491726176e6 6.291232776969657e6 0.0
6.291232776969657e6 -631804.8336247869 0.0
0.0 0.0 0.0

-555716.9176819489 7.666059271216029e6 0.0
7.666059271216029e6 -4.0851194960700586e6 0.0
0.0 0.0 0.0

1.1976304683474032e6 1.1842339382615115e7 0.0
1.1842339382615115e7 3.992098619114411e6 0.0
0.0 0.0 0.0

-3.3448375538634183e6 8.377182472932647e6 0.0
8.377182472932647e6 -533434.6086925326 0.0
0.0 0.0 0.0

-1.9403757713047996e7 1.3603730050864164e7 0.0
1.3603730050864164e7 8.452567602720818e6 0.0
0.0 0.0 0.0

-1.1339845180572323e6 8.05392075599961e6 0.0
8.05392075599961e6 -3.3295754703267785e6 0.0
0.0 0.0 0.0

-3.4125014399519647e6 7.470542117499801e6 0.0
7.470542117499801e6 500226.6027155339 0.0
0.0 0.0 0.0

1.105809141930422e6 726088.2115529511 0.0
726088.2115529511 -2.3632296472236263e6 0.0
0.0 0.0 0.0

327963.9828156093 6.7285414455611445e6 0.0
6.7285414455611445e6 -4.74994261501989e6 0.0
0.0 0.0 0.0

-4.1550598649788606e6 8.263812399741836e6 0.0
8.263812399741836e6 1.5297607763675074e6 0.0
0.0 0.0 0.0

-248893.57788072294 8.434248716482766e6 0.0
8.434248716482766e6 -5.961279094136194e6 0.0
0.0 0.0 0.0

-2.393392496783536e6 6.454614956986196e6 0.0
6.454614956986196e6 -395939.38928840036 0.0
0.0 0.0 0.0

-1.247844908961982e6 5.2705558363098325e6 0.0
5.2705558363098325e6 -2.1153723860450266e6 0.0
0.0 0.0 0.0

-2.1428777866489533e6 7.171182487687548e6 0.0
7.171182487687548e6 -379515.22313416546 0.0
0.0 0.0 0.0

-904215.771284109 7.921021780439841e6 0.0
7.921021780439841e6 -3.5997824626928964e6 0.0
0.0 0.0 0.0

-2.0755283677595793e6 6.997492749015108e6 0.0
6.997492749015108e6 -632376.1286499538 0.0
0.0 0.0 0.0

-1.3247648489206182e6 9.221842273200966e6 0.0
9.221842273200966e6 -3.2616838893888206e6 0.0
0.0 0.0 0.0

-1.213394946056953e7 6.599106301493777e6 0.0
6.599106301493777e6 6.311578222357135e6 0.0
0.0 0.0 0.0

-157754.9047928375 1.4936632537988515e6 0.0
1.4936632537988515e6 -757226.3226326638 0.0
0.0 0.0 0.0

-2.0322822528148498e6 7.6464376734053055e6 0.0
7.6464376734053055e6 -771869.0672716175 0.0
0.0 0.0 0.0

-3.626969710201215e6 7.7854975674503185e6 0.0
7.7854975674503185e6 1.0421218780168998e6 0.0
0.0 0.0 0.0

-6.490668012598103e6 -624524.8078687208 0.0
-624524.8078687208 9.264173016074019e6 0.0
0.0 0.0 0.0

-819320.8281039376 9.701989640377706e6 0.0
9.701989640377706e6 516410.75002756866 0.0
0.0 0.0 0.0

-2.500607038315852e6 6.35907709589369e6 0.0
6.35907709589369e6 -728766.2811538321 0.0
0.0 0.0 0.0

-2.616012482007331e6 9.871583663610237e6 0.0
9.871583663610237e6 -1.4064019132050204e6 0.0
0.0 0.0 0.0

-2.745264754911855e6 7.1660771354045905e6 0.0
7.1660771354045905e6 -1.0736126066700488e6 0.0
0.0 0.0 0.0

-1.7328593596088786e6 5.497327075039068e6 0.0
5.497327075039068e6 -1.4070853175758678e6 0.0
0.0 0.0 0.0

-3.3419382903416567e6 7.317945071181643e6 0.0
7.317945071181643e6 -130999.61810666276 0.0
0.0 0.0 0.0

-2.299496016214522e6 6.37080247981884e6 0.0
6.37080247981884e6 844191.7796371988 0.0
0.0 0.0 0.0

-2.816338456153049e6 7.370884970631831e6 0.0
7.370884970631831e6 429551.5172456496 0.0
0.0 0.0 0.0

-2.572118955949982e6 6.578023433227653e6 0.0
6.578023433227653e6 -262398.52437773417 0.0
0.0 0.0 0.0

912651.803041386 6.996172755505546e6 0.0
6.996172755505546e6 -5.922198850696902e6 0.0
0.0 0.0 0.0

-4.354048060279847e6 9.158728584280143e6 0.0
9.158728584280143e6 2.20135926232653e6 0.0
0.0 0.0 0.0

-286512.5280133784 4.874303469312443e6 0.0
4.874303469312443e6 -875542.9911289071 0.0
0.0 0.0 0.0

-2.1540626261022706e6 6.567273619114202e6 0.0
6.567273619114202e6 465249.66154762416 0.0
0.0 0.0 0.0

-1.2776115979179693e6 5.303141727052942e6 0.0
5.303141727052942e6 -1.7866612252976445e6 0.0
0.0 0.0 0.0

1.5000190885320767e6 6.987789728752627e6 0.0
6.987789728752627e6 -4.292526447806156e6 0.0
0.0 0.0 0.0

-722210.5291442517 7.7645752722026855e6 0.0
7.7645752722026855e6 -3.850677046031681e6 0.0
0.0 0.0 0.0

-1.103636161327578e6 5.472862307558113e6 0.0
5.472862307558113e6 -1.3638212950490809e6 0.0
0.0 0.0 0.0

-4.751524147623614e6 3.4579343353929548e6 0.0
3.4579343353929548e6 4.316347293342221e6 0.0
0.0 0.0 0.0

-3.0087798144188123e6 6.894790309466985e6 0.0
6.894790309466985e6 -280383.6791348754 0.0
0.0 0.0 0.0

287961.4325759656 1.675379067502141e6 0.0
1.675379067502141e6 -1.0608359313253104e6 0.0
0.0 0.0 0.0

-1.8621000335722796e6 6.7828063151339e6 0.0
6.7828063151339e6 -770160.2017593553 0.0
0.0 0.0 0.0

-2.8024425691812076e6 9.76931444492868e6 0.0
9.76931444492868e6 -1.0900952876933517e6 0.0
0.0 0.0 0.0

-248158.4754265698 8.80436942779473e6 0.0
8.80436942779473e6 -4.510845572447718e6 0.0
0.0 0.0 0.0

-1.0532284309402802e6 6.718316448353707e6 0.0
6.718316448353707e6 -3.150508100131431e6 0.0
0.0 0.0 0.0

-915899.6663211649 3.9389968985382165e6 0.0
3.9389968985382165e6 -2.0568095265962298e6 0.0
0.0 0.0 0.0

-2.6466390307866284e6 6.716235265080414e6 0.0
6.716235265080414e6 -172800.18980276748 0.0
0.0 0.0 0.0

-2.8313318988130596e6 8.664455631578647e6 0.0
8.664455631578647e6 3.6007470525855655e6 0.0
0.0 0.0 0.0

-4.579577908332534e6 8.288075930860115e6 0.0
8.288075930860115e6 1.4686698082329598e6 0.0
0.0 0.0 0.0

-3.688127237567405e6 6.195707949405467e6 0.0
6.195707949405467e6 2.6722050792829655e6 0.0
0.0 0.0 0.0

-2.992814495386575e6 7.328572177288644e6 0.0
7.328572177288644e6 1.4035196547847898e6 0.0
0.0 0.0 0.0

-855489.2582849349 4.629696333087796e6 0.0
4.629696333087796e6 -2.108271007214044e6 0.0
0.0 0.0 0.0

-1.9306251171051455e6 6.940426988902452e6 0.0
6.940426988902452e6 -542231.1438288639 0.0
0.0 0.0 0.0

-1.202277617428672e6 9.554363709522778e6 0.0
9.554363709522778e6 682920.7451503772 0.0
0.0 0.0 0.0

-1.872085623000159e6 5.69868692424838e6 0.0
5.69868692424838e6 -1.1738717108257455e6 0.0
0.0 0.0 0.0

-417807.1967536077 8.422473634440828e6 0.0
8.422473634440828e6 -4.530488147344502e6 0.0
0.0 0.0 0.0

-2.902669121622637e6 6.968675550558443e6 0.0
6.968675550558443e6 57613.78968232486 0.0
0.0 0.0 0.0

-1.5845628164149432e6 8.33163572811686e6 0.0
8.33163572811686e6 -2.8956639301378047e6 0.0
0.0 0.0 0.0

-2.2259759589036694e6 6.983109156937631e6 0.0
6.983109156937631e6 -141848.82698881964 0.0
0.0 0.0 0.0

-913685.4934608664 8.075838941558251e6 0.0
8.075838941558251e6 -5.164872438525591e6 0.0
0.0 0.0 0.0

-3.157326697160173e6 7.2192378192364415e6 0.0
7.2192378192364415e6 278784.7527185823 0.0
0.0 0.0 0.0

1.4716013304523842e6 9.57061893696163e6 0.0
9.57061893696163e6 -3.0595587833266e6 0.0
0.0 0.0 0.0

-6.7696702763551e6 -221024.95096454024 0.0
-221024.95096454024 9.092725834659934e6 0.0
0.0 0.0 0.0

-1.0022419990814053e7 9.433200436647912e6 0.0
9.433200436647912e6 6.190015346426698e6 0.0
0.0 0.0 0.0

-2.294465590364456e6 9.384511937272856e6 0.0
9.384511937272856e6 822340.0893530215 0.0
0.0 0.0 0.0

-5.749263880455118e6 4.357233453617154e6 0.0
4.357233453617154e6 7.517172133845906e6 0.0
0.0 0.0 0.0

-3.741721655403123e6 8.184224708583827e6 0.0
8.184224708583827e6 1.986564679990411e6 0.0
0.0 0.0 0.0

-2.1300948495771415e6 6.439004403579708e6 0.0
6.439004403579708e6 -165357.73359886534 0.0
0.0 0.0 0.0

-2.289318419754275e6 6.4417583733039005e6 0.0
6.4417583733039005e6 -670129.1721645492 0.0
0.0 0.0 0.0

-2.7150581972827287e6 6.831310295287939e6 0.0
6.831310295287939e6 -188536.23898357304 0.0
0.0 0.0 0.0

-1.22869966727879e6 4.736280078627167e6 0.0
4.736280078627167e6 -899442.2685577946 0.0
0.0 0.0 0.0

-3.074673835122652e6 9.522356385262435e6 0.0
9.522356385262435e6 -720296.0814852354 0.0
0.0 0.0 0.0

181122.80775839067 7.594593449404792e6 0.0
7.594593449404792e6 -3.998732466800147e6 0.0
0.0 0.0 0.0

-653738.1784792546 1.77626117148829e6 0.0
1.77626117148829e6 -3.184978363148545e6 0.0
0.0 0.0 0.0

-3.0627035169928838e6 6.889821357624582e6 0.0
6.889821357624582e6 1.8813509326794425e6 0.0
0.0 0.0 0.0

-4.392623565859847e6 8.138018028093956e6 0.0
8.138018028093956e6 1.1510757690144079e6 0.0
0.0 0.0 0.0

643776.5605821258 1.025423307419604e7 0.0
1.025423307419604e7 -3.151763677543605e6 0.0
0.0 0.0 0.0

-5.383062156377848e6 8.410634249054447e6 0.0
8.410634249054447e6 1.6375683983528384e6 0.0
0.0 0.0 0.0

1.4049469110802603e6 2.951295526800449e6 0.0
2.951295526800449e6 -6.08651636838157e6 0.0
0.0 0.0 0.0

-2.0303607539632968e6 5.863291953050526e6 0.0
5.863291953050526e6 -962399.8202272776 0.0
0.0 0.0 0.0

5.212968775947214e6 9.078283446961569e6 0.0
9.078283446961569e6 370275.87298104144 0.0
0.0 0.0 0.0

-678994.584922707 4.202206657727715e6 0.0
4.202206657727715e6 -2.331745897410448e6 0.0
0.0 0.0 0.0

304580.6343393619 6.611174011504641e6 0.0
6.611174011504641e6 -4.461896348538893e6 0.0
0.0 0.0 0.0

-4.110481288546693e6 7.255987194686322e6 0.0
7.255987194686322e6 5.479932727659305e6 0.0
0.0 0.0 0.0

-1.3144263604098158e6 8.836810526841037e6 0.0
8.836810526841037e6 -3.211672760559677e6 0.0
0.0 0.0 0.0

-755251.7343514367 4.65671249650242e6 0.0
4.65671249650242e6 -551205.7427212922 0.0
0.0 0.0 0.0

-1.0059401601212123e7 8.634851103708662e6 0.0
8.634851103708662e6 6.318614621096423e6 0.0
0.0 0.0 0.0

-4.003570146720689e6 7.311051443066583e6 0.0
7.311051443066583e6 4.992019427114654e6 0.0
0.0 0.0 0.0

-3.8882250858024824e6 8.524191349382358e6 0.0
8.524191349382358e6 2.0428721544116586e6 0.0
0.0 0.0 0.0

-1.1704226353016583e7 8.039679984378849e6 0.0
8.039679984378849e6 6.7666827845624965e6 0.0
0.0 0.0 0.0

-2.6609909727037563e6 6.802971082638242e6 0.0
6.802971082638242e6 -53634.3342708461 0.0
0.0 0.0 0.0

9.572250259342521e6 6.060216759197336e6 0.0
6.060216759197336e6 -2.0096056433622679e6 0.0
0.0 0.0 0.0

-2.7229267273420016e6 7.394910561063025e6 0.0
7.394910561063025e6 -806218.4902103059 0.0
0.0 0.0 0.0

-849151.0442777845 6.233925780279337e6 0.0
6.233925780279337e6 -3.080019486195783e6 0.0
0.0 0.0 0.0

-3.420423860659074e6 9.239565318556285e6 0.0
9.239565318556285e6 -280233.96055505157 0.0
0.0 0.0 0.0

-4.422298315478171e6 9.39568748482843e6 0.0
9.39568748482843e6 417423.5529429063 0.0
0.0 0.0 0.0

-939761.4659116452 4.052474778293718e6 0.0
4.052474778293718e6 -1.3056702630152565e6 0.0
0.0 0.0 0.0

-2.926295130419346e6 8.60262729339024e6 0.0
8.60262729339024e6 1.8883125851207501e6 0.0
0.0 0.0 0.0

-280469.7936951204 8.150612560913793e6 0.0
8.150612560913793e6 -4.834365805911293e6 0.0
0.0 0.0 0.0

-1.4231787693020394e6 1.9894892038125258e6 0.0
1.9894892038125258e6 602684.4947964206 0.0
0.0 0.0 0.0

-4.278176782494493e6 8.076741743294546e6 0.0
8.076741743294546e6 1.1776140733579851e6 0.0
0.0 0.0 0.0

-2.2031812776587764e6 6.460472951355428e6 0.0
6.460472951355428e6 -148006.58624286542 0.0
0.0 0.0 0.0

-4.283412799625245e6 8.2679921739425e6 0.0
8.2679921739425e6 1.4788688103169785e6 0.0
0.0 0.0 0.0

-2.0148775502032738e6 7.32403234482763e6 0.0
7.32403234482763e6 -1.605959908451682e6 0.0
0.0 0.0 0.0

-828331.6592598304 6.745345150998502e6 0.0
6.745345150998502e6 -1.3467594388640374e6 0.0
0.0 0.0 0.0

-4.0610100538743306e6 8.786840652792113e6 0.0
8.786840652792113e6 1.6906015228639352e6 0.0
0.0 0.0 0.0

-3.4229194828181434e6 7.385448301772551e6 0.0
7.385448301772551e6 2.9802027208562894e6 0.0
0.0 0.0 0.0

-2.71798101683468e6 7.058210387213217e6 0.0
7.058210387213217e6 1.0863674713542769e6 0.0
0.0 0.0 0.0

-1.6359283298313976e6 5.630057698873147e6 0.0
5.630057698873147e6 -1.0706879815478406e6 0.0
0.0 0.0 0.0

-139449.48366476153 7.625159221299125e6 0.0
7.625159221299125e6 -4.746706224914297e6 0.0
0.0 0.0 0.0

-3.066723142716191e6 7.440558115565565e6 0.0
7.440558115565565e6 327536.05100069253 0.0
0.0 0.0 0.0

-2.367284610856139e6 9.306163356113616e6 0.0
9.306163356113616e6 -2.0481015359273185e6 0.0
0.0 0.0 0.0

-2.1286615934102517e6 7.747920506917006e6 0.0
7.747920506917006e6 -2.065805238169876e6 0.0
0.0 0.0 0.0

-4.530751065758749e6 8.845622551079277e6 0.0
8.845622551079277e6 611243.0685216545 0.0
0.0 0.0 0.0

-2.9698150779940397e6 7.467618321706987e6 0.0
7.467618321706987e6 -858705.3203467214 0.0
0.0 0.0 0.0

-743002.3087165907 7.397127186746644e6 0.0
7.397127186746644e6 -3.6668400404885085e6 0.0
0.0 0.0 0.0

-514955.2257240295 2.020944749731184e6 0.0
2.020944749731184e6 -1.64599597784079e6 0.0
0.0 0.0 0.0

-825148.5561727216 4.196239827370401e6 0.0
4.196239827370401e6 -637147.1869254167 0.0
0.0 0.0 0.0

-8.00397314585775e6 1.070536697828817e7 0.0
1.070536697828817e7 4.0636109476408544e6 0.0
0.0 0.0 0.0

-2.807974179411917e6 7.169320091289624e6 0.0
7.169320091289624e6 113405.61077547655 0.0
0.0 0.0 0.0

-3.407548518426271e6 7.527008500559526e6 0.0
7.527008500559526e6 -222831.2560260219 0.0
0.0 0.0 0.0

5.678454953515118e6 1.0002931440521007e6 0.0
1.0002931440521007e6 -4.99200383733824e6 0.0
0.0 0.0 0.0

-9.460036561978178e6 -659700.9109451454 0.0
-659700.9109451454 1.1062261649276473e7 0.0
0.0 0.0 0.0

-546355.7661569153 5.921074336217748e6 0.0
5.921074336217748e6 -3.5366795899221115e6 0.0
0.0 0.0 0.0

-2.5797037520801513e6 1.2670803086583395e7 0.0
1.2670803086583395e7 -2.0098820865607092e6 0.0
0.0 0.0 0.0

-4.551153851315558e6 9.876714361043751e6 0.0
9.876714361043751e6 962266.762754546 0.0
0.0 0.0 0.0

-4.338302976341499e6 8.952842394107899e6 0.0
8.952842394107899e6 1.8392024825538695e6 0.0
0.0 0.0 0.0

927678.6319581515 5.544565281511425e6 0.0
5.544565281511425e6 -4.89805497965071e6 0.0
0.0 0.0 0.0

-3.478966796917741e6 7.615208027491846e6 0.0
7.615208027491846e6 459405.11827738606 0.0
0.0 0.0 0.0

-3.9731114783002166e6 8.255949836102913e6 0.0
8.255949836102913e6 478167.3197140987 0.0
0.0 0.0 0.0

464682.43482802226 6.723244137665324e6 0.0
6.723244137665324e6 -4.9711016163398e6 0.0
0.0 0.0 0.0

-5.178195724591807e6 8.905268558384689e6 0.0
8.905268558384689e6 1.6786731477799523e6 0.0
0.0 0.0 0.0

-959869.764675588 1.0918544509577252e7 0.0
1.0918544509577252e7 -2.8698146980760326e6 0.0
0.0 0.0 0.0

-3.521407994963009e6 7.414423254078612e6 0.0
7.414423254078612e6 149509.4002711447 0.0
0.0 0.0 0.0

-2575.736930558691 8.354110076655536e6 0.0
8.354110076655536e6 -4.917840317860256e6 0.0
0.0 0.0 0.0

433979.71106783533 3.066478696947819e6 0.0
3.066478696947819e6 -5.294537180214178e6 0.0
0.0 0.0 0.0

-1.386832001298074e6 5.243065885434422e6 0.0
5.243065885434422e6 -2.579339924604039e6 0.0
0.0 0.0 0.0

-3.3808039698843234e6 8.362134898689314e6 0.0
8.362134898689314e6 -149568.56907697523 0.0
0.0 0.0 0.0

-1.333150118570291e6 1.0900837010263184e7 0.0
1.0900837010263184e7 -2.8399393626829945e6 0.0
0.0 0.0 0.0

-3.1989065894473796e6 7.483262306999807e6 0.0
7.483262306999807e6 -539240.863650846 0.0
0.0 0.0 0.0

-483392.8050602586 4.614266901927716e6 0.0
4.614266901927716e6 -3.50436104774727e6 0.0
0.0 0.0 0.0

496897.0674395871 6.106309817016539e6 0.0
6.106309817016539e6 -4.082218835735923e6 0.0
0.0 0.0 0.0

-1.9688988419733085e6 8.73377240997057e6 0.0
8.73377240997057e6 -2.4304206504935613e6 0.0
0.0 0.0 0.0

-1.5373645192361707e6 5.368302341758586e6 0.0
5.368302341758586e6 -2.266530159869928e6 0.0
0.0 0.0 0.0

-2.414048718880346e6 6.516728803748968e6 0.0
6.516728803748968e6 -277654.41542789683 0.0
0.0 0.0 0.0

-5.303735183340179e6 8.686373263203003e6 0.0
8.686373263203003e6 1.956451471671598e6 0.0
0.0 0.0 0.0

-1.0461009464150677e7 7.347261143408809e6 0.0
7.347261143408809e6 2.6538636781383365e7 0.0
0.0 0.0 0.0

-1.1736628317205794e6 2.850124271525116e6 0.0
2.850124271525116e6 143525.90113591542 0.0
0.0 0.0 0.0

-4.0569699051412703e6 1.061077337277338e7 0.0
1.061077337277338e7 -552429.3150452514 0.0
0.0 0.0 0.0

-2.5580712380809737e6 6.902548512253716e6 0.0
6.902548512253716e6 -108798.87016548833 0.0
0.0 0.0 0.0

-5.0518934771484295e6 2.535627145497083e6 0.0
2.535627145497083e6 6.7872931931181215e6 0.0
0.0 0.0 0.0

135364.09689073567 6.559467871091127e6 0.0
6.559467871091127e6 -3.322982416150752e6 0.0
0.0 0.0 0.0

-2.7328465358229065e6 7.482813985772576e6 0.0
7.482813985772576e6 311586.75646655133 0.0
0.0 0.0 0.0

-1.0132375487691408e6 8.761563734446468e6 0.0
8.761563734446468e6 -3.6613319591193986e6 0.0
0.0 0.0 0.0

-3.7286187719893926e6 9.13820921445647e6 0.0
9.13820921445647e6 145328.6993985949 0.0
0.0 0.0 0.0

-3.52367681330082e6 7.791923595136349e6 0.0
7.791923595136349e6 385074.72864187416 0.0
0.0 0.0 0.0

-1.9665818431024915e6 7.607770470004522e6 0.0
7.607770470004522e6 -706243.7886145867 0.0
0.0 0.0 0.0

-2.442932116140609e6 6.5547716479118625e6 0.0
6.5547716479118625e6 -172009.44380560145 0.0
0.0 0.0 0.0

-771646.7572287238 6.691890029132101e6 0.0
6.691890029132101e6 -1.5459830370957677e6 0.0
0.0 0.0 0.0

-1.7244456105999224e7 2.8998110628125146e6 0.0
2.8998110628125146e6 8.775658097469086e6 0.0
0.0 0.0 0.0

-1.1199325422700043e6 7.440618343606511e6 0.0
7.440618343606511e6 1.6207110588378015e6 0.0
0.0 0.0 0.0

-3.4260750125903375e6 7.573993388804143e6 0.0
7.573993388804143e6 1.9710843555161983e6 0.0
0.0 0.0 0.0

-4.888598583038644e6 8.906142249591377e6 0.0
8.906142249591377e6 2.2275047997857463e6 0.0
0.0 0.0 0.0

-512891.9540323288 6.547209313844412e6 0.0
6.547209313844412e6 -3.650026583257833e6 0.0
0.0 0.0 0.0

179282.73583744187 6.648509124754164e6 0.0
6.648509124754164e6 -4.390544819147042e6 0.0
0.0 0.0 0.0

570534.0745332295 7.323636182250761e6 0.0
7.323636182250761e6 -5.182823100205385e6 0.0
0.0 0.0 0.0

-2.277390448388145e6 7.215292391384794e6 0.0
7.215292391384794e6 -446712.76315672975 0.0
0.0 0.0 0.0

-2.9971551487124604e6 3.4019213503837055e6 0.0
3.4019213503837055e6 1.943315380467664e6 0.0
0.0 0.0 0.0

-1.1545460376119616e6 6.847376950654981e6 0.0
6.847376950654981e6 -1.3408771751066493e6 0.0
0.0 0.0 0.0

-142593.37715430965 1.0726267530491265e7 0.0
1.0726267530491265e7 -3.0511128195082825e6 0.0
0.0 0.0 0.0

-233922.88386193407 8.371736440788849e6 0.0
8.371736440788849e6 -4.728117434483109e6 0.0
0.0 0.0 0.0

-4.035207986447589e6 8.578402293861322e6 0.0
8.578402293861322e6 1.947596405837973e6 0.0
0.0 0.0 0.0

-6.369682833120391e6 1.3183775061799124e7 0.0
1.3183775061799124e7 1.505246326033771e6 0.0
0.0 0.0 0.0

-5.001539425482057e6 8.939450725780524e6 0.0
8.939450725780524e6 2.0656345149660914e6 0.0
0.0 0.0 0.0

-3.4670979206715766e6 6.887494683678994e6 0.0
6.887494683678994e6 3.644970817953299e6 0.0
0.0 0.0 0.0

1.424073705440518e6 7.081788277961396e6 0.0
7.081788277961396e6 -7.294605809945166e6 0.0
0.0 0.0 0.0

-2.0113699758652288e6 6.4951365431601e6 0.0
6.4951365431601e6 -1.3643871939940406e6 0.0
0.0 0.0 0.0

1.7060101777510408e6 1.0984003857854146e6 0.0
1.0984003857854146e6 -2.9342407371626385e6 0.0
0.0 0.0 0.0

801097.9297043034 7.061596260119449e6 0.0
7.061596260119449e6 -5.343516486991398e6 0.0
0.0 0.0 0.0

-4.611236697522118e6 9.088185969444282e6 0.0
9.088185969444282e6 1.9981980148746027e6 0.0
0.0 0.0 0.0

-1.7861569124988662e6 4.404242574964175e6 0.0
4.404242574964175e6 1.055154173599293e6 0.0
0.0 0.0 0.0

-3.671846699439943e6 6.727596091945477e6 0.0
6.727596091945477e6 4.1730611010614354e6 0.0
0.0 0.0 0.0

-3.558897587720831e6 7.818978762732902e6 0.0
7.818978762732902e6 2.105437331801554e6 0.0
0.0 0.0 0.0

-422782.802381873 5.361820872901904e6 0.0
5.361820872901904e6 -3.0347325898697167e6 0.0
0.0 0.0 0.0

-4.640898073147498e6 9.896727047403442e6 0.0
9.896727047403442e6 2.5417222098709587e6 0.0
0.0 0.0 0.0

-7.738657325020078e6 1.0929002084339712e7 0.0
1.0929002084339712e7 3.5389616029036343e6 0.0
0.0 0.0 0.0

-4.812593287603711e6 9.313842361150427e6 0.0
9.313842361150427e6 2.3267698720103563e6 0.0
0.0 0.0 0.0

-3.710189216143552e6 7.315528563958553e6 0.0
7.315528563958553e6 4.48574738280319e6 0.0
0.0 0.0 0.0

-1.8880436885375265e7 2.446230521902867e7 0.0
2.446230521902867e7 -465504.63000579644 0.0
0.0 0.0 0.0

-3.1500023474870883e6 7.995961019350894e6 0.0
7.995961019350894e6 2.1437282734207204e6 0.0
0.0 0.0 0.0

-2.138306989863933e6 7.276646181884613e6 0.0
7.276646181884613e6 -145761.70994935674 0.0
0.0 0.0 0.0

-218466.1086764989 3.8790389895597463e6 0.0
3.8790389895597463e6 -1.4826008702988524e6 0.0
0.0 0.0 0.0

-2.4671614328727564e6 6.565442950058853e6 0.0
6.565442950058853e6 -410757.37795317936 0.0
0.0 0.0 0.0

-3.7557167857071613e6 9.972267045822557e6 0.0
9.972267045822557e6 379467.6659178855 0.0
0.0 0.0 0.0

-8.594197601568347e6 9.508827711593194e6 0.0
9.508827711593194e6 5.4554838540354315e6 0.0
0.0 0.0 0.0

-3.1279854456280377e6 7.700972528447472e6 0.0
7.700972528447472e6 -182088.51420829352 0.0
0.0 0.0 0.0

-3.927055548808953e6 8.052567847077098e6 0.0
8.052567847077098e6 202259.765846265 0.0
0.0 0.0 0.0

-497303.77741616 3.719557305337213e6 0.0
3.719557305337213e6 -514346.52154173254 0.0
0.0 0.0 0.0

33434.61147596105 7.743331516923314e6 0.0
7.743331516923314e6 -4.234371757940614e6 0.0
0.0 0.0 0.0

-6.862179782958691e6 1.0678596186453246e7 0.0
1.0678596186453246e7 3.345996047413013e6 0.0
0.0 0.0 0.0

-3.49149073819236e6 7.169760559983227e6 0.0
7.169760559983227e6 3.3054952033875696e6 0.0
0.0 0.0 0.0

-4.38674142490818e6 9.306340893376118e6 0.0
9.306340893376118e6 -63052.10556509672 0.0
0.0 0.0 0.0

-975654.2219640696 2.5850307169205206e6 0.0
2.5850307169205206e6 -1.7285865930566762e6 0.0
0.0 0.0 0.0

-5.784201533385032e6 1.0165728089161191e7 0.0
1.0165728089161191e7 1.572648842382626e6 0.0
0.0 0.0 0.0

-3.597484588214388e6 7.58911089092787e6 0.0
7.58911089092787e6 69616.82562625757 0.0
0.0 0.0 0.0

-1.8129319294943684e6 8.507750055776782e6 0.0
8.507750055776782e6 -2.657898778813518e6 0.0
0.0 0.0 0.0

-2.9750486654130253e6 7.0894989832502045e6 0.0
7.0894989832502045e6 30819.036423640675 0.0
0.0 0.0 0.0

-393526.0785891077 6.774165941097457e6 0.0
6.774165941097457e6 -3.4958439259116324e6 0.0
0.0 0.0 0.0

-3.2064924325154284e6 7.538764638376162e6 0.0
7.538764638376162e6 750843.707225909 0.0
0.0 0.0 0.0

-173861.86372680805 4.787337454968436e6 0.0
4.787337454968436e6 -1.6445520516693234e6 0.0
0.0 0.0 0.0

-1.341599982899733e6 4.824355120455305e6 0.0
4.824355120455305e6 72489.42906888569 0.0
0.0 0.0 0.0

-1.9586216528996439e6 7.461980067068839e6 0.0
7.461980067068839e6 -650812.9774788755 0.0
0.0 0.0 0.0

-1.051496580644305e6 7.710533302198797e6 0.0
7.710533302198797e6 -4.735592225367674e6 0.0
0.0 0.0 0.0

-2.268631352011817e6 7.571687867871257e6 0.0
7.571687867871257e6 -481139.3332990004 0.0
0.0 0.0 0.0

-1.6143534619606843e7 6.691540460633754e6 0.0
6.691540460633754e6 7.408491407073594e6 0.0
0.0 0.0 0.0

-2.6924219410488e6 7.296384750174213e6 0.0
7.296384750174213e6 -18265.820756589295 0.0
0.0 0.0 0.0

-1.262865921533732e6 1.0031380150244439e7 0.0
1.0031380150244439e7 -132285.5431182342 0.0
0.0 0.0 0.0

-1.6443388938831706e7 1.4717219233661569e6 0.0
1.4717219233661569e6 7.372644509467395e6 0.0
0.0 0.0 0.0

-508832.94355366856 1.0900422814212529e7 0.0
1.0900422814212529e7 -3.0361397038435754e6 0.0
0.0 0.0 0.0

-2.3065249101745808e6 6.833826985514549e6 0.0
6.833826985514549e6 -9000.650448278757 0.0
0.0 0.0 0.0

-1.0127966018808825e6 5.103689067313617e6 0.0
5.103689067313617e6 -2.360697006470946e6 0.0
0.0 0.0 0.0

-5.018348132394349e6 9.129190791819591e6 0.0
9.129190791819591e6 2.3690709554933915e6 0.0
0.0 0.0 0.0

-816737.2588232255 7.458704237141676e6 0.0
7.458704237141676e6 -3.30487179893661e6 0.0
0.0 0.0 0.0

-1.1020618027963783e6 7.465794143784789e6 0.0
7.465794143784789e6 -3.247580466846172e6 0.0
0.0 0.0 0.0

-891179.1165394303 6.857146148080353e6 0.0
6.857146148080353e6 -1.602109937476339e6 0.0
0.0 0.0 0.0

-2.8092450510781123e6 7.316359175990899e6 0.0
7.316359175990899e6 727999.4498694172 0.0
0.0 0.0 0.0

545408.0451088329 6.683700481760052e6 0.0
6.683700481760052e6 -4.682952607778338e6 0.0
0.0 0.0 0.0

-572637.8335843687 4.0994685096069076e6 0.0
4.0994685096069076e6 -790502.0844997657 0.0
0.0 0.0 0.0

-1.0005450753182264e6 7.511068344551348e6 0.0
7.511068344551348e6 -3.245791177207095e6 0.0
0.0 0.0 0.0

-2.405930144256573e7 -3.575827601122801e6 0.0
-3.575827601122801e6 1.134441182356892e7 0.0
0.0 0.0 0.0

1.4294237151597561e6 7.031433888343231e6 0.0
7.031433888343231e6 -7.13888267617274e6 0.0
0.0 0.0 0.0

-2.4060317753235623e6 7.453325702027994e6 0.0
7.453325702027994e6 138612.66018286394 0.0
0.0 0.0 0.0

-2.962226990005052e6 8.081212774747668e6 0.0
8.081212774747668e6 510770.4270806863 0.0
0.0 0.0 0.0

-4.35709944857122e6 9.019639575277254e6 0.0
9.019639575277254e6 2.1559682586274385e6 0.0
0.0 0.0 0.0

-2.7524060979546867e6 6.631721253456529e6 0.0
6.631721253456529e6 -506491.8898881127 0.0
0.0 0.0 0.0

-3.2274648014203664e6 8.120114094450682e6 0.0
8.120114094450682e6 2.2636684404407423e6 0.0
0.0 0.0 0.0

-1.445525201929634e6 7.523013703824398e6 0.0
7.523013703824398e6 -2.8214298290995555e6 0.0
0.0 0.0 0.0

-149175.47985601122 6.853168216790831e6 0.0
6.853168216790831e6 -4.230147192875357e6 0.0
0.0 0.0 0.0

-4.901905178083859e6 9.139120956789479e6 0.0
9.139120956789479e6 2.2624938072574013e6 0.0
0.0 0.0 0.0

-5.519606588978016e6 1.070555865482123e7 0.0
1.070555865482123e7 966512.1345920726 0.0
0.0 0.0 0.0

981883.9076359076 7.266736618279057e6 0.0
7.266736618279057e6 -6.045022239761949e6 0.0
0.0 0.0 0.0

-1.5643532180305228e6 7.308416107034253e6 0.0
7.308416107034253e6 -1.0810288851993908e6 0.0
0.0 0.0 0.0

-4.774752922175959e6 9.066569228407046e6 0.0
9.066569228407046e6 2.0703673508890097e6 0.0
0.0 0.0 0.0

-2.3793089345442675e7 1.6480300299936866e7 0.0
1.6480300299936866e7 6.635535291666785e6 0.0
0.0 0.0 0.0

-3.31054724973924e6 2.5227466654488817e6 0.0
2.5227466654488817e6 3.963213933698438e6 0.0
0.0 0.0 0.0

-651023.5346140992 7.599278946157397e6 0.0
7.599278946157397e6 -4.566944240596219e6 0.0
0.0 0.0 0.0

-689006.0285852362 3.2106721522539123e6 0.0
3.2106721522539123e6 -647884.7812034232 0.0
0.0 0.0 0.0

-114966.57072900474 1.8613420884816437e6 0.0
1.8613420884816437e6 698655.4770064476 0.0
0.0 0.0 0.0

1.1853068092485482e6 5.14521825719754e6 0.0
5.14521825719754e6 -5.533288922280539e6 0.0
0.0 0.0 0.0

-2.7742154365381533e6 9.18494379836717e6 0.0
9.18494379836717e6 291455.3709571287 0.0
0.0 0.0 0.0

-396381.58607801946 8.922281266513977e6 0.0
8.922281266513977e6 -4.478334488422307e6 0.0
0.0 0.0 0.0

-7.881268621121904e6 4.895734308617737e6 0.0
4.895734308617737e6 8.736932933660029e6 0.0
0.0 0.0 0.0

-3.617534700658936e6 1.0764527420004433e7 0.0
1.0764527420004433e7 -920257.34008064 0.0
0.0 0.0 0.0

-659264.9199765986 7.066481074923971e6 0.0
7.066481074923971e6 -3.3471420825369908e6 0.0
0.0 0.0 0.0

-7.707684485080118e6 7.366849446549128e6 0.0
7.366849446549128e6 1.2222068121102989e7 0.0
0.0 0.0 0.0

-2.583164580019568e6 6.779992966539881e6 0.0
6.779992966539881e6 68781.76183161698 0.0
0.0 0.0 0.0

-4.968066986694976e6 8.471538462691315e6 0.0
8.471538462691315e6 5.315811398981011e6 0.0
0.0 0.0 0.0

-461145.99296776776 9.129586660920694e6 0.0
9.129586660920694e6 -4.27058065724392e6 0.0
0.0 0.0 0.0

1.611263646968733e7 7.213646189760659e6 0.0
7.213646189760659e6 -3.4460174692526096e6 0.0
0.0 0.0 0.0

-4.122983492450626e6 9.093965974626023e6 0.0
9.093965974626023e6 485385.65610611136 0.0
0.0 0.0 0.0

-6.749418824688409e6 1.1076186608510783e7 0.0
1.1076186608510783e7 3.1604062792179417e6 0.0
0.0 0.0 0.0

-999947.6794186169 7.340879412531354e6 0.0
7.340879412531354e6 -3.1112250752635966e6 0.0
0.0 0.0 0.0

-715120.1904801753 7.361900840695174e6 0.0
7.361900840695174e6 -3.146986916492963e6 0.0
0.0 0.0 0.0

-2.5810793875774974e6 6.513369238693131e6 0.0
6.513369238693131e6 -779068.2304020781 0.0
0.0 0.0 0.0

-1.5723146850839693e6 3.782848929421535e6 0.0
3.782848929421535e6 716753.5180083303 0.0
0.0 0.0 0.0

-126140.8632212237 8.228457218018226e6 0.0
8.228457218018226e6 -5.171376098844267e6 0.0
0.0 0.0 0.0

1.4585939673244366e6 845714.4300600357 0.0
845714.4300600357 -2.672744256168246e6 0.0
0.0 0.0 0.0

-1.563166584932543e6 8.26145143323537e6 0.0
8.26145143323537e6 -2.799599323580939e6 0.0
0.0 0.0 0.0

-1.1385398113808002e7 7.332775700148063e6 0.0
7.332775700148063e6 7.037295716822575e6 0.0
0.0 0.0 0.0

-1.689203729183761e6 5.257358837767224e6 0.0
5.257358837767224e6 -964624.6498743265 0.0
0.0 0.0 0.0

-8.313063565789004e6 8.192479316946125e6 0.0
8.192479316946125e6 1.5596601994123723e7 0.0
0.0 0.0 0.0

-2.654477417314411e6 8.924607142731387e6 0.0
8.924607142731387e6 1.576548503134275e6 0.0
0.0 0.0 0.0

2.0464268995353442e6 8.493188765406894e6 0.0
8.493188765406894e6 -3.0720555088683637e6 0.0
0.0 0.0 0.0

-4.581699452240714e6 9.05634346314055e6 0.0
9.05634346314055e6 2.155459958667632e6 0.0
0.0 0.0 0.0

-4.37412098443493e6 9.092429123917932e6 0.0
9.092429123917932e6 962092.4162840075 0.0
0.0 0.0 0.0

-4.432452234144177e6 9.100224037588026e6 0.0
9.100224037588026e6 2.167841666900703e6 0.0
0.0 0.0 0.0

-1.4577156217276936e6 4.288092373532829e6 0.0
4.288092373532829e6 397919.28486994776 0.0
0.0 0.0 0.0

-1.8766651878564837e6 5.129198707271074e6 0.0
5.129198707271074e6 729304.435954438 0.0
0.0 0.0 0.0

-334106.08075198357 5.728838519008685e6 0.0
5.728838519008685e6 -1.7763936949526384e6 0.0
0.0 0.0 0.0

769246.8427488517 7.584568590882359e6 0.0
7.584568590882359e6 2.0292668775490243e6 0.0
0.0 0.0 0.0

-568518.0521280158 9.363324654600607e6 0.0
9.363324654600607e6 -4.008329614278392e6 0.0
0.0 0.0 0.0

-4.3711055478958795e6 8.76117140320589e6 0.0
8.76117140320589e6 1.1542628757942119e6 0.0
0.0 0.0 0.0

-4.823665390547269e6 9.13127053052953e6 0.0
9.13127053052953e6 2.141704199935319e6 0.0
0.0 0.0 0.0

-354810.04666039377 1.9587064670037415e6 0.0
1.9587064670037415e6 -227348.25720432587 0.0
0.0 0.0 0.0

-5.1092786049643615e6 9.49995351303544e6 0.0
9.49995351303544e6 2.6005335362001033e6 0.0
0.0 0.0 0.0

-2.468941818467768e6 7.234588311746667e6 0.0
7.234588311746667e6 71532.66362544894 0.0
0.0 0.0 0.0

-5.1394387597890925e6 9.59806103305006e6 0.0
9.59806103305006e6 2.7311871288807443e6 0.0
0.0 0.0 0.0

2.0373113876421694e6 8.722519133201458e6 0.0
8.722519133201458e6 -2.635503954986725e6 0.0
0.0 0.0 0.0

-5.879871151192885e6 1.036947496702717e7 0.0
1.036947496702717e7 2.3680887111223647e6 0.0
0.0 0.0 0.0

196707.7690898832 6.271718734087237e6 0.0
6.271718734087237e6 -4.270802590158872e6 0.0
0.0 0.0 0.0

-2.4013875653075846e6 2.4912982721864954e6 0.0
2.4912982721864954e6 2.444942403239983e6 0.0
0.0 0.0 0.0

-13350.414051362546 9.810466094268786e6 0.0
9.810466094268786e6 -3.598850213024143e6 0.0
0.0 0.0 0.0

-687670.094067924 9.594849248951232e6 0.0
9.594849248951232e6 -3.781613541900153e6 0.0
0.0 0.0 0.0

-2.3249162112904238e6 6.513543374688418e6 0.0
6.513543374688418e6 -169200.07935365732 0.0
0.0 0.0 0.0

-2.383074232235369e6 9.365225994148001e6 0.0
9.365225994148001e6 445127.20202315634 0.0
0.0 0.0 0.0

-2.9278615611201613e6 1.1276269208043644e7 0.0
1.1276269208043644e7 -747757.6115103142 0.0
0.0 0.0 0.0

37862.14866252104 9.134824063632304e6 0.0
9.134824063632304e6 -3.8181842795448545e6 0.0
0.0 0.0 0.0

-1.5362799830191825e6 4.647541622214544e6 0.0
4.647541622214544e6 96220.58895759104 0.0
0.0 0.0 0.0

-233295.67676400824 6.568968388389241e6 0.0
6.568968388389241e6 -3.6477929838877027e6 0.0
0.0 0.0 0.0

-98734.23409863724 9.103586294377461e6 0.0
9.103586294377461e6 -4.263506524725943e6 0.0
0.0 0.0 0.0

-2.223176581797281e6 8.1660962914078375e6 0.0
8.1660962914078375e6 2.48864609264776e6 0.0
0.0 0.0 0.0

-3.263678294290628e6 7.15308790311747e6 0.0
7.15308790311747e6 -61549.92900837248 0.0
0.0 0.0 0.0

1.07414858619734e6 6.91635680663606e6 0.0
6.91635680663606e6 -5.930422932963813e6 0.0
0.0 0.0 0.0

1.703623220819674e6 6.77471094148229e6 0.0
6.77471094148229e6 -7.043444909446125e6 0.0
0.0 0.0 0.0

-1.9072991115986118e6 7.43952066632747e6 0.0
7.43952066632747e6 -614517.675163711 0.0
0.0 0.0 0.0

-5.010109378375637e6 9.142022959603913e6 0.0
9.142022959603913e6 2.266417985895176e6 0.0
0.0 0.0 0.0

-751326.2615030379 3.217116918577854e6 0.0
3.217116918577854e6 -249077.5170031992 0.0
0.0 0.0 0.0

-1.592777179011918e6 5.86054737136514e6 0.0
5.86054737136514e6 -387425.9125413885 0.0
0.0 0.0 0.0

-2.707520472488812e6 7.628586466629274e6 0.0
7.628586466629274e6 448263.60119121335 0.0
0.0 0.0 0.0

-473631.44003713725 6.946916823072551e6 0.0
6.946916823072551e6 -3.486534627855538e6 0.0
0.0 0.0 0.0

1.2503920428364926e6 5.220103010305088e6 0.0
5.220103010305088e6 -5.715432622772047e6 0.0
0.0 0.0 0.0

-2.3606556158732204e6 7.10224718133678e6 0.0
7.10224718133678e6 406496.22662378754 0.0
0.0 0.0 0.0

-9.105231043720499e6 1.026748107787302e7 0.0
1.026748107787302e7 2.0287579384574063e7 0.0
0.0 0.0 0.0

-3.1785801125037903e6 8.222799942610653e6 0.0
8.222799942610653e6 708715.7183079456 0.0
0.0 0.0 0.0

-4.709103944461185e6 8.996065172911536e6 0.0
8.996065172911536e6 1.3217200313033303e6 0.0
0.0 0.0 0.0

-1.1825834386055027e6 7.7041666495217765e6 0.0
7.7041666495217765e6 -3.008249684784643e6 0.0
0.0 0.0 0.0

-5.528644159152081e6 9.189037469436066e6 0.0
9.189037469436066e6 2.4771779839307712e6 0.0
0.0 0.0 0.0

-4.746015412043171e6 9.13449709321253e6 0.0
9.13449709321253e6 2.1271022176587414e6 0.0
0.0 0.0 0.0

-1.9902576372958908e6 1.125216978119964e7 0.0
1.125216978119964e7 3.0268802344653457e6 0.0
0.0 0.0 0.0

1.4141977468162277e6 910383.769510728 0.0
910383.769510728 -3.472698629248579e6 0.0
0.0 0.0 0.0

-983871.9391785872 1.1331040572592402e7 0.0
1.1331040572592402e7 -2.693425247849553e6 0.0
0.0 0.0 0.0

4.585347542530521e6 3.5095111155435494e6 0.0
3.5095111155435494e6 -8.108783391342856e6 0.0
0.0 0.0 0.0

-991906.1670094505 4.581268252900024e6 0.0
4.581268252900024e6 -234532.35662679473 0.0
0.0 0.0 0.0

-4.1213070869773095e6 8.813276398289949e6 0.0
8.813276398289949e6 1.629309190319668e6 0.0
0.0 0.0 0.0

-3.227688000017274e6 7.348446621010344e6 0.0
7.348446621010344e6 244025.38114451943 0.0
0.0 0.0 0.0

-318702.08087906835 6.163009790212746e6 0.0
6.163009790212746e6 -3.1487202698447e6 0.0
0.0 0.0 0.0

-187461.37971096043 9.489815710380416e6 0.0
9.489815710380416e6 -3.780932379129406e6 0.0
0.0 0.0 0.0

-4.953341384325924e6 9.050182849719737e6 0.0
9.050182849719737e6 1.586780722173992e6 0.0
0.0 0.0 0.0

-1.3962157741417023e6 1.7938993856641676e6 0.0
1.7938993856641676e6 964881.5926207649 0.0
0.0 0.0 0.0

-2.394161153387047e6 5.546945559970035e6 0.0
5.546945559970035e6 1.4282506795783497e6 0.0
0.0 0.0 0.0

-879697.1672871514 4.1596458591468865e6 0.0
4.1596458591468865e6 -362935.51036009326 0.0
0.0 0.0 0.0

-2.431288667754121e6 7.04299487279176e6 0.0
7.04299487279176e6 -230914.3354834417 0.0
0.0 0.0 0.0

-4.481406593267637e6 9.020503959563892e6 0.0
9.020503959563892e6 2.2957791295329323e6 0.0
0.0 0.0 0.0

-3.1960983781120973e6 7.117493775322706e6 0.0
7.117493775322706e6 221680.31793064554 0.0
0.0 0.0 0.0

-5.530718580610441e6 9.099564117791401e6 0.0
9.099564117791401e6 2.466355707860794e6 0.0
0.0 0.0 0.0

-880766.0065454174 6.878650133614304e6 0.0
6.878650133614304e6 -1.5989734224843548e6 0.0
0.0 0.0 0.0

-1.6566013758709044e6 5.074820716774199e6 0.0
5.074820716774199e6 403527.949843497 0.0
0.0 0.0 0.0

-5.196062995057926e6 9.138684424819618e6 0.0
9.138684424819618e6 2.354358681259181e6 0.0
0.0 0.0 0.0

-2.2106901667668363e6 1.135382028524388e7 0.0
1.135382028524388e7 -1.5854062784490394e6 0.0
0.0 0.0 0.0

-1.341249225846095e6 7.988916082374159e6 0.0
7.988916082374159e6 4.11349380956547e6 0.0
0.0 0.0 0.0

-2.397445388082825e6 7.386177567779908e6 0.0
7.386177567779908e6 -168712.2968424908 0.0
0.0 0.0 0.0

-2.339356381409659e6 1.2569529771887617e7 0.0
1.2569529771887617e7 -1.181555299899227e6 0.0
0.0 0.0 0.0

-2.5350229675295786e6 7.90875701236183e6 0.0
7.90875701236183e6 -218909.16902486724 0.0
0.0 0.0 0.0

-2.1830432788282298e6 5.430024632697836e6 0.0
5.430024632697836e6 1.0562051903503707e6 0.0
0.0 0.0 0.0

-1.1814547754826045e6 7.1015656209604e6 0.0
7.1015656209604e6 -1.2852731406177897e6 0.0
0.0 0.0 0.0

-5.368705066724076e6 9.105023646947484e6 0.0
9.105023646947484e6 2.412970325313042e6 0.0
0.0 0.0 0.0

517078.09068112774 6.504279785959416e6 0.0
6.504279785959416e6 -4.294847099562481e6 0.0
0.0 0.0 0.0

219815.10421570484 6.649836047827754e6 0.0
6.649836047827754e6 -4.255184334794183e6 0.0
0.0 0.0 0.0

-4.213544835566832e6 8.873185398838263e6 0.0
8.873185398838263e6 2.2145146975577557e6 0.0
0.0 0.0 0.0

-1.0582438779132436e6 5.018833713154424e6 0.0
5.018833713154424e6 -1.6832433726054148e6 0.0
0.0 0.0 0.0

-487129.79565591516 6.965097124095728e6 0.0
6.965097124095728e6 -3.182352340944752e6 0.0
0.0 0.0 0.0

-6.617144567491263e6 9.779258936236726e6 0.0
9.779258936236726e6 3.1996158197280085e6 0.0
0.0 0.0 0.0

-5.369065135817143e6 9.094387494272603e6 0.0
9.094387494272603e6 2.2042330710945055e6 0.0
0.0 0.0 0.0

-3.640338176779112e6 7.774561374063609e6 0.0
7.774561374063609e6 -613.0354994912632 0.0
0.0 0.0 0.0

-134600.13569128374 8.542764702095388e6 0.0
8.542764702095388e6 -4.749878225414112e6 0.0
0.0 0.0 0.0

-6.217271978865454e6 9.796872607992558e6 0.0
9.796872607992558e6 3.2664362799505666e6 0.0
0.0 0.0 0.0

-2.6270298444936345e6 5.593606942511658e6 0.0
5.593606942511658e6 1.8924066338804637e6 0.0
0.0 0.0 0.0

6445.907756543253 4.376120275531034e6 0.0
4.376120275531034e6 -3.84398112216018e6 0.0
0.0 0.0 0.0

-7.582763479185378e6 1.0929341694742879e7 0.0
1.0929341694742879e7 4.1614817365500075e6 0.0
0.0 0.0 0.0

-2.0404539265051195e6 9.5282015420278e6 0.0
9.5282015420278e6 1.1019579613535516e6 0.0
0.0 0.0 0.0

-5.185573030278981e6 9.074964836337302e6 0.0
9.074964836337302e6 1.9522201361087067e6 0.0
0.0 0.0 0.0

-837863.3092998848 9.854246659038026e6 0.0
9.854246659038026e6 -3.560048922248994e6 0.0
0.0 0.0 0.0

-5.5841168777571255e6 9.248634328740604e6 0.0
9.248634328740604e6 2.7209216133501376e6 0.0
0.0 0.0 0.0

-3.4187522749559563e6 8.0474652208047295e6 0.0
8.0474652208047295e6 2.4777890898455866e6 0.0
0.0 0.0 0.0

-5.781620131621332e6 9.21423727696508e6 0.0
9.21423727696508e6 2.476517530216981e6 0.0
0.0 0.0 0.0

-7.442843675115095e6 1.3414920220941301e7 0.0
1.3414920220941301e7 3.291607893755292e6 0.0
0.0 0.0 0.0

-2.5772797353389966e6 4.112952058610126e6 0.0
4.112952058610126e6 2.2403023187197596e6 0.0
0.0 0.0 0.0

-723368.2420521686 7.275684189826185e6 0.0
7.275684189826185e6 -3.0094686741764224e6 0.0
0.0 0.0 0.0

-1.8597142743035262e6 3.4832585187654607e6 0.0
3.4832585187654607e6 1.1451079378178893e6 0.0
0.0 0.0 0.0

-1.427530492902577e6 4.907553227603727e6 0.0
4.907553227603727e6 -264462.1651155834 0.0
0.0 0.0 0.0

-1.7906376298848055e6 -57191.744172611325 0.0
-57191.744172611325 2.4251996463574693e6 0.0
0.0 0.0 0.0

-508602.868479247 564092.5303413849 0.0
564092.5303413849 789331.9200039916 0.0
0.0 0.0 0.0

-3.111503889720386e6 4.197077968289865e6 0.0
4.197077968289865e6 3.074850450031888e6 0.0
0.0 0.0 0.0

2.0249028131060414e6 8.08650544282401e6 0.0
8.08650544282401e6 -549796.820885599 0.0
0.0 0.0 0.0

-5.782922274311263e6 9.824051037800578e6 0.0
9.824051037800578e6 2.3929929790986474e6 0.0
0.0 0.0 0.0

-3.7004679420730504e6 8.018378198778145e6 0.0
8.018378198778145e6 244153.6618584548 0.0
0.0 0.0 0.0

-939109.9445346406 7.640505816567147e6 0.0
7.640505816567147e6 -3.024687983995291e6 0.0
0.0 0.0 0.0

-1.7921052546212748e6 1.098890866261247e7 0.0
1.098890866261247e7 2.37456285508779e6 0.0
0.0 0.0 0.0

-6.603067415784964e6 9.848954274634873e6 0.0
9.848954274634873e6 3.6816249044326358e6 0.0
0.0 0.0 0.0

-6.941231213452574e6 9.944752180166421e6 0.0
9.944752180166421e6 3.3723588146147924e6 0.0
0.0 0.0 0.0

-7.252825873877647e6 1.0288231705008468e7 0.0
1.0288231705008468e7 3.3972487867378104e6 0.0
0.0 0.0 0.0

-2.604553424851582e6 6.428765370223424e6 0.0
6.428765370223424e6 776541.1069125292 0.0
0.0 0.0 0.0

-1.878834100206437e6 7.096707519048595e6 0.0
7.096707519048595e6 -421675.1014522058 0.0
0.0 0.0 0.0

-1.0437746978903499e6 6.804507863060778e6 0.0
6.804507863060778e6 -1.2735728109142815e6 0.0
0.0 0.0 0.0

-3.4903245215390576e6 8.046332848047736e6 0.0
8.046332848047736e6 1.5971755242547623e6 0.0
0.0 0.0 0.0

-1.8861313944347554e6 7.105814330081036e6 0.0
7.105814330081036e6 -438071.18269266526 0.0
0.0 0.0 0.0

-4.165756245977829e6 3.827160697377197e6 0.0
3.827160697377197e6 4.873850172213073e6 0.0
0.0 0.0 0.0

-997000.0461915504 7.6728780140493205e6 0.0
7.6728780140493205e6 -2.999633887127331e6 0.0
0.0 0.0 0.0

-2.989315439472328e6 7.09669350599489e6 0.0
7.09669350599489e6 1.0422114681687444e6 0.0
0.0 0.0 0.0

-3.552128111217308e6 3.369946482074868e6 0.0
3.369946482074868e6 4.184457826052967e6 0.0
0.0 0.0 0.0

-3.6269557181730466e6 9.250567763453864e6 0.0
9.250567763453864e6 1.9006006517064038e6 0.0
0.0 0.0 0.0

-2.550161831725681e6 7.762583144627638e6 0.0
7.762583144627638e6 -255571.80464741727 0.0
0.0 0.0 0.0

-5.834337129608355e6 9.403944575188207e6 0.0
9.403944575188207e6 2.918092465394346e6 0.0
0.0 0.0 0.0

-5.298499001972611e6 9.080333248202823e6 0.0
9.080333248202823e6 2.4804490151415197e6 0.0
0.0 0.0 0.0

-3.479418940376291e6 8.138877420074512e6 0.0
8.138877420074512e6 2.3250240521457875e6 0.0
0.0 0.0 0.0

-272749.6018563926 8.88413040743286e6 0.0
8.88413040743286e6 -4.4192932217322495e6 0.0
0.0 0.0 0.0

-3.5123938432017933e6 8.39871629711688e6 0.0
8.39871629711688e6 1.3074020476319292e6 0.0
0.0 0.0 0.0

-2.687662875925093e6 5.895407910854251e6 0.0
5.895407910854251e6 1.8215512056932307e6 0.0
0.0 0.0 0.0

-3.3965427250257917e6 7.721650332393002e6 0.0
7.721650332393002e6 80758.52180196578 0.0
0.0 0.0 0.0

-6.835345757844378e6 1.1456013050667984e7 0.0
1.1456013050667984e7 3.194066706620406e6 0.0
0.0 0.0 0.0

-3.6136996165503394e6 8.285177882241158e6 0.0
8.285177882241158e6 2.237845369010845e6 0.0
0.0 0.0 0.0

-3.5352732479146956e6 7.7870299402869465e6 0.0
7.7870299402869465e6 -321919.76290734764 0.0
0.0 0.0 0.0

153633.74150279607 6.717519268886971e6 0.0
6.717519268886971e6 -4.281335387570562e6 0.0
0.0 0.0 0.0

-2.417400531942549e6 6.815156074068893e6 0.0
6.815156074068893e6 748733.3888912178 0.0
0.0 0.0 0.0

-3.0511656367183365e6 1.1942199123799276e7 0.0
1.1942199123799276e7 -578705.977930875 0.0
0.0 0.0 0.0

492712.7312716354 813299.5144504498 0.0
813299.5144504498 -1.984670233085067e6 0.0
0.0 0.0 0.0

493259.60148324375 7.157007701531109e6 0.0
7.157007701531109e6 -5.492999318255638e6 0.0
0.0 0.0 0.0

-2.79984806612304e6 7.827763683628168e6 0.0
7.827763683628168e6 -934254.886258821 0.0
0.0 0.0 0.0

983274.8348656211 8.322577922932618e6 0.0
8.322577922932618e6 1.3217641623578921e6 0.0
0.0 0.0 0.0

-94059.45966010843 6.681007120452999e6 0.0
6.681007120452999e6 -4.215882275445935e6 0.0
0.0 0.0 0.0

-328507.2321482673 6.856584275075399e6 0.0
6.856584275075399e6 -4.058639480715591e6 0.0
0.0 0.0 0.0

442586.3261749239 7.3784673828692855e6 0.0
7.3784673828692855e6 -993176.5082198901 0.0
0.0 0.0 0.0

-1.4613670778647095e6 2.2012354331612336e6 0.0
2.2012354331612336e6 859846.5255548718 0.0
0.0 0.0 0.0

-925790.9035573053 6.022453660806328e6 0.0
6.022453660806328e6 -1.1269521159042835e6 0.0
0.0 0.0 0.0

-582317.7789154621 8.811774340462184e6 0.0
8.811774340462184e6 -5.998395944187718e6 0.0
0.0 0.0 0.0

-1.8429027411145715e6 6.089096982885318e6 0.0
6.089096982885318e6 -119159.13249777438 0.0
0.0 0.0 0.0

-1.5078842673809428e6 4.366653107538042e6 0.0
4.366653107538042e6 173478.07946396538 0.0
0.0 0.0 0.0

-922861.3770352787 7.683614823365607e6 0.0
7.683614823365607e6 1.294963280892442e6 0.0
0.0 0.0 0.0

-241132.5315229465 1.7955707259381455e6 0.0
1.7955707259381455e6 764192.8437265699 0.0
0.0 0.0 0.0

-2.4874531647560336e6 7.102099985535726e6 0.0
7.102099985535726e6 420394.5206619379 0.0
0.0 0.0 0.0

-4.383945560886387e6 8.968410305759678e6 0.0
8.968410305759678e6 2.300845810337958e6 0.0
0.0 0.0 0.0

-2.1664625214698985e6 9.027665036274707e6 0.0
9.027665036274707e6 -2.255545326574965e6 0.0
0.0 0.0 0.0

-383921.4406219161 3.4981624996754904e6 0.0
3.4981624996754904e6 -1.3310804744266993e6 0.0
0.0 0.0 0.0

-1.1247911842286284e6 7.150818205861676e6 0.0
7.150818205861676e6 -1.3855250466509555e6 0.0
0.0 0.0 0.0

1.3606686217474556e6 7.246466400232061e6 0.0
7.246466400232061e6 -7.48869090553317e6 0.0
0.0 0.0 0.0

-6.569593405738369e6 1.236746234319502e7 0.0
1.236746234319502e7 2.7700378006156795e6 0.0
0.0 0.0 0.0

-7.272275096553319e6 2.8687880905801626e6 0.0
2.8687880905801626e6 1.1070443579095054e7 0.0
0.0 0.0 0.0

-1.88373553348197e6 7.334910766289459e6 0.0
7.334910766289459e6 -760295.3552240838 0.0
0.0 0.0 0.0

-1.6210299722382391e6 3.975119586191722e6 0.0
3.975119586191722e6 426676.33364169253 0.0
0.0 0.0 0.0

-8.378030979155422e6 6.125575243342964e6 0.0
6.125575243342964e6 5.740265521463148e6 0.0
0.0 0.0 0.0

-1.0393066060288942e6 9.836814093583023e6 0.0
9.836814093583023e6 -322853.552651437 0.0
0.0 0.0 0.0

-897892.5558388354 9.37970870713611e6 0.0
9.37970870713611e6 777468.1472696378 0.0
0.0 0.0 0.0

671055.6898602941 7.075054185728537e6 0.0
7.075054185728537e6 -5.774500184094676e6 0.0
0.0 0.0 0.0

-3.387388415348348e6 5.243601140135277e6 0.0
5.243601140135277e6 179231.93135300674 0.0
0.0 0.0 0.0

-9.233155547738932e6 1.4565277321778158e7 0.0
1.4565277321778158e7 2.2875956914499206e6 0.0
0.0 0.0 0.0

-2.555757888302519e6 6.6369345926775215e6 0.0
6.6369345926775215e6 1.0808989981051586e6 0.0
0.0 0.0 0.0

38092.29510226923 1.4527668546349746e6 0.0
1.4527668546349746e6 155658.90077947557 0.0
0.0 0.0 0.0

-1.602618883923445e6 9.405485154796e6 0.0
9.405485154796e6 1.2207526953872978e6 0.0
0.0 0.0 0.0

-7.411289539847514e6 8.398481170450678e6 0.0
8.398481170450678e6 4.758382067125203e6 0.0
0.0 0.0 0.0

-1.3188598318162544e6 6.685326082156667e6 0.0
6.685326082156667e6 -1.2811393488869371e6 0.0
0.0 0.0 0.0

-3.543081151692122e6 1.0420003388953282e7 0.0
1.0420003388953282e7 5.320231070845418e6 0.0
0.0 0.0 0.0

-2.200766642384062e6 5.178450019040042e6 0.0
5.178450019040042e6 678332.3354704152 0.0
0.0 0.0 0.0

-1.6409588663408156e6 4.846112122311292e6 0.0
4.846112122311292e6 75122.07034962438 0.0
0.0 0.0 0.0

-6.966014137168609e6 2.6704500767122335e6 0.0
2.6704500767122335e6 9.996650978029553e6 0.0
0.0 0.0 0.0

-1.7548952245360333e6 9.174017065273354e6 0.0
9.174017065273354e6 1.9762000372732244e6 0.0
0.0 0.0 0.0

-6.4839623894663425e6 9.326772511453817e6 0.0
9.326772511453817e6 3.4486877438934776e6 0.0
0.0 0.0 0.0

-8.308940686134851e6 1.0809361681921504e7 0.0
1.0809361681921504e7 4.1772836325441403e6 0.0
0.0 0.0 0.0

-3.229300887533776e6 7.369038857624742e6 0.0
7.369038857624742e6 1.3602638832686495e6 0.0
0.0 0.0 0.0

772503.6039160122 522824.31244762306 0.0
522824.31244762306 -1.9206818768509775e6 0.0
0.0 0.0 0.0

-631434.3843271739 7.011848132418306e6 0.0
7.011848132418306e6 -3.1583727671188414e6 0.0
0.0 0.0 0.0

-607991.6861984035 5.731287927021907e6 0.0
5.731287927021907e6 -2.8027620104693593e6 0.0
0.0 0.0 0.0

-1.935803581651945e6 6.679241082056347e6 0.0
6.679241082056347e6 -155769.8593194221 0.0
0.0 0.0 0.0

-1.4821911698079541e7 1.5906389460456232e7 0.0
1.5906389460456232e7 6.175378232076139e6 0.0
0.0 0.0 0.0

-581642.9709626504 6.353459746929436e6 0.0
6.353459746929436e6 -1.7244539638063444e6 0.0
0.0 0.0 0.0

-6.032877877238125e6 1.0779305262332195e7 0.0
1.0779305262332195e7 2.441993605684613e6 0.0
0.0 0.0 0.0

-3.5581997662573564e6 1.1943972468003662e7 0.0
1.1943972468003662e7 -77699.98058317206 0.0
0.0 0.0 0.0

-1.4488906933116312e6 6.862266135312613e6 0.0
6.862266135312613e6 -1.0261978953096324e6 0.0
0.0 0.0 0.0

-543484.7286813403 6.988973790428547e6 0.0
6.988973790428547e6 -2.6448159796683993e6 0.0
0.0 0.0 0.0

-693105.3408583982 9.12764515132615e6 0.0
9.12764515132615e6 4.256261311766269e6 0.0
0.0 0.0 0.0

-1.3636332460059559e6 1.1132286883699857e7 0.0
1.1132286883699857e7 3.7549667887944607e6 0.0
0.0 0.0 0.0

-809697.3903391656 9.458446257038783e6 0.0
9.458446257038783e6 491976.6693277136 0.0
0.0 0.0 0.0

-1.989101488139335e6 5.121275610581591e6 0.0
5.121275610581591e6 353214.0696370597 0.0
0.0 0.0 0.0

-1.3611700255839007e7 1.4361626799480435e7 0.0
1.4361626799480435e7 5.67184534336636e6 0.0
0.0 0.0 0.0

-1.1577941761903815e7 6.424466258936374e6 0.0
6.424466258936374e6 6.073362220543752e6 0.0
0.0 0.0 0.0

-1.8322878702071458e6 4.878983385975442e6 0.0
4.878983385975442e6 394445.1654686462 0.0
0.0 0.0 0.0

287223.8969668874 7.817163544725945e6 0.0
7.817163544725945e6 -5.708847931956939e6 0.0
0.0 0.0 0.0

2.641739338890661e6 5.906983384745329e6 0.0
5.906983384745329e6 -6.8754755370361395e6 0.0
0.0 0.0 0.0

-1.6518097644744744e6 8.710226855297616e6 0.0
8.710226855297616e6 -2.332802726568498e6 0.0
0.0 0.0 0.0

-852034.0776669709 7.4040471239604335e6 0.0
7.4040471239604335e6 -3.072621876684815e6 0.0
0.0 0.0 0.0

-2.0523589001593569e6 9.216525363142103e6 0.0
9.216525363142103e6 -1.9252567054891149e6 0.0
0.0 0.0 0.0

-1.539327034345672e7 1.827268477608166e7 0.0
1.827268477608166e7 4.750135249538612e6 0.0
0.0 0.0 0.0

-4.123695390869232e6 8.801757189897291e6 0.0
8.801757189897291e6 1.4784921789325904e6 0.0
0.0 0.0 0.0

-2.8763433561246507e6 1.0592521012609415e7 0.0
1.0592521012609415e7 -1.6271765114054286e6 0.0
0.0 0.0 0.0

-2.92297936792128e6 9.96681288878744e6 0.0
9.96681288878744e6 -1.5459637488963502e6 0.0
0.0 0.0 0.0

-493725.3621973939 7.116053564379748e6 0.0
7.116053564379748e6 -3.34006916972845e6 0.0
0.0 0.0 0.0

-3.6399636917377315e6 7.661894495565944e6 0.0
7.661894495565944e6 1.8310133003611015e6 0.0
0.0 0.0 0.0

-1.1770059978029951e6 9.534967449090669e6 0.0
9.534967449090669e6 1.2351073251486262e6 0.0
0.0 0.0 0.0

-2.8182738664160664e6 9.260355661487462e6 0.0
9.260355661487462e6 1.15421330336381e6 0.0
0.0 0.0 0.0

-1.1395735042943962e7 862124.5749524952 0.0
862124.5749524952 2.5747292366849642e7 0.0
0.0 0.0 0.0

-139300.08754821715 2.0649279065321318e6 0.0
2.0649279065321318e6 -250076.88988809806 0.0
0.0 0.0 0.0

-2.2430679313194625e7 2.9595263753370956e7 0.0
2.9595263753370956e7 -9.137933647374991e6 0.0
0.0 0.0 0.0

-913978.389978491 9.601767726580065e6 0.0
9.601767726580065e6 1.760514742089345e6 0.0
0.0 0.0 0.0

-1.258848000213928e7 1.3408881094628023e7 0.0
1.3408881094628023e7 5.91413515718854e6 0.0
0.0 0.0 0.0

-2.2345319797061505e6 7.660963476290681e6 0.0
7.660963476290681e6 -1.3747912178283834e6 0.0
0.0 0.0 0.0

-1.5149925143427306e6 1.0760358198418174e7 0.0
1.0760358198418174e7 -2.728181238642403e6 0.0
0.0 0.0 0.0

-4.315908575635217e6 8.935765462849868e6 0.0
8.935765462849868e6 1.9148217168054704e6 0.0
0.0 0.0 0.0

2.4380104144910625e6 4.914298166842255e6 0.0
4.914298166842255e6 -5.782538446954169e6 0.0
0.0 0.0 0.0

2.5297776502032187e6 8.78594329371853e6 0.0
8.78594329371853e6 -2.6710024931947873e6 0.0
0.0 0.0 0.0

-606547.0586857714 7.143854853192993e6 0.0
7.143854853192993e6 -3.227520966316581e6 0.0
0.0 0.0 0.0

-1.693522096045036e6 1.2158811159557752e7 0.0
1.2158811159557752e7 -1.9375496386460704e6 0.0
0.0 0.0 0.0

934768.8504350123 6.912004241914039e6 0.0
6.912004241914039e6 -5.524371944824437e6 0.0
0.0 0.0 0.0

-2.9135103708685706e6 7.822252423518263e6 0.0
7.822252423518263e6 746050.7288995391 0.0
0.0 0.0 0.0

25925.873088645283 4.486108556968512e6 0.0
4.486108556968512e6 -3.810623267134566e6 0.0
0.0 0.0 0.0

-1.3887009794639957e6 5.106794387847884e6 0.0
5.106794387847884e6 -719240.999669107 0.0
0.0 0.0 0.0

-5.288295229707713e6 9.053470427311506e6 0.0
9.053470427311506e6 386999.11007187376 0.0
0.0 0.0 0.0

-77861.15328288148 6.811993875124624e6 0.0
6.811993875124624e6 -3.99517780551718e6 0.0
0.0 0.0 0.0

-2.4323629581384277e6 6.345624769952802e6 0.0
6.345624769952802e6 -493746.40767052316 0.0
0.0 0.0 0.0

-3.554944018239924e6 9.592811533934878e6 0.0
9.592811533934878e6 -792297.883796568 0.0
0.0 0.0 0.0

-2.357156231394302e6 8.88031714603003e6 0.0
8.88031714603003e6 3.1908579564958466e6 0.0
0.0 0.0 0.0

477468.50542819314 8.457229011302868e6 0.0
8.457229011302868e6 -3.360631808792801e6 0.0
0.0 0.0 0.0

-1.6954918428902114e6 6.479777994673632e6 0.0
6.479777994673632e6 -420874.13666859164 0.0
0.0 0.0 0.0

-5.562647418741803e6 2.329938657143098e6 0.0
2.329938657143098e6 5.240342693922558e6 0.0
0.0 0.0 0.0

-2.6160830834855502e6 8.923595627035765e6 0.0
8.923595627035765e6 3.2169399187661815e6 0.0
0.0 0.0 0.0

-2.5342970744185643e6 5.482306487856357e6 0.0
5.482306487856357e6 994970.9785118774 0.0
0.0 0.0 0.0

-1.0758739971268384e6 1.4923111860003518e6 0.0
1.4923111860003518e6 650653.0343303373 0.0
0.0 0.0 0.0

-2.5065809514622334e6 6.319518221628292e6 0.0
6.319518221628292e6 1.1881925153534682e6 0.0
0.0 0.0 0.0

-3.553749551523305e6 7.747073015053827e6 0.0
7.747073015053827e6 2.3027879013210237e6 0.0
0.0 0.0 0.0

-187817.58471816147 5.170029310251395e6 0.0
5.170029310251395e6 -1.208056190064229e6 0.0
0.0 0.0 0.0

-3.201115659330143e6 9.864715464080729e6 0.0
9.864715464080729e6 -1.2275915603362483e6 0.0
0.0 0.0 0.0

-4.395565709093703e6 8.925321277765747e6 0.0
8.925321277765747e6 1.7944463016866401e6 0.0
0.0 0.0 0.0

-2.7832314295790805e6 5.60642303072618e6 0.0
5.60642303072618e6 1.3614731682257967e6 0.0
0.0 0.0 0.0

-7.101769520316779e6 -239846.15060067642 0.0
-239846.15060067642 7.984006714350764e6 0.0
0.0 0.0 0.0

-1.879626842006422e6 9.369515740088247e6 0.0
9.369515740088247e6 981934.4490249428 0.0
0.0 0.0 0.0

-1.546932186850215e6 4.858015715867188e6 0.0
4.858015715867188e6 385875.31065497396 0.0
0.0 0.0 0.0

170033.48465423752 7.749370945045784e6 0.0
7.749370945045784e6 -5.4103981540550925e6 0.0
0.0 0.0 0.0

-4.1056163553718957e6 8.659926028981531e6 0.0
8.659926028981531e6 5.642174787369347e6 0.0
0.0 0.0 0.0

-2.3645359746797304e6 4.649726501405441e6 0.0
4.649726501405441e6 1.9171981934258793e6 0.0
0.0 0.0 0.0

-678258.966787832 5.045841570872464e6 0.0
5.045841570872464e6 -2.6684589983086674e6 0.0
0.0 0.0 0.0

641816.3327825309 5.520305686265307e6 0.0
5.520305686265307e6 -5.009517121453851e6 0.0
0.0 0.0 0.0

-2.4210165553452657e6 9.693515795367276e6 0.0
9.693515795367276e6 3.2244701659907997e6 0.0
0.0 0.0 0.0

-3.1618598972682403e6 9.46356884316063e6 0.0
9.46356884316063e6 4.126673418658207e6 0.0
0.0 0.0 0.0

-2.3515298468162753e6 6.633360507126067e6 0.0
6.633360507126067e6 -739789.3875911451 0.0
0.0 0.0 0.0

-3.8351260199115537e6 8.468910625004346e6 0.0
8.468910625004346e6 2.2474731485893633e6 0.0
0.0 0.0 0.0

-9.920892450823938e6 1.1797886743798137e7 0.0
1.1797886743798137e7 4.833728720340617e6 0.0
0.0 0.0 0.0

-1.028707523414019e6 1.0114661013704428e7 0.0
1.0114661013704428e7 -3.3053622317254054e6 0.0
0.0 0.0 0.0

-220291.29236352188 2.6753983322102916e6 0.0
2.6753983322102916e6 -241020.1765498505 0.0
0.0 0.0 0.0

-106962.71077797213 8.118371096664349e6 0.0
8.118371096664349e6 -4.709839485107222e6 0.0
0.0 0.0 0.0

-3.258615594823656e6 7.268873070703852e6 0.0
7.268873070703852e6 2.0851094309191303e6 0.0
0.0 0.0 0.0

-2.0884783055684697e6 4.288192605351067e6 0.0
4.288192605351067e6 1.6074992762559892e6 0.0
0.0 0.0 0.0

-137354.27693014187 8.821226583513506e6 0.0
8.821226583513506e6 -341752.64145033306 0.0
0.0 0.0 0.0

698239.8927829703 7.405682288010803e6 0.0
7.405682288010803e6 -6.256574092295019e6 0.0
0.0 0.0 0.0

30287.67435587151 7.709597218734777e6 0.0
7.709597218734777e6 -5.072989848561015e6 0.0
0.0 0.0 0.0

-9.466814861836178e6 1.5735075974244017e7 0.0
1.5735075974244017e7 1.7988198135990724e6 0.0
0.0 0.0 0.0

-4.267568846668706e6 8.796201855795585e6 0.0
8.796201855795585e6 1.6685440251982748e6 0.0
0.0 0.0 0.0

-4.593889458195106e6 9.094744682938267e6 0.0
9.094744682938267e6 2.0556469898296513e6 0.0
0.0 0.0 0.0

-4.975844151875099e6 8.587104075295195e6 0.0
8.587104075295195e6 1.683980910318202e6 0.0
0.0 0.0 0.0

2.2384749139795806e6 4.746392936083894e6 0.0
4.746392936083894e6 -3.381094029267831e6 0.0
0.0 0.0 0.0

-89345.30728251813 7.679288721253046e6 0.0
7.679288721253046e6 -4.06998888338736e6 0.0
0.0 0.0 0.0

-3.145865657388071e6 7.210797129851725e6 0.0
7.210797129851725e6 1.7604526688104135e6 0.0
0.0 0.0 0.0

-2.527151033480841e6 1.0759374126816174e7 0.0
1.0759374126816174e7 -1.3610922246564166e6 0.0
0.0 0.0 0.0

-9.289016778568808e6 1.1468107362011563e7 0.0
1.1468107362011563e7 4.560446931204861e6 0.0
0.0 0.0 0.0

-848064.5489196385 6.602506757442949e6 0.0
6.602506757442949e6 -1.3467628041872904e6 0.0
0.0 0.0 0.0

-2.6500986559635387e6 2.410990947586373e6 0.0
2.410990947586373e6 1.6664493978772215e6 0.0
0.0 0.0 0.0

-8.855530874671968e6 1.1098450352407727e7 0.0
1.1098450352407727e7 4.409959155455454e6 0.0
0.0 0.0 0.0

-3.896303446088943e6 9.368918367793253e6 0.0
9.368918367793253e6 -467396.317699309 0.0
0.0 0.0 0.0

-562358.7422947688 7.178815299541732e6 0.0
7.178815299541732e6 -3.44300528308041e6 0.0
0.0 0.0 0.0

-1.9159889133900052e6 6.31053992598462e6 0.0
6.31053992598462e6 181785.33700941468 0.0
0.0 0.0 0.0

862470.1240795203 7.238581596221725e6 0.0
7.238581596221725e6 -6.469060153882824e6 0.0
0.0 0.0 0.0

-6.406185904591035e6 9.72620749212194e6 0.0
9.72620749212194e6 3.324811117466777e6 0.0
0.0 0.0 0.0

-1.8846275499194046e6 9.567635871287838e6 0.0
9.567635871287838e6 866043.4292314079 0.0
0.0 0.0 0.0

271203.478311267 7.890960332741094e6 0.0
7.890960332741094e6 -5.743314855274855e6 0.0
0.0 0.0 0.0

-4.533880485771211e6 9.10399432335251e6 0.0
9.10399432335251e6 2.140532083905002e6 0.0
0.0 0.0 0.0

-3.6765492700244742e6 2.3641259406194035e6 0.0
2.3641259406194035e6 2.864260568410528e6 0.0
0.0 0.0 0.0

-819499.9019059048 5.474124246021227e6 0.0
5.474124246021227e6 -3.203281451001394e6 0.0
0.0 0.0 0.0

-1.5071249969715897e6 7.754026337904771e6 0.0
7.754026337904771e6 1.0326493896197914e6 0.0
0.0 0.0 0.0

-3.8123754930884033e6 8.568911118239345e6 0.0
8.568911118239345e6 1.5319767346722696e6 0.0
0.0 0.0 0.0

204433.53379195882 7.984923139418549e6 0.0
7.984923139418549e6 -5.683447080239167e6 0.0
0.0 0.0 0.0

-1.5813643968298633e7 2.0574187065388918e7 0.0
2.0574187065388918e7 3.103097681132757e6 0.0
0.0 0.0 0.0

-2.696799876201783e6 5.0448376989206355e6 0.0
5.0448376989206355e6 2.1598407107031e6 0.0
0.0 0.0 0.0

-496088.95406700624 9.132049195601203e6 0.0
9.132049195601203e6 -6.00566898530461e6 0.0
0.0 0.0 0.0

-1.2440469253904372e6 7.1179331514089685e6 0.0
7.1179331514089685e6 -1.2319899113928922e6 0.0
0.0 0.0 0.0

-2.6384000474898173e6 6.832826961866958e6 0.0
6.832826961866958e6 738991.4700892111 0.0
0.0 0.0 0.0

-3.8801586317941714e6 7.615497440608815e6 0.0
7.615497440608815e6 5.944767947820249e6 0.0
0.0 0.0 0.0

-1.653692219044239e6 6.064480851177854e6 0.0
6.064480851177854e6 -97371.13151574013 0.0
0.0 0.0 0.0

-1.1050470457080226e7 8.390804728725577e6 0.0
8.390804728725577e6 1.6267881906844087e7 0.0
0.0 0.0 0.0

-2.6468363979357956e6 7.306399513736255e6 0.0
7.306399513736255e6 734904.8407332064 0.0
0.0 0.0 0.0

-223513.48761491687 8.730660292335827e6 0.0
8.730660292335827e6 -4.5331694121407475e6 0.0
0.0 0.0 0.0

-1.3418278789313766e6 1.018565528014341e7 0.0
1.018565528014341e7 -2.562434950866568e6 0.0
0.0 0.0 0.0

2.8620826968653943e7 9.954321478748456e6 0.0
9.954321478748456e6 -3.0913287415675e6 0.0
0.0 0.0 0.0

-47080.76645808213 1.2088898584559902e6 0.0
1.2088898584559902e6 334365.0098842921 0.0
0.0 0.0 0.0

1.653478221103652e6 5.455470645146149e6 0.0
5.455470645146149e6 -6.298213027845503e6 0.0
0.0 0.0 0.0

-79703.40647193295 4.654506738066658e6 0.0
4.654506738066658e6 -1.5744846248239484e6 0.0
0.0 0.0 0.0

-4.813919511055586e6 8.446782886649366e6 0.0
8.446782886649366e6 1.4507777565529072e6 0.0
0.0 0.0 0.0

-4.268909429461849e6 -3.627376892258108e6 0.0
-3.627376892258108e6 6.009292503939258e6 0.0
0.0 0.0 0.0

-616242.5125834967 8.215473925680329e6 0.0
8.215473925680329e6 -5.378255768339043e6 0.0
0.0 0.0 0.0

-1.8084313067479888e6 4.016113969389864e6 0.0
4.016113969389864e6 1.0876303002000232e6 0.0
0.0 0.0 0.0

-3.051273897947207e6 5.705714315096802e6 0.0
5.705714315096802e6 1.729266490832109e6 0.0
0.0 0.0 0.0

2.8687124518417767e6 5.873150922135831e6 0.0
5.873150922135831e6 -7.139719907895731e6 0.0
0.0 0.0 0.0

-1.8786106982568745e6 8.933472974251341e6 0.0
8.933472974251341e6 -2.1100351441428075e6 0.0
0.0 0.0 0.0

-1.0925675372959722e7 1.1991755033559304e7 0.0
1.1991755033559304e7 5.960287396648652e6 0.0
0.0 0.0 0.0

-1.177876000989417e6 5.207466414033725e6 0.0
5.207466414033725e6 -2.918396500297894e6 0.0
0.0 0.0 0.0

-1.7947808234392041e6 1.0134762500754127e7 0.0
1.0134762500754127e7 43455.76348114712 0.0
0.0 0.0 0.0

-1.1048861790203836e7 1.675389510379006e6 0.0
1.675389510379006e6 4.256607776169922e7 0.0
0.0 0.0 0.0

1.4876557604570067e6 7.916738290983913e6 0.0
7.916738290983913e6 -1.002368372410659e7 0.0
0.0 0.0 0.0

769001.3647356201 9.494218145607658e6 0.0
9.494218145607658e6 -7.418368674096282e6 0.0
0.0 0.0 0.0

-1.1766394268852747e6 8.378964014325956e6 0.0
8.378964014325956e6 -2.7970938701561615e6 0.0
0.0 0.0 0.0

1.535559742174089e6 6.932438387221268e6 0.0
6.932438387221268e6 -6.837252233617654e6 0.0
0.0 0.0 0.0

-7.13549839889687e6 7.892910894293315e6 0.0
7.892910894293315e6 1.2609164114383003e6 0.0
0.0 0.0 0.0

-2.663201969476777e6 1.0713195194322612e7 0.0
1.0713195194322612e7 -1.8759556358775268e6 0.0
0.0 0.0 0.0

-126688.17387178168 904401.7249382763 0.0
904401.7249382763 213243.52327641143 0.0
0.0 0.0 0.0

-1.1001547319283776e6 6.126820641925536e6 0.0
6.126820641925536e6 -1.3508459803871159e6 0.0
0.0 0.0 0.0

-4.794419274332908e6 9.231059050579766e6 0.0
9.231059050579766e6 2.2200070160988765e6 0.0
0.0 0.0 0.0

-3.407817524171008e6 7.32675938409551e6 0.0
7.32675938409551e6 1.5726016115134796e6 0.0
0.0 0.0 0.0

-1.5360112579168922e6 5.3239347451826185e6 0.0
5.3239347451826185e6 -320579.43814081815 0.0
0.0 0.0 0.0

-483058.65959100437 5.992982645164627e6 0.0
5.992982645164627e6 -1.3057853039059513e6 0.0
0.0 0.0 0.0

2.282660366822918e6 7.953060721169491e6 0.0
7.953060721169491e6 -1.8203047498778678e6 0.0
0.0 0.0 0.0

-4.242834148206659e6 9.287320798797298e6 0.0
9.287320798797298e6 -83141.66452767886 0.0
0.0 0.0 0.0

-1.0807806923941271e6 3.6897601070054783e6 0.0
3.6897601070054783e6 -1.4685287027442744e6 0.0
0.0 0.0 0.0

-5.50824990731596e6 9.315356839330444e6 0.0
9.315356839330444e6 2.170152461726984e6 0.0
0.0 0.0 0.0

-3.3713162007935094e6 4.218238038119541e6 0.0
4.218238038119541e6 2.1689947966033556e6 0.0
0.0 0.0 0.0

-1.8563935659129228e6 6.671472339847684e6 0.0
6.671472339847684e6 -152353.4623098753 0.0
0.0 0.0 0.0

-266596.8951145524 767565.1892067259 0.0
767565.1892067259 493039.4063487391 0.0
0.0 0.0 0.0

2.195707621642501e6 5.522210845770856e6 0.0
5.522210845770856e6 -6.780316009806227e6 0.0
0.0 0.0 0.0

1.5379661591997482e6 7.086305213506417e6 0.0
7.086305213506417e6 -6.899158386433806e6 0.0
0.0 0.0 0.0

-1.9035047985845841e6 3.7885824115310237e6 0.0
3.7885824115310237e6 774786.0112034574 0.0
0.0 0.0 0.0

1.6348042191157006e6 7.2467759756904505e6 0.0
7.2467759756904505e6 -9.076303081327777e6 0.0
0.0 0.0 0.0

-6.435127686677847e6 -7.814420008492713e6 0.0
-7.814420008492713e6 1.3804679559002597e7 0.0
0.0 0.0 0.0

-537702.0273582528 6.960373696313943e6 0.0
6.960373696313943e6 -3.506802782752158e6 0.0
0.0 0.0 0.0

-11150.33376891329 6.588614187788548e6 0.0
6.588614187788548e6 -3.9608238195941094e6 0.0
0.0 0.0 0.0

-7.568783636417534e6 1.280991052207625e7 0.0
1.280991052207625e7 3.4405422391590565e6 0.0
0.0 0.0 0.0

-6.173939002316078e6 9.38627194774804e6 0.0
9.38627194774804e6 3.532910067687983e6 0.0
0.0 0.0 0.0

-3.516094500308667e6 8.173479400153062e6 0.0
8.173479400153062e6 1.4440457853568383e6 0.0
0.0 0.0 0.0

-4.933382804814822e6 9.321394968333315e6 0.0
9.321394968333315e6 1.478142756012662e6 0.0
0.0 0.0 0.0

-9.006833994817719e6 1.039265013250495e7 0.0
1.039265013250495e7 5.066141797907973e6 0.0
0.0 0.0 0.0

-3.996764114266037e6 8.534491014437487e6 0.0
8.534491014437487e6 2.0249823509201435e6 0.0
0.0 0.0 0.0

-909485.9477044299 9.623386637422135e6 0.0
9.623386637422135e6 276326.609038072 0.0
0.0 0.0 0.0

1.8785840569002964e6 6.318874065864968e6 0.0
6.318874065864968e6 -8.180937236925723e6 0.0
0.0 0.0 0.0

3.0072606971608354e6 6.3894595310547585e6 0.0
6.3894595310547585e6 -7.3553061734190425e6 0.0
0.0 0.0 0.0

1.8625930528571513e6 6.055435818766124e6 0.0
6.055435818766124e6 -7.383182133847697e6 0.0
0.0 0.0 0.0

-4.957217152122927e6 8.963863196184454e6 0.0
8.963863196184454e6 2.1217295805037348e6 0.0
0.0 0.0 0.0

-1.1933504437478853e6 7.184132547571699e6 0.0
7.184132547571699e6 -1.3693013691812116e6 0.0
0.0 0.0 0.0

-4.540472117937086e6 -3.5835782655084557e6 0.0
-3.5835782655084557e6 6.683488306996318e6 0.0
0.0 0.0 0.0

-1.6394377157377172e6 4.283697709233428e6 0.0
4.283697709233428e6 438306.3276499333 0.0
0.0 0.0 0.0

34972.555383165134 5.61605521045235e6 0.0
5.61605521045235e6 -3.1664971755634844e6 0.0
0.0 0.0 0.0

-5.015813424763545e6 8.169910417407706e6 0.0
8.169910417407706e6 2.1108677529130904e6 0.0
0.0 0.0 0.0

-844906.3722037835 8.102740694048487e6 0.0
8.102740694048487e6 -5.2439278170862775e6 0.0
0.0 0.0 0.0

-167643.04930613766 1.8359815244195445e6 0.0
1.8359815244195445e6 214535.16342378533 0.0
0.0 0.0 0.0

-728684.534677076 3.8118232153772414e6 0.0
3.8118232153772414e6 -656806.4335397584 0.0
0.0 0.0 0.0

-6.33844235188417e6 2.889830349441225e6 0.0
2.889830349441225e6 6.401708694797328e6 0.0
0.0 0.0 0.0

-3.0713011262686346e6 8.278628680686954e6 0.0
8.278628680686954e6 2.722492616535846e6 0.0
0.0 0.0 0.0

-342751.06761243055 7.712646761474e6 0.0
7.712646761474e6 -4.46569933458215e6 0.0
0.0 0.0 0.0

1.9872622202034765e6 6.111257376794635e6 0.0
6.111257376794635e6 -7.971545638658061e6 0.0
0.0 0.0 0.0

1.2633752583068053e6 5.196017106748256e6 0.0
5.196017106748256e6 -5.208123487175973e6 0.0
0.0 0.0 0.0

-7.668575150991253e6 1.6653067268965725e7 0.0
1.6653067268965725e7 -1.3617579130792674e6 0.0
0.0 0.0 0.0

-5.757491269203844e6 -7.409988951985229e6 0.0
-7.409988951985229e6 1.1781464124013357e7 0.0
0.0 0.0 0.0

1.1696228890704047e6 7.147120079083328e6 0.0
7.147120079083328e6 -6.323408438112365e6 0.0
0.0 0.0 0.0

-1.1804031467787717e7 -6.059708035541203e6 0.0
-6.059708035541203e6 2.7393666536700293e7 0.0
0.0 0.0 0.0

1.8913133892101818e6 6.685042853545685e6 0.0
6.685042853545685e6 -8.581004193333589e6 0.0
0.0 0.0 0.0

-4.317442468367695e6 8.89247218290952e6 0.0
8.89247218290952e6 2.3148859790798738e6 0.0
0.0 0.0 0.0

-1.3466183646144543e6 5.065665003588731e6 0.0
5.065665003588731e6 -1.5938620356804205e6 0.0
0.0 0.0 0.0

-2.5898591224866905e6 7.795863114271071e6 0.0
7.795863114271071e6 -1.5402399438693463e6 0.0
0.0 0.0 0.0

-1.113203477012809e6 9.041914365533289e6 0.0
9.041914365533289e6 -3.517682810923969e6 0.0
0.0 0.0 0.0

-6.898002044752738e6 -8.286622593262528e6 0.0
-8.286622593262528e6 1.5583828415012565e7 0.0
0.0 0.0 0.0

1.822178583501339e6 6.076763823420357e6 0.0
6.076763823420357e6 -7.55920209517152e6 0.0
0.0 0.0 0.0

-4.034363611266155e6 4.0469235121030323e6 0.0
4.0469235121030323e6 3.2435964083327623e6 0.0
0.0 0.0 0.0

-2.704451568439916e6 4.377545746199887e6 0.0
4.377545746199887e6 1.52815937907801e6 0.0
0.0 0.0 0.0

-4.5282360515934285e6 2.691146890075068e6 0.0
2.691146890075068e6 3.990670788182931e6 0.0
0.0 0.0 0.0

-1.5345609403499712e6 5.531646442582148e6 0.0
5.531646442582148e6 -21837.520775030134 0.0
0.0 0.0 0.0

-3.731783234410421e6 1.0393009796256889e7 0.0
1.0393009796256889e7 5.262727285050942e6 0.0
0.0 0.0 0.0

-3.9426787013478214e6 9.524917433979183e6 0.0
9.524917433979183e6 292787.35262071947 0.0
0.0 0.0 0.0

-5.6168568584213e6 9.255577136265008e6 0.0
9.255577136265008e6 2.6529927811351377e6 0.0
0.0 0.0 0.0

-5.015292781102265e6 9.715831304870086e6 0.0
9.715831304870086e6 858157.662669136 0.0
0.0 0.0 0.0

-457407.9103056296 6.715918946659805e6 0.0
6.715918946659805e6 -3.366620011058831e6 0.0
0.0 0.0 0.0

-5.537256248338758e6 9.669988753116384e6 0.0
9.669988753116384e6 2.8150254540969613e6 0.0
0.0 0.0 0.0

-1.344519189920099e6 9.986178671638938e6 0.0
9.986178671638938e6 -50778.65201773791 0.0
0.0 0.0 0.0

-750139.5662048585 8.1197029563933145e6 0.0
8.1197029563933145e6 -3.2743625880735354e6 0.0
0.0 0.0 0.0

-5.165722770346052e6 4.016788741122744e6 0.0
4.016788741122744e6 7.204527003957583e6 0.0
0.0 0.0 0.0

-2.368185857049481e6 3.46411169087593e6 0.0
3.46411169087593e6 1.3072213220854052e6 0.0
0.0 0.0 0.0

-314006.9116013965 6.5634712895527175e6 0.0
6.5634712895527175e6 -3.9197910162987914e6 0.0
0.0 0.0 0.0

-1.6705886034451355e6 -973127.2104313076 0.0
-973127.2104313076 993936.3885008929 0.0
0.0 0.0 0.0

3.0144582976681893e6 6.053818504780675e6 0.0
6.053818504780675e6 -7.247698440259768e6 0.0
0.0 0.0 0.0

-1.82956800714576e6 9.066729841603834e6 0.0
9.066729841603834e6 2.4089562212278466e6 0.0
0.0 0.0 0.0

-4.646922542359943e6 -6.436953675138247e6 0.0
-6.436953675138247e6 9.69027720811178e6 0.0
0.0 0.0 0.0

1.842247891363536e6 6.176790637178217e6 0.0
6.176790637178217e6 -7.062437142649178e6 0.0
0.0 0.0 0.0

3.0126845979848583e6 6.188155122217875e6 0.0
6.188155122217875e6 -7.224393451533693e6 0.0
0.0 0.0 0.0

-2.0551684824685147e6 -2.0752455676867315e6 0.0
-2.0752455676867315e6 1.5353177994244404e6 0.0
0.0 0.0 0.0

-6.693248195629985e6 7.355576574581903e6 0.0
7.355576574581903e6 9.976797457200656e6 0.0
0.0 0.0 0.0

1.8777224013144355e6 6.23253502973357e6 0.0
6.23253502973357e6 -6.922501017137937e6 0.0
0.0 0.0 0.0

-3.943646554363633e6 -5.954708257527618e6 0.0
-5.954708257527618e6 7.617473007830722e6 0.0
0.0 0.0 0.0

-2.846620548179319e6 8.632754815965477e6 0.0
8.632754815965477e6 2.5574534021093184e6 0.0
0.0 0.0 0.0

-2.190661174777383e6 513730.8504979719 0.0
513730.8504979719 2.4611111598898056e6 0.0
0.0 0.0 0.0

-3.1140966932235057e6 -3.370295563475706e6 0.0
-3.370295563475706e6 3.589908072508846e6 0.0
0.0 0.0 0.0

3.0972026782885455e6 6.338640549711651e6 0.0
6.338640549711651e6 -7.325962470841359e6 0.0
0.0 0.0 0.0

1.98502540993371e6 6.440206295049404e6 0.0
6.440206295049404e6 -6.775523670484978e6 0.0
0.0 0.0 0.0

-4.023922190414511e6 -4.908284190360546e6 0.0
-4.908284190360546e6 7.026388818561003e6 0.0
0.0 0.0 0.0

-8.288434185309605e7 2.6006264430830356e7 0.0
2.6006264430830356e7 3201.516342137009 0.0
0.0 0.0 0.0

4.467930020491647e7 9.495396287269015e6 0.0
9.495396287269015e6 -7.278603673986334e6 0.0
0.0 0.0 0.0

-1.7572301107257947e6 5.150687507434369e6 0.0
5.150687507434369e6 18028.535119098262 0.0
0.0 0.0 0.0

2.0538720003440115e6 6.546848948218876e6 0.0
6.546848948218876e6 -6.798659411613145e6 0.0
0.0 0.0 0.0

-5.026762782756895e6 -3.5808175224648444e6 0.0
-3.5808175224648444e6 7.948361908963602e6 0.0
0.0 0.0 0.0

526465.5941169359 8.025604119348217e6 0.0
8.025604119348217e6 -2.9387961953609865e6 0.0
0.0 0.0 0.0

-2.279126955315762e6 4.0042804252707716e6 0.0
4.0042804252707716e6 1.210709265565389e6 0.0
0.0 0.0 0.0

-4.973172317787446e6 9.27519698789851e6 0.0
9.27519698789851e6 2.3597183484166656e6 0.0
0.0 0.0 0.0

-1.9564499660447245e6 9.137864014205808e6 0.0
9.137864014205808e6 2.4960109538694527e6 0.0
0.0 0.0 0.0

-5.257930607252419e6 -3.2808055074182646e6 0.0
-3.2808055074182646e6 7.736875700916231e6 0.0
0.0 0.0 0.0

1.9348526735626748e6 6.482210150871485e6 0.0
6.482210150871485e6 -6.636166636690645e6 0.0
0.0 0.0 0.0

-4.512406769421205e6 9.170860771494197e6 0.0
9.170860771494197e6 403417.0353271053 0.0
0.0 0.0 0.0

-71180.43162777927 8.966574891582519e6 0.0
8.966574891582519e6 -6.598624472949e6 0.0
0.0 0.0 0.0

-5.628335211201483e6 9.129764365157388e6 0.0
9.129764365157388e6 2.1840132709452054e6 0.0
0.0 0.0 0.0

-1.3837406536528524e6 8.540669178293813e6 0.0
8.540669178293813e6 -2.5614387419434353e6 0.0
0.0 0.0 0.0

-646587.5081077077 8.463893254011644e6 0.0
8.463893254011644e6 -4.1728469005396976e6 0.0
0.0 0.0 0.0

-868015.9427203821 9.753551846810734e6 0.0
9.753551846810734e6 -102610.52289567661 0.0
0.0 0.0 0.0

-3.593153181088831e6 1.1456923589569474e7 0.0
1.1456923589569474e7 -1.0294792968191486e6 0.0
0.0 0.0 0.0

-2.7847256199855525e6 1.0392176418587064e7 0.0
1.0392176418587064e7 -1.189554216700464e6 0.0
0.0 0.0 0.0

103044.36695038411 8.4573344683945e6 0.0
8.4573344683945e6 -6.075142194284847e6 0.0
0.0 0.0 0.0

-5.450566687890931e6 9.244646230591875e6 0.0
9.244646230591875e6 2.67650640782479e6 0.0
0.0 0.0 0.0

-3.3100068558589807e6 7.796809546247363e6 0.0
7.796809546247363e6 1.563634487295558e6 0.0
0.0 0.0 0.0

-4.805019555099659e6 9.489304419218577e6 0.0
9.489304419218577e6 2.594657068529738e6 0.0
0.0 0.0 0.0

-590366.9948701808 8.569593235816127e6 0.0
8.569593235816127e6 -4.266184578506019e6 0.0
0.0 0.0 0.0

-1.527634731837742e6 4.525443771730515e6 0.0
4.525443771730515e6 140293.828213108 0.0
0.0 0.0 0.0

-280945.2353347335 9.427894275574552e6 0.0
9.427894275574552e6 -96843.61399309649 0.0
0.0 0.0 0.0

-1.7134594978937681e6 4.735077086675586e6 0.0
4.735077086675586e6 392142.96530238376 0.0
0.0 0.0 0.0

-2.695577427757536e6 6.813538918425588e6 0.0
6.813538918425588e6 57368.01455604099 0.0
0.0 0.0 0.0

-5.273872239948531e6 9.284893528957382e6 0.0
9.284893528957382e6 2.629577667444696e6 0.0
0.0 0.0 0.0

4672.622385887429 8.1494737268020315e6 0.0
8.1494737268020315e6 -5.399950189670921e6 0.0
0.0 0.0 0.0

-2.287822643087762e6 8.982625006482927e6 0.0
8.982625006482927e6 2.1701872876113076e6 0.0
0.0 0.0 0.0

-9.535796135664236e6 1.0475577190630067e7 0.0
1.0475577190630067e7 5.402177189906953e6 0.0
0.0 0.0 0.0

-2.9420826704854234e6 6.872677221021229e6 0.0
6.872677221021229e6 -21041.955889460514 0.0
0.0 0.0 0.0

-5.076646647483979e6 9.108247230426561e6 0.0
9.108247230426561e6 1.1521380452651295e6 0.0
0.0 0.0 0.0

645271.589204684 7.974657472911385e6 0.0
7.974657472911385e6 1.8909567041992845e6 0.0
0.0 0.0 0.0

-5.133315166333086e6 9.290343204734068e6 0.0
9.290343204734068e6 2.5025375292880097e6 0.0
0.0 0.0 0.0

-5.805757193986055e6 1.8349639328647885e6 0.0
1.8349639328647885e6 2.9033046121109077e6 0.0
0.0 0.0 0.0

-6.183900533063005e6 9.679092517072545e6 0.0
9.679092517072545e6 3.2101343282635706e6 0.0
0.0 0.0 0.0

593400.101836456 4.639697482140878e6 0.0
4.639697482140878e6 -3.557739483710639e6 0.0
0.0 0.0 0.0

634472.0372012898 4.664496489937881e6 0.0
4.664496489937881e6 -3.2306706044188784e6 0.0
0.0 0.0 0.0

-4.79695674947947e6 9.146884411442792e6 0.0
9.146884411442792e6 956002.7999890188 0.0
0.0 0.0 0.0

-3.4926574622961264e6 9.598485842386138e6 0.0
9.598485842386138e6 4.263647021186401e6 0.0
0.0 0.0 0.0

-6.640080442900756e6 9.844276466946263e6 0.0
9.844276466946263e6 3.49757683289251e6 0.0
0.0 0.0 0.0

-3.3647838572968277e6 2.6034219723534873e6 0.0
2.6034219723534873e6 2.441826908753615e6 0.0
0.0 0.0 0.0

-8.195239608991329e6 1.0131335014921349e7 0.0
1.0131335014921349e7 4.575747195833865e6 0.0
0.0 0.0 0.0

-2.3663186104912646e6 9.25025334658067e6 0.0
9.25025334658067e6 1.1639761798835974e6 0.0
0.0 0.0 0.0

-747679.0600369412 6.600584687015362e6 0.0
6.600584687015362e6 -1.3320833478862667e6 0.0
0.0 0.0 0.0

132249.7442188016 7.741417087204278e6 0.0
7.741417087204278e6 -4.723138546032278e6 0.0
0.0 0.0 0.0

-4.818160851869818e6 9.236465230586233e6 0.0
9.236465230586233e6 2.2120010182084884e6 0.0
0.0 0.0 0.0

-630280.5197133082 2.528254935896817e6 0.0
2.528254935896817e6 427574.96721854154 0.0
0.0 0.0 0.0

-8.581585798730949e6 6.590098256132758e6 0.0
6.590098256132758e6 1.004988408612116e7 0.0
0.0 0.0 0.0

254645.69513147417 8.491852053089207e6 0.0
8.491852053089207e6 -6.4895782960291635e6 0.0
0.0 0.0 0.0

-3.775435530383135e6 3.107862161683515e6 0.0
3.107862161683515e6 4.578581317780609e6 0.0
0.0 0.0 0.0

-1.2728684674277785e6 1.254320060268106e7 0.0
1.254320060268106e7 -2.0145574917766687e6 0.0
0.0 0.0 0.0

-209913.464051937 7.722389842644523e6 0.0
7.722389842644523e6 -4.0237004350348883e6 0.0
0.0 0.0 0.0

-2.8377327641596654e6 6.84726190887219e6 0.0
6.84726190887219e6 -26479.781242603436 0.0
0.0 0.0 0.0

-5.45443647811308e6 9.12060997629525e6 0.0
9.12060997629525e6 1.9005896969558143e6 0.0
0.0 0.0 0.0

233132.9260894123 8.186917097420712e6 0.0
8.186917097420712e6 -3.688225735235033e6 0.0
0.0 0.0 0.0

-1.586311255523799e6 4.1715649698652243e6 0.0
4.1715649698652243e6 693841.6442437713 0.0
0.0 0.0 0.0

-4.395241919169636e6 3.631649926234292e6 0.0
3.631649926234292e6 5.380091485923022e6 0.0
0.0 0.0 0.0

-5.304493344463437e6 9.082986766037604e6 0.0
9.082986766037604e6 1.5541893935747365e6 0.0
0.0 0.0 0.0

-1.4574850701792834e6 5.117424049262179e6 0.0
5.117424049262179e6 43059.648497531016 0.0
0.0 0.0 0.0

1.6905190534521472e6 6.558198122160362e6 0.0
6.558198122160362e6 -7.087538082912113e6 0.0
0.0 0.0 0.0

-2.0585557081668605e6 5.8364959523749035e6 0.0
5.8364959523749035e6 221972.78180076042 0.0
0.0 0.0 0.0

-84858.24483763496 8.546050975745665e6 0.0
8.546050975745665e6 -4.222610624637645e6 0.0
0.0 0.0 0.0

547579.9214112649 7.657613988271564e6 0.0
7.657613988271564e6 -2.2872750017265924e6 0.0
0.0 0.0 0.0

-1.5319219607355425e6 8.907077139773823e6 0.0
8.907077139773823e6 776117.1481000554 0.0
0.0 0.0 0.0

-2.830999452758119e6 6.783358445915232e6 0.0
6.783358445915232e6 -569172.2289699262 0.0
0.0 0.0 0.0

-829047.5697902633 8.610130209262384e6 0.0
8.610130209262384e6 -3.9166814436807563e6 0.0
0.0 0.0 0.0

425649.8719366924 6.877089778671761e6 0.0
6.877089778671761e6 -5.063131496048128e6 0.0
0.0 0.0 0.0

55797.526812382974 8.408703468238248e6 0.0
8.408703468238248e6 -4.0114182145302305e6 0.0
0.0 0.0 0.0

-719723.8641733485 6.805044278927298e6 0.0
6.805044278927298e6 -3.505822838785744e6 0.0
0.0 0.0 0.0

1.574748188518322e6 6.8385315733141415e6 0.0
6.8385315733141415e6 -4.8976370018951865e6 0.0
0.0 0.0 0.0

-5.247991458610915e6 9.307409957368866e6 0.0
9.307409957368866e6 2.486593468819909e6 0.0
0.0 0.0 0.0

-1.4747927458816066e6 5.179865584386289e6 0.0
5.179865584386289e6 -1.6689618352596415e6 0.0
0.0 0.0 0.0

-2.674316488337545e6 8.755126378102807e6 0.0
8.755126378102807e6 2.3296072946710736e6 0.0
0.0 0.0 0.0

314380.52837011754 1.202111667453223e6 0.0
1.202111667453223e6 -1.0692028246864812e6 0.0
0.0 0.0 0.0

1.1887721402548645e6 8.66111272439708e6 0.0
8.66111272439708e6 -2.574252320013126e6 0.0
0.0 0.0 0.0

-2.3526278033955945e6 7.572864282050435e6 0.0
7.572864282050435e6 1.879040093853788e6 0.0
0.0 0.0 0.0

-68676.48303289223 6.592869052276866e6 0.0
6.592869052276866e6 -4.1521848305354263e6 0.0
0.0 0.0 0.0

-2.9171135339220427e7 -482712.9593250577 0.0
-482712.9593250577 1.4786350953805292e7 0.0
0.0 0.0 0.0

-3.5056915921083847e6 7.448492860704949e6 0.0
7.448492860704949e6 3.9524878698052117e6 0.0
0.0 0.0 0.0

-1.8725081741587399e6 9.470115539612237e6 0.0
9.470115539612237e6 -2.1497219278650144e6 0.0
0.0 0.0 0.0

-2.4048473337699557e6 6.439985101462252e6 0.0
6.439985101462252e6 -1.0552489151854233e6 0.0
0.0 0.0 0.0

-196508.65901270625 8.091065217406246e6 0.0
8.091065217406246e6 -4.225106685584917e6 0.0
0.0 0.0 0.0

-710694.8407020257 9.568471856854867e6 0.0
9.568471856854867e6 194481.05713272444 0.0
0.0 0.0 0.0

382354.30504216766 7.876025022462344e6 0.0
7.876025022462344e6 -5.367698902561532e6 0.0
0.0 0.0 0.0

-642523.7516283116 9.630992750250634e6 0.0
9.630992750250634e6 429436.23316865554 0.0
0.0 0.0 0.0

-2.0062371490613036e6 8.815857355461324e6 0.0
8.815857355461324e6 -2.495637301633007e6 0.0
0.0 0.0 0.0

392437.9037545887 6.778723393439795e6 0.0
6.778723393439795e6 -4.59227496283465e6 0.0
0.0 0.0 0.0

1.6719367412993987e6 6.503223034373364e6 0.0
6.503223034373364e6 -6.645942848042059e6 0.0
0.0 0.0 0.0

-4.46796762127807e6 1.2215955632477412e7 0.0
1.2215955632477412e7 -491781.5839174555 0.0
0.0 0.0 0.0

261500.98446812294 7.812005797090759e6 0.0
7.812005797090759e6 -5.07630609955263e6 0.0
0.0 0.0 0.0

-5.16749685461756e6 9.498537056091383e6 0.0
9.498537056091383e6 2.632880402469715e6 0.0
0.0 0.0 0.0

-2.687440999250446e6 9.365554936953522e6 0.0
9.365554936953522e6 393828.6120718254 0.0
0.0 0.0 0.0

6675.3740835140925 4.289885350123495e6 0.0
4.289885350123495e6 -3.4520607880544825e6 0.0
0.0 0.0 0.0

-1.0437037460052373e7 1.0139407585013237e7 0.0
1.0139407585013237e7 5.892539137922815e6 0.0
0.0 0.0 0.0

-20220.47721985355 6.705032461882086e6 0.0
6.705032461882086e6 -3.9675058820674154e6 0.0
0.0 0.0 0.0

-5.523211757955337e6 9.666661333663367e6 0.0
9.666661333663367e6 8.085406252482893e6 0.0
0.0 0.0 0.0

-944525.6972674999 9.898146057938619e6 0.0
9.898146057938619e6 -291849.3729933785 0.0
0.0 0.0 0.0

-5.7016593289498575e6 9.316958245741768e6 0.0
9.316958245741768e6 2.8654635342511456e6 0.0
0.0 0.0 0.0

-1.4379066018631454e6 4.707583152749541e6 0.0
4.707583152749541e6 389102.6171072455 0.0
0.0 0.0 0.0

-492706.76706216065 8.025168120853772e6 0.0
8.025168120853772e6 -4.280174286147986e6 0.0
0.0 0.0 0.0

-1.5159503385199206e6 4.895257115715757e6 0.0
4.895257115715757e6 -1.1642202392872665e6 0.0
0.0 0.0 0.0

-2.769725463006982e6 6.985246512825561e6 0.0
6.985246512825561e6 -247576.51885331038 0.0
0.0 0.0 0.0

3.7067229966552537e6 8.608338855518658e6 0.0
8.608338855518658e6 -3.7346896656851936e6 0.0
0.0 0.0 0.0

-1.2842837847181086e6 9.61614268866046e6 0.0
9.61614268866046e6 -2.6730591034979844e6 0.0
0.0 0.0 0.0

-476357.9283400147 3.6501186585688554e6 0.0
3.6501186585688554e6 -1.673806421572441e6 0.0
0.0 0.0 0.0

-672139.203340328 8.302661525825116e6 0.0
8.302661525825116e6 -4.0782053111364716e6 0.0
0.0 0.0 0.0

-191316.4912112233 2.1395349908142965e6 0.0
2.1395349908142965e6 -288132.03431089944 0.0
0.0 0.0 0.0

-3.2778011481705597e6 7.949333327917034e6 0.0
7.949333327917034e6 2.6106797816805597e6 0.0
0.0 0.0 0.0

-2.751446310812898e6 3.741711106691207e6 0.0
3.741711106691207e6 1.7658682213805267e6 0.0
0.0 0.0 0.0

-9.773646457512941e6 5.557652835737977e6 0.0
5.557652835737977e6 4.839753020632945e6 0.0
0.0 0.0 0.0

97548.90287962928 8.378552629282558e6 0.0
8.378552629282558e6 -6.152979666424442e6 0.0
0.0 0.0 0.0

-4.2026492412950415e6 8.74353477421045e6 0.0
8.74353477421045e6 2.2241601671592547e6 0.0
0.0 0.0 0.0

-4.228736901758896e6 8.993452774705958e6 0.0
8.993452774705958e6 2.1752891586424992e6 0.0
0.0 0.0 0.0

-2.3047806244295486e6 1.124850105607246e7 0.0
1.124850105607246e7 -2.0700214643305917e6 0.0
0.0 0.0 0.0

400278.52411077823 8.231127936255691e6 0.0
8.231127936255691e6 -6.323225443047523e6 0.0
0.0 0.0 0.0

-2.3206943199828924e6 9.086709804194484e6 0.0
9.086709804194484e6 2.0329068097550035e6 0.0
0.0 0.0 0.0

-8.259599081748435e6 -108189.48768087043 0.0
-108189.48768087043 1.0603858215881877e7 0.0
0.0 0.0 0.0

399085.18906500353 745838.5204877661 0.0
745838.5204877661 -2.2875153963902374e6 0.0
0.0 0.0 0.0

-379252.23802657984 8.778082457962917e6 0.0
8.778082457962917e6 -4.607197584989795e6 0.0
0.0 0.0 0.0

-3.1423841483963393e6 1.142180453193437e7 0.0
1.142180453193437e7 -1.411152340134622e6 0.0
0.0 0.0 0.0

-2.9512984597595367e6 7.063124358018068e6 0.0
7.063124358018068e6 291042.68690833286 0.0
0.0 0.0 0.0

-2.112158864897044e6 6.290489524511346e6 0.0
6.290489524511346e6 -1.666710382419809e6 0.0
0.0 0.0 0.0

-829263.8298370212 8.293513177504889e6 0.0
8.293513177504889e6 -5.488577324043326e6 0.0
0.0 0.0 0.0

-4.855543060448186e6 3.1826431095715505e6 0.0
3.1826431095715505e6 4.783144100413253e6 0.0
0.0 0.0 0.0

-6.761422973642228e6 9.902319060394792e6 0.0
9.902319060394792e6 3.427001492958538e6 0.0
0.0 0.0 0.0

-1.2635637811408857e7 3.928846684319975e6 0.0
3.928846684319975e6 7.121697935452563e6 0.0
0.0 0.0 0.0

1.5247269944189102e6 8.2102250006400915e6 0.0
8.2102250006400915e6 -2.5985055409467733e6 0.0
0.0 0.0 0.0

-9715.33265680261 4.341653074201809e6 0.0
4.341653074201809e6 -3.547350903879712e6 0.0
0.0 0.0 0.0

-2.837880839668568e6 7.036766295499839e6 0.0
7.036766295499839e6 286227.60576497833 0.0
0.0 0.0 0.0

-5.250076747009212e6 3.3082015454194196e6 0.0
3.3082015454194196e6 7.020405555231466e6 0.0
0.0 0.0 0.0

-6.122142934195601e6 9.647691222563677e6 0.0
9.647691222563677e6 3.162384701799174e6 0.0
0.0 0.0 0.0

-2.7503718208980663e6 8.686622172015099e6 0.0
8.686622172015099e6 2.4670802123734565e6 0.0
0.0 0.0 0.0

-5.773230601320177e6 9.268174448130997e6 0.0
9.268174448130997e6 2.701393014754775e6 0.0
0.0 0.0 0.0

-1.7761625348794828e6 8.65454249102616e6 0.0
8.65454249102616e6 -2.7369305341734663e6 0.0
0.0 0.0 0.0

-7.704770140503548e6 2.9096535828675055e6 0.0
2.9096535828675055e6 9.626344409428615e6 0.0
0.0 0.0 0.0

-1.0338032600600744e6 9.196125410962507e6 0.0
9.196125410962507e6 -3.655164195845789e6 0.0
0.0 0.0 0.0

-2.6940095609850786e6 9.807402099525332e6 0.0
9.807402099525332e6 179234.71564236202 0.0
0.0 0.0 0.0

-6.894438756748385e6 1.0056497388374617e7 0.0
1.0056497388374617e7 3.633566689624885e6 0.0
0.0 0.0 0.0

715941.1015778913 7.860874117536792e6 0.0
7.860874117536792e6 -4.405553035590082e6 0.0
0.0 0.0 0.0

-698377.474988703 1.0895134380815567e7 0.0
1.0895134380815567e7 -2.840134150836338e6 0.0
0.0 0.0 0.0

-4.2649382899156045e6 8.850910773701e6 0.0
8.850910773701e6 2.078072654404859e6 0.0
0.0 0.0 0.0

-1.438990654183452e6 4.550138194759255e6 0.0
4.550138194759255e6 424153.4192149268 0.0
0.0 0.0 0.0

-3.736659817558337e6 1.0001628165650351e7 0.0
1.0001628165650351e7 1.6170097799101411e6 0.0
0.0 0.0 0.0

-5.728921248124024e6 3.71996424018381e6 0.0
3.71996424018381e6 5.588262772025193e6 0.0
0.0 0.0 0.0

-1.5242678082707976e6 3.504297689433644e6 0.0
3.504297689433644e6 3.328773903947347e6 0.0
0.0 0.0 0.0

-4.036614264619418e6 8.703669312692804e6 0.0
8.703669312692804e6 1.7919310858749521e6 0.0
0.0 0.0 0.0

-2.542691858432566e6 2.9895153038257016e6 0.0
2.9895153038257016e6 1.4420409967286517e6 0.0
0.0 0.0 0.0

-2.8166093236561e6 6.644789115869497e6 0.0
6.644789115869497e6 1.0955065238268955e6 0.0
0.0 0.0 0.0

-2.3764967399983234e6 1.0401283544289036e7 0.0
1.0401283544289036e7 3.370922208744393e6 0.0
0.0 0.0 0.0

398890.3133367875 8.079471364282874e6 0.0
8.079471364282874e6 -6.047030425578646e6 0.0
0.0 0.0 0.0

115757.48502727319 1.3361795688982313e6 0.0
1.3361795688982313e6 -901688.8499464734 0.0
0.0 0.0 0.0

-3.22496946152322e6 1.3309710335352747e7 0.0
1.3309710335352747e7 -1.8606869707223736e6 0.0
0.0 0.0 0.0

-3.02174621871708e6 2.783176850172186e6 0.0
2.783176850172186e6 3.4496228270293875e6 0.0
0.0 0.0 0.0

-1.5537322431716681e6 6.03474298167663e6 0.0
6.03474298167663e6 -2.508381077817369e6 0.0
0.0 0.0 0.0

-2.0654041423333453e6 9.310556230079276e6 0.0
9.310556230079276e6 1.5618796838409305e6 0.0
0.0 0.0 0.0

-2.5274489310218613e6 6.711493757949146e6 0.0
6.711493757949146e6 -459331.38226574863 0.0
0.0 0.0 0.0

-3.5778313414532794e6 7.589071253826043e6 0.0
7.589071253826043e6 2.498924136408545e6 0.0
0.0 0.0 0.0

-971630.6063162521 4.635572040598947e6 0.0
4.635572040598947e6 -1.6455880855048231e6 0.0
0.0 0.0 0.0

-3.2568442128355233e6 9.045665604204291e6 0.0
9.045665604204291e6 1.0615695996822559e6 0.0
0.0 0.0 0.0

-2.9591005144278905e6 6.601350377312509e6 0.0
6.601350377312509e6 1.4537596875997984e6 0.0
0.0 0.0 0.0

-1.0339073897083667e6 1.077727088282127e7 0.0
1.077727088282127e7 -2.6443509220746937e6 0.0
0.0 0.0 0.0

-4.307145082631062e6 8.927757851541825e6 0.0
8.927757851541825e6 1.9279810021013007e6 0.0
0.0 0.0 0.0

-6.890382620025491e6 1.0031826221869655e7 0.0
1.0031826221869655e7 3.6603146176877343e6 0.0
0.0 0.0 0.0

209383.7705157937 8.040939507175856e6 0.0
8.040939507175856e6 -5.587500869908455e6 0.0
0.0 0.0 0.0

-17406.01793904236 332212.6469048155 0.0
332212.6469048155 -1.1645548688420872e6 0.0
0.0 0.0 0.0

-247290.73094134266 4.765707701015102e6 0.0
4.765707701015102e6 -1.54417550457016e6 0.0
0.0 0.0 0.0

1.8166911636573928e6 6.516982911451554e6 0.0
6.516982911451554e6 -7.682924668641469e6 0.0
0.0 0.0 0.0

-3.8465614009723514e6 8.764437149863897e6 0.0
8.764437149863897e6 322916.9255171076 0.0
0.0 0.0 0.0

-3.0512563816627283e6 8.238276144756589e6 0.0
8.238276144756589e6 2.922656086787914e6 0.0
0.0 0.0 0.0

-1.8881257503484006e6 4.1862080910022687e6 0.0
4.1862080910022687e6 719050.6886756043 0.0
0.0 0.0 0.0

-1.1186885059129871e7 1.0131404778868904e7 0.0
1.0131404778868904e7 6.302049002980051e6 0.0
0.0 0.0 0.0

-4.982389409252006e6 2.5203410367223457e6 0.0
2.5203410367223457e6 4.545183062278655e6 0.0
0.0 0.0 0.0

-2.96741360171948e6 2.4349137288640555e7 0.0
2.4349137288640555e7 -709548.1933112587 0.0
0.0 0.0 0.0

-2.798535514997708e6 1.0298630390165146e7 0.0
1.0298630390165146e7 -1.6533310387496683e6 0.0
0.0 0.0 0.0

-958168.8404692301 8.256151560811866e6 0.0
8.256151560811866e6 -3.004912927762877e6 0.0
0.0 0.0 0.0

-2.8640876636338e6 8.69864836314565e6 0.0
8.69864836314565e6 2.1669326358090923e6 0.0
0.0 0.0 0.0

-6.951589139287966e6 3.170175104525353e6 0.0
3.170175104525353e6 7.657562249149766e6 0.0
0.0 0.0 0.0

-3.285468774974418e6 9.77447624238871e6 0.0
9.77447624238871e6 -511871.26122083847 0.0
0.0 0.0 0.0

316335.7617446039 7.41770047807415e6 0.0
7.41770047807415e6 -1.4776489283121692e6 0.0
0.0 0.0 0.0

1.818104768922363e6 5.850903715005709e6 0.0
5.850903715005709e6 -6.066606186261504e6 0.0
0.0 0.0 0.0

-436213.8352440424 5.686050555110951e6 0.0
5.686050555110951e6 -1.2574642640567203e6 0.0
0.0 0.0 0.0

-1.3221832298103336e7 9.764925224053334e6 0.0
9.764925224053334e6 7.747126809601272e6 0.0
0.0 0.0 0.0

-3.411234447783325e6 8.036045597499427e6 0.0
8.036045597499427e6 2.956181026390611e6 0.0
0.0 0.0 0.0

-325611.1109530628 8.812491731532097e6 0.0
8.812491731532097e6 -4.522997074153143e6 0.0
0.0 0.0 0.0

1.8900986284507741e6 7.51442677195523e6 0.0
7.51442677195523e6 -784295.1991497461 0.0
0.0 0.0 0.0

-420785.644042771 4.1915030913825994e6 0.0
4.1915030913825994e6 -1.2740157772406708e6 0.0
0.0 0.0 0.0

-1.477289953632354e6 6.920739071732502e6 0.0
6.920739071732502e6 -1.13865673967137e6 0.0
0.0 0.0 0.0

-225831.47487002215 8.598190429284932e6 0.0
8.598190429284932e6 -4.376408812887942e6 0.0
0.0 0.0 0.0

-1.9990741469702995e6 6.857131894074725e6 0.0
6.857131894074725e6 -1.4891341531983365e6 0.0
0.0 0.0 0.0

-3.0914121141529824e6 6.015947633131093e6 0.0
6.015947633131093e6 1.6380663073227846e6 0.0
0.0 0.0 0.0

-305237.8134728614 8.578466715202497e6 0.0
8.578466715202497e6 -4.805771513050756e6 0.0
0.0 0.0 0.0

-39524.509330974426 7.814872406846927e6 0.0
7.814872406846927e6 -4.428979214600113e6 0.0
0.0 0.0 0.0

-4.1364599204343213e6 8.703224538540801e6 0.0
8.703224538540801e6 2.207705615419195e6 0.0
0.0 0.0 0.0

-807209.9396799379 8.948986944056988e6 0.0
8.948986944056988e6 -3.3767767557892655e6 0.0
0.0 0.0 0.0

-2.2142493795734495e6 3.728090371809446e6 0.0
3.728090371809446e6 1.6620171666956611e6 0.0
0.0 0.0 0.0

4.99069501694688e6 2.1863534639646024e6 0.0
2.1863534639646024e6 -8.006073644897426e6 0.0
0.0 0.0 0.0

-1.4738841061020674e7 7.727599100121491e6 0.0
7.727599100121491e6 5.8093206661727745e6 0.0
0.0 0.0 0.0

10536.21161599853 2.4263423153513623e6 0.0
2.4263423153513623e6 -3.9382306821015975e6 0.0
0.0 0.0 0.0

5.528828794417301e6 316748.73396987777 0.0
316748.73396987777 -8.529752231709238e6 0.0
0.0 0.0 0.0

-4.0434747649019863e6 8.97484714388729e6 0.0
8.97484714388729e6 2.0301490652006234e6 0.0
0.0 0.0 0.0

-229740.89389188695 6.573507143563528e6 0.0
6.573507143563528e6 -765802.8727204235 0.0
0.0 0.0 0.0

1.0041308458617004e6 9.924426742374683e6 0.0
9.924426742374683e6 -3.6323473846424995e6 0.0
0.0 0.0 0.0

-4.2647638280313425e6 7.58771708602251e6 0.0
7.58771708602251e6 4.655031840680517e6 0.0
0.0 0.0 0.0

-4.3818861055523865e6 8.481503611737002e6 0.0
8.481503611737002e6 4.879546207660302e6 0.0
0.0 0.0 0.0

-2.758901281161978e6 1.1363862138476739e7 0.0
1.1363862138476739e7 4.832164390987193e6 0.0
0.0 0.0 0.0

-565626.2560461279 9.566306519307079e6 0.0
9.566306519307079e6 -565503.2609252041 0.0
0.0 0.0 0.0

-3.3758252125612833e6 7.818983392377759e6 0.0
7.818983392377759e6 2.8690771913597966e6 0.0
0.0 0.0 0.0

-2.1084353068542355e6 6.341215831104743e6 0.0
6.341215831104743e6 152052.91692530923 0.0
0.0 0.0 0.0

-259513.55158794113 8.58954349226862e6 0.0
8.58954349226862e6 -4.549366528089274e6 0.0
0.0 0.0 0.0

-4.25654023124787e6 8.879052930359913e6 0.0
8.879052930359913e6 2.0300569015840215e6 0.0
0.0 0.0 0.0

-5.111344291965716e6 3.056375144413009e6 0.0
3.056375144413009e6 5.181669882273052e6 0.0
0.0 0.0 0.0

-996384.4652585883 1.3121491062955942e7 0.0
1.3121491062955942e7 -3.330022375534776e6 0.0
0.0 0.0 0.0

-2.6924366279330673e6 1.0149568314947864e7 0.0
1.0149568314947864e7 -1.2786721139738862e6 0.0
0.0 0.0 0.0

196885.85952922585 6.653552707098799e6 0.0
6.653552707098799e6 -4.1808974945600554e6 0.0
0.0 0.0 0.0

-1.741371268397462e6 1.1941077434581304e7 0.0
1.1941077434581304e7 -2.211291777339923e6 0.0
0.0 0.0 0.0

-5.267720489238026e6 8.978305039290866e6 0.0
8.978305039290866e6 2.2401372561317435e6 0.0
0.0 0.0 0.0

-383856.9698001471 5.4437255198103525e6 0.0
5.4437255198103525e6 -1.2795229560870384e6 0.0
0.0 0.0 0.0

3.1444521775919623e6 1.253321869530081e7 0.0
1.253321869530081e7 1.048151750818051e7 0.0
0.0 0.0 0.0

-4.619908490535735e6 -1.4068085614701852e6 0.0
-1.4068085614701852e6 5.735475807252722e6 0.0
0.0 0.0 0.0

-147052.9649578841 7.679841499338021e6 0.0
7.679841499338021e6 -776591.5989981397 0.0
0.0 0.0 0.0

-410210.05576685874 813366.5814538931 0.0
813366.5814538931 162084.69970477853 0.0
0.0 0.0 0.0

-5.5384665589799285e6 9.543490593927506e6 0.0
9.543490593927506e6 2.0954702970627267e6 0.0
0.0 0.0 0.0

-3.821627969501099e6 1.2201490730104333e7 0.0
1.2201490730104333e7 -980713.603852244 0.0
0.0 0.0 0.0

-1.2235660682554945e7 1.0130816540476346e7 0.0
1.0130816540476346e7 6.881209553267315e6 0.0
0.0 0.0 0.0

-4.069610301039098e6 7.337583106815534e6 0.0
7.337583106815534e6 5.413268888425187e6 0.0
0.0 0.0 0.0

-4.1313883492645593e6 2.920859803420107e6 0.0
2.920859803420107e6 5.115317676299038e6 0.0
0.0 0.0 0.0

-5.825372311626781e6 9.51299842380215e6 0.0
9.51299842380215e6 2.4642486195213986e6 0.0
0.0 0.0 0.0

-3.188291543230276e6 6.967064727203482e6 0.0
6.967064727203482e6 1.4039049963100743e6 0.0
0.0 0.0 0.0

-3.7649175117472517e6 8.549787268785007e6 0.0
8.549787268785007e6 1.562294782117477e6 0.0
0.0 0.0 0.0

1.2749597277894584e6 7.247571234214617e6 0.0
7.247571234214617e6 -6.642127853298793e6 0.0
0.0 0.0 0.0

-4.0517863271016297e6 8.67741848109947e6 0.0
8.67741848109947e6 2.249504522692537e6 0.0
0.0 0.0 0.0

-89720.39920781786 9.21899269808675e6 0.0
9.21899269808675e6 4.091323821981454e6 0.0
0.0 0.0 0.0

-393417.44781835435 7.880158704535388e6 0.0
7.880158704535388e6 -3.7479451989334915e6 0.0
0.0 0.0 0.0

-1.0234322008122772e7 -3.8557677887866492e6 0.0
-3.8557677887866492e6 1.5068974197401384e7 0.0
0.0 0.0 0.0

-6.096387892455298e6 9.58713283070237e6 0.0
9.58713283070237e6 3.126113657548532e6 0.0
0.0 0.0 0.0

580470.8374795434 7.792687693326151e6 0.0
7.792687693326151e6 -920830.0769856592 0.0
0.0 0.0 0.0

-2.3714217482205793e7 2.351235422609124e7 0.0
2.351235422609124e7 -7.948943289053152e6 0.0
0.0 0.0 0.0

1.8261927243471618e6 6.668397407325535e6 0.0
6.668397407325535e6 -4.562981453251822e6 0.0
0.0 0.0 0.0

-3.0833117468190715e6 7.290217396229965e6 0.0
7.290217396229965e6 511363.79908644455 0.0
0.0 0.0 0.0

-4.978293302226964e6 8.181941998104753e6 0.0
8.181941998104753e6 1.1687543082497148e6 0.0
0.0 0.0 0.0

-386341.0486818515 9.675943001629254e6 0.0
9.675943001629254e6 -3.6565327787987334e6 0.0
0.0 0.0 0.0

-2.5732244254196314e6 1.0384611940969018e7 0.0
1.0384611940969018e7 -1.989768036159485e6 0.0
0.0 0.0 0.0

2.777166833040335e6 9.656415363598632e6 0.0
9.656415363598632e6 -4.441629650154939e6 0.0
0.0 0.0 0.0

-7.919178545679597e6 9.952033375038046e6 0.0
9.952033375038046e6 4.422907798441669e6 0.0
0.0 0.0 0.0

-3.2408066246390287e6 9.072724770928696e6 0.0
9.072724770928696e6 1.3617453992826878e6 0.0
0.0 0.0 0.0

1.706282501021882e6 6.610671764832672e6 0.0
6.610671764832672e6 -6.974933100677231e6 0.0
0.0 0.0 0.0

-1.1640513043430826e7 1.0459346508713672e7 0.0
1.0459346508713672e7 1.762826641903154e6 0.0
0.0 0.0 0.0

-2.8735179588344973e6 6.907564798376777e6 0.0
6.907564798376777e6 1.481609442974173e6 0.0
0.0 0.0 0.0

-3.282564045529874e6 1.2132114492667584e7 0.0
1.2132114492667584e7 -1.337165797557671e6 0.0
0.0 0.0 0.0

-5.978779121543808e6 9.146898125794362e6 0.0
9.146898125794362e6 7.25775235186236e6 0.0
0.0 0.0 0.0

2.283956019413938e6 1.1454260329019694e7 0.0
1.1454260329019694e7 -5.40419183737584e6 0.0
0.0 0.0 0.0

-3.4078251677493653e6 8.393777817241373e6 0.0
8.393777817241373e6 1.9517258247866554e6 0.0
0.0 0.0 0.0

-2.4194712582287593e6 7.449477031051663e6 0.0
7.449477031051663e6 -1.7754992403998198e6 0.0
0.0 0.0 0.0

-882904.5635004203 5.565796532786779e6 0.0
5.565796532786779e6 2.2869653509796183e6 0.0
0.0 0.0 0.0

-336529.4153045373 1.0855121535401795e7 0.0
1.0855121535401795e7 -2.979012826910195e6 0.0
0.0 0.0 0.0

-3.624750747695053e6 8.061580793072268e6 0.0
8.061580793072268e6 3.663917895328499e6 0.0
0.0 0.0 0.0

-1.081931547753314e7 -672896.6716380205 0.0
-672896.6716380205 2.0660520050327778e7 0.0
0.0 0.0 0.0

-9.791470979701737e6 -7.195614985044364e6 0.0
-7.195614985044364e6 2.0938338326583035e7 0.0
0.0 0.0 0.0

-2.7902184248700067e6 8.100200850749328e6 0.0
8.100200850749328e6 -1.3109649084979638e6 0.0
0.0 0.0 0.0

-584836.4663300805 1.0190260690028628e7 0.0
1.0190260690028628e7 -3.1840796323899985e6 0.0
0.0 0.0 0.0

-2.367501080668723e6 1.047555985258934e7 0.0
1.047555985258934e7 -2.235056882195491e6 0.0
0.0 0.0 0.0

-3.7405112497200696e6 9.716678351011753e6 0.0
9.716678351011753e6 39312.8188946303 0.0
0.0 0.0 0.0

3.338647281763173e6 7.442730750941627e6 0.0
7.442730750941627e6 -862395.0864681988 0.0
0.0 0.0 0.0

-3.7908307376934066e6 7.296415794390055e6 0.0
7.296415794390055e6 3.0569022153073167e6 0.0
0.0 0.0 0.0

-2.0035479090261152e6 1.0534674070103196e7 0.0
1.0534674070103196e7 -2.4835213661127593e6 0.0
0.0 0.0 0.0

-2.3100143948978065e6 6.587580775681759e6 0.0
6.587580775681759e6 -1.5085342357569272e6 0.0
0.0 0.0 0.0

-621132.4398988675 2.1802574562278083e6 0.0
2.1802574562278083e6 -112503.7211947733 0.0
0.0 0.0 0.0

116804.61717532482 7.998427366812649e6 0.0
7.998427366812649e6 -5.461234300892201e6 0.0
0.0 0.0 0.0

-2.223108982571075e6 743232.4603593529 0.0
743232.4603593529 1.3933967191261784e6 0.0
0.0 0.0 0.0

-633681.8260050421 1.4866500414979216e6 0.0
1.4866500414979216e6 -16227.790886946983 0.0
0.0 0.0 0.0

-918733.6569530285 1.3061130979432003e6 0.0
1.3061130979432003e6 343574.78439692786 0.0
0.0 0.0 0.0

-1.4363556517303374e6 7.3132814894649945e6 0.0
7.3132814894649945e6 -1.1970377326953544e6 0.0
0.0 0.0 0.0

-1.5162161341214909e6 8.506257299446777e6 0.0
8.506257299446777e6 -2.9968717207626808e6 0.0
0.0 0.0 0.0

359613.1235810423 7.971925655503269e6 0.0
7.971925655503269e6 -5.415904717757175e6 0.0
0.0 0.0 0.0

-1.178790416444736e6 1.0010304711638417e7 0.0
1.0010304711638417e7 -14327.864178075339 0.0
0.0 0.0 0.0

-1.5973461097110463e6 1.1294220399900388e7 0.0
1.1294220399900388e7 -2.545015727891286e6 0.0
0.0 0.0 0.0

1.4943329178712643e6 9.276669158699907e6 0.0
9.276669158699907e6 -3.515484992576922e6 0.0
0.0 0.0 0.0

-4.659167100547698e6 8.76507070414952e6 0.0
8.76507070414952e6 1.4470047385071698e6 0.0
0.0 0.0 0.0

6.267433743454498e6 1.1070575698225413e7 0.0
1.1070575698225413e7 188301.12524527148 0.0
0.0 0.0 0.0

-3.292633073358581e6 5.425131056268251e6 0.0
5.425131056268251e6 7.468620209671898e6 0.0
0.0 0.0 0.0

465298.42506912095 1.042161535158183e7 0.0
1.042161535158183e7 -3.44547153410556e6 0.0
0.0 0.0 0.0

-2.7449988760202955e6 1.2285713861792045e7 0.0
1.2285713861792045e7 -848340.9837234362 0.0
0.0 0.0 0.0

-6.136641592653129e6 9.55826627498272e6 0.0
9.55826627498272e6 2.9774312495240024e6 0.0
0.0 0.0 0.0

-908589.4873643708 9.22620379641528e6 0.0
9.22620379641528e6 -3.251505773150607e6 0.0
0.0 0.0 0.0

-4.73234401126296e6 8.540347729143946e6 0.0
8.540347729143946e6 198077.6804635115 0.0
0.0 0.0 0.0

-4.1470323783093356e6 9.05147456143856e6 0.0
9.05147456143856e6 2.0935826342124352e6 0.0
0.0 0.0 0.0

2.58112034632261e6 4.949801925710284e6 0.0
4.949801925710284e6 -3.8874574880007408e6 0.0
0.0 0.0 0.0

-5.368765098287605e6 8.922690244247058e6 0.0
8.922690244247058e6 1.946411960658444e6 0.0
0.0 0.0 0.0

-1.4453651107990392e7 9.367532234195527e6 0.0
9.367532234195527e6 8.547422569398522e6 0.0
0.0 0.0 0.0

-616400.3909151587 6.571917241172292e6 0.0
6.571917241172292e6 -3.9269498726914614e6 0.0
0.0 0.0 0.0

-202453.18808301236 7.923476841494683e6 0.0
7.923476841494683e6 -4.1215649872371876e6 0.0
0.0 0.0 0.0

193239.40566635574 7.903142805887384e6 0.0
7.903142805887384e6 -5.142568012576183e6 0.0
0.0 0.0 0.0

275700.88023984525 8.052852675770981e6 0.0
8.052852675770981e6 -5.416738771646913e6 0.0
0.0 0.0 0.0

-7.16471946617967e6 1.4823539159309292e7 0.0
1.4823539159309292e7 2.46774500002765e6 0.0
0.0 0.0 0.0

-1.643828050055442e6 1.053652450980447e7 0.0
1.053652450980447e7 -2.7942181150255334e6 0.0
0.0 0.0 0.0

-2.2135568196647363e6 1.070760942942782e7 0.0
1.070760942942782e7 3.7273735130731054e6 0.0
0.0 0.0 0.0

-1.0659793423324574e7 1.2460418639852547e6 0.0
1.2460418639852547e6 5.435592029986515e6 0.0
0.0 0.0 0.0

-1.9601114826285135e7 1.1745247491150407e7 0.0
1.1745247491150407e7 6.003271161539536e6 0.0
0.0 0.0 0.0

1.6845368729631496e6 6.940449539218101e6 0.0
6.940449539218101e6 -7.405412150985221e6 0.0
0.0 0.0 0.0

27717.792046697577 1.0792585127721919e7 0.0
1.0792585127721919e7 -3.240307016036687e6 0.0
0.0 0.0 0.0

-2.50852372654506e6 1.2170951531908805e7 0.0
1.2170951531908805e7 -1.8760986966812448e6 0.0
0.0 0.0 0.0

3.9096660080585084e6 4.1448852743584896e6 0.0
4.1448852743584896e6 -4.6182510647182455e6 0.0
0.0 0.0 0.0

-5.210660234326309e6 9.616095431422098e6 0.0
9.616095431422098e6 384762.809903604 0.0
0.0 0.0 0.0

-1.8165031545916179e6 9.096950888739012e6 0.0
9.096950888739012e6 2.154233553924474e6 0.0
0.0 0.0 0.0

-4.1365271833766103e6 6.412760056906066e6 0.0
6.412760056906066e6 7.748873253126381e6 0.0
0.0 0.0 0.0

-108372.72684415107 980346.5531925777 0.0
980346.5531925777 -141353.28446356382 0.0
0.0 0.0 0.0

-478780.15864094975 8.636322460513987e6 0.0
8.636322460513987e6 -3.8980576394004337e6 0.0
0.0 0.0 0.0

-540033.2006403685 6.601099496481609e6 0.0
6.601099496481609e6 -3.7020526681120037e6 0.0
0.0 0.0 0.0

-769608.9650176894 3.572469602071335e6 0.0
3.572469602071335e6 -1.4270506969308013e6 0.0
0.0 0.0 0.0

-325157.4595991359 989940.9911230138 0.0
989940.9911230138 -891026.6700624712 0.0
0.0 0.0 0.0

-9.692246668829273e6 1.2714712157851862e7 0.0
1.2714712157851862e7 2.4832092264893316e7 0.0
0.0 0.0 0.0

-7.786279618560953e6 -150654.63968438457 0.0
-150654.63968438457 9.351442696959795e6 0.0
0.0 0.0 0.0

-6.2450936205017455e6 1.118342250126739e7 0.0
1.118342250126739e7 2.5644375727648246e6 0.0
0.0 0.0 0.0

-2.967409569336499e6 7.284670869265217e6 0.0
7.284670869265217e6 511246.0646552779 0.0
0.0 0.0 0.0

-162625.7919966702 8.280781165907883e6 0.0
8.280781165907883e6 -4.359014089076127e6 0.0
0.0 0.0 0.0

-2.470619031981352e6 1.155566828972272e7 0.0
1.155566828972272e7 -1.2227879324813616e6 0.0
0.0 0.0 0.0

-4.169507007627284e6 8.840504574501581e6 0.0
8.840504574501581e6 2.0632571823795098e6 0.0
0.0 0.0 0.0

-1.0427042501318082e7 1.5290621673490232e7 0.0
1.5290621673490232e7 6.92704133242801e6 0.0
0.0 0.0 0.0

1.861041548775932e6 834376.1277788002 0.0
834376.1277788002 -3.158089477179048e6 0.0
0.0 0.0 0.0

-676589.9371305025 2.186716297257961e6 0.0
2.186716297257961e6 18220.21911832309 0.0
0.0 0.0 0.0

-537111.1795026069 9.834089076458279e6 0.0
9.834089076458279e6 -580213.8302310462 0.0
0.0 0.0 0.0

-4.425458037367359e6 8.845456791264882e6 0.0
8.845456791264882e6 2.1942599510124936e6 0.0
0.0 0.0 0.0

-2.254244983393357e6 8.89771642935514e6 0.0
8.89771642935514e6 2.9079252328459616e6 0.0
0.0 0.0 0.0

-2.2383950371022234e6 3.329943175464311e6 0.0
3.329943175464311e6 1.8871184973741518e6 0.0
0.0 0.0 0.0

-358166.45369645616 8.225194998649807e6 0.0
8.225194998649807e6 -3.9624747782720174e6 0.0
0.0 0.0 0.0

-4.3488648249749094e7 2.8671953761156066e6 0.0
2.8671953761156066e6 9.465393871504985e6 0.0
0.0 0.0 0.0

-2.3995096897837594e6 2.7927329479337414e6 0.0
2.7927329479337414e6 2.154987165930177e6 0.0
0.0 0.0 0.0

-4.371454264788747e6 9.004626762184743e6 0.0
9.004626762184743e6 2.150820929851655e6 0.0
0.0 0.0 0.0

-675039.8267938117 9.095923833314115e6 0.0
9.095923833314115e6 -3.501928691846936e6 0.0
0.0 0.0 0.0

26982.036398078315 8.111683339566121e6 0.0
8.111683339566121e6 -5.411722190491657e6 0.0
0.0 0.0 0.0

-1.0121658993207296e7 1.3969620160050143e7 0.0
1.3969620160050143e7 6.51331905213339e6 0.0
0.0 0.0 0.0

-108520.00515833474 8.245870210523797e6 0.0
8.245870210523797e6 -5.19540688072412e6 0.0
0.0 0.0 0.0

-1.228422268941579e6 1.0411201643718533e7 0.0
1.0411201643718533e7 -3.04548728839601e6 0.0
0.0 0.0 0.0

-358117.8757744195 9.78214920117997e6 0.0
9.78214920117997e6 -573656.5166472805 0.0
0.0 0.0 0.0

-8.339992793436011e6 1.101934348712069e7 0.0
1.101934348712069e7 4.509174725605545e6 0.0
0.0 0.0 0.0

-4.4504033294871915e6 8.643072393053042e6 0.0
8.643072393053042e6 1.9933534061639176e6 0.0
0.0 0.0 0.0

-520234.4937534777 8.507712245433368e6 0.0
8.507712245433368e6 -3.758601776289047e6 0.0
0.0 0.0 0.0

-2.3977357209621067e6 9.915097340229841e6 0.0
9.915097340229841e6 -1.7251420708393862e6 0.0
0.0 0.0 0.0

-4.797911139634829e6 8.98143816539658e6 0.0
8.98143816539658e6 2.0542090777340666e6 0.0
0.0 0.0 0.0

-4.306005823683003e6 9.08888358676433e6 0.0
9.08888358676433e6 2.0777918342255617e6 0.0
0.0 0.0 0.0

212525.778278127 1.297149264730914e6 0.0
1.297149264730914e6 221012.88076510438 0.0
0.0 0.0 0.0

-2.9270556246890454e6 6.015326971365687e6 0.0
6.015326971365687e6 2.187834741766505e6 0.0
0.0 0.0 0.0

-203637.85492774984 8.381553135168358e6 0.0
8.381553135168358e6 -5.012286760959545e6 0.0
0.0 0.0 0.0

4.642089402005904e6 9.109383880161231e6 0.0
9.109383880161231e6 -4.184464363204466e6 0.0
0.0 0.0 0.0

-434006.9812268743 8.69843765803855e6 0.0
8.69843765803855e6 -4.047994873390818e6 0.0
0.0 0.0 0.0

281297.76137433434 8.341549026122138e6 0.0
8.341549026122138e6 -3.5166840183293186e6 0.0
0.0 0.0 0.0

-4.502603225162964e6 2.7894531627432443e6 0.0
2.7894531627432443e6 5.896267283575143e6 0.0
0.0 0.0 0.0

-4.72422377760492e6 7.465292222766102e6 0.0
7.465292222766102e6 1.8049351164152718e6 0.0
0.0 0.0 0.0

93298.97075383645 7.965314835842211e6 0.0
7.965314835842211e6 -3.9348429476230266e6 0.0
0.0 0.0 0.0

-240413.52284899168 9.787600642353795e6 0.0
9.787600642353795e6 -3.6397337805402754e6 0.0
0.0 0.0 0.0

-1.712437001247239e7 9.850675065039475e6 0.0
9.850675065039475e6 9.835078749007672e6 0.0
0.0 0.0 0.0

-1.5944798731220024e7 -375150.7381248065 0.0
-375150.7381248065 7.1393811077182535e6 0.0
0.0 0.0 0.0

-7.04863142603557e6 1.176563514143736e7 0.0
1.176563514143736e7 2.22282644191473e6 0.0
0.0 0.0 0.0

-1.5724874008307617e7 9.658916648492817e6 0.0
9.658916648492817e6 9.230562012106411e6 0.0
0.0 0.0 0.0

-5.208602757450119e6 2.1280999866467323e7 0.0
2.1280999866467323e7 4.538415637216995e6 0.0
0.0 0.0 0.0

-104700.3124895969 8.200843589305539e6 0.0
8.200843589305539e6 -5.187541188612439e6 0.0
0.0 0.0 0.0

-1.1173691039258733e6 8.189651848479475e6 0.0
8.189651848479475e6 -5.325799376517277e6 0.0
0.0 0.0 0.0

-3.715586984742775e6 8.817124367187662e6 0.0
8.817124367187662e6 1.8918840944607696e6 0.0
0.0 0.0 0.0

-4.1437915007486045e6 2.901180688612041e6 0.0
2.901180688612041e6 3.496356477812455e6 0.0
0.0 0.0 0.0

-3.8519904058801252e6 8.860309328840544e6 0.0
8.860309328840544e6 751344.9059796985 0.0
0.0 0.0 0.0

-794001.3417876853 7.240855353789662e6 0.0
7.240855353789662e6 -44613.443425442034 0.0
0.0 0.0 0.0

-2.4526903556269435e6 7.094897325378021e6 0.0
7.094897325378021e6 -1.0147749908663749e6 0.0
0.0 0.0 0.0

-1.062556395211148e7 1.6689800454172049e7 0.0
1.6689800454172049e7 7.194302269257248e6 0.0
0.0 0.0 0.0

-2.6511165399413053e6 1.1512233151749622e7 0.0
1.1512233151749622e7 -1.832738058645341e6 0.0
0.0 0.0 0.0

435666.6583961928 9.723862308872629e6 0.0
9.723862308872629e6 -3.328246094434033e6 0.0
0.0 0.0 0.0

2.7092867526133694e6 5.951195504310523e6 0.0
5.951195504310523e6 -6.660703195764684e6 0.0
0.0 0.0 0.0

-4.0923282282247315e6 8.772352490473747e6 0.0
8.772352490473747e6 2.0907213339375397e6 0.0
0.0 0.0 0.0

-2.9039290139529034e6 7.829549396089582e6 0.0
7.829549396089582e6 322777.92707437696 0.0
0.0 0.0 0.0

-827420.2154914602 6.134122722420754e6 0.0
6.134122722420754e6 -2.5994638124987944e6 0.0
0.0 0.0 0.0

172381.7931050437 8.110134490856585e6 0.0
8.110134490856585e6 -5.413586317209911e6 0.0
0.0 0.0 0.0

-2.389615556243542e6 8.982400889819164e6 0.0
8.982400889819164e6 1.8608984340474922e6 0.0
0.0 0.0 0.0

-2.9556674837731817e6 8.582705015177282e6 0.0
8.582705015177282e6 3.9490671556732627e6 0.0
0.0 0.0 0.0

-726899.2497929322 9.257940137283463e6 0.0
9.257940137283463e6 -894573.2148280322 0.0
0.0 0.0 0.0

-1.9116646500545563e6 1.2423769468696447e7 0.0
1.2423769468696447e7 -1.6247895556857768e6 0.0
0.0 0.0 0.0

-3.930023046700064e6 8.472943357960511e6 0.0
8.472943357960511e6 2.1652314640893023e6 0.0
0.0 0.0 0.0

-8.671394503989678e6 -1.6387227325084421e6 0.0
-1.6387227325084421e6 1.3193163364426259e7 0.0
0.0 0.0 0.0

-1.615630200512537e6 7.055488382608661e6 0.0
7.055488382608661e6 -946434.2121440403 0.0
0.0 0.0 0.0

-480111.22502482473 9.446454548684742e6 0.0
9.446454548684742e6 -612106.140727111 0.0
0.0 0.0 0.0

-4.1827969922558977e6 8.956110591760242e6 0.0
8.956110591760242e6 1.9826021770585503e6 0.0
0.0 0.0 0.0

-3.2239974625924453e6 7.050725578557338e6 0.0
7.050725578557338e6 2.177273810144564e6 0.0
0.0 0.0 0.0

-611127.3267721114 7.378292744553283e6 0.0
7.378292744553283e6 -3.232065327103576e6 0.0
0.0 0.0 0.0

-5.714936974085364e6 9.388894278465647e6 0.0
9.388894278465647e6 2.8890635672100834e6 0.0
0.0 0.0 0.0

-9.04050199758472e6 1.169685305308761e7 0.0
1.169685305308761e7 4.947260899787878e6 0.0
0.0 0.0 0.0

-3.7300377806384736e6 8.538334265690355e6 0.0
8.538334265690355e6 952601.7898031492 0.0
0.0 0.0 0.0

-563415.813442612 8.189901575471924e6 0.0
8.189901575471924e6 -3.5782678609545026e6 0.0
0.0 0.0 0.0

-6.063436767735706e6 9.404144881451236e6 0.0
9.404144881451236e6 2.7313407689764295e6 0.0
0.0 0.0 0.0

-3.502629444787819e6 1.1810342410464551e7 0.0
1.1810342410464551e7 -1.131292941917012e6 0.0
0.0 0.0 0.0

-3.28762026705911e6 9.222564874570033e6 0.0
9.222564874570033e6 4.035054806045288e6 0.0
0.0 0.0 0.0

-3.5404588687323583e6 8.477006201296445e6 0.0
8.477006201296445e6 953966.2547623613 0.0
0.0 0.0 0.0

-4.843129991255466e6 9.397946847901631e6 0.0
9.397946847901631e6 2.4984958608391685e6 0.0
0.0 0.0 0.0

-4.0230732350394656e6 -555488.3807768986 0.0
-555488.3807768986 5.6737406543063205e6 0.0
0.0 0.0 0.0

-8.596366070668722e6 1.1334635590625666e7 0.0
1.1334635590625666e7 4.780204573961218e6 0.0
0.0 0.0 0.0

2.7330600490033645e6 5.84310933576797e6 0.0
5.84310933576797e6 -6.618449946927212e6 0.0
0.0 0.0 0.0

-5.350505060337951e6 9.3749869751842e6 0.0
9.3749869751842e6 1.4240620074344182e6 0.0
0.0 0.0 0.0

-2.0018675234513283e6 634597.6099227101 0.0
634597.6099227101 2.5322017633281257e6 0.0
0.0 0.0 0.0

3302.55291131814 7.474709488201694e6 0.0
7.474709488201694e6 -3.7840337688439516e6 0.0
0.0 0.0 0.0

-3.7740816009776196e6 8.67488378892714e6 0.0
8.67488378892714e6 1.09513383693695e6 0.0
0.0 0.0 0.0

-1.2836394646413694e6 1.0087818283600504e7 0.0
1.0087818283600504e7 -157975.56588262744 0.0
0.0 0.0 0.0

-2.0951731975697326e6 1.0053165710392008e7 0.0
1.0053165710392008e7 464876.4712961253 0.0
0.0 0.0 0.0

-249177.2958268223 9.012834068534661e6 0.0
9.012834068534661e6 -4.331861593617413e6 0.0
0.0 0.0 0.0

-5.832388733845919e6 3.305287765495548e6 0.0
3.305287765495548e6 6.365409358987579e6 0.0
0.0 0.0 0.0

-1.5657374174001596e6 7.372328453926466e6 0.0
7.372328453926466e6 1.2556495589178044e6 0.0
0.0 0.0 0.0

516566.8934369574 6.871782117652951e6 0.0
6.871782117652951e6 -4.758877942003718e6 0.0
0.0 0.0 0.0

-2.3698033116382333e6 9.66382305726487e6 0.0
9.66382305726487e6 3.463202357053297e6 0.0
0.0 0.0 0.0

-253621.0218984438 9.52089147970379e6 0.0
9.52089147970379e6 -6.515867393774186e6 0.0
0.0 0.0 0.0

-2.719921768251366e6 6.575784160070661e6 0.0
6.575784160070661e6 1.4479467911063083e6 0.0
0.0 0.0 0.0

-5.972750293222098e6 9.42586808706531e6 0.0
9.42586808706531e6 2.8921721248730714e6 0.0
0.0 0.0 0.0

-3.62828712108624e6 7.97090921741754e6 0.0
7.97090921741754e6 906936.7536336936 0.0
0.0 0.0 0.0

-2.39672089737339e6 1.0448848361764876e7 0.0
1.0448848361764876e7 -1.418471442877932e6 0.0
0.0 0.0 0.0

-465376.98587208294 1.0539111982322901e7 0.0
1.0539111982322901e7 -3.135049181873892e6 0.0
0.0 0.0 0.0

-3.9397558210124387e6 8.78851228912751e6 0.0
8.78851228912751e6 2.0438453207659875e6 0.0
0.0 0.0 0.0

-2.8503447817253876e6 8.641843212074019e6 0.0
8.641843212074019e6 2.153246066086861e6 0.0
0.0 0.0 0.0

-3.290486023339155e6 8.509220910572248e6 0.0
8.509220910572248e6 3.825818893139825e6 0.0
0.0 0.0 0.0

-523861.5547481609 8.175277663867911e6 0.0
8.175277663867911e6 -4.778945583132924e6 0.0
0.0 0.0 0.0

-1.290841511562976e6 8.367492907874349e6 0.0
8.367492907874349e6 -3.1767563520257827e6 0.0
0.0 0.0 0.0

-1.9725410161450107e6 9.288638178928364e6 0.0
9.288638178928364e6 1.5350844921104223e6 0.0
0.0 0.0 0.0

910935.6519771032 7.473284160627039e6 0.0
7.473284160627039e6 -6.205780854350199e6 0.0
0.0 0.0 0.0

-2.0736390792499594e6 9.171039662326766e6 0.0
9.171039662326766e6 424845.1800986186 0.0
0.0 0.0 0.0

-9.496636506954892e6 1.211306664432667e7 0.0
1.211306664432667e7 5.324661047069514e6 0.0
0.0 0.0 0.0

-1.7203052266761793e6 9.389148942090603e6 0.0
9.389148942090603e6 2.3601781016775863e6 0.0
0.0 0.0 0.0

4.723422161062995e6 1.5686099139914557e7 0.0
1.5686099139914557e7 1.5744718693009658e7 0.0
0.0 0.0 0.0

-2.041760005977394e6 9.868893133594507e6 0.0
9.868893133594507e6 -6.805863772683949e6 0.0
0.0 0.0 0.0

-2.955790290940475e6 7.559366009628185e6 0.0
7.559366009628185e6 193102.3276592543 0.0
0.0 0.0 0.0

-1.4284818868507065e7 7.894775223689405e6 0.0
7.894775223689405e6 9.275075374038922e6 0.0
0.0 0.0 0.0

-4.6375131209659595e6 8.440798628734374e6 0.0
8.440798628734374e6 1.0691809744134154e6 0.0
0.0 0.0 0.0

-1.737628930357318e6 9.517644885659048e6 0.0
9.517644885659048e6 1.1004046372108783e6 0.0
0.0 0.0 0.0

-2.3381867013278296e6 9.459213218212774e6 0.0
9.459213218212774e6 3.2043213333311738e6 0.0
0.0 0.0 0.0

-2.47076836909617e6 1.2410933522845387e7 0.0
1.2410933522845387e7 6.976587233351728e6 0.0
0.0 0.0 0.0

976050.6745843196 7.36885792134813e6 0.0
7.36885792134813e6 465137.66511144734 0.0
0.0 0.0 0.0

-1.4230286638031253e6 1.0564967606876733e7 0.0
1.0564967606876733e7 2.442240199125792e6 0.0
0.0 0.0 0.0

-2.975269892927306e6 1.2422730170783592e7 0.0
1.2422730170783592e7 -1.6349014200130343e6 0.0
0.0 0.0 0.0

-1.0934240225126036e6 9.419578526732022e6 0.0
9.419578526732022e6 905984.6183606267 0.0
0.0 0.0 0.0

-1.9254606465957565e6 9.333039381270537e6 0.0
9.333039381270537e6 1.6768160780353714e6 0.0
0.0 0.0 0.0

-7.229180242587148e6 1.1812990204053001e7 0.0
1.1812990204053001e7 3.471809373046089e6 0.0
0.0 0.0 0.0

-2.585719138007084e6 8.003367250308985e6 0.0
8.003367250308985e6 2.1960721393542653e6 0.0
0.0 0.0 0.0

906230.180700049 4.90422917881887e6 0.0
4.90422917881887e6 -4.634749543013091e6 0.0
0.0 0.0 0.0

-2.142805553094479e6 4.9596316828331705e6 0.0
4.9596316828331705e6 1.0676329965497218e6 0.0
0.0 0.0 0.0

132800.8769948021 1.0365612266634988e6 0.0
1.0365612266634988e6 331878.3233856548 0.0
0.0 0.0 0.0

-3.3527236617377615e6 8.0807105426779995e6 0.0
8.0807105426779995e6 2.6784620788623895e6 0.0
0.0 0.0 0.0

-6.309006886408932e6 9.909195314088339e6 0.0
9.909195314088339e6 2.948893272496295e6 0.0
0.0 0.0 0.0

150371.9095870168 1.1579586936409973e7 0.0
1.1579586936409973e7 4.687483577387342e6 0.0
0.0 0.0 0.0

-1.2251602486153187e6 9.61770170071899e6 0.0
9.61770170071899e6 1.680954310301145e6 0.0
0.0 0.0 0.0

-4.9968304957127925e6 9.37874077191989e6 0.0
9.37874077191989e6 2.570572713452439e6 0.0
0.0 0.0 0.0

6.000221100006664e6 1.74341515331827e6 0.0
1.74341515331827e6 -7.6832333757048845e6 0.0
0.0 0.0 0.0

-5.585890676435442e6 9.349508879949974e6 0.0
9.349508879949974e6 1.8340205374531187e6 0.0
0.0 0.0 0.0

-197295.62499960617 6.918609693939353e6 0.0
6.918609693939353e6 -3.6316728486550106e6 0.0
0.0 0.0 0.0

-4.485052759838334e6 8.940452648566015e6 0.0
8.940452648566015e6 1.7953381646049984e6 0.0
0.0 0.0 0.0

-4.241664268881225e6 1.266256184987871e7 0.0
1.266256184987871e7 -778267.8374810488 0.0
0.0 0.0 0.0

-3.1063950701211644e6 9.249626148710174e6 0.0
9.249626148710174e6 385926.4885843457 0.0
0.0 0.0 0.0

1.9018585623514606e6 6.095947642356511e6 0.0
6.095947642356511e6 -7.252557855082102e6 0.0
0.0 0.0 0.0

1.7336651177237465e6 8.5222062793064e6 0.0
8.5222062793064e6 -2.9149432041855487e6 0.0
0.0 0.0 0.0

-5.32435840914782e6 1.0491101340241812e7 0.0
1.0491101340241812e7 1.823374543802491e6 0.0
0.0 0.0 0.0

-3.696598624366696e6 9.966146280678833e6 0.0
9.966146280678833e6 3666.006407147739 0.0
0.0 0.0 0.0

-159238.7461808424 8.619743038715282e6 0.0
8.619743038715282e6 -4.342610274272764e6 0.0
0.0 0.0 0.0

224295.14908738132 5.970420014833617e6 0.0
5.970420014833617e6 -4.318728943958868e6 0.0
0.0 0.0 0.0

-3.5894783845366067e6 8.50766113350169e6 0.0
8.50766113350169e6 1.08361296618457e6 0.0
0.0 0.0 0.0

102279.96805237397 7.920355326667948e6 0.0
7.920355326667948e6 -5.441505344548066e6 0.0
0.0 0.0 0.0

-707985.4007642705 305140.3130263788 0.0
305140.3130263788 568099.6280493552 0.0
0.0 0.0 0.0

-2.9540478656971757e6 6.260986329295968e6 0.0
6.260986329295968e6 2.1018463711348427e6 0.0
0.0 0.0 0.0

-5.296307804390822e6 8.256662948109358e6 0.0
8.256662948109358e6 1.1891922862964186e6 0.0
0.0 0.0 0.0

2.0482084347175504e6 7.513802523328347e6 0.0
7.513802523328347e6 -8.213124668136048e6 0.0
0.0 0.0 0.0

-8.11262940816324e6 6.581592604304798e6 0.0
6.581592604304798e6 8.874663541092254e6 0.0
0.0 0.0 0.0

-1.8494000849340628e6 9.173034312744025e6 0.0
9.173034312744025e6 2.2531740423217053e6 0.0
0.0 0.0 0.0

-5.524756959402562e6 8.646103410025574e6 0.0
8.646103410025574e6 5.749869983264886e6 0.0
0.0 0.0 0.0

-3.1542023815428717e6 7.531454915142172e6 0.0
7.531454915142172e6 688457.7344285978 0.0
0.0 0.0 0.0

-2.8671893754859692e6 6.378881447072709e6 0.0
6.378881447072709e6 1.1361826275436932e6 0.0
0.0 0.0 0.0

-61109.56030086428 8.541291564423189e6 0.0
8.541291564423189e6 -4.229701515876541e6 0.0
0.0 0.0 0.0

-1.0848095400586617e6 8.224656430560067e6 0.0
8.224656430560067e6 -3.418019651712645e6 0.0
0.0 0.0 0.0

1.2404763504181555e6 7.498389414122823e6 0.0
7.498389414122823e6 -6.967357534731024e6 0.0
0.0 0.0 0.0

-51936.596620897646 904029.8228977794 0.0
904029.8228977794 842667.0005739462 0.0
0.0 0.0 0.0

-4.468065652603092e6 -3.5378667207869254e6 0.0
-3.5378667207869254e6 6.759129294180591e6 0.0
0.0 0.0 0.0

-3.184557359406345e6 9.025486821825985e6 0.0
9.025486821825985e6 359636.3842825731 0.0
0.0 0.0 0.0

-2.191935683271152e6 1.058140190680909e7 0.0
1.058140190680909e7 -1.6769530154605024e6 0.0
0.0 0.0 0.0

-5.02564602275347e6 9.449287875397881e6 0.0
9.449287875397881e6 7.731429741586626e6 0.0
0.0 0.0 0.0

60286.617189158686 8.393926854561614e6 0.0
8.393926854561614e6 -4.034144138618105e6 0.0
0.0 0.0 0.0

-2.0786266393528734e6 1.2320446786379687e7 0.0
1.2320446786379687e7 -2.1929373702893476e6 0.0
0.0 0.0 0.0

-4.0338568170664455e6 8.683590529949106e6 0.0
8.683590529949106e6 1.8277012969665467e6 0.0
0.0 0.0 0.0

-779340.413938674 2.269652795022754e6 0.0
2.269652795022754e6 -35496.38145771698 0.0
0.0 0.0 0.0

-8.670997283734228e6 1.8942897628721908e7 0.0
1.8942897628721908e7 5.771565328450187e6 0.0
0.0 0.0 0.0

-265549.6382093425 9.763847898394033e6 0.0
9.763847898394033e6 -3.5461666778027965e6 0.0
0.0 0.0 0.0

73098.46026216727 8.734265906513134e6 0.0
8.734265906513134e6 -6.554668876188278e6 0.0
0.0 0.0 0.0

1.7727874556524386e6 5.735164848326998e6 0.0
5.735164848326998e6 -6.211647125328464e6 0.0
0.0 0.0 0.0

-788263.1954442487 9.603507042346599e6 0.0
9.603507042346599e6 -412879.6606703416 0.0
0.0 0.0 0.0

-2.874987366133211e6 5.706329033154976e6 0.0
5.706329033154976e6 2.330036082104495e6 0.0
0.0 0.0 0.0

-9.505774510261599e6 486687.70266434207 0.0
486687.70266434207 7.372804731706848e6 0.0
0.0 0.0 0.0

-3.446193351711761e6 1.0122488436320297e7 0.0
1.0122488436320297e7 1.6547321612750294e6 0.0
0.0 0.0 0.0

-1.3162133374157068e6 9.953811945694217e6 0.0
9.953811945694217e6 1.7235485633151564e6 0.0
0.0 0.0 0.0

-291410.03911779425 8.373806409812203e6 0.0
8.373806409812203e6 -4.502617606915103e6 0.0
0.0 0.0 0.0

-497683.96421955916 2.9978020390982386e6 0.0
2.9978020390982386e6 -233867.7711347401 0.0
0.0 0.0 0.0

-3.0267987472913223e6 7.883523662848256e6 0.0
7.883523662848256e6 -920498.2238081037 0.0
0.0 0.0 0.0

-903021.0555689123 9.837362707739698e6 0.0
9.837362707739698e6 -254355.635103923 0.0
0.0 0.0 0.0

-1.2614762351741593e6 9.668043210682431e6 0.0
9.668043210682431e6 959606.0807019391 0.0
0.0 0.0 0.0

-1.8678842405811134e6 9.143634765873697e6 0.0
9.143634765873697e6 -2.6869675866540223e6 0.0
0.0 0.0 0.0

-2.38880420388046e6 8.970637549803754e6 0.0
8.970637549803754e6 2.9975275973794498e6 0.0
0.0 0.0 0.0

371747.82138962287 7.571557411368976e6 0.0
7.571557411368976e6 -2.6599537409982686e6 0.0
0.0 0.0 0.0

-1.85436433004668e6 1.0630018152319662e7 0.0
1.0630018152319662e7 -1.990846313836426e6 0.0
0.0 0.0 0.0

1.1045018887370843e6 9.484979333327765e6 0.0
9.484979333327765e6 -3.068867648881537e6 0.0
0.0 0.0 0.0

-152565.9645642084 7.798345029537292e6 0.0
7.798345029537292e6 -4.812450936888287e6 0.0
0.0 0.0 0.0

-3.627735312662827e6 7.380754565666033e6 0.0
7.380754565666033e6 2.7144677890525414e6 0.0
0.0 0.0 0.0

-2.1226888107769904e6 6.371987371289438e6 0.0
6.371987371289438e6 -952182.3395005901 0.0
0.0 0.0 0.0

-1.8436642438315585e7 5.4049428797975285e6 0.0
5.4049428797975285e6 8.963572932650827e6 0.0
0.0 0.0 0.0

-5.660959406147173e6 1.095364037671544e7 0.0
1.095364037671544e7 9.698577438112833e6 0.0
0.0 0.0 0.0

3.0803869108249433e6 6.005887238505754e6 0.0
6.005887238505754e6 -6.869266895471552e6 0.0
0.0 0.0 0.0

-3.567157352596948e6 -3.1418250457956125e6 0.0
-3.1418250457956125e6 5.533759713590198e6 0.0
0.0 0.0 0.0

356130.875015412 8.366259352707573e6 0.0
8.366259352707573e6 -6.412796379654127e6 0.0
0.0 0.0 0.0

44024.515544189606 8.2319805324900495e6 0.0
8.2319805324900495e6 -5.171714436641151e6 0.0
0.0 0.0 0.0

-1.6292495470889697e6 1.0010822496582093e7 0.0
1.0010822496582093e7 205932.50223627896 0.0
0.0 0.0 0.0

-9.825050950215172e6 7.674205717768124e6 0.0
7.674205717768124e6 5.063593230367182e6 0.0
0.0 0.0 0.0

-3.943429901371419e6 7.896620856432929e6 0.0
7.896620856432929e6 4.399044622992736e6 0.0
0.0 0.0 0.0

-1.5073625924880835e6 1.0622431910273792e7 0.0
1.0622431910273792e7 -2.333898755409235e6 0.0
0.0 0.0 0.0

-5.853435925391112e6 -7.44259253140188e6 0.0
-7.44259253140188e6 1.4832826026012296e7 0.0
0.0 0.0 0.0

-2.7944230438598515e6 4.939629499644797e6 0.0
4.939629499644797e6 2.2769900192135996e6 0.0
0.0 0.0 0.0

2.19686402042173e6 6.894367655182438e6 0.0
6.894367655182438e6 -8.381800697168234e6 0.0
0.0 0.0 0.0

-6.215992151895199e6 9.589796691445038e6 0.0
9.589796691445038e6 3.1399254591935608e6 0.0
0.0 0.0 0.0

2.0953556694986494e6 6.1881898578977855e6 0.0
6.1881898578977855e6 -8.138239595928741e6 0.0
0.0 0.0 0.0

-1.8947679992532507e7 9.162121319686994e6 0.0
9.162121319686994e6 1.0546405064856205e7 0.0
0.0 0.0 0.0

-6.372033882124885e6 -7.943487198429542e6 0.0
-7.943487198429542e6 1.6551145181810416e7 0.0
0.0 0.0 0.0

95667.65648558247 7.87903810012294e6 0.0
7.87903810012294e6 -4.784796244493906e6 0.0
0.0 0.0 0.0

-4.671473192174896e6 8.578695420360591e6 0.0
8.578695420360591e6 1.2612181393938912e6 0.0
0.0 0.0 0.0

-1.5666557940521544e7 8.386804144949798e6 0.0
8.386804144949798e6 2.752642900827323e6 0.0
0.0 0.0 0.0

2.1785816560437875e6 6.516789013259698e6 0.0
6.516789013259698e6 -8.390492780248463e6 0.0
0.0 0.0 0.0

-4.198331155039409e6 8.61256503805106e6 0.0
8.61256503805106e6 1.4674018322228496e6 0.0
0.0 0.0 0.0

-3.3967707614513515e6 7.4313124537629e6 0.0
7.4313124537629e6 2.431964377814265e6 0.0
0.0 0.0 0.0

-1.0457006978839843e6 8.733720202085353e6 0.0
8.733720202085353e6 5.049450320129641e6 0.0
0.0 0.0 0.0

-336498.4540958791 8.558443988397326e6 0.0
8.558443988397326e6 -4.699848413215771e6 0.0
0.0 0.0 0.0

-90482.1164939832 8.361443464452575e6 0.0
8.361443464452575e6 -4.978325274888086e6 0.0
0.0 0.0 0.0

-4.081048593738886e6 9.744949766197478e6 0.0
9.744949766197478e6 -353367.14087587025 0.0
0.0 0.0 0.0

-6.495369840893427e6 9.73266985053269e6 0.0
9.73266985053269e6 3.323766484582542e6 0.0
0.0 0.0 0.0

-4.738894751734173e6 3.3767196679869755e6 0.0
3.3767196679869755e6 6.107525548558788e6 0.0
0.0 0.0 0.0

1.886374777146725e6 6.04788816052507e6 0.0
6.04788816052507e6 -7.750775711402729e6 0.0
0.0 0.0 0.0

-8.50542246362323e6 9.233028946666095e6 0.0
9.233028946666095e6 5.24782935134106e6 0.0
0.0 0.0 0.0

74549.33601392969 7.17930056281961e6 0.0
7.17930056281961e6 -3.982795859854407e6 0.0
0.0 0.0 0.0

-176949.51393166184 8.898416686175114e6 0.0
8.898416686175114e6 -4.3883893638434345e6 0.0
0.0 0.0 0.0

1.942990432856577e6 6.136232817162744e6 0.0
6.136232817162744e6 -7.7915733073426895e6 0.0
0.0 0.0 0.0

-183074.95933450246 8.481902796044271e6 0.0
8.481902796044271e6 -4.81938129452938e6 0.0
0.0 0.0 0.0

-8.730200710927505e6 1.7940512500203275e6 0.0
1.7940512500203275e6 9.871181404699832e6 0.0
0.0 0.0 0.0

-721361.8761151033 2.7776071492042574e6 0.0
2.7776071492042574e6 -1.256342329576095e6 0.0
0.0 0.0 0.0

-2.539580055660989e6 7.42803956173983e6 0.0
7.42803956173983e6 -231800.87891513295 0.0
0.0 0.0 0.0

-1.719483740202723e6 9.59689323124218e6 0.0
9.59689323124218e6 2.664476807983361e6 0.0
0.0 0.0 0.0

3.087833209177967e6 6.306393140872731e6 0.0
6.306393140872731e6 -7.037439178309632e6 0.0
0.0 0.0 0.0

-3.7137774979269253e6 8.600890891339066e6 0.0
8.600890891339066e6 1.9560611740292106e6 0.0
0.0 0.0 0.0

-327662.75228198915 917846.2468877207 0.0
917846.2468877207 899455.309430673 0.0
0.0 0.0 0.0

319673.4842919406 8.016492581345447e6 0.0
8.016492581345447e6 -2.960189083257638e6 0.0
0.0 0.0 0.0

-331267.73561793193 7.896351026987817e6 0.0
7.896351026987817e6 -4.556445363493549e6 0.0
0.0 0.0 0.0

-2.8409359107141336e6 8.607666897169184e6 0.0
8.607666897169184e6 2.3545944206998227e6 0.0
0.0 0.0 0.0

-3.9710288011116744e6 1.0055782419048754e7 0.0
1.0055782419048754e7 4.4930073081721105e6 0.0
0.0 0.0 0.0

-785926.0016954007 9.581456488458471e6 0.0
9.581456488458471e6 -633267.4740069605 0.0
0.0 0.0 0.0

-3.590623828835639e6 9.590399698970377e6 0.0
9.590399698970377e6 -120221.17980403407 0.0
0.0 0.0 0.0

-4.571751025565615e6 9.089271596257888e6 0.0
9.089271596257888e6 2.0638850816393956e6 0.0
0.0 0.0 0.0

-1.164231049294782e6 9.846369104916222e6 0.0
9.846369104916222e6 70226.28208799713 0.0
0.0 0.0 0.0

2.676403977862301e6 4.997064173030779e6 0.0
4.997064173030779e6 -628872.5335683018 0.0
0.0 0.0 0.0

-4.542643521479663e6 -6.561226422287183e6 0.0
-6.561226422287183e6 1.2471158158128735e7 0.0
0.0 0.0 0.0

-226337.55314277613 7.401903591857491e6 0.0
7.401903591857491e6 1.865079422894527e6 0.0
0.0 0.0 0.0

-5.250970889078362e6 -3.2441470632001623e6 0.0
-3.2441470632001623e6 8.618126401307477e6 0.0
0.0 0.0 0.0

-1.0606514698262773e6 9.978977791596752e6 0.0
9.978977791596752e6 -284121.7210947831 0.0
0.0 0.0 0.0

-1.548047512920418e7 3.1171370638430696e6 0.0
3.1171370638430696e6 1.9860389853719216e7 0.0
0.0 0.0 0.0

-2.5186590267028655e6 7.739692177603191e6 0.0
7.739692177603191e6 -216711.3053536251 0.0
0.0 0.0 0.0

-306849.414796615 734824.3527593627 0.0
734824.3527593627 -1.7249259378356144e6 0.0
0.0 0.0 0.0

-765200.2061194384 515097.8364400151 0.0
515097.8364400151 -866705.3683321273 0.0
0.0 0.0 0.0

-1.597523222292744e6 1.0404022760327876e7 0.0
1.0404022760327876e7 -2.2815678159206244e6 0.0
0.0 0.0 0.0

-3.2373497483691e6 9.546914039601456e6 0.0
9.546914039601456e6 128931.47942367825 0.0
0.0 0.0 0.0

-1.069504454287729e6 1.0652722679918345e7 0.0
1.0652722679918345e7 -2.60271760981468e6 0.0
0.0 0.0 0.0

-5.719898499583062e6 3.0925747830508277e6 0.0
3.0925747830508277e6 5.652414960980162e6 0.0
0.0 0.0 0.0

-230236.76946854056 8.648269557743045e6 0.0
8.648269557743045e6 -4.4571396623955425e6 0.0
0.0 0.0 0.0

7092.617586696753 7.838117152234807e6 0.0
7.838117152234807e6 -5.128365510097366e6 0.0
0.0 0.0 0.0

-3.5743537620619386e6 8.64657300294533e6 0.0
8.64657300294533e6 1.8830223865283895e6 0.0
0.0 0.0 0.0

-530113.1125655264 7.835859978308107e6 0.0
7.835859978308107e6 -4.200368531985422e6 0.0
0.0 0.0 0.0

-2.8871253817582652e7 6.091410074816721e6 0.0
6.091410074816721e6 8.924014100651013e6 0.0
0.0 0.0 0.0

-1.5689959748084487e6 8.975923298349435e6 0.0
8.975923298349435e6 -2.9459005450297333e6 0.0
0.0 0.0 0.0

-9.259503117234955e6 1.0365217823391361e7 0.0
1.0365217823391361e7 5.217225028643614e6 0.0
0.0 0.0 0.0

-227384.5841058075 7.234090091181269e6 0.0
7.234090091181269e6 -1.0442848056721947e6 0.0
0.0 0.0 0.0

-3.533608492095983e6 8.071451251525348e6 0.0
8.071451251525348e6 3.33347787204917e6 0.0
0.0 0.0 0.0

-2.759371749420248e6 8.759356760558855e6 0.0
8.759356760558855e6 1.6643369122537156e6 0.0
0.0 0.0 0.0

-6.914465828914328e6 1.5926229948947944e7 0.0
1.5926229948947944e7 1.639047636380814e6 0.0
0.0 0.0 0.0

-1.1216816545275373e6 -1.4556598850242603e6 0.0
-1.4556598850242603e6 3.7050558613228127e6 0.0
0.0 0.0 0.0

3.1207817686596336e6 6.121287054547908e6 0.0
6.121287054547908e6 -7.080099298220618e6 0.0
0.0 0.0 0.0

-4.1277222671717294e6 8.80008855948598e6 0.0
8.80008855948598e6 656222.1322788806 0.0
0.0 0.0 0.0

-284994.3584778178 1.3926081595149015e6 0.0
1.3926081595149015e6 -1.0071156465160333e6 0.0
0.0 0.0 0.0

1.8199821575693255e6 6.180826133135052e6 0.0
6.180826133135052e6 -7.267400047525693e6 0.0
0.0 0.0 0.0

-4.0657481195350545e6 -6.0508123904312e6 0.0
-6.0508123904312e6 1.1387792216002684e7 0.0
0.0 0.0 0.0

-26027.168128039935 1.8589037309145033e6 0.0
1.8589037309145033e6 193659.59767285918 0.0
0.0 0.0 0.0

-50255.858010956086 7.975228474578909e6 0.0
7.975228474578909e6 -3.9156980250522424e6 0.0
0.0 0.0 0.0

-1.6054662966459887e6 -2.4468717330035893e6 0.0
-2.4468717330035893e6 4.4417291387500195e6 0.0
0.0 0.0 0.0

3.1572187425992233e6 6.292365162455651e6 0.0
6.292365162455651e6 -7.122315073144447e6 0.0
0.0 0.0 0.0

1.7688779866731614e6 6.303167267110173e6 0.0
6.303167267110173e6 -7.127098131313259e6 0.0
0.0 0.0 0.0

-3.254221186043822e6 -5.444749947232935e6 0.0
-5.444749947232935e6 1.0403296332811791e7 0.0
0.0 0.0 0.0

-2.607717194786754e6 7.873360707268779e6 0.0
7.873360707268779e6 831344.7626256312 0.0
0.0 0.0 0.0

-1.602807719082058e6 1.011009842805249e7 0.0
1.011009842805249e7 -2.3046605475076125e6 0.0
0.0 0.0 0.0

-4.797324550070267e6 9.223633335066859e6 0.0
9.223633335066859e6 2.284025058382863e6 0.0
0.0 0.0 0.0

1.9462683618628327e6 6.465037483742341e6 0.0
6.465037483742341e6 -7.074706341651616e6 0.0
0.0 0.0 0.0

-3.503143584202268e6 -4.536069135049011e6 0.0
-4.536069135049011e6 9.727446516813854e6 0.0
0.0 0.0 0.0

130983.13404270122 8.174462675864674e6 0.0
8.174462675864674e6 -3.708913242727533e6 0.0
0.0 0.0 0.0

-367249.57529071346 8.051348471118718e6 0.0
8.051348471118718e6 -3.8691516332545443e6 0.0
0.0 0.0 0.0

-4.907602590338967e6 8.876921972900145e6 0.0
8.876921972900145e6 1.6526232015273806e6 0.0
0.0 0.0 0.0

-3.252053679927603e6 7.3435619306513155e6 0.0
7.3435619306513155e6 429581.1851605687 0.0
0.0 0.0 0.0

-3.8198604072053777e6 8.45542087168482e6 0.0
8.45542087168482e6 4.389562264220188e6 0.0
0.0 0.0 0.0

-4.962272048854651e6 -3.512960828261224e6 0.0
-3.512960828261224e6 9.420577918503115e6 0.0
0.0 0.0 0.0

2.1100744308750783e6 6.489651930038087e6 0.0
6.489651930038087e6 -6.894407459912852e6 0.0
0.0 0.0 0.0

-5.91555976349894e6 1.1869709275626333e7 0.0
1.1869709275626333e7 887456.8101920933 0.0
0.0 0.0 0.0

-5.389117675480601e6 1.0651487920009159e7 0.0
1.0651487920009159e7 9.30904503809221e6 0.0
0.0 0.0 0.0

9.029469639131978e6 2.218612727630771e7 0.0
2.218612727630771e7 -2.7125310752542622e7 0.0
0.0 0.0 0.0

-960851.0145982136 4.611770612001145e6 0.0
4.611770612001145e6 -2.0198392858538383e6 0.0
0.0 0.0 0.0

-5.934046297887771e6 9.644930558814058e6 0.0
9.644930558814058e6 3.0277764378360845e6 0.0
0.0 0.0 0.0

-499026.6937930826 3.83017020671845e6 0.0
3.83017020671845e6 -1.5667458771962463e6 0.0
0.0 0.0 0.0

-4.989558350705416e6 9.368493331239957e6 0.0
9.368493331239957e6 2.4146210676069953e6 0.0
0.0 0.0 0.0

1.981842856056994e6 775395.38436951 0.0
775395.38436951 -4.330904336626837e6 0.0
0.0 0.0 0.0

-2.3172163650867334e6 1.3377501403176503e7 0.0
1.3377501403176503e7 -2.4486844423686215e6 0.0
0.0 0.0 0.0

-2.8456144941326226e6 1.160516039572982e7 0.0
1.160516039572982e7 -811631.3408886795 0.0
0.0 0.0 0.0

-2.3127365055849277e6 5.43380255728285e6 0.0
5.43380255728285e6 618217.9397499679 0.0
0.0 0.0 0.0

-999480.0840210932 1.0089152718622955e7 0.0
1.0089152718622955e7 -314967.45942828583 0.0
0.0 0.0 0.0

-7.54082798198502e6 -7.843459315079309e6 0.0
-7.843459315079309e6 1.858881066255675e7 0.0
0.0 0.0 0.0

-227138.62693936782 905770.9929111039 0.0
905770.9929111039 -871749.4621430986 0.0
0.0 0.0 0.0

-732738.9550461548 812328.7687585147 0.0
812328.7687585147 96647.03401219402 0.0
0.0 0.0 0.0

-758974.3305302552 -351221.06120998284 0.0
-351221.06120998284 152375.8419483811 0.0
0.0 0.0 0.0

-2.63953918614585e6 1.1919107427217571e7 0.0
1.1919107427217571e7 -1.0051291685451919e6 0.0
0.0 0.0 0.0

225019.05402359087 8.688192936249735e6 0.0
8.688192936249735e6 -6.48166493762707e6 0.0
0.0 0.0 0.0

-2.5849499029942434e6 1.022444013051395e7 0.0
1.022444013051395e7 3.238849841989207e6 0.0
0.0 0.0 0.0

-975307.317943115 8.901353341097778e6 0.0
8.901353341097778e6 102276.14613254019 0.0
0.0 0.0 0.0

679243.1979804034 4.673056928313502e6 0.0
4.673056928313502e6 -3.763521985586114e6 0.0
0.0 0.0 0.0

-677406.9504669446 7.134389192257572e6 0.0
7.134389192257572e6 -3.887054691949141e6 0.0
0.0 0.0 0.0

-435004.5676465101 9.94154795555697e6 0.0
9.94154795555697e6 -3.4245908593211407e6 0.0
0.0 0.0 0.0

268973.6650263318 8.158175500969487e6 0.0
8.158175500969487e6 -5.864803498238382e6 0.0
0.0 0.0 0.0

-5.251533977011536e6 9.296144851146752e6 0.0
9.296144851146752e6 1.8684825111144069e6 0.0
0.0 0.0 0.0

-3.1634185896721804e6 8.220159866313851e6 0.0
8.220159866313851e6 3.227749332694321e6 0.0
0.0 0.0 0.0

-119362.53686879226 7.54555999395059e6 0.0
7.54555999395059e6 -3.7084568861360075e6 0.0
0.0 0.0 0.0

143024.268217384 7.769632154828443e6 0.0
7.769632154828443e6 -2.1482918267673394e6 0.0
0.0 0.0 0.0

-522416.3574866543 7.992807187012071e6 0.0
7.992807187012071e6 -5.078228678809511e6 0.0
0.0 0.0 0.0

-1.2830671771675963e7 4.971460698617324e6 0.0
4.971460698617324e6 7.887341100951129e6 0.0
0.0 0.0 0.0

-8.360436746692911e6 1.6573678529417776e7 0.0
1.6573678529417776e7 3.834347811941405e6 0.0
0.0 0.0 0.0

-1.1740970013848236e6 1.341586511261889e6 0.0
1.341586511261889e6 -429567.80453104596 0.0
0.0 0.0 0.0

-836585.7472076964 1.8838615513101947e6 0.0
1.8838615513101947e6 -1.4196002743282355e6 0.0
0.0 0.0 0.0

-3.1965206514197835e6 8.132980106824063e6 0.0
8.132980106824063e6 2.450796779615592e6 0.0
0.0 0.0 0.0

-4.232729446583088e6 8.25622562826309e6 0.0
8.25622562826309e6 580203.1586193498 0.0
0.0 0.0 0.0

-6.454624667937837e6 9.811624519921347e6 0.0
9.811624519921347e6 3.449078873686609e6 0.0
0.0 0.0 0.0

-5.20255741637847e6 9.412259505054506e6 0.0
9.412259505054506e6 2.5840707193799587e6 0.0
0.0 0.0 0.0

2.2080475460554953e6 7.495839384978039e6 0.0
7.495839384978039e6 -177300.67309122405 0.0
0.0 0.0 0.0

636093.3800255593 1.0143777323153265e7 0.0
1.0143777323153265e7 -3.4377659816445983e6 0.0
0.0 0.0 0.0

-5.728679358396718e6 1.118099415844119e7 0.0
1.118099415844119e7 9.334083480575973e6 0.0
0.0 0.0 0.0

-1.5209521358082246e7 9.71899061813537e6 0.0
9.71899061813537e6 4.4069828815455735e6 0.0
0.0 0.0 0.0

-3.629051324978075e7 1.0695827404155208e7 0.0
1.0695827404155208e7 2.4019045521972496e7 0.0
0.0 0.0 0.0

-1.7988163573150956e6 5.569191664316969e6 0.0
5.569191664316969e6 -51869.245492838905 0.0
0.0 0.0 0.0

-2.0850687166251377e6 9.253825076179786e6 0.0
9.253825076179786e6 1.4516013060510852e6 0.0
0.0 0.0 0.0

-95128.85156082944 6.830569244471609e6 0.0
6.830569244471609e6 -4.0452397738400316e6 0.0
0.0 0.0 0.0

-2.4832916324132844e6 5.2261166373437485e6 0.0
5.2261166373437485e6 2.0242325429312538e6 0.0
0.0 0.0 0.0

80748.60642273672 1.3260061961326275e6 0.0
1.3260061961326275e6 -813018.4881501958 0.0
0.0 0.0 0.0

-1.379275903122211e6 7.7661048607245665e6 0.0
7.7661048607245665e6 3.1932416067041145e6 0.0
0.0 0.0 0.0

208483.83313217573 8.080452844821723e6 0.0
8.080452844821723e6 -5.877060380646208e6 0.0
0.0 0.0 0.0

951049.0227581572 5.795683920875607e6 0.0
5.795683920875607e6 -4.637176716315508e6 0.0
0.0 0.0 0.0

1.5817279892111586e6 7.485144726945655e6 0.0
7.485144726945655e6 -1.12175316405001e6 0.0
0.0 0.0 0.0

-1.0247250743072554e7 -3.0425611642198684e6 0.0
-3.0425611642198684e6 3.3981778568803124e7 0.0
0.0 0.0 0.0

-5.385909247150831e6 9.550349242900753e6 0.0
9.550349242900753e6 2.7494887252511606e6 0.0
0.0 0.0 0.0

-5.143863594706283e6 8.38280073761499e6 0.0
8.38280073761499e6 686529.5958354198 0.0
0.0 0.0 0.0

-2.6699979113197895e6 1.1254393468249606e7 0.0
1.1254393468249606e7 -1.149452164093119e6 0.0
0.0 0.0 0.0

-867810.7070805616 1.5830361497394315e6 0.0
1.5830361497394315e6 768268.722696669 0.0
0.0 0.0 0.0

-765053.173060836 6.973739337515043e6 0.0
6.973739337515043e6 -720753.8740329698 0.0
0.0 0.0 0.0

-70473.00079126353 639262.3056229302 0.0
639262.3056229302 975599.2009321424 0.0
0.0 0.0 0.0

1.4291026025715093e6 8.034561252289798e6 0.0
8.034561252289798e6 -1.749007253934958e6 0.0
0.0 0.0 0.0

-3.7202434887740165e6 8.031525934214272e6 0.0
8.031525934214272e6 1.209698041428282e6 0.0
0.0 0.0 0.0

1.2980610603233445e6 5.563280817770141e6 0.0
5.563280817770141e6 -5.476471294309777e6 0.0
0.0 0.0 0.0

-3.4591355171356993e6 8.114180150927867e6 0.0
8.114180150927867e6 1.1669825199246518e6 0.0
0.0 0.0 0.0

543898.0538063176 5.064574664099363e6 0.0
5.064574664099363e6 -2.840501146805625e6 0.0
0.0 0.0 0.0

-936227.2751465201 8.910055720409984e6 0.0
8.910055720409984e6 -3.7994184975263854e6 0.0
0.0 0.0 0.0

-8.670146213490244e6 9.634561244475259e6 0.0
9.634561244475259e6 5.527829650287446e6 0.0
0.0 0.0 0.0

-431431.7952362453 6.065236424379871e6 0.0
6.065236424379871e6 -2.92424029959251e6 0.0
0.0 0.0 0.0

-3.72598172596076e6 9.915539300292855e6 0.0
9.915539300292855e6 -728819.6568310075 0.0
0.0 0.0 0.0

-7.318983293690413e6 9.908962913069304e6 0.0
9.908962913069304e6 4.20556117121922e6 0.0
0.0 0.0 0.0

-4.535294696286622e6 9.073202172233181e6 0.0
9.073202172233181e6 2.1846805043958e6 0.0
0.0 0.0 0.0

-5.024130158004344e6 9.278570393270427e6 0.0
9.278570393270427e6 2.3569627543949443e6 0.0
0.0 0.0 0.0

-8.046290851916688e6 1.0645671688010065e7 0.0
1.0645671688010065e7 4.312001470383383e6 0.0
0.0 0.0 0.0

-2.9289333793282653e6 1.00587910254189e7 0.0
1.00587910254189e7 -932815.2341211998 0.0
0.0 0.0 0.0

-9.771942438017167e6 1.0198610801916115e7 0.0
1.0198610801916115e7 5.986184400469927e6 0.0
0.0 0.0 0.0

-1.0758125473876183e6 4.692570651545566e6 0.0
4.692570651545566e6 -595659.165081128 0.0
0.0 0.0 0.0

-1.3443476627793764e6 7.620990127127037e6 0.0
7.620990127127037e6 -2.8846589372340674e6 0.0
0.0 0.0 0.0

-638922.9525420332 2.8919690420252997e6 0.0
2.8919690420252997e6 -443268.6482748063 0.0
0.0 0.0 0.0

-4.3246047869010465e6 8.474125388288595e6 0.0
8.474125388288595e6 1.5133144652588824e6 0.0
0.0 0.0 0.0

-7.3897794301222805e6 -2.0448147229176266e6 0.0
-2.0448147229176266e6 8.527218408525981e6 0.0
0.0 0.0 0.0

-6.480079380820917e6 1.1845039286164109e7 0.0
1.1845039286164109e7 1.5272360652054264e6 0.0
0.0 0.0 0.0

-616681.1519888294 8.797807275969237e6 0.0
8.797807275969237e6 -3.624739456982136e6 0.0
0.0 0.0 0.0

-742571.710671795 7.683422575007903e6 0.0
7.683422575007903e6 -149053.71817253425 0.0
0.0 0.0 0.0

-2.245843004202301e6 6.36470194859289e6 0.0
6.36470194859289e6 -1.362030472998281e6 0.0
0.0 0.0 0.0

215690.75443687523 8.080299670169391e6 0.0
8.080299670169391e6 -5.146290195328182e6 0.0
0.0 0.0 0.0

5.994233804008903e6 1.6476604686239392e6 0.0
1.6476604686239392e6 -8.21749941886649e6 0.0
0.0 0.0 0.0

-2.3280887170371804e6 1.2188122579672389e7 0.0
1.2188122579672389e7 -1.2675180751428772e6 0.0
0.0 0.0 0.0

-693391.6922987695 9.929124275408775e6 0.0
9.929124275408775e6 -180373.65653226466 0.0
0.0 0.0 0.0

-3.0860368672277685e6 7.091427119560141e6 0.0
7.091427119560141e6 216359.57773806166 0.0
0.0 0.0 0.0

1.8684674222026775e6 6.058684521618599e6 0.0
6.058684521618599e6 -7.600194019024882e6 0.0
0.0 0.0 0.0

-707128.111317035 3.7841092565234317e6 0.0
3.7841092565234317e6 -487686.12627059594 0.0
0.0 0.0 0.0

1.7077166071098158e6 6.455635216297359e6 0.0
6.455635216297359e6 -7.601864779765689e6 0.0
0.0 0.0 0.0

-306035.98801367695 785428.1307048749 0.0
785428.1307048749 -616495.342352859 0.0
0.0 0.0 0.0

-3.740845926245175e6 7.855512283958063e6 0.0
7.855512283958063e6 902232.2853032793 0.0
0.0 0.0 0.0

-749234.5031028921 9.957076032973794e6 0.0
9.957076032973794e6 -268816.5160337766 0.0
0.0 0.0 0.0

-231824.93403071474 7.660780384285301e6 0.0
7.660780384285301e6 -1.1481925221195258e6 0.0
0.0 0.0 0.0

-1.7253483121773035e6 5.378685150703793e6 0.0
5.378685150703793e6 345820.6457482622 0.0
0.0 0.0 0.0

523301.96609988343 1.7424421728563788e6 0.0
1.7424421728563788e6 -314222.58052703075 0.0
0.0 0.0 0.0

-3.294874968851926e6 1.234551178849791e7 0.0
1.234551178849791e7 -288280.13776098704 0.0
0.0 0.0 0.0

-4.251225262185175e6 8.654302602226458e6 0.0
8.654302602226458e6 5.186232433750329e6 0.0
0.0 0.0 0.0

127565.31052053068 6.753566443495741e6 0.0
6.753566443495741e6 -4.3927945996768875e6 0.0
0.0 0.0 0.0

-37448.159830576886 1.0102318938261298e6 0.0
1.0102318938261298e6 515209.26462029014 0.0
0.0 0.0 0.0

-1.83581775933881e6 7.792807767302812e6 0.0
7.792807767302812e6 2.020075126974326e6 0.0
0.0 0.0 0.0

-7.124838720597738e6 7.437486745378439e6 0.0
7.437486745378439e6 1.1200331271278717e7 0.0
0.0 0.0 0.0

-1.202415477872421e6 7.553677168772215e6 0.0
7.553677168772215e6 2.3532431296456405e6 0.0
0.0 0.0 0.0

316557.0654359888 8.48404952362146e6 0.0
8.48404952362146e6 -6.475008761738222e6 0.0
0.0 0.0 0.0

-2.894185231133165e6 8.689907758419806e6 0.0
8.689907758419806e6 3.3961407213481124e6 0.0
0.0 0.0 0.0

-1.3084758672353781e6 9.19577604036415e6 0.0
9.19577604036415e6 1.511857750896223e6 0.0
0.0 0.0 0.0

-1.4148136984892348e6 1.0783870613013225e7 0.0
1.0783870613013225e7 -2.392846682292385e6 0.0
0.0 0.0 0.0

-1.8023982590676718e6 1.0068706657878825e7 0.0
1.0068706657878825e7 140514.89014976134 0.0
0.0 0.0 0.0

1.0611839188813413e6 7.124547795067449e6 0.0
7.124547795067449e6 -6.711419298963731e6 0.0
0.0 0.0 0.0

1.2738821089438992e6 7.025777191973401e6 0.0
7.025777191973401e6 -6.983183711174667e6 0.0
0.0 0.0 0.0

-1.9857310614953074e6 6.289441327726501e6 0.0
6.289441327726501e6 -1.2450879902321831e6 0.0
0.0 0.0 0.0

-5.114042012907637e6 5.819318189334712e6 0.0
5.819318189334712e6 7.322203975109079e6 0.0
0.0 0.0 0.0

-2.034972212026216e6 1.025267502597778e7 0.0
1.025267502597778e7 -2.5179203972597704e6 0.0
0.0 0.0 0.0

-9.934889756360881e6 -3.6631412744634855e6 0.0
-3.6631412744634855e6 1.7833675677325115e7 0.0
0.0 0.0 0.0

213718.3612038975 4.952649408199466e6 0.0
4.952649408199466e6 -3.748079686502345e6 0.0
0.0 0.0 0.0

-7.119573288266247e6 8.4596982896737e6 0.0
8.4596982896737e6 3.568336069299571e7 0.0
0.0 0.0 0.0

1.821121434758436e6 6.147706261369858e6 0.0
6.147706261369858e6 -7.391834394406542e6 0.0
0.0 0.0 0.0

-3.1495475220050793e6 1.0620409654646557e7 0.0
1.0620409654646557e7 -698617.7987704406 0.0
0.0 0.0 0.0

-2.1702200985979997e6 7.793647019660918e6 0.0
7.793647019660918e6 2.7907547032125033e6 0.0
0.0 0.0 0.0

3803.5579358579125 8.544954200904842e6 0.0
8.544954200904842e6 -6.200239363034048e6 0.0
0.0 0.0 0.0

-1.641353883930816e6 5.970981823698739e6 0.0
5.970981823698739e6 2.8534558115680073e6 0.0
0.0 0.0 0.0

-1.3538600549201372e6 9.878555897175336e6 0.0
9.878555897175336e6 6400.829773813544 0.0
0.0 0.0 0.0

-2.6930760800263667e6 8.139806148234474e6 0.0
8.139806148234474e6 2.8957221253694594e6 0.0
0.0 0.0 0.0

-3.4139512810444944e6 7.626806459864727e6 0.0
7.626806459864727e6 1.7088043989605212e6 0.0
0.0 0.0 0.0

-2.5029096425740756e6 9.0057090317799e6 0.0
9.0057090317799e6 1.6106710826558936e6 0.0
0.0 0.0 0.0

-1.3616178169679376e6 5.635875381437237e6 0.0
5.635875381437237e6 -2.7410046007624203e6 0.0
0.0 0.0 0.0

-5.218416102376552e6 3.9327902978683067e6 0.0
3.9327902978683067e6 4.686869106299433e6 0.0
0.0 0.0 0.0

400103.00325712236 8.313559435322296e6 0.0
8.313559435322296e6 -6.334073153608935e6 0.0
0.0 0.0 0.0

-1.193570546695201e6 9.257892638496434e6 0.0
9.257892638496434e6 434273.6143081399 0.0
0.0 0.0 0.0

-2.551851991293472e6 9.379079688706232e6 0.0
9.379079688706232e6 838929.0735657389 0.0
0.0 0.0 0.0

-834423.830968556 4.582714448202359e6 0.0
4.582714448202359e6 -1.9273584851877405e6 0.0
0.0 0.0 0.0

-1.4961241788944699e7 -686379.238712558 0.0
-686379.238712558 3.2162943292334925e7 0.0
0.0 0.0 0.0

63548.78128271829 8.888013565049222e6 0.0
8.888013565049222e6 -6.4911934089462925e6 0.0
0.0 0.0 0.0

-3.10459445478011e6 8.479942416006548e6 0.0
8.479942416006548e6 4.499236878412012e6 0.0
0.0 0.0 0.0

-6.686867538958609e6 9.894426614011986e6 0.0
9.894426614011986e6 3.411906720147954e6 0.0
0.0 0.0 0.0

72211.24339222373 1.0099221215673542e7 0.0
1.0099221215673542e7 4.2114612728305925e6 0.0
0.0 0.0 0.0

-4.811599784839792e6 9.25070368408824e6 0.0
9.25070368408824e6 7.089585514300078e6 0.0
0.0 0.0 0.0

-3.365047518333276e6 7.698533137134893e6 0.0
7.698533137134893e6 3.181324668773924e6 0.0
0.0 0.0 0.0

-1.425877771243935e6 8.080341866849919e6 0.0
8.080341866849919e6 -2.699014314233631e6 0.0
0.0 0.0 0.0

-1.6416743961744441e6 8.829730608814428e6 0.0
8.829730608814428e6 235290.49087192526 0.0
0.0 0.0 0.0

-2.6103658569360953e6 6.085049509796594e6 0.0
6.085049509796594e6 846873.7383168768 0.0
0.0 0.0 0.0

-2.228785314927625e6 5.664469383120022e6 0.0
5.664469383120022e6 1.0226949296651379e6 0.0
0.0 0.0 0.0

513819.3924964031 5.367473355847036e6 0.0
5.367473355847036e6 -4.773408230474386e6 0.0
0.0 0.0 0.0

-3.915178167233573e6 8.707582081985e6 0.0
8.707582081985e6 2.1138457700595157e6 0.0
0.0 0.0 0.0

-267966.4441680671 6.925395690901019e6 0.0
6.925395690901019e6 -3.53987083781192e6 0.0
0.0 0.0 0.0

1.049470911998141e6 6.7802167136407895e6 0.0
6.7802167136407895e6 -3.4044027259743037e6 0.0
0.0 0.0 0.0

-6.261468173505624e6 1.0991642327940093e7 0.0
1.0991642327940093e7 1.5920687574764732e6 0.0
0.0 0.0 0.0

-3.1901498188937544e6 8.162948856876497e6 0.0
8.162948856876497e6 3.901974188647674e6 0.0
0.0 0.0 0.0

-8.0199900799517855e6 -2.9166196920304387e6 0.0
-2.9166196920304387e6 1.2039698055360768e7 0.0
0.0 0.0 0.0

108091.67005437333 8.07559151809317e6 0.0
8.07559151809317e6 1.23963286117634e6 0.0
0.0 0.0 0.0

769881.2329114735 7.828059714076828e6 0.0
7.828059714076828e6 -379692.30781229626 0.0
0.0 0.0 0.0

-552111.4281328175 9.724325717960257e6 0.0
9.724325717960257e6 -3.7313434135890277e6 0.0
0.0 0.0 0.0

1.84896546072863e6 6.115985057683589e6 0.0
6.115985057683589e6 -7.241790429857569e6 0.0
0.0 0.0 0.0

-371902.4599690263 9.304769259852108e6 0.0
9.304769259852108e6 22422.57876398733 0.0
0.0 0.0 0.0

-718400.8051443646 1.0015591924115462e7 0.0
1.0015591924115462e7 -3.5143272919580066e6 0.0
0.0 0.0 0.0

-1.297480053923724e6 7.608530320242791e6 0.0
7.608530320242791e6 456671.2150217738 0.0
0.0 0.0 0.0

-427258.8221873068 4.194840932062816e6 0.0
4.194840932062816e6 -982772.6408192697 0.0
0.0 0.0 0.0

40892.53883288751 841156.9938557722 0.0
841156.9938557722 -745693.3704477563 0.0
0.0 0.0 0.0

-2.440841579828251e6 9.338746388481764e6 0.0
9.338746388481764e6 264967.44569588406 0.0
0.0 0.0 0.0

-187597.24587180442 8.246092683488386e6 0.0
8.246092683488386e6 -4.32427672710295e6 0.0
0.0 0.0 0.0

-325306.0613076079 8.422158209212683e6 0.0
8.422158209212683e6 -4.636270567857375e6 0.0
0.0 0.0 0.0

-1.3261337706044326e7 -4.731231176493085e6 0.0
-4.731231176493085e6 3.1403054934340127e7 0.0
0.0 0.0 0.0

-1.0169076417038955e7 1.0007742076106137e7 0.0
1.0007742076106137e7 6.106390646882384e6 0.0
0.0 0.0 0.0

-802962.3006870457 1.9442755546409213e6 0.0
1.9442755546409213e6 -956424.0255942673 0.0
0.0 0.0 0.0

-846316.538941615 1.0050440857451452e7 0.0
1.0050440857451452e7 -357519.7051860986 0.0
0.0 0.0 0.0

-2.075815622545783e6 8.047215714640523e6 0.0
8.047215714640523e6 1.6947797158250506e6 0.0
0.0 0.0 0.0

-4.336010842937758e6 5.085128588702411e6 0.0
5.085128588702411e6 5.855979222677686e6 0.0
0.0 0.0 0.0

-4.1383207509087613e6 8.5267655633739e6 0.0
8.5267655633739e6 786684.0937244922 0.0
0.0 0.0 0.0

-55758.072117511736 7.726022186570214e6 0.0
7.726022186570214e6 615885.7876440093 0.0
0.0 0.0 0.0

-1.637319324311165e6 7.982390323063978e6 0.0
7.982390323063978e6 1.6177420483669778e6 0.0
0.0 0.0 0.0

-988401.9835022812 9.472845909222495e6 0.0
9.472845909222495e6 -3.172736571400636e6 0.0
0.0 0.0 0.0

130749.870376206 1.1983589491395734e6 0.0
1.1983589491395734e6 -3.8223356616185918e6 0.0
0.0 0.0 0.0

-344691.7299112397 9.442138766969517e6 0.0
9.442138766969517e6 -3.885240756665974e6 0.0
0.0 0.0 0.0

-3.045550046692928e6 1.0241208313555384e7 0.0
1.0241208313555384e7 -1.4035463075233558e6 0.0
0.0 0.0 0.0

-4.382334195476929e6 8.97590756633436e6 0.0
8.97590756633436e6 1.8016214976965454e6 0.0
0.0 0.0 0.0

-1.7888308243558349e6 1.1347579252631264e7 0.0
1.1347579252631264e7 -2.0140296090881226e6 0.0
0.0 0.0 0.0

-1.7835884396499246e6 1.0980714549029598e7 0.0
1.0980714549029598e7 -2.25226640671088e6 0.0
0.0 0.0 0.0

1.6049559346042797e6 5.99125438809572e6 0.0
5.99125438809572e6 -6.142810639485139e6 0.0
0.0 0.0 0.0

134216.92256689136 7.646873752557552e6 0.0
7.646873752557552e6 -517749.2707895305 0.0
0.0 0.0 0.0

-3.368121360411208e6 1.0101279563838132e7 0.0
1.0101279563838132e7 -963852.6749457167 0.0
0.0 0.0 0.0

-1.8849434177576862e6 4.478513870810688e6 0.0
4.478513870810688e6 691579.1739798948 0.0
0.0 0.0 0.0

-2.0206952268467356e7 1.357845314858376e7 0.0
1.357845314858376e7 4.1701335555140553e6 0.0
0.0 0.0 0.0

9.853152035967937e6 2.0195979752125677e7 0.0
2.0195979752125677e7 3.284398187782838e7 0.0
0.0 0.0 0.0

-2.4315039437638177e6 1.0610522435432125e7 0.0
1.0610522435432125e7 -8.105025750340837e6 0.0
0.0 0.0 0.0

-3.193000644955365e6 8.224077367229127e6 0.0
8.224077367229127e6 3.5586058408620846e6 0.0
0.0 0.0 0.0

-871165.2827010391 8.081436401822725e6 0.0
8.081436401822725e6 -3.655892633587774e6 0.0
0.0 0.0 0.0

-2.8308980421683057e6 8.67429792668277e6 0.0
8.67429792668277e6 1.0402742256307848e6 0.0
0.0 0.0 0.0

-1.0342465502689905e7 1.3221956010242416e7 0.0
1.3221956010242416e7 5.141682814449093e6 0.0
0.0 0.0 0.0

-317602.71761709824 8.717063581749573e6 0.0
8.717063581749573e6 -4.66304917404361e6 0.0
0.0 0.0 0.0

-2.6461389481208767e6 1.0115340525451396e7 0.0
1.0115340525451396e7 953506.3961817933 0.0
0.0 0.0 0.0

-2.529015052583157e6 4.6869395706287045e6 0.0
4.6869395706287045e6 1.3642588717503813e6 0.0
0.0 0.0 0.0

-4.7049343870127555e6 8.541167054467445e6 0.0
8.541167054467445e6 1.738010113880656e6 0.0
0.0 0.0 0.0

82710.64746412146 8.118567342510178e6 0.0
8.118567342510178e6 -5.599518565031122e6 0.0
0.0 0.0 0.0

-1.6265728365314933e6 9.957356019705711e6 0.0
9.957356019705711e6 495621.41089949384 0.0
0.0 0.0 0.0

-3.5721471431369144e6 7.4179921913462905e6 0.0
7.4179921913462905e6 1.8461117111758057e6 0.0
0.0 0.0 0.0

2.713006933311948e6 1.1032196919972043e7 0.0
1.1032196919972043e7 -4.670112697565877e6 0.0
0.0 0.0 0.0

-227353.36733641557 7.33697261601751e6 0.0
7.33697261601751e6 -461259.51674159314 0.0
0.0 0.0 0.0

-3.384239207718782e6 7.558783359681666e6 0.0
7.558783359681666e6 3.4603111318496577e6 0.0
0.0 0.0 0.0

-6.0934080774e6 8.326709919261304e6 0.0
8.326709919261304e6 227087.92364102812 0.0
0.0 0.0 0.0

-706706.5869014973 7.523076639910101e6 0.0
7.523076639910101e6 -614340.6070649414 0.0
0.0 0.0 0.0

-6.462139526337574e6 1.1438192967451345e7 0.0
1.1438192967451345e7 1.7607774372721775e6 0.0
0.0 0.0 0.0

-1.5327697219075693e6 1.3148259822658181e7 0.0
1.3148259822658181e7 -2.100579262831219e6 0.0
0.0 0.0 0.0

-1.1151720258450224e6 7.816428261992741e6 0.0
7.816428261992741e6 -2.95743687457724e6 0.0
0.0 0.0 0.0

-3.7095128392034518e6 7.934389940879371e6 0.0
7.934389940879371e6 5.167255912865745e6 0.0
0.0 0.0 0.0

-936948.8296426355 9.428134966049781e6 0.0
9.428134966049781e6 -3.7041322935678344e6 0.0
0.0 0.0 0.0

-2.653266693193952e6 7.600957699606352e6 0.0
7.600957699606352e6 73852.68671260413 0.0
0.0 0.0 0.0

-2.861178823849182e6 5.812858338095983e6 0.0
5.812858338095983e6 1.2853837563279674e6 0.0
0.0 0.0 0.0

400044.9908233143 2.294327221862644e6 0.0
2.294327221862644e6 -2.3813662293081107e6 0.0
0.0 0.0 0.0

-640570.6693846149 9.669954200759549e6 0.0
9.669954200759549e6 -34574.37512424338 0.0
0.0 0.0 0.0

-3.5786734715910773e6 1.2571556352829507e7 0.0
1.2571556352829507e7 -1.2872174069150668e6 0.0
0.0 0.0 0.0

1.1800094409980588e6 8.134843682195268e6 0.0
8.134843682195268e6 -7.5192083986188015e6 0.0
0.0 0.0 0.0

-1.7143099254639454e6 4.57773978525042e6 0.0
4.57773978525042e6 420860.14144647645 0.0
0.0 0.0 0.0

-6.442593238287403e6 1.6634498462772138e7 0.0
1.6634498462772138e7 153706.041208236 0.0
0.0 0.0 0.0

1.3984481728578382e6 7.033373596411241e6 0.0
7.033373596411241e6 -6.562628003165982e6 0.0
0.0 0.0 0.0

-648089.3077498212 9.70775680585055e6 0.0
9.70775680585055e6 -163799.55416321039 0.0
0.0 0.0 0.0

-3.044618273491307e6 1.1714390370781932e7 0.0
1.1714390370781932e7 -1.4702802144589243e6 0.0
0.0 0.0 0.0

-4.078586645446729e6 1.4611554486704033e7 0.0
1.4611554486704033e7 6.853467985581884e7 0.0
0.0 0.0 0.0

848596.7953867349 1.047658659649329e7 0.0
1.047658659649329e7 -1.2030402610006254e7 0.0
0.0 0.0 0.0

2.5232319011127986e6 1.0234730116583802e7 0.0
1.0234730116583802e7 3.198069301060164e6 0.0
0.0 0.0 0.0

-643916.053317019 1.301886931992583e7 0.0
1.301886931992583e7 -3.174676436186927e6 0.0
0.0 0.0 0.0

-674019.1853924398 4.381646080143261e6 0.0
4.381646080143261e6 -1.8142861742286629e6 0.0
0.0 0.0 0.0

-2.8731200983322673e6 1.621231534234581e7 0.0
1.621231534234581e7 -1.4252548803563528e6 0.0
0.0 0.0 0.0

-1.8034714853121988e6 9.245036143266004e6 0.0
9.245036143266004e6 1.8145150817765575e6 0.0
0.0 0.0 0.0

2.498797659269059e6 1.080725113191771e7 0.0
1.080725113191771e7 -4.361055090815622e6 0.0
0.0 0.0 0.0

-3.8094036285913163e6 8.345776971869201e6 0.0
8.345776971869201e6 1.7489402086363123e6 0.0
0.0 0.0 0.0

-1.7934976826766923e6 5.796581602143468e6 0.0
5.796581602143468e6 255575.54450519918 0.0
0.0 0.0 0.0

-489075.7811637857 853928.7369036002 0.0
853928.7369036002 -1.7389506877013366e6 0.0
0.0 0.0 0.0

-4.0278618514855895e6 8.490315245735839e6 0.0
8.490315245735839e6 5.474498584370477e6 0.0
0.0 0.0 0.0

-4.732049214450109e6 9.435944111292962e6 0.0
9.435944111292962e6 929685.438569054 0.0
0.0 0.0 0.0

-3.273076166453566e6 8.32965924902479e6 0.0
8.32965924902479e6 3.991297282737103e6 0.0
0.0 0.0 0.0

-3.7641572458204865e6 8.999887075542882e6 0.0
8.999887075542882e6 1.8597962790752028e6 0.0
0.0 0.0 0.0

-3.739690362048998e6 8.360390149373069e6 0.0
8.360390149373069e6 1.6957095517065444e6 0.0
0.0 0.0 0.0

-333690.3642938954 7.665951680722549e6 0.0
7.665951680722549e6 -4.0990948132656845e6 0.0
0.0 0.0 0.0

-3.5878037520406144e6 8.568578940413134e6 0.0
8.568578940413134e6 5.076630418264864e6 0.0
0.0 0.0 0.0

-3.990971577699747e6 8.45380863064663e6 0.0
8.45380863064663e6 2.1989069055375485e6 0.0
0.0 0.0 0.0

-1.598420004890066e6 7.424598799056078e6 0.0
7.424598799056078e6 -1.0791522272392113e6 0.0
0.0 0.0 0.0

-1.4994065746138683e7 5.0526872529128045e6 0.0
5.0526872529128045e6 7.077612754070887e6 0.0
0.0 0.0 0.0

-9.423148799871072e6 -1.148637479171708e6 0.0
-1.148637479171708e6 1.455360906570125e7 0.0
0.0 0.0 0.0

-3.9998423574693305e6 9.052998435262129e6 0.0
9.052998435262129e6 1.7304572308579432e6 0.0
0.0 0.0 0.0

-6.788448334975688e6 9.272521006122466e6 0.0
9.272521006122466e6 3.5465957106885943e6 0.0
0.0 0.0 0.0

96789.62914708885 8.214871137254674e6 0.0
8.214871137254674e6 -5.170559707100032e6 0.0
0.0 0.0 0.0

-8.624616010877477e6 1.008885274610968e7 0.0
1.008885274610968e7 4.7773242926077135e6 0.0
0.0 0.0 0.0

-1.1170268877701497e7 9.958618177876225e6 0.0
9.958618177876225e6 6.611860797625295e6 0.0
0.0 0.0 0.0

-1.2854630826153968e7 9.739638493917255e6 0.0
9.739638493917255e6 7.631266080215612e6 0.0
0.0 0.0 0.0

-5.7731233975263275e6 9.342855485535266e6 0.0
9.342855485535266e6 2.194448260770886e6 0.0
0.0 0.0 0.0

-4.566847188087237e6 3.34651249807185e6 0.0
3.34651249807185e6 5.594031784800787e6 0.0
0.0 0.0 0.0

1.5070261119961492e6 5.406600170479954e6 0.0
5.406600170479954e6 -5.548996270758331e6 0.0
0.0 0.0 0.0

-3.05316345660555e6 8.652353584032064e6 0.0
8.652353584032064e6 3.591269881014076e6 0.0
0.0 0.0 0.0

-6.9709086961684115e6 1.1347987857290652e7 0.0
1.1347987857290652e7 2.3196455531282844e6 0.0
0.0 0.0 0.0

-748068.588619014 8.736844396198735e6 0.0
8.736844396198735e6 -4.0557736276686536e6 0.0
0.0 0.0 0.0

-3.8527865004822817e6 -1.652817504865542e6 0.0
-1.652817504865542e6 5.570446294927456e6 0.0
0.0 0.0 0.0

-475947.4852114088 9.889503069788422e6 0.0
9.889503069788422e6 -470624.6318532349 0.0
0.0 0.0 0.0

-933998.28511462 1.0289147116775123e7 0.0
1.0289147116775123e7 -3.3071797989032245e6 0.0
0.0 0.0 0.0

-446032.31792079716 9.464124522078006e6 0.0
9.464124522078006e6 -3.9214553591917744e6 0.0
0.0 0.0 0.0

-466710.2563304956 7.888946658200663e6 0.0
7.888946658200663e6 -4.626828007165206e6 0.0
0.0 0.0 0.0

-439998.1517380037 1.4731350578071845e6 0.0
1.4731350578071845e6 -1.066685193429603e6 0.0
0.0 0.0 0.0

348276.86574315326 7.889589485903651e6 0.0
7.889589485903651e6 -3.2035864178072345e6 0.0
0.0 0.0 0.0

641626.5754548658 7.395574919065839e6 0.0
7.395574919065839e6 -579235.3112336876 0.0
0.0 0.0 0.0

4.722965762314117e6 7.731554923989142e6 0.0
7.731554923989142e6 -2.7474554922152376e6 0.0
0.0 0.0 0.0

-1.2980024548121864e7 9.33759841203659e6 0.0
9.33759841203659e6 8.618751645121112e6 0.0
0.0 0.0 0.0

-1.9936767521769714e6 5.67310429116996e6 0.0
5.67310429116996e6 633223.0931018447 0.0
0.0 0.0 0.0

-267379.91710403375 9.25569838766339e6 0.0
9.25569838766339e6 -6.703594417172227e6 0.0
0.0 0.0 0.0

1.0768441017094934e6 6.775506984002119e6 0.0
6.775506984002119e6 -5.685736381098763e6 0.0
0.0 0.0 0.0

-363411.90689651703 1.7263341072159563e6 0.0
1.7263341072159563e6 173989.05166848423 0.0
0.0 0.0 0.0

-1.0475655184822042e7 5.311674245342752e6 0.0
5.311674245342752e6 6.162390154481456e6 0.0
0.0 0.0 0.0

-6.314082803849005e6 8.32579585428028e6 0.0
8.32579585428028e6 187957.00023583462 0.0
0.0 0.0 0.0

-137865.92453608336 8.139869189929597e6 0.0
8.139869189929597e6 -4.209530067705953e6 0.0
0.0 0.0 0.0

-6.603463338992794e6 1.00557833214028e7 0.0
1.00557833214028e7 2.7116145055214856e6 0.0
0.0 0.0 0.0

1.5265682753379364e6 7.088060768866393e6 0.0
7.088060768866393e6 -7.916002038459005e6 0.0
0.0 0.0 0.0

-129862.37897370406 1.2007640034152173e7 0.0
1.2007640034152173e7 -3.3604497810818404e6 0.0
0.0 0.0 0.0

-182979.94258069678 7.8046964162046295e6 0.0
7.8046964162046295e6 1.050187715170034e6 0.0
0.0 0.0 0.0

-607021.3052212421 7.979015889103022e6 0.0
7.979015889103022e6 -3.50255246670269e6 0.0
0.0 0.0 0.0

-4.048155978185663e6 8.246063007031898e6 0.0
8.246063007031898e6 1.5145874454285027e6 0.0
0.0 0.0 0.0

-948455.1852351193 7.538072931000624e6 0.0
7.538072931000624e6 -2.734556418764373e6 0.0
0.0 0.0 0.0

-726194.3125630475 7.991238926543041e6 0.0
7.991238926543041e6 -3.9200039703930872e6 0.0
0.0 0.0 0.0

-240354.33395730844 8.35654625531499e6 0.0
8.35654625531499e6 -4.5326897141185505e6 0.0
0.0 0.0 0.0

-5.79187470419584e6 9.51466547959337e6 0.0
9.51466547959337e6 3.0690909325296525e6 0.0
0.0 0.0 0.0

-999553.4525947284 9.865039650644803e6 0.0
9.865039650644803e6 -7.084263805645092e6 0.0
0.0 0.0 0.0

-4.1882023727009385e6 1.5489994968534919e7 0.0
1.5489994968534919e7 137500.60648834286 0.0
0.0 0.0 0.0

-3.1751834480765066e6 1.2865735210315196e7 0.0
1.2865735210315196e7 -1.6204125901920306e6 0.0
0.0 0.0 0.0

-7.08799524174659e6 9.947829362126851e6 0.0
9.947829362126851e6 3.881281881237097e6 0.0
0.0 0.0 0.0

-3.7711124171567513e6 8.1661647725810185e6 0.0
8.1661647725810185e6 2.137258874678131e6 0.0
0.0 0.0 0.0

1.5766844013827192e6 6.91780085776852e6 0.0
6.91780085776852e6 -8.080887546883625e6 0.0
0.0 0.0 0.0

-3.1411800792182405e6 8.465604097570011e6 0.0
8.465604097570011e6 2.2513936120867846e6 0.0
0.0 0.0 0.0

1.6058479431524812e6 6.762221588467619e6 0.0
6.762221588467619e6 -7.368440356618088e6 0.0
0.0 0.0 0.0

-3.274583034686797e6 7.927825309338952e6 0.0
7.927825309338952e6 -461897.8859485481 0.0
0.0 0.0 0.0

-2.986898962189136e6 7.696298041406403e6 0.0
7.696298041406403e6 -592984.0221431439 0.0
0.0 0.0 0.0

173761.24196350202 7.727294657961499e6 0.0
7.727294657961499e6 -3.5043129746255055e6 0.0
0.0 0.0 0.0

-2.4208175851205303e6 9.000099076930948e6 0.0
9.000099076930948e6 1.887901498979022e6 0.0
0.0 0.0 0.0

-5.272040479120223e6 8.798188422731243e6 0.0
8.798188422731243e6 1.9941521917012127e6 0.0
0.0 0.0 0.0

-3.0624083647774807e6 6.617970941794206e6 0.0
6.617970941794206e6 1.82254396549201e6 0.0
0.0 0.0 0.0

61534.08689422929 1.9205357014390442e6 0.0
1.9205357014390442e6 601107.420440855 0.0
0.0 0.0 0.0

934561.8900540085 6.659678849702384e6 0.0
6.659678849702384e6 -6.117435480803008e6 0.0
0.0 0.0 0.0

261121.52669188008 6.913316916997904e6 0.0
6.913316916997904e6 -4.81380784036993e6 0.0
0.0 0.0 0.0

-8.029263663876973e6 1.110859539004625e7 0.0
1.110859539004625e7 4.2057540524985045e6 0.0
0.0 0.0 0.0

-2.419604168337762e6 9.52731683367364e6 0.0
9.52731683367364e6 687647.928367087 0.0
0.0 0.0 0.0

150743.53569310787 8.166641026858895e6 0.0
8.166641026858895e6 -5.132672611920139e6 0.0
0.0 0.0 0.0

-6.585186245150618e6 7.377168411337227e6 0.0
7.377168411337227e6 8.77939442358294e6 0.0
0.0 0.0 0.0

-377415.66175799316 3.352190235181376e6 0.0
3.352190235181376e6 -383940.01544139074 0.0
0.0 0.0 0.0

-1.09569185358995e6 8.135394629533413e6 0.0
8.135394629533413e6 2.385587231158841e6 0.0
0.0 0.0 0.0

-9.57136803203002e6 8.214967459943598e6 0.0
8.214967459943598e6 6.100113571658859e6 0.0
0.0 0.0 0.0

761224.6709280914 7.459136580503926e6 0.0
7.459136580503926e6 -593080.7201603189 0.0
0.0 0.0 0.0

-662121.7149454695 9.370034863267185e6 0.0
9.370034863267185e6 466470.23453610775 0.0
0.0 0.0 0.0

-5.580111242170504e6 9.59800145952783e6 0.0
9.59800145952783e6 2.8222245914948327e6 0.0
0.0 0.0 0.0

-2.8290901125937663e6 8.596180189723188e6 0.0
8.596180189723188e6 1.949266490529854e6 0.0
0.0 0.0 0.0

-5.831530183452392e6 8.686339811585924e6 0.0
8.686339811585924e6 6.2955454860787485e6 0.0
0.0 0.0 0.0

-5.085977116748729e6 8.873813268728456e6 0.0
8.873813268728456e6 134876.51109480136 0.0
0.0 0.0 0.0

-4.54212568655814e6 8.46597532443937e6 0.0
8.46597532443937e6 788216.9819437629 0.0
0.0 0.0 0.0

-4.317526498456154e6 1.0586579737696063e6 0.0
1.0586579737696063e6 4.1586223867483875e6 0.0
0.0 0.0 0.0

-2.5219995092814595e7 1.0669234923626702e7 0.0
1.0669234923626702e7 1.4292130550245347e7 0.0
0.0 0.0 0.0

3.092511903543566e6 7.589161509366764e6 0.0
7.589161509366764e6 -1.7948521305803997e6 0.0
0.0 0.0 0.0

88244.93823020952 8.124234126029889e6 0.0
8.124234126029889e6 -5.360342378832111e6 0.0
0.0 0.0 0.0

-3.5239236658723103e6 8.153592019617283e6 0.0
8.153592019617283e6 1.4799823100780773e6 0.0
0.0 0.0 0.0

-1.7614223248145897e6 1.0027998915421626e7 0.0
1.0027998915421626e7 -2.809862585529569e6 0.0
0.0 0.0 0.0

7.650325750277598e6 9.372677067865595e6 0.0
9.372677067865595e6 353411.43051245576 0.0
0.0 0.0 0.0

231548.5767744935 3.871106203895213e6 0.0
3.871106203895213e6 -1.429580561261165e6 0.0
0.0 0.0 0.0

6.92716304246827e6 1.1967687555471838e6 0.0
1.1967687555471838e6 -8.834216512626037e6 0.0
0.0 0.0 0.0

-2.675771629568604e6 1.0009608951853912e7 0.0
1.0009608951853912e7 -1.793909102181415e6 0.0
0.0 0.0 0.0

162879.38441076572 7.903691217564819e6 0.0
7.903691217564819e6 -3.181563352219515e6 0.0
0.0 0.0 0.0

-7.455796021093588e6 777276.4059091277 0.0
777276.4059091277 8.97438761173115e6 0.0
0.0 0.0 0.0

-2.292143592670703e6 1.2966403346384643e7 0.0
1.2966403346384643e7 -1.3246078636055463e6 0.0
0.0 0.0 0.0

-1.4543924725676652e7 9.296979842517203e6 0.0
9.296979842517203e6 8.69491815791189e6 0.0
0.0 0.0 0.0

3.0355201864042412e6 8.76326355791735e6 0.0
8.76326355791735e6 -2.607657749804135e6 0.0
0.0 0.0 0.0

-695184.1380487159 1.4539767794082097e6 0.0
1.4539767794082097e6 780448.3579805407 0.0
0.0 0.0 0.0

-1.085220038242385e7 2.8497865858190935e6 0.0
2.8497865858190935e6 7.572469558624573e6 0.0
0.0 0.0 0.0

-909824.8261223282 6.8871417392356815e6 0.0
6.8871417392356815e6 -829386.9525960173 0.0
0.0 0.0 0.0

-1.661968652780823e7 9.60055504854462e6 0.0
9.60055504854462e6 9.406411543980584e6 0.0
0.0 0.0 0.0

-2.8915340522437487e6 5.446538642584825e6 0.0
5.446538642584825e6 2.458461614834655e6 0.0
0.0 0.0 0.0

682101.9926960408 9.188940008467967e6 0.0
9.188940008467967e6 -3.202911591226304e6 0.0
0.0 0.0 0.0

-906458.2473453816 7.992877764485436e6 0.0
7.992877764485436e6 -5.094071886518228e6 0.0
0.0 0.0 0.0

-260528.63994330238 8.273914185537215e6 0.0
8.273914185537215e6 -4.367836803464347e6 0.0
0.0 0.0 0.0

207954.62690985855 1.1487998301129224e7 0.0
1.1487998301129224e7 -3.044226256274011e6 0.0
0.0 0.0 0.0

-6.37131068800449e6 2.0264210106446534e7 0.0
2.0264210106446534e7 -1.0094889367425134e7 0.0
0.0 0.0 0.0

-379887.0401682284 1.986623519596426e6 0.0
1.986623519596426e6 -828004.9011149734 0.0
0.0 0.0 0.0

-9.767361106427787e6 1.2757673805668237e7 0.0
1.2757673805668237e7 4.0009890087987953e6 0.0
0.0 0.0 0.0

-6.210059593731671e6 1.1523076314492013e7 0.0
1.1523076314492013e7 2.587714832854148e6 0.0
0.0 0.0 0.0

-2.511711940588991e6 199709.9061066284 0.0
199709.9061066284 1.7709458908243496e6 0.0
0.0 0.0 0.0

1.503326478472283e6 5.561502289326532e6 0.0
5.561502289326532e6 -5.543901989191519e6 0.0
0.0 0.0 0.0

-4.516963099920482e6 9.049667470905792e6 0.0
9.049667470905792e6 2.3248966449011974e6 0.0
0.0 0.0 0.0

-2.0633428198839598e6 8.084194563827667e6 0.0
8.084194563827667e6 3.086306491364425e6 0.0
0.0 0.0 0.0

-304305.129555859 1.0650963535702014e6 0.0
1.0650963535702014e6 1.598620496525053e6 0.0
0.0 0.0 0.0

-2.2258498204883826e6 4.831649510519233e6 0.0
4.831649510519233e6 1.1924104114708537e6 0.0
0.0 0.0 0.0

-2.502754967497634e6 8.287548189439377e6 0.0
8.287548189439377e6 3.5845018117025374e6 0.0
0.0 0.0 0.0

-2.3605739642672176e6 6.962984802197236e6 0.0
6.962984802197236e6 -1.6334641118485355e6 0.0
0.0 0.0 0.0

-292055.6977863915 8.125505983752345e6 0.0
8.125505983752345e6 -4.698515584123352e6 0.0
0.0 0.0 0.0

-6.038900639787569e6 1.0559008595048679e7 0.0
1.0559008595048679e7 1.7864272218278418e6 0.0
0.0 0.0 0.0

285812.7638129676 3.09109988906971e6 0.0
3.09109988906971e6 -1.0970452513778727e6 0.0
0.0 0.0 0.0

-2.991468353644451e6 7.729317963162532e6 0.0
7.729317963162532e6 547559.9112288582 0.0
0.0 0.0 0.0

-4.786272685167823e6 6.072056400846328e6 0.0
6.072056400846328e6 6.649957919670617e6 0.0
0.0 0.0 0.0

-1.241323077757207e6 6.2874111050998345e6 0.0
6.2874111050998345e6 -2.13872152983475e6 0.0
0.0 0.0 0.0

-3.190380447697773e6 1.1083829866448069e7 0.0
1.1083829866448069e7 -1.3750435293720057e6 0.0
0.0 0.0 0.0

-1.052430196577689e7 1.3246460924265912e7 0.0
1.3246460924265912e7 6.323733909352221e6 0.0
0.0 0.0 0.0

54157.105295491405 8.068632193032512e6 0.0
8.068632193032512e6 -5.444873644337193e6 0.0
0.0 0.0 0.0

-2.2597334871719465e7 9.259722653088521e6 0.0
9.259722653088521e6 1.108014967564435e7 0.0
0.0 0.0 0.0

-134838.44414329412 24500.662549390297 0.0
24500.662549390297 -1.3027413545567326e6 0.0
0.0 0.0 0.0

-254024.59565947996 110592.70451425506 0.0
110592.70451425506 -1.982542948137961e6 0.0
0.0 0.0 0.0

-1.4903097588796658e6 9.859957253767923e6 0.0
9.859957253767923e6 2.838311611565021e6 0.0
0.0 0.0 0.0

-3.4545594289654046e6 9.03962520251349e6 0.0
9.03962520251349e6 5.772449452756752e6 0.0
0.0 0.0 0.0

-698012.3719847486 9.83283393630094e6 0.0
9.83283393630094e6 6639.370896670094 0.0
0.0 0.0 0.0

-1.6233147384869729e6 4.757905861170528e6 0.0
4.757905861170528e6 682100.7491443952 0.0
0.0 0.0 0.0

-51126.57526864874 3.3283396702859965e6 0.0
3.3283396702859965e6 545426.4467527798 0.0
0.0 0.0 0.0

-1.7201299889267657e6 9.59657212352951e6 0.0
9.59657212352951e6 687013.836702973 0.0
0.0 0.0 0.0

-6.3650566384927165e6 9.776575820670461e6 0.0
9.776575820670461e6 3.204620453717563e6 0.0
0.0 0.0 0.0

222712.4656985714 8.091209538020003e6 0.0
8.091209538020003e6 -5.637691482014338e6 0.0
0.0 0.0 0.0

-2.4108312848930685e6 8.494064792846534e6 0.0
8.494064792846534e6 4.779320006389411e6 0.0
0.0 0.0 0.0

3.264741768209958e6 8.12187570730527e6 0.0
8.12187570730527e6 -1.867493496697968e6 0.0
0.0 0.0 0.0

-1.8488444110302374e7 9.370061850935495e6 0.0
9.370061850935495e6 1.0876252179703545e7 0.0
0.0 0.0 0.0

-827795.3254884079 7.32067166572048e6 0.0
7.32067166572048e6 704849.6057515987 0.0
0.0 0.0 0.0

-519412.76294459775 6.194436381699236e6 0.0
6.194436381699236e6 -1.6755951274460058e6 0.0
0.0 0.0 0.0

-3.1562133288540477e6 2.877896426894741e6 0.0
2.877896426894741e6 2.1829742675797045e6 0.0
0.0 0.0 0.0

-6.202277898272051e6 9.515285430602167e6 0.0
9.515285430602167e6 2.8207390650493274e6 0.0
0.0 0.0 0.0

-5.311257574518772e6 7.66675474375812e6 0.0
7.66675474375812e6 8.544469697731046e6 0.0
0.0 0.0 0.0

-1.2654703538225276e7 -3.085193549218346e6 0.0
-3.085193549218346e6 1.8689928238115326e7 0.0
0.0 0.0 0.0

-1.2492497208110066e6 9.411326248059802e6 0.0
9.411326248059802e6 938514.351325779 0.0
0.0 0.0 0.0

-1.1657717329011543e6 8.370065036236521e6 0.0
8.370065036236521e6 -5.506324860591966e6 0.0
0.0 0.0 0.0

-3.137062891121321e6 8.757237363248184e6 0.0
8.757237363248184e6 4.738160780734624e6 0.0
0.0 0.0 0.0

-3.463409277958692e6 8.034731518057512e6 0.0
8.034731518057512e6 4.198656377174068e6 0.0
0.0 0.0 0.0

-2.151454189343982e6 6.614771192356874e6 0.0
6.614771192356874e6 -1.8145921802184074e6 0.0
0.0 0.0 0.0

-8.226033467151923e6 1.163783164400697e7 0.0
1.163783164400697e7 2.4896058819074344e7 0.0
0.0 0.0 0.0

-2.5560543505645087e6 1.3015572718421867e7 0.0
1.3015572718421867e7 -2.197290202208202e6 0.0
0.0 0.0 0.0

-1.2101991832539765e6 9.320054389923083e6 0.0
9.320054389923083e6 -3.388131114602545e6 0.0
0.0 0.0 0.0

-1.3702827358031229e6 5.320374602638736e6 0.0
5.320374602638736e6 -1.2692389712533657e6 0.0
0.0 0.0 0.0

1.9402016168355588e6 6.515053072718368e6 0.0
6.515053072718368e6 -7.479587506204935e6 0.0
0.0 0.0 0.0

-1.0589193359659333e7 1.226005524762213e7 0.0
1.226005524762213e7 6.351146550182013e6 0.0
0.0 0.0 0.0

-3.9155670567340623e6 3.1699183406555047e6 0.0
3.1699183406555047e6 3.0995124309381815e6 0.0
0.0 0.0 0.0

-1.0573720935434885e6 9.283068554337908e6 0.0
9.283068554337908e6 1.2874746733302884e6 0.0
0.0 0.0 0.0

-3.865952282953603e6 8.730761102122694e6 0.0
8.730761102122694e6 1.5095096361849238e6 0.0
0.0 0.0 0.0

-3.4918894271631353e6 7.925515998797014e6 0.0
7.925515998797014e6 835379.0765303569 0.0
0.0 0.0 0.0

-2.919861296496177e6 4.658711601829878e6 0.0
4.658711601829878e6 1.9436850148769899e6 0.0
0.0 0.0 0.0

-551810.3086499835 6.796545056028975e6 0.0
6.796545056028975e6 -3.736804822310261e6 0.0
0.0 0.0 0.0

-1.462100415675607e7 8.750929657347107e6 0.0
8.750929657347107e6 8.48477055153795e6 0.0
0.0 0.0 0.0

1.6553542350682258e6 7.973070395684284e6 0.0
7.973070395684284e6 1.6642889228936743e6 0.0
0.0 0.0 0.0

-529424.078550352 2.452931189876419e6 0.0
2.452931189876419e6 -1.0070845634385344e6 0.0
0.0 0.0 0.0

-6.546950484250347e6 9.560965433904165e6 0.0
9.560965433904165e6 3.35493255338956e6 0.0
0.0 0.0 0.0

-1.253710385959437e7 1.528011762099647e6 0.0
1.528011762099647e6 6.976383789291412e6 0.0
0.0 0.0 0.0

-2.4057582821423355e6 9.616041782107607e6 0.0
9.616041782107607e6 1.1075903638320134e6 0.0
0.0 0.0 0.0

-1.7359392369308684e7 1.0961512758912824e7 0.0
1.0961512758912824e7 3.5689536058442993e6 0.0
0.0 0.0 0.0

-2.378858494443247e6 1.0156879382336332e7 0.0
1.0156879382336332e7 356624.37279189925 0.0
0.0 0.0 0.0

-2.78560415272678e6 6.049459520921906e6 0.0
6.049459520921906e6 1.7373019476137045e6 0.0
0.0 0.0 0.0

-1.656553423816407e6 4.460810443033497e6 0.0
4.460810443033497e6 686261.7335401513 0.0
0.0 0.0 0.0

-2.054766407235351e6 5.4358348323225435e6 0.0
5.4358348323225435e6 285682.0239955222 0.0
0.0 0.0 0.0

-3.4087214241057094e6 8.73946554028687e6 0.0
8.73946554028687e6 1.9016608217198767e6 0.0
0.0 0.0 0.0

-4.8372229711610135e6 -426984.3121018635 0.0
-426984.3121018635 6.1000879595092125e6 0.0
0.0 0.0 0.0

69431.26840940188 7.330342770830991e6 0.0
7.330342770830991e6 -3.1721224690023274e6 0.0
0.0 0.0 0.0

-880665.0095395485 5.470424859878889e6 0.0
5.470424859878889e6 -2.4875721244718465e6 0.0
0.0 0.0 0.0

-1.1093687316531923e6 8.648453505985057e6 0.0
8.648453505985057e6 -3.0082870496276133e6 0.0
0.0 0.0 0.0

-701602.6021511105 2.38633372460076e6 0.0
2.38633372460076e6 384636.6337953162 0.0
0.0 0.0 0.0

-169166.5271877707 7.463963524024966e6 0.0
7.463963524024966e6 -2.785525454046901e6 0.0
0.0 0.0 0.0

-3.9378315492763496e6 8.847173205905575e6 0.0
8.847173205905575e6 1.7747562613834816e6 0.0
0.0 0.0 0.0

-2.3789561386403665e6 9.327593805255847e6 0.0
9.327593805255847e6 3.2088608226885935e6 0.0
0.0 0.0 0.0

-2.3703419768636944e6 9.671750867480272e6 0.0
9.671750867480272e6 -1.7438328955451779e6 0.0
0.0 0.0 0.0

-620191.9723501406 9.78077034640055e6 0.0
9.78077034640055e6 -383949.76225809177 0.0
0.0 0.0 0.0

-9.286455295853734e6 1.2197796663760584e7 0.0
1.2197796663760584e7 3.959396122705857e6 0.0
0.0 0.0 0.0

-1.1334577233652435e6 1.0528792931640418e7 0.0
1.0528792931640418e7 -2.9477520697940597e6 0.0
0.0 0.0 0.0

1.2148487859039994e7 1.0808216850810183e7 0.0
1.0808216850810183e7 -3.8778581644318067e6 0.0
0.0 0.0 0.0

501972.9282916549 1.000535899874052e7 0.0
1.000535899874052e7 -3.1045054428317584e6 0.0
0.0 0.0 0.0

-227970.43325086636 8.684022951324744e6 0.0
8.684022951324744e6 -4.61133984786285e6 0.0
0.0 0.0 0.0

-2.1310068094870695e6 1.1468159857672926e7 0.0
1.1468159857672926e7 -2.202722943449276e6 0.0
0.0 0.0 0.0

-1.2582605878718736e7 3.895273401629147e6 0.0
3.895273401629147e6 7.230630149162267e6 0.0
0.0 0.0 0.0

-3.9157395755247357e6 8.931697399647996e6 0.0
8.931697399647996e6 1.7593346749989765e6 0.0
0.0 0.0 0.0

3.8447767408150434e6 8.856855604639817e6 0.0
8.856855604639817e6 -4.577156933549632e6 0.0
0.0 0.0 0.0

339995.06476392597 8.141701969882742e6 0.0
8.141701969882742e6 -6.15349384172706e6 0.0
0.0 0.0 0.0

-2.238583914582245e6 1.0893335562926203e7 0.0
1.0893335562926203e7 3.3652775564560895e6 0.0
0.0 0.0 0.0

632139.2017095664 6.179042165433258e6 0.0
6.179042165433258e6 -4.280797617453406e6 0.0
0.0 0.0 0.0

-1.974685698943855e6 1.1600017358080557e7 0.0
1.1600017358080557e7 -1.6950728075990437e6 0.0
0.0 0.0 0.0

1.661708410431229e6 6.608716530234896e6 0.0
6.608716530234896e6 -7.344019802857475e6 0.0
0.0 0.0 0.0

-3.311600140219573e6 1.0711093757366374e7 0.0
1.0711093757366374e7 -1.1129511810264513e6 0.0
0.0 0.0 0.0

-2.919892610888591e6 1.2682989358621275e7 0.0
1.2682989358621275e7 -741284.7433090449 0.0
0.0 0.0 0.0

-3.384160967035563e6 7.744687886210033e6 0.0
7.744687886210033e6 908035.0814463303 0.0
0.0 0.0 0.0

-8.267711058454719e6 8.464375413411673e6 0.0
8.464375413411673e6 5.350702276164675e6 0.0
0.0 0.0 0.0

-3.756930008416569e6 7.988097828090819e6 0.0
7.988097828090819e6 4.108295473101649e6 0.0
0.0 0.0 0.0

-1.658901739311921e6 7.140831532222007e6 0.0
7.140831532222007e6 230549.11512914428 0.0
0.0 0.0 0.0

-1.74483815428435e7 7.752962996401664e6 0.0
7.752962996401664e6 9.606377558000848e6 0.0
0.0 0.0 0.0

2.0660098545749066e6 7.540702320495837e6 0.0
7.540702320495837e6 283474.84392545524 0.0
0.0 0.0 0.0

-1.3298367085104627e6 7.31371076760634e6 0.0
7.31371076760634e6 -1.2158172729093705e6 0.0
0.0 0.0 0.0

-5.502721290761268e6 9.567230290700927e6 0.0
9.567230290700927e6 3.1060007329354947e6 0.0
0.0 0.0 0.0

-2.9790267703957e6 1.0202195885768764e7 0.0
1.0202195885768764e7 830329.3860656135 0.0
0.0 0.0 0.0

-1.1742333563719252e6 6.988506329554211e6 0.0
6.988506329554211e6 -2.342566934026049e6 0.0
0.0 0.0 0.0

2.0489191684823097e6 5.69542217138693e6 0.0
5.69542217138693e6 -6.172723903860259e6 0.0
0.0 0.0 0.0

-44628.97385261697 8.153818444119328e6 0.0
8.153818444119328e6 -4.1883697060824037e6 0.0
0.0 0.0 0.0

8.290941637119272e6 6.557966038991573e6 0.0
6.557966038991573e6 -2.7924711960948715e6 0.0
0.0 0.0 0.0

-3.597790269037082e6 8.042722782811938e6 0.0
8.042722782811938e6 4.621374944850121e6 0.0
0.0 0.0 0.0

-5.220920610818351e6 9.32679598670057e6 0.0
9.32679598670057e6 2.706775842387157e6 0.0
0.0 0.0 0.0

-879573.3177948042 -549561.2148663081 0.0
-549561.2148663081 3.23421833885225e6 0.0
0.0 0.0 0.0

-8.54759425872787e6 1.0202757637481753e7 0.0
1.0202757637481753e7 4.822917019144507e6 0.0
0.0 0.0 0.0

-1.138112480799066e7 3.1864580841020416e6 0.0
3.1864580841020416e6 6.272297611999724e6 0.0
0.0 0.0 0.0

-1.439980942485591e6 9.51711301628475e6 0.0
9.51711301628475e6 -3.124374881333853e6 0.0
0.0 0.0 0.0

-1.093501521740584e6 9.656031874211118e6 0.0
9.656031874211118e6 2.1525474867752115e6 0.0
0.0 0.0 0.0

-276303.1004158435 7.545215480427226e6 0.0
7.545215480427226e6 -1.561765986432658e6 0.0
0.0 0.0 0.0

-3.4114417512764875e6 8.092670298442294e6 0.0
8.092670298442294e6 1.2093050074934855e6 0.0
0.0 0.0 0.0

-1.5217515078868074e6 6.716341854811112e6 0.0
6.716341854811112e6 -2.729019639010096e6 0.0
0.0 0.0 0.0

-222300.63648294006 6.724133881532749e6 0.0
6.724133881532749e6 -3.639880094805703e6 0.0
0.0 0.0 0.0

-1.120615698024596e6 3.893102929001332e6 0.0
3.893102929001332e6 -1.8949801835906324e6 0.0
0.0 0.0 0.0

-5.336122793252919e6 9.59686207165465e6 0.0
9.59686207165465e6 2.926724262318124e6 0.0
0.0 0.0 0.0

-2.522590830391848e6 6.870510682650514e6 0.0
6.870510682650514e6 -1.2918150144187592e6 0.0
0.0 0.0 0.0

2.472199324040992e6 7.936879638947273e6 0.0
7.936879638947273e6 1.805315066562577e6 0.0
0.0 0.0 0.0

1.8665370598676344e6 5.800189162017963e6 0.0
5.800189162017963e6 -6.014928925775548e6 0.0
0.0 0.0 0.0

-1.8276002963550813e6 9.552721511307841e6 0.0
9.552721511307841e6 2.3247326100716353e6 0.0
0.0 0.0 0.0

-686222.4889252341 3.6747344089346924e6 0.0
3.6747344089346924e6 -2.3740289308216847e6 0.0
0.0 0.0 0.0

-5.694524927852408e6 1.07221045248314e7 0.0
1.07221045248314e7 2.0439470263597288e6 0.0
0.0 0.0 0.0

-760592.6434707823 9.785944426004017e6 0.0
9.785944426004017e6 228306.86059497285 0.0
0.0 0.0 0.0

-7.62732999118997e6 2.3188452609914267e6 0.0
2.3188452609914267e6 1.0011026424483515e7 0.0
0.0 0.0 0.0

-234035.7638732645 4.494241843338677e6 0.0
4.494241843338677e6 -1.196410847758708e6 0.0
0.0 0.0 0.0

-3.82318484361404e6 1.3022300599278394e7 0.0
1.3022300599278394e7 -1.2718280701472175e6 0.0
0.0 0.0 0.0

-1.389432036257149e7 -1.4461635592537802e6 0.0
-1.4461635592537802e6 8.74749399166094e6 0.0
0.0 0.0 0.0

-808144.0920512889 8.99922082858432e6 0.0
8.99922082858432e6 -3.927526481190043e6 0.0
0.0 0.0 0.0

-3.164529820200065e6 6.786996922788022e6 0.0
6.786996922788022e6 4.391683593635167e6 0.0
0.0 0.0 0.0

-2.5174632615618575e6 6.00517232011027e6 0.0
6.00517232011027e6 1.311998294127976e6 0.0
0.0 0.0 0.0

-1.7442450802877046e7 -855232.3742485088 0.0
-855232.3742485088 8.992916569133842e6 0.0
0.0 0.0 0.0

-231049.62976925378 8.493534671633573e6 0.0
8.493534671633573e6 -4.837901640711319e6 0.0
0.0 0.0 0.0

-2.1755656618312597e6 1.0858482010423986e7 0.0
1.0858482010423986e7 -1.674179670213974e6 0.0
0.0 0.0 0.0

-646542.8899606067 1.6484592227440935e6 0.0
1.6484592227440935e6 -1.4094860388310791e6 0.0
0.0 0.0 0.0

-4.426046198013378e6 1.0163387974932695e7 0.0
1.0163387974932695e7 692100.8489285135 0.0
0.0 0.0 0.0

-5.888818202487538e6 1.3188536078438632e7 0.0
1.3188536078438632e7 1.4058509819102103e6 0.0
0.0 0.0 0.0

-7.08666054212117e6 9.885659616721895e6 0.0
9.885659616721895e6 3.9502649944684184e6 0.0
0.0 0.0 0.0

-3.5579335578677524e6 8.41545617565434e6 0.0
8.41545617565434e6 834812.6404574893 0.0
0.0 0.0 0.0

-4.732294683810106e6 4.294808479219141e6 0.0
4.294808479219141e6 6.378605135441549e6 0.0
0.0 0.0 0.0

-2.6381662865496064e6 8.984714912867961e6 0.0
8.984714912867961e6 1.7659492360972613e6 0.0
0.0 0.0 0.0

-8.44834335953443e6 1.0099625979083998e7 0.0
1.0099625979083998e7 4.602071340254564e6 0.0
0.0 0.0 0.0

-1.073604806637537e6 5.886090995509023e6 0.0
5.886090995509023e6 -3.040218875006221e6 0.0
0.0 0.0 0.0

-7.8631566962275e6 1.0042861442076495e7 0.0
1.0042861442076495e7 4.315625308250851e6 0.0
0.0 0.0 0.0

-3.979329528492065e6 8.919540734754043e6 0.0
8.919540734754043e6 5.876683379028709e6 0.0
0.0 0.0 0.0

-2.8775864783697696e6 3.20808612990783e6 0.0
3.20808612990783e6 2.6472896136750844e6 0.0
0.0 0.0 0.0

1.5913343650134807e6 5.825443845332784e6 0.0
5.825443845332784e6 -6.412771555700467e6 0.0
0.0 0.0 0.0

-4.61242872092382e6 8.762682331167495e6 0.0
8.762682331167495e6 1.586910043957474e6 0.0
0.0 0.0 0.0

-5.014977213638208e6 8.856314093158895e6 0.0
8.856314093158895e6 1.2956126979613018e6 0.0
0.0 0.0 0.0

-4.765737443611478e6 9.309627796240153e6 0.0
9.309627796240153e6 1.1809057793833343e6 0.0
0.0 0.0 0.0

-2.1435990675750945e7 1.6375299369932253e7 0.0
1.6375299369932253e7 -20136.23556126468 0.0
0.0 0.0 0.0

-1.131886416929225e6 9.684080578621795e6 0.0
9.684080578621795e6 -2.8585745589611265e6 0.0
0.0 0.0 0.0

-5.840061822116015e6 9.385703753524782e6 0.0
9.385703753524782e6 2.7252261064394237e6 0.0
0.0 0.0 0.0

-3.116784654699021e6 6.160633984190713e6 0.0
6.160633984190713e6 1.5658498511454002e6 0.0
0.0 0.0 0.0

-1.3971557698366523e7 2.3236957880365835e6 0.0
2.3236957880365835e6 8.242887749689744e6 0.0
0.0 0.0 0.0

-322393.26496877207 9.785105676387448e6 0.0
9.785105676387448e6 -637531.1208982518 0.0
0.0 0.0 0.0

-6.10583199188526e6 7.072401072401478e6 0.0
7.072401072401478e6 8.84811668803398e6 0.0
0.0 0.0 0.0

3.13097967728114e6 6.4517323516388e6 0.0
6.4517323516388e6 -6.903046674398141e6 0.0
0.0 0.0 0.0

-1.4372020954602562e7 8.401136394027544e6 0.0
8.401136394027544e6 8.697221522791889e6 0.0
0.0 0.0 0.0

-3.936951196927585e6 -224648.05787651698 0.0
-224648.05787651698 5.100963452378196e6 0.0
0.0 0.0 0.0

-6.719203899362188e6 -1.5493663790683714e6 0.0
-1.5493663790683714e6 9.396062409065686e6 0.0
0.0 0.0 0.0

-212405.6733025731 4.1450694142921595e6 0.0
4.1450694142921595e6 -1.0369407193959715e6 0.0
0.0 0.0 0.0

-5.338696302851491e6 3.7177583751148796e6 0.0
3.7177583751148796e6 7.470972993071975e6 0.0
0.0 0.0 0.0

-5.902445512988894e6 5.7560654333868725e6 0.0
5.7560654333868725e6 6.730242754029013e6 0.0
0.0 0.0 0.0

-483940.7326057644 8.611105257238204e6 0.0
8.611105257238204e6 -4.402195994831658e6 0.0
0.0 0.0 0.0

-1.9324985216128007e7 9.116880489066992e6 0.0
9.116880489066992e6 1.0662754261181764e7 0.0
0.0 0.0 0.0

-3.2145545795135368e6 3.619293925162232e6 0.0
3.619293925162232e6 3.7743761856675446e6 0.0
0.0 0.0 0.0

413071.6268070878 8.161331237978662e6 0.0
8.161331237978662e6 -6.206095169925389e6 0.0
0.0 0.0 0.0

-9.302046455790054e6 2.3182734850362055e6 0.0
2.3182734850362055e6 7.010772760734001e6 0.0
0.0 0.0 0.0

-6.797799701973147e6 -1.4751332958776548e6 0.0
-1.4751332958776548e6 9.058752151202714e6 0.0
0.0 0.0 0.0

-2.1857573696321785e6 9.132809496062767e6 0.0
9.132809496062767e6 -2.323854424007128e6 0.0
0.0 0.0 0.0

-228755.17058388423 8.734487869380428e6 0.0
8.734487869380428e6 -6.240597206665162e6 0.0
0.0 0.0 0.0

-2.138035888987324e6 9.990212039806537e6 0.0
9.990212039806537e6 626563.4987275127 0.0
0.0 0.0 0.0

-7.429903299673612e6 1.6728098621692227e6 0.0
1.6728098621692227e6 6.167630620118901e6 0.0
0.0 0.0 0.0

5.968868513540636e6 1.0964546074160341e7 0.0
1.0964546074160341e7 1.6924050858704254e6 0.0
0.0 0.0 0.0

-567318.3690910379 6.270518278076657e6 0.0
6.270518278076657e6 -3.448071060934474e6 0.0
0.0 0.0 0.0

-1.3059624389969753e6 8.719179078277512e6 0.0
8.719179078277512e6 -2.663245239235488e6 0.0
0.0 0.0 0.0

-217504.62676097103 8.026244668260735e6 0.0
8.026244668260735e6 -4.503166011072535e6 0.0
0.0 0.0 0.0

1.9614884105349374e6 6.469024486677742e6 0.0
6.469024486677742e6 -6.552450453106815e6 0.0
0.0 0.0 0.0

-5.339642722318982e6 9.84470033460088e6 0.0
9.84470033460088e6 1.9888140771120752e6 0.0
0.0 0.0 0.0

-215627.29435673263 8.234104443507145e6 0.0
8.234104443507145e6 -5.095407695671356e6 0.0
0.0 0.0 0.0

-734863.0018346931 1.0498804030515254e7 0.0
1.0498804030515254e7 -2.9023351410520277e6 0.0
0.0 0.0 0.0

11392.468722877908 7.698951736487264e6 0.0
7.698951736487264e6 -2.4435746465472523e6 0.0
0.0 0.0 0.0

-1.3624425186020301e6 7.233905309345303e6 0.0
7.233905309345303e6 -1.2523400632977262e6 0.0
0.0 0.0 0.0

-3.1721725851599844e6 7.9466269706815295e6 0.0
7.9466269706815295e6 989627.0680291804 0.0
0.0 0.0 0.0

-2.485240931585879e6 8.988562028006237e6 0.0
8.988562028006237e6 3.587485876785733e6 0.0
0.0 0.0 0.0

828656.6090770564 4.952467237864225e6 0.0
4.952467237864225e6 -4.748250497005892e6 0.0
0.0 0.0 0.0

-3.865214354750962e6 1.340327534984893e6 0.0
1.340327534984893e6 1.6001542796103603e6 0.0
0.0 0.0 0.0

-2.9926944358148333e6 8.347649953924143e6 0.0
8.347649953924143e6 4.494342658040518e6 0.0
0.0 0.0 0.0

-385433.6432947662 9.045268305535542e6 0.0
9.045268305535542e6 -4.371954741127426e6 0.0
0.0 0.0 0.0

1.2222185708659682e7 7.79540076815315e6 0.0
7.79540076815315e6 -4.0914872057340713e6 0.0
0.0 0.0 0.0

-543953.2686212021 8.909496047183067e6 0.0
8.909496047183067e6 -3.7879666479455135e6 0.0
0.0 0.0 0.0

-5.286706466856099e6 9.678504449839082e6 0.0
9.678504449839082e6 1.2414344521564413e6 0.0
0.0 0.0 0.0

-4.0706665651859143e6 8.092603833218277e6 0.0
8.092603833218277e6 1.147376482210147e6 0.0
0.0 0.0 0.0

-7.909384152342087e6 1.249888749771355e7 0.0
1.249888749771355e7 1.1535531461924862e7 0.0
0.0 0.0 0.0

-5.735285215504719e6 3.531227279379371e6 0.0
3.531227279379371e6 8.232410590672068e6 0.0
0.0 0.0 0.0

-814947.7218643504 246555.57064312976 0.0
246555.57064312976 2.944913165843473e6 0.0
0.0 0.0 0.0

-8.342427497322643e6 792338.1157210452 0.0
792338.1157210452 9.174301661318263e6 0.0
0.0 0.0 0.0

-6.532575385759327e6 9.864247789888421e6 0.0
9.864247789888421e6 3.361971973539907e6 0.0
0.0 0.0 0.0

-389338.9118156631 7.199596432128938e6 0.0
7.199596432128938e6 -3.855681177767226e6 0.0
0.0 0.0 0.0

-3.554812173566457e6 7.898593285777249e6 0.0
7.898593285777249e6 2.168467057295997e6 0.0
0.0 0.0 0.0

-1.390303913825184e6 9.879844583350144e6 0.0
9.879844583350144e6 -2.575665450755929e6 0.0
0.0 0.0 0.0

-2.3498917225974924e6 5.748293200335136e6 0.0
5.748293200335136e6 552081.2614178206 0.0
0.0 0.0 0.0

-3.8290432992184265e6 8.898490972399827e6 0.0
8.898490972399827e6 1.9140101288106232e6 0.0
0.0 0.0 0.0

-1.728712113299572e6 1.2975473408102656e7 0.0
1.2975473408102656e7 -2.77186258112038e6 0.0
0.0 0.0 0.0

-3.2594001574097723e6 8.201507014942865e6 0.0
8.201507014942865e6 2.160471500358129e6 0.0
0.0 0.0 0.0

-3.495136315490704e6 7.6214886560811335e6 0.0
7.6214886560811335e6 2.310745986598838e6 0.0
0.0 0.0 0.0

-459622.64911543555 8.1385893263745485e6 0.0
8.1385893263745485e6 -4.673847317901141e6 0.0
0.0 0.0 0.0

-3.6302359587332476e6 3.2896724583959947e6 0.0
3.2896724583959947e6 2.7367436834969744e6 0.0
0.0 0.0 0.0

-6.492126374872474e6 9.92570082870587e6 0.0
9.92570082870587e6 3.522489293269203e6 0.0
0.0 0.0 0.0

399021.68282329105 6.023311128083131e6 0.0
6.023311128083131e6 -4.626732619791318e6 0.0
0.0 0.0 0.0

-1.0262161276639665e7 -3.957441037835738e6 0.0
-3.957441037835738e6 1.764897050776439e7 0.0
0.0 0.0 0.0

-1.728168248152576e6 9.833697621501055e6 0.0
9.833697621501055e6 517639.27354825125 0.0
0.0 0.0 0.0

-6.796366127171487e6 9.856683982099317e6 0.0
9.856683982099317e6 3.78568804420311e6 0.0
0.0 0.0 0.0

-52891.078298931476 7.976622850896977e6 0.0
7.976622850896977e6 -4.50405030049138e6 0.0
0.0 0.0 0.0

-5.9086545862853145e6 9.933196282695657e6 0.0
9.933196282695657e6 1.814508081265551e6 0.0
0.0 0.0 0.0

-329225.2547475335 6.732315554414308e6 0.0
6.732315554414308e6 -3.995381635429835e6 0.0
0.0 0.0 0.0

-2.8547941360491347e6 3.0458595567176337e6 0.0
3.0458595567176337e6 3.057069071786743e6 0.0
0.0 0.0 0.0

-2.0155553304198716e7 1.3325130919335397e7 0.0
1.3325130919335397e7 3.689566151146559e6 0.0
0.0 0.0 0.0

-4.243860712956455e6 8.637283987038353e6 0.0
8.637283987038353e6 73162.9077742747 0.0
0.0 0.0 0.0

-3.5054309957174184e6 8.474716275242979e6 0.0
8.474716275242979e6 2.096004101395759e6 0.0
0.0 0.0 0.0

102385.40706765023 884066.701313684 0.0
884066.701313684 -774026.4582559287 0.0
0.0 0.0 0.0

-4.900944166704041e6 8.806430582166635e6 0.0
8.806430582166635e6 315128.0128476622 0.0
0.0 0.0 0.0

-4.0349790479428247e6 8.951540876037665e6 0.0
8.951540876037665e6 1.8813709612461296e6 0.0
0.0 0.0 0.0

1.936119823353819e6 6.081242011446701e6 0.0
6.081242011446701e6 -6.611850240728553e6 0.0
0.0 0.0 0.0

-1.945637330431981e6 5.360734187952781e6 0.0
5.360734187952781e6 715866.7100687103 0.0
0.0 0.0 0.0

-1.8812410277913827e6 4.652362140334534e6 0.0
4.652362140334534e6 953732.8429851683 0.0
0.0 0.0 0.0

-8.50238307365114e6 1.2482220155901346e7 0.0
1.2482220155901346e7 4.401996996727997e6 0.0
0.0 0.0 0.0

-610140.4698641123 3.5039603739589634e6 0.0
3.5039603739589634e6 -864148.0543915656 0.0
0.0 0.0 0.0

-4.463402001805717e6 3.590874360366858e6 0.0
3.590874360366858e6 3.7516928874560473e6 0.0
0.0 0.0 0.0

-7.425047991347417e6 9.941349330052622e6 0.0
9.941349330052622e6 4.1089964502455187e6 0.0
0.0 0.0 0.0

-7.053409618461418e6 -2.160073631198076e6 0.0
-2.160073631198076e6 1.0935808461608116e7 0.0
0.0 0.0 0.0

-87670.10771664117 1.4060803647941498e6 0.0
1.4060803647941498e6 -192814.4074001984 0.0
0.0 0.0 0.0

428953.37078897166 6.610419075687431e6 0.0
6.610419075687431e6 -4.63971996754233e6 0.0
0.0 0.0 0.0

-3.389922211517433e6 7.851553829879351e6 0.0
7.851553829879351e6 1.2100720737175546e6 0.0
0.0 0.0 0.0

-5.978884942881724e6 3.7663172129711336e6 0.0
3.7663172129711336e6 7.700440976155378e6 0.0
0.0 0.0 0.0

-2.208339241939428e6 9.550541001174752e6 0.0
9.550541001174752e6 -2.2536024393205973e6 0.0
0.0 0.0 0.0

-1.7233006479486623e6 9.185851150939055e6 0.0
9.185851150939055e6 -2.228325743818484e6 0.0
0.0 0.0 0.0

-279510.2334905029 7.206072485942081e6 0.0
7.206072485942081e6 -4.1793203724793494e6 0.0
0.0 0.0 0.0

-635274.8503250945 8.825828031454308e6 0.0
8.825828031454308e6 -4.198538484961293e6 0.0
0.0 0.0 0.0

-995358.0089709646 7.314736534128791e6 0.0
7.314736534128791e6 -202726.43137087254 0.0
0.0 0.0 0.0

-6.217351924083037e6 4.328809037490671e6 0.0
4.328809037490671e6 6.891047762699398e6 0.0
0.0 0.0 0.0

-5.494351185214849e6 9.924905926274331e6 0.0
9.924905926274331e6 1.2935855962673344e6 0.0
0.0 0.0 0.0

-5.154505415874708e6 9.474616475988064e6 0.0
9.474616475988064e6 2.8449446620754963e6 0.0
0.0 0.0 0.0

-6.644161071201803e6 9.979653725472497e6 0.0
9.979653725472497e6 3.571216424674912e6 0.0
0.0 0.0 0.0

-334138.81324421894 1.6646493593777997e7 0.0
1.6646493593777997e7 1.8937556388129644e7 0.0
0.0 0.0 0.0

-3.5029036532297498e6 8.390453961980667e6 0.0
8.390453961980667e6 1.320859319701115e6 0.0
0.0 0.0 0.0

-1.5591173988161564e6 8.866878512614686e6 0.0
8.866878512614686e6 -2.396474789624095e6 0.0
0.0 0.0 0.0

-589074.8972396462 9.003942922192698e6 0.0
9.003942922192698e6 -4.283322642625635e6 0.0
0.0 0.0 0.0

-1.1988458154982422e6 8.877651001838624e6 0.0
8.877651001838624e6 -2.791408586696429e6 0.0
0.0 0.0 0.0

-6.650733062900724e6 1.0180888663367378e7 0.0
1.0180888663367378e7 2.9838136100304103e6 0.0
0.0 0.0 0.0

-3.124951713664951e6 8.141905047970499e6 0.0
8.141905047970499e6 856824.9224498586 0.0
0.0 0.0 0.0

184877.62842526461 7.320475515042473e6 0.0
7.320475515042473e6 -1.9189528481566235e6 0.0
0.0 0.0 0.0

-381646.213046524 9.215965681730961e6 0.0
9.215965681730961e6 -4.125829442704776e6 0.0
0.0 0.0 0.0

-1.214726544350044e6 7.194407495533541e6 0.0
7.194407495533541e6 -1.1985274952587802e6 0.0
0.0 0.0 0.0

-1.140973277534424e7 1.5965192907179408e7 0.0
1.5965192907179408e7 3.283180623854212e6 0.0
0.0 0.0 0.0

1.6738802079742071e6 6.384553901838107e6 0.0
6.384553901838107e6 -7.408693121576335e6 0.0
0.0 0.0 0.0

1.3143760909091724e7 9.054864166771987e6 0.0
9.054864166771987e6 -3.376365222146068e6 0.0
0.0 0.0 0.0

5.059525566565288e6 1.572687547889974e7 0.0
1.572687547889974e7 -1.8983258564420473e7 0.0
0.0 0.0 0.0

-1.4696112750269617e6 9.470097594350208e6 0.0
9.470097594350208e6 1.4661511037794817e6 0.0
0.0 0.0 0.0

-1.250173146751746e6 7.665554221974844e6 0.0
7.665554221974844e6 935369.3264275277 0.0
0.0 0.0 0.0

-7.175938593607411e6 8.3346229231552305e6 0.0
8.3346229231552305e6 958574.5556994071 0.0
0.0 0.0 0.0

-1.9267938147137925e7 3.7871433650203138e6 0.0
3.7871433650203138e6 7.376661078280802e6 0.0
0.0 0.0 0.0

-1.121509368905754e6 6.203090540609763e6 0.0
6.203090540609763e6 -895755.6073468274 0.0
0.0 0.0 0.0

-5.100017072894736e6 8.867889820140922e6 0.0
8.867889820140922e6 1.986014884449385e6 0.0
0.0 0.0 0.0

-1.1429119068507315e6 8.540835239840304e6 0.0
8.540835239840304e6 -2.8894486259988258e6 0.0
0.0 0.0 0.0

1.4894801565934247e6 7.127453879647943e6 0.0
7.127453879647943e6 -7.01773943901239e6 0.0
0.0 0.0 0.0

-1.4420166460127477e6 8.683886573291058e6 0.0
8.683886573291058e6 -3.11305316652535e6 0.0
0.0 0.0 0.0

299084.2210416375 8.009772999869195e6 0.0
8.009772999869195e6 -5.963703163955216e6 0.0
0.0 0.0 0.0

-1.9041490132491158e6 4.793007210486213e6 0.0
4.793007210486213e6 671451.4279529718 0.0
0.0 0.0 0.0

-2.182820522252106e6 9.150937045027945e6 0.0
9.150937045027945e6 2.9435462129741944e6 0.0
0.0 0.0 0.0

-1.2003196557638582e6 6.733193664355842e6 0.0
6.733193664355842e6 -530490.4259419402 0.0
0.0 0.0 0.0

-651299.4094802412 89268.03552105377 0.0
89268.03552105377 524585.2206507641 0.0
0.0 0.0 0.0

-7.705533307103008e6 771879.0626841281 0.0
771879.0626841281 8.129091090080816e6 0.0
0.0 0.0 0.0

-4.732432445725365e6 9.199850892258627e6 0.0
9.199850892258627e6 2.420319971008838e6 0.0
0.0 0.0 0.0

-3.0073183122425745e6 9.091551020038292e6 0.0
9.091551020038292e6 3.675469744107959e6 0.0
0.0 0.0 0.0

-2.2471532101529865e6 5.992221049752023e6 0.0
5.992221049752023e6 954363.1311064449 0.0
0.0 0.0 0.0

-420118.76659796434 4.942666488468248e6 0.0
4.942666488468248e6 -1.477985001959638e6 0.0
0.0 0.0 0.0

-1.4389118768376712e7 4.528656251722205e6 0.0
4.528656251722205e6 1.9633217876185365e7 0.0
0.0 0.0 0.0

-3.3880146960033644e6 7.774993754220928e6 0.0
7.774993754220928e6 930045.4358980474 0.0
0.0 0.0 0.0

-5.09919856959479e6 9.965652767171646e6 0.0
9.965652767171646e6 778442.7417843635 0.0
0.0 0.0 0.0

-2.9359616837992994e6 9.103374829959795e6 0.0
9.103374829959795e6 3.9122115485624196e6 0.0
0.0 0.0 0.0

-1.3987614184826373e6 6.899841558400571e6 0.0
6.899841558400571e6 -1.1916138744136374e6 0.0
0.0 0.0 0.0

-1.859149657633087e6 1.2689693502802983e7 0.0
1.2689693502802983e7 -1.661726307820458e6 0.0
0.0 0.0 0.0

-1.1247136249679487e7 -2.4670786819849266e6 0.0
-2.4670786819849266e6 2.3078000880867932e7 0.0
0.0 0.0 0.0

-245164.3956313826 1.2054576795867335e7 0.0
1.2054576795867335e7 -2.685415054469228e6 0.0
0.0 0.0 0.0

-6.816908766722493e6 9.888560875864279e6 0.0
9.888560875864279e6 3.7187053637822936e6 0.0
0.0 0.0 0.0

-576299.7809800524 7.882399724419767e6 0.0
7.882399724419767e6 -4.927922479542006e6 0.0
0.0 0.0 0.0

-3.148090632851408e6 8.257172157434437e6 0.0
8.257172157434437e6 2.516916945585392e6 0.0
0.0 0.0 0.0

-6.188158438296623e6 3.3115579236123236e6 0.0
3.3115579236123236e6 6.937046086770374e6 0.0
0.0 0.0 0.0

-5.578637199886006e6 1.1584308864524513e7 0.0
1.1584308864524513e7 1.9317957405566399e6 0.0
0.0 0.0 0.0

454386.44347146153 840972.1047769656 0.0
840972.1047769656 -2.8357557122445335e6 0.0
0.0 0.0 0.0

-1.1942696830552172e7 1.2747871676134903e7 0.0
1.2747871676134903e7 5.622307269320332e6 0.0
0.0 0.0 0.0

638689.7314257782 7.808996115209838e6 0.0
7.808996115209838e6 -630271.8257180533 0.0
0.0 0.0 0.0

-4.370366102678304e6 8.371299716982976e6 0.0
8.371299716982976e6 1.18422518532356e6 0.0
0.0 0.0 0.0

1.2629925067564133e6 6.334749194082807e6 0.0
6.334749194082807e6 -6.539123570575491e6 0.0
0.0 0.0 0.0

-2.2459110219074814e6 9.70663279373036e6 0.0
9.70663279373036e6 1.1594552204169878e6 0.0
0.0 0.0 0.0

-3.8845328060253514e6 8.607122362578288e6 0.0
8.607122362578288e6 5.695031253630172e6 0.0
0.0 0.0 0.0

-5.9118584840412615e6 9.530529137813007e6 0.0
9.530529137813007e6 3.0697793805185915e6 0.0
0.0 0.0 0.0

-2.427897890458692e6 1.0038376737827206e7 0.0
1.0038376737827206e7 3.541275384938008e6 0.0
0.0 0.0 0.0

-423806.4316735151 4.459912133367294e6 0.0
4.459912133367294e6 -813559.3910779553 0.0
0.0 0.0 0.0

-4.542767788148283e6 8.902952174478287e6 0.0
8.902952174478287e6 6.169330765493762e6 0.0
0.0 0.0 0.0

-3.000471323447969e6 9.132257346165482e6 0.0
9.132257346165482e6 737705.7933360911 0.0
0.0 0.0 0.0

-800760.4250851157 1.247799937888022e7 0.0
1.247799937888022e7 -2.5253960607017796e6 0.0
0.0 0.0 0.0

-2.4721984130919585e6 1.17304338278841e7 0.0
1.17304338278841e7 -1.8923073047609027e6 0.0
0.0 0.0 0.0

-5.235738922242192e6 1.3089146046464235e7 0.0
1.3089146046464235e7 686975.0426021905 0.0
0.0 0.0 0.0

-1.0789154254012052e6 6.178029414190651e6 0.0
6.178029414190651e6 -1.4041305261826878e6 0.0
0.0 0.0 0.0

-3.6614834641875387e6 8.634989300369741e6 0.0
8.634989300369741e6 2.0976593571528485e6 0.0
0.0 0.0 0.0

-7.850728846928998e6 1.2602731911560718e7 0.0
1.2602731911560718e7 2.4323206587764053e6 0.0
0.0 0.0 0.0

-148973.4517281896 8.797278726704903e6 0.0
8.797278726704903e6 -5.996999943607245e6 0.0
0.0 0.0 0.0

-880045.6749773143 6.380883966750966e6 0.0
6.380883966750966e6 -1.4380943708196068e6 0.0
0.0 0.0 0.0

-1.4263843546474653e6 7.210539102702544e6 0.0
7.210539102702544e6 240791.14948672475 0.0
0.0 0.0 0.0

-6.559706775785351e6 1.2345050772566084e7 0.0
1.2345050772566084e7 1.3088892791494434e6 0.0
0.0 0.0 0.0

-261657.18539039744 9.223306142171757e6 0.0
9.223306142171757e6 -4.1231705507193254e6 0.0
0.0 0.0 0.0

356211.8148338073 5.490331312601974e6 0.0
5.490331312601974e6 -4.0327840433656173e6 0.0
0.0 0.0 0.0

-7.963245907988388e6 -8.18834912224025e6 0.0
-8.18834912224025e6 1.8556416839696776e7 0.0
0.0 0.0 0.0

89660.3624293704 7.999759846216107e6 0.0
7.999759846216107e6 -4.852676990597721e6 0.0
0.0 0.0 0.0

-1.6392322014921098e6 7.619007776198125e6 0.0
7.619007776198125e6 1.8519205212097955e6 0.0
0.0 0.0 0.0

-1.910736571131966e6 4.986515141628499e6 0.0
4.986515141628499e6 934268.8985222785 0.0
0.0 0.0 0.0

-1.3642487636741432e6 1.275219653864836e7 0.0
1.275219653864836e7 -2.9829991791216237e6 0.0
0.0 0.0 0.0

204823.16155259777 7.161065662578592e6 0.0
7.161065662578592e6 -3.969533507484682e6 0.0
0.0 0.0 0.0

829465.6033574503 9.736979386654563e6 0.0
9.736979386654563e6 -3.473527976651775e6 0.0
0.0 0.0 0.0

-2.1950019853676246e6 8.400248894890046e6 0.0
8.400248894890046e6 4.0274359895942826e6 0.0
0.0 0.0 0.0

-9.205241049022822e6 1.6924562416599896e7 0.0
1.6924562416599896e7 287377.43461090187 0.0
0.0 0.0 0.0

-1.4752147584508848e6 1.14625103309683e7 0.0
1.14625103309683e7 -2.1884786765431687e6 0.0
0.0 0.0 0.0

-6.302762594750942e6 9.91881819587035e6 0.0
9.91881819587035e6 8.522277880405387e6 0.0
0.0 0.0 0.0

1.4297843632733e6 5.485329840982086e6 0.0
5.485329840982086e6 -5.893377246850539e6 0.0
0.0 0.0 0.0

-7.255669456713863e6 1.0770679427316548e7 0.0
1.0770679427316548e7 3.191122058679064e6 0.0
0.0 0.0 0.0

1.7744906318080255e6 7.920028168217794e6 0.0
7.920028168217794e6 -1.8648843595565248e6 0.0
0.0 0.0 0.0

-1.7985067940503757e7 -527065.2040950941 0.0
-527065.2040950941 8.315308956090923e6 0.0
0.0 0.0 0.0

-3.9420264787536943e6 9.022766867381651e6 0.0
9.022766867381651e6 1.8690137269599645e6 0.0
0.0 0.0 0.0

-816344.3444677603 6.331181469616755e6 0.0
6.331181469616755e6 -1.354480086694962e6 0.0
0.0 0.0 0.0

-245257.1725073671 8.615783017224288e6 0.0
8.615783017224288e6 -4.485420279962458e6 0.0
0.0 0.0 0.0

-1.6854473992377776e6 9.553572042430403e6 0.0
9.553572042430403e6 1.2381696312705514e6 0.0
0.0 0.0 0.0

113691.37944192649 8.126657964413689e6 0.0
8.126657964413689e6 -5.660705110015616e6 0.0
0.0 0.0 0.0

1.5075111876242277e6 6.564349843778581e6 0.0
6.564349843778581e6 -7.22993489382888e6 0.0
0.0 0.0 0.0

7.04199765959022e6 9.809039901515665e6 0.0
9.809039901515665e6 -234136.7642346234 0.0
0.0 0.0 0.0

-4.06898986055531e7 1.7142166977627542e7 0.0
1.7142166977627542e7 3.9232888469535224e6 0.0
0.0 0.0 0.0

-1.3126073291627239e6 9.591097176801112e6 0.0
9.591097176801112e6 4.698529771129158e6 0.0
0.0 0.0 0.0

-3.890271426995252e6 1.0284784711070755e7 0.0
1.0284784711070755e7 -673455.7389882007 0.0
0.0 0.0 0.0

-3.101418477084154e6 8.492592368698131e6 0.0
8.492592368698131e6 1.8348958066475366e6 0.0
0.0 0.0 0.0

228897.62857415015 5.55561469555858e6 0.0
5.55561469555858e6 -4.1253575301888417e6 0.0
0.0 0.0 0.0

-2.9977147777425754e6 9.179135142963227e6 0.0
9.179135142963227e6 1.0827758921927053e6 0.0
0.0 0.0 0.0

-7.7506195844587535e6 1.1059393446025321e7 0.0
1.1059393446025321e7 3.7372101238071937e6 0.0
0.0 0.0 0.0

-181206.37739547505 8.328549766426204e6 0.0
8.328549766426204e6 -5.009845176370336e6 0.0
0.0 0.0 0.0

-4.479350858324931e6 8.361597387714481e6 0.0
8.361597387714481e6 812330.4962301275 0.0
0.0 0.0 0.0

-410708.9377624566 1.17247064967829e6 0.0
1.17247064967829e6 -1.8801947286947134e6 0.0
0.0 0.0 0.0

-2.428187862988787e6 8.064288917966742e6 0.0
8.064288917966742e6 4.88602303106432e6 0.0
0.0 0.0 0.0

-3.3366577033813903e6 9.586124286820281e6 0.0
9.586124286820281e6 99596.43273935933 0.0
0.0 0.0 0.0

-2.235126309266618e6 9.504375451022057e6 0.0
9.504375451022057e6 -1.6908536030570068e6 0.0
0.0 0.0 0.0

-4.513893630125079e6 8.577956113273352e6 0.0
8.577956113273352e6 1.6231322088564422e6 0.0
0.0 0.0 0.0

-313647.2698043189 8.062219857798619e6 0.0
8.062219857798619e6 -4.638447328423603e6 0.0
0.0 0.0 0.0

-7.505136258319218e6 -2.5984031944877696e6 0.0
-2.5984031944877696e6 8.816887383827925e6 0.0
0.0 0.0 0.0

-1.6927853831493258e6 8.826036604830584e6 0.0
8.826036604830584e6 -2.8271952024003426e6 0.0
0.0 0.0 0.0

1.2996812596132145e6 8.79436877032932e6 0.0
8.79436877032932e6 -2.803932184639413e6 0.0
0.0 0.0 0.0

-1.2137317776765975e6 9.441968988202438e6 0.0
9.441968988202438e6 -6.336433294116239e6 0.0
0.0 0.0 0.0

540482.6710242121 6.503105162974733e6 0.0
6.503105162974733e6 -4.456638676138899e6 0.0
0.0 0.0 0.0

-1.0605570739836243e6 9.413887831156999e6 0.0
9.413887831156999e6 -2.979561766699987e6 0.0
0.0 0.0 0.0

-3.7498060809212276e6 8.868743654048814e6 0.0
8.868743654048814e6 1.9037103317533291e6 0.0
0.0 0.0 0.0

-5.928117895755593e6 9.317489971132316e6 0.0
9.317489971132316e6 2.4931540944822584e6 0.0
0.0 0.0 0.0

-3.4691635959669542e6 7.837072963945104e6 0.0
7.837072963945104e6 1.9317412891924516e6 0.0
0.0 0.0 0.0

833310.1691800749 7.335305737252079e6 0.0
7.335305737252079e6 -37177.23228427698 0.0
0.0 0.0 0.0

-2.323568675283313e7 2.0921072511390722e6 0.0
2.0921072511390722e6 8.359099822380908e6 0.0
0.0 0.0 0.0

-163639.09220257105 657736.8614436182 0.0
657736.8614436182 -1.6062464828708842e6 0.0
0.0 0.0 0.0

-54324.99157913751 7.318768207714897e6 0.0
7.318768207714897e6 -3.208860480597493e6 0.0
0.0 0.0 0.0

3.095658663931876e6 9.393775440734928e6 0.0
9.393775440734928e6 -3.86523004012613e6 0.0
0.0 0.0 0.0

-8.479821042042185e6 1.0188491520207198e7 0.0
1.0188491520207198e7 4.833353497151417e6 0.0
0.0 0.0 0.0

433747.8520483016 8.14162397735326e6 0.0
8.14162397735326e6 -6.137282879291731e6 0.0
0.0 0.0 0.0

-1.9813477835623205e6 9.997486115306098e6 0.0
9.997486115306098e6 385455.11193713336 0.0
0.0 0.0 0.0

-2.027881976520696e6 1.1997328204252623e7 0.0
1.1997328204252623e7 -1.6046037760153904e6 0.0
0.0 0.0 0.0

-1.4813118477449608e6 8.278141622401957e6 0.0
8.278141622401957e6 -2.478932066600228e6 0.0
0.0 0.0 0.0

-1.6143395932540419e6 1.1904987471712952e7 0.0
1.1904987471712952e7 -2.1540988816890363e6 0.0
0.0 0.0 0.0

-566313.2609907493 9.751295902276356e6 0.0
9.751295902276356e6 -91644.62239220658 0.0
0.0 0.0 0.0

-5.716326573966206e6 9.300541621336635e6 0.0
9.300541621336635e6 2.4526527142824563e6 0.0
0.0 0.0 0.0

108729.25551692653 6.879448183140873e6 0.0
6.879448183140873e6 -4.270095877931381e6 0.0
0.0 0.0 0.0

1.8893346348195332e6 6.051882265097766e6 0.0
6.051882265097766e6 -6.909779782153561e6 0.0
0.0 0.0 0.0

-1.4623097856389633e6 1.9266229560732374e6 0.0
1.9266229560732374e6 792502.7738676736 0.0
0.0 0.0 0.0

-1.3234907556789883e6 107873.47299938356 0.0
107873.47299938356 255793.7187506036 0.0
0.0 0.0 0.0

-2.9267633450781964e6 8.029055324782473e6 0.0
8.029055324782473e6 3.4175891463508043e6 0.0
0.0 0.0 0.0

-516271.1811257622 9.462596033920415e6 0.0
9.462596033920415e6 63693.41236850468 0.0
0.0 0.0 0.0

-876736.8217978022 9.711916537573254e6 0.0
9.711916537573254e6 51983.8066924141 0.0
0.0 0.0 0.0

5.089664544436904e6 2.887641976381521e6 0.0
2.887641976381521e6 -8.764686679080956e6 0.0
0.0 0.0 0.0

-399237.46038465784 1.1333219063203197e7 0.0
1.1333219063203197e7 -2.908198046367288e6 0.0
0.0 0.0 0.0

-279196.5723627138 509260.07739661756 0.0
509260.07739661756 -1.964709046484548e6 0.0
0.0 0.0 0.0

-1.6943830372312125e6 1.174653003535256e7 0.0
1.174653003535256e7 -1.8472819123429337e6 0.0
0.0 0.0 0.0

-5.202492795577113e6 4.865958654139375e6 0.0
4.865958654139375e6 7.609825921846844e6 0.0
0.0 0.0 0.0

-4.943238437518149e6 9.827737190687746e6 0.0
9.827737190687746e6 1.4780682287765096e6 0.0
0.0 0.0 0.0

-6.289028609727626e6 1.2009611361312127e7 0.0
1.2009611361312127e7 2.606806291010479e6 0.0
0.0 0.0 0.0

362285.3093277626 6.583745294980154e6 0.0
6.583745294980154e6 -4.581538943108716e6 0.0
0.0 0.0 0.0

411554.9819190672 6.41367649739995e6 0.0
6.41367649739995e6 -4.645535874352118e6 0.0
0.0 0.0 0.0

3.565078841222581e6 1.0094598041171711e7 0.0
1.0094598041171711e7 -5.737210850369522e6 0.0
0.0 0.0 0.0

-2.2200779170513395e6 9.228507522695491e6 0.0
9.228507522695491e6 2.7266592577475137e6 0.0
0.0 0.0 0.0

-1.9669865796048902e6 8.982530965325119e6 0.0
8.982530965325119e6 -2.5688071686806516e6 0.0
0.0 0.0 0.0

-593935.296008827 89445.09644006529 0.0
89445.09644006529 -136036.89541164058 0.0
0.0 0.0 0.0

-7.847839102371402e6 1.003885408202306e7 0.0
1.003885408202306e7 4.320335880761769e6 0.0
0.0 0.0 0.0

-3.3420154237153423e6 3.5831405666835383e6 0.0
3.5831405666835383e6 3.025184182824967e6 0.0
0.0 0.0 0.0

-45101.15046330838 1.7662526098562102e6 0.0
1.7662526098562102e6 -1.1981473040449931e6 0.0
0.0 0.0 0.0

-2.2267361240850543e6 6.801569914831713e6 0.0
6.801569914831713e6 -1.2017660259342706e6 0.0
0.0 0.0 0.0

1.851534549899205e6 5.89990806326302e6 0.0
5.89990806326302e6 -6.865320799413211e6 0.0
0.0 0.0 0.0

-5.826158677743657e6 9.659521242141066e6 0.0
9.659521242141066e6 3.0006019629713567e6 0.0
0.0 0.0 0.0

-4.110907696073028e6 8.328239553692608e6 0.0
8.328239553692608e6 902183.9476406998 0.0
0.0 0.0 0.0

-145326.62770474935 7.935816895851307e6 0.0
7.935816895851307e6 -4.879921920494104e6 0.0
0.0 0.0 0.0

4.368827463268481e6 8.046251041654546e6 0.0
8.046251041654546e6 -2.894507865546289e6 0.0
0.0 0.0 0.0

-5.2332389868010655e6 9.446216119862352e6 0.0
9.446216119862352e6 2.5989754052922074e6 0.0
0.0 0.0 0.0

-3.2488326795269917e6 180929.33065983452 0.0
180929.33065983452 2.2699277178688617e6 0.0
0.0 0.0 0.0

-636079.6204210012 1.7323503680886906e6 0.0
1.7323503680886906e6 1.123088318437113e6 0.0
0.0 0.0 0.0

1.813425284810884e6 8.81445149343075e6 0.0
8.81445149343075e6 -2.917837663337428e6 0.0
0.0 0.0 0.0

-3.353901546588203e6 1.0117208461534418e7 0.0
1.0117208461534418e7 -409128.7113406069 0.0
0.0 0.0 0.0

-3.411794202945547e6 1.0491416407394435e7 0.0
1.0491416407394435e7 -343444.8751686879 0.0
0.0 0.0 0.0

-9.532347132722514e6 -155503.32805226077 0.0
-155503.32805226077 1.6257748930503964e7 0.0
0.0 0.0 0.0

2.324183804180968e6 479588.2592259973 0.0
479588.2592259973 -4.633160319894966e6 0.0
0.0 0.0 0.0

-2.6309536407827144e6 9.751969154832926e6 0.0
9.751969154832926e6 -25266.79708678904 0.0
0.0 0.0 0.0

-5.290998808946304e6 9.625295684365727e6 0.0
9.625295684365727e6 970903.925305554 0.0
0.0 0.0 0.0

-1.3722681641310101e7 4.306505730757447e6 0.0
4.306505730757447e6 6.728929108607017e6 0.0
0.0 0.0 0.0

-8.05191120668675e6 1.06926383959524e7 0.0
1.06926383959524e7 4.362251396554792e6 0.0
0.0 0.0 0.0

-446352.9408800613 9.55914905160769e6 0.0
9.55914905160769e6 -759163.6820197675 0.0
0.0 0.0 0.0

-2.764858659953446e6 -582239.4827709601 0.0
-582239.4827709601 2.9845353857518006e6 0.0
0.0 0.0 0.0

3.145806586904647e6 9.914046941414403e6 0.0
9.914046941414403e6 -5.137686486112322e6 0.0
0.0 0.0 0.0

-2.50976848527539e6 7.998870232907883e6 0.0
7.998870232907883e6 -1.1868666615833791e6 0.0
0.0 0.0 0.0

-444929.20210682275 2.343881727402899e6 0.0
2.343881727402899e6 -563714.2726954621 0.0
0.0 0.0 0.0

-3.654312571033794e6 7.932867662098577e6 0.0
7.932867662098577e6 1.7602973521402522e6 0.0
0.0 0.0 0.0

-3.9399636064368407e6 8.566466239139892e6 0.0
8.566466239139892e6 2.000602647632349e6 0.0
0.0 0.0 0.0

-531963.5504058148 4.374714874072029e6 0.0
4.374714874072029e6 -1.0118545514973181e6 0.0
0.0 0.0 0.0

491278.0646498571 6.108578664432004e6 0.0
6.108578664432004e6 -4.821112690225102e6 0.0
0.0 0.0 0.0

1.2585899981378266e6 7.328025028613176e6 0.0
7.328025028613176e6 -7.28808140593335e6 0.0
0.0 0.0 0.0

-2.351381995903102e6 7.793387762368175e6 0.0
7.793387762368175e6 3.7357092138626166e6 0.0
0.0 0.0 0.0

704786.4028090528 665601.0405249628 0.0
665601.0405249628 -2.8929933191397283e6 0.0
0.0 0.0 0.0

-411406.3062309567 1.4756584324769642e7 0.0
1.4756584324769642e7 -5.108815401825943e6 0.0
0.0 0.0 0.0

717716.0320312202 5.789541659170609e6 0.0
5.789541659170609e6 -4.234691753179602e6 0.0
0.0 0.0 0.0

1.0014325274996839e6 7.797834339540791e6 0.0
7.797834339540791e6 -3.466405001631269e6 0.0
0.0 0.0 0.0

-117559.36455940199 6.425437117719498e6 0.0
6.425437117719498e6 -4.001095301040359e6 0.0
0.0 0.0 0.0

-412021.7647870749 9.771422125008423e6 0.0
9.771422125008423e6 -543103.1487572652 0.0
0.0 0.0 0.0

-441490.47358450893 9.575654511314651e6 0.0
9.575654511314651e6 -183659.36983398048 0.0
0.0 0.0 0.0

-140785.3687691111 8.396445797566429e6 0.0
8.396445797566429e6 -4.620406014926176e6 0.0
0.0 0.0 0.0

-3.7625256192232436e6 1.5705242285103977e7 0.0
1.5705242285103977e7 -4.0650791537942556e6 0.0
0.0 0.0 0.0

-431999.2387825589 2.4703573980826926e6 0.0
2.4703573980826926e6 34603.26234519883 0.0
0.0 0.0 0.0

-3.755683220444547e6 8.184925852468365e6 0.0
8.184925852468365e6 2.237621303097884e6 0.0
0.0 0.0 0.0

-7.395164197515018e6 9.94739452824401e6 0.0
9.94739452824401e6 4.096094458323705e6 0.0
0.0 0.0 0.0

-5.177173147740674e6 9.585146046258109e6 0.0
9.585146046258109e6 1.7434120623533793e6 0.0
0.0 0.0 0.0

-21004.203311146328 1.732571811956374e6 0.0
1.732571811956374e6 -66821.3118817551 0.0
0.0 0.0 0.0

-266309.8749005662 2.5902204835061827e6 0.0
2.5902204835061827e6 -1.3247637658751465e6 0.0
0.0 0.0 0.0

-1.6942053989600544e6 9.357889736257194e6 0.0
9.357889736257194e6 2.439559731381689e6 0.0
0.0 0.0 0.0

-362127.79565032833 1.5991118455950832e6 0.0
1.5991118455950832e6 -804967.5106687048 0.0
0.0 0.0 0.0

-2.0823403836215008e6 1.2788414608267644e7 0.0
1.2788414608267644e7 -2.377321444786462e6 0.0
0.0 0.0 0.0

-3.132572682930689e6 1.0451599906079002e7 0.0
1.0451599906079002e7 -1.1148130562726227e6 0.0
0.0 0.0 0.0

-715217.7291550864 9.368086964047432e6 0.0
9.368086964047432e6 -3.3931878541824846e6 0.0
0.0 0.0 0.0

-3.773911501065831e6 8.009062261678913e6 0.0
8.009062261678913e6 1.2568077818550598e6 0.0
0.0 0.0 0.0

-3.5389022839179463e6 7.693741657367853e6 0.0
7.693741657367853e6 1.5888086929470184e6 0.0
0.0 0.0 0.0

-2.0403698549246402e6 4.648977935594275e6 0.0
4.648977935594275e6 1.4606585973191308e6 0.0
0.0 0.0 0.0

-1.4254687512714997e7 8.395783254522322e6 0.0
8.395783254522322e6 9.091709723880768e6 0.0
0.0 0.0 0.0

1.1350323722686905e6 492951.3732310369 0.0
492951.3732310369 -3.0900241142365197e6 0.0
0.0 0.0 0.0

-1.8403155366668361e6 9.021917052166125e6 0.0
9.021917052166125e6 -2.168474087110404e6 0.0
0.0 0.0 0.0

1.758512694256504e6 6.430823407931826e6 0.0
6.430823407931826e6 -7.344250075185879e6 0.0
0.0 0.0 0.0

-2.8279519310117443e6 1.1963712933659408e7 0.0
1.1963712933659408e7 -1.6197668875078778e6 0.0
0.0 0.0 0.0

-1.4451218432689542e6 6.518298916043054e6 0.0
6.518298916043054e6 -1.2115927068292045e6 0.0
0.0 0.0 0.0

-769030.1300995656 8.233992287164201e6 0.0
8.233992287164201e6 -5.309115965504875e6 0.0
0.0 0.0 0.0

2.0177855795300517e6 1.0019624656065889e7 0.0
1.0019624656065889e7 3.00411655322221e6 0.0
0.0 0.0 0.0

-240738.23640631695 3.5840699858093676e6 0.0
3.5840699858093676e6 -870357.0404584912 0.0
0.0 0.0 0.0

-2.9776169447174133e6 8.752429173834817e6 0.0
8.752429173834817e6 5.217710960183176e6 0.0
0.0 0.0 0.0

-4.150616834635741e6 9.462608238629654e6 0.0
9.462608238629654e6 5.874865510770308e6 0.0
0.0 0.0 0.0

-2.0321386609389742e6 5.568397068388701e6 0.0
5.568397068388701e6 -1.610891539743501e6 0.0
0.0 0.0 0.0

-8.83235960963228e6 1.3187306112084607e7 0.0
1.3187306112084607e7 2.9105096080537676e6 0.0
0.0 0.0 0.0

-4.239304101694949e6 8.876253111845028e6 0.0
8.876253111845028e6 149381.34383716737 0.0
0.0 0.0 0.0

-2.478134372748847e6 5.744592779686483e6 0.0
5.744592779686483e6 1.386843817930251e6 0.0
0.0 0.0 0.0

1.3565991050609439e6 7.769808081150603e6 0.0
7.769808081150603e6 -8.630704064059248e6 0.0
0.0 0.0 0.0

-294599.3468551978 3.2082646108690104e6 0.0
3.2082646108690104e6 -1.358344260146604e6 0.0
0.0 0.0 0.0

-1.226369208449761e6 9.612844676034635e6 0.0
9.612844676034635e6 -190568.7068731621 0.0
0.0 0.0 0.0

1.068706165610862e6 7.512280460009033e6 0.0
7.512280460009033e6 1.060079087343768e6 0.0
0.0 0.0 0.0

-5.704713662532745e6 4.1857232329375134e6 0.0
4.1857232329375134e6 5.857496379257634e6 0.0
0.0 0.0 0.0

-3.237520087279235e6 8.23725886507996e6 0.0
8.23725886507996e6 1.9831422116022196e6 0.0
0.0 0.0 0.0

-4.9779519438967835e6 9.356509179213643e6 0.0
9.356509179213643e6 2.421576978745711e6 0.0
0.0 0.0 0.0

-1.652773191526221e7 8.46563984739452e6 0.0
8.46563984739452e6 9.538306306851244e6 0.0
0.0 0.0 0.0

-684190.6032144603 2.789036995515495e6 0.0
2.789036995515495e6 -1.5887743950734714e6 0.0
0.0 0.0 0.0

-4.782012104567532e6 9.233818941371765e6 0.0
9.233818941371765e6 2.2667069614399434e6 0.0
0.0 0.0 0.0

-3.847700557419248e6 8.410460549261028e6 0.0
8.410460549261028e6 41209.34296290809 0.0
0.0 0.0 0.0

-1.567140241733229e6 8.334648329578773e6 0.0
8.334648329578773e6 4.907111131124408e6 0.0
0.0 0.0 0.0

-5.051623855925653e6 9.435436966957487e6 0.0
9.435436966957487e6 976053.7073249579 0.0
0.0 0.0 0.0

-50119.48000511178 438609.0953377428 0.0
438609.0953377428 -2.719630835039302e6 0.0
0.0 0.0 0.0

-2.5850784114320176e6 9.585180001327334e6 0.0
9.585180001327334e6 -1.8042787086030818e6 0.0
0.0 0.0 0.0

-472888.2892534011 3.509374679450557e6 0.0
3.509374679450557e6 -392394.34150859015 0.0
0.0 0.0 0.0

701040.8066409694 6.276339033561545e6 0.0
6.276339033561545e6 -4.445408908966517e6 0.0
0.0 0.0 0.0

1.886495064645505e6 6.699778222235602e6 0.0
6.699778222235602e6 -7.567300813898957e6 0.0
0.0 0.0 0.0

-1.987364708925588e6 8.364367197100183e6 0.0
8.364367197100183e6 2.6702038459726637e6 0.0
0.0 0.0 0.0

-1.0132036913524042e6 9.714279964219552e6 0.0
9.714279964219552e6 -3.100721887321571e6 0.0
0.0 0.0 0.0

-2.613412633053774e6 5.743646753164339e6 0.0
5.743646753164339e6 914495.4951590935 0.0
0.0 0.0 0.0

2.077426505922257e6 5.299129095863915e6 0.0
5.299129095863915e6 -4.809542251755271e6 0.0
0.0 0.0 0.0

-890572.6028328965 8.430051366989965e6 0.0
8.430051366989965e6 -3.0927642485710476e6 0.0
0.0 0.0 0.0

-871575.2459196179 9.220094053041e6 0.0
9.220094053041e6 -3.8057768267515446e6 0.0
0.0 0.0 0.0

-2.929515915108144e6 6.1000392810882665e6 0.0
6.1000392810882665e6 1.2189996133766586e6 0.0
0.0 0.0 0.0

-4.147980306469611e6 3.087967089252371e6 0.0
3.087967089252371e6 3.0685406102122515e6 0.0
0.0 0.0 0.0

-495906.0849059144 2.866231995585142e6 0.0
2.866231995585142e6 29849.57089772576 0.0
0.0 0.0 0.0

-1.2911245789672786e6 9.584268565592756e6 0.0
9.584268565592756e6 -3.275696560908228e6 0.0
0.0 0.0 0.0

-1.1003688911012604e6 6.483471941391518e6 0.0
6.483471941391518e6 -1.2002039933086978e6 0.0
0.0 0.0 0.0

-2.1491765698319864e6 8.122127455844119e6 0.0
8.122127455844119e6 6.552564506316547e6 0.0
0.0 0.0 0.0

-3.557583348684119e6 1.0429701186690608e7 0.0
1.0429701186690608e7 -1.0132543440159761e6 0.0
0.0 0.0 0.0

67103.30094792123 621285.4591436309 0.0
621285.4591436309 -2.0956852313659587e6 0.0
0.0 0.0 0.0

-7.231043078663305e6 1.6423752632373008e6 0.0
1.6423752632373008e6 9.074837320201071e6 0.0
0.0 0.0 0.0

-5.988968139965134e6 9.543189436284244e6 0.0
9.543189436284244e6 3.059446493510059e6 0.0
0.0 0.0 0.0

-6.434925148618548e6 8.996494899800157e6 0.0
8.996494899800157e6 3.9216787116899523e6 0.0
0.0 0.0 0.0

-552131.0589387737 3.84393064514405e6 0.0
3.84393064514405e6 -1.4036490280353543e6 0.0
0.0 0.0 0.0

-939679.6232166929 1.1711405459572154e6 0.0
1.1711405459572154e6 300173.46957492887 0.0
0.0 0.0 0.0

-150132.3802875548 8.044596735694097e6 0.0
8.044596735694097e6 -4.935843583570759e6 0.0
0.0 0.0 0.0

-2.9795553225274454e6 6.32564594675602e6 0.0
6.32564594675602e6 1.9441669973696526e6 0.0
0.0 0.0 0.0

-8.164505590943732e6 1.6255308500627829e6 0.0
1.6255308500627829e6 1.0116669252274197e7 0.0
0.0 0.0 0.0

-1.9885705320114248e7 759730.6870758317 0.0
759730.6870758317 1.029195285943771e7 0.0
0.0 0.0 0.0

-1.0849698018223073e6 7.680567667150258e6 0.0
7.680567667150258e6 -3.0851867684425237e6 0.0
0.0 0.0 0.0

-347698.98296321835 9.579720689490268e6 0.0
9.579720689490268e6 -746800.4592298219 0.0
0.0 0.0 0.0

1.8528032049883748e6 5.772488319994158e6 0.0
5.772488319994158e6 -6.156518482696272e6 0.0
0.0 0.0 0.0

-5.678806970690073e6 7.026938590108207e6 0.0
7.026938590108207e6 8.445662686144033e6 0.0
0.0 0.0 0.0

-8.484271999951385e6 1.7401535430249237e6 0.0
1.7401535430249237e6 9.061113765606139e6 0.0
0.0 0.0 0.0

-739631.7930002057 1.985286848783262e6 0.0
1.985286848783262e6 -2.478164975017233e6 0.0
0.0 0.0 0.0

-3.592336340840626e6 8.557011775085362e6 0.0
8.557011775085362e6 121639.45003326493 0.0
0.0 0.0 0.0

-4.866112862512774e6 8.75684915505969e6 0.0
8.75684915505969e6 1.9370298448632776e6 0.0
0.0 0.0 0.0

-3.184690746328615e6 7.700296541464768e6 0.0
7.700296541464768e6 1.3518981994631726e6 0.0
0.0 0.0 0.0

-5.794073392223443e6 9.501556947404562e6 0.0
9.501556947404562e6 3.3992512401156574e6 0.0
0.0 0.0 0.0

-3.3730346796382517e6 7.574142936814937e6 0.0
7.574142936814937e6 625541.346421998 0.0
0.0 0.0 0.0

-6.869071854431933e6 -1.4904789173050772e6 0.0
-1.4904789173050772e6 8.662706845424319e6 0.0
0.0 0.0 0.0

-1.0637730007644114e6 9.414793973296953e6 0.0
9.414793973296953e6 1.7883462413620912e6 0.0
0.0 0.0 0.0

-1.4330614820563532e6 9.026673381263629e6 0.0
9.026673381263629e6 -2.514267442790935e6 0.0
0.0 0.0 0.0

-8.65597122937274e6 4.673078109597159e6 0.0
4.673078109597159e6 6.377651900780303e6 0.0
0.0 0.0 0.0

-273884.7534793448 4.0686782109479723e6 0.0
4.0686782109479723e6 -1.334593784751176e6 0.0
0.0 0.0 0.0

-7.094626897329091e6 9.942852873733472e6 0.0
9.942852873733472e6 3.927366031399486e6 0.0
0.0 0.0 0.0

-369838.0966767676 9.57277418531482e6 0.0
9.57277418531482e6 -751627.9190055319 0.0
0.0 0.0 0.0

-5.5274684373232825e6 5.629742629049385e6 0.0
5.629742629049385e6 6.044175261449956e6 0.0
0.0 0.0 0.0

-195921.13248930895 7.188672431983078e6 0.0
7.188672431983078e6 -3.8914266380868503e6 0.0
0.0 0.0 0.0

-2.8145141145610316e6 4.53386811338307e6 0.0
4.53386811338307e6 2.651827068731969e6 0.0
0.0 0.0 0.0

49502.26313901378 641359.7680027917 0.0
641359.7680027917 -2.1696282929432765e6 0.0
0.0 0.0 0.0

624551.3781151392 6.547833885119385e6 0.0
6.547833885119385e6 -4.639648072495236e6 0.0
0.0 0.0 0.0

-2.193046991687067e6 9.944190505236696e6 0.0
9.944190505236696e6 1.0144669059303678e6 0.0
0.0 0.0 0.0

-3.744759928453851e6 8.177336122478512e6 0.0
8.177336122478512e6 1.1265239671039777e6 0.0
0.0 0.0 0.0

-4.773062833876904e6 8.93774161388558e6 0.0
8.93774161388558e6 2.157621920124566e6 0.0
0.0 0.0 0.0

-2.1532686680178125e6 1.1892944453240465e7 0.0
1.1892944453240465e7 -2.0778454377910139e6 0.0
0.0 0.0 0.0

306830.3193643985 6.359704954475989e6 0.0
6.359704954475989e6 -3.8386360130868503e6 0.0
0.0 0.0 0.0

-334168.8328871882 956225.3655738826 0.0
956225.3655738826 -1.6707342038151657e6 0.0
0.0 0.0 0.0

437564.9641373793 6.45328415095088e6 0.0
6.45328415095088e6 -4.805315205702748e6 0.0
0.0 0.0 0.0

-350897.4688687697 1.9164909349870177e6 0.0
1.9164909349870177e6 -2.1854252446265034e6 0.0
0.0 0.0 0.0

-253161.56822946272 9.288097726225415e6 0.0
9.288097726225415e6 5.158469536029484e6 0.0
0.0 0.0 0.0

-9.229597818054065e6 1.0200292263741726e7 0.0
1.0200292263741726e7 5.4038244091866035e6 0.0
0.0 0.0 0.0

-584108.0839851402 727604.0015043066 0.0
727604.0015043066 1.4910357091077976e6 0.0
0.0 0.0 0.0

1.4014505294091376e6 7.261275675474211e6 0.0
7.261275675474211e6 -6.849569119744145e6 0.0
0.0 0.0 0.0

-2.317976099391652e6 1.1793848470178807e7 0.0
1.1793848470178807e7 -1.3542251638561129e6 0.0
0.0 0.0 0.0

-1.5620458069901555e6 9.556013765704261e6 0.0
9.556013765704261e6 655955.3997372012 0.0
0.0 0.0 0.0

802883.7035724721 6.941073474450174e6 0.0
6.941073474450174e6 -5.952283536694422e6 0.0
0.0 0.0 0.0

-9.55358912413327e6 9.572025888545407e6 0.0
9.572025888545407e6 5.907227933971662e6 0.0
0.0 0.0 0.0

-3.300427795685283e6 8.539487478777695e6 0.0
8.539487478777695e6 5.458649365527967e6 0.0
0.0 0.0 0.0

-1.9943009000680998e7 6.504650340758434e6 0.0
6.504650340758434e6 8.976899320350986e6 0.0
0.0 0.0 0.0

-2.1976183173939055e6 9.020311441466775e6 0.0
9.020311441466775e6 2.4502862013826715e6 0.0
0.0 0.0 0.0

-199047.74052486848 6.980715271753682e6 0.0
6.980715271753682e6 -4.022436119889633e6 0.0
0.0 0.0 0.0

1.2746480988392966e7 1.0846531663705967e7 0.0
1.0846531663705967e7 136190.34689580929 0.0
0.0 0.0 0.0

-5.486194220337542e6 7.586652865287269e6 0.0
7.586652865287269e6 9.184785172535984e6 0.0
0.0 0.0 0.0

-632661.2211275264 3.630380417715484e6 0.0
3.630380417715484e6 -304474.36364965787 0.0
0.0 0.0 0.0

-460093.42550192727 9.598453744893106e6 0.0
9.598453744893106e6 -168572.0494992491 0.0
0.0 0.0 0.0

-205310.5817582782 8.322071998276408e6 0.0
8.322071998276408e6 -5.000578330377661e6 0.0
0.0 0.0 0.0

437.50457800284494 1.2298738405978719e7 0.0
1.2298738405978719e7 -3.167023943936797e6 0.0
0.0 0.0 0.0

-3.5328653988119904e6 8.38631497437409e6 0.0
8.38631497437409e6 984106.5049254526 0.0
0.0 0.0 0.0

-7.573815245484602e6 1.2635721074593086e6 0.0
1.2635721074593086e6 8.140155051267248e6 0.0
0.0 0.0 0.0

-1.01071820900482e7 9.576955600765506e6 0.0
9.576955600765506e6 5.7928600011945255e6 0.0
0.0 0.0 0.0

-2.8754687850189037e6 9.335931799482731e6 0.0
9.335931799482731e6 762999.1066855735 0.0
0.0 0.0 0.0

-4.747411653587699e6 8.78174687782912e6 0.0
8.78174687782912e6 1.8810610148471773e6 0.0
0.0 0.0 0.0

-5.745206419297174e6 1.12591681955367e7 0.0
1.12591681955367e7 2.0467831741560393e6 0.0
0.0 0.0 0.0

-5.842468212710978e6 9.42030318585713e6 0.0
9.42030318585713e6 2.8388501999767236e6 0.0
0.0 0.0 0.0

-492581.87313432427 9.796807556788685e6 0.0
9.796807556788685e6 -686056.4122912013 0.0
0.0 0.0 0.0

-1.476558939855205e6 9.42207531721839e6 0.0
9.42207531721839e6 1.4159265680538795e6 0.0
0.0 0.0 0.0

944722.1849766627 8.63942304652003e6 0.0
8.63942304652003e6 -2.9442680739401146e6 0.0
0.0 0.0 0.0

-316651.5921146786 8.6543176042206e6 0.0
8.6543176042206e6 -5.926831955659982e6 0.0
0.0 0.0 0.0

-698927.3322899076 9.838101092159543e6 0.0
9.838101092159543e6 -456642.8778271108 0.0
0.0 0.0 0.0

-3.6925677896288214e6 7.999720618914153e6 0.0
7.999720618914153e6 941093.3534824878 0.0
0.0 0.0 0.0

-4.735697730320839e6 4.319405035659504e6 0.0
4.319405035659504e6 9.0739584656432e6 0.0
0.0 0.0 0.0

-2.442972831414467e6 1.0215406153319761e7 0.0
1.0215406153319761e7 -1.5211258917076841e6 0.0
0.0 0.0 0.0

-1.0235673853815205e6 8.35243609566929e6 0.0
8.35243609566929e6 -3.464573504564509e6 0.0
0.0 0.0 0.0

394178.56675660354 5.960282485184649e6 0.0
5.960282485184649e6 -3.728171565652624e6 0.0
0.0 0.0 0.0

-5.899889787509695e6 7.315948201029454e6 0.0
7.315948201029454e6 8.023891913745575e6 0.0
0.0 0.0 0.0

-1.5033711246457696e6 9.720247205874214e6 0.0
9.720247205874214e6 794095.3943231147 0.0
0.0 0.0 0.0

-3.66886663087802e6 4.48047216491789e6 0.0
4.48047216491789e6 4.035163525332371e6 0.0
0.0 0.0 0.0

-3.145278566218984e6 7.922598420312052e6 0.0
7.922598420312052e6 1.0194712270996724e6 0.0
0.0 0.0 0.0

-2.6858190438910653e6 9.904310441768961e6 0.0
9.904310441768961e6 861622.1572182245 0.0
0.0 0.0 0.0

-3.9037661554949125e6 4.632930068774607e6 0.0
4.632930068774607e6 2.798992150219423e6 0.0
0.0 0.0 0.0

-5.686222410132074e6 4.523981635584918e6 0.0
4.523981635584918e6 6.038572151843598e6 0.0
0.0 0.0 0.0

-2.149144946182209e6 4.655295246474014e6 0.0
4.655295246474014e6 1.0455691848727298e6 0.0
0.0 0.0 0.0

-688704.4375365289 2.3716692299864083e6 0.0
2.3716692299864083e6 343524.96115998295 0.0
0.0 0.0 0.0

-3.752473363405417e6 8.234433152056282e6 0.0
8.234433152056282e6 1.988711390029494e6 0.0
0.0 0.0 0.0

141289.25517216604 8.144446215545884e6 0.0
8.144446215545884e6 -5.8396123829394225e6 0.0
0.0 0.0 0.0

-374308.9923640108 8.445761783998815e6 0.0
8.445761783998815e6 -4.703757595079806e6 0.0
0.0 0.0 0.0

-1.348593353060091e7 5.698017813925201e6 0.0
5.698017813925201e6 6.096148455787794e6 0.0
0.0 0.0 0.0

-7.473642172656322e6 -339523.8642548351 0.0
-339523.8642548351 1.0640920741001338e7 0.0
0.0 0.0 0.0

-237000.12825344177 8.55608946674024e6 0.0
8.55608946674024e6 -4.305097911377446e6 0.0
0.0 0.0 0.0

-6.366234841698555e6 9.642668464797147e6 0.0
9.642668464797147e6 2.8649873602610654e6 0.0
0.0 0.0 0.0

-630555.0114107053 9.471756472873136e6 0.0
9.471756472873136e6 777170.0052168663 0.0
0.0 0.0 0.0

-431399.5145484359 950167.5650739584 0.0
950167.5650739584 -505980.18229270645 0.0
0.0 0.0 0.0

-408061.4110102428 9.561323194259094e6 0.0
9.561323194259094e6 -761012.3955249393 0.0
0.0 0.0 0.0

-3.235101847615276e6 7.757453325933812e6 0.0
7.757453325933812e6 -587523.844077646 0.0
0.0 0.0 0.0

-721682.440481731 4.315587558978295e6 0.0
4.315587558978295e6 -1.161928953397636e6 0.0
0.0 0.0 0.0

2.727600884982229e6 6.630398225783452e6 0.0
6.630398225783452e6 -7.056430042359499e6 0.0
0.0 0.0 0.0

-726075.6803353083 4.236712246774857e6 0.0
4.236712246774857e6 -2.185536516778445e6 0.0
0.0 0.0 0.0

-1.6351118940030183e6 1.1982564577070316e6 0.0
1.1982564577070316e6 761346.1662453961 0.0
0.0 0.0 0.0

-2.2830939867882263e6 1.0753305793010836e7 0.0
1.0753305793010836e7 -2.166961460408966e6 0.0
0.0 0.0 0.0

-1.3411924819455587e6 1.0459822637848388e7 0.0
1.0459822637848388e7 2.6135981654420267e6 0.0
0.0 0.0 0.0

-791168.0338230605 4.1214305704592536e6 0.0
4.1214305704592536e6 -1.4741778904418906e6 0.0
0.0 0.0 0.0

-3.4436094787234836e6 8.0444667310031615e6 0.0
8.0444667310031615e6 5.443701484980784e6 0.0
0.0 0.0 0.0

-9.876435552049525e6 1.0016672354346188e7 0.0
1.0016672354346188e7 5.748557887939217e6 0.0
0.0 0.0 0.0

-719724.258568153 3.6748167469013324e6 0.0
3.6748167469013324e6 -643279.3978040292 0.0
0.0 0.0 0.0

-1.4278942645702749e6 9.293951270608319e6 0.0
9.293951270608319e6 1.6669235312701198e6 0.0
0.0 0.0 0.0

-413212.81738126744 7.044647330830619e6 0.0
7.044647330830619e6 -4.1228201725459625e6 0.0
0.0 0.0 0.0

-5.858231801793511e6 8.189900280208347e6 0.0
8.189900280208347e6 814467.4747659394 0.0
0.0 0.0 0.0

-521789.50928781857 2.7305253882006933e6 0.0
2.7305253882006933e6 -1.3723213570012003e6 0.0
0.0 0.0 0.0

-4.312090085783268e6 9.7756241415456e6 0.0
9.7756241415456e6 819697.5467478938 0.0
0.0 0.0 0.0

1.9556944551062474e6 9.391391314976636e6 0.0
9.391391314976636e6 3.083434098834396e6 0.0
0.0 0.0 0.0

-3.9433825390392374e6 8.424964768277617e6 0.0
8.424964768277617e6 241321.84266027343 0.0
0.0 0.0 0.0

-300393.3435888662 7.032444312121849e6 0.0
7.032444312121849e6 -3.7396855984520176e6 0.0
0.0 0.0 0.0

-3.553469534913417e6 8.45189356868799e6 0.0
8.45189356868799e6 1.9219725643673055e6 0.0
0.0 0.0 0.0

-7.286597871525585e6 -2.3981702697533015e6 0.0
-2.3981702697533015e6 1.2236773965194775e7 0.0
0.0 0.0 0.0

-2.3367497194900364e6 8.408360301873518e6 0.0
8.408360301873518e6 1.3346736869796389e6 0.0
0.0 0.0 0.0

-7.400181218096434e6 1.0015535855856685e7 0.0
1.0015535855856685e7 4.122980223872281e6 0.0
0.0 0.0 0.0

354147.44209249644 7.983084412087431e6 0.0
7.983084412087431e6 -5.807008744578889e6 0.0
0.0 0.0 0.0

-581352.987264946 9.361657681918772e6 0.0
9.361657681918772e6 -3.591054146381134e6 0.0
0.0 0.0 0.0

-583255.3897596136 9.15221144073433e6 0.0
9.15221144073433e6 -3.691497011026071e6 0.0
0.0 0.0 0.0

-6.336054563161808e6 3.4214990204075077e6 0.0
3.4214990204075077e6 9.21784437143162e6 0.0
0.0 0.0 0.0

-3.225870485992968e6 8.019819259512462e6 0.0
8.019819259512462e6 1.3237596576854524e6 0.0
0.0 0.0 0.0

-1.8033653967067353e7 5.950824771115479e6 0.0
5.950824771115479e6 3.759513295309398e7 0.0
0.0 0.0 0.0

2.9817176015742794e6 8.899839258572364e6 0.0
8.899839258572364e6 -8.809292790353572e6 0.0
0.0 0.0 0.0

-9.391860768800152e6 6.593156817985597e6 0.0
6.593156817985597e6 5.028653096320784e6 0.0
0.0 0.0 0.0

-1.780748811054824e6 9.486298364007901e6 0.0
9.486298364007901e6 1.0592730731012372e6 0.0
0.0 0.0 0.0

-7.986932834389528e6 8.8385482315566e6 0.0
8.8385482315566e6 776880.8916314011 0.0
0.0 0.0 0.0

-21491.580355584592 1.9032283557989611e6 0.0
1.9032283557989611e6 -721632.828449014 0.0
0.0 0.0 0.0

-3.1119438169712303e6 5.368875508143866e6 0.0
5.368875508143866e6 1.7791175060074728e6 0.0
0.0 0.0 0.0

-4.28451601522433e6 9.706577819054706e6 0.0
9.706577819054706e6 242309.71239021304 0.0
0.0 0.0 0.0

-1.177304283389574e6 1.1766761659239011e6 0.0
1.1766761659239011e6 646114.8762799285 0.0
0.0 0.0 0.0

2.680881271403919e6 1.0286712184811935e7 0.0
1.0286712184811935e7 3.039922576591686e6 0.0
0.0 0.0 0.0

-1.8458890650816045e6 9.214612128610663e6 0.0
9.214612128610663e6 2.7460065652410304e6 0.0
0.0 0.0 0.0

-2.726119317242654e6 6.315483495093114e6 0.0
6.315483495093114e6 1.6182032007408165e6 0.0
0.0 0.0 0.0

-1.6504502667970553e7 7.502141009880364e6 0.0
7.502141009880364e6 9.982708945195392e6 0.0
0.0 0.0 0.0

1.218277407518661e6 7.964994204098757e6 0.0
7.964994204098757e6 -1.8845662422192495e6 0.0
0.0 0.0 0.0

1.2231258908547426e6 8.700734909267329e6 0.0
8.700734909267329e6 -2.888787187568278e6 0.0
0.0 0.0 0.0

-4.0535165631261673e6 8.888979925673088e6 0.0
8.888979925673088e6 2.0096933221237292e6 0.0
0.0 0.0 0.0

-2.4211869287189264e6 9.70460588314087e6 0.0
9.70460588314087e6 7040.644531925092 0.0
0.0 0.0 0.0

3055.140007162234 7.747059078152574e6 0.0
7.747059078152574e6 -3.476188462978298e6 0.0
0.0 0.0 0.0

1.050796920211917e6 9.430276717538686e6 0.0
9.430276717538686e6 -3.360493307332292e6 0.0
0.0 0.0 0.0

-2.6490356876429254e6 8.174363174783139e6 0.0
8.174363174783139e6 2.423312497087938e6 0.0
0.0 0.0 0.0

-7.657830263436025e6 1.2191606622398151e7 0.0
1.2191606622398151e7 3.6539647876318693e6 0.0
0.0 0.0 0.0

-3.6071628367786324e6 7.88867962681406e6 0.0
7.88867962681406e6 1.9742202693534016e6 0.0
0.0 0.0 0.0

-9.512965239756446e6 1.0022285157534692e7 0.0
1.0022285157534692e7 5.770390101177379e6 0.0
0.0 0.0 0.0

-25399.478810043074 8.679027906212298e6 0.0
8.679027906212298e6 -6.157053087909116e6 0.0
0.0 0.0 0.0

-342704.28709199326 9.918200128816068e6 0.0
9.918200128816068e6 -7.039831252809519e6 0.0
0.0 0.0 0.0

-3.6605675224887384e6 1.3142492008557335e7 0.0
1.3142492008557335e7 2.31069171479166e7 0.0
0.0 0.0 0.0

-1.5281062184495556e6 1.0253074967485476e7 0.0
1.0253074967485476e7 2.9538564341413532e6 0.0
0.0 0.0 0.0

824219.9753051861 7.391328717532098e6 0.0
7.391328717532098e6 -6.505346198858034e6 0.0
0.0 0.0 0.0

-8.173295529019697e6 1.1970313013636881e7 0.0
1.1970313013636881e7 3.3004222982777827e6 0.0
0.0 0.0 0.0

-3.1034339443955906e6 1.025501643500648e7 0.0
1.025501643500648e7 -739156.7494016187 0.0
0.0 0.0 0.0

-713218.0790645642 9.551598679689277e6 0.0
9.551598679689277e6 -353378.5173599828 0.0
0.0 0.0 0.0

-1.774804136070127e6 1.0847723340401208e7 0.0
1.0847723340401208e7 -2.0196770863345072e6 0.0
0.0 0.0 0.0

-1.774196718873573e7 7.247283283398731e6 0.0
7.247283283398731e6 1.0138481858505145e7 0.0
0.0 0.0 0.0

-7.068673829314699e6 9.929405052411184e6 0.0
9.929405052411184e6 3.9493645904525095e6 0.0
0.0 0.0 0.0

-4.360852464094104e6 9.001523744159555e6 0.0
9.001523744159555e6 1.904828638217829e6 0.0
0.0 0.0 0.0

1.6955507203159807e6 6.374863092671047e6 0.0
6.374863092671047e6 -7.149592444342058e6 0.0
0.0 0.0 0.0

-372920.30016285076 1.2591048471043149e7 0.0
1.2591048471043149e7 -3.177514700429861e6 0.0
0.0 0.0 0.0

134183.54814277147 8.066647498157354e6 0.0
8.066647498157354e6 -5.569551833873883e6 0.0
0.0 0.0 0.0

-1.1766731705877946e6 1.2717020839224873e7 0.0
1.2717020839224873e7 -2.346959389873362e6 0.0
0.0 0.0 0.0

269573.2140754693 7.446862840665819e6 0.0
7.446862840665819e6 -3.057684005955816e6 0.0
0.0 0.0 0.0

-1.5304597586903758e6 9.442180968874965e6 0.0
9.442180968874965e6 1.81453468833705e6 0.0
0.0 0.0 0.0

-5.085717038638215e6 9.475298026910216e6 0.0
9.475298026910216e6 2.6691765987438727e6 0.0
0.0 0.0 0.0

-65799.12732161213 2.3809115965852207e6 0.0
2.3809115965852207e6 -449415.2773761681 0.0
0.0 0.0 0.0

4.0551313379017403e6 9.265361588364072e6 0.0
9.265361588364072e6 -4.0281252459281352e6 0.0
0.0 0.0 0.0

-2.221646964112302e7 3.98501487610771e6 0.0
3.98501487610771e6 1.1182771021579284e7 0.0
0.0 0.0 0.0

-6.59442997563123e6 3.672726587518887e6 0.0
3.672726587518887e6 8.18699492304573e6 0.0
0.0 0.0 0.0

-2.977970044581853e6 9.117633471192628e6 0.0
9.117633471192628e6 684924.1415984489 0.0
0.0 0.0 0.0

1.1757659521259768e6 9.26715537615653e6 0.0
9.26715537615653e6 -3.461988318920851e6 0.0
0.0 0.0 0.0

1.091171539906636e6 5.452463614226043e6 0.0
5.452463614226043e6 -5.316663099564469e6 0.0
0.0 0.0 0.0

-2.0415239267203065e6 9.448019933741597e6 0.0
9.448019933741597e6 825092.8745609106 0.0
0.0 0.0 0.0

-6.461637967880087e6 -1.6270780707238025e6 0.0
-1.6270780707238025e6 8.141129795920709e6 0.0
0.0 0.0 0.0

-808191.6701172907 1.03697204542704e7 0.0
1.03697204542704e7 -9.091499528829442e6 0.0
0.0 0.0 0.0

-1.6017701912953053e6 1.7491195799150616e7 0.0
1.7491195799150616e7 3.423053503245731e7 0.0
0.0 0.0 0.0

7173.501836213982 7.9199044247573195e6 0.0
7.9199044247573195e6 -5.157877640320051e6 0.0
0.0 0.0 0.0

-377103.0703025113 1.0266430387669241e6 0.0
1.0266430387669241e6 -1.9058613515639168e6 0.0
0.0 0.0 0.0

-2.27754651615857e6 9.1391842756086e6 0.0
9.1391842756086e6 4.762609304734615e6 0.0
0.0 0.0 0.0

-7.968328309342659e6 -2.9102478493132535e6 0.0
-2.9102478493132535e6 1.2330415971315272e7 0.0
0.0 0.0 0.0

-426670.21232363477 2.9947158369721835e6 0.0
2.9947158369721835e6 -1.9793108307211238e6 0.0
0.0 0.0 0.0

-7.143659326905427e6 1.3150400399127815e7 0.0
1.3150400399127815e7 2.121548354001326e6 0.0
0.0 0.0 0.0

-2.3787745288441284e6 9.463022043478807e6 0.0
9.463022043478807e6 -2.14755077966015e6 0.0
0.0 0.0 0.0

-993374.5671679032 9.53767925797242e6 0.0
9.53767925797242e6 1.6559813329561756e6 0.0
0.0 0.0 0.0

-2.337172111310539e6 9.61853387239691e6 0.0
9.61853387239691e6 -69399.7965579714 0.0
0.0 0.0 0.0

-9.221455545950541e6 9.093429919299494e6 0.0
9.093429919299494e6 1.552879109485875e6 0.0
0.0 0.0 0.0

-6.705837689124893e6 9.839474679879572e6 0.0
9.839474679879572e6 3.798585570753301e6 0.0
0.0 0.0 0.0

-607568.3574556146 9.728533065616969e6 0.0
9.728533065616969e6 150485.20687310025 0.0
0.0 0.0 0.0

-1.6049198584695389e6 9.473172756909499e6 0.0
9.473172756909499e6 1.195567098091105e6 0.0
0.0 0.0 0.0

-984360.4118287892 8.551780351319257e6 0.0
8.551780351319257e6 -3.2894443104843455e6 0.0
0.0 0.0 0.0

-1.8883206623619655e6 1.0749599075824874e7 0.0
1.0749599075824874e7 -2.526868851039397e6 0.0
0.0 0.0 0.0

-9.19719322342289e6 -1.6985317173483334e6 0.0
-1.6985317173483334e6 1.1307498584058585e7 0.0
0.0 0.0 0.0

-1.6547590965860393e7 7.844044147814517e6 0.0
7.844044147814517e6 1.0421141899340607e7 0.0
0.0 0.0 0.0

-1.0066107695976974e7 8.280522972276795e6 0.0
8.280522972276795e6 6.097565613914086e6 0.0
0.0 0.0 0.0

-1.2901510195319213e7 3.2376910179618862e6 0.0
3.2376910179618862e6 8.068443645484885e6 0.0
0.0 0.0 0.0

-524757.921745321 9.88355156018724e6 0.0
9.88355156018724e6 -428913.24365447916 0.0
0.0 0.0 0.0

-3.0146003811137234e6 9.259253560302004e6 0.0
9.259253560302004e6 -61095.145716833766 0.0
0.0 0.0 0.0

-1.0666808078541053e7 5.43579361207631e6 0.0
5.43579361207631e6 5.786849455006668e6 0.0
0.0 0.0 0.0

-326410.8316586736 2.4775114592601215e6 0.0
2.4775114592601215e6 -1.7652879579889486e6 0.0
0.0 0.0 0.0

-1.359679615102535e6 9.541457493829474e6 0.0
9.541457493829474e6 1.7547565047188334e6 0.0
0.0 0.0 0.0

1.1386042297273432e6 7.274818993541493e6 0.0
7.274818993541493e6 -6.34910322474377e6 0.0
0.0 0.0 0.0

-5.542011558507947e6 4.0461114139076844e6 0.0
4.0461114139076844e6 8.743002282403959e6 0.0
0.0 0.0 0.0

-7.708424831533565e6 -2.773096611730236e6 0.0
-2.773096611730236e6 1.066764012093534e7 0.0
0.0 0.0 0.0

1.6964247540778941e6 6.378004634569497e6 0.0
6.378004634569497e6 -7.1328751220574435e6 0.0
0.0 0.0 0.0

-1.4740192375528002e7 4.893871324334203e6 0.0
4.893871324334203e6 7.4377789828491295e6 0.0
0.0 0.0 0.0

-3.649398541631288e6 -1.2083421242719265e6 0.0
-1.2083421242719265e6 3.9530136379355816e6 0.0
0.0 0.0 0.0

-1.3941235436922861e6 293879.4490390016 0.0
293879.4490390016 697900.5776274268 0.0
0.0 0.0 0.0

-725483.5789147996 2.275169929549098e6 0.0
2.275169929549098e6 -2.892482911531685e6 0.0
0.0 0.0 0.0

-760964.0831755522 868700.0310888079 0.0
868700.0310888079 759817.2032856357 0.0
0.0 0.0 0.0

-1.189058074149167e7 1.7282604991487604e7 0.0
1.7282604991487604e7 3.132249461689868e6 0.0
0.0 0.0 0.0

-2.887556237256308e6 6.596102155277165e6 0.0
6.596102155277165e6 1.7087869945767785e6 0.0
0.0 0.0 0.0

1.7001289862090321e6 6.586636112302421e6 0.0
6.586636112302421e6 -7.815804956186101e6 0.0
0.0 0.0 0.0

1.4684330803320063e6 5.980888409950337e6 0.0
5.980888409950337e6 -6.669479742795368e6 0.0
0.0 0.0 0.0

-3.324339271691174e6 8.272331045735235e6 0.0
8.272331045735235e6 1.1953102117122998e6 0.0
0.0 0.0 0.0

-9.667786515728535e6 9.691478267488753e6 0.0
9.691478267488753e6 5.539356794960686e6 0.0
0.0 0.0 0.0

-262403.8110140591 5.88565507226082e6 0.0
5.88565507226082e6 2.839341417636527e6 0.0
0.0 0.0 0.0

-2.953357638151952e6 8.51945557880872e6 0.0
8.51945557880872e6 5.451793867362854e6 0.0
0.0 0.0 0.0

-513854.4572379639 1.2562786214016115e7 0.0
1.2562786214016115e7 -3.636717281958306e6 0.0
0.0 0.0 0.0

-3.7272820144524043e6 -1.4143387440952032e6 0.0
-1.4143387440952032e6 5.0934358516455535e6 0.0
0.0 0.0 0.0

-1.0121596427284474e7 2.844056133277924e6 0.0
2.844056133277924e6 5.473772631138226e6 0.0
0.0 0.0 0.0

-6.6103833222922515e6 9.838770436651835e6 0.0
9.838770436651835e6 3.6291827841550983e6 0.0
0.0 0.0 0.0

-5.15759108086456e6 1.1149132082574138e7 0.0
1.1149132082574138e7 9.992434167560682e6 0.0
0.0 0.0 0.0

-521236.9250528287 1.256565753941972e7 0.0
1.256565753941972e7 -3.104573217192159e6 0.0
0.0 0.0 0.0

-2.7929450887193293e6 1.0047037109412972e7 0.0
1.0047037109412972e7 1.0115926205922132e6 0.0
0.0 0.0 0.0

-3.143012023781011e6 8.272622145595331e6 0.0
8.272622145595331e6 2.281699127559433e6 0.0
0.0 0.0 0.0

-2.1501141439725882e6 9.7634618305159e6 0.0
9.7634618305159e6 379599.60294270853 0.0
0.0 0.0 0.0

-2.1829965909271434e7 7.040526074607979e6 0.0
7.040526074607979e6 6.440115638482501e6 0.0
0.0 0.0 0.0

-3.138342239012622e6 6.434179565143343e6 0.0
6.434179565143343e6 1.4469610542908285e6 0.0
0.0 0.0 0.0

-2.392717207605161e6 1.0071699300401399e7 0.0
1.0071699300401399e7 538374.372225986 0.0
0.0 0.0 0.0

-2.89666265705424e6 8.58368439285146e6 0.0
8.58368439285146e6 1.9701827640970785e6 0.0
0.0 0.0 0.0

-944554.4416330977 1.2258733212906756e7 0.0
1.2258733212906756e7 -2.9706425822645603e6 0.0
0.0 0.0 0.0

846036.3654681842 5.489936337885513e6 0.0
5.489936337885513e6 -4.971024909133703e6 0.0
0.0 0.0 0.0

-1.848357556123802e6 1.1601145982961701e7 0.0
1.1601145982961701e7 -2.374656926721041e6 0.0
0.0 0.0 0.0

-1.886019331709705e7 7.440775202701693e6 0.0
7.440775202701693e6 1.0036613285513118e7 0.0
0.0 0.0 0.0

-5.896816218613852e6 9.530154249675646e6 0.0
9.530154249675646e6 3.0418030416845344e6 0.0
0.0 0.0 0.0

-807421.9785719147 2.5251365369480303e6 0.0
2.5251365369480303e6 -365631.069613 0.0
0.0 0.0 0.0

-1.511576710806401e6 9.763928669154402e6 0.0
9.763928669154402e6 -2.9700462574174623e6 0.0
0.0 0.0 0.0

3.335209269047239e6 9.019914933888951e6 0.0
9.019914933888951e6 -4.412225446873649e6 0.0
0.0 0.0 0.0

-1.9984966796523765e7 1.0620058989343906e7 0.0
1.0620058989343906e7 5.019936326341259e6 0.0
0.0 0.0 0.0

-492077.1939715118 9.265114654388502e6 0.0
9.265114654388502e6 334933.34092637233 0.0
0.0 0.0 0.0

1.0565161187135135e6 7.26148020516387e6 0.0
7.26148020516387e6 -6.625893548541066e6 0.0
0.0 0.0 0.0

-1.2495899567690734e6 8.533765464860806e6 0.0
8.533765464860806e6 -3.2462230132020386e6 0.0
0.0 0.0 0.0

-1.7391803817347563e6 9.611748873238359e6 0.0
9.611748873238359e6 938193.6484383945 0.0
0.0 0.0 0.0

-9.587621110802567e6 9.5497542762635e6 0.0
9.5497542762635e6 5.800110715268614e6 0.0
0.0 0.0 0.0

-4.850762204636728e6 9.631535953478776e6 0.0
9.631535953478776e6 1.3366820616293217e6 0.0
0.0 0.0 0.0

1.9977320768092722e6 5.99004806383335e6 0.0
5.99004806383335e6 -6.539656278930623e6 0.0
0.0 0.0 0.0

-3.903499327290711e6 1.1589881079160336e7 0.0
1.1589881079160336e7 5.354462975857481e6 0.0
0.0 0.0 0.0

-239296.2426520004 7.041166604683715e6 0.0
7.041166604683715e6 -3.4196949907279927e6 0.0
0.0 0.0 0.0

-1.6703030154089553e7 1.0120139406708213e7 0.0
1.0120139406708213e7 3.4683124949089307e6 0.0
0.0 0.0 0.0

-913585.8565039164 1.1873049058982555e6 0.0
1.1873049058982555e6 327220.782225945 0.0
0.0 0.0 0.0

-766817.1027379602 1.0467023699207108e6 0.0
1.0467023699207108e6 692855.8385004925 0.0
0.0 0.0 0.0

3.467735585122666e6 7.9688076794269355e6 0.0
7.9688076794269355e6 -2.418095944536646e6 0.0
0.0 0.0 0.0

-2.55972174036072e6 -570819.1260822186 0.0
-570819.1260822186 5.198718779925465e6 0.0
0.0 0.0 0.0

-333755.07582248235 9.387515000274053e6 0.0
9.387515000274053e6 316336.5966661712 0.0
0.0 0.0 0.0

-1.3715650095419805e6 1.0892799303174322e7 0.0
1.0892799303174322e7 2.833341453864593e6 0.0
0.0 0.0 0.0

-8.286082111346012e6 1.0975125064384203e7 0.0
1.0975125064384203e7 3.9688333875191114e6 0.0
0.0 0.0 0.0

-1.1208926606527222e7 -1.2379762715111016e6 0.0
-1.2379762715111016e6 1.4353855898305628e7 0.0
0.0 0.0 0.0

233280.79852087493 8.07438238757691e6 0.0
8.07438238757691e6 -5.678355860986434e6 0.0
0.0 0.0 0.0

-889355.4586035552 2.7963482743809107e6 0.0
2.7963482743809107e6 -2.273965811405412e6 0.0
0.0 0.0 0.0

-1.738547169504011e6 9.592173740266738e6 0.0
9.592173740266738e6 692790.8600163036 0.0
0.0 0.0 0.0

-2.1110772623165343e6 1.0300441458033536e7 0.0
1.0300441458033536e7 3.4019347446235786e6 0.0
0.0 0.0 0.0

-4.43777974060684e6 -149848.44216618556 0.0
-149848.44216618556 4.480387351722971e6 0.0
0.0 0.0 0.0

-5.763415234724659e6 2.9506535106709534e6 0.0
2.9506535106709534e6 5.305238137814952e6 0.0
0.0 0.0 0.0

-3.586478023573507e6 7.805032409895965e6 0.0
7.805032409895965e6 981916.5207864833 0.0
0.0 0.0 0.0

-3.2257269576675547e6 3.6579933669045847e6 0.0
3.6579933669045847e6 6.450099335839053e6 0.0
0.0 0.0 0.0

911968.839092385 9.278357436193908e6 0.0
9.278357436193908e6 -3.0340078346870523e6 0.0
0.0 0.0 0.0

-886115.149118061 878278.1027674072 0.0
878278.1027674072 341934.4464583025 0.0
0.0 0.0 0.0

-1.1510935242605234e7 -1.9567105564740424e6 0.0
-1.9567105564740424e6 1.6319529136890136e7 0.0
0.0 0.0 0.0

956275.3305291706 9.124941627604393e6 0.0
9.124941627604393e6 -3.297750728063963e6 0.0
0.0 0.0 0.0

-2.0968037123096236e6 9.60810316077442e6 0.0
9.60810316077442e6 -1.9508777840998278e6 0.0
0.0 0.0 0.0

-1.0307887808206052e7 -1.257614650580934e6 0.0
-1.257614650580934e6 1.765948078934355e7 0.0
0.0 0.0 0.0

13915.746069553541 1.1974831976543814e7 0.0
1.1974831976543814e7 -3.316760451419348e6 0.0
0.0 0.0 0.0

-1.3661426152671378e6 9.456789596036091e6 0.0
9.456789596036091e6 1.8218057313137231e6 0.0
0.0 0.0 0.0

-817539.7642949659 6.371478637027255e6 0.0
6.371478637027255e6 -1.0851759242177585e6 0.0
0.0 0.0 0.0

-2.1429237000050386e6 474783.568677598 0.0
474783.568677598 2.645025852739759e6 0.0
0.0 0.0 0.0

-2.080072990585338e6 364239.4827704842 0.0
364239.4827704842 844274.343124418 0.0
0.0 0.0 0.0

