# vtk DataFile Version 2.0
phase field modeling fracture
ASCII
DATASET UNSTRUCTURED_GRID
POINTS 2538 float
0.0 0.0 0.0
10.0 0.0 0.0
0.0 10.0 0.0
10.0 10.0 0.0
0.0 4.9995 0.0
0.0 5.0005 0.0
5.0 5.0 0.0
0.9416964895726688 0.0 0.0
1.803581725054446 0.0 0.0
2.592419885431098 0.0 0.0
3.314401822861676 0.0 0.0
3.975193910351406 0.0 0.0
4.579982132660152 0.0 0.0
5.133512780936812 0.0 0.0
5.640130319506143 0.0 0.0
6.103810708661955 0.0 0.0
6.528192895506818 0.0 0.0
6.916607540127679 0.0 0.0
7.272102969376355 0.0 0.0
7.597469242948583 0.0 0.0
7.895259826292669 0.0 0.0
8.167811885738017 0.0 0.0
8.417264413845215 0.0 0.0
8.645575169389538 0.0 0.0
8.854535961159101 0.0 0.0
9.045786767735546 0.0 0.0
9.220828555767493 0.0 0.0
9.38103509633881 0.0 0.0
9.527663687265145 0.0 0.0
9.661865124984566 0.0 0.0
9.784692609918062 0.0 0.0
9.897110148790482 0.0 0.0
10.0 0.09999999999992584 0.0
10.0 0.199999999999856 0.0
10.0 0.2999999999997771 0.0
10.0 0.3999999999996677 0.0
10.0 0.4999999999995511 0.0
10.0 0.5999999999994683 0.0
10.0 0.6999999999993983 0.0
10.0 0.7999999999993286 0.0
10.0 0.8999999999992587 0.0
10.0 0.9999999999991888 0.0
10.0 1.099999999999119 0.0
10.0 1.199999999999033 0.0
10.0 1.299999999998852 0.0
10.0 1.399999999998576 0.0
10.0 1.499999999998284 0.0
10.0 1.599999999997992 0.0
10.0 1.6999999999977 0.0
10.0 1.799999999997408 0.0
10.0 1.899999999997116 0.0
10.0 1.999999999996825 0.0
10.0 2.099999999996533 0.0
10.0 2.199999999996241 0.0
10.0 2.299999999995949 0.0
10.0 2.399999999995657 0.0
10.0 2.499999999995365 0.0
10.0 2.599999999995073 0.0
10.0 2.699999999994782 0.0
10.0 2.79999999999449 0.0
10.0 2.899999999994198 0.0
10.0 2.999999999993906 0.0
10.0 3.099999999993614 0.0
10.0 3.199999999993322 0.0
10.0 3.299999999993029 0.0
10.0 3.399999999992738 0.0
10.0 3.499999999992446 0.0
10.0 3.599999999992154 0.0
10.0 3.699999999991863 0.0
10.0 3.799999999991571 0.0
10.0 3.899999999991278 0.0
10.0 3.999999999991022 0.0
10.0 4.099999999991035 0.0
10.0 4.199999999991187 0.0
10.0 4.299999999991338 0.0
10.0 4.399999999991491 0.0
10.0 4.499999999991642 0.0
10.0 4.599999999991795 0.0
10.0 4.699999999991947 0.0
10.0 4.799999999992099 0.0
10.0 4.89999999999225 0.0
10.0 4.999999999992403 0.0
10.0 5.099999999992555 0.0
10.0 5.199999999992706 0.0
10.0 5.299999999992858 0.0
10.0 5.39999999999301 0.0
10.0 5.499999999993161 0.0
10.0 5.599999999993313 0.0
10.0 5.699999999993466 0.0
10.0 5.799999999993618 0.0
10.0 5.899999999993771 0.0
10.0 5.999999999993922 0.0
10.0 6.099999999994074 0.0
10.0 6.199999999994227 0.0
10.0 6.299999999994378 0.0
10.0 6.39999999999453 0.0
10.0 6.499999999994682 0.0
10.0 6.599999999994833 0.0
10.0 6.699999999994986 0.0
10.0 6.799999999995138 0.0
10.0 6.899999999995289 0.0
10.0 6.999999999995442 0.0
10.0 7.099999999995594 0.0
10.0 7.199999999995747 0.0
10.0 7.299999999995897 0.0
10.0 7.39999999999605 0.0
10.0 7.499999999996202 0.0
10.0 7.599999999996353 0.0
10.0 7.699999999996505 0.0
10.0 7.799999999996658 0.0
10.0 7.899999999996808 0.0
10.0 7.999999999996962 0.0
10.0 8.099999999997113 0.0
10.0 8.199999999997265 0.0
10.0 8.299999999997418 0.0
10.0 8.399999999997569 0.0
10.0 8.499999999997721 0.0
10.0 8.599999999997873 0.0
10.0 8.699999999998024 0.0
10.0 8.799999999998176 0.0
10.0 8.899999999998329 0.0
10.0 8.99999999999848 0.0
10.0 9.099999999998634 0.0
10.0 9.199999999998786 0.0
10.0 9.299999999998937 0.0
10.0 9.399999999999089 0.0
10.0 9.499999999999241 0.0
10.0 9.599999999999392 0.0
10.0 9.699999999999545 0.0
10.0 9.799999999999697 0.0
10.0 9.899999999999848 0.0
9.897110148790565 10.0 0.0
9.784692609918244 10.0 0.0
9.66186512498486 10.0 0.0
9.527663687265571 10.0 0.0
9.381035096339392 10.0 0.0
9.220828555768257 10.0 0.0
9.045786767736512 10.0 0.0
8.854535961160305 10.0 0.0
8.645575169391027 10.0 0.0
8.417264413847017 10.0 0.0
8.167811885740178 10.0 0.0
7.895259826295246 10.0 0.0
7.597469242951631 10.0 0.0
7.272102969379938 10.0 0.0
6.916607540131873 10.0 0.0
6.528192895511704 10.0 0.0
6.103810708667616 10.0 0.0
5.640130319512691 10.0 0.0
5.13351278094435 10.0 0.0
4.579982132668816 10.0 0.0
3.975193910361222 10.0 0.0
3.314401822869852 10.0 0.0
2.592419885437257 10.0 0.0
1.803581725058137 10.0 0.0
0.9416964895740705 10.0 0.0
0.0 9.00010000000243 0.0
0.0 8.000200000005481 0.0
0.0 7.000300000005135 0.0
0.0 6.000400000002569 0.0
0.901790731451151 5.000409820926855 0.0
1.657200899774397 5.000334279910023 0.0
2.289991063707192 5.000271000893629 0.0
2.820065163538221 5.000217993483646 0.0
3.264096435579811 5.000173590356442 0.0
3.636051481595835 5.00013639485184 0.0
3.947629914072366 5.000105237008593 0.0
4.208632181002628 5.0000791367819 0.0
4.427267949625672 5.000057273205037 0.0
4.610414277633563 5.000038958572237 0.0
4.763831845154243 5.000023616815485 0.0
4.892346298799659 5.00001076537012 0.0
4.892346298799748 4.99998923462988 0.0
4.763831845154455 4.999976383184515 0.0
4.610414277633943 4.999961041427763 0.0
4.427267949626277 4.999942726794963 0.0
4.208632181003523 4.9999208632181 0.0
3.94762991407365 4.999894762991407 0.0
3.636051481597624 4.99986360514816 0.0
3.264096435582253 4.999826409643559 0.0
2.820065163541503 4.999782006516354 0.0
2.289991063711534 4.999728999106371 0.0
1.657200899778495 4.999665720089978 0.0
0.9017907314530094 4.999590179073145 0.0
0.0 3.999600000002013 0.0
0.0 2.999700000005187 0.0
0.0 1.99980000000512 0.0
0.0 0.9999000000025537 0.0
9.897889398521345 2.93573355845387 0.0
9.906568249974548 7.060009441434234 0.0
9.913122631074113 3.64016132281653 0.0
9.922462129543863 6.354535290629151 0.0
9.917693659967533 4.354211663134567 0.0
9.909873057440208 5.637584487339942 0.0
9.914183254994697 4.950672966925282 0.0
9.913885043715895 7.666887930262611 0.0
9.91009668007573 2.351889069770817 0.0
9.905135696074536 8.138152454502785 0.0
9.913397459621809 1.849999999997262 0.0
7.099302372137626 0.297750452375005 0.0
7.095143729410097 9.700359990366296 0.0
4.942912558701401 5.095838627899509 0.0
4.315009232304429 5.165022115481685 0.0
4.946182472483878 4.906763777264103 0.0
4.317967462990024 4.825955043772673 0.0
9.916390871492647 8.64999999999792 0.0
9.921504649680616 1.368376469890358 0.0
8.292538149791614 0.206877570318844 0.0
8.292538149793597 9.793122429681448 0.0
5.884594439766573 9.587645267048616 0.0
5.794826292691579 0.3794853783929359 0.0
9.913397459621425 9.049999999998557 0.0
9.908526577714177 0.9568239351922434 0.0
3.456851160380649 5.315740054130451 0.0
3.457889657868442 4.707121019609468 0.0
8.945214200703926 0.1503383337970344 0.0
8.950161364448409 9.8413906539257 0.0
9.913862335499305 4.055887885208452 0.0
9.916697353372683 4.650158482607802 0.0
9.919076340414442 6.049999999994006 0.0
9.906994308667635 5.25749687748192 0.0
9.917490342358025 6.655979201891897 0.0
9.915757520293784 7.343848891656911 0.0
9.910049507471042 3.363474386285078 0.0
9.914471988502868 2.647400064832979 0.0
9.91474124160965 9.337490423485129 0.0
9.916971008170838 0.6499999999994355 0.0
4.307157269264427 9.509674045029644 0.0
4.331527375865619 0.4401616696422582 0.0
9.45434939180249 9.878397030523757 0.0
9.457696120412969 0.1270877537061785 0.0
2.555070293622606 5.422044496190925 0.0
2.566232917480916 4.608001224030952 0.0
3.026511860837692 9.332320638257093 0.0
2.945561971800619 0.5895662714727601 0.0
7.7395404387124 0.2511088946967771 0.0
7.736379255744154 9.745848826372828 0.0
4.687135269408529 5.122111433928926 0.0
4.688420821504113 4.871895064967488 0.0
9.910554884115975 0.3448356354522978 0.0
9.911230082250466 9.65764729394159 0.0
9.921953841410854 6.851023993342036 0.0
9.912065178606017 5.448170483544033 0.0
9.911660025326261 3.861846960030188 0.0
9.914847467973438 3.14501593945607 0.0
9.913397459621425 5.849999999993703 0.0
9.913397459621425 7.849999999996735 0.0
9.906916878988277 2.15455769998631 0.0
9.913397459621425 8.349999999997479 0.0
9.909472363117661 1.640528221515488 0.0
9.913987325695956 1.152857110636247 0.0
9.913397459621425 8.849999999998241 0.0
0.9100099990995943 2.614215977520411 0.0
0.8395284981715456 7.451196254860987 0.0
9.723278867451556 9.898135916635193 0.0
9.723316350887044 0.09841820909386662 0.0
1.385819164827588 4.454539963646463 0.0
1.338343629665047 5.523111536005823 0.0
1.377179700550677 0.6809168304959698 0.0
1.418060461092743 9.285896715136046 0.0
9.91268220142518 0.1457914080939694 0.0
9.906737126737994 9.845745933882352 0.0
0.7108351382691361 6.537941170074089 0.0
1.527735020267026 6.915620208855231 0.0
1.630993885659103 7.838271825205868 0.0
2.232760943566823 7.370850737296832 0.0
2.243414218068206 6.688299277952821 0.0
2.779655053105118 7.021588754814074 0.0
2.80227799359795 7.632420170547022 0.0
3.282022065908813 7.305859666021318 0.0
3.327597298795347 7.857554136825748 0.0
3.743210251018715 7.549183328204379 0.0
3.716353232200752 7.062036086888612 0.0
4.111978858674101 7.27497101169417 0.0
4.104192177581432 6.879858986267289 0.0
4.436230765617037 7.045693351607117 0.0
4.430360014817357 6.703971783962796 0.0
4.732390145036301 6.849841042423394 0.0
5.056161327708878 5.095276573498806 0.0
5.111586796021131 4.999081142133581 0.0
5.169267363407189 5.09444870412406 0.0
5.223795108752053 4.996986220359468 0.0
5.281480803887719 5.092780870372803 0.0
5.335670761900611 4.994887492556936 0.0
5.393485214772442 5.090486192743301 0.0
5.447323082877892 4.992601527033996 0.0
5.505243219343024 5.087953380710069 0.0
5.558739102026105 4.990287787962959 0.0
5.616491581184779 5.085335255235766 0.0
5.669852346908056 4.9879269227514 0.0
5.727502713908907 5.082679981817038 0.0
5.780766004135139 4.988313988715834 0.0
5.838244881129535 5.080480568766611 0.0
5.891357695677371 4.986433849408193 0.0
5.948696036767613 5.077969900389505 0.0
6.001601341641615 4.981313698556656 0.0
6.058851024265095 5.074871552128682 0.0
6.111614020704875 4.978360695880202 0.0
6.168801161530775 5.072044953270978 0.0
6.221368818778567 4.975825765213497 0.0
6.278268309066882 5.066182320461055 0.0
6.330814273567539 4.972837984645718 0.0
6.387565032421376 5.062889771971895 0.0
6.437476667631405 4.971693683589553 0.0
6.496181111585419 5.060210690175857 0.0
6.539454812256072 4.964658165361536 0.0
6.604198202576491 5.056387520850258 0.0
6.648506025747331 4.939374587506267 0.0
6.714026758992516 5.05873885840664 0.0
6.764418045981209 4.959246676066148 0.0
6.8219334571197 5.055299567406268 0.0
6.873708540948134 4.960426349093742 0.0
6.930181428849307 5.053461390218819 0.0
6.981893615341967 4.96435459462232 0.0
7.037791764774784 5.051219747103022 0.0
7.090993561518408 4.96392420322464 0.0
5.504417457283294 4.900897920552702 0.0
7.145434864123609 5.048960634292441 0.0
6.054532384032612 4.883956083938546 0.0
6.738027949040956 4.850032323068674 0.0
7.198432914526514 4.956325226333323 0.0
7.252637187936749 5.046012229327236 0.0
7.30926729605109 4.948903216650376 0.0
7.248106275544042 4.860306312845646 0.0
7.363100274863074 4.849952416808486 0.0
7.365733472701664 5.039519554615095 0.0
7.308483293090149 5.137557220352172 0.0
6.768399513646964 5.145609705119954 0.0
7.422800035311104 5.132251445551834 0.0
7.358273518796229 5.235980394389298 0.0
7.480824155801127 5.227946127939927 0.0
7.302193400058628 4.761917474298247 0.0
7.413570879789824 4.754555110721153 0.0
7.414392998903179 5.334729114426734 0.0
7.352769630272076 4.660405502266205 0.0
7.467556835255426 4.658352623795039 0.0
7.536246869015014 5.328986926716081 0.0
7.478865844607288 5.432598185493195 0.0
7.406396991826072 4.556956233957538 0.0
7.523581002009154 4.552005631348623 0.0
7.597792398573263 5.429506106314967 0.0
7.540511043402902 5.53619421580439 0.0
7.46214474876342 4.452580994318881 0.0
7.5852185078634 4.446021810672608 0.0
7.663329342323453 5.533453399066901 0.0
7.603478967594521 5.643227430483237 0.0
7.513450346818673 4.347641323140766 0.0
7.640744971722214 4.333388343316237 0.0
7.727671715775243 5.642390483050116 0.0
7.667774597993788 5.753188858425915 0.0
7.570065256728661 4.230515669344811 0.0
7.702881065467917 4.218307808529532 0.0
7.638288257073729 4.107994211855027 0.0
7.493362356301017 4.120843902105771 0.0
7.779018500630071 5.521233457321821 0.0
7.794641287388929 5.752364621610818 0.0
7.73369774483611 5.865894287356292 0.0
7.600834531784728 5.867752110500446 0.0
6.233038857278689 5.15645045634683 0.0
7.669727996028819 5.985665563643058 0.0
7.528582452554481 5.987393423295551 0.0
7.598722674572824 6.11001923494443 0.0
7.778305000222867 4.104318908265786 0.0
7.704329019832056 3.987744174608892 0.0
7.838453459801382 4.213322728668484 0.0
7.864495721576461 5.862306066517277 0.0
7.846552353360407 3.98481756181946 0.0
7.769730409703277 3.86544808681145 0.0
5.785249360396857 5.177248808588045 0.0
7.908837087876153 3.861484036275285 0.0
7.834824606222196 3.740586825753288 0.0
7.97685993406276 3.736209527152902 0.0
7.89665098770825 3.615501862931453 0.0
7.753228010315262 3.617800245018972 0.0
7.826063013090472 3.483173292579822 0.0
7.66789744383048 3.48859328808356 0.0
8.042515855796823 3.595394268381807 0.0
7.75200750488492 3.341279823834038 0.0
7.582870318332553 3.346584916806707 0.0
8.120807847415062 3.732493963388337 0.0
8.189783970303546 3.61159165475499 0.0
7.657801000286734 3.200439907646711 0.0
7.486781956172036 3.201402473247712 0.0
7.452595103886905 6.11418616185016 0.0
7.527098033550077 6.243191052852112 0.0
8.260502906807751 3.728437634721859 0.0
8.327629317451398 3.608173631356984 0.0
7.372763970891452 6.247552889754036 0.0
7.456170570815929 6.384992468962936 0.0
7.621837793616884 6.376077080857113 0.0
7.548039512904141 6.520750676893614 0.0
7.717475944451644 6.514856553988943 0.0
7.636658166268699 6.661648164052906 0.0
7.807468267259438 6.664076174524672 0.0
7.718022764310774 6.817938967122142 0.0
7.887785766941087 6.807440365887151 0.0
7.545993589083432 6.815070675854734 0.0
7.809874785067209 6.967537287475282 0.0
7.975643812145337 6.948729406725126 0.0
8.396477808021062 3.725446935061211 0.0
7.565651643157136 3.044354774611752 0.0
7.384328725505071 3.043048915147076 0.0
8.056405351948353 6.802790889114673 0.0
8.14128318237188 6.940027831915737 0.0
8.064621760266059 7.086348792208953 0.0
8.225003598857908 6.805225152373254 0.0
8.463085452993242 3.606998510553562 0.0
8.230426869720718 7.079551841000411 0.0
8.155262284174286 7.224761758176069 0.0
8.530696760758996 3.721683301125054 0.0
8.596669886994064 3.604516769862316 0.0
8.528531058025589 3.490411531312337 0.0
8.320451770844851 7.218191678954744 0.0
8.245273958732774 7.363444652121271 0.0
8.66324687389452 3.717094013035765 0.0
8.600103125209296 3.831913857228569 0.0
8.662131102573216 3.488322280861316 0.0
8.594166125380536 3.374071873435548 0.0
8.411074336066186 7.353871649576861 0.0
8.339644223432472 7.505172120620427 0.0
8.165883718619623 7.513159193685373 0.0
8.483453820080417 7.2082285366806 0.0
8.261200365730348 7.657400951288149 0.0
8.081570576666843 7.670933304838066 0.0
7.471613195794025 2.872548423100142 0.0
7.268733678357991 2.881209199257603 0.0
7.184255506995786 3.084448584600423 0.0
7.065899603697895 2.883902449336828 0.0
6.960163891183182 3.081014635802978 0.0
6.847612128388715 2.885646860602812 0.0
6.739800729737967 3.078895733381448 0.0
8.729373804596847 3.827689165637365 0.0
8.668550856907444 3.938702277545298 0.0
8.72770789162863 3.371798381178293 0.0
8.659764090070603 3.257493349874974 0.0
8.436453928793245 7.648724489148887 0.0
6.619080287792762 2.90880017416788 0.0
6.511740956842646 3.09340654756684 0.0
8.793527829963288 3.935174834810256 0.0
8.736430500996828 4.042719556852617 0.0
7.631260330584174 4.565300771328012 0.0
8.359058396840432 7.801678182761817 0.0
5.339436215072359 5.184870243702279 0.0
4.994031736761993 5.193306795607908 0.0
6.383387675268097 4.87760645722207 0.0
7.29117392392962 6.382172868329505 0.0
6.378196825372041 2.907113079755629 0.0
6.269817199014261 3.12412150658573 0.0
8.793149127377946 3.255386294257182 0.0
8.725774239201558 3.141596687892195 0.0
8.857434600673502 4.041295940541356 0.0
8.802868937128341 4.1471119953668 0.0
8.532045262478793 7.7905977476835 0.0
7.364542641624493 2.699128473342751 0.0
7.571677611088925 2.695732556686516 0.0
6.723058333614999 2.672341359410618 0.0
8.456744924757372 7.94483904450548 0.0
6.140831279784704 2.921247401137864 0.0
6.02419219050745 3.14358702955763 0.0
8.916255604212301 3.934279868822481 0.0
8.859287250884009 3.140226640574265 0.0
8.791092798057303 3.025929352146465 0.0
7.210445465986021 6.245773134960393 0.0
7.120884161792869 6.385155584680196 0.0
7.036931702064287 6.240721609143972 0.0
6.943722280007011 6.3869279517155 0.0
8.920094519678617 4.144837222494242 0.0
8.864374107136287 4.250930406527029 0.0
7.347569838739255 4.463467417508182 0.0
5.90383431757064 2.935113219563906 0.0
5.783476009580765 3.156456199832474 0.0
8.626013191558314 7.935092223505354 0.0
8.687240186957197 7.796697889991163 0.0
5.642059327424706 2.903018174330269 0.0
5.52647853955939 3.162549070310043 0.0
8.555300051897738 8.086169516016518 0.0
8.405624441178524 8.083972416481254 0.0
5.374124307190728 2.945480555950917 0.0
8.935805220807357 3.249260758206028 0.0
8.981625171409894 4.247375537584228 0.0
8.924725364486765 4.352101286657735 0.0
8.807208588134106 4.356163101450244 0.0
8.868277832430604 4.45657124153171 0.0
8.75099635287701 4.460644845248524 0.0
8.812385950597063 4.560891222623518 0.0
8.693833206943118 4.564602972998703 0.0
8.756474732548273 4.665720853686476 0.0
8.63721608225855 4.669394550615355 0.0
8.700108119351134 4.770682016274914 0.0
8.81920502916846 4.767536120893284 0.0
8.76355311338807 4.871451945248518 0.0
8.881442328033694 4.868382238751069 0.0
8.826433523510634 4.97132552240372 0.0
8.943387824985514 4.967694248194483 0.0
8.888718468126953 5.071044784833541 0.0
8.580377663835254 4.774669738817985 0.0
8.770572242937233 5.073880380431421 0.0
8.832915096600454 5.174518948293615 0.0
8.952224483821848 5.170970838320107 0.0
8.897282771771884 5.275476392171722 0.0
7.463928467290875 2.513944501591933 0.0
7.675935950092034 2.509420347143072 0.0
8.924252417741767 3.024418701372628 0.0
8.857265893102921 2.911213535286156 0.0
8.776981063213334 5.27944309004916 0.0
8.840710910770163 5.380165700477552 0.0
8.960876896785969 5.375521424256389 0.0
8.904555918255223 5.482125846038813 0.0
7.567193097677677 2.32750151280277 0.0
7.780880844888839 2.323064027160363 0.0
6.851602118390116 6.234522818184622 0.0
6.758680682687229 6.389359516748128 0.0
6.66345977321418 6.231254850996584 0.0
8.715764716958308 8.079994249772627 0.0
8.65189989696114 8.227534663647639 0.0
9.042229096541828 4.348551764001607 0.0
6.436774206993324 3.316782326998922 0.0
7.590527613340588 5.22651784724799 0.0
9.024366884701616 5.476726561488805 0.0
8.968734351641839 5.583879050892151 0.0
8.845941080047659 5.586406316932274 0.0
8.909881305857882 5.690482454668167 0.0
7.348726871578975 5.44047403999932 0.0
6.567070253986433 6.398115757512583 0.0
6.697077150072261 6.553426749743366 0.0
5.252377383990728 3.187782967482479 0.0
8.988440431820699 2.908621158637298 0.0
8.922541972760119 2.796420836075996 0.0
6.466806010659505 6.229115583261771 0.0
9.033851153821296 5.686506775615425 0.0
8.978340519963718 5.795772485582058 0.0
8.85111463793018 5.798672910287243 0.0
8.922171984280597 5.907237880910408 0.0
8.795190680908043 5.911854068712683 0.0
8.864373398892472 6.019728357749566 0.0
8.991346995940626 6.014539153309398 0.0
8.93374019140187 6.12698887312768 0.0
5.095192648098848 2.952353430985476 0.0
7.672651464908932 2.141715359830917 0.0
7.886266921042761 2.136211284120189 0.0
9.098474286589756 4.245971410451114 0.0
8.813172564986438 8.216887361735234 0.0
8.74802978243154 8.366104673219047 0.0
9.059985162956899 6.120982589539211 0.0
9.00342813739303 6.233245043891739 0.0
4.961413514304496 3.214209167276753 0.0
9.05248113004685 2.794651022570942 0.0
8.986028039118027 2.681341972594222 0.0
5.671890458441996 3.377122473800023 0.0
4.755829262593116 7.184480462344647 0.0
9.158258644940048 4.34465968221255 0.0
4.799687186662534 2.961354824469195 0.0
6.030554747591715 2.726787502996874 0.0
8.938327180212585 8.34758372042188 0.0
8.847392320655468 8.503370672816716 0.0
8.67342124373679 8.518117686968314 0.0
5.234423106934083 2.694925204361751 0.0
8.964923046453565 8.185313058214797 0.0
7.456650986668838 2.134076476407834 0.0
9.111732084821366 2.897226832609386 0.0
6.368055837513985 6.402805870976705 0.0
6.265629899005033 6.226581076317183 0.0
8.736327196352686 6.026404178766982 0.0
9.117473097358854 2.67987006607594 0.0
9.052137415465204 2.565428515518978 0.0
7.781001557847192 1.955874236406257 0.0
7.992134447300669 1.949184538864554 0.0
8.593074792993455 3.143159483125708 0.0
9.1291360203536 6.226877897052981 0.0
9.072154326613617 6.338696745620542 0.0
8.916532550320525 2.566986282201109 0.0
8.984021113721658 2.449252898983242 0.0
9.178032243215632 6.120533546076094 0.0
9.213703592343162 4.244823670856978 0.0
9.11972142641474 2.449071238668887 0.0
9.052853896812186 2.33190758581705 0.0
8.635035926402708 4.462329956179506 0.0
8.773614475966344 8.657865377672689 0.0
8.596400917257634 8.67759750279447 0.0
8.942023339420883 8.644678093589654 0.0
9.19471670675691 6.33096438039349 0.0
9.138460613363325 6.443043552768813 0.0
8.66620319432524 5.916297234509582 0.0
8.606669825267202 6.032658196729024 0.0
9.27222540210304 4.341341907533128 0.0
9.013782808177437 6.451040569407859 0.0
9.08360982569773 6.55729980456602 0.0
7.885622149776354 1.768093045890686 0.0
8.095672144455353 1.768790621151345 0.0
9.208772072925791 6.549717411809656 0.0
9.154272208194383 6.662613503537815 0.0
9.187669783927937 2.334640996932141 0.0
9.122379015831417 2.215832190697178 0.0
6.164077036161143 6.404611236428829 0.0
6.062367614988677 6.224307160647549 0.0
8.987075041759633 2.211477580983978 0.0
9.056972755801603 2.093573581203428 0.0
9.194557288902232 2.096029761809264 0.0
9.131223008370409 1.972713028695079 0.0
8.87381302587057 8.795793668920256 0.0
9.039169086943392 8.781606667490083 0.0
4.662813350519927 3.228118291851354 0.0
4.474181267994617 2.945703616023359 0.0
6.562627723301209 6.075544382232434 0.0
9.326886053211574 4.243083624343211 0.0
9.280374192897945 6.656072830232892 0.0
9.224718905178564 6.766740750539347 0.0
4.703284910421452 6.528907865005451 0.0
8.955136474970331 6.565989985649191 0.0
8.998148826814893 4.865480736169776 0.0
8.99429836796776 1.965972383552685 0.0
9.065669391141741 1.847195105148808 0.0
9.207236162050343 1.853010386995843 0.0
9.143218073349985 1.725630086781897 0.0
8.998867447699345 1.719378449325465 0.0
9.082595782768397 1.592017827427701 0.0
8.92804562738841 1.585238202229766 0.0
9.01637794607019 1.453847302675876 0.0
8.854253119154375 1.446306868730686 0.0
8.941620273019874 1.320083886766936 0.0
8.775393064215876 1.308487027359826 0.0
9.102170347200483 1.324733726345249 0.0
9.013857060361985 1.178821526410403 0.0
7.991031819452564 1.587689878441685 0.0
7.767218744640202 1.595993197647291 0.0
9.191539171305216 1.194087248761656 0.0
9.123965901037613 1.057102462689568 0.0
4.853921953226772 3.470213116851758 0.0
7.496563223334782 3.470157221608763 0.0
8.536691379028115 5.921845852206257 0.0
8.475496498707471 6.037633662010236 0.0
7.978668526342969 2.307231488316941 0.0
9.384721922092124 4.337357165846226 0.0
9.331039180200886 4.435926256444196 0.0
8.546261775564837 6.150267290476958 0.0
8.411727261785726 6.155319300628062 0.0
8.972203609044218 8.930944433074036 0.0
9.133480321468399 8.90955269607895 0.0
9.197778815538276 8.768743880012563 0.0
6.162231825784922 6.05277753404107 0.0
5.962111081146334 6.046949845237622 0.0
9.268727788642101 4.146883230687689 0.0
9.380694211527906 4.144811697563401 0.0
9.323823335199954 4.049557759546529 0.0
9.283324894520613 1.736313094621396 0.0
5.858151623803662 6.22041808248046 0.0
5.759668475561988 6.038806123495502 0.0
7.836860473863919 3.191674397465999 0.0
9.348591928839294 6.75855034547469 0.0
9.293979592221298 6.870213350675044 0.0
9.170543172728557 6.879819332293818 0.0
9.240028263813034 6.983394994050525 0.0
4.347372565145963 3.312731475520695 0.0
4.114183445909965 2.96879678229065 0.0
8.616264880152233 4.042035981070631 0.0
9.403174760076901 6.650407069150438 0.0
4.173860112179449 7.723461240865885 0.0
9.365302975518428 6.973476802087294 0.0
9.312420275675276 7.088420778208979 0.0
9.184876614539778 7.0978133687822 0.0
9.25921281729617 7.204979813006656 0.0
9.12816413817609 7.21569648263899 0.0
9.203944409919862 7.322703303071253 0.0
9.334311975087337 7.311477957762272 0.0
9.280415785210538 7.428795599957155 0.0
9.274060219641907 1.066603180421249 0.0
9.211820491509728 0.9316562593680151 0.0
9.050684011148748 0.9017681241401576 0.0
9.441953732403995 4.432092590771756 0.0
9.394725873909666 4.526051349391942 0.0
9.43453556160865 4.048003950509361 0.0
9.378043599351757 3.952631412328806 0.0
9.289691247910705 8.890746792319852 0.0
9.228148443138926 9.030109127390128 0.0
4.440757888677695 6.389562448928118 0.0
4.689874463978985 6.239329075084555 0.0
4.291519540095677 2.622920583112654 0.0
3.886073352912894 2.632778677714434 0.0
9.344015622314338 1.202401041544343 0.0
8.193292196814806 3.849649660906171 0.0
6.960946604527747 6.07044529864598 0.0
9.347708267319902 8.756364147482309 0.0
6.826423138602714 3.261415861395883 0.0
6.06309517882478 5.884563187328262 0.0
9.4085057714426 7.414123963607981 0.0
9.356416821537886 7.532359471354527 0.0
5.042074134251055 6.938947182785697 0.0
5.063988238156824 7.311205832605263 0.0
3.946666851334923 3.30681624613374 0.0
8.189857914071878 1.939951128540477 0.0
7.880690277686857 1.38928908049477 0.0
7.63766396748483 1.399736360041063 0.0
9.345004233592562 1.857695941115052 0.0
9.440465164139875 7.085860901905448 0.0
7.918332480761888 5.744468010879592 0.0
9.08007135068879 5.372457017512481 0.0
8.78639561093144 3.718391405525285 0.0
9.356843485085705 0.9414458825132457 0.0
9.29705128845331 0.8103081541678832 0.0
9.251825423225316 2.451701826351773 0.0
8.483895366325516 6.270717564685176 0.0
8.346386886249478 6.275973306650227 0.0
9.493299170161215 4.138582531223591 0.0
5.321115649032961 7.117073603021904 0.0
5.354076009109965 7.436189411362466 0.0
5.597984079819928 7.254284331170681 0.0
5.644042313435943 7.564172740776336 0.0
5.383963016128051 7.753854027984002 0.0
5.681168258142109 7.880444993178456 0.0
5.935548099874979 7.687258900444162 0.0
5.979508404301389 7.994332725561488 0.0
6.21936843555201 7.802335560754011 0.0
6.267092590637372 8.104873033518185 0.0
6.498845418385807 7.917606504106031 0.0
6.544600005636809 8.209910620392591 0.0
6.77336078689533 8.027284686082275 0.0
6.814840179123049 8.311778392637773 0.0
6.721304148677048 7.737863326704131 0.0
7.031320924898797 8.1335673274533 0.0
7.077388928622946 8.403901803728003 0.0
5.417471987089176 8.090112295667405 0.0
8.845427688507666 2.446352368201366 0.0
9.318512319918124 2.339233739859646 0.0
9.380241452597096 2.451895615249572 0.0
7.283805558009199 8.237518806365102 0.0
7.329200330160381 8.497045124353782 0.0
7.233272584416691 7.991590926766813 0.0
9.142592248414191 5.471315142785471 0.0
9.196303265878848 5.36738298742727 0.0
9.25795832955665 5.465260877691205 0.0
9.310581303233182 5.36341558704714 0.0
9.371094700882272 5.459458038195667 0.0
9.422767107822985 5.360687090455724 0.0
9.36402660964156 5.264821436196721 0.0
9.474220736978928 5.262802348886269 0.0
9.41680330511366 5.169477108906666 0.0
5.168675939028436 4.895496152382537 0.0
9.482591449057548 5.454699312257291 0.0
9.431567605310825 5.552723344040521 0.0
7.531449703396948 4.741663470323411 0.0
8.517293123442691 4.672601123164268 0.0
8.459978676626639 4.778466809901586 0.0
8.396595115309985 4.67568709170855 0.0
8.338966609235166 4.782101664607259 0.0
8.275355646032752 4.678829956447008 0.0
8.217675280223542 4.785699596769931 0.0
8.28149024865807 4.888803783902183 0.0
8.16019781596952 4.892696417098926 0.0
8.22433278506531 4.995725219088695 0.0
8.102825704443651 4.999629142625341 0.0
8.166887930010795 5.098242831115916 0.0
8.034904900788316 4.896825406879729 0.0
8.15353539905931 4.682103688185489 0.0
8.211891449058882 4.574219757233394 0.0
8.290305306104333 5.094007100958221 0.0
8.225684228618732 5.201525567655179 0.0
9.444618942559746 2.343141375196729 0.0
6.929446520625337 4.868116916840016 0.0
5.737810725167649 4.893891407574175 0.0
8.720389971487277 5.38508368411851 0.0
8.805734920311323 8.951818172412821 0.0
8.905272694453211 9.083303226359831 0.0
6.006155038818204 5.171375272745409 0.0
6.431496448228514 5.152985998213245 0.0
9.052675024457304 7.106590131831544 0.0
7.740007013494393 6.09727525827826 0.0
9.375852260355511 9.013078430361404 0.0
9.32035844773103 9.14584923943073 0.0
6.989707597683965 5.146377438798643 0.0
9.488190206836386 3.951168069367155 0.0
9.432429152094464 3.855725756072153 0.0
5.568386402814275 5.185723849666124 0.0
9.525561551078322 5.166162126187324 0.0
9.465026391994275 5.072601962964018 0.0
9.320357339516937 3.857795423728873 0.0
9.375955927831914 3.759314274140895 0.0
9.261783786753899 3.761412578759438 0.0
9.31820665563318 3.661845422072752 0.0
9.431798673168924 3.660830894813109 0.0
9.374584413615914 3.563138564686839 0.0
9.48759661134647 3.562294297118573 0.0
9.431339678707085 3.464016717943268 0.0
9.417896212887529 1.746970678437863 0.0
8.731705369070733 9.110902182838881 0.0
5.652297951447118 6.21188565774667 0.0
5.569122518069258 6.024400786163834 0.0
8.257007204149394 3.505875091031567 0.0
8.717428603143034 2.925525757227976 0.0
6.882852832747376 8.57686572931064 0.0
6.337330066435714 8.416819098143066 0.0
9.50188906539997 4.521022403818629 0.0
9.453500859905136 4.617181635748691 0.0
9.46806769570129 6.749352117850711 0.0
8.836822104875719 1.72282859852854 0.0
7.481071063421426 5.64593758994851 0.0
5.668814988976305 5.86611128457842 0.0
5.487644760735084 5.847591822776978 0.0
8.993992818065195 7.228173913870249 0.0
7.98322414937693 7.229980191466666 0.0
9.22810751684646 7.54864871395298 0.0
9.304103360459063 7.654622011545798 0.0
9.432787371848761 7.633691049023619 0.0
9.382619818023882 7.759136995934441 0.0
7.239096822516492 4.679179578301165 0.0
9.47692479956498 1.861231395362419 0.0
8.041243110813022 5.095895152648969 0.0
6.190208781188077 7.509864122823853 0.0
9.283062812782122 4.549418667685757 0.0
9.503847665760087 2.450295046295932 0.0
9.443345385250678 2.557904120404248 0.0
9.52009568463353 6.644015937008899 0.0
9.203119005973903 3.662458522935253 0.0
8.406198651282708 5.92630414760378 0.0
8.467263597743843 5.811987729136874 0.0
9.461423029059445 9.128120577356565 0.0
9.408445330070542 9.26024300250086 0.0
9.266505293379728 9.277952925446408 0.0
4.14874709022218 3.631681332690154 0.0
9.437448107949258 0.8198473430736303 0.0
9.376993771693973 0.6910550697058979 0.0
9.22882356848217 0.6931820370818127 0.0
4.451823867195988 6.103664366188579 0.0
4.200031743909027 6.232039028149317 0.0
4.687154754667774 5.975132870483986 0.0
6.268889397098538 6.592235545990395 0.0
7.509366161722768 8.340075462391164 0.0
7.564775703413765 8.59800936579159 0.0
9.542148732924264 3.854614593058991 0.0
7.036231103929761 6.550562550831048 0.0
4.089373665437328 2.268193930262139 0.0
3.642558884866483 2.250386188148396 0.0
3.442182385618804 2.651948803899947 0.0
3.146832503011753 2.222630466765926 0.0
2.948870467975985 2.805088883766417 0.0
9.352005315330274 5.067356449300542 0.0
9.31729677031493 3.462944187594675 0.0
9.37428383619102 3.365546369736205 0.0
9.4883538239391 3.365384871181599 0.0
9.432147665178338 3.267287636377487 0.0
9.25034519267688 7.775848812012313 0.0
9.332091350002502 7.881724023243533 0.0
9.462101000264603 7.86490055671988 0.0
9.413353271651825 7.98561007219363 0.0
8.273592814723814 6.158623919352561 0.0
8.207135014732339 6.280394934566054 0.0
9.541483811580331 5.548224291759592 0.0
9.491365919893726 5.644847811894615 0.0
8.088095771120983 4.577581369371366 0.0
8.14760102783746 4.468303741922308 0.0
9.556217963323956 4.414867468889523 0.0
9.543667331547693 3.266908751519594 0.0
9.489307652535885 3.169908976697059 0.0
9.26285575842982 8.635341362685686 0.0
9.403220742003983 8.621447866627538 0.0
9.326013417886902 8.506778946171965 0.0
9.455477927154853 8.503896705359047 0.0
9.566646674069602 4.611465258087684 0.0
9.499341049870914 0.9352184973273918 0.0
8.683891958597638 1.444705608998412 0.0
8.599973456173778 1.287265568270043 0.0
7.760988189317371 1.175381292562583 0.0
7.50927661322749 1.171223823957793 0.0
7.380927152434357 1.411062577009695 0.0
7.242417847270241 1.170759311509981 0.0
7.107236746116019 1.421234419770886 0.0
6.960799033544566 1.169618322344823 0.0
6.817786081200392 1.434174581170586 0.0
9.48095050141868 8.738557748483624 0.0
9.319762046171894 3.263060331456388 0.0
8.920653400180534 7.117307656029475 0.0
9.452431221190624 6.544166520883111 0.0
9.571407933653493 6.540336592280795 0.0
9.507586285214174 6.443281357841339 0.0
9.575252974749443 5.070210512157044 0.0
5.755172844377253 6.370710487467459 0.0
9.541351959064952 7.969072511059531 0.0
9.354607289792183 9.3921968735401 0.0
9.495213435762107 9.37218405175897 0.0
3.77688136092967 3.643094492921176 0.0
5.460967180339239 6.159077196937325 0.0
8.656589552918996 5.283032675040985 0.0
8.599307076390474 5.387421722684671 0.0
9.584017606465821 5.263931993965828 0.0
9.51536593891754 4.977534386249715 0.0
7.788544970111893 2.70578432810479 0.0
7.381746833264364 8.755477463411431 0.0
7.615969996822885 8.852710176548548 0.0
7.783643411970649 8.691528137204457 0.0
7.845017394185501 8.938777577473743 0.0
8.570520580943368 7.342304222498308 0.0
9.103648004226827 5.781084627507008 0.0
8.338082930126799 5.815990105349368 0.0
8.930848895071895 4.561111316304916 0.0
7.381089602119859 5.983657236035151 0.0
8.42066837692862 6.393608568217351 0.0
8.888256157021065 6.459558428285236 0.0
8.826495664731354 6.575679897210801 0.0
4.22522220414496 5.921354747981145 0.0
3.943296448343383 6.075578573904587 0.0
9.563175937841836 2.554860696349795 0.0
9.505342423182917 2.656889632284623 0.0
6.660863480070611 1.168750929063519 0.0
6.518316961679488 1.436478598119306 0.0
6.683474168246802 1.694104067636375 0.0
6.376799057174731 1.707382100972048 0.0
6.205091481342603 1.443621641108414 0.0
6.058670988071357 1.728841803855816 0.0
5.877457486049096 1.454297236926778 0.0
5.724979192982589 1.756666409586195 0.0
5.529885788012015 1.462283739157555 0.0
9.514953777019835 0.7018468683209754 0.0
8.398665270372675 5.702731562702358 0.0
9.456442249775696 0.5772068858285652 0.0
9.565795671866349 2.345573662774494 0.0
8.830758563027459 9.247271599108435 0.0
8.523580738257648 4.88015211128435 0.0
5.580123316488715 5.701889892660689 0.0
5.398591029446707 5.685938459654249 0.0
5.367686360823392 1.778740548277203 0.0
9.546603444041448 1.754984055696778 0.0
9.489649223089446 1.641312329051244 0.0
9.617973952467912 3.363804764345866 0.0
9.584322830999731 6.729956156156573 0.0
9.597221861144487 3.948534024289882 0.0
9.49401963819799 8.089507968561776 0.0
9.207321074262563 9.416906871900888 0.0
8.27185428346661 4.464932191097996 0.0
8.207416067213774 4.35878753684812 0.0
8.332747746635944 4.354903699457511 0.0
3.990181919126853 3.930792395858886 0.0
8.267392138262498 4.254008221702929 0.0
7.997788712685495 1.196805377512679 0.0
9.600316638269724 5.639973985281733 0.0
9.550939606739425 5.737313319038155 0.0
9.44084303195315 5.74233753256161 0.0
9.50112296154558 5.834555019909565 0.0
8.897429225733994 6.685415510921676 0.0
8.762930941408914 6.695907295903629 0.0
8.654628175336732 9.278157371342388 0.0
8.544676900803436 9.133790942553834 0.0
5.294904777716057 5.855935872688884 0.0
5.216749389964556 5.66865685845661 0.0
9.508453581298625 2.239460033375932 0.0
9.599691370793206 3.169496930704394 0.0
9.546615051106684 3.073514534194011 0.0
7.484714626923596 5.028675123117963 0.0
9.588496050271255 7.850836295555126 0.0
5.153197381012662 1.471340286561097 0.0
9.433168304679345 3.071871997104804 0.0
9.610464706874994 5.829217654498672 0.0
9.561407772947403 5.926179534044419 0.0
8.273381980676042 5.705233340662362 0.0
8.330794188929296 5.594351887246082 0.0
8.207319603076424 5.596747949305344 0.0
7.251338559467102 5.233758892662348 0.0
8.708518799790543 1.130513882092466 0.0
9.590155250193266 0.5878623138195824 0.0
9.389919385420015 5.841079912164009 0.0
7.991397852194216 5.859910582924319 0.0
9.624951589233206 4.975554514425905 0.0
7.240016788025947 2.531866266726309 0.0
7.635666783493215 3.873554782053258 0.0
9.608476620993713 1.863530872936442 0.0
9.365330459496413 8.10677840682376 0.0
8.775076110585598 2.572737931759856 0.0
8.699389445914996 2.444602334375113 0.0
8.625078713232146 2.580891022578613 0.0
8.54447196848446 2.447624719286678 0.0
8.468898498943965 2.586757328881282 0.0
8.62282309213608 2.307826916202421 0.0
9.622102662978762 6.439307895185218 0.0
9.561995355724862 6.35103962032292 0.0
3.898245450818314 1.856155797593496 0.0
9.681759177700954 5.07069253017652 0.0
9.059254996454502 4.963357716933865 0.0
9.113144532326562 4.861710138088372 0.0
9.62140874877204 2.656009146517733 0.0
7.884510615470827 0.9666888912541309 0.0
8.14902661050739 1.005010215149227 0.0
8.491263206618079 8.527197931363634 0.0
8.408859203395778 8.697060715788105 0.0
6.54422152733529 1.954566069381189 0.0
9.563546573097593 2.755667904356369 0.0
9.453065492925557 2.761122255953964 0.0
9.676889098520615 2.755084315170127 0.0
9.678287124781653 2.556838324720633 0.0
2.60254317790297 2.278874965850319 0.0
9.211706272534968 4.050470567310489 0.0
8.526711683538949 5.698821878547752 0.0
8.296604023060945 8.533761944401608 0.0
9.649704314258118 5.543946557831669 0.0
9.651176136337964 3.85122804518279 0.0
9.44590154800397 9.498503704959054 0.0
9.580491248736612 9.476376347552954 0.0
4.3239388803087 3.921156392977062 0.0
9.65737873521736 3.075324100817917 0.0
8.128000846282253 6.160273991836929 0.0
8.06242981852327 6.292371360998262 0.0
8.500465019503922 1.442700595221201 0.0
9.615253212967009 1.649819368149096 0.0
9.561768620580791 1.538553925606111 0.0
9.435477757657937 1.527391516499924 0.0
9.627993450010088 2.242685831452484 0.0
9.5338252733548 0.4673994795805215 0.0
9.398055066504014 0.4589059948533885 0.0
9.669486082509058 5.920177035588319 0.0
9.621072177439727 6.016493814615133 0.0
9.506185962103057 6.018397021409126 0.0
9.196884440497488 7.898824858961557 0.0
9.112591143666748 7.789491461180181 0.0
9.664357762385308 7.950712034233033 0.0
8.46233617997115 2.308903464128035 0.0
8.547917980328803 2.169381684694277 0.0
8.139931430059324 6.410762600521521 0.0
7.672499127532963 9.099143622036436 0.0
7.91372855627271 9.178704612763656 0.0
8.463425076318451 9.290653726808348 0.0
9.643938029094286 9.335632419679458 0.0
9.647017668702574 0.7068996148634754 0.0
6.241662276606473 5.884018212993202 0.0
6.157742245066693 5.73500474100449 0.0
6.318815619949124 5.730068085823802 0.0
6.247706374231452 5.593094310939028 0.0
6.406948541886973 5.593272398468375 0.0
6.092564106310554 5.587409338401505 0.0
8.535507922245372 5.286142900439676 0.0
8.022959839404006 4.471630490587016 0.0
7.963561162854596 4.581393556789843 0.0
9.683487139413305 1.546750704925431 0.0
9.630761777960082 1.435922217091829 0.0
5.121714348989337 7.950140247572198 0.0
5.136464096196084 8.310254432483559 0.0
5.47349124035624 8.455234262268478 0.0
5.176273618280354 8.687190323573228 0.0
4.796664658962938 8.592678692862421 0.0
9.568705729418735 4.887269869750176 0.0
9.462711651199594 4.88832222094458 0.0
9.674903475028225 4.882285174433025 0.0
5.4996067353406 5.546583260717527 0.0
5.663632234555963 5.557613452957074 0.0
6.829408195405585 1.947174574944512 0.0
5.336529198289861 1.127585641139875 0.0
9.672387559812332 6.34138351957329 0.0
4.463988917379896 2.271060678869338 0.0
8.618048281355405 6.263841736419089 0.0
6.480949808711781 5.74815588680617 0.0
6.562207427719153 5.592185077216444 0.0
6.643040463857446 5.721233693378952 0.0
6.712825900331884 5.588664360236 0.0
6.79240375630333 5.711383948285569 0.0
6.86115931532141 5.584697050428064 0.0
6.939210100691576 5.704407337029545 0.0
7.007668476576536 5.580801046893123 0.0
7.084627386867475 5.702817970154801 0.0
6.633257976075473 5.460881327825488 0.0
6.931430743764456 5.461960451448691 0.0
9.682652370938209 6.533133024505995 0.0
8.761108695241376 9.450742747770144 0.0
9.146031326900015 3.764292700000154 0.0
9.089378801805193 3.661317181076136 0.0
9.514354521818781 8.994988681611192 0.0
8.157650730500988 4.262987189670279 0.0
6.329633198899328 5.4647789391701 0.0
2.340685767996258 2.811285337457589 0.0
7.379572471323651 0.9290892725587991 0.0
4.171878172186605 4.222320767259098 0.0
4.4876601621649 4.16473354200826 0.0
5.336389369563535 6.806464508860387 0.0
9.595468321212476 9.108133206829102 0.0
9.645038675267227 8.982113951305912 0.0
8.393140678816192 4.246338342095281 0.0
8.309440721624494 4.155300532283633 0.0
9.418269339704423 1.9925512363779 0.0
9.662781807969623 0.477809346089035 0.0
8.011297869803792 0.7518828483803571 0.0
8.250149975885678 0.7646904662196189 0.0
9.608674873602773 0.3618049194050078 0.0
8.692696069692623 6.582927327365709 0.0
8.628225948401226 6.705702462696891 0.0
8.701883181418305 6.822086652299242 0.0
8.559276855155542 6.829564723911442 0.0
7.069268463354993 5.459534423493629 0.0
2.654575201159115 3.323490466195074 0.0
3.610801136544596 4.044075244426243 0.0
8.263757217166944 5.48730323490738 0.0
8.138838162809126 5.491254533497952 0.0
7.90196833683664 4.477386962763833 0.0
7.987943097943191 3.978756490171551 0.0
9.704623491880403 3.945605151832784 0.0
9.461009573830147 7.301728818091931 0.0
9.532468631193666 7.399916015174975 0.0
9.582688928417856 7.292330983701011 0.0
9.652579613269625 7.387768793572397 0.0
9.699264016151023 7.282867433965265 0.0
9.633305589700536 7.188543855060478 0.0
9.505576100168666 6.961225778216469 0.0
9.43876966151099 6.342441564206569 0.0
4.908483672172518 6.098703904450545 0.0
9.135448256237908 5.269827196966999 0.0
5.905650502271389 2.025036080946255 0.0
9.709890722072377 9.452748507541063 0.0
9.663337613522643 9.572126259365891 0.0
9.603900123387826 7.495180532331903 0.0
9.720147629525837 7.483400774981126 0.0
9.674588415444239 7.588303295299578 0.0
9.653186673863587 4.039274180923234 0.0
9.053164539680804 4.764545162185531 0.0
9.164908495749003 4.763017269285045 0.0
9.226019227262443 4.858029410614327 0.0
8.809947621994619 3.4964384919072 0.0
9.10538997155458 4.665865142902959 0.0
9.331074106432244 5.748993480915537 0.0
9.055854333858068 7.918554535314415 0.0
9.446431573964945 8.209836764658437 0.0
9.573844810886287 8.191100251691205 0.0
9.309704769895653 8.244395007943949 0.0
7.240329561730736 1.676197957122907 0.0
9.543389817573933 3.660019800390455 0.0
9.598599341122098 3.563130123982772 0.0
9.652615161407017 3.658119804270645 0.0
9.706336063693934 3.564815526226687 0.0
8.632284427755456 6.946688912416058 0.0
9.682863230715835 2.349655023034811 0.0
9.571538455120994 2.142369886250143 0.0
8.090821900439733 9.017409120951333 0.0
6.812258669899192 0.9007667548831626 0.0
6.50135254578461 0.8974046495177885 0.0
9.598335906230732 6.246437748035812 0.0
9.719677442549804 6.253968775436637 0.0
8.593026822691716 5.180101360605356 0.0
5.537586126848265 8.836083861509138 0.0
9.688689404995035 2.143487155934306 0.0
2.821389253975936 6.507820864074362 0.0
9.176571289960709 8.507736431357309 0.0
2.918303740542162 8.256728920338826 0.0
3.428955230180972 8.401446814887457 0.0
8.490587404589881 6.715350139132777 0.0
8.86049054904785 7.243279881821806 0.0
8.93696309213556 7.356650230611625 0.0
3.951931175165697 5.78308550088855 0.0
3.65055612573298 5.91672400098539 0.0
3.668142216548471 6.247526235973777 0.0
9.717269848920886 5.821831227352286 0.0
9.708364917734201 3.164198601626433 0.0
8.45581975650687 4.569560863828342 0.0
8.204448312099833 6.040774355519757 0.0
8.65969449127868 5.485991799508151 0.0
9.707534571012967 5.634423933296901 0.0
9.62102991883279 2.849662850313935 0.0
9.144093558002634 3.560383427867003 0.0
8.29763273805118 1.77155302934031 0.0
5.280452715709455 9.01633391004168 0.0
8.984558945859158 6.99932633710603 0.0
8.4157550875812 1.275784953143711 0.0
2.068078118650995 3.355462780535101 0.0
9.205703884756806 5.568274778556933 0.0
9.745857863753141 7.178456670302003 0.0
9.681628895748586 7.081494416756802 0.0
8.875818787971069 6.240744812097083 0.0
7.993733797566922 6.414830952863579 0.0
8.462810157069566 3.377071044664789 0.0
9.29428363519789 4.759591981903337 0.0
7.933956818298286 5.97437536746848 0.0
9.028281726378319 3.558713145763133 0.0
9.083461773461467 3.455531762175701 0.0
9.73231939683535 2.849247643393067 0.0
6.70072305037728 2.192432536215492 0.0
6.423245125077639 2.212870246546939 0.0
4.931537051605536 1.135086496804522 0.0
4.746426561586179 1.500381091957315 0.0
9.707706579932626 7.836419656220658 0.0
8.590593344701457 1.595639668013959 0.0
8.708946574109854 2.1688179918246 0.0
8.634728854549891 2.028564483452208 0.0
9.230357659411311 8.129337203173913 0.0
9.102841374461482 4.452881308250647 0.0
8.472081531214734 5.388993924853032 0.0
4.925996806199801 5.844046944846857 0.0
4.702806345752284 5.745688656289065 0.0
4.884357002239844 5.633237011762874 0.0
4.709628434300812 5.536404116679045 0.0
4.530800966746534 5.627044171217377 0.0
6.040296145349247 6.603808099703576 0.0
6.162203578696918 6.795213950202512 0.0
5.923135943221574 6.824060069869489 0.0
6.046693245732212 7.010423490915212 0.0
6.297337598588478 6.979895528204233 0.0
7.760448385794147 0.7294020304851334 0.0
8.492228348169641 6.958778476405878 0.0
2.89219822877093 1.704113597264478 0.0
2.26178643438086 1.7814602252425 0.0
9.726968895980871 6.009547057102511 0.0
6.63195110828313 0.6072886418835157 0.0
7.984023036954866 7.515675826210831 0.0
7.893857204140559 7.681876703427663 0.0
7.778465117872411 7.537836322197895 0.0
7.998204230811618 7.844922503023499 0.0
7.798554315988981 7.858161805718108 0.0
7.917846202023782 8.03040048103727 0.0
8.547520504556728 2.721261126162116 0.0
8.39253850806587 2.732073315877738 0.0
8.306047241032278 2.59069854402512 0.0
8.233011054235162 2.739783364361515 0.0
8.318836035587811 2.879838477099622 0.0
8.159530874574331 2.888511553151382 0.0
8.245490421394788 3.024568439743106 0.0
9.759103003747676 3.077839427881478 0.0
8.083610090773394 3.033523757291178 0.0
8.174562583800352 3.166768504406541 0.0
6.046769434852523 1.155662270344939 0.0
6.968371001421964 2.176347877216873 0.0
8.324858098380334 3.152966249334499 0.0
8.145556596142626 2.609897633546475 0.0
8.970652052821418 7.804556541250797 0.0
9.033737629244714 7.681328986528639 0.0
9.62347010002576 4.796939565664328 0.0
9.72520380348743 4.790261082613535 0.0
4.882631186210167 5.455006233451049 0.0
4.618356368594037 3.933076284395493 0.0
4.748083507220199 4.151025177732873 0.0
4.641724290430313 4.358202249373887 0.0
4.87055838101999 4.337900676660481 0.0
4.974114446887331 4.149149057174687 0.0
5.081577844806959 4.3240148266423 0.0
5.179521650033781 4.148725180298481 0.0
5.276261408871418 4.316673822529601 0.0
5.369189110897883 4.148362797753505 0.0
5.463892033849439 4.338819369807593 0.0
5.550828466075906 4.146274465971151 0.0
5.646554822352869 4.303571429647391 0.0
5.728109623160046 4.138582010823754 0.0
5.821689108984419 4.291959598724587 0.0
5.906082534948073 4.141649907302701 0.0
5.99655838673762 4.288752711512514 0.0
6.077312859438928 4.141011188943332 0.0
6.164215275138099 4.281164574562373 0.0
6.241782344986693 4.140701084167517 0.0
6.324316420613108 4.277393447415522 0.0
6.40284165425941 4.140026953305852 0.0
6.483655157361099 4.273418937894759 0.0
6.561170698911611 4.136221843106807 0.0
6.63512300179586 4.269917278694155 0.0
6.720306110251473 4.133393659385058 0.0
6.63777078218551 3.99617001426095 0.0
6.802492763973074 3.994355399489989 0.0
6.798834760478153 4.276914787769972 0.0
6.15377608509923 4.000134206628027 0.0
6.548727135071258 4.400510710520637 0.0
6.251479300130713 4.421887359316258 0.0
5.275876048175579 3.979624500657822 0.0
5.910905077162284 4.431174408784691 0.0
6.717070288412452 3.851239795555301 0.0
6.883499045994213 3.852555480300214 0.0
6.96664848901999 3.994033961856844 0.0
7.048208567116626 3.854750001965969 0.0
5.810004974283072 3.982497501655442 0.0
5.586615391658107 4.471070246359201 0.0
6.547331954052155 3.853872077215347 0.0
5.179081233207816 4.485638492900557 0.0
7.126615227065496 3.995337770596979 0.0
7.209459742762513 3.856893463870469 0.0
7.130226097876905 3.713620439679428 0.0
6.63075064074106 3.699684148676045 0.0
6.446985573861992 3.697358756862005 0.0
7.043151422977365 4.131713936060725 0.0
7.198322215260019 4.129850614748363 0.0
7.119378405252723 4.26005098890218 0.0
4.797146270976422 4.525762781577414 0.0
4.608329098388589 4.573584257851931 0.0
7.294442092743627 3.720853338661503 0.0
7.215753312764997 3.571378507508807 0.0
7.049631633956289 3.568047985538775 0.0
7.133765707749521 3.414282375958479 0.0
9.755079417839903 5.539705890434435 0.0
9.698955703441971 5.450920012703194 0.0
9.717604099406742 9.09084770432896 0.0
9.276716006673976 5.847248422342224 0.0
9.339081208926798 5.941174203394446 0.0
9.031261921742963 3.750271483819014 0.0
9.08721978689863 3.853416037308712 0.0
4.801461566647803 7.510704110489921 0.0
8.206553504932042 5.818005960412773 0.0
7.362361315389098 3.863102442315545 0.0
9.492826845316191 2.963845037486267 0.0
9.376710375304633 2.97229517374228 0.0
9.3192743723601 3.070687802230453 0.0
7.915389082113898 6.293241865913004 0.0
6.735006382384437 5.832450056405368 0.0
8.456481836836168 4.35369289249905 0.0
8.517718268476031 4.246675068616396 0.0
5.583512022030555 5.411069060406398 0.0
5.73625200174779 5.422617752052123 0.0
5.81006929286229 5.548584937688919 0.0
5.903438861894402 5.420604003204523 0.0
5.43801870974416 5.402925156167655 0.0
7.022641548594327 5.825217331839047 0.0
7.165095795605366 5.826005223633447 0.0
7.223078558430726 5.690146755650336 0.0
7.841396000338385 4.586693006493787 0.0
7.904793170875705 4.690826189066096 0.0
7.785999820520073 4.696719777099973 0.0
7.846448506395101 4.798518978096564 0.0
7.728149182067156 4.803800941124008 0.0
7.788983823826226 4.904802634695232 0.0
7.672018889153144 4.910077510508749 0.0
7.731996012352178 5.014717724244488 0.0
7.852072803124419 5.00743796185411 0.0
7.779278698005006 5.118909346425974 0.0
8.088113864063853 5.605434545811022 0.0
8.016457362785575 5.494849890158723 0.0
8.072290383394757 5.385594956317259 0.0
7.95068657972964 5.38825563681957 0.0
8.309366678475389 1.438342408757099 0.0
9.748160780780179 1.447794693754379 0.0
9.696454228162398 1.337889922375316 0.0
9.568813761940916 1.329560834053294 0.0
9.638326779791626 1.226729570935787 0.0
8.472132467407484 5.182856496818138 0.0
8.066211547412054 6.53691730655352 0.0
8.217035586462373 6.522976700918602 0.0
3.544839338670893 3.324491119989469 0.0
6.999740002965287 5.347729916247808 0.0
6.874544698914502 5.347027470386579 0.0
4.880451234715014 5.193043717957879 0.0
9.104510033763066 9.313204713465637 0.0
9.0466357104558 9.45359399494339 0.0
9.146803165140184 9.569652364413551 0.0
8.134107047896672 0.5527712356100052 0.0
8.369770412730738 0.5571215815175228 0.0
8.47386979744655 0.7564607169846485 0.0
8.585193608569258 0.5749174254532757 0.0
8.683868132726584 0.75505070091701 0.0
8.787381435061018 0.5813987798627239 0.0
8.697570280442534 0.3771156480326233 0.0
8.530048434259976 5.077280516000916 0.0
7.995091351438729 2.90367515012593 0.0
9.731083608815164 1.662638626153251 0.0
7.260488865351954 4.255073962371814 0.0
9.760728358076392 8.990038509880067 0.0
9.716710396257366 8.884160310398862 0.0
8.794627466210242 7.369659405098349 0.0
8.868068657550866 7.515048014893154 0.0
8.702594597629135 7.510501129643432 0.0
5.132320689147051 0.7610757801158905 0.0
9.755852887652699 3.853180024615871 0.0
9.787424819067885 2.757921105725315 0.0
9.731193479931608 0.3736343090103709 0.0
9.796526908308536 0.489684029254899 0.0
8.226019692057042 2.453349105940535 0.0
4.560989821496479 5.428206018250252 0.0
4.348810639659689 5.517048281386008 0.0
8.785190163106925 7.119142251269924 0.0
9.015515413043023 7.464769766852701 0.0
9.754861440190705 3.659036930324926 0.0
9.7543610723378 4.033687839160082 0.0
9.707881226943384 4.127219992296752 0.0
9.52841017383273 8.309020665649431 0.0
9.65186044414544 8.289498614805698 0.0
9.714051275521857 8.173576484362068 0.0
8.209758892476394 8.715513071423135 0.0
8.097084883671858 8.548851201381087 0.0
8.177989947800599 8.367872862579052 0.0
7.974142434808908 8.36779470623567 0.0
8.409012054919861 2.142624252464372 0.0
7.707002321497132 8.039129945341395 0.0
7.574653123518228 7.83895791570255 0.0
9.229858094382692 5.951357214361815 0.0
9.75307989876696 1.229893222503321 0.0
9.715811155868643 1.128779429890018 0.0
9.597960915003707 1.117058287635912 0.0
9.672063923518955 1.020806103150243 0.0
8.99090422125785 9.593878510105375 0.0
8.133165456134304 9.257620998029804 0.0
7.976779931497633 9.420725324095141 0.0
9.77231778617502 7.927819487779705 0.0
7.957213679655531 4.364530256281665 0.0
9.609903116082736 8.403725680286847 0.0
9.724891358972584 8.388392708395173 0.0
9.687487059868507 8.495935345161797 0.0
9.810055520269009 8.494090598382963 0.0
9.755967487162335 8.599790818513082 0.0
9.645698986824481 8.606121319182705 0.0
9.721376049217765 8.699989876681524 0.0
9.773009257015609 4.884557953188837 0.0
9.830105798750992 4.796546393900876 0.0
9.775335108731761 4.686093304257503 0.0
7.455611517737074 3.730099283949135 0.0
8.906943567829634 0.4197477661467797 0.0
8.980613334153533 0.5814185917581446 0.0
9.081059111759728 0.4263421860552371 0.0
9.821654809259165 3.576985724143072 0.0
9.761309244784803 3.4792267780002 0.0
9.763329553045937 9.353068233045157 0.0
4.463051839136694 1.164440352584939 0.0
8.0213168204867 5.283436382300235 0.0
7.89385412333227 5.290429544753158 0.0
5.806940001023414 8.583716119232427 0.0
5.88977793877374 8.96065112858812 0.0
9.177759062826041 8.25539130897928 0.0
9.626582559276994 2.05283181283147 0.0
9.747673294325121 2.064954301745188 0.0
8.775905508647185 6.951821187702613 0.0
2.3581644273991 6.029034686663493 0.0
9.777798009058461 9.548066962498762 0.0
9.737129197219856 9.662299853506903 0.0
9.615080366030512 9.683349544763068 0.0
3.315839678697904 6.042943273456425 0.0
8.915083018115329 7.937748428923896 0.0
9.489832173860055 4.712364754630572 0.0
8.118313727862493 8.013944064029838 0.0
8.902248750797776 7.67372145952523 0.0
8.954075939212636 3.463080912810881 0.0
9.45247551997678 2.133243108303608 0.0
8.311151553157742 8.899233004613622 0.0
3.28672004268868 6.826745674539142 0.0
9.86008383798735 3.468233656255824 0.0
8.389990589860254 1.947086063498656 0.0
7.144231739553659 5.329544660076687 0.0
9.654500729007207 7.743301971143119 0.0
9.761920842881946 7.740144345898896 0.0
9.692820773976567 0.2651585113981998 0.0
9.690951720399688 6.100517071814821 0.0
9.775704281989471 6.077882312279847 0.0
9.823117117198079 4.115168542267924 0.0
9.764391943581737 4.214465954230587 0.0
9.659455011849253 4.218716850797838 0.0
9.713462125022623 4.30742830316693 0.0
9.849638067150842 4.208845651573708 0.0
6.376241713254513 3.858766051594979 0.0
6.274931849158213 3.701528298009006 0.0
7.097780104117746 1.926449727602711 0.0
2.457742027508782 3.810157622192786 0.0
2.963634206580268 3.740748099915693 0.0
5.065585416063965 5.544355730437482 0.0
9.783560252464587 7.566507987677117 0.0
9.825819294611026 7.470942204664841 0.0
9.799976114123012 1.01659516618323 0.0
9.745559590633832 0.9150866860898854 0.0
8.20473400632469 9.495828670767946 0.0
8.784586030320169 2.054461500762216 0.0
8.758471587067168 1.888286802854785 0.0
0.9188935087347281 8.510730800272478 0.0
9.674192026048217 9.20389587377276 0.0
9.796314981283475 9.185916994648775 0.0
7.206882433199502 5.452024361489832 0.0
9.773927048949279 6.334665846819535 0.0
9.830288393591173 6.225300227041885 0.0
8.25177349297509 3.282767705830209 0.0
8.099233469407428 3.304040153764131 0.0
9.607860512870598 4.315652630490023 0.0
9.403674738018715 8.367349042046314 0.0
7.611756786273919 5.018691202305147 0.0
7.549513964643336 4.923310232561835 0.0
9.80986724662116 0.2915868356190958 0.0
0.7757562810577034 3.504187313079081 0.0
7.659562100664981 4.698467529240196 0.0
6.539424975891206 3.541729955691742 0.0
6.717348880400739 3.55221857686142 0.0
6.836337579501807 2.417476958454302 0.0
7.096480496160066 5.959124656438389 0.0
7.189742782777612 4.377051328076039 0.0
7.051723187622053 4.38470822973091 0.0
7.125489805519186 4.497018383456762 0.0
6.994915621927777 4.501504591168814 0.0
7.056755276274058 4.607929817497045 0.0
6.932937068803914 4.613249390039674 0.0
6.86629288290367 4.50541343988659 0.0
6.80427099775847 4.617607827251794 0.0
6.739195362053689 4.511124964201849 0.0
6.677260697693361 4.624288827143181 0.0
6.996760608675822 4.711715831373894 0.0
6.316045249462968 0.6456945497683586 0.0
7.321834163850416 5.816449323512759 0.0
7.833101485370825 4.390058096386987 0.0
4.996572652976738 4.498711166259074 0.0
5.112334577457371 4.663858846723513 0.0
5.271923064784868 4.629759173373871 0.0
4.93773508827367 4.668006487116195 0.0
5.348137647919096 4.485934621930562 0.0
5.413454827497575 4.62999925573761 0.0
5.356581113747675 4.770594395332836 0.0
5.013422223730484 4.793321773780133 0.0
8.58674425943957 0.9312335381466886 0.0
8.776450596582496 0.9362399987293505 0.0
4.783496233934828 9.486061758876032 0.0
4.544176394620909 9.034071856445296 0.0
4.082330493623582 9.015765881393772 0.0
9.820867469965414 7.285959215547852 0.0
9.852697883440127 7.166089674802766 0.0
9.260999083164238 2.971390964911171 0.0
9.197701900169713 3.073162109379564 0.0
9.31960210441945 2.867465579641856 0.0
6.660951583415121 3.383363199709994 0.0
5.210469976037585 4.761678854423166 0.0
6.740780285297665 4.733615686805694 0.0
6.611362405615225 4.731958642073806 0.0
6.549091884465382 4.629620704100811 0.0
6.491761716522486 4.733409494449344 0.0
6.425259228542098 4.640546096196947 0.0
9.715556659367534 2.986725573570596 0.0
3.710524324925069 9.463213827486557 0.0
4.768537031214573 4.727001037865238 0.0
5.039413681704655 5.378508462165627 0.0
5.188746429211535 5.440476671296013 0.0
5.172214816037712 5.298914527247826 0.0
4.469063601436893 3.667917323494335 0.0
3.799121596584382 4.741629285988305 0.0
3.661085664896249 4.442847704416992 0.0
3.316563386321876 4.380147387454913 0.0
3.802087298647255 5.26743535640985 0.0
9.738116341343215 8.047178982429934 0.0
9.85106076399546 8.021725551312715 0.0
9.837581050304836 2.844176011307251 0.0
9.664579962075123 4.402853107737106 0.0
9.76433159763034 4.39807801415352 0.0
9.718924973226878 4.487825491046641 0.0
9.826405563645343 4.494594135148365 0.0
4.931068003413168 6.359330991212394 0.0
5.130175746947236 6.201075257041828 0.0
5.143884286052002 6.445382329515047 0.0
4.953395875296406 6.628748468717369 0.0
7.833019185167153 5.400347121613631 0.0
7.766636138801143 5.313240048256084 0.0
9.767038723422333 4.578090619166644 0.0
7.315369355237483 3.441501197259575 0.0
9.556068971301514 0.2347811136726856 0.0
5.733871280791703 4.444861510772459 0.0
5.828809543126846 4.569791247698539 0.0
5.986701526182213 4.562881783985375 0.0
5.912543327921148 4.692966271273211 0.0
6.052130330528581 4.682477327897978 0.0
5.773525984744635 4.697697018456535 0.0
6.121646311546238 4.572302645403103 0.0
6.182349700936326 4.67713231096357 0.0
5.846371383601797 4.808939734754761 0.0
5.117807918383606 5.974361363083184 0.0
6.256132501905665 4.575863546153224 0.0
6.324770064521816 9.645040261272253 0.0
7.345522892050965 4.12581088034536 0.0
9.338523512844539 4.854480276600515 0.0
9.286984287289403 4.959628690044808 0.0
5.676298026114105 4.589279806918992 0.0
5.631257891894775 4.722749088404111 0.0
7.970415275563177 5.621040275419208 0.0
9.565118337557308 7.081391220827488 0.0
9.626201005045262 6.980441083020495 0.0
9.733729506193331 6.979928568877979 0.0
9.684556253529976 6.887102896543928 0.0
9.780785815410074 6.890287441101827 0.0
9.740054813822885 6.794211367612523 0.0
6.462628988057306 7.629921412015864 0.0
6.692564520952154 7.473594130811262 0.0
6.927983108788191 7.570982428592125 0.0
6.899878641134941 7.329306734748538 0.0
7.117542472438434 7.416951094809493 0.0
7.089537168123128 7.186691566729968 0.0
7.296585396514727 7.275888419524222 0.0
6.879678873774065 7.097443005287856 0.0
7.063454637059129 6.967740076426161 0.0
7.329105042924355 7.496317641003757 0.0
6.867084781778411 6.878842928865059 0.0
7.494278796275744 7.351949197351029 0.0
7.462564159480594 7.150140034494138 0.0
7.644835001206406 7.21506678718646 0.0
6.682478929414216 7.008358327294905 0.0
6.449199855715812 7.365660640952548 0.0
7.548139855358765 7.57299228324251 0.0
7.008502809092701 7.844601794812628 0.0
7.371739019901781 7.707688433423657 0.0
5.665345294602155 5.290628720253272 0.0
3.987583013016546 4.486920698115711 0.0
8.893480480320447 0.7785000884179994 0.0
9.715485963651112 0.5955299613117169 0.0
9.761785841543585 0.7048670948649375 0.0
9.670304314877074 4.578896619304786 0.0
8.058509626083154 5.744161686650483 0.0
6.181795443628869 5.462040811515966 0.0
6.256771804808641 5.338464817889848 0.0
6.124070400983443 5.352376180901929 0.0
6.399679261813415 5.349186390888865 0.0
6.477776305607503 5.46505688468465 0.0
6.541624525938461 5.346017118512589 0.0
6.673064575428321 5.339051516933525 0.0
6.599301548842115 5.241958624987057 0.0
9.573774011620444 0.815274945835158 0.0
5.86493292693426 5.877588788523632 0.0
5.552663040119136 6.957487930464628 0.0
5.535080960199246 6.663033131707637 0.0
3.708603689392072 0.5979254716153909 0.0
3.31896983256719 1.188583855309964 0.0
3.895664898001925 1.128137111173669 0.0
6.363360407965353 6.032416442205533 0.0
9.445959758065749 1.070139246426051 0.0
9.50632172780449 1.214052376665338 0.0
9.441030033980638 1.325047485624912 0.0
9.295799464644857 1.341410624832976 0.0
9.184164107767781 1.461677744200096 0.0
6.407191016756832 4.407273313799791 0.0
5.544591888593027 0.7652641669375747 0.0
7.883090151006535 2.497506182548758 0.0
8.073420508370992 2.120510489750234 0.0
5.494822040671399 4.732314720081375 0.0
0.8986976806403217 1.464611451578306 0.0
9.536325549598013 6.83286654168725 0.0
5.972289519322897 5.727532110854501 0.0
9.82203607053145 9.443411729566549 0.0
7.263199949874008 7.064207941227515 0.0
7.233659553805083 6.853135694774254 0.0
9.793310082768443 7.072747972018893 0.0
6.734168931095253 9.67499220075154 0.0
6.941134861034159 9.382328333169653 0.0
7.285822522704258 9.443989747444657 0.0
6.576263515512108 9.333035011158342 0.0
7.160560566479093 9.127732577621245 0.0
6.218711947378506 9.298064908857533 0.0
6.432383355119106 8.980985203293491 0.0
6.795390278360442 9.046043538032663 0.0
8.54677014121837 0.1957422484480979 0.0
8.528696320820908 9.804850950580938 0.0
8.42644965647489 9.604735484095604 0.0
8.010239224104339 9.715048083583248 0.0
8.644359648763341 9.628432815860457 0.0
5.344212921686536 5.526744195650314 0.0
9.760936589662048 7.38409687515441 0.0
9.128187788393989 0.1445485608215519 0.0
9.133307661752394 9.854833215426817 0.0
4.867351616228264 3.944459575003425 0.0
5.905323253270366 7.385600364255367 0.0
5.909045412185362 3.361969954191194 0.0
5.80580919758911 3.569999290452344 0.0
5.578230704221431 3.587842862412673 0.0
6.013352753603037 3.550699073477782 0.0
5.936624955014758 3.721630401607248 0.0
5.735413275357409 3.78528948606432 0.0
5.512538847486775 3.794760621907932 0.0
5.360571639388366 3.618649018042938 0.0
5.134141179590394 3.459385929220745 0.0
6.167399567008798 3.367365990358096 0.0
9.766756262206602 8.291756450136036 0.0
5.486063578307141 9.64505925252771 0.0
9.497624614180321 4.328873442170357 0.0
9.811387324954623 1.570516917365688 0.0
9.389210081887331 4.69150887571586 0.0
9.704395728912932 3.754226393630331 0.0
9.808172776193384 3.748784464356272 0.0
6.549660911932182 4.839747932361234 0.0
6.757415124099031 6.077939876843736 0.0
3.805578542126494 8.040840085419626 0.0
4.232580149691158 8.198659880701744 0.0
4.559765382564095 7.87091698350757 0.0
8.3829075948167 0.9495097054886067 0.0
9.8571301061408 1.456307792614791 0.0
2.005900212453279 4.535525273813588 0.0
1.85904408608185 3.956445706785572 0.0
1.979307922430775 5.474327285927505 0.0
4.387923194305381 4.427191306527721 0.0
9.429258370703248 8.873693567695483 0.0
8.99196583083892 4.664567567015693 0.0
3.050357122593155 5.368999067452741 0.0
2.861107385476722 5.785089447130829 0.0
5.005058958272409 3.711196438448062 0.0
9.8972295764837 2.755337284632969 0.0
9.581048890980513 8.853909321617065 0.0
9.668838904423916 1.762418716497425 0.0
9.716576458425756 1.852218615166234 0.0
9.799043132681442 1.780583141193779 0.0
7.661868217848455 2.880323287492419 0.0
6.780136552904057 5.443858690999834 0.0
6.489544866845868 5.913957888434588 0.0
6.880149522020364 4.134257616716107 0.0
6.970134365280068 4.264072319341612 0.0
2.225481516813409 9.348422240784 0.0
1.843418032490818 8.641605249943353 0.0
2.198000805242772 0.6459947140825729 0.0
8.740020306282506 0.1903932731609072 0.0
6.86957996016679 4.720776242956433 0.0
7.430920333506809 0.2702852342693345 0.0
7.302066064947383 0.6134316505458445 0.0
9.305398039877746 4.64854361125207 0.0
4.078151380865065 5.203425462519088 0.0
4.080704120371218 4.778853303303787 0.0
8.052525541571825 5.965483159581719 0.0
6.367194027835946 4.754896037842673 0.0
8.604191121620719 7.648182513679963 0.0
9.546446695207845 9.234701521982952 0.0
9.018652854946867 3.351011585453845 0.0
9.143853648154607 3.350173119015413 0.0
9.067079866763024 3.245174561579149 0.0
8.991492136849105 3.135578770028028 0.0
9.29603967712795 0.1426516429033488 0.0
9.392428271030795 0.2506306237151588 0.0
9.223973843394301 0.2912279164401488 0.0
8.39375191941536 3.018777714002827 0.0
8.4836475746111 2.88135207267795 0.0
8.741089053946197 9.821127577434911 0.0
9.803966507713174 5.448064463539533 0.0
9.748132240148552 5.359371181503531 0.0
9.850258990973547 5.355211921626304 0.0
9.7965346514158 5.266762244994661 0.0
9.84142096963129 5.171050273734619 0.0
9.738843612428232 5.167483913244169 0.0
9.64168976006725 5.359875132194057 0.0
3.335917453809221 5.671837672982919 0.0
6.962669142802881 1.683222554707996 0.0
7.365210844496719 1.887492842536114 0.0
7.517378971174123 1.677983072937792 0.0
8.00383870208024 6.089394601875145 0.0
1.725435941000569 2.759295503019395 0.0
7.907977929549089 5.102827208603365 0.0
8.052861051278896 0.2683271125209605 0.0
9.80169732768395 3.385443381464333 0.0
9.831597648680848 3.28491948963525 0.0
9.736335895866404 3.316207814499244 0.0
9.597256128490281 3.756160701977744 0.0
8.865819925321706 3.366235906378775 0.0
8.489614436807788 1.757152185195495 0.0
8.88089641144391 1.078983279100314 0.0
7.430923851187758 9.724389499796425 0.0
7.584252919312249 9.509430586267927 0.0
9.744026095940516 2.247117754488748 0.0
9.729961521243718 2.659836747108116 0.0
9.790866569780063 2.558993767350471 0.0
9.736606445116795 2.455104424879619 0.0
9.846806182714698 2.452157456754448 0.0
4.518102112052724 5.141350889745285 0.0
4.519880229178207 4.85678334497067 0.0
9.7302407894617 6.434012603549242 0.0
9.787537474544765 6.523591663056312 0.0
9.744262337067932 6.617499601377625 0.0
9.8406238811518 6.41591236129004 0.0
8.914967252734657 3.579360039684312 0.0
9.154797282599406 5.670753066089419 0.0
4.228839454580575 4.612979739018002 0.0
6.095037541675208 4.42126627187728 0.0
9.304166983880842 9.864854494751789 0.0
9.406445527105628 9.759007358529582 0.0
9.256225114941945 9.700832989525724 0.0
9.796206564635622 2.351215649506205 0.0
9.849373673349081 2.25090453834006 0.0
6.332048155295931 3.511675163099286 0.0
9.069679774213784 3.022879178706259 0.0
9.070599961450037 9.055284879641471 0.0
1.808685691036764 6.331557276533421 0.0
7.120156826652838 4.698481230214924 0.0
7.052894345811342 4.799848851879358 0.0
4.739957520484086 5.369107149361242 0.0
9.389197839958292 7.197139943834638 0.0
9.046688232613976 4.560364044038737 0.0
9.162685461967492 4.562194096410666 0.0
4.227377821420887 1.564128177298305 0.0
9.201090975245227 2.794301402811909 0.0
9.251941624303948 2.677556975242327 0.0
9.186758273070138 2.563916005021366 0.0
9.317609833868786 2.560335260954038 0.0
6.57599191748324 2.437689779955877 0.0
6.305556560534859 2.459112595979303 0.0
6.981058048792093 2.642476994448363 0.0
9.886113463139504 6.510498309609482 0.0
9.250462794607717 6.221362629571698 0.0
9.305373999084068 6.108271307139882 0.0
9.390477915810829 6.228015172491477 0.0
9.44452571968143 6.114582165110393 0.0
9.502105740270528 6.197677857389309 0.0
9.31559697209813 6.331647407124485 0.0
9.370938253597153 6.437386206819511 0.0
9.594764406124872 0.1099001288712305 0.0
9.602872681151728 9.894988341116305 0.0
9.622661196143387 8.076680696281343 0.0
9.769069277144705 5.9102532189237 0.0
2.615076109785583 8.807551523115547 0.0
9.658920005405456 5.730890135691177 0.0
9.76063135061807 5.720703211793342 0.0
8.63963723169499 7.177334225227945 0.0
7.841904391869763 6.41346852896409 0.0
7.764520718520185 6.297267738834625 0.0
9.546492996136271 3.465225175657335 0.0
9.25600964352143 2.219157062786616 0.0
7.625057159226293 7.012987957636062 0.0
9.529121062829038 7.730283486008674 0.0
8.329887090625894 3.845190321147069 0.0
8.265841850823831 3.95687001944245 0.0
8.402006523775544 3.947660780406651 0.0
8.128436391670505 3.968543393650448 0.0
8.46705122470662 3.835767362024195 0.0
8.218867047074696 4.063481375518748 0.0
8.089763413611255 4.08062363292928 0.0
7.939578083855268 4.111915744184436 0.0
3.74991304509639 6.615676756107112 0.0
2.627714335615619 1.170993030860914 0.0
7.046129971268607 6.759930788612616 0.0
8.534603732661887 7.486325780553722 0.0
1.569381386467569 2.042794535871475 0.0
6.228703743210918 1.986421863690014 0.0
6.467030855792859 2.67190498312861 0.0
9.272246093269825 1.975478263632296 0.0
8.05269609263041 3.854522845257449 0.0
8.008595521536957 3.177870309354594 0.0
7.929796740504207 3.350600835935766 0.0
8.048703574664067 3.449582532910417 0.0
9.72947480375618 4.973926800124758 0.0
9.784850360535604 5.072865219810449 0.0
9.896036387646596 5.069261557893528 0.0
9.633140953203334 5.168645132864771 0.0
9.558102991128836 7.602453108835212 0.0
7.278758746505716 3.994295887299482 0.0
8.306681733482405 6.936428510427854 0.0
9.487163072013963 3.757777670075558 0.0
9.532950522284125 5.359403698944497 0.0
9.816036650072329 3.927268437107025 0.0
6.173882586235392 8.734645960664665 0.0
7.972518459433741 5.003005338485466 0.0
8.398453459336153 1.601072016988848 0.0
8.97460527296194 4.040886705742754 0.0
9.037941657530773 4.143578781749325 0.0
8.849604200183613 3.828506169652706 0.0
9.545296177100065 4.042698359132156 0.0
8.595941796785514 5.806754902023664 0.0
8.65588412428292 5.694192853853139 0.0
8.723710665131787 5.801528918332044 0.0
6.861288985046249 6.673713222735126 0.0
8.87477249219366 4.664500928777609 0.0
8.72385765226959 3.608276264790996 0.0
7.145228858696953 5.573648565429618 0.0
7.282945121585866 5.558559688509987 0.0
9.224761401603633 1.602363370249125 0.0
9.609115686587552 2.986868833620756 0.0
9.633989947851914 6.628120633848649 0.0
6.046214325132457 5.45615093027661 0.0
9.017014346798927 5.271996636983457 0.0
9.070824864071271 5.168510834798647 0.0
9.189021391555556 5.166867900487267 0.0
9.123328759137758 5.064718588163964 0.0
9.240587446378079 5.06459430516883 0.0
9.250848280531756 5.267364371053135 0.0
5.773050603406019 5.7192906317521 0.0
8.576466432793914 4.3559007860436 0.0
8.634627802680399 4.253467736542067 0.0
8.461790117175607 5.591735227444779 0.0
8.907610717370224 3.713397213891439 0.0
9.80665594564509 5.628066492225966 0.0
8.985935132601089 4.455263493464225 0.0
9.00640209566022 5.067597672073404 0.0
9.833659276096986 6.976519563917422 0.0
8.0283368553477 4.687271895436317 0.0
8.326580191759327 9.127498457128247 0.0
8.650637373791266 5.07513089931925 0.0
8.701067313435203 2.700069743477523 0.0
4.825307249916392 4.884175191874744 0.0
9.418335984190309 6.858444798015129 0.0
3.91434687300816 8.542956908935874 0.0
5.569239724399552 2.064135034637056 0.0
5.234271567762738 2.128974435011933 0.0
5.757920427527626 2.312422707096966 0.0
5.43365689737979 2.427455772745759 0.0
5.673210219624612 2.602111218343444 0.0
7.214258468265766 6.652783071431555 0.0
9.823626269633962 4.30685540664529 0.0
7.96996639420014 4.794005510174826 0.0
7.616003332725032 0.502676560965646 0.0
3.050634530589821 4.659174799474146 0.0
2.870894249800723 4.246924313393336 0.0
5.285393339952368 6.079037173753393 0.0
9.439954241218905 4.23581687956071 0.0
9.67709722097145 4.710772408106511 0.0
7.40767785509217 4.259947873553335 0.0
8.396202587439676 5.486075637998701 0.0
8.323689688705493 5.372061002264632 0.0
8.191312386254125 5.384662546230823 0.0
5.304380054816289 5.369675374029755 0.0
9.093848379546637 4.047647920840374 0.0
7.916313220758624 3.045043876114836 0.0
8.435854831444637 4.144861908356168 0.0
9.060262453079693 0.7340576053322918 0.0
7.053195520344596 5.238809779682351 0.0
9.621762679347093 2.45205452967588 0.0
8.410730269104743 5.287995309529392 0.0
9.655094569234972 3.472720279371932 0.0
7.982140513923982 6.667914768024983 0.0
8.402690325256646 4.883576657130221 0.0
9.17488654147479 4.962006474835693 0.0
9.013188196102961 8.49700148123058 0.0
9.795977244531603 2.156818021002043 0.0
9.893813711206834 9.545820400859157 0.0
7.965349232662289 4.250048884270795 0.0
8.644264557989125 4.874751532150782 0.0
8.215430976121077 1.26077208565765 0.0
8.379717637669398 8.37324652769609 0.0
9.320026533461409 5.559861899725609 0.0
7.885778178744864 0.4977439426642278 0.0
7.547066983926719 5.125166613071239 0.0
7.657542898944819 5.122996245335209 0.0
7.423918840193691 9.000935553397358 0.0
9.854133000712425 5.541931969512857 0.0
9.328508174398952 2.101486405523264 0.0
9.300749600926641 9.530012105354274 0.0
8.130307182491519 5.277079344947874 0.0
8.346752967392757 4.987627363826086 0.0
9.118404185029991 6.007087846617186 0.0
9.048232213728614 5.89431792713258 0.0
9.088340967655858 5.576242562571367 0.0
8.094762487139027 4.789727191449318 0.0
9.915265904493378 5.749591413470928 0.0
9.92169805280126 6.154216704502091 0.0
9.918022441582268 4.549125436287157 0.0
9.919332362905616 4.849536560132457 0.0
9.914800786693318 6.750595509794719 0.0
9.811792900437824 6.703950687575952 0.0
9.900643083988882 3.749855087409844 0.0
9.912423171222734 3.043228996968949 0.0
9.91892875832665 5.949999999993851 0.0
9.913300070218703 3.960831593817277 0.0
7.709347001661226 4.444236534782706 0.0
7.479443107717332 8.071637285053104 0.0
8.839057072155848 6.807845119358974 0.0
8.972330068019902 6.78765448182788 0.0
8.542093772125282 3.941452413628317 0.0
8.279144752968262 5.930387616620717 0.0
9.393455876855919 4.973162505621418 0.0
9.507123333872533 2.855087674515822 0.0
8.77504684283825 2.317347145885344 0.0
8.394133129040345 4.464046960801843 0.0
5.725509852450801 8.210843960481027 0.0
5.62632390239664 3.967637659758752 0.0
7.910815814627989 4.900765971697654 0.0
8.595808444085467 5.590040244353608 0.0
9.705160502006024 0.8106158419444889 0.0
9.82021247904746 0.808810893177099 0.0
9.218352146075844 4.447736986422823 0.0
9.20781892622228 3.858281726888132 0.0
8.713609974387523 5.178241668554946 0.0
3.55755059259364 8.921522400238844 0.0
9.59122926011489 5.452844834281716 0.0
9.70565100407009 9.77887811062354 0.0
9.826938454219809 9.74303055702321 0.0
7.238962096855633 3.278078153406256 0.0
8.575609105166194 4.567807831727537 0.0
8.936449841121737 4.765835458965493 0.0
5.59323463391086 9.248527978398117 0.0
5.280809113285124 4.886132326418428 0.0
9.328132730893216 6.544753806716806 0.0
9.026944889277736 6.67247283515637 0.0
9.81946239021469 3.007926663525007 0.0
8.677633568960493 6.144049349297466 0.0
8.33427489656924 4.571212803519522 0.0
8.55734024448315 6.382535186588269 0.0
8.692399379422756 6.372347713955898 0.0
8.495817478252626 6.503308565233578 0.0
9.905494734661673 2.544078755559835 0.0
6.177101405266569 7.228490244483556 0.0
9.825373011845263 5.807482724503027 0.0
9.808678508609606 8.118683092442964 0.0
8.397717712407108 7.08010313863416 0.0
7.428555529689225 4.935946611338556 0.0
9.575504958128711 6.125633853639113 0.0
9.154066996197898 4.146562596982661 0.0
8.074381802159323 4.337569667261167 0.0
7.018337246891919 8.843475095716133 0.0
7.970627172560641 2.658650028065857 0.0
7.382546388883145 6.723381543491632 0.0
6.822972334933889 4.884555620881615 0.0
8.343732976791593 6.041576709398377 0.0
7.743680217306919 8.423336160305476 0.0
8.505717922983454 1.115022897794028 0.0
9.113973198216474 6.992972408167606 0.0
5.818882632841168 5.300437503812764 0.0
5.951991891717714 5.279516346785062 0.0
9.450183479138845 5.92934813870612 0.0
8.783346541536119 5.48419035750989 0.0
9.38074895894124 5.65076274999803 0.0
9.513658728876734 7.193620441323493 0.0
6.396040948797887 6.776064256962667 0.0
5.389661780244388 4.89715084345563 0.0
4.473247649068957 5.85935163892416 0.0
9.249586607512612 8.37680799459232 0.0
9.103796366487646 8.379197231055114 0.0
6.274057301184156 4.87985402946409 0.0
9.259628836118232 3.561431822636308 0.0
4.037922477011971 5.489409780163391 0.0
5.62712958624254 4.893925433488392 0.0
8.806426003347967 6.133410188141932 0.0
9.53304466499349 9.59279975429444 0.0
9.542890959420024 1.966631379116419 0.0
7.459736176874619 5.863847835420528 0.0
5.937613117200432 4.89232797168023 0.0
6.171611131472617 4.879541833448487 0.0
6.100695199816815 2.291172318314745 0.0
2.315194906726768 8.081958163666464 0.0
6.878489987598286 5.148099521847569 0.0
9.105264414399338 8.639184652727645 0.0
9.20047261316883 3.457820810661327 0.0
9.895329010385955 7.55944047105717 0.0
9.912742873006831 7.76210330502246 0.0
9.37761459375249 3.168397068877758 0.0
8.946121261512507 6.345629828835438 0.0
9.918632496443566 4.449809517365367 0.0
6.848211525651934 5.945010613369067 0.0
9.915721525903255 2.047407395915179 0.0
6.117255841708726 5.163321965161054 0.0
7.276595248786602 5.347247322210079 0.0
6.32682869954104 5.23674259421017 0.0
8.785886448438022 5.692775375342819 0.0
9.099994401883361 6.776698531382792 0.0
9.913397459621638 0.2499999999998165 0.0
9.910352525643928 0.4481571029410266 0.0
9.907850422008579 0.5479735220323012 0.0
9.911983631350465 9.24778487019403 0.0
9.917634740384067 0.7514684821956668 0.0
9.195214232985496 3.254172408378337 0.0
5.000896927376288 1.846006038077654 0.0
9.917172478547403 8.250155740683276 0.0
9.908120476950126 1.742986232208194 0.0
9.914524635720774 1.949567899316728 0.0
9.907358878377153 9.145625165175748 0.0
9.917695944922635 8.949999999998397 0.0
7.648387553139914 5.325741673607362 0.0
9.605343588986079 4.130627398479715 0.0
6.648113233057817 6.774798386229164 0.0
9.910347203087213 8.446729917003672 0.0
9.913623694530468 8.548470085896316 0.0
9.9201245863254 1.536225488581779 0.0
9.906538426683255 1.059019360781604 0.0
9.912867352010919 8.74999999999809 0.0
9.799662981388353 8.79550485462418 0.0
9.831828680383174 5.99966894118311 0.0
9.91414179906643 1.263025320602998 0.0
9.920690092699912 7.240982963665807 0.0
9.385889285950551 2.235126904097426 0.0
9.28133998925606 8.00415195851526 0.0
9.817074723108401 3.172398890123306 0.0
9.482030285089927 7.512954023388035 0.0
6.682432918504054 7.233889573028878 0.0
8.528699633246763 3.260502457553277 0.0
8.91699963742029 2.327016692708648 0.0
9.267676068834481 3.954520684561369 0.0
8.70811637467455 4.974101624783084 0.0
8.18184214270768 7.816666208279135 0.0
9.690393137288163 5.264344933127836 0.0
6.937111790104696 5.245184991960528 0.0
5.895846026722989 5.174232967273284 0.0
8.281683356622615 6.400073017261236 0.0
9.150883172924027 7.444273543454419 0.0
5.430406600793122 3.390815886517273 0.0
5.049583827974758 5.697634876048387 0.0
8.3966710383105 3.495813899905868 0.0
9.007538428392454 8.046563579784266 0.0
4.645155158868719 2.637132843684674 0.0
4.887444326771336 2.30020425915506 0.0
6.483736782775559 4.522536327482678 0.0
7.843169154548308 8.2116075844056 0.0
5.06295551628385 4.901632590583318 0.0
7.201400991012747 5.138239336380897 0.0
8.519791031104612 8.848807089071627 0.0
8.658623737989732 3.031313729049854 0.0
7.585566208322493 3.629882964874684 0.0
8.411818469596405 6.834326722716643 0.0
9.172363528634236 7.669230647622864 0.0
8.85455683341768 2.682483055215344 0.0
9.359398739738925 1.631421337140716 0.0
9.071793864444992 7.337030604117359 0.0
6.968394563521436 3.712808894519514 0.0
7.899236117684646 7.094583340182754 0.0
9.54362864504834 9.781852543872333 0.0
7.151298729743687 7.644795130415299 0.0
5.452218361466201 5.186873761308322 0.0
5.517642289161902 5.293540933999446 0.0
7.802500357665464 5.978295671754199 0.0
6.594850839687122 8.491429270558893 0.0
6.029132431949566 8.294997405201931 0.0
9.31286590869111 0.5672913838331921 0.0
9.25238720319541 0.4415953739444106 0.0
9.550589523211062 4.228044955453704 0.0
8.748611832783206 6.250900951984038 0.0
7.566980108995873 3.995148257893202 0.0
7.426142759241261 3.996743578498081 0.0
6.478912513785404 4.000296412419969 0.0
9.30435638148753 5.168210982711592 0.0
7.542154188520517 5.752525075248498 0.0
7.219033852073297 2.139582470800704 0.0
7.370913620388047 6.545121498197235 0.0
5.226731036024996 5.187572666585561 0.0
8.515591031124366 4.462223215179979 0.0
6.762864307079274 0.3078036604979366 0.0
8.587432696997471 4.977010533175154 0.0
8.703948448756302 8.815629076400704 0.0
8.081003990931544 7.370949680119862 0.0
7.424404567669909 6.949730915714445 0.0
8.578903262311433 8.377992954045473 0.0
7.301258690263783 6.106184350645308 0.0
5.991600556904204 3.99820087171043 0.0
8.203048538477193 1.601044215405025 0.0
7.289972483120081 4.572350254111052 0.0
7.714697186439165 5.420586967696794 0.0
8.918853780709807 1.841796898567452 0.0
9.919941345877513 4.749808449067644 0.0
7.245589454939737 5.94251251443003 0.0
9.258480524497795 3.358952871140391 0.0
3.705877615124628 5.574038727593425 0.0
8.287096858129765 7.962370605242409 0.0
6.799629860952143 3.705385600481528 0.0
4.146753450763018 6.544154457143895 0.0
7.413973555029582 5.545687501585183 0.0
8.466524978378082 4.980481756569235 0.0
7.336312153537934 2.337983522449311 0.0
7.695505222753409 3.747498713679684 0.0
4.898236813123799 4.795853653580084 0.0
4.59779105899602 1.896916774247134 0.0
8.560170375862322 7.072369101894893 0.0
8.386150468360862 2.449771437140704 0.0
8.41200018115259 5.084601315536367 0.0
5.102189912301071 7.621598618277815 0.0
8.336320418935243 6.71651223072348 0.0
5.081745734883095 3.977838926197614 0.0
7.63590698378166 0.9500570055008507 0.0
7.743369677149255 3.051233984704873 0.0
5.357527459690566 0.3809996753407537 0.0
5.967373112873382 0.7731113464301924 0.0
8.169449265206127 6.666271947462212 0.0
5.95122726745053 5.55758205410881 0.0
9.922289489207834 3.53923011719877 0.0
9.39154684476555 2.659037023454942 0.0
7.701415639167884 7.690060291860976 0.0
9.819179654793023 1.329863870021845 0.0
8.358229579054417 6.506108206863729 0.0
9.269720555169467 5.657096143475924 0.0
4.473187658045934 7.435037860084884 0.0
9.65807158077373 3.255496360750368 0.0
9.605155446454205 8.713645566904637 0.0
7.097383547728313 5.141197376985936 0.0
9.812212483832656 1.89920712759492 0.0
9.83875570675407 6.81603549325055 0.0
8.926246869879279 2.079976511571457 0.0
9.166785856141402 9.169070814302419 0.0
8.763479010228052 1.587152667342957 0.0
5.957377924852992 6.404530806530254 0.0
7.14506854375872 6.10342416684208 0.0
5.672595070581394 5.164323323112049 0.0
4.899782787268781 0.3801727265981219 0.0
4.447133848117348 4.673614099606824 0.0
7.044865074789195 3.253639989243549 0.0
9.818461337102992 7.819456450952447 0.0
9.925334577033155 7.954012377173311 0.0
6.352907898232792 1.173665225954276 0.0
7.351721385581032 5.660361289755705 0.0
9.337367583861807 2.76534436379692 0.0
8.693118347802024 4.360254099729149 0.0
9.476812970101324 0.3524826622168163 0.0
7.109868985890334 0.9024224571333925 0.0
7.899106846231403 5.511805431542581 0.0
8.352799544476607 5.187887629361129 0.0
6.957483547582747 0.6176251309213842 0.0
8.099559500483094 1.412323841044818 0.0
9.913030944540278 0.8542404645334569 0.0
9.143075088381442 8.022165366829135 0.0
8.819861450593166 6.356592599428041 0.0
9.319444417409162 1.49938505915629 0.0
6.490262520326714 7.118204362551877 0.0
6.490874470087819 6.582907761235813 0.0
9.82506653058937 0.6146757679104559 0.0
6.803129818897624 4.419048038171804 0.0
9.840901379354312 0.08198751964190581 0.0
9.839740374244226 9.918356239418472 0.0
8.551927134544655 9.449788917425456 0.0
9.92097857388158 3.249999999993177 0.0
5.797087413057367 7.077351493358238 0.0
9.255412859987286 6.433984412022419 0.0
8.668174522249984 1.740767926084485 0.0
9.920991430240607 6.25262219124529 0.0
7.57275248448898 1.94367954756322 0.0
8.052865444445507 8.19900054463639 0.0
8.748697149245206 4.25201068974208 0.0
9.158270227735827 0.5542256343091421 0.0
5.997487767477439 4.787924707603557 0.0
6.119759900601896 4.78043793682227 0.0
4.353034750397793 8.619182743639561 0.0
8.721093521611476 5.588932824583312 0.0
5.717101151444983 1.123034066822819 0.0
9.825602081347064 8.68753399402474 0.0
8.005502510832988 8.7824052910506 0.0
5.548184234622668 6.408009287230429 0.0
5.77830300433981 6.598697187164234 0.0
9.613093825495433 4.50282172481406 0.0
9.928981132641653 9.74928475696928 0.0
6.613628176297015 4.515513362596662 0.0
1.822126723816303 1.297795131355289 0.0
9.514164594137375 1.43081427463862 0.0
4.735494753432723 3.698541604583975 0.0
9.52844959749262 8.615213629960298 0.0
4.660704511759056 0.7947595073298008 0.0
6.82340845160293 5.239926830264399 0.0
7.885938077030673 7.380147032865134 0.0
7.884599891021201 6.09005968568029 0.0
8.846834820720167 9.653276456345532 0.0
8.457777199486827 0.3851010632068662 0.0
6.66485224572131 8.771510767670392 0.0
9.091499342133352 9.708315832477556 0.0
9.824286725109655 4.976315293637262 0.0
7.848197684391786 5.632217046637356 0.0
3.88430598115417 4.225391362015386 0.0
8.776890759183289 2.809688928468134 0.0
7.393884285023409 3.59397875231041 0.0
6.927568893329758 4.396788356869783 0.0
4.96854327720728 2.662368428358774 0.0
9.1480130720193 3.951479613991279 0.0
7.071049729490975 2.38092990636632 0.0
3.40193058782919 1.686321186206593 0.0
7.612042194200681 4.815904436723407 0.0
9.043395868401339 6.888481825015849 0.0
9.098933057562759 8.152197681006806 0.0
6.058682303253315 3.857501492181965 0.0
3.707092669281355 2.986685502034343 0.0
5.113272509841263 5.189455016444592 0.0
6.960565857079232 3.416349532571279 0.0
8.755151527375476 7.649255597361291 0.0
3.393680865444538 3.679982303262531 0.0
3.117424600120088 3.35605258976247 0.0
8.530814041264104 5.488376426140491 0.0
4.820719767306654 5.106646490188182 0.0
9.918899263509473 4.144927088739744 0.0
9.918194630017027 7.447268230913605 0.0
8.461970084137805 3.144844565847669 0.0
9.924415919486059 6.949999999995354 0.0
7.184050152099684 2.72771667662237 0.0
8.834356715215904 7.801565642745232 0.0
8.689015446783005 4.145232831954543 0.0
8.490778532265319 8.234414357968106 0.0
8.63666290918932 2.83060276219705 0.0
4.61028976098935 4.741894230894578 0.0
6.314735925012879 4.003132559161639 0.0
9.20786580425652 4.67001723737971 0.0
7.141401229301469 4.873205425098625 0.0
6.235177809922153 4.774126344778935 0.0
9.12491895896937 3.145675090615719 0.0
9.255747684068178 3.162525801823036 0.0
8.312852272796098 2.290855459722148 0.0
1.449266720542303 3.363629101350872 0.0
9.525687840398492 4.800807314407045 0.0
4.829905263804087 8.14474456977717 0.0
9.09338914689732 7.563794106183232 0.0
5.389401689694107 5.283808684471545 0.0
8.530979415204587 3.029374286908943 0.0
7.901489077080633 6.535344047486632 0.0
9.218572924671975 5.760893551533255 0.0
8.562382833959296 4.143913974026883 0.0
8.62959127904665 8.974877485888243 0.0
9.408442441596518 9.62276529745719 0.0
7.5034765601713 3.869833107932387 0.0
9.842813436634783 6.600620949014236 0.0
9.826116984327193 8.911617279149695 0.0
7.529907780698261 0.7369111006685982 0.0
7.832164962480427 2.905293639437395 0.0
8.39517908433056 3.267417602291069 0.0
9.823014010107707 9.085319632577246 0.0
9.022314123618541 3.944559746338292 0.0
4.243701230676532 5.332574856090426 0.0
9.816740542566388 1.127839952679595 0.0
8.166775715766304 5.693916696568397 0.0
8.865374421689054 8.068986769641638 0.0
8.761145809863661 6.470583506581853 0.0
8.998345275919851 9.209303502026401 0.0
9.698477487436316 6.706902829754045 0.0
6.439032098063426 0.3109134377713525 0.0
7.562681994382136 4.643158005207056 0.0
9.03999088074715 0.2799354672273258 0.0
5.180741540467516 3.805018725608906 0.0
6.243990330956698 2.718077286244967 0.0
9.79416634023361 0.1815240178579244 0.0
9.926540005061975 2.847049370876555 0.0
9.826476210374608 2.670192168078066 0.0
6.365816673179121 4.536333049275508 0.0
5.546353765219417 4.618331215552614 0.0
9.820703096450293 2.000649418331399 0.0
6.884388790679166 3.561583980715254 0.0
7.431303395649604 5.747824222777201 0.0
8.849816832721245 2.19318290395604 0.0
4.185147517585975 5.697469360586313 0.0
9.165905238119013 5.873664931582344 0.0
7.70479478158537 1.788324620089049 0.0
9.627376046933474 0.9196091445437269 0.0
6.657687963328663 5.144792385996769 0.0
9.83245016645186 0.3925568446109945 0.0
7.483092985762584 9.253837199159435 0.0
5.445348362202234 3.977855663863651 0.0
7.476680532833337 4.837183287808616 0.0
9.572749890969304 8.505160319814301 0.0
9.915853314998252 9.437014513917465 0.0
7.679469018350979 7.390484878021194 0.0
9.418139053434402 4.790576000488359 0.0
8.096967733471567 5.865447162201908 0.0
9.829153508938724 8.378494945652118 0.0
9.926595955569645 5.157718300415699 0.0
8.774484245600224 7.939747459426853 0.0
8.629764448155779 6.481031318922794 0.0
8.961169458302376 3.839036702328818 0.0
4.617199205561317 5.256318959792646 0.0
8.480815774219478 4.031210317621497 0.0
9.708341592512763 3.401018043990571 0.0
7.183974816647467 4.77882314543966 0.0
9.821437962294304 7.659391965474772 0.0
8.150320284869602 2.286501016204562 0.0
9.828114434347311 1.684891358832554 0.0
5.349187766238684 6.538177907133678 0.0
8.076053471314525 2.76180604769483 0.0
4.907713691134565 5.29818629967416 0.0
0.6874399366049438 4.328593906714074 0.0
0.6980011780697519 5.702671170050627 0.0
8.263861466707834 8.182284285231713 0.0
5.838783785156478 4.913981390426639 0.0
7.807619472656604 7.235706382002089 0.0
9.388504256318683 6.022122644748753 0.0
9.929839894767033 6.436189192303577 0.0
8.3205848711706 3.39107920408397 0.0
3.240770542267401 4.019899919523968 0.0
8.059047070496568 2.468855909103855 0.0
9.932479519490421 2.449625056415224 0.0
7.737639000139152 4.580708137963557 0.0
8.26141077223695 0.3940397126348397 0.0
9.69568953371801 1.959951226402445 0.0
6.469120930453264 4.892267070266994 0.0
9.167223997255698 0.8102256463122337 0.0
6.236889648241256 0.9291076084031108 0.0
8.306379082772498 5.268830342852036 0.0
6.716089118890225 5.239344620507032 0.0
9.82511981852641 9.282822358664017 0.0
6.68375719572285 4.404998642130821 0.0
8.913754712375674 6.908138360584365 0.0
6.173250048857013 5.251634416326969 0.0
4.235907497612446 1.924052997345291 0.0
5.151007663981651 2.438629730660893 0.0
8.924254300637541 9.3764975797567 0.0
4.438612423541503 5.287968640901957 0.0
8.571203234299599 1.897009944569934 0.0
6.878800676380218 5.821332862798138 0.0
5.710626178601224 4.792560699857408 0.0
7.149510071621283 5.216310009157644 0.0
2.099966541549645 2.334742113488256 0.0
9.93396330620579 5.350566393301629 0.0
7.143046479323961 8.646955109387985 0.0
7.965747313080266 5.193641450105844 0.0
6.3314394693073 5.135050228240639 0.0
7.665821333021348 6.222698255001823 0.0
6.305321657053551 4.659816230868476 0.0
7.833020917089713 5.208837056143474 0.0
9.41455902676429 2.869725681199307 0.0
8.567151507735133 6.598605357295113 0.0
7.405527786978573 4.377085529441429 0.0
6.552969697053132 5.137148974085434 0.0
9.93630620742063 8.042778076596578 0.0
7.166743296019233 4.593171678848165 0.0
6.595561806063966 5.839366735225723 0.0
6.066152182102007 5.262519562574559 0.0
9.834694151277489 0.9093455747994099 0.0
8.98259191950674 7.579732466796592 0.0
6.465071238839505 5.25485771955322 0.0
9.759759896588413 3.236659507608532 0.0
4.775529448101694 5.224235675150505 0.0
9.935991245222917 7.153416415978829 0.0
0.6530736820718381 9.352299998916202 0.0
0.6449439415299687 0.6468300344151556 0.0
7.804690364869245 4.495816547678174 0.0
9.84503784553893 5.70620404704573 0.0
9.83525329400959 3.826992990746767 0.0
9.922964894244684 4.265000406933376 0.0
8.333767638401964 1.121219971446645 0.0
8.876012546033895 7.019147158538482 0.0
8.172413577824324 3.413096916572049 0.0
7.232233017296214 4.478957103028363 0.0
6.214597295185415 3.852860083673202 0.0
9.85013791746415 4.400709747289421 0.0
3.941627380932058 6.342995010255737 0.0
3.097271569675528 8.77391871286929 0.0
9.292917152323044 6.010976049411984 0.0
8.104342196673183 5.184165973282902 0.0
8.994300084006271 3.652611812846807 0.0
9.937157897030163 5.549999999993244 0.0
8.721368888525245 7.274540720770752 0.0
8.920003648712827 0.9516585309368178 0.0
7.910527456030004 8.536826514867816 0.0
9.846441288756814 4.60515911863952 0.0
9.584942233925151 4.712073182517884 0.0
9.642357858573972 6.805672051759494 0.0
9.797024725252207 9.838837222258014 0.0
9.842451438022124 4.018973836958878 0.0
6.112723137676118 3.704473949316424 0.0
7.574641969193845 3.765362276156904 0.0
7.826594968121701 6.200366572362263 0.0
7.762805366733504 9.34009502796868 0.0
9.56854033867856 1.012566255816665 0.0
7.71256563655353 5.219373702836014 0.0
9.68039392238282 8.786964504862018 0.0
5.910362452777086 9.277662068919813 0.0
7.418090653922814 3.326443419100716 0.0
9.857704179097952 4.697553149694669 0.0
8.452469674653342 8.996585816905599 0.0
9.522351366699843 2.057525484575908 0.0
7.802315574700843 9.548878971475935 0.0
9.938875656926385 3.449999999992592 0.0
8.425189037911712 6.608575180629274 0.0
5.925965231566842 2.523669697740033 0.0
6.654918072256329 5.95749128982984 0.0
9.826748589235729 9.631118448471485 0.0
8.6684585637523 7.39633999085442 0.0
9.844673843931567 3.090088625379724 0.0
9.93613850661301 2.250382721159617 0.0
9.218291993658738 2.892108990205171 0.0
9.83502846611296 8.212781989607324 0.0
7.754136409732265 7.104288507262783 0.0
8.510570542791681 2.036933285735889 0.0
7.757745059307245 4.315798612475442 0.0
7.989231770559189 6.201656630465583 0.0
8.068934521422738 4.198631572122605 0.0
4.957478134450373 9.038766150325067 0.0
7.208661142641733 6.501402463831379 0.0
7.299506095906239 4.363561999234681 0.0
8.250303873550486 2.105322217421675 0.0
8.678637541413377 7.053471135702286 0.0
9.761528395137384 6.163503990672834 0.0
9.84494857233395 8.59999999999775 0.0
9.83825138794677 3.672838954969637 0.0
5.121008544047756 5.808127183024784 0.0
8.343911550360986 4.043535893276861 0.0
9.85324441775315 5.899999999993774 0.0
9.51114465213134 8.41035540646284 0.0
6.505812179224195 6.93390566262983 0.0
6.15572847138365 9.023097246950844 0.0
3.352081892333425 3.024853379890529 0.0
6.433163283162099 8.675072413910678 0.0
8.825744236698243 3.624446391299867 0.0
4.883007294861279 7.819620905924936 0.0
5.876659170760434 5.638247433601083 0.0
6.859400040348503 6.510797998354633 0.0
7.946400945409184 3.500317276373196 0.0
7.496830255505493 6.653194511698024 0.0
9.852183479755313 4.891525833556942 0.0
9.77998778436291 2.922486526124376 0.0
6.774672660492365 5.324728659740495 0.0
5.717254072187427 6.824125962512845 0.0
9.713440940838062 4.63793103997539 0.0
8.859858662536796 0.2721395536350836 0.0
8.37556017530946 9.436653414116012 0.0
7.395237381047616 7.885576562773319 0.0
5.4709157802033 4.511152089197594 0.0
9.489749416979361 9.691840729914848 0.0
4.599216022837964 3.46438688931078 0.0
5.572287492757569 4.807021644849729 0.0
9.926499336309957 9.92730688390086 0.0
9.926499336310107 0.07269311609890093 0.0
9.338127766332573 0.3585313952168247 0.0
6.810761948165162 3.414693294319008 0.0
8.166274345037138 5.943611545564389 0.0
5.2892644736731 6.301081312912763 0.0
9.731911074791544 7.649313380659622 0.0
8.90251102352767 9.50983415326544 0.0
8.997881406541017 1.033666784655452 0.0
5.835124768755703 2.738139962594905 0.0
9.665357480775825 6.185331297099201 0.0
7.656532192558493 8.217157287499347 0.0
9.170463887605525 2.975444721032631 0.0
4.208158615905443 0.8648302238584886 0.0
6.97015686031129 5.933674629077266 0.0
6.181941366523793 3.565885175921835 0.0
3.30313590337911 6.393402837735046 0.0
6.447482061767014 4.816169316820496 0.0
8.185341428749446 4.169172087371246 0.0
4.552595724340015 8.298301336212145 0.0
9.84850676569699 8.999999999998423 0.0
9.846941514449377 7.393642828194986 0.0
7.924592433490734 2.788309934035703 0.0
8.154308714226714 8.853640122009672 0.0
8.876629743004642 1.96110242719995 0.0
7.228849192966834 8.90811350348676 0.0
9.852301635085423 8.296637825215246 0.0
5.219795195341889 5.547413133147649 0.0
9.861497117995457 6.901363010201344 0.0
2.953911258021604 6.136007283255669 0.0
6.93158841067062 4.77708273647784 0.0
9.67540418457871 2.912802891506324 0.0
4.194055958522277 4.437353127730132 0.0
6.133959559341536 0.406856611599261 0.0
8.29952795189331 9.309744645643846 0.0
9.843692337952948 1.209647690818311 0.0
5.164986286280336 6.671544079402435 0.0
9.838533350075606 2.081705440779448 0.0
8.301244777513975 6.604088853319459 0.0
5.471494771710784 2.714598185146428 0.0
8.86534684892311 1.208599471795828 0.0
9.940610684232212 1.451558535868664 0.0
9.40896208432968 1.428353940655538 0.0
2.329177605337097 4.238803555614174 0.0
5.980761651517799 7.182207186682233 0.0
9.66541573964336 0.1719254072074424 0.0
7.220979380229172 7.806128737674462 0.0
1.251721227904697 6.151932667911503 0.0
8.104967286191181 6.057912607875576 0.0
6.650768762224724 4.817922869198292 0.0
6.634976350437587 3.213339182992986 0.0
7.034320437500567 4.898219100342838 0.0
9.502772020064167 6.283064492634301 0.0
8.13187938667684 3.518506862055515 0.0
9.855471943454193 2.599999999994991 0.0
9.056747742708522 8.263936599935574 0.0
4.352645795441222 5.724453640019 0.0
3.744263984699181 1.488951698361357 0.0
5.175860134287045 3.6375726667098 0.0
7.736434712114619 6.400417475661193 0.0
9.857658576695343 6.316607183405179 0.0
7.876525261950537 4.304285002335559 0.0
9.856114384785611 7.914602773442983 0.0
9.848334119947063 0.7059644476295188 0.0
9.59694321995579 6.895814046141667 0.0
5.906465212962551 3.869023950643881 0.0
9.840676994268005 9.364956386459765 0.0
5.355015287544095 3.83518170601625 0.0
6.374090407153147 5.855743754257685 0.0
8.227401290513832 5.297819733684674 0.0
5.451235131977493 4.825706629991923 0.0
6.022070213762754 5.355923882747634 0.0
9.845674433677614 6.108401449483281 0.0
9.835067400944396 7.739582406783081 0.0
8.602026805792988 2.941372356914139 0.0
5.059869081004962 5.269480960018243 0.0
5.284714507903736 5.26496663762182 0.0
9.627110479149561 7.660076105040499 0.0
6.820001127809743 4.792514421153957 0.0
5.120512795059439 4.806607659110254 0.0
9.56933817216883 2.911464407429096 0.0
9.74091654291531 9.267545397628387 0.0
9.93006767325302 6.576784040838644 0.0
9.642486276936268 4.650227701598451 0.0
5.185183328569137 9.410919109238325 0.0
9.37052946854105 4.605636695802024 0.0
1.677077220416309 5.871167715901136 0.0
7.345783833404538 3.184020711886284 0.0
5.419239942654976 5.982692039856376 0.0
6.133318300188262 2.551919945731369 0.0
6.187291396343277 4.499077117404439 0.0
1.231465237822878 3.921479198315213 0.0
8.969849937139944 9.699215363213542 0.0
9.218303154263054 6.037447959776716 0.0
CELLS 4886 19544
3 1113 1356 1450
3 1402 231 1659
3 272 269 1414
3 396 394 1777
3 1451 945 1452
3 194 81 1801
3 1847 1501 2104
3 2024 2121 2479
3 1115 1113 1450
3 1124 1413 1844
3 1061 1955 2409
3 307 305 1645
3 1592 1369 1593
3 238 1501 1847
3 1955 1883 2409
3 1808 243 1910
3 1885 978 2362
3 1440 793 2092
3 189 1488 1608
3 353 350 1864
3 2007 2231 2232
3 307 1645 2493
3 1096 1760 2496
3 2178 874 2179
3 621 625 1595
3 1493 1480 1938
3 1655 1268 2137
3 1341 1410 2212
3 243 1808 2360
3 1902 1446 2516
3 1760 1096 1763
3 856 790 2180
3 2008 2046 2105
3 789 1809 2067
3 694 1543 1575
3 1127 1762 1953
3 1748 807 2228
3 1543 1308 1575
3 820 1872 2170
3 1417 954 1998
3 1369 1592 2386
3 272 1414 1787
3 329 333 1998
3 1544 1095 1545
3 2231 1490 2232
3 1342 1683 1790
3 374 377 1797
3 807 1678 2228
3 1665 198 2128
3 141 142 1620
3 325 322 1952
3 231 1402 1654
3 198 1665 2010
3 1890 1307 2387
3 208 1438 1619
3 2016 1970 2156
3 1436 212 2020
3 954 1417 2333
3 1736 1894 2244
3 1491 1750 2143
3 1677 1064 2146
3 1474 1258 1475
3 1500 233 1930
3 1446 2415 2516
3 1700 973 1800
3 2128 2270 2316
3 1316 1315 1593
3 1307 2341 2387
3 2258 1324 2328
3 1083 1507 1508
3 693 1095 1544
3 621 1595 1596
3 667 1571 1872
3 1932 1766 2061
3 393 391 2240
3 1342 1790 2400
3 252 1707 2234
3 931 978 1885
3 1430 1116 1704
3 1411 1109 1714
3 1478 1227 2440
3 1990 195 2297
3 1792 1167 1985
3 1682 444 1975
3 394 397 1777
3 1711 2028 2162
3 1574 856 2180
3 2008 1851 2046
3 736 1493 1938
3 1069 1060 1662
3 1458 455 1754
3 862 691 1705
3 1161 1642 2286
3 1699 1700 1800
3 447 516 1637
3 955 1482 1483
3 2024 206 2121
3 391 1773 2240
3 1072 1412 1893
3 212 1436 2350
3 1566 1365 1568
3 259 1441 1672
3 872 870 1764
3 330 328 1889
3 1539 1161 2286
3 1897 1898 2275
3 1434 1990 2297
3 1109 1411 1730
3 319 307 2493
3 1762 1761 1953
3 1369 1316 1593
3 1540 834 1832
3 1505 652 2442
3 1732 1655 2137
3 921 1712 2295
3 1872 1388 2170
3 1712 921 2125
3 2028 244 2162
3 1506 1570 1680
3 1569 368 1964
3 1571 667 2375
3 1587 2178 2179
3 196 1723 1737
3 524 2016 2156
3 1528 1250 1733
3 1115 1450 1973
3 1938 1480 1971
3 1809 1396 2067
3 1641 249 2299
3 1223 1258 1474
3 1365 1566 2120
3 1981 962 2316
3 1538 353 1864
3 455 1458 1756
3 152 233 1500
3 1116 1430 1703
3 817 652 1505
3 1347 2003 2004
3 1607 1958 2085
3 194 1801 2195
3 1410 1341 2351
3 223 1415 1710
3 197 1511 2346
3 2198 787 2225
3 81 82 1801
3 1438 208 1620
3 1444 522 1823
3 1511 197 1950
3 726 718 1567
3 1637 516 1739
3 1708 2337 2341
3 1280 1649 2124
3 2337 1395 2341
3 1327 1709 2315
3 1225 1227 1478
3 691 624 1705
3 476 2224 2305
3 830 832 2204
3 1750 1491 2403
3 1366 1897 2275
3 2345 1583 2352
3 2054 405 2110
3 1984 2172 2230
3 1846 2198 2225
3 1177 2042 2418
3 2121 1367 2479
3 1527 1531 1541
3 916 1039 1834
3 1413 1124 2467
3 1622 1503 1868
3 249 1641 2019
3 1805 405 2054
3 1761 1007 1953
3 1415 223 2395
3 960 1756 2203
3 368 1569 2135
3 1402 1659 2473
3 941 1433 2471
3 1267 1477 1501
3 260 2002 2265
3 1704 558 2077
3 2224 1886 2305
3 2053 1386 2199
3 1452 945 1952
3 1717 1611 1718
3 1682 1975 2230
3 1760 1762 2496
3 1481 203 2104
3 1264 1266 1670
3 142 236 1620
3 2133 1182 2179
3 1791 1602 2183
3 350 346 1864
3 1412 1072 2393
3 1281 1575 2255
3 1565 1948 2155
3 849 1449 1513
3 1958 396 2085
3 1339 1069 1662
3 834 1540 1917
3 269 267 1414
3 1268 1267 1501
3 1440 2092 2468
3 1399 1981 2316
3 1635 1636 2041
3 1454 252 2234
3 1451 1305 1890
3 1375 1883 1955
3 362 366 1786
3 1484 2410 2528
3 1449 849 1640
3 1267 1474 1477
3 200 1611 1717
3 1054 1581 1582
3 1350 1977 2253
3 190 1390 2118
3 788 1956 2193
3 1709 1327 1888
3 2233 2298 2413
3 1488 189 2355
3 478 1685 1714
3 230 1525 1690
3 1687 478 1688
3 427 429 1756
3 1570 1065 2476
3 1880 1133 1988
3 1649 656 2124
3 1537 209 1614
3 1134 1769 1986
3 1220 1268 1655
3 396 1777 2085
3 1167 1755 1985
3 2229 1744 2296
3 1575 1281 2287
3 127 240 1882
3 377 647 1797
3 954 329 1998
3 220 1697 1698
3 1342 1341 2212
3 1441 264 1672
3 1512 188 2433
3 763 2345 2352
3 1685 1411 1714
3 1805 1188 1951
3 1347 2004 2157
3 1054 1582 1667
3 1333 1617 1674
3 2217 73 2361
3 1539 1036 1917
3 1039 1292 1834
3 208 141 1620
3 1965 1964 2038
3 693 1544 1969
3 1453 239 2279
3 203 1481 2049
3 945 1451 1889
3 680 1459 2134
3 354 2147 2196
3 1405 1932 2061
3 1723 1722 1737
3 1748 1175 1927
3 1532 1528 1733
3 2057 1824 2154
3 1406 1659 1702
3 1948 1186 2155
3 210 1598 2114
3 1685 478 1687
3 1324 1325 2328
3 1526 1250 1527
3 165 166 1509
3 1493 736 2523
3 1526 1527 1541
3 1390 190 2417
3 522 1444 1998
3 1680 1570 1732
3 1017 1442 2525
3 374 1797 2430
3 1507 1083 2197
3 1756 960 2221
3 2270 1400 2316
3 2205 1452 2282
3 1074 1187 1888
3 2158 1245 2200
3 1442 1017 1684
3 864 1116 1703
3 1750 1751 2143
3 1456 516 1492
3 1677 2146 2149
3 2022 1339 2388
3 1602 258 2183
3 678 1594 1595
3 1245 1670 2200
3 972 830 2204
3 2143 983 2342
3 1268 1501 2226
3 1266 1461 1670
3 1487 222 2465
3 1382 2022 2388
3 58 59 1661
3 2147 1543 2196
3 1484 1485 2410
3 628 2053 2199
3 1906 1549 2259
3 364 362 1786
3 1339 2022 2247
3 1636 525 2041
3 625 678 1595
3 678 1593 1594
3 2212 1410 2222
3 1837 1865 2215
3 1699 1800 1801
3 866 864 1703
3 893 1472 1982
3 1735 1736 2244
3 1633 1255 1922
3 126 127 1882
3 681 867 1656
3 1351 1401 2363
3 11 228 1588
3 1127 1953 2454
3 265 266 267
3 1722 1122 1737
3 1389 1691 2069
3 1613 1610 1616
3 1227 1256 2440
3 429 455 1756
3 1535 1177 2418
3 322 324 1952
3 973 1700 1802
3 1964 368 2038
3 1176 1865 1866
3 1096 872 1764
3 1176 1866 1875
3 193 1839 1892
3 156 157 1441
3 615 617 1596
3 686 1520 2480
3 1409 2097 2305
3 2410 1151 2528
3 1427 2217 2361
3 440 1911 2314
3 1744 1743 2296
3 516 1456 1739
3 1939 589 2164
3 690 931 2150
3 1062 1579 1580
3 1054 1580 1581
3 955 1483 1716
3 1064 1677 2248
3 1956 1616 2193
3 1776 1893 2026
3 1398 1115 1973
3 2002 1453 2265
3 1541 1531 1542
3 216 2191 2536
3 1736 1326 1894
3 1065 994 1066
3 1598 2115 2175
3 2314 1911 2358
3 1433 941 2042
3 2115 1209 2175
3 717 1550 1551
3 188 1941 2433
3 267 1132 1414
3 771 1569 2064
3 1157 1545 1546
3 1231 1250 1526
3 1933 240 2181
3 222 1487 2025
3 1525 230 1765
3 1430 1704 2077
3 757 1744 2495
3 264 263 265
3 883 773 1917
3 739 2205 2282
3 1667 1582 2434
3 1744 757 2474
3 239 1453 2002
3 1441 259 2356
3 2005 1443 2012
3 254 1766 1932
3 1509 166 1679
3 1477 1475 1481
3 793 1440 2165
3 1385 1523 2377
3 1481 1475 2523
3 156 1441 2356
3 1066 1220 1655
3 945 325 1952
3 2094 2087 2134
3 1747 1175 1748
3 253 262 263
3 1327 1074 1888
3 718 715 1567
3 2046 1043 2105
3 240 1933 2399
3 1305 1307 1890
3 224 58 1661
3 1195 1566 2285
3 1590 1393 1749
3 1255 1230 1922
3 353 1538 2073
3 358 1999 2325
3 882 1802 2036
3 1024 1020 1604
3 333 522 1998
3 1401 1351 2414
3 1475 1258 1476
3 2310 786 2364
3 328 945 1889
3 807 1748 1927
3 825 724 1912
3 1742 263 2491
3 267 266 1132
3 2077 2102 2203
3 1431 1432 1860
3 1212 1957 2312
3 2097 476 2305
3 1132 1402 2473
3 717 713 1550
3 1746 693 1969
3 1372 1124 1844
3 1256 1541 2269
3 1977 1350 2274
3 2332 1978 2443
3 874 2133 2179
3 1983 1534 2171
3 1157 1544 1545
3 1230 1228 1922
3 1580 1579 1581
3 1565 806 1948
3 1416 1363 2413
3 1287 1995 2398
3 265 263 266
3 1534 1529 2171
3 1604 1834 2428
3 1255 1633 2509
3 1344 1643 1644
3 1332 1388 1571
3 1423 217 2217
3 2191 1057 2451
3 458 447 1637
3 1250 1233 1733
3 472 2212 2222
3 1175 1747 1840
3 1652 256 1653
3 1073 1347 1572
3 200 145 1609
3 683 640 1585
3 1116 862 1705
3 1221 1223 1474
3 1778 801 1803
3 1503 1622 2471
3 1475 1493 2523
3 464 680 2134
3 14 210 2114
3 579 1880 1988
3 1434 1435 1990
3 1447 2310 2364
3 275 274 276
3 2294 1871 2419
3 814 1068 1684
3 1172 1439 2273
3 273 272 274
3 1363 1416 2406
3 1220 1219 1221
3 1060 1656 1662
3 1099 1792 1985
3 2048 1198 2168
3 1241 1245 2323
3 699 723 1753
3 1640 1862 2070
3 910 1018 1584
3 1586 1067 1587
3 1656 867 1662
3 1067 686 2480
3 654 2242 2294
3 1593 1315 1594
3 1880 553 1974
3 236 1717 1718
3 617 621 1596
3 1723 196 2313
3 402 1877 2116
3 273 274 275
3 2202 1869 2252
3 1510 1358 1767
3 193 1892 2373
3 1188 1805 2054
3 1220 1221 1267
3 1066 1218 1219
3 1517 1097 1518
3 1677 1676 1858
3 686 277 1520
3 268 267 269
3 697 857 1592
3 220 1698 1699
3 1802 1700 2036
3 1612 1537 1614
3 929 817 994
3 228 12 2136
3 2110 2116 2482
3 1659 1658 1702
3 1611 1613 2280
3 1344 991 1643
3 683 1585 1604
3 1638 1358 2404
3 1485 1034 2410
3 2214 833 2424
3 271 272 273
3 1482 955 1962
3 1066 1219 1220
3 931 1885 2150
3 1613 1891 2280
3 1189 1589 2204
3 1566 1195 2120
3 726 1567 2490
3 1122 1722 1874
3 1494 319 2493
3 1671 259 1672
3 1267 1221 1474
3 603 528 1591
3 1664 2128 2316
3 1817 1924 2174
3 1626 1660 2111
3 1474 1475 1477
3 1023 1062 1580
3 1957 1599 2312
3 1764 1939 2164
3 1358 1950 2404
3 200 1609 1610
3 1431 1082 1432
3 1778 1803 2521
3 1830 1832 2075
3 1930 233 2369
3 1329 1482 1650
3 757 1959 2522
3 1239 1247 1597
3 758 1978 2332
3 1569 1290 2064
3 216 1694 2191
3 1453 1420 2265
3 1549 1906 2129
3 24 215 1674
3 19 235 1676
3 1621 1057 2191
3 1691 1389 2262
3 1617 1333 2192
3 929 994 1065
3 1769 1672 1986
3 1893 1412 2026
3 1609 1537 1612
3 271 269 272
3 1373 1438 1620
3 217 1423 2381
3 517 330 1889
3 1322 1055 1667
3 1974 553 2499
3 228 2136 2187
3 1589 1189 1788
3 1999 1577 2325
3 2110 405 2116
3 189 1608 1842
3 1055 1050 1667
3 739 1455 2205
3 1865 1176 2215
3 319 1494 2522
3 2474 757 2522
3 1484 227 1485
3 10 11 1588
3 723 809 1753
3 27 230 1689
3 1550 806 1565
3 1179 1180 1217
3 207 1617 2192
3 1433 1217 1502
3 1562 1556 1606
3 1379 2017 2018
3 1245 2158 2323
3 675 1097 1517
3 884 501 1599
3 1020 683 1604
3 1603 1095 1848
3 1001 2057 2154
3 1604 1585 1834
3 1610 1612 1616
3 1764 870 1939
3 2242 1871 2294
3 1669 1264 1670
3 1658 213 1702
3 1995 1646 2398
3 631 539 1600
3 1491 2143 2342
3 1801 1800 2195
3 1200 1199 1693
3 1535 940 1861
3 1534 758 2332
3 914 2258 2328
3 1588 228 2457
3 216 138 1694
3 151 152 1500
3 1133 1880 1974
3 1677 1858 2248
3 1294 1622 1868
3 875 1010 1767
3 1379 2018 2416
3 1279 2202 2252
3 182 256 1652
3 1592 857 2386
3 672 681 1656
3 615 1596 1824
3 1093 1487 1623
3 1823 522 2100
3 1245 1242 1669
3 1582 1581 1583
3 758 1534 2306
3 1975 1984 2230
3 1358 1510 1950
3 1663 1336 1665
3 2102 960 2203
3 366 1087 1786
3 1740 1490 2231
3 21 207 1709
3 145 146 1609
3 2339 765 2384
3 603 1591 1668
3 2081 199 2149
3 1540 1832 1879
3 1721 1723 1947
3 1754 455 1793
3 1751 1753 2119
3 882 1701 1807
3 1540 1539 1917
3 242 1695 1697
3 1521 354 2091
3 1363 2233 2413
3 1584 1018 1925
3 703 1067 1586
3 1177 1178 1179
3 795 916 1834
3 277 276 607
3 1571 1388 1872
3 22 23 1617
3 1097 823 1177
3 25 26 1624
3 419 418 1790
3 1728 1906 2259
3 440 1455 2261
3 1877 1318 2116
3 1488 1156 1608
3 1439 2130 2273
3 1889 1451 1890
3 1614 209 2389
3 1472 893 2094
3 675 821 823
3 23 24 1674
3 1788 1190 2183
3 917 941 1622
3 1763 1096 1764
3 1068 1442 1684
3 1034 1485 2173
3 2172 1533 2230
3 138 139 1694
3 1065 1570 2197
3 607 674 675
3 1536 1248 2268
3 229 135 1734
3 1437 1925 1926
3 680 510 1646
3 147 209 1537
3 26 27 1689
3 1627 705 2163
3 206 1651 2121
3 2409 1785 2462
3 1492 682 2447
3 1223 1225 1258
3 889 1772 2374
3 253 263 264
3 275 276 277
3 1455 739 2261
3 2022 1382 2176
3 150 227 1484
3 639 1019 1591
3 1449 1640 2070
3 1082 833 2214
3 1503 1502 1504
3 144 200 1717
3 1643 991 1713
3 1190 1791 2183
3 1538 1804 2073
3 1256 2269 2440
3 18 19 1676
3 521 531 2000
3 790 849 2180
3 1075 1329 1650
3 1087 1782 1785
3 1066 994 1218
3 270 269 271
3 682 1492 2494
3 185 252 1454
3 253 158 262
3 1629 1632 1633
3 200 1610 1611
3 1477 1481 2104
3 1623 1487 2465
3 1518 1097 1535
3 1414 1132 2460
3 1179 1217 1433
3 177 1506 1680
3 1392 1017 2525
3 1832 834 2075
3 675 823 1097
3 1459 2094 2134
3 1782 1087 1795
3 1838 1730 2372
3 1639 149 2528
3 1617 23 1674
3 2265 1420 2489
3 180 232 1859
3 1527 1250 1528
3 20 21 1709
3 1083 1508 2311
3 903 866 1703
3 1455 440 2314
3 1187 1858 1888
3 1659 1406 2473
3 1446 1902 2166
3 421 1951 2106
3 1598 210 2115
3 154 259 1671
3 1288 1835 2080
3 1832 1831 1879
3 1258 1225 1478
3 1024 1604 2117
3 1263 1429 1739
3 706 705 1627
3 1583 1581 2352
3 407 1805 1951
3 856 1574 2527
3 1701 882 2036
3 1624 26 1689
3 717 1551 1552
3 1385 2377 2391
3 2302 1745 2354
3 1572 1347 2157
3 1036 883 1917
3 1689 1690 1691
3 1664 1665 2128
3 1476 1479 1480
3 1751 2119 2143
3 815 814 1684
3 1790 889 2400
3 1606 1607 2085
3 265 267 268
3 418 889 1790
3 1522 1521 2091
3 135 136 1734
3 1726 1445 1729
3 647 1796 1797
3 1346 1453 2279
3 1293 1827 2117
3 1242 1244 1669
3 1853 1852 1854
3 889 2374 2400
3 1039 1038 1290
3 1524 628 2199
3 1331 1332 1571
3 1291 1290 1569
3 1475 1476 1493
3 1850 1852 1853
3 1490 1740 2456
3 1689 230 1690
3 1256 1526 1541
3 1704 1705 2167
3 1465 1470 1675
3 956 1073 1572
3 1613 1616 1956
3 916 917 1038
3 2014 1522 2091
3 1221 1222 1223
3 1999 763 2352
3 234 10 1588
3 1697 220 2335
3 1527 1528 1529
3 2298 1600 2413
3 1436 2020 2254
3 1642 1161 1678
3 1523 1385 2436
3 1730 1838 2426
3 795 796 916
3 713 711 1550
3 1456 1263 1739
3 999 1336 1663
3 1785 1784 2462
3 409 415 1783
3 607 675 1517
3 1229 1231 1526
3 1958 1855 2078
3 1589 1588 1590
3 1933 261 2380
3 762 1965 2038
3 1756 1458 2203
3 1776 597 1893
3 1794 1072 1893
3 188 1512 2266
3 1774 2339 2384
3 188 1908 1941
3 1010 1510 1767
3 2189 2285 2307
3 773 834 1917
3 1245 1669 1670
3 1248 1597 2268
3 146 1537 1609
3 818 910 1584
3 1641 1313 1651
3 1217 1745 2302
3 1065 1066 1655
3 1597 1247 2047
3 1360 2177 2376
3 1612 1615 1616
3 2126 867 2186
3 1019 683 1020
3 1747 892 1840
3 1092 1093 1623
3 261 1933 2181
3 400 424 1666
3 1516 1903 2377
3 1100 1392 1605
3 247 1738 1881
3 268 1134 1986
3 1177 823 1178
3 884 1599 1957
3 263 262 2491
3 806 1627 1948
3 1227 1229 1256
3 191 1729 2504
3 1636 1635 2502
3 1480 1479 1601
3 1721 1947 2498
3 1924 1146 2174
3 229 1734 1735
3 175 204 1725
3 1179 1178 1180
3 354 1521 2147
3 665 697 1592
3 640 646 1585
3 627 545 1636
3 1882 240 2399
3 1556 1555 1606
3 1373 1620 2394
3 1871 1071 2419
3 548 1628 1629
3 455 436 1793
3 974 1831 1841
3 1844 1413 2392
3 1612 1614 1615
3 209 1639 1937
3 1329 1330 1331
3 1823 2100 2142
3 1097 1177 1535
3 1021 1020 1022
3 825 1912 2455
3 913 1122 1874
3 400 1666 2113
3 1256 1229 1526
3 1419 1418 2450
3 1552 1551 1553
3 1850 1099 1852
3 1629 1631 1632
3 801 685 2029
3 1618 1619 1621
3 265 268 1986
3 1715 2165 2330
3 1531 1529 1534
3 1022 1024 1576
3 658 693 1746
3 703 686 1067
3 1062 1576 1577
3 1023 1022 1062
3 236 1718 2394
3 1688 502 1740
3 1501 1477 2104
3 213 165 1509
3 646 795 1585
3 196 1737 1738
3 379 679 1795
3 639 640 683
3 924 875 1767
3 1752 699 1753
3 207 2192 2315
3 627 1636 1660
3 1217 1180 1745
3 730 728 1833
3 528 561 1591
3 1444 1417 1998
3 252 186 1602
3 1729 1445 2504
3 460 502 1688
3 1418 946 1778
3 1203 1200 1693
3 548 470 1628
3 849 668 1640
3 646 785 795
3 607 276 674
3 14 15 210
3 147 148 209
3 478 460 1688
3 1709 207 2315
3 1157 1546 1608
3 1155 1731 1899
3 1524 1934 2390
3 1775 921 1876
3 1433 1502 1503
3 470 458 1628
3 1223 1224 1225
3 1291 1569 1964
3 871 1056 1826
3 1781 1783 1915
3 1587 1067 2300
3 916 1038 1039
3 1388 1387 1389
3 1611 1610 1613
3 1075 1328 1329
3 1039 1290 1291
3 1538 1265 1804
3 1184 1185 2163
3 597 598 1794
3 1450 1356 2421
3 1835 576 2080
3 1629 1628 1631
3 1331 1330 1332
3 561 639 1591
3 1476 1480 1493
3 705 703 1586
3 639 683 1019
3 1951 1188 2106
3 436 446 1793
3 1472 1297 2142
3 1332 1387 1388
3 1345 984 1720
3 1329 1328 1330
3 1050 1048 1667
3 150 151 227
3 11 12 228
3 557 541 2256
3 1831 974 1879
3 134 229 1766
3 1357 1358 1638
3 1336 1641 2299
3 1650 1482 1962
3 1591 1019 2512
3 1506 1507 1570
3 1803 801 2029
3 1178 823 1972
3 1552 1553 1554
3 1290 1038 1294
3 1028 1313 1641
3 1237 1239 1597
3 993 1017 1100
3 893 2087 2094
3 149 1484 2528
3 1768 1142 1949
3 9 234 1673
3 1554 1553 1555
3 668 632 1640
3 711 806 1550
3 1628 458 1637
3 1098 1829 1830
3 1482 1331 1483
3 531 1818 2000
3 435 419 1790
3 1156 1157 1608
3 1182 1184 2179
3 510 512 1646
3 1231 1233 1250
3 946 841 1778
3 1483 1331 1571
3 1459 680 2458
3 1166 1040 1210
3 892 1657 1820
3 1042 1445 1726
3 1019 1020 1021
3 749 805 1810
3 234 1588 1589
3 1695 242 1892
3 556 1853 2483
3 1018 1572 1573
3 1529 1528 1530
3 1606 1558 1607
3 1761 1759 2308
3 1396 1032 1921
3 1018 956 1572
3 689 1150 1416
3 1827 1293 2515
3 149 150 1484
3 1647 656 1648
3 1543 694 2196
3 399 409 1783
3 545 525 1636
3 268 269 270
3 715 713 717
3 1100 1017 1392
3 1657 892 1747
3 207 22 1617
3 1666 884 2249
3 1671 1672 1769
3 1554 1555 1556
3 146 147 1537
3 1081 1444 1822
3 711 709 806
3 1443 2005 2322
3 660 658 1746
3 1166 1458 1754
3 916 796 917
3 1056 1728 1826
3 1068 1069 1275
3 184 185 1454
3 158 159 262
3 2007 1687 2231
3 805 1708 1810
3 1672 264 1986
3 1561 1562 1563
3 978 1075 1650
3 1590 1588 2457
3 215 25 1624
3 1551 1550 1565
3 1073 1346 1347
3 857 818 1584
3 1648 656 1649
3 675 674 821
3 561 594 639
3 1731 529 1899
3 2303 1454 2535
3 981 903 1040
3 1630 1629 1633
3 993 877 1017
3 724 718 726
3 512 603 1646
3 1676 235 1858
3 814 1060 1068
3 715 717 1567
3 1796 647 1870
3 1715 1171 2165
3 678 1592 1593
3 644 613 1824
3 1690 1525 2145
3 1297 1822 1823
3 271 656 1647
3 1704 1116 1705
3 1225 1226 1227
3 1275 1069 1338
3 910 956 1018
3 1824 1596 2154
3 1403 1100 1605
3 1221 1219 1222
3 1068 1060 1069
3 1901 245 1949
3 1081 1055 1321
3 1751 563 1752
3 1021 1022 1023
3 672 638 681
3 1095 657 1848
3 1235 1237 1248
3 1561 1556 1562
3 1265 1259 1804
3 524 1819 2016
3 978 1650 2362
3 1492 516 2494
3 229 1735 2061
3 185 186 252
3 157 158 253
3 152 153 233
3 9 10 234
3 1527 1529 1531
3 1808 1344 2360
3 1062 1577 1579
3 1509 1679 1977
3 424 454 1666
3 637 638 672
3 981 1040 1166
3 1555 1558 1606
3 751 749 1810
3 1166 1210 1458
3 1651 1313 2121
3 15 16 2260
3 1633 1632 2509
3 2167 1705 2276
3 551 602 2045
3 697 818 857
3 364 1786 1883
3 832 1189 2204
3 1476 1478 1479
3 678 665 1592
3 213 1509 2096
3 1015 888 1124
3 1062 1022 1576
3 679 1782 1795
3 680 1646 1995
3 1101 1100 1403
3 1109 433 1714
3 1248 1237 1597
3 733 730 1833
3 1702 213 2096
3 499 498 1828
3 1418 1778 2521
3 637 600 638
3 1048 1046 1054
3 1577 1576 1578
3 814 766 1060
3 1279 2252 2292
3 474 470 548
3 199 18 1676
3 157 253 1441
3 1048 1054 1667
3 471 472 2290
3 625 665 678
3 795 785 796
3 1264 1265 1266
3 1437 1926 2350
3 1362 2048 2168
3 1394 2337 2371
3 454 884 1666
3 1022 1020 1024
3 751 1810 1923
3 1046 1023 1580
3 1807 1701 1931
3 1618 208 1619
3 566 588 689
3 1828 498 1829
3 501 509 1599
3 1118 780 1775
3 878 817 929
3 1510 1511 1950
3 1618 1621 1694
3 1052 1081 1822
3 1416 1150 1715
3 1239 1241 1247
3 1396 1921 2067
3 1751 1752 1753
3 1264 1259 1265
3 539 566 1600
3 1762 1127 2496
3 1673 1788 2183
3 1555 1557 1558
3 1052 1050 1055
3 725 724 825
3 1142 1770 1771
3 681 853 867
3 454 501 884
3 1346 1420 1453
3 932 1147 1770
3 1546 1545 1547
3 533 582 1818
3 1266 1337 1460
3 1872 820 2318
3 1117 1119 1713
3 1081 1321 1417
3 1253 1259 1264
3 1569 771 2135
3 1052 1055 1081
3 1181 1178 1972
3 709 706 1627
3 1073 1076 1346
3 1098 1828 1829
3 1382 1380 2176
3 1442 1275 1443
3 919 999 1663
3 1789 828 1855
3 877 815 1684
3 509 539 631
3 992 877 993
3 1266 1265 1337
3 2268 1498 2340
3 1130 1032 1396
3 1095 1603 2508
3 886 826 887
3 531 533 1818
3 1131 1400 1881
3 447 437 516
3 2460 1132 2473
3 940 1535 2418
3 768 1873 2037
3 1813 1869 1954
3 1627 2163 2488
3 1497 1495 1645
3 1198 1409 2168
3 724 726 1912
3 1869 987 1954
3 763 1999 2338
3 1010 1170 1374
3 984 976 1720
3 1470 1743 1744
3 689 588 1150
3 1901 1949 2359
3 1640 632 1862
3 274 272 1787
3 563 564 1752
3 994 817 1505
3 737 1807 1931
3 1770 1147 1771
3 1233 1235 1733
3 2450 1418 2521
3 414 410 1821
3 908 1099 1850
3 1227 1228 1229
3 1692 1203 1693
3 1625 216 2194
3 512 528 603
3 1377 1357 1638
3 1465 1464 1470
3 1360 1359 2177
3 1686 2007 2095
3 1336 1028 1641
3 1857 751 1923
3 1758 572 1759
3 553 541 557
3 1171 1715 1811
3 956 1003 1073
3 1467 1465 1675
3 719 718 724
3 1509 1977 2096
3 1734 1625 1736
3 1503 1504 1868
3 592 597 1776
3 180 181 232
3 162 163 231
3 2308 1759 2370
3 1357 1114 1358
3 875 946 1010
3 509 631 1599
3 17 18 199
3 144 145 200
3 1099 906 1792
3 1469 1467 1494
3 605 589 1939
3 1208 1205 1211
3 354 344 2091
3 692 782 804
3 1010 946 1170
3 1463 1462 1464
3 716 715 718
3 714 713 715
3 271 273 656
3 139 1618 1694
3 549 277 686
3 673 672 766
3 1378 1377 1379
3 2007 868 2095
3 999 1028 1336
3 1208 1211 1447
3 601 545 627
3 1119 1643 1713
3 1332 1333 1387
3 910 912 956
3 520 521 2000
3 828 1789 1819
3 277 607 1520
3 1338 1339 2247
3 818 819 910
3 767 766 814
3 712 711 713
3 1494 1467 1675
3 639 594 640
3 2044 557 2256
3 235 20 1709
3 1620 236 2394
3 804 919 962
3 1862 702 2070
3 681 852 853
3 1559 1556 1561
3 1622 941 2471
3 2165 1440 2330
3 612 644 692
3 697 698 818
3 1903 1516 1994
3 371 379 1795
3 428 426 2138
3 1290 1294 2064
3 1384 1904 2432
3 566 689 1600
3 471 452 472
3 1092 1091 1093
3 1002 1131 1719
3 1090 1089 1091
3 875 841 946
3 1758 1760 1763
3 1562 1606 2085
3 1833 1830 2075
3 178 179 214
3 164 165 213
3 769 923 1815
3 692 644 782
3 804 782 919
3 182 183 256
3 160 161 257
3 1329 1331 1482
3 962 1663 1664
3 1177 1179 2042
3 403 405 1805
3 1461 1460 1462
3 140 208 1618
3 1859 232 1860
3 274 1787 2099
3 1381 2126 2186
3 1558 1560 1789
3 430 428 682
3 452 435 1683
3 1487 1156 1488
3 1470 1464 1743
3 597 1794 1893
3 1244 1253 1669
3 962 919 1663
3 258 8 1673
3 1087 1785 1786
3 970 1042 1726
3 199 1677 2149
3 1664 1663 1665
3 1229 1230 1231
3 991 827 1713
3 792 1603 1848
3 1822 1444 1823
3 665 666 697
3 19 20 235
3 142 143 236
3 728 1098 1833
3 532 530 1898
3 1015 1124 1372
3 1546 1547 1548
3 1851 1850 1853
3 1877 393 2240
3 923 1105 1815
3 1090 1091 1092
3 687 686 703
3 1683 435 1790
3 887 826 1961
3 684 663 1089
3 426 1934 2138
3 464 510 680
3 853 854 855
3 568 572 1758
3 1376 1357 1377
3 1205 1203 1692
3 1607 1789 1855
3 710 709 711
3 780 781 1775
3 1434 1103 1435
3 876 815 877
3 766 672 1656
3 1393 1590 2457
3 684 1089 1090
3 530 890 1898
3 926 1920 1943
3 696 414 1821
3 1563 1562 1777
3 1054 1046 1580
3 1398 1973 1974
3 137 216 1625
3 1210 1040 1430
3 1750 563 1751
3 2010 1665 2299
3 1510 1374 1511
3 1777 1562 2085
3 1707 252 1791
3 1932 1404 1933
3 459 438 1814
3 139 140 1618
3 1093 1156 1487
3 231 163 1658
3 699 722 723
3 1545 1095 2508
3 598 612 1794
3 579 554 1880
3 1941 1908 2401
3 1231 1232 1233
3 1831 1829 1841
3 1037 1383 1799
3 177 178 1506
3 636 600 637
3 1036 1539 2286
3 1356 1114 1357
3 1523 1516 2377
3 704 703 705
3 403 402 405
3 648 792 1848
3 723 756 808
3 1388 1389 2170
3 933 932 1770
3 223 1710 1711
3 1779 399 1783
3 1223 1222 1224
3 1028 1029 1313
3 257 161 1654
3 418 412 421
3 734 882 1807
3 693 657 1095
3 1368 1370 1436
3 136 137 1625
3 688 652 817
3 1075 1327 1328
3 540 479 1813
3 398 395 402
3 548 1629 1630
3 574 591 699
3 1469 1494 1495
3 1041 1598 2175
3 167 168 202
3 175 176 204
3 2045 2046 2201
3 186 187 1602
3 886 887 888
3 1253 1254 1259
3 8 9 1673
3 792 655 810
3 843 1145 1960
3 1180 1349 1745
3 1165 1345 1512
3 708 706 709
3 136 1625 1734
3 21 22 207
3 140 141 208
3 625 626 665
3 1093 1094 1156
3 1585 795 1834
3 1117 1713 1806
3 599 579 600
3 810 871 1826
3 1047 1046 1048
3 1292 1291 1293
3 161 162 1654
3 199 1676 1677
3 1260 1282 1804
3 1005 1142 1768
3 1233 1234 1235
3 792 810 922
3 1122 1719 1737
3 976 985 1720
3 1278 1279 2292
3 2390 1934 2531
3 1436 1437 2350
3 270 271 1647
3 1199 966 1846
3 1683 1342 2212
3 656 273 2124
3 699 591 722
3 1977 1139 2096
3 1738 1719 1881
3 1722 985 1874
3 1797 1448 1798
3 162 231 1654
3 632 604 1862
3 252 1602 1791
3 1051 1050 1052
3 1045 1023 1046
3 648 655 792
3 993 1100 1101
3 1321 1055 1322
3 806 709 1627
3 904 903 981
3 1220 1267 1268
3 648 605 655
3 1737 1719 1738
3 385 399 1779
3 506 499 1828
3 1132 266 1402
3 1170 1418 1419
3 1323 2302 2354
3 24 25 215
3 137 138 216
3 721 965 1919
3 1787 1414 2460
3 778 1117 1806
3 723 722 756
3 407 403 1805
3 564 574 1752
3 1049 1048 1050
3 842 841 875
3 1608 1546 1842
3 809 808 899
3 1517 1519 1520
3 1530 1532 1533
3 889 421 1772
3 913 1002 1122
3 1314 1316 1367
3 1017 877 1684
3 841 802 1778
3 1235 1236 1237
3 751 1857 1900
3 1114 924 1767
3 1344 1644 2360
3 1895 1394 2371
3 1518 1535 1861
3 1758 1759 1760
3 1122 1002 1719
3 546 563 1750
3 1056 1726 1727
3 663 660 1746
3 621 622 625
3 1720 985 1721
3 1857 1843 1900
3 808 756 913
3 1056 970 1726
3 27 28 230
3 134 135 229
3 908 906 1099
3 163 164 1658
3 1727 1726 1729
3 7 8 258
3 154 155 259
3 1101 1403 1404
3 808 913 1874
3 1260 1269 1282
3 1389 1387 2262
3 1297 1053 1822
3 1555 1553 1557
3 1463 1464 1465
3 230 28 1765
3 1237 1238 1239
3 554 553 1880
3 775 778 1806
3 985 899 1874
3 1270 1524 2199
3 489 1820 1936
3 692 1072 1794
3 1472 2142 2272
3 1845 496 1929
3 438 431 1814
3 613 615 1824
3 1241 1242 1245
3 1783 415 1915
3 1192 2081 2149
3 178 214 1506
3 1816 988 1817
3 1760 1759 1761
3 1103 1092 1623
3 1512 1345 1661
3 1876 921 2295
3 1165 984 1345
3 978 1074 1075
3 1239 1240 1241
3 542 541 553
3 813 988 1816
3 1148 984 1165
3 871 970 1056
3 472 452 1683
3 1207 1796 1870
3 1167 1166 1754
3 1296 1053 1297
3 966 964 1846
3 976 899 985
3 982 976 984
3 702 1815 2015
3 900 899 976
3 1143 995 1206
3 1576 1024 1827
3 1235 1248 1733
3 1558 1557 1560
3 943 995 1143
3 1920 1144 1943
3 1471 2115 2477
3 29 30 255
3 132 133 254
3 1630 1633 1634
3 1225 1224 1226
3 1925 1573 1926
3 1211 1205 1692
3 725 825 826
3 1113 924 1114
3 600 579 1988
3 717 1552 1567
3 1820 1657 1936
3 674 276 2099
3 395 393 1877
3 572 543 1897
3 1575 1308 2255
3 999 1000 1028
3 1118 1775 1876
3 1797 1798 2430
3 526 546 559
3 867 853 2186
3 1142 1771 1949
3 1068 1275 1442
3 679 385 1779
3 1607 1558 1789
3 580 568 1758
3 1244 1252 1253
3 1760 1761 1762
3 398 402 403
3 1476 1258 1478
3 418 421 889
3 1771 1147 1839
3 164 213 1658
3 1720 1721 2267
3 1668 1591 2512
3 1042 1128 1445
3 1098 1830 1833
3 1102 1092 1103
3 2249 884 2466
3 1104 1103 1434
3 410 416 1821
3 514 513 541
3 580 1758 1763
3 637 673 1741
3 1913 936 1914
3 1394 1395 2337
3 919 920 999
3 577 554 579
3 2111 1660 2263
3 231 1658 1659
3 612 613 644
3 568 543 572
3 770 775 1806
3 1445 1128 1446
3 1546 1548 1842
3 448 460 478
3 810 870 871
3 1789 1560 1819
3 1154 1082 1431
3 873 973 1802
3 379 385 679
3 837 850 921
3 1461 1462 1463
3 1346 1076 1420
3 1088 1344 1808
3 2125 1143 2353
3 931 977 978
3 882 772 1802
3 29 255 1765
3 849 1513 2180
3 1713 827 1806
3 1130 1396 1397
3 681 638 852
3 1417 1321 1873
3 1654 1402 2530
3 502 526 1740
3 1124 888 2177
3 1266 1460 1461
3 515 1175 1840
3 1253 1264 1669
3 479 466 1813
3 1727 1729 1757
3 379 380 385
3 1971 1480 2514
3 1637 1739 2459
3 1207 1205 1208
3 529 519 1899
3 1129 1845 1929
3 224 1661 2267
3 192 1856 2361
3 732 734 1807
3 1184 2163 2435
3 1119 1120 1353
3 415 414 431
3 719 724 725
3 559 546 1750
3 871 872 970
3 1038 917 1622
3 574 699 1752
3 166 167 1679
3 1117 1118 1119
3 1409 1196 2035
3 617 619 621
3 1172 1173 1439
3 1191 1005 1768
3 664 663 684
3 494 493 1841
3 890 529 1731
3 840 802 841
3 493 974 1841
3 385 386 399
3 679 1779 1780
3 371 376 379
3 416 433 1109
3 670 769 1815
3 902 866 903
3 1780 1779 1781
3 480 515 1840
3 970 971 1042
3 433 448 1714
3 28 29 1765
3 1005 949 1142
3 778 780 1117
3 959 1037 1799
3 1073 1003 1076
3 535 532 1898
3 1119 1118 1120
3 658 657 693
3 1378 1379 1380
3 1397 1396 1809
3 1610 1609 1612
3 1819 1560 2016
3 1837 952 1865
3 1719 1131 1881
3 1131 1399 1400
3 1352 1138 2058
3 399 406 409
3 548 1630 2041
3 1275 1338 2251
3 582 1816 1818
3 1835 1836 2144
3 993 1101 1980
3 1699 1698 1700
3 2407 364 2505
3 1189 1190 1788
3 1117 780 1118
3 1830 1829 1831
3 637 672 673
3 692 804 1072
3 1204 1203 1205
3 1374 1170 2139
3 612 692 1794
3 1642 1408 2286
3 723 808 809
3 450 459 1812
3 409 410 414
3 802 801 1778
3 1853 1854 2483
3 1042 1127 1128
3 1199 1846 2225
3 1147 990 1273
3 1383 1384 2432
3 432 431 438
3 1353 1120 1390
3 1093 1091 1094
3 2020 250 2254
3 148 149 1639
3 606 605 648
3 1970 2016 2422
3 2201 2046 2327
3 475 471 513
3 412 407 1951
3 1991 246 2139
3 727 695 728
3 1673 234 1788
3 1554 1556 1559
3 1089 663 1746
3 1846 964 2056
3 923 991 1088
3 409 406 410
3 729 728 730
3 1424 1427 1856
3 1473 1911 2407
3 1376 1377 1378
3 1010 1374 1510
3 853 852 854
3 366 369 1087
3 772 873 1802
3 1219 1218 1626
3 1766 229 2061
3 1088 991 1344
3 922 810 1826
3 518 506 695
3 405 402 2116
3 962 1664 2316
3 913 942 1002
3 932 990 1147
3 629 813 1816
3 876 877 992
3 399 386 406
3 932 845 990
3 1002 1123 1131
3 843 996 1145
3 781 837 1775
3 262 2304 2491
3 431 696 1814
3 1273 1695 1892
3 731 730 732
3 737 732 1807
3 439 438 450
3 1829 498 1841
3 800 685 801
3 767 814 815
3 1060 766 1656
3 673 766 767
3 1403 1605 1882
3 716 718 719
3 1338 1069 1339
3 847 752 1843
3 864 862 1116
3 2302 443 2519
3 923 827 991
3 526 559 1740
3 1911 1473 2358
3 1085 1310 1867
3 809 899 900
3 1227 1226 1228
3 729 730 731
3 1436 1370 1437
3 731 732 737
3 769 827 923
3 456 452 471
3 1433 1503 2471
3 1435 1103 1623
3 385 380 386
3 1141 1787 2460
3 1354 1088 1808
3 657 649 1848
3 415 431 432
3 484 892 1820
3 727 728 729
3 855 854 1450
3 1721 1722 1723
3 1643 1353 1644
3 1145 1916 1960
3 1421 1191 1422
3 466 1812 1813
3 943 944 995
3 1356 1357 1376
3 714 715 716
3 1156 1094 1157
3 598 611 612
3 631 1600 2298
3 590 589 605
3 965 969 1919
3 416 1109 1821
3 242 1697 2335
3 1548 1547 1549
3 550 573 584
3 584 604 632
3 409 414 415
3 712 713 714
3 642 670 702
3 818 698 819
3 1006 1005 1191
3 1624 1689 1691
3 169 170 237
3 173 174 238
3 956 912 1003
3 937 936 1913
3 1317 1025 1875
3 515 540 550
3 973 1799 1800
3 973 959 1799
3 518 695 727
3 910 819 912
3 584 573 604
3 1170 946 1418
3 173 238 1847
3 550 540 573
3 982 984 1148
3 900 976 982
3 441 435 452
3 448 478 1714
3 1849 1648 2173
3 1631 1628 1637
3 1830 1831 1832
3 1383 1216 1384
3 734 772 882
3 949 933 1770
3 1332 1330 1333
3 574 575 591
3 1105 1088 1354
3 702 670 1815
3 498 494 1841
3 827 770 1806
3 873 959 973
3 1390 1391 1415
3 450 438 459
3 950 949 1005
3 351 362 364
3 1313 1029 1314
3 432 438 439
3 837 838 850
3 1273 1274 1695
3 850 851 943
3 911 952 1837
3 1259 1260 1804
3 566 587 588
3 1037 1216 1383
3 1337 1265 1538
3 1087 369 1795
3 810 655 870
3 1559 1561 1566
3 1147 1273 1839
3 732 733 734
3 1662 867 2126
3 890 1731 2241
3 1854 1852 2397
3 515 479 540
3 451 450 466
3 697 666 698
3 1367 1316 1368
3 662 660 663
3 365 355 694
3 1358 1114 1767
3 379 376 380
3 1796 1448 1797
3 179 180 1859
3 790 668 849
3 569 568 580
3 690 860 931
3 466 450 1812
3 431 414 696
3 1973 1133 1974
3 651 649 657
3 467 466 479
3 1288 1289 1835
3 264 265 1986
3 1302 1303 1304
3 592 596 597
3 1873 1321 2037
3 544 543 568
3 275 277 549
3 209 1937 2389
3 539 565 566
3 1485 227 1486
3 2384 2190 2408
3 1781 1779 1783
3 480 479 515
3 689 1416 2413
3 1108 1161 1539
3 1867 1310 1895
3 1300 1301 1302
3 1695 1696 1697
3 633 632 668
3 1304 1451 1452
3 988 911 1837
3 168 169 1724
3 969 1012 1172
3 582 629 1816
3 1843 752 1900
3 629 812 813
3 710 711 712
3 1782 1780 1784
3 536 535 543
3 1089 1746 1969
3 1108 1107 1161
3 1514 1426 1856
3 486 484 1820
3 369 371 1795
3 1817 988 1924
3 493 609 974
3 1422 1191 2023
3 1426 1424 1856
3 842 875 924
3 922 1826 2259
3 989 1361 1886
3 928 1070 1288
3 669 668 790
3 1113 1114 1356
3 1027 847 1843
3 728 695 1098
3 734 735 772
3 975 1107 1108
3 955 859 1962
3 813 911 988
3 1208 1448 1796
3 1101 1405 1980
3 602 676 2045
3 586 581 589
3 546 547 563
3 493 491 609
3 628 1524 2390
3 348 344 354
3 1298 1299 1300
3 509 538 539
3 974 609 975
3 813 891 911
3 871 870 872
3 1355 1354 1423
3 489 486 1820
3 778 779 780
3 1025 1176 1875
3 772 773 873
3 803 1743 2347
3 167 202 1679
3 873 883 959
3 1483 1571 2375
3 427 1756 2221
3 540 1813 1954
3 1202 1200 1203
3 959 1035 1037
3 837 921 1775
3 1304 1305 1451
3 1799 1383 2195
3 604 642 1862
3 1470 1744 2474
3 1854 2397 2453
3 1282 1269 1386
3 1573 1572 2157
3 472 2222 2290
3 1307 1708 2341
3 769 770 827
3 1037 1215 1216
3 791 790 856
3 1053 1052 1822
3 1056 1727 1728
3 1341 1138 1352
3 1300 1299 1301
3 1814 696 1838
3 1198 1196 1409
3 492 491 493
3 439 450 451
3 1171 858 2132
3 1259 1254 1260
3 665 626 666
3 970 872 971
3 258 1602 2357
3 1296 1297 1472
3 490 489 491
3 516 437 2494
3 1298 1027 1299
3 846 845 932
3 501 508 509
3 460 461 502
3 448 449 460
3 482 480 1840
3 1229 1228 1230
3 604 641 642
3 1424 1423 1427
3 502 503 526
3 1028 1000 1029
3 935 933 949
3 1084 1085 1867
3 2028 1711 2353
3 1513 1426 1514
3 892 482 1840
3 852 638 1988
3 402 395 1877
3 738 737 845
3 413 412 418
3 1119 1353 1643
3 526 527 546
3 280 279 281
3 1731 1155 2123
3 1042 971 1127
3 1208 1447 1448
3 433 434 448
3 262 159 2304
3 184 1454 2303
3 1051 1052 1053
3 1816 1817 1818
3 1081 1417 1444
3 781 836 837
3 911 951 952
3 1090 1092 1102
3 202 168 1724
3 1085 1309 1310
3 408 407 412
3 1337 1538 1864
3 1515 1514 1516
3 530 529 890
3 1517 1518 1519
3 549 686 687
3 923 1088 1105
3 404 403 407
3 1835 1289 1836
3 1314 1367 2121
3 1380 1379 2416
3 670 671 769
3 899 808 1874
3 1040 903 1703
3 1596 1595 2154
3 1496 1495 1497
3 636 637 1741
3 1377 1638 2288
3 1288 1070 1289
3 1072 804 1981
3 1129 1334 1845
3 1865 1084 1866
3 792 922 1603
3 1253 1252 1254
3 981 1167 1792
3 1302 1301 1303
3 1641 1651 2019
3 952 953 1084
3 1813 1812 1869
3 732 730 733
3 975 1106 1107
3 1142 949 1770
3 981 1166 1167
3 840 841 842
3 451 466 467
3 1273 990 1274
3 1049 1050 1051
3 1473 2407 2505
3 968 966 1199
3 642 643 670
3 1310 1309 1311
3 422 419 435
3 1063 833 1082
3 919 782 920
3 911 891 951
3 1084 953 1085
3 1763 1764 2164
3 1498 1497 1682
3 515 550 1175
3 1079 937 1913
3 642 702 1862
3 845 737 1931
3 1394 1311 1395
3 1395 1521 1522
3 467 479 480
3 1755 1754 1793
3 1231 1230 1232
3 1557 1553 2030
3 1624 1691 2262
3 584 632 633
3 1094 1091 1969
3 708 709 710
3 1948 1627 2488
3 952 951 953
3 1102 1103 1104
3 1047 1048 1049
3 1310 1311 1394
3 1852 1099 1985
3 143 144 1717
3 813 812 891
3 1944 1044 1945
3 1105 1354 1355
3 1300 1302 1455
3 1914 936 1940
3 1415 1391 1710
3 1299 1027 1843
3 952 1084 1865
3 1695 1274 1696
3 776 774 1928
3 282 281 283
3 2003 1347 2279
3 1206 995 1499
3 1164 1685 1686
3 1551 1565 2030
3 969 1172 1919
3 633 668 669
3 734 733 735
3 1373 1372 1438
3 599 600 636
3 1431 1860 2487
3 1579 1577 1999
3 484 482 892
3 917 940 941
3 2144 1836 2169
3 1866 1084 1867
3 1110 1747 1748
3 998 1171 1811
3 1390 1120 1391
3 644 1824 2057
3 1362 1961 2048
3 944 1283 1825
3 1086 1027 1298
3 679 1780 1782
3 974 975 1879
3 507 506 518
3 1121 1079 1401
3 775 777 778
3 1965 762 2349
3 1045 1046 1047
3 1772 421 2106
3 16 17 2081
3 416 417 433
3 921 850 2125
3 1607 1855 1958
3 649 648 1848
3 1241 1240 1242
3 2012 1443 2251
3 926 928 1920
3 1487 1488 2025
3 1006 1191 1421
3 1355 1423 1424
3 1133 852 1988
3 591 592 1776
3 1299 1843 1857
3 1085 1308 1309
3 490 491 492
3 958 694 1575
3 1384 1216 1385
3 741 915 1878
3 1233 1232 1234
3 669 790 791
3 481 480 482
3 687 703 704
3 492 493 494
3 1634 1633 1922
3 1697 1696 1698
3 1721 985 1722
3 1839 1273 1892
3 772 735 773
3 488 486 489
3 950 1005 1006
3 1513 1514 1515
3 454 500 501
3 873 773 883
3 284 283 285
3 2185 1505 2442
3 959 883 1035
3 543 535 1897
3 1904 1384 2093
3 800 801 802
3 1037 1035 1215
3 1293 1964 1965
3 1239 1238 1240
3 943 1143 2125
3 1782 1784 1785
3 913 756 942
3 488 490 1884
3 1590 1749 2501
3 1235 1234 1236
3 791 856 1408
3 702 2015 2070
3 1108 1539 1540
3 1021 1023 1045
3 695 506 1828
3 1530 1528 1532
3 488 489 490
3 1621 1619 2161
3 704 705 706
3 1304 1303 1305
3 558 1704 2167
3 625 622 626
3 542 553 554
3 604 573 641
3 664 684 685
3 564 571 574
3 1108 1540 1879
3 1856 1427 2361
3 880 1025 1129
3 1395 1311 1521
3 1466 1465 1467
3 915 495 1884
3 1515 1516 1523
3 1237 1236 1238
3 606 648 649
3 999 920 1000
3 676 829 1043
3 2100 794 2142
3 227 151 1500
3 577 579 599
3 153 154 1671
3 1175 550 1927
3 1014 888 1015
3 286 285 287
3 1649 1280 2427
3 1725 204 2137
3 975 609 1106
3 1129 1317 1334
3 1109 1730 2426
3 1468 1467 1469
3 1131 1123 1399
3 1215 2235 2378
3 1976 1149 1989
3 397 395 398
3 746 743 1878
3 1041 1343 1598
3 975 1108 1879
3 741 495 915
3 1167 1754 1755
3 288 287 289
3 743 741 1878
3 1274 990 1931
3 1506 214 1507
3 857 1584 2277
3 2341 1522 2387
3 846 932 933
3 1107 1106 1110
3 584 633 1927
3 290 289 291
3 722 591 1776
3 1544 1094 1969
3 1135 270 1647
3 935 949 950
3 1920 1288 2080
3 754 1896 2108
3 1693 1199 2225
3 292 291 293
3 394 393 395
3 745 743 746
3 1002 942 1123
3 731 737 738
3 294 293 295
3 1018 1573 1925
3 296 295 297
3 298 297 299
3 321 322 325
3 317 320 321
3 314 315 317
3 312 313 314
3 310 311 312
3 308 309 310
3 1898 890 2275
3 306 307 308
3 304 305 306
3 1401 1079 1913
3 300 299 301
3 302 303 304
3 300 301 302
3 302 301 303
3 491 489 1936
3 298 299 300
3 304 303 305
3 306 305 307
3 308 307 309
3 310 309 311
3 312 311 313
3 314 313 315
3 317 315 320
3 321 320 322
3 1301 1299 1857
3 514 541 542
3 296 297 298
3 850 838 851
3 1310 1394 1895
3 294 295 296
3 590 605 606
3 292 293 294
3 651 657 658
3 290 291 292
3 1207 1208 1796
3 835 1976 1989
3 621 619 622
3 746 1878 1896
3 481 482 483
3 1026 847 1027
3 1335 1207 1870
3 1661 59 2266
3 727 729 1155
3 288 289 290
3 1058 776 1928
3 662 663 664
3 495 488 1884
3 1959 319 2522
3 943 851 944
3 1293 1291 1964
3 534 532 535
3 640 645 646
3 2280 1014 2385
3 286 287 288
3 591 575 592
3 521 519 529
3 13 14 2114
3 780 779 781
3 918 908 1850
3 837 836 838
3 209 148 1639
3 754 748 1896
3 745 746 747
3 769 671 770
3 929 1065 2197
3 1278 1058 1279
3 483 482 484
3 1564 1557 2030
3 633 807 1927
3 392 391 393
3 1057 1621 2161
3 569 580 581
3 284 285 286
3 876 992 1894
3 497 494 498
3 1630 1635 2041
3 982 1148 1918
3 612 611 613
3 700 634 1044
3 822 674 2099
3 880 1129 1929
3 432 439 654
3 1039 1291 1292
3 1164 1686 1989
3 1129 1025 1317
3 738 845 846
3 582 583 629
3 278 6 279
3 544 568 569
3 1701 1274 1931
3 747 749 751
3 1085 953 1308
3 928 930 1070
3 747 748 749
3 1421 1422 2415
3 902 903 904
3 1309 1308 1543
3 642 641 643
3 904 981 1792
3 646 784 785
3 536 543 544
3 1204 1205 1207
3 365 694 958
3 71 72 217
3 88 89 1901
3 87 88 193
3 101 102 189
3 85 86 242
3 99 100 241
3 74 75 192
3 91 92 219
3 94 95 191
3 83 84 220
3 97 98 221
3 77 78 218
3 80 81 194
3 89 90 245
3 62 63 244
3 60 61 188
3 64 65 223
3 67 68 190
3 90 91 1909
3 98 99 1905
3 61 62 1908
3 69 70 243
3 68 69 1907
3 70 71 1910
3 410 411 416
3 586 589 590
3 685 684 2029
3 390 389 391
3 1715 1150 1811
3 1924 1837 2215
3 282 283 284
3 496 497 1929
3 233 1671 1769
3 627 2185 2442
3 1567 1552 2062
3 629 630 812
3 424 453 454
3 583 562 1942
3 749 750 805
3 744 743 745
3 1897 535 1898
3 467 480 481
3 504 759 880
3 670 643 671
3 89 245 1901
3 193 88 1901
3 221 98 1905
3 245 90 1909
3 91 219 1909
3 62 244 1908
3 188 61 1908
3 99 241 1905
3 190 68 1907
3 71 217 1910
3 69 243 1907
3 243 70 1910
3 505 499 506
3 475 513 514
3 1945 1044 2071
3 1712 2125 2353
3 339 343 440
3 989 1360 1361
3 764 869 1152
3 778 777 779
3 1686 1685 1687
3 742 741 743
3 979 989 1886
3 729 731 1887
3 926 927 928
3 1305 1306 1307
3 1838 1278 2292
3 747 746 748
3 181 182 1652
3 1886 1361 2305
3 1595 1594 2486
3 597 596 598
3 928 1288 1920
3 1970 824 2156
3 1425 1424 1426
3 497 504 1929
3 748 746 1896
3 745 747 1900
3 998 858 1171
3 563 547 564
3 1155 729 1887
3 634 583 1942
3 1439 1173 1440
3 1026 1027 1086
3 79 80 1904
3 1533 1532 1536
3 1449 1426 1513
3 1106 609 1936
3 1318 1013 1319
3 1098 695 1828
3 492 494 496
3 750 748 754
3 731 738 1887
3 2415 1422 2516
3 533 562 582
3 988 1837 1924
3 1216 1215 1863
3 534 535 536
3 747 751 1900
3 1753 809 2119
3 1183 824 1970
3 740 495 741
3 80 194 1904
3 893 383 2087
3 655 605 1939
3 1884 2034 2082
3 1301 1857 1923
3 1307 1306 1708
3 752 745 1900
3 750 754 755
3 76 77 1903
3 2090 2347 2365
3 255 30 2159
3 132 254 2160
3 448 434 449
3 753 848 926
3 1075 1074 1327
3 487 488 495
3 377 381 647
3 483 484 485
3 755 754 2148
3 1584 1925 2277
3 1186 1183 1970
3 951 891 1281
3 485 484 486
3 546 527 547
3 133 134 1766
3 1786 1785 2409
3 280 281 282
3 460 449 461
3 744 745 752
3 77 218 1903
3 983 1918 2342
3 1708 1306 1810
3 1389 2069 2170
3 487 486 488
3 641 573 1954
3 507 518 519
3 502 461 503
3 519 518 1899
3 1202 1203 1204
3 821 897 1972
3 92 93 1902
3 521 529 530
3 749 748 750
3 2176 1380 2416
3 885 826 886
3 485 486 487
3 371 372 376
3 1289 1070 1871
3 1110 1657 1747
3 753 926 1943
3 700 1044 1944
3 880 881 1025
3 496 1845 2034
3 1072 1981 2393
3 462 464 2134
3 1949 1771 2359
3 1044 634 1942
3 550 584 1927
3 1390 1415 2118
3 526 503 527
3 990 845 1931
3 1009 1213 1214
3 740 742 1144
3 219 92 1902
3 727 1155 1899
3 369 370 371
3 623 690 2150
3 1279 1058 1928
3 1408 2235 2286
3 487 495 740
3 979 1886 2086
3 1305 1303 1306
3 421 412 1951
3 843 844 996
3 633 669 807
3 518 727 1899
3 826 825 1961
3 1657 1106 1936
3 1172 1012 1173
3 740 741 742
3 433 417 434
3 505 506 507
3 1333 1674 2437
3 742 743 744
3 469 458 470
3 1381 1380 1382
3 1293 1965 2515
3 1554 1559 2062
3 553 557 2499
3 1774 389 2339
3 497 498 499
3 483 485 576
3 740 1144 1935
3 773 735 834
3 366 367 369
3 1120 1118 1876
3 1515 1523 1574
3 1319 1013 2039
3 1303 1301 1923
3 457 447 458
3 561 593 594
3 1355 1424 1425
3 609 491 1936
3 204 1732 2137
3 791 1408 1642
3 995 944 1825
3 456 471 475
3 1692 1693 2239
3 580 1763 2164
3 1292 1293 2117
3 441 452 456
3 388 384 389
3 823 821 1972
3 504 880 1929
3 176 177 1680
3 1070 1071 1871
3 15 2260 2477
3 362 363 366
3 2178 2300 2449
3 1035 883 1036
3 2285 1563 2307
3 978 977 1074
3 1090 1102 2029
3 1810 1306 1923
3 496 494 497
3 1306 1303 1923
3 432 654 1915
3 934 933 935
3 356 355 365
3 398 403 404
3 635 701 843
3 1110 1106 1657
3 574 571 575
3 1025 881 1176
3 386 380 786
3 415 432 1915
3 343 347 1911
3 1070 930 1071
3 1688 1740 2231
3 1385 1216 1863
3 1696 1274 1701
3 1645 305 2317
3 880 759 881
3 926 848 927
3 1427 1423 2217
3 1339 1662 2388
3 770 774 775
3 1263 1257 1428
3 1337 1864 2412
3 349 348 355
3 2267 1721 2498
3 753 752 847
3 1375 1086 1473
3 900 982 983
3 332 335 739
3 429 428 430
3 744 752 753
3 1171 2132 2165
3 1425 1426 1449
3 987 641 1954
3 1883 1786 2409
3 427 426 428
3 928 927 930
3 1815 1105 2015
3 1206 1499 1941
3 410 406 411
3 573 540 1954
3 497 499 504
3 528 560 561
3 1933 1404 2399
3 1091 1089 1969
3 1804 1282 2073
3 504 505 759
3 963 924 1113
3 1711 1710 1712
3 881 759 1146
3 968 1199 1200
3 351 352 362
3 848 847 1026
3 521 530 531
3 1884 490 2034
3 1277 957 1966
3 1349 1350 2329
3 676 1043 2045
3 997 1159 1286
3 517 1889 1890
3 781 835 836
3 944 948 1283
3 722 1776 2026
3 507 519 520
3 2040 1352 2058
3 1276 957 1277
3 446 437 447
3 931 860 977
3 361 359 765
3 1248 1536 2534
3 512 523 528
3 408 412 413
3 1368 1369 1370
3 451 2169 2223
3 192 75 1994
3 942 756 2026
3 345 344 348
3 764 1152 1963
3 413 418 419
3 1286 1773 1774
3 770 671 774
3 275 549 2124
3 1497 1645 2461
3 1982 1472 2272
3 422 435 441
3 281 279 736
3 1134 270 1135
3 582 562 583
3 1421 2415 2454
3 485 487 1935
3 2300 1067 2480
3 1578 1576 1827
3 930 927 1061
3 1026 1086 1375
3 922 2259 2379
3 1391 1120 1876
3 1495 1494 2493
3 404 407 408
3 879 2178 2449
3 1700 1698 2036
3 607 1517 1520
3 753 847 848
3 416 411 417
3 1144 742 1943
3 775 776 777
3 754 2108 2148
3 1006 1421 1953
3 585 581 586
3 531 530 532
3 235 1709 1888
3 520 519 521
3 1180 1181 1349
3 1146 759 1967
3 708 710 1921
3 1350 2253 2329
3 436 430 437
3 504 499 505
3 643 641 987
3 336 330 517
3 811 1059 1149
3 1164 1411 1685
3 846 933 934
3 635 843 1960
3 983 982 1918
3 971 872 1096
3 1149 1163 1164
3 169 237 1724
3 1314 1315 1316
3 629 583 630
3 891 812 1916
3 462 463 464
3 487 740 1935
3 798 2084 2189
3 1814 1838 2292
3 1284 1489 1491
3 340 336 2014
3 1670 1461 2200
3 920 782 2057
3 890 2241 2275
3 510 511 512
3 278 279 280
3 839 802 840
3 1858 235 1888
3 1698 1696 2036
3 104 105 222
3 57 58 224
3 1185 1183 1186
3 588 587 623
3 638 600 1988
3 1282 1386 2245
3 811 776 1058
3 816 815 876
3 2034 1845 2082
3 761 636 1741
3 566 565 587
3 174 175 1725
3 347 350 351
3 1469 1495 1496
3 1059 1058 1278
3 811 1149 1976
3 576 485 1935
3 659 658 660
3 859 1153 1962
3 76 1903 1994
3 1821 1109 2426
3 1294 1038 1622
3 733 1833 2075
3 992 993 1980
3 1566 1561 2285
3 525 474 2041
3 464 465 510
3 343 346 347
3 360 893 1982
3 650 649 651
3 896 608 936
3 950 1006 1007
3 1508 1859 1860
3 539 538 565
3 440 343 1911
3 341 340 344
3 221 1905 1906
3 1297 1823 2142
3 759 505 1967
3 1295 1053 1296
3 473 470 474
3 1463 1465 1466
3 1143 1206 2028
3 799 685 800
3 1210 2077 2203
3 509 508 538
3 492 496 2034
3 1553 1551 2030
3 1260 1261 1269
3 1430 1040 1703
3 586 590 1940
3 838 836 868
3 1705 624 2276
3 1749 972 2501
3 742 744 1943
3 804 962 1981
3 1367 1368 2254
3 531 532 533
3 337 336 340
3 1157 1094 1544
3 536 544 1158
3 812 630 1960
3 781 779 835
3 56 57 1947
3 630 583 634
3 1405 1404 1932
3 1281 891 1916
3 339 342 343
3 1411 1163 1730
3 322 323 324
3 344 340 2091
3 1735 1734 1736
3 75 76 1994
3 430 682 2494
3 1907 243 2360
3 589 581 2164
3 694 355 2196
3 744 753 1943
3 775 774 776
3 1210 1430 2077
3 335 338 339
3 1102 1803 2029
3 1078 937 1079
3 870 655 1939
3 505 507 1967
3 357 360 1982
3 1896 1878 2101
3 326 325 328
3 934 935 957
3 585 608 895
3 333 330 336
3 1270 1272 1524
3 688 817 878
3 507 520 1967
3 1428 1257 2074
3 1818 1817 2000
3 896 937 1077
3 934 957 1111
3 329 328 330
3 1499 995 1825
3 944 851 948
3 387 445 462
3 1678 1161 2228
3 777 776 811
3 313 311 757
3 324 331 332
3 848 1026 1955
3 1312 998 1811
3 1321 1322 2037
3 1080 1079 1121
3 1105 1355 2015
3 1645 2317 2461
3 1559 1568 2062
3 332 334 335
3 501 500 508
3 321 325 326
3 394 395 397
3 322 320 323
3 1529 1530 2171
3 1137 797 1138
3 811 1058 1059
3 661 660 662
3 569 581 585
3 183 4 2303
3 5 160 2304
3 1340 1138 1341
3 1660 1626 2185
3 1743 1464 2347
3 1026 1375 1955
3 1149 1059 1163
3 1736 1625 2194
3 1322 1667 2434
3 311 309 1959
3 309 307 319
3 894 700 1944
3 533 534 562
3 1276 1277 1366
3 2190 1706 2408
3 533 532 534
3 1214 1213 1410
3 1164 1163 1411
3 843 701 844
3 1009 1214 2055
3 234 1589 1788
3 2000 1817 2174
3 317 321 2050
3 328 325 945
3 392 393 394
3 588 623 2089
3 1162 958 1681
3 1078 1080 1136
3 927 848 1955
3 1496 1497 1498
3 390 391 392
3 1061 927 1955
3 1283 948 1284
3 635 634 700
3 1244 1251 1252
3 218 78 2093
3 756 722 2026
3 1071 1784 2419
3 1218 1505 2185
3 1284 948 1285
3 1489 1285 1490
3 918 1850 1851
3 684 1090 2029
3 1759 572 2537
3 1691 1690 2446
3 1979 1158 2071
3 606 649 650
3 2045 1043 2046
3 103 104 2025
3 630 634 635
3 360 383 893
3 406 386 2043
3 1909 219 2023
3 1111 957 1276
3 1925 1437 2277
3 1536 2268 2340
3 854 852 1133
3 233 153 1671
3 651 658 659
3 2099 1787 2368
3 1033 1032 1130
3 1015 1372 1373
3 1412 942 2026
3 253 264 1441
3 1531 1534 2332
3 701 700 894
3 106 107 1990
3 2048 1961 2455
3 276 274 2099
3 738 846 1968
3 1325 925 1326
3 896 936 937
3 585 586 608
3 1450 854 1973
3 1361 1360 1362
3 1045 1668 2512
3 303 301 444
3 996 844 997
3 79 1904 2093
3 1989 1686 2095
3 1928 774 2033
3 1942 562 1979
3 287 285 316
3 935 950 1966
3 1466 1467 1468
3 1242 1243 1244
3 1887 738 1968
3 2115 210 2477
3 878 929 1083
3 1326 1736 2194
3 886 888 1014
3 895 608 896
3 289 287 1978
3 821 822 897
3 936 608 1940
3 613 614 615
3 51 52 1996
3 417 411 1160
3 1149 1164 1989
3 386 786 2043
3 285 283 1971
3 1309 1543 2147
3 375 373 2053
3 371 370 372
3 779 777 1976
3 1286 1159 1773
3 2177 887 2376
3 1560 1557 1564
3 1403 1882 2399
3 1727 1757 2246
3 279 6 2049
3 1619 1438 2438
3 291 289 758
3 1781 1915 2294
3 425 401 426
3 349 355 356
3 66 67 2118
3 474 548 2041
3 1686 1687 2007
3 1262 1456 1457
3 1123 942 1412
3 1916 812 1960
3 1355 1425 2015
3 735 733 2075
3 1861 879 2449
3 1284 1285 1489
3 490 492 2034
3 366 363 367
3 980 578 2051
3 906 904 1792
3 534 536 1979
3 842 924 963
3 2051 578 2083
3 1077 937 1078
3 1102 1104 1803
3 894 1944 1946
3 398 404 2060
3 1007 1006 1953
3 369 367 370
3 348 354 2196
3 1078 1079 1080
3 1378 1380 1381
3 1568 1365 2439
3 608 586 1940
3 598 610 611
3 760 636 761
3 869 1137 1351
3 671 643 2033
3 1661 1345 2267
3 938 914 1057
3 783 761 914
3 576 1835 2144
3 388 389 390
3 297 295 318
3 454 453 500
3 1906 1728 2246
3 1439 1440 2468
3 1159 1013 1318
3 764 797 869
3 236 143 1717
3 782 644 2057
3 592 595 596
3 1542 2332 2443
3 1521 1311 2147
3 345 348 349
3 1304 1452 2205
3 1644 1907 2360
3 2146 1125 2149
3 997 844 1013
3 628 375 2053
3 299 297 1984
3 957 935 1966
3 664 685 799
3 301 299 1975
3 362 352 363
3 777 811 1976
3 1942 1979 2071
3 1001 920 2057
3 312 314 768
3 1552 1554 2062
3 615 616 617
3 357 1982 2076
3 800 802 839
3 774 671 2033
3 1749 1169 2105
3 365 958 1162
3 617 618 619
3 283 281 1938
3 1351 1772 2414
3 1525 1765 2489
3 846 934 1968
3 635 700 701
3 555 554 577
3 536 1158 1979
3 1101 1404 1405
3 630 635 1960
3 1811 1150 2089
3 2113 1666 2249
3 172 173 1847
3 107 108 195
3 54 55 196
3 1191 1768 2023
3 1455 1302 2205
3 115 116 2017
3 1387 1333 2437
3 659 661 764
3 1080 1121 1188
3 50 51 2011
3 411 406 2043
3 295 293 1983
3 643 987 2033
3 707 706 708
3 129 130 261
3 32 33 260
3 2159 260 2265
3 449 434 567
3 1314 1029 1315
3 917 796 940
3 378 375 628
3 108 109 1991
3 2370 1759 2537
3 341 344 345
3 997 1013 1159
3 544 569 1993
3 950 1007 1966
3 477 474 525
3 351 350 352
3 1696 1701 2036
3 334 331 803
3 1137 1138 1340
3 562 534 1979
3 109 110 246
3 52 53 247
3 1368 1316 1369
3 659 660 661
3 33 34 2002
3 123 124 2005
3 835 779 1976
3 851 838 1992
3 1530 1533 2172
3 1668 1045 2348
3 1162 1681 1706
3 342 338 468
3 298 300 358
3 765 359 2065
3 725 826 885
3 35 36 2003
3 46 47 2019
3 38 39 2006
3 336 517 2014
3 934 1111 1968
3 116 117 2018
3 650 651 1963
3 223 1711 2162
3 640 594 645
3 1333 1330 2192
3 104 222 2025
3 1603 922 2379
3 963 1113 1115
3 2084 1193 2189
3 564 570 571
3 36 37 2004
3 57 224 1947
3 1542 1601 2269
3 122 123 2012
3 1000 920 1001
3 127 128 240
3 34 35 239
3 383 387 2087
3 1161 1107 2228
3 1781 2294 2419
3 1201 1200 1202
3 124 125 225
3 37 38 226
3 1340 1341 1342
3 869 797 1137
3 839 840 1008
3 1158 544 1993
3 1326 925 1894
3 352 350 353
3 326 329 954
3 1864 2344 2412
3 836 835 2095
3 1051 1053 1295
3 1031 720 1032
3 503 461 787
3 1407 1112 2044
3 661 662 2058
3 838 868 1992
3 112 113 197
3 49 50 198
3 1359 980 1413
3 121 122 211
3 40 41 212
3 48 49 2010
3 113 114 2009
3 1741 673 2131
3 41 42 2020
3 120 121 2013
3 1409 2035 2097
3 1511 1374 2506
3 114 115 248
3 47 48 249
3 42 43 250
3 119 120 251
3 171 6 201
3 6 172 203
3 585 895 1993
3 43 44 2024
3 118 119 2021
3 905 904 906
3 764 661 797
3 337 340 341
3 1413 980 2051
3 117 118 205
3 44 45 206
3 347 346 350
3 1420 1076 1525
3 324 323 331
3 434 417 2031
3 965 967 969
3 716 719 788
3 1260 1254 1261
3 2053 373 2103
3 2069 2068 2170
3 326 328 329
3 1706 996 2408
3 273 275 2124
3 969 1011 1012
3 590 606 2001
3 1718 1611 2280
3 1914 1940 2001
3 915 1884 2082
3 329 330 333
3 620 859 955
3 2168 1409 2305
3 296 298 1997
3 915 2082 2101
3 339 338 342
3 1218 994 1505
3 333 336 337
3 266 263 1742
3 1873 768 2127
3 244 63 2162
3 64 223 2162
3 343 342 346
3 914 761 2258
3 310 312 1987
3 799 800 2055
3 302 304 763
3 1559 1566 1568
3 1598 1343 2114
3 592 575 595
3 341 345 794
3 189 1842 2220
3 767 815 816
3 1003 912 1004
3 839 1008 1009
3 1263 1428 1429
3 564 547 570
3 1845 1334 2082
3 332 331 334
3 901 866 902
3 651 659 1963
3 1009 1112 1213
3 335 334 338
3 569 585 1993
3 1665 1336 2299
3 1945 2071 2153
3 863 862 864
3 907 906 908
3 1849 1486 1930
3 1935 1144 2080
3 967 966 968
3 809 900 2119
3 865 864 866
3 835 1989 2095
3 190 1907 2417
3 333 337 522
3 1110 1748 2228
3 1193 1194 1195
3 94 191 2166
3 473 1854 2453
3 1769 1134 2369
3 948 851 1992
3 237 170 2216
3 420 419 422
3 1448 1447 2364
3 483 576 2144
3 721 1919 2032
3 885 886 1891
3 613 611 614
3 886 1014 1891
3 1160 411 2043
3 1918 1283 2342
3 1651 206 2485
3 1242 1240 1243
3 598 596 610
3 1295 1296 1459
3 1185 1186 1948
3 1425 1449 2070
3 294 296 762
3 1285 948 1992
3 925 876 1894
3 712 714 789
3 603 1668 2398
3 1940 590 2001
3 721 570 964
3 834 735 2075
3 1144 1920 2080
3 2263 1635 2511
3 1204 1207 1335
3 2235 1408 2378
3 965 964 966
3 1990 1435 2218
3 397 398 2060
3 1138 797 2058
3 1787 1141 2368
3 2068 820 2170
3 360 359 361
3 387 462 2087
3 1524 1272 1934
3 819 698 820
3 1197 1196 1198
3 1662 2126 2388
3 78 79 2093
3 1150 588 2089
3 1269 1261 1270
3 1878 915 2101
3 451 467 2169
3 2262 1387 2437
3 1009 1008 1112
3 757 311 1959
3 897 898 1139
3 1854 473 2483
3 2015 1425 2070
3 2082 1334 2101
3 963 1115 1174
3 1047 1049 1287
3 1194 423 1196
3 321 326 2050
3 417 1160 2031
3 854 1133 1973
3 1201 1212 1348
3 705 1586 2163
3 309 319 1959
3 1353 1390 2417
3 427 428 429
3 357 356 359
3 606 650 2001
3 549 1280 2124
3 1213 1112 1407
3 256 2303 2535
3 356 365 2065
3 662 664 2040
3 701 894 2039
3 1325 1371 2451
3 666 626 667
3 1902 93 2166
3 1236 1234 1246
3 800 839 2055
3 1869 1812 2252
3 1197 1364 1365
3 576 1935 2080
3 404 408 798
3 1678 807 2529
3 1560 1564 2016
3 1319 2039 2122
3 425 426 427
3 349 356 357
3 308 310 327
3 1716 622 2484
3 1801 82 2289
3 1768 1949 2420
3 2006 1926 2507
3 351 364 2407
3 420 423 1193
3 659 764 1963
3 292 294 2038
3 840 842 2027
3 736 279 2049
3 372 373 374
3 461 449 2052
3 2189 1195 2285
3 1174 1115 1398
3 367 363 961
3 909 908 918
3 1738 247 2402
3 1007 1761 2308
3 288 290 2135
3 422 441 2035
3 623 624 690
3 537 525 545
3 1953 1421 2454
3 1887 1968 2123
3 861 691 862
3 654 439 2223
3 1136 1080 2054
3 1312 1811 2089
3 575 571 2032
3 383 361 384
3 968 1200 1201
3 797 661 2058
3 1423 1354 2381
3 1180 1178 1181
3 1513 1515 2180
3 72 73 2217
3 462 445 463
3 12 13 2136
3 457 458 469
3 542 554 555
3 599 636 760
3 254 133 1766
3 1130 1397 1937
3 404 798 2060
3 1044 1942 2071
3 690 691 860
3 357 359 360
3 1008 2027 2152
3 1232 1230 1255
3 372 370 373
3 850 943 2125
3 1457 1456 1492
3 1952 324 2282
3 155 2 2356
3 0 7 2357
3 2017 1379 2288
3 918 1851 2008
3 195 1991 2517
3 2090 803 2347
3 1244 1243 1251
3 290 292 368
3 1432 1082 2214
3 1008 840 2027
3 1743 803 2296
3 1013 844 2039
3 365 1162 2065
3 1594 1315 2184
3 387 384 388
3 1508 1860 2311
3 547 527 2056
3 2005 225 2322
3 314 317 2127
3 1853 556 2327
3 201 6 278
3 1907 1644 2417
3 1896 2101 2108
3 646 645 784
3 538 508 558
3 374 375 377
3 1630 1634 1635
3 1579 1999 2352
3 1647 1648 1849
3 1313 1314 2121
3 1179 1433 2042
3 844 701 2039
3 1252 1251 2098
3 816 876 925
3 1922 1228 2281
3 392 394 396
3 1915 654 2294
3 1652 1653 2487
3 429 430 436
3 456 475 476
3 1605 1392 2510
3 126 1882 2284
3 1784 1780 2419
3 500 453 960
3 377 378 381
3 2178 1587 2300
3 1222 1219 1626
3 413 419 420
3 381 382 400
3 2169 1836 2223
3 1906 1905 2129
3 616 614 793
3 1170 1419 2139
3 101 189 2220
3 241 100 2220
3 1968 1111 2123
3 567 434 2031
3 615 614 616
3 1032 720 1921
3 682 428 2138
3 469 470 473
3 339 440 2261
3 1501 238 2226
3 1154 1431 1653
3 446 447 457
3 1251 1243 1257
3 2229 315 2495
3 1201 1202 1212
3 785 784 879
3 464 463 465
3 66 2118 2395
3 324 332 2282
3 286 288 771
3 17 199 2081
3 571 570 721
3 611 610 2092
3 617 616 618
3 1542 1531 2332
3 400 401 424
3 1325 1326 1371
3 1140 1406 1702
3 1323 443 2302
3 1926 1573 2507
3 436 437 446
3 1262 1457 2098
3 67 190 2118
3 1518 1861 2449
3 989 1359 1360
3 1063 1082 1154
3 1757 96 2526
3 969 967 1011
3 868 836 2095
3 1215 1035 2235
3 96 1757 2309
3 261 2160 2380
3 1381 1382 2126
3 1468 1469 2182
3 1334 1317 2108
3 861 863 1064
3 1270 1261 1271
3 360 361 383
3 287 316 1978
3 1856 192 2367
3 1905 241 2129
3 1615 1809 2425
3 528 523 560
3 979 980 989
3 662 2040 2058
3 721 964 965
3 170 171 2216
3 664 799 2040
3 512 511 523
3 1201 1348 2107
3 620 618 858
3 758 289 1978
3 859 858 998
3 424 425 453
3 1616 1615 2193
3 444 301 1975
3 561 560 593
3 965 966 967
3 1798 376 2430
3 340 2014 2091
3 510 465 511
3 107 195 1990
3 1080 1188 2054
3 1153 998 1312
3 1226 1224 1249
3 1012 1011 1363
3 902 904 905
3 842 963 2027
3 268 270 1134
3 865 901 1125
3 2077 558 2102
3 282 284 442
3 1977 1679 2253
3 1496 1498 2047
3 284 286 2063
3 281 736 1938
3 2132 793 2165
3 1674 215 2437
3 2078 1855 2411
3 839 1009 2055
3 1182 824 1183
3 1168 947 1169
3 1289 1871 2242
3 316 285 1971
3 1270 1271 1272
3 1755 1793 2264
3 51 1996 2011
3 383 384 387
3 1146 1924 2215
3 1279 1928 2202
3 619 618 620
3 1194 1196 1197
3 555 578 979
3 1937 1639 2528
3 1262 1257 1263
3 389 384 2339
3 2251 1338 2464
3 1155 1887 2123
3 1151 1937 2528
3 465 463 828
3 1318 1319 2116
3 1687 1688 2231
3 326 954 2050
3 297 318 1984
3 1308 953 2255
3 1846 2056 2198
3 320 315 2229
3 1254 1252 2059
3 760 761 783
3 951 1281 2255
3 1459 1296 2094
3 2288 1638 2470
3 1975 299 1984
3 52 247 1996
3 468 338 2090
3 2140 1511 2506
3 1125 1126 1192
3 593 824 1182
3 720 708 1921
3 704 706 707
3 623 587 624
3 2044 1112 2152
3 1393 1169 1749
3 900 983 2119
3 783 914 938
3 255 2265 2489
3 2039 894 2122
3 317 2050 2127
3 1866 1867 2513
3 374 373 375
3 429 436 455
3 387 388 445
3 1193 423 1194
3 555 577 578
3 1074 977 1187
3 449 567 2052
3 1197 1198 1364
3 2154 1595 2486
3 1486 1849 2173
3 318 295 1983
3 939 1016 1844
3 131 132 2160
3 30 31 2159
3 881 1146 2215
3 1294 1868 2238
3 1300 1455 2314
3 1365 1364 1912
3 783 938 939
3 2061 1735 2441
3 551 545 601
3 2194 216 2536
3 1251 1257 1262
3 888 887 2177
3 1364 1198 2048
3 1498 1682 2340
3 1589 1590 2501
3 60 188 2266
3 1401 1913 2324
3 195 108 1991
3 420 422 423
3 1675 1470 2474
3 258 1673 2183
3 2161 1619 2438
3 1296 1472 2094
3 1808 1910 2381
3 334 803 2090
3 1490 1285 2232
3 523 511 524
3 1240 1238 2074
3 1184 1183 1185
3 39 40 2151
3 473 474 477
3 1461 1463 2200
3 2072 353 2073
3 861 862 863
3 1206 1941 2401
3 958 1575 2287
3 614 611 2092
3 110 111 2140
3 1136 2054 2110
3 645 594 2133
3 260 33 2002
3 673 767 2131
3 989 980 1359
3 1741 2131 2258
3 1317 1875 2148
3 894 1946 2122
3 863 864 865
3 787 461 2052
3 857 2277 2386
3 109 246 1991
3 2017 116 2018
3 1182 1183 1184
3 377 375 378
3 816 925 1324
3 865 866 901
3 1262 1263 1456
3 359 356 2065
3 2129 241 2472
3 283 1938 1971
3 1458 1210 2203
3 1076 1003 2145
3 196 1738 2402
3 1033 1130 1151
3 1188 1121 2106
3 1140 1702 2096
3 549 687 1280
3 1694 1621 2191
3 861 1064 2112
3 1548 1549 2129
3 1784 1071 2462
3 714 716 2066
3 1961 825 2455
3 1447 1211 2250
3 979 578 980
3 905 907 1209
3 381 378 382
3 457 469 552
3 595 575 2032
3 408 413 2084
3 481 483 2144
3 1745 1349 2293
3 1980 1405 2441
3 198 50 2011
3 248 115 2017
3 912 819 2068
3 620 858 859
3 707 708 720
3 821 674 822
3 514 542 2086
3 400 382 401
3 123 2005 2012
3 1772 1351 2374
3 34 239 2002
3 768 314 2127
3 2003 36 2004
3 280 282 2079
3 124 225 2005
3 596 595 2130
3 593 560 824
3 1504 1502 2519
3 239 35 2003
3 1311 1309 2147
3 1318 1877 2240
3 1860 1432 2311
3 1416 1715 2330
3 859 998 1153
3 352 353 2072
3 312 768 1987
3 2027 1174 2152
3 226 38 2006
3 1827 1024 2117
3 1710 1391 2295
3 690 624 691
3 37 226 2004
3 1153 1312 1885
3 853 855 2186
3 1892 242 2373
3 1967 520 2174
3 939 938 1016
3 47 249 2019
3 388 390 2078
3 1991 2139 2517
3 905 906 907
3 571 721 2032
3 1196 423 2035
3 1324 925 1325
3 1151 1130 1937
3 363 352 2072
3 345 349 2076
3 1031 1032 1033
3 214 179 1859
3 211 122 2012
3 602 601 652
3 117 205 2018
3 710 712 2067
3 1602 187 2357
3 520 2000 2174
3 85 242 2335
3 220 84 2335
3 381 400 2113
3 1586 1587 2435
3 424 401 425
3 963 1174 2027
3 860 691 861
3 610 596 2130
3 1958 2078 2431
3 570 547 2056
3 237 2216 2354
3 1211 1692 2219
3 298 358 1997
3 909 947 1041
3 441 456 2097
3 1135 1647 1849
3 1601 1542 2443
3 197 113 2009
3 49 198 2010
3 1911 347 2407
3 1729 191 2309
3 212 41 2020
3 121 211 2013
3 222 105 2218
3 1125 901 1126
3 114 248 2009
3 249 48 2010
3 42 250 2020
3 251 120 2013
3 233 1769 2369
3 1870 647 2113
3 794 345 2076
3 250 43 2024
3 119 251 2021
3 901 902 2141
3 964 570 2056
3 739 335 2261
3 2108 1317 2148
3 577 599 2083
3 205 118 2021
3 44 206 2024
3 1247 1241 2323
3 1894 992 2244
3 6 203 2049
3 1642 1678 2529
3 1417 1873 2333
3 1422 2023 2516
3 341 794 2100
3 73 74 2361
3 1234 1232 2088
3 1261 1254 2059
3 896 1077 2257
3 1921 710 2067
3 125 126 2284
3 220 1699 2289
3 159 5 2304
3 4 184 2303
3 2059 1252 2098
3 1003 1004 2145
3 2328 1325 2451
3 1486 227 1500
3 63 64 2162
3 2081 1192 2260
3 508 500 2102
3 667 1872 2318
3 338 334 2090
3 423 422 2035
3 1192 1126 1471
3 907 908 909
3 1330 1328 2192
3 1972 897 2500
3 2443 316 2514
3 242 86 2373
3 87 193 2373
3 420 1193 2084
3 1473 1086 2358
3 1987 768 2037
3 522 337 2100
3 627 1660 2185
3 1793 446 2264
3 1405 2061 2441
3 1502 1217 2302
3 171 201 2216
3 1158 1993 2153
3 1197 1365 2120
3 1712 1710 2295
3 1121 1401 2414
3 93 94 2166
3 653 652 688
3 622 1716 2452
3 1345 1720 2267
3 477 537 556
3 128 129 2181
3 2331 1295 2458
3 784 645 874
3 1269 1270 2199
3 189 102 2355
3 1041 1168 1343
3 246 110 2140
3 477 525 537
3 755 1895 2371
3 1947 1723 2313
3 1134 1135 2369
3 223 65 2395
3 968 1201 2107
3 1577 1578 2325
3 210 15 2477
3 961 363 2072
3 1581 1579 2352
3 349 357 2076
3 337 341 2100
3 305 303 2317
3 370 367 2103
3 762 296 1997
3 581 580 2164
3 1278 1838 2372
3 1548 2129 2472
3 594 593 2133
3 2021 251 2022
3 2047 1247 2182
3 967 968 2107
3 1169 947 2008
3 481 2144 2169
3 793 614 2092
3 1910 217 2381
3 1251 1262 2098
3 716 788 2066
3 2101 1334 2108
3 2006 39 2151
3 1603 2379 2508
3 1926 2006 2151
3 96 97 2526
3 750 755 2371
3 789 714 2066
3 909 918 947
3 1993 895 2153
3 106 1990 2218
3 1243 1240 2074
3 832 986 1189
3 1283 1284 2342
3 2297 195 2517
3 1043 829 2326
3 767 816 2131
3 602 653 676
3 1004 912 2068
3 2086 1886 2224
3 1124 2177 2467
3 426 401 2531
3 707 720 1030
3 1000 1001 2184
3 1315 1029 2184
3 467 481 2169
3 541 513 2256
3 647 381 2113
3 225 2284 2510
3 2 156 2356
3 187 0 2357
3 40 212 2151
3 2245 1386 2383
3 676 677 829
3 1004 2068 2069
3 1860 232 2487
3 1031 1033 1034
3 829 830 972
3 996 997 2408
3 1195 1194 2120
3 987 1869 2202
3 1410 1213 2222
3 819 820 2068
3 1485 1486 2173
3 1564 2030 2155
3 807 669 2529
3 129 261 2181
3 1525 1076 2145
3 578 577 2083
3 327 310 1987
3 1083 929 2197
3 2131 1324 2258
3 798 408 2084
3 1838 696 2426
3 1486 1500 1930
3 1946 1944 2291
3 2257 1077 2291
3 1512 1661 2266
3 445 388 2078
3 1192 1471 2260
3 2118 1415 2395
3 1466 1468 2158
3 830 677 831
3 211 2012 2251
3 652 601 2442
3 537 545 551
3 558 508 2102
3 198 2011 2128
3 1718 2280 2385
3 500 960 2102
3 1168 1169 1393
3 1127 971 2496
3 95 96 2309
3 2030 1565 2155
3 1919 1172 2273
3 977 860 2112
3 240 128 2181
3 294 762 2038
3 1800 1799 2195
3 712 789 2067
3 972 1749 2326
3 472 1683 2212
3 874 645 2133
3 551 2045 2201
3 2105 1043 2326
3 1957 1212 2301
3 1514 1856 2367
3 565 538 2167
3 373 370 2103
3 355 348 2196
3 1934 1272 2138
3 1934 426 2531
3 1881 1400 2481
3 2046 1851 2327
3 367 961 2103
3 1963 1152 2206
3 201 278 443
3 3 131 2444
3 31 1 2445
3 2035 441 2097
3 503 787 2198
3 1135 1849 1930
3 1534 1983 2306
3 2089 623 2150
3 687 704 2109
3 869 1351 2363
3 1302 1304 2205
3 955 1716 2484
3 1030 720 1031
3 1159 1318 2240
3 1228 1226 2281
3 947 918 2008
3 413 420 2084
3 785 879 2532
3 1041 947 1168
3 1468 2182 2323
3 1246 1234 2088
3 1730 1163 2372
3 542 555 2086
3 1599 631 2312
3 1146 1967 2174
3 1078 1136 2343
3 1515 1574 2180
3 2336 885 2469
3 1257 1243 2074
3 1347 1346 2279
3 2001 650 2206
3 1480 1601 2514
3 1029 1000 2184
3 1956 788 2336
3 1271 1261 2059
3 130 3 2444
3 1 32 2445
3 1570 1507 2197
3 1232 1255 2088
3 791 1642 2529
3 1601 1479 2269
3 1361 1362 2168
3 1634 1922 2281
3 765 2065 2190
3 2071 1158 2153
3 1699 1801 2289
3 832 831 833
3 1864 346 2344
3 456 476 2097
3 1855 828 2411
3 2065 1162 2190
3 1125 1192 2149
3 599 760 2083
3 361 765 2339
3 1731 2123 2241
3 1349 1181 1350
3 1443 1275 2251
3 1819 524 2429
3 1021 1045 2512
3 858 618 2132
3 1999 358 2338
3 368 292 2038
3 290 368 2135
3 803 331 2296
3 1112 1008 2152
3 56 1947 2313
3 555 979 2086
3 1469 1496 2182
3 1011 967 2107
3 248 2017 2288
3 1809 789 2425
3 960 453 2221
3 538 558 2167
3 1858 1187 2248
3 2246 1757 2526
3 902 905 2141
3 1851 1853 2327
3 1224 1222 2111
3 771 288 2135
3 1945 2153 2257
3 1420 1525 2489
3 1399 1123 2393
3 103 2025 2355
3 897 822 898
3 1861 940 2532
3 865 1125 2146
3 1675 2474 2522
3 1573 2157 2507
3 1632 1631 2382
3 551 601 602
3 527 503 2198
3 1708 805 2337
3 1059 1278 2372
3 2056 527 2198
3 860 861 2112
3 1668 2348 2398
3 255 2159 2265
3 1541 1542 2269
3 1428 2074 2227
3 1582 1583 2321
3 389 1774 2503
3 2004 226 2157
3 1777 397 2405
3 1368 1436 2254
3 1061 2409 2462
3 1071 930 2462
3 1126 901 2141
3 1194 1197 2120
3 1452 1952 2282
3 2116 1319 2482
3 105 106 2218
3 1981 1399 2393
3 2119 983 2143
3 444 1682 2461
3 2173 1648 2463
3 616 793 2132
3 1791 1190 2334
3 1826 1728 2259
3 602 652 653
3 1834 1292 2428
3 556 2201 2327
3 1014 1015 2385
3 1995 1287 2331
3 1193 1195 2189
3 816 1324 2131
3 879 1861 2532
3 593 1182 2133
3 1402 266 1742
3 2216 1323 2354
3 1660 1636 2502
3 620 955 2484
3 1162 1706 2190
3 1870 2113 2249
3 204 1680 1732
3 1909 2023 2420
3 217 72 2217
3 376 372 2430
3 905 1209 2141
3 1378 1381 2283
3 1236 1246 2227
3 286 771 2063
3 1635 2263 2502
3 100 101 2220
3 1139 898 1140
3 2114 1343 2136
3 442 284 2063
3 1772 2106 2414
3 1985 1755 2533
3 2192 1328 2315
3 1064 863 2146
3 1631 1637 2459
3 736 2049 2523
3 221 1906 2246
3 318 1983 2171
3 1496 2047 2182
3 1374 2139 2506
3 196 55 2313
3 2087 462 2134
3 676 653 677
3 2304 257 2491
3 1401 2324 2363
3 829 677 830
3 654 2223 2242
3 1187 977 2112
3 1463 1466 2200
3 2023 219 2516
3 1176 881 2215
3 513 471 2290
3 1812 459 2252
3 1386 1269 2199
3 291 758 2306
3 618 616 2132
3 278 280 2210
3 83 220 2289
3 82 83 2289
3 938 1057 2161
3 1189 986 1190
3 788 719 2336
3 1914 2001 2206
3 232 181 1652
3 1567 2062 2490
3 313 757 2495
3 622 619 2484
3 688 878 1320
3 1222 1626 2111
3 282 442 2079
3 1169 2008 2105
3 1966 1007 2308
3 2040 799 2237
3 1744 2229 2495
3 986 833 1063
3 2284 1605 2510
3 887 1961 2376
3 215 1624 2262
3 830 831 832
3 476 475 2224
3 439 451 2223
3 1932 1933 2380
3 2227 1246 2366
3 1212 1202 2301
3 1107 1110 2228
3 249 2010 2299
3 1983 293 2306
3 2055 1214 2237
3 1438 1372 2478
3 824 560 2156
3 2320 1866 2513
3 1351 1137 2374
3 868 2007 2232
3 2063 771 2064
3 1507 214 1508
3 1728 1727 2246
3 1045 1047 2348
3 1139 1140 2096
3 1648 1649 2463
3 1502 2302 2519
3 704 707 2109
3 2343 1136 2396
3 650 1963 2206
3 2153 895 2257
3 396 1958 2431
3 1379 1377 2288
3 2115 1471 2319
3 2033 987 2202
3 2239 1693 2518
3 2025 1488 2355
3 1209 2115 2319
3 523 524 2156
3 783 939 2243
3 376 1798 2497
3 2066 788 2193
3 1984 318 2172
3 425 427 2221
3 203 172 1847
3 446 457 2264
3 1312 2089 2150
3 2138 1272 2211
3 897 1139 2274
3 828 1819 2429
3 1249 1224 2111
3 666 667 2318
3 1371 1326 2194
3 2433 1499 2475
3 1272 1271 2211
3 1367 2254 2479
3 1386 2053 2383
3 2074 1238 2227
3 755 2148 2320
3 2117 1604 2428
3 475 514 2224
3 228 2187 2457
3 1868 1504 2520
3 1626 1218 2185
3 2123 1111 2241
3 1287 1049 2331
3 1280 687 2109
3 459 1814 2292
3 54 196 2402
3 863 865 2146
3 204 176 1680
3 514 2086 2224
3 1646 603 2398
3 112 197 2346
3 358 300 2338
3 1140 898 1141
3 1204 1335 2301
3 1016 2161 2438
3 909 1041 2175
3 1681 2448 2492
3 2252 459 2292
3 1992 868 2232
3 1035 1036 2235
3 1051 1295 2331
3 1836 1289 2242
3 1508 214 1859
3 247 53 2402
3 1016 938 2161
3 1408 856 2378
3 1466 2158 2200
3 725 885 2336
3 855 1450 2421
3 2023 1768 2420
3 1238 1236 2227
3 1679 202 2253
3 2107 1348 2233
3 1653 1431 2487
3 1946 2291 2343
3 2253 202 2329
3 1885 1312 2150
3 378 628 2390
3 2195 1383 2432
3 1520 1519 2480
3 1532 1733 2534
3 308 327 2278
3 953 951 2255
3 1213 1407 2222
3 1561 1563 2285
3 302 763 2338
3 1928 2033 2202
3 763 304 2345
3 832 833 986
3 1352 2040 2237
3 247 1881 2481
3 560 523 2156
3 335 339 2261
3 346 342 2344
3 201 443 1323
3 2301 1335 2466
3 323 320 2229
3 1136 2110 2396
3 1139 1977 2274
3 1809 1615 2423
3 1707 1791 2334
3 46 2019 2485
3 2064 1294 2238
3 1950 197 2404
3 2021 2022 2176
3 1949 245 2420
3 2044 2152 2207
3 1063 1154 1707
3 1012 1363 2406
3 280 2079 2210
3 2237 1214 2351
3 820 698 2318
3 1140 1141 1406
3 205 2021 2176
3 2043 786 2310
3 2145 1004 2446
3 707 1030 2109
3 1406 2460 2473
3 2137 1268 2226
3 16 2081 2260
3 567 2031 2219
3 2112 1064 2248
3 206 45 2485
3 2347 1462 2365
3 1650 1962 2362
3 453 425 2221
3 1209 907 2175
3 1111 1276 2241
3 2448 1145 2492
3 2051 2083 2243
3 59 60 2266
3 1402 1742 2530
3 831 677 2209
3 624 587 2276
3 238 174 1725
3 1011 2107 2233
3 468 2365 2412
3 2337 805 2371
3 254 1932 2380
3 1174 1398 2207
3 2140 111 2346
3 1381 2186 2283
3 1987 2037 2188
3 1740 559 2456
3 1773 391 2503
3 1335 1870 2249
3 1945 2257 2291
3 828 463 2411
3 1246 2088 2208
3 2060 798 2307
3 1773 1159 2240
3 1187 2112 2248
3 1352 2237 2351
3 2037 1322 2188
3 1941 1499 2433
3 2322 225 2510
3 1031 1034 2236
3 327 2188 2321
3 595 2032 2273
3 1464 1462 2347
3 1285 1992 2232
3 799 2055 2237
3 443 278 2210
3 784 874 2178
3 392 396 2431
3 191 95 2309
3 879 784 2178
3 524 511 2429
3 2128 2011 2270
3 895 896 2257
3 2206 1152 2324
3 318 2171 2172
3 2259 1549 2379
3 1214 1410 2351
3 306 308 2278
3 2022 251 2247
3 1757 1729 2309
3 1283 1918 2524
3 996 1706 2492
3 557 2044 2207
3 1798 1448 2364
3 1447 2250 2310
3 559 1750 2403
3 1363 1011 2233
3 1343 1168 2187
3 1407 2044 2256
3 1462 1460 2365
3 1995 2331 2458
3 327 1987 2188
3 2160 254 2380
3 1681 958 2287
3 2031 1160 2250
3 1600 689 2413
3 2219 1692 2239
3 1494 1675 2522
3 1281 1916 2448
3 907 909 2175
3 565 2167 2276
3 2241 1276 2275
3 1978 316 2443
3 2151 212 2350
3 203 1847 2104
3 2049 1481 2523
3 1961 1362 2376
3 2187 1393 2457
3 940 796 2532
3 2293 1349 2329
3 572 1897 2537
3 332 739 2282
3 2052 567 2239
3 1437 1370 2277
3 567 2219 2239
3 667 626 2452
3 1914 2206 2324
3 2243 939 2392
3 2136 1343 2187
3 257 1654 2530
3 1376 1378 2283
3 2076 1982 2272
3 2083 760 2243
3 1944 1945 2291
3 1771 1839 2359
3 1404 1403 2399
3 1875 1866 2320
3 1460 1337 2412
3 760 783 2243
3 1276 1366 2275
3 1428 2227 2366
3 1882 1605 2284
3 1739 1429 2459
3 2321 2188 2434
3 1328 1327 2315
3 798 2189 2307
3 2152 1174 2207
3 2182 1247 2323
3 1516 1514 2367
3 293 291 2306
3 556 537 2201
3 1298 1300 2314
3 1400 1399 2316
3 1649 2236 2463
3 833 831 2424
3 2127 2050 2333
3 1057 914 2328
3 1839 193 2359
3 761 1741 2258
3 1186 1970 2422
3 1429 2366 2382
3 2211 1271 2271
3 1733 1248 2534
3 13 2114 2136
3 2078 390 2431
3 1533 1536 2340
3 1690 2145 2446
3 1277 2308 2370
3 1168 1393 2187
3 1597 2047 2268
3 587 565 2276
3 1908 244 2401
3 225 125 2284
3 610 2130 2468
3 1749 2105 2326
3 1913 1914 2324
3 2366 2208 2382
3 1391 1876 2295
3 457 552 2264
3 653 688 2209
3 1601 2443 2514
3 682 2138 2211
3 992 1980 2244
3 55 56 2313
3 1645 1495 2493
3 473 477 2483
3 202 1724 2329
3 465 828 2429
3 1277 1966 2308
3 1416 2330 2406
3 1912 1364 2455
3 1716 1483 2375
3 2019 1651 2485
3 1725 2137 2226
3 201 1323 2216
3 878 1083 2213
3 2072 2073 2245
3 1563 1777 2405
3 244 2028 2401
3 2016 1564 2422
3 1682 1497 2461
3 1962 1153 2362
3 1298 2314 2358
3 1384 1385 2391
3 688 1320 2209
3 1587 2179 2435
3 786 380 2497
3 1395 1522 2341
3 2032 1919 2273
3 251 2013 2247
3 2219 2031 2250
3 2397 552 2453
3 1765 255 2489
3 2475 1825 2524
3 1202 1204 2301
3 445 2078 2411
3 323 2229 2296
3 1286 2384 2408
3 537 551 2201
3 1724 237 2293
3 84 85 2335
3 1471 1126 2319
3 1635 1634 2511
3 300 302 2338
3 698 666 2318
3 1030 1031 2236
3 2098 1457 2271
3 696 1821 2426
3 1457 1492 2447
3 1956 2336 2469
3 331 323 2296
3 1284 1491 2342
3 2011 1996 2270
3 256 183 2303
3 160 257 2304
3 2204 1589 2501
3 1891 1014 2280
3 719 725 2336
3 1354 1808 2381
3 437 430 2494
3 2377 218 2391
3 2211 2271 2447
3 1407 2256 2290
3 2365 1460 2412
3 2047 1498 2268
3 1825 1283 2524
3 1499 1825 2475
3 1226 1249 2281
3 2051 2243 2392
3 2250 1160 2310
3 111 112 2346
3 304 306 2345
3 1341 1352 2351
3 2166 191 2504
3 2223 1836 2242
3 1996 247 2481
3 1049 1051 2331
3 1086 1298 2358
3 2130 595 2273
3 1249 2111 2263
3 680 1995 2458
3 1511 2140 2346
3 102 103 2355
3 469 473 2453
3 961 2072 2245
3 2073 1282 2245
3 1442 1443 2525
3 74 192 2361
3 2163 1586 2435
3 1519 1518 2449
3 897 2274 2500
3 303 444 2317
3 1615 1614 2423
3 197 2009 2404
3 1634 2281 2511
3 1780 1781 2419
3 1435 1623 2465
3 1286 1774 2384
3 384 361 2339
3 193 1901 2359
3 1165 2433 2475
3 2277 1370 2386
3 677 653 2209
3 1994 1516 2367
3 1479 1478 2440
3 1165 1512 2433
3 1644 1353 2417
3 1711 1712 2353
3 2193 1615 2425
3 1613 1956 2469
3 1440 1173 2330
3 2269 1479 2440
3 222 2218 2465
3 391 389 2503
3 306 2278 2345
3 468 2090 2365
3 221 2246 2526
3 1445 1446 2504
3 939 1844 2392
3 86 87 2373
3 1429 1428 2366
3 2053 2103 2383
3 1348 1212 2312
3 805 750 2371
3 997 1286 2408
3 1152 869 2363
3 2063 2064 2238
3 192 1994 2367
3 1160 2043 2310
3 1926 2151 2350
3 2059 2098 2271
3 1897 1366 2537
3 215 2262 2437
3 1655 1732 2476
3 2415 1128 2454
3 1320 2213 2214
3 7 258 2357
3 259 155 2356
3 2171 1530 2172
3 347 351 2407
3 1077 1078 2343
3 239 2003 2279
3 1446 1128 2415
3 1034 1033 2410
3 601 627 2442
3 1154 1653 2234
3 397 2060 2405
3 2142 794 2272
3 442 2063 2238
3 1863 1215 2378
3 794 2076 2272
3 1883 1375 2505
3 1320 878 2213
3 342 468 2344
3 1903 218 2377
3 380 376 2497
3 1549 1547 2379
3 1148 1165 2475
3 2157 226 2507
3 829 972 2326
3 884 1957 2466
3 2291 1077 2343
3 65 66 2395
3 787 2052 2518
3 2298 1348 2312
3 1946 2343 2396
3 1653 256 2535
3 1842 1548 2472
3 1957 2301 2466
3 1366 1277 2370
3 2213 1432 2214
3 961 2245 2383
3 218 2093 2391
3 1376 2283 2421
3 1873 2127 2333
3 1019 1021 2512
3 1128 1127 2454
3 1104 1434 2450
3 2130 1439 2468
3 2396 2110 2482
3 2186 855 2283
3 1724 2293 2329
3 1163 1059 2372
3 1614 2389 2423
3 53 54 2402
3 1063 1707 2334
3 2283 855 2421
3 1385 1863 2436
3 364 1883 2505
3 517 1890 2387
3 1145 996 2492
3 1047 1287 2348
3 2148 1875 2320
3 205 2176 2416
3 1372 1844 2478
3 1211 2219 2250
3 1141 898 2368
3 245 1909 2420
3 2278 327 2321
3 2389 1397 2423
3 2256 513 2290
3 559 2403 2456
3 1137 1340 2374
3 2093 1384 2391
3 1918 1148 2524
3 1030 2236 2427
3 1867 1895 2513
3 2014 517 2387
3 2271 1457 2447
3 1143 2028 2353
3 1904 194 2432
3 1148 2475 2524
3 1574 1523 2436
3 2213 1083 2311
3 1997 358 2325
3 2139 246 2506
3 1370 1369 2386
3 1271 2059 2271
3 1034 2173 2463
3 1123 1412 2393
3 1578 1827 2515
3 2209 1320 2424
3 2079 1504 2210
3 1361 2168 2305
3 1491 1489 2403
3 238 1725 2226
3 1190 986 2334
3 1547 1545 2508
3 1891 1613 2469
3 1153 1885 2362
3 2208 1632 2382
3 2287 1281 2448
3 1356 1376 2421
3 1965 2349 2515
3 2155 1186 2422
3 1522 2014 2387
3 2158 1468 2323
3 2050 954 2333
3 1397 1809 2423
3 1362 1360 2376
3 1852 1985 2397
3 2069 1691 2446
3 789 2066 2425
3 1895 755 2513
3 1707 1154 2234
3 372 374 2430
3 2225 787 2518
3 2028 1206 2401
3 986 1063 2334
3 1912 726 2439
3 1340 1342 2400
3 1916 1145 2448
3 2236 1649 2427
3 2374 1340 2400
3 2222 1407 2290
3 2324 1152 2363
3 241 2220 2472
3 765 2190 2384
3 2375 667 2452
3 2330 1173 2406
3 1181 1972 2500
3 2126 1382 2388
3 1173 1012 2406
3 315 313 2495
3 1015 1373 2385
3 97 221 2526
3 1937 1397 2389
3 930 1061 2462
3 971 1096 2496
3 45 46 2485
3 669 791 2529
3 1104 2450 2521
3 382 378 2390
3 2191 1371 2536
3 2235 1036 2286
3 831 2209 2424
3 762 1997 2349
3 2379 1547 2508
3 2177 1359 2467
3 2403 1489 2456
3 796 785 2532
3 219 1902 2516
3 1519 2300 2480
3 1065 1655 2476
3 1375 1473 2505
3 1489 1490 2456
3 390 392 2431
3 2247 2013 2464
3 1135 1930 2369
3 2278 1583 2345
3 626 622 2452
3 631 2298 2312
3 2233 1348 2298
3 1398 1974 2499
3 1706 1681 2492
3 261 130 2444
3 32 260 2445
3 822 2099 2368
3 1365 1912 2439
3 941 940 2418
3 1446 2166 2504
3 2106 1121 2414
3 2300 1519 2449
3 1803 1104 2521
3 1732 1570 2476
3 1413 2051 2392
3 2122 1946 2396
3 2238 1868 2520
3 477 556 2483
3 2397 1985 2533
3 463 445 2411
3 2163 1185 2488
3 1126 2141 2319
3 1755 2264 2533
3 972 2204 2501
3 2230 1533 2340
3 1774 1773 2503
3 1997 2325 2349
3 1004 2069 2446
3 2159 31 2445
3 131 2160 2444
3 1371 2191 2451
3 1001 2154 2486
3 1682 2230 2340
3 2103 961 2383
3 1033 1151 2410
3 382 2390 2531
3 1504 2079 2520
3 1583 2278 2321
3 511 465 2429
3 250 2024 2479
3 2208 2088 2509
3 619 620 2484
3 1246 2208 2366
3 2141 1209 2319
3 1359 1413 2467
3 1295 1459 2458
3 2218 1435 2465
3 2281 1249 2511
3 2293 237 2354
3 2207 1398 2499
3 1564 2155 2422
3 552 469 2453
3 1947 224 2498
3 2062 1568 2490
3 2018 205 2416
3 260 2159 2445
3 2160 261 2444
3 2092 610 2468
3 194 2195 2432
3 1432 2213 2311
3 211 2251 2464
3 2378 856 2527
3 1536 1532 2534
3 2364 786 2497
3 2438 1438 2478
3 1185 1948 2488
3 2042 941 2418
3 1582 2321 2434
3 885 1891 2469
3 1364 2048 2455
3 1693 2225 2518
3 401 382 2531
3 1338 2247 2464
3 442 2238 2520
3 1292 2117 2428
3 2274 1350 2500
3 2066 2193 2425
3 2179 1184 2435
3 898 822 2368
3 2436 1863 2527
3 1844 1016 2478
3 2184 1001 2486
3 557 2207 2499
3 2013 211 2464
3 2254 250 2479
3 1350 1181 2500
3 2009 248 2470
3 246 2140 2506
3 1574 2436 2527
3 2139 1419 2517
3 316 1971 2514
3 1319 2122 2482
3 226 2006 2507
3 1400 2270 2481
3 1681 2287 2448
3 2325 1578 2349
3 232 1652 2487
3 1320 2214 2424
3 1632 2208 2509
3 248 2288 2470
3 1406 1141 2460
3 2188 1322 2434
3 2244 1980 2441
3 2088 1255 2509
3 1280 2109 2427
3 2060 2307 2405
3 2236 1034 2463
3 1745 2293 2354
3 2122 2396 2482
3 2109 1030 2427
3 2307 1563 2405
3 1429 2382 2459
3 224 2267 2498
3 682 2211 2447
3 2079 442 2520
3 2348 1287 2398
3 2220 1842 2472
3 1335 2249 2466
3 1249 2263 2511
3 443 2210 2519
3 2385 1373 2394
3 1594 2184 2486
3 2052 2239 2518
3 1568 2439 2490
3 2349 1578 2515
3 2344 468 2412
3 2270 1996 2481
3 1735 2244 2441
3 2260 1471 2477
3 2210 1504 2519
3 1434 2297 2450
3 2297 1419 2450
3 2263 1660 2502
3 2404 2009 2470
3 1718 2385 2394
3 1371 2194 2536
3 2317 444 2461
3 1443 2322 2525
3 1716 2375 2452
3 1863 2378 2527
3 2439 726 2490
3 1057 2328 2451
3 1638 2404 2470
3 1454 2234 2535
3 755 2320 2513
3 2234 1653 2535
3 2264 552 2533
3 1419 2297 2517
3 1392 2322 2510
3 552 2397 2533
3 1798 2364 2497
3 2322 1392 2525
3 2382 1631 2459
3 1016 2438 2478
3 1366 2370 2537
3 1742 2491 2530
3 2491 257 2530
CELL_TYPES 4886
5
5
5
5
5
5
5
5
5
5
5
5
5
5
5
5
5
5
5
5
5
5
5
5
5
5
5
5
5
5
5
5
5
5
5
5
5
5
5
5
5
5
5
5
5
5
5
5
5
5
5
5
5
5
5
5
5
5
5
5
5
5
5
5
5
5
5
5
5
5
5
5
5
5
5
5
5
5
5
5
5
5
5
5
5
5
5
5
5
5
5
5
5
5
5
5
5
5
5
5
5
5
5
5
5
5
5
5
5
5
5
5
5
5
5
5
5
5
5
5
5
5
5
5
5
5
5
5
5
5
5
5
5
5
5
5
5
5
5
5
5
5
5
5
5
5
5
5
5
5
5
5
5
5
5
5
5
5
5
5
5
5
5
5
5
5
5
5
5
5
5
5
5
5
5
5
5
5
5
5
5
5
5
5
5
5
5
5
5
5
5
5
5
5
5
5
5
5
5
5
5
5
5
5
5
5
5
5
5
5
5
5
5
5
5
5
5
5
5
5
5
5
5
5
5
5
5
5
5
5
5
5
5
5
5
5
5
5
5
5
5
5
5
5
5
5
5
5
5
5
5
5
5
5
5
5
5
5
5
5
5
5
5
5
5
5
5
5
5
5
5
5
5
5
5
5
5
5
5
5
5
5
5
5
5
5
5
5
5
5
5
5
5
5
5
5
5
5
5
5
5
5
5
5
5
5
5
5
5
5
5
5
5
5
5
5
5
5
5
5
5
5
5
5
5
5
5
5
5
5
5
5
5
5
5
5
5
5
5
5
5
5
5
5
5
5
5
5
5
5
5
5
5
5
5
5
5
5
5
5
5
5
5
5
5
5
5
5
5
5
5
5
5
5
5
5
5
5
5
5
5
5
5
5
5
5
5
5
5
5
5
5
5
5
5
5
5
5
5
5
5
5
5
5
5
5
5
5
5
5
5
5
5
5
5
5
5
5
5
5
5
5
5
5
5
5
5
5
5
5
5
5
5
5
5
5
5
5
5
5
5
5
5
5
5
5
5
5
5
5
5
5
5
5
5
5
5
5
5
5
5
5
5
5
5
5
5
5
5
5
5
5
5
5
5
5
5
5
5
5
5
5
5
5
5
5
5
5
5
5
5
5
5
5
5
5
5
5
5
5
5
5
5
5
5
5
5
5
5
5
5
5
5
5
5
5
5
5
5
5
5
5
5
5
5
5
5
5
5
5
5
5
5
5
5
5
5
5
5
5
5
5
5
5
5
5
5
5
5
5
5
5
5
5
5
5
5
5
5
5
5
5
5
5
5
5
5
5
5
5
5
5
5
5
5
5
5
5
5
5
5
5
5
5
5
5
5
5
5
5
5
5
5
5
5
5
5
5
5
5
5
5
5
5
5
5
5
5
5
5
5
5
5
5
5
5
5
5
5
5
5
5
5
5
5
5
5
5
5
5
5
5
5
5
5
5
5
5
5
5
5
5
5
5
5
5
5
5
5
5
5
5
5
5
5
5
5
5
5
5
5
5
5
5
5
5
5
5
5
5
5
5
5
5
5
5
5
5
5
5
5
5
5
5
5
5
5
5
5
5
5
5
5
5
5
5
5
5
5
5
5
5
5
5
5
5
5
5
5
5
5
5
5
5
5
5
5
5
5
5
5
5
5
5
5
5
5
5
5
5
5
5
5
5
5
5
5
5
5
5
5
5
5
5
5
5
5
5
5
5
5
5
5
5
5
5
5
5
5
5
5
5
5
5
5
5
5
5
5
5
5
5
5
5
5
5
5
5
5
5
5
5
5
5
5
5
5
5
5
5
5
5
5
5
5
5
5
5
5
5
5
5
5
5
5
5
5
5
5
5
5
5
5
5
5
5
5
5
5
5
5
5
5
5
5
5
5
5
5
5
5
5
5
5
5
5
5
5
5
5
5
5
5
5
5
5
5
5
5
5
5
5
5
5
5
5
5
5
5
5
5
5
5
5
5
5
5
5
5
5
5
5
5
5
5
5
5
5
5
5
5
5
5
5
5
5
5
5
5
5
5
5
5
5
5
5
5
5
5
5
5
5
5
5
5
5
5
5
5
5
5
5
5
5
5
5
5
5
5
5
5
5
5
5
5
5
5
5
5
5
5
5
5
5
5
5
5
5
5
5
5
5
5
5
5
5
5
5
5
5
5
5
5
5
5
5
5
5
5
5
5
5
5
5
5
5
5
5
5
5
5
5
5
5
5
5
5
5
5
5
5
5
5
5
5
5
5
5
5
5
5
5
5
5
5
5
5
5
5
5
5
5
5
5
5
5
5
5
5
5
5
5
5
5
5
5
5
5
5
5
5
5
5
5
5
5
5
5
5
5
5
5
5
5
5
5
5
5
5
5
5
5
5
5
5
5
5
5
5
5
5
5
5
5
5
5
5
5
5
5
5
5
5
5
5
5
5
5
5
5
5
5
5
5
5
5
5
5
5
5
5
5
5
5
5
5
5
5
5
5
5
5
5
5
5
5
5
5
5
5
5
5
5
5
5
5
5
5
5
5
5
5
5
5
5
5
5
5
5
5
5
5
5
5
5
5
5
5
5
5
5
5
5
5
5
5
5
5
5
5
5
5
5
5
5
5
5
5
5
5
5
5
5
5
5
5
5
5
5
5
5
5
5
5
5
5
5
5
5
5
5
5
5
5
5
5
5
5
5
5
5
5
5
5
5
5
5
5
5
5
5
5
5
5
5
5
5
5
5
5
5
5
5
5
5
5
5
5
5
5
5
5
5
5
5
5
5
5
5
5
5
5
5
5
5
5
5
5
5
5
5
5
5
5
5
5
5
5
5
5
5
5
5
5
5
5
5
5
5
5
5
5
5
5
5
5
5
5
5
5
5
5
5
5
5
5
5
5
5
5
5
5
5
5
5
5
5
5
5
5
5
5
5
5
5
5
5
5
5
5
5
5
5
5
5
5
5
5
5
5
5
5
5
5
5
5
5
5
5
5
5
5
5
5
5
5
5
5
5
5
5
5
5
5
5
5
5
5
5
5
5
5
5
5
5
5
5
5
5
5
5
5
5
5
5
5
5
5
5
5
5
5
5
5
5
5
5
5
5
5
5
5
5
5
5
5
5
5
5
5
5
5
5
5
5
5
5
5
5
5
5
5
5
5
5
5
5
5
5
5
5
5
5
5
5
5
5
5
5
5
5
5
5
5
5
5
5
5
5
5
5
5
5
5
5
5
5
5
5
5
5
5
5
5
5
5
5
5
5
5
5
5
5
5
5
5
5
5
5
5
5
5
5
5
5
5
5
5
5
5
5
5
5
5
5
5
5
5
5
5
5
5
5
5
5
5
5
5
5
5
5
5
5
5
5
5
5
5
5
5
5
5
5
5
5
5
5
5
5
5
5
5
5
5
5
5
5
5
5
5
5
5
5
5
5
5
5
5
5
5
5
5
5
5
5
5
5
5
5
5
5
5
5
5
5
5
5
5
5
5
5
5
5
5
5
5
5
5
5
5
5
5
5
5
5
5
5
5
5
5
5
5
5
5
5
5
5
5
5
5
5
5
5
5
5
5
5
5
5
5
5
5
5
5
5
5
5
5
5
5
5
5
5
5
5
5
5
5
5
5
5
5
5
5
5
5
5
5
5
5
5
5
5
5
5
5
5
5
5
5
5
5
5
5
5
5
5
5
5
5
5
5
5
5
5
5
5
5
5
5
5
5
5
5
5
5
5
5
5
5
5
5
5
5
5
5
5
5
5
5
5
5
5
5
5
5
5
5
5
5
5
5
5
5
5
5
5
5
5
5
5
5
5
5
5
5
5
5
5
5
5
5
5
5
5
5
5
5
5
5
5
5
5
5
5
5
5
5
5
5
5
5
5
5
5
5
5
5
5
5
5
5
5
5
5
5
5
5
5
5
5
5
5
5
5
5
5
5
5
5
5
5
5
5
5
5
5
5
5
5
5
5
5
5
5
5
5
5
5
5
5
5
5
5
5
5
5
5
5
5
5
5
5
5
5
5
5
5
5
5
5
5
5
5
5
5
5
5
5
5
5
5
5
5
5
5
5
5
5
5
5
5
5
5
5
5
5
5
5
5
5
5
5
5
5
5
5
5
5
5
5
5
5
5
5
5
5
5
5
5
5
5
5
5
5
5
5
5
5
5
5
5
5
5
5
5
5
5
5
5
5
5
5
5
5
5
5
5
5
5
5
5
5
5
5
5
5
5
5
5
5
5
5
5
5
5
5
5
5
5
5
5
5
5
5
5
5
5
5
5
5
5
5
5
5
5
5
5
5
5
5
5
5
5
5
5
5
5
5
5
5
5
5
5
5
5
5
5
5
5
5
5
5
5
5
5
5
5
5
5
5
5
5
5
5
5
5
5
5
5
5
5
5
5
5
5
5
5
5
5
5
5
5
5
5
5
5
5
5
5
5
5
5
5
5
5
5
5
5
5
5
5
5
5
5
5
5
5
5
5
5
5
5
5
5
5
5
5
5
5
5
5
5
5
5
5
5
5
5
5
5
5
5
5
5
5
5
5
5
5
5
5
5
5
5
5
5
5
5
5
5
5
5
5
5
5
5
5
5
5
5
5
5
5
5
5
5
5
5
5
5
5
5
5
5
5
5
5
5
5
5
5
5
5
5
5
5
5
5
5
5
5
5
5
5
5
5
5
5
5
5
5
5
5
5
5
5
5
5
5
5
5
5
5
5
5
5
5
5
5
5
5
5
5
5
5
5
5
5
5
5
5
5
5
5
5
5
5
5
5
5
5
5
5
5
5
5
5
5
5
5
5
5
5
5
5
5
5
5
5
5
5
5
5
5
5
5
5
5
5
5
5
5
5
5
5
5
5
5
5
5
5
5
5
5
5
5
5
5
5
5
5
5
5
5
5
5
5
5
5
5
5
5
5
5
5
5
5
5
5
5
5
5
5
5
5
5
5
5
5
5
5
5
5
5
5
5
5
5
5
5
5
5
5
5
5
5
5
5
5
5
5
5
5
5
5
5
5
5
5
5
5
5
5
5
5
5
5
5
5
5
5
5
5
5
5
5
5
5
5
5
5
5
5
5
5
5
5
5
5
5
5
5
5
5
5
5
5
5
5
5
5
5
5
5
5
5
5
5
5
5
5
5
5
5
5
5
5
5
5
5
5
5
5
5
5
5
5
5
5
5
5
5
5
5
5
5
5
5
5
5
5
5
5
5
5
5
5
5
5
5
5
5
5
5
5
5
5
5
5
5
5
5
5
5
5
5
5
5
5
5
5
5
5
5
5
5
5
5
5
5
5
5
5
5
5
5
5
5
5
5
5
5
5
5
5
5
5
5
5
5
5
5
5
5
5
5
5
5
5
5
5
5
5
5
5
5
5
5
5
5
5
5
5
5
5
5
5
5
5
5
5
5
5
5
5
5
5
5
5
5
5
5
5
5
5
5
5
5
5
5
5
5
5
5
5
5
5
5
5
5
5
5
5
5
5
5
5
5
5
5
5
5
5
5
5
5
5
5
5
5
5
5
5
5
5
5
5
5
5
5
5
5
5
5
5
5
5
5
5
5
5
5
5
5
5
5
5
5
5
5
5
5
5
5
5
5
5
5
5
5
5
5
5
5
5
5
5
5
5
5
5
5
5
5
5
5
5
5
5
5
5
5
5
5
5
5
5
5
5
5
5
5
5
5
5
5
5
5
5
5
5
5
5
5
5
5
5
5
5
5
5
5
5
5
5
5
5
5
5
5
5
5
5
5
5
5
5
5
5
5
5
5
5
5
5
5
5
5
5
5
5
5
5
5
5
5
5
5
5
5
5
5
5
5
5
5
5
5
5
5
5
5
5
5
5
5
5
5
5
5
5
5
5
5
5
5
5
5
5
5
5
5
5
5
5
5
5
5
5
5
5
5
5
5
5
5
5
5
5
5
5
5
5
5
5
5
5
5
5
5
5
5
5
5
5
5
5
5
5
5
5
5
5
5
5
5
5
5
5
5
5
5
5
5
5
5
5
5
5
5
5
5
5
5
5
5
5
5
5
5
5
5
5
5
5
5
5
5
5
5
5
5
5
5
5
5
5
5
5
5
5
5
5
5
5
5
5
5
5
5
5
5
5
5
5
5
5
5
5
5
5
5
5
5
5
5
5
5
5
5
5
5
5
5
5
5
5
5
5
5
5
5
5
5
5
5
5
5
5
5
5
5
5
5
5
5
5
5
5
5
5
5
5
5
5
5
5
5
5
5
5
5
5
5
5
5
5
5
5
5
5
5
5
5
5
5
5
5
5
5
5
5
5
5
5
5
5
5
5
5
5
5
5
5
5
5
5
5
5
5
5
5
5
5
5
5
5
5
5
5
5
5
5
5
5
5
5
5
5
5
5
5
5
5
5
5
5
5
5
5
5
5
5
5
5
5
5
5
5
5
5
5
5
5
5
5
5
5
5
5
5
5
5
5
5
5
5
5
5
5
5
5
5
5
5
5
5
5
5
5
5
5
5
5
5
5
5
5
5
5
5
5
5
5
5
5
5
5
5
5
5
5
5
5
5
5
5
5
5
5
5
5
5
5
5
5
5
5
5
5
5
5
5
5
5
5
5
5
5
5
5
5
5
5
5
5
5
5
5
5
5
5
5
5
5
5
5
5
5
5
5
5
5
5
5
5
5
5
5
5
5
5
5
5
5
5
5
5
5
5
5
5
5
5
5
5
5
5
5
5
5
5
5
5
5
5
5
5
5
5
5
5
5
5
5
5
5
5
5
5
5
5
5
5
5
5
5
5
5
5
5
5
5
5
5
5
5
5
5
5
5
5
5
5
5
5
5
5
5
5
5
5
5
5
5
5
5
5
5
5
5
5
5
5
5
5
5
5
5
5
5
5
5
5
5
5
5
5
5
5
5
5
5
5
5
5
5
5
5
5
5
5
5
5
5
5
5
5
5
5
5
5
5
5
5
5
5
5
5
5
5
5
5
5
5
5
5
5
5
5
5
5
5
5
5
5
5
5
5
5
5
5
5
5
5
5
5
5
5
5
5
5
5
5
5
5
5
5
5
5
5
5
5
5
5
5
5
5
5
5
5
5
5
5
5
5
5
5
5
5
5
5
5
5
5
5
5
5
5
5
5
5
5
5
5
5
5
5
5
5
5
5
5
5
5
5
5
5
5
5
5
5
5
5
5
5
5
5
5
5
5
5
5
5
5
5
5
5
5
5
5
5
5
5
5
5
5
5
5
5
5
5
5
5
5
5
5
5
5
5
5
5
5
5
5
5
5
5
5
5
5
5
5
5
5
5
5
5
5
5
5
5
5
5
5
5
5
5
5
5
5
5
5
5
5
5
5
5
5
5
5
5
5
5
5
5
5
5
5
5
5
5
5
5
5
5
5
5
5
5
5
5
5
5
5
5
5
5
5
5
5
5
5
5
5
5
5
5
5
5
5
5
5
5
5
5
5
5
5
5
5
5
5
5
5
5
5
5
5
5
5
5
5
5
5
5
5
5
5
5
5
5
5
5
5
5
5
5
5
5
5
5
5
5
5
5
5
5
5
5
5
5
5
5
5
5
5
5
5
5
5
5
5
5
5
5
5
5
5
5
5
5
5
5
5
5
5
5
5
5
5
5
5
5
5
5
5
5
5
5
5
5
5
5
5
5
5
5
5
5
5
5
5
5
5
5
5
5
5
5
5
5
5
5
5
5
5
5
5
5
5
5
5
5
5
5
5
5
5
5
5
5
5
5
5
5
5
5
5
5
5
5
5
5
5
5
5
5
5
5
5
5
5
5
5
5
5
5
5
5
5
5
5
5
5
5
5
5
5
5
5
5
5
5
5
5
5
5
5
5
5
5
5
5
5
5
5
5
5
5
5
5
5
5
5
5
5
5
5
5
5
5
5
5
5
5
5
5
5
5
5
5
5
5
5
5
5
5
5
5
5
5
5
5
5
5
5
5
5
5
5
5
5
5
5
5
5
5
5
5
5
5
5
5
5
5
5
5
5
5
5
5
5
5
5
5
5
5
5
5
5
5
5
5
5
5
5
5
5
5
5
5
5
5
5
5
5
5
5
5
5
5
5
5
5
5
5
5
5
5
5
5
5
5
5
5
5
5
5
5
5
5
5
5
5
5
5
5
5
5
5
5
5
5
5
5
5
5
5
5
5
5
5
5
5
5
5
5
5
5
5
5
5
5
5
5
5
5
5
5
5
5
5
5
5
5
5
5
5
5
5
5
5
5
5
5
5
5
5
5
5
5
5
5
5
5
5
5
5
5
5
5
5
5
5
5
5
5
5
5
5
5
5
5
5
5
5
5
5
5
5
5
5
5
5
5
5
5
5
5
5
5
5
5
5
5
5
5
5
5
5
5
5
5
5
5
5
5
5
5
5
5
5
5
5
5
5
5
5
5
5
5
5
5
5
5
5
5
5
5
5
5
5
5
5
5
5
5
5
5
5
5
5
5
5
5
5
5
5
5
5
5
5
5
5
5
5
5
5
5
5
5
5
5
5
5
5
5
5
5
5
5
5
5
5
5
5
5
5
5
5
5
5
5
5
5
5
5
5
5
5
5
5
5
5
5
5
5
5
5
5
5
5
5
5
5
5
5
5
5
5
5
5
5
5
5
5
5
5
5
5
5
5
5
5
5
5
5
5
5
5
5
5
5
5
5
5
5
5
5
5
5
5
5
5
5
5
5
5
5
5
5
5
5
5
5
5
5
5
5
5
5
5
5
5
5
5
5
5
5
5
5
5
5
5
5
5
5
5
5
5
5
5
5
5
5
5
5
5
5
5
5
5
5
5
5
5
5
5
5
5
5
5
5
5
5
5
5
5
5
5
5
5
5
5
5
5
5
5
5
5
5
5
5
5
5
5
5
5
5
5
5
5
5
5
5
5
5
5
5
5
5
5
5
5
5
5
5
5
5
5
5
5
5
5
5
5
5
5
5
5
5
5
5
5
5
5
5
5
5
5
5
5
5
5
5
5
5
5
5
5
5
5
5
5
5
5
5
5
5
5
5
5
5
5
5
5
5
5
5
5
5
5
5
5
5
5
5
5
5
5
5
5
5
5
5
5
5
5
5
5
5
5
5
5
5
5
5
5
5
5
5
5
5
5
5
5
5
5
5
5
5
5
5
5
5
5
5
5
5
5
5
5
5
5
5
5
5
5
5
5
5
5
5
5
5
5
5
5
5
5
5
5
5
5
5
5
5
5
5
5
5
5
5
5
5
5
5
5
5
5
5
5
5
5
5
5
5
5
5
5
5
5
5
5
5
5
5
5
5
5
5
5
5
5
5
5
5
5
5
5
5
5
5
5
5
5
5
5
5
5
5
5
5
5
5
5
5
5
5
5
5
5
5
5
5
5
5
5
5
5
5
5
5
5
5
5
5
5
5
5
5
5
5
5
5
5
5
5
5
5
5
5
5
5
5
5
5
5
5
5
5
5
5
5
5
5
5
5
5
5
5
5
5
5
5
5
5
5
5
5
5
5
5
5
5
5
5
5
5
5
5
5
5
5
5
5
5
5
5
5
5
5
5
5
5
5
5
5
5
5
5
5
5
5
5
5
5
5
5
5
5
5
5
5
5
5
5
5
5
5
5
5
5
5
5
5
5
5
5
5
5
5
5
5
5
5
5
5
5
5
5
5
5
5
5
5
5
5
5
5
5
5
5
5
5
5
5
5
5
5
5
5
5
5
5
5
5
5
5
5
5
5
5
5
5
5
5
5
5
5
5
5
5
5
5
5
5
5
5
5
5
5
5
5
5
5
5
5
5
5
5
5
5
5
5
5
5
5
5
5
5
5
5
5
5
5
5
5
5
5
5
5
5
5
5
5
5
5
5
5
5
5
5
5
5
5
5
5
5
5
5
5
5
5
5
5
5
5
5
5
5
5
5
5
5
5
5
5
5
5
5
5
5
5
5
5
5
5
5
5
5
5
5
5
5
5
5
5
5
5
5
5
5
5
5
5
5
5
5
5
5
5
5
5
5
5
5
5
5
5
5
5
5
5
5
5
5
5
5
5
5
5
5
5
5
5
5
5
5
5
5
5
5
5
5
5
5
5
5
5
5
5
5
5
5
5
5
5
5
5
5
5
5
5
5
5
5
5
5
5
5
5
5
5
5
5
5
5
5
5
5
5
5
5
5
5
5
5
5
5
5
5
5
5
5
5
5
5
5
5
5
5
5
5
5
5
5
5
5
5
5
5
5
5
5
5
5
5
5
5
5
5
5
5
5
5
5
5
5
5
5
5
5
5
5
5
5
5
5
5
5
5
5
5
5
5
5
5
5
5
5
5
5
5
5
5
5
5
5
5
5
5
5
5
5
5
5
5
5
5
5
5
5
5
5
5
5
5
5
5
5
5
5
5
5
5
5
5
5
5
5
5
5
5
5
5
5
5
5
5
5
5
5
5
5
5
5
5
5
5
5
5
5
5
5
5
5
5
5
5
5
5
5
5
5
5
5
5
5
5
5
5
5
5
5
5
5
5
5
5
5
5
5
5
5
5
5
5
5
5
5
5
5
5
5
5
5
5
5
5
5
5
5
5
5
5
5
5
5
5
5
5
5
5
5
5
5
5
5
5
5
5
5
5
5
5
5
5
5
5
5
5
5
5
5
5
5
5
5
5
5
5
5
5
5
5
5
5
5
5
5
5
5
5
5
5
5
5
5
5
5
5
5
5
5
5
5
5
5
5
5
5
5
5
5
5
5
5
5
5
5
5
5
5
5
5
5
5
5
5
5
5
5
5
5
5
5
5
5
5
5
5
5
5
5
5
5
5
5
5
5
5
5
5
5
5
5
5
5
5
5
5
5
5
5
5
5
5
5
5
5
5
5
5
5
5
5
5
5
5
5
5
5
5
5
5
5
5
5
5
5
5
5
5
5
5
5
5
5
5
5
5
5
5
5
5
5
5
5
5
5
5
5
5
5
5
5
5
5
5
5
5
5
5
5
5
5
5
5
5
5
5
5
5
5
5
5
5
5
5
5
5
5
5
5
5
5
5
5
5
5
5
5
5
5
5
5
5
5
5
5
5
5
5
POINT_DATA 2538
VECTORS disp float
1.3091232709556695e-11 2.4050740200750283e-11 0.0
1.11971380592228e-11 -2.622381517113461e-11 0.0
0.001999999999228516 4.518034562109986e-12 0.0
0.001999999975392979 -5.980851917869705e-11 0.0
0.0008121922220483453 0.0003510947450776422 0.0
0.0014967762191146722 5.385628637114714e-5 0.0
0.0010718615187386674 -1.0567732162689389e-5 0.0
-5.23338764010724e-13 -3.2941094028639493e-12 0.0
2.67024917438283e-12 1.6798566987742256e-12 0.0
1.777356444009039e-12 -5.429167761675754e-13 0.0
1.5808283884263857e-12 -3.403225027905366e-13 0.0
9.69302382490128e-13 -3.7976435355647493e-13 0.0
9.359883229687287e-13 -7.467786434216382e-13 0.0
7.235946662333853e-13 -8.548828519518824e-13 0.0
6.0626108597326e-13 -1.224805795623636e-12 0.0
3.757541445573014e-13 -1.5931372462070294e-12 0.0
5.799201345771784e-13 -2.1109066820364656e-12 0.0
5.683683311968606e-13 -2.588435791042853e-12 0.0
6.891489335015842e-13 -3.068585573659603e-12 0.0
8.171206893618247e-13 -3.5321181372711055e-12 0.0
8.475560461706613e-13 -3.7873020719601474e-12 0.0
1.0768842166397681e-12 -4.246806286194396e-12 0.0
1.0797733209921454e-12 -4.381789867364473e-12 0.0
1.1661750933841937e-12 -4.748057348975785e-12 0.0
1.3326827460101792e-12 -5.0122710641315316e-12 0.0
1.3292012569101967e-12 -5.241392374228445e-12 0.0
1.4386716530503201e-12 -5.571244190091143e-12 0.0
1.596729783380999e-12 -5.921996907684016e-12 0.0
1.780984435144274e-12 -6.37334631679507e-12 0.0
1.7013725820890513e-12 -6.8960919254073746e-12 0.0
2.68707795504333e-12 -8.54304615868546e-12 0.0
7.247997685925927e-13 -6.2765937723510645e-12 0.0
2.8969863719423653e-5 -2.0783287323632687e-5 0.0
5.080022273477582e-5 -3.5678937052154274e-5 0.0
7.211414760999247e-5 -4.879486578342716e-5 0.0
9.21408297637359e-5 -6.079707722244106e-5 0.0
0.0001111471917417357 -7.198993839215972e-5 0.0
0.0001295651803054958 -8.280427717607314e-5 0.0
0.00014774921587759856 -9.307716038606529e-5 0.0
0.0001654386256800715 -0.0001029985059209272 0.0
0.00018283415257115506 -0.00011269371565670787 0.0
0.00020004081242902349 -0.00012208087130315652 0.0
0.0002170045670092191 -0.00013131529476054362 0.0
0.00023391353566732396 -0.00014033690445240953 0.0
0.0002506875293962018 -0.00014913960871253481 0.0
0.0002674227989955938 -0.00015786071878426763 0.0
0.00028413220265437737 -0.00016640147384386906 0.0
0.00030067348440229074 -0.0001747001001880953 0.0
0.00031721541355576833 -0.00018286506477566063 0.0
0.00033381994910662696 -0.0001907787387960837 0.0
0.0003504217695250245 -0.00019852305054882243 0.0
0.00036706163309198375 -0.00020610969416225318 0.0
0.00038373258629808204 -0.0002135435887926441 0.0
0.0004004527629499446 -0.0002208220596983978 0.0
0.0004173265463800125 -0.0002279583151352084 0.0
0.0004341458265682152 -0.00023495332970382637 0.0
0.0004511742003795353 -0.00024179147769727514 0.0
0.0004681550301441752 -0.00024848769853695623 0.0
0.0004852668589579512 -0.0002550678325627437 0.0
0.0005024530185061268 -0.00026147163546154633 0.0
0.0005198327947141936 -0.0002677399502487411 0.0
0.0005371791962151317 -0.0002739406611707121 0.0
0.0005547213570034991 -0.00028002416213184595 0.0
0.0005723420278794227 -0.0002859784321779585 0.0
0.0005901354183410566 -0.0002918991784338928 0.0
0.0006080999730627588 -0.00029767683735634217 0.0
0.0006262882070659557 -0.0003035253875269912 0.0
0.000644426971899003 -0.00030916773342164335 0.0
0.0006627970995325773 -0.0003146815782387948 0.0
0.0006812107179343363 -0.0003198172608484751 0.0
0.0006996531981962897 -0.0003246761161389198 0.0
0.0007182212835758243 -0.00032934535897587554 0.0
0.0007367459226304165 -0.0003336346736767036 0.0
0.0007555881748423265 -0.00033771662384509424 0.0
0.0007747132294504825 -0.0003414383797959136 0.0
0.0007940276294276969 -0.00034517027050337247 0.0
0.0008137181307401569 -0.0003484982851039932 0.0
0.0008334435782267974 -0.00035170848071956073 0.0
0.0008532434800763082 -0.0003548479258855019 0.0
0.0008733125788781712 -0.000357446174549134 0.0
0.0008930480141764022 -0.0003601984059144399 0.0
0.0009132480105930689 -0.0003623965782970163 0.0
0.0009335330020489765 -0.00036459249611617387 0.0
0.0009542592836596274 -0.0003666987078386637 0.0
0.0009749805416587666 -0.0003688400385554207 0.0
0.0009964938958285994 -0.0003706650258512678 0.0
0.0010178155553769103 -0.00037249682060960744 0.0
0.0010400584735621961 -0.00037425818974599076 0.0
0.0010619444478840445 -0.00037604671308321286 0.0
0.0010839109317075165 -0.00037744528192399014 0.0
0.001105749032613212 -0.0003787131921776573 0.0
0.0011275118140296747 -0.00037952771970570107 0.0
0.0011487447273660011 -0.00038034684999071225 0.0
0.0011693913877269995 -0.00038100406937055287 0.0
0.001189559154861958 -0.00038162590336341117 0.0
0.0012089805292713276 -0.00038198769409119313 0.0
0.0012283135765376197 -0.0003822977759111252 0.0
0.001248009551841188 -0.0003822224393979757 0.0
0.0012672855232356713 -0.00038158524301113545 0.0
0.0012859756028495875 -0.00038062140134645627 0.0
0.0013043751861724646 -0.0003789419653055935 0.0
0.0013233556239382856 -0.0003774359369031837 0.0
0.0013420095636957523 -0.0003756803971279327 0.0
0.0013617457323707035 -0.0003738464618718974 0.0
0.0013804145343207911 -0.00037141428607025974 0.0
0.0013989993840195795 -0.00036829291513247326 0.0
0.001418897876231706 -0.0003642702901106851 0.0
0.001438178335620436 -0.0003595095053648659 0.0
0.001458411620450011 -0.0003545336190122249 0.0
0.0014778349208097684 -0.000348960266450662 0.0
0.0014976493412007848 -0.00034259183781772687 0.0
0.0015170564467623317 -0.00033516132820193893 0.0
0.0015377597148157167 -0.00032745906425462007 0.0
0.0015570026921347532 -0.0003188658608960775 0.0
0.0015768639102117206 -0.0003099253490878594 0.0
0.0015975615734878466 -0.00030001950502725683 0.0
0.0016178140400633372 -0.000289797908575795 0.0
0.0016381229734759141 -0.00027932736215423635 0.0
0.0016590183025578836 -0.0002678435837657525 0.0
0.0016797271922190662 -0.0002555401842103952 0.0
0.0017004465679883525 -0.00024254491798868206 0.0
0.0017218339095076277 -0.00022863475717547523 0.0
0.0017440689344823683 -0.00021355027657748627 0.0
0.001766864578919052 -0.00019749003495486903 0.0
0.0017902115691087197 -0.00018062352688116333 0.0
0.001814529078376219 -0.00016267403908995086 0.0
0.001840301954434342 -0.00014333077611003493 0.0
0.0018671847899210188 -0.00012245271262065283 0.0
0.00189547623251478 -9.954720997706365e-5 0.0
0.0019265311274875223 -7.342774225610235e-5 0.0
0.001959358539832276 -4.29037080543324e-5 0.0
0.0019999999983534565 -7.616510692804851e-12 0.0
0.001999999995028751 -1.030880753454947e-11 0.0
0.0019999999979493123 -3.648536273694137e-12 0.0
0.0019999999973747164 -3.1781319097085193e-12 0.0
0.001999999997814889 -1.9125492236140632e-12 0.0
0.0019999999978171173 -1.1832891906207162e-12 0.0
0.001999999997818016 -7.30441825049434e-13 0.0
0.001999999997938713 -4.1589536157562483e-13 0.0
0.001999999997935043 -1.2585435184018896e-13 0.0
0.00199999999802505 5.23779385966923e-14 0.0
0.0019999999980886466 1.8948210318097138e-13 0.0
0.0019999999982165807 3.634193752769777e-13 0.0
0.00199999999824468 5.295525375494945e-13 0.0
0.001999999998306437 7.524253077890604e-13 0.0
0.0019999999983288594 9.877995779389445e-13 0.0
0.0019999999983432346 1.2709556626948982e-12 0.0
0.001999999998354725 1.5498083035429118e-12 0.0
0.001999999998269873 1.9038839489995073e-12 0.0
0.001999999998418621 2.1516780250523786e-12 0.0
0.0019999999982904153 2.453916484575815e-12 0.0
0.0019999999983876526 2.613855864091879e-12 0.0
0.001999999998369153 2.605935196239852e-12 0.0
0.0019999999985960953 2.4726399340315794e-12 0.0
0.0019999999990620537 2.6871776091676784e-12 0.0
0.0019999999994763738 1.813956451968216e-12 0.0
0.001870557100629033 4.500194110918187e-5 0.0
0.001753352546968658 6.48695347160755e-5 0.0
0.0016477892323961687 6.473614759101883e-5 0.0
0.0015515620486809204 5.851187076267158e-5 0.0
0.0014948587693153004 -1.349765465788158e-5 0.0
0.001490891729627816 -5.3673461401146374e-5 0.0
0.0014841442914366257 -9.248244571080907e-5 0.0
0.001466493869735656 -0.00011532711572338127 0.0
0.0014387320177544798 -0.0001241314759091311 0.0
0.0014049884241458352 -0.00012282885728172308 0.0
0.0013676179335453847 -0.0001152016230868019 0.0
0.0013290025295385815 -0.00010135858794747298 0.0
0.0012886933600052798 -8.530189392978493e-5 0.0
0.00124704379625274 -6.825962338160896e-5 0.0
0.00120134145975694 -5.036110163400327e-5 0.0
0.001147035718430535 -3.213098603303005e-5 0.0
0.001022624607492737 3.192087315835128e-5 0.0
0.0009867086756691508 5.4628878187087346e-5 0.0
0.0009561776577744694 7.203152052121814e-5 0.0
0.0009288209215147635 8.806421316084359e-5 0.0
0.0009033070019646922 0.0001035839082378643 0.0
0.0008800052772194907 0.00011920429157297797 0.0
0.0008584764625984796 0.0001357621634628824 0.0
0.0008395758037706498 0.00015249127176880103 0.0
0.000825086334829242 0.00017378637065678182 0.0
0.0008132924851235703 0.00019210664763386922 0.0
0.0008132712600848461 0.00022878236857704244 0.0
0.0008086548850597337 0.0002709331825033088 0.0
0.0007321329866195765 0.0003630884254800425 0.0
0.000629907752450371 0.0003608613617251495 0.0
0.0004816891574975947 0.00031122224249420164 0.0
0.0002778926230021587 0.00020577597877463537 0.0
0.000522150717008342 -0.0002595674409015789 0.0
0.001336214324857186 -0.0003567339283784397 0.0
0.0006489555570165454 -0.0003007218126521788 0.0
0.0012002283553990381 -0.00036944144692612813 0.0
0.0007834440645463625 -0.00033215286468671123 0.0
0.0010472127226696212 -0.00036187592969892126 0.0
0.0009023658954182268 -0.00034901347472247754 0.0
0.0014551033698098164 -0.00033171123129317374 0.0
0.00042223143457481127 -0.0002225506710003857 0.0
0.0015505689633398595 -0.00029391994975361594 0.0
0.0003380808466637692 -0.0001859282276531347 0.0
3.225888963628028e-5 -8.123423535917999e-6 0.0
0.0019571330687003854 -3.425009416818803e-7 0.0
0.0011402693564938073 -5.625441760707182e-6 0.0
0.0012942163274469835 -7.648810592187648e-5 0.0
0.0009919685858177409 2.4247153214167292e-5 0.0
0.0008895435500937565 0.00010549758108760053 0.0
0.0016545120365170527 -0.0002468787403433966 0.0
0.00025805377062392026 -0.0001472180148557733 0.0
2.7204545533128713e-5 -8.693979396918556e-6 0.0
0.001968737335744079 -2.3368362250570636e-6 0.0
0.001940329261901473 3.7969691372674832e-6 0.0
3.828656877792628e-5 -2.5210078020516303e-6 0.0
0.00174084142258038 -0.00019337081021858805 0.0
0.00018758938469473307 -0.00010852215068300241 0.0
0.001402996396492051 -0.00010306767381123979 0.0
0.0008136509845974864 0.00015172605023214622 0.0
2.1963888752413802e-5 -7.453957164555584e-6 0.0
0.001975273941266617 -2.9232769257571184e-6 0.0
0.0007264901675683462 -0.00032015594767757663 0.0
0.0008419865484568166 -0.0003416979810693607 0.0
0.001137900124325885 -0.0003677173701006733 0.0
0.000964989267261247 -0.00035452503697045454 0.0
0.0012594145274111273 -0.00036714449827149765 0.0
0.0013908067671943003 -0.00034904712144142577 0.0
0.0005984134755573213 -0.00028583493240881607 0.0
0.00047281437620305585 -0.00024295710369444365 0.0
0.0018080145502860582 -0.00014695713532130047 0.0
0.0001337825768063069 -7.864571872971038e-5 0.0
0.0019266248717830997 8.368053952367398e-6 0.0
5.460638597734334e-5 3.5108447036434668e-6 0.0
0.001980272734273508 -5.022700556264993e-6 0.0
2.083369680360987e-5 -7.749470288383038e-6 0.0
0.001472907640383443 -9.155394800024323e-5 0.0
0.0007800202731215549 0.00018615498711742887 0.0
0.0019027370954590836 9.66433385318127e-6 0.0
8.865433192892835e-5 8.995556019918997e-6 0.0
3.0318270106392978e-5 -9.072125541914752e-6 0.0
0.001962796913358201 -1.7741160667426414e-6 0.0
0.0012175632484902337 -4.3204561276892546e-5 0.0
0.0009425900739086488 7.207202624085969e-5 0.0
7.530214162106093e-5 -4.328971909827327e-5 0.0
0.0018940193086735351 -8.209802495972862e-5 0.0
0.0012968118551708143 -0.00036509679425248613 0.0
0.0010057495264325787 -0.00035902450895379534 0.0
0.0006901494683917302 -0.0003112869515337546 0.0
0.0005595649093752292 -0.00027389991932322375 0.0
0.0010942425690689845 -0.0003652094576039166 0.0
0.0014918155190393478 -0.00031979835492830283 0.0
0.00038875063421528255 -0.0002081665300764327 0.0
0.001592598395918496 -0.00027695201087775406 0.0
0.00030292697399075786 -0.00016890426392774445 0.0
0.000221350769883588 -0.00012735105419929332 0.0
0.0016970330406487885 -0.0002215654021016784 0.0
0.0005404861798432184 0.00019438743279084374 0.0
0.0016818725807685331 1.4996839811954257e-5 0.0
0.0019798546105893474 -9.501944210940098e-6 0.0
1.780704470397568e-5 -7.4263048949050646e-6 0.0
0.000768211610497777 0.00024478221388069845 0.0
0.0015101554023533234 -3.3911966926737904e-5 0.0
0.00011669133403810863 1.8172555455109833e-5 0.0
0.0019126859773556644 9.275112982141865e-6 0.0
3.308658494170324e-5 -1.7935360902397187e-5 0.0
0.0019534237866111197 -3.487639397144642e-5 0.0
0.001594094838829048 6.49594303932834e-6 0.0
0.001605890665994434 -1.3293412525921632e-5 0.0
0.001714090789358634 2.187700316877916e-6 0.0
0.0016364529731092183 -9.013184470257164e-6 0.0
0.0015527875631239666 -3.1096414678965376e-5 0.0
0.0015679243750843736 -1.553276813941328e-5 0.0
0.0016525088029591252 1.5569735840344484e-6 0.0
0.0015874449552775 1.9635752950531615e-6 0.0
0.0016718684616056434 1.2589332738646051e-5 0.0
0.0016116275715612554 1.6227624033767185e-5 0.0
0.0015335326390439356 6.199684838474581e-6 0.0
0.001556216732801399 2.0592281707257702e-5 0.0
0.0014893517839816462 1.3550030999296338e-5 0.0
0.0015086661129338167 2.4618316735990717e-5 0.0
0.0014490192964486906 2.0315568369672224e-5 0.0
0.0014677541208854424 2.7910382584959205e-5 0.0
0.001117497328141288 -1.5239563821560313e-5 0.0
0.00105932872340443 -2.698802223764483e-5 0.0
0.0010973864815533277 -2.4994270020259e-5 0.0
0.0010479877006517938 -3.610791233356602e-5 0.0
0.00108243807908543 -3.4429540119331346e-5 0.0
0.0010389181965555956 -4.3682184668439075e-5 0.0
0.001069961354539057 -4.1473238857347476e-5 0.0
0.0010302289203359461 -4.9729420247211506e-5 0.0
0.0010588870983841263 -4.717272583601065e-5 0.0
0.001021979418583907 -5.482600956863763e-5 0.0
0.0010489446232193615 -5.193716728685671e-5 0.0
0.0010142530079638864 -5.913327524870158e-5 0.0
0.0010399936967617298 -5.64920932809606e-5 0.0
0.0010078740687645585 -6.291997917361513e-5 0.0
0.0010317924225530107 -6.0272870559695724e-5 0.0
0.0010010005448793018 -6.648841825745047e-5 0.0
0.0010240203065925131 -6.389412516892174e-5 0.0
0.0009935591915901298 -7.000523369344263e-5 0.0
0.001016662032042044 -6.749850231865238e-5 0.0
0.000987215783693177 -7.323656230514379e-5 0.0
0.0010099214113877613 -7.09860298592291e-5 0.0
0.0009812761805617848 -7.648857716616167e-5 0.0
0.0010027398604733858 -7.448638991540967e-5 0.0
0.0009753441618158686 -7.988159886967926e-5 0.0
0.0009964961220841617 -7.812138853578734e-5 0.0
0.0009702272509968377 -8.331235734894466e-5 0.0
0.000990610443358811 -8.189307207232333e-5 0.0
0.0009638449438232495 -8.701761262332705e-5 0.0
0.0009846691072612974 -8.592851132772897e-5 0.0
0.000952705012388872 -9.179638612074643e-5 0.0
0.0009804899237370885 -9.005638648053985e-5 0.0
0.0009530721092573969 -9.537398963697196e-5 0.0
0.0009751512946974513 -9.452537739648092e-5 0.0
0.000949070793567763 -9.978897206003933e-5 0.0
0.0009703544952112036 -9.929095877635882e-5 0.0
0.0009459844261871196 -0.00010429329094488059 0.0
0.0009656558284317704 -0.00010424485161894825 0.0
0.0009419059002908371 -0.00010925120990583811 0.0
0.0009946310941591184 -5.520580837578725e-5 0.0
0.0009610973941709221 -0.00010948882482296424 0.0
0.0009639644410598144 -7.500277844008295e-5 0.0
0.0009265741385683665 -9.776630719929268e-5 0.0
0.0009362760288522781 -0.0001146163671342581 0.0
0.0009565542881157961 -0.00011504237691152505 0.0
0.000930781760504273 -0.00012039800782149085 0.0
0.0009111414873253172 -0.00011931640072041618 0.0
0.0009050911313039112 -0.0001252731873948555 0.0
0.0009511140175698018 -0.00012123952155632548 0.0
0.0009773033990839988 -0.00011554016585925651 0.0
0.0010004298030447836 -8.907268576234744e-5 0.0
0.0009720022187851097 -0.00012209056900697684 0.0
0.001000003581546615 -0.00011551969809069806 0.0
0.000993660000459346 -0.00012298640803426662 0.0
0.0008857021088890923 -0.0001239182952974572 0.0
0.0008807780141862112 -0.00012953811420077994 0.0
0.0010226577880094894 -0.00011588658226755985 0.0
0.0008600401261863673 -0.00012800516215246465 0.0
0.0008565482020310065 -0.00013365907701639256 0.0
0.0010168307864645417 -0.0001236314062403789 0.0
0.001044849649207881 -0.0001168880840248327 0.0
0.0008342993923644808 -0.00013187398641209173 0.0
0.0008303541907966677 -0.00013757730354791443 0.0
0.0010397299161539622 -0.00012477091876504515 0.0
0.001068642094028984 -0.00011763973370321837 0.0
0.0008087437703085523 -0.00013542616007757512 0.0
0.0008045992604519068 -0.00014137200228354847 0.0
0.0010633711351396961 -0.0001261575986121582 0.0
0.0010932703165180955 -0.00011843878152991478 0.0
0.0007835232111099136 -0.00013844353755660999 0.0
0.0007778887807125384 -0.00014448314287119024 0.0
0.0010883250277116674 -0.00012736474954852772 0.0
0.0011185549540198053 -0.000119269539227957 0.0
0.0007559351338263296 -0.0001412278970279257 0.0
0.0007510267235189478 -0.00014740903136561837 0.0
0.0007274158934979997 -0.00014402834240110786 0.0
0.0007324862031723572 -0.0001377207531742553 0.0
0.0010561545069054923 -0.00013477868648347348 0.0
0.001113434381568775 -0.0001288182807062514 0.0
0.0011444861288042196 -0.0001202014588380365 0.0
0.0011503363743699195 -0.00011019230602750651 0.0
0.001029242109679353 -6.905765243179765e-5 0.0
0.0011775721696605753 -0.00011078336655733379 0.0
0.001183924559891188 -0.00010029142257480884 0.0
0.0012123373809804206 -0.0001004070567115748 0.0
0.0007247129365580496 -0.000150539963399076 0.0
0.0007000258081952668 -0.0001462572727626299 0.0
0.0007479931583212573 -0.00015415821277194928 0.0
0.0011384429057284412 -0.00013058521495442336 0.0
0.0006978433818465644 -0.00015286378322039475 0.0
0.0006727184401579053 -0.0001479899915884604 0.0
0.001063648874060679 -5.2838645271163546e-5 0.0
0.0006707924855677743 -0.0001543114306095069 0.0
0.0006454838316052702 -0.00014909053805992306 0.0
0.0006438759184534437 -0.0001554683599822075 0.0
0.0006188507368873276 -0.00014951910059669713 0.0
0.0006198472864239826 -0.00014346936684069524 0.0
0.0005912615272579519 -0.00014375148651158792 0.0
0.0005926789209520916 -0.00013743736568451478 0.0
0.0006143616848963518 -0.00015565606062352882 0.0
0.0005616990367935792 -0.00013732933920421083 0.0
0.0005628141557373614 -0.00013096480073220395 0.0
0.0006427064351655044 -0.00016233578049031162 0.0
0.0006176448119581713 -0.00016311911176801667 0.0
0.0005323937994565146 -0.00013000004459973551 0.0
0.0005321650337295463 -0.00012366054256671515 0.0
0.001219601709316418 -8.975515896033776e-5 0.0
0.0012494315845188021 -8.961070829685712e-5 0.0
0.0006417349429051072 -0.00016946482767317251 0.0
0.0006172299938252894 -0.00017010054806463213 0.0
0.0012571025657320703 -7.868096941276707e-5 0.0
0.0012885864525630309 -7.851935335511054e-5 0.0
0.001279275602456743 -9.081792090511088e-5 0.0
0.0013191097829945413 -7.912441327088626e-5 0.0
0.0013104062402966544 -9.190747357287707e-5 0.0
0.0013508211127963618 -7.93366329833739e-5 0.0
0.001344112661655342 -9.215089456644012e-5 0.0
0.0013864070098474539 -7.833542765905064e-5 0.0
0.0013764756393422571 -9.181710339158446e-5 0.0
0.0013925744067512138 -6.646364604458998e-5 0.0
0.0014193926558973028 -7.832477861278623e-5 0.0
0.0014076231548217682 -9.218500628641518e-5 0.0
0.0006413158566157127 -0.00017687216612767795 0.0
0.0004998161827796154 -0.00012205132152973246 0.0
0.0004986109213557707 -0.00011532309455786424 0.0
0.0013675946048937583 -0.00010640787027520348 0.0
0.001397668504845324 -0.00010692946067187964 0.0
0.001437402940914509 -9.26221854660735e-5 0.0
0.0013600021807589357 -0.00012188036596115395 0.0
0.000617593402310457 -0.00017745767304599665 0.0
0.0014277067844425785 -0.0001075810125444915 0.0
0.0014668107580520747 -9.300551024286929e-5 0.0
0.0006410866758474802 -0.0001846134972482346 0.0
0.0006179886886822009 -0.00018518641288261557 0.0
0.0005948022462575087 -0.00017761394668306895 0.0
0.0014570778943318943 -0.00010830839061514467 0.0
0.0014957627945655723 -9.325404803112176e-5 0.0
0.0006410107499582942 -0.00019274935062458683 0.0
0.0006637510993964402 -0.00019187651808358618 0.0
0.0005956337988377305 -0.00018533953181229298 0.0
0.0005725503220697225 -0.0001773923899187522 0.0
0.0014849645402034695 -0.0001091053236896753 0.0
0.0015243779546570261 -9.338474085008932e-5 0.0
0.0015344432517492188 -7.890085320299038e-5 0.0
0.001446035008379041 -0.00012529376300578798 0.0
0.0015629927131446772 -7.846795715476677e-5 0.0
0.0015735467859275985 -6.545659774780876e-5 0.0
0.0004639501772731981 -0.0001131408675973014 0.0
0.00046406930958723953 -0.0001060137108306205 0.0
0.000506251412540979 -0.00010897287778288516 0.0
0.0004629349911858583 -9.8218681018359e-5 0.0
0.0005041705636164932 -9.982540710007236e-5 0.0
0.00046106721251601846 -8.9028426810724e-5 0.0
0.000501910813006716 -8.981039505521594e-5 0.0
0.0006636416233542033 -0.00020029029921796008 0.0
0.0006857818931687112 -0.00019909345581115524 0.0
0.0005737015525480618 -0.0001851378781017445 0.0
0.0005507068636499838 -0.00017678907485238084 0.0
0.0015522461993529423 -9.334789212418523e-5 0.0
0.0004632929915720693 -7.876870371718174e-5 0.0
0.0005026078955595352 -7.871030871987872e-5 0.0
0.0006857542905343283 -0.00020774542432782633 0.0
0.0007073207371916155 -0.00020637256897942366 0.0
0.0008310741528867163 -0.0001429579825561355 0.0
0.0015903365561796834 -7.774439184390423e-5 0.0
0.0011078092767295529 -3.040118896139764e-5 0.0
0.0011618997680660943 -1.3522027755005058e-6 0.0
0.0009479450339108625 -8.481352638654263e-5 0.0
0.0012947235832070827 -6.766863188822212e-5 0.0
0.0004594328369998143 -6.580556874594793e-5 0.0
0.0005063094490287767 -6.553941863279034e-5 0.0
0.0005522145599168134 -0.00018458185078742853 0.0
0.0005294143714329074 -0.00017591484226996956 0.0
0.0007076739862813533 -0.00021529566017468692 0.0
0.0007290424405548364 -0.00021372291437936125 0.0
0.0015784427585492668 -9.265864117624642e-5 0.0
0.00042786484529327295 -0.00010337571732796232 0.0
0.00042934491609594624 -0.00011046808227362121 0.0
0.0004145100573074284 -7.64914784634922e-5 0.0
0.0016163092906571984 -7.642892721459316e-5 0.0
0.00045862397171844444 -5.148411840014606e-5 0.0
0.0005065620363306983 -4.953236650106788e-5 0.0
0.0006865328311071939 -0.00021681495875527934 0.0
0.0005313556192410442 -0.00018386337209245696 0.0
0.0005085488765394016 -0.00017473021701238875 0.0
0.0012634953449040538 -6.825220522807453e-5 0.0
0.0013024876507364165 -5.698299343309415e-5 0.0
0.0012695536353147764 -5.7981124460659484e-5 0.0
0.0013102537790900775 -4.6602914257989247e-5 0.0
0.0007291415771970043 -0.00022278498960692057 0.0
0.0007506814310634675 -0.00022079028476077166 0.0
0.000813920121065655 -0.0001301499081653859 0.0
0.00045737523312221304 -3.5400944726038914e-5 0.0
0.0005047080477045813 -3.144061117660828e-5 0.0
0.0016042279464676017 -9.121629686271518e-5 0.0
0.001570094879604556 -0.00010726853411955965 0.0
0.0004453755623029424 -1.5181751298956904e-5 0.0
0.0005010007680848777 -1.0146675647186581e-5 0.0
0.0016411032043096054 -7.483863103163481e-5 0.0
0.0016485101881459315 -6.481958089959452e-5 0.0
0.00045058455859114125 4.640218263112993e-6 0.0
0.0005533856233466426 -0.00019346575636070527 0.0
0.0007504536021147892 -0.00023026970358838107 0.0
0.0007718197887056071 -0.00022780758797815643 0.0
0.0007724654412446041 -0.00021829966670672849 0.0
0.0007935167012023931 -0.00022503803738238494 0.0
0.0007944779984410968 -0.00021552710008606845 0.0
0.0008155830562053446 -0.0002219620702741669 0.0
0.000816795402896683 -0.00021230517934893106 0.0
0.0008381840953368987 -0.00021853479771496287 0.0
0.0008397062957108216 -0.00020878612983898915 0.0
0.0008612564293738081 -0.00021471612852227664 0.0
0.0008597919853173131 -0.0002249161021911674 0.0
0.0008827427816704722 -0.0002208314641917207 0.0
0.0008812550157601369 -0.0002314051612068669 0.0
0.000904094319742167 -0.00022704975140314514 0.0
0.0009024557869417442 -0.00023803156834001121 0.0
0.0009254657354884834 -0.0002333796535049049 0.0
0.00086316630209237 -0.00020488778935785567 0.0
0.0009272701308671446 -0.00022223951458020066 0.0
0.0009489580530776069 -0.00022823207566468058 0.0
0.0009469230964877283 -0.00023999635081787486 0.0
0.0009707762303405413 -0.00023458656916348366 0.0
0.0003923428952704756 -0.00010001075797073529 0.0
0.0003941549045748259 -0.00010680981957977805 0.0
0.0005107873898982248 -0.00018271187237885506 0.0
0.0004883222278173538 -0.00017330255939835038 0.0
0.0009732744864345 -0.0002226869686624573 0.0
0.000995237226652601 -0.00022863301416474216 0.0
0.0009925219034499877 -0.00024104111396870903 0.0
0.0010176031789116517 -0.00023476084532891462 0.0
0.00035790381620272413 -9.595924072589386e-5 0.0
0.0003601700349156583 -0.0001023715659320212 0.0
0.0012759212646223453 -4.7666220746187335e-5 0.0
0.0013186041331556123 -3.626077824210699e-5 0.0
0.001283321331779728 -3.749563343201317e-5 0.0
0.0016294172429726968 -8.875538043136427e-5 0.0
0.0016650914869628286 -7.237192860202427e-5 0.0
0.0007715212508127119 -0.00023773516687719087 0.0
0.000553098817655501 -8.089608089413226e-5 0.0
0.0009896212849189168 -0.00012977422605473654 0.0
0.001014666940414217 -0.0002476631987285493 0.0
0.0010400278308124102 -0.00024111143872213584 0.0
0.001042697619779874 -0.00022787082009284015 0.0
0.001065745163653057 -0.00023383320250151964 0.0
0.0010518091012853628 -0.00010850011322951586 0.0
0.0013288783257553954 -2.556929412637951e-5 0.0
0.0013611832135205849 -2.665903570979896e-5 0.0
0.000502099332827958 1.2987483875143983e-5 0.0
0.0004906008090093425 -0.00018128768583343982 0.0
0.0004684413787762566 -0.0001715599618298132 0.0
0.0012916778043583742 -2.7066478027074306e-5 0.0
0.0010626933133598953 -0.00024775241506699044 0.0
0.0010889664484926675 -0.00024049928917966597 0.0
0.0010922037351138282 -0.00022610563257667365 0.0
0.001116039422677781 -0.00023265219944821174 0.0
0.0011200625222901365 -0.00021816314173240002 0.0
0.0011435538229579503 -0.00022407595968394723 0.0
0.0011393191688364962 -0.00023921872518077255 0.0
0.0011665634493014806 -0.00023020289010406748 0.0
0.0004495630879562986 2.5073736975911367e-5 0.0
0.0003247864498974833 -9.128354998648406e-5 0.0
0.0003272302602312142 -9.715870717409498e-5 0.0
0.0007508971736260484 -0.00024020533273949848 0.0
0.0016517431547762036 -8.738658759668337e-5 0.0
0.001688118371107609 -6.975182893057594e-5 0.0
0.001162091059081156 -0.00024597135777829933 0.0
0.0011888939233098332 -0.00023656932392091223 0.0
0.0005051243159245423 3.643170040039414e-5 0.0
0.00047110842290085857 -0.00017964726252429284 0.0
0.0004488020394365607 -0.00016944752040754746 0.0
0.0005542915114518722 -2.7286507772695943e-5 0.0
0.0015283874062442851 2.8933204758769506e-5 0.0
0.000771373964971698 -0.00024797229935678383 0.0
0.00045118364751822786 4.4559894492211344e-5 0.0
0.00041455508064749854 -3.914393073518487e-5 0.0
0.0016704351400001656 -8.929683937994609e-5 0.0
0.0017107055920718337 -6.756860021853067e-5 0.0
0.0017246660027012749 -5.414000689924208e-5 0.0
0.00039745689022574547 1.4881913264873948e-5 0.0
0.0016334312999114497 -0.00010637957636931609 0.0
0.0003199680769063588 -8.456349255250994e-5 0.0
0.0004913509380766855 -0.0001889985427273999 0.0
0.001338533950143497 -1.4910673080261351e-5 0.0
0.0013005781290214911 -1.648983952893201e-5 0.0
0.0011485651234819753 -0.00020929971145988913 0.0
0.0004518600423890858 -0.0001778404304906287 0.0
0.00042948669310002006 -0.0001671786464266961 0.0
0.00029287944705931997 -8.594958992394818e-5 0.0
0.00029538377118295997 -9.120259594577168e-5 0.0
0.0005277926931943304 -0.0001686228399351134 0.0
0.0011841851401704448 -0.0002529397333908078 0.0
0.0012106344158769628 -0.00024295929251995203 0.0
0.00042630654949383053 -0.00015915160330481 0.0
0.000406763979599708 -0.00015642082396762376 0.0
0.001159486332425707 -0.00026100988181312955 0.0
0.0007515987861650596 -0.00025047525782323217 0.0
0.0004105170694114643 -0.00016468821464195435 0.0
0.0003877268659623936 -0.00015350082412224716 0.0
0.0007951785655573657 -0.00020648193799911298 0.0
0.0017483223648398604 -5.083727667277563e-5 0.0
0.001761356693726724 -4.092426927238816e-5 0.0
0.0017345063163929375 -6.447712986438703e-5 0.0
0.0012055982163184128 -0.00025973275421090395 0.0
0.0012319389796771553 -0.0002492785050651258 0.0
0.0011244828644784806 -0.00020400088925023323 0.0
0.0011539297576555695 -0.00019488962401392418 0.0
0.0007715545385642963 -0.00025849615757065096 0.0
0.001237850765833794 -0.0002318807998077371 0.0
0.001259490111060733 -0.00023795899453667543 0.0
0.00026165566236531647 -7.972898170980623e-5 0.0
0.00026563628587363605 -8.484523859219405e-5 0.0
0.0012534385099052946 -0.0002562857137217922 0.0
0.001280750612289264 -0.00024433800288237005 0.0
0.0003922845828079904 -0.00016207563997153065 0.0
0.00036930002437645656 -0.000150432691464471 0.0
0.0013476773105401483 -4.436695471603837e-6 0.0
0.0013098887238569732 -5.763140066498297e-6 0.0
0.00036445531914734133 -0.0001423756959174442 0.0
0.00034578480787299796 -0.00013876933920030108 0.0
0.00035068698474669685 -0.00014698144717578538 0.0
0.0003271034110546664 -0.00013488423837346652 0.0
0.0017718124879602445 -4.7480518176327163e-5 0.0
0.0017576263662129263 -6.213064987308669e-5 0.0
0.0005079580073735663 5.82205341715648e-5 0.0
0.00045069224215772273 6.287972924511164e-5 0.0
0.0012487394654944345 -3.876115150616424e-5 0.0
0.0007523851870901739 -0.0002610386211670399 0.0
0.0012745384839094262 -0.00026350683411311977 0.0
0.001301417779400471 -0.0002507117224326257 0.0
0.001410532976372347 2.483727138790683e-5 0.0
0.0012664543685547303 -0.00021976816564427926 0.0
0.0008800922277884113 -0.0002423244789704357 0.0
0.00032152586141628435 -0.00012714809481043728 0.0
0.0003032054435539904 -0.00012277353438275637 0.0
0.00030904053869915186 -0.00013091001478848007 0.0
0.0002848371943629238 -0.00011828339483081109 0.0
0.0002789762379070379 -0.00011080427661872836 0.0
0.0002598450271670932 -0.00010572523079171172 0.0
0.000253734424409426 -9.86166409153115e-5 0.0
0.00023408549309338977 -9.293781185068921e-5 0.0
0.00022797983210002545 -8.660336392807173e-5 0.0
0.00020922128888385469 -8.085440221872088e-5 0.0
0.00020278782111874717 -7.522178869393587e-5 0.0
0.00021496065929250483 -8.705776028763584e-5 0.0
0.0001875678686250889 -7.328113805678571e-5 0.0
0.0002326632895028294 -7.32523369474427e-5 0.0
0.00023006061528065518 -6.881790208644129e-5 0.0
0.00019580846988181478 -8.092418964135146e-5 0.0
0.00017052834223355568 -6.811565514604055e-5 0.0
0.0005623507746127554 4.730038834484373e-5 0.0
0.0005892925925730149 -0.0001303789676604588 0.0
0.0011295615616819846 -0.00019029001559017284 0.0
0.0011594190563631046 -0.00018090515893193516 0.0
0.00036023676960542604 -0.0001077242515063509 0.0
0.0007718143487437642 -0.00026940267462786173 0.0
0.0007911737047104812 -0.00026662900392017733 0.0
0.0011841110422428035 -0.0001849907018001532 0.0
0.0011902717907975296 -0.0001705489519898699 0.0
0.0017953001370494676 -4.425108793164936e-5 0.0
0.0017793182625635965 -6.033590373749062e-5 0.0
0.0017422827318383744 -8.180879448526217e-5 0.0
0.0012631525057473626 -1.8769564210537617e-5 0.0
0.001272933499960066 -8.220830896125252e-6 0.0
0.0007326126208737286 -0.00025272126793707923 0.0
0.0007336126822520424 -0.00026329776297476145 0.0
0.000714140952094729 -0.00025477953346839496 0.0
0.0002917551678873758 -0.00012692966831509341 0.0
0.001318874787560345 4.568535902430292e-6 0.0
0.001282643804265683 2.4752839990065327e-6 0.0
0.0005311590864893764 -0.00013653602844200535 0.0
0.0012945649998970684 -0.0002703715255033614 0.0
0.001321601843940666 -0.00025690931102599564 0.0
0.0013295696753946307 -0.0002370862879697612 0.0
0.001349646728938715 -0.00024250905035035297 0.0
0.0005287444483292663 8.09527095348709e-5 0.0
0.00046149661993675676 8.12286833256445e-5 0.0
0.0007068133916587749 -0.00019792111091491505 0.0
0.001269167180137509 -0.00028250569600299076 0.0
0.0016324490996780117 2.455107511508052e-5 0.0
0.001341195587789733 -0.00026345482169706465 0.0
0.0013693640517043605 -0.0002482294706583552 0.0
0.001378722339640208 -0.00022690433678094986 0.0
0.0013987184966310023 -0.00023182579082120345 0.0
0.001409305329352562 -0.0002101988950524172 0.0
0.0014287213125532775 -0.0002144092578754859 0.0
0.0014174634528607555 -0.00023670489165139043 0.0
0.0014467700538630375 -0.00021859701829194533 0.0
0.000177132618333963 -7.434368912583297e-5 0.0
0.00015216041672809304 -6.150157402191223e-5 0.0
0.00014256603001056982 -5.4728526125241886e-5 0.0
0.0007914437056260115 -0.0002779321812768172 0.0
0.0008101031968432563 -0.000275412930209156 0.0
0.0007155092068772132 -0.00026540923426453413 0.0
0.0006960967280205235 -0.0002565850366919885 0.0
0.0017622442047747293 -8.160546991110569e-5 0.0
0.0017996204186107108 -5.9107316688768886e-5 0.0
0.0013957633109722058 1.37726280475773e-5 0.0
0.0013601853923708909 1.9938557539579135e-5 0.0
0.0003910964317501348 6.125726169886882e-5 0.0
0.0004030905854772205 7.591821908059576e-5 0.0
0.00020287822587949247 -8.860140182441799e-5 0.0
0.0006669743123139093 -0.00016837229462246002 0.0
0.001229472821699838 -6.070589821693682e-5 0.0
0.0017267895011134024 -0.00010479548270767346 0.0
0.0005433136454200502 -9.88967322415915e-5 0.0
0.0012270855942238868 -2.2032450377593504e-5 0.0
0.0014344188974490238 -0.00024167814266529163 0.0
0.0014631726848429653 -0.00022310842164407503 0.0
0.001479750527316463 2.892291498924711e-5 0.0
0.0015488913157904085 2.8155236965729734e-5 0.0
0.0005346545725046215 0.00010293512190822427 0.0
0.00029741550198952567 -9.610251135331572e-5 0.0
0.00019767840096085988 -6.122959362104146e-5 0.0
0.00019521817977353022 -5.710838028958354e-5 0.0
0.0003149561151181777 -0.00013979932630361173 0.0
0.0013618221683212492 -0.0002701048782774884 0.0
0.001106828042153252 -0.00013876771612518826 0.0
0.000990469872358896 -0.0002538516976601546 0.0
0.0006423166897572341 -0.0002008939391861477 0.0
0.00015868888041977727 -6.787989936732099e-5 0.0
0.00013416747850246362 -5.501155194370328e-5 0.0
0.0004149624041752097 -0.00017370092832631417 0.0
0.0012155757805596091 -0.00017409592969571633 0.0
0.001222435721639938 -0.00015931658959726232 0.0
0.0007340295645511078 -0.00027443527488636254 0.0
0.0015105462503676305 2.6336945865858415e-5 0.0
0.0015704162934473663 2.5079710235602523e-5 0.0
0.0015344859758542986 2.218130593917438e-5 0.0
0.0015930051983611489 2.0787358901688814e-5 0.0
0.001629295023889776 2.3341874784456514e-5 0.0
0.001651811520649855 1.900878752335095e-5 0.0
0.0016148804517193843 1.5669728239334702e-5 0.0
0.0016721610365652416 1.4055871661490281e-5 0.0
0.0016353373193625672 1.0034201055650755e-5 0.0
0.0016918202542340103 8.884330371944543e-6 0.0
0.001655641510654749 3.974034867122411e-6 0.0
0.0017100823814277172 3.6763706067463855e-6 0.0
0.0016744816407647262 -2.133905976488507e-6 0.0
0.0017274473750914846 -1.4492156382900667e-6 0.0
0.0016188209685605941 -2.9291195220328936e-6 0.0
0.001692320494836914 -8.114320564367119e-6 0.0
0.0017425017589709202 -6.607669734716842e-6 0.0
0.0016903887404446684 2.085862629081601e-5 0.0
0.0004026854203064249 -0.00014861936817330533 0.0
0.00039735234029825687 -0.0001713023388732142 0.0
0.00041915965942116487 -0.00018305451955397825 0.0
0.0017092564183374987 -1.377434747354342e-5 0.0
0.0017572205298300586 -1.1284495640861679e-5 0.0
0.001662256452247022 -1.6029344072437844e-5 0.0
0.0010120320918640144 -0.00026087343053377596 0.0
0.0009882727078685699 -0.00026681200837711184 0.0
0.001009565489830042 -0.0002742150900566129 0.0
0.0009866019491448631 -0.0002799818289860064 0.0
0.0010074560885585365 -0.00028770510474973343 0.0
0.0009854792834015267 -0.00029330316542884 0.0
0.0009649441712041571 -0.00028550721720968546 0.0
0.0009643099273522027 -0.00029853937073032015 0.0
0.0009445212532465932 -0.0002906343214512822 0.0
0.0010025460374287196 -3.083647418786077e-5 0.0
0.0010058708077802505 -0.0003013826579920647 0.0
0.001027901868415468 -0.0002956155411805562 0.0
0.0008745735191676541 -0.00013584703845412408 0.0
0.0008413854220312556 -0.00019939806436630836 0.0
0.000865305615688754 -0.00019541014939835342 0.0
0.0008433011638312172 -0.00019035061812742107 0.0
0.0008676736381383038 -0.0001862947535314987 0.0
0.0008454832394300976 -0.00018166286071393805 0.0
0.0008702878250594917 -0.00017755255399533752 0.0
0.0008925733373233119 -0.0001818567970680452 0.0
0.0008956019863159094 -0.00017304216487134643 0.0
0.000918022546273471 -0.00017701800376813894 0.0
0.0009214125280666192 -0.00016810855929617216 0.0
0.0009429529619424582 -0.00017176540256428336 0.0
0.0008990230235504561 -0.00016432369650354597 0.0
0.0008479472912615145 -0.00017333000548449613 0.0
0.0008230453161737302 -0.00017713502090105804 0.0
0.0009393471018967535 -0.00018128062575428576 0.0
0.0009657367875600341 -0.00017508729716308343 0.0
0.0004024128295591155 -0.0001809199682706549 0.0
0.000923928002377122 -0.00010479415947950098 0.0
0.0009815273929453644 -6.491718737534906e-5 0.0
0.0009983082871360212 -0.00021669281182324358 0.0
0.0018084882529158014 -3.394123540556426e-5 0.0
0.0018316535255187114 -3.0412872035352612e-5 0.0
0.0010466645088221102 -6.083071851573037e-5 0.0
0.0010180319679321992 -7.575649361843577e-5 0.0
0.001388363991821936 -0.00020593413814408134 0.0
0.0012030708962976267 -0.0001117772147635358 0.0
0.001783129192298855 -8.042046055186058e-5 0.0
0.0018193992378942514 -5.791067767317023e-5 0.0
0.0009915027329660297 -9.897388345508562e-5 0.0
0.0006977342583720132 -0.0002673320977309526 0.0
0.0006784168618537917 -0.000258242236691976 0.0
0.0010842199843561224 -4.305693439566869e-5 0.0
0.0009439435092361082 -0.00030345013782814986 0.0
0.0009242337734894807 -0.00029487175277333004 0.0
0.0006768017770958567 -0.00024778630257210144 0.0
0.0006589137767064107 -0.00024916687330905896 0.0
0.0006572156727099852 -0.00023898014275697995 0.0
0.0006391543602112617 -0.00024006093812799827 0.0
0.0006412568975037837 -0.00025045412932232146 0.0
0.0006214949193236895 -0.00024106302937805613 0.0
0.0006238035918589888 -0.0002516295930442857 0.0
0.0006040035847984012 -0.00024196841406784895 0.0
0.0002988782016548069 -0.00013635969803417122 0.0
0.0018436446795921841 -2.3415839761693677e-5 0.0
0.0013263495847344923 1.3675901943917702e-5 0.0
0.0012896352389371703 1.2196493676519592e-5 0.0
0.0005963025153894603 -0.00016374049270021215 0.0
0.0004883352409227761 -0.00016605955092893087 0.0
0.0017749984392420352 -1.5058714008043593e-6 0.0
0.0017480898254462998 7.215089886825637e-6 0.0
0.0008101229288302757 -0.0002868766185839878 0.0
0.0008293459164191526 -0.00028403703208009596 0.0
0.001288322138169253 -0.0002896554287801356 0.0
0.00027467616877621535 -0.00010421049710515062 0.0
0.0010987622375321557 -0.00010993678957369577 0.0
0.0012476423761406555 -5.257396662600205e-7 0.0
0.0012553787805669586 9.22694628339427e-6 0.0
0.0014205832980280263 -0.00018893913775139384 0.0
0.0014757598712082224 -7.907111264281352e-5 0.0
0.0014763203278888265 -0.00020008083181871728 0.0
0.0014931562263286351 -0.0002037235544837887 0.0
0.0014789058657779617 -0.0002284860601574854 0.0
0.0015093242080087977 -0.00020851080724911314 0.0
0.0008677009367703222 -0.000122456624190706 0.0
0.0003207935125040606 -0.00014917953758727018 0.0
0.000945291151053736 -0.0001626290281430097 0.0
0.001579204561600163 1.0405812192275912e-5 0.0
0.0008140216062045305 -0.00026456747441766347 0.0
0.00042317239816365605 -0.00019267859666669942 0.0
0.000439890562682814 -0.00019465434342920255 0.0
0.0012643028396860047 -0.00030109468138253635 0.0
0.000637132429043124 -0.00023020839557279607 0.0
0.0011347767569666717 -0.00017706173459429257 0.0
0.0011051943184130942 -0.0001858855882538314 0.0
0.0018028426448428259 -7.998832534123942e-5 0.0
0.00183981171192039 -5.625153689909349e-5 0.0
0.0018550889743275672 -3.872829289464439e-5 0.0
0.0006025374345520027 0.00010422756019303595 0.0
0.00014070189508418054 -6.119108015671379e-5 0.0
0.0001162645910985745 -4.8093321406276134e-5 0.0
0.00011240286497886907 -4.415278843663346e-5 0.0
0.001350321269918048 4.470321929507848e-6 0.0
0.0013848414740709413 -4.158957302033063e-6 0.0
0.0013168532668196297 1.3122577220718659e-5 0.0
0.001386487151009201 -3.835909071419639e-6 0.0
0.0017255491407375406 -1.8562700389287965e-5 0.0
0.0017728529002986049 -1.5037184334849698e-5 0.0
0.000680343546629979 -0.00026913281543086297 0.0
0.0013470694034517913 -4.533744692546733e-5 0.0
0.00033171667498986166 5.505639833048532e-5 0.0
0.00034152528367530836 6.503082849435528e-5 0.0
0.00042099159002951365 8.893085113087202e-5 0.0
0.00035294667413301946 7.172847494681068e-5 0.0
0.00046757830970992233 0.00010696362290052884 0.0
0.0009229054372457178 -0.00028185670101348346 0.0
0.0006013097309107272 -0.0002317140017843103 0.0
0.0005842334352679735 -0.00023237656983154888 0.0
0.0005869068884928223 -0.0002427699573026486 0.0
0.0005673203171050028 -0.0002329366780542287 0.0
0.001523196268590104 -0.00018421671595142682 0.0
0.0015392749991371432 -0.00018869994858142027 0.0
0.0015255518997108024 -0.00021419575682491494 0.0
0.001554933081555139 -0.00019398168567693854 0.0
0.0011964908987434043 -0.00015649976740676836 0.0
0.0012294406040956709 -0.00014526659099782892 0.0
0.0010264075581168943 -0.00030955737562170336 0.0
0.0010482503605523795 -0.00030366870031842846 0.0
0.0008254751712527803 -0.00016911955475608543 0.0
0.0008003932053050054 -0.00017264311281841487 0.0
0.0007893185132362818 -0.00028988815067035117 0.0
0.0005700955353979411 -0.00024327215763698457 0.0
0.000550870530654226 -0.00023332284144377273 0.0
0.0017070165064852856 -0.00010450222250225779 0.0
0.001691828575729444 -0.00012880298129525202 0.0
0.0016732887448687747 -0.00012774913106768852 0.0
0.0016616192211536915 -0.0001508644317733129 0.0
0.000829363444784146 -0.00029668248295176624 0.0
0.00016326868209477538 -7.435793739036629e-5 0.0
0.00022323558437579145 -8.140213537642027e-5 0.0
0.00019502949365968395 -6.957291795236873e-5 0.0
0.0001614718424008798 -4.900786299516335e-5 0.0
0.00015683142483533826 -4.471191848269116e-5 0.0
0.00019282999272017797 -5.2271361245907186e-5 0.0
0.0001527234001134739 -3.981031554885141e-5 0.0
0.00019009931662998948 -4.633863031093601e-5 0.0
0.0001485043520789095 -3.400598545016337e-5 0.0
0.00018777131763663495 -3.916954419414114e-5 0.0
0.0017110289726824006 -0.0001299869185720153 0.0
0.00056384608200419 -0.000222936031801341 0.0
0.0013986324274520962 -0.00018586344225005996 0.0
0.0012450473394704468 -0.0002929119257662789 0.0
0.0012414683872636128 -0.00031142997817341987 0.0
0.0012227114048117115 -0.0003031844332530802 0.0
0.0009242011369168225 -0.0003078517077792145 0.0
0.0013557297282176452 1.3028699154059864e-5 0.0
0.0015413861302558563 -0.0002207116929302826 0.0
0.0018764573465597392 -3.5778979937963825e-5 0.0
0.0018600300254646154 -5.3918603397493735e-5 0.0
0.0006102782619729257 0.0001253251846120008 0.0
0.00132234199832828 1.9871285387961225e-5 0.0
0.0009759812526895996 -0.0002112595200598814 0.0
0.0010010935997454692 -0.00020515799194106978 0.0
0.0009646051153198098 -0.0003119568108124565 0.0
0.0009047008247424396 -0.00029903827493411405 0.0
0.00043361908864746144 -0.00011827651112937765 0.0
0.0018032073082671035 -8.955202797493918e-6 0.0
0.0018180122946580934 -1.1612620499132161e-5 0.0
0.0017867345000656069 -1.810537035273044e-5 0.0
0.0018303883324451145 -1.386760588403206e-5 0.0
0.0014732818051947252 -0.00012618028852635178 0.0
0.0010834323293868473 -0.0002552283451229309 0.0
0.0011101258810978917 -0.0001734063073221087 0.0
0.0008154536712589441 -0.00023208540940699099 0.0
0.001189189968195919 -9.023948173129089e-5 0.0
0.0012482806270146733 -0.0001623743450687842 0.0
0.0012444925269869832 -0.00021500764014502187 0.0
0.0012742150845070077 -0.00020232785999560254 0.0
0.0013436874360175512 -1.9308805450435676e-5 0.0
0.0013840840619748838 -2.6101736693752123e-5 0.0
0.0004435090946782382 -0.00020438512210209375 0.0
0.0004593809342839384 -0.00020588553524503514 0.0
0.00014449329113111142 -2.7195723755227726e-5 0.0
0.0001839986917598553 -3.0477906071643925e-5 0.0
0.00022878394707166998 -4.315888582242706e-5 0.0
0.00022656800399587927 -3.247257401055581e-5 0.0
0.00018158259432918353 -2.088615666622114e-5 0.0
0.00022635507847198487 -2.059786269853589e-5 0.0
0.00018075076713804938 -1.0700877599827657e-5 0.0
0.0002283732434775714 -7.840542773926935e-6 0.0
0.0001812297064429518 -4.7037672414011284e-7 0.0
0.0001230214105754474 -5.437569530458275e-5 0.0
0.0010808121658369286 -0.0001816874714794549 0.0
9.896057784448507e-5 -4.1289445939852066e-5 0.0
0.00040731856071979296 -0.0001908001990986405 0.0
0.0018680136771108099 -1.9772840694237295e-5 0.0
0.0008871213565177004 -0.0002006123859506597 0.0
0.0012161316690280828 -4.833020448161958e-6 0.0
0.0012272011829549084 6.265909264680817e-6 0.0
0.00023137748612160866 5.204049334628289e-6 0.0
0.0003056059548718267 -0.00014631586841768032 0.0
0.00028383751334139354 -0.00013319016323780624 0.0
0.0005899242263199903 -0.0002552847808132231 0.0
0.0012805474245033601 -0.0003092312411559724 0.0
0.0006993073459973657 -0.0002785136542149042 0.0
0.0015704384315159466 -0.00019983386980902736 0.0
0.0018905970203156976 -2.3533882948452497e-5 0.0
0.0007982668753614791 -0.0001806534191839839 0.0
0.0007756563893311846 -0.00017580128791976112 0.0
0.0007737567548035936 -0.0001838201464379449 0.0
0.0006724363701556627 0.00012417890530177508 0.0
0.000752456275011034 -0.0001786247226333427 0.0
0.00016876574470219726 -5.373840116946785e-5 0.0
0.0010467809184996682 -0.00031803827659313883 0.0
0.001068870479186763 -0.00031202200834180437 0.0
0.001070617867677647 -0.0002974203026363557 0.0
0.001091143465355147 -0.00030563608972572834 0.0
0.0012968978696396988 -0.00020673600183564918 0.0
0.0013057810127949173 -0.0001884908986863093 0.0
0.0018779674672345847 -1.533906582566336e-5 0.0
0.0018531303522353784 -1.8818908385498256e-5 0.0
0.0012689703138115272 1.916033340345033e-5 0.0
0.0012370457352965042 1.581335264414295e-5 0.0
0.00038685450448779595 -0.00017887851064134466 0.0
0.0005538527986763162 -0.00024364424549321254 0.0
0.0005349504585128305 -0.00023355158757056116 0.0
0.0009446338924169923 -0.0001280835818372041 0.0
0.0015131611867463496 -0.00024089981995277114 0.0
0.00018421323166200205 9.136279132921343e-6 0.0
0.0005314548556702032 -0.00022323411152145025 0.0
0.001089429827976283 -0.0003206767799426435 0.0
0.001111381239388014 -0.0003141249543531627 0.0
0.0010851374752875083 -0.0001701289683908695 0.0
0.0010565946698752227 -0.00017765933980266036 0.0
0.001060754582657297 -0.00016676791792678331 0.0
0.0010034464241687286 -0.00010954010106622872 0.0
0.0001717437148511151 -6.225469403871208e-5 0.0
0.00010561080862114761 -4.754465413037271e-5 0.0
0.0010934972488444716 -0.0002907621929385547 0.0
0.0011330384566862668 -0.00014110923623094515 0.0
0.0009050216098693991 -0.00031209497543269383 0.0
0.00039303237639567117 -9.291838666132345e-5 0.0
0.0006757818132183041 -0.00014217714195724848 0.0
0.00032670774079866457 -0.00015958183528355475 0.0
0.0015844845278504631 -0.00017397455304784368 0.0
0.0004240324315680052 -0.00015181567758984206 0.0
0.0003989366113130497 -0.00014129410639932832 0.0
0.0004223593076865894 -0.0001448621952709264 0.0
0.00039621406839271064 -0.0001345528616283525 0.0
0.00042049492519617286 -0.0001382438949089133 0.0
0.00037239549532958917 -0.00013052038297325355 0.0
0.0012198320657005543 -0.00032095331024945966 0.0
0.0012025895703230488 -0.0003127031511584091 0.0
0.0002665502279050487 4.3507771567584755e-5 0.0
0.0009249092684736799 -0.00032098969826307365 0.0
0.0009009629538698481 -0.00024935762990697604 0.0
0.0008790452527906201 -0.00025351189951310576 0.0
0.000463243635442781 -0.00021588919792355613 0.0
0.00013135988782308472 -4.0956281337567736e-5 0.0
0.00014125684686675563 -4.622162610733144e-5 0.0
0.0017355337543828347 -4.478118606512014e-5 0.0
0.0017725919706664552 -3.349864921753455e-5 0.0
0.0002722586903355026 -4.575735448034055e-5 0.0
0.00047874364869025717 -0.0002169209113326391 0.0
0.0004761447421652794 -0.00020773363908137157 0.0
0.0004825762094574964 -0.0002271227969558055 0.0
0.0004480729448272956 -0.00021461362579671824 0.0
0.0003832678054619117 8.080382824037115e-5 0.0
0.0007128338780976228 -0.0002446071243926524 0.0
0.0010763479057387519 -0.00019398944810637944 0.0
0.0017443868691358038 -3.713784003256513e-5 0.0
0.0010253086946001803 -0.00032379630876908826 0.0
0.0006819794798501978 -0.0002804364293536181 0.0
0.0018959710662674557 -3.297766370814361e-5 0.0
0.0018791068397512618 -5.1987956660510855e-5 0.0
0.0006697999429226127 0.00010048979355539118 0.0
0.0005385715085903702 -0.00024412974778175117 0.0
0.0012028114772426849 -0.00014257395086045475 0.0
0.0012387066197123524 -0.00013110095033125153 0.0
0.0002185750244406984 -7.658357358383095e-5 0.0
0.0002907826893403561 -0.0001433494146222105 0.0
0.0002694815654679099 -0.00013022789383979532 0.0
0.0002621047994986935 -0.00012040767542394332 0.0
0.000392057640663296 -0.00018894061655220314 0.0
8.18597363248967e-5 -3.446977114001245e-5 0.0
7.677325172825955e-5 -3.0332336443249197e-5 0.0
0.0011096223477560585 -0.0003295525822902609 0.0
0.001131071100408848 -0.0003228418829026441 0.0
0.001132248007769811 -0.0003063252573796759 0.0
0.0015536286894508222 -0.00016477304903579087 0.0
0.0015369236312721855 -0.00016150524077788894 0.0
0.0015284664345440512 -0.00024890069437735957 0.0
0.0003691940674045413 -0.00012410880626923673 0.0
0.00034576965676099097 -0.00011995209271747204 0.0
0.0012650271835544845 -0.00013315174423376871 0.0
0.0018601333552687232 -8.56189673623482e-6 0.0
0.0018712654384179265 -1.0032798069546763e-5 0.0
0.0018835590382012865 -1.283424651451996e-5 0.0
0.0018364239560671874 -8.2862590587454e-5 0.0
0.0001296111498281607 -6.208562744676506e-5 0.0
0.0012167304484896422 -3.1084018874441075e-5 0.0
0.0011840603472070789 -3.469385309211853e-5 0.0
0.0011735268808890586 -4.2793207639086665e-5 0.0
0.0011425270264532588 -4.659109352543315e-5 0.0
0.0011336458743367245 -5.380862724272089e-5 0.0
0.0011505210386477075 -3.975127003955269e-5 0.0
0.0009788695433436334 -0.00020021995525291598 0.0
0.0008027457408096621 -0.00016501484140808245 0.0
0.0008282690038358138 -0.00016144679501221569 0.0
0.00027643529812202013 -0.0001405472242071068 0.0
0.0002552098540251024 -0.00012704273261794662 0.0
0.0016657166254537507 2.449718839949802e-5 0.0
0.0017296225559091517 2.1501332234809836e-5 0.0
0.0017549748152972243 1.729543060963055e-5 0.0
0.0017947550633884922 1.7460902399678764e-5 0.0
0.001778824227508392 2.0499434848195187e-5 0.0
0.0008863916030326691 -0.0003035033650496825 0.0
0.0008858130363003157 -0.00029124112916803984 0.0
0.0008863142223951971 -0.0003162531378538117 0.0
0.001186700765493536 -1.0351778159603646e-5 0.0
0.0011748895128495334 -1.9973147477125726e-5 0.0
0.0002755646583780648 -5.664268192290358e-5 0.0
0.0001332005062171116 2.8966421876612564e-6 0.0
0.001199226439772196 -0.00032969031802196103 0.0
0.00032399910824815263 4.426593970916497e-5 0.0
0.0012087503247288516 -0.00018924312589078132 0.0
0.0011694932912898889 -4.9726217936132416e-5 0.0
0.0011253194984645915 -6.094011909419609e-5 0.0
0.0011544881058569573 -5.8880578034506143e-5 0.0
0.001117088317797813 -6.818850230027558e-5 0.0
0.0011449151972585388 -6.680451161679837e-5 0.0
0.0011091969614619697 -7.575631762908479e-5 0.0
0.001136484304609189 -7.488451039980052e-5 0.0
0.001101695611742938 -8.367622696346352e-5 0.0
0.001129722052540334 -8.309844663688218e-5 0.0
0.0010880181754120502 -7.013238448069745e-5 0.0
0.0010744944261422355 -8.439588510176474e-5 0.0
0.0012378590247332814 -0.0003293134834920716 0.0
0.0019083590740519344 -1.1118766653372978e-5 0.0
0.0006558402980026028 -0.00022934859806989627 0.0
0.000634989547969289 -0.00022103572691846993 0.0
0.0017663792825128428 -0.00010549922516472283 0.0
0.0007553146315763305 -0.00017206893552765252 0.0
0.0011047266689169172 -5.6888999353428794e-5 0.0
0.0004963769308455987 0.00012074610766260856 0.0
0.00011848474848756256 -3.273539658754784e-5 0.0
0.0007437596722969313 0.00011951836184905012 0.0
0.0007319522149492743 9.252740178310326e-5 0.0
0.001451303793100053 2.62970539845403e-5 0.0
0.001785489416232853 -0.00010616348591667939 0.0
0.0017511808244662782 -0.00013317416817261498 0.0
0.0007500658103421295 -0.00018654585165227557 0.0
0.0007310698261675207 -0.0001800231595203381 0.0
0.00034091526938982854 -0.00015465684169297715 0.0
8.84268663306403e-5 -4.058497879302576e-5 0.0
0.00010118854106396323 -3.2171090805545064e-5 0.0
0.00010634700337756163 -3.5162512357816824e-5 0.0
6.48035158886189e-5 -2.757528375525555e-5 0.0
0.0012820446151820815 -0.00018515306481949685 0.0
0.001314843296124042 -0.00017117924545950505 0.0
0.0013394237710431822 -0.0001739933682729656 0.0
0.001348678872780219 -0.00015634817634167724 0.0
0.0010679562353972626 -9.175652452837331e-5 0.0
0.00057284198233119 0.00014409350185823837 0.0
0.0006963666935641856 0.0001449899190395806 0.0
0.0010326363465983047 -0.00017379842727631878 0.0
0.0010371137072312194 -0.00016324652015682262 0.0
0.0008058606691641486 -0.00015803548556611442 0.0
0.0006953023517752295 -0.00015973940035839904 0.0
0.0007009447022418559 -0.00029006773025114295 0.0
0.0014068950315744076 -0.0002595224250098346 0.0
0.0014228006322177795 -0.00026545270229952074 0.0
0.0013970818470649792 -0.00028254378385376874 0.0
0.0014124738004421581 -0.00028967279484788547 0.0
0.0013883075961147906 -0.0003056671575755245 0.0
0.0013728817514882384 -0.0002985065484988542 0.0
0.0013320658132436026 -0.0002877076371147783 0.0
0.0012030481391250465 -0.00029451285266679923 0.0
0.0013278848310637708 2.3966206976038932e-5 0.0
0.0009672021391909885 -0.0002596453251786659 0.0
0.00027593326177129747 -1.8479195128312983e-5 0.0
0.0018599870465971216 -7.678887962759967e-5 0.0
0.0018967688205473916 -4.9678492249195806e-5 0.0
0.0014378581633754273 -0.0002723656004289544 0.0
0.001428425899980054 -0.0002975873705461778 0.0
0.0014528327879668845 -0.0002806664291650041 0.0
0.0007176754174960082 -0.0002879800677120104 0.0
0.0008583986251839498 -0.0002462947874409599 0.0
0.0008581254365451035 -0.0002571380881869906 0.0
0.0008783308211014838 -0.00026494053031273 0.0
0.0005989551807971014 -0.00019490917027470788 0.0
0.0008375317998098368 -0.00024970809122923544 0.0
0.0010731100545844376 -0.0002833113721448379 0.0
0.0015690705356200135 -0.0001418527037756784 0.0
0.0015996654674307728 -0.00017892204114948058 0.0
0.0015854491140352563 -0.00020681582415866818 0.0
0.001618348245292927 -0.00015118190248801419 0.0
0.00023470628940604508 -5.9665116033323424e-5 0.0
0.0006435082960455427 -0.00026130494130575206 0.0
0.0006265203282590183 -0.0002626736303798598 0.0
0.0006456356220456154 -0.0002724584668692173 0.0
0.0006294737555560421 -0.00027394595899584356 0.0
0.0013734674006627588 -0.00015833445211023019 0.0
0.00041255639192355547 -0.00020111468665673666 0.0
0.0003726241122183928 -0.0001771484391604157 0.0
0.0018407238677037125 -1.576160768940531e-5 0.0
0.00010744957947520656 -2.2717262653594935e-5 0.0
0.00010403566635830826 -1.7208140275530258e-5 0.0
0.0011805978111285146 -0.00031897029205607406 0.0
0.0011809936750086995 -0.0003374819258695371 0.0
0.0009535769442001003 -0.00020600837783265021 0.0
0.001820203392151964 1.3166380991436354e-5 0.0
0.00037758037145947296 -0.00018714225986691984 0.0
0.0015052788438117864 -3.4557070300413495e-5 0.0
0.0016860250301609788 -0.00010464397186677856 0.0
0.0017427054138311165 1.082941956993456e-5 0.0
0.0017560349118726562 1.6746380531586404e-5 0.0
0.0013241493547847532 -0.0001547242530341366 0.0
0.0014324852227718182 -0.0001689902507364805 0.0
0.0014542317464116166 -0.00017141792523166254 0.0
0.0013583361025982035 -4.6311961261985014e-5 0.0
0.001397286617460002 -5.14310758924051e-5 0.0
0.001422888757554825 -2.8897552246902797e-5 0.0
0.0010876402997783978 -0.00033589381422047265 0.0
0.0005561044210128036 -0.00025399601226264054 0.0
0.0008194245430303811 -0.00019414222989900005 0.0
0.0011701521247316484 -0.00015409305204415995 0.0
0.0010228754275408878 -0.0002099349547181619 0.0
0.0010455285749539386 -0.00033273892571432416 0.0
0.0004972797069559443 -0.00022776391365257674 0.0
0.0006164957537572018 -0.00022141309543724782 0.0
0.0002701078629451394 -9.012960733970425e-5 0.0
0.0018495370954397003 1.2881572410444294e-5 0.0
0.0013669907694716834 -0.00020254678797835402 0.0
0.00018923435732557642 -6.509169567506372e-5 0.0
0.0005995934607876061 0.00016068107071565612 0.0
0.0010332915058627052 -0.0002681484329215361 0.0
0.0013651668783282412 -0.00032046437715648054 0.0
0.0013489860322344642 -0.00031313189394777005 0.0
0.0011943995893490373 -0.00022040978055047706 0.0
0.001272659053462847 -0.00011951794143328429 0.0
0.0005718734801454107 -0.00017031630023426288 0.0
0.0008577836244409674 -0.0002701989223423714 0.0
0.0011639968127950874 -0.00013236670778377354 0.0
0.000614207562156514 -0.00021249241360154805 0.0
0.0005953518778443988 -0.00021250389530285053 0.0
0.000501040372555011 -0.00023808149468312523 0.0
0.00031879530768226104 -5.976187685071966e-5 0.0
0.0003180886410393198 -4.7791722863436986e-5 0.0
0.00013749558193602355 9.312976984503311e-6 0.0
0.00019289876068102833 1.82929602611255e-5 0.0
0.001501626040431394 -0.00026862193824941406 0.0
0.0002464533855009666 -8.80630186052022e-5 0.0
0.0003494280373153881 -0.00012641900704189575 0.0
0.0003226922924290984 -0.00011535977710814993 0.0
0.0016002873918255934 -0.00014910375480531183 0.0
0.0007932535444924891 -0.00024537532107156407 0.0
0.001004108720077202 -0.00019353452564696116 0.0
0.0012834500605463778 2.051850586637822e-5 0.0
0.0012818641579403385 5.954935513905259e-6 0.0
0.0012516428923142042 1.3319986738332787e-5 0.0
0.0012530472565345108 -4.1081607563518645e-6 0.0
0.0012830078942970668 -1.5067674740702643e-5 0.0
0.001396739402145992 6.525588772927088e-6 0.0
0.0014344209594419224 5.265579796237848e-6 0.0
0.0014459346312155606 1.3885364960982337e-5 0.0
0.0014815423845922781 1.1732603051598078e-5 0.0
0.0014704224071451157 3.025853760309263e-6 0.0
9.481383969850123e-5 -2.8769971705303533e-5 0.0
0.0013840449134715329 -0.00014135162368108666 0.0
0.0002711504933397587 4.817913634819426e-5 0.0
0.0003048213041680696 5.721659110203402e-5 0.0
0.0011292203571528923 -0.0003383741113550713 0.0
6.706364605385227e-5 -1.2492619975184351e-5 0.0
0.0015423126385540266 -6.605367444734248e-5 0.0
0.0015825713744215437 -5.3680079357232815e-5 0.0
0.0015543592568131473 -5.2508343496016827e-5 0.0
0.0016143291069990607 -5.300551504700003e-5 0.0
0.001623251655717885 -4.2225934642194656e-5 0.0
0.001655585153373067 -4.186473232959023e-5 0.0
0.00044699088538673683 -0.0001480742158533403 0.0
0.00044645740610856175 -0.0001417456471807847 0.0
0.000418482917100323 -0.00013188590495372504 0.0
0.00044559464004449966 -0.00013560237161368098 0.0
0.00047353149845634257 -0.00014492731800024174 0.0
0.0004732703543967497 -0.00013876700881333887 0.0
0.0005006638389827229 -0.00014749222842721572 0.0
0.0005422834781134627 -0.00025423088682997646 0.0
0.0005009067984617652 -0.00014111647527718116 0.0
0.0005279861185012854 -0.00014949859226793727 0.0
0.0001370662979969983 -1.2048971091992537e-5 0.0
0.0003201168662034764 -6.989202057286949e-5 0.0
0.0005265814922608893 -0.0001557745532994932 0.0
0.00041970746173653585 -0.0001267784197505135 0.0
0.0015513204814339245 -0.00014013532706412936 0.0
0.001519690386029118 -0.00015944052105393088 0.0
0.0008682437117100543 -0.0003080283365634364 0.0
0.0008678856069941445 -0.00032048127858637333 0.0
0.001223926413460071 7.090095105669432e-6 0.0
0.0006728768042053284 7.516337583675095e-5 0.0
0.0007308745037684698 6.456199590993839e-5 0.0
0.0007865628153224169 7.96750607865449e-5 0.0
0.0007857876108670653 4.932623550626301e-5 0.0
0.0007350143328972057 3.586892850575687e-5 0.0
0.0007891344355917927 1.666056320218646e-5 0.0
0.0007417307254577029 6.961152402937072e-6 0.0
0.0007953635631214617 -1.3422954798148368e-5 0.0
0.0007487433657715088 -1.880825036682818e-5 0.0
0.0008088143581596661 -3.814868722096311e-5 0.0
0.0007539031477581348 -3.956672949911135e-5 0.0
0.0008020676044206899 -5.4139428194408836e-5 0.0
0.0007555454338556847 -5.554304041900149e-5 0.0
0.0008004339535037416 -6.686841920206442e-5 0.0
0.0007584457395369868 -6.889325222089313e-5 0.0
0.000799407090814982 -7.721779385437158e-5 0.0
0.0007586434557573648 -7.926660753553808e-5 0.0
0.0007959054363719407 -8.535424675750684e-5 0.0
0.0007577995978732933 -8.764681291128146e-5 0.0
0.0007926606046647826 -9.221944163029488e-5 0.0
0.00075601799591658 -9.48508202142446e-5 0.0
0.0007887699877357791 -9.840610544794448e-5 0.0
0.0007528227328609232 -0.00010129410971032643 0.0
0.0007847954069386348 -0.00010406651034821752 0.0
0.0007494801382987119 -0.00010748233913971146 0.0
0.0007170559240016995 -0.00010363156269300319 0.0
0.0007144962259495985 -0.00011016323508229384 0.0
0.0007828954874421402 -0.00011009058660526952 0.0
0.0007210668600460155 -8.091838573992683e-5 0.0
0.0008195673031199291 -0.00010012642427664096 0.0
0.0008321781249098225 -8.932412051012148e-5 0.0
0.000697874543875841 -1.1182004399206682e-6 0.0
0.0008402239686771319 -7.447965951158348e-5 0.0
0.0006810072807892151 -0.00010548414178627599 0.0
0.0006797395223624629 -0.00011223331189793164 0.0
0.0007120250095220708 -0.00011646289729051055 0.0
0.000678399435395138 -0.00011867206275764419 0.0
0.000713332040648459 -5.737954328116408e-5 0.0
0.0008523056499049633 -5.467314356077378e-5 0.0
0.0006828204188365336 -9.818477167771892e-5 0.0
0.0008446912575421625 -6.43368853812727e-6 0.0
0.0007098609455716591 -0.00012258522695468986 0.0
0.0006769583986321667 -0.00012492331484067765 0.0
0.0006452059454264643 -0.00012031313522346715 0.0
0.0006449649890523446 -9.95068513808375e-5 0.0
0.0006444818127298919 -9.06362326646544e-5 0.0
0.0007430792927331509 -0.00011960793799039495 0.0
0.0007397373881982239 -0.00012561670823753188 0.0
0.0007716396938514827 -0.0001221914194265298 0.0
0.0008400869886726098 6.019751639269636e-5 0.0
0.0008484195774337193 8.603109550406058e-5 0.0
0.0006454341454455178 -0.00012673364246181622 0.0
0.0006126340607265532 -0.00012145651802901115 0.0
0.0006126604922907791 -0.00011493267640391433 0.0
0.0005779805893590719 -0.00011524395476182801 0.0
0.001024597660546736 -0.0003382001696528316 0.0
0.0010048920720994899 -0.00032927808750386853 0.0
0.0017694749066124523 -0.0001345964536756021 0.0
0.0010961647023563005 -0.00027614244350979513 0.0
0.00111673753725739 -0.00028379526826480717 0.0
0.000651422810817806 -0.00021971773738802648 0.0
0.0006724244726216295 -0.00022765782128611527 0.0
0.0015875473295352488 2.851036504016226e-5 0.0
0.0011148864649277058 -0.00016117204940780224 0.0
0.0006765465114180466 -0.00013096946584720124 0.0
0.0005135607455125177 -0.00022271632798082569 0.0
0.000511836259241283 -0.00021316746946302564 0.0
0.0005282588899806221 -0.00021352379334953957 0.0
0.0012454388394821474 -0.00011813140572934526 0.0
0.0011785850405351822 -5.8567730942748674e-5 0.0
0.0007727269941713576 -0.00019215604246686663 0.0
0.0007496697735164462 -0.0001949365198075661 0.0
0.0011452305988081484 -2.6203056721076515e-5 0.0
0.0011347662578068622 -3.3805178779983546e-5 0.0
0.001160839548685446 -2.8844395043397564e-5 0.0
0.0011211253894212463 -4.174476928558093e-5 0.0
0.001157343022294849 -1.7379032971438955e-5 0.0
0.0011638758896521254 -7.453360831492308e-5 0.0
0.0011579278977042206 -8.289394273523193e-5 0.0
0.001120582213635015 -9.181614738151462e-5 0.0
0.0008316487182194942 -0.00015426452655854886 0.0
0.0008542329274453383 -0.00015745001904746787 0.0
0.0008580365841266055 -0.00015032644565858582 0.0
0.0008802813266022537 -0.0001530353514177323 0.0
0.0008842130032979311 -0.00014593563891653795 0.0
0.000906442169462897 -0.0001483193719701944 0.0
0.000910695888564376 -0.00014115888224809146 0.0
0.0009340021227243806 -0.00014309148419064106 0.0
0.00092908120695111 -0.00015090124934362783 0.0
0.0009576624329196006 -0.00014425499050062842 0.0
0.0010665339944380325 -0.00015645250073206368 0.0
0.0010417471982391271 -0.0001534068836418238 0.0
0.001013536359355321 -0.0001601344224914484 0.0
0.0010177814329527738 -0.00015081046961892223 0.0
0.0002137928813060614 -7.211767997793477e-5 0.0
0.0002628235235854899 -0.00013782481936446995 0.0
0.00024172944623394608 -0.00012396434698329088 0.0
0.00023429285496847125 -0.0001133133774356225 0.0
0.000219992165235877 -0.00010962557341369735 0.0
0.0009563262397695748 -0.0001955012372400737 0.0
0.0013001691743984212 -0.00012039210933078573 0.0
0.001289580340607929 -0.00013537149556561634 0.0
0.0005478373018904064 0.00012102047591439427 0.0
0.001042338793226697 -9.228766099629834e-5 0.0
0.0010475477652904285 -8.617334823141926e-5 0.0
0.001179317150461448 -7.590700037012109e-6 0.0
0.0018720562082789594 -2.5133621008079322e-5 0.0
0.0019035931523923026 -1.5807742255991852e-5 0.0
0.001924744119918311 -1.2907436767624514e-5 0.0
7.396762802873983e-5 -2.384851830234111e-5 0.0
7.729084085973914e-5 -2.5573864093533255e-5 0.0
0.00010831587630663284 -3.684113621910612e-5 0.0
8.241923323850284e-5 -2.7978118155719833e-5 0.0
0.00011143195338397898 -3.9052488798011234e-5 0.0
8.598835703637273e-5 -3.014250197435072e-5 0.0
5.40585454861526e-5 -1.825963604712812e-5 0.0
0.000931271233342824 -0.00020096149808568957 0.0
0.00047454556085036294 -0.00013303980868441712 0.0
0.00029825309588236943 -0.0001541182015007006 0.0
0.0007674373131212845 -0.00012782619448856118 0.0
0.001741926384237609 -0.00015952971706604117 0.0
0.0017218690564124318 -0.00016272473825796254 0.0
0.001466475138657594 -0.00015143251259012972 0.0
0.0014950412012853407 -0.00015020935469730213 0.0
0.0015046928112118765 -0.00012990816122467123 0.0
8.651652867794857e-5 3.181141698049239e-6 0.0
0.0006846350975664866 -0.00029213731601930587 0.0
0.0004870706846561087 -0.00023767509047104533 0.0
7.156204615454678e-5 -3.371838744704654e-5 0.0
9.700515326326885e-5 -5.016784035033635e-5 0.0
0.00039145475628482443 -0.00012261160284477926 0.0
0.0012599920928814028 -2.7104208316960534e-5 0.0
0.0012951872398130249 -4.011059790404392e-5 0.0
0.0014070248339772527 -0.00016704360309224072 0.0
0.0014737423764637375 -0.00017447325976272947 0.0
0.0006482912083279563 -0.00028355868673274787 0.0
0.000718629216635906 -0.00029927386248515504 0.0
0.0007355165041810741 -0.0002974189067168632 0.0
0.0016140303681140614 -0.00018559058933883591 0.0
0.001599956530122007 -0.00021480015552642905 0.0
0.0015709239431626423 -0.0002406573760604442 0.0
0.0017821556205929706 -2.7383020618391467e-5 0.0
0.0017533819345992637 -3.0199569394643136e-5 0.0
0.0017155488185206763 -3.989059513917763e-5 0.0
0.0017214045600540233 -3.2351016703743114e-5 0.0
0.00033799351506157903 -0.00011345254603977894 0.0
0.0016628378967166754 -3.247945636612826e-5 0.0
0.0016249904174942419 -3.2514947079600136e-5 0.0
0.0011205304465093944 -0.0002695442973188882 0.0
0.0002261192078963426 -0.00011936136843059545 0.0
0.000206923347303279 -0.00010712378485788713 0.0
0.00019913114815938362 -9.690248499385527e-5 0.0
0.00018615725696456505 -9.369610345887818e-5 0.0
0.0019317441701863726 -9.536963978509444e-6 0.0
0.00188221251718358 -1.0539408536690909e-5 0.0
0.0019110541121071202 -6.426526517944955e-6 0.0
0.0015160880048793195 -0.0002765969727003558 0.0
0.0007799301711332315 -0.00016101316238418452 0.0
0.0016270375314347183 -0.00019363357386944802 0.0
0.0016144725993533385 -0.00022220333257385916 0.0
0.0016399128237023863 -0.00020156731976814782 0.0
0.0016295008907075237 -0.00023291814767288456 0.0
0.0016563112350178682 -0.00020719945360045522 0.0
0.0016670910965521494 -0.00017933768909518863 0.0
0.0016811490021999623 -0.00018668949951657155 0.0
0.0008877317563742116 -0.00032881833616933893 0.0
0.0008703270679129432 -0.0003342596331501793 0.0
0.0008472837149072498 -0.00032426070755641037 0.0
0.0006460969666636639 -0.00013318428491779997 0.0
6.266403280977849e-5 -2.187270193099255e-5 0.0
8.900465330598507e-5 -3.227474193303261e-5 0.0
6.585855603015355e-5 -2.3747287960138497e-5 0.0
0.0006347371410804628 -0.00028712854592993797 0.0
0.0006150695045974294 -0.00027578700367673784 0.0
0.00182816732943004 -0.00010485842147157763 0.0
0.0001479746604736803 1.544658146107968e-5 0.0
0.000990382502735947 -0.00015820868884276033 0.0
0.0009957428925126328 -0.00014874658343392934 0.0
0.001777461513966126 1.2950637381211183e-5 0.0
0.001841307065329853 9.23477885226707e-6 0.0
0.0016316561877303842 -0.00012912836823094297 0.0
0.00035956650329582523 -0.00017524825678922598 0.0
0.0003667862985988574 -0.00018658441642573618 0.0
0.001366995130902499 -0.00017610848143052393 0.0
0.0015040136420270845 -6.0938650145960375e-5 0.0
0.0018781252963988985 -7.342912008306795e-5 0.0
0.0019148992414399898 -4.579190625668754e-5 0.0
0.0019316873849638152 -2.747167538686139e-5 0.0
0.001435614371254152 -5.394962229821055e-5 0.0
0.0015842306245744048 -0.00012174349381350122 0.0
0.000849439421580173 -0.0002904526562194979 0.0
0.0016457232228844413 -5.224817405618456e-5 0.0
0.0015279277541001962 -0.0001420530340384086 0.0
0.0005945949353901873 -0.0002034074733548211 0.0
0.0003664291499223507 -0.00016715434818136463 0.0
0.0018144913542165473 -2.2864710690841128e-5 0.0
0.0015179737898477158 -1.3394907533696954e-5 0.0
0.0006158792461575094 -0.00028593819142475713 0.0
0.0003027173211756016 -0.00010234059738580705 0.0
0.0010317450454024539 -0.00010052980079079687 0.0
0.0014856645567553114 -0.00026426776275327384 0.0
0.0014778987356543712 -0.00028897048077433613 0.0
4.9106533262108286e-5 -2.1233028815343654e-5 0.0
0.0011490292626669127 -0.0003333160955316697 0.0
0.0011438739885360893 -0.0003459311448806772 0.0
0.0007355860290914818 -0.00031085903899730856 0.0
0.0007533961023302392 -0.00030746082100582947 0.0
0.0007522419223100574 -0.00029516417617782585 0.0
0.0007704878267114227 -0.0003046294517637586 0.0
0.000754068651328717 -0.0003178559513739874 0.0
0.0006846060322596546 -9.01514440641149e-5 0.0
0.0006447709636180304 -8.144149697806188e-5 0.0
0.00027625174964050287 -6.513630393636561e-5 0.0
0.0006594832566371171 0.0001704924645466003 0.0
0.0006400349788241485 0.00015465043116251015 0.0
0.001223851735177036 1.6067417402005416e-5 0.0
0.001441898657710346 -0.0003060592709423329 0.0
0.0014200309764233964 -0.00032197265093919026 0.0
0.0001919851090998033 -0.00010387592523586585 0.0
0.00017153550189393988 -8.959964032320262e-5 0.0
0.0019217485873609724 -6.454465563266036e-6 0.0
0.00033109647423628286 -0.00012287321643674164 0.0
0.0003012211740862898 -0.00011166151375113183 0.0
0.001814218935653571 1.5738084410272108e-5 0.0
0.0018005453869129155 -0.00010836560882363503 0.0
0.001783915326338684 -0.00013948912436676788 0.0
0.001060382011693516 -9.969413471186322e-5 0.0
0.0011968552144311507 -0.00034564888128472146 0.0
0.0011745537025084271 -0.00035461932682140054 0.0
0.0005516130603182335 -0.00015681879205525507 0.0
0.0005550091936921701 -0.0001505707184979408 0.0
0.0007703345329842028 -0.0002925956723721321 0.0
0.001636522951770766 -0.0001553889882277297 0.0
0.0009383588644244943 -0.0001356778699301717 0.0
0.0009172375797003863 -0.0001338876820670096 0.0
5.9053778178181444e-5 -2.9151791693684134e-5 0.0
0.0006780010005633751 0.00026261418147757504 0.0
0.0008612694605647964 -0.00014326071967437137 0.0
0.0006070506328809267 -9.196764709910459e-5 0.0
0.0006098196089728511 -0.00010062997408711944 0.0
0.0003645698688110601 -7.309494186721772e-5 0.0
0.0011950726252253632 -7.330709454024397e-5 0.0
0.0007974808312363558 -0.00012421328843512414 0.0
0.0008026657021964296 -0.00011865198673732904 0.0
0.0008274444518475755 -0.00012034593928075525 0.0
0.0008320786636913925 -0.00011506681128581159 0.0
0.0008559763632084594 -0.00011588111988957907 0.0
0.0008610634988026304 -0.00011076295610424582 0.0
0.0008367590971462344 -0.00011005404082638677 0.0
0.0008661916447938481 -0.00010582335841147498 0.0
0.000841919672323003 -0.00010536810959609053 0.0
0.0008719814765140627 -0.00010118840827964078 0.0
0.0008831281788684505 -0.00011134142685034827 0.0
7.01150746843318e-5 -9.673738411918625e-6 0.0
0.0011488279857484783 -9.303809947738141e-5 0.0
0.0007874872849080788 -0.0001543251888006501 0.0
0.0008393966942607972 2.6468284182389448e-5 0.0
0.0009025440759683886 -4.344300728951425e-6 0.0
0.0008983349393290983 -2.889803219282372e-5 0.0
0.0008931964720998526 3.36352762648154e-5 0.0
0.0008519166151068593 -3.11973959022422e-5 0.0
0.0009017317457828661 -4.5032445085269095e-5 0.0
0.0009518005014739005 -4.4956428028373786e-5 0.0
0.0009465710421538922 9.914224526030514e-6 0.0
0.0001372398944025484 -4.807815848805557e-5 0.0
0.0001418238942982706 -5.141406711721763e-5 0.0
0.0019234086784159698 7.936605142265e-6 0.0
0.0018516085910959869 1.5350070919180614e-5 0.0
0.001848936681442647 1.5796315570406746e-5 0.0
0.0013831149951813785 -0.0003305242903348253 0.0
0.0013584815757049955 -0.0003421293468152562 0.0
0.0005086398374239296 -0.00020380457488653096 0.0
0.0005257282557568867 -0.00020406579864918129 0.0
0.0004912275719181846 -0.00020294229751565164 0.0
0.0005703178232041059 -9.42683271889995e-5 0.0
0.0009465970673054009 -2.8411104729752536e-5 0.0
0.0008971379148791688 -0.00010099229362226363 0.0
0.0009013394008013159 -9.647984368759408e-5 0.0
0.0008775920015998274 -9.678702585699448e-5 0.0
0.0009061056102362861 -9.257066940525133e-5 0.0
0.0008844706350659705 -9.257272634848182e-5 0.0
0.0005246281617886019 -0.0002447046266448374 0.0
0.0019198740624902764 9.209744635514917e-6 0.0
0.0009048163647232665 6.523204598182115e-5 0.0
0.0011957010040100425 9.429539103887514e-6 0.0
0.0011931422272148436 5.4329739021660785e-6 0.0
0.0011627489305916553 -3.982415519900672e-6 0.0
0.000608412736724972 8.225900174767003e-5 0.0
0.0008357547471493495 0.00013645274833725012 0.0
0.0007775314696326428 0.00014613932612684798 0.0
0.0007564991702839368 0.000159587599201007 0.0
0.0013656858356117226 -9.732978839246506e-5 0.0
0.0015433283242967384 -0.000257764761848382 0.0
0.00153063519775901 -0.00028947767217142617 0.0
0.0005039710251062676 -0.000247948518490786 0.0
0.0007885000398494494 -0.0003020159214761667 0.0
0.0007892795835293464 -0.0003140093841174951 0.0
0.0008064106562563195 -0.00031132800753596397 0.0
0.0008095435262797917 -0.0003249873083047988 0.0
0.0013740840671775435 2.686422654956442e-5 0.0
0.0013399838813849688 2.6194363706066112e-5 0.0
0.0013855644383395582 2.74048896361234e-5 0.0
0.001423288432557814 2.8416454496060535e-5 0.0
0.0010244435442021435 -0.00014190359375368448 0.0
0.001005218759967293 -0.00013930920099478617 0.0
0.0008253208054817152 -0.00032008953197616594 0.0
0.0005836380665323764 -0.00012282083656196986 0.0
4.049702733973809e-5 -1.6003244852582724e-5 0.0
0.0008450955635918818 -6.45687116079148e-5 0.0
0.0008814966964047656 -7.1607911872226e-5 0.0
0.0008765344970364769 -7.849303193783779e-5 0.0
0.0009155228955333443 -7.48821222712711e-5 0.0
0.0009082951229898231 -7.975489195673985e-5 0.0
0.0009207385279449209 -6.933768001344443e-5 0.0
0.0008758667274561981 -8.348906093928611e-5 0.0
0.0009024895778606446 -8.398925059917977e-5 0.0
0.0009514253265166258 -7.084065180016086e-5 0.0
0.0012985285405300083 2.4051980635535933e-5 0.0
0.0008728554618004433 -8.810438676167582e-5 0.0
0.0019491202683418613 2.0497492781022537e-6 0.0
0.0007361373362934578 -0.0001315105610184352 0.0
0.000878017976765169 -0.0002767972570100682 0.0
0.0008999958236921913 -0.00027307705105081856 0.0
0.0008891114003062497 -6.374119007630193e-5 0.0
0.0009316774381286799 -6.262256437009623e-5 0.0
0.0010742791388701192 -0.00014659079273840082 0.0
0.0013545180181644772 -0.00029206004170660797 0.0
0.0013308746892808363 -0.0003077784726789516 0.0
0.001326699548890822 -0.0003270903642131913 0.0
0.0013099704401664867 -0.00032174939645051583 0.0
0.0013076613959258814 -0.00033884866526786846 0.0
0.0012896587778487493 -0.00033423749743819565 0.0
0.001600255244711492 3.7499268043654127e-6 0.0
0.0015660321744739518 -4.661219972276072e-6 0.0
0.0015822487730749772 -1.1812506228864881e-5 0.0
0.0015318410087562947 -1.4964110366625023e-5 0.0
0.0015458383893136023 -2.2650567172910784e-5 0.0
0.0014957230976267429 -2.7099880211641925e-5 0.0
0.0015100371808465386 -3.500427199993694e-5 0.0
0.0014813889027063024 -1.925334762732587e-5 0.0
0.00144632972540384 -3.2144281258721184e-5 0.0
0.0015580174515315405 -3.0432992529567577e-5 0.0
0.0014319249298766477 -2.4611955205514856e-5 0.0
0.0015214772843941903 -4.313505875743174e-5 0.0
0.0014760334018580877 -4.8263401699085164e-5 0.0
0.0014850432575052596 -5.683151392340686e-5 0.0
0.001466822007963741 -1.2296946126813345e-5 0.0
0.0015476176033401537 2.346749485747555e-6 0.0
0.0015690236059237308 -3.889051814502955e-5 0.0
0.001636433045256987 -1.0767624516552984e-5 0.0
0.0016019982526701605 -2.6985164737611505e-5 0.0
0.0011054193113386726 -3.995358036516774e-5 0.0
0.0007994045161844669 0.00013236555726333914 0.0
0.00011889406289475591 -4.3397798469627e-5 0.0
0.00011262626691126546 -5.55409911438467e-5 0.0
0.00013502409743664266 -7.016993320706349e-5 0.0
0.0008240870584752287 -0.000308146399541505 0.0
0.001101711913625281 -0.0001503057722422907 0.0
0.0011126934898618146 -5.082619222175402e-5 0.0
0.0010759775825302132 -6.0546910267058235e-5 0.0
0.0010877756017682201 -5.4784881052973074e-5 0.0
0.001070839516179871 -6.546013285262056e-5 0.0
0.0010968571385003858 -6.312762383840091e-5 0.0
0.0010627544178550094 -7.13109376849167e-5 0.0
0.001054626673010096 -7.720204250679691e-5 0.0
0.0010329937216428467 -7.820008314458156e-5 0.0
0.00014553909690154167 -6.781465998333819e-5 0.0
0.0012376978977030962 -1.156403787278484e-5 0.0
0.0014778256254554963 2.30088728061274e-5 0.0
0.0014205708514621498 2.256615945235598e-5 0.0
8.096615341838058e-5 7.554688811821992e-6 0.0
0.00017529974774838357 2.427426914567276e-5 0.0
0.0001545213901148803 2.0529774884347198e-5 0.0
0.0012475989367488817 -3.02412983183902e-5 0.0
0.0001843261572406006 -8.305378054133745e-5 0.0
0.0002117495987234822 -9.908951153064373e-5 0.0
0.00022784183697458488 -0.00010433943072926469 0.0
0.00022472236109015865 -9.722277342746289e-5 0.0
0.00024108613347526765 -0.00010100128834801748 0.0
0.0008247902401369875 -9.503471040211375e-5 0.0
8.452669459040042e-5 -1.258560679379914e-6 0.0
0.0003945941229179716 -0.00011301473218246743 0.0
0.0003275810293518292 -0.00010180964940970966 0.0
0.0009372445951280175 -5.45515271526222e-5 0.0
0.00031333070487714283 9.088026824244e-5 0.0
0.0013036864410073462 -0.0002979474589832271 0.0
0.0011936980181013145 -2.5986777184625925e-5 0.0
0.0018452468601838179 -0.00010258151853832876 0.0
0.0014624709251282644 -3.988282687332861e-5 0.0
0.0014134118184169517 -4.5525602216405414e-5 0.0
0.0013426003804099212 -0.00033427097756622617 0.0
0.001953603708040098 6.977127895985404e-7 0.0
0.0019090920194836818 -1.21673215958624e-7 0.0
0.0019179876676497054 -2.028784460533309e-6 0.0
0.0019016438288434702 2.19741563523319e-6 0.0
0.0018679493531381687 -2.703137758794391e-6 0.0
0.0018960174170028154 4.5273785091167355e-6 0.0
0.0018450665033605622 4.365749023804518e-6 0.0
0.0018554465491639864 7.570348936055466e-7 0.0
2.6870639908950483e-5 -8.763906059338675e-6 0.0
0.0019700260886718 -2.5176830436352515e-6 0.0
0.0019381013180569545 -5.461861239163932e-6 0.0
0.0019575718675320093 -2.60971965868515e-6 0.0
0.0019407775813684081 -5.8760209573783135e-6 0.0
0.0011965732868094733 1.2399780402773448e-7 0.0
0.001405615560069304 -0.00031273197232721653 0.0
2.1852494877613837e-5 -7.64876256248311e-6 0.0
0.001977225611564625 -3.2770636421628747e-6 0.0
0.0006780726356307512 4.941936058242849e-5 0.0
0.0015574185172712001 1.6509006063211877e-5 0.0
0.0005558014876966283 -4.697998353390955e-5 0.0
0.0006048589250886915 -4.442635370609516e-5 0.0
0.0006038846647268829 -2.3965345060731766e-5 0.0
0.0006039898193797501 -6.022361899931576e-5 0.0
0.0006461330150402338 -5.940794785458014e-5 0.0
0.0006587680063085989 -4.480920294526767e-5 0.0
0.0006556278062012625 -2.3136492480143834e-5 0.0
0.0006060381462146642 -2.3015274956210575e-6 0.0
0.0005626634368215809 2.222690119806735e-5 0.0
0.0005616355684671356 -6.590851132706216e-5 0.0
0.0015915219259097233 -0.00024239666066064037 0.0
0.0019482008487353326 4.326926376408587e-6 0.0
0.0007714241825864483 -0.0002809076675412253 0.0
0.0002865428085321835 -0.00015378177249935054 0.0
0.0008442278754248699 -0.0002788166660453779 0.0
0.0006649405187123532 -0.00028220030069059734 0.0
0.0006664087609284867 -0.0002935336768797137 0.0
0.0009311812367431161 -9.153487514102265e-5 0.0
0.001240392621033658 -4.908411824412728e-5 0.0
0.0016918714444195274 2.0669434096232005e-5 0.0
0.0017133643613428326 2.4197722889055767e-5 0.0
0.0016539572904033866 2.705582555524916e-5 0.0
0.00013650298739107362 -4.633386951877296e-5 0.0
0.0002696176892783614 -0.00014850592847365324 0.0
0.0007711896578241899 0.0002029191719836833 0.0
0.0006979477001663146 0.0001981592161417174 0.0
0.001499412299312833 -6.785036728536892e-5 0.0
0.0008001117889414846 0.00010653940676803583 0.0
0.001746063690499694 -0.000104997580199842 0.0
0.0008372268700974902 -0.00023912622126779246 0.0
0.001438819066539531 -0.0001017173897455583 0.0
0.0014610974192074962 -7.446455733102067e-5 0.0
0.0006213742158073616 3.435656318070606e-5 0.0
0.0004907745852602756 -0.0002482026370207507 0.0
0.0017275841336540977 -0.00013570715847463047 0.0
0.00031224249162755915 -0.00015667067493127965 0.0
0.00032952137650760465 -0.00016776070223450672 0.0
0.00032118827984433464 -0.00016952191154603603 0.0
0.00046706649528425337 -0.00012021185627680748 0.0
0.0010766660764475794 -7.766065070274457e-5 0.0
0.001211227293082775 -4.228321700633813e-5 0.0
0.0007467682726810625 -0.0001134985744299447 0.0
0.0007759155870847527 -0.00011643123462571442 0.0
0.0019115789933699797 7.1925362852576255e-6 0.0
0.0018178489393668265 6.858958646944153e-6 0.0
0.00010447593978487875 1.0836237766310273e-5 0.0
2.704376492217391e-5 -9.028444129490511e-6 0.0
0.0008895523821722064 -0.00010609490802473868 0.0
3.096780178337258e-5 -8.714626056238133e-6 0.0
7.344205242720854e-5 -1.9865278931855288e-5 0.0
0.0008347361719284361 -0.0002689987626260499 0.0
0.0013306051479755603 -8.995332111663184e-5 0.0
0.0008609169794726204 0.00012116140857116783 0.0
0.0011571783498007509 -0.00014280222251697566 0.0
0.0009163261793144272 -8.807859262376513e-5 0.0
0.00154238874356889 -0.00010923965528570184 0.0
0.001820824845937414 -8.019799386142846e-5 0.0
0.0005742241066724047 -0.00020342551984301165 0.0
0.0005764236789224374 -0.0002126876603328683 0.0
0.0005550659914016797 -0.00020237127893867702 0.0
0.0005329634536967719 -0.00019222281993707993 0.0
2.2445502675860205e-5 -8.106351371583781e-6 0.0
4.099707463147654e-5 -1.5449093484205227e-5 0.0
4.5838475060311494e-5 -1.667960327145993e-5 0.0
0.0005012527916966823 -0.0001538841718216478 0.0
0.0004761423097659014 -0.00015234193331396353 0.0
0.0019722505341363498 -2.6638680147104305e-6 0.0
0.0010047312099613443 -0.0003436606536596345 0.0
0.0009852865450783927 -0.0003345122790688338 0.0
0.0009851000295653116 -0.00034845590629511617 0.0
0.0009660054920877877 -0.0003394106205922186 0.0
0.0009464578273852631 -0.00034369087788749817 0.0
0.0009450636041104407 -0.0003300076200521176 0.0
0.0009850627112513207 -0.00032051361395875355 0.0
0.0014157070011833976 -7.902876626453158e-5 0.0
0.000231359950700101 -5.1910883737406716e-5 0.0
0.00027367547947146787 -7.168281130820242e-5 0.0
0.00023960651101780222 -6.67846478822699e-5 0.0
0.0011901020658382517 -0.00013413556125765145 0.0
0.0005179068950474688 0.00014032168414770488 0.0
0.0009502952026474848 -0.00015316973046498116 0.0
3.415059033251936e-5 -1.0606381276758951e-5 0.0
0.0005990546695129085 -0.000275356754892897 0.0
0.0005817207706456191 -0.0002732094633293505 0.0
0.0005845404132355667 -0.00026493869818863445 0.0
0.0006628781208779568 -0.00027082976711709347 0.0
0.0005745819756996784 -0.00019361192850412976 0.0
0.0002717737341852892 -9.46565538460301e-5 0.0
0.00016742337633541326 -6.286023511449458e-5 0.0
0.001960213506670693 -1.167555378844816e-6 0.0
0.0019271855966699256 -3.1690832420088636e-6 0.0
0.000397499947684827 -0.0001994285394493485 0.0
0.0004678859316901598 -0.00022604406930489335 0.0
0.0004527713528504152 -0.00022516095308732637 0.0
0.0004327836751120577 -0.0002131443564829521 0.0
0.0004367024253786694 -0.00022330959358620418 0.0
0.0012562352701155132 -6.0903003450828446e-5 0.0
0.0009172268966873365 8.869434614381127e-5 0.0
0.0012172924297488574 -0.00033799631852616624 0.0
0.0012345354825718585 -0.00034646026735313365 0.0
0.0012538734407458803 -0.00033826131425108204 0.0
0.001212590439849306 -0.0003559716113085045 0.0
0.0006164729908652612 -0.00020505900413957586 0.0
0.0010573021895392627 -0.00026189584822075047 0.0
0.0008386607683565267 0.0001170076726697817 0.0
0.0008349124747575792 -8.30378090160216e-5 0.0
0.0019785169459181377 -4.02921557462863e-6 0.0
0.001957750293457588 -1.0240834095657184e-5 0.0
0.0019488981716413666 -9.247623656870036e-6 0.0
0.0004173936314032397 -0.00021154052776697858 0.0
0.00040255581262886906 -0.00020954198047431973 0.0
0.0005985202335527256 -8.007705716458252e-5 0.0
0.0005135479021618634 -0.0001923014463207424 0.0
0.0018168002811643211 -4.1836613918963494e-5 0.0
0.0015507000121359618 -3.8166069084922726e-5 0.0
0.0008759303271324489 -0.00011684035343989717 0.0
0.0009027836746348555 -0.00011171957190178733 0.0
0.0012286830493979397 -1.2055548006638254e-5 0.0
0.0013889578765524655 -0.00025426101423412406 0.0
0.0008153681373529887 -0.00024238832293993224 0.0
0.0008160717619612334 -0.0002531798277760673 0.0
0.00021195220318847582 2.939654987894524e-5 0.0
0.0004747707739150872 -0.00018992222755696402 0.0
0.0004551504276870819 -0.00018710727666907577 0.0
0.0004329606869694858 -0.000175922524206401 0.0
0.0004362338002991365 -0.00018507631106422836 0.0
0.0003644779426194836 -6.195392082155442e-5 0.0
0.0003642650778483764 -4.8576655959901106e-5 0.0
0.0004118384748926847 -8.688333317672e-5 0.0
0.0012309677334731396 -0.0003627873050929232 0.0
0.001180303325034388 -0.0002692601835681129 0.0
0.001154429001438408 -0.000278193575884333 0.0
0.001179275021566505 -0.0002888642340595822 0.0
0.001153909965853855 -0.0002973340050530228 0.0
0.00117134321179649 -0.0003052584529089421 0.0
0.0012030569093757102 -0.0002767712023435048 0.0
0.001224487440236567 -0.00028295227891808383 0.0
1.892383842766301e-5 -7.344994606977835e-6 0.0
0.0019821572432850904 -5.975169363924412e-6 0.0
0.001557729385690214 -0.000228446637529581 0.0
0.0011072975129081163 -0.00034409946131595457 0.0
0.0018291513706924763 1.0594681102115416e-5 0.0
0.0010671706114026487 -0.0003268337442904942 0.0
0.001065005829368927 -0.0003413098086327508 0.0
0.0014296192640377077 -0.00014495930141831439 0.0
0.0012791672753686859 -0.0001065778498128396 0.0
0.0012530536656584841 -0.00010532354150949308 0.0
0.0006069506166528219 -0.00025304175908020225 0.0
0.00037424764540034105 -0.0001591469448469979 0.0
0.0014378079880076663 -6.349638604256307e-5 0.0
0.001492090762022833 -0.00023889921203658232 0.0
0.0006658663543708164 -0.00017583359554732757 0.0
0.0006892720116491456 -0.00017433775802309787 0.0
0.0006871178010462089 -0.00018217836734861118 0.0
0.0006922625280718255 -0.00016692565443986559 0.0
0.0006640657188920352 -0.0001836831641673175 0.0
0.0007119949743795114 -0.00017337263493809495 0.0
0.0007164654339122358 -0.00016634277208096293 0.0
0.0007245449856092683 -0.00015865907051987568 0.0
0.0014639702942327445 -7.834695976048912e-6 0.0
0.0001887426006588668 2.6476751367972505e-5 0.0
0.001397673328060691 -3.815659259552116e-5 0.0
0.0015094641654662337 -0.00011301708945356242 0.0
0.0003863154878771493 9.494803816244345e-5 0.0
0.0002732004487139289 -3.289432885462042e-5 0.0
0.00041056222510593276 -6.35750296416002e-5 0.0
0.00033249325196339107 -0.00014354568745771784 0.0
0.0006684920722738918 -0.00016119182750733033 0.0
0.0005291237049887058 -0.00014288076334390625 0.0
0.0005638554040025489 -0.00014473071886083404 0.0
0.000584299885340893 -0.00015245195873632428 0.0
0.0009055235225625177 -0.0003251193359340652 0.0
0.0009260126093308397 -0.00033422064796148843 0.0
0.0009261250495492142 -0.00034904268930355633 0.0
0.0009448131429221321 -0.00031662504208874776 0.0
0.0014633346175461526 -0.0002549551703020686 0.0
0.000707283211458883 -0.00012852100736305302 0.0
0.0013884762180881144 -0.00012285035498276522 0.0
0.0006608380108253369 -0.0002597571045369267 0.0
0.0009849480539959894 -0.00030677900102745516 0.0
0.0006999103684283821 -0.00030224710694112106 0.0
0.0018036413878705243 8.076626662449509e-6 0.0
0.000925100869148542 -0.00015899844341707445 0.0
0.00024299827699849087 -8.326418645214274e-5 0.0
0.0007084597280526499 -0.0002243910303537398 0.0
0.0007296996383577225 -0.00023237256034755287 0.0
0.0006647796739906535 -0.00020873321240606852 0.0
0.0007163487740894926 -0.00027653815557931094 0.0
0.0011002990953381268 -0.00019886221933065285 0.0
0.001072009821199258 -0.00020689849226797094 0.0
0.0010957926123755487 -0.00021226060782790558 0.0
0.0013836330646579491 -3.101656382007254e-5 0.0
0.0008374426619324016 -0.0002286527762450831 0.0
0.0006198931803409393 -0.00019326714827343414 0.0
0.0010939808078781214 -9.167347730682884e-5 0.0
0.0010844439207047046 -0.00010036749618134899 0.0
0.0002666238210272877 -0.00011361731951773872 0.0
0.0005212055642108275 -0.0002346201103974538 0.0
0.0012581507433796343 -0.00031977821762575417 0.0
0.0011199454681150229 -4.542070768078864e-5 0.0
0.0009686905780116737 -0.0002469265617333937 0.0
0.0009454367301264912 -0.0002521919826182593 0.0
0.0009444325647224933 -0.00026486162126898377 0.0
0.0009226181644525467 -0.0002569241450593796 0.0
0.0009223166511919964 -0.00026946781801360945 0.0
0.0009659483920903588 -0.0002724986020817409 0.0
0.0012053276538131314 -1.5410622788099618e-5 0.0
0.000772695395715203 -0.00020070223799728117 0.0
0.0007509105441360724 -0.00020333749624133304 0.0
0.001052442122988864 -0.00018967264315886609 0.0
0.0006426284152230042 -0.00020918570230878727 0.0
0.0010445341320524033 -0.000346810507915608 0.0
0.0007933765308094281 -0.00023503785945611417 0.0
0.0009238247127233763 -0.0002449432977467176 0.0
0.0013225627034639572 -0.00034560326830227394 0.0
0.0008511461169265663 -0.00016515617307401496 0.0
0.0018564104559428668 -1.5974613520801514e-5 0.0
0.0009290263308988375 -0.00021140074441435767 0.0
0.00044595795527931987 -0.00015448503655109906 0.0
0.0009651215564320781 5.298306929082141e-5 0.0
0.0013136030584749716 -0.0002776344502682707 0.0
0.0017733604926069956 2.0335553362801037e-5 0.0
0.00028006251765073145 -2.9172255611026965e-6 0.0
0.0002908626823040382 1.2204245426916348e-5 0.0
0.0003272764144230461 -1.4750948141004293e-5 0.0
0.00034598577620781855 2.946904858509974e-6 0.0
0.00038300657611888103 -1.3137517701367242e-5 0.0
0.00136536010935397 -5.1914461998332445e-5 0.0
0.0007724497788414849 -0.0003182101926571887 0.0
0.0008766350214805375 -0.00016083974098585327 0.0
6.192341039096696e-5 -1.8202329229286255e-5 0.0
0.0007930351607213543 0.00016743309012344393 0.0
0.0007290971107435528 0.00017117393519599814 0.0
0.0013123930846682776 2.2980931959277742e-5 0.0
0.0007522853187225362 -0.000272060216134095 0.0
0.0008511145763237178 -0.00031253827723075106 0.0
0.0007655989750885171 -0.00013400686439046406 0.0
0.0010288899337277256 -0.00018541956227014053 0.0
0.0010035829023137487 -0.00018080609793530436 0.0
0.001010002810251091 -0.00016955871883712344 0.0
0.0011638399541637901 -9.899371611787767e-6 0.0
0.0007109265890750762 -0.00023436725283451483 0.0
0.0005019739290301362 -0.000134979917567955 0.0
0.000728372427044177 -0.00018785283693958167 0.0
0.00011523658229765762 -4.349736947053824e-5 0.0
0.0010123857854593846 -9.893585269225897e-5 0.0
0.0004278206512910302 -0.00020270112651305438 0.0
0.0009818335926483754 -0.0001893566605367339 0.0
0.0006110761909498033 -0.0002642678953505185 0.0
0.001337147314513989 -0.00010648968661236275 0.0
0.0008895085708758517 -0.00019104225893857917 0.0
0.0009004273008807905 -0.00026116404318538884 0.0
0.0016969546157044571 -8.46204790071079e-5 0.0
0.00038434898822075557 -0.00019770308123917056 0.0
0.001864384912955242 -0.00010093615146119306 0.0
0.0007545370653517385 -0.0001610012620954901 0.0
0.000884562572418401 -0.00021057327384679434 0.0
0.00018287928208746184 -6.066130322867882e-5 0.0
0.0017091704515413923 -4.797033087365172e-5 0.0
0.0010302912598041786 -0.00028185534503093765 0.0
6.375412364582567e-5 -1.9645169300556324e-5 0.0
0.0009661731698957683 -0.00012953367465036791 0.0
0.0009622065654889109 -0.00013638217203479084 0.0
0.0018454185542395236 -6.6462434630358005e-6 0.0
0.001025748786658595 -0.0003524377611714974 0.0
0.0003563437630072094 -0.00015610132565765453 0.0
0.0019117485923355805 -2.0371842685213993e-5 0.0
0.000985939801129886 -0.00016659678136037544 0.0
0.0009139211961503139 -0.0001863937762354333 0.0
0.0011349969456992978 -0.0002549516334276079 0.0
0.001110482916778793 -0.00024766317046132986 0.0
0.0010365290758051497 -0.00025452025606931977 0.0
0.0008732797534632294 -0.00016908253269120796 0.0
0.0010721635168189705 -0.0003643084672480488 0.0
0.0011598393174437865 -0.00036872174905341003 0.0
0.000821985239074536 -0.00033873468174050805 0.0
0.0008819846759875538 -0.00034756318117773694 0.0
0.0012776878971759971 -0.0003656423166301686 0.0
0.0012701618708558823 -0.00034833121453994685 0.0
0.0006690189780706921 -0.0003045712523033665 0.0
0.0005414986302232122 -0.00026758249859526256 0.0
0.0011163847771767823 -0.00036693074150429016 0.0
0.0007085989309858649 -0.0003159805532243902 0.0
0.0008017855480253871 -0.00014770817114520147 0.0
0.0016741643605846217 -2.3011076001519037e-5 0.0
0.0013288579939169341 -0.00019270059402100848 0.0
0.0013175931282856895 -0.0002123099820699228 0.0
0.0006859513343683466 -0.00019080128144639054 0.0
0.001140116390625953 -0.00016475211357660862 0.0
0.0009031878621889212 -0.00028504095541961503 0.0
0.000494509731584806 -0.00021781976637945145 0.0
0.0003776827264478661 -0.0001378611006727037 0.0
0.0007969715745042325 -0.00018894650792581236 0.0
0.0017118773331434717 1.6513174912437754e-5 0.0
0.0007054828253459207 -4.055245981807547e-5 0.0
0.0009026257932152244 -0.0001560582541446425 0.0
0.0010487485265327212 -0.00020245628821751398 0.0
0.00015101314150816545 -7.624428417872291e-5 0.0
0.00015676880701213694 -8.55779306902862e-5 0.0
0.0007927827880693158 -0.00025598687548770624 0.0
0.0006750721266553488 -0.00023787288207277195 0.0
0.000951325695089731 -0.0002169475317637448 0.0
0.0018360448389139348 1.5278686728543726e-5 0.0
0.0010052149197190656 -0.0003151247592344321 0.0
0.0019510762984228788 -2.254380038895051e-5 0.0
0.00192957252698078 -4.422316535440736e-5 0.0
0.0005481205065720731 -0.00011618226489893851 0.0
0.0008181403647681355 -0.00020308663461070836 0.0
0.0008589116330001224 -0.00023540367888949667 0.0
0.0018875999979790226 8.48828616440913e-6 0.0
0.0009974991753149169 -4.119069760694918e-5 0.0
0.0012486511825444925 -0.00027407641268195615 0.0
0.0012881859211586557 -0.00022542101292750405 0.0
0.0005319493533699509 -0.0002561435957544972 0.0
0.0011781445632618986 -0.00019972137040130013 0.0
0.000820957452919979 -0.00018546537641274884 0.0
0.0012397434733242242 -0.0001779328324196159 0.0
0.0012317744406803034 -0.00019399165385565264 0.0
0.0012719295229476843 -0.00016583667190271783 0.0
0.00045480006486307525 -0.00023520137694468379 0.0
0.0015237011974131149 9.693495063817056e-6 0.0
0.001084558628558849 -0.00035158919683195245 0.0
0.0015532795400634235 -0.0002697917911934576 0.0
0.0014192179322957937 -0.0001239325330790411 0.0
0.0009238822640542522 -0.0001269657335777158 0.0
0.0011551992918690565 -0.0003161354995092743 0.0
0.000731317585761546 -0.00024240931263562108 0.0
0.0007724510869826297 -0.00016761528506398712 0.0
0.0018208672947152293 -2.4297432337847864e-6 0.0
0.0004266787917446804 -0.00012265767649249175 0.0
0.0013763284037862187 -5.957749695660246e-5 0.0
0.0009320016246781568 -0.00010001137257004489 0.0
0.00116505468974432 -0.00016748120312023133 0.0
0.001737365020748292 -2.3385441270071533e-5 0.0
0.00016501948666153692 -5.749358708531191e-5 0.0
0.00135847177437488 -0.00022218902567123453 0.0
0.001095506032940128 -4.5997513830244405e-5 0.0
0.0010801021338498764 -5.261980418092592e-5 0.0
0.001112938305182894 -0.0002987327319636957 0.0
0.0010200932417901098 -0.0002222268880170545 0.0
0.0010503177578244298 -0.00028955792570331204 0.0
0.0013806719940535556 -0.000276373144701256 0.0
0.001423595141418957 -4.971591609009759e-6 0.0
0.0009983727403487263 -4.891210684106877e-5 0.0
0.0013152610579240894 -6.426888191170757e-6 0.0
0.0016515019562290758 -0.00012836076011766979 0.0
0.0016640565643202127 -0.00010692553818284171 0.0
0.0009532273638514482 -8.14831621153041e-5 0.0
0.0006188471089451136 -0.00023091560736485697 0.0
0.0013336500515867555 -6.596974627965376e-5 0.0
0.0009867072613113726 -6.070582262623697e-5 0.0
0.0011716220448468055 -0.00021483176754574256 0.0
0.0019136495174422962 -3.079309862516747e-5 0.0
0.0003415179536302644 -0.00016206813373868305 0.0
0.0011551729145116575 -0.00010036018220298779 0.0
0.0009716163063561953 -7.151707341288046e-5 0.0
0.0009575828661150136 -7.847070700770908e-5 0.0
0.0003278410182922372 -3.334380888335356e-5 0.0
0.0017305406867007542 4.566748464156096e-6 0.0
0.000996453700023087 -9.377232592889277e-5 0.0
0.001720835965007006 -8.253992124182552e-5 0.0
0.0005979715987159208 -0.00022172838559879348 0.0
0.001434378856802518 -0.0003330623421305176 0.0
0.0014742299321765155 -0.0003256676477407043 0.0
0.000547693982022612 -0.00022330183212814785 0.0
0.0012161964082002315 -0.00022626990931852277 0.0
0.0008023547860872016 -0.00033552683975163184 0.0
0.001202332003249439 -5.975809515090768e-5 0.0
0.00037116121218376834 -0.00020115761288289972 0.0
0.001037691209519193 -6.49790001932496e-5 0.0
0.0010310061643228432 -0.0001073026262928704 0.0
0.0010453887015409822 -6.825812228990604e-5 0.0
0.0010687493605217163 -0.00022040720274261986 0.0
0.0013091469596215018 -0.0002314617511994392 0.0
5.577267022726708e-5 -3.164634245213614e-5 0.0
9.575094394295278e-5 -5.569048733767151e-5 0.0
0.0001143098706623588 -6.670658740581307e-5 0.0
0.0017866652273654574 -0.0001616534123517619 0.0
0.00015212808796134574 -8.923794684307511e-5 0.0
0.000559414845867346 -0.00021238281152466233 0.0
0.0002443353245824833 1.7640558885765853e-5 0.0
0.0015717070309426014 -0.00028769057268417 0.0
0.00031999168795269605 -0.000176997199810831 0.0
0.00035475038799317364 -0.00019367536988222387 0.0
0.0017633362161195436 -0.00017680661362402464 0.0
0.0017181290966846268 -0.00020931067013028496 0.0
0.001012167328543141 -0.00013101345147000057 0.0
0.0007343194841447258 -0.000286065809960285 0.0
0.001415057359953217 -1.6761000439393026e-5 0.0
0.001612719781743386 -0.00026665160796203506 0.0
0.0016331834793121341 -0.00025729713998495296 0.0
0.0002861599118399236 -0.00016133904970534426 0.0
0.00020496500618318224 -0.00011798191137249506 0.0
0.0016760333036408297 -0.00023400708022830604 0.0
0.0016951179221079606 -0.00019533687336833935 0.0
0.0011269816489963798 -0.0003540354203255276 0.0
0.00024001868157174768 -0.00013726639981355318 0.0
0.0013711009844212555 -0.0003540814908622978 0.0
0.00038156438840136997 -0.00016927285280760404 0.0
0.0015693634199682093 -0.00016899005554223603 0.0
0.0005610606828555 -0.00026544313373626894 0.0
0.0014499461885610463 -0.0002473109629051075 0.0
0.0015160583494868 -7.70608270722028e-6 0.0
0.0005496813890856508 -0.00016971919515265966 0.0
0.0003830650205823073 -0.00014556980689759997 0.0
0.0006947311952283143 -0.00024645024721047464 0.0
0.0009058406771418605 -0.00021639145980445438 0.0
0.0016015000605979113 -6.4923226301126e-5 0.0
0.0009649672627988759 -0.00032539086791317297 0.0
0.001018793324780022 -9.300735159369863e-5 0.0
0.0010547386312825654 -5.68390296409509e-5 0.0
0.0012559444320193998 -0.00014750181885283707 0.0
0.0014595600824125945 -0.00019649102804731114 0.0
0.000552146560213207 -5.3061857365943715e-6 0.0
0.0012518656572900301 1.9548470208937843e-5 0.0
0.0005949480813792713 -0.00017057964808806723 0.0
0.001600290645783138 -0.00012396965806495786 0.0
0.00038796278268800593 4.653845397678731e-5 0.0
0.00032296918616015363 2.9008232769527493e-5 0.0
0.0008523866110729552 -9.648014310647986e-5 0.0
0.001694116523172539 -3.269893412738534e-5 0.0
0.0010035094285524046 -1.566841538325164e-5 0.0
0.0009813625985452736 -0.00010974196276657534 0.0
0.001798545077994209 -2.981534059581209e-5 0.0
0.0005073551167350916 -0.000167531247352188 0.0
0.000623278948494717 -0.00013682821254805652 0.0
0.0013575920228257432 -0.00013967737980381378 0.0
0.0015064436245910966 -0.0001809968897855691 0.0
0.00044594640539569826 -0.000161803630977884 0.0
0.0002767634480620682 -0.00012363007920808918 0.0
0.0014408283496313012 -0.00019269435317506123 0.0
0.0006463125786829143 -0.00011395127441721255 0.0
0.001446708342313332 -7.919514018014367e-5 0.0
0.0019591457084589957 -1.2883680375986889e-5 0.0
0.0015935056617662957 -1.92786144505227e-5 0.0
0.0010959734165373633 -3.703337647896574e-5 0.0
0.001120104505781549 -3.177848614638839e-5 0.0
0.0011702295956316831 -0.00012144821435779835 0.0
0.0017608427577260949 3.0339568522721105e-6 0.0
0.0017267973152706553 1.2024885668905635e-5 0.0
9.328699386040856e-5 -3.672203311444202e-5 0.0
7.095008639850938e-5 -2.6742718017412924e-5 0.0
0.000752304922024687 -0.00028343980326134 0.0
0.0012009663250231073 -0.00020478170540881552 0.0
0.0007033620847198785 -0.00014028216650804594 0.0
0.0007056373523866705 -0.000134440092896414 0.0
0.000719737336553583 -9.696037826120503e-5 0.0
0.0009443607694513733 -0.00027770637099982956 0.0
0.0011234144046770253 -0.00011030955753374789 0.0
0.00031720921607054204 -7.730505916476038e-5 0.0
0.0013324898086597222 -6.604756102926622e-5 0.0
0.0011227975779029423 -2.090804264888147e-5 0.0
0.0007957401299607484 -0.00019756610036157963 0.0
3.174820038499986e-5 -6.700263615394149e-6 0.0
0.0009079148589408404 -0.00020597199389598415 0.0
0.0017847591394331826 -3.761529430031084e-5 0.0
0.0015049893679025853 -7.958369026866676e-5 0.0
0.0014298717829658082 -5.338411857399693e-5 0.0
0.0017007058199699598 -5.764701560701681e-5 0.0
0.0012239941682835977 -7.99015962983836e-5 0.0
0.000719817567194649 -7.107465213703803e-5 0.0
0.00023895940444375866 -7.862829773579309e-5 0.0
0.0008409048740890524 -0.00012636114031802526 0.0
0.0010334029493541707 -0.00013299581763273122 0.0
0.00029769820071740927 -0.0001154256376550019 0.0
0.0008621884907002421 -0.00034488882830737365 0.0
0.001184391010736801 -8.312528723184637e-5 0.0
0.0005804397612725753 -0.000222200370760263 0.0
0.0013751831302352053 -7.543039304983881e-5 0.0
0.0016282328231320227 -6.412307588293093e-5 0.0
0.0006456611381956882 -0.00010695801290115771 0.0
0.0014340267724632524 5.48207317868669e-6 0.0
0.0010759226310372036 -0.00010900706933504206 0.0
0.0009103752750378001 -0.00019593997204586365 0.0
0.0003565675781110662 -8.89469856997532e-5 0.0
0.0006478639051214833 -0.00014321067532905635 0.0
0.0009390680185976432 3.994585159829433e-5 0.0
0.0002577734738913528 3.0446082722236057e-5 0.0
0.0014083766556851607 -0.00014228172593927317 0.0
0.00039358102650790503 -0.00012830402621379766 0.0
0.000934892849330855 -0.00019108832055963755 0.0
0.0016060706355589254 2.6639653214339912e-5 0.0
0.0013322255379290605 -0.00013805663156910624 0.0
0.0006913907147067539 2.3723729064364662e-5 0.0
0.00012522799104146574 -3.7056200530490066e-5 0.0
0.0005021682113195969 -0.0001287518144037484 0.0
3.986058650450838e-5 -3.377810426944025e-7 0.0
8.48325028357986e-5 -6.583725149185131e-6 0.0
0.0013279130546602577 -0.00012370569523670053 0.0
0.00115238814512717 -3.498587800516871e-5 0.0
0.000630787526491939 -0.00029661224823147034 0.0
0.0004560823743912909 -0.00019669721504662896 0.0
0.0015901023612136713 -4.301015412598761e-5 0.0
0.00024640537556949797 -0.00013407544874614448 0.0
0.0012789251863828254 -0.0001507179093771254 0.0
0.0010527915283294709 -0.00027576274937304813 0.0
0.001577414337829736 2.7109737565531932e-5 0.0
0.0005711470522628525 -0.0002538122136591039 0.0
0.001694309123359635 -0.00015756309183621072 0.0
0.0009860089962094335 -0.00010431231894997143 0.0
0.0003417215089739663 -0.0001799922620321699 0.0
0.0012918057466280452 -0.0003509786250384435 0.0
0.00033948967591803113 -0.00013103548175453518 0.0
0.0018363654755289907 -3.988514622440026e-5 0.0
0.00024939371130480096 -9.283440651883278e-5 0.0
0.001355920348717895 5.635752657616071e-6 0.0
0.0012299456862093817 -7.018068487712361e-5 0.0
0.0010689415337180692 -4.911877895119672e-5 0.0
4.261850115525035e-5 1.4536318036336397e-6 0.0
0.0008669237725077725 0.00010059336267506685 0.0
0.0005423904987984327 -0.00010797212841764309 0.0
0.0014909614477831656 -0.0002967012712708404 0.0
0.0015123151715365083 -0.00031564355522213655 0.0
0.00014200924327880638 -1.987375906986314e-5 0.0
0.001107636298714758 -0.00010090937431364705 0.0
0.000473390555738368 -0.00019865141729828067 0.0
0.0007733518562152986 -0.0002094679499643721 0.0
5.989334904278188e-5 -2.3749438939027655e-5 0.0
0.00011110296238467119 -2.7648681764907827e-5 0.0
0.0010497032193887619 -0.0001439709575387341 0.0
0.0009598139289376611 -0.0001854459899701166 0.0
7.085886314255209e-5 -1.653382376791802e-5 0.0
0.00020540861992511742 -6.651764212829148e-5 0.0
0.00016993489483113988 -9.904910246802198e-5 0.0
0.0015843029437561016 -0.00014539025173354218 0.0
0.0012231843416293836 -0.00021000224193685422 0.0
0.0002526446652777422 -0.00011099193181666557 0.0
0.0014953933989974306 -1.938742935650076e-6 0.0
0.001376141411818021 -1.4975195860553561e-5 0.0
0.00012201117938314654 -6.603368957897095e-5 0.0
0.0008174465674026112 -0.00010886877576524103 0.0
1.609966531577232e-5 -7.211164992914582e-6 0.0
0.0019815008784380937 -1.1545759927820105e-5 0.0
0.001910678386246582 -9.357856324678972e-6 0.0
0.0005783946237671181 -0.00028062036016414794 0.0
0.0014984344980920998 1.8422196694769993e-5 0.0
0.0012266360178726909 -0.0002661431180343603 0.0
0.0002732433315961327 -9.93034512179514e-5 0.0
0.0011799236853587474 -0.00036894853526492247 0.0
0.0002871732801485392 -7.983215001788213e-5 0.0
0.0016857385980310977 -4.148273924279399e-5 0.0
0.0007506474643936622 -0.00021178644018260493 0.0
8.778955602081858e-5 -3.2990970582455234e-5 0.0
0.0009396343656108231 -7.604854306792604e-5 0.0
0.0009328244725456612 -7.984991972306225e-5 0.0
0.0017838494481928816 2.0870894469287834e-5 0.0
0.0010457264428312336 -0.00021492264773109712 0.0
0.00013144259029711756 -4.493991165927793e-6 0.0
0.0016695073920525013 -0.0002157447987225454 0.0
0.0017995253320210402 -2.0459127371439556e-5 0.0
0.0013697646203107738 2.056923131337384e-5 0.0
0.0014028766174724913 1.609170408509058e-5 0.0
0.0008078124556637595 -0.00029904381537570313 0.0
0.0019191633859872432 -6.532824594388625e-5 0.0
0.0008467845656735124 -0.00010099961668715879 0.0
0.00023505886084228776 3.548827635235458e-5 0.0
0.00024902796928117927 -0.00011796445310360913 0.0
0.0006156918946115145 6.0465804811862246e-5 0.0
0.0016795660292713318 -0.00015310469563294176 0.0
9.539288422774035e-5 7.142167707459296e-6 0.0
0.0010222902041751342 -8.792168598274186e-5 0.0
0.0015148707048765891 -6.543794164977431e-5 0.0
0.001195164859109445 -0.00012388241299394697 0.0
0.0019437008543007712 -6.477728117758628e-6 0.0
5.3261190894568074e-5 -1.7505258989678156e-5 0.0
0.00180954680381116 2.137431121831421e-6 0.0
0.001951810612098137 -7.061790924336794e-6 0.0
0.0009067459314163224 -0.0003374800426574646 0.0
0.0010813588265386424 -0.0001367117233724629 0.0
0.0007390866984041722 0.00013594732557832928 0.0
0.00046783997237545544 -0.0001638555880736271 0.0
0.0006166135334270968 -0.00012869671242685796 0.0
0.0008087015751304316 -0.00011384133680141833 0.0
0.0003906803795499508 3.0415118452155446e-5 0.0
0.0006924858070549888 -0.00023592252253430023 0.0
0.00036092097149268223 -8.11781525991074e-5 0.0
0.00025264612924121125 4.408857173733743e-5 0.0
0.0008899642801567718 -0.000139143217767287 0.0
0.001337931047193966 -0.00021745285240881164 0.0
0.001615815041017513 -0.0001271695870315829 0.0
0.0006831930000128874 -7.189973039003349e-5 0.0
0.0004756444563089304 9.837422331095259e-5 0.0
0.001139905209783131 -9.369685659167912e-6 0.0
0.0005785349182639307 -0.00010834013763587872 0.0
0.0015328982383999675 -0.00012594938681177636 0.0
0.0006222287700395525 0.00014112867087030673 0.0
0.0005646973245384796 0.00013378147348223787 0.0
0.0010262090338800398 -0.00019765224393452805 0.0
0.001180738080035009 -2.63658301762746e-5 0.0
0.000743295066581731 -0.00032442994532233413 0.0
0.001411091570602882 -0.00034469251597301384 0.0
0.0005264653517909702 -0.00016201147625470754 0.0
0.0013151454456791173 -0.00036306369788130597 0.0
0.0004317460987841699 -9.774481637698192e-5 0.0
0.0015608888851849393 -0.0001233070046508027 0.0
0.0007283436188823492 -0.0002052136051538851 0.0
0.0016756355628259854 -6.129568576670995e-5 0.0
0.0004691132009456145 -0.00015747878067137147 0.0
0.0008975280948674716 8.405898015241764e-5 0.0
0.0007215819069831432 -8.937206896334244e-5 0.0
0.0008386724662930427 -0.00025973383200733385 0.0
0.0009177835585129285 -0.00011395044310262412 0.0
0.0009266096514003258 -8.34092050903633e-5 0.0
0.0005376197074692349 -0.0002020385218954782 0.0
0.00054365627371848 -0.00021290874311380797 0.0
0.00036298095902718183 -0.00011780292231928717 0.0
0.0006256020269236818 0.0001967125622328194 0.0
0.000868101437359408 -0.000296589170424961 0.0
0.0017010775727983117 2.4622434289982417e-5 0.0
0.0014897340071008043 -0.0001779628754268806 0.0
0.0011310429428007976 -2.468594043737078e-5 0.0
0.0005051238466079733 -0.0001608257393313844 0.0
0.0013073487322579102 -0.00010590637748591477 0.0
0.0010771240034838164 -0.0002692121067266331 0.0
0.0007279877218058479 -0.00019626665895484784 0.0
0.0018199820459000576 -2.7094843588428646e-5 0.0
0.001928029039851899 -1.8801686631603834e-5 0.0
0.0006764051267770621 -0.0001366180327473799 0.0
0.001249118134032801 -0.0003547764536079001 0.0
0.0017180583087406593 -0.00018771167514131698 0.0
9.318255434232152e-5 -2.6837455256421707e-5 0.0
0.0004734702678796113 -0.0001270908687799404 0.0
0.0005496936939216729 -0.0001631611157499161 0.0
0.001757653128688323 -0.00016202075551096807 0.0
0.0006896323959992712 -0.00022539280906520433 0.0
0.0013033345874843656 -6.477425799152993e-5 0.0
0.0002119556362014998 -0.00011576571154496822 0.0
0.0010857846230331602 -0.00016096656082429628 0.0
0.0016161947456962244 -0.00010492225187013863 0.0
0.0012522503982523466 -0.0001985079591430795 0.0
0.0018544326030686688 -2.6870939601228483e-5 0.0
0.0012729886903830975 -0.00032901595653526863 0.0
3.118262737376112e-5 -4.987753570267179e-6 0.0
0.0008506742876154979 -0.00013868832554946974 0.0
4.2353859565854996e-5 -1.4801839444676605e-5 0.0
0.0006489155149425511 1.4099687550324557e-5 0.0
0.00041646629143511795 -5.2367555744764886e-5 0.0
3.5549612028486316e-5 -1.6073600090003903e-5 0.0
0.0005078175239015007 -0.0002569265633425669 0.0
0.0004733421547047004 -0.0002358208115166887 0.0
0.000859331370423299 -9.24271177530148e-5 0.0
0.000898764117755093 -5.5788123635704676e-5 0.0
0.0003590969900415462 -0.0001884851091425976 0.0
0.000611773763209656 -0.00010807166171853265 0.0
0.001126753954063445 -0.00010289317119454326 0.0
0.0003573853568757347 -0.0001342266969761176 0.0
0.001326686038530733 -3.7751933685723685e-5 0.0
0.0011037379163350242 -0.00026205460422824443 0.0
0.00026204351320588745 -7.62918082948806e-5 0.0
0.00016641897376527766 -8.103857283952543e-5 0.0
0.0010051060003833069 -8.454787854948178e-5 0.0
8.025076166908547e-5 -4.2240816768821585e-5 0.0
0.001887064415862356 -4.795687892248024e-6 0.0
0.0007031133663417919 -2.168837312808997e-5 0.0
0.0008987235395779384 -0.00013143397663586455 0.0
0.0016517571021711695 -0.00017462831699211975 0.0
0.0018329136245172192 -0.00012897217522719634 0.0
0.0015244620350308238 -5.228568760177048e-5 0.0
0.0008651029551710544 -0.0002842016566473876 0.0
0.0011305792001903364 -0.00015000851007219103 0.0
0.0016043133739137613 -0.000249930251281277 0.0
0.0009445807732592136 -0.00035519251708882824 0.0
0.0015951264891297886 -0.00010552611493907247 0.0
0.0012604458732158267 -0.0001821718971799548 0.0
0.0006680532682305241 -0.00021728313735537618 0.0
0.0012381882688877568 -3.686581006288875e-5 0.0
0.0007044737712518597 -0.00018873454349621258 0.0
0.0005992178303770016 -0.0002663561362449816 0.0
0.0008933962286869258 -0.00011802915566642408 0.0
0.0014580794463928473 -0.0003086531149501043 0.0
0.00035925466402356263 -0.00011218479569973484 0.0
0.0003064807762900967 -0.00016463300641592852 0.0
0.0013995088813468478 2.5468960202604247e-5 0.0
0.0004477975097626387 -0.0001305969688751116 0.0
0.0011954034201157127 1.8072468262187146e-6 0.0
0.0007644126328471153 0.0002854487774659467 0.0
0.0015293824934724304 4.649473387157891e-6 0.0
0.0016750241173619246 -5.193742924309353e-5 0.0
0.0009826192099773921 -6.758873724655699e-5 0.0
0.0014841093369799112 -6.642966093571451e-5 0.0
0.0011342484269495027 -0.0002901148245659709 0.0
0.0012159913244114387 -0.0003705401854564408 0.0
0.0005736182793191491 -0.00016351524890542487 0.0
0.0006894630240455817 0.0001559029799193577 0.0
0.0003917019455242878 -0.00011758583092969099 0.0
0.00043977764559388697 -0.0002315032409040274 0.0
0.0008323761066263488 -0.00014851232846430692 0.0
5.304702698138057e-5 -1.704689842032878e-5 0.0
0.0003468065971916745 -0.0001741355381482159 0.0
0.0009481165493203381 -8.718555588349791e-5 0.0
0.00013040376252605807 -5.1191686599336134e-5 0.0
0.00010665861396167719 -1.294282336954364e-5 0.0
0.0009796538212876668 -0.00018074841402589936 0.0
0.0010269001259984776 -8.317806162703805e-5 0.0
0.0018043641007098187 -0.00013143793430257824 0.0
0.0008172272992191098 -0.0001048859638974477 0.0
0.0013492247797724508 -0.00019764465746954066 0.0
0.0010581681493237135 -6.219116468391001e-5 0.0
0.00026974710476448 3.9974857605548656e-5 0.0
0.00034764969799158115 1.838448036737864e-5 0.0
0.0018909804673451216 -1.613757234358585e-5 0.0
0.0012715255422909215 -5.2954060235931784e-5 0.0
0.0002980478168207429 -0.00010533748758095665 0.0
0.0011692250640070376 -6.667972636690734e-5 0.0
0.0009513641217562759 -6.596853300748982e-5 0.0
0.0010029453146898882 -0.0001045646629293546 0.0
0.0004160585016632999 9.737117706406201e-5 0.0
0.0009850231541272223 -0.00036016006887769987 0.0
0.0017858976945300063 -5.809668087185778e-6 0.0
0.0009704095282732795 -0.00015572055309430878 0.0
0.0010183963102796604 -7.312938299086447e-5 0.0
0.0012382605989685967 -0.0001007373300462399 0.0
0.0008935599710301708 -8.835905232442123e-5 0.0
0.0009777727580648475 -0.00014613669815946494 0.0
0.0004943015057865555 -0.00021079462271687637 0.0
0.0012918197030125412 -0.00016939924682315817 0.0
0.0007925784151410743 -0.00013334974069500433 0.0
0.0010079629591789505 -8.078945951468542e-5 0.0
0.0015291903004362294 -0.0003114160280228488 0.0
0.0008492307222607859 -0.00012069870955327387 0.0
0.0011869833609812182 -5.1097934155889553e-5 0.0
0.0010678160129358083 -5.787636616036581e-5 0.0
0.00017526664670620767 -9.680882030835075e-5 0.0
0.0015012823485294911 -0.00016076122244801006 0.0
0.0010428591649656038 -7.236709277656606e-5 0.0
0.0005707674642276929 -0.00026315175398657027 0.0
0.0012048637662512602 -1.965909936522398e-5 0.0
0.0013537311164181895 -0.0003601670162145636 0.0
0.0019276037873532852 1.0366580121868477e-5 0.0
0.00012547933579944834 4.160113801697745e-5 0.0
0.0008117190869644493 -0.00015260766465600292 0.0
0.0010620741962529536 -0.00035333525054787333 0.0
0.0006816360294471794 -0.000300199671340911 0.0
0.0007664103773296982 -0.0003295659068662403 0.0
0.0001628054533694422 -5.5008113595636376e-5 0.0
0.0013777434120810998 -0.0001858547797130135 0.0
0.0005772986398288885 -0.00015710260533222488 0.0
0.0008203974834898272 -0.0001250210670320587 0.0
0.0006829605902576575 -8.134021053072618e-5 0.0
0.0007913531519309063 -0.0003248587572861188 0.0
0.0014165071887128197 -1.1654741192142984e-5 0.0
0.0018179261284801322 1.3048860374421518e-5 0.0
0.0011329659398120273 -0.00027727675428796495 0.0
0.0009645451605327411 -0.00016601217838244328 0.0
0.0006318756364496426 -0.00021349593852826386 0.0
0.0010281579645804683 -0.00036424377206991623 0.0
0.0014482724859906974 -0.00014860175646570298 0.0
0.0001476381958176908 -5.530705279816288e-5 0.0
0.0017554611831437509 -2.5200107402946877e-5 0.0
0.0008319844442682584 -0.0003310830235920927 0.0
0.0008503611627043494 -0.00030138186577678434 0.0
0.0012946771060393686 -0.0003170397532610941 0.0
0.00196090904059011 -2.190262984463239e-5 0.0
0.0007178501704380549 -0.0003093891852625734 0.0
0.000644164788196062 -7.146166806827985e-5 0.0
0.0006527375744752112 -0.00013834255792979875 0.0
0.0012256836056439844 -0.00011453105179680905 0.0
0.0018994297862276938 -6.083044945299305e-6 0.0
0.00017983567135645447 -8.565191542244677e-5 0.0
0.000983965135040069 -0.00013782416533788736 0.0
0.0017039133526600358 -0.00016617408509328582 0.0
0.0018924242188490873 6.433571322405896e-6 0.0
0.0005585942308594003 -0.0001242316859493249 0.0
0.0008507110177459315 -0.00033511975293803054 0.0
0.0018293624941927028 -2.2194536634631234e-5 0.0
0.0003561148710306537 -0.0001671578338421131 0.0
0.0019324019895143498 -3.807459829279782e-6 0.0
0.0006150578347076075 -0.00029371815529168446 0.0
0.0013011982316848253 -0.00015302409342501404 0.0
0.0003708413515603672 -2.799127216456101e-5 0.0
0.0012143627170143893 -4.882768085664563e-5 0.0
0.0018959734257358869 -6.764215833296706e-5 0.0
0.0014805284819168546 -0.0001339788356005207 0.0
0.000547360399980392 -0.0002635087303558861 0.0
0.0004061797205104124 -0.00021796684783996527 0.0
0.0004931103571641134 -0.00019641975083505714 0.0
0.0015698411311684767 -0.0002681181752744285 0.0
0.001454791453613841 -6.839649672968352e-5 0.0
0.00032127785923281095 -0.00011126263588964731 0.0
0.0007719751259540083 -0.00015031695687974165 0.0
0.0012191249580520407 -0.0001283923018162232 0.0
0.0007421479089990163 -0.00016637889557910877 0.0
0.0018527658744299802 1.4135840662857163e-5 0.0
0.001328006820869097 -5.762322017944191e-5 0.0
0.0007918087367922424 -0.0001289274437526551 0.0
0.0003281172073980944 -0.00010640198021562991 0.0
0.0013970838750395284 -0.00015766474963909512 0.0
0.0011619513395918764 -0.000343987420347661 0.0
0.001649279732972973 -0.0002312813980391577 0.0
0.0006529889853346821 -0.0002935477581757032 0.0
0.0012685817574717962 2.1158292358659427e-5 0.0
0.0007072835806833208 -0.0001804229653253574 0.0
0.0011051500397464514 -0.0003564936220430161 0.0
0.0016365761620868542 -0.000171903586006676 0.0
0.001455139119974388 -6.0990969823376e-6 0.0
0.0018517415686089612 6.615814900199462e-6 0.0
0.0004945562053494441 0.0001113619639211304 0.0
0.0017932284330642366 5.175190651567916e-6 0.0
0.0006241967827182959 -0.00020046768274081025 0.0
0.0016430464939965518 2.6621903538521056e-5 0.0
0.001177651355343691 -2.6165310610671042e-5 0.0
0.0013443073853897753 -3.703050456529021e-5 0.0
0.0005947261539559134 -0.0001491705633605138 0.0
0.001354406198628849 -6.997947075277503e-5 0.0
0.0008898748849941146 -0.00033933562704792266 0.0
0.0005155511485600512 -0.00024711721382601905 0.0
0.0010462789388723625 -8.232258834752302e-5 0.0
0.0014494134730586605 1.9193843308710817e-5 0.0
0.0008366449101887622 -0.00031514823089457073 0.0
3.9767805474652445e-5 -1.3516916549398502e-5 0.0
0.0019101571502631357 -8.675804116096792e-6 0.0
0.0016381526338352542 -2.3920565146603524e-5 0.0
0.0008632248985910815 -4.5755944673121945e-5 0.0
0.0019405476207859452 -1.7817169264099104e-5 0.0
0.0005610668112616153 6.757548166970532e-5 0.0
0.0009606709133950993 -5.948984169228765e-5 0.0
0.001979265522555826 -1.696164324658618e-5 0.0
1.6215688854140738e-5 -8.57184931291042e-6 0.0
5.851152041533185e-5 -2.2159348083102695e-5 0.0
0.0005779846125635086 -0.0001018330362592955 0.0
0.001147411078107141 -0.0001536993702036992 0.0
0.0013550414612311227 2.5099466857589894e-5 0.0
0.001461421750996747 -0.00028880308869210457 0.0
0.00191720467569749 -1.0988956555339002e-5 0.0
0.0001630582671697503 -6.266177361267017e-5 0.0
0.00041360757570211264 -2.6166757794146406e-5 0.0
0.0011670827686934891 -0.00032943095458475886 0.0
0.001699262093849064 -2.5828406637634573e-5 0.0
0.0005071777435452512 -0.00019721690922126482 0.0
0.00011063512583821768 1.0687895107289827e-5 0.0
0.0011940311711380468 -6.701472006329833e-5 0.0
0.0006101783231479984 -7.224469354416743e-5 0.0
0.0014632788177631638 -3.361946940735175e-5 0.0
0.0009291332197288898 -8.889634208014294e-5 0.0
0.0007348072692322889 -0.00017277937799548587 0.0
0.0017287586140816537 2.4029395899630356e-5 0.0
0.0017357335070688894 -0.00018168735937146088 0.0
0.0014035248509136104 -0.0003309223412393155 0.0
0.0004512512323434747 -0.00012617459515220413 0.0
0.0018096189929538208 -2.1693286938327547e-5 0.0
0.0003171943124487404 -0.00012123951571294729 0.0
0.0018308213631930944 -5.014640762505176e-6 0.0
0.0015859352502322493 -0.00026454469616481467 0.0
0.0012115189667660407 9.25608833715163e-6 0.0
0.001307653764973111 -0.00035288804559263924 0.0
0.0014689174044588325 -5.419732076975621e-5 0.0
0.0009013333739208289 -0.00010719626429543223 0.0
0.0005102236589097253 -0.00023654207644743244 0.0
0.000795669247458819 0.00011885810124597191 0.0
4.1367177460202585e-5 -4.64474229124059e-6 0.0
0.0018892320097241887 -1.1045198214868743e-5 0.0
0.00022731113422844683 -0.0001257091366033923 0.0
0.0014279768774465955 2.783757085539137e-5 0.0
0.00037352756728513615 -0.00019622018280735374 0.0
0.0013060704097823247 -0.00014011491324195292 0.0
0.0004036022253986423 -7.789182761471467e-7 0.0
0.00018850271237353858 -7.108759763284816e-5 0.0
0.0002730201839301155 -0.00015625684626417724 0.0
0.00024409662398276941 -0.00011077956864446607 0.0
0.0007311427162336782 0.0001885829681365132 0.0
0.0015169163892871124 1.420084854943692e-5 0.0
3.096421759957652e-5 -1.2645398523389441e-5 0.0
0.0016251504530748692 -1.889465134271749e-5 0.0
0.0015559308452407048 -1.911203721071315e-5 0.0
0.001178271036612564 -0.00014423156211652293 0.0
0.0009217549625439609 -9.554272785314039e-5 0.0
0.0005311281604917457 -8.846613691687705e-5 0.0
0.0009276456385615378 -0.00010842789565407427 0.0
0.001189396307826883 -0.00030472339451712623 0.0
0.0005985702041769068 -0.00015807605204491725 0.0
0.0004623433200437518 -0.0002340939760064926 0.0
0.0016433384194703038 -0.00011131635712351811 0.0
0.0013113889779053807 -2.3971957901251664e-5 0.0
0.00021145536448441212 3.2265536763714893e-5 0.0
0.000606942848927596 1.652010047467993e-5 0.0
0.0012804234695607585 -9.85793814538361e-5 0.0
0.001192825927090285 -0.0003589147072922912 0.0
0.0007676976544214361 -0.00015650287319878895 0.0
0.0015082473592097647 -0.00029941502698024056 0.0
0.00013996732657055574 -7.774046695943165e-5 0.0
0.0013148719936938518 -0.00030621846750600095 0.0
0.0006843783213040056 -6.144534039137842e-5 0.0
0.0018227919376595171 -0.00012153904670751896 0.0
0.0006618201860420559 -6.718980250013132e-6 0.0
0.0012024419465511715 -3.929978255214076e-5 0.0
0.000988361852288849 -0.0001738949768881311 0.0
0.0009704346447948277 -5.286718521539409e-5 0.0
0.0010955712533536597 -5.070828593128589e-5 0.0
0.0011502648977533849 -0.00035669068179945967 0.0
0.001473536705349428 -0.00030665753218341675 0.0
0.0004893655631467772 -0.00016071409245236044 0.0
0.0011698845580231257 2.2995098525945675e-6 0.0
0.001138256394061577 -1.852553125124002e-5 0.0
0.001470715356032153 -0.0002650783168317705 0.0
0.0009090707464598215 -0.00010249357846787954 0.0
0.000961501414982853 -1.7215280849504135e-5 0.0
0.0005065563847660416 -0.00022669019188516313 0.0
0.001809588059505435 -0.0001136617146428264 0.0
0.0012436665642780516 -0.0003698744060803545 0.0
0.0008382399063883252 -0.0003067630593213338 0.0
0.0019124229789785516 8.250430284040403e-6 0.0
0.000826248268781097 -0.0002748359122734196 0.0
0.001525722106348962 -4.7962922405168095e-5 0.0
0.000528120520528597 -0.00011789673253528086 0.0
0.0012883221455890102 1.7689893851320468e-5 0.0
0.00038011260816394623 -4.125369980615418e-5 0.0
0.0008542830973027703 -8.65969534305839e-5 0.0
0.0007123254084326054 0.00024208620703937477 0.0
0.0019509056726641806 -6.461300450445498e-6 0.0
0.001139976062852412 -0.0002672998214808061 0.0
SCALARS damage float 1
LOOKUP_TABLE damage
0.6573833309470261
0.6165602539800342
0.9010198676278903
0.3625223301815897
0.9903838318597238
0.996026650164419
0.2983486931543295
0.8451195184808531
0.8458991785506871
0.8583698586909715
0.8765615780730813
0.8886339180519994
0.9026231958372444
0.9158901088604895
0.920650679424407
0.9197213351785769
0.9141421671818412
0.9077662108060429
0.8993661434293244
0.8898621178198204
0.8809716264351606
0.8766522995323892
0.8681370515463576
0.8605376259579136
0.8552038401703774
0.8491641967599588
0.8402220713386825
0.8319884903797777
0.8207728323418368
0.8097239876207821
0.7919035131261069
0.769403537319299
0.587991453746365
0.705667678718047
0.7188993434099468
0.7389748556959572
0.7531088600234679
0.76221397951443
0.7714710357432667
0.7768225419532806
0.7828206966373416
0.7892627977585391
0.7934602466040805
0.7973493507094692
0.8043082994921317
0.8070203655853033
0.8011737378034636
0.8079456523078811
0.8136526257442779
0.8210906587216866
0.8247093041413718
0.830058850160227
0.8333275816700708
0.8419896890669993
0.841290931191961
0.8490080151657693
0.8504845433730748
0.8562493318597002
0.8606071404982196
0.8682785232279334
0.8681534489097461
0.875796917191257
0.880345278138538
0.8876239056012404
0.8934450940161109
0.8962027890687856
0.8911790948775669
0.8862901199557147
0.888081035644471
0.8749661738911161
0.8905731154865608
0.8930452728013041
0.8883273391342124
0.9071832361390281
0.9109154394880544
0.9173210314470548
0.9256654610062119
0.9248745397663598
0.9371749956317854
0.9364635747588397
0.9411601733693876
0.9423756534639444
0.9408918818114647
0.935537366726271
0.9446948582667035
0.947461432475451
0.9627646290297603
0.9630655236203183
0.9746408995689608
0.9781863690475044
0.9806338275704786
0.9835363369010861
0.9853406842556873
0.9875313027859163
0.9882686190901875
0.9912437914005398
0.9907853816550236
0.9925360184600791
0.9948853021759028
0.9956277383680064
0.9947933994575744
0.9936366902230964
0.9912812401664313
0.9873453006831117
0.9818756672058823
0.9767026033013073
0.9744566138861368
0.97126155885337
0.9670415624274389
0.958653189897673
0.9489871984466314
0.9350554435309693
0.9402774755943232
0.9281026851306194
0.9238895289811677
0.9039197339375703
0.8875751508890258
0.8735130886681716
0.8533223119627175
0.8391024344466893
0.8301335468877857
0.814273883131008
0.7918543085927959
0.7646364086305144
0.7495589612348887
0.731153493856274
0.7113748955144121
0.664184487273267
0.62256682726507
0.6127898863339357
0.44955237753592603
0.5907910803663761
0.6825210587690652
0.761168041771984
0.7884334442564089
0.8037585566454606
0.8118313276739741
0.8178956661557425
0.8225838921696446
0.8265753351634411
0.8320865724702475
0.8363204760164512
0.8387442307491757
0.8404616656847841
0.8410814457048602
0.8402942833938237
0.8386286588136709
0.8358095569159761
0.8346895010436876
0.8361055949195559
0.8389504215878364
0.8472430396591696
0.8576894037304625
0.874374860314085
0.8996350337963034
0.9309202593147342
0.9318784275639853
0.9929916270964715
0.9964544537958514
0.9971325980074927
0.9940796735835301
0.9976361881674576
0.9797732864543661
0.9510975989664934
0.9088635671756461
0.854924780632597
0.7927030697148564
0.7393669411392325
0.6773460085047466
0.6053314678853234
0.5274143809262299
0.4772140188958792
0.19044106512234954
0.37509463614123434
0.5012915260989779
0.5972573163120241
0.6793577956883583
0.7630670077101079
0.8248241297419983
0.8857689767588541
0.9401272226479811
0.9692298865191746
0.9953547138705976
0.9931139622018371
0.9963639082060635
0.9870239932594054
0.9200622202904385
0.75670123551416
0.8707407376551232
0.9903148527832575
0.8961720872982052
0.9882292875311035
0.9132426029471045
0.9661486438994102
0.9434719600775071
0.9720811926566657
0.8422895144747079
0.9346091238605858
0.8171389908912037
0.8828501420650996
0.8375318764826165
0.714953707711411
0.7395449707390108
0.32296157152899363
0.663894297193385
0.875332608662877
0.8024342383074459
0.8576381432744027
0.8346208039782607
0.832624938329006
0.9103730094387162
0.8192903106641671
0.7796497301939668
0.8855027496469471
0.8393438859379726
0.841224417214112
0.8168463444212747
0.8847938810566658
0.9349868907394712
0.9820956439888806
0.9390735527951388
0.9917378210414893
0.9799024393265104
0.8955880746136625
0.8559222374409541
0.7544696217620834
0.7582233444835162
0.8454897561082907
0.9096228501134066
0.7869427343823177
0.8114004344766218
0.9650141544645011
0.9472485359832777
0.8786241713755651
0.8604388848921841
0.8707165102425555
0.8393294301202042
0.6609232205065589
0.5340361125706841
0.7184383122988328
0.6697116751702323
0.994130181004312
0.953188173214345
0.8807178578260403
0.882010899965976
0.9755381323120291
0.9593074397420942
0.8326586545009989
0.9215490310941905
0.8077299977819556
0.7903495144413611
0.8447188486529775
0.9355531232152566
0.9836064801103401
0.7386870188826579
0.780059264652609
0.9934182070116567
0.9958762518142952
0.810064295330145
0.9246651123080437
0.6777588052864808
0.6139579016410328
0.9978030094729505
0.9823082269665654
0.9573356642334998
0.9595338500368881
0.9691980940825449
0.9528324613670272
0.9304046911453168
0.9190172631525383
0.8998780186493363
0.8866874681164878
0.9043918510775468
0.872159343696935
0.8861381004994133
0.858888125489393
0.8713919632728708
0.8500896241326912
0.8506506113730042
0.6250303530558309
0.7965108113112384
0.662076290076584
0.8134040718075212
0.7227095747918281
0.8198480030726747
0.7623590694689086
0.8300831912296954
0.7846885585845165
0.8351947088644689
0.8048821907901695
0.8425495034237266
0.8146813098807103
0.8455381591535199
0.826294604383894
0.8500163011779448
0.8293168089081132
0.8483414178427825
0.8333673404908578
0.8492254146248691
0.8390989631217066
0.8525313387385229
0.8451574316725249
0.8573627587510262
0.8506419384220743
0.8606152911344519
0.8543279502076819
0.864175441876193
0.8553438241459012
0.8638586115955172
0.8602674877535967
0.8665088436088926
0.865677172330049
0.8698886644588102
0.8674623566599722
0.8721257793917528
0.8715420114453178
0.723734113577282
0.8759305800431814
0.8143255661390627
0.8539417457148861
0.8749110263958875
0.8791302245451679
0.8777795579230837
0.8735705052783997
0.8765583405457268
0.8818145455128588
0.8824500037527143
0.8676450862290742
0.8851481278324753
0.8851854189487431
0.8875304952065136
0.8717016120653254
0.8748935488685966
0.8872510688046918
0.8695975724442311
0.8728847600964516
0.8904366228092765
0.8902116185401684
0.867373379356754
0.8716345050072356
0.8935388853074655
0.893132193841301
0.8644282609191462
0.8680915475376934
0.8967149764294048
0.8963764961660818
0.8610285736244944
0.8643661648986912
0.9002350286070232
0.8994989738356682
0.8562809991225607
0.8619511269175473
0.8522918724919739
0.8458648350805731
0.9004042315567886
0.9036142543403036
0.9021022739101805
0.8972451962176103
0.859581103734512
0.9001314768367538
0.8937333333340324
0.8961286308603402
0.8589400837366574
0.8504298919916137
0.8656247874508335
0.9064254943314551
0.8550642006381001
0.8457133883692267
0.8637631835136846
0.8507490187825618
0.8418774754043812
0.8477592828216459
0.8380491423270393
0.8319826608624584
0.8274356535600242
0.8218660155720037
0.8445048399425908
0.8204123308182254
0.8133428740183869
0.8534041946253101
0.8505744471036042
0.8115678267324047
0.8044326927780903
0.8902785252616584
0.8915675301947082
0.8576972382624343
0.8536831396379222
0.8862314847936104
0.8875510820421593
0.8943141253086646
0.887963791783278
0.8972442137745475
0.8895325101165306
0.8991216393928159
0.8908182862158186
0.9016647006873175
0.8816413428795952
0.8907060660314959
0.9037831022698282
0.8612041290017453
0.8033445955428504
0.7962792451021131
0.9120795604910313
0.9156828443384907
0.9067078160459278
0.9244274847988587
0.8575896628827275
0.9198230622153201
0.9108315019783121
0.864869324616309
0.861622930823696
0.8548291436673544
0.924683526735239
0.9162957458808575
0.8691309403504285
0.8729613577584494
0.8580598070545421
0.8506309159504376
0.9294563309002889
0.922212172384859
0.9016248206505688
0.9355315652235655
0.9075128148352496
0.888413062266252
0.796010924157875
0.7909845271828777
0.7898284575029532
0.7868610173216086
0.7808695923676466
0.7804294376513851
0.7739209855752371
0.8768213133999151
0.8802280337997961
0.85397399709083
0.846632445067007
0.9278504511649353
0.7771666858279822
0.7683495676073301
0.8833777776751124
0.8868620575935156
0.8750909816959697
0.9120335971284059
0.8557512843224732
0.895357433208802
0.8391239052554303
0.8818392509760479
0.7764870693127364
0.7679305846064892
0.8505674188767328
0.8438256339370156
0.8897171056951816
0.8929137862246774
0.9322547941669899
0.7931694375435192
0.7981463226864659
0.7848349357933871
0.914835986217741
0.7822145705792831
0.7698638214634157
0.8860199097427252
0.8468456584275853
0.8400976620259252
0.8815309091739947
0.8797724656265865
0.8792424802559201
0.8779728990862047
0.8954912964499345
0.8981636238146983
0.8591182013361264
0.7878456613403534
0.7821444801887074
0.935058919878537
0.9450241973646815
0.8106820399954413
0.8022003392568107
0.9207469261689802
0.8985892736227535
0.8332630877788714
0.8538047015252539
0.9007953805333939
0.9028554331385599
0.9001895024333574
0.9045975000697399
0.9019530302550879
0.9060986784886783
0.9035251272452419
0.9072727996820734
0.9047136610796952
0.9082228847759964
0.9106037346425261
0.9117751815100764
0.9141361253620678
0.9155101333631774
0.9179550011457556
0.9193271146595564
0.9058013500446263
0.9166038684483248
0.9205183160644801
0.9234499425883784
0.924641190269784
0.7946307991932912
0.7990240468896664
0.8437305574275554
0.8377172013864411
0.9216232890203305
0.9256264668391773
0.9288153716654389
0.9298827024744512
0.7966374516260012
0.7999867784196919
0.8787630197052605
0.8791107752212854
0.8807891047909361
0.9377693425326996
0.9240804915926908
0.9053452844981956
0.7603811849466637
0.8906918636328707
0.9331857930304833
0.934226671067163
0.9312205400498615
0.9358697554588868
0.8865708497973521
0.8825551567080208
0.880120607886273
0.828626373906303
0.84138419317856
0.8351627594290704
0.8857682816640758
0.9385993312484723
0.9406116594277065
0.9375473316319384
0.9430110638659607
0.9391632392788979
0.9443655230728413
0.9482058660514726
0.9491474306596325
0.8557056431379697
0.799022191753948
0.8003809924524452
0.9035277304529853
0.9392652621197035
0.9281805548322029
0.9523143298241417
0.953878323654987
0.8509438432535361
0.8396396893513974
0.8329020905450822
0.7700424566876568
0.8428038288195742
0.9075083980677016
0.8730068284641718
0.7978147852106386
0.9399816709848767
0.9297762639274699
0.9060409508204501
0.8543687123688051
0.9429389477098574
0.7986000609799704
0.8433811643618299
0.8883591722856232
0.8924848322980118
0.9403511881211926
0.836756004279797
0.8299622745429579
0.8013328620718057
0.8020304974109149
0.8399837646909268
0.9569349199615876
0.9575333302038368
0.8261380721927846
0.8236520559378322
0.9560102359956192
0.9053327679743366
0.8266204034489028
0.8207930051722934
0.8992029598507463
0.908734811242853
0.8827110842027196
0.9297301773397394
0.9605998539416656
0.9611428305189801
0.9352996458364505
0.9362233952442595
0.9090158595495155
0.9577090617319267
0.9612945256007908
0.8038889814573902
0.8038803821478099
0.9657630019887562
0.9655013481761396
0.8234510411710032
0.8175436681532827
0.8942070240941525
0.9013911289832767
0.8154335719083584
0.8124175037067142
0.8139412700730075
0.8092687949816801
0.9097808617588153
0.9272884079607343
0.872356634788509
0.8870714814885851
0.8825327644400727
0.9062051986950969
0.9703445420890783
0.9695470804933333
0.8619206796619747
0.9573479850820429
0.9163179283968964
0.8081803844985728
0.8051896628285713
0.8065610907613562
0.8016671416574034
0.8005515274076607
0.7977713158379092
0.7984264512605118
0.7960078569577912
0.7985351632485418
0.7960834232443907
0.7998938624271502
0.7927182213401623
0.7947911069939301
0.805934683422846
0.807193301752549
0.7870848118366598
0.7903124739207347
0.8524918426566528
0.8149617379576702
0.9313557713058805
0.9321045057671979
0.8025049068761371
0.9085327092295793
0.9105170803022576
0.9363713286580646
0.9319331601603275
0.9107142836322433
0.9207560725953292
0.9222729114825102
0.89862641983733
0.9104671168353827
0.9018282255050537
0.9014198249762218
0.8979099884507942
0.801804434000492
0.9064057274488528
0.9181945918634047
0.8180852068867795
0.9742903131202247
0.9730769571462138
0.9682119041597421
0.9712770335558749
0.8809340373482931
0.8931348397451834
0.883514451273899
0.9742344068182881
0.8629224859377788
0.9759016475528125
0.9737046376104375
0.9687088554934736
0.9713530964319614
0.9669500799365943
0.9689779282219785
0.9729070658867572
0.9695454845263842
0.7843637162521641
0.7861290655932516
0.7951196611311224
0.9080068641014462
0.9119849949866489
0.8968965870392367
0.8928019140799787
0.9108475261331419
0.9109012814252642
0.8900915930705883
0.8760732000174462
0.8966117734789747
0.9001476384892115
0.782893375365489
0.861332575870365
0.8791266936013016
0.9106695607433976
0.7771446543999693
0.9026095543753873
0.9727847699037914
0.9682086863042273
0.8419763594221735
0.8357618629205672
0.8877911243771139
0.803422792492088
0.8108228189834935
0.814215941910794
0.8074652917547933
0.9781938404810593
0.9080394943515483
0.9322920797267488
0.8722419565353894
0.7793613298696183
0.7826949635466267
0.829991644465816
0.935763212451763
0.9307213423680546
0.8992230781382599
0.8375199412606108
0.8323509818209877
0.8360169308698796
0.8311266874579638
0.8305568943843912
0.8270097117312641
0.8304792185083666
0.8256961478867335
0.8319350260587679
0.8275156520131474
0.8341644434151236
0.8296670099822081
0.837373858137456
0.8323304050585828
0.8428644546384205
0.8391505319548059
0.8356636141885072
0.8274187423855915
0.8200964245476888
0.8266603476266188
0.8329600556901302
0.842871973749655
0.838740939849218
0.8461474019544496
0.9367003159119085
0.9360198219557458
0.9402473451582717
0.9398247723189869
0.9435731054774957
0.9432140053179257
0.9394010796838135
0.9422253125178781
0.9379301305848495
0.5009016102364344
0.9469109804057916
0.9473798652712757
0.8781227399953275
0.9021302512279639
0.9033664452164935
0.8994911523867857
0.900682725097877
0.8965975799866808
0.8977561400383144
0.9016319326140376
0.8988227025672337
0.9028055333933613
0.8995092831195637
0.903216726091975
0.8960543714691892
0.8934051207919822
0.8919762426397835
0.9062296493977998
0.9069178427333031
0.8295924239338412
0.8621232890745769
0.7741677513950785
0.9226525534075709
0.8817924816403759
0.87930817888615
0.8616445100527174
0.8642065506838095
0.9634113957879473
0.9031330280532642
0.8999295127477216
0.9007896615953351
0.8734023917796336
0.8926763351977625
0.8876977688557143
0.8669838763593525
0.9395709395939371
0.9352826265498198
0.8874582424960015
0.8837907715482276
0.8826445597473453
0.8798374627748293
0.881995656686954
0.8777136875080631
0.8819361140488974
0.8770575013904773
0.8044345851077558
0.8576800326664782
0.9076019834061705
0.9197915162640204
0.8473478662495793
0.8346695204375076
0.8297794416206309
0.8250393485796045
0.9100585216332714
0.9135530457947627
0.977923602168434
0.8007743347705041
0.8923200190708785
0.925820188733822
0.9314509149620174
0.961750367468437
0.895921692936321
0.9649404211543502
0.9622445659036638
0.9656935249530774
0.958936458589422
0.865901391193515
0.8101369287926593
0.8999857007779618
0.8394743716880894
0.9118326600344614
0.8359350130569374
0.8393161311241092
0.9776281068926946
0.8778614093267728
0.9269673370854719
0.9263116413675045
0.8859722788227369
0.8865041904221616
0.8950614989685723
0.8742943747677977
0.772675333238764
0.7774592703729232
0.7900813620810853
0.9040925866433351
0.921217756584712
0.8862234183094155
0.8847127552168239
0.8453463208796403
0.8420523099375063
0.8895351019343806
0.8767224009984317
0.8969144352587287
0.8960496352232329
0.8937021268908593
0.88085749097366
0.8942498641346442
0.9327034975031222
0.8731470499044002
0.8713897203114477
0.876150877042167
0.8703552640270498
0.9575181050959842
0.9535866498392933
0.9557070038732426
0.9484276479698887
0.9267609875294939
0.9245293663964671
0.9502202874046896
0.9511951264073684
0.8882531946138323
0.8871542456196837
0.9053557653890824
0.8742847923225384
0.8686843573740288
0.9214728727472479
0.9155822917818369
0.9255336823707585
0.9190134601402166
0.9159036268631459
0.7712392536533395
0.801160282522808
0.8035141188658895
0.8194603585145891
0.8243621592740674
0.817133572532806
0.830254290626694
0.8222060693060852
0.8367236777775698
0.829576395985229
0.905361844389009
0.8656083454663522
0.9575502004144076
0.9735053986323726
0.9775049212293718
0.9734797709074577
0.9365943934213197
0.8927093055544888
0.9511696336477287
0.8838297842874321
0.8667129306208808
0.8695867429951593
0.8929102911567544
0.9188397775851689
0.9195498565622747
0.9434140469685214
0.9323728521692211
0.8030814627530108
0.835651912040451
0.8392526300570683
0.844106202996339
0.8406676410647775
0.9415692595502851
0.9433068103894129
0.9222343909415421
0.9084182406295149
0.8886161277368606
0.9342493105126138
0.9539264694463773
0.9529967835800981
0.9173838885939543
0.9275188088375829
0.8426935506936231
0.8463067469296464
0.8459643392250514
0.83992478163828
0.8224438114856026
0.8335535016348259
0.8524165374461321
0.8472706716027621
0.8661619479955553
0.8625473884552349
0.8790786054076561
0.767427624064019
0.9220194302006062
0.7737416321127991
0.832746157405197
0.852266351502209
0.9068387556921161
0.9317555124859469
0.9419010805144112
0.8766325959594156
0.8068605947451214
0.8010394477687004
0.8809144452605581
0.9813950448787717
0.8944546187768724
0.9422187076159518
0.8670811228416422
0.8900702865616944
0.8850156838880987
0.8876893147691614
0.8392373553107931
0.8825205904706916
0.8152335079243901
0.9537002346438461
0.9552292009403591
0.952956158350439
0.9572677610117085
0.956351484824778
0.951286076687902
0.8421959518504872
0.8486522765736348
0.9221209621455322
0.93258846616234
0.8265464058855273
0.8733496570804651
0.8671534989618518
0.8847896088479263
0.9582394768902213
0.8887360870593999
0.8629069008541107
0.9603555987323085
0.9626025464260382
0.919022612250795
0.91791571353581
0.9145476321968269
0.8827029001016479
0.8035506697674589
0.76071479500945
0.9543078905239515
0.9105897611089566
0.9334733436391452
0.7909590465777564
0.8409806094156077
0.8112020414017961
0.9420628863889131
0.8230343202025657
0.8175921296506985
0.8204930801074726
0.814962080619025
0.8170487389495591
0.8125455121624564
0.9773222890046046
0.9739098696411318
0.8922970934082203
0.9372613475156745
0.9204145157650441
0.9182897305959284
0.8484972076458116
0.825719880631078
0.819638589874103
0.8813890267961203
0.866960129756342
0.8162288929935785
0.8524172764807466
0.8495620071041597
0.8549986162361016
0.8455744375610266
0.8805239211510324
0.8971432337984225
0.9254942823950582
0.8678794106704963
0.9517890235181056
0.8933486580317035
0.8666461509906674
0.849141214459686
0.8530030085720955
0.8710338664627579
0.9204325469116186
0.9178954278087488
0.8033694765396547
0.8025081964906914
0.7966020133657101
0.7963517528768701
0.8300737514528317
0.7677705903947064
0.7843406381131042
0.966220476219236
0.9672568598752062
0.9623412762394755
0.9524539856307352
0.9551021593105568
0.9536308353782507
0.8100722618003235
0.808949755636124
0.9215381157770651
0.8367343727105093
0.8388444118587258
0.8389906821067514
0.8390161679815413
0.7586040204364973
0.8941618810130461
0.8927910197101512
0.8873600184143389
0.8849714384611673
0.8790851208521306
0.8896652355417335
0.9158085105456201
0.8836558036101883
0.8847402924348933
0.7988383317738896
0.7923646196631982
0.8327031683633245
0.8300968864236252
0.8257984326530211
0.8302110329193426
0.8380156687616384
0.9288016506815102
0.9271277841638356
0.9310218702550715
0.9266833716807132
0.9177029376483242
0.8083454477786562
0.8943508268378437
0.9787390588778078
0.8954922214971976
0.9406523227067753
0.8820510493826416
0.8764066679201972
0.8790756385356051
0.8765420316509723
0.8786333620880042
0.8777188078873495
0.8790727064115887
0.8789908278232117
0.8807624123254115
0.8741420399293492
0.8766633201447328
0.9809228020621229
0.8319397774636755
0.8813252456145777
0.8760426403925108
0.8886940197821496
0.880539900666843
0.8776808797393364
0.9181260714184172
0.838262747023474
0.8152315880628601
0.8346283982616317
0.8463727085046211
0.8677134893006698
0.8694727912670283
0.8858112330709332
0.8799582625920762
0.8138556656625445
0.7510351584506725
0.8336070046461774
0.8269806496748665
0.7605626037807255
0.9483931808077263
0.9456538005603096
0.9486789777217771
0.9414487503215037
0.879299367248071
0.9213925644317253
0.8300063799529919
0.91366874310522
0.9103890264551766
0.8811479991911936
0.8594367605333795
0.8955980630525248
0.976196175636818
0.9756283362981258
0.9795491844276435
0.9795753487678753
0.9824715658578201
0.982634985290294
0.9805049343516549
0.969042209051051
0.8712174328077559
0.9315497952881656
0.841515581888479
0.8091361662083805
0.8175851988136155
0.9754069228443489
0.9789280543979078
0.9736345170174532
0.8999634527710121
0.9143258470657081
0.9163051982618113
0.9196604703891377
0.861854069221427
0.9131415065481706
0.9502112791022734
0.951221939042707
0.9365447508036618
0.9357895978151372
0.9365964614450976
0.811197626008379
0.8862427830763039
0.8868447655648197
0.8907274526661556
0.8936100602555883
0.9457939331805283
0.8357138634698994
0.8240665236290119
0.8440056360662794
0.8552975258715012
0.8644864934295177
0.9736980156189606
0.9793753924958739
0.9150276741401546
0.8277570691083026
0.8256500802852974
0.9621883758035913
0.9311111111103328
0.9097882238564426
0.88516925552321
0.9384517762474138
0.9560169391684273
0.9602073131796557
0.9023495714358518
0.9219476730159681
0.9401209257301064
0.9647520707098308
0.8770547779104676
0.8979046513512385
0.9236099595478454
0.9237273940351812
0.9557710622326244
0.8578330648403916
0.8722772821385684
0.8033539887855649
0.8288662129404759
0.961233040755233
0.8071144035366647
0.9450481011544141
0.9409271818015417
0.9849530823684101
0.9848650281160389
0.9498854355463479
0.9135337554691187
0.8472396641523929
0.9167564940898723
0.9101957869402402
0.8696846558942245
0.8659625277071199
0.8621615459984687
0.8014212159933274
0.8084359785782306
0.8991499113659608
0.8978693104212456
0.9597554224012015
0.8020721735650341
0.8096228483683952
0.8061479811797391
0.9431811281778244
0.9086705911174171
0.9162625705592078
0.8894473318418048
0.8975814676564655
0.8925444856363217
0.8872927212259669
0.9001741065700531
0.8827417119395556
0.8731185370874777
0.8660025598853079
0.8563912008546034
0.8666898490631453
0.8392979085931442
0.9382492446511819
0.8903267116455224
0.9009726657800357
0.9710916679178183
0.8746241959469316
0.8848914081421314
0.8761443401381183
0.8735558025034235
0.8773812101716805
0.8677119549364173
0.8669486152338618
0.8220138877912017
0.8195199635206413
0.8135242265972401
0.8161052266398288
0.8218071146241126
0.8173879433845932
0.8245493077120304
0.8740424085142747
0.8210242874290515
0.8279331854976671
0.8711781435052292
0.7983093371477158
0.8318635135551892
0.8102274939551615
0.9534340607540936
0.9571779648560993
0.9298303213788351
0.9338556636157762
0.8948868374895231
0.8481812160397874
0.8284734181647421
0.8107527933892219
0.7949958272307762
0.7929236239198194
0.7298963511281754
0.7332574886894561
0.6691040674425227
0.6914064316471416
0.6567124438707248
0.6826839757503441
0.6730728459780777
0.6924857212648775
0.6974556123902738
0.7087931475936627
0.7235621453896184
0.7261373824419313
0.7431149260823026
0.7455253166916754
0.7627837206495028
0.7637868705320511
0.7804756721445761
0.7801713955402144
0.7961141267339444
0.795172693365304
0.7789108927416141
0.793195294045122
0.8127230398071543
0.7330240039968554
0.7994403927593038
0.7678588614728712
0.7431036574748641
0.7184430085125095
0.779292543992701
0.7924117445181453
0.8062223436407772
0.8046515581667268
0.7111218898480834
0.6583858886634542
0.7649915667467825
0.6454361940496058
0.8176410263197835
0.8152537313124436
0.8027655840845939
0.7683487972816723
0.7545632546993406
0.820395309231264
0.830777779205152
0.8344936789440609
0.7841960481021207
0.7378710203847589
0.8130107160984543
0.802464524115151
0.7925575278582028
0.79253981541637
0.953305146791738
0.949343645872859
0.8462273646396279
0.9513404062304245
0.9561475726926226
0.880604525764935
0.8854728120553409
0.839962731939712
0.918505965000541
0.8249421791491043
0.8603466609565067
0.8573096843662484
0.85843055259188
0.910744813338882
0.8785301412760892
0.8908207504859629
0.8891831367785511
0.903349615494922
0.8987005671112459
0.9101253896175663
0.8929765138959578
0.9067406540795403
0.8798104487962353
0.8828881927447669
0.8838562741147244
0.8826457907392964
0.8879918867507145
0.8846070454622619
0.8891562096596993
0.8859791836015221
0.8900356534711817
0.8870745962198429
0.8909834754491188
0.8938153983611672
0.8939866300381097
0.9108857759548086
0.906881742279902
0.9061833893207588
0.9030889884186334
0.805360053365752
0.7957403573880802
0.7903008421360166
0.7865322825768115
0.7836178064225504
0.9122902690467525
0.915789414612981
0.9243686569984455
0.8824307219925103
0.876570814131823
0.8746630136331948
0.830415697231261
0.8701597065694073
0.8390425983834818
0.8303992247872934
0.8399786331230343
0.8331631502312985
0.821034767633334
0.8274020845569902
0.8145945674455044
0.8188714213903221
0.8341003516665717
0.9110739602487368
0.8139825865115665
0.8055076958935763
0.841938023131898
0.8499060854570094
0.8676033466436804
0.9559081199989287
0.9575833150539711
0.9524744786856639
0.9055299751221144
0.8939273399630486
0.8588488397746107
0.7358691524639089
0.7369568563374238
0.8076184328046917
0.8512738788247012
0.8611472225019372
0.9525187992862635
0.9637307186430694
0.8943190102796139
0.890333363702841
0.8956302855372535
0.9283776896752511
0.9265973466671488
0.9346504572665829
0.8555234832243087
0.8594632584462758
0.8674139150271472
0.8579344799597721
0.8068580968425919
0.8581667538171702
0.8593909036166675
0.9540039964059328
0.786298918278059
0.7791323547888295
0.7791789810261261
0.7749890491337181
0.8232005073371829
0.8394871977263186
0.8369328220330007
0.9548993862588055
0.87798900866941
0.9182760554673411
0.9210507924740798
0.9107903361303583
0.9120258003136714
0.9033928249261673
0.9035216792208227
0.8930972902596162
0.9339812855988847
0.9365713327422053
0.9283366644875992
0.8227804937354575
0.8220273681385869
0.8092985411270484
0.8128164401414788
0.8955289471750268
0.8913245696802006
0.7995906310367509
0.9057113054348978
0.9030800977111546
0.9000968432736621
0.82362323646059
0.8253476367083246
0.9389122561944739
0.8210382830205747
0.822579898643389
0.9523632222872267
0.9738895974370153
0.7721160381449573
0.7785854535882434
0.8166772935682827
0.9400452222222848
0.9491431588666772
0.9176026516230259
0.8778324338817524
0.9549008822047804
0.8637296870360831
0.8212991905659595
0.8510683017169848
0.9422746244508003
0.8911955178189036
0.8037515619552837
0.8799262285727372
0.96188693074617
0.9677610452939809
0.7479490701896389
0.973161491371298
0.9758460500914146
0.8872195382179795
0.8924910500638439
0.896826259840984
0.8985612675597764
0.8919150000257201
0.7513498957051867
0.7445607737478034
0.8044360857882178
0.9185253687120636
0.8915221994598365
0.9178247095497494
0.9745974473195912
0.9784516769768686
0.775703808096952
0.7687752997453852
0.8345426762627954
0.8084650727997531
0.8043886654685626
0.9517796582333846
0.8473470547421399
0.8257460645384084
0.8824105177908834
0.9812833738901748
0.9823945904396083
0.8357601209672266
0.8318993778674953
0.9022275435120294
0.9290169766195961
0.8877846466508652
0.8839900601676867
0.7170224735827045
0.9854181067863895
0.8808051525520821
0.7625987485666519
0.7732725168104438
0.7921216553490326
0.8807755518137461
0.8455673572075856
0.8382816636848136
0.8493862876538854
0.8441109433253305
0.8535757442791712
0.8480295113090842
0.8379678960336467
0.8397394728595092
0.8269911558153186
0.8329374664541215
0.8586896700989173
0.8809799665080917
0.8870902762158036
0.8755679543445384
0.7216829561032722
0.5775288925315455
0.5820493325489772
0.7133733068773146
0.6325470769238659
0.621004564501246
0.6161700558742369
0.5743106161255005
0.8103326723440508
0.805277810535542
0.8388781550938283
0.8407575133695566
0.8496375771677742
0.9840035035224948
0.987349057935537
0.8540267557364805
0.8552541896683454
0.8517947030723881
0.7695424870672738
0.5275654442984228
0.845406408021794
0.8366045817150061
0.8232460263476843
0.8309238640135069
0.812862892639654
0.8682397157597875
0.8573319163257898
0.6839951283160264
0.9216906192788739
0.9386064911532094
0.9111309709902544
0.865061047257237
0.7888088437534501
0.7968022758748601
0.8375841849857617
0.8365888221929989
0.9493167497902271
0.9459632465071911
0.8644223536966126
0.9035990937792869
0.9075471175761544
0.9159362292406412
0.919116575102961
0.8588783455802894
0.870222885395132
0.8568235284487902
0.847853300020048
0.9001983494021121
0.8966959379653212
0.9235080892619023
0.8046788034609451
0.7824279847906476
0.68676367026672
0.7167671817761573
0.7429323006683295
0.755138375446493
0.7746192604068035
0.7313080807763649
0.7703714718499945
0.7946134180413901
0.7737054901140344
0.892224176276237
0.7876227060037805
0.833437782669995
0.8396106961852012
0.9221809488811777
0.9260456857009781
0.6857608058296494
0.7012320958465678
0.9077647359357962
0.9821590864872787
0.9843870207773431
0.9869432050911188
0.9863024045239581
0.98878990035391
0.9874064277039185
0.8412464407815484
0.8503897664524288
0.8515011151711925
0.8590580636222692
0.8588052881044891
0.8644127996763258
0.8649926171315854
0.8647939490774955
0.8692624130567495
0.8609192810086856
0.8705158513176515
0.868478624138241
0.8722176721121602
0.8756174659182314
0.8677883097808415
0.8500327855543099
0.8660420791783968
0.8460425027099293
0.8578758362400903
0.8843235064879172
0.7605887378563041
0.8053393837846724
0.7490793312741669
0.7536339661950083
0.9212892060844882
0.9126239119608494
0.8836345187183207
0.875398282128375
0.8791617999001416
0.8717743656003
0.874516606628236
0.8713864553666915
0.8725035237840567
0.8691477911511333
0.7655914838317684
0.9149792206374865
0.8457895199968044
0.857834986332239
0.8887941502119905
0.8895558064924516
0.9059891906629838
0.8892275352581503
0.7787484777589762
0.7804471162618006
0.7865528589905282
0.7884559691171766
0.7930537344608535
0.7847973884598086
0.8992149893518026
0.8019249655686561
0.8021934291046371
0.66164179108456
0.8528218309966982
0.981107720171101
0.9026106043011063
0.7653991552721874
0.8696851256700047
0.8734713039549853
0.986985848766277
0.835418858889418
0.8308694798001914
0.8331168785757191
0.8285150775761594
0.8309444699686425
0.827608816978235
0.8251044751510026
0.8275027844000897
0.8513453975293668
0.8296213160357611
0.8305738063872214
0.8375968704338403
0.8268558608231646
0.9360605873036831
0.9814294930448775
0.8323271857644197
0.8071272634978093
0.828765020093303
0.8377527151073024
0.7565906004822558
0.7415079195078557
0.7544448805606321
0.7410351650846373
0.7275790862690109
0.723888960036506
0.7342557731661202
0.7765897489682525
0.8245074126081913
0.7536096208686873
0.9259039004181141
0.8329425527384744
0.9063867775036567
0.8021400386053318
0.9162991824975197
0.8931923302922381
0.9007222394294486
0.8425237606207374
0.8796767278421415
0.875392995687377
0.8554088106097103
0.8471710718291174
0.816110429196494
0.7989251938099136
0.9742517651079576
0.9641647274265879
0.9880759775382758
0.7699477077837286
0.8992661517368528
0.9116068665203086
0.9267736310219271
0.9474297685816423
0.8254553070545644
0.8625707771759932
0.8890347847234634
0.8088128595274703
0.811874497374188
0.8094251636884443
0.801714604372433
0.8756590193674435
0.8819654582786299
0.807951524700869
0.8241622948006536
0.9060038030753075
0.9253266254979976
0.8121918953931105
0.847369098608832
0.851359831235576
0.8767756949394457
0.8561622440323912
0.9141173008739781
0.7943293938849234
0.7202139134468261
0.9142174944316579
0.8256362014291194
0.9418390871675175
0.864040128445072
0.8597680220178762
0.8632222556026482
0.8566920332643208
0.8500028984493067
0.8233654738177814
0.8015474220170515
0.8127405133065292
0.8278343673180358
0.826072582424004
0.8236571883888887
0.9514974594992822
0.9457316416354804
0.9440011178544832
0.9417661813053485
0.9363867816934857
0.9394334299550038
0.9453883790337322
0.9203056307576788
0.8150684809432391
0.80223939528725
0.8070634404452884
0.9137673561478676
0.9298710702139589
0.8971380863674526
0.8609292738025193
0.8895595556315837
0.887775729469995
0.8840003536121351
0.8894422440153946
0.8571122478838639
0.8029043511706713
0.7988992466677151
0.8390068177743336
0.8355082189112989
0.8323032131530153
0.8518282560365025
0.8485635194094406
0.8416070849416823
0.8436574608054752
0.700515534523494
0.5972510955635381
0.9811811493388706
0.9836113258272693
0.9836183160257819
0.9849618924189287
0.8694001644661071
0.9420261315012023
0.7159130394036302
0.745695167564947
0.8032407796462768
0.8054534472965528
0.8157874294198143
0.8385072996133388
0.8338306364140103
0.7492603371247168
0.84894947236104
0.9083011492339975
0.9856838844783524
0.8626555341287396
0.8661536125790521
0.8567680229806476
0.9754903944810274
0.9102579389311031
0.9114651625354112
0.9048031599298008
0.8433839908837742
0.8389739999981788
0.8332702060325691
0.8362034780228936
0.794378360841674
0.7968271248217876
0.7862710839566578
0.9879994183723311
0.9607011152054037
0.9590690757367475
0.9637382260887407
0.9612320150799187
0.9658481143210451
0.9641511000132847
0.9691962976144884
0.8002915417607805
0.7790058470996271
0.9458441570866688
0.9693199048955393
0.9020789769852054
0.9584758429727457
0.9625159234750326
0.9457271829790003
0.906375651289282
0.9035416764564069
0.8815618939631789
0.8201303828958385
0.8804257654232782
0.9621342192388489
0.8655486881297623
0.8682950557108989
0.8727785449013894
0.8638259057684954
0.869030769018634
0.871871638200506
0.8683449062561467
0.8640123809373913
0.9251254904067423
0.8701508112427327
0.8728047902686917
0.937880128655164
0.9255000600079386
0.827229206829368
0.7848567069661267
0.811514579993403
0.8561532966688736
0.8235869650818094
0.8273200359035509
0.8369018171297753
0.9361647598557278
0.9383335983598945
0.938535021060878
0.9403497141629346
0.9702166028744632
0.8276441427857584
0.9284589817181589
0.8855002205577773
0.9455111608431872
0.8855496679549888
0.8226663666469708
0.8966629932509658
0.803472786123128
0.8929231988934266
0.8985550084465201
0.8789870970173022
0.897085797131874
0.9301697137564489
0.9290922057954526
0.9338946097550344
0.8745159714773237
0.909626512830613
0.8642539216799929
0.8818503266102845
0.8854031389648855
0.7970188584529388
0.8662719493457045
0.9809516709912499
0.8884716442865263
0.9279010844020332
0.9267309834899315
0.9304808419885043
0.9252443731376574
0.9289411368097513
0.9354852647871654
0.9184604667097169
0.8942083866231191
0.8921644887601766
0.9213410729680535
0.8760313675663614
0.9602307534398246
0.906874218269078
0.9221129910027677
0.9892672875685676
0.8903180892438985
0.8432358457985326
0.9138542366106865
0.8253863292985717
0.5277326811618017
0.9771983320748279
0.8644595326885774
0.8589257524916417
0.8743640293700345
0.8374999008188088
0.8527372663479428
0.8260660190918957
0.8763794226678459
0.901183696538117
0.8923107361247169
0.8543870661907047
0.900271951438137
0.890152913688265
0.8907733589925083
0.9046674650362502
0.9285747507864827
0.8504038745119457
0.916985740768817
0.913122685030657
0.9094586068660582
0.9073538196559645
0.8954879439063812
0.8162435231015943
0.8834091709296688
0.7990648660739743
0.8766262039283355
0.8391154508745817
0.9134460354361252
0.88815154853722
0.9098098054337823
0.9043232473559109
0.9232006570441317
0.9361051481139088
0.828795618325382
0.7214695672115594
0.8717081524952294
0.9092853684821259
0.8105258932587027
0.8805801869038192
0.944099130655488
0.8488652161846997
0.8881092479407846
0.890981340958087
0.8335009725313551
0.9580843951513591
0.8165549882434958
0.8593940749361824
0.9053564998195609
0.9053345611442692
0.951178559042659
0.9457980926893997
0.9374832862224788
0.8948244083566447
0.972784679767949
0.9855236443019637
0.926732289414199
0.9437791678585742
0.9942410968600993
0.9885340806583339
0.8900413201358428
0.8760587665223131
0.9781879656041657
0.8880693283983278
0.8729713262591404
0.8506924071629708
0.9540995429459234
0.9590852669259426
0.87672665255477
0.9229641915047847
0.9296785324979725
0.8546440072619279
0.8146516776635795
0.8930057069573257
0.8238009218667953
0.7057072889046297
0.8931792074978394
0.924690570211698
0.7617982946629861
0.7630781871835581
0.91007726140473
0.8868144271323436
0.917712124085269
0.8665845677274956
0.9485985645323711
0.7796870071809225
0.7161643193100996
0.7968343840554176
0.9007150621754351
0.9127218024532422
0.828940325613782
0.5938987755965334
0.9699970687063373
0.9608289500403591
0.8716947599331244
0.9407520973418257
0.8951144828924167
0.9395322812389276
0.945111111181998
0.9378797947028795
0.8504390558570097
0.8509340576471008
0.9685628699539686
0.9371934427809123
0.9310772321422919
0.8810256428756108
0.9677210831661489
0.9006110583876572
0.8815085565473814
0.8291676920791927
0.8067730332574703
0.8778718592115835
0.8604142697883379
0.9276058167075137
0.8501080296425974
0.8087726484916218
0.9662213550553725
0.880125857504733
0.875689374897977
0.9587925551865734
0.9268600136265271
0.9485209841268538
0.9794681202787124
0.876293553049486
0.6776055309543796
0.9065653751822312
0.933121180668807
0.9372302920577132
0.8316934287336838
0.875134184898364
0.8652695703895703
0.7551228241617297
0.9451099817998335
0.8452316514826059
0.8162444827419414
0.8920144069554523
0.8066799763228466
0.8237124236004267
0.8182523776271574
0.9313407994727401
0.8701916603876848
0.9312932951644811
0.8696084768980862
0.9741449092647374
0.9652370781879227
0.8640708110063505
0.9541920006297313
0.9209174087848835
0.8779187509960704
0.8265938668204805
0.8589759731995279
0.8836660903956117
0.8689947019603076
0.9326884694752421
0.9642018267621999
0.7047244152128763
0.7305078528075623
0.7479471020663678
0.7756217383470758
0.765497268314703
0.8613875296149576
0.8867410309190253
0.9315244224991732
0.810759201768242
0.8238466264026527
0.8016541753001272
0.8316034193362654
0.8936495563461041
0.8986389671679079
0.8750756662934375
0.9079899394288895
0.8901585480681382
0.8032449450732678
0.7859629354300132
0.8615464927233263
0.8709924494387996
0.9746619359285273
0.7954289411185401
0.9857779765028287
0.8231894461463419
0.9478030608332273
0.8799584273010367
0.9712175917024198
0.858770890275749
0.8428292337208458
0.817865853336917
0.892787670375851
0.912972805442686
0.8910582407735091
0.9425074388585869
0.8736929252391681
0.8617043506280787
0.9287565540978843
0.9659044244064394
0.7961265647070087
0.9084415344132185
0.851162468513281
0.9467848048923951
0.8863871597702156
0.8848928053953601
0.80517433669186
0.8599799400735563
0.36232616575915944
0.8795007856012247
0.8625565941629466
0.8373770370394524
0.8252178009508352
0.9345456902153221
0.9603030132534948
0.8287376621593987
0.7987505087809506
0.9646993620842116
0.792589009949868
0.8935895654839879
0.810628849256913
0.8553703974268954
0.8630536643185157
0.8860456011041462
0.9055023119532313
0.8272140695082756
0.8236764569021204
0.7872168537012115
0.7983816827928301
0.9021574978821243
0.945383151659349
0.8429290873981232
0.8358466933765997
0.7640663120282284
0.9344789945900915
0.8953664255923391
0.7973991392594557
0.8812503973698974
0.8555437126859946
0.8960601900981683
0.8936945232992812
0.9103314390249991
0.8814272346259755
0.898219522411251
0.8749169074963808
0.9014907982683489
0.8852391507112539
0.7198104166902158
0.8046332533380702
0.8631758457842125
0.8968469162228512
0.8042094863609413
0.938885351401987
0.8840886689108616
0.8673211384380599
0.8944413747325387
0.893023534098771
0.7806233116698641
0.9032886995072741
0.8894370054483836
0.9078099081141597
0.7935231719249403
0.8376114518190619
0.6797865764799262
0.89380674392293
0.940765351909102
0.8110477037052227
0.9085010445828697
0.8336004857681474
0.9332242741661918
0.7907673233409515
0.8306369336255945
0.8093142093539321
0.9157335443759755
0.8888696033108778
0.9212392123879175
0.8990996581502071
0.8920113868081049
0.8417534446918123
0.8671942214705439
0.7932489015220334
0.9317617160519217
0.9453296477485743
0.8525245140410882
0.8773148572462375
0.9017208210561937
0.8755739121626589
0.8162287909681408
0.9912894678144648
0.8109242973435513
0.9018719451372874
0.8006256239374985
0.8943799627798139
0.8810091723887156
0.8626849719951349
0.9151012451767062
0.6817405639661074
0.7856495526484486
0.9634335796671286
0.9444503248794405
0.8573983192017358
0.8878209612928246
0.8457117207831782
0.89714076155006
0.782905952569663
0.8456693468220485
0.9037896176675027
0.9099630919117215
0.8655503960333107
0.808620210261042
0.7739954910454813
0.9484256236320104
0.9499395481615767
0.7933286672297387
0.8602067661439626
0.8819804551960752
0.745561399541644
0.8259230408309381
0.7369849120673819
0.6692092636210206
0.8318796449775918
0.8891562552049661
0.8459643701605128
0.965162111784687
0.8018847094077641
0.9861098693900173
0.8021458847383541
0.8685372888304954
0.8953065263697867
0.8005319771848117
0.7904837965631946
0.8034821293719635
0.8475682916648364
0.9281444245043954
0.8831057202041286
0.8884627817655187
0.8481727609324816
0.8755239249999284
0.8735529803821829
0.9112748591846788
0.6244629529743553
0.8175849000993495
0.8626699791352135
0.7912242360891333
0.8524106760923885
0.9096321724300365
0.9039094154293865
0.8714446331049516
0.8848882532064528
0.9086074441105253
0.8227163383553522
0.8413051008985687
0.8251415967488369
0.8111998126391535
0.9373717911628962
0.9043177885556914
0.7949746134677645
0.8320223452777478
0.8137987713049522
0.8317890193421295
0.8714520438514971
0.8915434919695584
0.7916841105711635
0.8966397452184981
0.8837090458003629
0.9630039014090614
0.9450750415816013
0.7275612838333926
0.8966133129880611
0.8588181367930718
0.784265076527178
0.9511166156113234
0.8639829112040737
0.8925748381098678
0.9201370003323917
0.6128854402854816
0.8944168750300309
0.977073569816962
0.835318284484744
0.9929269341391155
0.789204339615194
0.9510751756617425
0.8896938400627862
0.9003929660263242
0.8289996564499053
0.6363105107541179
0.7491827033568795
0.9129728770532343
0.8708839401874621
0.8163344012917542
0.8554550362946671
0.8596086746706639
0.8067979079712501
0.9656319218258255
0.9253609195636416
0.8393374669805521
0.9627002939205559
0.8821948519362525
0.8332935343003237
0.9071405882907491
0.9469565646753826
0.8863481144752132
0.8623271216773942
0.8390540100369328
0.8330958973516764
0.9861907766149897
0.8531689005964105
0.8415839833096783
0.8095412720331662
0.8394911542152806
0.8333992069801943
0.8893830247959532
0.8285467285008632
0.7815210896149771
0.9160638361484172
0.9439199906180458
0.9494665534939841
0.8778065026612518
0.9844366872352935
0.9025482438625072
0.8758396495447692
0.8252575592850324
0.7820823983269841
0.7880427372141796
0.7224911374151394
0.8666137962852396
0.8560273207185354
0.7954064045877123
0.6562069275334024
0.8224281272756127
0.7828613400599427
0.8915309657981166
0.8125740479995636
0.8897107491128399
0.9478399140116336
0.8030807323895937
0.7677622115623913
0.867112938959187
0.7211735276250867
0.8339880434436279
0.7129669518347231
0.8801863003294201
0.9122256350962468
0.7337431203297534
0.8752200620208795
0.9211187660812117
0.9150826840633219
0.9263465880557434
0.9356755305936337
0.945214822262791
0.9441278661440506
0.8824922798462895
0.7988495374343473
0.8798065555678468
0.8877610596151068
0.8690383232128899
0.9725024052536769
0.8046629648632414
0.8058484603633415
0.8595193732804921
0.8123945715830689
0.8853792102374947
0.9949913048849678
0.9966520724746951
0.8810533683516965
0.8011617783762053
0.8837532141634292
0.9594652937297171
0.9901383806920182
0.8437799204377359
0.8510567585255636
0.8045581834300409
0.8477417208953294
0.8797691517458464
0.8443970261709864
0.817394917273651
0.8430860757238057
0.7914164582544866
0.8726079010229156
0.910793431106964
0.8705022617705783
0.7948273197158536
0.8109038160364851
0.9584847360899292
0.8699865523093661
0.8942929285909664
0.8683325077744057
0.843070166858696
0.8019741446014359
0.8041475313636093
0.8785581020361664
0.7455911263959935
0.8788649217328542
0.8953247004226298
0.9416926018585513
0.8337782301808894
0.9003866365593679
0.861807981678015
0.8983045028341556
0.807132937772789
0.8970131761024518
0.8526344880819212
0.9428018505937922
0.8574767831666074
0.8649378890382398
0.9382999667025519
0.8583547622234767
0.8808391073095779
0.8728270642240746
0.7708714059227327
0.959835704637269
0.8684851462255476
0.8802822411460133
0.7994496228352669
0.9894030270120469
0.9146679754407215
0.7281585158169662
0.8798524762760835
0.9652254464398409
0.8929596895838634
0.9054435339393375
0.8110866372296646
0.9572115511850948
0.8401063575671587
0.8551541190479675
0.7401463336140395
0.915530242403186
0.9326209060131205
0.8936364168350658
0.9572706383005652
0.9031965433828211
0.8752759920062282
0.9629910138736775
0.9511866044374534
0.7988444464211893
0.8517928028320324
0.9299343608718129
0.923745967830651
0.9844788823768585
0.727865004420042
0.8769310623878269
0.7360896856230674
0.8338901624415911
0.9059249473283125
0.8366401082341506
0.7738166154101525
0.8937842096614638
0.8839887371572089
0.8279257827832205
0.8060149161159531
0.9330168703628092
0.8525999691895375
0.8210549763075237
0.8352773592980539
0.894925072630114
0.9362830785392934
0.8152085759792843
0.8786080012843734
0.7428135997916921
0.951103513150693
0.8758937452612386
0.8374497983995883
0.8481987679813918
0.9301923186347963
0.8841469583436284
0.8063646043640004
0.8677761235798875
0.9125860564550928
0.8742469187966775
0.8340183992592362
0.8784190278612413
0.8501885435951911
0.8036633424844991
0.9470775156643775
0.9775987053611666
0.8949796334509511
0.9000694900093689
0.9062946230115286
0.8759177928048807
0.9714805740788786
0.9202335662676341
0.8699643815198276
0.8242937788597763
0.8861846404372644
0.8244681857893084
0.8683061629004343
0.8381048806897328
0.9057643135345094
0.8780709675143007
0.835026076270255
0.8835216394820047
0.9413008538838777
0.8675004038326839
0.8739541806687819
0.8548417963558131
0.922463645147897
0.8323552814304016
0.8341329448727156
0.8526084327673401
0.6478282141532364
0.8340335332294769
0.8633907386960157
0.7145977558393299
0.5009223507036966
0.6521681480910417
0.7963565020792092
0.7780786517866619
0.9194682035520119
0.8727030690187939
0.9686209023507775
0.8340276051651955
0.7956669370554798
0.8077104559237499
0.9758382798216022
0.8527700419535296
0.8498899066865736
0.8999410658417413
0.8794841468195269
0.7465139663132737
0.9493297143790748
0.8380466989705918
0.8768759024654412
0.8425758224594956
0.8381688230338866
0.9802689664543606
0.8095594113787533
0.8506823571812486
0.8084354481673236
0.8327304644429786
0.9282266899043203
0.9447404458040611
0.9912600736254711
0.9488044822788325
0.8596994955220291
0.8643008406396099
0.7636877865506372
0.9043142439647068
0.8386659470685895
0.7870027180657595
0.8484161645502711
0.8259385445809351
0.9312636603285596
0.8386740472062808
0.7982478239593758
0.802412845713382
0.7933064347649823
0.9283361364945221
0.8479653417850445
0.7727809417620781
0.8517008615277036
0.9964502254126624
0.918128238827448
0.8453584146681419
0.7683333486395209
0.8672284207684288
0.9692129875994699
0.8442329723612297
0.8528563778942301
0.9441619499410681
0.9007804414128585
0.9066144406386697
0.8053619071965294
0.9003938757117946
0.9834896845573764
0.870100075996556
0.9583683960868209
0.7543100066933554
0.9841370875909148
0.7179458110009873
0.7773486901215286
0.7524189732528619
0.889453673688639
0.9088477462930257
0.6852046959089179
0.8818539542953374
0.9804769485456943
0.970862424321219
0.8327599134879279
0.9219095259430505
0.872521349646045
0.9661400229690389
0.8559883697298705
0.4733375224907977
0.8613755615517996
0.8271771782090653
0.990037900836396
0.9228053316659814
0.834313119175618
0.9144556837364852
0.9932645808388879
0.7992666132835888
0.9158984791038239
0.80293540737141
0.7686996513277137
0.9819105837386188
0.8244679441209725
0.9556262011050871
CELL_DATA 4886
TENSORS stress float
-1.1528746917055178e7 1.126684382226436e6 0.0
1.126684382226436e6 1.5710499720991232e7 0.0
0.0 0.0 0.0

-1.2508804742907317e7 1.929437704345398e6 0.0
1.929437704345398e6 6.147888752150418e6 0.0
0.0 0.0 0.0

-7.311115318636211e6 1.3267710155769926e7 0.0
1.3267710155769926e7 4.272586821975238e6 0.0
0.0 0.0 0.0

-5.950263305356541e6 1.3444106605451038e7 0.0
1.3444106605451038e7 6.784097611566175e6 0.0
0.0 0.0 0.0

-5.418525141204268e6 1.4079575167750273e7 0.0
1.4079575167750273e7 2.225040252386355e6 0.0
0.0 0.0 0.0

891576.7961293194 4.52121906439735e6 0.0
4.52121906439735e6 -4.164754321802242e6 0.0
0.0 0.0 0.0

1.5811208479082735e7 1.2820613811082682e7 0.0
1.2820613811082682e7 2.88392408284653e6 0.0
0.0 0.0 0.0

5.543891341343263e6 5.616286378362401e6 0.0
5.616286378362401e6 -1.6187885034836492e7 0.0
0.0 0.0 0.0

-1.1609764674850833e7 2.624770420229431e6 0.0
2.624770420229431e6 1.6772957929195583e7 0.0
0.0 0.0 0.0

-2.3018172054161e6 1.3038141122895626e7 0.0
1.3038141122895626e7 5.555730180757964e6 0.0
0.0 0.0 0.0

-2.6506161790692816e6 1.2240798410810523e7 0.0
1.2240798410810523e7 -2.109410669835683e6 0.0
0.0 0.0 0.0

-7.112728748689649e6 1.7070619428404175e7 0.0
1.7070619428404175e7 4.508724663536223e6 0.0
0.0 0.0 0.0

4.195245233330096e6 8.216726492609953e6 0.0
8.216726492609953e6 -1.5561552775088344e7 0.0
0.0 0.0 0.0

2.769072646753948e7 1.5245684505499491e7 0.0
1.5245684505499491e7 2.6098569046545196e6 0.0
0.0 0.0 0.0

-2.888823883476197e6 1.2560377853206724e7 0.0
1.2560377853206724e7 -2.2131316135842837e6 0.0
0.0 0.0 0.0

2.5396432250259235e6 4.647429813574473e6 0.0
4.647429813574473e6 -8.30555063358898e6 0.0
0.0 0.0 0.0

273173.404391774 1.1070110253486713e7 0.0
1.1070110253486713e7 -1.0461878291335043e7 0.0
0.0 0.0 0.0

1.9602055278499853e6 1.0120594835544182e7 0.0
1.0120594835544182e7 -1.2427826681007361e7 0.0
0.0 0.0 0.0

-5.055582243439935e6 -128374.32091091991 0.0
-128374.32091091991 6.32216690880109e6 0.0
0.0 0.0 0.0

-4.1004635035874615e6 1.4006603766047675e7 0.0
1.4006603766047675e7 -1.3860362762637993e6 0.0
0.0 0.0 0.0

1.8738891588940793e6 8.407748284561455e6 0.0
8.407748284561455e6 -8.495530647007324e6 0.0
0.0 0.0 0.0

-6.441119443207527e6 1.7000394526074123e7 0.0
1.7000394526074123e7 4.113545335128827e6 0.0
0.0 0.0 0.0

-2.3956475860685967e6 5.110494953185619e6 0.0
5.110494953185619e6 1.8631959664666252e6 0.0
0.0 0.0 0.0

-5.482548381271031e6 1.3572413104947174e7 0.0
1.3572413104947174e7 1.719914075142314e6 0.0
0.0 0.0 0.0

2.6838222312536305e6 9.634508153235108e6 0.0
9.634508153235108e6 -1.4844573051189687e7 0.0
0.0 0.0 0.0

-216207.25707851443 2.2459572254741102e7 0.0
2.2459572254741102e7 -8.078304293457828e6 0.0
0.0 0.0 0.0

1.0084833660934668e7 1.294633464913108e7 0.0
1.294633464913108e7 2.603793086580457e6 0.0
0.0 0.0 0.0

-1.0432474161971105e7 7.699902390321955e6 0.0
7.699902390321955e6 1.2424670007631492e7 0.0
0.0 0.0 0.0

2.7937463831213163e6 4.79608720514757e6 0.0
4.79608720514757e6 -8.031788616245105e6 0.0
0.0 0.0 0.0

-42420.96982886616 3.949760884266003e6 0.0
3.949760884266003e6 -589011.2929987935 0.0
0.0 0.0 0.0

-3.389232788767982e6 5.43775145132147e6 0.0
5.43775145132147e6 1.3558885183251044e6 0.0
0.0 0.0 0.0

987039.5820056689 6.916782284633946e6 0.0
6.916782284633946e6 -5.0889348224799e6 0.0
0.0 0.0 0.0

-1.439563072308769e6 1.0817691844933199e7 0.0
1.0817691844933199e7 3.0980901827374077e6 0.0
0.0 0.0 0.0

-291339.7978420397 1.2378856777074689e7 0.0
1.2378856777074689e7 -970829.0593718099 0.0
0.0 0.0 0.0

-6.011376678876368e6 1.2791430549374308e7 0.0
1.2791430549374308e7 3.9317282997275037e6 0.0
0.0 0.0 0.0

-2.2655740000215326e6 5.229264994522477e6 0.0
5.229264994522477e6 86361.09878908005 0.0
0.0 0.0 0.0

-237623.9513523446 8.52069050595921e6 0.0
8.52069050595921e6 -4.120305847922961e6 0.0
0.0 0.0 0.0

-5.485930226937574e6 1.2794369870115971e7 0.0
1.2794369870115971e7 3.7936903517866433e6 0.0
0.0 0.0 0.0

515961.20427654684 1.1115845608766453e7 0.0
1.1115845608766453e7 -1.3797677325408319e7 0.0
0.0 0.0 0.0

-6.507919840699015e6 1.5085865147145448e7 0.0
1.5085865147145448e7 4.459033547510717e6 0.0
0.0 0.0 0.0

3.8019829055074807e6 8.37069172687563e6 0.0
8.37069172687563e6 -1.682403915088169e7 0.0
0.0 0.0 0.0

-8.163420801664545e6 1.3812421811418826e7 0.0
1.3812421811418826e7 4.249350350077747e6 0.0
0.0 0.0 0.0

-6.319316284606178e6 1.4717966538363129e7 0.0
1.4717966538363129e7 4.1304154161557923e6 0.0
0.0 0.0 0.0

-6.149214424927141e6 2.5986828710724786e6 0.0
2.5986828710724786e6 8.192880148714e6 0.0
0.0 0.0 0.0

1.6323216686710943e6 8.42028490665099e6 0.0
8.42028490665099e6 -9.328833928641887e6 0.0
0.0 0.0 0.0

-8.833589982929975e6 9.160871734807648e6 0.0
9.160871734807648e6 1.154130724081415e7 0.0
0.0 0.0 0.0

-1.3227968809907623e6 1.2871860007576806e7 0.0
1.2871860007576806e7 -5.235891426133606e6 0.0
0.0 0.0 0.0

-280388.60657249996 8.298480867872363e6 0.0
8.298480867872363e6 -4.523815274579193e6 0.0
0.0 0.0 0.0

4.936077590731716e6 5.510274714348995e6 0.0
5.510274714348995e6 -1.403210111466357e7 0.0
0.0 0.0 0.0

603854.2219192958 1.145351953850124e7 0.0
1.145351953850124e7 2.0128477193267336e6 0.0
0.0 0.0 0.0

-5.344096639207148e6 1.472293997584609e7 0.0
1.472293997584609e7 3.0838859591591274e6 0.0
0.0 0.0 0.0

-6.851431870841978e6 -21872.495891579507 0.0
-21872.495891579507 5.586225360208527e6 0.0
0.0 0.0 0.0

5.028837921668877e6 5.466984747900122e6 0.0
5.466984747900122e6 -1.4239170836640643e7 0.0
0.0 0.0 0.0

-4.994525061001305e6 1.372926064907896e7 0.0
1.372926064907896e7 2.810949569541957e6 0.0
0.0 0.0 0.0

-31566.158144650166 1.2051893223763485e7 0.0
1.2051893223763485e7 2.9213401401620787e6 0.0
0.0 0.0 0.0

-5.285192439413487e6 1.4075930163002055e7 0.0
1.4075930163002055e7 4.1942196791924974e6 0.0
0.0 0.0 0.0

5.577546001164549e6 5.867769319667093e6 0.0
5.867769319667093e6 -1.7208622314950235e7 0.0
0.0 0.0 0.0

-6.247759712523021e6 1.523212325133786e7 0.0
1.523212325133786e7 4.743837095050785e6 0.0
0.0 0.0 0.0

-2.7741248178246305e6 1.3529785733725617e7 0.0
1.3529785733725617e7 1.0425070340627182e7 0.0
0.0 0.0 0.0

2.5190065831121947e6 7.9811872796772625e6 0.0
7.9811872796772625e6 -1.0284567157212086e7 0.0
0.0 0.0 0.0

544807.7384976274 9.550740107040059e6 0.0
9.550740107040059e6 -7.244694390626232e6 0.0
0.0 0.0 0.0

8.022550822182255e6 1.2334114789259156e7 0.0
1.2334114789259156e7 -9.059430184772454e6 0.0
0.0 0.0 0.0

-1.827361194798238e6 1.2129219849898648e7 0.0
1.2129219849898648e7 -2.8772733361402685e6 0.0
0.0 0.0 0.0

-833834.4309801576 4.220141207084511e6 0.0
4.220141207084511e6 -720884.3604528038 0.0
0.0 0.0 0.0

238389.31510268617 5.883421941252166e6 0.0
5.883421941252166e6 -3.467785593324287e6 0.0
0.0 0.0 0.0

4.590287418909924e6 5.9725100243110005e6 0.0
5.9725100243110005e6 -1.3860852757451523e7 0.0
0.0 0.0 0.0

4.5693962867264e6 7.57787565110947e6 0.0
7.57787565110947e6 -1.549755953341314e7 0.0
0.0 0.0 0.0

-5.378545497408823e6 1.3414907694392992e7 0.0
1.3414907694392992e7 2.247852353826301e6 0.0
0.0 0.0 0.0

-4.0620014069286007e6 1.3182417457807109e7 0.0
1.3182417457807109e7 8.74848512053963e6 0.0
0.0 0.0 0.0

5.926568222368684e6 1.2303854383427083e7 0.0
1.2303854383427083e7 3.375543781227791e6 0.0
0.0 0.0 0.0

-7.89928181208198e6 2.906037337608201e6 0.0
2.906037337608201e6 7.662508767520147e6 0.0
0.0 0.0 0.0

2.981735496852139e6 9.478148312447323e6 0.0
9.478148312447323e6 -1.3948290282710154e7 0.0
0.0 0.0 0.0

310840.1796627445 1.1190438709912697e7 0.0
1.1190438709912697e7 -1.351416044042581e7 0.0
0.0 0.0 0.0

-4.002122869227998e6 1.3026813491839312e7 0.0
1.3026813491839312e7 1.7080672375775147e7 0.0
0.0 0.0 0.0

-6.712331748359358e6 1.3194528335788472e7 0.0
1.3194528335788472e7 7.473067559452629e6 0.0
0.0 0.0 0.0

-8.990527332283176e6 9.202328252021939e6 0.0
9.202328252021939e6 1.1038422467315864e7 0.0
0.0 0.0 0.0

-8.230333198121889e6 5.879320610513115e6 0.0
5.879320610513115e6 9.185568948286548e6 0.0
0.0 0.0 0.0

608525.1170310974 1.0883343788607655e7 0.0
1.0883343788607655e7 -1.0253590325328477e7 0.0
0.0 0.0 0.0

912673.0066398634 1.1145035319325613e7 0.0
1.1145035319325613e7 -7.535542149676821e6 0.0
0.0 0.0 0.0

608275.2601919328 9.645939994526492e6 0.0
9.645939994526492e6 -7.648360482690706e6 0.0
0.0 0.0 0.0

3.4270417124990257e6 1.5705797713478612e7 0.0
1.5705797713478612e7 -6.900268197118519e6 0.0
0.0 0.0 0.0

-6.940482233456284e6 -4.056747831716969e6 0.0
-4.056747831716969e6 9.205731530843666e6 0.0
0.0 0.0 0.0

1.762988047650141e6 1.0402691689144664e7 0.0
1.0402691689144664e7 -3.9898483639477356e6 0.0
0.0 0.0 0.0

-7.415020590202049e6 1.796142695259634e7 0.0
1.796142695259634e7 3.884478086733411e6 0.0
0.0 0.0 0.0

-5.846096265837366e6 1.3463824508020235e7 0.0
1.3463824508020235e7 6.818460687932452e6 0.0
0.0 0.0 0.0

3.562050074180384e6 5.751199782854609e6 0.0
5.751199782854609e6 -1.0035428642236602e7 0.0
0.0 0.0 0.0

954332.6649449386 6.472265854402349e6 0.0
6.472265854402349e6 -5.615757269492444e6 0.0
0.0 0.0 0.0

-807503.7026241671 9.99482122944614e6 0.0
9.99482122944614e6 2.706533353494347e6 0.0
0.0 0.0 0.0

-5.457263282381149e6 2.4499794345554885e7 0.0
2.4499794345554885e7 -1.1281477177987004e7 0.0
0.0 0.0 0.0

-1.2679705209013708e7 2.366639655506354e6 0.0
2.366639655506354e6 2.0111387454325434e7 0.0
0.0 0.0 0.0

1.334414188567649e6 1.2132285859717509e7 0.0
1.2132285859717509e7 -6.3003144029171e6 0.0
0.0 0.0 0.0

776056.4847515011 1.1227615163877157e7 0.0
1.1227615163877157e7 -8.518171017889686e6 0.0
0.0 0.0 0.0

-4859.431241175858 7.80067278531175e6 0.0
7.80067278531175e6 -4.6064039956771e6 0.0
0.0 0.0 0.0

106186.62301509804 5.522879800585409e6 0.0
5.522879800585409e6 -3.9674283863332924e6 0.0
0.0 0.0 0.0

844092.8088345553 1.321265412761121e7 0.0
1.321265412761121e7 -5.163835273165303e6 0.0
0.0 0.0 0.0

329797.157285932 1.1154435320927983e7 0.0
1.1154435320927983e7 -1.2177682414344274e7 0.0
0.0 0.0 0.0

5.36304648989773e6 5.557556628085722e6 0.0
5.557556628085722e6 -1.594994464845309e7 0.0
0.0 0.0 0.0

-6.868263415391257e6 1.3233069319107527e7 0.0
1.3233069319107527e7 6.97170089506031e6 0.0
0.0 0.0 0.0

3.4581104922946393e6 7.806234395761739e6 0.0
7.806234395761739e6 -1.3284872951624282e7 0.0
0.0 0.0 0.0

5.727418258697165e6 5.9618558016818315e6 0.0
5.9618558016818315e6 -1.7691403568259157e7 0.0
0.0 0.0 0.0

-3.4804057509575766e6 1.2857956010367457e7 0.0
1.2857956010367457e7 4.661438963998001e6 0.0
0.0 0.0 0.0

-3.555139874064638e6 9.824399808334233e6 0.0
9.824399808334233e6 -1.5403433876031763e6 0.0
0.0 0.0 0.0

-3.496721408485453e6 4.647370802707434e6 0.0
4.647370802707434e6 3.0302702283465113e6 0.0
0.0 0.0 0.0

-5.505775179252543e6 1.4449266281273985e7 0.0
1.4449266281273985e7 3.559391196775771e6 0.0
0.0 0.0 0.0

174635.02461848524 7.839794984679651e6 0.0
7.839794984679651e6 -3.757394847556922e6 0.0
0.0 0.0 0.0

-3.115890439504269e6 8.280635512498528e6 0.0
8.280635512498528e6 1.1335435728359935e6 0.0
0.0 0.0 0.0

-7.517232526398346e6 -3.1287584220773554e6 0.0
-3.1287584220773554e6 1.1509278896666773e7 0.0
0.0 0.0 0.0

734895.2190419468 9.653409506769931e6 0.0
9.653409506769931e6 -7.161047597653946e6 0.0
0.0 0.0 0.0

-6.424872264900644e6 1.6733731555655874e7 0.0
1.6733731555655874e7 4.105495870693511e6 0.0
0.0 0.0 0.0

-1.547072636501847e6 5.512882949450985e6 0.0
5.512882949450985e6 407358.9190753425 0.0
0.0 0.0 0.0

4.142869316769163e6 7.859132727637842e6 0.0
7.859132727637842e6 -1.6718834927092964e7 0.0
0.0 0.0 0.0

-960165.6119708886 7.832585402152585e6 0.0
7.832585402152585e6 -3.2089506467592325e6 0.0
0.0 0.0 0.0

-45259.84410446673 1.2114514545528049e7 0.0
1.2114514545528049e7 5.499032198936202e6 0.0
0.0 0.0 0.0

1.2326867021954184e7 1.4137944962641725e7 0.0
1.4137944962641725e7 2.3989775055376687e6 0.0
0.0 0.0 0.0

2.7918605263668e6 6.187828866599601e6 0.0
6.187828866599601e6 -9.225213538775424e6 0.0
0.0 0.0 0.0

-399031.9925402133 1.1407311201898271e7 0.0
1.1407311201898271e7 -1.3347264385203885e7 0.0
0.0 0.0 0.0

2.8644263750954503e6 6.281092567246611e6 0.0
6.281092567246611e6 -9.431050328207359e6 0.0
0.0 0.0 0.0

3.729119274903515e6 5.739112896321629e6 0.0
5.739112896321629e6 -1.0484012992582245e7 0.0
0.0 0.0 0.0

1.2663284329836484e7 1.0678933376770247e7 0.0
1.0678933376770247e7 -597806.1800412107 0.0
0.0 0.0 0.0

-1.3689901632630026e7 1.8266305338429507e7 0.0
1.8266305338429507e7 9.38458553244448e6 0.0
0.0 0.0 0.0

773289.6273649912 1.0909290099330861e7 0.0
1.0909290099330861e7 -1.2891529835423373e7 0.0
0.0 0.0 0.0

-4.035814431211512e6 1.3330038317155045e7 0.0
1.3330038317155045e7 99590.71724356222 0.0
0.0 0.0 0.0

4.608599018848062e6 5.709949677133733e6 0.0
5.709949677133733e6 -1.2284452311115652e7 0.0
0.0 0.0 0.0

-6.375955275269363e6 1.4064041480242714e7 0.0
1.4064041480242714e7 4.733297613488315e6 0.0
0.0 0.0 0.0

-3.2250501268465654e6 1.8218418433947813e7 0.0
1.8218418433947813e7 -1.6899582600377426e6 0.0
0.0 0.0 0.0

-1.2214648034157876e7 3.2773272763627754e6 0.0
3.2773272763627754e6 1.5409127146901697e7 0.0
0.0 0.0 0.0

-7.458721526174192e6 2.3556154358215008e7 0.0
2.3556154358215008e7 -4.849654381482588e6 0.0
0.0 0.0 0.0

-490210.2735647061 1.2607873135754952e7 0.0
1.2607873135754952e7 -1.212847002021632e6 0.0
0.0 0.0 0.0

5.132413802298785e6 5.448357494056304e6 0.0
5.448357494056304e6 -1.4611586581907595e7 0.0
0.0 0.0 0.0

9.14157272921123e6 1.0008284447733382e7 0.0
1.0008284447733382e7 -3.801362081713224e6 0.0
0.0 0.0 0.0

-3.616675599326132e6 1.2617072975447556e7 0.0
1.2617072975447556e7 4.684414126181568e6 0.0
0.0 0.0 0.0

4.201605290338784e6 6.775816771004492e6 0.0
6.775816771004492e6 -1.4035819148899155e7 0.0
0.0 0.0 0.0

-3.6922103360990304e6 1.4273977903132012e7 0.0
1.4273977903132012e7 -939415.2153166382 0.0
0.0 0.0 0.0

685341.6890184986 1.212573362350956e7 0.0
1.212573362350956e7 -6.379048428303243e6 0.0
0.0 0.0 0.0

-1.6957211365566947e6 1.1484163704130853e7 0.0
1.1484163704130853e7 -3.601494563431876e6 0.0
0.0 0.0 0.0

1.09729921263649e6 1.127007250252851e7 0.0
1.127007250252851e7 -7.335394684908564e6 0.0
0.0 0.0 0.0

256242.56118149892 1.1924965347168684e7 0.0
1.1924965347168684e7 5.731113232390575e6 0.0
0.0 0.0 0.0

5.17708227510836e6 7.52047014778944e6 0.0
7.52047014778944e6 -2.096880739405413e7 0.0
0.0 0.0 0.0

-5.578466948103057e6 1.404944936381494e7 0.0
1.404944936381494e7 6.045514714553215e6 0.0
0.0 0.0 0.0

565675.803251839 5.190128598809455e6 0.0
5.190128598809455e6 -3.9875146849721693e6 0.0
0.0 0.0 0.0

-1.0307050147497037e7 6.5114203488215655e6 0.0
6.5114203488215655e6 1.3131956333075635e7 0.0
0.0 0.0 0.0

3.346329738730893e6 5.705250210840408e6 0.0
5.705250210840408e6 -9.42674730672547e6 0.0
0.0 0.0 0.0

-8.644471994898383e6 -5.98209857191278e6 0.0
-5.98209857191278e6 1.5790220857251966e7 0.0
0.0 0.0 0.0

1.094173366038072e6 1.0325848152811036e7 0.0
1.0325848152811036e7 -8.848243546957871e6 0.0
0.0 0.0 0.0

1.0311627700578489e6 4.597906056666708e6 0.0
4.597906056666708e6 -4.0824868072842867e6 0.0
0.0 0.0 0.0

-21841.514090586104 1.202111229240342e7 0.0
1.202111229240342e7 2.947736586821851e6 0.0
0.0 0.0 0.0

-6.365339749426685e6 1.5005545653681519e7 0.0
1.5005545653681519e7 5.27356384137462e6 0.0
0.0 0.0 0.0

-9.519255036981694e6 -4.938157036714432e6 0.0
-4.938157036714432e6 1.4363519463682473e7 0.0
0.0 0.0 0.0

-1.9190395940623507e6 1.2565739468306804e7 0.0
1.2565739468306804e7 1.7505329584283368e6 0.0
0.0 0.0 0.0

1.0669214957178102e6 1.3789930047547651e7 0.0
1.3789930047547651e7 -5.395662781503661e6 0.0
0.0 0.0 0.0

-5.07346343752988e6 1.3003401101482235e7 0.0
1.3003401101482235e7 1.8046504805953128e6 0.0
0.0 0.0 0.0

-2.2803459724237365e6 1.4008259975936394e7 0.0
1.4008259975936394e7 -887654.944908076 0.0
0.0 0.0 0.0

-4.800518987203376e6 1.3163650931732256e7 0.0
1.3163650931732256e7 2.5860223892645035e6 0.0
0.0 0.0 0.0

-1.351772158841027e6 1.0340520867139881e7 0.0
1.0340520867139881e7 -9.521842256848088e6 0.0
0.0 0.0 0.0

4.057611980932344e6 1.4924264830780394e7 0.0
1.4924264830780394e7 -9.110880746357575e6 0.0
0.0 0.0 0.0

680299.4985066927 1.1067030802044563e7 0.0
1.1067030802044563e7 -8.72085854553644e6 0.0
0.0 0.0 0.0

-6.23922985477213e6 1.1685463068346549e7 0.0
1.1685463068346549e7 8.879697054249102e6 0.0
0.0 0.0 0.0

-4.2768082571122665e6 1.1963292954750715e7 0.0
1.1963292954750715e7 7.505069656286906e6 0.0
0.0 0.0 0.0

2.2116320038874857e6 8.13165900270113e6 0.0
8.13165900270113e6 -9.90617059610338e6 0.0
0.0 0.0 0.0

-2.8504683235915336e6 7.8389400928662615e6 0.0
7.8389400928662615e6 756329.904991807 0.0
0.0 0.0 0.0

-7.878909232044916e6 1.698831608675673e7 0.0
1.698831608675673e7 6.061455111761846e6 0.0
0.0 0.0 0.0

-7.874949879827578e6 1.1147722727179732e7 0.0
1.1147722727179732e7 8.144678731640719e6 0.0
0.0 0.0 0.0

-6.659860337201827e6 1.8540146312888402e7 0.0
1.8540146312888402e7 3.845149714429539e6 0.0
0.0 0.0 0.0

893204.8654199606 1.0297348353312097e7 0.0
1.0297348353312097e7 -9.527169007540409e6 0.0
0.0 0.0 0.0

-8.767595039256968e6 1.4197074154139007e7 0.0
1.4197074154139007e7 -405426.7478463701 0.0
0.0 0.0 0.0

5.406436215838179e6 6.118062298239886e6 0.0
6.118062298239886e6 -1.5954477184071215e7 0.0
0.0 0.0 0.0

-2.811955340284059e6 1.9207734539709724e7 0.0
1.9207734539709724e7 -1.805770891017537e6 0.0
0.0 0.0 0.0

-1.2495266359354135e7 1.3828087245493164e7 0.0
1.3828087245493164e7 1.0165794354690626e7 0.0
0.0 0.0 0.0

-2.794706622002884e6 1.271877255779148e7 0.0
1.271877255779148e7 5.151477667986634e6 0.0
0.0 0.0 0.0

-1.837184675808568e7 1.1928172392936189e7 0.0
1.1928172392936189e7 1.1357328798679393e7 0.0
0.0 0.0 0.0

5.287962096722824e6 5.406460305176154e6 0.0
5.406460305176154e6 -1.4869454643929662e7 0.0
0.0 0.0 0.0

-7.577643150791574e6 1.1153962419372153e7 0.0
1.1153962419372153e7 9.224234599539861e6 0.0
0.0 0.0 0.0

-1.8184964550430118e6 5.844510244691625e6 0.0
5.844510244691625e6 -268996.4970180504 0.0
0.0 0.0 0.0

3.3927048181961975e6 5.428541147630008e6 0.0
5.428541147630008e6 -9.791415509548785e6 0.0
0.0 0.0 0.0

407746.6816982101 1.2360279897568451e7 0.0
1.2360279897568451e7 -6.871984741466197e6 0.0
0.0 0.0 0.0

-1.286413972134454e7 1.870478742260855e7 0.0
1.870478742260855e7 1.0181981492288064e7 0.0
0.0 0.0 0.0

-1.0725588966664474e7 3.134165447145323e6 0.0
3.134165447145323e6 8.28082100101324e6 0.0
0.0 0.0 0.0

-1.499387021133635e7 1.2554545482357824e7 0.0
1.2554545482357824e7 6.091312407971655e6 0.0
0.0 0.0 0.0

9.947263143578354e6 1.083481891218132e7 0.0
1.083481891218132e7 2.6620232624422116e6 0.0
0.0 0.0 0.0

1.1875819105806965e6 1.2471368350536417e7 0.0
1.2471368350536417e7 -2.5882355903996795e7 0.0
0.0 0.0 0.0

803644.218183131 1.1567771198330985e7 0.0
1.1567771198330985e7 -7.870994829203524e6 0.0
0.0 0.0 0.0

-6.293869663677451e6 1.1723518498884927e7 0.0
1.1723518498884927e7 8.754126025371568e6 0.0
0.0 0.0 0.0

-2.381900319836949e6 1.383538721694057e7 0.0
1.383538721694057e7 -3.7155573927405113e6 0.0
0.0 0.0 0.0

-5.12081675673311e6 1.4365942673026433e7 0.0
1.4365942673026433e7 2.7152795060416656e6 0.0
0.0 0.0 0.0

-170216.3969294915 1.1292820179152777e7 0.0
1.1292820179152777e7 1.0879255447773978e6 0.0
0.0 0.0 0.0

-6.64533042483764e6 1.80840573133239e7 0.0
1.80840573133239e7 3.933629302892526e6 0.0
0.0 0.0 0.0

-2.4940614635748207e6 5.129132798337181e6 0.0
5.129132798337181e6 731104.9030581185 0.0
0.0 0.0 0.0

1.4580643574482303e7 1.4094792106465774e7 0.0
1.4094792106465774e7 -1.338541510106776e6 0.0
0.0 0.0 0.0

-4.719169718043898e6 1.5174161148230819e7 0.0
1.5174161148230819e7 -865780.780269615 0.0
0.0 0.0 0.0

10376.948075079476 1.1214794557128267e7 0.0
1.1214794557128267e7 1.663940591465802e6 0.0
0.0 0.0 0.0

-4.7691634464521725e6 1.3803005796107415e7 0.0
1.3803005796107415e7 2.533048913145649e6 0.0
0.0 0.0 0.0

-7.081639523461273e6 1.0546831337449543e7 0.0
1.0546831337449543e7 1.0544231427208014e7 0.0
0.0 0.0 0.0

-3.886969898289725e6 1.4047413703877449e7 0.0
1.4047413703877449e7 -666745.4216534102 0.0
0.0 0.0 0.0

3.8709570669809403e6 7.362510414717043e6 0.0
7.362510414717043e6 -1.2898070721123097e7 0.0
0.0 0.0 0.0

-5.605683870411586e6 1.221674913304138e7 0.0
1.221674913304138e7 3.5254159550788333e6 0.0
0.0 0.0 0.0

-2.970051548152826e6 1.3479957541103167e7 0.0
1.3479957541103167e7 1.4783349991310767e6 0.0
0.0 0.0 0.0

1.0196595457285685e6 6.409695675914833e6 0.0
6.409695675914833e6 -6.266553404259148e6 0.0
0.0 0.0 0.0

-5.580394215382912e6 1.3791554837671377e7 0.0
1.3791554837671377e7 6.170280995869841e6 0.0
0.0 0.0 0.0

-1.1727624612435417e7 131707.4790327922 0.0
131707.4790327922 2.3298319291818596e7 0.0
0.0 0.0 0.0

-274917.32620725734 7.711589984903068e6 0.0
7.711589984903068e6 -3.045241422020708e6 0.0
0.0 0.0 0.0

-7.316162385384342e6 1.2398035875928765e7 0.0
1.2398035875928765e7 4.248900651210733e6 0.0
0.0 0.0 0.0

8.892686762976365e6 1.475431048736602e7 0.0
1.475431048736602e7 3.822770629471672e6 0.0
0.0 0.0 0.0

2.030562963092144e6 1.0118325641455006e7 0.0
1.0118325641455006e7 -1.2102354309183555e7 0.0
0.0 0.0 0.0

4.4060701119966805e6 6.649584742599157e6 0.0
6.649584742599157e6 -1.3302157608540352e7 0.0
0.0 0.0 0.0

3.467799395885818e6 1.1241951253625825e7 0.0
1.1241951253625825e7 -2.25287535067511e6 0.0
0.0 0.0 0.0

-6.123034686382542e6 4.839331627021568e6 0.0
4.839331627021568e6 1.0945754061342502e7 0.0
0.0 0.0 0.0

-4.892657042595144e6 1.3849803698876487e7 0.0
1.3849803698876487e7 2.5366998076539366e6 0.0
0.0 0.0 0.0

-3.133814560229065e6 1.2582862996921886e7 0.0
1.2582862996921886e7 -1.7754528530328267e6 0.0
0.0 0.0 0.0

-3.0871837303142883e6 1.2958520621712003e7 0.0
1.2958520621712003e7 -2.738490651720248e6 0.0
0.0 0.0 0.0

-443563.8891179019 1.2069271232622234e7 0.0
1.2069271232622234e7 -3.056912624332352e6 0.0
0.0 0.0 0.0

1.1002542133329345e6 6.846041352957038e6 0.0
6.846041352957038e6 -5.621239032792531e6 0.0
0.0 0.0 0.0

8.006358380713222e6 1.2367252692281935e7 0.0
1.2367252692281935e7 -1.0500873035406745e6 0.0
0.0 0.0 0.0

-68460.76154839515 1.1436387230045188e7 0.0
1.1436387230045188e7 881454.4252581404 0.0
0.0 0.0 0.0

-7.670365046985704e6 1.6605561777038481e7 0.0
1.6605561777038481e7 6.528702499647068e6 0.0
0.0 0.0 0.0

-2.1738857014613293e7 7.909878351747826e6 0.0
7.909878351747826e6 1.166018248644663e7 0.0
0.0 0.0 0.0

3.07245204314471e6 5.329671416304129e6 0.0
5.329671416304129e6 -9.281024744459882e6 0.0
0.0 0.0 0.0

-507518.69066674326 1.2317031273876654e7 0.0
1.2317031273876654e7 539418.954644918 0.0
0.0 0.0 0.0

-564431.5568715809 9.987830427234681e6 0.0
9.987830427234681e6 -9.077067089115841e6 0.0
0.0 0.0 0.0

654981.4906939548 1.1431088198057912e7 0.0
1.1431088198057912e7 -9.853546482316807e6 0.0
0.0 0.0 0.0

-3.997701726990317e6 -1.2222616322458915e6 0.0
-1.2222616322458915e6 4.805027705589456e6 0.0
0.0 0.0 0.0

890173.5991430185 9.445001630350221e6 0.0
9.445001630350221e6 -8.169060020852406e6 0.0
0.0 0.0 0.0

-1.5013892358525037e6 1.2336834013712378e7 0.0
1.2336834013712378e7 -1.3964418960733064e7 0.0
0.0 0.0 0.0

1.1478097550325096e6 9.196690933809008e6 0.0
9.196690933809008e6 -8.625260388719697e6 0.0
0.0 0.0 0.0

131697.879102041 1.2745849291539326e7 0.0
1.2745849291539326e7 -6.373766992215958e6 0.0
0.0 0.0 0.0

8.785862171162784e6 1.3294841888526207e7 0.0
1.3294841888526207e7 3.353331855020172e6 0.0
0.0 0.0 0.0

-1.1415776667691467e7 7.051230376909495e6 0.0
7.051230376909495e6 1.6210425569293614e7 0.0
0.0 0.0 0.0

-2.8038145801207726e6 1.4240274661960041e7 0.0
1.4240274661960041e7 -1.1469317797916972e6 0.0
0.0 0.0 0.0

-403403.3141089654 1.1528889009446885e7 0.0
1.1528889009446885e7 -1.355700918489738e6 0.0
0.0 0.0 0.0

-4.496228254114378e6 1.1845084999365713e7 0.0
1.1845084999365713e7 -436388.64934358164 0.0
0.0 0.0 0.0

6.56500872091207e6 1.4543088138476769e7 0.0
1.4543088138476769e7 4.704508957419129e6 0.0
0.0 0.0 0.0

-5.522226183347862e6 1.3871962768878445e7 0.0
1.3871962768878445e7 6.380489281061708e6 0.0
0.0 0.0 0.0

1.966472151724684e6 1.1095597773225337e7 0.0
1.1095597773225337e7 -4.974875329574525e6 0.0
0.0 0.0 0.0

-5.619538056332974e6 1.5330884060550757e7 0.0
1.5330884060550757e7 2.9499972824402917e6 0.0
0.0 0.0 0.0

-5.746616785936348e6 1.2351346803766316e7 0.0
1.2351346803766316e7 4.387613941711795e6 0.0
0.0 0.0 0.0

-1.1660709876231229e7 -2.3136274952104874e6 0.0
-2.3136274952104874e6 3.995836438480432e7 0.0
0.0 0.0 0.0

-1.546937717180558e6 1.2674183554913627e7 0.0
1.2674183554913627e7 -6.079963179708686e6 0.0
0.0 0.0 0.0

-6.092467449112635e6 1.4967607449624734e7 0.0
1.4967607449624734e7 4.634121325699762e6 0.0
0.0 0.0 0.0

661295.4033242031 5.567007358259793e6 0.0
5.567007358259793e6 -3.4465082056237347e6 0.0
0.0 0.0 0.0

-9.197335871919414e6 7.920878998989716e6 0.0
7.920878998989716e6 1.2398763521968484e7 0.0
0.0 0.0 0.0

-2.705897700148736e6 9.405461614564639e6 0.0
9.405461614564639e6 924089.900892993 0.0
0.0 0.0 0.0

3.9071544000134263e6 5.844024995998968e6 0.0
5.844024995998968e6 -1.1213703199178534e7 0.0
0.0 0.0 0.0

-7.805091939840165e6 1.725359385732115e7 0.0
1.725359385732115e7 6.657134949551735e6 0.0
0.0 0.0 0.0

1.0990394638761259e6 9.484846906819938e6 0.0
9.484846906819938e6 -7.486743670496068e6 0.0
0.0 0.0 0.0

-7.842856697916456e6 1.0850879214426972e7 0.0
1.0850879214426972e7 9.696406396572141e6 0.0
0.0 0.0 0.0

5.688514128393686e6 7.205050438960912e6 0.0
7.205050438960912e6 -1.942211732478867e7 0.0
0.0 0.0 0.0

-7.570019506422568e6 1.6333922682326311e7 0.0
1.6333922682326311e7 6.310336154097471e6 0.0
0.0 0.0 0.0

-2.2171055762878223e6 1.1003490323341325e7 0.0
1.1003490323341325e7 -1.067799233728917e7 0.0
0.0 0.0 0.0

2.1782153100088444e6 4.140936841134149e6 0.0
4.140936841134149e6 -6.967023996407186e6 0.0
0.0 0.0 0.0

72301.46811355976 7.539184858202379e6 0.0
7.539184858202379e6 -3.5549427484947518e6 0.0
0.0 0.0 0.0

-1.3412287117464377e7 1.4351716333107801e7 0.0
1.4351716333107801e7 9.265633890794013e6 0.0
0.0 0.0 0.0

248971.96605649072 1.1393017285328884e7 0.0
1.1393017285328884e7 2.1108815075175595e6 0.0
0.0 0.0 0.0

-1.1736663147684652e7 1.839426867724108e7 0.0
1.839426867724108e7 8.770036648757275e6 0.0
0.0 0.0 0.0

-7.270048274470706e6 2.741625089870905e6 0.0
2.741625089870905e6 9.819481857126351e6 0.0
0.0 0.0 0.0

5.205123497490204e6 8.897267456479121e6 0.0
8.897267456479121e6 -2.071950789044534e7 0.0
0.0 0.0 0.0

2.1107564850170188e7 9.674481649924185e6 0.0
9.674481649924185e6 -9.327585450318933e6 0.0
0.0 0.0 0.0

-5.180993448263824e6 1.4215306981869658e7 0.0
1.4215306981869658e7 2.937568359557012e6 0.0
0.0 0.0 0.0

-6.787510322018379e6 1.5182318752208123e7 0.0
1.5182318752208123e7 6.26294125999311e6 0.0
0.0 0.0 0.0

-5.615950348106409e6 1.3396135476146247e7 0.0
1.3396135476146247e7 4.0917085932300407e6 0.0
0.0 0.0 0.0

-2.947447797258402e6 1.447943313655727e7 0.0
1.447943313655727e7 2.0368476303358532e7 0.0
0.0 0.0 0.0

4.244183007796593e6 5.928159471476285e6 0.0
5.928159471476285e6 -1.2611238118030723e7 0.0
0.0 0.0 0.0

-238139.97465353785 8.705258124629587e6 0.0
8.705258124629587e6 -4.191623958251978e6 0.0
0.0 0.0 0.0

-5.077414018073634e6 1.831857416573853e7 0.0
1.831857416573853e7 -807467.677963114 0.0
0.0 0.0 0.0

3.2737074728585007e6 8.737434150846465e6 0.0
8.737434150846465e6 -1.4683653302639598e7 0.0
0.0 0.0 0.0

-1.3956837834756475e7 4.284344655714056e6 0.0
4.284344655714056e6 9.400178438561646e6 0.0
0.0 0.0 0.0

-3.2476842378243133e6 1.32491146815337e7 0.0
1.32491146815337e7 1.1604884566925378e6 0.0
0.0 0.0 0.0

-699180.4575734384 8.676860360066958e6 0.0
8.676860360066958e6 -202924.11256574144 0.0
0.0 0.0 0.0

1.3677069231866319e6 9.264512762360295e6 0.0
9.264512762360295e6 -7.908464045541529e6 0.0
0.0 0.0 0.0

-3.1741809515809696e6 1.392103949572407e7 0.0
1.392103949572407e7 9.770899097200068e6 0.0
0.0 0.0 0.0

-1.8955166309539438e6 1.83049127926165e7 0.0
1.83049127926165e7 -3.1758070879288265e6 0.0
0.0 0.0 0.0

-2.1074969662842683e7 -3.6955807907600435e6 0.0
-3.6955807907600435e6 9.714451627634708e6 0.0
0.0 0.0 0.0

6.780072920388414e6 2.122134614896421e7 0.0
2.122134614896421e7 -1.147175171095306e7 0.0
0.0 0.0 0.0

-3.573829879417368e6 1.8968349979164854e7 0.0
1.8968349979164854e7 -4.198010664959413e6 0.0
0.0 0.0 0.0

2.8855639384091194e6 5.342056015648376e6 0.0
5.342056015648376e6 -8.502130514372675e6 0.0
0.0 0.0 0.0

-6.556489680301125e6 1.4963293077249216e7 0.0
1.4963293077249216e7 4.65378476707327e6 0.0
0.0 0.0 0.0

1.2447571696052486e7 1.063390647931895e7 0.0
1.063390647931895e7 -603398.9517610618 0.0
0.0 0.0 0.0

-1.2920722136383498e7 2.4881622808965626e6 0.0
2.4881622808965626e6 2.4893658959959142e7 0.0
0.0 0.0 0.0

-1.782677706020504e6 1.2676787230398083e7 0.0
1.2676787230398083e7 -5.546134616795055e6 0.0
0.0 0.0 0.0

5.606827876009818e6 1.2495982721438363e7 0.0
1.2495982721438363e7 3.2209781376031395e6 0.0
0.0 0.0 0.0

605581.4105413519 1.2536861275076155e7 0.0
1.2536861275076155e7 -6.949368510338229e6 0.0
0.0 0.0 0.0

4.67639566744596e6 5.999020695248788e6 0.0
5.999020695248788e6 -1.3315488915343726e7 0.0
0.0 0.0 0.0

-4.852915157007988e6 1.4139767897816198e7 0.0
1.4139767897816198e7 2.0170379524940844e6 0.0
0.0 0.0 0.0

-130077.00637039728 1.010951286302127e7 0.0
1.010951286302127e7 -8.9517615034582e6 0.0
0.0 0.0 0.0

-5.2136421416086815e6 1.5821466482135702e7 0.0
1.5821466482135702e7 386117.8654158714 0.0
0.0 0.0 0.0

-1.1676608180938963e7 5.055308645450147e6 0.0
5.055308645450147e6 2.6763718439688876e7 0.0
0.0 0.0 0.0

1.1216912101524458e6 1.0584353990106868e7 0.0
1.0584353990106868e7 -7.103257677090203e6 0.0
0.0 0.0 0.0

2.4169387456192533e6 8.008307185078042e6 0.0
8.008307185078042e6 -1.0738436194340108e7 0.0
0.0 0.0 0.0

-260051.66074494808 1.4215801007229593e7 0.0
1.4215801007229593e7 -5.167402555477961e6 0.0
0.0 0.0 0.0

-205256.6240607095 9.717771345943829e6 0.0
9.717771345943829e6 -6.788610345598407e6 0.0
0.0 0.0 0.0

-1.1046771557713447e7 -2.747533910424611e6 0.0
-2.747533910424611e6 2.2753178176438343e7 0.0
0.0 0.0 0.0

-5.5801726470648125e6 1.3482135654492144e7 0.0
1.3482135654492144e7 1.0948521889979437e7 0.0
0.0 0.0 0.0

3.540464267862969e6 8.69368992817968e6 0.0
8.69368992817968e6 -1.5383921480983125e7 0.0
0.0 0.0 0.0

-4.488853176754509e6 1.5638975644897914e7 0.0
1.5638975644897914e7 219589.32819853793 0.0
0.0 0.0 0.0

-3.7614070360519206e6 1.1866302540161742e7 0.0
1.1866302540161742e7 7.683196841022158e6 0.0
0.0 0.0 0.0

2.917000021348114e6 7.488928048807613e6 0.0
7.488928048807613e6 -1.0475311376932932e7 0.0
0.0 0.0 0.0

1.5459252124940591e7 1.3151994855891686e7 0.0
1.3151994855891686e7 2.573788779279382e6 0.0
0.0 0.0 0.0

-4.396200144964685e6 1.5262458382962791e7 0.0
1.5262458382962791e7 192491.84779490624 0.0
0.0 0.0 0.0

-5.544141134777689e6 -2.079495163143844e6 0.0
-2.079495163143844e6 8.560896659105219e6 0.0
0.0 0.0 0.0

-1.196695602238316e7 -2.5609329889059598e6 0.0
-2.5609329889059598e6 1.9755176474357e7 0.0
0.0 0.0 0.0

4.337552560467063e6 5.429130682316868e6 0.0
5.429130682316868e6 -1.150634002949391e7 0.0
0.0 0.0 0.0

-5.955932755297873e6 1.304957487087288e7 0.0
1.304957487087288e7 3.645603470440242e6 0.0
0.0 0.0 0.0

-764610.2593151728 1.196573860891975e7 0.0
1.196573860891975e7 -3.216605813652121e6 0.0
0.0 0.0 0.0

-2.4795164755785507e6 1.3616967495583063e7 0.0
1.3616967495583063e7 -4.481696092769377e6 0.0
0.0 0.0 0.0

-2.9441322354707355e6 2.340127801707766e6 0.0
2.340127801707766e6 3.3378597255362654e6 0.0
0.0 0.0 0.0

-2.8715687355371625e6 1.306000048144311e7 0.0
1.306000048144311e7 -1.9731629207483435e6 0.0
0.0 0.0 0.0

-1.1446244232267719e7 -3.2113781401524963e6 0.0
-3.2113781401524963e6 2.1534595598366067e7 0.0
0.0 0.0 0.0

3.4657486012707823e6 1.0476650385778984e7 0.0
1.0476650385778984e7 -392266.14125616616 0.0
0.0 0.0 0.0

3.0096353292814204e6 9.531662294030037e6 0.0
9.531662294030037e6 -1.4698879566446844e7 0.0
0.0 0.0 0.0

3.9344155017029615e6 8.554882441463577e6 0.0
8.554882441463577e6 -1.519043584301095e7 0.0
0.0 0.0 0.0

-1.0122285762250017e7 7.493044624909513e6 0.0
7.493044624909513e6 1.3225738002419397e7 0.0
0.0 0.0 0.0

-4.1936650114429835e6 1.1279903663342062e7 0.0
1.1279903663342062e7 2.0079115079769776e6 0.0
0.0 0.0 0.0

402734.9834773184 5.377591751682563e6 0.0
5.377591751682563e6 -3.7362381956592686e6 0.0
0.0 0.0 0.0

1.0371669267637953e6 1.074269132805689e7 0.0
1.074269132805689e7 -6.85283472166954e6 0.0
0.0 0.0 0.0

-6.57975825400265e6 1.456078117087992e7 0.0
1.456078117087992e7 6.123068748106826e6 0.0
0.0 0.0 0.0

-1.4711566195764677e6 1.4385167403317342e7 0.0
1.4385167403317342e7 1.2035572270350192e7 0.0
0.0 0.0 0.0

2.634883440843288e6 1.3812328575086491e7 0.0
1.3812328575086491e7 -5.211380781290781e6 0.0
0.0 0.0 0.0

-1.0585260389908778e7 -3.102187376596713e6 0.0
-3.102187376596713e6 3.8580548861746185e7 0.0
0.0 0.0 0.0

-1.154821369089366e7 4.0255527142084516e6 0.0
4.0255527142084516e6 2.0268576705782153e7 0.0
0.0 0.0 0.0

-8.140292669524666e6 7.949465439821516e6 0.0
7.949465439821516e6 9.935639042265942e6 0.0
0.0 0.0 0.0

-1.263366202341153e6 9.820718652980827e6 0.0
9.820718652980827e6 1.817058810475355e6 0.0
0.0 0.0 0.0

-1.5283870311747123e6 4.651059743042925e6 0.0
4.651059743042925e6 570491.8198842627 0.0
0.0 0.0 0.0

-8.2966080388023015e6 1.0051164602360316e7 0.0
1.0051164602360316e7 4.0093667017029566e6 0.0
0.0 0.0 0.0

4.399402577326195e6 6.17060036890295e6 0.0
6.17060036890295e6 -1.2215011997820135e7 0.0
0.0 0.0 0.0

-946904.2053873483 1.1724993253470652e7 0.0
1.1724993253470652e7 -1.3225747271459065e7 0.0
0.0 0.0 0.0

-243209.0669400805 1.1567158826066969e7 0.0
1.1567158826066969e7 257841.2491288855 0.0
0.0 0.0 0.0

585565.2935274304 1.7234479253163848e7 0.0
1.7234479253163848e7 -7.910485715391395e6 0.0
0.0 0.0 0.0

892106.9502879125 1.27699237611654e7 0.0
1.27699237611654e7 -6.336971539443339e6 0.0
0.0 0.0 0.0

-8.341666267824632e6 1.4294329017442463e7 0.0
1.4294329017442463e7 1.0040290617739968e6 0.0
0.0 0.0 0.0

-5.569617014573187e6 1.4589622321972948e7 0.0
1.4589622321972948e7 2.434783136687639e6 0.0
0.0 0.0 0.0

-195041.98024989094 6.052908644603183e6 0.0
6.052908644603183e6 -3.73480997317364e6 0.0
0.0 0.0 0.0

-1.1756557887253772e7 1.877896585911572e7 0.0
1.877896585911572e7 9.458204856115919e6 0.0
0.0 0.0 0.0

-4.1608358452981715e6 1.1491755889985211e7 0.0
1.1491755889985211e7 1.790114178542934e6 0.0
0.0 0.0 0.0

-3.8258405903514107e6 4.71689611239432e6 0.0
4.71689611239432e6 1.9531312198756852e6 0.0
0.0 0.0 0.0

-4.345540415919021e6 1.1351512174358202e7 0.0
1.1351512174358202e7 1.0040245315852351e6 0.0
0.0 0.0 0.0

272662.9750203049 5.886515016585687e6 0.0
5.886515016585687e6 -2.796099975124932e6 0.0
0.0 0.0 0.0

-1.0651938554901015e6 5.752893719726557e6 0.0
5.752893719726557e6 -4.293474269649183e6 0.0
0.0 0.0 0.0

2.7354659454959016e6 9.654242444008527e6 0.0
9.654242444008527e6 -1.3400717653052002e7 0.0
0.0 0.0 0.0

-3.2498997302391916e6 1.4093224928556377e7 0.0
1.4093224928556377e7 -462368.06807325885 0.0
0.0 0.0 0.0

-5.500382310192779e6 1.1796044593930192e7 0.0
1.1796044593930192e7 8.265496915665967e6 0.0
0.0 0.0 0.0

-610257.1136383564 1.1912047461472725e7 0.0
1.1912047461472725e7 -2.761184865599396e6 0.0
0.0 0.0 0.0

2.182832251320031e6 4.728159649217173e6 0.0
4.728159649217173e6 -7.017357607253083e6 0.0
0.0 0.0 0.0

-4.247731453375244e6 1.3502066005950142e7 0.0
1.3502066005950142e7 -257424.55733265332 0.0
0.0 0.0 0.0

-5.7924323175338805e6 1.5267946753550788e7 0.0
1.5267946753550788e7 2.420185764351653e6 0.0
0.0 0.0 0.0

-127335.9350254822 1.4074321019463453e7 0.0
1.4074321019463453e7 -4.975366868060468e6 0.0
0.0 0.0 0.0

-5.128957100632149e6 5.469925817024739e6 0.0
5.469925817024739e6 3.5681057269683555e6 0.0
0.0 0.0 0.0

707500.7787749544 1.0961990769250274e7 0.0
1.0961990769250274e7 -9.865869579102157e6 0.0
0.0 0.0 0.0

-8.579687883966988e6 1.680543720224664e7 0.0
1.680543720224664e7 7.141182710223101e6 0.0
0.0 0.0 0.0

-7.978927329988668e6 1.6607247694681618e7 0.0
1.6607247694681618e7 6.652680064197933e6 0.0
0.0 0.0 0.0

949191.5261393357 1.0742162857634896e7 0.0
1.0742162857634896e7 -1.2452491705263834e7 0.0
0.0 0.0 0.0

-169888.9587163101 1.0019154909551803e7 0.0
1.0019154909551803e7 -7.723715849112504e6 0.0
0.0 0.0 0.0

-408287.2849743782 1.1929221426559713e7 0.0
1.1929221426559713e7 124499.92095914535 0.0
0.0 0.0 0.0

3.156719159232606e6 8.014383659537664e6 0.0
8.014383659537664e6 -1.2795338569049535e7 0.0
0.0 0.0 0.0

-1.1661856552132102e7 4.1422288059287784e6 0.0
4.1422288059287784e6 1.655270984432231e7 0.0
0.0 0.0 0.0

4.0477945416653603e6 1.0640135081575911e7 0.0
1.0640135081575911e7 -2.061244590786213e7 0.0
0.0 0.0 0.0

-5.373058659294271e6 2.0220701449641507e7 0.0
2.0220701449641507e7 -3.2166700058063692e6 0.0
0.0 0.0 0.0

424903.4458726379 1.245929389741981e7 0.0
1.245929389741981e7 4.863249186008595e6 0.0
0.0 0.0 0.0

-2.985371188442228e6 1.3502813471690154e7 0.0
1.3502813471690154e7 1.0356369110250186e7 0.0
0.0 0.0 0.0

3.2441455443339264e6 1.2941551717288146e7 0.0
1.2941551717288146e7 5.384855094391389e6 0.0
0.0 0.0 0.0

-576952.9718564358 9.18666340886257e6 0.0
9.18666340886257e6 -772452.1682311868 0.0
0.0 0.0 0.0

-3.8740346106240815e6 1.3373250037750805e7 0.0
1.3373250037750805e7 -89781.89779047458 0.0
0.0 0.0 0.0

-1.1383759313071819e7 1.2150818347145425e7 0.0
1.2150818347145425e7 735578.5577104851 0.0
0.0 0.0 0.0

153896.7651174235 8.756592290198399e6 0.0
8.756592290198399e6 -1.8998127275967684e6 0.0
0.0 0.0 0.0

-2.019966268531676e6 1.3166204769689271e7 0.0
1.3166204769689271e7 1.3554797947386582e6 0.0
0.0 0.0 0.0

4.0228338003288973e6 5.86900257556432e6 0.0
5.86900257556432e6 -1.0787300364543742e7 0.0
0.0 0.0 0.0

-9.175190600745987e6 1.0510871915562818e7 0.0
1.0510871915562818e7 4.962554049976566e6 0.0
0.0 0.0 0.0

-1.5372155215446845e7 1.8071410910730567e7 0.0
1.8071410910730567e7 1.1247040251818297e7 0.0
0.0 0.0 0.0

-5.329787031614643e6 1.5860482002785727e6 0.0
1.5860482002785727e6 7.484015661822224e6 0.0
0.0 0.0 0.0

-2.315814976392744e6 1.7827625128852036e7 0.0
1.7827625128852036e7 -4.276411636942499e6 0.0
0.0 0.0 0.0

-1.1544806288760414e7 5.924502552910978e6 0.0
5.924502552910978e6 4.168569299387187e7 0.0
0.0 0.0 0.0

-5.111096077499131e6 -2.212659893600601e6 0.0
-2.212659893600601e6 6.157835961776199e6 0.0
0.0 0.0 0.0

-2.9262256315020127e6 1.3020489009143664e7 0.0
1.3020489009143664e7 -1.5114558649069587e7 0.0
0.0 0.0 0.0

1.0979218973181304e6 1.1710509599106248e7 0.0
1.1710509599106248e7 -7.643514874742631e6 0.0
0.0 0.0 0.0

-6.050027369830932e6 1.5701250471877523e7 0.0
1.5701250471877523e7 3.2921783979682596e6 0.0
0.0 0.0 0.0

-6.5246673575997725e6 8.926300162878368e6 0.0
8.926300162878368e6 1.5133023081893097e6 0.0
0.0 0.0 0.0

-10521.38140511862 7.220343891438452e6 0.0
7.220343891438452e6 -3.3339190436066855e6 0.0
0.0 0.0 0.0

-5.048970006952347e6 1.4037055988911686e7 0.0
1.4037055988911686e7 1.4626335153342127e6 0.0
0.0 0.0 0.0

-7.37363634012123e6 1.6353095963260641e7 0.0
1.6353095963260641e7 6.023574356276644e6 0.0
0.0 0.0 0.0

-5.901914897249011e6 1.5794878381742539e7 0.0
1.5794878381742539e7 3.308897598700429e6 0.0
0.0 0.0 0.0

3.1095800818309337e6 1.0243944641951883e7 0.0
1.0243944641951883e7 -2.4067429802727956e7 0.0
0.0 0.0 0.0

-2.2271612841331116e6 1.001219834514778e7 0.0
1.001219834514778e7 -2.0733540624152846e6 0.0
0.0 0.0 0.0

-1.1547170817653326e7 -3.4428659864437473e6 0.0
-3.4428659864437473e6 2.8715657108086605e7 0.0
0.0 0.0 0.0

1.91384262290679e6 1.6370109026644075e7 0.0
1.6370109026644075e7 2.3399962768909454e7 0.0
0.0 0.0 0.0

-2.6242407337931734e7 -3.009916295753713e6 0.0
-3.009916295753713e6 1.075935657081473e7 0.0
0.0 0.0 0.0

1.0027905153236594e7 1.3010747488494843e7 0.0
1.3010747488494843e7 -8.410240485973436e6 0.0
0.0 0.0 0.0

1.8326060265502185e6 1.057658583670519e7 0.0
1.057658583670519e7 -1.1836286538917607e7 0.0
0.0 0.0 0.0

1.3998028262979188e6 5.657537958336655e6 0.0
5.657537958336655e6 -5.32769089244246e6 0.0
0.0 0.0 0.0

1.449494533840771e7 1.2618992293066256e7 0.0
1.2618992293066256e7 -1.0890142917841937e7 0.0
0.0 0.0 0.0

1.455625484443106e6 7.409330104548485e6 0.0
7.409330104548485e6 -3.516730141572728e6 0.0
0.0 0.0 0.0

5.18549104156998e6 1.2702473588101646e7 0.0
1.2702473588101646e7 4.491775208682495e6 0.0
0.0 0.0 0.0

-5.671919221448215e6 1.4445155131308522e7 0.0
1.4445155131308522e7 2.616484003534662e6 0.0
0.0 0.0 0.0

-6.660009402580568e6 1.4884962423391914e7 0.0
1.4884962423391914e7 6.224376820190674e6 0.0
0.0 0.0 0.0

-746410.2045578127 8.808043693901967e6 0.0
8.808043693901967e6 -4.352544254048653e6 0.0
0.0 0.0 0.0

-6.155025603588015e6 5.393871217800118e6 0.0
5.393871217800118e6 875226.9342891905 0.0
0.0 0.0 0.0

-935186.1071168291 1.0449868110960247e7 0.0
1.0449868110960247e7 -9.47203676878617e6 0.0
0.0 0.0 0.0

-1.6419703771115686e6 1.2799337820245638e7 0.0
1.2799337820245638e7 1.7840289881257717e6 0.0
0.0 0.0 0.0

-1.5870501516465438e6 1.0327534195358483e7 0.0
1.0327534195358483e7 4.218661226920931e6 0.0
0.0 0.0 0.0

-1.1993698901056783e7 4.882717512378428e6 0.0
4.882717512378428e6 3.833476441012914e7 0.0
0.0 0.0 0.0

-5.249649652435164e6 1.3560927618911104e7 0.0
1.3560927618911104e7 2.0067781604198962e6 0.0
0.0 0.0 0.0

4.381968390940199e6 5.459164606531456e6 0.0
5.459164606531456e6 -1.1654810643025866e7 0.0
0.0 0.0 0.0

-4.233012876589936e6 1.2999061039918229e7 0.0
1.2999061039918229e7 5.661473941129297e6 0.0
0.0 0.0 0.0

-2.73086919218959e6 1.053137996977414e7 0.0
1.053137996977414e7 4.889281911553607e6 0.0
0.0 0.0 0.0

2.1005163279032693e6 1.4781141749143524e7 0.0
1.4781141749143524e7 -6.334336538150597e6 0.0
0.0 0.0 0.0

-4.0003276703119865e6 1.4114718041934237e7 0.0
1.4114718041934237e7 -1.9234552274669488e6 0.0
0.0 0.0 0.0

-9.25516766018001e6 1.7948518191643976e7 0.0
1.7948518191643976e7 7.302366084655856e6 0.0
0.0 0.0 0.0

-490502.0691833147 6.370733984150268e6 0.0
6.370733984150268e6 -3.363625999520019e6 0.0
0.0 0.0 0.0

-9.985384882249232e6 1.5808706592412386e7 0.0
1.5808706592412386e7 8.203397918599002e6 0.0
0.0 0.0 0.0

-6.100204577601397e6 1.4845611290031323e7 0.0
1.4845611290031323e7 4.776248416737216e6 0.0
0.0 0.0 0.0

-8.291154655995635e6 8.972282475655332e6 0.0
8.972282475655332e6 9.743101074254565e6 0.0
0.0 0.0 0.0

6.979791011777854e6 1.366127643855699e7 0.0
1.366127643855699e7 -7.884227736318853e6 0.0
0.0 0.0 0.0

-779428.2703460194 1.1758327752188554e7 0.0
1.1758327752188554e7 -5.885158561436715e6 0.0
0.0 0.0 0.0

-5.739716019191314e6 1.430254342671084e7 0.0
1.430254342671084e7 2.8451072217869605e6 0.0
0.0 0.0 0.0

-436142.51001392724 8.369980773366826e6 0.0
8.369980773366826e6 -4.6614974794086795e6 0.0
0.0 0.0 0.0

-2.111625273776995e6 1.252773266589012e7 0.0
1.252773266589012e7 3.3562656038447865e6 0.0
0.0 0.0 0.0

-6.0937493494486585e6 2.7990129857624825e6 0.0
2.7990129857624825e6 2.695913357583784e6 0.0
0.0 0.0 0.0

-7.477772521843382e6 9.536632422778567e6 0.0
9.536632422778567e6 5.255397084279079e6 0.0
0.0 0.0 0.0

661137.3260820853 1.188499392117538e7 0.0
1.188499392117538e7 -7.352336821915651e6 0.0
0.0 0.0 0.0

-1.4047130870812354e6 1.1210349475248933e7 0.0
1.1210349475248933e7 5.098614874259489e6 0.0
0.0 0.0 0.0

50333.98849704489 1.1909189249715742e7 0.0
1.1909189249715742e7 -8.649318686753456e6 0.0
0.0 0.0 0.0

-6.102377684933992e6 1.1667721744400416e7 0.0
1.1667721744400416e7 8.05566457582264e6 0.0
0.0 0.0 0.0

-1.227271399324726e7 5.684538726899753e6 0.0
5.684538726899753e6 7.005415884530163e6 0.0
0.0 0.0 0.0

-1.706488913005438e6 1.2774394778995069e7 0.0
1.2774394778995069e7 338633.7154566543 0.0
0.0 0.0 0.0

-9.245727653411567e6 3.082027380914047e6 0.0
3.082027380914047e6 9.491756287597734e6 0.0
0.0 0.0 0.0

-1.807006994901969e6 1.2567801149221702e7 0.0
1.2567801149221702e7 4.230602913970011e6 0.0
0.0 0.0 0.0

-2.5849862052454175e6 1.9030793625952356e7 0.0
1.9030793625952356e7 -5.952909608553134e6 0.0
0.0 0.0 0.0

-2.2917208687284555e7 1.027686051635839e7 0.0
1.027686051635839e7 9.508692270417033e6 0.0
0.0 0.0 0.0

-6.451099703700975e6 2.119853053314137e7 0.0
2.119853053314137e7 984444.0130397244 0.0
0.0 0.0 0.0

-6.372371029416664e6 1.3137724877632748e7 0.0
1.3137724877632748e7 1.5763450449224403e6 0.0
0.0 0.0 0.0

-6.766923021570092e6 1.948947720578751e7 0.0
1.948947720578751e7 3.10752740777676e6 0.0
0.0 0.0 0.0

-7.426007762971917e6 1.882282103106692e6 0.0
1.882282103106692e6 7.021610144052569e6 0.0
0.0 0.0 0.0

2.519791578906121e6 1.4503703519737903e7 0.0
1.4503703519737903e7 -5.879296064801589e6 0.0
0.0 0.0 0.0

-8.135223036680721e6 1.683602049472241e7 0.0
1.683602049472241e7 6.9997399759728145e6 0.0
0.0 0.0 0.0

-2.3427192556466945e6 1.2988665278052967e7 0.0
1.2988665278052967e7 73277.17751702282 0.0
0.0 0.0 0.0

916751.7794769448 1.1279733782417797e7 0.0
1.1279733782417797e7 -1.0471885355350805e7 0.0
0.0 0.0 0.0

-7.16743150758874e6 1.5626511824248936e7 0.0
1.5626511824248936e7 6.544508175280517e6 0.0
0.0 0.0 0.0

-5.6711163692781e6 8.2578796387260705e6 0.0
8.2578796387260705e6 4.723653792532937e6 0.0
0.0 0.0 0.0

-7.261764179413236e6 1.967151443587089e7 0.0
1.967151443587089e7 1.1201135131788524e6 0.0
0.0 0.0 0.0

-1.1072555972392064e7 1.5218725640325673e7 0.0
1.5218725640325673e7 8.994938968964554e6 0.0
0.0 0.0 0.0

1.6702467765152957e6 1.4537707626202356e7 0.0
1.4537707626202356e7 -6.114897545916555e6 0.0
0.0 0.0 0.0

2.4594297172654625e6 5.780553372949728e6 0.0
5.780553372949728e6 -7.756715530701529e6 0.0
0.0 0.0 0.0

-615589.985619911 1.1348149184346534e7 0.0
1.1348149184346534e7 -1.2447610482070945e7 0.0
0.0 0.0 0.0

2.2037659202871444e6 4.495262089999802e6 0.0
4.495262089999802e6 -7.479182522906136e6 0.0
0.0 0.0 0.0

-963339.3606860198 1.3023850652573114e7 0.0
1.3023850652573114e7 5.184411643475984e6 0.0
0.0 0.0 0.0

1.8894022017022567e6 1.287012015552338e7 0.0
1.287012015552338e7 -5.42439474278881e6 0.0
0.0 0.0 0.0

-3.643769240949751e6 1.7791119096931644e7 0.0
1.7791119096931644e7 -2.8968529304395486e6 0.0
0.0 0.0 0.0

-1.0386289195890633e7 8.353154604345491e6 0.0
8.353154604345491e6 1.1951638447626378e7 0.0
0.0 0.0 0.0

-529003.3820201819 9.123403805451987e6 0.0
9.123403805451987e6 -3.8795665760095776e6 0.0
0.0 0.0 0.0

-935108.8379096554 4.5090567909360165e6 0.0
4.5090567909360165e6 4.961314209714655e6 0.0
0.0 0.0 0.0

3.9818207755895173e6 9.33096193127517e6 0.0
9.33096193127517e6 -1.858540471620139e7 0.0
0.0 0.0 0.0

-94639.260731021 1.0773874647079635e7 0.0
1.0773874647079635e7 -138570.80210918112 0.0
0.0 0.0 0.0

-1.0286946457270358e7 1.4544229168977413e7 0.0
1.4544229168977413e7 7.130670873236995e6 0.0
0.0 0.0 0.0

923294.9033282911 1.0870881076812165e7 0.0
1.0870881076812165e7 -7.997508267125876e6 0.0
0.0 0.0 0.0

6.593122916924318e6 1.1469121451367589e7 0.0
1.1469121451367589e7 -1.9853662261161408e6 0.0
0.0 0.0 0.0

-1.045132501365467e7 1.3757567283330811e6 0.0
1.3757567283330811e6 1.3338764030989647e7 0.0
0.0 0.0 0.0

-1.5611413936772238e7 1.021981524717667e7 0.0
1.021981524717667e7 6.203914784233813e6 0.0
0.0 0.0 0.0

3.3514707118273973e6 1.8921411356097423e7 0.0
1.8921411356097423e7 -1.5139580288199611e7 0.0
0.0 0.0 0.0

-6.665340833233367e6 1.5041928436614407e7 0.0
1.5041928436614407e7 6.470520733610292e6 0.0
0.0 0.0 0.0

-1.0166861631711423e6 7.477330634189721e6 0.0
7.477330634189721e6 -1.2253140755334052e6 0.0
0.0 0.0 0.0

-1.1228752116807405e7 8.43423277112643e6 0.0
8.43423277112643e6 1.3521156059645351e7 0.0
0.0 0.0 0.0

-7.8922605159617625e6 -2.5320283875685725e6 0.0
-2.5320283875685725e6 9.912379764336973e6 0.0
0.0 0.0 0.0

-993665.5268637561 1.1701516830077445e7 0.0
1.1701516830077445e7 -6.57193808366526e6 0.0
0.0 0.0 0.0

-5.63122932524108e6 1.556387635678864e7 0.0
1.556387635678864e7 735175.7942456123 0.0
0.0 0.0 0.0

-1.4745165818846398e6 1.1338309071462793e7 0.0
1.1338309071462793e7 -3.8143435406583915e6 0.0
0.0 0.0 0.0

-1.1423207622982727e7 5.254094644772063e6 0.0
5.254094644772063e6 2.4064504616378494e7 0.0
0.0 0.0 0.0

1.6686940227539218e6 1.0188460903379323e7 0.0
1.0188460903379323e7 -1.1643364146727648e7 0.0
0.0 0.0 0.0

-6.356323627851442e6 1.5152005048449185e7 0.0
1.5152005048449185e7 1.5510780675038425e6 0.0
0.0 0.0 0.0

1.0931803753845282e6 1.1095218860938115e7 0.0
1.1095218860938115e7 -1.0373679723343134e7 0.0
0.0 0.0 0.0

5.046978397901461e6 1.1356029615861105e7 0.0
1.1356029615861105e7 2.532911598908181e6 0.0
0.0 0.0 0.0

-1.1794679309339501e7 3.5271171431639898e6 0.0
3.5271171431639898e6 2.171285764969518e7 0.0
0.0 0.0 0.0

1.598122204011116e6 1.0605147702516152e7 0.0
1.0605147702516152e7 -3.7778958150851624e6 0.0
0.0 0.0 0.0

-3.8701735609551324e6 1.2409390428611433e7 0.0
1.2409390428611433e7 5.672125031609371e6 0.0
0.0 0.0 0.0

-4.400225434120523e6 1.622915835461843e7 0.0
1.622915835461843e7 138748.01608090336 0.0
0.0 0.0 0.0

3.1254351480014413e6 7.956195959190383e6 0.0
7.956195959190383e6 -1.1194522536940776e7 0.0
0.0 0.0 0.0

1.100531416441983e6 7.078280583595793e6 0.0
7.078280583595793e6 -5.674844198113699e6 0.0
0.0 0.0 0.0

3.5520181396195637e6 9.323177348819157e6 0.0
9.323177348819157e6 -1.6932657718089662e7 0.0
0.0 0.0 0.0

-2.8495990983580453e6 1.3715516390788784e7 0.0
1.3715516390788784e7 -351630.3079073463 0.0
0.0 0.0 0.0

-1.288262738575739e7 2.790916074442342e6 0.0
2.790916074442342e6 1.8769805404884703e7 0.0
0.0 0.0 0.0

-2.6360372392054703e6 1.378191689200066e7 0.0
1.378191689200066e7 -801439.3941678229 0.0
0.0 0.0 0.0

-1.1023620008423028e6 1.0912166153203283e7 0.0
1.0912166153203283e7 -4.0977209996438036e6 0.0
0.0 0.0 0.0

4.0435289328950457e6 7.997009264638407e6 0.0
7.997009264638407e6 -1.614809381585531e7 0.0
0.0 0.0 0.0

-1.1436552143190335e7 7.169487785790504e6 0.0
7.169487785790504e6 1.5296564121453367e7 0.0
0.0 0.0 0.0

6635.807757655974 1.1503567954389628e7 0.0
1.1503567954389628e7 1.5055987254777527e6 0.0
0.0 0.0 0.0

2.4660056646531057e6 9.692927892336473e6 0.0
9.692927892336473e6 -1.4289134688879304e7 0.0
0.0 0.0 0.0

4.4298323184034545e6 5.574604767900098e6 0.0
5.574604767900098e6 -1.2516743174912998e7 0.0
0.0 0.0 0.0

-6.989380652138758e6 1.2323611883839384e7 0.0
1.2323611883839384e7 8.096957402800238e6 0.0
0.0 0.0 0.0

-4.706112365711305e6 1.4956174985169884e7 0.0
1.4956174985169884e7 2.0555935587742147e6 0.0
0.0 0.0 0.0

605693.9528420437 8.944297951556418e6 0.0
8.944297951556418e6 -5.833551296918305e6 0.0
0.0 0.0 0.0

-9.898255381967101e6 -2.0032217482791145e6 0.0
-2.0032217482791145e6 1.5320048686049988e7 0.0
0.0 0.0 0.0

575327.8459162489 6.10538185322049e6 0.0
6.10538185322049e6 -3.1786597881172374e6 0.0
0.0 0.0 0.0

-8.149414678172159e6 1.0835144812980155e7 0.0
1.0835144812980155e7 8.61002644310594e6 0.0
0.0 0.0 0.0

5.479591397714031e6 1.2767629959082695e7 0.0
1.2767629959082695e7 2.8957108184810067e6 0.0
0.0 0.0 0.0

3.079748879362883e6 1.1831249691178782e7 0.0
1.1831249691178782e7 3.8862234573638514e6 0.0
0.0 0.0 0.0

-5.541339870264234e6 1.4218855990961984e7 0.0
1.4218855990961984e7 472730.1037150989 0.0
0.0 0.0 0.0

-550865.2099083588 9.20693699141928e6 0.0
9.20693699141928e6 -7.198207867550588e6 0.0
0.0 0.0 0.0

-3.215201289942393e6 1.4562860758098092e7 0.0
1.4562860758098092e7 -812446.6669569823 0.0
0.0 0.0 0.0

-7.069896682455161e6 1.2259333923237827e7 0.0
1.2259333923237827e7 3.3308765950419256e6 0.0
0.0 0.0 0.0

3.182223767476338e6 9.433225500718422e6 0.0
9.433225500718422e6 -1.5823023722399037e7 0.0
0.0 0.0 0.0

479553.4200743637 5.351984966973761e6 0.0
5.351984966973761e6 -3.9054876336028674e6 0.0
0.0 0.0 0.0

-16066.376247915206 6.233465213875822e6 0.0
6.233465213875822e6 -3.155203769501269e6 0.0
0.0 0.0 0.0

-176069.53602884096 1.1292758518497698e7 0.0
1.1292758518497698e7 -1.114315359955142e6 0.0
0.0 0.0 0.0

1.6896750656347948e6 1.2534145829254298e7 0.0
1.2534145829254298e7 6.412415176455454e6 0.0
0.0 0.0 0.0

-1.4535377216683351e6 8.946474292321729e6 0.0
8.946474292321729e6 825680.3800936806 0.0
0.0 0.0 0.0

-7.436763520037815e6 1.1297630735307189e7 0.0
1.1297630735307189e7 7.732916222170327e6 0.0
0.0 0.0 0.0

-1.5898016648181232e7 1.3867165611755184e6 0.0
1.3867165611755184e6 8.943276599624228e6 0.0
0.0 0.0 0.0

-308232.40415488783 1.1597981600228326e7 0.0
1.1597981600228326e7 1.0202410496364601e6 0.0
0.0 0.0 0.0

1.9907973904999285e6 5.8977497475910345e6 0.0
5.8977497475910345e6 -7.944247549097488e6 0.0
0.0 0.0 0.0

-9.942513922915945e6 1.4908976054878855e7 0.0
1.4908976054878855e7 8.394830007746056e6 0.0
0.0 0.0 0.0

-1.0142848014571702e7 -3.950766378862775e6 0.0
-3.950766378862775e6 1.718332675348419e7 0.0
0.0 0.0 0.0

-671859.503584448 1.2510506610049082e7 0.0
1.2510506610049082e7 -2.8536675956136016e6 0.0
0.0 0.0 0.0

-4.105487621506546e6 1.294096653335975e7 0.0
1.294096653335975e7 9.6502738360592e6 0.0
0.0 0.0 0.0

-5.293758719004945e6 1.446377094135137e7 0.0
1.446377094135137e7 2.24138314770055e6 0.0
0.0 0.0 0.0

667071.5302600372 1.0880007388683995e7 0.0
1.0880007388683995e7 -1.1714553027900167e7 0.0
0.0 0.0 0.0

3.468805023099986e6 1.289671999716314e7 0.0
1.289671999716314e7 4.70347712960884e6 0.0
0.0 0.0 0.0

406838.7675247253 1.116661889199458e7 0.0
1.116661889199458e7 -1.0159929540047e7 0.0
0.0 0.0 0.0

-596993.9353426828 1.1976937638656901e7 0.0
1.1976937638656901e7 1.765901684647162e6 0.0
0.0 0.0 0.0

-4.0498592270026733e6 1.1839678126499899e7 0.0
1.1839678126499899e7 6.966705076516682e6 0.0
0.0 0.0 0.0

-4.308029450628594e6 1.2752919849669013e7 0.0
1.2752919849669013e7 5.745281928017459e6 0.0
0.0 0.0 0.0

-2.4926719182110876e6 1.2780548215346279e7 0.0
1.2780548215346279e7 2.806510468934466e6 0.0
0.0 0.0 0.0

3.9659699561796337e6 6.385664268416358e6 0.0
6.385664268416358e6 -1.2542999312031865e7 0.0
0.0 0.0 0.0

-6.467541894319847e6 1.6661106122989148e7 0.0
1.6661106122989148e7 3.4346250807596403e6 0.0
0.0 0.0 0.0

-2.541594164513507e6 1.0495794800180152e7 0.0
1.0495794800180152e7 -372941.21562763135 0.0
0.0 0.0 0.0

7.723377345702641e6 1.0267672632775968e7 0.0
1.0267672632775968e7 580120.2962652312 0.0
0.0 0.0 0.0

-7.735302603412415e6 1.5176133587768275e7 0.0
1.5176133587768275e7 6.396893970285185e6 0.0
0.0 0.0 0.0

4.724965014329875e6 6.064916586028533e6 0.0
6.064916586028533e6 -1.3915732364511788e7 0.0
0.0 0.0 0.0

-3.8757350804484496e6 1.0513405216747098e7 0.0
1.0513405216747098e7 1.771001101223908e6 0.0
0.0 0.0 0.0

4.5131009604988005e6 1.0555421668619191e7 0.0
1.0555421668619191e7 221830.270715171 0.0
0.0 0.0 0.0

1.132581640526589e7 9.297904226385565e6 0.0
9.297904226385565e6 -3.310616301173696e6 0.0
0.0 0.0 0.0

-8.526055970388953e6 1.6547129834353907e7 0.0
1.6547129834353907e7 7.315757442737158e6 0.0
0.0 0.0 0.0

457168.28785541747 1.2177688635598483e7 0.0
1.2177688635598483e7 -8.265340364057018e6 0.0
0.0 0.0 0.0

-3.872705176726996e6 5.299723902794688e6 0.0
5.299723902794688e6 3.712771515822878e6 0.0
0.0 0.0 0.0

-1.0051372850046262e7 -4.589326737599138e6 0.0
-4.589326737599138e6 1.4878163667147119e7 0.0
0.0 0.0 0.0

-142894.1730315242 1.1426542264164738e7 0.0
1.1426542264164738e7 102294.69213242094 0.0
0.0 0.0 0.0

-359217.7864180929 1.1288633200056572e7 0.0
1.1288633200056572e7 8.696599133051822e6 0.0
0.0 0.0 0.0

-9.82825134964148e6 -153539.4863020844 0.0
-153539.4863020844 1.2580480768141823e7 0.0
0.0 0.0 0.0

-1.4147361808183966e6 7.9559994688354125e6 0.0
7.9559994688354125e6 -2.634241631742854e6 0.0
0.0 0.0 0.0

-2.3179790884117447e6 1.2097478750018304e7 0.0
1.2097478750018304e7 -1.7422927552486823e6 0.0
0.0 0.0 0.0

170993.63743313635 1.082240086005257e7 0.0
1.082240086005257e7 -1.10590302196959e7 0.0
0.0 0.0 0.0

-6.306339665629422e6 1.6137181424414689e7 0.0
1.6137181424414689e7 3.763608592577715e6 0.0
0.0 0.0 0.0

-5.118429763403711e6 1.686405958576152e7 0.0
1.686405958576152e7 -582196.9057883124 0.0
0.0 0.0 0.0

-8.907719086907648e6 2.0935235688522756e7 0.0
2.0935235688522756e7 1.4439739115704754e6 0.0
0.0 0.0 0.0

-1.5579653612521378e7 1.6365163083749585e7 0.0
1.6365163083749585e7 1.0846500682888076e7 0.0
0.0 0.0 0.0

944149.062387518 1.2741758987650648e7 0.0
1.2741758987650648e7 4.418738269285827e6 0.0
0.0 0.0 0.0

911709.916583363 1.2765310826882772e7 0.0
1.2765310826882772e7 -2.2287909003136165e7 0.0
0.0 0.0 0.0

-3.6654468695604475e6 1.9074504380132544e6 0.0
1.9074504380132544e6 2.5298901723105665e6 0.0
0.0 0.0 0.0

-2.4579572449104097e6 1.0944002813406106e7 0.0
1.0944002813406106e7 -1.0437196501330964e7 0.0
0.0 0.0 0.0

-1.113465470881973e6 8.807678741489036e6 0.0
8.807678741489036e6 -7.187672199355241e6 0.0
0.0 0.0 0.0

64591.27756715962 1.3193173737626934e7 0.0
1.3193173737626934e7 5.118762588577516e6 0.0
0.0 0.0 0.0

-1.8751524962936991e6 1.1644720494644282e7 0.0
1.1644720494644282e7 -1.2414005818664283e7 0.0
0.0 0.0 0.0

-1.4124605278141506e6 1.064720869419727e7 0.0
1.064720869419727e7 -1.0103513731336564e7 0.0
0.0 0.0 0.0

1.6492836785964938e6 1.3460677819487464e7 0.0
1.3460677819487464e7 6.044954843132784e6 0.0
0.0 0.0 0.0

-3.0604210410196884e6 1.1220720595302498e7 0.0
1.1220720595302498e7 466273.95355245215 0.0
0.0 0.0 0.0

3.68631331255998e6 7.767921234600526e6 0.0
7.767921234600526e6 -1.243926069446212e7 0.0
0.0 0.0 0.0

-232830.86869030807 1.1457049974370701e7 0.0
1.1457049974370701e7 -661984.573326077 0.0
0.0 0.0 0.0

-5.994311534272763e6 1.406195709340307e7 0.0
1.406195709340307e7 2.0908057587770517e6 0.0
0.0 0.0 0.0

-288305.1163339942 1.1853315557196995e7 0.0
1.1853315557196995e7 2.6109464500543196e6 0.0
0.0 0.0 0.0

2.3905270401607873e6 4.586486968994776e6 0.0
4.586486968994776e6 -7.541557596887073e6 0.0
0.0 0.0 0.0

-5.803868097068548e6 1.4169853332945345e7 0.0
1.4169853332945345e7 3.0638090063260742e6 0.0
0.0 0.0 0.0

-7.278441772831558e6 1.5959897125041407e7 0.0
1.5959897125041407e7 5.788378869683269e6 0.0
0.0 0.0 0.0

-1.1540827032990862e7 6.813670977000735e6 0.0
6.813670977000735e6 1.4234389427607765e7 0.0
0.0 0.0 0.0

-975408.0227418293 9.252237020024711e6 0.0
9.252237020024711e6 2.1848620607835227e6 0.0
0.0 0.0 0.0

-2.3803692628626646e6 1.2465223257571666e7 0.0
1.2465223257571666e7 7.851812546835674e6 0.0
0.0 0.0 0.0

-9.296110717084676e6 1.7412719643153932e7 0.0
1.7412719643153932e7 7.626706866695261e6 0.0
0.0 0.0 0.0

-7.352990237635719e6 1.1425040347468825e7 0.0
1.1425040347468825e7 8.59857272636538e6 0.0
0.0 0.0 0.0

-5.2091956376618445e6 -40436.03350487142 0.0
-40436.03350487142 5.700115577936906e6 0.0
0.0 0.0 0.0

-7.13983147686924e6 1.5952045503787803e7 0.0
1.5952045503787803e7 6.262931734050927e6 0.0
0.0 0.0 0.0

-4.572832320618349e6 1.3920350041711759e7 0.0
1.3920350041711759e7 1.3251860752713718e6 0.0
0.0 0.0 0.0

-4.448307236007838e6 1.1188416315682432e7 0.0
1.1188416315682432e7 1.1447858395151298e6 0.0
0.0 0.0 0.0

-6.303110825860908e6 1.6393438227852372e7 0.0
1.6393438227852372e7 3.46741457495525e6 0.0
0.0 0.0 0.0

-6.040864319269537e6 1.6057902472385518e7 0.0
1.6057902472385518e7 3.283375658444933e6 0.0
0.0 0.0 0.0

-782573.3818122884 1.2046100452408409e7 0.0
1.2046100452408409e7 -3.337780231540986e6 0.0
0.0 0.0 0.0

833065.7853727485 1.0416290736797461e7 0.0
1.0416290736797461e7 2.7768865682050944e6 0.0
0.0 0.0 0.0

2.9638529931920106e6 7.601343482771447e6 0.0
7.601343482771447e6 -1.178062727994952e7 0.0
0.0 0.0 0.0

-2.675459249937256e6 1.208891426702655e7 0.0
1.208891426702655e7 -1.258042326129919e7 0.0
0.0 0.0 0.0

-1.9210996632279973e6 1.3257600034830142e7 0.0
1.3257600034830142e7 763971.2556990254 0.0
0.0 0.0 0.0

-1.8566111874626506e7 1.824867099113881e7 0.0
1.824867099113881e7 1.2644904217502065e6 0.0
0.0 0.0 0.0

-2.0413042078463177e6 1.0717046508235915e7 0.0
1.0717046508235915e7 -1.0065412046058852e7 0.0
0.0 0.0 0.0

-1.753119950597845e7 1.6613058186111901e7 0.0
1.6613058186111901e7 1.7358896859136177e6 0.0
0.0 0.0 0.0

-4.69837134135729e6 1.337114742067663e7 0.0
1.337114742067663e7 4.958730295332423e6 0.0
0.0 0.0 0.0

-8.985820300915256e6 -6.547285093262342e6 0.0
-6.547285093262342e6 1.7551689550549764e7 0.0
0.0 0.0 0.0

-5.269706466337256e6 1.6107872079406148e7 0.0
1.6107872079406148e7 346836.63395606494 0.0
0.0 0.0 0.0

-6.426472306974653e6 1.5712036255727777e7 0.0
1.5712036255727777e7 -123920.7162669967 0.0
0.0 0.0 0.0

279496.00762683153 1.2394816489620695e7 0.0
1.2394816489620695e7 -7.896510488306481e6 0.0
0.0 0.0 0.0

-1.008916670593066e7 1.5334541444840679e7 0.0
1.5334541444840679e7 7.6892590981633635e6 0.0
0.0 0.0 0.0

-5.692844792563193e6 3.7399029348848127e6 0.0
3.7399029348848127e6 6.420808290159352e6 0.0
0.0 0.0 0.0

3.8151507775197877e6 8.294494947926154e6 0.0
8.294494947926154e6 -1.4209279617914462e7 0.0
0.0 0.0 0.0

-1.1325928803643845e7 1.4524223784193033e7 0.0
1.4524223784193033e7 7.895550613920767e6 0.0
0.0 0.0 0.0

-255777.11029424283 1.182089481540339e7 0.0
1.182089481540339e7 -46643.5200735436 0.0
0.0 0.0 0.0

-4.680009482292394e6 4.805442572766849e6 0.0
4.805442572766849e6 3.0551838201320544e6 0.0
0.0 0.0 0.0

-1.5495816232317653e6 1.1004738112712331e7 0.0
1.1004738112712331e7 -4.1856488236969323e6 0.0
0.0 0.0 0.0

-3.9378076235278603e6 1.5401474467968943e7 0.0
1.5401474467968943e7 -510706.4441642768 0.0
0.0 0.0 0.0

-1.4614169177598115e7 908807.674351063 0.0
908807.674351063 9.509648024734985e6 0.0
0.0 0.0 0.0

-7.185306244714753e6 1.5486521406874591e7 0.0
1.5486521406874591e7 6.563603407839531e6 0.0
0.0 0.0 0.0

748388.6720156651 1.1917604728162654e7 0.0
1.1917604728162654e7 -9.026682916552328e6 0.0
0.0 0.0 0.0

2.4718819153061905e6 7.553586762818341e6 0.0
7.553586762818341e6 -1.0492574058033807e7 0.0
0.0 0.0 0.0

283171.64927746076 5.281471056616532e6 0.0
5.281471056616532e6 -4.1089622327046106e6 0.0
0.0 0.0 0.0

737164.1285298099 1.113867468999379e7 0.0
1.113867468999379e7 -8.614810318024062e6 0.0
0.0 0.0 0.0

-7.232205129795312e6 1.356733830132097e7 0.0
1.356733830132097e7 1.1134098375753532e6 0.0
0.0 0.0 0.0

-6.692446761721353e6 2.0701421506001614e7 0.0
2.0701421506001614e7 2.126954387589069e6 0.0
0.0 0.0 0.0

-4.369748764921665e6 1.3242865925459523e7 0.0
1.3242865925459523e7 8.78860590310926e6 0.0
0.0 0.0 0.0

-1.0432381330053378e6 9.750515667703364e6 0.0
9.750515667703364e6 2.9284064678035695e6 0.0
0.0 0.0 0.0

966984.9623172373 1.1743370597391006e7 0.0
1.1743370597391006e7 3.6313796141385785e6 0.0
0.0 0.0 0.0

-1.1312432504638918e6 1.1482288192395788e7 0.0
1.1482288192395788e7 -3.7708108535435298e6 0.0
0.0 0.0 0.0

-1.1866423969773319e7 6.795969348402039e6 0.0
6.795969348402039e6 1.454083285992014e7 0.0
0.0 0.0 0.0

-21528.7512162067 9.921773935553314e6 0.0
9.921773935553314e6 -8.0306402959995475e6 0.0
0.0 0.0 0.0

-1.8077780236672595e7 1.2223863335651273e7 0.0
1.2223863335651273e7 1.1229196235902596e7 0.0
0.0 0.0 0.0

-1.0266145184365889e7 -598381.5381281727 0.0
-598381.5381281727 1.5123091181950849e7 0.0
0.0 0.0 0.0

-9.194256064574078e6 -6.3683679184976695e6 0.0
-6.3683679184976695e6 1.973384562434761e7 0.0
0.0 0.0 0.0

394588.12754031643 8.869813160764575e6 0.0
8.869813160764575e6 -6.579672393008997e6 0.0
0.0 0.0 0.0

-1.1083858509654035e6 1.3648472728196925e6 0.0
1.3648472728196925e6 578536.5778718323 0.0
0.0 0.0 0.0

4.0003731944770515e6 8.513831369563518e6 0.0
8.513831369563518e6 -1.669224006321185e7 0.0
0.0 0.0 0.0

-1.244425625334306e7 5.462183890584065e6 0.0
5.462183890584065e6 1.742422101478763e7 0.0
0.0 0.0 0.0

2.7783314355652304e6 9.332587723298356e6 0.0
9.332587723298356e6 -1.421368059757656e7 0.0
0.0 0.0 0.0

-6.836634813906947e6 -441014.763760523 0.0
-441014.763760523 9.070190079781909e6 0.0
0.0 0.0 0.0

-6.566395733010509e6 1.4726424263664693e7 0.0
1.4726424263664693e7 4.830079413899712e6 0.0
0.0 0.0 0.0

-3.857109442787291e6 1.578268800130544e7 0.0
1.578268800130544e7 -671533.9692763239 0.0
0.0 0.0 0.0

-7.760048072133418e6 1.6675528966821382e7 0.0
1.6675528966821382e7 6.194749750238919e6 0.0
0.0 0.0 0.0

-8.571001783739267e6 2.010567404909615e7 0.0
2.010567404909615e7 3.155820863646656e6 0.0
0.0 0.0 0.0

-7.607021001932211e6 1.8322891101095658e7 0.0
1.8322891101095658e7 3.530463075769709e6 0.0
0.0 0.0 0.0

-9.090631507997982e6 -4.025236691489507e6 0.0
-4.025236691489507e6 1.45234616363489e7 0.0
0.0 0.0 0.0

4.650430523442148e6 6.22236110859352e6 0.0
6.22236110859352e6 -1.4639849882192062e7 0.0
0.0 0.0 0.0

843507.866749051 1.232338155312355e7 0.0
1.232338155312355e7 -7.365486238369719e6 0.0
0.0 0.0 0.0

-2.5501478417965635e6 1.2877287597176855e7 0.0
1.2877287597176855e7 -2.7051259263298484e6 0.0
0.0 0.0 0.0

1.8047737365849293e6 8.640753735828022e6 0.0
8.640753735828022e6 -8.679113741947673e6 0.0
0.0 0.0 0.0

-1.7734852442319647e6 9.739042285340318e6 0.0
9.739042285340318e6 -8.645048190750148e6 0.0
0.0 0.0 0.0

-141544.20270434362 1.0981106906895781e7 0.0
1.0981106906895781e7 -471813.98434092855 0.0
0.0 0.0 0.0

-6.722493375563588e6 1.3470388621223144e7 0.0
1.3470388621223144e7 6.105414826098893e6 0.0
0.0 0.0 0.0

-7.840136165784389e6 1.5526574742708901e7 0.0
1.5526574742708901e7 6.767579273341812e6 0.0
0.0 0.0 0.0

-740958.9645007381 9.068557945217537e6 0.0
9.068557945217537e6 -5.931571905467996e6 0.0
0.0 0.0 0.0

-691198.6704119131 8.184703671519813e6 0.0
8.184703671519813e6 -2.749191029243027e6 0.0
0.0 0.0 0.0

4.318638434918639e6 5.764066713374624e6 0.0
5.764066713374624e6 -1.2266761972341612e7 0.0
0.0 0.0 0.0

1.310339784710971e6 1.1798045947939893e7 0.0
1.1798045947939893e7 -5.680369075124335e6 0.0
0.0 0.0 0.0

2.6926403700508513e6 7.821477803143858e6 0.0
7.821477803143858e6 -1.12499295951318e7 0.0
0.0 0.0 0.0

-848032.3010751077 6.684443388142297e6 0.0
6.684443388142297e6 -2.9136625894601396e6 0.0
0.0 0.0 0.0

-516712.74411793123 7.737022607503724e6 0.0
7.737022607503724e6 -3.863364452910857e6 0.0
0.0 0.0 0.0

757484.5954429472 5.684990978672176e6 0.0
5.684990978672176e6 -3.613977606893167e6 0.0
0.0 0.0 0.0

-5.53408082462168e6 1.360025809083339e7 0.0
1.360025809083339e7 3.8203550511974283e6 0.0
0.0 0.0 0.0

983839.7683945233 1.144117517090342e7 0.0
1.144117517090342e7 -9.799255852811554e6 0.0
0.0 0.0 0.0

4.0550504893943993e6 8.597930441509558e6 0.0
8.597930441509558e6 -1.8500757102618378e7 0.0
0.0 0.0 0.0

-2.2823264782503606e6 1.3495566502484499e7 0.0
1.3495566502484499e7 -804425.1920536727 0.0
0.0 0.0 0.0

-1.2761124386801159e7 1.6824582340071615e7 0.0
1.6824582340071615e7 828690.6458123568 0.0
0.0 0.0 0.0

-1.3066126138670152e7 1.3336664576874444e7 0.0
1.3336664576874444e7 7.819826081492789e6 0.0
0.0 0.0 0.0

-5.031862938713709e6 1.5541636643498594e7 0.0
1.5541636643498594e7 16289.372933736537 0.0
0.0 0.0 0.0

366821.29986500926 1.1015287234464565e7 0.0
1.1015287234464565e7 -1.2744978367319807e7 0.0
0.0 0.0 0.0

-2.9520435452717133e6 1.0559663057368709e7 0.0
1.0559663057368709e7 -9.840145403198607e6 0.0
0.0 0.0 0.0

-8.996274982424237e6 1.6249243182142256e7 0.0
1.6249243182142256e7 557668.6106659975 0.0
0.0 0.0 0.0

-3.488887309219233e6 1.1629040148961466e7 0.0
1.1629040148961466e7 -1.1629624780994633e7 0.0
0.0 0.0 0.0

-7.923471832483131e6 1.077863174405899e7 0.0
1.077863174405899e7 9.434406242059894e6 0.0
0.0 0.0 0.0

-3.2389470789779583e6 2.5940188760995287e6 0.0
2.5940188760995287e6 2.2956602812317912e6 0.0
0.0 0.0 0.0

-4.442580258811563e6 1.3797719442121083e7 0.0
1.3797719442121083e7 432909.5435552022 0.0
0.0 0.0 0.0

-7.223476550736604e6 1.2351086744564312e7 0.0
1.2351086744564312e7 7.314366652062111e6 0.0
0.0 0.0 0.0

-6.024583867257286e6 -184327.6596567802 0.0
-184327.6596567802 6.5431117470286265e6 0.0
0.0 0.0 0.0

2.0867525700829239e6 9.98160995084199e6 0.0
9.98160995084199e6 -1.1337180155596226e7 0.0
0.0 0.0 0.0

-5.507497877235677e6 1.3901009886898248e7 0.0
1.3901009886898248e7 2.4046450864691106e6 0.0
0.0 0.0 0.0

-279449.46511087805 1.1466953195125502e7 0.0
1.1466953195125502e7 -1.8778699901860745e6 0.0
0.0 0.0 0.0

-6.718077442489674e6 1.4761666586927503e7 0.0
1.4761666586927503e7 5.905658530778683e6 0.0
0.0 0.0 0.0

-9.83700761235072e6 1.654818889986254e7 0.0
1.654818889986254e7 2.104562548489149e6 0.0
0.0 0.0 0.0

-3.126589854553026e6 1.09262762326003e7 0.0
1.09262762326003e7 -1.0421966713067967e7 0.0
0.0 0.0 0.0

-3.511333827846332e6 1.2946429826192912e7 0.0
1.2946429826192912e7 8.585943523276519e6 0.0
0.0 0.0 0.0

-1.2599727987970643e7 1.2300468817345265e7 0.0
1.2300468817345265e7 7.902482963903884e6 0.0
0.0 0.0 0.0

-2.9376516506205304e6 5.143240021543694e6 0.0
5.143240021543694e6 2.667588765749849e6 0.0
0.0 0.0 0.0

-1.3454591343721699e7 3.9597247400381085e6 0.0
3.9597247400381085e6 2.2380588573093478e7 0.0
0.0 0.0 0.0

-1.1649800686581347e6 1.249493408624106e7 0.0
1.249493408624106e7 -2.8644688652432784e6 0.0
0.0 0.0 0.0

-7.131458209860448e6 1.8487231387250096e7 0.0
1.8487231387250096e7 2.284084482727033e6 0.0
0.0 0.0 0.0

981926.8417912486 1.1933500361781284e7 0.0
1.1933500361781284e7 3.2730894609281123e6 0.0
0.0 0.0 0.0

4.677388761712719e6 1.2787765587101575e7 0.0
1.2787765587101575e7 3.1687554345168443e6 0.0
0.0 0.0 0.0

-7.105611001777245e6 1.6121435085186712e7 0.0
1.6121435085186712e7 936713.5505820801 0.0
0.0 0.0 0.0

-5.51259657193724e6 1.7604402041288905e7 0.0
1.7604402041288905e7 149100.2512397326 0.0
0.0 0.0 0.0

1.7211842171662617e6 1.1595421488300119e7 0.0
1.1595421488300119e7 7.594693833058039e6 0.0
0.0 0.0 0.0

5.279711700436809e6 7.18446116769083e6 0.0
7.18446116769083e6 -1.759309293858866e7 0.0
0.0 0.0 0.0

-6.939898372271879e6 1.5232222720316654e7 0.0
1.5232222720316654e7 6.410360236365998e6 0.0
0.0 0.0 0.0

-242360.99416885021 1.0854020729797898e7 0.0
1.0854020729797898e7 -1.5980023259393242e6 0.0
0.0 0.0 0.0

-3.746779818423918e6 1.2103449728109315e7 0.0
1.2103449728109315e7 -1.248926671913956e7 0.0
0.0 0.0 0.0

-1.8254999255482736e6 1.351604240832359e7 0.0
1.351604240832359e7 -483202.6989851162 0.0
0.0 0.0 0.0

5.468315992359374e6 5.543594851277491e6 0.0
5.543594851277491e6 -1.539965885528846e7 0.0
0.0 0.0 0.0

-2.5274554217350027e6 1.2194067624714699e7 0.0
1.2194067624714699e7 -2.854045760661087e6 0.0
0.0 0.0 0.0

-736628.8054754784 1.3928340806519648e7 0.0
1.3928340806519648e7 -4.98247769219899e6 0.0
0.0 0.0 0.0

6.459085456875573e6 1.2374373596275736e7 0.0
1.2374373596275736e7 -7.774927425116896e6 0.0
0.0 0.0 0.0

-8.509008994659785e6 9.258562531095691e6 0.0
9.258562531095691e6 1.0149945793929223e7 0.0
0.0 0.0 0.0

-2.5735187976854015e6 7.187641288233949e6 0.0
7.187641288233949e6 3.161265554180845e6 0.0
0.0 0.0 0.0

-4.1271425831303615e6 1.4935233058521891e7 0.0
1.4935233058521891e7 1.2140804063081795e6 0.0
0.0 0.0 0.0

-4.649537316122251e6 1.3914378733941931e7 0.0
1.3914378733941931e7 955627.8765435591 0.0
0.0 0.0 0.0

-1.057536579880717e7 -3.6287049696351965e6 0.0
-3.6287049696351965e6 2.195700767457304e7 0.0
0.0 0.0 0.0

-920247.4084306745 1.1352324240451092e7 0.0
1.1352324240451092e7 -3.499628058340976e6 0.0
0.0 0.0 0.0

-8.22640678365093e6 1.5268351094874265e7 0.0
1.5268351094874265e7 7.218588295270516e6 0.0
0.0 0.0 0.0

863697.7442275658 6.683677779691729e6 0.0
6.683677779691729e6 -6.268635432753436e6 0.0
0.0 0.0 0.0

-2.9987415208383673e6 1.226007423964718e7 0.0
1.226007423964718e7 1.0442548291434811e7 0.0
0.0 0.0 0.0

-1.9710585929508094e7 1.3123481414674584e7 0.0
1.3123481414674584e7 8.723306576644633e6 0.0
0.0 0.0 0.0

-65566.10758171114 1.0851272719493546e7 0.0
1.0851272719493546e7 522056.5848156726 0.0
0.0 0.0 0.0

2.310374032855481e6 6.247866217037992e6 0.0
6.247866217037992e6 -7.39559119606716e6 0.0
0.0 0.0 0.0

-5.714230055142344e6 1.2238616741433991e7 0.0
1.2238616741433991e7 1.235174819682045e7 0.0
0.0 0.0 0.0

-3.4386495828473996e6 1.4373767073237343e7 0.0
1.4373767073237343e7 -1.5043339359573617e6 0.0
0.0 0.0 0.0

1.535395411088257e6 1.7842772354411513e7 0.0
1.7842772354411513e7 -5.867375879551927e6 0.0
0.0 0.0 0.0

-2.125867104539587e6 8.81342452066993e6 0.0
8.81342452066993e6 -7.086223944009279e6 0.0
0.0 0.0 0.0

-3.5350141108909314e6 9.669222135913506e6 0.0
9.669222135913506e6 1.4872921027750638e6 0.0
0.0 0.0 0.0

722289.5075224838 6.765040014114107e6 0.0
6.765040014114107e6 -5.813829700314122e6 0.0
0.0 0.0 0.0

-366950.68423387595 1.1025316437174141e7 0.0
1.1025316437174141e7 -1.0837646066414975e7 0.0
0.0 0.0 0.0

-2.18074952843803e6 1.24432571679542e7 0.0
1.24432571679542e7 -3.208009585901056e6 0.0
0.0 0.0 0.0

1.7304295833809853e6 1.2924129412989117e7 0.0
1.2924129412989117e7 5.685868687627987e6 0.0
0.0 0.0 0.0

-5.351868418724186e6 1.3629530751625553e7 0.0
1.3629530751625553e7 1.8877339962951953e6 0.0
0.0 0.0 0.0

-451091.4757875486 1.398720703450535e7 0.0
1.398720703450535e7 -5.50163172534427e6 0.0
0.0 0.0 0.0

-4.247490785745247e6 -884972.8758924843 0.0
-884972.8758924843 9.208723146545153e6 0.0
0.0 0.0 0.0

-1.3616175425714992e6 2.176095667334732e6 0.0
2.176095667334732e6 3.412120403486433e6 0.0
0.0 0.0 0.0

2.1515098575647557e6 1.3449205246746395e7 0.0
1.3449205246746395e7 -5.043502761580573e6 0.0
0.0 0.0 0.0

-149050.06034928595 1.1213841346917316e7 0.0
1.1213841346917316e7 389931.77975908184 0.0
0.0 0.0 0.0

1.408871827804882e7 9.238520286242796e6 0.0
9.238520286242796e6 -2.0540816405323846e6 0.0
0.0 0.0 0.0

-7.022007147439973e6 -1.2388333460801367e6 0.0
-1.2388333460801367e6 7.659080752847467e6 0.0
0.0 0.0 0.0

-6.1303010259869695e6 1.4642938950591963e7 0.0
1.4642938950591963e7 -12798.297456521308 0.0
0.0 0.0 0.0

-9.576745422459386e6 1.0552223713720068e7 0.0
1.0552223713720068e7 6.560808553925828e6 0.0
0.0 0.0 0.0

-1.4576738025753058e7 1.4492458251558632e7 0.0
1.4492458251558632e7 2.555530908800129e6 0.0
0.0 0.0 0.0

1.3330281096187182e7 6.200334699552337e6 0.0
6.200334699552337e6 -3.6978397076894166e6 0.0
0.0 0.0 0.0

-1.2687058016508073e7 2.887577052811012e6 0.0
2.887577052811012e6 2.7640829878306348e7 0.0
0.0 0.0 0.0

-739453.0579562689 7.832792723365667e6 0.0
7.832792723365667e6 -2.4718231412634873e6 0.0
0.0 0.0 0.0

-7.546906295207156e6 1.5325871185299752e7 0.0
1.5325871185299752e7 2.8240886168966955e6 0.0
0.0 0.0 0.0

-6.685594560302831e6 1.5003369392372137e7 0.0
1.5003369392372137e7 6.444810566788176e6 0.0
0.0 0.0 0.0

-2.3848057656593136e6 1.2330868931116462e7 0.0
1.2330868931116462e7 -3.82721931090273e6 0.0
0.0 0.0 0.0

624793.6281062863 9.361776868918318e6 0.0
9.361776868918318e6 -6.784175660156774e6 0.0
0.0 0.0 0.0

-272515.69339509646 1.1302099009217016e7 0.0
1.1302099009217016e7 -2.91803539868375e6 0.0
0.0 0.0 0.0

-1.9934731918060873e6 1.054109662799214e7 0.0
1.054109662799214e7 -9.819609041551039e6 0.0
0.0 0.0 0.0

-938670.4783608699 1.292654664491692e7 0.0
1.292654664491692e7 -1.751578180845148e7 0.0
0.0 0.0 0.0

3.0097768286610306e6 5.14498259038065e6 0.0
5.14498259038065e6 -498909.1680131176 0.0
0.0 0.0 0.0

-4.496946533606329e6 1.8671124131225348e7 0.0
1.8671124131225348e7 -2.398010834854968e6 0.0
0.0 0.0 0.0

-2.6062275966142393e6 9.790171228842678e6 0.0
9.790171228842678e6 -8.687425882987812e6 0.0
0.0 0.0 0.0

2.546976207684801e6 1.1855091574183835e7 0.0
1.1855091574183835e7 4.0964870484052487e6 0.0
0.0 0.0 0.0

1.3261340124294106e6 1.0253089633084731e7 0.0
1.0253089633084731e7 -6.040967700098837e6 0.0
0.0 0.0 0.0

-4.071527595082058e6 1.36718633610387e7 0.0
1.36718633610387e7 599264.5626051743 0.0
0.0 0.0 0.0

-765203.034344818 1.0230314987442901e7 0.0
1.0230314987442901e7 -8.770567440393016e6 0.0
0.0 0.0 0.0

-1.420199339429303e7 4.476654307853944e6 0.0
4.476654307853944e6 6.521021864672701e6 0.0
0.0 0.0 0.0

-725245.8267744135 3.6258505799140832e6 0.0
3.6258505799140832e6 -903892.341331031 0.0
0.0 0.0 0.0

-7.941113094552213e6 1.0474226842013221e7 0.0
1.0474226842013221e7 1.0208138380886957e7 0.0
0.0 0.0 0.0

-645132.8471359138 8.184132995533968e6 0.0
8.184132995533968e6 -1.161409346595475e6 0.0
0.0 0.0 0.0

-3.2841770557171577e6 9.74891791371013e6 0.0
9.74891791371013e6 -3.405640004485508e6 0.0
0.0 0.0 0.0

-1.6610264904566128e6 1.1024072206735885e7 0.0
1.1024072206735885e7 -2.7318001562728127e6 0.0
0.0 0.0 0.0

-1.334272910092735e6 8.298861843659672e6 0.0
8.298861843659672e6 -2.885171964095939e6 0.0
0.0 0.0 0.0

6.446859578950005e6 1.3061307906767966e7 0.0
1.3061307906767966e7 -6.634099383762651e6 0.0
0.0 0.0 0.0

-1.0690187465536244e7 1.578330617402415e7 0.0
1.578330617402415e7 8.525808624722987e6 0.0
0.0 0.0 0.0

-610197.9867978778 1.468338755793117e7 0.0
1.468338755793117e7 -4.870086913932142e6 0.0
0.0 0.0 0.0

-1.5477814154882703e6 1.3242107412361596e7 0.0
1.3242107412361596e7 -839159.91280033 0.0
0.0 0.0 0.0

-7.748359802133435e6 1.6913936557309013e7 0.0
1.6913936557309013e7 6.573110171124732e6 0.0
0.0 0.0 0.0

-7.736610473190188e6 1.1439384521149537e7 0.0
1.1439384521149537e7 8.581863857667899e6 0.0
0.0 0.0 0.0

1.0811371604940419e6 6.49234900141968e6 0.0
6.49234900141968e6 -5.085937768903879e6 0.0
0.0 0.0 0.0

-309551.9766207519 6.572032488590172e6 0.0
6.572032488590172e6 -2.7536587998827775e6 0.0
0.0 0.0 0.0

-2.470019661948151e6 1.1631756529114148e7 0.0
1.1631756529114148e7 -1.1753159748747075e7 0.0
0.0 0.0 0.0

-2.4838342189610153e6 1.2820975175456753e7 0.0
1.2820975175456753e7 1.3192919767875518e6 0.0
0.0 0.0 0.0

1.145692041650963e6 5.622588691729644e6 0.0
5.622588691729644e6 -5.275537637497445e6 0.0
0.0 0.0 0.0

-2.6250007888841465e7 1.8928844580791306e7 0.0
1.8928844580791306e7 8.366000827003492e6 0.0
0.0 0.0 0.0

4.387776461298312e6 8.567233180192426e6 0.0
8.567233180192426e6 -2.0571173986263502e7 0.0
0.0 0.0 0.0

-240720.88932383875 7.285773525920036e6 0.0
7.285773525920036e6 -4.0838339239912373e6 0.0
0.0 0.0 0.0

-1.7528922762745316e6 1.192520922738259e7 0.0
1.192520922738259e7 -1.2791585334611166e7 0.0
0.0 0.0 0.0

4.719474074261911e6 6.053477745956047e6 0.0
6.053477745956047e6 -1.4252018953520223e7 0.0
0.0 0.0 0.0

2.1356725356862266e6 1.9358200451556496e7 0.0
1.9358200451556496e7 -8.467876161030987e6 0.0
0.0 0.0 0.0

2.8891000056988536e6 7.844433450175098e6 0.0
7.844433450175098e6 -1.0585964644421663e7 0.0
0.0 0.0 0.0

-1.2528316696760766e7 7.010184613724017e6 0.0
7.010184613724017e6 2.0022161637067184e7 0.0
0.0 0.0 0.0

-8.337862718910882e6 9.441441018044055e6 0.0
9.441441018044055e6 1.0075974865921013e7 0.0
0.0 0.0 0.0

-5.123792776648389e6 1.371128407542029e7 0.0
1.371128407542029e7 5.458648225647909e6 0.0
0.0 0.0 0.0

-6.08587627500757e6 1.1201324754659776e7 0.0
1.1201324754659776e7 3.7267762225478296e6 0.0
0.0 0.0 0.0

-7.976705858015734e6 1.0379923097716719e7 0.0
1.0379923097716719e7 1.0783576111965746e7 0.0
0.0 0.0 0.0

-5.772927155843308e6 1.3476266379651088e7 0.0
1.3476266379651088e7 3.149582701233672e6 0.0
0.0 0.0 0.0

1.9657513687015502e6 1.2227875454107115e7 0.0
1.2227875454107115e7 6.552504571611176e6 0.0
0.0 0.0 0.0

-1.7144619762438769e6 3.048332835322824e6 0.0
3.048332835322824e6 653965.7737815491 0.0
0.0 0.0 0.0

-903166.1287412371 1.2605454629774299e7 0.0
1.2605454629774299e7 -5.993623215668418e6 0.0
0.0 0.0 0.0

3.0585300689464156e6 1.0500445609393831e7 0.0
1.0500445609393831e7 -2.2210757207198113e7 0.0
0.0 0.0 0.0

-1.145418769091019e7 1.626541551721687e7 0.0
1.626541551721687e7 9.338379135645844e6 0.0
0.0 0.0 0.0

-4.209785179908957e6 1.563024971925137e7 0.0
1.563024971925137e7 -1.8543653894834619e6 0.0
0.0 0.0 0.0

1.8224416751065347e6 1.0548474328098731e7 0.0
1.0548474328098731e7 -1.7718355193743429e6 0.0
0.0 0.0 0.0

-8.2408582110584555e6 9.376180446818987e6 0.0
9.376180446818987e6 1.1316325004201425e7 0.0
0.0 0.0 0.0

-1.4430325366211021e7 1.439392079894667e7 0.0
1.439392079894667e7 1.1156660378600243e7 0.0
0.0 0.0 0.0

-1.9410322657690211e6 1.378210269602207e7 0.0
1.378210269602207e7 -4.296118507429861e6 0.0
0.0 0.0 0.0

22306.488958173897 1.1015520039889436e7 0.0
1.1015520039889436e7 -1.193059889912428e7 0.0
0.0 0.0 0.0

-1.4507068845451474e7 1.6505450738921205e7 0.0
1.6505450738921205e7 1.0932909342919126e7 0.0
0.0 0.0 0.0

7.664365549909378e6 1.7127122734806485e7 0.0
1.7127122734806485e7 -1.2799804643954867e7 0.0
0.0 0.0 0.0

1.3684880472864034e6 9.846810215045381e6 0.0
9.846810215045381e6 -563871.325756707 0.0
0.0 0.0 0.0

1.786327582080543e6 8.547614491346203e6 0.0
8.547614491346203e6 -9.452482255099898e6 0.0
0.0 0.0 0.0

-2.9186276910022562e6 1.2493089031349398e7 0.0
1.2493089031349398e7 -1.3762500087251242e7 0.0
0.0 0.0 0.0

-245033.90967527637 1.813942113673234e7 0.0
1.813942113673234e7 -4.607101292600305e6 0.0
0.0 0.0 0.0

999833.0445179413 1.1372492400781268e7 0.0
1.1372492400781268e7 -8.37413521177453e6 0.0
0.0 0.0 0.0

-5.943025661960921e6 1.581974455084864e7 0.0
1.581974455084864e7 2.205723205889512e6 0.0
0.0 0.0 0.0

3.130694669422564e6 9.844770295722358e6 0.0
9.844770295722358e6 -1.9311919998924863e7 0.0
0.0 0.0 0.0

-415765.42818040965 1.2060732097403368e7 0.0
1.2060732097403368e7 726351.7004111578 0.0
0.0 0.0 0.0

-1.3231416750176366e7 1.2641466398088353e7 0.0
1.2641466398088353e7 1.0118751714737777e7 0.0
0.0 0.0 0.0

-5.453428538902949e6 1.3796781910851851e7 0.0
1.3796781910851851e7 3.6058885601159325e6 0.0
0.0 0.0 0.0

6.719846903922121e6 1.0182132451246424e7 0.0
1.0182132451246424e7 -812606.7796581117 0.0
0.0 0.0 0.0

-8.570839899595123e6 1.7337876741504196e7 0.0
1.7337876741504196e7 6.430996335770218e6 0.0
0.0 0.0 0.0

-1.6371468175309831e6 1.084972963256609e7 0.0
1.084972963256609e7 2.305005347516743e6 0.0
0.0 0.0 0.0

1.0857712652456556e6 5.476208717857419e6 0.0
5.476208717857419e6 -3.616530738746329e6 0.0
0.0 0.0 0.0

-3.931552530864977e6 1.8887169350978903e7 0.0
1.8887169350978903e7 -584809.8087382206 0.0
0.0 0.0 0.0

903166.0991545301 1.1694939841517055e7 0.0
1.1694939841517055e7 -9.43814384519512e6 0.0
0.0 0.0 0.0

5.671479863610864e6 5.837956965243382e6 0.0
5.837956965243382e6 -1.6794437484494563e7 0.0
0.0 0.0 0.0

19899.129527411656 7.849375833148466e6 0.0
7.849375833148466e6 -4.280466697380101e6 0.0
0.0 0.0 0.0

1.2751040260393552e6 5.970515804284608e6 0.0
5.970515804284608e6 -5.427049421901905e6 0.0
0.0 0.0 0.0

442028.6144677913 9.760529559838004e6 0.0
9.760529559838004e6 -6.781550578220185e6 0.0
0.0 0.0 0.0

-1.0636928512253555e7 1.2898972350634674e7 0.0
1.2898972350634674e7 8.515517272844918e6 0.0
0.0 0.0 0.0

-1.322201289516016e6 1.3093126214638913e7 0.0
1.3093126214638913e7 343528.50184048945 0.0
0.0 0.0 0.0

-277934.43546352815 1.461643879068152e7 0.0
1.461643879068152e7 -4.779564774880593e6 0.0
0.0 0.0 0.0

4.9144464374568425e6 6.497267963599166e6 0.0
6.497267963599166e6 -1.4161683998552408e7 0.0
0.0 0.0 0.0

-2.171822417319268e6 1.2138182185988864e7 0.0
1.2138182185988864e7 -3.085894243082283e6 0.0
0.0 0.0 0.0

-980876.5047308382 1.0849055627361432e7 0.0
1.0849055627361432e7 -5.620257398266009e6 0.0
0.0 0.0 0.0

-5.444791334663368e6 1.5077697060765246e7 0.0
1.5077697060765246e7 1.5574698046880048e6 0.0
0.0 0.0 0.0

463237.7538622038 1.719731249516174e7 0.0
1.719731249516174e7 -5.413143647847619e6 0.0
0.0 0.0 0.0

-5.923045636469417e6 1.4307855892893145e7 0.0
1.4307855892893145e7 6.297565467992067e6 0.0
0.0 0.0 0.0

-2.852850479596963e6 1.0942403378286554e7 0.0
1.0942403378286554e7 4.305730374501147e6 0.0
0.0 0.0 0.0

-6.467767336237144e6 1.3040172674179796e7 0.0
1.3040172674179796e7 3.651415308498141e7 0.0
0.0 0.0 0.0

-1.0653417755846452e7 1.8573605760434628e7 0.0
1.8573605760434628e7 8.516671094124243e6 0.0
0.0 0.0 0.0

1.084073754829416e6 1.2313044857656859e7 0.0
1.2313044857656859e7 -6.788444253632124e6 0.0
0.0 0.0 0.0

3.362456967659316e6 8.340044325708578e6 0.0
8.340044325708578e6 -1.2225102050122501e7 0.0
0.0 0.0 0.0

3.674356430078882e6 8.041643028623635e6 0.0
8.041643028623635e6 -1.2754448623748705e7 0.0
0.0 0.0 0.0

4.198774271423696e6 5.757455937175965e6 0.0
5.757455937175965e6 -1.1088142616217041e7 0.0
0.0 0.0 0.0

-6.508097568279782e6 1.3488124176536376e7 0.0
1.3488124176536376e7 6.841948739102556e6 0.0
0.0 0.0 0.0

3.9372747472266597e6 5.7866498549970165e6 0.0
5.7866498549970165e6 -1.1030817756978568e7 0.0
0.0 0.0 0.0

-1.005427268536987e7 -1.800654187344505e6 0.0
-1.800654187344505e6 1.4094944832498051e7 0.0
0.0 0.0 0.0

-5.000302541379767e6 1.3090768074970536e7 0.0
1.3090768074970536e7 6.562188179326392e6 0.0
0.0 0.0 0.0

-651158.9153383422 7.370736816504977e6 0.0
7.370736816504977e6 -3.501761738965518e6 0.0
0.0 0.0 0.0

-4.8038624322960805e6 1.5653171621102465e7 0.0
1.5653171621102465e7 -858085.4389675384 0.0
0.0 0.0 0.0

-4.4850797887465395e6 1.726155819711692e7 0.0
1.726155819711692e7 396374.9619987658 0.0
0.0 0.0 0.0

-160611.58600653172 1.0773505084592184e7 0.0
1.0773505084592184e7 -858555.8669657097 0.0
0.0 0.0 0.0

3.0579359569150656e6 9.644494799739301e6 0.0
9.644494799739301e6 -1.742060725205354e7 0.0
0.0 0.0 0.0

5.356765295810753e6 5.874316728348106e6 0.0
5.874316728348106e6 -1.4965051751490787e7 0.0
0.0 0.0 0.0

-2.532004252093271e7 2.0380566717524733e7 0.0
2.0380566717524733e7 2.4652386373898126e6 0.0
0.0 0.0 0.0

3.835061734375554e6 1.4030041755126912e7 0.0
1.4030041755126912e7 5.643220883850206e6 0.0
0.0 0.0 0.0

-4.698634960309966e6 1.6950861597517174e7 0.0
1.6950861597517174e7 790663.7314988824 0.0
0.0 0.0 0.0

-3.1127153447571713e6 1.228289738178331e7 0.0
1.228289738178331e7 5.151760328855378e6 0.0
0.0 0.0 0.0

-198378.25165832142 1.1635698250653734e7 0.0
1.1635698250653734e7 -511906.0904756764 0.0
0.0 0.0 0.0

-1.2593487052031755e7 1.568378535472467e6 0.0
1.568378535472467e6 1.8313462974774685e7 0.0
0.0 0.0 0.0

-9.102926541904232e6 1.5456888701686723e7 0.0
1.5456888701686723e7 7.805416400162252e6 0.0
0.0 0.0 0.0

-1.0830153189688718e6 9.217761927476373e6 0.0
9.217761927476373e6 -4.0161584865667173e6 0.0
0.0 0.0 0.0

-8.514572521105278e6 -424661.0129453054 0.0
-424661.0129453054 9.17541809589136e6 0.0
0.0 0.0 0.0

-9.400646663960706e6 8.000404820423437e6 0.0
8.000404820423437e6 5.0032024905357175e7 0.0
0.0 0.0 0.0

-361379.00011133985 1.2962752009281345e7 0.0
1.2962752009281345e7 -6.556764681652887e6 0.0
0.0 0.0 0.0

1.6288455466572242e6 5.269909443780219e6 0.0
5.269909443780219e6 -5.775159914087264e6 0.0
0.0 0.0 0.0

-1.3198465376073427e7 3.3982174074960616e6 0.0
3.3982174074960616e6 2.917874471303914e7 0.0
0.0 0.0 0.0

4.764216736371593e6 5.635915128775504e6 0.0
5.635915128775504e6 -1.2866023061872818e7 0.0
0.0 0.0 0.0

-4.139283023646843e6 1.19355500704763e7 0.0
1.19355500704763e7 1.4898290603733729e6 0.0
0.0 0.0 0.0

-1.0538293761502454e7 1.5269035848129665e7 0.0
1.5269035848129665e7 3.7682529316124683e6 0.0
0.0 0.0 0.0

-116800.71680258913 1.2156641198051639e7 0.0
1.2156641198051639e7 -8.235817371063726e6 0.0
0.0 0.0 0.0

-2.874437630002086e6 2.997194639817427e6 0.0
2.997194639817427e6 3.0695933037496833e6 0.0
0.0 0.0 0.0

-1.9091189747976847e6 1.3439893132034648e7 0.0
1.3439893132034648e7 147813.47176075715 0.0
0.0 0.0 0.0

2.4994583047865545e6 1.6406465549730835e7 0.0
1.6406465549730835e7 -6.664856486309821e6 0.0
0.0 0.0 0.0

-344815.5026783715 2.7148278767875046e6 0.0
2.7148278767875046e6 218616.96987969326 0.0
0.0 0.0 0.0

3.8869653213766776e6 1.08526207568087e7 0.0
1.08526207568087e7 -429591.35492990725 0.0
0.0 0.0 0.0

-3.6984789225108325e6 2.1160051175263982e7 0.0
2.1160051175263982e7 -7.311565865109115e6 0.0
0.0 0.0 0.0

4.398764925412959e6 5.72021460729887e6 0.0
5.72021460729887e6 -1.1932728304618716e7 0.0
0.0 0.0 0.0

-4.12996359785339e6 1.044009117706788e7 0.0
1.044009117706788e7 928989.6053907366 0.0
0.0 0.0 0.0

1.9584078611111024e6 1.3839115583266247e7 0.0
1.3839115583266247e7 1.0207800428454604e7 0.0
0.0 0.0 0.0

2.1456283542218693e7 6.10013157771197e6 0.0
6.10013157771197e6 -4.163720247310308e6 0.0
0.0 0.0 0.0

-1.4883832514725192e7 1.5907043066304563e7 0.0
1.5907043066304563e7 5.619608983156894e6 0.0
0.0 0.0 0.0

-5.854331915994073e6 1.3265555453017065e7 0.0
1.3265555453017065e7 3.372647359391618e6 0.0
0.0 0.0 0.0

2.876898566561292e6 9.519433466087844e6 0.0
9.519433466087844e6 -1.5940293939836975e7 0.0
0.0 0.0 0.0

-9.295443741426902e6 1.4326312547959404e7 0.0
1.4326312547959404e7 7.459235297840984e6 0.0
0.0 0.0 0.0

2.506228684339425e6 1.0647211027052442e7 0.0
1.0647211027052442e7 1.7449540036106184e6 0.0
0.0 0.0 0.0

-1.1049018235587154e7 3.606615478595855e6 0.0
3.606615478595855e6 3.7713387671419755e7 0.0
0.0 0.0 0.0

-4.4684955701681e6 1.367523913255976e7 0.0
1.367523913255976e7 4.896816467444944e6 0.0
0.0 0.0 0.0

-377991.445849697 1.1818779443885865e7 0.0
1.1818779443885865e7 2.595347125251054e6 0.0
0.0 0.0 0.0

-1.8992531311096647e6 1.1413920865282113e7 0.0
1.1413920865282113e7 -3.7560287004176923e6 0.0
0.0 0.0 0.0

2.894865372820895e6 1.2450405432931272e7 0.0
1.2450405432931272e7 -5.10787309460892e6 0.0
0.0 0.0 0.0

1.213053303343016e6 1.2502449598491447e7 0.0
1.2502449598491447e7 -5.994254955471469e6 0.0
0.0 0.0 0.0

-1.7359709411229028e6 8.776081613155873e6 0.0
8.776081613155873e6 -2.4660696641842476e6 0.0
0.0 0.0 0.0

-2.839563342282016e6 1.294729369371483e7 0.0
1.294729369371483e7 5.412632081034775e6 0.0
0.0 0.0 0.0

-235984.6248823055 1.1887720247434631e7 0.0
1.1887720247434631e7 -799096.1841689305 0.0
0.0 0.0 0.0

-226559.96424837556 1.1577518080342576e7 0.0
1.1577518080342576e7 -2.326675055752552e6 0.0
0.0 0.0 0.0

-173668.11214933684 1.088236071402373e7 0.0
1.088236071402373e7 -1.1153347259892195e7 0.0
0.0 0.0 0.0

-6.36564615159498e6 1.4809132842785893e7 0.0
1.4809132842785893e7 5.44672588679285e6 0.0
0.0 0.0 0.0

-7.452470481021163e6 1.3898222363438804e7 0.0
1.3898222363438804e7 593182.6795335663 0.0
0.0 0.0 0.0

-9.153181132418364e6 1.5964111310455633e7 0.0
1.5964111310455633e7 7.851745110198539e6 0.0
0.0 0.0 0.0

-2.436368977310698e6 1.2371437395464553e7 0.0
1.2371437395464553e7 3.307995933542385e6 0.0
0.0 0.0 0.0

4.1177460177706946e6 6.646032184498164e6 0.0
6.646032184498164e6 -1.2100285831075378e7 0.0
0.0 0.0 0.0

-965472.6260631678 1.2797812251211574e7 0.0
1.2797812251211574e7 -6.807580657333931e6 0.0
0.0 0.0 0.0

-880515.1384727434 1.7634078181753285e7 0.0
1.7634078181753285e7 -6.081424482009239e6 0.0
0.0 0.0 0.0

-9.734261480449753e6 -1.8839933620524034e6 0.0
-1.8839933620524034e6 1.1764128385856783e7 0.0
0.0 0.0 0.0

-2.869467829581104e6 1.3317104880706552e7 0.0
1.3317104880706552e7 2.6213080137575734e6 0.0
0.0 0.0 0.0

1.2266214821457756e6 1.0438621049844831e7 0.0
1.0438621049844831e7 -1.9305922440955727e6 0.0
0.0 0.0 0.0

2.2755546231148425e6 1.3566222978831291e7 0.0
1.3566222978831291e7 -5.452396048423652e6 0.0
0.0 0.0 0.0

-1.0564692274966536e7 2.3253309117069603e6 0.0
2.3253309117069603e6 1.3337373774876766e7 0.0
0.0 0.0 0.0

-84298.38809889322 1.2197434768777251e7 0.0
1.2197434768777251e7 3.2959478492239467e6 0.0
0.0 0.0 0.0

-6.382172076417591e6 1.1279980768234145e7 0.0
1.1279980768234145e7 1.665006776570064e6 0.0
0.0 0.0 0.0

1.483590207770836e6 1.095437963356472e7 0.0
1.095437963356472e7 -1.1170781028619906e7 0.0
0.0 0.0 0.0

-5.23472263372722e6 1.957001995658273e7 0.0
1.957001995658273e7 895830.4095858482 0.0
0.0 0.0 0.0

-9.74487556916601e6 1.6322887126858322e7 0.0
1.6322887126858322e7 8.178896265055319e6 0.0
0.0 0.0 0.0

-7.746923755714595e6 3.7826578455180274e6 0.0
3.7826578455180274e6 1.0528535994899e7 0.0
0.0 0.0 0.0

-2.4480603948527477e6 1.3932471961693505e7 0.0
1.3932471961693505e7 -797881.0847001773 0.0
0.0 0.0 0.0

-9.401547036137933e6 1.6883320562368706e7 0.0
1.6883320562368706e7 7.816060016618241e6 0.0
0.0 0.0 0.0

-8.939991939730972e6 1.6416474003501112e7 0.0
1.6416474003501112e7 7.573881408810463e6 0.0
0.0 0.0 0.0

-246868.33144074492 1.1425434481739452e7 0.0
1.1425434481739452e7 1.6878671515381604e6 0.0
0.0 0.0 0.0

1.6142352685036617e6 9.261324352350492e6 0.0
9.261324352350492e6 -8.592392689841619e6 0.0
0.0 0.0 0.0

1.328289658036871e7 1.4487430611352924e7 0.0
1.4487430611352924e7 2.1168006767008957e6 0.0
0.0 0.0 0.0

-2.085232892669206e7 -3.5342101477030744e6 0.0
-3.5342101477030744e6 9.398105115488555e6 0.0
0.0 0.0 0.0

-1.0991509515973054e7 1.3655299785082879e7 0.0
1.3655299785082879e7 6.398720306135594e6 0.0
0.0 0.0 0.0

4.437616564194769e6 5.665061138076088e6 0.0
5.665061138076088e6 -1.2856754862550823e7 0.0
0.0 0.0 0.0

-2.0642401893127863e6 1.2121863250287112e7 0.0
1.2121863250287112e7 -4.521103033930212e6 0.0
0.0 0.0 0.0

-8.94034910337144e6 1.4865772823581561e7 0.0
1.4865772823581561e7 7.586684901860451e6 0.0
0.0 0.0 0.0

-1.11991205012643e7 -219111.32736441487 0.0
-219111.32736441487 1.4529011450168103e7 0.0
0.0 0.0 0.0

2.5223652710195724e6 8.160192956538629e6 0.0
8.160192956538629e6 -1.1510208984261654e7 0.0
0.0 0.0 0.0

-1.3573968438888865e6 1.037787456267829e7 0.0
1.037787456267829e7 -9.479406262497045e6 0.0
0.0 0.0 0.0

2.424958167131158e6 1.146631303847589e7 0.0
1.146631303847589e7 1.197158930369925e6 0.0
0.0 0.0 0.0

-1.971046817841526e7 1.700413247171664e7 0.0
1.700413247171664e7 7.039533550666388e6 0.0
0.0 0.0 0.0

-1.9420430812688118e6 7.994334786287051e6 0.0
7.994334786287051e6 -1.804267385975752e6 0.0
0.0 0.0 0.0

-7.506395561124413e6 1.5067708731927263e7 0.0
1.5067708731927263e7 6.564410502636927e6 0.0
0.0 0.0 0.0

-6.358903612715162e6 1.5241502457864149e7 0.0
1.5241502457864149e7 5.176251919285804e6 0.0
0.0 0.0 0.0

-9.16180542617883e6 602411.0452872925 0.0
602411.0452872925 1.5633698962519728e7 0.0
0.0 0.0 0.0

-1.0175603348498635e6 3.09387208766192e6 0.0
3.09387208766192e6 205527.97489565302 0.0
0.0 0.0 0.0

1.0720193485978004e6 9.48303836797051e6 0.0
9.48303836797051e6 -8.943947102894556e6 0.0
0.0 0.0 0.0

-1.0303715899125373e7 -47448.40868299571 0.0
-47448.40868299571 1.441593726357744e7 0.0
0.0 0.0 0.0

211581.04823737964 1.1205162571591647e7 0.0
1.1205162571591647e7 -8.690691423198836e6 0.0
0.0 0.0 0.0

3.1282850845714994e6 1.1612162616255967e7 0.0
1.1612162616255967e7 -3.8494689705280475e6 0.0
0.0 0.0 0.0

563802.5832289325 7.002542828978091e6 0.0
7.002542828978091e6 -5.840976911466874e6 0.0
0.0 0.0 0.0

-8.868967793419514e6 1.359050643473605e7 0.0
1.359050643473605e7 6.549135863271543e6 0.0
0.0 0.0 0.0

-5.828628831624551e6 1.5296544578656254e7 0.0
1.5296544578656254e7 2.615623378346347e6 0.0
0.0 0.0 0.0

-438014.8925574453 7.760827633963006e6 0.0
7.760827633963006e6 -1.4600493104417315e6 0.0
0.0 0.0 0.0

-607121.6446275179 1.1131330032494416e7 0.0
1.1131330032494416e7 -2.0237389374223792e6 0.0
0.0 0.0 0.0

1.320589558343656e6 9.54788622438385e6 0.0
9.54788622438385e6 -8.132100712772257e6 0.0
0.0 0.0 0.0

-1.5085262785401556e6 1.0428702022973986e7 0.0
1.0428702022973986e7 -9.498746960107166e6 0.0
0.0 0.0 0.0

-6.386609657865809e6 928128.6935246536 0.0
928128.6935246536 6.489028356568776e6 0.0
0.0 0.0 0.0

-2.4292043323007138e6 8.646923936945455e6 0.0
8.646923936945455e6 -39396.382257196005 0.0
0.0 0.0 0.0

-1.5329404960225958e6 1.3736283865960388e7 0.0
1.3736283865960388e7 -4.949031875739466e6 0.0
0.0 0.0 0.0

2.3432425029843953e6 6.5841284753383575e6 0.0
6.5841284753383575e6 -8.974098730960222e6 0.0
0.0 0.0 0.0

-1.7473144061389826e7 1.0624292645056568e7 0.0
1.0624292645056568e7 4.227644019807124e6 0.0
0.0 0.0 0.0

2.572274029720516e6 1.2268989438592697e7 0.0
1.2268989438592697e7 -4.978598616159543e6 0.0
0.0 0.0 0.0

7.384374868651631e6 1.0676483910878044e7 0.0
1.0676483910878044e7 -4.119755849900874e6 0.0
0.0 0.0 0.0

-1.3303031087245848e7 1.7101479435356468e7 0.0
1.7101479435356468e7 1.0036511674409334e7 0.0
0.0 0.0 0.0

-3.001554856417328e6 3.4008775493228296e6 0.0
3.4008775493228296e6 2.828683664818542e6 0.0
0.0 0.0 0.0

-1.33018988782142e6 1.1071374287456164e7 0.0
1.1071374287456164e7 -4.98384605302772e6 0.0
0.0 0.0 0.0

-3.335672349153612e6 1.3474020036711704e7 0.0
1.3474020036711704e7 -546905.5469734496 0.0
0.0 0.0 0.0

-1.4794592416035242e7 1.3213466721436905e7 0.0
1.3213466721436905e7 9.227021806015871e6 0.0
0.0 0.0 0.0

-1.26446082130493e6 1.144659428368812e7 0.0
1.144659428368812e7 -1.2475066054763734e7 0.0
0.0 0.0 0.0

-283652.5698643217 1.1763009670019364e7 0.0
1.1763009670019364e7 845593.9822375036 0.0
0.0 0.0 0.0

-270725.4542486104 1.0676520635248752e7 0.0
1.0676520635248752e7 -1.0403868699578732e7 0.0
0.0 0.0 0.0

-1.4419443432953693e7 1.499361981642702e7 0.0
1.499361981642702e7 1.0220227504405119e7 0.0
0.0 0.0 0.0

-4.1525390519813783e6 1.4501819402329272e7 0.0
1.4501819402329272e7 -1.720230492876492e6 0.0
0.0 0.0 0.0

-2.720451117400655e6 1.345672854651061e7 0.0
1.345672854651061e7 239615.3331303642 0.0
0.0 0.0 0.0

3.2199402403903576e6 8.712323823678572e6 0.0
8.712323823678572e6 -1.2480361819496764e7 0.0
0.0 0.0 0.0

-1.1495907805841912e7 1.0697883258614969e6 0.0
1.0697883258614969e6 1.693825897295048e7 0.0
0.0 0.0 0.0

-1.9479086386987153e6 1.0716188310879733e7 0.0
1.0716188310879733e7 -3.2312689418739243e6 0.0
0.0 0.0 0.0

2.3255359592847796e6 1.2803786230887119e7 0.0
1.2803786230887119e7 -4.648571200245026e6 0.0
0.0 0.0 0.0

-938449.2961098016 1.1169886009221027e7 0.0
1.1169886009221027e7 -1.1603305833292287e7 0.0
0.0 0.0 0.0

-8.58573649404806e6 1.4919139002603354e7 0.0
1.4919139002603354e7 6.299493546926228e6 0.0
0.0 0.0 0.0

-305257.0861865808 2.0118250489655986e7 0.0
2.0118250489655986e7 -9.632253880505132e6 0.0
0.0 0.0 0.0

-1.9717289376676246e6 1.3654499302399268e7 0.0
1.3654499302399268e7 -698922.2926969125 0.0
0.0 0.0 0.0

-9.33584424342229e6 1.5200044748719556e7 0.0
1.5200044748719556e7 7.035795875002052e6 0.0
0.0 0.0 0.0

-8.275497307094263e6 1.0529469175351787e7 0.0
1.0529469175351787e7 9.062836302360691e6 0.0
0.0 0.0 0.0

1.2335060290567644e6 1.2281349932348276e7 0.0
1.2281349932348276e7 -5.575867924342243e6 0.0
0.0 0.0 0.0

-6.546027583142526e6 1.4940953391093247e7 0.0
1.4940953391093247e7 5.757243089681231e6 0.0
0.0 0.0 0.0

-483708.8659341587 1.1137940503423914e7 0.0
1.1137940503423914e7 -1.200819352419295e7 0.0
0.0 0.0 0.0

3.7587512839807943e6 6.197122655677268e6 0.0
6.197122655677268e6 -1.1594269121069353e7 0.0
0.0 0.0 0.0

-978359.8903906769 1.0990763301500795e7 0.0
1.0990763301500795e7 -1.0889586446624579e7 0.0
0.0 0.0 0.0

-7.394084069920791e6 1.5979394853722734e7 0.0
1.5979394853722734e7 6.226253209318934e6 0.0
0.0 0.0 0.0

-1.1252507973820984e6 1.1511200736463882e7 0.0
1.1511200736463882e7 -3.7508358840877e6 0.0
0.0 0.0 0.0

525907.4474401305 9.543064344611155e6 0.0
9.543064344611155e6 1.753024861522997e6 0.0
0.0 0.0 0.0

-1.1467316839953288e7 8.075531696578874e6 0.0
8.075531696578874e6 1.261670421919143e7 0.0
0.0 0.0 0.0

-1.127405279131703e6 8.674148373851847e6 0.0
8.674148373851847e6 -2.3445835533766e6 0.0
0.0 0.0 0.0

1.9128549818545233e6 1.1839708006746713e7 0.0
1.1839708006746713e7 1.0260311605055837e7 0.0
0.0 0.0 0.0

-1.0890183494622242e7 -2.550460825402545e6 0.0
-2.550460825402545e6 1.5376247597181788e7 0.0
0.0 0.0 0.0

4.8001622788368575e6 5.994393495068261e6 0.0
5.994393495068261e6 -1.491372260085793e7 0.0
0.0 0.0 0.0

152562.00890507922 1.1179789617127191e7 0.0
1.1179789617127191e7 -1.1407367913574057e7 0.0
0.0 0.0 0.0

-8.700260298456583e6 1.5427096006932653e7 0.0
1.5427096006932653e7 7.015701525825601e6 0.0
0.0 0.0 0.0

8.627984781077046e6 1.0345848331003347e7 0.0
1.0345848331003347e7 -169663.2646877002 0.0
0.0 0.0 0.0

-1.0650975045235936e7 1.4407572349336662e6 0.0
1.4407572349336662e6 1.233795037138056e7 0.0
0.0 0.0 0.0

-1.3534404378292248e7 1.687584732225502e7 0.0
1.687584732225502e7 3.1675064233478187e6 0.0
0.0 0.0 0.0

-3.3511104375373363e6 1.2955360889511015e7 0.0
1.2955360889511015e7 2.592586885842764e6 0.0
0.0 0.0 0.0

-1.6261504550615372e7 1.3923503914284185e7 0.0
1.3923503914284185e7 1.0473448382689152e7 0.0
0.0 0.0 0.0

4.88477663772741e6 6.230901579759248e6 0.0
6.230901579759248e6 -1.5501758290947305e7 0.0
0.0 0.0 0.0

-3.746296522150051e6 1.692993681711473e7 0.0
1.692993681711473e7 -513776.30078737077 0.0
0.0 0.0 0.0

-1.2571632160635771e7 7.129261685859763e6 0.0
7.129261685859763e6 2.5207282562088724e7 0.0
0.0 0.0 0.0

-6.566210409030781e6 1.4706306991899729e7 0.0
1.4706306991899729e7 6.405957640252503e6 0.0
0.0 0.0 0.0

-831041.4511205879 1.1295308882708348e7 0.0
1.1295308882708348e7 -3.083225793865471e6 0.0
0.0 0.0 0.0

-269858.36833734607 5.817275416483931e6 0.0
5.817275416483931e6 -1.518445035715119e6 0.0
0.0 0.0 0.0

-1.0080216710633936e6 1.1903251827180898e7 0.0
1.1903251827180898e7 2.8993844905290147e6 0.0
0.0 0.0 0.0

-3.75414650974116e6 1.3485959333978955e7 0.0
1.3485959333978955e7 3.8406056283099204e6 0.0
0.0 0.0 0.0

750885.85933842 7.404071677456022e6 0.0
7.404071677456022e6 -5.222210481983283e6 0.0
0.0 0.0 0.0

-1.600056505188907e6 1.2901408599981548e7 0.0
1.2901408599981548e7 -236236.7422438733 0.0
0.0 0.0 0.0

2.1280976211828515e6 1.246805727730841e7 0.0
1.246805727730841e7 -4.691518183374101e6 0.0
0.0 0.0 0.0

-1.5397459320567283e6 8.542054608563002e6 0.0
8.542054608563002e6 -1.4916737866910035e6 0.0
0.0 0.0 0.0

437812.0215048441 1.088562275085612e7 0.0
1.088562275085612e7 -1.1878495895063167e7 0.0
0.0 0.0 0.0

-4.176776438397236e6 9.784607643664146e6 0.0
9.784607643664146e6 1.3362715833834226e6 0.0
0.0 0.0 0.0

-7.692015005123486e6 1.0474573449662589e7 0.0
1.0474573449662589e7 1.0491427981699435e7 0.0
0.0 0.0 0.0

-6.096969173650962e6 698371.1657435375 0.0
698371.1657435375 7.632034311215131e6 0.0
0.0 0.0 0.0

-5.130176855222465e6 1.3226859313195417e7 0.0
1.3226859313195417e7 1.2307485255446928e6 0.0
0.0 0.0 0.0

-6.841119937033894e6 1.5262818913819496e7 0.0
1.5262818913819496e7 6.349833157523765e6 0.0
0.0 0.0 0.0

-1.2282207482165878e6 1.7440757199202888e7 0.0
1.7440757199202888e7 -3.678530050762077e6 0.0
0.0 0.0 0.0

-1.0906583892579746e7 725129.5349507723 0.0
725129.5349507723 1.3311623321545383e7 0.0
0.0 0.0 0.0

-105997.3262103023 1.1132319665931981e7 0.0
1.1132319665931981e7 -1.2257048745690783e7 0.0
0.0 0.0 0.0

-6.750259816191775e6 1.5222897136980988e7 0.0
1.5222897136980988e7 6.414947882692321e6 0.0
0.0 0.0 0.0

1.3065877504087817e6 1.113922288361478e7 0.0
1.113922288361478e7 -6.335556938702535e6 0.0
0.0 0.0 0.0

-1.4376985445946876e6 9.404355475560028e6 0.0
9.404355475560028e6 -3.4845544283681023e6 0.0
0.0 0.0 0.0

-1.66780018362155e6 3.436669967282597e6 0.0
3.436669967282597e6 1.130580158836686e6 0.0
0.0 0.0 0.0

-9.271412306137078e6 1.5617379749703392e7 0.0
1.5617379749703392e7 7.548902939634118e6 0.0
0.0 0.0 0.0

-4.0716894738415238e6 1.263272856993722e7 0.0
1.263272856993722e7 1.2589572061128253e6 0.0
0.0 0.0 0.0

-808884.0284865485 1.1521680498715067e7 0.0
1.1521680498715067e7 5.130710175303634e6 0.0
0.0 0.0 0.0

865666.0118461903 5.913555576578084e6 0.0
5.913555576578084e6 -3.2514290252370597e6 0.0
0.0 0.0 0.0

1.7753894727598857e6 1.0286020805094467e7 0.0
1.0286020805094467e7 -330947.89479011367 0.0
0.0 0.0 0.0

4.275988424989549e6 8.556533481424525e6 0.0
8.556533481424525e6 -1.9356027182659905e7 0.0
0.0 0.0 0.0

-6.176893135307269e6 1.907680299497882e7 0.0
1.907680299497882e7 -211202.7911922508 0.0
0.0 0.0 0.0

-5.137688236091058e6 1.3980764372095108e7 0.0
1.3980764372095108e7 5.356090549249866e6 0.0
0.0 0.0 0.0

-2.665618253983642e6 6.398956420308209e6 0.0
6.398956420308209e6 282659.932747234 0.0
0.0 0.0 0.0

-563487.5396350964 1.2750907024943808e7 0.0
1.2750907024943808e7 -1.6340780583389571e6 0.0
0.0 0.0 0.0

3.6534342982629267e6 9.394001003147861e6 0.0
9.394001003147861e6 -1.7791448413507998e7 0.0
0.0 0.0 0.0

877780.4574874686 1.1221692203677624e7 0.0
1.1221692203677624e7 -1.0572938427275227e7 0.0
0.0 0.0 0.0

-1.1952916813524006e7 1.6881705164561063e7 0.0
1.6881705164561063e7 8.95808313435381e6 0.0
0.0 0.0 0.0

-1.0182010682192803e6 1.1463711981222594e7 0.0
1.1463711981222594e7 -3.394003715140406e6 0.0
0.0 0.0 0.0

-3.023620754839245e6 1.3911886942496575e7 0.0
1.3911886942496575e7 -1.276903344919561e6 0.0
0.0 0.0 0.0

-5.721647042609783e6 1.3140079027697138e7 0.0
1.3140079027697138e7 4.373147757276585e6 0.0
0.0 0.0 0.0

-729227.6124588907 1.1176472501210127e7 0.0
1.1176472501210127e7 -5.0995490719505595e6 0.0
0.0 0.0 0.0

2.1826815792306005e6 1.1290804819922917e7 0.0
1.1290804819922917e7 434471.8547497351 0.0
0.0 0.0 0.0

-5.347779220873013e6 1.2977001008122426e7 0.0
1.2977001008122426e7 2.0293763269700678e6 0.0
0.0 0.0 0.0

-1.4638321006809915e6 1.2980929539258242e7 0.0
1.2980929539258242e7 1.015282053872691e6 0.0
0.0 0.0 0.0

-1.241802914376865e7 4.0510255920630316e6 0.0
4.0510255920630316e6 3.018528674559507e7 0.0
0.0 0.0 0.0

-883409.7002536911 9.311729478571927e6 0.0
9.311729478571927e6 -3.3559767025463227e6 0.0
0.0 0.0 0.0

-1.8535278864673192e6 1.0160074893654307e7 0.0
1.0160074893654307e7 -9.22303876156279e6 0.0
0.0 0.0 0.0

-519827.88127121096 1.252524983303758e7 0.0
1.252524983303758e7 -7.459802718468815e6 0.0
0.0 0.0 0.0

-3.609526564270199e6 1.1265821293334993e7 0.0
1.1265821293334993e7 -1.5682642245306224e6 0.0
0.0 0.0 0.0

-4.044647660853151e6 1.3210454150688771e7 0.0
1.3210454150688771e7 3.844893179066601e6 0.0
0.0 0.0 0.0

-380742.37386756425 1.1026110682951503e7 0.0
1.1026110682951503e7 -1.269141228174838e6 0.0
0.0 0.0 0.0

-6.544021041072728e6 1.5368934095543414e7 0.0
1.5368934095543414e7 5.587072010745905e6 0.0
0.0 0.0 0.0

-1.2660926001688347e6 1.3258960159402339e7 0.0
1.3258960159402339e7 -232040.06078863138 0.0
0.0 0.0 0.0

-1.2303671293305825e7 -2.9366033041666313e6 0.0
-2.9366033041666313e6 2.9611947464395646e7 0.0
0.0 0.0 0.0

-9.337884226971515e6 4.228246041225005e6 0.0
4.228246041225005e6 9.938215329960475e6 0.0
0.0 0.0 0.0

1.2822767434923896e6 1.1448714087632498e7 0.0
1.1448714087632498e7 -6.007965305256409e6 0.0
0.0 0.0 0.0

-1.4018195532425314e7 1.1733484546945985e7 0.0
1.1733484546945985e7 6.723368481913607e6 0.0
0.0 0.0 0.0

-3.203859320771167e6 2.89750949612568e6 0.0
2.89750949612568e6 2.092656005595268e6 0.0
0.0 0.0 0.0

-1.2977492809659196e7 1.4832151690983237e6 0.0
1.4832151690983237e6 2.210728799820084e7 0.0
0.0 0.0 0.0

-839986.7695694255 -1.9892270134416448e6 0.0
-1.9892270134416448e6 193461.26583885413 0.0
0.0 0.0 0.0

-2.43360017537216e6 1.4118211320841124e6 0.0
1.4118211320841124e6 514899.81104097504 0.0
0.0 0.0 0.0

1.4777260172083224e6 8.659699407312185e6 0.0
8.659699407312185e6 -8.926814349295232e6 0.0
0.0 0.0 0.0

-4.701299560081357e6 1.2749665210836401e7 0.0
1.2749665210836401e7 1.1761752903564456e6 0.0
0.0 0.0 0.0

-4.971652335082917e6 1.0547858014156843e7 0.0
1.0547858014156843e7 -410620.64980324823 0.0
0.0 0.0 0.0

-4.875432251633961e6 1.314790897050136e7 0.0
1.314790897050136e7 5.486190966617166e6 0.0
0.0 0.0 0.0

68234.61875031097 1.0708607031652682e7 0.0
1.0708607031652682e7 -1.0249032030903956e7 0.0
0.0 0.0 0.0

-2.1807105287516844e6 1.0519143552405242e7 0.0
1.0519143552405242e7 4.831600018780247e6 0.0
0.0 0.0 0.0

-2.486467236823548e6 1.1242252467659187e7 0.0
1.1242252467659187e7 -1.1022151170544472e7 0.0
0.0 0.0 0.0

-2.392941269536873e6 1.292137089664947e7 0.0
1.292137089664947e7 667987.5590111302 0.0
0.0 0.0 0.0

3.29691477572407e6 1.0045912272655725e7 0.0
1.0045912272655725e7 -2.035950410996275e7 0.0
0.0 0.0 0.0

3.3733325463247383e6 9.381365519783657e6 0.0
9.381365519783657e6 -1.628890957250525e7 0.0
0.0 0.0 0.0

-2.2588826614582394e6 1.373823469263043e7 0.0
1.373823469263043e7 -1.0021091364924761e6 0.0
0.0 0.0 0.0

-8.306814974391494e6 1.5578263753727458e7 0.0
1.5578263753727458e7 4.367095228825529e6 0.0
0.0 0.0 0.0

-7.713137470292692e6 1.468728570720236e7 0.0
1.468728570720236e7 6.648077578993853e6 0.0
0.0 0.0 0.0

-2.9574353381802766e6 8.740613997065267e6 0.0
8.740613997065267e6 -119918.29829692119 0.0
0.0 0.0 0.0

-2.761595815472923e6 2.9755155871832534e6 0.0
2.9755155871832534e6 3.337375902061129e6 0.0
0.0 0.0 0.0

1.5162815215843187e6 1.0505879666984282e7 0.0
1.0505879666984282e7 -5.707103907957081e6 0.0
0.0 0.0 0.0

3.28445624629735e6 1.2770070396656875e7 0.0
1.2770070396656875e7 -5.414001656948738e6 0.0
0.0 0.0 0.0

-1.104813889072087e7 7.873294619635433e6 0.0
7.873294619635433e6 2.6292978604260445e7 0.0
0.0 0.0 0.0

-1.7944682363697968e6 1.2700390441088418e7 0.0
1.2700390441088418e7 2.4714043600497353e6 0.0
0.0 0.0 0.0

-7.277438525780959e6 1.5255604800089959e7 0.0
1.5255604800089959e7 6.374031046208916e6 0.0
0.0 0.0 0.0

-1.2144112877557348e6 9.61537438701914e6 0.0
9.61537438701914e6 -7.968772894932241e6 0.0
0.0 0.0 0.0

-1.2714977946511008e7 4.556240135866965e6 0.0
4.556240135866965e6 2.0418969778219745e7 0.0
0.0 0.0 0.0

-1.849975445639817e6 1.2610106140188055e7 0.0
1.2610106140188055e7 1.0860326753783445e6 0.0
0.0 0.0 0.0

-1.1587084728900478e6 1.2451456555982752e7 0.0
1.2451456555982752e7 -6.752851790913496e6 0.0
0.0 0.0 0.0

1.2792928705992154e6 1.0783685131239163e7 0.0
1.0783685131239163e7 -1.1730004697212804e7 0.0
0.0 0.0 0.0

3.5536219819094604e6 8.80429113371345e6 0.0
8.80429113371345e6 -1.6322054814287635e7 0.0
0.0 0.0 0.0

3.035259470820413e6 8.904219526208792e6 0.0
8.904219526208792e6 -1.4069271930829663e7 0.0
0.0 0.0 0.0

-1.768631273554355e6 1.2588231187013915e7 0.0
1.2588231187013915e7 -1.5099230813429624e7 0.0
0.0 0.0 0.0

-6.541587769806752e6 1.5148855459760204e7 0.0
1.5148855459760204e7 5.670989017624177e6 0.0
0.0 0.0 0.0

-3.643152699551189e6 1.400750854516462e7 0.0
1.400750854516462e7 294814.9479251823 0.0
0.0 0.0 0.0

880789.430220732 1.1477979718625726e7 0.0
1.1477979718625726e7 -8.10530470490362e6 0.0
0.0 0.0 0.0

5.52295059707642e6 1.3072244721235553e7 0.0
1.3072244721235553e7 -5.996661582115982e6 0.0
0.0 0.0 0.0

-1.1476728526334053e7 -425986.34770444536 0.0
-425986.34770444536 2.5679117108437695e7 0.0
0.0 0.0 0.0

3.11270209263625e6 9.722147629591838e6 0.0
9.722147629591838e6 -1.8270637232277602e7 0.0
0.0 0.0 0.0

3.426197849081084e6 9.035337505862452e6 0.0
9.035337505862452e6 -1.3840938137537172e7 0.0
0.0 0.0 0.0

-1.1590582784008885e7 4.129860725151294e6 0.0
4.129860725151294e6 3.4113303339058295e7 0.0
0.0 0.0 0.0

4.64605359170186e6 1.1799296079534892e7 0.0
1.1799296079534892e7 1.7254738441369883e6 0.0
0.0 0.0 0.0

-1.1470142368445124e7 2.868733472271989e6 0.0
2.868733472271989e6 2.382290227691121e7 0.0
0.0 0.0 0.0

53781.889525344246 5.454114739359462e6 0.0
5.454114739359462e6 -2.333262799659085e6 0.0
0.0 0.0 0.0

-6.9597433186603915e6 1.5621932171245225e7 0.0
1.5621932171245225e7 5.42172047315886e6 0.0
0.0 0.0 0.0

2.211252922777011e6 8.425991193469955e6 0.0
8.425991193469955e6 -1.1000159797320753e7 0.0
0.0 0.0 0.0

-8.938678182237426e6 1.6156902168608457e7 0.0
1.6156902168608457e7 7.575744754520701e6 0.0
0.0 0.0 0.0

-1.1313013848968726e7 6.3934990235831095e6 0.0
6.3934990235831095e6 1.8667670186710753e7 0.0
0.0 0.0 0.0

-7.114927856985632e6 3.825621398446623e6 0.0
3.825621398446623e6 6.94226726095725e6 0.0
0.0 0.0 0.0

-3.180341709763925e6 1.719371310655806e7 0.0
1.719371310655806e7 -1.2734240726906483e6 0.0
0.0 0.0 0.0

-4.492852908487784e6 1.3524101321470112e7 0.0
1.3524101321470112e7 5.437445174607793e6 0.0
0.0 0.0 0.0

-3.4912963197554313e6 1.4713346106117455e7 0.0
1.4713346106117455e7 -1.3938674893817678e6 0.0
0.0 0.0 0.0

-5.655424224685463e6 1.418722368645148e7 0.0
1.418722368645148e7 4.988796160119717e6 0.0
0.0 0.0 0.0

195146.29397892347 1.1132546733536651e7 0.0
1.1132546733536651e7 -1.0810395269785877e7 0.0
0.0 0.0 0.0

195405.99609380122 1.3637673418326048e7 0.0
1.3637673418326048e7 -5.1816924459691625e6 0.0
0.0 0.0 0.0

-1.368942334165207e6 1.3025870735411767e7 0.0
1.3025870735411767e7 1.061325450365918e7 0.0
0.0 0.0 0.0

-4.522827855035201e6 -1.0518088173140385e6 0.0
-1.0518088173140385e6 8.571968371351125e6 0.0
0.0 0.0 0.0

-3.530479097770126e6 3.558115950508978e6 0.0
3.558115950508978e6 -1.0324636363104117e6 0.0
0.0 0.0 0.0

-954363.3363650437 1.1205620852539092e7 0.0
1.1205620852539092e7 -3.181210911661927e6 0.0
0.0 0.0 0.0

1.0060168066283038e6 1.1567086191850921e7 0.0
1.1567086191850921e7 3.3533895368985687e6 0.0
0.0 0.0 0.0

-6.005720679194267e6 1.9619930137980424e7 0.0
1.9619930137980424e7 -1.6980025296425275e6 0.0
0.0 0.0 0.0

2.432985167973856e6 5.479264713602674e6 0.0
5.479264713602674e6 -7.783633595253556e6 0.0
0.0 0.0 0.0

-8.819537367812112e6 1.7028143304509345e7 0.0
1.7028143304509345e7 7.55361646964008e6 0.0
0.0 0.0 0.0

-2.2337159053941146e7 3.096132898614831e6 0.0
3.096132898614831e6 1.1414087030839445e7 0.0
0.0 0.0 0.0

-529087.2680608523 1.266367637650157e7 0.0
1.266367637650157e7 -7.225155743375093e6 0.0
0.0 0.0 0.0

-1.175394801661409e7 7.757899299043215e6 0.0
7.757899299043215e6 1.558892844575534e7 0.0
0.0 0.0 0.0

1.4120032769210455e6 1.1217912648247538e7 0.0
1.1217912648247538e7 -6.215706166886122e6 0.0
0.0 0.0 0.0

-4.627733507490952e6 1.3556494498975258e7 0.0
1.3556494498975258e7 4.480108083752045e6 0.0
0.0 0.0 0.0

-4.28922207674826e6 1.2525812739703204e7 0.0
1.2525812739703204e7 556430.3784738015 0.0
0.0 0.0 0.0

1.3213637619435615e6 1.1804619830884092e7 0.0
1.1804619830884092e7 -6.636542275286954e6 0.0
0.0 0.0 0.0

5.085314126109582e6 5.967708232415707e6 0.0
5.967708232415707e6 -1.5822442487964502e7 0.0
0.0 0.0 0.0

-1.057730763391116e6 7.714891935325265e6 0.0
7.714891935325265e6 -3.5257695320303296e6 0.0
0.0 0.0 0.0

2.5139457002843674e6 1.3957499653540302e7 0.0
1.3957499653540302e7 -5.376475398904302e6 0.0
0.0 0.0 0.0

690156.808169038 1.1596838939156335e7 0.0
1.1596838939156335e7 -8.577806541877024e6 0.0
0.0 0.0 0.0

-371000.84972880804 1.0886828475725671e7 0.0
1.0886828475725671e7 4.130398976687529e6 0.0
0.0 0.0 0.0

2.9562463336266223e6 9.613960565038588e6 0.0
9.613960565038588e6 -1.6649565172121352e7 0.0
0.0 0.0 0.0

-3.0990990985544943e6 1.2886938797558935e7 0.0
1.2886938797558935e7 -2.387463450924649e6 0.0
0.0 0.0 0.0

-3.4547358198394934e6 1.2791350225462316e7 0.0
1.2791350225462316e7 8.66874353498521e6 0.0
0.0 0.0 0.0

2.223542524851573e6 1.701817489777637e7 0.0
1.701817489777637e7 -8.209375601783862e6 0.0
0.0 0.0 0.0

3.1721674964968376e6 9.292347213522611e6 0.0
9.292347213522611e6 -1.4995340750635842e7 0.0
0.0 0.0 0.0

-1.8561351776520945e7 1.9049801577457204e6 0.0
1.9049801577457204e6 1.0463704297379382e7 0.0
0.0 0.0 0.0

-1.6928139474112845e6 1.2322174599128898e7 0.0
1.2322174599128898e7 3.49703323399103e6 0.0
0.0 0.0 0.0

-9.36700901770125e6 1.6549386587155968e7 0.0
1.6549386587155968e7 7.877643309447186e6 0.0
0.0 0.0 0.0

-1.8213534780900548e6 1.2243600449371086e7 0.0
1.2243600449371086e7 -3.745234585302883e6 0.0
0.0 0.0 0.0

-6.925774843933629e6 1.5428993073332056e7 0.0
1.5428993073332056e7 6.394552736558126e6 0.0
0.0 0.0 0.0

-1.299091305665534e7 7.107925653787981e6 0.0
7.107925653787981e6 2.794905512449051e7 0.0
0.0 0.0 0.0

676809.6346309944 1.0032806883856168e7 0.0
1.0032806883856168e7 -7.183087026552428e6 0.0
0.0 0.0 0.0

-4.916749586280513e6 1.7341898760735285e7 0.0
1.7341898760735285e7 -1.1494584742511583e6 0.0
0.0 0.0 0.0

-1.294110330664308e6 7.878747842046861e6 0.0
7.878747842046861e6 -1.6564250315009572e6 0.0
0.0 0.0 0.0

-1.9040614606525887e7 2.2028903342592027e6 0.0
2.2028903342592027e6 9.846540839214753e6 0.0
0.0 0.0 0.0

-2.569217408019142e6 9.181069902209053e6 0.0
9.181069902209053e6 -1.26191987481857e6 0.0
0.0 0.0 0.0

-1.0696497242880942e7 -545963.3350629279 0.0
-545963.3350629279 1.259692593910826e7 0.0
0.0 0.0 0.0

-1.0648190593496751e7 8.558978904807363e6 0.0
8.558978904807363e6 1.6711388291059447e7 0.0
0.0 0.0 0.0

-7.750483834349883e6 1.6206915331142658e7 0.0
1.6206915331142658e7 6.5808847981831e6 0.0
0.0 0.0 0.0

-9.872888222481893e6 1.7086430440215413e7 0.0
1.7086430440215413e7 8.212327035330325e6 0.0
0.0 0.0 0.0

-1.1422728601470612e7 5.660308754646863e6 0.0
5.660308754646863e6 2.1809624583509978e7 0.0
0.0 0.0 0.0

612317.3715816962 9.131592814322934e6 0.0
9.131592814322934e6 -6.061198865902596e6 0.0
0.0 0.0 0.0

2.8541083837243617e6 1.1646013525569458e7 0.0
1.1646013525569458e7 -3.8144183336925157e6 0.0
0.0 0.0 0.0

-788538.6141583356 8.245574664577674e6 0.0
8.245574664577674e6 -6.185984679139063e6 0.0
0.0 0.0 0.0

-401061.93508444587 5.3047285567640755e6 0.0
5.3047285567640755e6 861470.1957853991 0.0
0.0 0.0 0.0

-7.54040270058373e6 1.6223837790084207e7 0.0
1.6223837790084207e7 6.5290251484870035e6 0.0
0.0 0.0 0.0

-1.0194767270859253e7 9.066394291834507e6 0.0
9.066394291834507e6 1.1410689969298922e7 0.0
0.0 0.0 0.0

2.784258249058811e6 9.582780709796757e6 0.0
9.582780709796757e6 -1.5432581358897168e7 0.0
0.0 0.0 0.0

-1.1538474929614516e7 1.2744840078846194e7 0.0
1.2744840078846194e7 5.270197755921664e6 0.0
0.0 0.0 0.0

-3.9288297731054043e6 1.4998324432151858e7 0.0
1.4998324432151858e7 -608754.6461458724 0.0
0.0 0.0 0.0

5.159240628770036e6 6.85103965446088e6 0.0
6.85103965446088e6 -1.8280491695113525e7 0.0
0.0 0.0 0.0

-3.8169533048170945e6 1.2190229867334366e7 0.0
1.2190229867334366e7 5.967079517821384e6 0.0
0.0 0.0 0.0

-4.561416900114539e6 1.2727859619228201e7 0.0
1.2727859619228201e7 2.132399998316029e6 0.0
0.0 0.0 0.0

-72205.28118603537 1.2684485389476994e7 0.0
1.2684485389476994e7 -7.223476056509048e6 0.0
0.0 0.0 0.0

-9.76984733105013e6 1.6001193547404528e7 0.0
1.6001193547404528e7 7.992694394082515e6 0.0
0.0 0.0 0.0

-4.0154567884318437e6 1.2818035804586636e7 0.0
1.2818035804586636e7 1.0406067027529837e6 0.0
0.0 0.0 0.0

-8.257664271171651e6 1.6361738689231303e7 0.0
1.6361738689231303e7 7.021128398427829e6 0.0
0.0 0.0 0.0

-671566.4258060001 6.966241750703934e6 0.0
6.966241750703934e6 -2.314820545210914e6 0.0
0.0 0.0 0.0

465730.3436869248 1.22530000496295e7 0.0
1.22530000496295e7 3.2390997559828293e6 0.0
0.0 0.0 0.0

708402.9107439606 1.141149610454729e7 0.0
1.141149610454729e7 -9.952951405477118e6 0.0
0.0 0.0 0.0

-1.9214568855194775e6 9.052616942428946e6 0.0
9.052616942428946e6 -1.0998226752989045e6 0.0
0.0 0.0 0.0

91664.36808718042 1.210244954950222e7 0.0
1.210244954950222e7 -8.381612972306295e6 0.0
0.0 0.0 0.0

2.061223853153383e6 6.804695498973061e6 0.0
6.804695498973061e6 -8.50380723989953e6 0.0
0.0 0.0 0.0

-593416.6383491023 1.3134194584011612e7 0.0
1.3134194584011612e7 7.268318494577689e6 0.0
0.0 0.0 0.0

-8.693982364743218e6 -4.317896198163967e6 0.0
-4.317896198163967e6 1.5206680939880125e7 0.0
0.0 0.0 0.0

699671.2896364955 1.2488696946500313e7 0.0
1.2488696946500313e7 3.7490800632864423e6 0.0
0.0 0.0 0.0

-6.882078998328066e6 1.5412021335479861e7 0.0
1.5412021335479861e7 5.556858795864661e6 0.0
0.0 0.0 0.0

1.155476165799993e6 1.1278703259172717e7 0.0
1.1278703259172717e7 -1.0650980254304366e7 0.0
0.0 0.0 0.0

-4.1180670177489636e6 1.6578798388919277e7 0.0
1.6578798388919277e7 -128943.26976920618 0.0
0.0 0.0 0.0

-352823.2503250428 1.2529420742115932e7 0.0
1.2529420742115932e7 -1.4525680392663304e6 0.0
0.0 0.0 0.0

2.7845255593580618e6 8.199395512520905e6 0.0
8.199395512520905e6 -1.0643672067948978e7 0.0
0.0 0.0 0.0

-4.244900518460682e6 1.4873657882782022e7 0.0
1.4873657882782022e7 -1.6498044310561046e6 0.0
0.0 0.0 0.0

550371.3058254942 1.1614310924925914e7 0.0
1.1614310924925914e7 -9.475357525917506e6 0.0
0.0 0.0 0.0

-1.929737141539665e6 5.020778339017247e6 0.0
5.020778339017247e6 902569.2705894667 0.0
0.0 0.0 0.0

-4.00002692795547e6 1.3701689581164362e7 0.0
1.3701689581164362e7 5.700479301969061e6 0.0
0.0 0.0 0.0

-4.488285261869035e6 1.379633445628306e7 0.0
1.379633445628306e7 4.445532248402718e6 0.0
0.0 0.0 0.0

-7.108116043830553e6 1.5719331638114315e7 0.0
1.5719331638114315e7 5.8777537035736665e6 0.0
0.0 0.0 0.0

-1.8638341202554584e6 1.225032444415808e7 0.0
1.225032444415808e7 2.3322003676800514e6 0.0
0.0 0.0 0.0

-254409.62096431645 6.2477653191361455e6 0.0
6.2477653191361455e6 -1.6373686037719694e6 0.0
0.0 0.0 0.0

-1.246785210894964e7 3.677323420725304e6 0.0
3.677323420725304e6 1.7455387785436794e7 0.0
0.0 0.0 0.0

-210098.29193680966 1.235717655476529e7 0.0
1.235717655476529e7 -7.818564191287054e6 0.0
0.0 0.0 0.0

2.6022188340541776e6 1.1309464392144842e7 0.0
1.1309464392144842e7 -1.9035205752125792e7 0.0
0.0 0.0 0.0

-548773.3662058036 6.6757472963419845e6 0.0
6.6757472963419845e6 -1.7832872317656635e6 0.0
0.0 0.0 0.0

-5.850851248150669e6 1.6049747806596376e6 0.0
1.6049747806596376e6 5.746233363119924e6 0.0
0.0 0.0 0.0

-4.600863508430822e6 9.823087627383063e6 0.0
9.823087627383063e6 2.0698678861376478e6 0.0
0.0 0.0 0.0

-4.297971786558102e6 1.493195013074546e7 0.0
1.493195013074546e7 29462.62828216562 0.0
0.0 0.0 0.0

460615.4914976023 1.1152312597763095e7 0.0
1.1152312597763095e7 -1.4118419571805678e7 0.0
0.0 0.0 0.0

2.2688145449202424e6 6.6065900223823935e6 0.0
6.6065900223823935e6 -7.6101753955721045e6 0.0
0.0 0.0 0.0

-6.606654086992713e6 1.55717742598627e7 0.0
1.55717742598627e7 5.478821314904094e6 0.0
0.0 0.0 0.0

-3.497069131178806e6 1.5067069739993244e7 0.0
1.5067069739993244e7 -1.3658966336667298e6 0.0
0.0 0.0 0.0

-1.4797871914287223e7 1.845774937740912e7 0.0
1.845774937740912e7 9.570761450513512e6 0.0
0.0 0.0 0.0

-6.804821535751898e6 1.5671004956382347e7 0.0
1.5671004956382347e7 5.931118936707949e6 0.0
0.0 0.0 0.0

-1.5424297258034956e7 1.5356855810031105e7 0.0
1.5356855810031105e7 6.898179527396906e6 0.0
0.0 0.0 0.0

-1.3072366704882104e6 1.3380446272444881e7 0.0
1.3380446272444881e7 -605849.7883669019 0.0
0.0 0.0 0.0

2.0420197143189898e6 1.1164342889246324e7 0.0
1.1164342889246324e7 -1.7976915209093414e7 0.0
0.0 0.0 0.0

-2.20557305562672e6 8.675830775732718e6 0.0
8.675830775732718e6 -1.6633427059816984e6 0.0
0.0 0.0 0.0

-1.135549688696181e7 -3.609356989259238e6 0.0
-3.609356989259238e6 1.9217239787418768e7 0.0
0.0 0.0 0.0

-1.2920101724192299e7 151292.79376484497 0.0
151292.79376484497 2.456485526618982e7 0.0
0.0 0.0 0.0

4.368968999636732e6 6.910116960050297e6 0.0
6.910116960050297e6 -1.4752781107821036e7 0.0
0.0 0.0 0.0

-5.698660298758575e6 1.4248624228892893e7 0.0
1.4248624228892893e7 5.7004482231977135e6 0.0
0.0 0.0 0.0

-1.1062081708775284e7 7.910846022999648e6 0.0
7.910846022999648e6 2.3851994502326407e7 0.0
0.0 0.0 0.0

345337.2105294275 1.1856980996639473e7 0.0
1.1856980996639473e7 -8.936915565895945e6 0.0
0.0 0.0 0.0

-1.0646338047025662e7 9.99689309876024e6 0.0
9.99689309876024e6 2.04513505106427e7 0.0
0.0 0.0 0.0

-4.606150367333781e6 1.4774736953150196e7 0.0
1.4774736953150196e7 -953435.2315583911 0.0
0.0 0.0 0.0

-6.328474401568798e6 1.755288330015865e7 0.0
1.755288330015865e7 1.5168583073678645e6 0.0
0.0 0.0 0.0

-270458.14155345806 1.2426545639892252e7 0.0
1.2426545639892252e7 -1.9308487538641242e6 0.0
0.0 0.0 0.0

-5.445084910200616e6 2.834288175481844e6 0.0
2.834288175481844e6 5.90802732291445e6 0.0
0.0 0.0 0.0

-1.7925345076417702e6 1.2184271495220622e7 0.0
1.2184271495220622e7 3.0204534320793645e6 0.0
0.0 0.0 0.0

-3.9353496568886526e6 9.732994735767825e6 0.0
9.732994735767825e6 2.1523004676753795e6 0.0
0.0 0.0 0.0

4.36209534556673e6 6.140678169186638e6 0.0
6.140678169186638e6 -1.3514940267689817e7 0.0
0.0 0.0 0.0

1.1433010653558972e6 1.3274554888081815e7 0.0
1.3274554888081815e7 -5.518037705163155e6 0.0
0.0 0.0 0.0

-1.1501287555210667e7 6.824904743536926e6 0.0
6.824904743536926e6 8.242771368600718e6 0.0
0.0 0.0 0.0

-9.212175430311657e6 1.2542537546004238e7 0.0
1.2542537546004238e7 655466.163880677 0.0
0.0 0.0 0.0

-6.807566046215364e6 1.5773652393351989e7 0.0
1.5773652393351989e7 4.797699420455537e6 0.0
0.0 0.0 0.0

6793.587251908844 8.855750303572465e6 0.0
8.855750303572465e6 -5.826083490934665e6 0.0
0.0 0.0 0.0

-2.214584256573287e6 1.3140179151391065e7 0.0
1.3140179151391065e7 -198276.53568168863 0.0
0.0 0.0 0.0

-6.272713618698169e6 1.7189590969042253e7 0.0
1.7189590969042253e7 3.589449006020425e6 0.0
0.0 0.0 0.0

-4.411020064430349e6 1.202719354903236e7 0.0
1.202719354903236e7 6.886077741936365e6 0.0
0.0 0.0 0.0

-2.1836452999607185e6 1.2350613773384895e7 0.0
1.2350613773384895e7 2.5590596056587826e6 0.0
0.0 0.0 0.0

607337.6510632017 8.692838510743191e6 0.0
8.692838510743191e6 -5.583680012540306e6 0.0
0.0 0.0 0.0

-8.111663774854208e6 1.7582017377378877e7 0.0
1.7582017377378877e7 6.833476909409693e6 0.0
0.0 0.0 0.0

-1.0106366803657308e7 -2.3924712383023184e6 0.0
-2.3924712383023184e6 1.3334252874036573e7 0.0
0.0 0.0 0.0

3.9427157009481126e6 6.405925643281434e6 0.0
6.405925643281434e6 -1.1262825035531126e7 0.0
0.0 0.0 0.0

-5.592437434416048e6 1.5491720267947936e7 0.0
1.5491720267947936e7 2.8326727542058406e6 0.0
0.0 0.0 0.0

927784.1623670259 1.148798513084887e7 0.0
1.148798513084887e7 -1.0073997322400372e7 0.0
0.0 0.0 0.0

506102.07339570567 5.700644676771544e6 0.0
5.700644676771544e6 -2.18727902184679e6 0.0
0.0 0.0 0.0

508498.4144410882 7.259241025202579e6 0.0
7.259241025202579e6 -5.948144816795352e6 0.0
0.0 0.0 0.0

-7.028873389907016e6 1.4432797857200565e7 0.0
1.4432797857200565e7 4.705347186584633e6 0.0
0.0 0.0 0.0

2.4409755208015675e6 8.77210870319946e6 0.0
8.77210870319946e6 -1.0412615895808684e7 0.0
0.0 0.0 0.0

149774.61830209685 1.2728054442085383e7 0.0
1.2728054442085383e7 6.184279737213566e6 0.0
0.0 0.0 0.0

-1.1876686568941548e6 7.051134307547027e6 0.0
7.051134307547027e6 -2.418671556933313e6 0.0
0.0 0.0 0.0

-455287.3918504875 6.272638504854232e6 0.0
6.272638504854232e6 -2.35037717920501e6 0.0
0.0 0.0 0.0

-2.363416993348263e6 1.7335460527071472e7 0.0
1.7335460527071472e7 -2.2287427791851736e6 0.0
0.0 0.0 0.0

-9.558154385256162e6 -1.233166324611859e6 0.0
-1.233166324611859e6 1.3430235467705946e7 0.0
0.0 0.0 0.0

10536.731496902183 1.0498645910444265e7 0.0
1.0498645910444265e7 -6.023531498176609e6 0.0
0.0 0.0 0.0

1.1766579863273846e6 9.603615673650866e6 0.0
9.603615673650866e6 -1.223547884829785e6 0.0
0.0 0.0 0.0

2.033808602282384e6 1.5368926526099779e7 0.0
1.5368926526099779e7 -6.436130670201932e6 0.0
0.0 0.0 0.0

429899.2378269257 1.1331730817253042e7 0.0
1.1331730817253042e7 -7.952701125394288e6 0.0
0.0 0.0 0.0

1.3108453578057364e6 1.3088918144112462e7 0.0
1.3088918144112462e7 5.782620077021568e6 0.0
0.0 0.0 0.0

-7.120144892551093e6 1.5221561709039683e7 0.0
1.5221561709039683e7 6.418124250269917e6 0.0
0.0 0.0 0.0

-1.0156514126172854e7 -2.9442620963864443e6 0.0
-2.9442620963864443e6 1.7757525789964125e7 0.0
0.0 0.0 0.0

-5.3847321410704665e6 1.5650734102363098e7 0.0
1.5650734102363098e7 2.454884664765102e6 0.0
0.0 0.0 0.0

-2.9785946382723204e6 1.270763350968804e7 0.0
1.270763350968804e7 5.626292354806894e6 0.0
0.0 0.0 0.0

1.5187072999020205e6 8.36293254635493e6 0.0
8.36293254635493e6 -8.684734125872947e6 0.0
0.0 0.0 0.0

5.1541118947717715e6 6.170438339656959e6 0.0
6.170438339656959e6 -1.4607749529658295e7 0.0
0.0 0.0 0.0

-4.236751572630928e6 1.2698546093782596e7 0.0
1.2698546093782596e7 333690.03966054413 0.0
0.0 0.0 0.0

-3.145242497721808e6 6.631039560222083e6 0.0
6.631039560222083e6 1.8830261794184942e6 0.0
0.0 0.0 0.0

-1.0875424369938381e7 8.36245168717725e6 0.0
8.36245168717725e6 1.4287819575703792e7 0.0
0.0 0.0 0.0

1.2267374524034201e6 1.111046405457352e7 0.0
1.111046405457352e7 -1.1122835824365951e7 0.0
0.0 0.0 0.0

2.0784462485508686e6 1.0767433473207833e7 0.0
1.0767433473207833e7 -1.732689060450625e7 0.0
0.0 0.0 0.0

-5.526521464451468e6 1.6054456844416585e7 0.0
1.6054456844416585e7 2.5851659362860005e6 0.0
0.0 0.0 0.0

-1.5434539344945764e6 1.2366403695355572e7 0.0
1.2366403695355572e7 1.5574082649874913e6 0.0
0.0 0.0 0.0

-2.223497200529906e7 3.2124932627325756e6 0.0
3.2124932627325756e6 1.0800024113375079e7 0.0
0.0 0.0 0.0

1.5423028405724005e6 1.3469474630038057e7 0.0
1.3469474630038057e7 7.1985876143777175e6 0.0
0.0 0.0 0.0

-1.996772720168948e7 1.0942333749553546e7 0.0
1.0942333749553546e7 9.314346010941673e6 0.0
0.0 0.0 0.0

2.7565017034916803e6 8.577287336482462e6 0.0
8.577287336482462e6 -1.259116061805356e7 0.0
0.0 0.0 0.0

4.282597240453031e6 5.081477921145129e6 0.0
5.081477921145129e6 -550925.1293292306 0.0
0.0 0.0 0.0

-5.387457033728275e6 -3.7544530675540366e6 0.0
-3.7544530675540366e6 4.2408754831929365e6 0.0
0.0 0.0 0.0

-2.2256612104488844e6 6.68993449049276e6 0.0
6.68993449049276e6 910361.3275434256 0.0
0.0 0.0 0.0

-1.0418706038223442e7 -1.5353196470142773e6 0.0
-1.5353196470142773e6 1.693234141752634e7 0.0
0.0 0.0 0.0

-1.0654014485784464e7 -559863.4714532957 0.0
-559863.4714532957 1.3681980217297236e7 0.0
0.0 0.0 0.0

543136.7355285264 1.2137916706843786e7 0.0
1.2137916706843786e7 -8.463641932048935e6 0.0
0.0 0.0 0.0

-1.7988558189792316e6 8.33400234901703e6 0.0
8.33400234901703e6 -5.996186289766038e6 0.0
0.0 0.0 0.0

75365.54574537165 1.1004725681230206e7 0.0
1.1004725681230206e7 251218.52786760262 0.0
0.0 0.0 0.0

1.587726946845493e6 9.776575504673049e6 0.0
9.776575504673049e6 -2.912869677873459e6 0.0
0.0 0.0 0.0

-5.66910172387039e6 1.643540142745225e7 0.0
1.643540142745225e7 2.762140808882881e6 0.0
0.0 0.0 0.0

-4.729818660238111e6 5.50135834650475e6 0.0
5.50135834650475e6 4.894192628433353e6 0.0
0.0 0.0 0.0

-502597.21026078775 1.1642925317358702e7 0.0
1.1642925317358702e7 -7.473736537782677e6 0.0
0.0 0.0 0.0

-6.079500510574906e6 1.3657244820468236e7 0.0
1.3657244820468236e7 3.7798380129449232e6 0.0
0.0 0.0 0.0

3.6705527514749058e6 7.866063421933339e6 0.0
7.866063421933339e6 -1.42036037201255e7 0.0
0.0 0.0 0.0

-9.918130004875084e6 -1.091665006167193e6 0.0
-1.091665006167193e6 1.4705588358826933e7 0.0
0.0 0.0 0.0

-4.961129888288761e6 1.5421262591862153e7 0.0
1.5421262591862153e7 1.6178368511318078e6 0.0
0.0 0.0 0.0

-1.3601442499296153e6 1.2432838604780974e7 0.0
1.2432838604780974e7 823298.7859241447 0.0
0.0 0.0 0.0

-1.1821219522313015e6 1.2608654759576159e7 0.0
1.2608654759576159e7 171136.32497148903 0.0
0.0 0.0 0.0

-4.327238588705321e6 1.4588423882397339e7 0.0
1.4588423882397339e7 6723.275175748393 0.0
0.0 0.0 0.0

621180.9602749634 1.174244222785411e7 0.0
1.174244222785411e7 2.9771580515295085e6 0.0
0.0 0.0 0.0

-2.814615255281216e6 1.4198986315867463e7 0.0
1.4198986315867463e7 -267257.281897163 0.0
0.0 0.0 0.0

-1.1905690338877983e7 7.554416641537671e6 0.0
7.554416641537671e6 1.7019699255899753e7 0.0
0.0 0.0 0.0

-1.1159619355085263e7 -3.547830538043833e6 0.0
-3.547830538043833e6 1.7345128555125106e7 0.0
0.0 0.0 0.0

1.9519847780446154e6 8.129400155709065e6 0.0
8.129400155709065e6 -8.304509179285614e6 0.0
0.0 0.0 0.0

4.600843207075745e6 6.589342734579269e6 0.0
6.589342734579269e6 -1.5155445657543309e7 0.0
0.0 0.0 0.0

-255619.6817284054 1.1769055849651909e7 0.0
1.1769055849651909e7 -6.7320990597482845e6 0.0
0.0 0.0 0.0

1.0014795458422762e6 1.1655694341645116e7 0.0
1.1655694341645116e7 2.7108611299252836e6 0.0
0.0 0.0 0.0

2.0940692627672292e6 6.288066919793084e6 0.0
6.288066919793084e6 -8.123617749380095e6 0.0
0.0 0.0 0.0

-1.424006122372822e6 1.1221417957947554e7 0.0
1.1221417957947554e7 -1.1538229747009454e7 0.0
0.0 0.0 0.0

2.155894416349739e6 1.049097329302888e7 0.0
1.049097329302888e7 -1.6604883222075218e7 0.0
0.0 0.0 0.0

-3.7732471888794354e6 9.65916972682281e6 0.0
9.65916972682281e6 693970.0811583495 0.0
0.0 0.0 0.0

-5.830184692404933e6 1.4432203358754884e7 0.0
1.4432203358754884e7 5.638676614289703e6 0.0
0.0 0.0 0.0

-4.034101445431016e6 1.469817927020538e7 0.0
1.469817927020538e7 507504.5290513956 0.0
0.0 0.0 0.0

-1.1001737215747494e7 -2.7517787296623066e6 0.0
-2.7517787296623066e6 2.463984061006543e7 0.0
0.0 0.0 0.0

2.290190786063278e6 1.031490698545362e7 0.0
1.031490698545362e7 -1.598960973618436e7 0.0
0.0 0.0 0.0

-1.201566046941284e7 7.2193310770804295e6 0.0
7.2193310770804295e6 1.8374600469972566e7 0.0
0.0 0.0 0.0

-1.0501109029783222e6 1.2762735042460304e7 0.0
1.2762735042460304e7 -396363.19026469305 0.0
0.0 0.0 0.0

-6.116860866273531e6 1.6196100008477598e7 0.0
1.6196100008477598e7 2.3877721349000484e6 0.0
0.0 0.0 0.0

-9.351072788812943e6 1.4303055126280876e7 0.0
1.4303055126280876e7 6.071652487877935e6 0.0
0.0 0.0 0.0

-1.1204425133105468e7 7.316479412152404e6 0.0
7.316479412152404e6 1.4635467212808106e7 0.0
0.0 0.0 0.0

-1.307775570935722e6 9.329089068856232e6 0.0
9.329089068856232e6 -7.967164142830749e6 0.0
0.0 0.0 0.0

243594.70407793863 1.1672983651509702e7 0.0
1.1672983651509702e7 2.0062032507100883e6 0.0
0.0 0.0 0.0

4.0884243637890015e6 7.135618276247367e6 0.0
7.135618276247367e6 -1.435696264608358e7 0.0
0.0 0.0 0.0

860702.6852815198 6.937075095832893e6 0.0
6.937075095832893e6 -6.399033892792834e6 0.0
0.0 0.0 0.0

-1.1579546983965453e7 4.738921468779342e6 0.0
4.738921468779342e6 1.877416028441592e7 0.0
0.0 0.0 0.0

-4.1558920894586802e6 1.3050214237598892e7 0.0
1.3050214237598892e7 4.436980940466624e6 0.0
0.0 0.0 0.0

-1.5333657935663348e7 1.1054535827124182e7 0.0
1.1054535827124182e7 5.891578836386846e6 0.0
0.0 0.0 0.0

1.4635998269540966e6 1.059121143203364e7 0.0
1.059121143203364e7 -1.18314662827489e7 0.0
0.0 0.0 0.0

3.2353537741981074e6 8.485259870862575e6 0.0
8.485259870862575e6 -1.393465176461894e7 0.0
0.0 0.0 0.0

2.3632261276178723e6 1.0194368750250397e7 0.0
1.0194368750250397e7 -1.5402140713443775e7 0.0
0.0 0.0 0.0

1.792993682048506e6 5.185878368370792e6 0.0
5.185878368370792e6 -6.082115080883518e6 0.0
0.0 0.0 0.0

-1.749678528140301e6 1.2433536511306597e7 0.0
1.2433536511306597e7 -4.026170293740851e6 0.0
0.0 0.0 0.0

-499639.1862335468 1.369921304001508e7 0.0
1.369921304001508e7 -5.623855216999563e6 0.0
0.0 0.0 0.0

-1.6061737754844803e7 1.5655931500089372e7 0.0
1.5655931500089372e7 1.1995023648919024e7 0.0
0.0 0.0 0.0

710971.3111012769 5.183383757566807e6 0.0
5.183383757566807e6 -4.145547824508555e6 0.0
0.0 0.0 0.0

861255.1363565042 1.1693357321349844e7 0.0
1.1693357321349844e7 -9.554959463167623e6 0.0
0.0 0.0 0.0

-8.89621562122697e6 9.386099854059499e6 0.0
9.386099854059499e6 1.1945227830309682e7 0.0
0.0 0.0 0.0

-8.50660549819024e6 869575.1324306258 0.0
869575.1324306258 1.0768416758546866e7 0.0
0.0 0.0 0.0

4.1446337137266705e6 6.385029216211792e6 0.0
6.385029216211792e6 -1.3107949711414548e7 0.0
0.0 0.0 0.0

-9.352838855811892e6 1.9536585759970727e6 0.0
1.9536585759970727e6 1.183078354701741e7 0.0
0.0 0.0 0.0

-1.0468463828533493e7 591882.1553958466 0.0
591882.1553958466 1.4963263324421119e7 0.0
0.0 0.0 0.0

-2.887854127118701e6 5.84685717676352e6 0.0
5.84685717676352e6 2.135163878341753e6 0.0
0.0 0.0 0.0

-5.072822051786318e6 1.377129644919775e7 0.0
1.377129644919775e7 5.789275648545986e6 0.0
0.0 0.0 0.0

-1.186222299387774e6 8.057277432915065e6 0.0
8.057277432915065e6 -1.8619892475205418e6 0.0
0.0 0.0 0.0

9.374435974992814e6 5.940854509694358e6 0.0
5.940854509694358e6 -2.619975292529799e6 0.0
0.0 0.0 0.0

-1.56798913384174e7 -4.1782507184639326e6 0.0
-4.1782507184639326e6 8.217249183299633e6 0.0
0.0 0.0 0.0

1.8105342006639247e6 6.773696002339478e6 0.0
6.773696002339478e6 -6.6673789006688e6 0.0
0.0 0.0 0.0

3.8170044691514326e6 8.220381235446446e6 0.0
8.220381235446446e6 -1.3528969646474062e7 0.0
0.0 0.0 0.0

4.237280330800539e6 7.50500969058287e6 0.0
7.50500969058287e6 -1.3656031279915622e7 0.0
0.0 0.0 0.0

1.2376686952427167e6 1.8324941552830378e6 0.0
1.8324941552830378e6 56814.34559878771 0.0
0.0 0.0 0.0

-799848.5540453803 -1.5027565062005122e6 0.0
-1.5027565062005122e6 832597.7854754508 0.0
0.0 0.0 0.0

-284145.02305392874 1.1101829236608172e7 0.0
1.1101829236608172e7 -1.1534427141402867e7 0.0
0.0 0.0 0.0

4.409815664907072e6 6.557881914116805e6 0.0
6.557881914116805e6 -1.4454581303075083e7 0.0
0.0 0.0 0.0

-1.1774101959523272e7 1.4584494664095037e7 0.0
1.4584494664095037e7 2.253382620803781e6 0.0
0.0 0.0 0.0

-7.610033954102558e6 1.1779016574816061e7 0.0
1.1779016574816061e7 8.082644911091905e6 0.0
0.0 0.0 0.0

-4.646450953461897e6 1.5153341753797058e7 0.0
1.5153341753797058e7 802525.4066751515 0.0
0.0 0.0 0.0

335168.54452122643 1.1617059554376611e7 0.0
1.1617059554376611e7 2.5246201262917374e6 0.0
0.0 0.0 0.0

2.952784468911258e6 8.52253807272794e6 0.0
8.52253807272794e6 2.516316531601346e6 0.0
0.0 0.0 0.0

-8.381928664199306e6 1.5203144138418306e7 0.0
1.5203144138418306e7 3.2751831948489076e6 0.0
0.0 0.0 0.0

-1.1619575762564959e7 394829.114554305 0.0
394829.114554305 2.0854979856068395e7 0.0
0.0 0.0 0.0

-5.253503164912732e6 1.411492437960261e7 0.0
1.411492437960261e7 5.101920397836716e6 0.0
0.0 0.0 0.0

-86235.51470332197 1.367810911383266e7 0.0
1.367810911383266e7 -5.694451009932897e6 0.0
0.0 0.0 0.0

-8.237583560132245e6 9.941239978683181e6 0.0
9.941239978683181e6 1.123757704224259e7 0.0
0.0 0.0 0.0

-5.8717792315573925e6 -213241.7248787379 0.0
-213241.7248787379 7.104491821550798e6 0.0
0.0 0.0 0.0

-5.829141023801601e6 1.5419250105776757e7 0.0
1.5419250105776757e7 2.0850808449215544e6 0.0
0.0 0.0 0.0

3.0773093022704534e6 8.336018538324919e6 0.0
8.336018538324919e6 -1.3181834489965983e7 0.0
0.0 0.0 0.0

-3.3730422285913187e6 1.5414716939021558e7 0.0
1.5414716939021558e7 -1.5191062321882849e6 0.0
0.0 0.0 0.0

4.619687095377126e6 6.867018222906935e6 0.0
6.867018222906935e6 -1.3930561181359358e7 0.0
0.0 0.0 0.0

-285259.6877579028 1.2190337117031686e7 0.0
1.2190337117031686e7 4.248157617849493e6 0.0
0.0 0.0 0.0

-2.658688261754545e6 1.2532726142238213e7 0.0
1.2532726142238213e7 -3.0629161590397293e6 0.0
0.0 0.0 0.0

-2.4109016923170034e6 3.5610068732867776e6 0.0
3.5610068732867776e6 977727.516016238 0.0
0.0 0.0 0.0

-46103.57004877599 8.817403285656022e6 0.0
8.817403285656022e6 -6.162852006776173e6 0.0
0.0 0.0 0.0

4.879239648727075e6 6.183136346513256e6 0.0
6.183136346513256e6 -1.3879718199506141e7 0.0
0.0 0.0 0.0

259392.206805998 1.632284223885265e7 0.0
1.632284223885265e7 -5.591862412383618e6 0.0
0.0 0.0 0.0

1.8512076702421517e6 6.470508960769837e6 0.0
6.470508960769837e6 -7.747960454273199e6 0.0
0.0 0.0 0.0

-5.925549914354317e6 3.854126001344091e6 0.0
3.854126001344091e6 5.259545836835874e6 0.0
0.0 0.0 0.0

-6.701779852281371e6 1.5087352921365041e7 0.0
1.5087352921365041e7 5.177595871748395e6 0.0
0.0 0.0 0.0

2.2823196940007387e6 1.0061885155728022e7 0.0
1.0061885155728022e7 -1.4772387386771902e7 0.0
0.0 0.0 0.0

-2.3820815977487485e6 9.287502722116191e6 0.0
9.287502722116191e6 -7.940272060631757e6 0.0
0.0 0.0 0.0

460256.42370651057 1.1260131943283072e7 0.0
1.1260131943283072e7 1.5341881419285578e6 0.0
0.0 0.0 0.0

-1.6158554269646374e6 8.336248521198159e6 0.0
8.336248521198159e6 -1.2710443068065397e6 0.0
0.0 0.0 0.0

-3.7234298161734194e6 8.825684585802875e6 0.0
8.825684585802875e6 1.0751579834100287e6 0.0
0.0 0.0 0.0

-1.3101293353790962e6 1.2631203351586165e7 0.0
1.2631203351586165e7 4.336152246658503e6 0.0
0.0 0.0 0.0

-4.24617767378369e6 1.342260400103653e6 0.0
1.342260400103653e6 6.1752908781916825e6 0.0
0.0 0.0 0.0

632083.666293054 1.0562660527271684e7 0.0
1.0562660527271684e7 37441.93752526204 0.0
0.0 0.0 0.0

-6.9398486391884675e6 1.3023467709195185e7 0.0
1.3023467709195185e7 7.14957484592641e6 0.0
0.0 0.0 0.0

1.5187873095203568e6 6.449070649188006e6 0.0
6.449070649188006e6 -7.178215790296573e6 0.0
0.0 0.0 0.0

-9.77604426754704e6 1.0769994457170207e6 0.0
1.0769994457170207e6 1.0655216185492948e7 0.0
0.0 0.0 0.0

-1.976573404681674e6 1.3690263825505165e7 0.0
1.3690263825505165e7 -908149.525360174 0.0
0.0 0.0 0.0

-8.535125686865292e6 1.0294724498740282e7 0.0
1.0294724498740282e7 1.0235839622321833e7 0.0
0.0 0.0 0.0

-2.0416536754581176e6 1.2503889803991752e7 0.0
1.2503889803991752e7 4.0389680889368323e6 0.0
0.0 0.0 0.0

-9.616100881594248e6 3.035339799785321e6 0.0
3.035339799785321e6 1.2598780714667723e7 0.0
0.0 0.0 0.0

-1.205174237619912e6 1.3581673372652432e7 0.0
1.3581673372652432e7 -5.60445993859221e6 0.0
0.0 0.0 0.0

-6.688811603568425e6 1.5190334370187782e7 0.0
1.5190334370187782e7 6.284876477471044e6 0.0
0.0 0.0 0.0

-1.1526072954896666e7 3.3059111336373426e6 0.0
3.3059111336373426e6 1.841933428490589e7 0.0
0.0 0.0 0.0

-3.8666934444242073e6 6.793957013170229e6 0.0
6.793957013170229e6 1.7074092947030049e6 0.0
0.0 0.0 0.0

-1.1426971572832488e7 -2.1681761218939535e6 0.0
-2.1681761218939535e6 1.634860987185001e7 0.0
0.0 0.0 0.0

-129303.91144706355 1.1432206659360787e7 0.0
1.1432206659360787e7 -8.11269550538036e6 0.0
0.0 0.0 0.0

-5.672676604702776e6 1.4268630234739369e7 0.0
1.4268630234739369e7 5.797781593080036e6 0.0
0.0 0.0 0.0

-998525.8180136904 1.2943073009140652e7 0.0
1.2943073009140652e7 -811905.264382208 0.0
0.0 0.0 0.0

2.3216777320865947e6 7.095732516011954e6 0.0
7.095732516011954e6 -8.007633243125194e6 0.0
0.0 0.0 0.0

-7.680257602200805e6 -1.4152302890581922e6 0.0
-1.4152302890581922e6 1.1299922132841855e7 0.0
0.0 0.0 0.0

-1.0861649176684614e7 1.0054655553128934e7 0.0
1.0054655553128934e7 1.8508013422136083e7 0.0
0.0 0.0 0.0

-1.1484800935308862e7 6.088203185771607e6 0.0
6.088203185771607e6 2.0077183116815936e7 0.0
0.0 0.0 0.0

-2.8963399582711766e6 1.0125650551396256e7 0.0
1.0125650551396256e7 4.1026702983861393e6 0.0
0.0 0.0 0.0

-1.0427417331447285e7 2.2360242270605066e6 0.0
2.2360242270605066e6 1.148896264266942e7 0.0
0.0 0.0 0.0

-3.118916852054742e6 8.777888930460902e6 0.0
8.777888930460902e6 1.0344232785184325e6 0.0
0.0 0.0 0.0

-2.337404924512528e6 1.1609824549187839e7 0.0
1.1609824549187839e7 -1.7852794281675485e6 0.0
0.0 0.0 0.0

-232401.20755332755 1.0231041544109134e7 0.0
1.0231041544109134e7 -6.4480990852394495e6 0.0
0.0 0.0 0.0

-5.136702847883513e6 1.3561476359349877e7 0.0
1.3561476359349877e7 6.246954455743189e6 0.0
0.0 0.0 0.0

-7.924134753640002e6 1.640380056234038e7 0.0
1.640380056234038e7 6.883188688333143e6 0.0
0.0 0.0 0.0

-1.206877808254226e7 5.140231809761923e6 0.0
5.140231809761923e6 1.486032559611348e7 0.0
0.0 0.0 0.0

1.1711030471646346e6 1.1765537011454387e7 0.0
1.1765537011454387e7 4.451844505257364e6 0.0
0.0 0.0 0.0

1.2567684560953449e6 1.1517469674849752e7 0.0
1.1517469674849752e7 -7.002024251199467e6 0.0
0.0 0.0 0.0

2.46278362744413e6 8.47823649749096e6 0.0
8.47823649749096e6 -1.0168767329567883e7 0.0
0.0 0.0 0.0

5.016053787910095e6 5.517972417162506e6 0.0
5.517972417162506e6 -1.4559390504675739e7 0.0
0.0 0.0 0.0

-8.870647958205238e6 -4.0465459149403605e6 0.0
-4.0465459149403605e6 1.3870590518380933e7 0.0
0.0 0.0 0.0

-5.265306750020385e6 1.3449966088919578e7 0.0
1.3449966088919578e7 5.898778313700974e6 0.0
0.0 0.0 0.0

-8.467946817210607e6 8.972189997520257e6 0.0
8.972189997520257e6 1.3640167961983893e7 0.0
0.0 0.0 0.0

-9.608565616101502e6 1.1924575328843223e7 0.0
1.1924575328843223e7 2.997064437089021e7 0.0
0.0 0.0 0.0

-242511.33041914832 9.740120967346517e6 0.0
9.740120967346517e6 -6.013354610413035e6 0.0
0.0 0.0 0.0

850637.3005850712 1.1814996417516153e7 0.0
1.1814996417516153e7 2.835457931436762e6 0.0
0.0 0.0 0.0

-7.211722035545202e6 -413670.66582267964 0.0
-413670.66582267964 7.823480715526022e6 0.0
0.0 0.0 0.0

-1.2761345798070215e7 -3.5064274587660413e6 0.0
-3.5064274587660413e6 5.492019195678275e6 0.0
0.0 0.0 0.0

2.8751999612636045e6 7.92771183404784e6 0.0
7.92771183404784e6 -1.2029018123763744e7 0.0
0.0 0.0 0.0

-6.575274916607568e6 2.3653968690028377e6 0.0
2.3653968690028377e6 6.301428966398342e6 0.0
0.0 0.0 0.0

2.952229300036081e6 8.69179333823007e6 0.0
8.69179333823007e6 -1.3377267125921343e7 0.0
0.0 0.0 0.0

-1.0551124327568471e7 9.146757910264803e6 0.0
9.146757910264803e6 1.4530119430670805e7 0.0
0.0 0.0 0.0

3.962477290096327e6 5.837050326860724e6 0.0
5.837050326860724e6 -1.0556604838338032e7 0.0
0.0 0.0 0.0

-1.4827012316181592e6 1.6874613955746472e7 0.0
1.6874613955746472e7 -4.437583129997586e6 0.0
0.0 0.0 0.0

-1.5083306297615794e6 8.824266929644978e6 0.0
8.824266929644978e6 -1.7161738340042178e6 0.0
0.0 0.0 0.0

768635.9604846144 5.863375046553558e6 0.0
5.863375046553558e6 -3.922678210725073e6 0.0
0.0 0.0 0.0

1.2794238604473213e7 6.036535688708731e6 0.0
6.036535688708731e6 -3.4077450481072534e6 0.0
0.0 0.0 0.0

-1.007942594895805e7 1.0140203757891398e7 0.0
1.0140203757891398e7 1.2925439063268783e7 0.0
0.0 0.0 0.0

-166579.20057696104 7.604361269949984e6 0.0
7.604361269949984e6 -4.385012218557151e6 0.0
0.0 0.0 0.0

-1.1474077567059718e7 -794084.7386901984 0.0
-794084.7386901984 1.5476631909452923e7 0.0
0.0 0.0 0.0

1.3393988657119917e6 5.583402541788474e6 0.0
5.583402541788474e6 -6.002430856256742e6 0.0
0.0 0.0 0.0

-1.6742365612132428e6 1.3427667548280826e7 0.0
1.3427667548280826e7 -1.0059474848781733e6 0.0
0.0 0.0 0.0

-7.1649206909751855e6 1.2051744122619728e7 0.0
1.2051744122619728e7 8.537515053617712e6 0.0
0.0 0.0 0.0

-5.336185021327369e6 4.384421672017587e6 0.0
4.384421672017587e6 5.987814889455676e6 0.0
0.0 0.0 0.0

3.2651787309904797e6 7.371117754197191e6 0.0
7.371117754197191e6 -1.2265428394481024e7 0.0
0.0 0.0 0.0

-310760.2773553035 1.1303558383736849e7 0.0
1.1303558383736849e7 -1.2881049842104414e7 0.0
0.0 0.0 0.0

-1.0369560726732484e6 6.777901257980617e6 0.0
6.777901257980617e6 -1.9144585508847542e6 0.0
0.0 0.0 0.0

3.276026965897752e6 5.700689056068323e6 0.0
5.700689056068323e6 -9.685664983812856e6 0.0
0.0 0.0 0.0

-1.3683483193681529e6 1.128448076802848e7 0.0
1.128448076802848e7 -5.22475251760243e6 0.0
0.0 0.0 0.0

5.779274274485361e6 1.1403999096374916e7 0.0
1.1403999096374916e7 -2.932012131606228e6 0.0
0.0 0.0 0.0

5.088245778947125e6 6.557356028907661e6 0.0
6.557356028907661e6 -1.489516846608179e7 0.0
0.0 0.0 0.0

-2.835938167729807e6 -1.8913486457755696e6 0.0
-1.8913486457755696e6 303994.4791613573 0.0
0.0 0.0 0.0

-7.61581069707877e6 1.0806459096295858e7 0.0
1.0806459096295858e7 9.960413998525761e6 0.0
0.0 0.0 0.0

-621439.1740894646 7.019513895302315e6 0.0
7.019513895302315e6 -2.400477711911544e6 0.0
0.0 0.0 0.0

-6.66934564630709e6 3.5612587263373113e6 0.0
3.5612587263373113e6 8.668125232532853e6 0.0
0.0 0.0 0.0

5.261251823566434e6 6.846196387023769e6 0.0
6.846196387023769e6 -1.6602344430313434e7 0.0
0.0 0.0 0.0

1.4884263479019778e6 1.2068021220384652e7 0.0
1.2068021220384652e7 4.9614211630964475e6 0.0
0.0 0.0 0.0

-1.4202840718229837e6 1.2671264250098689e7 0.0
1.2671264250098689e7 7.265185747028994e6 0.0
0.0 0.0 0.0

-784363.8471334097 1.0780799458314812e7 0.0
1.0780799458314812e7 -1.0212011222593758e7 0.0
0.0 0.0 0.0

-345905.9080061619 9.076222338690817e6 0.0
9.076222338690817e6 -5.312671683607768e6 0.0
0.0 0.0 0.0

-6.747872979039894e6 1.25994497294296e7 0.0
1.25994497294296e7 8.0437360949592255e6 0.0
0.0 0.0 0.0

3.523624807903218e6 1.1842042768714873e7 0.0
1.1842042768714873e7 -3.957789057004694e6 0.0
0.0 0.0 0.0

2.4924389370441553e6 8.480071615723012e6 0.0
8.480071615723012e6 -1.177274334641689e7 0.0
0.0 0.0 0.0

-6.376027425030237e6 1.659071403033301e7 0.0
1.659071403033301e7 2.5306364796728515e6 0.0
0.0 0.0 0.0

-645649.9698794992 8.706221257011537e6 0.0
8.706221257011537e6 -129962.18186236845 0.0
0.0 0.0 0.0

-3.3703845353412285e7 -1.4259705771021391e6 0.0
-1.4259705771021391e6 1.0571158529304104e7 0.0
0.0 0.0 0.0

2.197756332773081e7 6.266885383934868e6 0.0
6.266885383934868e6 -4.528625374035237e6 0.0
0.0 0.0 0.0

-373864.1914051962 1.0563061860434568e7 0.0
1.0563061860434568e7 2.9512101731706997e6 0.0
0.0 0.0 0.0

-7.543476279899863e6 1.6491463797707339e6 0.0
1.6491463797707339e6 1.882831899607717e7 0.0
0.0 0.0 0.0

-1.560045045751084e6 1.2459032217602905e7 0.0
1.2459032217602905e7 3.851582413558678e6 0.0
0.0 0.0 0.0

-3.8193447022346254e6 1.493594309318098e7 0.0
1.493594309318098e7 -2.4496295843467047e6 0.0
0.0 0.0 0.0

1.1060106245442429e6 1.2440675235266786e7 0.0
1.2440675235266786e7 3.686702836419904e6 0.0
0.0 0.0 0.0

-4.544319629355305e6 4.302676261219264e6 0.0
4.302676261219264e6 4.817551119838129e6 0.0
0.0 0.0 0.0

-5.974594001357823e6 1.1497629988839544e7 0.0
1.1497629988839544e7 5.426801202886651e6 0.0
0.0 0.0 0.0

-2.5253883452014003e7 1.748459045097754e7 0.0
1.748459045097754e7 5.772670583428627e6 0.0
0.0 0.0 0.0

3.8274102836014763e6 6.00622903641771e6 0.0
6.00622903641771e6 -1.1419243063355299e7 0.0
0.0 0.0 0.0

-1.0490418300369806e6 1.3106999879234497e7 0.0
1.3106999879234497e7 -1.0644188992927142e6 0.0
0.0 0.0 0.0

1.3498939260276027e6 1.1690422097245207e7 0.0
1.1690422097245207e7 5.635637504693458e6 0.0
0.0 0.0 0.0

-2.770861649798752e6 1.0115438101469422e7 0.0
1.0115438101469422e7 -9.23620550705036e6 0.0
0.0 0.0 0.0

744774.3604318012 1.1624363943640592e7 0.0
1.1624363943640592e7 2.4825813714029174e6 0.0
0.0 0.0 0.0

2.361409105995345e6 1.0105242359790927e7 0.0
1.0105242359790927e7 -1.4369307131649695e7 0.0
0.0 0.0 0.0

-7.390825121241597e6 693455.9258422798 0.0
693455.9258422798 9.170447679879911e6 0.0
0.0 0.0 0.0

-1.0370597091589719e7 1.403165012947278e7 0.0
1.403165012947278e7 8.683269891131984e6 0.0
0.0 0.0 0.0

1.8907484245087262e6 6.79486963458043e6 0.0
6.79486963458043e6 -7.907156009885196e6 0.0
0.0 0.0 0.0

-9.800555992997583e6 1.0338839188942855e7 0.0
1.0338839188942855e7 1.2140510770578144e7 0.0
0.0 0.0 0.0

-4.185609302915099e6 3.584292773663638e6 0.0
3.584292773663638e6 2.7184744749913737e6 0.0
0.0 0.0 0.0

-7.6971507818079125e6 1.6110877308343096e7 0.0
1.6110877308343096e7 6.778448082693317e6 0.0
0.0 0.0 0.0

-1.2861808804996444e7 1.5871222275131427e7 0.0
1.5871222275131427e7 9.489341994240217e6 0.0
0.0 0.0 0.0

-1.5671086804300728e6 -2.7775520524165817e6 0.0
-2.7775520524165817e6 1.8832861877049007e6 0.0
0.0 0.0 0.0

-814595.4790606303 9.355792943698358e6 0.0
9.355792943698358e6 -7.090240883070325e6 0.0
0.0 0.0 0.0

-3.0353546127623026e6 1.4416788331331104e7 0.0
1.4416788331331104e7 -2.184740838064263e6 0.0
0.0 0.0 0.0

-697571.9770647894 5.862530124866054e6 0.0
5.862530124866054e6 -1.574693992823153e6 0.0
0.0 0.0 0.0

-2.7483721150030405e6 1.7083631490256622e7 0.0
1.7083631490256622e7 -3.420494875801168e6 0.0
0.0 0.0 0.0

-5.078841156220844e6 3.749363634197079e6 0.0
3.749363634197079e6 4.0185553575434983e6 0.0
0.0 0.0 0.0

4.198960359274567e6 6.144732327404074e6 0.0
6.144732327404074e6 -1.2886626024171188e7 0.0
0.0 0.0 0.0

3.751963625678096e6 6.364271196944998e6 0.0
6.364271196944998e6 -1.191385532775376e7 0.0
0.0 0.0 0.0

410566.142893326 9.124385015695117e6 0.0
9.124385015695117e6 -6.76890223649632e6 0.0
0.0 0.0 0.0

-1.4774835510153086e6 1.3492165435974378e7 0.0
1.3492165435974378e7 -5.464795394022039e6 0.0
0.0 0.0 0.0

5.4492976399393575e6 6.623505823127646e6 0.0
6.623505823127646e6 -1.717250346018816e7 0.0
0.0 0.0 0.0

-4.312827536369814e6 1.3854123597004436e7 0.0
1.3854123597004436e7 154601.07304590102 0.0
0.0 0.0 0.0

881585.1323588006 1.0563143832804149e7 0.0
1.0563143832804149e7 -9.684459101819215e6 0.0
0.0 0.0 0.0

-9.514687032292485e6 8.962303380849868e6 0.0
8.962303380849868e6 1.1275111007669011e7 0.0
0.0 0.0 0.0

-3.449820482706643e6 1.4420994970784646e7 0.0
1.4420994970784646e7 315069.2216839141 0.0
0.0 0.0 0.0

3.077433137560723e6 8.27206093726986e6 0.0
8.27206093726986e6 -1.14472204630357e7 0.0
0.0 0.0 0.0

-1.9255608260126676e7 7.729608731279215e6 0.0
7.729608731279215e6 1.0493512931626663e7 0.0
0.0 0.0 0.0

4.404621913011398e6 5.873439238613419e6 0.0
5.873439238613419e6 -1.3245202045315024e7 0.0
0.0 0.0 0.0

4.167995306834452e6 6.40325518820081e6 0.0
6.40325518820081e6 -1.1864079163324215e7 0.0
0.0 0.0 0.0

-1.0626451212491663e6 1.2339274316092443e7 0.0
1.2339274316092443e7 -5.822281210859851e6 0.0
0.0 0.0 0.0

-8.322928005659182e6 -2.814656338356899e6 0.0
-2.814656338356899e6 2.81508936085139e6 0.0
0.0 0.0 0.0

779420.7607265529 7.656275780118809e6 0.0
7.656275780118809e6 -5.330713547388367e6 0.0
0.0 0.0 0.0

-7.653391738710123e6 9.695280974579705e6 0.0
9.695280974579705e6 1.5853447092359688e7 0.0
0.0 0.0 0.0

-6.995331733722493e6 1.568676792099909e7 0.0
1.568676792099909e7 6.262032278609812e6 0.0
0.0 0.0 0.0

-8.21796768494739e6 1.6201368457669131e7 0.0
1.6201368457669131e7 7.163205317571262e6 0.0
0.0 0.0 0.0

-5.705055953222785e6 4.458999080514052e6 0.0
4.458999080514052e6 4.684929617948003e6 0.0
0.0 0.0 0.0

-1.0835485027201371e7 8.306680111895612e6 0.0
8.306680111895612e6 2.9556671521853007e7 0.0
0.0 0.0 0.0

-6.838981748585448e6 1.5899825159848876e7 0.0
1.5899825159848876e7 5.89791491393318e6 0.0
0.0 0.0 0.0

-1.5641418412923296e6 1.3080493245505052e7 0.0
1.3080493245505052e7 -602190.9086959115 0.0
0.0 0.0 0.0

1.320833105174779e6 1.0670023289466351e7 0.0
1.0670023289466351e7 -5.460561967598133e6 0.0
0.0 0.0 0.0

7.1136841822224185e6 1.2090900576506421e7 0.0
1.2090900576506421e7 3.861282807248358e6 0.0
0.0 0.0 0.0

-5.101076562113697e6 4.980629208705619e6 0.0
4.980629208705619e6 5.455695841902759e6 0.0
0.0 0.0 0.0

4.62257455067019e6 5.893139803338515e6 0.0
5.893139803338515e6 -1.2509669668407796e7 0.0
0.0 0.0 0.0

-1.1256452846998742e6 1.1605561659676302e7 0.0
1.1605561659676302e7 -4.71550510720372e6 0.0
0.0 0.0 0.0

-2.331287243193426e6 9.327131063515756e6 0.0
9.327131063515756e6 -503675.19106434344 0.0
0.0 0.0 0.0

-1.0651384221922617e7 5.516944858021832e6 0.0
5.516944858021832e6 6.157691293475412e6 0.0
0.0 0.0 0.0

-9.048904219722241e6 -1.4085480552242182e6 0.0
-1.4085480552242182e6 1.3933184509402053e7 0.0
0.0 0.0 0.0

-3.6756027765101336e7 2.5547808881557785e7 0.0
2.5547808881557785e7 32419.085515441373 0.0
0.0 0.0 0.0

-3.2690888192256866e6 1.123818353655085e7 0.0
1.123818353655085e7 -1.0896962718616432e7 0.0
0.0 0.0 0.0

1.215208804185679e6 1.1991754469452383e7 0.0
1.1991754469452383e7 4.050696434681687e6 0.0
0.0 0.0 0.0

1.4465944408235052e6 1.0115845416640483e7 0.0
1.0115845416640483e7 -1.0845468496302478e7 0.0
0.0 0.0 0.0

-1.0049808141046323e7 1.2138069365347778e7 0.0
1.2138069365347778e7 6.575769745591429e6 0.0
0.0 0.0 0.0

2.0824951224166607e6 7.087618352738576e6 0.0
7.087618352738576e6 -7.427697259244644e6 0.0
0.0 0.0 0.0

3.4369837446899065e6 7.711207482433e6 0.0
7.711207482433e6 -1.169019336015522e7 0.0
0.0 0.0 0.0

-7.335888648865612e6 1.1717113970044503e7 0.0
1.1717113970044503e7 9.009470618621167e6 0.0
0.0 0.0 0.0

2.1898107758119605e6 8.735898966719856e6 0.0
8.735898966719856e6 -1.1246625090852367e7 0.0
0.0 0.0 0.0

-7.307792545218656e6 1.5918698164760828e7 0.0
1.5918698164760828e7 6.528620239817142e6 0.0
0.0 0.0 0.0

-1.1466617078494754e7 1.0930590712900476e6 0.0
1.0930590712900476e6 1.4100364146183986e7 0.0
0.0 0.0 0.0

-4.965246327255063e6 751549.480802829 0.0
751549.480802829 6.643593903255532e6 0.0
0.0 0.0 0.0

3.3305899421905745e6 7.075451913019025e6 0.0
7.075451913019025e6 -1.1989687228321603e7 0.0
0.0 0.0 0.0

-4.146959187761379e6 1.4196705124097772e7 0.0
1.4196705124097772e7 -95420.24825674342 0.0
0.0 0.0 0.0

-6.427693598554972e6 1.856387207040172e7 0.0
1.856387207040172e7 818042.2793723731 0.0
0.0 0.0 0.0

-8.250314477894216e6 9.83323111132061e6 0.0
9.83323111132061e6 1.084472332640327e7 0.0
0.0 0.0 0.0

3.9109584939458333e6 6.621689948392696e6 0.0
6.621689948392696e6 -1.2799514129035443e7 0.0
0.0 0.0 0.0

5.042813977864088e6 6.738974185937304e6 0.0
6.738974185937304e6 -1.5660132349217176e7 0.0
0.0 0.0 0.0

-1.283535815792135e7 6.637020559556637e6 0.0
6.637020559556637e6 2.2265985703997344e7 0.0
0.0 0.0 0.0

-1.0869386914168295e7 1.5961456671284088e6 0.0
1.5961456671284088e6 1.4531758148426237e7 0.0
0.0 0.0 0.0

-3.5816971055621887e6 1.6958930941970058e7 0.0
1.6958930941970058e7 -2.565513799146685e6 0.0
0.0 0.0 0.0

-3.672542835901667e6 1.261221353241536e7 0.0
1.261221353241536e7 431349.84270714317 0.0
0.0 0.0 0.0

-1.0648937676615685e7 -277806.89352813835 0.0
-277806.89352813835 1.6472623610332668e7 0.0
0.0 0.0 0.0

2.2527509286691933e6 5.3938850155890295e6 0.0
5.3938850155890295e6 -8.31253385993834e6 0.0
0.0 0.0 0.0

-4.923527311233567e6 1.2437792558259964e7 0.0
1.2437792558259964e7 1.5172047126183594e6 0.0
0.0 0.0 0.0

-6.49413284749394e6 1.3223379101177907e7 0.0
1.3223379101177907e7 80563.97496387875 0.0
0.0 0.0 0.0

-3.203457465341697e6 6.124737771527244e6 0.0
6.124737771527244e6 1.191187398744057e6 0.0
0.0 0.0 0.0

4.337802529044753e6 6.397072702799943e6 0.0
6.397072702799943e6 -1.245718408547658e7 0.0
0.0 0.0 0.0

1.8863299775317204e6 8.663323263051009e6 0.0
8.663323263051009e6 -1.0426892808347026e7 0.0
0.0 0.0 0.0

-2.3163355002969615e6 2.9572240362128047e6 0.0
2.9572240362128047e6 1.210346699019864e6 0.0
0.0 0.0 0.0

-8.792058051702594e6 3.9549945393044665e6 0.0
3.9549945393044665e6 1.1922545421280634e7 0.0
0.0 0.0 0.0

2.2567529760487536e6 1.0123416775984319e7 0.0
1.0123416775984319e7 -1.3749609168927772e7 0.0
0.0 0.0 0.0

4.185060754194433e6 6.202725252747838e6 0.0
6.202725252747838e6 -1.1663294078412639e7 0.0
0.0 0.0 0.0

-3.8979459346238375e6 1.2499070373832379e7 0.0
1.2499070373832379e7 -288934.2066675365 0.0
0.0 0.0 0.0

3.8215413063512426e6 7.158339599387437e6 0.0
7.158339599387437e6 -1.1932165822645953e7 0.0
0.0 0.0 0.0

-2.193349245597355e6 3.379536195617356e6 0.0
3.379536195617356e6 1.7858538858157522e6 0.0
0.0 0.0 0.0

-4.020478991316658e6 1.2610120603700599e7 0.0
1.2610120603700599e7 -1.340159747546082e7 0.0
0.0 0.0 0.0

2.7233448575685443e6 1.2478985667376572e7 0.0
1.2478985667376572e7 9.077818193199364e6 0.0
0.0 0.0 0.0

948508.6574656153 1.0178876775082668e7 0.0
1.0178876775082668e7 -2.3484587806132725e6 0.0
0.0 0.0 0.0

-1.0492482632891122e7 -4.2939916260270495e6 0.0
-4.2939916260270495e6 6.708984494411174e6 0.0
0.0 0.0 0.0

-1.6174481868864116e6 2.882146940042523e6 0.0
2.882146940042523e6 1.2657403265541226e6 0.0
0.0 0.0 0.0

1.7596731669825397e6 1.3182603632135732e7 0.0
1.3182603632135732e7 5.865574753040654e6 0.0
0.0 0.0 0.0

-856382.8901160754 9.405450752649372e6 0.0
9.405450752649372e6 -2.854609313244545e6 0.0
0.0 0.0 0.0

-1.0641580678340402e7 8.920308340667237e6 0.0
8.920308340667237e6 3.3139094736055937e7 0.0
0.0 0.0 0.0

3.637359850113325e6 6.860941203246293e6 0.0
6.860941203246293e6 -1.2432949524149451e7 0.0
0.0 0.0 0.0

-3.327048335037386e6 1.4250933122235853e7 0.0
1.4250933122235853e7 -3.220636124538444e6 0.0
0.0 0.0 0.0

-1.1456316769271833e6 1.142484375769229e7 0.0
1.142484375769229e7 -1.2084410858833523e7 0.0
0.0 0.0 0.0

-6.805979432454113e6 1.517775751231199e7 0.0
1.517775751231199e7 5.65774742910933e6 0.0
0.0 0.0 0.0

-4.0414399243909414e6 1.3291390634941805e7 0.0
1.3291390634941805e7 3.3062479153125365e6 0.0
0.0 0.0 0.0

-5.688337189369662e6 1.5517061744071342e7 0.0
1.5517061744071342e7 1.4872467759813967e6 0.0
0.0 0.0 0.0

-2.6401280277823443e6 1.2523418054957537e7 0.0
1.2523418054957537e7 -1.3542826267760145e7 0.0
0.0 0.0 0.0

-4.1638472537112744e6 1.6734255377917917e7 0.0
1.6734255377917917e7 -1.865854156866068e6 0.0
0.0 0.0 0.0

-1.1056009419639952e7 8.8597192714806e6 0.0
8.8597192714806e6 1.2935636463540327e7 0.0
0.0 0.0 0.0

1.6618868785938732e6 7.291752965514173e6 0.0
7.291752965514173e6 -7.751485922831125e6 0.0
0.0 0.0 0.0

3.682662259008729e6 6.598476221584355e6 0.0
6.598476221584355e6 -1.2168862504120579e7 0.0
0.0 0.0 0.0

-2.4408299458737085e6 1.3909057381571867e7 0.0
1.3909057381571867e7 -4.499698435266518e6 0.0
0.0 0.0 0.0

-1.762103820585241e6 9.608700960544541e6 0.0
9.608700960544541e6 -2.942519209825038e6 0.0
0.0 0.0 0.0

3.4074394840314537e6 8.045816613662002e6 0.0
8.045816613662002e6 -1.367839561349897e7 0.0
0.0 0.0 0.0

-6.556824589185065e6 1.4587720655238125e7 0.0
1.4587720655238125e7 5.576559320568016e6 0.0
0.0 0.0 0.0

-2.6138004234574637e6 1.0263560580600306e7 0.0
1.0263560580600306e7 -506247.35010716144 0.0
0.0 0.0 0.0

-36674.96171835088 1.0065868095169073e7 0.0
1.0065868095169073e7 -5.522554952840676e6 0.0
0.0 0.0 0.0

3.0524063579275906e6 9.286779315400783e6 0.0
9.286779315400783e6 -1.3314568271562759e7 0.0
0.0 0.0 0.0

-4.718881902636285e6 1.6001547715953616e7 0.0
1.6001547715953616e7 -1.0141949418226483e6 0.0
0.0 0.0 0.0

-744041.0235000068 1.0946543751681827e7 0.0
1.0946543751681827e7 -4.853330335989575e6 0.0
0.0 0.0 0.0

104900.91361151123 8.438021857760655e6 0.0
8.438021857760655e6 -4.854240636121361e6 0.0
0.0 0.0 0.0

9.626253198504798e6 6.102949639115508e6 0.0
6.102949639115508e6 -2.9284701724993736e6 0.0
0.0 0.0 0.0

-4.285010085434664e6 1.0669721205813829e7 0.0
1.0669721205813829e7 2.4202701422031177e6 0.0
0.0 0.0 0.0

-2.395028126754548e6 6.091315201724099e6 0.0
6.091315201724099e6 1.0685390175817113e6 0.0
0.0 0.0 0.0

-8.019288709176694e6 -306935.08844430704 0.0
-306935.08844430704 1.0797429285663933e7 0.0
0.0 0.0 0.0

4.1922424331280207e6 5.89187548627668e6 0.0
5.89187548627668e6 -1.1242319051182818e7 0.0
0.0 0.0 0.0

2.7233104734031637e6 6.31779121072128e6 0.0
6.31779121072128e6 -8.657172171713222e6 0.0
0.0 0.0 0.0

3.9215593024143577e6 6.222690462155104e6 0.0
6.222690462155104e6 -1.1044789762411304e7 0.0
0.0 0.0 0.0

-339353.6415288537 1.0854716929415125e7 0.0
1.0854716929415125e7 -1.0133133070843564e7 0.0
0.0 0.0 0.0

-4.498847494238732e6 1.6391202899431212e7 0.0
1.6391202899431212e7 -1.3626196536984486e6 0.0
0.0 0.0 0.0

-1.0832944102929883e7 8.997739684495483e6 0.0
8.997739684495483e6 1.2069695186010037e7 0.0
0.0 0.0 0.0

-4.960050911370199e6 1.076740585588269e7 0.0
1.076740585588269e7 2.320225386999986e6 0.0
0.0 0.0 0.0

3.5047739585439726e6 6.374543971533279e6 0.0
6.374543971533279e6 -1.1282529372804428e7 0.0
0.0 0.0 0.0

-3.293460134699215e6 3.436659040745945e6 0.0
3.436659040745945e6 1.8227492635060123e6 0.0
0.0 0.0 0.0

-9.291730943155508e6 9.593339415591968e6 0.0
9.593339415591968e6 1.0691595493461547e7 0.0
0.0 0.0 0.0

-525008.1703255787 1.2337114628907796e7 0.0
1.2337114628907796e7 -6.64670767332423e6 0.0
0.0 0.0 0.0

1.5990075685033295e6 1.1488976674334126e7 0.0
1.1488976674334126e7 -5.936048170477131e6 0.0
0.0 0.0 0.0

-6.6823371738869725e6 1.519000756260832e7 0.0
1.519000756260832e7 6.070664940111938e6 0.0
0.0 0.0 0.0

1.3937994342417903e6 1.0419836905352805e7 0.0
1.0419836905352805e7 -9.47604036726639e6 0.0
0.0 0.0 0.0

3.889470132134993e6 6.63295179461962e6 0.0
6.63295179461962e6 -1.1473746841746219e7 0.0
0.0 0.0 0.0

3.489803323165484e6 6.5658376757456185e6 0.0
6.5658376757456185e6 -1.1513037462084038e7 0.0
0.0 0.0 0.0

1.227889283365203e6 6.684669845991932e6 0.0
6.684669845991932e6 -6.778771971322527e6 0.0
0.0 0.0 0.0

3.397465003577984e6 6.808176042969039e6 0.0
6.808176042969039e6 -1.1747811821218971e7 0.0
0.0 0.0 0.0

3.432967203766372e6 6.225923352537119e6 0.0
6.225923352537119e6 -9.935000556100903e6 0.0
0.0 0.0 0.0

-1.0362496338352118e7 1.6412075552415788e7 0.0
1.6412075552415788e7 8.523985269020554e6 0.0
0.0 0.0 0.0

-4.293974056916309e6 1.76224137779988e7 0.0
1.76224137779988e7 -1.9483270673248312e6 0.0
0.0 0.0 0.0

-4.75328992058814e6 1.3632067500208281e7 0.0
1.3632067500208281e7 4.0617778274749974e6 0.0
0.0 0.0 0.0

2.8707711485928204e6 6.339818569593188e6 0.0
6.339818569593188e6 -1.0105333459208114e7 0.0
0.0 0.0 0.0

-2.6103919617594e6 1.1303435792084744e7 0.0
1.1303435792084744e7 -2.272568116256121e6 0.0
0.0 0.0 0.0

-432147.1584155468 8.181356939025965e6 0.0
8.181356939025965e6 -2.366417603599125e6 0.0
0.0 0.0 0.0

-4.975154480997119e6 1.3917875684044456e7 0.0
1.3917875684044456e7 -1.6583853620070761e7 0.0
0.0 0.0 0.0

6.150360391489804e6 1.5212865939843893e7 0.0
1.5212865939843893e7 2.050121715679975e7 0.0
0.0 0.0 0.0

3.710784581838317e6 1.227855943629935e7 0.0
1.227855943629935e7 -4.333535225894385e6 0.0
0.0 0.0 0.0

5.411664195746971e6 1.2443662194273876e7 0.0
1.2443662194273876e7 -6.989230496304405e6 0.0
0.0 0.0 0.0

4.9058659893986e6 7.444041712160691e6 0.0
7.444041712160691e6 -1.887549889600549e7 0.0
0.0 0.0 0.0

107222.65651832893 1.154937847415705e7 0.0
1.154937847415705e7 -7.360471879780121e6 0.0
0.0 0.0 0.0

-1.722324079349216e6 1.2484162484508459e7 0.0
1.2484162484508459e7 3.2479860597505476e6 0.0
0.0 0.0 0.0

-1.1596636795967396e7 440937.6232860928 0.0
440937.6232860928 1.5039662791654414e7 0.0
0.0 0.0 0.0

-1.0597408883495426e7 8.87923614614347e6 0.0
8.87923614614347e6 1.5502611610439043e7 0.0
0.0 0.0 0.0

-2.1515857779479832e6 1.3065030134753004e7 0.0
1.3065030134753004e7 2.0156523752810499e6 0.0
0.0 0.0 0.0

-1.237668781151363e6 9.514985994893767e6 0.0
9.514985994893767e6 -2.817242706026281e6 0.0
0.0 0.0 0.0

-7.729622877009442e6 1.5987336267389555e7 0.0
1.5987336267389555e7 2.106634968986428e6 0.0
0.0 0.0 0.0

-6.751741042353849e6 1.2923651956240283e7 0.0
1.2923651956240283e7 7.758478787786684e6 0.0
0.0 0.0 0.0

-3.7675853717877576e6 7.6669021778685255e6 0.0
7.6669021778685255e6 1.5757887403007024e6 0.0
0.0 0.0 0.0

-5.474535757496523e6 1.2318181289103098e7 0.0
1.2318181289103098e7 3.5287631529946127e6 0.0
0.0 0.0 0.0

4.788958055476582e6 6.927616288458555e6 0.0
6.927616288458555e6 -1.4514991144785827e7 0.0
0.0 0.0 0.0

2.5516791206879085e6 6.634993008679978e6 0.0
6.634993008679978e6 -8.238195572790195e6 0.0
0.0 0.0 0.0

-1.5598089712280582e6 1.2447355652169205e7 0.0
1.2447355652169205e7 -5.41537584297274e6 0.0
0.0 0.0 0.0

1.6295965940992772e6 8.971880000810482e6 0.0
8.971880000810482e6 -9.960995947943356e6 0.0
0.0 0.0 0.0

-1.1520663746364929e7 2.560307764852207e6 0.0
2.560307764852207e6 1.9523197043967813e7 0.0
0.0 0.0 0.0

-328267.1017254371 5.996372330260005e6 0.0
5.996372330260005e6 -1.943066801431541e6 0.0
0.0 0.0 0.0

-1.1488663384824926e7 1.9954937124465546e6 0.0
1.9954937124465546e6 2.671985137779914e7 0.0
0.0 0.0 0.0

-1.7225862078850647e6 1.1704024100646393e7 0.0
1.1704024100646393e7 -4.850170051684798e6 0.0
0.0 0.0 0.0

-5.223712397056529e6 1.3920507998658294e7 0.0
1.3920507998658294e7 5.152897991031664e6 0.0
0.0 0.0 0.0

-3.588618873863463e6 6.610606727540647e6 0.0
6.610606727540647e6 2.7129102108692834e6 0.0
0.0 0.0 0.0

-3.6901779478357546e6 1.526040563038121e7 0.0
1.526040563038121e7 -2.5736188290718393e6 0.0
0.0 0.0 0.0

-2.241229943932219e6 5.583302231026007e6 0.0
5.583302231026007e6 405244.3953997954 0.0
0.0 0.0 0.0

-7.069279770133637e6 1.2448827746670123e7 0.0
1.2448827746670123e7 7.807302679594025e6 0.0
0.0 0.0 0.0

5.200305030029259e6 1.5284345905168448e7 0.0
1.5284345905168448e7 -1.0755571520924684e7 0.0
0.0 0.0 0.0

-8.321925186714865e6 1.0522102632107127e7 0.0
1.0522102632107127e7 9.523154695251342e6 0.0
0.0 0.0 0.0

180604.07289974904 6.185556888263633e6 0.0
6.185556888263633e6 -2.2496586013576435e6 0.0
0.0 0.0 0.0

-1.6753623729738478e7 -3.8453234936831133e6 0.0
-3.8453234936831133e6 7.710260760221292e6 0.0
0.0 0.0 0.0

4.018700168578962e6 6.044271986385792e6 0.0
6.044271986385792e6 -1.193058759339769e7 0.0
0.0 0.0 0.0

-8.076151464812018e6 1.5563773216315849e7 0.0
1.5563773216315849e7 7.222443268513745e6 0.0
0.0 0.0 0.0

-1.8966104224342548e6 3.5641076443389594e6 0.0
3.5641076443389594e6 283452.3928296503 0.0
0.0 0.0 0.0

-1.8517650507852915e6 8.183117161862725e6 0.0
8.183117161862725e6 -2.0301314185906595e6 0.0
0.0 0.0 0.0

-8.834693279224278e6 -87355.21172813071 0.0
-87355.21172813071 1.0514049918770017e7 0.0
0.0 0.0 0.0

-255439.94627632014 1.2429667860630896e7 0.0
1.2429667860630896e7 -7.337029934490235e6 0.0
0.0 0.0 0.0

-8.610473947935041e6 -983516.3801897832 0.0
-983516.3801897832 1.0580279497468408e7 0.0
0.0 0.0 0.0

-228220.77707035723 1.038514146646577e7 0.0
1.038514146646577e7 -6.850667151211097e6 0.0
0.0 0.0 0.0

-1.0312802346124465e7 9.517813131365944e6 0.0
9.517813131365944e6 1.1471153855367161e7 0.0
0.0 0.0 0.0

-3.891394019267425e6 6.032805120668184e6 0.0
6.032805120668184e6 1.870964206760945e6 0.0
0.0 0.0 0.0

-1.039902799211317e7 9.98131831659609e6 0.0
9.98131831659609e6 1.398804366937365e7 0.0
0.0 0.0 0.0

-7.492803403594941e6 7.54333051243334e6 0.0
7.54333051243334e6 7.342582160011678e6 0.0
0.0 0.0 0.0

-5.182700520378008e6 1.2848349929751307e7 0.0
1.2848349929751307e7 1.9716067587775397e6 0.0
0.0 0.0 0.0

4.5137449857867e6 7.224829052110268e6 0.0
7.224829052110268e6 -1.416128447985408e7 0.0
0.0 0.0 0.0

-9.609189333743623e6 1.0531773929123567e7 0.0
1.0531773929123567e7 1.1582078693075456e7 0.0
0.0 0.0 0.0

3.7704089145296807e6 1.1223106358476037e7 0.0
1.1223106358476037e7 -455627.0307066883 0.0
0.0 0.0 0.0

-1.0683562581469148e7 706135.5801227737 0.0
706135.5801227737 8.602960436637051e6 0.0
0.0 0.0 0.0

3.303587213925698e6 8.881852823869897e6 0.0
8.881852823869897e6 -1.3173833285676124e7 0.0
0.0 0.0 0.0

-3.5200096830310747e6 7.320660494786831e6 0.0
7.320660494786831e6 2.4124925124140363e6 0.0
0.0 0.0 0.0

1.8734384508864628e6 7.296656947313108e6 0.0
7.296656947313108e6 -7.046493000154896e6 0.0
0.0 0.0 0.0

-1.1964203798709682e6 3.572340352613377e6 0.0
3.572340352613377e6 143734.97581179242 0.0
0.0 0.0 0.0

-5.365562975712119e6 772781.2268716338 0.0
772781.2268716338 5.298174507833732e6 0.0
0.0 0.0 0.0

762819.1142079043 9.724609238315545e6 0.0
9.724609238315545e6 -8.384474152996434e6 0.0
0.0 0.0 0.0

-3.6169613997333795e6 4.1365274884360135e6 0.0
4.1365274884360135e6 3.519226554040161e6 0.0
0.0 0.0 0.0

-5.380259702261206e6 1.4037589922396053e7 0.0
1.4037589922396053e7 4.934960665199504e6 0.0
0.0 0.0 0.0

-5.183634764636695e6 1.0560260267395645e7 0.0
1.0560260267395645e7 7.199026470981315e6 0.0
0.0 0.0 0.0

159842.23691006587 6.365946891342474e6 0.0
6.365946891342474e6 -3.2780401288739503e6 0.0
0.0 0.0 0.0

-1.4951228131966854e6 1.2008548841924949e7 0.0
1.2008548841924949e7 -4.368405283665192e6 0.0
0.0 0.0 0.0

2.3501154346143324e6 6.761876429230064e6 0.0
6.761876429230064e6 -9.189092644623382e6 0.0
0.0 0.0 0.0

-5.259154647707828e6 1.5270060999750243e7 0.0
1.5270060999750243e7 666050.2896848901 0.0
0.0 0.0 0.0

1.3579809457276044e6 1.1824514375883669e7 0.0
1.1824514375883669e7 -1.975345236760824e7 0.0
0.0 0.0 0.0

2.0070330425682026e6 5.559911601758622e6 0.0
5.559911601758622e6 -7.804882374000428e6 0.0
0.0 0.0 0.0

2.989414715025482e6 6.1024358230615845e6 0.0
6.1024358230615845e6 -9.923638053037055e6 0.0
0.0 0.0 0.0

33527.408382857684 1.0956379885912081e7 0.0
1.0956379885912081e7 -9.842054228353988e6 0.0
0.0 0.0 0.0

-207131.34841513925 6.710854887597861e6 0.0
6.710854887597861e6 -2.8576966738826423e6 0.0
0.0 0.0 0.0

-3.132048272053349e6 1.3040784405330166e7 0.0
1.3040784405330166e7 -1.5158942859279392e7 0.0
0.0 0.0 0.0

1.2802672598996027e6 6.581344458842487e6 0.0
6.581344458842487e6 -5.536068896990365e6 0.0
0.0 0.0 0.0

2.0871775511288228e6 6.782439821342322e6 0.0
6.782439821342322e6 -7.250380181378946e6 0.0
0.0 0.0 0.0

-526417.8692963789 1.2388794969971191e7 0.0
1.2388794969971191e7 -1.7636964577058882e6 0.0
0.0 0.0 0.0

-1.2117147479091782e7 5.985631155675951e6 0.0
5.985631155675951e6 1.622916349645621e7 0.0
0.0 0.0 0.0

-6.744992919109853e6 1.5549445841514999e7 0.0
1.5549445841514999e7 5.020013114431789e6 0.0
0.0 0.0 0.0

-6.829338007506081e6 742499.0313831472 0.0
742499.0313831472 4.0037562609086456e6 0.0
0.0 0.0 0.0

1.364563060289347e6 9.190674193384897e6 0.0
9.190674193384897e6 -9.418432034699097e6 0.0
0.0 0.0 0.0

-1.789598987067521e6 1.2701678093162127e7 0.0
1.2701678093162127e7 4.6192676589919515e6 0.0
0.0 0.0 0.0

-4.940189487952013e6 1.5051956957301628e7 0.0
1.5051956957301628e7 -136587.52405198966 0.0
0.0 0.0 0.0

-730907.6173512117 9.046598779570865e6 0.0
9.046598779570865e6 -4.539846983030648e6 0.0
0.0 0.0 0.0

-4.296102111117969e6 1.5274680475109503e7 0.0
1.5274680475109503e7 -1.6887421272880742e6 0.0
0.0 0.0 0.0

-64955.23801146075 9.391160354316117e6 0.0
9.391160354316117e6 -4.823629769952687e6 0.0
0.0 0.0 0.0

-1.6746791793230353e6 2.638983567602016e6 0.0
2.638983567602016e6 926020.366190633 0.0
0.0 0.0 0.0

-1.7266450506070387e6 1.1926486561243046e7 0.0
1.1926486561243046e7 -5.121415882797914e6 0.0
0.0 0.0 0.0

-5.242378045992542e6 2.2788274396120224e7 0.0
2.2788274396120224e7 -3.792654053283971e6 0.0
0.0 0.0 0.0

474135.7291001349 1.3977021537333569e7 0.0
1.3977021537333569e7 -5.331958568653209e6 0.0
0.0 0.0 0.0

-225550.7703249068 1.1962782205001935e7 0.0
1.1962782205001935e7 -7.010140756524422e6 0.0
0.0 0.0 0.0

-2.7933944682347383e6 9.105937138982171e6 0.0
9.105937138982171e6 396451.59336070763 0.0
0.0 0.0 0.0

-3.233569474016357e6 1.0373049982069183e7 0.0
1.0373049982069183e7 -651074.4473521938 0.0
0.0 0.0 0.0

4.272352032588386e6 5.75754628529551e6 0.0
5.75754628529551e6 -1.1560245556784777e7 0.0
0.0 0.0 0.0

2.0119974649601253e6 4.797364791684734e6 0.0
4.797364791684734e6 -6.729470461970797e6 0.0
0.0 0.0 0.0

-1.2253202292227629e6 7.124641704107898e6 0.0
7.124641704107898e6 -2.5400946716371295e6 0.0
0.0 0.0 0.0

-3.364680702540387e6 1.3316231922544865e7 0.0
1.3316231922544865e7 6807.894700276665 0.0
0.0 0.0 0.0

2.2847872013109243e6 6.081219047185433e6 0.0
6.081219047185433e6 -8.57955774387626e6 0.0
0.0 0.0 0.0

-633777.7364464947 1.039831427425311e7 0.0
1.039831427425311e7 -5.931678773059899e6 0.0
0.0 0.0 0.0

-1.423331527208177e6 1.2539666473794268e7 0.0
1.2539666473794268e7 2.3191685202793395e6 0.0
0.0 0.0 0.0

2.137814595978197e6 8.738264356948879e6 0.0
8.738264356948879e6 -9.590124691118944e6 0.0
0.0 0.0 0.0

-2.861085853290554e6 3.8868864304549e6 0.0
3.8868864304549e6 2.4806779361499143e6 0.0
0.0 0.0 0.0

-1.5997050813501839e7 1.1401426127006702e7 0.0
1.1401426127006702e7 8.084509352125729e6 0.0
0.0 0.0 0.0

2.7482891613327693e6 8.522678913693415e6 0.0
8.522678913693415e6 -1.0911519244872753e7 0.0
0.0 0.0 0.0

-2.6576093662959326e7 -2.6163391908723274e6 0.0
-2.6163391908723274e6 1.0052461389260702e7 0.0
0.0 0.0 0.0

2.0662498363856748e6 6.569897048128159e6 0.0
6.569897048128159e6 -8.2804741155759925e6 0.0
0.0 0.0 0.0

-5.171125758329947e6 1.1869536959801631e7 0.0
1.1869536959801631e7 7.570866803237021e6 0.0
0.0 0.0 0.0

2.1764668338669585e6 1.0155230396127079e7 0.0
1.0155230396127079e7 -1.3321270969275992e7 0.0
0.0 0.0 0.0

1.8004775607229103e6 1.0535520904662304e7 0.0
1.0535520904662304e7 -1.0977200159183409e7 0.0
0.0 0.0 0.0

-602645.4909613029 5.666944072764866e6 0.0
5.666944072764866e6 -1.0737105251349474e6 0.0
0.0 0.0 0.0

-1.0750859073954597e7 3.490768620054212e6 0.0
3.490768620054212e6 1.1883158857861884e7 0.0
0.0 0.0 0.0

-2.1236021759425323e6 9.24491268402294e6 0.0
9.24491268402294e6 -2.0521677135654413e6 0.0
0.0 0.0 0.0

-2.7742465109931296e6 8.767894516495934e6 0.0
8.767894516495934e6 491378.0640422165 0.0
0.0 0.0 0.0

-1.1540005949114554e7 2.0817971605503082e6 0.0
2.0817971605503082e6 1.3603044510130543e7 0.0
0.0 0.0 0.0

-1.532383023551811e6 9.144338174137658e6 0.0
9.144338174137658e6 -1.9305659117852182e6 0.0
0.0 0.0 0.0

-1.3654491874976228e6 1.150117990118501e7 0.0
1.150117990118501e7 -5.496097023529798e6 0.0
0.0 0.0 0.0

-1.48911215583863e6 1.1816656429364286e7 0.0
1.1816656429364286e7 -4.1013796040714546e6 0.0
0.0 0.0 0.0

-1.9993607343268376e6 1.231234171602385e7 0.0
1.231234171602385e7 -4.832958094132568e6 0.0
0.0 0.0 0.0

146147.21200784342 1.0164482222568857e7 0.0
1.0164482222568857e7 -7.360294017313688e6 0.0
0.0 0.0 0.0

1.270666913888299e6 6.972070840407313e6 0.0
6.972070840407313e6 -6.977161755355557e6 0.0
0.0 0.0 0.0

1.0388926901368515e6 1.043777639255283e7 0.0
1.043777639255283e7 -5.7815415074041e6 0.0
0.0 0.0 0.0

-1.7227444908825557e6 1.1510265352341093e7 0.0
1.1510265352341093e7 -4.60073980963434e6 0.0
0.0 0.0 0.0

-478371.54966448504 9.360131408420727e6 0.0
9.360131408420727e6 -4.0646552769008484e6 0.0
0.0 0.0 0.0

-2.0706593623269883e6 3.922647742178624e6 0.0
3.922647742178624e6 1.5154533418834265e6 0.0
0.0 0.0 0.0

456078.9455137742 9.964985027732333e6 0.0
9.964985027732333e6 -7.898693920021249e6 0.0
0.0 0.0 0.0

-4.406591152809137e6 1.3245477754535563e7 0.0
1.3245477754535563e7 -1.4688636780546103e7 0.0
0.0 0.0 0.0

-618775.8330127429 6.1578013617089195e6 0.0
6.1578013617089195e6 -1.1678333357249324e6 0.0
0.0 0.0 0.0

1.8809214527685796e6 7.059769523344049e6 0.0
7.059769523344049e6 -8.09796258935678e6 0.0
0.0 0.0 0.0

283566.68315284466 6.146066288717813e6 0.0
6.146066288717813e6 -4.382823036946721e6 0.0
0.0 0.0 0.0

1.707663205926993e6 1.1312194437441843e7 0.0
1.1312194437441843e7 -1.8198225950625934e7 0.0
0.0 0.0 0.0

-3.5399919168104846e6 8.660342905574005e6 0.0
8.660342905574005e6 1.8590010843789456e6 0.0
0.0 0.0 0.0

2.4861912432257016e6 6.413193398806436e6 0.0
6.413193398806436e6 -8.034764340566056e6 0.0
0.0 0.0 0.0

-8.394414397611508e6 3.8640390923743937e6 0.0
3.8640390923743937e6 8.353494446199449e6 0.0
0.0 0.0 0.0

-1.0498696626702664e7 -3.251486920155693e6 0.0
-3.251486920155693e6 1.951103503843652e7 0.0
0.0 0.0 0.0

-97851.54517912492 1.2217744765551193e7 0.0
1.2217744765551193e7 -1.555065203592894e6 0.0
0.0 0.0 0.0

-128902.21092415426 1.1219853991753528e7 0.0
1.1219853991753528e7 -348110.8139982271 0.0
0.0 0.0 0.0

-5.604720464425181e6 1.4233830276532248e7 0.0
1.4233830276532248e7 4.8533660344406795e6 0.0
0.0 0.0 0.0

-4.8291299374844525e6 1.1402634203075038e7 0.0
1.1402634203075038e7 1.84524891445897e6 0.0
0.0 0.0 0.0

4.568116042813036e6 6.164876872332499e6 0.0
6.164876872332499e6 -1.2766826567523098e7 0.0
0.0 0.0 0.0

4.627479553027562e6 6.390414341775448e6 0.0
6.390414341775448e6 -1.3012282543969577e7 0.0
0.0 0.0 0.0

-9.388545405450214e6 6.314376064113129e6 0.0
6.314376064113129e6 1.2809208126722768e7 0.0
0.0 0.0 0.0

-968843.4528544974 1.1080740174659379e7 0.0
1.1080740174659379e7 -5.876852373570308e6 0.0
0.0 0.0 0.0

3.3411856797122257e6 1.1771325664307516e7 0.0
1.1771325664307516e7 -4.06452772102678e6 0.0
0.0 0.0 0.0

-1.2816812241318183e7 -1.7232117187095534e6 0.0
-1.7232117187095534e6 2.3986591017948806e7 0.0
0.0 0.0 0.0

-4.312252962885024e6 1.0239886485737676e7 0.0
1.0239886485737676e7 2.672373167754843e6 0.0
0.0 0.0 0.0

-1.5907483853993276e6 1.0528074711483693e7 0.0
1.0528074711483693e7 -3.7949507387845526e6 0.0
0.0 0.0 0.0

-1.0712189005472558e7 1.051359769398397e7 0.0
1.051359769398397e7 2.3082631120537445e7 0.0
0.0 0.0 0.0

246472.05242568115 5.7265650020465525e6 0.0
5.7265650020465525e6 -3.436466350244036e6 0.0
0.0 0.0 0.0

-3.42323652809185e6 1.3093262804889841e7 0.0
1.3093262804889841e7 -1.7917275040654268e6 0.0
0.0 0.0 0.0

-4.163996750878957e6 1.2452255768944163e7 0.0
1.2452255768944163e7 7.766109849585727e6 0.0
0.0 0.0 0.0

2.2724934618906467e6 6.868941403173449e6 0.0
6.868941403173449e6 -7.795260710593455e6 0.0
0.0 0.0 0.0

-1.7771183355171448e6 8.443469044387536e6 0.0
8.443469044387536e6 -2.2714952083168905e6 0.0
0.0 0.0 0.0

-1.0821812445694085e7 8.384395868861899e6 0.0
8.384395868861899e6 1.815273436388763e7 0.0
0.0 0.0 0.0

3.9314063901192844e6 7.82968743532961e6 0.0
7.82968743532961e6 -1.334066185565598e7 0.0
0.0 0.0 0.0

146901.98651069775 1.1760219916437706e7 0.0
1.1760219916437706e7 -7.631499179404112e6 0.0
0.0 0.0 0.0

-8.81807762678783e6 -2.8176490241676527e6 0.0
-2.8176490241676527e6 1.3950856065803166e7 0.0
0.0 0.0 0.0

3.5248225718373135e6 8.436386264694896e6 0.0
8.436386264694896e6 -1.2980818756894115e7 0.0
0.0 0.0 0.0

454233.1651799935 7.468840037823548e6 0.0
7.468840037823548e6 -4.2466823722831e6 0.0
0.0 0.0 0.0

3.50564333370004e6 7.401128325575154e6 0.0
7.401128325575154e6 -1.146684160508113e7 0.0
0.0 0.0 0.0

-252105.23136216472 9.530737540151129e6 0.0
9.530737540151129e6 -5.780457295333694e6 0.0
0.0 0.0 0.0

-593698.844820082 1.0638587387897432e7 0.0
1.0638587387897432e7 -6.2303518102155635e6 0.0
0.0 0.0 0.0

-1.1210990507254194e7 1.6175613559580096e6 0.0
1.6175613559580096e6 1.3197222120218197e7 0.0
0.0 0.0 0.0

1.703865833320555e6 1.0433729951017078e7 0.0
1.0433729951017078e7 -402140.8353407297 0.0
0.0 0.0 0.0

-1.6377959022852774e6 3.888845421982122e6 0.0
3.888845421982122e6 786258.9608459242 0.0
0.0 0.0 0.0

1.107139611651286e6 1.0660868888120284e7 0.0
1.0660868888120284e7 -9.011040476261579e6 0.0
0.0 0.0 0.0

-256018.90364236763 6.533776847829193e6 0.0
6.533776847829193e6 -2.313166039744635e6 0.0
0.0 0.0 0.0

490491.30183621706 5.605839465546028e6 0.0
5.605839465546028e6 -4.460195421033685e6 0.0
0.0 0.0 0.0

-610833.3693797591 1.018778408239002e7 0.0
1.018778408239002e7 -5.698231466335791e6 0.0
0.0 0.0 0.0

2.700697599029859e6 5.910608708934816e6 0.0
5.910608708934816e6 -8.315647118599493e6 0.0
0.0 0.0 0.0

-8.974797014066974e6 848411.5425583196 0.0
848411.5425583196 9.191104475935742e6 0.0
0.0 0.0 0.0

5.513435950783036e6 5.771778531064336e6 0.0
5.771778531064336e6 -1.680026128261109e7 0.0
0.0 0.0 0.0

-803772.8647119142 1.1225958086515762e7 0.0
1.1225958086515762e7 -2.679242686633211e6 0.0
0.0 0.0 0.0

-6.484012892081991e6 5.092132499467704e6 0.0
5.092132499467704e6 5.461417231033403e6 0.0
0.0 0.0 0.0

-5.530546064362041e6 1.3536987656517625e7 0.0
1.3536987656517625e7 3.399769927522478e6 0.0
0.0 0.0 0.0

-169200.4835930866 1.0778864154985145e7 0.0
1.0778864154985145e7 2.8755654264511666e6 0.0
0.0 0.0 0.0

-9.64381128646525e6 9.982842651758391e6 0.0
9.982842651758391e6 1.0918054558585443e7 0.0
0.0 0.0 0.0

-7.482942047477684e6 1.133778395903079e7 0.0
1.133778395903079e7 9.424551262561386e6 0.0
0.0 0.0 0.0

-7.665850382151124e6 -4.99427473169381e6 0.0
-4.99427473169381e6 1.145053812572348e7 0.0
0.0 0.0 0.0

-2.0392346274030495e6 8.643160620175365e6 0.0
8.643160620175365e6 -711014.0675748427 0.0
0.0 0.0 0.0

102149.14469253924 1.2867901754316086e7 0.0
1.2867901754316086e7 6.021868445397145e6 0.0
0.0 0.0 0.0

-3.7783600480850386e6 1.3404108170629684e7 0.0
1.3404108170629684e7 4.406077113366817e6 0.0
0.0 0.0 0.0

-1.006454943811018e7 3.273907170670799e6 0.0
3.273907170670799e6 1.0914264004698465e7 0.0
0.0 0.0 0.0

1.1893350972925099e6 1.005953743235344e7 0.0
1.005953743235344e7 -1.0073321250589665e7 0.0
0.0 0.0 0.0

1.8152220476506096e6 6.208482434072126e6 0.0
6.208482434072126e6 -7.555907289419863e6 0.0
0.0 0.0 0.0

-374193.75893057766 1.0963806976211267e7 0.0
1.0963806976211267e7 -5.708324916387686e6 0.0
0.0 0.0 0.0

-1.7163461514845241e6 8.196467477528086e6 0.0
8.196467477528086e6 -1.1102459911187617e6 0.0
0.0 0.0 0.0

2.116360645063764e6 5.281404083390088e6 0.0
5.281404083390088e6 -6.6888243414555285e6 0.0
0.0 0.0 0.0

-3.652522319229352e6 1.3264009995277653e7 0.0
1.3264009995277653e7 -1.0566065308019875e6 0.0
0.0 0.0 0.0

-1.0621498164821576e7 -1.9615368671419318e6 0.0
-1.9615368671419318e6 1.893360662337426e7 0.0
0.0 0.0 0.0

-9.590151494336294e6 -2.2701831374820718e6 0.0
-2.2701831374820718e6 1.5066681046772711e7 0.0
0.0 0.0 0.0

-1.2360186114074085e7 4.363076436273459e6 0.0
4.363076436273459e6 1.64253865115855e7 0.0
0.0 0.0 0.0

-2.78907567799668e6 1.2747506770071972e7 0.0
1.2747506770071972e7 -3.457505638637248e6 0.0
0.0 0.0 0.0

-419246.88658882596 6.568730386550718e6 0.0
6.568730386550718e6 -3.5943731448339634e6 0.0
0.0 0.0 0.0

2.8402095036241794e6 1.20603732356882e7 0.0
1.20603732356882e7 3.5040200442129252e6 0.0
0.0 0.0 0.0

2.16947767302361e6 1.499393318025156e7 0.0
1.499393318025156e7 1.4335772916402455e7 0.0
0.0 0.0 0.0

2.2208405134267905e6 5.963446321912176e6 0.0
5.963446321912176e6 -7.165997607778576e6 0.0
0.0 0.0 0.0

-3.8330887395340977e6 3.6315602553332453e6 0.0
3.6315602553332453e6 3.9066472811201457e6 0.0
0.0 0.0 0.0

-2.3776365562239243e6 9.118696989357388e6 0.0
9.118696989357388e6 -321241.48430098506 0.0
0.0 0.0 0.0

-7.387439455198824e6 1.2145342350023594e7 0.0
1.2145342350023594e7 7.807036718885008e6 0.0
0.0 0.0 0.0

4.635968276985525e6 6.567029292932186e6 0.0
6.567029292932186e6 -1.3683360109127963e7 0.0
0.0 0.0 0.0

4.0733773603388844e6 6.884043132799118e6 0.0
6.884043132799118e6 -1.2348323724461945e7 0.0
0.0 0.0 0.0

-738773.8181758586 6.606003380737242e6 0.0
6.606003380737242e6 -2.390245438249431e6 0.0
0.0 0.0 0.0

-4.6990901759978e6 1.0752310759523239e7 0.0
1.0752310759523239e7 3.199831794999116e6 0.0
0.0 0.0 0.0

-9.706469854284132e6 1.0873521359542796e7 0.0
1.0873521359542796e7 2.1529108360958792e7 0.0
0.0 0.0 0.0

-719884.2157412227 1.1402896506048184e7 0.0
1.1402896506048184e7 -5.360932143464502e6 0.0
0.0 0.0 0.0

-813760.2699746479 7.00233218320036e6 0.0
7.00233218320036e6 -1.8174845232885417e6 0.0
0.0 0.0 0.0

4.330164568348234e6 6.630055675765738e6 0.0
6.630055675765738e6 -1.2684377635848297e7 0.0
0.0 0.0 0.0

-6.587129040861335e6 1.1697981381849198e7 0.0
1.1697981381849198e7 5.116192133909069e6 0.0
0.0 0.0 0.0

2.0830263697248744e6 7.025463320413298e6 0.0
7.025463320413298e6 -8.809797026657479e6 0.0
0.0 0.0 0.0

-3.127520447377265e6 2.495104067370363e6 0.0
2.495104067370363e6 -357014.41328330396 0.0
0.0 0.0 0.0

-261527.33720160974 9.948314874370258e6 0.0
9.948314874370258e6 -6.279091970601229e6 0.0
0.0 0.0 0.0

352184.15015394543 5.921982494123629e6 0.0
5.921982494123629e6 -3.2723087845712597e6 0.0
0.0 0.0 0.0

-1.386618767767677e6 7.783837088426875e6 0.0
7.783837088426875e6 -1.5188041662510782e6 0.0
0.0 0.0 0.0

-1.0316708487756832e6 7.381156226282659e6 0.0
7.381156226282659e6 -1.9202371553923718e6 0.0
0.0 0.0 0.0

-583210.6514689 9.946182158006353e6 0.0
9.946182158006353e6 -5.485228486172971e6 0.0
0.0 0.0 0.0

-2.157318325360609e6 8.946589111564346e6 0.0
8.946589111564346e6 -1.8679676497380454e6 0.0
0.0 0.0 0.0

-1.1335156640876014e7 2.580874699976469e6 0.0
2.580874699976469e6 1.2982682191772707e7 0.0
0.0 0.0 0.0

-1.0908510792308168e7 8.0048397918640105e6 0.0
8.0048397918640105e6 2.1348611576650288e7 0.0
0.0 0.0 0.0

-1.2521074808543764e7 4.983498974913141e6 0.0
4.983498974913141e6 1.8759906661992107e7 0.0
0.0 0.0 0.0

-1.0941400236494247e7 8.224306520795843e6 0.0
8.224306520795843e6 1.9669177543738883e7 0.0
0.0 0.0 0.0

-1.3041174493135886e7 2.5123357078329804e6 0.0
2.5123357078329804e6 3.2048954056786325e7 0.0
0.0 0.0 0.0

-1.1961487063366254e6 1.2620160153485404e7 0.0
1.2620160153485404e7 1.5389214441017061e6 0.0
0.0 0.0 0.0

-1.2556161900029542e7 -568896.4583922304 0.0
-568896.4583922304 2.194279514087341e7 0.0
0.0 0.0 0.0

-3.5344117799603725e6 1.2300922902474873e7 0.0
1.2300922902474873e7 -944857.0676113777 0.0
0.0 0.0 0.0

904147.5579777062 1.1026596568454944e7 0.0
1.1026596568454944e7 -7.763429287409243e6 0.0
0.0 0.0 0.0

-2.5396746416808207e7 1.7332234785801556e7 0.0
1.7332234785801556e7 143750.21052245982 0.0
0.0 0.0 0.0

2.0614564215045264e6 6.522560447529922e6 0.0
6.522560447529922e6 -7.059131043785878e6 0.0
0.0 0.0 0.0

1.869929600604151e6 9.02681976534927e6 0.0
9.02681976534927e6 -9.183816425487848e6 0.0
0.0 0.0 0.0

-3.6530018463404845e6 1.3226879260770157e7 0.0
1.3226879260770157e7 -670671.9335313423 0.0
0.0 0.0 0.0

-4.770978917061884e6 1.2433357426567039e7 0.0
1.2433357426567039e7 2.632017825282629e6 0.0
0.0 0.0 0.0

3.55166276300451e6 7.110121039870443e6 0.0
7.110121039870443e6 -1.1258980447489025e7 0.0
0.0 0.0 0.0

4.0683248547288883e6 1.4213255457663601e7 0.0
1.4213255457663601e7 -7.672856317153815e6 0.0
0.0 0.0 0.0

-1.9361406682047215e6 7.862881197300531e6 0.0
7.862881197300531e6 -1.6052969765015403e6 0.0
0.0 0.0 0.0

4.924108477552631e6 7.016044530686042e6 0.0
7.016044530686042e6 -1.777849868833345e7 0.0
0.0 0.0 0.0

-1.5671791904286013e6 7.459734791141885e6 0.0
7.459734791141885e6 -2.0042578500545232e6 0.0
0.0 0.0 0.0

1.5997631903009475e6 6.711768015572436e6 0.0
6.711768015572436e6 -7.358203778150685e6 0.0
0.0 0.0 0.0

-8.698449366619147e6 1.0238248065614477e7 0.0
1.0238248065614477e7 1.0267170355827326e7 0.0
0.0 0.0 0.0

-1.5210271318856187e7 1.1619927554650046e7 0.0
1.1619927554650046e7 5.208310358108475e6 0.0
0.0 0.0 0.0

-8.094269710780328e6 -1.270211110408999e6 0.0
-1.270211110408999e6 9.703488560144007e6 0.0
0.0 0.0 0.0

-1.0812837516215092e6 1.182240541585414e7 0.0
1.182240541585414e7 -4.985487247356082e6 0.0
0.0 0.0 0.0

-1.004399723302108e7 1.2149850396706272e7 0.0
1.2149850396706272e7 6.968585139492348e6 0.0
0.0 0.0 0.0

2.1965643237299556e6 5.595030964396844e6 0.0
5.595030964396844e6 -7.171115097451329e6 0.0
0.0 0.0 0.0

-6.363737619456682e6 4.441511739828057e6 0.0
4.441511739828057e6 7.800966727667782e6 0.0
0.0 0.0 0.0

-401201.42849020264 1.0514431144367866e7 0.0
1.0514431144367866e7 -5.1869096965959985e6 0.0
0.0 0.0 0.0

-1.192619692673883e6 9.726432239369795e6 0.0
9.726432239369795e6 -2.9848372600577837e6 0.0
0.0 0.0 0.0

-2.2978116399354497e6 8.294784735904198e6 0.0
8.294784735904198e6 -1.2291373983466383e6 0.0
0.0 0.0 0.0

-1.2157465147832481e7 3.0648409215821056e6 0.0
3.0648409215821056e6 1.6358114315032225e7 0.0
0.0 0.0 0.0

4.434457892667514e6 5.954086018612827e6 0.0
5.954086018612827e6 -1.1981632579434352e7 0.0
0.0 0.0 0.0

2.3129980410606936e6 5.8509096053569e6 0.0
5.8509096053569e6 -8.281200594520235e6 0.0
0.0 0.0 0.0

-6.285220351723242e6 1.1543760605539298e7 0.0
1.1543760605539298e7 4.393579108951479e6 0.0
0.0 0.0 0.0

-902401.6586224162 5.132958391505352e6 0.0
5.132958391505352e6 -1.0156011615033478e6 0.0
0.0 0.0 0.0

-288126.8035303997 9.302153623789499e6 0.0
9.302153623789499e6 -5.55955189709108e6 0.0
0.0 0.0 0.0

3.054445262510945e6 6.603772271803922e6 0.0
6.603772271803922e6 -9.647184739026017e6 0.0
0.0 0.0 0.0

-1.0965574234802702e7 -988313.8270106963 0.0
-988313.8270106963 1.7602313489963666e7 0.0
0.0 0.0 0.0

-1.0163136427056973e6 1.2773786677758168e7 0.0
1.2773786677758168e7 789677.2007816824 0.0
0.0 0.0 0.0

-7.781229374946361e6 756273.5621021849 0.0
756273.5621021849 7.78638729689919e6 0.0
0.0 0.0 0.0

3.0222558016272495e6 9.068167736119328e6 0.0
9.068167736119328e6 -1.267856175667578e7 0.0
0.0 0.0 0.0

454510.1304894355 1.1650595968924353e7 0.0
1.1650595968924353e7 -9.421994059911743e6 0.0
0.0 0.0 0.0

-6.082074103782217e6 5.6507059394811895e6 0.0
5.6507059394811895e6 4.831470333166981e6 0.0
0.0 0.0 0.0

1.6090787880563033e6 1.0467103953463307e7 0.0
1.0467103953463307e7 -1.0247809852794364e7 0.0
0.0 0.0 0.0

346684.5893356656 1.025635019369791e7 0.0
1.025635019369791e7 -6.641500624698046e6 0.0
0.0 0.0 0.0

1.1007104816847565e6 5.683355360108243e6 0.0
5.683355360108243e6 -3.6669330812929985e6 0.0
0.0 0.0 0.0

-4.9028630552403405e6 1.673264563675967e6 0.0
1.673264563675967e6 4.0743236968032164e6 0.0
0.0 0.0 0.0

-114560.1912610915 8.392995967866e6 0.0
8.392995967866e6 -5.3629340093241995e6 0.0
0.0 0.0 0.0

179941.2567529101 7.873837426165492e6 0.0
7.873837426165492e6 -5.670301444537564e6 0.0
0.0 0.0 0.0

-349862.60821801657 1.071330737671396e7 0.0
1.071330737671396e7 -5.437107926321041e6 0.0
0.0 0.0 0.0

-960612.8870747797 1.2883708362648912e7 0.0
1.2883708362648912e7 119843.31009581021 0.0
0.0 0.0 0.0

926869.4713092246 7.25094479732629e6 0.0
7.25094479732629e6 -6.572377899478946e6 0.0
0.0 0.0 0.0

2.1202822053362466e6 1.0392224128110379e7 0.0
1.0392224128110379e7 -1.610514259763576e7 0.0
0.0 0.0 0.0

-928265.9946839063 5.711564548952582e6 0.0
5.711564548952582e6 -1.1166321954926234e6 0.0
0.0 0.0 0.0

-2.7392435108884703e6 1.2049351265487246e7 0.0
1.2049351265487246e7 -1.2691838383227512e7 0.0
0.0 0.0 0.0

-5.6774849580626e7 4.80037526253317e6 0.0
4.80037526253317e6 9.350830719139569e6 0.0
0.0 0.0 0.0

3.915639617859774e7 8.759631467565946e6 0.0
8.759631467565946e6 -2.134198954089081e6 0.0
0.0 0.0 0.0

1.831829007602782e6 1.0848629887942987e7 0.0
1.0848629887942987e7 -1.745400670953696e7 0.0
0.0 0.0 0.0

-7.00647109384494e6 8.217066929051643e6 0.0
8.217066929051643e6 8.276825224649992e6 0.0
0.0 0.0 0.0

-3.9626293947837455e6 1.1060500070433483e7 0.0
1.1060500070433483e7 344066.29396504513 0.0
0.0 0.0 0.0

-406157.7731383508 8.85015635819447e6 0.0
8.85015635819447e6 -5.072053816748673e6 0.0
0.0 0.0 0.0

64722.14829878439 5.814401403600449e6 0.0
5.814401403600449e6 -4.060082803294425e6 0.0
0.0 0.0 0.0

507497.633064901 6.105498898251743e6 0.0
6.105498898251743e6 -3.630357441204947e6 0.0
0.0 0.0 0.0

-2.6511246718555633e6 8.763150871894076e6 0.0
8.763150871894076e6 -865708.5790767003 0.0
0.0 0.0 0.0

2.0058713284576926e6 1.059891427095506e7 0.0
1.059891427095506e7 -1.6758748862814525e7 0.0
0.0 0.0 0.0

473098.62411863473 8.226048784547782e6 0.0
8.226048784547782e6 -5.111797485683497e6 0.0
0.0 0.0 0.0

-1.0319681761456177e7 -827574.7232055773 0.0
-827574.7232055773 1.3013681987333043e7 0.0
0.0 0.0 0.0

2.7258115171879943e7 9.770855387699865e6 0.0
9.770855387699865e6 -3.242314655455148e6 0.0
0.0 0.0 0.0

162189.20613762573 8.708313174306365e6 0.0
8.708313174306365e6 -4.863782328825246e6 0.0
0.0 0.0 0.0

3.6666815011419854e6 6.588500972279966e6 0.0
6.588500972279966e6 -1.0924407529382627e7 0.0
0.0 0.0 0.0

3.607479359778378e6 6.844429432718526e6 0.0
6.844429432718526e6 -1.1050025707725525e7 0.0
0.0 0.0 0.0

-8.015282024469287e6 1.0697456309659278e7 0.0
1.0697456309659278e7 9.664318746842822e6 0.0
0.0 0.0 0.0

1.0009400401850049e6 9.773121845460517e6 0.0
9.773121845460517e6 -7.604436191326752e6 0.0
0.0 0.0 0.0

-1.7792344934497445e6 1.3224283749159232e7 0.0
1.3224283749159232e7 -2.272451199442258e6 0.0
0.0 0.0 0.0

1.8554496792690817e6 1.3311348335682906e7 0.0
1.3311348335682906e7 -5.448679462860882e6 0.0
0.0 0.0 0.0

-1.1020414256711502e6 8.313639823608935e6 0.0
8.313639823608935e6 -2.11120012678303e6 0.0
0.0 0.0 0.0

932946.7238018089 5.760982069765873e6 0.0
5.760982069765873e6 -4.221902733678145e6 0.0
0.0 0.0 0.0

-811289.5243346244 6.843197258453795e6 0.0
6.843197258453795e6 -3.0492426547254953e6 0.0
0.0 0.0 0.0

-853671.7829896245 6.749759994444451e6 0.0
6.749759994444451e6 -1.2821942607712839e6 0.0
0.0 0.0 0.0

-757179.0167815029 1.0899830953948168e7 0.0
1.0899830953948168e7 -1.1072466132518813e7 0.0
0.0 0.0 0.0

2.692156518539663e6 8.837164664514383e6 0.0
8.837164664514383e6 -1.1167969169999529e7 0.0
0.0 0.0 0.0

1.7194677475319044e6 5.822357486047721e6 0.0
5.822357486047721e6 -7.53021852414237e6 0.0
0.0 0.0 0.0

1.4996182987281661e6 7.035152463921216e6 0.0
7.035152463921216e6 -6.235027672133264e6 0.0
0.0 0.0 0.0

-1.8955050538138824e6 9.318414959042901e6 0.0
9.318414959042901e6 -1.3085722045321846e6 0.0
0.0 0.0 0.0

1.6306845143538164e6 6.9765665988489855e6 0.0
6.9765665988489855e6 -7.556334853560677e6 0.0
0.0 0.0 0.0

-54755.980883785756 6.33550295677953e6 0.0
6.33550295677953e6 -3.9946061504343427e6 0.0
0.0 0.0 0.0

3.0469419380392963e6 5.790017728854684e6 0.0
5.790017728854684e6 -8.925110070647042e6 0.0
0.0 0.0 0.0

-31396.8946068862 9.827227332656618e6 0.0
9.827227332656618e6 -5.31503237327286e6 0.0
0.0 0.0 0.0

-1.152279106461653e6 6.265776687162157e6 0.0
6.265776687162157e6 -1.3024207641763014e6 0.0
0.0 0.0 0.0

-3.4982182004200285e6 1.3187517560344182e7 0.0
1.3187517560344182e7 -2.1714079842230156e6 0.0
0.0 0.0 0.0

4.747086519136684e6 6.649583190802038e6 0.0
6.649583190802038e6 -1.5985203858904207e7 0.0
0.0 0.0 0.0

-392155.378841341 1.027311357427166e7 0.0
1.027311357427166e7 -4.988467116382099e6 0.0
0.0 0.0 0.0

2.505498768568316e6 7.092908150956354e6 0.0
7.092908150956354e6 -8.657770739251858e6 0.0
0.0 0.0 0.0

71247.31807683886 6.293213685391927e6 0.0
6.293213685391927e6 -2.714086304097993e6 0.0
0.0 0.0 0.0

2.7867591744658425e6 6.844755983027354e6 0.0
6.844755983027354e6 -9.176919228997255e6 0.0
0.0 0.0 0.0

-4.592510434156714e6 1.1460651101412164e7 0.0
1.1460651101412164e7 2.6248793486439255e6 0.0
0.0 0.0 0.0

-3.8073832118434105e6 1.4569078102406653e7 0.0
1.4569078102406653e7 -2.4390767787145334e6 0.0
0.0 0.0 0.0

797764.3374379496 1.1634710327134352e7 0.0
1.1634710327134352e7 -9.586242110580383e6 0.0
0.0 0.0 0.0

562395.9824740852 6.0019943478087215e6 0.0
6.0019943478087215e6 -4.583384490988752e6 0.0
0.0 0.0 0.0

-3.841325482677393e6 1.4633081594488183e7 0.0
1.4633081594488183e7 -711774.700035031 0.0
0.0 0.0 0.0

-2.1463057618500176e6 1.2642630304100053e7 0.0
1.2642630304100053e7 -3.359884468360089e6 0.0
0.0 0.0 0.0

-4.943375383855799e6 4.27038951156816e6 0.0
4.27038951156816e6 3.490637290903869e6 0.0
0.0 0.0 0.0

-3.956234859800324e6 1.3246953246548079e7 0.0
1.3246953246548079e7 5.068932229477936e6 0.0
0.0 0.0 0.0

13637.344247987028 6.174178153136089e6 0.0
6.174178153136089e6 -2.8068427579245735e6 0.0
0.0 0.0 0.0

-975325.5700110261 7.453126496855939e6 0.0
7.453126496855939e6 -2.0441183058700897e6 0.0
0.0 0.0 0.0

-1.1776047829581637e7 1.8585125790191747e6 0.0
1.8585125790191747e6 2.0839815356124982e7 0.0
0.0 0.0 0.0

-2.8891990379726742e6 8.401650063594995e6 0.0
8.401650063594995e6 9046.373467137106 0.0
0.0 0.0 0.0

1.955294407475328e6 1.0259221977845298e7 0.0
1.0259221977845298e7 -1.9682943270247304e6 0.0
0.0 0.0 0.0

-121778.93708043988 9.167642823254792e6 0.0
9.167642823254792e6 -4.574779845939815e6 0.0
0.0 0.0 0.0

-607337.6486864027 9.740510902095838e6 0.0
9.740510902095838e6 -5.232794855607852e6 0.0
0.0 0.0 0.0

2.034409923613457e6 1.0246675804383103e7 0.0
1.0246675804383103e7 -1.5500575427654043e7 0.0
0.0 0.0 0.0

4.714354084517036e6 6.889993533706735e6 0.0
6.889993533706735e6 -1.672135413976987e7 0.0
0.0 0.0 0.0

-1.0103805693033397e7 4.491915211386341e6 0.0
4.491915211386341e6 1.1069661152286716e7 0.0
0.0 0.0 0.0

-5.993547479831158e6 1.3302194725660834e7 0.0
1.3302194725660834e7 4.936132887237867e6 0.0
0.0 0.0 0.0

-1.1027165793671463e7 -1.5988623237929912e6 0.0
-1.5988623237929912e6 1.487536800304149e7 0.0
0.0 0.0 0.0

-1.4962172808754742e6 1.220476634366374e7 0.0
1.220476634366374e7 -4.670475316467102e6 0.0
0.0 0.0 0.0

-1.2275144314397248e6 1.2299272807552526e7 0.0
1.2299272807552526e7 -6.412759044112214e6 0.0
0.0 0.0 0.0

6.2586108698956575e6 5.248046606968416e6 0.0
5.248046606968416e6 -884645.4671895383 0.0
0.0 0.0 0.0

807458.9659456918 7.177198599527219e6 0.0
7.177198599527219e6 -5.215100912510965e6 0.0
0.0 0.0 0.0

-4.61281430598571e6 6.705730195311546e6 0.0
6.705730195311546e6 2.6487655138770794e6 0.0
0.0 0.0 0.0

393835.2577523007 1.1118137813110223e7 0.0
1.1118137813110223e7 -9.563308544552637e6 0.0
0.0 0.0 0.0

-38729.05842431332 9.62563984374191e6 0.0
9.62563984374191e6 -5.0720498317787135e6 0.0
0.0 0.0 0.0

-31747.954452857375 1.0285525096197927e7 0.0
1.0285525096197927e7 -5.77405319606618e6 0.0
0.0 0.0 0.0

-1.1544648531474281e7 5.558193287818568e6 0.0
5.558193287818568e6 1.6549432054937651e7 0.0
0.0 0.0 0.0

-7.670547647063511e6 4.676784794246415e6 0.0
4.676784794246415e6 7.577921425611747e6 0.0
0.0 0.0 0.0

-644441.1866928654 9.515363603604628e6 0.0
9.515363603604628e6 -5.00184150753642e6 0.0
0.0 0.0 0.0

-1.8836013509156918e6 1.0930745404525904e7 0.0
1.0930745404525904e7 -3.4893797888202486e6 0.0
0.0 0.0 0.0

-4.0057604573473083e6 1.0125758169866683e7 0.0
1.0125758169866683e7 2.698043706367514e6 0.0
0.0 0.0 0.0

-4.805801976156444e6 1.345814331878417e7 0.0
1.345814331878417e7 1.1424940854104557e6 0.0
0.0 0.0 0.0

2.919414599094636e6 8.95426636354779e6 0.0
8.95426636354779e6 -1.1939997507356154e7 0.0
0.0 0.0 0.0

-6.618604837461071e6 1.5825880844796302e7 0.0
1.5825880844796302e7 5.408279837199931e6 0.0
0.0 0.0 0.0

-4.49315507341349e6 7.411968559373765e6 0.0
7.411968559373765e6 2.375802256254057e6 0.0
0.0 0.0 0.0

-3.7045085975179966e6 1.4997832921847112e7 0.0
1.4997832921847112e7 -675940.1594562547 0.0
0.0 0.0 0.0

-370463.8585242432 1.145922574864993e7 0.0
1.145922574864993e7 -1.9062744083826875e6 0.0
0.0 0.0 0.0

778272.5737631335 1.1835565792160856e7 0.0
1.1835565792160856e7 -9.120244968498414e6 0.0
0.0 0.0 0.0

-1.0808732014587452e6 1.2086472960890865e7 0.0
1.2086472960890865e7 -3.2979019626336433e6 0.0
0.0 0.0 0.0

-6.682891774290172e6 1.2989252495664842e7 0.0
1.2989252495664842e7 5.953646359618856e6 0.0
0.0 0.0 0.0

-1.126298013714742e6 1.1384113290987002e7 0.0
1.1384113290987002e7 -4.4664510774660325e6 0.0
0.0 0.0 0.0

-691745.7620509651 9.295861915807199e6 0.0
9.295861915807199e6 -4.761000231270007e6 0.0
0.0 0.0 0.0

1.025768066088995e6 1.145861994073036e7 0.0
1.145861994073036e7 -1.0004220151708048e7 0.0
0.0 0.0 0.0

-470935.0765662495 8.108250352031867e6 0.0
8.108250352031867e6 -4.1625820489437417e6 0.0
0.0 0.0 0.0

-4.972535766887993e6 1.2338019312525496e7 0.0
1.2338019312525496e7 1.966510779201252e6 0.0
0.0 0.0 0.0

-4.447026859911871e6 1.3267321591042956e7 0.0
1.3267321591042956e7 424604.1785797139 0.0
0.0 0.0 0.0

416468.64627561555 5.973862983249827e6 0.0
5.973862983249827e6 -3.228308950685261e6 0.0
0.0 0.0 0.0

227167.71343899355 7.588497323850449e6 0.0
7.588497323850449e6 -5.509301830857422e6 0.0
0.0 0.0 0.0

-4.822806042740507e6 1.4005562341468489e7 0.0
1.4005562341468489e7 2.2830583551152754e6 0.0
0.0 0.0 0.0

-4.891432032031563e6 1.1107405699324746e7 0.0
1.1107405699324746e7 2.0541834187108616e6 0.0
0.0 0.0 0.0

-4.254146603099567e7 734285.547011481 0.0
734285.547011481 9.808284377998997e6 0.0
0.0 0.0 0.0

1.5377284128558678e6 1.0718254452221284e7 0.0
1.0718254452221284e7 -1.043946377845965e7 0.0
0.0 0.0 0.0

-5.017698151216245e6 1.0335052250691025e7 0.0
1.0335052250691025e7 2.5809789242351768e6 0.0
0.0 0.0 0.0

-3.3029416126777623e6 1.2416031713171488e7 0.0
1.2416031713171488e7 -210695.5480573146 0.0
0.0 0.0 0.0

-5.420453116188714e6 1.0867067505156387e7 0.0
1.0867067505156387e7 3.0670617545983978e6 0.0
0.0 0.0 0.0

-863620.6555133112 1.3052337126661565e7 0.0
1.3052337126661565e7 -464341.6673815543 0.0
0.0 0.0 0.0

-1.8429550046108211e6 1.2017097362115081e7 0.0
1.2017097362115081e7 -3.6104656750481064e6 0.0
0.0 0.0 0.0

-4.289732747050224e6 8.1243162057341505e6 0.0
8.1243162057341505e6 2.031915432309359e6 0.0
0.0 0.0 0.0

-8.67132238400148e6 2.8769273886287115e6 0.0
2.8769273886287115e6 1.1461496553326992e7 0.0
0.0 0.0 0.0

-468558.4192123858 8.413119846440915e6 0.0
8.413119846440915e6 -3.5207121042219987e6 0.0
0.0 0.0 0.0

1.884333683165932e6 5.636732687319973e6 0.0
5.636732687319973e6 -6.273847446597697e6 0.0
0.0 0.0 0.0

-1.7505850681204642e6 9.828086625974393e6 0.0
9.828086625974393e6 -3.124236555971537e6 0.0
0.0 0.0 0.0

-2.3957502925003283e6 1.2544794514339868e7 0.0
1.2544794514339868e7 -4.1559660528474897e6 0.0
0.0 0.0 0.0

-4.539622481027245e6 1.064495089616732e7 0.0
1.064495089616732e7 1.5759680358671928e6 0.0
0.0 0.0 0.0

-1.7508072980027064e6 9.08301044498276e6 0.0
9.08301044498276e6 -2.6417690419583665e6 0.0
0.0 0.0 0.0

-488104.61663479137 5.037771618420804e6 0.0
5.037771618420804e6 -909314.5748946189 0.0
0.0 0.0 0.0

1.6841883285464523e6 5.438140666988478e6 0.0
5.438140666988478e6 -6.932102003770983e6 0.0
0.0 0.0 0.0

-1.094839628433489e7 1.0696472035817695e6 0.0
1.0696472035817695e6 1.5948147682943726e7 0.0
0.0 0.0 0.0

-3.9222486362241423e6 3.00661119299286e6 0.0
3.00661119299286e6 3.0473055805666065e6 0.0
0.0 0.0 0.0

-5.081341218172347e6 1.222928711534287e7 0.0
1.222928711534287e7 7.697737804857371e6 0.0
0.0 0.0 0.0

-2.1872742185863554e6 1.1328198644709857e7 0.0
1.1328198644709857e7 -3.143684682230906e6 0.0
0.0 0.0 0.0

318808.0252307509 7.324228287466947e6 0.0
7.324228287466947e6 -5.426136345987163e6 0.0
0.0 0.0 0.0

-1.1006206275482284e7 565285.1695077132 0.0
565285.1695077132 1.6976103299849845e7 0.0
0.0 0.0 0.0

-3.24089255264226e6 1.2618375759117095e7 0.0
1.2618375759117095e7 -450213.03803604085 0.0
0.0 0.0 0.0

-2.277879013936021e6 8.466803723691743e6 0.0
8.466803723691743e6 -1.4439741044868845e6 0.0
0.0 0.0 0.0

-541688.8393286723 7.164772062402466e6 0.0
7.164772062402466e6 -2.5587408515648614e6 0.0
0.0 0.0 0.0

-967388.3165254099 8.498947523364335e6 0.0
8.498947523364335e6 -3.6198293084966047e6 0.0
0.0 0.0 0.0

610884.1799750654 1.1075801659414353e7 0.0
1.1075801659414353e7 -1.1773037025249852e7 0.0
0.0 0.0 0.0

-4.632338094231228e6 1.1155947145099267e7 0.0
1.1155947145099267e7 2.9073946346828244e6 0.0
0.0 0.0 0.0

-591747.6842017199 1.219377385455505e7 0.0
1.219377385455505e7 -6.34214749353526e6 0.0
0.0 0.0 0.0

-9.137621569499496e6 1.1934816327603707e7 0.0
1.1934816327603707e7 2.6635323042929366e7 0.0
0.0 0.0 0.0

-1.7333580815088318e6 1.1635572556096584e7 0.0
1.1635572556096584e7 5.328993175508751e6 0.0
0.0 0.0 0.0

-5.683676478461115e6 6.140215396847092e6 0.0
6.140215396847092e6 4.222879812811244e6 0.0
0.0 0.0 0.0

2.1175203040651786e6 9.045216133283906e6 0.0
9.045216133283906e6 -9.810116322481958e6 0.0
0.0 0.0 0.0

-1.5507246458682816e6 9.428403770859722e6 0.0
9.428403770859722e6 -2.1124808367103813e6 0.0
0.0 0.0 0.0

-2.0626456504296954e6 1.3607333948697168e7 0.0
1.3607333948697168e7 -4.996383280391817e6 0.0
0.0 0.0 0.0

-5.855332691902684e6 1.3773100158554638e7 0.0
1.3773100158554638e7 4.443174511798045e6 0.0
0.0 0.0 0.0

-4.1566772809633403e6 1.305849085968158e7 0.0
1.305849085968158e7 -98238.83395524696 0.0
0.0 0.0 0.0

660010.2928043329 1.2061235480781535e7 0.0
1.2061235480781535e7 -8.612091848527985e6 0.0
0.0 0.0 0.0

-1.1735071874095763e6 8.991073809402894e6 0.0
8.991073809402894e6 -2.531461662987986e6 0.0
0.0 0.0 0.0

-5.301826348050157e6 1.1268519347782236e7 0.0
1.1268519347782236e7 2.7705146345004844e6 0.0
0.0 0.0 0.0

-4.012318926292422e6 4.1176457124960884e6 0.0
4.1176457124960884e6 2.202497419044623e6 0.0
0.0 0.0 0.0

1.8656332300081062e6 5.379012358041807e6 0.0
5.379012358041807e6 -7.483631835683921e6 0.0
0.0 0.0 0.0

-1.5446082505424963e6 9.93012888795934e6 0.0
9.93012888795934e6 -2.446548713717114e6 0.0
0.0 0.0 0.0

2.085055058687124e6 7.360590836953006e6 0.0
7.360590836953006e6 -7.612591287691057e6 0.0
0.0 0.0 0.0

-3.708231817667629e6 1.1229745976662572e7 0.0
1.1229745976662572e7 1.1708339212938552e6 0.0
0.0 0.0 0.0

-81235.5037508338 6.911369777175963e6 0.0
6.911369777175963e6 -3.0809548497061897e6 0.0
0.0 0.0 0.0

-5.521872202852828e6 1.5054025921943199e7 0.0
1.5054025921943199e7 1.7369558844274464e6 0.0
0.0 0.0 0.0

-3.056049316675303e7 -2.1254242470215512e6 0.0
-2.1254242470215512e6 1.1494845137353905e7 0.0
0.0 0.0 0.0

281665.7181188406 6.665089291701286e6 0.0
6.665089291701286e6 -3.495196119112788e6 0.0
0.0 0.0 0.0

734412.059788947 1.0954322555536615e7 0.0
1.0954322555536615e7 -1.2920418444707487e7 0.0
0.0 0.0 0.0

194193.26241442468 1.2939425687134687e7 0.0
1.2939425687134687e7 -6.545985573444341e6 0.0
0.0 0.0 0.0

221598.85063707829 8.929529321931573e6 0.0
8.929529321931573e6 -5.092162887420949e6 0.0
0.0 0.0 0.0

459805.9906795048 1.153747016565437e7 0.0
1.153747016565437e7 -8.2112480795516865e6 0.0
0.0 0.0 0.0

624722.8486725576 6.487647809575746e6 0.0
6.487647809575746e6 -3.857482609000149e6 0.0
0.0 0.0 0.0

2.5593836802996155e6 6.828316612911425e6 0.0
6.828316612911425e6 -8.49824006442801e6 0.0
0.0 0.0 0.0

-5.136165144211176e6 1.3681481691997215e7 0.0
1.3681481691997215e7 1.7706914576468458e6 0.0
0.0 0.0 0.0

269755.48577357596 5.619462339618923e6 0.0
5.619462339618923e6 -4.288960664249915e6 0.0
0.0 0.0 0.0

519012.61728540924 7.537755409066331e6 0.0
7.537755409066331e6 -6.142831202009397e6 0.0
0.0 0.0 0.0

-6.00631073580007e6 1.5631826714950962e7 0.0
1.5631826714950962e7 2.618301415115404e6 0.0
0.0 0.0 0.0

2.2365041243810384e6 1.0883798316399857e7 0.0
1.0883798316399857e7 -3.1018377146145315e6 0.0
0.0 0.0 0.0

-2.629157609303292e6 1.4112572824552901e7 0.0
1.4112572824552901e7 -2.982308037228845e6 0.0
0.0 0.0 0.0

5.192499202588139e6 7.991896583673734e6 0.0
7.991896583673734e6 -1.858212599398507e7 0.0
0.0 0.0 0.0

-1.0041128858906062e7 8.143418942179944e6 0.0
8.143418942179944e6 1.3045643529291656e7 0.0
0.0 0.0 0.0

-4.73603299417044e6 1.3310234414496046e7 0.0
1.3310234414496046e7 2.3888887882860275e6 0.0
0.0 0.0 0.0

1.8429827169783306e6 7.028917450296225e6 0.0
7.028917450296225e6 -6.8530503475782825e6 0.0
0.0 0.0 0.0

760880.3234391925 6.298587094483539e6 0.0
6.298587094483539e6 -4.120111375476778e6 0.0
0.0 0.0 0.0

505546.84081775695 7.081206132478569e6 0.0
7.081206132478569e6 -5.329655011420067e6 0.0
0.0 0.0 0.0

-6.749881901887478e6 1.5430565318628885e7 0.0
1.5430565318628885e7 5.992729931641448e6 0.0
0.0 0.0 0.0

-2.1478346446866225e6 2.8729835743387463e6 0.0
2.8729835743387463e6 1.8548148879486658e6 0.0
0.0 0.0 0.0

-9.780746989642762e6 6.855830367431387e6 0.0
6.855830367431387e6 1.1700147601015173e7 0.0
0.0 0.0 0.0

-3.945041371926517e6 1.3169165031623224e7 0.0
1.3169165031623224e7 564544.365447948 0.0
0.0 0.0 0.0

300343.95845617866 9.857735143943317e6 0.0
9.857735143943317e6 -6.147471768576288e6 0.0
0.0 0.0 0.0

-4.47745177708013e6 1.230311221794407e7 0.0
1.230311221794407e7 6.459195591293996e6 0.0
0.0 0.0 0.0

-2.1190019580322397e6 9.52666271823044e6 0.0
9.52666271823044e6 -2.2355899063636116e6 0.0
0.0 0.0 0.0

-365695.5768361571 1.0051582615542052e7 0.0
1.0051582615542052e7 -4.77062564234396e6 0.0
0.0 0.0 0.0

1.4056223567758664e6 1.0675917064407347e7 0.0
1.0675917064407347e7 -1.2199473158134978e7 0.0
0.0 0.0 0.0

-3.050171837146971e6 1.4753400685159525e7 0.0
1.4753400685159525e7 -2.167058253684298e6 0.0
0.0 0.0 0.0

2.1460436765633626e6 1.0244283077722535e7 0.0
1.0244283077722535e7 -1.5018726668009957e7 0.0
0.0 0.0 0.0

-3.1577580993688065e6 4.062179021646388e6 0.0
4.062179021646388e6 1.435219141282336e6 0.0
0.0 0.0 0.0

-365409.47067761794 1.550328247134578e7 0.0
1.550328247134578e7 1.413366462644327e7 0.0
0.0 0.0 0.0

-6.743289299788888e6 1.4957803949040523e7 0.0
1.4957803949040523e7 5.790508154241634e6 0.0
0.0 0.0 0.0

-2.1145918509961297e6 9.78511313123465e6 0.0
9.78511313123465e6 -2.404480355927422e6 0.0
0.0 0.0 0.0

90327.73086667247 1.3572096106455741e7 0.0
1.3572096106455741e7 -5.453521351582949e6 0.0
0.0 0.0 0.0

-3.5751267936109123e6 1.3010430666235043e7 0.0
1.3010430666235043e7 -58872.18158758292 0.0
0.0 0.0 0.0

-1.2632444361445906e6 7.079727614439066e6 0.0
7.079727614439066e6 -1.9076702442133483e6 0.0
0.0 0.0 0.0

484327.1646162085 1.228479891564707e7 0.0
1.228479891564707e7 -8.093984017921976e6 0.0
0.0 0.0 0.0

1.2729743981019403e6 9.830520183580507e6 0.0
9.830520183580507e6 -8.38755938071891e6 0.0
0.0 0.0 0.0

943887.6686754781 1.0050252405913007e7 0.0
1.0050252405913007e7 -7.850812232831034e6 0.0
0.0 0.0 0.0

-1.0406644873165425e6 9.468056321201665e6 0.0
9.468056321201665e6 -4.218087040586535e6 0.0
0.0 0.0 0.0

2.400324904191924e6 1.5470304315878086e7 0.0
1.5470304315878086e7 -6.645600388793694e6 0.0
0.0 0.0 0.0

853957.095046791 7.917178794779375e6 0.0
7.917178794779375e6 -5.5492236249511475e6 0.0
0.0 0.0 0.0

1.9087783350905594e6 5.150083495146033e6 0.0
5.150083495146033e6 -7.313883706058209e6 0.0
0.0 0.0 0.0

1.5561976533662933e6 9.553745818560174e6 0.0
9.553745818560174e6 -8.843570484577646e6 0.0
0.0 0.0 0.0

4.490541960672801e6 6.974422961074153e6 0.0
6.974422961074153e6 -1.5495867754999831e7 0.0
0.0 0.0 0.0

-1.3370536458086702e6 6.837739297963215e6 0.0
6.837739297963215e6 -1.385601065234787e6 0.0
0.0 0.0 0.0

-5.024758469489372e6 1.2041440902652556e7 0.0
1.2041440902652556e7 2.0752737092175197e6 0.0
0.0 0.0 0.0

3.3302668198276046e6 5.920603670321e6 0.0
5.920603670321e6 -1.0158566253661998e7 0.0
0.0 0.0 0.0

1.484767684694612e6 5.822724949611037e6 0.0
5.822724949611037e6 -6.566949489528947e6 0.0
0.0 0.0 0.0

-834408.675295961 9.537730989038697e6 0.0
9.537730989038697e6 -3.5370243797057196e6 0.0
0.0 0.0 0.0

-1.1256148908310562e7 6.723658669539729e6 0.0
6.723658669539729e6 1.7294712116801366e7 0.0
0.0 0.0 0.0

-6.921067958165222e6 1.2747162785936758e7 0.0
1.2747162785936758e7 7.429695593992049e6 0.0
0.0 0.0 0.0

-1.4714584009655984e6 7.328658868481296e6 0.0
7.328658868481296e6 -1.9107088432731975e6 0.0
0.0 0.0 0.0

-7.590017666334422e6 1.1338786957312176e7 0.0
1.1338786957312176e7 8.888800218385398e6 0.0
0.0 0.0 0.0

2.4975374662830234e6 6.123578577411047e6 0.0
6.123578577411047e6 -7.866923243032756e6 0.0
0.0 0.0 0.0

1.78176700975749e6 9.311945440772206e6 0.0
9.311945440772206e6 -9.414835694247296e6 0.0
0.0 0.0 0.0

-1.577820172677891e7 2.8851751236017913e7 0.0
2.8851751236017913e7 9.122851605697464e6 0.0
0.0 0.0 0.0

-2.5888652983564353e6 8.288618436996617e6 0.0
8.288618436996617e6 -548347.453765381 0.0
0.0 0.0 0.0

-2.2982222767220433e6 4.047533677962744e6 0.0
4.047533677962744e6 641693.5599087281 0.0
0.0 0.0 0.0

-927529.2579575195 1.1877527984841725e7 0.0
1.1877527984841725e7 -6.83775061645427e6 0.0
0.0 0.0 0.0

650468.5780032314 1.027839442754019e7 0.0
1.027839442754019e7 -7.396079634256846e6 0.0
0.0 0.0 0.0

499918.896245916 132921.38061929695 0.0
132921.38061929695 824811.8162466717 0.0
0.0 0.0 0.0

307958.61721223604 -1.1962813995613544e6 0.0
-1.1962813995613544e6 3.060087368267539e6 0.0
0.0 0.0 0.0

-6.959359183881274e6 1.5477128061659519e7 0.0
1.5477128061659519e7 5.929290916341725e6 0.0
0.0 0.0 0.0

-4.56666235168678e6 1.0269447739891287e7 0.0
1.0269447739891287e7 1.809476557836305e6 0.0
0.0 0.0 0.0

-6.709751826720757e6 1.5315224525589913e7 0.0
1.5315224525589913e7 5.055252989534071e6 0.0
0.0 0.0 0.0

2.269943936784228e6 7.374004877675883e6 0.0
7.374004877675883e6 -8.234695469381463e6 0.0
0.0 0.0 0.0

-5.183421042360507e6 1.1553191498091973e7 0.0
1.1553191498091973e7 2.5158395233213566e6 0.0
0.0 0.0 0.0

-9.47937228999126e6 968242.3233061484 0.0
968242.3233061484 1.177457530891052e7 0.0
0.0 0.0 0.0

-3.614516447886134e7 -903754.2556188478 0.0
-903754.2556188478 1.2106554893184299e7 0.0
0.0 0.0 0.0

-5.383882067107162e6 1.2516370158179825e7 0.0
1.2516370158179825e7 2.544981974887453e6 0.0
0.0 0.0 0.0

-7.288925236911728e6 1.1792654030176623e7 0.0
1.1792654030176623e7 8.518368648664191e6 0.0
0.0 0.0 0.0

-4.354365689611872e6 1.4378355579609679e7 0.0
1.4378355579609679e7 -1.1341855924410124e6 0.0
0.0 0.0 0.0

1.448611084200631e6 5.714860912292857e6 0.0
5.714860912292857e6 -6.2370068988714665e6 0.0
0.0 0.0 0.0

-3.2671865144754937e6 8.854368351696413e6 0.0
8.854368351696413e6 437183.78603545483 0.0
0.0 0.0 0.0

-4.508978693057609e6 1.4488793302761022e7 0.0
1.4488793302761022e7 -367872.81631395407 0.0
0.0 0.0 0.0

-2.346260164399447e6 1.4200684591793247e7 0.0
1.4200684591793247e7 -1.0960931234681013e6 0.0
0.0 0.0 0.0

2.0259221549740778e6 6.248685022260234e6 0.0
6.248685022260234e6 -6.861510530479616e6 0.0
0.0 0.0 0.0

-7.230820121112581e6 1.216173576585334e7 0.0
1.216173576585334e7 8.1548476283892095e6 0.0
0.0 0.0 0.0

-1.3331817058679205e6 1.0823440284591053e7 0.0
1.0823440284591053e7 -3.3186062639901405e6 0.0
0.0 0.0 0.0

4.963093811474332e6 6.320226888296742e6 0.0
6.320226888296742e6 -1.6284483903401185e7 0.0
0.0 0.0 0.0

-1.0574223065423805e7 -4.4565430991760455e6 0.0
-4.4565430991760455e6 1.7767959636917975e7 0.0
0.0 0.0 0.0

1.5596200048169345e6 7.322218320243338e6 0.0
7.322218320243338e6 -6.423796208070507e6 0.0
0.0 0.0 0.0

3.85681498585561e6 6.888606295148334e6 0.0
6.888606295148334e6 -1.1697357654148567e7 0.0
0.0 0.0 0.0

1.261711184179212e6 1.0992040558463922e7 0.0
1.0992040558463922e7 -6.507577991184256e6 0.0
0.0 0.0 0.0

3.060049294683533e6 9.183665754946962e6 0.0
9.183665754946962e6 -1.4966046361212377e7 0.0
0.0 0.0 0.0

-6.581988430830978e6 1.707767868387388e7 0.0
1.707767868387388e7 2.569844083597555e6 0.0
0.0 0.0 0.0

-9.280388933582375e6 1.0732970694686966e7 0.0
1.0732970694686966e7 1.5016026495984089e7 0.0
0.0 0.0 0.0

-1.0719389734430585e7 -4.076486562059966e6 0.0
-4.076486562059966e6 1.6339132180019584e7 0.0
0.0 0.0 0.0

-1.6521535358848032e6 1.1229547818385625e7 0.0
1.1229547818385625e7 -3.0034554616438667e6 0.0
0.0 0.0 0.0

3.9308366820721515e6 7.398195804926833e6 0.0
7.398195804926833e6 -1.3873723128959069e7 0.0
0.0 0.0 0.0

-2.949576723157794e6 1.0721119209091244e7 0.0
1.0721119209091244e7 -105435.736059219 0.0
0.0 0.0 0.0

-4.725345208482467e6 1.1611184609764755e7 0.0
1.1611184609764755e7 1.6324866596412032e6 0.0
0.0 0.0 0.0

-4.773566626775227e6 3.6336735167295155e6 0.0
3.6336735167295155e6 5.315233069791064e6 0.0
0.0 0.0 0.0

-2.9356812969044084e6 1.5063273502629854e7 0.0
1.5063273502629854e7 -2.2757890627562143e6 0.0
0.0 0.0 0.0

1.5774337812580927e6 1.0856855116574414e7 0.0
1.0856855116574414e7 -5.188384624109704e6 0.0
0.0 0.0 0.0

-4.204351810274529e6 1.341135866781343e7 0.0
1.341135866781343e7 1.1823359969381175e6 0.0
0.0 0.0 0.0

5.283635058292786e6 5.521698706503446e6 0.0
5.521698706503446e6 -1.5361537715482278e7 0.0
0.0 0.0 0.0

-5.123662033360734e6 1.185577563491432e7 0.0
1.185577563491432e7 2.2511439882732728e6 0.0
0.0 0.0 0.0

255805.81397219305 9.152041828798423e6 0.0
9.152041828798423e6 -5.337189003072965e6 0.0
0.0 0.0 0.0

-1.5951967710157088e6 7.550374351144232e6 0.0
7.550374351144232e6 -2.1660067089580367e6 0.0
0.0 0.0 0.0

-839534.2383286874 8.84434735213274e6 0.0
8.84434735213274e6 -3.102971939806826e6 0.0
0.0 0.0 0.0

-768473.0254176438 6.369158261459152e6 0.0
6.369158261459152e6 -1.802913724891537e6 0.0
0.0 0.0 0.0

1.636935536374138e6 1.0747665240610631e7 0.0
1.0747665240610631e7 -5.325574862672728e6 0.0
0.0 0.0 0.0

-1.1033372137978114e7 2.137808364952379e6 0.0
2.137808364952379e6 1.5316143167780787e7 0.0
0.0 0.0 0.0

-389525.06371120457 9.833457458558103e6 0.0
9.833457458558103e6 -4.5215737196529005e6 0.0
0.0 0.0 0.0

-437439.9535452043 6.41189228692594e6 0.0
6.41189228692594e6 -2.878148521971406e6 0.0
0.0 0.0 0.0

-7.172461329858156e6 1.5720282226536062e7 0.0
1.5720282226536062e7 6.222312606893986e6 0.0
0.0 0.0 0.0

-3.221936274859282e6 1.3175134719573457e7 0.0
1.3175134719573457e7 -1.1719869130638803e6 0.0
0.0 0.0 0.0

1.0412883201448801e6 1.090604112477886e7 0.0
1.090604112477886e7 -9.143129567849943e6 0.0
0.0 0.0 0.0

1.2198213881157967e6 7.61110323230203e6 0.0
7.61110323230203e6 -6.001313927818974e6 0.0
0.0 0.0 0.0

-5.010197390786493e6 1.2839240482703928e7 0.0
1.2839240482703928e7 3.0261930338974367e6 0.0
0.0 0.0 0.0

-7.327653665719265e6 1.120986074824105e7 0.0
1.120986074824105e7 8.933162714954874e6 0.0
0.0 0.0 0.0

-6.1134526215653755e6 1.1933707325879687e7 0.0
1.1933707325879687e7 9.98609126122537e6 0.0
0.0 0.0 0.0

3.9325807721425993e6 7.554624652940544e6 0.0
7.554624652940544e6 -1.4656673085595567e7 0.0
0.0 0.0 0.0

-4.9374672692178665e6 1.1628459196224019e7 0.0
1.1628459196224019e7 3.32363492012837e6 0.0
0.0 0.0 0.0

-4.806269582338026e6 1.2198700303626709e7 0.0
1.2198700303626709e7 2.7625332536561894e6 0.0
0.0 0.0 0.0

-4.298652327487145e6 5.361679258478458e6 0.0
5.361679258478458e6 2.305059411086473e6 0.0
0.0 0.0 0.0

-6.672178419738461e6 1.7505092447468806e7 0.0
1.7505092447468806e7 2.5993728717087437e6 0.0
0.0 0.0 0.0

-188392.48498546332 8.93032474531625e6 0.0
8.93032474531625e6 -4.367076479844435e6 0.0
0.0 0.0 0.0

-8.022470631742472e6 8.497060798947645e6 0.0
8.497060798947645e6 7.893682165135361e6 0.0
0.0 0.0 0.0

1.1643917881776227e6 7.316236595292369e6 0.0
7.316236595292369e6 -5.804837159575151e6 0.0
0.0 0.0 0.0

-1.003510598920452e6 7.260474988183386e6 0.0
7.260474988183386e6 -1.8352687287551526e6 0.0
0.0 0.0 0.0

-4.917078446991362e6 1.2995240569247836e7 0.0
1.2995240569247836e7 2.794626805482987e6 0.0
0.0 0.0 0.0

-5.198995116661844e6 1.3395980088662084e7 0.0
1.3395980088662084e7 3.147082734211995e6 0.0
0.0 0.0 0.0

-420618.20812973357 9.606729734555578e6 0.0
9.606729734555578e6 -4.277759390897653e6 0.0
0.0 0.0 0.0

1.6871365951066993e6 1.174935306889083e7 0.0
1.174935306889083e7 -5.709679565043911e6 0.0
0.0 0.0 0.0

628479.1302538409 1.6246577893326582e7 0.0
1.6246577893326582e7 -5.485693296143794e6 0.0
0.0 0.0 0.0

-3.765489766006077e6 1.357866457157618e7 0.0
1.357866457157618e7 3.321903872054714e6 0.0
0.0 0.0 0.0

-1.7327701215709315e6 1.1598024976602456e7 0.0
1.1598024976602456e7 -1.1959060570948143e7 0.0
0.0 0.0 0.0

418596.87718843087 7.977637289423914e6 0.0
7.977637289423914e6 -4.903740967403827e6 0.0
0.0 0.0 0.0

-8.111068043160852e6 1.8029069738237355e6 0.0
1.8029069738237355e6 1.0552220032625927e7 0.0
0.0 0.0 0.0

-898033.2238276049 1.3196305589428002e7 0.0
1.3196305589428002e7 -878482.7585155015 0.0
0.0 0.0 0.0

-2.331288394041806e6 1.3179756068641102e7 0.0
1.3179756068641102e7 -178240.80643773288 0.0
0.0 0.0 0.0

-4.889287366814095e6 1.1895146016556965e7 0.0
1.1895146016556965e7 3.026656774356397e6 0.0
0.0 0.0 0.0

-8.60762138851523e6 -257263.95926126774 0.0
-257263.95926126774 1.1449873883367747e7 0.0
0.0 0.0 0.0

-7.468461818556819e6 1.5934329230264379e7 0.0
1.5934329230264379e7 6.520616121293133e6 0.0
0.0 0.0 0.0

-5.245537710936717e6 1.2705699205511073e7 0.0
1.2705699205511073e7 2.265947674244727e6 0.0
0.0 0.0 0.0

1.8728504820597155e6 1.0016446396372056e7 0.0
1.0016446396372056e7 -2.518321876868307e6 0.0
0.0 0.0 0.0

279313.3941329959 1.1104436650609529e7 0.0
1.1104436650609529e7 931044.7736476558 0.0
0.0 0.0 0.0

-5.024385155542352e6 1.1276826159788517e7 0.0
1.1276826159788517e7 3.695782410084393e6 0.0
0.0 0.0 0.0

-6.621459917911738e6 9.53926216670913e6 0.0
9.53926216670913e6 5.18528167385241e6 0.0
0.0 0.0 0.0

1.9670476223614067e6 5.908539908109121e6 0.0
5.908539908109121e6 -6.738906364340347e6 0.0
0.0 0.0 0.0

-4.195228345457429e6 1.3587945187513394e7 0.0
1.3587945187513394e7 920430.5486766843 0.0
0.0 0.0 0.0

-6.488829625825115e6 7.3097069528028695e6 0.0
7.3097069528028695e6 7.589723873955617e6 0.0
0.0 0.0 0.0

2.89690056943097e6 5.737510206315947e6 0.0
5.737510206315947e6 -9.392021078451447e6 0.0
0.0 0.0 0.0

-3.851180980239921e6 1.2697432860966235e7 0.0
1.2697432860966235e7 -540798.7050366327 0.0
0.0 0.0 0.0

-4.489982712673333e6 1.173530459544345e7 0.0
1.173530459544345e7 2.407259553517349e6 0.0
0.0 0.0 0.0

-139981.6750149841 6.082922584649104e6 0.0
6.082922584649104e6 -3.37008399059653e6 0.0
0.0 0.0 0.0

1.0735796152158151e6 8.08547619159159e6 0.0
8.08547619159159e6 -7.224727008357405e6 0.0
0.0 0.0 0.0

-1.2351543159716789e7 2.5943151833554637e7 0.0
2.5943151833554637e7 7.822257725683631e6 0.0
0.0 0.0 0.0

5.601115049122338e6 8.01453046781779e6 0.0
8.01453046781779e6 -2.133754986830033e7 0.0
0.0 0.0 0.0

3.240632590813673e6 6.197711019255212e6 0.0
6.197711019255212e6 -1.058336564738509e7 0.0
0.0 0.0 0.0

1.45026767341557e6 8.938817267756743e6 0.0
8.938817267756743e6 -7.728332934968181e6 0.0
0.0 0.0 0.0

-2.8265861874546134e6 1.3393601820967691e7 0.0
1.3393601820967691e7 1.9891466143213497e6 0.0
0.0 0.0 0.0

1.3934141705081626e6 1.039447549849798e7 0.0
1.039447549849798e7 -1.101522004537747e7 0.0
0.0 0.0 0.0

441739.90823703515 7.737020380189971e6 0.0
7.737020380189971e6 -4.836127718577839e6 0.0
0.0 0.0 0.0

-1.1851651098546833e6 7.2843131421101615e6 0.0
7.2843131421101615e6 -2.717459077485364e6 0.0
0.0 0.0 0.0

-637128.4094501871 1.247358468911639e7 0.0
1.247358468911639e7 3.623565033493203e6 0.0
0.0 0.0 0.0

-9.176816866400972e6 1.0838250109180754e7 0.0
1.0838250109180754e7 1.3886544462671995e7 0.0
0.0 0.0 0.0

762996.2622391044 1.0205980917212717e7 0.0
1.0205980917212717e7 6.712746701565196e6 0.0
0.0 0.0 0.0

-8.9602951591146e6 1.7253177287559826e7 0.0
1.7253177287559826e7 7.2253776414279165e6 0.0
0.0 0.0 0.0

-1.39968471815712e6 9.638865532914318e6 0.0
9.638865532914318e6 -3.676471245352598e6 0.0
0.0 0.0 0.0

-1.336608190979692e7 1.1122321373932369e7 0.0
1.1122321373932369e7 4.275308891622626e6 0.0
0.0 0.0 0.0

-1.0200280008526806e6 1.0435675465644432e7 0.0
1.0435675465644432e7 -3.6503574877104103e6 0.0
0.0 0.0 0.0

-4.511555560871007e6 1.195414712819843e7 0.0
1.195414712819843e7 2.1440445675882995e6 0.0
0.0 0.0 0.0

-561758.1241060405 8.90641233626419e6 0.0
8.90641233626419e6 -3.7231109777520713e6 0.0
0.0 0.0 0.0

1.0881972018446205e6 1.0939966188401012e7 0.0
1.0939966188401012e7 -1.1543870394093284e7 0.0
0.0 0.0 0.0

2.5331179557547816e6 5.8371949434507275e6 0.0
5.8371949434507275e6 -8.963581583978463e6 0.0
0.0 0.0 0.0

3.5813552321676333e6 8.644323140213665e6 0.0
8.644323140213665e6 -1.3692807471638758e7 0.0
0.0 0.0 0.0

-3.0520136302298647e6 1.2441243819862857e7 0.0
1.2441243819862857e7 4.882602579486862e6 0.0
0.0 0.0 0.0

3.054038351542364e6 6.815037513813062e6 0.0
6.815037513813062e6 -9.847843225137508e6 0.0
0.0 0.0 0.0

-3.7956287312948294e6 1.287090545198185e7 0.0
1.287090545198185e7 -745314.306129103 0.0
0.0 0.0 0.0

-2.0446252164222305e6 1.1930922355223922e7 0.0
1.1930922355223922e7 -4.232766464093482e6 0.0
0.0 0.0 0.0

-1.3470902137961835e6 8.633669536208237e6 0.0
8.633669536208237e6 -3.0730687110322425e6 0.0
0.0 0.0 0.0

-2.994207666586362e6 9.242533006866759e6 0.0
9.242533006866759e6 -484863.2674470815 0.0
0.0 0.0 0.0

-8.159084924872784e6 9.034994448004423e6 0.0
9.034994448004423e6 8.639944328506202e6 0.0
0.0 0.0 0.0

1.8705479414488664e6 7.608089523928896e6 0.0
7.608089523928896e6 -7.240304093279671e6 0.0
0.0 0.0 0.0

-1.0859484443491727e7 1.8333253543185763e7 0.0
1.8333253543185763e7 8.16725530226901e6 0.0
0.0 0.0 0.0

-7.889222855599847e6 1.60381639428294e7 0.0
1.60381639428294e7 6.932769229998279e6 0.0
0.0 0.0 0.0

-8.435339506685618e6 1.0101936599630725e7 0.0
1.0101936599630725e7 9.61404905349122e6 0.0
0.0 0.0 0.0

-1.4352508546742103e6 7.93417850603863e6 0.0
7.93417850603863e6 -4.784169495753431e6 0.0
0.0 0.0 0.0

335874.358382117 1.0488382011942448e7 0.0
1.0488382011942448e7 -6.840104387411854e6 0.0
0.0 0.0 0.0

2.7782704364869716e6 6.652147481736712e6 0.0
6.652147481736712e6 -9.073210454448264e6 0.0
0.0 0.0 0.0

-5.6237211671242155e6 1.4000415966299422e7 0.0
1.4000415966299422e7 5.879768169809824e6 0.0
0.0 0.0 0.0

-6.842434021395229e6 4.47001905533224e6 0.0
4.47001905533224e6 6.136529690211977e6 0.0
0.0 0.0 0.0

-3.5960056960733905e6 1.6111541753362866e7 0.0
1.6111541753362866e7 -925701.1065765137 0.0
0.0 0.0 0.0

-1.2199620802800167e7 -3.6528915880638836e6 0.0
-3.6528915880638836e6 2.617000623731011e7 0.0
0.0 0.0 0.0

-2.561116969989488e6 1.1529755039333079e7 0.0
1.1529755039333079e7 -2.5260802325808243e6 0.0
0.0 0.0 0.0

-4.373279485870364e6 -1.6450436041723946e6 0.0
-1.6450436041723946e6 6.445917572980398e6 0.0
0.0 0.0 0.0

-887588.1908559699 5.354968885032183e6 0.0
5.354968885032183e6 -773558.8728500707 0.0
0.0 0.0 0.0

2.0931543670717105e6 5.4661786514561195e6 0.0
5.4661786514561195e6 -6.781109118382175e6 0.0
0.0 0.0 0.0

-1.1908289111961376e7 6.391838345502082e6 0.0
6.391838345502082e6 1.5187254760584448e7 0.0
0.0 0.0 0.0

3.022189262895324e6 8.605236546078369e6 0.0
8.605236546078369e6 -1.1697829606017504e7 0.0
0.0 0.0 0.0

-3.621028888040901e6 1.281172793968128e7 0.0
1.281172793968128e7 199729.65617974335 0.0
0.0 0.0 0.0

-5.156561692924628e6 1.2641318015750954e7 0.0
1.2641318015750954e7 3.2728009098350573e6 0.0
0.0 0.0 0.0

-1.9008750714331684e6 9.870353328228017e6 0.0
9.870353328228017e6 -1.7099023939365814e6 0.0
0.0 0.0 0.0

-5.806839214834242e6 1.2888935746841952e7 0.0
1.2888935746841952e7 4.611683045814968e6 0.0
0.0 0.0 0.0

714617.2040749267 5.641763471621132e6 0.0
5.641763471621132e6 -5.020345438065589e6 0.0
0.0 0.0 0.0

-3.058540657232522e6 1.1056415555515418e7 0.0
1.1056415555515418e7 -1.2408199068264212e6 0.0
0.0 0.0 0.0

-790589.5409066384 1.6650364205813741e7 0.0
1.6650364205813741e7 -4.094191801465302e6 0.0
0.0 0.0 0.0

512159.75267514796 7.438124232729841e6 0.0
7.438124232729841e6 -4.8239584098927565e6 0.0
0.0 0.0 0.0

-778799.6281368104 9.776931049248584e6 0.0
9.776931049248584e6 -3.740203917216806e6 0.0
0.0 0.0 0.0

-1.7214585642959417e6 1.3769975955640435e7 0.0
1.3769975955640435e7 -1.1118745201017559e6 0.0
0.0 0.0 0.0

-1.8981812583033945e6 9.59826652418742e6 0.0
9.59826652418742e6 -1.516691428086331e6 0.0
0.0 0.0 0.0

3.2760391273955912e6 1.3288917385082018e7 0.0
1.3288917385082018e7 -6.1650345607394995e6 0.0
0.0 0.0 0.0

249918.31163672078 5.726953865009382e6 0.0
5.726953865009382e6 -3.698651246027745e6 0.0
0.0 0.0 0.0

4.0026652217254527e6 6.147891361657178e6 0.0
6.147891361657178e6 -1.2281065860555768e7 0.0
0.0 0.0 0.0

553831.7419134156 6.02492285562369e6 0.0
6.02492285562369e6 -2.5790351315754163e6 0.0
0.0 0.0 0.0

-759673.4455971378 7.050832947001735e6 0.0
7.050832947001735e6 -3.257218309568613e6 0.0
0.0 0.0 0.0

-2.08969250973451e6 1.0029278729153413e7 0.0
1.0029278729153413e7 -2.5768235240666424e6 0.0
0.0 0.0 0.0

-1.0241461185484466e6 5.985084846863127e6 0.0
5.985084846863127e6 -734763.301648984 0.0
0.0 0.0 0.0

1.7266966986553953e6 5.993749023350098e6 0.0
5.993749023350098e6 -5.826370057202654e6 0.0
0.0 0.0 0.0

289863.76308734994 1.2547559809716083e7 0.0
1.2547559809716083e7 -7.520100791802517e6 0.0
0.0 0.0 0.0

-310485.2277386157 6.886877943606721e6 0.0
6.886877943606721e6 -3.8416009572182614e6 0.0
0.0 0.0 0.0

-1.1813656849696683e7 2.4170011144071948e7 0.0
2.4170011144071948e7 7.491489168863255e6 0.0
0.0 0.0 0.0

1.3376800388380226e6 1.1465357643516064e7 0.0
1.1465357643516064e7 4.0970966094514946e6 0.0
0.0 0.0 0.0

68854.5617700133 6.711426791403557e6 0.0
6.711426791403557e6 -4.212533180831762e6 0.0
0.0 0.0 0.0

-3.5046791922129486e6 8.029007653030261e6 0.0
8.029007653030261e6 2.1106063990473077e6 0.0
0.0 0.0 0.0

973816.9522469228 5.068288696196122e6 0.0
5.068288696196122e6 -5.233197141382313e6 0.0
0.0 0.0 0.0

-1.0957801462713802e7 2.6053827305508526e6 0.0
2.6053827305508526e6 1.4313349676874712e7 0.0
0.0 0.0 0.0

428350.99099917896 6.552504811513584e6 0.0
6.552504811513584e6 -4.54304097730628e6 0.0
0.0 0.0 0.0

-1.209038090456922e7 1.73462281402132e7 0.0
1.73462281402132e7 9.050405768776145e6 0.0
0.0 0.0 0.0

-3.22334141795059e6 1.6408952779312817e7 0.0
1.6408952779312817e7 -1.360893024875022e6 0.0
0.0 0.0 0.0

3.07467183606465e6 6.40436098695966e6 0.0
6.40436098695966e6 -9.44821430034884e6 0.0
0.0 0.0 0.0

-2.3103670213325606e6 1.2111340026982544e7 0.0
1.2111340026982544e7 -3.541131545661289e6 0.0
0.0 0.0 0.0

3.583226975110758e6 7.130637719131265e6 0.0
7.130637719131265e6 -1.2732344537919216e7 0.0
0.0 0.0 0.0

-2.4454593820114885e6 1.0218452916117143e7 0.0
1.0218452916117143e7 -2.0199577727987105e6 0.0
0.0 0.0 0.0

-2.9946408617899055e6 1.0630834437020048e7 0.0
1.0630834437020048e7 4.740213909417778e6 0.0
0.0 0.0 0.0

-1.7961680370377074e6 1.675058829090808e7 0.0
1.675058829090808e7 -2.904496778552193e6 0.0
0.0 0.0 0.0

732542.0145326699 7.235601733056478e6 0.0
7.235601733056478e6 -4.635279409288365e6 0.0
0.0 0.0 0.0

1.4375063442131379e6 6.745129342675634e6 0.0
6.745129342675634e6 -6.107020144355937e6 0.0
0.0 0.0 0.0

-238844.2628675435 8.077314945243393e6 0.0
8.077314945243393e6 -3.3781167926427093e6 0.0
0.0 0.0 0.0

-8.511247864592036e6 1.6058459556210678e7 0.0
1.6058459556210678e7 7.331204472616205e6 0.0
0.0 0.0 0.0

-2.6136788319079755e6 8.959443458343787e6 0.0
8.959443458343787e6 -1.0740677869670717e6 0.0
0.0 0.0 0.0

-4.702086743705739e6 1.855386849185283e7 0.0
1.855386849185283e7 607139.0343921091 0.0
0.0 0.0 0.0

-1.8793700922707673e6 1.0117605816374287e7 0.0
1.0117605816374287e7 -1.8945290912029753e6 0.0
0.0 0.0 0.0

23511.143043232616 1.2887647916359073e7 0.0
1.2887647916359073e7 4.345944968881518e6 0.0
0.0 0.0 0.0

-1.4433311753887297e6 1.3537589149241976e7 0.0
1.3537589149241976e7 -924884.477095803 0.0
0.0 0.0 0.0

-4.571258285044333e6 1.3611255464698719e7 0.0
1.3611255464698719e7 1.8689103618968576e6 0.0
0.0 0.0 0.0

710716.3297809134 1.1842274056467978e7 0.0
1.1842274056467978e7 -8.162795074185187e6 0.0
0.0 0.0 0.0

2.0282748671804303e6 1.0176454843756337e7 0.0
1.0176454843756337e7 -1.448819701771022e7 0.0
0.0 0.0 0.0

-1.0231581101002485e7 9.388985950635634e6 0.0
9.388985950635634e6 1.3792938809556853e7 0.0
0.0 0.0 0.0

238947.1531046182 8.130213480111015e6 0.0
8.130213480111015e6 -5.880083266172751e6 0.0
0.0 0.0 0.0

-1.0477870240249768e7 3.1193469298391687e6 0.0
3.1193469298391687e6 1.3216561412918491e7 0.0
0.0 0.0 0.0

2.3839378202515203e6 9.094821814149506e6 0.0
9.094821814149506e6 -1.0651627304769162e7 0.0
0.0 0.0 0.0

-915887.9716918352 8.1711715328981215e6 0.0
8.1711715328981215e6 -3.49668767974591e6 0.0
0.0 0.0 0.0

1.9887787842304953e6 4.813014421871529e6 0.0
4.813014421871529e6 -7.048929538980756e6 0.0
0.0 0.0 0.0

-3.6080377584461784e6 1.059412120444217e7 0.0
1.059412120444217e7 -41591.005148070864 0.0
0.0 0.0 0.0

-5.517786322003247e6 1.308877449790442e7 0.0
1.308877449790442e7 2.662498407805504e6 0.0
0.0 0.0 0.0

-5.828743527684424e6 1.5928189415414898e7 0.0
1.5928189415414898e7 1.6114504877800792e6 0.0
0.0 0.0 0.0

-2.750387539697954e6 1.0637894584626267e7 0.0
1.0637894584626267e7 -1.6264472650735572e6 0.0
0.0 0.0 0.0

1.6278205845603717e6 5.809256119036685e6 0.0
5.809256119036685e6 -5.580149418943791e6 0.0
0.0 0.0 0.0

-2.6148820291881333e6 1.6638158707043242e7 0.0
1.6638158707043242e7 -2.0701965510061875e6 0.0
0.0 0.0 0.0

-6.002868644486007e6 5.114192743421891e6 0.0
5.114192743421891e6 7.073985921557459e6 0.0
0.0 0.0 0.0

4.228420887333088e6 7.312591285199492e6 0.0
7.312591285199492e6 -1.5073489129537847e7 0.0
0.0 0.0 0.0

-2.585734088228474e6 1.1604287868690634e7 0.0
1.1604287868690634e7 6.032991734933944e6 0.0
0.0 0.0 0.0

-6.538253694888178e6 1.4525091788722197e7 0.0
1.4525091788722197e7 5.005932468100026e6 0.0
0.0 0.0 0.0

-1.1993172663313074e6 1.1488496670193324e7 0.0
1.1488496670193324e7 -3.7835733466671654e6 0.0
0.0 0.0 0.0

-9.097963756826181e6 1.0976912352658981e7 0.0
1.0976912352658981e7 1.3010126262294602e7 0.0
0.0 0.0 0.0

-727822.6887515064 1.0438686240380093e7 0.0
1.0438686240380093e7 -2.4260752353787613e6 0.0
0.0 0.0 0.0

-446476.30850403756 8.603061353694916e6 0.0
8.603061353694916e6 -4.850576485753299e6 0.0
0.0 0.0 0.0

-1.1468776966844744e6 1.2384210812339773e7 0.0
1.2384210812339773e7 3.571683596944635e6 0.0
0.0 0.0 0.0

-1.1160528287120039e7 2.2815342836179e7 0.0
2.2815342836179e7 7.435743636837052e6 0.0
0.0 0.0 0.0

-1.4706240427038176e6 1.3751261380750857e7 0.0
1.3751261380750857e7 -1.5466416631052704e6 0.0
0.0 0.0 0.0

2.0028082313402463e7 1.2027204507765146e7 0.0
1.2027204507765146e7 -785678.7019542744 0.0
0.0 0.0 0.0

-1.3795180288039655e6 8.926220037575945e6 0.0
8.926220037575945e6 -3.201916110871074e6 0.0
0.0 0.0 0.0

-3.5878196123451665e6 1.0836160212603245e7 0.0
1.0836160212603245e7 -257818.18227247393 0.0
0.0 0.0 0.0

404283.74253032915 9.736602715102892e6 0.0
9.736602715102892e6 -6.858089623944027e6 0.0
0.0 0.0 0.0

-6.002056154086192e6 1.632772201245197e7 0.0
1.632772201245197e7 1.69243719727412e6 0.0
0.0 0.0 0.0

4.111331173956801e6 6.633146954878033e6 0.0
6.633146954878033e6 -1.3413768010996526e7 0.0
0.0 0.0 0.0

480942.3397416733 6.79866179059418e6 0.0
6.79866179059418e6 -4.80822837942262e6 0.0
0.0 0.0 0.0

1.3277911809531366e6 8.383183810824762e6 0.0
8.383183810824762e6 -7.987383536318637e6 0.0
0.0 0.0 0.0

-6.39921886535798e6 1.298359835779153e7 0.0
1.298359835779153e7 7.306972742352153e6 0.0
0.0 0.0 0.0

-3.3733459250910687e6 1.1477583881709795e7 0.0
1.1477583881709795e7 -854723.0944514936 0.0
0.0 0.0 0.0

-1.0064423913538959e6 9.22936572164965e6 0.0
9.22936572164965e6 748788.4075655116 0.0
0.0 0.0 0.0

-768599.0582867665 8.547387618605524e6 0.0
8.547387618605524e6 -2.968791945462328e6 0.0
0.0 0.0 0.0

-2.4957007545195986e6 1.0962486774969602e7 0.0
1.0962486774969602e7 -1.1259288866801178e6 0.0
0.0 0.0 0.0

1.7345280614861306e6 1.104768195454303e7 0.0
1.104768195454303e7 -5.056620644371249e6 0.0
0.0 0.0 0.0

-1.0268334408100653e7 2.1858959164235283e7 0.0
2.1858959164235283e7 7.571528501217345e6 0.0
0.0 0.0 0.0

-2.7934219559613643e6 1.1380140730846917e7 0.0
1.1380140730846917e7 -736335.4655407575 0.0
0.0 0.0 0.0

-502514.082522221 6.799322369702221e6 0.0
6.799322369702221e6 -2.297276737746926e6 0.0
0.0 0.0 0.0

9.578749932430817e6 9.962529731227677e6 0.0
9.962529731227677e6 410203.0818092283 0.0
0.0 0.0 0.0

3.9341192439323235e6 8.676097816914937e6 0.0
8.676097816914937e6 -1.7629436950147685e7 0.0
0.0 0.0 0.0

-5.110119431788402e6 1.3595278802998308e7 0.0
1.3595278802998308e7 3.0235976753845317e6 0.0
0.0 0.0 0.0

-1.0939439426954442e6 7.159874908677862e6 0.0
7.159874908677862e6 -1.37116816131526e6 0.0
0.0 0.0 0.0

-1.0146694583352543e6 8.802276115763595e6 0.0
8.802276115763595e6 -3.682098695222254e6 0.0
0.0 0.0 0.0

-148020.15983470553 8.149804917452832e6 0.0
8.149804917452832e6 -5.163069506904947e6 0.0
0.0 0.0 0.0

-9.661544669633895e6 2.0999570277635653e7 0.0
2.0999570277635653e7 6.851578531373779e6 0.0
0.0 0.0 0.0

2.8253355503730746e6 8.250056525032928e6 0.0
8.250056525032928e6 -1.229742091032474e7 0.0
0.0 0.0 0.0

-8.682392934823751e6 1.8927767936651814e6 0.0
1.8927767936651814e6 8.604094344591022e6 0.0
0.0 0.0 0.0

-3.8209079684616546e6 1.3331372713843735e7 0.0
1.3331372713843735e7 -178548.84725206788 0.0
0.0 0.0 0.0

-1.1782396932420433e6 6.641296672037168e6 0.0
6.641296672037168e6 -768593.7139220184 0.0
0.0 0.0 0.0

-2.2484314592194357e6 1.1128156333988229e7 0.0
1.1128156333988229e7 -2.8957609464869373e6 0.0
0.0 0.0 0.0

-3.7902732940149447e6 1.1447277000187777e7 0.0
1.1447277000187777e7 -31594.464042852866 0.0
0.0 0.0 0.0

618123.4882222759 1.075843846166291e7 0.0
1.075843846166291e7 -9.046631166879987e6 0.0
0.0 0.0 0.0

-9.370370909810217e6 2.028450697586702e7 0.0
2.028450697586702e7 6.855166818507491e6 0.0
0.0 0.0 0.0

-6.477832913524298e6 1.3326246333828472e7 0.0
1.3326246333828472e7 7.106908448868606e6 0.0
0.0 0.0 0.0

-3.0823362342462484e6 1.1796576412755216e7 0.0
1.1796576412755216e7 -362233.1283659934 0.0
0.0 0.0 0.0

3.8485058281421782e6 6.891291327375072e6 0.0
6.891291327375072e6 -1.3097855961490322e7 0.0
0.0 0.0 0.0

-1.3782507010361417e6 7.645984093869729e6 0.0
7.645984093869729e6 -1.4403090686634134e6 0.0
0.0 0.0 0.0

-8.825021275943166e6 1.967233596698703e7 0.0
1.967233596698703e7 6.744112002661767e6 0.0
0.0 0.0 0.0

4.724774681945367e6 8.153929977832349e6 0.0
8.153929977832349e6 -1.779679010627426e7 0.0
0.0 0.0 0.0

-8.130690163507465e6 1.918994251970603e7 0.0
1.918994251970603e7 6.369472189246563e6 0.0
0.0 0.0 0.0

-7.7775004778671395e6 1.8684474216610674e7 0.0
1.8684474216610674e7 5.971521677093603e6 0.0
0.0 0.0 0.0

-5.8913086331500495e6 1.478075402337248e7 0.0
1.478075402337248e7 3.0325562170231054e6 0.0
0.0 0.0 0.0

-6.094861928811552e6 1.5116259570552733e7 0.0
1.5116259570552733e7 3.3965200468786526e6 0.0
0.0 0.0 0.0

-6.30926115002716e6 1.5485934356101615e7 0.0
1.5485934356101615e7 3.710823259422848e6 0.0
0.0 0.0 0.0

-6.482728259281339e6 1.5828818292288411e7 0.0
1.5828818292288411e7 4.011673294647507e6 0.0
0.0 0.0 0.0

-6.701342274039156e6 1.6121163748258024e7 0.0
1.6121163748258024e7 4.339392155100565e6 0.0
0.0 0.0 0.0

-6.913739598993998e6 1.648204757621609e7 0.0
1.648204757621609e7 4.526677726046361e6 0.0
0.0 0.0 0.0

-3.1987524845312648e6 8.43753052423835e6 0.0
8.43753052423835e6 562612.0693229155 0.0
0.0 0.0 0.0

-7.221788037568807e6 1.679463778521086e7 0.0
1.679463778521086e7 4.958800020528468e6 0.0
0.0 0.0 0.0

-7.611210130889321e6 1.717858296894806e7 0.0
1.717858296894806e7 5.17852512332079e6 0.0
0.0 0.0 0.0

-7.575017947523349e6 8.598390850936104e6 0.0
8.598390850936104e6 9.341201560319778e6 0.0
0.0 0.0 0.0

-7.608002835287901e6 1.824622061144652e7 0.0
1.824622061144652e7 5.912980121533737e6 0.0
0.0 0.0 0.0

-7.955354964562725e6 1.7550012219889086e7 0.0
1.7550012219889086e7 5.300365712751476e6 0.0
0.0 0.0 0.0

-8.174218326798672e6 1.798310196995451e7 0.0
1.798310196995451e7 5.497986974926731e6 0.0
0.0 0.0 0.0

-7.314935746102078e6 1.781526714771756e7 0.0
1.781526714771756e7 5.71541098073193e6 0.0
0.0 0.0 0.0

-1.5605522817672892e6 9.688645204752157e6 0.0
9.688645204752157e6 -2.280308664490691e6 0.0
0.0 0.0 0.0

-8.545682717039026e6 1.8459543058980245e7 0.0
1.8459543058980245e7 5.619308161214358e6 0.0
0.0 0.0 0.0

-7.2841121389216315e6 1.7400250906410247e7 0.0
1.7400250906410247e7 5.48972567660729e6 0.0
0.0 0.0 0.0

-6.92753955738321e6 1.705847395547898e7 0.0
1.705847395547898e7 5.278380565594133e6 0.0
0.0 0.0 0.0

-6.619466334751951e6 1.6785103855556965e7 0.0
1.6785103855556965e7 4.9728935032419935e6 0.0
0.0 0.0 0.0

-6.456166244681066e6 1.6359230593654793e7 0.0
1.6359230593654793e7 4.710912516052574e6 0.0
0.0 0.0 0.0

-6.213339552708305e6 1.6066278806316385e7 0.0
1.6066278806316385e7 4.399218294075673e6 0.0
0.0 0.0 0.0

-6.039555422852607e6 1.5734966680976473e7 0.0
1.5734966680976473e7 4.133233634661097e6 0.0
0.0 0.0 0.0

-5.821126504153812e6 1.5387743066478658e7 0.0
1.5387743066478658e7 3.8360315996148023e6 0.0
0.0 0.0 0.0

-5.576091682784144e6 1.5050672519746047e7 0.0
1.5050672519746047e7 3.474240333308591e6 0.0
0.0 0.0 0.0

-4.1824661872264985e6 1.288565406780313e7 0.0
1.288565406780313e7 124941.88440492772 0.0
0.0 0.0 0.0

-9.824596395080402e6 9.690136290887862e6 0.0
9.690136290887862e6 1.3020287005912904e7 0.0
0.0 0.0 0.0

-9.101150811041363e6 1.883401732910112e7 0.0
1.883401732910112e7 5.81252878117125e6 0.0
0.0 0.0 0.0

2.2745876503149616e6 7.003841552625679e6 0.0
7.003841552625679e6 -9.424878772896457e6 0.0
0.0 0.0 0.0

-4.629570860523315e6 1.2626677169130221e7 0.0
1.2626677169130221e7 2.410711208259804e6 0.0
0.0 0.0 0.0

-9.8975364991813e6 1.93473656280605e7 0.0
1.93473656280605e7 6.2354933698102925e6 0.0
0.0 0.0 0.0

-5.622195226574079e6 5.694251768318531e6 0.0
5.694251768318531e6 6.357270707547271e6 0.0
0.0 0.0 0.0

-1.0831884277004853e7 1.9978547952244565e7 0.0
1.9978547952244565e7 6.388991200034535e6 0.0
0.0 0.0 0.0

-7.161594426349703e6 4.575414684936748e6 0.0
4.575414684936748e6 9.378416558096139e6 0.0
0.0 0.0 0.0

-1.1701139689346634e7 2.0676784095115077e7 0.0
2.0676784095115077e7 6.369734241786819e6 0.0
0.0 0.0 0.0

-833750.3247166325 1.2051740119276231e7 0.0
1.2051740119276231e7 -7.076349884873483e6 0.0
0.0 0.0 0.0

1.7532357533159498e6 8.172203548923627e6 0.0
8.172203548923627e6 -7.652494695394538e6 0.0
0.0 0.0 0.0

2.0136624348676745e6 1.0193651569435246e7 0.0
1.0193651569435246e7 -1.3855666052665807e7 0.0
0.0 0.0 0.0

-3.147353064429694e6 1.1589274356391922e7 0.0
1.1589274356391922e7 -139144.5485476749 0.0
0.0 0.0 0.0

-1.3453104353500018e6 9.884733653327793e6 0.0
9.884733653327793e6 -3.8874024844895224e6 0.0
0.0 0.0 0.0

-3.478820449991701e6 1.2497316427405981e7 0.0
1.2497316427405981e7 -1.2133497955960429e6 0.0
0.0 0.0 0.0

-746815.8964312654 1.2226057942621717e7 0.0
1.2226057942621717e7 -7.329530098940067e6 0.0
0.0 0.0 0.0

4.267058329689018e6 5.515240866592104e6 0.0
5.515240866592104e6 -1.1229213417022113e7 0.0
0.0 0.0 0.0

-2.082926130037177e6 8.449336800618228e6 0.0
8.449336800618228e6 -577757.1520054704 0.0
0.0 0.0 0.0

-1.2625355141360208e7 2.1256371465686414e7 0.0
2.1256371465686414e7 6.628589873528909e6 0.0
0.0 0.0 0.0

1.3353094530173005e6 8.426922200606758e6 0.0
8.426922200606758e6 -6.6823782333008535e6 0.0
0.0 0.0 0.0

-9.636303750960223e6 4.197007375900359e6 0.0
4.197007375900359e6 1.2889585956981983e7 0.0
0.0 0.0 0.0

-2.1850896806197856e6 1.0544367817196323e7 0.0
1.0544367817196323e7 -1.5188264976941762e6 0.0
0.0 0.0 0.0

-6.461437815966266e6 1.6343977333894495e7 0.0
1.6343977333894495e7 3.699864192503366e6 0.0
0.0 0.0 0.0

2.570286685363001e6 6.762824639927891e6 0.0
6.762824639927891e6 -9.895873978036081e6 0.0
0.0 0.0 0.0

-1.27230622223825e7 1.705145716436182e7 0.0
1.705145716436182e7 9.828770933854878e6 0.0
0.0 0.0 0.0

-4.235208482143601e6 8.74626748946799e6 0.0
8.74626748946799e6 1.7862864725649122e6 0.0
0.0 0.0 0.0

-9.872010308513807e6 1.3542197082396276e7 0.0
1.3542197082396276e7 5.253007673521624e6 0.0
0.0 0.0 0.0

-616800.2768527664 1.2067430602752928e7 0.0
1.2067430602752928e7 2.531471429403645e6 0.0
0.0 0.0 0.0

-1.4251236668675192e7 2.244023566950685e7 0.0
2.244023566950685e7 6.848786085118357e6 0.0
0.0 0.0 0.0

2.438450366547562e6 8.81070352191629e6 0.0
8.81070352191629e6 -1.201936839332684e7 0.0
0.0 0.0 0.0

-3.3549636341589876e6 9.206287403746152e6 0.0
9.206287403746152e6 273686.09459683043 0.0
0.0 0.0 0.0

-58454.721156910506 8.047772970076244e6 0.0
8.047772970076244e6 -194848.91612177397 0.0
0.0 0.0 0.0

1.8598788193707038e6 7.318138688889714e6 0.0
7.318138688889714e6 -8.360556762357291e6 0.0
0.0 0.0 0.0

279919.63751603407 1.0190680687119583e7 0.0
1.0190680687119583e7 -428137.769353871 0.0
0.0 0.0 0.0

2.044303758993302e6 7.300254640345682e6 0.0
7.300254640345682e6 -8.985929037051354e6 0.0
0.0 0.0 0.0

-457370.4628305358 1.0962546239194412e7 0.0
1.0962546239194412e7 -2.323185164368212e6 0.0
0.0 0.0 0.0

-3.522373831848021e6 1.1784900118425835e7 0.0
1.1784900118425835e7 482568.2465541065 0.0
0.0 0.0 0.0

-3.6770930324382e6 1.1886051844346138e7 0.0
1.1886051844346138e7 -469086.2576798742 0.0
0.0 0.0 0.0

1.3271292926441813e6 7.242025939287895e6 0.0
7.242025939287895e6 -7.18994159872454e6 0.0
0.0 0.0 0.0

5.403166516951891e6 1.3542548589878552e7 0.0
1.3542548589878552e7 5.518977718899871e6 0.0
0.0 0.0 0.0

983531.5044314 8.91568506668677e6 0.0
8.91568506668677e6 -6.4424445638982e6 0.0
0.0 0.0 0.0

-1.1283046271060053e6 9.959446356681006e6 0.0
9.959446356681006e6 -3.1839731518780766e6 0.0
0.0 0.0 0.0

-4.0983270042041307e6 1.3372324341302557e7 0.0
1.3372324341302557e7 2.8398426379832635e6 0.0
0.0 0.0 0.0

67480.3624819445 8.269823926721806e6 0.0
8.269823926721806e6 -4.533051985897213e6 0.0
0.0 0.0 0.0

-6.517727881817788e6 1.3544817800382249e7 0.0
1.3544817800382249e7 6.842615049307856e6 0.0
0.0 0.0 0.0

-1.035856834874637e6 1.2777606503501074e7 0.0
1.2777606503501074e7 4.469720087600218e6 0.0
0.0 0.0 0.0

-4.287153513199284e6 6.626974375314635e6 0.0
6.626974375314635e6 3.7912244282349967e6 0.0
0.0 0.0 0.0

-1.624719106112775e7 2.35490987315224e7 0.0
2.35490987315224e7 6.527197993136396e6 0.0
0.0 0.0 0.0

-7.145170502909397e6 1.2693767466532951e7 0.0
1.2693767466532951e7 1.4871146009339774e7 0.0
0.0 0.0 0.0

-2.5313818766029547e6 9.437011535164343e6 0.0
9.437011535164343e6 -1.4563819978063952e6 0.0
0.0 0.0 0.0

4.224722700589676e6 1.0923319076388463e7 0.0
1.0923319076388463e7 -2.3536882261737864e6 0.0
0.0 0.0 0.0

3.2289127890536236e6 6.692467472671866e6 0.0
6.692467472671866e6 -1.1074121332885692e7 0.0
0.0 0.0 0.0

2.7694273945776755e6 9.10259798801312e6 0.0
9.10259798801312e6 -1.3513334321224742e7 0.0
0.0 0.0 0.0

-6.297436842800632e6 1.000460822713071e7 0.0
1.000460822713071e7 4.68281403350532e6 0.0
0.0 0.0 0.0

-8.830735480831046e6 1.519557993310264e7 0.0
1.519557993310264e7 5.1954652245855145e6 0.0
0.0 0.0 0.0

-3.0067985834433157e6 1.0491326130921774e7 0.0
1.0491326130921774e7 89552.81114926981 0.0
0.0 0.0 0.0

-922259.8868192281 1.0375515080198545e7 0.0
1.0375515080198545e7 -5.111169305719579e6 0.0
0.0 0.0 0.0

-1.2879551666027252e7 1.5223562006254941e7 0.0
1.5223562006254941e7 1.059031690370087e7 0.0
0.0 0.0 0.0

1.2694954068769407e6 8.643049465344615e6 0.0
8.643049465344615e6 -8.211595071383113e6 0.0
0.0 0.0 0.0

-3.35409312991317e6 1.0943968272855628e7 0.0
1.0943968272855628e7 501169.5064823751 0.0
0.0 0.0 0.0

-1.301469217033224e6 7.439744577726641e6 0.0
7.439744577726641e6 -1.3808103802088434e6 0.0
0.0 0.0 0.0

-4.748213649470736e6 1.0262712255361892e7 0.0
1.0262712255361892e7 3.511318038400706e6 0.0
0.0 0.0 0.0

-2.122849677182739e7 3.0439206980449166e7 0.0
3.0439206980449166e7 1.1361334782850211e6 0.0
0.0 0.0 0.0

-4.1983268307191925e6 7.244176962850089e6 0.0
7.244176962850089e6 3.440567470241133e6 0.0
0.0 0.0 0.0

-694124.1542993612 6.586022215158864e6 0.0
6.586022215158864e6 -2.9035307515546037e6 0.0
0.0 0.0 0.0

-3.7383895284125675e6 1.242413907434605e7 0.0
1.242413907434605e7 670879.917165535 0.0
0.0 0.0 0.0

-5.312289235726728e6 1.223682368427984e7 0.0
1.223682368427984e7 2.75919803459479e6 0.0
0.0 0.0 0.0

-1.9747629047621493e6 1.1639776717320923e7 0.0
1.1639776717320923e7 -2.649135894340062e6 0.0
0.0 0.0 0.0

-4.0489773057982097e6 1.2097842610927988e7 0.0
1.2097842610927988e7 168557.31654293276 0.0
0.0 0.0 0.0

-1.1551771093718433e6 4.690224289312319e6 0.0
4.690224289312319e6 -752963.4042700435 0.0
0.0 0.0 0.0

1.4300216833856883e6 9.896801136128955e6 0.0
9.896801136128955e6 -4.802550342155116e6 0.0
0.0 0.0 0.0

-5.67913117532776e6 1.2704189052840423e7 0.0
1.2704189052840423e7 3.223285967021783e6 0.0
0.0 0.0 0.0

609784.2008438688 7.8342808176925825e6 0.0
7.8342808176925825e6 -6.350671847655896e6 0.0
0.0 0.0 0.0

1.6124418830998156e6 1.012832516383309e7 0.0
1.012832516383309e7 -4.408056831345745e6 0.0
0.0 0.0 0.0

-9.628155214473873e6 1.2773745726350706e7 0.0
1.2773745726350706e7 3.428249081414177e6 0.0
0.0 0.0 0.0

-4.0126320179624287e6 7.880036987718216e6 0.0
7.880036987718216e6 3.063463789168938e6 0.0
0.0 0.0 0.0

-453684.34063558164 1.1843995972287312e7 0.0
1.1843995972287312e7 -7.7201795953330565e6 0.0
0.0 0.0 0.0

-6.220253468359647e6 1.2974535158058023e7 0.0
1.2974535158058023e7 4.498843942105895e6 0.0
0.0 0.0 0.0

2.4895756789146205e6 3.9025837653864296e6 0.0
3.9025837653864296e6 -7.831756697975916e6 0.0
0.0 0.0 0.0

827155.0965845424 5.611477840624425e6 0.0
5.611477840624425e6 -2.5489911525797257e6 0.0
0.0 0.0 0.0

1.4336304598945065e6 5.693415857331534e6 0.0
5.693415857331534e6 -3.1469575364814643e6 0.0
0.0 0.0 0.0

-2.758095776357825e6 -1.827592001406315e6 0.0
-1.827592001406315e6 2.683650817585287e6 0.0
0.0 0.0 0.0

1.3293569041726491e6 5.446570760795027e6 0.0
5.446570760795027e6 -3.2647824454196384e6 0.0
0.0 0.0 0.0

-2.9704302662811326e6 -303098.52319558675 0.0
-303098.52319558675 2.4677430018345723e6 0.0
0.0 0.0 0.0

2.185209630346817e6 4.288239231299762e6 0.0
4.288239231299762e6 -6.808218525806686e6 0.0
0.0 0.0 0.0

79535.85028585012 4.717205351552571e6 0.0
4.717205351552571e6 -1.6143998149369953e6 0.0
0.0 0.0 0.0

-458776.18841101904 2.6559330124195726e6 0.0
2.6559330124195726e6 -861214.3120850859 0.0
0.0 0.0 0.0

1.3862436387699286e6 4.852540166534333e6 0.0
4.852540166534333e6 -3.8667883418856435e6 0.0
0.0 0.0 0.0

-1.2165503836007575e6 1.103175596405433e6 0.0
1.103175596405433e6 909427.658596877 0.0
0.0 0.0 0.0

1.5929940510765517e6 4.532725652029651e6 0.0
4.532725652029651e6 -5.800992116564689e6 0.0
0.0 0.0 0.0

901835.4868475839 4.514242761511081e6 0.0
4.514242761511081e6 -4.1257941190970493e6 0.0
0.0 0.0 0.0

654754.1467430232 5.367199730381585e6 0.0
5.367199730381585e6 -2.339394263299199e6 0.0
0.0 0.0 0.0

4.0457319417829933e6 5.600659153265559e6 0.0
5.600659153265559e6 -1.069482050972002e7 0.0
0.0 0.0 0.0

4.264045328848923e6 5.517599990079709e6 0.0
5.517599990079709e6 -1.1122208245319998e7 0.0
0.0 0.0 0.0

3.825605856830381e6 5.496720990181453e6 0.0
5.496720990181453e6 -1.0407636087886399e7 0.0
0.0 0.0 0.0

3.572083551645934e6 4.6919626129899295e6 0.0
4.6919626129899295e6 -9.956064568834856e6 0.0
0.0 0.0 0.0

128883.71409362683 5.174596647237643e6 0.0
5.174596647237643e6 -1.5903899418530874e6 0.0
0.0 0.0 0.0

-1.8048900672666428e6 423022.1619871859 0.0
423022.1619871859 1.3862163091738774e6 0.0
0.0 0.0 0.0

4.1798024362384193e6 5.599364040247695e6 0.0
5.599364040247695e6 -1.0913061191437569e7 0.0
0.0 0.0 0.0

2.9348889745927854e6 4.141969098257912e6 0.0
4.141969098257912e6 -8.837243888523461e6 0.0
0.0 0.0 0.0

3.1575590662188935e6 4.354525084450696e6 0.0
4.354525084450696e6 -9.324097499521334e6 0.0
0.0 0.0 0.0

2.877324437680564e6 4.0480728677362027e6 0.0
4.0480728677362027e6 -8.475288342640176e6 0.0
0.0 0.0 0.0

-32196.213722609216 1.07169524979566e7 0.0
1.07169524979566e7 -6.3172568033218905e6 0.0
0.0 0.0 0.0

-5.241419671513938e6 6.22586636353239e6 0.0
6.22586636353239e6 5.668157219085459e6 0.0
0.0 0.0 0.0

-1.0865580175478412e7 2.343414384277896e6 0.0
2.343414384277896e6 1.2229227776408738e7 0.0
0.0 0.0 0.0

-6.508186431613857e6 1.3822404996317271e7 0.0
1.3822404996317271e7 6.669009801531594e6 0.0
0.0 0.0 0.0

998277.9304751884 1.1071848816659588e7 0.0
1.1071848816659588e7 -1.104704222063572e7 0.0
0.0 0.0 0.0

-4.499467791253369e6 1.0937773804361258e7 0.0
1.0937773804361258e7 1.3736497534271777e6 0.0
0.0 0.0 0.0

-1.8756756482078284e7 2.504938887360033e7 0.0
2.504938887360033e7 6.451030436592036e6 0.0
0.0 0.0 0.0

-2.890609550472304e6 9.912479913758248e6 0.0
9.912479913758248e6 -1.054008054346442e6 0.0
0.0 0.0 0.0

-2.0505716056687918e6 1.1505547122398831e7 0.0
1.1505547122398831e7 -1.4406055207695095e6 0.0
0.0 0.0 0.0

1.0010905523002105e6 1.180679819923341e7 0.0
1.180679819923341e7 3.536493952038169e6 0.0
0.0 0.0 0.0

-2.6656973025830435e6 1.2653788916807972e7 0.0
1.2653788916807972e7 2.226054627430739e6 0.0
0.0 0.0 0.0

-5.12833025376686e6 1.082148980609719e7 0.0
1.082148980609719e7 4.0578139493121924e6 0.0
0.0 0.0 0.0

1334.8972683302127 1.2832073345944282e7 0.0
1.2832073345944282e7 -6.962933100363297e6 0.0
0.0 0.0 0.0

-4.832115436949678e6 9.740107472038683e6 0.0
9.740107472038683e6 3.8722666418333007e6 0.0
0.0 0.0 0.0

-4.3704572068640785e6 1.2342023784124631e7 0.0
1.2342023784124631e7 744975.2541568892 0.0
0.0 0.0 0.0

-3.3057005420888625e6 1.1689729620205821e7 0.0
1.1689729620205821e7 -1.0812245251373725e6 0.0
0.0 0.0 0.0

-3.719973164891257e6 8.232878669557763e6 0.0
8.232878669557763e6 1.2805651592189719e6 0.0
0.0 0.0 0.0

-990949.8161899908 9.715851758638931e6 0.0
9.715851758638931e6 -4.431574488653874e6 0.0
0.0 0.0 0.0

-3.048579437907695e6 1.0295214743344476e7 0.0
1.0295214743344476e7 283240.80623734335 0.0
0.0 0.0 0.0

985108.8015776975 7.545944440538156e6 0.0
7.545944440538156e6 -6.776226261635715e6 0.0
0.0 0.0 0.0

927450.8155599551 5.536735631176863e6 0.0
5.536735631176863e6 -2.0674396812834637e6 0.0
0.0 0.0 0.0

1.1237329870915767e6 5.785207037613287e6 0.0
5.785207037613287e6 -2.5899702127634133e6 0.0
0.0 0.0 0.0

-947106.9976213928 936082.3710762983 0.0
936082.3710762983 1.8635937210552585e6 0.0
0.0 0.0 0.0

556382.261491281 5.409923550079784e6 0.0
5.409923550079784e6 -1.6073488471067315e6 0.0
0.0 0.0 0.0

498242.9837873463 4.959960161119842e6 0.0
4.959960161119842e6 -1.379312720225396e6 0.0
0.0 0.0 0.0

4.090094095756672e6 5.630206001386013e6 0.0
5.630206001386013e6 -1.0693316679650191e7 0.0
0.0 0.0 0.0

4.140992591050499e6 5.57061825515702e6 0.0
5.57061825515702e6 -1.089674967713458e7 0.0
0.0 0.0 0.0

-1.7790359198022191e6 363709.16790110484 0.0
363709.16790110484 3.211836922419748e6 0.0
0.0 0.0 0.0

3.532383503766157e6 4.602207909567619e6 0.0
4.602207909567619e6 -8.839230347138183e6 0.0
0.0 0.0 0.0

2.8757218639851073e6 4.107505004270428e6 0.0
4.107505004270428e6 -7.763070324805e6 0.0
0.0 0.0 0.0

3.2422982219614424e6 4.324344904513064e6 0.0
4.324344904513064e6 -8.4703334474407e6 0.0
0.0 0.0 0.0

3.0129716786342277e6 4.146570536328929e6 0.0
4.146570536328929e6 -8.142092271699321e6 0.0
0.0 0.0 0.0

-2.9730584199545216e6 9.45771841868059e6 0.0
9.45771841868059e6 -673274.7187902499 0.0
0.0 0.0 0.0

-9.26866685272151e6 9.99847908966909e6 0.0
9.99847908966909e6 1.216894044703947e7 0.0
0.0 0.0 0.0

-5.608331216921021e6 9.342069647319753e6 0.0
9.342069647319753e6 5.394276165692942e6 0.0
0.0 0.0 0.0

3.135220323007546e6 6.186228913639017e6 0.0
6.186228913639017e6 -9.53239520633362e6 0.0
0.0 0.0 0.0

-4.366648203653669e6 1.3816093600282533e7 0.0
1.3816093600282533e7 -51646.24750310439 0.0
0.0 0.0 0.0

-4.0656322770415586e6 1.2592523444427997e7 0.0
1.2592523444427997e7 6.646682581615733e6 0.0
0.0 0.0 0.0

-8.802074586635238e6 6.880740214742572e6 0.0
6.880740214742572e6 9.714796972416561e6 0.0
0.0 0.0 0.0

1.651364119430242e6 7.582898305595408e6 0.0
7.582898305595408e6 -7.9691432225127155e6 0.0
0.0 0.0 0.0

1.242801199898221e6 8.874028387007283e6 0.0
8.874028387007283e6 -8.416221004811041e6 0.0
0.0 0.0 0.0

-3.0144562000227384e6 1.1279984180490432e7 0.0
1.1279984180490432e7 -1.4489871762748668e6 0.0
0.0 0.0 0.0

-5.35405515076937e6 1.2436921782470083e7 0.0
1.2436921782470083e7 7.992259903599011e6 0.0
0.0 0.0 0.0

-1.7365123683354617e6 8.03274977314164e6 0.0
8.03274977314164e6 -1.0106901307493366e6 0.0
0.0 0.0 0.0

-2.2903368894913318e6 1.1840296015007319e7 0.0
1.1840296015007319e7 -2.0358958086559346e6 0.0
0.0 0.0 0.0

-4.64360326115183e6 1.3472821966088759e7 0.0
1.3472821966088759e7 2.1783379856968164e6 0.0
0.0 0.0 0.0

587482.9771782453 9.349214158967711e6 0.0
9.349214158967711e6 -6.271510607626308e6 0.0
0.0 0.0 0.0

-3.4457310987871555e6 1.2009844768242862e7 0.0
1.2009844768242862e7 269987.64007204375 0.0
0.0 0.0 0.0

808365.9937973194 2.517237936548626e6 0.0
2.517237936548626e6 2.6782375921983426e6 0.0
0.0 0.0 0.0

-5.106640545452438e6 1.2305711401385298e7 0.0
1.2305711401385298e7 7.630910253380603e6 0.0
0.0 0.0 0.0

3.6307644846050125e6 8.607707915542243e6 0.0
8.607707915542243e6 -1.498314913696726e7 0.0
0.0 0.0 0.0

2.6580148648684733e6 8.928639356983315e6 0.0
8.928639356983315e6 -1.2816142380093344e7 0.0
0.0 0.0 0.0

-1.9594447338712732e6 1.1441041989758413e7 0.0
1.1441041989758413e7 -2.3936055010063783e6 0.0
0.0 0.0 0.0

-6.314076028113275e6 1.372854092967396e7 0.0
1.372854092967396e7 3.6508227193790884e6 0.0
0.0 0.0 0.0

1.8710442008198528e6 5.816364284926177e6 0.0
5.816364284926177e6 -6.340070844142834e6 0.0
0.0 0.0 0.0

-2.6564935905905804e6 1.0031220883442167e7 0.0
1.0031220883442167e7 -303524.7885476148 0.0
0.0 0.0 0.0

-3.751002454563627e6 1.1683538235259693e7 0.0
1.1683538235259693e7 -230822.6941321476 0.0
0.0 0.0 0.0

-3.366621794894747e6 1.221362868839001e7 0.0
1.221362868839001e7 35684.01264679129 0.0
0.0 0.0 0.0

1.2259939420362697e6 1.098318021628672e7 0.0
1.098318021628672e7 -1.1625057204707662e7 0.0
0.0 0.0 0.0

1.8432829869564003e6 8.967593598123295e6 0.0
8.967593598123295e6 -1.0717052265113832e7 0.0
0.0 0.0 0.0

-2.2539833481429634e6 8.105916387943431e6 0.0
8.105916387943431e6 -1.0764833708788368e6 0.0
0.0 0.0 0.0

-5.698580581100883e6 9.866813557877984e6 0.0
9.866813557877984e6 3.73773357056851e6 0.0
0.0 0.0 0.0

1.6120761037218436e6 1.0476152662357163e7 0.0
1.0476152662357163e7 -1.1767128428078253e7 0.0
0.0 0.0 0.0

-3.224704425776203e6 1.2827214787574923e7 0.0
1.2827214787574923e7 -702483.673555652 0.0
0.0 0.0 0.0

1.1936392499187472e6 4.456801319233762e6 0.0
4.456801319233762e6 -5.146370955632646e6 0.0
0.0 0.0 0.0

-5.487420869213592e6 1.8181605929153465e7 0.0
1.8181605929153465e7 1.4210201022391843e6 0.0
0.0 0.0 0.0

1.5695416178441718e6 6.223703772221235e6 0.0
6.223703772221235e6 -5.983803490393876e6 0.0
0.0 0.0 0.0

-1.2110987662464343e6 9.259673406607429e6 0.0
9.259673406607429e6 -2.6825862106797267e6 0.0
0.0 0.0 0.0

-7.324715125945051e6 1.1999530911494372e7 0.0
1.1999530911494372e7 6.915980683091439e6 0.0
0.0 0.0 0.0

-1.9673746325874408e6 8.823884131581666e6 0.0
8.823884131581666e6 -892069.2542414119 0.0
0.0 0.0 0.0

-2.490931241976428e6 9.703800067779716e6 0.0
9.703800067779716e6 -1.6502863985908255e6 0.0
0.0 0.0 0.0

-4.1367465013564387e6 1.1880076872116981e7 0.0
1.1880076872116981e7 397473.03301481064 0.0
0.0 0.0 0.0

-1.8654081647530976e6 7.704799765228606e6 0.0
7.704799765228606e6 -1.4866437559562565e6 0.0
0.0 0.0 0.0

-323729.6742875258 4.489473103245597e6 0.0
4.489473103245597e6 -611574.458159929 0.0
0.0 0.0 0.0

-4.343202833874164e6 9.716758602243014e6 0.0
9.716758602243014e6 2.963709460364446e6 0.0
0.0 0.0 0.0

-4.249126395131435e6 1.0996391045562213e7 0.0
1.0996391045562213e7 2.202097667727827e6 0.0
0.0 0.0 0.0

544723.1021834102 6.225707585565788e6 0.0
6.225707585565788e6 -4.808123254106364e6 0.0
0.0 0.0 0.0

-3.9788362023861976e6 8.580568828707445e6 0.0
8.580568828707445e6 2.704232358491821e6 0.0
0.0 0.0 0.0

-3.9675866175249126e6 1.230273816470907e7 0.0
1.230273816470907e7 -60837.32188750547 0.0
0.0 0.0 0.0

3.199567326395704e6 7.647543612196172e6 0.0
7.647543612196172e6 -1.1001772255925974e7 0.0
0.0 0.0 0.0

-4.687083796651631e6 1.3802717514992291e7 0.0
1.3802717514992291e7 3.156119998297372e6 0.0
0.0 0.0 0.0

-2.7115798221049425e6 1.0862248438974557e7 0.0
1.0862248438974557e7 -1.8202153154959255e6 0.0
0.0 0.0 0.0

934237.9316699179 4.535705485153291e6 0.0
4.535705485153291e6 -4.0448867591600334e6 0.0
0.0 0.0 0.0

-6.683693387977162e6 1.4542932472437873e7 0.0
1.4542932472437873e7 6.105574835405827e6 0.0
0.0 0.0 0.0

-5.479629447736434e6 4.979536067694816e6 0.0
4.979536067694816e6 4.186087075385666e6 0.0
0.0 0.0 0.0

-2.8020485769500732e6 1.0413328332222836e7 0.0
1.0413328332222836e7 -1.4460554335428905e6 0.0
0.0 0.0 0.0

-3.9683916301741954e6 1.2997439566773906e7 0.0
1.2997439566773906e7 805867.3672376629 0.0
0.0 0.0 0.0

-4.998581334167366e6 1.3166757503436064e7 0.0
1.3166757503436064e7 1.633913855699349e6 0.0
0.0 0.0 0.0

-3.5981792473882055e6 1.2098790132622108e7 0.0
1.2098790132622108e7 -705967.1583846124 0.0
0.0 0.0 0.0

-3.9077804323725156e6 1.1998444739920482e7 0.0
1.1998444739920482e7 1.1280844416451624e6 0.0
0.0 0.0 0.0

1.698700782141529e6 4.532022932346393e6 0.0
4.532022932346393e6 -5.910780996489184e6 0.0
0.0 0.0 0.0

-5.222468122909699e6 1.4833357315261332e7 0.0
1.4833357315261332e7 979240.8414424863 0.0
0.0 0.0 0.0

-2.7765790073195114e6 1.3749118234614627e7 0.0
1.3749118234614627e7 -1.7114920249739923e7 0.0
0.0 0.0 0.0

2.6897239885579953e6 1.3360023585640172e7 0.0
1.3360023585640172e7 2.4007689119209733e7 0.0
0.0 0.0 0.0

434658.19473412726 1.0216166754222266e7 0.0
1.0216166754222266e7 -8.107466141141375e6 0.0
0.0 0.0 0.0

-2.6580326583021735e6 1.2005166730155751e7 0.0
1.2005166730155751e7 -1.442512444355344e6 0.0
0.0 0.0 0.0

-125686.09128839197 1.0405819456937812e7 0.0
1.0405819456937812e7 -9.625266383731227e6 0.0
0.0 0.0 0.0

-2.398325815031372e6 1.0447752558509199e7 0.0
1.0447752558509199e7 -2.204022604121598e6 0.0
0.0 0.0 0.0

-1.0634022515487494e6 1.2933271708100725e7 0.0
1.2933271708100725e7 -5.668693175861359e6 0.0
0.0 0.0 0.0

-1.709487705656016e6 1.006306134811635e7 0.0
1.006306134811635e7 -3.320737084039698e6 0.0
0.0 0.0 0.0

-4.152097881162747e6 1.1686540896240925e7 0.0
1.1686540896240925e7 598223.774909704 0.0
0.0 0.0 0.0

4.451899422319192e6 8.3151721999383615e6 0.0
8.3151721999383615e6 -1.7085594678190276e7 0.0
0.0 0.0 0.0

-5.0512510351792e6 1.3356670236366365e7 0.0
1.3356670236366365e7 2.240787350845121e6 0.0
0.0 0.0 0.0

-5.513769961255064e6 1.1686890382581167e7 0.0
1.1686890382581167e7 3.2512528601249596e6 0.0
0.0 0.0 0.0

-1.497870649027781e6 1.0147193393615505e7 0.0
1.0147193393615505e7 -2.636146118168272e6 0.0
0.0 0.0 0.0

1.5594341879668254e6 9.261434495385041e6 0.0
9.261434495385041e6 -1.0150396254504887e7 0.0
0.0 0.0 0.0

3.7516508822463136e6 1.307016341237969e7 0.0
1.307016341237969e7 1.2505500086426087e7 0.0
0.0 0.0 0.0

-2.567551489979636e6 1.2531053089853214e7 0.0
1.2531053089853214e7 -2.708821885534084e6 0.0
0.0 0.0 0.0

-2.3399949828534216e7 2.714347874086243e7 0.0
2.714347874086243e7 6.489865262183236e6 0.0
0.0 0.0 0.0

714595.5092496793 9.978144366724e6 0.0
9.978144366724e6 -8.608948588981565e6 0.0
0.0 0.0 0.0

-3.0167117497157287e6 1.2006063952707948e7 0.0
1.2006063952707948e7 -592053.9894206773 0.0
0.0 0.0 0.0

1.633992312356843e6 4.558493731283214e6 0.0
4.558493731283214e6 -5.740220650203366e6 0.0
0.0 0.0 0.0

2.831170286418928e6 7.141156595058939e6 0.0
7.141156595058939e6 -1.0824016929311942e7 0.0
0.0 0.0 0.0

-4.340803604283407e6 1.3076397461469272e7 0.0
1.3076397461469272e7 1.7555343492675105e6 0.0
0.0 0.0 0.0

-944767.2907378133 1.158430827450622e7 0.0
1.158430827450622e7 -1.3329944627348159e7 0.0
0.0 0.0 0.0

-1.8431254642750619e6 1.0351248727388501e7 0.0
1.0351248727388501e7 -2.0815582286051037e6 0.0
0.0 0.0 0.0

542932.9164873473 8.463703823979786e6 0.0
8.463703823979786e6 -5.347247612137336e6 0.0
0.0 0.0 0.0

-2.761611745257533e6 9.3749368985242e6 0.0
9.3749368985242e6 243200.6087427768 0.0
0.0 0.0 0.0

1.0407883228717395e6 9.751127446568806e6 0.0
9.751127446568806e6 -9.15400596572038e6 0.0
0.0 0.0 0.0

-3.0140222453378136e6 9.013326638711493e6 0.0
9.013326638711493e6 -296242.373353711 0.0
0.0 0.0 0.0

-77861.90366323292 1.1625320601602074e7 0.0
1.1625320601602074e7 -8.323229372849221e6 0.0
0.0 0.0 0.0

-1.4378685723362435e7 1.545757677044441e7 0.0
1.545757677044441e7 5.738339116062673e6 0.0
0.0 0.0 0.0

-154476.42069093644 4.1116115414924775e6 0.0
4.1116115414924775e6 -1.3607816858863933e6 0.0
0.0 0.0 0.0

-3.15128078681714e6 9.211225589674367e6 0.0
9.211225589674367e6 953377.0634147062 0.0
0.0 0.0 0.0

-3.814032841324652e6 1.220983661552746e7 0.0
1.220983661552746e7 922873.505108526 0.0
0.0 0.0 0.0

-9.723059180482704e6 -4.416185798785954e6 0.0
-4.416185798785954e6 2.060604240723818e7 0.0
0.0 0.0 0.0

-1.361315481502508e6 1.2393462969843317e7 0.0
1.2393462969843317e7 3.023107769947436e6 0.0
0.0 0.0 0.0

-2.0570984081525453e6 1.0249617529157052e7 0.0
1.0249617529157052e7 -2.7696421018204256e6 0.0
0.0 0.0 0.0

-1.7304876125709026e6 1.2606994348371578e7 0.0
1.2606994348371578e7 -4.427079932213921e6 0.0
0.0 0.0 0.0

-1.8436513620607879e6 1.1145138468189903e7 0.0
1.1145138468189903e7 -3.6437730775985797e6 0.0
0.0 0.0 0.0

-1.096255736275309e6 8.98667249522673e6 0.0
8.98667249522673e6 -3.845457328554799e6 0.0
0.0 0.0 0.0

-2.9040213174018054e6 1.1703152850758553e7 0.0
1.1703152850758553e7 -1.915839497078374e6 0.0
0.0 0.0 0.0

-5.92067103482773e6 1.0037806583812961e7 0.0
1.0037806583812961e7 5.933918912065101e6 0.0
0.0 0.0 0.0

-3.377065903706248e6 1.0751712741453813e7 0.0
1.0751712741453813e7 694699.0290573393 0.0
0.0 0.0 0.0

-2.842182119289581e6 1.0160771837206705e7 0.0
1.0160771837206705e7 -1.2584790045730658e6 0.0
0.0 0.0 0.0

4.01441885438376e6 7.310396700175469e6 0.0
7.310396700175469e6 -1.3367467095470559e7 0.0
0.0 0.0 0.0

-6.584008793968424e6 1.497972311915033e7 0.0
1.497972311915033e7 6.282001230845646e6 0.0
0.0 0.0 0.0

62862.54514274094 6.0281876821425995e6 0.0
6.0281876821425995e6 -2.1376253347584135e6 0.0
0.0 0.0 0.0

-5.360328606286006e6 9.84012020105558e6 0.0
9.84012020105558e6 4.8839915688080955e6 0.0
0.0 0.0 0.0

98399.18766048644 8.484315433167342e6 0.0
8.484315433167342e6 -4.67434472957736e6 0.0
0.0 0.0 0.0

3.1761006502420525e6 5.426193594604938e6 0.0
5.426193594604938e6 -9.248880113631606e6 0.0
0.0 0.0 0.0

1.3013294388292604e6 9.482934633070882e6 0.0
9.482934633070882e6 -9.68199482429599e6 0.0
0.0 0.0 0.0

-997841.7734110474 6.882742325503538e6 0.0
6.882742325503538e6 -2.392829868838848e6 0.0
0.0 0.0 0.0

-1.169257324679202e7 5.761111445081622e6 0.0
5.761111445081622e6 1.332406835241991e7 0.0
0.0 0.0 0.0

-2.6646552901497483e6 1.1087406663410513e7 0.0
1.1087406663410513e7 -2.0379349484405124e6 0.0
0.0 0.0 0.0

497108.62021715083 4.4563395918033e6 0.0
4.4563395918033e6 -1.011170693318716e6 0.0
0.0 0.0 0.0

-2.6383052987068216e6 8.545636567425868e6 0.0
8.545636567425868e6 -685770.8816160026 0.0
0.0 0.0 0.0

-2.0659767701138686e6 1.283753995226631e7 0.0
1.283753995226631e7 -3.700704709804039e6 0.0
0.0 0.0 0.0

609836.5127043524 1.1349585440143386e7 0.0
1.1349585440143386e7 -9.835688921540342e6 0.0
0.0 0.0 0.0

721366.297095817 8.624271326399377e6 0.0
8.624271326399377e6 -6.976709749947505e6 0.0
0.0 0.0 0.0

228620.18258187827 7.290760139947388e6 0.0
7.290760139947388e6 -4.651176985198127e6 0.0
0.0 0.0 0.0

-2.1438978012883e6 1.0770174608296895e7 0.0
1.0770174608296895e7 -1.705679964474818e6 0.0
0.0 0.0 0.0

-6.665043161622257e6 1.197287764072517e7 0.0
1.197287764072517e7 9.379924403415522e6 0.0
0.0 0.0 0.0

-4.90758642321122e6 1.3289629167879883e7 0.0
1.3289629167879883e7 1.385909782835416e6 0.0
0.0 0.0 0.0

-7.859297094220222e6 1.1069105076495484e7 0.0
1.1069105076495484e7 8.998592758984704e6 0.0
0.0 0.0 0.0

-6.265628577681588e6 1.1787543590207651e7 0.0
1.1787543590207651e7 6.179477148232881e6 0.0
0.0 0.0 0.0

40825.016734369565 7.861364878760785e6 0.0
7.861364878760785e6 -5.010832851199811e6 0.0
0.0 0.0 0.0

-2.423889143348458e6 8.901167585774979e6 0.0
8.901167585774979e6 -158544.35499291332 0.0
0.0 0.0 0.0

-2.215895981960097e6 1.2252411036357984e7 0.0
1.2252411036357984e7 3.252191049255867e6 0.0
0.0 0.0 0.0

-1.40344994657582e6 9.195382524200719e6 0.0
9.195382524200719e6 -3.317832309395941e6 0.0
0.0 0.0 0.0

1.3395038406635048e6 1.0608524295275288e7 0.0
1.0608524295275288e7 -1.10969077484235e7 0.0
0.0 0.0 0.0

-2.444602531844721e6 1.1182421702787345e7 0.0
1.1182421702787345e7 -1.324068131912392e6 0.0
0.0 0.0 0.0

103666.78109198762 1.041775562207834e7 0.0
1.041775562207834e7 -7.604380059842052e6 0.0
0.0 0.0 0.0

-2.73624316222833e6 9.608112149971226e6 0.0
9.608112149971226e6 69076.60610616568 0.0
0.0 0.0 0.0

-1.8837298697607582e6 1.0994022227063056e7 0.0
1.0994022227063056e7 -1.0599590961434316e7 0.0
0.0 0.0 0.0

-2.7347807193944566e6 1.1594820901825435e7 0.0
1.1594820901825435e7 -960862.5060702695 0.0
0.0 0.0 0.0

2.7710412505851937e6 1.1395136353414917e7 0.0
1.1395136353414917e7 -3.9014582862587306e6 0.0
0.0 0.0 0.0

-1.0827846662076153e7 -2.1021152749501956e6 0.0
-2.1021152749501956e6 2.071923788580903e7 0.0
0.0 0.0 0.0

-1.1242131040970195e7 1.7337929382975508e7 0.0
1.7337929382975508e7 9.20239891913743e6 0.0
0.0 0.0 0.0

-3.4539556513161715e6 1.2897112859570142e7 0.0
1.2897112859570142e7 3.252018528641001e6 0.0
0.0 0.0 0.0

-1.1260207593380047e7 6.86838195311824e6 0.0
6.86838195311824e6 1.3540018718601387e7 0.0
0.0 0.0 0.0

-6.638525982302941e6 1.3597292903339477e7 0.0
1.3597292903339477e7 6.449231097479056e6 0.0
0.0 0.0 0.0

-2.2975195873943805e6 9.55062310859143e6 0.0
9.55062310859143e6 -704111.9436626807 0.0
0.0 0.0 0.0

-1.4381494833235056e6 1.0375452099446189e7 0.0
1.0375452099446189e7 -2.830277269838115e6 0.0
0.0 0.0 0.0

-2.0784784805758065e6 1.0989481179659795e7 0.0
1.0989481179659795e7 -1.9045814856425682e6 0.0
0.0 0.0 0.0

-438457.5036755192 7.374489848007438e6 0.0
7.374489848007438e6 -2.7865703914370313e6 0.0
0.0 0.0 0.0

-2.4436210486275963e6 1.3051725823842904e7 0.0
1.3051725823842904e7 -3.008143512197123e6 0.0
0.0 0.0 0.0

2.267317588721221e6 6.326566074112739e6 0.0
6.326566074112739e6 -8.7766396433095e6 0.0
0.0 0.0 0.0

1.1209454406341412e6 6.0060596820692895e6 0.0
6.0060596820692895e6 -5.887107596191646e6 0.0
0.0 0.0 0.0

-6.820501125134496e6 1.1709265361440524e7 0.0
1.1709265361440524e7 7.418997719017263e6 0.0
0.0 0.0 0.0

-4.5118617731531765e6 1.3092575170363197e7 0.0
1.3092575170363197e7 688542.0171524293 0.0
0.0 0.0 0.0

1.9343909978629984e6 1.2086716498425305e7 0.0
1.2086716498425305e7 -4.7219485836603325e6 0.0
0.0 0.0 0.0

-8.186322483619724e6 1.4132769581807468e7 0.0
1.4132769581807468e7 5.01640969572036e6 0.0
0.0 0.0 0.0

1.614962991125591e6 5.694080810203211e6 0.0
5.694080810203211e6 -7.154779964417401e6 0.0
0.0 0.0 0.0

-1.7608859195614904e6 9.351442082660133e6 0.0
9.351442082660133e6 -2.7977176472687833e6 0.0
0.0 0.0 0.0

1.4010403590354059e7 1.0840882974216787e7 0.0
1.0840882974216787e7 -906092.3993176147 0.0
0.0 0.0 0.0

252745.26232998772 7.489804855561084e6 0.0
7.489804855561084e6 -4.97650488184801e6 0.0
0.0 0.0 0.0

2.852747538453879e6 6.577216832517284e6 0.0
6.577216832517284e6 -1.032381859471094e7 0.0
0.0 0.0 0.0

-8.371654665145846e6 1.0241923774762122e7 0.0
1.0241923774762122e7 1.1365709543230092e7 0.0
0.0 0.0 0.0

168634.70037708944 1.1090222687670162e7 0.0
1.1090222687670162e7 -8.385605986904457e6 0.0
0.0 0.0 0.0

-3.5130174695634646e6 5.8653391223432515e6 0.0
5.8653391223432515e6 3.1241397700957893e6 0.0
0.0 0.0 0.0

-1.2376858183838718e7 1.5928574272678945e7 0.0
1.5928574272678945e7 9.484767325276516e6 0.0
0.0 0.0 0.0

-7.734276735626832e6 1.0518095860140298e7 0.0
1.0518095860140298e7 1.0713771274347156e7 0.0
0.0 0.0 0.0

-6.5537522579099145e6 1.4069937398840507e7 0.0
1.4069937398840507e7 6.478221216301747e6 0.0
0.0 0.0 0.0

-1.142398223114599e7 1.5525265012372497e7 0.0
1.5525265012372497e7 6.619495083204374e6 0.0
0.0 0.0 0.0

-3.2792680088738133e6 1.0145263776782334e7 0.0
1.0145263776782334e7 -448937.6408518548 0.0
0.0 0.0 0.0

1.665920020943013e7 6.173288486575249e6 0.0
6.173288486575249e6 -3.9785685334122293e6 0.0
0.0 0.0 0.0

-1.7401541023374551e6 1.146963802822987e7 0.0
1.146963802822987e7 -3.2552758958399985e6 0.0
0.0 0.0 0.0

-1.0325914332839865e6 7.474595312212451e6 0.0
7.474595312212451e6 -2.5247278682051175e6 0.0
0.0 0.0 0.0

-2.8562116957138376e6 1.323493541567773e7 0.0
1.323493541567773e7 -2.2902333869156027e6 0.0
0.0 0.0 0.0

-4.612377383886284e6 1.331583287095228e7 0.0
1.331583287095228e7 -48225.30174927157 0.0
0.0 0.0 0.0

398694.12508911104 7.031127932097198e6 0.0
7.031127932097198e6 -3.6819880299119675e6 0.0
0.0 0.0 0.0

-5.176190983276166e6 1.2907582385571828e7 0.0
1.2907582385571828e7 6.151113337753054e6 0.0
0.0 0.0 0.0

257629.08024484618 1.0527634457255404e7 0.0
1.0527634457255404e7 -9.622727409865271e6 0.0
0.0 0.0 0.0

-1.0234716119185925e7 1.1278561117185818e6 0.0
1.1278561117185818e6 1.163853248556799e7 0.0
0.0 0.0 0.0

-4.603764324481915e6 1.2904675711194675e7 0.0
1.2904675711194675e7 930400.1705406958 0.0
0.0 0.0 0.0

-2.2610443389110602e6 9.796181578922253e6 0.0
9.796181578922253e6 -901908.1093607738 0.0
0.0 0.0 0.0

-4.2754607290580785e6 1.3228891602525994e7 0.0
1.3228891602525994e7 1.4398917478870428e6 0.0
0.0 0.0 0.0

-769762.0536010754 1.069660008713519e7 0.0
1.069660008713519e7 -4.646349228764498e6 0.0
0.0 0.0 0.0

-1.372970624978766e6 7.19019679830495e6 0.0
7.19019679830495e6 -877479.3756706275 0.0
0.0 0.0 0.0

-6.405175042201528e6 1.3382042906672155e7 0.0
1.3382042906672155e7 4.834618576955685e6 0.0
0.0 0.0 0.0

-6.890713895399598e6 1.235473036154776e7 0.0
1.235473036154776e7 8.450790429106299e6 0.0
0.0 0.0 0.0

-6.06535216977963e6 1.1122454017161233e7 0.0
1.1122454017161233e7 5.88344616889419e6 0.0
0.0 0.0 0.0

-910183.018698873 9.113429665718898e6 0.0
9.113429665718898e6 -3.2123955300044343e6 0.0
0.0 0.0 0.0

2.1309363093451033e6 9.045380392043611e6 0.0
9.045380392043611e6 -1.1494396638115404e7 0.0
0.0 0.0 0.0

-4.0015755212310376e6 1.086920605366634e7 0.0
1.086920605366634e7 544895.5951609584 0.0
0.0 0.0 0.0

-1.317856303214388e6 1.1681693362109277e7 0.0
1.1681693362109277e7 -5.745235132433991e6 0.0
0.0 0.0 0.0

-979486.5394918582 1.0630226317403907e7 0.0
1.0630226317403907e7 -5.333905541308641e6 0.0
0.0 0.0 0.0

-4.099351858779453e6 1.3582639708057156e7 0.0
1.3582639708057156e7 -734827.7497121014 0.0
0.0 0.0 0.0

-2.164963981252475e6 1.1565009762299849e7 0.0
1.1565009762299849e7 -3.250364841965725e6 0.0
0.0 0.0 0.0

1.411448295602506e6 8.980025587990556e6 0.0
8.980025587990556e6 -9.14245827226201e6 0.0
0.0 0.0 0.0

1.0864534311350274e6 6.019868453198814e6 0.0
6.019868453198814e6 -4.484579056686288e6 0.0
0.0 0.0 0.0

-203676.74609038245 6.481108628571603e6 0.0
6.481108628571603e6 -2.762067210368975e6 0.0
0.0 0.0 0.0

-7.017248542195128e6 1.7379592639710583e7 0.0
1.7379592639710583e7 4.602557314186633e6 0.0
0.0 0.0 0.0

-3.6664870876582516e6 1.040306773399954e7 0.0
1.040306773399954e7 148237.00973165687 0.0
0.0 0.0 0.0

-2.876883735656112e6 1.1933928993460912e7 0.0
1.1933928993460912e7 -2.1568554170551775e6 0.0
0.0 0.0 0.0

2.1234324174924e6 4.726178891488197e6 0.0
4.726178891488197e6 -6.945811332214789e6 0.0
0.0 0.0 0.0

-1.207208709481346e7 -552987.4274451823 0.0
-552987.4274451823 2.0356406839408435e7 0.0
0.0 0.0 0.0

1.3702491730482425e6 7.519703985427213e6 0.0
7.519703985427213e6 -7.400981557995657e6 0.0
0.0 0.0 0.0

-1.913810132069285e6 1.5357752536780016e7 0.0
1.5357752536780016e7 -4.1339810410265373e6 0.0
0.0 0.0 0.0

-4.1022779722825084e6 1.459557089792081e7 0.0
1.459557089792081e7 -228522.59915139386 0.0
0.0 0.0 0.0

-6.368966339259186e6 1.3603668538507724e7 0.0
1.3603668538507724e7 4.586949838774869e6 0.0
0.0 0.0 0.0

4.211514510840799e6 5.804549237230428e6 0.0
5.804549237230428e6 -1.168537664097349e7 0.0
0.0 0.0 0.0

-2.96355342125997e6 1.2211289101584705e7 0.0
1.2211289101584705e7 -839010.2268427227 0.0
0.0 0.0 0.0

-3.330663141060257e6 1.295848323264515e7 0.0
1.295848323264515e7 -997823.8032994492 0.0
0.0 0.0 0.0

3.072213280225752e6 6.988140323270737e6 0.0
6.988140323270737e6 -1.1267589250748849e7 0.0
0.0 0.0 0.0

-4.975520740319486e6 1.421796539866335e7 0.0
1.421796539866335e7 1.23521456709051e6 0.0
0.0 0.0 0.0

-130719.04256143351 1.3134499052221654e7 0.0
1.3134499052221654e7 -5.888086391869525e6 0.0
0.0 0.0 0.0

-3.2434444502385864e6 1.1898013177751727e7 0.0
1.1898013177751727e7 -1.324263159476566e6 0.0
0.0 0.0 0.0

1.554726141761755e6 1.0801372888200454e7 0.0
1.0801372888200454e7 -1.1752605275079811e7 0.0
0.0 0.0 0.0

1.3163099634614242e6 6.061017329081393e6 0.0
6.061017329081393e6 -6.731685921313571e6 0.0
0.0 0.0 0.0

314736.9757491995 8.380606902886793e6 0.0
8.380606902886793e6 -6.109932712533526e6 0.0
0.0 0.0 0.0

-2.81795161336642e6 1.2609700401933564e7 0.0
1.2609700401933564e7 -2.1762178255369915e6 0.0
0.0 0.0 0.0

-639688.0725301863 1.3236140223292517e7 0.0
1.3236140223292517e7 -6.1525650089021055e6 0.0
0.0 0.0 0.0

-2.5056283052092637e6 1.171526039124097e7 0.0
1.171526039124097e7 -2.721942709410603e6 0.0
0.0 0.0 0.0

1.7215293769232342e6 6.51194838002226e6 0.0
6.51194838002226e6 -6.517690416854166e6 0.0
0.0 0.0 0.0

3.735989623607881e6 6.080688547427862e6 0.0
6.080688547427862e6 -1.0389186543478794e7 0.0
0.0 0.0 0.0

-610834.2648467016 1.0829527833221901e7 0.0
1.0829527833221901e7 -6.476308204186783e6 0.0
0.0 0.0 0.0

-55417.33760536718 8.621888362729121e6 0.0
8.621888362729121e6 -5.581892815846404e6 0.0
0.0 0.0 0.0

-2.9282951418492123e6 9.670755769759227e6 0.0
9.670755769759227e6 -854406.0764914145 0.0
0.0 0.0 0.0

-7.7710684697868675e6 1.4600002266669253e7 0.0
1.4600002266669253e7 5.630648199191463e6 0.0
0.0 0.0 0.0

-9.624757588833194e6 9.962055143904245e6 0.0
9.962055143904245e6 3.902303541057831e7 0.0
0.0 0.0 0.0

-9.773085670779793e6 2.0884141709938247e6 0.0
2.0884141709938247e6 1.031206909929545e7 0.0
0.0 0.0 0.0

-3.7269099505735757e6 1.4211002219113566e7 0.0
1.4211002219113566e7 -2.489455139615764e6 0.0
0.0 0.0 0.0

-3.317419383912967e6 9.93927100180227e6 0.0
9.93927100180227e6 -263053.9056640093 0.0
0.0 0.0 0.0

-1.119989195760364e7 1.795777275053964e6 0.0
1.795777275053964e6 1.65611476621124e7 0.0
0.0 0.0 0.0

3.137549767128258e6 5.950071938500522e6 0.0
5.950071938500522e6 -9.517634772228466e6 0.0
0.0 0.0 0.0

-3.4246768718360504e6 1.0557503450039651e7 0.0
1.0557503450039651e7 929307.1163325321 0.0
0.0 0.0 0.0

511032.90453951526 1.101580787025477e7 0.0
1.101580787025477e7 -9.304379599769916e6 0.0
0.0 0.0 0.0

-3.1842210344340927e6 1.3487076342256028e7 0.0
1.3487076342256028e7 -1.627952285862789e6 0.0
0.0 0.0 0.0

-2.915560131207981e6 1.2403827507707829e7 0.0
1.2403827507707829e7 -1.0943252787347173e6 0.0
0.0 0.0 0.0

-3.755947311792095e6 9.28637092192543e6 0.0
9.28637092192543e6 892898.9876465448 0.0
0.0 0.0 0.0

-2.2283942835728573e6 1.0306236494281013e7 0.0
1.0306236494281013e7 -1.3158216234070105e6 0.0
0.0 0.0 0.0

-2.1111204531343514e6 7.137955512260802e6 0.0
7.137955512260802e6 -354848.57908864605 0.0
0.0 0.0 0.0

-2.5925011273829944e7 1.1323211484289864e7 0.0
1.1323211484289864e7 1.1387296854013486e7 0.0
0.0 0.0 0.0

-1.7584170326141082e6 1.0771479498706821e7 0.0
1.0771479498706821e7 4.942455132640703e6 0.0
0.0 0.0 0.0

-6.75017391199398e6 1.2651754393163597e7 0.0
1.2651754393163597e7 7.026370789941868e6 0.0
0.0 0.0 0.0

-5.251777463355577e6 1.4090061245494375e7 0.0
1.4090061245494375e7 3.225815939561963e6 0.0
0.0 0.0 0.0

1.7989588350034254e6 7.586325375660573e6 0.0
7.586325375660573e6 -8.571666824715616e6 0.0
0.0 0.0 0.0

2.5965869339710944e6 7.004395537643261e6 0.0
7.004395537643261e6 -1.013740263955283e7 0.0
0.0 0.0 0.0

3.400273750723538e6 8.019089792670563e6 0.0
8.019089792670563e6 -1.1939000983086897e7 0.0
0.0 0.0 0.0

-3.368746246256774e6 9.490876427629542e6 0.0
9.490876427629542e6 94742.32183785154 0.0
0.0 0.0 0.0

-1.046988293092373e7 5.8068990217739865e6 0.0
5.8068990217739865e6 1.2070365730514813e7 0.0
0.0 0.0 0.0

-2.1944777567704776e6 7.504850452651068e6 0.0
7.504850452651068e6 166496.36618412763 0.0
0.0 0.0 0.0

1.0174238584202637e6 1.2655108779779892e7 0.0
1.2655108779779892e7 -5.239011078917224e6 0.0
0.0 0.0 0.0

547825.1895575547 1.0662384732815942e7 0.0
1.0662384732815942e7 -9.404286591586573e6 0.0
0.0 0.0 0.0

-6.748291036465602e6 1.3719417203001289e7 0.0
1.3719417203001289e7 5.880638296937013e6 0.0
0.0 0.0 0.0

-5.074071687836157e6 1.7934800232491564e7 0.0
1.7934800232491564e7 254325.77912211767 0.0
0.0 0.0 0.0

-7.253657813812621e6 1.4880819344998866e7 0.0
1.4880819344998866e7 5.94078383689337e6 0.0
0.0 0.0 0.0

-7.0950567547074575e6 1.1570250861749385e7 0.0
1.1570250861749385e7 9.244782800518196e6 0.0
0.0 0.0 0.0

4.631700468091763e6 7.307879312032708e6 0.0
7.307879312032708e6 -1.720383749267229e7 0.0
0.0 0.0 0.0

-719669.8503318565 1.0227195136652185e7 0.0
1.0227195136652185e7 -4.20913535101316e6 0.0
0.0 0.0 0.0

1.8601800223011347e6 4.488276345268524e6 0.0
4.488276345268524e6 -6.227055475325512e6 0.0
0.0 0.0 0.0

3.758658815580937e6 7.449899930989104e6 0.0
7.449899930989104e6 -1.2171353847887497e7 0.0
0.0 0.0 0.0

-6.31881191387767e6 1.3840243774474002e7 0.0
1.3840243774474002e7 4.3533015218457e6 0.0
0.0 0.0 0.0

-7.801353759723727e6 6.544605875816419e6 0.0
6.544605875816419e6 1.022860242401053e7 0.0
0.0 0.0 0.0

-7.333342272199816e6 1.1082459332190737e7 0.0
1.1082459332190737e7 9.882840860746013e6 0.0
0.0 0.0 0.0

-6.641158888417099e6 1.3087321621702796e7 0.0
1.3087321621702796e7 6.996095077786426e6 0.0
0.0 0.0 0.0

1.5995945033287518e6 7.58251358851133e6 0.0
7.58251358851133e6 -6.645769500620701e6 0.0
0.0 0.0 0.0

-3.080029885086659e6 1.4556894730956763e7 0.0
1.4556894730956763e7 143491.4367104849 0.0
0.0 0.0 0.0

-6.844949981455851e6 1.7316111969758842e7 0.0
1.7316111969758842e7 3.3906309120857324e6 0.0
0.0 0.0 0.0

-6.654019166154845e6 1.4537223813796252e7 0.0
1.4537223813796252e7 5.613446914222322e6 0.0
0.0 0.0 0.0

-7.050272035298023e6 1.08999124018106e7 0.0
1.08999124018106e7 9.998784031769482e6 0.0
0.0 0.0 0.0

-2.068075788952039e7 3.201312477654921e7 0.0
3.201312477654921e7 -7.748425441386596e6 0.0
0.0 0.0 0.0

-3.737467999843745e6 1.2937488642360173e7 0.0
1.2937488642360173e7 36675.13533089473 0.0
0.0 0.0 0.0

-5.123579669531089e6 9.821879233250977e6 0.0
9.821879233250977e6 2.8593582784967786e6 0.0
0.0 0.0 0.0

-1.181223684349017e6 4.607421539045879e6 0.0
4.607421539045879e6 -326046.93414280616 0.0
0.0 0.0 0.0

-1.7874491007425827e6 1.057188847660704e7 0.0
1.057188847660704e7 -2.2710952292812e6 0.0
0.0 0.0 0.0

-3.193278375871934e6 1.3948020066454029e7 0.0
1.3948020066454029e7 -445651.61776716576 0.0
0.0 0.0 0.0

-1.03990261268481e7 1.684179402227282e7 0.0
1.684179402227282e7 8.56432896468786e6 0.0
0.0 0.0 0.0

-2.3298553939013816e6 1.2022769773865597e7 0.0
1.2022769773865597e7 -2.2197931967397174e6 0.0
0.0 0.0 0.0

-3.4584169769040733e6 1.2658886509803459e7 0.0
1.2658886509803459e7 -1.416979436619427e6 0.0
0.0 0.0 0.0

-3.732979220082133e6 2.8793348446232853e6 0.0
2.8793348446232853e6 4.026339300854668e6 0.0
0.0 0.0 0.0

2.7157773660637033e6 6.118887727238108e6 0.0
6.118887727238108e6 -8.45018143045532e6 0.0
0.0 0.0 0.0

-6.066353137877934e6 1.6819026885842692e7 0.0
1.6819026885842692e7 3.588746638963785e6 0.0
0.0 0.0 0.0

-7.036638462287709e6 1.2017912680696627e7 0.0
1.2017912680696627e7 8.856822863873865e6 0.0
0.0 0.0 0.0

-4.915639732048271e6 1.3663700491510846e7 0.0
1.3663700491510846e7 614377.4208715463 0.0
0.0 0.0 0.0

-91305.55254430091 5.872225654130646e6 0.0
5.872225654130646e6 -3.667185537284445e6 0.0
0.0 0.0 0.0

-4.666997201177394e6 1.5148563985079141e7 0.0
1.5148563985079141e7 -453699.0000468318 0.0
0.0 0.0 0.0

-3.1898532376531474e6 1.2099301725455642e7 0.0
1.2099301725455642e7 -1.5686143549336712e6 0.0
0.0 0.0 0.0

-253484.3657409656 1.0626240684506403e7 0.0
1.0626240684506403e7 -7.043127378532369e6 0.0
0.0 0.0 0.0

-2.388998505660574e6 1.1397411630147632e7 0.0
1.1397411630147632e7 -1.545252437494589e6 0.0
0.0 0.0 0.0

1.3981336681543407e6 7.835729656543292e6 0.0
7.835729656543292e6 -7.605302846646311e6 0.0
0.0 0.0 0.0

-3.546732635224737e6 1.1584919237999134e7 0.0
1.1584919237999134e7 701144.4171079572 0.0
0.0 0.0 0.0

-1.34237683020287e6 5.356727884190185e6 0.0
5.356727884190185e6 -553589.7713815775 0.0
0.0 0.0 0.0

-5.062526331277486e6 6.760848442125202e6 0.0
6.760848442125202e6 5.101477127174929e6 0.0
0.0 0.0 0.0

-3.533160070238576e6 9.223691512140928e6 0.0
9.223691512140928e6 1.6491014540638323e6 0.0
0.0 0.0 0.0

-1.6376300942526655e6 1.000085832078575e7 0.0
1.000085832078575e7 -8.75365815768526e6 0.0
0.0 0.0 0.0

-3.1464421472691083e6 9.555997725316795e6 0.0
9.555997725316795e6 825077.1787794107 0.0
0.0 0.0 0.0

-2.0933598928990804e7 1.5190700967446009e7 0.0
1.5190700967446009e7 8.852228496739183e6 0.0
0.0 0.0 0.0

-3.724940136352108e6 1.0204426767514592e7 0.0
1.0204426767514592e7 330722.4020317609 0.0
0.0 0.0 0.0

-645739.8833415301 1.2885170436411584e7 0.0
1.2885170436411584e7 -1.316292277332208e6 0.0
0.0 0.0 0.0

-2.7912388401681058e7 9.531215810223646e6 0.0
9.531215810223646e6 9.167708218181662e6 0.0
0.0 0.0 0.0

478972.4406919624 1.2983186191678025e7 0.0
1.2983186191678025e7 -5.668101971065927e6 0.0
0.0 0.0 0.0

-2.693515294823133e6 9.82051199029137e6 0.0
9.82051199029137e6 -112167.05996616068 0.0
0.0 0.0 0.0

913927.22977128 8.178794707135879e6 0.0
8.178794707135879e6 -5.796550624571237e6 0.0
0.0 0.0 0.0

-5.578300083297433e6 1.4325186278096842e7 0.0
1.4325186278096842e7 3.7985522424669787e6 0.0
0.0 0.0 0.0

1.0947199830511762e6 8.626667717300948e6 0.0
8.626667717300948e6 -7.62395897731721e6 0.0
0.0 0.0 0.0

989485.2950688293 9.141630847582541e6 0.0
9.141630847582541e6 -8.053931097244124e6 0.0
0.0 0.0 0.0

-1.5291309934835208e6 7.209569538533463e6 0.0
7.209569538533463e6 -1.4090405984594014e6 0.0
0.0 0.0 0.0

-6.407225724151278e6 1.1092536662631206e7 0.0
1.1092536662631206e7 4.748100277178171e6 0.0
0.0 0.0 0.0

3.274635968767646e6 6.990305926386574e6 0.0
6.990305926386574e6 -1.058875178879963e7 0.0
0.0 0.0 0.0

-2.9776912440298013e6 4.51637470869838e6 0.0
4.51637470869838e6 2.203325158026263e6 0.0
0.0 0.0 0.0

1.046361159313167e6 8.876179976566045e6 0.0
8.876179976566045e6 -7.8395949961382765e6 0.0
0.0 0.0 0.0

-4.398305752825336e7 2.178943816963935e6 0.0
2.178943816963935e6 1.2831736575314896e7 0.0
0.0 0.0 0.0

4.526883835630307e6 7.172031368539411e6 0.0
7.172031368539411e6 -1.6316450174504224e7 0.0
0.0 0.0 0.0

-5.529419286273518e6 1.0378105870220298e7 0.0
1.0378105870220298e7 3.383773827991062e6 0.0
0.0 0.0 0.0

-5.7837738398236595e6 1.1424133478889996e7 0.0
1.1424133478889996e7 3.498434595781702e6 0.0
0.0 0.0 0.0

-6.518763505246761e6 1.4782459236517513e7 0.0
1.4782459236517513e7 6.450132869942628e6 0.0
0.0 0.0 0.0

-2.360451008853248e6 1.0672920906053502e7 0.0
1.0672920906053502e7 -2.4065023027204913e6 0.0
0.0 0.0 0.0

-5.720780093719988e6 1.2647415584104767e7 0.0
1.2647415584104767e7 7.321008713917997e6 0.0
0.0 0.0 0.0

161975.32042640494 9.561852514008116e6 0.0
9.561852514008116e6 -6.57400785729349e6 0.0
0.0 0.0 0.0

2.2182002431394057e6 7.832545945460332e6 0.0
7.832545945460332e6 -1.0072268395272603e7 0.0
0.0 0.0 0.0

-5.680129257999729e6 1.414279698479991e7 0.0
1.414279698479991e7 3.9888759441908733e6 0.0
0.0 0.0 0.0

-5.093685944003837e6 1.545122775318576e7 0.0
1.545122775318576e7 -64986.79436265677 0.0
0.0 0.0 0.0

4.0856725384924905e6 7.908716406162305e6 0.0
7.908716406162305e6 -1.3959711519216144e7 0.0
0.0 0.0 0.0

-2.7380133093235972e6 8.36620442557039e6 0.0
8.36620442557039e6 625755.8164354283 0.0
0.0 0.0 0.0

-6.907032817356098e6 1.4976353655889207e7 0.0
1.4976353655889207e7 6.086755252143104e6 0.0
0.0 0.0 0.0

-3.3470253328553516e7 3.220465649966054e7 0.0
3.220465649966054e7 4.508183427565541e6 0.0
0.0 0.0 0.0

-1.1183283699834924e7 3.071425480785543e6 0.0
3.071425480785543e6 1.4769471364612233e7 0.0
0.0 0.0 0.0

-574989.8529482312 9.543635744727785e6 0.0
9.543635744727785e6 -8.0269450977441985e6 0.0
0.0 0.0 0.0

42849.6165457312 6.083047236145226e6 0.0
6.083047236145226e6 -3.177613179817926e6 0.0
0.0 0.0 0.0

-3.793670041099269e6 -4.877988334038361e6 0.0
-4.877988334038361e6 5.104640863241837e6 0.0
0.0 0.0 0.0

4.531166506889141e6 5.383593203349886e6 0.0
5.383593203349886e6 -1.1800918099554084e7 0.0
0.0 0.0 0.0

-3.356958241067546e6 1.3503213042081118e7 0.0
1.3503213042081118e7 1.4334808763403874e6 0.0
0.0 0.0 0.0

740813.1294855955 1.132753187415067e7 0.0
1.132753187415067e7 -9.784927347101342e6 0.0
0.0 0.0 0.0

-1.1435198329662522e7 8.071476373991255e6 0.0
8.071476373991255e6 1.4384838402151717e7 0.0
0.0 0.0 0.0

-3.2633874139630646e6 1.394995068771713e7 0.0
1.394995068771713e7 -3.187520583217555e6 0.0
0.0 0.0 0.0

1.1126996494390592e6 8.376228634675872e6 0.0
8.376228634675872e6 -7.414853034979632e6 0.0
0.0 0.0 0.0

-9.621096519655429e6 1.0512371264711997e7 0.0
1.0512371264711997e7 1.919344905000119e7 0.0
0.0 0.0 0.0

-2.578591740151012e6 1.049545643731795e7 0.0
1.049545643731795e7 -717073.753511283 0.0
0.0 0.0 0.0

-7.423718982386442e6 1.208688665413282e7 0.0
1.208688665413282e7 1.0840122816965938e7 0.0
0.0 0.0 0.0

678626.7050947812 1.150746521563784e7 0.0
1.150746521563784e7 -9.363013366451068e6 0.0
0.0 0.0 0.0

2.880097881590513e7 6.928594970951708e6 0.0
6.928594970951708e6 -3.565512947389001e6 0.0
0.0 0.0 0.0

-3.564279220009274e6 1.3700172338026766e7 0.0
1.3700172338026766e7 -1.0068754668450386e6 0.0
0.0 0.0 0.0

-5.777281529574614e6 1.6840566292954408e7 0.0
1.6840566292954408e7 2.928247923623286e6 0.0
0.0 0.0 0.0

797552.2332555302 8.844816639939137e6 0.0
8.844816639939137e6 -7.170874583707411e6 0.0
0.0 0.0 0.0

1.5323999788818583e6 8.42398101826561e6 0.0
8.42398101826561e6 -7.301974500201167e6 0.0
0.0 0.0 0.0

-2.0081780297010485e6 1.0481699320807878e7 0.0
1.0481699320807878e7 -2.987261455611069e6 0.0
0.0 0.0 0.0

-8.074583098627832e6 4.896389170916339e6 0.0
4.896389170916339e6 1.0907550478676371e7 0.0
0.0 0.0 0.0

808754.1206394369 1.0915431090575676e7 0.0
1.0915431090575676e7 -1.152222415875108e7 0.0
0.0 0.0 0.0

1.696662917889011e6 4.5228583251121e6 0.0
4.5228583251121e6 -6.121600002532049e6 0.0
0.0 0.0 0.0

119577.98325826647 1.0058135089171242e7 0.0
1.0058135089171242e7 -7.043174621064774e6 0.0
0.0 0.0 0.0

-1.5409865750635598e7 1.2852377408221189e7 0.0
1.2852377408221189e7 1.1841795800134081e7 0.0
0.0 0.0 0.0

-1.5200691239384376e6 7.722263401989526e6 0.0
7.722263401989526e6 -2.380253372753645e6 0.0
0.0 0.0 0.0

-9.228389135901792e6 1.1074136486925734e7 0.0
1.1074136486925734e7 2.391684113343004e7 0.0
0.0 0.0 0.0

-4.461264907794254e6 1.2783947605309676e7 0.0
1.2783947605309676e7 5.243855348552439e6 0.0
0.0 0.0 0.0

2.8178335138916746e6 1.1197450922082942e7 0.0
1.1197450922082942e7 -2.133370154970524e6 0.0
0.0 0.0 0.0

-6.663875520928416e6 1.4928629938858477e7 0.0
1.4928629938858477e7 6.292133723111836e6 0.0
0.0 0.0 0.0

-3.8244233464540318e6 1.3919990557285026e7 0.0
1.3919990557285026e7 -251526.41149263573 0.0
0.0 0.0 0.0

-6.695429555398883e6 1.4391490619302878e7 0.0
1.4391490619302878e7 5.808631252914084e6 0.0
0.0 0.0 0.0

-6.861794693350084e6 5.298487248009836e6 0.0
5.298487248009836e6 8.467968526055269e6 0.0
0.0 0.0 0.0

-6.396061992724216e6 7.856029014050639e6 0.0
7.856029014050639e6 7.13338723126713e6 0.0
0.0 0.0 0.0

-1.542480628512784e6 6.042981722210108e6 0.0
6.042981722210108e6 -767819.302174247 0.0
0.0 0.0 0.0

3.99321367557146e6 9.287598682710677e6 0.0
9.287598682710677e6 1.7178633422538736e6 0.0
0.0 0.0 0.0

545103.2589586745 1.1723551259532655e7 0.0
1.1723551259532655e7 -8.920313595922597e6 0.0
0.0 0.0 0.0

-3.8365683020501235e6 1.3729246999190483e7 0.0
1.3729246999190483e7 123380.49999390496 0.0
0.0 0.0 0.0

-6.22570676371825e6 1.4021324245373784e7 0.0
1.4021324245373784e7 4.125143675522747e6 0.0
0.0 0.0 0.0

-2.400474281882585e6 1.5160797602344586e6 0.0
1.5160797602344586e6 1.4715289595315238e6 0.0
0.0 0.0 0.0

-6.681566180101884e6 1.4892658749610739e7 0.0
1.4892658749610739e7 5.333990282008652e6 0.0
0.0 0.0 0.0

-3.0803483812208325e6 1.0084943574313048e7 0.0
1.0084943574313048e7 479317.8106882733 0.0
0.0 0.0 0.0

-6.84257201237474e6 1.5250834638026932e7 0.0
1.5250834638026932e7 5.97547379984091e6 0.0
0.0 0.0 0.0

3.1668286645079823e6 1.0756446810991628e7 0.0
1.0756446810991628e7 -2.5871158424023436e6 0.0
0.0 0.0 0.0

-5.239172764380595e6 1.5757851970329912e7 0.0
1.5757851970329912e7 1.8660129708951863e6 0.0
0.0 0.0 0.0

3.319995957556145e6 5.990028559021422e6 0.0
5.990028559021422e6 -1.0331276510069815e7 0.0
0.0 0.0 0.0

-1.0878042050542053e7 3.4207544617901566e6 0.0
3.4207544617901566e6 1.4027886867215177e7 0.0
0.0 0.0 0.0

1.1375831153095458e6 1.2008879960645283e7 0.0
1.2008879960645283e7 -7.170521790733169e6 0.0
0.0 0.0 0.0

366252.48565443465 1.196758138469329e7 0.0
1.196758138469329e7 -8.430908812614698e6 0.0
0.0 0.0 0.0

-2.2500090375750237e6 1.0048652330665594e7 0.0
1.0048652330665594e7 -1.1133111303546217e6 0.0
0.0 0.0 0.0

-3.284488132181569e6 1.3046632686060924e7 0.0
1.3046632686060924e7 1.8906712288161938e6 0.0
0.0 0.0 0.0

-2.599210873085964e6 1.4441994881969128e7 0.0
1.4441994881969128e7 -2.943553369829591e6 0.0
0.0 0.0 0.0

1.217039247321993e6 1.0864510130246941e7 0.0
1.0864510130246941e7 -6.691024469962896e6 0.0
0.0 0.0 0.0

-6.482728673556799e6 6.420228978178869e6 0.0
6.420228978178869e6 5.491701223860476e6 0.0
0.0 0.0 0.0

2.2422742013109373e6 7.610921074815819e6 0.0
7.610921074815819e6 -8.465366792905627e6 0.0
0.0 0.0 0.0

962569.5473564058 1.1450272512358254e7 0.0
1.1450272512358254e7 -9.000869897672659e6 0.0
0.0 0.0 0.0

-2.912475548632871e6 1.1430884199673546e7 0.0
1.1430884199673546e7 6.209663166244474e6 0.0
0.0 0.0 0.0

-2.9561864008095744e6 1.1494118759154467e7 0.0
1.1494118759154467e7 -1.677714227161502e6 0.0
0.0 0.0 0.0

4.373666808331134e6 7.120437927357921e6 0.0
7.120437927357921e6 -1.340757441067528e7 0.0
0.0 0.0 0.0

5.428859578527388e6 6.494392457428519e6 0.0
6.494392457428519e6 -1.6203869637790855e7 0.0
0.0 0.0 0.0

-4.1617779496087003e6 9.316255434386114e6 0.0
9.316255434386114e6 1.560962344682918e6 0.0
0.0 0.0 0.0

-6.1336369178646235e6 1.420379712184245e7 0.0
1.420379712184245e7 3.9177266739302566e6 0.0
0.0 0.0 0.0

-6.850873912003361e6 1.6000683334625917e6 0.0
1.6000683334625917e6 8.936561192240987e6 0.0
0.0 0.0 0.0

-5.047776349979726e6 8.021509936002628e6 0.0
8.021509936002628e6 2.9411506245842623e6 0.0
0.0 0.0 0.0

-5.92896167319137e6 1.0954136678493828e7 0.0
1.0954136678493828e7 3.8941315103794313e6 0.0
0.0 0.0 0.0

2.023522917835075e6 7.649965700018946e6 0.0
7.649965700018946e6 -7.817730352242896e6 0.0
0.0 0.0 0.0

4.559521706645471e6 5.2956484926615255e6 0.0
5.2956484926615255e6 -1.2024585167403847e7 0.0
0.0 0.0 0.0

-5.220626542416795e6 1.0332947581831694e7 0.0
1.0332947581831694e7 4.4325130979333855e6 0.0
0.0 0.0 0.0

-8.382554404688815e6 1.270479620198215e7 0.0
1.270479620198215e7 3.08152854840008e7 0.0
0.0 0.0 0.0

-5.285173603719431e6 1.1758788696963975e7 0.0
1.1758788696963975e7 4.0042265031831847e6 0.0
0.0 0.0 0.0

-4.175932171911451e6 1.4052524046778569e7 0.0
1.4052524046778569e7 338116.69608502113 0.0
0.0 0.0 0.0

798472.2056079581 9.279383746998845e6 0.0
9.279383746998845e6 -7.487312848180481e6 0.0
0.0 0.0 0.0

-5.294897100159419e6 1.4853859022757875e7 0.0
1.4853859022757875e7 2.8461798846634324e6 0.0
0.0 0.0 0.0

-5.758909548997542e6 1.395808756275767e7 0.0
1.395808756275767e7 4.1911608774908073e6 0.0
0.0 0.0 0.0

-217833.27380171604 1.2527400843814094e7 0.0
1.2527400843814094e7 7.545752356454603e6 0.0
0.0 0.0 0.0

1.8048901425149539e6 4.462725277205496e6 0.0
4.462725277205496e6 -6.114562158484447e6 0.0
0.0 0.0 0.0

-122980.76151962182 1.3505862770289466e7 0.0
1.3505862770289466e7 -5.469453866339605e6 0.0
0.0 0.0 0.0

2.6800150155630293e6 4.829281762621178e6 0.0
4.829281762621178e6 -8.763575605324952e6 0.0
0.0 0.0 0.0

-4.375255455993298e6 6.011693982969192e6 0.0
6.011693982969192e6 4.273862614453747e6 0.0
0.0 0.0 0.0

-6.201453679405367e6 1.3215841975764532e7 0.0
1.3215841975764532e7 4.2828626903193295e6 0.0
0.0 0.0 0.0

-2.6823102973974235e6 1.1801738611559786e7 0.0
1.1801738611559786e7 -1.1964818617239587e6 0.0
0.0 0.0 0.0

1.6224495168322888e6 7.856185014424716e6 0.0
7.856185014424716e6 -6.860078201012723e6 0.0
0.0 0.0 0.0

913878.6732765408 1.1418015263307305e7 0.0
1.1418015263307305e7 -7.15951572572161e6 0.0
0.0 0.0 0.0

-4.473145261025668e6 1.4276027836420633e7 0.0
1.4276027836420633e7 949924.1744954097 0.0
0.0 0.0 0.0

-9.888785057199411e6 1.0854103913598456e6 0.0
1.0854103913598456e6 1.2929450458217524e7 0.0
0.0 0.0 0.0

-7.305732019139215e6 9.082382861495445e6 0.0
9.082382861495445e6 8.736400273191037e6 0.0
0.0 0.0 0.0

-4.3199525588366445e6 4.819514891000619e6 0.0
4.819514891000619e6 4.254878562132186e6 0.0
0.0 0.0 0.0

-3.351486601435628e6 9.726450933468482e6 0.0
9.726450933468482e6 -85054.25510555017 0.0
0.0 0.0 0.0

-6.451356655078797e6 1.4228958792700158e7 0.0
1.4228958792700158e7 6.065473970977632e6 0.0
0.0 0.0 0.0

-3.419541411929908e6 1.1258699043777559e7 0.0
1.1258699043777559e7 -648347.7185474739 0.0
0.0 0.0 0.0

-6.002748743622195e6 1.4663092363928033e7 0.0
1.4663092363928033e7 3.27126666554364e6 0.0
0.0 0.0 0.0

-1.8212981110613323e6 7.2179915042523e6 0.0
7.2179915042523e6 -866206.8463617424 0.0
0.0 0.0 0.0

-5.688737473025389e6 7.535729782017356e6 0.0
7.535729782017356e6 5.916090620734253e6 0.0
0.0 0.0 0.0

-6.099345411757765e6 1.437398944708678e7 0.0
1.437398944708678e7 3.722545705135486e6 0.0
0.0 0.0 0.0

-1.7263331170499208e6 1.4064311044851497e7 0.0
1.4064311044851497e7 -4.373866140660642e6 0.0
0.0 0.0 0.0

-565476.6690724175 1.2476666398324657e7 0.0
1.2476666398324657e7 7.537168129170651e6 0.0
0.0 0.0 0.0

-3.120051227686299e6 9.849245854826756e6 0.0
9.849245854826756e6 668932.4941069903 0.0
0.0 0.0 0.0

-1.6257309033049757e6 1.563447465573667e7 0.0
1.563447465573667e7 -3.240116027618097e6 0.0
0.0 0.0 0.0

-3.918556197739193e6 1.0158120793730415e7 0.0
1.0158120793730415e7 1.944153592915385e6 0.0
0.0 0.0 0.0

-6.816774075739774e6 8.670274188753651e6 0.0
8.670274188753651e6 7.678294002407316e6 0.0
0.0 0.0 0.0

-1.8856878876679058e6 7.587621937760645e6 0.0
7.587621937760645e6 -329983.006824936 0.0
0.0 0.0 0.0

-6.056190799586692e6 1.4512840223595206e7 0.0
1.4512840223595206e7 3.488597371768266e6 0.0
0.0 0.0 0.0

3.4424963103225026e6 6.448550003438036e6 0.0
6.448550003438036e6 -1.0121901512404347e7 0.0
0.0 0.0 0.0

2.813808878269882e6 7.054206921730128e6 0.0
7.054206921730128e6 -9.406614042202452e6 0.0
0.0 0.0 0.0

-6.460212946885158e6 1.4552931874939667e7 0.0
1.4552931874939667e7 6.578034440357333e6 0.0
0.0 0.0 0.0

-170461.04489857703 8.347945764351444e6 0.0
8.347945764351444e6 -4.2057033235006705e6 0.0
0.0 0.0 0.0

1.5954842661876157e6 8.163328553393526e6 0.0
8.163328553393526e6 -7.075784480026629e6 0.0
0.0 0.0 0.0

-6.386164235069566e6 1.5923566021768803e7 0.0
1.5923566021768803e7 3.7757133560082926e6 0.0
0.0 0.0 0.0

-5.001312754212728e6 1.4664340353500027e7 0.0
1.4664340353500027e7 2.232587219765012e6 0.0
0.0 0.0 0.0

-3.1234824165987326e6 1.2283688341644986e7 0.0
1.2283688341644986e7 -1.761044231012173e6 0.0
0.0 0.0 0.0

939304.7050758838 1.1214220805778801e7 0.0
1.1214220805778801e7 -1.0999729267164769e7 0.0
0.0 0.0 0.0

-7.022164567207194e6 1.5911799831801748e7 0.0
1.5911799831801748e7 5.28782955646094e6 0.0
0.0 0.0 0.0

-7.608612931508142e6 9.495354164644983e6 0.0
9.495354164644983e6 9.370266618864357e6 0.0
0.0 0.0 0.0

1.4804550431155046e6 6.128467568362776e6 0.0
6.128467568362776e6 -7.093436135541942e6 0.0
0.0 0.0 0.0

-6.721058242456569e6 1.751464014819406e7 0.0
1.751464014819406e7 4.3674221679894915e6 0.0
0.0 0.0 0.0

-3.225299585668515e6 1.3115514374999883e7 0.0
1.3115514374999883e7 3.9903720893501304e6 0.0
0.0 0.0 0.0

-4.741612390146697e6 1.4476195358431e7 0.0
1.4476195358431e7 1.64743929578944e6 0.0
0.0 0.0 0.0

142512.20189124858 1.2214880952156901e7 0.0
1.2214880952156901e7 -7.9503319350652015e6 0.0
0.0 0.0 0.0

-5.66834601783455e6 1.4930354984755604e7 0.0
1.4930354984755604e7 3.7080182032499756e6 0.0
0.0 0.0 0.0

-6.397958029641031e6 1.3117590732078895e7 0.0
1.3117590732078895e7 7.4895639665785935e6 0.0
0.0 0.0 0.0

-5.79501797235003e6 1.4919530892178232e7 0.0
1.4919530892178232e7 2.8116735936963144e6 0.0
0.0 0.0 0.0

-5.563742293254527e6 1.905771922990674e7 0.0
1.905771922990674e7 1.8809770717033634e6 0.0
0.0 0.0 0.0

-8.90959350689609e6 7.154269835968741e6 0.0
7.154269835968741e6 1.2077438237565594e7 0.0
0.0 0.0 0.0

1.3040359154693559e6 8.685013040897401e6 0.0
8.685013040897401e6 -6.92095020683477e6 0.0
0.0 0.0 0.0

-8.868855648472676e6 5.119656269196315e6 0.0
5.119656269196315e6 1.1995411050070897e7 0.0
0.0 0.0 0.0

-5.466748381039748e6 6.716659765289103e6 0.0
6.716659765289103e6 3.7619272149469065e6 0.0
0.0 0.0 0.0

-417611.5019741014 -1.6693712206066875e6 0.0
-1.6693712206066875e6 1.2274874781684584e6 0.0
0.0 0.0 0.0

-191494.81389629247 -2.011039136294579e6 0.0
-2.011039136294579e6 775960.3657967539 0.0
0.0 0.0 0.0

-9.297762461585745e6 7.374159869478662e6 0.0
7.374159869478662e6 1.2378318996431438e7 0.0
0.0 0.0 0.0

2.5420981093297554e6 1.1648108183337726e7 0.0
1.1648108183337726e7 2.2016326744521265e6 0.0
0.0 0.0 0.0

-5.171367251058314e6 1.5334721649638344e7 0.0
1.5334721649638344e7 2.1187815475456743e6 0.0
0.0 0.0 0.0

-3.0129888918597186e6 1.2622424645268727e7 0.0
1.2622424645268727e7 -1.3899563618009517e6 0.0
0.0 0.0 0.0

1.2452680354901687e6 8.919206415493682e6 0.0
8.919206415493682e6 -7.170771675955008e6 0.0
0.0 0.0 0.0

-198656.55361858313 1.2636937661140403e7 0.0
1.2636937661140403e7 5.788137975165793e6 0.0
0.0 0.0 0.0

-7.100548147448601e6 1.6103237479136199e7 0.0
1.6103237479136199e7 6.134791873598756e6 0.0
0.0 0.0 0.0

-6.653854470393724e6 1.6196257704348618e7 0.0
1.6196257704348618e7 4.036467189765926e6 0.0
0.0 0.0 0.0

-6.791173077696402e6 1.663032142602867e7 0.0
1.663032142602867e7 4.089007766921463e6 0.0
0.0 0.0 0.0

-6.847787432939555e6 1.0264881383467626e7 0.0
1.0264881383467626e7 5.6284379691507295e6 0.0
0.0 0.0 0.0

-4.683944788018171e6 9.275214090849377e6 0.0
9.275214090849377e6 2.309728990129632e6 0.0
0.0 0.0 0.0

-2.6406224174936004e6 7.534980107924987e6 0.0
7.534980107924987e6 178983.85148148565 0.0
0.0 0.0 0.0

-6.383962304847744e6 1.2878620756993972e7 0.0
1.2878620756993972e7 6.084831546350924e6 0.0
0.0 0.0 0.0

-3.9209764547917144e6 9.1699001485589e6 0.0
9.1699001485589e6 2.4131809208401437e6 0.0
0.0 0.0 0.0

-1.0845323315677674e7 6.224051795607319e6 0.0
6.224051795607319e6 1.4027713914468937e7 0.0
0.0 0.0 0.0

1.1947735307238437e6 9.17661240318922e6 0.0
9.17661240318922e6 -7.380381679562585e6 0.0
0.0 0.0 0.0

-6.834223966900247e6 1.136357777720463e7 0.0
1.136357777720463e7 5.517508309891863e6 0.0
0.0 0.0 0.0

-1.1028031368699674e7 5.194526720177788e6 0.0
5.194526720177788e6 1.441872182951286e7 0.0
0.0 0.0 0.0

-3.3230815758401896e6 1.195371758042025e7 0.0
1.195371758042025e7 4.590197441280727e6 0.0
0.0 0.0 0.0

-4.159980052319318e6 1.0151815247900346e7 0.0
1.0151815247900346e7 1.1397131782900905e6 0.0
0.0 0.0 0.0

-5.886237184837934e6 1.5250280996960247e7 0.0
1.5250280996960247e7 4.0615092974482756e6 0.0
0.0 0.0 0.0

-5.42464235356381e6 1.4597498461029403e7 0.0
1.4597498461029403e7 3.3383363530960917e6 0.0
0.0 0.0 0.0

-6.392892326109476e6 1.3408828705416664e7 0.0
1.3408828705416664e7 7.242224467858562e6 0.0
0.0 0.0 0.0

779912.0301349913 1.1462319213700105e7 0.0
1.1462319213700105e7 -1.0011425192007594e7 0.0
0.0 0.0 0.0

-6.293914328098668e6 1.2734607373124039e7 0.0
1.2734607373124039e7 4.805924667446556e6 0.0
0.0 0.0 0.0

-7.43471045839202e6 9.955746991397617e6 0.0
9.955746991397617e6 8.83921625499781e6 0.0
0.0 0.0 0.0

-2.701436262259903e6 1.2234311562061897e7 0.0
1.2234311562061897e7 -1.6880434788359157e6 0.0
0.0 0.0 0.0

-5.7209296687273765e6 1.727221583227169e7 0.0
1.727221583227169e7 2.8725338429658515e6 0.0
0.0 0.0 0.0

-6.399477523500191e6 1.3691047885533916e7 0.0
1.3691047885533916e7 7.072470806173489e6 0.0
0.0 0.0 0.0

-2.8445558162239883e6 1.211946630916503e7 0.0
1.211946630916503e7 -2.378783545161027e6 0.0
0.0 0.0 0.0

2.711940652672996e6 7.314151991286429e6 0.0
7.314151991286429e6 -9.648474205950309e6 0.0
0.0 0.0 0.0

-5.720649825863533e6 1.0478026148410022e7 0.0
1.0478026148410022e7 5.395894062947302e6 0.0
0.0 0.0 0.0

-2.6529788238192615e6 1.532241355604565e7 0.0
1.532241355604565e7 -2.5018201950105466e6 0.0
0.0 0.0 0.0

1.2937469342367179e6 4.678115752382386e6 0.0
4.678115752382386e6 -5.095010727850732e6 0.0
0.0 0.0 0.0

3.183115691367886e6 7.688922314391379e6 0.0
7.688922314391379e6 -1.2544896731090732e7 0.0
0.0 0.0 0.0

-1.8202014259297312e6 1.1762653274865389e7 0.0
1.1762653274865389e7 -3.451493507164432e6 0.0
0.0 0.0 0.0

1.213710904893028e6 1.225554535461798e7 0.0
1.225554535461798e7 4.489966171821562e6 0.0
0.0 0.0 0.0

2.25193629891675e6 7.498305786288197e6 0.0
7.498305786288197e6 -9.937990387023129e6 0.0
0.0 0.0 0.0

1.9916476165583283e6 8.025231065363136e6 0.0
8.025231065363136e6 -9.723796932897044e6 0.0
0.0 0.0 0.0

349137.6035945809 9.65732565619881e6 0.0
9.65732565619881e6 707345.3285224497 0.0
0.0 0.0 0.0

-1.0127845881732218e7 2.0212304992928836e6 0.0
2.0212304992928836e6 1.2752277492954914e7 0.0
0.0 0.0 0.0

-3.230555284632011e6 7.094207776326016e6 0.0
7.094207776326016e6 1.191532465463894e6 0.0
0.0 0.0 0.0

-1.7946095069492985e6 1.2270823554402271e7 0.0
1.2270823554402271e7 -1.385619953367668e7 0.0
0.0 0.0 0.0

-5.5261942091502e6 8.673846332291616e6 0.0
8.673846332291616e6 3.5643347696045893e6 0.0
0.0 0.0 0.0

-7.330258656981936e6 5.338820743951465e6 0.0
5.338820743951465e6 6.849381388746203e6 0.0
0.0 0.0 0.0

-1.6486360834631708e6 1.1107131057134174e7 0.0
1.1107131057134174e7 4.482842356811504e6 0.0
0.0 0.0 0.0

-3.1190394437509994e6 -3.8427479265275635e6 0.0
-3.8427479265275635e6 3.9286397701448076e6 0.0
0.0 0.0 0.0

-6.0570339851239305e6 1.0467393245824307e7 0.0
1.0467393245824307e7 4.273271509308657e6 0.0
0.0 0.0 0.0

-6.527458633108741e6 1.4376351494524164e7 0.0
1.4376351494524164e7 6.366295729240755e6 0.0
0.0 0.0 0.0

-956708.4540002985 1.1266250653053561e7 0.0
1.1266250653053561e7 -6.140250123741072e6 0.0
0.0 0.0 0.0

-277994.88071874616 4.826360385126964e6 0.0
4.826360385126964e6 -1.6116699004394282e6 0.0
0.0 0.0 0.0

-2.339384420442925e6 7.648646115118061e6 0.0
7.648646115118061e6 -389506.2210154954 0.0
0.0 0.0 0.0

4.518279566259164e6 7.759702419989572e6 0.0
7.759702419989572e6 -1.8318567188262492e7 0.0
0.0 0.0 0.0

-5.153503009013432e6 1.7679138033879876e7 0.0
1.7679138033879876e7 1.766112726198497e6 0.0
0.0 0.0 0.0

-1.1483207362304658e7 5.172171744270984e6 0.0
5.172171744270984e6 1.7594949795490615e7 0.0
0.0 0.0 0.0

-2.6389833686517957e6 1.1012490911877902e7 0.0
1.1012490911877902e7 -3.3183742313947687e6 0.0
0.0 0.0 0.0

-8.641342063811155e6 4.912396864004745e6 0.0
4.912396864004745e6 8.97629927106016e6 0.0
0.0 0.0 0.0

-8.2556406510039e6 1.383741361768389e7 0.0
1.383741361768389e7 6.134936695838267e6 0.0
0.0 0.0 0.0

-660931.0008475729 1.256359487409632e7 0.0
1.256359487409632e7 -2.0983222815421466e6 0.0
0.0 0.0 0.0

-1.112182259052267e6 1.2199773220498176e7 0.0
1.2199773220498176e7 3.0872843619368263e6 0.0
0.0 0.0 0.0

3.5027797950957958e6 7.452813505507555e6 0.0
7.452813505507555e6 -1.3026634757645335e7 0.0
0.0 0.0 0.0

-4.518969219133038e6 8.410768743929118e6 0.0
8.410768743929118e6 -958776.0327737967 0.0
0.0 0.0 0.0

-7.1199402146081915e6 2.015376009530119e7 0.0
2.015376009530119e7 33925.103122925386 0.0
0.0 0.0 0.0

-6.207875865703588e6 1.0720674874073012e7 0.0
1.0720674874073012e7 6.315276613548262e6 0.0
0.0 0.0 0.0

-5.303140391457293e6 -6.024053587790729e6 0.0
-6.024053587790729e6 7.9306273742059e6 0.0
0.0 0.0 0.0

-3.0066329529639455e6 1.2154814279663926e7 0.0
1.2154814279663926e7 4.511694163485475e6 0.0
0.0 0.0 0.0

-6.319136366956274e6 1.5095731299147865e7 0.0
1.5095731299147865e7 3.828123769986809e6 0.0
0.0 0.0 0.0

-1.7550856394194104e6 7.4917641667533405e6 0.0
7.4917641667533405e6 -1.4183014131292473e6 0.0
0.0 0.0 0.0

-3.547777364771576e6 1.347362277366566e7 0.0
1.347362277366566e7 1.0044420554646052e7 0.0
0.0 0.0 0.0

-7.462681333540998e6 8.100031011858413e6 0.0
8.100031011858413e6 6.808235487109721e6 0.0
0.0 0.0 0.0

-6.245362723015161e6 6.908846571394764e6 0.0
6.908846571394764e6 4.990121752658292e6 0.0
0.0 0.0 0.0

-1.1574556283913009e7 3.6878175079844655e6 0.0
3.6878175079844655e6 1.7346299183495305e7 0.0
0.0 0.0 0.0

-3.8899240768204383e6 1.2243983901243787e7 0.0
1.2243983901243787e7 6.234453961927237e6 0.0
0.0 0.0 0.0

-8.339682071085632e6 1.5741429295258334e7 0.0
1.5741429295258334e7 6.992352263284186e6 0.0
0.0 0.0 0.0

-7.666663441344655e6 1.7768137409811098e7 0.0
1.7768137409811098e7 4.546959571726751e6 0.0
0.0 0.0 0.0

-6.891011590063312e6 1.1972023654781576e7 0.0
1.1972023654781576e7 5.9125371863344265e6 0.0
0.0 0.0 0.0

1.3507484730821033e6 4.544936630104895e6 0.0
4.544936630104895e6 -5.128439684970744e6 0.0
0.0 0.0 0.0

1.7412745460887942e6 8.43097195532763e6 0.0
8.43097195532763e6 -7.88331108792559e6 0.0
0.0 0.0 0.0

1.3043867216331032e6 8.150396801262692e6 0.0
8.150396801262692e6 -6.457757871908251e6 0.0
0.0 0.0 0.0

-5.274205528454781e6 9.271727622688828e6 0.0
9.271727622688828e6 3.1912679501274517e6 0.0
0.0 0.0 0.0

-1.2604622976647692e7 2.31907116037835e7 0.0
2.31907116037835e7 2.5481334042827133e6 0.0
0.0 0.0 0.0

-1.7658626310232156e6 6.724703640334986e6 0.0
6.724703640334986e6 -842818.3315836354 0.0
0.0 0.0 0.0

-5.322613040086088e6 1.6148491356559088e7 0.0
1.6148491356559088e7 1.9569312438645063e6 0.0
0.0 0.0 0.0

-3.100380302569997e6 1.5716786012381403e7 0.0
1.5716786012381403e7 -1.767029009861478e6 0.0
0.0 0.0 0.0

-1.6904062144383648e6 7.807285033383147e6 0.0
7.807285033383147e6 -953587.4496128156 0.0
0.0 0.0 0.0

-622667.4122421273 8.679219795295307e6 0.0
8.679219795295307e6 -1.7576134166109308e6 0.0
0.0 0.0 0.0

2.2388162061790614e6 1.302270875321726e7 0.0
1.302270875321726e7 6.678867096611091e6 0.0
0.0 0.0 0.0

502699.51513461093 1.3850117269372977e7 0.0
1.3850117269372977e7 7.659798600167986e6 0.0
0.0 0.0 0.0

-1.3955198364795302e6 1.2124407548070319e7 0.0
1.2124407548070319e7 2.7850614792230395e6 0.0
0.0 0.0 0.0

-6.850699306013342e6 7.734953017902134e6 0.0
7.734953017902134e6 5.671908898368569e6 0.0
0.0 0.0 0.0

-1.1538247533928761e7 2.180707757252468e7 0.0
2.180707757252468e7 3.342247354611274e6 0.0
0.0 0.0 0.0

-1.240289857573883e7 1.448168543337934e7 0.0
1.448168543337934e7 7.031953101312703e6 0.0
0.0 0.0 0.0

-6.920500753888946e6 7.197513946999194e6 0.0
7.197513946999194e6 6.206245435630472e6 0.0
0.0 0.0 0.0

2.5460484471411323e6 9.485340078123497e6 0.0
9.485340078123497e6 -1.3615028139184507e7 0.0
0.0 0.0 0.0

5.017729095758896e6 5.087281183297105e6 0.0
5.087281183297105e6 -1.3362470532111226e7 0.0
0.0 0.0 0.0

-37615.84455981245 1.0930088924500065e7 0.0
1.0930088924500065e7 -6.554745695949357e6 0.0
0.0 0.0 0.0

1.4735980530494186e6 8.677884487867767e6 0.0
8.677884487867767e6 -7.524548536896371e6 0.0
0.0 0.0 0.0

-726597.4503885438 1.1564860950214664e7 0.0
1.1564860950214664e7 -5.6223730267823525e6 0.0
0.0 0.0 0.0

-1.383863364621622e7 2.4802593631780934e7 0.0
2.4802593631780934e7 620568.6902890485 0.0
0.0 0.0 0.0

-5.370014141250601e6 1.3030000197094088e7 0.0
1.3030000197094088e7 3.598951074426046e6 0.0
0.0 0.0 0.0

-2.4067805569305443e6 1.327677189443542e7 0.0
1.327677189443542e7 -4.640610298920593e6 0.0
0.0 0.0 0.0

-2.318650014447184e6 1.2695472279901218e7 0.0
1.2695472279901218e7 -4.507317310178941e6 0.0
0.0 0.0 0.0

1.8082558556549307e6 7.905306112106173e6 0.0
7.905306112106173e6 -7.4429796771112215e6 0.0
0.0 0.0 0.0

-7.03420082203295e6 1.2871722671100348e7 0.0
1.2871722671100348e7 6.642799291537612e6 0.0
0.0 0.0 0.0

-2.303855885988639e6 1.2669873051719202e7 0.0
1.2669873051719202e7 4.871762448793489e6 0.0
0.0 0.0 0.0

-4.600487738549046e6 1.387422060762178e7 0.0
1.387422060762178e7 4.0708476275836406e6 0.0
0.0 0.0 0.0

-1.1179375295521092e7 3.723818755962949e6 0.0
3.723818755962949e6 3.805844889460529e7 0.0
0.0 0.0 0.0

-1.560963467119845e6 2.480218306276452e6 0.0
2.480218306276452e6 1.5208075028268907e6 0.0
0.0 0.0 0.0

-2.6356468745732866e7 3.682932243051615e7 0.0
3.682932243051615e7 -1.6416759116506988e7 0.0
0.0 0.0 0.0

-665688.6587884868 1.2560888347756336e7 0.0
1.2560888347756336e7 3.9741923131844196e6 0.0
0.0 0.0 0.0

-1.045206235502648e7 2.0877650894201994e7 0.0
2.0877650894201994e7 4.212734643417408e6 0.0
0.0 0.0 0.0

-1.106100008818108e6 1.1116481527640795e7 0.0
1.1116481527640795e7 -4.249839599702326e6 0.0
0.0 0.0 0.0

-857911.7447768534 1.3206935397088777e7 0.0
1.3206935397088777e7 -6.330253532564193e6 0.0
0.0 0.0 0.0

-6.161281955621276e6 1.3668656909826549e7 0.0
1.3668656909826549e7 5.275660000787757e6 0.0
0.0 0.0 0.0

3.6798465437152428e6 4.918737255989921e6 0.0
4.918737255989921e6 -1.0180737826209292e7 0.0
0.0 0.0 0.0

3.70530934523914e6 1.087337710775016e7 0.0
1.087337710775016e7 -2.392741188808554e6 0.0
0.0 0.0 0.0

1.6956871087379665e6 8.705394552986246e6 0.0
8.705394552986246e6 -8.160954038362282e6 0.0
0.0 0.0 0.0

-1.0152002606994183e6 1.4745980309200604e7 0.0
1.4745980309200604e7 -4.359028338751088e6 0.0
0.0 0.0 0.0

3.996110833656748e6 7.166346854416439e6 0.0
7.166346854416439e6 -1.258644954785354e7 0.0
0.0 0.0 0.0

-5.4580188510055635e6 1.1404470962083817e7 0.0
1.1404470962083817e7 4.59319440651319e6 0.0
0.0 0.0 0.0

1.6915013573439792e6 6.191511196948629e6 0.0
6.191511196948629e6 -6.405806921404116e6 0.0
0.0 0.0 0.0

-861498.5368305403 7.600082524080185e6 0.0
7.600082524080185e6 -2.219284232488488e6 0.0
0.0 0.0 0.0

-6.19005420386008e6 1.3105919684785826e7 0.0
1.3105919684785826e7 128732.77971421275 0.0
0.0 0.0 0.0

2.4204203020257093e6 7.821769734557362e6 0.0
7.821769734557362e6 -9.398806611871671e6 0.0
0.0 0.0 0.0

-2.4706624264279664e6 9.97080549499993e6 0.0
9.97080549499993e6 -1.8341938297949426e6 0.0
0.0 0.0 0.0

-3.100551228102033e6 1.3138632725518424e7 0.0
1.3138632725518424e7 -3.0885472854802655e6 0.0
0.0 0.0 0.0

-5.350809813524274e6 1.2708815060255563e7 0.0
1.2708815060255563e7 8.287750121135574e6 0.0
0.0 0.0 0.0

1.2641189308935474e6 1.0374814968188614e7 0.0
1.0374814968188614e7 -4.043501332474655e6 0.0
0.0 0.0 0.0

-4.815663198372753e6 8.68606748120859e6 0.0
8.68606748120859e6 2.614530964340708e6 0.0
0.0 0.0 0.0

-1.1785924311814226e7 1.7747292173625685e6 0.0
1.7747292173625685e6 1.4520215444590706e7 0.0
0.0 0.0 0.0

-5.246450361220337e6 1.2805204075054945e7 0.0
1.2805204075054945e7 8.418133797219204e6 0.0
0.0 0.0 0.0

-7.75772074780168e6 8.923711572505336e6 0.0
8.923711572505336e6 7.306961977231226e6 0.0
0.0 0.0 0.0

-9.47751399316112e6 -162815.17523046787 0.0
-162815.17523046787 1.151500134460349e7 0.0
0.0 0.0 0.0

-6.469797374422919e6 1.0346747832023757e7 0.0
1.0346747832023757e7 6.855283356955292e6 0.0
0.0 0.0 0.0

-6.536052976410098e6 1.2775356716344822e7 0.0
1.2775356716344822e7 7.594451756521919e6 0.0
0.0 0.0 0.0

-1.3620781868331996e6 5.735930614278114e6 0.0
5.735930614278114e6 -121852.44093766483 0.0
0.0 0.0 0.0

-2.6977885283840382e6 1.293907866014551e7 0.0
1.293907866014551e7 -3.8295650856318623e6 0.0
0.0 0.0 0.0

-6.128614772101065e6 1.3454057991606591e7 0.0
1.3454057991606591e7 4.0368297545842594e6 0.0
0.0 0.0 0.0

-7.995293856440339e6 9.475779850021074e6 0.0
9.475779850021074e6 8.079457822372926e6 0.0
0.0 0.0 0.0

-1.1643252627074562e7 -2.477570496452224e6 0.0
-2.477570496452224e6 1.8162626347485177e7 0.0
0.0 0.0 0.0

-2.8654530953482445e6 1.2606334656390948e7 0.0
1.2606334656390948e7 3.695102554485349e6 0.0
0.0 0.0 0.0

-5.818894698121777e6 7.022567681886899e6 0.0
7.022567681886899e6 6.364017727678109e6 0.0
0.0 0.0 0.0

2.541846031161636e6 9.266815655111322e6 0.0
9.266815655111322e6 -1.2986595438716901e7 0.0
0.0 0.0 0.0

-7.028490732613452e6 1.2476289962164901e7 0.0
1.2476289962164901e7 1.13571170023282e7 0.0
0.0 0.0 0.0

-8.414008695441278e6 7.899442200754526e6 0.0
7.899442200754526e6 1.1082335607497888e7 0.0
0.0 0.0 0.0

1.2731167397284615e6 7.8891369032771485e6 0.0
7.8891369032771485e6 -6.22947091039599e6 0.0
0.0 0.0 0.0

4.0578481750727277e6 5.840465825407639e6 0.0
5.840465825407639e6 -1.1680550071256625e7 0.0
0.0 0.0 0.0

-2.7048577649052734e6 1.3193948947534353e7 0.0
1.3193948947534353e7 6.404740003911375e6 0.0
0.0 0.0 0.0

-4.703525876242746e6 1.3296212687836207e7 0.0
1.3296212687836207e7 8.628574171594713e6 0.0
0.0 0.0 0.0

-1.3781710854983763e6 1.0605154055921268e7 0.0
1.0605154055921268e7 -3.0583062908992358e6 0.0
0.0 0.0 0.0

-6.439904450835107e6 1.3982497152389757e7 0.0
1.3982497152389757e7 6.902259531735795e6 0.0
0.0 0.0 0.0

-8.674352042624265e6 1.909689184945736e7 0.0
1.909689184945736e7 4.57499457264239e6 0.0
0.0 0.0 0.0

-149424.13594093174 1.2503589106521923e7 0.0
1.2503589106521923e7 -7.419157960912347e6 0.0
0.0 0.0 0.0

-2.2595716315886383e6 2.617170176750393e6 0.0
2.617170176750393e6 1.866249822639908e6 0.0
0.0 0.0 0.0

1.9402663965667281e6 1.014015298911838e7 0.0
1.014015298911838e7 -1.1537790709198419e7 0.0
0.0 0.0 0.0

-6.80435440488307e6 1.2324742064545883e7 0.0
1.2324742064545883e7 7.4424348266824e6 0.0
0.0 0.0 0.0

-8.313524281485317e6 6.947493655172098e6 0.0
6.947493655172098e6 1.1328563417347742e7 0.0
0.0 0.0 0.0

-12215.396199457464 1.100275730681629e7 0.0
1.100275730681629e7 1.1317787575632087e6 0.0
0.0 0.0 0.0

3.5184043105840515e6 8.2733556250756085e6 0.0
8.2733556250756085e6 -1.4506507996330455e7 0.0
0.0 0.0 0.0

2.360012423406222e6 9.1347630150929e6 0.0
9.1347630150929e6 -1.2223082580308957e7 0.0
0.0 0.0 0.0

-7.111559712227687e6 2.1082221416314095e7 0.0
2.1082221416314095e7 -1.1834653722800948e6 0.0
0.0 0.0 0.0

-5.267935295227295e6 1.3239362087362323e7 0.0
1.3239362087362323e7 3.383980920083569e6 0.0
0.0 0.0 0.0

-6.114168325027184e6 1.3891494916854009e7 0.0
1.3891494916854009e7 5.032547000931388e6 0.0
0.0 0.0 0.0

-5.079294323258993e6 1.3853587033156028e7 0.0
1.3853587033156028e7 1.5446434489817664e6 0.0
0.0 0.0 0.0

2.8250720290955384e6 5.139847771521278e6 0.0
5.139847771521278e6 -7.968373730194778e6 0.0
0.0 0.0 0.0

538136.3913649379 9.133850281032767e6 0.0
9.133850281032767e6 -5.888804835964572e6 0.0
0.0 0.0 0.0

-6.589248871832585e6 1.2033399124409106e7 0.0
1.2033399124409106e7 6.89474874510961e6 0.0
0.0 0.0 0.0

-1.9539955474847262e6 1.349484757139766e7 0.0
1.349484757139766e7 -4.2926814467734145e6 0.0
0.0 0.0 0.0

-8.180169294090057e6 1.8615490680676114e7 0.0
1.8615490680676114e7 4.640949453558326e6 0.0
0.0 0.0 0.0

-1.6772739405368345e6 7.074210333724872e6 0.0
7.074210333724872e6 -307090.36638232216 0.0
0.0 0.0 0.0

-1.1242350698802404e7 3.4183890438098116e6 0.0
3.4183890438098116e6 1.275353629652906e7 0.0
0.0 0.0 0.0

-7.968997381889579e6 1.8189833168551296e7 0.0
1.8189833168551296e7 4.720312121777782e6 0.0
0.0 0.0 0.0

-3.440175944019874e6 1.3358316039223077e7 0.0
1.3358316039223077e7 -2.453563261199927e6 0.0
0.0 0.0 0.0

1.3815093253766694e6 8.12037312169328e6 0.0
8.12037312169328e6 -7.787112269495856e6 0.0
0.0 0.0 0.0

-4.964365092850522e6 9.187319121179111e6 0.0
9.187319121179111e6 4.30778214103751e6 0.0
0.0 0.0 0.0

3.7926807654590625e6 7.985855443825001e6 0.0
7.985855443825001e6 -1.4902006412272105e7 0.0
0.0 0.0 0.0

-6.30074240178179e6 1.591183588799837e7 0.0
1.591183588799837e7 4.6040830502802385e6 0.0
0.0 0.0 0.0

-2.961881572320073e6 1.321783312395617e7 0.0
1.321783312395617e7 3.265385281240479e6 0.0
0.0 0.0 0.0

2.291759156353915e6 9.86499844262177e6 0.0
9.86499844262177e6 -1.3716273921106817e7 0.0
0.0 0.0 0.0

-6.641187549540106e6 1.4152362718826577e7 0.0
1.4152362718826577e7 5.412815307372642e6 0.0
0.0 0.0 0.0

-1.1577402278160099e7 3.093313025255642e6 0.0
3.093313025255642e6 1.336324599866743e7 0.0
0.0 0.0 0.0

1.0394482475155923e6 7.804448558562767e6 0.0
7.804448558562767e6 -6.996482565422007e6 0.0
0.0 0.0 0.0

-2.2638782186133713e6 1.0661258071509192e7 0.0
1.0661258071509192e7 4.0651847392044696e6 0.0
0.0 0.0 0.0

-6.002747124907553e6 1.3015754195527513e7 0.0
1.3015754195527513e7 5.217898317806017e6 0.0
0.0 0.0 0.0

1.9101979605564252e6 1.0264062171192251e7 0.0
1.0264062171192251e7 -1.3492136299216272e7 0.0
0.0 0.0 0.0

-1.536017961862932e7 2.6945683646001093e7 0.0
2.6945683646001093e7 -2.380433724603739e6 0.0
0.0 0.0 0.0

-8.492006492649335e6 9.070964720246708e6 0.0
9.070964720246708e6 9.991422480224743e6 0.0
0.0 0.0 0.0

-1.5571127032873244e6 1.2784020713269759e7 0.0
1.2784020713269759e7 -1.5023149983590493e7 0.0
0.0 0.0 0.0

-1.5881983354830462e6 7.564365201091291e6 0.0
7.564365201091291e6 -891108.1516259451 0.0
0.0 0.0 0.0

-6.560275106786512e6 1.0654537739560777e7 0.0
1.0654537739560777e7 5.157396906920521e6 0.0
0.0 0.0 0.0

-8.74416742151968e6 1.0995341374879241e7 0.0
1.0995341374879241e7 1.2266729940328762e7 0.0
0.0 0.0 0.0

-4.513025892318123e6 8.532805682460515e6 0.0
8.532805682460515e6 3.698739299807991e6 0.0
0.0 0.0 0.0

-1.0225910475763226e7 1.1523761391194412e7 0.0
1.1523761391194412e7 2.6014968571597323e7 0.0
0.0 0.0 0.0

-5.604547063398418e6 1.0926458258300042e7 0.0
1.0926458258300042e7 4.985659738250346e6 0.0
0.0 0.0 0.0

957331.6315913717 1.1346968276858764e7 0.0
1.1346968276858764e7 -1.0572151373474149e7 0.0
0.0 0.0 0.0

-407015.1739905835 1.2768239531522261e7 0.0
1.2768239531522261e7 -6.724718534954364e6 0.0
0.0 0.0 0.0

5.616718001532382e7 1.215936217375076e7 0.0
1.215936217375076e7 932930.5344427153 0.0
0.0 0.0 0.0

-5.374655801777277e6 -6.294021741181409e6 0.0
-6.294021741181409e6 8.339375964727155e6 0.0
0.0 0.0 0.0

4.732445704259762e6 5.205420116950956e6 0.0
5.205420116950956e6 -1.2570295425977103e7 0.0
0.0 0.0 0.0

-515147.31376280915 5.43336063839268e6 0.0
5.43336063839268e6 -1.3347717307335224e6 0.0
0.0 0.0 0.0

-4.737458185168991e6 1.3608837830699338e7 0.0
1.3608837830699338e7 956932.1095096623 0.0
0.0 0.0 0.0

-7.219704033813731e6 -8.95287251518027e6 0.0
-8.95287251518027e6 1.8277281692805506e7 0.0
0.0 0.0 0.0

-1.366549439864825e6 1.1210764825615546e7 0.0
1.1210764825615546e7 -1.1340572763369571e7 0.0
0.0 0.0 0.0

-8.1930611779643735e6 5.97018137124225e6 0.0
5.97018137124225e6 1.105361114681465e7 0.0
0.0 0.0 0.0

-8.272877728575652e6 9.927259695361689e6 0.0
9.927259695361689e6 8.644511456517212e6 0.0
0.0 0.0 0.0

5.075683872143571e6 5.052975036149657e6 0.0
5.052975036149657e6 -1.3650582065262567e7 0.0
0.0 0.0 0.0

-377580.69777554995 1.1146638278350668e7 0.0
1.1146638278350668e7 -5.969058381126927e6 0.0
0.0 0.0 0.0

-9.372262180783736e6 1.9652514271877963e7 0.0
1.9652514271877963e7 4.91599014398242e6 0.0
0.0 0.0 0.0

680025.0480534779 8.107326319852002e6 0.0
8.107326319852002e6 -6.571337425971853e6 0.0
0.0 0.0 0.0

-1.066500311496266e6 1.334884182352892e7 0.0
1.334884182352892e7 -1.1435540594269785e6 0.0
0.0 0.0 0.0

-7.859564602866348e6 4.971839258046191e6 0.0
4.971839258046191e6 5.869019902266138e7 0.0
0.0 0.0 0.0

4.978005358703189e6 8.274755583204438e6 0.0
8.274755583204438e6 -2.8297897849452525e7 0.0
0.0 0.0 0.0

2.357640911633537e6 1.2822373471645081e7 0.0
1.2822373471645081e7 -2.175510593868189e7 0.0
0.0 0.0 0.0

604485.8938620021 1.0504301989802027e7 0.0
1.0504301989802027e7 -7.639367452791847e6 0.0
0.0 0.0 0.0

4.862782457502686e6 7.013019207315825e6 0.0
7.013019207315825e6 -1.527334005564195e7 0.0
0.0 0.0 0.0

-1.050949524582412e7 1.2202186127132455e7 0.0
1.2202186127132455e7 5.971347302163033e6 0.0
0.0 0.0 0.0

-2.146761101296398e6 1.3334212058697019e7 0.0
1.3334212058697019e7 -5.114522093547995e6 0.0
0.0 0.0 0.0

-5.785241244411633e6 -7.454997184581423e6 0.0
-7.454997184581423e6 9.411132749784663e6 0.0
0.0 0.0 0.0

-2.81254544869525e6 7.032031053824607e6 0.0
7.032031053824607e6 628653.3000066942 0.0
0.0 0.0 0.0

-6.026641620569232e6 1.410914498513714e7 0.0
1.410914498513714e7 4.772684925189611e6 0.0
0.0 0.0 0.0

-7.1010160204158705e6 1.2295508297567071e7 0.0
1.2295508297567071e7 6.458302605411519e6 0.0
0.0 0.0 0.0

-5.320903031048602e6 7.364658873766331e6 0.0
7.364658873766331e6 3.367093934615113e6 0.0
0.0 0.0 0.0

-1.5741778984363656e6 6.410528022033378e6 0.0
6.410528022033378e6 -124511.70346179098 0.0
0.0 0.0 0.0

3.036582059690997e6 1.0433614309896668e7 0.0
1.0433614309896668e7 -757767.7628610495 0.0
0.0 0.0 0.0

-3.817023364263983e6 1.3600128546763474e7 0.0
1.3600128546763474e7 -1.7895673710008035e6 0.0
0.0 0.0 0.0

-374404.1187705075 6.180836830383828e6 0.0
6.180836830383828e6 -3.318875406872989e6 0.0
0.0 0.0 0.0

-4.995589068383758e6 1.4841072311040247e7 0.0
1.4841072311040247e7 1.9753165409841766e6 0.0
0.0 0.0 0.0

-9.625566579465069e6 7.7870712754639145e6 0.0
7.7870712754639145e6 1.0920716338131526e7 0.0
0.0 0.0 0.0

-4.406309908953961e6 9.150410272634478e6 0.0
9.150410272634478e6 3.2997864559604554e6 0.0
0.0 0.0 0.0

-6.138493991389183e6 -7.832338891119745e6 0.0
-7.832338891119745e6 1.0895309068423675e7 0.0
0.0 0.0 0.0

4.891262331653634e6 5.136548232700225e6 0.0
5.136548232700225e6 -1.3089563112066794e7 0.0
0.0 0.0 0.0

5.01310024939708e6 7.240824701406661e6 0.0
7.240824701406661e6 -1.5952827144508507e7 0.0
0.0 0.0 0.0

-9.351317460758228e6 5.375232452130632e6 0.0
5.375232452130632e6 1.0168575197985366e7 0.0
0.0 0.0 0.0

5.778316149830425e6 6.988462104494866e6 0.0
6.988462104494866e6 -2.4498362617617372e7 0.0
0.0 0.0 0.0

-1.0464419955367483e7 -6.316841331843252e6 0.0
-6.316841331843252e6 3.0593690160671167e7 0.0
0.0 0.0 0.0

1.5939567518110764e6 7.867047764288861e6 0.0
7.867047764288861e6 -8.16271447277147e6 0.0
0.0 0.0 0.0

2.5171072833478334e6 7.314728257810311e6 0.0
7.314728257810311e6 -8.907767506241456e6 0.0
0.0 0.0 0.0

-5.954589553279756e6 1.859776327586306e7 0.0
1.859776327586306e7 2.3910363272518637e6 0.0
0.0 0.0 0.0

-7.8079732690512845e6 1.5734151152487548e7 0.0
1.5734151152487548e7 7.151545340640362e6 0.0
0.0 0.0 0.0

-6.107756760502031e6 1.27084383619496e7 0.0
1.27084383619496e7 5.45457279657134e6 0.0
0.0 0.0 0.0

-4.418459729724754e6 1.441592246406513e7 0.0
1.441592246406513e7 662690.8043739339 0.0
0.0 0.0 0.0

-8.276014832001466e6 1.833569456310221e7 0.0
1.833569456310221e7 6.584136845546598e6 0.0
0.0 0.0 0.0

-6.3958304512862535e6 1.3561949489996918e7 0.0
1.3561949489996918e7 6.134641877240144e6 0.0
0.0 0.0 0.0

-1.5001443796863856e6 1.2189955844942382e7 0.0
1.2189955844942382e7 2.234311194536744e6 0.0
0.0 0.0 0.0

6.208847030208774e6 5.613419904248882e6 0.0
5.613419904248882e6 -2.0523068230398625e7 0.0
0.0 0.0 0.0

5.43671485597711e6 4.953652106625157e6 0.0
4.953652106625157e6 -1.4966238231708815e7 0.0
0.0 0.0 0.0

6.068055101843473e6 5.252726911746852e6 0.0
5.252726911746852e6 -1.8022274539185345e7 0.0
0.0 0.0 0.0

-5.887678077519893e6 1.401608890695509e7 0.0
1.401608890695509e7 3.3271522229487207e6 0.0
0.0 0.0 0.0

-2.0535321812947448e6 7.607879917428737e6 0.0
7.607879917428737e6 -906559.0498924658 0.0
0.0 0.0 0.0

-7.1561658966440605e6 -8.801896922050007e6 0.0
-8.801896922050007e6 1.879424307411465e7 0.0
0.0 0.0 0.0

-8.060724595694244e6 5.535452226766473e6 0.0
5.535452226766473e6 8.198117428667182e6 0.0
0.0 0.0 0.0

3.5461927740126695e6 5.752318761351677e6 0.0
5.752318761351677e6 -1.0145817914725665e7 0.0
0.0 0.0 0.0

-7.828026004009383e6 1.4182212780385895e7 0.0
1.4182212780385895e7 6.235170598832145e6 0.0
0.0 0.0 0.0

-1.6075629530418012e6 1.1015039233456962e7 0.0
1.1015039233456962e7 -1.0862604784147916e7 0.0
0.0 0.0 0.0

-2.8819525948024453e6 -4.290377031081845e6 0.0
-4.290377031081845e6 6.562695779989524e6 0.0
0.0 0.0 0.0

-4.893179059735913e6 2.9076360189681705e6 0.0
2.9076360189681705e6 4.362793895544313e6 0.0
0.0 0.0 0.0

-1.208340901907513e7 2.554483169815153e6 0.0
2.554483169815153e6 1.5001041604187004e7 0.0
0.0 0.0 0.0

-5.680369906786056e6 1.2378342909730513e7 0.0
1.2378342909730513e7 7.567397341563478e6 0.0
0.0 0.0 0.0

1.8186456944230678e6 9.289821396440413e6 0.0
9.289821396440413e6 -1.0955484540197931e7 0.0
0.0 0.0 0.0

6.400173879540495e6 5.426568989725343e6 0.0
5.426568989725343e6 -1.970862540398095e7 0.0
0.0 0.0 0.0

4.469572919224291e6 5.344244595097924e6 0.0
5.344244595097924e6 -1.1910188152099654e7 0.0
0.0 0.0 0.0

-4.971576951639874e6 2.07145691013744e7 0.0
2.07145691013744e7 -4.774646365412407e6 0.0
0.0 0.0 0.0

-1.0446111870822204e7 -6.890120592969752e6 0.0
-6.890120592969752e6 2.8986649683938593e7 0.0
0.0 0.0 0.0

4.35458269829315e6 7.640635003547387e6 0.0
7.640635003547387e6 -1.439959815788584e7 0.0
0.0 0.0 0.0

-1.0956362158991717e7 -1.764280022633764e6 0.0
-1.764280022633764e6 4.252409663932872e7 0.0
0.0 0.0 0.0

6.316055930403168e6 6.042789943580373e6 0.0
6.042789943580373e6 -2.210960609892878e7 0.0
0.0 0.0 0.0

-6.53460853902409e6 1.4488493626310768e7 0.0
1.4488493626310768e7 6.58159729666669e6 0.0
0.0 0.0 0.0

-605200.531259668 8.390069890290616e6 0.0
8.390069890290616e6 -3.971855202524802e6 0.0
0.0 0.0 0.0

-1.657653831538889e6 1.1295842499373324e7 0.0
1.1295842499373324e7 -4.406171655342691e6 0.0
0.0 0.0 0.0

238426.95651004557 1.1407780525005808e7 0.0
1.1407780525005808e7 -8.899699048059044e6 0.0
0.0 0.0 0.0

-1.0556592197123097e7 -5.597661859529686e6 0.0
-5.597661859529686e6 3.2731997923083078e7 0.0
0.0 0.0 0.0

6.129938460056881e6 5.3762697640365e6 0.0
5.3762697640365e6 -1.8706784881980415e7 0.0
0.0 0.0 0.0

-9.496687864832014e6 8.036756790710287e6 0.0
8.036756790710287e6 1.1426297454800777e7 0.0
0.0 0.0 0.0

-9.286534559728805e6 7.471700952620013e6 0.0
7.471700952620013e6 1.0444831235332334e7 0.0
0.0 0.0 0.0

-1.1746562498709055e7 3.6098600430471e6 0.0
3.6098600430471e6 1.3656316641356252e7 0.0
0.0 0.0 0.0

-4.70027581426462e6 7.905412844449957e6 0.0
7.905412844449957e6 4.1715863503322643e6 0.0
0.0 0.0 0.0

-2.8743435830855095e6 1.366626818859358e7 0.0
1.366626818859358e7 1.035375396352244e7 0.0
0.0 0.0 0.0

-3.4125793106702156e6 1.390108865810849e7 0.0
1.390108865810849e7 -1.3136524166018327e6 0.0
0.0 0.0 0.0

-6.316560318533445e6 1.484861117769579e7 0.0
1.484861117769579e7 3.864710367076098e6 0.0
0.0 0.0 0.0

-4.5313128671855815e6 1.4429981997159984e7 0.0
1.4429981997159984e7 -392811.0145726297 0.0
0.0 0.0 0.0

1.997920238859374e6 7.908134891769292e6 0.0
7.908134891769292e6 -8.035469696838643e6 0.0
0.0 0.0 0.0

-6.860365123445088e6 1.5452121680805456e7 0.0
1.5452121680805456e7 6.261760385020064e6 0.0
0.0 0.0 0.0

-758380.35229434 1.293579256775112e7 0.0
1.293579256775112e7 -1.9072246194696794e6 0.0
0.0 0.0 0.0

1.2276657743351664e6 1.0071231404429557e7 0.0
1.0071231404429557e7 -8.627475382495202e6 0.0
0.0 0.0 0.0

-1.1284928092288263e7 6.442304165498409e6 0.0
6.442304165498409e6 1.4702142634781823e7 0.0
0.0 0.0 0.0

-9.96813740445282e6 5.553699220420367e6 0.0
5.553699220420367e6 1.131544288586723e7 0.0
0.0 0.0 0.0

2.006632680407255e6 7.548700762798199e6 0.0
7.548700762798199e6 -9.274604825122956e6 0.0
0.0 0.0 0.0

-7.001361138338034e6 -9.735265989301296e6 0.0
-9.735265989301296e6 1.5085998375566019e7 0.0
0.0 0.0 0.0

5.146618150710607e6 5.022886242388562e6 0.0
5.022886242388562e6 -1.3944638060305564e7 0.0
0.0 0.0 0.0

-4.026730485662555e6 1.2739042737776851e7 0.0
1.2739042737776851e7 6.696747668948045e6 0.0
0.0 0.0 0.0

-1.0077458778798549e7 -7.519418944549026e6 0.0
-7.519418944549026e6 2.714572356231724e7 0.0
0.0 0.0 0.0

5.877509456303147e6 5.242215769510569e6 0.0
5.242215769510569e6 -1.7011058456018046e7 0.0
0.0 0.0 0.0

5.214846277286105e6 5.01200888231821e6 0.0
5.01200888231821e6 -1.4262894157702843e7 0.0
0.0 0.0 0.0

-6.690021578190515e6 -9.510545297000729e6 0.0
-9.510545297000729e6 1.5874017142972205e7 0.0
0.0 0.0 0.0

-9.414738042132325e6 1.0656291134448728e7 0.0
1.0656291134448728e7 1.6525043598170029e7 0.0
0.0 0.0 0.0

5.87539940502536e6 5.189738226776128e6 0.0
5.189738226776128e6 -1.6706227093275012e7 0.0
0.0 0.0 0.0

-9.491127059995566e6 -8.109253781425162e6 0.0
-8.109253781425162e6 2.4972983508383818e7 0.0
0.0 0.0 0.0

-5.521775104474266e6 1.1950761436207643e7 0.0
1.1950761436207643e7 7.570014290983761e6 0.0
0.0 0.0 0.0

-8.110584239252367e6 -4.114714986132039e6 0.0
-4.114714986132039e6 1.367062506780973e7 0.0
0.0 0.0 0.0

-7.136405350497064e6 -8.96732797866124e6 0.0
-8.96732797866124e6 1.767076651597707e7 0.0
0.0 0.0 0.0

5.421682932024969e6 4.987908465018907e6 0.0
4.987908465018907e6 -1.470342429557891e7 0.0
0.0 0.0 0.0

5.78363796871442e6 5.196956244455727e6 0.0
5.196956244455727e6 -1.6308127993133875e7 0.0
0.0 0.0 0.0

-9.059682317679266e6 -8.468079208944682e6 0.0
-8.468079208944682e6 2.3272627748019114e7 0.0
0.0 0.0 0.0

-1.4219764199545524e8 3.832073603043205e7 0.0
3.832073603043205e7 -8.481015683830768e6 0.0
0.0 0.0 0.0

9.090660093192646e7 1.5250719961110933e7 0.0
1.5250719961110933e7 -1.8477019937086403e6 0.0
0.0 0.0 0.0

-6.119316205234463e6 7.471518544991081e6 0.0
7.471518544991081e6 4.498819970294623e6 0.0
0.0 0.0 0.0

5.629943079461121e6 5.181541691226432e6 0.0
5.181541691226432e6 -1.5916425596449018e7 0.0
0.0 0.0 0.0

-8.688213080987636e6 -8.510984336356148e6 0.0
-8.510984336356148e6 2.2000335186362624e7 0.0
0.0 0.0 0.0

1.3233794416482022e6 9.566681360322395e6 0.0
9.566681360322395e6 -3.3634701629950893e6 0.0
0.0 0.0 0.0

-9.30138866977855e6 6.360385371519277e6 0.0
6.360385371519277e6 1.0465239546942003e7 0.0
0.0 0.0 0.0

-5.935057159638788e6 1.4302606127743974e7 0.0
1.4302606127743974e7 4.558704406549171e6 0.0
0.0 0.0 0.0

-3.8300738028196828e6 1.3038915382373003e7 0.0
1.3038915382373003e7 7.1159941305179205e6 0.0
0.0 0.0 0.0

-8.04621219304007e6 -8.497719583185276e6 0.0
-8.497719583185276e6 2.055369311902204e7 0.0
0.0 0.0 0.0

5.6643533723209305e6 5.146436570810328e6 0.0
5.146436570810328e6 -1.5742914131811593e7 0.0
0.0 0.0 0.0

-4.0982944324136875e6 1.3773376853602454e7 0.0
1.3773376853602454e7 -1.0521828492153892e6 0.0
0.0 0.0 0.0

-515141.80135107227 1.247660156598137e7 0.0
1.247660156598137e7 -1.6732292004233565e7 0.0
0.0 0.0 0.0

-5.513645487790405e6 1.4732793317217013e7 0.0
1.4732793317217013e7 2.1956852864970374e6 0.0
0.0 0.0 0.0

326783.5396142653 1.0731953027110005e7 0.0
1.0731953027110005e7 -7.100561101881353e6 0.0
0.0 0.0 0.0

1.0950758206303515e6 1.0588900292448606e7 0.0
1.0588900292448606e7 -1.0435889292373214e7 0.0
0.0 0.0 0.0

-1.0030743844108167e6 1.2265322376178188e7 0.0
1.2265322376178188e7 760029.6694177716 0.0
0.0 0.0 0.0

-3.344155665613535e6 1.4586049107233496e7 0.0
1.4586049107233496e7 -3.1668207047747765e6 0.0
0.0 0.0 0.0

-2.177712401326078e6 1.3306597814476328e7 0.0
1.3306597814476328e7 -3.883765616295074e6 0.0
0.0 0.0 0.0

47450.91551567428 1.1480032079902422e7 0.0
1.1480032079902422e7 -1.411642697370884e7 0.0
0.0 0.0 0.0

-5.778523057414935e6 1.4791683735207183e7 0.0
1.4791683735207183e7 3.971505403828428e6 0.0
0.0 0.0 0.0

-6.654595673533452e6 1.2507816489327813e7 0.0
1.2507816489327813e7 5.881749516841356e6 0.0
0.0 0.0 0.0

-4.165644954058505e6 1.4952942279403577e7 0.0
1.4952942279403577e7 -271275.0369044633 0.0
0.0 0.0 0.0

1.0559910209964248e6 1.0811887103521977e7 0.0
1.0811887103521977e7 -1.0587698601063289e7 0.0
0.0 0.0 0.0

-6.914781739749262e6 5.924492681939417e6 0.0
5.924492681939417e6 6.12411459180893e6 0.0
0.0 0.0 0.0

-297848.33626947296 1.1755450611534776e7 0.0
1.1755450611534776e7 1.6356183141883188e6 0.0
0.0 0.0 0.0

-7.202919977955658e6 6.711038782186053e6 0.0
6.711038782186053e6 6.740730345859025e6 0.0
0.0 0.0 0.0

-2.534588209903859e6 1.07328618962174e7 0.0
1.07328618962174e7 -939796.1520497645 0.0
0.0 0.0 0.0

-5.816243551007369e6 1.4658383404884689e7 0.0
1.4658383404884689e7 4.215104437926713e6 0.0
0.0 0.0 0.0

1.1276124899612349e6 1.0832813188296996e7 0.0
1.0832813188296996e7 -1.2392367476234915e7 0.0
0.0 0.0 0.0

-4.85116586069348e6 1.2134902476608384e7 0.0
1.2134902476608384e7 6.90898908198262e6 0.0
0.0 0.0 0.0

-8.723395026784258e6 1.8701408231447686e7 0.0
1.8701408231447686e7 7.103855537242585e6 0.0
0.0 0.0 0.0

-3.1011101177647263e6 1.0835929849677661e7 0.0
1.0835929849677661e7 -1.055263722414153e6 0.0
0.0 0.0 0.0

-4.70205998464687e6 1.4136676820219189e7 0.0
1.4136676820219189e7 234046.105107564 0.0
0.0 0.0 0.0

1.5990471736086702e6 1.1988039877013419e7 0.0
1.1988039877013419e7 4.915476654300387e6 0.0
0.0 0.0 0.0

-5.892505105944458e6 1.4489572958762573e7 0.0
1.4489572958762573e7 4.3691354098213175e6 0.0
0.0 0.0 0.0

-9.079426967542112e6 4.308528977304977e6 0.0
4.308528977304977e6 4.504517806968583e6 0.0
0.0 0.0 0.0

-6.342638785411806e6 1.5742379318167632e7 0.0
1.5742379318167632e7 4.769726167759783e6 0.0
0.0 0.0 0.0

4.000790082367678e6 5.602329198763719e6 0.0
5.602329198763719e6 -1.0382565150407434e7 0.0
0.0 0.0 0.0

3.9444327979092924e6 5.5881387901184345e6 0.0
5.5881387901184345e6 -1.0070944662592767e7 0.0
0.0 0.0 0.0

-4.361180220871967e6 1.3986841279729392e7 0.0
1.3986841279729392e7 -254119.7256917823 0.0
0.0 0.0 0.0

-4.1912457524399925e6 1.3486210941721275e7 0.0
1.3486210941721275e7 8.918945722442113e6 0.0
0.0 0.0 0.0

-6.510942353263874e6 1.6191770315309336e7 0.0
1.6191770315309336e7 4.964213053826129e6 0.0
0.0 0.0 0.0

-1.1491140494335162e7 3.9102380718324115e6 0.0
3.9102380718324115e6 1.310407590150731e7 0.0
0.0 0.0 0.0

-7.674266327180734e6 1.7586672777362257e7 0.0
1.7586672777362257e7 6.231207672227896e6 0.0
0.0 0.0 0.0

-3.63213906091984e6 1.2714356965291802e7 0.0
1.2714356965291802e7 4.0965452681807354e6 0.0
0.0 0.0 0.0

-1.1382781670389606e6 8.336845719693446e6 0.0
8.336845719693446e6 230587.2009428749 0.0
0.0 0.0 0.0

2.60197602292701e6 9.16930628278235e6 0.0
9.16930628278235e6 -1.140432591699596e7 0.0
0.0 0.0 0.0

-6.454933425496029e6 1.4189940820714392e7 0.0
1.4189940820714392e7 4.656814058430754e6 0.0
0.0 0.0 0.0

-4.122073026455318e6 216844.0091790509 0.0
216844.0091790509 4.2905964395297775e6 0.0
0.0 0.0 0.0

-1.052649400487287e7 9.802424112106273e6 0.0
9.802424112106273e6 1.6834856821509343e7 0.0
0.0 0.0 0.0

557224.9806482894 1.1459987413545022e7 0.0
1.1459987413545022e7 -1.5843237373755552e7 0.0
0.0 0.0 0.0

-1.1302477635070112e7 4.415823479449161e6 0.0
4.415823479449161e6 1.4674299902785093e7 0.0
0.0 0.0 0.0

-395872.68911542976 1.5120993726992363e7 0.0
1.5120993726992363e7 -4.246483704455303e6 0.0
0.0 0.0 0.0

2.0719171955194832e6 9.337478484506376e6 0.0
9.337478484506376e6 -1.0115654880484916e7 0.0
0.0 0.0 0.0

-3.1831973147492125e6 1.0616211144090343e7 0.0
1.0616211144090343e7 -868697.8230257509 0.0
0.0 0.0 0.0

-5.218927388880891e6 1.4554285220971663e7 0.0
1.4554285220971663e7 1.5614299939361433e6 0.0
0.0 0.0 0.0

1.1959436130154752e6 9.666347516365118e6 0.0
9.666347516365118e6 -5.206496558119207e6 0.0
0.0 0.0 0.0

-7.550724253190124e6 5.552051618822412e6 0.0
5.552051618822412e6 9.917325550740305e6 0.0
0.0 0.0 0.0

-1.1334930846543755e7 5.655790895305219e6 0.0
5.655790895305219e6 1.465919580641472e7 0.0
0.0 0.0 0.0

-4.971688508845642e6 1.4322630032979285e7 0.0
1.4322630032979285e7 903601.5321218136 0.0
0.0 0.0 0.0

-4.946142287047455e6 7.311576831703058e6 0.0
7.311576831703058e6 4.653444844073037e6 0.0
0.0 0.0 0.0

5.00156899629677e6 5.95498699729518e6 0.0
5.95498699729518e6 -1.4207463995693512e7 0.0
0.0 0.0 0.0

-6.253505316959648e6 8.79990032637886e6 0.0
8.79990032637886e6 4.6378670973793715e6 0.0
0.0 0.0 0.0

940689.3413194227 1.0358489544059006e7 0.0
1.0358489544059006e7 -7.424917240941455e6 0.0
0.0 0.0 0.0

949611.7908347853 9.395521782014988e6 0.0
9.395521782014988e6 -1.7651694375543562e6 0.0
0.0 0.0 0.0

-1.6726968628798828e6 1.2639339153457241e7 0.0
1.2639339153457241e7 -2.6276530734141297e6 0.0
0.0 0.0 0.0

-2.3034854950970523e6 1.0895152114255369e7 0.0
1.0895152114255369e7 -2.643120099441768e6 0.0
0.0 0.0 0.0

814067.4247803306 1.0807224748949416e7 0.0
1.0807224748949416e7 -9.871469535248023e6 0.0
0.0 0.0 0.0

3.005154333999942e6 7.28778538614079e6 0.0
7.28778538614079e6 -1.152972641239175e7 0.0
0.0 0.0 0.0

1.0824905314995633e6 1.0021659565795632e7 0.0
1.0021659565795632e7 -6.419595589538777e6 0.0
0.0 0.0 0.0

1.5393682890137327e6 8.129722529101801e6 0.0
8.129722529101801e6 -8.385822492094532e6 0.0
0.0 0.0 0.0

2.8119311939995694e6 5.313072955502529e6 0.0
5.313072955502529e6 -8.835757730763093e6 0.0
0.0 0.0 0.0

-6.3588615312685035e6 1.4565917256987682e7 0.0
1.4565917256987682e7 4.290632178360894e6 0.0
0.0 0.0 0.0

-737510.261242286 8.574229952766739e6 0.0
8.574229952766739e6 -4.24753225190939e6 0.0
0.0 0.0 0.0

-4.874168342233077e6 1.2464910996368444e7 0.0
1.2464910996368444e7 6.758685715505382e6 0.0
0.0 0.0 0.0

382710.50492034946 3.097565518119895e6 0.0
3.097565518119895e6 -393801.4929450376 0.0
0.0 0.0 0.0

2.0875497328832923e6 1.0761927464949865e7 0.0
1.0761927464949865e7 -2.156524600638002e6 0.0
0.0 0.0 0.0

-2.6558912193467193e6 1.1933941651424665e7 0.0
1.1933941651424665e7 -302663.28566641686 0.0
0.0 0.0 0.0

2.28139105642044e6 7.243259935810716e6 0.0
7.243259935810716e6 -9.702314618320556e6 0.0
0.0 0.0 0.0

-5.189401183060672e7 7.676038188223213e6 0.0
7.676038188223213e6 1.4154550438086856e7 0.0
0.0 0.0 0.0

-6.698358070522384e6 1.1421436708489189e7 0.0
1.1421436708489189e7 9.264729928954428e6 0.0
0.0 0.0 0.0

-700238.9925120629 1.1958682806418458e7 0.0
1.1958682806418458e7 -6.1372080516470885e6 0.0
0.0 0.0 0.0

-1.6562269772157515e6 1.030161426894509e7 0.0
1.030161426894509e7 -3.54836237530287e6 0.0
0.0 0.0 0.0

1.9593766886428497e6 9.946700976991856e6 0.0
9.946700976991856e6 -1.0580690131564375e7 0.0
0.0 0.0 0.0

-1.1297279803938724e6 1.2081596063277585e7 0.0
1.2081596063277585e7 2.106717123011541e6 0.0
0.0 0.0 0.0

2.7935745995861962e6 9.490612807750601e6 0.0
9.490612807750601e6 -1.2783225608825358e7 0.0
0.0 0.0 0.0

-987969.1677585131 1.2243983733266193e7 0.0
1.2243983733266193e7 2.8150382321437197e6 0.0
0.0 0.0 0.0

-612644.2834825723 1.104202255771398e7 0.0
1.104202255771398e7 -6.71925998287403e6 0.0
0.0 0.0 0.0

3.018990413318034e6 7.262588564288752e6 0.0
7.262588564288752e6 -1.0327701034855902e7 0.0
0.0 0.0 0.0

5.3786593432704415e6 5.431565523632382e6 0.0
5.431565523632382e6 -1.5628549538825978e7 0.0
0.0 0.0 0.0

-3.959284173685501e6 1.5947660639862923e7 0.0
1.5947660639862923e7 -2.112522265296577e6 0.0
0.0 0.0 0.0

2.7878853286721716e6 9.309083541074479e6 0.0
9.309083541074479e6 -1.2142205908847626e7 0.0
0.0 0.0 0.0

-6.742748857319298e6 1.522009705839012e7 0.0
1.522009705839012e7 6.306775004563108e6 0.0
0.0 0.0 0.0

-3.5628092755196025e6 1.319182764665614e7 0.0
1.319182764665614e7 1.0606196804683479e6 0.0
0.0 0.0 0.0

1.4200476528570708e6 6.521395591644462e6 0.0
6.521395591644462e6 -6.033516896216432e6 0.0
0.0 0.0 0.0

-9.528063048638603e6 1.9033964443077512e7 0.0
1.9033964443077512e7 7.546634315565427e6 0.0
0.0 0.0 0.0

2.4863400449130624e6 7.580576188211879e6 0.0
7.580576188211879e6 -9.148972170086391e6 0.0
0.0 0.0 0.0

-6.879171656846136e6 1.2691911670007419e7 0.0
1.2691911670007419e7 1.4910226770002518e7 0.0
0.0 0.0 0.0

-673999.4260305841 1.2514502822257316e7 0.0
1.2514502822257316e7 -448273.69008295814 0.0
0.0 0.0 0.0

-7.545249645116566e6 1.5565749056706788e7 0.0
1.5565749056706788e7 6.74848493500486e6 0.0
0.0 0.0 0.0

-6.039529455000156e6 6.492440803929452e6 0.0
6.492440803929452e6 6.947000182406599e6 0.0
0.0 0.0 0.0

1.5059166989882407e6 9.835252966377884e6 0.0
9.835252966377884e6 -1.063057543450984e7 0.0
0.0 0.0 0.0

-1.075141049399707e6 7.496811055808383e6 0.0
7.496811055808383e6 -2.9417818982379194e6 0.0
0.0 0.0 0.0

-2.0194756802059533e6 1.1210561968319314e7 0.0
1.1210561968319314e7 -2.1427845109874913e6 0.0
0.0 0.0 0.0

4.905880345762705e6 1.0996266829544934e7 0.0
1.0996266829544934e7 -3.200735840567096e6 0.0
0.0 0.0 0.0

-118150.29298922559 1.2139735178837216e7 0.0
1.2139735178837216e7 -7.272074822993231e6 0.0
0.0 0.0 0.0

768020.3298598784 7.064629407633386e6 0.0
7.064629407633386e6 -4.323497152049512e6 0.0
0.0 0.0 0.0

1.1458004324801732e6 1.0318290355461674e7 0.0
1.0318290355461674e7 -1.0261873926943619e7 0.0
0.0 0.0 0.0

-6.378127559090229e6 -2.5569404961717064e6 0.0
-2.5569404961717064e6 9.385989930616412e6 0.0
0.0 0.0 0.0

-6.313152898701104e6 1.2862490150716458e7 0.0
1.2862490150716458e7 7.72998912934975e6 0.0
0.0 0.0 0.0

-9.727095202460028e6 6.564029196435602e6 0.0
6.564029196435602e6 1.1263973830146346e7 0.0
0.0 0.0 0.0

-1.1751920440602334e7 1.3329537319247346e7 0.0
1.3329537319247346e7 5.842540803830065e6 0.0
0.0 0.0 0.0

38630.91852264013 1.1391041092863284e7 0.0
1.1391041092863284e7 -1.4213252454186458e7 0.0
0.0 0.0 0.0

-6.481424394058233e6 1.3986712715281844e7 0.0
1.3986712715281844e7 6.312782005664101e6 0.0
0.0 0.0 0.0

-6.54453785156615e6 1.4679609601201862e7 0.0
1.4679609601201862e7 6.308891433033599e6 0.0
0.0 0.0 0.0

-1.8330503447487298e6 1.3825450849926164e7 0.0
1.3825450849926164e7 -5.091175980201166e6 0.0
0.0 0.0 0.0

1.2128813347611343e6 1.0887009629317898e7 0.0
1.0887009629317898e7 -1.495171453092782e7 0.0
0.0 0.0 0.0

-4.285553496091351e6 1.2122060779419651e7 0.0
1.2122060779419651e7 6.265916574744079e6 0.0
0.0 0.0 0.0

-1.1800305900108155e7 -469367.2613608665 0.0
-469367.2613608665 1.978367947667595e7 0.0
0.0 0.0 0.0

1.1723804367256258e6 4.625267953091961e6 0.0
4.625267953091961e6 -4.844783196235844e6 0.0
0.0 0.0 0.0

832825.9848982701 1.1251122639820157e7 0.0
1.1251122639820157e7 -1.0418800063455973e7 0.0
0.0 0.0 0.0

-2.8556608133699847e6 1.426625054315696e7 0.0
1.426625054315696e7 -3.870971964555566e6 0.0
0.0 0.0 0.0

-2.84043816178861e6 1.1156728242322493e7 0.0
1.1156728242322493e7 -536730.6961715717 0.0
0.0 0.0 0.0

-950441.3096373909 9.92855755272687e6 0.0
9.92855755272687e6 -4.653340204947967e6 0.0
0.0 0.0 0.0

-1.9291623437922893e6 1.1376445566887889e7 0.0
1.1376445566887889e7 -1.1597357663070481e7 0.0
0.0 0.0 0.0

-1.180282392245105e7 4.8954096406800365e6 0.0
4.8954096406800365e6 1.3683592286508624e7 0.0
0.0 0.0 0.0

-6.215737417895561e6 1.6121461066210067e7 0.0
1.6121461066210067e7 4.1121878130156184e6 0.0
0.0 0.0 0.0

-1.657326381883453e7 1.1391057454461146e7 0.0
1.1391057454461146e7 9.218733958450152e6 0.0
0.0 0.0 0.0

2.2254252437834623e6 1.0746884607840266e7 0.0
1.0746884607840266e7 -2.1205729269146975e6 0.0
0.0 0.0 0.0

1.1933216616590507e6 6.37717240515304e6 0.0
6.37717240515304e6 -6.696736278050884e6 0.0
0.0 0.0 0.0

-2.88621984547557e6 1.0929652105751675e7 0.0
1.0929652105751675e7 -360550.9440273666 0.0
0.0 0.0 0.0

-1.1457886862666417e7 3.4783773915916695e6 0.0
3.4783773915916695e6 1.6111904556891598e7 0.0
0.0 0.0 0.0

-7.461023497448394e6 1.5814483172810867e7 0.0
1.5814483172810867e7 6.61524458767085e6 0.0
0.0 0.0 0.0

-4.965253043620639e6 1.2091236639288157e7 0.0
1.2091236639288157e7 7.04940903463109e6 0.0
0.0 0.0 0.0

-6.170571564486604e6 1.4987754274935205e7 0.0
1.4987754274935205e7 3.646324110340736e6 0.0
0.0 0.0 0.0

-260949.02894050954 1.0855794154852508e7 0.0
1.0855794154852508e7 -7.285641809801664e6 0.0
0.0 0.0 0.0

-1.2144415757792007e7 4.840535773657356e6 0.0
4.840535773657356e6 1.5409064891567724e7 0.0
0.0 0.0 0.0

249942.47017948283 1.1601202745696872e7 0.0
1.1601202745696872e7 -9.082866097434957e6 0.0
0.0 0.0 0.0

-2.2045951751133585e6 1.3356608121461656e7 0.0
1.3356608121461656e7 -644703.6710897004 0.0
0.0 0.0 0.0

-6.391579624236121e6 1.6364978994092004e7 0.0
1.6364978994092004e7 4.356949964931364e6 0.0
0.0 0.0 0.0

2.477742590681716e6 5.698461071445007e6 0.0
5.698461071445007e6 -8.775152217422824e6 0.0
0.0 0.0 0.0

222402.5541059086 1.3258502040196257e7 0.0
1.3258502040196257e7 -6.106872538603835e6 0.0
0.0 0.0 0.0

-6.344079729607338e6 1.3833411792720336e7 0.0
1.3833411792720336e7 5.8341622754594525e6 0.0
0.0 0.0 0.0

-6.4278942147331275e6 5.962623894125779e6 0.0
5.962623894125779e6 7.752177002719636e6 0.0
0.0 0.0 0.0

-2.611808191544944e6 1.4434266946711574e7 0.0
1.4434266946711574e7 -1.1747528774454375e6 0.0
0.0 0.0 0.0

-1.1758341556759764e7 6.372913470618806e6 0.0
6.372913470618806e6 1.311664448474074e7 0.0
0.0 0.0 0.0

-1.5980904359562204e6 3.5810857549088798e6 0.0
3.5810857549088798e6 4.145852508189124e6 0.0
0.0 0.0 0.0

-6.196797092208178e6 1.3437502525059983e7 0.0
1.3437502525059983e7 5.517582399464184e6 0.0
0.0 0.0 0.0

-1.0795490100541767e7 4.668552258966128e6 0.0
4.668552258966128e6 1.2144194584411666e7 0.0
0.0 0.0 0.0

-6.928206948851053e6 1.0933187000065701e7 0.0
1.0933187000065701e7 5.999757669994136e6 0.0
0.0 0.0 0.0

-1.7457705818907516e6 1.3396767314914785e7 0.0
1.3396767314914785e7 6.912602379045332e6 0.0
0.0 0.0 0.0

1.5045321717627756e6 1.0611326214710176e7 0.0
1.0611326214710176e7 -1.4091808992396165e7 0.0
0.0 0.0 0.0

355517.98474538175 3.788946358761416e6 0.0
3.788946358761416e6 -576668.8846337264 0.0
0.0 0.0 0.0

-2.0695975107594624e6 1.640276591696643e7 0.0
1.640276591696643e7 -3.810254398253139e6 0.0
0.0 0.0 0.0

-1.1108653717954496e7 3.916051215158125e6 0.0
3.916051215158125e6 1.4422794352150824e7 0.0
0.0 0.0 0.0

62904.87802947662 9.086814943953162e6 0.0
9.086814943953162e6 -6.0189310913372245e6 0.0
0.0 0.0 0.0

-3.570963208542584e6 1.2299191505524984e7 0.0
1.2299191505524984e7 5.046380916200623e6 0.0
0.0 0.0 0.0

-1.7256187178043227e6 1.0792374526842484e7 0.0
1.0792374526842484e7 -2.4897106878360263e6 0.0
0.0 0.0 0.0

-6.571043110551605e6 1.247894827178801e7 0.0
1.247894827178801e7 7.887112740632011e6 0.0
0.0 0.0 0.0

-1109.2346468165051 7.988608965823652e6 0.0
7.988608965823652e6 -4.268790288026464e6 0.0
0.0 0.0 0.0

-4.953289602174802e6 1.3676443213100428e7 0.0
1.3676443213100428e7 3.75837761940368e6 0.0
0.0 0.0 0.0

-7.108341008132733e6 1.1251978995683514e7 0.0
1.1251978995683514e7 6.729680133701719e6 0.0
0.0 0.0 0.0

-179452.04179715854 1.3246143219570206e7 0.0
1.3246143219570206e7 -6.194527156729461e6 0.0
0.0 0.0 0.0

-6.556537393696947e6 1.376315340730559e7 0.0
1.376315340730559e7 5.13406963832403e6 0.0
0.0 0.0 0.0

-6.676664351920687e6 1.6550340558609148e7 0.0
1.6550340558609148e7 5.300443231006561e6 0.0
0.0 0.0 0.0

1.5178431448177136e6 1.0591387319647457e7 0.0
1.0591387319647457e7 -1.2915628373877948e7 0.0
0.0 0.0 0.0

1.0310161092921568e6 4.712971716070253e6 0.0
4.712971716070253e6 -3.667063010908114e6 0.0
0.0 0.0 0.0

-211425.3644278128 5.680343980871526e6 0.0
5.680343980871526e6 -1.7328055098892506e6 0.0
0.0 0.0 0.0

5.913857720330956e6 6.226471024916521e6 0.0
6.226471024916521e6 -1.8838953883490518e7 0.0
0.0 0.0 0.0

-3.2338350513190133e6 1.3308329779808298e7 0.0
1.3308329779808298e7 -1.3251746490108357e6 0.0
0.0 0.0 0.0

-5.669056496637024e6 1.2031848888665445e7 0.0
1.2031848888665445e7 7.862210883355662e6 0.0
0.0 0.0 0.0

-8.711715303209892e6 5.953425959930437e6 0.0
5.953425959930437e6 9.311089943375815e6 0.0
0.0 0.0 0.0

-1.0354815764788792e7 1.9423584312618304e7 0.0
1.9423584312618304e7 8.091233985055857e6 0.0
0.0 0.0 0.0

-1.1676945327410597e7 2.756786750463114e6 0.0
2.756786750463114e6 1.4020085199386561e7 0.0
0.0 0.0 0.0

2.2998454217013055e6 3.1931945162899133e7 0.0
3.1931945162899133e7 -7.971180684854258e6 0.0
0.0 0.0 0.0

-2.1645094444467e6 1.2913999950249953e7 0.0
1.2913999950249953e7 -4.830595616688778e6 0.0
0.0 0.0 0.0

914330.8211930976 1.0291644628424102e7 0.0
1.0291644628424102e7 -8.104131748377467e6 0.0
0.0 0.0 0.0

-5.083804036170359e6 1.2675938838740509e7 0.0
1.2675938838740509e7 6.46324229319388e6 0.0
0.0 0.0 0.0

-1.218251982128266e7 4.2104086812774725e6 0.0
4.2104086812774725e6 1.472932278490119e7 0.0
0.0 0.0 0.0

-2.73772671627824e6 1.340001996602863e7 0.0
1.340001996602863e7 -2.685438775471557e6 0.0
0.0 0.0 0.0

260430.377383627 9.433731537880398e6 0.0
9.433731537880398e6 -83339.07657932676 0.0
0.0 0.0 0.0

4.620560697010021e6 5.484758999764692e6 0.0
5.484758999764692e6 -1.3119751737109417e7 0.0
0.0 0.0 0.0

-1.8656639471518984e6 6.244051582380229e6 0.0
6.244051582380229e6 496554.86973056104 0.0
0.0 0.0 0.0

-1.1913649229520047e7 2.0441655690111227e7 0.0
2.0441655690111227e7 9.174279346206084e6 0.0
0.0 0.0 0.0

-6.389322140415041e6 1.1663681602994362e7 0.0
1.1663681602994362e7 8.313520552347284e6 0.0
0.0 0.0 0.0

709955.1949495994 1.1139824291388055e7 0.0
1.1139824291388055e7 -9.502376902115013e6 0.0
0.0 0.0 0.0

2.1982048098209035e6 1.050564225085762e7 0.0
1.050564225085762e7 1.1230478491697272e6 0.0
0.0 0.0 0.0

-1.6148239346347856e6 4.765082014567337e6 0.0
4.765082014567337e6 -292011.78767681244 0.0
0.0 0.0 0.0

-2.166739287002779e6 7.86287064509759e6 0.0
7.86287064509759e6 -984629.2199865014 0.0
0.0 0.0 0.0

775067.0931830374 1.0623263252637811e7 0.0
1.0623263252637811e7 -8.288912343329988e6 0.0
0.0 0.0 0.0

-725994.6339137782 1.0482532463692822e7 0.0
1.0482532463692822e7 -4.451610904140933e6 0.0
0.0 0.0 0.0

-8.058329883792464e6 1.0383390603619186e7 0.0
1.0383390603619186e7 8.13229292392936e6 0.0
0.0 0.0 0.0

877210.9542684895 1.1111766050492333e7 0.0
1.1111766050492333e7 -1.0839510334044212e7 0.0
0.0 0.0 0.0

2.3108015847379933e6 9.407277236402644e6 0.0
9.407277236402644e6 -1.0887772161207264e7 0.0
0.0 0.0 0.0

-6.519708951006101e6 1.4157450885787392e7 0.0
1.4157450885787392e7 6.547604562959151e6 0.0
0.0 0.0 0.0

733471.9880270674 1.1338777857056262e7 0.0
1.1338777857056262e7 -8.81748214076709e6 0.0
0.0 0.0 0.0

-8.889572929812793e6 6.087297708378088e6 0.0
6.087297708378088e6 1.2101671522883028e7 0.0
0.0 0.0 0.0

2.3753600849612877e6 5.190874942987587e6 0.0
5.190874942987587e6 -7.2258287263584975e6 0.0
0.0 0.0 0.0

-1.8486663966386124e7 1.704218415992302e7 0.0
1.704218415992302e7 4.638481351261404e6 0.0
0.0 0.0 0.0

1.212331172685254e6 6.182104683499524e6 0.0
6.182104683499524e6 -6.1194587081014365e6 0.0
0.0 0.0 0.0

2.501254848766623e6 4.024032114624703e6 0.0
4.024032114624703e6 -7.413523882154227e6 0.0
0.0 0.0 0.0

-6.342614012951405e6 1.4713329973258918e7 0.0
1.4713329973258918e7 6.295619444148652e6 0.0
0.0 0.0 0.0

252106.13433010236 8.623307105103968e6 0.0
8.623307105103968e6 840354.036905095 0.0
0.0 0.0 0.0

2.2303718892910564e6 1.1984978896963777e7 0.0
1.1984978896963777e7 -4.865202269354468e6 0.0
0.0 0.0 0.0

-9.269309068000436e6 1.0639291056431815e7 0.0
1.0639291056431815e7 1.0745158800985318e7 0.0
0.0 0.0 0.0

-7.3985727601018585e6 1.2161148393250527e7 0.0
1.2161148393250527e7 1.0422835687958546e7 0.0
0.0 0.0 0.0

-347790.3978127483 1.1700852707993463e7 0.0
1.1700852707993463e7 1.478525067008377e7 0.0
0.0 0.0 0.0

-190604.92664555268 1.1968988093072195e7 0.0
1.1968988093072195e7 -2.123002567419418e6 0.0
0.0 0.0 0.0

-6.438216530780076e6 1.2560284849865785e7 0.0
1.2560284849865785e7 8.016625666625613e6 0.0
0.0 0.0 0.0

-5.967539146578851e6 9.3448158711603e6 0.0
9.3448158711603e6 4.1575898525003316e6 0.0
0.0 0.0 0.0

666556.6978951995 1.08304964304404e7 0.0
1.08304964304404e7 -9.105369293640098e6 0.0
0.0 0.0 0.0

-6.689024430945618e6 1.3967891147764433e7 0.0
1.3967891147764433e7 5.622465026755273e6 0.0
0.0 0.0 0.0

-1.1847954057481393e7 4.187653135645508e6 0.0
4.187653135645508e6 1.3979034222214244e7 0.0
0.0 0.0 0.0

731120.1805080632 1.5535427077417381e7 0.0
1.5535427077417381e7 -5.249596175958915e6 0.0
0.0 0.0 0.0

-1.9413335990109434e6 1.2976592864336662e7 0.0
1.2976592864336662e7 -4.094796805666565e6 0.0
0.0 0.0 0.0

2.5821445656618928e6 6.551255905279111e6 0.0
6.551255905279111e6 -9.657156176996108e6 0.0
0.0 0.0 0.0

-1.0430121411748971e6 1.4302845486173952e7 0.0
1.4302845486173952e7 -4.681774278962383e6 0.0
0.0 0.0 0.0

-5.064366523359505e6 1.4507362070318714e7 0.0
1.4507362070318714e7 2.460982689715365e6 0.0
0.0 0.0 0.0

-1.0552888133527257e6 8.59802259665717e6 0.0
8.59802259665717e6 -3.5176295533114336e6 0.0
0.0 0.0 0.0

4.240572677142508e6 1.492239746428363e7 0.0
1.492239746428363e7 1.4135251895471117e7 0.0
0.0 0.0 0.0

-8.807542189698057e6 -6.391481364144413e6 0.0
-6.391481364144413e6 1.72277390501509e7 0.0
0.0 0.0 0.0

-486431.5929910048 1.0432315846303573e7 0.0
1.0432315846303573e7 1.37453206121016e6 0.0
0.0 0.0 0.0

-6.823658487258315e6 -4.764723209346459e6 0.0
-4.764723209346459e6 1.00183354471719e7 0.0
0.0 0.0 0.0

-4.967290258110949e6 1.4964074268119188e7 0.0
1.4964074268119188e7 1.6996924671041477e6 0.0
0.0 0.0 0.0

-3.4213986561921784e6 1.5533367610455096e7 0.0
1.5533367610455096e7 -2.8199654861989995e6 0.0
0.0 0.0 0.0

-1.1127801300300313e7 1.99112782095825e7 0.0
1.99112782095825e7 8.415088609905116e6 0.0
0.0 0.0 0.0

-3.799046307388106e6 1.217351333569316e7 0.0
1.217351333569316e7 7.680481478261467e6 0.0
0.0 0.0 0.0

-1.1315736016282715e7 3.665519262663635e6 0.0
3.665519262663635e6 1.5101567373821959e7 0.0
0.0 0.0 0.0

-5.275407870308787e6 1.5176954149829416e7 0.0
1.5176954149829416e7 2.440919071395318e6 0.0
0.0 0.0 0.0

-7.149849442373306e6 1.1662178815344099e7 0.0
1.1662178815344099e7 6.333235177490894e6 0.0
0.0 0.0 0.0

-6.460431766122106e6 1.3132178149110815e7 0.0
1.3132178149110815e7 5.04937833296866e6 0.0
0.0 0.0 0.0

4.354833604118831e6 7.863130227082003e6 0.0
7.863130227082003e6 -1.5147621091796307e7 0.0
0.0 0.0 0.0

-6.478703854653254e6 1.4251879975952128e7 0.0
1.4251879975952128e7 6.738078052120898e6 0.0
0.0 0.0 0.0

2.4787216623856095e6 1.1827926039873434e7 0.0
1.1827926039873434e7 4.0938570077758115e6 0.0
0.0 0.0 0.0

1.7826850741413077e6 9.610790596433463e6 0.0
9.610790596433463e6 -9.600014310889903e6 0.0
0.0 0.0 0.0

-1.2026848429024942e7 -2.8500568333666264e6 0.0
-2.8500568333666264e6 3.0868660833337195e7 0.0
0.0 0.0 0.0

-6.101111460131135e6 1.559228598945451e7 0.0
1.559228598945451e7 4.386211400451858e6 0.0
0.0 0.0 0.0

657204.1854439136 1.0715461037555872e7 0.0
1.0715461037555872e7 1.0087160435553332e6 0.0
0.0 0.0 0.0

-4.3477310183315456e7 3.929833230331345e7 0.0
3.929833230331345e7 -1.2842432442278469e7 0.0
0.0 0.0 0.0

2.637362834135326e6 5.246463871679599e6 0.0
5.246463871679599e6 -8.583622636934884e6 0.0
0.0 0.0 0.0

-3.1987480475301323e6 1.1358594941834487e7 0.0
1.1358594941834487e7 43399.89591829735 0.0
0.0 0.0 0.0

-7.627485891866442e6 1.372916793814668e7 0.0
1.372916793814668e7 4.978514758005831e6 0.0
0.0 0.0 0.0

679793.743820596 1.2117996081440046e7 0.0
1.2117996081440046e7 -8.19287380519212e6 0.0
0.0 0.0 0.0

-1.9755601230216841e6 1.2964139333973303e7 0.0
1.2964139333973303e7 -5.391881444961744e6 0.0
0.0 0.0 0.0

3.9629231335716266e6 1.1917107148382349e7 0.0
1.1917107148382349e7 -4.589402412378228e6 0.0
0.0 0.0 0.0

-8.337583511290579e6 1.7250181653409164e7 0.0
1.7250181653409164e7 7.145835102256015e6 0.0
0.0 0.0 0.0

-2.480987416885431e6 1.3370163669470098e7 0.0
1.3370163669470098e7 -1.2779979500425458e6 0.0
0.0 0.0 0.0

5.212565657659667e6 6.221631184705595e6 0.0
6.221631184705595e6 -1.5385275763470326e7 0.0
0.0 0.0 0.0

-1.3070613181231385e7 1.5651611369117662e7 0.0
1.5651611369117662e7 1.1996339609449161e6 0.0
0.0 0.0 0.0

-6.469864852406484e6 1.141306947771276e7 0.0
1.141306947771276e7 6.722100068549708e6 0.0
0.0 0.0 0.0

-2.929325066751151e6 1.5116534386566095e7 0.0
1.5116534386566095e7 -3.437257418931595e6 0.0
0.0 0.0 0.0

-7.325366108871512e6 1.2414474031871703e7 0.0
1.2414474031871703e7 1.3727940101635417e7 0.0
0.0 0.0 0.0

3.7907721318338313e6 1.360650074170984e7 0.0
1.360650074170984e7 -6.757944942441699e6 0.0
0.0 0.0 0.0

-5.974371485869331e6 1.3752997632875303e7 0.0
1.3752997632875303e7 6.748345889534567e6 0.0
0.0 0.0 0.0

-1.2928175513099113e6 1.0831229568196725e7 0.0
1.0831229568196725e7 -4.802424300786459e6 0.0
0.0 0.0 0.0

-347264.2056661784 7.556084606255604e6 0.0
7.556084606255604e6 3.053950087721278e6 0.0
0.0 0.0 0.0

686175.3215358492 1.3095140180641744e7 0.0
1.3095140180641744e7 -5.96118404839914e6 0.0
0.0 0.0 0.0

-7.701423373600036e6 1.1101149519234072e7 0.0
1.1101149519234072e7 9.395607638072701e6 0.0
0.0 0.0 0.0

-1.1952255389451278e7 1.2544399680336385e6 0.0
1.2544399680336385e6 3.3151607606184293e7 0.0
0.0 0.0 0.0

-1.1788289794675026e7 -3.7726944600935075e6 0.0
-3.7726944600935075e6 3.520997643635477e7 0.0
0.0 0.0 0.0

-1.989919142797633e6 1.1715560170139689e7 0.0
1.1715560170139689e7 -3.9937913150235545e6 0.0
0.0 0.0 0.0

395627.0813986026 1.2622035372901065e7 0.0
1.2622035372901065e7 -7.231107597727242e6 0.0
0.0 0.0 0.0

-1.7495713133808093e6 1.3051039040617794e7 0.0
1.3051039040617794e7 -5.788423511772972e6 0.0
0.0 0.0 0.0

-3.9084846208852027e6 1.3694208355533164e7 0.0
1.3694208355533164e7 186171.38650466665 0.0
0.0 0.0 0.0

4.514043662861433e6 1.0810137497567704e7 0.0
1.0810137497567704e7 1.3565210053482626e6 0.0
0.0 0.0 0.0

-6.881979637208497e6 1.1723898638311476e7 0.0
1.1723898638311476e7 8.527360455389852e6 0.0
0.0 0.0 0.0

-1.3580890533811562e6 1.307743993586264e7 0.0
1.307743993586264e7 -6.196354545787143e6 0.0
0.0 0.0 0.0

-1.2406485574476258e6 1.033506882430837e7 0.0
1.033506882430837e7 -4.3749800543316575e6 0.0
0.0 0.0 0.0

-2.3030482730166344e6 1.5682552609465967e6 0.0
1.5682552609465967e6 3.081496034628167e6 0.0
0.0 0.0 0.0

2.114804357109773e6 1.0005914022034988e7 0.0
1.0005914022034988e7 -1.3086098911729861e7 0.0
0.0 0.0 0.0

-9.131696885771904e6 -2.435054919582921e6 0.0
-2.435054919582921e6 1.22738328469796e7 0.0
0.0 0.0 0.0

-1.997239081080812e6 -1.324745351866428e6 0.0
-1.324745351866428e6 4.221301767838334e6 0.0
0.0 0.0 0.0

-2.6442820459931046e6 -583367.2106604306 0.0
-583367.2106604306 4.276687898286641e6 0.0
0.0 0.0 0.0

-1.9954546583242388e6 7.931830514037834e6 0.0
7.931830514037834e6 -442449.00230135536 0.0
0.0 0.0 0.0

94830.28652196378 1.064733518660905e7 0.0
1.064733518660905e7 -7.858110316573638e6 0.0
0.0 0.0 0.0

2.5449565287913205e6 9.86621606809288e6 0.0
9.86621606809288e6 -1.2866858561683945e7 0.0
0.0 0.0 0.0

-432204.50586190075 1.2759922835455762e7 0.0
1.2759922835455762e7 -1.7457537852780533e6 0.0
0.0 0.0 0.0

-947648.0204382758 1.3627484442454398e7 0.0
1.3627484442454398e7 -5.553835437895804e6 0.0
0.0 0.0 0.0

2.5526759708368285e6 1.1490642696971707e7 0.0
1.1490642696971707e7 -3.7543250199868474e6 0.0
0.0 0.0 0.0

-4.1922201522604553e6 1.3937559896630185e7 0.0
1.3937559896630185e7 695042.7542693182 0.0
0.0 0.0 0.0

1.5074243387504905e7 1.3927522613802176e7 0.0
1.3927522613802176e7 603093.7841256903 0.0
0.0 0.0 0.0

-2.4913301571133183e6 9.27565216548202e6 0.0
9.27565216548202e6 9.370083793463498e6 0.0
0.0 0.0 0.0

1.7212082218060277e6 1.2482985335626833e7 0.0
1.2482985335626833e7 -5.442119783158164e6 0.0
0.0 0.0 0.0

-2.227432305054333e6 1.5522550869286703e7 0.0
1.5522550869286703e7 -2.8360588426183746e6 0.0
0.0 0.0 0.0

-5.819698526958254e6 1.549189935665848e7 0.0
1.549189935665848e7 3.573133741288181e6 0.0
0.0 0.0 0.0

459695.6429017382 1.1710127464091444e7 0.0
1.1710127464091444e7 -8.470404707128974e6 0.0
0.0 0.0 0.0

-6.618404788241906e6 1.3321556634471187e7 0.0
1.3321556634471187e7 3.0867710324148918e6 0.0
0.0 0.0 0.0

-6.394716724002149e6 1.491170364871588e7 0.0
1.491170364871588e7 6.227556765409309e6 0.0
0.0 0.0 0.0

3.9781408217632254e6 5.109156723250899e6 0.0
5.109156723250899e6 -9.614774003236957e6 0.0
0.0 0.0 0.0

-5.282771989983762e6 1.4393475743437298e7 0.0
1.4393475743437298e7 1.8196701667272553e6 0.0
0.0 0.0 0.0

-1.3497579072081618e7 2.0836266628090236e7 0.0
2.0836266628090236e7 9.692959976130433e6 0.0
0.0 0.0 0.0

-572106.5271421566 7.732483844819343e6 0.0
7.732483844819343e6 -5.020163734149574e6 0.0
0.0 0.0 0.0

2.023144379920532e6 9.65755949788344e6 0.0
9.65755949788344e6 -1.0353956211823637e7 0.0
0.0 0.0 0.0

2.53070224764633e6 9.63989063964247e6 0.0
9.63989063964247e6 -1.2332178619692745e7 0.0
0.0 0.0 0.0

2.10099930905044e6 1.02788207740565e7 0.0
1.02788207740565e7 -1.2845936038274484e7 0.0
0.0 0.0 0.0

-4.671832387723864e6 2.011030816348458e7 0.0
2.011030816348458e7 -446160.59918325767 0.0
0.0 0.0 0.0

-953726.1387403617 1.3004126086604018e7 0.0
1.3004126086604018e7 -6.621723855891408e6 0.0
0.0 0.0 0.0

-675599.011380279 1.3786450958898302e7 0.0
1.3786450958898302e7 7.494828807505953e6 0.0
0.0 0.0 0.0

-1.657633487618029e7 6.317850384379341e6 0.0
6.317850384379341e6 8.907610917318502e6 0.0
0.0 0.0 0.0

-2.88437780098673e7 1.9048001690433726e7 0.0
1.9048001690433726e7 6.384129056181742e6 0.0
0.0 0.0 0.0

5.4770573480063975e6 7.088988692703274e6 0.0
7.088988692703274e6 -1.8312337737462573e7 0.0
0.0 0.0 0.0

1.1472198698336827e6 1.2906415264933713e7 0.0
1.2906415264933713e7 -5.82558395436841e6 0.0
0.0 0.0 0.0

-2.0283755704465765e6 1.4811863516205246e7 0.0
1.4811863516205246e7 -4.1961372360976e6 0.0
0.0 0.0 0.0

3.7214330201902837e6 4.755909640955091e6 0.0
4.755909640955091e6 -9.227037902801564e6 0.0
0.0 0.0 0.0

-5.153721662172666e6 1.3808370884837434e7 0.0
1.3808370884837434e7 407501.84924240946 0.0
0.0 0.0 0.0

-4.1616752221991266e6 1.2413730207471993e7 0.0
1.2413730207471993e7 6.440343730686046e6 0.0
0.0 0.0 0.0

-3.9557331058158507e6 1.1272682332876218e7 0.0
1.1272682332876218e7 1.0989342285587048e7 0.0
0.0 0.0 0.0

-754062.526183767 1.8746442910692135e6 0.0
1.8746442910692135e6 1.0331773609399091e6 0.0
0.0 0.0 0.0

1.2619640512145208e6 1.0919101346776875e7 0.0
1.0919101346776875e7 -9.907262059512671e6 0.0
0.0 0.0 0.0

1.7731081206721426e6 7.842960143158314e6 0.0
7.842960143158314e6 -8.82480501833038e6 0.0
0.0 0.0 0.0

709856.1448650514 6.839663276048237e6 0.0
6.839663276048237e6 -4.0556713578291098e6 0.0
0.0 0.0 0.0

-852716.6242797964 2.1253566504020435e6 0.0
2.1253566504020435e6 489470.92519074556 0.0
0.0 0.0 0.0

-6.006007374126859e6 1.3467098147549428e7 0.0
1.3467098147549428e7 3.8308230202351734e7 0.0
0.0 0.0 0.0

-1.1748602701638317e7 -1.3185216293880735e6 0.0
-1.3185216293880735e6 1.907915983114276e7 0.0
0.0 0.0 0.0

-5.397977438118553e6 1.6542956238264117e7 0.0
1.6542956238264117e7 2.0292578163376006e6 0.0
0.0 0.0 0.0

-3.2331566577236555e6 1.115313327597992e7 0.0
1.115313327597992e7 238778.23679176345 0.0
0.0 0.0 0.0

710855.3727794881 1.0151119310614709e7 0.0
1.0151119310614709e7 -7.718778637923485e6 0.0
0.0 0.0 0.0

-2.0462121679573874e6 1.4400331839796042e7 0.0
1.4400331839796042e7 -3.691729559007268e6 0.0
0.0 0.0 0.0

-6.677798604057996e6 1.4170162957493633e7 0.0
1.4170162957493633e7 6.016185592912324e6 0.0
0.0 0.0 0.0

-8.018310113745721e6 2.2351724228991263e7 0.0
2.2351724228991263e7 3.6815075462383856e6 0.0
0.0 0.0 0.0

1.7394463883435386e6 5.007425568891539e6 0.0
5.007425568891539e6 -6.232825221448064e6 0.0
0.0 0.0 0.0

-3.320363483030466e6 1.1228831935104153e6 0.0
1.1228831935104153e6 2.615762363657195e6 0.0
0.0 0.0 0.0

-446151.72637217457 1.2126571278977906e7 0.0
1.2126571278977906e7 -669062.6523577105 0.0
0.0 0.0 0.0

-6.749517036011567e6 1.483543718121621e7 0.0
1.483543718121621e7 5.98975259020392e6 0.0
0.0 0.0 0.0

-5.342671982688317e6 1.2440176572036553e7 0.0
1.2440176572036553e7 8.029380354526889e6 0.0
0.0 0.0 0.0

-9.553706770160202e6 5.276081863250925e6 0.0
5.276081863250925e6 1.3019629876956489e7 0.0
0.0 0.0 0.0

1.6773009957983373e6 1.018865915625472e7 0.0
1.018865915625472e7 -1.0068545734935824e7 0.0
0.0 0.0 0.0

-8.302315424818054e7 1.3391285264478322e7 0.0
1.3391285264478322e7 4.964166526628807e6 0.0
0.0 0.0 0.0

-1.0498333657594888e7 4.1601007039504345e6 0.0
4.1601007039504345e6 1.3732617109024279e7 0.0
0.0 0.0 0.0

-6.630159797533161e6 1.4973546757981226e7 0.0
1.4973546757981226e7 6.072200377084158e6 0.0
0.0 0.0 0.0

787914.215649819 1.1541296120390823e7 0.0
1.1541296120390823e7 -9.005474875367012e6 0.0
0.0 0.0 0.0

1.457521294773914e6 1.0603211920499515e7 0.0
1.0603211920499515e7 -1.2655858249781562e7 0.0
0.0 0.0 0.0

-8.021561279706279e6 2.1247872811692055e7 0.0
2.1247872811692055e7 4.397001146511476e6 0.0
0.0 0.0 0.0

1.129701301547503e6 1.0844959387243664e7 0.0
1.0844959387243664e7 -1.195924849482716e7 0.0
0.0 0.0 0.0

-447616.88352302276 1.280926615936866e7 0.0
1.280926615936866e7 -6.880437133867758e6 0.0
0.0 0.0 0.0

-350781.4634963733 1.2155539207028124e7 0.0
1.2155539207028124e7 -171090.9420485943 0.0
0.0 0.0 0.0

-7.093463907932974e6 1.802308104684674e7 0.0
1.802308104684674e7 4.94670951943369e6 0.0
0.0 0.0 0.0

-6.838877444542929e6 1.4553386451521406e7 0.0
1.4553386451521406e7 5.669805722743364e6 0.0
0.0 0.0 0.0

1.3228786450096094e6 1.0684213500483455e7 0.0
1.0684213500483455e7 -9.691805091265842e6 0.0
0.0 0.0 0.0

-1.4978468217662442e6 1.2483538363470055e7 0.0
1.2483538363470055e7 -5.216766223673422e6 0.0
0.0 0.0 0.0

-5.957514382880116e6 1.3859575103752827e7 0.0
1.3859575103752827e7 3.583651453453179e6 0.0
0.0 0.0 0.0

-6.528103086153895e6 1.5015261295090366e7 0.0
1.5015261295090366e7 6.1292638962510405e6 0.0
0.0 0.0 0.0

-5.082527356531369e6 -5.847504654223255e6 0.0
-5.847504654223255e6 1.0523575584329735e7 0.0
0.0 0.0 0.0

-7.686454521297531e6 1.0407542323051788e7 0.0
1.0407542323051788e7 9.36902933352486e6 0.0
0.0 0.0 0.0

871438.4507612851 1.0995102763192859e7 0.0
1.0995102763192859e7 -1.1269691950318288e7 0.0
0.0 0.0 0.0

6.287547692366351e6 1.1138447660039125e7 0.0
1.1138447660039125e7 -4.047973577746555e6 0.0
0.0 0.0 0.0

1.197499140642859e6 1.1088103710756114e7 0.0
1.1088103710756114e7 -1.0103294616152473e7 0.0
0.0 0.0 0.0

954028.2981479776 1.0149947210784309e7 0.0
1.0149947210784309e7 -4.442116670198431e6 0.0
0.0 0.0 0.0

-1.1177853280115359e7 2.805791885521187e6 0.0
2.805791885521187e6 1.5726433585344251e7 0.0
0.0 0.0 0.0

-5.200795485695659e6 1.2726008945746917e7 0.0
1.2726008945746917e7 819138.4792688808 0.0
0.0 0.0 0.0

902174.7020047815 9.455977448297024e6 0.0
9.455977448297024e6 -5.627524690543267e6 0.0
0.0 0.0 0.0

871723.8093380448 1.211165488073664e7 0.0
1.211165488073664e7 -7.753111941470158e6 0.0
0.0 0.0 0.0

-1.752222195214586e7 2.153920013287679e7 0.0
2.153920013287679e7 1.1195525234083667e7 0.0
0.0 0.0 0.0

-2.80148821361004e7 5.13946634036487e6 0.0
5.13946634036487e6 1.0565403693986943e7 0.0
0.0 0.0 0.0

-6.133404029120603e6 1.715294363954222e7 0.0
1.715294363954222e7 1.5579197370701954e6 0.0
0.0 0.0 0.0

-1.513901799787286e7 2.1267503587761126e7 0.0
2.1267503587761126e7 1.06757831097371e7 0.0
0.0 0.0 0.0

-1.7146864027376974e6 2.763239621721107e7 0.0
2.763239621721107e7 -857142.7447859787 0.0
0.0 0.0 0.0

1.6381565815018192e6 1.0455427300146097e7 0.0
1.0455427300146097e7 -1.2391497153548313e7 0.0
0.0 0.0 0.0

-2.4297472271135673e6 1.1297747670217177e7 0.0
1.1297747670217177e7 -1.101624540983914e7 0.0
0.0 0.0 0.0

-5.986708547085876e6 1.426882835060723e7 0.0
1.426882835060723e7 6.209968221400938e6 0.0
0.0 0.0 0.0

-1.1675902850506842e7 4.45806456375984e6 0.0
4.45806456375984e6 1.335378275047139e7 0.0
0.0 0.0 0.0

-6.003571485253115e6 1.3396632565657027e7 0.0
1.3396632565657027e7 2.516948923121773e6 0.0
0.0 0.0 0.0

-1.4985258163838428e6 9.584546561073633e6 0.0
9.584546561073633e6 2.284501715208368e6 0.0
0.0 0.0 0.0

-1.3775382240695923e6 1.1056966025383757e7 0.0
1.1056966025383757e7 -3.6154649495448163e6 0.0
0.0 0.0 0.0

-8.100985695988998e6 2.3453149018403254e7 0.0
2.3453149018403254e7 2.5822866835084036e6 0.0
0.0 0.0 0.0

-2.286964595777507e6 1.4162968745684087e7 0.0
1.4162968745684087e7 -4.536515851933205e6 0.0
0.0 0.0 0.0

1.6834513854457778e6 1.1488841899156995e7 0.0
1.1488841899156995e7 -5.087138753841935e6 0.0
0.0 0.0 0.0

5.01620642712142e6 5.084315160155303e6 0.0
5.084315160155303e6 -1.3542763601375595e7 0.0
0.0 0.0 0.0

-6.609254812537191e6 1.4316209413530715e7 0.0
1.4316209413530715e7 6.286052086864875e6 0.0
0.0 0.0 0.0

-3.8362933430755297e6 1.080031535932774e7 0.0
1.080031535932774e7 1.551891894610722e6 0.0
0.0 0.0 0.0

939948.0454881154 8.65196295631199e6 0.0
8.65196295631199e6 -6.234751070697467e6 0.0
0.0 0.0 0.0

1.600667487847614e6 1.0617711834123021e7 0.0
1.0617711834123021e7 -1.2684130402310602e7 0.0
0.0 0.0 0.0

-4.251913511347635e6 1.2519566930791272e7 0.0
1.2519566930791272e7 6.147719002607502e6 0.0
0.0 0.0 0.0

-6.930866384233404e6 1.2138763940796651e7 0.0
1.2138763940796651e7 9.818193192048006e6 0.0
0.0 0.0 0.0

-766810.0833092742 1.1445920019922059e7 0.0
1.1445920019922059e7 -2.546580340831295e6 0.0
0.0 0.0 0.0

-1.25293387128209e6 1.516978880333107e7 0.0
1.516978880333107e7 -3.8602985731306286e6 0.0
0.0 0.0 0.0

-6.545999239473104e6 1.39497024670258e7 0.0
1.39497024670258e7 6.739287897671362e6 0.0
0.0 0.0 0.0

-1.130505253492095e7 -3.1809146128078285e6 0.0
-3.1809146128078285e6 2.6607676108603064e7 0.0
0.0 0.0 0.0

-2.0623811507772587e6 8.19982975055926e6 0.0
8.19982975055926e6 -488121.5711288877 0.0
0.0 0.0 0.0

-215636.53391716594 1.1964767181461578e7 0.0
1.1964767181461578e7 -2.6304212010621135e6 0.0
0.0 0.0 0.0

-6.409545301791741e6 1.462922787298208e7 0.0
1.462922787298208e7 6.202612908436745e6 0.0
0.0 0.0 0.0

-7.018069349893419e6 1.2094452232819589e7 0.0
1.2094452232819589e7 7.887132081839674e6 0.0
0.0 0.0 0.0

1.6414308487997698e6 9.01229081654554e6 0.0
9.01229081654554e6 -8.340704633644098e6 0.0
0.0 0.0 0.0

-5.981866940236104e6 1.5094432452335645e7 0.0
1.5094432452335645e7 4.269526798117416e6 0.0
0.0 0.0 0.0

-7.356443895532267e6 1.882746887927145e7 0.0
1.882746887927145e7 4.953623969957214e6 0.0
0.0 0.0 0.0

-5.130162023127807e6 1.231126139958216e7 0.0
1.231126139958216e7 3.3283856915862537e6 0.0
0.0 0.0 0.0

1.4349290612363191e6 1.0134820277264433e7 0.0
1.0134820277264433e7 -9.298760501706477e6 0.0
0.0 0.0 0.0

-6.034482571597147e6 1.5254365835569572e7 0.0
1.5254365835569572e7 3.197013585996466e6 0.0
0.0 0.0 0.0

-3.217777065570822e6 1.487947910544458e7 0.0
1.487947910544458e7 -3.2378504310535355e6 0.0
0.0 0.0 0.0

-4.681702973369524e6 1.3212338444504019e7 0.0
1.3212338444504019e7 8.833634038938181e6 0.0
0.0 0.0 0.0

-5.277960201804961e6 1.200058556931892e7 0.0
1.200058556931892e7 3.778005282433538e6 0.0
0.0 0.0 0.0

-6.7913598840646725e6 1.5039519265912665e7 0.0
1.5039519265912665e7 6.042002202433854e6 0.0
0.0 0.0 0.0

-1.0062114928077474e7 -4.772583012196055e6 0.0
-4.772583012196055e6 1.7711135366259698e7 0.0
0.0 0.0 0.0

-7.160776691530057e6 1.8381295639992192e7 0.0
1.8381295639992192e7 5.019528579803186e6 0.0
0.0 0.0 0.0

4.908529766718257e6 5.141580392978309e6 0.0
5.141580392978309e6 -1.3269175168737203e7 0.0
0.0 0.0 0.0

-4.972481374332173e6 1.447969542035565e7 0.0
1.447969542035565e7 604614.0412526475 0.0
0.0 0.0 0.0

-7.6428611163054295e6 -5.65565822081677e6 0.0
-5.65565822081677e6 1.3620859553693274e7 0.0
0.0 0.0 0.0

510318.66801645746 8.790893622632483e6 0.0
8.790893622632483e6 -4.669537953772643e6 0.0
0.0 0.0 0.0

-5.518789550467103e6 1.3969374297405297e7 0.0
1.3969374297405297e7 3.892103324113064e6 0.0
0.0 0.0 0.0

-740459.6397932996 1.3095702825492209e7 0.0
1.3095702825492209e7 -1.4170087505129424e6 0.0
0.0 0.0 0.0

-1.1762054527297989e6 1.329285310518894e7 0.0
1.329285310518894e7 -1.20378692467012e6 0.0
0.0 0.0 0.0

752048.9387764875 1.1507800027853832e7 0.0
1.1507800027853832e7 -9.480335622961445e6 0.0
0.0 0.0 0.0

-1.179964005300117e7 5.486016744169011e6 0.0
5.486016744169011e6 1.3637086676152384e7 0.0
0.0 0.0 0.0

-2.455395418740048e6 1.0060740497270847e7 0.0
1.0060740497270847e7 4.06906813925328e6 0.0
0.0 0.0 0.0

3.2291499098861725e6 7.322384103323077e6 0.0
7.322384103323077e6 -1.0787932203642845e7 0.0
0.0 0.0 0.0

-2.2766070904049166e6 1.3595873477610214e7 0.0
1.3595873477610214e7 7.300008563661217e6 0.0
0.0 0.0 0.0

-1.1047948467956576e6 1.3493120935023323e7 0.0
1.3493120935023323e7 -1.7706058258298624e7 0.0
0.0 0.0 0.0

-6.588745383365888e6 1.1023329471459158e7 0.0
1.1023329471459158e7 7.102174900137592e6 0.0
0.0 0.0 0.0

-6.315607095133547e6 1.5319971997231716e7 0.0
1.5319971997231716e7 3.97799370162366e6 0.0
0.0 0.0 0.0

-4.66539378752863e6 1.1920159869594526e7 0.0
1.1920159869594526e7 1.6456292371691e6 0.0
0.0 0.0 0.0

-1.687531446297902e6 1.3138635392860867e7 0.0
1.3138635392860867e7 -4.4803794590242235e6 0.0
0.0 0.0 0.0

540693.7045013674 1.2571912616137475e7 0.0
1.2571912616137475e7 -5.9860614602260385e6 0.0
0.0 0.0 0.0

-6.39257912017175e6 1.444701256285143e7 0.0
1.444701256285143e7 6.385338216406435e6 0.0
0.0 0.0 0.0

-4.954625459182695e6 1.2531015999428265e7 0.0
1.2531015999428265e7 6.8604576174185155e6 0.0
0.0 0.0 0.0

-7.241920666473261e6 1.2017962791715194e7 0.0
1.2017962791715194e7 9.632766524259241e6 0.0
0.0 0.0 0.0

-385238.8067951761 1.0634754605566256e7 0.0
1.0634754605566256e7 -9.40441678297454e6 0.0
0.0 0.0 0.0

394643.5445084432 1.0443306118879382e7 0.0
1.0443306118879382e7 -8.332907823861515e6 0.0
0.0 0.0 0.0

-3.5783532760561802e6 1.2497271838592436e7 0.0
1.2497271838592436e7 5.328240256272297e6 0.0
0.0 0.0 0.0

3.635434247488552e6 8.543481308950689e6 0.0
8.543481308950689e6 -1.4554422332534462e7 0.0
0.0 0.0 0.0

-1.610378275108207e6 1.2645157340393782e7 0.0
1.2645157340393782e7 -2.621983833472355e6 0.0
0.0 0.0 0.0

-7.579132509623843e6 1.9390328753685936e7 0.0
1.9390328753685936e7 5.0354524904165715e6 0.0
0.0 0.0 0.0

-2.4290461539360685e6 1.3039768861841526e7 0.0
1.3039768861841526e7 5.458224840385032e6 0.0
0.0 0.0 0.0

9.324152008914676e6 1.742949166010435e7 0.0
1.742949166010435e7 3.1080486979973193e7 0.0
0.0 0.0 0.0

-5.799190610374811e6 1.510517448087355e7 0.0
1.510517448087355e7 -1.9330623731071193e7 0.0
0.0 0.0 0.0

-4.0855994369476023e6 1.0696033904052718e7 0.0
1.0696033904052718e7 736748.8903892031 0.0
0.0 0.0 0.0

-1.915233663907277e7 1.4503907470965603e7 0.0
1.4503907470965603e7 1.2994594557283819e7 0.0
0.0 0.0 0.0

-4.417180586686352e6 1.344164658848293e7 0.0
1.344164658848293e7 197698.34162114142 0.0
0.0 0.0 0.0

-2.903277021187002e6 1.267941396301232e7 0.0
1.267941396301232e7 4.188696123156095e6 0.0
0.0 0.0 0.0

-3.380709185498787e6 1.3301767708062803e7 0.0
1.3301767708062803e7 6.820303662347994e6 0.0
0.0 0.0 0.0

-1.057999323348254e6 1.4707369780308157e7 0.0
1.4707369780308157e7 1.4419843515933802e7 0.0
0.0 0.0 0.0

1.0254681915138062e6 1.082588326521166e7 0.0
1.082588326521166e7 3.128791100474176e6 0.0
0.0 0.0 0.0

408377.11067110486 1.2609998977239836e7 0.0
1.2609998977239836e7 4.913156777817278e6 0.0
0.0 0.0 0.0

-2.500529203084795e6 1.5271593786488922e7 0.0
1.5271593786488922e7 -3.7132903491053414e6 0.0
0.0 0.0 0.0

-2.13734890394457e6 1.2383507467166336e7 0.0
1.2383507467166336e7 3.76103188123991e6 0.0
0.0 0.0 0.0

-3.5604446602953533e6 1.2211628870884405e7 0.0
1.2211628870884405e7 5.4913317226997875e6 0.0
0.0 0.0 0.0

-5.883639748711595e6 1.769601931424038e7 0.0
1.769601931424038e7 2.908602760667082e6 0.0
0.0 0.0 0.0

-2.4254697585255983e6 1.1231723745596757e7 0.0
1.1231723745596757e7 5.506802460628988e6 0.0
0.0 0.0 0.0

4.254246163219092e6 5.535881766880087e6 0.0
5.535881766880087e6 -1.126907011617667e7 0.0
0.0 0.0 0.0

-7.902273621106254e6 7.918328492994345e6 0.0
7.918328492994345e6 8.480762939659836e6 0.0
0.0 0.0 0.0

-4.536086780208373e6 -6.745089075724669e6 0.0
-6.745089075724669e6 1.064253969488402e7 0.0
0.0 0.0 0.0

-5.984237461407652e6 1.2057107526028693e7 0.0
1.2057107526028693e7 7.895621315216621e6 0.0
0.0 0.0 0.0

-5.67474758375378e6 1.5849700177092524e7 0.0
1.5849700177092524e7 3.095173925630161e6 0.0
0.0 0.0 0.0

775484.1718745194 1.4543848406805733e7 0.0
1.4543848406805733e7 6.930432887275505e6 0.0
0.0 0.0 0.0

-750819.522902617 1.2596896869912071e7 0.0
1.2596896869912071e7 3.9268081024708645e6 0.0
0.0 0.0 0.0

-6.620347263447195e6 1.494047080760792e7 0.0
1.494047080760792e7 6.214266864398718e6 0.0
0.0 0.0 0.0

2.6019714306628816e6 4.746367527567725e6 0.0
4.746367527567725e6 -7.482726976857452e6 0.0
0.0 0.0 0.0

-5.242110566269273e6 1.4690924904162368e7 0.0
1.4690924904162368e7 1.3151991726352074e6 0.0
0.0 0.0 0.0

2.2499089478186113e6 8.145137547745629e6 0.0
8.145137547745629e6 -8.883022039776122e6 0.0
0.0 0.0 0.0

-6.817828352667866e6 1.4578245818693792e7 0.0
1.4578245818693792e7 5.6003047042762125e6 0.0
0.0 0.0 0.0

-3.5761092464630743e6 1.6237660756327065e7 0.0
1.6237660756327065e7 -2.5031034796238383e6 0.0
0.0 0.0 0.0

-4.355021651335478e6 1.3215612513394352e7 0.0
1.3215612513394352e7 981145.3255927383 0.0
0.0 0.0 0.0

6.089309343694064e6 5.236694775185543e6 0.0
5.236694775185543e6 -1.7563626668467388e7 0.0
0.0 0.0 0.0

2.4739242208671235e6 1.1153821605938364e7 0.0
1.1153821605938364e7 -2.172790639722191e6 0.0
0.0 0.0 0.0

-4.742667827441783e6 1.5537184725201376e7 0.0
1.5537184725201376e7 1.0649230919773593e6 0.0
0.0 0.0 0.0

-3.2536134342384003e6 1.4015400586990695e7 0.0
1.4015400586990695e7 -1.7646752855371046e6 0.0
0.0 0.0 0.0

599053.4416655954 1.0760748906028986e7 0.0
1.0760748906028986e7 -8.082258331608944e6 0.0
0.0 0.0 0.0

3.578851526719442e6 5.935533318393001e6 0.0
5.935533318393001e6 -1.071872162098766e7 0.0
0.0 0.0 0.0

-6.039621526062903e6 1.2591830372573283e7 0.0
1.2591830372573283e7 4.1229274352953145e6 0.0
0.0 0.0 0.0

2.3070467829758357e6 9.674530018413387e6 0.0
9.674530018413387e6 -1.3069679740264218e7 0.0
0.0 0.0 0.0

-7.415306552653464e6 -8.699825812792914e6 0.0
-8.699825812792914e6 1.2636427265754383e7 0.0
0.0 0.0 0.0

-7.455445629276979e6 1.0771797276028214e7 0.0
1.0771797276028214e7 8.806084867980342e6 0.0
0.0 0.0 0.0

-8.419555380773926e6 1.354082293262541e7 0.0
1.354082293262541e7 4.1552462997465045e6 0.0
0.0 0.0 0.0

6.3256413842398655e6 7.322145649564226e6 0.0
7.322145649564226e6 -2.4249265750215113e7 0.0
0.0 0.0 0.0

-1.0490414458596842e7 9.823881498336546e6 0.0
9.823881498336546e6 1.5389997227549026e7 0.0
0.0 0.0 0.0

-3.927087455261302e6 1.280640224650282e7 0.0
1.280640224650282e7 6.982101037574038e6 0.0
0.0 0.0 0.0

-7.579901565046733e6 1.21250245872252e7 0.0
1.21250245872252e7 1.1447946742957622e7 0.0
0.0 0.0 0.0

-3.6567148911882564e6 1.1336013133738665e7 0.0
1.1336013133738665e7 796102.133270757 0.0
0.0 0.0 0.0

-7.227684905937467e6 1.0612249349349182e7 0.0
1.0612249349349182e7 6.45423125828394e6 0.0
0.0 0.0 0.0

706295.6644769218 1.0500158795173813e7 0.0
1.0500158795173813e7 -7.209331303650376e6 0.0
0.0 0.0 0.0

693325.5808621165 1.0222646390837725e7 0.0
1.0222646390837725e7 -8.820087710783705e6 0.0
0.0 0.0 0.0

4.145109743470545e6 8.475274170472158e6 0.0
8.475274170472158e6 -1.6669524219830176e7 0.0
0.0 0.0 0.0

-5.501217669760688e6 -7.422464886435554e6 0.0
-7.422464886435554e6 1.2146836006337386e7 0.0
0.0 0.0 0.0

-7.307319133269976e6 -8.901257145361088e6 0.0
-8.901257145361088e6 1.825081869539935e7 0.0
0.0 0.0 0.0

-3.9782642241609385e6 1.3621715906981017e7 0.0
1.3621715906981017e7 1.8489597177090768e6 0.0
0.0 0.0 0.0

-1.4909393885205907e6 1.3227836386318563e7 0.0
1.3227836386318563e7 -4.971953830725576e6 0.0
0.0 0.0 0.0

-6.552367656962355e6 1.2785174992688408e7 0.0
1.2785174992688408e7 1.4259029072050937e7 0.0
0.0 0.0 0.0

747454.7685585243 1.021523305316937e7 0.0
1.021523305316937e7 -6.124240819045571e6 0.0
0.0 0.0 0.0

-1.4068525005161487e6 1.4788670411903763e7 0.0
1.4788670411903763e7 -4.415429336769687e6 0.0
0.0 0.0 0.0

-6.624634863229647e6 1.3535693866472507e7 0.0
1.3535693866472507e7 5.377520277528807e6 0.0
0.0 0.0 0.0

-2.743242736746503e6 815420.7906116535 0.0
815420.7906116535 4.323671927787131e6 0.0
0.0 0.0 0.0

-6.175443617198015e6 2.498200072622275e7 0.0
2.498200072622275e7 860683.6004376821 0.0
0.0 0.0 0.0

845088.2467772197 1.1716993587072667e7 0.0
1.1716993587072667e7 -6.773714026172803e6 0.0
0.0 0.0 0.0

12618.32514911145 1.197839592824346e7 0.0
1.197839592824346e7 -1.634842921512741e7 0.0
0.0 0.0 0.0

4.775996113124971e6 5.506877219389282e6 0.0
5.506877219389282e6 -1.2602729830587342e7 0.0
0.0 0.0 0.0

-303251.2698218117 1.2206998754839297e7 0.0
1.2206998754839297e7 -2.42565350044652e6 0.0
0.0 0.0 0.0

-7.88549490399692e6 1.0051372596887607e7 0.0
1.0051372596887607e7 9.870501738367647e6 0.0
0.0 0.0 0.0

-1.630092051780177e7 6.031033007698363e6 0.0
6.031033007698363e6 1.006876617080748e7 0.0
0.0 0.0 0.0

-1.9407439442643942e6 1.3879066405933464e7 0.0
1.3879066405933464e7 -782340.1635462488 0.0
0.0 0.0 0.0

-36185.89901619265 1.2383182047302471e7 0.0
1.2383182047302471e7 3.8598348257251955e6 0.0
0.0 0.0 0.0

280922.3820792022 1.0576309528372189e7 0.0
1.0576309528372189e7 -8.37287932475342e6 0.0
0.0 0.0 0.0

-3.0328808336176085e6 1.6258375001876804e6 0.0
1.6258375001876804e6 4.3673010079653375e6 0.0
0.0 0.0 0.0

-2.2469480843881406e6 1.1846461869915562e7 0.0
1.1846461869915562e7 -3.349418892957208e6 0.0
0.0 0.0 0.0

-796281.642802123 1.2431260687877448e7 0.0
1.2431260687877448e7 -2242.701263228111 0.0
0.0 0.0 0.0

-2.3473291413844167e6 1.2554706770499455e7 0.0
1.2554706770499455e7 4.1318654457362415e6 0.0
0.0 0.0 0.0

-614171.4947119947 1.147803486321806e7 0.0
1.147803486321806e7 -7.196164714726604e6 0.0
0.0 0.0 0.0

-5.346716824909965e6 1.2668719552247113e7 0.0
1.2668719552247113e7 8.339261898272488e6 0.0
0.0 0.0 0.0

755050.6813335277 9.152121448256072e6 0.0
9.152121448256072e6 -2.4450150273849145e6 0.0
0.0 0.0 0.0

-1.1401968786852695e6 1.3248352167687966e7 0.0
1.3248352167687966e7 -5.478315401776916e6 0.0
0.0 0.0 0.0

2.3474853332655327e6 1.132121755847244e7 0.0
1.132121755847244e7 -4.1302762080577565e6 0.0
0.0 0.0 0.0

2.0649471572878188e6 9.372066526095675e6 0.0
9.372066526095675e6 -1.1721556483535293e7 0.0
0.0 0.0 0.0

-6.6090860578536e6 1.2096580480390886e7 0.0
1.2096580480390886e7 8.160649590130908e6 0.0
0.0 0.0 0.0

-1.0640693673015963e6 1.020023144534273e7 0.0
1.020023144534273e7 -3.4008605747226756e6 0.0
0.0 0.0 0.0

-2.6552503396660633e7 1.4873922960473722e7 0.0
1.4873922960473722e7 1.0932624071599357e7 0.0
0.0 0.0 0.0

-5.230126439488486e6 1.3676276493310612e7 0.0
1.3676276493310612e7 1.849346218478164e7 0.0
0.0 0.0 0.0

5.086658442104887e6 5.055767150603262e6 0.0
5.055767150603262e6 -1.3806462422170792e7 0.0
0.0 0.0 0.0

-7.201264094155958e6 -8.915905493310237e6 0.0
-8.915905493310237e6 1.7106227302976884e7 0.0
0.0 0.0 0.0

929015.3293751599 1.114618472478449e7 0.0
1.114618472478449e7 -1.5360081225882474e7 0.0
0.0 0.0 0.0

1.2128983566559008e6 1.0892194114463825e7 0.0
1.0892194114463825e7 -1.2029362626534352e7 0.0
0.0 0.0 0.0

-781794.0457674842 1.3070415935084892e7 0.0
1.3070415935084892e7 -1.4735419229780096e6 0.0
0.0 0.0 0.0

-1.0291411724169722e7 1.6047346417248318e7 0.0
1.6047346417248318e7 3.821650738456959e6 0.0
0.0 0.0 0.0

-8.838750597979452e6 1.0823235111551303e7 0.0
1.0823235111551303e7 1.0422815670769045e7 0.0
0.0 0.0 0.0

-766649.7467069859 1.3205062285651594e7 0.0
1.3205062285651594e7 -5.985493957600178e6 0.0
0.0 0.0 0.0

-1.0931256949220939e7 -6.61340742561341e6 0.0
-6.61340742561341e6 2.9272689215142876e7 0.0
0.0 0.0 0.0

-8.468248121780196e6 8.963983739766382e6 0.0
8.963983739766382e6 1.0946210654466983e7 0.0
0.0 0.0 0.0

6.738060923779932e6 6.386044061997734e6 0.0
6.386044061997734e6 -2.3282586432166662e7 0.0
0.0 0.0 0.0

-6.499106523601135e6 1.5683284656895988e7 0.0
1.5683284656895988e7 4.269307283434853e6 0.0
0.0 0.0 0.0

6.443426206270036e6 5.477631294979158e6 0.0
5.477631294979158e6 -2.0722794234214164e7 0.0
0.0 0.0 0.0

-2.187170208405943e7 2.070584336646454e7 0.0
2.070584336646454e7 1.2417303233909093e7 0.0
0.0 0.0 0.0

-1.1139428763736246e7 -5.951968774398875e6 0.0
-5.951968774398875e6 3.138211643722675e7 0.0
0.0 0.0 0.0

2.481399795668689e6 9.48601140083501e6 0.0
9.48601140083501e6 -1.1624848028817413e7 0.0
0.0 0.0 0.0

-7.31072421330076e6 1.38216024557302e7 0.0
1.38216024557302e7 4.1527565833815644e6 0.0
0.0 0.0 0.0

-2.2850346084184207e7 1.1131503304688886e7 0.0
1.1131503304688886e7 3.611582389497659e6 0.0
0.0 0.0 0.0

6.601734393993889e6 5.883044918644154e6 0.0
5.883044918644154e6 -2.2071340540715575e7 0.0
0.0 0.0 0.0

-5.596725101722274e6 1.2906058551225394e7 0.0
1.2906058551225394e7 2.958623403820845e6 0.0
0.0 0.0 0.0

-6.853594056874868e6 1.2642138809261035e7 0.0
1.2642138809261035e7 7.821275251408003e6 0.0
0.0 0.0 0.0

2.0713430011565536e6 1.1706270748260932e7 0.0
1.1706270748260932e7 6.272809699348751e6 0.0
0.0 0.0 0.0

1.1600428018073658e6 1.0947039233801512e7 0.0
1.0947039233801512e7 -1.1143852551832171e7 0.0
0.0 0.0 0.0

806204.4166991138 1.110360816266095e7 0.0
1.110360816266095e7 -1.1427854731087964e7 0.0
0.0 0.0 0.0

-3.7034384120931057e6 1.375237560299731e7 0.0
1.375237560299731e7 -2.1895750335055036e6 0.0
0.0 0.0 0.0

-6.741767841537049e6 1.5950124075008499e7 0.0
1.5950124075008499e7 4.586890996836936e6 0.0
0.0 0.0 0.0

-1.1387563237210361e7 4.307977934716448e6 0.0
4.307977934716448e6 1.5453413277590774e7 0.0
0.0 0.0 0.0

6.257748390185276e6 5.309443224409447e6 0.0
5.309443224409447e6 -1.8854820688350882e7 0.0
0.0 0.0 0.0

-1.0885951917947883e7 1.6189102041977752e7 0.0
1.6189102041977752e7 8.641322866028491e6 0.0
0.0 0.0 0.0

3.056694739471693e6 6.0363003236973295e6 0.0
6.0363003236973295e6 -9.018374931048874e6 0.0
0.0 0.0 0.0

686929.0132408193 1.1319506048254156e7 0.0
1.1319506048254156e7 -9.220395634923216e6 0.0
0.0 0.0 0.0

6.335495395738142e6 5.463214592644608e6 0.0
5.463214592644608e6 -1.945805640967489e7 0.0
0.0 0.0 0.0

648029.998339009 1.1216126595938887e7 0.0
1.1216126595938887e7 -1.0805245316028334e7 0.0
0.0 0.0 0.0

-1.2295267967353603e7 2.26103025458736e6 0.0
2.26103025458736e6 1.7051809809448987e7 0.0
0.0 0.0 0.0

623451.3954851408 5.965166196447833e6 0.0
5.965166196447833e6 -3.1354301965326024e6 0.0
0.0 0.0 0.0

-3.7548964399974165e6 9.96652227627392e6 0.0
9.96652227627392e6 512189.7500295604 0.0
0.0 0.0 0.0

-1.6278926311424207e6 1.3394058465072833e7 0.0
1.3394058465072833e7 6.004747832775532e6 0.0
0.0 0.0 0.0

5.378649479414721e6 4.974943282201951e6 0.0
4.974943282201951e6 -1.4958053393180013e7 0.0
0.0 0.0 0.0

-6.223481295531821e6 1.4180668769869532e7 0.0
1.4180668769869532e7 6.458432808111044e6 0.0
0.0 0.0 0.0

-6.673613521960518e6 -4.416098502271652e6 0.0
-4.416098502271652e6 1.1912709065055668e7 0.0
0.0 0.0 0.0

708396.7447963068 9.952955046887977e6 0.0
9.952955046887977e6 -2.82798445466574e6 0.0
0.0 0.0 0.0

1.7783184955739188e6 9.595541972500527e6 0.0
9.595541972500527e6 -1.118239344159797e7 0.0
0.0 0.0 0.0

-5.1379534428261e6 1.2210680731972605e7 0.0
1.2210680731972605e7 7.196156085637882e6 0.0
0.0 0.0 0.0

-3.7868373061202974e6 1.344905908314654e7 0.0
1.344905908314654e7 9.153879426193057e6 0.0
0.0 0.0 0.0

-598080.534619872 1.208446323658659e7 0.0
1.208446323658659e7 -2.2791892622690774e6 0.0
0.0 0.0 0.0

-3.0844016087871087e6 1.362902981902001e7 0.0
1.362902981902001e7 -2.0291838461947057e6 0.0
0.0 0.0 0.0

-6.537478858906766e6 1.3987351952462059e7 0.0
1.3987351952462059e7 4.889923260126036e6 0.0
0.0 0.0 0.0

-444057.2171631057 1.265024448761565e7 0.0
1.265024448761565e7 -2.1029351580382157e6 0.0
0.0 0.0 0.0

6.793110835966174e6 5.937860909243747e6 0.0
5.937860909243747e6 -2.2147239732221873e6 0.0
0.0 0.0 0.0

-1.0813585120392922e7 -7.082426924880198e6 0.0
-7.082426924880198e6 2.7341932890970603e7 0.0
0.0 0.0 0.0

-375476.05280641606 1.1109299641736468e7 0.0
1.1109299641736468e7 5.253236822243839e6 0.0
0.0 0.0 0.0

-7.879333575753343e6 -8.425710505078988e6 0.0
-8.425710505078988e6 1.991146649376587e7 0.0
0.0 0.0 0.0

-615835.2700670967 1.2734776496066988e7 0.0
1.2734776496066988e7 -993451.2403522062 0.0
0.0 0.0 0.0

-1.2924095742531475e7 5.3569102279809695e6 0.0
5.3569102279809695e6 1.9928396044119943e7 0.0
0.0 0.0 0.0

-3.517104764100044e6 1.003227827499736e7 0.0
1.003227827499736e7 1.2942662678569823e6 0.0
0.0 0.0 0.0

1.4158769252019378e6 5.5018240131164575e6 0.0
5.5018240131164575e6 -3.6945566686300524e6 0.0
0.0 0.0 0.0

1.0820158583029245e6 5.132082063515278e6 0.0
5.132082063515278e6 -3.3513950845601484e6 0.0
0.0 0.0 0.0

-774735.4126922181 1.3002673682746278e7 0.0
1.3002673682746278e7 -6.099815064178681e6 0.0
0.0 0.0 0.0

-2.978173682354739e6 1.3411895099184252e7 0.0
1.3411895099184252e7 -342598.12367985805 0.0
0.0 0.0 0.0

-257025.12115263753 1.3157642716026144e7 0.0
1.3157642716026144e7 -6.371275768700091e6 0.0
0.0 0.0 0.0

-1.1945248045439955e7 3.4360854749147636e6 0.0
3.4360854749147636e6 1.4403129731298745e7 0.0
0.0 0.0 0.0

502018.96214270825 1.0983202381628044e7 0.0
1.0983202381628044e7 -8.864981436933557e6 0.0
0.0 0.0 0.0

2.264242970128716e6 9.466288173651583e6 0.0
9.466288173651583e6 -1.239179134554376e7 0.0
0.0 0.0 0.0

-5.941624952194975e6 1.4031119331887623e7 0.0
1.4031119331887623e7 6.339077434339451e6 0.0
0.0 0.0 0.0

1.5342518563741264e6 9.533758565808529e6 0.0
9.533758565808529e6 -1.042251843636654e7 0.0
0.0 0.0 0.0

-5.0665982566169605e7 1.8667740273246538e7 0.0
1.8667740273246538e7 6.878130468688961e6 0.0
0.0 0.0 0.0

-203733.82320688432 1.1265477836946495e7 0.0
1.1265477836946495e7 -7.784276707605549e6 0.0
0.0 0.0 0.0

-9.355818783982689e6 1.8441637889957584e7 0.0
1.8441637889957584e7 6.695314857177441e6 0.0
0.0 0.0 0.0

-665116.6380163948 9.281161327145651e6 0.0
9.281161327145651e6 722317.8995845618 0.0
0.0 0.0 0.0

-6.965933721370596e6 1.1338471288725019e7 0.0
1.1338471288725019e7 8.874112209988674e6 0.0
0.0 0.0 0.0

-2.885521950193307e6 1.3313659245789241e7 0.0
1.3313659245789241e7 -1.349559395173294e6 0.0
0.0 0.0 0.0

-4.1484495946940323e6 2.0946172265230443e7 0.0
2.0946172265230443e7 -2.132369036312051e6 0.0
0.0 0.0 0.0

-7.103995642196746e6 -9.743104797033055e6 0.0
-9.743104797033055e6 1.5908350776932755e7 0.0
0.0 0.0 0.0

5.167984484380417e6 5.031317586275246e6 0.0
5.031317586275246e6 -1.4141837653733023e7 0.0
0.0 0.0 0.0

-3.539744296263259e6 1.3556108731280494e7 0.0
1.3556108731280494e7 -739081.9986954571 0.0
0.0 0.0 0.0

-1.2040545380942733e6 2.306174461974911e6 0.0
2.306174461974911e6 -96097.01583655196 0.0
0.0 0.0 0.0

5.930986084126872e6 5.193640853869061e6 0.0
5.193640853869061e6 -1.7136814299074635e7 0.0
0.0 0.0 0.0

-1.0317940639152553e7 -7.688911349135666e6 0.0
-7.688911349135666e6 2.6005927929519664e7 0.0
0.0 0.0 0.0

-4.295805363624852e6 -4.89794460178191e6 0.0
-4.89794460178191e6 8.360819031687091e6 0.0
0.0 0.0 0.0

320910.1321821646 9.701918538777653e6 0.0
9.701918538777653e6 -5.215708868218739e6 0.0
0.0 0.0 0.0

-7.399867779689229e6 -9.144017444239888e6 0.0
-9.144017444239888e6 1.6827338684377834e7 0.0
0.0 0.0 0.0

5.25375985842107e6 5.056985019234458e6 0.0
5.056985019234458e6 -1.4489144075824605e7 0.0
0.0 0.0 0.0

5.851280796036908e6 5.22094647097205e6 0.0
5.22094647097205e6 -1.6586947420817519e7 0.0
0.0 0.0 0.0

-9.577014282079294e6 -8.1828488358384315e6 0.0
-8.1828488358384315e6 2.4395719835304413e7 0.0
0.0 0.0 0.0

-3.173244649437737e6 1.1920628887395384e7 0.0
1.1920628887395384e7 -2.0448628114746516e6 0.0
0.0 0.0 0.0

-680687.1794036047 1.271097298611891e7 0.0
1.271097298611891e7 -6.348572760177005e6 0.0
0.0 0.0 0.0

-6.261862788026567e6 1.4239612152133228e7 0.0
1.4239612152133228e7 5.2917946540248385e6 0.0
0.0 0.0 0.0

5.772853386159771e6 5.203822751697599e6 0.0
5.203822751697599e6 -1.6239992374169726e7 0.0
0.0 0.0 0.0

-8.904561775426589e6 -8.391106198561918e6 0.0
-8.391106198561918e6 2.2550723392232805e7 0.0
0.0 0.0 0.0

652889.2497322808 9.921311381121745e6 0.0
9.921311381121745e6 -4.830541508388953e6 0.0
0.0 0.0 0.0

1.7420931913434425e6 9.899045174234357e6 0.0
9.899045174234357e6 -9.861954814615764e6 0.0
0.0 0.0 0.0

-4.484456884963335e6 1.416164339581277e7 0.0
1.416164339581277e7 1.1997543389236624e6 0.0
0.0 0.0 0.0

-3.8635949263380403e6 1.1238561972992131e7 0.0
1.1238561972992131e7 138581.68045219523 0.0
0.0 0.0 0.0

-7.368813748432605e6 1.208556967976939e7 0.0
1.208556967976939e7 1.0054370710669018e7 0.0
0.0 0.0 0.0

-8.360192881921221e6 -8.333006739038605e6 0.0
-8.333006739038605e6 2.0973442000367194e7 0.0
0.0 0.0 0.0

5.687557053533674e6 5.146974785666891e6 0.0
5.146974785666891e6 -1.5779319466983218e7 0.0
0.0 0.0 0.0

-5.187806168600355e6 1.6449487632985616e7 0.0
1.6449487632985616e7 -215458.4808391221 0.0
0.0 0.0 0.0

-6.190636087450723e6 1.3427835479819292e7 0.0
1.3427835479819292e7 1.6954122759403117e7 0.0
0.0 0.0 0.0

1.793078674680032e7 3.3129731491664313e7 0.0
3.3129731491664313e7 -2.8969514885792967e7 0.0
0.0 0.0 0.0

-85735.61016499577 7.909989154928226e6 0.0
7.909989154928226e6 -4.724462451652752e6 0.0
0.0 0.0 0.0

-6.383719589803672e6 1.5526758962433847e7 0.0
1.5526758962433847e7 4.739050304350361e6 0.0
0.0 0.0 0.0

-817572.4167773227 4.836366558393931e6 0.0
4.836366558393931e6 -1.2699828749496592e6 0.0
0.0 0.0 0.0

-6.179407705444578e6 1.4459894428696958e7 0.0
1.4459894428696958e7 5.075662436453398e6 0.0
0.0 0.0 0.0

2.1370112706788094e6 4.15707828672315e6 0.0
4.15707828672315e6 -6.802408520435263e6 0.0
0.0 0.0 0.0

-906100.5671068893 1.6147084345663875e7 0.0
1.6147084345663875e7 -4.46297394721439e6 0.0
0.0 0.0 0.0

-2.494488165852125e6 1.4715172981376598e7 0.0
1.4715172981376598e7 -2.9853966644384908e6 0.0
0.0 0.0 0.0

-7.262069195768897e6 8.561714293065546e6 0.0
8.561714293065546e6 6.232102227088777e6 0.0
0.0 0.0 0.0

-580522.8844165938 1.2953942235994866e7 0.0
1.2953942235994866e7 -1.078564333914182e6 0.0
0.0 0.0 0.0

-1.0347777850210158e7 -4.438246289535428e6 0.0
-4.438246289535428e6 3.558219260474597e7 0.0
0.0 0.0 0.0

912923.8812318258 5.255463373672048e6 0.0
5.255463373672048e6 -3.8196547118628975e6 0.0
0.0 0.0 0.0

-1.54022992154069e6 -1.568408091178873e6 0.0
-1.568408091178873e6 469141.02284021897 0.0
0.0 0.0 0.0

1.1075600475830995e6 -2.0871178092839718e6 0.0
-2.0871178092839718e6 -2.0667079638077691e6 0.0
0.0 0.0 0.0

-2.253041389728191e6 1.4951486865533892e7 0.0
1.4951486865533892e7 -3.1848651523116743e6 0.0
0.0 0.0 0.0

466167.76338759344 1.1743381438036712e7 0.0
1.1743381438036712e7 -1.5994734301958289e7 0.0
0.0 0.0 0.0

-1.8184116851922707e6 1.3383060983547496e7 0.0
1.3383060983547496e7 6.537478757825537e6 0.0
0.0 0.0 0.0

-1.1969171782525913e6 1.211423221619294e7 0.0
1.211423221619294e7 -3.3444150196990767e6 0.0
0.0 0.0 0.0

4.006430163873228e6 5.589667782249557e6 0.0
5.589667782249557e6 -1.0639563462730609e7 0.0
0.0 0.0 0.0

-798277.0759575849 8.74517452681696e6 0.0
8.74517452681696e6 -4.588279255743338e6 0.0
0.0 0.0 0.0

587960.4644127223 1.2354005960601443e7 0.0
1.2354005960601443e7 -7.73299810950564e6 0.0
0.0 0.0 0.0

936716.2421553927 1.085153696928855e7 0.0
1.085153696928855e7 -1.3378631295804445e7 0.0
0.0 0.0 0.0

-4.714409198959019e6 1.4617863907321636e7 0.0
1.4617863907321636e7 1.3451676738439787e6 0.0
0.0 0.0 0.0

-5.903867690468976e6 1.1706965786779959e7 0.0
1.1706965786779959e7 8.40123727944536e6 0.0
0.0 0.0 0.0

-57498.69039823231 9.129749884778535e6 0.0
9.129749884778535e6 -4.306122701839097e6 0.0
0.0 0.0 0.0

139203.1867023423 9.929367257788697e6 0.0
9.929367257788697e6 -1.0475211699183675e6 0.0
0.0 0.0 0.0

-741826.1887578489 1.0670870326621257e7 0.0
1.0670870326621257e7 -1.031879596825392e7 0.0
0.0 0.0 0.0

-1.4792214061383408e7 1.3556381895757176e7 0.0
1.3556381895757176e7 9.23271153410265e6 0.0
0.0 0.0 0.0

-5.6884430267548105e6 2.214655678326559e7 0.0
2.214655678326559e7 -337400.0731630528 0.0
0.0 0.0 0.0

889880.3647598457 5.691935756744103e6 0.0
5.691935756744103e6 -2.8921929210960213e6 0.0
0.0 0.0 0.0

1.6713219581228246e6 5.898332795736656e6 0.0
5.898332795736656e6 -3.1222877916845763e6 0.0
0.0 0.0 0.0

-5.736275668808119e6 1.2387439845604971e7 0.0
1.2387439845604971e7 7.595342961345738e6 0.0
0.0 0.0 0.0

-3.806961282050855e6 1.298593321014112e7 0.0
1.298593321014112e7 -878542.4202939786 0.0
0.0 0.0 0.0

-6.557880582483815e6 1.6029745207580142e7 0.0
1.6029745207580142e7 5.189601441925574e6 0.0
0.0 0.0 0.0

-6.156085797957627e6 1.4650496021920785e7 0.0
1.4650496021920785e7 4.929243808820665e6 0.0
0.0 0.0 0.0

2.6474809653584473e6 1.0887586808823727e7 0.0
1.0887586808823727e7 2.2435579342797995e6 0.0
0.0 0.0 0.0

1.9081211967307497e6 1.2147170529308068e7 0.0
1.2147170529308068e7 -5.602618919383048e6 0.0
0.0 0.0 0.0

-5.580407110476749e6 1.2982431589944528e7 0.0
1.2982431589944528e7 1.77230840196473e7 0.0
0.0 0.0 0.0

-1.918075963211738e7 1.5389253292505827e7 0.0
1.5389253292505827e7 2.0712753820612598e6 0.0
0.0 0.0 0.0

-5.907235130761243e7 2.192665666895876e7 0.0
2.192665666895876e7 1.801629819985415e7 0.0
0.0 0.0 0.0

-5.84756655132024e6 8.084821138038923e6 0.0
8.084821138038923e6 4.008163465104662e6 0.0
0.0 0.0 0.0

-3.6445867781314086e6 1.278064783268256e7 0.0
1.278064783268256e7 5.162235121899748e6 0.0
0.0 0.0 0.0

2.922086729807928e6 5.965806202691548e6 0.0
5.965806202691548e6 -9.396474807008995e6 0.0
0.0 0.0 0.0

-7.806872157103685e6 9.122005965455456e6 0.0
9.122005965455456e6 9.845616808916796e6 0.0
0.0 0.0 0.0

-186284.65283234065 3.457762773681136e6 0.0
3.457762773681136e6 -1.299553381567821e6 0.0
0.0 0.0 0.0

-1.4913923339024219e6 1.1707769870923946e7 0.0
1.1707769870923946e7 6.904644664347228e6 0.0
0.0 0.0 0.0

1.2839301933184313e6 1.079478696329311e7 0.0
1.079478696329311e7 -1.3684120824423604e7 0.0
0.0 0.0 0.0

4.16880849082389e6 6.065877167177111e6 0.0
6.065877167177111e6 -1.1391165011535523e7 0.0
0.0 0.0 0.0

1.9246629405511634e6 1.0299595698747478e7 0.0
1.0299595698747478e7 571341.1527883197 0.0
0.0 0.0 0.0

-8.717382945910778e6 767712.3755553802 0.0
767712.3755553802 4.962372055780442e7 0.0
0.0 0.0 0.0

-6.904429509301848e6 1.545714146419116e7 0.0
1.545714146419116e7 6.398616793202935e6 0.0
0.0 0.0 0.0

-8.266807813860213e6 1.2997508023877675e7 0.0
1.2997508023877675e7 2.5719280257587293e6 0.0
0.0 0.0 0.0

-2.278035944651511e6 1.4137220933159558e7 0.0
1.4137220933159558e7 -3.6639447838004883e6 0.0
0.0 0.0 0.0

-2.56672924522937e6 -1.694531138111058e6 0.0
-1.694531138111058e6 5.499800594331694e6 0.0
0.0 0.0 0.0

-1.268428942593028e6 8.940501596930742e6 0.0
8.940501596930742e6 1.213239563163477e6 0.0
0.0 0.0 0.0

-5.973986506460061e6 -7.982895949820871e6 0.0
-7.982895949820871e6 1.3233691327026714e7 0.0
0.0 0.0 0.0

1.8232597176566217e6 1.1062951391324287e7 0.0
1.1062951391324287e7 69364.052306575 0.0
0.0 0.0 0.0

-4.290086850824137e6 1.2309883111743532e7 0.0
1.2309883111743532e7 1.756306873717117e6 0.0
0.0 0.0 0.0

4.5777958042859025e6 5.62478055973118e6 0.0
5.62478055973118e6 -1.2035111971596824e7 0.0
0.0 0.0 0.0

-3.66255502416932e6 1.2518369994976621e7 0.0
1.2518369994976621e7 -1.0362863400053844e6 0.0
0.0 0.0 0.0

3.914224890811492e6 5.500584424914475e6 0.0
5.500584424914475e6 -9.754000676226113e6 0.0
0.0 0.0 0.0

523441.03968785424 1.1236588773831444e7 0.0
1.1236588773831444e7 -9.4973560103448e6 0.0
0.0 0.0 0.0

-9.821488242941864e6 1.7412536937946197e7 0.0
1.7412536937946197e7 8.082040392598699e6 0.0
0.0 0.0 0.0

-532414.2295707392 7.402820434011636e6 0.0
7.402820434011636e6 -2.363326842174341e6 0.0
0.0 0.0 0.0

-3.3458587469100445e6 1.352248647490208e7 0.0
1.352248647490208e7 -2.8582016914904695e6 0.0
0.0 0.0 0.0

-8.246759842170868e6 1.6998185252374377e7 0.0
1.6998185252374377e7 6.595955665867129e6 0.0
0.0 0.0 0.0

-6.328221828264292e6 1.4038666175887227e7 0.0
1.4038666175887227e7 5.589855931023226e6 0.0
0.0 0.0 0.0

-6.375635880712515e6 1.4369019235453827e7 0.0
1.4369019235453827e7 4.470404684444942e6 0.0
0.0 0.0 0.0

-7.478733075097267e6 1.743895240404048e7 0.0
1.743895240404048e7 4.8079586147584915e6 0.0
0.0 0.0 0.0

-2.305515053801221e6 1.322243679768733e7 0.0
1.322243679768733e7 -3.399337158568533e6 0.0
0.0 0.0 0.0

-9.981913181741253e6 1.8778816024236575e7 0.0
1.8778816024236575e7 7.147893987159812e6 0.0
0.0 0.0 0.0

-4.772214353914826e6 6.02537840771233e6 0.0
6.02537840771233e6 2.9167181840482755e6 0.0
0.0 0.0 0.0

493507.24075142434 9.283247249966515e6 0.0
9.283247249966515e6 -6.947193192278913e6 0.0
0.0 0.0 0.0

-4.194456699929462e6 1.1882195284087297e6 0.0
1.1882195284087297e6 3.7202004272980625e6 0.0
0.0 0.0 0.0

-6.486561745088839e6 1.4106606264285477e7 0.0
1.4106606264285477e7 5.024616296467917e6 0.0
0.0 0.0 0.0

-1.015515777198538e7 -6.193989125175753e6 0.0
-6.193989125175753e6 2.2145293898286246e7 0.0
0.0 0.0 0.0

-5.698576740462557e6 1.6855013651406977e7 0.0
1.6855013651406977e7 627732.7278731074 0.0
0.0 0.0 0.0

1.0200378040035916e6 1.1137449927492546e7 0.0
1.1137449927492546e7 -9.358698681979032e6 0.0
0.0 0.0 0.0

-1.3199844469443408e6 1.037008993296501e7 0.0
1.037008993296501e7 2.3945490977107733e6 0.0
0.0 0.0 0.0

-1.286659736310155e6 1.011875747064717e7 0.0
1.011875747064717e7 -4.120306427446105e6 0.0
0.0 0.0 0.0

2.3376815926361904e6 1.0046245479864968e7 0.0
1.0046245479864968e7 -1.2349605073380869e7 0.0
0.0 0.0 0.0

2.3777448290509544e6 4.586007169399356e6 0.0
4.586007169399356e6 -7.919806637754674e6 0.0
0.0 0.0 0.0

-1.8374423738821072e6 1.5111966485810397e7 0.0
1.5111966485810397e7 -3.4693420924269846e6 0.0
0.0 0.0 0.0

-692877.8397724857 1.2577976220275167e7 0.0
1.2577976220275167e7 621367.8706607518 0.0
0.0 0.0 0.0

-3.46108639910182e6 1.102435221285327e7 0.0
1.102435221285327e7 -459851.72402233165 0.0
0.0 0.0 0.0

6.129882088915775e6 5.222705612117419e6 0.0
5.222705612117419e6 -1.8221396392589122e7 0.0
0.0 0.0 0.0

-4.722257803320517e6 2.8227533718294776e6 0.0
2.8227533718294776e6 5.319798204183711e6 0.0
0.0 0.0 0.0

5.6892922145336e6 6.1128854426956e6 0.0
6.1128854426956e6 -1.8249026469379053e7 0.0
0.0 0.0 0.0

-671973.48621613 1.5491134391472265e6 0.0
1.5491134391472265e6 -50919.01956619465 0.0
0.0 0.0 0.0

-4.45396639469134e6 1.2127536404606294e7 0.0
1.2127536404606294e7 931002.0851637372 0.0
0.0 0.0 0.0

-587115.8959228715 1.2645875718417216e7 0.0
1.2645875718417216e7 -46179.729254105216 0.0
0.0 0.0 0.0

-590257.9309727636 1.0072976706787437e7 0.0
1.0072976706787437e7 806977.2247939858 0.0
0.0 0.0 0.0

-5.462107417318895e6 8.046953579406545e6 0.0
8.046953579406545e6 5.352397007770777e6 0.0
0.0 0.0 0.0

-4.259326399092497e6 -5.377938260538226e6 0.0
-5.377938260538226e6 8.426516893092645e6 0.0
0.0 0.0 0.0

-2.7041796097473255e6 1.596447248611169e7 0.0
1.596447248611169e7 -2.0850782890004555e6 0.0
0.0 0.0 0.0

-4.8788018723455705e6 1.267427009818313e7 0.0
1.267427009818313e7 8.739566998762773e6 0.0
0.0 0.0 0.0

2.540409827770692e6 7.313025031614913e6 0.0
7.313025031614913e6 -1.0228870170060268e7 0.0
0.0 0.0 0.0

-6.159247677388616e6 -4.150200157965296e6 0.0
-4.150200157965296e6 1.1795801131579658e7 0.0
0.0 0.0 0.0

-2.7408686203629174e6 1.0899783908174288e7 0.0
1.0899783908174288e7 5.469051664999811e6 0.0
0.0 0.0 0.0

-9.46665153316122e6 1.0633110428159548e7 0.0
1.0633110428159548e7 1.7910773735211503e7 0.0
0.0 0.0 0.0

-1.6982637124114255e6 1.1206117483851556e7 0.0
1.1206117483851556e7 6.027234363013789e6 0.0
0.0 0.0 0.0

793593.201549463 1.1358821608691609e7 0.0
1.1358821608691609e7 -1.5688799430876067e7 0.0
0.0 0.0 0.0

-6.710885006960101e6 1.1827308223838724e7 0.0
1.1827308223838724e7 9.196734639603378e6 0.0
0.0 0.0 0.0

-2.445050351692741e6 1.236621992500132e7 0.0
1.236621992500132e7 4.834178578020589e6 0.0
0.0 0.0 0.0

-688122.6058946496 1.3320653650993565e7 0.0
1.3320653650993565e7 -5.916431903668608e6 0.0
0.0 0.0 0.0

-1.0180992344071646e6 1.3285527650556969e7 0.0
1.3285527650556969e7 -1.5981928639495356e6 0.0
0.0 0.0 0.0

4.069040183645566e6 7.71163618778907e6 0.0
7.71163618778907e6 -1.5318722287427057e7 0.0
0.0 0.0 0.0

4.349119484827867e6 7.386506097694186e6 0.0
7.386506097694186e6 -1.5880565183813475e7 0.0
0.0 0.0 0.0

-741721.0128198348 1.001638588736596e7 0.0
1.001638588736596e7 -3.964532334394435e6 0.0
0.0 0.0 0.0

-1.050779625492755e7 8.67310830897174e6 0.0
8.67310830897174e6 1.3361234559151944e7 0.0
0.0 0.0 0.0

-1.3044499044043738e6 1.2798579737000221e7 0.0
1.2798579737000221e7 -6.420468490051907e6 0.0
0.0 0.0 0.0

-1.1245860719025558e7 -1.820503529755985e6 0.0
-1.820503529755985e6 3.3382809876977652e7 0.0
0.0 0.0 0.0

886621.4750877642 7.745634550341073e6 0.0
7.745634550341073e6 -8.7353010044697e6 0.0
0.0 0.0 0.0

-4.930924184712755e6 1.046349903386641e7 0.0
1.046349903386641e7 3.9680029619947635e7 0.0
0.0 0.0 0.0

6.014598690132512e6 5.286254122110686e6 0.0
5.286254122110686e6 -1.7594195854852866e7 0.0
0.0 0.0 0.0

-2.7851334012880498e6 1.3846108654632917e7 0.0
1.3846108654632917e7 -3.0011161716014454e6 0.0
0.0 0.0 0.0

-3.053605037682156e6 1.1268393787863553e7 0.0
1.1268393787863553e7 6.597213573212333e6 0.0
0.0 0.0 0.0

-327043.62968311086 1.1688617406396067e7 0.0
1.1688617406396067e7 -1.4424405786262311e7 0.0
0.0 0.0 0.0

-342491.05793342926 7.982603088588011e6 0.0
7.982603088588011e6 2.7361970953627448e6 0.0
0.0 0.0 0.0

-906598.2835819818 1.2879178319940751e7 0.0
1.2879178319940751e7 -2.3000619484174578e6 0.0
0.0 0.0 0.0

-3.748573079226484e6 1.1355992064284824e7 0.0
1.1355992064284824e7 6.696619630437481e6 0.0
0.0 0.0 0.0

-6.6264582753109615e6 1.237696416930213e7 0.0
1.237696416930213e7 6.49218036608925e6 0.0
0.0 0.0 0.0

-4.233788544173767e6 1.2751896413192488e7 0.0
1.2751896413192488e7 5.747345697886071e6 0.0
0.0 0.0 0.0

382031.4851150061 8.62211585288484e6 0.0
8.62211585288484e6 -6.350717269666948e6 0.0
0.0 0.0 0.0

-1.1197484263115536e7 7.136349210765608e6 0.0
7.136349210765608e6 1.266659366551214e7 0.0
0.0 0.0 0.0

1.155827533791895e6 1.1013398640776219e7 0.0
1.1013398640776219e7 -1.515774756950788e7 0.0
0.0 0.0 0.0

-1.0178358598164113e6 1.2553434105473472e7 0.0
1.2553434105473472e7 -2.925517447690566e6 0.0
0.0 0.0 0.0

-3.9079368335913564e6 1.3542109272142949e7 0.0
1.3542109272142949e7 2.89704974085127e6 0.0
0.0 0.0 0.0

159057.0373250551 7.934566334338038e6 0.0
7.934566334338038e6 -4.710879371336788e6 0.0
0.0 0.0 0.0

-1.1901955840816269e7 2.61623310036262e6 0.0
2.61623310036262e6 4.612415872402119e7 0.0
0.0 0.0 0.0

-3757.4761813357472 1.2152651205428774e7 0.0
1.2152651205428774e7 -1.6295280223305501e7 0.0
0.0 0.0 0.0

-6.958160504249552e6 1.2286604515233384e7 0.0
1.2286604515233384e7 1.0345323118955838e7 0.0
0.0 0.0 0.0

-6.923750803729139e6 1.6277483044373369e7 0.0
1.6277483044373369e7 4.844546534769593e6 0.0
0.0 0.0 0.0

2.596904097653186e6 1.3842791360322211e7 0.0
1.3842791360322211e7 5.312093923551665e6 0.0
0.0 0.0 0.0

-6.721521812450861e6 1.2734243062853454e7 0.0
1.2734243062853454e7 1.3363376312913196e7 0.0
0.0 0.0 0.0

-6.450084602238823e6 1.2228942366670886e7 0.0
1.2228942366670886e7 8.35736177455865e6 0.0
0.0 0.0 0.0

125647.61261694133 9.812615045555687e6 0.0
9.812615045555687e6 -6.716605470420018e6 0.0
0.0 0.0 0.0

-1.544330471114805e6 1.2220981607127866e7 0.0
1.2220981607127866e7 -2.882434436930301e6 0.0
0.0 0.0 0.0

-7.203849799266257e6 9.877703679773988e6 0.0
9.877703679773988e6 6.149367146349097e6 0.0
0.0 0.0 0.0

-6.549106361037152e6 9.079233530611025e6 0.0
9.079233530611025e6 7.097525870867504e6 0.0
0.0 0.0 0.0

4.080833437902616e6 5.764199077657954e6 0.0
5.764199077657954e6 -1.1480632986130536e7 0.0
0.0 0.0 0.0

-6.320358709688051e6 1.4276012238667777e7 0.0
1.4276012238667777e7 6.600935993534306e6 0.0
0.0 0.0 0.0

-161903.75716600078 8.222534717573844e6 0.0
8.222534717573844e6 -3.6651382091584154e6 0.0
0.0 0.0 0.0

3.475427223343449e6 5.473765177585652e6 0.0
5.473765177585652e6 -9.571558864421278e6 0.0
0.0 0.0 0.0

-5.65639941816713e6 1.6073564283074055e7 0.0
1.6073564283074055e7 866827.443134807 0.0
0.0 0.0 0.0

-4.11376813299214e6 1.1873174134830087e7 0.0
1.1873174134830087e7 7.941530019738198e6 0.0
0.0 0.0 0.0

-1.0970393494115794e7 -4.390861517484371e6 0.0
-4.390861517484371e6 2.7737906696226254e7 0.0
0.0 0.0 0.0

108351.28113164683 1.2071587131122615e7 0.0
1.2071587131122615e7 4.386168635373933e6 0.0
0.0 0.0 0.0

867357.8228632892 1.1311439923031807e7 0.0
1.1311439923031807e7 2.2280262649258417e6 0.0
0.0 0.0 0.0

476484.71746399347 1.1979353878513718e7 0.0
1.1979353878513718e7 -7.958490103506703e6 0.0
0.0 0.0 0.0

4.872932289767949e6 5.456355796916039e6 0.0
5.456355796916039e6 -1.388234662566675e7 0.0
0.0 0.0 0.0

-436627.30718706653 1.1645259593001774e7 0.0
1.1645259593001774e7 1.7337250838308e6 0.0
0.0 0.0 0.0

253978.52662174404 1.2275114196388531e7 0.0
1.2275114196388531e7 -7.466743259691171e6 0.0
0.0 0.0 0.0

-1.697977268198028e6 1.0231010500216966e7 0.0
1.0231010500216966e7 3.1979921148857367e6 0.0
0.0 0.0 0.0

-2.2954464913771483e6 4.626579353730183e6 0.0
4.626579353730183e6 1.184904782862632e6 0.0
0.0 0.0 0.0

-249312.35888778648 2.197568809243953e6 0.0
2.197568809243953e6 -694957.3475312366 0.0
0.0 0.0 0.0

-3.159374062514618e6 1.3179683152261104e7 0.0
1.3179683152261104e7 1.2956917629757226e6 0.0
0.0 0.0 0.0

1.8747769774180143e6 1.0249793211935606e7 0.0
1.0249793211935606e7 -1.0785062272698263e7 0.0
0.0 0.0 0.0

137899.07972526783 1.0786786907163518e7 0.0
1.0786786907163518e7 -9.167304599480817e6 0.0
0.0 0.0 0.0

-1.1666276900141481e7 -1.0738910082769815e6 0.0
-1.0738910082769815e6 4.5218280661916904e7 0.0
0.0 0.0 0.0

-1.0902706919845864e7 1.9089572626207646e7 0.0
1.9089572626207646e7 7.567906646428712e6 0.0
0.0 0.0 0.0

439062.22780583194 5.603602709405212e6 0.0
5.603602709405212e6 -3.7269861122709266e6 0.0
0.0 0.0 0.0

-666804.2485544703 1.2778476603368113e7 0.0
1.2778476603368113e7 -603372.618714469 0.0
0.0 0.0 0.0

-3.07604181994459e6 1.1128250272168454e7 0.0
1.1128250272168454e7 5.033225782584675e6 0.0
0.0 0.0 0.0

-9.18880030924429e6 8.566771974371295e6 0.0
8.566771974371295e6 1.2337195418404292e7 0.0
0.0 0.0 0.0

-6.0536068629015675e6 1.379523380669016e7 0.0
1.379523380669016e7 3.789449362990647e6 0.0
0.0 0.0 0.0

-345710.00919540133 1.13135490220347e7 0.0
1.13135490220347e7 3.5648996153924535e6 0.0
0.0 0.0 0.0

-2.610170033904789e6 1.1193390882757692e7 0.0
1.1193390882757692e7 4.872761032089468e6 0.0
0.0 0.0 0.0

228826.2224630867 1.2000921436473588e7 0.0
1.2000921436473588e7 -8.164166900162579e6 0.0
0.0 0.0 0.0

1.6519882903064839e6 5.456349327497722e6 0.0
5.456349327497722e6 -6.59034958759157e6 0.0
0.0 0.0 0.0

764729.9527114434 1.18991447710963e7 0.0
1.18991447710963e7 -8.633674347571352e6 0.0
0.0 0.0 0.0

-2.562812672728989e6 1.3081542185033103e7 0.0
1.3081542185033103e7 -4.20237070670263e6 0.0
0.0 0.0 0.0

-5.920626629922064e6 1.3524082990563206e7 0.0
1.3524082990563206e7 4.692999105632398e6 0.0
0.0 0.0 0.0

-1.16483447020865e6 1.3941534897376245e7 0.0
1.3941534897376245e7 -5.048581287435915e6 0.0
0.0 0.0 0.0

-1.1690123311210272e6 1.357007816747874e7 0.0
1.357007816747874e7 -5.587575996262481e6 0.0
0.0 0.0 0.0

4.7131904439702155e6 5.829138446289686e6 0.0
5.829138446289686e6 -1.3041497670816826e7 0.0
0.0 0.0 0.0

11737.642208661244 1.0634792451706652e7 0.0
1.0634792451706652e7 1.6017845923106896e6 0.0
0.0 0.0 0.0

-2.9807118148818724e6 1.3286152637602517e7 0.0
1.3286152637602517e7 -3.444073265895107e6 0.0
0.0 0.0 0.0

-8.30022951424809e6 6.480387483666227e6 0.0
6.480387483666227e6 8.580972434676649e6 0.0
0.0 0.0 0.0

-3.802591696419186e7 1.8621295522485003e7 0.0
1.8621295522485003e7 6.21968479692537e6 0.0
0.0 0.0 0.0

1.5384469861836346e7 2.194095426573688e7 0.0
2.194095426573688e7 5.128171497672116e7 0.0
0.0 0.0 0.0

-7.774800317704962e6 1.715924943238556e7 0.0
1.715924943238556e7 -2.591606891370559e7 0.0
0.0 0.0 0.0

-6.2448832547322e6 1.138845982229482e7 0.0
1.138845982229482e7 9.012344851586238e6 0.0
0.0 0.0 0.0

1.0047403209897513e6 9.997658532782027e6 0.0
9.997658532782027e6 -9.32740395177831e6 0.0
0.0 0.0 0.0

-2.4993207798487702e6 1.2702958406240273e7 0.0
1.2702958406240273e7 -1.7521384895226366e6 0.0
0.0 0.0 0.0

-8.45046008983469e6 2.000577766124298e7 0.0
2.000577766124298e7 3.1726192782311346e6 0.0
0.0 0.0 0.0

778104.4231285942 1.1168973934063591e7 0.0
1.1168973934063591e7 -1.0179804074566841e7 0.0
0.0 0.0 0.0

-1.4484036110872596e6 1.3531800795885785e7 0.0
1.3531800795885785e7 -1.1901795894916262e6 0.0
0.0 0.0 0.0

-8.76870965886529e6 7.801856261867221e6 0.0
7.801856261867221e6 9.910801885520987e6 0.0
0.0 0.0 0.0

-4.498946101107167e6 1.3774595366211576e7 0.0
1.3774595366211576e7 1.623781974479798e6 0.0
0.0 0.0 0.0

999406.7544631958 1.0941155849505998e7 0.0
1.0941155849505998e7 -1.295476996130545e7 0.0
0.0 0.0 0.0

-652298.1608256791 1.2996394921052018e7 0.0
1.2996394921052018e7 -1.7896453730687194e6 0.0
0.0 0.0 0.0

-7.122590880916325e6 1.2635998818457052e7 0.0
1.2635998818457052e7 6.923862595083854e6 0.0
0.0 0.0 0.0

4.691574151208483e6 1.2851523289425634e7 0.0
1.2851523289425634e7 -5.458780025904587e6 0.0
0.0 0.0 0.0

-765829.8754002114 9.672127714491641e6 0.0
9.672127714491641e6 1.6969765483685746e6 0.0
0.0 0.0 0.0

-6.496046061060793e6 1.1804322141917448e7 0.0
1.1804322141917448e7 8.65638407034309e6 0.0
0.0 0.0 0.0

-9.08128035210405e6 1.2409813492109362e7 0.0
1.2409813492109362e7 1.779680429606547e6 0.0
0.0 0.0 0.0

-1.0979341046981495e6 9.88499978864154e6 0.0
9.88499978864154e6 1.630367795835534e6 0.0
0.0 0.0 0.0

-5.724658594117453e6 1.6465513539892063e7 0.0
1.6465513539892063e7 959822.0509174939 0.0
0.0 0.0 0.0

-402322.5771258783 1.6055858065296562e7 0.0
1.6055858065296562e7 -4.337382689370654e6 0.0
0.0 0.0 0.0

932687.0090747443 9.337140093364546e6 0.0
9.337140093364546e6 -7.091824156863964e6 0.0
0.0 0.0 0.0

-8.48037486902042e6 1.1117569348100707e7 0.0
1.1117569348100707e7 1.145329445164542e7 0.0
0.0 0.0 0.0

169443.44349972997 1.1879705555179447e7 0.0
1.1879705555179447e7 -8.847766037089357e6 0.0
0.0 0.0 0.0

-3.4893071885010204e6 1.03171547997759e7 0.0
1.03171547997759e7 1.1024283051386036e6 0.0
0.0 0.0 0.0

-7.835470908349495e6 9.82413551041728e6 0.0
9.82413551041728e6 7.56439067529829e6 0.0
0.0 0.0 0.0

1.4616676385790522e6 6.316270719319925e6 0.0
6.316270719319925e6 -5.410669153579161e6 0.0
0.0 0.0 0.0

-898444.9387729007 1.2084277565705141e7 0.0
1.2084277565705141e7 1.4641793417084794e6 0.0
0.0 0.0 0.0

-3.049881790674888e6 1.5765064366873326e7 0.0
1.5765064366873326e7 -3.194790766697017e6 0.0
0.0 0.0 0.0

4.0598873291622587e6 9.736418267500669e6 0.0
9.736418267500669e6 -1.9873170268761445e7 0.0
0.0 0.0 0.0

-7.756941463909583e6 6.240322135500604e6 0.0
6.240322135500604e6 7.437351780491861e6 0.0
0.0 0.0 0.0

-2.8251809042603914e6 2.1363036227060817e7 0.0
2.1363036227060817e7 -4.145440951097421e6 0.0
0.0 0.0 0.0

4.678607110549102e6 7.337640919759094e6 0.0
7.337640919759094e6 -1.4794510462271204e7 0.0
0.0 0.0 0.0

-757129.925482955 1.2045063422868777e7 0.0
1.2045063422868777e7 917636.8376890016 0.0
0.0 0.0 0.0

-2.758913766701537e6 1.4519415762004681e7 0.0
1.4519415762004681e7 -3.875391130846519e6 0.0
0.0 0.0 0.0

1.947404895880092e6 1.6373802412913023e7 0.0
1.6373802412913023e7 8.639151796011052e7 0.0
0.0 0.0 0.0

779421.5850951783 1.5443980735064661e7 0.0
1.5443980735064661e7 -4.133269572413825e7 0.0
0.0 0.0 0.0

8.531570841525536e6 1.3312882233104479e7 0.0
1.3312882233104479e7 3.1856112660510354e6 0.0
0.0 0.0 0.0

732018.7177154166 1.5642974883252656e7 0.0
1.5642974883252656e7 -5.4391862927230755e6 0.0
0.0 0.0 0.0

346928.2291042793 7.6793663300308315e6 0.0
7.6793663300308315e6 -4.48124445800338e6 0.0
0.0 0.0 0.0

-94332.6965029987 1.9827207792521607e7 0.0
1.9827207792521607e7 -5.389074842153219e6 0.0
0.0 0.0 0.0

-3.900870994242472e6 1.2374251826577578e7 0.0
1.2374251826577578e7 6.198397082089051e6 0.0
0.0 0.0 0.0

4.1818230701232897e6 1.2596756719107315e7 0.0
1.2596756719107315e7 -4.942301328620104e6 0.0
0.0 0.0 0.0

-6.705561599300792e6 1.3242678198059758e7 0.0
1.3242678198059758e7 5.651147406899906e6 0.0
0.0 0.0 0.0

-5.1744873441862725e6 8.629135556367394e6 0.0
8.629135556367394e6 4.791460102309419e6 0.0
0.0 0.0 0.0

783598.8266157678 5.132980462642338e6 0.0
5.132980462642338e6 -4.1046942523039067e6 0.0
0.0 0.0 0.0

-4.648838511112088e6 1.2635859613716548e7 0.0
1.2635859613716548e7 9.35333285176422e6 0.0
0.0 0.0 0.0

-4.338948522959346e6 1.4156610838667585e7 0.0
1.4156610838667585e7 -348208.14315141307 0.0
0.0 0.0 0.0

-6.700628748060723e6 1.133024748728147e7 0.0
1.133024748728147e7 9.79580437854155e6 0.0
0.0 0.0 0.0

-6.111347337096533e6 1.4488748566474166e7 0.0
1.4488748566474166e7 6.151580904140769e6 0.0
0.0 0.0 0.0

-6.2348344209046215e6 1.3114836154711809e7 0.0
1.3114836154711809e7 5.807899675921753e6 0.0
0.0 0.0 0.0

-196084.69576948322 9.347016021215288e6 0.0
9.347016021215288e6 -5.609616088900598e6 0.0
0.0 0.0 0.0

-7.0256163165306235e6 1.2471129974728305e7 0.0
1.2471129974728305e7 1.0839156813775554e7 0.0
0.0 0.0 0.0

-6.536401171037724e6 1.3751905423621507e7 0.0
1.3751905423621507e7 6.578749745993311e6 0.0
0.0 0.0 0.0

-2.403631857778305e6 8.327608739981379e6 0.0
8.327608739981379e6 54712.86795131501 0.0
0.0 0.0 0.0

-2.2638187706789766e7 1.4557188350506226e7 0.0
1.4557188350506226e7 8.125037891848591e6 0.0
0.0 0.0 0.0

-1.1585642610852716e7 -1.335881442199289e6 0.0
-1.335881442199289e6 2.7947369288662795e7 0.0
0.0 0.0 0.0

-6.414647811216193e6 1.44477869606666e7 0.0
1.44477869606666e7 5.583817565860503e6 0.0
0.0 0.0 0.0

-8.450769630608976e6 1.5786659410647083e7 0.0
1.5786659410647083e7 7.266572061769905e6 0.0
0.0 0.0 0.0

1.582515627379601e6 1.0694517809083415e7 0.0
1.0694517809083415e7 -1.2231658838788152e7 0.0
0.0 0.0 0.0

-8.587276555924945e6 1.7827560968382094e7 0.0
1.7827560968382094e7 6.720647129420958e6 0.0
0.0 0.0 0.0

-1.2155916947772438e7 1.9600849313424103e7 0.0
1.9600849313424103e7 7.929279730106048e6 0.0
0.0 0.0 0.0

-1.3717641654011713e7 1.996597349230799e7 0.0
1.996597349230799e7 8.52980650739362e6 0.0
0.0 0.0 0.0

-5.523697616071954e6 1.490249752512039e7 0.0
1.490249752512039e7 2.0079105204012236e6 0.0
0.0 0.0 0.0

-1.142888044945282e7 4.9474236493487125e6 0.0
4.9474236493487125e6 1.4941767967496473e7 0.0
0.0 0.0 0.0

4.587553463516498e6 5.332932957996768e6 0.0
5.332932957996768e6 -1.2255154214533899e7 0.0
0.0 0.0 0.0

-7.066251074211605e6 1.1989555013465919e7 0.0
1.1989555013465919e7 9.428480248208104e6 0.0
0.0 0.0 0.0

-6.143276454430273e6 1.6734025806717291e7 0.0
1.6734025806717291e7 1.7404580729041449e6 0.0
0.0 0.0 0.0

805936.8052401887 1.1022423504449913e7 0.0
1.1022423504449913e7 -1.0059241498210793e7 0.0
0.0 0.0 0.0

-8.839033631421292e6 -6.306245164983359e6 0.0
-6.306245164983359e6 1.6830402864656195e7 0.0
0.0 0.0 0.0

-227945.15513570677 1.2523179998410769e7 0.0
1.2523179998410769e7 -758779.1072489221 0.0
0.0 0.0 0.0

-60382.69077884592 1.2603070487851419e7 0.0
1.2603070487851419e7 -7.047999130210922e6 0.0
0.0 0.0 0.0

660362.6138682738 1.1717654471866388e7 0.0
1.1717654471866388e7 -8.38110847597005e6 0.0
0.0 0.0 0.0

-124847.02848640783 9.846331050624307e6 0.0
9.846331050624307e6 -8.123540319806348e6 0.0
0.0 0.0 0.0

-1.4505880884306368e6 2.0035504162000853e6 0.0
2.0035504162000853e6 889257.8536780337 0.0
0.0 0.0 0.0

1.0908214240777271e6 9.35584375153589e6 0.0
9.35584375153589e6 -3.8281986330095944e6 0.0
0.0 0.0 0.0

654129.8943926021 9.95011588073234e6 0.0
9.95011588073234e6 1.262014486584775e6 0.0
0.0 0.0 0.0

6.15434812906476e6 1.0367512292129898e7 0.0
1.0367512292129898e7 -1.663212516298573e6 0.0
0.0 0.0 0.0

-1.3718570612347107e7 2.057282910659356e7 0.0
2.057282910659356e7 9.323759116366439e6 0.0
0.0 0.0 0.0

-5.8763950367677845e6 8.800736909195704e6 0.0
8.800736909195704e6 5.955340271211226e6 0.0
0.0 0.0 0.0

-1.0648629128417447e6 1.3027803730526526e7 0.0
1.3027803730526526e7 -1.7622898235776283e7 0.0
0.0 0.0 0.0

4.294802917738327e6 6.931514363996241e6 0.0
6.931514363996241e6 -1.2892008784347992e7 0.0
0.0 0.0 0.0

-1.8532568078681987e6 -3.006044081624811e6 0.0
-3.006044081624811e6 5.149027281150481e6 0.0
0.0 0.0 0.0

-1.2789532613834118e7 1.3813815467654629e7 0.0
1.3813815467654629e7 6.777208902995154e6 0.0
0.0 0.0 0.0

-7.960315769334499e6 1.2678434118538659e7 0.0
1.2678434118538659e7 797596.9453292852 0.0
0.0 0.0 0.0

347455.5749116894 9.998844765333168e6 0.0
9.998844765333168e6 -6.4827568224616265e6 0.0
0.0 0.0 0.0

-6.169982348329333e6 1.607105037674162e7 0.0
1.607105037674162e7 2.809482995444187e6 0.0
0.0 0.0 0.0

5.035624332224799e6 7.431166540998732e6 0.0
7.431166540998732e6 -1.9746878533928756e7 0.0
0.0 0.0 0.0

1.1623463331334775e6 1.39604804506992e7 0.0
1.39604804506992e7 -5.0793710109379655e6 0.0
0.0 0.0 0.0

-434160.2099229691 1.1625333735962143e7 0.0
1.1625333735962143e7 4.228517545215484e6 0.0
0.0 0.0 0.0

1.4667328345497088e6 9.837122922628058e6 0.0
9.837122922628058e6 -9.106359982553603e6 0.0
0.0 0.0 0.0

-4.448202453551222e6 1.2876455067057027e7 0.0
1.2876455067057027e7 1.9691407774729913e6 0.0
0.0 0.0 0.0

982616.4343195874 9.1073931238941e6 0.0
9.1073931238941e6 -6.686262324752871e6 0.0
0.0 0.0 0.0

1.2286636889360393e6 9.796139511212362e6 0.0
9.796139511212362e6 -9.887190794837957e6 0.0
0.0 0.0 0.0

600743.5549870948 1.0436247301242428e7 0.0
1.0436247301242428e7 -8.613992348165821e6 0.0
0.0 0.0 0.0

-7.68070033786959e6 1.5746207342753118e7 0.0
1.5746207342753118e7 6.708939600587314e6 0.0
0.0 0.0 0.0

-3.2150978443779564e6 1.4651714266465949e7 0.0
1.4651714266465949e7 -1.9838421852392305e7 0.0
0.0 0.0 0.0

-1.584332727155294e6 1.951230699517308e7 0.0
1.951230699517308e7 -3.130080285937393e6 0.0
0.0 0.0 0.0

-2.4573526748296116e6 1.5902516533670934e7 0.0
1.5902516533670934e7 -3.6170245360789727e6 0.0
0.0 0.0 0.0

-7.432149039711318e6 1.664406398970071e7 0.0
1.664406398970071e7 6.1600013422603365e6 0.0
0.0 0.0 0.0

-6.702383728692632e6 1.3558363423099892e7 0.0
1.3558363423099892e7 6.864200190367822e6 0.0
0.0 0.0 0.0

5.302842422161747e6 6.94296034889042e6 0.0
6.94296034889042e6 -2.010508139387693e7 0.0
0.0 0.0 0.0

-5.86542919333549e6 1.3325241705771511e7 0.0
1.3325241705771511e7 7.109152342883678e6 0.0
0.0 0.0 0.0

5.121971787615655e6 6.55900388324602e6 0.0
6.55900388324602e6 -1.7232311685382314e7 0.0
0.0 0.0 0.0

-2.4552501544653215e6 1.221332131735837e7 0.0
1.221332131735837e7 -2.6076027878963817e6 0.0
0.0 0.0 0.0

-2.101761874652879e6 1.1876907621656608e7 0.0
1.1876907621656608e7 -2.877102041092401e6 0.0
0.0 0.0 0.0

783055.5528752434 9.144559353521923e6 0.0
9.144559353521923e6 -4.288801525577261e6 0.0
0.0 0.0 0.0

-4.233698205452925e6 1.2355254284941878e7 0.0
1.2355254284941878e7 5.894717662955916e6 0.0
0.0 0.0 0.0

-5.352551142757292e6 1.4221664285316816e7 0.0
1.4221664285316816e7 2.0518549375789831e6 0.0
0.0 0.0 0.0

-7.166205819615487e6 1.1527499381606404e7 0.0
1.1527499381606404e7 7.351796345777202e6 0.0
0.0 0.0 0.0

-4.565390802070504e6 -5.097408737156615e6 0.0
-5.097408737156615e6 6.675632802928705e6 0.0
0.0 0.0 0.0

4.0602344619673677e6 6.833703096927593e6 0.0
6.833703096927593e6 -1.3640313095941804e7 0.0
0.0 0.0 0.0

2.7387472379070036e6 7.506887679495887e6 0.0
7.506887679495887e6 -1.1077603589511124e7 0.0
0.0 0.0 0.0

-7.025502288857158e6 1.7631784448603287e7 0.0
1.7631784448603287e7 4.1088266621752824e6 0.0
0.0 0.0 0.0

-1.5472630294961517e6 1.3155715784838106e7 0.0
1.3155715784838106e7 -2.168262399961592e6 0.0
0.0 0.0 0.0

1.9849481706631174e6 1.039419769426668e7 0.0
1.039419769426668e7 -1.2294213247897489e7 0.0
0.0 0.0 0.0

-6.132776151885075e6 1.2064488043975323e7 0.0
1.2064488043975323e7 1.0893237619110677e7 0.0
0.0 0.0 0.0

-2.987543712203072e6 2.9365630262091127e6 0.0
2.9365630262091127e6 2.801005856898954e6 0.0
0.0 0.0 0.0

-1.546629115873286e6 1.2152412031260371e7 0.0
1.2152412031260371e7 6.005670853312078e6 0.0
0.0 0.0 0.0

-1.2284988553032346e7 1.486265930901954e7 0.0
1.486265930901954e7 9.847097242720151e6 0.0
0.0 0.0 0.0

754327.6633825713 1.0358299098902522e7 0.0
1.0358299098902522e7 1.3403379077968465e6 0.0
0.0 0.0 0.0

-970467.6306983186 1.1963648827178534e7 0.0
1.1963648827178534e7 2.578147662806222e6 0.0
0.0 0.0 0.0

-7.123783071196223e6 1.5645374312722271e7 0.0
1.5645374312722271e7 6.429113619996631e6 0.0
0.0 0.0 0.0

-4.858667551991217e6 1.273761203981504e7 0.0
1.273761203981504e7 6.547190304660957e6 0.0
0.0 0.0 0.0

-7.527064846208653e6 1.1947899388503041e7 0.0
1.1947899388503041e7 1.2330909021595808e7 0.0
0.0 0.0 0.0

-6.477428728307819e6 1.3460777191190671e7 0.0
1.3460777191190671e7 1.7684982856094255e6 0.0
0.0 0.0 0.0

-7.152065563063732e6 1.3286560187996056e7 0.0
1.3286560187996056e7 2.8035037443444137e6 0.0
0.0 0.0 0.0

-7.977013838322121e6 3.630297919995394e6 0.0
3.630297919995394e6 6.023960737074703e6 0.0
0.0 0.0 0.0

-3.7744463444109306e7 2.1153382568949927e7 0.0
2.1153382568949927e7 1.1536221400017517e7 0.0
0.0 0.0 0.0

4.0626217762583965e6 1.0484134634654962e7 0.0
1.0484134634654962e7 -157740.76838773652 0.0
0.0 0.0 0.0

1.217413491965339e6 1.0809465039207458e7 0.0
1.0809465039207458e7 -1.235365635713974e7 0.0
0.0 0.0 0.0

-6.600456240056256e6 1.2778768775019953e7 0.0
1.2778768775019953e7 5.367944378182152e6 0.0
0.0 0.0 0.0

-915029.2340879906 1.2545391455330981e7 0.0
1.2545391455330981e7 -7.081177334584503e6 0.0
0.0 0.0 0.0

1.5651737263256585e7 1.1168821391814109e7 0.0
1.1168821391814109e7 -1.0663883894745754e6 0.0
0.0 0.0 0.0

275766.89778946957 5.164524537350063e6 0.0
5.164524537350063e6 -1.546503922833284e6 0.0
0.0 0.0 0.0

2.4135852596470327e6 3.969121515657613e6 0.0
3.969121515657613e6 -7.339388459368666e6 0.0
0.0 0.0 0.0

-1.9309924232734202e6 1.2568348614009315e7 0.0
1.2568348614009315e7 -5.087266920685653e6 0.0
0.0 0.0 0.0

468834.43870787835 9.69500911660702e6 0.0
9.69500911660702e6 -3.2977482761549386e6 0.0
0.0 0.0 0.0

-1.1241069812333351e7 -877518.897373943 0.0
-877518.897373943 1.9877147695048712e7 0.0
0.0 0.0 0.0

-1.370550930614253e6 1.6164397971020922e7 0.0
1.6164397971020922e7 -3.44339257063655e6 0.0
0.0 0.0 0.0

-1.6583231332656402e7 2.086759240909974e7 0.0
2.086759240909974e7 1.0045836160802754e7 0.0
0.0 0.0 0.0

3.799030815718448e6 1.13068658129447e7 0.0
1.13068658129447e7 -1.1503225096516479e6 0.0
0.0 0.0 0.0

-2.729062688752924e6 -792865.2283062628 0.0
-792865.2283062628 2.193337998193458e6 0.0
0.0 0.0 0.0

-1.5439149728052165e7 1.0275990386555612e7 0.0
1.0275990386555612e7 9.472459233117651e6 0.0
0.0 0.0 0.0

-914384.3282474554 8.85620598630367e6 0.0
8.85620598630367e6 1.1121130252269648e6 0.0
0.0 0.0 0.0

-1.892351636416256e7 2.1322588763098806e7 0.0
2.1322588763098806e7 1.0881229979271967e7 0.0
0.0 0.0 0.0

-8.079481091130944e6 9.651737690170778e6 0.0
9.651737690170778e6 1.0566847578155689e7 0.0
0.0 0.0 0.0

1.7510358402939192e6 1.1034395606898244e7 0.0
1.1034395606898244e7 -4.161907672139831e6 0.0
0.0 0.0 0.0

-1.5707210274466649e6 1.0693594557728112e7 0.0
1.0693594557728112e7 -1.032040796184052e7 0.0
0.0 0.0 0.0

284737.1543373037 1.028754105452731e7 0.0
1.028754105452731e7 -7.485527691043608e6 0.0
0.0 0.0 0.0

1.4763941670447239e6 1.3427538020137172e7 0.0
1.3427538020137172e7 -4.93136299363057e6 0.0
0.0 0.0 0.0

-1.0569823806873858e6 2.344150082314402e7 0.0
2.344150082314402e7 -1.4956644023297664e7 0.0
0.0 0.0 0.0

-1.6710626413584296e6 2.0882567779539842e6 0.0
2.0882567779539842e6 1.5688825945029408e6 0.0
0.0 0.0 0.0

-8.163677601192052e6 1.9420016195560746e7 0.0
1.9420016195560746e7 3.037395125353651e6 0.0
0.0 0.0 0.0

-5.295870486894746e6 1.6885246389057998e7 0.0
1.6885246389057998e7 1.9678012043378695e6 0.0
0.0 0.0 0.0

-8.51079182600063e6 -4.206375056366494e6 0.0
-4.206375056366494e6 1.236345548598505e7 0.0
0.0 0.0 0.0

4.621486972493086e6 5.281052134333451e6 0.0
5.281052134333451e6 -1.2290954541897738e7 0.0
0.0 0.0 0.0

-6.565344470497113e6 1.4789974525373487e7 0.0
1.4789974525373487e7 6.525662617794904e6 0.0
0.0 0.0 0.0

-2.8649776102392124e6 1.196593989211515e7 0.0
1.196593989211515e7 7.0798222016361095e6 0.0
0.0 0.0 0.0

-1.1525097711382173e6 1.2033413668247329e6 0.0
1.2033413668247329e6 2.824811818947824e6 0.0
0.0 0.0 0.0

-7.77741373260891e6 7.802225870923456e6 0.0
7.802225870923456e6 9.566817255605359e6 0.0
0.0 0.0 0.0

-3.5094264213628927e6 1.1959043963985702e7 0.0
1.1959043963985702e7 7.707044634993924e6 0.0
0.0 0.0 0.0

-1.2442475158348512e6 1.059583440508335e7 0.0
1.059583440508335e7 -4.575699000015135e6 0.0
0.0 0.0 0.0

322280.5969685707 1.027224972395251e7 0.0
1.027224972395251e7 -8.847081394100938e6 0.0
0.0 0.0 0.0

-5.51764037006353e6 1.5641738188337378e7 0.0
1.5641738188337378e7 965855.7295366712 0.0
0.0 0.0 0.0

66363.54759366496 4.605029329996171e6 0.0
4.605029329996171e6 -940943.7169730077 0.0
0.0 0.0 0.0

-3.7491622176192077e6 1.1035461849729985e7 0.0
1.1035461849729985e7 1.3688482876620148e6 0.0
0.0 0.0 0.0

-9.805238392476462e6 9.012937527108312e6 0.0
9.012937527108312e6 1.269843027305299e7 0.0
0.0 0.0 0.0

290077.84756672755 9.398104144415451e6 0.0
9.398104144415451e6 -5.572819517792885e6 0.0
0.0 0.0 0.0

-2.87896634091377e6 1.3947483499938535e7 0.0
1.3947483499938535e7 -3.9063996294501377e6 0.0
0.0 0.0 0.0

-8.396798673730114e6 2.0590138578005593e7 0.0
2.0590138578005593e7 4.779203534703745e6 0.0
0.0 0.0 0.0

1.7891941446182998e6 1.0338011490720894e7 0.0
1.0338011490720894e7 -1.2941327262369107e7 0.0
0.0 0.0 0.0

-3.0999922993672922e7 1.9909019553787787e7 0.0
1.9909019553787787e7 1.352406784789667e7 0.0
0.0 0.0 0.0

1.3435133702615125e6 4.825886131382982e6 0.0
4.825886131382982e6 -3.927764162875787e6 0.0
0.0 0.0 0.0

1.3511633842335085e6 4.818724552908372e6 0.0
4.818724552908372e6 -3.8070744296937287e6 0.0
0.0 0.0 0.0

-660403.161534888 1.3453787493499106e7 0.0
1.3453787493499106e7 5.748034741355717e6 0.0
0.0 0.0 0.0

-3.424087263581084e6 1.3182749473120946e7 0.0
1.3182749473120946e7 9.533250336742029e6 0.0
0.0 0.0 0.0

-919878.9651543373 1.2427722943517635e7 0.0
1.2427722943517635e7 1.3960002467601488e6 0.0
0.0 0.0 0.0

-6.720947754964224e6 6.814517223797731e6 0.0
6.814517223797731e6 8.305198358076429e6 0.0
0.0 0.0 0.0

604641.1806677463 4.523347032517256e6 0.0
4.523347032517256e6 -900827.166597031 0.0
0.0 0.0 0.0

-2.4286467878272804e6 1.2931840945333147e7 0.0
1.2931840945333147e7 2.777206717891711e6 0.0
0.0 0.0 0.0

-6.020759208509601e6 1.5841550066328168e7 0.0
1.5841550066328168e7 3.9044961840210794e6 0.0
0.0 0.0 0.0

1.4916853496282985e6 1.0675038755499681e7 0.0
1.0675038755499681e7 -1.3182962703189777e7 0.0
0.0 0.0 0.0

-2.1932827629460148e6 1.3078225935817499e7 0.0
1.3078225935817499e7 8.312787315002212e6 0.0
0.0 0.0 0.0

4.234502452810854e6 1.1406225531997187e7 0.0
1.1406225531997187e7 467809.1156016422 0.0
0.0 0.0 0.0

-2.107858957590069e7 2.0916594004681878e7 0.0
2.0916594004681878e7 1.2739374624215875e7 0.0
0.0 0.0 0.0

-1.6268526959829312e6 9.948796070938198e6 0.0
9.948796070938198e6 3.4463607100591757e6 0.0
0.0 0.0 0.0

-2.095331662909759e6 6.568210965536771e6 0.0
6.568210965536771e6 -360578.2894023198 0.0
0.0 0.0 0.0

-1.1239264059298616e7 4.701193895760676e6 0.0
4.701193895760676e6 1.2706542024833016e7 0.0
0.0 0.0 0.0

-5.964934072471997e6 1.541785913927849e7 0.0
1.541785913927849e7 3.174288624743029e6 0.0
0.0 0.0 0.0

-5.748479324840862e6 1.2931008194363395e7 0.0
1.2931008194363395e7 1.1114960150334084e7 0.0
0.0 0.0 0.0

-1.3293266028089415e7 -769702.8326241878 0.0
-769702.8326241878 3.1547410228740748e7 0.0
0.0 0.0 0.0

-2.5342203139945087e6 1.229659762281615e7 0.0
1.229659762281615e7 3.982066149906373e6 0.0
0.0 0.0 0.0

-2.66495187360019e6 1.164739180158294e7 0.0
1.164739180158294e7 -1.1730388999067878e7 0.0
0.0 0.0 0.0

-3.909880965334208e6 1.2688045263691807e7 0.0
1.2688045263691807e7 9.095311406008348e6 0.0
0.0 0.0 0.0

-7.4774818820790695e6 1.0939604434523806e7 0.0
1.0939604434523806e7 1.0122001207662635e7 0.0
0.0 0.0 0.0

-921724.2588471163 1.015233896892643e7 0.0
1.015233896892643e7 -4.893924574880365e6 0.0
0.0 0.0 0.0

-6.652287812942136e6 1.3714668972273817e7 0.0
1.3714668972273817e7 3.703971103702746e7 0.0
0.0 0.0 0.0

-1.5851066162687582e6 1.5839034821059294e7 0.0
1.5839034821059294e7 -4.211920035911124e6 0.0
0.0 0.0 0.0

-1857.967591164168 1.1760835336072631e7 0.0
1.1760835336072631e7 -8.4912241032267e6 0.0
0.0 0.0 0.0

-545383.7825607946 8.7098449193029e6 0.0
8.7098449193029e6 -3.5560201388303614e6 0.0
0.0 0.0 0.0

5.143267285139037e6 5.45513649267363e6 0.0
5.45513649267363e6 -1.4508614723578721e7 0.0
0.0 0.0 0.0

-8.066463044032383e6 1.9783029615148455e7 0.0
1.9783029615148455e7 5.1780398352496335e6 0.0
0.0 0.0 0.0

-1.143229217368278e7 5.20177106015331e6 0.0
5.20177106015331e6 1.30336194957503e7 0.0
0.0 0.0 0.0

-1.064868430738542e6 1.2302964958614407e7 0.0
1.2302964958614407e7 3.668348183737669e6 0.0
0.0 0.0 0.0

-5.9125086537006665e6 1.4238079217208665e7 0.0
1.4238079217208665e7 4.8099339248238355e6 0.0
0.0 0.0 0.0

-4.342957468096849e6 1.1833872367360063e7 0.0
1.1833872367360063e7 1.3333843029227047e6 0.0
0.0 0.0 0.0

-8.786512674188478e6 8.3846508198931385e6 0.0
8.3846508198931385e6 1.0250599558540069e7 0.0
0.0 0.0 0.0

1.7294058541317796e6 8.103247594699306e6 0.0
8.103247594699306e6 -9.07455132062216e6 0.0
0.0 0.0 0.0

-1.6300258577353477e7 1.8114593089309797e7 0.0
1.8114593089309797e7 1.122561241236477e7 0.0
0.0 0.0 0.0

6.4611641438796995e6 9.496641220160516e6 0.0
9.496641220160516e6 381559.268943456 0.0
0.0 0.0 0.0

-2.376297763282313e6 2.594166778817913e6 0.0
2.594166778817913e6 1.4766363157892914e6 0.0
0.0 0.0 0.0

-7.990632435038768e6 1.5853118080745736e7 0.0
1.5853118080745736e7 6.856930124507705e6 0.0
0.0 0.0 0.0

-1.865605420188631e7 7.595833433049134e6 0.0
7.595833433049134e6 1.008049204031731e7 0.0
0.0 0.0 0.0

-1.8622955665060554e6 1.3583437851737877e7 0.0
1.3583437851737877e7 -1.9693417774297295e6 0.0
0.0 0.0 0.0

-2.3523316535098772e7 1.761542347291826e7 0.0
1.761542347291826e7 6.628115945876591e6 0.0
0.0 0.0 0.0

-1.353254683120965e6 1.3557000316317009e7 0.0
1.3557000316317009e7 -1.3202587399848008e6 0.0
0.0 0.0 0.0

-7.280229956084114e6 1.0247290919441268e7 0.0
1.0247290919441268e7 8.309883748948377e6 0.0
0.0 0.0 0.0

-7.285993488834414e6 6.140115874439782e6 0.0
6.140115874439782e6 9.089725566627175e6 0.0
0.0 0.0 0.0

-6.608220086318626e6 8.2524281000553975e6 0.0
8.2524281000553975e6 5.129947155294546e6 0.0
0.0 0.0 0.0

-5.965579788826192e6 1.4027084115687761e7 0.0
1.4027084115687761e7 6.53085920329502e6 0.0
0.0 0.0 0.0

-1.0222842279563306e7 -3.9206207229985804e6 0.0
-3.9206207229985804e6 1.7908729110061564e7 0.0
0.0 0.0 0.0

172936.59915359213 8.915701694905125e6 0.0
8.915701694905125e6 -3.0685787191963205e6 0.0
0.0 0.0 0.0

939130.3529079505 8.424910028501704e6 0.0
8.424910028501704e6 -6.046538947481284e6 0.0
0.0 0.0 0.0

530580.5114920991 1.0870884495789941e7 0.0
1.0870884495789941e7 -8.1236412454555575e6 0.0
0.0 0.0 0.0

-3.9184674710628893e6 -1.389701793382099e6 0.0
-1.389701793382099e6 5.328497687841178e6 0.0
0.0 0.0 0.0

-215867.82822034264 9.127868384692147e6 0.0
9.127868384692147e6 -2.199027546906445e6 0.0
0.0 0.0 0.0

-6.021937628955292e6 1.4499962649208559e7 0.0
1.4499962649208559e7 5.412237928724758e6 0.0
0.0 0.0 0.0

-3.1761554328283463e6 1.3439416095756246e7 0.0
1.3439416095756246e7 7.381087414684117e6 0.0
0.0 0.0 0.0

-1.428508883490005e6 1.2189916875083825e7 0.0
1.2189916875083825e7 -5.228492632677604e6 0.0
0.0 0.0 0.0

-525232.2899578941 1.219612556995238e7 0.0
1.219612556995238e7 2019.185146760894 0.0
0.0 0.0 0.0

-7.815773713843434e6 1.8801784019486666e7 0.0
1.8801784019486666e7 3.424323838520974e6 0.0
0.0 0.0 0.0

-308118.2308680576 1.2856103139040302e7 0.0
1.2856103139040302e7 -6.578732990848223e6 0.0
0.0 0.0 0.0

2.859774049083161e7 1.4162761009035157e7 0.0
1.4162761009035157e7 -1.3443064347670022e6 0.0
0.0 0.0 0.0

1.785312991901858e6 1.1831060073491294e7 0.0
1.1831060073491294e7 -4.885647725152321e6 0.0
0.0 0.0 0.0

720225.270318321 1.131841879770491e7 0.0
1.131841879770491e7 -1.0413960707068078e7 0.0
0.0 0.0 0.0

-1.6416305498321478e6 1.3978371547916325e7 0.0
1.3978371547916325e7 -5.10366007848962e6 0.0
0.0 0.0 0.0

-1.754825892092042e7 1.2066742575175107e7 0.0
1.2066742575175107e7 8.962190546079604e6 0.0
0.0 0.0 0.0

-6.04306107244827e6 1.4339578348221308e7 0.0
1.4339578348221308e7 5.6985103245873675e6 0.0
0.0 0.0 0.0

5.131973698362006e6 1.1476465241815738e7 0.0
1.1476465241815738e7 -3.4615683328195307e6 0.0
0.0 0.0 0.0

1.2898621953367293e6 1.0814974763577295e7 0.0
1.0814974763577295e7 -1.4521949015927436e7 0.0
0.0 0.0 0.0

-1.056273405471676e6 1.3302850681380864e7 0.0
1.3302850681380864e7 6.833143366245441e6 0.0
0.0 0.0 0.0

3.760221504683655e6 6.179841455951445e6 0.0
6.179841455951445e6 -1.0559067391422853e7 0.0
0.0 0.0 0.0

-1.4256565709710047e6 1.4243013028363064e7 0.0
1.4243013028363064e7 -4.410822455781345e6 0.0
0.0 0.0 0.0

5.230868198108123e6 6.173099250606374e6 0.0
6.173099250606374e6 -1.677386049004231e7 0.0
0.0 0.0 0.0

-2.796809502205555e6 1.3666925167451113e7 0.0
1.3666925167451113e7 -3.7049856304234196e6 0.0
0.0 0.0 0.0

-2.1675398325591525e6 1.6118597704097582e7 0.0
1.6118597704097582e7 -2.6824894965766687e6 0.0
0.0 0.0 0.0

-3.9593632260208307e6 1.1731407095525159e7 0.0
1.1731407095525159e7 1.2206168326162002e6 0.0
0.0 0.0 0.0

-1.0768296197359866e7 1.5197226007873353e7 0.0
1.5197226007873353e7 8.693195603989832e6 0.0
0.0 0.0 0.0

-8.300404422429592e6 1.0942963180501131e7 0.0
1.0942963180501131e7 1.0029558465669913e7 0.0
0.0 0.0 0.0

-2.0402132847387195e6 9.418450498490091e6 0.0
9.418450498490091e6 2.450539691413451e6 0.0
0.0 0.0 0.0

-2.3291915163050964e7 1.316225913483544e7 0.0
1.316225913483544e7 1.3200549497236874e7 0.0
0.0 0.0 0.0

2.799542085564663e6 1.1129599151551435e7 0.0
1.1129599151551435e7 2.9962243692312622e6 0.0
0.0 0.0 0.0

-2.429111555469086e6 7.968534828199113e6 0.0
7.968534828199113e6 -443043.8548174821 0.0
0.0 0.0 0.0

-7.119025242286697e6 1.565831857723523e7 0.0
1.565831857723523e7 6.436416850819481e6 0.0
0.0 0.0 0.0

-1.7429643599773475e6 1.3877124062366629e7 0.0
1.3877124062366629e7 -1.3854753792118307e6 0.0
0.0 0.0 0.0

349598.50045384956 9.629976864742322e6 0.0
9.629976864742322e6 -5.873744389788371e6 0.0
0.0 0.0 0.0

4.781879426278742e6 5.230230380375866e6 0.0
5.230230380375866e6 -1.2789575908511844e7 0.0
0.0 0.0 0.0

839171.7310831482 9.810243746809348e6 0.0
9.810243746809348e6 -6.790615563021882e6 0.0
0.0 0.0 0.0

1.74295970955468e7 6.23101843064637e6 0.0
6.23101843064637e6 -4.104995701726227e6 0.0
0.0 0.0 0.0

-8.075048439326784e6 1.1027670430650424e7 0.0
1.1027670430650424e7 1.0753386657802323e7 0.0
0.0 0.0 0.0

-7.244645348425986e6 1.5516434440743135e7 0.0
1.5516434440743135e7 6.511205741215013e6 0.0
0.0 0.0 0.0

-6.201225349636757e6 -8.83379635333186e6 0.0
-8.83379635333186e6 1.3774431516116407e7 0.0
0.0 0.0 0.0

-8.521471162540795e6 1.813528372761457e7 0.0
1.813528372761457e7 6.28879459376131e6 0.0
0.0 0.0 0.0

-1.5398537267405048e7 1.0245781928777141e7 0.0
1.0245781928777141e7 8.461395336029273e6 0.0
0.0 0.0 0.0

-347367.292393432 1.199251525491222e7 0.0
1.199251525491222e7 -7.935325800068652e6 0.0
0.0 0.0 0.0

-581923.7895939273 1.3102655479728267e7 0.0
1.3102655479728267e7 4.8320511499823e6 0.0
0.0 0.0 0.0

-557727.6720591128 9.673811142468514e6 0.0
9.673811142468514e6 62899.06532875716 0.0
0.0 0.0 0.0

-6.008495011101307e6 1.235575227465438e7 0.0
1.235575227465438e7 5.210390671725422e6 0.0
0.0 0.0 0.0

94913.73315062211 9.301895649881605e6 0.0
9.301895649881605e6 -6.32593543858001e6 0.0
0.0 0.0 0.0

2.2278408762825686e6 7.876312433159582e6 0.0
7.876312433159582e6 -8.706661704746846e6 0.0
0.0 0.0 0.0

182834.14937157067 7.068232943307703e6 0.0
7.068232943307703e6 -4.40493028790795e6 0.0
0.0 0.0 0.0

-6.9712156631332515e6 1.5499470970423132e7 0.0
1.5499470970423132e7 6.185433804654204e6 0.0
0.0 0.0 0.0

-1.5290407642786538e6 1.0728813444125872e7 0.0
1.0728813444125872e7 -4.0264228453167374e6 0.0
0.0 0.0 0.0

6.444719653725416e6 9.49654935680001e6 0.0
9.49654935680001e6 379696.91828733264 0.0
0.0 0.0 0.0

4.823318578705914e6 5.198235008744964e6 0.0
5.198235008744964e6 -1.2842880709834002e7 0.0
0.0 0.0 0.0

-1.9864650363409228e6 1.299003054436643e7 0.0
1.299003054436643e7 5.025952334325135e6 0.0
0.0 0.0 0.0

568288.7385936298 7.064649697866655e6 0.0
7.064649697866655e6 -4.989288642112635e6 0.0
0.0 0.0 0.0

-4.980316884421051e6 1.5822036094786419e7 0.0
1.5822036094786419e7 1.247382491263711e6 0.0
0.0 0.0 0.0

-1.1810081033643878e6 1.2368346955747416e7 0.0
1.2368346955747416e7 2.222403675538966e6 0.0
0.0 0.0 0.0

-1.182173288495688e7 1.5124125026128513e6 0.0
1.5124125026128513e6 1.8013268566349518e7 0.0
0.0 0.0 0.0

-208353.48724191572 5.475716966266516e6 0.0
5.475716966266516e6 -1.4948227356152958e6 0.0
0.0 0.0 0.0

-2.9325596700034197e6 1.6400066130966902e7 0.0
1.6400066130966902e7 -3.1205409237183155e6 0.0
0.0 0.0 0.0

-2.7520126924417038e7 4.72789101993416e6 0.0
4.72789101993416e6 1.196006631537605e7 0.0
0.0 0.0 0.0

582017.296990945 1.1375511087130615e7 0.0
1.1375511087130615e7 -9.660684058758838e6 0.0
0.0 0.0 0.0

-3.5325765361148026e6 9.297320997196997e6 0.0
9.297320997196997e6 5.057228395842584e6 0.0
0.0 0.0 0.0

-6.811181477900555e6 9.900031788187519e6 0.0
9.900031788187519e6 7.543783443561097e6 0.0
0.0 0.0 0.0

-2.9713122389350258e7 5.250560275055163e6 0.0
5.250560275055163e6 1.2295966281965785e7 0.0
0.0 0.0 0.0

765141.9035862051 1.105292977911934e7 0.0
1.105292977911934e7 -1.0557633867220722e7 0.0
0.0 0.0 0.0

-1.5635247234353153e6 1.3516858466312101e7 0.0
1.3516858466312101e7 -4.854306156837028e6 0.0
0.0 0.0 0.0

643163.7852307854 5.466209348675058e6 0.0
5.466209348675058e6 -4.0483361119326525e6 0.0
0.0 0.0 0.0

-3.387191339847744e6 1.4296031803575778e7 0.0
1.4296031803575778e7 -574131.8103029623 0.0
0.0 0.0 0.0

-4.540651170073499e6 1.7898288642209623e7 0.0
1.7898288642209623e7 -467418.8858304188 0.0
0.0 0.0 0.0

-7.255685921167799e6 1.6616597509855641e7 0.0
1.6616597509855641e7 5.238463994320125e6 0.0
0.0 0.0 0.0

-5.527088235833104e6 1.1990195979567694e7 0.0
1.1990195979567694e7 2.9081540777652487e6 0.0
0.0 0.0 0.0

-1.0813935236503538e7 6.9592753990409365e6 0.0
6.9592753990409365e6 1.3913230270084321e7 0.0
0.0 0.0 0.0

-4.570569425206525e6 1.3374613914044624e7 0.0
1.3374613914044624e7 6.06848136257809e6 0.0
0.0 0.0 0.0

-8.374567140144116e6 1.768802453971202e7 0.0
1.768802453971202e7 6.045912491809743e6 0.0
0.0 0.0 0.0

725976.519411643 8.354336217641681e6 0.0
8.354336217641681e6 -6.774024202123096e6 0.0
0.0 0.0 0.0

-8.021207183917551e6 1.7343188320521828e7 0.0
1.7343188320521828e7 5.790063351556739e6 0.0
0.0 0.0 0.0

-4.3101794132727785e6 1.334965267489744e7 0.0
1.334965267489744e7 1.0071454501965795e7 0.0
0.0 0.0 0.0

-1.0313823467231045e7 5.216948032161649e6 0.0
5.216948032161649e6 1.3467938714485928e7 0.0
0.0 0.0 0.0

4.593182214990071e6 5.58987603310592e6 0.0
5.58987603310592e6 -1.3428716268754577e7 0.0
0.0 0.0 0.0

-7.083279402731983e6 1.4257973216682747e7 0.0
1.4257973216682747e7 4.993496352440562e6 0.0
0.0 0.0 0.0

-4.729513646144437e6 1.4009026838079559e7 0.0
1.4009026838079559e7 544715.8596883784 0.0
0.0 0.0 0.0

-4.217935061846226e6 1.419837735292954e7 0.0
1.419837735292954e7 44955.45242974465 0.0
0.0 0.0 0.0

-3.286448032399234e7 2.7508320008855224e7 0.0
2.7508320008855224e7 -6.848595278392153e6 0.0
0.0 0.0 0.0

6122.833801844623 1.224736483047652e7 0.0
1.224736483047652e7 -7.526300654597516e6 0.0
0.0 0.0 0.0

-5.5616761946577765e6 1.519600440793356e7 0.0
1.519600440793356e7 3.2242222082568062e6 0.0
0.0 0.0 0.0

-7.800698658788299e6 1.0631683034140326e7 0.0
1.0631683034140326e7 7.664192521181488e6 0.0
0.0 0.0 0.0

-2.0080989753700368e7 9.10131542853708e6 0.0
9.10131542853708e6 1.1383855746231312e7 0.0
0.0 0.0 0.0

-92683.99552413571 1.2141758052245809e7 0.0
1.2141758052245809e7 -1.1538321050560176e6 0.0
0.0 0.0 0.0

-6.567009223296251e6 1.2337938147720264e7 0.0
1.2337938147720264e7 1.2193725732496696e7 0.0
0.0 0.0 0.0

5.527364931794463e6 5.050227355987969e6 0.0
5.050227355987969e6 -1.5271826986703824e7 0.0
0.0 0.0 0.0

-1.743625178640273e7 1.5530628733855154e7 0.0
1.5530628733855154e7 1.2088739552032094e7 0.0
0.0 0.0 0.0

-8.68350654508032e6 -5.695994238408222e6 0.0
-5.695994238408222e6 1.6013700040036824e7 0.0
0.0 0.0 0.0

-1.001175094892132e7 -5.868347516107723e6 0.0
-5.868347516107723e6 2.0672375105843905e7 0.0
0.0 0.0 0.0

152011.24539749033 5.428194429475621e6 0.0
5.428194429475621e6 -1.4516018924577623e6 0.0
0.0 0.0 0.0

-1.1327905590620395e7 5.69234167763542e6 0.0
5.69234167763542e6 1.5021944959648106e7 0.0
0.0 0.0 0.0

-7.124272961454641e6 9.898338820036635e6 0.0
9.898338820036635e6 8.885494616469132e6 0.0
0.0 0.0 0.0

1.0777358541179951e6 1.0979210338773245e7 0.0
1.0979210338773245e7 -1.0761233482863039e7 0.0
0.0 0.0 0.0

-2.485892608309876e7 2.0174111493553843e7 0.0
2.0174111493553843e7 1.3652814492749818e7 0.0
0.0 0.0 0.0

-1.0414636701471414e7 5.758047764466198e6 0.0
5.758047764466198e6 1.3875915960812658e7 0.0
0.0 0.0 0.0

1.3633228695103666e6 1.0740212511317013e7 0.0
1.0740212511317013e7 -1.4710773377595957e7 0.0
0.0 0.0 0.0

-1.4006682042334372e7 8.799952488176212e6 0.0
8.799952488176212e6 9.075382907032501e6 0.0
0.0 0.0 0.0

-9.189687444484245e6 -6.269796944790561e6 0.0
-6.269796944790561e6 2.091461531211809e7 0.0
0.0 0.0 0.0

-958550.1443545562 1.1467038746754183e7 0.0
1.1467038746754183e7 -6.345785113575121e6 0.0
0.0 0.0 0.0

-958553.9848603345 1.2068077748521883e7 0.0
1.2068077748521883e7 -1.4824930884592777e7 0.0
0.0 0.0 0.0

-1.026018040483579e6 1.3294421670989158e7 0.0
1.3294421670989158e7 -1.5063603968741593e6 0.0
0.0 0.0 0.0

-1.204802471881149e7 7.081612136448722e6 0.0
7.081612136448722e6 8.1017547546220925e6 0.0
0.0 0.0 0.0

1.3761539009052824e7 1.4930614773396056e7 0.0
1.4930614773396056e7 2.0108119935125653e6 0.0
0.0 0.0 0.0

-563751.6202070048 7.355033503207399e6 0.0
7.355033503207399e6 -3.690576921386514e6 0.0
0.0 0.0 0.0

314151.4410628076 1.0965172060231464e7 0.0
1.0965172060231464e7 -7.359991951305017e6 0.0
0.0 0.0 0.0

490388.17023083987 9.96924460464206e6 0.0
9.96924460464206e6 -8.10034284940424e6 0.0
0.0 0.0 0.0

5.719444149673764e6 5.145508726915164e6 0.0
5.145508726915164e6 -1.5369359792475639e7 0.0
0.0 0.0 0.0

-4.742227921445923e6 1.5095249805061411e7 0.0
1.5095249805061411e7 1.3970662368985938e6 0.0
0.0 0.0 0.0

444268.1242035553 1.0927238384289524e7 0.0
1.0927238384289524e7 -1.0911303860484615e7 0.0
0.0 0.0 0.0

172397.70435649483 1.2925752498999363e7 0.0
1.2925752498999363e7 -6.691000303978544e6 0.0
0.0 0.0 0.0

7763.077723612543 9.657203265260464e6 0.0
9.657203265260464e6 -1.6032996217340496e6 0.0
0.0 0.0 0.0

-2.2809665321562067e6 7.9493816437534755e6 0.0
7.9493816437534755e6 86420.71767293301 0.0
0.0 0.0 0.0

-6.344777471198745e6 1.198048930334488e7 0.0
1.198048930334488e7 4.633104376302917e6 0.0
0.0 0.0 0.0

-5.069325595449103e6 1.3083325518748311e7 0.0
1.3083325518748311e7 8.586790187584355e6 0.0
0.0 0.0 0.0

4.281791846834954e6 5.521485575414363e6 0.0
5.521485575414363e6 -1.1252092020402992e7 0.0
0.0 0.0 0.0

-8.574960324574191e6 3.2443076667266004e6 0.0
3.2443076667266004e6 3.1519295575742987e6 0.0
0.0 0.0 0.0

-3.794066373041521e6 1.2428287026812466e7 0.0
1.2428287026812466e7 8.804199810559565e6 0.0
0.0 0.0 0.0

673152.6324280794 1.1353725170994136e7 0.0
1.1353725170994136e7 -9.1431776709916e6 0.0
0.0 0.0 0.0

2.5603245097049817e7 7.233059117947502e6 0.0
7.233059117947502e6 -3.7715522538066953e6 0.0
0.0 0.0 0.0

1.0074788279496804e6 1.1337352227250073e7 0.0
1.1337352227250073e7 -9.5721472460741e6 0.0
0.0 0.0 0.0

-4.890534683640104e6 1.4612048533059834e7 0.0
1.4612048533059834e7 253127.46642636554 0.0
0.0 0.0 0.0

-4.813944601752757e6 1.2577166256846558e7 0.0
1.2577166256846558e7 1.3692199308159528e6 0.0
0.0 0.0 0.0

-4.4397178907236215e6 1.3686083129969787e7 0.0
1.3686083129969787e7 2.2659366103186607e7 0.0
0.0 0.0 0.0

-1.142593351302466e7 4.994903872172907e6 0.0
4.994903872172907e6 1.5727822528300818e7 0.0
0.0 0.0 0.0

-7.043931143925873e6 -9.031943880857177e6 0.0
-9.031943880857177e6 1.5191320083989326e7 0.0
0.0 0.0 0.0

-1.2510924755155766e7 102197.19728970212 0.0
102197.19728970212 1.802920369148038e7 0.0
0.0 0.0 0.0

-6.992943422545308e6 1.610990228966512e7 0.0
1.610990228966512e7 5.079860291974975e6 0.0
0.0 0.0 0.0

1.8663350160197695e6 8.615233309870033e6 0.0
8.615233309870033e6 -9.555108909763493e6 0.0
0.0 0.0 0.0

-6.59221171038727e6 1.333988150619526e7 0.0
1.333988150619526e7 6.986047108196985e6 0.0
0.0 0.0 0.0

-374377.11516766157 1.2457303436544025e7 0.0
1.2457303436544025e7 -6.964394662666976e6 0.0
0.0 0.0 0.0

-6.972740974530382e6 9.042450906664006e6 0.0
9.042450906664006e6 5.683635788020625e6 0.0
0.0 0.0 0.0

-6.05431900277892e6 1.4569758083638998e7 0.0
1.4569758083638998e7 6.13140984193044e6 0.0
0.0 0.0 0.0

-507518.6568200268 1.5543080742981417e7 0.0
1.5543080742981417e7 -4.7411914991612e6 0.0
0.0 0.0 0.0

-5.790348622630805e6 1.2976094174721118e7 0.0
1.2976094174721118e7 7.196392681954799e6 0.0
0.0 0.0 0.0

-6.796217016755755e6 1.2895882245200986e7 0.0
1.2895882245200986e7 7.438151830976469e6 0.0
0.0 0.0 0.0

-250718.1232323302 1.0361551586127618e7 0.0
1.0361551586127618e7 -8.690421836465638e6 0.0
0.0 0.0 0.0

-1.0848125642187618e7 5.745167661048882e6 0.0
5.745167661048882e6 1.2350780731704306e7 0.0
0.0 0.0 0.0

-6.8223573356812745e6 1.6127773119709672e7 0.0
1.6127773119709672e7 5.659409491714096e6 0.0
0.0 0.0 0.0

3.6068890643344168e6 6.016308684397669e6 0.0
6.016308684397669e6 -1.1014816471405644e7 0.0
0.0 0.0 0.0

-1.245705550108469e7 -2.611989459451725e6 0.0
-2.611989459451725e6 3.0932707545776434e7 0.0
0.0 0.0 0.0

-756925.3983886213 1.2962608781812597e7 0.0
1.2962608781812597e7 -2.142343040660075e6 0.0
0.0 0.0 0.0

-7.235566408113219e6 1.6402761847180456e7 0.0
1.6402761847180456e7 5.450050480175467e6 0.0
0.0 0.0 0.0

2.225408168209434e6 9.723470056149587e6 0.0
9.723470056149587e6 -1.111092148647969e7 0.0
0.0 0.0 0.0

-5.4845792967293225e6 1.5172575101335205e7 0.0
1.5172575101335205e7 1.2146804135907853e6 0.0
0.0 0.0 0.0

1.992135563076219e6 7.814311439189893e6 0.0
7.814311439189893e6 -9.524010689505052e6 0.0
0.0 0.0 0.0

-1.0843403289778478e7 4.657427008023817e6 0.0
4.657427008023817e6 1.4123409982987992e7 0.0
0.0 0.0 0.0

-3.1436705283123825e7 2.146882413834062e7 0.0
2.146882413834062e7 1.0793055801090471e7 0.0
0.0 0.0 0.0

-5.631681736096399e6 1.3207633761490924e7 0.0
1.3207633761490924e7 1.806720805001482e6 0.0
0.0 0.0 0.0

-6.108061574969741e6 1.3740068106399925e7 0.0
1.3740068106399925e7 6.7335053990352675e6 0.0
0.0 0.0 0.0

7373.827549668058 2.349825480618203e6 0.0
2.349825480618203e6 248029.85185283376 0.0
0.0 0.0 0.0

-6.664195981657217e6 1.2774671677223306e7 0.0
1.2774671677223306e7 1.1334300246041496e6 0.0
0.0 0.0 0.0

-6.205265524220368e6 1.4674798371820487e7 0.0
1.4674798371820487e7 5.8004355581062045e6 0.0
0.0 0.0 0.0

4.876853472151748e6 5.463285995059588e6 0.0
5.463285995059588e6 -1.366566433003069e7 0.0
0.0 0.0 0.0

-6.171484136405304e6 8.319580039881798e6 0.0
8.319580039881798e6 6.56803218104654e6 0.0
0.0 0.0 0.0

-7.493827955871678e6 6.987149872854076e6 0.0
6.987149872854076e6 9.36099858875436e6 0.0
0.0 0.0 0.0

-6.653434368473655e6 1.9002419471667405e7 0.0
1.9002419471667405e7 3.6694274655666766e6 0.0
0.0 0.0 0.0

-4.52968317075127e6 2.3565867296526763e6 0.0
2.3565867296526763e6 3.191420119163409e6 0.0
0.0 0.0 0.0

-1.1150938351075944e7 6.317690489399573e6 0.0
6.317690489399573e6 1.304601921133016e7 0.0
0.0 0.0 0.0

-7.012538440248928e6 1.6855124698277526e7 0.0
1.6855124698277526e7 5.668510202562446e6 0.0
0.0 0.0 0.0

-1.0451400175611682e7 -5.901417047512106e6 0.0
-5.901417047512106e6 2.340399255669917e7 0.0
0.0 0.0 0.0

-1.0106406205627949e6 2.50804353612545e6 0.0
2.50804353612545e6 1.1509826035511377e6 0.0
0.0 0.0 0.0

3.096646068155637e6 6.794071020788913e6 0.0
6.794071020788913e6 -1.0466595217409933e7 0.0
0.0 0.0 0.0

-6.317625403872676e6 1.2312597552719545e7 0.0
1.2312597552719545e7 5.330239047901057e6 0.0
0.0 0.0 0.0

-1.1580842910685105e7 6.215390120557372e6 0.0
6.215390120557372e6 1.3650899927160434e7 0.0
0.0 0.0 0.0

-1.2321622800405403e6 1.2014713566449195e7 0.0
1.2014713566449195e7 -6.1578098547134865e6 0.0
0.0 0.0 0.0

-361328.93224642426 1.158342887785134e7 0.0
1.158342887785134e7 -6.424555771913495e6 0.0
0.0 0.0 0.0

2.0184443267814247e6 8.525598029003132e6 0.0
8.525598029003132e6 -1.0140454811202522e7 0.0
0.0 0.0 0.0

855419.4162948788 1.1192080457872031e7 0.0
1.1192080457872031e7 -1.0262340538040068e7 0.0
0.0 0.0 0.0

-1.2616203479982717e6 9.516570492314998e6 0.0
9.516570492314998e6 2.093492269328703e6 0.0
0.0 0.0 0.0

-1.1740536503909767e7 7.151819714432395e6 0.0
7.151819714432395e6 1.2946817935605451e7 0.0
0.0 0.0 0.0

-5.10508857591329e6 1.4893007596677125e7 0.0
1.4893007596677125e7 399270.7933223273 0.0
0.0 0.0 0.0

-6.931202230534859e6 1.547476355230558e7 0.0
1.547476355230558e7 6.364203774329653e6 0.0
0.0 0.0 0.0

-6.732365530766539e6 1.6360035908098329e7 0.0
1.6360035908098329e7 5.4996974292717865e6 0.0
0.0 0.0 0.0

2.684832953041427e6 1.791712779477587e7 0.0
1.791712779477587e7 3.1612924241290197e7 0.0
0.0 0.0 0.0

-5.769711974606803e6 1.258908819544809e7 0.0
1.258908819544809e7 5.028943685893364e6 0.0
0.0 0.0 0.0

-22155.977325676475 1.1168802744917015e7 0.0
1.1168802744917015e7 -6.782019268914195e6 0.0
0.0 0.0 0.0

668087.9931474035 1.1428624626152016e7 0.0
1.1428624626152016e7 -1.0036526102951081e7 0.0
0.0 0.0 0.0

375476.5746216811 1.1168421936741022e7 0.0
1.1168421936741022e7 -7.630014952629626e6 0.0
0.0 0.0 0.0

-5.883434074478057e6 1.6255534938428897e7 0.0
1.6255534938428897e7 3.137011365126758e6 0.0
0.0 0.0 0.0

-5.906263319993293e6 1.177016158225868e7 0.0
1.177016158225868e7 4.0656231462101303e6 0.0
0.0 0.0 0.0

151218.8528986689 9.102691122137595e6 0.0
9.102691122137595e6 -842487.9577989143 0.0
0.0 0.0 0.0

754034.9111648509 1.15047024475688e7 0.0
1.15047024475688e7 -8.87219533719569e6 0.0
0.0 0.0 0.0

-2.684642452648727e6 7.970193546441265e6 0.0
7.970193546441265e6 115895.1488216091 0.0
0.0 0.0 0.0

-9.178911336318966e6 2.1887022361791853e7 0.0
2.1887022361791853e7 5865.052950521 0.0
0.0 0.0 0.0

5.6512178162239175e6 5.997023404449609e6 0.0
5.997023404449609e6 -1.7621380869404666e7 0.0
0.0 0.0 0.0

2.9011729461591706e7 1.4198768209167473e7 0.0
1.4198768209167473e7 267095.94001371413 0.0
0.0 0.0 0.0

8.87660851135143e6 1.9401190967193935e7 0.0
1.9401190967193935e7 -2.2852951356067028e7 0.0
0.0 0.0 0.0

-2.996634610771089e6 1.2411053576793341e7 0.0
1.2411053576793341e7 5.185726109159177e6 0.0
0.0 0.0 0.0

-1.479731029277517e6 1.0053077869431537e7 0.0
1.0053077869431537e7 3.5408939933589213e6 0.0
0.0 0.0 0.0

-1.1009885294347085e7 1.2529503189966362e7 0.0
1.2529503189966362e7 4.1702586794970133e6 0.0
0.0 0.0 0.0

-3.2269476997085217e7 1.35512223157787e7 0.0
1.35512223157787e7 8.630428694065057e6 0.0
0.0 0.0 0.0

-3.2153139494916075e6 7.533743164704727e6 0.0
7.533743164704727e6 1.788499261753583e6 0.0
0.0 0.0 0.0

-4.767189567384217e6 1.4294843730364854e7 0.0
1.4294843730364854e7 1.879999744250043e6 0.0
0.0 0.0 0.0

553253.1895972155 1.071917887235549e7 0.0
1.071917887235549e7 -7.871936993000243e6 0.0
0.0 0.0 0.0

4.934190758624983e6 7.466539240567823e6 0.0
7.466539240567823e6 -1.682830626836058e7 0.0
0.0 0.0 0.0

83688.00550911855 1.0876860584114328e7 0.0
1.0876860584114328e7 -8.118745932258784e6 0.0
0.0 0.0 0.0

1.4584718264849186e6 1.0524943319043625e7 0.0
1.0524943319043625e7 -1.398209275980528e7 0.0
0.0 0.0 0.0

-7.84826729073526e6 7.129286697933372e6 0.0
7.129286697933372e6 7.888030081911381e6 0.0
0.0 0.0 0.0

-3.8114696519957026e6 1.3088786315550374e7 0.0
1.3088786315550374e7 6.8382660121604875e6 0.0
0.0 0.0 0.0

-1.6197382900576664e6 8.74651304140228e6 0.0
8.74651304140228e6 1.3658782688294505e6 0.0
0.0 0.0 0.0

-2.047978791598319e6 359168.86587086215 0.0
359168.86587086215 1.4638572539217002e6 0.0
0.0 0.0 0.0

-1.2052965516222293e7 -1.0965795172066346e6 0.0
-1.0965795172066346e6 1.727259818313068e7 0.0
0.0 0.0 0.0

-6.450681814717088e6 1.434087698701223e7 0.0
1.434087698701223e7 5.790530907809196e6 0.0
0.0 0.0 0.0

-5.131848691550649e6 1.3149499003799979e7 0.0
1.3149499003799979e7 8.667262966521487e6 0.0
0.0 0.0 0.0

-6.212067557525825e6 9.57815283113844e6 0.0
9.57815283113844e6 6.548014688305129e6 0.0
0.0 0.0 0.0

-46273.218163378304 6.010033800702224e6 0.0
6.010033800702224e6 -2.507549744936823e6 0.0
0.0 0.0 0.0

-1.320306193395087e7 7.647545947823389e6 0.0
7.647545947823389e6 3.145307897027774e7 0.0
0.0 0.0 0.0

-4.0140116521500614e6 1.1580403947020814e7 0.0
1.1580403947020814e7 1.5350291044546196e6 0.0
0.0 0.0 0.0

-4.73137891353044e6 1.4662349893101193e7 0.0
1.4662349893101193e7 -405180.4256341893 0.0
0.0 0.0 0.0

-5.125241941447595e6 1.3140594575906098e7 0.0
1.3140594575906098e7 8.701214472582255e6 0.0
0.0 0.0 0.0

-2.635056672749333e6 7.8633445791191915e6 0.0
7.8633445791191915e6 588684.804743235 0.0
0.0 0.0 0.0

-979485.7133085872 1.5584685370313397e7 0.0
1.5584685370313397e7 -3.8041635852978346e6 0.0
0.0 0.0 0.0

-1.1483928485771367e7 -86929.29829320157 0.0
-86929.29829320157 3.7255090289587796e7 0.0
0.0 0.0 0.0

850307.0796198968 1.42802876578168e7 0.0
1.42802876578168e7 -4.87968592495553e6 0.0
0.0 0.0 0.0

-7.077459506719907e6 1.6382328960362304e7 0.0
1.6382328960362304e7 5.976159754224926e6 0.0
0.0 0.0 0.0

-638444.8984565497 1.0352723429896988e7 0.0
1.0352723429896988e7 -9.79367572237384e6 0.0
0.0 0.0 0.0

-5.794809740553443e6 1.2621877428819358e7 0.0
1.2621877428819358e7 7.281934099549955e6 0.0
0.0 0.0 0.0

-1.190160227474917e7 4.881381434484941e6 0.0
4.881381434484941e6 1.417075043947853e7 0.0
0.0 0.0 0.0

-4.816880777328007e6 1.6576346540971983e7 0.0
1.6576346540971983e7 1.061794580453046e6 0.0
0.0 0.0 0.0

1.7935260389062208e6 5.607549793184691e6 0.0
5.607549793184691e6 -6.076889311093865e6 0.0
0.0 0.0 0.0

-1.0042911097855622e7 2.0272463445976973e7 0.0
2.0272463445976973e7 4.613175091500577e6 0.0
0.0 0.0 0.0

639022.0938309715 1.1032834160421921e7 0.0
1.1032834160421921e7 1.6910791997592158e6 0.0
0.0 0.0 0.0

-3.947016152171383e6 1.3365538073544346e7 0.0
1.3365538073544346e7 347335.8573953337 0.0
0.0 0.0 0.0

4.373019851233526e6 6.394749225539492e6 0.0
6.394749225539492e6 -1.388326744563245e7 0.0
0.0 0.0 0.0

-1.113149688777451e6 1.3320975508385032e7 0.0
1.3320975508385032e7 -1.756238600680461e6 0.0
0.0 0.0 0.0

-4.229338782215524e6 1.3020943102274965e7 0.0
1.3020943102274965e7 9.827529336817596e6 0.0
0.0 0.0 0.0

-6.12043171910472e6 1.5402463110971943e7 0.0
1.5402463110971943e7 4.609792670899307e6 0.0
0.0 0.0 0.0

-1.7402489853573833e6 1.370542742600592e7 0.0
1.370542742600592e7 7.059321473345938e6 0.0
0.0 0.0 0.0

393461.8278465059 5.919749579103444e6 0.0
5.919749579103444e6 -2.355412862762233e6 0.0
0.0 0.0 0.0

-6.925956311739662e6 1.2498148948675718e7 0.0
1.2498148948675718e7 1.1991189375658125e7 0.0
0.0 0.0 0.0

-4.236744913734044e6 1.3704004636372749e7 0.0
1.3704004636372749e7 2.768577646231817e6 0.0
0.0 0.0 0.0

257186.1024008044 1.4902850766746845e7 0.0
1.4902850766746845e7 -4.7296424420317495e6 0.0
0.0 0.0 0.0

-2.0600124085056689e6 1.432793557840709e7 0.0
1.432793557840709e7 -4.523774629111145e6 0.0
0.0 0.0 0.0

-3.9518972048571757e6 1.7750181751940556e7 0.0
1.7750181751940556e7 -803619.9773475074 0.0
0.0 0.0 0.0

-1.2738077128614013e6 8.027879811717237e6 0.0
8.027879811717237e6 -98945.99366822181 0.0
0.0 0.0 0.0

-6.202727741792464e6 1.4052665903864475e7 0.0
1.4052665903864475e7 6.694769164006308e6 0.0
0.0 0.0 0.0

-6.608880086862022e6 1.79928384092005e7 0.0
1.79928384092005e7 1.3036080291096745e6 0.0
0.0 0.0 0.0

-751524.3374418337 1.2045644028966632e7 0.0
1.2045644028966632e7 -1.4122290708469009e7 0.0
0.0 0.0 0.0

-2.5151038538216907e6 6.867900599595044e6 0.0
6.867900599595044e6 92265.01667951769 0.0
0.0 0.0 0.0

-2.004927852754072e6 9.438614236171717e6 0.0
9.438614236171717e6 2.598475599786893e6 0.0
0.0 0.0 0.0

-5.668521860296173e6 1.7322782910836358e7 0.0
1.7322782910836358e7 208198.58905048692 0.0
0.0 0.0 0.0

783733.1011920515 1.1679427773073552e7 0.0
1.1679427773073552e7 -9.089541736936502e6 0.0
0.0 0.0 0.0

3.903282356939815e6 5.788771423734146e6 0.0
5.788771423734146e6 -1.0759084608946206e7 0.0
0.0 0.0 0.0

-1.1564400957924495e7 -5.235795322762844e6 0.0
-5.235795322762844e6 3.3386509353906196e7 0.0
0.0 0.0 0.0

2.373947235463233e6 9.81465847917088e6 0.0
9.81465847917088e6 -1.1793327712905135e7 0.0
0.0 0.0 0.0

-2.641852514542459e6 1.0537570353697171e7 0.0
1.0537570353697171e7 5.199662151260117e6 0.0
0.0 0.0 0.0

-7.045166877183283e6 7.701777637275001e6 0.0
7.701777637275001e6 8.72191832836773e6 0.0
0.0 0.0 0.0

-260297.71838123375 1.5072290948583724e7 0.0
1.5072290948583724e7 -4.978636371164043e6 0.0
0.0 0.0 0.0

2.531335596737656e6 6.111806833493463e6 0.0
6.111806833493463e6 -9.075881015804034e6 0.0
0.0 0.0 0.0

2.0848596037419464e6 1.180361651623982e7 0.0
1.180361651623982e7 -4.91121592168095e6 0.0
0.0 0.0 0.0

-2.749937067921074e6 1.2574811485204926e7 0.0
1.2574811485204926e7 8.0367964050260065e6 0.0
0.0 0.0 0.0

-6.643716950945427e6 2.2034738572595946e7 0.0
2.2034738572595946e7 -3.609137211601982e6 0.0
0.0 0.0 0.0

-773494.4873035196 1.397502118268902e7 0.0
1.397502118268902e7 -5.0787552452572435e6 0.0
0.0 0.0 0.0

-6.596665012341165e6 1.2805005433907945e7 0.0
1.2805005433907945e7 1.6364989180890981e7 0.0
0.0 0.0 0.0

4.665661195997958e6 5.302227373962637e6 0.0
5.302227373962637e6 -1.2276597628138402e7 0.0
0.0 0.0 0.0

-6.648512725973837e6 1.700501445443053e7 0.0
1.700501445443053e7 3.2963268328062613e6 0.0
0.0 0.0 0.0

2.4704694640084654e6 1.0306589964466142e7 0.0
1.0306589964466142e7 -915272.3798614604 0.0
0.0 0.0 0.0

-3.427867272355548e7 7.057840323711473e6 0.0
7.057840323711473e6 1.0173021197271949e7 0.0
0.0 0.0 0.0

-6.215839431880294e6 1.4755971034969155e7 0.0
1.4755971034969155e7 5.992358287318608e6 0.0
0.0 0.0 0.0

-2.0563445208895756e6 6.821451146844178e6 0.0
6.821451146844178e6 137696.55163915036 0.0
0.0 0.0 0.0

1.3123157504337458e6 1.106445709560769e7 0.0
1.106445709560769e7 -1.0855787276718251e7 0.0
0.0 0.0 0.0

-2.9495918989376635e6 1.2363523625376642e7 0.0
1.2363523625376642e7 4.443692700698757e6 0.0
0.0 0.0 0.0

748338.9889633916 1.0952865704200754e7 0.0
1.0952865704200754e7 -1.2873716250454426e7 0.0
0.0 0.0 0.0

5.535448372743231e6 5.365634673126183e6 0.0
5.365634673126183e6 -1.5067870731836583e7 0.0
0.0 0.0 0.0

1.719479160533706e7 1.1622035750399096e7 0.0
1.1622035750399096e7 -769630.8053605463 0.0
0.0 0.0 0.0

-6.268399913143885e7 2.9103317467409674e7 0.0
2.9103317467409674e7 35488.04690165818 0.0
0.0 0.0 0.0

-213096.4493309767 1.3240037582643878e7 0.0
1.3240037582643878e7 6.593564262177553e6 0.0
0.0 0.0 0.0

-3.536678972246769e6 1.3880922819403192e7 0.0
1.3880922819403192e7 -2.695387037186363e6 0.0
0.0 0.0 0.0

-5.372140608582998e6 1.3188272959867831e7 0.0
1.3188272959867831e7 6.273622942959147e6 0.0
0.0 0.0 0.0

3.775864468363726e6 5.793342271903125e6 0.0
5.793342271903125e6 -1.0456225140074706e7 0.0
0.0 0.0 0.0

-4.684046771513877e6 1.3840217378050879e7 0.0
1.3840217378050879e7 3.770748237311903e6 0.0
0.0 0.0 0.0

-6.421881109110402e6 1.7452505926099557e7 0.0
1.7452505926099557e7 3.6045502813746496e6 0.0
0.0 0.0 0.0

381085.4300123211 1.1122238059853433e7 0.0
1.1122238059853433e7 -1.1183918437767278e7 0.0
0.0 0.0 0.0

-4.143181171244495e6 1.321155451669967e7 0.0
1.321155451669967e7 -391061.5737170549 0.0
0.0 0.0 0.0

1.1891512837562964e6 5.680647040618628e6 0.0
5.680647040618628e6 -5.04674733638688e6 0.0
0.0 0.0 0.0

-2.195882206240152e6 1.2250714211248977e7 0.0
1.2250714211248977e7 8.621578000678923e6 0.0
0.0 0.0 0.0

-3.829935537227858e6 1.3568599264443016e7 0.0
1.3568599264443016e7 262566.3569926338 0.0
0.0 0.0 0.0

-1.0839090316937752e6 1.1975043153558524e7 0.0
1.1975043153558524e7 -5.221070358152272e6 0.0
0.0 0.0 0.0

-5.4279331776098795e6 1.3289472907650335e7 0.0
1.3289472907650335e7 2.48597622106359e6 0.0
0.0 0.0 0.0

1.7288520524607664e6 9.901064337409059e6 0.0
9.901064337409059e6 -1.1387455978600774e7 0.0
0.0 0.0 0.0

-1.0707085230230043e7 -5.975809904406038e6 0.0
-5.975809904406038e6 2.3811802875123274e7 0.0
0.0 0.0 0.0

-253403.2997402614 1.1070383693731278e7 0.0
1.1070383693731278e7 -7.514597569984026e6 0.0
0.0 0.0 0.0

2.3762847420140966e6 1.0689823663588863e7 0.0
1.0689823663588863e7 -3.3097865795451263e6 0.0
0.0 0.0 0.0

-3.345296685087769e6 1.3667276596274043e7 0.0
1.3667276596274043e7 -1.6385647610476004e7 0.0
0.0 0.0 0.0

3.379378073425643e6 6.541868989183194e6 0.0
6.541868989183194e6 -1.029477503129451e7 0.0
0.0 0.0 0.0

227725.14278644463 1.1924531434669161e7 0.0
1.1924531434669161e7 -7.890075183472689e6 0.0
0.0 0.0 0.0

-6.129889618980678e6 1.450001881452835e7 0.0
1.450001881452835e7 6.306289283411093e6 0.0
0.0 0.0 0.0

-5.777022873064542e6 1.5071604385615587e7 0.0
1.5071604385615587e7 2.6099561782318735e6 0.0
0.0 0.0 0.0

-6.466376866853263e6 1.2893255994619664e7 0.0
1.2893255994619664e7 6.668899803625388e6 0.0
0.0 0.0 0.0

827512.9895636262 1.0547872951006776e7 0.0
1.0547872951006776e7 2.2970387278155815e6 0.0
0.0 0.0 0.0

-4.223094983480368e7 1.1819490796962084e7 0.0
1.1819490796962084e7 8.972885550245779e6 0.0
0.0 0.0 0.0

1.578764062314696e6 5.362878426278907e6 0.0
5.362878426278907e6 -3.17634537298692e6 0.0
0.0 0.0 0.0

165369.1827123752 8.647996732566098e6 0.0
8.647996732566098e6 -3.2693550232467577e6 0.0
0.0 0.0 0.0

4.396301286688993e6 1.1394150221952306e7 0.0
1.1394150221952306e7 -3.326753135427571e6 0.0
0.0 0.0 0.0

-7.874699467768131e6 1.795032428678147e7 0.0
1.795032428678147e7 6.507723500390939e6 0.0
0.0 0.0 0.0

1.4612144827669607e6 1.0706638809732074e7 0.0
1.0706638809732074e7 -1.4384652519175077e7 0.0
0.0 0.0 0.0

-1.1386915711558647e6 1.321191124171891e7 0.0
1.321191124171891e7 -1.957782844036917e6 0.0
0.0 0.0 0.0

-1.5037000386850592e6 1.4711115125714168e7 0.0
1.4711115125714168e7 -4.0355245327704134e6 0.0
0.0 0.0 0.0

285759.52176127955 1.0142523319310471e7 0.0
1.0142523319310471e7 -6.316322792543849e6 0.0
0.0 0.0 0.0

-942844.0813884225 1.44087126985196e7 0.0
1.44087126985196e7 -4.757362135703281e6 0.0
0.0 0.0 0.0

-833486.8405222915 1.2257110468485948e7 0.0
1.2257110468485948e7 1.3244940535521002e6 0.0
0.0 0.0 0.0

-5.317517602632131e6 1.499863644978334e7 0.0
1.499863644978334e7 2.613060842685816e6 0.0
0.0 0.0 0.0

2.6598069652421186e6 7.683083583756618e6 0.0
7.683083583756618e6 -9.838315843419235e6 0.0
0.0 0.0 0.0

4.858769516281053e6 5.451485695428087e6 0.0
5.451485695428087e6 -1.360165210189664e7 0.0
0.0 0.0 0.0

-1.7165741173825155e6 805547.483629068 0.0
805547.483629068 -1.1582862077439239e6 0.0
0.0 0.0 0.0

-3.285188886797187e6 -1.0489273641837633e6 0.0
-1.0489273641837633e6 835794.0331009291 0.0
0.0 0.0 0.0

-3.4210776118860673e6 1.1499965985590031e7 0.0
1.1499965985590031e7 7.287763917943411e6 0.0
0.0 0.0 0.0

-757131.9981366278 1.1885151843766533e7 0.0
1.1885151843766533e7 1.782741847154627e6 0.0
0.0 0.0 0.0

-1.2455236287983235e6 1.2218410580377793e7 0.0
1.2218410580377793e7 1.4707175815680595e6 0.0
0.0 0.0 0.0

2.178775406219575e6 5.16195734304477e6 0.0
5.16195734304477e6 -7.896099884560793e6 0.0
0.0 0.0 0.0

551733.1382640144 1.3508772035469024e7 0.0
1.3508772035469024e7 -5.716338826230308e6 0.0
0.0 0.0 0.0

1.183878337255979e6 5.191614522890249e6 0.0
5.191614522890249e6 -5.127395123377863e6 0.0
0.0 0.0 0.0

-1.1225612514076082e6 1.432709116242032e7 0.0
1.432709116242032e7 -4.499599442826232e6 0.0
0.0 0.0 0.0

-1.075858021447333e7 7.78671604899288e6 0.0
7.78671604899288e6 1.3760803329243673e7 0.0
0.0 0.0 0.0

-4.399772167829714e6 1.4817991172134386e7 0.0
1.4817991172134386e7 578939.7829320617 0.0
0.0 0.0 0.0

-5.193499847074321e6 1.7327312648849126e7 0.0
1.7327312648849126e7 1.8556850395283843e6 0.0
0.0 0.0 0.0

2.926796653085555e6 6.704297406560921e6 0.0
6.704297406560921e6 -1.0548573266995396e7 0.0
0.0 0.0 0.0

3.234890726513653e6 6.341679024508281e6 0.0
6.341679024508281e6 -1.0812677317195918e7 0.0
0.0 0.0 0.0

4.970133799092374e6 1.2382299528782904e7 0.0
1.2382299528782904e7 -6.008616937803203e6 0.0
0.0 0.0 0.0

-3.657422409930849e6 1.3285238900162905e7 0.0
1.3285238900162905e7 7.156715727545942e6 0.0
0.0 0.0 0.0

-636786.4945991088 1.1283216068205748e7 0.0
1.1283216068205748e7 -6.933341933621879e6 0.0
0.0 0.0 0.0

-6.230477936770329e6 -8.772408041418068e6 0.0
-8.772408041418068e6 1.3535384513582107e7 0.0
0.0 0.0 0.0

-7.377631673489841e6 1.718827628398832e7 0.0
1.718827628398832e7 5.957105155996846e6 0.0
0.0 0.0 0.0

-1.0015501942250593e7 6.33377620813989e6 0.0
6.33377620813989e6 1.2986190785856714e7 0.0
0.0 0.0 0.0

-693099.2521753404 2.9461666219237885e6 0.0
2.9461666219237885e6 -710659.6330386297 0.0
0.0 0.0 0.0

-1.0520207094250561e6 1.064264559293634e7 0.0
1.064264559293634e7 -3.9305052838460887e6 0.0
0.0 0.0 0.0

4.809547296528965e6 5.477365963921519e6 0.0
5.477365963921519e6 -1.322637611019098e7 0.0
0.0 0.0 0.0

-7.120104037563147e6 1.5664570016291147e7 0.0
1.5664570016291147e7 6.421161345428996e6 0.0
0.0 0.0 0.0

-3.5491117486028573e6 1.3174787862974524e7 0.0
1.3174787862974524e7 -264976.0222878221 0.0
0.0 0.0 0.0

2.0076559327975572e6 9.685572769169427e6 0.0
9.685572769169427e6 -1.1924871130071333e7 0.0
0.0 0.0 0.0

5.652566902565548e6 1.0439718291445827e7 0.0
1.0439718291445827e7 -1.8084791704892137e6 0.0
0.0 0.0 0.0

-6.932494833219644e6 1.5429573553504532e7 0.0
1.5429573553504532e7 6.397265921234732e6 0.0
0.0 0.0 0.0

-9.083694455424368e6 -6.102692267606437e6 0.0
-6.102692267606437e6 1.366218455151655e7 0.0
0.0 0.0 0.0

-2.839704361934684e6 -2.284402194722138e6 0.0
-2.284402194722138e6 2.8159592034896547e6 0.0
0.0 0.0 0.0

2.8964807790452936e6 1.0826078724173753e7 0.0
1.0826078724173753e7 -3.2966997375762975e6 0.0
0.0 0.0 0.0

-2.931966717871277e6 1.3755646963594286e7 0.0
1.3755646963594286e7 -2.4882458738773954e6 0.0
0.0 0.0 0.0

-3.0235897885925807e6 1.4118901107425218e7 0.0
1.4118901107425218e7 -2.3122649474024065e6 0.0
0.0 0.0 0.0

-1.1437396434853481e7 1.180809708197057e6 0.0
1.180809708197057e6 2.844158296355832e7 0.0
0.0 0.0 0.0

2.054729611678698e6 4.222195971840625e6 0.0
4.222195971840625e6 -6.805240515900818e6 0.0
0.0 0.0 0.0

-2.5364273512147386e6 1.3624343635284899e7 0.0
1.3624343635284899e7 -82250.18018567469 0.0
0.0 0.0 0.0

-4.791080051601786e6 1.36557371281138e7 0.0
1.36557371281138e7 -330043.88897724147 0.0
0.0 0.0 0.0

-1.884336430997809e7 1.277478866978798e7 0.0
1.277478866978798e7 8.279069553954825e6 0.0
0.0 0.0 0.0

-7.053625417545976e6 1.7512264530311894e7 0.0
1.7512264530311894e7 4.950754860264071e6 0.0
0.0 0.0 0.0

-283921.41664315877 1.1689309263440333e7 0.0
1.1689309263440333e7 -1.193000911038454e6 0.0
0.0 0.0 0.0

-8.962299535434958e6 -6.250882704051124e6 0.0
-6.250882704051124e6 1.4391278916740239e7 0.0
0.0 0.0 0.0

4.400736380142506e6 1.212059702328137e7 0.0
1.212059702328137e7 -5.378026299184261e6 0.0
0.0 0.0 0.0

-1.5055997060173345e6 1.1582672521070514e7 0.0
1.1582672521070514e7 -3.9098241447875923e6 0.0
0.0 0.0 0.0

-6.530374254585136e6 -1.3036936735884296e6 0.0
-1.3036936735884296e6 9.29665548184911e6 0.0
0.0 0.0 0.0

-6.874675492270317e6 1.3129180828181967e7 0.0
1.3129180828181967e7 6.20631742431047e6 0.0
0.0 0.0 0.0

-6.684900620899437e6 1.3955088367204703e7 0.0
1.3955088367204703e7 6.235794109600612e6 0.0
0.0 0.0 0.0

403961.1761651387 5.788352937694188e6 0.0
5.788352937694188e6 -2.8047764000300807e6 0.0
0.0 0.0 0.0

3.584516206517331e6 6.162236167065065e6 0.0
6.162236167065065e6 -1.1174974238247773e7 0.0
0.0 0.0 0.0

4.1708070839877753e6 7.999171160053631e6 0.0
7.999171160053631e6 -1.756297429977811e7 0.0
0.0 0.0 0.0

-2.944403078613606e6 1.1651515454422018e7 0.0
1.1651515454422018e7 7.738658958104908e6 0.0
0.0 0.0 0.0

1.7691432227806705e6 5.182828505217633e6 0.0
5.182828505217633e6 -6.367356046278587e6 0.0
0.0 0.0 0.0

2.0359670236659274e6 1.7403143480353303e7 0.0
1.7403143480353303e7 -8.711883222700654e6 0.0
0.0 0.0 0.0

3.980426958822258e6 5.9910505971546e6 0.0
5.9910505971546e6 -1.0899180337401237e7 0.0
0.0 0.0 0.0

2.663130592922388e6 5.71724787479938e6 0.0
5.71724787479938e6 -8.071025752484743e6 0.0
0.0 0.0 0.0

3.128808687230583e6 5.980233269302493e6 0.0
5.980233269302493e6 -9.695722121424949e6 0.0
0.0 0.0 0.0

-198717.7761737539 1.2112017329978151e7 0.0
1.2112017329978151e7 -594930.4052431006 0.0
0.0 0.0 0.0

-524067.18053846364 1.1814210512036236e7 0.0
1.1814210512036236e7 1.0672666409150036e6 0.0
0.0 0.0 0.0

1.6569432640285664e6 1.0670108961860584e7 0.0
1.0670108961860584e7 -1.1214798619341813e7 0.0
0.0 0.0 0.0

-871298.2256892719 1.870234928243582e7 0.0
1.870234928243582e7 -7.162634105713627e6 0.0
0.0 0.0 0.0

-6.136015239436504e6 -2.4517723690128997e6 0.0
-2.4517723690128997e6 7.659784636117566e6 0.0
0.0 0.0 0.0

-6.689359736540431e6 1.3638968233776785e7 0.0
1.3638968233776785e7 7.089245485455935e6 0.0
0.0 0.0 0.0

-7.577701205170123e6 1.6952560409490548e7 0.0
1.6952560409490548e7 5.538279250016427e6 0.0
0.0 0.0 0.0

-4.612153436703194e6 1.4766738041432412e7 0.0
1.4766738041432412e7 1.043515377011413e6 0.0
0.0 0.0 0.0

-1.3918975764861093e6 2.0352603606359528e6 0.0
2.0352603606359528e6 1.0439079574902359e6 0.0
0.0 0.0 0.0

-996390.1107846198 3.3210399786590445e6 0.0
3.3210399786590445e6 -214653.848095537 0.0
0.0 0.0 0.0

-2.2474210408278913e6 1.3302908437169798e7 0.0
1.3302908437169798e7 6.131155713433642e6 0.0
0.0 0.0 0.0

1.563260291627484e6 5.92961652810835e6 0.0
5.92961652810835e6 -3.0537601852830444e6 0.0
0.0 0.0 0.0

-1.1610894919245404e6 1.5306337484530693e7 0.0
1.5306337484530693e7 -4.500505119137482e6 0.0
0.0 0.0 0.0

-2.783475367467339e6 1.3410484055346444e7 0.0
1.3410484055346444e7 -3.75493197996979e6 0.0
0.0 0.0 0.0

612519.605851531 1.1885840432703864e7 0.0
1.1885840432703864e7 -8.655642422267241e6 0.0
0.0 0.0 0.0

-4.1408678361708387e6 1.2429655810188971e7 0.0
1.2429655810188971e7 1.525291976746126e6 0.0
0.0 0.0 0.0

-7.024228378291484e6 1.2587800363391148e7 0.0
1.2587800363391148e7 6.116040513274328e6 0.0
0.0 0.0 0.0

-7.964527723047355e6 7.39093118027186e6 0.0
7.39093118027186e6 1.0508717163496051e7 0.0
0.0 0.0 0.0

-1.7866546677025303e7 1.7708815582833268e7 0.0
1.7708815582833268e7 1.2089549938812874e7 0.0
0.0 0.0 0.0

1.9232266761638555e6 5.096414205631506e6 0.0
5.096414205631506e6 -6.223675521965392e6 0.0
0.0 0.0 0.0

-414876.7621682603 1.1349859803317893e7 0.0
1.1349859803317893e7 -6.229937544479646e6 0.0
0.0 0.0 0.0

5.805045577342215e6 6.049926359870414e6 0.0
6.049926359870414e6 -1.7797107559514537e7 0.0
0.0 0.0 0.0

-2.465608743072872e6 1.470717993759269e7 0.0
1.470717993759269e7 -3.99134577373383e6 0.0
0.0 0.0 0.0

-3.3700176751849214e6 7.467194190084202e6 0.0
7.467194190084202e6 810837.0543554244 0.0
0.0 0.0 0.0

-1.792368539088809e6 1.1292410900135743e7 0.0
1.1292410900135743e7 -1.1170489372166675e7 0.0
0.0 0.0 0.0

7.909302816634348e6 1.3411287763035787e7 0.0
1.3411287763035787e7 2.778292717420032e6 0.0
0.0 0.0 0.0

-1.231746702683077e6 4.363652357707267e6 0.0
4.363652357707267e6 52673.61672674335 0.0
0.0 0.0 0.0

-2.4580798234548657e6 1.324760884760341e7 0.0
1.324760884760341e7 8.320866649487976e6 0.0
0.0 0.0 0.0

-1.3215172228035326e6 1.156042483623805e7 0.0
1.156042483623805e7 9.323225189724505e6 0.0
0.0 0.0 0.0

-3.048924431465876e6 8.7128275685816e6 0.0
8.7128275685816e6 -3.8740908814191013e6 0.0
0.0 0.0 0.0

-7.214683381174972e6 1.9019205997298203e7 0.0
1.9019205997298203e7 1.7680315091375005e6 0.0
0.0 0.0 0.0

-3.8034774492775025e6 1.3402535383040482e7 0.0
1.3402535383040482e7 -1.4669737035111634e6 0.0
0.0 0.0 0.0

-7.085116365448563e6 9.465984472159209e6 0.0
9.465984472159209e6 8.131872389297856e6 0.0
0.0 0.0 0.0

4.742086580401466e6 8.55092937640213e6 0.0
8.55092937640213e6 -2.2615643016595412e7 0.0
0.0 0.0 0.0

-897577.0745012122 4.1310292477171286e6 0.0
4.1310292477171286e6 -215622.92272789 0.0
0.0 0.0 0.0

-655763.9503128319 1.2352902307777101e7 0.0
1.2352902307777101e7 -2.697105150642244e6 0.0
0.0 0.0 0.0

1.1685350107204164e6 1.1133809084650349e7 0.0
1.1133809084650349e7 3.9618802723421254e6 0.0
0.0 0.0 0.0

-6.013862619068317e6 7.0811820454019345e6 0.0
7.0811820454019345e6 6.65645779733507e6 0.0
0.0 0.0 0.0

-5.809644017844794e6 1.3173246966591079e7 0.0
1.3173246966591079e7 6.947489424903046e6 0.0
0.0 0.0 0.0

-6.382185356130998e6 1.4573890334542433e7 0.0
1.4573890334542433e7 5.49743159066877e6 0.0
0.0 0.0 0.0

-1.8379633943412602e7 1.769696908203631e7 0.0
1.769696908203631e7 1.2137124301999804e7 0.0
0.0 0.0 0.0

904668.4656560959 6.4842780762949735e6 0.0
6.4842780762949735e6 -4.370277720730181e6 0.0
0.0 0.0 0.0

-6.640822391841512e6 1.4332528791719325e7 0.0
1.4332528791719325e7 5.150164040960404e6 0.0
0.0 0.0 0.0

-3.179288765938071e6 1.291207860055544e7 0.0
1.291207860055544e7 -1.7279651703734817e6 0.0
0.0 0.0 0.0

152796.43647043034 1.2849613457468916e7 0.0
1.2849613457468916e7 8.1846843398371795e6 0.0
0.0 0.0 0.0

-4.662135536637465e6 1.431395513809846e7 0.0
1.431395513809846e7 -85923.22987041995 0.0
0.0 0.0 0.0

1.345496856363632e6 5.151467056855711e6 0.0
5.151467056855711e6 -5.80650267742877e6 0.0
0.0 0.0 0.0

-1.6609460063378895e6 1.2082884843665484e7 0.0
1.2082884843665484e7 -5.361626125716585e6 0.0
0.0 0.0 0.0

-4.002655140459999e6 2.292196456705096e6 0.0
2.292196456705096e6 5.09364857061309e6 0.0
0.0 0.0 0.0

3.680498431757481e6 6.3392746954623945e6 0.0
6.3392746954623945e6 -1.069561593808975e7 0.0
0.0 0.0 0.0

5.970019291639089e6 6.490503876608594e6 0.0
6.490503876608594e6 -1.8887142115452524e7 0.0
0.0 0.0 0.0

-3.02259568955661e6 1.1679025491317594e7 0.0
1.1679025491317594e7 6.345982828938287e6 0.0
0.0 0.0 0.0

58538.98296829034 1.2274140827998586e7 0.0
1.2274140827998586e7 -7.837806735524264e6 0.0
0.0 0.0 0.0

-7.532866982634412e6 9.349570318961637e6 0.0
9.349570318961637e6 6.697799287718987e6 0.0
0.0 0.0 0.0

3.8249863712737975e6 5.328962605963312e6 0.0
5.328962605963312e6 -1.0549604429943137e7 0.0
0.0 0.0 0.0

919017.7072155876 1.0543134421562767e7 0.0
1.0543134421562767e7 -8.311808024244212e6 0.0
0.0 0.0 0.0

377853.99295527255 1.1644657162128424e7 0.0
1.1644657162128424e7 -9.259062610463293e6 0.0
0.0 0.0 0.0

-7.666756967358561e6 1.024568952322238e7 0.0
1.024568952322238e7 7.002853625467764e6 0.0
0.0 0.0 0.0

-4.725368125667119e6 3.221030602897636e6 0.0
3.221030602897636e6 3.7305022226273958e6 0.0
0.0 0.0 0.0

-3.6739942926238216e6 811828.3396688929 0.0
811828.3396688929 5.083193443810145e6 0.0
0.0 0.0 0.0

-207889.7568479944 1.209564451627588e7 0.0
1.209564451627588e7 -8.057219806663991e6 0.0
0.0 0.0 0.0

-2.558238789342222e6 7.1940956301788865e6 0.0
7.1940956301788865e6 744707.055629233 0.0
0.0 0.0 0.0

-286508.42996106297 1.26782578847883e7 0.0
1.26782578847883e7 8.748730228104148e6 0.0
0.0 0.0 0.0

-3.1776090266497084e6 1.3647217325630559e7 0.0
1.3647217325630559e7 -3.3355544849764663e6 0.0
0.0 0.0 0.0

1.384523949358425e6 5.270620391150039e6 0.0
5.270620391150039e6 -5.118030779712453e6 0.0
0.0 0.0 0.0

-1.0859130686933981e7 68506.62208986915 0.0
68506.62208986915 1.8634952983737342e7 0.0
0.0 0.0 0.0

-6.464928794916742e6 1.550708759987888e7 0.0
1.550708759987888e7 4.462261210405552e6 0.0
0.0 0.0 0.0

-8.488192670395268e6 1.5570706804467991e7 0.0
1.5570706804467991e7 7.524501958072623e6 0.0
0.0 0.0 0.0

-1.9149333936191404e6 4.4341194573908355e6 0.0
4.4341194573908355e6 148647.5953086319 0.0
0.0 0.0 0.0

-8.604975132483715e6 -1.595702961468217e6 0.0
-1.595702961468217e6 1.1825617487535018e7 0.0
0.0 0.0 0.0

1.8917734005067241e6 9.985177193842212e6 0.0
9.985177193842212e6 -1.205257727431967e7 0.0
0.0 0.0 0.0

-7.222076785645619e6 1.089978964309448e7 0.0
1.089978964309448e7 8.110165448701074e6 0.0
0.0 0.0 0.0

-1.1514297246284487e7 1.0790054118833984e6 0.0
1.0790054118833984e6 1.924828217838205e7 0.0
0.0 0.0 0.0

-3.337701097813392e7 8.746169381743053e6 0.0
8.746169381743053e6 1.2789050737222582e7 0.0
0.0 0.0 0.0

788627.1735536736 9.060663069251986e6 0.0
9.060663069251986e6 -7.387956048937992e6 0.0
0.0 0.0 0.0

-190857.92294294058 1.1924847382379705e7 0.0
1.1924847382379705e7 -1.3121143073808935e6 0.0
0.0 0.0 0.0

4.843304195164304e6 5.209830890729526e6 0.0
5.209830890729526e6 -1.2819519615119927e7 0.0
0.0 0.0 0.0

-6.818342937631005e6 1.2073698495989304e7 0.0
1.2073698495989304e7 1.1559857824701536e7 0.0
0.0 0.0 0.0

-1.2159984713883301e7 964084.2010669918 0.0
964084.2010669918 1.7084496381359845e7 0.0
0.0 0.0 0.0

953764.4564545869 6.056347334251915e6 0.0
6.056347334251915e6 -5.134685748263383e6 0.0
0.0 0.0 0.0

-3.0227357720926814e6 1.3003866879873786e7 0.0
1.3003866879873786e7 -1.6362857153552882e6 0.0
0.0 0.0 0.0

-5.597993834536241e6 1.379926081593806e7 0.0
1.379926081593806e7 2.7131312172081377e6 0.0
0.0 0.0 0.0

-6.085101374711068e6 1.1979319961360127e7 0.0
1.1979319961360127e7 5.587110858267551e6 0.0
0.0 0.0 0.0

-7.462527777166398e6 1.5742071334218258e7 0.0
1.5742071334218258e7 6.811831561361887e6 0.0
0.0 0.0 0.0

-4.157660813631962e6 1.1408950920416806e7 0.0
1.1408950920416806e7 693527.1915310188 0.0
0.0 0.0 0.0

-9.46310540291376e6 -6.346811297227872e6 0.0
-6.346811297227872e6 1.9546379135469127e7 0.0
0.0 0.0 0.0

-1.3132317510908076e6 1.28517530831725e7 0.0
1.28517530831725e7 4.6889974003608925e6 0.0
0.0 0.0 0.0

29157.36549174832 1.136698478711894e7 0.0
1.136698478711894e7 -7.052339174308499e6 0.0
0.0 0.0 0.0

-1.0818984597735291e7 1.2686949539744576e7 0.0
1.2686949539744576e7 7.614213319175881e6 0.0
0.0 0.0 0.0

-8237.882204339257 5.313400887293092e6 0.0
5.313400887293092e6 -1.7612674076041721e6 0.0
0.0 0.0 0.0

-7.06957689220395e6 1.6661326497029545e7 0.0
1.6661326497029545e7 5.861792323499668e6 0.0
0.0 0.0 0.0

-242318.6449513929 1.1789509574568544e7 0.0
1.1789509574568544e7 -1.7374531430145013e6 0.0
0.0 0.0 0.0

-1.0905097345273394e7 8.590565488022553e6 0.0
8.590565488022553e6 1.2068352562870286e7 0.0
0.0 0.0 0.0

2.2053405992657114e6 8.55717024865283e6 0.0
8.55717024865283e6 -9.526317962367702e6 0.0
0.0 0.0 0.0

-8.532991524879579e6 8.231440206173967e6 0.0
8.231440206173967e6 1.1610029237997193e7 0.0
0.0 0.0 0.0

1.339106823789515e6 5.317470981445226e6 0.0
5.317470981445226e6 -5.282155036374037e6 0.0
0.0 0.0 0.0

3.381486371000957e6 6.727261453071307e6 0.0
6.727261453071307e6 -1.0576487688601999e7 0.0
0.0 0.0 0.0

-989493.3353259813 1.3308588980486246e7 0.0
1.3308588980486246e7 -1.692904370041072e6 0.0
0.0 0.0 0.0

-4.577628396581556e6 1.2274339116181068e7 0.0
1.2274339116181068e7 2.0610025230285206e6 0.0
0.0 0.0 0.0

-5.366923401416054e6 1.3951202274340466e7 0.0
1.3951202274340466e7 3.4134870395480306e6 0.0
0.0 0.0 0.0

-1.6373517161603428e6 1.4404519600888936e7 0.0
1.4404519600888936e7 -4.635879391136142e6 0.0
0.0 0.0 0.0

3.4428954567920035e6 6.034577926822565e6 0.0
6.034577926822565e6 -9.884716703456748e6 0.0
0.0 0.0 0.0

530821.4209574906 5.088590206761182e6 0.0
5.088590206761182e6 -4.0917156971987346e6 0.0
0.0 0.0 0.0

3.172296511532007e6 6.540194487169015e6 0.0
6.540194487169015e6 -1.0985563752409926e7 0.0
0.0 0.0 0.0

1.3126805308767352e6 6.036335486459655e6 0.0
6.036335486459655e6 -5.250042775413851e6 0.0
0.0 0.0 0.0

3.158510950129589e6 1.2991751929582708e7 0.0
1.2991751929582708e7 6.814601764164802e6 0.0
0.0 0.0 0.0

-9.116635514544476e6 1.8146737733530782e7 0.0
1.8146737733530782e7 7.654695860162239e6 0.0
0.0 0.0 0.0

-7.335482977985261e6 -4.935946735616433e6 0.0
-4.935946735616433e6 1.3327970526356284e7 0.0
0.0 0.0 0.0

4.637805503427687e6 7.737441814089284e6 0.0
7.737441814089284e6 -1.6160193014135037e7 0.0
0.0 0.0 0.0

-1.8675365704406113e6 1.4579340099810818e7 0.0
1.4579340099810818e7 -3.793525899326313e6 0.0
0.0 0.0 0.0

-954030.174542744 1.30395544139187e7 0.0
1.30395544139187e7 -2.4389856219700505e6 0.0
0.0 0.0 0.0

3.769349685782294e6 7.205212621879816e6 0.0
7.205212621879816e6 -1.3329725656034565e7 0.0
0.0 0.0 0.0

-1.0735160373796366e7 1.7047121310853526e7 0.0
1.7047121310853526e7 9.15252444647217e6 0.0
0.0 0.0 0.0

-3.581473867086249e6 1.2876296341049261e7 0.0
1.2876296341049261e7 9.35775208488638e6 0.0
0.0 0.0 0.0

-2.52964218038039e7 1.441048465600332e7 0.0
1.441048465600332e7 1.3022764140196292e7 0.0
0.0 0.0 0.0

-4.764875689113043e6 1.2013867933159057e7 0.0
1.2013867933159057e7 7.287097071861474e6 0.0
0.0 0.0 0.0

2.239021444049442e6 8.083020040559131e6 0.0
8.083020040559131e6 -9.666730136417147e6 0.0
0.0 0.0 0.0

2.5443102762111895e7 1.3482494036043001e7 0.0
1.3482494036043001e7 671247.5027123624 0.0
0.0 0.0 0.0

-5.455611419972067e6 1.2488331386437656e7 0.0
1.2488331386437656e7 1.1373078742973752e7 0.0
0.0 0.0 0.0

-5.160719385659626e6 2.181799362672213e6 0.0
2.181799362672213e6 6.737384709397105e6 0.0
0.0 0.0 0.0

-619523.4039563567 1.1991307281916583e7 0.0
1.1991307281916583e7 1.194729397055802e6 0.0
0.0 0.0 0.0

653998.9419619157 1.0969476120657435e7 0.0
1.0969476120657435e7 -1.0948260539117165e7 0.0
0.0 0.0 0.0

1.2655357996343665e6 1.452796424255178e7 0.0
1.452796424255178e7 -5.219992055696494e6 0.0
0.0 0.0 0.0

-5.883380996529652e6 1.222893537923982e7 0.0
1.222893537923982e7 4.464965226541096e6 0.0
0.0 0.0 0.0

-1.1644450502205176e7 -383815.0566665571 0.0
-383815.0566665571 1.6248064568314929e7 0.0
0.0 0.0 0.0

-1.1081215619653217e7 1.7518670597261235e7 0.0
1.7518670597261235e7 8.509438205782052e6 0.0
0.0 0.0 0.0

-4.358535334781004e6 1.3594814507764572e7 0.0
1.3594814507764572e7 2.540257785260612e6 0.0
0.0 0.0 0.0

-5.6859621904486045e6 1.3663708490645587e7 0.0
1.3663708490645587e7 2.930128990816677e6 0.0
0.0 0.0 0.0

-5.077240786881693e6 1.6300658481310252e7 0.0
1.6300658481310252e7 1.222813372918315e6 0.0
0.0 0.0 0.0

-6.372755756989626e6 1.515800548194692e7 0.0
1.515800548194692e7 4.1640341846363163e6 0.0
0.0 0.0 0.0

-351880.97083250957 1.217122023622548e7 0.0
1.217122023622548e7 -1.2258290299503563e6 0.0
0.0 0.0 0.0

-3.1040577269822545e6 1.2599043141365169e7 0.0
1.2599043141365169e7 5.360071934877325e6 0.0
0.0 0.0 0.0

1.7958127965164017e6 1.0760800372793414e7 0.0
1.0760800372793414e7 -3.183272189102672e6 0.0
0.0 0.0 0.0

-1.1873079758537086e6 1.1901095049315823e7 0.0
1.1901095049315823e7 -1.3377427250584032e7 0.0
0.0 0.0 0.0

-413599.6132148734 1.2278541543279352e7 0.0
1.2278541543279352e7 -544007.5488685452 0.0
0.0 0.0 0.0

-4.661161630058455e6 1.2100076019805633e7 0.0
1.2100076019805633e7 1.3566215034680099e6 0.0
0.0 0.0 0.0

-4.34874915666446e6 7.893941938204737e6 0.0
7.893941938204737e6 1.2116758731609836e7 0.0
0.0 0.0 0.0

-1.6129108619203384e6 1.2846220480327021e7 0.0
1.2846220480327021e7 -4.718498242596462e6 0.0
0.0 0.0 0.0

705119.0299455482 1.0425358860560328e7 0.0
1.0425358860560328e7 -8.918756728960454e6 0.0
0.0 0.0 0.0

3.6798233771476774e6 5.9660815200335225e6 0.0
5.9660815200335225e6 -1.031901842171969e7 0.0
0.0 0.0 0.0

-5.576697540730981e6 1.267222601649594e7 0.0
1.267222601649594e7 1.0768904988997443e7 0.0
0.0 0.0 0.0

-2.3826472291654283e6 1.2781325385982484e7 0.0
1.2781325385982484e7 3.4415978225819804e6 0.0
0.0 0.0 0.0

-8.99550556480392e6 8.260669090460706e6 0.0
8.260669090460706e6 1.1789608918661917e7 0.0
0.0 0.0 0.0

-5.647934232596192e6 1.184285411398509e7 0.0
1.184285411398509e7 4.886942489900839e6 0.0
0.0 0.0 0.0

-1.6561346608854507e6 1.3476834553444492e7 0.0
1.3476834553444492e7 -1.804560567473165e6 0.0
0.0 0.0 0.0

-9.049651113707198e6 8.766480412686856e6 0.0
8.766480412686856e6 1.0490958107819712e7 0.0
0.0 0.0 0.0

-1.1137484804410633e7 7.792501646596046e6 0.0
7.792501646596046e6 1.249629964098463e7 0.0
0.0 0.0 0.0

-8.4292496072174e6 7.286233584293244e6 0.0
7.286233584293244e6 8.969784006984908e6 0.0
0.0 0.0 0.0

-3.753215190638072e6 365910.18843126926 0.0
365910.18843126926 3.8832253507582075e6 0.0
0.0 0.0 0.0

-6.465408268209064e6 1.3305320395204004e7 0.0
1.3305320395204004e7 6.430437169697866e6 0.0
0.0 0.0 0.0

775173.1882909406 1.1013199841632295e7 0.0
1.1013199841632295e7 -1.354852858673335e7 0.0
0.0 0.0 0.0

1.2653220274850703e6 1.0705195780069448e7 0.0
1.0705195780069448e7 -1.129030092845269e7 0.0
0.0 0.0 0.0

-1.7418840943936303e7 1.509816948873239e7 0.0
1.509816948873239e7 6.243553746358497e6 0.0
0.0 0.0 0.0

-1.0968479677648615e7 -1.1822070388251324e6 0.0
-1.1822070388251324e6 2.164821439316043e7 0.0
0.0 0.0 0.0

1.5024118349608718e6 1.0891600896668421e7 0.0
1.0891600896668421e7 -1.0599509451331196e7 0.0
0.0 0.0 0.0

-6.248461032065449e6 1.5622659623772662e7 0.0
1.5622659623772662e7 3.4406886373164435e6 0.0
0.0 0.0 0.0

-738144.1844580863 1.219987704432228e7 0.0
1.219987704432228e7 3.1758422853426524e6 0.0
0.0 0.0 0.0

-413882.7020607778 1.512431012046554e6 0.0
1.512431012046554e6 1.0971625383890772e6 0.0
0.0 0.0 0.0

-470060.103758856 1.196306728231612e7 0.0
1.196306728231612e7 -1.8342388547658955e6 0.0
0.0 0.0 0.0

-2.5177388736294e6 1.1964844380933888e7 0.0
1.1964844380933888e7 -2.817066714716823e6 0.0
0.0 0.0 0.0

-3.25222254607701e6 4.742543887214267e6 0.0
4.742543887214267e6 1.4135078869202808e6 0.0
0.0 0.0 0.0

5.536386905680757e6 5.072447887231205e6 0.0
5.072447887231205e6 -1.5420594047554845e7 0.0
0.0 0.0 0.0

246073.69342848798 7.5507006089279745e6 0.0
7.5507006089279745e6 -5.0043953892146135e6 0.0
0.0 0.0 0.0

-1.0106511392295714e7 -1.1209055679187493e6 0.0
-1.1209055679187493e6 1.1438214454808809e7 0.0
0.0 0.0 0.0

-1.7157003900915997e6 1.3344685360574251e7 0.0
1.3344685360574251e7 -5.577703986321627e6 0.0
0.0 0.0 0.0

-121778.90892411186 1.3087940382566988e7 0.0
1.3087940382566988e7 5.402497716159885e6 0.0
0.0 0.0 0.0

430887.17781486316 7.304032195776338e6 0.0
7.304032195776338e6 -3.946586400584643e6 0.0
0.0 0.0 0.0

-3.7609126488964525e6 1.2184708165370455e7 0.0
1.2184708165370455e7 9.408035171627952e6 0.0
0.0 0.0 0.0

-9.827311795649372e6 1.8372868874268144e7 0.0
1.8372868874268144e7 7.931160596750711e6 0.0
0.0 0.0 0.0

-5.656773795001263e6 2.4712386601532223e6 0.0
2.4712386601532223e6 4.774686096242998e6 0.0
0.0 0.0 0.0

-2.9478849345426266e6 1.277848881904375e7 0.0
1.277848881904375e7 5.467484508100216e6 0.0
0.0 0.0 0.0

1.8745164817258148e6 8.280511594422541e6 0.0
8.280511594422541e6 -9.973626036840178e6 0.0
0.0 0.0 0.0

-8.836257920582872e6 1.3093364065759389e7 0.0
1.3093364065759389e7 5.077144155800546e6 0.0
0.0 0.0 0.0

-585294.9119905024 4.2881278984259525e6 0.0
4.2881278984259525e6 -1.3242640621014168e6 0.0
0.0 0.0 0.0

-3.67217189017319e6 1.3724957811487054e7 0.0
1.3724957811487054e7 -518461.18346826336 0.0
0.0 0.0 0.0

8.003717007594978e6 1.341496022546093e7 0.0
1.341496022546093e7 3.0939700321761696e6 0.0
0.0 0.0 0.0

-3.4349252756746267e6 1.2985249472509904e7 0.0
1.2985249472509904e7 -1.452831390780111e6 0.0
0.0 0.0 0.0

2.107244612718378e6 8.314308005275982e6 0.0
8.314308005275982e6 -9.206319253851553e6 0.0
0.0 0.0 0.0

-6.184921132718561e6 1.3942845688544793e7 0.0
1.3942845688544793e7 6.581990222558277e6 0.0
0.0 0.0 0.0

-1.098432404738336e7 -5.562106274404695e6 0.0
-5.562106274404695e6 2.532535691916634e7 0.0
0.0 0.0 0.0

-2.667841593397901e6 1.2520393152310943e7 0.0
1.2520393152310943e7 -1.6735825428098787e6 0.0
0.0 0.0 0.0

-7.390678562263958e6 1.6945808003344167e7 0.0
1.6945808003344167e7 6.167596006882571e6 0.0
0.0 0.0 0.0

1.647372254045179e6 1.0418782120177435e7 0.0
1.0418782120177435e7 -1.347112106312425e7 0.0
0.0 0.0 0.0

697153.8050947958 1.1913053279042482e7 0.0
1.1913053279042482e7 -8.864315719373368e6 0.0
0.0 0.0 0.0

826099.7880660673 1.1656817319653176e7 0.0
1.1656817319653176e7 -9.229369254441824e6 0.0
0.0 0.0 0.0

-1.1619314150573911e7 5.581712627216614e6 0.0
5.581712627216614e6 1.559964617894033e7 0.0
0.0 0.0 0.0

-6.2752200080656875e6 1.2417012888379076e7 0.0
1.2417012888379076e7 5.116829562265319e6 0.0
0.0 0.0 0.0

-1.2416047445203409e7 7.841628533892819e6 0.0
7.841628533892819e6 5.226841118721878e7 0.0
0.0 0.0 0.0

8.199848872995473e6 1.0425297568721937e7 0.0
1.0425297568721937e7 -2.734665732547313e7 0.0
0.0 0.0 0.0

-1.0464819703777626e7 1.4853332259828191e7 0.0
1.4853332259828191e7 4.595715361781916e6 0.0
0.0 0.0 0.0

-2.9696050957197575e6 1.2397346072500179e7 0.0
1.2397346072500179e7 3.8634772332267277e6 0.0
0.0 0.0 0.0

-9.392110870536827e6 1.3305852297683531e7 0.0
1.3305852297683531e7 2.303164685208434e6 0.0
0.0 0.0 0.0

-237445.55096095838 3.2608094093127996e6 0.0
3.2608094093127996e6 -2505.1607342668867 0.0
0.0 0.0 0.0

-8.479262749261783e6 9.618137145047154e6 0.0
9.618137145047154e6 9.17260476573551e6 0.0
0.0 0.0 0.0

-3.8874830045984127e6 1.3916669031390551e7 0.0
1.3916669031390551e7 -276250.86112498946 0.0
0.0 0.0 0.0

-9.209760683163768e6 -403660.9932956702 0.0
-403660.9932956702 1.2716196815605037e7 0.0
0.0 0.0 0.0

8.686217120282333e6 1.3248755511251008e7 0.0
1.3248755511251008e7 3.0679957326748497e6 0.0
0.0 0.0 0.0

-3.731938773645896e6 1.3214073896184083e7 0.0
1.3214073896184083e7 7.059480541793054e6 0.0
0.0 0.0 0.0

-6.860872358353302e6 1.0647010876842275e7 0.0
1.0647010876842275e7 7.672338854550588e6 0.0
0.0 0.0 0.0

-1.93008229729636e7 1.461705993694979e7 0.0
1.461705993694979e7 1.35504051367204e7 0.0
0.0 0.0 0.0

1.6391538043673176e6 1.0881877726492226e7 0.0
1.0881877726492226e7 -356174.36622395855 0.0
0.0 0.0 0.0

2.3924879188987757e6 1.0568326730926856e7 0.0
1.0568326730926856e7 -3.8263269173796857e6 0.0
0.0 0.0 0.0

-6.330748669640755e6 1.4508611823485319e7 0.0
1.4508611823485319e7 6.366315728202748e6 0.0
0.0 0.0 0.0

-2.7526753963341843e6 1.3462329587470172e7 0.0
1.3462329587470172e7 84273.71285779285 0.0
0.0 0.0 0.0

250219.35910624382 9.442165002757361e6 0.0
9.442165002757361e6 -3.84017018031488e6 0.0
0.0 0.0 0.0

2.3146257629087847e6 1.140729954230649e7 0.0
1.140729954230649e7 -4.982082485684486e6 0.0
0.0 0.0 0.0

-3.5912141851362814e6 1.1373974985919543e7 0.0
1.1373974985919543e7 6.186200871384294e6 0.0
0.0 0.0 0.0

-6.1233005552911535e6 1.811334504535796e7 0.0
1.811334504535796e7 2.86897650349164e6 0.0
0.0 0.0 0.0

-6.660077307073185e6 1.3258681024406172e7 0.0
1.3258681024406172e7 6.656990362662002e6 0.0
0.0 0.0 0.0

-1.0196575062485421e7 1.820433316102684e7 0.0
1.820433316102684e7 7.672006409811151e6 0.0
0.0 0.0 0.0

-392377.38668175414 1.1848541804204008e7 0.0
1.1848541804204008e7 -1.4479130003698437e7 0.0
0.0 0.0 0.0

-1.6570495121052125e6 1.428243790137696e7 0.0
1.428243790137696e7 -2.1857714421438448e7 0.0
0.0 0.0 0.0

1.5267838229165263e6 1.39061206803623e7 0.0
1.39061206803623e7 4.0410520915044636e7 0.0
0.0 0.0 0.0

32986.00752474042 1.3208795670094043e7 0.0
1.3208795670094043e7 5.5357272864831425e6 0.0
0.0 0.0 0.0

3.523103429933222e6 8.414651284678722e6 0.0
8.414651284678722e6 -1.50843382903638e7 0.0
0.0 0.0 0.0

-7.071817293629803e6 1.793056325393895e7 0.0
1.793056325393895e7 2.6220678107459107e6 0.0
0.0 0.0 0.0

-2.5684524301772676e6 1.3506416364694927e7 0.0
1.3506416364694927e7 -3.119499063433696e6 0.0
0.0 0.0 0.0

-482176.1082560676 1.2400657468586935e7 0.0
1.2400657468586935e7 -2.626821547518051e6 0.0
0.0 0.0 0.0

-1.1277365120112107e6 1.3458331718874102e7 0.0
1.3458331718874102e7 -5.4003772719996665e6 0.0
0.0 0.0 0.0

-2.135773737403492e7 1.5237352872205824e7 0.0
1.5237352872205824e7 1.4412722278753046e7 0.0
0.0 0.0 0.0

-7.538246700699265e6 1.6724617093166709e7 0.0
1.6724617093166709e7 5.7901521375181805e6 0.0
0.0 0.0 0.0

-6.596370350181678e6 1.4694466935328867e7 0.0
1.4694466935328867e7 5.938141971467195e6 0.0
0.0 0.0 0.0

5.513472450834839e6 5.647368665279628e6 0.0
5.647368665279628e6 -1.6319423188829057e7 0.0
0.0 0.0 0.0

878515.6565778705 1.5031267135171106e7 0.0
1.5031267135171106e7 -5.313953709677539e6 0.0
0.0 0.0 0.0

1.4794728059862228e6 1.0629721391252503e7 0.0
1.0629721391252503e7 -1.3086794228394868e7 0.0
0.0 0.0 0.0

-95790.31724457536 1.539422472096583e7 0.0
1.539422472096583e7 -4.512103863325219e6 0.0
0.0 0.0 0.0

628772.1899938129 8.941490697407614e6 0.0
8.941490697407614e6 -3.147479277692194e6 0.0
0.0 0.0 0.0

-3.006105297715868e6 1.3215830954782328e7 0.0
1.3215830954782328e7 5.938657800675536e6 0.0
0.0 0.0 0.0

-6.849746801614162e6 1.5297053711951071e7 0.0
1.5297053711951071e7 6.185846956061585e6 0.0
0.0 0.0 0.0

-6.493409213360013e6 -2.4142945814633844e6 0.0
-2.4142945814633844e6 8.498063881448496e6 0.0
0.0 0.0 0.0

5.570252781502835e6 1.1262377975521138e7 0.0
1.1262377975521138e7 -3.906217779226154e6 0.0
0.0 0.0 0.0

-3.641066166393064e7 1.3954051919196488e7 0.0
1.3954051919196488e7 1.2301712233586922e7 0.0
0.0 0.0 0.0

-1.2024368894950708e7 5.745315528614696e6 0.0
5.745315528614696e6 1.4126878009212691e7 0.0
0.0 0.0 0.0

-4.251988337393088e6 1.332636093363361e7 0.0
1.332636093363361e7 2.5125142226033714e6 0.0
0.0 0.0 0.0

2.2921748767368603e6 1.1413596220308948e7 0.0
1.1413596220308948e7 -3.9615790573923406e6 0.0
0.0 0.0 0.0

4.441666000201731e6 5.70727496536821e6 0.0
5.70727496536821e6 -1.2000564819546735e7 0.0
0.0 0.0 0.0

-3.0562424736635843e6 1.2622041767195664e7 0.0
1.2622041767195664e7 3.070291365662567e6 0.0
0.0 0.0 0.0

-9.23425389250853e6 -6.435158572733417e6 0.0
-6.435158572733417e6 1.9364819628160886e7 0.0
0.0 0.0 0.0

-2.897704548325236e6 1.580504869003463e7 0.0
1.580504869003463e7 -2.7638640164745506e7 0.0
0.0 0.0 0.0

2.7004193546605706e6 1.8776873123374343e7 0.0
1.8776873123374343e7 4.896877687996861e7 0.0
0.0 0.0 0.0

2.187194839784406e6 9.722554063701538e6 0.0
9.722554063701538e6 -1.2452315103971254e7 0.0
0.0 0.0 0.0

469398.16889843973 5.1690231615321e6 0.0
5.1690231615321e6 -4.345529494685617e6 0.0
0.0 0.0 0.0

-1.0938433251418972e6 1.2639464596413009e7 0.0
1.2639464596413009e7 5.9339050943557145e6 0.0
0.0 0.0 0.0

-1.183186240294147e7 -4.828818843078269e6 0.0
-4.828818843078269e6 2.517819293829318e7 0.0
0.0 0.0 0.0

874202.6289570001 6.6469100261537675e6 0.0
6.6469100261537675e6 -4.707321945837773e6 0.0
0.0 0.0 0.0

-5.73039836646531e6 1.7976420066024907e7 0.0
1.7976420066024907e7 562173.4985775806 0.0
0.0 0.0 0.0

-1.3134089183844072e6 1.1894666008457992e7 0.0
1.1894666008457992e7 -5.937754486707911e6 0.0
0.0 0.0 0.0

-509687.1617083943 1.2676802515204323e7 0.0
1.2676802515204323e7 4.229670394217159e6 0.0
0.0 0.0 0.0

-2.4826691562326485e6 1.3603170605330862e7 0.0
1.3603170605330862e7 274450.69590698683 0.0
0.0 0.0 0.0

-1.061782030226051e7 1.3058083163761087e7 0.0
1.3058083163761087e7 2.0325689632434235e6 0.0
0.0 0.0 0.0

-7.371574979079996e6 1.6436947225867534e7 0.0
1.6436947225867534e7 5.921184423836622e6 0.0
0.0 0.0 0.0

-896632.8942561244 1.225348837963776e7 0.0
1.225348837963776e7 2.0928572414056966e6 0.0
0.0 0.0 0.0

-2.9721025482110293e6 1.2496230293804053e7 0.0
1.2496230293804053e7 4.538860161797505e6 0.0
0.0 0.0 0.0

684151.9441040326 1.0746082199636232e7 0.0
1.0746082199636232e7 -8.65450299210466e6 0.0
0.0 0.0 0.0

-1.2651893848539535e6 1.3286381220461221e7 0.0
1.3286381220461221e7 -6.074315690168552e6 0.0
0.0 0.0 0.0

-1.2132058071166482e7 -3.350552611429627e6 0.0
-3.350552611429627e6 2.3564141015458502e7 0.0
0.0 0.0 0.0

-2.053107058199507e7 1.6955367169859342e7 0.0
1.6955367169859342e7 1.3086814461577198e7 0.0
0.0 0.0 0.0

-1.2265286758500468e7 1.506334535491506e7 0.0
1.506334535491506e7 9.376808431226522e6 0.0
0.0 0.0 0.0

-1.7860702265977934e7 1.1537347477936814e7 0.0
1.1537347477936814e7 9.945541806116382e6 0.0
0.0 0.0 0.0

-472457.6617155126 1.2406874133546157e7 0.0
1.2406874133546157e7 -124770.53038112825 0.0
0.0 0.0 0.0

-3.252519156577937e6 1.3545895801370671e7 0.0
1.3545895801370671e7 380042.795059717 0.0
0.0 0.0 0.0

-1.1948512239138253e7 1.3319264522696033e7 0.0
1.3319264522696033e7 7.285656257434202e6 0.0
0.0 0.0 0.0

1.2046248539484732e6 6.3543399104302125e6 0.0
6.3543399104302125e6 -4.703071860476837e6 0.0
0.0 0.0 0.0

-1.3434573021514746e6 1.308717470324069e7 0.0
1.308717470324069e7 4.772002666456479e6 0.0
0.0 0.0 0.0

4.189497701700612e6 7.993095557172293e6 0.0
7.993095557172293e6 -1.4628947163094822e7 0.0
0.0 0.0 0.0

-1.1051811975023545e7 6.499568983184374e6 0.0
6.499568983184374e6 1.5060305014219176e7 0.0
0.0 0.0 0.0

-1.0804991828961784e7 -5.387869891521956e6 0.0
-5.387869891521956e6 2.6117940400485456e7 0.0
0.0 0.0 0.0

5.675477445665717e6 5.715842765670805e6 0.0
5.715842765670805e6 -1.6281011604014002e7 0.0
0.0 0.0 0.0

-2.0349772801967878e7 1.3219244042333227e7 0.0
1.3219244042333227e7 9.118726540157996e6 0.0
0.0 0.0 0.0

-9.303849481805667e6 -6.229318219361976e6 0.0
-6.229318219361976e6 1.6545270397718374e7 0.0
0.0 0.0 0.0

-7.850996508368767e6 -5.501469117240816e6 0.0
-5.501469117240816e6 1.1949798873979164e7 0.0
0.0 0.0 0.0

918789.8232340324 6.173270674346928e6 0.0
6.173270674346928e6 -5.450099064007476e6 0.0
0.0 0.0 0.0

-7.846555638466725e6 -2.7036016925614267e6 0.0
-2.7036016925614267e6 1.2545416698472418e7 0.0
0.0 0.0 0.0

-9.180434420598125e6 2.2916276303492468e7 0.0
2.2916276303492468e7 -1.180025449278547e6 0.0
0.0 0.0 0.0

-6.8177247682602685e6 1.1358066637818167e7 0.0
1.1358066637818167e7 7.627105761467665e6 0.0
0.0 0.0 0.0

5.688292507935618e6 6.357216436981555e6 0.0
6.357216436981555e6 -1.9043455289821923e7 0.0
0.0 0.0 0.0

4.52219427104173e6 5.873119284480586e6 0.0
5.873119284480586e6 -1.3672926487690274e7 0.0
0.0 0.0 0.0

-6.223404969022121e6 1.2262871492959324e7 0.0
1.2262871492959324e7 4.578928117531454e6 0.0
0.0 0.0 0.0

-1.0188827937893566e7 1.7571958956396073e7 0.0
1.7571958956396073e7 8.275564369839563e6 0.0
0.0 0.0 0.0

581465.2776750084 7.81872661638136e6 0.0
7.81872661638136e6 2.9300138770407285e6 0.0
0.0 0.0 0.0

-2.2835596195517113e6 1.2903826681857606e7 0.0
1.2903826681857606e7 9.136483942528637e6 0.0
0.0 0.0 0.0

779517.9540864814 1.4701323965569358e7 0.0
1.4701323965569358e7 -5.429120854512137e6 0.0
0.0 0.0 0.0

-8.936178547419671e6 -6.39450234659739e6 0.0
-6.39450234659739e6 1.674314439829411e7 0.0
0.0 0.0 0.0

-1.372951384812992e7 8.667644952748522e6 0.0
8.667644952748522e6 7.748857429703212e6 0.0
0.0 0.0 0.0

-7.264562153884783e6 1.6149493100750092e7 0.0
1.6149493100750092e7 5.596275693832418e6 0.0
0.0 0.0 0.0

-5.748531144789216e6 1.3444821806935545e7 0.0
1.3444821806935545e7 1.8154507863647804e7 0.0
0.0 0.0 0.0

1.0576567382687088e6 1.4833015160271028e7 0.0
1.4833015160271028e7 -4.951013189174603e6 0.0
0.0 0.0 0.0

-1.459840961603269e6 1.3586490128919214e7 0.0
1.3586490128919214e7 -1.428603112750349e6 0.0
0.0 0.0 0.0

-5.821653900710827e6 1.2905547664423315e7 0.0
1.2905547664423315e7 7.064434177460546e6 0.0
0.0 0.0 0.0

-1.472153492822059e6 1.3091923541778807e7 0.0
1.3091923541778807e7 -2.328329697224994e6 0.0
0.0 0.0 0.0

-3.548126356234062e7 1.8784456787091713e7 0.0
1.8784456787091713e7 6.018544304066984e6 0.0
0.0 0.0 0.0

-7.543471274955786e6 1.1007854096943388e7 0.0
1.1007854096943388e7 7.068622876658488e6 0.0
0.0 0.0 0.0

-1.3841238238829758e6 1.3561312777148737e7 0.0
1.3561312777148737e7 -1.653921578053475e6 0.0
0.0 0.0 0.0

-5.175677047679044e6 1.3347498234139534e7 0.0
1.3347498234139534e7 6.663688926095646e6 0.0
0.0 0.0 0.0

147888.3965412497 1.4413566403750936e7 0.0
1.4413566403750936e7 -5.017242931860591e6 0.0
0.0 0.0 0.0

4.222790944754291e6 5.749665835012331e6 0.0
5.749665835012331e6 -1.1745966495779067e7 0.0
0.0 0.0 0.0

-1.296524844530022e6 1.4087712458553258e7 0.0
1.4087712458553258e7 -5.102639567350387e6 0.0
0.0 0.0 0.0

-2.159679817899582e7 1.6313379056125602e7 0.0
1.6313379056125602e7 1.196741440433314e7 0.0
0.0 0.0 0.0

-7.481467357129825e6 1.571840224010304e7 0.0
1.571840224010304e7 6.758483604888483e6 0.0
0.0 0.0 0.0

-3.958350791764465e6 348126.35809963953 0.0
348126.35809963953 4.569181569739e6 0.0
0.0 0.0 0.0

-557711.8308277235 1.2293127282347014e7 0.0
1.2293127282347014e7 -7.561554214827643e6 0.0
0.0 0.0 0.0

4.585683326316589e6 1.1523394271538455e7 0.0
1.1523394271538455e7 -3.497392799176012e6 0.0
0.0 0.0 0.0

-3.1911946341040824e7 1.4858854250548841e7 0.0
1.4858854250548841e7 1.1060842328053392e7 0.0
0.0 0.0 0.0

-431412.8069404266 1.1756182785036758e7 0.0
1.1756182785036758e7 2.2832232495043892e6 0.0
0.0 0.0 0.0

3.956540032679514e6 8.023152560772573e6 0.0
8.023152560772573e6 -1.5400660155242909e7 0.0
0.0 0.0 0.0

359430.7079852796 1.06893818058305e7 0.0
1.06893818058305e7 -8.522391480693707e6 0.0
0.0 0.0 0.0

-2.7447601985238614e6 1.2825471890083328e7 0.0
1.2825471890083328e7 3.6537250392376697e6 0.0
0.0 0.0 0.0

-1.0888264800580386e7 1.7501461915553443e7 0.0
1.7501461915553443e7 8.502785924828887e6 0.0
0.0 0.0 0.0

-4.360292818266171e6 1.4561262714171337e7 0.0
1.4561262714171337e7 360452.648624595 0.0
0.0 0.0 0.0

4.81368217591713e6 5.494248556598966e6 0.0
5.494248556598966e6 -1.3378623685618896e7 0.0
0.0 0.0 0.0

-2.7051632332270322e6 1.360997845658477e7 0.0
1.360997845658477e7 1.1636068369740387e7 0.0
0.0 0.0 0.0

-281785.4330352759 8.56681381853392e6 0.0
8.56681381853392e6 -3.34304543590801e6 0.0
0.0 0.0 0.0

-2.4153250425746404e7 1.5590836297236277e7 0.0
1.5590836297236277e7 1.1225310020184686e7 0.0
0.0 0.0 0.0

-8.798831779549714e6 -2.350128125852397e6 0.0
-2.350128125852397e6 1.046002130405898e7 0.0
0.0 0.0 0.0

-8.293295806304627e6 -2.219211755049145e6 0.0
-2.219211755049145e6 1.2346142514411082e7 0.0
0.0 0.0 0.0

4.369955280198175e6 1.0823069544122979e7 0.0
1.0823069544122979e7 -942807.8861213976 0.0
0.0 0.0 0.0

-8.996747613797937e6 -5.976324222751429e6 0.0
-5.976324222751429e6 1.753638928100998e7 0.0
0.0 0.0 0.0

-275758.16682965914 1.1827910279803703e7 0.0
1.1827910279803703e7 2.289117121085405e6 0.0
0.0 0.0 0.0

496782.57562114624 1.3359718732717486e7 0.0
1.3359718732717486e7 5.7082559278126e6 0.0
0.0 0.0 0.0

-7.28917773994166e6 1.757610978462922e7 0.0
1.757610978462922e7 4.193252547699687e6 0.0
0.0 0.0 0.0

-1.3142671199600395e7 266255.0439397284 0.0
266255.0439397284 2.688683944836074e7 0.0
0.0 0.0 0.0

1.3072423681492452e6 1.070852472626147e7 0.0
1.070852472626147e7 -1.295623209747799e7 0.0
0.0 0.0 0.0

724375.1940125881 6.529308881496279e6 0.0
6.529308881496279e6 -4.9771310411876775e6 0.0
0.0 0.0 0.0

-2.5823335184133137e6 1.2631084176587969e7 0.0
1.2631084176587969e7 2.805763393292933e6 0.0
0.0 0.0 0.0

-1.647112104314805e6 1.3802443212577207e7 0.0
1.3802443212577207e7 6.763931165069801e6 0.0
0.0 0.0 0.0

-1.055808805084401e7 -4.355603361493737e6 0.0
-4.355603361493737e6 1.6249857925334811e7 0.0
0.0 0.0 0.0

-7.756375313860768e6 3.7025491136459215e6 0.0
3.7025491136459215e6 7.065125429898931e6 0.0
0.0 0.0 0.0

-4.331515828328863e6 1.1822010599509925e7 0.0
1.1822010599509925e7 1.4683126686209098e6 0.0
0.0 0.0 0.0

-3.305862164793012e6 5.41973016753347e6 0.0
5.41973016753347e6 9.58001184758314e6 0.0
0.0 0.0 0.0

2.181810529775817e6 1.1093885609786706e7 0.0
1.1093885609786706e7 -4.333983398157403e6 0.0
0.0 0.0 0.0

-8.419408696740083e6 -2.9745198743879353e6 0.0
-2.9745198743879353e6 1.0653606023157088e7 0.0
0.0 0.0 0.0

-1.2579407440875834e7 264963.4078469085 0.0
264963.4078469085 2.9467807833632976e7 0.0
0.0 0.0 0.0

2.0798447265673035e6 1.1226873062820954e7 0.0
1.1226873062820954e7 -4.1021440959325894e6 0.0
0.0 0.0 0.0

-1.0374726939006546e6 1.2122448450318173e7 0.0
1.2122448450318173e7 -5.655519091923802e6 0.0
0.0 0.0 0.0

-1.2455049610588513e7 300112.618303925 0.0
300112.618303925 2.9495772492547024e7 0.0
0.0 0.0 0.0

1.1838447680458191e6 1.4115197097138764e7 0.0
1.4115197097138764e7 -5.3794346444252e6 0.0
0.0 0.0 0.0

-1.6115565697463746e6 1.2718540324878894e7 0.0
1.2718540324878894e7 4.229581850301313e6 0.0
0.0 0.0 0.0

-2.625717377450411e6 7.172230727404597e6 0.0
7.172230727404597e6 918367.5041717755 0.0
0.0 0.0 0.0

-4.253987303961437e6 1.3443481496839395e6 0.0
1.3443481496839395e6 5.56644826744542e6 0.0
0.0 0.0 0.0

-4.523842717270744e6 907111.326817634 0.0
907111.326817634 1.7652571234850078e6 0.0
0.0 0.0 0.0

