# vtk DataFile Version 2.0
phase field modeling fracture
ASCII
DATASET UNSTRUCTURED_GRID
POINTS 2538 float
0.0 0.0 0.0
10.0 0.0 0.0
0.0 10.0 0.0
10.0 10.0 0.0
0.0 4.9995 0.0
0.0 5.0005 0.0
5.0 5.0 0.0
0.9416964895726688 0.0 0.0
1.803581725054446 0.0 0.0
2.592419885431098 0.0 0.0
3.314401822861676 0.0 0.0
3.975193910351406 0.0 0.0
4.579982132660152 0.0 0.0
5.133512780936812 0.0 0.0
5.640130319506143 0.0 0.0
6.103810708661955 0.0 0.0
6.528192895506818 0.0 0.0
6.916607540127679 0.0 0.0
7.272102969376355 0.0 0.0
7.597469242948583 0.0 0.0
7.895259826292669 0.0 0.0
8.167811885738017 0.0 0.0
8.417264413845215 0.0 0.0
8.645575169389538 0.0 0.0
8.854535961159101 0.0 0.0
9.045786767735546 0.0 0.0
9.220828555767493 0.0 0.0
9.38103509633881 0.0 0.0
9.527663687265145 0.0 0.0
9.661865124984566 0.0 0.0
9.784692609918062 0.0 0.0
9.897110148790482 0.0 0.0
10.0 0.09999999999992584 0.0
10.0 0.199999999999856 0.0
10.0 0.2999999999997771 0.0
10.0 0.3999999999996677 0.0
10.0 0.4999999999995511 0.0
10.0 0.5999999999994683 0.0
10.0 0.6999999999993983 0.0
10.0 0.7999999999993286 0.0
10.0 0.8999999999992587 0.0
10.0 0.9999999999991888 0.0
10.0 1.099999999999119 0.0
10.0 1.199999999999033 0.0
10.0 1.299999999998852 0.0
10.0 1.399999999998576 0.0
10.0 1.499999999998284 0.0
10.0 1.599999999997992 0.0
10.0 1.6999999999977 0.0
10.0 1.799999999997408 0.0
10.0 1.899999999997116 0.0
10.0 1.999999999996825 0.0
10.0 2.099999999996533 0.0
10.0 2.199999999996241 0.0
10.0 2.299999999995949 0.0
10.0 2.399999999995657 0.0
10.0 2.499999999995365 0.0
10.0 2.599999999995073 0.0
10.0 2.699999999994782 0.0
10.0 2.79999999999449 0.0
10.0 2.899999999994198 0.0
10.0 2.999999999993906 0.0
10.0 3.099999999993614 0.0
10.0 3.199999999993322 0.0
10.0 3.299999999993029 0.0
10.0 3.399999999992738 0.0
10.0 3.499999999992446 0.0
10.0 3.599999999992154 0.0
10.0 3.699999999991863 0.0
10.0 3.799999999991571 0.0
10.0 3.899999999991278 0.0
10.0 3.999999999991022 0.0
10.0 4.099999999991035 0.0
10.0 4.199999999991187 0.0
10.0 4.299999999991338 0.0
10.0 4.399999999991491 0.0
10.0 4.499999999991642 0.0
10.0 4.599999999991795 0.0
10.0 4.699999999991947 0.0
10.0 4.799999999992099 0.0
10.0 4.89999999999225 0.0
10.0 4.999999999992403 0.0
10.0 5.099999999992555 0.0
10.0 5.199999999992706 0.0
10.0 5.299999999992858 0.0
10.0 5.39999999999301 0.0
10.0 5.499999999993161 0.0
10.0 5.599999999993313 0.0
10.0 5.699999999993466 0.0
10.0 5.799999999993618 0.0
10.0 5.899999999993771 0.0
10.0 5.999999999993922 0.0
10.0 6.099999999994074 0.0
10.0 6.199999999994227 0.0
10.0 6.299999999994378 0.0
10.0 6.39999999999453 0.0
10.0 6.499999999994682 0.0
10.0 6.599999999994833 0.0
10.0 6.699999999994986 0.0
10.0 6.799999999995138 0.0
10.0 6.899999999995289 0.0
10.0 6.999999999995442 0.0
10.0 7.099999999995594 0.0
10.0 7.199999999995747 0.0
10.0 7.299999999995897 0.0
10.0 7.39999999999605 0.0
10.0 7.499999999996202 0.0
10.0 7.599999999996353 0.0
10.0 7.699999999996505 0.0
10.0 7.799999999996658 0.0
10.0 7.899999999996808 0.0
10.0 7.999999999996962 0.0
10.0 8.099999999997113 0.0
10.0 8.199999999997265 0.0
10.0 8.299999999997418 0.0
10.0 8.399999999997569 0.0
10.0 8.499999999997721 0.0
10.0 8.599999999997873 0.0
10.0 8.699999999998024 0.0
10.0 8.799999999998176 0.0
10.0 8.899999999998329 0.0
10.0 8.99999999999848 0.0
10.0 9.099999999998634 0.0
10.0 9.199999999998786 0.0
10.0 9.299999999998937 0.0
10.0 9.399999999999089 0.0
10.0 9.499999999999241 0.0
10.0 9.599999999999392 0.0
10.0 9.699999999999545 0.0
10.0 9.799999999999697 0.0
10.0 9.899999999999848 0.0
9.897110148790565 10.0 0.0
9.784692609918244 10.0 0.0
9.66186512498486 10.0 0.0
9.527663687265571 10.0 0.0
9.381035096339392 10.0 0.0
9.220828555768257 10.0 0.0
9.045786767736512 10.0 0.0
8.854535961160305 10.0 0.0
8.645575169391027 10.0 0.0
8.417264413847017 10.0 0.0
8.167811885740178 10.0 0.0
7.895259826295246 10.0 0.0
7.597469242951631 10.0 0.0
7.272102969379938 10.0 0.0
6.916607540131873 10.0 0.0
6.528192895511704 10.0 0.0
6.103810708667616 10.0 0.0
5.640130319512691 10.0 0.0
5.13351278094435 10.0 0.0
4.579982132668816 10.0 0.0
3.975193910361222 10.0 0.0
3.314401822869852 10.0 0.0
2.592419885437257 10.0 0.0
1.803581725058137 10.0 0.0
0.9416964895740705 10.0 0.0
0.0 9.00010000000243 0.0
0.0 8.000200000005481 0.0
0.0 7.000300000005135 0.0
0.0 6.000400000002569 0.0
0.901790731451151 5.000409820926855 0.0
1.657200899774397 5.000334279910023 0.0
2.289991063707192 5.000271000893629 0.0
2.820065163538221 5.000217993483646 0.0
3.264096435579811 5.000173590356442 0.0
3.636051481595835 5.00013639485184 0.0
3.947629914072366 5.000105237008593 0.0
4.208632181002628 5.0000791367819 0.0
4.427267949625672 5.000057273205037 0.0
4.610414277633563 5.000038958572237 0.0
4.763831845154243 5.000023616815485 0.0
4.892346298799659 5.00001076537012 0.0
4.892346298799748 4.99998923462988 0.0
4.763831845154455 4.999976383184515 0.0
4.610414277633943 4.999961041427763 0.0
4.427267949626277 4.999942726794963 0.0
4.208632181003523 4.9999208632181 0.0
3.94762991407365 4.999894762991407 0.0
3.636051481597624 4.99986360514816 0.0
3.264096435582253 4.999826409643559 0.0
2.820065163541503 4.999782006516354 0.0
2.289991063711534 4.999728999106371 0.0
1.657200899778495 4.999665720089978 0.0
0.9017907314530094 4.999590179073145 0.0
0.0 3.999600000002013 0.0
0.0 2.999700000005187 0.0
0.0 1.99980000000512 0.0
0.0 0.9999000000025537 0.0
9.897889398521345 2.93573355845387 0.0
9.906568249974548 7.060009441434234 0.0
9.913122631074113 3.64016132281653 0.0
9.922462129543863 6.354535290629151 0.0
9.917693659967533 4.354211663134567 0.0
9.909873057440208 5.637584487339942 0.0
9.914183254994697 4.950672966925282 0.0
9.913885043715895 7.666887930262611 0.0
9.91009668007573 2.351889069770817 0.0
9.905135696074536 8.138152454502785 0.0
9.913397459621809 1.849999999997262 0.0
7.099302372137626 0.297750452375005 0.0
7.095143729410097 9.700359990366296 0.0
4.942912558701401 5.095838627899509 0.0
4.315009232304429 5.165022115481685 0.0
4.946182472483878 4.906763777264103 0.0
4.317967462990024 4.825955043772673 0.0
9.916390871492647 8.64999999999792 0.0
9.921504649680616 1.368376469890358 0.0
8.292538149791614 0.206877570318844 0.0
8.292538149793597 9.793122429681448 0.0
5.884594439766573 9.587645267048616 0.0
5.794826292691579 0.3794853783929359 0.0
9.913397459621425 9.049999999998557 0.0
9.908526577714177 0.9568239351922434 0.0
3.456851160380649 5.315740054130451 0.0
3.457889657868442 4.707121019609468 0.0
8.945214200703926 0.1503383337970344 0.0
8.950161364448409 9.8413906539257 0.0
9.913862335499305 4.055887885208452 0.0
9.916697353372683 4.650158482607802 0.0
9.919076340414442 6.049999999994006 0.0
9.906994308667635 5.25749687748192 0.0
9.917490342358025 6.655979201891897 0.0
9.915757520293784 7.343848891656911 0.0
9.910049507471042 3.363474386285078 0.0
9.914471988502868 2.647400064832979 0.0
9.91474124160965 9.337490423485129 0.0
9.916971008170838 0.6499999999994355 0.0
4.307157269264427 9.509674045029644 0.0
4.331527375865619 0.4401616696422582 0.0
9.45434939180249 9.878397030523757 0.0
9.457696120412969 0.1270877537061785 0.0
2.555070293622606 5.422044496190925 0.0
2.566232917480916 4.608001224030952 0.0
3.026511860837692 9.332320638257093 0.0
2.945561971800619 0.5895662714727601 0.0
7.7395404387124 0.2511088946967771 0.0
7.736379255744154 9.745848826372828 0.0
4.687135269408529 5.122111433928926 0.0
4.688420821504113 4.871895064967488 0.0
9.910554884115975 0.3448356354522978 0.0
9.911230082250466 9.65764729394159 0.0
9.921953841410854 6.851023993342036 0.0
9.912065178606017 5.448170483544033 0.0
9.911660025326261 3.861846960030188 0.0
9.914847467973438 3.14501593945607 0.0
9.913397459621425 5.849999999993703 0.0
9.913397459621425 7.849999999996735 0.0
9.906916878988277 2.15455769998631 0.0
9.913397459621425 8.349999999997479 0.0
9.909472363117661 1.640528221515488 0.0
9.913987325695956 1.152857110636247 0.0
9.913397459621425 8.849999999998241 0.0
0.9100099990995943 2.614215977520411 0.0
0.8395284981715456 7.451196254860987 0.0
9.723278867451556 9.898135916635193 0.0
9.723316350887044 0.09841820909386662 0.0
1.385819164827588 4.454539963646463 0.0
1.338343629665047 5.523111536005823 0.0
1.377179700550677 0.6809168304959698 0.0
1.418060461092743 9.285896715136046 0.0
9.91268220142518 0.1457914080939694 0.0
9.906737126737994 9.845745933882352 0.0
0.7108351382691361 6.537941170074089 0.0
1.527735020267026 6.915620208855231 0.0
1.630993885659103 7.838271825205868 0.0
2.232760943566823 7.370850737296832 0.0
2.243414218068206 6.688299277952821 0.0
2.779655053105118 7.021588754814074 0.0
2.80227799359795 7.632420170547022 0.0
3.282022065908813 7.305859666021318 0.0
3.327597298795347 7.857554136825748 0.0
3.743210251018715 7.549183328204379 0.0
3.716353232200752 7.062036086888612 0.0
4.111978858674101 7.27497101169417 0.0
4.104192177581432 6.879858986267289 0.0
4.436230765617037 7.045693351607117 0.0
4.430360014817357 6.703971783962796 0.0
4.732390145036301 6.849841042423394 0.0
5.056161327708878 5.095276573498806 0.0
5.111586796021131 4.999081142133581 0.0
5.169267363407189 5.09444870412406 0.0
5.223795108752053 4.996986220359468 0.0
5.281480803887719 5.092780870372803 0.0
5.335670761900611 4.994887492556936 0.0
5.393485214772442 5.090486192743301 0.0
5.447323082877892 4.992601527033996 0.0
5.505243219343024 5.087953380710069 0.0
5.558739102026105 4.990287787962959 0.0
5.616491581184779 5.085335255235766 0.0
5.669852346908056 4.9879269227514 0.0
5.727502713908907 5.082679981817038 0.0
5.780766004135139 4.988313988715834 0.0
5.838244881129535 5.080480568766611 0.0
5.891357695677371 4.986433849408193 0.0
5.948696036767613 5.077969900389505 0.0
6.001601341641615 4.981313698556656 0.0
6.058851024265095 5.074871552128682 0.0
6.111614020704875 4.978360695880202 0.0
6.168801161530775 5.072044953270978 0.0
6.221368818778567 4.975825765213497 0.0
6.278268309066882 5.066182320461055 0.0
6.330814273567539 4.972837984645718 0.0
6.387565032421376 5.062889771971895 0.0
6.437476667631405 4.971693683589553 0.0
6.496181111585419 5.060210690175857 0.0
6.539454812256072 4.964658165361536 0.0
6.604198202576491 5.056387520850258 0.0
6.648506025747331 4.939374587506267 0.0
6.714026758992516 5.05873885840664 0.0
6.764418045981209 4.959246676066148 0.0
6.8219334571197 5.055299567406268 0.0
6.873708540948134 4.960426349093742 0.0
6.930181428849307 5.053461390218819 0.0
6.981893615341967 4.96435459462232 0.0
7.037791764774784 5.051219747103022 0.0
7.090993561518408 4.96392420322464 0.0
5.504417457283294 4.900897920552702 0.0
7.145434864123609 5.048960634292441 0.0
6.054532384032612 4.883956083938546 0.0
6.738027949040956 4.850032323068674 0.0
7.198432914526514 4.956325226333323 0.0
7.252637187936749 5.046012229327236 0.0
7.30926729605109 4.948903216650376 0.0
7.248106275544042 4.860306312845646 0.0
7.363100274863074 4.849952416808486 0.0
7.365733472701664 5.039519554615095 0.0
7.308483293090149 5.137557220352172 0.0
6.768399513646964 5.145609705119954 0.0
7.422800035311104 5.132251445551834 0.0
7.358273518796229 5.235980394389298 0.0
7.480824155801127 5.227946127939927 0.0
7.302193400058628 4.761917474298247 0.0
7.413570879789824 4.754555110721153 0.0
7.414392998903179 5.334729114426734 0.0
7.352769630272076 4.660405502266205 0.0
7.467556835255426 4.658352623795039 0.0
7.536246869015014 5.328986926716081 0.0
7.478865844607288 5.432598185493195 0.0
7.406396991826072 4.556956233957538 0.0
7.523581002009154 4.552005631348623 0.0
7.597792398573263 5.429506106314967 0.0
7.540511043402902 5.53619421580439 0.0
7.46214474876342 4.452580994318881 0.0
7.5852185078634 4.446021810672608 0.0
7.663329342323453 5.533453399066901 0.0
7.603478967594521 5.643227430483237 0.0
7.513450346818673 4.347641323140766 0.0
7.640744971722214 4.333388343316237 0.0
7.727671715775243 5.642390483050116 0.0
7.667774597993788 5.753188858425915 0.0
7.570065256728661 4.230515669344811 0.0
7.702881065467917 4.218307808529532 0.0
7.638288257073729 4.107994211855027 0.0
7.493362356301017 4.120843902105771 0.0
7.779018500630071 5.521233457321821 0.0
7.794641287388929 5.752364621610818 0.0
7.73369774483611 5.865894287356292 0.0
7.600834531784728 5.867752110500446 0.0
6.233038857278689 5.15645045634683 0.0
7.669727996028819 5.985665563643058 0.0
7.528582452554481 5.987393423295551 0.0
7.598722674572824 6.11001923494443 0.0
7.778305000222867 4.104318908265786 0.0
7.704329019832056 3.987744174608892 0.0
7.838453459801382 4.213322728668484 0.0
7.864495721576461 5.862306066517277 0.0
7.846552353360407 3.98481756181946 0.0
7.769730409703277 3.86544808681145 0.0
5.785249360396857 5.177248808588045 0.0
7.908837087876153 3.861484036275285 0.0
7.834824606222196 3.740586825753288 0.0
7.97685993406276 3.736209527152902 0.0
7.89665098770825 3.615501862931453 0.0
7.753228010315262 3.617800245018972 0.0
7.826063013090472 3.483173292579822 0.0
7.66789744383048 3.48859328808356 0.0
8.042515855796823 3.595394268381807 0.0
7.75200750488492 3.341279823834038 0.0
7.582870318332553 3.346584916806707 0.0
8.120807847415062 3.732493963388337 0.0
8.189783970303546 3.61159165475499 0.0
7.657801000286734 3.200439907646711 0.0
7.486781956172036 3.201402473247712 0.0
7.452595103886905 6.11418616185016 0.0
7.527098033550077 6.243191052852112 0.0
8.260502906807751 3.728437634721859 0.0
8.327629317451398 3.608173631356984 0.0
7.372763970891452 6.247552889754036 0.0
7.456170570815929 6.384992468962936 0.0
7.621837793616884 6.376077080857113 0.0
7.548039512904141 6.520750676893614 0.0
7.717475944451644 6.514856553988943 0.0
7.636658166268699 6.661648164052906 0.0
7.807468267259438 6.664076174524672 0.0
7.718022764310774 6.817938967122142 0.0
7.887785766941087 6.807440365887151 0.0
7.545993589083432 6.815070675854734 0.0
7.809874785067209 6.967537287475282 0.0
7.975643812145337 6.948729406725126 0.0
8.396477808021062 3.725446935061211 0.0
7.565651643157136 3.044354774611752 0.0
7.384328725505071 3.043048915147076 0.0
8.056405351948353 6.802790889114673 0.0
8.14128318237188 6.940027831915737 0.0
8.064621760266059 7.086348792208953 0.0
8.225003598857908 6.805225152373254 0.0
8.463085452993242 3.606998510553562 0.0
8.230426869720718 7.079551841000411 0.0
8.155262284174286 7.224761758176069 0.0
8.530696760758996 3.721683301125054 0.0
8.596669886994064 3.604516769862316 0.0
8.528531058025589 3.490411531312337 0.0
8.320451770844851 7.218191678954744 0.0
8.245273958732774 7.363444652121271 0.0
8.66324687389452 3.717094013035765 0.0
8.600103125209296 3.831913857228569 0.0
8.662131102573216 3.488322280861316 0.0
8.594166125380536 3.374071873435548 0.0
8.411074336066186 7.353871649576861 0.0
8.339644223432472 7.505172120620427 0.0
8.165883718619623 7.513159193685373 0.0
8.483453820080417 7.2082285366806 0.0
8.261200365730348 7.657400951288149 0.0
8.081570576666843 7.670933304838066 0.0
7.471613195794025 2.872548423100142 0.0
7.268733678357991 2.881209199257603 0.0
7.184255506995786 3.084448584600423 0.0
7.065899603697895 2.883902449336828 0.0
6.960163891183182 3.081014635802978 0.0
6.847612128388715 2.885646860602812 0.0
6.739800729737967 3.078895733381448 0.0
8.729373804596847 3.827689165637365 0.0
8.668550856907444 3.938702277545298 0.0
8.72770789162863 3.371798381178293 0.0
8.659764090070603 3.257493349874974 0.0
8.436453928793245 7.648724489148887 0.0
6.619080287792762 2.90880017416788 0.0
6.511740956842646 3.09340654756684 0.0
8.793527829963288 3.935174834810256 0.0
8.736430500996828 4.042719556852617 0.0
7.631260330584174 4.565300771328012 0.0
8.359058396840432 7.801678182761817 0.0
5.339436215072359 5.184870243702279 0.0
4.994031736761993 5.193306795607908 0.0
6.383387675268097 4.87760645722207 0.0
7.29117392392962 6.382172868329505 0.0
6.378196825372041 2.907113079755629 0.0
6.269817199014261 3.12412150658573 0.0
8.793149127377946 3.255386294257182 0.0
8.725774239201558 3.141596687892195 0.0
8.857434600673502 4.041295940541356 0.0
8.802868937128341 4.1471119953668 0.0
8.532045262478793 7.7905977476835 0.0
7.364542641624493 2.699128473342751 0.0
7.571677611088925 2.695732556686516 0.0
6.723058333614999 2.672341359410618 0.0
8.456744924757372 7.94483904450548 0.0
6.140831279784704 2.921247401137864 0.0
6.02419219050745 3.14358702955763 0.0
8.916255604212301 3.934279868822481 0.0
8.859287250884009 3.140226640574265 0.0
8.791092798057303 3.025929352146465 0.0
7.210445465986021 6.245773134960393 0.0
7.120884161792869 6.385155584680196 0.0
7.036931702064287 6.240721609143972 0.0
6.943722280007011 6.3869279517155 0.0
8.920094519678617 4.144837222494242 0.0
8.864374107136287 4.250930406527029 0.0
7.347569838739255 4.463467417508182 0.0
5.90383431757064 2.935113219563906 0.0
5.783476009580765 3.156456199832474 0.0
8.626013191558314 7.935092223505354 0.0
8.687240186957197 7.796697889991163 0.0
5.642059327424706 2.903018174330269 0.0
5.52647853955939 3.162549070310043 0.0
8.555300051897738 8.086169516016518 0.0
8.405624441178524 8.083972416481254 0.0
5.374124307190728 2.945480555950917 0.0
8.935805220807357 3.249260758206028 0.0
8.981625171409894 4.247375537584228 0.0
8.924725364486765 4.352101286657735 0.0
8.807208588134106 4.356163101450244 0.0
8.868277832430604 4.45657124153171 0.0
8.75099635287701 4.460644845248524 0.0
8.812385950597063 4.560891222623518 0.0
8.693833206943118 4.564602972998703 0.0
8.756474732548273 4.665720853686476 0.0
8.63721608225855 4.669394550615355 0.0
8.700108119351134 4.770682016274914 0.0
8.81920502916846 4.767536120893284 0.0
8.76355311338807 4.871451945248518 0.0
8.881442328033694 4.868382238751069 0.0
8.826433523510634 4.97132552240372 0.0
8.943387824985514 4.967694248194483 0.0
8.888718468126953 5.071044784833541 0.0
8.580377663835254 4.774669738817985 0.0
8.770572242937233 5.073880380431421 0.0
8.832915096600454 5.174518948293615 0.0
8.952224483821848 5.170970838320107 0.0
8.897282771771884 5.275476392171722 0.0
7.463928467290875 2.513944501591933 0.0
7.675935950092034 2.509420347143072 0.0
8.924252417741767 3.024418701372628 0.0
8.857265893102921 2.911213535286156 0.0
8.776981063213334 5.27944309004916 0.0
8.840710910770163 5.380165700477552 0.0
8.960876896785969 5.375521424256389 0.0
8.904555918255223 5.482125846038813 0.0
7.567193097677677 2.32750151280277 0.0
7.780880844888839 2.323064027160363 0.0
6.851602118390116 6.234522818184622 0.0
6.758680682687229 6.389359516748128 0.0
6.66345977321418 6.231254850996584 0.0
8.715764716958308 8.079994249772627 0.0
8.65189989696114 8.227534663647639 0.0
9.042229096541828 4.348551764001607 0.0
6.436774206993324 3.316782326998922 0.0
7.590527613340588 5.22651784724799 0.0
9.024366884701616 5.476726561488805 0.0
8.968734351641839 5.583879050892151 0.0
8.845941080047659 5.586406316932274 0.0
8.909881305857882 5.690482454668167 0.0
7.348726871578975 5.44047403999932 0.0
6.567070253986433 6.398115757512583 0.0
6.697077150072261 6.553426749743366 0.0
5.252377383990728 3.187782967482479 0.0
8.988440431820699 2.908621158637298 0.0
8.922541972760119 2.796420836075996 0.0
6.466806010659505 6.229115583261771 0.0
9.033851153821296 5.686506775615425 0.0
8.978340519963718 5.795772485582058 0.0
8.85111463793018 5.798672910287243 0.0
8.922171984280597 5.907237880910408 0.0
8.795190680908043 5.911854068712683 0.0
8.864373398892472 6.019728357749566 0.0
8.991346995940626 6.014539153309398 0.0
8.93374019140187 6.12698887312768 0.0
5.095192648098848 2.952353430985476 0.0
7.672651464908932 2.141715359830917 0.0
7.886266921042761 2.136211284120189 0.0
9.098474286589756 4.245971410451114 0.0
8.813172564986438 8.216887361735234 0.0
8.74802978243154 8.366104673219047 0.0
9.059985162956899 6.120982589539211 0.0
9.00342813739303 6.233245043891739 0.0
4.961413514304496 3.214209167276753 0.0
9.05248113004685 2.794651022570942 0.0
8.986028039118027 2.681341972594222 0.0
5.671890458441996 3.377122473800023 0.0
4.755829262593116 7.184480462344647 0.0
9.158258644940048 4.34465968221255 0.0
4.799687186662534 2.961354824469195 0.0
6.030554747591715 2.726787502996874 0.0
8.938327180212585 8.34758372042188 0.0
8.847392320655468 8.503370672816716 0.0
8.67342124373679 8.518117686968314 0.0
5.234423106934083 2.694925204361751 0.0
8.964923046453565 8.185313058214797 0.0
7.456650986668838 2.134076476407834 0.0
9.111732084821366 2.897226832609386 0.0
6.368055837513985 6.402805870976705 0.0
6.265629899005033 6.226581076317183 0.0
8.736327196352686 6.026404178766982 0.0
9.117473097358854 2.67987006607594 0.0
9.052137415465204 2.565428515518978 0.0
7.781001557847192 1.955874236406257 0.0
7.992134447300669 1.949184538864554 0.0
8.593074792993455 3.143159483125708 0.0
9.1291360203536 6.226877897052981 0.0
9.072154326613617 6.338696745620542 0.0
8.916532550320525 2.566986282201109 0.0
8.984021113721658 2.449252898983242 0.0
9.178032243215632 6.120533546076094 0.0
9.213703592343162 4.244823670856978 0.0
9.11972142641474 2.449071238668887 0.0
9.052853896812186 2.33190758581705 0.0
8.635035926402708 4.462329956179506 0.0
8.773614475966344 8.657865377672689 0.0
8.596400917257634 8.67759750279447 0.0
8.942023339420883 8.644678093589654 0.0
9.19471670675691 6.33096438039349 0.0
9.138460613363325 6.443043552768813 0.0
8.66620319432524 5.916297234509582 0.0
8.606669825267202 6.032658196729024 0.0
9.27222540210304 4.341341907533128 0.0
9.013782808177437 6.451040569407859 0.0
9.08360982569773 6.55729980456602 0.0
7.885622149776354 1.768093045890686 0.0
8.095672144455353 1.768790621151345 0.0
9.208772072925791 6.549717411809656 0.0
9.154272208194383 6.662613503537815 0.0
9.187669783927937 2.334640996932141 0.0
9.122379015831417 2.215832190697178 0.0
6.164077036161143 6.404611236428829 0.0
6.062367614988677 6.224307160647549 0.0
8.987075041759633 2.211477580983978 0.0
9.056972755801603 2.093573581203428 0.0
9.194557288902232 2.096029761809264 0.0
9.131223008370409 1.972713028695079 0.0
8.87381302587057 8.795793668920256 0.0
9.039169086943392 8.781606667490083 0.0
4.662813350519927 3.228118291851354 0.0
4.474181267994617 2.945703616023359 0.0
6.562627723301209 6.075544382232434 0.0
9.326886053211574 4.243083624343211 0.0
9.280374192897945 6.656072830232892 0.0
9.224718905178564 6.766740750539347 0.0
4.703284910421452 6.528907865005451 0.0
8.955136474970331 6.565989985649191 0.0
8.998148826814893 4.865480736169776 0.0
8.99429836796776 1.965972383552685 0.0
9.065669391141741 1.847195105148808 0.0
9.207236162050343 1.853010386995843 0.0
9.143218073349985 1.725630086781897 0.0
8.998867447699345 1.719378449325465 0.0
9.082595782768397 1.592017827427701 0.0
8.92804562738841 1.585238202229766 0.0
9.01637794607019 1.453847302675876 0.0
8.854253119154375 1.446306868730686 0.0
8.941620273019874 1.320083886766936 0.0
8.775393064215876 1.308487027359826 0.0
9.102170347200483 1.324733726345249 0.0
9.013857060361985 1.178821526410403 0.0
7.991031819452564 1.587689878441685 0.0
7.767218744640202 1.595993197647291 0.0
9.191539171305216 1.194087248761656 0.0
9.123965901037613 1.057102462689568 0.0
4.853921953226772 3.470213116851758 0.0
7.496563223334782 3.470157221608763 0.0
8.536691379028115 5.921845852206257 0.0
8.475496498707471 6.037633662010236 0.0
7.978668526342969 2.307231488316941 0.0
9.384721922092124 4.337357165846226 0.0
9.331039180200886 4.435926256444196 0.0
8.546261775564837 6.150267290476958 0.0
8.411727261785726 6.155319300628062 0.0
8.972203609044218 8.930944433074036 0.0
9.133480321468399 8.90955269607895 0.0
9.197778815538276 8.768743880012563 0.0
6.162231825784922 6.05277753404107 0.0
5.962111081146334 6.046949845237622 0.0
9.268727788642101 4.146883230687689 0.0
9.380694211527906 4.144811697563401 0.0
9.323823335199954 4.049557759546529 0.0
9.283324894520613 1.736313094621396 0.0
5.858151623803662 6.22041808248046 0.0
5.759668475561988 6.038806123495502 0.0
7.836860473863919 3.191674397465999 0.0
9.348591928839294 6.75855034547469 0.0
9.293979592221298 6.870213350675044 0.0
9.170543172728557 6.879819332293818 0.0
9.240028263813034 6.983394994050525 0.0
4.347372565145963 3.312731475520695 0.0
4.114183445909965 2.96879678229065 0.0
8.616264880152233 4.042035981070631 0.0
9.403174760076901 6.650407069150438 0.0
4.173860112179449 7.723461240865885 0.0
9.365302975518428 6.973476802087294 0.0
9.312420275675276 7.088420778208979 0.0
9.184876614539778 7.0978133687822 0.0
9.25921281729617 7.204979813006656 0.0
9.12816413817609 7.21569648263899 0.0
9.203944409919862 7.322703303071253 0.0
9.334311975087337 7.311477957762272 0.0
9.280415785210538 7.428795599957155 0.0
9.274060219641907 1.066603180421249 0.0
9.211820491509728 0.9316562593680151 0.0
9.050684011148748 0.9017681241401576 0.0
9.441953732403995 4.432092590771756 0.0
9.394725873909666 4.526051349391942 0.0
9.43453556160865 4.048003950509361 0.0
9.378043599351757 3.952631412328806 0.0
9.289691247910705 8.890746792319852 0.0
9.228148443138926 9.030109127390128 0.0
4.440757888677695 6.389562448928118 0.0
4.689874463978985 6.239329075084555 0.0
4.291519540095677 2.622920583112654 0.0
3.886073352912894 2.632778677714434 0.0
9.344015622314338 1.202401041544343 0.0
8.193292196814806 3.849649660906171 0.0
6.960946604527747 6.07044529864598 0.0
9.347708267319902 8.756364147482309 0.0
6.826423138602714 3.261415861395883 0.0
6.06309517882478 5.884563187328262 0.0
9.4085057714426 7.414123963607981 0.0
9.356416821537886 7.532359471354527 0.0
5.042074134251055 6.938947182785697 0.0
5.063988238156824 7.311205832605263 0.0
3.946666851334923 3.30681624613374 0.0
8.189857914071878 1.939951128540477 0.0
7.880690277686857 1.38928908049477 0.0
7.63766396748483 1.399736360041063 0.0
9.345004233592562 1.857695941115052 0.0
9.440465164139875 7.085860901905448 0.0
7.918332480761888 5.744468010879592 0.0
9.08007135068879 5.372457017512481 0.0
8.78639561093144 3.718391405525285 0.0
9.356843485085705 0.9414458825132457 0.0
9.29705128845331 0.8103081541678832 0.0
9.251825423225316 2.451701826351773 0.0
8.483895366325516 6.270717564685176 0.0
8.346386886249478 6.275973306650227 0.0
9.493299170161215 4.138582531223591 0.0
5.321115649032961 7.117073603021904 0.0
5.354076009109965 7.436189411362466 0.0
5.597984079819928 7.254284331170681 0.0
5.644042313435943 7.564172740776336 0.0
5.383963016128051 7.753854027984002 0.0
5.681168258142109 7.880444993178456 0.0
5.935548099874979 7.687258900444162 0.0
5.979508404301389 7.994332725561488 0.0
6.21936843555201 7.802335560754011 0.0
6.267092590637372 8.104873033518185 0.0
6.498845418385807 7.917606504106031 0.0
6.544600005636809 8.209910620392591 0.0
6.77336078689533 8.027284686082275 0.0
6.814840179123049 8.311778392637773 0.0
6.721304148677048 7.737863326704131 0.0
7.031320924898797 8.1335673274533 0.0
7.077388928622946 8.403901803728003 0.0
5.417471987089176 8.090112295667405 0.0
8.845427688507666 2.446352368201366 0.0
9.318512319918124 2.339233739859646 0.0
9.380241452597096 2.451895615249572 0.0
7.283805558009199 8.237518806365102 0.0
7.329200330160381 8.497045124353782 0.0
7.233272584416691 7.991590926766813 0.0
9.142592248414191 5.471315142785471 0.0
9.196303265878848 5.36738298742727 0.0
9.25795832955665 5.465260877691205 0.0
9.310581303233182 5.36341558704714 0.0
9.371094700882272 5.459458038195667 0.0
9.422767107822985 5.360687090455724 0.0
9.36402660964156 5.264821436196721 0.0
9.474220736978928 5.262802348886269 0.0
9.41680330511366 5.169477108906666 0.0
5.168675939028436 4.895496152382537 0.0
9.482591449057548 5.454699312257291 0.0
9.431567605310825 5.552723344040521 0.0
7.531449703396948 4.741663470323411 0.0
8.517293123442691 4.672601123164268 0.0
8.459978676626639 4.778466809901586 0.0
8.396595115309985 4.67568709170855 0.0
8.338966609235166 4.782101664607259 0.0
8.275355646032752 4.678829956447008 0.0
8.217675280223542 4.785699596769931 0.0
8.28149024865807 4.888803783902183 0.0
8.16019781596952 4.892696417098926 0.0
8.22433278506531 4.995725219088695 0.0
8.102825704443651 4.999629142625341 0.0
8.166887930010795 5.098242831115916 0.0
8.034904900788316 4.896825406879729 0.0
8.15353539905931 4.682103688185489 0.0
8.211891449058882 4.574219757233394 0.0
8.290305306104333 5.094007100958221 0.0
8.225684228618732 5.201525567655179 0.0
9.444618942559746 2.343141375196729 0.0
6.929446520625337 4.868116916840016 0.0
5.737810725167649 4.893891407574175 0.0
8.720389971487277 5.38508368411851 0.0
8.805734920311323 8.951818172412821 0.0
8.905272694453211 9.083303226359831 0.0
6.006155038818204 5.171375272745409 0.0
6.431496448228514 5.152985998213245 0.0
9.052675024457304 7.106590131831544 0.0
7.740007013494393 6.09727525827826 0.0
9.375852260355511 9.013078430361404 0.0
9.32035844773103 9.14584923943073 0.0
6.989707597683965 5.146377438798643 0.0
9.488190206836386 3.951168069367155 0.0
9.432429152094464 3.855725756072153 0.0
5.568386402814275 5.185723849666124 0.0
9.525561551078322 5.166162126187324 0.0
9.465026391994275 5.072601962964018 0.0
9.320357339516937 3.857795423728873 0.0
9.375955927831914 3.759314274140895 0.0
9.261783786753899 3.761412578759438 0.0
9.31820665563318 3.661845422072752 0.0
9.431798673168924 3.660830894813109 0.0
9.374584413615914 3.563138564686839 0.0
9.48759661134647 3.562294297118573 0.0
9.431339678707085 3.464016717943268 0.0
9.417896212887529 1.746970678437863 0.0
8.731705369070733 9.110902182838881 0.0
5.652297951447118 6.21188565774667 0.0
5.569122518069258 6.024400786163834 0.0
8.257007204149394 3.505875091031567 0.0
8.717428603143034 2.925525757227976 0.0
6.882852832747376 8.57686572931064 0.0
6.337330066435714 8.416819098143066 0.0
9.50188906539997 4.521022403818629 0.0
9.453500859905136 4.617181635748691 0.0
9.46806769570129 6.749352117850711 0.0
8.836822104875719 1.72282859852854 0.0
7.481071063421426 5.64593758994851 0.0
5.668814988976305 5.86611128457842 0.0
5.487644760735084 5.847591822776978 0.0
8.993992818065195 7.228173913870249 0.0
7.98322414937693 7.229980191466666 0.0
9.22810751684646 7.54864871395298 0.0
9.304103360459063 7.654622011545798 0.0
9.432787371848761 7.633691049023619 0.0
9.382619818023882 7.759136995934441 0.0
7.239096822516492 4.679179578301165 0.0
9.47692479956498 1.861231395362419 0.0
8.041243110813022 5.095895152648969 0.0
6.190208781188077 7.509864122823853 0.0
9.283062812782122 4.549418667685757 0.0
9.503847665760087 2.450295046295932 0.0
9.443345385250678 2.557904120404248 0.0
9.52009568463353 6.644015937008899 0.0
9.203119005973903 3.662458522935253 0.0
8.406198651282708 5.92630414760378 0.0
8.467263597743843 5.811987729136874 0.0
9.461423029059445 9.128120577356565 0.0
9.408445330070542 9.26024300250086 0.0
9.266505293379728 9.277952925446408 0.0
4.14874709022218 3.631681332690154 0.0
9.437448107949258 0.8198473430736303 0.0
9.376993771693973 0.6910550697058979 0.0
9.22882356848217 0.6931820370818127 0.0
4.451823867195988 6.103664366188579 0.0
4.200031743909027 6.232039028149317 0.0
4.687154754667774 5.975132870483986 0.0
6.268889397098538 6.592235545990395 0.0
7.509366161722768 8.340075462391164 0.0
7.564775703413765 8.59800936579159 0.0
9.542148732924264 3.854614593058991 0.0
7.036231103929761 6.550562550831048 0.0
4.089373665437328 2.268193930262139 0.0
3.642558884866483 2.250386188148396 0.0
3.442182385618804 2.651948803899947 0.0
3.146832503011753 2.222630466765926 0.0
2.948870467975985 2.805088883766417 0.0
9.352005315330274 5.067356449300542 0.0
9.31729677031493 3.462944187594675 0.0
9.37428383619102 3.365546369736205 0.0
9.4883538239391 3.365384871181599 0.0
9.432147665178338 3.267287636377487 0.0
9.25034519267688 7.775848812012313 0.0
9.332091350002502 7.881724023243533 0.0
9.462101000264603 7.86490055671988 0.0
9.413353271651825 7.98561007219363 0.0
8.273592814723814 6.158623919352561 0.0
8.207135014732339 6.280394934566054 0.0
9.541483811580331 5.548224291759592 0.0
9.491365919893726 5.644847811894615 0.0
8.088095771120983 4.577581369371366 0.0
8.14760102783746 4.468303741922308 0.0
9.556217963323956 4.414867468889523 0.0
9.543667331547693 3.266908751519594 0.0
9.489307652535885 3.169908976697059 0.0
9.26285575842982 8.635341362685686 0.0
9.403220742003983 8.621447866627538 0.0
9.326013417886902 8.506778946171965 0.0
9.455477927154853 8.503896705359047 0.0
9.566646674069602 4.611465258087684 0.0
9.499341049870914 0.9352184973273918 0.0
8.683891958597638 1.444705608998412 0.0
8.599973456173778 1.287265568270043 0.0
7.760988189317371 1.175381292562583 0.0
7.50927661322749 1.171223823957793 0.0
7.380927152434357 1.411062577009695 0.0
7.242417847270241 1.170759311509981 0.0
7.107236746116019 1.421234419770886 0.0
6.960799033544566 1.169618322344823 0.0
6.817786081200392 1.434174581170586 0.0
9.48095050141868 8.738557748483624 0.0
9.319762046171894 3.263060331456388 0.0
8.920653400180534 7.117307656029475 0.0
9.452431221190624 6.544166520883111 0.0
9.571407933653493 6.540336592280795 0.0
9.507586285214174 6.443281357841339 0.0
9.575252974749443 5.070210512157044 0.0
5.755172844377253 6.370710487467459 0.0
9.541351959064952 7.969072511059531 0.0
9.354607289792183 9.3921968735401 0.0
9.495213435762107 9.37218405175897 0.0
3.77688136092967 3.643094492921176 0.0
5.460967180339239 6.159077196937325 0.0
8.656589552918996 5.283032675040985 0.0
8.599307076390474 5.387421722684671 0.0
9.584017606465821 5.263931993965828 0.0
9.51536593891754 4.977534386249715 0.0
7.788544970111893 2.70578432810479 0.0
7.381746833264364 8.755477463411431 0.0
7.615969996822885 8.852710176548548 0.0
7.783643411970649 8.691528137204457 0.0
7.845017394185501 8.938777577473743 0.0
8.570520580943368 7.342304222498308 0.0
9.103648004226827 5.781084627507008 0.0
8.338082930126799 5.815990105349368 0.0
8.930848895071895 4.561111316304916 0.0
7.381089602119859 5.983657236035151 0.0
8.42066837692862 6.393608568217351 0.0
8.888256157021065 6.459558428285236 0.0
8.826495664731354 6.575679897210801 0.0
4.22522220414496 5.921354747981145 0.0
3.943296448343383 6.075578573904587 0.0
9.563175937841836 2.554860696349795 0.0
9.505342423182917 2.656889632284623 0.0
6.660863480070611 1.168750929063519 0.0
6.518316961679488 1.436478598119306 0.0
6.683474168246802 1.694104067636375 0.0
6.376799057174731 1.707382100972048 0.0
6.205091481342603 1.443621641108414 0.0
6.058670988071357 1.728841803855816 0.0
5.877457486049096 1.454297236926778 0.0
5.724979192982589 1.756666409586195 0.0
5.529885788012015 1.462283739157555 0.0
9.514953777019835 0.7018468683209754 0.0
8.398665270372675 5.702731562702358 0.0
9.456442249775696 0.5772068858285652 0.0
9.565795671866349 2.345573662774494 0.0
8.830758563027459 9.247271599108435 0.0
8.523580738257648 4.88015211128435 0.0
5.580123316488715 5.701889892660689 0.0
5.398591029446707 5.685938459654249 0.0
5.367686360823392 1.778740548277203 0.0
9.546603444041448 1.754984055696778 0.0
9.489649223089446 1.641312329051244 0.0
9.617973952467912 3.363804764345866 0.0
9.584322830999731 6.729956156156573 0.0
9.597221861144487 3.948534024289882 0.0
9.49401963819799 8.089507968561776 0.0
9.207321074262563 9.416906871900888 0.0
8.27185428346661 4.464932191097996 0.0
8.207416067213774 4.35878753684812 0.0
8.332747746635944 4.354903699457511 0.0
3.990181919126853 3.930792395858886 0.0
8.267392138262498 4.254008221702929 0.0
7.997788712685495 1.196805377512679 0.0
9.600316638269724 5.639973985281733 0.0
9.550939606739425 5.737313319038155 0.0
9.44084303195315 5.74233753256161 0.0
9.50112296154558 5.834555019909565 0.0
8.897429225733994 6.685415510921676 0.0
8.762930941408914 6.695907295903629 0.0
8.654628175336732 9.278157371342388 0.0
8.544676900803436 9.133790942553834 0.0
5.294904777716057 5.855935872688884 0.0
5.216749389964556 5.66865685845661 0.0
9.508453581298625 2.239460033375932 0.0
9.599691370793206 3.169496930704394 0.0
9.546615051106684 3.073514534194011 0.0
7.484714626923596 5.028675123117963 0.0
9.588496050271255 7.850836295555126 0.0
5.153197381012662 1.471340286561097 0.0
9.433168304679345 3.071871997104804 0.0
9.610464706874994 5.829217654498672 0.0
9.561407772947403 5.926179534044419 0.0
8.273381980676042 5.705233340662362 0.0
8.330794188929296 5.594351887246082 0.0
8.207319603076424 5.596747949305344 0.0
7.251338559467102 5.233758892662348 0.0
8.708518799790543 1.130513882092466 0.0
9.590155250193266 0.5878623138195824 0.0
9.389919385420015 5.841079912164009 0.0
7.991397852194216 5.859910582924319 0.0
9.624951589233206 4.975554514425905 0.0
7.240016788025947 2.531866266726309 0.0
7.635666783493215 3.873554782053258 0.0
9.608476620993713 1.863530872936442 0.0
9.365330459496413 8.10677840682376 0.0
8.775076110585598 2.572737931759856 0.0
8.699389445914996 2.444602334375113 0.0
8.625078713232146 2.580891022578613 0.0
8.54447196848446 2.447624719286678 0.0
8.468898498943965 2.586757328881282 0.0
8.62282309213608 2.307826916202421 0.0
9.622102662978762 6.439307895185218 0.0
9.561995355724862 6.35103962032292 0.0
3.898245450818314 1.856155797593496 0.0
9.681759177700954 5.07069253017652 0.0
9.059254996454502 4.963357716933865 0.0
9.113144532326562 4.861710138088372 0.0
9.62140874877204 2.656009146517733 0.0
7.884510615470827 0.9666888912541309 0.0
8.14902661050739 1.005010215149227 0.0
8.491263206618079 8.527197931363634 0.0
8.408859203395778 8.697060715788105 0.0
6.54422152733529 1.954566069381189 0.0
9.563546573097593 2.755667904356369 0.0
9.453065492925557 2.761122255953964 0.0
9.676889098520615 2.755084315170127 0.0
9.678287124781653 2.556838324720633 0.0
2.60254317790297 2.278874965850319 0.0
9.211706272534968 4.050470567310489 0.0
8.526711683538949 5.698821878547752 0.0
8.296604023060945 8.533761944401608 0.0
9.649704314258118 5.543946557831669 0.0
9.651176136337964 3.85122804518279 0.0
9.44590154800397 9.498503704959054 0.0
9.580491248736612 9.476376347552954 0.0
4.3239388803087 3.921156392977062 0.0
9.65737873521736 3.075324100817917 0.0
8.128000846282253 6.160273991836929 0.0
8.06242981852327 6.292371360998262 0.0
8.500465019503922 1.442700595221201 0.0
9.615253212967009 1.649819368149096 0.0
9.561768620580791 1.538553925606111 0.0
9.435477757657937 1.527391516499924 0.0
9.627993450010088 2.242685831452484 0.0
9.5338252733548 0.4673994795805215 0.0
9.398055066504014 0.4589059948533885 0.0
9.669486082509058 5.920177035588319 0.0
9.621072177439727 6.016493814615133 0.0
9.506185962103057 6.018397021409126 0.0
9.196884440497488 7.898824858961557 0.0
9.112591143666748 7.789491461180181 0.0
9.664357762385308 7.950712034233033 0.0
8.46233617997115 2.308903464128035 0.0
8.547917980328803 2.169381684694277 0.0
8.139931430059324 6.410762600521521 0.0
7.672499127532963 9.099143622036436 0.0
7.91372855627271 9.178704612763656 0.0
8.463425076318451 9.290653726808348 0.0
9.643938029094286 9.335632419679458 0.0
9.647017668702574 0.7068996148634754 0.0
6.241662276606473 5.884018212993202 0.0
6.157742245066693 5.73500474100449 0.0
6.318815619949124 5.730068085823802 0.0
6.247706374231452 5.593094310939028 0.0
6.406948541886973 5.593272398468375 0.0
6.092564106310554 5.587409338401505 0.0
8.535507922245372 5.286142900439676 0.0
8.022959839404006 4.471630490587016 0.0
7.963561162854596 4.581393556789843 0.0
9.683487139413305 1.546750704925431 0.0
9.630761777960082 1.435922217091829 0.0
5.121714348989337 7.950140247572198 0.0
5.136464096196084 8.310254432483559 0.0
5.47349124035624 8.455234262268478 0.0
5.176273618280354 8.687190323573228 0.0
4.796664658962938 8.592678692862421 0.0
9.568705729418735 4.887269869750176 0.0
9.462711651199594 4.88832222094458 0.0
9.674903475028225 4.882285174433025 0.0
5.4996067353406 5.546583260717527 0.0
5.663632234555963 5.557613452957074 0.0
6.829408195405585 1.947174574944512 0.0
5.336529198289861 1.127585641139875 0.0
9.672387559812332 6.34138351957329 0.0
4.463988917379896 2.271060678869338 0.0
8.618048281355405 6.263841736419089 0.0
6.480949808711781 5.74815588680617 0.0
6.562207427719153 5.592185077216444 0.0
6.643040463857446 5.721233693378952 0.0
6.712825900331884 5.588664360236 0.0
6.79240375630333 5.711383948285569 0.0
6.86115931532141 5.584697050428064 0.0
6.939210100691576 5.704407337029545 0.0
7.007668476576536 5.580801046893123 0.0
7.084627386867475 5.702817970154801 0.0
6.633257976075473 5.460881327825488 0.0
6.931430743764456 5.461960451448691 0.0
9.682652370938209 6.533133024505995 0.0
8.761108695241376 9.450742747770144 0.0
9.146031326900015 3.764292700000154 0.0
9.089378801805193 3.661317181076136 0.0
9.514354521818781 8.994988681611192 0.0
8.157650730500988 4.262987189670279 0.0
6.329633198899328 5.4647789391701 0.0
2.340685767996258 2.811285337457589 0.0
7.379572471323651 0.9290892725587991 0.0
4.171878172186605 4.222320767259098 0.0
4.4876601621649 4.16473354200826 0.0
5.336389369563535 6.806464508860387 0.0
9.595468321212476 9.108133206829102 0.0
9.645038675267227 8.982113951305912 0.0
8.393140678816192 4.246338342095281 0.0
8.309440721624494 4.155300532283633 0.0
9.418269339704423 1.9925512363779 0.0
9.662781807969623 0.477809346089035 0.0
8.011297869803792 0.7518828483803571 0.0
8.250149975885678 0.7646904662196189 0.0
9.608674873602773 0.3618049194050078 0.0
8.692696069692623 6.582927327365709 0.0
8.628225948401226 6.705702462696891 0.0
8.701883181418305 6.822086652299242 0.0
8.559276855155542 6.829564723911442 0.0
7.069268463354993 5.459534423493629 0.0
2.654575201159115 3.323490466195074 0.0
3.610801136544596 4.044075244426243 0.0
8.263757217166944 5.48730323490738 0.0
8.138838162809126 5.491254533497952 0.0
7.90196833683664 4.477386962763833 0.0
7.987943097943191 3.978756490171551 0.0
9.704623491880403 3.945605151832784 0.0
9.461009573830147 7.301728818091931 0.0
9.532468631193666 7.399916015174975 0.0
9.582688928417856 7.292330983701011 0.0
9.652579613269625 7.387768793572397 0.0
9.699264016151023 7.282867433965265 0.0
9.633305589700536 7.188543855060478 0.0
9.505576100168666 6.961225778216469 0.0
9.43876966151099 6.342441564206569 0.0
4.908483672172518 6.098703904450545 0.0
9.135448256237908 5.269827196966999 0.0
5.905650502271389 2.025036080946255 0.0
9.709890722072377 9.452748507541063 0.0
9.663337613522643 9.572126259365891 0.0
9.603900123387826 7.495180532331903 0.0
9.720147629525837 7.483400774981126 0.0
9.674588415444239 7.588303295299578 0.0
9.653186673863587 4.039274180923234 0.0
9.053164539680804 4.764545162185531 0.0
9.164908495749003 4.763017269285045 0.0
9.226019227262443 4.858029410614327 0.0
8.809947621994619 3.4964384919072 0.0
9.10538997155458 4.665865142902959 0.0
9.331074106432244 5.748993480915537 0.0
9.055854333858068 7.918554535314415 0.0
9.446431573964945 8.209836764658437 0.0
9.573844810886287 8.191100251691205 0.0
9.309704769895653 8.244395007943949 0.0
7.240329561730736 1.676197957122907 0.0
9.543389817573933 3.660019800390455 0.0
9.598599341122098 3.563130123982772 0.0
9.652615161407017 3.658119804270645 0.0
9.706336063693934 3.564815526226687 0.0
8.632284427755456 6.946688912416058 0.0
9.682863230715835 2.349655023034811 0.0
9.571538455120994 2.142369886250143 0.0
8.090821900439733 9.017409120951333 0.0
6.812258669899192 0.9007667548831626 0.0
6.50135254578461 0.8974046495177885 0.0
9.598335906230732 6.246437748035812 0.0
9.719677442549804 6.253968775436637 0.0
8.593026822691716 5.180101360605356 0.0
5.537586126848265 8.836083861509138 0.0
9.688689404995035 2.143487155934306 0.0
2.821389253975936 6.507820864074362 0.0
9.176571289960709 8.507736431357309 0.0
2.918303740542162 8.256728920338826 0.0
3.428955230180972 8.401446814887457 0.0
8.490587404589881 6.715350139132777 0.0
8.86049054904785 7.243279881821806 0.0
8.93696309213556 7.356650230611625 0.0
3.951931175165697 5.78308550088855 0.0
3.65055612573298 5.91672400098539 0.0
3.668142216548471 6.247526235973777 0.0
9.717269848920886 5.821831227352286 0.0
9.708364917734201 3.164198601626433 0.0
8.45581975650687 4.569560863828342 0.0
8.204448312099833 6.040774355519757 0.0
8.65969449127868 5.485991799508151 0.0
9.707534571012967 5.634423933296901 0.0
9.62102991883279 2.849662850313935 0.0
9.144093558002634 3.560383427867003 0.0
8.29763273805118 1.77155302934031 0.0
5.280452715709455 9.01633391004168 0.0
8.984558945859158 6.99932633710603 0.0
8.4157550875812 1.275784953143711 0.0
2.068078118650995 3.355462780535101 0.0
9.205703884756806 5.568274778556933 0.0
9.745857863753141 7.178456670302003 0.0
9.681628895748586 7.081494416756802 0.0
8.875818787971069 6.240744812097083 0.0
7.993733797566922 6.414830952863579 0.0
8.462810157069566 3.377071044664789 0.0
9.29428363519789 4.759591981903337 0.0
7.933956818298286 5.97437536746848 0.0
9.028281726378319 3.558713145763133 0.0
9.083461773461467 3.455531762175701 0.0
9.73231939683535 2.849247643393067 0.0
6.70072305037728 2.192432536215492 0.0
6.423245125077639 2.212870246546939 0.0
4.931537051605536 1.135086496804522 0.0
4.746426561586179 1.500381091957315 0.0
9.707706579932626 7.836419656220658 0.0
8.590593344701457 1.595639668013959 0.0
8.708946574109854 2.1688179918246 0.0
8.634728854549891 2.028564483452208 0.0
9.230357659411311 8.129337203173913 0.0
9.102841374461482 4.452881308250647 0.0
8.472081531214734 5.388993924853032 0.0
4.925996806199801 5.844046944846857 0.0
4.702806345752284 5.745688656289065 0.0
4.884357002239844 5.633237011762874 0.0
4.709628434300812 5.536404116679045 0.0
4.530800966746534 5.627044171217377 0.0
6.040296145349247 6.603808099703576 0.0
6.162203578696918 6.795213950202512 0.0
5.923135943221574 6.824060069869489 0.0
6.046693245732212 7.010423490915212 0.0
6.297337598588478 6.979895528204233 0.0
7.760448385794147 0.7294020304851334 0.0
8.492228348169641 6.958778476405878 0.0
2.89219822877093 1.704113597264478 0.0
2.26178643438086 1.7814602252425 0.0
9.726968895980871 6.009547057102511 0.0
6.63195110828313 0.6072886418835157 0.0
7.984023036954866 7.515675826210831 0.0
7.893857204140559 7.681876703427663 0.0
7.778465117872411 7.537836322197895 0.0
7.998204230811618 7.844922503023499 0.0
7.798554315988981 7.858161805718108 0.0
7.917846202023782 8.03040048103727 0.0
8.547520504556728 2.721261126162116 0.0
8.39253850806587 2.732073315877738 0.0
8.306047241032278 2.59069854402512 0.0
8.233011054235162 2.739783364361515 0.0
8.318836035587811 2.879838477099622 0.0
8.159530874574331 2.888511553151382 0.0
8.245490421394788 3.024568439743106 0.0
9.759103003747676 3.077839427881478 0.0
8.083610090773394 3.033523757291178 0.0
8.174562583800352 3.166768504406541 0.0
6.046769434852523 1.155662270344939 0.0
6.968371001421964 2.176347877216873 0.0
8.324858098380334 3.152966249334499 0.0
8.145556596142626 2.609897633546475 0.0
8.970652052821418 7.804556541250797 0.0
9.033737629244714 7.681328986528639 0.0
9.62347010002576 4.796939565664328 0.0
9.72520380348743 4.790261082613535 0.0
4.882631186210167 5.455006233451049 0.0
4.618356368594037 3.933076284395493 0.0
4.748083507220199 4.151025177732873 0.0
4.641724290430313 4.358202249373887 0.0
4.87055838101999 4.337900676660481 0.0
4.974114446887331 4.149149057174687 0.0
5.081577844806959 4.3240148266423 0.0
5.179521650033781 4.148725180298481 0.0
5.276261408871418 4.316673822529601 0.0
5.369189110897883 4.148362797753505 0.0
5.463892033849439 4.338819369807593 0.0
5.550828466075906 4.146274465971151 0.0
5.646554822352869 4.303571429647391 0.0
5.728109623160046 4.138582010823754 0.0
5.821689108984419 4.291959598724587 0.0
5.906082534948073 4.141649907302701 0.0
5.99655838673762 4.288752711512514 0.0
6.077312859438928 4.141011188943332 0.0
6.164215275138099 4.281164574562373 0.0
6.241782344986693 4.140701084167517 0.0
6.324316420613108 4.277393447415522 0.0
6.40284165425941 4.140026953305852 0.0
6.483655157361099 4.273418937894759 0.0
6.561170698911611 4.136221843106807 0.0
6.63512300179586 4.269917278694155 0.0
6.720306110251473 4.133393659385058 0.0
6.63777078218551 3.99617001426095 0.0
6.802492763973074 3.994355399489989 0.0
6.798834760478153 4.276914787769972 0.0
6.15377608509923 4.000134206628027 0.0
6.548727135071258 4.400510710520637 0.0
6.251479300130713 4.421887359316258 0.0
5.275876048175579 3.979624500657822 0.0
5.910905077162284 4.431174408784691 0.0
6.717070288412452 3.851239795555301 0.0
6.883499045994213 3.852555480300214 0.0
6.96664848901999 3.994033961856844 0.0
7.048208567116626 3.854750001965969 0.0
5.810004974283072 3.982497501655442 0.0
5.586615391658107 4.471070246359201 0.0
6.547331954052155 3.853872077215347 0.0
5.179081233207816 4.485638492900557 0.0
7.126615227065496 3.995337770596979 0.0
7.209459742762513 3.856893463870469 0.0
7.130226097876905 3.713620439679428 0.0
6.63075064074106 3.699684148676045 0.0
6.446985573861992 3.697358756862005 0.0
7.043151422977365 4.131713936060725 0.0
7.198322215260019 4.129850614748363 0.0
7.119378405252723 4.26005098890218 0.0
4.797146270976422 4.525762781577414 0.0
4.608329098388589 4.573584257851931 0.0
7.294442092743627 3.720853338661503 0.0
7.215753312764997 3.571378507508807 0.0
7.049631633956289 3.568047985538775 0.0
7.133765707749521 3.414282375958479 0.0
9.755079417839903 5.539705890434435 0.0
9.698955703441971 5.450920012703194 0.0
9.717604099406742 9.09084770432896 0.0
9.276716006673976 5.847248422342224 0.0
9.339081208926798 5.941174203394446 0.0
9.031261921742963 3.750271483819014 0.0
9.08721978689863 3.853416037308712 0.0
4.801461566647803 7.510704110489921 0.0
8.206553504932042 5.818005960412773 0.0
7.362361315389098 3.863102442315545 0.0
9.492826845316191 2.963845037486267 0.0
9.376710375304633 2.97229517374228 0.0
9.3192743723601 3.070687802230453 0.0
7.915389082113898 6.293241865913004 0.0
6.735006382384437 5.832450056405368 0.0
8.456481836836168 4.35369289249905 0.0
8.517718268476031 4.246675068616396 0.0
5.583512022030555 5.411069060406398 0.0
5.73625200174779 5.422617752052123 0.0
5.81006929286229 5.548584937688919 0.0
5.903438861894402 5.420604003204523 0.0
5.43801870974416 5.402925156167655 0.0
7.022641548594327 5.825217331839047 0.0
7.165095795605366 5.826005223633447 0.0
7.223078558430726 5.690146755650336 0.0
7.841396000338385 4.586693006493787 0.0
7.904793170875705 4.690826189066096 0.0
7.785999820520073 4.696719777099973 0.0
7.846448506395101 4.798518978096564 0.0
7.728149182067156 4.803800941124008 0.0
7.788983823826226 4.904802634695232 0.0
7.672018889153144 4.910077510508749 0.0
7.731996012352178 5.014717724244488 0.0
7.852072803124419 5.00743796185411 0.0
7.779278698005006 5.118909346425974 0.0
8.088113864063853 5.605434545811022 0.0
8.016457362785575 5.494849890158723 0.0
8.072290383394757 5.385594956317259 0.0
7.95068657972964 5.38825563681957 0.0
8.309366678475389 1.438342408757099 0.0
9.748160780780179 1.447794693754379 0.0
9.696454228162398 1.337889922375316 0.0
9.568813761940916 1.329560834053294 0.0
9.638326779791626 1.226729570935787 0.0
8.472132467407484 5.182856496818138 0.0
8.066211547412054 6.53691730655352 0.0
8.217035586462373 6.522976700918602 0.0
3.544839338670893 3.324491119989469 0.0
6.999740002965287 5.347729916247808 0.0
6.874544698914502 5.347027470386579 0.0
4.880451234715014 5.193043717957879 0.0
9.104510033763066 9.313204713465637 0.0
9.0466357104558 9.45359399494339 0.0
9.146803165140184 9.569652364413551 0.0
8.134107047896672 0.5527712356100052 0.0
8.369770412730738 0.5571215815175228 0.0
8.47386979744655 0.7564607169846485 0.0
8.585193608569258 0.5749174254532757 0.0
8.683868132726584 0.75505070091701 0.0
8.787381435061018 0.5813987798627239 0.0
8.697570280442534 0.3771156480326233 0.0
8.530048434259976 5.077280516000916 0.0
7.995091351438729 2.90367515012593 0.0
9.731083608815164 1.662638626153251 0.0
7.260488865351954 4.255073962371814 0.0
9.760728358076392 8.990038509880067 0.0
9.716710396257366 8.884160310398862 0.0
8.794627466210242 7.369659405098349 0.0
8.868068657550866 7.515048014893154 0.0
8.702594597629135 7.510501129643432 0.0
5.132320689147051 0.7610757801158905 0.0
9.755852887652699 3.853180024615871 0.0
9.787424819067885 2.757921105725315 0.0
9.731193479931608 0.3736343090103709 0.0
9.796526908308536 0.489684029254899 0.0
8.226019692057042 2.453349105940535 0.0
4.560989821496479 5.428206018250252 0.0
4.348810639659689 5.517048281386008 0.0
8.785190163106925 7.119142251269924 0.0
9.015515413043023 7.464769766852701 0.0
9.754861440190705 3.659036930324926 0.0
9.7543610723378 4.033687839160082 0.0
9.707881226943384 4.127219992296752 0.0
9.52841017383273 8.309020665649431 0.0
9.65186044414544 8.289498614805698 0.0
9.714051275521857 8.173576484362068 0.0
8.209758892476394 8.715513071423135 0.0
8.097084883671858 8.548851201381087 0.0
8.177989947800599 8.367872862579052 0.0
7.974142434808908 8.36779470623567 0.0
8.409012054919861 2.142624252464372 0.0
7.707002321497132 8.039129945341395 0.0
7.574653123518228 7.83895791570255 0.0
9.229858094382692 5.951357214361815 0.0
9.75307989876696 1.229893222503321 0.0
9.715811155868643 1.128779429890018 0.0
9.597960915003707 1.117058287635912 0.0
9.672063923518955 1.020806103150243 0.0
8.99090422125785 9.593878510105375 0.0
8.133165456134304 9.257620998029804 0.0
7.976779931497633 9.420725324095141 0.0
9.77231778617502 7.927819487779705 0.0
7.957213679655531 4.364530256281665 0.0
9.609903116082736 8.403725680286847 0.0
9.724891358972584 8.388392708395173 0.0
9.687487059868507 8.495935345161797 0.0
9.810055520269009 8.494090598382963 0.0
9.755967487162335 8.599790818513082 0.0
9.645698986824481 8.606121319182705 0.0
9.721376049217765 8.699989876681524 0.0
9.773009257015609 4.884557953188837 0.0
9.830105798750992 4.796546393900876 0.0
9.775335108731761 4.686093304257503 0.0
7.455611517737074 3.730099283949135 0.0
8.906943567829634 0.4197477661467797 0.0
8.980613334153533 0.5814185917581446 0.0
9.081059111759728 0.4263421860552371 0.0
9.821654809259165 3.576985724143072 0.0
9.761309244784803 3.4792267780002 0.0
9.763329553045937 9.353068233045157 0.0
4.463051839136694 1.164440352584939 0.0
8.0213168204867 5.283436382300235 0.0
7.89385412333227 5.290429544753158 0.0
5.806940001023414 8.583716119232427 0.0
5.88977793877374 8.96065112858812 0.0
9.177759062826041 8.25539130897928 0.0
9.626582559276994 2.05283181283147 0.0
9.747673294325121 2.064954301745188 0.0
8.775905508647185 6.951821187702613 0.0
2.3581644273991 6.029034686663493 0.0
9.777798009058461 9.548066962498762 0.0
9.737129197219856 9.662299853506903 0.0
9.615080366030512 9.683349544763068 0.0
3.315839678697904 6.042943273456425 0.0
8.915083018115329 7.937748428923896 0.0
9.489832173860055 4.712364754630572 0.0
8.118313727862493 8.013944064029838 0.0
8.902248750797776 7.67372145952523 0.0
8.954075939212636 3.463080912810881 0.0
9.45247551997678 2.133243108303608 0.0
8.311151553157742 8.899233004613622 0.0
3.28672004268868 6.826745674539142 0.0
9.86008383798735 3.468233656255824 0.0
8.389990589860254 1.947086063498656 0.0
7.144231739553659 5.329544660076687 0.0
9.654500729007207 7.743301971143119 0.0
9.761920842881946 7.740144345898896 0.0
9.692820773976567 0.2651585113981998 0.0
9.690951720399688 6.100517071814821 0.0
9.775704281989471 6.077882312279847 0.0
9.823117117198079 4.115168542267924 0.0
9.764391943581737 4.214465954230587 0.0
9.659455011849253 4.218716850797838 0.0
9.713462125022623 4.30742830316693 0.0
9.849638067150842 4.208845651573708 0.0
6.376241713254513 3.858766051594979 0.0
6.274931849158213 3.701528298009006 0.0
7.097780104117746 1.926449727602711 0.0
2.457742027508782 3.810157622192786 0.0
2.963634206580268 3.740748099915693 0.0
5.065585416063965 5.544355730437482 0.0
9.783560252464587 7.566507987677117 0.0
9.825819294611026 7.470942204664841 0.0
9.799976114123012 1.01659516618323 0.0
9.745559590633832 0.9150866860898854 0.0
8.20473400632469 9.495828670767946 0.0
8.784586030320169 2.054461500762216 0.0
8.758471587067168 1.888286802854785 0.0
0.9188935087347281 8.510730800272478 0.0
9.674192026048217 9.20389587377276 0.0
9.796314981283475 9.185916994648775 0.0
7.206882433199502 5.452024361489832 0.0
9.773927048949279 6.334665846819535 0.0
9.830288393591173 6.225300227041885 0.0
8.25177349297509 3.282767705830209 0.0
8.099233469407428 3.304040153764131 0.0
9.607860512870598 4.315652630490023 0.0
9.403674738018715 8.367349042046314 0.0
7.611756786273919 5.018691202305147 0.0
7.549513964643336 4.923310232561835 0.0
9.80986724662116 0.2915868356190958 0.0
0.7757562810577034 3.504187313079081 0.0
7.659562100664981 4.698467529240196 0.0
6.539424975891206 3.541729955691742 0.0
6.717348880400739 3.55221857686142 0.0
6.836337579501807 2.417476958454302 0.0
7.096480496160066 5.959124656438389 0.0
7.189742782777612 4.377051328076039 0.0
7.051723187622053 4.38470822973091 0.0
7.125489805519186 4.497018383456762 0.0
6.994915621927777 4.501504591168814 0.0
7.056755276274058 4.607929817497045 0.0
6.932937068803914 4.613249390039674 0.0
6.86629288290367 4.50541343988659 0.0
6.80427099775847 4.617607827251794 0.0
6.739195362053689 4.511124964201849 0.0
6.677260697693361 4.624288827143181 0.0
6.996760608675822 4.711715831373894 0.0
6.316045249462968 0.6456945497683586 0.0
7.321834163850416 5.816449323512759 0.0
7.833101485370825 4.390058096386987 0.0
4.996572652976738 4.498711166259074 0.0
5.112334577457371 4.663858846723513 0.0
5.271923064784868 4.629759173373871 0.0
4.93773508827367 4.668006487116195 0.0
5.348137647919096 4.485934621930562 0.0
5.413454827497575 4.62999925573761 0.0
5.356581113747675 4.770594395332836 0.0
5.013422223730484 4.793321773780133 0.0
8.58674425943957 0.9312335381466886 0.0
8.776450596582496 0.9362399987293505 0.0
4.783496233934828 9.486061758876032 0.0
4.544176394620909 9.034071856445296 0.0
4.082330493623582 9.015765881393772 0.0
9.820867469965414 7.285959215547852 0.0
9.852697883440127 7.166089674802766 0.0
9.260999083164238 2.971390964911171 0.0
9.197701900169713 3.073162109379564 0.0
9.31960210441945 2.867465579641856 0.0
6.660951583415121 3.383363199709994 0.0
5.210469976037585 4.761678854423166 0.0
6.740780285297665 4.733615686805694 0.0
6.611362405615225 4.731958642073806 0.0
6.549091884465382 4.629620704100811 0.0
6.491761716522486 4.733409494449344 0.0
6.425259228542098 4.640546096196947 0.0
9.715556659367534 2.986725573570596 0.0
3.710524324925069 9.463213827486557 0.0
4.768537031214573 4.727001037865238 0.0
5.039413681704655 5.378508462165627 0.0
5.188746429211535 5.440476671296013 0.0
5.172214816037712 5.298914527247826 0.0
4.469063601436893 3.667917323494335 0.0
3.799121596584382 4.741629285988305 0.0
3.661085664896249 4.442847704416992 0.0
3.316563386321876 4.380147387454913 0.0
3.802087298647255 5.26743535640985 0.0
9.738116341343215 8.047178982429934 0.0
9.85106076399546 8.021725551312715 0.0
9.837581050304836 2.844176011307251 0.0
9.664579962075123 4.402853107737106 0.0
9.76433159763034 4.39807801415352 0.0
9.718924973226878 4.487825491046641 0.0
9.826405563645343 4.494594135148365 0.0
4.931068003413168 6.359330991212394 0.0
5.130175746947236 6.201075257041828 0.0
5.143884286052002 6.445382329515047 0.0
4.953395875296406 6.628748468717369 0.0
7.833019185167153 5.400347121613631 0.0
7.766636138801143 5.313240048256084 0.0
9.767038723422333 4.578090619166644 0.0
7.315369355237483 3.441501197259575 0.0
9.556068971301514 0.2347811136726856 0.0
5.733871280791703 4.444861510772459 0.0
5.828809543126846 4.569791247698539 0.0
5.986701526182213 4.562881783985375 0.0
5.912543327921148 4.692966271273211 0.0
6.052130330528581 4.682477327897978 0.0
5.773525984744635 4.697697018456535 0.0
6.121646311546238 4.572302645403103 0.0
6.182349700936326 4.67713231096357 0.0
5.846371383601797 4.808939734754761 0.0
5.117807918383606 5.974361363083184 0.0
6.256132501905665 4.575863546153224 0.0
6.324770064521816 9.645040261272253 0.0
7.345522892050965 4.12581088034536 0.0
9.338523512844539 4.854480276600515 0.0
9.286984287289403 4.959628690044808 0.0
5.676298026114105 4.589279806918992 0.0
5.631257891894775 4.722749088404111 0.0
7.970415275563177 5.621040275419208 0.0
9.565118337557308 7.081391220827488 0.0
9.626201005045262 6.980441083020495 0.0
9.733729506193331 6.979928568877979 0.0
9.684556253529976 6.887102896543928 0.0
9.780785815410074 6.890287441101827 0.0
9.740054813822885 6.794211367612523 0.0
6.462628988057306 7.629921412015864 0.0
6.692564520952154 7.473594130811262 0.0
6.927983108788191 7.570982428592125 0.0
6.899878641134941 7.329306734748538 0.0
7.117542472438434 7.416951094809493 0.0
7.089537168123128 7.186691566729968 0.0
7.296585396514727 7.275888419524222 0.0
6.879678873774065 7.097443005287856 0.0
7.063454637059129 6.967740076426161 0.0
7.329105042924355 7.496317641003757 0.0
6.867084781778411 6.878842928865059 0.0
7.494278796275744 7.351949197351029 0.0
7.462564159480594 7.150140034494138 0.0
7.644835001206406 7.21506678718646 0.0
6.682478929414216 7.008358327294905 0.0
6.449199855715812 7.365660640952548 0.0
7.548139855358765 7.57299228324251 0.0
7.008502809092701 7.844601794812628 0.0
7.371739019901781 7.707688433423657 0.0
5.665345294602155 5.290628720253272 0.0
3.987583013016546 4.486920698115711 0.0
8.893480480320447 0.7785000884179994 0.0
9.715485963651112 0.5955299613117169 0.0
9.761785841543585 0.7048670948649375 0.0
9.670304314877074 4.578896619304786 0.0
8.058509626083154 5.744161686650483 0.0
6.181795443628869 5.462040811515966 0.0
6.256771804808641 5.338464817889848 0.0
6.124070400983443 5.352376180901929 0.0
6.399679261813415 5.349186390888865 0.0
6.477776305607503 5.46505688468465 0.0
6.541624525938461 5.346017118512589 0.0
6.673064575428321 5.339051516933525 0.0
6.599301548842115 5.241958624987057 0.0
9.573774011620444 0.815274945835158 0.0
5.86493292693426 5.877588788523632 0.0
5.552663040119136 6.957487930464628 0.0
5.535080960199246 6.663033131707637 0.0
3.708603689392072 0.5979254716153909 0.0
3.31896983256719 1.188583855309964 0.0
3.895664898001925 1.128137111173669 0.0
6.363360407965353 6.032416442205533 0.0
9.445959758065749 1.070139246426051 0.0
9.50632172780449 1.214052376665338 0.0
9.441030033980638 1.325047485624912 0.0
9.295799464644857 1.341410624832976 0.0
9.184164107767781 1.461677744200096 0.0
6.407191016756832 4.407273313799791 0.0
5.544591888593027 0.7652641669375747 0.0
7.883090151006535 2.497506182548758 0.0
8.073420508370992 2.120510489750234 0.0
5.494822040671399 4.732314720081375 0.0
0.8986976806403217 1.464611451578306 0.0
9.536325549598013 6.83286654168725 0.0
5.972289519322897 5.727532110854501 0.0
9.82203607053145 9.443411729566549 0.0
7.263199949874008 7.064207941227515 0.0
7.233659553805083 6.853135694774254 0.0
9.793310082768443 7.072747972018893 0.0
6.734168931095253 9.67499220075154 0.0
6.941134861034159 9.382328333169653 0.0
7.285822522704258 9.443989747444657 0.0
6.576263515512108 9.333035011158342 0.0
7.160560566479093 9.127732577621245 0.0
6.218711947378506 9.298064908857533 0.0
6.432383355119106 8.980985203293491 0.0
6.795390278360442 9.046043538032663 0.0
8.54677014121837 0.1957422484480979 0.0
8.528696320820908 9.804850950580938 0.0
8.42644965647489 9.604735484095604 0.0
8.010239224104339 9.715048083583248 0.0
8.644359648763341 9.628432815860457 0.0
5.344212921686536 5.526744195650314 0.0
9.760936589662048 7.38409687515441 0.0
9.128187788393989 0.1445485608215519 0.0
9.133307661752394 9.854833215426817 0.0
4.867351616228264 3.944459575003425 0.0
5.905323253270366 7.385600364255367 0.0
5.909045412185362 3.361969954191194 0.0
5.80580919758911 3.569999290452344 0.0
5.578230704221431 3.587842862412673 0.0
6.013352753603037 3.550699073477782 0.0
5.936624955014758 3.721630401607248 0.0
5.735413275357409 3.78528948606432 0.0
5.512538847486775 3.794760621907932 0.0
5.360571639388366 3.618649018042938 0.0
5.134141179590394 3.459385929220745 0.0
6.167399567008798 3.367365990358096 0.0
9.766756262206602 8.291756450136036 0.0
5.486063578307141 9.64505925252771 0.0
9.497624614180321 4.328873442170357 0.0
9.811387324954623 1.570516917365688 0.0
9.389210081887331 4.69150887571586 0.0
9.704395728912932 3.754226393630331 0.0
9.808172776193384 3.748784464356272 0.0
6.549660911932182 4.839747932361234 0.0
6.757415124099031 6.077939876843736 0.0
3.805578542126494 8.040840085419626 0.0
4.232580149691158 8.198659880701744 0.0
4.559765382564095 7.87091698350757 0.0
8.3829075948167 0.9495097054886067 0.0
9.8571301061408 1.456307792614791 0.0
2.005900212453279 4.535525273813588 0.0
1.85904408608185 3.956445706785572 0.0
1.979307922430775 5.474327285927505 0.0
4.387923194305381 4.427191306527721 0.0
9.429258370703248 8.873693567695483 0.0
8.99196583083892 4.664567567015693 0.0
3.050357122593155 5.368999067452741 0.0
2.861107385476722 5.785089447130829 0.0
5.005058958272409 3.711196438448062 0.0
9.8972295764837 2.755337284632969 0.0
9.581048890980513 8.853909321617065 0.0
9.668838904423916 1.762418716497425 0.0
9.716576458425756 1.852218615166234 0.0
9.799043132681442 1.780583141193779 0.0
7.661868217848455 2.880323287492419 0.0
6.780136552904057 5.443858690999834 0.0
6.489544866845868 5.913957888434588 0.0
6.880149522020364 4.134257616716107 0.0
6.970134365280068 4.264072319341612 0.0
2.225481516813409 9.348422240784 0.0
1.843418032490818 8.641605249943353 0.0
2.198000805242772 0.6459947140825729 0.0
8.740020306282506 0.1903932731609072 0.0
6.86957996016679 4.720776242956433 0.0
7.430920333506809 0.2702852342693345 0.0
7.302066064947383 0.6134316505458445 0.0
9.305398039877746 4.64854361125207 0.0
4.078151380865065 5.203425462519088 0.0
4.080704120371218 4.778853303303787 0.0
8.052525541571825 5.965483159581719 0.0
6.367194027835946 4.754896037842673 0.0
8.604191121620719 7.648182513679963 0.0
9.546446695207845 9.234701521982952 0.0
9.018652854946867 3.351011585453845 0.0
9.143853648154607 3.350173119015413 0.0
9.067079866763024 3.245174561579149 0.0
8.991492136849105 3.135578770028028 0.0
9.29603967712795 0.1426516429033488 0.0
9.392428271030795 0.2506306237151588 0.0
9.223973843394301 0.2912279164401488 0.0
8.39375191941536 3.018777714002827 0.0
8.4836475746111 2.88135207267795 0.0
8.741089053946197 9.821127577434911 0.0
9.803966507713174 5.448064463539533 0.0
9.748132240148552 5.359371181503531 0.0
9.850258990973547 5.355211921626304 0.0
9.7965346514158 5.266762244994661 0.0
9.84142096963129 5.171050273734619 0.0
9.738843612428232 5.167483913244169 0.0
9.64168976006725 5.359875132194057 0.0
3.335917453809221 5.671837672982919 0.0
6.962669142802881 1.683222554707996 0.0
7.365210844496719 1.887492842536114 0.0
7.517378971174123 1.677983072937792 0.0
8.00383870208024 6.089394601875145 0.0
1.725435941000569 2.759295503019395 0.0
7.907977929549089 5.102827208603365 0.0
8.052861051278896 0.2683271125209605 0.0
9.80169732768395 3.385443381464333 0.0
9.831597648680848 3.28491948963525 0.0
9.736335895866404 3.316207814499244 0.0
9.597256128490281 3.756160701977744 0.0
8.865819925321706 3.366235906378775 0.0
8.489614436807788 1.757152185195495 0.0
8.88089641144391 1.078983279100314 0.0
7.430923851187758 9.724389499796425 0.0
7.584252919312249 9.509430586267927 0.0
9.744026095940516 2.247117754488748 0.0
9.729961521243718 2.659836747108116 0.0
9.790866569780063 2.558993767350471 0.0
9.736606445116795 2.455104424879619 0.0
9.846806182714698 2.452157456754448 0.0
4.518102112052724 5.141350889745285 0.0
4.519880229178207 4.85678334497067 0.0
9.7302407894617 6.434012603549242 0.0
9.787537474544765 6.523591663056312 0.0
9.744262337067932 6.617499601377625 0.0
9.8406238811518 6.41591236129004 0.0
8.914967252734657 3.579360039684312 0.0
9.154797282599406 5.670753066089419 0.0
4.228839454580575 4.612979739018002 0.0
6.095037541675208 4.42126627187728 0.0
9.304166983880842 9.864854494751789 0.0
9.406445527105628 9.759007358529582 0.0
9.256225114941945 9.700832989525724 0.0
9.796206564635622 2.351215649506205 0.0
9.849373673349081 2.25090453834006 0.0
6.332048155295931 3.511675163099286 0.0
9.069679774213784 3.022879178706259 0.0
9.070599961450037 9.055284879641471 0.0
1.808685691036764 6.331557276533421 0.0
7.120156826652838 4.698481230214924 0.0
7.052894345811342 4.799848851879358 0.0
4.739957520484086 5.369107149361242 0.0
9.389197839958292 7.197139943834638 0.0
9.046688232613976 4.560364044038737 0.0
9.162685461967492 4.562194096410666 0.0
4.227377821420887 1.564128177298305 0.0
9.201090975245227 2.794301402811909 0.0
9.251941624303948 2.677556975242327 0.0
9.186758273070138 2.563916005021366 0.0
9.317609833868786 2.560335260954038 0.0
6.57599191748324 2.437689779955877 0.0
6.305556560534859 2.459112595979303 0.0
6.981058048792093 2.642476994448363 0.0
9.886113463139504 6.510498309609482 0.0
9.250462794607717 6.221362629571698 0.0
9.305373999084068 6.108271307139882 0.0
9.390477915810829 6.228015172491477 0.0
9.44452571968143 6.114582165110393 0.0
9.502105740270528 6.197677857389309 0.0
9.31559697209813 6.331647407124485 0.0
9.370938253597153 6.437386206819511 0.0
9.594764406124872 0.1099001288712305 0.0
9.602872681151728 9.894988341116305 0.0
9.622661196143387 8.076680696281343 0.0
9.769069277144705 5.9102532189237 0.0
2.615076109785583 8.807551523115547 0.0
9.658920005405456 5.730890135691177 0.0
9.76063135061807 5.720703211793342 0.0
8.63963723169499 7.177334225227945 0.0
7.841904391869763 6.41346852896409 0.0
7.764520718520185 6.297267738834625 0.0
9.546492996136271 3.465225175657335 0.0
9.25600964352143 2.219157062786616 0.0
7.625057159226293 7.012987957636062 0.0
9.529121062829038 7.730283486008674 0.0
8.329887090625894 3.845190321147069 0.0
8.265841850823831 3.95687001944245 0.0
8.402006523775544 3.947660780406651 0.0
8.128436391670505 3.968543393650448 0.0
8.46705122470662 3.835767362024195 0.0
8.218867047074696 4.063481375518748 0.0
8.089763413611255 4.08062363292928 0.0
7.939578083855268 4.111915744184436 0.0
3.74991304509639 6.615676756107112 0.0
2.627714335615619 1.170993030860914 0.0
7.046129971268607 6.759930788612616 0.0
8.534603732661887 7.486325780553722 0.0
1.569381386467569 2.042794535871475 0.0
6.228703743210918 1.986421863690014 0.0
6.467030855792859 2.67190498312861 0.0
9.272246093269825 1.975478263632296 0.0
8.05269609263041 3.854522845257449 0.0
8.008595521536957 3.177870309354594 0.0
7.929796740504207 3.350600835935766 0.0
8.048703574664067 3.449582532910417 0.0
9.72947480375618 4.973926800124758 0.0
9.784850360535604 5.072865219810449 0.0
9.896036387646596 5.069261557893528 0.0
9.633140953203334 5.168645132864771 0.0
9.558102991128836 7.602453108835212 0.0
7.278758746505716 3.994295887299482 0.0
8.306681733482405 6.936428510427854 0.0
9.487163072013963 3.757777670075558 0.0
9.532950522284125 5.359403698944497 0.0
9.816036650072329 3.927268437107025 0.0
6.173882586235392 8.734645960664665 0.0
7.972518459433741 5.003005338485466 0.0
8.398453459336153 1.601072016988848 0.0
8.97460527296194 4.040886705742754 0.0
9.037941657530773 4.143578781749325 0.0
8.849604200183613 3.828506169652706 0.0
9.545296177100065 4.042698359132156 0.0
8.595941796785514 5.806754902023664 0.0
8.65588412428292 5.694192853853139 0.0
8.723710665131787 5.801528918332044 0.0
6.861288985046249 6.673713222735126 0.0
8.87477249219366 4.664500928777609 0.0
8.72385765226959 3.608276264790996 0.0
7.145228858696953 5.573648565429618 0.0
7.282945121585866 5.558559688509987 0.0
9.224761401603633 1.602363370249125 0.0
9.609115686587552 2.986868833620756 0.0
9.633989947851914 6.628120633848649 0.0
6.046214325132457 5.45615093027661 0.0
9.017014346798927 5.271996636983457 0.0
9.070824864071271 5.168510834798647 0.0
9.189021391555556 5.166867900487267 0.0
9.123328759137758 5.064718588163964 0.0
9.240587446378079 5.06459430516883 0.0
9.250848280531756 5.267364371053135 0.0
5.773050603406019 5.7192906317521 0.0
8.576466432793914 4.3559007860436 0.0
8.634627802680399 4.253467736542067 0.0
8.461790117175607 5.591735227444779 0.0
8.907610717370224 3.713397213891439 0.0
9.80665594564509 5.628066492225966 0.0
8.985935132601089 4.455263493464225 0.0
9.00640209566022 5.067597672073404 0.0
9.833659276096986 6.976519563917422 0.0
8.0283368553477 4.687271895436317 0.0
8.326580191759327 9.127498457128247 0.0
8.650637373791266 5.07513089931925 0.0
8.701067313435203 2.700069743477523 0.0
4.825307249916392 4.884175191874744 0.0
9.418335984190309 6.858444798015129 0.0
3.91434687300816 8.542956908935874 0.0
5.569239724399552 2.064135034637056 0.0
5.234271567762738 2.128974435011933 0.0
5.757920427527626 2.312422707096966 0.0
5.43365689737979 2.427455772745759 0.0
5.673210219624612 2.602111218343444 0.0
7.214258468265766 6.652783071431555 0.0
9.823626269633962 4.30685540664529 0.0
7.96996639420014 4.794005510174826 0.0
7.616003332725032 0.502676560965646 0.0
3.050634530589821 4.659174799474146 0.0
2.870894249800723 4.246924313393336 0.0
5.285393339952368 6.079037173753393 0.0
9.439954241218905 4.23581687956071 0.0
9.67709722097145 4.710772408106511 0.0
7.40767785509217 4.259947873553335 0.0
8.396202587439676 5.486075637998701 0.0
8.323689688705493 5.372061002264632 0.0
8.191312386254125 5.384662546230823 0.0
5.304380054816289 5.369675374029755 0.0
9.093848379546637 4.047647920840374 0.0
7.916313220758624 3.045043876114836 0.0
8.435854831444637 4.144861908356168 0.0
9.060262453079693 0.7340576053322918 0.0
7.053195520344596 5.238809779682351 0.0
9.621762679347093 2.45205452967588 0.0
8.410730269104743 5.287995309529392 0.0
9.655094569234972 3.472720279371932 0.0
7.982140513923982 6.667914768024983 0.0
8.402690325256646 4.883576657130221 0.0
9.17488654147479 4.962006474835693 0.0
9.013188196102961 8.49700148123058 0.0
9.795977244531603 2.156818021002043 0.0
9.893813711206834 9.545820400859157 0.0
7.965349232662289 4.250048884270795 0.0
8.644264557989125 4.874751532150782 0.0
8.215430976121077 1.26077208565765 0.0
8.379717637669398 8.37324652769609 0.0
9.320026533461409 5.559861899725609 0.0
7.885778178744864 0.4977439426642278 0.0
7.547066983926719 5.125166613071239 0.0
7.657542898944819 5.122996245335209 0.0
7.423918840193691 9.000935553397358 0.0
9.854133000712425 5.541931969512857 0.0
9.328508174398952 2.101486405523264 0.0
9.300749600926641 9.530012105354274 0.0
8.130307182491519 5.277079344947874 0.0
8.346752967392757 4.987627363826086 0.0
9.118404185029991 6.007087846617186 0.0
9.048232213728614 5.89431792713258 0.0
9.088340967655858 5.576242562571367 0.0
8.094762487139027 4.789727191449318 0.0
9.915265904493378 5.749591413470928 0.0
9.92169805280126 6.154216704502091 0.0
9.918022441582268 4.549125436287157 0.0
9.919332362905616 4.849536560132457 0.0
9.914800786693318 6.750595509794719 0.0
9.811792900437824 6.703950687575952 0.0
9.900643083988882 3.749855087409844 0.0
9.912423171222734 3.043228996968949 0.0
9.91892875832665 5.949999999993851 0.0
9.913300070218703 3.960831593817277 0.0
7.709347001661226 4.444236534782706 0.0
7.479443107717332 8.071637285053104 0.0
8.839057072155848 6.807845119358974 0.0
8.972330068019902 6.78765448182788 0.0
8.542093772125282 3.941452413628317 0.0
8.279144752968262 5.930387616620717 0.0
9.393455876855919 4.973162505621418 0.0
9.507123333872533 2.855087674515822 0.0
8.77504684283825 2.317347145885344 0.0
8.394133129040345 4.464046960801843 0.0
5.725509852450801 8.210843960481027 0.0
5.62632390239664 3.967637659758752 0.0
7.910815814627989 4.900765971697654 0.0
8.595808444085467 5.590040244353608 0.0
9.705160502006024 0.8106158419444889 0.0
9.82021247904746 0.808810893177099 0.0
9.218352146075844 4.447736986422823 0.0
9.20781892622228 3.858281726888132 0.0
8.713609974387523 5.178241668554946 0.0
3.55755059259364 8.921522400238844 0.0
9.59122926011489 5.452844834281716 0.0
9.70565100407009 9.77887811062354 0.0
9.826938454219809 9.74303055702321 0.0
7.238962096855633 3.278078153406256 0.0
8.575609105166194 4.567807831727537 0.0
8.936449841121737 4.765835458965493 0.0
5.59323463391086 9.248527978398117 0.0
5.280809113285124 4.886132326418428 0.0
9.328132730893216 6.544753806716806 0.0
9.026944889277736 6.67247283515637 0.0
9.81946239021469 3.007926663525007 0.0
8.677633568960493 6.144049349297466 0.0
8.33427489656924 4.571212803519522 0.0
8.55734024448315 6.382535186588269 0.0
8.692399379422756 6.372347713955898 0.0
8.495817478252626 6.503308565233578 0.0
9.905494734661673 2.544078755559835 0.0
6.177101405266569 7.228490244483556 0.0
9.825373011845263 5.807482724503027 0.0
9.808678508609606 8.118683092442964 0.0
8.397717712407108 7.08010313863416 0.0
7.428555529689225 4.935946611338556 0.0
9.575504958128711 6.125633853639113 0.0
9.154066996197898 4.146562596982661 0.0
8.074381802159323 4.337569667261167 0.0
7.018337246891919 8.843475095716133 0.0
7.970627172560641 2.658650028065857 0.0
7.382546388883145 6.723381543491632 0.0
6.822972334933889 4.884555620881615 0.0
8.343732976791593 6.041576709398377 0.0
7.743680217306919 8.423336160305476 0.0
8.505717922983454 1.115022897794028 0.0
9.113973198216474 6.992972408167606 0.0
5.818882632841168 5.300437503812764 0.0
5.951991891717714 5.279516346785062 0.0
9.450183479138845 5.92934813870612 0.0
8.783346541536119 5.48419035750989 0.0
9.38074895894124 5.65076274999803 0.0
9.513658728876734 7.193620441323493 0.0
6.396040948797887 6.776064256962667 0.0
5.389661780244388 4.89715084345563 0.0
4.473247649068957 5.85935163892416 0.0
9.249586607512612 8.37680799459232 0.0
9.103796366487646 8.379197231055114 0.0
6.274057301184156 4.87985402946409 0.0
9.259628836118232 3.561431822636308 0.0
4.037922477011971 5.489409780163391 0.0
5.62712958624254 4.893925433488392 0.0
8.806426003347967 6.133410188141932 0.0
9.53304466499349 9.59279975429444 0.0
9.542890959420024 1.966631379116419 0.0
7.459736176874619 5.863847835420528 0.0
5.937613117200432 4.89232797168023 0.0
6.171611131472617 4.879541833448487 0.0
6.100695199816815 2.291172318314745 0.0
2.315194906726768 8.081958163666464 0.0
6.878489987598286 5.148099521847569 0.0
9.105264414399338 8.639184652727645 0.0
9.20047261316883 3.457820810661327 0.0
9.895329010385955 7.55944047105717 0.0
9.912742873006831 7.76210330502246 0.0
9.37761459375249 3.168397068877758 0.0
8.946121261512507 6.345629828835438 0.0
9.918632496443566 4.449809517365367 0.0
6.848211525651934 5.945010613369067 0.0
9.915721525903255 2.047407395915179 0.0
6.117255841708726 5.163321965161054 0.0
7.276595248786602 5.347247322210079 0.0
6.32682869954104 5.23674259421017 0.0
8.785886448438022 5.692775375342819 0.0
9.099994401883361 6.776698531382792 0.0
9.913397459621638 0.2499999999998165 0.0
9.910352525643928 0.4481571029410266 0.0
9.907850422008579 0.5479735220323012 0.0
9.911983631350465 9.24778487019403 0.0
9.917634740384067 0.7514684821956668 0.0
9.195214232985496 3.254172408378337 0.0
5.000896927376288 1.846006038077654 0.0
9.917172478547403 8.250155740683276 0.0
9.908120476950126 1.742986232208194 0.0
9.914524635720774 1.949567899316728 0.0
9.907358878377153 9.145625165175748 0.0
9.917695944922635 8.949999999998397 0.0
7.648387553139914 5.325741673607362 0.0
9.605343588986079 4.130627398479715 0.0
6.648113233057817 6.774798386229164 0.0
9.910347203087213 8.446729917003672 0.0
9.913623694530468 8.548470085896316 0.0
9.9201245863254 1.536225488581779 0.0
9.906538426683255 1.059019360781604 0.0
9.912867352010919 8.74999999999809 0.0
9.799662981388353 8.79550485462418 0.0
9.831828680383174 5.99966894118311 0.0
9.91414179906643 1.263025320602998 0.0
9.920690092699912 7.240982963665807 0.0
9.385889285950551 2.235126904097426 0.0
9.28133998925606 8.00415195851526 0.0
9.817074723108401 3.172398890123306 0.0
9.482030285089927 7.512954023388035 0.0
6.682432918504054 7.233889573028878 0.0
8.528699633246763 3.260502457553277 0.0
8.91699963742029 2.327016692708648 0.0
9.267676068834481 3.954520684561369 0.0
8.70811637467455 4.974101624783084 0.0
8.18184214270768 7.816666208279135 0.0
9.690393137288163 5.264344933127836 0.0
6.937111790104696 5.245184991960528 0.0
5.895846026722989 5.174232967273284 0.0
8.281683356622615 6.400073017261236 0.0
9.150883172924027 7.444273543454419 0.0
5.430406600793122 3.390815886517273 0.0
5.049583827974758 5.697634876048387 0.0
8.3966710383105 3.495813899905868 0.0
9.007538428392454 8.046563579784266 0.0
4.645155158868719 2.637132843684674 0.0
4.887444326771336 2.30020425915506 0.0
6.483736782775559 4.522536327482678 0.0
7.843169154548308 8.2116075844056 0.0
5.06295551628385 4.901632590583318 0.0
7.201400991012747 5.138239336380897 0.0
8.519791031104612 8.848807089071627 0.0
8.658623737989732 3.031313729049854 0.0
7.585566208322493 3.629882964874684 0.0
8.411818469596405 6.834326722716643 0.0
9.172363528634236 7.669230647622864 0.0
8.85455683341768 2.682483055215344 0.0
9.359398739738925 1.631421337140716 0.0
9.071793864444992 7.337030604117359 0.0
6.968394563521436 3.712808894519514 0.0
7.899236117684646 7.094583340182754 0.0
9.54362864504834 9.781852543872333 0.0
7.151298729743687 7.644795130415299 0.0
5.452218361466201 5.186873761308322 0.0
5.517642289161902 5.293540933999446 0.0
7.802500357665464 5.978295671754199 0.0
6.594850839687122 8.491429270558893 0.0
6.029132431949566 8.294997405201931 0.0
9.31286590869111 0.5672913838331921 0.0
9.25238720319541 0.4415953739444106 0.0
9.550589523211062 4.228044955453704 0.0
8.748611832783206 6.250900951984038 0.0
7.566980108995873 3.995148257893202 0.0
7.426142759241261 3.996743578498081 0.0
6.478912513785404 4.000296412419969 0.0
9.30435638148753 5.168210982711592 0.0
7.542154188520517 5.752525075248498 0.0
7.219033852073297 2.139582470800704 0.0
7.370913620388047 6.545121498197235 0.0
5.226731036024996 5.187572666585561 0.0
8.515591031124366 4.462223215179979 0.0
6.762864307079274 0.3078036604979366 0.0
8.587432696997471 4.977010533175154 0.0
8.703948448756302 8.815629076400704 0.0
8.081003990931544 7.370949680119862 0.0
7.424404567669909 6.949730915714445 0.0
8.578903262311433 8.377992954045473 0.0
7.301258690263783 6.106184350645308 0.0
5.991600556904204 3.99820087171043 0.0
8.203048538477193 1.601044215405025 0.0
7.289972483120081 4.572350254111052 0.0
7.714697186439165 5.420586967696794 0.0
8.918853780709807 1.841796898567452 0.0
9.919941345877513 4.749808449067644 0.0
7.245589454939737 5.94251251443003 0.0
9.258480524497795 3.358952871140391 0.0
3.705877615124628 5.574038727593425 0.0
8.287096858129765 7.962370605242409 0.0
6.799629860952143 3.705385600481528 0.0
4.146753450763018 6.544154457143895 0.0
7.413973555029582 5.545687501585183 0.0
8.466524978378082 4.980481756569235 0.0
7.336312153537934 2.337983522449311 0.0
7.695505222753409 3.747498713679684 0.0
4.898236813123799 4.795853653580084 0.0
4.59779105899602 1.896916774247134 0.0
8.560170375862322 7.072369101894893 0.0
8.386150468360862 2.449771437140704 0.0
8.41200018115259 5.084601315536367 0.0
5.102189912301071 7.621598618277815 0.0
8.336320418935243 6.71651223072348 0.0
5.081745734883095 3.977838926197614 0.0
7.63590698378166 0.9500570055008507 0.0
7.743369677149255 3.051233984704873 0.0
5.357527459690566 0.3809996753407537 0.0
5.967373112873382 0.7731113464301924 0.0
8.169449265206127 6.666271947462212 0.0
5.95122726745053 5.55758205410881 0.0
9.922289489207834 3.53923011719877 0.0
9.39154684476555 2.659037023454942 0.0
7.701415639167884 7.690060291860976 0.0
9.819179654793023 1.329863870021845 0.0
8.358229579054417 6.506108206863729 0.0
9.269720555169467 5.657096143475924 0.0
4.473187658045934 7.435037860084884 0.0
9.65807158077373 3.255496360750368 0.0
9.605155446454205 8.713645566904637 0.0
7.097383547728313 5.141197376985936 0.0
9.812212483832656 1.89920712759492 0.0
9.83875570675407 6.81603549325055 0.0
8.926246869879279 2.079976511571457 0.0
9.166785856141402 9.169070814302419 0.0
8.763479010228052 1.587152667342957 0.0
5.957377924852992 6.404530806530254 0.0
7.14506854375872 6.10342416684208 0.0
5.672595070581394 5.164323323112049 0.0
4.899782787268781 0.3801727265981219 0.0
4.447133848117348 4.673614099606824 0.0
7.044865074789195 3.253639989243549 0.0
9.818461337102992 7.819456450952447 0.0
9.925334577033155 7.954012377173311 0.0
6.352907898232792 1.173665225954276 0.0
7.351721385581032 5.660361289755705 0.0
9.337367583861807 2.76534436379692 0.0
8.693118347802024 4.360254099729149 0.0
9.476812970101324 0.3524826622168163 0.0
7.109868985890334 0.9024224571333925 0.0
7.899106846231403 5.511805431542581 0.0
8.352799544476607 5.187887629361129 0.0
6.957483547582747 0.6176251309213842 0.0
8.099559500483094 1.412323841044818 0.0
9.913030944540278 0.8542404645334569 0.0
9.143075088381442 8.022165366829135 0.0
8.819861450593166 6.356592599428041 0.0
9.319444417409162 1.49938505915629 0.0
6.490262520326714 7.118204362551877 0.0
6.490874470087819 6.582907761235813 0.0
9.82506653058937 0.6146757679104559 0.0
6.803129818897624 4.419048038171804 0.0
9.840901379354312 0.08198751964190581 0.0
9.839740374244226 9.918356239418472 0.0
8.551927134544655 9.449788917425456 0.0
9.92097857388158 3.249999999993177 0.0
5.797087413057367 7.077351493358238 0.0
9.255412859987286 6.433984412022419 0.0
8.668174522249984 1.740767926084485 0.0
9.920991430240607 6.25262219124529 0.0
7.57275248448898 1.94367954756322 0.0
8.052865444445507 8.19900054463639 0.0
8.748697149245206 4.25201068974208 0.0
9.158270227735827 0.5542256343091421 0.0
5.997487767477439 4.787924707603557 0.0
6.119759900601896 4.78043793682227 0.0
4.353034750397793 8.619182743639561 0.0
8.721093521611476 5.588932824583312 0.0
5.717101151444983 1.123034066822819 0.0
9.825602081347064 8.68753399402474 0.0
8.005502510832988 8.7824052910506 0.0
5.548184234622668 6.408009287230429 0.0
5.77830300433981 6.598697187164234 0.0
9.613093825495433 4.50282172481406 0.0
9.928981132641653 9.74928475696928 0.0
6.613628176297015 4.515513362596662 0.0
1.822126723816303 1.297795131355289 0.0
9.514164594137375 1.43081427463862 0.0
4.735494753432723 3.698541604583975 0.0
9.52844959749262 8.615213629960298 0.0
4.660704511759056 0.7947595073298008 0.0
6.82340845160293 5.239926830264399 0.0
7.885938077030673 7.380147032865134 0.0
7.884599891021201 6.09005968568029 0.0
8.846834820720167 9.653276456345532 0.0
8.457777199486827 0.3851010632068662 0.0
6.66485224572131 8.771510767670392 0.0
9.091499342133352 9.708315832477556 0.0
9.824286725109655 4.976315293637262 0.0
7.848197684391786 5.632217046637356 0.0
3.88430598115417 4.225391362015386 0.0
8.776890759183289 2.809688928468134 0.0
7.393884285023409 3.59397875231041 0.0
6.927568893329758 4.396788356869783 0.0
4.96854327720728 2.662368428358774 0.0
9.1480130720193 3.951479613991279 0.0
7.071049729490975 2.38092990636632 0.0
3.40193058782919 1.686321186206593 0.0
7.612042194200681 4.815904436723407 0.0
9.043395868401339 6.888481825015849 0.0
9.098933057562759 8.152197681006806 0.0
6.058682303253315 3.857501492181965 0.0
3.707092669281355 2.986685502034343 0.0
5.113272509841263 5.189455016444592 0.0
6.960565857079232 3.416349532571279 0.0
8.755151527375476 7.649255597361291 0.0
3.393680865444538 3.679982303262531 0.0
3.117424600120088 3.35605258976247 0.0
8.530814041264104 5.488376426140491 0.0
4.820719767306654 5.106646490188182 0.0
9.918899263509473 4.144927088739744 0.0
9.918194630017027 7.447268230913605 0.0
8.461970084137805 3.144844565847669 0.0
9.924415919486059 6.949999999995354 0.0
7.184050152099684 2.72771667662237 0.0
8.834356715215904 7.801565642745232 0.0
8.689015446783005 4.145232831954543 0.0
8.490778532265319 8.234414357968106 0.0
8.63666290918932 2.83060276219705 0.0
4.61028976098935 4.741894230894578 0.0
6.314735925012879 4.003132559161639 0.0
9.20786580425652 4.67001723737971 0.0
7.141401229301469 4.873205425098625 0.0
6.235177809922153 4.774126344778935 0.0
9.12491895896937 3.145675090615719 0.0
9.255747684068178 3.162525801823036 0.0
8.312852272796098 2.290855459722148 0.0
1.449266720542303 3.363629101350872 0.0
9.525687840398492 4.800807314407045 0.0
4.829905263804087 8.14474456977717 0.0
9.09338914689732 7.563794106183232 0.0
5.389401689694107 5.283808684471545 0.0
8.530979415204587 3.029374286908943 0.0
7.901489077080633 6.535344047486632 0.0
9.218572924671975 5.760893551533255 0.0
8.562382833959296 4.143913974026883 0.0
8.62959127904665 8.974877485888243 0.0
9.408442441596518 9.62276529745719 0.0
7.5034765601713 3.869833107932387 0.0
9.842813436634783 6.600620949014236 0.0
9.826116984327193 8.911617279149695 0.0
7.529907780698261 0.7369111006685982 0.0
7.832164962480427 2.905293639437395 0.0
8.39517908433056 3.267417602291069 0.0
9.823014010107707 9.085319632577246 0.0
9.022314123618541 3.944559746338292 0.0
4.243701230676532 5.332574856090426 0.0
9.816740542566388 1.127839952679595 0.0
8.166775715766304 5.693916696568397 0.0
8.865374421689054 8.068986769641638 0.0
8.761145809863661 6.470583506581853 0.0
8.998345275919851 9.209303502026401 0.0
9.698477487436316 6.706902829754045 0.0
6.439032098063426 0.3109134377713525 0.0
7.562681994382136 4.643158005207056 0.0
9.03999088074715 0.2799354672273258 0.0
5.180741540467516 3.805018725608906 0.0
6.243990330956698 2.718077286244967 0.0
9.79416634023361 0.1815240178579244 0.0
9.926540005061975 2.847049370876555 0.0
9.826476210374608 2.670192168078066 0.0
6.365816673179121 4.536333049275508 0.0
5.546353765219417 4.618331215552614 0.0
9.820703096450293 2.000649418331399 0.0
6.884388790679166 3.561583980715254 0.0
7.431303395649604 5.747824222777201 0.0
8.849816832721245 2.19318290395604 0.0
4.185147517585975 5.697469360586313 0.0
9.165905238119013 5.873664931582344 0.0
7.70479478158537 1.788324620089049 0.0
9.627376046933474 0.9196091445437269 0.0
6.657687963328663 5.144792385996769 0.0
9.83245016645186 0.3925568446109945 0.0
7.483092985762584 9.253837199159435 0.0
5.445348362202234 3.977855663863651 0.0
7.476680532833337 4.837183287808616 0.0
9.572749890969304 8.505160319814301 0.0
9.915853314998252 9.437014513917465 0.0
7.679469018350979 7.390484878021194 0.0
9.418139053434402 4.790576000488359 0.0
8.096967733471567 5.865447162201908 0.0
9.829153508938724 8.378494945652118 0.0
9.926595955569645 5.157718300415699 0.0
8.774484245600224 7.939747459426853 0.0
8.629764448155779 6.481031318922794 0.0
8.961169458302376 3.839036702328818 0.0
4.617199205561317 5.256318959792646 0.0
8.480815774219478 4.031210317621497 0.0
9.708341592512763 3.401018043990571 0.0
7.183974816647467 4.77882314543966 0.0
9.821437962294304 7.659391965474772 0.0
8.150320284869602 2.286501016204562 0.0
9.828114434347311 1.684891358832554 0.0
5.349187766238684 6.538177907133678 0.0
8.076053471314525 2.76180604769483 0.0
4.907713691134565 5.29818629967416 0.0
0.6874399366049438 4.328593906714074 0.0
0.6980011780697519 5.702671170050627 0.0
8.263861466707834 8.182284285231713 0.0
5.838783785156478 4.913981390426639 0.0
7.807619472656604 7.235706382002089 0.0
9.388504256318683 6.022122644748753 0.0
9.929839894767033 6.436189192303577 0.0
8.3205848711706 3.39107920408397 0.0
3.240770542267401 4.019899919523968 0.0
8.059047070496568 2.468855909103855 0.0
9.932479519490421 2.449625056415224 0.0
7.737639000139152 4.580708137963557 0.0
8.26141077223695 0.3940397126348397 0.0
9.69568953371801 1.959951226402445 0.0
6.469120930453264 4.892267070266994 0.0
9.167223997255698 0.8102256463122337 0.0
6.236889648241256 0.9291076084031108 0.0
8.306379082772498 5.268830342852036 0.0
6.716089118890225 5.239344620507032 0.0
9.82511981852641 9.282822358664017 0.0
6.68375719572285 4.404998642130821 0.0
8.913754712375674 6.908138360584365 0.0
6.173250048857013 5.251634416326969 0.0
4.235907497612446 1.924052997345291 0.0
5.151007663981651 2.438629730660893 0.0
8.924254300637541 9.3764975797567 0.0
4.438612423541503 5.287968640901957 0.0
8.571203234299599 1.897009944569934 0.0
6.878800676380218 5.821332862798138 0.0
5.710626178601224 4.792560699857408 0.0
7.149510071621283 5.216310009157644 0.0
2.099966541549645 2.334742113488256 0.0
9.93396330620579 5.350566393301629 0.0
7.143046479323961 8.646955109387985 0.0
7.965747313080266 5.193641450105844 0.0
6.3314394693073 5.135050228240639 0.0
7.665821333021348 6.222698255001823 0.0
6.305321657053551 4.659816230868476 0.0
7.833020917089713 5.208837056143474 0.0
9.41455902676429 2.869725681199307 0.0
8.567151507735133 6.598605357295113 0.0
7.405527786978573 4.377085529441429 0.0
6.552969697053132 5.137148974085434 0.0
9.93630620742063 8.042778076596578 0.0
7.166743296019233 4.593171678848165 0.0
6.595561806063966 5.839366735225723 0.0
6.066152182102007 5.262519562574559 0.0
9.834694151277489 0.9093455747994099 0.0
8.98259191950674 7.579732466796592 0.0
6.465071238839505 5.25485771955322 0.0
9.759759896588413 3.236659507608532 0.0
4.775529448101694 5.224235675150505 0.0
9.935991245222917 7.153416415978829 0.0
0.6530736820718381 9.352299998916202 0.0
0.6449439415299687 0.6468300344151556 0.0
7.804690364869245 4.495816547678174 0.0
9.84503784553893 5.70620404704573 0.0
9.83525329400959 3.826992990746767 0.0
9.922964894244684 4.265000406933376 0.0
8.333767638401964 1.121219971446645 0.0
8.876012546033895 7.019147158538482 0.0
8.172413577824324 3.413096916572049 0.0
7.232233017296214 4.478957103028363 0.0
6.214597295185415 3.852860083673202 0.0
9.85013791746415 4.400709747289421 0.0
3.941627380932058 6.342995010255737 0.0
3.097271569675528 8.77391871286929 0.0
9.292917152323044 6.010976049411984 0.0
8.104342196673183 5.184165973282902 0.0
8.994300084006271 3.652611812846807 0.0
9.937157897030163 5.549999999993244 0.0
8.721368888525245 7.274540720770752 0.0
8.920003648712827 0.9516585309368178 0.0
7.910527456030004 8.536826514867816 0.0
9.846441288756814 4.60515911863952 0.0
9.584942233925151 4.712073182517884 0.0
9.642357858573972 6.805672051759494 0.0
9.797024725252207 9.838837222258014 0.0
9.842451438022124 4.018973836958878 0.0
6.112723137676118 3.704473949316424 0.0
7.574641969193845 3.765362276156904 0.0
7.826594968121701 6.200366572362263 0.0
7.762805366733504 9.34009502796868 0.0
9.56854033867856 1.012566255816665 0.0
7.71256563655353 5.219373702836014 0.0
9.68039392238282 8.786964504862018 0.0
5.910362452777086 9.277662068919813 0.0
7.418090653922814 3.326443419100716 0.0
9.857704179097952 4.697553149694669 0.0
8.452469674653342 8.996585816905599 0.0
9.522351366699843 2.057525484575908 0.0
7.802315574700843 9.548878971475935 0.0
9.938875656926385 3.449999999992592 0.0
8.425189037911712 6.608575180629274 0.0
5.925965231566842 2.523669697740033 0.0
6.654918072256329 5.95749128982984 0.0
9.826748589235729 9.631118448471485 0.0
8.6684585637523 7.39633999085442 0.0
9.844673843931567 3.090088625379724 0.0
9.93613850661301 2.250382721159617 0.0
9.218291993658738 2.892108990205171 0.0
9.83502846611296 8.212781989607324 0.0
7.754136409732265 7.104288507262783 0.0
8.510570542791681 2.036933285735889 0.0
7.757745059307245 4.315798612475442 0.0
7.989231770559189 6.201656630465583 0.0
8.068934521422738 4.198631572122605 0.0
4.957478134450373 9.038766150325067 0.0
7.208661142641733 6.501402463831379 0.0
7.299506095906239 4.363561999234681 0.0
8.250303873550486 2.105322217421675 0.0
8.678637541413377 7.053471135702286 0.0
9.761528395137384 6.163503990672834 0.0
9.84494857233395 8.59999999999775 0.0
9.83825138794677 3.672838954969637 0.0
5.121008544047756 5.808127183024784 0.0
8.343911550360986 4.043535893276861 0.0
9.85324441775315 5.899999999993774 0.0
9.51114465213134 8.41035540646284 0.0
6.505812179224195 6.93390566262983 0.0
6.15572847138365 9.023097246950844 0.0
3.352081892333425 3.024853379890529 0.0
6.433163283162099 8.675072413910678 0.0
8.825744236698243 3.624446391299867 0.0
4.883007294861279 7.819620905924936 0.0
5.876659170760434 5.638247433601083 0.0
6.859400040348503 6.510797998354633 0.0
7.946400945409184 3.500317276373196 0.0
7.496830255505493 6.653194511698024 0.0
9.852183479755313 4.891525833556942 0.0
9.77998778436291 2.922486526124376 0.0
6.774672660492365 5.324728659740495 0.0
5.717254072187427 6.824125962512845 0.0
9.713440940838062 4.63793103997539 0.0
8.859858662536796 0.2721395536350836 0.0
8.37556017530946 9.436653414116012 0.0
7.395237381047616 7.885576562773319 0.0
5.4709157802033 4.511152089197594 0.0
9.489749416979361 9.691840729914848 0.0
4.599216022837964 3.46438688931078 0.0
5.572287492757569 4.807021644849729 0.0
9.926499336309957 9.92730688390086 0.0
9.926499336310107 0.07269311609890093 0.0
9.338127766332573 0.3585313952168247 0.0
6.810761948165162 3.414693294319008 0.0
8.166274345037138 5.943611545564389 0.0
5.2892644736731 6.301081312912763 0.0
9.731911074791544 7.649313380659622 0.0
8.90251102352767 9.50983415326544 0.0
8.997881406541017 1.033666784655452 0.0
5.835124768755703 2.738139962594905 0.0
9.665357480775825 6.185331297099201 0.0
7.656532192558493 8.217157287499347 0.0
9.170463887605525 2.975444721032631 0.0
4.208158615905443 0.8648302238584886 0.0
6.97015686031129 5.933674629077266 0.0
6.181941366523793 3.565885175921835 0.0
3.30313590337911 6.393402837735046 0.0
6.447482061767014 4.816169316820496 0.0
8.185341428749446 4.169172087371246 0.0
4.552595724340015 8.298301336212145 0.0
9.84850676569699 8.999999999998423 0.0
9.846941514449377 7.393642828194986 0.0
7.924592433490734 2.788309934035703 0.0
8.154308714226714 8.853640122009672 0.0
8.876629743004642 1.96110242719995 0.0
7.228849192966834 8.90811350348676 0.0
9.852301635085423 8.296637825215246 0.0
5.219795195341889 5.547413133147649 0.0
9.861497117995457 6.901363010201344 0.0
2.953911258021604 6.136007283255669 0.0
6.93158841067062 4.77708273647784 0.0
9.67540418457871 2.912802891506324 0.0
4.194055958522277 4.437353127730132 0.0
6.133959559341536 0.406856611599261 0.0
8.29952795189331 9.309744645643846 0.0
9.843692337952948 1.209647690818311 0.0
5.164986286280336 6.671544079402435 0.0
9.838533350075606 2.081705440779448 0.0
8.301244777513975 6.604088853319459 0.0
5.471494771710784 2.714598185146428 0.0
8.86534684892311 1.208599471795828 0.0
9.940610684232212 1.451558535868664 0.0
9.40896208432968 1.428353940655538 0.0
2.329177605337097 4.238803555614174 0.0
5.980761651517799 7.182207186682233 0.0
9.66541573964336 0.1719254072074424 0.0
7.220979380229172 7.806128737674462 0.0
1.251721227904697 6.151932667911503 0.0
8.104967286191181 6.057912607875576 0.0
6.650768762224724 4.817922869198292 0.0
6.634976350437587 3.213339182992986 0.0
7.034320437500567 4.898219100342838 0.0
9.502772020064167 6.283064492634301 0.0
8.13187938667684 3.518506862055515 0.0
9.855471943454193 2.599999999994991 0.0
9.056747742708522 8.263936599935574 0.0
4.352645795441222 5.724453640019 0.0
3.744263984699181 1.488951698361357 0.0
5.175860134287045 3.6375726667098 0.0
7.736434712114619 6.400417475661193 0.0
9.857658576695343 6.316607183405179 0.0
7.876525261950537 4.304285002335559 0.0
9.856114384785611 7.914602773442983 0.0
9.848334119947063 0.7059644476295188 0.0
9.59694321995579 6.895814046141667 0.0
5.906465212962551 3.869023950643881 0.0
9.840676994268005 9.364956386459765 0.0
5.355015287544095 3.83518170601625 0.0
6.374090407153147 5.855743754257685 0.0
8.227401290513832 5.297819733684674 0.0
5.451235131977493 4.825706629991923 0.0
6.022070213762754 5.355923882747634 0.0
9.845674433677614 6.108401449483281 0.0
9.835067400944396 7.739582406783081 0.0
8.602026805792988 2.941372356914139 0.0
5.059869081004962 5.269480960018243 0.0
5.284714507903736 5.26496663762182 0.0
9.627110479149561 7.660076105040499 0.0
6.820001127809743 4.792514421153957 0.0
5.120512795059439 4.806607659110254 0.0
9.56933817216883 2.911464407429096 0.0
9.74091654291531 9.267545397628387 0.0
9.93006767325302 6.576784040838644 0.0
9.642486276936268 4.650227701598451 0.0
5.185183328569137 9.410919109238325 0.0
9.37052946854105 4.605636695802024 0.0
1.677077220416309 5.871167715901136 0.0
7.345783833404538 3.184020711886284 0.0
5.419239942654976 5.982692039856376 0.0
6.133318300188262 2.551919945731369 0.0
6.187291396343277 4.499077117404439 0.0
1.231465237822878 3.921479198315213 0.0
8.969849937139944 9.699215363213542 0.0
9.218303154263054 6.037447959776716 0.0
CELLS 4886 19544
3 1113 1356 1450
3 1402 231 1659
3 272 269 1414
3 396 394 1777
3 1451 945 1452
3 194 81 1801
3 1847 1501 2104
3 2024 2121 2479
3 1115 1113 1450
3 1124 1413 1844
3 1061 1955 2409
3 307 305 1645
3 1592 1369 1593
3 238 1501 1847
3 1955 1883 2409
3 1808 243 1910
3 1885 978 2362
3 1440 793 2092
3 189 1488 1608
3 353 350 1864
3 2007 2231 2232
3 307 1645 2493
3 1096 1760 2496
3 2178 874 2179
3 621 625 1595
3 1493 1480 1938
3 1655 1268 2137
3 1341 1410 2212
3 243 1808 2360
3 1902 1446 2516
3 1760 1096 1763
3 856 790 2180
3 2008 2046 2105
3 789 1809 2067
3 694 1543 1575
3 1127 1762 1953
3 1748 807 2228
3 1543 1308 1575
3 820 1872 2170
3 1417 954 1998
3 1369 1592 2386
3 272 1414 1787
3 329 333 1998
3 1544 1095 1545
3 2231 1490 2232
3 1342 1683 1790
3 374 377 1797
3 807 1678 2228
3 1665 198 2128
3 141 142 1620
3 325 322 1952
3 231 1402 1654
3 198 1665 2010
3 1890 1307 2387
3 208 1438 1619
3 2016 1970 2156
3 1436 212 2020
3 954 1417 2333
3 1736 1894 2244
3 1491 1750 2143
3 1677 1064 2146
3 1474 1258 1475
3 1500 233 1930
3 1446 2415 2516
3 1700 973 1800
3 2128 2270 2316
3 1316 1315 1593
3 1307 2341 2387
3 2258 1324 2328
3 1083 1507 1508
3 693 1095 1544
3 621 1595 1596
3 667 1571 1872
3 1932 1766 2061
3 393 391 2240
3 1342 1790 2400
3 252 1707 2234
3 931 978 1885
3 1430 1116 1704
3 1411 1109 1714
3 1478 1227 2440
3 1990 195 2297
3 1792 1167 1985
3 1682 444 1975
3 394 397 1777
3 1711 2028 2162
3 1574 856 2180
3 2008 1851 2046
3 736 1493 1938
3 1069 1060 1662
3 1458 455 1754
3 862 691 1705
3 1161 1642 2286
3 1699 1700 1800
3 447 516 1637
3 955 1482 1483
3 2024 206 2121
3 391 1773 2240
3 1072 1412 1893
3 212 1436 2350
3 1566 1365 1568
3 259 1441 1672
3 872 870 1764
3 330 328 1889
3 1539 1161 2286
3 1897 1898 2275
3 1434 1990 2297
3 1109 1411 1730
3 319 307 2493
3 1762 1761 1953
3 1369 1316 1593
3 1540 834 1832
3 1505 652 2442
3 1732 1655 2137
3 921 1712 2295
3 1872 1388 2170
3 1712 921 2125
3 2028 244 2162
3 1506 1570 1680
3 1569 368 1964
3 1571 667 2375
3 1587 2178 2179
3 196 1723 1737
3 524 2016 2156
3 1528 1250 1733
3 1115 1450 1973
3 1938 1480 1971
3 1809 1396 2067
3 1641 249 2299
3 1223 1258 1474
3 1365 1566 2120
3 1981 962 2316
3 1538 353 1864
3 455 1458 1756
3 152 233 1500
3 1116 1430 1703
3 817 652 1505
3 1347 2003 2004
3 1607 1958 2085
3 194 1801 2195
3 1410 1341 2351
3 223 1415 1710
3 197 1511 2346
3 2198 787 2225
3 81 82 1801
3 1438 208 1620
3 1444 522 1823
3 1511 197 1950
3 726 718 1567
3 1637 516 1739
3 1708 2337 2341
3 1280 1649 2124
3 2337 1395 2341
3 1327 1709 2315
3 1225 1227 1478
3 691 624 1705
3 476 2224 2305
3 830 832 2204
3 1750 1491 2403
3 1366 1897 2275
3 2345 1583 2352
3 2054 405 2110
3 1984 2172 2230
3 1846 2198 2225
3 1177 2042 2418
3 2121 1367 2479
3 1527 1531 1541
3 916 1039 1834
3 1413 1124 2467
3 1622 1503 1868
3 249 1641 2019
3 1805 405 2054
3 1761 1007 1953
3 1415 223 2395
3 960 1756 2203
3 368 1569 2135
3 1402 1659 2473
3 941 1433 2471
3 1267 1477 1501
3 260 2002 2265
3 1704 558 2077
3 2224 1886 2305
3 2053 1386 2199
3 1452 945 1952
3 1717 1611 1718
3 1682 1975 2230
3 1760 1762 2496
3 1481 203 2104
3 1264 1266 1670
3 142 236 1620
3 2133 1182 2179
3 1791 1602 2183
3 350 346 1864
3 1412 1072 2393
3 1281 1575 2255
3 1565 1948 2155
3 849 1449 1513
3 1958 396 2085
3 1339 1069 1662
3 834 1540 1917
3 269 267 1414
3 1268 1267 1501
3 1440 2092 2468
3 1399 1981 2316
3 1635 1636 2041
3 1454 252 2234
3 1451 1305 1890
3 1375 1883 1955
3 362 366 1786
3 1484 2410 2528
3 1449 849 1640
3 1267 1474 1477
3 200 1611 1717
3 1054 1581 1582
3 1350 1977 2253
3 190 1390 2118
3 788 1956 2193
3 1709 1327 1888
3 2233 2298 2413
3 1488 189 2355
3 478 1685 1714
3 230 1525 1690
3 1687 478 1688
3 427 429 1756
3 1570 1065 2476
3 1880 1133 1988
3 1649 656 2124
3 1537 209 1614
3 1134 1769 1986
3 1220 1268 1655
3 396 1777 2085
3 1167 1755 1985
3 2229 1744 2296
3 1575 1281 2287
3 127 240 1882
3 377 647 1797
3 954 329 1998
3 220 1697 1698
3 1342 1341 2212
3 1441 264 1672
3 1512 188 2433
3 763 2345 2352
3 1685 1411 1714
3 1805 1188 1951
3 1347 2004 2157
3 1054 1582 1667
3 1333 1617 1674
3 2217 73 2361
3 1539 1036 1917
3 1039 1292 1834
3 208 141 1620
3 1965 1964 2038
3 693 1544 1969
3 1453 239 2279
3 203 1481 2049
3 945 1451 1889
3 680 1459 2134
3 354 2147 2196
3 1405 1932 2061
3 1723 1722 1737
3 1748 1175 1927
3 1532 1528 1733
3 2057 1824 2154
3 1406 1659 1702
3 1948 1186 2155
3 210 1598 2114
3 1685 478 1687
3 1324 1325 2328
3 1526 1250 1527
3 165 166 1509
3 1493 736 2523
3 1526 1527 1541
3 1390 190 2417
3 522 1444 1998
3 1680 1570 1732
3 1017 1442 2525
3 374 1797 2430
3 1507 1083 2197
3 1756 960 2221
3 2270 1400 2316
3 2205 1452 2282
3 1074 1187 1888
3 2158 1245 2200
3 1442 1017 1684
3 864 1116 1703
3 1750 1751 2143
3 1456 516 1492
3 1677 2146 2149
3 2022 1339 2388
3 1602 258 2183
3 678 1594 1595
3 1245 1670 2200
3 972 830 2204
3 2143 983 2342
3 1268 1501 2226
3 1266 1461 1670
3 1487 222 2465
3 1382 2022 2388
3 58 59 1661
3 2147 1543 2196
3 1484 1485 2410
3 628 2053 2199
3 1906 1549 2259
3 364 362 1786
3 1339 2022 2247
3 1636 525 2041
3 625 678 1595
3 678 1593 1594
3 2212 1410 2222
3 1837 1865 2215
3 1699 1800 1801
3 866 864 1703
3 893 1472 1982
3 1735 1736 2244
3 1633 1255 1922
3 126 127 1882
3 681 867 1656
3 1351 1401 2363
3 11 228 1588
3 1127 1953 2454
3 265 266 267
3 1722 1122 1737
3 1389 1691 2069
3 1613 1610 1616
3 1227 1256 2440
3 429 455 1756
3 1535 1177 2418
3 322 324 1952
3 973 1700 1802
3 1964 368 2038
3 1176 1865 1866
3 1096 872 1764
3 1176 1866 1875
3 193 1839 1892
3 156 157 1441
3 615 617 1596
3 686 1520 2480
3 1409 2097 2305
3 2410 1151 2528
3 1427 2217 2361
3 440 1911 2314
3 1744 1743 2296
3 516 1456 1739
3 1939 589 2164
3 690 931 2150
3 1062 1579 1580
3 1054 1580 1581
3 955 1483 1716
3 1064 1677 2248
3 1956 1616 2193
3 1776 1893 2026
3 1398 1115 1973
3 2002 1453 2265
3 1541 1531 1542
3 216 2191 2536
3 1736 1326 1894
3 1065 994 1066
3 1598 2115 2175
3 2314 1911 2358
3 1433 941 2042
3 2115 1209 2175
3 717 1550 1551
3 188 1941 2433
3 267 1132 1414
3 771 1569 2064
3 1157 1545 1546
3 1231 1250 1526
3 1933 240 2181
3 222 1487 2025
3 1525 230 1765
3 1430 1704 2077
3 757 1744 2495
3 264 263 265
3 883 773 1917
3 739 2205 2282
3 1667 1582 2434
3 1744 757 2474
3 239 1453 2002
3 1441 259 2356
3 2005 1443 2012
3 254 1766 1932
3 1509 166 1679
3 1477 1475 1481
3 793 1440 2165
3 1385 1523 2377
3 1481 1475 2523
3 156 1441 2356
3 1066 1220 1655
3 945 325 1952
3 2094 2087 2134
3 1747 1175 1748
3 253 262 263
3 1327 1074 1888
3 718 715 1567
3 2046 1043 2105
3 240 1933 2399
3 1305 1307 1890
3 224 58 1661
3 1195 1566 2285
3 1590 1393 1749
3 1255 1230 1922
3 353 1538 2073
3 358 1999 2325
3 882 1802 2036
3 1024 1020 1604
3 333 522 1998
3 1401 1351 2414
3 1475 1258 1476
3 2310 786 2364
3 328 945 1889
3 807 1748 1927
3 825 724 1912
3 1742 263 2491
3 267 266 1132
3 2077 2102 2203
3 1431 1432 1860
3 1212 1957 2312
3 2097 476 2305
3 1132 1402 2473
3 717 713 1550
3 1746 693 1969
3 1372 1124 1844
3 1256 1541 2269
3 1977 1350 2274
3 2332 1978 2443
3 874 2133 2179
3 1983 1534 2171
3 1157 1544 1545
3 1230 1228 1922
3 1580 1579 1581
3 1565 806 1948
3 1416 1363 2413
3 1287 1995 2398
3 265 263 266
3 1534 1529 2171
3 1604 1834 2428
3 1255 1633 2509
3 1344 1643 1644
3 1332 1388 1571
3 1423 217 2217
3 2191 1057 2451
3 458 447 1637
3 1250 1233 1733
3 472 2212 2222
3 1175 1747 1840
3 1652 256 1653
3 1073 1347 1572
3 200 145 1609
3 683 640 1585
3 1116 862 1705
3 1221 1223 1474
3 1778 801 1803
3 1503 1622 2471
3 1475 1493 2523
3 464 680 2134
3 14 210 2114
3 579 1880 1988
3 1434 1435 1990
3 1447 2310 2364
3 275 274 276
3 2294 1871 2419
3 814 1068 1684
3 1172 1439 2273
3 273 272 274
3 1363 1416 2406
3 1220 1219 1221
3 1060 1656 1662
3 1099 1792 1985
3 2048 1198 2168
3 1241 1245 2323
3 699 723 1753
3 1640 1862 2070
3 910 1018 1584
3 1586 1067 1587
3 1656 867 1662
3 1067 686 2480
3 654 2242 2294
3 1593 1315 1594
3 1880 553 1974
3 236 1717 1718
3 617 621 1596
3 1723 196 2313
3 402 1877 2116
3 273 274 275
3 2202 1869 2252
3 1510 1358 1767
3 193 1892 2373
3 1188 1805 2054
3 1220 1221 1267
3 1066 1218 1219
3 1517 1097 1518
3 1677 1676 1858
3 686 277 1520
3 268 267 269
3 697 857 1592
3 220 1698 1699
3 1802 1700 2036
3 1612 1537 1614
3 929 817 994
3 228 12 2136
3 2110 2116 2482
3 1659 1658 1702
3 1611 1613 2280
3 1344 991 1643
3 683 1585 1604
3 1638 1358 2404
3 1485 1034 2410
3 2214 833 2424
3 271 272 273
3 1482 955 1962
3 1066 1219 1220
3 931 1885 2150
3 1613 1891 2280
3 1189 1589 2204
3 1566 1195 2120
3 726 1567 2490
3 1122 1722 1874
3 1494 319 2493
3 1671 259 1672
3 1267 1221 1474
3 603 528 1591
3 1664 2128 2316
3 1817 1924 2174
3 1626 1660 2111
3 1474 1475 1477
3 1023 1062 1580
3 1957 1599 2312
3 1764 1939 2164
3 1358 1950 2404
3 200 1609 1610
3 1431 1082 1432
3 1778 1803 2521
3 1830 1832 2075
3 1930 233 2369
3 1329 1482 1650
3 757 1959 2522
3 1239 1247 1597
3 758 1978 2332
3 1569 1290 2064
3 216 1694 2191
3 1453 1420 2265
3 1549 1906 2129
3 24 215 1674
3 19 235 1676
3 1621 1057 2191
3 1691 1389 2262
3 1617 1333 2192
3 929 994 1065
3 1769 1672 1986
3 1893 1412 2026
3 1609 1537 1612
3 271 269 272
3 1373 1438 1620
3 217 1423 2381
3 517 330 1889
3 1322 1055 1667
3 1974 553 2499
3 228 2136 2187
3 1589 1189 1788
3 1999 1577 2325
3 2110 405 2116
3 189 1608 1842
3 1055 1050 1667
3 739 1455 2205
3 1865 1176 2215
3 319 1494 2522
3 2474 757 2522
3 1484 227 1485
3 10 11 1588
3 723 809 1753
3 27 230 1689
3 1550 806 1565
3 1179 1180 1217
3 207 1617 2192
3 1433 1217 1502
3 1562 1556 1606
3 1379 2017 2018
3 1245 2158 2323
3 675 1097 1517
3 884 501 1599
3 1020 683 1604
3 1603 1095 1848
3 1001 2057 2154
3 1604 1585 1834
3 1610 1612 1616
3 1764 870 1939
3 2242 1871 2294
3 1669 1264 1670
3 1658 213 1702
3 1995 1646 2398
3 631 539 1600
3 1491 2143 2342
3 1801 1800 2195
3 1200 1199 1693
3 1535 940 1861
3 1534 758 2332
3 914 2258 2328
3 1588 228 2457
3 216 138 1694
3 151 152 1500
3 1133 1880 1974
3 1677 1858 2248
3 1294 1622 1868
3 875 1010 1767
3 1379 2018 2416
3 1279 2202 2252
3 182 256 1652
3 1592 857 2386
3 672 681 1656
3 615 1596 1824
3 1093 1487 1623
3 1823 522 2100
3 1245 1242 1669
3 1582 1581 1583
3 758 1534 2306
3 1975 1984 2230
3 1358 1510 1950
3 1663 1336 1665
3 2102 960 2203
3 366 1087 1786
3 1740 1490 2231
3 21 207 1709
3 145 146 1609
3 2339 765 2384
3 603 1591 1668
3 2081 199 2149
3 1540 1832 1879
3 1721 1723 1947
3 1754 455 1793
3 1751 1753 2119
3 882 1701 1807
3 1540 1539 1917
3 242 1695 1697
3 1521 354 2091
3 1363 2233 2413
3 1584 1018 1925
3 703 1067 1586
3 1177 1178 1179
3 795 916 1834
3 277 276 607
3 1571 1388 1872
3 22 23 1617
3 1097 823 1177
3 25 26 1624
3 419 418 1790
3 1728 1906 2259
3 440 1455 2261
3 1877 1318 2116
3 1488 1156 1608
3 1439 2130 2273
3 1889 1451 1890
3 1614 209 2389
3 1472 893 2094
3 675 821 823
3 23 24 1674
3 1788 1190 2183
3 917 941 1622
3 1763 1096 1764
3 1068 1442 1684
3 1034 1485 2173
3 2172 1533 2230
3 138 139 1694
3 1065 1570 2197
3 607 674 675
3 1536 1248 2268
3 229 135 1734
3 1437 1925 1926
3 680 510 1646
3 147 209 1537
3 26 27 1689
3 1627 705 2163
3 206 1651 2121
3 2409 1785 2462
3 1492 682 2447
3 1223 1225 1258
3 889 1772 2374
3 253 263 264
3 275 276 277
3 1455 739 2261
3 2022 1382 2176
3 150 227 1484
3 639 1019 1591
3 1449 1640 2070
3 1082 833 2214
3 1503 1502 1504
3 144 200 1717
3 1643 991 1713
3 1190 1791 2183
3 1538 1804 2073
3 1256 2269 2440
3 18 19 1676
3 521 531 2000
3 790 849 2180
3 1075 1329 1650
3 1087 1782 1785
3 1066 994 1218
3 270 269 271
3 682 1492 2494
3 185 252 1454
3 253 158 262
3 1629 1632 1633
3 200 1610 1611
3 1477 1481 2104
3 1623 1487 2465
3 1518 1097 1535
3 1414 1132 2460
3 1179 1217 1433
3 177 1506 1680
3 1392 1017 2525
3 1832 834 2075
3 675 823 1097
3 1459 2094 2134
3 1782 1087 1795
3 1838 1730 2372
3 1639 149 2528
3 1617 23 1674
3 2265 1420 2489
3 180 232 1859
3 1527 1250 1528
3 20 21 1709
3 1083 1508 2311
3 903 866 1703
3 1455 440 2314
3 1187 1858 1888
3 1659 1406 2473
3 1446 1902 2166
3 421 1951 2106
3 1598 210 2115
3 154 259 1671
3 1288 1835 2080
3 1832 1831 1879
3 1258 1225 1478
3 1024 1604 2117
3 1263 1429 1739
3 706 705 1627
3 1583 1581 2352
3 407 1805 1951
3 856 1574 2527
3 1701 882 2036
3 1624 26 1689
3 717 1551 1552
3 1385 2377 2391
3 2302 1745 2354
3 1572 1347 2157
3 1036 883 1917
3 1689 1690 1691
3 1664 1665 2128
3 1476 1479 1480
3 1751 2119 2143
3 815 814 1684
3 1790 889 2400
3 1606 1607 2085
3 265 267 268
3 418 889 1790
3 1522 1521 2091
3 135 136 1734
3 1726 1445 1729
3 647 1796 1797
3 1346 1453 2279
3 1293 1827 2117
3 1242 1244 1669
3 1853 1852 1854
3 889 2374 2400
3 1039 1038 1290
3 1524 628 2199
3 1331 1332 1571
3 1291 1290 1569
3 1475 1476 1493
3 1850 1852 1853
3 1490 1740 2456
3 1689 230 1690
3 1256 1526 1541
3 1704 1705 2167
3 1465 1470 1675
3 956 1073 1572
3 1613 1616 1956
3 916 917 1038
3 2014 1522 2091
3 1221 1222 1223
3 1999 763 2352
3 234 10 1588
3 1697 220 2335
3 1527 1528 1529
3 2298 1600 2413
3 1436 2020 2254
3 1642 1161 1678
3 1523 1385 2436
3 1730 1838 2426
3 795 796 916
3 713 711 1550
3 1456 1263 1739
3 999 1336 1663
3 1785 1784 2462
3 409 415 1783
3 607 675 1517
3 1229 1231 1526
3 1958 1855 2078
3 1589 1588 1590
3 1933 261 2380
3 762 1965 2038
3 1756 1458 2203
3 1776 597 1893
3 1794 1072 1893
3 188 1512 2266
3 1774 2339 2384
3 188 1908 1941
3 1010 1510 1767
3 2189 2285 2307
3 773 834 1917
3 1245 1669 1670
3 1248 1597 2268
3 146 1537 1609
3 818 910 1584
3 1641 1313 1651
3 1217 1745 2302
3 1065 1066 1655
3 1597 1247 2047
3 1360 2177 2376
3 1612 1615 1616
3 2126 867 2186
3 1019 683 1020
3 1747 892 1840
3 1092 1093 1623
3 261 1933 2181
3 400 424 1666
3 1516 1903 2377
3 1100 1392 1605
3 247 1738 1881
3 268 1134 1986
3 1177 823 1178
3 884 1599 1957
3 263 262 2491
3 806 1627 1948
3 1227 1229 1256
3 191 1729 2504
3 1636 1635 2502
3 1480 1479 1601
3 1721 1947 2498
3 1924 1146 2174
3 229 1734 1735
3 175 204 1725
3 1179 1178 1180
3 354 1521 2147
3 665 697 1592
3 640 646 1585
3 627 545 1636
3 1882 240 2399
3 1556 1555 1606
3 1373 1620 2394
3 1871 1071 2419
3 548 1628 1629
3 455 436 1793
3 974 1831 1841
3 1844 1413 2392
3 1612 1614 1615
3 209 1639 1937
3 1329 1330 1331
3 1823 2100 2142
3 1097 1177 1535
3 1021 1020 1022
3 825 1912 2455
3 913 1122 1874
3 400 1666 2113
3 1256 1229 1526
3 1419 1418 2450
3 1552 1551 1553
3 1850 1099 1852
3 1629 1631 1632
3 801 685 2029
3 1618 1619 1621
3 265 268 1986
3 1715 2165 2330
3 1531 1529 1534
3 1022 1024 1576
3 658 693 1746
3 703 686 1067
3 1062 1576 1577
3 1023 1022 1062
3 236 1718 2394
3 1688 502 1740
3 1501 1477 2104
3 213 165 1509
3 646 795 1585
3 196 1737 1738
3 379 679 1795
3 639 640 683
3 924 875 1767
3 1752 699 1753
3 207 2192 2315
3 627 1636 1660
3 1217 1180 1745
3 730 728 1833
3 528 561 1591
3 1444 1417 1998
3 252 186 1602
3 1729 1445 2504
3 460 502 1688
3 1418 946 1778
3 1203 1200 1693
3 548 470 1628
3 849 668 1640
3 646 785 795
3 607 276 674
3 14 15 210
3 147 148 209
3 478 460 1688
3 1709 207 2315
3 1157 1546 1608
3 1155 1731 1899
3 1524 1934 2390
3 1775 921 1876
3 1433 1502 1503
3 470 458 1628
3 1223 1224 1225
3 1291 1569 1964
3 871 1056 1826
3 1781 1783 1915
3 1587 1067 2300
3 916 1038 1039
3 1388 1387 1389
3 1611 1610 1613
3 1075 1328 1329
3 1039 1290 1291
3 1538 1265 1804
3 1184 1185 2163
3 597 598 1794
3 1450 1356 2421
3 1835 576 2080
3 1629 1628 1631
3 1331 1330 1332
3 561 639 1591
3 1476 1480 1493
3 705 703 1586
3 639 683 1019
3 1951 1188 2106
3 436 446 1793
3 1472 1297 2142
3 1332 1387 1388
3 1345 984 1720
3 1329 1328 1330
3 1050 1048 1667
3 150 151 227
3 11 12 228
3 557 541 2256
3 1831 974 1879
3 134 229 1766
3 1357 1358 1638
3 1336 1641 2299
3 1650 1482 1962
3 1591 1019 2512
3 1506 1507 1570
3 1803 801 2029
3 1178 823 1972
3 1552 1553 1554
3 1290 1038 1294
3 1028 1313 1641
3 1237 1239 1597
3 993 1017 1100
3 893 2087 2094
3 149 1484 2528
3 1768 1142 1949
3 9 234 1673
3 1554 1553 1555
3 668 632 1640
3 711 806 1550
3 1628 458 1637
3 1098 1829 1830
3 1482 1331 1483
3 531 1818 2000
3 435 419 1790
3 1156 1157 1608
3 1182 1184 2179
3 510 512 1646
3 1231 1233 1250
3 946 841 1778
3 1483 1331 1571
3 1459 680 2458
3 1166 1040 1210
3 892 1657 1820
3 1042 1445 1726
3 1019 1020 1021
3 749 805 1810
3 234 1588 1589
3 1695 242 1892
3 556 1853 2483
3 1018 1572 1573
3 1529 1528 1530
3 1606 1558 1607
3 1761 1759 2308
3 1396 1032 1921
3 1018 956 1572
3 689 1150 1416
3 1827 1293 2515
3 149 150 1484
3 1647 656 1648
3 1543 694 2196
3 399 409 1783
3 545 525 1636
3 268 269 270
3 715 713 717
3 1100 1017 1392
3 1657 892 1747
3 207 22 1617
3 1666 884 2249
3 1671 1672 1769
3 1554 1555 1556
3 146 147 1537
3 1081 1444 1822
3 711 709 806
3 1443 2005 2322
3 660 658 1746
3 1166 1458 1754
3 916 796 917
3 1056 1728 1826
3 1068 1069 1275
3 184 185 1454
3 158 159 262
3 2007 1687 2231
3 805 1708 1810
3 1672 264 1986
3 1561 1562 1563
3 978 1075 1650
3 1590 1588 2457
3 215 25 1624
3 1551 1550 1565
3 1073 1346 1347
3 857 818 1584
3 1648 656 1649
3 675 674 821
3 561 594 639
3 1731 529 1899
3 2303 1454 2535
3 981 903 1040
3 1630 1629 1633
3 993 877 1017
3 724 718 726
3 512 603 1646
3 1676 235 1858
3 814 1060 1068
3 715 717 1567
3 1796 647 1870
3 1715 1171 2165
3 678 1592 1593
3 644 613 1824
3 1690 1525 2145
3 1297 1822 1823
3 271 656 1647
3 1704 1116 1705
3 1225 1226 1227
3 1275 1069 1338
3 910 956 1018
3 1824 1596 2154
3 1403 1100 1605
3 1221 1219 1222
3 1068 1060 1069
3 1901 245 1949
3 1081 1055 1321
3 1751 563 1752
3 1021 1022 1023
3 672 638 681
3 1095 657 1848
3 1235 1237 1248
3 1561 1556 1562
3 1265 1259 1804
3 524 1819 2016
3 978 1650 2362
3 1492 516 2494
3 229 1735 2061
3 185 186 252
3 157 158 253
3 152 153 233
3 9 10 234
3 1527 1529 1531
3 1808 1344 2360
3 1062 1577 1579
3 1509 1679 1977
3 424 454 1666
3 637 638 672
3 981 1040 1166
3 1555 1558 1606
3 751 749 1810
3 1166 1210 1458
3 1651 1313 2121
3 15 16 2260
3 1633 1632 2509
3 2167 1705 2276
3 551 602 2045
3 697 818 857
3 364 1786 1883
3 832 1189 2204
3 1476 1478 1479
3 678 665 1592
3 213 1509 2096
3 1015 888 1124
3 1062 1022 1576
3 679 1782 1795
3 680 1646 1995
3 1101 1100 1403
3 1109 433 1714
3 1248 1237 1597
3 733 730 1833
3 1702 213 2096
3 499 498 1828
3 1418 1778 2521
3 637 600 638
3 1048 1046 1054
3 1577 1576 1578
3 814 766 1060
3 1279 2252 2292
3 474 470 548
3 199 18 1676
3 157 253 1441
3 1048 1054 1667
3 471 472 2290
3 625 665 678
3 795 785 796
3 1264 1265 1266
3 1437 1926 2350
3 1362 2048 2168
3 1394 2337 2371
3 454 884 1666
3 1022 1020 1024
3 751 1810 1923
3 1046 1023 1580
3 1807 1701 1931
3 1618 208 1619
3 566 588 689
3 1828 498 1829
3 501 509 1599
3 1118 780 1775
3 878 817 929
3 1510 1511 1950
3 1618 1621 1694
3 1052 1081 1822
3 1416 1150 1715
3 1239 1241 1247
3 1396 1921 2067
3 1751 1752 1753
3 1264 1259 1265
3 539 566 1600
3 1762 1127 2496
3 1673 1788 2183
3 1555 1557 1558
3 1052 1050 1055
3 725 724 825
3 1142 1770 1771
3 681 853 867
3 454 501 884
3 1346 1420 1453
3 932 1147 1770
3 1546 1545 1547
3 533 582 1818
3 1266 1337 1460
3 1872 820 2318
3 1117 1119 1713
3 1081 1321 1417
3 1253 1259 1264
3 1569 771 2135
3 1052 1055 1081
3 1181 1178 1972
3 709 706 1627
3 1073 1076 1346
3 1098 1828 1829
3 1382 1380 2176
3 1442 1275 1443
3 919 999 1663
3 1789 828 1855
3 877 815 1684
3 509 539 631
3 992 877 993
3 1266 1265 1337
3 2268 1498 2340
3 1130 1032 1396
3 1095 1603 2508
3 886 826 887
3 531 533 1818
3 1131 1400 1881
3 447 437 516
3 2460 1132 2473
3 940 1535 2418
3 768 1873 2037
3 1813 1869 1954
3 1627 2163 2488
3 1497 1495 1645
3 1198 1409 2168
3 724 726 1912
3 1869 987 1954
3 763 1999 2338
3 1010 1170 1374
3 984 976 1720
3 1470 1743 1744
3 689 588 1150
3 1901 1949 2359
3 1640 632 1862
3 274 272 1787
3 563 564 1752
3 994 817 1505
3 737 1807 1931
3 1770 1147 1771
3 1233 1235 1733
3 2450 1418 2521
3 414 410 1821
3 908 1099 1850
3 1227 1228 1229
3 1692 1203 1693
3 1625 216 2194
3 512 528 603
3 1377 1357 1638
3 1465 1464 1470
3 1360 1359 2177
3 1686 2007 2095
3 1336 1028 1641
3 1857 751 1923
3 1758 572 1759
3 553 541 557
3 1171 1715 1811
3 956 1003 1073
3 1467 1465 1675
3 719 718 724
3 1509 1977 2096
3 1734 1625 1736
3 1503 1504 1868
3 592 597 1776
3 180 181 232
3 162 163 231
3 2308 1759 2370
3 1357 1114 1358
3 875 946 1010
3 509 631 1599
3 17 18 199
3 144 145 200
3 1099 906 1792
3 1469 1467 1494
3 605 589 1939
3 1208 1205 1211
3 354 344 2091
3 692 782 804
3 1010 946 1170
3 1463 1462 1464
3 716 715 718
3 714 713 715
3 271 273 656
3 139 1618 1694
3 549 277 686
3 673 672 766
3 1378 1377 1379
3 2007 868 2095
3 999 1028 1336
3 1208 1211 1447
3 601 545 627
3 1119 1643 1713
3 1332 1333 1387
3 910 912 956
3 520 521 2000
3 828 1789 1819
3 277 607 1520
3 1338 1339 2247
3 818 819 910
3 767 766 814
3 712 711 713
3 1494 1467 1675
3 639 594 640
3 2044 557 2256
3 235 20 1709
3 1620 236 2394
3 804 919 962
3 1862 702 2070
3 681 852 853
3 1559 1556 1561
3 1622 941 2471
3 2165 1440 2330
3 612 644 692
3 697 698 818
3 1903 1516 1994
3 371 379 1795
3 428 426 2138
3 1290 1294 2064
3 1384 1904 2432
3 566 689 1600
3 471 452 472
3 1092 1091 1093
3 1002 1131 1719
3 1090 1089 1091
3 875 841 946
3 1758 1760 1763
3 1562 1606 2085
3 1833 1830 2075
3 178 179 214
3 164 165 213
3 769 923 1815
3 692 644 782
3 804 782 919
3 182 183 256
3 160 161 257
3 1329 1331 1482
3 962 1663 1664
3 1177 1179 2042
3 403 405 1805
3 1461 1460 1462
3 140 208 1618
3 1859 232 1860
3 274 1787 2099
3 1381 2126 2186
3 1558 1560 1789
3 430 428 682
3 452 435 1683
3 1487 1156 1488
3 1470 1464 1743
3 597 1794 1893
3 1244 1253 1669
3 962 919 1663
3 258 8 1673
3 1087 1785 1786
3 970 1042 1726
3 199 1677 2149
3 1664 1663 1665
3 1229 1230 1231
3 991 827 1713
3 792 1603 1848
3 1822 1444 1823
3 665 666 697
3 19 20 235
3 142 143 236
3 728 1098 1833
3 532 530 1898
3 1015 1124 1372
3 1546 1547 1548
3 1851 1850 1853
3 1877 393 2240
3 923 1105 1815
3 1090 1091 1092
3 687 686 703
3 1683 435 1790
3 887 826 1961
3 684 663 1089
3 426 1934 2138
3 464 510 680
3 853 854 855
3 568 572 1758
3 1376 1357 1377
3 1205 1203 1692
3 1607 1789 1855
3 710 709 711
3 780 781 1775
3 1434 1103 1435
3 876 815 877
3 766 672 1656
3 1393 1590 2457
3 684 1089 1090
3 530 890 1898
3 926 1920 1943
3 696 414 1821
3 1563 1562 1777
3 1054 1046 1580
3 1398 1973 1974
3 137 216 1625
3 1210 1040 1430
3 1750 563 1751
3 2010 1665 2299
3 1510 1374 1511
3 1777 1562 2085
3 1707 252 1791
3 1932 1404 1933
3 459 438 1814
3 139 140 1618
3 1093 1156 1487
3 231 163 1658
3 699 722 723
3 1545 1095 2508
3 598 612 1794
3 579 554 1880
3 1941 1908 2401
3 1231 1232 1233
3 1831 1829 1841
3 1037 1383 1799
3 177 178 1506
3 636 600 637
3 1036 1539 2286
3 1356 1114 1357
3 1523 1516 2377
3 704 703 705
3 403 402 405
3 648 792 1848
3 723 756 808
3 1388 1389 2170
3 933 932 1770
3 223 1710 1711
3 1779 399 1783
3 1223 1222 1224
3 1028 1029 1313
3 257 161 1654
3 418 412 421
3 734 882 1807
3 693 657 1095
3 1368 1370 1436
3 136 137 1625
3 688 652 817
3 1075 1327 1328
3 540 479 1813
3 398 395 402
3 548 1629 1630
3 574 591 699
3 1469 1494 1495
3 1041 1598 2175
3 167 168 202
3 175 176 204
3 2045 2046 2201
3 186 187 1602
3 886 887 888
3 1253 1254 1259
3 8 9 1673
3 792 655 810
3 843 1145 1960
3 1180 1349 1745
3 1165 1345 1512
3 708 706 709
3 136 1625 1734
3 21 22 207
3 140 141 208
3 625 626 665
3 1093 1094 1156
3 1585 795 1834
3 1117 1713 1806
3 599 579 600
3 810 871 1826
3 1047 1046 1048
3 1292 1291 1293
3 161 162 1654
3 199 1676 1677
3 1260 1282 1804
3 1005 1142 1768
3 1233 1234 1235
3 792 810 922
3 1122 1719 1737
3 976 985 1720
3 1278 1279 2292
3 2390 1934 2531
3 1436 1437 2350
3 270 271 1647
3 1199 966 1846
3 1683 1342 2212
3 656 273 2124
3 699 591 722
3 1977 1139 2096
3 1738 1719 1881
3 1722 985 1874
3 1797 1448 1798
3 162 231 1654
3 632 604 1862
3 252 1602 1791
3 1051 1050 1052
3 1045 1023 1046
3 648 655 792
3 993 1100 1101
3 1321 1055 1322
3 806 709 1627
3 904 903 981
3 1220 1267 1268
3 648 605 655
3 1737 1719 1738
3 385 399 1779
3 506 499 1828
3 1132 266 1402
3 1170 1418 1419
3 1323 2302 2354
3 24 25 215
3 137 138 216
3 721 965 1919
3 1787 1414 2460
3 778 1117 1806
3 723 722 756
3 407 403 1805
3 564 574 1752
3 1049 1048 1050
3 842 841 875
3 1608 1546 1842
3 809 808 899
3 1517 1519 1520
3 1530 1532 1533
3 889 421 1772
3 913 1002 1122
3 1314 1316 1367
3 1017 877 1684
3 841 802 1778
3 1235 1236 1237
3 751 1857 1900
3 1114 924 1767
3 1344 1644 2360
3 1895 1394 2371
3 1518 1535 1861
3 1758 1759 1760
3 1122 1002 1719
3 546 563 1750
3 1056 1726 1727
3 663 660 1746
3 621 622 625
3 1720 985 1721
3 1857 1843 1900
3 808 756 913
3 1056 970 1726
3 27 28 230
3 134 135 229
3 908 906 1099
3 163 164 1658
3 1727 1726 1729
3 7 8 258
3 154 155 259
3 1101 1403 1404
3 808 913 1874
3 1260 1269 1282
3 1389 1387 2262
3 1297 1053 1822
3 1555 1553 1557
3 1463 1464 1465
3 230 28 1765
3 1237 1238 1239
3 554 553 1880
3 775 778 1806
3 985 899 1874
3 1270 1524 2199
3 489 1820 1936
3 692 1072 1794
3 1472 2142 2272
3 1845 496 1929
3 438 431 1814
3 613 615 1824
3 1241 1242 1245
3 1783 415 1915
3 1192 2081 2149
3 178 214 1506
3 1816 988 1817
3 1760 1759 1761
3 1103 1092 1623
3 1512 1345 1661
3 1876 921 2295
3 1165 984 1345
3 978 1074 1075
3 1239 1240 1241
3 542 541 553
3 813 988 1816
3 1148 984 1165
3 871 970 1056
3 472 452 1683
3 1207 1796 1870
3 1167 1166 1754
3 1296 1053 1297
3 966 964 1846
3 976 899 985
3 982 976 984
3 702 1815 2015
3 900 899 976
3 1143 995 1206
3 1576 1024 1827
3 1235 1248 1733
3 1558 1557 1560
3 943 995 1143
3 1920 1144 1943
3 1471 2115 2477
3 29 30 255
3 132 133 254
3 1630 1633 1634
3 1225 1224 1226
3 1925 1573 1926
3 1211 1205 1692
3 725 825 826
3 1113 924 1114
3 600 579 1988
3 717 1552 1567
3 1820 1657 1936
3 674 276 2099
3 395 393 1877
3 572 543 1897
3 1575 1308 2255
3 999 1000 1028
3 1118 1775 1876
3 1797 1798 2430
3 526 546 559
3 867 853 2186
3 1142 1771 1949
3 1068 1275 1442
3 679 385 1779
3 1607 1558 1789
3 580 568 1758
3 1244 1252 1253
3 1760 1761 1762
3 398 402 403
3 1476 1258 1478
3 418 421 889
3 1771 1147 1839
3 164 213 1658
3 1720 1721 2267
3 1668 1591 2512
3 1042 1128 1445
3 1098 1830 1833
3 1102 1092 1103
3 2249 884 2466
3 1104 1103 1434
3 410 416 1821
3 514 513 541
3 580 1758 1763
3 637 673 1741
3 1913 936 1914
3 1394 1395 2337
3 919 920 999
3 577 554 579
3 2111 1660 2263
3 231 1658 1659
3 612 613 644
3 568 543 572
3 770 775 1806
3 1445 1128 1446
3 1546 1548 1842
3 448 460 478
3 810 870 871
3 1789 1560 1819
3 1154 1082 1431
3 873 973 1802
3 379 385 679
3 837 850 921
3 1461 1462 1463
3 1346 1076 1420
3 1088 1344 1808
3 2125 1143 2353
3 931 977 978
3 882 772 1802
3 29 255 1765
3 849 1513 2180
3 1713 827 1806
3 1130 1396 1397
3 681 638 852
3 1417 1321 1873
3 1654 1402 2530
3 502 526 1740
3 1124 888 2177
3 1266 1460 1461
3 515 1175 1840
3 1253 1264 1669
3 479 466 1813
3 1727 1729 1757
3 379 380 385
3 1971 1480 2514
3 1637 1739 2459
3 1207 1205 1208
3 529 519 1899
3 1129 1845 1929
3 224 1661 2267
3 192 1856 2361
3 732 734 1807
3 1184 2163 2435
3 1119 1120 1353
3 415 414 431
3 719 724 725
3 559 546 1750
3 871 872 970
3 1038 917 1622
3 574 699 1752
3 166 167 1679
3 1117 1118 1119
3 1409 1196 2035
3 617 619 621
3 1172 1173 1439
3 1191 1005 1768
3 664 663 684
3 494 493 1841
3 890 529 1731
3 840 802 841
3 493 974 1841
3 385 386 399
3 679 1779 1780
3 371 376 379
3 416 433 1109
3 670 769 1815
3 902 866 903
3 1780 1779 1781
3 480 515 1840
3 970 971 1042
3 433 448 1714
3 28 29 1765
3 1005 949 1142
3 778 780 1117
3 959 1037 1799
3 1073 1003 1076
3 535 532 1898
3 1119 1118 1120
3 658 657 693
3 1378 1379 1380
3 1397 1396 1809
3 1610 1609 1612
3 1819 1560 2016
3 1837 952 1865
3 1719 1131 1881
3 1131 1399 1400
3 1352 1138 2058
3 399 406 409
3 548 1630 2041
3 1275 1338 2251
3 582 1816 1818
3 1835 1836 2144
3 993 1101 1980
3 1699 1698 1700
3 2407 364 2505
3 1189 1190 1788
3 1117 780 1118
3 1830 1829 1831
3 637 672 673
3 692 804 1072
3 1204 1203 1205
3 1374 1170 2139
3 612 692 1794
3 1642 1408 2286
3 723 808 809
3 450 459 1812
3 409 410 414
3 802 801 1778
3 1853 1854 2483
3 1042 1127 1128
3 1199 1846 2225
3 1147 990 1273
3 1383 1384 2432
3 432 431 438
3 1353 1120 1390
3 1093 1091 1094
3 2020 250 2254
3 148 149 1639
3 606 605 648
3 1970 2016 2422
3 2201 2046 2327
3 475 471 513
3 412 407 1951
3 1991 246 2139
3 727 695 728
3 1673 234 1788
3 1554 1556 1559
3 1089 663 1746
3 1846 964 2056
3 923 991 1088
3 409 406 410
3 729 728 730
3 1424 1427 1856
3 1473 1911 2407
3 1376 1377 1378
3 1010 1374 1510
3 853 852 854
3 366 369 1087
3 772 873 1802
3 1219 1218 1626
3 1766 229 2061
3 1088 991 1344
3 922 810 1826
3 518 506 695
3 405 402 2116
3 962 1664 2316
3 913 942 1002
3 932 990 1147
3 629 813 1816
3 876 877 992
3 399 386 406
3 932 845 990
3 1002 1123 1131
3 843 996 1145
3 781 837 1775
3 262 2304 2491
3 431 696 1814
3 1273 1695 1892
3 731 730 732
3 737 732 1807
3 439 438 450
3 1829 498 1841
3 800 685 801
3 767 814 815
3 1060 766 1656
3 673 766 767
3 1403 1605 1882
3 716 718 719
3 1338 1069 1339
3 847 752 1843
3 864 862 1116
3 2302 443 2519
3 923 827 991
3 526 559 1740
3 1911 1473 2358
3 1085 1310 1867
3 809 899 900
3 1227 1226 1228
3 729 730 731
3 1436 1370 1437
3 731 732 737
3 769 827 923
3 456 452 471
3 1433 1503 2471
3 1435 1103 1623
3 385 380 386
3 1141 1787 2460
3 1354 1088 1808
3 657 649 1848
3 415 431 432
3 484 892 1820
3 727 728 729
3 855 854 1450
3 1721 1722 1723
3 1643 1353 1644
3 1145 1916 1960
3 1421 1191 1422
3 466 1812 1813
3 943 944 995
3 1356 1357 1376
3 714 715 716
3 1156 1094 1157
3 598 611 612
3 631 1600 2298
3 590 589 605
3 965 969 1919
3 416 1109 1821
3 242 1697 2335
3 1548 1547 1549
3 550 573 584
3 584 604 632
3 409 414 415
3 712 713 714
3 642 670 702
3 818 698 819
3 1006 1005 1191
3 1624 1689 1691
3 169 170 237
3 173 174 238
3 956 912 1003
3 937 936 1913
3 1317 1025 1875
3 515 540 550
3 973 1799 1800
3 973 959 1799
3 518 695 727
3 910 819 912
3 584 573 604
3 1170 946 1418
3 173 238 1847
3 550 540 573
3 982 984 1148
3 900 976 982
3 441 435 452
3 448 478 1714
3 1849 1648 2173
3 1631 1628 1637
3 1830 1831 1832
3 1383 1216 1384
3 734 772 882
3 949 933 1770
3 1332 1330 1333
3 574 575 591
3 1105 1088 1354
3 702 670 1815
3 498 494 1841
3 827 770 1806
3 873 959 973
3 1390 1391 1415
3 450 438 459
3 950 949 1005
3 351 362 364
3 1313 1029 1314
3 432 438 439
3 837 838 850
3 1273 1274 1695
3 850 851 943
3 911 952 1837
3 1259 1260 1804
3 566 587 588
3 1037 1216 1383
3 1337 1265 1538
3 1087 369 1795
3 810 655 870
3 1559 1561 1566
3 1147 1273 1839
3 732 733 734
3 1662 867 2126
3 890 1731 2241
3 1854 1852 2397
3 515 479 540
3 451 450 466
3 697 666 698
3 1367 1316 1368
3 662 660 663
3 365 355 694
3 1358 1114 1767
3 379 376 380
3 1796 1448 1797
3 179 180 1859
3 790 668 849
3 569 568 580
3 690 860 931
3 466 450 1812
3 431 414 696
3 1973 1133 1974
3 651 649 657
3 467 466 479
3 1288 1289 1835
3 264 265 1986
3 1302 1303 1304
3 592 596 597
3 1873 1321 2037
3 544 543 568
3 275 277 549
3 209 1937 2389
3 539 565 566
3 1485 227 1486
3 2384 2190 2408
3 1781 1779 1783
3 480 479 515
3 689 1416 2413
3 1108 1161 1539
3 1867 1310 1895
3 1300 1301 1302
3 1695 1696 1697
3 633 632 668
3 1304 1451 1452
3 988 911 1837
3 168 169 1724
3 969 1012 1172
3 582 629 1816
3 1843 752 1900
3 629 812 813
3 710 711 712
3 1782 1780 1784
3 536 535 543
3 1089 1746 1969
3 1108 1107 1161
3 1514 1426 1856
3 486 484 1820
3 369 371 1795
3 1817 988 1924
3 493 609 974
3 1422 1191 2023
3 1426 1424 1856
3 842 875 924
3 922 1826 2259
3 989 1361 1886
3 928 1070 1288
3 669 668 790
3 1113 1114 1356
3 1027 847 1843
3 728 695 1098
3 734 735 772
3 975 1107 1108
3 955 859 1962
3 813 911 988
3 1208 1448 1796
3 1101 1405 1980
3 602 676 2045
3 586 581 589
3 546 547 563
3 493 491 609
3 628 1524 2390
3 348 344 354
3 1298 1299 1300
3 509 538 539
3 974 609 975
3 813 891 911
3 871 870 872
3 1355 1354 1423
3 489 486 1820
3 778 779 780
3 1025 1176 1875
3 772 773 873
3 803 1743 2347
3 167 202 1679
3 873 883 959
3 1483 1571 2375
3 427 1756 2221
3 540 1813 1954
3 1202 1200 1203
3 959 1035 1037
3 837 921 1775
3 1304 1305 1451
3 1799 1383 2195
3 604 642 1862
3 1470 1744 2474
3 1854 2397 2453
3 1282 1269 1386
3 1573 1572 2157
3 472 2222 2290
3 1307 1708 2341
3 769 770 827
3 1037 1215 1216
3 791 790 856
3 1053 1052 1822
3 1056 1727 1728
3 1341 1138 1352
3 1300 1299 1301
3 1814 696 1838
3 1198 1196 1409
3 492 491 493
3 439 450 451
3 1171 858 2132
3 1259 1254 1260
3 665 626 666
3 970 872 971
3 258 1602 2357
3 1296 1297 1472
3 490 489 491
3 516 437 2494
3 1298 1027 1299
3 846 845 932
3 501 508 509
3 460 461 502
3 448 449 460
3 482 480 1840
3 1229 1228 1230
3 604 641 642
3 1424 1423 1427
3 502 503 526
3 1028 1000 1029
3 935 933 949
3 1084 1085 1867
3 2028 1711 2353
3 1513 1426 1514
3 892 482 1840
3 852 638 1988
3 402 395 1877
3 738 737 845
3 413 412 418
3 1119 1353 1643
3 526 527 546
3 280 279 281
3 1731 1155 2123
3 1042 971 1127
3 1208 1447 1448
3 433 434 448
3 262 159 2304
3 184 1454 2303
3 1051 1052 1053
3 1816 1817 1818
3 1081 1417 1444
3 781 836 837
3 911 951 952
3 1090 1092 1102
3 202 168 1724
3 1085 1309 1310
3 408 407 412
3 1337 1538 1864
3 1515 1514 1516
3 530 529 890
3 1517 1518 1519
3 549 686 687
3 923 1088 1105
3 404 403 407
3 1835 1289 1836
3 1314 1367 2121
3 1380 1379 2416
3 670 671 769
3 899 808 1874
3 1040 903 1703
3 1596 1595 2154
3 1496 1495 1497
3 636 637 1741
3 1377 1638 2288
3 1288 1070 1289
3 1072 804 1981
3 1129 1334 1845
3 1865 1084 1866
3 792 922 1603
3 1253 1252 1254
3 981 1167 1792
3 1302 1301 1303
3 1641 1651 2019
3 952 953 1084
3 1813 1812 1869
3 732 730 733
3 975 1106 1107
3 1142 949 1770
3 981 1166 1167
3 840 841 842
3 451 466 467
3 1273 990 1274
3 1049 1050 1051
3 1473 2407 2505
3 968 966 1199
3 642 643 670
3 1310 1309 1311
3 422 419 435
3 1063 833 1082
3 919 782 920
3 911 891 951
3 1084 953 1085
3 1763 1764 2164
3 1498 1497 1682
3 515 550 1175
3 1079 937 1913
3 642 702 1862
3 845 737 1931
3 1394 1311 1395
3 1395 1521 1522
3 467 479 480
3 1755 1754 1793
3 1231 1230 1232
3 1557 1553 2030
3 1624 1691 2262
3 584 632 633
3 1094 1091 1969
3 708 709 710
3 1948 1627 2488
3 952 951 953
3 1102 1103 1104
3 1047 1048 1049
3 1310 1311 1394
3 1852 1099 1985
3 143 144 1717
3 813 812 891
3 1944 1044 1945
3 1105 1354 1355
3 1300 1302 1455
3 1914 936 1940
3 1415 1391 1710
3 1299 1027 1843
3 952 1084 1865
3 1695 1274 1696
3 776 774 1928
3 282 281 283
3 2003 1347 2279
3 1206 995 1499
3 1164 1685 1686
3 1551 1565 2030
3 969 1172 1919
3 633 668 669
3 734 733 735
3 1373 1372 1438
3 599 600 636
3 1431 1860 2487
3 1579 1577 1999
3 484 482 892
3 917 940 941
3 2144 1836 2169
3 1866 1084 1867
3 1110 1747 1748
3 998 1171 1811
3 1390 1120 1391
3 644 1824 2057
3 1362 1961 2048
3 944 1283 1825
3 1086 1027 1298
3 679 1780 1782
3 974 975 1879
3 507 506 518
3 1121 1079 1401
3 775 777 778
3 1965 762 2349
3 1045 1046 1047
3 1772 421 2106
3 16 17 2081
3 416 417 433
3 921 850 2125
3 1607 1855 1958
3 649 648 1848
3 1241 1240 1242
3 2012 1443 2251
3 926 928 1920
3 1487 1488 2025
3 1006 1191 1421
3 1355 1423 1424
3 1133 852 1988
3 591 592 1776
3 1299 1843 1857
3 1085 1308 1309
3 490 491 492
3 958 694 1575
3 1384 1216 1385
3 741 915 1878
3 1233 1232 1234
3 669 790 791
3 481 480 482
3 687 703 704
3 492 493 494
3 1634 1633 1922
3 1697 1696 1698
3 1721 985 1722
3 1839 1273 1892
3 772 735 773
3 488 486 489
3 950 1005 1006
3 1513 1514 1515
3 454 500 501
3 873 773 883
3 284 283 285
3 2185 1505 2442
3 959 883 1035
3 543 535 1897
3 1904 1384 2093
3 800 801 802
3 1037 1035 1215
3 1293 1964 1965
3 1239 1238 1240
3 943 1143 2125
3 1782 1784 1785
3 913 756 942
3 488 490 1884
3 1590 1749 2501
3 1235 1234 1236
3 791 856 1408
3 702 2015 2070
3 1108 1539 1540
3 1021 1023 1045
3 695 506 1828
3 1530 1528 1532
3 488 489 490
3 1621 1619 2161
3 704 705 706
3 1304 1303 1305
3 558 1704 2167
3 625 622 626
3 542 553 554
3 604 573 641
3 664 684 685
3 564 571 574
3 1108 1540 1879
3 1856 1427 2361
3 880 1025 1129
3 1395 1311 1521
3 1466 1465 1467
3 915 495 1884
3 1515 1516 1523
3 1237 1236 1238
3 606 648 649
3 999 920 1000
3 676 829 1043
3 2100 794 2142
3 227 151 1500
3 577 579 599
3 153 154 1671
3 1175 550 1927
3 1014 888 1015
3 286 285 287
3 1649 1280 2427
3 1725 204 2137
3 975 609 1106
3 1129 1317 1334
3 1109 1730 2426
3 1468 1467 1469
3 1131 1123 1399
3 1215 2235 2378
3 1976 1149 1989
3 397 395 398
3 746 743 1878
3 1041 1343 1598
3 975 1108 1879
3 741 495 915
3 1167 1754 1755
3 288 287 289
3 743 741 1878
3 1274 990 1931
3 1506 214 1507
3 857 1584 2277
3 2341 1522 2387
3 846 932 933
3 1107 1106 1110
3 584 633 1927
3 290 289 291
3 722 591 1776
3 1544 1094 1969
3 1135 270 1647
3 935 949 950
3 1920 1288 2080
3 754 1896 2108
3 1693 1199 2225
3 292 291 293
3 394 393 395
3 745 743 746
3 1002 942 1123
3 731 737 738
3 294 293 295
3 1018 1573 1925
3 296 295 297
3 298 297 299
3 321 322 325
3 317 320 321
3 314 315 317
3 312 313 314
3 310 311 312
3 308 309 310
3 1898 890 2275
3 306 307 308
3 304 305 306
3 1401 1079 1913
3 300 299 301
3 302 303 304
3 300 301 302
3 302 301 303
3 491 489 1936
3 298 299 300
3 304 303 305
3 306 305 307
3 308 307 309
3 310 309 311
3 312 311 313
3 314 313 315
3 317 315 320
3 321 320 322
3 1301 1299 1857
3 514 541 542
3 296 297 298
3 850 838 851
3 1310 1394 1895
3 294 295 296
3 590 605 606
3 292 293 294
3 651 657 658
3 290 291 292
3 1207 1208 1796
3 835 1976 1989
3 621 619 622
3 746 1878 1896
3 481 482 483
3 1026 847 1027
3 1335 1207 1870
3 1661 59 2266
3 727 729 1155
3 288 289 290
3 1058 776 1928
3 662 663 664
3 495 488 1884
3 1959 319 2522
3 943 851 944
3 1293 1291 1964
3 534 532 535
3 640 645 646
3 2280 1014 2385
3 286 287 288
3 591 575 592
3 521 519 529
3 13 14 2114
3 780 779 781
3 918 908 1850
3 837 836 838
3 209 148 1639
3 754 748 1896
3 745 746 747
3 769 671 770
3 929 1065 2197
3 1278 1058 1279
3 483 482 484
3 1564 1557 2030
3 633 807 1927
3 392 391 393
3 1057 1621 2161
3 569 580 581
3 284 285 286
3 876 992 1894
3 497 494 498
3 1630 1635 2041
3 982 1148 1918
3 612 611 613
3 700 634 1044
3 822 674 2099
3 880 1129 1929
3 432 439 654
3 1039 1291 1292
3 1164 1686 1989
3 1129 1025 1317
3 738 845 846
3 582 583 629
3 278 6 279
3 544 568 569
3 1701 1274 1931
3 747 749 751
3 1085 953 1308
3 928 930 1070
3 747 748 749
3 1421 1422 2415
3 902 903 904
3 1309 1308 1543
3 642 641 643
3 904 981 1792
3 646 784 785
3 536 543 544
3 1204 1205 1207
3 365 694 958
3 71 72 217
3 88 89 1901
3 87 88 193
3 101 102 189
3 85 86 242
3 99 100 241
3 74 75 192
3 91 92 219
3 94 95 191
3 83 84 220
3 97 98 221
3 77 78 218
3 80 81 194
3 89 90 245
3 62 63 244
3 60 61 188
3 64 65 223
3 67 68 190
3 90 91 1909
3 98 99 1905
3 61 62 1908
3 69 70 243
3 68 69 1907
3 70 71 1910
3 410 411 416
3 586 589 590
3 685 684 2029
3 390 389 391
3 1715 1150 1811
3 1924 1837 2215
3 282 283 284
3 496 497 1929
3 233 1671 1769
3 627 2185 2442
3 1567 1552 2062
3 629 630 812
3 424 453 454
3 583 562 1942
3 749 750 805
3 744 743 745
3 1897 535 1898
3 467 480 481
3 504 759 880
3 670 643 671
3 89 245 1901
3 193 88 1901
3 221 98 1905
3 245 90 1909
3 91 219 1909
3 62 244 1908
3 188 61 1908
3 99 241 1905
3 190 68 1907
3 71 217 1910
3 69 243 1907
3 243 70 1910
3 505 499 506
3 475 513 514
3 1945 1044 2071
3 1712 2125 2353
3 339 343 440
3 989 1360 1361
3 764 869 1152
3 778 777 779
3 1686 1685 1687
3 742 741 743
3 979 989 1886
3 729 731 1887
3 926 927 928
3 1305 1306 1307
3 1838 1278 2292
3 747 746 748
3 181 182 1652
3 1886 1361 2305
3 1595 1594 2486
3 597 596 598
3 928 1288 1920
3 1970 824 2156
3 1425 1424 1426
3 497 504 1929
3 748 746 1896
3 745 747 1900
3 998 858 1171
3 563 547 564
3 1155 729 1887
3 634 583 1942
3 1439 1173 1440
3 1026 1027 1086
3 79 80 1904
3 1533 1532 1536
3 1449 1426 1513
3 1106 609 1936
3 1318 1013 1319
3 1098 695 1828
3 492 494 496
3 750 748 754
3 731 738 1887
3 2415 1422 2516
3 533 562 582
3 988 1837 1924
3 1216 1215 1863
3 534 535 536
3 747 751 1900
3 1753 809 2119
3 1183 824 1970
3 740 495 741
3 80 194 1904
3 893 383 2087
3 655 605 1939
3 1884 2034 2082
3 1301 1857 1923
3 1307 1306 1708
3 752 745 1900
3 750 754 755
3 76 77 1903
3 2090 2347 2365
3 255 30 2159
3 132 254 2160
3 448 434 449
3 753 848 926
3 1075 1074 1327
3 487 488 495
3 377 381 647
3 483 484 485
3 755 754 2148
3 1584 1925 2277
3 1186 1183 1970
3 951 891 1281
3 485 484 486
3 546 527 547
3 133 134 1766
3 1786 1785 2409
3 280 281 282
3 460 449 461
3 744 745 752
3 77 218 1903
3 983 1918 2342
3 1708 1306 1810
3 1389 2069 2170
3 487 486 488
3 641 573 1954
3 507 518 519
3 502 461 503
3 519 518 1899
3 1202 1203 1204
3 821 897 1972
3 92 93 1902
3 521 529 530
3 749 748 750
3 2176 1380 2416
3 885 826 886
3 485 486 487
3 371 372 376
3 1289 1070 1871
3 1110 1657 1747
3 753 926 1943
3 700 1044 1944
3 880 881 1025
3 496 1845 2034
3 1072 1981 2393
3 462 464 2134
3 1949 1771 2359
3 1044 634 1942
3 550 584 1927
3 1390 1415 2118
3 526 503 527
3 990 845 1931
3 1009 1213 1214
3 740 742 1144
3 219 92 1902
3 727 1155 1899
3 369 370 371
3 623 690 2150
3 1279 1058 1928
3 1408 2235 2286
3 487 495 740
3 979 1886 2086
3 1305 1303 1306
3 421 412 1951
3 843 844 996
3 633 669 807
3 518 727 1899
3 826 825 1961
3 1657 1106 1936
3 1172 1012 1173
3 740 741 742
3 433 417 434
3 505 506 507
3 1333 1674 2437
3 742 743 744
3 469 458 470
3 1381 1380 1382
3 1293 1965 2515
3 1554 1559 2062
3 553 557 2499
3 1774 389 2339
3 497 498 499
3 483 485 576
3 740 1144 1935
3 773 735 834
3 366 367 369
3 1120 1118 1876
3 1515 1523 1574
3 1319 1013 2039
3 1303 1301 1923
3 457 447 458
3 561 593 594
3 1355 1424 1425
3 609 491 1936
3 204 1732 2137
3 791 1408 1642
3 995 944 1825
3 456 471 475
3 1692 1693 2239
3 580 1763 2164
3 1292 1293 2117
3 441 452 456
3 388 384 389
3 823 821 1972
3 504 880 1929
3 176 177 1680
3 1070 1071 1871
3 15 2260 2477
3 362 363 366
3 2178 2300 2449
3 1035 883 1036
3 2285 1563 2307
3 978 977 1074
3 1090 1102 2029
3 1810 1306 1923
3 496 494 497
3 1306 1303 1923
3 432 654 1915
3 934 933 935
3 356 355 365
3 398 403 404
3 635 701 843
3 1110 1106 1657
3 574 571 575
3 1025 881 1176
3 386 380 786
3 415 432 1915
3 343 347 1911
3 1070 930 1071
3 1688 1740 2231
3 1385 1216 1863
3 1696 1274 1701
3 1645 305 2317
3 880 759 881
3 926 848 927
3 1427 1423 2217
3 1339 1662 2388
3 770 774 775
3 1263 1257 1428
3 1337 1864 2412
3 349 348 355
3 2267 1721 2498
3 753 752 847
3 1375 1086 1473
3 900 982 983
3 332 335 739
3 429 428 430
3 744 752 753
3 1171 2132 2165
3 1425 1426 1449
3 987 641 1954
3 1883 1786 2409
3 427 426 428
3 928 927 930
3 1815 1105 2015
3 1206 1499 1941
3 410 406 411
3 573 540 1954
3 497 499 504
3 528 560 561
3 1933 1404 2399
3 1091 1089 1969
3 1804 1282 2073
3 504 505 759
3 963 924 1113
3 1711 1710 1712
3 881 759 1146
3 968 1199 1200
3 351 352 362
3 848 847 1026
3 521 530 531
3 1884 490 2034
3 1277 957 1966
3 1349 1350 2329
3 676 1043 2045
3 997 1159 1286
3 517 1889 1890
3 781 835 836
3 944 948 1283
3 722 1776 2026
3 507 519 520
3 2040 1352 2058
3 1276 957 1277
3 446 437 447
3 931 860 977
3 361 359 765
3 1248 1536 2534
3 512 523 528
3 408 412 413
3 1368 1369 1370
3 451 2169 2223
3 192 75 1994
3 942 756 2026
3 345 344 348
3 764 1152 1963
3 413 418 419
3 1286 1773 1774
3 770 671 774
3 275 549 2124
3 1497 1645 2461
3 1982 1472 2272
3 422 435 441
3 281 279 736
3 1134 270 1135
3 582 562 583
3 1421 2415 2454
3 485 487 1935
3 2300 1067 2480
3 1578 1576 1827
3 930 927 1061
3 1026 1086 1375
3 922 2259 2379
3 1391 1120 1876
3 1495 1494 2493
3 404 407 408
3 879 2178 2449
3 1700 1698 2036
3 607 1517 1520
3 753 847 848
3 416 411 417
3 1144 742 1943
3 775 776 777
3 754 2108 2148
3 1006 1421 1953
3 585 581 586
3 531 530 532
3 235 1709 1888
3 520 519 521
3 1180 1181 1349
3 1146 759 1967
3 708 710 1921
3 1350 2253 2329
3 436 430 437
3 504 499 505
3 643 641 987
3 336 330 517
3 811 1059 1149
3 1164 1411 1685
3 846 933 934
3 635 843 1960
3 983 982 1918
3 971 872 1096
3 1149 1163 1164
3 169 237 1724
3 1314 1315 1316
3 629 583 630
3 891 812 1916
3 462 463 464
3 487 740 1935
3 798 2084 2189
3 1814 1838 2292
3 1284 1489 1491
3 340 336 2014
3 1670 1461 2200
3 920 782 2057
3 890 2241 2275
3 510 511 512
3 278 279 280
3 839 802 840
3 1858 235 1888
3 1698 1696 2036
3 104 105 222
3 57 58 224
3 1185 1183 1186
3 588 587 623
3 638 600 1988
3 1282 1386 2245
3 811 776 1058
3 816 815 876
3 2034 1845 2082
3 761 636 1741
3 566 565 587
3 174 175 1725
3 347 350 351
3 1469 1495 1496
3 1059 1058 1278
3 811 1149 1976
3 576 485 1935
3 659 658 660
3 859 1153 1962
3 76 1903 1994
3 1821 1109 2426
3 1294 1038 1622
3 733 1833 2075
3 992 993 1980
3 1566 1561 2285
3 525 474 2041
3 464 465 510
3 343 346 347
3 360 893 1982
3 650 649 651
3 896 608 936
3 950 1006 1007
3 1508 1859 1860
3 539 538 565
3 440 343 1911
3 341 340 344
3 221 1905 1906
3 1297 1823 2142
3 759 505 1967
3 1295 1053 1296
3 473 470 474
3 1463 1465 1466
3 1143 1206 2028
3 799 685 800
3 1210 2077 2203
3 509 508 538
3 492 496 2034
3 1553 1551 2030
3 1260 1261 1269
3 1430 1040 1703
3 586 590 1940
3 838 836 868
3 1705 624 2276
3 1749 972 2501
3 742 744 1943
3 804 962 1981
3 1367 1368 2254
3 531 532 533
3 337 336 340
3 1157 1094 1544
3 536 544 1158
3 812 630 1960
3 781 779 835
3 56 57 1947
3 630 583 634
3 1405 1404 1932
3 1281 891 1916
3 339 342 343
3 1411 1163 1730
3 322 323 324
3 344 340 2091
3 1735 1734 1736
3 75 76 1994
3 430 682 2494
3 1907 243 2360
3 589 581 2164
3 694 355 2196
3 744 753 1943
3 775 774 776
3 1210 1430 2077
3 335 338 339
3 1102 1803 2029
3 1078 937 1079
3 870 655 1939
3 505 507 1967
3 357 360 1982
3 1896 1878 2101
3 326 325 328
3 934 935 957
3 585 608 895
3 333 330 336
3 1270 1272 1524
3 688 817 878
3 507 520 1967
3 1428 1257 2074
3 1818 1817 2000
3 896 937 1077
3 934 957 1111
3 329 328 330
3 1499 995 1825
3 944 851 948
3 387 445 462
3 1678 1161 2228
3 777 776 811
3 313 311 757
3 324 331 332
3 848 1026 1955
3 1312 998 1811
3 1321 1322 2037
3 1080 1079 1121
3 1105 1355 2015
3 1645 2317 2461
3 1559 1568 2062
3 332 334 335
3 501 500 508
3 321 325 326
3 394 395 397
3 322 320 323
3 1529 1530 2171
3 1137 797 1138
3 811 1058 1059
3 661 660 662
3 569 581 585
3 183 4 2303
3 5 160 2304
3 1340 1138 1341
3 1660 1626 2185
3 1743 1464 2347
3 1026 1375 1955
3 1149 1059 1163
3 1736 1625 2194
3 1322 1667 2434
3 311 309 1959
3 309 307 319
3 894 700 1944
3 533 534 562
3 1276 1277 1366
3 2190 1706 2408
3 533 532 534
3 1214 1213 1410
3 1164 1163 1411
3 843 701 844
3 1009 1214 2055
3 234 1589 1788
3 2000 1817 2174
3 317 321 2050
3 328 325 945
3 392 393 394
3 588 623 2089
3 1162 958 1681
3 1078 1080 1136
3 927 848 1955
3 1496 1497 1498
3 390 391 392
3 1061 927 1955
3 1283 948 1284
3 635 634 700
3 1244 1251 1252
3 218 78 2093
3 756 722 2026
3 1071 1784 2419
3 1218 1505 2185
3 1284 948 1285
3 1489 1285 1490
3 918 1850 1851
3 684 1090 2029
3 1759 572 2537
3 1691 1690 2446
3 1979 1158 2071
3 606 649 650
3 2045 1043 2046
3 103 104 2025
3 630 634 635
3 360 383 893
3 406 386 2043
3 1909 219 2023
3 1111 957 1276
3 1925 1437 2277
3 1536 2268 2340
3 854 852 1133
3 233 153 1671
3 651 658 659
3 2099 1787 2368
3 1033 1032 1130
3 1015 1372 1373
3 1412 942 2026
3 253 264 1441
3 1531 1534 2332
3 701 700 894
3 106 107 1990
3 2048 1961 2455
3 276 274 2099
3 738 846 1968
3 1325 925 1326
3 896 936 937
3 585 586 608
3 1450 854 1973
3 1361 1360 1362
3 1045 1668 2512
3 303 301 444
3 996 844 997
3 79 1904 2093
3 1989 1686 2095
3 1928 774 2033
3 1942 562 1979
3 287 285 316
3 935 950 1966
3 1466 1467 1468
3 1242 1243 1244
3 1887 738 1968
3 2115 210 2477
3 878 929 1083
3 1326 1736 2194
3 886 888 1014
3 895 608 896
3 289 287 1978
3 821 822 897
3 936 608 1940
3 613 614 615
3 51 52 1996
3 417 411 1160
3 1149 1164 1989
3 386 786 2043
3 285 283 1971
3 1309 1543 2147
3 375 373 2053
3 371 370 372
3 779 777 1976
3 1286 1159 1773
3 2177 887 2376
3 1560 1557 1564
3 1403 1882 2399
3 1727 1757 2246
3 279 6 2049
3 1619 1438 2438
3 291 289 758
3 1781 1915 2294
3 425 401 426
3 349 355 356
3 66 67 2118
3 474 548 2041
3 1686 1687 2007
3 1262 1456 1457
3 1123 942 1412
3 1916 812 1960
3 1355 1425 2015
3 735 733 2075
3 1861 879 2449
3 1284 1285 1489
3 490 492 2034
3 366 363 367
3 980 578 2051
3 906 904 1792
3 534 536 1979
3 842 924 963
3 2051 578 2083
3 1077 937 1078
3 1102 1104 1803
3 894 1944 1946
3 398 404 2060
3 1007 1006 1953
3 369 367 370
3 348 354 2196
3 1078 1079 1080
3 1378 1380 1381
3 1568 1365 2439
3 608 586 1940
3 598 610 611
3 760 636 761
3 869 1137 1351
3 671 643 2033
3 1661 1345 2267
3 938 914 1057
3 783 761 914
3 576 1835 2144
3 388 389 390
3 297 295 318
3 454 453 500
3 1906 1728 2246
3 1439 1440 2468
3 1159 1013 1318
3 764 797 869
3 236 143 1717
3 782 644 2057
3 592 595 596
3 1542 2332 2443
3 1521 1311 2147
3 345 348 349
3 1304 1452 2205
3 1644 1907 2360
3 2146 1125 2149
3 997 844 1013
3 628 375 2053
3 299 297 1984
3 957 935 1966
3 664 685 799
3 301 299 1975
3 362 352 363
3 777 811 1976
3 1942 1979 2071
3 1001 920 2057
3 312 314 768
3 1552 1554 2062
3 615 616 617
3 357 1982 2076
3 800 802 839
3 774 671 2033
3 1749 1169 2105
3 365 958 1162
3 617 618 619
3 283 281 1938
3 1351 1772 2414
3 1525 1765 2489
3 846 934 1968
3 635 700 701
3 555 554 577
3 536 1158 1979
3 1101 1404 1405
3 630 635 1960
3 1811 1150 2089
3 2113 1666 2249
3 172 173 1847
3 107 108 195
3 54 55 196
3 1191 1768 2023
3 1455 1302 2205
3 115 116 2017
3 1387 1333 2437
3 659 661 764
3 1080 1121 1188
3 50 51 2011
3 411 406 2043
3 295 293 1983
3 643 987 2033
3 707 706 708
3 129 130 261
3 32 33 260
3 2159 260 2265
3 449 434 567
3 1314 1029 1315
3 917 796 940
3 378 375 628
3 108 109 1991
3 2370 1759 2537
3 341 344 345
3 997 1013 1159
3 544 569 1993
3 950 1007 1966
3 477 474 525
3 351 350 352
3 1696 1701 2036
3 334 331 803
3 1137 1138 1340
3 562 534 1979
3 109 110 246
3 52 53 247
3 1368 1316 1369
3 659 660 661
3 33 34 2002
3 123 124 2005
3 835 779 1976
3 851 838 1992
3 1530 1533 2172
3 1668 1045 2348
3 1162 1681 1706
3 342 338 468
3 298 300 358
3 765 359 2065
3 725 826 885
3 35 36 2003
3 46 47 2019
3 38 39 2006
3 336 517 2014
3 934 1111 1968
3 116 117 2018
3 650 651 1963
3 223 1711 2162
3 640 594 645
3 1333 1330 2192
3 104 222 2025
3 1603 922 2379
3 963 1113 1115
3 2084 1193 2189
3 564 570 571
3 36 37 2004
3 57 224 1947
3 1542 1601 2269
3 122 123 2012
3 1000 920 1001
3 127 128 240
3 34 35 239
3 383 387 2087
3 1161 1107 2228
3 1781 2294 2419
3 1201 1200 1202
3 124 125 225
3 37 38 226
3 1340 1341 1342
3 869 797 1137
3 839 840 1008
3 1158 544 1993
3 1326 925 1894
3 352 350 353
3 326 329 954
3 1864 2344 2412
3 836 835 2095
3 1051 1053 1295
3 1031 720 1032
3 503 461 787
3 1407 1112 2044
3 661 662 2058
3 838 868 1992
3 112 113 197
3 49 50 198
3 1359 980 1413
3 121 122 211
3 40 41 212
3 48 49 2010
3 113 114 2009
3 1741 673 2131
3 41 42 2020
3 120 121 2013
3 1409 2035 2097
3 1511 1374 2506
3 114 115 248
3 47 48 249
3 42 43 250
3 119 120 251
3 171 6 201
3 6 172 203
3 585 895 1993
3 43 44 2024
3 118 119 2021
3 905 904 906
3 764 661 797
3 337 340 341
3 1413 980 2051
3 117 118 205
3 44 45 206
3 347 346 350
3 1420 1076 1525
3 324 323 331
3 434 417 2031
3 965 967 969
3 716 719 788
3 1260 1254 1261
3 2053 373 2103
3 2069 2068 2170
3 326 328 329
3 1706 996 2408
3 273 275 2124
3 969 1011 1012
3 590 606 2001
3 1718 1611 2280
3 1914 1940 2001
3 915 1884 2082
3 329 330 333
3 620 859 955
3 2168 1409 2305
3 296 298 1997
3 915 2082 2101
3 339 338 342
3 1218 994 1505
3 333 336 337
3 266 263 1742
3 1873 768 2127
3 244 63 2162
3 64 223 2162
3 343 342 346
3 914 761 2258
3 310 312 1987
3 799 800 2055
3 302 304 763
3 1559 1566 1568
3 1598 1343 2114
3 592 575 595
3 341 345 794
3 189 1842 2220
3 767 815 816
3 1003 912 1004
3 839 1008 1009
3 1263 1428 1429
3 564 547 570
3 1845 1334 2082
3 332 331 334
3 901 866 902
3 651 659 1963
3 1009 1112 1213
3 335 334 338
3 569 585 1993
3 1665 1336 2299
3 1945 2071 2153
3 863 862 864
3 907 906 908
3 1849 1486 1930
3 1935 1144 2080
3 967 966 968
3 809 900 2119
3 865 864 866
3 835 1989 2095
3 190 1907 2417
3 333 337 522
3 1110 1748 2228
3 1193 1194 1195
3 94 191 2166
3 473 1854 2453
3 1769 1134 2369
3 948 851 1992
3 237 170 2216
3 420 419 422
3 1448 1447 2364
3 483 576 2144
3 721 1919 2032
3 885 886 1891
3 613 611 614
3 886 1014 1891
3 1160 411 2043
3 1918 1283 2342
3 1651 206 2485
3 1242 1240 1243
3 598 596 610
3 1295 1296 1459
3 1185 1186 1948
3 1425 1449 2070
3 294 296 762
3 1285 948 1992
3 925 876 1894
3 712 714 789
3 603 1668 2398
3 1940 590 2001
3 721 570 964
3 834 735 2075
3 1144 1920 2080
3 2263 1635 2511
3 1204 1207 1335
3 2235 1408 2378
3 965 964 966
3 1990 1435 2218
3 397 398 2060
3 1138 797 2058
3 1787 1141 2368
3 2068 820 2170
3 360 359 361
3 387 462 2087
3 1524 1272 1934
3 819 698 820
3 1197 1196 1198
3 1662 2126 2388
3 78 79 2093
3 1150 588 2089
3 1269 1261 1270
3 1878 915 2101
3 451 467 2169
3 2262 1387 2437
3 1009 1008 1112
3 757 311 1959
3 897 898 1139
3 1854 473 2483
3 2015 1425 2070
3 2082 1334 2101
3 963 1115 1174
3 1047 1049 1287
3 1194 423 1196
3 321 326 2050
3 417 1160 2031
3 854 1133 1973
3 1201 1212 1348
3 705 1586 2163
3 309 319 1959
3 1353 1390 2417
3 427 428 429
3 357 356 359
3 606 650 2001
3 549 1280 2124
3 1213 1112 1407
3 256 2303 2535
3 356 365 2065
3 662 664 2040
3 701 894 2039
3 1325 1371 2451
3 666 626 667
3 1902 93 2166
3 1236 1234 1246
3 800 839 2055
3 1869 1812 2252
3 1197 1364 1365
3 576 1935 2080
3 404 408 798
3 1678 807 2529
3 1560 1564 2016
3 1319 2039 2122
3 425 426 427
3 349 356 357
3 308 310 327
3 1716 622 2484
3 1801 82 2289
3 1768 1949 2420
3 2006 1926 2507
3 351 364 2407
3 420 423 1193
3 659 764 1963
3 292 294 2038
3 840 842 2027
3 736 279 2049
3 372 373 374
3 461 449 2052
3 2189 1195 2285
3 1174 1115 1398
3 367 363 961
3 909 908 918
3 1738 247 2402
3 1007 1761 2308
3 288 290 2135
3 422 441 2035
3 623 624 690
3 537 525 545
3 1953 1421 2454
3 1887 1968 2123
3 861 691 862
3 654 439 2223
3 1136 1080 2054
3 1312 1811 2089
3 575 571 2032
3 383 361 384
3 968 1200 1201
3 797 661 2058
3 1423 1354 2381
3 1180 1178 1181
3 1513 1515 2180
3 72 73 2217
3 462 445 463
3 12 13 2136
3 457 458 469
3 542 554 555
3 599 636 760
3 254 133 1766
3 1130 1397 1937
3 404 798 2060
3 1044 1942 2071
3 690 691 860
3 357 359 360
3 1008 2027 2152
3 1232 1230 1255
3 372 370 373
3 850 943 2125
3 1457 1456 1492
3 1952 324 2282
3 155 2 2356
3 0 7 2357
3 2017 1379 2288
3 918 1851 2008
3 195 1991 2517
3 2090 803 2347
3 1244 1243 1251
3 290 292 368
3 1432 1082 2214
3 1008 840 2027
3 1743 803 2296
3 1013 844 2039
3 365 1162 2065
3 1594 1315 2184
3 387 384 388
3 1508 1860 2311
3 547 527 2056
3 2005 225 2322
3 314 317 2127
3 1853 556 2327
3 201 6 278
3 1907 1644 2417
3 1896 2101 2108
3 646 645 784
3 538 508 558
3 374 375 377
3 1630 1634 1635
3 1579 1999 2352
3 1647 1648 1849
3 1313 1314 2121
3 1179 1433 2042
3 844 701 2039
3 1252 1251 2098
3 816 876 925
3 1922 1228 2281
3 392 394 396
3 1915 654 2294
3 1652 1653 2487
3 429 430 436
3 456 475 476
3 1605 1392 2510
3 126 1882 2284
3 1784 1780 2419
3 500 453 960
3 377 378 381
3 2178 1587 2300
3 1222 1219 1626
3 413 419 420
3 381 382 400
3 2169 1836 2223
3 1906 1905 2129
3 616 614 793
3 1170 1419 2139
3 101 189 2220
3 241 100 2220
3 1968 1111 2123
3 567 434 2031
3 615 614 616
3 1032 720 1921
3 682 428 2138
3 469 470 473
3 339 440 2261
3 1501 238 2226
3 1154 1431 1653
3 446 447 457
3 1251 1243 1257
3 2229 315 2495
3 1201 1202 1212
3 785 784 879
3 464 463 465
3 66 2118 2395
3 324 332 2282
3 286 288 771
3 17 199 2081
3 571 570 721
3 611 610 2092
3 617 616 618
3 1542 1531 2332
3 400 401 424
3 1325 1326 1371
3 1140 1406 1702
3 1323 443 2302
3 1926 1573 2507
3 436 437 446
3 1262 1457 2098
3 67 190 2118
3 1518 1861 2449
3 989 1359 1360
3 1063 1082 1154
3 1757 96 2526
3 969 967 1011
3 868 836 2095
3 1215 1035 2235
3 96 1757 2309
3 261 2160 2380
3 1381 1382 2126
3 1468 1469 2182
3 1334 1317 2108
3 861 863 1064
3 1270 1261 1271
3 360 361 383
3 287 316 1978
3 1856 192 2367
3 1905 241 2129
3 1615 1809 2425
3 528 523 560
3 979 980 989
3 662 2040 2058
3 721 964 965
3 170 171 2216
3 664 799 2040
3 512 511 523
3 1201 1348 2107
3 620 618 858
3 758 289 1978
3 859 858 998
3 424 425 453
3 1616 1615 2193
3 444 301 1975
3 561 560 593
3 965 966 967
3 1798 376 2430
3 340 2014 2091
3 510 465 511
3 107 195 1990
3 1080 1188 2054
3 1153 998 1312
3 1226 1224 1249
3 1012 1011 1363
3 902 904 905
3 842 963 2027
3 268 270 1134
3 865 901 1125
3 2077 558 2102
3 282 284 442
3 1977 1679 2253
3 1496 1498 2047
3 284 286 2063
3 281 736 1938
3 2132 793 2165
3 1674 215 2437
3 2078 1855 2411
3 839 1009 2055
3 1182 824 1183
3 1168 947 1169
3 1289 1871 2242
3 316 285 1971
3 1270 1271 1272
3 1755 1793 2264
3 51 1996 2011
3 383 384 387
3 1146 1924 2215
3 1279 1928 2202
3 619 618 620
3 1194 1196 1197
3 555 578 979
3 1937 1639 2528
3 1262 1257 1263
3 389 384 2339
3 2251 1338 2464
3 1155 1887 2123
3 1151 1937 2528
3 465 463 828
3 1318 1319 2116
3 1687 1688 2231
3 326 954 2050
3 297 318 1984
3 1308 953 2255
3 1846 2056 2198
3 320 315 2229
3 1254 1252 2059
3 760 761 783
3 951 1281 2255
3 1459 1296 2094
3 2288 1638 2470
3 1975 299 1984
3 52 247 1996
3 468 338 2090
3 2140 1511 2506
3 1125 1126 1192
3 593 824 1182
3 720 708 1921
3 704 706 707
3 623 587 624
3 2044 1112 2152
3 1393 1169 1749
3 900 983 2119
3 783 914 938
3 255 2265 2489
3 2039 894 2122
3 317 2050 2127
3 1866 1867 2513
3 374 373 375
3 429 436 455
3 387 388 445
3 1193 423 1194
3 555 577 578
3 1074 977 1187
3 449 567 2052
3 1197 1198 1364
3 2154 1595 2486
3 1486 1849 2173
3 318 295 1983
3 939 1016 1844
3 131 132 2160
3 30 31 2159
3 881 1146 2215
3 1294 1868 2238
3 1300 1455 2314
3 1365 1364 1912
3 783 938 939
3 2061 1735 2441
3 551 545 601
3 2194 216 2536
3 1251 1257 1262
3 888 887 2177
3 1364 1198 2048
3 1498 1682 2340
3 1589 1590 2501
3 60 188 2266
3 1401 1913 2324
3 195 108 1991
3 420 422 423
3 1675 1470 2474
3 258 1673 2183
3 2161 1619 2438
3 1296 1472 2094
3 1808 1910 2381
3 334 803 2090
3 1490 1285 2232
3 523 511 524
3 1240 1238 2074
3 1184 1183 1185
3 39 40 2151
3 473 474 477
3 1461 1463 2200
3 2072 353 2073
3 861 862 863
3 1206 1941 2401
3 958 1575 2287
3 614 611 2092
3 110 111 2140
3 1136 2054 2110
3 645 594 2133
3 260 33 2002
3 673 767 2131
3 989 980 1359
3 1741 2131 2258
3 1317 1875 2148
3 894 1946 2122
3 863 864 865
3 787 461 2052
3 857 2277 2386
3 109 246 1991
3 2017 116 2018
3 1182 1183 1184
3 377 375 378
3 816 925 1324
3 865 866 901
3 1262 1263 1456
3 359 356 2065
3 2129 241 2472
3 283 1938 1971
3 1458 1210 2203
3 1076 1003 2145
3 196 1738 2402
3 1033 1130 1151
3 1188 1121 2106
3 1140 1702 2096
3 549 687 1280
3 1694 1621 2191
3 861 1064 2112
3 1548 1549 2129
3 1784 1071 2462
3 714 716 2066
3 1961 825 2455
3 1447 1211 2250
3 979 578 980
3 905 907 1209
3 381 378 382
3 457 469 552
3 595 575 2032
3 408 413 2084
3 481 483 2144
3 1745 1349 2293
3 1980 1405 2441
3 198 50 2011
3 248 115 2017
3 912 819 2068
3 620 858 859
3 707 708 720
3 821 674 822
3 514 542 2086
3 400 382 401
3 123 2005 2012
3 1772 1351 2374
3 34 239 2002
3 768 314 2127
3 2003 36 2004
3 280 282 2079
3 124 225 2005
3 596 595 2130
3 593 560 824
3 1504 1502 2519
3 239 35 2003
3 1311 1309 2147
3 1318 1877 2240
3 1860 1432 2311
3 1416 1715 2330
3 859 998 1153
3 352 353 2072
3 312 768 1987
3 2027 1174 2152
3 226 38 2006
3 1827 1024 2117
3 1710 1391 2295
3 690 624 691
3 37 226 2004
3 1153 1312 1885
3 853 855 2186
3 1892 242 2373
3 1967 520 2174
3 939 938 1016
3 47 249 2019
3 388 390 2078
3 1991 2139 2517
3 905 906 907
3 571 721 2032
3 1196 423 2035
3 1324 925 1325
3 1151 1130 1937
3 363 352 2072
3 345 349 2076
3 1031 1032 1033
3 214 179 1859
3 211 122 2012
3 602 601 652
3 117 205 2018
3 710 712 2067
3 1602 187 2357
3 520 2000 2174
3 85 242 2335
3 220 84 2335
3 381 400 2113
3 1586 1587 2435
3 424 401 425
3 963 1174 2027
3 860 691 861
3 610 596 2130
3 1958 2078 2431
3 570 547 2056
3 237 2216 2354
3 1211 1692 2219
3 298 358 1997
3 909 947 1041
3 441 456 2097
3 1135 1647 1849
3 1601 1542 2443
3 197 113 2009
3 49 198 2010
3 1911 347 2407
3 1729 191 2309
3 212 41 2020
3 121 211 2013
3 222 105 2218
3 1125 901 1126
3 114 248 2009
3 249 48 2010
3 42 250 2020
3 251 120 2013
3 233 1769 2369
3 1870 647 2113
3 794 345 2076
3 250 43 2024
3 119 251 2021
3 901 902 2141
3 964 570 2056
3 739 335 2261
3 2108 1317 2148
3 577 599 2083
3 205 118 2021
3 44 206 2024
3 1247 1241 2323
3 1894 992 2244
3 6 203 2049
3 1642 1678 2529
3 1417 1873 2333
3 1422 2023 2516
3 341 794 2100
3 73 74 2361
3 1234 1232 2088
3 1261 1254 2059
3 896 1077 2257
3 1921 710 2067
3 125 126 2284
3 220 1699 2289
3 159 5 2304
3 4 184 2303
3 2059 1252 2098
3 1003 1004 2145
3 2328 1325 2451
3 1486 227 1500
3 63 64 2162
3 2081 1192 2260
3 508 500 2102
3 667 1872 2318
3 338 334 2090
3 423 422 2035
3 1192 1126 1471
3 907 908 909
3 1330 1328 2192
3 1972 897 2500
3 2443 316 2514
3 242 86 2373
3 87 193 2373
3 420 1193 2084
3 1473 1086 2358
3 1987 768 2037
3 522 337 2100
3 627 1660 2185
3 1793 446 2264
3 1405 2061 2441
3 1502 1217 2302
3 171 201 2216
3 1158 1993 2153
3 1197 1365 2120
3 1712 1710 2295
3 1121 1401 2414
3 93 94 2166
3 653 652 688
3 622 1716 2452
3 1345 1720 2267
3 477 537 556
3 128 129 2181
3 2331 1295 2458
3 784 645 874
3 1269 1270 2199
3 189 102 2355
3 1041 1168 1343
3 246 110 2140
3 477 525 537
3 755 1895 2371
3 1947 1723 2313
3 1134 1135 2369
3 223 65 2395
3 968 1201 2107
3 1577 1578 2325
3 210 15 2477
3 961 363 2072
3 1581 1579 2352
3 349 357 2076
3 337 341 2100
3 305 303 2317
3 370 367 2103
3 762 296 1997
3 581 580 2164
3 1278 1838 2372
3 1548 2129 2472
3 594 593 2133
3 2021 251 2022
3 2047 1247 2182
3 967 968 2107
3 1169 947 2008
3 481 2144 2169
3 793 614 2092
3 1910 217 2381
3 1251 1262 2098
3 716 788 2066
3 2101 1334 2108
3 2006 39 2151
3 1603 2379 2508
3 1926 2006 2151
3 96 97 2526
3 750 755 2371
3 789 714 2066
3 909 918 947
3 1993 895 2153
3 106 1990 2218
3 1243 1240 2074
3 832 986 1189
3 1283 1284 2342
3 2297 195 2517
3 1043 829 2326
3 767 816 2131
3 602 653 676
3 1004 912 2068
3 2086 1886 2224
3 1124 2177 2467
3 426 401 2531
3 707 720 1030
3 1000 1001 2184
3 1315 1029 2184
3 467 481 2169
3 541 513 2256
3 647 381 2113
3 225 2284 2510
3 2 156 2356
3 187 0 2357
3 40 212 2151
3 2245 1386 2383
3 676 677 829
3 1004 2068 2069
3 1860 232 2487
3 1031 1033 1034
3 829 830 972
3 996 997 2408
3 1195 1194 2120
3 987 1869 2202
3 1410 1213 2222
3 819 820 2068
3 1485 1486 2173
3 1564 2030 2155
3 807 669 2529
3 129 261 2181
3 1525 1076 2145
3 578 577 2083
3 327 310 1987
3 1083 929 2197
3 2131 1324 2258
3 798 408 2084
3 1838 696 2426
3 1486 1500 1930
3 1946 1944 2291
3 2257 1077 2291
3 1512 1661 2266
3 445 388 2078
3 1192 1471 2260
3 2118 1415 2395
3 1466 1468 2158
3 830 677 831
3 211 2012 2251
3 652 601 2442
3 537 545 551
3 558 508 2102
3 198 2011 2128
3 1718 2280 2385
3 500 960 2102
3 1168 1169 1393
3 1127 971 2496
3 95 96 2309
3 2030 1565 2155
3 1919 1172 2273
3 977 860 2112
3 240 128 2181
3 294 762 2038
3 1800 1799 2195
3 712 789 2067
3 972 1749 2326
3 472 1683 2212
3 874 645 2133
3 551 2045 2201
3 2105 1043 2326
3 1957 1212 2301
3 1514 1856 2367
3 565 538 2167
3 373 370 2103
3 355 348 2196
3 1934 1272 2138
3 1934 426 2531
3 1881 1400 2481
3 2046 1851 2327
3 367 961 2103
3 1963 1152 2206
3 201 278 443
3 3 131 2444
3 31 1 2445
3 2035 441 2097
3 503 787 2198
3 1135 1849 1930
3 1534 1983 2306
3 2089 623 2150
3 687 704 2109
3 869 1351 2363
3 1302 1304 2205
3 955 1716 2484
3 1030 720 1031
3 1159 1318 2240
3 1228 1226 2281
3 947 918 2008
3 413 420 2084
3 785 879 2532
3 1041 947 1168
3 1468 2182 2323
3 1246 1234 2088
3 1730 1163 2372
3 542 555 2086
3 1599 631 2312
3 1146 1967 2174
3 1078 1136 2343
3 1515 1574 2180
3 2336 885 2469
3 1257 1243 2074
3 1347 1346 2279
3 2001 650 2206
3 1480 1601 2514
3 1029 1000 2184
3 1956 788 2336
3 1271 1261 2059
3 130 3 2444
3 1 32 2445
3 1570 1507 2197
3 1232 1255 2088
3 791 1642 2529
3 1601 1479 2269
3 1361 1362 2168
3 1634 1922 2281
3 765 2065 2190
3 2071 1158 2153
3 1699 1801 2289
3 832 831 833
3 1864 346 2344
3 456 476 2097
3 1855 828 2411
3 2065 1162 2190
3 1125 1192 2149
3 599 760 2083
3 361 765 2339
3 1731 2123 2241
3 1349 1181 1350
3 1443 1275 2251
3 1819 524 2429
3 1021 1045 2512
3 858 618 2132
3 1999 358 2338
3 368 292 2038
3 290 368 2135
3 803 331 2296
3 1112 1008 2152
3 56 1947 2313
3 555 979 2086
3 1469 1496 2182
3 1011 967 2107
3 248 2017 2288
3 1809 789 2425
3 960 453 2221
3 538 558 2167
3 1858 1187 2248
3 2246 1757 2526
3 902 905 2141
3 1851 1853 2327
3 1224 1222 2111
3 771 288 2135
3 1945 2153 2257
3 1420 1525 2489
3 1399 1123 2393
3 103 2025 2355
3 897 822 898
3 1861 940 2532
3 865 1125 2146
3 1675 2474 2522
3 1573 2157 2507
3 1632 1631 2382
3 551 601 602
3 527 503 2198
3 1708 805 2337
3 1059 1278 2372
3 2056 527 2198
3 860 861 2112
3 1668 2348 2398
3 255 2159 2265
3 1541 1542 2269
3 1428 2074 2227
3 1582 1583 2321
3 389 1774 2503
3 2004 226 2157
3 1777 397 2405
3 1368 1436 2254
3 1061 2409 2462
3 1071 930 2462
3 1126 901 2141
3 1194 1197 2120
3 1452 1952 2282
3 2116 1319 2482
3 105 106 2218
3 1981 1399 2393
3 2119 983 2143
3 444 1682 2461
3 2173 1648 2463
3 616 793 2132
3 1791 1190 2334
3 1826 1728 2259
3 602 652 653
3 1834 1292 2428
3 556 2201 2327
3 1014 1015 2385
3 1995 1287 2331
3 1193 1195 2189
3 816 1324 2131
3 879 1861 2532
3 593 1182 2133
3 1402 266 1742
3 2216 1323 2354
3 1660 1636 2502
3 620 955 2484
3 1162 1706 2190
3 1870 2113 2249
3 204 1680 1732
3 1909 2023 2420
3 217 72 2217
3 376 372 2430
3 905 1209 2141
3 1378 1381 2283
3 1236 1246 2227
3 286 771 2063
3 1635 2263 2502
3 100 101 2220
3 1139 898 1140
3 2114 1343 2136
3 442 284 2063
3 1772 2106 2414
3 1985 1755 2533
3 2192 1328 2315
3 1064 863 2146
3 1631 1637 2459
3 736 2049 2523
3 221 1906 2246
3 318 1983 2171
3 1496 2047 2182
3 1374 2139 2506
3 196 55 2313
3 2087 462 2134
3 676 653 677
3 2304 257 2491
3 1401 2324 2363
3 829 677 830
3 654 2223 2242
3 1187 977 2112
3 1463 1466 2200
3 2023 219 2516
3 1176 881 2215
3 513 471 2290
3 1812 459 2252
3 1386 1269 2199
3 291 758 2306
3 618 616 2132
3 278 280 2210
3 83 220 2289
3 82 83 2289
3 938 1057 2161
3 1189 986 1190
3 788 719 2336
3 1914 2001 2206
3 232 181 1652
3 1567 2062 2490
3 313 757 2495
3 622 619 2484
3 688 878 1320
3 1222 1626 2111
3 282 442 2079
3 1169 2008 2105
3 1966 1007 2308
3 2040 799 2237
3 1744 2229 2495
3 986 833 1063
3 2284 1605 2510
3 887 1961 2376
3 215 1624 2262
3 830 831 832
3 476 475 2224
3 439 451 2223
3 1932 1933 2380
3 2227 1246 2366
3 1212 1202 2301
3 1107 1110 2228
3 249 2010 2299
3 1983 293 2306
3 2055 1214 2237
3 1438 1372 2478
3 824 560 2156
3 2320 1866 2513
3 1351 1137 2374
3 868 2007 2232
3 2063 771 2064
3 1507 214 1508
3 1728 1727 2246
3 1045 1047 2348
3 1139 1140 2096
3 1648 1649 2463
3 1502 2302 2519
3 704 707 2109
3 2343 1136 2396
3 650 1963 2206
3 2153 895 2257
3 396 1958 2431
3 1379 1377 2288
3 2115 1471 2319
3 2033 987 2202
3 2239 1693 2518
3 2025 1488 2355
3 1209 2115 2319
3 523 524 2156
3 783 939 2243
3 376 1798 2497
3 2066 788 2193
3 1984 318 2172
3 425 427 2221
3 203 172 1847
3 446 457 2264
3 1312 2089 2150
3 2138 1272 2211
3 897 1139 2274
3 828 1819 2429
3 1249 1224 2111
3 666 667 2318
3 1371 1326 2194
3 2433 1499 2475
3 1272 1271 2211
3 1367 2254 2479
3 1386 2053 2383
3 2074 1238 2227
3 755 2148 2320
3 2117 1604 2428
3 475 514 2224
3 228 2187 2457
3 1868 1504 2520
3 1626 1218 2185
3 2123 1111 2241
3 1287 1049 2331
3 1280 687 2109
3 459 1814 2292
3 54 196 2402
3 863 865 2146
3 204 176 1680
3 514 2086 2224
3 1646 603 2398
3 112 197 2346
3 358 300 2338
3 1140 898 1141
3 1204 1335 2301
3 1016 2161 2438
3 909 1041 2175
3 1681 2448 2492
3 2252 459 2292
3 1992 868 2232
3 1035 1036 2235
3 1051 1295 2331
3 1836 1289 2242
3 1508 214 1859
3 247 53 2402
3 1016 938 2161
3 1408 856 2378
3 1466 2158 2200
3 725 885 2336
3 855 1450 2421
3 2023 1768 2420
3 1238 1236 2227
3 1679 202 2253
3 2107 1348 2233
3 1653 1431 2487
3 1946 2291 2343
3 2253 202 2329
3 1885 1312 2150
3 378 628 2390
3 2195 1383 2432
3 1520 1519 2480
3 1532 1733 2534
3 308 327 2278
3 953 951 2255
3 1213 1407 2222
3 1561 1563 2285
3 302 763 2338
3 1928 2033 2202
3 763 304 2345
3 832 833 986
3 1352 2040 2237
3 247 1881 2481
3 560 523 2156
3 335 339 2261
3 346 342 2344
3 201 443 1323
3 2301 1335 2466
3 323 320 2229
3 1136 2110 2396
3 1139 1977 2274
3 1809 1615 2423
3 1707 1791 2334
3 46 2019 2485
3 2064 1294 2238
3 1950 197 2404
3 2021 2022 2176
3 1949 245 2420
3 2044 2152 2207
3 1063 1154 1707
3 1012 1363 2406
3 280 2079 2210
3 2237 1214 2351
3 820 698 2318
3 1140 1141 1406
3 205 2021 2176
3 2043 786 2310
3 2145 1004 2446
3 707 1030 2109
3 1406 2460 2473
3 2137 1268 2226
3 16 2081 2260
3 567 2031 2219
3 2112 1064 2248
3 206 45 2485
3 2347 1462 2365
3 1650 1962 2362
3 453 425 2221
3 1209 907 2175
3 1111 1276 2241
3 2448 1145 2492
3 2051 2083 2243
3 59 60 2266
3 1402 1742 2530
3 831 677 2209
3 624 587 2276
3 238 174 1725
3 1011 2107 2233
3 468 2365 2412
3 2337 805 2371
3 254 1932 2380
3 1174 1398 2207
3 2140 111 2346
3 1381 2186 2283
3 1987 2037 2188
3 1740 559 2456
3 1773 391 2503
3 1335 1870 2249
3 1945 2257 2291
3 828 463 2411
3 1246 2088 2208
3 2060 798 2307
3 1773 1159 2240
3 1187 2112 2248
3 1352 2237 2351
3 2037 1322 2188
3 1941 1499 2433
3 2322 225 2510
3 1031 1034 2236
3 327 2188 2321
3 595 2032 2273
3 1464 1462 2347
3 1285 1992 2232
3 799 2055 2237
3 443 278 2210
3 784 874 2178
3 392 396 2431
3 191 95 2309
3 879 784 2178
3 524 511 2429
3 2128 2011 2270
3 895 896 2257
3 2206 1152 2324
3 318 2171 2172
3 2259 1549 2379
3 1214 1410 2351
3 306 308 2278
3 2022 251 2247
3 1757 1729 2309
3 1283 1918 2524
3 996 1706 2492
3 557 2044 2207
3 1798 1448 2364
3 1447 2250 2310
3 559 1750 2403
3 1363 1011 2233
3 1343 1168 2187
3 1407 2044 2256
3 1462 1460 2365
3 1995 2331 2458
3 327 1987 2188
3 2160 254 2380
3 1681 958 2287
3 2031 1160 2250
3 1600 689 2413
3 2219 1692 2239
3 1494 1675 2522
3 1281 1916 2448
3 907 909 2175
3 565 2167 2276
3 2241 1276 2275
3 1978 316 2443
3 2151 212 2350
3 203 1847 2104
3 2049 1481 2523
3 1961 1362 2376
3 2187 1393 2457
3 940 796 2532
3 2293 1349 2329
3 572 1897 2537
3 332 739 2282
3 2052 567 2239
3 1437 1370 2277
3 567 2219 2239
3 667 626 2452
3 1914 2206 2324
3 2243 939 2392
3 2136 1343 2187
3 257 1654 2530
3 1376 1378 2283
3 2076 1982 2272
3 2083 760 2243
3 1944 1945 2291
3 1771 1839 2359
3 1404 1403 2399
3 1875 1866 2320
3 1460 1337 2412
3 760 783 2243
3 1276 1366 2275
3 1428 2227 2366
3 1882 1605 2284
3 1739 1429 2459
3 2321 2188 2434
3 1328 1327 2315
3 798 2189 2307
3 2152 1174 2207
3 2182 1247 2323
3 1516 1514 2367
3 293 291 2306
3 556 537 2201
3 1298 1300 2314
3 1400 1399 2316
3 1649 2236 2463
3 833 831 2424
3 2127 2050 2333
3 1057 914 2328
3 1839 193 2359
3 761 1741 2258
3 1186 1970 2422
3 1429 2366 2382
3 2211 1271 2271
3 1733 1248 2534
3 13 2114 2136
3 2078 390 2431
3 1533 1536 2340
3 1690 2145 2446
3 1277 2308 2370
3 1168 1393 2187
3 1597 2047 2268
3 587 565 2276
3 1908 244 2401
3 225 125 2284
3 610 2130 2468
3 1749 2105 2326
3 1913 1914 2324
3 2366 2208 2382
3 1391 1876 2295
3 457 552 2264
3 653 688 2209
3 1601 2443 2514
3 682 2138 2211
3 992 1980 2244
3 55 56 2313
3 1645 1495 2493
3 473 477 2483
3 202 1724 2329
3 465 828 2429
3 1277 1966 2308
3 1416 2330 2406
3 1912 1364 2455
3 1716 1483 2375
3 2019 1651 2485
3 1725 2137 2226
3 201 1323 2216
3 878 1083 2213
3 2072 2073 2245
3 1563 1777 2405
3 244 2028 2401
3 2016 1564 2422
3 1682 1497 2461
3 1962 1153 2362
3 1298 2314 2358
3 1384 1385 2391
3 688 1320 2209
3 1587 2179 2435
3 786 380 2497
3 1395 1522 2341
3 2032 1919 2273
3 251 2013 2247
3 2219 2031 2250
3 2397 552 2453
3 1765 255 2489
3 2475 1825 2524
3 1202 1204 2301
3 445 2078 2411
3 323 2229 2296
3 1286 2384 2408
3 537 551 2201
3 1724 237 2293
3 84 85 2335
3 1471 1126 2319
3 1635 1634 2511
3 300 302 2338
3 698 666 2318
3 1030 1031 2236
3 2098 1457 2271
3 696 1821 2426
3 1457 1492 2447
3 1956 2336 2469
3 331 323 2296
3 1284 1491 2342
3 2011 1996 2270
3 256 183 2303
3 160 257 2304
3 2204 1589 2501
3 1891 1014 2280
3 719 725 2336
3 1354 1808 2381
3 437 430 2494
3 2377 218 2391
3 2211 2271 2447
3 1407 2256 2290
3 2365 1460 2412
3 2047 1498 2268
3 1825 1283 2524
3 1499 1825 2475
3 1226 1249 2281
3 2051 2243 2392
3 2250 1160 2310
3 111 112 2346
3 304 306 2345
3 1341 1352 2351
3 2166 191 2504
3 2223 1836 2242
3 1996 247 2481
3 1049 1051 2331
3 1086 1298 2358
3 2130 595 2273
3 1249 2111 2263
3 680 1995 2458
3 1511 2140 2346
3 102 103 2355
3 469 473 2453
3 961 2072 2245
3 2073 1282 2245
3 1442 1443 2525
3 74 192 2361
3 2163 1586 2435
3 1519 1518 2449
3 897 2274 2500
3 303 444 2317
3 1615 1614 2423
3 197 2009 2404
3 1634 2281 2511
3 1780 1781 2419
3 1435 1623 2465
3 1286 1774 2384
3 384 361 2339
3 193 1901 2359
3 1165 2433 2475
3 2277 1370 2386
3 677 653 2209
3 1994 1516 2367
3 1479 1478 2440
3 1165 1512 2433
3 1644 1353 2417
3 1711 1712 2353
3 2193 1615 2425
3 1613 1956 2469
3 1440 1173 2330
3 2269 1479 2440
3 222 2218 2465
3 391 389 2503
3 306 2278 2345
3 468 2090 2365
3 221 2246 2526
3 1445 1446 2504
3 939 1844 2392
3 86 87 2373
3 1429 1428 2366
3 2053 2103 2383
3 1348 1212 2312
3 805 750 2371
3 997 1286 2408
3 1152 869 2363
3 2063 2064 2238
3 192 1994 2367
3 1160 2043 2310
3 1926 2151 2350
3 2059 2098 2271
3 1897 1366 2537
3 215 2262 2437
3 1655 1732 2476
3 2415 1128 2454
3 1320 2213 2214
3 7 258 2357
3 259 155 2356
3 2171 1530 2172
3 347 351 2407
3 1077 1078 2343
3 239 2003 2279
3 1446 1128 2415
3 1034 1033 2410
3 601 627 2442
3 1154 1653 2234
3 397 2060 2405
3 2142 794 2272
3 442 2063 2238
3 1863 1215 2378
3 794 2076 2272
3 1883 1375 2505
3 1320 878 2213
3 342 468 2344
3 1903 218 2377
3 380 376 2497
3 1549 1547 2379
3 1148 1165 2475
3 2157 226 2507
3 829 972 2326
3 884 1957 2466
3 2291 1077 2343
3 65 66 2395
3 787 2052 2518
3 2298 1348 2312
3 1946 2343 2396
3 1653 256 2535
3 1842 1548 2472
3 1957 2301 2466
3 1366 1277 2370
3 2213 1432 2214
3 961 2245 2383
3 218 2093 2391
3 1376 2283 2421
3 1873 2127 2333
3 1019 1021 2512
3 1128 1127 2454
3 1104 1434 2450
3 2130 1439 2468
3 2396 2110 2482
3 2186 855 2283
3 1724 2293 2329
3 1163 1059 2372
3 1614 2389 2423
3 53 54 2402
3 1063 1707 2334
3 2283 855 2421
3 1385 1863 2436
3 364 1883 2505
3 517 1890 2387
3 1145 996 2492
3 1047 1287 2348
3 2148 1875 2320
3 205 2176 2416
3 1372 1844 2478
3 1211 2219 2250
3 1141 898 2368
3 245 1909 2420
3 2278 327 2321
3 2389 1397 2423
3 2256 513 2290
3 559 2403 2456
3 1137 1340 2374
3 2093 1384 2391
3 1918 1148 2524
3 1030 2236 2427
3 1867 1895 2513
3 2014 517 2387
3 2271 1457 2447
3 1143 2028 2353
3 1904 194 2432
3 1148 2475 2524
3 1574 1523 2436
3 2213 1083 2311
3 1997 358 2325
3 2139 246 2506
3 1370 1369 2386
3 1271 2059 2271
3 1034 2173 2463
3 1123 1412 2393
3 1578 1827 2515
3 2209 1320 2424
3 2079 1504 2210
3 1361 2168 2305
3 1491 1489 2403
3 238 1725 2226
3 1190 986 2334
3 1547 1545 2508
3 1891 1613 2469
3 1153 1885 2362
3 2208 1632 2382
3 2287 1281 2448
3 1356 1376 2421
3 1965 2349 2515
3 2155 1186 2422
3 1522 2014 2387
3 2158 1468 2323
3 2050 954 2333
3 1397 1809 2423
3 1362 1360 2376
3 1852 1985 2397
3 2069 1691 2446
3 789 2066 2425
3 1895 755 2513
3 1707 1154 2234
3 372 374 2430
3 2225 787 2518
3 2028 1206 2401
3 986 1063 2334
3 1912 726 2439
3 1340 1342 2400
3 1916 1145 2448
3 2236 1649 2427
3 2374 1340 2400
3 2222 1407 2290
3 2324 1152 2363
3 241 2220 2472
3 765 2190 2384
3 2375 667 2452
3 2330 1173 2406
3 1181 1972 2500
3 2126 1382 2388
3 1173 1012 2406
3 315 313 2495
3 1015 1373 2385
3 97 221 2526
3 1937 1397 2389
3 930 1061 2462
3 971 1096 2496
3 45 46 2485
3 669 791 2529
3 1104 2450 2521
3 382 378 2390
3 2191 1371 2536
3 2235 1036 2286
3 831 2209 2424
3 762 1997 2349
3 2379 1547 2508
3 2177 1359 2467
3 2403 1489 2456
3 796 785 2532
3 219 1902 2516
3 1519 2300 2480
3 1065 1655 2476
3 1375 1473 2505
3 1489 1490 2456
3 390 392 2431
3 2247 2013 2464
3 1135 1930 2369
3 2278 1583 2345
3 626 622 2452
3 631 2298 2312
3 2233 1348 2298
3 1398 1974 2499
3 1706 1681 2492
3 261 130 2444
3 32 260 2445
3 822 2099 2368
3 1365 1912 2439
3 941 940 2418
3 1446 2166 2504
3 2106 1121 2414
3 2300 1519 2449
3 1803 1104 2521
3 1732 1570 2476
3 1413 2051 2392
3 2122 1946 2396
3 2238 1868 2520
3 477 556 2483
3 2397 1985 2533
3 463 445 2411
3 2163 1185 2488
3 1126 2141 2319
3 1755 2264 2533
3 972 2204 2501
3 2230 1533 2340
3 1774 1773 2503
3 1997 2325 2349
3 1004 2069 2446
3 2159 31 2445
3 131 2160 2444
3 1371 2191 2451
3 1001 2154 2486
3 1682 2230 2340
3 2103 961 2383
3 1033 1151 2410
3 382 2390 2531
3 1504 2079 2520
3 1583 2278 2321
3 511 465 2429
3 250 2024 2479
3 2208 2088 2509
3 619 620 2484
3 1246 2208 2366
3 2141 1209 2319
3 1359 1413 2467
3 1295 1459 2458
3 2218 1435 2465
3 2281 1249 2511
3 2293 237 2354
3 2207 1398 2499
3 1564 2155 2422
3 552 469 2453
3 1947 224 2498
3 2062 1568 2490
3 2018 205 2416
3 260 2159 2445
3 2160 261 2444
3 2092 610 2468
3 194 2195 2432
3 1432 2213 2311
3 211 2251 2464
3 2378 856 2527
3 1536 1532 2534
3 2364 786 2497
3 2438 1438 2478
3 1185 1948 2488
3 2042 941 2418
3 1582 2321 2434
3 885 1891 2469
3 1364 2048 2455
3 1693 2225 2518
3 401 382 2531
3 1338 2247 2464
3 442 2238 2520
3 1292 2117 2428
3 2274 1350 2500
3 2066 2193 2425
3 2179 1184 2435
3 898 822 2368
3 2436 1863 2527
3 1844 1016 2478
3 2184 1001 2486
3 557 2207 2499
3 2013 211 2464
3 2254 250 2479
3 1350 1181 2500
3 2009 248 2470
3 246 2140 2506
3 1574 2436 2527
3 2139 1419 2517
3 316 1971 2514
3 1319 2122 2482
3 226 2006 2507
3 1400 2270 2481
3 1681 2287 2448
3 2325 1578 2349
3 232 1652 2487
3 1320 2214 2424
3 1632 2208 2509
3 248 2288 2470
3 1406 1141 2460
3 2188 1322 2434
3 2244 1980 2441
3 2088 1255 2509
3 1280 2109 2427
3 2060 2307 2405
3 2236 1034 2463
3 1745 2293 2354
3 2122 2396 2482
3 2109 1030 2427
3 2307 1563 2405
3 1429 2382 2459
3 224 2267 2498
3 682 2211 2447
3 2079 442 2520
3 2348 1287 2398
3 2220 1842 2472
3 1335 2249 2466
3 1249 2263 2511
3 443 2210 2519
3 2385 1373 2394
3 1594 2184 2486
3 2052 2239 2518
3 1568 2439 2490
3 2349 1578 2515
3 2344 468 2412
3 2270 1996 2481
3 1735 2244 2441
3 2260 1471 2477
3 2210 1504 2519
3 1434 2297 2450
3 2297 1419 2450
3 2263 1660 2502
3 2404 2009 2470
3 1718 2385 2394
3 1371 2194 2536
3 2317 444 2461
3 1443 2322 2525
3 1716 2375 2452
3 1863 2378 2527
3 2439 726 2490
3 1057 2328 2451
3 1638 2404 2470
3 1454 2234 2535
3 755 2320 2513
3 2234 1653 2535
3 2264 552 2533
3 1419 2297 2517
3 1392 2322 2510
3 552 2397 2533
3 1798 2364 2497
3 2322 1392 2525
3 2382 1631 2459
3 1016 2438 2478
3 1366 2370 2537
3 1742 2491 2530
3 2491 257 2530
CELL_TYPES 4886
5
5
5
5
5
5
5
5
5
5
5
5
5
5
5
5
5
5
5
5
5
5
5
5
5
5
5
5
5
5
5
5
5
5
5
5
5
5
5
5
5
5
5
5
5
5
5
5
5
5
5
5
5
5
5
5
5
5
5
5
5
5
5
5
5
5
5
5
5
5
5
5
5
5
5
5
5
5
5
5
5
5
5
5
5
5
5
5
5
5
5
5
5
5
5
5
5
5
5
5
5
5
5
5
5
5
5
5
5
5
5
5
5
5
5
5
5
5
5
5
5
5
5
5
5
5
5
5
5
5
5
5
5
5
5
5
5
5
5
5
5
5
5
5
5
5
5
5
5
5
5
5
5
5
5
5
5
5
5
5
5
5
5
5
5
5
5
5
5
5
5
5
5
5
5
5
5
5
5
5
5
5
5
5
5
5
5
5
5
5
5
5
5
5
5
5
5
5
5
5
5
5
5
5
5
5
5
5
5
5
5
5
5
5
5
5
5
5
5
5
5
5
5
5
5
5
5
5
5
5
5
5
5
5
5
5
5
5
5
5
5
5
5
5
5
5
5
5
5
5
5
5
5
5
5
5
5
5
5
5
5
5
5
5
5
5
5
5
5
5
5
5
5
5
5
5
5
5
5
5
5
5
5
5
5
5
5
5
5
5
5
5
5
5
5
5
5
5
5
5
5
5
5
5
5
5
5
5
5
5
5
5
5
5
5
5
5
5
5
5
5
5
5
5
5
5
5
5
5
5
5
5
5
5
5
5
5
5
5
5
5
5
5
5
5
5
5
5
5
5
5
5
5
5
5
5
5
5
5
5
5
5
5
5
5
5
5
5
5
5
5
5
5
5
5
5
5
5
5
5
5
5
5
5
5
5
5
5
5
5
5
5
5
5
5
5
5
5
5
5
5
5
5
5
5
5
5
5
5
5
5
5
5
5
5
5
5
5
5
5
5
5
5
5
5
5
5
5
5
5
5
5
5
5
5
5
5
5
5
5
5
5
5
5
5
5
5
5
5
5
5
5
5
5
5
5
5
5
5
5
5
5
5
5
5
5
5
5
5
5
5
5
5
5
5
5
5
5
5
5
5
5
5
5
5
5
5
5
5
5
5
5
5
5
5
5
5
5
5
5
5
5
5
5
5
5
5
5
5
5
5
5
5
5
5
5
5
5
5
5
5
5
5
5
5
5
5
5
5
5
5
5
5
5
5
5
5
5
5
5
5
5
5
5
5
5
5
5
5
5
5
5
5
5
5
5
5
5
5
5
5
5
5
5
5
5
5
5
5
5
5
5
5
5
5
5
5
5
5
5
5
5
5
5
5
5
5
5
5
5
5
5
5
5
5
5
5
5
5
5
5
5
5
5
5
5
5
5
5
5
5
5
5
5
5
5
5
5
5
5
5
5
5
5
5
5
5
5
5
5
5
5
5
5
5
5
5
5
5
5
5
5
5
5
5
5
5
5
5
5
5
5
5
5
5
5
5
5
5
5
5
5
5
5
5
5
5
5
5
5
5
5
5
5
5
5
5
5
5
5
5
5
5
5
5
5
5
5
5
5
5
5
5
5
5
5
5
5
5
5
5
5
5
5
5
5
5
5
5
5
5
5
5
5
5
5
5
5
5
5
5
5
5
5
5
5
5
5
5
5
5
5
5
5
5
5
5
5
5
5
5
5
5
5
5
5
5
5
5
5
5
5
5
5
5
5
5
5
5
5
5
5
5
5
5
5
5
5
5
5
5
5
5
5
5
5
5
5
5
5
5
5
5
5
5
5
5
5
5
5
5
5
5
5
5
5
5
5
5
5
5
5
5
5
5
5
5
5
5
5
5
5
5
5
5
5
5
5
5
5
5
5
5
5
5
5
5
5
5
5
5
5
5
5
5
5
5
5
5
5
5
5
5
5
5
5
5
5
5
5
5
5
5
5
5
5
5
5
5
5
5
5
5
5
5
5
5
5
5
5
5
5
5
5
5
5
5
5
5
5
5
5
5
5
5
5
5
5
5
5
5
5
5
5
5
5
5
5
5
5
5
5
5
5
5
5
5
5
5
5
5
5
5
5
5
5
5
5
5
5
5
5
5
5
5
5
5
5
5
5
5
5
5
5
5
5
5
5
5
5
5
5
5
5
5
5
5
5
5
5
5
5
5
5
5
5
5
5
5
5
5
5
5
5
5
5
5
5
5
5
5
5
5
5
5
5
5
5
5
5
5
5
5
5
5
5
5
5
5
5
5
5
5
5
5
5
5
5
5
5
5
5
5
5
5
5
5
5
5
5
5
5
5
5
5
5
5
5
5
5
5
5
5
5
5
5
5
5
5
5
5
5
5
5
5
5
5
5
5
5
5
5
5
5
5
5
5
5
5
5
5
5
5
5
5
5
5
5
5
5
5
5
5
5
5
5
5
5
5
5
5
5
5
5
5
5
5
5
5
5
5
5
5
5
5
5
5
5
5
5
5
5
5
5
5
5
5
5
5
5
5
5
5
5
5
5
5
5
5
5
5
5
5
5
5
5
5
5
5
5
5
5
5
5
5
5
5
5
5
5
5
5
5
5
5
5
5
5
5
5
5
5
5
5
5
5
5
5
5
5
5
5
5
5
5
5
5
5
5
5
5
5
5
5
5
5
5
5
5
5
5
5
5
5
5
5
5
5
5
5
5
5
5
5
5
5
5
5
5
5
5
5
5
5
5
5
5
5
5
5
5
5
5
5
5
5
5
5
5
5
5
5
5
5
5
5
5
5
5
5
5
5
5
5
5
5
5
5
5
5
5
5
5
5
5
5
5
5
5
5
5
5
5
5
5
5
5
5
5
5
5
5
5
5
5
5
5
5
5
5
5
5
5
5
5
5
5
5
5
5
5
5
5
5
5
5
5
5
5
5
5
5
5
5
5
5
5
5
5
5
5
5
5
5
5
5
5
5
5
5
5
5
5
5
5
5
5
5
5
5
5
5
5
5
5
5
5
5
5
5
5
5
5
5
5
5
5
5
5
5
5
5
5
5
5
5
5
5
5
5
5
5
5
5
5
5
5
5
5
5
5
5
5
5
5
5
5
5
5
5
5
5
5
5
5
5
5
5
5
5
5
5
5
5
5
5
5
5
5
5
5
5
5
5
5
5
5
5
5
5
5
5
5
5
5
5
5
5
5
5
5
5
5
5
5
5
5
5
5
5
5
5
5
5
5
5
5
5
5
5
5
5
5
5
5
5
5
5
5
5
5
5
5
5
5
5
5
5
5
5
5
5
5
5
5
5
5
5
5
5
5
5
5
5
5
5
5
5
5
5
5
5
5
5
5
5
5
5
5
5
5
5
5
5
5
5
5
5
5
5
5
5
5
5
5
5
5
5
5
5
5
5
5
5
5
5
5
5
5
5
5
5
5
5
5
5
5
5
5
5
5
5
5
5
5
5
5
5
5
5
5
5
5
5
5
5
5
5
5
5
5
5
5
5
5
5
5
5
5
5
5
5
5
5
5
5
5
5
5
5
5
5
5
5
5
5
5
5
5
5
5
5
5
5
5
5
5
5
5
5
5
5
5
5
5
5
5
5
5
5
5
5
5
5
5
5
5
5
5
5
5
5
5
5
5
5
5
5
5
5
5
5
5
5
5
5
5
5
5
5
5
5
5
5
5
5
5
5
5
5
5
5
5
5
5
5
5
5
5
5
5
5
5
5
5
5
5
5
5
5
5
5
5
5
5
5
5
5
5
5
5
5
5
5
5
5
5
5
5
5
5
5
5
5
5
5
5
5
5
5
5
5
5
5
5
5
5
5
5
5
5
5
5
5
5
5
5
5
5
5
5
5
5
5
5
5
5
5
5
5
5
5
5
5
5
5
5
5
5
5
5
5
5
5
5
5
5
5
5
5
5
5
5
5
5
5
5
5
5
5
5
5
5
5
5
5
5
5
5
5
5
5
5
5
5
5
5
5
5
5
5
5
5
5
5
5
5
5
5
5
5
5
5
5
5
5
5
5
5
5
5
5
5
5
5
5
5
5
5
5
5
5
5
5
5
5
5
5
5
5
5
5
5
5
5
5
5
5
5
5
5
5
5
5
5
5
5
5
5
5
5
5
5
5
5
5
5
5
5
5
5
5
5
5
5
5
5
5
5
5
5
5
5
5
5
5
5
5
5
5
5
5
5
5
5
5
5
5
5
5
5
5
5
5
5
5
5
5
5
5
5
5
5
5
5
5
5
5
5
5
5
5
5
5
5
5
5
5
5
5
5
5
5
5
5
5
5
5
5
5
5
5
5
5
5
5
5
5
5
5
5
5
5
5
5
5
5
5
5
5
5
5
5
5
5
5
5
5
5
5
5
5
5
5
5
5
5
5
5
5
5
5
5
5
5
5
5
5
5
5
5
5
5
5
5
5
5
5
5
5
5
5
5
5
5
5
5
5
5
5
5
5
5
5
5
5
5
5
5
5
5
5
5
5
5
5
5
5
5
5
5
5
5
5
5
5
5
5
5
5
5
5
5
5
5
5
5
5
5
5
5
5
5
5
5
5
5
5
5
5
5
5
5
5
5
5
5
5
5
5
5
5
5
5
5
5
5
5
5
5
5
5
5
5
5
5
5
5
5
5
5
5
5
5
5
5
5
5
5
5
5
5
5
5
5
5
5
5
5
5
5
5
5
5
5
5
5
5
5
5
5
5
5
5
5
5
5
5
5
5
5
5
5
5
5
5
5
5
5
5
5
5
5
5
5
5
5
5
5
5
5
5
5
5
5
5
5
5
5
5
5
5
5
5
5
5
5
5
5
5
5
5
5
5
5
5
5
5
5
5
5
5
5
5
5
5
5
5
5
5
5
5
5
5
5
5
5
5
5
5
5
5
5
5
5
5
5
5
5
5
5
5
5
5
5
5
5
5
5
5
5
5
5
5
5
5
5
5
5
5
5
5
5
5
5
5
5
5
5
5
5
5
5
5
5
5
5
5
5
5
5
5
5
5
5
5
5
5
5
5
5
5
5
5
5
5
5
5
5
5
5
5
5
5
5
5
5
5
5
5
5
5
5
5
5
5
5
5
5
5
5
5
5
5
5
5
5
5
5
5
5
5
5
5
5
5
5
5
5
5
5
5
5
5
5
5
5
5
5
5
5
5
5
5
5
5
5
5
5
5
5
5
5
5
5
5
5
5
5
5
5
5
5
5
5
5
5
5
5
5
5
5
5
5
5
5
5
5
5
5
5
5
5
5
5
5
5
5
5
5
5
5
5
5
5
5
5
5
5
5
5
5
5
5
5
5
5
5
5
5
5
5
5
5
5
5
5
5
5
5
5
5
5
5
5
5
5
5
5
5
5
5
5
5
5
5
5
5
5
5
5
5
5
5
5
5
5
5
5
5
5
5
5
5
5
5
5
5
5
5
5
5
5
5
5
5
5
5
5
5
5
5
5
5
5
5
5
5
5
5
5
5
5
5
5
5
5
5
5
5
5
5
5
5
5
5
5
5
5
5
5
5
5
5
5
5
5
5
5
5
5
5
5
5
5
5
5
5
5
5
5
5
5
5
5
5
5
5
5
5
5
5
5
5
5
5
5
5
5
5
5
5
5
5
5
5
5
5
5
5
5
5
5
5
5
5
5
5
5
5
5
5
5
5
5
5
5
5
5
5
5
5
5
5
5
5
5
5
5
5
5
5
5
5
5
5
5
5
5
5
5
5
5
5
5
5
5
5
5
5
5
5
5
5
5
5
5
5
5
5
5
5
5
5
5
5
5
5
5
5
5
5
5
5
5
5
5
5
5
5
5
5
5
5
5
5
5
5
5
5
5
5
5
5
5
5
5
5
5
5
5
5
5
5
5
5
5
5
5
5
5
5
5
5
5
5
5
5
5
5
5
5
5
5
5
5
5
5
5
5
5
5
5
5
5
5
5
5
5
5
5
5
5
5
5
5
5
5
5
5
5
5
5
5
5
5
5
5
5
5
5
5
5
5
5
5
5
5
5
5
5
5
5
5
5
5
5
5
5
5
5
5
5
5
5
5
5
5
5
5
5
5
5
5
5
5
5
5
5
5
5
5
5
5
5
5
5
5
5
5
5
5
5
5
5
5
5
5
5
5
5
5
5
5
5
5
5
5
5
5
5
5
5
5
5
5
5
5
5
5
5
5
5
5
5
5
5
5
5
5
5
5
5
5
5
5
5
5
5
5
5
5
5
5
5
5
5
5
5
5
5
5
5
5
5
5
5
5
5
5
5
5
5
5
5
5
5
5
5
5
5
5
5
5
5
5
5
5
5
5
5
5
5
5
5
5
5
5
5
5
5
5
5
5
5
5
5
5
5
5
5
5
5
5
5
5
5
5
5
5
5
5
5
5
5
5
5
5
5
5
5
5
5
5
5
5
5
5
5
5
5
5
5
5
5
5
5
5
5
5
5
5
5
5
5
5
5
5
5
5
5
5
5
5
5
5
5
5
5
5
5
5
5
5
5
5
5
5
5
5
5
5
5
5
5
5
5
5
5
5
5
5
5
5
5
5
5
5
5
5
5
5
5
5
5
5
5
5
5
5
5
5
5
5
5
5
5
5
5
5
5
5
5
5
5
5
5
5
5
5
5
5
5
5
5
5
5
5
5
5
5
5
5
5
5
5
5
5
5
5
5
5
5
5
5
5
5
5
5
5
5
5
5
5
5
5
5
5
5
5
5
5
5
5
5
5
5
5
5
5
5
5
5
5
5
5
5
5
5
5
5
5
5
5
5
5
5
5
5
5
5
5
5
5
5
5
5
5
5
5
5
5
5
5
5
5
5
5
5
5
5
5
5
5
5
5
5
5
5
5
5
5
5
5
5
5
5
5
5
5
5
5
5
5
5
5
5
5
5
5
5
5
5
5
5
5
5
5
5
5
5
5
5
5
5
5
5
5
5
5
5
5
5
5
5
5
5
5
5
5
5
5
5
5
5
5
5
5
5
5
5
5
5
5
5
5
5
5
5
5
5
5
5
5
5
5
5
5
5
5
5
5
5
5
5
5
5
5
5
5
5
5
5
5
5
5
5
5
5
5
5
5
5
5
5
5
5
5
5
5
5
5
5
5
5
5
5
5
5
5
5
5
5
5
5
5
5
5
5
5
5
5
5
5
5
5
5
5
5
5
5
5
5
5
5
5
5
5
5
5
5
5
5
5
5
5
5
5
5
5
5
5
5
5
5
5
5
5
5
5
5
5
5
5
5
5
5
5
5
5
5
5
5
5
5
5
5
5
5
5
5
5
5
5
5
5
5
5
5
5
5
5
5
5
5
5
5
5
5
5
5
5
5
5
5
5
5
5
5
5
5
5
5
5
5
5
5
5
5
5
5
5
5
5
5
5
5
5
5
5
5
5
5
5
5
5
5
5
5
5
5
5
5
5
5
5
5
5
5
5
5
5
5
5
5
5
5
5
5
5
5
5
5
5
5
5
5
5
5
5
5
5
5
5
5
5
5
5
5
5
5
5
5
5
5
5
5
5
5
5
5
5
5
5
5
5
5
5
5
5
5
5
5
5
5
5
5
5
5
5
5
5
5
5
5
5
5
5
5
5
5
5
5
5
5
5
5
5
5
5
5
5
5
5
5
5
5
5
5
5
5
5
5
5
5
5
5
5
5
5
5
5
5
5
5
5
5
5
5
5
5
5
5
5
5
5
5
5
5
5
5
5
5
5
5
5
5
5
5
5
5
5
5
5
5
5
5
5
5
5
5
5
5
5
5
5
5
5
5
5
5
5
5
5
5
5
5
5
5
5
5
5
5
5
5
5
5
5
5
5
5
5
5
5
5
5
5
5
5
5
5
5
5
5
5
5
5
5
5
5
5
5
5
5
5
5
5
5
5
5
5
5
5
5
5
5
5
5
5
5
5
5
5
5
5
5
5
5
5
5
5
5
5
5
5
5
5
5
5
5
5
5
5
5
5
5
5
5
5
5
5
5
5
5
5
5
5
5
5
5
5
5
5
5
5
5
5
5
5
5
5
5
5
5
5
5
5
5
5
5
5
5
5
5
5
5
5
5
5
5
5
5
5
5
5
5
5
5
5
5
5
5
5
5
5
5
5
5
5
5
5
5
5
5
5
5
5
5
5
5
5
5
5
5
5
5
5
5
5
5
5
5
5
5
5
5
5
5
5
5
5
5
5
5
5
5
5
5
5
5
5
5
5
5
5
5
5
5
5
5
5
5
5
5
5
5
5
5
5
5
5
5
5
5
5
5
5
5
5
5
5
5
5
5
5
5
5
5
5
5
5
5
5
5
5
5
5
5
5
5
5
5
5
5
5
5
5
5
5
5
5
5
5
5
5
5
5
5
5
5
5
5
5
5
5
5
5
5
5
5
5
5
5
5
5
5
5
5
5
5
5
5
5
5
5
5
5
5
5
5
5
5
5
5
5
5
5
5
5
5
5
5
5
5
5
5
5
5
5
5
5
5
5
5
5
5
5
5
5
5
5
5
5
5
5
5
5
5
5
5
5
5
5
5
5
5
5
5
5
5
5
5
5
5
5
5
5
5
5
5
5
5
5
5
5
5
5
5
5
5
5
5
5
5
5
5
5
5
5
5
5
5
5
5
5
5
5
5
5
5
5
5
5
5
5
5
5
5
5
5
5
5
5
5
5
5
5
5
5
5
5
5
5
5
5
5
5
5
5
5
5
5
5
5
5
5
5
5
5
5
5
5
5
5
5
5
5
5
5
5
5
5
5
5
5
5
5
5
5
5
5
5
5
5
5
5
5
5
5
5
5
5
5
5
5
5
5
5
5
5
5
5
5
5
5
5
5
5
5
5
5
5
5
5
5
5
5
5
5
5
5
5
5
5
5
5
5
5
5
5
5
5
5
5
5
5
5
5
5
5
5
5
5
5
5
5
5
5
5
5
5
5
5
5
5
5
5
5
5
5
5
5
5
5
5
5
5
5
5
5
5
5
5
5
5
5
5
5
5
5
5
5
5
5
5
5
5
5
5
5
5
5
5
5
5
5
5
5
5
5
5
5
5
5
5
5
5
5
5
5
5
5
5
5
5
5
5
5
5
5
5
5
5
5
5
5
5
5
5
5
5
5
5
5
5
5
5
5
5
5
5
5
5
5
5
5
5
5
5
5
5
5
5
5
5
5
5
5
5
5
5
5
5
5
5
5
5
5
5
5
5
5
5
5
5
5
5
5
5
5
5
5
5
5
5
5
5
5
5
5
5
5
5
5
5
5
5
5
5
5
5
5
5
5
5
5
5
5
5
5
5
5
5
5
5
5
5
5
5
5
5
5
5
5
5
5
5
5
5
5
5
5
5
5
5
5
5
5
5
5
5
5
5
5
5
5
5
5
5
5
5
5
5
5
5
5
5
5
5
5
5
5
5
5
5
5
5
5
5
5
5
5
5
5
5
5
5
5
5
5
5
5
5
5
5
5
5
5
5
5
5
5
5
5
5
5
5
5
5
5
5
5
5
5
5
5
5
5
5
5
5
5
5
5
5
5
5
5
5
5
5
5
5
5
5
5
5
5
5
5
5
5
5
5
5
5
5
5
5
5
5
5
5
5
5
5
5
5
5
5
5
5
5
5
5
5
5
5
5
5
5
5
5
5
5
5
5
5
5
5
5
5
5
5
5
5
5
5
5
5
5
5
5
5
5
5
5
5
5
5
5
5
5
5
5
5
5
5
5
5
5
5
5
5
5
5
5
5
5
5
5
5
5
5
5
5
5
5
5
5
5
5
5
5
5
5
5
5
5
5
5
5
5
5
5
5
5
5
5
5
5
5
5
5
5
5
5
5
5
5
5
5
5
5
5
5
5
5
5
5
5
5
5
5
5
5
5
5
5
5
5
5
5
5
5
5
5
5
5
5
5
5
5
5
5
5
5
5
5
5
5
5
5
5
5
5
5
5
5
5
5
5
5
5
5
5
5
5
5
5
5
5
5
5
5
5
5
5
5
5
5
5
5
5
5
5
5
5
5
5
5
5
5
5
5
5
5
5
5
5
5
5
5
5
5
5
5
5
5
5
5
5
5
5
5
5
5
5
5
5
5
5
5
5
5
5
5
5
5
5
5
5
5
5
5
5
5
5
5
5
5
5
5
5
5
5
5
5
5
5
5
5
5
5
5
5
5
5
5
5
5
5
5
5
5
5
5
5
5
5
5
5
5
5
5
5
5
5
5
5
5
5
5
5
5
5
5
5
5
5
5
5
5
5
5
5
5
5
5
5
5
5
5
5
5
5
5
5
5
5
5
5
5
5
5
5
5
5
5
5
5
5
5
5
5
5
5
5
5
5
5
5
5
5
5
5
5
5
5
5
5
5
5
5
5
5
5
5
5
5
5
5
5
5
5
5
5
5
5
5
5
5
5
5
5
5
5
5
5
5
5
5
5
5
5
5
5
5
5
5
5
5
5
5
5
5
5
5
5
5
5
5
5
5
5
5
5
5
5
5
5
5
5
5
5
5
5
5
5
5
5
5
5
5
5
5
5
5
5
5
5
5
5
5
5
5
5
5
5
5
5
5
5
5
5
5
5
5
5
5
5
5
5
5
5
5
5
5
5
5
5
5
5
5
5
5
5
5
5
5
5
5
5
5
5
5
5
5
5
5
5
5
5
5
5
5
5
5
5
5
5
5
5
5
5
5
5
5
5
5
5
5
5
5
5
5
5
5
5
5
5
5
5
5
5
5
5
5
5
5
5
5
5
5
5
5
5
5
5
5
5
5
5
5
5
5
5
5
5
5
5
5
5
5
5
5
5
5
5
5
5
5
5
5
5
5
5
5
5
5
5
5
5
5
5
5
5
5
5
5
5
5
5
5
5
5
5
5
5
5
5
5
5
5
5
5
5
5
5
5
5
5
5
5
5
5
5
5
5
5
5
5
5
5
5
5
5
5
5
5
5
5
5
5
5
5
5
5
5
5
5
5
5
5
5
5
5
5
5
5
5
5
5
5
5
5
5
5
5
5
5
5
5
5
5
5
5
5
5
5
5
5
5
5
5
5
5
5
5
5
5
5
5
5
5
5
POINT_DATA 2538
VECTORS disp float
1.308519307427361e-11 2.2455255843885793e-11 0.0
7.834273697735388e-12 -1.853192092158428e-11 0.0
0.0017999999996468718 3.6999419994314874e-12 0.0
0.0017999999762313285 -5.571280685825844e-11 0.0
0.0007674283979857776 0.00035625827042066804 0.0
0.0013730159622316993 2.4012582472572233e-5 0.0
0.0009932808971058551 -2.8704296166838997e-5 0.0
-1.0700325747510452e-12 -3.5714429328391483e-12 0.0
2.198057563425373e-12 1.3002777333424102e-12 0.0
1.3490585975300644e-12 -8.62337218546217e-13 0.0
1.249840793658451e-12 -6.238653083293683e-13 0.0
6.959089806969139e-13 -5.962760056008529e-13 0.0
7.14583320402752e-13 -9.27926526120086e-13 0.0
5.364846783283985e-13 -1.0088802029072284e-12 0.0
4.4695518550003096e-13 -1.3549210474233868e-12 0.0
2.5808362720139203e-13 -1.6862055462488325e-12 0.0
4.4532908563367476e-13 -2.1482916050264365e-12 0.0
4.344381642922681e-13 -2.543173207868397e-12 0.0
5.383020521917323e-13 -2.9268672459709277e-12 0.0
6.408452428181311e-13 -3.285659737067173e-12 0.0
6.540724185797253e-13 -3.4495532406015547e-12 0.0
8.464568066297294e-13 -3.801741352986464e-12 0.0
8.342583973686383e-13 -3.862606512370561e-12 0.0
8.899701458556461e-13 -4.134831883176952e-12 0.0
1.0274921660163526e-12 -4.313368486570534e-12 0.0
1.0023617605978598e-12 -4.462603788440783e-12 0.0
1.0776199020678125e-12 -4.696543160927658e-12 0.0
1.1931046186726862e-12 -4.939674284809989e-12 0.0
1.310668652119329e-12 -5.234168627116247e-12 0.0
1.2428580394502042e-12 -5.608762565063236e-12 0.0
1.9511834716239186e-12 -6.674528978835478e-12 0.0
4.946088376246844e-13 -5.084660866791294e-12 0.0
2.5935947797212426e-5 -1.58146796392838e-5 0.0
4.568334664455297e-5 -2.7656410185149356e-5 0.0
6.511974825765325e-5 -3.814115167483277e-5 0.0
8.351375512974743e-5 -4.785728714967344e-5 0.0
0.00010097511829161319 -5.697684882893037e-5 0.0
0.00011792735361750068 -6.585942655565905e-5 0.0
0.0001347140919396887 -7.430388611682524e-5 0.0
0.00015103043893064625 -8.249815456727056e-5 0.0
0.00016707022033843542 -9.054531090520056e-5 0.0
0.0001829269904938509 -9.8339934697483e-5 0.0
0.00019853343971991118 -0.00010603882817327996 0.0
0.00021405430597449117 -0.00011357130513018674 0.0
0.00022943863121858697 -0.00012091516054834517 0.0
0.0002447717299612575 -0.00012819262426384855 0.0
0.0002600506436792914 -0.00013532541779499085 0.0
0.0002751200831831859 -0.0001422229308036603 0.0
0.00029017608166482053 -0.00014899202618730905 0.0
0.00030529120886048665 -0.0001555207682319069 0.0
0.00032036796965679475 -0.00016189131318758334 0.0
0.000335457266312891 -0.00016812705900386208 0.0
0.0003505705479574723 -0.000174232474640686 0.0
0.0003656924903799629 -0.0001802200344706468 0.0
0.00038093292801562025 -0.00018608561277418063 0.0
0.0003960833886510755 -0.00019182963703630383 0.0
0.00041141365129839034 -0.0001974443041023442 0.0
0.00042666123556934387 -0.00020293379809764223 0.0
0.0004419915437373546 -0.000208340751901691 0.0
0.00045734287089703386 -0.0002135558320748584 0.0
0.0004729003205332349 -0.00021867898966342956 0.0
0.0004883136871565818 -0.0002237283505609597 0.0
0.0005039074606888246 -0.00022864603393952048 0.0
0.0005195534919367053 -0.00023338231787555628 0.0
0.000535350206838023 -0.00023798746658573256 0.0
0.0005511510487806754 -0.00024227245610927744 0.0
0.0005672544728512605 -0.00024647995046442534 0.0
0.0005832486892409614 -0.0002504070347450264 0.0
0.0005992364057940625 -0.0002542229967544398 0.0
0.0006153474620693609 -0.00025772782610908703 0.0
0.0006314028810161247 -0.00026104428046691466 0.0
0.0006475321830899076 -0.00026419088088302015 0.0
0.0006637356939108292 -0.00026709748260243804 0.0
0.000680476927198606 -0.0002700288309410188 0.0
0.0006976189396577546 -0.00027277054825366456 0.0
0.0007149127867311307 -0.00027597063192577614 0.0
0.0007326140618754915 -0.00027872493747553166 0.0
0.0007500624373699401 -0.00028172353013837715 0.0
0.0007675039864932502 -0.0002848224962224986 0.0
0.0007854848055234691 -0.0002873782830899273 0.0
0.000802928861197745 -0.0002906178114406874 0.0
0.0008221711903876601 -0.0002932122849634351 0.0
0.0008415068113051526 -0.00029627025527087004 0.0
0.0008613750622973673 -0.00029952994931253715 0.0
0.0008803563185259434 -0.00030290398344650596 0.0
0.0008998342422571486 -0.0003058033091750088 0.0
0.0009176546941724894 -0.0003087376859186309 0.0
0.0009362778367312352 -0.0003115444924121015 0.0
0.0009540101746969414 -0.0003140637189688845 0.0
0.0009716763611481319 -0.0003158964267749745 0.0
0.000989230629851588 -0.00031748230278240387 0.0
0.0010068211569755792 -0.00031861496721538677 0.0
0.001024004479123921 -0.000319793781120878 0.0
0.0010412018933273369 -0.0003208054969004191 0.0
0.0010587852997961402 -0.0003218342918090896 0.0
0.0010765162233662088 -0.0003225142390647712 0.0
0.0010948501582495815 -0.0003231287272887296 0.0
0.0011141205881574742 -0.00032352805525920196 0.0
0.00113323439929827 -0.00032365904223400347 0.0
0.0011517148536113295 -0.00032373862805608686 0.0
0.0011691897904981578 -0.00032347183716112957 0.0
0.0011865805545826441 -0.00032252578100766657 0.0
0.0012034266500404788 -0.00032108788615885014 0.0
0.0012210750085389112 -0.0003191013677251943 0.0
0.00123807942234192 -0.00031664478802188607 0.0
0.001255160365814572 -0.00031372303037879244 0.0
0.0012734651498852952 -0.0003101376250783396 0.0
0.0012912599653773385 -0.0003064100311708579 0.0
0.0013092297671408422 -0.00030263523190683276 0.0
0.0013265214051850437 -0.0002983043999629037 0.0
0.00134426450955984 -0.0002933673313544063 0.0
0.0013612172512992885 -0.0002876290605906301 0.0
0.0013794963243830161 -0.0002818887789177518 0.0
0.0013968048273009907 -0.0002757465852483791 0.0
0.0014150714019022688 -0.00027016422367057017 0.0
0.0014337971653562798 -0.0002638730140861133 0.0
0.001451279806014781 -0.0002571443859805222 0.0
0.0014686428503650365 -0.00024998033510089925 0.0
0.0014866067059015095 -0.00024137567290003257 0.0
0.0015042990568315544 -0.0002315564407049225 0.0
0.001522124107922822 -0.0002210029672006451 0.0
0.0015407620476890148 -0.00020956639038454753 0.0
0.001560259112817667 -0.0001967500359053635 0.0
0.0015802197363972504 -0.00018274853370193588 0.0
0.0016008183541426585 -0.0001677875612093737 0.0
0.0016225832384358502 -0.00015168591202989066 0.0
0.0016460965293616087 -0.00013413674968005494 0.0
0.001671016993357051 -0.00011502762063667399 0.0
0.0016976672049295106 -9.387996645004566e-5 0.0
0.001727620513330796 -6.95490972982615e-5 0.0
0.0017598254050421125 -4.082116651560367e-5 0.0
0.0017999999989894585 -5.161746111569967e-12 0.0
0.0017999999955914366 -8.257849459374503e-12 0.0
0.0017999999983681087 -2.2028065516438345e-12 0.0
0.0017999999976991384 -2.028364324355373e-12 0.0
0.00179999999815318 -9.902914211776988e-13 0.0
0.001799999998160107 -4.0167681566777523e-13 0.0
0.0017999999981647616 -7.00326710759837e-14 0.0
0.0017999999983005644 1.517394559809679e-13 0.0
0.0017999999983009138 3.471285842034066e-13 0.0
0.0017999999983890661 4.3579401337968553e-13 0.0
0.001799999998450537 5.065513551913698e-13 0.0
0.0017999999985647995 6.323220121310464e-13 0.0
0.0017999999985761229 7.701730021832464e-13 0.0
0.0017999999986157021 9.533060146648654e-13 0.0
0.001799999998620306 1.143199342679275e-12 0.0
0.00179999999862388 1.36208192384237e-12 0.0
0.0017999999986220293 1.5661683680898932e-12 0.0
0.001799999998568105 1.829035818631352e-12 0.0
0.0017999999986775437 2.00052246036133e-12 0.0
0.0017999999986045606 2.176723727766581e-12 0.0
0.001799999998686658 2.2344564153626985e-12 0.0
0.0017999999986924166 2.1373596792685685e-12 0.0
0.0017999999989202209 1.9826260201906384e-12 0.0
0.0017999999993311498 2.1903684270744886e-12 0.0
0.0017999999995787744 1.5585906423115116e-12 0.0
0.0016862662033513055 3.703884847567043e-5 0.0
0.0015877281523477874 5.1456046703734836e-5 0.0
0.0015011080195066607 4.626500688815306e-5 0.0
0.001418862475357341 3.274525085537972e-5 0.0
0.0013665602839850234 -3.155220315058609e-5 0.0
0.0013595078154270918 -6.529386128276391e-5 0.0
0.0013523061565691675 -0.00010072259930666627 0.0
0.0013365993635284653 -0.00012219441243974073 0.0
0.0013140002985396642 -0.00013284984005762442 0.0
0.0012862740129334221 -0.00013498633840237792 0.0
0.0012547465958120936 -0.00013140561292101276 0.0
0.0012215229845631713 -0.00012100658604542225 0.0
0.0011862115229990535 -0.0001074153330801284 0.0
0.0011494905172426532 -9.171815552411963e-5 0.0
0.0011090499990846524 -7.410951743019109e-5 0.0
0.0010610348138588176 -5.488084759958408e-5 0.0
0.000950997196965215 1.2874356709778197e-5 0.0
0.0009198497216002604 3.594189898029483e-5 0.0
0.000893089013102447 5.3983094594668824e-5 0.0
0.000868860627524785 7.090762571166979e-5 0.0
0.0008460065846062203 8.739118341223938e-5 0.0
0.0008251214128472337 0.0001041135370435422 0.0
0.0008057034885345811 0.00012196297398410104 0.0
0.0007886120639619043 0.00013968564251515085 0.0
0.0007757756316628223 0.00016224782797770072 0.0
0.0007648513923255802 0.00018359997018811672 0.0
0.0007640236527981862 0.0002231003148314271 0.0
0.0007600182260216738 0.00026961594803482747 0.0
0.0006895156447100244 0.0003613165890250933 0.0
0.0005942601488368627 0.00035493031000949723 0.0
0.0004614309547796125 0.00030611450629571435 0.0
0.00027579979347014974 0.00020455354277013117 0.0
0.0004753828246494788 -0.00021195819728190635 0.0
0.0011981898158346161 -0.0003050550227955544 0.0
0.0005878657663959602 -0.00024294538833076547 0.0
0.001068362881088496 -0.0003105291732992968 0.0
0.0007051897781787101 -0.00026664409068984655 0.0
0.000941259553018737 -0.00029979856588855844 0.0
0.0008112770920606652 -0.00028218755947114843 0.0
0.0013061253534300437 -0.00028516547255493587 0.0
0.0003857037848028915 -0.0001818446545586155 0.0
0.0013903206178120999 -0.00025526586156253867 0.0
0.00030950159459971224 -0.00015163944966571982 0.0
3.060040839359267e-5 -7.846062010971913e-6 0.0
0.0017592043563554418 3.3676032845248027e-7 0.0
0.0010509628988137297 -2.6986527324994057e-5 0.0
0.001187644960974537 -9.827901451394346e-5 0.0
0.0009202099435934342 4.747314633276573e-6 0.0
0.0008296346491424632 8.834199520953598e-5 0.0
0.0014822014120357328 -0.00022074340491138922 0.0
0.00023646935973864263 -0.00011954539379929022 0.0
2.585948192290308e-5 -7.5498308438914e-6 0.0
0.0017704814503896982 -1.5485656325922636e-6 0.0
0.001742931626478838 3.5962346758678154e-6 0.0
3.552821731043896e-5 -3.3549729946945096e-6 0.0
0.0015574103147746952 -0.0001761957629385691 0.0
0.00017178894550177467 -8.740723939103359e-5 0.0
0.0012825836765937677 -0.00011616147932087526 0.0
0.0007611578110038579 0.0001373926370893249 0.0
2.0737466393962843e-5 -6.193398606878754e-6 0.0
0.0017763244156343491 -1.9862277712776114e-6 0.0
0.000655105511036692 -0.00025684214444094474 0.0
0.0007571319632833865 -0.0002754152202965718 0.0
0.0010148689780763828 -0.0003076858544577129 0.0
0.0008700356875830769 -0.0002895158438491545 0.0
0.0011249767928354802 -0.00031005924251149744 0.0
0.0012479296545036015 -0.0002986636114838197 0.0
0.0005433280658209681 -0.00023223734472496444 0.0
0.00043116093845425337 -0.00019854797969713725 0.0
0.001617173487385245 -0.000135316343215584 0.0
0.0001221581699254861 -6.26739840614849e-5 0.0
0.0017308363519695409 6.375829859322748e-6 0.0
5.0418594706701925e-5 2.0981914483540284e-6 0.0
0.0017808739515450145 -3.7429263290807734e-6 0.0
1.9439978571396016e-5 -6.234803748716116e-6 0.0
0.0013426814759645719 -9.991191773514694e-5 0.0
0.0007315197274323524 0.0001752151444165035 0.0
0.001710654092678247 6.081224592998436e-6 0.0
8.261444397203751e-5 6.758250500256127e-6 0.0
2.8848030551463495e-5 -8.231679040313996e-6 0.0
0.0017648544094933988 -9.559175610999206e-7 0.0
0.001119944816111677 -6.745578517004135e-5 0.0
0.0008771146538144038 5.3232677185773814e-5 0.0
6.842898547248008e-5 -3.385402555575909e-5 0.0
0.001696682077534498 -7.594338745580289e-5 0.0
0.0011610695569140798 -0.00031034435546913616 0.0
0.000906565363808953 -0.0002957148661477281 0.0
0.0006236562773146744 -0.0002503749865921211 0.0
0.0005086647137994611 -0.00022331794473305 0.0
0.000979483567196474 -0.0003042306272557195 0.0
0.0013389678684521062 -0.0002760803766208858 0.0
0.0003554697948868223 -0.0001700096924703147 0.0
0.0014278936889436417 -0.00024291262524681672 0.0
0.0002775010561373323 -0.00013755801628882297 0.0
0.00020281740271463412 -0.0001030473045183171 0.0
0.0015189848990066505 -0.00019996267307696464 0.0
0.0005099932360398394 0.0001925980759949229 0.0
0.00152463487614458 5.02060927693476e-6 0.0
0.0017804580993072965 -7.749890252882292e-6 0.0
1.6448414852842473e-5 -5.810541115053925e-6 0.0
0.0007200420410673918 0.00024030562851041736 0.0
0.0013769934186581415 -4.598794482424346e-5 0.0
0.00011080206551908824 1.634790329932486e-5 0.0
0.0017214196882332862 6.519056544334155e-6 0.0
2.996408665300172e-5 -1.374476821046253e-5 0.0
0.0017541990653380851 -3.173816691658619e-5 0.0
0.0014501706238473373 -7.0702534502341e-6 0.0
0.0014562200998735001 -2.3505259276706936e-5 0.0
0.001547329070220869 -5.434828895611958e-6 0.0
0.0014775921455570163 -1.904898181232177e-5 0.0
0.0014072774934381484 -4.222456176330787e-5 0.0
0.0014156538687553279 -2.8906028355527413e-5 0.0
0.0014881953400505993 -1.0151691619504985e-5 0.0
0.0014287626937019337 -1.2891020629980818e-5 0.0
0.0015026429188378942 1.553988230958637e-7 0.0
0.0014470698419284977 1.3935306980303624e-6 0.0
0.001379037818444621 -1.1275836285639534e-5 0.0
0.0013957822583195332 4.321163525874209e-6 0.0
0.0013376998998979868 -5.33905570564773e-6 0.0
0.001351577397633488 8.085620751016905e-6 0.0
0.001299951852143121 1.1608936102150893e-6 0.0
0.001313486553873592 1.2306590212746014e-5 0.0
0.00103163358102699 -3.0997351643819716e-5 0.0
0.0009806671442311764 -4.1731696652473445e-5 0.0
0.001012648506912682 -3.757072759843352e-5 0.0
0.0009688279103807589 -4.8264890823058085e-5 0.0
0.0009979679961463262 -4.4565403195973615e-5 0.0
0.0009591194871405802 -5.363002005489177e-5 0.0
0.0009852066637824897 -4.944664440897451e-5 0.0
0.0009496706537111572 -5.767825063363616e-5 0.0
0.0009735778742829027 -5.330948080044596e-5 0.0
0.0009405701260302784 -6.109255996549489e-5 0.0
0.000962955982816133 -5.659070971505328e-5 0.0
0.0009320056333587876 -6.388770828401943e-5 0.0
0.0009532879197965721 -5.979188963497188e-5 0.0
0.0009247061573623266 -6.617885621503831e-5 0.0
0.000944354380931924 -6.215136715937077e-5 0.0
0.0009170045119081257 -6.830937626373641e-5 0.0
0.0009359072183530506 -6.447537533201636e-5 0.0
0.0009089111179692659 -7.050688884329605e-5 0.0
0.0009279451998212026 -6.68136878295736e-5 0.0
0.0009019246745171042 -7.23051047562553e-5 0.0
0.0009206409120459424 -6.891230446386701e-5 0.0
0.0008953847696687432 -7.411137417120848e-5 0.0
0.0009130572244506741 -7.103687346961611e-5 0.0
0.0008889191484219734 -7.609960487408561e-5 0.0
0.0009063719476192246 -7.335655508062948e-5 0.0
0.0008832952754053927 -7.818145233873011e-5 0.0
0.0009000700507083748 -7.576246771039022e-5 0.0
0.0008766697639228055 -8.060071606613036e-5 0.0
0.0008937996994614965 -7.845544492852637e-5 0.0
0.0008659411492676112 -8.404544200540966e-5 0.0
0.0008891010002354009 -8.121174058988875e-5 0.0
0.0008651365051140313 -8.602122836468012e-5 0.0
0.0008835366590365703 -8.426230497529007e-5 0.0
0.000860709805922211 -8.898416279359226e-5 0.0
0.0008784954031258475 -8.761253279377191e-5 0.0
0.0008571463649437588 -9.204171183685779e-5 0.0
0.0008735985970781921 -9.11318711798253e-5 0.0
0.0008527852673924114 -9.550623803882346e-5 0.0
0.0009168611752444836 -6.321776905470248e-5 0.0
0.0008688854079975733 -9.492352228074698e-5 0.0
0.0008824965465264805 -7.532057886076887e-5 0.0
0.0008426297325847805 -8.900825145856552e-5 0.0
0.0008471592779250756 -9.941276030959708e-5 0.0
0.0008642487111783025 -9.902229665463853e-5 0.0
0.0008416836941586386 -0.00010366212289597626 0.0
0.0008251780563254867 -0.00010355014100555619 0.0
0.0008192035960763846 -0.00010789266578577962 0.0
0.0008588546314743018 -0.00010364825582276442 0.0
0.0008817630046951719 -9.873343525108392e-5 0.0
0.0009056658457740857 -7.941710149109282e-5 0.0
0.0008765356588729467 -0.00010369281320699162 0.0
0.0009009911765889126 -9.807362049188271e-5 0.0
0.0008948872744713971 -0.00010383553769995762 0.0
0.0008029167643484036 -0.00010755925935475348 0.0
0.0007979399047675346 -0.0001115970549994579 0.0
0.0009201396925726474 -9.778660785741206e-5 0.0
0.0007804834331856639 -0.00011115141877250624 0.0
0.0007767276241851897 -0.00011514664811011852 0.0
0.0009145514405630663 -0.00010384194104163113 0.0
0.0009388243373227648 -9.808153524540235e-5 0.0
0.000757975484666912 -0.00011452419004413348 0.0
0.0007538353065576142 -0.00011853124015041485 0.0
0.0009339181643060262 -0.00010432181426368563 0.0
0.000958848000991978 -9.824024664590348e-5 0.0
0.0007356245794685444 -0.00011758456000580101 0.0
0.0007312947266763017 -0.00012177025216022275 0.0
0.0009538495913160121 -0.00010506544216374319 0.0
0.0009795298268539226 -9.849581047172842e-5 0.0
0.0007135738259433049 -0.0001202274467646275 0.0
0.0007079791254392905 -0.0001244647356725559 0.0
0.0009748402958140368 -0.00010572133057210742 0.0
0.0010007203216477695 -9.882747385758984e-5 0.0
0.0006894610114034192 -0.00012262961186035467 0.0
0.0006845015769641997 -0.00012692863833093268 0.0
0.0006644334056651553 -0.0001249319233746102 0.0
0.0006695674906533992 -0.00012064802668995507 0.0
0.0009472929092781145 -0.00011200980466873462 0.0
0.000995896072589667 -0.00010664225950134343 0.0
0.0010224669479508889 -9.928721968098228e-5 0.0
0.0010280060234194681 -9.1024625822838e-5 0.0
0.0009361742139693192 -6.589461825040644e-5 0.0
0.0010508943190048886 -9.115397584005548e-5 0.0
0.0010569706969858388 -8.243766144962196e-5 0.0
0.0010809721139807503 -8.211870504743782e-5 0.0
0.0006613970358333348 -0.0001294454858168467 0.0
0.0006403354740345116 -0.00012672967423909073 0.0
0.0006811726418926818 -0.00013171116877928353 0.0
0.0010168529756334488 -0.0001078699744383341 0.0
0.000637794070709026 -0.0001313137521824871 0.0
0.0006162132342574059 -0.00012808948590646699 0.0
0.0009719693229039134 -5.49046978868378e-5 0.0
0.0006139649938468794 -0.00013243732243757616 0.0
0.000592067147664831 -0.00012886180691653877 0.0
0.0005901274718280009 -0.00013324015250473155 0.0
0.0005683871236447719 -0.00012905725541754908 0.0
0.0005697594072240896 -0.0001249823168577276 0.0
0.0005441779091581362 -0.0001249628602222747 0.0
0.0005459124139880965 -0.00012074765526175644 0.0
0.000563923443614081 -0.00013325548600541564 0.0
0.0005180707941769613 -0.00012028685552476352 0.0
0.0005195163032483932 -0.0001161068785468919 0.0
0.0005885738968039582 -0.0001380571865070851 0.0
0.0005662914117278672 -0.00013853638120858223 0.0
0.0004921006333509816 -0.00011492857195274541 0.0
0.0004922682748650236 -0.00011074654635505031 0.0
0.001087903659476121 -7.324895514511064e-5 0.0
0.001113269851180109 -7.266506067276485e-5 0.0
0.0005872111882200349 -0.00014317281806232006 0.0
0.000565451217769874 -0.00014353722464492707 0.0
0.0011206068752153537 -6.356478874566312e-5 0.0
0.0011475776190195016 -6.2930026455648e-5 0.0
0.0011387839680519493 -7.32459813242358e-5 0.0
0.0011739473737253643 -6.299129508769677e-5 0.0
0.0011657174181816422 -7.379301731767589e-5 0.0
0.0012017007791322808 -6.279680977061565e-5 0.0
0.0011952782685784329 -7.36637401725746e-5 0.0
0.0012332134872790278 -6.160843075843798e-5 0.0
0.0012239621955628765 -7.310134050616118e-5 0.0
0.0012390808245993366 -5.1632465388717265e-5 0.0
0.0012626568133071447 -6.132728578076344e-5 0.0
0.0012518334280739326 -7.32228948220189e-5 0.0
0.0005863603081206767 -0.00014857366789991557 0.0
0.00046300366735425804 -0.00010894778740187509 0.0
0.0004622207140236992 -0.00010442577065209927 0.0
0.001215665708720858 -8.571764262163344e-5 0.0
0.001242637712537429 -8.604537771710744e-5 0.0
0.0012787599018768516 -7.347991781169384e-5 0.0
0.001208589100951958 -9.916517897771212e-5 0.0
0.0005653147847375162 -0.0001488907818122587 0.0
0.0012698710032397352 -8.657148337828592e-5 0.0
0.0013056029020674233 -7.378807899133334e-5 0.0
0.0005856979300711958 -0.0001542951778954068 0.0
0.0005652234353919766 -0.0001546030216135396 0.0
0.000545028067730171 -0.00014883199594529077 0.0
0.0012968187767856154 -8.729387974226632e-5 0.0
0.0013322498987491864 -7.41312830382262e-5 0.0
0.0005851911575465705 -0.0001603938588783153 0.0
0.0006052046804798883 -0.00015980019239727938 0.0
0.0005453387569092857 -0.00015453311042634867 0.0
0.0005251540954477554 -0.00014843172495718508 0.0
0.001322639000717949 -8.824459083165788e-5 0.0
0.0013588448142693287 -7.455528022380494e-5 0.0
0.001367677340722633 -6.178936845941124e-5 0.0
0.0012869249196393558 -0.00010242272595027108 0.0
0.0013942428857636252 -6.175412604788169e-5 0.0
0.001403452356622657 -5.045547471959165e-5 0.0
0.0004307153167980093 -0.00010202771881282399 0.0
0.00043105293563792577 -9.721082231005924e-5 0.0
0.0004694144749645659 -0.00010030700810362793 0.0
0.000430208276975389 -9.174268158406557e-5 0.0
0.00046775095042994705 -9.390991485787188e-5 0.0
0.0004285875114307539 -8.506548225300518e-5 0.0
0.0004658103743380173 -8.658046309238871e-5 0.0
0.0006046583947076496 -0.00016617769971463383 0.0
0.0006240051789275363 -0.00016528166623732129 0.0
0.0005257612138002695 -0.0001541371158738795 0.0
0.0005055801313483792 -0.00014768748948007542 0.0
0.0013849735223182339 -7.508258791913788e-5 0.0
0.00043059472896588464 -7.737071273142432e-5 0.0
0.00046643607875225963 -7.822118292246935e-5 0.0
0.0006235269758911798 -0.00017191160067846873 0.0
0.0006422337579493899 -0.00017083413513125446 0.0
0.0007537996712318095 -0.00012229742602766583 0.0
0.0014199533234942126 -6.169119540632147e-5 0.0
0.0010172963140245325 -3.8993940188566064e-5 0.0
0.001067729095074199 -2.0908858376371315e-5 0.0
0.0008646972757297733 -8.069513670223906e-5 0.0
0.001153596253729726 -5.3970941508676835e-5 0.0
0.0004269018512523543 -6.715057760368043e-5 0.0
0.00046970882437462184 -6.79011535463642e-5 0.0
0.0005065137164961299 -0.00015342066165610036 0.0
0.0004864354098931719 -0.0001466971335213192 0.0
0.0006420832439431868 -0.00017774242740449729 0.0
0.0006605236537948211 -0.00017646542521249954 0.0
0.0014098417973053977 -7.528723990594881e-5 0.0
0.00039804589573911594 -9.430182310671083e-5 0.0
0.0003991795111838474 -9.912645172752813e-5 0.0
0.0003859765287848529 -7.44615406435074e-5 0.0
0.001444615145904389 -6.134617278192685e-5 0.0
0.00042589591707636393 -5.538413441227039e-5 0.0
0.0004696507212178413 -5.4710553048942976e-5 0.0
0.0006237738369810427 -0.00017890918081187447 0.0
0.00048776371625239864 -0.00015254405746253168 0.0
0.00046761835688624413 -0.00014543398042901335 0.0
0.0011269034780391565 -5.5034920775916385e-5 0.0
0.0011610707155913788 -4.527351526262838e-5 0.0
0.001132976119691904 -4.6761477783708595e-5 0.0
0.001168565750742494 -3.692112802620271e-5 0.0
0.0006601548679114578 -0.00018353902220656575 0.0
0.0006787362975113116 -0.00018189762360119844 0.0
0.0007408167429460394 -0.00011393392139415952 0.0
0.0004243451257643787 -4.1680503651350376e-5 0.0
0.00046749445555947485 -3.918548482805871e-5 0.0
0.0014345522839426116 -7.514116686582219e-5 0.0
0.0014032127585252988 -8.910318663796149e-5 0.0
0.00041273448199473123 -2.3700535305027752e-5 0.0
0.0004634913013706018 -2.0238285609082898e-5 0.0
0.0014682491657444082 -6.0958052354675616e-5 0.0
0.0014741269277792721 -5.167952267782885e-5 0.0
0.00041685185524148254 -5.851883618407948e-6 0.0
0.0005071301431671758 -0.00016000198604862356 0.0
0.000678085007906968 -0.00018935255191442855 0.0
0.0006966222842082822 -0.00018732717943744517 0.0
0.0006976414773462591 -0.00017981949979582545 0.0
0.0007155870676442013 -0.00018502310589025867 0.0
0.000716866882152923 -0.0001774961361681 0.0
0.0007349859682665614 -0.00018245984777849985 0.0
0.0007364606370210316 -0.00017480567474506222 0.0
0.0007549183195681107 -0.0001796129044163386 0.0
0.0007566343539929878 -0.00017187822282749618 0.0
0.0007753101558925094 -0.00017645817368713187 0.0
0.000773703461347755 -0.00018461896795821334 0.0
0.0007940514321914024 -0.00018126925621207926 0.0
0.0007924816903317005 -0.0001897979219172038 0.0
0.000812820454979276 -0.00018625245236581536 0.0
0.0008111712420395067 -0.000195177186920644 0.0
0.0008318100574135949 -0.00019142627294621554 0.0
0.0007773345665244131 -0.00016865405512231105 0.0
0.0008335489162284123 -0.00018237178621521407 0.0
0.0008529042862034719 -0.00018732278690150963 0.0
0.000851065048476983 -0.000196951290597976 0.0
0.0008724143738052473 -0.00019268752557480924 0.0
0.00036556999048511775 -9.075396819274736e-5 0.0
0.0003670212557795468 -9.53686428566942e-5 0.0
0.0004692187028907776 -0.00015129567073673308 0.0
0.000449316716102328 -0.00014394689766688705 0.0
0.0008745723718372433 -0.0001829454333741784 0.0
0.0008939755274364085 -0.00018800939316443172 0.0
0.0008917198707436189 -0.00019823075736017103 0.0
0.0009134741437653909 -0.00019329277321586123 0.0
0.0003339768391887152 -8.660960077371873e-5 0.0
0.0003358581406326392 -9.095323507478931e-5 0.0
0.0011394029547681039 -3.8588561713330076e-5 0.0
0.0011765918681127605 -2.878128976576525e-5 0.0
0.0011466969665816524 -3.063918559260006e-5 0.0
0.0014585606012704848 -7.415104412618547e-5 0.0
0.0014909099798813181 -5.97996010087806e-5 0.0
0.0006959260461543072 -0.00019518970429462128 0.0
0.0005124914149376183 -8.092504456201737e-5 0.0
0.0008908976024717079 -0.0001090659287773095 0.0
0.000911085758647816 -0.00020398234466166622 0.0
0.0009327168944185029 -0.00019879695882851203 0.0
0.0009348766859006762 -0.00018782592274497502 0.0
0.0009543751797460991 -0.0001929767878914349 0.0
0.000945437890692442 -9.144619940705625e-5 0.0
0.0011862492104351091 -2.0373989196064236e-5 0.0
0.0012137001979798518 -2.0437172812767156e-5 0.0
0.0004637858077830832 8.66394318764663e-7 0.0
0.00045095366464098914 -0.00014983427285265557 0.0
0.0004312739445206868 -0.00014221150949128903 0.0
0.0011548376122324116 -2.2534044003252822e-5 0.0
0.0009518971645279136 -0.00020455692980004254 0.0
0.0009738190813674487 -0.00019871082729078546 0.0
0.0009764981519424608 -0.0001867479330369683 0.0
0.0009963634737896894 -0.00019232905581685118 0.0
0.0009997707103587467 -0.0001803012641260103 0.0
0.001019395184344027 -0.00018529635425273391 0.0
0.0010157507425209353 -0.00019789732644249564 0.0
0.0010387863160060589 -0.0001904455222292147 0.0
0.00041524231083656934 1.3097741271351952e-5 0.0
0.00030350527562690913 -8.19413179085069e-5 0.0
0.0003055568956098725 -8.589078700986177e-5 0.0
0.0006780351479599825 -0.0001971699760790971 0.0
0.001479466520914287 -7.392364880432671e-5 0.0
0.0015122514239560164 -5.82917371012726e-5 0.0
0.0010348970576079535 -0.00020358517730848994 0.0
0.0010578827402102377 -0.00019579334898181408 0.0
0.00046584893180080404 2.2687735688909388e-5 0.0
0.00043325209820585574 -0.00014820790035618918 0.0
0.00041339737973550826 -0.0001401934686676177 0.0
0.0005127153706171939 -3.6478960063284906e-5 0.0
0.0013666686058002126 1.5843582765086646e-5 0.0
0.0006953979813208249 -0.0002032900182508674 0.0
0.0004161478961747137 3.1409909284048064e-5 0.0
0.000385237915214678 -4.404731789482955e-5 0.0
0.00149664976742708 -7.643273063145427e-5 0.0
0.0015328139395841592 -5.701429023063515e-5 0.0
0.0015450632968194262 -4.474340512035364e-5 0.0
0.00036778582710028537 4.655602915789017e-6 0.0
0.0014632571658345253 -9.152783768019133e-5 0.0
0.00029918744410065314 -7.719892640417927e-5 0.0
0.00045123387729241015 -0.00015556414260350639 0.0
0.0011953265206021601 -1.2114058517589142e-5 0.0
0.0011634401756392301 -1.4393587695372455e-5 0.0
0.0010237158636434306 -0.0001730437349942701 0.0
0.0004157053412247988 -0.00014648432668100834 0.0
0.0003957472007490017 -0.00013806410610129013 0.0
0.0002740486938176142 -7.672181657680048e-5 0.0
0.0002761672997305723 -8.02083180920195e-5 0.0
0.00048539366421544944 -0.00014138736075453918 0.0
0.0010537882527157435 -0.00020944009862489541 0.0
0.0010768210912193118 -0.0002012009857717804 0.0
0.0003933296617077641 -0.00013210297549114488 0.0
0.00037543355514129854 -0.0001295668183096082 0.0
0.001032600515985632 -0.00021617735054769194 0.0
0.000678241853129853 -0.0002052218987521246 0.0
0.00037835137228457364 -0.00013578144533053828 0.0
0.00035794216886249173 -0.00012690187206504416 0.0
0.0007179351834507748 -0.0001703916697259282 0.0
0.0015665846459800034 -4.237068396157431e-5 0.0
0.001578089971138272 -3.349686268132451e-5 0.0
0.0015542277782033063 -5.482385174704996e-5 0.0
0.001072489694857888 -0.00021520406677972604 0.0
0.0010957384623309276 -0.00020665009022690771 0.0
0.0010035469812025907 -0.0001685747997904766 0.0
0.0010283655797125432 -0.00016110422611264458 0.0
0.0006951981672726763 -0.000211569022108223 0.0
0.0011006990420434422 -0.00019219923195481115 0.0
0.0011201269666799242 -0.0001975977041125408 0.0
0.00024516420601453396 -7.077805255438485e-5 0.0
0.00024863897502394464 -7.423762409229626e-5 0.0
0.0011151990307590835 -0.0002128364700399683 0.0
0.0011394774771409967 -0.0002034397800888184 0.0
0.00036157247342939833 -0.00013344108195380744 0.0
0.00034095440987498316 -0.00012415122087634597 0.0
0.001203879639722058 -4.188652475309192e-6 0.0
0.0011722737545444596 -6.209879197779566e-6 0.0
0.0003370395590026937 -0.0001180592396804748 0.0
0.00031980393485476756 -0.00011483684050484364 0.0
0.0003237507447846149 -0.00012110618410559053 0.0
0.00030250602136410576 -0.00011139326485669718 0.0
0.0015878030133517145 -3.980469427024548e-5 0.0
0.0015749622373634128 -5.326205811017854e-5 0.0
0.000467905310194116 4.3302409387592063e-5 0.0
0.0004152479248298918 4.8965918498433516e-5 0.0
0.001117806120266951 -3.264389657254967e-5 0.0
0.0006785674831518639 -0.00021342210878663845 0.0
0.0011346131401670418 -0.00021941593485431534 0.0
0.0011585114423243053 -0.00020948813723720402 0.0
0.001264522110665525 6.598816732657813e-6 0.0
0.0011258650698224933 -0.00018248979760893366 0.0
0.0007912257702864558 -0.00019866811284980918 0.0
0.0002979082361226978 -0.0001055341035322825 0.0
0.00028092684959148736 -0.00010166660622856314 0.0
0.00028573572007707 -0.00010789699054822957 0.0
0.0002638361490986809 -9.771028250704323e-5 0.0
0.0002589638186609097 -9.20442912212454e-5 0.0
0.00024113069532520309 -8.75502280949267e-5 0.0
0.00023600547076456528 -8.221903238335882e-5 0.0
0.0002176666615755804 -7.719288196043687e-5 0.0
0.00021250495493923936 -7.251665642650188e-5 0.0
0.00019498120388242298 -6.742441442699684e-5 0.0
0.00018944550733169141 -6.32978260940684e-5 0.0
0.000199810511974989 -7.203152860238657e-5 0.0
0.0001748242540500683 -6.0895634585378994e-5 0.0
0.00021824067474237105 -6.466777046271486e-5 0.0
0.00021596767362713537 -6.172708236075315e-5 0.0
0.00018190392918861724 -6.665930113705124e-5 0.0
0.0001588040436201288 -5.6273722595151325e-5 0.0
0.0005181093468837555 3.194931350475969e-5 0.0
0.0005434001267499902 -0.00011605130699664496 0.0
0.0010079196236524113 -0.00015723286346317042 0.0
0.0010331622452785113 -0.00014950524256339943 0.0
0.00033565894349652767 -9.442211581338513e-5 0.0
0.0006951217318364707 -0.00022004441751608965 0.0
0.0007120914254266724 -0.0002180621149416638 0.0
0.0010540424700379674 -0.00015294065714892407 0.0
0.0010594734135225535 -0.00014090589865755064 0.0
0.0016089874882737375 -3.7283791020985186e-5 0.0
0.0015943456706607063 -5.205265699576426e-5 0.0
0.0015609889012779214 -7.149027210242543e-5 0.0
0.0011324771714738328 -1.7370086524244365e-5 0.0
0.0011419597375411567 -9.291167949837566e-6 0.0
0.0006619067244936683 -0.000206872336587726 0.0
0.0006624376934255414 -0.0002149760947958358 0.0
0.0006460769448535229 -0.00020829381505782355 0.0
0.0002696465011643973 -0.00010440150516911969 0.0
0.001180678008866538 1.3931017755258595e-6 0.0
0.001151260330553256 -1.3998040602844864e-6 0.0
0.00049055806615568 -0.00011922538612722485 0.0
0.0011532524318310698 -0.00022592019990999107 0.0
0.0011773291927734924 -0.0002156098745944476 0.0
0.0011834979112463901 -0.00019898697860864115 0.0
0.001202339093649364 -0.00020460273254126004 0.0
0.0004866654345309695 6.482504830036279e-5 0.0
0.0004249695104820195 6.658820014006723e-5 0.0
0.0006422677116960445 -0.00016434591921662186 0.0
0.0011304713204947426 -0.00023538726511276924 0.0
0.001462839101758353 1.165274645657086e-5 0.0
0.0011959292856506454 -0.00022227253194489102 0.0
0.0012213081269443807 -0.0002107665590756304 0.0
0.0012285360739423057 -0.0001924436471741059 0.0
0.0012480624093221934 -0.0001980335895952305 0.0
0.0012563730868750975 -0.00017909782922543723 0.0
0.0012755720894920039 -0.00018416305945302805 0.0
0.0012669614461235585 -0.00020388371015683164 0.0
0.0012938995336229863 -0.00018942160982827574 0.0
0.0001644513481827015 -6.093932756990648e-5 0.0
0.00014161033878006826 -5.0536336943835265e-5 0.0
0.00013313296945154297 -4.537712750848012e-5 0.0
0.00071211493511543 -0.00022687623838473409 0.0
0.000728628070769318 -0.00022515051003210392 0.0
0.0006469510170406705 -0.0002163529985768549 0.0
0.0006306028671834011 -0.0002094559687545816 0.0
0.0015786170599692887 -7.162550010708436e-5 0.0
0.0016124104414308898 -5.1201461353191124e-5 0.0
0.001255352717747882 -7.594076628789142e-6 0.0
0.0012229831680404617 -6.454146931285555e-7 0.0
0.0003605192528928631 4.886170555706834e-5 0.0
0.00037151677150184983 6.308230552424282e-5 0.0
0.00018790883925037452 -7.24867626107686e-5 0.0
0.0006095140170260953 -0.0001423978239563474 0.0
0.0010990069554862065 -4.987555668082845e-5 0.0
0.0015467699681559074 -9.258500823953564e-5 0.0
0.0005033815035661746 -9.405957502277683e-5 0.0
0.0011031950622819404 -2.1303969261214583e-5 0.0
0.0012843023001507343 -0.00020971172120336717 0.0
0.0013103840809824874 -0.00019459444450114946 0.0
0.0013220049006731622 1.6945388364598985e-5 0.0
0.0013833273931793085 1.8354784944664345e-5 0.0
0.0004923316783622889 8.65045576640647e-5 0.0
0.00027778242082503657 -8.342412521997352e-5 0.0
0.00018582415085140674 -5.457559923910948e-5 0.0
0.00018362429872396095 -5.184284266082139e-5 0.0
0.00029059816239337716 -0.00011482768023718116 0.0
0.0012160896166212866 -0.00022950396643062405 0.0
0.0009898990566226567 -0.0001148140974869429 0.0
0.0008900715768105082 -0.00020885382431909784 0.0
0.000585934430799951 -0.00016655373757725966 0.0
0.00014719600654466354 -5.53638591746567e-5 0.0
0.0001247628352821451 -4.4962954968206706e-5 0.0
0.0003818685662875369 -0.00014271241615597342 0.0
0.0010810843996239088 -0.00014390856824278756 0.0
0.0010871758923700315 -0.00013150056908256457 0.0
0.0006625048098970214 -0.00022338698530718277 0.0
0.0013480781789385185 1.7790725706763384e-5 0.0
0.0014015816872283825 1.8064753568745e-5 0.0
0.0013686161123054668 1.650986005048792e-5 0.0
0.0014212025655418168 1.6326448788333267e-5 0.0
0.0014547269876994395 1.7721012431704123e-5 0.0
0.00147457060635651 1.5612897756854827e-5 0.0
0.0014405197062920525 1.3566490574681157e-5 0.0
0.0014927636726945089 1.2686097260699317e-5 0.0
0.0014588416211984347 1.0042365342087812e-5 0.0
0.0015105697481494133 9.30408378959724e-6 0.0
0.0014772489804125066 5.869749981433446e-6 0.0
0.0015272989177386414 5.630847219442264e-6 0.0
0.0014945077113060223 1.3870257983890374e-6 0.0
0.0015433590382926208 1.788292981623809e-6 0.0
0.0014435327669975987 7.176217846382126e-7 0.0
0.0015110211179073904 -3.26430047731393e-6 0.0
0.0015574364335157944 -2.3086107466367757e-6 0.0
0.0015102960522274894 1.6553242868105464e-5 0.0
0.0003721948873095898 -0.00012381412046135268 0.0
0.000365640181177848 -0.00014062524541646844 0.0
0.00038513700642671975 -0.00015004800034884808 0.0
0.0015268594261709217 -7.881933651418645e-6 0.0
0.0015713385742343205 -6.229502734124121e-6 0.0
0.0014835154974479508 -9.472075067612188e-6 0.0
0.0009089803632425733 -0.00021499017375022295 0.0
0.0008883136185781882 -0.00021966880350958836 0.0
0.00090703483094562 -0.00022618195730452986 0.0
0.0008870398747024271 -0.00023072507498220093 0.0
0.0009054175246051357 -0.00023755327195132533 0.0
0.0008862793069946725 -0.00024192698158733938 0.0
0.0008677069405814842 -0.00023505809668561685 0.0
0.0008673329003991154 -0.00024593815638041823 0.0
0.0008491282020436215 -0.00023903337057047032 0.0
0.0009280978496660884 -4.5362517912574444e-5 0.0
0.0009042821079246104 -0.00024907540381391966 0.0
0.0009230381862966976 -0.00024454267808017474 0.0
0.0007918632272441215 -0.00011621479122055198 0.0
0.0007585135340925467 -0.00016449114360092017 0.0
0.0007795869332060739 -0.0001611851806670245 0.0
0.0007606280299038852 -0.00015743098321027734 0.0
0.0007820694094801969 -0.00015405754860955883 0.0
0.000763004658891488 -0.00015070828524450767 0.0
0.0007847967675434736 -0.00014727778110790128 0.0
0.0008040091119819223 -0.00015038465028976392 0.0
0.000807067856211971 -0.00014353176137958798 0.0
0.0008264591644131206 -0.00014640057382607998 0.0
0.0008297983193470713 -0.00013944881280222832 0.0
0.0008484599347844722 -0.00014210057727470746 0.0
0.0008105167399233844 -0.0001368037374979796 0.0
0.0007656574177963477 -0.00014431864257965024 0.0
0.0007438426087394793 -0.00014751739484759755 0.0
0.0008450062644813967 -0.00014960214113614954 0.0
0.0008682941451843398 -0.00014457968540573454 0.0
0.00036969100911969513 -0.00014824948659466442 0.0
0.0008386260336411754 -9.34181070995744e-5 0.0
0.0009020849486697422 -6.952239580941702e-5 0.0
0.0008965698193783336 -0.0001782296840085272 0.0
0.0016210174452701463 -2.8054602119003206e-5 0.0
0.0016420401289500702 -2.514324367710008e-5 0.0
0.0009541603332786779 -6.0374940057706186e-5 0.0
0.0009241806139683068 -7.022941704678198e-5 0.0
0.001236218518733844 -0.00017426443800069478 0.0
0.0010723944266966745 -9.16746122160856e-5 0.0
0.001597087649185329 -7.082989840648677e-5 0.0
0.001630090737225718 -5.0345212962259576e-5 0.0
0.0008961629149596164 -8.643172036849745e-5 0.0
0.0006317274777102021 -0.00021754269591251537 0.0
0.0006153882476626234 -0.0002104650580394118 0.0
0.0009931412110032731 -4.774316726671307e-5 0.0
0.000848765927002679 -0.00024958658876476783 0.0
0.0008305119374121914 -0.00024221188598539534 0.0
0.0006142687965562554 -0.0002025676219702305 0.0
0.0005987572944636342 -0.0002033661001739132 0.0
0.0005975499565500548 -0.00019565714849851263 0.0
0.0005817507538973797 -0.0001962220010953625 0.0
0.000583322135949552 -0.00020409152017028146 0.0
0.0005661796501138756 -0.0001967310143139179 0.0
0.0005679157964210039 -0.00020476897490849695 0.0
0.0005506325029903426 -0.00019720201459211232 0.0
0.00027564333528318425 -0.00011179732135776353 0.0
0.0016531741878013588 -1.8987346646316784e-5 0.0
0.0011876929650348907 7.403104843830273e-6 0.0
0.0011579970557556735 5.173562888677187e-6 0.0
0.0005472407004343968 -0.00013883490085713827 0.0
0.00044974818644094214 -0.00013872650451085097 0.0
0.0015875235954723155 1.4978256561834068e-6 0.0
0.0015625040338850143 8.00187854444856e-6 0.0
0.0007285321086540478 -0.00023410721513788995 0.0
0.0007456251718388835 -0.00023218910808630482 0.0
0.0011484825023412258 -0.00024221107770910826 0.0
0.00025551289793079293 -8.721753199713108e-5 0.0
0.0009847532674565247 -9.161711083266264e-5 0.0
0.0011233995671657197 -4.99599999767347e-6 0.0
0.0011311277164123856 1.5044744403411872e-6 0.0
0.0012657026448274742 -0.00016016929124305036 0.0
0.0013137093548131645 -6.174328929991351e-5 0.0
0.0013211166715460037 -0.00017397569542377086 0.0
0.0013375800919543295 -0.00017815414836993293 0.0
0.0013253971255815452 -0.00019974230300779712 0.0
0.0013525425916933594 -0.0001827151587589174 0.0
0.0007878687370091995 -0.00010718214297273027 0.0
0.00029539481407663335 -0.00012221613006147805 0.0
0.0008508493509759231 -0.00013496526435530912 0.0
0.0014078289062599432 1.003407193140887e-5 0.0
0.00073228201565053 -0.00021658351408486394 0.0
0.00038823270145080214 -0.0001577430719815214 0.0
0.0004036159415642533 -0.00015935464232998397 0.0
0.0011267608331417538 -0.000251165044855752 0.0
0.0005802506232900739 -0.0001887619126291819 0.0
0.0010124656760367773 -0.0001462966633400355 0.0
0.0009875200665891738 -0.000153530892346973 0.0
0.0016146635051879385 -7.084695603693639e-5 0.0
0.001648528139250475 -4.916258097681879e-5 0.0
0.001662917470465993 -3.2879193061290236e-5 0.0
0.0005546147377559267 8.646394886957346e-5 0.0
0.00013034987358135643 -4.963816941490794e-5 0.0
0.00010800157439465123 -3.909127919152703e-5 0.0
0.00010480446680648928 -3.6204035395810795e-5 0.0
0.001219175973239513 -1.872526749306655e-5 0.0
0.0012505867248084376 -2.6623458970518125e-5 0.0
0.0011886876686783754 -9.562102522298748e-6 0.0
0.0012368582166681359 -2.8132246315652582e-6 0.0
0.0015422336517759267 -1.2007195580257346e-5 0.0
0.0015861973228324681 -9.60331133293119e-6 0.0
0.0006167647861690117 -0.00021863265739874787 0.0
0.0012002292705018327 -3.516326097139959e-5 0.0
0.00030588235302163856 4.457084946151462e-5 0.0
0.00031495772005470834 5.4483921938256044e-5 0.0
0.00038854849449013857 7.609790715613252e-5 0.0
0.00032608211355713895 6.16730995694789e-5 0.0
0.00043304756586444356 9.445886062773318e-5 0.0
0.0008292530548961842 -0.00023146402960727322 0.0
0.0005485535046897635 -0.00018939069110418782 0.0
0.0005332875019267187 -0.00018967529517229081 0.0
0.0005353131226392158 -0.0001976585856417537 0.0
0.0005180783602926555 -0.00018993364232808123 0.0
0.001364513080346268 -0.00016136912901207467 0.0
0.001379097955464184 -0.00016566665403083068 0.0
0.001367125267548151 -0.00018795200043054781 0.0
0.0013932465303567445 -0.00017074445693042814 0.0
0.0010650411221557025 -0.00012916623412657582 0.0
0.0010935147376736683 -0.00011964629578634133 0.0
0.0009219680304756912 -0.0002562773536051405 0.0
0.000940325715293194 -0.00025164330384734444 0.0
0.0007465186446093386 -0.00014144656805590758 0.0
0.000724604897103397 -0.00014442179771857657 0.0
0.0007101050068454916 -0.00023600253475077477 0.0
0.0005201515608523744 -0.00019798244177679814 0.0
0.0005031914035553659 -0.00019014928554190894 0.0
0.0015293776432866522 -9.201393507678627e-5 0.0
0.0015155198525357288 -0.00011415729236660818 0.0
0.0014992278407175257 -0.000112933619217246 0.0
0.0014885862965774682 -0.00013383696219928346 0.0
0.0007456140219363676 -0.00024211677923035462 0.0
0.00015091676357340892 -6.0255373220715046e-5 0.0
0.00020852979155055074 -6.881070954204127e-5 0.0
0.00018260945558594402 -5.9155846493940744e-5 0.0
0.00015212926717333964 -4.4158557509404026e-5 0.0
0.00014783894300093525 -4.1129110342594395e-5 0.0
0.00018142362974493093 -4.847470507946876e-5 0.0
0.00014397170556621386 -3.751267365245143e-5 0.0
0.0001788096348454458 -4.410115859572048e-5 0.0
0.00013990443220417815 -3.302213466410261e-5 0.0
0.00017646762733422114 -3.8554449821342694e-5 0.0
0.0015323281051363078 -0.00011546072911114526 0.0
0.000515336144379761 -0.00018225006405095102 0.0
0.0012448224827573643 -0.00015661007856499696 0.0
0.0011085919676381483 -0.00024365832562593917 0.0
0.0011057726429507659 -0.000259530882540104 0.0
0.0010882401781742226 -0.00025216145315759856 0.0
0.0008305960860725169 -0.00025269599574090563 0.0
0.001211947016911802 7.95566875218452e-6 0.0
0.001381567339109343 -0.00019415200992271495 0.0
0.0016824879282351683 -3.0408471950990513e-5 0.0
0.0016668209847754045 -4.727669588527834e-5 0.0
0.0005626500494242971 0.00010802525561969794 0.0
0.001185128538589903 1.0497649181013919e-5 0.0
0.0008769393806238909 -0.00017364745373327402 0.0
0.0008989470650978223 -0.00016882562750280373 0.0
0.0008678480800486171 -0.00025695557200942334 0.0
0.0008127194528099532 -0.00024527470338893897 0.0
0.00040275874590684814 -0.00010445133816953505 0.0
0.0016142684012061886 -4.778221814759371e-6 0.0
0.001628420334992057 -7.299305517744932e-6 0.0
0.001599494941911701 -1.2556781580945427e-5 0.0
0.0016403363673078665 -9.604040701328872e-6 0.0
0.0013123378894030352 -0.00010362751468307977 0.0
0.0009692575531827293 -0.0002109955009972081 0.0
0.000991809744977901 -0.00014325665024269945 0.0
0.0007344812884539729 -0.0001905351146406945 0.0
0.00106221066070603 -7.417423033190982e-5 0.0
0.0011094726604718972 -0.00013412131514772515 0.0
0.0011062987653602328 -0.00017821093090292117 0.0
0.0011323689000158116 -0.0001679691860344485 0.0
0.0012188944256467354 -4.259263528828654e-5 0.0
0.0012547147607626338 -4.7267142132341866e-5 0.0
0.0004063481444832735 -0.00016719638978672714 0.0
0.00042093716888647574 -0.00016837082597042995 0.0
0.00013591900610592368 -2.753370392837699e-5 0.0
0.00017267488323290163 -3.1447805977747296e-5 0.0
0.00021452822449349762 -4.3064457339954955e-5 0.0
0.0002121398507125129 -3.425380837251242e-5 0.0
0.00017003738045975154 -2.3309451622417777e-5 0.0
0.00021149733821160057 -2.408624781576194e-5 0.0
0.00016877383512474607 -1.4323168197712887e-5 0.0
0.00021280227665710074 -1.2784466384929025e-5 0.0
0.00016863192147579563 -4.9911750805188695e-6 0.0
0.00011379166764261378 -4.386099160132948e-5 0.0
0.0009670630827936964 -0.00015001153170343686 0.0
9.18075217682966e-5 -3.3358476352284123e-5 0.0
0.0003736160691968198 -0.00015619478723981076 0.0
0.0016755335051805262 -1.5920577837768696e-5 0.0
0.0007985075444617092 -0.00016513824927620762 0.0
0.0010989679319384547 -1.0021000649942591e-5 0.0
0.001109887004861708 -2.5636295157381154e-6 0.0
0.00021493061756873772 -8.70655940805432e-7 0.0
0.00028128709103436404 -0.00011968614880693412 0.0
0.0002616360195236484 -0.00010898207611425481 0.0
0.000537519562680433 -0.00020741409785500825 0.0
0.0011423053299705846 -0.0002588630874293079 0.0
0.0006327771742762606 -0.00022585438124847452 0.0
0.0014073932824002068 -0.00017644727397545177 0.0
0.0016958852550541307 -1.931022265371674e-5 0.0
0.0007221820744474697 -0.00015048114613615504 0.0
0.0007030478714367155 -0.0001470948441462357 0.0
0.0007008161011514039 -0.0001531481118186694 0.0
0.0006203639069909336 0.00010604770617946138 0.0
0.0006828611005298555 -0.00014945867229773202 0.0
0.0001588391404931208 -4.7565258672020154e-5 0.0
0.0009392944414756198 -0.00026368305851296505 0.0
0.0009575832567245304 -0.00025897737433436664 0.0
0.0009588864695994693 -0.00024659665356363146 0.0
0.0009758876875383002 -0.00025379764204423765 0.0
0.0011526845865807917 -0.00017209597353416147 0.0
0.0011601712121993095 -0.00015673247001817697 0.0
0.0016849989959392116 -1.2057179806806383e-5 0.0
0.0016620492672963945 -1.4956835159500842e-5 0.0
0.0011434012045073996 6.922475996862294e-6 0.0
0.0011196599932908372 2.009770038697568e-6 0.0
0.00035531398292094625 -0.0001465187144806601 0.0
0.0005053855675972901 -0.0001983197464708495 0.0
0.0004887014115506609 -0.00019034179813194507 0.0
0.0008525835264142067 -0.00010880345141518507 0.0
0.0013565194715460295 -0.0002109336026988673 0.0
0.0001707800362085964 3.970685309452349e-6 0.0
0.00048604123538101225 -0.0001821903490273987 0.0
0.0009746004877066513 -0.00026653306744261774 0.0
0.0009925455217648178 -0.00026119726341594234 0.0
0.0009708350400399733 -0.0001405420026580039 0.0
0.0009466342220572658 -0.00014665530982173227 0.0
0.0009502848103806541 -0.0001377871737246151 0.0
0.0009045844250033903 -9.354019476207808e-5 0.0
0.00016084930806243802 -5.26234310022079e-5 0.0
9.74994889678411e-5 -3.8127393023815135e-5 0.0
0.0009777397485737412 -0.00024112442077380334 0.0
0.0010118697298018568 -0.0001165789461223412 0.0
0.0008130660297535956 -0.0002555627865127514 0.0
0.0003663242479985124 -8.590024684229506e-5 0.0
0.0006194539150144841 -0.00012411567784651015 0.0
0.0003002672668706295 -0.0001304980351308213 0.0
0.0014196727655598107 -0.00015342824624884707 0.0
0.0003917189905401028 -0.00012678612084454226 0.0
0.0003692433311337435 -0.00011852631909256587 0.0
0.00039065062522385536 -0.00012183852755085739 0.0
0.00036721440393630377 -0.0001137727838103997 0.0
0.000389398306249208 -0.0001172202706187722 0.0
0.00034537853823994954 -0.00011003708209022624 0.0
0.0010858119178433806 -0.00026751988316157385 0.0
0.0010700088367372757 -0.00026024872497696326 0.0
0.0002457749055128859 3.542317832634653e-5 0.0
0.0008314241596840776 -0.0002628494197660549 0.0
0.0008096707882803676 -0.00020444420749904938 0.0
0.0007901002384633775 -0.00020781247099064973 0.0
0.00042388129362992943 -0.00017648743419672666 0.0
0.00012394871960810057 -3.660844037083598e-5 0.0
0.00013308213928158686 -4.053208633231713e-5 0.0
0.0015543462541766674 -3.6245249471582555e-5 0.0
0.001587922454551386 -2.6794938343904413e-5 0.0
0.0002547253475925084 -4.639873961372895e-5 0.0
0.0004381219164830174 -0.00017723147006673578 0.0
0.00043628569795110047 -0.00016983320721306996 0.0
0.0004410296625785184 -0.00018556162745936186 0.0
0.0004099435394812264 -0.00017552322142723196 0.0
0.0003555666355561113 7.213171355991954e-5 0.0
0.0006452864207427601 -0.00020049616936648098 0.0
0.0009632303462006705 -0.0001601017821440396 0.0
0.00156174653723058 -2.9223425113300496e-5 0.0
0.000921280370224951 -0.00026794111723855475 0.0
0.0006178417161302493 -0.00022701793032410534 0.0
0.0017004315436251925 -2.797926658397774e-5 0.0
0.001684183913477493 -4.575867510186718e-5 0.0
0.0006169060801157436 8.186786693900284e-5 0.0
0.0004914045805727706 -0.00019886749591402876 0.0
0.0010708023180290218 -0.00011747578134305385 0.0
0.0011019304311994504 -0.00010762103522826318 0.0
0.00020457045619619868 -6.54571134279984e-5 0.0
0.0002675177616538895 -0.00011703275601086113 0.0
0.0002482455952976392 -0.00010630994687793286 0.0
0.0002419490526542574 -9.855364455896819e-5 0.0
0.00035953386114690247 -0.00015463241854662014 0.0
7.581993184098227e-5 -2.7677016064468887e-5 0.0
7.144708615371283e-5 -2.4564634548092077e-5 0.0
0.0009912288886856939 -0.0002742959415644861 0.0
0.0010086891389422463 -0.00026878433221527194 0.0
0.0010096366602553673 -0.00025463639704097793 0.0
0.0013916953863918882 -0.00014434434512945816 0.0
0.00137615308685429 -0.00014078819688779733 0.0
0.0013705893612938928 -0.00021828251599331975 0.0
0.0003428849506418255 -0.00010555628594419072 0.0
0.0003213337489312563 -0.0001016628855283692 0.0
0.001124590315155311 -0.00010923295673894715 0.0
0.001668011011425411 -5.2902270708724515e-6 0.0
0.0016787330451893498 -6.9120918242117805e-6 0.0
0.001690382553729961 -9.887750469310424e-6 0.0
0.0016444890305438063 -7.419827802904291e-5 0.0
0.00011936347546283985 -4.981669976811178e-5 0.0
0.001093113621768468 -2.822230043808385e-5 0.0
0.0010666564193869375 -3.245284510232841e-5 0.0
0.0010563561449049897 -3.8739936818460435e-5 0.0
0.0010310497610481351 -4.311596879842014e-5 0.0
0.0010220484812203255 -4.852760302164567e-5 0.0
0.0010393485919392878 -3.8001965261370824e-5 0.0
0.0008794968693078828 -0.00016471340625519678 0.0
0.0007272516743161374 -0.00013872431852785997 0.0
0.0007495423257952186 -0.0001357067542167978 0.0
0.0002541656546088022 -0.00011452100376291965 0.0
0.00023493571628240654 -0.00010345719216145568 0.0
0.0014885180011778639 1.8087352386565753e-5 0.0
0.0015468753686243679 1.666659390988713e-5 0.0
0.0015696202556792272 1.4322503756839499e-5 0.0
0.001606901594890086 1.4126167794687124e-5 0.0
0.0015928732667551872 1.549907456148101e-5 0.0
0.0007962949080275894 -0.00024850241039648356 0.0
0.0007957840709564527 -0.00023871322155383836 0.0
0.0007962510792572622 -0.0002582740926503633 0.0
0.001076797091626097 -1.632467990075341e-5 0.0
0.0010648891568522648 -2.332225685349137e-5 0.0
0.00025804353107456915 -5.514723678257078e-5 0.0
0.0001235893637366529 -6.782392603413973e-7 0.0
0.0010670265473411032 -0.00027499646623187993 0.0
0.00029903275790501687 3.4153196351479993e-5 0.0
0.0010750915368050273 -0.00015653451007409242 0.0
0.0010515341839474365 -4.38089079551248e-5 0.0
0.0010136201432505 -5.3813187027867404e-5 0.0
0.0010375228705943465 -5.097370221280175e-5 0.0
0.0010053637675688587 -5.9262582994937925e-5 0.0
0.0010282620103511657 -5.712795479892753e-5 0.0
0.000997487875448504 -6.507223944595127e-5 0.0
0.0010200441613666524 -6.346074058639251e-5 0.0
0.0009900464696078043 -7.120219867484402e-5 0.0
0.0010133262293572256 -6.991059761096187e-5 0.0
0.00098145862305197 -6.204143444659686e-5 0.0
0.0009674874555912585 -7.270729558984372e-5 0.0
0.0011028321963748873 -0.00027513603216454283 0.0
0.0017132091020216637 -8.498756655411823e-6 0.0
0.0005966395538159779 -0.00018834592031058956 0.0
0.0005786578588336308 -0.00018180835671133502 0.0
0.0015816367002504795 -9.392243660791662e-5 0.0
0.0006858438000312392 -0.00014456580673213287 0.0
0.0009985156753687739 -5.2370409837392486e-5 0.0
0.00046239422762202407 0.00011279251252117838 0.0
0.00011193597515740644 -3.0558226806315924e-5 0.0
0.0006872203472558309 0.00010094259388121632 0.0
0.0006747624796808575 7.348385802074941e-5 0.0
0.0012957387239236424 1.6698997989305225e-5 0.0
0.0015985594867845595 -9.49974189181806e-5 0.0
0.0015676291832750473 -0.00011936933380324596 0.0
0.0006802290853428279 -0.0001554326987671152 0.0
0.0006643551012538507 -0.0001506874165805787 0.0
0.0003139546947222408 -0.00012685649320173654 0.0
8.144231244159423e-5 -3.2328156749539915e-5 0.0
9.565995378662422e-5 -2.851900670106352e-5 0.0
0.00010037233769310045 -3.065680326204832e-5 0.0
5.989806295101816e-5 -2.199136218511142e-5 0.0
0.0011390305037491956 -0.0001535689922403808 0.0
0.001168005850284375 -0.00014199586219047758 0.0
0.0011900769585702648 -0.00014474665991796263 0.0
0.0011982295802650516 -0.00012940682170928388 0.0
0.000960930101642178 -7.832977519141212e-5 0.0
0.0005323444417469558 0.0001322876386629664 0.0
0.0006448376032702043 0.00012785821933504414 0.0
0.0009262484200962394 -0.0001434763241017135 0.0
0.0009302188890929441 -0.00013495229209428317 0.0
0.0007305648340661633 -0.00013358441409343864 0.0
0.000634966024684335 -0.0001361456355707207 0.0
0.0006338241592339339 -0.00023430604328368798 0.0
0.0012590738743674193 -0.00022397711371637265 0.0
0.0012750644480029048 -0.00023024107107329862 0.0
0.0012519324633200504 -0.00024360959503586327 0.0
0.0012668298072515518 -0.0002502547355384747 0.0
0.0012451697898488352 -0.0002629080385875356 0.0
0.00122994311519537 -0.00025588533346454804 0.0
0.001189153088969771 -0.00024280754434825256 0.0
0.001070343845509256 -0.0002446132046306805 0.0
0.001193982149986923 5.347007129782624e-6 0.0
0.0008694308084947312 -0.000213412058327838 0.0
0.0002571918836588745 -2.329386711252819e-5 0.0
0.0016658905872420824 -6.900676656107027e-5 0.0
0.0017003686688758046 -4.392370855430983e-5 0.0
0.0012892981626897216 -0.0002364112358371083 0.0
0.00128138561916404 -0.0002569663974314628 0.0
0.0013030136395264492 -0.00024342216458299792 0.0
0.0006482200718844421 -0.00023307383951919403 0.0
0.0007719350325816597 -0.00020190645422523827 0.0
0.0007714818373364518 -0.00021074296265151228 0.0
0.0007893029280798519 -0.00021718665883896712 0.0
0.0005478212117031371 -0.00016169286374212647 0.0
0.0007533957323889693 -0.00020468260856121233 0.0
0.0009608415070548737 -0.00023461085561782296 0.0
0.0014051867001170274 -0.00012333015426770102 0.0
0.0014334699496797198 -0.00015833436880711505 0.0
0.0014209572889057622 -0.0001830165757688346 0.0
0.0014500722894177113 -0.00013337270988256949 0.0
0.00022034360481362896 -5.584199655539465e-5 0.0
0.0005849932645579627 -0.0002123005259683008 0.0
0.0005699482804326618 -0.00021320206026212446 0.0
0.0005864800446915625 -0.00022074684652176015 0.0
0.0005720779600921369 -0.0002219068958465134 0.0
0.0012206927806222836 -0.00013140405023928268 0.0
0.0003778614054024305 -0.00016454640009569437 0.0
0.0003421359834754114 -0.00014503262841964132 0.0
0.0016503316828385976 -1.1700089503702411e-5 0.0
0.00010133347154986304 -2.258259471402088e-5 0.0
9.784960911076673e-5 -1.803295977089855e-5 0.0
0.001050451452955624 -0.0002656193129814636 0.0
0.0010508031225608025 -0.0002817126050905986 0.0
0.000857134792978772 -0.00016931135998603667 0.0
0.0016300995453877886 1.133799668338038e-5 0.0
0.0003461670796847728 -0.0001530801362025414 0.0
0.001364228893002803 -4.845831328196547e-5 0.0
0.0015107280611551396 -9.163189309085545e-5 0.0
0.0015671165318686452 1.3520245916331252e-6 0.0
0.0015769498375862692 7.339693130495877e-6 0.0
0.0011762450782667054 -0.00012782183752437163 0.0
0.001275841043464247 -0.00014235061189610712 0.0
0.0012966701871124126 -0.0001453993421863421 0.0
0.0012361837650078306 -6.702664572322044e-5 0.0
0.001270637730178189 -6.954368991966398e-5 0.0
0.0012886718199663508 -4.7908662498338696e-5 0.0
0.0009733587141567807 -0.0002792294506907365 0.0
0.0005068366929170814 -0.00020669541944482218 0.0
0.0007396596348718579 -0.0001605911560395589 0.0
0.001042767054265926 -0.00012720986855046151 0.0
0.0009178184569815578 -0.0001728749828093269 0.0
0.0009385403067295147 -0.0002755734166965184 0.0
0.00045452709690633515 -0.00018594984950683565 0.0
0.0005623402974479666 -0.00018184703242175057 0.0
0.0002524910796667544 -7.782312464881832e-5 0.0
0.0016577043428792917 1.0767934318627386e-5 0.0
0.0012161064013046876 -0.0001704587333094979 0.0
0.00017750195826796606 -5.5991425715757974e-5 0.0
0.0005596678948130938 0.00015398316025862915 0.0
0.0009272749958833369 -0.00022135962347264002 0.0
0.0012241545939414523 -0.000274558311772567 0.0
0.0012078788168214253 -0.0002669592437861756 0.0
0.00106264814306991 -0.00018237908577619527 0.0
0.001131684295485742 -9.757440352457485e-5 0.0
0.0005249697699802103 -0.00014328607952124474 0.0
0.0007709780697236795 -0.00022139199851528907 0.0
0.0010383109899484927 -0.0001091502832889838 0.0
0.0005606260759368033 -0.00017510691800070484 0.0
0.0005438866490687971 -0.0001748531783350332 0.0
0.0004573408782873615 -0.00019439878369377308 0.0
0.00029790807816610943 -5.88878516915657e-5 0.0
0.00029696073282224503 -4.921704338033151e-5 0.0
0.00012712918406697 5.384932945544266e-6 0.0
0.00017826323749312725 1.2566220801716456e-5 0.0
0.0013468448509794007 -0.00023433873986524134 0.0
0.00023014988237320038 -7.477719657110971e-5 0.0
0.00032424145078096194 -0.00010620594638913986 0.0
0.0003000565056331229 -9.740674348010793e-5 0.0
0.00143367114063875 -0.000130934403720698 0.0
0.0007145425568702507 -0.0002012247060999351 0.0
0.0009015633330605542 -0.0001593975856080684 0.0
0.0011588482709812813 5.319769460388476e-7 0.0
0.0011621176548708653 -1.8012870969062497e-5 0.0
0.0011358304029693179 -8.566222405376463e-6 0.0
0.001141370546527358 -2.89462363703956e-5 0.0
0.0011678095320016844 -4.0056974276660525e-5 0.0
0.0012462580679437163 4.741859903904103e-6 0.0
0.0012787813986193514 4.6521456645490005e-6 0.0
0.0012893298990352632 1.0607306118877817e-5 0.0
0.0013205171582278525 9.822384305577844e-6 0.0
0.0013102670379529294 3.683793315930657e-6 0.0
8.973763909788495e-5 -2.6004192557383674e-5 0.0
0.0012301256834020664 -0.00011648036494177829 0.0
0.000251232835098548 4.12127806086932e-5 0.0
0.0002843595671516033 5.1546193426382954e-5 0.0
0.0010072933245849982 -0.00028205692532768767 0.0
6.319221645492922e-5 -1.2821065974550343e-5 0.0
0.0013745570435048083 -5.073572262039952e-5 0.0
0.001411339078499866 -4.0410091109443226e-5 0.0
0.001385304008134131 -3.9286331479815564e-5 0.0
0.0014407822636009926 -4.013919592923458e-5 0.0
0.0014485089648950285 -3.0997965300130114e-5 0.0
0.0014785692916157265 -3.1073108409857235e-5 0.0
0.0004130951612115924 -0.00012488033041482333 0.0
0.0004130383946799062 -0.00012051116417317412 0.0
0.0003879929725078278 -0.00011285623700650517 0.0
0.0004126664045870125 -0.0001163188958984394 0.0
0.0004376057503762746 -0.00012350323518286953 0.0
0.0004377820969889825 -0.0001193171998181139 0.0
0.0004621567123192477 -0.00012596933005275588 0.0
0.0004941666923982741 -0.0002071456738858996 0.0
0.0004628063283165626 -0.0001216349765659899 0.0
0.00048680112527010633 -0.00012793497511359646 0.0
0.00012823628625211543 -1.4520429759671938e-5 0.0
0.00029929574470647453 -6.6712819639338e-5 0.0
0.0004851172223063854 -0.00013227348396084422 0.0
0.0003894715727400982 -0.00010950871122100919 0.0
0.001388269409065317 -0.00012079724733067351 0.0
0.0013593776161616971 -0.0001378151129639565 0.0
0.000780155975088622 -0.0002516698445353751 0.0
0.000779816192372262 -0.0002610381319912253 0.0
0.0011156521859340136 -1.5592054703573223e-5 0.0
0.0006195689581798002 5.699831643584387e-5 0.0
0.0006735494052991049 4.605823730879962e-5 0.0
0.0007259186474675944 6.0387613852104106e-5 0.0
0.0007250254578361657 3.074405164309426e-5 0.0
0.0006776798355106746 1.8479827736605878e-5 0.0
0.0007284021064819776 -3.675911075021081e-7 0.0
0.0006843553551931388 -8.75240484428924e-6 0.0
0.0007344763104277743 -2.825880888174642e-5 0.0
0.0006912447259752869 -3.238588191123074e-5 0.0
0.0007469541636979808 -5.0305064092123055e-5 0.0
0.0006961442414733568 -5.06986312906234e-5 0.0
0.0007403659315520047 -6.351331272534685e-5 0.0
0.0006975347825515432 -6.406393194704765e-5 0.0
0.0007383436379599133 -7.354664451691558e-5 0.0
0.000699840946942423 -7.473356820381419e-5 0.0
0.000736691362953444 -8.121134494224465e-5 0.0
0.0006995078933795572 -8.252042267028675e-5 0.0
0.0007327227602102115 -8.681835867156731e-5 0.0
0.0006981399657382003 -8.842786058268241e-5 0.0
0.0007289579392975982 -9.130547225187567e-5 0.0
0.0006958599538192567 -9.324334783125371e-5 0.0
0.0007245846393727895 -9.515634001737441e-5 0.0
0.0006922692215429644 -9.738084580723602e-5 0.0
0.0007201690713876912 -9.862914377135259e-5 0.0
0.0006885173112185848 -0.00010129043794300754 0.0
0.0006600879405026061 -9.907466074488973e-5 0.0
0.000657140655206255 -0.00010326863333083092 0.0
0.0007174969124008562 -0.0001022874031579653 0.0
0.0006652713272673292 -8.342168711680543e-5 0.0
0.000751358615236617 -9.548126348618438e-5 0.0
0.0007646073809436313 -8.894738558749019e-5 0.0
0.0006439105041417253 -1.5490438338111433e-5 0.0
0.0007740089662848977 -7.921974433509116e-5 0.0
0.0006276056364204081 -0.00010026445170809426 0.0
0.0006259155024393966 -0.00010468194226241686 0.0
0.0006542382174496743 -0.00010725736758997122 0.0
0.0006241205520038541 -0.0001088281210288617 0.0
0.0006587673081797008 -6.49720041440784e-5 0.0
0.0007866828757391559 -6.443111320596028e-5 0.0
0.0006297378264313698 -9.53665138565578e-5 0.0
0.000780618692699873 -2.2519505146713876e-5 0.0
0.0006516070394123151 -0.00011114173131841559 0.0
0.0006222246438902961 -0.00011284780041571671 0.0
0.0005943219298248307 -0.00010986628857158473 0.0
0.0005954729767390594 -9.596157839507444e-5 0.0
0.0005953930465990181 -8.968375496535007e-5 0.0
0.0006811925784013837 -0.00010884512261966367 0.0
0.000677444329552411 -0.00011268084747321626 0.0
0.0007056932756336808 -0.00010990707975086698 0.0
0.0007763448895441465 4.082970377614432e-5 0.0
0.0007853300622824123 6.673936665427592e-5 0.0
0.0005939880024962544 -0.00011402299103085447 0.0
0.0005650136635933764 -0.00011040525423249839 0.0
0.0005654672479617514 -0.00010611916723368791 0.0
0.0005341674510397681 -0.00010589422174750895 0.0
0.0009210924431438582 -0.00027916127011851365 0.0
0.0009040324017360919 -0.0002716649301104595 0.0
0.0015836614009162758 -0.0001212152544872902 0.0
0.0009798871386904784 -0.00022871036299798963 0.0
0.0009968792714908363 -0.00023532146039990915 0.0
0.0005931162011884291 -0.00018096251606744134 0.0
0.000611119227305559 -0.0001871996358946617 0.0
0.0014191782666415447 1.7827979541890353e-5 0.0
0.0009960278811330758 -0.00013317472616539426 0.0
0.0006212579178438251 -0.0001167613528328231 0.0
0.0004697558604956812 -0.0001817564303282832 0.0
0.0004686792521406577 -0.0001742409955254321 0.0
0.00048359290639893077 -0.00017465711784059226 0.0
0.0011082520252240393 -9.660569993574757e-5 0.0
0.0010571492156797378 -4.9799856606814495e-5 0.0
0.0006993636866578178 -0.00015950066621455564 0.0
0.0006793291217177376 -0.0001618248188645936 0.0
0.0010423249397002645 -3.0446075028949707e-5 0.0
0.0010313160697207932 -3.6063621993436076e-5 0.0
0.001051442644501336 -3.0358196759061026e-5 0.0
0.0010176047864876173 -4.2112620948001174e-5 0.0
0.0010546077006838058 -2.412108528753279e-5 0.0
0.0010427244756045786 -6.236944153859227e-5 0.0
0.0010367748448046987 -6.900396155142948e-5 0.0
0.0010046974361388517 -7.688272131817201e-5 0.0
0.0007530977847218581 -0.00013038413279165562 0.0
0.0007722585242933268 -0.00013231708512776168 0.0
0.0007761583245161245 -0.0001270013857002253 0.0
0.0007950751556616962 -0.00012858205240756795 0.0
0.0007990683781751099 -0.00012327292540219854 0.0
0.0008180088855968859 -0.00012460594332491535 0.0
0.0008222611938018756 -0.00011920320521503814 0.0
0.0008421639326335173 -0.0001201817493674796 0.0
0.000837383893325903 -0.00012616730898993935 0.0
0.000862490466547216 -0.00012066115265514782 0.0
0.0009553695021424009 -0.00012939129991155793 0.0
0.0009343873609504202 -0.00012702977648303945 0.0
0.0009100747555555073 -0.00013253382796296138 0.0
0.0009139745277332138 -0.0001250961929071908 0.0
0.00020041882628964573 -6.24008671847683e-5 0.0
0.00024148523635638257 -0.00011209760768941655 0.0
0.0002223399585848102 -0.00010072379165087329 0.0
0.0002159847380518407 -9.224437603330398e-5 0.0
0.00020259677648824857 -8.899602888172039e-5 0.0
0.0008596785191079077 -0.00016087796284761048 0.0
0.0011556298742094978 -9.814333398270056e-5 0.0
0.0011459330899194179 -0.00011104212679774995 0.0
0.0005055360229412068 0.00010511281059772434 0.0
0.0009395789245203365 -7.963716281362299e-5 0.0
0.0009449902025137824 -7.510925396957344e-5 0.0
0.001083338896448333 -3.0551164473769313e-5 0.0
0.001678846370153023 -2.0662322491155846e-5 0.0
0.0017083191229608698 -1.2531991176156958e-5 0.0
0.0017280200968613595 -1.0012824816466605e-5 0.0
7.002581593236176e-5 -2.0986708091510084e-5 0.0
7.304849968937599e-5 -2.2115283687054687e-5 0.0
0.00010205204677264067 -3.162330740147446e-5 0.0
7.773193284889746e-5 -2.3834687022430017e-5 0.0
0.00010476209848140791 -3.3072854378609606e-5 0.0
8.09011225703605e-5 -2.5361379382293684e-5 0.0
5.10676969189254e-5 -1.543813357102845e-5 0.0
0.0008374382758857519 -0.0001652584466313748 0.0
0.0004393248296355751 -0.00011553205345397401 0.0
0.0002739057051312602 -0.0001256550837987951 0.0
0.0007011886351528954 -0.00011355970879193393 0.0
0.0015588807461148432 -0.00014380974230382217 0.0
0.0015412382977964148 -0.00014613079438888514 0.0
0.0013070676914883686 -0.00012719712257557993 0.0
0.0013343297104937365 -0.00012725869840016877 0.0
0.0013421310426731902 -0.0001080633301421361 0.0
7.993011342430814e-5 8.244534937239051e-7 0.0
0.0006196907366733514 -0.0002356890276507815 0.0
0.00044452176590316914 -0.00019421513160842416 0.0
6.57094356009949e-5 -2.6657264000282443e-5 0.0
8.879264623610299e-5 -3.9743511850889244e-5 0.0
0.0003636596849378376 -0.00010559376072891965 0.0
0.0011512365924835827 -5.204747512799429e-5 0.0
0.0011820365072009631 -6.381825019849062e-5 0.0
0.0012518296888624127 -0.00013986889063134363 0.0
0.001315851849810885 -0.0001493623634341244 0.0
0.0005883176715896622 -0.00022927276551467586 0.0
0.000648709193639852 -0.0002412337101908374 0.0
0.0006632252806522806 -0.00024024231184251283 0.0
0.0014462820898685797 -0.00016460317350575743 0.0
0.0014336677108635662 -0.00019007366825153524 0.0
0.001408179976923655 -0.0002120339683116461 0.0
0.0015962512710128247 -2.1178076912770826e-5 0.0
0.001569354394660899 -2.2885666500401353e-5 0.0
0.0015347817844779375 -3.0736018177395575e-5 0.0
0.0015394782091767744 -2.3983043012786035e-5 0.0
0.0003145624928483655 -9.694935657096778e-5 0.0
0.0014847340665901498 -2.3111433227750507e-5 0.0
0.0014496997952524935 -2.2848217369510428e-5 0.0
0.001000016252186662 -0.0002232735997622105 0.0
0.00020778949690517583 -9.679576926646494e-5 0.0
0.00019028148124168224 -8.675130716066248e-5 0.0
0.00018356158480985015 -7.858239476114168e-5 0.0
0.00017134610285581686 -7.575014034418788e-5 0.0
0.0017348981481883985 -7.236322091124768e-6 0.0
0.001689144553839717 -7.668161270680295e-6 0.0
0.0017161733430517705 -4.322356306010333e-6 0.0
0.0013600841647528263 -0.00024134106185137505 0.0
0.0007080001074761391 -0.00013614490872503222 0.0
0.001457515686845965 -0.00017176483350155063 0.0
0.0014462247583341503 -0.00019648739609798356 0.0
0.001468762955762326 -0.00017886953356941617 0.0
0.0014597655771855691 -0.00020652622799593242 0.0
0.0014833635892112181 -0.00018456566240346366 0.0
0.00149288486368334 -0.00015952060870012664 0.0
0.001505426602661742 -0.00016680520107349283 0.0
0.000797569119830232 -0.00026752882231179743 0.0
0.0007820061424126672 -0.0002710368142507366 0.0
0.0007616661735899047 -0.0002632727881594699 0.0
0.0005940207610149613 -0.00011823794500626989 0.0
5.897879745311118e-5 -1.824935102663421e-5 0.0
8.348893046741062e-5 -2.6831697271032984e-5 0.0
6.178091607430255e-5 -1.960132683981136e-5 0.0
0.0005760456220548018 -0.00023227023713823984 0.0
0.0005590846049878807 -0.0002235154089113825 0.0
0.0016363346355668662 -9.503563107486154e-5 0.0
0.00013657741353120603 1.1157538590438482e-5 0.0
0.0008901463568759041 -0.0001311389212284707 0.0
0.000895105212273211 -0.00012365574652567726 0.0
0.0015900624435348043 1.1560089321893675e-5 0.0
0.0016495480753203685 8.609937661863578e-6 0.0
0.0014619303060385673 -0.0001131042071629451 0.0
0.00033005766506023944 -0.0001433880564489515 0.0
0.000336156504399963 -0.0001525041195431939 0.0
0.0012151346408186263 -0.00014708812224733478 0.0
0.0013685838913821387 -7.147660548728815e-5 0.0
0.0016823395314117242 -6.636826148425353e-5 0.0
0.0017173283806847701 -4.066834722191322e-5 0.0
0.0017338876007234837 -2.324802488918586e-5 0.0
0.0013046253588502098 -6.983574102300375e-5 0.0
0.0014182833302172218 -0.00010447861448523342 0.0
0.0007634355566383655 -0.00023757068007757758 0.0
0.001470144293538818 -4.001731737528027e-5 0.0
0.0013656730395088688 -0.00012119116296438093 0.0
0.000543560468085122 -0.0001680125606621087 0.0
0.00033700922093120767 -0.0001370170318737994 0.0
0.0016262255812578002 -1.789439946389214e-5 0.0
0.0013696787764364887 -2.9595842495535332e-5 0.0
0.0005591861361146015 -0.0002317152010805263 0.0
0.00028231696629037954 -8.771728786889878e-5 0.0
0.0009295110615033035 -8.600522514889698e-5 0.0
0.0013322456686501506 -0.00023021136348394522 0.0
0.0013258626512175325 -0.0002508615880354301 0.0
4.526751947468718e-5 -1.6760783880912125e-5 0.0
0.001023574873445867 -0.00027788300911782524 0.0
0.001019397369700096 -0.0002887461311359279 0.0
0.0006631177543570647 -0.00025002126197739373 0.0
0.0006785963108088449 -0.0002480017228546672 0.0
0.0006776701246519408 -0.00023903242430457373 0.0
0.0006934909252217003 -0.0002465048169171395 0.0
0.0006792057279045939 -0.00025548811992442543 0.0
0.0006317856964317866 -8.978447527999146e-5 0.0
0.0005958749257191119 -8.290104858015098e-5 0.0
0.0002588224919789697 -6.158008583050205e-5 0.0
0.0006144372322974552 0.0001598020833734968 0.0
0.0005940339325842039 0.00014009706869351704 0.0
0.0011117824750324803 -1.8505621674956017e-6 0.0
0.0012937108296134756 -0.0002641075907726318 0.0
0.001274310960119765 -0.00027665780126119826 0.0
0.00017622458904172729 -8.385651456034845e-5 0.0
0.00015760423892389132 -7.218969427801572e-5 0.0
0.001726278488694303 -4.568398512827701e-6 0.0
0.0003073112341474757 -0.00010290096878687285 0.0
0.00028008605232064367 -9.374100071625454e-5 0.0
0.0016353696371635483 1.022914491148715e-5 0.0
0.0016117511558602431 -9.738901180622646e-5 0.0
0.0015962385135267882 -0.00012648098376763178 0.0
0.0009535800219322691 -8.451247415192139e-5 0.0
0.0010649930733066422 -0.0002890542808851513 0.0
0.0010452609522593763 -0.00029670818793946924 0.0
0.0005076479701725293 -0.00013343149497145745 0.0
0.0005111263519340443 -0.00012912577722827754 0.0
0.000693416079496495 -0.0002375990618950818 0.0
0.0014663704545820869 -0.00013767157445090367 0.0
0.0008465012326133371 -0.00011455606766096546 0.0
0.0008285626162283828 -0.00011372703274115082 0.0
5.3989683846066844e-5 -2.2804564695995995e-5 0.0
0.0006368381653763671 0.0002580598576877183 0.0
0.0007796428968188661 -0.00012182866659548478 0.0
0.000561400025759839 -9.012139448466102e-5 0.0
0.0005636232352312351 -9.633634979350568e-5 0.0
0.0003401842138623206 -7.051580751622922e-5 0.0
0.0010688185702870195 -6.058016909589996e-5 0.0
0.0007276622737654963 -0.00011053199686000623 0.0
0.0007330694667990618 -0.00010690637265880632 0.0
0.000753994910058802 -0.00010719594553395912 0.0
0.0007589384487889227 -0.00010375294094323527 0.0
0.0007791256424633119 -0.00010337910065106812 0.0
0.0007844819187531535 -9.99645376694976e-5 0.0
0.0007639734178171207 -0.00010051471254773058 0.0
0.0007899556382652348 -9.68064693183306e-5 0.0
0.0007694472329689194 -9.760886111728102e-5 0.0
0.0007960466466868342 -9.39372838769683e-5 0.0
0.0008030118794427884 -9.939178857581288e-5 0.0
6.576121138021007e-5 -1.0641542842326996e-5 0.0
0.0010281209784921985 -7.719609909511755e-5 0.0
0.0007151670256500783 -0.0001312406667306008 0.0
0.0007755769996993931 8.284780350202527e-6 0.0
0.0008351046564207833 -2.1254335417321247e-5 0.0
0.0008307176916870228 -4.324479470693026e-5 0.0
0.0008265461233530275 1.4575240997624789e-5 0.0
0.000787180760770964 -4.47964756711813e-5 0.0
0.000833070647681445 -5.684668804932475e-5 0.0
0.0008797328682258698 -5.678585634060443e-5 0.0
0.0008769850227425211 -8.363504773545009e-6 0.0
0.0001289413536020485 -4.096399248780715e-5 0.0
0.00013294133302325575 -4.3299613338019865e-5 0.0
0.0017273626122994072 6.42676177022734e-6 0.0
0.0016605474267455537 1.1590440746825657e-5 0.0
0.001659007841434208 1.0908166124893142e-5 0.0
0.0012409910338930033 -0.0002834165371742294 0.0
0.0012184602237757275 -0.00029301571889643 0.0
0.00046623529343318325 -0.0001670018932795231 0.0
0.0004817258824373461 -0.00016744542133740375 0.0
0.00045039585866872626 -0.00016616705621279245 0.0
0.000527988149455046 -9.122107822480025e-5 0.0
0.0008761054040214589 -4.316763982578181e-5 0.0
0.0008172441916143458 -9.25215346955909e-5 0.0
0.0008220546682475762 -8.98023242089611e-5 0.0
0.0008020602498049655 -9.133280380736608e-5 0.0
0.0008273438413813062 -8.755888766644305e-5 0.0
0.0008091678478488541 -8.88298481411787e-5 0.0
0.00047857644229110124 -0.0001995461451019068 0.0
0.001725392708779317 6.421426180610357e-6 0.0
0.0008386662694204742 4.56944444070068e-5 0.0
0.0010916404887772754 -9.136908729249364e-6 0.0
0.0010869086956489837 -8.029874643858617e-6 0.0
0.001064427569887579 -1.7045142641027886e-5 0.0
0.0005599853211888887 6.473915519984404e-5 0.0
0.0007806832085692042 0.00012107028776638871 0.0
0.0007236960990186335 0.00013003461972916527 0.0
0.0007054128524045135 0.00014445054342130312 0.0
0.0012501984627833224 -0.00011378493760784483 0.0
0.0013840273481744002 -0.000226083511407113 0.0
0.0013731629822018821 -0.0002520667700808491 0.0
0.000459428834870947 -0.00020253821366707174 0.0
0.0007093701947329134 -0.00024513458242951547 0.0
0.0007101952449952939 -0.00025399169640953 0.0
0.0007253526920615328 -0.00025266250415923667 0.0
0.0007282689624911909 -0.0002625195787844339 0.0
0.0012317153716395045 1.0276364641427268e-5 0.0
0.001201677654595676 1.1663245195815915e-5 0.0
0.0012398212444864718 1.4178165467572131e-5 0.0
0.0012733468712908076 1.3742541045655665e-5 0.0
0.0009199996576270829 -0.00011799046845369627 0.0
0.0009036666850558093 -0.00011617398932715698 0.0
0.0007420920538153899 -0.0002596418830280828 0.0
0.0005388324244849887 -0.00011098736912740242 0.0
3.758498921015225e-5 -1.2792916187850357e-5 0.0
0.0007794047603839881 -7.204356375465273e-5 0.0
0.0008117672430237099 -7.69767082801991e-5 0.0
0.0008060985593486684 -8.146291374522463e-5 0.0
0.0008414964538342259 -7.830357480620036e-5 0.0
0.000833729832889872 -8.115416810080651e-5 0.0
0.0008475004135808134 -7.482215821406225e-5 0.0
0.0008043958176243238 -8.43718431664575e-5 0.0
0.0008273204493067395 -8.350062919273926e-5 0.0
0.0008740515902406148 -7.452859601492994e-5 0.0
0.0011682061243890214 8.348791991139106e-6 0.0
0.0008005222979900202 -8.703020964632592e-5 0.0
0.0017513387142739814 2.2520014297644775e-6 0.0
0.0006735202916619391 -0.000116516139157634 0.0
0.0007889098467053 -0.0002269113255107042 0.0
0.0008085472838835289 -0.00022400793673725008 0.0
0.0008197568603384128 -7.142172685863927e-5 0.0
0.0008587151664340305 -7.014099590498014e-5 0.0
0.0009621871254190163 -0.00012137516952277416 0.0
0.0012112250255575643 -0.00024848838027158153 0.0
0.0011897118916301174 -0.0002606144506642935 0.0
0.0011872250259892703 -0.0002778309611812756 0.0
0.0011706306640387003 -0.00027164124170687206 0.0
0.0011696388150123473 -0.00028697907280725716 0.0
0.0011522557719302478 -0.0002815530448759902 0.0
0.0014267057796651672 5.540064624961011e-6 0.0
0.00139555671451795 -8.273890899820155e-7 0.0
0.0014102300272759824 -6.192058309665222e-6 0.0
0.0013645965683801553 -8.937211531066505e-6 0.0
0.001377212147958593 -1.4877957427308716e-5 0.0
0.0013319960343655042 -1.8745828022435632e-5 0.0
0.0013448142805878324 -2.4954886758608033e-5 0.0
0.0013193112414803655 -1.2746644761342442e-5 0.0
0.0012878355796835405 -2.3234461614454094e-5 0.0
0.0013883153379728218 -2.1068598963079776e-5 0.0
0.0012753444755420635 -1.7527690021177627e-5 0.0
0.001355175952830067 -3.15282224555319e-5 0.0
0.0013140572270302952 -3.5950090141264536e-5 0.0
0.0013221341297920647 -4.298130037699407e-5 0.0
0.001306539939159997 -7.606159864828866e-6 0.0
0.0013790655328343622 4.178871717226129e-6 0.0
0.0013984626095323016 -2.7969783429333623e-5 0.0
0.0014596664998139705 -5.256612404156796e-6 0.0
0.0014284249276450408 -1.8226160699730966e-5 0.0
0.001008481228360551 -4.313165822116446e-5 0.0
0.0007426237496763923 0.00011519820970005425 0.0
0.00011144784573493955 -3.629778838206598e-5 0.0
0.00010347379150190117 -4.430885945197047e-5 0.0
0.00012390285277950351 -5.61550266186995e-5 0.0
0.0007409715963431179 -0.00025079650650591004 0.0
0.0009852026544575055 -0.0001242725527552555 0.0
0.0010068360449638314 -4.796234455367022e-5 0.0
0.0009751877698554462 -5.6839474662338164e-5 0.0
0.0009867686863711165 -5.258653052050766e-5 0.0
0.0009692338414494259 -6.0108389171787774e-5 0.0
0.0009903936811871134 -5.6886284022826346e-5 0.0
0.0009609338984440389 -6.42775909079286e-5 0.0
0.0009527798685700248 -6.859387087977317e-5 0.0
0.0009351032713184608 -7.052381047166991e-5 0.0
0.00013431065077677487 -5.468544947915098e-5 0.0
0.0011136683683307677 -1.3272471607118081e-5 0.0
0.001318314703390194 1.609941979213385e-5 0.0
0.0012681889001888182 1.4761821711377831e-5 0.0
7.493328494244843e-5 5.460593377820482e-6 0.0
0.00016280409110870593 1.9683227566100734e-5 0.0
0.0001428707220020759 1.6251784782053752e-5 0.0
0.0011180876506052908 -2.6360164078502587e-5 0.0
0.00017049549194344833 -6.75745149179228e-5 0.0
0.00019550501571627895 -8.064541631078044e-5 0.0
0.00021051703842198325 -8.521725593526425e-5 0.0
0.00020815333719714324 -7.978970650516254e-5 0.0
0.0002235616190700913 -8.330239111118066e-5 0.0
0.00075696831716149 -9.242521051024272e-5 0.0
7.844707409540444e-5 -3.3773691536101884e-6 0.0
0.0003671369042385653 -9.944877891167693e-5 0.0
0.0003056420339791438 -8.887726730335527e-5 0.0
0.0008651010238038987 -6.424700267904244e-5 0.0
0.0003026847745752141 9.025287381479316e-5 0.0
0.001163214038760823 -0.0002501475822174094 0.0
0.0010764516785342106 -2.5927602006214943e-5 0.0
0.001651664218283269 -9.35061599962441e-5 0.0
0.0013020203702737488 -2.924065734366674e-5 0.0
0.0012582616956048206 -3.430908353480203e-5 0.0
0.0012032441380646268 -0.0002855726917480268 0.0
0.001755704238306752 1.189505325929817e-6 0.0
0.001713568278922201 1.1896648057249701e-6 0.0
0.001722235191527871 -4.606128815562131e-7 0.0
0.001706345967280195 3.024192986521576e-6 0.0
0.0016748598205363287 -3.2816912328987426e-7 0.0
0.0017009697163776038 4.762732243480121e-6 0.0
0.0016529497936708846 5.259929752285544e-6 0.0
0.001662836135611643 2.5152824945754777e-6 0.0
2.549494686336453e-5 -7.476857121816891e-6 0.0
0.0017715980461997858 -1.6596007179523036e-6 0.0
0.0017415856804811438 -3.877775791453008e-6 0.0
0.0017599911438089541 -1.6192151298180223e-6 0.0
0.0017439094180368546 -4.189129264581663e-6 0.0
0.0010870168506217429 -9.237884976738331e-6 0.0
0.001261238678441088 -0.00026902977040598776 0.0
2.0565966854335472e-5 -6.2905063805427686e-6 0.0
0.0017780772212259432 -2.2507747254225875e-6 0.0
0.0006246409040292325 3.216536167066077e-5 0.0
0.0013885542106032074 1.368910273787566e-5 0.0
0.0005145517621104946 -5.353570978880076e-5 0.0
0.0005593496861897451 -5.2280544827169614e-5 0.0
0.0005580331838086113 -3.446674598772286e-5 0.0
0.0005587682765611916 -6.544313883593128e-5 0.0
0.0005972752933891475 -6.551702598867839e-5 0.0
0.0006087295254904175 -5.359045715664764e-5 0.0
0.0006054943602873451 -3.4640940270064236e-5 0.0
0.0005594798652683808 -1.5001099407446912e-5 0.0
0.0005190290382359764 8.33806344663721e-6 0.0
0.000520183191873073 -6.93064390416903e-5 0.0
0.001426050832901944 -0.00021339299385529309 0.0
0.0017505305880441606 3.831745628022786e-6 0.0
0.0006945476036946986 -0.00022884581233890164 0.0
0.0002629305442724636 -0.00012519387138783895 0.0
0.000758855992650897 -0.00022821871392946554 0.0
0.0006029977581764469 -0.00022819300444906266 0.0
0.0006037283865312728 -0.00023682292884911774 0.0
0.0008484237130108057 -8.537281669333738e-5 0.0
0.001109534822561344 -4.06534838278739e-5 0.0
0.0015179254809171382 9.096301516311385e-6 0.0
0.0015350764887317172 1.4809488363048636e-5 0.0
0.0014799729015397016 1.7081619191923254e-5 0.0
0.00012846183581424902 -3.999643789899878e-5 0.0
0.0002472990119758989 -0.0001207348818451763 0.0
0.0007234379311870814 0.00019615255912096304 0.0
0.000652781057571065 0.00019299508363399278 0.0
0.0013663704011241163 -7.742828030065215e-5 0.0
0.0007400241393190595 8.764313165596007e-5 0.0
0.0015637028471587673 -9.302690410856589e-5 0.0
0.0007534039166474854 -0.0001961260073903973 0.0
0.0013134332863394148 -0.00011210505189710276 0.0
0.0013313323096117357 -8.650895428416622e-5 0.0
0.0005726537785758073 1.8742216806264637e-5 0.0
0.0004473358346405828 -0.0002028219607801907 0.0
0.0015467593096887217 -0.00012108650095259608 0.0
0.000286878193200367 -0.00012792161345837936 0.0
0.0003024271593371402 -0.00013698597714122064 0.0
0.0002945427836146618 -0.00013825195177874971 0.0
0.00043325689452311175 -0.00010683617966201898 0.0
0.000970540150903909 -6.779744289669908e-5 0.0
0.0010865150083497219 -3.6599182799762225e-5 0.0
0.0006852949932042088 -0.00010502691929802667 0.0
0.0007103320516565313 -0.0001062423834050368 0.0
0.0017196763669627393 4.154283442786762e-6 0.0
0.001636386144119408 1.627957524269675e-6 0.0
9.8023051983059e-5 8.511828125116636e-6 0.0
2.559486507859194e-5 -7.605771947727679e-6 0.0
0.0008095904860233619 -9.587629600151097e-5 0.0
2.9444763631624756e-5 -8.133241500355297e-6 0.0
6.957086322643281e-5 -1.8737248252095357e-5 0.0
0.0007505573456724484 -0.00022026550305938333 0.0
0.0012196239676207103 -0.00010928201457266019 0.0
0.0008033995955679178 0.00010477530479557169 0.0
0.0010321598093545928 -0.00011786106332652035 0.0
0.0008374849175204138 -8.467735171589227e-5 0.0
0.0013766944545660826 -8.967532027253676e-5 0.0
0.0016306953183212569 -7.140165562370465e-5 0.0
0.0005253776424019224 -0.00016773848181579913 0.0
0.000526990719536242 -0.00017470599951747916 0.0
0.0005082498617503555 -0.00016664849733769583 0.0
0.0004888050630362148 -0.00015873016508590243 0.0
2.10354199704464e-5 -6.600117371866071e-6 0.0
3.824869262519712e-5 -1.2499351254746672e-5 0.0
4.2942040879581414e-5 -1.364096510591881e-5 0.0
0.0004622733758245053 -0.00013041634703796779 0.0
0.0004395020000864317 -0.00012870767381965484 0.0
0.0017735840315736763 -1.7524701358393526e-6 0.0
0.0009045228478711701 -0.0002825965175974226 0.0
0.0008871883346262668 -0.00027486087636539755 0.0
0.000887907744579008 -0.00028557870185458485 0.0
0.0008698985604650608 -0.000277697566502008 0.0
0.0008522248444441311 -0.0002800246111768345 0.0
0.000850323665904481 -0.00027011186392599684 0.0
0.0008865126927715191 -0.00026428222049345717 0.0
0.001291121539455421 -9.331998533665217e-5 0.0
0.00021712866285264902 -4.997658861353047e-5 0.0
0.00025648101184461814 -6.615720291262439e-5 0.0
0.00022490362899644744 -6.1028211712444856e-5 0.0
0.001060317198857116 -0.00011046476599395361 0.0
0.00048491528892902143 0.00013677125053333864 0.0
0.0008556264458789378 -0.00012760322885468567 0.0
3.248061518917417e-5 -9.387275691059158e-6 0.0
0.0005446700262647762 -0.00022341205097411928 0.0
0.0005290383567321478 -0.00022207839017068966 0.0
0.000532160987614151 -0.00021519311872952905 0.0
0.0006016138341483899 -0.0002196612514375898 0.0
0.0005261264028430933 -0.0001604249707652814 0.0
0.000253683110882641 -8.076689485999919e-5 0.0
0.0001565128138122214 -5.26239136923376e-5 0.0
0.0017622878570513537 -3.8629419236413387e-7 0.0
0.0017311574968431414 -1.592533261543717e-6 0.0
0.00036399789102035344 -0.0001630975856984174 0.0
0.0004275526377552751 -0.00018479829416540898 0.0
0.000413682986868393 -0.00018412711081111505 0.0
0.00039590353223196046 -0.00017434452014075772 0.0
0.00039899118162693784 -0.0001825650049862037 0.0
0.0011540911122250586 -8.441158166693119e-5 0.0
0.0008546824078800678 7.067080377727596e-5 0.0
0.0010836738554149102 -0.0002825115338532681 0.0
0.0011000670053294022 -0.0002903988175724424 0.0
0.001118428421993616 -0.0002835289303127147 0.0
0.0010795633750629253 -0.0002984983156090931 0.0
0.0005629235511493239 -0.0001695012427405013 0.0
0.0009474823349983455 -0.0002163586200713493 0.0
0.0007794424615423705 9.94134840724779e-5 0.0
0.0007680695823267909 -8.500587292461371e-5 0.0
0.0017792253870497299 -2.884452931061536e-6 0.0
0.0017591684625873477 -7.938647504193483e-6 0.0
0.0017508053364525189 -6.945625242293292e-6 0.0
0.0003817796374092876 -0.00017297915376910885 0.0
0.0003681721970453022 -0.00017125519102349874 0.0
0.0005538274724708477 -8.112985275154065e-5 0.0
0.00047124537619369226 -0.00015843301528382616 0.0
0.0016283369445309623 -3.538221743374977e-5 0.0
0.0014095928645749165 -4.8920480253293763e-5 0.0
0.0007958330606288594 -0.00010320030785576633 0.0
0.0008194505124603794 -9.87781176861063e-5 0.0
0.0011234557124422469 -3.701209988687423e-5 0.0
0.0012407779531927788 -0.00021762748990476175 0.0
0.0007340548676437677 -0.00019879870166039548 0.0
0.0007343594402247143 -0.00020747351413571654 0.0
0.00019545711844705003 2.303521971251782e-5 0.0
0.0004360388906953319 -0.0001559784983466242 0.0
0.0004181779803522664 -0.000153555228353282 0.0
0.0003983990272493153 -0.00014468920524187822 0.0
0.00040084346031481465 -0.00015177467587338883 0.0
0.00033992153962607085 -6.18354684577073e-5 0.0
0.0003394128540431777 -5.0931579794771205e-5 0.0
0.0003835862406874111 -8.218415860375217e-5 0.0
0.001097063357919013 -0.00030513589266071444 0.0
0.0010503851038739602 -0.00022314830377097398 0.0
0.0010281967439409124 -0.0002306661516645183 0.0
0.0010494233649431157 -0.00023975004907146597 0.0
0.001027663078288298 -0.0002469992407035494 0.0
0.001042518092462167 -0.00025378925746141306 0.0
0.0010703036807130435 -0.00022953764792774545 0.0
0.0010895696165785318 -0.00023490353778914564 0.0
1.7569542448282213e-5 -5.840173668745742e-6 0.0
0.0017827014565740453 -4.535350182697594e-6 0.0
0.0013964463417832124 -0.00020139005542815482 0.0
0.0009895683780270028 -0.00028651161335136734 0.0
0.0016448991394657382 4.780257894366625e-6 0.0
0.0009563806411922289 -0.00027129824216714035 0.0
0.0009549583709430188 -0.0002831093284746001 0.0
0.0012720951812588107 -0.00012022743379437024 0.0
0.0011378835297229035 -8.652389706213025e-5 0.0
0.0011154225819300315 -8.571859671047013e-5 0.0
0.0005528874682817573 -0.00020570897840514372 0.0
0.000344928460486834 -0.00013087624130500008 0.0
0.001279465090491563 -4.877150429005286e-5 0.0
0.001337505533627117 -0.00020876302344174322 0.0
0.0006080291449351468 -0.00014784510541660878 0.0
0.0006285873243571752 -0.00014670656116075635 0.0
0.0006261786824283618 -0.00015251677290713782 0.0
0.0006317382138431776 -0.00014129932458056287 0.0
0.000605954957350859 -0.00015365765498488693 0.0
0.0006483899880570551 -0.0001459019455546653 0.0
0.0006528136029824102 -0.00014074303040988468 0.0
0.0006604758015405235 -0.00013515931754445824 0.0
0.0013200226873293166 -2.7145939444333813e-5 0.0
0.0001769719558043423 2.2081907438382534e-5 0.0
0.0012447040110820974 -2.8643570761003307e-5 0.0
0.0013457429067836276 -9.223291667311229e-5 0.0
0.0003642406878245412 9.265360664186387e-5 0.0
0.00025520099315058637 -3.5718734807023685e-5 0.0
0.0003821884677670076 -6.422639739497837e-5 0.0
0.0003068736157998533 -0.00011808351942288001 0.0
0.0006113840137627943 -0.0001372606826354921 0.0
0.0004882811172138192 -0.00012342880448571874 0.0
0.0005195001292517971 -0.00012527859682667165 0.0
0.0005372964956472083 -0.00013080685358404312 0.0
0.0008136240057224247 -0.00026532115770568386 0.0
0.0008326839243528641 -0.0002724560510781164 0.0
0.000833413064644507 -0.0002830902389755612 0.0
0.0008497983774203242 -0.00026011953991252333 0.0
0.001312030608295404 -0.00022198356903184422 0.0
0.0006486417624076364 -0.00011496374963864878 0.0
0.0012341996014611286 -9.999286088702528e-5 0.0
0.0006001571963343129 -0.0002113556861635236 0.0
0.0008860870970943622 -0.00025317774357806413 0.0
0.0006324947818658765 -0.00024323701511770729 0.0
0.0016141682395526763 8.205125057166229e-6 0.0
0.0008334631934688788 -0.00013239524157258675 0.0
0.00022731552414583854 -7.154172790472883e-5 0.0
0.0006423366874448311 -0.00018481082072786443 0.0
0.000660196327380743 -0.00019103761808308812 0.0
0.0006052417622567062 -0.00017262643214840563 0.0
0.000647390685673406 -0.00022466775732610478 0.0
0.00098332237877083 -0.00016422480085256667 0.0
0.0009595592015857258 -0.00017071196382389029 0.0
0.0009795053661090167 -0.00017528646797379337 0.0
0.0012328036849111488 -2.328144875096252e-5 0.0
0.0007539141146172985 -0.0001876987530026003 0.0
0.0005664947652891861 -0.00016066542814708186 0.0
0.000982574299531452 -7.747541861417506e-5 0.0
0.000973623952326672 -8.439318325174379e-5 0.0
0.00024685425371575003 -9.359965289803567e-5 0.0
0.000476070036089365 -0.00019131135014676122 0.0
0.0011217809886427317 -0.00026724421464756223 0.0
0.0010145598417329743 -4.407880431178272e-5 0.0
0.0008706452739296677 -0.00020285609386050933 0.0
0.0008497367765265149 -0.0002070037075603659 0.0
0.0008488650002571374 -0.00021752318520166548 0.0
0.0008290635333371583 -0.00021076377914666306 0.0
0.0008287343516475139 -0.00022116969802122216 0.0
0.0008684451207944144 -0.0002241533712061685 0.0
0.0010880140719345273 -1.7753551630150603e-5 0.0
0.0006988054216127844 -0.00016607808210454103 0.0
0.0006798816903280563 -0.00016828230450578724 0.0
0.0009430415999461467 -0.00015645583183746965 0.0
0.0005858366711595068 -0.00017284340829280473 0.0
0.000938255955069211 -0.00028690387074155804 0.0
0.000715041138588302 -0.00019297860521290655 0.0
0.000830233201428748 -0.0002008907000145981 0.0
0.0011846800469732966 -0.0002944260998233413 0.0
0.0007689917490635579 -0.0001381111996897624 0.0
0.001665129478763347 -1.237011216006371e-5 0.0
0.0008352652964376477 -0.0001736243144479012 0.0
0.0004117229522082556 -0.00012934532857551578 0.0
0.0008966920110887628 3.363562057742891e-5 0.0
0.0011712082301883837 -0.00023299033491038356 0.0
0.0015905289473975336 1.2301028031272829e-5 0.0
0.00026035539691422456 -9.404153720724584e-6 0.0
0.00026965342616034276 4.3136364412036505e-6 0.0
0.0003043255879319975 -2.103674298469438e-5 0.0
0.00032088988700555265 -5.3760416323902765e-6 0.0
0.00035550954435768176 -2.0664262994615296e-5 0.0
0.00121575230957582 -4.0109413716219735e-5 0.0
0.0006953083863130216 -0.0002563974639744648 0.0
0.0007913404916901413 -0.0001344822261969815 0.0
5.8746678473934766e-5 -1.667735424818867e-5 0.0
0.0007429119746424108 0.0001540754180535682 0.0
0.0006807100947635331 0.00015769303769895638 0.0
0.0011779523615764857 1.0636837134069597e-5 0.0
0.0006781833714159273 -0.00022185198616333682 0.0
0.0007649838228459947 -0.00025473862794780764 0.0
0.0006987364014933827 -0.00011762860488797802 0.0
0.0009229615316600078 -0.00015290090785733255 0.0
0.0009011751266477072 -0.00014910443592632325 0.0
0.0009068459320749145 -0.00014006997771319262 0.0
0.0010623547630721156 -1.947646442528908e-5 0.0
0.000644035015518384 -0.0001925702513630191 0.0
0.00046419071966940335 -0.00011753896856948224 0.0
0.0006614817316636944 -0.00015658730961204352 0.0
0.00010776477917970874 -3.6018956475608175e-5 0.0
0.0009135792205731834 -8.554467302510958e-5 0.0
0.00039191601097330014 -0.00016585458830855874 0.0
0.0008821585973888494 -0.00015597490908182655 0.0
0.0005561039094484236 -0.0002144196560032842 0.0
0.0011886207668493553 -8.596897972014467e-5 0.0
0.0008009476589149916 -0.00015758421368489432 0.0
0.0008090451874763901 -0.00021416389728086432 0.0
0.001520542642452068 -7.284662143051512e-5 0.0
0.00035189215868869703 -0.00016158614694598128 0.0
0.0016688873554619758 -9.295348250054599e-5 0.0
0.0006861552713764426 -0.00013649076769772455 0.0
0.0007959408167979985 -0.00017305710809016007 0.0
0.00017181947736382935 -5.2883687653361054e-5 0.0
0.0015298200344908573 -3.819222656373143e-5 0.0
0.0009248880501021933 -0.00023290770324820297 0.0
6.046713047541169e-5 -1.760246576809378e-5 0.0
0.0008708627267417202 -0.00010936606616058712 0.0
0.0008669238683885474 -0.00011460329249446272 0.0
0.0016538987891486217 -3.3593031090551307e-6 0.0
0.0009228594643290968 -0.00029089495561197365 0.0
0.0003283607695074779 -0.0001282285782932816 0.0
0.0017155188733022004 -1.6606297959395377e-5 0.0
0.0008860755556331851 -0.0001377898918782222 0.0
0.000822524618396203 -0.00015377268955897464 0.0
0.001012054586091445 -0.00021104438122340863 0.0
0.0009917158264330706 -0.00020483336122001746 0.0
0.0009298761857709598 -0.0002099545854505018 0.0
0.0007878889239634946 -0.00014076706408205458 0.0
0.0009617046570924704 -0.00030279965283721194 0.0
0.001032985324411203 -0.0003091054278607451 0.0
0.0007395703759406981 -0.0002725796502780928 0.0
0.0007924975022939814 -0.0002808260261749716 0.0
0.0011427891024049313 -0.0003094905248839308 0.0
0.0011346077378080177 -0.00029329723807767106 0.0
0.0006053873709199318 -0.0002454290429079942 0.0
0.0004925602612424132 -0.0002183692996379206 0.0
0.0009975104046555596 -0.0003064124050941779 0.0
0.0006396395893297467 -0.00025379716500136077 0.0
0.0007281478097280866 -0.00012627121778648813 0.0
0.0014947565719533157 -1.525581047868723e-5 0.0
0.0011809685054911246 -0.00016078783414433205 0.0
0.0011714694871198161 -0.00017736610174568965 0.0
0.000624628509726658 -0.00015899056631122813 0.0
0.0010171775943990011 -0.00013611052514558917 0.0
0.0008113496171973525 -0.00023387978443628057 0.0
0.0004525687150968736 -0.00017787744049509705 0.0
0.0003497435010060224 -0.00011531715118318344 0.0
0.0007205087929441635 -0.00015681111068968612 0.0
0.001529518773969654 1.4091559412727504e-5 0.0
0.0006515716077116465 -5.0729622444981566e-5 0.0
0.0008141563972429821 -0.0001304762826205596 0.0
0.0009398969744838869 -0.00016691082171177597 0.0
0.00013885332737997343 -6.128610935738359e-5 0.0
0.00014371199997095606 -6.86753676709787e-5 0.0
0.0007137869055907921 -0.00020966919260391475 0.0
0.0006130642377121354 -0.0001950300819290538 0.0
0.0008550596795090733 -0.00017814877628708668 0.0
0.0016484406740290526 9.225934496392351e-6 0.0
0.0009039728525428863 -0.00026047906143871174 0.0
0.0017524254845752946 -1.9051826612953384e-5 0.0
0.001731126890351753 -3.968342203935203e-5 0.0
0.0005071088332771298 -0.00010602776270916693 0.0
0.0007380718067865344 -0.00016755784586970648 0.0
0.0007726423396456998 -0.00019307134187198548 0.0
0.0016931436777033624 7.539915595434603e-6 0.0
0.0009222934650824958 -5.341003934169125e-5 0.0
0.0011113544092516729 -0.00022773573695207585 0.0
0.0011454753719003646 -0.00018770244291673537 0.0
0.00048455039011671534 -0.0002089549435684769 0.0
0.0010488284495451246 -0.0001651657221389414 0.0
0.0007414958561946533 -0.0001538925087747462 0.0
0.001101941441684924 -0.0001471896252377696 0.0
0.0010949959348333918 -0.00016058797435954513 0.0
0.0011300706323782565 -0.00013711943706384014 0.0
0.00041503753380700255 -0.00019221421664892676 0.0
0.0013578642012646298 9.075285877804253e-6 0.0
0.0009712194181972442 -0.0002921681522277061 0.0
0.0013928033231718569 -0.00023611531622678606 0.0
0.0012621724144118275 -0.00010102543584630045 0.0
0.0008349953291412157 -0.00010854784144966711 0.0
0.0010286899496543033 -0.00026311637715592377 0.0
0.0006611704670198616 -0.0001988771789136379 0.0
0.0007009648168450707 -0.00014106173991014454 0.0
0.0016304728178873323 4.006464066437239e-7 0.0
0.00039614485879871006 -0.00010706570002527983 0.0
0.0012249922802311528 -4.617677748041034e-5 0.0
0.0008465079169393952 -9.00349582036049e-5 0.0
0.0010381494482820967 -0.00013835620926839354 0.0
0.0015536133893210412 -1.631836879151413e-5 0.0
0.0001549006217761941 -4.920879362188576e-5 0.0
0.0012092736436210166 -0.00018733265758117467 0.0
0.0009977593178937699 -4.738740475668247e-5 0.0
0.000982964817410566 -5.2526262663063654e-5 0.0
0.0009937714976088643 -0.00024805856513067165 0.0
0.000915504991729061 -0.0001829588485574268 0.0
0.0009418933163077329 -0.00023968443071693428 0.0
0.0012352096357051649 -0.0002367849413385833 0.0
0.0012688777601452738 -2.8929223053296527e-6 0.0
0.000921788365449282 -5.890724520586559e-5 0.0
0.0011920693451952405 -3.076141939407825e-5 0.0
0.0014798088308569106 -0.00011298978461377163 0.0
0.0014910116632650939 -9.3095768175188e-5 0.0
0.0008705205475656597 -7.881110358064677e-5 0.0
0.000564127825768481 -0.00018903610700223656 0.0
0.0012181696141178521 -8.630256260617176e-5 0.0
0.0009081335389259195 -6.688468293117448e-5 0.0
0.001043175940102571 -0.0001776886914969579 0.0
0.0017168452196862785 -2.6114186903764273e-5 0.0
0.0003140034527859625 -0.00013269236731017407 0.0
0.0010328001883174365 -8.295788260096447e-5 0.0
0.0008906645394495733 -7.340120113569593e-5 0.0
0.0008755103568603457 -7.718972333340277e-5 0.0
0.00030548487058369993 -3.731636806983691e-5 0.0
0.0015585966235701573 -3.524851723850222e-6 0.0
0.0009013104358746774 -8.268658689899757e-5 0.0
0.0015419267148389514 -7.163936868557901e-5 0.0
0.0005458998289841436 -0.00018181575136946816 0.0
0.0012875034681008465 -0.00028587155959100254 0.0
0.0013232529292247304 -0.00028064966749754617 0.0
0.0005007591477601105 -0.00018235137380556132 0.0
0.0010815753651548683 -0.0001873469010520408 0.0
0.0007222361773022993 -0.00026957486262377034 0.0
0.0010765563887150827 -4.9921086033102224e-5 0.0
0.00033950953615602403 -0.0001642013767561079 0.0
0.0009449398806767855 -6.32473828536801e-5 0.0
0.0009280540029737296 -9.106570186216678e-5 0.0
0.0009486160555465821 -6.382701697333395e-5 0.0
0.0009568420886883129 -0.00018185783520284076 0.0
0.0011646179655248495 -0.00019342316682521266 0.0
5.058884236179013e-5 -2.4541343828566195e-5 0.0
8.718971018943845e-5 -4.3922614682599665e-5 0.0
0.00010424569612992545 -5.292340251252005e-5 0.0
0.0015981001042082638 -0.00014843562193161971 0.0
0.00013907094575648307 -7.140560837742423e-5 0.0
0.0005117560238048768 -0.00017420966806421277 0.0
0.00022628066728248739 1.0539877160534805e-5 0.0
0.0014090143394645072 -0.0002507596518020551 0.0
0.0002930573222518786 -0.00014425548131054693 0.0
0.0003246318684402061 -0.0001580343893467274 0.0
0.0015774125734071777 -0.00016168626414529531 0.0
0.0015373127595905275 -0.00018987632522395902 0.0
0.0009100739449401498 -0.00010962517422879298 0.0
0.0006624802790411672 -0.0002319974547932695 0.0
0.001260871760208122 -1.1804890568010417e-5 0.0
0.0014457404344450702 -0.00023549358376974625 0.0
0.00146351755054791 -0.00022873774303673085 0.0
0.00026218054382818 -0.00013126624799854287 0.0
0.00018778305739711474 -9.527698958724083e-5 0.0
0.0015009325154950477 -0.0002102289344966488 0.0
0.001517618661486135 -0.0001753495798104669 0.0
0.00100571417472481 -0.00029536879439334083 0.0
0.00021995299505826466 -0.00011129659016141476 0.0
0.0012299165936807352 -0.0003029481611370107 0.0
0.0003510330293158089 -0.00013885810343355843 0.0
0.0014059100236496658 -0.00014849329635332171 0.0
0.0005106252030225307 -0.00021610436325004607 0.0
0.0012995124906376968 -0.00021531165644853717 0.0
0.001350519855388547 -3.5340623789546547e-6 0.0
0.0005050723944950006 -0.00014255301819352656 0.0
0.0003541808267391388 -0.0001209768105415915 0.0
0.0006297215132453586 -0.00020175949640379652 0.0
0.0008145861003982844 -0.00017765313742894572 0.0
0.0014295398749770095 -5.038109047550255e-5 0.0
0.0008684553038850056 -0.00026741013045169604 0.0
0.000919948880930737 -8.112344397065763e-5 0.0
0.0009626595912306525 -5.760854788511533e-5 0.0
0.0011163408172907092 -0.0001214778057883188 0.0
0.0013041722625849194 -0.000169381421645245 0.0
0.0005101479782171938 -1.6806786523641658e-5 0.0
0.001133072637230063 1.6176556166291038e-6 0.0
0.000545585042906268 -0.00014371709300570293 0.0
0.0014333523519448198 -0.00010729553418111646 0.0
0.00035798947441374095 3.4680042027565306e-5 0.0
0.0002986587039784809 1.945758359103483e-5 0.0
0.0007806413571350524 -9.233457402677331e-5 0.0
0.0015138985916659773 -2.3723365246012407e-5 0.0
0.0009301197214530455 -3.259709722167337e-5 0.0
0.000885934161615057 -9.439303471215478e-5 0.0
0.0016118610885859383 -2.410104568526725e-5 0.0
0.00046694951647380934 -0.0001402066676659271 0.0
0.0005733595695879915 -0.00012056709547929634 0.0
0.001206204685016938 -0.00011486672489201589 0.0
0.0013485876870729442 -0.0001577633332155342 0.0
0.0004112451110778156 -0.00013457168000059682 0.0
0.00025564983604587846 -0.00010144379799229541 0.0
0.0012854141935963145 -0.00016461763157016456 0.0
0.0005958075210455117 -0.00010571534053008681 0.0
0.0012873012213886256 -6.193121896752471e-5 0.0
0.001760397821713702 -1.0253937356640129e-5 0.0
0.001420542114887408 -1.2040700087778636e-5 0.0
0.0010051950060235206 -4.3481034494173074e-5 0.0
0.001023166646090067 -3.7006121686851796e-5 0.0
0.0010440853452055405 -0.00010005139525510896 0.0
0.0015742955928367652 4.969495351665108e-6 0.0
0.0015429537302048327 1.1263854315816255e-5 0.0
8.69182836833542e-5 -2.9936419357318832e-5 0.0
6.629659399929133e-5 -2.1866364126638733e-5 0.0
0.0006779488945188522 -0.00023041378811019988 0.0
0.0010683323380845952 -0.00016943056293965353 0.0
0.0006438720948091768 -0.00012266617343742597 0.0
0.0006465095987957881 -0.00011880840361955171 0.0
0.0006630845300002763 -9.468602807119628e-5 0.0
0.0008488696396566964 -0.00022824872631469671 0.0
0.0010053972676075003 -9.151653246807043e-5 0.0
0.00029668116382015305 -7.201618779936804e-5 0.0
0.0011863114869520234 -5.204849216571375e-5 0.0
0.0010318944366643804 -3.207184842185602e-5 0.0
0.0007189177773853643 -0.00016345469950414265 0.0
2.999697133120157e-5 -6.751331095244041e-6 0.0
0.000816667081081028 -0.00016930784298856017 0.0
0.001599460030023049 -3.1014565738323686e-5 0.0
0.0013404842282403872 -6.220967474927486e-5 0.0
0.0012726109729390993 -4.052466571929812e-5 0.0
0.0015230180463031218 -4.714486668557621e-5 0.0
0.0010924410129379203 -6.516650477006599e-5 0.0
0.0006644671984090511 -7.599144404123218e-5 0.0
0.00022385883828874442 -6.841591404025665e-5 0.0
0.000764446297121079 -0.00011064442249092204 0.0
0.0009280579455386013 -0.00011086604530892994 0.0
0.00027638240615379905 -9.617179599357766e-5 0.0
0.0007752414829600631 -0.000278178688385218 0.0
0.0010588400245505627 -6.857056585540115e-5 0.0
0.0005302433715282547 -0.0001819162454421441 0.0
0.0012551360982775617 -9.264535774106296e-5 0.0
0.0014547232649596512 -5.0298238127069494e-5 0.0
0.0005956943877349075 -0.00010106068174727021 0.0
0.0012905699301496941 -1.5406385551040378e-5 0.0
0.0009656545142615637 -9.130961663063233e-5 0.0
0.0008191099970763596 -0.00016132648162692494 0.0
0.00033286623132072177 -8.17774005635602e-5 0.0
0.0005946789374571002 -0.00012489805998221602 0.0
0.0008704979271260563 2.046754027536178e-5 0.0
0.00023812069744628427 2.256266126385963e-5 0.0
0.0012523468111205341 -0.00011750786370515629 0.0
0.00036522979015309645 -0.00010945179384338238 0.0
0.0008408441326007625 -0.00015738970554857333 0.0
0.001434587550363029 1.8648829545620704e-5 0.0
0.001183529991031145 -0.0001133949236767194 0.0
0.0006374225908906082 7.63591092200326e-6 0.0
0.00011825755742301685 -3.380202768534227e-5 0.0
0.00046476261740593434 -0.00011342746815994985 0.0
3.67973235838614e-5 -1.3421891001063764e-6 0.0
7.921891474327594e-5 -8.317212883939782e-6 0.0
0.0011799686641955933 -0.00010085504331580329 0.0
0.0010425126665399552 -3.4876979547769364e-5 0.0
0.0005718855958706199 -0.00024012034202898188 0.0
0.0004184621373654754 -0.000161030943270545 0.0
0.0014179229628182 -3.1442519721759764e-5 0.0
0.00022616747522974815 -0.00010884790957994531 0.0
0.001136355953395083 -0.00012425366268581115 0.0
0.0009438250865961852 -0.0002280073727064259 0.0
0.0014119889348269473 1.3662014145577832e-5 0.0
0.0005205824499818473 -0.0002063456578163408 0.0
0.0015171928496567491 -0.0001403019045351343 0.0
0.000890644041591089 -9.034690522729828e-5 0.0
0.0003131816219885768 -0.0001469055026316558 0.0
0.0011553256432518242 -0.00029694767347290336 0.0
0.0003145206178119315 -0.00010900426970130646 0.0
0.0016459637894560705 -3.377760368141331e-5 0.0
0.00023246435694142468 -7.805916709781577e-5 0.0
0.0012115372544966958 3.187061149164116e-6 0.0
0.0010983809545555873 -5.7286478642381365e-5 0.0
0.0009785185199781567 -5.26493398241637e-5 0.0
3.9279983616943376e-5 3.611390851902647e-7 0.0
0.0008051253489343143 8.226543464161686e-5 0.0
0.0005022689091816034 -0.00010038477676248014 0.0
0.0013378725153260092 -0.00025756842997671787 0.0
0.001357120589410115 -0.00027271364310790705 0.0
0.00013326656130942306 -2.1410845580854136e-5 0.0
0.0009929629518284583 -8.428861164161736e-5 0.0
0.00043428676021290156 -0.00016268234462182087 0.0
0.0006988722212351349 -0.00017288955968176964 0.0
5.566226570837087e-5 -1.91181175014545e-5 0.0
0.00010493836453729093 -2.6504180361109585e-5 0.0
0.0009414458446836552 -0.00011941923317206305 0.0
0.0008628941857884356 -0.00015284530330054343 0.0
6.698669119237464e-5 -1.618975648775576e-5 0.0
0.00019286372914125487 -5.837398068767424e-5 0.0
0.00015549596353749053 -7.953781469480104e-5 0.0
0.0014191644095993482 -0.0001270954590313658 0.0
0.0010875724219102673 -0.00017386851234177177 0.0
0.00023369947257766418 -9.111295504271682e-5 0.0
0.001332202494800279 5.225520103841655e-7 0.0
0.0012273145650421526 -1.1258190911947915e-5 0.0
0.00011167613914177714 -5.2585764880086974e-5 0.0
0.0007476647272414416 -0.00010050301162170213 0.0
1.47640213530243e-5 -5.517883093900695e-6 0.0
0.0017820343828574643 -9.81924156285692e-6 0.0
0.0017156629421356017 -7.0270812675405255e-6 0.0
0.000525424359942593 -0.00022850745597447213 0.0
0.0013359570614100234 1.4132512928956663e-5 0.0
0.0010912561910574612 -0.00022073351138822563 0.0
0.0002546449861725654 -8.38614287968077e-5 0.0
0.00105008564174436 -0.000309713296770767 0.0
0.0002689074292656129 -7.239654808451566e-5 0.0
0.0015068375898274712 -3.133501252044079e-5 0.0
0.0006791774345734552 -0.0001748469358567836 0.0
8.210450377248306e-5 -2.7138538276678174e-5 0.0
0.0008619209092277945 -7.769612500653427e-5 0.0
0.0008545675045314283 -7.97731615014615e-5 0.0
0.0015986609439719163 1.4432851524506102e-5 0.0
0.0009373706201045885 -0.0001771500622992421 0.0
0.00012249673931812518 -7.545584441412396e-6 0.0
0.0014951559858974316 -0.0001929378585203751 0.0
0.0016118238863827342 -1.507499370514215e-5 0.0
0.0012244350479951557 1.2575042200185338e-5 0.0
0.0012521572608489176 1.1095335648247304e-5 0.0
0.000726480087152285 -0.0002434474022252797 0.0
0.0017206706406344644 -6.061586494216633e-5 0.0
0.0007746997714939766 -9.502581204943279e-5 0.0
0.00022347790908114635 3.201226213277786e-5 0.0
0.00022968594036411853 -9.628347315466128e-5 0.0
0.0005669264942332253 4.3644062703793795e-5 0.0
0.00150427970541614 -0.00013599904336362395 0.0
8.79245464455907e-5 4.490318213489321e-6 0.0
0.0009238820105018698 -7.751162250672086e-5 0.0
0.0013493350666139337 -5.013656696568603e-5 0.0
0.00106504979099711 -0.00010184993742030414 0.0
0.0017464234549303143 -4.666415446584138e-6 0.0
5.043583462654628e-5 -1.5035645104337127e-5 0.0
0.001619696952874535 3.982706022651878e-6 0.0
0.001753803005507171 -5.169911732080617e-6 0.0
0.000814900010471554 -0.00027414873732947324 0.0
0.0009685256483377136 -0.0001133317003148339 0.0
0.0006844863818129046 0.00011834812365437936 0.0
0.00043118629369074654 -0.00013663024153003376 0.0
0.0005680428952065964 -0.00011516849323016777 0.0
0.000739154482095826 -0.0001038165013879601 0.0
0.0003610225827074281 1.928323890806879e-5 0.0
0.0006281402155258775 -0.00019368328555552621 0.0
0.0003368876627327291 -7.641857355369308e-5 0.0
0.0002332848497015097 3.6888418867469e-5 0.0
0.0008046668331347458 -0.0001181939685147326 0.0
0.0011901413151578111 -0.00018242235754655327 0.0
0.001447540161561 -0.00011079726753875951 0.0
0.0006310657040934767 -7.611482280719893e-5 0.0
0.0004383245194879246 8.356272731048308e-5 0.0
0.0010480007950438661 -2.356742039143208e-5 0.0
0.0005349980466318731 -0.0001012599635559895 0.0
0.0013689411496249342 -0.00010552019014596745 0.0
0.0005752578704054838 0.0001247587796945565 0.0
0.000522843144104621 0.00011882593331499796 0.0
0.000920645301416194 -0.00016284755034809306 0.0
0.001087400212869964 -5.036153980693373e-5 0.0
0.0006696931726852908 -0.00026013371810407616 0.0
0.0012664622186332707 -0.0002949432796904889 0.0
0.00048460599542654966 -0.0001366565342577275 0.0
0.0011786585581071074 -0.0003098292951014568 0.0
0.00040169803964406443 -9.054657845940093e-5 0.0
0.0013959100358228746 -0.0001046084545557965 0.0
0.0006603853801344096 -0.00016986208407373247 0.0
0.0014996378882231802 -4.9498562823557893e-5 0.0
0.00043274829930388604 -0.00013212616244150083 0.0
0.0008335048246491525 6.522300214332948e-5 0.0
0.0006652954251095475 -8.948951094376987e-5 0.0
0.0007541896126136232 -0.00021280435425796414 0.0
0.0008316596711855373 -9.964712243512559e-5 0.0
0.000847862723368468 -8.17266245060775e-5 0.0
0.0004925603550146269 -0.00016610359502537735 0.0
0.0004975485300530073 -0.00017438158824812977 0.0
0.00033756806622719577 -0.00010110073199122164 0.0
0.0005863344517815867 0.00019421918443098156 0.0
0.0007800284428007918 -0.00024275024004950097 0.0
0.0015216274879266691 1.7625229347286833e-5 0.0
0.001331905725237946 -0.00015377527726754533 0.0
0.001034550338926435 -3.222479353802788e-5 0.0
0.00046533830470043343 -0.00013536635173300702 0.0
0.0011624395890451476 -8.570441497181789e-5 0.0
0.0009640846314830179 -0.0002227057544886591 0.0
0.0006606083787369234 -0.00016298663042766786 0.0
0.0016315405279474283 -2.2026399574868976e-5 0.0
0.0017307098910024897 -1.5264179533487528e-5 0.0
0.0006205512043980396 -0.00012041525719770628 0.0
0.0011144680877086786 -0.0002983928850276086 0.0
0.0015374828844893214 -0.00016932631282570775 0.0
8.819866630802668e-5 -2.475898072772991e-5 0.0
0.00043871823827657636 -0.00011154337131891278 0.0
0.000505498171831746 -0.00013786987334407554 0.0
0.0015726012495618509 -0.00014685823982807532 0.0
0.0006260863168600124 -0.00018554853920858897 0.0
0.0011929199845568683 -8.664143302131801e-5 0.0
0.00019453179089125566 -9.367295122946791e-5 0.0
0.0009715341575988472 -0.0001330411714896437 0.0
0.0014473239552312733 -8.947972457547619e-5 0.0
0.00111291761632368 -0.00016450592395853426 0.0
0.0016627844552383093 -2.2144769331366018e-5 0.0
0.001136233942795801 -0.00027597592085748014 0.0
2.9313183469611694e-5 -5.3159075386945105e-6 0.0
0.0007710871184392769 -0.00011881868791229398 0.0
3.9841534537996345e-5 -1.2240519667879627e-5 0.0
0.0005984772433504504 -6.503310995063417e-7 0.0
0.00038732889418506853 -5.525549400911182e-5 0.0
3.261165146868684e-5 -1.2489806504248766e-5 0.0
0.0004624448706083297 -0.00020986482977926123 0.0
0.0004320086684286393 -0.0001927668338140249 0.0
0.0007876940530158879 -8.993963219859733e-5 0.0
0.000829469565570305 -6.542346266087822e-5 0.0
0.00032892327741920394 -0.0001539154794625084 0.0
0.0005650567846109843 -0.000101502332831038 0.0
0.0010087787958300565 -8.549458876406783e-5 0.0
0.00033106509771795104 -0.00011196444529024603 0.0
0.00120789697251961 -6.036737296801775e-5 0.0
0.0009861185879954687 -0.00021687259732952106 0.0
0.0002456231853134384 -6.862031536558842e-5 0.0
0.0001533443069628239 -6.542484888728532e-5 0.0
0.0009107269084895944 -7.626151010197836e-5 0.0
7.32777577615842e-5 -3.3230799286371774e-5 0.0
0.0016931831578441497 -2.3655598778533784e-6 0.0
0.0006491426912222203 -3.4191790321584196e-5 0.0
0.0008130099541560432 -0.00011243809083483629 0.0
0.0014794888845647738 -0.0001550994421280961 0.0
0.0016397336732261482 -0.00011904952619521509 0.0
0.001357958963360095 -3.909365638449367e-5 0.0
0.0007773870440026744 -0.00023279362878189175 0.0
0.0010095204086498445 -0.00012393631814755572 0.0
0.0014375818053091744 -0.00022016949100163273 0.0
0.0008513809960483267 -0.00028894531422055705 0.0
0.0014272951294292096 -8.889577332199637e-5 0.0
0.001119998862357321 -0.0001508622932935342 0.0
0.0006077266713749611 -0.0001791966772546465 0.0
0.001135290264531914 -6.147838711628702e-5 0.0
0.0006408091844853106 -0.00015738011307566685 0.0
0.0005453377258252066 -0.00021617549301598918 0.0
0.0008103773153488214 -0.0001033121447071664 0.0
0.00130837436723141 -0.0002666175861027305 0.0
0.00033448584540163735 -9.726177292963524e-5 0.0
0.00028104261907570217 -0.00013414319857443953 0.0
0.0012506839554194372 1.511430075800298e-5 0.0
0.0004150208594899601 -0.00011306317585194162 0.0
0.0010944572485134126 -2.0690930710600575e-5 0.0
0.0007171081564698769 0.0002823549805562396 0.0
0.0013965414058291444 -1.2407677585496966e-5 0.0
0.0014978501924643609 -4.0556794655404457e-5 0.0
0.0009016637687226909 -7.0623720866872e-5 0.0
0.0013212862631279568 -5.101126159232922e-5 0.0
0.0010113079082016373 -0.0002407880777473664 0.0
0.0010830220230043258 -0.0003118958480841803 0.0
0.0005269701905986584 -0.0001384412541153878 0.0
0.0006402676760283475 0.00014030214309363213 0.0
0.00036421135226302444 -0.00010231026288753683 0.0
0.0004014174986765971 -0.00018913620849019542 0.0
0.0007543000028903547 -0.00012621396485094975 0.0
5.0286429867825234e-5 -1.485378013262158e-5 0.0
0.00031822176934165585 -0.00014231881640517158 0.0
0.0008638928462289878 -8.191394524684858e-5 0.0
0.00012161297147785327 -4.2145155569362673e-5 0.0
0.00010002140594482141 -1.4497267151971657e-5 0.0
0.0008803481979903534 -0.00014905774951552036 0.0
0.0009287843003588819 -7.408379285220005e-5 0.0
0.001614503766826256 -0.0001197306841701266 0.0
0.0007483504420316678 -9.828687827424847e-5 0.0
0.0011996078059518538 -0.0001656123070734389 0.0
0.000961376864154114 -5.955378268061882e-5 0.0
0.00024885684620141015 3.1618754318918425e-5 0.0
0.00032184680548265983 8.921947033128535e-6 0.0
0.001696713836969878 -1.2794374192203397e-5 0.0
0.0011648747229019353 -7.645899249776386e-5 0.0
0.0002776483165945701 -8.935042486608786e-5 0.0
0.0010482165602913541 -5.6207560420930724e-5 0.0
0.0008755385300535643 -7.172756046576012e-5 0.0
0.0009048218893757751 -8.991262329238572e-5 0.0
0.00038854548724269526 9.203635253574979e-5 0.0
0.0008888644408972158 -0.0002955695978544452 0.0
0.001597860032285323 -1.997224958819198e-6 0.0
0.0008729442208562724 -0.00012935627031453796 0.0
0.0009257222377247751 -6.885124751965331e-5 0.0
0.001103003554062486 -8.20475544804983e-5 0.0
0.0008182550282792984 -8.621718767155952e-5 0.0
0.0008797354016544301 -0.00012182293187865452 0.0
0.0004527835645341783 -0.00017231016189763967 0.0
0.0011475624794168682 -0.00014026279672128418 0.0
0.0007220499704873767 -0.0001165801751120826 0.0
0.0009142438487099744 -7.3796247083037e-5 0.0
0.0013718009372597805 -0.00026909365192398873 0.0
0.0007724911040281109 -0.00010667842449659736 0.0
0.0010652775823056268 -4.397480986521849e-5 0.0
0.0009710025069789019 -5.648430855572434e-5 0.0
0.0001607043833952195 -7.790520594612541e-5 0.0
0.0013414162845515648 -0.00013787277385092706 0.0
0.00094488259798105 -6.628839722013574e-5 0.0
0.0005196847892006513 -0.00021397941658666124 0.0
0.0011058252240579956 -4.420802523217629e-5 0.0
0.0012141408416686068 -0.0003080353140309322 0.0
0.0017353803349675582 7.853480962797361e-6 0.0
0.00012218891800558509 3.911661914314059e-5 0.0
0.0007361429951785295 -0.00012956946062476783 0.0
0.0009529918137802718 -0.00029294758189364297 0.0
0.000616663755796919 -0.0002417888236303531 0.0
0.0006901783120045473 -0.00026422059192720665 0.0
0.00015302687088364694 -4.76115610528246e-5 0.0
0.001225363478878059 -0.0001559886336361465 0.0
0.0005307048641395802 -0.00013397354859396373 0.0
0.0007471736730412619 -0.00011040699004825333 0.0
0.000630635280084004 -8.331327541803813e-5 0.0
0.0007121475943338642 -0.00026167949230502483 0.0
0.0012796214152263699 -3.257500819630441e-5 0.0
0.001633502329689638 6.087482190347607e-6 0.0
0.0010102866608022586 -0.00022985454307342207 0.0
0.0008674946199334297 -0.0001374426713692735 0.0
0.0005761918338492647 -0.0001760614028018949 0.0
0.0009256740394531752 -0.0003013520548677014 0.0
0.0012897251730426204 -0.0001240299585012801 0.0
0.00013807972530273263 -4.6195773685351293e-5 0.0
0.0015707691291126232 -1.8316759386131345e-5 0.0
0.0007481159612818669 -0.00026765034147520963 0.0
0.0007642789548277087 -0.0002461804992962173 0.0
0.0011558922621862447 -0.0002664211091861396 0.0
0.0017618304317563007 -1.8908918996054758e-5 0.0
0.0006478372709378885 -0.0002487234250353227 0.0
0.0005954595048453712 -7.517042575172595e-5 0.0
0.0005994281014038427 -0.0001216055281863128 0.0
0.0010914954285493445 -9.374018444190041e-5 0.0
0.0017050976758803806 -3.7544309614996884e-6 0.0
0.0001659192215226482 -6.938146400852521e-5 0.0
0.000885517337634867 -0.00011532859463398191 0.0
0.0015256326465325112 -0.0001486600577226371 0.0
0.0016976509002643153 6.089991703938596e-6 0.0
0.0005161380452319028 -0.00011159513558930941 0.0
0.0007647940151403743 -0.00027092866206611193 0.0
0.001640130001861094 -1.7673083283676872e-5 0.0
0.000327341440159957 -0.00013691827202209295 0.0
0.0017362089426114493 -2.262685555966646e-6 0.0
0.0005578375809558703 -0.00023833766987394037 0.0
0.001155908476468019 -0.0001262638922802264 0.0
0.0003448071031883348 -3.35223026757331e-5 0.0
0.0010880491899166907 -4.129028759832344e-5 0.0
0.001698902466787084 -6.144771065774933e-5 0.0
0.0013195435942316238 -0.00011115676449730417 0.0
0.0004981891968501068 -0.00021481528791545947 0.0
0.0003711158412605174 -0.00017801340896245776 0.0
0.0004524517115594902 -0.000161175777768195 0.0
0.001407013346574346 -0.0002346791947040891 0.0
0.0012947095899382148 -5.277237320395094e-5 0.0
0.0002990581502530143 -9.46075033638227e-5 0.0
0.0007022387743115718 -0.00012864064127235042 0.0
0.0010852623096477066 -0.00010545856752869123 0.0
0.0006749895213170525 -0.0001405343034621851 0.0
0.0016610075814721594 1.1348558238667144e-5 0.0
0.0011829587319918177 -4.531454974597869e-5 0.0
0.000722056974218476 -0.00011372941536308817 0.0
0.0003058497409065471 -9.185303590794189e-5 0.0
0.0012422908702729636 -0.0001311483783293569 0.0
0.0010345221089967265 -0.00028725592896460027 0.0
0.001477368553225186 -0.00020608329532882249 0.0
0.0005919032149304695 -0.00023704451181920448 0.0
0.0011449972937224498 5.125787486947654e-6 0.0
0.0006437969881139082 -0.00015113546093154588 0.0
0.0009881096929192329 -0.0002969333148041857 0.0
0.001466197627980116 -0.00015257292232524408 0.0
0.0012964588350200521 -3.143110955494534e-6 0.0
0.0016592837035608735 6.722774156230005e-6 0.0
0.00045675186448390474 9.69560906922561e-5 0.0
0.00160444272918139 6.277658187754481e-6 0.0
0.0005699586494093973 -0.00016610384301997606 0.0
0.001468800025346177 1.8191822693354273e-5 0.0
0.001064183016365295 -2.699865739833071e-5 0.0
0.0011984592420741544 -2.8763079998298712e-5 0.0
0.0005468666426166069 -0.0001286406060296163 0.0
0.0012052704646276515 -5.4980276633793515e-5 0.0
0.0007996150930429213 -0.00027495493366169694 0.0
0.00047009774597324384 -0.0002016937113295628 0.0
0.00094477123487705 -7.249480447782764e-5 0.0
0.0012928679594863938 1.3718976182533779e-5 0.0
0.0007521515743231849 -0.0002562951522682269 0.0
3.75272864364272e-5 -1.1299156645490194e-5 0.0
0.0017153138146251082 -6.455192377893698e-6 0.0
0.0014615512950363987 -1.582480004613346e-5 0.0
0.0007972084735531798 -5.720655741707186e-5 0.0
0.0017425729867671348 -1.4478757407701328e-5 0.0
0.0005165593317385582 5.1356221854465145e-5 0.0
0.0008855078984801084 -6.726986945907162e-5 0.0
0.0017797004630644919 -1.5318353611085483e-5 0.0
1.473068901171408e-5 -6.383059355726791e-6 0.0
5.460605062849193e-5 -1.8000343214249766e-5 0.0
0.0005347241826121419 -9.671985554194564e-5 0.0
0.0010235846540906414 -0.0001269366824831813 0.0
0.001213187050435342 1.3289125405216418e-5 0.0
0.0013109474930758061 -0.0002503272020559398 0.0
0.0017213336267613258 -8.42234296947589e-6 0.0
0.00015220583573856335 -5.211017260002163e-5 0.0
0.0003839718869602034 -3.274501385649049e-5 0.0
0.0010388380159717665 -0.0002746359549530169 0.0
0.0015182180518666804 -1.787192387097308e-5 0.0
0.0004652253877307279 -0.00016200365599103496 0.0
0.00010202795018814944 7.6064271957504706e-6 0.0
0.001068715398882264 -5.5732331714063994e-5 0.0
0.0005644554115568749 -7.521975239317543e-5 0.0
0.0013251657889830739 -5.022749495026124e-5 0.0
0.0008477045302864388 -8.417669377582001e-5 0.0
0.0006681326603311889 -0.00014529660919944677 0.0
0.0015478108600368704 1.658606506736223e-5 0.0
0.0015530293261418907 -0.00016451805597151507 0.0
0.0012595293729644277 -0.0002837601527672314 0.0
0.00041845582059785744 -0.00011026730204198552 0.0
0.0016214594132319862 -1.656828961572825e-5 0.0
0.00029433632164808476 -0.00010115063217144265 0.0
0.0016399894349271229 -1.8044528266986262e-6 0.0
0.0014213359041484789 -0.00023193477445624644 0.0
0.00110022139261886 -3.825818518665644e-6 0.0
0.0011706750840725986 -0.0002999377083787287 0.0
0.0013345641123904703 -6.798730300735404e-5 0.0
0.0008192041005234098 -9.598569973347813e-5 0.0
0.000465878463153972 -0.00019301278790875083 0.0
0.0007373158220529232 0.00010086570798684205 0.0
3.864107136782374e-5 -5.431041195072516e-6 0.0
0.0016957367702323748 -8.34224271391344e-6 0.0
0.00020854285845182827 -0.00010185874310753803 0.0
0.0012761891827023308 1.5868898044557952e-5 0.0
0.0003419322586976729 -0.0001602775688967414 0.0
0.0011603802133607836 -0.00011515932842347391 0.0
0.0003739781160493527 -9.8904169750277e-6 0.0
0.0001760428390584229 -5.9545074846570836e-5 0.0
0.00025010021430906567 -0.00012700702725599008 0.0
0.00022554004577019017 -9.066068383591132e-5 0.0
0.0006843457994637694 0.00017915679914896288 0.0
0.0013521433862271322 1.1784245261385512e-5 0.0
2.8617836464424114e-5 -9.983472208234531e-6 0.0
0.0014494776407042186 -1.1719408982541497e-5 0.0
0.0014162070071712368 -3.055200490153926e-5 0.0
0.0010499386447474128 -0.00011895705234690294 0.0
0.0008393191196131299 -8.807555253733336e-5 0.0
0.000492432285567303 -8.619015637793464e-5 0.0
0.000840965954240105 -9.555839429609105e-5 0.0
0.001058259898827662 -0.0002533328370531611 0.0
0.0005496606070152089 -0.00013486998997860726 0.0
0.0004220032249570403 -0.00019136353345239622 0.0
0.0014723624299073843 -9.657720642873306e-5 0.0
0.0011926204518296916 -4.804986142384807e-5 0.0
0.00019514028809687422 2.622777349848785e-5 0.0
0.0005598209542762816 2.2941140908005874e-6 0.0
0.001139368712297365 -7.975272975931726e-5 0.0
0.0010615215155664556 -0.0003008120223491615 0.0
0.0006979261653668471 -0.0001331056885495374 0.0
0.0013534185346388717 -0.00025993544959070807 0.0
0.00012812549988126055 -6.2128879357796e-5 0.0
0.0011741804879282982 -0.0002580291093709903 0.0
0.0006322386193607266 -6.782106133078919e-5 0.0
0.0016309882172410733 -0.00011104023475616777 0.0
0.0006108277604813592 -1.997200831229405e-5 0.0
0.0010800637633103468 -3.487595731664278e-5 0.0
0.0008880336828208452 -0.00014356463281433766 0.0
0.0008957055643674354 -6.250895673518555e-5 0.0
0.0009947190128793849 -4.969212343567038e-5 0.0
0.001024808739103845 -0.00029817627855017483 0.0
0.001322331389905168 -0.00026534391462552654 0.0
0.0004510115886166423 -0.00013493919579085373 0.0
0.0010720209118259252 -1.49885150475965e-5 0.0
0.001042632578873615 -2.8355362154664715e-5 0.0
0.001318840496358341 -0.00023056615499673049 0.0
0.0008268064099726866 -9.277671715353756e-5 0.0
0.0008905563791552698 -3.350863969691763e-5 0.0
0.0004631193853379017 -0.0001849979844366527 0.0
0.0016196729023191343 -0.00010277290358754067 0.0
0.001109639790679213 -0.00031204701350911687 0.0
0.0007535374147230083 -0.00025007077510927675 0.0
0.0017167614728717468 6.910272178292047e-6 0.0
0.0007429687131435182 -0.00022485777569755707 0.0
0.0013892054122550317 -5.826186632168139e-5 0.0
0.0004888923465574715 -0.00010682452135316506 0.0
0.0011578189501432164 7.817493828921062e-6 0.0
0.0003537173580359097 -4.515187556246087e-5 0.0
0.0007846618138436966 -8.688180514909979e-5 0.0
0.0006670937028372927 0.00023835674834943584 0.0
0.0017531410540757445 -4.75143752779704e-6 0.0
0.00101616194142108 -0.00022145905462454558 0.0
SCALARS damage float 1
LOOKUP_TABLE damage
0.7029108843859849
0.7168728160616514
0.9280460203222064
0.40836307787734294
0.9933566514981726
0.9976816464376863
0.37381312899529395
0.8800804447944007
0.8789155987951277
0.8896592013120925
0.9036399799538316
0.9124933741028298
0.9227705558351471
0.9325257936564479
0.9354564317428488
0.9337970023178924
0.9291235131516518
0.9241580627625311
0.918043053501405
0.9111721714266019
0.9048109090140852
0.9018030320167041
0.8957301354763171
0.890302584912408
0.8864537718097742
0.8820829528421988
0.8755655756493904
0.8695733972031653
0.8615107390793325
0.8535193966369489
0.8407024063739342
0.8239470067911411
0.6951675778039279
0.7841916160558796
0.7938004345790896
0.8072611729477709
0.8175426319723864
0.8241595795728073
0.830410645629535
0.8340363670070655
0.8384187437339649
0.8434116185613983
0.8465357171118518
0.8488987664037341
0.8550112568775108
0.8570422368783975
0.8478226595776619
0.853500935463829
0.8580148514683397
0.8641827217567465
0.8669540795091172
0.871704868972668
0.8740975984097409
0.8822466687056115
0.8809172730453241
0.8876229990220463
0.8886330359238739
0.8936459069853298
0.8975660418603336
0.9043083454275389
0.9042213954856916
0.9112955192116888
0.9153255421565387
0.9218628370150463
0.9267315245398811
0.9279997243776227
0.9206368764859263
0.9126810381617396
0.9117286227796274
0.8947777299858496
0.9092778396914277
0.9101394873852019
0.9035215592109188
0.9224050059977645
0.9266046536874374
0.9330036955779409
0.9410040282728143
0.9406523876578325
0.9517736254103435
0.9510093408952712
0.9542704259870113
0.9557425961303454
0.9556062387074709
0.9514368553820916
0.9604900583092875
0.964116014586495
0.9779949245042883
0.9797408709368246
0.9874974266388271
0.9890401314843433
0.9898745802681003
0.9911286119358249
0.9915211362481839
0.9920624699574921
0.9914422778543653
0.9930626607102304
0.9919272700977251
0.9931567659291736
0.9951220544198361
0.9960843208990166
0.9959969491616386
0.995181362548819
0.9939814080643088
0.9916851804130762
0.9900411656580412
0.9885512177299771
0.988624023678995
0.9888920782079492
0.9871921271866742
0.984375272861943
0.9799785246573185
0.9719755217641213
0.9770962298768128
0.9711070985583588
0.9635611410314857
0.9432084443062987
0.9271987706299315
0.91432095359508
0.8974228518131276
0.8862217502569055
0.8791559933109563
0.8648717741004454
0.8427548881354519
0.813887658020471
0.7976977166474392
0.7787065088557396
0.7574851502236009
0.709178388000487
0.665797403685389
0.6566868565986071
0.4898095493050224
0.6374534880132027
0.7223962193421206
0.7930045236773345
0.8178459801178078
0.8324332366738971
0.840509344397639
0.8468113805499945
0.8517141692461135
0.8558654401219012
0.8608894349695926
0.8644860829476376
0.8662331295519756
0.867196255687914
0.8671955352221757
0.8661168184155281
0.8645071853232417
0.8621150069527744
0.8613532764410622
0.8643269363436374
0.8676602276339633
0.8768110656413115
0.8873858971778363
0.9019442136466391
0.9231573708863929
0.947061905479613
0.9527209936591458
0.9949553328255257
0.9960177968054291
0.9977393230146161
0.9956932187223227
0.9988193793840308
0.9872957758142542
0.9690009934419995
0.9394198206250858
0.8966482938488296
0.8440439867071702
0.7951246164369499
0.7389435604421231
0.6703002125582229
0.5940831590195953
0.539541146769598
0.26510539191988197
0.45218982566633653
0.5732560307007456
0.6613555689894247
0.7348429892483538
0.8090523593156068
0.8604515039532261
0.9104261087475075
0.9547149017149194
0.975725574012471
0.994841604875745
0.9940321622720193
0.9972028081028446
0.9894507593297822
0.9324721918265526
0.778069656488026
0.9061500698854718
0.9933100160200444
0.9205977588483016
0.9902974080954593
0.9299076183950362
0.9814789537373589
0.956242783590961
0.9893095231862262
0.8815736719103149
0.9697080619849717
0.8598966543637578
0.9050758886226719
0.8638072227807508
0.7598609651931759
0.7871424776614332
0.3959320417706222
0.7245011902534042
0.915621332610431
0.8522815501153903
0.887588764389735
0.8633917291938269
0.8606290168574376
0.9259886386327975
0.8680086115954909
0.8355594031877411
0.9158477465524031
0.8736686810394603
0.8758541367600817
0.8477579546683969
0.9011204530176204
0.9508665645181618
0.9891149374269433
0.9551492582584187
0.9924256779346728
0.9893362345009966
0.9257932742608735
0.8932920125631268
0.8013526875477942
0.8201214851804427
0.876611476888749
0.9278377220836593
0.8188818917884296
0.8541957414086198
0.9770300743384404
0.9606281347374399
0.9071669383866994
0.8871466284385554
0.8967705243100369
0.8661410915162057
0.7069185884210935
0.6096630314035263
0.7915506446944603
0.7112824592545294
0.9951280917637725
0.9701395035101593
0.9000547927571488
0.915665152710145
0.9862473859138995
0.9840133322217054
0.8732873602782362
0.9582715819669585
0.8527657030006086
0.8429423344755022
0.8912361836531676
0.9490828066176761
0.9881476341201771
0.7768094626554722
0.831503816542004
0.9940569534468311
0.9967964428519767
0.8455554868279759
0.9443508976684846
0.7608290945120532
0.6566265822425449
0.9978964517856064
0.9876858668307652
0.9709875549152657
0.973489250038408
0.9773580942795139
0.9693127911058429
0.9530099025781026
0.9450163831127479
0.929663894579259
0.9199799615565584
0.9348992484948577
0.9086850118756991
0.9211078646221738
0.8974334214391366
0.9090147417889656
0.888100268675625
0.9029986420691162
0.6977284789475856
0.853773899851557
0.7326811785027507
0.8695895834605154
0.787527093933868
0.8767748675927342
0.82380397677157
0.8856055628794142
0.8434230325122325
0.8901070329239603
0.8605099637724518
0.8948405705664805
0.8681904261526803
0.8962750982868618
0.8775130722459884
0.8991175308768812
0.8790303468204541
0.8963926527002184
0.8813920616871701
0.8960421144771716
0.8855805965725699
0.89827334444126
0.8901378180899211
0.9013750572624867
0.8938045119957655
0.9030774705446083
0.8962409028665066
0.9054010810512003
0.8962859424388172
0.9041171378420872
0.899780764624913
0.9054588358400474
0.9039086336340748
0.9077588536243076
0.9047956836341218
0.908966119583832
0.9076047158734637
0.781356732621467
0.9114819896811566
0.8626612949289254
0.8933891112334038
0.9098562760324729
0.9135235346664352
0.9116954753891658
0.9080113606130104
0.9100256900197551
0.915152537333469
0.9161552087659268
0.9070099521846585
0.9177761188133339
0.918102379207465
0.9195008070059687
0.905763955717347
0.9079874473766292
0.9195124035689654
0.9031970339488611
0.9056005035978566
0.9215603453461692
0.9216043301435581
0.9004996663572147
0.9039894609179966
0.9237624438426879
0.9235802038409927
0.897286980697022
0.9003565893407756
0.9259382045973624
0.9257970030963409
0.8938054587438692
0.8964994999046826
0.9283858426414142
0.9278572496110304
0.8891197578874886
0.8939818549781663
0.8853014720020296
0.8796410856510687
0.9284065118385734
0.9306581041221392
0.9295155841195791
0.9261497014023459
0.9043173590995781
0.9280314664967481
0.9233856416750932
0.9248518945532074
0.8910180508162019
0.8833894964839248
0.8971427527995226
0.932429234221115
0.8873845486506345
0.8790856397931603
0.9087769759289385
0.8835265431184142
0.8757062368223262
0.8809895600636595
0.8723870827176525
0.8669230666879246
0.8630557207248373
0.8579674755603903
0.878212554083536
0.8569345877975344
0.8506032589754232
0.8860084249303947
0.8836754774362642
0.849350503961532
0.842909771889937
0.920567809484954
0.92110535786615
0.8898128277454205
0.8865015432351347
0.9172028118559321
0.9176285444071257
0.9228044747286517
0.9172810348768695
0.9245865261812761
0.9179273596197247
0.9256175203699804
0.9183598729739242
0.9272219721565167
0.9107482512983064
0.9175344815858847
0.9284818981702492
0.8929431809610202
0.8422337121108854
0.8357541400317908
0.9356210131414794
0.9383146979483242
0.9306210805077386
0.9453221934132974
0.8900072543364115
0.9415814815093173
0.9336932401275359
0.8962422753252928
0.8936082169436246
0.8877972348843034
0.9452966318367402
0.9377880869378434
0.8999790182036529
0.9030795663787713
0.8907262739955788
0.8843722415998578
0.9489000737473964
0.942269727907586
0.9242373971378459
0.9540001673487665
0.9287034930342664
0.9117981315701863
0.835943212215141
0.8311692898372809
0.8296579435791586
0.8270373942210318
0.8212460268580879
0.8208730612062654
0.8147151002975679
0.9064022394199948
0.909184740652729
0.8873891566378412
0.8811515665385599
0.9466212340055518
0.8173333426598048
0.8091806154693673
0.9118339766868044
0.91472514326153
0.9068492180252022
0.931774840892768
0.8953112763535828
0.922915608982953
0.8827061261804215
0.9131977061096368
0.816101369863102
0.8082209607095621
0.8845487002153457
0.8788908432000357
0.9170655945285839
0.9195111826176857
0.9496815966578753
0.8335804482493986
0.8384930633664271
0.824449089288559
0.9338092310621399
0.8203893154022948
0.8091910332977338
0.9140410783246581
0.881490230698617
0.8759276573745806
0.9137307504828823
0.9118052750797669
0.9122787306864532
0.9104798044100882
0.9215565347924749
0.9235006907211193
0.8928763374757128
0.8245113952419013
0.8191902151012069
0.9519992712355066
0.9610043687787276
0.8438471047607999
0.8365724992185305
0.9390031181651414
0.9188285186570126
0.863613110171617
0.8872453898095509
0.9255219085217323
0.926924319655538
0.9249058998872469
0.9280467594867701
0.9261261420500895
0.9290832519642929
0.9272892645884517
0.9299691753446478
0.9282548341235027
0.9307100525038707
0.9322705584302688
0.9331683157159442
0.9347177374702633
0.9358357418755393
0.9374771354228099
0.9386451457893487
0.9291464921213956
0.9368514945485497
0.9398578793231465
0.9418321235808687
0.9431496447504143
0.8354481701283922
0.8399754242884764
0.8789827713953949
0.8741693957065769
0.9411438751949255
0.9442825137248315
0.9464575542272569
0.9475074235094385
0.8377813210631769
0.8415019802109894
0.9121194396065959
0.911378387855387
0.913785960858481
0.9547377306192234
0.9422847665227636
0.9287605887645233
0.801810552389916
0.9215045685809478
0.9498163556076658
0.9506082157500234
0.9485758213406968
0.9517204272539238
0.9192021120186834
0.9139684787222784
0.9106872373364284
0.8597717578037939
0.8771995264111385
0.8722613108416338
0.9178470003150033
0.9536273585168531
0.9548547202409239
0.9527547340054501
0.9562374677781561
0.9535930924459568
0.9567506779728074
0.9593663034992682
0.9595668653967437
0.8836134489620262
0.8405799718639351
0.8424320660202719
0.9275040494255682
0.95644071185773
0.9464040043802047
0.9615972607704604
0.9624501145726223
0.880379500449161
0.8759494333061643
0.8706647107279007
0.8083750711303139
0.8809081905017228
0.9302191254182608
0.8998177982503237
0.8335269383771023
0.9575898547465889
0.948487062620357
0.9269233254058168
0.8818690242897382
0.9602738778659259
0.8392771127118354
0.8788408935044991
0.9180967144864648
0.9227706739815579
0.9540914397336889
0.8738899087187901
0.8686196835802579
0.8431198136453301
0.8444835248375858
0.8755175517140764
0.9643195382724095
0.9646897771530709
0.865385835074046
0.8637459815634613
0.9641528079455295
0.9286050354018784
0.8662488014606439
0.861857588665635
0.9241399306836592
0.9300812055391064
0.9066033830863375
0.9487910187535206
0.966549439759049
0.9671975518667021
0.9510076537423918
0.951447983436316
0.9310154459625687
0.9652406761644635
0.9680325709535637
0.8457275218674004
0.8466702144042321
0.9710606566903504
0.9716908023465207
0.8641963486555786
0.8597710239506922
0.9219397700188141
0.9289290672722104
0.8579000732225032
0.8560228800618636
0.8575865836146552
0.8542458330622107
0.931646261724391
0.9469042474744601
0.9001816304012045
0.9128519401886245
0.916182183852743
0.9284656005920849
0.9751577771239378
0.9754429357348171
0.8994809489760074
0.9658143540497237
0.9362283266219338
0.8530113781606775
0.8512046034346968
0.8527839702529525
0.8489403333156772
0.8474873653022151
0.8458733953502788
0.8458114367819163
0.8444364255824693
0.8456171347260638
0.8441159367628537
0.8462920649879861
0.8422289423373043
0.8433510336561518
0.8478217190822154
0.8478089479707573
0.8382641651949083
0.8402363406809362
0.8826026541041652
0.8517835000329627
0.948463478848754
0.9489529446400045
0.8443144698207141
0.9295162200854572
0.9315321144252058
0.9515790819155978
0.948991829291697
0.93288710128921
0.9414309969330404
0.9425303936454235
0.9289269783234498
0.9375387730168183
0.9255992882441286
0.9239438557880365
0.9221328375513881
0.8495142392665133
0.9315055840464441
0.9420263709056877
0.8553609226386644
0.9787603064771975
0.9788719990126278
0.9755204188357183
0.9787117471571793
0.9094187082434444
0.9192242125461512
0.9119264938868153
0.9779368670335167
0.899752319588912
0.9819143768739872
0.981860578902432
0.9781247667064485
0.9817098763326817
0.9782344849668436
0.9813367420568522
0.9849336786992859
0.9838452827707428
0.8363584020202666
0.8371491792167253
0.8430216531587317
0.9281632804620216
0.93235194382746
0.9198760651117505
0.9173601663628586
0.9328544065588811
0.933082899299546
0.925494650433912
0.9120064127365767
0.9205144334249793
0.9246109010284779
0.8354061814266329
0.8929361267560232
0.9130146573460522
0.9330962395246276
0.8176544705761768
0.9329893435410833
0.9869776759332944
0.9841877419468262
0.8783067852294886
0.8727251375194399
0.916846033099536
0.8464475671925001
0.8511790292021867
0.8530126319662577
0.8538585880084081
0.9851017235035907
0.9336730910924609
0.9489647512364747
0.9027309810454945
0.8327686063698662
0.8347781595988718
0.8691966683774722
0.95147622973043
0.9485926336873522
0.9205656239629977
0.8731339462880203
0.8684881240201207
0.871079206834478
0.8665542076761167
0.8667014221417716
0.8624036511293413
0.8651706071185643
0.8603997468096798
0.8656387760553066
0.8607667894401871
0.8665506412546293
0.8617493844867893
0.8682624902433586
0.8631919377282063
0.8739143976706675
0.8689038821423594
0.8651399490390933
0.8630059940150695
0.8606989425782309
0.867138759016914
0.8720404352522121
0.8711705294142432
0.8670557208200523
0.8747634803356028
0.9524338300671955
0.9518345746390661
0.9552947267454401
0.955016066418331
0.9582135890543846
0.9580519029489779
0.9547250312002759
0.9572324710141822
0.9534705565279868
0.5684470746930262
0.9613444859398761
0.9612517135293753
0.9102153965046257
0.9265344622619701
0.9276133943857131
0.9247979239163114
0.9259094292255129
0.9228642920449068
0.92399675984101
0.9268632122949935
0.9251069433841632
0.9280543709180035
0.926019378216755
0.9287171758749067
0.9234379651023937
0.9206664668056189
0.9192199478356763
0.930565845626931
0.9314677643022647
0.8699694321925608
0.8998440581939522
0.8268124648444752
0.9423262226294603
0.907753467747938
0.9061610695406949
0.907241327746768
0.9066012984349401
0.9742596716559274
0.929971792068139
0.9236292403241662
0.9244528695593713
0.910500970540946
0.9160410060217998
0.9124651753856472
0.9104376459897043
0.9548267154040191
0.9513049244527885
0.9135146914229242
0.9102129290438543
0.9103709811704832
0.9078456214498669
0.9088251197754369
0.9059101156026188
0.909031353527373
0.9055001620735755
0.8520260463354223
0.887052130783279
0.9303490627609687
0.9407259549183185
0.8809924105024437
0.8715481398641609
0.8600758491924863
0.8576985426586442
0.9298329369794723
0.9335254504438709
0.9812883808833126
0.8470255680159718
0.92302146770473
0.9484246401310388
0.9497874900100548
0.9742870048244863
0.9207199366453003
0.9807944702024942
0.9793264653082351
0.9826236469219859
0.9771177142266857
0.9004720458066494
0.8562707077963492
0.9267189460863382
0.8727909811068049
0.9328264245581235
0.8750294264043748
0.8771049050346856
0.9803801341907792
0.9069985319678728
0.9457156603446275
0.9452836930822102
0.9116698521063542
0.9121366422565974
0.9199455975486486
0.9058475177412988
0.8281093622560668
0.8309944436954773
0.8394657196119341
0.9342837146022872
0.9475770905606837
0.9187762954893869
0.9132271899297476
0.8727337932425107
0.8695105096333099
0.9132800694577338
0.9082445029235152
0.9200125705015915
0.920025053897705
0.9205694344715218
0.9083637676179852
0.9223688752189998
0.9491757780827028
0.9025418179868581
0.9010106781667232
0.9048960598347151
0.9001988798773782
0.9748209540522204
0.9718569545485332
0.9747297319974213
0.9680642863517355
0.9459015240063927
0.9447193976361801
0.9639862341180426
0.9642186748609368
0.9164872187342309
0.9153812781418543
0.924961334073346
0.903576631853579
0.8991354443266218
0.9421879795607043
0.9384423378416575
0.9466762591280714
0.9430036739525154
0.9352803613400741
0.8272784802038787
0.8468842226689814
0.8482597165823886
0.8575512239363035
0.8606383387035863
0.8543639830642593
0.864265520858709
0.857317478766743
0.8683775566527591
0.8620809800457353
0.9307131943852015
0.8964004569549959
0.9699747862052653
0.9766892316249687
0.979782155929276
0.9763223810858719
0.9519833983793344
0.9182833095082037
0.9719087080832467
0.9105405324020442
0.8949882783713152
0.9028121856945606
0.9179656047836084
0.9393557436863527
0.9403021206749738
0.9581690525339029
0.948964002699028
0.8433672425479326
0.8640053984449638
0.8669568436824932
0.8714187672329996
0.8685220257100046
0.9588090181311038
0.9568465960740944
0.9427020762031675
0.9306967721081709
0.9197157176130286
0.9509812342315382
0.9631871524983793
0.9634313061773965
0.9374492678017363
0.9451887145861592
0.8805905678006763
0.8827878916354066
0.8746440492679457
0.8694364124456045
0.8559239118013063
0.8640053425394747
0.8788504222584533
0.8745047996984198
0.8897215557421665
0.8868257186084099
0.9003977995163223
0.8247342725502909
0.9426073942357971
0.8285293954758333
0.8730648659197134
0.8825589059829155
0.930058413799275
0.9528784723481012
0.9575026770654561
0.8987053737755585
0.8540061486653748
0.8496743960484523
0.9091961851073148
0.9836704823291406
0.9169316528776843
0.9640915512367452
0.8960532959419435
0.9175042483105427
0.9134665948869096
0.9154512888578487
0.8781848793650991
0.9112204870680987
0.855047478513352
0.9666444659840382
0.9672515168885922
0.9650765275330472
0.9680316700129565
0.966067342532793
0.963173446576518
0.8733613762747225
0.878549306557571
0.9400870104651741
0.9476607697601819
0.8681054393617506
0.9034056723869617
0.8984298185470398
0.9169687780909667
0.9778885686667875
0.9089474210756593
0.8945866394119961
0.9709787778844174
0.9714402270221741
0.940751620351727
0.9399300658725079
0.9378038361319326
0.9165961798728337
0.8485096082315048
0.8203086413784098
0.9653990693890562
0.9352503597287203
0.949036087420597
0.8314313235166141
0.8749519787611285
0.8568039080394334
0.9618305745157926
0.8627112784075022
0.8584753958087666
0.8604630403362009
0.8560648533051615
0.8572868334747742
0.8545666770326922
0.9795724456315843
0.9768082648062857
0.915437210318556
0.9517310920496981
0.9392622472277428
0.9377210068926808
0.8853949613863815
0.8627736891830435
0.8588720364611533
0.9045770698875172
0.8924403537416056
0.8503823632491453
0.8878501226065001
0.8847366094147469
0.8909222692818778
0.8836999782446551
0.9093331984806908
0.9224576880263978
0.9448162264115116
0.8923079663610552
0.9657133179678492
0.9158769594531246
0.8958963738615834
0.8802241153806303
0.8881191523711385
0.902496247368928
0.9418029108062445
0.9401224438343233
0.8478503167053798
0.8506149655438038
0.8461518864489573
0.846056866905451
0.8712611731892642
0.8243011432540254
0.8351610609392048
0.975127408313348
0.974463315279593
0.9697935249450341
0.9700912610629681
0.9721051464444693
0.9754296629034342
0.852245963938092
0.8518861215722181
0.942841905401148
0.8646198739177586
0.8669382214114126
0.8695645512911446
0.8714988370954851
0.819054638160295
0.9266526061622529
0.9256610585544578
0.9216056840059731
0.9203054682413434
0.9154616669080091
0.9236948500865957
0.9374017945611303
0.9127489434920716
0.91393135013775
0.8476975775783097
0.8427886722394999
0.8692209170739275
0.8659071976476066
0.8602995880824422
0.8643751824384417
0.8731216396504028
0.9459348332589437
0.9451384466690017
0.9469258962770817
0.9492797262491899
0.9437858095819137
0.8448934391425974
0.9129330165116163
0.9810560260618656
0.9175631558049374
0.9543686828307437
0.9172148469177343
0.9131480504528376
0.9147716410026001
0.9130791479827006
0.914235555801525
0.913668218015668
0.9140924829246346
0.9141265001589404
0.9148975678734916
0.9119519800408324
0.9127381545920709
0.9826154680241908
0.8644224937492738
0.9099847885959446
0.9059194440503466
0.9150939870783721
0.9096537049403983
0.9155965893193322
0.9418072529283327
0.871183731329538
0.8597507628855762
0.8733722819927259
0.8809286248904498
0.8974882825502455
0.9008754475215227
0.913867186762173
0.9090682424388796
0.8585862282074979
0.813436415336977
0.8692412471598354
0.8645799352754411
0.8188207644388162
0.9608128021441172
0.9598233699437134
0.9623110383256971
0.9573887141976707
0.9143897850996261
0.9454433292651568
0.8696048545287594
0.9368938517352303
0.9348718674535559
0.9109250182696815
0.8912440618348171
0.9165292278655882
0.9881404477627515
0.9895891949423323
0.9907948361923893
0.9920011475478555
0.9921690389527726
0.9908088364303038
0.9850697585821268
0.972815460413625
0.9040161020548405
0.9481569531636895
0.8698870341313705
0.8449035302972214
0.8524368434607776
0.9897797231891894
0.9918225181569579
0.9889344361575026
0.9209398768178049
0.9348387636207413
0.9363777759155193
0.9389277549516314
0.894049096787817
0.9340523572728163
0.9626024476231138
0.9685059476590404
0.9582142255013665
0.9599520962345208
0.9568439491131522
0.8488860598915259
0.9120052662053858
0.9131018479996832
0.9156418935553983
0.9189913803731169
0.9610500737288284
0.8759052264021899
0.8664938211021899
0.8721379303670366
0.8824975585067103
0.888823040359021
0.9772450289048354
0.9823645197803431
0.9363637193961375
0.8605933120910977
0.8677316299508605
0.9719534600450753
0.9504973359416365
0.9364788651536123
0.9164299403261468
0.9550406651046603
0.9697321813245737
0.9737562120945451
0.9191533399211436
0.9361104078489105
0.9558911340831332
0.975410202049491
0.907507718848763
0.9233895209640137
0.9438664565548069
0.9434265220609152
0.9693303123889757
0.8924697925251097
0.9025136002818677
0.8470943738947625
0.8617491529842244
0.9717045967903054
0.850338008264332
0.9602013557713808
0.9555900401045976
0.9916624620560259
0.99019629775992
0.9600011456415098
0.9371096567201134
0.8812574380158169
0.936878053793411
0.9348902545347855
0.9007250007002948
0.8973269551918334
0.8972375428481902
0.8385878466185148
0.8432420568266221
0.9176739121884665
0.9176243358248066
0.9803823625883512
0.8472338730327231
0.8527280768027814
0.8501770057693893
0.9618097073873738
0.9308889101307274
0.9381853485058248
0.9178545550102426
0.9255056276476111
0.9185826382013718
0.912926045197142
0.922227162112154
0.9109714150274824
0.9024493287208163
0.896431394238207
0.8881714446630592
0.8965427625100594
0.8728546799127701
0.9558990641753621
0.9180151549813114
0.9279021410344694
0.9785552361244602
0.8973777718106812
0.9095307643247708
0.901096369790326
0.8997104598797958
0.901066609583386
0.8928762700486508
0.8913027973388128
0.8612578099748935
0.8588265052220826
0.8539090591507134
0.8555871512089127
0.8601828910778139
0.8560833364577908
0.8620434799883404
0.9062591996459215
0.85868420914475
0.8645435802905592
0.8937926537642868
0.8370315889561465
0.8681449760134923
0.8506221480167541
0.969804771018553
0.9731635868189465
0.9470968400740875
0.9496039442368198
0.9194808198606995
0.8814295081851067
0.8637663485569488
0.8525356436189842
0.832662678719261
0.8292804698912776
0.7707453354338839
0.7739847090148401
0.7152708140952345
0.7363664962100755
0.7057874964618761
0.7294648845690239
0.7220837190175905
0.7397285077770778
0.7457314583932447
0.7555355629691278
0.7700579425573082
0.771636104564356
0.788089597727725
0.7896493466518822
0.806099930034193
0.8062944282803703
0.8220268872032401
0.8210547526788239
0.8360527868168259
0.8345647958436515
0.819459561309083
0.832365728673726
0.8509459607505367
0.7776270846814809
0.8401354785745335
0.8119761706263333
0.7831556493380538
0.7664916748446288
0.8195291658434777
0.8313760099019545
0.8440415832401154
0.8423516684946919
0.7568679441822699
0.7097539811715978
0.8065302535865927
0.6932785975657243
0.8542373077801001
0.8518875407189432
0.8405481067349918
0.8094458028323646
0.7967590097680773
0.8570727456029973
0.8663005744238672
0.8701253522821466
0.8265402985053485
0.793127291276015
0.8497815869654666
0.8403514408399138
0.8313907841263792
0.8316386101549259
0.9684769528611383
0.9641503717984603
0.8822934033594655
0.9627992121248687
0.9657819675297842
0.9097633396029151
0.9133702859008911
0.8778687227736697
0.9404018824093033
0.860609361950551
0.8930155428153715
0.89015044897634
0.8908699173928863
0.9351414765584039
0.9137367781420167
0.9178307855378431
0.916525322684849
0.9325763970717506
0.9312802161732737
0.938947216250137
0.9278078995416215
0.9334945075071027
0.9140596614269374
0.9161116783205053
0.9170756062693356
0.9125291335563159
0.9170724174689789
0.9146327894529737
0.9184496474753127
0.916330327706277
0.919575100654269
0.9177070368106236
0.9208597900400327
0.9225750903121988
0.9231939504231687
0.9355082290661841
0.932640865201323
0.9318330090771455
0.92988706025678
0.8486757063404644
0.84527865558917
0.8413774093127169
0.8384603916851299
0.836383528407395
0.934652800928993
0.9386172432694313
0.9448918557503829
0.913593607535869
0.9126824343984266
0.9116901282115001
0.8606392012209634
0.8986733759789695
0.8710518331024782
0.863552749772137
0.8742327156419183
0.8693088840976463
0.8603966601597812
0.8652986205229853
0.8560621222165486
0.8592472509855497
0.87028819448934
0.933365396047052
0.8527753866073764
0.8522370575661594
0.8766384799701437
0.8880172421289642
0.9021504033539042
0.97039644588978
0.9720774617420262
0.9678304534938136
0.9221094943437226
0.9151900094058785
0.8951964513078362
0.8022559611436542
0.8036482937154319
0.8490378115344336
0.8735776323878817
0.8802741225304944
0.9664426604794132
0.9774369403807661
0.9184043929887347
0.9099546882168885
0.9151886466127297
0.9524224010443667
0.9536928955389273
0.9616888802538136
0.8822838045149674
0.8845817426211924
0.8913140745125991
0.8831721277786585
0.8498497518481294
0.8840873354098666
0.8861770166738238
0.9639771764421313
0.8386616420369353
0.8335684782282113
0.8332321818679167
0.8307513158327675
0.8565521135839049
0.8683802407889144
0.865088254887842
0.9779667935186959
0.9079465971782913
0.9460392885139732
0.9519730152854524
0.9421463010432036
0.9461735240878817
0.9367807969324964
0.9343618268154039
0.9265945913790584
0.9484844016351931
0.9518868142283938
0.9452667996875144
0.8586377030539055
0.8615961165378182
0.852497175730409
0.855024740783139
0.9205509360003151
0.9177500477228058
0.8380193536433216
0.9246578102327815
0.9295300793938157
0.9277337237033629
0.8571301562524775
0.8571766171289396
0.9577532333269284
0.8644239206342526
0.8652618046216988
0.9654577002203732
0.9796594976426123
0.8102717888295071
0.8174649062312492
0.8524293545131607
0.951006395467051
0.9657176528022604
0.9371768887916979
0.9006007596698593
0.9704799512589447
0.8957102807048863
0.8640896941456552
0.8792059939576873
0.9617398433685639
0.9183990017189313
0.8475218002968355
0.9148435862274729
0.9814867359098707
0.985946706831198
0.8095199171100212
0.9785035263237714
0.9817095212804132
0.9051958725176042
0.9113462004899023
0.9163064095655512
0.9177092055566135
0.909710233597
0.7942076804341218
0.7876501057886566
0.8426986902469749
0.9403391691548173
0.9206397014075115
0.9343743695632294
0.990019262849413
0.9905115574436699
0.8315319615644272
0.8265637453098295
0.8638136954981623
0.8524736692703475
0.8493827317676177
0.9658674216692837
0.8809427501796654
0.8667256276192105
0.9164291873641924
0.9834136137829902
0.9858643569546405
0.8711692389033727
0.8676007769117479
0.9218126745532675
0.951079417419979
0.9188153164955637
0.9157114608888632
0.7884298770030532
0.9892452706995319
0.9119028258455063
0.8040328878582491
0.8139464389579907
0.8312174399638873
0.9142000163218509
0.8805640257557809
0.8742948635328179
0.8848655406197199
0.8804967567362718
0.8895517911407725
0.8851414246178269
0.8754118211199858
0.8781047711630057
0.8658373252664667
0.872455489983407
0.8952435021920627
0.9017362624646051
0.9190565814346179
0.9061966816833045
0.7642884418436029
0.6289803351601838
0.6353992941225418
0.7594450613912057
0.6834224112993323
0.6751373641350513
0.6741448510559818
0.6278629226254058
0.8529236081282423
0.8497185836513385
0.8694752627771041
0.8745236124498524
0.88324192669241
0.9912860683281995
0.991966174576888
0.8874136960630982
0.8882986717156133
0.8858068645659847
0.8107491484331645
0.5847848484608947
0.8847997552566069
0.8774815258157447
0.8642930666023744
0.8732128046128943
0.8555029177646176
0.901449744132285
0.8882616046800967
0.7466291289864035
0.938627586436501
0.9530103841069844
0.9344725743375338
0.896143149204566
0.8325043052114215
0.8416522869952723
0.873428768945496
0.8737334676875581
0.9732807490801437
0.9730226283436542
0.900254587419474
0.9230561433996941
0.9267748799842638
0.9351376727668602
0.9379928608659113
0.8939167048683633
0.9007545416789973
0.8902981720278919
0.8840256937580796
0.9280575034116182
0.9255702455766026
0.9418210492081596
0.8425963322863189
0.8331950890353934
0.7366714608347668
0.7664783162519977
0.7906612880106064
0.8044647802393027
0.8220103395757655
0.7827019216518376
0.8158869202542285
0.8400886229886726
0.8247040237994917
0.9172851786837084
0.8315837206047068
0.8603603587722171
0.874124466771049
0.9411846958124728
0.9439836002519885
0.7371866584989524
0.7548065978667642
0.9334132766042795
0.9881409201473108
0.9883640093572845
0.990277926201257
0.9887302275982974
0.9906099941145305
0.9886761799034549
0.8733733492214136
0.8810911791345797
0.8812813292902417
0.8886754012609436
0.8879193163997307
0.8938862618481248
0.8938526440556472
0.8946547391740511
0.8992844089603966
0.889295261671109
0.9006934224647215
0.8964278156640163
0.9007173008593665
0.903460816131837
0.8974757030620539
0.881576175827116
0.8930577887394799
0.8756784369112878
0.8856464373457177
0.9210826931863274
0.8107733423216928
0.849772280801093
0.8124806708860681
0.815623236371483
0.9400563158136678
0.9367374014773951
0.9204888344231583
0.9150149132148103
0.9181231958442719
0.9117700996628643
0.9126248353085014
0.9108434512275617
0.9112160441561563
0.9091297533088828
0.8236037162721335
0.9418134022348957
0.8799412656124131
0.8898371218445329
0.9110247394639287
0.9139131771700794
0.926033171939235
0.9217906337357946
0.8326269571155728
0.83375900877437
0.8384271269078656
0.839530926489538
0.8426471005806386
0.8271779599252946
0.9164062486124487
0.8431529711317737
0.8447150597023507
0.7177980246984933
0.8751374758465256
0.9840653219146257
0.9330635038136404
0.8058952102137691
0.8991417924908293
0.9036423860722699
0.9915565777281395
0.86197818867892
0.858851434947452
0.8606553319344209
0.8573161723794361
0.8593104684954795
0.8572385317794157
0.8553985263617748
0.8567676152176552
0.8831386934695574
0.859400099844625
0.8609420805241913
0.8652945694744031
0.8581364000770302
0.9550471999291272
0.9919840500163891
0.8693835366830936
0.838108757138573
0.862047994146126
0.8719824310537929
0.7970161392914861
0.7831242620219034
0.7941109394046182
0.783420993877162
0.7711964784159474
0.7674818406457615
0.775664292396658
0.8134050278174303
0.8569151417113163
0.7951819213134781
0.9571315413870224
0.8614662056004433
0.9264388455801934
0.8493996873578569
0.9362751064617856
0.9163406333283106
0.9231168722100398
0.8846126785343872
0.9137472403475914
0.9097529877628764
0.8918283797643285
0.8846516907697337
0.8566615410830951
0.8475761506750398
0.9798219765125122
0.9730334582852079
0.99221881753212
0.8214483449011699
0.9239481133657212
0.9329326674700603
0.949534177323714
0.9598229470654724
0.8585151500854442
0.8991739989247475
0.9175779830892535
0.8551545767556846
0.8567778793220056
0.8539190844608493
0.8414126558487793
0.9127082588317068
0.9164073667313558
0.8460267911570309
0.8610833079785092
0.9292890424446489
0.9459004206779713
0.8451450227158802
0.8802937114641837
0.8894004801409638
0.900914478002234
0.8846841471978776
0.9346803710223818
0.8370564293217504
0.7743293830614453
0.9376147366466173
0.8693638047533518
0.958552719621626
0.8928371453889349
0.8921995993565222
0.8947896029746549
0.889516477952804
0.8841111551462705
0.8628492165846793
0.8467016721449436
0.8547818209300592
0.8651501404171916
0.8641082739486101
0.8540432073223804
0.9680945844905315
0.9612058868918228
0.9613305879708178
0.9571895685422943
0.9514199978882548
0.9537690052618002
0.9600348424337296
0.9376138103341962
0.8509626741863966
0.842018880596732
0.8467345787339435
0.9372756231858661
0.9466923730712579
0.9250937812874048
0.8898360078662778
0.9174828907773195
0.9175958580741344
0.9127036512899492
0.9137145206790352
0.8900922399511523
0.8474287539894153
0.8456450634587286
0.8653606164937645
0.8628445279832831
0.8732270796485586
0.8890162074305118
0.886768103084424
0.8807966968112168
0.8826494188444717
0.7486989569319904
0.6658741497845964
0.9830101086964073
0.9850548730784736
0.9850456677293455
0.9865786168527605
0.900484673537699
0.9561984470570523
0.7719029474952491
0.7917404516285855
0.8341557888234559
0.8386613182814274
0.8487298303445503
0.8784125564080902
0.8742522293570867
0.7918423478813383
0.8832592844594851
0.9310688557165843
0.9881014839928174
0.8981347319087178
0.902271632401087
0.8835058017153689
0.9852251172990903
0.9320000757517556
0.9327620863808143
0.9252559553801544
0.8790446874835472
0.8757278604867518
0.8713617861983132
0.8739909357957747
0.8321039670318755
0.8331477943443878
0.8265956437565375
0.9891802349022892
0.9668118724617905
0.9661292478284821
0.9689109444931917
0.9676953427206676
0.97084484238509
0.9689946157292891
0.9729966036641032
0.8461758723326545
0.8121053764945567
0.9685629253332464
0.9787552895094659
0.9283480788886763
0.970459965589743
0.9751651959285351
0.9619789226461175
0.9319127551814764
0.9299456165299003
0.9092252120828095
0.8621781621966825
0.9086789472749293
0.980457605111882
0.896594938712505
0.8989512839137597
0.9027864728538656
0.895119965731615
0.8996553104504339
0.9021448421307277
0.8991091187182936
0.895397316483182
0.9503387480507588
0.8987673935582643
0.9036311160140639
0.9555754559303524
0.9464802107080718
0.8585237065988043
0.8235281240998444
0.8564293045161919
0.8883826098275757
0.8604978577325278
0.8632778886314488
0.8717248248971623
0.9504147358489601
0.9520585701067057
0.9524833139923605
0.9550759190057169
0.9863558911669525
0.8631669679333717
0.9485522684607123
0.9107649533458727
0.9601373003923345
0.905076094548064
0.8551729602762974
0.9242978848249064
0.8476273841641286
0.9196229085832099
0.923886713276148
0.9083227782228924
0.9190194879770716
0.9477856355879483
0.9471805139874417
0.9502695612437355
0.9053983410515183
0.9315665533005039
0.8960364937564376
0.9159823979429634
0.9183617904981093
0.8457551159332519
0.8986731517658496
0.9828168855290015
0.9238743849148783
0.9454263273742656
0.9441958324733313
0.9471282043923422
0.9429467975417755
0.9459824497320514
0.9513352007347503
0.9442723557677463
0.9203887857466707
0.9188285515219536
0.9421049057689763
0.9060461377948014
0.9749667082127295
0.9296860849084653
0.9405796472895618
0.9919842857851845
0.9185473766695585
0.8728933498099921
0.9350994116017721
0.8642777497004744
0.6115041165111132
0.9815734511715473
0.8987012193360961
0.8841898032923534
0.897627824576655
0.8662537188135656
0.8795271770692976
0.8567525814223037
0.9072284640568069
0.9194096004915011
0.9205626365192354
0.8839720305412413
0.9231102418886523
0.9161767917111489
0.916392284386162
0.9257064504823272
0.9458794628288002
0.884083379245552
0.9390455027605942
0.936211232411602
0.9338429255481893
0.9329410775630568
0.9215697562045162
0.8542075800965868
0.9118983851969821
0.84547910568086
0.9128321071161025
0.8782863434112765
0.9359880639399517
0.9148391775634703
0.9340615320227712
0.9285301391262932
0.9414892670842719
0.9545098924343719
0.8702044703643464
0.7652224802989642
0.9022460380433266
0.9315747267507425
0.8523016418193955
0.9030452248797494
0.9582157180183535
0.880471669448817
0.9195819589251264
0.9213263592181089
0.861835490242348
0.9748338252382143
0.859994891070126
0.889313797104552
0.9307744730354839
0.9295550929874087
0.9614678121419655
0.9581829461446338
0.9529415097370065
0.9220916581690406
0.9854588761342141
0.9905173700765366
0.9436446686146391
0.9574357142187324
0.9946726425959296
0.9895542291625166
0.9116485367950625
0.910786403519376
0.9872420564911415
0.9062215372322671
0.9042889782405231
0.8778426516395449
0.9654222246217996
0.9682852036597228
0.9061777006182795
0.9432675042284981
0.9470243725103373
0.888926812677565
0.8565285633939944
0.9196443307065256
0.8584720936525371
0.7508325249597974
0.921633465588137
0.9442691080116458
0.8214052929415809
0.8226919668575309
0.9316640609657049
0.9139163444167512
0.9380451268774829
0.898569960902945
0.9629585965555684
0.818467708865094
0.7590590307237945
0.8357223409102338
0.925347294599541
0.9336969163561125
0.8598711896116898
0.6559636403637301
0.9741669549528998
0.9685898101106704
0.905672385708739
0.9542213428574373
0.9214447516378168
0.9540822202802078
0.9574546167271758
0.9536567063965361
0.8885890952804858
0.8830033225164284
0.9803187508295076
0.9658707748956056
0.9505986912758976
0.9138330516523271
0.9732114874318551
0.9252611409783492
0.910700016627743
0.8585467729052606
0.8471710442616536
0.9079620475661497
0.8987917891446875
0.946257782059947
0.8763586977696293
0.851651073758993
0.9751649376959332
0.9193878459736823
0.9165472389687775
0.9680482592670646
0.9454869547051817
0.9616778594231961
0.9883835801427167
0.9053670651337171
0.7368270995328432
0.932313258011967
0.9530621254848168
0.9558075308123407
0.877122369996289
0.9043728718865215
0.887531444052189
0.8097561569112357
0.9569748317993262
0.8771747938998469
0.86085720227629
0.9223693186381405
0.8566633599183305
0.8703847057504435
0.8507272331912763
0.9522496912578624
0.9083487173383089
0.9503465917530772
0.9000011027268718
0.9894596623171514
0.9864120251498547
0.8952411267509521
0.9628199820395821
0.9379937550106696
0.9126950254341999
0.867838864638996
0.904265497701271
0.9171693728856651
0.9107485249606619
0.9495896165666496
0.971651626024698
0.7820335555709431
0.8001048578160785
0.812841308202883
0.823151124047461
0.825342250072199
0.8931772813479398
0.907931890341214
0.969117855557807
0.8546691590809762
0.8658584344335359
0.8492149224709539
0.8799827891568528
0.92365065737677
0.9190931658289174
0.9047973729121386
0.9447219002902832
0.9288717517109591
0.8500184065665797
0.8400820673818612
0.9044622522252973
0.9098572774225745
0.9826848400401355
0.8465503185452998
0.9913434197938742
0.8649860298167121
0.9660998872484944
0.9115345637802142
0.9868161295243263
0.8889928920484568
0.8777057758398544
0.8593681136195974
0.9185208193269382
0.9341997597340174
0.9130981236676361
0.957210564289641
0.9109357441824104
0.9076049751156424
0.9477632326041132
0.9801078793665399
0.831162241504192
0.9289794687125159
0.8844796398994507
0.9640513214233635
0.9107235988369934
0.9076551986621237
0.8468388199298774
0.8849651509156508
0.4206017123787073
0.9143079184946584
0.8897659773184751
0.8735406420193955
0.8608246185713628
0.9528078668732458
0.9766244312059138
0.8671512108817554
0.8476007916634777
0.9776124409342928
0.831370977093048
0.9193568815468818
0.8440867517445473
0.8840420628297871
0.905383021771297
0.9201234233941878
0.931738999118432
0.8587999906170942
0.8571810964372161
0.8372919905039077
0.8446672453342257
0.9223251665353118
0.9572244362454254
0.8768021568737266
0.8704861632361387
0.8060451739559764
0.9504903526899682
0.9250047006138779
0.8373129890616213
0.9118663059961654
0.8908737103430071
0.9218712391726458
0.9130149353256777
0.9325458606082898
0.9066500127325144
0.922000885286448
0.904397706268958
0.9220651489029784
0.9169963452954176
0.7652052874573033
0.8476951350043056
0.8972470662986499
0.9259045161238251
0.849909083594854
0.954404512308066
0.9165434149151245
0.8979147301231497
0.9142177858547759
0.9141249033107448
0.8206274548710218
0.9350230912391672
0.9210955542199213
0.9310185762515469
0.8342006218573973
0.8719188191404379
0.7406242962740776
0.9147441769088712
0.9580570886672168
0.8523907163649508
0.9318180101353515
0.8704522733633457
0.9518028542589361
0.8263269492590101
0.8659349051516504
0.8478187150291443
0.9307928850462457
0.9080253065361926
0.9428383556717886
0.9309230095953492
0.9187399095535687
0.878362368586391
0.8934633647936806
0.8435981266119863
0.949835434286747
0.9588488700207521
0.8906529784248912
0.9067031341055894
0.9310588865415979
0.9117313028610955
0.8595462774927587
0.9921635768267564
0.8546244599930847
0.9256569669528889
0.8467954340877919
0.9212815479161064
0.913925360182066
0.9081727452983192
0.9311750688112945
0.7449830843974088
0.8255276080348501
0.9839083820244188
0.9756696957919399
0.8831519460523628
0.919908082525647
0.881199962402448
0.9225879516401975
0.8339547803661178
0.8759638162674022
0.9306360579415159
0.9333300909238946
0.891088630528192
0.8503443172998959
0.8314670319506908
0.9661223639269565
0.9603191109202233
0.8433840131906
0.8907211440911128
0.911659275507116
0.8098295799491547
0.8636931023574901
0.8009477847718686
0.7126712664360901
0.8634889169843442
0.9216449160825771
0.879455087694273
0.9699868967070748
0.8472703426104536
0.9896328779906665
0.8430395610941765
0.8921386109651267
0.9212669333241806
0.8464631482356869
0.8395160172819516
0.8506373269527682
0.8828195385686597
0.9465528070059126
0.9034109683589716
0.9258453696665732
0.8753129057169691
0.9042152635942191
0.9029748595555436
0.930882513198404
0.6678623121160884
0.8576549431066683
0.8910205485162614
0.8421085537440175
0.8834435428413844
0.936259525304889
0.9213030563723775
0.9097107073701999
0.910381299594754
0.9337086196345631
0.8552161825662862
0.8754206434009014
0.8559804439931348
0.8445077135048287
0.9508400393650253
0.931151973243012
0.8415043001836081
0.8695958504617461
0.850536157940012
0.8688011368753211
0.8969796218485107
0.9182072802951665
0.831782583948451
0.920393077055525
0.9148912411898236
0.9718966196622633
0.9626561190234911
0.7720934361774171
0.9231209649744977
0.8950772123628598
0.8241946532989343
0.9667140528326471
0.8985612811454393
0.9222385885067604
0.941048733562284
0.6552090340891873
0.9103907928496138
0.9886452793516659
0.8713425175815666
0.9944357078004681
0.8298071530107016
0.9668867027380331
0.9169179705748871
0.9204380882530052
0.8669339226922179
0.7046514841588251
0.7925464406144147
0.9338966651193119
0.9062897147703673
0.8617473220886896
0.8884333252003075
0.8916660977958903
0.8490808259791787
0.973108961518196
0.9438782791804193
0.8757066043532017
0.9777129226196438
0.9144624014854028
0.8699342587873902
0.9322175547221094
0.9597614810366351
0.9142400923188019
0.8904387983481373
0.8713713492349903
0.8679080377203653
0.9874349759474866
0.895007180593602
0.8741052896577876
0.8485424715358648
0.874593417825198
0.8763256170115746
0.9167552939826329
0.8552162379389738
0.8353465466721709
0.9389786951250215
0.9607828285323197
0.9606402973698351
0.9048044330051626
0.9858718128306738
0.919468725565229
0.9078337264379676
0.8638528937961868
0.8183546649995668
0.8257613604154026
0.7911886829864809
0.9026859943511731
0.8931503787382433
0.8383973312813012
0.7092865653189095
0.8646124056146214
0.8226405514837609
0.922307317899053
0.8554235031158565
0.907831160303573
0.9598353994983606
0.8443984244767389
0.8252970242010063
0.9075531013129725
0.7917738672169409
0.8617907885685773
0.7563631406387604
0.9125203093156639
0.9398510285440912
0.7798339853672647
0.9020952985202328
0.9404738446648856
0.93819826100846
0.9594957503218131
0.9511899316358279
0.9614601003823383
0.9574922963898224
0.9112174447236263
0.8244226844497553
0.9088449820737178
0.9151818160014583
0.9040384354727711
0.9892815536567726
0.846765696064022
0.8507736497871158
0.8914176022247934
0.8520118062077804
0.9117196924908957
0.9958347161563648
0.9975393969201345
0.9030726843200927
0.8517383307575607
0.910279036312814
0.9673128810122307
0.9915290742508218
0.8780567106759615
0.886281430231008
0.8459277141653354
0.8862700067420394
0.9102859746033061
0.8775469796603164
0.8612764572333711
0.8859570493937162
0.8405115657407193
0.8950053969153337
0.934389484026506
0.9097863823603726
0.8376036144213875
0.8502997034212814
0.9690045948701957
0.9120296010374229
0.9162319942808713
0.8933261719592002
0.8749383261117614
0.8286011622673489
0.8485374924062595
0.9135204951212534
0.798765003662194
0.9142003950057107
0.9227029328758798
0.9589321625884978
0.8627179757706822
0.9275251733991804
0.9058644054154545
0.9262126387807931
0.8507945103628828
0.925493383346228
0.8866794221545389
0.9575480247328592
0.8907685834770314
0.9063025648274442
0.9721996648917457
0.893393356198134
0.9157565730865684
0.9144288189568752
0.8283592051875462
0.9745970946085458
0.9092757704634009
0.9102926489644336
0.8269469693048405
0.992791616255895
0.9377857744942671
0.7618688704454416
0.9101394409131348
0.9793147160965012
0.9138878064406173
0.9218092323963408
0.8529487700252142
0.9690054974834854
0.8747046822627377
0.8896841673221522
0.7839004835333179
0.9340111264596509
0.955568457030507
0.9222704759353526
0.965908827680183
0.9290861706480604
0.9054667140899793
0.9795994860442085
0.9664355894240827
0.8454418457511266
0.8779081559522202
0.9471912015614188
0.9423247212142666
0.9864120280519499
0.7704350721037301
0.8951057195770509
0.7796086034075707
0.8685525915044391
0.9317539470416161
0.8644045600739169
0.8295402254640338
0.9234438064976344
0.9163621223734901
0.8578226423684536
0.8440454074451694
0.9498889741216536
0.8814290804810424
0.8644434267722025
0.8630573198678471
0.9243742136787954
0.9533163586349158
0.847778520436386
0.9134015792422648
0.7840208971135912
0.9667274377072135
0.9091241845895349
0.8774610309974119
0.8827374583235502
0.9624149039244393
0.9112733286397399
0.84994270700521
0.8993768254638426
0.9363706342864114
0.9043965469333682
0.8678590047385039
0.9098695267093774
0.8845323697126104
0.8466661990711292
0.9624854004625398
0.9820594613770925
0.9316075298998368
0.9233897918266201
0.928605146678966
0.9055771250121248
0.9819283118554121
0.9452711841291961
0.8993908725420267
0.8551878862027311
0.9151201111469378
0.8561291000713943
0.8994612158087258
0.875512173244774
0.9354646532113926
0.9095485657978196
0.8697437566042618
0.9129720787361324
0.9545502275790275
0.9021095566757836
0.9120165684202252
0.8874642867705688
0.9404713281724648
0.8689528647235351
0.8645873387917078
0.8803608087075874
0.6997760424804267
0.8667473879142636
0.8935036877027284
0.7704597597552462
0.5451617948430748
0.7409698140563056
0.8430374123787906
0.8183539828608343
0.9410602437843937
0.9024047741193175
0.9865246847755247
0.8660964544509258
0.8436320508899204
0.8412352674611024
0.9797246298640921
0.8789727293181302
0.8840903889245652
0.9185690466745552
0.913774869120153
0.7889810887349881
0.9626087601286122
0.8809372482380492
0.9065293688816773
0.8795061401151142
0.8826142525798553
0.9898480272519132
0.8492105586402351
0.8779462318006441
0.8528877275296622
0.8614114713977759
0.9622977645287916
0.9575393538656504
0.9927145882208381
0.9581352836129622
0.8972616047278242
0.8981247617475956
0.8166024044847862
0.9206773778942202
0.8685911628718153
0.8393121837793566
0.8828992696941468
0.8673870869090354
0.9501697247459145
0.8680106786035924
0.845319243623555
0.8508762257077035
0.843677958166204
0.9462820479610676
0.8808168670660077
0.8259286821543556
0.8801767169188024
0.9971004984456381
0.9402442387786039
0.886480739559655
0.8092662738811667
0.9036776716234738
0.9731883201669493
0.8781142014688645
0.8905644064913926
0.9614095497325097
0.919801068003139
0.9292570180554087
0.838943480984127
0.9273481358532678
0.9859469218132609
0.9012030711403876
0.98167615617635
0.8161429728999382
0.9871015087970018
0.7632635703310823
0.8197406945591578
0.7919287414232716
0.9229811617252289
0.9330391016058073
0.7444600429770336
0.9199164398913074
0.986034670092666
0.9883596318914131
0.8697832107607396
0.9437066119500247
0.9039447371978472
0.9842878201350378
0.8946369121962617
0.5328069197214494
0.8947437507352554
0.8634310870948485
0.9909316617497688
0.9410882834963313
0.8648175388474021
0.9348279912936179
0.9952323106186839
0.8383018049964283
0.9363362586189317
0.8381048841818995
0.8137295159368132
0.9855806919568783
0.8563850297536846
0.9644020039242754
CELL_DATA 4886
TENSORS stress float
-1.0472636324398248e7 933267.9345547215 0.0
933267.9345547215 1.3483141262123e7 0.0
0.0 0.0 0.0

-1.1012761524318544e7 1.0479454258456308e6 0.0
1.0479454258456308e6 5.5136690264702365e6 0.0
0.0 0.0 0.0

-7.687766865761696e6 1.1253354812065076e7 0.0
1.1253354812065076e7 4.712814514778605e6 0.0
0.0 0.0 0.0

-5.801819037534315e6 1.2346856831987256e7 0.0
1.2346856831987256e7 5.834114703787434e6 0.0
0.0 0.0 0.0

-5.610885089604859e6 1.2684248228900962e7 0.0
1.2684248228900962e7 2.2847071299165613e6 0.0
0.0 0.0 0.0

2.31759660434841e6 5.797363795875463e6 0.0
5.797363795875463e6 -4.317885700592395e6 0.0
0.0 0.0 0.0

1.2916331123251233e7 1.2064140779629406e7 0.0
1.2064140779629406e7 2.2739701143396967e6 0.0
0.0 0.0 0.0

4.80586933812211e6 5.977725493559734e6 0.0
5.977725493559734e6 -1.3362084980468811e7 0.0
0.0 0.0 0.0

-1.0417040879651869e7 2.189051263909714e6 0.0
2.189051263909714e6 1.4402339664190276e7 0.0
0.0 0.0 0.0

-2.156006934339743e6 1.2077126948806662e7 0.0
1.2077126948806662e7 4.390845795144891e6 0.0
0.0 0.0 0.0

-3.138878038857686e6 1.1042531378494026e7 0.0
1.1042531378494026e7 -1.3563673701763137e6 0.0
0.0 0.0 0.0

-7.900416303223457e6 1.531801594261963e7 0.0
1.531801594261963e7 4.892100720718918e6 0.0
0.0 0.0 0.0

3.5808106203946453e6 8.248113328061107e6 0.0
8.248113328061107e6 -1.2813759481255576e7 0.0
0.0 0.0 0.0

2.3258164622223016e7 1.4408701113816885e7 0.0
1.4408701113816885e7 1.8072728611819241e6 0.0
0.0 0.0 0.0

-3.3786454529316155e6 1.1337958891241267e7 0.0
1.1337958891241267e7 -1.4580909334458576e6 0.0
0.0 0.0 0.0

1.7475733263212596e6 4.92145237177867e6 0.0
4.92145237177867e6 -6.068203802319919e6 0.0
0.0 0.0 0.0

310902.1454933896 1.0617599793471767e7 0.0
1.0617599793471767e7 -9.072465286316622e6 0.0
0.0 0.0 0.0

1.5224870567531586e6 9.896573468474494e6 0.0
9.896573468474494e6 -1.0346958258305656e7 0.0
0.0 0.0 0.0

-3.564756225038552e6 748191.7089908308 0.0
748191.7089908308 4.474764234942166e6 0.0
0.0 0.0 0.0

-4.525490053428215e6 1.2784632685560452e7 0.0
1.2784632685560452e7 -741633.2742868158 0.0
0.0 0.0 0.0

1.2528264968990362e6 8.272621263010394e6 0.0
8.272621263010394e6 -6.981598833512056e6 0.0
0.0 0.0 0.0

-7.265898066536164e6 1.5288592126560511e7 0.0
1.5288592126560511e7 4.383585417284101e6 0.0
0.0 0.0 0.0

-2.3199933416782357e6 4.8006169013390895e6 0.0
4.8006169013390895e6 1.4594930444803722e6 0.0
0.0 0.0 0.0

-5.1238557850918835e6 1.2287398195747323e7 0.0
1.2287398195747323e7 1.6123498194834867e6 0.0
0.0 0.0 0.0

2.2256423417854263e6 9.444288279529938e6 0.0
9.444288279529938e6 -1.2275419989203358e7 0.0
0.0 0.0 0.0

-1.5263572190790395e6 2.1424459248781353e7 0.0
2.1424459248781353e7 -6.593776475997494e6 0.0
0.0 0.0 0.0

7.943713307425887e6 1.2305986569507059e7 0.0
1.2305986569507059e7 2.612928438543814e6 0.0
0.0 0.0 0.0

-8.369219951812778e6 7.134423200050243e6 0.0
7.134423200050243e6 1.0181570057502583e7 0.0
0.0 0.0 0.0

1.7597589064167007e6 4.925366139198462e6 0.0
4.925366139198462e6 -6.089103266355047e6 0.0
0.0 0.0 0.0

42284.284463916614 2.6928848601686964e6 0.0
2.6928848601686964e6 -1.1663569435469485e6 0.0
0.0 0.0 0.0

-2.9554274747657725e6 5.11393363504344e6 0.0
5.11393363504344e6 1.0144635329967923e6 0.0
0.0 0.0 0.0

773702.489669129 7.133066757620511e6 0.0
7.133066757620511e6 -4.855921085453083e6 0.0
0.0 0.0 0.0

-1.268839064803862e6 9.90247084759454e6 0.0
9.90247084759454e6 2.135521294772255e6 0.0
0.0 0.0 0.0

-412776.07493944303 1.1784499411698353e7 0.0
1.1784499411698353e7 -922240.9700345437 0.0
0.0 0.0 0.0

-5.6331665812400095e6 1.1011940900796719e7 0.0
1.1011940900796719e7 3.2515595503369193e6 0.0
0.0 0.0 0.0

-1.964054208597317e6 4.433963912197256e6 0.0
4.433963912197256e6 -33010.689424521406 0.0
0.0 0.0 0.0

-643474.8218282764 8.11743822581327e6 0.0
8.11743822581327e6 -3.5879709375146367e6 0.0
0.0 0.0 0.0

-5.134679814604256e6 1.104111028628454e7 0.0
1.104111028628454e7 3.0626219749872265e6 0.0
0.0 0.0 0.0

518066.0126922582 1.0640564938284308e7 0.0
1.0640564938284308e7 -1.1362868467410503e7 0.0
0.0 0.0 0.0

-6.698840139710255e6 1.3327731962041534e7 0.0
1.3327731962041534e7 4.238793160743583e6 0.0
0.0 0.0 0.0

3.2602377843559915e6 8.373665549680759e6 0.0
8.373665549680759e6 -1.384271315114702e7 0.0
0.0 0.0 0.0

-8.231567000911448e6 1.1600914160765981e7 0.0
1.1600914160765981e7 4.976062559654368e6 0.0
0.0 0.0 0.0

-6.4015752830281705e6 1.3023189714672284e7 0.0
1.3023189714672284e7 3.903808696726489e6 0.0
0.0 0.0 0.0

-4.024387011088092e6 3.4485751436136034e6 0.0
3.4485751436136034e6 4.41050617670127e6 0.0
0.0 0.0 0.0

1.0473794441271075e6 8.312095687521777e6 0.0
8.312095687521777e6 -7.65625742754394e6 0.0
0.0 0.0 0.0

-7.526091889447361e6 8.524658048493572e6 0.0
8.524658048493572e6 9.748137430415135e6 0.0
0.0 0.0 0.0

-1.6036392663484039e6 1.2135599689311855e7 0.0
1.2135599689311855e7 -4.244225120319042e6 0.0
0.0 0.0 0.0

-549055.521978365 7.920936481583788e6 0.0
7.920936481583788e6 -3.9580893199808802e6 0.0
0.0 0.0 0.0

4.111119187445513e6 5.75849033899991e6 0.0
5.75849033899991e6 -1.162362247055478e7 0.0
0.0 0.0 0.0

374664.78699800035 1.0800433409492435e7 0.0
1.0800433409492435e7 1.248882902814906e6 0.0
0.0 0.0 0.0

-5.719438552122936e6 1.3219747709615787e7 0.0
1.3219747709615787e7 3.0936350927958474e6 0.0
0.0 0.0 0.0

-6.117562136394603e6 -433507.24918102234 0.0
-433507.24918102234 5.207932491932347e6 0.0
0.0 0.0 0.0

4.205700061698905e6 5.711712142433622e6 0.0
5.711712142433622e6 -1.1773951288491026e7 0.0
0.0 0.0 0.0

-5.105699399499307e6 1.2355489179633716e7 0.0
1.2355489179633716e7 2.5665657613494676e6 0.0
0.0 0.0 0.0

-314348.31626261317 1.1374737890804974e7 0.0
1.1374737890804974e7 2.0667631133091042e6 0.0
0.0 0.0 0.0

-5.044322209013002e6 1.2681116802983182e7 0.0
1.2681116802983182e7 3.6895688441896895e6 0.0
0.0 0.0 0.0

4.892207411226504e6 6.266939607189343e6 0.0
6.266939607189343e6 -1.422913166210389e7 0.0
0.0 0.0 0.0

-6.506198433572449e6 1.3460900618160637e7 0.0
1.3460900618160637e7 4.565381919181654e6 0.0
0.0 0.0 0.0

-3.3948237436815747e6 1.3009512601140477e7 0.0
1.3009512601140477e7 8.749320504360318e6 0.0
0.0 0.0 0.0

1.793157910993882e6 7.912845527776743e6 0.0
7.912845527776743e6 -8.325931830714914e6 0.0
0.0 0.0 0.0

573938.5324290441 9.18552543358377e6 0.0
9.18552543358377e6 -6.747391019195624e6 0.0
0.0 0.0 0.0

7.3823605033062175e6 1.1682159971465666e7 0.0
1.1682159971465666e7 -9.317281197148107e6 0.0
0.0 0.0 0.0

-1.6803748740783562e6 1.117806146639812e7 0.0
1.117806146639812e7 -1.6284251115982682e6 0.0
0.0 0.0 0.0

-534445.9483323183 3.216345579247039e6 0.0
3.216345579247039e6 -1.1501684593135342e6 0.0
0.0 0.0 0.0

463458.6838022566 7.512521194044236e6 0.0
7.512521194044236e6 -3.9262863393077306e6 0.0
0.0 0.0 0.0

3.769239299358959e6 6.148050901012579e6 0.0
6.148050901012579e6 -1.1480649965835582e7 0.0
0.0 0.0 0.0

3.9036207785335025e6 7.677282873918729e6 0.0
7.677282873918729e6 -1.2792819165311154e7 0.0
0.0 0.0 0.0

-5.312602714943097e6 1.2091406598146375e7 0.0
1.2091406598146375e7 2.0747211352261994e6 0.0
0.0 0.0 0.0

-4.396693326936193e6 1.2297913032485342e7 0.0
1.2297913032485342e7 7.345775609661724e6 0.0
0.0 0.0 0.0

4.566137020370036e6 1.1669713521498492e7 0.0
1.1669713521498492e7 3.567087388190318e6 0.0
0.0 0.0 0.0

-5.178795869455451e6 3.7052091923511894e6 0.0
3.7052091923511894e6 3.9857041346320026e6 0.0
0.0 0.0 0.0

2.4690846781273787e6 9.299588579837518e6 0.0
9.299588579837518e6 -1.1555971840310622e7 0.0
0.0 0.0 0.0

337547.24980608 1.068597036763774e7 0.0
1.068597036763774e7 -1.1211719988246288e7 0.0
0.0 0.0 0.0

-4.765563757774837e6 1.2916929247661427e7 0.0
1.2916929247661427e7 1.4216100669913074e7 0.0
0.0 0.0 0.0

-6.572708093490157e6 1.1875718728682939e7 0.0
1.1875718728682939e7 6.583626899818705e6 0.0
0.0 0.0 0.0

-7.668714785589008e6 8.532671107531924e6 0.0
8.532671107531924e6 9.2513832880586e6 0.0
0.0 0.0 0.0

-8.431130705740154e6 4.865151484391376e6 0.0
4.865151484391376e6 9.266304242704665e6 0.0
0.0 0.0 0.0

604650.4844447002 1.04706183967536e7 0.0
1.04706183967536e7 -8.90146472613104e6 0.0
0.0 0.0 0.0

920192.8557455218 1.0763776169875262e7 0.0
1.0763776169875262e7 -6.851024592063482e6 0.0
0.0 0.0 0.0

106311.89166170172 9.209789798156502e6 0.0
9.209789798156502e6 -6.308559229541275e6 0.0
0.0 0.0 0.0

2.438146667255524e6 1.5160094418714006e7 0.0
1.5160094418714006e7 -6.514794052597667e6 0.0
0.0 0.0 0.0

-5.798609232818166e6 -1.8452564846881737e6 0.0
-1.8452564846881737e6 6.621584133350331e6 0.0
0.0 0.0 0.0

1.8125042418551175e6 9.913256840207689e6 0.0
9.913256840207689e6 -4.075291389796219e6 0.0
0.0 0.0 0.0

-8.3918113334346e6 1.6280783564797642e7 0.0
1.6280783564797642e7 4.408914027092714e6 0.0
0.0 0.0 0.0

-5.62656947163995e6 1.2376030278711936e7 0.0
1.2376030278711936e7 5.886607672235295e6 0.0
0.0 0.0 0.0

2.1667417880841987e6 5.579430785745798e6 0.0
5.579430785745798e6 -7.691164729272634e6 0.0
0.0 0.0 0.0

884414.9331863376 6.849541806510458e6 0.0
6.849541806510458e6 -5.175624217247666e6 0.0
0.0 0.0 0.0

-586336.0124605283 9.168581225378769e6 0.0
9.168581225378769e6 1.8150694247737296e6 0.0
0.0 0.0 0.0

-6.987365195598032e6 2.3634014474578727e7 0.0
2.3634014474578727e7 -1.0067426258510144e7 0.0
0.0 0.0 0.0

-1.2144314158463161e7 1.677771128040704e6 0.0
1.677771128040704e6 1.743681312064323e7 0.0
0.0 0.0 0.0

1.3358082443525966e6 1.159855857243101e7 0.0
1.159855857243101e7 -5.876054181426053e6 0.0
0.0 0.0 0.0

786799.730895563 1.0781405210696006e7 0.0
1.0781405210696006e7 -7.650955723580844e6 0.0
0.0 0.0 0.0

-198742.35778523237 7.588303335303402e6 0.0
7.588303335303402e6 -4.223462028716929e6 0.0
0.0 0.0 0.0

1.1646019020927858e6 7.408867541061839e6 0.0
7.408867541061839e6 -4.019349844977501e6 0.0
0.0 0.0 0.0

770852.5370568433 1.2634766129159443e7 0.0
1.2634766129159443e7 -4.967332969285698e6 0.0
0.0 0.0 0.0

349427.5548254042 1.0669264808208123e7 0.0
1.0669264808208123e7 -1.0259176735353451e7 0.0
0.0 0.0 0.0

4.598894041085501e6 5.898499690589511e6 0.0
5.898499690589511e6 -1.320224577520448e7 0.0
0.0 0.0 0.0

-6.678815676432237e6 1.1772632527601847e7 0.0
1.1772632527601847e7 6.112305199110873e6 0.0
0.0 0.0 0.0

2.646572355462266e6 7.752919459023501e6 0.0
7.752919459023501e6 -1.0932841267109051e7 0.0
0.0 0.0 0.0

5.08057769369791e6 6.385813823876989e6 0.0
6.385813823876989e6 -1.4558262617625643e7 0.0
0.0 0.0 0.0

-3.1297307526465836e6 1.2083754872031983e7 0.0
1.2083754872031983e7 3.66331708081738e6 0.0
0.0 0.0 0.0

-3.4467957308409335e6 8.60558624059068e6 0.0
8.60558624059068e6 -768932.378953611 0.0
0.0 0.0 0.0

-2.9760351638735505e6 4.99620025711501e6 0.0
4.99620025711501e6 2.0846624360111994e6 0.0
0.0 0.0 0.0

-5.706143755027918e6 1.291612574865845e7 0.0
1.291612574865845e7 3.3512343687500632e6 0.0
0.0 0.0 0.0

-25815.052033466753 7.606173541399279e6 0.0
7.606173541399279e6 -3.459815397851101e6 0.0
0.0 0.0 0.0

-2.6422709437721362e6 6.7946278714943165e6 0.0
6.7946278714943165e6 755597.4453426887 0.0
0.0 0.0 0.0

-6.393293392918071e6 -1.1934227537760572e6 0.0
-1.1934227537760572e6 8.29552654637644e6 0.0
0.0 0.0 0.0

170014.94663807866 9.156524538473967e6 0.0
9.156524538473967e6 -5.924148129307821e6 0.0
0.0 0.0 0.0

-7.165184391909832e6 1.5051116473595824e7 0.0
1.5051116473595824e7 4.402263198284982e6 0.0
0.0 0.0 0.0

-1.4421648131860339e6 4.671687276178705e6 0.0
4.671687276178705e6 322149.25287477014 0.0
0.0 0.0 0.0

3.543723394018417e6 7.946374050293354e6 0.0
7.946374050293354e6 -1.3796032396651875e7 0.0
0.0 0.0 0.0

-924458.6772071016 7.708936015821308e6 0.0
7.708936015821308e6 -3.007460696189618e6 0.0
0.0 0.0 0.0

-50296.417600825895 1.0895939943235006e7 0.0
1.0895939943235006e7 4.541226712659682e6 0.0
0.0 0.0 0.0

1.0217545566424562e7 1.3469952910507374e7 0.0
1.3469952910507374e7 2.4335268216129146e6 0.0
0.0 0.0 0.0

1.830202524443023e6 6.212581045243801e6 0.0
6.212581045243801e6 -7.124942611888277e6 0.0
0.0 0.0 0.0

-251484.4097160329 1.0839415368624542e7 0.0
1.0839415368624542e7 -1.1056052473536717e7 0.0
0.0 0.0 0.0

1.8986933089971486e6 6.320015719518265e6 0.0
6.320015719518265e6 -7.465955778533925e6 0.0
0.0 0.0 0.0

2.404976872009621e6 5.539226203089697e6 0.0
5.539226203089697e6 -8.157816170199089e6 0.0
0.0 0.0 0.0

1.100923051550556e7 1.0384147894318521e7 0.0
1.0384147894318521e7 -297837.9442355428 0.0
0.0 0.0 0.0

-1.4009218603959601e7 1.5407431256299902e7 0.0
1.5407431256299902e7 9.758798028607257e6 0.0
0.0 0.0 0.0

711571.9472828945 1.0467905705780188e7 0.0
1.0467905705780188e7 -1.0768526443199718e7 0.0
0.0 0.0 0.0

-4.0531617103790874e6 1.2116562770275893e7 0.0
1.2116562770275893e7 365598.2106246457 0.0
0.0 0.0 0.0

3.673366408212104e6 5.860199267131134e6 0.0
5.860199267131134e6 -1.0119968206061177e7 0.0
0.0 0.0 0.0

-6.085687366522076e6 1.2673453390783904e7 0.0
1.2673453390783904e7 4.194397246117811e6 0.0
0.0 0.0 0.0

-4.0141248493574704e6 1.715088546126127e7 0.0
1.715088546126127e7 -1.0000372231709973e6 0.0
0.0 0.0 0.0

-1.109234203111527e7 2.709983436370978e6 0.0
2.709983436370978e6 1.3379886852663975e7 0.0
0.0 0.0 0.0

-8.882533160560481e6 2.2496352014687017e7 0.0
2.2496352014687017e7 -3.396483858719717e6 0.0
0.0 0.0 0.0

-537858.6935017457 1.1928467628604634e7 0.0
1.1928467628604634e7 -1.0743953847160828e6 0.0
0.0 0.0 0.0

4.312566158919818e6 5.705400594298064e6 0.0
5.705400594298064e6 -1.2062582130190572e7 0.0
0.0 0.0 0.0

8.468071398990562e6 9.424315380112348e6 0.0
9.424315380112348e6 -4.21494595930689e6 0.0
0.0 0.0 0.0

-3.2639711090078577e6 1.1875315806061607e7 0.0
1.1875315806061607e7 3.6784485247572297e6 0.0
0.0 0.0 0.0

3.3963469032821436e6 6.872783576602872e6 0.0
6.872783576602872e6 -1.1604237334111536e7 0.0
0.0 0.0 0.0

-4.1170458254295965e6 1.3039296989796283e7 0.0
1.3039296989796283e7 -317999.1580367916 0.0
0.0 0.0 0.0

671321.8250614086 1.1663995625219515e7 0.0
1.1663995625219515e7 -5.868033589919454e6 0.0
0.0 0.0 0.0

-1.6424436923246828e6 1.0628096088448953e7 0.0
1.0628096088448953e7 -2.524899195852309e6 0.0
0.0 0.0 0.0

1.1105186084106956e6 1.0821464940839743e7 0.0
1.0821464940839743e7 -6.761532503498678e6 0.0
0.0 0.0 0.0

71536.38667480717 1.063423142328083e7 0.0
1.063423142328083e7 4.8059245988053195e6 0.0
0.0 0.0 0.0

4.642273483076734e6 7.833770440011217e6 0.0
7.833770440011217e6 -1.6994220882317834e7 0.0
0.0 0.0 0.0

-5.337300987514481e6 1.283541539441268e7 0.0
1.283541539441268e7 5.238709855588069e6 0.0
0.0 0.0 0.0

1.5062398376105705e6 7.150626298795949e6 0.0
7.150626298795949e6 -4.001661068828296e6 0.0
0.0 0.0 0.0

-8.0647145872244695e6 6.123979911690959e6 0.0
6.123979911690959e6 1.0833790303863404e7 0.0
0.0 0.0 0.0

1.9824887370886067e6 5.537814787776648e6 0.0
5.537814787776648e6 -6.903133451011689e6 0.0
0.0 0.0 0.0

-8.139016069369765e6 -3.316080349297197e6 0.0
-3.316080349297197e6 1.2308725047829024e7 0.0
0.0 0.0 0.0

567467.1612153873 9.971482722454552e6 0.0
9.971482722454552e6 -7.320131988403262e6 0.0
0.0 0.0 0.0

2.529467222606747e6 5.81709898730554e6 0.0
5.81709898730554e6 -5.357100448069029e6 0.0
0.0 0.0 0.0

-223933.74463422352 1.1320898120610593e7 0.0
1.1320898120610593e7 2.128972033618106e6 0.0
0.0 0.0 0.0

-6.496030438764966e6 1.310975582081025e7 0.0
1.310975582081025e7 4.8594310432060305e6 0.0
0.0 0.0 0.0

-8.746051821619537e6 -2.8579518719249708e6 0.0
-2.8579518719249708e6 1.1662516080852346e7 0.0
0.0 0.0 0.0

-1.762019193261738e6 1.1848542751588197e7 0.0
1.1848542751588197e7 1.2377239141000584e6 0.0
0.0 0.0 0.0

979078.5594278693 1.3126324788653493e7 0.0
1.3126324788653493e7 -5.095655170882466e6 0.0
0.0 0.0 0.0

-4.976861938306164e6 1.1778678426462393e7 0.0
1.1778678426462393e7 1.6392117066456215e6 0.0
0.0 0.0 0.0

-2.86819892290774e6 1.3099904068461075e7 0.0
1.3099904068461075e7 255558.40894132934 0.0
0.0 0.0 0.0

-4.787787310217855e6 1.1849410754883371e7 0.0
1.1849410754883371e7 2.2222744238058412e6 0.0
0.0 0.0 0.0

-1.1082460774701978e6 9.84765966943152e6 0.0
9.84765966943152e6 -8.375819527116884e6 0.0
0.0 0.0 0.0

3.5650263681386365e6 1.4347872282881033e7 0.0
1.4347872282881033e7 -8.997004342412295e6 0.0
0.0 0.0 0.0

679389.4696589718 1.0690701330820065e7 0.0
1.0690701330820065e7 -7.771831184382356e6 0.0
0.0 0.0 0.0

-5.062159578989081e6 1.0820790624217262e7 0.0
1.0820790624217262e7 6.94180882875949e6 0.0
0.0 0.0 0.0

-4.353061430344363e6 1.0884405052904028e7 0.0
1.0884405052904028e7 6.353168762080931e6 0.0
0.0 0.0 0.0

1.514123832813235e6 8.054150138604133e6 0.0
8.054150138604133e6 -8.0755386902868e6 0.0
0.0 0.0 0.0

-2.5200957739125895e6 6.368617862983451e6 0.0
6.368617862983451e6 367678.24995540886 0.0
0.0 0.0 0.0

-8.470534273379982e6 1.4955090792574903e7 0.0
1.4955090792574903e7 6.124910670851194e6 0.0
0.0 0.0 0.0

-7.406215986020378e6 1.0129447019938441e7 0.0
1.0129447019938441e7 6.969170520905612e6 0.0
0.0 0.0 0.0

-7.704465627539495e6 1.691721210620964e7 0.0
1.691721210620964e7 4.479024258200223e6 0.0
0.0 0.0 0.0

412376.6053725346 9.987232442726688e6 0.0
9.987232442726688e6 -7.896762087970665e6 0.0
0.0 0.0 0.0

-9.071728552027073e6 1.2595713565206049e7 0.0
1.2595713565206049e7 231389.91673027165 0.0
0.0 0.0 0.0

4.654053455115635e6 6.4023022194599975e6 0.0
6.4023022194599975e6 -1.317387948252526e7 0.0
0.0 0.0 0.0

-3.805153667353271e6 1.811248233124934e7 0.0
1.811248233124934e7 -908286.1766295269 0.0
0.0 0.0 0.0

-1.1985927186308581e7 1.1327577331726441e7 0.0
1.1327577331726441e7 9.518396143683853e6 0.0
0.0 0.0 0.0

-2.5531385959614906e6 1.182048601416e7 0.0
1.182048601416e7 3.988004985727786e6 0.0
0.0 0.0 0.0

-1.6953689231333945e7 1.0106597891096786e7 0.0
1.0106597891096786e7 1.054465563315828e7 0.0
0.0 0.0 0.0

4.454846846572539e6 5.66816461487292e6 0.0
5.66816461487292e6 -1.2308089876405653e7 0.0
0.0 0.0 0.0

-7.147290914477147e6 1.022860066919315e7 0.0
1.022860066919315e7 8.047021599967681e6 0.0
0.0 0.0 0.0

-1.6301146745927325e6 4.574771371743034e6 0.0
4.574771371743034e6 -390803.61539573484 0.0
0.0 0.0 0.0

1.8242491312245936e6 5.215353489722122e6 0.0
5.215353489722122e6 -7.344617916254629e6 0.0
0.0 0.0 0.0

389150.9772401212 1.18893170056946e7 0.0
1.18893170056946e7 -6.209307479950272e6 0.0
0.0 0.0 0.0

-1.3775623206105575e7 1.5682975053969959e7 0.0
1.5682975053969959e7 1.0611289445444426e7 0.0
0.0 0.0 0.0

-1.001136328031836e7 1.6709753800581284e6 0.0
1.6709753800581284e6 7.753740289542201e6 0.0
0.0 0.0 0.0

-1.4016257077507414e7 1.1123702741463613e7 0.0
1.1123702741463613e7 5.352218773724917e6 0.0
0.0 0.0 0.0

8.268089650166609e6 1.003697177394616e7 0.0
1.003697177394616e7 2.06516532795776e6 0.0
0.0 0.0 0.0

1.3758895138428807e6 1.1994044449305136e7 0.0
1.1994044449305136e7 -2.025102056640537e7 0.0
0.0 0.0 0.0

774346.2853263128 1.1168055457737595e7 0.0
1.1168055457737595e7 -7.043293785391437e6 0.0
0.0 0.0 0.0

-5.029679213448223e6 1.0760076227594765e7 0.0
1.0760076227594765e7 6.924420607896745e6 0.0
0.0 0.0 0.0

-2.6284762191216075e6 1.297318375768801e7 0.0
1.297318375768801e7 -2.925602304549094e6 0.0
0.0 0.0 0.0

-5.45974947147329e6 1.293371313302358e7 0.0
1.293371313302358e7 2.721319869638322e6 0.0
0.0 0.0 0.0

-187656.28495768507 1.0717638752867837e7 0.0
1.0717638752867837e7 446295.21471337636 0.0
0.0 0.0 0.0

-7.646404776613353e6 1.6418718506170841e7 0.0
1.6418718506170841e7 4.501101846120441e6 0.0
0.0 0.0 0.0

-2.162033789757619e6 4.6460354768913e6 0.0
4.6460354768913e6 614055.5983512152 0.0
0.0 0.0 0.0

1.2215897403060917e7 1.2988581062156625e7 0.0
1.2988581062156625e7 -2.9790980013350416e6 0.0
0.0 0.0 0.0

-5.201340573612673e6 1.3975739812093602e7 0.0
1.3975739812093602e7 -318290.0397007931 0.0
0.0 0.0 0.0

-127871.43582686089 1.0592810546084851e7 0.0
1.0592810546084851e7 947397.3347919565 0.0
0.0 0.0 0.0

-4.552934107747672e6 1.2346367037314689e7 0.0
1.2346367037314689e7 2.241946594387189e6 0.0
0.0 0.0 0.0

-7.876573025951889e6 9.135117130454497e6 0.0
9.135117130454497e6 1.0420690052630637e7 0.0
0.0 0.0 0.0

-4.36444014997066e6 1.274608089587401e7 0.0
1.274608089587401e7 -76725.05963521893 0.0
0.0 0.0 0.0

3.033674598126552e6 7.346229425905111e6 0.0
7.346229425905111e6 -1.0576185559134493e7 0.0
0.0 0.0 0.0

-5.199630223648187e6 1.0470571756099334e7 0.0
1.0470571756099334e7 2.772780614452253e6 0.0
0.0 0.0 0.0

-2.842466225747313e6 1.2554752258642487e7 0.0
1.2554752258642487e7 1.323148707773829e6 0.0
0.0 0.0 0.0

824885.9387904657 6.709594388279489e6 0.0
6.709594388279489e6 -5.647494207377005e6 0.0
0.0 0.0 0.0

-5.5115504268330615e6 1.2620819025883216e7 0.0
1.2620819025883216e7 5.296163760784326e6 0.0
0.0 0.0 0.0

-1.1211681294250619e7 -389244.45297376707 0.0
-389244.45297376707 2.0387165967152633e7 0.0
0.0 0.0 0.0

-496723.9060371763 7.698168080280222e6 0.0
7.698168080280222e6 -3.019364714793523e6 0.0
0.0 0.0 0.0

-7.242017437029454e6 1.038274951688781e7 0.0
1.038274951688781e7 4.824304112490113e6 0.0
0.0 0.0 0.0

7.352150329153135e6 1.3711063766221521e7 0.0
1.3711063766221521e7 3.1736776292740195e6 0.0
0.0 0.0 0.0

1.5674325686577233e6 9.862646678716257e6 0.0
9.862646678716257e6 -1.0025709847139243e7 0.0
0.0 0.0 0.0

3.5579309121743888e6 6.715991541398086e6 0.0
6.715991541398086e6 -1.1002692561454173e7 0.0
0.0 0.0 0.0

3.480083614482055e6 1.0291628211802585e7 0.0
1.0291628211802585e7 -2.8501461352847507e6 0.0
0.0 0.0 0.0

-6.232322781742757e6 4.1123764511080673e6 0.0
4.1123764511080673e6 1.0366731565331282e7 0.0
0.0 0.0 0.0

-5.107512048985362e6 1.2497875792083422e7 0.0
1.2497875792083422e7 2.4273496592306863e6 0.0
0.0 0.0 0.0

-3.603029418559865e6 1.1361153332582105e7 0.0
1.1361153332582105e7 -1.0729886085613645e6 0.0
0.0 0.0 0.0

-3.5091474730663453e6 1.184173152530624e7 0.0
1.184173152530624e7 -1.948642826348067e6 0.0
0.0 0.0 0.0

-426924.3156915901 1.138428080703868e7 0.0
1.138428080703868e7 -2.4004743413274055e6 0.0
0.0 0.0 0.0

547903.4757346972 7.005999246352227e6 0.0
7.005999246352227e6 -5.219634605483012e6 0.0
0.0 0.0 0.0

7.178027655266279e6 1.1429248770383466e7 0.0
1.1429248770383466e7 -1.9521187605431373e6 0.0
0.0 0.0 0.0

-142709.1108903779 1.0857217167722473e7 0.0
1.0857217167722473e7 243669.48220208628 0.0
0.0 0.0 0.0

-8.195763421215813e6 1.449266435701988e7 0.0
1.449266435701988e7 6.3037825725860745e6 0.0
0.0 0.0 0.0

-1.9962086074055135e7 5.554378753791112e6 0.0
5.554378753791112e6 1.139441338822786e7 0.0
0.0 0.0 0.0

1.7156439500840511e6 5.261266124229886e6 0.0
5.261266124229886e6 -6.74767659232309e6 0.0
0.0 0.0 0.0

-490641.4586484459 1.1695085785605917e7 0.0
1.1695085785605917e7 83542.81869053247 0.0
0.0 0.0 0.0

-427683.0763023738 9.559571091776358e6 0.0
9.559571091776358e6 -8.004130953618302e6 0.0
0.0 0.0 0.0

403489.87475538114 1.1044376339971907e7 0.0
1.1044376339971907e7 -8.3315005148326205e6 0.0
0.0 0.0 0.0

-3.8603163277985565e6 141511.4824020821 0.0
141511.4824020821 3.593074696928011e6 0.0
0.0 0.0 0.0

374839.8235997837 9.100149543498578e6 0.0
9.100149543498578e6 -6.745485129973279e6 0.0
0.0 0.0 0.0

-1.1133904935463886e6 1.1625353219321398e7 0.0
1.1625353219321398e7 -1.1222199655544035e7 0.0
0.0 0.0 0.0

613865.2435820154 8.935894660592383e6 0.0
8.935894660592383e6 -7.125053985727206e6 0.0
0.0 0.0 0.0

69124.03114352096 1.2242300589195877e7 0.0
1.2242300589195877e7 -5.731599739990291e6 0.0
0.0 0.0 0.0

6.918994343335164e6 1.2469474727320116e7 0.0
1.2469474727320116e7 3.4031875767172095e6 0.0
0.0 0.0 0.0

-1.0345281340848994e7 5.9263638142494075e6 0.0
5.9263638142494075e6 1.422337132352281e7 0.0
0.0 0.0 0.0

-3.2540717029969436e6 1.3170440191832652e7 0.0
1.3170440191832652e7 116952.75968923 0.0
0.0 0.0 0.0

-393652.41959447274 1.099334850818846e7 0.0
1.099334850818846e7 -1.430939019988569e6 0.0
0.0 0.0 0.0

-4.471614710374372e6 1.0300705737741413e7 0.0
1.0300705737741413e7 499839.2995755102 0.0
0.0 0.0 0.0

5.33594527252876e6 1.347979897457165e7 0.0
1.347979897457165e7 4.281741277486086e6 0.0
0.0 0.0 0.0

-5.256647408284604e6 1.2738327497730441e7 0.0
1.2738327497730441e7 5.487472881003747e6 0.0
0.0 0.0 0.0

2.000292625721584e6 1.054529437295278e7 0.0
1.054529437295278e7 -4.964907560801899e6 0.0
0.0 0.0 0.0

-6.179021207796428e6 1.3757507721935332e7 0.0
1.3757507721935332e7 3.1544790701432973e6 0.0
0.0 0.0 0.0

-5.309138281996356e6 1.0581198669727061e7 0.0
1.0581198669727061e7 3.5957608289000727e6 0.0
0.0 0.0 0.0

-1.2275929753850542e7 -3.3479956080641723e6 0.0
-3.3479956080641723e6 3.639985113608317e7 0.0
0.0 0.0 0.0

-1.815869123944344e6 1.2008833370740363e7 0.0
1.2008833370740363e7 -5.015742157193424e6 0.0
0.0 0.0 0.0

-6.298733744108503e6 1.32483608944088e7 0.0
1.32483608944088e7 4.387139026148029e6 0.0
0.0 0.0 0.0

2.3182262341363393e6 6.469580641348703e6 0.0
6.469580641348703e6 -3.8939504137931825e6 0.0
0.0 0.0 0.0

-7.501025259799732e6 7.3512361313399e6 0.0
7.3512361313399e6 1.0334127729494462e7 0.0
0.0 0.0 0.0

-2.561381602082464e6 7.993102914726662e6 0.0
7.993102914726662e6 1.5694824598832328e6 0.0
0.0 0.0 0.0

2.749852678264023e6 5.7505442635192815e6 0.0
5.7505442635192815e6 -9.011042212159075e6 0.0
0.0 0.0 0.0

-8.597349916647343e6 1.5182773185339006e7 0.0
1.5182773185339006e7 6.69500653655123e6 0.0
0.0 0.0 0.0

526234.1580614988 9.085066550376426e6 0.0
9.085066550376426e6 -6.211661063060142e6 0.0
0.0 0.0 0.0

-7.298434785769988e6 1.0044660508570032e7 0.0
1.0044660508570032e7 8.445474241528913e6 0.0
0.0 0.0 0.0

5.051637372499809e6 7.5826877230269145e6 0.0
7.5826877230269145e6 -1.5683090440596092e7 0.0
0.0 0.0 0.0

-7.940491611510679e6 1.424366900943873e7 0.0
1.424366900943873e7 6.136217814427307e6 0.0
0.0 0.0 0.0

-1.8437843563046441e6 1.0427950343187662e7 0.0
1.0427950343187662e7 -9.026096424690453e6 0.0
0.0 0.0 0.0

1.8318470249902925e6 5.291354406382662e6 0.0
5.291354406382662e6 -5.572259459351603e6 0.0
0.0 0.0 0.0

-148205.53793553414 7.431293485170645e6 0.0
7.431293485170645e6 -3.415509146202307e6 0.0
0.0 0.0 0.0

-1.3274212437874828e7 1.175944855707377e7 0.0
1.175944855707377e7 8.873424122388843e6 0.0
0.0 0.0 0.0

-2067.7721914977883 1.0764365653781805e7 0.0
1.0764365653781805e7 1.3083770172451648e6 0.0
0.0 0.0 0.0

-1.2202413994302107e7 1.5693490055301476e7 0.0
1.5693490055301476e7 9.0463098549986e6 0.0
0.0 0.0 0.0

-4.6985943133511655e6 3.69603041302014e6 0.0
3.69603041302014e6 5.595510181568598e6 0.0
0.0 0.0 0.0

4.677862001431516e6 9.057760457581019e6 0.0
9.057760457581019e6 -1.6451865300858982e7 0.0
0.0 0.0 0.0

1.791992047422923e7 9.20961522269611e6 0.0
9.20961522269611e6 -9.816127406750517e6 0.0
0.0 0.0 0.0

-5.429707477241358e6 1.2784348160347432e7 0.0
1.2784348160347432e7 2.830573915474196e6 0.0
0.0 0.0 0.0

-6.825093826750597e6 1.3234703352854846e7 0.0
1.3234703352854846e7 5.695083792123128e6 0.0
0.0 0.0 0.0

-5.385932463614781e6 1.1662280828423973e7 0.0
1.1662280828423973e7 3.4462012001335253e6 0.0
0.0 0.0 0.0

-3.6766960536322435e6 1.4154654499240523e7 0.0
1.4154654499240523e7 1.7652225718298912e7 0.0
0.0 0.0 0.0

3.3197123671549493e6 6.02149231845842e6 0.0
6.02149231845842e6 -1.0365958586048048e7 0.0
0.0 0.0 0.0

-774705.8114378611 8.201270062343496e6 0.0
8.201270062343496e6 -3.5792646062860596e6 0.0
0.0 0.0 0.0

-6.010244588413009e6 1.720286146522589e7 0.0
1.720286146522589e7 -184048.93154566502 0.0
0.0 0.0 0.0

2.648709436778864e6 8.649661655956415e6 0.0
8.649661655956415e6 -1.2174914026142156e7 0.0
0.0 0.0 0.0

-1.2748491919359375e7 2.537006372115814e6 0.0
2.537006372115814e6 8.840033142081104e6 0.0
0.0 0.0 0.0

-3.1714992070284593e6 1.225312415686344e7 0.0
1.225312415686344e7 1.0923937267905332e6 0.0
0.0 0.0 0.0

-755540.3008895244 8.077147820306845e6 0.0
8.077147820306845e6 -836757.6856254063 0.0
0.0 0.0 0.0

786438.7814108706 8.957057931286646e6 0.0
8.957057931286646e6 -6.553840419086765e6 0.0
0.0 0.0 0.0

-3.451927019666441e6 1.3109911269063944e7 0.0
1.3109911269063944e7 8.299443838070092e6 0.0
0.0 0.0 0.0

-2.710231368871077e6 1.7336709785406537e7 0.0
1.7336709785406537e7 -2.453293388282492e6 0.0
0.0 0.0 0.0

-1.748155838666823e7 -4.662035676472155e6 0.0
-4.662035676472155e6 9.190368653967027e6 0.0
0.0 0.0 0.0

4.798527927229043e6 2.030554229094703e7 0.0
2.030554229094703e7 -1.0393698851225238e7 0.0
0.0 0.0 0.0

-4.572958700250208e6 1.8046536285941597e7 0.0
1.8046536285941597e7 -3.5244628814197746e6 0.0
0.0 0.0 0.0

1.5184376367359771e6 5.3081439429576555e6 0.0
5.3081439429576555e6 -6.268706077108753e6 0.0
0.0 0.0 0.0

-6.635915582580931e6 1.3146134887723258e7 0.0
1.3146134887723258e7 4.357302947886286e6 0.0
0.0 0.0 0.0

1.0386998892640151e7 1.040609493151039e7 0.0
1.040609493151039e7 -443854.80177974794 0.0
0.0 0.0 0.0

-1.281500924046315e7 1.7138668211048201e6 0.0
1.7138668211048201e6 2.199617931059564e7 0.0
0.0 0.0 0.0

-2.103079656649507e6 1.195413502195634e7 0.0
1.195413502195634e7 -4.505422407994715e6 0.0
0.0 0.0 0.0

4.0340755727012088e6 1.1842585806894764e7 0.0
1.1842585806894764e7 3.3582558284876407e6 0.0
0.0 0.0 0.0

536026.2668370241 1.201099699937902e7 0.0
1.201099699937902e7 -6.177799057629869e6 0.0
0.0 0.0 0.0

3.8450709386651227e6 6.165900710954789e6 0.0
6.165900710954789e6 -1.1024353977313554e7 0.0
0.0 0.0 0.0

-5.228238428365293e6 1.2752834474537201e7 0.0
1.2752834474537201e7 2.1375428451227313e6 0.0
0.0 0.0 0.0

-46524.71168989502 9.709986299264822e6 0.0
9.709986299264822e6 -7.966678788300467e6 0.0
0.0 0.0 0.0

-5.774018420380981e6 1.4531844958639966e7 0.0
1.4531844958639966e7 925229.3105008842 0.0
0.0 0.0 0.0

-1.1533795966933278e7 4.354522942218224e6 0.0
4.354522942218224e6 2.3920157999741092e7 0.0
0.0 0.0 0.0

1.1265226786355185e6 1.0216465875872927e7 0.0
1.0216465875872927e7 -6.575146046173845e6 0.0
0.0 0.0 0.0

1.6944897135393834e6 7.950270319145631e6 0.0
7.950270319145631e6 -8.788980871062202e6 0.0
0.0 0.0 0.0

-362184.7879040688 1.3533543552157728e7 0.0
1.3533543552157728e7 -4.718130327971331e6 0.0
0.0 0.0 0.0

-121657.00533832656 9.27897206298052e6 0.0
9.27897206298052e6 -6.446951012494793e6 0.0
0.0 0.0 0.0

-1.0342446197811712e7 -3.159472397096508e6 0.0
-3.159472397096508e6 1.9426937240725357e7 0.0
0.0 0.0 0.0

-6.127513668709224e6 1.2661069249603245e7 0.0
1.2661069249603245e7 1.0704355712651277e7 0.0
0.0 0.0 0.0

2.9812611572900815e6 8.644596671226325e6 0.0
8.644596671226325e6 -1.2738015310257737e7 0.0
0.0 0.0 0.0

-5.0179458759996435e6 1.4348166436857183e7 0.0
1.4348166436857183e7 722955.366310552 0.0
0.0 0.0 0.0

-3.768946981857231e6 1.0847421205546984e7 0.0
1.0847421205546984e7 6.469473555325938e6 0.0
0.0 0.0 0.0

2.0939827163569396e6 7.434381097202413e6 0.0
7.434381097202413e6 -8.433331614960898e6 0.0
0.0 0.0 0.0

1.2575781852549218e7 1.2416636237797424e7 0.0
1.2416636237797424e7 2.2600343799262242e6 0.0
0.0 0.0 0.0

-4.893759175947754e6 1.396079120149357e7 0.0
1.396079120149357e7 712743.9363423039 0.0
0.0 0.0 0.0

-5.4642569656504635e6 -386724.65261267824 0.0
-386724.65261267824 6.74194636055762e6 0.0
0.0 0.0 0.0

-1.1241158429751253e7 -2.8317083807843337e6 0.0
-2.8317083807843337e6 1.6590768923968969e7 0.0
0.0 0.0 0.0

3.299467071157421e6 5.517861899697101e6 0.0
5.517861899697101e6 -9.440320225011e6 0.0
0.0 0.0 0.0

-5.595892797690201e6 1.1344562072574986e7 0.0
1.1344562072574986e7 3.050255341598937e6 0.0
0.0 0.0 0.0

-862321.513361972 1.135904388211457e7 0.0
1.135904388211457e7 -2.4950351279332973e6 0.0
0.0 0.0 0.0

-2.741077025761851e6 1.281816914352832e7 0.0
1.281816914352832e7 -3.6311479536827994e6 0.0
0.0 0.0 0.0

-1.4969869912200975e6 2.721529862221073e6 0.0
2.721529862221073e6 1.3120594407555393e6 0.0
0.0 0.0 0.0

-3.3009144418045413e6 1.1856081934586478e7 0.0
1.1856081934586478e7 -1.2439238797871098e6 0.0
0.0 0.0 0.0

-1.1004164431111423e7 -3.7638821288895425e6 0.0
-3.7638821288895425e6 1.7949262843603883e7 0.0
0.0 0.0 0.0

3.4871198125905506e6 9.567147661080534e6 0.0
9.567147661080534e6 -1.0529348699366292e6 0.0
0.0 0.0 0.0

2.5246206553670326e6 9.356855674821258e6 0.0
9.356855674821258e6 -1.2156759424053859e7 0.0
0.0 0.0 0.0

3.3455219298696704e6 8.5224037740816e6 0.0
8.5224037740816e6 -1.2574691149379347e7 0.0
0.0 0.0 0.0

-7.999993295247178e6 6.828198089507793e6 0.0
6.828198089507793e6 1.1039837667603226e7 0.0
0.0 0.0 0.0

-3.729294242382102e6 9.905828519050198e6 0.0
9.905828519050198e6 1.3519499110538112e6 0.0
0.0 0.0 0.0

1.3839958305388808e6 7.332407980154051e6 0.0
7.332407980154051e6 -3.899931498525542e6 0.0
0.0 0.0 0.0

1.0658177580980202e6 1.0297239397427527e7 0.0
1.0297239397427527e7 -6.447309391192624e6 0.0
0.0 0.0 0.0

-6.576768371882662e6 1.2600837165291948e7 0.0
1.2600837165291948e7 5.514875350263545e6 0.0
0.0 0.0 0.0

-1.9926390494428263e6 1.3941297340045167e7 0.0
1.3941297340045167e7 1.0075946105830323e7 0.0
0.0 0.0 0.0

2.297213769674358e6 1.3175779020097664e7 0.0
1.3175779020097664e7 -5.167093924301494e6 0.0
0.0 0.0 0.0

-1.0938245295519494e7 -4.321340029321987e6 0.0
-4.321340029321987e6 3.493678449806449e7 0.0
0.0 0.0 0.0

-1.0946341752349937e7 3.340903202617712e6 0.0
3.340903202617712e6 1.786449006467402e7 0.0
0.0 0.0 0.0

-7.052486202313591e6 7.647869785250083e6 0.0
7.647869785250083e6 7.872944717264078e6 0.0
0.0 0.0 0.0

-1.3866840751689265e6 9.078256719409736e6 0.0
9.078256719409736e6 1.1004125523507786e6 0.0
0.0 0.0 0.0

-1.4297880173092126e6 3.901796101347302e6 0.0
3.901796101347302e6 374043.9862386496 0.0
0.0 0.0 0.0

-8.29430378351891e6 8.151264448206478e6 0.0
8.151264448206478e6 4.314117289754971e6 0.0
0.0 0.0 0.0

3.478036990044216e6 6.225075821030905e6 0.0
6.225075821030905e6 -1.0034142101617286e7 0.0
0.0 0.0 0.0

-700118.0793346311 1.1108864436531415e7 0.0
1.1108864436531415e7 -1.0829456109523017e7 0.0
0.0 0.0 0.0

-241342.38678559882 1.1046828308451207e7 0.0
1.1046828308451207e7 -198031.86454720882 0.0
0.0 0.0 0.0

-260281.09552638046 1.6611903769410647e7 0.0
1.6611903769410647e7 -7.474163269736044e6 0.0
0.0 0.0 0.0

862282.3456473425 1.2212098823524961e7 0.0
1.2212098823524961e7 -5.779979831371723e6 0.0
0.0 0.0 0.0

-8.680825031275604e6 1.2766469591593033e7 0.0
1.2766469591593033e7 1.3782540178631144e6 0.0
0.0 0.0 0.0

-5.898332211113847e6 1.3110686735884875e7 0.0
1.3110686735884875e7 2.5819757733524884e6 0.0
0.0 0.0 0.0

290563.8272963099 7.4114203540578205e6 0.0
7.4114203540578205e6 -3.7439650098630656e6 0.0
0.0 0.0 0.0

-1.2687798756391767e7 1.600026655377083e7 0.0
1.600026655377083e7 9.633083438377151e6 0.0
0.0 0.0 0.0

-3.7781906335658547e6 1.0272876938977202e7 0.0
1.0272876938977202e7 1.1993554071541561e6 0.0
0.0 0.0 0.0

-3.1668832773717763e6 4.838362622934748e6 0.0
4.838362622934748e6 1.3855059024950243e6 0.0
0.0 0.0 0.0

-3.97522252952817e6 1.0334983010796491e7 0.0
1.0334983010796491e7 579671.4030150331 0.0
0.0 0.0 0.0

1.2254973353099846e6 4.801229354861549e6 0.0
4.801229354861549e6 -3.9193215091632907e6 0.0
0.0 0.0 0.0

-1.589349370559074e6 4.7456146958476305e6 0.0
4.7456146958476305e6 -3.360532829591245e6 0.0
0.0 0.0 0.0

2.238059539261134e6 9.447260414602542e6 0.0
9.447260414602542e6 -1.1093728068959495e7 0.0
0.0 0.0 0.0

-3.7456787781223e6 1.3143149745041668e7 0.0
1.3143149745041668e7 458217.07080785907 0.0
0.0 0.0 0.0

-4.56147947221294e6 1.1055243923694877e7 0.0
1.1055243923694877e7 6.456355591920985e6 0.0
0.0 0.0 0.0

-647214.4054119651 1.132238999235182e7 0.0
1.132238999235182e7 -2.27110313794236e6 0.0
0.0 0.0 0.0

2.25318976618924e6 5.726523436234395e6 0.0
5.726523436234395e6 -5.484619603455832e6 0.0
0.0 0.0 0.0

-4.6757728212448275e6 1.2195270307155231e7 0.0
1.2195270307155231e7 257531.95217219787 0.0
0.0 0.0 0.0

-6.30750180567202e6 1.372774568369298e7 0.0
1.372774568369298e7 2.7349059083040305e6 0.0
0.0 0.0 0.0

-311512.9148537759 1.3453224056486348e7 0.0
1.3453224056486348e7 -4.611524690621762e6 0.0
0.0 0.0 0.0

-4.074453520879753e6 5.62590863530297e6 0.0
5.62590863530297e6 2.424757412584082e6 0.0
0.0 0.0 0.0

684801.0638671708 1.0572253858473405e7 0.0
1.0572253858473405e7 -8.624828782139728e6 0.0
0.0 0.0 0.0

-8.947992078828549e6 1.455943868724671e7 0.0
1.455943868724671e7 6.998561058032287e6 0.0
0.0 0.0 0.0

-8.368568359998791e6 1.445178250482255e7 0.0
1.445178250482255e7 6.480439960577032e6 0.0
0.0 0.0 0.0

831633.1162890084 1.0351786259911656e7 0.0
1.0351786259911656e7 -1.046983436804766e7 0.0
0.0 0.0 0.0

-67642.27082511643 9.58320520129627e6 0.0
9.58320520129627e6 -7.162573763762582e6 0.0
0.0 0.0 0.0

-404934.64853360713 1.1378060650559349e7 0.0
1.1378060650559349e7 -238120.88977499073 0.0
0.0 0.0 0.0

2.3658623936360297e6 7.941914267021606e6 0.0
7.941914267021606e6 -1.0512932124931466e7 0.0
0.0 0.0 0.0

-1.0483965102048764e7 3.4367800807552906e6 0.0
3.4367800807552906e6 1.4355258671829263e7 0.0
0.0 0.0 0.0

3.695040765753989e6 1.0512986031034056e7 0.0
1.0512986031034056e7 -1.6166376265979376e7 0.0
0.0 0.0 0.0

-6.514977098256412e6 1.9143275577272117e7 0.0
1.9143275577272117e7 -2.2751304618830737e6 0.0
0.0 0.0 0.0

-100307.46191519964 1.1897763665309837e7 0.0
1.1897763665309837e7 3.650295906845718e6 0.0
0.0 0.0 0.0

-3.3918854468186432e6 1.2957054871768525e7 0.0
1.2957054871768525e7 8.713726818974063e6 0.0
0.0 0.0 0.0

2.1680226874392866e6 1.1704756682987537e7 0.0
1.1704756682987537e7 4.931023041868394e6 0.0
0.0 0.0 0.0

-502218.8871260787 8.59808045690123e6 0.0
8.59808045690123e6 -1.3648696933196648e6 0.0
0.0 0.0 0.0

-4.34111220654709e6 1.207990724511328e7 0.0
1.207990724511328e7 407664.4497778481 0.0
0.0 0.0 0.0

-1.1034039140430683e7 1.0716218821500674e7 0.0
1.0716218821500674e7 1.3484315700100716e6 0.0
0.0 0.0 0.0

265022.5767991047 8.243743922198379e6 0.0
8.243743922198379e6 -2.334959411144073e6 0.0
0.0 0.0 0.0

-1.9206945768130973e6 1.2359782392352942e7 0.0
1.2359782392352942e7 1.0734097608377854e6 0.0
0.0 0.0 0.0

2.872513862114679e6 5.75520595899123e6 0.0
5.75520595899123e6 -8.581088221113326e6 0.0
0.0 0.0 0.0

-9.261274746853843e6 8.4159007697038e6 0.0
8.4159007697038e6 5.055367042059905e6 0.0
0.0 0.0 0.0

-1.5509732711584486e7 1.4921694292336835e7 0.0
1.4921694292336835e7 1.1510463574858306e7 0.0
0.0 0.0 0.0

-3.235553706938643e6 2.4590086018574024e6 0.0
2.4590086018574024e6 4.0231976195458286e6 0.0
0.0 0.0 0.0

-3.1628571479611276e6 1.7006275199404895e7 0.0
1.7006275199404895e7 -3.7640489393294766e6 0.0
0.0 0.0 0.0

-1.2547645508335585e7 5.1566357632961925e6 0.0
5.1566357632961925e6 3.81329446409786e7 0.0
0.0 0.0 0.0

-5.023158833863144e6 -558557.7592280887 0.0
-558557.7592280887 5.089457003689106e6 0.0
0.0 0.0 0.0

-2.28278464302022e6 1.2160617295510206e7 0.0
1.2160617295510206e7 -1.2084326546330333e7 0.0
0.0 0.0 0.0

1.0861452072398597e6 1.1249456839266637e7 0.0
1.1249456839266637e7 -6.919368619420808e6 0.0
0.0 0.0 0.0

-6.630632836013842e6 1.409231498113306e7 0.0
1.409231498113306e7 3.4893459765673336e6 0.0
0.0 0.0 0.0

-6.581766949597419e6 7.38180959737554e6 0.0
7.38180959737554e6 2.0951441284017e6 0.0
0.0 0.0 0.0

-141951.83205001545 7.434274559509565e6 0.0
7.434274559509565e6 -3.433451795642595e6 0.0
0.0 0.0 0.0

-5.383444970606154e6 1.2659384487294834e7 0.0
1.2659384487294834e7 1.716671008174331e6 0.0
0.0 0.0 0.0

-7.854738875253255e6 1.4299123520386962e7 0.0
1.4299123520386962e7 5.828935563689353e6 0.0
0.0 0.0 0.0

-6.500924088944131e6 1.41745279170571e7 0.0
1.41745279170571e7 3.5580186463185423e6 0.0
0.0 0.0 0.0

2.9153285711854547e6 1.0192820173119446e7 0.0
1.0192820173119446e7 -1.9106161846768912e7 0.0
0.0 0.0 0.0

-2.0216137867793741e6 8.785858999839295e6 0.0
8.785858999839295e6 -1.3002826199333915e6 0.0
0.0 0.0 0.0

-1.1425898050714353e7 -4.525629660527125e6 0.0
-4.525629660527125e6 2.4918119701087996e7 0.0
0.0 0.0 0.0

1.0674712151817027e6 1.6111338584352871e7 0.0
1.6111338584352871e7 2.0139860681007516e7 0.0
0.0 0.0 0.0

-2.320589290467236e7 -4.0246115189260165e6 0.0
-4.0246115189260165e6 1.0158126022323033e7 0.0
0.0 0.0 0.0

8.850471977076463e6 1.2386281508259458e7 0.0
1.2386281508259458e7 -8.99900500660831e6 0.0
0.0 0.0 0.0

1.4555468161644386e6 1.0275976552802768e7 0.0
1.0275976552802768e7 -9.851586403657911e6 0.0
0.0 0.0 0.0

1.426341701128621e6 6.794177066708255e6 0.0
6.794177066708255e6 -4.885443164316489e6 0.0
0.0 0.0 0.0

1.2576671030237678e7 1.2166777328738188e7 0.0
1.2166777328738188e7 -1.0809277181884531e7 0.0
0.0 0.0 0.0

1.1331277094476586e6 6.534951585512925e6 0.0
6.534951585512925e6 -2.5546889724698723e6 0.0
0.0 0.0 0.0

3.910631383793699e6 1.1564679055979596e7 0.0
1.1564679055979596e7 4.1038349382415763e6 0.0
0.0 0.0 0.0

-5.909785469450746e6 1.297718469131568e7 0.0
1.297718469131568e7 2.678177187989683e6 0.0
0.0 0.0 0.0

-6.693142886649567e6 1.2955636863468003e7 0.0
1.2955636863468003e7 5.629565902231861e6 0.0
0.0 0.0 0.0

-1.130938477252316e6 8.222232057398607e6 0.0
8.222232057398607e6 -3.6121631579742176e6 0.0
0.0 0.0 0.0

-5.9878097303137835e6 4.464226190522493e6 0.0
4.464226190522493e6 1.6425816077270606e6 0.0
0.0 0.0 0.0

-755357.7359571978 9.964193617226869e6 0.0
9.964193617226869e6 -8.361769043648666e6 0.0
0.0 0.0 0.0

-1.524633840478377e6 1.2068966503314374e7 0.0
1.2068966503314374e7 1.262250310580429e6 0.0
0.0 0.0 0.0

-1.3980435119375454e6 9.433344896963583e6 0.0
9.433344896963583e6 3.2049580178010403e6 0.0
0.0 0.0 0.0

-1.2813927230475713e7 4.258814791160062e6 0.0
4.258814791160062e6 3.513012980114939e7 0.0
0.0 0.0 0.0

-5.298266106622435e6 1.2251647955004936e7 0.0
1.2251647955004936e7 1.95280117260231e6 0.0
0.0 0.0 0.0

3.4230621024358068e6 5.599002328671939e6 0.0
5.599002328671939e6 -9.514888421046425e6 0.0
0.0 0.0 0.0

-3.8460900253874757e6 1.2183468008184435e7 0.0
1.2183468008184435e7 4.596804283346707e6 0.0
0.0 0.0 0.0

-2.793591235544635e6 9.628598926806703e6 0.0
9.628598926806703e6 3.868997861120588e6 0.0
0.0 0.0 0.0

1.8177213512639632e6 1.4088161888494404e7 0.0
1.4088161888494404e7 -6.143869369459532e6 0.0
0.0 0.0 0.0

-4.403455045256235e6 1.2981924302158298e7 0.0
1.2981924302158298e7 -1.2592091320320333e6 0.0
0.0 0.0 0.0

-9.987122909948848e6 1.5663367632089796e7 0.0
1.5663367632089796e7 7.469083385271205e6 0.0
0.0 0.0 0.0

-58236.34819264407 7.213185108615872e6 0.0
7.213185108615872e6 -3.502816508401164e6 0.0
0.0 0.0 0.0

-9.919984254491951e6 1.344243942170935e7 0.0
1.344243942170935e7 7.843473697370847e6 0.0
0.0 0.0 0.0

-6.242076744135085e6 1.3063524507834457e7 0.0
1.3063524507834457e7 4.416501533837084e6 0.0
0.0 0.0 0.0

-7.1312563000133615e6 8.435200780621158e6 0.0
8.435200780621158e6 7.7358380834190715e6 0.0
0.0 0.0 0.0

5.84892474079738e6 1.3307148246995553e7 0.0
1.3307148246995553e7 -7.921153948119361e6 0.0
0.0 0.0 0.0

-1.1985696302335022e6 1.1060853568903996e7 0.0
1.1060853568903996e7 -4.746268776976234e6 0.0
0.0 0.0 0.0

-5.882098546916622e6 1.2831266130210858e7 0.0
1.2831266130210858e7 2.801261628243973e6 0.0
0.0 0.0 0.0

-803930.5329549569 7.924736564774749e6 0.0
7.924736564774749e6 -3.957652727777428e6 0.0
0.0 0.0 0.0

-1.8552049928457453e6 1.178781771709257e7 0.0
1.178781771709257e7 2.422547641162493e6 0.0
0.0 0.0 0.0

-5.579812867878809e6 1.8051075929720807e6 0.0
1.8051075929720807e6 3.113446544841568e6 0.0
0.0 0.0 0.0

-7.232314483875347e6 7.509052871680152e6 0.0
7.509052871680152e6 5.45993945627683e6 0.0
0.0 0.0 0.0

639993.8414503625 1.1455764070007935e7 0.0
1.1455764070007935e7 -6.608688755763993e6 0.0
0.0 0.0 0.0

-1.9274386023042456e6 1.023152330724763e7 0.0
1.023152330724763e7 5.089452790896533e6 0.0
0.0 0.0 0.0

-183177.8038692046 1.1450771576739822e7 0.0
1.1450771576739822e7 -7.30923177502265e6 0.0
0.0 0.0 0.0

-4.871773629011418e6 1.0847666064616982e7 0.0
1.0847666064616982e7 6.309215229201989e6 0.0
0.0 0.0 0.0

-1.1370564933718968e7 4.0382253433687426e6 0.0
4.0382253433687426e6 6.8540968729366865e6 0.0
0.0 0.0 0.0

-1.673502555256552e6 1.2046608745468961e7 0.0
1.2046608745468961e7 235267.33226029412 0.0
0.0 0.0 0.0

-6.173140363329845e6 3.923605459235426e6 0.0
3.923605459235426e6 5.405196160778867e6 0.0
0.0 0.0 0.0

-1.7956021439791122e6 1.1721243191321574e7 0.0
1.1721243191321574e7 3.228587878688586e6 0.0
0.0 0.0 0.0

-3.650641219542916e6 1.8225373197470173e7 0.0
1.8225373197470173e7 -5.219078978611422e6 0.0
0.0 0.0 0.0

-2.105956150744968e7 7.72518166158217e6 0.0
7.72518166158217e6 9.363906184514228e6 0.0
0.0 0.0 0.0

-7.715087925162856e6 1.9777692165886775e7 0.0
1.9777692165886775e7 2.3323732070618216e6 0.0
0.0 0.0 0.0

-5.9642144141192995e6 1.1791647672644593e7 0.0
1.1791647672644593e7 1.4993121782332342e6 0.0
0.0 0.0 0.0

-7.941530250991376e6 1.7891265947030738e7 0.0
1.7891265947030738e7 3.9456041622625436e6 0.0
0.0 0.0 0.0

-4.755853261865548e6 2.8514228281844864e6 0.0
2.8514228281844864e6 3.4094805202592053e6 0.0
0.0 0.0 0.0

2.0517119135069125e6 1.390478695546488e7 0.0
1.390478695546488e7 -5.840474461358719e6 0.0
0.0 0.0 0.0

-8.685583661388278e6 1.4646976133789087e7 0.0
1.4646976133789087e7 6.77408264993188e6 0.0
0.0 0.0 0.0

-2.324278692877464e6 1.2149277290543385e7 0.0
1.2149277290543385e7 172294.58947192912 0.0
0.0 0.0 0.0

654995.323947147 1.0907210637193471e7 0.0
1.0907210637193471e7 -8.82781651268361e6 0.0
0.0 0.0 0.0

-7.259604597127948e6 1.3543064236343749e7 0.0
1.3543064236343749e7 6.053572973555435e6 0.0
0.0 0.0 0.0

-5.654635402627366e6 6.693096649606244e6 0.0
6.693096649606244e6 5.046254582057458e6 0.0
0.0 0.0 0.0

-8.369444750191228e6 1.8254215410825294e7 0.0
1.8254215410825294e7 1.962202325164326e6 0.0
0.0 0.0 0.0

-1.0793664366638301e7 1.2720932563220141e7 0.0
1.2720932563220141e7 8.468178788290597e6 0.0
0.0 0.0 0.0

1.4447599853423424e6 1.3858662920390395e7 0.0
1.3858662920390395e7 -6.008551047771532e6 0.0
0.0 0.0 0.0

1.3122718909046636e6 5.833480526010168e6 0.0
5.833480526010168e6 -5.935625003609145e6 0.0
0.0 0.0 0.0

-448538.1058073463 1.078270362765684e7 0.0
1.078270362765684e7 -1.0413185676123912e7 0.0
0.0 0.0 0.0

1.890268360363859e6 5.156667117121444e6 0.0
5.156667117121444e6 -5.742857678782821e6 0.0
0.0 0.0 0.0

-1.459920113981311e6 1.2364572791461049e7 0.0
1.2364572791461049e7 4.1040843044723086e6 0.0
0.0 0.0 0.0

1.8563464289928293e6 1.2210850458874976e7 0.0
1.2210850458874976e7 -5.316779031309828e6 0.0
0.0 0.0 0.0

-4.458814014446547e6 1.684924104206952e7 0.0
1.684924104206952e7 -2.353436957402656e6 0.0
0.0 0.0 0.0

-8.3322847106646225e6 7.614618448918784e6 0.0
7.614618448918784e6 9.87197041722014e6 0.0
0.0 0.0 0.0

-1.07729076906763e6 8.493094394892268e6 0.0
8.493094394892268e6 -3.2098453976567043e6 0.0
0.0 0.0 0.0

-774248.0078917933 3.875240191017121e6 0.0
3.875240191017121e6 4.630888601913328e6 0.0
0.0 0.0 0.0

3.49188028909518e6 9.303480375803882e6 0.0
9.303480375803882e6 -1.4979467687167266e7 0.0
0.0 0.0 0.0

-133130.2648615957 1.0310049785864485e7 0.0
1.0310049785864485e7 -525880.3867905543 0.0
0.0 0.0 0.0

-1.0027205099651795e7 1.2248635710764838e7 0.0
1.2248635710764838e7 6.537319309605714e6 0.0
0.0 0.0 0.0

919789.456455078 1.050108352751498e7 0.0
1.050108352751498e7 -7.2410934697169745e6 0.0
0.0 0.0 0.0

6.154776778913401e6 1.0620822264415724e7 0.0
1.0620822264415724e7 -2.742925364669833e6 0.0
0.0 0.0 0.0

-8.859069639299862e6 1.9080453685768018e6 0.0
1.9080453685768018e6 1.0735940567057155e7 0.0
0.0 0.0 0.0

-1.4648697052970646e7 8.684077033112517e6 0.0
8.684077033112517e6 5.516053543147316e6 0.0
0.0 0.0 0.0

2.0217965724739023e6 1.8502242614699e7 0.0
1.8502242614699e7 -1.4888821598071989e7 0.0
0.0 0.0 0.0

-6.749901970738025e6 1.3166691274349913e7 0.0
1.3166691274349913e7 5.8548159671267625e6 0.0
0.0 0.0 0.0

-1.0243371551922304e6 6.926512313119345e6 0.0
6.926512313119345e6 -1.6982463427620225e6 0.0
0.0 0.0 0.0

-1.0267281079226483e7 7.262697094180456e6 0.0
7.262697094180456e6 1.1638876194118556e7 0.0
0.0 0.0 0.0

-6.587591774723347e6 -631305.5973388029 0.0
-631305.5973388029 7.327689710285295e6 0.0
0.0 0.0 0.0

-1.3706954254995154e6 1.1062044789926926e7 0.0
1.1062044789926926e7 -5.363159812388055e6 0.0
0.0 0.0 0.0

-6.160014734215016e6 1.401774626628386e7 0.0
1.401774626628386e7 2.099796285760411e6 0.0
0.0 0.0 0.0

-1.9983645422471291e6 1.02317345192147e7 0.0
1.02317345192147e7 -2.895075592756263e6 0.0
0.0 0.0 0.0

-1.102946141562964e7 4.490185369064539e6 0.0
4.490185369064539e6 2.1450287574821457e7 0.0
0.0 0.0 0.0

1.1934168619072777e6 9.954133639335861e6 0.0
9.954133639335861e6 -9.681233433662487e6 0.0
0.0 0.0 0.0

-6.596201915266247e6 1.3406246557595149e7 0.0
1.3406246557595149e7 2.806371590218026e6 0.0
0.0 0.0 0.0

821352.5960574741 1.0734912097371245e7 0.0
1.0734912097371245e7 -8.735643886105703e6 0.0
0.0 0.0 0.0

4.448965452825629e6 1.0264891537226953e7 0.0
1.0264891537226953e7 1.892409065289917e6 0.0
0.0 0.0 0.0

-1.1208417668176875e7 2.843450743694008e6 0.0
2.843450743694008e6 1.9049308933430932e7 0.0
0.0 0.0 0.0

1.652246943665566e6 9.987944828965213e6 0.0
9.987944828965213e6 -4.0100734478265997e6 0.0
0.0 0.0 0.0

-3.2161100763538196e6 1.1613091285639532e7 0.0
1.1613091285639532e7 4.285449018330652e6 0.0
0.0 0.0 0.0

-4.925437421724311e6 1.5003797568326363e7 0.0
1.5003797568326363e7 671247.4617503989 0.0
0.0 0.0 0.0

2.318557633778179e6 7.873235928636891e6 0.0
7.873235928636891e6 -9.079084613324957e6 0.0
0.0 0.0 0.0

436990.51050266647 6.965872444212429e6 0.0
6.965872444212429e6 -5.081363359841448e6 0.0
0.0 0.0 0.0

3.0620346459620316e6 9.227230151369123e6 0.0
9.227230151369123e6 -1.3781886592185877e7 0.0
0.0 0.0 0.0

-2.9985253498204956e6 1.2687091383843876e7 0.0
1.2687091383843876e7 83045.347225026 0.0
0.0 0.0 0.0

-1.220731227996344e7 2.1254700158034447e6 0.0
2.1254700158034447e6 1.639749928056299e7 0.0
0.0 0.0 0.0

-3.056029734273668e6 1.273389469551834e7 0.0
1.273389469551834e7 1347.2817336303415 0.0
0.0 0.0 0.0

-1.6400060184249282e6 9.832601463165164e6 0.0
9.832601463165164e6 -3.1510140009054705e6 0.0
0.0 0.0 0.0

3.434188347088324e6 8.054344487869314e6 0.0
8.054344487869314e6 -1.337802459252148e7 0.0
0.0 0.0 0.0

-1.0277877100518242e7 6.098425795471719e6 0.0
6.098425795471719e6 1.338367857366202e7 0.0
0.0 0.0 0.0

-101998.38983873156 1.0881947987808824e7 0.0
1.0881947987808824e7 784801.6921972153 0.0
0.0 0.0 0.0

2.0098466487642378e6 9.482598698591927e6 0.0
9.482598698591927e6 -1.1845102521147028e7 0.0
0.0 0.0 0.0

3.4843699785941583e6 5.759891136950502e6 0.0
5.759891136950502e6 -1.0285808979246065e7 0.0
0.0 0.0 0.0

-6.724925810775785e6 1.1214586029837612e7 0.0
1.1214586029837612e7 7.063214575182028e6 0.0
0.0 0.0 0.0

-5.444504243465889e6 1.354863425671689e7 0.0
1.354863425671689e7 3.144177062833045e6 0.0
0.0 0.0 0.0

-47306.31508688908 8.142220678643723e6 0.0
8.142220678643723e6 -4.839790498336413e6 0.0
0.0 0.0 0.0

-8.688339517117934e6 -1.2024656194656373e6 0.0
-1.2024656194656373e6 1.220040691335893e7 0.0
0.0 0.0 0.0

2.1669359663778795e6 4.54205272041578e6 0.0
4.54205272041578e6 -3.523587277838473e6 0.0
0.0 0.0 0.0

-7.5728770415736195e6 9.934731523205029e6 0.0
9.934731523205029e6 7.367766574066246e6 0.0
0.0 0.0 0.0

4.838431794631447e6 1.1703593472972348e7 0.0
1.1703593472972348e7 2.0864604389308102e6 0.0
0.0 0.0 0.0

2.5839960412277845e6 1.0628041777250601e7 0.0
1.0628041777250601e7 3.196885412039197e6 0.0
0.0 0.0 0.0

-6.229223579129065e6 1.294313731832314e7 0.0
1.294313731832314e7 1.557241100319719e6 0.0
0.0 0.0 0.0

-444899.1183561133 8.83577225583552e6 0.0
8.83577225583552e6 -6.689696358831074e6 0.0
0.0 0.0 0.0

-3.7872324927465487e6 1.3495097145796068e7 0.0
1.3495097145796068e7 180749.8366220165 0.0
0.0 0.0 0.0

-7.239700156217865e6 1.0394580752266565e7 0.0
1.0394580752266565e7 3.8589378615266043e6 0.0
0.0 0.0 0.0

2.707014288195176e6 9.295015333156595e6 0.0
9.295015333156595e6 -1.2992415763776211e7 0.0
0.0 0.0 0.0

2.0524630647305218e6 6.428656581166935e6 0.0
6.428656581166935e6 -4.768723550115938e6 0.0
0.0 0.0 0.0

266982.935362814 7.383041656788691e6 0.0
7.383041656788691e6 -3.8198937590079457e6 0.0
0.0 0.0 0.0

-200840.65348308394 1.0816852866930688e7 0.0
1.0816852866930688e7 -1.2456504992629106e6 0.0
0.0 0.0 0.0

916492.7427214507 1.1230803532776935e7 0.0
1.1230803532776935e7 5.772541358403288e6 0.0
0.0 0.0 0.0

-1.5417079114166647e6 8.255614482465328e6 0.0
8.255614482465328e6 184312.8792344106 0.0
0.0 0.0 0.0

-7.01301566958292e6 1.0135551080017814e7 0.0
1.0135551080017814e7 6.535608584665714e6 0.0
0.0 0.0 0.0

-1.428123662699553e7 416454.6981265013 0.0
416454.6981265013 8.0522386688089715e6 0.0
0.0 0.0 0.0

-294765.2867803739 1.1026435499151716e7 0.0
1.1026435499151716e7 404546.51151356916 0.0
0.0 0.0 0.0

1.0464857350651668e6 6.065363507015297e6 0.0
6.065363507015297e6 -6.28537541050276e6 0.0
0.0 0.0 0.0

-9.642811503492303e6 1.250863329368894e7 0.0
1.250863329368894e7 7.903100746426914e6 0.0
0.0 0.0 0.0

-9.519808208372016e6 -2.5124408029743037e6 0.0
-2.5124408029743037e6 1.3972214032436065e7 0.0
0.0 0.0 0.0

-739163.1017578174 1.1729306167120222e7 0.0
1.1729306167120222e7 -2.0478834577826888e6 0.0
0.0 0.0 0.0

-4.5738976906500235e6 1.1731738525332378e7 0.0
1.1731738525332378e7 8.788307359088272e6 0.0
0.0 0.0 0.0

-5.819019854219578e6 1.2901792968010467e7 0.0
1.2901792968010467e7 3.166821259483931e6 0.0
0.0 0.0 0.0

607821.6029631505 1.0475364666585656e7 0.0
1.0475364666585656e7 -9.933608204665191e6 0.0
0.0 0.0 0.0

2.9766790298530944e6 1.1757180902870001e7 0.0
1.1757180902870001e7 3.9970144674783302e6 0.0
0.0 0.0 0.0

422787.7664132267 1.0719550183094142e7 0.0
1.0719550183094142e7 -8.840263072779812e6 0.0
0.0 0.0 0.0

-556415.8117712074 1.1361599020185348e7 0.0
1.1361599020185348e7 1.0234518192974215e6 0.0
0.0 0.0 0.0

-4.255172575938357e6 1.0721779323266283e7 0.0
1.0721779323266283e7 5.877987644076185e6 0.0
0.0 0.0 0.0

-3.9122587077312944e6 1.2012500693510503e7 0.0
1.2012500693510503e7 4.604548541850169e6 0.0
0.0 0.0 0.0

-2.2762154111296237e6 1.204664684661453e7 0.0
1.204664684661453e7 2.1103333669671547e6 0.0
0.0 0.0 0.0

3.031186688578813e6 6.389805787773519e6 0.0
6.389805787773519e6 -1.029038020649312e7 0.0
0.0 0.0 0.0

-7.2604985377655225e6 1.5035409825808603e7 0.0
1.5035409825808603e7 3.7553950669257855e6 0.0
0.0 0.0 0.0

-2.233526425942593e6 9.296843810359277e6 0.0
9.296843810359277e6 406477.28935643623 0.0
0.0 0.0 0.0

7.004114637172782e6 9.40314176386286e6 0.0
9.40314176386286e6 -28753.00461242441 0.0
0.0 0.0 0.0

-7.697954165367916e6 1.317954476950126e7 0.0
1.317954476950126e7 5.823465718202366e6 0.0
0.0 0.0 0.0

3.9201878887014496e6 6.251474644880777e6 0.0
6.251474644880777e6 -1.1535111144189604e7 0.0
0.0 0.0 0.0

-3.3461669408666445e6 9.058729415130882e6 0.0
9.058729415130882e6 1.1143323946440131e6 0.0
0.0 0.0 0.0

4.41190746544486e6 9.488801811746776e6 0.0
9.488801811746776e6 -507855.0211144709 0.0
0.0 0.0 0.0

1.017657381162645e7 8.82476953351873e6 0.0
8.82476953351873e6 -3.8364655791222397e6 0.0
0.0 0.0 0.0

-8.95392608780414e6 1.4292554495266093e7 0.0
1.4292554495266093e7 6.97444113132159e6 0.0
0.0 0.0 0.0

233022.60134111205 1.1666964926211385e7 0.0
1.1666964926211385e7 -6.992191514791242e6 0.0
0.0 0.0 0.0

-3.305443554193601e6 5.508838952030498e6 0.0
5.508838952030498e6 2.5385658924395535e6 0.0
0.0 0.0 0.0

-9.252562611158965e6 -3.250340772097287e6 0.0
-3.250340772097287e6 1.2110847020512972e7 0.0
0.0 0.0 0.0

-193237.90279359953 1.0879955640437607e7 0.0
1.0879955640437607e7 -376376.0743918711 0.0
0.0 0.0 0.0

-1.1524682594343708e6 9.868992694800543e6 0.0
9.868992694800543e6 8.2900077782670725e6 0.0
0.0 0.0 0.0

-8.345140547726574e6 706826.2271230672 0.0
706826.2271230672 1.014652204961289e7 0.0
0.0 0.0 0.0

-1.2283561483338438e6 7.910610204081669e6 0.0
7.910610204081669e6 -2.602026067117277e6 0.0
0.0 0.0 0.0

-2.4491443405358065e6 1.1021370167565918e7 0.0
1.1021370167565918e7 -570837.2511639863 0.0
0.0 0.0 0.0

214669.19843802508 1.0382991191832699e7 0.0
1.0382991191832699e7 -9.459908656296363e6 0.0
0.0 0.0 0.0

-6.939997659895094e6 1.4486670923899088e7 0.0
1.4486670923899088e7 4.0502587231574343e6 0.0
0.0 0.0 0.0

-5.796473095233075e6 1.5711440395662496e7 0.0
1.5711440395662496e7 -79793.80145177431 0.0
0.0 0.0 0.0

-1.0135779625154667e7 1.9445627595959052e7 0.0
1.9445627595959052e7 2.589902122993734e6 0.0
0.0 0.0 0.0

-1.5758442451382011e7 1.3570248698982222e7 0.0
1.3570248698982222e7 1.0911684124019157e7 0.0
0.0 0.0 0.0

501536.209524547 1.2126529686888492e7 0.0
1.2126529686888492e7 3.28995073490394e6 0.0
0.0 0.0 0.0

1.0801952458900604e6 1.2171221176101374e7 0.0
1.2171221176101374e7 -1.752092723968725e7 0.0
0.0 0.0 0.0

-1.9226284235803843e6 2.322630554024107e6 0.0
2.322630554024107e6 469209.24552492844 0.0
0.0 0.0 0.0

-2.0351663431771793e6 1.0395849831920203e7 0.0
1.0395849831920203e7 -8.72477893927579e6 0.0
0.0 0.0 0.0

-971451.2651371306 8.443229736026924e6 0.0
8.443229736026924e6 -6.590171980427661e6 0.0
0.0 0.0 0.0

-400954.07232020656 1.2499928439348789e7 0.0
1.2499928439348789e7 4.081903037528384e6 0.0
0.0 0.0 0.0

-1.5179643865470318e6 1.1004788537161598e7 0.0
1.1004788537161598e7 -1.025231312737874e7 0.0
0.0 0.0 0.0

-1.1589676891365128e6 1.0154532471576162e7 0.0
1.0154532471576162e7 -8.618460760328375e6 0.0
0.0 0.0 0.0

983026.7368736751 1.2304354972687602e7 0.0
1.2304354972687602e7 5.725513234468063e6 0.0
0.0 0.0 0.0

-2.802728630172888e6 9.793916732413333e6 0.0
9.793916732413333e6 1.301074650150529e6 0.0
0.0 0.0 0.0

2.8582996973040616e6 7.707672494030874e6 0.0
7.707672494030874e6 -1.017584406902787e7 0.0
0.0 0.0 0.0

-260870.7782938554 1.0923956231045023e7 0.0
1.0923956231045023e7 -940768.4418376652 0.0
0.0 0.0 0.0

-6.043057973615941e6 1.2257883416790301e7 0.0
1.2257883416790301e7 3.1926130340604046e6 0.0
0.0 0.0 0.0

-440252.87512474915 1.1166859581070606e7 0.0
1.1166859581070606e7 1.8017503802906137e6 0.0
0.0 0.0 0.0

1.7449778917696583e6 5.058341862310855e6 0.0
5.058341862310855e6 -6.06091141794804e6 0.0
0.0 0.0 0.0

-5.851356678342102e6 1.2670311209143406e7 0.0
1.2670311209143406e7 2.899815822081419e6 0.0
0.0 0.0 0.0

-7.5945087166338805e6 1.39635391651808e7 0.0
1.39635391651808e7 5.579171991817117e6 0.0
0.0 0.0 0.0

-1.0391220523280682e7 5.776372027715063e6 0.0
5.776372027715063e6 1.2351113985837668e7 0.0
0.0 0.0 0.0

-1.1130051255068637e6 8.520531525096297e6 0.0
8.520531525096297e6 1.4117658131055553e6 0.0
0.0 0.0 0.0

-2.839964698865535e6 1.1302661956385199e7 0.0
1.1302661956385199e7 6.765419115445101e6 0.0
0.0 0.0 0.0

-1.0103682848888295e7 1.5070268058330046e7 0.0
1.5070268058330046e7 7.583658503724346e6 0.0
0.0 0.0 0.0

-6.998182109776187e6 1.0374180389874205e7 0.0
1.0374180389874205e7 7.4967793120947275e6 0.0
0.0 0.0 0.0

-3.9132687983056447e6 1.0120161416123736e6 0.0
1.0120161416123736e6 2.9980260125880046e6 0.0
0.0 0.0 0.0

-7.47359147628049e6 1.3893059064745747e7 0.0
1.3893059064745747e7 5.923863100754308e6 0.0
0.0 0.0 0.0

-4.982123695258726e6 1.2568805278058905e7 0.0
1.2568805278058905e7 1.566817039343554e6 0.0
0.0 0.0 0.0

-3.952530794776078e6 1.001469000790501e7 0.0
1.001469000790501e7 623309.5279497078 0.0
0.0 0.0 0.0

-6.994948874204465e6 1.4760035829864578e7 0.0
1.4760035829864578e7 3.817994927888103e6 0.0
0.0 0.0 0.0

-6.695632764279368e6 1.4422901354717555e7 0.0
1.4422901354717555e7 3.5149006380450167e6 0.0
0.0 0.0 0.0

-730100.8786132213 1.133528831080055e7 0.0
1.133528831080055e7 -2.456492200628143e6 0.0
0.0 0.0 0.0

602147.0413822869 9.640162606474021e6 0.0
9.640162606474021e6 2.0071573634640053e6 0.0
0.0 0.0 0.0

2.1399644975815737e6 7.544495750271317e6 0.0
7.544495750271317e6 -9.620981346393198e6 0.0
0.0 0.0 0.0

-2.1330202769331364e6 1.1374408542606449e7 0.0
1.1374408542606449e7 -1.0170820715235844e7 0.0
0.0 0.0 0.0

-1.879315241855014e6 1.2431443804167341e7 0.0
1.2431443804167341e7 661499.8576512161 0.0
0.0 0.0 0.0

-1.83318043918727e7 1.6110532652188318e7 0.0
1.6110532652188318e7 2.1998652005965933e6 0.0
0.0 0.0 0.0

-1.705381623657318e6 1.017695652389821e7 0.0
1.017695652389821e7 -8.635420936696295e6 0.0
0.0 0.0 0.0

-1.686906900541548e7 1.487230073138755e7 0.0
1.487230073138755e7 1.8913451468509007e6 0.0
0.0 0.0 0.0

-4.503012326243201e6 1.2401480744886633e7 0.0
1.2401480744886633e7 4.1327198371397327e6 0.0
0.0 0.0 0.0

-7.494650338026375e6 -5.928270081013239e6 0.0
-5.928270081013239e6 1.2665701859918283e7 0.0
0.0 0.0 0.0

-5.908974087948497e6 1.4851389243740758e7 0.0
1.4851389243740758e7 859741.8908148794 0.0
0.0 0.0 0.0

-7.196235166656422e6 1.427011518225648e7 0.0
1.427011518225648e7 974117.2150034802 0.0
0.0 0.0 0.0

114411.26095251227 1.1864051691854907e7 0.0
1.1864051691854907e7 -6.734278282703482e6 0.0
0.0 0.0 0.0

-1.0068273829344451e7 1.2953934587469757e7 0.0
1.2953934587469757e7 7.175206194531985e6 0.0
0.0 0.0 0.0

-3.996720368713052e6 4.286780700267434e6 0.0
4.286780700267434e6 3.515559735124559e6 0.0
0.0 0.0 0.0

3.157996241734249e6 8.256131542356014e6 0.0
8.256131542356014e6 -1.1747403377569608e7 0.0
0.0 0.0 0.0

-1.1056716565790715e7 1.2102129081691962e7 0.0
1.2102129081691962e7 7.363650608174561e6 0.0
0.0 0.0 0.0

-260453.83138479147 1.1258145224799301e7 0.0
1.1258145224799301e7 -452641.0164315103 0.0
0.0 0.0 0.0

-3.64622387448787e6 5.106120789871875e6 0.0
5.106120789871875e6 2.0497419434147202e6 0.0
0.0 0.0 0.0

-2.0829743948229332e6 9.924749883245206e6 0.0
9.924749883245206e6 -3.2391250029281136e6 0.0
0.0 0.0 0.0

-4.369417662672372e6 1.4211130870723464e7 0.0
1.4211130870723464e7 49293.47857158864 0.0
0.0 0.0 0.0

-1.2541344827017108e7 -271482.33053952944 0.0
-271482.33053952944 8.954427854897495e6 0.0
0.0 0.0 0.0

-7.282293357277606e6 1.3465260282521328e7 0.0
1.3465260282521328e7 6.021126078681374e6 0.0
0.0 0.0 0.0

597586.7436931948 1.1452173149509724e7 0.0
1.1452173149509724e7 -7.715518590989274e6 0.0
0.0 0.0 0.0

1.7022491291135452e6 7.525594656226917e6 0.0
7.525594656226917e6 -8.527439420045322e6 0.0
0.0 0.0 0.0

1.3514035610884991e6 7.15608756482373e6 0.0
7.15608756482373e6 -3.959218015636995e6 0.0
0.0 0.0 0.0

300061.0282418011 1.070059930046286e7 0.0
1.070059930046286e7 -7.142309844042762e6 0.0
0.0 0.0 0.0

-7.151542717039029e6 1.2033480814545466e7 0.0
1.2033480814545466e7 1.2113159212323362e6 0.0
0.0 0.0 0.0

-7.807651399818908e6 1.9210808234695055e7 0.0
1.9210808234695055e7 3.2999014394382383e6 0.0
0.0 0.0 0.0

-4.460559662101912e6 1.2377475390336853e7 0.0
1.2377475390336853e7 7.436151452878595e6 0.0
0.0 0.0 0.0

-1.2228798591982885e6 8.966069325209552e6 0.0
8.966069325209552e6 2.0947662078784145e6 0.0
0.0 0.0 0.0

455759.9703532964 1.125324821806162e7 0.0
1.125324821806162e7 2.3756398245004294e6 0.0
0.0 0.0 0.0

-788750.9312434726 1.069144959516589e7 0.0
1.069144959516589e7 -2.6291697650019866e6 0.0
0.0 0.0 0.0

-1.0775288117682202e7 5.7263590151610505e6 0.0
5.7263590151610505e6 1.2655418766269313e7 0.0
0.0 0.0 0.0

63966.26349815726 9.497175191958776e6 0.0
9.497175191958776e6 -7.355175780042088e6 0.0
0.0 0.0 0.0

-1.7555203600373324e7 9.913384829832079e6 0.0
9.913384829832079e6 1.0530001822683265e7 0.0
0.0 0.0 0.0

-8.753143843264723e6 -35090.9813431781 0.0
-35090.9813431781 1.1926152084039517e7 0.0
0.0 0.0 0.0

-7.597891189651306e6 -5.802735560690079e6 0.0
-5.802735560690079e6 1.5819346251502573e7 0.0
0.0 0.0 0.0

-230847.43061940465 8.152458392272709e6 0.0
8.152458392272709e6 -5.452341502535712e6 0.0
0.0 0.0 0.0

-915564.6180125177 894466.770187679 0.0
894466.770187679 556636.8536175642 0.0
0.0 0.0 0.0

3.455015930859806e6 8.514764086872872e6 0.0
8.514764086872872e6 -1.372200385268883e7 0.0
0.0 0.0 0.0

-1.1826897481463455e7 4.593811096457944e6 0.0
4.593811096457944e6 1.5405105417179849e7 0.0
0.0 0.0 0.0

2.230835136668941e6 9.171195207294289e6 0.0
9.171195207294289e6 -1.177493100859854e7 0.0
0.0 0.0 0.0

-5.741120274777431e6 981345.2699104773 0.0
981345.2699104773 6.8655142028669305e6 0.0
0.0 0.0 0.0

-6.5743850137746e6 1.2848656129209356e7 0.0
1.2848656129209356e7 4.4433314075594265e6 0.0
0.0 0.0 0.0

-4.29786355386016e6 1.4628696393364785e7 0.0
1.4628696393364785e7 -117128.4357426092 0.0
0.0 0.0 0.0

-8.227116097933719e6 1.4597185565026892e7 0.0
1.4597185565026892e7 6.149916191998124e6 0.0
0.0 0.0 0.0

-9.870577761543805e6 1.852332408173513e7 0.0
1.852332408173513e7 4.213053266418588e6 0.0
0.0 0.0 0.0

-8.656073626177177e6 1.6657430453465924e7 0.0
1.6657430453465924e7 4.0898172443751916e6 0.0
0.0 0.0 0.0

-8.113265560027425e6 -2.5820649558283146e6 0.0
-2.5820649558283146e6 1.1663314507750204e7 0.0
0.0 0.0 0.0

3.8548230185681377e6 6.408578791349681e6 0.0
6.408578791349681e6 -1.212909493023405e7 0.0
0.0 0.0 0.0

810054.4723552605 1.1827525063635318e7 0.0
1.1827525063635318e7 -6.56400885538247e6 0.0
0.0 0.0 0.0

-2.9672897359402035e6 1.1756288679408288e7 0.0
1.1756288679408288e7 -1.90708697265376e6 0.0
0.0 0.0 0.0

1.1875212789285923e6 8.492064457251804e6 0.0
8.492064457251804e6 -7.125251042985632e6 0.0
0.0 0.0 0.0

-1.5061474756449573e6 9.325048069336101e6 0.0
9.325048069336101e6 -7.574159744356835e6 0.0
0.0 0.0 0.0

-241313.72007983347 1.048395199095525e7 0.0
1.048395199095525e7 -804379.060798796 0.0
0.0 0.0 0.0

-6.5991571396078e6 1.1703310053693084e7 0.0
1.1703310053693084e7 5.3722154770469805e6 0.0
0.0 0.0 0.0

-7.723709632082313e6 1.342631000313882e7 0.0
1.342631000313882e7 6.27167531962676e6 0.0
0.0 0.0 0.0

-682762.8235812592 8.615178847325595e6 0.0
8.615178847325595e6 -5.784122882767992e6 0.0
0.0 0.0 0.0

-864216.753361401 8.006953372640337e6 0.0
8.006953372640337e6 -2.636944066296134e6 0.0
0.0 0.0 0.0

3.3588374830373935e6 5.881553143825163e6 0.0
5.881553143825163e6 -1.0058678839843001e7 0.0
0.0 0.0 0.0

1.2838393414604035e6 1.132838165801966e7 0.0
1.132838165801966e7 -5.371512252955464e6 0.0
0.0 0.0 0.0

1.9222978863640926e6 7.7659301282713e6 0.0
7.7659301282713e6 -9.186479050340775e6 0.0
0.0 0.0 0.0

-313623.66722324025 6.97174038908022e6 0.0
6.97174038908022e6 -3.097761009589586e6 0.0
0.0 0.0 0.0

-572996.6889327836 7.48967822483895e6 0.0
7.48967822483895e6 -3.529531817854967e6 0.0
0.0 0.0 0.0

2.2414990858435524e6 5.149341060705818e6 0.0
5.149341060705818e6 -5.001851850194353e6 0.0
0.0 0.0 0.0

-5.404432485758055e6 1.1960381009240212e7 0.0
1.1960381009240212e7 3.2674967089440315e6 0.0
0.0 0.0 0.0

718793.0964678512 1.1032139977915771e7 0.0
1.1032139977915771e7 -8.259567124872776e6 0.0
0.0 0.0 0.0

3.5583326140780514e6 8.62641198629208e6 0.0
8.62641198629208e6 -1.5095404217360865e7 0.0
0.0 0.0 0.0

-2.606660947570863e6 1.2524715261676753e7 0.0
1.2524715261676753e7 -128735.39480409818 0.0
0.0 0.0 0.0

-1.3178522867382372e7 1.4842064934728354e7 0.0
1.4842064934728354e7 1.905706035099498e6 0.0
0.0 0.0 0.0

-1.2596412824581245e7 1.1045454349318443e7 0.0
1.1045454349318443e7 7.205155773552937e6 0.0
0.0 0.0 0.0

-5.640733681167451e6 1.4224415689448122e7 0.0
1.4224415689448122e7 1.3277020072434794e6 0.0
0.0 0.0 0.0

381665.50259160344 1.0548438673262754e7 0.0
1.0548438673262754e7 -1.0607058037514718e7 0.0
0.0 0.0 0.0

-2.518512579689173e6 1.0019041314335767e7 0.0
1.0019041314335767e7 -8.39504209497537e6 0.0
0.0 0.0 0.0

-9.745505464212775e6 1.4550239529401647e7 0.0
1.4550239529401647e7 1.6103554818839557e6 0.0
0.0 0.0 0.0

-2.8693357093178453e6 1.094440059902146e7 0.0
1.094440059902146e7 -9.564452651022056e6 0.0
0.0 0.0 0.0

-6.855693701551656e6 1.0127035055122733e7 0.0
1.0127035055122733e7 7.933219489509742e6 0.0
0.0 0.0 0.0

-1.626605812683208e6 3.20833671479307e6 0.0
3.20833671479307e6 768940.8862474306 0.0
0.0 0.0 0.0

-4.863512762182192e6 1.2450591196379565e7 0.0
1.2450591196379565e7 845160.8987528551 0.0
0.0 0.0 0.0

-6.940898501679784e6 1.110409956123642e7 0.0
1.110409956123642e7 6.351538070832417e6 0.0
0.0 0.0 0.0

-5.194580631184429e6 1.07024332411398e6 0.0
1.07024332411398e6 4.0627980365902535e6 0.0
0.0 0.0 0.0

1.567317614615364e6 9.747686739123987e6 0.0
9.747686739123987e6 -9.379309398185942e6 0.0
0.0 0.0 0.0

-5.600049636955873e6 1.2510030290298412e7 0.0
1.2510030290298412e7 2.3565290624804236e6 0.0
0.0 0.0 0.0

-311055.20420038013 1.0954928362644423e7 0.0
1.0954928362644423e7 -1.76464883582115e6 0.0
0.0 0.0 0.0

-6.702115119670658e6 1.2776162060257608e7 0.0
1.2776162060257608e7 5.3242896157820225e6 0.0
0.0 0.0 0.0

-1.0632755704013262e7 1.442009689517861e7 0.0
1.442009689517861e7 3.4427652778068786e6 0.0
0.0 0.0 0.0

-2.6339121927453517e6 1.034088892341593e7 0.0
1.034088892341593e7 -8.779707747900214e6 0.0
0.0 0.0 0.0

-4.314190832167817e6 1.1600400027344162e7 0.0
1.1600400027344162e7 7.732673514671548e6 0.0
0.0 0.0 0.0

-1.1867171355591016e7 1.0564911433264697e7 0.0
1.0564911433264697e7 6.882073769728275e6 0.0
0.0 0.0 0.0

-2.683000728821374e6 5.166658265017105e6 0.0
5.166658265017105e6 1.9853589403946009e6 0.0
0.0 0.0 0.0

-1.3279348018737417e7 3.2233395579964183e6 0.0
3.2233395579964183e6 1.9761077615859736e7 0.0
0.0 0.0 0.0

-1.3950263465372443e6 1.1766030971214602e7 0.0
1.1766030971214602e7 -1.9675274780872855e6 0.0
0.0 0.0 0.0

-8.165004578852454e6 1.6994130273933243e7 0.0
1.6994130273933243e7 2.893008004545383e6 0.0
0.0 0.0 0.0

645977.1537743454 1.1360037497902408e7 0.0
1.1360037497902408e7 2.1532571803615107e6 0.0
0.0 0.0 0.0

3.3786848984261053e6 1.2094311909828113e7 0.0
1.2094311909828113e7 3.375090260829842e6 0.0
0.0 0.0 0.0

-7.763980873653647e6 1.4401131550999751e7 0.0
1.4401131550999751e7 2.286830009186322e6 0.0
0.0 0.0 0.0

-6.286796792649817e6 1.6340963432914581e7 0.0
1.6340963432914581e7 735948.8774160626 0.0
0.0 0.0 0.0

1.0410631775583779e6 1.1338135947190296e7 0.0
1.1338135947190296e7 5.497159364509549e6 0.0
0.0 0.0 0.0

4.62817516841692e6 7.438822374400351e6 0.0
7.438822374400351e6 -1.4422340260873249e7 0.0
0.0 0.0 0.0

-7.002998788274308e6 1.3323270247606257e7 0.0
1.3323270247606257e7 5.81227419073482e6 0.0
0.0 0.0 0.0

-253995.96608082656 1.0441149597180285e7 0.0
1.0441149597180285e7 -1.6014724507657422e6 0.0
0.0 0.0 0.0

-3.050593917631854e6 1.1343080891643517e7 0.0
1.1343080891643517e7 -1.0168646872672148e7 0.0
0.0 0.0 0.0

-1.9385254217980227e6 1.2605800657240828e7 0.0
1.2605800657240828e7 -161732.4147737616 0.0
0.0 0.0 0.0

4.704611794965295e6 5.874656292136042e6 0.0
5.874656292136042e6 -1.2710319322043307e7 0.0
0.0 0.0 0.0

-2.9867416564703896e6 1.1035943319435569e7 0.0
1.1035943319435569e7 -2.0374445246108235e6 0.0
0.0 0.0 0.0

-889155.995864827 1.3255394087382728e7 0.0
1.3255394087382728e7 -4.39969829046515e6 0.0
0.0 0.0 0.0

6.058540132312163e6 1.1719577193592979e7 0.0
1.1719577193592979e7 -8.083393488871159e6 0.0
0.0 0.0 0.0

-7.346256909527177e6 8.63099086866345e6 0.0
8.63099086866345e6 8.626028643548997e6 0.0
0.0 0.0 0.0

-3.092464220578199e6 5.9201213049548995e6 0.0
5.9201213049548995e6 3.5289406647894247e6 0.0
0.0 0.0 0.0

-4.933687756570172e6 1.3761935387160245e7 0.0
1.3761935387160245e7 2.478792497339191e6 0.0
0.0 0.0 0.0

-5.047599957983664e6 1.2554640167799203e7 0.0
1.2554640167799203e7 1.2940243163864e6 0.0
0.0 0.0 0.0

-9.702760862447854e6 -3.713769214336464e6 0.0
-3.713769214336464e6 1.8228591557661973e7 0.0
0.0 0.0 0.0

-902403.1468290689 1.082276047897282e7 0.0
1.082276047897282e7 -2.813144049548347e6 0.0
0.0 0.0 0.0

-8.065736156648798e6 1.3035794832911743e7 0.0
1.3035794832911743e7 6.66676341549011e6 0.0
0.0 0.0 0.0

382557.67048227345 6.706477141937358e6 0.0
6.706477141937358e6 -5.469040457242903e6 0.0
0.0 0.0 0.0

-3.6065146581846904e6 1.077524039071565e7 0.0
1.077524039071565e7 9.776536850047052e6 0.0
0.0 0.0 0.0

-1.818696606200649e7 1.1600152180963308e7 0.0
1.1600152180963308e7 7.747443155682709e6 0.0
0.0 0.0 0.0

-118366.5123392553 1.0333065864425281e7 0.0
1.0333065864425281e7 -4638.3613484777015 0.0
0.0 0.0 0.0

1.3778294095087154e6 6.269901713549401e6 0.0
6.269901713549401e6 -5.965011137000742e6 0.0
0.0 0.0 0.0

-6.472194647836712e6 1.0688389439391471e7 0.0
1.0688389439391471e7 1.210874003938242e7 0.0
0.0 0.0 0.0

-3.80720398259963e6 1.3236436091132125e7 0.0
1.3236436091132125e7 -851964.0366613126 0.0
0.0 0.0 0.0

616319.6802388483 1.7070768863344457e7 0.0
1.7070768863344457e7 -5.0754714984886665e6 0.0
0.0 0.0 0.0

-1.984042744852754e6 8.379968501627578e6 0.0
8.379968501627578e6 -6.613476026284062e6 0.0
0.0 0.0 0.0

-2.9870395854210756e6 8.164082933790718e6 0.0
8.164082933790718e6 894842.4626961455 0.0
0.0 0.0 0.0

580158.2101611712 6.974542234771675e6 0.0
6.974542234771675e6 -5.311722818443056e6 0.0
0.0 0.0 0.0

-242010.87258904753 1.0522823832502231e7 0.0
1.0522823832502231e7 -9.314531843234714e6 0.0
0.0 0.0 0.0

-2.618122500976026e6 1.1345265824294813e7 0.0
1.1345265824294813e7 -2.363816690301729e6 0.0
0.0 0.0 0.0

1.3860565629251122e6 1.1732499115089294e7 0.0
1.1732499115089294e7 5.012243932452826e6 0.0
0.0 0.0 0.0

-5.660207337654508e6 1.199451596929272e7 0.0
1.199451596929272e7 2.7119918970529228e6 0.0
0.0 0.0 0.0

-529415.7937724711 1.3335522462260524e7 0.0
1.3335522462260524e7 -5.006757335499356e6 0.0
0.0 0.0 0.0

-4.280424930602585e6 -1.5340938576859715e6 0.0
-1.5340938576859715e6 8.681752356803335e6 0.0
0.0 0.0 0.0

-2.3110970556874843e6 1.7767394427396522e6 0.0
1.7767394427396522e6 3.669312497976931e6 0.0
0.0 0.0 0.0

1.9610903237503981e6 1.2831368751424534e7 0.0
1.2831368751424534e7 -5.0925211211535875e6 0.0
0.0 0.0 0.0

-152734.01734495815 1.0696734182440346e7 0.0
1.0696734182440346e7 -125377.11453300576 0.0
0.0 0.0 0.0

1.206056067194563e7 8.666194651711471e6 0.0
8.666194651711471e6 -2.6728991360446457e6 0.0
0.0 0.0 0.0

-6.210523895680217e6 478112.1561000491 0.0
478112.1561000491 6.004386404126679e6 0.0
0.0 0.0 0.0

-6.660739391987194e6 1.3216333512433004e7 0.0
1.3216333512433004e7 682360.796982476 0.0
0.0 0.0 0.0

-9.413999610790268e6 8.32751560638806e6 0.0
8.32751560638806e6 6.756266113839459e6 0.0
0.0 0.0 0.0

-1.431690773099485e7 1.308311486292112e7 0.0
1.308311486292112e7 3.480211762774761e6 0.0
0.0 0.0 0.0

1.1468201624446146e7 6.36748238967374e6 0.0
6.36748238967374e6 -3.5683504606191334e6 0.0
0.0 0.0 0.0

-1.2771987240606835e7 1.997974127535156e6 0.0
1.997974127535156e6 2.4494370041444775e7 0.0
0.0 0.0 0.0

-803286.9299161701 7.870812330350254e6 0.0
7.870812330350254e6 -2.5679491648185425e6 0.0
0.0 0.0 0.0

-8.540685592402674e6 1.3777880517587323e7 0.0
1.3777880517587323e7 4.0873741043199613e6 0.0
0.0 0.0 0.0

-6.743967285693078e6 1.3075420988160277e7 0.0
1.3075420988160277e7 5.855112778658895e6 0.0
0.0 0.0 0.0

-2.7913206994788554e6 1.133842308086931e7 0.0
1.133842308086931e7 -2.9461759451183695e6 0.0
0.0 0.0 0.0

117939.4540346344 8.819001254573122e6 0.0
8.819001254573122e6 -5.5749208008531295e6 0.0
0.0 0.0 0.0

-311328.36389073904 1.0804346053826895e7 0.0
1.0804346053826895e7 -2.4576339384543695e6 0.0
0.0 0.0 0.0

-1.6579075777391186e6 1.0046844792527314e7 0.0
1.0046844792527314e7 -8.313408087041409e6 0.0
0.0 0.0 0.0

-535882.081494432 1.2222929371685034e7 0.0
1.2222929371685034e7 -1.385487351604256e7 0.0
0.0 0.0 0.0

2.391736983388569e6 4.754608126059518e6 0.0
4.754608126059518e6 -318110.022270133 0.0
0.0 0.0 0.0

-5.45477757710971e6 1.7643822427731298e7 0.0
1.7643822427731298e7 -1.769083546468251e6 0.0
0.0 0.0 0.0

-2.306665793266785e6 9.311428694961045e6 0.0
9.311428694961045e6 -7.688886448131219e6 0.0
0.0 0.0 0.0

1.3622058515886085e6 1.1219945177662227e7 0.0
1.1219945177662227e7 4.1786326375993323e6 0.0
0.0 0.0 0.0

1.3408253085686364e6 9.876270141509414e6 0.0
9.876270141509414e6 -5.750385543758152e6 0.0
0.0 0.0 0.0

-4.535416077618299e6 1.236049660764522e7 0.0
1.236049660764522e7 980386.6606878822 0.0
0.0 0.0 0.0

-610277.7711572405 9.76661891774971e6 0.0
9.76661891774971e6 -7.883864651243777e6 0.0
0.0 0.0 0.0

-1.3193507349391386e7 2.848615483936326e6 0.0
2.848615483936326e6 6.178868522044102e6 0.0
0.0 0.0 0.0

-288354.13659496064 2.505005913735582e6 0.0
2.505005913735582e6 -1.5247484569839477e6 0.0
0.0 0.0 0.0

-7.282164206606544e6 9.816742132750517e6 0.0
9.816742132750517e6 8.86087580466045e6 0.0
0.0 0.0 0.0

-549516.2237625746 7.658078678545575e6 0.0
7.658078678545575e6 -1.6740756205114601e6 0.0
0.0 0.0 0.0

-2.969153752415873e6 8.74918258165451e6 0.0
8.74918258165451e6 -2.466178434820243e6 0.0
0.0 0.0 0.0

-2.2069851226942437e6 9.989136958404664e6 0.0
9.989136958404664e6 -1.9906856605758397e6 0.0
0.0 0.0 0.0

-1.3267502847092906e6 8.064310903446351e6 0.0
8.064310903446351e6 -2.6877520642959797e6 0.0
0.0 0.0 0.0

5.662653079762595e6 1.2570566342410577e7 0.0
1.2570566342410577e7 -6.65709273742821e6 0.0
0.0 0.0 0.0

-1.081271051283815e7 1.3368977542998116e7 0.0
1.3368977542998116e7 8.1335589919323865e6 0.0
0.0 0.0 0.0

-839157.3585507502 1.4024003955837393e7 0.0
1.4024003955837393e7 -4.520711043643256e6 0.0
0.0 0.0 0.0

-1.736687395170954e6 1.2413515277478652e7 0.0
1.2413515277478652e7 -356083.16103428253 0.0
0.0 0.0 0.0

-8.412830905595338e6 1.4792944258260375e7 0.0
1.4792944258260375e7 6.462144945129417e6 0.0
0.0 0.0 0.0

-7.134293409244478e6 1.0597363660757266e7 0.0
1.0597363660757266e7 7.391310099575022e6 0.0
0.0 0.0 0.0

956446.1984193372 6.851705253038019e6 0.0
6.851705253038019e6 -4.837140318099106e6 0.0
0.0 0.0 0.0

-51375.120311984094 7.1801144064556565e6 0.0
7.1801144064556565e6 -3.4810573612341657e6 0.0
0.0 0.0 0.0

-1.9936492204893385e6 1.0982106141745228e7 0.0
1.0982106141745228e7 -9.603404039957115e6 0.0
0.0 0.0 0.0

-2.3645595896481667e6 1.204638780000162e7 0.0
1.204638780000162e7 1.0339732686486176e6 0.0
0.0 0.0 0.0

1.2551223828205487e6 6.875972026058071e6 0.0
6.875972026058071e6 -4.5371542644380955e6 0.0
0.0 0.0 0.0

-2.4362785590074956e7 1.69557126552461e7 0.0
1.69557126552461e7 9.10725547953771e6 0.0
0.0 0.0 0.0

3.9407641283448907e6 8.685559042666018e6 0.0
8.685559042666018e6 -1.6627948969842758e7 0.0
0.0 0.0 0.0

-243802.78630870953 7.25890705905871e6 0.0
7.25890705905871e6 -3.829023938933862e6 0.0
0.0 0.0 0.0

-1.383234838138241e6 1.1261490272046946e7 0.0
1.1261490272046946e7 -1.040282668371372e7 0.0
0.0 0.0 0.0

3.910394315630178e6 6.245396367599607e6 0.0
6.245396367599607e6 -1.182264526771585e7 0.0
0.0 0.0 0.0

994659.1984481849 1.8641841177840054e7 0.0
1.8641841177840054e7 -7.385087605065246e6 0.0
0.0 0.0 0.0

2.1061700825423696e6 7.77859336638002e6 0.0
7.77859336638002e6 -8.55428086604117e6 0.0
0.0 0.0 0.0

-1.2328474681370933e7 6.125586792591e6 0.0
6.125586792591e6 1.779795219217809e7 0.0
0.0 0.0 0.0

-7.035112334404662e6 8.774479557076996e6 0.0
8.774479557076996e6 8.42839585961834e6 0.0
0.0 0.0 0.0

-5.011793408734489e6 1.2587644735923154e7 0.0
1.2587644735923154e7 4.647032027364409e6 0.0
0.0 0.0 0.0

-6.011845382291108e6 9.358435467295645e6 0.0
9.358435467295645e6 4.325577074493013e6 0.0
0.0 0.0 0.0

-6.997221308901135e6 9.800034146793945e6 0.0
9.800034146793945e6 9.115191996994952e6 0.0
0.0 0.0 0.0

-5.545382840313326e6 1.195172978245705e7 0.0
1.195172978245705e7 2.7656656208454506e6 0.0
0.0 0.0 0.0

1.4072511063839365e6 1.1824640169007704e7 0.0
1.1824640169007704e7 4.69083705010511e6 0.0
0.0 0.0 0.0

-1.362777956969541e6 3.1195788281352404e6 0.0
3.1195788281352404e6 59075.19543116266 0.0
0.0 0.0 0.0

-1.2076325764099138e6 1.1925991328661956e7 0.0
1.1925991328661956e7 -4.903829819527401e6 0.0
0.0 0.0 0.0

2.8494271065563997e6 1.0330880600157965e7 0.0
1.0330880600157965e7 -1.7667512787567794e7 0.0
0.0 0.0 0.0

-1.1868466209435023e7 1.3676921099520367e7 0.0
1.3676921099520367e7 9.061357734376729e6 0.0
0.0 0.0 0.0

-4.656760541065518e6 1.4591853353158649e7 0.0
1.4591853353158649e7 -1.315283777161057e6 0.0
0.0 0.0 0.0

1.899419659469592e6 9.776355139160635e6 0.0
9.776355139160635e6 -2.2947092363325655e6 0.0
0.0 0.0 0.0

-7.057956934404259e6 8.785512917076936e6 0.0
8.785512917076936e6 9.546256592993453e6 0.0
0.0 0.0 0.0

-1.4003080255708937e7 1.179809959506313e7 0.0
1.179809959506313e7 1.0735495289451653e7 0.0
0.0 0.0 0.0

-2.1527945878457734e6 1.2978505591856536e7 0.0
1.2978505591856536e7 -3.48292796512774e6 0.0
0.0 0.0 0.0

92800.71075408533 1.0528844125744564e7 0.0
1.0528844125744564e7 -1.0017996177543897e7 0.0
0.0 0.0 0.0

-1.447004667803994e7 1.3702628439558724e7 0.0
1.3702628439558724e7 1.0941382140001945e7 0.0
0.0 0.0 0.0

6.576464309719423e6 1.6536814121678812e7 0.0
1.6536814121678812e7 -1.2154244942196213e7 0.0
0.0 0.0 0.0

1.505483942538321e6 9.148727084972963e6 0.0
9.148727084972963e6 -1.1472416004842073e6 0.0
0.0 0.0 0.0

1.1655167319840593e6 8.423406227333013e6 0.0
8.423406227333013e6 -7.750361512337324e6 0.0
0.0 0.0 0.0

-2.3307930951535637e6 1.170361622420929e7 0.0
1.170361622420929e7 -1.1132641175186638e7 0.0
0.0 0.0 0.0

-1.0848762438001311e6 1.7286424653068222e7 0.0
1.7286424653068222e7 -3.8350568613599334e6 0.0
0.0 0.0 0.0

950619.1064010765 1.0977754138616167e7 0.0
1.0977754138616167e7 -7.455879053160099e6 0.0
0.0 0.0 0.0

-6.55448705412615e6 1.4300136404187834e7 0.0
1.4300136404187834e7 2.5708209017323e6 0.0
0.0 0.0 0.0

2.781973574835296e6 9.705397175671535e6 0.0
9.705397175671535e6 -1.5552445045761958e7 0.0
0.0 0.0 0.0

-397269.64789689076 1.1473695778639255e7 0.0
1.1473695778639255e7 180790.68615533627 0.0
0.0 0.0 0.0

-1.2464008350827707e7 1.0420257324795587e7 0.0
1.0420257324795587e7 9.228766938354965e6 0.0
0.0 0.0 0.0

-5.412504645285187e6 1.2229266939563354e7 0.0
1.2229266939563354e7 3.150594574275108e6 0.0
0.0 0.0 0.0

6.323608072444364e6 9.29362301971971e6 0.0
9.29362301971971e6 -1.4046700030589253e6 0.0
0.0 0.0 0.0

-9.249923688322429e6 1.5214206062705733e7 0.0
1.5214206062705733e7 6.538069449863457e6 0.0
0.0 0.0 0.0

-1.8514569964833562e6 1.0085000226803191e7 0.0
1.0085000226803191e7 1.510235601911225e6 0.0
0.0 0.0 0.0

2.924380616985729e6 5.755680352375081e6 0.0
5.755680352375081e6 -5.11795399723926e6 0.0
0.0 0.0 0.0

-4.861413426305248e6 1.7695073215958398e7 0.0
1.7695073215958398e7 200797.7226700806 0.0
0.0 0.0 0.0

693213.3544765417 1.1249660167709244e7 0.0
1.1249660167709244e7 -8.00878853269142e6 0.0
0.0 0.0 0.0

4.985404802818393e6 6.233991124976114e6 0.0
6.233991124976114e6 -1.3842844858949292e7 0.0
0.0 0.0 0.0

-239739.26072207943 7.617416741092583e6 0.0
7.617416741092583e6 -3.808544043561275e6 0.0
0.0 0.0 0.0

1.2174328751529856e6 6.778555244043937e6 0.0
6.778555244043937e6 -4.943866477240903e6 0.0
0.0 0.0 0.0

-129534.66203118768 9.1729304820285e6 0.0
9.1729304820285e6 -5.597932965878107e6 0.0
0.0 0.0 0.0

-9.972870182669366e6 1.0812466739133853e7 0.0
1.0812466739133853e7 7.587609940188074e6 0.0
0.0 0.0 0.0

-1.3195538816466075e6 1.2332259238626273e7 0.0
1.2332259238626273e7 242379.57249100512 0.0
0.0 0.0 0.0

-409254.6753547435 1.3906506527481478e7 0.0
1.3906506527481478e7 -4.347444488708828e6 0.0
0.0 0.0 0.0

4.114797943142524e6 6.65504190033047e6 0.0
6.65504190033047e6 -1.1702752681841087e7 0.0
0.0 0.0 0.0

-2.649103795230548e6 1.0980070254394226e7 0.0
1.0980070254394226e7 -2.245414496599155e6 0.0
0.0 0.0 0.0

-1.4624282715185867e6 1.0040052205745056e7 0.0
1.0040052205745056e7 -4.538429499844365e6 0.0
0.0 0.0 0.0

-6.364062262430869e6 1.3747930444266314e7 0.0
1.3747930444266314e7 2.782772006460131e6 0.0
0.0 0.0 0.0

-151679.173214962 1.641556605522532e7 0.0
1.641556605522532e7 -4.842840831942768e6 0.0
0.0 0.0 0.0

-5.770402334414104e6 1.2933775494483028e7 0.0
1.2933775494483028e7 5.525906663773226e6 0.0
0.0 0.0 0.0

-3.0517515556694586e6 1.012633358468331e7 0.0
1.012633358468331e7 3.414717348506226e6 0.0
0.0 0.0 0.0

-7.682016267957171e6 1.2686420720424045e7 0.0
1.2686420720424045e7 3.3065379208662525e7 0.0
0.0 0.0 0.0

-1.1610857303279148e7 1.5943110342994956e7 0.0
1.5943110342994956e7 8.678013760934936e6 0.0
0.0 0.0 0.0

1.0560017086043996e6 1.1796100785377037e7 0.0
1.1796100785377037e7 -6.170200601468425e6 0.0
0.0 0.0 0.0

2.5946847267682753e6 8.235315267199766e6 0.0
8.235315267199766e6 -1.000308699261256e7 0.0
0.0 0.0 0.0

2.886899215065225e6 7.970244336429199e6 0.0
7.970244336429199e6 -1.0462528436235022e7 0.0
0.0 0.0 0.0

3.0729663025298766e6 5.728218823701062e6 0.0
5.728218823701062e6 -9.016816690211164e6 0.0
0.0 0.0 0.0

-6.374673701336926e6 1.1807629619014272e7 0.0
1.1807629619014272e7 6.0330830677494425e6 0.0
0.0 0.0 0.0

2.7096301908930233e6 5.637428242507503e6 0.0
5.637428242507503e6 -8.874145566600816e6 0.0
0.0 0.0 0.0

-8.672807603305541e6 -836350.7834702989 0.0
-836350.7834702989 1.1228954388866466e7 0.0
0.0 0.0 0.0

-4.606506985454556e6 1.2256141538274575e7 0.0
1.2256141538274575e7 5.443961269508474e6 0.0
0.0 0.0 0.0

-547778.0880456642 7.439228319059548e6 0.0
7.439228319059548e6 -3.3396666570864953e6 0.0
0.0 0.0 0.0

-5.301357575961375e6 1.4483537338711666e7 0.0
1.4483537338711666e7 -327800.51371366065 0.0
0.0 0.0 0.0

-5.23109696186886e6 1.6006109182505816e7 0.0
1.6006109182505816e7 925515.9604861382 0.0
0.0 0.0 0.0

-188897.75677795004 1.0345091151542723e7 0.0
1.0345091151542723e7 -1.0705951654767822e6 0.0
0.0 0.0 0.0

2.6466825053363023e6 9.496965787865898e6 0.0
9.496965787865898e6 -1.419152430616539e7 0.0
0.0 0.0 0.0

4.5655344025950655e6 6.118028388629624e6 0.0
6.118028388629624e6 -1.2358525660845727e7 0.0
0.0 0.0 0.0

-2.387835458564735e7 1.8030191346588288e7 0.0
1.8030191346588288e7 3.148877603308744e6 0.0
0.0 0.0 0.0

2.873057135610492e6 1.293879064931248e7 0.0
1.293879064931248e7 5.354231223238527e6 0.0
0.0 0.0 0.0

-5.385927099893655e6 1.5668179115531566e7 0.0
1.5668179115531566e7 1.3162937448732469e6 0.0
0.0 0.0 0.0

-2.6049757541072904e6 1.1420597993600884e7 0.0
1.1420597993600884e7 3.86882987260143e6 0.0
0.0 0.0 0.0

-219690.65095933859 1.1132234647867244e7 0.0
1.1132234647867244e7 -769558.0102840986 0.0
0.0 0.0 0.0

-1.176569577089128e7 1.15618959638562e6 0.0
1.15618959638562e6 1.5867071400031887e7 0.0
0.0 0.0 0.0

-8.963206668225452e6 1.3107263495124206e7 0.0
1.3107263495124206e7 7.335729980114188e6 0.0
0.0 0.0 0.0

-1.479374702454716e6 8.533096804755589e6 0.0
8.533096804755589e6 -3.2614080079817763e6 0.0
0.0 0.0 0.0

-7.04002560579359e6 1.119492017366966e6 0.0
1.119492017366966e6 6.723291964231078e6 0.0
0.0 0.0 0.0

-1.0435523996437721e7 7.620941755627657e6 0.0
7.620941755627657e6 4.658017907901692e7 0.0
0.0 0.0 0.0

-506863.8267141974 1.2352830739152879e7 0.0
1.2352830739152879e7 -5.562002318244069e6 0.0
0.0 0.0 0.0

2.1087034797319397e6 6.463852410810027e6 0.0
6.463852410810027e6 -5.309677587873637e6 0.0
0.0 0.0 0.0

-1.3565632942948943e7 2.558703066571168e6 0.0
2.558703066571168e6 2.6077078650824487e7 0.0
0.0 0.0 0.0

3.8828252558640176e6 5.833159842735912e6 0.0
5.833159842735912e6 -1.0633913033171667e7 0.0
0.0 0.0 0.0

-4.048552834131567e6 1.0287490720892197e7 0.0
1.0287490720892197e7 2.362799252565195e6 0.0
0.0 0.0 0.0

-1.1293770198726714e7 1.3566087393744329e7 0.0
1.3566087393744329e7 4.863695722287068e6 0.0
0.0 0.0 0.0

-301643.28106441116 1.1677223997047907e7 0.0
1.1677223997047907e7 -7.010968086331087e6 0.0
0.0 0.0 0.0

-3.13182536445708e6 2.3396666965060686e6 0.0
2.3396666965060686e6 3.022170411036813e6 0.0
0.0 0.0 0.0

-1.9285287211941797e6 1.2571299852521434e7 0.0
1.2571299852521434e7 239090.14682165347 0.0
0.0 0.0 0.0

1.8615493041448332e6 1.5719926192116166e7 0.0
1.5719926192116166e7 -6.177770126217026e6 0.0
0.0 0.0 0.0

-297582.51466179034 2.530991546071798e6 0.0
2.530991546071798e6 -529646.4976721032 0.0
0.0 0.0 0.0

3.865091013886248e6 9.934894010513393e6 0.0
9.934894010513393e6 -1.1836069019702116e6 0.0
0.0 0.0 0.0

-5.039371916195466e6 2.0376511593673307e7 0.0
2.0376511593673307e7 -6.331745484463458e6 0.0
0.0 0.0 0.0

3.3965122584761316e6 5.794560618379248e6 0.0
5.794560618379248e6 -9.82229452598943e6 0.0
0.0 0.0 0.0

-3.568200616378138e6 9.172277265043722e6 0.0
9.172277265043722e6 365343.934241588 0.0
0.0 0.0 0.0

1.3257980329072785e6 1.3449235017689783e7 0.0
1.3449235017689783e7 8.166140816926563e6 0.0
0.0 0.0 0.0

1.849059924296482e7 6.407020085338548e6 0.0
6.407020085338548e6 -4.457307818458692e6 0.0
0.0 0.0 0.0

-1.5075541594496345e7 1.4037659491214573e7 0.0
1.4037659491214573e7 6.487185128864165e6 0.0
0.0 0.0 0.0

-5.555422137850887e6 1.1655730936549973e7 0.0
1.1655730936549973e7 2.8750012868599813e6 0.0
0.0 0.0 0.0

2.450462979317099e6 9.368152400494458e6 0.0
9.368152400494458e6 -1.3092425475333571e7 0.0
0.0 0.0 0.0

-8.751308064396275e6 1.2085291449298343e7 0.0
1.2085291449298343e7 6.766320133092915e6 0.0
0.0 0.0 0.0

2.5488437191850236e6 9.590599769854542e6 0.0
9.590599769854542e6 926929.6812413563 0.0
0.0 0.0 0.0

-1.1711749482805181e7 2.69283612914514e6 0.0
2.69283612914514e6 3.409248893866503e7 0.0
0.0 0.0 0.0

-4.1713046978789624e6 1.2683956567526622e7 0.0
1.2683956567526622e7 4.1079637008135403e6 0.0
0.0 0.0 0.0

-471531.4217315777 1.1137117377444474e7 0.0
1.1137117377444474e7 1.8015613395961728e6 0.0
0.0 0.0 0.0

-2.403319128532877e6 1.0307952552241275e7 0.0
1.0307952552241275e7 -2.852409973427416e6 0.0
0.0 0.0 0.0

2.8610136005823067e6 1.1729616664978081e7 0.0
1.1729616664978081e7 -5.26762497586881e6 0.0
0.0 0.0 0.0

1.2099278752401706e6 1.193287153692233e7 0.0
1.193287153692233e7 -5.608956627093881e6 0.0
0.0 0.0 0.0

-1.72777463556829e6 8.458641364630058e6 0.0
8.458641364630058e6 -2.285012048605591e6 0.0
0.0 0.0 0.0

-2.7177721381144626e6 1.1995182147787558e7 0.0
1.1995182147787558e7 4.239075308419163e6 0.0
0.0 0.0 0.0

-253411.7972084427 1.1320643556852465e7 0.0
1.1320643556852465e7 -985043.1058384073 0.0
0.0 0.0 0.0

-245040.53866034898 1.10158988702872e7 0.0
1.10158988702872e7 -2.0528267163606235e6 0.0
0.0 0.0 0.0

-74133.3434277554 1.0403292272268537e7 0.0
1.0403292272268537e7 -9.488223076200731e6 0.0
0.0 0.0 0.0

-6.420719853720471e6 1.2867065002037145e7 0.0
1.2867065002037145e7 4.954847601438098e6 0.0
0.0 0.0 0.0

-8.069630084425248e6 1.2436437155184586e7 0.0
1.2436437155184586e7 1.7273979002294298e6 0.0
0.0 0.0 0.0

-9.220730996384446e6 1.3621598780848207e7 0.0
1.3621598780848207e7 7.512528533622653e6 0.0
0.0 0.0 0.0

-2.1113024890556717e6 1.163317474128697e7 0.0
1.163317474128697e7 2.3936120480467887e6 0.0
0.0 0.0 0.0

3.202817054413656e6 6.6309993008609675e6 0.0
6.6309993008609675e6 -9.88221654149686e6 0.0
0.0 0.0 0.0

-1.164746628692532e6 1.2218356805100486e7 0.0
1.2218356805100486e7 -5.758363864008019e6 0.0
0.0 0.0 0.0

-1.73772769388089e6 1.6937501923514757e7 0.0
1.6937501923514757e7 -5.643263946269387e6 0.0
0.0 0.0 0.0

-8.120043880257992e6 -652954.3728617462 0.0
-652954.3728617462 8.979216691026513e6 0.0
0.0 0.0 0.0

-2.673795013581132e6 1.2451798220729226e7 0.0
1.2451798220729226e7 2.1412223135893503e6 0.0
0.0 0.0 0.0

1.319942553524394e6 9.719035958490038e6 0.0
9.719035958490038e6 -2.4479171804428585e6 0.0
0.0 0.0 0.0

2.1737703317715023e6 1.2888717282833418e7 0.0
1.2888717282833418e7 -5.3797954529709425e6 0.0
0.0 0.0 0.0

-8.191325648497815e6 2.7980469828140433e6 0.0
2.7980469828140433e6 1.0709443130926698e7 0.0
0.0 0.0 0.0

-489027.73026095855 1.1556953508165559e7 0.0
1.1556953508165559e7 2.3552100595817864e6 0.0
0.0 0.0 0.0

-6.428996131519136e6 9.534626674809111e6 0.0
9.534626674809111e6 2.300449087997071e6 0.0
0.0 0.0 0.0

1.195551479096775e6 1.060535960922693e7 0.0
1.060535960922693e7 -9.373048639723469e6 0.0
0.0 0.0 0.0

-6.3110138294157125e6 1.8210051323232263e7 0.0
1.8210051323232263e7 1.8312856694158255e6 0.0
0.0 0.0 0.0

-9.895457752999358e6 1.38981595479829e7 0.0
1.38981595479829e7 7.9441613892065175e6 0.0
0.0 0.0 0.0

-5.440691215565946e6 4.571518325842805e6 0.0
4.571518325842805e6 6.302715765661746e6 0.0
0.0 0.0 0.0

-2.776163593905883e6 1.2968782508908251e7 0.0
1.2968782508908251e7 -122397.30138829199 0.0
0.0 0.0 0.0

-9.75854165300233e6 1.4514570373500694e7 0.0
1.4514570373500694e7 7.701950619165492e6 0.0
0.0 0.0 0.0

-9.154313734061625e6 1.4097084026017288e7 0.0
1.4097084026017288e7 7.331453468079412e6 0.0
0.0 0.0 0.0

-303011.85472606064 1.0800692954588788e7 0.0
1.0800692954588788e7 966197.8927659895 0.0
0.0 0.0 0.0

1.0139687671545902e6 9.017901694364026e6 0.0
9.017901694364026e6 -7.087256210535608e6 0.0
0.0 0.0 0.0

1.1087715756784767e7 1.325915045313283e7 0.0
1.325915045313283e7 920371.5106528206 0.0
0.0 0.0 0.0

-1.823442332698636e7 -4.155241139736878e6 0.0
-4.155241139736878e6 8.337828961800565e6 0.0
0.0 0.0 0.0

-1.0465723370278604e7 1.1429873954355832e7 0.0
1.1429873954355832e7 5.738820750203689e6 0.0
0.0 0.0 0.0

3.531815747288642e6 5.841202989485116e6 0.0
5.841202989485116e6 -1.0592827366954308e7 0.0
0.0 0.0 0.0

-2.4611666522960393e6 1.1231759246123504e7 0.0
1.1231759246123504e7 -3.566478235821723e6 0.0
0.0 0.0 0.0

-8.564572361828143e6 1.2597015457413469e7 0.0
1.2597015457413469e7 7.031034433741581e6 0.0
0.0 0.0 0.0

-9.715449808315687e6 140833.94465315316 0.0
140833.94465315316 1.1823714831523694e7 0.0
0.0 0.0 0.0

1.7883395398244048e6 8.09090749925102e6 0.0
8.09090749925102e6 -9.424422963552067e6 0.0
0.0 0.0 0.0

-1.1187613950403873e6 9.916318361873105e6 0.0
9.916318361873105e6 -8.231151211807236e6 0.0
0.0 0.0 0.0

2.4546921924873656e6 1.0357113307281526e7 0.0
1.0357113307281526e7 353700.61269030784 0.0
0.0 0.0 0.0

-1.9129142418124385e7 1.5138037985142484e7 0.0
1.5138037985142484e7 7.862746080163991e6 0.0
0.0 0.0 0.0

-1.484566241365068e6 7.635115292424339e6 0.0
7.635115292424339e6 -2.0608629536975096e6 0.0
0.0 0.0 0.0

-7.278007021483551e6 1.3056701116398184e7 0.0
1.3056701116398184e7 6.017361042591206e6 0.0
0.0 0.0 0.0

-6.550820039848845e6 1.3400029682082463e7 0.0
1.3400029682082463e7 4.849775478116918e6 0.0
0.0 0.0 0.0

-9.140669845111167e6 -390692.754157514 0.0
-390692.754157514 1.5429313167924248e7 0.0
0.0 0.0 0.0

-573637.6300106444 3.128984440246413e6 0.0
3.128984440246413e6 -335924.4090573739 0.0
0.0 0.0 0.0

537628.3334792233 9.211184557768578e6 0.0
9.211184557768578e6 -7.393459074609742e6 0.0
0.0 0.0 0.0

-8.906811038672244e6 744808.6261367083 0.0
744808.6261367083 1.1291915632391524e7 0.0
0.0 0.0 0.0

-179649.12453741953 1.0766532257741814e7 0.0
1.0766532257741814e7 -7.220943822179133e6 0.0
0.0 0.0 0.0

3.0900990629439466e6 1.0946432378834726e7 0.0
1.0946432378834726e7 -4.054758345649616e6 0.0
0.0 0.0 0.0

207526.58685226552 7.009418806805203e6 0.0
7.009418806805203e6 -5.161715870198859e6 0.0
0.0 0.0 0.0

-8.207661024577901e6 1.1524318757363122e7 0.0
1.1524318757363122e7 5.655133482973175e6 0.0
0.0 0.0 0.0

-6.798165220948282e6 1.3780268295090834e7 0.0
1.3780268295090834e7 3.785045652312356e6 0.0
0.0 0.0 0.0

-582912.9673611064 7.201699718429421e6 0.0
7.201699718429421e6 -1.9430429529827887e6 0.0
0.0 0.0 0.0

-575024.9319035847 1.0645869707575353e7 0.0
1.0645869707575353e7 -1.9167498505428128e6 0.0
0.0 0.0 0.0

740518.9607488136 9.225746753635481e6 0.0
9.225746753635481e6 -6.719066249372476e6 0.0
0.0 0.0 0.0

-1.2600577660332366e6 9.929453287997674e6 0.0
9.929453287997674e6 -8.264226650155917e6 0.0
0.0 0.0 0.0

-4.375691282688021e6 1.9060214241892486e6 0.0
1.9060214241892486e6 3.1768229323971686e6 0.0
0.0 0.0 0.0

-1.9602782227102357e6 7.348773658918182e6 0.0
7.348773658918182e6 -478965.13067474 0.0
0.0 0.0 0.0

-1.698251255589739e6 1.3000032140867982e7 0.0
1.3000032140867982e7 -4.129886938194439e6 0.0
0.0 0.0 0.0

1.5182316501709898e6 6.677705027100174e6 0.0
6.677705027100174e6 -7.119636012196854e6 0.0
0.0 0.0 0.0

-1.6287298523192603e7 9.51799534855795e6 0.0
9.51799534855795e6 4.265980425093095e6 0.0
0.0 0.0 0.0

2.5695434523345893e6 1.1566219257295525e7 0.0
1.1566219257295525e7 -5.12055243185895e6 0.0
0.0 0.0 0.0

6.962258956369184e6 9.999331067884363e6 0.0
9.999331067884363e6 -4.493094644801477e6 0.0
0.0 0.0 0.0

-1.3735787116096344e7 1.4288999844663514e7 0.0
1.4288999844663514e7 1.0053889796642825e7 0.0
0.0 0.0 0.0

-2.3071546778805405e6 4.0614723469089638e6 0.0
4.0614723469089638e6 1.6283885156359181e6 0.0
0.0 0.0 0.0

-1.817371777690075e6 1.0149761060443526e7 0.0
1.0149761060443526e7 -3.9668942961725183e6 0.0
0.0 0.0 0.0

-3.5951778188746786e6 1.2414834750781372e7 0.0
1.2414834750781372e7 48588.21952402871 0.0
0.0 0.0 0.0

-1.4434244361848596e7 1.0759874711236244e7 0.0
1.0759874711236244e7 8.663921534731872e6 0.0
0.0 0.0 0.0

-1.0091838596907058e6 1.0842309474096108e7 0.0
1.0842309474096108e7 -1.0386189175139898e7 0.0
0.0 0.0 0.0

-286294.9306344328 1.118714046409866e7 0.0
1.118714046409866e7 232151.7223128102 0.0
0.0 0.0 0.0

-166493.53845977038 1.0226834244467132e7 0.0
1.0226834244467132e7 -8.966976934712877e6 0.0
0.0 0.0 0.0

-1.44665982238112e7 1.227089632310667e7 0.0
1.227089632310667e7 9.996657571197836e6 0.0
0.0 0.0 0.0

-4.560498881000693e6 1.3376932956446912e7 0.0
1.3376932956446912e7 -1.0874684529114058e6 0.0
0.0 0.0 0.0

-2.764537210020613e6 1.240675676217966e7 0.0
1.240675676217966e7 399498.9111634849 0.0
0.0 0.0 0.0

2.502795317071754e6 8.584528877225783e6 0.0
8.584528877225783e6 -1.0239610854705973e7 0.0
0.0 0.0 0.0

-1.0642835042772718e7 726950.4240397218 0.0
726950.4240397218 1.4611908211571366e7 0.0
0.0 0.0 0.0

-2.409506061615357e6 9.714644192504104e6 0.0
9.714644192504104e6 -2.437628096673138e6 0.0
0.0 0.0 0.0

2.2102166436160826e6 1.2184956764953258e7 0.0
1.2184956764953258e7 -4.670999378726933e6 0.0
0.0 0.0 0.0

-733857.7990451236 1.0614337204346538e7 0.0
1.0614337204346538e7 -9.818487267691122e6 0.0
0.0 0.0 0.0

-8.373485315384973e6 1.2896196525944177e7 0.0
1.2896196525944177e7 5.73472567475559e6 0.0
0.0 0.0 0.0

-1.9270115052849802e6 1.9625283254277747e7 0.0
1.9625283254277747e7 -8.907979710405711e6 0.0
0.0 0.0 0.0

-2.184062429914969e6 1.2719672159301553e7 0.0
1.2719672159301553e7 -203140.350066336 0.0
0.0 0.0 0.0

-9.227425181905014e6 1.295185633852349e7 0.0
1.295185633852349e7 6.4590873735727165e6 0.0
0.0 0.0 0.0

-7.624083879996452e6 9.716454368381085e6 0.0
9.716454368381085e6 7.7549420854953695e6 0.0
0.0 0.0 0.0

1.197310150355992e6 1.1780440030246444e7 0.0
1.1780440030246444e7 -5.317097116090919e6 0.0
0.0 0.0 0.0

-6.609607518594712e6 1.2937429219338413e7 0.0
1.2937429219338413e7 5.219628911195448e6 0.0
0.0 0.0 0.0

-331600.377701947 1.0608109857009992e7 0.0
1.0608109857009992e7 -1.0023548378202546e7 0.0
0.0 0.0 0.0

2.7021036962907068e6 6.1442088957493175e6 0.0
6.1442088957493175e6 -9.370987005188894e6 0.0
0.0 0.0 0.0

-766636.6496662297 1.0459196427642679e7 0.0
1.0459196427642679e7 -9.328418739284828e6 0.0
0.0 0.0 0.0

-7.665318664862531e6 1.3881393948088603e7 0.0
1.3881393948088603e7 5.949824210004818e6 0.0
0.0 0.0 0.0

-857356.7265992227 1.0850497420549376e7 0.0
1.0850497420549376e7 -2.857855664833688e6 0.0
0.0 0.0 0.0

314298.9451949658 8.811201959462294e6 0.0
8.811201959462294e6 1.0476631300648957e6 0.0
0.0 0.0 0.0

-1.0040015850320255e7 7.098320933897499e6 0.0
7.098320933897499e6 1.08530467743568e7 0.0
0.0 0.0 0.0

-1.2954881507474943e6 8.396270725624869e6 0.0
8.396270725624869e6 -2.217457892820677e6 0.0
0.0 0.0 0.0

1.1626207527169266e6 1.163685486567514e7 0.0
1.163685486567514e7 7.639090940694885e6 0.0
0.0 0.0 0.0

-1.0101898857086897e7 -1.703555861010867e6 0.0
-1.703555861010867e6 1.2912185833473912e7 0.0
0.0 0.0 0.0

4.002404885127553e6 6.213540895057147e6 0.0
6.213540895057147e6 -1.2344021041751884e7 0.0
0.0 0.0 0.0

212981.8996024588 1.0692894480540255e7 0.0
1.0692894480540255e7 -9.713118302116726e6 0.0
0.0 0.0 0.0

-8.694378650327254e6 1.3193005400744574e7 0.0
1.3193005400744574e7 6.540212889671229e6 0.0
0.0 0.0 0.0

6.920062046588262e6 1.005456089042878e7 0.0
1.005456089042878e7 154307.2911474998 0.0
0.0 0.0 0.0

-8.869047362339523e6 2.1876747331700264e6 0.0
2.1876747331700264e6 9.932858381275985e6 0.0
0.0 0.0 0.0

-1.3864205790815786e7 1.4383737977328394e7 0.0
1.4383737977328394e7 4.248685738883324e6 0.0
0.0 0.0 0.0

-3.1616062783596506e6 1.212256886177331e7 0.0
1.212256886177331e7 2.1008558347856337e6 0.0
0.0 0.0 0.0

-1.6031952661251135e7 1.1360445556225918e7 0.0
1.1360445556225918e7 1.0130501509759046e7 0.0
0.0 0.0 0.0

4.1175086059968397e6 6.450040175395763e6 0.0
6.450040175395763e6 -1.285856816301586e7 0.0
0.0 0.0 0.0

-4.332611531072223e6 1.5809461720241742e7 0.0
1.5809461720241742e7 38872.92494076141 0.0
0.0 0.0 0.0

-1.282478223466925e7 6.332133936803007e6 0.0
6.332133936803007e6 2.253971980886486e7 0.0
0.0 0.0 0.0

-6.618299628235089e6 1.2795628004324164e7 0.0
1.2795628004324164e7 5.79044470664354e6 0.0
0.0 0.0 0.0

-769984.1838622019 1.0792217937817885e7 0.0
1.0792217937817885e7 -2.5947843644178505e6 0.0
0.0 0.0 0.0

177526.6922535177 4.588951058175671e6 0.0
4.588951058175671e6 -2.218303684411535e6 0.0
0.0 0.0 0.0

-1.298245506091722e6 1.111243250764374e7 0.0
1.111243250764374e7 2.072827291424803e6 0.0
0.0 0.0 0.0

-3.484045063203286e6 1.2558406547538143e7 0.0
1.2558406547538143e7 3.1854590281970156e6 0.0
0.0 0.0 0.0

186573.2865393008 7.290069746062031e6 0.0
7.290069746062031e6 -4.73073897194194e6 0.0
0.0 0.0 0.0

-1.6258578614798218e6 1.214934968426652e7 0.0
1.214934968426652e7 -137762.69771298743 0.0
0.0 0.0 0.0

2.0567012029178827e6 1.186507029445843e7 0.0
1.186507029445843e7 -4.685878824853396e6 0.0
0.0 0.0 0.0

-1.4418904217426826e6 8.3267100372292055e6 0.0
8.3267100372292055e6 -1.717855048889874e6 0.0
0.0 0.0 0.0

431158.6046790839 1.0442946105790695e7 0.0
1.0442946105790695e7 -1.0038046708068166e7 0.0
0.0 0.0 0.0

-3.614369218565779e6 8.282262851205893e6 0.0
8.282262851205893e6 737478.7808940927 0.0
0.0 0.0 0.0

-6.677953901634149e6 9.843489099225493e6 0.0
9.843489099225493e6 8.788208306028973e6 0.0
0.0 0.0 0.0

-3.916439431343695e6 1.6485341470503693e6 0.0
1.6485341470503693e6 4.91515234996033e6 0.0
0.0 0.0 0.0

-4.831670212395185e6 1.2090660378205901e7 0.0
1.2090660378205901e7 1.2684657098734877e6 0.0
0.0 0.0 0.0

-6.774309410698485e6 1.3338476613965265e7 0.0
1.3338476613965265e7 5.769737513212192e6 0.0
0.0 0.0 0.0

-1.857052825739956e6 1.6549047115964893e7 0.0
1.6549047115964893e7 -3.060006273525038e6 0.0
0.0 0.0 0.0

-9.354502614257533e6 1.110183802373508e6 0.0
1.110183802373508e6 1.075958448012562e7 0.0
0.0 0.0 0.0

-17950.949630566407 1.0618919662390912e7 0.0
1.0618919662390912e7 -1.031065916956396e7 0.0
0.0 0.0 0.0

-6.880776883705037e6 1.3245565406966442e7 0.0
1.3245565406966442e7 5.87556186543615e6 0.0
0.0 0.0 0.0

1.3106220195927403e6 1.0731386214813067e7 0.0
1.0731386214813067e7 -5.924360565869942e6 0.0
0.0 0.0 0.0

-1.7424999638629868e6 8.74125938188844e6 0.0
8.74125938188844e6 -2.8356844626716333e6 0.0
0.0 0.0 0.0

-1.379238216962519e6 3.5763576946614766e6 0.0
3.5763576946614766e6 611613.2366124527 0.0
0.0 0.0 0.0

-9.375411840603622e6 1.3263392439352885e7 0.0
1.3263392439352885e7 7.0908976943137385e6 0.0
0.0 0.0 0.0

-4.218284302679933e6 1.1557736280856576e7 0.0
1.1557736280856576e7 1.1641300682706703e6 0.0
0.0 0.0 0.0

-1.0493462595034777e6 1.0704386390666256e7 0.0
1.0704386390666256e7 4.243742463169284e6 0.0
0.0 0.0 0.0

2.5592957426262256e6 4.924036947703077e6 0.0
4.924036947703077e6 -3.944441663909818e6 0.0
0.0 0.0 0.0

1.8858145620364018e6 9.440954575286027e6 0.0
9.440954575286027e6 -978435.472139369 0.0
0.0 0.0 0.0

3.7900197628495516e6 8.62377005224237e6 0.0
8.62377005224237e6 -1.5728278642290847e7 0.0
0.0 0.0 0.0

-7.209745238515969e6 1.7825027443778746e7 0.0
1.7825027443778746e7 479243.5384189286 0.0
0.0 0.0 0.0

-4.865928361323022e6 1.2846053122324232e7 0.0
1.2846053122324232e7 4.593590720614375e6 0.0
0.0 0.0 0.0

-2.412467973109263e6 5.132126101127376e6 0.0
5.132126101127376e6 86810.86569318653 0.0
0.0 0.0 0.0

-660455.3039161328 1.2037068502395328e7 0.0
1.2037068502395328e7 -1.2856289845933465e6 0.0
0.0 0.0 0.0

3.1785394982177382e6 9.317643708567332e6 0.0
9.317643708567332e6 -1.4423553417240338e7 0.0
0.0 0.0 0.0

689004.472083421 1.086162962763607e7 0.0
1.086162962763607e7 -8.981551756405348e6 0.0
0.0 0.0 0.0

-1.2348465390124459e7 1.43516168242708e7 0.0
1.43516168242708e7 8.91713784878435e6 0.0
0.0 0.0 0.0

-824500.5844129999 1.0871911830305008e7 0.0
1.0871911830305008e7 -2.74833536927684e6 0.0
0.0 0.0 0.0

-3.344334136269638e6 1.2733586579841139e7 0.0
1.2733586579841139e7 42390.26954475674 0.0
0.0 0.0 0.0

-5.4211731028527245e6 1.1336186383401012e7 0.0
1.1336186383401012e7 3.6546809021403496e6 0.0
0.0 0.0 0.0

-1.2088078413782404e6 1.0341597009250378e7 0.0
1.0341597009250378e7 -4.0591376959618507e6 0.0
0.0 0.0 0.0

2.251865046256569e6 1.0236417910002483e7 0.0
1.0236417910002483e7 -394468.15260138956 0.0
0.0 0.0 0.0

-5.304471929670849e6 1.1254534134880027e7 0.0
1.1254534134880027e7 2.9757617528750123e6 0.0
0.0 0.0 0.0

-1.402764848722333e6 1.2230058546616232e7 0.0
1.2230058546616232e7 710471.9499143149 0.0
0.0 0.0 0.0

-1.2501238253164647e7 3.3691572565429853e6 0.0
3.3691572565429853e6 2.732800565224479e7 0.0
0.0 0.0 0.0

-1.329199995964568e6 8.689503641290758e6 0.0
8.689503641290758e6 -2.769508080686253e6 0.0
0.0 0.0 0.0

-1.547517896224158e6 9.704186436279185e6 0.0
9.704186436279185e6 -7.925508756532128e6 0.0
0.0 0.0 0.0

-728838.6512807659 1.1984132605919106e7 0.0
1.1984132605919106e7 -6.314892090381474e6 0.0
0.0 0.0 0.0

-3.4566361579871243e6 1.0026404941898707e7 0.0
1.0026404941898707e7 -727840.8374028659 0.0
0.0 0.0 0.0

-3.839344273638013e6 1.2307599906743435e7 0.0
1.2307599906743435e7 3.1633382064522645e6 0.0
0.0 0.0 0.0

-418310.86164302693 1.0545352888303539e7 0.0
1.0545352888303539e7 -1.3943695417174865e6 0.0
0.0 0.0 0.0

-6.7529023085863795e6 1.3413149131544366e7 0.0
1.3413149131544366e7 5.190617185037323e6 0.0
0.0 0.0 0.0

-1.3249688623894597e6 1.246986098235425e7 0.0
1.246986098235425e7 -133558.03147943114 0.0
0.0 0.0 0.0

-1.2255773796535539e7 -3.9662171528651463e6 0.0
-3.9662171528651463e6 2.630576541103127e7 0.0
0.0 0.0 0.0

-6.795369163329815e6 4.730347760245479e6 0.0
4.730347760245479e6 6.276340417514337e6 0.0
0.0 0.0 0.0

1.285060837959662e6 1.1015088672497649e7 0.0
1.1015088672497649e7 -5.647721404642624e6 0.0
0.0 0.0 0.0

-1.3247090997787885e7 9.800667208875334e6 0.0
9.800667208875334e6 6.071426779001385e6 0.0
0.0 0.0 0.0

-2.0715786907828553e6 3.5794427912425892e6 0.0
3.5794427912425892e6 941058.2871871009 0.0
0.0 0.0 0.0

-1.2696986563947702e7 828377.9668781414 0.0
828377.9668781414 1.9267618737685107e7 0.0
0.0 0.0 0.0

-1.1319889137863948e6 -2.5969825477463896e6 0.0
-2.5969825477463896e6 937786.8673414954 0.0
0.0 0.0 0.0

-3.0990494899677522e6 1.2320516685784066e6 0.0
1.2320516685784066e6 1.774506781720273e6 0.0
0.0 0.0 0.0

919947.2854291894 8.49665893451192e6 0.0
8.49665893451192e6 -7.367758433319626e6 0.0
0.0 0.0 0.0

-4.687548481290281e6 1.1629969489825672e7 0.0
1.1629969489825672e7 1.1367759237780094e6 0.0
0.0 0.0 0.0

-4.998103277959817e6 9.015622042261546e6 0.0
9.015622042261546e6 278776.5628462725 0.0
0.0 0.0 0.0

-4.6267813502903525e6 1.2255769641801523e7 0.0
1.2255769641801523e7 4.538392212163749e6 0.0
0.0 0.0 0.0

123448.96266927663 1.0283444258550938e7 0.0
1.0283444258550938e7 -8.878972456018943e6 0.0
0.0 0.0 0.0

-2.321196046795986e6 9.708381826593647e6 0.0
9.708381826593647e6 3.9461804198547546e6 0.0
0.0 0.0 0.0

-2.0293235853906586e6 1.0646704346537456e7 0.0
1.0646704346537456e7 -9.098797064044025e6 0.0
0.0 0.0 0.0

-2.3230860214758683e6 1.2117592820370374e7 0.0
1.2117592820370374e7 570912.3601282374 0.0
0.0 0.0 0.0

2.9687018282276625e6 9.92176981613145e6 0.0
9.92176981613145e6 -1.6277622470964305e7 0.0
0.0 0.0 0.0

2.8894388058772767e6 9.26185345017091e6 0.0
9.26185345017091e6 -1.3310964940701108e7 0.0
0.0 0.0 0.0

-2.817687746309492e6 1.2760855946331302e7 0.0
1.2760855946331302e7 184231.2369511358 0.0
0.0 0.0 0.0

-9.366577212597692e6 1.3616363192057973e7 0.0
1.3616363192057973e7 5.384045019943742e6 0.0
0.0 0.0 0.0

-7.3297950478251185e6 1.2665090424283156e7 0.0
1.2665090424283156e7 6.071695181113776e6 0.0
0.0 0.0 0.0

-2.4123997376032034e6 7.4380467900284175e6 0.0
7.4380467900284175e6 -567381.5322809529 0.0
0.0 0.0 0.0

-3.0652706198842507e6 2.399801385428796e6 0.0
2.399801385428796e6 3.604259881601381e6 0.0
0.0 0.0 0.0

1.5320924412805813e6 1.0104826401399523e7 0.0
1.0104826401399523e7 -5.462868969131056e6 0.0
0.0 0.0 0.0

3.217588697242182e6 1.2039678173665408e7 0.0
1.2039678173665408e7 -5.537234125016558e6 0.0
0.0 0.0 0.0

-1.1048640761487799e7 7.179346973160726e6 0.0
7.179346973160726e6 2.3780241081033908e7 0.0
0.0 0.0 0.0

-1.6245136839707205e6 1.1966669855286364e7 0.0
1.1966669855286364e7 1.7463849429308248e6 0.0
0.0 0.0 0.0

-7.287569464867018e6 1.3318498986077894e7 0.0
1.3318498986077894e7 5.777567970877148e6 0.0
0.0 0.0 0.0

-1.0580886173256491e6 9.163832975579575e6 0.0
9.163832975579575e6 -7.2755003830386745e6 0.0
0.0 0.0 0.0

-1.2298188858551838e7 3.7605242079697214e6 0.0
3.7605242079697214e6 1.7931550257380288e7 0.0
0.0 0.0 0.0

-1.7583709418528313e6 1.1900241132675042e7 0.0
1.1900241132675042e7 770111.634497635 0.0
0.0 0.0 0.0

-1.432392192522361e6 1.1841667907119816e7 0.0
1.1841667907119816e7 -5.607999721735779e6 0.0
0.0 0.0 0.0

1.0213070962537252e6 1.0473114811511962e7 0.0
1.0473114811511962e7 -9.86092289175897e6 0.0
0.0 0.0 0.0

3.0373924702784615e6 8.756329797022808e6 0.0
8.756329797022808e6 -1.3470045090708163e7 0.0
0.0 0.0 0.0

2.402823839841931e6 8.786348988566186e6 0.0
8.786348988566186e6 -1.1643548477271112e7 0.0
0.0 0.0 0.0

-1.3317856728856284e6 1.1837881092244688e7 0.0
1.1837881092244688e7 -1.2155725193099614e7 0.0
0.0 0.0 0.0

-6.673619732307071e6 1.3163648157552732e7 0.0
1.3163648157552732e7 5.201503261684422e6 0.0
0.0 0.0 0.0

-4.1494740838746717e6 1.2726677534405112e7 0.0
1.2726677534405112e7 1.4210087391222627e6 0.0
0.0 0.0 0.0

889248.9132069605 1.10339828109863e7 0.0
1.10339828109863e7 -7.313145801571674e6 0.0
0.0 0.0 0.0

4.968641818272346e6 1.2506562436419955e7 0.0
1.2506562436419955e7 -6.086157216154348e6 0.0
0.0 0.0 0.0

-1.1173743719539635e7 -982165.3411921926 0.0
-982165.3411921926 2.2638087959515013e7 0.0
0.0 0.0 0.0

2.723623806635838e6 9.57339787827368e6 0.0
9.57339787827368e6 -1.4799609022155158e7 0.0
0.0 0.0 0.0

2.8276756340447725e6 8.917699412105301e6 0.0
8.917699412105301e6 -1.1447199639717398e7 0.0
0.0 0.0 0.0

-1.1928461003418528e7 3.397529314919154e6 0.0
3.397529314919154e6 3.10322024795352e7 0.0
0.0 0.0 0.0

4.364128762746596e6 1.0771272390415192e7 0.0
1.0771272390415192e7 914519.1348517861 0.0
0.0 0.0 0.0

-1.0966636581929334e7 2.2095872409869526e6 0.0
2.2095872409869526e6 2.101258398303272e7 0.0
0.0 0.0 0.0

722863.2162588267 3.709801054180564e6 0.0
3.709801054180564e6 -3.11351273913123e6 0.0
0.0 0.0 0.0

-7.194611229043702e6 1.369385046472347e7 0.0
1.369385046472347e7 5.1734002517051445e6 0.0
0.0 0.0 0.0

1.5289402690190272e6 8.346441098474607e6 0.0
8.346441098474607e6 -9.019030704756206e6 0.0
0.0 0.0 0.0

-9.20429452628639e6 1.386028860024762e7 0.0
1.386028860024762e7 7.162555089779297e6 0.0
0.0 0.0 0.0

-1.064352339609185e7 5.442044934090637e6 0.0
5.442044934090637e6 1.6556045804096397e7 0.0
0.0 0.0 0.0

-4.9999227268920075e6 4.358513702514267e6 0.0
4.358513702514267e6 3.8517103397951806e6 0.0
0.0 0.0 0.0

-3.791466783030632e6 1.6131796556051245e7 0.0
1.6131796556051245e7 -693815.8499722348 0.0
0.0 0.0 0.0

-4.1726021313508917e6 1.259486643234913e7 0.0
1.259486643234913e7 4.524775408688013e6 0.0
0.0 0.0 0.0

-3.8518174574741274e6 1.358661855083551e7 0.0
1.358661855083551e7 -767045.3693256427 0.0
0.0 0.0 0.0

-5.523722026926947e6 1.2771827513904985e7 0.0
1.2771827513904985e7 4.39501137278574e6 0.0
0.0 0.0 0.0

256022.64317999594 1.0660398721374469e7 0.0
1.0660398721374469e7 -9.29853284749463e6 0.0
0.0 0.0 0.0

56557.69709202601 1.3007253219685547e7 0.0
1.3007253219685547e7 -4.712186726854101e6 0.0
0.0 0.0 0.0

-2.0584087742233532e6 1.2816231838249281e7 0.0
1.2816231838249281e7 8.365715639810125e6 0.0
0.0 0.0 0.0

-4.765088623034332e6 -1.912460483386512e6 0.0
-1.912460483386512e6 8.334610569561273e6 0.0
0.0 0.0 0.0

-3.724278969916267e6 2.6701884290208695e6 0.0
2.6701884290208695e6 -78971.89667945565 0.0
0.0 0.0 0.0

-600527.4323178912 1.0293506753217774e7 0.0
1.0293506753217774e7 -2.0017578973754703e6 0.0
0.0 0.0 0.0

755808.1033529538 1.0779037830102274e7 0.0
1.0779037830102274e7 2.5193604361259923e6 0.0
0.0 0.0 0.0

-7.110158772946652e6 1.8443134623943936e7 0.0
1.8443134623943936e7 -910932.943053128 0.0
0.0 0.0 0.0

1.2191519844532928e6 5.664412982743531e6 0.0
5.664412982743531e6 -5.860676953136631e6 0.0
0.0 0.0 0.0

-9.406176121148955e6 1.4728563716681017e7 0.0
1.4728563716681017e7 7.332614689790763e6 0.0
0.0 0.0 0.0

-1.979659051585082e7 1.135294166695808e6 0.0
1.135294166695808e6 1.1147643388146812e7 0.0
0.0 0.0 0.0

-675189.7223843911 1.2128038718485521e7 0.0
1.2128038718485521e7 -6.206006508896616e6 0.0
0.0 0.0 0.0

-1.114474869742475e7 6.693926276373101e6 0.0
6.693926276373101e6 1.3762367731198587e7 0.0
0.0 0.0 0.0

1.4357122610237075e6 1.072855049694193e7 0.0
1.072855049694193e7 -5.925209817405797e6 0.0
0.0 0.0 0.0

-4.469952289933315e6 1.2508963348782072e7 0.0
1.2508963348782072e7 3.7695479934015237e6 0.0
0.0 0.0 0.0

-4.376782490905772e6 1.1445756170374064e7 0.0
1.1445756170374064e7 659925.9537784676 0.0
0.0 0.0 0.0

1.3274639619757477e6 1.1312720074676935e7 0.0
1.1312720074676935e7 -6.174066613896988e6 0.0
0.0 0.0 0.0

4.327900290442456e6 6.237789367924073e6 0.0
6.237789367924073e6 -1.3082837800097164e7 0.0
0.0 0.0 0.0

-1.1273209523327784e6 7.252372962021089e6 0.0
7.252372962021089e6 -3.757736801921888e6 0.0
0.0 0.0 0.0

2.3015180731946845e6 1.3270078903647827e7 0.0
1.3270078903647827e7 -5.245949493155278e6 0.0
0.0 0.0 0.0

687248.0233546463 1.1158192524565369e7 0.0
1.1158192524565369e7 -7.623406897430916e6 0.0
0.0 0.0 0.0

-264082.7680945981 9.810291701409107e6 0.0
9.810291701409107e6 3.1181319134013485e6 0.0
0.0 0.0 0.0

2.5379174637859957e6 9.463571615785703e6 0.0
9.463571615785703e6 -1.3623607504128844e7 0.0
0.0 0.0 0.0

-3.5597351312951907e6 1.168496239091024e7 0.0
1.168496239091024e7 -1.620080000376045e6 0.0
0.0 0.0 0.0

-3.6915101116725923e6 1.168717928213191e7 0.0
1.168717928213191e7 7.47059734031148e6 0.0
0.0 0.0 0.0

893673.8118313514 1.65539819754675e7 0.0
1.65539819754675e7 -7.752403228051007e6 0.0
0.0 0.0 0.0

2.6795218586589554e6 9.156674171234827e6 0.0
9.156674171234827e6 -1.2365669636269927e7 0.0
0.0 0.0 0.0

-1.6141755867039777e7 257422.54429252577 0.0
257422.54429252577 1.003209068569148e7 0.0
0.0 0.0 0.0

-1.5561971249553154e6 1.1539715882808775e7 0.0
1.1539715882808775e7 2.541096050435744e6 0.0
0.0 0.0 0.0

-9.78557363459841e6 1.4175538441543173e7 0.0
1.4175538441543173e7 7.5572675372305885e6 0.0
0.0 0.0 0.0

-2.2466831262194538e6 1.1247388399187246e7 0.0
1.1247388399187246e7 -2.8536310731403506e6 0.0
0.0 0.0 0.0

-6.9799106212531235e6 1.3415570499480916e7 0.0
1.3415570499480916e7 5.859963198363936e6 0.0
0.0 0.0 0.0

-1.3577074232456442e7 6.323365073675202e6 0.0
6.323365073675202e6 2.5042862120835565e7 0.0
0.0 0.0 0.0

128060.8246092021 9.537037465818008e6 0.0
9.537037465818008e6 -5.919430256369558e6 0.0
0.0 0.0 0.0

-5.625561905235544e6 1.6244372246293645e7 0.0
1.6244372246293645e7 -625226.4461891719 0.0
0.0 0.0 0.0

-1.0236219397111919e6 7.56817369719895e6 0.0
7.56817369719895e6 -1.983650186342825e6 0.0
0.0 0.0 0.0

-1.7264514147458546e7 821688.6832696913 0.0
821688.6832696913 9.050802552491792e6 0.0
0.0 0.0 0.0

-2.230398006808048e6 8.809890706527611e6 0.0
8.809890706527611e6 -1.451029384973872e6 0.0
0.0 0.0 0.0

-9.217631830638148e6 268128.9092711946 0.0
268128.9092711946 9.775755266496984e6 0.0
0.0 0.0 0.0

-9.863814555244848e6 7.423743603740273e6 0.0
7.423743603740273e6 1.4811670312729485e7 0.0
0.0 0.0 0.0

-8.050079970172334e6 1.4067352465994043e7 0.0
1.4067352465994043e7 6.312993757743162e6 0.0
0.0 0.0 0.0

-1.0492751963273823e7 1.4674629479874386e7 0.0
1.4674629479874386e7 8.042002566047536e6 0.0
0.0 0.0 0.0

-1.0905844387774566e7 4.83816261358759e6 0.0
4.83816261358759e6 1.9308436496516332e7 0.0
0.0 0.0 0.0

10589.485999157652 8.382412195387752e6 0.0
8.382412195387752e6 -5.009159179916149e6 0.0
0.0 0.0 0.0

2.876311399075346e6 1.0850952150962556e7 0.0
1.0850952150962556e7 -4.2009775424043955e6 0.0
0.0 0.0 0.0

-699377.073775132 7.89494716341224e6 0.0
7.89494716341224e6 -5.85173932849906e6 0.0
0.0 0.0 0.0

-856971.3487193732 4.256529978281437e6 0.0
4.256529978281437e6 1.4701031103682087e6 0.0
0.0 0.0 0.0

-7.955698947134962e6 1.4112013153690295e7 0.0
1.4112013153690295e7 6.221802153726814e6 0.0
0.0 0.0 0.0

-8.2394317541808635e6 8.271521222770773e6 0.0
8.271521222770773e6 9.344303127365956e6 0.0
0.0 0.0 0.0

2.3427748996670814e6 9.407973038790684e6 0.0
9.407973038790684e6 -1.2744035645973662e7 0.0
0.0 0.0 0.0

-1.0841547035308762e7 1.0786875315378647e7 0.0
1.0786875315378647e7 4.573439947248159e6 0.0
0.0 0.0 0.0

-4.3515774288597945e6 1.3781529101955594e7 0.0
1.3781529101955594e7 -33038.60270654992 0.0
0.0 0.0 0.0

4.55024973622872e6 7.162359099358757e6 0.0
7.162359099358757e6 -1.4997298019972157e7 0.0
0.0 0.0 0.0

-3.178951996881414e6 1.1395767583182827e7 0.0
1.1395767583182827e7 4.525299987274446e6 0.0
0.0 0.0 0.0

-4.501117222143488e6 1.1527790428544756e7 0.0
1.1527790428544756e7 1.768632454510253e6 0.0
0.0 0.0 0.0

-221125.38112580357 1.2115036055092413e7 0.0
1.2115036055092413e7 -6.158246469329567e6 0.0
0.0 0.0 0.0

-9.969109012110393e6 1.3628151617561625e7 0.0
1.3628151617561625e7 7.61151866724455e6 0.0
0.0 0.0 0.0

-4.255343245405243e6 1.1695357416083442e7 0.0
1.1695357416083442e7 1.0791530797547998e6 0.0
0.0 0.0 0.0

-8.525464384613328e6 1.4155706871574964e7 0.0
1.4155706871574964e7 6.755650810855016e6 0.0
0.0 0.0 0.0

-275434.3854925147 6.725065238523077e6 0.0
6.725065238523077e6 -2.9797252682154938e6 0.0
0.0 0.0 0.0

152718.05838289624 1.156569439826816e7 0.0
1.156569439826816e7 2.369726040476536e6 0.0
0.0 0.0 0.0

579253.0114196888 1.1024706124241447e7 0.0
1.1024706124241447e7 -8.546545678644866e6 0.0
0.0 0.0 0.0

-1.8233882632280143e6 8.73196485836635e6 0.0
8.73196485836635e6 -1.3544765877779415e6 0.0
0.0 0.0 0.0

-58975.796316702385 1.1644756610900067e7 0.0
1.1644756610900067e7 -7.207572437217348e6 0.0
0.0 0.0 0.0

1.3610119903710522e6 6.882844460482965e6 0.0
6.882844460482965e6 -6.840944707654033e6 0.0
0.0 0.0 0.0

-992145.6849045809 1.1916059931374136e7 0.0
1.1916059931374136e7 6.764458728147708e6 0.0
0.0 0.0 0.0

-7.643934047989032e6 -2.7696170400197287e6 0.0
-2.7696170400197287e6 1.1896362440863382e7 0.0
0.0 0.0 0.0

321913.6063234344 1.1831927607174039e7 0.0
1.1831927607174039e7 2.772446662690562e6 0.0
0.0 0.0 0.0

-7.032283613896791e6 1.342869156827626e7 0.0
1.342869156827626e7 5.205700627994411e6 0.0
0.0 0.0 0.0

944101.3730564797 1.088481614316175e7 0.0
1.088481614316175e7 -9.009701065918017e6 0.0
0.0 0.0 0.0

-4.675833068464484e6 1.5402735266169026e7 0.0
1.5402735266169026e7 412273.66666014283 0.0
0.0 0.0 0.0

-510278.25543489476 1.1895093744246988e7 0.0
1.1895093744246988e7 -1.1654041809597162e6 0.0
0.0 0.0 0.0

2.0245305500510982e6 8.107257304610397e6 0.0
8.107257304610397e6 -8.639214045132587e6 0.0
0.0 0.0 0.0

-4.657759435339522e6 1.3765782577820605e7 0.0
1.3765782577820605e7 -1.0524523707266946e6 0.0
0.0 0.0 0.0

418350.0187474219 1.1216682663667781e7 0.0
1.1216682663667781e7 -8.1507044794105105e6 0.0
0.0 0.0 0.0

-2.003968133344766e6 4.484836215234721e6 0.0
4.484836215234721e6 664737.0137552746 0.0
0.0 0.0 0.0

-4.53210588905547e6 1.290456569122217e7 0.0
1.290456569122217e7 5.007538727290308e6 0.0
0.0 0.0 0.0

-4.203884505720644e6 1.273638306329553e7 0.0
1.273638306329553e7 3.775179220342529e6 0.0
0.0 0.0 0.0

-7.323803316627597e6 1.3682420904272076e7 0.0
1.3682420904272076e7 5.571490605538407e6 0.0
0.0 0.0 0.0

-1.6462902403026465e6 1.1555943244111639e7 0.0
1.1555943244111639e7 1.5846338837439087e6 0.0
0.0 0.0 0.0

186553.06173997314 5.117794993431124e6 0.0
5.117794993431124e6 -2.331622565458006e6 0.0
0.0 0.0 0.0

-1.1781441877794258e7 2.9882925786419786e6 0.0
2.9882925786419786e6 1.5354723323719405e7 0.0
0.0 0.0 0.0

-357482.8117184753 1.186314716941407e7 0.0
1.186314716941407e7 -6.717667790231803e6 0.0
0.0 0.0 0.0

2.4074268952469183e6 1.0955852600251121e7 0.0
1.0955852600251121e7 -1.5137823642973032e7 0.0
0.0 0.0 0.0

-210210.71117482905 5.7491436063487725e6 0.0
5.7491436063487725e6 -2.43908054386268e6 0.0
0.0 0.0 0.0

-3.690615543946503e6 2.3472771965978397e6 0.0
2.3472771965978397e6 2.5108360457169e6 0.0
0.0 0.0 0.0

-4.06632393145094e6 8.290226574955385e6 0.0
8.290226574955385e6 1.4108394316862898e6 0.0
0.0 0.0 0.0

-4.784724027693794e6 1.3625883872091651e7 0.0
1.3625883872091651e7 567321.2842404789 0.0
0.0 0.0 0.0

468887.0559764444 1.0665744757817045e7 0.0
1.0665744757817045e7 -1.162898923388737e7 0.0
0.0 0.0 0.0

1.447139248867727e6 6.596436546854493e6 0.0
6.596436546854493e6 -6.148778188486518e6 0.0
0.0 0.0 0.0

-6.912351321815753e6 1.367573702268312e7 0.0
1.367573702268312e7 5.178838263142288e6 0.0
0.0 0.0 0.0

-3.853897128173631e6 1.3965305064465139e7 0.0
1.3965305064465139e7 -762296.661197142 0.0
0.0 0.0 0.0

-1.5525578039696842e7 1.5378561734399099e7 0.0
1.5378561734399099e7 1.004608010693492e7 0.0
0.0 0.0 0.0

-7.080971675978614e6 1.3674587523676256e7 0.0
1.3674587523676256e7 5.555496455383049e6 0.0
0.0 0.0 0.0

-1.5691002826797575e7 1.2928404657561323e7 0.0
1.2928404657561323e7 7.550917365156764e6 0.0
0.0 0.0 0.0

-1.447759858400048e6 1.2556615968655594e7 0.0
1.2556615968655594e7 -321100.65188248747 0.0
0.0 0.0 0.0

1.8636709179791408e6 1.080310972767629e7 0.0
1.080310972767629e7 -1.4382595731542915e7 0.0
0.0 0.0 0.0

-1.871312469850968e6 8.41202291607593e6 0.0
8.41202291607593e6 -1.8267484890586995e6 0.0
0.0 0.0 0.0

-1.032010507138456e7 -3.480120984849058e6 0.0
-3.480120984849058e6 1.5823075364977911e7 0.0
0.0 0.0 0.0

-1.273292711406888e7 -610984.3604758567 0.0
-610984.3604758567 2.1466163138762973e7 0.0
0.0 0.0 0.0

3.596433730755401e6 7.024968310112771e6 0.0
7.024968310112771e6 -1.2234730079914112e7 0.0
0.0 0.0 0.0

-5.656765748273561e6 1.2859713003568934e7 0.0
1.2859713003568934e7 4.97477170395546e6 0.0
0.0 0.0 0.0

-1.0849895903138258e7 7.100238248941677e6 0.0
7.100238248941677e6 2.153977611927681e7 0.0
0.0 0.0 0.0

202204.52053589886 1.143078438894502e7 0.0
1.143078438894502e7 -7.686089609880216e6 0.0
0.0 0.0 0.0

-1.0947891677021354e7 9.20332784584018e6 0.0
9.20332784584018e6 1.834327921017797e7 0.0
0.0 0.0 0.0

-5.072789239200216e6 1.355731778915321e7 0.0
1.355731778915321e7 -375488.1816960641 0.0
0.0 0.0 0.0

-7.194890207457082e6 1.615070027852884e7 0.0
1.615070027852884e7 2.0689868383529996e6 0.0
0.0 0.0 0.0

-426627.8954326714 1.178075973198777e7 0.0
1.178075973198777e7 -1.505778590559203e6 0.0
0.0 0.0 0.0

-3.7181446876298697e6 3.450719681764931e6 0.0
3.450719681764931e6 3.054466485460858e6 0.0
0.0 0.0 0.0

-1.5746074869611263e6 1.1461549772806192e7 0.0
1.1461549772806192e7 2.1002120350135593e6 0.0
0.0 0.0 0.0

-3.387404869858311e6 8.188746729379904e6 0.0
8.188746729379904e6 1.5133805729387528e6 0.0
0.0 0.0 0.0

3.5095929754998703e6 6.274290331022084e6 0.0
6.274290331022084e6 -1.1181635214057345e7 0.0
0.0 0.0 0.0

1.0840878629271018e6 1.265005813683966e7 0.0
1.265005813683966e7 -5.194146423202594e6 0.0
0.0 0.0 0.0

-1.1230408909695584e7 5.01578409993733e6 0.0
5.01578409993733e6 7.821088899534745e6 0.0
0.0 0.0 0.0

-9.113553055057717e6 1.1052276731101353e7 0.0
1.1052276731101353e7 1.1627601462260098e6 0.0
0.0 0.0 0.0

-7.157744871740403e6 1.3976734610359e7 0.0
1.3976734610359e7 4.744078792018767e6 0.0
0.0 0.0 0.0

-638811.0660476537 7.990888228093344e6 0.0
7.990888228093344e6 -4.796061033829129e6 0.0
0.0 0.0 0.0

-2.3007041522837477e6 1.2288196337572057e7 0.0
1.2288196337572057e7 72900.91991706309 0.0
0.0 0.0 0.0

-7.115114630053511e6 1.5574387800882988e7 0.0
1.5574387800882988e7 3.979261409178385e6 0.0
0.0 0.0 0.0

-3.7140915085785366e6 1.1301403592977433e7 0.0
1.1301403592977433e7 5.299500135446483e6 0.0
0.0 0.0 0.0

-1.944793504951231e6 1.164467030774071e7 0.0
1.164467030774071e7 1.8369980925164833e6 0.0
0.0 0.0 0.0

-84082.57859880687 7.887918114702677e6 0.0
7.887918114702677e6 -4.656765563849231e6 0.0
0.0 0.0 0.0

-8.966343427798675e6 1.5397886330431117e7 0.0
1.5397886330431117e7 6.987773690652128e6 0.0
0.0 0.0 0.0

-8.463183871851934e6 -1.0831949155627699e6 0.0
-1.0831949155627699e6 1.0396493886273991e7 0.0
0.0 0.0 0.0

2.9377634000753458e6 6.341699669392387e6 0.0
6.341699669392387e6 -9.058211812527472e6 0.0
0.0 0.0 0.0

-6.210022092206681e6 1.3929778869456507e7 0.0
1.3929778869456507e7 3.1207492092540385e6 0.0
0.0 0.0 0.0

791418.0886142598 1.106440106331994e7 0.0
1.106440106331994e7 -8.609667332172794e6 0.0
0.0 0.0 0.0

1.3761296598058436e6 4.0538999883366493e6 0.0
4.0538999883366493e6 -3.077113769503535e6 0.0
0.0 0.0 0.0

15802.712293104734 7.012001968385674e6 0.0
7.012001968385674e6 -5.1253509549161345e6 0.0
0.0 0.0 0.0

-7.625211171966928e6 1.2455967053843511e7 0.0
1.2455967053843511e7 5.322276805569231e6 0.0
0.0 0.0 0.0

1.750036345603506e6 8.645331494338823e6 0.0
8.645331494338823e6 -8.513107272131024e6 0.0
0.0 0.0 0.0

-6099.562237897422 1.147924949007286e7 0.0
1.147924949007286e7 5.402034527965076e6 0.0
0.0 0.0 0.0

-735026.5330924779 6.6129869460977875e6 0.0
6.6129869460977875e6 -2.727661538815835e6 0.0
0.0 0.0 0.0

64401.960804658826 5.363547650539316e6 0.0
5.363547650539316e6 -2.972306347204539e6 0.0
0.0 0.0 0.0

-2.9955318080549934e6 1.6345927935483133e7 0.0
1.6345927935483133e7 -1.630278350270952e6 0.0
0.0 0.0 0.0

-8.2651299305736e6 -168489.84988238805 0.0
-168489.84988238805 1.0350623869025134e7 0.0
0.0 0.0 0.0

-497074.7769228481 9.810977721330099e6 0.0
9.810977721330099e6 -4.881895965892325e6 0.0
0.0 0.0 0.0

1.3067520979502564e6 8.981566525336077e6 0.0
8.981566525336077e6 -1.715914305101721e6 0.0
0.0 0.0 0.0

1.3656366493815263e6 1.4804153154750021e7 0.0
1.4804153154750021e7 -6.295426713818122e6 0.0
0.0 0.0 0.0

12414.291033772286 1.0839645024582224e7 0.0
1.0839645024582224e7 -6.574747707017517e6 0.0
0.0 0.0 0.0

788164.4955711381 1.2573878767765116e7 0.0
1.2573878767765116e7 4.390584634718041e6 0.0
0.0 0.0 0.0

-6.98215494350311e6 1.3246628407733645e7 0.0
1.3246628407733645e7 5.874295069592141e6 0.0
0.0 0.0 0.0

-9.652352762098696e6 -2.0103342235802412e6 0.0
-2.0103342235802412e6 1.4360115607998922e7 0.0
0.0 0.0 0.0

-6.001393781011608e6 1.413692097581477e7 0.0
1.413692097581477e7 2.8095226421888107e6 0.0
0.0 0.0 0.0

-2.5648974000089946e6 1.1739647959875451e7 0.0
1.1739647959875451e7 4.215983905788099e6 0.0
0.0 0.0 0.0

965739.4785879957 8.229606064570897e6 0.0
8.229606064570897e6 -7.16917133779566e6 0.0
0.0 0.0 0.0

4.362898086698225e6 6.378952938050376e6 0.0
6.378952938050376e6 -1.2073160444619711e7 0.0
0.0 0.0 0.0

-4.421325663761028e6 1.1561940838128034e7 0.0
1.1561940838128034e7 561022.7145687586 0.0
0.0 0.0 0.0

-2.8405732898810883e6 5.812504533237375e6 0.0
5.812504533237375e6 1.5041720149412535e6 0.0
0.0 0.0 0.0

-9.510208580364367e6 7.296856877040462e6 0.0
7.296856877040462e6 1.2471708302136188e7 0.0
0.0 0.0 0.0

1.0263049786938098e6 1.0731262513201661e7 0.0
1.0731262513201661e7 -9.386062848341476e6 0.0
0.0 0.0 0.0

1.851285036200867e6 1.043359694178341e7 0.0
1.043359694178341e7 -1.3970166901167683e7 0.0
0.0 0.0 0.0

-6.181537959177767e6 1.4535210913702516e7 0.0
1.4535210913702516e7 2.9531769802691643e6 0.0
0.0 0.0 0.0

-1.4097375052255616e6 1.1686200726596152e7 0.0
1.1686200726596152e7 1.007825272127009e6 0.0
0.0 0.0 0.0

-2.0243808679219343e7 1.4920160541088367e6 0.0
1.4920160541088367e6 1.0218135325309299e7 0.0
0.0 0.0 0.0

963880.8488869262 1.3003313828269007e7 0.0
1.3003313828269007e7 5.548128416774621e6 0.0
0.0 0.0 0.0

-1.8979811490083225e7 8.87379057320758e6 0.0
8.87379057320758e6 8.35066896929077e6 0.0
0.0 0.0 0.0

2.0451689655656554e6 8.474835866057344e6 0.0
8.474835866057344e6 -1.0369234795594707e7 0.0
0.0 0.0 0.0

4.0656477839727937e6 4.5641725482748e6 0.0
4.5641725482748e6 -180460.37846348365 0.0
0.0 0.0 0.0

-4.707286411401599e6 -3.4385258810643614e6 0.0
-3.4385258810643614e6 4.0635355764504587e6 0.0
0.0 0.0 0.0

-1.983698507780278e6 5.411690936746757e6 0.0
5.411690936746757e6 684576.0838400049 0.0
0.0 0.0 0.0

-9.453532474342348e6 -1.014689268588422e6 0.0
-1.014689268588422e6 1.3972517008781485e7 0.0
0.0 0.0 0.0

-8.999946178099286e6 104066.08270585006 0.0
104066.08270585006 1.0848958658860076e7 0.0
0.0 0.0 0.0

381779.6911928351 1.164319047941828e7 0.0
1.164319047941828e7 -7.226190239070274e6 0.0
0.0 0.0 0.0

-1.7374367226831303e6 7.905537968850333e6 0.0
7.905537968850333e6 -5.791455937054829e6 0.0
0.0 0.0 0.0

-74101.95151300184 1.0472988301571608e7 0.0
1.0472988301571608e7 -247006.49640962077 0.0
0.0 0.0 0.0

1.667574031562338e6 9.26008593090274e6 0.0
9.26008593090274e6 -3.1649522965384275e6 0.0
0.0 0.0 0.0

-6.384076747132189e6 1.491685330208861e7 0.0
1.491685330208861e7 3.145069227709175e6 0.0
0.0 0.0 0.0

-3.8412597331745634e6 5.74880049567175e6 0.0
5.74880049567175e6 3.161623768625912e6 0.0
0.0 0.0 0.0

-864840.7796377798 1.1091410638619678e7 0.0
1.1091410638619678e7 -6.174684735034141e6 0.0
0.0 0.0 0.0

-5.844767742629362e6 1.1969514538713748e7 0.0
1.1969514538713748e7 3.304611340228688e6 0.0
0.0 0.0 0.0

2.9088978018307006e6 7.84055713975559e6 0.0
7.84055713975559e6 -1.1752258515107758e7 0.0
0.0 0.0 0.0

-8.344496407022471e6 -191360.52503004874 0.0
-191360.52503004874 1.1334991287926236e7 0.0
0.0 0.0 0.0

-5.536209683102593e6 1.3985095769432394e7 0.0
1.3985095769432394e7 2.0322592292952312e6 0.0
0.0 0.0 0.0

-1.2908893323508513e6 1.1765824225535382e7 0.0
1.1765824225535382e7 472249.8400213535 0.0
0.0 0.0 0.0

-1.1766553490906723e6 1.1929235243742745e7 0.0
1.1929235243742745e7 17957.57428604632 0.0
0.0 0.0 0.0

-4.649019789865911e6 1.3171754243999911e7 0.0
1.3171754243999911e7 1.371825746711721e6 0.0
0.0 0.0 0.0

190501.85326086264 1.119462591223573e7 0.0
1.119462591223573e7 1.8947224290144583e6 0.0
0.0 0.0 0.0

-3.4463230850953497e6 1.3262262560886307e7 0.0
1.3262262560886307e7 909342.6318733138 0.0
0.0 0.0 0.0

-1.1444269243243124e7 6.539228953128074e6 0.0
6.539228953128074e6 1.5083282882052146e7 0.0
0.0 0.0 0.0

-9.864884357563687e6 -3.026169159841273e6 0.0
-3.026169159841273e6 1.4198654962123662e7 0.0
0.0 0.0 0.0

1.3281839845288484e6 8.020562659534691e6 0.0
8.020562659534691e6 -6.826976627814989e6 0.0
0.0 0.0 0.0

3.832775845666277e6 6.759627580977015e6 0.0
6.759627580977015e6 -1.2574655444749717e7 0.0
0.0 0.0 0.0

-652628.5820064915 1.1160489045289783e7 0.0
1.1160489045289783e7 -5.505261012037213e6 0.0
0.0 0.0 0.0

1.0713321425759727e6 1.0505075974001458e7 0.0
1.0505075974001458e7 1.788036080822606e6 0.0
0.0 0.0 0.0

1.229324668088472e6 6.3900205461091e6 0.0
6.3900205461091e6 -6.479332197562276e6 0.0
0.0 0.0 0.0

-1.1474366222495108e6 1.0636133968772102e7 0.0
1.0636133968772102e7 -9.717946803292334e6 0.0
0.0 0.0 0.0

1.8852418193184081e6 1.0184623924214639e7 0.0
1.0184623924214639e7 -1.3463223197313791e7 0.0
0.0 0.0 0.0

-3.2055152426188295e6 8.289161032955199e6 0.0
8.289161032955199e6 145765.558025304 0.0
0.0 0.0 0.0

-5.606808570699865e6 1.3045015747677436e7 0.0
1.3045015747677436e7 4.96686312999649e6 0.0
0.0 0.0 0.0

-4.802771588721544e6 1.3634508263776122e7 0.0
1.3634508263776122e7 1.7122432645458488e6 0.0
0.0 0.0 0.0

-1.0581837860276459e7 -3.1445116252447707e6 0.0
-3.1445116252447707e6 2.1402539828802165e7 0.0
0.0 0.0 0.0

1.9843038631597199e6 1.0034168758593231e7 0.0
1.0034168758593231e7 -1.3037739874041311e7 0.0
0.0 0.0 0.0

-1.161236922535116e7 6.244659233833522e6 0.0
6.244659233833522e6 1.6261586244253121e7 0.0
0.0 0.0 0.0

-1.1009535867406558e6 1.2067250621916702e7 0.0
1.2067250621916702e7 -348497.4926529379 0.0
0.0 0.0 0.0

-6.780908671074631e6 1.4673121551372169e7 0.0
1.4673121551372169e7 2.763799984662445e6 0.0
0.0 0.0 0.0

-9.00615180603738e6 1.2265742107101217e7 0.0
1.2265742107101217e7 5.471461865680816e6 0.0
0.0 0.0 0.0

-9.640086018601527e6 6.301556271875774e6 0.0
6.301556271875774e6 1.2903416514107507e7 0.0
0.0 0.0 0.0

-1.1136885771964206e6 8.940359613157254e6 0.0
8.940359613157254e6 -7.116660736012327e6 0.0
0.0 0.0 0.0

78857.01554233697 1.1015513032033024e7 0.0
1.1015513032033024e7 1.2339377927134323e6 0.0
0.0 0.0 0.0

3.3000807476004595e6 7.189350040707817e6 0.0
7.189350040707817e6 -1.1882284108210403e7 0.0
0.0 0.0 0.0

275864.0213669839 6.704841997388817e6 0.0
6.704841997388817e6 -5.465048033855701e6 0.0
0.0 0.0 0.0

-1.0838109897487892e7 3.935261480172633e6 0.0
3.935261480172633e6 1.655188180887685e7 0.0
0.0 0.0 0.0

-3.9037579977463577e6 1.219865436214272e7 0.0
1.219865436214272e7 3.607276695925976e6 0.0
0.0 0.0 0.0

-1.4430531173074238e7 9.43608229812473e6 0.0
9.43608229812473e6 5.1179258632739885e6 0.0
0.0 0.0 0.0

1.1249614274460962e6 1.0315628549689349e7 0.0
1.0315628549689349e7 -9.8948710666022e6 0.0
0.0 0.0 0.0

2.53262863018676e6 8.398060151154654e6 0.0
8.398060151154654e6 -1.1518821522943726e7 0.0
0.0 0.0 0.0

2.0260031509265546e6 9.923599159646275e6 0.0
9.923599159646275e6 -1.262818108813296e7 0.0
0.0 0.0 0.0

2.231569695884097e6 6.399356107441226e6 0.0
6.399356107441226e6 -5.49386207817401e6 0.0
0.0 0.0 0.0

-2.1436434342039693e6 1.152017710107383e7 0.0
1.152017710107383e7 -3.1088113373172767e6 0.0
0.0 0.0 0.0

-595933.7638775926 1.3047672159320127e7 0.0
1.3047672159320127e7 -4.914643809876905e6 0.0
0.0 0.0 0.0

-1.5767490800807122e7 1.300236847693053e7 0.0
1.300236847693053e7 1.1825429887022592e7 0.0
0.0 0.0 0.0

701604.7887242106 6.501627223272088e6 0.0
6.501627223272088e6 -3.4440316065140497e6 0.0
0.0 0.0 0.0

717678.9951333725 1.1253453984772032e7 0.0
1.1253453984772032e7 -8.175308128000421e6 0.0
0.0 0.0 0.0

-7.164406457957089e6 8.662069669446787e6 0.0
8.662069669446787e6 9.940650508987777e6 0.0
0.0 0.0 0.0

-6.1940751175528355e6 1.9879597111343166e6 0.0
1.9879597111343166e6 7.883347968390275e6 0.0
0.0 0.0 0.0

3.272839195564105e6 6.4590431900887e6 0.0
6.4590431900887e6 -1.080013426002464e7 0.0
0.0 0.0 0.0

-6.2473992507629115e6 2.862096786357751e6 0.0
2.862096786357751e6 8.280762843882184e6 0.0
0.0 0.0 0.0

-9.085964308404604e6 994777.2507194699 0.0
994777.2507194699 1.1805862332262617e7 0.0
0.0 0.0 0.0

-2.673309801251509e6 5.448957638981646e6 0.0
5.448957638981646e6 1.6864583446158376e6 0.0
0.0 0.0 0.0

-4.787228683577598e6 1.272256053129299e7 0.0
1.272256053129299e7 4.933441209849003e6 0.0
0.0 0.0 0.0

-1.075267532131042e6 7.947921638121124e6 0.0
7.947921638121124e6 -2.08775336408022e6 0.0
0.0 0.0 0.0

8.53287785846698e6 5.889553374519693e6 0.0
5.889553374519693e6 -2.1822882106972137e6 0.0
0.0 0.0 0.0

-1.2666101296440832e7 -4.596880223014942e6 0.0
-4.596880223014942e6 7.47795294201328e6 0.0
0.0 0.0 0.0

1.0126154929257042e6 6.593459397764738e6 0.0
6.593459397764738e6 -5.662786700446801e6 0.0
0.0 0.0 0.0

3.091895820726311e6 8.159788333183792e6 0.0
8.159788333183792e6 -1.1152256912578113e7 0.0
0.0 0.0 0.0

3.4587330259195743e6 7.518314078204211e6 0.0
7.518314078204211e6 -1.1261961517627385e7 0.0
0.0 0.0 0.0

1.1038120473010668e6 1.2668642452929865e6 0.0
1.2668642452929865e6 149696.25076693238 0.0
0.0 0.0 0.0

-1.4125695882403906e6 -1.3008275615906215e6 0.0
-1.3008275615906215e6 1.513548392631385e6 0.0
0.0 0.0 0.0

-165847.81818392035 1.0589221034827786e7 0.0
1.0589221034827786e7 -9.80480092420651e6 0.0
0.0 0.0 0.0

3.6205622139195623e6 6.700236477234237e6 0.0
6.700236477234237e6 -1.1993040913447075e7 0.0
0.0 0.0 0.0

-1.189414684446526e7 1.3109151993659642e7 0.0
1.3109151993659642e7 3.145372578898793e6 0.0
0.0 0.0 0.0

-7.136901343996048e6 1.0814474832630895e7 0.0
1.0814474832630895e7 6.972952895022055e6 0.0
0.0 0.0 0.0

-5.182163938521889e6 1.3777835316534631e7 0.0
1.3777835316534631e7 1.2772414229274883e6 0.0
0.0 0.0 0.0

-6230.915587670868 1.1021829164599242e7 0.0
1.1021829164599242e7 1.599868238119941e6 0.0
0.0 0.0 0.0

2.4546000198615943e6 7.895672470089646e6 0.0
7.895672470089646e6 2.88579044058285e6 0.0
0.0 0.0 0.0

-8.72547658668347e6 1.3065395826092394e7 0.0
1.3065395826092394e7 4.287988879184591e6 0.0
0.0 0.0 0.0

-1.1031391841762278e7 211897.81977348242 0.0
211897.81977348242 1.7930634590414673e7 0.0
0.0 0.0 0.0

-4.9824097423357535e6 1.2902789200929098e7 0.0
1.2902789200929098e7 4.418858747103913e6 0.0
0.0 0.0 0.0

-161296.02832683595 1.3044168729915906e7 0.0
1.3044168729915906e7 -5.109815641079459e6 0.0
0.0 0.0 0.0

-6.938432281702132e6 9.328836336499007e6 0.0
9.328836336499007e6 9.328574389520492e6 0.0
0.0 0.0 0.0

-4.825096957669449e6 819041.1140702746 0.0
819041.1140702746 5.610590426023163e6 0.0
0.0 0.0 0.0

-6.401189805464709e6 1.3922845206334453e7 0.0
1.3922845206334453e7 2.467104223547301e6 0.0
0.0 0.0 0.0

2.33663427958338e6 8.247195040589912e6 0.0
8.247195040589912e6 -1.086339154703623e7 0.0
0.0 0.0 0.0

-3.7346355167408297e6 1.4348576209371714e7 0.0
1.4348576209371714e7 -936668.9524534295 0.0
0.0 0.0 0.0

3.8123173784887358e6 6.970022216352395e6 0.0
6.970022216352395e6 -1.1536267265589755e7 0.0
0.0 0.0 0.0

-730737.2328602383 1.1415708151159309e7 0.0
1.1415708151159309e7 3.4855631568647916e6 0.0
0.0 0.0 0.0

-3.0748293423981587e6 1.143519504774426e7 0.0
1.143519504774426e7 -2.2416269645748283e6 0.0
0.0 0.0 0.0

-1.9906177083127482e6 3.6918388530959375e6 0.0
3.6918388530959375e6 461608.1705610936 0.0
0.0 0.0 0.0

16608.13943984965 8.458421718542214e6 0.0
8.458421718542214e6 -5.899272952705365e6 0.0
0.0 0.0 0.0

4.054832085258091e6 6.364336824634245e6 0.0
6.364336824634245e6 -1.147751098673264e7 0.0
0.0 0.0 0.0

-415674.8807660851 1.565328276845297e7 0.0
1.565328276845297e7 -5.2901971660243645e6 0.0
0.0 0.0 0.0

1.0908984832917443e6 6.484455523784535e6 0.0
6.484455523784535e6 -6.308312600578926e6 0.0
0.0 0.0 0.0

-4.1762111894466104e6 4.296873124505976e6 0.0
4.296873124505976e6 2.7936413283792534e6 0.0
0.0 0.0 0.0

-6.784071940826445e6 1.31580661967123e7 0.0
1.31580661967123e7 4.824885232092647e6 0.0
0.0 0.0 0.0

1.9438411205822816e6 9.79820966805647e6 0.0
9.79820966805647e6 -1.2160928772280408e7 0.0
0.0 0.0 0.0

-2.161404298337592e6 8.837119113032687e6 0.0
8.837119113032687e6 -7.204681024070445e6 0.0
0.0 0.0 0.0

247992.4645573619 1.063739665049007e7 0.0
1.063739665049007e7 826641.5738746321 0.0
0.0 0.0 0.0

-1.3517669367775128e6 7.928263638577109e6 0.0
7.928263638577109e6 -1.6041091588061373e6 0.0
0.0 0.0 0.0

-3.2348998627891424e6 7.328571818986781e6 0.0
7.328571818986781e6 562498.2262216939 0.0
0.0 0.0 0.0

-1.277522508315864e6 1.1804665253890043e7 0.0
1.1804665253890043e7 3.3306308582467786e6 0.0
0.0 0.0 0.0

-2.4377586071381248e6 2.117734945473267e6 0.0
2.117734945473267e6 2.882560833387087e6 0.0
0.0 0.0 0.0

766285.2167412594 9.737997911083391e6 0.0
9.737997911083391e6 -674566.716669661 0.0
0.0 0.0 0.0

-6.72631878027862e6 1.1716024182352325e7 0.0
1.1716024182352325e7 6.265291310513943e6 0.0
0.0 0.0 0.0

783813.8572257299 6.413590879682107e6 0.0
6.413590879682107e6 -5.945529697624027e6 0.0
0.0 0.0 0.0

-7.582109652299706e6 2.3371554401785824e6 0.0
2.3371554401785824e6 7.481851162243062e6 0.0
0.0 0.0 0.0

-2.4286461586905657e6 1.2775699768225783e7 0.0
1.2775699768225783e7 21125.741905922652 0.0
0.0 0.0 0.0

-7.193985059616283e6 9.640594600588446e6 0.0
9.640594600588446e6 8.467974393281952e6 0.0
0.0 0.0 0.0

-1.7677814231904496e6 1.1709925987627625e7 0.0
1.1709925987627625e7 2.895060743240551e6 0.0
0.0 0.0 0.0

-6.641373797680177e6 3.7145413041087887e6 0.0
3.7145413041087887e6 8.969022914071217e6 0.0
0.0 0.0 0.0

-1.3614562521438596e6 1.2943059516006123e7 0.0
1.2943059516006123e7 -4.831948691542264e6 0.0
0.0 0.0 0.0

-6.684423361136498e6 1.3295222835347036e7 0.0
1.3295222835347036e7 5.70323770791796e6 0.0
0.0 0.0 0.0

-1.0744726640308054e7 2.707463370087389e6 0.0
2.707463370087389e6 1.6095146689322172e7 0.0
0.0 0.0 0.0

-3.4953780876556076e6 5.989358369585523e6 0.0
5.989358369585523e6 1.2807240561323676e6 0.0
0.0 0.0 0.0

-1.0621197125693593e7 -1.6919727341576244e6 0.0
-1.6919727341576244e6 1.3913481261615362e7 0.0
0.0 0.0 0.0

-506643.7220424968 1.0937390640305102e7 0.0
1.0937390640305102e7 -6.730141328297806e6 0.0
0.0 0.0 0.0

-5.447655390330315e6 1.2976205701652305e7 0.0
1.2976205701652305e7 5.063267317329537e6 0.0
0.0 0.0 0.0

-1.109318669050539e6 1.2219999011329344e7 0.0
1.2219999011329344e7 -564117.6498803867 0.0
0.0 0.0 0.0

1.6195020967241721e6 7.087612654901075e6 0.0
7.087612654901075e6 -6.497609471993761e6 0.0
0.0 0.0 0.0

-6.5708804159155805e6 205576.8611127474 0.0
205576.8611127474 8.35168180227844e6 0.0
0.0 0.0 0.0

-1.0929169844478171e7 9.159655795297977e6 0.0
9.159655795297977e6 1.6505908427599486e7 0.0
0.0 0.0 0.0

-1.0939883665732559e7 5.220394818268981e6 0.0
5.220394818268981e6 1.7804458781691052e7 0.0
0.0 0.0 0.0

-2.933923102227831e6 9.356561553752556e6 0.0
9.356561553752556e6 3.242398290935762e6 0.0
0.0 0.0 0.0

-7.878186390632239e6 3.136271496215871e6 0.0
3.136271496215871e6 8.109246812556554e6 0.0
0.0 0.0 0.0

-2.616547603218522e6 7.25164454860231e6 0.0
7.25164454860231e6 581720.5931924344 0.0
0.0 0.0 0.0

-2.818086814511943e6 1.055223820957287e7 0.0
1.055223820957287e7 -1.182825512981631e6 0.0
0.0 0.0 0.0

-739406.0476131325 9.56919148526935e6 0.0
9.56919148526935e6 -5.26524397623315e6 0.0
0.0 0.0 0.0

-4.82143712679604e6 1.2595367789448729e7 0.0
1.2595367789448729e7 5.2735812652385635e6 0.0
0.0 0.0 0.0

-8.356957895880274e6 1.4235367578763628e7 0.0
1.4235367578763628e7 6.56971806230676e6 0.0
0.0 0.0 0.0

-1.0868006937485347e7 4.286634752460709e6 0.0
4.286634752460709e6 1.2916194961972877e7 0.0
0.0 0.0 0.0

605362.9327762692 1.1359290949135292e7 0.0
1.1359290949135292e7 2.984360437075963e6 0.0
0.0 0.0 0.0

1.264663374433056e6 1.1050052369542958e7 0.0
1.1050052369542958e7 -6.485544078834282e6 0.0
0.0 0.0 0.0

1.754152053389782e6 8.375045595594643e6 0.0
8.375045595594643e6 -8.2719189021918755e6 0.0
0.0 0.0 0.0

4.200656578083323e6 5.765541826365348e6 0.0
5.765541826365348e6 -1.2067029846525803e7 0.0
0.0 0.0 0.0

-7.615385808135452e6 -2.319930319654805e6 0.0
-2.319930319654805e6 1.095187562482835e7 0.0
0.0 0.0 0.0

-5.107215412992619e6 1.2439631586414216e7 0.0
1.2439631586414216e7 4.989725988619924e6 0.0
0.0 0.0 0.0

-8.636728558632143e6 7.658458951946047e6 0.0
7.658458951946047e6 1.3322676217677314e7 0.0
0.0 0.0 0.0

-1.0694153181364916e7 1.1564719787934182e7 0.0
1.1564719787934182e7 2.7110065002327524e7 0.0
0.0 0.0 0.0

-820804.3523751125 8.919569521402054e6 0.0
8.919569521402054e6 -4.918716095746438e6 0.0
0.0 0.0 0.0

560721.3194621332 1.1195368618943097e7 0.0
1.1195368618943097e7 1.8690713222778295e6 0.0
0.0 0.0 0.0

-6.211987332645677e6 1.0991913540193003e6 0.0
1.0991913540193003e6 5.318896596216568e6 0.0
0.0 0.0 0.0

-1.0910156526788667e7 -3.4341263367260955e6 0.0
-3.4341263367260955e6 4.73760060626672e6 0.0
0.0 0.0 0.0

2.0872705109109036e6 7.861363133416431e6 0.0
7.861363133416431e6 -9.850202296107719e6 0.0
0.0 0.0 0.0

-4.292890593386427e6 3.1887273251437442e6 0.0
3.1887273251437442e6 3.0483465103769302e6 0.0
0.0 0.0 0.0

2.2627118634068957e6 8.577693950993286e6 0.0
8.577693950993286e6 -1.1041986595197033e7 0.0
0.0 0.0 0.0

-9.504406465581603e6 7.965052064294184e6 0.0
7.965052064294184e6 1.2640353145756416e7 0.0
0.0 0.0 0.0

2.7488009825090184e6 5.692045943245852e6 0.0
5.692045943245852e6 -8.287420250718024e6 0.0
0.0 0.0 0.0

-2.1684708124290723e6 1.6101518315429406e7 0.0
1.6101518315429406e7 -4.027918124060073e6 0.0
0.0 0.0 0.0

-1.5678904142345837e6 8.6128615905146e6 0.0
8.6128615905146e6 -1.78405964813945e6 0.0
0.0 0.0 0.0

629804.9709769643 6.943605495801241e6 0.0
6.943605495801241e6 -4.013708755103334e6 0.0
0.0 0.0 0.0

1.1536808844297584e7 6.07323018619019e6 0.0
6.07323018619019e6 -3.082317365455912e6 0.0
0.0 0.0 0.0

-9.531052185514199e6 8.975994192769717e6 0.0
8.975994192769717e6 1.1160677986714423e7 0.0
0.0 0.0 0.0

-276879.8308276461 7.417195856772521e6 0.0
7.417195856772521e6 -4.017066765674262e6 0.0
0.0 0.0 0.0

-1.0584110944027789e7 -510933.1294066502 0.0
-510933.1294066502 1.315058808624196e7 0.0
0.0 0.0 0.0

1.4601471452196517e6 6.617914465824973e6 0.0
6.617914465824973e6 -5.557980005612807e6 0.0
0.0 0.0 0.0

-1.9711391343364741e6 1.2562104859619014e7 0.0
1.2562104859619014e7 -309612.9008423199 0.0
0.0 0.0 0.0

-6.81430095509808e6 1.1081191679417187e7 0.0
1.1081191679417187e7 7.428722409987007e6 0.0
0.0 0.0 0.0

-3.9124699831413357e6 4.80478990341626e6 0.0
4.80478990341626e6 3.4616084206759688e6 0.0
0.0 0.0 0.0

2.4068243015261283e6 7.316321159912949e6 0.0
7.316321159912949e6 -1.003830066606934e7 0.0
0.0 0.0 0.0

-168168.16200178256 1.0765087433246078e7 0.0
1.0765087433246078e7 -1.0649969945206385e7 0.0
0.0 0.0 0.0

-639558.8071977441 5.632294742626078e6 0.0
5.632294742626078e6 -2.158717421396916e6 0.0
0.0 0.0 0.0

1.8466449657162721e6 5.54012216094468e6 0.0
5.54012216094468e6 -7.4260762656866275e6 0.0
0.0 0.0 0.0

-1.813173708915973e6 1.0444603595896866e7 0.0
1.0444603595896866e7 -4.1791854863738785e6 0.0
0.0 0.0 0.0

5.532612230308231e6 1.0547595902736317e7 0.0
1.0547595902736317e7 -3.5950324945337023e6 0.0
0.0 0.0 0.0

4.340052681979693e6 6.745040400278516e6 0.0
6.745040400278516e6 -1.2316064378120355e7 0.0
0.0 0.0 0.0

-2.748314473336034e6 -1.8474573436168535e6 0.0
-1.8474573436168535e6 646072.0828114742 0.0
0.0 0.0 0.0

-6.877582944323957e6 1.0169534905848624e7 0.0
1.0169534905848624e7 8.502319293673135e6 0.0
0.0 0.0 0.0

-328801.44517898164 7.099400369001434e6 0.0
7.099400369001434e6 -2.9037828116773902e6 0.0
0.0 0.0 0.0

-4.687000852123531e6 4.337609073296029e6 0.0
4.337609073296029e6 4.93578291134839e6 0.0
0.0 0.0 0.0

4.565363838976356e6 7.074056528468046e6 0.0
7.074056528468046e6 -1.3671873156945262e7 0.0
0.0 0.0 0.0

1.0222911059576103e6 1.1616758203033026e7 0.0
1.1616758203033026e7 3.407637037587575e6 0.0
0.0 0.0 0.0

-1.5331881764550866e6 1.1367025458616458e7 0.0
1.1367025458616458e7 6.308116274229363e6 0.0
0.0 0.0 0.0

-603858.1757268123 1.02752908327964e7 0.0
1.02752908327964e7 -8.870737533083817e6 0.0
0.0 0.0 0.0

-967853.7932097177 8.161290299687252e6 0.0
8.161290299687252e6 -4.329556111910469e6 0.0
0.0 0.0 0.0

-6.495945067847458e6 1.1571949115790652e7 0.0
1.1571949115790652e7 7.030422184509698e6 0.0
0.0 0.0 0.0

3.4326653880876526e6 1.1166523399788525e7 0.0
1.1166523399788525e7 -4.20092390833066e6 0.0
0.0 0.0 0.0

1.7860554444900863e6 8.391598124298925e6 0.0
8.391598124298925e6 -9.66486570252809e6 0.0
0.0 0.0 0.0

-7.109034867468066e6 1.5058997445390923e7 0.0
1.5058997445390923e7 2.936452691246957e6 0.0
0.0 0.0 0.0

-498967.15484989266 8.131805172242644e6 0.0
8.131805172242644e6 -736250.9806843518 0.0
0.0 0.0 0.0

-2.905724972789325e7 -3.0038696336133378e6 0.0
-3.0038696336133378e6 1.0821358472278522e7 0.0
0.0 0.0 0.0

1.9485836726646286e7 6.49295607360954e6 0.0
6.49295607360954e6 -4.723364854645505e6 0.0
0.0 0.0 0.0

-224646.15105636208 9.59256201635235e6 0.0
9.59256201635235e6 2.0048272191990302e6 0.0
0.0 0.0 0.0

-7.8267231214159075e6 457161.22776155616 0.0
457161.22776155616 1.796620719105248e7 0.0
0.0 0.0 0.0

-1.3848310332682724e6 1.1683586599858476e7 0.0
1.1683586599858476e7 2.769655613269638e6 0.0
0.0 0.0 0.0

-4.176365433470781e6 1.3950825839101717e7 0.0
1.3950825839101717e7 -1.8384306631941802e6 0.0
0.0 0.0 0.0

868767.5879446967 1.167228513003739e7 0.0
1.167228513003739e7 2.895892677325709e6 0.0
0.0 0.0 0.0

-3.3785784236679985e6 4.762473083938645e6 0.0
4.762473083938645e6 2.758617123595155e6 0.0
0.0 0.0 0.0

-5.543013212647133e6 9.92009101465755e6 0.0
9.92009101465755e6 4.428075080135687e6 0.0
0.0 0.0 0.0

-2.3572519862525895e7 1.463582491339329e7 0.0
1.463582491339329e7 6.424871691850493e6 0.0
0.0 0.0 0.0

2.7159551923103677e6 5.934992461393957e6 0.0
5.934992461393957e6 -9.210344953459995e6 0.0
0.0 0.0 0.0

-1.231647663985729e6 1.2338220293783583e7 0.0
1.2338220293783583e7 -610378.9652066748 0.0
0.0 0.0 0.0

725579.1220735533 1.1351261404100344e7 0.0
1.1351261404100344e7 3.8958929143120944e6 0.0
0.0 0.0 0.0

-2.4062095926473057e6 9.615304576300194e6 0.0
9.615304576300194e6 -8.020698609557204e6 0.0
0.0 0.0 0.0

493544.31332228874 1.0975851721223203e7 0.0
1.0975851721223203e7 1.6451478753560786e6 0.0
0.0 0.0 0.0

1.9978573721067333e6 9.828860122270051e6 0.0
9.828860122270051e6 -1.1886896132268734e7 0.0
0.0 0.0 0.0

-5.065771588580961e6 1.7963597213265332e6 0.0
1.7963597213265332e6 6.302140775124531e6 0.0
0.0 0.0 0.0

-9.842621387374073e6 1.1705775391248746e7 0.0
1.1705775391248746e7 7.979209155701961e6 0.0
0.0 0.0 0.0

1.1950238906809567e6 6.7825153966453485e6 0.0
6.7825153966453485e6 -6.444154972287974e6 0.0
0.0 0.0 0.0

-9.098907698996298e6 9.144411152474705e6 0.0
9.144411152474705e6 1.0305849845823046e7 0.0
0.0 0.0 0.0

-2.8862814032330397e6 4.204178122485451e6 0.0
4.204178122485451e6 1.4585801593325175e6 0.0
0.0 0.0 0.0

-8.033414068800348e6 1.394146077488568e7 0.0
1.394146077488568e7 6.394189170582087e6 0.0
0.0 0.0 0.0

-1.3124653101172637e7 1.3153314898754163e7 0.0
1.3153314898754163e7 9.268433157821085e6 0.0
0.0 0.0 0.0

-1.680166794852407e6 -2.598169785495582e6 0.0
-2.598169785495582e6 1.9851638955033037e6 0.0
0.0 0.0 0.0

-718673.4912425356 8.907949057244563e6 0.0
8.907949057244563e6 -6.661567085947633e6 0.0
0.0 0.0 0.0

-3.338037540263023e6 1.3388025654429164e7 0.0
1.3388025654429164e7 -1.5099613711955617e6 0.0
0.0 0.0 0.0

-322824.1701827565 4.521776617667963e6 0.0
4.521776617667963e6 -2.08015696588788e6 0.0
0.0 0.0 0.0

-3.404170080461935e6 1.6224328451467725e7 0.0
1.6224328451467725e7 -2.9529022709436133e6 0.0
0.0 0.0 0.0

-3.461855638612856e6 4.268151985179163e6 0.0
4.268151985179163e6 2.0686452021367447e6 0.0
0.0 0.0 0.0

3.3037008369138814e6 6.227289436187599e6 0.0
6.227289436187599e6 -1.0615332691489939e7 0.0
0.0 0.0 0.0

2.7520956013490083e6 6.312551404358792e6 0.0
6.312551404358792e6 -9.68839267938084e6 0.0
0.0 0.0 0.0

-188423.78734305664 8.474320746368134e6 0.0
8.474320746368134e6 -5.6049236303453725e6 0.0
0.0 0.0 0.0

-1.6709901563373776e6 1.2807519998709118e7 0.0
1.2807519998709118e7 -4.60756632924116e6 0.0
0.0 0.0 0.0

4.764624317955952e6 6.934869478797794e6 0.0
6.934869478797794e6 -1.4144828725121742e7 0.0
0.0 0.0 0.0

-4.458905647162687e6 1.2351432728244651e7 0.0
1.2351432728244651e7 1.457095506821133e6 0.0
0.0 0.0 0.0

430586.8456196808 1.0233253675748384e7 0.0
1.0233253675748384e7 -8.041229848517663e6 0.0
0.0 0.0 0.0

-7.780921319461439e6 8.29795450598139e6 0.0
8.29795450598139e6 9.314064918648504e6 0.0
0.0 0.0 0.0

-4.109645666236152e6 1.3268342658956388e7 0.0
1.3268342658956388e7 1.4893909410333917e6 0.0
0.0 0.0 0.0

2.301410267078053e6 8.173831019941103e6 0.0
8.173831019941103e6 -9.324035928742774e6 0.0
0.0 0.0 0.0

-1.7652999353059985e7 5.367740333609775e6 0.0
5.367740333609775e6 1.0099024604208779e7 0.0
0.0 0.0 0.0

3.535418960062261e6 6.031022227007752e6 0.0
6.031022227007752e6 -1.0948606864729106e7 0.0
0.0 0.0 0.0

3.21845304701847e6 6.386846284860017e6 0.0
6.386846284860017e6 -9.66550322181122e6 0.0
0.0 0.0 0.0

-1.418827220037513e6 1.1630634216702946e7 0.0
1.1630634216702946e7 -4.722259682437561e6 0.0
0.0 0.0 0.0

-7.334461786348585e6 -2.607860519659058e6 0.0
-2.607860519659058e6 2.806825851939271e6 0.0
0.0 0.0 0.0

113404.49968470889 7.297789856175516e6 0.0
7.297789856175516e6 -4.681361239852047e6 0.0
0.0 0.0 0.0

-8.197209555578777e6 8.243677895003349e6 0.0
8.243677895003349e6 1.5491355864484783e7 0.0
0.0 0.0 0.0

-7.249776224844748e6 1.3614541273525933e7 0.0
1.3614541273525933e7 5.834459026583361e6 0.0
0.0 0.0 0.0

-8.528156995696144e6 1.3990119509991094e7 0.0
1.3990119509991094e7 6.756726086947041e6 0.0
0.0 0.0 0.0

-4.1364443528049886e6 4.873435687621721e6 0.0
4.873435687621721e6 2.6546079669973627e6 0.0
0.0 0.0 0.0

-1.1031305861021327e7 7.651781169473737e6 0.0
7.651781169473737e6 2.6848730187942162e7 0.0
0.0 0.0 0.0

-7.202664247683635e6 1.3950387107549326e7 0.0
1.3950387107549326e7 5.620710933533385e6 0.0
0.0 0.0 0.0

-1.6591060867163686e6 1.2293783484253462e7 0.0
1.2293783484253462e7 -313890.9839114491 0.0
0.0 0.0 0.0

1.3547793547262554e6 1.0174754342581535e7 0.0
1.0174754342581535e7 -5.359294928799153e6 0.0
0.0 0.0 0.0

5.6595774310518615e6 1.1106280966063159e7 0.0
1.1106280966063159e7 3.407905855715115e6 0.0
0.0 0.0 0.0

-3.9242397539890325e6 5.3250207669907585e6 0.0
5.3250207669907585e6 3.3066534869020064e6 0.0
0.0 0.0 0.0

3.7266850566265397e6 6.026465306253185e6 0.0
6.026465306253185e6 -1.0309969368491964e7 0.0
0.0 0.0 0.0

-1.5750269543089608e6 1.0738659330793407e7 0.0
1.0738659330793407e7 -3.7129630895219366e6 0.0
0.0 0.0 0.0

-2.0703359211383068e6 8.747768832439007e6 0.0
8.747768832439007e6 -900426.8638681255 0.0
0.0 0.0 0.0

-1.0088210983585224e7 3.9694054531024834e6 0.0
3.9694054531024834e6 5.960683117347088e6 0.0
0.0 0.0 0.0

-7.599239929138966e6 -212329.88796306888 0.0
-212329.88796306888 1.0607216463650327e7 0.0
0.0 0.0 0.0

-3.364178805322774e7 2.2807820601974748e7 0.0
2.2807820601974748e7 1.0541940425151065e6 0.0
0.0 0.0 0.0

-2.716244467173666e6 1.0610664593508834e7 0.0
1.0610664593508834e7 -9.054148136312049e6 0.0
0.0 0.0 0.0

825676.7587395762 1.148229087589671e7 0.0
1.148229087589671e7 2.7522563358493177e6 0.0
0.0 0.0 0.0

949489.5292283949 9.879150206855932e6 0.0
9.879150206855932e6 -8.998098897421444e6 0.0
0.0 0.0 0.0

-1.0299309900089098e7 9.834639916547533e6 0.0
9.834639916547533e6 6.64033477391329e6 0.0
0.0 0.0 0.0

1.392455858639191e6 6.970494109732936e6 0.0
6.970494109732936e6 -6.138828635208625e6 0.0
0.0 0.0 0.0

2.5949189215890537e6 7.636484448200272e6 0.0
7.636484448200272e6 -9.49825429611548e6 0.0
0.0 0.0 0.0

-6.879578823449208e6 1.0877521646035943e7 0.0
1.0877521646035943e7 7.820019292048498e6 0.0
0.0 0.0 0.0

1.5303275857272549e6 8.634163962579343e6 0.0
8.634163962579343e6 -9.244662476354914e6 0.0
0.0 0.0 0.0

-7.619029239081085e6 1.37854624807386e7 0.0
1.37854624807386e7 6.126747751282802e6 0.0
0.0 0.0 0.0

-9.895543563506115e6 1.2249800979447e6 0.0
1.2249800979447e6 1.1527954684192207e7 0.0
0.0 0.0 0.0

-2.7147206409934424e6 1.5068467567104984e6 0.0
1.5068467567104984e6 3.7246532045477647e6 0.0
0.0 0.0 0.0

2.430411089398242e6 7.019748382713974e6 0.0
7.019748382713974e6 -9.77474949830866e6 0.0
0.0 0.0 0.0

-4.772852539671077e6 1.3092545386847533e7 0.0
1.3092545386847533e7 916024.4024194647 0.0
0.0 0.0 0.0

-7.432176956040247e6 1.7244585166523337e7 0.0
1.7244585166523337e7 1.432333786763392e6 0.0
0.0 0.0 0.0

-7.390243736125167e6 9.231518564842345e6 0.0
9.231518564842345e6 9.310772105643086e6 0.0
0.0 0.0 0.0

3.01314480355473e6 6.628088156343862e6 0.0
6.628088156343862e6 -1.0517681020941943e7 0.0
0.0 0.0 0.0

4.3186248082064865e6 6.937416518986397e6 0.0
6.937416518986397e6 -1.2901216670933055e7 0.0
0.0 0.0 0.0

-1.2864151010529902e7 5.835979574553392e6 0.0
5.835979574553392e6 1.9922922686714336e7 0.0
0.0 0.0 0.0

-9.621088033826627e6 1.840185321231599e6 0.0
1.840185321231599e6 1.176541168486389e7 0.0
0.0 0.0 0.0

-4.213385486439565e6 1.6013086279326817e7 0.0
1.6013086279326817e7 -2.0783043634246443e6 0.0
0.0 0.0 0.0

-3.978772791452698e6 1.1507477255006826e7 0.0
1.1507477255006826e7 612902.5099497437 0.0
0.0 0.0 0.0

-9.268813255514592e6 2598.225232186557 0.0
2598.225232186557 1.3482499555594165e7 0.0
0.0 0.0 0.0

1.0568434486571136e6 5.580525258930789e6 0.0
5.580525258930789e6 -6.305585433240372e6 0.0
0.0 0.0 0.0

-4.690797729776103e6 1.1291148846287938e7 0.0
1.1291148846287938e7 1.2132874388626346e6 0.0
0.0 0.0 0.0

-6.802563790382955e6 1.1864792377626138e7 0.0
1.1864792377626138e7 832067.3585104318 0.0
0.0 0.0 0.0

-2.904339924175212e6 5.3484512048753165e6 0.0
5.3484512048753165e6 869344.2308682705 0.0
0.0 0.0 0.0

3.4411413485189453e6 6.448294537704799e6 0.0
6.448294537704799e6 -1.0240207805512294e7 0.0
0.0 0.0 0.0

1.2599306006329972e6 8.562626898128295e6 0.0
8.562626898128295e6 -8.558596411205951e6 0.0
0.0 0.0 0.0

-1.7047044816838345e6 3.3683323300809762e6 0.0
3.3683323300809762e6 439051.3636468911 0.0
0.0 0.0 0.0

-6.309237278107424e6 4.642856582055233e6 0.0
4.642856582055233e6 7.961174778175288e6 0.0
0.0 0.0 0.0

1.8839950856638253e6 9.838106281678798e6 0.0
9.838106281678798e6 -1.1393882664467745e7 0.0
0.0 0.0 0.0

3.202266090253866e6 6.1824056847192e6 0.0
6.1824056847192e6 -9.48124414417644e6 0.0
0.0 0.0 0.0

-4.1529452877958994e6 1.1372240932344532e7 0.0
1.1372240932344532e7 70588.34936486697 0.0
0.0 0.0 0.0

2.936155968918053e6 7.105349326324415e6 0.0
7.105349326324415e6 -9.707731479911147e6 0.0
0.0 0.0 0.0

-1.7897353036089707e6 3.844255445434346e6 0.0
3.844255445434346e6 1.0709208570143566e6 0.0
0.0 0.0 0.0

-3.234659447713346e6 1.1766537744839612e7 0.0
1.1766537744839612e7 -1.0782198693565225e7 0.0
0.0 0.0 0.0

2.0294419631043335e6 1.2098670592671853e7 0.0
1.2098670592671853e7 6.764808608042525e6 0.0
0.0 0.0 0.0

1.0350447021866961e6 9.534259944921702e6 0.0
9.534259944921702e6 -2.787383040272667e6 0.0
0.0 0.0 0.0

-8.39470202101365e6 -4.232799064139556e6 0.0
-4.232799064139556e6 5.949869064435214e6 0.0
0.0 0.0 0.0

-1.1644310453435285e6 3.3106611881338493e6 0.0
3.3106611881338493e6 481177.47371063306 0.0
0.0 0.0 0.0

1.582989766705017e6 1.251729385849538e7 0.0
1.251729385849538e7 5.276630027821595e6 0.0
0.0 0.0 0.0

-601912.6818721116 8.464656993081193e6 0.0
8.464656993081193e6 -2.0063754147031927e6 0.0
0.0 0.0 0.0

-1.1065877498377549e7 8.432254838108938e6 0.0
8.432254838108938e6 3.0223808064267077e7 0.0
0.0 0.0 0.0

2.7255664966443027e6 6.823161150721892e6 0.0
6.823161150721892e6 -1.018090417390105e7 0.0
0.0 0.0 0.0

-3.634451413225327e6 1.3328472358264232e7 0.0
1.3328472358264232e7 -2.5240516792162326e6 0.0
0.0 0.0 0.0

-891123.4205952915 1.084423033438625e7 0.0
1.084423033438625e7 -9.990300313695448e6 0.0
0.0 0.0 0.0

-6.901428550743297e6 1.3168220599186588e7 0.0
1.3168220599186588e7 5.230881216860101e6 0.0
0.0 0.0 0.0

-3.866532974833902e6 1.2339501734312182e7 0.0
1.2339501734312182e7 2.769648430909667e6 0.0
0.0 0.0 0.0

-6.2717399917162135e6 1.4063852219435234e7 0.0
1.4063852219435234e7 1.9306670183960884e6 0.0
0.0 0.0 0.0

-2.0555810530668432e6 1.1747913112835806e7 0.0
1.1747913112835806e7 -1.0815545892789738e7 0.0
0.0 0.0 0.0

-4.759933872774441e6 1.5719599818793634e7 0.0
1.5719599818793634e7 -1.3687621111842145e6 0.0
0.0 0.0 0.0

-9.987607651341107e6 7.729553536917747e6 0.0
7.729553536917747e6 1.1101230563262843e7 0.0
0.0 0.0 0.0

1.0505003800829384e6 7.142424266740508e6 0.0
7.142424266740508e6 -6.411892327646859e6 0.0
0.0 0.0 0.0

2.729281519989769e6 6.556460966372921e6 0.0
6.556460966372921e6 -9.930975376869619e6 0.0
0.0 0.0 0.0

-2.6795796879115338e6 1.313130957518334e7 0.0
1.313130957518334e7 -3.725127769327697e6 0.0
0.0 0.0 0.0

-1.985022445999176e6 8.956594862341862e6 0.0
8.956594862341862e6 -2.407447394268997e6 0.0
0.0 0.0 0.0

2.6462015778690996e6 7.984175024782237e6 0.0
7.984175024782237e6 -1.1284921727348229e7 0.0
0.0 0.0 0.0

-6.546156838884053e6 1.259590528662604e7 0.0
1.259590528662604e7 5.064608657375295e6 0.0
0.0 0.0 0.0

-2.644727441874873e6 9.731829766476551e6 0.0
9.731829766476551e6 -661476.2035114698 0.0
0.0 0.0 0.0

-604753.0521357234 9.220096458938815e6 0.0
9.220096458938815e6 -4.465241514825585e6 0.0
0.0 0.0 0.0

2.4712630749795195e6 9.120400027984126e6 0.0
9.120400027984126e6 -1.0993010870919757e7 0.0
0.0 0.0 0.0

-5.259009171216066e6 1.4870924185196247e7 0.0
1.4870924185196247e7 -496380.9899089956 0.0
0.0 0.0 0.0

-1.2545194166503744e6 1.0029636275504513e7 0.0
1.0029636275504513e7 -3.8410098684831723e6 0.0
0.0 0.0 0.0

151630.9734295893 8.059795484293566e6 0.0
8.059795484293566e6 -4.844783984496535e6 0.0
0.0 0.0 0.0

8.138975508162167e6 6.134420721511803e6 0.0
6.134420721511803e6 -2.5869973354411065e6 0.0
0.0 0.0 0.0

-3.739047293224357e6 9.08904842843379e6 0.0
9.08904842843379e6 1.7103915343203095e6 0.0
0.0 0.0 0.0

-2.181658864226274e6 5.250541012746e6 0.0
5.250541012746e6 907872.5450751277 0.0
0.0 0.0 0.0

-6.604325351853449e6 977745.7967135444 0.0
977745.7967135444 8.222493837891673e6 0.0
0.0 0.0 0.0

3.1264829179447507e6 5.86359707428336e6 0.0
5.86359707428336e6 -9.107638994763834e6 0.0
0.0 0.0 0.0

1.7554389336510398e6 6.324508534007498e6 0.0
6.324508534007498e6 -6.75017363063111e6 0.0
0.0 0.0 0.0

2.860248604596006e6 6.150369530748321e6 0.0
6.150369530748321e6 -8.841408539224437e6 0.0
0.0 0.0 0.0

-220655.26697749877 1.0355911454949345e7 0.0
1.0355911454949345e7 -8.83991926030513e6 0.0
0.0 0.0 0.0

-5.061409164057937e6 1.5316727091356e7 0.0
1.5316727091356e7 -857804.1770980033 0.0
0.0 0.0 0.0

-9.56216905919531e6 7.936177693656418e6 0.0
7.936177693656418e6 1.032011527404698e7 0.0
0.0 0.0 0.0

-4.395199050098634e6 9.177355545212865e6 0.0
9.177355545212865e6 1.625786669489561e6 0.0
0.0 0.0 0.0

2.4522045574083e6 6.299283306073988e6 0.0
6.299283306073988e6 -9.074580673865752e6 0.0
0.0 0.0 0.0

-2.506120767410543e6 3.9080603228447256e6 0.0
3.9080603228447256e6 1.0439290291831231e6 0.0
0.0 0.0 0.0

-7.560138175619894e6 8.908653858830774e6 0.0
8.908653858830774e6 8.699765774319636e6 0.0
0.0 0.0 0.0

-835984.6629464257 1.171490981533168e7 0.0
1.171490981533168e7 -5.467663081755161e6 0.0
0.0 0.0 0.0

1.623105512316757e6 1.0972738302311799e7 0.0
1.0972738302311799e7 -5.693276157308197e6 0.0
0.0 0.0 0.0

-6.807595118719986e6 1.3164958162143648e7 0.0
1.3164958162143648e7 5.554496550682515e6 0.0
0.0 0.0 0.0

880723.4750905782 1.0100952834078563e7 0.0
1.0100952834078563e7 -7.846058788403988e6 0.0
0.0 0.0 0.0

2.928560143391829e6 6.5726692227773825e6 0.0
6.5726692227773825e6 -9.263702291102825e6 0.0
0.0 0.0 0.0

2.5017641279492653e6 6.500591414931129e6 0.0
6.500591414931129e6 -9.307038025971316e6 0.0
0.0 0.0 0.0

566345.2758725607 6.529071321331129e6 0.0
6.529071321331129e6 -5.720237594841018e6 0.0
0.0 0.0 0.0

2.451334122724509e6 6.74819016029184e6 0.0
6.74819016029184e6 -9.538776519777365e6 0.0
0.0 0.0 0.0

2.3278808713649274e6 6.153552032859789e6 0.0
6.153552032859789e6 -7.699264729485488e6 0.0
0.0 0.0 0.0

-1.0769345076652458e7 1.3930321651187994e7 0.0
1.3930321651187994e7 8.22723795156514e6 0.0
0.0 0.0 0.0

-5.041455474009502e6 1.659211801834283e7 0.0
1.659211801834283e7 -1.413318358779205e6 0.0
0.0 0.0 0.0

-4.598571101422277e6 1.2518937436558958e7 0.0
1.2518937436558958e7 3.4556357678008648e6 0.0
0.0 0.0 0.0

1.8514685921263788e6 6.33158304220267e6 0.0
6.33158304220267e6 -7.978513365758779e6 0.0
0.0 0.0 0.0

-2.9920349643432535e6 1.0282406325701997e7 0.0
1.0282406325701997e7 -1.6128521322948374e6 0.0
0.0 0.0 0.0

-364744.22776143375 7.72103028512663e6 0.0
7.72103028512663e6 -2.7269476186408643e6 0.0
0.0 0.0 0.0

-3.892695008535612e6 1.2855979641194846e7 0.0
1.2855979641194846e7 -1.2975653873006498e7 0.0
0.0 0.0 0.0

5.016301203281825e6 1.4757139729191748e7 0.0
1.4757139729191748e7 1.6721019081791393e7 0.0
0.0 0.0 0.0

3.5450663844379433e6 1.1612164533737382e7 0.0
1.1612164533737382e7 -4.579590253764633e6 0.0
0.0 0.0 0.0

5.177181341167542e6 1.1731777666652529e7 0.0
1.1731777666652529e7 -7.311427973499885e6 0.0
0.0 0.0 0.0

4.33853529607316e6 7.680192178321843e6 0.0
7.680192178321843e6 -1.54213723375503e7 0.0
0.0 0.0 0.0

-299602.15160680795 1.0997918939532211e7 0.0
1.0997918939532211e7 -6.057386401125414e6 0.0
0.0 0.0 0.0

-1.514690548246203e6 1.1740976536146753e7 0.0
1.1740976536146753e7 2.276271427707459e6 0.0
0.0 0.0 0.0

-1.030533525741001e7 513811.7261497671 0.0
513811.7261497671 1.2604485751639873e7 0.0
0.0 0.0 0.0

-9.640815813404353e6 7.682772362094594e6 0.0
7.682772362094594e6 1.3611313703156136e7 0.0
0.0 0.0 0.0

-2.0014600242920422e6 1.2270675893614903e7 0.0
1.2270675893614903e7 1.5419186673904723e6 0.0
0.0 0.0 0.0

-1.5904020019080022e6 8.894365261213645e6 0.0
8.894365261213645e6 -2.3279362489065025e6 0.0
0.0 0.0 0.0

-8.181857737600404e6 1.4020963754461125e7 0.0
1.4020963754461125e7 3.392018473584472e6 0.0
0.0 0.0 0.0

-6.563030904804802e6 1.1752107048511438e7 0.0
1.1752107048511438e7 6.817266233570347e6 0.0
0.0 0.0 0.0

-3.4040108856485086e6 6.48630843848895e6 0.0
6.48630843848895e6 1.1386884924566825e6 0.0
0.0 0.0 0.0

-5.016127086830034e6 1.060746039666542e7 0.0
1.060746039666542e7 2.849269012735944e6 0.0
0.0 0.0 0.0

4.0406469685391607e6 7.0640337601090595e6 0.0
7.0640337601090595e6 -1.200446602877159e7 0.0
0.0 0.0 0.0

1.6967108402694133e6 6.673646328041409e6 0.0
6.673646328041409e6 -6.518438023911737e6 0.0
0.0 0.0 0.0

-1.8602106233783502e6 1.1728203727919128e7 0.0
1.1728203727919128e7 -4.369901282608192e6 0.0
0.0 0.0 0.0

1.0458619637293438e6 8.827794043603169e6 0.0
8.827794043603169e6 -8.205513687809996e6 0.0
0.0 0.0 0.0

-1.0897352781124586e7 2.0947348465759777e6 0.0
2.0947348465759777e6 1.6988401853309598e7 0.0
0.0 0.0 0.0

110641.29059350654 4.801701795996173e6 0.0
4.801701795996173e6 -2.71391316404374e6 0.0
0.0 0.0 0.0

-1.1228953627572313e7 1.366674063773789e6 0.0
1.366674063773789e6 2.3772152008443534e7 0.0
0.0 0.0 0.0

-2.144169981243764e6 1.0834627385260576e7 0.0
1.0834627385260576e7 -3.8449703723472315e6 0.0
0.0 0.0 0.0

-5.112160892775535e6 1.2709562971897969e7 0.0
1.2709562971897969e7 4.422726418068942e6 0.0
0.0 0.0 0.0

-3.2345227849829295e6 6.12023500344247e6 0.0
6.12023500344247e6 2.103810853507868e6 0.0
0.0 0.0 0.0

-4.0537752164509604e6 1.4310323106879177e7 0.0
1.4310323106879177e7 -1.9998311444549435e6 0.0
0.0 0.0 0.0

-2.1536187619057354e6 4.768169483375864e6 0.0
4.768169483375864e6 268817.25694531796 0.0
0.0 0.0 0.0

-6.7147941545316065e6 1.1423771181312373e7 0.0
1.1423771181312373e7 6.7971557978744265e6 0.0
0.0 0.0 0.0

4.517525768535342e6 1.4716059902599929e7 0.0
1.4716059902599929e7 -1.044164815255305e7 0.0
0.0 0.0 0.0

-7.29484858946933e6 9.870875875931041e6 0.0
9.870875875931041e6 8.061642874264086e6 0.0
0.0 0.0 0.0

895851.0897372703 5.338832935350397e6 0.0
5.338832935350397e6 -3.0015380431334227e6 0.0
0.0 0.0 0.0

-1.4497366694007756e7 -4.0063041519335816e6 0.0
-4.0063041519335816e6 6.572568124815796e6 0.0
0.0 0.0 0.0

2.983886851117551e6 6.037437982035208e6 0.0
6.037437982035208e6 -9.72097623248837e6 0.0
0.0 0.0 0.0

-8.200193460118018e6 1.3388950751841767e7 0.0
1.3388950751841767e7 6.717783397005978e6 0.0
0.0 0.0 0.0

-1.633865588951279e6 3.302318673658007e6 0.0
3.302318673658007e6 -89127.67703115131 0.0
0.0 0.0 0.0

-1.5177969195316774e6 8.017943090161707e6 0.0
8.017943090161707e6 -2.174920621642326e6 0.0
0.0 0.0 0.0

-7.428101404434648e6 1.174673012373582e6 0.0
1.174673012373582e6 7.990018672801616e6 0.0
0.0 0.0 0.0

-459431.91423525265 1.1868402975422427e7 0.0
1.1868402975422427e7 -6.179215497694051e6 0.0
0.0 0.0 0.0

-7.252152850510887e6 429358.0245069505 0.0
429358.0245069505 8.046724684880815e6 0.0
0.0 0.0 0.0

-713234.1746556445 9.769377562712815e6 0.0
9.769377562712815e6 -5.615030500954698e6 0.0
0.0 0.0 0.0

-8.749651428719617e6 8.503487753489457e6 0.0
8.503487753489457e6 9.5967069462716e6 0.0
0.0 0.0 0.0

-3.412648005083753e6 5.637393455242188e6 0.0
5.637393455242188e6 1.403589601999931e6 0.0
0.0 0.0 0.0

-1.003185014468387e7 8.881391471577756e6 0.0
8.881391471577756e6 1.2256348794727487e7 0.0
0.0 0.0 0.0

-6.244135028539177e6 7.183415870349924e6 0.0
7.183415870349924e6 5.252678351047061e6 0.0
0.0 0.0 0.0

-4.9846277722944105e6 1.1594737236188417e7 0.0
1.1594737236188417e7 1.692258649644793e6 0.0
0.0 0.0 0.0

3.7545282854212495e6 7.301238237640041e6 0.0
7.301238237640041e6 -1.1719968365472518e7 0.0
0.0 0.0 0.0

-8.771106774958596e6 9.351603381215908e6 0.0
9.351603381215908e6 9.725016092291132e6 0.0
0.0 0.0 0.0

3.7120035021763495e6 1.0223378754780654e7 0.0
1.0223378754780654e7 -1.2270709218158082e6 0.0
0.0 0.0 0.0

-9.09127422564307e6 -151358.9211529989 0.0
-151358.9211529989 7.851667741093105e6 0.0
0.0 0.0 0.0

2.6444746230580867e6 8.752337694395525e6 0.0
8.752337694395525e6 -1.0846479342386637e7 0.0
0.0 0.0 0.0

-3.1713734387677195e6 6.462248372031356e6 0.0
6.462248372031356e6 1.9149739239209066e6 0.0
0.0 0.0 0.0

1.2006236930884693e6 7.040291031624772e6 0.0
7.040291031624772e6 -5.898952886324412e6 0.0
0.0 0.0 0.0

-838782.0465997503 3.3000338923470126e6 0.0
3.3000338923470126e6 -224257.59023795457 0.0
0.0 0.0 0.0

-3.202855990016832e6 1.5844512491227908e6 0.0
1.5844512491227908e6 2.0687356480038965e6 0.0
0.0 0.0 0.0

243363.99397812644 9.372521346931517e6 0.0
9.372521346931517e6 -6.921012622288951e6 0.0
0.0 0.0 0.0

-2.8544580984863266e6 4.6818582300110655e6 0.0
4.6818582300110655e6 2.1238863503422085e6 0.0
0.0 0.0 0.0

-5.276312869384644e6 1.2742783782365613e7 0.0
1.2742783782365613e7 4.268016880949126e6 0.0
0.0 0.0 0.0

-5.600260810366685e6 9.118870025828857e6 0.0
9.118870025828857e6 6.822413620914765e6 0.0
0.0 0.0 0.0

239361.4681405411 7.366826440766886e6 0.0
7.366826440766886e6 -3.809071722761212e6 0.0
0.0 0.0 0.0

-1.9178261047052173e6 1.1113955989606282e7 0.0
1.1113955989606282e7 -3.403211862651041e6 0.0
0.0 0.0 0.0

1.594094338180372e6 6.839209806268582e6 0.0
6.839209806268582e6 -7.372681975023696e6 0.0
0.0 0.0 0.0

-5.8109296813168e6 1.3896292823447868e7 0.0
1.3896292823447868e7 1.1397809070823106e6 0.0
0.0 0.0 0.0

1.3447357764561446e6 1.134065951565085e7 0.0
1.134065951565085e7 -1.569862433148466e7 0.0
0.0 0.0 0.0

1.0629441283143964e6 5.807120933482046e6 0.0
5.807120933482046e6 -6.166386007517059e6 0.0
0.0 0.0 0.0

1.910407761621438e6 6.110995868927896e6 0.0
6.110995868927896e6 -7.784307299430994e6 0.0
0.0 0.0 0.0

111063.87055040197 1.0493602328216499e7 0.0
1.0493602328216499e7 -8.64828206743326e6 0.0
0.0 0.0 0.0

9547.6509118611 7.274783271084166e6 0.0
7.274783271084166e6 -3.4105770008661603e6 0.0
0.0 0.0 0.0

-2.4041109008591613e6 1.220623144718665e7 0.0
1.220623144718665e7 -1.1932620244821534e7 0.0
0.0 0.0 0.0

987676.2443623317 6.955470417516434e6 0.0
6.955470417516434e6 -5.330117209608606e6 0.0
0.0 0.0 0.0

1.3201792329133386e6 6.670737755310005e6 0.0
6.670737755310005e6 -6.012458929273437e6 0.0
0.0 0.0 0.0

-579884.7412614026 1.1735294176700223e7 0.0
1.1735294176700223e7 -1.502075206072571e6 0.0
0.0 0.0 0.0

-1.138333554407903e7 5.025743090394086e6 0.0
5.025743090394086e6 1.434265703762998e7 0.0
0.0 0.0 0.0

-6.993041493346464e6 1.3713346193399e7 0.0
1.3713346193399e7 4.852918148044588e6 0.0
0.0 0.0 0.0

-6.268888472300013e6 254065.46602195583 0.0
254065.46602195583 3.8175954974339204e6 0.0
0.0 0.0 0.0

808757.6145292721 8.994734755514393e6 0.0
8.994734755514393e6 -7.769399710869986e6 0.0
0.0 0.0 0.0

-1.6205797239628911e6 1.183408067983417e7 0.0
1.183408067983417e7 3.4639836146931723e6 0.0
0.0 0.0 0.0

-5.449619260574596e6 1.37537820022802e7 0.0
1.37537820022802e7 388999.2168396162 0.0
0.0 0.0 0.0

-1.2356244488584786e6 8.301909666759541e6 0.0
8.301909666759541e6 -3.7044800282908287e6 0.0
0.0 0.0 0.0

-4.721188209767055e6 1.4196587511151513e7 0.0
1.4196587511151513e7 -1.1221733573657146e6 0.0
0.0 0.0 0.0

-728290.5663819014 8.439491962081825e6 0.0
8.439491962081825e6 -3.897612266849864e6 0.0
0.0 0.0 0.0

-1.111053977098524e6 2.9536526911034714e6 0.0
2.9536526911034714e6 -9153.842478724837 0.0
0.0 0.0 0.0

-2.1190378738910016e6 1.1125175869088339e7 0.0
1.1125175869088339e7 -4.0784694468277395e6 0.0
0.0 0.0 0.0

-6.487132607604134e6 2.1548263010499235e7 0.0
2.1548263010499235e7 -2.172096604645795e6 0.0
0.0 0.0 0.0

356695.81229535374 1.3344567130859204e7 0.0
1.3344567130859204e7 -5.13492278791412e6 0.0
0.0 0.0 0.0

-582873.2465899931 1.1372787456884932e7 0.0
1.1372787456884932e7 -5.764744590095825e6 0.0
0.0 0.0 0.0

-2.302044106440021e6 7.7692500759302005e6 0.0
7.7692500759302005e6 -101548.31563816674 0.0
0.0 0.0 0.0

-3.044794271363819e6 9.793624654399982e6 0.0
9.793624654399982e6 -739083.6093762062 0.0
0.0 0.0 0.0

3.24482755677863e6 5.806527772740401e6 0.0
5.806527772740401e6 -9.477330094628416e6 0.0
0.0 0.0 0.0

2.1884989373475187e6 5.918045537351456e6 0.0
5.918045537351456e6 -5.869741013000491e6 0.0
0.0 0.0 0.0

-729448.1290050566 7.043839363411955e6 0.0
7.043839363411955e6 -2.773634998854203e6 0.0
0.0 0.0 0.0

-3.3427521976646967e6 1.2342250304316359e7 0.0
1.2342250304316359e7 276637.2242939526 0.0
0.0 0.0 0.0

1.2932733623899687e6 6.214548360976064e6 0.0
6.214548360976064e6 -6.690947600769436e6 0.0
0.0 0.0 0.0

-1.1453405573981237e6 9.620141018600274e6 0.0
9.620141018600274e6 -4.816082153815918e6 0.0
0.0 0.0 0.0

-1.282712603704893e6 1.1826988057405094e7 0.0
1.1826988057405094e7 1.5590843058515536e6 0.0
0.0 0.0 0.0

1.473014044779485e6 8.60469654915112e6 0.0
8.60469654915112e6 -7.849164122125831e6 0.0
0.0 0.0 0.0

-2.419104293368521e6 4.34980358798146e6 0.0
4.34980358798146e6 1.6718739084157397e6 0.0
0.0 0.0 0.0

-1.5363887063542845e7 9.263101689655833e6 0.0
9.263101689655833e6 7.415897743975746e6 0.0
0.0 0.0 0.0

2.0161615212672176e6 8.413209735719126e6 0.0
8.413209735719126e6 -8.893186997899337e6 0.0
0.0 0.0 0.0

-2.249071507605064e7 -3.9363950972282947e6 0.0
-3.9363950972282947e6 9.898634077588024e6 0.0
0.0 0.0 0.0

1.3064633254580917e6 6.671395079654682e6 0.0
6.671395079654682e6 -6.629440807517674e6 0.0
0.0 0.0 0.0

-4.434747496559972e6 1.1202800275625167e7 0.0
1.1202800275625167e7 5.944830877503661e6 0.0
0.0 0.0 0.0

1.8030003162742262e6 9.867575600917032e6 0.0
9.867575600917032e6 -1.104471502158677e7 0.0
0.0 0.0 0.0

1.3572473332410972e6 1.0244392526580447e7 0.0
1.0244392526580447e7 -9.132581945976727e6 0.0
0.0 0.0 0.0

-236277.7197462085 4.276289973855464e6 0.0
4.276289973855464e6 -1.5634043887641502e6 0.0
0.0 0.0 0.0

-7.7657203258634005e6 4.1336932355950447e6 0.0
4.1336932355950447e6 8.331501793179067e6 0.0
0.0 0.0 0.0

-2.103833531075798e6 8.848636643374806e6 0.0
8.848636643374806e6 -1.9004270881557607e6 0.0
0.0 0.0 0.0

-2.2884349179851455e6 7.301904473450485e6 0.0
7.301904473450485e6 31274.114762358833 0.0
0.0 0.0 0.0

-1.010687955830242e7 2.0516951508755737e6 0.0
2.0516951508755737e6 1.142269137568e7 0.0
0.0 0.0 0.0

-1.6815163235958123e6 8.781301370751977e6 0.0
8.781301370751977e6 -1.8219574434298764e6 0.0
0.0 0.0 0.0

-1.784537298818111e6 1.0730926544781048e7 0.0
1.0730926544781048e7 -4.410880947478034e6 0.0
0.0 0.0 0.0

-1.9403859402775827e6 1.0841537664288573e7 0.0
1.0841537664288573e7 -3.165448498546392e6 0.0
0.0 0.0 0.0

-2.3663850127127096e6 1.1491760131652951e7 0.0
1.1491760131652951e7 -3.846416010283657e6 0.0
0.0 0.0 0.0

-347122.8967088957 9.641629773689898e6 0.0
9.641629773689898e6 -6.051833441779416e6 0.0
0.0 0.0 0.0

611276.1419061993 6.711041722012754e6 0.0
6.711041722012754e6 -5.838183363648352e6 0.0
0.0 0.0 0.0

1.082875905602853e6 9.970915146376751e6 0.0
9.970915146376751e6 -5.621411856438251e6 0.0
0.0 0.0 0.0

-2.1771589200786725e6 1.056007064396027e7 0.0
1.056007064396027e7 -3.6234777916972353e6 0.0
0.0 0.0 0.0

-1.0916224769817805e6 8.57632168975275e6 0.0
8.57632168975275e6 -3.2904041457833494e6 0.0
0.0 0.0 0.0

-1.8203746421949617e6 4.1113850520717097e6 0.0
4.1113850520717097e6 1.076582750585472e6 0.0
0.0 0.0 0.0

-49716.56120006647 9.527294981961742e6 0.0
9.527294981961742e6 -6.511534022518929e6 0.0
0.0 0.0 0.0

-3.50378161010252e6 1.2297557403471107e7 0.0
1.2297557403471107e7 -1.1679271696815224e7 0.0
0.0 0.0 0.0

-304277.8987057422 4.827883237422686e6 0.0
4.827883237422686e6 -1.6627099981732753e6 0.0
0.0 0.0 0.0

1.2529654032632238e6 7.053514157753386e6 0.0
7.053514157753386e6 -6.609101965888407e6 0.0
0.0 0.0 0.0

413657.3015486351 6.999508043693707e6 0.0
6.999508043693707e6 -4.0973567407106524e6 0.0
0.0 0.0 0.0

1.580792733488595e6 1.091154375374899e7 0.0
1.091154375374899e7 -1.4548226654936036e7 0.0
0.0 0.0 0.0

-3.037588735631196e6 7.211030808345481e6 0.0
7.211030808345481e6 1.3501128282204326e6 0.0
0.0 0.0 0.0

1.5523193187862025e6 6.460702151900257e6 0.0
6.460702151900257e6 -6.290829241233018e6 0.0
0.0 0.0 0.0

-5.880112148345597e6 4.480381005388679e6 0.0
4.480381005388679e6 4.852013058201132e6 0.0
0.0 0.0 0.0

-9.381533377483675e6 -2.8546704698650413e6 0.0
-2.8546704698650413e6 1.5788545649715906e7 0.0
0.0 0.0 0.0

-232730.2825120824 1.162404855923962e7 0.0
1.162404855923962e7 -1.348911213666436e6 0.0
0.0 0.0 0.0

-145098.98511367966 1.0738949059534606e7 0.0
1.0738949059534606e7 -692736.8772895357 0.0
0.0 0.0 0.0

-5.303891428355267e6 1.2947264832986457e7 0.0
1.2947264832986457e7 4.244738333861787e6 0.0
0.0 0.0 0.0

-4.296273139936528e6 9.997692857141288e6 0.0
9.997692857141288e6 1.2390073848810622e6 0.0
0.0 0.0 0.0

3.691927637348793e6 6.285980104899754e6 0.0
6.285980104899754e6 -1.0530574284977209e7 0.0
0.0 0.0 0.0

3.769625907684253e6 6.492567215600513e6 0.0
6.492567215600513e6 -1.0751224027523834e7 0.0
0.0 0.0 0.0

-7.472776597677141e6 6.274662222116909e6 0.0
6.274662222116909e6 9.859458035572333e6 0.0
0.0 0.0 0.0

-1.4159636533287307e6 1.0343752535082506e7 0.0
1.0343752535082506e7 -4.751833574023548e6 0.0
0.0 0.0 0.0

3.343401804580883e6 1.0958084884832151e7 0.0
1.0958084884832151e7 -4.466698370394522e6 0.0
0.0 0.0 0.0

-1.2593298916701745e7 -2.4064917662156257e6 0.0
-2.4064917662156257e6 2.0786145981745996e7 0.0
0.0 0.0 0.0

-3.76428177871618e6 8.664234987663917e6 0.0
8.664234987663917e6 1.9537671904796988e6 0.0
0.0 0.0 0.0

-2.111847995089063e6 9.481630747409467e6 0.0
9.481630747409467e6 -2.9124554728691843e6 0.0
0.0 0.0 0.0

-1.1287330913095452e7 9.793885934679577e6 0.0
9.793885934679577e6 2.0782191484735392e7 0.0
0.0 0.0 0.0

1.2568646835715421e6 7.25593169670004e6 0.0
7.25593169670004e6 -3.7569438637640383e6 0.0
0.0 0.0 0.0

-3.8722664328047647e6 1.185004195931144e7 0.0
1.185004195931144e7 -1.0842787140700829e6 0.0
0.0 0.0 0.0

-4.610032674187584e6 1.1121165285470618e7 0.0
1.1121165285470618e7 6.915216766494045e6 0.0
0.0 0.0 0.0

1.5199330116408672e6 6.868307671684822e6 0.0
6.868307671684822e6 -6.312065670447293e6 0.0
0.0 0.0 0.0

-1.6036529096509735e6 8.285313012267517e6 0.0
8.285313012267517e6 -2.2523893772590514e6 0.0
0.0 0.0 0.0

-1.0243345158662338e7 7.341635823342479e6 0.0
7.341635823342479e6 1.619574502812843e7 0.0
0.0 0.0 0.0

3.1418873503095154e6 7.792434281632679e6 0.0
7.792434281632679e6 -1.0985134730973788e7 0.0
0.0 0.0 0.0

-221121.96370092593 1.1222510943914048e7 0.0
1.1222510943914048e7 -6.309743535116471e6 0.0
0.0 0.0 0.0

-7.402711042522664e6 -1.3434732189838341e6 0.0
-1.3434732189838341e6 1.0710092572570127e7 0.0
0.0 0.0 0.0

2.7938332920878744e6 8.334003060179813e6 0.0
8.334003060179813e6 -1.0664026912154874e7 0.0
0.0 0.0 0.0

240888.72498142254 7.401473056209684e6 0.0
7.401473056209684e6 -3.981010384085189e6 0.0
0.0 0.0 0.0

2.6351026311066737e6 7.329317263204552e6 0.0
7.329317263204552e6 -9.278444957624855e6 0.0
0.0 0.0 0.0

-862306.7632538019 8.63130931970181e6 0.0
8.63130931970181e6 -4.718285626675386e6 0.0
0.0 0.0 0.0

-1.0662593431917126e6 9.937956848314267e6 0.0
9.937956848314267e6 -5.068396715934547e6 0.0
0.0 0.0 0.0

-9.694123882592198e6 2.027140723333158e6 0.0
2.027140723333158e6 1.1122556518913798e7 0.0
0.0 0.0 0.0

1.8300571325841937e6 9.657354975805681e6 0.0
9.657354975805681e6 -1.0688066823314824e6 0.0
0.0 0.0 0.0

-1.5089255037284677e6 3.7035522365955943e6 0.0
3.7035522365955943e6 530553.6165554983 0.0
0.0 0.0 0.0

612710.8712867056 1.0288634590217303e7 0.0
1.0288634590217303e7 -7.467428848106872e6 0.0
0.0 0.0 0.0

215154.88714859914 6.15192140017869e6 0.0
6.15192140017869e6 -3.113390546257332e6 0.0
0.0 0.0 0.0

827955.3340877413 7.006930501043878e6 0.0
7.006930501043878e6 -3.7228591452951017e6 0.0
0.0 0.0 0.0

-1.162054653875109e6 9.325512173803216e6 0.0
9.325512173803216e6 -4.613309764885803e6 0.0
0.0 0.0 0.0

1.5451420379254762e6 5.939822149870496e6 0.0
5.939822149870496e6 -6.28176444005058e6 0.0
0.0 0.0 0.0

-6.762025037744101e6 2.2133511048434908e6 0.0
2.2133511048434908e6 5.7893489854534995e6 0.0
0.0 0.0 0.0

4.810189977723937e6 6.153161930040918e6 0.0
6.153161930040918e6 -1.3901035729909802e7 0.0
0.0 0.0 0.0

-711787.7096300961 1.0721054969006304e7 0.0
1.0721054969006304e7 -2.3726255547548695e6 0.0
0.0 0.0 0.0

-4.837253808462333e6 5.400684682659483e6 0.0
5.400684682659483e6 3.306339665973981e6 0.0
0.0 0.0 0.0

-5.252524989038739e6 1.2377117602670638e7 0.0
1.2377117602670638e7 3.0087384771786574e6 0.0
0.0 0.0 0.0

20075.668116723187 9.831307803447653e6 0.0
9.831307803447653e6 1.925782039439185e6 0.0
0.0 0.0 0.0

-7.87267952688553e6 9.100761706015103e6 0.0
9.100761706015103e6 8.920871026488472e6 0.0
0.0 0.0 0.0

-6.914113147442424e6 1.0628267048583006e7 0.0
1.0628267048583006e7 8.126151132299749e6 0.0
0.0 0.0 0.0

-6.598745687891302e6 -2.54577834300146e6 0.0
-2.54577834300146e6 8.733434198115367e6 0.0
0.0 0.0 0.0

-1.6559862524152615e6 7.865980405183381e6 0.0
7.865980405183381e6 -1.124817116734311e6 0.0
0.0 0.0 0.0

-192572.7726751517 1.2088193843834586e7 0.0
1.2088193843834586e7 5.172643791782834e6 0.0
0.0 0.0 0.0

-3.4823112880213563e6 1.251811440196242e7 0.0
1.251811440196242e7 3.6019665618884945e6 0.0
0.0 0.0 0.0

-7.1685152559062e6 3.9754863074244303e6 0.0
3.9754863074244303e6 7.002166748983244e6 0.0
0.0 0.0 0.0

687643.1909872829 9.801885054975376e6 0.0
9.801885054975376e6 -8.340850347030513e6 0.0
0.0 0.0 0.0

988872.1672863862 6.289630904314135e6 0.0
6.289630904314135e6 -6.135725477953881e6 0.0
0.0 0.0 0.0

-860083.9604228481 1.02339359834703e7 0.0
1.02339359834703e7 -4.593425894292493e6 0.0
0.0 0.0 0.0

-1.330372078970864e6 7.469955717680808e6 0.0
7.469955717680808e6 -1.495101819318187e6 0.0
0.0 0.0 0.0

1.8354780591751211e6 6.0881556094491845e6 0.0
6.0881556094491845e6 -6.08258211968817e6 0.0
0.0 0.0 0.0

-4.1016272846807307e6 1.1986606742394594e7 0.0
1.1986606742394594e7 -436145.63816740783 0.0
0.0 0.0 0.0

-1.0033162808558892e7 -1.430470462544637e6 0.0
-1.430470462544637e6 1.566472991527067e7 0.0
0.0 0.0 0.0

-8.1389318522233e6 -1.1272287493208398e6 0.0
-1.1272287493208398e6 1.1745929051551245e7 0.0
0.0 0.0 0.0

-1.15386517874384e7 3.5871142594365887e6 0.0
3.5871142594365887e6 1.4453738891569912e7 0.0
0.0 0.0 0.0

-3.1817883124680673e6 1.1740624844114834e7 0.0
1.1740624844114834e7 -2.6202369949294194e6 0.0
0.0 0.0 0.0

-57172.36314225802 7.272927364580334e6 0.0
7.272927364580334e6 -3.6337089681263897e6 0.0
0.0 0.0 0.0

2.6652384156745374e6 1.0921225604880737e7 0.0
1.0921225604880737e7 2.6842699864655444e6 0.0
0.0 0.0 0.0

1.466973247649333e6 1.4683168796074985e7 0.0
1.4683168796074985e7 1.1770927775016492e7 0.0
0.0 0.0 0.0

1.2023155636447729e6 6.0598621148524955e6 0.0
6.0598621148524955e6 -5.766284244947937e6 0.0
0.0 0.0 0.0

-2.726613629728283e6 4.1707387032207097e6 0.0
4.1707387032207097e6 2.067688785457565e6 0.0
0.0 0.0 0.0

-1.9866584985516267e6 8.285076728243654e6 0.0
8.285076728243654e6 -777091.2246998567 0.0
0.0 0.0 0.0

-7.014556068674407e6 1.1049667498415403e7 0.0
1.1049667498415403e7 6.756835564584915e6 0.0
0.0 0.0 0.0

3.8095141774731786e6 6.696243266568793e6 0.0
6.696243266568793e6 -1.1337727816876497e7 0.0
0.0 0.0 0.0

3.188118402189084e6 6.868341696222717e6 0.0
6.868341696222717e6 -1.0106425646806708e7 0.0
0.0 0.0 0.0

-255436.7176220835 5.956412728572075e6 0.0
5.956412728572075e6 -2.6848939995134627e6 0.0
0.0 0.0 0.0

-4.161909616960712e6 9.13671944226084e6 0.0
9.13671944226084e6 2.42174168058731e6 0.0
0.0 0.0 0.0

-9.720969221876018e6 1.0128464412541015e7 0.0
1.0128464412541015e7 1.9517031857953206e7 0.0
0.0 0.0 0.0

-1.1771926698446737e6 1.0637361073259272e7 0.0
1.0637361073259272e7 -4.281844240908371e6 0.0
0.0 0.0 0.0

-508299.1428813266 6.148058526158369e6 0.0
6.148058526158369e6 -2.416283175822106e6 0.0
0.0 0.0 0.0

3.4568770426489594e6 6.673149227832657e6 0.0
6.673149227832657e6 -1.0431850216467796e7 0.0
0.0 0.0 0.0

-6.173359999503075e6 1.0066678945521813e7 0.0
1.0066678945521813e7 4.209804319969689e6 0.0
0.0 0.0 0.0

1.4265065662569036e6 7.088893728979174e6 0.0
7.088893728979174e6 -7.141026337893949e6 0.0
0.0 0.0 0.0

-3.2292718231860814e6 2.0024649275140953e6 0.0
2.0024649275140953e6 427331.2255908495 0.0
0.0 0.0 0.0

-804773.8284425384 9.212191185628973e6 0.0
9.212191185628973e6 -5.132536473963292e6 0.0
0.0 0.0 0.0

1.316863842692561e6 5.398740309319263e6 0.0
5.398740309319263e6 -4.685413643703824e6 0.0
0.0 0.0 0.0

-991484.8529359637 7.124690854014933e6 0.0
7.124690854014933e6 -1.9092128608727024e6 0.0
0.0 0.0 0.0

-617845.7601440379 6.842306042825923e6 0.0
6.842306042825923e6 -2.3811204751910344e6 0.0
0.0 0.0 0.0

-1.1688448777822754e6 9.003182261070134e6 0.0
9.003182261070134e6 -4.43456791056672e6 0.0
0.0 0.0 0.0

-1.9805598007384303e6 8.68540971538341e6 0.0
8.68540971538341e6 -1.8706854661105676e6 0.0
0.0 0.0 0.0

-9.374889980345294e6 2.9797947273949794e6 0.0
2.9797947273949794e6 1.0662522022775674e7 0.0
0.0 0.0 0.0

-1.0506591439734988e7 7.10833627932189e6 0.0
7.10833627932189e6 1.914091989861867e7 0.0
0.0 0.0 0.0

-1.1953016891533773e7 4.1168365533525534e6 0.0
4.1168365533525534e6 1.6492084795427885e7 0.0
0.0 0.0 0.0

-1.049622435023556e7 7.282592774933187e6 0.0
7.282592774933187e6 1.7599498810992863e7 0.0
0.0 0.0 0.0

-1.36373782969048e7 1.548419619967967e6 0.0
1.548419619967967e6 2.866580380391457e7 0.0
0.0 0.0 0.0

-1.1146318975926153e6 1.1921606185657099e7 0.0
1.1921606185657099e7 983272.3495323301 0.0
0.0 0.0 0.0

-1.2240558686335802e7 -1.1632787811280622e6 0.0
-1.1632787811280622e6 1.8921395637498237e7 0.0
0.0 0.0 0.0

-3.8573619348316183e6 1.1177730701520158e7 0.0
1.1177730701520158e7 -462447.7783807466 0.0
0.0 0.0 0.0

925560.3688908475 1.0581226119492196e7 0.0
1.0581226119492196e7 -7.120298520551415e6 0.0
0.0 0.0 0.0

-2.3286213496469766e7 1.5604056918720128e7 0.0
1.5604056918720128e7 808983.4558373494 0.0
0.0 0.0 0.0

1.216336467956583e6 6.451750050961911e6 0.0
6.451750050961911e6 -5.88012565692422e6 0.0
0.0 0.0 0.0

1.241850661436244e6 8.84569389259227e6 0.0
8.84569389259227e6 -7.549553678014146e6 0.0
0.0 0.0 0.0

-4.1237836490800395e6 1.1936317380651658e7 0.0
1.1936317380651658e7 -100539.680862115 0.0
0.0 0.0 0.0

-4.49155133726518e6 1.1040964554321585e7 0.0
1.1040964554321585e7 2.0338588650242866e6 0.0
0.0 0.0 0.0

2.6426069383058003e6 7.038292832467152e6 0.0
7.038292832467152e6 -9.07013373563094e6 0.0
0.0 0.0 0.0

3.747952063637454e6 1.3552610488108525e7 0.0
1.3552610488108525e7 -7.616416483407211e6 0.0
0.0 0.0 0.0

-1.4500632451570705e6 7.168332181526815e6 0.0
7.168332181526815e6 -1.9398814514840655e6 0.0
0.0 0.0 0.0

4.295607963225883e6 7.243889933084982e6 0.0
7.243889933084982e6 -1.462265718240053e7 0.0
0.0 0.0 0.0

-1.0898273940696153e6 6.844013659342394e6 0.0
6.844013659342394e6 -2.327959441421161e6 0.0
0.0 0.0 0.0

886092.6491434735 6.580305034823075e6 0.0
6.580305034823075e6 -6.082518054818912e6 0.0
0.0 0.0 0.0

-7.075413243889112e6 9.50816977403833e6 0.0
9.50816977403833e6 8.289618504257958e6 0.0
0.0 0.0 0.0

-1.4264146053563327e7 1.026452232237827e7 0.0
1.026452232237827e7 4.377111099330255e6 0.0
0.0 0.0 0.0

-6.824658084587662e6 271564.52823906444 0.0
271564.52823906444 7.397654508139984e6 0.0
0.0 0.0 0.0

-1.509790788068483e6 1.1024068618558254e7 0.0
1.1024068618558254e7 -3.9451080794275524e6 0.0
0.0 0.0 0.0

-9.982472383387677e6 9.626776525625443e6 0.0
9.626776525625443e6 7.105905632591162e6 0.0
0.0 0.0 0.0

1.1794526311983191e6 5.815091526201641e6 0.0
5.815091526201641e6 -5.755444735806077e6 0.0
0.0 0.0 0.0

-4.65636725943728e6 4.92790164254914e6 0.0
4.92790164254914e6 4.612795466655155e6 0.0
0.0 0.0 0.0

-943929.1234504338 9.62532345265617e6 0.0
9.62532345265617e6 -4.1440009591218745e6 0.0
0.0 0.0 0.0

-1.6403348544507613e6 9.023874310269313e6 0.0
9.023874310269313e6 -2.397915327342797e6 0.0
0.0 0.0 0.0

-1.799144706708309e6 7.549724339274282e6 0.0
7.549724339274282e6 -1.5918919068757275e6 0.0
0.0 0.0 0.0

-1.1283477056044426e7 2.520662306034381e6 0.0
2.520662306034381e6 1.4332709432934402e7 0.0
0.0 0.0 0.0

3.4755005135535803e6 6.022819638728775e6 0.0
6.022819638728775e6 -9.84584395496585e6 0.0
0.0 0.0 0.0

1.1991036616069335e6 5.9649618404447595e6 0.0
5.9649618404447595e6 -6.376334909878702e6 0.0
0.0 0.0 0.0

-5.811131213443008e6 9.876337152969813e6 0.0
9.876337152969813e6 3.5320738043008083e6 0.0
0.0 0.0 0.0

-725235.9352931639 3.7453319829248344e6 0.0
3.7453319829248344e6 -1.3056202497079826e6 0.0
0.0 0.0 0.0

-918873.2908975738 8.361862667147433e6 0.0
8.361862667147433e6 -4.525920691365396e6 0.0
0.0 0.0 0.0

2.0844435800019293e6 6.576005292648322e6 0.0
6.576005292648322e6 -7.559598022461259e6 0.0
0.0 0.0 0.0

-1.022390997676425e7 -794699.8587207976 0.0
-794699.8587207976 1.4874892377410777e7 0.0
0.0 0.0 0.0

-989228.9655044633 1.2070933373703422e7 0.0
1.2070933373703422e7 440471.2735471422 0.0
0.0 0.0 0.0

-5.586607355660842e6 2.10544351133327e6 0.0
2.10544351133327e6 4.27588089596596e6 0.0
0.0 0.0 0.0

2.3705465283937408e6 8.91064773357195e6 0.0
8.91064773357195e6 -1.0429277342116315e7 0.0
0.0 0.0 0.0

270053.0585644357 1.123963530808875e7 0.0
1.123963530808875e7 -8.034495189957e6 0.0
0.0 0.0 0.0

-4.688464774783778e6 5.842790946748161e6 0.0
5.842790946748161e6 3.1214719233103096e6 0.0
0.0 0.0 0.0

1.1313596915392661e6 1.0173494027083237e7 0.0
1.0173494027083237e7 -8.500013584988605e6 0.0
0.0 0.0 0.0

-169388.10000639502 9.665074078751193e6 0.0
9.665074078751193e6 -5.442641664040565e6 0.0
0.0 0.0 0.0

2.8963458451983756e6 5.022274092512e6 0.0
5.022274092512e6 -4.855862161711891e6 0.0
0.0 0.0 0.0

-2.890229818569579e6 2.1673841446795086e6 0.0
2.1673841446795086e6 1.3835867106854056e6 0.0
0.0 0.0 0.0

-681016.3614900691 7.724008477700882e6 0.0
7.724008477700882e6 -4.471914010222969e6 0.0
0.0 0.0 0.0

-358654.6255036548 7.392249111266866e6 0.0
7.392249111266866e6 -4.810568538765832e6 0.0
0.0 0.0 0.0

-857660.9198258915 9.90943295743191e6 0.0
9.90943295743191e6 -4.361936728137756e6 0.0
0.0 0.0 0.0

-969399.7832838313 1.2172099460242523e7 0.0
1.2172099460242523e7 -24093.88592847815 0.0
0.0 0.0 0.0

283402.96248166217 6.856967819278775e6 0.0
6.856967819278775e6 -5.552258984682196e6 0.0
0.0 0.0 0.0

1.844948580036912e6 1.0099540996474065e7 0.0
1.0099540996474065e7 -1.3135056653547013e7 0.0
0.0 0.0 0.0

-686821.80193186 4.221712076422598e6 0.0
4.221712076422598e6 -1.4007106432722092e6 0.0
0.0 0.0 0.0

-2.21476177776919e6 1.1325162937213937e7 0.0
1.1325162937213937e7 -1.037434595173373e7 0.0
0.0 0.0 0.0

-4.958728230227645e7 2.955926579027312e6 0.0
2.955926579027312e6 1.04459507153907e7 0.0
0.0 0.0 0.0

3.399514160117722e7 8.721560536076551e6 0.0
8.721560536076551e6 -2.9544872316111512e6 0.0
0.0 0.0 0.0

1.644749655920839e6 1.0491814172868188e7 0.0
1.0491814172868188e7 -1.4063894649633469e7 0.0
0.0 0.0 0.0

-5.99695496976714e6 7.78647639391231e6 0.0
7.78647639391231e6 6.074243689368493e6 0.0
0.0 0.0 0.0

-3.6441807268351433e6 1.0243821970069524e7 0.0
1.0243821970069524e7 63643.31356065092 0.0
0.0 0.0 0.0

-983571.7121506322 8.051803458973403e6 0.0
8.051803458973403e6 -4.1609472066444117e6 0.0
0.0 0.0 0.0

483115.78313551424 7.327891362308998e6 0.0
7.327891362308998e6 -3.8944475717735356e6 0.0
0.0 0.0 0.0

455140.4067774983 7.257292664745232e6 0.0
7.257292664745232e6 -3.9937976789043313e6 0.0
0.0 0.0 0.0

-2.13802760020914e6 7.968143953852968e6 0.0
7.968143953852968e6 -1.2609527047631694e6 0.0
0.0 0.0 0.0

1.7710376496623708e6 1.0277175714417143e7 0.0
1.0277175714417143e7 -1.359392186263655e7 0.0
0.0 0.0 0.0

-211559.0880421782 7.6573314843393e6 0.0
7.6573314843393e6 -4.38945831773563e6 0.0
0.0 0.0 0.0

-8.60086315106404e6 104923.74778616561 0.0
104923.74778616561 1.011413293354399e7 0.0
0.0 0.0 0.0

2.2710373757671975e7 9.615390149802333e6 0.0
9.615390149802333e6 -3.893981831171454e6 0.0
0.0 0.0 0.0

-515262.3118606637 7.979112931773213e6 0.0
7.979112931773213e6 -4.067540144373051e6 0.0
0.0 0.0 0.0

2.6753237449704055e6 6.507996588741832e6 0.0
6.507996588741832e6 -8.728789917335995e6 0.0
0.0 0.0 0.0

2.655548319049892e6 6.770894476119268e6 0.0
6.770894476119268e6 -8.85943668216325e6 0.0
0.0 0.0 0.0

-6.693703033937188e6 1.0027324055104023e7 0.0
1.0027324055104023e7 7.868393728474937e6 0.0
0.0 0.0 0.0

435108.34096951224 9.37085278937277e6 0.0
9.37085278937277e6 -6.277643305005276e6 0.0
0.0 0.0 0.0

-1.9479606593711055e6 1.2216391424161702e7 0.0
1.2216391424161702e7 -1.0658740135730114e6 0.0
0.0 0.0 0.0

1.8004354129667962e6 1.264701254280498e7 0.0
1.264701254280498e7 -5.399481715193375e6 0.0
0.0 0.0 0.0

-1.1710814207348023e6 8.212883107490743e6 0.0
8.212883107490743e6 -2.1702188481231737e6 0.0
0.0 0.0 0.0

780326.0505540152 6.861694781228109e6 0.0
6.861694781228109e6 -3.9966423125522723e6 0.0
0.0 0.0 0.0

-426508.5561406466 7.1826924606443215e6 0.0
7.1826924606443215e6 -3.222148266445388e6 0.0
0.0 0.0 0.0

-553609.504156015 5.435413030910303e6 0.0
5.435413030910303e6 -1.7663972872155553e6 0.0
0.0 0.0 0.0

-575999.1295165974 1.0389088118041342e7 0.0
1.0389088118041342e7 -9.353439591164634e6 0.0
0.0 0.0 0.0

1.9932852410961287e6 8.705161831143282e6 0.0
8.705161831143282e6 -9.135686747715598e6 0.0
0.0 0.0 0.0

902145.0721061882 6.0621693791748695e6 0.0
6.0621693791748695e6 -6.150777715965843e6 0.0
0.0 0.0 0.0

747909.63443289 6.74062289500034e6 0.0
6.74062289500034e6 -5.391919150159405e6 0.0
0.0 0.0 0.0

-1.9437948188080927e6 8.999074044549324e6 0.0
8.999074044549324e6 -1.403871701360972e6 0.0
0.0 0.0 0.0

965746.639720845 6.820400622523867e6 0.0
6.820400622523867e6 -6.248274013329589e6 0.0
0.0 0.0 0.0

220713.07633952354 7.19911296138774e6 0.0
7.19911296138774e6 -3.877815560846308e6 0.0
0.0 0.0 0.0

1.8188154863016354e6 5.749724757784908e6 0.0
5.749724757784908e6 -6.623966317632221e6 0.0
0.0 0.0 0.0

-633726.956034089 8.901699654142775e6 0.0
8.901699654142775e6 -4.293894596034926e6 0.0
0.0 0.0 0.0

-857046.2977646941 4.8097422672198275e6 0.0
4.8097422672198275e6 -1.551099797300727e6 0.0
0.0 0.0 0.0

-3.9376013016035114e6 1.1982237133770544e7 0.0
1.1982237133770544e7 -1.4399691172465882e6 0.0
0.0 0.0 0.0

4.04135708073649e6 6.85047545474854e6 0.0
6.85047545474854e6 -1.3248023528343242e7 0.0
0.0 0.0 0.0

-972951.9851174231 9.30452667401434e6 0.0
9.30452667401434e6 -3.976293258077601e6 0.0
0.0 0.0 0.0

1.748003717169282e6 7.109053232766487e6 0.0
7.109053232766487e6 -6.940036751203279e6 0.0
0.0 0.0 0.0

930635.2117495199 6.261617786610523e6 0.0
6.261617786610523e6 -3.3834022739888392e6 0.0
0.0 0.0 0.0

1.918673936456942e6 6.861616255377557e6 0.0
6.861616255377557e6 -7.262704799009791e6 0.0
0.0 0.0 0.0

-4.1014073163713454e6 9.894245695689095e6 0.0
9.894245695689095e6 1.9072797303298747e6 0.0
0.0 0.0 0.0

-4.159770624803017e6 1.3558106334279759e7 0.0
1.3558106334279759e7 -1.7920095178553038e6 0.0
0.0 0.0 0.0

717406.8374586273 1.1189098609646164e7 0.0
1.1189098609646164e7 -8.2788340198178105e6 0.0
0.0 0.0 0.0

616239.1537241356 6.905387868860319e6 0.0
6.905387868860319e6 -4.066688877987316e6 0.0
0.0 0.0 0.0

-4.266929783022149e6 1.3402197652878905e7 0.0
1.3402197652878905e7 -112687.7810152194 0.0
0.0 0.0 0.0

-2.5491101717193574e6 1.162982274528751e7 0.0
1.162982274528751e7 -2.508768698398071e6 0.0
0.0 0.0 0.0

-3.583444008078951e6 4.777998578440169e6 0.0
4.777998578440169e6 2.062051316252332e6 0.0
0.0 0.0 0.0

-3.6260844360924438e6 1.2395623963674912e7 0.0
1.2395623963674912e7 4.1107382897238815e6 0.0
0.0 0.0 0.0

703122.2879244036 5.63440400459836e6 0.0
5.63440400459836e6 -3.818676139142665e6 0.0
0.0 0.0 0.0

-693375.5772188874 7.284741889146366e6 0.0
7.284741889146366e6 -2.4137018901020125e6 0.0
0.0 0.0 0.0

-1.1106259080754384e7 1.380254798937502e6 0.0
1.380254798937502e6 1.7925158877765916e7 0.0
0.0 0.0 0.0

-2.3748981954304148e6 6.962457995759553e6 0.0
6.962457995759553e6 -413939.57976506604 0.0
0.0 0.0 0.0

2.033733337523751e6 9.630242055292957e6 0.0
9.630242055292957e6 -2.3791542580898255e6 0.0
0.0 0.0 0.0

-784132.0986499952 8.324444977344492e6 0.0
8.324444977344492e6 -3.733881813469088e6 0.0
0.0 0.0 0.0

-1.2162712330804856e6 8.74432485399403e6 0.0
8.74432485399403e6 -4.212990074060834e6 0.0
0.0 0.0 0.0

1.7523004922990957e6 9.96600248791171e6 0.0
9.96600248791171e6 -1.2708680142959023e7 0.0
0.0 0.0 0.0

4.039255048756169e6 7.090646772671254e6 0.0
7.090646772671254e6 -1.379789686277422e7 0.0
0.0 0.0 0.0

-7.303182768258866e6 4.933880795031696e6 0.0
4.933880795031696e6 7.564491555458179e6 0.0
0.0 0.0 0.0

-5.717814064304179e6 1.1432043097986305e7 0.0
1.1432043097986305e7 4.206488942917163e6 0.0
0.0 0.0 0.0

-9.907072894607317e6 -938730.795224289 0.0
-938730.795224289 1.229834564264882e7 0.0
0.0 0.0 0.0

-1.8901006559986426e6 1.1376891826838447e7 0.0
1.1376891826838447e7 -3.671153516124069e6 0.0
0.0 0.0 0.0

-1.5265739403452277e6 1.1657026176260198e7 0.0
1.1657026176260198e7 -5.275353245294091e6 0.0
0.0 0.0 0.0

5.665180659624463e6 5.018152177072388e6 0.0
5.018152177072388e6 -380892.95069619315 0.0
0.0 0.0 0.0

397959.52555548353 7.285616957822408e6 0.0
7.285616957822408e6 -4.87001945376771e6 0.0
0.0 0.0 0.0

-4.0208698623730037e6 6.228739385459324e6 0.0
6.228739385459324e6 1.9885990753317818e6 0.0
0.0 0.0 0.0

437470.2889909372 1.0669704246266022e7 0.0
1.0669704246266022e7 -8.431935697350703e6 0.0
0.0 0.0 0.0

-673358.9165508423 8.651352816472296e6 0.0
8.651352816472296e6 -4.089042897069619e6 0.0
0.0 0.0 0.0

-560837.9119561497 9.517248312762931e6 0.0
9.517248312762931e6 -4.674560803928545e6 0.0
0.0 0.0 0.0

-1.0394670841301229e7 4.62051726513549e6 0.0
4.62051726513549e6 1.4447804357675184e7 0.0
0.0 0.0 0.0

-5.63376285121906e6 5.0548244182784315e6 0.0
5.0548244182784315e6 4.54875730839418e6 0.0
0.0 0.0 0.0

-1.2553919007514939e6 8.529149482855204e6 0.0
8.529149482855204e6 -4.018927362477229e6 0.0
0.0 0.0 0.0

-2.390826605801432e6 9.844564997057308e6 0.0
9.844564997057308e6 -2.627203056082398e6 0.0
0.0 0.0 0.0

-4.0464372858072324e6 8.586859914988622e6 0.0
8.586859914988622e6 3.272776888648893e6 0.0
0.0 0.0 0.0

-5.030668403341763e6 1.2179751155465268e7 0.0
1.2179751155465268e7 1.3381610934982123e6 0.0
0.0 0.0 0.0

2.2313301843698015e6 8.810604684790475e6 0.0
8.810604684790475e6 -9.792156617340397e6 0.0
0.0 0.0 0.0

-7.024115995955224e6 1.3966187109007847e7 0.0
1.3966187109007847e7 5.198696165344019e6 0.0
0.0 0.0 0.0

-4.0113808766203737e6 6.575206740955802e6 0.0
6.575206740955802e6 1.8168319419802823e6 0.0
0.0 0.0 0.0

-4.337007551859207e6 1.3907658883725459e7 0.0
1.3907658883725459e7 528412.2142803604 0.0
0.0 0.0 0.0

-378322.1507430108 1.0948942985296559e7 0.0
1.0948942985296559e7 -1.7857013625871162e6 0.0
0.0 0.0 0.0

692476.2790351771 1.1384587765988873e7 0.0
1.1384587765988873e7 -7.883503568687704e6 0.0
0.0 0.0 0.0

-1.2053587112994073e6 1.141773184378984e7 0.0
1.141773184378984e7 -2.3675869350802856e6 0.0
0.0 0.0 0.0

-6.464849970711485e6 1.1257425698647367e7 0.0
1.1257425698647367e7 5.157163053718477e6 0.0
0.0 0.0 0.0

-1.6108456070034737e6 1.0437939949364562e7 0.0
1.0437939949364562e7 -3.490918392175405e6 0.0
0.0 0.0 0.0

-1.2698282262344393e6 8.40406540538742e6 0.0
8.40406540538742e6 -3.8408381745620645e6 0.0
0.0 0.0 0.0

816855.9463217249 1.1052255017898135e7 0.0
1.1052255017898135e7 -8.494580964332115e6 0.0
0.0 0.0 0.0

-626440.550750183 7.757713300675999e6 0.0
7.757713300675999e6 -3.709417769561434e6 0.0
0.0 0.0 0.0

-4.639253484146734e6 1.1101684549580222e7 0.0
1.1101684549580222e7 1.5373033332716723e6 0.0
0.0 0.0 0.0

-4.736352383708561e6 1.2012055720429419e7 0.0
1.2012055720429419e7 746013.0553070891 0.0
0.0 0.0 0.0

1.8553759801633377e6 6.188301458770793e6 0.0
6.188301458770793e6 -3.5680402467385586e6 0.0
0.0 0.0 0.0

-176541.62778956722 7.330550788139493e6 0.0
7.330550788139493e6 -4.775651282319111e6 0.0
0.0 0.0 0.0

-5.128410881535796e6 1.2646970667569797e7 0.0
1.2646970667569797e7 2.2876072268569507e6 0.0
0.0 0.0 0.0

-4.328225383018091e6 9.57904670233612e6 0.0
9.57904670233612e6 1.3970151628873136e6 0.0
0.0 0.0 0.0

-3.696710525007925e7 -977568.080818793 0.0
-977568.080818793 1.045015219571769e7 0.0
0.0 0.0 0.0

1.1183447753165113e6 1.040207469195286e7 0.0
1.040207469195286e7 -8.692010305765986e6 0.0
0.0 0.0 0.0

-4.473645415685868e6 8.75989030184014e6 0.0
8.75989030184014e6 1.8619395939237466e6 0.0
0.0 0.0 0.0

-3.6713345570490826e6 1.1317041571897838e7 0.0
1.1317041571897838e7 110742.32257420407 0.0
0.0 0.0 0.0

-4.886489328224517e6 9.242615538674902e6 0.0
9.242615538674902e6 2.3058761211936874e6 0.0
0.0 0.0 0.0

-931273.9229676343 1.2315322946342733e7 0.0
1.2315322946342733e7 -403974.47937190067 0.0
0.0 0.0 0.0

-2.303541526024012e6 1.0942782973929511e7 0.0
1.0942782973929511e7 -2.7256569695436787e6 0.0
0.0 0.0 0.0

-3.8693755240133316e6 6.949546334813011e6 0.0
6.949546334813011e6 1.4935771897353474e6 0.0
0.0 0.0 0.0

-5.670187307008401e6 3.7736654474042286e6 0.0
3.7736654474042286e6 7.122628619941521e6 0.0
0.0 0.0 0.0

-732864.9507326244 8.014603055244528e6 0.0
8.014603055244528e6 -3.1456407106446093e6 0.0
0.0 0.0 0.0

1.7084872246830324e6 6.503072427714584e6 0.0
6.503072427714584e6 -5.908545770242331e6 0.0
0.0 0.0 0.0

-2.0590902435687436e6 9.091643917513978e6 0.0
9.091643917513978e6 -2.4875645594506543e6 0.0
0.0 0.0 0.0

-2.770052529214169e6 1.1638270321007894e7 0.0
1.1638270321007894e7 -3.2540857420743136e6 0.0
0.0 0.0 0.0

-3.9600090859897174e6 9.174090065761887e6 0.0
9.174090065761887e6 944445.0524824732 0.0
0.0 0.0 0.0

-1.8514703419615787e6 8.595119068353597e6 0.0
8.595119068353597e6 -2.33021488291271e6 0.0
0.0 0.0 0.0

-119196.63857194473 3.7263449342089696e6 0.0
3.7263449342089696e6 -1.4132761317702348e6 0.0
0.0 0.0 0.0

1.6315939897721289e6 6.136325738883585e6 0.0
6.136325738883585e6 -6.1483468005262595e6 0.0
0.0 0.0 0.0

-9.4926743577402e6 1.1910918517173503e6 0.0
1.1910918517173503e6 1.2983038316322125e7 0.0
0.0 0.0 0.0

-2.371625505997269e6 3.61068003671345e6 0.0
3.61068003671345e6 1.326671341428774e6 0.0
0.0 0.0 0.0

-4.091621256938627e6 1.1208022289086973e7 0.0
1.1208022289086973e7 6.019853427520714e6 0.0
0.0 0.0 0.0

-2.6821751845360408e6 1.020661076179387e7 0.0
1.020661076179387e7 -2.316138428305862e6 0.0
0.0 0.0 0.0

58251.180014302954 7.293621190092683e6 0.0
7.293621190092683e6 -4.8256009456779845e6 0.0
0.0 0.0 0.0

-9.824895053303305e6 502968.0590001968 0.0
502968.0590001968 1.433405445976041e7 0.0
0.0 0.0 0.0

-3.669779604617402e6 1.1459611318743011e7 0.0
1.1459611318743011e7 -23487.594891933724 0.0
0.0 0.0 0.0

-1.8191950014773838e6 8.023614941442483e6 0.0
8.023614941442483e6 -1.7320315923830578e6 0.0
0.0 0.0 0.0

-360594.38339436334 7.386693055612016e6 0.0
7.386693055612016e6 -2.913023973299862e6 0.0
0.0 0.0 0.0

-1.1340804282652577e6 8.050285982187548e6 0.0
8.050285982187548e6 -3.1616899075462692e6 0.0
0.0 0.0 0.0

569652.4468415766 1.062835749730456e7 0.0
1.062835749730456e7 -9.959844263483375e6 0.0
0.0 0.0 0.0

-4.1050228089706465e6 9.528652531889066e6 0.0
9.528652531889066e6 2.156511295106452e6 0.0
0.0 0.0 0.0

-943672.2172044492 1.1545359193335256e7 0.0
1.1545359193335256e7 -5.177595785314715e6 0.0
0.0 0.0 0.0

-9.597868270541582e6 1.1508123347021984e7 0.0
1.1508123347021984e7 2.4309941573804267e7 0.0
0.0 0.0 0.0

-1.588380323140087e6 1.0507057511245046e7 0.0
1.0507057511245046e7 4.233955229560053e6 0.0
0.0 0.0 0.0

-4.57420736059374e6 6.148083253496535e6 0.0
6.148083253496535e6 2.908123219189305e6 0.0
0.0 0.0 0.0

1.467682243122911e6 8.886058722781928e6 0.0
8.886058722781928e6 -8.036510080464539e6 0.0
0.0 0.0 0.0

-1.7552067833002375e6 8.90435694833749e6 0.0
8.90435694833749e6 -1.8575082955045851e6 0.0
0.0 0.0 0.0

-2.2890972471701177e6 1.2872233000990873e7 0.0
1.2872233000990873e7 -4.1337866482593627e6 0.0
0.0 0.0 0.0

-5.687410801468588e6 1.1983088201860812e7 0.0
1.1983088201860812e7 3.8346659692357946e6 0.0
0.0 0.0 0.0

-4.500463299235535e6 1.18214132832042e7 0.0
1.18214132832042e7 335025.8213354761 0.0
0.0 0.0 0.0

563440.7251915932 1.1583452435915194e7 0.0
1.1583452435915194e7 -7.445825580555287e6 0.0
0.0 0.0 0.0

-1.382490142383351e6 8.526039155169778e6 0.0
8.526039155169778e6 -2.2509102883190443e6 0.0
0.0 0.0 0.0

-4.761922269309068e6 9.62478791014499e6 0.0
9.62478791014499e6 2.0487174521670588e6 0.0
0.0 0.0 0.0

-3.0868204669335983e6 4.547835039168465e6 0.0
4.547835039168465e6 1.3844221689503498e6 0.0
0.0 0.0 0.0

1.3507346645348966e6 5.7595915909522865e6 0.0
5.7595915909522865e6 -6.255098827954078e6 0.0
0.0 0.0 0.0

-1.900617069021685e6 9.239267447603354e6 0.0
9.239267447603354e6 -1.9723484918428084e6 0.0
0.0 0.0 0.0

1.4369353354042298e6 7.259736996990257e6 0.0
7.259736996990257e6 -6.277370423127524e6 0.0
0.0 0.0 0.0

-3.4597197845732346e6 1.0257574136618884e7 0.0
1.0257574136618884e7 677153.7919268191 0.0
0.0 0.0 0.0

-40831.18569381954 7.417875203970341e6 0.0
7.417875203970341e6 -3.4208958558639563e6 0.0
0.0 0.0 0.0

-6.043973342705775e6 1.358370367566872e7 0.0
1.358370367566872e7 2.112168800528056e6 0.0
0.0 0.0 0.0

-2.7053686657505475e7 -3.448817580240834e6 0.0
-3.448817580240834e6 1.14084242816935e7 0.0
0.0 0.0 0.0

179030.93784720823 7.263015893922804e6 0.0
7.263015893922804e6 -3.7838212366895066e6 0.0
0.0 0.0 0.0

682397.8250420885 1.0502209228728428e7 0.0
1.0502209228728428e7 -1.0790409581027217e7 0.0
0.0 0.0 0.0

154433.4707714331 1.2379580935724134e7 0.0
1.2379580935724134e7 -5.846220473628225e6 0.0
0.0 0.0 0.0

-464624.18582210026 8.067933710284526e6 0.0
8.067933710284526e6 -4.197077782997827e6 0.0
0.0 0.0 0.0

81143.53888105322 1.1048224953650039e7 0.0
1.1048224953650039e7 -6.81173791255253e6 0.0
0.0 0.0 0.0

447839.0750334533 7.055296860892307e6 0.0
7.055296860892307e6 -4.0118658257897487e6 0.0
0.0 0.0 0.0

1.773433644360153e6 6.864105686640584e6 0.0
6.864105686640584e6 -6.777246221869686e6 0.0
0.0 0.0 0.0

-5.2946600350673e6 1.2364332315615948e7 0.0
1.2364332315615948e7 1.8398359156413057e6 0.0
0.0 0.0 0.0

594234.9081078989 7.027215963817503e6 0.0
7.027215963817503e6 -3.9020971772846067e6 0.0
0.0 0.0 0.0

-80021.34104676265 7.0747085679559205e6 0.0
7.0747085679559205e6 -5.208315078431383e6 0.0
0.0 0.0 0.0

-6.611529903270757e6 1.4057287805646515e7 0.0
1.4057287805646515e7 2.9286422105320436e6 0.0
0.0 0.0 0.0

2.2654506982702436e6 1.0178776945822775e7 0.0
1.0178776945822775e7 -3.447422837847485e6 0.0
0.0 0.0 0.0

-2.897735846344193e6 1.317316411593579e7 0.0
1.317316411593579e7 -2.260137941818268e6 0.0
0.0 0.0 0.0

4.58038178628613e6 8.186054082714222e6 0.0
8.186054082714222e6 -1.5118150943884429e7 0.0
0.0 0.0 0.0

-7.960813988043126e6 7.315438406486853e6 0.0
7.315438406486853e6 1.1028226048567466e7 0.0
0.0 0.0 0.0

-4.821511387980002e6 1.2031007258230962e7 0.0
1.2031007258230962e7 2.148400743799826e6 0.0
0.0 0.0 0.0

1.109956293315465e6 6.780903222186447e6 0.0
6.780903222186447e6 -5.7639576994362995e6 0.0
0.0 0.0 0.0

523086.481349319 6.913704120514783e6 0.0
6.913704120514783e6 -4.053832286758542e6 0.0
0.0 0.0 0.0

365449.8703032702 7.180538232446386e6 0.0
7.180538232446386e6 -4.857756171721131e6 0.0
0.0 0.0 0.0

-6.936138050904337e6 1.3406390638276929e7 0.0
1.3406390638276929e7 5.538978661965564e6 0.0
0.0 0.0 0.0

-1.5479891934434925e6 3.573847243839493e6 0.0
3.573847243839493e6 808295.6300169633 0.0
0.0 0.0 0.0

-7.59963155022481e6 6.538060987398e6 0.0
6.538060987398e6 9.302629426120257e6 0.0
0.0 0.0 0.0

-4.333032955708248e6 1.1940600182608487e7 0.0
1.1940600182608487e7 845657.3771287762 0.0
0.0 0.0 0.0

-255801.28421670897 9.140779591812875e6 0.0
9.140779591812875e6 -5.0322398334702e6 0.0
0.0 0.0 0.0

-3.7459410403014193e6 1.155843538233634e7 0.0
1.155843538233634e7 5.004048189708448e6 0.0
0.0 0.0 0.0

-2.205320174741948e6 8.979525966526447e6 0.0
8.979525966526447e6 -1.950137571395005e6 0.0
0.0 0.0 0.0

-974080.0217088311 9.029991969373437e6 0.0
9.029991969373437e6 -3.7878138920281874e6 0.0
0.0 0.0 0.0

1.142272573619478e6 1.0360000976647655e7 0.0
1.0360000976647655e7 -1.023115766180202e7 0.0
0.0 0.0 0.0

-3.348472681551894e6 1.3744907543890428e7 0.0
1.3744907543890428e7 -1.5191898346121311e6 0.0
0.0 0.0 0.0

1.830442295175802e6 9.960090579659255e6 0.0
9.960090579659255e6 -1.2378854895381423e7 0.0
0.0 0.0 0.0

-2.6423601817463613e6 4.245854620434727e6 0.0
4.245854620434727e6 956343.8017708922 0.0
0.0 0.0 0.0

-930294.6081186142 1.494930179893414e7 0.0
1.494930179893414e7 1.4368296621287437e7 0.0
0.0 0.0 0.0

-6.794719498138515e6 1.2937751566672303e7 0.0
1.2937751566672303e7 5.28940889146461e6 0.0
0.0 0.0 0.0

-2.266649436313464e6 9.140981617141366e6 0.0
9.140981617141366e6 -2.0002522429003867e6 0.0
0.0 0.0 0.0

25272.37768166256 1.2993751234374218e7 0.0
1.2993751234374218e7 -5.089083357448524e6 0.0
0.0 0.0 0.0

-4.011192706224342e6 1.179215297261633e7 0.0
1.179215297261633e7 348246.14896819065 0.0
0.0 0.0 0.0

-849168.5717474169 6.0418224424516475e6 0.0
6.0418224424516475e6 -2.1710139812231227e6 0.0
0.0 0.0 0.0

385712.1818730049 1.178101093542116e7 0.0
1.178101093542116e7 -6.995515153769375e6 0.0
0.0 0.0 0.0

706204.5258562588 9.501664386930354e6 0.0
9.501664386930354e6 -6.92835242012655e6 0.0
0.0 0.0 0.0

395898.23335528467 9.6460965122643e6 0.0
9.6460965122643e6 -6.472693225813785e6 0.0
0.0 0.0 0.0

-1.5402668287508462e6 8.640782476072647e6 0.0
8.640782476072647e6 -3.3754808137765527e6 0.0
0.0 0.0 0.0

2.0055486806143015e6 1.4796667721661462e7 0.0
1.4796667721661462e7 -6.332753165237688e6 0.0
0.0 0.0 0.0

140777.11666197935 7.35502478278542e6 0.0
7.35502478278542e6 -4.769766332619588e6 0.0
0.0 0.0 0.0

1.817295950212975e6 5.8935388606428765e6 0.0
5.8935388606428765e6 -6.031161847308008e6 0.0
0.0 0.0 0.0

965904.5760912914 9.295558892599644e6 0.0
9.295558892599644e6 -7.29308330601304e6 0.0
0.0 0.0 0.0

3.776403309861391e6 7.123240771946589e6 0.0
7.123240771946589e6 -1.2862495235675545e7 0.0
0.0 0.0 0.0

-1.015395809283863e6 5.39113030823768e6 0.0
5.39113030823768e6 -1.6179639847723797e6 0.0
0.0 0.0 0.0

-4.581795518606261e6 1.0698131386211563e7 0.0
1.0698131386211563e7 1.555032050778022e6 0.0
0.0 0.0 0.0

2.0955413375799991e6 5.876004810660696e6 0.0
5.876004810660696e6 -7.811464125743044e6 0.0
0.0 0.0 0.0

1.5544665632938026e6 6.5087380231246725e6 0.0
6.5087380231246725e6 -5.915139010253034e6 0.0
0.0 0.0 0.0

-1.3771760322776022e6 8.811528332839679e6 0.0
8.811528332839679e6 -2.848095582348433e6 0.0
0.0 0.0 0.0

-1.0369088158804188e7 5.6503352679969305e6 0.0
5.6503352679969305e6 1.5263506175620351e7 0.0
0.0 0.0 0.0

-6.658263818217531e6 1.1580999664115325e7 0.0
1.1580999664115325e7 6.485940341771694e6 0.0
0.0 0.0 0.0

-1.0561852080649247e6 6.3983443081407e6 0.0
6.3983443081407e6 -2.2235310639908225e6 0.0
0.0 0.0 0.0

-6.777059854005661e6 1.0628009752213832e7 0.0
1.0628009752213832e7 7.566167425595706e6 0.0
0.0 0.0 0.0

1.4720796998375375e6 6.144637288612768e6 0.0
6.144637288612768e6 -6.1002171845194725e6 0.0
0.0 0.0 0.0

1.169145084131646e6 9.110483561369807e6 0.0
9.110483561369807e6 -7.751445856148422e6 0.0
0.0 0.0 0.0

-1.6429090750880733e7 2.5995299304595273e7 0.0
2.5995299304595273e7 1.066439490088724e7 0.0
0.0 0.0 0.0

-2.0684831094381826e6 7.0153784582052855e6 0.0
7.0153784582052855e6 -950212.5560941589 0.0
0.0 0.0 0.0

-2.081255908450302e6 3.846195715529444e6 0.0
3.846195715529444e6 392564.415033801 0.0
0.0 0.0 0.0

-1.2709612795228402e6 1.1266424409331623e7 0.0
1.1266424409331623e7 -5.61468812868096e6 0.0
0.0 0.0 0.0

114406.15087705618 9.79425093884686e6 0.0
9.79425093884686e6 -6.083391335182175e6 0.0
0.0 0.0 0.0

-518945.76523065194 208934.19539322413 0.0
208934.19539322413 1.311501762336837e6 0.0
0.0 0.0 0.0

-273916.0203219934 -1.9975889936087697e6 0.0
-1.9975889936087697e6 3.1833750281223287e6 0.0
0.0 0.0 0.0

-7.103589779167911e6 1.3422143290787201e7 0.0
1.3422143290787201e7 5.528243818661202e6 0.0
0.0 0.0 0.0

-3.9949449139011023e6 8.727366850402359e6 0.0
8.727366850402359e6 1.1584617561993985e6 0.0
0.0 0.0 0.0

-6.870978610729512e6 1.3438088376240484e7 0.0
1.3438088376240484e7 4.7815243951357305e6 0.0
0.0 0.0 0.0

1.5902478085798733e6 7.360200396843809e6 0.0
7.360200396843809e6 -6.694056382518682e6 0.0
0.0 0.0 0.0

-4.652461160166139e6 9.963439633587133e6 0.0
9.963439633587133e6 1.8371579976515279e6 0.0
0.0 0.0 0.0

-7.231113562918026e6 1.9764760203761158e6 0.0
1.9764760203761158e6 9.016707704194067e6 0.0
0.0 0.0 0.0

-3.1903348371895973e7 -2.4231739703214504e6 0.0
-2.4231739703214504e6 1.2553578036777494e7 0.0
0.0 0.0 0.0

-4.983666059005581e6 1.1079245636068886e7 0.0
1.1079245636068886e7 2.0167123732845024e6 0.0
0.0 0.0 0.0

-6.659110943353127e6 1.1018161308805514e7 0.0
1.1018161308805514e7 7.337059366356921e6 0.0
0.0 0.0 0.0

-4.805730484924888e6 1.3150880968170876e7 0.0
1.3150880968170876e7 -524467.5649520251 0.0
0.0 0.0 0.0

1.4952746156666784e6 6.707412856756954e6 0.0
6.707412856756954e6 -5.674199624019784e6 0.0
0.0 0.0 0.0

-2.7521601303587006e6 7.3917726317632105e6 0.0
7.3917726317632105e6 -39247.12445813371 0.0
0.0 0.0 0.0

-5.006372719969039e6 1.3236016870174732e7 0.0
1.3236016870174732e7 394174.1692316807 0.0
0.0 0.0 0.0

-2.858636242606361e6 1.3254771473272154e7 0.0
1.3254771473272154e7 -179915.30969580822 0.0
0.0 0.0 0.0

1.0982426388544803e6 6.3027598748375615e6 0.0
6.3027598748375615e6 -5.773443448730012e6 0.0
0.0 0.0 0.0

-6.769127764534337e6 1.12685128272611e7 0.0
1.12685128272611e7 7.066255073827498e6 0.0
0.0 0.0 0.0

-1.906450883761122e6 9.750703063033216e6 0.0
9.750703063033216e6 -2.477789891508619e6 0.0
0.0 0.0 0.0

4.250031115845753e6 6.5720491028815275e6 0.0
6.5720491028815275e6 -1.3445952552316193e7 0.0
0.0 0.0 0.0

-9.371872973143015e6 -4.112977431122844e6 0.0
-4.112977431122844e6 1.397210991619203e7 0.0
0.0 0.0 0.0

837077.0028991043 6.9443702612286415e6 0.0
6.9443702612286415e6 -5.469692418141692e6 0.0
0.0 0.0 0.0

2.934605520284617e6 6.83318098451943e6 0.0
6.83318098451943e6 -9.482339737213664e6 0.0
0.0 0.0 0.0

1.284370854635323e6 1.0529516865687834e7 0.0
1.0529516865687834e7 -6.16121509621103e6 0.0
0.0 0.0 0.0

2.512389587779519e6 9.04961316331395e6 0.0
9.04961316331395e6 -1.2402357029140558e7 0.0
0.0 0.0 0.0

-7.405311614993349e6 1.5555124466298006e7 0.0
1.5555124466298006e7 3.013532343926406e6 0.0
0.0 0.0 0.0

-8.715464805519968e6 9.601039419196513e6 0.0
9.601039419196513e6 1.3270143852221485e7 0.0
0.0 0.0 0.0

-9.195022260618541e6 -3.02306406099279e6 0.0
-3.02306406099279e6 1.3205773780434975e7 0.0
0.0 0.0 0.0

-2.1994461964114276e6 1.011550776161745e7 0.0
1.011550776161745e7 -2.186023006703312e6 0.0
0.0 0.0 0.0

3.1282140051605455e6 7.4056714470395865e6 0.0
7.4056714470395865e6 -1.1464345392092606e7 0.0
0.0 0.0 0.0

-2.9746257555596353e6 1.0083820571367072e7 0.0
1.0083820571367072e7 -283946.3186009462 0.0
0.0 0.0 0.0

-4.251497345546462e6 1.0354413223832633e7 0.0
1.0354413223832633e7 1.1021939731936897e6 0.0
0.0 0.0 0.0

-3.3059812872329205e6 4.111045219320694e6 0.0
4.111045219320694e6 2.8869845093476935e6 0.0
0.0 0.0 0.0

-3.2313916541081145e6 1.4084566091171913e7 0.0
1.4084566091171913e7 -1.6566433837893978e6 0.0
0.0 0.0 0.0

1.6083311746216612e6 1.0323020277100477e7 0.0
1.0323020277100477e7 -5.135974739674172e6 0.0
0.0 0.0 0.0

-4.544257063887441e6 1.2164390456536097e7 0.0
1.2164390456536097e7 1.3308870852810766e6 0.0
0.0 0.0 0.0

4.488354537621954e6 5.806321940095986e6 0.0
5.806321940095986e6 -1.271084846233026e7 0.0
0.0 0.0 0.0

-4.622079549406849e6 1.0377876936525248e7 0.0
1.0377876936525248e7 1.632703578056945e6 0.0
0.0 0.0 0.0

-402890.93070752674 8.249730690935612e6 0.0
8.249730690935612e6 -4.3697703766073575e6 0.0
0.0 0.0 0.0

-1.1278606364468122e6 7.298414171067768e6 0.0
7.298414171067768e6 -2.40130650989133e6 0.0
0.0 0.0 0.0

-1.1093067012237853e6 8.3561228568554595e6 0.0
8.3561228568554595e6 -2.70643522478025e6 0.0
0.0 0.0 0.0

-420311.42382132437 5.100387687799601e6 0.0
5.100387687799601e6 -2.221167544007705e6 0.0
0.0 0.0 0.0

1.6588374761106123e6 1.0313716308835823e7 0.0
1.0313716308835823e7 -5.14374205865201e6 0.0
0.0 0.0 0.0

-9.76055893393825e6 2.129847416427514e6 0.0
2.129847416427514e6 1.2546367157315861e7 0.0
0.0 0.0 0.0

-1.0243739206642843e6 8.816682866644071e6 0.0
8.816682866644071e6 -3.5847850939973174e6 0.0
0.0 0.0 0.0

174045.26943795406 6.256190405996014e6 0.0
6.256190405996014e6 -3.2876635037317844e6 0.0
0.0 0.0 0.0

-7.364566342594095e6 1.3610876772214163e7 0.0
1.3610876772214163e7 5.858038452181251e6 0.0
0.0 0.0 0.0

-3.7002088069364913e6 1.190264966170751e7 0.0
1.190264966170751e7 -539502.4091883206 0.0
0.0 0.0 0.0

588441.153016197 1.0521575955392167e7 0.0
1.0521575955392167e7 -7.586194638211258e6 0.0
0.0 0.0 0.0

500918.71568592987 7.114773786882631e6 0.0
7.114773786882631e6 -5.143564493421175e6 0.0
0.0 0.0 0.0

-4.770708122349961e6 1.1364125798613798e7 0.0
1.1364125798613798e7 2.436381435950229e6 0.0
0.0 0.0 0.0

-6.294312606351347e6 1.0529218256968027e7 0.0
1.0529218256968027e7 7.327111560738806e6 0.0
0.0 0.0 0.0

-6.530895971660811e6 1.0425676502934104e7 0.0
1.0425676502934104e7 9.277481573534999e6 0.0
0.0 0.0 0.0

3.187192710938976e6 7.580730917120017e6 0.0
7.580730917120017e6 -1.2143757637547651e7 0.0
0.0 0.0 0.0

-4.438857656964719e6 9.952350230656747e6 0.0
9.952350230656747e6 2.55195378502721e6 0.0
0.0 0.0 0.0

-4.423633455102783e6 1.0684960063011482e7 0.0
1.0684960063011482e7 2.0874670888009921e6 0.0
0.0 0.0 0.0

-3.5558035195905976e6 5.365851057690897e6 0.0
5.365851057690897e6 1.665234900454891e6 0.0
0.0 0.0 0.0

-7.545634327764391e6 1.5970149964682665e7 0.0
1.5970149964682665e7 3.121526808237699e6 0.0
0.0 0.0 0.0

-808757.6464878977 8.249290342661475e6 0.0
8.249290342661475e6 -3.633865596298554e6 0.0
0.0 0.0 0.0

-7.0046928973744195e6 7.92139679332497e6 0.0
7.92139679332497e6 5.987386147901363e6 0.0
0.0 0.0 0.0

443864.03500156547 6.961395247774987e6 0.0
6.961395247774987e6 -5.062954163533149e6 0.0
0.0 0.0 0.0

-628543.9044698443 6.439416659982468e6 0.0
6.439416659982468e6 -2.34670202915858e6 0.0
0.0 0.0 0.0

-4.793802068707794e6 1.1627196482949333e7 0.0
1.1627196482949333e7 2.318620541049082e6 0.0
0.0 0.0 0.0

-5.121700369780509e6 1.1927254631670034e7 0.0
1.1927254631670034e7 2.680334594107359e6 0.0
0.0 0.0 0.0

-1.0613507044204506e6 8.681100963093353e6 0.0
8.681100963093353e6 -3.4103638226918876e6 0.0
0.0 0.0 0.0

1.7083984370944037e6 1.1197950386579696e7 0.0
1.1197950386579696e7 -5.502287013805457e6 0.0
0.0 0.0 0.0

177016.64501947723 1.5491918533699777e7 0.0
1.5491918533699777e7 -5.050247971578789e6 0.0
0.0 0.0 0.0

-3.5166015620640917e6 1.2605951688365292e7 0.0
1.2605951688365292e7 2.811714233471918e6 0.0
0.0 0.0 0.0

-1.3860127524357755e6 1.0979293400056837e7 0.0
1.0979293400056837e7 -9.821118637787266e6 0.0
0.0 0.0 0.0

-192166.2420544168 7.62113641255165e6 0.0
7.62113641255165e6 -4.324045752407853e6 0.0
0.0 0.0 0.0

-5.1395284277409315e6 2.8105764937194404e6 0.0
2.8105764937194404e6 6.713415147996809e6 0.0
0.0 0.0 0.0

-1.0240411714250608e6 1.2424291504856506e7 0.0
1.2424291504856506e7 -616645.3414397018 0.0
0.0 0.0 0.0

-2.3824337539218497e6 1.2295656088484997e7 0.0
1.2295656088484997e7 66557.19984432787 0.0
0.0 0.0 0.0

-4.428306316002935e6 1.027232011536531e7 0.0
1.027232011536531e7 2.297127859894301e6 0.0
0.0 0.0 0.0

-7.236868014868144e6 1.0357625393172712e6 0.0
1.0357625393172712e6 8.774339909796093e6 0.0
0.0 0.0 0.0

-7.685375028045045e6 1.3775492770248875e7 0.0
1.3775492770248875e7 6.155130994642435e6 0.0
0.0 0.0 0.0

-4.9443002356349025e6 1.138441588761064e7 0.0
1.138441588761064e7 1.8530457670232519e6 0.0
0.0 0.0 0.0

1.9481884448484974e6 9.434491895220982e6 0.0
9.434491895220982e6 -2.8365615700832363e6 0.0
0.0 0.0 0.0

92413.01156269062 1.0525484155812474e7 0.0
1.0525484155812474e7 308043.4529722232 0.0
0.0 0.0 0.0

-4.515757054350769e6 9.613254061310047e6 0.0
9.613254061310047e6 2.8747720955319107e6 0.0
0.0 0.0 0.0

-5.93559813114462e6 8.532622425070282e6 0.0
8.532622425070282e6 4.0423097347774496e6 0.0
0.0 0.0 0.0

1.0304548789168827e6 6.132500627318352e6 0.0
6.132500627318352e6 -5.753083642495199e6 0.0
0.0 0.0 0.0

-4.602976063632941e6 1.2294225966916885e7 0.0
1.2294225966916885e7 1.181587440229569e6 0.0
0.0 0.0 0.0

-5.382374336044867e6 7.086164891104474e6 0.0
7.086164891104474e6 5.230333526722822e6 0.0
0.0 0.0 0.0

1.6339616484829113e6 5.736935630568723e6 0.0
5.736935630568723e6 -7.251427219558265e6 0.0
0.0 0.0 0.0

-4.1818813392290073e6 1.1514299182095792e7 0.0
1.1514299182095792e7 -78623.9207680684 0.0
0.0 0.0 0.0

-4.062667959450146e6 1.0289697342504652e7 0.0
1.0289697342504652e7 1.736989366847889e6 0.0
0.0 0.0 0.0

751878.105685794 6.506455578796382e6 0.0
6.506455578796382e6 -4.038443067823219e6 0.0
0.0 0.0 0.0

472314.5588434322 7.646901886583819e6 0.0
7.646901886583819e6 -6.041023374153082e6 0.0
0.0 0.0 0.0

-1.3218374871111238e7 2.352030059131656e7 0.0
2.352030059131656e7 9.383138911064597e6 0.0
0.0 0.0 0.0

5.08247306465701e6 8.3009640861410955e6 0.0
8.3009640861410955e6 -1.7117271743652243e7 0.0
0.0 0.0 0.0

2.127994167102702e6 6.135108410212826e6 0.0
6.135108410212826e6 -8.370752532843938e6 0.0
0.0 0.0 0.0

875681.8165933406 8.65560022389967e6 0.0
8.65560022389967e6 -6.422176597147199e6 0.0
0.0 0.0 0.0

-2.6689999230017886e6 1.2499053656143313e7 0.0
1.2499053656143313e7 1.6780012863082502e6 0.0
0.0 0.0 0.0

941504.3650925984 1.0134876669148184e7 0.0
1.0134876669148184e7 -9.161680310130656e6 0.0
0.0 0.0 0.0

-41730.11601464893 7.595220641915592e6 0.0
7.595220641915592e6 -4.4042449965958875e6 0.0
0.0 0.0 0.0

-824169.5225469077 7.383273691202142e6 0.0
7.383273691202142e6 -2.8657905190669163e6 0.0
0.0 0.0 0.0

-738940.2933223209 1.1713616277339056e7 0.0
1.1713616277339056e7 2.738795904412228e6 0.0
0.0 0.0 0.0

-8.447472064400185e6 9.665278147404995e6 0.0
9.665278147404995e6 1.2129963064807879e7 0.0
0.0 0.0 0.0

180393.33260104898 9.249185316987036e6 0.0
9.249185316987036e6 6.678203235457509e6 0.0
0.0 0.0 0.0

-9.483405979716495e6 1.4957667736367138e7 0.0
1.4957667736367138e7 7.222517283363699e6 0.0
0.0 0.0 0.0

-1.798432898445555e6 8.872748932761174e6 0.0
8.872748932761174e6 -2.9273477591375457e6 0.0
0.0 0.0 0.0

-1.2535373724565018e7 9.73649764810619e6 0.0
9.73649764810619e6 3.888313037050385e6 0.0
0.0 0.0 0.0

-1.6127152747315015e6 9.404797152592782e6 0.0
9.404797152592782e6 -2.7922208614766547e6 0.0
0.0 0.0 0.0

-4.190631734106739e6 1.0657886734250251e7 0.0
1.0657886734250251e7 1.5507255706072852e6 0.0
0.0 0.0 0.0

-1.0010108780827771e6 8.378013609740062e6 0.0
8.378013609740062e6 -3.1574259972203453e6 0.0
0.0 0.0 0.0

902614.6540387752 1.0592521687969321e7 0.0
1.0592521687969321e7 -9.765279591900468e6 0.0
0.0 0.0 0.0

1.3803495641088784e6 5.911591538844153e6 0.0
5.911591538844153e6 -6.877162654516739e6 0.0
0.0 0.0 0.0

2.92517986441478e6 8.556332900009066e6 0.0
8.556332900009066e6 -1.1305857497224668e7 0.0
0.0 0.0 0.0

-2.5589448880841825e6 1.1617515775852673e7 0.0
1.1617515775852673e7 3.5957492151332214e6 0.0
0.0 0.0 0.0

2.1174957571842815e6 6.769221902900921e6 0.0
6.769221902900921e6 -7.778879362751791e6 0.0
0.0 0.0 0.0

-4.1933242597640473e6 1.1642849860899279e7 0.0
1.1642849860899279e7 -205860.7712188759 0.0
0.0 0.0 0.0

-2.4703385937815704e6 1.0957695075569024e7 0.0
1.0957695075569024e7 -3.305369723306722e6 0.0
0.0 0.0 0.0

-1.4570647113405433e6 8.204277226704453e6 0.0
8.204277226704453e6 -2.7368163296641097e6 0.0
0.0 0.0 0.0

-2.4727642090295847e6 8.38428922207054e6 0.0
8.38428922207054e6 -909012.9707583266 0.0
0.0 0.0 0.0

-7.252021056311286e6 8.375948857808599e6 0.0
8.375948857808599e6 6.86072969778763e6 0.0
0.0 0.0 0.0

1.2498991863418273e6 7.372687561840009e6 0.0
7.372687561840009e6 -6.040931602881354e6 0.0
0.0 0.0 0.0

-1.1533507586369628e7 1.5794138299052896e7 0.0
1.5794138299052896e7 8.47234126942673e6 0.0
0.0 0.0 0.0

-8.116024264344027e6 1.3852629722063117e7 0.0
1.3852629722063117e7 6.566803936459763e6 0.0
0.0 0.0 0.0

-7.572701996635627e6 9.426992718295533e6 0.0
9.426992718295533e6 8.234194655387139e6 0.0
0.0 0.0 0.0

-1.4461899295713531e6 7.496529676142278e6 0.0
7.496529676142278e6 -4.820633079878231e6 0.0
0.0 0.0 0.0

-183301.6119014928 9.925103905438244e6 0.0
9.925103905438244e6 -5.596527117532074e6 0.0
0.0 0.0 0.0

1.891241567876019e6 6.684284882425332e6 0.0
6.684284882425332e6 -7.101553803034108e6 0.0
0.0 0.0 0.0

-5.582918851267089e6 1.2721199773950612e7 0.0
1.2721199773950612e7 5.088229756838923e6 0.0
0.0 0.0 0.0

-4.982760089133494e6 4.881436184815345e6 0.0
4.881436184815345e6 3.533636174534549e6 0.0
0.0 0.0 0.0

-4.0464526057320717e6 1.5005548915750787e7 0.0
1.5005548915750787e7 -371714.2078259073 0.0
0.0 0.0 0.0

-1.185672296490496e7 -4.559634057201107e6 0.0
-4.559634057201107e6 2.26505513618199e7 0.0
0.0 0.0 0.0

-3.00136759889344e6 1.0428041797600262e7 0.0
1.0428041797600262e7 -1.7860649326862986e6 0.0
0.0 0.0 0.0

-4.447770772692509e6 -94426.36197356679 0.0
-94426.36197356679 5.054757384035387e6 0.0
0.0 0.0 0.0

-578176.30979223 4.061885240967651e6 0.0
4.061885240967651e6 -941574.5649041308 0.0
0.0 0.0 0.0

1.5027047998311864e6 5.952436222370699e6 0.0
5.952436222370699e6 -5.912491182935236e6 0.0
0.0 0.0 0.0

-1.0970244403026918e7 5.345349817209537e6 0.0
5.345349817209537e6 1.3320619474282065e7 0.0
0.0 0.0 0.0

2.2863239109957037e6 8.486574274677915e6 0.0
8.486574274677915e6 -9.561335900580509e6 0.0
0.0 0.0 0.0

-3.999781921519144e6 1.1645231748357914e7 0.0
1.1645231748357914e7 497165.80197250936 0.0
0.0 0.0 0.0

-4.811560325720897e6 1.1054590754560545e7 0.0
1.1054590754560545e7 2.598199989649483e6 0.0
0.0 0.0 0.0

-2.1031034417393203e6 9.283741827312205e6 0.0
9.283741827312205e6 -1.4862649361842377e6 0.0
0.0 0.0 0.0

-5.456619093990627e6 1.1062642228219373e7 0.0
1.1062642228219373e7 3.8390994532233495e6 0.0
0.0 0.0 0.0

664581.48846902 6.555976300157674e6 0.0
6.555976300157674e6 -4.547383545835542e6 0.0
0.0 0.0 0.0

-3.2071305744902906e6 1.0211935926831448e7 0.0
1.0211935926831448e7 -921147.6407980109 0.0
0.0 0.0 0.0

-1.2784571789302183e6 1.5814798081174843e7 0.0
1.5814798081174843e7 -3.5893164715950536e6 0.0
0.0 0.0 0.0

183006.5923367925 7.457908845846981e6 0.0
7.457908845846981e6 -4.47426242537934e6 0.0
0.0 0.0 0.0

-1.3745813701545845e6 8.914448819361307e6 0.0
8.914448819361307e6 -2.952656483976891e6 0.0
0.0 0.0 0.0

-2.0750306802360518e6 1.2864193845869629e7 0.0
1.2864193845869629e7 -421153.48598888674 0.0
0.0 0.0 0.0

-2.038474318410254e6 9.154607307054939e6 0.0
9.154607307054939e6 -1.4396174091404255e6 0.0
0.0 0.0 0.0

3.1452240705551836e6 1.257144377942725e7 0.0
1.257144377942725e7 -6.2751787494218955e6 0.0
0.0 0.0 0.0

1.6576702274287269e6 6.812667594967425e6 0.0
6.812667594967425e6 -4.451996594544991e6 0.0
0.0 0.0 0.0

3.0336665164718865e6 6.151345982976356e6 0.0
6.151345982976356e6 -1.0049028482650952e7 0.0
0.0 0.0 0.0

1.7659229915183873e6 5.249047515108206e6 0.0
5.249047515108206e6 -3.215457601627577e6 0.0
0.0 0.0 0.0

-473372.8110239819 7.379334481487579e6 0.0
7.379334481487579e6 -3.288064866110668e6 0.0
0.0 0.0 0.0

-2.314458048643789e6 9.30949213610495e6 0.0
9.30949213610495e6 -2.0621229032391733e6 0.0
0.0 0.0 0.0

-728692.4196609245 4.5214492807226535e6 0.0
4.5214492807226535e6 -979002.3828914709 0.0
0.0 0.0 0.0

1.6491659982475701e6 6.7001083919827305e6 0.0
6.7001083919827305e6 -5.677268458710051e6 0.0
0.0 0.0 0.0

183226.38635771815 1.2007831631116027e7 0.0
1.2007831631116027e7 -6.493177684254628e6 0.0
0.0 0.0 0.0

-137885.69087876286 7.24828744386815e6 0.0
7.24828744386815e6 -3.712935815410661e6 0.0
0.0 0.0 0.0

-1.2881002430347215e7 2.193607915361533e7 0.0
2.193607915361533e7 9.112401559056722e6 0.0
0.0 0.0 0.0

1.2416244052783863e6 1.0267538122055665e7 0.0
1.0267538122055665e7 3.1899253352647005e6 0.0
0.0 0.0 0.0

118714.04248701641 7.043925683075578e6 0.0
7.043925683075578e6 -3.950734393574709e6 0.0
0.0 0.0 0.0

-3.0824416947217155e6 6.8208576994912205e6 0.0
6.8208576994912205e6 1.635959241888762e6 0.0
0.0 0.0 0.0

1.4576732919232636e6 6.1164149450199045e6 0.0
6.1164149450199045e6 -4.98612996189337e6 0.0
0.0 0.0 0.0

-9.14041502212762e6 2.7024843520226916e6 0.0
2.7024843520226916e6 1.1941617815803265e7 0.0
0.0 0.0 0.0

397563.91794944066 6.971257732906311e6 0.0
6.971257732906311e6 -4.146138317110381e6 0.0
0.0 0.0 0.0

-1.2639504431990515e7 1.4659570573247636e7 0.0
1.4659570573247636e7 9.005115496567719e6 0.0
0.0 0.0 0.0

-3.694873238906484e6 1.5361199959103089e7 0.0
1.5361199959103089e7 -814599.128294561 0.0
0.0 0.0 0.0

2.0565130373764192e6 6.405131224845685e6 0.0
6.405131224845685e6 -7.321389653991441e6 0.0
0.0 0.0 0.0

-2.7510663482718198e6 1.1037629763750695e7 0.0
1.1037629763750695e7 -2.6749728583326596e6 0.0
0.0 0.0 0.0

2.7113827626529476e6 7.095038506811853e6 0.0
7.095038506811853e6 -1.0459688468968784e7 0.0
0.0 0.0 0.0

-2.595318863464475e6 9.510500466139985e6 0.0
9.510500466139985e6 -1.6434724555222732e6 0.0
0.0 0.0 0.0

-2.9757556917103315e6 9.6925167365589e6 0.0
9.6925167365589e6 3.777460537360904e6 0.0
0.0 0.0 0.0

-2.2805907727121115e6 1.5840753412497625e7 0.0
1.5840753412497625e7 -2.36118132332704e6 0.0
0.0 0.0 0.0

526253.0057434798 7.286855898095964e6 0.0
7.286855898095964e6 -4.364511661295125e6 0.0
0.0 0.0 0.0

680762.6778236956 6.647518525858518e6 0.0
6.647518525858518e6 -5.407044694003424e6 0.0
0.0 0.0 0.0

-452957.86263234774 7.772457133982217e6 0.0
7.772457133982217e6 -3.1334351090248735e6 0.0
0.0 0.0 0.0

-8.672750454582013e6 1.3806714218951562e7 0.0
1.3806714218951562e7 6.990177955296997e6 0.0
0.0 0.0 0.0

-2.15975914706436e6 8.43268764324482e6 0.0
8.43268764324482e6 -1.3882151947228478e6 0.0
0.0 0.0 0.0

-5.583612063763345e6 1.7291641768236782e7 0.0
1.7291641768236782e7 1.3140340309753881e6 0.0
0.0 0.0 0.0

-2.1528710391807915e6 9.434722500434417e6 0.0
9.434722500434417e6 -1.5510922803461489e6 0.0
0.0 0.0 0.0

-359453.9965665953 1.218094262884743e7 0.0
1.218094262884743e7 3.4154872349464917e6 0.0
0.0 0.0 0.0

-1.6800866700947974e6 1.2669930767145857e7 0.0
1.2669930767145857e7 -439997.0396345326 0.0
0.0 0.0 0.0

-4.850551239937002e6 1.2329510131403891e7 0.0
1.2329510131403891e7 1.8833482606119504e6 0.0
0.0 0.0 0.0

707910.7402196056 1.1376673646775814e7 0.0
1.1376673646775814e7 -7.264347911716435e6 0.0
0.0 0.0 0.0

1.701168950265307e6 9.884436483635377e6 0.0
9.884436483635377e6 -1.1981924757375542e7 0.0
0.0 0.0 0.0

-9.015885012230348e6 8.24406940004387e6 0.0
8.24406940004387e6 1.1926916642281437e7 0.0
0.0 0.0 0.0

-380118.18262530025 7.465289593735445e6 0.0
7.465289593735445e6 -4.926117318124405e6 0.0
0.0 0.0 0.0

-7.461648425340805e6 3.5501396806384507e6 0.0
3.5501396806384507e6 9.99303902061574e6 0.0
0.0 0.0 0.0

1.7236910561403483e6 8.943077172487922e6 0.0
8.943077172487922e6 -8.73365998999011e6 0.0
0.0 0.0 0.0

-1.032396893767282e6 7.811257443062724e6 0.0
7.811257443062724e6 -3.1622810336522376e6 0.0
0.0 0.0 0.0

2.1102998518050094e6 5.883206364513915e6 0.0
5.883206364513915e6 -6.162607514009426e6 0.0
0.0 0.0 0.0

-3.277292469714962e6 9.887910073840763e6 0.0
9.887910073840763e6 -306276.39218278974 0.0
0.0 0.0 0.0

-5.242277251104884e6 1.166751161901998e7 0.0
1.166751161901998e7 2.2695811628586687e6 0.0
0.0 0.0 0.0

-6.462196475161053e6 1.4474079548529452e7 0.0
1.4474079548529452e7 2.032395432575347e6 0.0
0.0 0.0 0.0

-2.9019954834568314e6 9.864489341132304e6 0.0
9.864489341132304e6 -1.2805702007295e6 0.0
0.0 0.0 0.0

1.5744678117211985e6 6.697355406487046e6 0.0
6.697355406487046e6 -5.412566900259936e6 0.0
0.0 0.0 0.0

-3.093802988526281e6 1.5653941856087e7 0.0
1.5653941856087e7 -1.5264256301372247e6 0.0
0.0 0.0 0.0

-4.533704990997741e6 5.430103377779938e6 0.0
5.430103377779938e6 4.31467816536185e6 0.0
0.0 0.0 0.0

3.5048978749145754e6 7.404972416502773e6 0.0
7.404972416502773e6 -1.2501991929717444e7 0.0
0.0 0.0 0.0

-2.445823269492963e6 1.0549345994930552e7 0.0
1.0549345994930552e7 4.879439629904875e6 0.0
0.0 0.0 0.0

-6.497335634146723e6 1.2597669801159658e7 0.0
1.2597669801159658e7 4.5372888906865455e6 0.0
0.0 0.0 0.0

-1.2060263030332963e6 1.0826875776229903e7 0.0
1.0826875776229903e7 -2.84204527704046e6 0.0
0.0 0.0 0.0

-8.241382992869527e6 9.800202711739602e6 0.0
9.800202711739602e6 1.1213497398514412e7 0.0
0.0 0.0 0.0

-420377.6633814233 9.482737607165944e6 0.0
9.482737607165944e6 -1.401258530651931e6 0.0
0.0 0.0 0.0

-937604.7692521787 7.973845026084574e6 0.0
7.973845026084574e6 -4.037185423981219e6 0.0
0.0 0.0 0.0

-1.0656600320565444e6 1.1627656303119387e7 0.0
1.1627656303119387e7 2.583590879869173e6 0.0
0.0 0.0 0.0

-1.2402720955067858e7 2.0559792147133533e7 0.0
2.0559792147133533e7 9.00506215897501e6 0.0
0.0 0.0 0.0

-1.896952438368409e6 1.280048912723225e7 0.0
1.280048912723225e7 -517033.5066147604 0.0
0.0 0.0 0.0

1.7356052636262305e7 1.1745393420088878e7 0.0
1.1745393420088878e7 -869990.860357956 0.0
0.0 0.0 0.0

-1.54380162588559e6 8.405402166044781e6 0.0
8.405402166044781e6 -2.755970195824798e6 0.0
0.0 0.0 0.0

-3.3991941036121873e6 1.0150047758501917e7 0.0
1.0150047758501917e7 -366830.5982255542 0.0
0.0 0.0 0.0

-80059.91530436138 9.208676618833676e6 0.0
9.208676618833676e6 -5.626597750624649e6 0.0
0.0 0.0 0.0

-6.691145406698993e6 1.4884027152168464e7 0.0
1.4884027152168464e7 2.1279403761836784e6 0.0
0.0 0.0 0.0

3.2652078298413986e6 6.693906521216389e6 0.0
6.693906521216389e6 -1.1069207719533129e7 0.0
0.0 0.0 0.0

372031.5129407472 7.005956232390377e6 0.0
7.005956232390377e6 -4.460360034637105e6 0.0
0.0 0.0 0.0

801321.3223445276 8.157803798954569e6 0.0
8.157803798954569e6 -6.627305743801349e6 0.0
0.0 0.0 0.0

-6.114128826509826e6 1.1928196498578317e7 0.0
1.1928196498578317e7 6.341436544408813e6 0.0
0.0 0.0 0.0

-3.5246047219489734e6 1.0560118906973246e7 0.0
1.0560118906973246e7 -561004.2537642255 0.0
0.0 0.0 0.0

-957916.7669474733 8.58518582388041e6 0.0
8.58518582388041e6 30145.232756068755 0.0
0.0 0.0 0.0

-983483.5968170977 8.153525618139884e6 0.0
8.153525618139884e6 -2.687356001100178e6 0.0
0.0 0.0 0.0

-2.772052430088491e6 1.0146846576089952e7 0.0
1.0146846576089952e7 -846188.3177597059 0.0
0.0 0.0 0.0

1.7515606717743017e6 1.0587574420009483e7 0.0
1.0587574420009483e7 -4.927616335395516e6 0.0
0.0 0.0 0.0

-1.156061760908531e7 1.960899118538132e7 0.0
1.960899118538132e7 8.901984569777828e6 0.0
0.0 0.0 0.0

-3.075200955268596e6 1.0492606128284816e7 0.0
1.0492606128284816e7 -484074.8473425519 0.0
0.0 0.0 0.0

-137072.20213312237 6.413060940812443e6 0.0
6.413060940812443e6 -3.0585933588353647e6 0.0
0.0 0.0 0.0

8.198584126002568e6 9.642561184903178e6 0.0
9.642561184903178e6 801293.4181941561 0.0
0.0 0.0 0.0

3.4217215362905813e6 8.669634121830568e6 0.0
8.669634121830568e6 -1.4442523704412697e7 0.0
0.0 0.0 0.0

-5.12049855531028e6 1.2178688056605656e7 0.0
1.2178688056605656e7 2.662419495688355e6 0.0
0.0 0.0 0.0

-758861.9510553351 5.882866553548791e6 0.0
5.882866553548791e6 -1.8061118795548528e6 0.0
0.0 0.0 0.0

-1.2402671682222495e6 8.293318141526439e6 0.0
8.293318141526439e6 -3.1357707826508265e6 0.0
0.0 0.0 0.0

-624598.7597835726 7.675607019989485e6 0.0
7.675607019989485e6 -4.38127678554607e6 0.0
0.0 0.0 0.0

-1.098105384171027e7 1.8796987772643268e7 0.0
1.8796987772643268e7 7.888338544256742e6 0.0
0.0 0.0 0.0

2.0710693593567018e6 8.168325719735942e6 0.0
8.168325719735942e6 -1.0096402036065353e7 0.0
0.0 0.0 0.0

-5.743509388525416e6 3.005625343919377e6 0.0
3.005625343919377e6 4.616927468816342e6 0.0
0.0 0.0 0.0

-4.1417319920366276e6 1.1954464834108463e7 0.0
1.1954464834108463e7 851763.4829099639 0.0
0.0 0.0 0.0

-880607.9817239762 5.152609846919346e6 0.0
5.152609846919346e6 -1.0636835981949978e6 0.0
0.0 0.0 0.0

-2.7002253513941024e6 1.0076079873589735e7 0.0
1.0076079873589735e7 -2.127653913619467e6 0.0
0.0 0.0 0.0

-3.7339925118483277e6 1.0606002648871649e7 0.0
1.0606002648871649e7 -25635.837484869175 0.0
0.0 0.0 0.0

183282.47457105573 1.0378687549976377e7 0.0
1.0378687549976377e7 -7.510259327871522e6 0.0
0.0 0.0 0.0

-1.0722025339612024e7 1.812250544808205e7 0.0
1.812250544808205e7 7.808939252830281e6 0.0
0.0 0.0 0.0

-6.280606901929043e6 1.2129774685660118e7 0.0
1.2129774685660118e7 6.2056482035948895e6 0.0
0.0 0.0 0.0

-3.370985849559003e6 1.0836892316915315e7 0.0
1.0836892316915315e7 -134762.11263959273 0.0
0.0 0.0 0.0

2.984141351551919e6 6.894886631954698e6 0.0
6.894886631954698e6 -1.0781631463592794e7 0.0
0.0 0.0 0.0

-962468.0606654407 6.661374159460579e6 0.0
6.661374159460579e6 -1.8330977338402742e6 0.0
0.0 0.0 0.0

-1.0146857949168183e7 1.752882129300432e7 0.0
1.752882129300432e7 7.522797648907747e6 0.0
0.0 0.0 0.0

4.13329347666636e6 8.268413075044532e6 0.0
8.268413075044532e6 -1.4528344210288547e7 0.0
0.0 0.0 0.0

-9.341430880295893e6 1.718099380508375e7 0.0
1.718099380508375e7 6.933095134705137e6 0.0
0.0 0.0 0.0

-8.906077347996553e6 1.6728167387710104e7 0.0
1.6728167387710104e7 6.451789221323787e6 0.0
0.0 0.0 0.0

-6.179793735353475e6 1.3242921480856143e7 0.0
1.3242921480856143e7 3.0971470798150045e6 0.0
0.0 0.0 0.0

-6.436501418884646e6 1.3511651106794452e7 0.0
1.3511651106794452e7 3.4714839417740954e6 0.0
0.0 0.0 0.0

-6.72085030462174e6 1.383591965754413e7 0.0
1.383591965754413e7 3.786485316514006e6 0.0
0.0 0.0 0.0

-6.962422194419973e6 1.4133319389686214e7 0.0
1.4133319389686214e7 4.131818526809857e6 0.0
0.0 0.0 0.0

-7.236645520931138e6 1.4370402747585408e7 0.0
1.4370402747585408e7 4.466538209434831e6 0.0
0.0 0.0 0.0

-7.524217909711204e6 1.4700461982462503e7 0.0
1.4700461982462503e7 4.658747234161027e6 0.0
0.0 0.0 0.0

-2.75315277408226e6 6.9254863655517725e6 0.0
6.9254863655517725e6 125676.9131187558 0.0
0.0 0.0 0.0

-7.935313386814304e6 1.4937525337055396e7 0.0
1.4937525337055396e7 5.211767076115923e6 0.0
0.0 0.0 0.0

-8.393594792009488e6 1.5280800080149995e7 0.0
1.5280800080149995e7 5.478847466959271e6 0.0
0.0 0.0 0.0

-6.586928565235562e6 8.149389312243997e6 0.0
8.149389312243997e6 7.214372125738379e6 0.0
0.0 0.0 0.0

-8.663596502483226e6 1.6300532755289344e7 0.0
1.6300532755289344e7 6.340461566258016e6 0.0
0.0 0.0 0.0

-8.809759223847713e6 1.5629809216270758e7 0.0
1.5629809216270758e7 5.625453288763561e6 0.0
0.0 0.0 0.0

-9.096977523979401e6 1.6007598616545996e7 0.0
1.6007598616545996e7 5.874767260779254e6 0.0
0.0 0.0 0.0

-8.255908304423153e6 1.5880716331469469e7 0.0
1.5880716331469469e7 6.018022097841771e6 0.0
0.0 0.0 0.0

-1.8316421096346849e6 9.069250704700092e6 0.0
9.069250704700092e6 -1.91002519854625e6 0.0
0.0 0.0 0.0

-9.55233931408134e6 1.6491939309541227e7 0.0
1.6491939309541227e7 6.08215428959775e6 0.0
0.0 0.0 0.0

-8.191621453785249e6 1.5502911359927932e7 0.0
1.5502911359927932e7 5.777951297769887e6 0.0
0.0 0.0 0.0

-7.815556423038499e6 1.5205370728752557e7 0.0
1.5205370728752557e7 5.506915189047104e6 0.0
0.0 0.0 0.0

-7.345562459388319e6 1.5006141776728345e7 0.0
1.5006141776728345e7 5.103260536086418e6 0.0
0.0 0.0 0.0

-7.124733187121142e6 1.4594928734580478e7 0.0
1.4594928734580478e7 4.816641501091788e6 0.0
0.0 0.0 0.0

-6.811745472024033e6 1.4344408557252534e7 0.0
1.4344408557252534e7 4.479958747521639e6 0.0
0.0 0.0 0.0

-6.566527117957148e6 1.4072626474269886e7 0.0
1.4072626474269886e7 4.196190465049071e6 0.0
0.0 0.0 0.0

-6.293903949244014e6 1.3760079327303821e7 0.0
1.3760079327303821e7 3.8769386563169495e6 0.0
0.0 0.0 0.0

-5.995998738322616e6 1.3481681293378232e7 0.0
1.3481681293378232e7 3.49208561273161e6 0.0
0.0 0.0 0.0

-4.451420811385048e6 1.1691962676501988e7 0.0
1.1691962676501988e7 460767.39305180917 0.0
0.0 0.0 0.0

-8.258683975681263e6 8.560005236552516e6 0.0
8.560005236552516e6 1.1222406928046647e7 0.0
0.0 0.0 0.0

-1.0156410561906394e7 1.6826419518461403e7 0.0
1.6826419518461403e7 6.3784512344631795e6 0.0
0.0 0.0 0.0

1.5557763017420433e6 7.0620106886849e6 0.0
7.0620106886849e6 -7.57943202919807e6 0.0
0.0 0.0 0.0

-4.470738969635518e6 1.135340559271947e7 0.0
1.135340559271947e7 1.9226414460671141e6 0.0
0.0 0.0 0.0

-1.0979897949469175e7 1.720839528807957e7 0.0
1.720839528807957e7 7.021390596400601e6 0.0
0.0 0.0 0.0

-4.417586505035222e6 5.884842820243021e6 0.0
5.884842820243021e6 4.012760212371176e6 0.0
0.0 0.0 0.0

-1.1975644948366266e7 1.7771800630730942e7 0.0
1.7771800630730942e7 7.26575498882712e6 0.0
0.0 0.0 0.0

-5.274101690739978e6 5.119532542379863e6 0.0
5.119532542379863e6 5.725561629262164e6 0.0
0.0 0.0 0.0

-1.2882244904870354e7 1.8467602535582833e7 0.0
1.8467602535582833e7 7.39294256167235e6 0.0
0.0 0.0 0.0

-1.155159303975225e6 1.1465256083120354e7 0.0
1.1465256083120354e7 -5.84512464889424e6 0.0
0.0 0.0 0.0

1.172148292619635e6 7.982470158847695e6 0.0
7.982470158847695e6 -6.349495880325119e6 0.0
0.0 0.0 0.0

1.6632132843383364e6 9.908339986153342e6 0.0
9.908339986153342e6 -1.1501599984270127e7 0.0
0.0 0.0 0.0

-3.3540220426080762e6 1.070731377814772e7 0.0
1.070731377814772e7 -44528.42161234259 0.0
0.0 0.0 0.0

-1.8384488814575498e6 8.993450279554969e6 0.0
8.993450279554969e6 -3.0566978308950826e6 0.0
0.0 0.0 0.0

-3.865873394555123e6 1.1317638642005935e7 0.0
1.1317638642005935e7 -641214.0359006198 0.0
0.0 0.0 0.0

-1.0318790904218929e6 1.1664642933612503e7 0.0
1.1664642933612503e7 -6.099706843432761e6 0.0
0.0 0.0 0.0

3.254926122250786e6 5.587864601048548e6 0.0
5.587864601048548e6 -9.106662753711894e6 0.0
0.0 0.0 0.0

-1.6419668719026695e6 7.378824975129668e6 0.0
7.378824975129668e6 -985100.5800170085 0.0
0.0 0.0 0.0

-1.3753077988743324e7 1.893928399610995e7 0.0
1.893928399610995e7 7.85397395622547e6 0.0
0.0 0.0 0.0

721180.1929556425 7.920333278806331e6 0.0
7.920333278806331e6 -5.607156374316609e6 0.0
0.0 0.0 0.0

-6.897915692853179e6 4.694819712236989e6 0.0
4.694819712236989e6 9.129451643889133e6 0.0
0.0 0.0 0.0

-2.460254967227705e6 9.796161326027207e6 0.0
9.796161326027207e6 -1.2054661142196953e6 0.0
0.0 0.0 0.0

-7.190148018247682e6 1.4683698414644737e7 0.0
1.4683698414644737e7 3.958908958823646e6 0.0
0.0 0.0 0.0

1.7261211172994724e6 6.793996541520108e6 0.0
6.793996541520108e6 -7.902386967113239e6 0.0
0.0 0.0 0.0

-1.290514731197866e7 1.4279412955280202e7 0.0
1.4279412955280202e7 9.882832007852692e6 0.0
0.0 0.0 0.0

-3.7887022225532806e6 7.331666286946133e6 0.0
7.331666286946133e6 1.2183122276292373e6 0.0
0.0 0.0 0.0

-9.324943705554325e6 1.1583026645401102e7 0.0
1.1583026645401102e7 4.668706882433763e6 0.0
0.0 0.0 0.0

-596185.3438773216 1.139573075193317e7 0.0
1.139573075193317e7 1.6833435418472008e6 0.0
0.0 0.0 0.0

-1.524368349652395e7 2.0109190686946925e7 0.0
2.0109190686946925e7 8.299949167749544e6 0.0
0.0 0.0 0.0

1.7666017179005942e6 8.698643666334601e6 0.0
8.698643666334601e6 -9.893388921912268e6 0.0
0.0 0.0 0.0

-2.8113907921576453e6 7.867878256882994e6 0.0
7.867878256882994e6 -227175.76880605437 0.0
0.0 0.0 0.0

-232272.96121153818 7.429306315896391e6 0.0
7.429306315896391e6 -774243.0862250727 0.0
0.0 0.0 0.0

1.2674758279135032e6 7.30477550193695e6 0.0
7.30477550193695e6 -6.845247656417752e6 0.0
0.0 0.0 0.0

415092.18985926145 9.447760348668834e6 0.0
9.447760348668834e6 -1.0927210222998217e6 0.0
0.0 0.0 0.0

1.4080686924955943e6 7.333950513671903e6 0.0
7.333950513671903e6 -7.3010017033122005e6 0.0
0.0 0.0 0.0

-444794.42726774677 1.0533900086284654e7 0.0
1.0533900086284654e7 -2.1171768670339324e6 0.0
0.0 0.0 0.0

-3.6410472376364362e6 1.0894177984148594e7 0.0
1.0894177984148594e7 410490.1239412993 0.0
0.0 0.0 0.0

-3.8330863336350266e6 1.089749647024969e7 0.0
1.089749647024969e7 -201574.30032385897 0.0
0.0 0.0 0.0

677318.1651601312 6.932852332194632e6 0.0
6.932852332194632e6 -6.001180198271167e6 0.0
0.0 0.0 0.0

3.934080526626374e6 1.2432092680335665e7 0.0
1.2432092680335665e7 5.195779531376675e6 0.0
0.0 0.0 0.0

401433.908458567 8.315913164530028e6 0.0
8.315913164530028e6 -5.356171189676758e6 0.0
0.0 0.0 0.0

-1.6566897149496316e6 9.153728033013208e6 0.0
9.153728033013208e6 -2.4970501377025214e6 0.0
0.0 0.0 0.0

-3.9370470317625217e6 1.2367716552589271e7 0.0
1.2367716552589271e7 2.4286056370963342e6 0.0
0.0 0.0 0.0

-445429.32602277084 7.922377837098114e6 0.0
7.922377837098114e6 -3.9960632571538514e6 0.0
0.0 0.0 0.0

-6.350232418971196e6 1.2192750172166651e7 0.0
1.2192750172166651e7 6.00971764179376e6 0.0
0.0 0.0 0.0

-1.4526067207981856e6 1.211148645977225e7 0.0
1.211148645977225e7 3.478710234396045e6 0.0
0.0 0.0 0.0

-3.758922553549615e6 6.375389780053022e6 0.0
6.375389780053022e6 2.791177855331964e6 0.0
0.0 0.0 0.0

-1.6980981691859625e7 2.1276794030719206e7 0.0
2.1276794030719206e7 8.086836432828654e6 0.0
0.0 0.0 0.0

-7.458124915842574e6 1.1972828569608541e7 0.0
1.1972828569608541e7 1.2957591500532845e7 0.0
0.0 0.0 0.0

-2.3481542054840713e6 9.07036189674909e6 0.0
9.07036189674909e6 -1.4901023931157745e6 0.0
0.0 0.0 0.0

4.170648609779497e6 1.014624987991054e7 0.0
1.014624987991054e7 -2.822949744932578e6 0.0
0.0 0.0 0.0

2.2810366596697117e6 6.632370798179058e6 0.0
6.632370798179058e6 -8.918678412921505e6 0.0
0.0 0.0 0.0

2.143359367113183e6 8.963955535524156e6 0.0
8.963955535524156e6 -1.1171380532851385e7 0.0
0.0 0.0 0.0

-5.709452544157523e6 8.779464709136715e6 0.0
8.779464709136715e6 3.6812921701387144e6 0.0
0.0 0.0 0.0

-9.726475241366424e6 1.294040514543741e7 0.0
1.294040514543741e7 5.975227965116417e6 0.0
0.0 0.0 0.0

-2.8959547629230474e6 9.836639163830683e6 0.0
9.836639163830683e6 -248347.62566625897 0.0
0.0 0.0 0.0

-1.483070698391437e6 9.399492622050336e6 0.0
9.399492622050336e6 -4.0874154655130575e6 0.0
0.0 0.0 0.0

-1.2714023479604498e7 1.2497012609270433e7 0.0
1.2497012609270433e7 1.0363360382611424e7 0.0
0.0 0.0 0.0

742553.1276470907 8.424876715096353e6 0.0
8.424876715096353e6 -6.799411246834071e6 0.0
0.0 0.0 0.0

-3.2441721452350933e6 1.017945822352578e7 0.0
1.017945822352578e7 144905.81761570182 0.0
0.0 0.0 0.0

-939547.5209611738 6.298706166361698e6 0.0
6.298706166361698e6 -1.797207577906906e6 0.0
0.0 0.0 0.0

-4.225756526098728e6 8.744912016559962e6 0.0
8.744912016559962e6 2.698460437619948e6 0.0
0.0 0.0 0.0

-2.106264685960188e7 2.696355025154262e7 0.0
2.696355025154262e7 2.5879167844739864e6 0.0
0.0 0.0 0.0

-3.751712502344944e6 6.676817420105626e6 0.0
6.676817420105626e6 2.644198264132317e6 0.0
0.0 0.0 0.0

-161301.3945794336 6.602485836933234e6 0.0
6.602485836933234e6 -3.1687999338036757e6 0.0
0.0 0.0 0.0

-3.962342514717231e6 1.1382728762488674e7 0.0
1.1382728762488674e7 719410.0619867856 0.0
0.0 0.0 0.0

-4.855896177267881e6 1.0687486993388934e7 0.0
1.0687486993388934e7 2.142656050764983e6 0.0
0.0 0.0 0.0

-2.497926928743337e6 1.0491372557852048e7 0.0
1.0491372557852048e7 -1.8640495896014622e6 0.0
0.0 0.0 0.0

-4.1161494098613556e6 1.1101954705388935e7 0.0
1.1101954705388935e7 288675.23944777297 0.0
0.0 0.0 0.0

-749380.4127686213 3.6183805992785594e6 0.0
3.6183805992785594e6 -1.0234525528706338e6 0.0
0.0 0.0 0.0

1.4583862958286426e6 9.48919310670329e6 0.0
9.48919310670329e6 -4.753095802938376e6 0.0
0.0 0.0 0.0

-5.248774104611018e6 1.1074191500469467e7 0.0
1.1074191500469467e7 2.6203836709550405e6 0.0
0.0 0.0 0.0

-35224.670503192814 7.247129901807215e6 0.0
7.247129901807215e6 -5.339728605191797e6 0.0
0.0 0.0 0.0

1.6508041787521818e6 9.683481595654445e6 0.0
9.683481595654445e6 -4.410575345117775e6 0.0
0.0 0.0 0.0

-8.907630435778288e6 1.1037827141972035e7 0.0
1.1037827141972035e7 2.9557245972363297e6 0.0
0.0 0.0 0.0

-3.5970591982936636e6 6.97097513149222e6 0.0
6.97097513149222e6 2.3986751811283613e6 0.0
0.0 0.0 0.0

-784674.409772428 1.1312739928071504e7 0.0
1.1312739928071504e7 -6.414637756804608e6 0.0
0.0 0.0 0.0

-5.91429996769464e6 1.1117517424355922e7 0.0
1.1117517424355922e7 3.7887858915649285e6 0.0
0.0 0.0 0.0

1.8660850105109052e6 4.450970916412032e6 0.0
4.450970916412032e6 -5.253377935678568e6 0.0
0.0 0.0 0.0

1.557686488414026e6 2.5385762053809976e6 0.0
2.5385762053809976e6 -3.1981096656565797e6 0.0
0.0 0.0 0.0

2.4428095991410017e6 2.8070229436114235e6 0.0
2.8070229436114235e6 -4.305610233831536e6 0.0
0.0 0.0 0.0

-2.580430598648489e6 -714864.673893133 0.0
-714864.673893133 2.1016605180307273e6 0.0
0.0 0.0 0.0

2.6967391967120883e6 3.646438615958168e6 0.0
3.646438615958168e6 -5.059731728218029e6 0.0
0.0 0.0 0.0

-1.0583386328752227e6 374898.20072243345 0.0
374898.20072243345 216080.20005094458 0.0
0.0 0.0 0.0

2.7084078473741566e6 5.955851526919585e6 0.0
5.955851526919585e6 -5.5876449900048645e6 0.0
0.0 0.0 0.0

699772.7120696112 2.268855726877494e6 0.0
2.268855726877494e6 -2.147695997362232e6 0.0
0.0 0.0 0.0

-187460.550025212 2.0558200631318563e6 0.0
2.0558200631318563e6 -1.4161326763667273e6 0.0
0.0 0.0 0.0

3.0993996493285466e6 4.714003363630401e6 0.0
4.714003363630401e6 -5.818248373143254e6 0.0
0.0 0.0 0.0

-503088.14864102873 2.0777072904422283e6 0.0
2.0777072904422283e6 -412900.3941946242 0.0
0.0 0.0 0.0

2.3861997722749943e6 6.15602181280832e6 0.0
6.15602181280832e6 -5.482072236565622e6 0.0
0.0 0.0 0.0

1.8810346341856334e6 6.066766406405437e6 0.0
6.066766406405437e6 -4.624636655238054e6 0.0
0.0 0.0 0.0

1.4158547953384724e6 2.437044444724475e6 0.0
2.437044444724475e6 -2.7469955762419007e6 0.0
0.0 0.0 0.0

2.777266077175741e6 5.2962152954785805e6 0.0
5.2962152954785805e6 -8.639388048942585e6 0.0
0.0 0.0 0.0

3.1822000039178673e6 5.434207578771153e6 0.0
5.434207578771153e6 -9.144061793911412e6 0.0
0.0 0.0 0.0

2.1875713917285767e6 4.911199420065034e6 0.0
4.911199420065034e6 -7.913707629598441e6 0.0
0.0 0.0 0.0

2.0471930261194361e6 4.334598134841204e6 0.0
4.334598134841204e6 -7.017766111008726e6 0.0
0.0 0.0 0.0

650653.4066772078 2.49033470902868e6 0.0
2.49033470902868e6 -2.070132843953693e6 0.0
0.0 0.0 0.0

-579804.6157869905 1.387171970336171e6 0.0
1.387171970336171e6 -333113.0289025218 0.0
0.0 0.0 0.0

3.0175889373120177e6 5.4208369518348975e6 0.0
5.4208369518348975e6 -8.930090075961474e6 0.0
0.0 0.0 0.0

1.846131518722759e6 4.161707984201968e6 0.0
4.161707984201968e6 -6.079069260046558e6 0.0
0.0 0.0 0.0

1.8504249662268087e6 4.231952754377268e6 0.0
4.231952754377268e6 -6.454531219444409e6 0.0
0.0 0.0 0.0

1.9178770251537974e6 4.278994612956319e6 0.0
4.278994612956319e6 -5.717837724687006e6 0.0
0.0 0.0 0.0

-530183.3521698688 1.0070293670296058e7 0.0
1.0070293670296058e7 -5.1313874506013105e6 0.0
0.0 0.0 0.0

-4.303222026362651e6 6.286517337785035e6 0.0
6.286517337785035e6 3.748005508268566e6 0.0
0.0 0.0 0.0

-8.468777838343425e6 3.077668147413832e6 0.0
3.077668147413832e6 9.305130129577152e6 0.0
0.0 0.0 0.0

-6.401257315026654e6 1.2294413404609123e7 0.0
1.2294413404609123e7 5.890644038761521e6 0.0
0.0 0.0 0.0

807775.735651195 1.0725666902695118e7 0.0
1.0725666902695118e7 -9.366583462441465e6 0.0
0.0 0.0 0.0

-3.9455605229269713e6 9.60309873394849e6 0.0
9.60309873394849e6 781576.8005949606 0.0
0.0 0.0 0.0

-1.8954301676624477e7 2.272626767387387e7 0.0
2.272626767387387e7 8.165240973303683e6 0.0
0.0 0.0 0.0

-2.702358871922623e6 9.439587605062472e6 0.0
9.439587605062472e6 -1.1170411065612622e6 0.0
0.0 0.0 0.0

-1.853577292662208e6 1.03438178829104e7 0.0
1.03438178829104e7 -439299.15660510183 0.0
0.0 0.0 0.0

1.0219068639658847e6 1.0612068654138418e7 0.0
1.0612068654138418e7 2.619079901382422e6 0.0
0.0 0.0 0.0

-2.484291079735624e6 1.1909752208042933e7 0.0
1.1909752208042933e7 1.7196485309288576e6 0.0
0.0 0.0 0.0

-4.623105849861384e6 9.249225107702347e6 0.0
9.249225107702347e6 3.184976981790133e6 0.0
0.0 0.0 0.0

-106507.96244511823 1.2259121955007682e7 0.0
1.2259121955007682e7 -6.005381313392176e6 0.0
0.0 0.0 0.0

-4.337013345902309e6 8.41117098251057e6 0.0
8.41117098251057e6 3.007088137100407e6 0.0
0.0 0.0 0.0

-4.350095127436164e6 1.1314775403249202e7 0.0
1.1314775403249202e7 719882.4873230543 0.0
0.0 0.0 0.0

-3.541962768854475e6 1.0696823352727886e7 0.0
1.0696823352727886e7 -670095.3985714451 0.0
0.0 0.0 0.0

-3.333380883472346e6 6.80954234273534e6 0.0
6.80954234273534e6 796485.5368797199 0.0
0.0 0.0 0.0

-1.5567913917648818e6 8.759581083604522e6 0.0
8.759581083604522e6 -3.515656552214895e6 0.0
0.0 0.0 0.0

-2.785638827895178e6 9.52104494364354e6 0.0
9.52104494364354e6 -171639.49234631902 0.0
0.0 0.0 0.0

335913.40397633286 7.0893910555824675e6 0.0
7.0893910555824675e6 -5.690821614647534e6 0.0
0.0 0.0 0.0

1.5666318728625714e6 2.523645524377676e6 0.0
2.523645524377676e6 -2.91804245099471e6 0.0
0.0 0.0 0.0

2.1171522854213836e6 2.864725559294261e6 0.0
2.864725559294261e6 -3.331735910725101e6 0.0
0.0 0.0 0.0

8217.97786500302 1.7480716304771912e6 0.0
1.7480716304771912e6 263590.32107750897 0.0
0.0 0.0 0.0

1.0137380534697595e6 2.6716469196103257e6 0.0
2.6716469196103257e6 -2.4547721033640793e6 0.0
0.0 0.0 0.0

887690.0880330119 2.3678167527688304e6 0.0
2.3678167527688304e6 -2.2384444374253997e6 0.0
0.0 0.0 0.0

2.9596601493323953e6 5.4145179463308165e6 0.0
5.4145179463308165e6 -8.420381164321963e6 0.0
0.0 0.0 0.0

3.08588541461771e6 5.460277808696453e6 0.0
5.460277808696453e6 -8.704945468971424e6 0.0
0.0 0.0 0.0

53977.684919336345 983703.723988077 0.0
983703.723988077 727436.6019474262 0.0
0.0 0.0 0.0

1.9646506290284265e6 4.308989924926695e6 0.0
4.308989924926695e6 -6.348902631276375e6 0.0
0.0 0.0 0.0

1.7920333524106462e6 4.377432593522288e6 0.0
4.377432593522288e6 -5.744041325313389e6 0.0
0.0 0.0 0.0

1.9241595981057156e6 4.190417688181354e6 0.0
4.190417688181354e6 -6.154251765843104e6 0.0
0.0 0.0 0.0

1.810995218970233e6 4.197418543335461e6 0.0
4.197418543335461e6 -6.018000166840591e6 0.0
0.0 0.0 0.0

-2.5129182804530356e6 8.83661971110853e6 0.0
8.83661971110853e6 -1.0151198179986344e6 0.0
0.0 0.0 0.0

-7.472976442014576e6 8.96848922537251e6 0.0
8.96848922537251e6 1.030356472066377e7 0.0
0.0 0.0 0.0

-5.040209341863368e6 8.387251140566801e6 0.0
8.387251140566801e6 4.1670768542503417e6 0.0
0.0 0.0 0.0

2.0959623683668938e6 6.211277431635047e6 0.0
6.211277431635047e6 -7.274885279517079e6 0.0
0.0 0.0 0.0

-4.823802259850416e6 1.2469068106766315e7 0.0
1.2469068106766315e7 459967.84411846614 0.0
0.0 0.0 0.0

-3.396257037677004e6 1.1584026051739004e7 0.0
1.1584026051739004e7 5.02069707505306e6 0.0
0.0 0.0 0.0

-7.339822750861424e6 6.750726690513532e6 0.0
6.750726690513532e6 7.201077007510636e6 0.0
0.0 0.0 0.0

1.086569906631053e6 7.454911038885645e6 0.0
7.454911038885645e6 -6.591860489450956e6 0.0
0.0 0.0 0.0

714053.8592706411 8.642415937784359e6 0.0
8.642415937784359e6 -6.960244424365604e6 0.0
0.0 0.0 0.0

-3.244208850699375e6 1.0355502027496649e7 0.0
1.0355502027496649e7 -1.0131820872617972e6 0.0
0.0 0.0 0.0

-4.507380776062688e6 1.135416527358556e7 0.0
1.135416527358556e7 6.219389911497321e6 0.0
0.0 0.0 0.0

-1.3099473695037516e6 6.991193055321324e6 0.0
6.991193055321324e6 -1.389630206619705e6 0.0
0.0 0.0 0.0

-2.8033858437787592e6 1.0705446750300625e7 0.0
1.0705446750300625e7 -1.3478811957729345e6 0.0
0.0 0.0 0.0

-4.828648011502769e6 1.2204714385933323e7 0.0
1.2204714385933323e7 2.0589058282096798e6 0.0
0.0 0.0 0.0

35601.07237000181 8.684897193631543e6 0.0
8.684897193631543e6 -5.162274572592374e6 0.0
0.0 0.0 0.0

-3.6587676669333717e6 1.1049866341899483e7 0.0
1.1049866341899483e7 338783.53240959113 0.0
0.0 0.0 0.0

1.0214952253627907e6 1.9996333265675628e6 0.0
1.9996333265675628e6 2.5388260052221343e6 0.0
0.0 0.0 0.0

-4.1581485909720645e6 1.1340614131149555e7 0.0
1.1340614131149555e7 5.828300522648246e6 0.0
0.0 0.0 0.0

3.0454870332945846e6 8.542236118371153e6 0.0
8.542236118371153e6 -1.2410952233916642e7 0.0
0.0 0.0 0.0

1.9968960137057072e6 8.802516926835032e6 0.0
8.802516926835032e6 -1.0575612756389547e7 0.0
0.0 0.0 0.0

-2.487059325698943e6 1.0355534730012959e7 0.0
1.0355534730012959e7 -1.6781972586908098e6 0.0
0.0 0.0 0.0

-5.960641397902899e6 1.2397920314557897e7 0.0
1.2397920314557897e7 3.2416555498380596e6 0.0
0.0 0.0 0.0

1.3709054076498542e6 6.312123534992836e6 0.0
6.312123534992836e6 -5.8731164579813555e6 0.0
0.0 0.0 0.0

-2.548824969355185e6 9.487619441637037e6 0.0
9.487619441637037e6 -616776.5175607136 0.0
0.0 0.0 0.0

-3.8116632974329963e6 1.0767815551500665e7 0.0
1.0767815551500665e7 -92376.51262662234 0.0
0.0 0.0 0.0

-3.66228940056454e6 1.1182219022991655e7 0.0
1.1182219022991655e7 235921.48685857863 0.0
0.0 0.0 0.0

1.0413208169171317e6 1.0600211724022627e7 0.0
1.0600211724022627e7 -9.78575411647757e6 0.0
0.0 0.0 0.0

1.2306451714500277e6 8.842590864031471e6 0.0
8.842590864031471e6 -8.822714060874883e6 0.0
0.0 0.0 0.0

-1.7689776498240402e6 7.057343096857465e6 0.0
7.057343096857465e6 -1.450434797748263e6 0.0
0.0 0.0 0.0

-5.15182295377061e6 8.527836492373725e6 0.0
8.527836492373725e6 2.885265604903441e6 0.0
0.0 0.0 0.0

1.195136064568737e6 1.0207170210593907e7 0.0
1.0207170210593907e7 -9.789225527036112e6 0.0
0.0 0.0 0.0

-3.6930194531344916e6 1.1613433204958344e7 0.0
1.1613433204958344e7 -183590.79303040332 0.0
0.0 0.0 0.0

2.300888860129396e6 5.640141653794195e6 0.0
5.640141653794195e6 -5.788790043477267e6 0.0
0.0 0.0 0.0

-6.39821591799095e6 1.6825372977889184e7 0.0
1.6825372977889184e7 2.0934790753637445e6 0.0
0.0 0.0 0.0

1.148273171554658e6 6.69429735823899e6 0.0
6.69429735823899e6 -5.66345373468193e6 0.0
0.0 0.0 0.0

-1.4815218525370099e6 8.704179849424653e6 0.0
8.704179849424653e6 -2.290928548186226e6 0.0
0.0 0.0 0.0

-7.0097265207466455e6 1.0658517031797579e7 0.0
1.0658517031797579e7 5.9160348666675035e6 0.0
0.0 0.0 0.0

-1.7033803342683087e6 8.333876256530401e6 0.0
8.333876256530401e6 -1.2539843695228691e6 0.0
0.0 0.0 0.0

-2.4581062992814495e6 9.226321941859055e6 0.0
9.226321941859055e6 -1.528682808818626e6 0.0
0.0 0.0 0.0

-4.0902571271567456e6 1.094759965879304e7 0.0
1.094759965879304e7 380900.4159576087 0.0
0.0 0.0 0.0

-1.4106936023544562e6 6.68982318868945e6 0.0
6.68982318868945e6 -1.826215492286405e6 0.0
0.0 0.0 0.0

-242470.41021256932 3.3780079263924765e6 0.0
3.3780079263924765e6 -988459.4579365273 0.0
0.0 0.0 0.0

-3.8222913542145677e6 8.243077314700707e6 0.0
8.243077314700707e6 2.2413524046113216e6 0.0
0.0 0.0 0.0

-3.7308128136712983e6 9.48955805830891e6 0.0
9.48955805830891e6 1.5102019247381594e6 0.0
0.0 0.0 0.0

391836.50133721787 6.756913097456476e6 0.0
6.756913097456476e6 -4.406630132925748e6 0.0
0.0 0.0 0.0

-3.524793780860033e6 7.355196845580055e6 0.0
7.355196845580055e6 2.0941078138699506e6 0.0
0.0 0.0 0.0

-4.1345228630344006e6 1.1239120020767055e7 0.0
1.1239120020767055e7 184742.75347615546 0.0
0.0 0.0 0.0

2.36470505679114e6 7.5740129046037095e6 0.0
7.5740129046037095e6 -8.875947998153819e6 0.0
0.0 0.0 0.0

-4.476753531593584e6 1.2461387694992598e7 0.0
1.2461387694992598e7 2.799252361585738e6 0.0
0.0 0.0 0.0

-2.9373585787107213e6 1.0007821777934473e7 0.0
1.0007821777934473e7 -1.360751526954675e6 0.0
0.0 0.0 0.0

1.5464068953540074e6 5.912218660545411e6 0.0
5.912218660545411e6 -3.3432854946442684e6 0.0
0.0 0.0 0.0

-6.67370295609094e6 1.2633636080284072e7 0.0
1.2633636080284072e7 5.483888967876935e6 0.0
0.0 0.0 0.0

-4.1269888887239303e6 5.325150635089005e6 0.0
5.325150635089005e6 2.6263756626104116e6 0.0
0.0 0.0 0.0

-2.870960682708522e6 9.733030192963198e6 0.0
9.733030192963198e6 -1.2194369720080146e6 0.0
0.0 0.0 0.0

-4.286673221396884e6 1.1821046779406069e7 0.0
1.1821046779406069e7 971097.9563703756 0.0
0.0 0.0 0.0

-5.01069130244141e6 1.194658698740252e7 0.0
1.194658698740252e7 1.5827380738369962e6 0.0
0.0 0.0 0.0

-3.841622793729917e6 1.1039090250247527e7 0.0
1.1039090250247527e7 -323017.51625711215 0.0
0.0 0.0 0.0

-3.9262066118074874e6 1.1042903527141295e7 0.0
1.1042903527141295e7 901237.7415971111 0.0
0.0 0.0 0.0

2.3534304857787406e6 6.273192713810036e6 0.0
6.273192713810036e6 -5.291156179954107e6 0.0
0.0 0.0 0.0

-5.736468563636823e6 1.342058078286354e7 0.0
1.342058078286354e7 1.4217911206263504e6 0.0
0.0 0.0 0.0

-1.978451076271046e6 1.2844989932947895e7 0.0
1.2844989932947895e7 -1.3188503582420181e7 0.0
0.0 0.0 0.0

1.537799775561178e6 1.3119876152350195e7 0.0
1.3119876152350195e7 1.9849476488834716e7 0.0
0.0 0.0 0.0

-66357.73387407465 9.784743378404433e6 0.0
9.784743378404433e6 -6.685091363868552e6 0.0
0.0 0.0 0.0

-3.1261858351492584e6 1.0890505414251827e7 0.0
1.0890505414251827e7 -864296.9727554172 0.0
0.0 0.0 0.0

-38094.11176410504 9.976916948869504e6 0.0
9.976916948869504e6 -8.403853970919086e6 0.0
0.0 0.0 0.0

-2.6249412259031674e6 9.661432933013707e6 0.0
9.661432933013707e6 -1.717240536455437e6 0.0
0.0 0.0 0.0

-1.3165334035578473e6 1.2237616536348496e7 0.0
1.2237616536348496e7 -4.654314730986952e6 0.0
0.0 0.0 0.0

-2.107543267481889e6 9.226882561075635e6 0.0
9.226882561075635e6 -2.590183060953346e6 0.0
0.0 0.0 0.0

-3.9828639305093894e6 1.0775560516217202e7 0.0
1.0775560516217202e7 436587.0270484963 0.0
0.0 0.0 0.0

3.8652556092265733e6 8.368926918590727e6 0.0
8.368926918590727e6 -1.3988942980301252e7 0.0
0.0 0.0 0.0

-4.744515743436237e6 1.2249112789896179e7 0.0
1.2249112789896179e7 2.0422447405896783e6 0.0
0.0 0.0 0.0

-5.029081243815344e6 9.99386893254885e6 0.0
9.99386893254885e6 2.5088287545630923e6 0.0
0.0 0.0 0.0

-1.9376391892773516e6 9.371329590064915e6 0.0
9.371329590064915e6 -2.0614698672494825e6 0.0
0.0 0.0 0.0

983456.2705496405 9.095563344502786e6 0.0
9.095563344502786e6 -8.368994774315063e6 0.0
0.0 0.0 0.0

2.8476271684748065e6 1.2671517068768566e7 0.0
1.2671517068768566e7 9.4920872383683e6 0.0
0.0 0.0 0.0

-3.0351778652606807e6 1.1348395912329197e7 0.0
1.1348395912329197e7 -1.905848634405742e6 0.0
0.0 0.0 0.0

-2.2536514491312716e7 2.4489648416618943e7 0.0
2.4489648416618943e7 8.334948612238798e6 0.0
0.0 0.0 0.0

204038.49014569633 9.624679234972298e6 0.0
9.624679234972298e6 -7.110524669449703e6 0.0
0.0 0.0 0.0

-3.3806862597473515e6 1.0972310765024876e7 0.0
1.0972310765024876e7 -244950.6989899855 0.0
0.0 0.0 0.0

2.454104860369754e6 6.2090737311584735e6 0.0
6.2090737311584735e6 -5.12182314318564e6 0.0
0.0 0.0 0.0

1.9702413034544322e6 7.117099726361311e6 0.0
7.117099726361311e6 -8.75969455997536e6 0.0
0.0 0.0 0.0

-4.504638336249919e6 1.1901721707891624e7 0.0
1.1901721707891624e7 1.6344251096742684e6 0.0
0.0 0.0 0.0

-715070.4248677301 1.0977464180223068e7 0.0
1.0977464180223068e7 -1.0984666038006866e7 0.0
0.0 0.0 0.0

-2.1982249148327764e6 9.5911249934696e6 0.0
9.5911249934696e6 -1.6301690049671982e6 0.0
0.0 0.0 0.0

-162852.18218610366 7.727701403237849e6 0.0
7.727701403237849e6 -4.506469002343256e6 0.0
0.0 0.0 0.0

-2.29909930756288e6 8.229714776627131e6 0.0
8.229714776627131e6 -265756.97038621886 0.0
0.0 0.0 0.0

513560.57821422303 9.470011893313529e6 0.0
9.470011893313529e6 -7.567636288616316e6 0.0
0.0 0.0 0.0

-2.471765328815935e6 7.903937748202116e6 0.0
7.903937748202116e6 -749931.9339638735 0.0
0.0 0.0 0.0

-419126.9405938566 1.1141883500861349e7 0.0
1.1141883500861349e7 -6.937330597613303e6 0.0
0.0 0.0 0.0

-1.4467449242518097e7 1.270023528302467e7 0.0
1.270023528302467e7 6.589009909730139e6 0.0
0.0 0.0 0.0

295750.03850508307 2.189785384599967e6 0.0
2.189785384599967e6 -1.934706547527355e6 0.0
0.0 0.0 0.0

-2.623049718646552e6 7.724255850663657e6 0.0
7.724255850663657e6 442648.4852718691 0.0
0.0 0.0 0.0

-3.9436346051203823e6 1.1228361579288825e7 0.0
1.1228361579288825e7 830211.536907098 0.0
0.0 0.0 0.0

-8.530397565895991e6 -4.1409594998406577e6 0.0
-4.1409594998406577e6 1.677650484323455e7 0.0
0.0 0.0 0.0

-1.2071800022108848e6 1.1675065617273686e7 0.0
1.1675065617273686e7 2.0838153051263962e6 0.0
0.0 0.0 0.0

-2.3669511687579127e6 9.44509846381051e6 0.0
9.44509846381051e6 -2.155105164377152e6 0.0
0.0 0.0 0.0

-2.100338033403584e6 1.1759951732724888e7 0.0
1.1759951732724888e7 -3.475103389771593e6 0.0
0.0 0.0 0.0

-2.3686051895401073e6 1.0016600022929957e7 0.0
1.0016600022929957e7 -2.7522158363654967e6 0.0
0.0 0.0 0.0

-1.3953053807434244e6 8.40449871430241e6 0.0
8.40449871430241e6 -3.1954951985638784e6 0.0
0.0 0.0 0.0

-3.2847959929573704e6 1.062411634999722e7 0.0
1.062411634999722e7 -1.281858189388598e6 0.0
0.0 0.0 0.0

-5.3940480211640755e6 8.948672538475707e6 0.0
8.948672538475707e6 4.665266313243799e6 0.0
0.0 0.0 0.0

-3.1200239246050883e6 9.880374223334983e6 0.0
9.880374223334983e6 220684.96247241995 0.0
0.0 0.0 0.0

-2.799467296209595e6 9.597224997156667e6 0.0
9.597224997156667e6 -1.1652779992225673e6 0.0
0.0 0.0 0.0

3.1801263824833203e6 7.291287690824069e6 0.0
7.291287690824069e6 -1.1023846770935832e7 0.0
0.0 0.0 0.0

-6.575084277667024e6 1.312174092077654e7 0.0
1.312174092077654e7 5.672916749087198e6 0.0
0.0 0.0 0.0

713086.1067230562 4.79173751188568e6 0.0
4.79173751188568e6 -2.8762755120733054e6 0.0
0.0 0.0 0.0

-4.857876027907206e6 8.653739959145665e6 0.0
8.653739959145665e6 3.8197627129143183e6 0.0
0.0 0.0 0.0

-523123.589040085 7.9403005290908795e6 0.0
7.9403005290908795e6 -3.9989734616001784e6 0.0
0.0 0.0 0.0

1.7796285482021454e6 5.365006984254251e6 0.0
5.365006984254251e6 -6.998309836391118e6 0.0
0.0 0.0 0.0

754322.1477592206 9.265076458648829e6 0.0
9.265076458648829e6 -7.9939669473117795e6 0.0
0.0 0.0 0.0

-570963.0026172653 6.229880144214278e6 0.0
6.229880144214278e6 -2.654334699871317e6 0.0
0.0 0.0 0.0

-9.45402649245324e6 5.252631354831858e6 0.0
5.252631354831858e6 1.1121840903495839e7 0.0
0.0 0.0 0.0

-2.971404238119165e6 1.0150219351463178e7 0.0
1.0150219351463178e7 -1.472881208302746e6 0.0
0.0 0.0 0.0

564225.5215630884 2.327570420534276e6 0.0
2.327570420534276e6 -1.8333450112325347e6 0.0
0.0 0.0 0.0

-2.1227708767396137e6 7.475214174115051e6 0.0
7.475214174115051e6 -1.1038541102160749e6 0.0
0.0 0.0 0.0

-2.434353045074207e6 1.1909981001443258e7 0.0
1.1909981001443258e7 -2.8313687518855636e6 0.0
0.0 0.0 0.0

607628.0765260472 1.0907698355026005e7 0.0
1.0907698355026005e7 -8.573351659395544e6 0.0
0.0 0.0 0.0

123656.12581406627 8.0669182491586665e6 0.0
8.0669182491586665e6 -5.804289147277162e6 0.0
0.0 0.0 0.0

92014.24863061332 7.252701877759097e6 0.0
7.252701877759097e6 -4.347542707327965e6 0.0
0.0 0.0 0.0

-2.497960741774757e6 9.94274200762004e6 0.0
9.94274200762004e6 -1.2833284084769553e6 0.0
0.0 0.0 0.0

-5.452714547046081e6 1.0865014720641231e7 0.0
1.0865014720641231e7 7.565551834425236e6 0.0
0.0 0.0 0.0

-5.029081740895056e6 1.2049047561445253e7 0.0
1.2049047561445253e7 1.466057863517101e6 0.0
0.0 0.0 0.0

-7.079458569559094e6 1.0370132540975988e7 0.0
1.0370132540975988e7 7.714075718073748e6 0.0
0.0 0.0 0.0

-5.885576437890585e6 1.0280745848531038e7 0.0
1.0280745848531038e7 5.148421263523968e6 0.0
0.0 0.0 0.0

-317109.54117861926 7.601206032818185e6 0.0
7.601206032818185e6 -4.352609400188128e6 0.0
0.0 0.0 0.0

-1.9669613731828649e6 7.802005014399815e6 0.0
7.802005014399815e6 -620713.3100635475 0.0
0.0 0.0 0.0

-1.907808081395366e6 1.1517789363263756e7 0.0
1.1517789363263756e7 2.3014843712400105e6 0.0
0.0 0.0 0.0

-1.6274970350743523e6 8.612846276413186e6 0.0
8.612846276413186e6 -2.768938607720998e6 0.0
0.0 0.0 0.0

947282.4777728156 1.032316700919445e7 0.0
1.032316700919445e7 -9.259845135150637e6 0.0
0.0 0.0 0.0

-2.7995284453707226e6 1.028680235505797e7 0.0
1.028680235505797e7 -929154.4258492854 0.0
0.0 0.0 0.0

-382237.2519946657 9.91261456740532e6 0.0
9.91261456740532e6 -6.258384937557779e6 0.0
0.0 0.0 0.0

-2.349010059369632e6 8.706869913481144e6 0.0
8.706869913481144e6 -422593.1053262903 0.0
0.0 0.0 0.0

-1.5550704841058908e6 1.0445587891174322e7 0.0
1.0445587891174322e7 -8.942685662049012e6 0.0
0.0 0.0 0.0

-3.0935251324538123e6 1.0629633479139717e7 0.0
1.0629633479139717e7 -588851.8006233713 0.0
0.0 0.0 0.0

2.7707356462556557e6 1.0768547917040257e7 0.0
1.0768547917040257e7 -4.070895483040713e6 0.0
0.0 0.0 0.0

-9.877699396978382e6 -2.0851073389392467e6 0.0
-2.0851073389392467e6 1.7204618001865193e7 0.0
0.0 0.0 0.0

-1.1770043382133098e7 1.4722667224776862e7 0.0
1.4722667224776862e7 9.22733595703717e6 0.0
0.0 0.0 0.0

-3.2171551987984898e6 1.2092504101393178e7 0.0
1.2092504101393178e7 2.59002274622529e6 0.0
0.0 0.0 0.0

-9.990558117500786e6 5.89539796584269e6 0.0
5.89539796584269e6 1.1737378006093081e7 0.0
0.0 0.0 0.0

-6.576593216326909e6 1.1937793863326896e7 0.0
1.1937793863326896e7 5.706854427587701e6 0.0
0.0 0.0 0.0

-2.1944902474311646e6 9.11917047592078e6 0.0
9.11917047592078e6 -989127.9516582056 0.0
0.0 0.0 0.0

-1.9532224999837782e6 9.500640886189463e6 0.0
9.500640886189463e6 -2.160160895235814e6 0.0
0.0 0.0 0.0

-2.5106471294595995e6 1.0079100749372097e7 0.0
1.0079100749372097e7 -1.3782271837785966e6 0.0
0.0 0.0 0.0

-459383.2351558837 7.600809079546216e6 0.0
7.600809079546216e6 -2.977614391455846e6 0.0
0.0 0.0 0.0

-2.8227134336330886e6 1.2023074104991036e7 0.0
1.2023074104991036e7 -2.2011642410134943e6 0.0
0.0 0.0 0.0

1.3637301153694475e6 6.435041599702597e6 0.0
6.435041599702597e6 -6.923408822770061e6 0.0
0.0 0.0 0.0

996384.6990712655 6.677159754011841e6 0.0
6.677159754011841e6 -5.392007175804166e6 0.0
0.0 0.0 0.0

-6.453356769847127e6 1.0427885392196009e7 0.0
1.0427885392196009e7 6.284477254296387e6 0.0
0.0 0.0 0.0

-4.713970563602238e6 1.1885014166095454e7 0.0
1.1885014166095454e7 898973.888502935 0.0
0.0 0.0 0.0

1.9008697862832318e6 1.1513639164734716e7 0.0
1.1513639164734716e7 -4.676379333401079e6 0.0
0.0 0.0 0.0

-7.795015076800036e6 1.2340964706811637e7 0.0
1.2340964706811637e7 4.488934124323571e6 0.0
0.0 0.0 0.0

1.2615395403998252e6 6.100516329279214e6 0.0
6.100516329279214e6 -6.164794598664129e6 0.0
0.0 0.0 0.0

-1.9170015529082296e6 8.769501264294714e6 0.0
8.769501264294714e6 -2.36872055067765e6 0.0
0.0 0.0 0.0

1.1553628110418115e7 1.0646820664710538e7 0.0
1.0646820664710538e7 -858736.4244740158 0.0
0.0 0.0 0.0

97812.1203039852 7.394415141033372e6 0.0
7.394415141033372e6 -4.545266756460982e6 0.0
0.0 0.0 0.0

1.8948855881895279e6 6.555911461114685e6 0.0
6.555911461114685e6 -8.194817606663801e6 0.0
0.0 0.0 0.0

-6.750203269788379e6 9.417370771945676e6 0.0
9.417370771945676e6 9.430495567049867e6 0.0
0.0 0.0 0.0

-265551.09653666243 1.063204478747001e7 0.0
1.063204478747001e7 -6.93903930889258e6 0.0
0.0 0.0 0.0

-3.1438696676189033e6 5.75336531728834e6 0.0
5.75336531728834e6 2.305283973014906e6 0.0
0.0 0.0 0.0

-1.2510005463558165e7 1.3258683176120408e7 0.0
1.3258683176120408e7 9.33639833546816e6 0.0
0.0 0.0 0.0

-6.44494337534848e6 9.854698021712124e6 0.0
9.854698021712124e6 8.805214255463231e6 0.0
0.0 0.0 0.0

-6.506613557657032e6 1.2396582182621643e7 0.0
1.2396582182621643e7 5.756771959147765e6 0.0
0.0 0.0 0.0

-1.2269589766162537e7 1.3365887431282395e7 0.0
1.3365887431282395e7 7.385068317995496e6 0.0
0.0 0.0 0.0

-2.939163557827001e6 9.550723599447718e6 0.0
9.550723599447718e6 -692464.5759924048 0.0
0.0 0.0 0.0

1.4842953606713045e7 6.336156994975695e6 0.0
6.336156994975695e6 -3.8598057064257385e6 0.0
0.0 0.0 0.0

-2.2665985749306693e6 1.0316000349361429e7 0.0
1.0316000349361429e7 -2.392922899178748e6 0.0
0.0 0.0 0.0

-1.0137646505427227e6 7.022475591561645e6 0.0
7.022475591561645e6 -2.9185507646202827e6 0.0
0.0 0.0 0.0

-3.255147718374369e6 1.20957807512875e7 0.0
1.20957807512875e7 -1.5378649303435085e6 0.0
0.0 0.0 0.0

-4.748836309671486e6 1.2130235293636825e7 0.0
1.2130235293636825e7 450030.6692145632 0.0
0.0 0.0 0.0

216841.98155599437 7.181142316530856e6 0.0
7.181142316530856e6 -3.7206357888431344e6 0.0
0.0 0.0 0.0

-4.853816082431069e6 1.2080492395637669e7 0.0
1.2080492395637669e7 5.08797319427445e6 0.0
0.0 0.0 0.0

308851.48243083246 1.0112032362626605e7 0.0
1.0112032362626605e7 -8.458985372686539e6 0.0
0.0 0.0 0.0

-8.421536740343839e6 2.0580092954668012e6 0.0
2.0580092954668012e6 9.201011382488297e6 0.0
0.0 0.0 0.0

-4.702362057276259e6 1.1745759786665577e7 0.0
1.1745759786665577e7 1.0225956343203599e6 0.0
0.0 0.0 0.0

-2.299463893555433e6 9.370237097267965e6 0.0
9.370237097267965e6 -1.0289418746470048e6 0.0
0.0 0.0 0.0

-4.532952556099954e6 1.202619299717952e7 0.0
1.202619299717952e7 1.4636951100755278e6 0.0
0.0 0.0 0.0

-1.315740200307678e6 9.698062374232257e6 0.0
9.698062374232257e6 -3.653973854228158e6 0.0
0.0 0.0 0.0

-1.0238881710976593e6 5.682848078224409e6 0.0
5.682848078224409e6 -1.1965424002119242e6 0.0
0.0 0.0 0.0

-6.16376609248908e6 1.1489354562021445e7 0.0
1.1489354562021445e7 4.1513854816359566e6 0.0
0.0 0.0 0.0

-6.54323330102056e6 1.1460217606074715e7 0.0
1.1460217606074715e7 7.357109311044311e6 0.0
0.0 0.0 0.0

-5.619003996220761e6 9.714493887515998e6 0.0
9.714493887515998e6 4.783698684208608e6 0.0
0.0 0.0 0.0

-1.2581325223066742e6 8.569185450660408e6 0.0
8.569185450660408e6 -2.721735425110419e6 0.0
0.0 0.0 0.0

1.502125229632712e6 8.918130162669325e6 0.0
8.918130162669325e6 -9.471927323907062e6 0.0
0.0 0.0 0.0

-3.569416517361015e6 9.952779574551452e6 0.0
9.952779574551452e6 135461.36288837297 0.0
0.0 0.0 0.0

-1.7194966660998208e6 1.095121746082068e7 0.0
1.095121746082068e7 -4.629746228055377e6 0.0
0.0 0.0 0.0

-1.5028556061348314e6 9.737188750488242e6 0.0
9.737188750488242e6 -4.285974242960331e6 0.0
0.0 0.0 0.0

-4.55113457455937e6 1.2286311435332958e7 0.0
1.2286311435332958e7 -147358.39791166317 0.0
0.0 0.0 0.0

-2.66988894546057e6 1.041034213194086e7 0.0
1.041034213194086e7 -2.4004344551400007e6 0.0
0.0 0.0 0.0

848261.2754403511 8.790328903978862e6 0.0
8.790328903978862e6 -7.531913409777036e6 0.0
0.0 0.0 0.0

973417.2591193833 6.694119504736265e6 0.0
6.694119504736265e6 -4.338923410303248e6 0.0
0.0 0.0 0.0

369280.5568613459 6.800456462037221e6 0.0
6.800456462037221e6 -3.593722555538672e6 0.0
0.0 0.0 0.0

-7.939980061158349e6 1.5633248794447882e7 0.0
1.5633248794447882e7 4.947574719085779e6 0.0
0.0 0.0 0.0

-3.2188616019939035e6 9.584308622190751e6 0.0
9.584308622190751e6 -243544.9731730048 0.0
0.0 0.0 0.0

-3.307494441897529e6 1.0781706599873735e7 0.0
1.0781706599873735e7 -1.4443633893359383e6 0.0
0.0 0.0 0.0

1.6270156144472193e6 5.47014068906971e6 0.0
5.47014068906971e6 -5.754689061433894e6 0.0
0.0 0.0 0.0

-1.150825133266015e7 -1.2290461332286745e6 0.0
-1.2290461332286745e6 1.7274448715132486e7 0.0
0.0 0.0 0.0

753978.62374481 7.215896955125143e6 0.0
7.215896955125143e6 -6.175617570301096e6 0.0
0.0 0.0 0.0

-2.2250817782338304e6 1.4612477429455396e7 0.0
1.4612477429455396e7 -3.690204560492523e6 0.0
0.0 0.0 0.0

-4.563502541259381e6 1.3293369596342005e7 0.0
1.3293369596342005e7 326695.9322311026 0.0
0.0 0.0 0.0

-6.138615311305193e6 1.1720142969109694e7 0.0
1.1720142969109694e7 3.962802935045103e6 0.0
0.0 0.0 0.0

3.209433757232248e6 5.876420332608742e6 0.0
5.876420332608742e6 -9.536707935388908e6 0.0
0.0 0.0 0.0

-3.387905641128117e6 1.1107739134575477e7 0.0
1.1107739134575477e7 -382265.98985834676 0.0
0.0 0.0 0.0

-3.8166663686324586e6 1.1703440724175563e7 0.0
1.1703440724175563e7 -401115.3719720496 0.0
0.0 0.0 0.0

2.164670750335047e6 6.935704518258549e6 0.0
6.935704518258549e6 -9.115422047743e6 0.0
0.0 0.0 0.0

-5.37650354195402e6 1.281979784315631e7 0.0
1.281979784315631e7 1.5648898342271275e6 0.0
0.0 0.0 0.0

-210834.7851606689 1.2574370071355393e7 0.0
1.2574370071355393e7 -5.314153591978153e6 0.0
0.0 0.0 0.0

-3.559114547188386e6 1.0832284670755332e7 0.0
1.0832284670755332e7 -808326.4562036349 0.0
0.0 0.0 0.0

1.2718825297768135e6 1.046159952131611e7 0.0
1.046159952131611e7 -9.839515801128674e6 0.0
0.0 0.0 0.0

992667.3021735277 6.390461143737059e6 0.0
6.390461143737059e6 -5.982568896558997e6 0.0
0.0 0.0 0.0

-336638.1141801339 7.631514236451294e6 0.0
7.631514236451294e6 -5.08810035764488e6 0.0
0.0 0.0 0.0

-3.2629603568733498e6 1.1418980382722871e7 0.0
1.1418980382722871e7 -1.4101642168236482e6 0.0
0.0 0.0 0.0

-738468.876588129 1.2670256124745427e7 0.0
1.2670256124745427e7 -5.440262216784281e6 0.0
0.0 0.0 0.0

-2.9898338215829837e6 1.056182625056077e7 0.0
1.056182625056077e7 -1.9324950390441231e6 0.0
0.0 0.0 0.0

879459.6577874585 6.460184190891571e6 0.0
6.460184190891571e6 -5.638592030842055e6 0.0
0.0 0.0 0.0

2.5672953365605567e6 5.974660225748207e6 0.0
5.974660225748207e6 -8.122949299896267e6 0.0
0.0 0.0 0.0

-1.0668576930703935e6 1.0171498421060292e7 0.0
1.0171498421060292e7 -5.273329452704508e6 0.0
0.0 0.0 0.0

-682395.965859697 7.808619878494528e6 0.0
7.808619878494528e6 -4.610097494050695e6 0.0
0.0 0.0 0.0

-2.587039297324377e6 9.187989638966238e6 0.0
9.187989638966238e6 -1.071440786385057e6 0.0
0.0 0.0 0.0

-7.550827195409371e6 1.2798944011035236e7 0.0
1.2798944011035236e7 5.079363888494791e6 0.0
0.0 0.0 0.0

-1.0313929896161312e7 9.540139429554896e6 0.0
9.540139429554896e6 3.5856826291095816e7 0.0
0.0 0.0 0.0

-6.7763294856153745e6 3.194407761800987e6 0.0
3.194407761800987e6 6.258162804598039e6 0.0
0.0 0.0 0.0

-4.0906813755222643e6 1.318327731073912e7 0.0
1.318327731073912e7 -1.8053382657965296e6 0.0
0.0 0.0 0.0

-2.8583761313382005e6 9.219026132081488e6 0.0
9.219026132081488e6 -632955.9362083105 0.0
0.0 0.0 0.0

-9.841054444277648e6 1.6493152434854973e6 0.0
1.6493152434854973e6 1.3899508197529187e7 0.0
0.0 0.0 0.0

1.9156830896166274e6 5.892343828311171e6 0.0
5.892343828311171e6 -7.131254685164965e6 0.0
0.0 0.0 0.0

-3.037991519416537e6 9.504487967174603e6 0.0
9.504487967174603e6 373412.4863004371 0.0
0.0 0.0 0.0

108924.80937564792 1.0628215133043097e7 0.0
1.0628215133043097e7 -7.744504879057506e6 0.0
0.0 0.0 0.0

-3.6100231390130743e6 1.2265795337581536e7 0.0
1.2265795337581536e7 -930357.1257137697 0.0
0.0 0.0 0.0

-3.38597631812454e6 1.1239131727428872e7 0.0
1.1239131727428872e7 -541870.4844195156 0.0
0.0 0.0 0.0

-3.214825123449887e6 7.814261257358647e6 0.0
7.814261257358647e6 351588.1930913478 0.0
0.0 0.0 0.0

-2.429874010367949e6 9.653745377960434e6 0.0
9.653745377960434e6 -1.1251335990331764e6 0.0
0.0 0.0 0.0

-1.7877426426234297e6 5.573287082986225e6 0.0
5.573287082986225e6 -589730.4677210196 0.0
0.0 0.0 0.0

-2.3852052940416522e7 8.889272150545795e6 0.0
8.889272150545795e6 1.125121273224162e7 0.0
0.0 0.0 0.0

-1.623606494236065e6 9.765939299756827e6 0.0
9.765939299756827e6 3.8564240755407647e6 0.0
0.0 0.0 0.0

-6.515889875869654e6 1.1146540044595553e7 0.0
1.1146540044595553e7 6.075149167125001e6 0.0
0.0 0.0 0.0

-5.401344880881917e6 1.2633454671273995e7 0.0
1.2633454671273995e7 2.998613115247612e6 0.0
0.0 0.0 0.0

1.2261645649457797e6 7.5647472198678125e6 0.0
7.5647472198678125e6 -7.0222524207733935e6 0.0
0.0 0.0 0.0

1.7784518167434563e6 7.013769773475288e6 0.0
7.013769773475288e6 -8.136702998615092e6 0.0
0.0 0.0 0.0

2.590572954532419e6 7.934700073108297e6 0.0
7.934700073108297e6 -9.73581846825955e6 0.0
0.0 0.0 0.0

-2.824629510547673e6 8.333879430214206e6 0.0
8.333879430214206e6 -401352.90861009265 0.0
0.0 0.0 0.0

-7.988039502285457e6 5.807628559428232e6 0.0
5.807628559428232e6 9.233458772951676e6 0.0
0.0 0.0 0.0

-1.77814675330034e6 5.939606878423126e6 0.0
5.939606878423126e6 -64973.73321177397 0.0
0.0 0.0 0.0

959127.7795223615 1.2106569496917315e7 0.0
1.2106569496917315e7 -5.000228850077444e6 0.0
0.0 0.0 0.0

565459.1800280246 1.0272386358094152e7 0.0
1.0272386358094152e7 -8.314691890839864e6 0.0
0.0 0.0 0.0

-6.646418468580039e6 1.1850702116840944e7 0.0
1.1850702116840944e7 5.183342100210369e6 0.0
0.0 0.0 0.0

-5.918834278367347e6 1.6736730613970615e7 0.0
1.6736730613970615e7 814926.7271705375 0.0
0.0 0.0 0.0

-7.133444283441903e6 1.309003540100153e7 0.0
1.309003540100153e7 5.355046917466876e6 0.0
0.0 0.0 0.0

-6.50389679511649e6 1.0858105206434317e7 0.0
1.0858105206434317e7 7.912399290844265e6 0.0
0.0 0.0 0.0

3.993369846861981e6 7.46108410572381e6 0.0
7.46108410572381e6 -1.4182424432998387e7 0.0
0.0 0.0 0.0

-1.324387725700439e6 9.168053121404164e6 0.0
9.168053121404164e6 -3.2772807739070146e6 0.0
0.0 0.0 0.0

2.2253197232230157e6 6.256771503137707e6 0.0
6.256771503137707e6 -5.273757604055466e6 0.0
0.0 0.0 0.0

2.898096893283261e6 7.39725759177273e6 0.0
7.39725759177273e6 -9.93048696470449e6 0.0
0.0 0.0 0.0

-6.120437430516812e6 1.2011311983438687e7 0.0
1.2011311983438687e7 3.809885133720511e6 0.0
0.0 0.0 0.0

-6.265240370612865e6 6.631752793489268e6 0.0
6.631752793489268e6 7.298306920746992e6 0.0
0.0 0.0 0.0

-6.566436121436108e6 1.044096239521872e7 0.0
1.044096239521872e7 8.370075599076528e6 0.0
0.0 0.0 0.0

-6.485327298848261e6 1.1533350331257796e7 0.0
1.1533350331257796e7 6.136086253461319e6 0.0
0.0 0.0 0.0

921127.4419587674 7.177076483835328e6 0.0
7.177076483835328e6 -5.611657507920031e6 0.0
0.0 0.0 0.0

-3.7949063997702394e6 1.3537597259825794e7 0.0
1.3537597259825794e7 1.3685471407166843e6 0.0
0.0 0.0 0.0

-7.6982649896773035e6 1.5655595378548915e7 0.0
1.5655595378548915e7 3.85081090114404e6 0.0
0.0 0.0 0.0

-6.62371754337764e6 1.255161168828743e7 0.0
1.255161168828743e7 5.0239790086505525e6 0.0
0.0 0.0 0.0

-6.05232611344365e6 1.0273850428005006e7 0.0
1.0273850428005006e7 8.25025290747004e6 0.0
0.0 0.0 0.0

-2.1128939370673016e7 3.045016874354769e7 0.0
3.045016874354769e7 -5.740014062852479e6 0.0
0.0 0.0 0.0

-3.7484059219901417e6 1.145206009502408e7 0.0
1.145206009502408e7 1.203191581062934e6 0.0
0.0 0.0 0.0

-4.607548271646939e6 8.356508343949295e6 0.0
8.356508343949295e6 2.121920646441021e6 0.0
0.0 0.0 0.0

-1.0446624018847276e6 3.6237142614112417e6 0.0
3.6237142614112417e6 -595748.2649535304 0.0
0.0 0.0 0.0

-2.2227457931269826e6 9.727172590094231e6 0.0
9.727172590094231e6 -1.7195564379372462e6 0.0
0.0 0.0 0.0

-3.4513688108982155e6 1.2868299138110321e7 0.0
1.2868299138110321e7 147714.9322757735 0.0
0.0 0.0 0.0

-1.073879724038471e7 1.436696598119377e7 0.0
1.436696598119377e7 8.495085837018214e6 0.0
0.0 0.0 0.0

-2.8371094942266475e6 1.0843435612191381e7 0.0
1.0843435612191381e7 -1.4723863785743117e6 0.0
0.0 0.0 0.0

-3.8935223236017223e6 1.1430417308787927e7 0.0
1.1430417308787927e7 -780519.4375484711 0.0
0.0 0.0 0.0

-2.3641848345169746e6 3.3402232589854645e6 0.0
3.3402232589854645e6 1.9028571062052608e6 0.0
0.0 0.0 0.0

1.6706086289828345e6 6.1465702025294e6 0.0
6.1465702025294e6 -6.466611895085431e6 0.0
0.0 0.0 0.0

-6.814931043098787e6 1.5212643776472993e7 0.0
1.5212643776472993e7 3.9343454682237813e6 0.0
0.0 0.0 0.0

-6.595822822919631e6 1.1236247328449326e7 0.0
1.1236247328449326e7 7.658427305451146e6 0.0
0.0 0.0 0.0

-4.875532823765551e6 1.2274100321482092e7 0.0
1.2274100321482092e7 714686.845032715 0.0
0.0 0.0 0.0

686219.4225239537 7.334653236126382e6 0.0
7.334653236126382e6 -3.865362189968996e6 0.0
0.0 0.0 0.0

-5.284915856561886e6 1.3924226556028172e7 0.0
1.3924226556028172e7 586036.7508069775 0.0
0.0 0.0 0.0

-3.5724500485974243e6 1.096693986189238e7 0.0
1.096693986189238e7 -965576.0677367562 0.0
0.0 0.0 0.0

-722339.8532365027 1.0043402645126618e7 0.0
1.0043402645126618e7 -5.7687371300012935e6 0.0
0.0 0.0 0.0

-2.8159892565552695e6 1.042066334159663e7 0.0
1.042066334159663e7 -1.041999472777976e6 0.0
0.0 0.0 0.0

824884.2329257433 7.559902629982841e6 0.0
7.559902629982841e6 -6.339030673405338e6 0.0
0.0 0.0 0.0

-3.5657230413851994e6 1.0728314333414711e7 0.0
1.0728314333414711e7 462037.9987938241 0.0
0.0 0.0 0.0

-1.1791935681501762e6 4.073866690181432e6 0.0
4.073866690181432e6 -677227.4888002712 0.0
0.0 0.0 0.0

-4.313038972732097e6 6.629531335124119e6 0.0
6.629531335124119e6 3.5731990641470747e6 0.0
0.0 0.0 0.0

-2.9982458395101298e6 7.697656646981733e6 0.0
7.697656646981733e6 1.0977377023198192e6 0.0
0.0 0.0 0.0

-1.4070990664064758e6 9.519995683203142e6 0.0
9.519995683203142e6 -7.82487679159764e6 0.0
0.0 0.0 0.0

-2.6290049752970594e6 8.188010308042932e6 0.0
8.188010308042932e6 277623.792773201 0.0
0.0 0.0 0.0

-2.016247595210927e7 1.2800259577443518e7 0.0
1.2800259577443518e7 9.061222417395897e6 0.0
0.0 0.0 0.0

-3.201181112007061e6 9.199325573834585e6 0.0
9.199325573834585e6 -150618.29881866171 0.0
0.0 0.0 0.0

-808844.4111701564 1.2167349712457404e7 0.0
1.2167349712457404e7 -935751.6018415728 0.0
0.0 0.0 0.0

-2.5120589517280616e7 7.046005303620058e6 0.0
7.046005303620058e6 9.087111014108554e6 0.0
0.0 0.0 0.0

418524.70836712536 1.2429682116463188e7 0.0
1.2429682116463188e7 -5.2574609315125e6 0.0
0.0 0.0 0.0

-2.4322606794356317e6 9.14394306730539e6 0.0
9.14394306730539e6 -541171.6392162476 0.0
0.0 0.0 0.0

208712.9519393451 7.512246476916468e6 0.0
7.512246476916468e6 -4.913535069757951e6 0.0
0.0 0.0 0.0

-5.675382289494909e6 1.274636711959385e7 0.0
1.274636711959385e7 3.478112241024616e6 0.0
0.0 0.0 0.0

558288.3478635065 8.271765809481266e6 0.0
8.271765809481266e6 -6.348562299170598e6 0.0
0.0 0.0 0.0

480842.27373368107 8.810542452179717e6 0.0
8.810542452179717e6 -6.666833054436999e6 0.0
0.0 0.0 0.0

-1.148536531006469e6 5.842908651870519e6 0.0
5.842908651870519e6 -1.6784263965489138e6 0.0
0.0 0.0 0.0

-5.916474446771674e6 9.55921328525317e6 0.0
9.55921328525317e6 3.822662381271571e6 0.0
0.0 0.0 0.0

2.361488693446756e6 6.921518784092684e6 0.0
6.921518784092684e6 -8.448352845882025e6 0.0
0.0 0.0 0.0

-2.672459696271876e6 4.657621100934431e6 0.0
4.657621100934431e6 1.6630426324135587e6 0.0
0.0 0.0 0.0

520612.118593337 8.548332062064726e6 0.0
8.548332062064726e6 -6.5090354768859055e6 0.0
0.0 0.0 0.0

-3.873358208678593e7 564181.6177096934 0.0
564181.6177096934 1.37099405695186e7 0.0
0.0 0.0 0.0

3.8616066994026992e6 7.329044080478796e6 0.0
7.329044080478796e6 -1.3494469593916409e7 0.0
0.0 0.0 0.0

-5.000552003462248e6 8.853482292860735e6 0.0
8.853482292860735e6 2.5829226737911273e6 0.0
0.0 0.0 0.0

-5.276420533607401e6 9.736668669562135e6 0.0
9.736668669562135e6 2.7208532884945665e6 0.0
0.0 0.0 0.0

-6.540535142586183e6 1.3057585331674334e7 0.0
1.3057585331674334e7 5.772144261139967e6 0.0
0.0 0.0 0.0

-2.667916578483891e6 9.802083040799925e6 0.0
9.802083040799925e6 -1.818405992753142e6 0.0
0.0 0.0 0.0

-5.220837665798705e6 1.1870072612804953e7 0.0
1.1870072612804953e7 6.107132672606854e6 0.0
0.0 0.0 0.0

-414690.1858427238 8.865600501128785e6 0.0
8.865600501128785e6 -5.430436032862978e6 0.0
0.0 0.0 0.0

1.5178794414866734e6 7.798156546629992e6 0.0
7.798156546629992e6 -8.168896957723928e6 0.0
0.0 0.0 0.0

-5.682025377115807e6 1.2501884252079176e7 0.0
1.2501884252079176e7 3.562447838363848e6 0.0
0.0 0.0 0.0

-5.624272052370828e6 1.4160793130024571e7 0.0
1.4160793130024571e7 438397.7741430444 0.0
0.0 0.0 0.0

3.366460460504401e6 7.895217070901302e6 0.0
7.895217070901302e6 -1.1532851829912193e7 0.0
0.0 0.0 0.0

-2.260854098341415e6 6.834410323831302e6 0.0
6.834410323831302e6 223213.93294980226 0.0
0.0 0.0 0.0

-6.861563311708948e6 1.3213295718966108e7 0.0
1.3213295718966108e7 5.45976140867959e6 0.0
0.0 0.0 0.0

-3.1019389885662742e7 2.903084570631714e7 0.0
2.903084570631714e7 6.3810112770522535e6 0.0
0.0 0.0 0.0

-9.589905623015715e6 2.882178612097993e6 0.0
2.882178612097993e6 1.2431375343901493e7 0.0
0.0 0.0 0.0

-449401.77697019 9.154350056635557e6 0.0
9.154350056635557e6 -7.249936665155527e6 0.0
0.0 0.0 0.0

724962.6668312612 7.3117281898161005e6 0.0
7.3117281898161005e6 -3.7405472506713634e6 0.0
0.0 0.0 0.0

-4.231686787442833e6 -2.1098508313825834e6 0.0
-2.1098508313825834e6 4.574009249953173e6 0.0
0.0 0.0 0.0

3.5449734340591435e6 5.542934113052106e6 0.0
5.542934113052106e6 -9.750415577917576e6 0.0
0.0 0.0 0.0

-3.2947346642397163e6 1.2379755160456998e7 0.0
1.2379755160456998e7 1.3395502918584966e6 0.0
0.0 0.0 0.0

657808.946429369 1.0944070673775336e7 0.0
1.0944070673775336e7 -8.484552948449194e6 0.0
0.0 0.0 0.0

-1.063727406661133e7 6.922816103117661e6 0.0
6.922816103117661e6 1.2540849411774468e7 0.0
0.0 0.0 0.0

-3.5922204877727805e6 1.3014929253001465e7 0.0
1.3014929253001465e7 -2.4424306669724532e6 0.0
0.0 0.0 0.0

551071.0993157984 7.979422678016291e6 0.0
7.979422678016291e6 -6.188022221295203e6 0.0
0.0 0.0 0.0

-9.41770793375337e6 9.64580294537115e6 0.0
9.64580294537115e6 1.726116628113857e7 0.0
0.0 0.0 0.0

-2.707201840054537e6 9.880568972134069e6 0.0
9.880568972134069e6 -703490.625859724 0.0
0.0 0.0 0.0

-7.213229200163901e6 1.0978973961584356e7 0.0
1.0978973961584356e7 9.175764560105752e6 0.0
0.0 0.0 0.0

593412.2711792486 1.11110907648392e7 0.0
1.11110907648392e7 -8.139371065865505e6 0.0
0.0 0.0 0.0

2.523829616395675e7 7.092502299594755e6 0.0
7.092502299594755e6 -4.0532189011173546e6 0.0
0.0 0.0 0.0

-4.0259481888032067e6 1.242006369632102e7 0.0
1.242006369632102e7 -380018.31085232133 0.0
0.0 0.0 0.0

-6.558316640023232e6 1.5321949949247934e7 0.0
1.5321949949247934e7 3.361586036626085e6 0.0
0.0 0.0 0.0

221028.10265549715 8.341836612193569e6 0.0
8.341836612193569e6 -5.957289659815032e6 0.0
0.0 0.0 0.0

961311.9805324455 8.112282871129921e6 0.0
8.112282871129921e6 -6.097451214011067e6 0.0
0.0 0.0 0.0

-2.40038559935043e6 9.581164908546312e6 0.0
9.581164908546312e6 -2.278625159196363e6 0.0
0.0 0.0 0.0

-6.065075435327861e6 5.4166895860566e6 0.0
5.4166895860566e6 7.216623890241401e6 0.0
0.0 0.0 0.0

726894.7649844857 1.0521945090806844e7 0.0
1.0521945090806844e7 -9.793404182891006e6 0.0
0.0 0.0 0.0

2.3207567218707334e6 6.247714394264788e6 0.0
6.247714394264788e6 -5.46953088117492e6 0.0
0.0 0.0 0.0

-405876.29270668235 9.480627850262443e6 0.0
9.480627850262443e6 -5.807462547001422e6 0.0
0.0 0.0 0.0

-1.4726935742349675e7 1.0588849937058844e7 0.0
1.0588849937058844e7 1.1201252157679204e7 0.0
0.0 0.0 0.0

-1.1778025151602966e6 7.668720283863607e6 0.0
7.668720283863607e6 -2.5179858021426667e6 0.0
0.0 0.0 0.0

-9.452721010144204e6 1.0469256947791165e7 0.0
1.0469256947791165e7 2.179389938364246e7 0.0
0.0 0.0 0.0

-4.145537276659753e6 1.1989869662325503e7 0.0
1.1989869662325503e7 4.245199407358818e6 0.0
0.0 0.0 0.0

2.864947491029324e6 1.0269528464330304e7 0.0
1.0269528464330304e7 -2.755143785742376e6 0.0
0.0 0.0 0.0

-6.684401208603232e6 1.3177640824669236e7 0.0
1.3177640824669236e7 5.669099855947793e6 0.0
0.0 0.0 0.0

-4.3079256439797655e6 1.2597559603061281e7 0.0
1.2597559603061281e7 297905.34078948526 0.0
0.0 0.0 0.0

-6.655105617674468e6 1.2429708976463374e7 0.0
1.2429708976463374e7 5.191223272625357e6 0.0
0.0 0.0 0.0

-5.217952856096798e6 5.596049553709633e6 0.0
5.596049553709633e6 5.301077983406529e6 0.0
0.0 0.0 0.0

-5.450137923929411e6 7.48949082853548e6 0.0
7.48949082853548e6 5.108156800078881e6 0.0
0.0 0.0 0.0

-1.3222431323599515e6 4.539460867683478e6 0.0
4.539460867683478e6 -921420.6182428794 0.0
0.0 0.0 0.0

2.9262201937620123e6 8.812068982676078e6 0.0
8.812068982676078e6 1.8391124358488e6 0.0
0.0 0.0 0.0

452683.7376760063 1.131546915843308e7 0.0
1.131546915843308e7 -7.75578520310851e6 0.0
0.0 0.0 0.0

-4.320059769665208e6 1.2403197484616974e7 0.0
1.2403197484616974e7 608794.9013727074 0.0
0.0 0.0 0.0

-6.080104920599482e6 1.2263872099921528e7 0.0
1.2263872099921528e7 3.675185970364985e6 0.0
0.0 0.0 0.0

-1.163336873152867e6 2.3231635947315334e6 0.0
2.3231635947315334e6 -44500.61530042178 0.0
0.0 0.0 0.0

-6.700655068168504e6 1.2921916484011216e7 0.0
1.2921916484011216e7 4.8939486586726885e6 0.0
0.0 0.0 0.0

-2.6943855109890793e6 9.111468122511322e6 0.0
9.111468122511322e6 -45220.078766987426 0.0
0.0 0.0 0.0

-6.944501573490312e6 1.3202896167656427e7 0.0
1.3202896167656427e7 5.500496823657548e6 0.0
0.0 0.0 0.0

3.1909190476223864e6 1.0036692875748998e7 0.0
1.0036692875748998e7 -2.9828754279068587e6 0.0
0.0 0.0 0.0

-5.86074807489622e6 1.4297141487098534e7 0.0
1.4297141487098534e7 2.2978373527039294e6 0.0
0.0 0.0 0.0

2.1238251720757484e6 5.9106348495231075e6 0.0
5.9106348495231075e6 -8.102915972884725e6 0.0
0.0 0.0 0.0

-8.295492745201308e6 3.4996714042535312e6 0.0
3.4996714042535312e6 1.1408025445767313e7 0.0
0.0 0.0 0.0

1.1204835772363702e6 1.152606635702159e7 0.0
1.152606635702159e7 -6.523503474895326e6 0.0
0.0 0.0 0.0

269169.9473021757 1.1533085330239454e7 0.0
1.1533085330239454e7 -7.339813796303992e6 0.0
0.0 0.0 0.0

-2.3832521930060466e6 9.521679018149715e6 0.0
9.521679018149715e6 -1.0692544538742993e6 0.0
0.0 0.0 0.0

-3.1364859938660203e6 1.2175472063329084e7 0.0
1.2175472063329084e7 1.5740947164413831e6 0.0
0.0 0.0 0.0

-2.8507128995793373e6 1.3520152575463286e7 0.0
1.3520152575463286e7 -2.2515441475417037e6 0.0
0.0 0.0 0.0

1.2271166891122232e6 1.0485058360612974e7 0.0
1.0485058360612974e7 -6.227202382405692e6 0.0
0.0 0.0 0.0

-5.148194207265007e6 6.395087899982951e6 0.0
6.395087899982951e6 3.675760135134021e6 0.0
0.0 0.0 0.0

1.5670962150683664e6 7.577445652335528e6 0.0
7.577445652335528e6 -6.893195435394676e6 0.0
0.0 0.0 0.0

936976.5290970039 1.1021804366262512e7 0.0
1.1021804366262512e7 -7.9447136806242e6 0.0
0.0 0.0 0.0

-2.929046365841717e6 1.0460434488969376e7 0.0
1.0460434488969376e7 5.072142308550246e6 0.0
0.0 0.0 0.0

-3.2667245714304666e6 1.049112828823096e7 0.0
1.049112828823096e7 -1.136175714670898e6 0.0
0.0 0.0 0.0

3.5451952530448916e6 7.167142184381253e6 0.0
7.167142184381253e6 -1.1067845447937489e7 0.0
0.0 0.0 0.0

4.710236385404428e6 6.755763199698533e6 0.0
6.755763199698533e6 -1.334851888168994e7 0.0
0.0 0.0 0.0

-3.6503301956930324e6 7.810576190735403e6 0.0
7.810576190735403e6 973307.4927379976 0.0
0.0 0.0 0.0

-6.065748577364666e6 1.2518399380104432e7 0.0
1.2518399380104432e7 3.565200861156598e6 0.0
0.0 0.0 0.0

-4.248399866506845e6 2.6545613690084075e6 0.0
2.6545613690084075e6 5.0994847006878825e6 0.0
0.0 0.0 0.0

-4.485850124555839e6 7.120517811857911e6 0.0
7.120517811857911e6 2.2386948192890035e6 0.0
0.0 0.0 0.0

-5.422520747658915e6 9.363059731941493e6 0.0
9.363059731941493e6 3.0556239932415215e6 0.0
0.0 0.0 0.0

1.4022890256966432e6 7.555291125878447e6 0.0
7.555291125878447e6 -6.435784293480388e6 0.0
0.0 0.0 0.0

3.5830427161927796e6 5.502324174906648e6 0.0
5.502324174906648e6 -9.904075175767098e6 0.0
0.0 0.0 0.0

-4.726779561712968e6 8.923838906110333e6 0.0
8.923838906110333e6 3.476259424498982e6 0.0
0.0 0.0 0.0

-9.148660499861954e6 1.239839121392197e7 0.0
1.239839121392197e7 2.8067243568244606e7 0.0
0.0 0.0 0.0

-4.824557066926876e6 1.0043544259181304e7 0.0
1.0043544259181304e7 3.1844587183553763e6 0.0
0.0 0.0 0.0

-4.674918132892467e6 1.2688527385763947e7 0.0
1.2688527385763947e7 822950.6323458084 0.0
0.0 0.0 0.0

288982.70659790374 8.841884977905078e6 0.0
8.841884977905078e6 -6.185942669560412e6 0.0
0.0 0.0 0.0

-5.739686733358312e6 1.3346526990118494e7 0.0
1.3346526990118494e7 2.948779270496169e6 0.0
0.0 0.0 0.0

-5.673698652306583e6 1.2243777519910756e7 0.0
1.2243777519910756e7 3.6675926678010114e6 0.0
0.0 0.0 0.0

-847747.852806007 1.2213105901177619e7 0.0
1.2213105901177619e7 5.765507027002944e6 0.0
0.0 0.0 0.0

2.218117600370893e6 6.272973086727991e6 0.0
6.272973086727991e6 -4.843175819397737e6 0.0
0.0 0.0 0.0

-234913.1450875157 1.2915331748735549e7 0.0
1.2915331748735549e7 -4.945221021647651e6 0.0
0.0 0.0 0.0

1.6502749037072873e6 4.984892491935268e6 0.0
4.984892491935268e6 -6.437791915746499e6 0.0
0.0 0.0 0.0

-3.7180720182479704e6 6.058339009722095e6 0.0
6.058339009722095e6 2.952614714666642e6 0.0
0.0 0.0 0.0

-5.897966632600803e6 1.1376268948202958e7 0.0
1.1376268948202958e7 3.6297384280087124e6 0.0
0.0 0.0 0.0

-3.1064154604769726e6 1.0760238181038275e7 0.0
1.0760238181038275e7 -715209.5574168873 0.0
0.0 0.0 0.0

991833.2860707915 7.47027694292668e6 0.0
7.47027694292668e6 -5.767671377975217e6 0.0
0.0 0.0 0.0

921799.6879127626 1.1020728483524496e7 0.0
1.1020728483524496e7 -6.540349705810931e6 0.0
0.0 0.0 0.0

-4.966120402607053e6 1.2886669063323587e7 0.0
1.2886669063323587e7 1.3354582099846378e6 0.0
0.0 0.0 0.0

-8.140625488399217e6 1.8550180980989332e6 0.0
1.8550180980989332e6 1.0478552008117352e7 0.0
0.0 0.0 0.0

-6.448582268961618e6 8.48134158198474e6 0.0
8.48134158198474e6 6.784382037623994e6 0.0
0.0 0.0 0.0

-3.4609587951095337e6 5.2350059431667e6 0.0
5.2350059431667e6 2.6620560094788503e6 0.0
0.0 0.0 0.0

-2.8329272250480466e6 8.797686297443513e6 0.0
8.797686297443513e6 -539649.5783476108 0.0
0.0 0.0 0.0

-6.377477101118449e6 1.2288475452701237e7 0.0
1.2288475452701237e7 5.413647940428007e6 0.0
0.0 0.0 0.0

-3.4785563718774715e6 1.042358259999121e7 0.0
1.042358259999121e7 -480262.45589649177 0.0
0.0 0.0 0.0

-6.199265083779327e6 1.3117875725173155e7 0.0
1.3117875725173155e7 3.2380093237528712e6 0.0
0.0 0.0 0.0

-1.4636226207454556e6 5.682126870465632e6 0.0
5.682126870465632e6 -1.1309345299544225e6 0.0
0.0 0.0 0.0

-4.887900058409134e6 7.208520867165205e6 0.0
7.208520867165205e6 4.254226332249784e6 0.0
0.0 0.0 0.0

-6.112543896529313e6 1.2753042793778233e7 0.0
1.2753042793778233e7 3.4680662610188397e6 0.0
0.0 0.0 0.0

-1.8991542337151938e6 1.3285745031401688e7 0.0
1.3285745031401688e7 -3.6243567513458277e6 0.0
0.0 0.0 0.0

-1.0656588541097417e6 1.1109116362429239e7 0.0
1.1109116362429239e7 6.734030690037565e6 0.0
0.0 0.0 0.0

-2.6425101617256775e6 8.656613247810487e6 0.0
8.656613247810487e6 116477.84746596718 0.0
0.0 0.0 0.0

-1.9233933038279158e6 1.4786392827854184e7 0.0
1.4786392827854184e7 -2.7253063016141695e6 0.0
0.0 0.0 0.0

-3.362915723773147e6 8.62027299283178e6 0.0
8.62027299283178e6 1.287051329670653e6 0.0
0.0 0.0 0.0

-5.949271304274986e6 8.106147466679871e6 0.0
8.106147466679871e6 5.742866714668757e6 0.0
0.0 0.0 0.0

-1.4748948088460448e6 6.028359588433485e6 0.0
6.028359588433485e6 -626840.1928563879 0.0
0.0 0.0 0.0

-6.15737763173807e6 1.2936420092261875e7 0.0
1.2936420092261875e7 3.349587285471703e6 0.0
0.0 0.0 0.0

2.3756782844552896e6 6.382351501218278e6 0.0
6.382351501218278e6 -7.9232437372895535e6 0.0
0.0 0.0 0.0

1.9734078139533154e6 7.045408399514788e6 0.0
7.045408399514788e6 -7.482463367820118e6 0.0
0.0 0.0 0.0

-6.474245312192961e6 1.285406293800768e7 0.0
1.285406293800768e7 5.889023881447597e6 0.0
0.0 0.0 0.0

-470784.69637610554 7.978130205128077e6 0.0
7.978130205128077e6 -3.7815959497024072e6 0.0
0.0 0.0 0.0

1.0056907206715462e6 7.813947750543186e6 0.0
7.813947750543186e6 -5.929051001872339e6 0.0
0.0 0.0 0.0

-6.954052728812763e6 1.4252236513232064e7 0.0
1.4252236513232064e7 3.9745620718646958e6 0.0
0.0 0.0 0.0

-5.478452957876621e6 1.3197629053671714e7 0.0
1.3197629053671714e7 2.4291215230099587e6 0.0
0.0 0.0 0.0

-3.559745002846511e6 1.1089740185092421e7 0.0
1.1089740185092421e7 -1.0877147815187466e6 0.0
0.0 0.0 0.0

830284.1870011762 1.0802497344075255e7 0.0
1.0802497344075255e7 -9.354140590312019e6 0.0
0.0 0.0 0.0

-7.3487063802239625e6 1.4015599291110694e7 0.0
1.4015599291110694e7 5.137028735241229e6 0.0
0.0 0.0 0.0

-6.834197102449709e6 8.861345166876482e6 0.0
8.861345166876482e6 7.632922498045377e6 0.0
0.0 0.0 0.0

750303.5042018169 6.2540922740611965e6 0.0
6.2540922740611965e6 -5.948000488690668e6 0.0
0.0 0.0 0.0

-7.557866697301475e6 1.5819695224229796e7 0.0
1.5819695224229796e7 4.809717075072657e6 0.0
0.0 0.0 0.0

-2.9495647121635983e6 1.2296093104342192e7 0.0
1.2296093104342192e7 3.169937543416608e6 0.0
0.0 0.0 0.0

-5.232018483542356e6 1.3053247956787363e7 0.0
1.3053247956787363e7 1.9386602751941637e6 0.0
0.0 0.0 0.0

39160.03913684888 1.175451272582496e7 0.0
1.175451272582496e7 -6.927142359641066e6 0.0
0.0 0.0 0.0

-6.004852203537875e6 1.3354824397848073e7 0.0
1.3354824397848073e7 3.6298853854684257e6 0.0
0.0 0.0 0.0

-6.201830599756286e6 1.2056957932704052e7 0.0
1.2056957932704052e7 6.510853063733735e6 0.0
0.0 0.0 0.0

-6.169056739264308e6 1.3379975726414656e7 0.0
1.3379975726414656e7 2.967181639347097e6 0.0
0.0 0.0 0.0

-6.6060961791560985e6 1.7653356511126928e7 0.0
1.7653356511126928e7 2.6404744418793307e6 0.0
0.0 0.0 0.0

-7.394114622402249e6 7.035214753831892e6 0.0
7.035214753831892e6 9.514170770876313e6 0.0
0.0 0.0 0.0

728304.3239904332 8.231488117811214e6 0.0
8.231488117811214e6 -5.785173223454373e6 0.0
0.0 0.0 0.0

-6.699239915285257e6 5.523507390540573e6 0.0
5.523507390540573e6 8.38664433529272e6 0.0
0.0 0.0 0.0

-4.58873763747304e6 6.453913338388041e6 0.0
6.453913338388041e6 2.741557601875273e6 0.0
0.0 0.0 0.0

-1.0355182619869383e6 -2.269411300394256e6 0.0
-2.269411300394256e6 2.0308273728815317e6 0.0
0.0 0.0 0.0

-953918.652416726 -1.6153134963831496e6 0.0
-1.6153134963831496e6 1.5900514818797754e6 0.0
0.0 0.0 0.0

-7.701294924792298e6 7.094765087021205e6 0.0
7.094765087021205e6 9.95811774216995e6 0.0
0.0 0.0 0.0

2.4992167527775136e6 1.0503685714997936e7 0.0
1.0503685714997936e7 1.3354237763388099e6 0.0
0.0 0.0 0.0

-5.759985498357305e6 1.3853139073078008e7 0.0
1.3853139073078008e7 2.4728646190708987e6 0.0
0.0 0.0 0.0

-3.5010700057992204e6 1.139818526515098e7 0.0
1.139818526515098e7 -756518.3220349068 0.0
0.0 0.0 0.0

680503.2217848464 8.509282270392833e6 0.0
8.509282270392833e6 -5.980612996997852e6 0.0
0.0 0.0 0.0

-818434.4990303337 1.2225576285349358e7 0.0
1.2225576285349358e7 4.29550302918276e6 0.0
0.0 0.0 0.0

-7.530817546511585e6 1.4084756737107283e7 0.0
1.4084756737107283e7 5.951070634597754e6 0.0
0.0 0.0 0.0

-7.2901314720178945e6 1.4490052713404303e7 0.0
1.4490052713404303e7 4.255304282051368e6 0.0
0.0 0.0 0.0

-7.527570678313715e6 1.4927770869868254e7 0.0
1.4927770869868254e7 4.307508069261607e6 0.0
0.0 0.0 0.0

-6.250471161571954e6 9.109512148104575e6 0.0
9.109512148104575e6 4.479043058148873e6 0.0
0.0 0.0 0.0

-4.198001696187587e6 7.849618003821938e6 0.0
7.849618003821938e6 1.6557785414674373e6 0.0
0.0 0.0 0.0

-2.2762445677531953e6 6.020617111356617e6 0.0
6.020617111356617e6 -145278.3695195011 0.0
0.0 0.0 0.0

-6.134704421919581e6 1.116504908514148e7 0.0
1.116504908514148e7 5.203356946377607e6 0.0
0.0 0.0 0.0

-3.411985811293771e6 7.7218182901217565e6 0.0
7.7218182901217565e6 1.7990756915212139e6 0.0
0.0 0.0 0.0

-8.416634893339396e6 5.642814905073055e6 0.0
5.642814905073055e6 1.172820322391086e7 0.0
0.0 0.0 0.0

627641.1169785773 8.779149619363599e6 0.0
8.779149619363599e6 -6.156336160606909e6 0.0
0.0 0.0 0.0

-6.392132737447957e6 9.889836719041646e6 0.0
9.889836719041646e6 4.538107959559282e6 0.0
0.0 0.0 0.0

-8.487106951938938e6 4.739987149239486e6 0.0
4.739987149239486e6 1.2011584663718706e7 0.0
0.0 0.0 0.0

-3.7474612626047013e6 1.1148069058237644e7 0.0
1.1148069058237644e7 3.7003069858048353e6 0.0
0.0 0.0 0.0

-3.5818120009996e6 8.734440182568772e6 0.0
8.734440182568772e6 546341.1193843589 0.0
0.0 0.0 0.0

-6.271412056143798e6 1.3611760951641086e7 0.0
1.3611760951641086e7 3.999125069614536e6 0.0
0.0 0.0 0.0

-5.717438467664608e6 1.3091254528318224e7 0.0
1.3091254528318224e7 3.2432785654584705e6 0.0
0.0 0.0 0.0

-6.254897083615412e6 1.2203791403354535e7 0.0
1.2203791403354535e7 6.329058125141025e6 0.0
0.0 0.0 0.0

715646.8975160634 1.103163144755514e7 0.0
1.103163144755514e7 -8.632911285592176e6 0.0
0.0 0.0 0.0

-5.970843817366837e6 1.0899933754255919e7 0.0
1.0899933754255919e7 4.0344267934585917e6 0.0
0.0 0.0 0.0

-6.7384863409636505e6 9.191931658686103e6 0.0
9.191931658686103e6 7.2008187876126915e6 0.0
0.0 0.0 0.0

-3.2032697600007956e6 1.1048900062507194e7 0.0
1.1048900062507194e7 -1.027446591030248e6 0.0
0.0 0.0 0.0

-6.548851973531416e6 1.5760167200697143e7 0.0
1.5760167200697143e7 3.332856036317171e6 0.0
0.0 0.0 0.0

-6.296802401003705e6 1.2331961876748564e7 0.0
1.2331961876748564e7 6.228744208880879e6 0.0
0.0 0.0 0.0

-3.315636134583332e6 1.0929281076383522e7 0.0
1.0929281076383522e7 -1.6142433261954493e6 0.0
0.0 0.0 0.0

1.9038452891584802e6 7.281702236696717e6 0.0
7.281702236696717e6 -7.713931345800146e6 0.0
0.0 0.0 0.0

-5.230770790041773e6 9.175810588043824e6 0.0
9.175810588043824e6 4.278137469898579e6 0.0
0.0 0.0 0.0

-2.943845117310642e6 1.4379878340013796e7 0.0
1.4379878340013796e7 -1.9177303712727418e6 0.0
0.0 0.0 0.0

1.918750521886904e6 6.381335704472382e6 0.0
6.381335704472382e6 -4.331040488449693e6 0.0
0.0 0.0 0.0

2.357929682968656e6 7.628986728266276e6 0.0
7.628986728266276e6 -1.0292546609345477e7 0.0
0.0 0.0 0.0

-2.325600963215855e6 1.063056754362433e7 0.0
1.063056754362433e7 -2.5697148283078284e6 0.0
0.0 0.0 0.0

1.137213785609994e6 1.1039004537958715e7 0.0
1.1039004537958715e7 3.63121432801189e6 0.0
0.0 0.0 0.0

1.5442069763836283e6 7.494727848783564e6 0.0
7.494727848783564e6 -8.052935696898144e6 0.0
0.0 0.0 0.0

1.3532543766064215e6 7.974229280139915e6 0.0
7.974229280139915e6 -7.950324296381397e6 0.0
0.0 0.0 0.0

533204.7421790874 8.934602687603416e6 0.0
8.934602687603416e6 -12277.734005414619 0.0
0.0 0.0 0.0

-7.476555772607578e6 2.6394903472200194e6 0.0
2.6394903472200194e6 1.0019868142018238e7 0.0
0.0 0.0 0.0

-2.997927714796881e6 5.925144770781341e6 0.0
5.925144770781341e6 867432.0981150209 0.0
0.0 0.0 0.0

-1.4001824339871472e6 1.1561037003024818e7 0.0
1.1561037003024818e7 -1.1247517267636264e7 0.0
0.0 0.0 0.0

-4.925429949317339e6 7.682307101122485e6 0.0
7.682307101122485e6 2.7273205304325405e6 0.0
0.0 0.0 0.0

-5.541771803098003e6 5.559747110912665e6 0.0
5.559747110912665e6 4.226432761998372e6 0.0
0.0 0.0 0.0

-1.452389297745496e6 1.0088717934597678e7 0.0
1.0088717934597678e7 3.418341069226957e6 0.0
0.0 0.0 0.0

-3.569746732248188e6 -1.6102776226951447e6 0.0
-1.6102776226951447e6 3.8422353869367717e6 0.0
0.0 0.0 0.0

-5.51740330251131e6 9.028846793051945e6 0.0
9.028846793051945e6 3.3666447051662197e6 0.0
0.0 0.0 0.0

-6.503193315627812e6 1.2488232346256886e7 0.0
1.2488232346256886e7 5.711460985284325e6 0.0
0.0 0.0 0.0

-1.3873313838607832e6 1.0570286795180563e7 0.0
1.0570286795180563e7 -4.977422270090113e6 0.0
0.0 0.0 0.0

227376.73910891567 3.049024248035998e6 0.0
3.049024248035998e6 -2.4391510196872666e6 0.0
0.0 0.0 0.0

-1.9469692783727173e6 6.103630589319902e6 0.0
6.103630589319902e6 -711069.2499915622 0.0
0.0 0.0 0.0

3.9509537287093224e6 7.906989246737251e6 0.0
7.906989246737251e6 -1.502183721363922e7 0.0
0.0 0.0 0.0

-6.035974413277571e6 1.6304327698811432e7 0.0
1.6304327698811432e7 2.3547745361977313e6 0.0
0.0 0.0 0.0

-1.0504117427629631e7 4.260423538367626e6 0.0
4.260423538367626e6 1.5446292694140444e7 0.0
0.0 0.0 0.0

-2.413229604728033e6 1.0032280319170132e7 0.0
1.0032280319170132e7 -2.2527503264874127e6 0.0
0.0 0.0 0.0

-6.540475599147849e6 5.2484282032293165e6 0.0
5.2484282032293165e6 5.714775405263831e6 0.0
0.0 0.0 0.0

-8.884544261501271e6 1.1376401108764566e7 0.0
1.1376401108764566e7 6.657701213108249e6 0.0
0.0 0.0 0.0

-755014.6588241265 1.1861736845506148e7 0.0
1.1861736845506148e7 -1.631494712808933e6 0.0
0.0 0.0 0.0

-1.141838333721371e6 1.1461898388551522e7 0.0
1.1461898388551522e7 2.2168622256868267e6 0.0
0.0 0.0 0.0

2.6607662836705158e6 7.413969887620187e6 0.0
7.413969887620187e6 -1.0719458818192301e7 0.0
0.0 0.0 0.0

-4.715126260481929e6 6.926865743141803e6 0.0
6.926865743141803e6 -188547.47078675008 0.0
0.0 0.0 0.0

-8.33015860789231e6 1.878400827959488e7 0.0
1.878400827959488e7 1.0082933730654544e6 0.0
0.0 0.0 0.0

-5.717905059595535e6 9.496079803325003e6 0.0
9.496079803325003e6 5.0611754178540725e6 0.0
0.0 0.0 0.0

-4.809383289869445e6 -2.5165716856363467e6 0.0
-2.5165716856363467e6 6.012372828006266e6 0.0
0.0 0.0 0.0

-2.561830919108848e6 1.1420112879590424e7 0.0
1.1420112879590424e7 3.3372270654196227e6 0.0
0.0 0.0 0.0

-7.141177230738091e6 1.3361017258634955e7 0.0
1.3361017258634955e7 4.83791157222652e6 0.0
0.0 0.0 0.0

-1.3185376862639356e6 6.290929296568258e6 0.0
6.290929296568258e6 -1.7295453412023918e6 0.0
0.0 0.0 0.0

-3.8903740234642266e6 1.2807607237317417e7 0.0
1.2807607237317417e7 8.542295806915494e6 0.0
0.0 0.0 0.0

-6.350637083485549e6 7.612474477049987e6 0.0
7.612474477049987e6 4.993162928473971e6 0.0
0.0 0.0 0.0

-5.124918431224966e6 6.7133790240701465e6 0.0
6.7133790240701465e6 3.531579176085323e6 0.0
0.0 0.0 0.0

-1.0532699111173658e7 3.009863524252502e6 0.0
3.009863524252502e6 1.5105386990974396e7 0.0
0.0 0.0 0.0

-3.195451821990252e6 1.1350990260634258e7 0.0
1.1350990260634258e7 4.753955884915797e6 0.0
0.0 0.0 0.0

-8.40095869738073e6 1.352521338144912e7 0.0
1.352521338144912e7 6.568821343444937e6 0.0
0.0 0.0 0.0

-8.567851618767593e6 1.5959058019703977e7 0.0
1.5959058019703977e7 4.970561025443591e6 0.0
0.0 0.0 0.0

-6.566237345995446e6 1.0416346174043294e7 0.0
1.0416346174043294e7 4.986253486865007e6 0.0
0.0 0.0 0.0

2.4728690536760306e6 5.788883861939861e6 0.0
5.788883861939861e6 -4.686805860838175e6 0.0
0.0 0.0 0.0

1.1525831012568423e6 8.246804083208084e6 0.0
8.246804083208084e6 -6.523410877596983e6 0.0
0.0 0.0 0.0

651332.4748538341 7.606142477978946e6 0.0
7.606142477978946e6 -5.442736628054911e6 0.0
0.0 0.0 0.0

-4.749366105864255e6 8.011904591742e6 0.0
8.011904591742e6 2.424616563846632e6 0.0
0.0 0.0 0.0

-1.3772021585278358e7 2.162833676324099e7 0.0
2.162833676324099e7 4.242156231655478e6 0.0
0.0 0.0 0.0

-1.4571752273417413e6 5.182028200703868e6 0.0
5.182028200703868e6 -1.0334546190443861e6 0.0
0.0 0.0 0.0

-5.980899067727522e6 1.4703424993769567e7 0.0
1.4703424993769567e7 2.3923393399121407e6 0.0
0.0 0.0 0.0

-3.462811719675225e6 1.4694816254322037e7 0.0
1.4694816254322037e7 -1.2044118103728131e6 0.0
0.0 0.0 0.0

-1.279998193478335e6 6.570718551074624e6 0.0
6.570718551074624e6 -1.3180994127708124e6 0.0
0.0 0.0 0.0

-628028.1400076471 8.123372336587889e6 0.0
8.123372336587889e6 -2.245803143261986e6 0.0
0.0 0.0 0.0

1.100537289535753e6 1.1896427647622105e7 0.0
1.1896427647622105e7 6.184095806025523e6 0.0
0.0 0.0 0.0

-126150.14513340034 1.327806330396675e7 0.0
1.327806330396675e7 6.200435654798385e6 0.0
0.0 0.0 0.0

-1.2519641045561342e6 1.1414254564461846e7 0.0
1.1414254564461846e7 1.9139151136411391e6 0.0
0.0 0.0 0.0

-5.769125145507072e6 7.322912569924385e6 0.0
7.322912569924385e6 4.137055040458399e6 0.0
0.0 0.0 0.0

-1.2775204741629643e7 2.0152136534261905e7 0.0
2.0152136534261905e7 4.747640580702606e6 0.0
0.0 0.0 0.0

-1.2966238044368003e7 1.1993262710082194e7 0.0
1.1993262710082194e7 7.364014940056298e6 0.0
0.0 0.0 0.0

-5.676148523202024e6 6.94075785008679e6 0.0
6.94075785008679e6 4.3506710351801235e6 0.0
0.0 0.0 0.0

2.000654832839103e6 9.310844096005585e6 0.0
9.310844096005585e6 -1.127967848864422e7 0.0
0.0 0.0 0.0

4.0912982024946953e6 5.400724213830154e6 0.0
5.400724213830154e6 -1.0983441812946262e7 0.0
0.0 0.0 0.0

-525139.7398796487 1.0314944810936918e7 0.0
1.0314944810936918e7 -5.332368272008318e6 0.0
0.0 0.0 0.0

905627.67228396 8.391064283014763e6 0.0
8.391064283014763e6 -6.260937604120274e6 0.0
0.0 0.0 0.0

-1.1684822032369296e6 1.0840069916264893e7 0.0
1.0840069916264893e7 -4.5104980468609305e6 0.0
0.0 0.0 0.0

-1.4808710877551053e7 2.3345190019237995e7 0.0
2.3345190019237995e7 2.428140970084971e6 0.0
0.0 0.0 0.0

-5.098229744952438e6 1.1366568010149298e7 0.0
1.1366568010149298e7 2.9354491957423063e6 0.0
0.0 0.0 0.0

-2.682604803683168e6 1.2486440095360916e7 0.0
1.2486440095360916e7 -3.7415597504354957e6 0.0
0.0 0.0 0.0

-2.6612368275345718e6 1.1856292944359068e7 0.0
1.1856292944359068e7 -3.5754485433465755e6 0.0
0.0 0.0 0.0

1.2169302260236684e6 7.698633309103803e6 0.0
7.698633309103803e6 -6.194452145403291e6 0.0
0.0 0.0 0.0

-6.826439256010434e6 1.1320420028890768e7 0.0
1.1320420028890768e7 5.783262960244403e6 0.0
0.0 0.0 0.0

-1.992507999703656e6 1.1784204123776434e7 0.0
1.1784204123776434e7 3.582502938295942e6 0.0
0.0 0.0 0.0

-4.306455842894675e6 1.275109195639838e7 0.0
1.275109195639838e7 3.5075774861869365e6 0.0
0.0 0.0 0.0

-1.169004033336289e7 3.0244693152343533e6 0.0
3.0244693152343533e6 3.49162964230376e7 0.0
0.0 0.0 0.0

-920543.8615552625 3.198042050132803e6 0.0
3.198042050132803e6 363080.49294932635 0.0
0.0 0.0 0.0

-2.6136823964535117e7 3.505610941991429e7 0.0
3.505610941991429e7 -1.4907145711395927e7 0.0
0.0 0.0 0.0

-882802.359943707 1.1835879854066845e7 0.0
1.1835879854066845e7 3.1162243601269624e6 0.0
0.0 0.0 0.0

-1.1712212162335686e7 1.9163748717207015e7 0.0
1.9163748717207015e7 5.462147199571499e6 0.0
0.0 0.0 0.0

-1.6224428474090237e6 1.009767930723624e7 0.0
1.009767930723624e7 -3.2930987905389713e6 0.0
0.0 0.0 0.0

-970555.1230828834 1.2629875230854265e7 0.0
1.2629875230854265e7 -5.497135832806953e6 0.0
0.0 0.0 0.0

-5.952620439689966e6 1.176821577190169e7 0.0
1.176821577190169e7 4.580158051638676e6 0.0
0.0 0.0 0.0

2.0586397043004339e6 4.483087300037095e6 0.0
4.483087300037095e6 -7.236576649925744e6 0.0
0.0 0.0 0.0

3.7028909384679208e6 1.010727384095839e7 0.0
1.010727384095839e7 -2.8339291092659314e6 0.0
0.0 0.0 0.0

1.1008983734327997e6 8.502588388296928e6 0.0
8.502588388296928e6 -6.751746384222886e6 0.0
0.0 0.0 0.0

-1.195572723335086e6 1.3995384963821223e7 0.0
1.3995384963821223e7 -3.8326593584542987e6 0.0
0.0 0.0 0.0

3.127756393535515e6 7.148454738223579e6 0.0
7.148454738223579e6 -1.0311231269328889e7 0.0
0.0 0.0 0.0

-4.986436890820379e6 9.766596152906682e6 0.0
9.766596152906682e6 3.6821396718641557e6 0.0
0.0 0.0 0.0

830353.0989628134 6.40099124422768e6 0.0
6.40099124422768e6 -5.722734634595407e6 0.0
0.0 0.0 0.0

-723672.3442977549 7.625854836514861e6 0.0
7.625854836514861e6 -2.4820365680873133e6 0.0
0.0 0.0 0.0

-6.176495047525667e6 1.1765241402897323e7 0.0
1.1765241402897323e7 557950.9154198039 0.0
0.0 0.0 0.0

1.6872434166849921e6 7.762552644830272e6 0.0
7.762552644830272e6 -7.606657526123356e6 0.0
0.0 0.0 0.0

-2.5457486776541034e6 9.359613988951543e6 0.0
9.359613988951543e6 -1.5787994015622449e6 0.0
0.0 0.0 0.0

-3.476856288896951e6 1.210908537792281e7 0.0
1.210908537792281e7 -2.2802201562064113e6 0.0
0.0 0.0 0.0

-4.676712151449388e6 1.1596213639969299e7 0.0
1.1596213639969299e7 6.753492198255057e6 0.0
0.0 0.0 0.0

1.3142426278266425e6 9.818928430636495e6 0.0
9.818928430636495e6 -4.213156391281186e6 0.0
0.0 0.0 0.0

-4.325328489341967e6 7.483763215928059e6 0.0
7.483763215928059e6 1.9551473777069256e6 0.0
0.0 0.0 0.0

-1.0340207441000856e7 1.6722770284949336e6 0.0
1.6722770284949336e6 1.2110548766918775e7 0.0
0.0 0.0 0.0

-4.871492318886385e6 1.1668673023299018e7 0.0
1.1668673023299018e7 6.822502234169871e6 0.0
0.0 0.0 0.0

-6.844956419437105e6 8.231031288795442e6 0.0
8.231031288795442e6 5.602139634344627e6 0.0
0.0 0.0 0.0

-8.087602578768043e6 905226.1306869884 0.0
905226.1306869884 9.36990618876774e6 0.0
0.0 0.0 0.0

-5.921775697840651e6 9.305274773281101e6 0.0
9.305274773281101e6 5.456462361645959e6 0.0
0.0 0.0 0.0

-6.157581990568997e6 1.1858869743418118e7 0.0
1.1858869743418118e7 6.538824556893536e6 0.0
0.0 0.0 0.0

-1.1190342277546893e6 4.456033130764596e6 0.0
4.456033130764596e6 -231504.35305000737 0.0
0.0 0.0 0.0

-3.0528144256149037e6 1.2015302274374569e7 0.0
1.2015302274374569e7 -2.968137355913583e6 0.0
0.0 0.0 0.0

-5.848217694488446e6 1.1679603784596888e7 0.0
1.1679603784596888e7 3.4607525692768255e6 0.0
0.0 0.0 0.0

-7.209457466615338e6 8.711943073254026e6 0.0
8.711943073254026e6 6.44005104631402e6 0.0
0.0 0.0 0.0

-1.0545850260194428e7 -2.4277433807216543e6 0.0
-2.4277433807216543e6 1.5127307965185182e7 0.0
0.0 0.0 0.0

-2.5643527089586295e6 1.1847770482995706e7 0.0
1.1847770482995706e7 2.840846042495723e6 0.0
0.0 0.0 0.0

-4.8557942715889895e6 6.8694738944376055e6 0.0
6.8694738944376055e6 4.348378236700401e6 0.0
0.0 0.0 0.0

1.933740828742363e6 9.111779608843977e6 0.0
9.111779608843977e6 -1.0739690963770289e7 0.0
0.0 0.0 0.0

-6.620648083896694e6 1.137619152845753e7 0.0
1.137619152845753e7 9.724650527044823e6 0.0
0.0 0.0 0.0

-7.109976934286971e6 7.701897708511108e6 0.0
7.701897708511108e6 8.77208325258339e6 0.0
0.0 0.0 0.0

579761.7670738169 7.346132522447898e6 0.0
7.346132522447898e6 -5.28220017976721e6 0.0
0.0 0.0 0.0

3.012713160084376e6 5.851295867844807e6 0.0
5.851295867844807e6 -9.484996358478937e6 0.0
0.0 0.0 0.0

-2.9416723096149648e6 1.2375932786016662e7 0.0
1.2375932786016662e7 5.280978657192383e6 0.0
0.0 0.0 0.0

-4.650110970108719e6 1.23204769614987e7 0.0
1.23204769614987e7 7.255880679640757e6 0.0
0.0 0.0 0.0

-1.9418692308938578e6 9.624399113346815e6 0.0
9.624399113346815e6 -2.2970639173057918e6 0.0
0.0 0.0 0.0

-6.38740883633448e6 1.24591260856656e7 0.0
1.24591260856656e7 6.128191021566162e6 0.0
0.0 0.0 0.0

-9.82604598493513e6 1.7311867804762434e7 0.0
1.7311867804762434e7 5.28365339788175e6 0.0
0.0 0.0 0.0

-254937.05351030943 1.2005786068602566e7 0.0
1.2005786068602566e7 -6.4645205747066345e6 0.0
0.0 0.0 0.0

-1.2960194647346062e6 3.2813023765208675e6 0.0
3.2813023765208675e6 462025.4102107081 0.0
0.0 0.0 0.0

1.4744378175016423e6 9.89198377059467e6 0.0
9.89198377059467e6 -9.582015050845493e6 0.0
0.0 0.0 0.0

-6.542630824101962e6 1.0977711410441529e7 0.0
1.0977711410441529e7 6.434765592219451e6 0.0
0.0 0.0 0.0

-6.877881506564012e6 6.943902653775416e6 0.0
6.943902653775416e6 8.633389988730371e6 0.0
0.0 0.0 0.0

-103736.05693704911 1.042652790404521e7 0.0
1.042652790404521e7 496994.1321072397 0.0
0.0 0.0 0.0

2.8219838807593863e6 8.22258494042169e6 0.0
8.22258494042169e6 -1.2025424039221924e7 0.0
0.0 0.0 0.0

1.730100978165986e6 8.996933168462371e6 0.0
8.996933168462371e6 -1.0083237658858709e7 0.0
0.0 0.0 0.0

-8.388187313318292e6 1.982224868562618e7 0.0
1.982224868562618e7 -30362.149269852787 0.0
0.0 0.0 0.0

-5.082833360044208e6 1.16784397823062e7 0.0
1.16784397823062e7 2.8086180332373576e6 0.0
0.0 0.0 0.0

-5.945966842658992e6 1.199787414493696e7 0.0
1.199787414493696e7 4.392318852117652e6 0.0
0.0 0.0 0.0

-5.332359868945484e6 1.2503707780581452e7 0.0
1.2503707780581452e7 1.7222862193208314e6 0.0
0.0 0.0 0.0

1.4663016962156114e6 5.163001570156467e6 0.0
5.163001570156467e6 -5.839177278951309e6 0.0
0.0 0.0 0.0

577891.1038649422 8.780132667470928e6 0.0
8.780132667470928e6 -5.677287338228907e6 0.0
0.0 0.0 0.0

-6.271430895404084e6 1.0598174721187321e7 0.0
1.0598174721187321e7 5.856365684350932e6 0.0
0.0 0.0 0.0

-2.2022203465298777e6 1.2685953519458562e7 0.0
1.2685953519458562e7 -3.426158829450702e6 0.0
0.0 0.0 0.0

-9.268748408498343e6 1.6836650605951767e7 0.0
1.6836650605951767e7 5.219172525257772e6 0.0
0.0 0.0 0.0

-1.314965332055257e6 5.504315309402712e6 0.0
5.504315309402712e6 -538705.192461121 0.0
0.0 0.0 0.0

-8.654169455860619e6 3.7660831619460783e6 0.0
3.7660831619460783e6 9.840904122658527e6 0.0
0.0 0.0 0.0

-8.99292673428123e6 1.6385278371496696e7 0.0
1.6385278371496696e7 5.220106137318259e6 0.0
0.0 0.0 0.0

-3.847018815068486e6 1.2225890144319821e7 0.0
1.2225890144319821e7 -1.7128985910507098e6 0.0
0.0 0.0 0.0

842443.2925270079 7.875314505879275e6 0.0
7.875314505879275e6 -6.476089485161472e6 0.0
0.0 0.0 0.0

-4.460164824865906e6 8.105632777850388e6 0.0
8.105632777850388e6 3.3403749616221692e6 0.0
0.0 0.0 0.0

3.1077886999524394e6 7.983243944558265e6 0.0
7.983243944558265e6 -1.2351400305094996e7 0.0
0.0 0.0 0.0

-6.820180840928152e6 1.4184372120420633e7 0.0
1.4184372120420633e7 4.5973511463862285e6 0.0
0.0 0.0 0.0

-2.7226174054203397e6 1.2377380887501808e7 0.0
1.2377380887501808e7 2.617977622545292e6 0.0
0.0 0.0 0.0

1.8373224234801512e6 9.642707773636501e6 0.0
9.642707773636501e6 -1.1385552173667083e7 0.0
0.0 0.0 0.0

-6.552012988423526e6 1.2189041374634411e7 0.0
1.2189041374634411e7 4.806600509524712e6 0.0
0.0 0.0 0.0

-9.862156772898842e6 3.109260697131288e6 0.0
3.109260697131288e6 1.1214842208754431e7 0.0
0.0 0.0 0.0

406543.8237618159 7.338907282073084e6 0.0
7.338907282073084e6 -5.859034083298255e6 0.0
0.0 0.0 0.0

-2.1407305313684344e6 9.794012163082343e6 0.0
9.794012163082343e6 3.0579529727917993e6 0.0
0.0 0.0 0.0

-5.71786676996235e6 1.1174383035291264e7 0.0
1.1174383035291264e7 4.4349576517111175e6 0.0
0.0 0.0 0.0

1.551909394860567e6 9.978888196742464e6 0.0
9.978888196742464e6 -1.1219764686961617e7 0.0
0.0 0.0 0.0

-1.6062464975135716e7 2.548159036775282e7 0.0
2.548159036775282e7 -426538.4136441117 0.0
0.0 0.0 0.0

-7.3734896416067e6 8.544029157670021e6 0.0
8.544029157670021e6 8.23970457889482e6 0.0
0.0 0.0 0.0

-1.1202558702842928e6 1.2031932968294455e7 0.0
1.2031932968294455e7 -1.1946898763734449e7 0.0
0.0 0.0 0.0

-1.1911065102461625e6 6.147271139044893e6 0.0
6.147271139044893e6 -1.2338396221702385e6 0.0
0.0 0.0 0.0

-6.014032781482706e6 9.296853081846267e6 0.0
9.296853081846267e6 4.1360044239198007e6 0.0
0.0 0.0 0.0

-7.684928814053741e6 9.817782102061238e6 0.0
9.817782102061238e6 1.043022903859336e7 0.0
0.0 0.0 0.0

-4.0448758418930103e6 7.546464703458908e6 0.0
7.546464703458908e6 2.869622458905342e6 0.0
0.0 0.0 0.0

-1.1049005052549051e7 1.0960779668323789e7 0.0
1.0960779668323789e7 2.34836644976355e7 0.0
0.0 0.0 0.0

-5.136651785972052e6 9.432571857073437e6 0.0
9.432571857073437e6 3.9930346750021987e6 0.0
0.0 0.0 0.0

830093.0707447487 1.093322696217695e7 0.0
1.093322696217695e7 -9.011265600259978e6 0.0
0.0 0.0 0.0

-608559.5403380175 1.2162843591826024e7 0.0
1.2162843591826024e7 -5.64116152208648e6 0.0
0.0 0.0 0.0

4.829060798778453e7 1.1472242730673185e7 0.0
1.1472242730673185e7 -586427.1394151822 0.0
0.0 0.0 0.0

-4.773990591267727e6 -2.8986178865088946e6 0.0
-2.8986178865088946e6 6.117401350653686e6 0.0
0.0 0.0 0.0

3.768042224379389e6 5.475358784287414e6 0.0
5.475358784287414e6 -1.035763585694826e7 0.0
0.0 0.0 0.0

-213400.92862239952 3.9582419886203343e6 0.0
3.9582419886203343e6 -1.931098996047149e6 0.0
0.0 0.0 0.0

-5.055069737066203e6 1.2292008577034866e7 0.0
1.2292008577034866e7 1.2501109920134058e6 0.0
0.0 0.0 0.0

-4.814482113193101e6 -8.203846901794015e6 0.0
-8.203846901794015e6 1.2012911577241428e7 0.0
0.0 0.0 0.0

-1.0923319022878264e6 1.0648163740099583e7 0.0
1.0648163740099583e7 -9.482826497950101e6 0.0
0.0 0.0 0.0

-6.42892071015346e6 6.212948851647124e6 0.0
6.212948851647124e6 7.793212129054507e6 0.0
0.0 0.0 0.0

-7.505094225616712e6 9.178798439683136e6 0.0
9.178798439683136e6 7.117795616346367e6 0.0
0.0 0.0 0.0

4.1565621106636277e6 5.354470608421438e6 0.0
5.354470608421438e6 -1.1224522999394672e7 0.0
0.0 0.0 0.0

-850018.3499763445 1.045765147793294e7 0.0
1.045765147793294e7 -4.815705135594493e6 0.0
0.0 0.0 0.0

-1.0598260259186374e7 1.7821626719475057e7 0.0
1.7821626719475057e7 5.889494943737989e6 0.0
0.0 0.0 0.0

33271.81645568367 7.488652185551563e6 0.0
7.488652185551563e6 -5.496791278490771e6 0.0
0.0 0.0 0.0

-1.2799904129077317e6 1.2532062482097816e7 0.0
1.2532062482097816e7 -683680.0168197013 0.0
0.0 0.0 0.0

-8.974692295620486e6 4.425981837192795e6 0.0
4.425981837192795e6 5.476345387661201e7 0.0
0.0 0.0 0.0

4.813770312231726e6 8.58983155603512e6 0.0
8.58983155603512e6 -2.223932999807774e7 0.0
0.0 0.0 0.0

2.3598356817058558e6 1.22862977639861e7 0.0
1.22862977639861e7 -1.6769315578894004e7 0.0
0.0 0.0 0.0

87452.3827375914 1.0032292092360862e7 0.0
1.0032292092360862e7 -6.28314236710068e6 0.0
0.0 0.0 0.0

4.1453136794626825e6 7.1664758459570035e6 0.0
7.1664758459570035e6 -1.2629651093040239e7 0.0
0.0 0.0 0.0

-9.830425840753803e6 1.0477507023951791e7 0.0
1.0477507023951791e7 4.991776150166892e6 0.0
0.0 0.0 0.0

-2.4003973373492984e6 1.2596446011382975e7 0.0
1.2596446011382975e7 -4.197702708084837e6 0.0
0.0 0.0 0.0

-5.41734899402888e6 -3.7094506375173633e6 0.0
-3.7094506375173633e6 7.0364591896356875e6 0.0
0.0 0.0 0.0

-2.441700947541351e6 5.789537417354976e6 0.0
5.789537417354976e6 427641.2960733194 0.0
0.0 0.0 0.0

-5.920940948295385e6 1.2265573829961998e7 0.0
1.2265573829961998e7 4.206205657940005e6 0.0
0.0 0.0 0.0

-6.82527035680419e6 1.0806124334390229e7 0.0
1.0806124334390229e7 5.531904475228682e6 0.0
0.0 0.0 0.0

-4.611573812355083e6 6.789833269477757e6 0.0
6.789833269477757e6 2.5476625606844192e6 0.0
0.0 0.0 0.0

-1.2566560763208494e6 4.901575425055125e6 0.0
4.901575425055125e6 -293975.98115188134 0.0
0.0 0.0 0.0

3.103914299698724e6 9.574953070406957e6 0.0
9.574953070406957e6 -1.3672313840862892e6 0.0
0.0 0.0 0.0

-4.246963858011808e6 1.2390936895975474e7 0.0
1.2390936895975474e7 -1.1122894381527838e6 0.0
0.0 0.0 0.0

410836.44631342636 7.173481073027976e6 0.0
7.173481073027976e6 -3.470500681430464e6 0.0
0.0 0.0 0.0

-5.525990080616812e6 1.3373384856611207e7 0.0
1.3373384856611207e7 2.2626395169953397e6 0.0
0.0 0.0 0.0

-7.95900589813688e6 7.43839340630343e6 0.0
7.43839340630343e6 8.796700906197406e6 0.0
0.0 0.0 0.0

-3.9271156424842514e6 7.885474977879487e6 0.0
7.885474977879487e6 2.549895114701665e6 0.0
0.0 0.0 0.0

-5.817211353385899e6 -3.8988995792686236e6 0.0
-3.8988995792686236e6 8.128973810955951e6 0.0
0.0 0.0 0.0

3.964115681356548e6 5.443041572198082e6 0.0
5.443041572198082e6 -1.0785884955560394e7 0.0
0.0 0.0 0.0

4.317609382312197e6 7.4022427989744125e6 0.0
7.4022427989744125e6 -1.3120539214976586e7 0.0
0.0 0.0 0.0

-7.091464662697192e6 5.636807058615886e6 0.0
5.636807058615886e6 6.969973597655421e6 0.0
0.0 0.0 0.0

5.300682880852839e6 7.527741917400343e6 0.0
7.527741917400343e6 -1.9379278115127534e7 0.0
0.0 0.0 0.0

-1.0205178805833574e7 -7.8951006429614965e6 0.0
-7.8951006429614965e6 2.686039134325895e7 0.0
0.0 0.0 0.0

1.0508068303270969e6 7.747597480355177e6 0.0
7.747597480355177e6 -6.742262292780444e6 0.0
0.0 0.0 0.0

1.7611640766430302e6 7.312195762350794e6 0.0
7.312195762350794e6 -7.163796277436164e6 0.0
0.0 0.0 0.0

-6.951893389826842e6 1.7148993873913806e7 0.0
1.7148993873913806e7 3.075704056126706e6 0.0
0.0 0.0 0.0

-8.005481106883253e6 1.3536148172403632e7 0.0
1.3536148172403632e7 6.685021714206369e6 0.0
0.0 0.0 0.0

-5.794793540178487e6 1.0926949105997764e7 0.0
1.0926949105997764e7 4.613569607834905e6 0.0
0.0 0.0 0.0

-4.926785430397376e6 1.3035319597009497e7 0.0
1.3035319597009497e7 1.114073681264668e6 0.0
0.0 0.0 0.0

-9.347620988242287e6 1.620586146958374e7 0.0
1.620586146958374e7 6.904608722480431e6 0.0
0.0 0.0 0.0

-6.228587888108071e6 1.1717911432341756e7 0.0
1.1717911432341756e7 5.384330157470459e6 0.0
0.0 0.0 0.0

-1.3392298648279314e6 1.1507677723030884e7 0.0
1.1507677723030884e7 1.4665822920241063e6 0.0
0.0 0.0 0.0

5.590382134877075e6 6.28726099102104e6 0.0
6.28726099102104e6 -1.6562008718070265e7 0.0
0.0 0.0 0.0

4.612273001324226e6 5.276437879177134e6 0.0
5.276437879177134e6 -1.2411344116982777e7 0.0
0.0 0.0 0.0

5.379823873101381e6 5.905456752124755e6 0.0
5.905456752124755e6 -1.4774589738972224e7 0.0
0.0 0.0 0.0

-5.836393829576896e6 1.2467447055816824e7 0.0
1.2467447055816824e7 3.0552367374939388e6 0.0
0.0 0.0 0.0

-1.6289595320134433e6 6.176206289956102e6 0.0
6.176206289956102e6 -1.224847050972246e6 0.0
0.0 0.0 0.0

-5.000988088949943e6 -8.84917281232509e6 0.0
-8.84917281232509e6 1.2827805332554419e7 0.0
0.0 0.0 0.0

-6.249258574776697e6 5.686269407695477e6 0.0
5.686269407695477e6 5.298060031352254e6 0.0
0.0 0.0 0.0

2.116534016143766e6 5.524227894001753e6 0.0
5.524227894001753e6 -7.6357605341407955e6 0.0
0.0 0.0 0.0

-7.305707551988008e6 1.2179034490732834e7 0.0
1.2179034490732834e7 5.575657852731867e6 0.0
0.0 0.0 0.0

-1.320979065662996e6 1.0444350422348134e7 0.0
1.0444350422348134e7 -9.24427705879968e6 0.0
0.0 0.0 0.0

-3.6864922653270755e6 -1.7561546412328382e6 0.0
-1.7561546412328382e6 5.338246155427059e6 0.0
0.0 0.0 0.0

-3.248080176065697e6 3.426119531679009e6 0.0
3.426119531679009e6 2.0035415354900921e6 0.0
0.0 0.0 0.0

-1.077356832235074e7 2.235074853899392e6 0.0
2.235074853899392e6 1.2793214233176641e7 0.0
0.0 0.0 0.0

-5.204249685563277e6 1.1666320458538365e7 0.0
1.1666320458538365e7 6.246683063052783e6 0.0
0.0 0.0 0.0

1.2282679262076933e6 9.138471579206187e6 0.0
9.138471579206187e6 -9.04159840762305e6 0.0
0.0 0.0 0.0

5.73942428866223e6 6.099348950637903e6 0.0
6.099348950637903e6 -1.6043328166872058e7 0.0
0.0 0.0 0.0

3.5267946131667076e6 5.531289933683857e6 0.0
5.531289933683857e6 -9.788873327232786e6 0.0
0.0 0.0 0.0

-6.276033461784928e6 1.9778090612536047e7 0.0
1.9778090612536047e7 -3.7849422312101685e6 0.0
0.0 0.0 0.0

-9.85736633701332e6 -8.455970496336717e6 0.0
-8.455970496336717e6 2.504579450570826e7 0.0
0.0 0.0 0.0

3.6437368689580588e6 7.690889406186596e6 0.0
7.690889406186596e6 -1.1921166200555539e7 0.0
0.0 0.0 0.0

-1.1562504744318997e7 -2.8039747621708685e6 0.0
-2.8039747621708685e6 3.882655694982048e7 0.0
0.0 0.0 0.0

5.726760791484457e6 6.715870469965163e6 0.0
6.715870469965163e6 -1.7714242712253753e7 0.0
0.0 0.0 0.0

-6.551767610837858e6 1.2677192614534965e7 0.0
1.2677192614534965e7 5.913966639039429e6 0.0
0.0 0.0 0.0

-829355.1731099513 7.975596180386251e6 0.0
7.975596180386251e6 -3.458988958792239e6 0.0
0.0 0.0 0.0

-2.150096484102948e6 1.0269689657342568e7 0.0
1.0269689657342568e7 -3.444066814028466e6 0.0
0.0 0.0 0.0

-112459.84522404382 1.0970504156990431e7 0.0
1.0970504156990431e7 -7.428880961663457e6 0.0
0.0 0.0 0.0

-1.0509612409246592e7 -7.107928817935177e6 0.0
-7.107928817935177e6 2.9050414636008285e7 0.0
0.0 0.0 0.0

5.45062611919322e6 6.04996026207375e6 0.0
6.04996026207375e6 -1.5253731286585256e7 0.0
0.0 0.0 0.0

-7.766194015924064e6 7.436730944737784e6 0.0
7.436730944737784e6 9.468613685047366e6 0.0
0.0 0.0 0.0

-7.723945275676321e6 7.261783533922432e6 0.0
7.261783533922432e6 8.138044968835228e6 0.0
0.0 0.0 0.0

-1.0291109972117906e7 3.283771679161568e6 0.0
3.283771679161568e6 1.1702492636436563e7 0.0
0.0 0.0 0.0

-4.1887007863190584e6 7.221981225200414e6 0.0
7.221981225200414e6 3.1874087862745556e6 0.0
0.0 0.0 0.0

-3.3930173542618905e6 1.2939435193660494e7 0.0
1.2939435193660494e7 8.75945570364677e6 0.0
0.0 0.0 0.0

-3.841196593848762e6 1.267598786303138e7 0.0
1.267598786303138e7 -661783.6300881129 0.0
0.0 0.0 0.0

-6.48921719984635e6 1.3202392667433843e7 0.0
1.3202392667433843e7 3.743073533508819e6 0.0
0.0 0.0 0.0

-5.024670342372061e6 1.3122797183036089e7 0.0
1.3122797183036089e7 180021.9027407146 0.0
0.0 0.0 0.0

1.3779822410088489e6 7.812861458993169e6 0.0
7.812861458993169e6 -6.608771334253847e6 0.0
0.0 0.0 0.0

-7.03404382327687e6 1.3390017032724999e7 0.0
1.3390017032724999e7 5.763192047816847e6 0.0
0.0 0.0 0.0

-922278.349167918 1.2172332328824678e7 0.0
1.2172332328824678e7 -1.3564398038450489e6 0.0
0.0 0.0 0.0

675903.297321666 9.736401376126135e6 0.0
9.736401376126135e6 -7.129707488660574e6 0.0
0.0 0.0 0.0

-9.411715543260619e6 5.520775424577957e6 0.0
5.520775424577957e6 1.2930471156005738e7 0.0
0.0 0.0 0.0

-7.715851165416101e6 5.652662468432361e6 0.0
5.652662468432361e6 8.347869581336249e6 0.0
0.0 0.0 0.0

1.373749844666122e6 7.556413004247897e6 0.0
7.556413004247897e6 -7.547351301260833e6 0.0
0.0 0.0 0.0

-5.728598916825183e6 -6.373418558112671e6 0.0
-6.373418558112671e6 1.0565807663685229e7 0.0
0.0 0.0 0.0

4.245436786132204e6 5.320741779449677e6 0.0
5.320741779449677e6 -1.1467458875547193e7 0.0
0.0 0.0 0.0

-3.48728582069336e6 1.168569340691568e7 0.0
1.168569340691568e7 5.316891089365531e6 0.0
0.0 0.0 0.0

-9.059825984008405e6 -8.95114664667597e6 0.0
-8.95114664667597e6 2.2914761163147666e7 0.0
0.0 0.0 0.0

5.172253325403121e6 5.833932343298912e6 0.0
5.833932343298912e6 -1.4037571586953618e7 0.0
0.0 0.0 0.0

4.345418062661215e6 5.311890608907333e6 0.0
5.311890608907333e6 -1.1753858670432445e7 0.0
0.0 0.0 0.0

-4.406500665613555e6 -6.554220263006614e6 0.0
-6.554220263006614e6 9.842772955929501e6 0.0
0.0 0.0 0.0

-9.030891691637114e6 9.637436374665676e6 0.0
9.637436374665676e6 1.4730891375796126e7 0.0
0.0 0.0 0.0

5.16427221786581e6 5.744236671414305e6 0.0
5.744236671414305e6 -1.3848505286241172e7 0.0
0.0 0.0 0.0

-8.133475151474436e6 -9.410297490340281e6 0.0
-9.410297490340281e6 2.043311108672715e7 0.0
0.0 0.0 0.0

-4.533760836088313e6 1.1222900518233335e7 0.0
1.1222900518233335e7 5.942140096065827e6 0.0
0.0 0.0 0.0

-6.992334434394805e6 -2.3056239827829e6 0.0
-2.3056239827829e6 1.0594030107136095e7 0.0
0.0 0.0 0.0

-4.631240227757072e6 -7.007261823417327e6 0.0
-7.007261823417327e6 1.1193047100536518e7 0.0
0.0 0.0 0.0

4.570481712947319e6 5.286554863760903e6 0.0
5.286554863760903e6 -1.2167046253459528e7 0.0
0.0 0.0 0.0

5.049736220561357e6 5.703040375720243e6 0.0
5.703040375720243e6 -1.3550033047658868e7 0.0
0.0 0.0 0.0

-7.693208283470988e6 -9.664029715027686e6 0.0
-9.664029715027686e6 1.8798984523429558e7 0.0
0.0 0.0 0.0

-1.2758570704306376e8 3.6166113914106384e7 0.0
3.6166113914106384e7 -5.721399663687043e6 0.0
0.0 0.0 0.0

7.735449026324135e7 1.314013996966876e7 0.0
1.314013996966876e7 -3.964672822197471e6 0.0
0.0 0.0 0.0

-5.191476373514529e6 7.039125263710412e6 0.0
7.039125263710412e6 3.329124639687959e6 0.0
0.0 0.0 0.0

4.878323553751678e6 5.649298154978269e6 0.0
5.649298154978269e6 -1.322421377022204e7 0.0
0.0 0.0 0.0

-7.347410644957723e6 -9.553346092881802e6 0.0
-9.553346092881802e6 1.743424119668834e7 0.0
0.0 0.0 0.0

1.3855517871852187e6 9.104015681034146e6 0.0
9.104015681034146e6 -3.5477383293740316e6 0.0
0.0 0.0 0.0

-7.508764517701689e6 6.333775053408798e6 0.0
6.333775053408798e6 7.764743348806683e6 0.0
0.0 0.0 0.0

-5.913120615007451e6 1.2523377732673526e7 0.0
1.2523377732673526e7 4.0738819950289577e6 0.0
0.0 0.0 0.0

-3.524719611096767e6 1.1938852990630984e7 0.0
1.1938852990630984e7 5.656294513949564e6 0.0
0.0 0.0 0.0

-6.357024402358549e6 -9.122279612056127e6 0.0
-9.122279612056127e6 1.5302217081000596e7 0.0
0.0 0.0 0.0

4.871183562167607e6 5.575959903152625e6 0.0
5.575959903152625e6 -1.3093572362391707e7 0.0
0.0 0.0 0.0

-4.548115401930013e6 1.2494376663205547e7 0.0
1.2494376663205547e7 -430007.2280267478 0.0
0.0 0.0 0.0

-232703.13191661518 1.1815045587227494e7 0.0
1.1815045587227494e7 -1.3373437404052906e7 0.0
0.0 0.0 0.0

-5.9161443165806625e6 1.3240211845228158e7 0.0
1.3240211845228158e7 2.4309868327487935e6 0.0
0.0 0.0 0.0

-177998.37512175972 1.0190246627443226e7 0.0
1.0190246627443226e7 -5.813329100907906e6 0.0
0.0 0.0 0.0

659586.0185016785 1.0291816396296032e7 0.0
1.0291816396296032e7 -8.683135368041426e6 0.0
0.0 0.0 0.0

-958261.3378156272 1.1634062922159553e7 0.0
1.1634062922159553e7 351620.1054928115 0.0
0.0 0.0 0.0

-3.642935147682549e6 1.368543431930187e7 0.0
1.368543431930187e7 -2.5081133321992476e6 0.0
0.0 0.0 0.0

-2.4857798959480682e6 1.2420721793042768e7 0.0
1.2420721793042768e7 -3.033190021266346e6 0.0
0.0 0.0 0.0

142890.72372609004 1.0937550574180327e7 0.0
1.0937550574180327e7 -1.1526615889351092e7 0.0
0.0 0.0 0.0

-6.026510074073959e6 1.3184503695874892e7 0.0
1.3184503695874892e7 3.7906547091843486e6 0.0
0.0 0.0 0.0

-6.388531304820184e6 1.0831509494720459e7 0.0
1.0831509494720459e7 5.017727539323366e6 0.0
0.0 0.0 0.0

-4.664478106861436e6 1.3684568354938684e7 0.0
1.3684568354938684e7 1.0784547208760036e6 0.0
0.0 0.0 0.0

676278.0451304973 1.0496132405891802e7 0.0
1.0496132405891802e7 -8.840584456369493e6 0.0
0.0 0.0 0.0

-5.34836549496131e6 6.019316055759892e6 0.0
6.019316055759892e6 3.908730216268226e6 0.0
0.0 0.0 0.0

-318769.8129493858 1.114277632636655e7 0.0
1.114277632636655e7 895512.5115040482 0.0
0.0 0.0 0.0

-5.789519961828498e6 6.587879926217132e6 0.0
6.587879926217132e6 4.538787355775346e6 0.0
0.0 0.0 0.0

-2.735957131796421e6 1.0009561300649982e7 0.0
1.0009561300649982e7 -780366.1029600815 0.0
0.0 0.0 0.0

-5.976599895637246e6 1.3007020741581371e7 0.0
1.3007020741581371e7 3.9194533690327466e6 0.0
0.0 0.0 0.0

967070.4659935106 1.0450266408702912e7 0.0
1.0450266408702912e7 -1.041768424172861e7 0.0
0.0 0.0 0.0

-3.9453220551777924e6 1.1335159527634362e7 0.0
1.1335159527634362e7 5.289726230745559e6 0.0
0.0 0.0 0.0

-9.858212923518414e6 1.6485824879808266e7 0.0
1.6485824879808266e7 7.450493411088885e6 0.0
0.0 0.0 0.0

-3.166773685472878e6 1.0082790031504892e7 0.0
1.0082790031504892e7 -858023.5842062273 0.0
0.0 0.0 0.0

-5.164164236147712e6 1.2773904081426354e7 0.0
1.2773904081426354e7 713251.1875685591 0.0
0.0 0.0 0.0

1.2272691046073309e6 1.0731417184447246e7 0.0
1.0731417184447246e7 4.1271151117168553e6 0.0
0.0 0.0 0.0

-5.957230073099612e6 1.277947392111925e7 0.0
1.277947392111925e7 3.9784171970324237e6 0.0
0.0 0.0 0.0

-8.75509143555462e6 3.1417431452963096e6 0.0
3.1417431452963096e6 4.675726217378395e6 0.0
0.0 0.0 0.0

-6.769380946609639e6 1.3978685079036329e7 0.0
1.3978685079036329e7 4.662311973758046e6 0.0
0.0 0.0 0.0

2.748393252224702e6 5.267740411508385e6 0.0
5.267740411508385e6 -8.014593319720928e6 0.0
0.0 0.0 0.0

2.5791245680008573e6 5.126495675793475e6 0.0
5.126495675793475e6 -7.600774801567395e6 0.0
0.0 0.0 0.0

-4.832520970273416e6 1.2657523648121778e7 0.0
1.2657523648121778e7 307495.52373555815 0.0
0.0 0.0 0.0

-4.406519397290096e6 1.24596526875136e7 0.0
1.24596526875136e7 7.455460209715918e6 0.0
0.0 0.0 0.0

-7.084148369958244e6 1.440852686691809e7 0.0
1.440852686691809e7 4.969690970656588e6 0.0
0.0 0.0 0.0

-9.132659640787754e6 3.998974556713356e6 0.0
3.998974556713356e6 1.0519333949535064e7 0.0
0.0 0.0 0.0

-8.576316943229593e6 1.5555913231935214e7 0.0
1.5555913231935214e7 6.420861910292037e6 0.0
0.0 0.0 0.0

-3.348174242772807e6 1.1935037687136974e7 0.0
1.1935037687136974e7 3.256980869685004e6 0.0
0.0 0.0 0.0

-1.0599281104637e6 7.730643369667658e6 0.0
7.730643369667658e6 -385265.0949367998 0.0
0.0 0.0 0.0

1.945798444490835e6 9.012393982174758e6 0.0
9.012393982174758e6 -9.35765186972829e6 0.0
0.0 0.0 0.0

-6.333481789025739e6 1.2307737977925492e7 0.0
1.2307737977925492e7 4.15546127816944e6 0.0
0.0 0.0 0.0

-2.240245660657094e6 786448.5487715255 0.0
786448.5487715255 2.6585862421866357e6 0.0
0.0 0.0 0.0

-1.0359282876520619e7 8.829212691278847e6 0.0
8.829212691278847e6 1.4897605783328142e7 0.0
0.0 0.0 0.0

574870.6806716807 1.0948616129953898e7 0.0
1.0948616129953898e7 -1.2833190336344685e7 0.0
0.0 0.0 0.0

-9.315486545311056e6 3.9075343300744193e6 0.0
3.9075343300744193e6 1.2564714464943841e7 0.0
0.0 0.0 0.0

-601428.473952033 1.436847862935241e7 0.0
1.436847862935241e7 -3.799358085655614e6 0.0
0.0 0.0 0.0

1.447828301916658e6 9.157500279309137e6 0.0
9.157500279309137e6 -8.311332706895654e6 0.0
0.0 0.0 0.0

-3.1358374766248628e6 9.962002722823147e6 0.0
9.962002722823147e6 -802997.4157590314 0.0
0.0 0.0 0.0

-5.654169081198368e6 1.3109816768248051e7 0.0
1.3109816768248051e7 1.886573423220683e6 0.0
0.0 0.0 0.0

1.2236329822421712e6 9.283273497394223e6 0.0
9.283273497394223e6 -5.10627738961605e6 0.0
0.0 0.0 0.0

-5.828223592208964e6 5.869647225181461e6 0.0
5.869647225181461e6 6.603448095655534e6 0.0
0.0 0.0 0.0

-9.101734636791904e6 4.917607117970329e6 0.0
4.917607117970329e6 1.2658038946149502e7 0.0
0.0 0.0 0.0

-5.42624963217313e6 1.2919051208495902e7 0.0
1.2919051208495902e7 1.3114165255510344e6 0.0
0.0 0.0 0.0

-4.327346340845758e6 6.923051365873185e6 0.0
6.923051365873185e6 3.439713280020383e6 0.0
0.0 0.0 0.0

4.180032648363485e6 6.169662676787889e6 0.0
6.169662676787889e6 -1.1743136897908421e7 0.0
0.0 0.0 0.0

-5.531387802761829e6 7.946986115421019e6 0.0
7.946986115421019e6 3.55583978419782e6 0.0
0.0 0.0 0.0

951320.6331548244 9.991527674829034e6 0.0
9.991527674829034e6 -6.84324845188307e6 0.0
0.0 0.0 0.0

1.0631477298188868e6 8.848605104492664e6 0.0
8.848605104492664e6 -2.184430298264393e6 0.0
0.0 0.0 0.0

-1.6666389541114294e6 1.1619423539554613e7 0.0
1.1619423539554613e7 -1.3726391652957853e6 0.0
0.0 0.0 0.0

-2.6899393751838114e6 9.934088443681102e6 0.0
9.934088443681102e6 -1.9578513988102525e6 0.0
0.0 0.0 0.0

393811.2899796646 1.0467323791268151e7 0.0
1.0467323791268151e7 -8.220006245262402e6 0.0
0.0 0.0 0.0

2.138601543498591e6 7.233401886566145e6 0.0
7.233401886566145e6 -9.37752192025805e6 0.0
0.0 0.0 0.0

1.1010318912558001e6 9.65501813517819e6 0.0
9.65501813517819e6 -6.0787141935099345e6 0.0
0.0 0.0 0.0

998963.7159626056 8.009269370529681e6 0.0
8.009269370529681e6 -6.919915819514972e6 0.0
0.0 0.0 0.0

1.4587025794225181e6 5.253261740849048e6 0.0
5.253261740849048e6 -6.21430545528207e6 0.0
0.0 0.0 0.0

-6.360237051352015e6 1.2814036526073312e7 0.0
1.2814036526073312e7 3.9724313964171438e6 0.0
0.0 0.0 0.0

-1.0226461424217811e6 8.092446910316321e6 0.0
8.092446910316321e6 -3.6090296625654437e6 0.0
0.0 0.0 0.0

-4.400248195787118e6 1.176058906664487e7 0.0
1.176058906664487e7 5.458378950690567e6 0.0
0.0 0.0 0.0

184007.97078420274 2.2610540774913463e6 0.0
2.2610540774913463e6 -1.1132509386997905e6 0.0
0.0 0.0 0.0

2.157593780486124e6 1.0065934880537672e7 0.0
1.0065934880537672e7 -2.630536325638011e6 0.0
0.0 0.0 0.0

-2.621756436969687e6 1.0506944022019796e7 0.0
1.0506944022019796e7 818342.9457366279 0.0
0.0 0.0 0.0

1.5608912013920308e6 7.267815812373355e6 0.0
7.267815812373355e6 -7.836953381617099e6 0.0
0.0 0.0 0.0

-4.570368264643472e7 5.845517704584645e6 0.0
5.845517704584645e6 1.5382534419884179e7 0.0
0.0 0.0 0.0

-5.914404403353064e6 1.0773276452647345e7 0.0
1.0773276452647345e7 7.6966261489527095e6 0.0
0.0 0.0 0.0

-1.0893915173568395e6 1.1282762011341859e7 0.0
1.1282762011341859e7 -4.9923917744761985e6 0.0
0.0 0.0 0.0

-2.1310041447389396e6 9.354279094526816e6 0.0
9.354279094526816e6 -2.734700152917053e6 0.0
0.0 0.0 0.0

1.4084249655505158e6 9.714669879376404e6 0.0
9.714669879376404e6 -8.740724528709307e6 0.0
0.0 0.0 0.0

-1.0211313870348483e6 1.1423250003288625e7 0.0
1.1423250003288625e7 1.3368547999801675e6 0.0
0.0 0.0 0.0

2.222004261414626e6 9.302894907624811e6 0.0
9.302894907624811e6 -1.0540625229769934e7 0.0
0.0 0.0 0.0

-898853.5396235673 1.1558519986300534e7 0.0
1.1558519986300534e7 1.915247315539498e6 0.0
0.0 0.0 0.0

-1.052984205832473e6 1.04162319332672e7 0.0
1.04162319332672e7 -5.480932269169168e6 0.0
0.0 0.0 0.0

2.154254282614521e6 7.222577933813456e6 0.0
7.222577933813456e6 -8.253265733032888e6 0.0
0.0 0.0 0.0

4.587116347619808e6 5.7649940791846365e6 0.0
5.7649940791846365e6 -1.2926013226600586e7 0.0
0.0 0.0 0.0

-4.415667371479175e6 1.4955629099794015e7 0.0
1.4955629099794015e7 -1.5959134276817073e6 0.0
0.0 0.0 0.0

2.154393138322424e6 9.136264332177348e6 0.0
9.136264332177348e6 -9.988200858711863e6 0.0
0.0 0.0 0.0

-6.862691802046061e6 1.3213377261180662e7 0.0
1.3213377261180662e7 5.773723819752154e6 0.0
0.0 0.0 0.0

-3.414868481941515e6 1.2247305714452036e7 0.0
1.2247305714452036e7 1.0672317299152403e6 0.0
0.0 0.0 0.0

725960.6670930674 6.703672885044923e6 0.0
6.703672885044923e6 -5.513737344648319e6 0.0
0.0 0.0 0.0

-1.0736495291975508e7 1.662686570748255e7 0.0
1.662686570748255e7 7.976818588097606e6 0.0
0.0 0.0 0.0

1.7457099401229755e6 7.549018874620673e6 0.0
7.549018874620673e6 -7.376144869906943e6 0.0
0.0 0.0 0.0

-6.947907432804338e6 1.1984077544186221e7 0.0
1.1984077544186221e7 1.3048322136145264e7 0.0
0.0 0.0 0.0

-742312.699625436 1.1878052685275234e7 0.0
1.1878052685275234e7 -483769.8183543054 0.0
0.0 0.0 0.0

-7.611134774750331e6 1.3503331926037649e7 0.0
1.3503331926037649e7 6.186627350925159e6 0.0
0.0 0.0 0.0

-4.870344670005607e6 6.48153569708854e6 0.0
6.48153569708854e6 4.559916366952627e6 0.0
0.0 0.0 0.0

975096.0574216992 9.623656678923681e6 0.0
9.623656678923681e6 -8.8008023026615e6 0.0
0.0 0.0 0.0

-857013.6782853942 7.599755504802709e6 0.0
7.599755504802709e6 -2.92922665624935e6 0.0
0.0 0.0 0.0

-2.5115730882033394e6 1.0212067448462574e7 0.0
1.0212067448462574e7 -1.516092552905342e6 0.0
0.0 0.0 0.0

4.832322044264397e6 1.01134741684188e7 0.0
1.01134741684188e7 -3.6878523819610886e6 0.0
0.0 0.0 0.0

-433946.51886556926 1.1571113004429607e7 0.0
1.1571113004429607e7 -6.02152519715529e6 0.0
0.0 0.0 0.0

632942.3584261877 7.168985412398686e6 0.0
7.168985412398686e6 -4.1775453105450813e6 0.0
0.0 0.0 0.0

673587.2792156856 1.0039950204316253e7 0.0
1.0039950204316253e7 -8.513739384289306e6 0.0
0.0 0.0 0.0

-5.736134222196547e6 -565005.9541037104 0.0
-565005.9541037104 6.830433290077718e6 0.0
0.0 0.0 0.0

-6.017993581810266e6 1.1939882006689847e7 0.0
1.1939882006689847e7 6.662955568076965e6 0.0
0.0 0.0 0.0

-7.730285120230098e6 6.428449562369765e6 0.0
6.428449562369765e6 8.733107762154864e6 0.0
0.0 0.0 0.0

-1.1826102916581845e7 1.0747827002771039e7 0.0
1.0747827002771039e7 5.979703854414966e6 0.0
0.0 0.0 0.0

118520.2610004805 1.0847500527808612e7 0.0
1.0847500527808612e7 -1.1677221390666531e7 0.0
0.0 0.0 0.0

-6.389836963892677e6 1.211752974027147e7 0.0
1.211752974027147e7 5.615012687202137e6 0.0
0.0 0.0 0.0

-6.542459192138822e6 1.2854662800541857e7 0.0
1.2854662800541857e7 5.661618354652606e6 0.0
0.0 0.0 0.0

-2.0272905207335965e6 1.312038454312245e7 0.0
1.312038454312245e7 -4.315121148538938e6 0.0
0.0 0.0 0.0

1.0884865299476753e6 1.0471827931100057e7 0.0
1.0471827931100057e7 -1.2254465774511987e7 0.0
0.0 0.0 0.0

-3.7288215977922874e6 1.1437491022743657e7 0.0
1.1437491022743657e7 4.861718621183808e6 0.0
0.0 0.0 0.0

-1.0893995717107428e7 -956546.121022977 0.0
-956546.121022977 1.692954297906323e7 0.0
0.0 0.0 0.0

1.659860097507152e6 6.224663221226389e6 0.0
6.224663221226389e6 -4.613615705594643e6 0.0
0.0 0.0 0.0

704186.2139827712 1.087815945876636e7 0.0
1.087815945876636e7 -8.922696645593913e6 0.0
0.0 0.0 0.0

-3.112720889767221e6 1.3439702737677015e7 0.0
1.3439702737677015e7 -3.160986385671376e6 0.0
0.0 0.0 0.0

-3.0447165098066656e6 1.0355953267191097e7 0.0
1.0355953267191097e7 -413898.1456663504 0.0
0.0 0.0 0.0

-1.5386504452231582e6 8.892872718534585e6 0.0
8.892872718534585e6 -3.686653101996174e6 0.0
0.0 0.0 0.0

-1.5750688468414156e6 1.076718558559709e7 0.0
1.076718558559709e7 -9.683361940935746e6 0.0
0.0 0.0 0.0

-1.0131346598860983e7 4.329449495936563e6 0.0
4.329449495936563e6 1.1827745051615838e7 0.0
0.0 0.0 0.0

-6.892166394339035e6 1.4436582541072754e7 0.0
1.4436582541072754e7 4.295025480514605e6 0.0
0.0 0.0 0.0

-1.6080504662744444e7 8.84596756426847e6 0.0
8.84596756426847e6 9.008217085150247e6 0.0
0.0 0.0 0.0

2.287643585058778e6 9.931700974022726e6 0.0
9.931700974022726e6 -2.6290408193907263e6 0.0
0.0 0.0 0.0

594072.5871771639 6.4306723954744125e6 0.0
6.4306723954744125e6 -5.75558434782447e6 0.0
0.0 0.0 0.0

-3.0111407885851893e6 1.0224684697061652e7 0.0
1.0224684697061652e7 -373349.7577817006 0.0
0.0 0.0 0.0

-1.0201424846466579e7 3.026096943705724e6 0.0
3.026096943705724e6 1.3749571011590494e7 0.0
0.0 0.0 0.0

-7.706604395214332e6 1.365777319830985e7 0.0
1.365777319830985e7 6.151688216947296e6 0.0
0.0 0.0 0.0

-4.388789945479674e6 1.1424036265233867e7 0.0
1.1424036265233867e7 5.607036303926936e6 0.0
0.0 0.0 0.0

-6.429828098431168e6 1.3376368472036509e7 0.0
1.3376368472036509e7 3.6259346616970287e6 0.0
0.0 0.0 0.0

-718893.4339961177 1.029975242659566e7 0.0
1.029975242659566e7 -5.976225479655059e6 0.0
0.0 0.0 0.0

-1.1105804961232005e7 3.994410001269533e6 0.0
3.994410001269533e6 1.345519099814368e7 0.0
0.0 0.0 0.0

-48537.72338569071 1.1171186430448126e7 0.0
1.1171186430448126e7 -7.628424824921013e6 0.0
0.0 0.0 0.0

-2.4111876871048245e6 1.2450328136476012e7 0.0
1.2450328136476012e7 -158735.8018720725 0.0
0.0 0.0 0.0

-7.072177227391237e6 1.4658336895466376e7 0.0
1.4658336895466376e7 4.591788942396382e6 0.0
0.0 0.0 0.0

1.247676098111446e6 5.78403295746955e6 0.0
5.78403295746955e6 -6.558660263061936e6 0.0
0.0 0.0 0.0

160223.37191520818 1.265188956123231e7 0.0
1.265188956123231e7 -5.456249931713487e6 0.0
0.0 0.0 0.0

-6.192132122660725e6 1.192299280771646e7 0.0
1.192299280771646e7 5.132870027406905e6 0.0
0.0 0.0 0.0

-5.020992197831031e6 6.0882194109587995e6 0.0
6.0882194109587995e6 4.9728203021070175e6 0.0
0.0 0.0 0.0

-3.1586780526123964e6 1.3447985517980246e7 0.0
1.3447985517980246e7 -57343.87626985565 0.0
0.0 0.0 0.0

-9.860967996916313e6 5.653744769080036e6 0.0
5.653744769080036e6 1.1175428557247628e7 0.0
0.0 0.0 0.0

-1.71247616311829e6 3.0227072476710957e6 0.0
3.0227072476710957e6 3.9367604533677157e6 0.0
0.0 0.0 0.0

-5.973193838253116e6 1.1559714369050087e7 0.0
1.1559714369050087e7 4.7713096436565e6 0.0
0.0 0.0 0.0

-8.110060776462484e6 4.906607192347851e6 0.0
4.906607192347851e6 8.974527796049183e6 0.0
0.0 0.0 0.0

-6.416181939152392e6 9.620473906320017e6 0.0
9.620473906320017e6 4.907511017301995e6 0.0
0.0 0.0 0.0

-2.1955338873074045e6 1.2727457101617612e7 0.0
1.2727457101617612e7 5.595100873720357e6 0.0
0.0 0.0 0.0

1.3109706022497304e6 1.0237155069385935e7 0.0
1.0237155069385935e7 -1.1671299566727888e7 0.0
0.0 0.0 0.0

252428.5564638566 2.1997554305202262e6 0.0
2.1997554305202262e6 -1.368238102274893e6 0.0
0.0 0.0 0.0

-2.5934843148337444e6 1.5600902513669329e7 0.0
1.5600902513669329e7 -3.400251625173591e6 0.0
0.0 0.0 0.0

-8.777225846738309e6 3.696406178179346e6 0.0
3.696406178179346e6 1.2053404611863878e7 0.0
0.0 0.0 0.0

-575933.3692961195 8.248929466672327e6 0.0
8.248929466672327e6 -4.952662590303888e6 0.0
0.0 0.0 0.0

-3.146489330202941e6 1.1600239342372475e7 0.0
1.1600239342372475e7 3.8798342682119436e6 0.0
0.0 0.0 0.0

-2.2303520169359148e6 9.854499153635338e6 0.0
9.854499153635338e6 -1.8393633356731015e6 0.0
0.0 0.0 0.0

-6.066531664107052e6 1.1669066358964939e7 0.0
1.1669066358964939e7 6.734434678959686e6 0.0
0.0 0.0 0.0

-274421.4436067365 7.745759609927217e6 0.0
7.745759609927217e6 -3.784370526188923e6 0.0
0.0 0.0 0.0

-4.7888401677309815e6 1.2499174692354683e7 0.0
1.2499174692354683e7 3.2559319911512285e6 0.0
0.0 0.0 0.0

-6.650140984396465e6 9.986948454856275e6 0.0
9.986948454856275e6 5.621858881198349e6 0.0
0.0 0.0 0.0

-278770.59263338335 1.263283549285489e7 0.0
1.263283549285489e7 -5.400936066359062e6 0.0
0.0 0.0 0.0

-6.38802621593378e6 1.1833248771266896e7 0.0
1.1833248771266896e7 4.490384983994978e6 0.0
0.0 0.0 0.0

-7.322628764163585e6 1.4732793521850731e7 0.0
1.4732793521850731e7 5.323827417092109e6 0.0
0.0 0.0 0.0

1.2746791096524978e6 1.0237853861794684e7 0.0
1.0237853861794684e7 -1.0783861530530762e7 0.0
0.0 0.0 0.0

2.711235899756415e6 5.91376731978532e6 0.0
5.91376731978532e6 -4.174904419430963e6 0.0
0.0 0.0 0.0

137035.79021228733 4.281388558515133e6 0.0
4.281388558515133e6 -2.6997518000195115e6 0.0
0.0 0.0 0.0

5.283051871455713e6 6.695643814540329e6 0.0
6.695643814540329e6 -1.5414133858629705e7 0.0
0.0 0.0 0.0

-3.698681475607859e6 1.2045604140647622e7 0.0
1.2045604140647622e7 -660573.7693139762 0.0
0.0 0.0 0.0

-5.06716232478877e6 1.1372236248681553e7 0.0
1.1372236248681553e7 6.409580208142584e6 0.0
0.0 0.0 0.0

-6.86525758527931e6 6.057476246378088e6 0.0
6.057476246378088e6 6.409809211940799e6 0.0
0.0 0.0 0.0

-1.1623504148569107e7 1.6864414730799098e7 0.0
1.6864414730799098e7 8.62046602824346e6 0.0
0.0 0.0 0.0

-1.0278808365469914e7 2.4819939256397993e6 0.0
2.4819939256397993e6 1.1867124044085609e7 0.0
0.0 0.0 0.0

200653.2563348431 3.0057418001912598e7 0.0
3.0057418001912598e7 -6.447188599558618e6 0.0
0.0 0.0 0.0

-2.4781359350937884e6 1.2138069239461865e7 0.0
1.2138069239461865e7 -3.87374355518478e6 0.0
0.0 0.0 0.0

382438.17471517855 9.890815691036511e6 0.0
9.890815691036511e6 -6.682160598236084e6 0.0
0.0 0.0 0.0

-4.696752395531646e6 1.1913743680181554e7 0.0
1.1913743680181554e7 5.290667723801529e6 0.0
0.0 0.0 0.0

-1.0925393710196499e7 3.5749682325598784e6 0.0
3.5749682325598784e6 1.2749919663495425e7 0.0
0.0 0.0 0.0

-3.1037224843425234e6 1.234924147217623e7 0.0
1.234924147217623e7 -1.9092444109681475e6 0.0
0.0 0.0 0.0

422391.12681344646 8.794643359171461e6 0.0
8.794643359171461e6 -713893.620553366 0.0
0.0 0.0 0.0

3.724424687195107e6 5.723184004818706e6 0.0
5.723184004818706e6 -1.0815095325819626e7 0.0
0.0 0.0 0.0

-1.5880908509775943e6 4.958121021915665e6 0.0
4.958121021915665e6 332677.2881564095 0.0
0.0 0.0 0.0

-1.323973619906733e7 1.7490514891804487e7 0.0
1.7490514891804487e7 9.868989043158853e6 0.0
0.0 0.0 0.0

-5.384896548149314e6 1.0993115769070085e7 0.0
1.0993115769070085e7 6.654834027694387e6 0.0
0.0 0.0 0.0

678172.694174163 1.0756122431503756e7 0.0
1.0756122431503756e7 -8.3324779016338885e6 0.0
0.0 0.0 0.0

2.2942307435125485e6 9.516041419244122e6 0.0
9.516041419244122e6 333447.7888707946 0.0
0.0 0.0 0.0

-1.2346424739472854e6 3.8702419132099184e6 0.0
3.8702419132099184e6 -437699.1884073062 0.0
0.0 0.0 0.0

-1.6971200114879361e6 6.615089459883624e6 0.0
6.615089459883624e6 -1.3366497217365862e6 0.0
0.0 0.0 0.0

777683.0271727187 1.0253394113971824e7 0.0
1.0253394113971824e7 -7.478327744735565e6 0.0
0.0 0.0 0.0

-1.3014636205144117e6 9.428077231793104e6 0.0
9.428077231793104e6 -3.480589700267599e6 0.0
0.0 0.0 0.0

-7.381993465918791e6 9.504456817710984e6 0.0
9.504456817710984e6 6.697186806488621e6 0.0
0.0 0.0 0.0

756528.1705816779 1.0740192581320884e7 0.0
1.0740192581320884e7 -9.256719973238332e6 0.0
0.0 0.0 0.0

1.6857997681345968e6 9.228486914411781e6 0.0
9.228486914411781e6 -8.953142547467919e6 0.0
0.0 0.0 0.0

-6.476551969815975e6 1.2369728212992365e7 0.0
1.2369728212992365e7 5.844950564526297e6 0.0
0.0 0.0 0.0

344656.39412316075 1.0897778045127412e7 0.0
1.0897778045127412e7 -7.336818363745133e6 0.0
0.0 0.0 0.0

-7.152206385177931e6 6.195703847001087e6 0.0
6.195703847001087e6 9.099958923744958e6 0.0
0.0 0.0 0.0

1.6967129191114958e6 5.538512833965108e6 0.0
5.538512833965108e6 -5.81958970272683e6 0.0
0.0 0.0 0.0

-1.817271192101308e7 1.430748515163229e7 0.0
1.430748515163229e7 5.583905525412206e6 0.0
0.0 0.0 0.0

1.2349953497907624e6 6.719956249071562e6 0.0
6.719956249071562e6 -5.663411890684761e6 0.0
0.0 0.0 0.0

2.3052769198069475e6 5.023694799638162e6 0.0
5.023694799638162e6 -5.171113601221412e6 0.0
0.0 0.0 0.0

-6.320465715154573e6 1.2998747236715121e7 0.0
1.2998747236715121e7 5.631595831462447e6 0.0
0.0 0.0 0.0

62633.1242892171 7.947800929885158e6 0.0
7.947800929885158e6 208777.2954642449 0.0
0.0 0.0 0.0

2.2370049610104947e6 1.1315026226297848e7 0.0
1.1315026226297848e7 -4.962572350569565e6 0.0
0.0 0.0 0.0

-8.200764365794328e6 9.496024304781541e6 0.0
9.496024304781541e6 8.914559782880232e6 0.0
0.0 0.0 0.0

-7.030056486555366e6 1.101415373016511e7 0.0
1.101415373016511e7 8.706465553865429e6 0.0
0.0 0.0 0.0

-1.2227425540673882e6 1.1505104349333055e7 0.0
1.1505104349333055e7 1.1443992244907081e7 0.0
0.0 0.0 0.0

-297996.04184829484 1.1382850553303488e7 0.0
1.1382850553303488e7 -1.8039400354837063e6 0.0
0.0 0.0 0.0

-6.080901426786238e6 1.1738864074764317e7 0.0
1.1738864074764317e7 6.848580024172734e6 0.0
0.0 0.0 0.0

-5.354792962050083e6 8.241471897890566e6 0.0
8.241471897890566e6 3.215622689626017e6 0.0
0.0 0.0 0.0

665650.8124851347 1.0449924525424564e7 0.0
1.0449924525424564e7 -8.082322898707505e6 0.0
0.0 0.0 0.0

-6.585632248316013e6 1.2029085676068742e7 0.0
1.2029085676068742e7 4.971453043555038e6 0.0
0.0 0.0 0.0

-1.052059881741778e7 3.6169026323206057e6 0.0
3.6169026323206057e6 1.2181835002604324e7 0.0
0.0 0.0 0.0

214585.41606168007 1.4874891807680577e7 0.0
1.4874891807680577e7 -5.017178450578678e6 0.0
0.0 0.0 0.0

-2.2770654739492093e6 1.2110948704368575e7 0.0
1.2110948704368575e7 -3.1992162721206825e6 0.0
0.0 0.0 0.0

1.7051783749401877e6 6.6093763521471815e6 0.0
6.6093763521471815e6 -7.674144201425738e6 0.0
0.0 0.0 0.0

-1.2406064494082828e6 1.3631556211181939e7 0.0
1.3631556211181939e7 -4.172431328763905e6 0.0
0.0 0.0 0.0

-5.472995127350974e6 1.3057124277128931e7 0.0
1.3057124277128931e7 2.5664556007967405e6 0.0
0.0 0.0 0.0

-799462.3977199808 7.674453159836027e6 0.0
7.674453159836027e6 -2.6648746108576255e6 0.0
0.0 0.0 0.0

3.987315316675678e6 1.4531090708250256e7 0.0
1.4531090708250256e7 1.3291061076666912e7 0.0
0.0 0.0 0.0

-6.704790476573178e6 -5.363998210955883e6 0.0
-5.363998210955883e6 1.3239824533179522e7 0.0
0.0 0.0 0.0

-331915.7374953159 9.59856111844427e6 0.0
9.59856111844427e6 535150.342360769 0.0
0.0 0.0 0.0

-5.86341512643949e6 -2.3589897692774357e6 0.0
-2.3589897692774357e6 7.222449102137543e6 0.0
0.0 0.0 0.0

-5.524257576108862e6 1.350627666642151e7 0.0
1.350627666642151e7 2.0581733332699905e6 0.0
0.0 0.0 0.0

-3.7898756925124344e6 1.4623783421234801e7 0.0
1.4623783421234801e7 -2.2882420106312744e6 0.0
0.0 0.0 0.0

-1.2451138572142597e7 1.721603323732267e7 0.0
1.721603323732267e7 9.047396248870073e6 0.0
0.0 0.0 0.0

-4.370918196729735e6 1.0764683623403158e7 0.0
1.0764683623403158e7 7.183085628106643e6 0.0
0.0 0.0 0.0

-9.974013561011638e6 3.28125147987246e6 0.0
3.28125147987246e6 1.2816577092850253e7 0.0
0.0 0.0 0.0

-5.845051071650354e6 1.3663003557278566e7 0.0
1.3663003557278566e7 2.7110459616698357e6 0.0
0.0 0.0 0.0

-6.772509822337402e6 1.0245195039092654e7 0.0
1.0245195039092654e7 5.323633797618088e6 0.0
0.0 0.0 0.0

-6.208989398944636e6 1.1264088720391221e7 0.0
1.1264088720391221e7 4.318283086108024e6 0.0
0.0 0.0 0.0

3.696086723031571e6 7.912755590503703e6 0.0
7.912755590503703e6 -1.2545235230920132e7 0.0
0.0 0.0 0.0

-6.454834309794319e6 1.257304254992762e7 0.0
1.257304254992762e7 6.007667566841286e6 0.0
0.0 0.0 0.0

1.5718237031184735e6 1.1165022768811755e7 0.0
1.1165022768811755e7 4.263408629959181e6 0.0
0.0 0.0 0.0

1.1883458096922967e6 9.38805294508768e6 0.0
9.38805294508768e6 -7.908287306282735e6 0.0
0.0 0.0 0.0

-1.2191235006972833e7 -4.0301028485842356e6 0.0
-4.0301028485842356e6 2.7240858499395598e7 0.0
0.0 0.0 0.0

-6.544995210886827e6 1.391417897777426e7 0.0
1.391417897777426e7 4.359197932841367e6 0.0
0.0 0.0 0.0

791087.148870766 9.804662320266332e6 0.0
9.804662320266332e6 201330.09062275031 0.0
0.0 0.0 0.0

-3.717469590212779e7 3.586534262787717e7 0.0
3.586534262787717e7 -1.1788779444174424e7 0.0
0.0 0.0 0.0

1.3028442505128896e6 5.337738394679692e6 0.0
5.337738394679692e6 -6.366715653498789e6 0.0
0.0 0.0 0.0

-3.317012091671153e6 1.0560723234225983e7 0.0
1.0560723234225983e7 -7658.452332185116 0.0
0.0 0.0 0.0

-7.066126866904205e6 1.1853130118386522e7 0.0
1.1853130118386522e7 4.265757357696459e6 0.0
0.0 0.0 0.0

627531.191213211 1.1635220271765152e7 0.0
1.1635220271765152e7 -7.181758632638645e6 0.0
0.0 0.0 0.0

-2.240145535679384e6 1.2237637605227608e7 0.0
1.2237637605227608e7 -4.414146773801501e6 0.0
0.0 0.0 0.0

3.9228772469093483e6 1.10915460507881e7 0.0
1.10915460507881e7 -4.945121162964359e6 0.0
0.0 0.0 0.0

-9.042889583000574e6 1.5023088160569148e7 0.0
1.5023088160569148e7 7.036086543935977e6 0.0
0.0 0.0 0.0

-2.922045624835666e6 1.2284684339811807e7 0.0
1.2284684339811807e7 -119146.88463979715 0.0
0.0 0.0 0.0

4.451331767442086e6 6.4597531988250995e6 0.0
6.4597531988250995e6 -1.2701550948572775e7 0.0
0.0 0.0 0.0

-1.311652545005249e7 1.4041916543775463e7 0.0
1.4041916543775463e7 1.6500522676664526e6 0.0
0.0 0.0 0.0

-6.066286422515113e6 1.0067788601977477e7 0.0
1.0067788601977477e7 5.578459567176714e6 0.0
0.0 0.0 0.0

-3.2282995263106963e6 1.4278750320375256e7 0.0
1.4278750320375256e7 -2.8730215865198663e6 0.0
0.0 0.0 0.0

-7.453470331052062e6 1.1560318804480212e7 0.0
1.1560318804480212e7 1.1884272736142214e7 0.0
0.0 0.0 0.0

3.5968594278091216e6 1.2909239238354554e7 0.0
1.2909239238354554e7 -6.798137802989451e6 0.0
0.0 0.0 0.0

-5.793260127811799e6 1.2513834054077193e7 0.0
1.2513834054077193e7 5.886819370895198e6 0.0
0.0 0.0 0.0

-1.831936638172016e6 9.829803338330613e6 0.0
9.829803338330613e6 -3.8054293210583734e6 0.0
0.0 0.0 0.0

-587617.8900821274 6.558957591758808e6 0.0
6.558957591758808e6 2.871371445977089e6 0.0
0.0 0.0 0.0

639278.7452522251 1.2494803235098774e7 0.0
1.2494803235098774e7 -5.451991674984753e6 0.0
0.0 0.0 0.0

-6.2024501955825975e6 1.0303815768294096e7 0.0
1.0303815768294096e7 7.429326029117476e6 0.0
0.0 0.0 0.0

-1.2155910210253805e7 433894.72281320335 0.0
433894.72281320335 2.9990353557113707e7 0.0
0.0 0.0 0.0

-1.2192514846931389e7 -5.047284273181928e6 0.0
-5.047284273181928e6 3.168764027789724e7 0.0
0.0 0.0 0.0

-2.45171628404927e6 1.0665976739388986e7 0.0
1.0665976739388986e7 -3.0790345913357213e6 0.0
0.0 0.0 0.0

328476.4976593689 1.2084712101224286e7 0.0
1.2084712101224286e7 -6.336329550095482e6 0.0
0.0 0.0 0.0

-1.9841043709930596e6 1.2371568186536819e7 0.0
1.2371568186536819e7 -4.809721787955272e6 0.0
0.0 0.0 0.0

-3.9353146379424785e6 1.254779539566697e7 0.0
1.254779539566697e7 458322.81749214535 0.0
0.0 0.0 0.0

4.2581185921299355e6 9.728733582780406e6 0.0
9.728733582780406e6 636091.1025550262 0.0
0.0 0.0 0.0

-6.062323746723227e6 1.1038226991061637e7 0.0
1.1038226991061637e7 7.094081695943844e6 0.0
0.0 0.0 0.0

-1.55421846046589e6 1.2445319846678907e7 0.0
1.2445319846678907e7 -5.226564328388567e6 0.0
0.0 0.0 0.0

-1.8071680996243898e6 9.264401430736022e6 0.0
9.264401430736022e6 -3.4251673234915063e6 0.0
0.0 0.0 0.0

-666490.3450095064 2.0095785735685271e6 0.0
2.0095785735685271e6 977991.3479777717 0.0
0.0 0.0 0.0

1.67004061487803e6 9.779469492570313e6 0.0
9.779469492570313e6 -1.087507747533023e7 0.0
0.0 0.0 0.0

-7.595142076403283e6 -937253.7054881081 0.0
-937253.7054881081 9.434192355068386e6 0.0
0.0 0.0 0.0

-1.5465813797452475e6 -148757.52955060144 0.0
-148757.52955060144 2.452312181916831e6 0.0
0.0 0.0 0.0

-1.0397764848361954e6 285574.2688505305 0.0
285574.2688505305 1.595438894739588e6 0.0
0.0 0.0 0.0

-1.5516145933102148e6 6.484804230238571e6 0.0
6.484804230238571e6 -781676.2278670173 0.0
0.0 0.0 0.0

-379154.9853398446 1.0160648404141553e7 0.0
1.0160648404141553e7 -6.479025371513547e6 0.0
0.0 0.0 0.0

2.0573501492530312e6 9.635576473235684e6 0.0
9.635576473235684e6 -1.0650546423492674e7 0.0
0.0 0.0 0.0

-641299.5477456334 1.205625217861747e7 0.0
1.205625217861747e7 -1.2315731983177385e6 0.0
0.0 0.0 0.0

-1.0725928485265006e6 1.3016251883468501e7 0.0
1.3016251883468501e7 -4.901879268843701e6 0.0
0.0 0.0 0.0

2.6022424065836268e6 1.074476253870045e7 0.0
1.074476253870045e7 -4.1085950505598513e6 0.0
0.0 0.0 0.0

-4.67491637625422e6 1.2575170722712522e7 0.0
1.2575170722712522e7 1.1000480123896e6 0.0
0.0 0.0 0.0

1.2224542840781579e7 1.3379370540400174e7 0.0
1.3379370540400174e7 247681.12633932382 0.0
0.0 0.0 0.0

-3.0022081047625816e6 7.824842035276082e6 0.0
7.824842035276082e6 9.072905368622692e6 0.0
0.0 0.0 0.0

1.703251130254692e6 1.1860337825962905e7 0.0
1.1860337825962905e7 -5.305145613103755e6 0.0
0.0 0.0 0.0

-2.5180069664609004e6 1.462580103098508e7 0.0
1.462580103098508e7 -2.284222422796651e6 0.0
0.0 0.0 0.0

-6.360280389846726e6 1.3883348900481347e7 0.0
1.3883348900481347e7 3.706393408825761e6 0.0
0.0 0.0 0.0

128857.23337418074 1.1223060995455774e7 0.0
1.1223060995455774e7 -7.066630038344325e6 0.0
0.0 0.0 0.0

-6.1593886001418345e6 1.165730963187221e7 0.0
1.165730963187221e7 2.4977117570642442e6 0.0
0.0 0.0 0.0

-6.347384460507367e6 1.3159111357830241e7 0.0
1.3159111357830241e7 5.593271455444057e6 0.0
0.0 0.0 0.0

2.261847958848386e6 4.620971301014563e6 0.0
4.620971301014563e6 -7.08833347540497e6 0.0
0.0 0.0 0.0

-5.649089738410466e6 1.2954533199258834e7 0.0
1.2954533199258834e7 2.0603347582016992e6 0.0
0.0 0.0 0.0

-1.471605454936427e7 1.7700439671927772e7 0.0
1.7700439671927772e7 1.055387452635169e7 0.0
0.0 0.0 0.0

-526999.5668321513 7.374798982266949e6 0.0
7.374798982266949e6 -4.941319877054572e6 0.0
0.0 0.0 0.0

1.4303940544601958e6 9.451522152974442e6 0.0
9.451522152974442e6 -8.530414774911588e6 0.0
0.0 0.0 0.0

1.9743365586452233e6 9.432994468172321e6 0.0
9.432994468172321e6 -1.0179679621975355e7 0.0
0.0 0.0 0.0

1.7162090765580973e6 9.988776732319439e6 0.0
9.988776732319439e6 -1.066446449416893e7 0.0
0.0 0.0 0.0

-5.857848480693022e6 1.882358548580001e7 0.0
1.882358548580001e7 689198.9929405702 0.0
0.0 0.0 0.0

-1.1085100027628713e6 1.2427615365826821e7 0.0
1.2427615365826821e7 -5.679208105251585e6 0.0
0.0 0.0 0.0

-1.2822794054862824e6 1.3117045086804604e7 0.0
1.3117045086804604e7 6.153805434355216e6 0.0
0.0 0.0 0.0

-1.544054061375226e7 4.3683601374107655e6 0.0
4.3683601374107655e6 8.297432496936593e6 0.0
0.0 0.0 0.0

-2.554248512477201e7 1.7399491648462534e7 0.0
1.7399491648462534e7 6.699368266411405e6 0.0
0.0 0.0 0.0

4.842568192318406e6 7.410888586867927e6 0.0
7.410888586867927e6 -1.4995468841911772e7 0.0
0.0 0.0 0.0

1.1355549144505388e6 1.2308998130847609e7 0.0
1.2308998130847609e7 -5.490890123272714e6 0.0
0.0 0.0 0.0

-2.270906640059461e6 1.4065087910626715e7 0.0
1.4065087910626715e7 -3.6601532746031224e6 0.0
0.0 0.0 0.0

2.1356144189859633e6 4.390044567829611e6 0.0
4.390044567829611e6 -6.831085814247822e6 0.0
0.0 0.0 0.0

-5.305485565584365e6 1.2454429705895081e7 0.0
1.2454429705895081e7 787770.0414191978 0.0
0.0 0.0 0.0

-3.4310186213984564e6 1.142906656301735e7 0.0
1.142906656301735e7 5.006317009492207e6 0.0
0.0 0.0 0.0

-4.449934472454872e6 9.691594275254162e6 0.0
9.691594275254162e6 1.0418451981307311e7 0.0
0.0 0.0 0.0

-371466.12426795403 2.5384242751401067e6 0.0
2.5384242751401067e6 -17133.219432125203 0.0
0.0 0.0 0.0

854715.0076840362 1.0563176518878257e7 0.0
1.0563176518878257e7 -8.249611652349153e6 0.0
0.0 0.0 0.0

1.1948860215613237e6 7.797551309337417e6 0.0
7.797551309337417e6 -7.23279663444017e6 0.0
0.0 0.0 0.0

517885.3588101051 7.06357677297396e6 0.0
7.06357677297396e6 -3.9917174111184133e6 0.0
0.0 0.0 0.0

-607379.6458119125 2.270858593805691e6 0.0
2.270858593805691e6 -604379.2869575511 0.0
0.0 0.0 0.0

-7.374860093981324e6 1.332046125523542e7 0.0
1.332046125523542e7 3.4452375651259914e7 0.0
0.0 0.0 0.0

-1.0774598766920988e7 -1.541045781404511e6 0.0
-1.541045781404511e6 1.617787371322818e7 0.0
0.0 0.0 0.0

-6.108014122062098e6 1.5113793161103427e7 0.0
1.5113793161103427e7 2.4874704911701214e6 0.0
0.0 0.0 0.0

-3.2558008220185684e6 1.0411531968867628e7 0.0
1.0411531968867628e7 42984.96822994272 0.0
0.0 0.0 0.0

729092.9313907991 9.781295830348559e6 0.0
9.781295830348559e6 -7.067613036805845e6 0.0
0.0 0.0 0.0

-2.253866031398136e6 1.3569238506929e7 0.0
1.3569238506929e7 -2.9931248482212126e6 0.0
0.0 0.0 0.0

-6.629798026058692e6 1.2279445672078358e7 0.0
1.2279445672078358e7 5.355239692344125e6 0.0
0.0 0.0 0.0

-9.235462158336347e6 2.081366023550369e7 0.0
2.081366023550369e7 5.336210496356515e6 0.0
0.0 0.0 0.0

1.811090231044982e6 6.201015150392308e6 0.0
6.201015150392308e6 -5.404315438065821e6 0.0
0.0 0.0 0.0

-1.499951525078779e6 1.5591057175687824e6 0.0
1.5591057175687824e6 161723.68072277954 0.0
0.0 0.0 0.0

-457561.5550282901 1.1566089424704e7 0.0
1.1566089424704e7 -806822.8616478281 0.0
0.0 0.0 0.0

-6.504563621157605e6 1.3027433789620334e7 0.0
1.3027433789620334e7 5.426463491621211e6 0.0
0.0 0.0 0.0

-4.448717743126437e6 1.134149879020103e7 0.0
1.134149879020103e7 6.419326171255764e6 0.0
0.0 0.0 0.0

-7.350078314045651e6 5.492965721494262e6 0.0
5.492965721494262e6 9.76852774512546e6 0.0
0.0 0.0 0.0

1.1480584596530558e6 9.918772626270132e6 0.0
9.918772626270132e6 -8.3317970078717e6 0.0
0.0 0.0 0.0

-7.269232705889073e7 1.1225219931132324e7 0.0
1.1225219931132324e7 6.770493510433719e6 0.0
0.0 0.0 0.0

-7.829332410867301e6 4.314465186732037e6 0.0
4.314465186732037e6 1.059669953434444e7 0.0
0.0 0.0 0.0

-6.482505127878062e6 1.3183140997462882e7 0.0
1.3183140997462882e7 5.486067142055444e6 0.0
0.0 0.0 0.0

458204.4673954863 1.109980859105388e7 0.0
1.109980859105388e7 -7.530312158715977e6 0.0
0.0 0.0 0.0

1.199451322832915e6 1.0273687076513084e7 0.0
1.0273687076513084e7 -1.0587678224221133e7 0.0
0.0 0.0 0.0

-9.17601081409702e6 1.9610331803907566e7 0.0
1.9610331803907566e7 5.788693583601534e6 0.0
0.0 0.0 0.0

953262.9256389234 1.0485566091057025e7 0.0
1.0485566091057025e7 -1.0090252025241453e7 0.0
0.0 0.0 0.0

-554527.0625920044 1.2273907366962492e7 0.0
1.2273907366962492e7 -5.9911086417444e6 0.0
0.0 0.0 0.0

-348987.3747661724 1.1569297099283945e7 0.0
1.1569297099283945e7 -487309.28298535873 0.0
0.0 0.0 0.0

-8.094364081322037e6 1.6238320908075368e7 0.0
1.6238320908075368e7 5.409253762474718e6 0.0
0.0 0.0 0.0

-6.488484243079602e6 1.274774827168942e7 0.0
1.274774827168942e7 5.120745508324429e6 0.0
0.0 0.0 0.0

855531.8444565726 1.0345099189101247e7 0.0
1.0345099189101247e7 -8.038248239451874e6 0.0
0.0 0.0 0.0

-1.8617299772097466e6 1.171885458661662e7 0.0
1.171885458661662e7 -4.1729244949672776e6 0.0
0.0 0.0 0.0

-5.809997551446365e6 1.2245522490678197e7 0.0
1.2245522490678197e7 3.203905838104875e6 0.0
0.0 0.0 0.0

-6.4545064763947595e6 1.3257965512864696e7 0.0
1.3257965512864696e7 5.510453180834863e6 0.0
0.0 0.0 0.0

-4.506244890164722e6 -2.6093987703955485e6 0.0
-2.6093987703955485e6 7.320111453434844e6 0.0
0.0 0.0 0.0

-7.029887331488239e6 9.654837017070971e6 0.0
9.654837017070971e6 7.832364527168056e6 0.0
0.0 0.0 0.0

766854.7003101939 1.061855161660841e7 0.0
1.061855161660841e7 -9.602326726694327e6 0.0
0.0 0.0 0.0

6.036054913661876e6 1.0422481197165528e7 0.0
1.0422481197165528e7 -4.426803837465438e6 0.0
0.0 0.0 0.0

860245.3340493944 1.0718733551636849e7 0.0
1.0718733551636849e7 -8.456216972752854e6 0.0
0.0 0.0 0.0

1.0150273181960648e6 9.642503747866282e6 0.0
9.642503747866282e6 -4.539388201363913e6 0.0
0.0 0.0 0.0

-9.882214736653212e6 2.57379562787969e6 0.0
2.57379562787969e6 1.3154164927364254e7 0.0
0.0 0.0 0.0

-5.310955603287118e6 1.1118333011020467e7 0.0
1.1118333011020467e7 1.6185041357861778e6 0.0
0.0 0.0 0.0

937032.2814323932 9.086659437964037e6 0.0
9.086659437964037e6 -5.472103107894291e6 0.0
0.0 0.0 0.0

841611.5803312627 1.1625172958965125e7 0.0
1.1625172958965125e7 -6.910673894724512e6 0.0
0.0 0.0 0.0

-1.8065456930177614e7 1.8169542435176272e7 0.0
1.8169542435176272e7 1.1942047933002153e7 0.0
0.0 0.0 0.0

-2.5243157166961096e7 3.2093067419062294e6 0.0
3.2093067419062294e6 1.037540727812931e7 0.0
0.0 0.0 0.0

-6.932733752623513e6 1.5741741308324493e7 0.0
1.5741741308324493e7 2.0366962291076104e6 0.0
0.0 0.0 0.0

-1.6143537402146796e7 1.8029272850922346e7 0.0
1.8029272850922346e7 1.1521632417593157e7 0.0
0.0 0.0 0.0

-3.1824233260060702e6 2.614339006128286e7 0.0
2.614339006128286e7 1.0310691000239013e6 0.0
0.0 0.0 0.0

1.2871679167128005e6 1.0184889535048923e7 0.0
1.0184889535048923e7 -1.0345604803435395e7 0.0
0.0 0.0 0.0

-2.0095130054706167e6 1.068981466446319e7 0.0
1.068981466446319e7 -9.197629014428886e6 0.0
0.0 0.0 0.0

-5.978591193941092e6 1.282766016320306e7 0.0
1.282766016320306e7 5.462516363002732e6 0.0
0.0 0.0 0.0

-9.646087095926356e6 4.1902239761163024e6 0.0
4.1902239761163024e6 1.1177980805307277e7 0.0
0.0 0.0 0.0

-5.609021309634205e6 1.2149334841841113e7 0.0
1.2149334841841113e7 2.3049635492732143e6 0.0
0.0 0.0 0.0

-1.3037986084342245e6 8.85340258819648e6 0.0
8.85340258819648e6 1.4662225938400887e6 0.0
0.0 0.0 0.0

-1.9272932618346417e6 9.931232353932517e6 0.0
9.931232353932517e6 -2.7205205080181854e6 0.0
0.0 0.0 0.0

-9.372670647055984e6 2.197708806516355e7 0.0
2.197708806516355e7 4.444756971903959e6 0.0
0.0 0.0 0.0

-2.4968892643798655e6 1.3413602419632087e7 0.0
1.3413602419632087e7 -3.831270179779699e6 0.0
0.0 0.0 0.0

1.7056365849789463e6 1.0992749420163378e7 0.0
1.0992749420163378e7 -5.011967407756814e6 0.0
0.0 0.0 0.0

4.0852423561416776e6 5.394754323599221e6 0.0
5.394754323599221e6 -1.1181422113546286e7 0.0
0.0 0.0 0.0

-6.575927425200866e6 1.2507247424094377e7 0.0
1.2507247424094377e7 5.619202131827562e6 0.0
0.0 0.0 0.0

-3.3663722415271504e6 9.491179682733662e6 0.0
9.491179682733662e6 921841.2359961467 0.0
0.0 0.0 0.0

307841.1455803097 7.993050874064919e6 0.0
7.993050874064919e6 -5.213260825361399e6 0.0
0.0 0.0 0.0

1.3331016739113755e6 1.0263738993518915e7 0.0
1.0263738993518915e7 -1.0575328557552313e7 0.0
0.0 0.0 0.0

-3.6763215781502603e6 1.178260519120342e7 0.0
1.178260519120342e7 4.837796930282726e6 0.0
0.0 0.0 0.0

-5.9095487679932825e6 1.0982955417692669e7 0.0
1.0982955417692669e7 8.061773790123725e6 0.0
0.0 0.0 0.0

-730202.2121929871 1.0938072274955552e7 0.0
1.0938072274955552e7 -2.2213172817640696e6 0.0
0.0 0.0 0.0

-1.476501154242256e6 1.4382465990004312e7 0.0
1.4382465990004312e7 -3.3476813417998e6 0.0
0.0 0.0 0.0

-6.459907620761443e6 1.2281955287294583e7 0.0
1.2281955287294583e7 5.99600003108938e6 0.0
0.0 0.0 0.0

-1.0999700019948445e7 -3.714643150510827e6 0.0
-3.714643150510827e6 2.3103718348516904e7 0.0
0.0 0.0 0.0

-1.623626159943182e6 6.929223183268543e6 0.0
6.929223183268543e6 -874611.6151553399 0.0
0.0 0.0 0.0

-276529.32971227716 1.1347802299880438e7 0.0
1.1347802299880438e7 -2.1636751207174854e6 0.0
0.0 0.0 0.0

-6.370907235711906e6 1.3032490918266002e7 0.0
1.3032490918266002e7 5.525820462411474e6 0.0
0.0 0.0 0.0

-6.695818767819268e6 1.0889555695413332e7 0.0
1.0889555695413332e7 6.799804725370791e6 0.0
0.0 0.0 0.0

1.0384982052592724e6 8.782710577455096e6 0.0
8.782710577455096e6 -6.891655617486328e6 0.0
0.0 0.0 0.0

-6.280906188091359e6 1.342749871829471e7 0.0
1.342749871829471e7 4.1195790177497617e6 0.0
0.0 0.0 0.0

-8.473449026872454e6 1.708104345458687e7 0.0
1.708104345458687e7 5.591571161088114e6 0.0
0.0 0.0 0.0

-4.733490221977478e6 1.0632090276772438e7 0.0
1.0632090276772438e7 2.5929824206866687e6 0.0
0.0 0.0 0.0

887790.397207717 9.838901890159003e6 0.0
9.838901890159003e6 -7.684349741210792e6 0.0
0.0 0.0 0.0

-6.465388299891224e6 1.366319989753552e7 0.0
1.366319989753552e7 3.356895159241821e6 0.0
0.0 0.0 0.0

-3.518215677082816e6 1.4006286488808205e7 0.0
1.4006286488808205e7 -2.6222829694947004e6 0.0
0.0 0.0 0.0

-4.713360858649347e6 1.211836416943579e7 0.0
1.211836416943579e7 7.33155383368128e6 0.0
0.0 0.0 0.0

-4.79342590001373e6 1.0292088597489208e7 0.0
1.0292088597489208e7 3.0089383854883043e6 0.0
0.0 0.0 0.0

-6.856539796428669e6 1.30316098820127e7 0.0
1.30316098820127e7 5.509260961184368e6 0.0
0.0 0.0 0.0

-9.021497179021956e6 -3.184682730211267e6 0.0
-3.184682730211267e6 1.3518937285719454e7 0.0
0.0 0.0 0.0

-8.208648262781169e6 1.661549067243945e7 0.0
1.661549067243945e7 5.580169433593582e6 0.0
0.0 0.0 0.0

3.9922724580652816e6 5.454194602919471e6 0.0
5.454194602919471e6 -1.0975591219480947e7 0.0
0.0 0.0 0.0

-5.461007148686572e6 1.309166938317769e7 0.0
1.309166938317769e7 1.0676226766818555e6 0.0
0.0 0.0 0.0

-6.855820159156075e6 -2.965240056287554e6 0.0
-2.965240056287554e6 1.0553746800968887e7 0.0
0.0 0.0 0.0

557287.5209711206 8.42556422232564e6 0.0
8.42556422232564e6 -4.719477621930323e6 0.0
0.0 0.0 0.0

-5.233103926033224e6 1.242260758067262e7 0.0
1.242260758067262e7 3.446915122039546e6 0.0
0.0 0.0 0.0

-890451.4879921918 1.232091373830086e7 0.0
1.232091373830086e7 -1.012764043847648e6 0.0
0.0 0.0 0.0

-1.451733701790832e6 1.2473073278029302e7 0.0
1.2473073278029302e7 -543623.5051870018 0.0
0.0 0.0 0.0

725249.4993344923 1.1069127718706205e7 0.0
1.1069127718706205e7 -8.276000767945849e6 0.0
0.0 0.0 0.0

-1.0383538869477533e7 4.702700485501626e6 0.0
4.702700485501626e6 1.1931877760110535e7 0.0
0.0 0.0 0.0

-2.2949826162475813e6 9.226791915651223e6 0.0
9.226791915651223e6 3.1547197508518198e6 0.0
0.0 0.0 0.0

2.3551803864671593e6 7.252929667974207e6 0.0
7.252929667974207e6 -8.658009181968331e6 0.0
0.0 0.0 0.0

-2.6246290092729894e6 1.2623335345060948e7 0.0
1.2623335345060948e7 6.028687643620244e6 0.0
0.0 0.0 0.0

-613092.0057456279 1.2696977503985545e7 0.0
1.2696977503985545e7 -1.3804588603136912e7 0.0
0.0 0.0 0.0

-6.121766449279586e6 9.842221605091538e6 0.0
9.842221605091538e6 5.805346426861818e6 0.0
0.0 0.0 0.0

-6.6401535323792035e6 1.3650193039354132e7 0.0
1.3650193039354132e7 3.9669764427567194e6 0.0
0.0 0.0 0.0

-4.268402666980044e6 1.076468944055197e7 0.0
1.076468944055197e7 1.1932828871124575e6 0.0
0.0 0.0 0.0

-1.9759165358954696e6 1.2338686599347482e7 0.0
1.2338686599347482e7 -3.5603621135314093e6 0.0
0.0 0.0 0.0

506371.7884811782 1.2069568358845865e7 0.0
1.2069568358845865e7 -5.522692802037776e6 0.0
0.0 0.0 0.0

-6.342642461202425e6 1.2747289330301888e7 0.0
1.2747289330301888e7 5.689974356315887e6 0.0
0.0 0.0 0.0

-4.353984668655369e6 1.1806067913083566e7 0.0
1.1806067913083566e7 5.529029130633468e6 0.0
0.0 0.0 0.0

-6.495128238157464e6 1.085392501930278e7 0.0
1.085392501930278e7 7.845529770442973e6 0.0
0.0 0.0 0.0

-264307.59227059083 1.0153619728770187e7 0.0
1.0153619728770187e7 -8.35674715630508e6 0.0
0.0 0.0 0.0

-90643.3061955981 1.0020702681371296e7 0.0
1.0020702681371296e7 -6.875861093633331e6 0.0
0.0 0.0 0.0

-3.054746932224081e6 1.174016596893818e7 0.0
1.174016596893818e7 4.0835714235414006e6 0.0
0.0 0.0 0.0

3.032440555786388e6 8.493582728029985e6 0.0
8.493582728029985e6 -1.2039168216109114e7 0.0
0.0 0.0 0.0

-1.8811535281800653e6 1.1774555887031086e7 0.0
1.1774555887031086e7 -1.5603264453338296e6 0.0
0.0 0.0 0.0

-8.753379954287523e6 1.7645200457602732e7 0.0
1.7645200457602732e7 5.805884453617379e6 0.0
0.0 0.0 0.0

-2.486556589605962e6 1.2165600455025824e7 0.0
1.2165600455025824e7 4.411345291976677e6 0.0
0.0 0.0 0.0

7.929848084971072e6 1.6926835577217367e7 0.0
1.6926835577217367e7 2.6432806798708044e7 0.0
0.0 0.0 0.0

-4.437459690514594e6 1.3852034435450185e7 0.0
1.3852034435450185e7 -1.4791523663830463e7 0.0
0.0 0.0 0.0

-3.5675042760423766e6 9.608371451389303e6 0.0
9.608371451389303e6 231890.22241837461 0.0
0.0 0.0 0.0

-1.839545622618377e7 1.2017529656659327e7 0.0
1.2017529656659327e7 1.2783290555198014e7 0.0
0.0 0.0 0.0

-4.780161663719144e6 1.2152926616181603e7 0.0
1.2152926616181603e7 607564.6246917329 0.0
0.0 0.0 0.0

-2.5279343764696633e6 1.190849003053399e7 0.0
1.190849003053399e7 3.172304234281717e6 0.0
0.0 0.0 0.0

-3.427527091986555e6 1.2385386057614202e7 0.0
1.2385386057614202e7 5.649037087089494e6 0.0
0.0 0.0 0.0

-1.6855112126332708e6 1.4351327277241953e7 0.0
1.4351327277241953e7 1.2165140159788147e7 0.0
0.0 0.0 0.0

1.102922042524296e6 9.734603054612214e6 0.0
9.734603054612214e6 2.207342039555605e6 0.0
0.0 0.0 0.0

-231697.32917019166 1.2099300029385742e7 0.0
1.2099300029385742e7 3.6861682595713898e6 0.0
0.0 0.0 0.0

-2.8017510407910696e6 1.4478070803254077e7 0.0
1.4478070803254077e7 -3.2108554158726092e6 0.0
0.0 0.0 0.0

-1.8747303723287648e6 1.15725629405476e7 0.0
1.15725629405476e7 2.7236753923555636e6 0.0
0.0 0.0 0.0

-3.055876487465822e6 1.14910822417589e7 0.0
1.14910822417589e7 4.169676816123466e6 0.0
0.0 0.0 0.0

-6.79696439555335e6 1.6182841431067217e7 0.0
1.6182841431067217e7 3.4600787550220555e6 0.0
0.0 0.0 0.0

-2.7207895630661924e6 1.0243571724164229e7 0.0
1.0243571724164229e7 4.445538255134968e6 0.0
0.0 0.0 0.0

3.290963051157843e6 5.546653870819905e6 0.0
5.546653870819905e6 -9.130229148608385e6 0.0
0.0 0.0 0.0

-6.7833681345199775e6 7.47533006853091e6 0.0
7.47533006853091e6 6.376138032348026e6 0.0
0.0 0.0 0.0

-4.292037481378441e6 -3.1230512711292105e6 0.0
-3.1230512711292105e6 7.669825508115031e6 0.0
0.0 0.0 0.0

-5.202912584291327e6 1.1370255681798913e7 0.0
1.1370255681798913e7 6.4044287371993065e6 0.0
0.0 0.0 0.0

-6.320337483892383e6 1.4259840666368289e7 0.0
1.4259840666368289e7 3.3888492868521945e6 0.0
0.0 0.0 0.0

402204.20742948866 1.3838265672050718e7 0.0
1.3838265672050718e7 6.384212715622611e6 0.0
0.0 0.0 0.0

-1.0718341006083651e6 1.190851357634856e7 0.0
1.190851357634856e7 3.0169357785906172e6 0.0
0.0 0.0 0.0

-6.68893756888752e6 1.2953959699370028e7 0.0
1.2953959699370028e7 5.637369267229779e6 0.0
0.0 0.0 0.0

1.7474637417793078e6 4.972294526681078e6 0.0
4.972294526681078e6 -5.816662874536985e6 0.0
0.0 0.0 0.0

-5.730874822884552e6 1.325356528394645e7 0.0
1.325356528394645e7 1.7061911074377762e6 0.0
0.0 0.0 0.0

1.5693729951814828e6 8.061421676780411e6 0.0
8.061421676780411e6 -7.244423492194181e6 0.0
0.0 0.0 0.0

-6.652634638379081e6 1.2968696953010814e7 0.0
1.2968696953010814e7 5.000877305932306e6 0.0
0.0 0.0 0.0

-4.0557707738565872e6 1.5302587744540427e7 0.0
1.5302587744540427e7 -2.0074710001493613e6 0.0
0.0 0.0 0.0

-4.1189230930503155e6 1.219246944225778e7 0.0
1.219246944225778e7 1.0427161460622777e6 0.0
0.0 0.0 0.0

5.39529171631643e6 5.859282584166231e6 0.0
5.859282584166231e6 -1.4475725160976902e7 0.0
0.0 0.0 0.0

2.5371258755403254e6 1.0281525699576374e7 0.0
1.0281525699576374e7 -2.752124356336344e6 0.0
0.0 0.0 0.0

-5.304367493181755e6 1.416167193841181e7 0.0
1.416167193841181e7 1.5356013095883203e6 0.0
0.0 0.0 0.0

-3.6301927878696e6 1.2873672984840782e7 0.0
1.2873672984840782e7 -1.0864409203564564e6 0.0
0.0 0.0 0.0

633279.6654095915 1.0320150550746685e7 0.0
1.0320150550746685e7 -7.378864395701959e6 0.0
0.0 0.0 0.0

2.3214010757915284e6 5.805465585856079e6 0.0
5.805465585856079e6 -8.471072574227005e6 0.0
0.0 0.0 0.0

-5.656183103719425e6 1.0772930240206484e7 0.0
1.0772930240206484e7 3.3614030323299966e6 0.0
0.0 0.0 0.0

1.7745180610226654e6 9.489767392083384e6 0.0
9.489767392083384e6 -1.0830311837599516e7 0.0
0.0 0.0 0.0

-7.106132294796091e6 -5.044529911812335e6 0.0
-5.044529911812335e6 9.344701839093992e6 0.0
0.0 0.0 0.0

-6.899002837304734e6 9.883758480076749e6 0.0
9.883758480076749e6 7.372026917524972e6 0.0
0.0 0.0 0.0

-7.861590336979948e6 1.1842662753859228e7 0.0
1.1842662753859228e7 3.665089818629479e6 0.0
0.0 0.0 0.0

5.82672558254665e6 7.85506253449398e6 0.0
7.85506253449398e6 -1.8842096642414365e7 0.0
0.0 0.0 0.0

-1.025004526142205e7 8.81099014180227e6 0.0
8.81099014180227e6 1.358711469587271e7 0.0
0.0 0.0 0.0

-3.449887296221473e6 1.1730944900873417e7 0.0
1.1730944900873417e7 5.407478537867105e6 0.0
0.0 0.0 0.0

-7.518297366437087e6 1.11126858397113e7 0.0
1.11126858397113e7 9.805610810360096e6 0.0
0.0 0.0 0.0

-3.5457160844311463e6 1.0467664445207303e7 0.0
1.0467664445207303e7 437768.9375796609 0.0
0.0 0.0 0.0

-6.685539969650006e6 9.48281806896249e6 0.0
9.48281806896249e6 5.238900975170344e6 0.0
0.0 0.0 0.0

746949.667462361 1.005824486992518e7 0.0
1.005824486992518e7 -6.742619781792227e6 0.0
0.0 0.0 0.0

197902.2686686339 9.867504939708676e6 0.0
9.867504939708676e6 -7.292122885628502e6 0.0
0.0 0.0 0.0

3.5762979877837216e6 8.478236995896846e6 0.0
8.478236995896846e6 -1.3690057025018822e7 0.0
0.0 0.0 0.0

-5.323677460253767e6 -3.580638136296031e6 0.0
-3.580638136296031e6 9.135928418766653e6 0.0
0.0 0.0 0.0

-4.432236536364084e6 -8.48629436404288e6 0.0
-8.48629436404288e6 1.3795789226786485e7 0.0
0.0 0.0 0.0

-3.8782335358436545e6 1.2361855334916338e7 0.0
1.2361855334916338e7 1.696087114154543e6 0.0
0.0 0.0 0.0

-1.7432938914099913e6 1.24776469204212e7 0.0
1.24776469204212e7 -4.033547713589206e6 0.0
0.0 0.0 0.0

-6.550203961470982e6 1.1971987719853666e7 0.0
1.1971987719853666e7 1.2479678392331008e7 0.0
0.0 0.0 0.0

800258.3776475112 9.765540548382577e6 0.0
9.765540548382577e6 -5.911012135183521e6 0.0
0.0 0.0 0.0

-1.651940897529209e6 1.4085229003417676e7 0.0
1.4085229003417676e7 -3.9653798829872115e6 0.0
0.0 0.0 0.0

-6.4492056127975695e6 1.1630469610043613e7 0.0
1.1630469610043613e7 4.684495305297248e6 0.0
0.0 0.0 0.0

-1.0519971068314973e6 1.3171319917838336e6 0.0
1.3171319917838336e6 1.4578598505742126e6 0.0
0.0 0.0 0.0

-7.383690350288412e6 2.356142864434271e7 0.0
2.356142864434271e7 2.727839916437232e6 0.0
0.0 0.0 0.0

840003.7603437542 1.1291625240037624e7 0.0
1.1291625240037624e7 -6.207160341666477e6 0.0
0.0 0.0 0.0

141513.34254251048 1.1395837314727472e7 0.0
1.1395837314727472e7 -1.3154158447977701e7 0.0
0.0 0.0 0.0

3.8461246573515637e6 5.724247838476324e6 0.0
5.724247838476324e6 -1.0409439701705432e7 0.0
0.0 0.0 0.0

-436990.63369487436 1.1545470330402853e7 0.0
1.1545470330402853e7 -1.9159997444127197e6 0.0
0.0 0.0 0.0

-7.117827444758587e6 9.404695123582609e6 0.0
9.404695123582609e6 8.2653061194089595e6 0.0
0.0 0.0 0.0

-1.4922066355495013e7 3.9515192615521606e6 0.0
3.9515192615521606e6 9.66864236517836e6 0.0
0.0 0.0 0.0

-2.483773935588128e6 1.2981176269873546e7 0.0
1.2981176269873546e7 303815.2571460904 0.0
0.0 0.0 0.0

-545804.0072676663 1.1792189554882726e7 0.0
1.1792189554882726e7 2.783483084584659e6 0.0
0.0 0.0 0.0

337682.4100436033 1.013509181675831e7 0.0
1.013509181675831e7 -7.612363891070753e6 0.0
0.0 0.0 0.0

-1.4572882538331244e6 2.0591209730032845e6 0.0
2.0591209730032845e6 1.6918840998227964e6 0.0
0.0 0.0 0.0

-2.728754862782019e6 1.0713855376394717e7 0.0
1.0713855376394717e7 -2.4881796103443783e6 0.0
0.0 0.0 0.0

-811221.8905010048 1.1793397111731846e7 0.0
1.1793397111731846e7 -202870.58804914623 0.0
0.0 0.0 0.0

-2.0281755586510552e6 1.1773589547027694e7 0.0
1.1773589547027694e7 2.9951872455687067e6 0.0
0.0 0.0 0.0

-1.0092969288978968e6 1.0905987845647719e7 0.0
1.0905987845647719e7 -5.9102806927040145e6 0.0
0.0 0.0 0.0

-4.726906690380668e6 1.1524098842210194e7 0.0
1.1524098842210194e7 6.647785064101794e6 0.0
0.0 0.0 0.0

853724.5625914235 8.66178429331421e6 0.0
8.66178429331421e6 -2.7778776695326986e6 0.0
0.0 0.0 0.0

-1.3455290511594764e6 1.254317414863434e7 0.0
1.254317414863434e7 -4.535639906393185e6 0.0
0.0 0.0 0.0

2.366219761065022e6 1.0731490991505533e7 0.0
1.0731490991505533e7 -4.228033298118545e6 0.0
0.0 0.0 0.0

1.4699739446077133e6 9.217722231724212e6 0.0
9.217722231724212e6 -9.678775824873367e6 0.0
0.0 0.0 0.0

-5.968022227272045e6 1.1354956925273674e7 0.0
1.1354956925273674e7 6.878279916440258e6 0.0
0.0 0.0 0.0

-1.6408990915074882e6 9.275874461874802e6 0.0
9.275874461874802e6 -2.6217860700853476e6 0.0
0.0 0.0 0.0

-2.461186521969248e7 1.2429979700590316e7 0.0
1.2429979700590316e7 1.1078016465029942e7 0.0
0.0 0.0 0.0

-5.805320867323959e6 1.327511860486707e7 0.0
1.327511860486707e7 1.6167702183345228e7 0.0
0.0 0.0 0.0

4.1754836096788803e6 5.361350332381695e6 0.0
5.361350332381695e6 -1.1407461110633777e7 0.0
0.0 0.0 0.0

-3.806345202675311e6 -7.529175588715018e6 0.0
-7.529175588715018e6 1.2424391546751872e7 0.0
0.0 0.0 0.0

866708.8953698156 1.0688683961772444e7 0.0
1.0688683961772444e7 -1.2521505994471136e7 0.0
0.0 0.0 0.0

1.0410227103424333e6 1.049780692147121e7 0.0
1.049780692147121e7 -1.0107272042138044e7 0.0
0.0 0.0 0.0

-1.021755740706028e6 1.2290096662736913e7 0.0
1.2290096662736913e7 -884245.954049492 0.0
0.0 0.0 0.0

-1.0804436307167053e7 1.3569857573870217e7 0.0
1.3569857573870217e7 4.949966210130804e6 0.0
0.0 0.0 0.0

-7.513414576994579e6 9.75736815926115e6 0.0
9.75736815926115e6 8.540428480581027e6 0.0
0.0 0.0 0.0

-923562.1701583347 1.2543412777593298e7 0.0
1.2543412777593298e7 -5.055389461776858e6 0.0
0.0 0.0 0.0

-1.0511350979362996e7 -8.088174742561879e6 0.0
-8.088174742561879e6 2.56103523293999e7 0.0
0.0 0.0 0.0

-7.306183959429064e6 8.511773111255344e6 0.0
8.511773111255344e6 8.93610444025621e6 0.0
0.0 0.0 0.0

6.115668036285391e6 7.0172830376559e6 0.0
7.0172830376559e6 -1.839621872455627e7 0.0
0.0 0.0 0.0

-6.879528054994624e6 1.3973653632675018e7 0.0
1.3973653632675018e7 4.294671467751896e6 0.0
0.0 0.0 0.0

5.8082673762911325e6 6.161286779823316e6 0.0
6.161286779823316e6 -1.675411313535505e7 0.0
0.0 0.0 0.0

-2.1451828779527564e7 1.722225638177755e7 0.0
1.722225638177755e7 1.2889817260421252e7 0.0
0.0 0.0 0.0

-1.1047864648350948e7 -7.439955803244087e6 0.0
-7.439955803244087e6 2.7855498552907035e7 0.0
0.0 0.0 0.0

1.8788780798699213e6 9.301022688418472e6 0.0
9.301022688418472e6 -9.567835360828066e6 0.0
0.0 0.0 0.0

-6.925099785832526e6 1.2278072581581885e7 0.0
1.2278072581581885e7 3.7010510386971836e6 0.0
0.0 0.0 0.0

-2.0877860549308196e7 9.890924930244286e6 0.0
9.890924930244286e6 3.313189112978519e6 0.0
0.0 0.0 0.0

6.000729066789145e6 6.56516960116994e6 0.0
6.56516960116994e6 -1.7727348134584084e7 0.0
0.0 0.0 0.0

-5.229752803680021e6 1.13807254237686e7 0.0
1.13807254237686e7 2.448146342524574e6 0.0
0.0 0.0 0.0

-6.641519949587714e6 1.1384858721319847e7 0.0
1.1384858721319847e7 6.847850143076358e6 0.0
0.0 0.0 0.0

893127.1920985337 1.0878997830089869e7 0.0
1.0878997830089869e7 6.160156504044466e6 0.0
0.0 0.0 0.0

899728.6446404927 1.0626310517313484e7 0.0
1.0626310517313484e7 -9.395155514454631e6 0.0
0.0 0.0 0.0

731086.1464510201 1.0680473474928742e7 0.0
1.0680473474928742e7 -9.692519940079851e6 0.0
0.0 0.0 0.0

-4.0979401628326476e6 1.262009416608383e7 0.0
1.262009416608383e7 -1.4944466768692974e6 0.0
0.0 0.0 0.0

-7.193417351431205e6 1.41914488235391e7 0.0
1.41914488235391e7 4.630910599017559e6 0.0
0.0 0.0 0.0

-1.0165733325647842e7 3.7557283598404736e6 0.0
3.7557283598404736e6 1.326312432763945e7 0.0
0.0 0.0 0.0

5.584153373949841e6 5.980583305509744e6 0.0
5.980583305509744e6 -1.5419359915166989e7 0.0
0.0 0.0 0.0

-1.092650930337797e7 1.370427438738434e7 0.0
1.370427438738434e7 8.4142162324537e6 0.0
0.0 0.0 0.0

1.9285672726074453e6 6.04349792789958e6 0.0
6.04349792789958e6 -6.852215072096899e6 0.0
0.0 0.0 0.0

695467.2997852084 1.0877182821621573e7 0.0
1.0877182821621573e7 -8.142542130266149e6 0.0
0.0 0.0 0.0

5.657741285183783e6 6.146425570996154e6 0.0
6.146425570996154e6 -1.578921700125467e7 0.0
0.0 0.0 0.0

613145.7111984855 1.0777781177838387e7 0.0
1.0777781177838387e7 -9.268796832015533e6 0.0
0.0 0.0 0.0

-1.1549480812315516e7 1.8203122790120107e6 0.0
1.8203122790120107e6 1.4917550226260344e7 0.0
0.0 0.0 0.0

1.8842985664733488e6 4.628378760229721e6 0.0
4.628378760229721e6 -4.418509532595246e6 0.0
0.0 0.0 0.0

-3.19465675560153e6 8.75878559188048e6 0.0
8.75878559188048e6 -20157.093048357987 0.0
0.0 0.0 0.0

-1.915335341920659e6 1.2484655318610447e7 0.0
1.2484655318610447e7 4.898336098380792e6 0.0
0.0 0.0 0.0

4.556067015501233e6 5.293014436763614e6 0.0
5.293014436763614e6 -1.2378614857229155e7 0.0
0.0 0.0 0.0

-6.166854809068951e6 1.2641139211577296e7 0.0
1.2641139211577296e7 5.7165657423384935e6 0.0
0.0 0.0 0.0

-5.728318527433161e6 -2.0484313577462174e6 0.0
-2.0484313577462174e6 8.916454246165246e6 0.0
0.0 0.0 0.0

793909.7072051088 9.374071823899686e6 0.0
9.374071823899686e6 -3.1797649377150354e6 0.0
0.0 0.0 0.0

1.217215819868988e6 9.417016066628309e6 0.0
9.417016066628309e6 -9.24822218584988e6 0.0
0.0 0.0 0.0

-4.374457472685255e6 1.1507692071754681e7 0.0
1.1507692071754681e7 5.720045893258238e6 0.0
0.0 0.0 0.0

-4.195176855414726e6 1.2658835295364987e7 0.0
1.2658835295364987e7 7.6881368278274285e6 0.0
0.0 0.0 0.0

-613860.0419290105 1.146216507970966e7 0.0
1.146216507970966e7 -1.9214143553289578e6 0.0
0.0 0.0 0.0

-3.4733030828189636e6 1.2483257106481386e7 0.0
1.2483257106481386e7 -1.3095050916043348e6 0.0
0.0 0.0 0.0

-6.381275432687884e6 1.205994828777085e7 0.0
1.205994828777085e7 4.307483130760718e6 0.0
0.0 0.0 0.0

-648996.1068865398 1.1931644064011872e7 0.0
1.1931644064011872e7 -1.4528835508114297e6 0.0
0.0 0.0 0.0

5.70341191026788e6 5.82096308454924e6 0.0
5.82096308454924e6 -1.8675254793637234e6 0.0
0.0 0.0 0.0

-9.934020753220296e6 -8.43794469750081e6 0.0
-8.43794469750081e6 2.3406831818903275e7 0.0
0.0 0.0 0.0

-336049.70958739775 9.952818284436991e6 0.0
9.952818284436991e6 4.227500854042733e6 0.0
0.0 0.0 0.0

-5.54382172111535e6 -8.640358464218974e6 0.0
-8.640358464218974e6 1.570760128761243e7 0.0
0.0 0.0 0.0

-723876.8516354577 1.2054706446706546e7 0.0
1.2054706446706546e7 -812822.7612708358 0.0
0.0 0.0 0.0

-1.4035783009589907e7 4.756450318925865e6 0.0
4.756450318925865e6 2.0086935263505794e7 0.0
0.0 0.0 0.0

-2.9898215963686914e6 8.62531429843652e6 0.0
8.62531429843652e6 686916.9765695434 0.0
0.0 0.0 0.0

3.6660242059103623e6 4.265716631789791e6 0.0
4.265716631789791e6 -5.108841935902278e6 0.0
0.0 0.0 0.0

2.916792651398812e6 4.958900518967907e6 0.0
4.958900518967907e6 -4.503822027807798e6 0.0
0.0 0.0 0.0

-978248.9723054323 1.23476064678214e7 0.0
1.23476064678214e7 -5.09028780489573e6 0.0
0.0 0.0 0.0

-3.155240139843873e6 1.2376746814799303e7 0.0
1.2376746814799303e7 84771.758107626 0.0
0.0 0.0 0.0

-368884.9714595706 1.2550184375921834e7 0.0
1.2550184375921834e7 -5.471699985306999e6 0.0
0.0 0.0 0.0

-1.0596140260521691e7 2.9971793668986466e6 0.0
2.9971793668986466e6 1.2357107782266907e7 0.0
0.0 0.0 0.0

537125.5733462246 1.0541200337522712e7 0.0
1.0541200337522712e7 -7.938566217984421e6 0.0
0.0 0.0 0.0

1.6838846036908599e6 9.29891225186269e6 0.0
9.29891225186269e6 -1.0241914959935114e7 0.0
0.0 0.0 0.0

-5.898705269150844e6 1.2680246634982709e7 0.0
1.2680246634982709e7 5.530984630853454e6 0.0
0.0 0.0 0.0

976180.801757175 9.347753686988248e6 0.0
9.347753686988248e6 -8.612633533610554e6 0.0
0.0 0.0 0.0

-4.486030449950765e7 1.5866430294863505e7 0.0
1.5866430294863505e7 7.788953734754052e6 0.0
0.0 0.0 0.0

-616621.9860099847 1.0752851306767458e7 0.0
1.0752851306767458e7 -6.425142932217556e6 0.0
0.0 0.0 0.0

-1.0270159509947967e7 1.625856938450979e7 0.0
1.625856938450979e7 7.090135210144326e6 0.0
0.0 0.0 0.0

-478973.33339213685 8.631658545756606e6 0.0
8.631658545756606e6 25600.812341942976 0.0
0.0 0.0 0.0

-5.692376461458713e6 1.0638269934789978e7 0.0
1.0638269934789978e7 7.044487231367614e6 0.0
0.0 0.0 0.0

-3.0330400659794025e6 1.206134616657805e7 0.0
1.206134616657805e7 -20055.48892127548 0.0
0.0 0.0 0.0

-5.399514726386853e6 1.9767202678378083e7 0.0
1.9767202678378083e7 -812197.1415830215 0.0
0.0 0.0 0.0

-5.065010603940012e6 -6.8298750876871385e6 0.0
-6.8298750876871385e6 1.21233081288153e7 0.0
0.0 0.0 0.0

4.287633577688479e6 5.340833665331991e6 0.0
5.340833665331991e6 -1.1701967901229348e7 0.0
0.0 0.0 0.0

-4.0156371753203603e6 1.2257336964684146e7 0.0
1.2257336964684146e7 -144909.0307387691 0.0
0.0 0.0 0.0

-670083.1612527005 2.329329334790508e6 0.0
2.329329334790508e6 -848107.1438863382 0.0
0.0 0.0 0.0

5.246667930007065e6 5.7703985784673e6 0.0
5.7703985784673e6 -1.4148034217104807e7 0.0
0.0 0.0 0.0

-9.044610293673808e6 -8.963512322711818e6 0.0
-8.963512322711818e6 2.194707006568206e7 0.0
0.0 0.0 0.0

-4.813000546884828e6 -1.9979095072353932e6 0.0
-1.9979095072353932e6 6.721530699048311e6 0.0
0.0 0.0 0.0

390398.51347138826 9.247726515987989e6 0.0
9.247726515987989e6 -5.198888292742056e6 0.0
0.0 0.0 0.0

-4.242159394529186e6 -6.747982959472153e6 0.0
-6.747982959472153e6 1.2364052911427625e7 0.0
0.0 0.0 0.0

4.392233980536315e6 5.362529281232632e6 0.0
5.362529281232632e6 -1.1974001118249409e7 0.0
0.0 0.0 0.0

5.16300136799336e6 5.757858811415777e6 0.0
5.757858811415777e6 -1.3715478242242865e7 0.0
0.0 0.0 0.0

-8.152986854176908e6 -9.423518359302986e6 0.0
-9.423518359302986e6 2.0381980845351905e7 0.0
0.0 0.0 0.0

-3.0818799549686057e6 1.070076916741386e7 0.0
1.070076916741386e7 -857506.3183815092 0.0
0.0 0.0 0.0

-938076.4219294592 1.2068252152249044e7 0.0
1.2068252152249044e7 -5.254483661186643e6 0.0
0.0 0.0 0.0

-6.172212926371571e6 1.2302515720899839e7 0.0
1.2302515720899839e7 4.694828485607998e6 0.0
0.0 0.0 0.0

5.054378932878652e6 5.700043797964697e6 0.0
5.700043797964697e6 -1.3436666351176254e7 0.0
0.0 0.0 0.0

-7.443823865772561e6 -9.518432605715565e6 0.0
-9.518432605715565e6 1.8622326606034264e7 0.0
0.0 0.0 0.0

718677.5971045832 9.446305666579468e6 0.0
9.446305666579468e6 -4.868726563531775e6 0.0
0.0 0.0 0.0

1.1751605783693534e6 9.654550793701312e6 0.0
9.654550793701312e6 -8.141504769780302e6 0.0
0.0 0.0 0.0

-4.9420275171451755e6 1.2780589725057412e7 0.0
1.2780589725057412e7 1.5077937640521391e6 0.0
0.0 0.0 0.0

-3.6759766205849024e6 1.0451128549453797e7 0.0
1.0451128549453797e7 7290.158212236594 0.0
0.0 0.0 0.0

-6.848240933595501e6 1.0927909014464915e7 0.0
1.0927909014464915e7 8.305909295064352e6 0.0
0.0 0.0 0.0

-6.541683186027114e6 -9.076566833196254e6 0.0
-9.076566833196254e6 1.692935681181827e7 0.0
0.0 0.0 0.0

4.94556110600965e6 5.610675422798663e6 0.0
5.610675422798663e6 -1.3047411345843364e7 0.0
0.0 0.0 0.0

-5.8296345198807325e6 1.5242711767028876e7 0.0
1.5242711767028876e7 278267.52976130997 0.0
0.0 0.0 0.0

-6.452302843436102e6 1.285605919589624e7 0.0
1.285605919589624e7 1.4907608820901768e7 0.0
0.0 0.0 0.0

1.4370695235100457e7 2.994546631787171e7 0.0
2.994546631787171e7 -2.966453764660745e7 0.0
0.0 0.0 0.0

-340715.97816881957 7.674444296481265e6 0.0
7.674444296481265e6 -4.265671817755155e6 0.0
0.0 0.0 0.0

-6.726365983463696e6 1.372696668205301e7 0.0
1.372696668205301e7 4.53203463562901e6 0.0
0.0 0.0 0.0

-431874.0335830594 3.4411699840079667e6 0.0
3.4411699840079667e6 -1.9630567721096887e6 0.0
0.0 0.0 0.0

-6.156844170695346e6 1.256240388853905e7 0.0
1.256240388853905e7 4.549983534011937e6 0.0
0.0 0.0 0.0

2.303409946552573e6 5.606835348433168e6 0.0
5.606835348433168e6 -4.792411641325851e6 0.0
0.0 0.0 0.0

-1.437879829458258e6 1.5418269505913727e7 0.0
1.5418269505913727e7 -4.107928107861623e6 0.0
0.0 0.0 0.0

-2.7400974258454316e6 1.381528762357235e7 0.0
1.381528762357235e7 -2.327695513222025e6 0.0
0.0 0.0 0.0

-6.287587786421322e6 7.9349674915910205e6 0.0
7.9349674915910205e6 4.6861621495038625e6 0.0
0.0 0.0 0.0

-685485.0508710822 1.2222590420830583e7 0.0
1.2222590420830583e7 -874901.4297236139 0.0
0.0 0.0 0.0

-1.0491864189084707e7 -5.809446687063939e6 0.0
-5.809446687063939e6 3.195076544292529e7 0.0
0.0 0.0 0.0

2.6005837791430913e6 6.300328881028262e6 0.0
6.300328881028262e6 -4.645268781409588e6 0.0
0.0 0.0 0.0

-2.1540531584893856e6 -1.162504175720498e6 0.0
-1.162504175720498e6 1.1004923998449356e6 0.0
0.0 0.0 0.0

292160.8270983024 -2.6555149410371296e6 0.0
-2.6555149410371296e6 -924116.6492473397 0.0
0.0 0.0 0.0

-2.486186409681159e6 1.4081283117715824e7 0.0
1.4081283117715824e7 -2.5692143005715e6 0.0
0.0 0.0 0.0

522261.5264878273 1.1206852523027131e7 0.0
1.1206852523027131e7 -1.2868805502456324e7 0.0
0.0 0.0 0.0

-2.3018388441705834e6 1.2667548359202724e7 0.0
1.2667548359202724e7 5.3198184886964355e6 0.0
0.0 0.0 0.0

-1.1263457268068725e6 1.131762009786035e7 0.0
1.131762009786035e7 -2.233431551258113e6 0.0
0.0 0.0 0.0

2.602641426012909e6 5.164473835032085e6 0.0
5.164473835032085e6 -8.429504992567306e6 0.0
0.0 0.0 0.0

-769272.2932840047 8.276038959828145e6 0.0
8.276038959828145e6 -4.690474827356855e6 0.0
0.0 0.0 0.0

531435.175338022 1.185011376540927e7 0.0
1.185011376540927e7 -6.779187348385185e6 0.0
0.0 0.0 0.0

851765.2362230648 1.0430891500142563e7 0.0
1.0430891500142563e7 -1.109689714737643e7 0.0
0.0 0.0 0.0

-5.241142352644181e6 1.319268265726573e7 0.0
1.319268265726573e7 1.7188586642618966e6 0.0
0.0 0.0 0.0

-5.149982283574769e6 1.1073967254865877e7 0.0
1.1073967254865877e7 6.781136010293996e6 0.0
0.0 0.0 0.0

16258.867191195022 8.684217557190733e6 0.0
8.684217557190733e6 -4.453232339960441e6 0.0
0.0 0.0 0.0

271047.8705485705 9.267792916593213e6 0.0
9.267792916593213e6 -1.628622356409322e6 0.0
0.0 0.0 0.0

-567305.1761021139 1.018451274112655e7 0.0
1.018451274112655e7 -8.851141740415875e6 0.0
0.0 0.0 0.0

-1.5003316799299855e7 1.0835741649938483e7 0.0
1.0835741649938483e7 9.477503663619785e6 0.0
0.0 0.0 0.0

-6.993783452235993e6 2.0816352249000024e7 0.0
2.0816352249000024e7 1.2179588039171975e6 0.0
0.0 0.0 0.0

2.5312246116819363e6 3.699731346154213e6 0.0
3.699731346154213e6 -3.654828469876482e6 0.0
0.0 0.0 0.0

3.0498778079233128e6 3.3417551370316185e6 0.0
3.3417551370316185e6 -4.340375177430522e6 0.0
0.0 0.0 0.0

-5.103639955572378e6 1.167722760675409e7 0.0
1.167722760675409e7 6.251316011391684e6 0.0
0.0 0.0 0.0

-4.249780422690401e6 1.1723971044894475e7 0.0
1.1723971044894475e7 -281480.3524857459 0.0
0.0 0.0 0.0

-7.050708872812733e6 1.4213402491217405e7 0.0
1.4213402491217405e7 5.104003347973611e6 0.0
0.0 0.0 0.0

-6.209916084228216e6 1.2808191959491542e7 0.0
1.2808191959491542e7 4.482240143765781e6 0.0
0.0 0.0 0.0

2.6177852725033863e6 9.765262028195735e6 0.0
9.765262028195735e6 1.4306544779221225e6 0.0
0.0 0.0 0.0

1.9120184412019646e6 1.1566006410145052e7 0.0
1.1566006410145052e7 -5.419588022719035e6 0.0
0.0 0.0 0.0

-6.175439869847822e6 1.2768356044424253e7 0.0
1.2768356044424253e7 1.5218705711554699e7 0.0
0.0 0.0 0.0

-1.799274213030388e7 1.3991579007900508e7 0.0
1.3991579007900508e7 3.0840149071333827e6 0.0
0.0 0.0 0.0

-5.2589079272937775e7 1.979088439880649e7 0.0
1.979088439880649e7 2.0556504503168233e7 0.0
0.0 0.0 0.0

-5.103534839585897e6 7.373197925631901e6 0.0
7.373197925631901e6 3.0406637015049825e6 0.0
0.0 0.0 0.0

-3.195961410850984e6 1.2010442881056145e7 0.0
1.2010442881056145e7 4.0237388726427103e6 0.0
0.0 0.0 0.0

1.7716238953747037e6 5.988067920754064e6 0.0
5.988067920754064e6 -7.335702713535473e6 0.0
0.0 0.0 0.0

-6.917900131811634e6 8.577062849351121e6 0.0
8.577062849351121e6 8.041350252028026e6 0.0
0.0 0.0 0.0

348201.26107973966 2.1992000057454766e6 0.0
2.1992000057454766e6 -1.9531294390196688e6 0.0
0.0 0.0 0.0

-1.6254903548575002e6 1.0485131452345701e7 0.0
1.0485131452345701e7 5.887329414950384e6 0.0
0.0 0.0 0.0

1.105012625495655e6 1.0389430074304465e7 0.0
1.0389430074304465e7 -1.1371192251961097e7 0.0
0.0 0.0 0.0

3.122846704609814e6 6.049069666447916e6 0.0
6.049069666447916e6 -9.229708885289423e6 0.0
0.0 0.0 0.0

2.0332317681672596e6 9.38202542540539e6 0.0
9.38202542540539e6 -190576.52652546554 0.0
0.0 0.0 0.0

-9.460937810788518e6 -207.32833226175092 0.0
-207.32833226175092 4.582345696001043e7 0.0
0.0 0.0 0.0

-7.053682626153245e6 1.3415019531466782e7 0.0
1.3415019531466782e7 5.872563748528231e6 0.0
0.0 0.0 0.0

-7.608696007986123e6 1.1496540816658411e7 0.0
1.1496540816658411e7 2.318880857413855e6 0.0
0.0 0.0 0.0

-2.5024395148331355e6 1.328906794881297e7 0.0
1.328906794881297e7 -2.9208915478012934e6 0.0
0.0 0.0 0.0

-2.6415210306729795e6 -429402.4606006107 0.0
-429402.4606006107 4.327208317346391e6 0.0
0.0 0.0 0.0

-1.1446241502382173e6 8.294752307790308e6 0.0
8.294752307790308e6 496236.8093958236 0.0
0.0 0.0 0.0

-5.417958505978015e6 -4.1845872571350397e6 0.0
-4.1845872571350397e6 1.0214611832420556e7 0.0
0.0 0.0 0.0

1.9183946404848895e6 1.0074421456380911e7 0.0
1.0074421456380911e7 -722232.0186989787 0.0
0.0 0.0 0.0

-4.169110167530838e6 1.1206273299498666e7 0.0
1.1206273299498666e7 1.394978400577742e6 0.0
0.0 0.0 0.0

3.5980275345954243e6 5.7892789907861035e6 0.0
5.7892789907861035e6 -9.91349389985642e6 0.0
0.0 0.0 0.0

-3.799088181433188e6 1.1157738306177333e7 0.0
1.1157738306177333e7 -9124.906501669902 0.0
0.0 0.0 0.0

2.2559980916559887e6 4.962249384550585e6 0.0
4.962249384550585e6 -7.033413558039711e6 0.0
0.0 0.0 0.0

160864.45566001907 1.0845129407234171e7 0.0
1.0845129407234171e7 -7.939484347637083e6 0.0
0.0 0.0 0.0

-1.0375720171043966e7 1.4969668979106845e7 0.0
1.4969668979106845e7 8.167357925296297e6 0.0
0.0 0.0 0.0

-520705.2322914325 6.906705489181656e6 0.0
6.906705489181656e6 -2.750759124377871e6 0.0
0.0 0.0 0.0

-3.7087785200292743e6 1.2482428268916849e7 0.0
1.2482428268916849e7 -2.10101876882044e6 0.0
0.0 0.0 0.0

-8.742511758698218e6 1.4822392770113647e7 0.0
1.4822392770113647e7 6.550034517583243e6 0.0
0.0 0.0 0.0

-6.191475928390986e6 1.2105604069761595e7 0.0
1.2105604069761595e7 4.942292734396558e6 0.0
0.0 0.0 0.0

-6.305646708249889e6 1.2548117742523376e7 0.0
1.2548117742523376e7 4.0548112183982413e6 0.0
0.0 0.0 0.0

-8.328803681990471e6 1.5654543572309187e7 0.0
1.5654543572309187e7 5.221843646897918e6 0.0
0.0 0.0 0.0

-2.65024896262136e6 1.2276452540719924e7 0.0
1.2276452540719924e7 -2.5703675379534136e6 0.0
0.0 0.0 0.0

-1.0874419631117763e7 1.6444199063477114e7 0.0
1.6444199063477114e7 7.691726580987786e6 0.0
0.0 0.0 0.0

-4.0004912902619094e6 5.897472153342999e6 0.0
5.897472153342999e6 2.1039311610585432e6 0.0
0.0 0.0 0.0

-101277.80940334778 8.698937610326877e6 0.0
8.698937610326877e6 -5.741897649963101e6 0.0
0.0 0.0 0.0

-2.1719951585097387e6 1.6543369384892338e6 0.0
1.6543369384892338e6 957079.0705554825 0.0
0.0 0.0 0.0

-6.092250051267323e6 1.2349073029098133e7 0.0
1.2349073029098133e7 4.441510650009068e6 0.0
0.0 0.0 0.0

-9.549833322562844e6 -6.565780687717573e6 0.0
-6.565780687717573e6 1.7949881477240026e7 0.0
0.0 0.0 0.0

-6.413760688689539e6 1.5546515396339217e7 0.0
1.5546515396339217e7 1.113791119004169e6 0.0
0.0 0.0 0.0

623574.2823581444 1.074255944294346e7 0.0
1.074255944294346e7 -7.79230654934045e6 0.0
0.0 0.0 0.0

-1.1629130817581643e6 9.568155429071235e6 0.0
9.568155429071235e6 1.4933345631215852e6 0.0
0.0 0.0 0.0

-1.834815820708598e6 9.11533954386002e6 0.0
9.11533954386002e6 -3.2206035729615274e6 0.0
0.0 0.0 0.0

1.8655175597810014e6 9.805858447701795e6 0.0
9.805858447701795e6 -1.0227467096505843e7 0.0
0.0 0.0 0.0

1.8225399629849365e6 5.0129736707016425e6 0.0
5.0129736707016425e6 -5.744664529488095e6 0.0
0.0 0.0 0.0

-2.0627611270231202e6 1.4277370441772249e7 0.0
1.4277370441772249e7 -2.901578112732373e6 0.0
0.0 0.0 0.0

-688455.4610705716 1.1913716580883704e7 0.0
1.1913716580883704e7 225766.39014912627 0.0
0.0 0.0 0.0

-3.415337958747354e6 1.0281689053057672e7 0.0
1.0281689053057672e7 -424397.449214412 0.0
0.0 0.0 0.0

5.456543296358998e6 5.866222792556376e6 0.0
5.866222792556376e6 -1.4957343714201763e7 0.0
0.0 0.0 0.0

-3.1009382362051364e6 3.4003805779178287e6 0.0
3.4003805779178287e6 2.6926413389963284e6 0.0
0.0 0.0 0.0

5.037381559194979e6 6.5643360498164315e6 0.0
6.5643360498164315e6 -1.5000968002832849e7 0.0
0.0 0.0 0.0

-241349.3732602924 2.29664456644648e6 0.0
2.29664456644648e6 -871060.7529206534 0.0
0.0 0.0 0.0

-4.316499141444613e6 1.1129796973472273e7 0.0
1.1129796973472273e7 769182.7104350748 0.0
0.0 0.0 0.0

-614656.9814206503 1.1978872537230464e7 0.0
1.1978872537230464e7 -236564.8491623334 0.0
0.0 0.0 0.0

-431053.7625197797 9.338335042840887e6 0.0
9.338335042840887e6 38079.79009531383 0.0
0.0 0.0 0.0

-4.79713553636389e6 7.491522183635769e6 0.0
7.491522183635769e6 3.9946183155216044e6 0.0
0.0 0.0 0.0

-4.352438316219222e6 -2.2326882257297263e6 0.0
-2.2326882257297263e6 6.297541891097531e6 0.0
0.0 0.0 0.0

-3.07652902385551e6 1.499395597215559e7 0.0
1.499395597215559e7 -1.5347786626420561e6 0.0
0.0 0.0 0.0

-5.14239248157943e6 1.1407076511802476e7 0.0
1.1407076511802476e7 7.764103131956743e6 0.0
0.0 0.0 0.0

1.7474568130343296e6 7.2961570652763015e6 0.0
7.2961570652763015e6 -8.25303142468836e6 0.0
0.0 0.0 0.0

-5.224778082124054e6 -1.8514442934103848e6 0.0
-1.8514442934103848e6 8.568909818780847e6 0.0
0.0 0.0 0.0

-2.5880227442633943e6 9.953841931297276e6 0.0
9.953841931297276e6 4.365854558244761e6 0.0
0.0 0.0 0.0

-9.207946900781654e6 9.711553881914947e6 0.0
9.711553881914947e6 1.6044030684975358e7 0.0
0.0 0.0 0.0

-1.6374538926863987e6 1.0087943887111502e7 0.0
1.0087943887111502e7 4.91724806197735e6 0.0
0.0 0.0 0.0

772718.1159509262 1.087844348932237e7 0.0
1.087844348932237e7 -1.2724003369982488e7 0.0
0.0 0.0 0.0

-5.539332774134986e6 1.0808984223177021e7 0.0
1.0808984223177021e7 7.264732831465992e6 0.0
0.0 0.0 0.0

-2.2046740301549695e6 1.1492970128174206e7 0.0
1.1492970128174206e7 3.696945452591273e6 0.0
0.0 0.0 0.0

-838564.4176433992 1.2659309688140584e7 0.0
1.2659309688140584e7 -5.052084821067286e6 0.0
0.0 0.0 0.0

-1.2599871334703162e6 1.2462829927325765e7 0.0
1.2462829927325765e7 -998444.3815760245 0.0
0.0 0.0 0.0

3.397275494302689e6 7.768297739398317e6 0.0
7.768297739398317e6 -1.270181111062132e7 0.0
0.0 0.0 0.0

3.6859280185274286e6 7.5025249224697165e6 0.0
7.5025249224697165e6 -1.3176130573006915e7 0.0
0.0 0.0 0.0

-1.3573555877996713e6 9.031391768469267e6 0.0
9.031391768469267e6 -3.093391461533371e6 0.0
0.0 0.0 0.0

-8.667225057989944e6 7.589172390430676e6 0.0
7.589172390430676e6 1.1571148061398555e7 0.0
0.0 0.0 0.0

-1.5359190257546848e6 1.2172010440842366e7 0.0
1.2172010440842366e7 -5.362900556125114e6 0.0
0.0 0.0 0.0

-1.1453388631455839e7 -2.9411833502131617e6 0.0
-2.9411833502131617e6 2.9847766213702463e7 0.0
0.0 0.0 0.0

604286.4963833676 6.8486789507703e6 0.0
6.8486789507703e6 -7.2272238572292905e6 0.0
0.0 0.0 0.0

-5.671467825988429e6 1.0100483151570376e7 0.0
1.0100483151570376e7 3.92133551946283e7 0.0
0.0 0.0 0.0

5.335155952231147e6 5.899486004565616e6 0.0
5.899486004565616e6 -1.4481879429773554e7 0.0
0.0 0.0 0.0

-3.0787103686835417e6 1.2895329187697748e7 0.0
1.2895329187697748e7 -2.2348048970495346e6 0.0
0.0 0.0 0.0

-2.9816322867916166e6 1.022014414635301e7 0.0
1.022014414635301e7 5.434538244047596e6 0.0
0.0 0.0 0.0

-169146.89565684507 1.1108534146700798e7 0.0
1.1108534146700798e7 -1.1779447205010153e7 0.0
0.0 0.0 0.0

-931524.3960286569 7.19399653361268e6 0.0
7.19399653361268e6 2.7020718365612845e6 0.0
0.0 0.0 0.0

-1.0384552062990745e6 1.211915227200934e7 0.0
1.211915227200934e7 -1.6174165811970877e6 0.0
0.0 0.0 0.0

-3.6672537222475354e6 1.0363047277590157e7 0.0
1.0363047277590157e7 5.520680462505642e6 0.0
0.0 0.0 0.0

-6.305925671622131e6 1.0795740306809686e7 0.0
1.0795740306809686e7 5.530049378798828e6 0.0
0.0 0.0 0.0

-3.7550014859522367e6 1.1993385678094035e7 0.0
1.1993385678094035e7 4.584760455490436e6 0.0
0.0 0.0 0.0

-267044.2370382678 7.873364719963953e6 0.0
7.873364719963953e6 -5.270727419692832e6 0.0
0.0 0.0 0.0

-8.963562876240015e6 6.472287710668879e6 0.0
6.472287710668879e6 1.0484070365185415e7 0.0
0.0 0.0 0.0

1.0603501494172267e6 1.0584591114760928e7 0.0
1.0584591114760928e7 -1.236235077828922e7 0.0
0.0 0.0 0.0

-1.0831360539124522e6 1.1704263930633225e7 0.0
1.1704263930633225e7 -1.8592796061437503e6 0.0
0.0 0.0 0.0

-3.660744944324474e6 1.2540499662188843e7 0.0
1.2540499662188843e7 2.5115879020793983e6 0.0
0.0 0.0 0.0

-213379.20996377245 7.745987493322663e6 0.0
7.745987493322663e6 -4.2605237147104945e6 0.0
0.0 0.0 0.0

-1.3066815447438836e7 2.0197513044817743e6 0.0
2.0197513044817743e6 4.250748463950056e7 0.0
0.0 0.0 0.0

155535.0937413955 1.1544692265467735e7 0.0
1.1544692265467735e7 -1.3013948748344744e7 0.0
0.0 0.0 0.0

-6.185390233821254e6 1.1136431643088657e7 0.0
1.1136431643088657e7 8.634119633765562e6 0.0
0.0 0.0 0.0

-7.436558156790033e6 1.4473073096913895e7 0.0
1.4473073096913895e7 4.882914998928843e6 0.0
0.0 0.0 0.0

1.676914974499557e6 1.2878482153506344e7 0.0
1.2878482153506344e7 5.228550557544368e6 0.0
0.0 0.0 0.0

-6.622568871377797e6 1.1808196382589847e7 0.0
1.1808196382589847e7 1.1651562356757026e7 0.0
0.0 0.0 0.0

-5.980260922014211e6 1.1489402896865387e7 0.0
1.1489402896865387e7 7.070185193014706e6 0.0
0.0 0.0 0.0

-392878.8875336242 9.207429345086452e6 0.0
9.207429345086452e6 -5.515465804454945e6 0.0
0.0 0.0 0.0

-1.667018554354115e6 1.1385711066611314e7 0.0
1.1385711066611314e7 -1.781613110850684e6 0.0
0.0 0.0 0.0

-6.512493810621199e6 8.897973036752231e6 0.0
8.897973036752231e6 4.845520713078493e6 0.0
0.0 0.0 0.0

-5.818298706897901e6 8.366270981063479e6 0.0
8.366270981063479e6 5.41742289232016e6 0.0
0.0 0.0 0.0

2.984860148480671e6 5.753995504395566e6 0.0
5.753995504395566e6 -9.304195624019926e6 0.0
0.0 0.0 0.0

-6.2938402541966215e6 1.2731108221024022e7 0.0
1.2731108221024022e7 5.850393809974142e6 0.0
0.0 0.0 0.0

-98685.41258334788 7.814430796972178e6 0.0
7.814430796972178e6 -3.8905148819359443e6 0.0
0.0 0.0 0.0

1.9836058922432824e6 5.271435958276425e6 0.0
5.271435958276425e6 -6.845310148051072e6 0.0
0.0 0.0 0.0

-6.299850110595334e6 1.470605589938396e7 0.0
1.470605589938396e7 1.3215808983168188e6 0.0
0.0 0.0 0.0

-4.199669179562062e6 1.077984168744771e7 0.0
1.077984168744771e7 6.751430222382339e6 0.0
0.0 0.0 0.0

-1.0582340071460003e7 -5.26341556528857e6 0.0
-5.26341556528857e6 2.373652893568047e7 0.0
0.0 0.0 0.0

113974.98429261439 1.0847149794942034e7 0.0
1.0847149794942034e7 3.4232297327774675e6 0.0
0.0 0.0 0.0

962583.0725924094 1.022390909506969e7 0.0
1.022390909506969e7 1.2972599039351742e6 0.0
0.0 0.0 0.0

421683.6942516072 1.1544504645181062e7 0.0
1.1544504645181062e7 -7.026249686064509e6 0.0
0.0 0.0 0.0

4.026329455019536e6 5.68806186471878e6 0.0
5.68806186471878e6 -1.146180668072855e7 0.0
0.0 0.0 0.0

-431722.06868113496 1.1023656378722437e7 0.0
1.1023656378722437e7 1.0071455309560271e6 0.0
0.0 0.0 0.0

190989.3017847687 1.1817176231940886e7 0.0
1.1817176231940886e7 -6.614087789658681e6 0.0
0.0 0.0 0.0

-1.6734434714973487e6 9.427837893103702e6 0.0
9.427837893103702e6 2.26892384521401e6 0.0
0.0 0.0 0.0

-2.040100821891576e6 4.409676053887941e6 0.0
4.409676053887941e6 928327.4279173972 0.0
0.0 0.0 0.0

-734.14734359266 2.217278822612238e6 0.0
2.217278822612238e6 -1.2291966921215993e6 0.0
0.0 0.0 0.0

-3.058176535145945e6 1.2252354950143652e7 0.0
1.2252354950143652e7 1.132332309370119e6 0.0
0.0 0.0 0.0

1.3803676377638322e6 9.989877363150325e6 0.0
9.989877363150325e6 -8.935738908585275e6 0.0
0.0 0.0 0.0

211541.4192620609 1.0337971649906693e7 0.0
1.0337971649906693e7 -8.182003799230717e6 0.0
0.0 0.0 0.0

-1.2562570533711247e7 -1.8842946761833678e6 0.0
-1.8842946761833678e6 4.1715483816010416e7 0.0
0.0 0.0 0.0

-1.172284806729152e7 1.6572398399090048e7 0.0
1.6572398399090048e7 8.16234440138839e6 0.0
0.0 0.0 0.0

580545.4717198869 7.3203062025818825e6 0.0
7.3203062025818825e6 -3.8836906442984077e6 0.0
0.0 0.0 0.0

-701988.6131074107 1.209725997647547e7 0.0
1.209725997647547e7 -603870.4005192843 0.0
0.0 0.0 0.0

-2.9748704600228867e6 1.0209026700572072e7 0.0
1.0209026700572072e7 3.9536604707523547e6 0.0
0.0 0.0 0.0

-7.472645919963611e6 7.899732643307914e6 0.0
7.899732643307914e6 1.0317270142302873e7 0.0
0.0 0.0 0.0

-5.634134667229341e6 1.2131229965609515e7 0.0
1.2131229965609515e7 3.245415190727244e6 0.0
0.0 0.0 0.0

-190995.22798718093 1.0233241510862557e7 0.0
1.0233241510862557e7 2.561382671789659e6 0.0
0.0 0.0 0.0

-2.4504570173209663e6 1.0235418723201368e7 0.0
1.0235418723201368e7 3.792142361480982e6 0.0
0.0 0.0 0.0

-53204.63379308069 1.1483332656724714e7 0.0
1.1483332656724714e7 -6.844375721364456e6 0.0
0.0 0.0 0.0

1.764501456584299e6 6.605125816475633e6 0.0
6.605125816475633e6 -5.7188997160749985e6 0.0
0.0 0.0 0.0

711492.8723426778 1.1438170324679261e7 0.0
1.1438170324679261e7 -7.560170001301963e6 0.0
0.0 0.0 0.0

-2.8808381506707347e6 1.222157898516149e7 0.0
1.222157898516149e7 -3.3209951558330003e6 0.0
0.0 0.0 0.0

-5.6874882491115015e6 1.1670585504939353e7 0.0
1.1670585504939353e7 4.015135740213225e6 0.0
0.0 0.0 0.0

-1.305873425818757e6 1.323067236405188e7 0.0
1.323067236405188e7 -4.305915887347781e6 0.0
0.0 0.0 0.0

-1.293946007308186e6 1.2897591515146889e7 0.0
1.2897591515146889e7 -4.7825003765405305e6 0.0
0.0 0.0 0.0

3.851187620484634e6 6.008720267607231e6 0.0
6.008720267607231e6 -1.0776967435038846e7 0.0
0.0 0.0 0.0

133625.04661029496 9.734491429016761e6 0.0
9.734491429016761e6 764469.8123253627 0.0
0.0 0.0 0.0

-3.314335901565791e6 1.233869363128985e7 0.0
1.233869363128985e7 -2.6135759056022223e6 0.0
0.0 0.0 0.0

-6.697654536724253e6 6.408146119115286e6 0.0
6.408146119115286e6 5.942219675881969e6 0.0
0.0 0.0 0.0

-3.1905392747726135e7 1.7372263413220327e7 0.0
1.7372263413220327e7 6.572379879929569e6 0.0
0.0 0.0 0.0

1.3893977380382843e7 2.1480706838602874e7 0.0
2.1480706838602874e7 4.631340539411473e7 0.0
0.0 0.0 0.0

-5.789534839230635e6 1.5587844553262997e7 0.0
1.5587844553262997e7 -1.9298497020881034e7 0.0
0.0 0.0 0.0

-5.276699105553092e6 1.073952943913342e7 0.0
1.073952943913342e7 7.213922649860648e6 0.0
0.0 0.0 0.0

495721.8687564349 9.699907643270003e6 0.0
9.699907643270003e6 -7.716544987716946e6 0.0
0.0 0.0 0.0

-2.7877931489987085e6 1.158173380481875e7 0.0
1.158173380481875e7 -599352.1038262765 0.0
0.0 0.0 0.0

-9.637698660818266e6 1.8357505531736758e7 0.0
1.8357505531736758e7 4.25061849082939e6 0.0
0.0 0.0 0.0

705444.3821799718 1.0786428940130785e7 0.0
1.0786428940130785e7 -8.802981651268786e6 0.0
0.0 0.0 0.0

-1.834616663660441e6 1.2671415569227356e7 0.0
1.2671415569227356e7 -324321.1907788464 0.0
0.0 0.0 0.0

-7.444548642816907e6 7.499239986808491e6 0.0
7.499239986808491e6 7.6800246120097535e6 0.0
0.0 0.0 0.0

-4.863755097382417e6 1.2455969672127374e7 0.0
1.2455969672127374e7 1.755939251627105e6 0.0
0.0 0.0 0.0

881460.0925915339 1.0506995147513125e7 0.0
1.0506995147513125e7 -1.0812342608496793e7 0.0
0.0 0.0 0.0

-936609.030862191 1.2214974891494963e7 0.0
1.2214974891494963e7 -1.0423096924389318e6 0.0
0.0 0.0 0.0

-6.888041825948902e6 1.123359640936792e7 0.0
1.123359640936792e7 6.013358552796846e6 0.0
0.0 0.0 0.0

4.303530147079485e6 1.2237702026028967e7 0.0
1.2237702026028967e7 -5.63266904241327e6 0.0
0.0 0.0 0.0

-549012.2122976154 8.948735428165924e6 0.0
8.948735428165924e6 891573.6376218203 0.0
0.0 0.0 0.0

-5.885443972438624e6 1.1134773855860718e7 0.0
1.1134773855860718e7 7.243089309927932e6 0.0
0.0 0.0 0.0

-8.490032991979795e6 1.0925370106339175e7 0.0
1.0925370106339175e7 1.5995613128838493e6 0.0
0.0 0.0 0.0

-1.0068766241400135e6 9.159552647498965e6 0.0
9.159552647498965e6 816900.9906748326 0.0
0.0 0.0 0.0

-6.4196551788421385e6 1.5130920007671025e7 0.0
1.5130920007671025e7 1.4395938198381606e6 0.0
0.0 0.0 0.0

-759859.2371755178 1.5272218572591402e7 0.0
1.5272218572591402e7 -3.8981829609472095e6 0.0
0.0 0.0 0.0

355165.6797737847 8.82106015729408e6 0.0
8.82106015729408e6 -5.903373654974523e6 0.0
0.0 0.0 0.0

-7.160040162398828e6 9.955848014642207e6 0.0
9.955848014642207e6 9.61335445740788e6 0.0
0.0 0.0 0.0

-15713.77846096037 1.1436850631993439e7 0.0
1.1436850631993439e7 -7.538248609059397e6 0.0
0.0 0.0 0.0

-3.0088049939667787e6 9.070372816624971e6 0.0
9.070372816624971e6 507341.8661108513 0.0
0.0 0.0 0.0

-7.125709912475161e6 8.943222068270193e6 0.0
8.943222068270193e6 6.044119436207176e6 0.0
0.0 0.0 0.0

1.3909203764475305e6 6.794356324834559e6 0.0
6.794356324834559e6 -5.2076572692674715e6 0.0
0.0 0.0 0.0

-834775.9747947077 1.1461805054232815e7 0.0
1.1461805054232815e7 823100.9818655421 0.0
0.0 0.0 0.0

-3.4320056774672964e6 1.4905576160007676e7 0.0
1.4905576160007676e7 -2.7021905438004322e6 0.0
0.0 0.0 0.0

3.6125654320839765e6 9.712803207264908e6 0.0
9.712803207264908e6 -1.5951665845677393e7 0.0
0.0 0.0 0.0

-6.136777444116181e6 6.238220404768711e6 0.0
6.238220404768711e6 4.880549653028496e6 0.0
0.0 0.0 0.0

-4.309662837473084e6 2.0272468673080176e7 0.0
2.0272468673080176e7 -2.803991729600882e6 0.0
0.0 0.0 0.0

3.970272082172284e6 7.445756142826107e6 0.0
7.445756142826107e6 -1.2244456151719697e7 0.0
0.0 0.0 0.0

-727093.2401047269 1.1459667149928471e7 0.0
1.1459667149928471e7 410010.03389197175 0.0
0.0 0.0 0.0

-3.005228656435257e6 1.371321551604925e7 0.0
1.371321551604925e7 -3.215970250228671e6 0.0
0.0 0.0 0.0

288557.45918192714 1.5879225413532011e7 0.0
1.5879225413532011e7 8.172878884308183e7 0.0
0.0 0.0 0.0

1.9011490404024366e6 1.4599511153570915e7 0.0
1.4599511153570915e7 -3.1058977502629206e7 0.0
0.0 0.0 0.0

6.903044872036858e6 1.2642335200502913e7 0.0
1.2642335200502913e7 3.3174278542599166e6 0.0
0.0 0.0 0.0

384926.56224169047 1.4913271429817969e7 0.0
1.4913271429817969e7 -5.097135398656231e6 0.0
0.0 0.0 0.0

67621.56432276266 7.546271680711149e6 0.0
7.546271680711149e6 -4.087469725368199e6 0.0
0.0 0.0 0.0

-1.2147410832040806e6 1.8962017366006307e7 0.0
1.8962017366006307e7 -4.291355173539323e6 0.0
0.0 0.0 0.0

-3.226096230395226e6 1.149686804912176e7 0.0
1.149686804912176e7 4.652292541800583e6 0.0
0.0 0.0 0.0

3.9402380787983183e6 1.1945486215826733e7 0.0
1.1945486215826733e7 -5.165701198600461e6 0.0
0.0 0.0 0.0

-6.520140306652016e6 1.140615972700739e7 0.0
1.140615972700739e7 4.912509301833808e6 0.0
0.0 0.0 0.0

-4.621902203333111e6 7.811819510942075e6 0.0
7.811819510942075e6 3.667506678191798e6 0.0
0.0 0.0 0.0

2.686492844398408e6 6.674099744673007e6 0.0
6.674099744673007e6 -4.887858739906039e6 0.0
0.0 0.0 0.0

-4.93959138994033e6 1.1458210970867243e7 0.0
1.1458210970867243e7 8.275296641023872e6 0.0
0.0 0.0 0.0

-4.802092764185792e6 1.285144668393879e7 0.0
1.285144668393879e7 233775.92241441342 0.0
0.0 0.0 0.0

-5.482466360990113e6 1.0576721794321982e7 0.0
1.0576721794321982e7 7.824848695233488e6 0.0
0.0 0.0 0.0

-5.965629684278356e6 1.3036765132581415e7 0.0
1.3036765132581415e7 5.44627802968279e6 0.0
0.0 0.0 0.0

-6.00178223037467e6 1.1302327948137423e7 0.0
1.1302327948137423e7 5.000929853873201e6 0.0
0.0 0.0 0.0

-121394.01032996085 8.905216123019507e6 0.0
8.905216123019507e6 -5.524225072612814e6 0.0
0.0 0.0 0.0

-6.472171838295294e6 1.134597048471844e7 0.0
1.134597048471844e7 9.170557349245144e6 0.0
0.0 0.0 0.0

-6.424897190599554e6 1.1979471349504001e7 0.0
1.1979471349504001e7 5.83700765138563e6 0.0
0.0 0.0 0.0

-1.9352788802128918e6 6.880659744518738e6 0.0
6.880659744518738e6 -340637.8453202615 0.0
0.0 0.0 0.0

-2.1039256907208428e7 1.166749413920229e7 0.0
1.166749413920229e7 8.366437075623946e6 0.0
0.0 0.0 0.0

-1.1412303051032513e7 -1.991155025971292e6 0.0
-1.991155025971292e6 2.4565423162282202e7 0.0
0.0 0.0 0.0

-6.191592257826418e6 1.2994620873398513e7 0.0
1.2994620873398513e7 4.970103655942783e6 0.0
0.0 0.0 0.0

-8.652376199993793e6 1.3511239986056373e7 0.0
1.3511239986056373e7 6.762720266115224e6 0.0
0.0 0.0 0.0

1.308621529303351e6 1.0350060101995695e7 0.0
1.0350060101995695e7 -1.0217456825892605e7 0.0
0.0 0.0 0.0

-9.510135994483715e6 1.5616311765723761e7 0.0
1.5616311765723761e7 6.851418804074317e6 0.0
0.0 0.0 0.0

-1.292850116935328e7 1.6934914387619473e7 0.0
1.6934914387619473e7 8.607493824545193e6 0.0
0.0 0.0 0.0

-1.456542275351775e7 1.7130376053650573e7 0.0
1.7130376053650573e7 9.373990239569511e6 0.0
0.0 0.0 0.0

-5.99408809558554e6 1.341577096522695e7 0.0
1.341577096522695e7 2.320493854384947e6 0.0
0.0 0.0 0.0

-9.843364608636536e6 4.221796292371817e6 0.0
4.221796292371817e6 1.2988282050598904e7 0.0
0.0 0.0 0.0

3.6490917577170096e6 5.564724280032053e6 0.0
5.564724280032053e6 -1.0073049222070662e7 0.0
0.0 0.0 0.0

-6.067767469660737e6 1.0858148571744459e7 0.0
1.0858148571744459e7 7.584738816910831e6 0.0
0.0 0.0 0.0

-6.90601914436158e6 1.5303733635857023e7 0.0
1.5303733635857023e7 2.20306396688353e6 0.0
0.0 0.0 0.0

434365.6867283094 1.0673238590382999e7 0.0
1.0673238590382999e7 -8.415202694000259e6 0.0
0.0 0.0 0.0

-7.13966130634058e6 -4.910096882829614e6 0.0
-4.910096882829614e6 1.1642210289734293e7 0.0
0.0 0.0 0.0

-277974.8542868614 1.1861362814923499e7 0.0
1.1861362814923499e7 -805408.4348227791 0.0
0.0 0.0 0.0

-121383.139399976 1.2107307220601972e7 0.0
1.2107307220601972e7 -6.251588797715165e6 0.0
0.0 0.0 0.0

598573.0089597921 1.1307112885808254e7 0.0
1.1307112885808254e7 -7.379638815300178e6 0.0
0.0 0.0 0.0

-38999.05357199162 9.47230754216785e6 0.0
9.47230754216785e6 -7.397640750740362e6 0.0
0.0 0.0 0.0

-679610.1759999237 2.699704046678166e6 0.0
2.699704046678166e6 -287851.88529062667 0.0
0.0 0.0 0.0

1.1459023439410038e6 8.932935931797164e6 0.0
8.932935931797164e6 -3.961965108470446e6 0.0
0.0 0.0 0.0

813452.6409677261 9.1468880348001e6 0.0
9.1468880348001e6 502783.10072137223 0.0
0.0 0.0 0.0

5.938497076204088e6 9.471406637175433e6 0.0
9.471406637175433e6 -2.2228181805008706e6 0.0
0.0 0.0 0.0

-1.4358079754760295e7 1.7444538341884766e7 0.0
1.7444538341884766e7 1.0238518193727467e7 0.0
0.0 0.0 0.0

-5.215112524565164e6 8.076108646194228e6 0.0
8.076108646194228e6 4.5158259413725715e6 0.0
0.0 0.0 0.0

-644162.8987780493 1.227868728870854e7 0.0
1.227868728870854e7 -1.3922364346446387e7 0.0
0.0 0.0 0.0

3.430420672864936e6 6.963355299104495e6 0.0
6.963355299104495e6 -1.0597977043239137e7 0.0
0.0 0.0 0.0

-2.810834710011039e6 -1.097105722283342e6 0.0
-1.097105722283342e6 4.1046347302688453e6 0.0
0.0 0.0 0.0

-1.2747932421944601e7 1.0979656328365142e7 0.0
1.0979656328365142e7 7.214097952829549e6 0.0
0.0 0.0 0.0

-7.758966064995861e6 1.1060560511899758e7 0.0
1.1060560511899758e7 922191.6179438848 0.0
0.0 0.0 0.0

407777.4388195928 9.553397710864414e6 0.0
9.553397710864414e6 -6.207098950226315e6 0.0
0.0 0.0 0.0

-6.7898985802252535e6 1.446868696599229e7 0.0
1.446868696599229e7 3.1225994480867563e6 0.0
0.0 0.0 0.0

4.5027499699866325e6 7.721664513456143e6 0.0
7.721664513456143e6 -1.6094580863745842e7 0.0
0.0 0.0 0.0

948013.0905531014 1.3336209117718494e7 0.0
1.3336209117718494e7 -4.95244391929513e6 0.0
0.0 0.0 0.0

-320005.6018278331 1.0461926269074658e7 0.0
1.0461926269074658e7 3.204061086031874e6 0.0
0.0 0.0 0.0

891805.6534625585 9.55841196055887e6 0.0
9.55841196055887e6 -7.517244314647373e6 0.0
0.0 0.0 0.0

-4.504932842077927e6 1.1708705082313145e7 0.0
1.1708705082313145e7 1.7147180862357684e6 0.0
0.0 0.0 0.0

427278.3439566216 8.576737935313938e6 0.0
8.576737935313938e6 -5.5296743493391955e6 0.0
0.0 0.0 0.0

700130.5759938713 9.557487683612358e6 0.0
9.557487683612358e6 -8.171950776384484e6 0.0
0.0 0.0 0.0

616023.7147109895 1.0060418427875802e7 0.0
1.0060418427875802e7 -7.744239021875756e6 0.0
0.0 0.0 0.0

-7.693730082711514e6 1.3631191939105026e7 0.0
1.3631191939105026e7 6.215380176659875e6 0.0
0.0 0.0 0.0

-2.3361393261951194e6 1.3606792990973203e7 0.0
1.3606792990973203e7 -1.544312589905158e7 0.0
0.0 0.0 0.0

-2.6819730661250544e6 1.8524615038953476e7 0.0
1.8524615038953476e7 -2.098491756578706e6 0.0
0.0 0.0 0.0

-2.8538218773148726e6 1.509274771930351e7 0.0
1.509274771930351e7 -3.161479025489779e6 0.0
0.0 0.0 0.0

-8.0220517458973825e6 1.4607498816893654e7 0.0
1.4607498816893654e7 6.056539171334564e6 0.0
0.0 0.0 0.0

-6.543096572594417e6 1.1960194299960565e7 0.0
1.1960194299960565e7 6.049078638628874e6 0.0
0.0 0.0 0.0

4.744566764814171e6 7.355453719384584e6 0.0
7.355453719384584e6 -1.6338196595635189e7 0.0
0.0 0.0 0.0

-5.57991242287855e6 1.2376527952712504e7 0.0
1.2376527952712504e7 6.076536913516437e6 0.0
0.0 0.0 0.0

4.44902221048099e6 6.822752652570696e6 0.0
6.822752652570696e6 -1.422486741274389e7 0.0
0.0 0.0 0.0

-2.9483124433863377e6 1.1011948165945671e7 0.0
1.1011948165945671e7 -1.8107924906684244e6 0.0
0.0 0.0 0.0

-2.6077608697406547e6 1.069928780147052e7 0.0
1.069928780147052e7 -2.0541912256380916e6 0.0
0.0 0.0 0.0

839217.7144263443 8.74824197681609e6 0.0
8.74824197681609e6 -4.369990596843711e6 0.0
0.0 0.0 0.0

-3.7760745325999716e6 1.1654606101043783e7 0.0
1.1654606101043783e7 4.639743890477273e6 0.0
0.0 0.0 0.0

-5.642878391549524e6 1.2804896317056706e7 0.0
1.2804896317056706e7 2.210952281170061e6 0.0
0.0 0.0 0.0

-6.788247144857505e6 1.0322939052776119e7 0.0
1.0322939052776119e7 6.275699724208446e6 0.0
0.0 0.0 0.0

-4.754219167435512e6 -1.984726485443598e6 0.0
-1.984726485443598e6 5.744544850651342e6 0.0
0.0 0.0 0.0

3.2222142225476378e6 6.875013630292277e6 0.0
6.875013630292277e6 -1.1261584677822897e7 0.0
0.0 0.0 0.0

1.9257716214924972e6 7.46885997935995e6 0.0
7.46885997935995e6 -9.007263531608116e6 0.0
0.0 0.0 0.0

-7.934278700301029e6 1.5947029479181545e7 0.0
1.5947029479181545e7 4.654001510678159e6 0.0
0.0 0.0 0.0

-1.9381564974268596e6 1.229970144414541e7 0.0
1.229970144414541e7 -1.1272936355971345e6 0.0
0.0 0.0 0.0

1.6037400894265426e6 1.0104485624313299e7 0.0
1.0104485624313299e7 -1.0219039529944772e7 0.0
0.0 0.0 0.0

-6.8063221066669915e6 1.0619615281032925e7 0.0
1.0619615281032925e7 1.0506936545462135e7 0.0
0.0 0.0 0.0

-1.979825211735269e6 3.564262306421346e6 0.0
3.564262306421346e6 1.2688603716490981e6 0.0
0.0 0.0 0.0

-1.4909209000392582e6 1.0940473622065185e7 0.0
1.0940473622065185e7 4.931317504940411e6 0.0
0.0 0.0 0.0

-1.2198111762327125e7 1.2309859695500096e7 0.0
1.2309859695500096e7 9.464322130605675e6 0.0
0.0 0.0 0.0

885170.705499683 9.45254499442501e6 0.0
9.45254499442501e6 527933.7107176661 0.0
0.0 0.0 0.0

-915020.5644217328 1.1272975567318372e7 0.0
1.1272975567318372e7 1.755123218457094e6 0.0
0.0 0.0 0.0

-7.273794587363585e6 1.3578594671225991e7 0.0
1.3578594671225991e7 5.9346846430665655e6 0.0
0.0 0.0 0.0

-4.373529534361084e6 1.1970808529296702e7 0.0
1.1970808529296702e7 5.346378612247242e6 0.0
0.0 0.0 0.0

-7.55938962269336e6 1.104121256111784e7 0.0
1.104121256111784e7 1.0626375382067673e7 0.0
0.0 0.0 0.0

-6.182256449531774e6 1.1850347525270594e7 0.0
1.1850347525270594e7 1.593707418580981e6 0.0
0.0 0.0 0.0

-6.664816651183576e6 1.1845181000512466e7 0.0
1.1845181000512466e7 2.5312551456519584e6 0.0
0.0 0.0 0.0

-7.572030442224354e6 2.4740508664895785e6 0.0
2.4740508664895785e6 5.962600599292072e6 0.0
0.0 0.0 0.0

-3.400044480697298e7 1.910995739211336e7 0.0
1.910995739211336e7 1.2910864151196036e7 0.0
0.0 0.0 0.0

4.0194907895299173e6 9.47445869649385e6 0.0
9.47445869649385e6 -860146.2624565389 0.0
0.0 0.0 0.0

1.0436266332735191e6 1.0409123407088503e7 0.0
1.0409123407088503e7 -1.0363015692322414e7 0.0
0.0 0.0 0.0

-6.326391203838322e6 1.0972693303327927e7 0.0
1.0972693303327927e7 4.573640234086428e6 0.0
0.0 0.0 0.0

-1.1529675770978061e6 1.1969224001179479e7 0.0
1.1969224001179479e7 -5.942732465390203e6 0.0
0.0 0.0 0.0

1.3635703318102881e7 1.0944291731859267e7 0.0
1.0944291731859267e7 -925957.8087651711 0.0
0.0 0.0 0.0

769304.7892249508 3.379527033802619e6 0.0
3.379527033802619e6 -2.4009785255753445e6 0.0
0.0 0.0 0.0

1.6340178726135457e6 4.597848994368679e6 0.0
4.597848994368679e6 -5.736715125477498e6 0.0
0.0 0.0 0.0

-2.2576480159848277e6 1.1805776495057903e7 0.0
1.1805776495057903e7 -4.090189117754194e6 0.0
0.0 0.0 0.0

556620.1194263475 9.174831540446578e6 0.0
9.174831540446578e6 -3.583672521412967e6 0.0
0.0 0.0 0.0

-1.0602702062399276e7 -760472.6585851378 0.0
-760472.6585851378 1.6836179988189418e7 0.0
0.0 0.0 0.0

-1.7366815908706351e6 1.5309403110884558e7 0.0
1.5309403110884558e7 -2.951819771026361e6 0.0
0.0 0.0 0.0

-1.6945026720427588e7 1.765492137938781e7 0.0
1.765492137938781e7 1.0939576633817993e7 0.0
0.0 0.0 0.0

3.8014622334518787e6 1.0390261634030791e7 0.0
1.0390261634030791e7 -1.8216788526113776e6 0.0
0.0 0.0 0.0

-1.6250448317772036e6 -25305.34430084375 0.0
-25305.34430084375 1.404598857392617e6 0.0
0.0 0.0 0.0

-1.4673032552854076e7 7.660926438325964e6 0.0
7.660926438325964e6 9.3383606593057e6 0.0
0.0 0.0 0.0

-1.0055164993147934e6 8.186581838615117e6 0.0
8.186581838615117e6 396730.36760454264 0.0
0.0 0.0 0.0

-1.891719135262554e7 1.8031423527475126e7 0.0
1.8031423527475126e7 1.1740348283494674e7 0.0
0.0 0.0 0.0

-7.156106088416791e6 9.137340534650298e6 0.0
9.137340534650298e6 8.785311368731005e6 0.0
0.0 0.0 0.0

1.825407250769865e6 1.0494080724337218e7 0.0
1.0494080724337218e7 -4.296188894649647e6 0.0
0.0 0.0 0.0

-1.2925739324226533e6 1.016306534357064e7 0.0
1.016306534357064e7 -8.912214137358809e6 0.0
0.0 0.0 0.0

342651.8260969375 9.840022163971009e6 0.0
9.840022163971009e6 -6.962240253598372e6 0.0
0.0 0.0 0.0

1.3238056061949502e6 1.279468983175682e7 0.0
1.279468983175682e7 -4.744624786019721e6 0.0
0.0 0.0 0.0

-3.1939724115781104e6 2.2687870303209174e7 0.0
2.2687870303209174e7 -1.4130216373684147e7 0.0
0.0 0.0 0.0

-546211.606802128 2.7918624748071022e6 0.0
2.7918624748071022e6 231118.41869994006 0.0
0.0 0.0 0.0

-9.311973633186493e6 1.7790442109206915e7 0.0
1.7790442109206915e7 3.8227444355736743e6 0.0
0.0 0.0 0.0

-6.027064082555978e6 1.5468258255530927e7 0.0
1.5468258255530927e7 2.451353665012388e6 0.0
0.0 0.0 0.0

-7.218429330454739e6 -2.24112143423738e6 0.0
-2.24112143423738e6 9.682224610561866e6 0.0
0.0 0.0 0.0

3.6729179938193713e6 5.540321032503591e6 0.0
5.540321032503591e6 -1.0105557646706741e7 0.0
0.0 0.0 0.0

-6.619591687822951e6 1.295946076291242e7 0.0
1.295946076291242e7 5.875555324636448e6 0.0
0.0 0.0 0.0

-2.807169352315858e6 1.079644705868561e7 0.0
1.079644705868561e7 5.895446230451719e6 0.0
0.0 0.0 0.0

-1.793163373751799e6 1.0079745705667932e6 0.0
1.0079745705667932e6 3.0659561618763544e6 0.0
0.0 0.0 0.0

-6.6043380501778405e6 7.484111931086637e6 0.0
7.484111931086637e6 7.2098881499329e6 0.0
0.0 0.0 0.0

-3.432579548605964e6 1.0872934579364272e7 0.0
1.0872934579364272e7 6.483773809912744e6 0.0
0.0 0.0 0.0

-1.8028044911087132e6 9.536774962142494e6 0.0
9.536774962142494e6 -3.598675016143698e6 0.0
0.0 0.0 0.0

366838.95809241664 9.876868084658602e6 0.0
9.876868084658602e6 -7.928612724357314e6 0.0
0.0 0.0 0.0

-6.114359155075707e6 1.425577899756418e7 0.0
1.425577899756418e7 1.4610192163252858e6 0.0
0.0 0.0 0.0

301370.1466367354 2.9863311001955657e6 0.0
2.9863311001955657e6 -1.6026325083331466e6 0.0
0.0 0.0 0.0

-3.3747508785856618e6 9.898800635138087e6 0.0
9.898800635138087e6 790431.6006410017 0.0
0.0 0.0 0.0

-7.802035167123943e6 8.088326477185476e6 0.0
8.088326477185476e6 1.075670906119448e7 0.0
0.0 0.0 0.0

-325400.8296898473 8.525784121660976e6 0.0
8.525784121660976e6 -4.553036579088262e6 0.0
0.0 0.0 0.0

-3.1483025467142346e6 1.3101898920895057e7 0.0
1.3101898920895057e7 -3.1396159362353575e6 0.0
0.0 0.0 0.0

-9.59993691558021e6 1.890494510805953e7 0.0
1.890494510805953e7 5.998067004527193e6 0.0
0.0 0.0 0.0

1.4334985696775066e6 1.0063421632969916e7 0.0
1.0063421632969916e7 -1.0782602278482119e7 0.0
0.0 0.0 0.0

-2.8957066439973895e7 1.6698022641619569e7 0.0
1.6698022641619569e7 1.4039010998964315e7 0.0
0.0 0.0 0.0

3.602421209894873e6 5.031058772720624e6 0.0
5.031058772720624e6 -5.036217933857188e6 0.0
0.0 0.0 0.0

2.6216714977787826e6 5.635529693015039e6 0.0
5.635529693015039e6 -5.73288663397592e6 0.0
0.0 0.0 0.0

-1.0994238328374363e6 1.2617345512842786e7 0.0
1.2617345512842786e7 4.676052930242225e6 0.0
0.0 0.0 0.0

-3.8925230651173675e6 1.190964069371468e7 0.0
1.190964069371468e7 8.53919053653514e6 0.0
0.0 0.0 0.0

-853839.0135228448 1.1764270284152675e7 0.0
1.1764270284152675e7 802859.9217478384 0.0
0.0 0.0 0.0

-5.435022364396088e6 6.741004125521117e6 0.0
6.741004125521117e6 5.630754690529931e6 0.0
0.0 0.0 0.0

389490.2480776495 3.885960747116391e6 0.0
3.885960747116391e6 -789552.1393635458 0.0
0.0 0.0 0.0

-2.2298129734902857e6 1.212894009054074e7 0.0
1.212894009054074e7 2.1372927834718395e6 0.0
0.0 0.0 0.0

-6.59114633319827e6 1.4204293519156195e7 0.0
1.4204293519156195e7 4.0503351281342404e6 0.0
0.0 0.0 0.0

1.2600838031109553e6 1.0296901263214057e7 0.0
1.0296901263214057e7 -1.0957853825762503e7 0.0
0.0 0.0 0.0

-2.579986664491556e6 1.1723623039093541e7 0.0
1.1723623039093541e7 7.533592630127067e6 0.0
0.0 0.0 0.0

4.095163051998424e6 1.038317636168198e7 0.0
1.038317636168198e7 -335241.3217777291 0.0
0.0 0.0 0.0

-2.051380616560894e7 1.7538003560251486e7 0.0
1.7538003560251486e7 1.3381687250849001e7 0.0
0.0 0.0 0.0

-1.4069396744726058e6 9.148461482606256e6 0.0
9.148461482606256e6 2.523321486146018e6 0.0
0.0 0.0 0.0

-1.8358811271023345e6 5.059196819997899e6 0.0
5.059196819997899e6 -523635.2877151511 0.0
0.0 0.0 0.0

-8.47283343650023e6 4.736827598890903e6 0.0
4.736827598890903e6 9.81506009994612e6 0.0
0.0 0.0 0.0

-6.474756063679213e6 1.3822861984961113e7 0.0
1.3822861984961113e7 3.3972866121663465e6 0.0
0.0 0.0 0.0

-6.128536371396135e6 1.1407146137638677e7 0.0
1.1407146137638677e7 1.0532409106761532e7 0.0
0.0 0.0 0.0

-1.375193400188119e7 -1.853442250909082e6 0.0
-1.853442250909082e6 2.8157587280143604e7 0.0
0.0 0.0 0.0

-2.1525668906622464e6 1.149065287491714e7 0.0
1.149065287491714e7 2.872973616421112e6 0.0
0.0 0.0 0.0

-2.1813126677700384e6 1.0983483309449404e7 0.0
1.0983483309449404e7 -9.699637557670005e6 0.0
0.0 0.0 0.0

-4.0035165741770393e6 1.1565147294881022e7 0.0
1.1565147294881022e7 7.863331013529498e6 0.0
0.0 0.0 0.0

-5.957972068316497e6 1.0052569233136298e7 0.0
1.0052569233136298e7 8.212799926507827e6 0.0
0.0 0.0 0.0

-1.507415910688078e6 9.120581497529363e6 0.0
9.120581497529363e6 -3.894676037409736e6 0.0
0.0 0.0 0.0

-7.691712837196471e6 1.3527447169259243e7 0.0
1.3527447169259243e7 3.376666958785971e7 0.0
0.0 0.0 0.0

-1.989656532823162e6 1.5080799207103256e7 0.0
1.5080799207103256e7 -3.832907254766504e6 0.0
0.0 0.0 0.0

-297989.8026868813 1.1286041725144215e7 0.0
1.1286041725144215e7 -7.118477161479299e6 0.0
0.0 0.0 0.0

-888792.6916662601 8.257979018381617e6 0.0
8.257979018381617e6 -3.102170255657091e6 0.0
0.0 0.0 0.0

4.313140335639234e6 5.705625358309186e6 0.0
5.705625358309186e6 -1.1985945880265648e7 0.0
0.0 0.0 0.0

-9.330511719225362e6 1.80124129335803e7 0.0
1.80124129335803e7 6.2321917158269975e6 0.0
0.0 0.0 0.0

-8.878657591794154e6 5.004938021767191e6 0.0
5.004938021767191e6 1.0469855049755413e7 0.0
0.0 0.0 0.0

-1.2003434985376191e6 1.1536308107258914e7 0.0
1.1536308107258914e7 2.7816924511296214e6 0.0
0.0 0.0 0.0

-5.623600727953128e6 1.2644272190433143e7 0.0
1.2644272190433143e7 4.280931560299182e6 0.0
0.0 0.0 0.0

-4.1188594613377666e6 1.0749928659886504e7 0.0
1.0749928659886504e7 876522.2244917613 0.0
0.0 0.0 0.0

-7.421213696533822e6 7.973350187718961e6 0.0
7.973350187718961e6 8.314618940212991e6 0.0
0.0 0.0 0.0

1.1444773832971896e6 8.030741149555005e6 0.0
8.030741149555005e6 -7.442550694076316e6 0.0
0.0 0.0 0.0

-1.6849864716319937e7 1.4988744363919294e7 0.0
1.4988744363919294e7 1.1485680114975616e7 0.0
0.0 0.0 0.0

5.0073002761314595e6 9.153513940375876e6 0.0
9.153513940375876e6 742458.0704325059 0.0
0.0 0.0 0.0

-1.3368956532056e6 3.232971938770867e6 0.0
3.232971938770867e6 391846.65097578306 0.0
0.0 0.0 0.0

-8.236482787050133e6 1.3669501374112573e7 0.0
1.3669501374112573e7 6.418577099360463e6 0.0
0.0 0.0 0.0

-1.7431366785318546e7 5.387605307458797e6 0.0
5.387605307458797e6 9.583351986367434e6 0.0
0.0 0.0 0.0

-2.1752872481002007e6 1.2649950806967007e7 0.0
1.2649950806967007e7 -864752.7437081517 0.0
0.0 0.0 0.0

-2.1712906450898547e7 1.594024048593613e7 0.0
1.594024048593613e7 6.072082604033863e6 0.0
0.0 0.0 0.0

-1.6746316446645847e6 1.269850450898371e7 0.0
1.269850450898371e7 -663983.8273836508 0.0
0.0 0.0 0.0

-6.673881679399961e6 9.354246101069758e6 0.0
9.354246101069758e6 6.781310100771502e6 0.0
0.0 0.0 0.0

-5.772627332802187e6 6.244344573890322e6 0.0
6.244344573890322e6 6.108069398058789e6 0.0
0.0 0.0 0.0

-5.707092068782547e6 7.63548850956776e6 0.0
7.63548850956776e6 3.856162936388405e6 0.0
0.0 0.0 0.0

-5.755417024652801e6 1.2768138690410191e7 0.0
1.2768138690410191e7 5.702923884165808e6 0.0
0.0 0.0 0.0

-9.049287051408721e6 -2.9479903606657437e6 0.0
-2.9479903606657437e6 1.3641569626482556e7 0.0
0.0 0.0 0.0

229669.62690660288 8.435288379065573e6 0.0
8.435288379065573e6 -3.375987178528018e6 0.0
0.0 0.0 0.0

266641.1491655924 7.7392409475056e6 0.0
7.7392409475056e6 -5.083997140004611e6 0.0
0.0 0.0 0.0

74585.47934768395 1.0431294570565337e7 0.0
1.0431294570565337e7 -6.697466587373569e6 0.0
0.0 0.0 0.0

-3.7187415609882264e6 -30546.84410974673 0.0
-30546.84410974673 4.346757919606221e6 0.0
0.0 0.0 0.0

-103867.7111590883 8.617417763600923e6 0.0
8.617417763600923e6 -2.6352574587811986e6 0.0
0.0 0.0 0.0

-5.829342232116454e6 1.2877552961679397e7 0.0
1.2877552961679397e7 4.834348519874455e6 0.0
0.0 0.0 0.0

-3.3078403182864604e6 1.238869538187274e7 0.0
1.238869538187274e7 6.063375815572641e6 0.0
0.0 0.0 0.0

-1.7690710211444818e6 1.1442675800194513e7 0.0
1.1442675800194513e7 -4.175767264450445e6 0.0
0.0 0.0 0.0

-548440.8929741263 1.1599392797555923e7 0.0
1.1599392797555923e7 -274799.22719533206 0.0
0.0 0.0 0.0

-8.91794633939163e6 1.7165994543523464e7 0.0
1.7165994543523464e7 4.075603226239851e6 0.0
0.0 0.0 0.0

-405713.8165274053 1.232614523095944e7 0.0
1.232614523095944e7 -5.788992882423013e6 0.0
0.0 0.0 0.0

2.3328120742127605e7 1.3005595511816036e7 0.0
1.3005595511816036e7 -2.1788194245667793e6 0.0
0.0 0.0 0.0

1.7678730733380732e6 1.129292694876109e7 0.0
1.129292694876109e7 -4.791067968147842e6 0.0
0.0 0.0 0.0

668907.5525722359 1.0886239413555494e7 0.0
1.0886239413555494e7 -8.959370647962587e6 0.0
0.0 0.0 0.0

-1.8061691162591875e6 1.3301109984732976e7 0.0
1.3301109984732976e7 -4.414071175642564e6 0.0
0.0 0.0 0.0

-1.6698912868125163e7 9.277377927980019e6 0.0
9.277377927980019e6 8.93050761630274e6 0.0
0.0 0.0 0.0

-5.988392165331402e6 1.2874767928662024e7 0.0
1.2874767928662024e7 5.034652066664569e6 0.0
0.0 0.0 0.0

4.987154780845126e6 1.0615503391229868e7 0.0
1.0615503391229868e7 -4.081305828802516e6 0.0
0.0 0.0 0.0

1.1464553735320088e6 1.0414001878044367e7 0.0
1.0414001878044367e7 -1.1963215444099346e7 0.0
0.0 0.0 0.0

-1.6114478866412754e6 1.2789620047183432e7 0.0
1.2789620047183432e7 5.448738649793491e6 0.0
0.0 0.0 0.0

2.649765167944874e6 6.07792085102754e6 0.0
6.07792085102754e6 -8.322715992630135e6 0.0
0.0 0.0 0.0

-1.592168210682784e6 1.3484763210190663e7 0.0
1.3484763210190663e7 -3.719432105883561e6 0.0
0.0 0.0 0.0

4.520974563011192e6 6.469719754020022e6 0.0
6.469719754020022e6 -1.3854663838640243e7 0.0
0.0 0.0 0.0

-3.125245547796183e6 1.277626872941112e7 0.0
1.277626872941112e7 -2.8803955222220602e6 0.0
0.0 0.0 0.0

-2.5484978013908598e6 1.5201165689882597e7 0.0
1.5201165689882597e7 -2.1590580195825887e6 0.0
0.0 0.0 0.0

-3.8630493692975906e6 1.0759507511113537e7 0.0
1.0759507511113537e7 865992.1353699917 0.0
0.0 0.0 0.0

-1.06311621525988e7 1.2686006969516244e7 0.0
1.2686006969516244e7 8.406561979117405e6 0.0
0.0 0.0 0.0

-6.782400645558974e6 9.995471287809482e6 0.0
9.995471287809482e6 8.0476448377870675e6 0.0
0.0 0.0 0.0

-2.0841662441429577e6 8.666574342762725e6 0.0
8.666574342762725e6 1.672154504212554e6 0.0
0.0 0.0 0.0

-2.200416336596338e7 1.0904375842138942e7 0.0
1.0904375842138942e7 1.3022195104534173e7 0.0
0.0 0.0 0.0

2.63148096253781e6 9.949197121813545e6 0.0
9.949197121813545e6 2.183194368669348e6 0.0
0.0 0.0 0.0

-1.9713439585861992e6 6.537617836295181e6 0.0
6.537617836295181e6 -816893.6595198299 0.0
0.0 0.0 0.0

-7.266954290386785e6 1.3516469284387967e7 0.0
1.3516469284387967e7 6.000380663559014e6 0.0
0.0 0.0 0.0

-2.1813828721498623e6 1.2991128567395568e7 0.0
1.2991128567395568e7 -526323.1341697812 0.0
0.0 0.0 0.0

-222194.46453909902 8.823650531323537e6 0.0
8.823650531323537e6 -4.8062793339390205e6 0.0
0.0 0.0 0.0

3.850793332082607e6 5.520818227967596e6 0.0
5.520818227967596e6 -1.0546753373099048e7 0.0
0.0 0.0 0.0

860755.5419806442 9.445877351930216e6 0.0
9.445877351930216e6 -6.3847514128528945e6 0.0
0.0 0.0 0.0

1.508336230539487e7 6.526287143876372e6 0.0
6.526287143876372e6 -4.1871397288285876e6 0.0
0.0 0.0 0.0

-6.537812090237446e6 9.958495887220925e6 0.0
9.958495887220925e6 8.881243107930157e6 0.0
0.0 0.0 0.0

-7.234719204949165e6 1.3474084101510843e7 0.0
1.3474084101510843e7 5.970407398689499e6 0.0
0.0 0.0 0.0

-5.068140938132115e6 -5.79607870027248e6 0.0
-5.79607870027248e6 1.074450281150995e7 0.0
0.0 0.0 0.0

-9.360714116138253e6 1.5989549711965224e7 0.0
1.5989549711965224e7 6.599162988053495e6 0.0
0.0 0.0 0.0

-1.4838839719521735e7 7.763537190157781e6 0.0
7.763537190157781e6 8.184117199702575e6 0.0
0.0 0.0 0.0

-637037.8154031113 1.1475869715023497e7 0.0
1.1475869715023497e7 -6.638129494713025e6 0.0
0.0 0.0 0.0

-898360.9397409423 1.2292125244733205e7 0.0
1.2292125244733205e7 3.8573700210811063e6 0.0
0.0 0.0 0.0

-436530.77485747205 9.017415993812056e6 0.0
9.017415993812056e6 -619878.3370241426 0.0
0.0 0.0 0.0

-5.623515011868828e6 1.0615462590103518e7 0.0
1.0615462590103518e7 4.337851667798009e6 0.0
0.0 0.0 0.0

-520730.58653591806 8.52384317350357e6 0.0
8.52384317350357e6 -5.224973388253959e6 0.0
0.0 0.0 0.0

1.5494241050251108e6 7.818979086614648e6 0.0
7.818979086614648e6 -7.092036722711691e6 0.0
0.0 0.0 0.0

112412.31678604358 7.097149899364535e6 0.0
7.097149899364535e6 -4.0616091935316464e6 0.0
0.0 0.0 0.0

-7.091900186214324e6 1.3405516869004581e7 0.0
1.3405516869004581e7 5.742659901174934e6 0.0
0.0 0.0 0.0

-2.0726837214591978e6 9.629127673359312e6 0.0
9.629127673359312e6 -3.099554028397585e6 0.0
0.0 0.0 0.0

5.457136254420904e6 9.1340562569189e6 0.0
9.1340562569189e6 819558.5001674666 0.0
0.0 0.0 0.0

3.896724725615733e6 5.501487419893812e6 0.0
5.501487419893812e6 -1.0597584643949803e7 0.0
0.0 0.0 0.0

-2.2241446180579206e6 1.2198807375843255e7 0.0
1.2198807375843255e7 4.0196912980255987e6 0.0
0.0 0.0 0.0

495862.070212258 7.169871966007656e6 0.0
7.169871966007656e6 -4.634516186423983e6 0.0
0.0 0.0 0.0

-5.599099374105461e6 1.4434541907771796e7 0.0
1.4434541907771796e7 1.740501339502039e6 0.0
0.0 0.0 0.0

-1.0623913535355232e6 1.1691184612196144e7 0.0
1.1691184612196144e7 1.4408582972208017e6 0.0
0.0 0.0 0.0

-1.1014859466661695e7 1.2164329745070061e6 0.0
1.2164329745070061e6 1.5721048977626804e7 0.0
0.0 0.0 0.0

206290.35154030623 4.0291764554291395e6 0.0
4.0291764554291395e6 -2.1778667880879e6 0.0
0.0 0.0 0.0

-3.4358752881229455e6 1.5524971221231375e7 0.0
1.5524971221231375e7 -2.6620485110210944e6 0.0
0.0 0.0 0.0

-2.4348485818178624e7 2.622367951894315e6 0.0
2.622367951894315e6 1.1863375076700218e7 0.0
0.0 0.0 0.0

274723.3659178391 1.0984913475039775e7 0.0
1.0984913475039775e7 -8.120558972392837e6 0.0
0.0 0.0 0.0

-3.708635349819974e6 8.256913470368195e6 0.0
8.256913470368195e6 5.043433438930848e6 0.0
0.0 0.0 0.0

-6.160624007859897e6 9.01267305551158e6 0.0
9.01267305551158e6 5.944706142793182e6 0.0
0.0 0.0 0.0

-2.6583820020426486e7 3.2711515939194784e6 0.0
3.2711515939194784e6 1.2341519405414358e7 0.0
0.0 0.0 0.0

706447.3367655426 1.065790434011777e7 0.0
1.065790434011777e7 -9.086752821653329e6 0.0
0.0 0.0 0.0

-1.766832863603898e6 1.2768527037939122e7 0.0
1.2768527037939122e7 -3.9710343140400164e6 0.0
0.0 0.0 0.0

762766.5140180853 7.037747275644077e6 0.0
7.037747275644077e6 -3.921267931464964e6 0.0
0.0 0.0 0.0

-3.837114870573565e6 1.3178623848254547e7 0.0
1.3178623848254547e7 181638.78319609305 0.0
0.0 0.0 0.0

-5.335945755215072e6 1.671011053053135e7 0.0
1.671011053053135e7 226844.6031078715 0.0
0.0 0.0 0.0

-7.85432439915788e6 1.4732750979310328e7 0.0
1.4732750979310328e7 5.37918882097552e6 0.0
0.0 0.0 0.0

-5.035567807715477e6 1.0342198717428854e7 0.0
1.0342198717428854e7 2.2210332314249286e6 0.0
0.0 0.0 0.0

-8.51870121591723e6 6.135292072881667e6 0.0
6.135292072881667e6 1.1904918040184848e7 0.0
0.0 0.0 0.0

-4.217317256275425e6 1.2497644797987908e7 0.0
1.2497644797987908e7 5.039403861854108e6 0.0
0.0 0.0 0.0

-9.250790243801106e6 1.560892020114327e7 0.0
1.560892020114327e7 6.303295482301248e6 0.0
0.0 0.0 0.0

96442.31460917112 7.749349607045107e6 0.0
7.749349607045107e6 -5.650209183176053e6 0.0
0.0 0.0 0.0

-8.744339478244528e6 1.533719655887009e7 0.0
1.533719655887009e7 5.99329704101163e6 0.0
0.0 0.0 0.0

-4.616251303850518e6 1.2104751934314845e7 0.0
1.2104751934314845e7 8.928928619311262e6 0.0
0.0 0.0 0.0

-7.897616770991703e6 5.178630289841066e6 0.0
5.178630289841066e6 1.0451247754191674e7 0.0
0.0 0.0 0.0

3.7394389610707336e6 5.804420082752717e6 0.0
5.804420082752717e6 -1.1107388184168413e7 0.0
0.0 0.0 0.0

-6.815516621238232e6 1.266740585783131e7 0.0
1.266740585783131e7 4.461874264529226e6 0.0
0.0 0.0 0.0

-5.150887280164445e6 1.2641010282059392e7 0.0
1.2641010282059392e7 963892.5129594307 0.0
0.0 0.0 0.0

-4.72012939759493e6 1.2853352831373863e7 0.0
1.2853352831373863e7 583035.9912184139 0.0
0.0 0.0 0.0

-2.9152543500101186e7 2.5326668481033407e7 0.0
2.5326668481033407e7 -5.175223095837772e6 0.0
0.0 0.0 0.0

-264242.8287297918 1.1696131958246505e7 0.0
1.1696131958246505e7 -6.286530525324856e6 0.0
0.0 0.0 0.0

-6.053153621680347e6 1.3631967609410023e7 0.0
1.3631967609410023e7 3.339793013034957e6 0.0
0.0 0.0 0.0

-7.215387629552752e6 9.629157337446004e6 0.0
9.629157337446004e6 6.333854390475523e6 0.0
0.0 0.0 0.0

-1.8855895269706227e7 6.763608245539963e6 0.0
6.763608245539963e6 1.0925224656557336e7 0.0
0.0 0.0 0.0

-161607.38215496272 1.1564252997474365e7 0.0
1.1564252997474365e7 -1.1534242965543868e6 0.0
0.0 0.0 0.0

-7.070759091081592e6 1.0784925738510938e7 0.0
1.0784925738510938e7 1.192786914922896e7 0.0
0.0 0.0 0.0

4.755565899949586e6 5.408505538550106e6 0.0
5.408505538550106e6 -1.2636955537881386e7 0.0
0.0 0.0 0.0

-1.7367007148062132e7 1.2873196224412771e7 0.0
1.2873196224412771e7 1.1971936739166472e7 0.0
0.0 0.0 0.0

-8.144402998281517e6 -3.5385206577904313e6 0.0
-3.5385206577904313e6 1.2577183364181664e7 0.0
0.0 0.0 0.0

-9.027276197026335e6 -5.959901495569525e6 0.0
-5.959901495569525e6 1.696741572540061e7 0.0
0.0 0.0 0.0

678163.9000418592 3.791986047270061e6 0.0
3.791986047270061e6 -2.1892931206353335e6 0.0
0.0 0.0 0.0

-9.989102666500855e6 4.847156785999779e6 0.0
4.847156785999779e6 1.313889169586137e7 0.0
0.0 0.0 0.0

-7.350174071517618e6 8.490290681233427e6 0.0
8.490290681233427e6 8.5725650779459e6 0.0
0.0 0.0 0.0

752940.9950303654 1.063664544283226e7 0.0
1.063664544283226e7 -9.016225232842006e6 0.0
0.0 0.0 0.0

-2.3264840531425957e7 1.6773738661041228e7 0.0
1.6773738661041228e7 1.3867531177750764e7 0.0
0.0 0.0 0.0

-7.902274950310695e6 5.491314633634547e6 0.0
5.491314633634547e6 1.121029251220997e7 0.0
0.0 0.0 0.0

1.21187392168708e6 1.0358528996098235e7 0.0
1.0358528996098235e7 -1.2068824415678527e7 0.0
0.0 0.0 0.0

-1.3224399720483113e7 6.443853669297372e6 0.0
6.443853669297372e6 8.8468564469949e6 0.0
0.0 0.0 0.0

-8.2397669374544015e6 -6.284930026770103e6 0.0
-6.284930026770103e6 1.6677692209232654e7 0.0
0.0 0.0 0.0

-1.3668142906184602e6 1.080088725299768e7 0.0
1.080088725299768e7 -5.157301406340886e6 0.0
0.0 0.0 0.0

-694462.8954837536 1.1419767766191876e7 0.0
1.1419767766191876e7 -1.2018007448747762e7 0.0
0.0 0.0 0.0

-1.3627063290618556e6 1.2456127781852372e7 0.0
1.2456127781852372e7 -720159.7584601899 0.0
0.0 0.0 0.0

-1.129650159564086e7 5.038574270012881e6 0.0
5.038574270012881e6 7.868975650772239e6 0.0
0.0 0.0 0.0

1.1444451166189708e7 1.4185746700327596e7 0.0
1.4185746700327596e7 1.8671904095976036e6 0.0
0.0 0.0 0.0

-549583.7997330292 6.964531301402979e6 0.0
6.964531301402979e6 -3.8487892600349467e6 0.0
0.0 0.0 0.0

-167234.65996878524 1.0441831587967446e7 0.0
1.0441831587967446e7 -6.038370245563328e6 0.0
0.0 0.0 0.0

523687.53893139306 9.588229203466201e6 0.0
9.588229203466201e6 -7.376000874332575e6 0.0
0.0 0.0 0.0

4.948344205117764e6 5.556471388622757e6 0.0
5.556471388622757e6 -1.270873519810136e7 0.0
0.0 0.0 0.0

-5.30059104434694e6 1.3669743469944369e7 0.0
1.3669743469944369e7 1.8199783905155708e6 0.0
0.0 0.0 0.0

433229.21623829193 1.0515550521272827e7 0.0
1.0515550521272827e7 -9.369401804985376e6 0.0
0.0 0.0 0.0

96121.72856438346 1.2360452553090142e7 0.0
1.2360452553090142e7 -5.845572156990577e6 0.0
0.0 0.0 0.0

119627.18677979463 9.060143939548668e6 0.0
9.060143939548668e6 -2.110581069073777e6 0.0
0.0 0.0 0.0

-1.8374592361684593e6 6.40732148308732e6 0.0
6.40732148308732e6 -230802.92587513773 0.0
0.0 0.0 0.0

-5.999165396715505e6 1.0252623896339163e7 0.0
1.0252623896339163e7 3.778997720117254e6 0.0
0.0 0.0 0.0

-4.648741211271859e6 1.1979594949291725e7 0.0
1.1979594949291725e7 7.102609143995211e6 0.0
0.0 0.0 0.0

3.257035005363968e6 5.578217734443362e6 0.0
5.578217734443362e6 -9.269204675585348e6 0.0
0.0 0.0 0.0

-7.718121518523671e6 2.375294518498805e6 0.0
2.375294518498805e6 3.2185661415608814e6 0.0
0.0 0.0 0.0

-3.8881080345465387e6 1.1209856740906723e7 0.0
1.1209856740906723e7 7.633925129313685e6 0.0
0.0 0.0 0.0

638357.2278854041 1.0969357024615796e7 0.0
1.0969357024615796e7 -8.0504421974245645e6 0.0
0.0 0.0 0.0

2.1832721642918333e7 7.42637928740168e6 0.0
7.42637928740168e6 -4.290628291705447e6 0.0
0.0 0.0 0.0

677680.3827406061 1.0931689186187284e7 0.0
1.0931689186187284e7 -8.014821307593333e6 0.0
0.0 0.0 0.0

-5.387870719610422e6 1.325417719375333e7 0.0
1.325417719375333e7 762823.3517799892 0.0
0.0 0.0 0.0

-4.680212908011536e6 1.1471196892109731e7 0.0
1.1471196892109731e7 1.1971123211229888e6 0.0
0.0 0.0 0.0

-5.5869978269199785e6 1.3563400127657592e7 0.0
1.3563400127657592e7 1.9262368311718818e7 0.0
0.0 0.0 0.0

-1.0256287953560662e7 4.274160133020784e6 0.0
4.274160133020784e6 1.3639153728513505e7 0.0
0.0 0.0 0.0

-6.507111304868038e6 -5.518571684744711e6 0.0
-5.518571684744711e6 1.2221396682936601e7 0.0
0.0 0.0 0.0

-1.1768564751763396e7 -80274.83303219221 0.0
-80274.83303219221 1.5628029877304189e7 0.0
0.0 0.0 0.0

-7.435048554946945e6 1.4272107031209217e7 0.0
1.4272107031209217e7 5.028398360181175e6 0.0
0.0 0.0 0.0

1.257038162275922e6 8.500114924607618e6 0.0
8.500114924607618e6 -7.857759192380892e6 0.0
0.0 0.0 0.0

-6.491056945057092e6 1.1854296289410185e7 0.0
1.1854296289410185e7 6.174537397476209e6 0.0
0.0 0.0 0.0

-636756.389970711 1.1861510702811867e7 0.0
1.1861510702811867e7 -5.789760041971041e6 0.0
0.0 0.0 0.0

-6.152861988936944e6 8.243901676336552e6 0.0
8.243901676336552e6 4.366511537962721e6 0.0
0.0 0.0 0.0

-6.012818618247943e6 1.2972418627065655e7 0.0
1.2972418627065655e7 5.453865585840207e6 0.0
0.0 0.0 0.0

-909505.2526957828 1.4833665599936899e7 0.0
1.4833665599936899e7 -4.442549817824573e6 0.0
0.0 0.0 0.0

-5.385158036020812e6 1.211930907592418e7 0.0
1.211930907592418e7 6.088237177667229e6 0.0
0.0 0.0 0.0

-6.610569492749382e6 1.1481436309358718e7 0.0
1.1481436309358718e7 6.51553013123177e6 0.0
0.0 0.0 0.0

-141280.42158442223 9.910393829441983e6 0.0
9.910393829441983e6 -7.863784634132834e6 0.0
0.0 0.0 0.0

-8.297360416785001e6 5.506694167036827e6 0.0
5.506694167036827e6 9.783957487600511e6 0.0
0.0 0.0 0.0

-7.287522526892899e6 1.4221762872692458e7 0.0
1.4221762872692458e7 5.503042564291513e6 0.0
0.0 0.0 0.0

2.434847006514311e6 5.892536070604369e6 0.0
5.892536070604369e6 -8.797809380897705e6 0.0
0.0 0.0 0.0

-1.2676159571864301e7 -3.77351393836107e6 0.0
-3.77351393836107e6 2.7571737804606505e7 0.0
0.0 0.0 0.0

-1.0581056205384566e6 1.2173904632393438e7 0.0
1.2173904632393438e7 -1.274801888228625e6 0.0
0.0 0.0 0.0

-7.733864731096331e6 1.4486539746661548e7 0.0
1.4486539746661548e7 5.470822928272845e6 0.0
0.0 0.0 0.0

1.6466595733664632e6 9.516852063346764e6 0.0
9.516852063346764e6 -9.162034935929988e6 0.0
0.0 0.0 0.0

-6.0337318961540945e6 1.3744626650664348e7 0.0
1.3744626650664348e7 1.641606123493257e6 0.0
0.0 0.0 0.0

1.3512673229349423e6 7.789698610732898e6 0.0
7.789698610732898e6 -7.76956719273665e6 0.0
0.0 0.0 0.0

-8.098728307563872e6 4.541172623986086e6 0.0
4.541172623986086e6 1.131100470680955e7 0.0
0.0 0.0 0.0

-2.8477693315438002e7 1.9191215680865794e7 0.0
1.9191215680865794e7 9.584103978884716e6 0.0
0.0 0.0 0.0

-5.39922144296019e6 1.1716877115772864e7 0.0
1.1716877115772864e7 1.5922150986592446e6 0.0
0.0 0.0 0.0

-6.0134789629102815e6 1.2496187063396951e7 0.0
1.2496187063396951e7 5.868639643151996e6 0.0
0.0 0.0 0.0

-219391.36769752315 2.0526186200445965e6 0.0
2.0526186200445965e6 -651091.4020510471 0.0
0.0 0.0 0.0

-6.319904557656884e6 1.1473132959512215e7 0.0
1.1473132959512215e7 1.2064292728517829e6 0.0
0.0 0.0 0.0

-6.099252425294172e6 1.3055587781462088e7 0.0
1.3055587781462088e7 5.181333122342391e6 0.0
0.0 0.0 0.0

4.018802062634112e6 5.70037327063493e6 0.0
5.70037327063493e6 -1.1309747898241255e7 0.0
0.0 0.0 0.0

-5.378383873185249e6 7.793592464660861e6 0.0
7.793592464660861e6 4.855598077716367e6 0.0
0.0 0.0 0.0

-6.159992470006298e6 6.875415253663456e6 0.0
6.875415253663456e6 6.657353038935926e6 0.0
0.0 0.0 0.0

-7.755736495297378e6 1.7406236449574456e7 0.0
1.7406236449574456e7 4.394381203791238e6 0.0
0.0 0.0 0.0

-2.6499768093933836e6 2.830627601852839e6 0.0
2.830627601852839e6 1.076531405599612e6 0.0
0.0 0.0 0.0

-8.792868937097099e6 5.897316792041617e6 0.0
5.897316792041617e6 1.0590265791742437e7 0.0
0.0 0.0 0.0

-7.7667514027977735e6 1.4942139859570533e7 0.0
1.4942139859570533e7 5.775280260564148e6 0.0
0.0 0.0 0.0

-9.770909799273985e6 -6.296849343973811e6 0.0
-6.296849343973811e6 1.978422858819552e7 0.0
0.0 0.0 0.0

-658612.9534682182 2.7767416554137724e6 0.0
2.7767416554137724e6 261956.70529122264 0.0
0.0 0.0 0.0

2.1933326623856425e6 6.749348880184362e6 0.0
6.749348880184362e6 -8.404742001874935e6 0.0
0.0 0.0 0.0

-5.990365799379935e6 1.0599557954904392e7 0.0
1.0599557954904392e7 4.43946211265587e6 0.0
0.0 0.0 0.0

-1.0269278029611573e7 5.310777460782909e6 0.0
5.310777460782909e6 1.195600344183348e7 0.0
0.0 0.0 0.0

-1.562824112272242e6 1.133853453173664e7 0.0
1.133853453173664e7 -5.022635352603566e6 0.0
0.0 0.0 0.0

-796976.0644471386 1.0949122188579982e7 0.0
1.0949122188579982e7 -5.218574485618741e6 0.0
0.0 0.0 0.0

1.3784971018859218e6 8.435171791384049e6 0.0
8.435171791384049e6 -8.288228056251666e6 0.0
0.0 0.0 0.0

535530.369710708 1.0832302618274005e7 0.0
1.0832302618274005e7 -8.619982949064288e6 0.0
0.0 0.0 0.0

-1.2642368404290415e6 8.814502114275366e6 0.0
8.814502114275366e6 1.2888071946811266e6 0.0
0.0 0.0 0.0

-1.012804839536316e7 6.280170756240945e6 0.0
6.280170756240945e6 1.1174908815361716e7 0.0
0.0 0.0 0.0

-5.620174597941388e6 1.3525434710556388e7 0.0
1.3525434710556388e7 886371.4367804467 0.0
0.0 0.0 0.0

-7.037699069012323e6 1.3409063661661446e7 0.0
1.3409063661661446e7 5.8810689328265935e6 0.0
0.0 0.0 0.0

-7.276852964648242e6 1.4503327133227937e7 0.0
1.4503327133227937e7 5.422033104202159e6 0.0
0.0 0.0 0.0

1.5942418475496247e6 1.7746814448580265e7 0.0
1.7746814448580265e7 2.77967572593222e7 0.0
0.0 0.0 0.0

-5.410604914828841e6 1.0790821303536102e7 0.0
1.0790821303536102e7 4.195096833112754e6 0.0
0.0 0.0 0.0

-494202.1270907135 1.0578123648815332e7 0.0
1.0578123648815332e7 -5.5285993011498945e6 0.0
0.0 0.0 0.0

490449.70270954166 1.1045198244415483e7 0.0
1.1045198244415483e7 -8.544175491523843e6 0.0
0.0 0.0 0.0

-77650.55746059539 1.0661965958503505e7 0.0
1.0661965958503505e7 -6.280715605033074e6 0.0
0.0 0.0 0.0

-6.594720812316629e6 1.463729967050546e7 0.0
1.463729967050546e7 3.4357826473746244e6 0.0
0.0 0.0 0.0

-5.476276429345983e6 1.0049009071564635e7 0.0
1.0049009071564635e7 3.2613017586716944e6 0.0
0.0 0.0 0.0

299841.73848288803 8.53445480576511e6 0.0
8.53445480576511e6 -1.3861924296723006e6 0.0
0.0 0.0 0.0

695798.6078273216 1.1102405900012666e7 0.0
1.1102405900012666e7 -7.78540679691631e6 0.0
0.0 0.0 0.0

-2.25215624592696e6 6.4595658122539455e6 0.0
6.4595658122539455e6 -263059.33146837965 0.0
0.0 0.0 0.0

-1.0469141400032056e7 2.046656003561654e7 0.0
2.046656003561654e7 1.3560214812954566e6 0.0
0.0 0.0 0.0

4.977690368131893e6 6.437596152609553e6 0.0
6.437596152609553e6 -1.4527023131298581e7 0.0
0.0 0.0 0.0

2.373635983496184e7 1.2686828619018352e7 0.0
1.2686828619018352e7 -1.2391663178690672e6 0.0
0.0 0.0 0.0

7.213187805897993e6 1.839567621121714e7 0.0
1.839567621121714e7 -2.2507850474822607e7 0.0
0.0 0.0 0.0

-2.518252354891248e6 1.1577504752299713e7 0.0
1.1577504752299713e7 3.864659307325719e6 0.0
0.0 0.0 0.0

-1.5529089096458845e6 9.296712339239618e6 0.0
9.296712339239618e6 2.663940359531807e6 0.0
0.0 0.0 0.0

-1.0196560726242296e7 1.0950521602535425e7 0.0
1.0950521602535425e7 3.58575621735648e6 0.0
0.0 0.0 0.0

-2.9052490619940978e7 1.079543799874075e7 0.0
1.079543799874075e7 8.756476884637887e6 0.0
0.0 0.0 0.0

-2.8929185842969674e6 6.316352672721889e6 0.0
6.316352672721889e6 1.4051633815219826e6 0.0
0.0 0.0 0.0

-5.20919587256258e6 1.2883118419177232e7 0.0
1.2883118419177232e7 2.0811467741848752e6 0.0
0.0 0.0 0.0

61644.01385127334 1.0258250379785733e7 0.0
1.0258250379785733e7 -6.479691210124024e6 0.0
0.0 0.0 0.0

4.284906813059822e6 7.627033382461851e6 0.0
7.627033382461851e6 -1.3810390986810993e7 0.0
0.0 0.0 0.0

-369646.4866049893 1.0404954700203089e7 0.0
1.0404954700203089e7 -6.709304553851228e6 0.0
0.0 0.0 0.0

1.262942673179923e6 1.0167911360553192e7 0.0
1.0167911360553192e7 -1.1584273623023532e7 0.0
0.0 0.0 0.0

-6.46691523214048e6 6.906779459293016e6 0.0
6.906779459293016e6 5.512377493989135e6 0.0
0.0 0.0 0.0

-3.659167329577208e6 1.2095583204018626e7 0.0
1.2095583204018626e7 5.612445621769633e6 0.0
0.0 0.0 0.0

-1.5880029121878124e6 8.062517763372803e6 0.0
8.062517763372803e6 666121.2892471813 0.0
0.0 0.0 0.0

-2.0791728527220776e6 -37223.72039441395 0.0
-37223.72039441395 1.698920355199059e6 0.0
0.0 0.0 0.0

-1.1218565979990896e7 -917534.6874686981 0.0
-917534.6874686981 1.4854012333355047e7 0.0
0.0 0.0 0.0

-6.38107421441102e6 1.2379614014961867e7 0.0
1.2379614014961867e7 5.194868461428076e6 0.0
0.0 0.0 0.0

-4.969924938845612e6 1.2020963188934533e7 0.0
1.2020963188934533e7 7.128171624203691e6 0.0
0.0 0.0 0.0

-5.601405896114515e6 8.682179696221285e6 0.0
8.682179696221285e6 5.076221839072018e6 0.0
0.0 0.0 0.0

622000.5168495339 4.979005719163765e6 0.0
4.979005719163765e6 -3.519241668919109e6 0.0
0.0 0.0 0.0

-1.4123824687240263e7 6.980954335250295e6 0.0
6.980954335250295e6 2.827658361402478e7 0.0
0.0 0.0 0.0

-3.7427873620483256e6 1.0527122644737273e7 0.0
1.0527122644737273e7 1.077606502419122e6 0.0
0.0 0.0 0.0

-5.210144288691079e6 1.3363199977936096e7 0.0
1.3363199977936096e7 143955.3605328058 0.0
0.0 0.0 0.0

-4.904979934648927e6 1.208830543450492e7 0.0
1.208830543450492e7 7.275557031821483e6 0.0
0.0 0.0 0.0

-2.1912834329296155e6 6.346931023900592e6 0.0
6.346931023900592e6 270103.0976622829 0.0
0.0 0.0 0.0

-1.2698192588216239e6 1.4773084664115738e7 0.0
1.4773084664115738e7 -3.337463803592648e6 0.0
0.0 0.0 0.0

-1.1920787351187846e7 -1.0709375578601912e6 0.0
-1.0709375578601912e6 3.3879140540516816e7 0.0
0.0 0.0 0.0

697496.6929001759 1.358620294617997e7 0.0
1.358620294617997e7 -4.541812816275866e6 0.0
0.0 0.0 0.0

-7.6190792287991e6 1.4402510457394866e7 0.0
1.4402510457394866e7 5.8495242494391315e6 0.0
0.0 0.0 0.0

-479216.0150938863 9.897174418520244e6 0.0
9.897174418520244e6 -8.515396091956884e6 0.0
0.0 0.0 0.0

-5.411425706810325e6 1.1841957117528744e7 0.0
1.1841957117528744e7 6.079055066496972e6 0.0
0.0 0.0 0.0

-1.0644504580749761e7 4.167398168545843e6 0.0
4.167398168545843e6 1.239200888467048e7 0.0
0.0 0.0 0.0

-5.446716236049019e6 1.5257325597046876e7 0.0
1.5257325597046876e7 1.563179660532031e6 0.0
0.0 0.0 0.0

1.746358978780734e6 6.728324846840048e6 0.0
6.728324846840048e6 -5.746696950449774e6 0.0
0.0 0.0 0.0

-1.134663672924067e7 1.850608617515835e7 0.0
1.850608617515835e7 5.668503036890572e6 0.0
0.0 0.0 0.0

778241.2172346787 1.003355432966634e7 0.0
1.003355432966634e7 803458.426828559 0.0
0.0 0.0 0.0

-4.383388765717156e6 1.209425984665176e7 0.0
1.209425984665176e7 727484.9069331056 0.0
0.0 0.0 0.0

3.5490384021710414e6 6.498642779373544e6 0.0
6.498642779373544e6 -1.1504188070147587e7 0.0
0.0 0.0 0.0

-1.5206041688017247e6 1.2442468389304867e7 0.0
1.2442468389304867e7 -677565.9655003841 0.0
0.0 0.0 0.0

-4.596390472617877e6 1.1746159872212168e7 0.0
1.1746159872212168e7 8.770642814984312e6 0.0
0.0 0.0 0.0

-6.482823601936361e6 1.368707306682043e7 0.0
1.368707306682043e7 4.483585414713174e6 0.0
0.0 0.0 0.0

-2.239700273539168e6 1.2831507561024534e7 0.0
1.2831507561024534e7 5.834227062945854e6 0.0
0.0 0.0 0.0

1.5918898835306752e6 4.552288233116276e6 0.0
4.552288233116276e6 -2.8703453721129987e6 0.0
0.0 0.0 0.0

-6.664701898792458e6 1.1482798725300534e7 0.0
1.1482798725300534e7 1.0362004041041654e7 0.0
0.0 0.0 0.0

-4.0643708792593507e6 1.2518343575844081e7 0.0
1.2518343575844081e7 2.4547914534042454e6 0.0
0.0 0.0 0.0

47538.2815633947 1.4180314057236552e7 0.0
1.4180314057236552e7 -4.362423063240363e6 0.0
0.0 0.0 0.0

-2.2632820676949136e6 1.3597580582130756e7 0.0
1.3597580582130756e7 -3.878044662270726e6 0.0
0.0 0.0 0.0

-4.69214426847091e6 1.6568587485484462e7 0.0
1.6568587485484462e7 -249701.66951043508 0.0
0.0 0.0 0.0

-1.3197825309539111e6 7.396714606697823e6 0.0
7.396714606697823e6 -663200.4945807495 0.0
0.0 0.0 0.0

-6.101314958220361e6 1.2678628752343133e7 0.0
1.2678628752343133e7 5.900706746058671e6 0.0
0.0 0.0 0.0

-7.55028301941577e6 1.6606007301732142e7 0.0
1.6606007301732142e7 1.915529013929911e6 0.0
0.0 0.0 0.0

-513161.04428328807 1.1415607367267683e7 0.0
1.1415607367267683e7 -1.1408575903243061e7 0.0
0.0 0.0 0.0

-2.2267126704442925e6 5.400981387082799e6 0.0
5.400981387082799e6 -171808.0025729296 0.0
0.0 0.0 0.0

-1.930005621857166e6 8.725628633044949e6 0.0
8.725628633044949e6 1.7897721177345426e6 0.0
0.0 0.0 0.0

-6.423322576474935e6 1.6051563777141256e7 0.0
1.6051563777141256e7 721989.320322793 0.0
0.0 0.0 0.0

745703.3578615491 1.123344985183456e7 0.0
1.123344985183456e7 -7.945673028712088e6 0.0
0.0 0.0 0.0

2.624379378233449e6 5.60844564663394e6 0.0
5.60844564663394e6 -8.532803335680459e6 0.0
0.0 0.0 0.0

-1.1759672085464342e7 -6.659289053791791e6 0.0
-6.659289053791791e6 2.986393906423676e7 0.0
0.0 0.0 0.0

1.8278405465709693e6 9.59709339754189e6 0.0
9.59709339754189e6 -9.732827375350082e6 0.0
0.0 0.0 0.0

-2.459334640139849e6 9.662063029726654e6 0.0
9.662063029726654e6 4.141765134846081e6 0.0
0.0 0.0 0.0

-5.876719592365112e6 7.413643850978592e6 0.0
7.413643850978592e6 6.242396848587261e6 0.0
0.0 0.0 0.0

-572346.6937308614 1.440922343205279e7 0.0
1.440922343205279e7 -4.714617757076183e6 0.0
0.0 0.0 0.0

1.4995023655904126e6 6.169759548479513e6 0.0
6.169759548479513e6 -7.031073288581412e6 0.0
0.0 0.0 0.0

2.0994423831184776e6 1.1174747158761555e7 0.0
1.1174747158761555e7 -4.944997554201382e6 0.0
0.0 0.0 0.0

-2.8245721913218815e6 1.1317133242692558e7 0.0
1.1317133242692558e7 6.974232518561039e6 0.0
0.0 0.0 0.0

-7.953939473885343e6 2.0883405780458633e7 0.0
2.0883405780458633e7 -2.3312561621890143e6 0.0
0.0 0.0 0.0

-906209.2201518312 1.3272817407271514e7 0.0
1.3272817407271514e7 -4.424614417831108e6 0.0
0.0 0.0 0.0

-7.073137887868747e6 1.224577361052467e7 0.0
1.224577361052467e7 1.4282402420804355e7 0.0
0.0 0.0 0.0

3.698434723248529e6 5.549719844207738e6 0.0
5.549719844207738e6 -1.0119803715139274e7 0.0
0.0 0.0 0.0

-7.398554123271318e6 1.537944381776385e7 0.0
1.537944381776385e7 3.6661926085524587e6 0.0
0.0 0.0 0.0

2.562776456741302e6 9.510315599539174e6 0.0
9.510315599539174e6 -1.503477174522622e6 0.0
0.0 0.0 0.0

-3.0325993418629643e7 4.810136131231278e6 0.0
4.810136131231278e6 1.0385212553041983e7 0.0
0.0 0.0 0.0

-6.078777795613841e6 1.315138920035481e7 0.0
1.315138920035481e7 5.326185301640285e6 0.0
0.0 0.0 0.0

-1.7046689744214541e6 5.308239531972057e6 0.0
5.308239531972057e6 -48822.90256670414 0.0
0.0 0.0 0.0

1.0178507912668758e6 1.0700797290738042e7 0.0
1.0700797290738042e7 -9.118373066868862e6 0.0
0.0 0.0 0.0

-2.5842372659591446e6 1.164708924931685e7 0.0
1.164708924931685e7 3.3194114157497343e6 0.0
0.0 0.0 0.0

689359.5053227954 1.050081651777546e7 0.0
1.050081651777546e7 -1.0767707731291208e7 0.0
0.0 0.0 0.0

4.708074964496971e6 5.678528650946216e6 0.0
5.678528650946216e6 -1.2475719440825779e7 0.0
0.0 0.0 0.0

1.427889303148023e7 1.1394464708225133e7 0.0
1.1394464708225133e7 -949151.3741678922 0.0
0.0 0.0 0.0

-5.659235809813066e7 2.6874283456657432e7 0.0
2.6874283456657432e7 1.311854380745098e6 0.0
0.0 0.0 0.0

-860331.8262685603 1.2212496484373255e7 0.0
1.2212496484373255e7 6.277390620741459e6 0.0
0.0 0.0 0.0

-3.899307066660778e6 1.2848775034364209e7 0.0
1.2848775034364209e7 -1.9813925057607344e6 0.0
0.0 0.0 0.0

-5.134195221311316e6 1.225855612534566e7 0.0
1.225855612534566e7 5.268442398069027e6 0.0
0.0 0.0 0.0

2.4602959854778023e6 5.6199361623768285e6 0.0
5.6199361623768285e6 -8.17927106199223e6 0.0
0.0 0.0 0.0

-4.412394670848873e6 1.26535613718674e7 0.0
1.26535613718674e7 3.3019523282611673e6 0.0
0.0 0.0 0.0

-7.36713509306181e6 1.5794642200747505e7 0.0
1.5794642200747505e7 4.0673860300634154e6 0.0
0.0 0.0 0.0

391920.7513329624 1.0667237348677173e7 0.0
1.0667237348677173e7 -9.55522633982305e6 0.0
0.0 0.0 0.0

-4.538208290905161e6 1.1937747483089639e7 0.0
1.1937747483089639e7 127033.95969463675 0.0
0.0 0.0 0.0

1.2020716139488635e6 6.787825108394755e6 0.0
6.787825108394755e6 -4.838705417422733e6 0.0
0.0 0.0 0.0

-2.614264969669328e6 1.0976402854970517e7 0.0
1.0976402854970517e7 7.705356422283065e6 0.0
0.0 0.0 0.0

-3.7587877372584296e6 1.2490595274720559e7 0.0
1.2490595274720559e7 500179.3046688235 0.0
0.0 0.0 0.0

-1.490200719631455e6 1.122076238306265e7 0.0
1.122076238306265e7 -4.1498186571552632e6 0.0
0.0 0.0 0.0

-5.254984672513169e6 1.1922338343761742e7 0.0
1.1922338343761742e7 2.1960837186526908e6 0.0
0.0 0.0 0.0

1.205190650653272e6 9.69657170342683e6 0.0
9.69657170342683e6 -9.438709253114894e6 0.0
0.0 0.0 0.0

-1.018815695356065e7 -6.5262107737705195e6 0.0
-6.5262107737705195e6 1.945086918481785e7 0.0
0.0 0.0 0.0

-693103.8639600715 1.0537545290681198e7 0.0
1.0537545290681198e7 -6.178670082028449e6 0.0
0.0 0.0 0.0

2.4390457214722373e6 1.0073475002111444e7 0.0
1.0073475002111444e7 -3.5478564687116053e6 0.0
0.0 0.0 0.0

-2.579400305419081e6 1.2729794938303448e7 0.0
1.2729794938303448e7 -1.2947797421042103e7 0.0
0.0 0.0 0.0

2.3643128080294854e6 6.467604199669647e6 0.0
6.467604199669647e6 -8.122474501657766e6 0.0
0.0 0.0 0.0

-101263.188090184 1.1396753347107107e7 0.0
1.1396753347107107e7 -6.5648943966739625e6 0.0
0.0 0.0 0.0

-6.025643822350766e6 1.2934458302662749e7 0.0
1.2934458302662749e7 5.589132204143762e6 0.0
0.0 0.0 0.0

-6.226311016652424e6 1.3522577521782318e7 0.0
1.3522577521782318e7 2.8561801200326183e6 0.0
0.0 0.0 0.0

-6.277635744541e6 1.1258760854217004e7 0.0
1.1258760854217004e7 5.781421405998671e6 0.0
0.0 0.0 0.0

943742.4856714525 9.541824324715555e6 0.0
9.541824324715555e6 1.414906528342287e6 0.0
0.0 0.0 0.0

-3.737080958215273e7 9.359204990288416e6 0.0
9.359204990288416e6 9.371710813487282e6 0.0
0.0 0.0 0.0

2.551946154898981e6 4.731759519640296e6 0.0
4.731759519640296e6 -5.033067610515365e6 0.0
0.0 0.0 0.0

245026.11172081693 8.244535552864292e6 0.0
8.244535552864292e6 -3.5143336133310287e6 0.0
0.0 0.0 0.0

4.289436625723327e6 1.0628070659400145e7 0.0
1.0628070659400145e7 -3.81605328138633e6 0.0
0.0 0.0 0.0

-8.846854237320444e6 1.5851340725718157e7 0.0
1.5851340725718157e7 6.751733546407593e6 0.0
0.0 0.0 0.0

1.2789383766709347e6 1.03186169178971e7 0.0
1.03186169178971e7 -1.1845495788207227e7 0.0
0.0 0.0 0.0

-1.4108892762751386e6 1.2403676088609558e7 0.0
1.2403676088609558e7 -1.203974676690015e6 0.0
0.0 0.0 0.0

-1.6829440048115908e6 1.3925517126824902e7 0.0
1.3925517126824902e7 -3.439386316342827e6 0.0
0.0 0.0 0.0

-233935.57263115235 9.497669040045658e6 0.0
9.497669040045658e6 -5.160935870847755e6 0.0
0.0 0.0 0.0

-1.0825528604402589e6 1.3699336973302655e7 0.0
1.3699336973302655e7 -4.2025139820907945e6 0.0
0.0 0.0 0.0

-750956.5632501126 1.1615070039899904e7 0.0
1.1615070039899904e7 704434.1105846534 0.0
0.0 0.0 0.0

-5.832802967429727e6 1.3480272623890752e7 0.0
1.3480272623890752e7 2.808110884259036e6 0.0
0.0 0.0 0.0

1.8839962041477384e6 7.625941271514077e6 0.0
7.625941271514077e6 -7.899834338698119e6 0.0
0.0 0.0 0.0

3.995859233786077e6 5.685374506817633e6 0.0
5.685374506817633e6 -1.121746885125988e7 0.0
0.0 0.0 0.0

-1.6924648231815163e6 475197.1018497133 0.0
475197.1018497133 -454916.60216444463 0.0
0.0 0.0 0.0

-3.5750853805658333e6 -918027.9431270548 0.0
-918027.9431270548 1.5495055593883242e6 0.0
0.0 0.0 0.0

-3.580813277229886e6 1.0454049567704743e7 0.0
1.0454049567704743e7 6.180101642885447e6 0.0
0.0 0.0 0.0

-695885.5349993813 1.125002955711154e7 0.0
1.125002955711154e7 1.0576819676760274e6 0.0
0.0 0.0 0.0

-1.1389281839362634e6 1.1567992733000426e7 0.0
1.1567992733000426e7 877630.5253344853 0.0
0.0 0.0 0.0

1.5613558712751167e6 5.514446787037754e6 0.0
5.514446787037754e6 -6.274468717942211e6 0.0
0.0 0.0 0.0

497867.00914061 1.2902174779223077e7 0.0
1.2902174779223077e7 -5.253808018692479e6 0.0
0.0 0.0 0.0

1.4566354436798673e6 6.430572821533507e6 0.0
6.430572821533507e6 -4.337639810966871e6 0.0
0.0 0.0 0.0

-1.2520006033932187e6 1.35856266344363e7 0.0
1.35856266344363e7 -3.8683799600061798e6 0.0
0.0 0.0 0.0

-8.674687182691017e6 6.79019728892819e6 0.0
6.79019728892819e6 1.193750380228046e7 0.0
0.0 0.0 0.0

-4.918370721791915e6 1.3447722989246026e7 0.0
1.3447722989246026e7 1.0686556614555938e6 0.0
0.0 0.0 0.0

-5.981106226810533e6 1.5944213169290887e7 0.0
1.5944213169290887e7 2.3742371415107786e6 0.0
0.0 0.0 0.0

2.0070437263995358e6 6.658309245238789e6 0.0
6.658309245238789e6 -8.41632967293391e6 0.0
0.0 0.0 0.0

2.1678527215418145e6 6.2646310568564255e6 0.0
6.2646310568564255e6 -8.614626254782155e6 0.0
0.0 0.0 0.0

4.822743244104354e6 1.1629021484778712e7 0.0
1.1629021484778712e7 -6.329047592761567e6 0.0
0.0 0.0 0.0

-3.575344804283164e6 1.2216971123652102e7 0.0
1.2216971123652102e7 5.769521439773629e6 0.0
0.0 0.0 0.0

-1.054734564821545e6 1.0683292222879054e7 0.0
1.0683292222879054e7 -5.668097444919961e6 0.0
0.0 0.0 0.0

-5.753451596662067e6 -5.358802217892121e6 0.0
-5.358802217892121e6 9.75452786673975e6 0.0
0.0 0.0 0.0

-8.212259763926953e6 1.5221064099671042e7 0.0
1.5221064099671042e7 6.104004885636667e6 0.0
0.0 0.0 0.0

-7.888787538894641e6 6.022954984824951e6 0.0
6.022954984824951e6 1.0269370523667688e7 0.0
0.0 0.0 0.0

-254079.7789449305 2.5256105848795483e6 0.0
2.5256105848795483e6 -1.2545211177989955e6 0.0
0.0 0.0 0.0

-1.6273278843927095e6 9.549883275093196e6 0.0
9.549883275093196e6 -3.0123768625266394e6 0.0
0.0 0.0 0.0

3.942483402401183e6 5.704597438352735e6 0.0
5.704597438352735e6 -1.0936615597779825e7 0.0
0.0 0.0 0.0

-7.345967906445385e6 1.3550651648951273e7 0.0
1.3550651648951273e7 5.945453740466755e6 0.0
0.0 0.0 0.0

-4.018763142469042e6 1.19158252924992e7 0.0
1.19158252924992e7 225989.66650699195 0.0
0.0 0.0 0.0

1.4537739164339527e6 9.499948747419989e6 0.0
9.499948747419989e6 -9.862570428275684e6 0.0
0.0 0.0 0.0

5.52254173542361e6 9.559396046555856e6 0.0
9.559396046555856e6 -2.380435244382359e6 0.0
0.0 0.0 0.0

-7.0390059893804155e6 1.3428153385266518e7 0.0
1.3428153385266518e7 5.860759178064416e6 0.0
0.0 0.0 0.0

-8.428862890704077e6 -3.3684379898025333e6 0.0
-3.3684379898025333e6 1.0977550967729282e7 0.0
0.0 0.0 0.0

-3.109489905271498e6 -835162.9960748821 0.0
-835162.9960748821 3.0401898957297485e6 0.0
0.0 0.0 0.0

2.9393022211512085e6 1.015536182312959e7 0.0
1.015536182312959e7 -3.590452312205382e6 0.0
0.0 0.0 0.0

-3.271548295744931e6 1.2705651948871398e7 0.0
1.2705651948871398e7 -1.7476951342903003e6 0.0
0.0 0.0 0.0

-3.3528672877405076e6 1.3080770224396797e7 0.0
1.3080770224396797e7 -1.611614506822091e6 0.0
0.0 0.0 0.0

-1.126378532128279e7 463064.03306353284 0.0
463064.03306353284 2.5233233083556682e7 0.0
0.0 0.0 0.0

2.1446904993718592e6 5.643151918892417e6 0.0
5.643151918892417e6 -5.925019426830273e6 0.0
0.0 0.0 0.0

-2.6036859880037396e6 1.2607411600509634e7 0.0
1.2607411600509634e7 205425.7552957252 0.0
0.0 0.0 0.0

-5.213340911167679e6 1.2424331041226627e7 0.0
1.2424331041226627e7 451206.88464836543 0.0
0.0 0.0 0.0

-1.7934488178882763e7 9.995468675599637e6 0.0
9.995468675599637e6 8.258773077570039e6 0.0
0.0 0.0 0.0

-7.974701086774422e6 1.5720570514883915e7 0.0
1.5720570514883915e7 5.346183661040411e6 0.0
0.0 0.0 0.0

-338291.34940871474 1.1185002468675064e7 0.0
1.1185002468675064e7 -1.2450343461796e6 0.0
0.0 0.0 0.0

-7.671041794858449e6 -4.026004129441503e6 0.0
-4.026004129441503e6 1.0582809794014523e7 0.0
0.0 0.0 0.0

4.318362319586241e6 1.133457450493806e7 0.0
1.133457450493806e7 -5.707978180654923e6 0.0
0.0 0.0 0.0

-1.9927143771853724e6 1.0535483742220445e7 0.0
1.0535483742220445e7 -2.9853650472105923e6 0.0
0.0 0.0 0.0

-5.882069160141536e6 322716.35983841826 0.0
322716.35983841826 6.986018282082614e6 0.0
0.0 0.0 0.0

-6.702101931475582e6 1.1467005473608525e7 0.0
1.1467005473608525e7 5.427319581788035e6 0.0
0.0 0.0 0.0

-6.636005213458747e6 1.2164656796897588e7 0.0
1.2164656796897588e7 5.529059528968807e6 0.0
0.0 0.0 0.0

1.1965344400747716e6 4.1882300125734787e6 0.0
4.1882300125734787e6 -3.771773857981622e6 0.0
0.0 0.0 0.0

2.465448472231603e6 6.068933444886322e6 0.0
6.068933444886322e6 -8.960976937869385e6 0.0
0.0 0.0 0.0

3.5997694559112955e6 8.0794912716118945e6 0.0
8.0794912716118945e6 -1.4438562120209266e7 0.0
0.0 0.0 0.0

-3.029109975265177e6 1.046542263582902e7 0.0
1.046542263582902e7 6.614885524640617e6 0.0
0.0 0.0 0.0

2.376373165725054e6 6.518238750975615e6 0.0
6.518238750975615e6 -5.73581745604861e6 0.0
0.0 0.0 0.0

1.1884317756545986e6 1.6761599898743747e7 0.0
1.6761599898743747e7 -7.983563585366383e6 0.0
0.0 0.0 0.0

2.8651568472146546e6 5.90307295831368e6 0.0
5.90307295831368e6 -8.696044119898066e6 0.0
0.0 0.0 0.0

1.4495910193352615e6 5.707029316587714e6 0.0
5.707029316587714e6 -5.9456194637763e6 0.0
0.0 0.0 0.0

1.890823814171236e6 5.952380643346944e6 0.0
5.952380643346944e6 -7.523313981192749e6 0.0
0.0 0.0 0.0

-256342.3912819572 1.1542545256336277e7 0.0
1.1542545256336277e7 -746614.370949655 0.0
0.0 0.0 0.0

-502851.61528234044 1.1255697629495984e7 0.0
1.1255697629495984e7 481733.6815620684 0.0
0.0 0.0 0.0

1.2845697801720574e6 1.0363055791911008e7 0.0
1.0363055791911008e7 -9.378602021613672e6 0.0
0.0 0.0 0.0

-2.0785853543826244e6 1.8025088487104833e7 0.0
1.8025088487104833e7 -6.508226991702745e6 0.0
0.0 0.0 0.0

-5.742500784833223e6 -557391.3535550528 0.0
-557391.3535550528 6.354875416269889e6 0.0
0.0 0.0 0.0

-6.581491395025986e6 1.2130600107096514e7 0.0
1.2130600107096514e7 6.269685937679131e6 0.0
0.0 0.0 0.0

-8.241369421324811e6 1.5004256952987218e7 0.0
1.5004256952987218e7 5.700742996932587e6 0.0
0.0 0.0 0.0

-5.148197370042124e6 1.335992944939957e7 0.0
1.335992944939957e7 1.4772773645073113e6 0.0
0.0 0.0 0.0

-541224.7188963672 2.83395049056956e6 0.0
2.83395049056956e6 -110661.84282704684 0.0
0.0 0.0 0.0

-806697.5370075045 2.9189480976773477e6 0.0
2.9189480976773477e6 -777882.0085907978 0.0
0.0 0.0 0.0

-2.331375460685942e6 1.2301217357780363e7 0.0
1.2301217357780363e7 4.963930711945803e6 0.0
0.0 0.0 0.0

2.6687124287224323e6 3.567108903589665e6 0.0
3.567108903589665e6 -4.81299925833203e6 0.0
0.0 0.0 0.0

-1.490574174011695e6 1.4602651218713313e7 0.0
1.4602651218713313e7 -4.130515861778607e6 0.0
0.0 0.0 0.0

-3.072428107171991e6 1.2524182266072763e7 0.0
1.2524182266072763e7 -2.917816217107927e6 0.0
0.0 0.0 0.0

340201.996589805 1.1405626121733509e7 0.0
1.1405626121733509e7 -7.273039588650787e6 0.0
0.0 0.0 0.0

-4.1837756119031026e6 1.1374970991854254e7 0.0
1.1374970991854254e7 1.284627932250191e6 0.0
0.0 0.0 0.0

-6.763599075036291e6 1.0976645841919621e7 0.0
1.0976645841919621e7 5.258082005386208e6 0.0
0.0 0.0 0.0

-6.6551459543669615e6 7.284089471137459e6 0.0
7.284089471137459e6 8.029672450981941e6 0.0
0.0 0.0 0.0

-1.7630201272435408e7 1.460588263923507e7 0.0
1.460588263923507e7 1.2240921986956343e7 0.0
0.0 0.0 0.0

2.348405992211827e6 6.474313150146208e6 0.0
6.474313150146208e6 -5.242397348312464e6 0.0
0.0 0.0 0.0

-871226.7199214511 1.069085123212178e7 0.0
1.069085123212178e7 -5.044471594156801e6 0.0
0.0 0.0 0.0

5.141860805991356e6 6.507919705798745e6 0.0
6.507919705798745e6 -1.458441889202956e7 0.0
0.0 0.0 0.0

-2.7113872027880102e6 1.3926173214960478e7 0.0
1.3926173214960478e7 -3.3838313977502915e6 0.0
0.0 0.0 0.0

-2.904657551609404e6 6.090307375865941e6 0.0
6.090307375865941e6 489992.41512178746 0.0
0.0 0.0 0.0

-1.448939689918491e6 1.0708870153174693e7 0.0
1.0708870153174693e7 -9.282538255711282e6 0.0
0.0 0.0 0.0

6.115544578949472e6 1.2825339667208584e7 0.0
1.2825339667208584e7 2.871756001662297e6 0.0
0.0 0.0 0.0

-947878.0536817583 3.6005477273807493e6 0.0
3.6005477273807493e6 -157257.88884916424 0.0
0.0 0.0 0.0

-3.068513891246341e6 1.198455603422126e7 0.0
1.198455603422126e7 7.673673496467816e6 0.0
0.0 0.0 0.0

-2.2555646366156917e6 1.1136003438812567e7 0.0
1.1136003438812567e7 8.371819286974664e6 0.0
0.0 0.0 0.0

-2.749413090154182e6 7.783782211023139e6 0.0
7.783782211023139e6 -3.0098780657541323e6 0.0
0.0 0.0 0.0

-8.301298726842418e6 1.7573291506713558e7 0.0
1.7573291506713558e7 2.46512552608482e6 0.0
0.0 0.0 0.0

-4.245821697690821e6 1.2143108303913029e7 0.0
1.2143108303913029e7 -808121.1270441564 0.0
0.0 0.0 0.0

-6.328215602291359e6 8.734372566301886e6 0.0
8.734372566301886e6 6.364981519927634e6 0.0
0.0 0.0 0.0

4.317574537984494e6 8.774718004965654e6 0.0
8.774718004965654e6 -1.8221037175766144e7 0.0
0.0 0.0 0.0

-971958.1829621979 3.2428527454857244e6 0.0
3.2428527454857244e6 -619230.7650538331 0.0
0.0 0.0 0.0

-838485.843341283 1.1671846690705618e7 0.0
1.1671846690705618e7 -2.0094162849625957e6 0.0
0.0 0.0 0.0

1.190155632041943e6 9.98404025085339e6 0.0
9.98404025085339e6 3.056080289316436e6 0.0
0.0 0.0 0.0

-6.261537699381664e6 5.856210551939904e6 0.0
5.856210551939904e6 6.620097536368372e6 0.0
0.0 0.0 0.0

-5.497246800796279e6 1.2228797892155536e7 0.0
1.2228797892155536e7 5.9234177300417395e6 0.0
0.0 0.0 0.0

-6.3803108271985315e6 1.2597600574271547e7 0.0
1.2597600574271547e7 4.942790502695713e6 0.0
0.0 0.0 0.0

-1.8593853372523125e7 1.4559684240630893e7 0.0
1.4559684240630893e7 1.228410621793237e7 0.0
0.0 0.0 0.0

771474.9813548194 6.866039974129478e6 0.0
6.866039974129478e6 -4.244345347284406e6 0.0
0.0 0.0 0.0

-6.553972436958198e6 1.236184154275795e7 0.0
1.236184154275795e7 4.608806954993119e6 0.0
0.0 0.0 0.0

-3.6560110433571427e6 1.167047898881911e7 0.0
1.167047898881911e7 -1.031399190171853e6 0.0
0.0 0.0 0.0

-690391.3338304991 1.1532850570067665e7 0.0
1.1532850570067665e7 7.44537218696866e6 0.0
0.0 0.0 0.0

-5.140308845852118e6 1.2972923692166008e7 0.0
1.2972923692166008e7 435208.4993962713 0.0
0.0 0.0 0.0

1.7748177095751772e6 6.3281528505671285e6 0.0
6.3281528505671285e6 -5.321442142104755e6 0.0
0.0 0.0 0.0

-2.0514297760502659e6 1.1323471876775015e7 0.0
1.1323471876775015e7 -4.282538869919111e6 0.0
0.0 0.0 0.0

-2.308560491875913e6 2.7465197366664833e6 0.0
2.7465197366664833e6 2.353996259674661e6 0.0
0.0 0.0 0.0

2.6309654593292167e6 6.262309200371771e6 0.0
6.262309200371771e6 -8.477490255840017e6 0.0
0.0 0.0 0.0

5.318330427928778e6 6.952835253472112e6 0.0
6.952835253472112e6 -1.5379460215105299e7 0.0
0.0 0.0 0.0

-2.903276866067457e6 1.0681991654273573e7 0.0
1.0681991654273573e7 5.178761574612921e6 0.0
0.0 0.0 0.0

-173621.34315636964 1.1725882515248835e7 0.0
1.1725882515248835e7 -6.613101211804721e6 0.0
0.0 0.0 0.0

-6.726604899824692e6 8.529989413072947e6 0.0
8.529989413072947e6 5.204085484831359e6 0.0
0.0 0.0 0.0

2.134502815156975e6 4.7879435606266875e6 0.0
4.7879435606266875e6 -7.774637865768254e6 0.0
0.0 0.0 0.0

406808.7204219429 1.0141539680605263e7 0.0
1.0141539680605263e7 -6.857673975019899e6 0.0
0.0 0.0 0.0

132868.09499027207 1.1223189989952931e7 0.0
1.1223189989952931e7 -7.831583812481878e6 0.0
0.0 0.0 0.0

-7.0264258637731075e6 9.254426207278945e6 0.0
9.254426207278945e6 5.650058762725122e6 0.0
0.0 0.0 0.0

-4.683180740857527e6 2.6151569386310433e6 0.0
2.6151569386310433e6 3.592807201161219e6 0.0
0.0 0.0 0.0

-1.7928415131088072e6 1.4992371615081385e6 0.0
1.4992371615081385e6 2.101138938976303e6 0.0
0.0 0.0 0.0

-455078.6133826948 1.1584392363261051e7 0.0
1.1584392363261051e7 -6.799727805278974e6 0.0
0.0 0.0 0.0

-2.155403254699229e6 5.744998489885827e6 0.0
5.744998489885827e6 497809.26280893385 0.0
0.0 0.0 0.0

-1.2115890208900748e6 1.1393574362580717e7 0.0
1.1393574362580717e7 8.3348638809217205e6 0.0
0.0 0.0 0.0

-3.51414025674304e6 1.2696724280410627e7 0.0
1.2696724280410627e7 -2.5604685385127836e6 0.0
0.0 0.0 0.0

1.830040718380868e6 6.568801728519375e6 0.0
6.568801728519375e6 -4.37344003691435e6 0.0
0.0 0.0 0.0

-1.023709371973786e7 88482.2849349963 0.0
88482.2849349963 1.6021834259828571e7 0.0
0.0 0.0 0.0

-6.742820023586229e6 1.37582804149828e7 0.0
1.37582804149828e7 4.388595428165502e6 0.0
0.0 0.0 0.0

-8.52141942174666e6 1.3241438758938076e7 0.0
1.3241438758938076e7 7.10506911723144e6 0.0
0.0 0.0 0.0

-1.7018298622343007e6 3.7051055237315274e6 0.0
3.7051055237315274e6 -119225.5607353631 0.0
0.0 0.0 0.0

-7.364954019231435e6 -143065.49014268062 0.0
-143065.49014268062 8.762986619081262e6 0.0
0.0 0.0 0.0

1.3983590091816192e6 9.762323219984597e6 0.0
9.762323219984597e6 -9.979027465333706e6 0.0
0.0 0.0 0.0

-6.766061543077521e6 9.881683190614369e6 0.0
9.881683190614369e6 6.7992910906838365e6 0.0
0.0 0.0 0.0

-1.0904519469650302e7 831464.7810165738 0.0
831464.7810165738 1.6756302267421797e7 0.0
0.0 0.0 0.0

-2.983558897236563e7 6.572509736840705e6 0.0
6.572509736840705e6 1.3112973063849619e7 0.0
0.0 0.0 0.0

243955.69504215196 8.610446639302574e6 0.0
8.610446639302574e6 -6.129218181730159e6 0.0
0.0 0.0 0.0

-247889.60350868123 1.1349337106132979e7 0.0
1.1349337106132979e7 -1.3217337601494796e6 0.0
0.0 0.0 0.0

3.8938753002114715e6 5.505794783923436e6 0.0
5.505794783923436e6 -1.0562994017043727e7 0.0
0.0 0.0 0.0

-7.054289758498306e6 1.051043920109916e7 0.0
1.051043920109916e7 1.1096259115526667e7 0.0
0.0 0.0 0.0

-1.145069725373723e7 742362.6621856958 0.0
742362.6621856958 1.4926744300987761e7 0.0
0.0 0.0 0.0

977964.1450498844 6.8433663160796e6 0.0
6.8433663160796e6 -4.731604919384087e6 0.0
0.0 0.0 0.0

-3.478493251434838e6 1.177376324719439e7 0.0
1.177376324719439e7 -944789.4008972464 0.0
0.0 0.0 0.0

-5.585082844235927e6 1.238121113898698e7 0.0
1.238121113898698e7 2.538028313188521e6 0.0
0.0 0.0 0.0

-5.719894992940415e6 1.0336216201788789e7 0.0
1.0336216201788789e7 4.664394896842271e6 0.0
0.0 0.0 0.0

-7.602174401554013e6 1.3553451176625589e7 0.0
1.3553451176625589e7 6.383438780450745e6 0.0
0.0 0.0 0.0

-3.901322258698481e6 1.0487845224367322e7 0.0
1.0487845224367322e7 417801.2348367197 0.0
0.0 0.0 0.0

-8.207999542245698e6 -6.138713830881774e6 0.0
-6.138713830881774e6 1.5693608900820984e7 0.0
0.0 0.0 0.0

-1.3742903911030344e6 1.1970230610376583e7 0.0
1.1970230610376583e7 3.6965796063458063e6 0.0
0.0 0.0 0.0

-415086.5231694828 1.0799479727707049e7 0.0
1.0799479727707049e7 -5.770344159856489e6 0.0
0.0 0.0 0.0

-1.0749853275137499e7 9.964458709828261e6 0.0
9.964458709828261e6 7.809197299319746e6 0.0
0.0 0.0 0.0

400524.3554914263 3.585367861299508e6 0.0
3.585367861299508e6 -2.768553726134423e6 0.0
0.0 0.0 0.0

-7.712695352083236e6 1.4724123305819094e7 0.0
1.4724123305819094e7 5.850811597206939e6 0.0
0.0 0.0 0.0

-283076.2962592136 1.1258752411375856e7 0.0
1.1258752411375856e7 -1.6057749452413956e6 0.0
0.0 0.0 0.0

-9.078189661711594e6 7.679896338759511e6 0.0
7.679896338759511e6 1.0119446209664602e7 0.0
0.0 0.0 0.0

1.5239728471501553e6 8.44033769577604e6 0.0
8.44033769577604e6 -7.802056603709027e6 0.0
0.0 0.0 0.0

-7.192941643558042e6 7.870143345307811e6 0.0
7.870143345307811e6 9.457303016880482e6 0.0
0.0 0.0 0.0

2.1031529540149802e6 6.551020665247297e6 0.0
6.551020665247297e6 -4.809382054266164e6 0.0
0.0 0.0 0.0

2.4382523889217484e6 6.671566785745568e6 0.0
6.671566785745568e6 -8.40729444986689e6 0.0
0.0 0.0 0.0

-1.3686566342100226e6 1.2463206474056887e7 0.0
1.2463206474056887e7 -743687.023997287 0.0
0.0 0.0 0.0

-4.329618776801953e6 1.1087556213153029e7 0.0
1.1087556213153029e7 1.5529729899886046e6 0.0
0.0 0.0 0.0

-5.41655209249365e6 1.2446233910225948e7 0.0
1.2446233910225948e7 3.072334169801746e6 0.0
0.0 0.0 0.0

-1.8345373496160144e6 1.3700002269374829e7 0.0
1.3700002269374829e7 -4.060307699892586e6 0.0
0.0 0.0 0.0

2.26036530904638e6 5.983542539874675e6 0.0
5.983542539874675e6 -7.591189687605695e6 0.0
0.0 0.0 0.0

1.0762354577076372e6 6.708735425400366e6 0.0
6.708735425400366e6 -3.377708042512572e6 0.0
0.0 0.0 0.0

2.157017331279782e6 6.472388304714326e6 0.0
6.472388304714326e6 -8.813269878790684e6 0.0
0.0 0.0 0.0

1.1495832701433692e6 6.781877079918884e6 0.0
6.781877079918884e6 -4.88880125244093e6 0.0
0.0 0.0 0.0

1.9289505373713432e6 1.197052374950519e7 0.0
1.197052374950519e7 6.5237228841946805e6 0.0
0.0 0.0 0.0

-1.0117179393196989e7 1.584556246438894e7 0.0
1.584556246438894e7 7.820535909364055e6 0.0
0.0 0.0 0.0

-6.382462634387077e6 -2.4826416372443694e6 0.0
-2.4826416372443694e6 1.0068760207773909e7 0.0
0.0 0.0 0.0

3.9935174520562533e6 7.8347353492201995e6 0.0
7.8347353492201995e6 -1.3272781160798034e7 0.0
0.0 0.0 0.0

-2.0606161382706081e6 1.3769571827760087e7 0.0
1.3769571827760087e7 -3.140731568201129e6 0.0
0.0 0.0 0.0

-1.1740147280671743e6 1.217217918513174e7 0.0
1.217217918513174e7 -1.4355765466889204e6 0.0
0.0 0.0 0.0

2.923313657737627e6 7.198237783426822e6 0.0
7.198237783426822e6 -1.0971362454071747e7 0.0
0.0 0.0 0.0

-1.1378604842350444e7 1.4517335215262547e7 0.0
1.4517335215262547e7 9.050340382872883e6 0.0
0.0 0.0 0.0

-3.8964283801337457e6 1.1612395332817925e7 0.0
1.1612395332817925e7 8.463198049019773e6 0.0
0.0 0.0 0.0

-2.3849268163168836e7 1.163042819161343e7 0.0
1.163042819161343e7 1.2658024038714223e7 0.0
0.0 0.0 0.0

-3.8832711464829287e6 1.116104768028178e7 0.0
1.116104768028178e7 5.62268824265742e6 0.0
0.0 0.0 0.0

1.5376477556408034e6 8.001121756201159e6 0.0
8.001121756201159e6 -7.840337072213197e6 0.0
0.0 0.0 0.0

2.18370100726861e7 1.3030693724913597e7 0.0
1.3030693724913597e7 198898.98381023016 0.0
0.0 0.0 0.0

-5.953503642597281e6 1.0943737594873037e7 0.0
1.0943737594873037e7 1.094761246457176e7 0.0
0.0 0.0 0.0

-3.255145167687999e6 2.9100804971821024e6 0.0
2.9100804971821024e6 3.5023851853474253e6 0.0
0.0 0.0 0.0

-569525.1577677126 1.137664090227787e7 0.0
1.137664090227787e7 568469.9813425884 0.0
0.0 0.0 0.0

618733.5763281351 1.0562267331953082e7 0.0
1.0562267331953082e7 -9.392495138216358e6 0.0
0.0 0.0 0.0

1.0694357289742448e6 1.383105205541744e7 0.0
1.383105205541744e7 -4.967142087832331e6 0.0
0.0 0.0 0.0

-5.450422285456953e6 1.0460272512432955e7 0.0
1.0460272512432955e7 3.620374877322022e6 0.0
0.0 0.0 0.0

-1.0901673286474817e7 -374152.6842132634 0.0
-374152.6842132634 1.4049090677859634e7 0.0
0.0 0.0 0.0

-1.1837215917066237e7 1.494346869987742e7 0.0
1.494346869987742e7 8.5717065262141e6 0.0
0.0 0.0 0.0

-4.1009392094516316e6 1.2540850860363523e7 0.0
1.2540850860363523e7 2.2600558965766313e6 0.0
0.0 0.0 0.0

-5.567335514035374e6 1.2198020275449043e7 0.0
1.2198020275449043e7 2.6460544436243433e6 0.0
0.0 0.0 0.0

-5.69392865940328e6 1.49559141286485e7 0.0
1.49559141286485e7 1.719914208055241e6 0.0
0.0 0.0 0.0

-6.644345465944804e6 1.3460942438097574e7 0.0
1.3460942438097574e7 4.0594963229430337e6 0.0
0.0 0.0 0.0

-388414.4682009347 1.1584233152040789e7 0.0
1.1584233152040789e7 -1.2173745802699563e6 0.0
0.0 0.0 0.0

-2.622927776416204e6 1.1686753106979158e7 0.0
1.1686753106979158e7 3.9589914633910423e6 0.0
0.0 0.0 0.0

1.8568350730293216e6 1.0100567032745894e7 0.0
1.0100567032745894e7 -3.507189990305715e6 0.0
0.0 0.0 0.0

-900351.5746219289 1.1259983729967056e7 0.0
1.1259983729967056e7 -1.095799769073433e7 0.0
0.0 0.0 0.0

-480879.8563313039 1.168395326363721e7 0.0
1.168395326363721e7 -661215.6303141642 0.0
0.0 0.0 0.0

-4.443468688287994e6 1.1034724194333551e7 0.0
1.1034724194333551e7 996171.4238244051 0.0
0.0 0.0 0.0

-4.704104530073353e6 6.528607775869915e6 0.0
6.528607775869915e6 1.1737337338580832e7 0.0
0.0 0.0 0.0

-1.929509663849511e6 1.206083130176117e7 0.0
1.206083130176117e7 -3.7473539596413225e6 0.0
0.0 0.0 0.0

228552.74103515455 1.005861562301119e7 0.0
1.005861562301119e7 -7.382820261729222e6 0.0
0.0 0.0 0.0

2.446525575764256e6 5.832511653731555e6 0.0
5.832511653731555e6 -7.990152858886803e6 0.0
0.0 0.0 0.0

-6.102317189258946e6 1.1169061423721328e7 0.0
1.1169061423721328e7 1.0205773347659968e7 0.0
0.0 0.0 0.0

-2.128532101200844e6 1.202403784122031e7 0.0
1.202403784122031e7 2.572168078410872e6 0.0
0.0 0.0 0.0

-7.753439138848558e6 7.670332419429408e6 0.0
7.670332419429408e6 9.921946399149286e6 0.0
0.0 0.0 0.0

-5.231278203699626e6 1.0157105070579128e7 0.0
1.0157105070579128e7 3.9985740035835863e6 0.0
0.0 0.0 0.0

-2.061012736971741e6 1.2634930155907674e7 0.0
1.2634930155907674e7 -860939.4712032878 0.0
0.0 0.0 0.0

-7.737789152801064e6 8.222856609584384e6 0.0
8.222856609584384e6 8.79242554175877e6 0.0
0.0 0.0 0.0

-9.102255400137328e6 6.976963762811361e6 0.0
6.976963762811361e6 1.0488372536449868e7 0.0
0.0 0.0 0.0

-7.148190487249043e6 7.015691621626329e6 0.0
7.015691621626329e6 6.677046364126972e6 0.0
0.0 0.0 0.0

-1.7371482823816887e6 1.0446101380377075e6 0.0
1.0446101380377075e6 1.3375193632049244e6 0.0
0.0 0.0 0.0

-6.291903091044873e6 1.1559640736220686e7 0.0
1.1559640736220686e7 5.612160408660203e6 0.0
0.0 0.0 0.0

723772.9218002679 1.0553249268316226e7 0.0
1.0553249268316226e7 -1.1242085226829905e7 0.0
0.0 0.0 0.0

940061.1346591334 1.0413177649420045e7 0.0
1.0413177649420045e7 -9.471015614387497e6 0.0
0.0 0.0 0.0

-1.6988828574677374e7 1.2160333912810504e7 0.0
1.2160333912810504e7 6.7313921911058705e6 0.0
0.0 0.0 0.0

-1.0142073958749406e7 -1.540113364617301e6 0.0
-1.540113364617301e6 1.8377849022650525e7 0.0
0.0 0.0 0.0

1.1439279769555759e6 1.0551722941862827e7 0.0
1.0551722941862827e7 -8.864128806047957e6 0.0
0.0 0.0 0.0

-6.7481476400973005e6 1.3999321462261306e7 0.0
1.3999321462261306e7 3.593266526925584e6 0.0
0.0 0.0 0.0

-759061.9513027751 1.1474736892333075e7 0.0
1.1474736892333075e7 2.2986855590303633e6 0.0
0.0 0.0 0.0

-106422.52476638003 2.289338017040643e6 0.0
2.289338017040643e6 -216871.38383196166 0.0
0.0 0.0 0.0

-447293.81046575017 1.137354228532317e7 0.0
1.137354228532317e7 -1.6738134010638823e6 0.0
0.0 0.0 0.0

-3.005302632079373e6 1.0784866030373676e7 0.0
1.0784866030373676e7 -2.0021949863882794e6 0.0
0.0 0.0 0.0

-2.840004251371018e6 4.539346826780688e6 0.0
4.539346826780688e6 1.0234750079397882e6 0.0
0.0 0.0 0.0

4.730434905639993e6 5.454077880090754e6 0.0
5.454077880090754e6 -1.28464565906395e7 0.0
0.0 0.0 0.0

-2480.008167262189 7.457919955239099e6 0.0
7.457919955239099e6 -4.449706226277918e6 0.0
0.0 0.0 0.0

-8.571710609862216e6 43672.28609356651 0.0
43672.28609356651 9.09908990491416e6 0.0
0.0 0.0 0.0

-1.9319115361102326e6 1.2658267977493087e7 0.0
1.2658267977493087e7 -4.670467090352917e6 0.0
0.0 0.0 0.0

-619981.4364383046 1.2497943612404762e7 0.0
1.2497943612404762e7 4.178574812933981e6 0.0
0.0 0.0 0.0

264552.57896222244 7.252810999062203e6 0.0
7.252810999062203e6 -3.7560427409885773e6 0.0
0.0 0.0 0.0

-4.1060211721486873e6 1.0949280100358987e7 0.0
1.0949280100358987e7 8.381708992604705e6 0.0
0.0 0.0 0.0

-1.0842142063523857e7 1.5906865068281524e7 0.0
1.5906865068281524e7 8.144643360380643e6 0.0
0.0 0.0 0.0

-3.67840926738452e6 2.9443654113935013e6 0.0
2.9443654113935013e6 2.0172048321861262e6 0.0
0.0 0.0 0.0

-2.545632621476753e6 1.1774389375200404e7 0.0
1.1774389375200404e7 4.159243828759808e6 0.0
0.0 0.0 0.0

1.2479568460321054e6 8.213309595774868e6 0.0
8.213309595774868e6 -8.168972842270955e6 0.0
0.0 0.0 0.0

-8.177593461686406e6 1.129503938558271e7 0.0
1.129503938558271e7 4.17251872613226e6 0.0
0.0 0.0 0.0

-46437.414098665235 2.778796874258375e6 0.0
2.778796874258375e6 -2.045710909992864e6 0.0
0.0 0.0 0.0

-4.0515258523967178e6 1.26126013400217e7 0.0
1.26126013400217e7 256691.0822421622 0.0
0.0 0.0 0.0

6.161045607620539e6 1.2494247322758272e7 0.0
1.2494247322758272e7 3.176499109940801e6 0.0
0.0 0.0 0.0

-3.8958492801682614e6 1.1740094349246966e7 0.0
1.1740094349246966e7 -780555.2111965816 0.0
0.0 0.0 0.0

1.4382202307310281e6 8.208995284248146e6 0.0
8.208995284248146e6 -7.529193296962615e6 0.0
0.0 0.0 0.0

-6.048883964862939e6 1.2558149405543946e7 0.0
1.2558149405543946e7 5.782164919150544e6 0.0
0.0 0.0 0.0

-1.0377978924458075e7 -6.095521919038735e6 0.0
-6.095521919038735e6 2.1779298002023213e7 0.0
0.0 0.0 0.0

-2.63644125839278e6 1.128672788748566e7 0.0
1.128672788748566e7 -369326.5763461013 0.0
0.0 0.0 0.0

-8.090177354226837e6 1.4947489252087824e7 0.0
1.4947489252087824e7 6.176448694630608e6 0.0
0.0 0.0 0.0

1.4138209292034986e6 1.0074653112015106e7 0.0
1.0074653112015106e7 -1.119156274030541e7 0.0
0.0 0.0 0.0

482566.5541609647 1.1437682565709641e7 0.0
1.1437682565709641e7 -7.511059566566208e6 0.0
0.0 0.0 0.0

559076.0311441296 1.1210650640324991e7 0.0
1.1210650640324991e7 -7.773048084581105e6 0.0
0.0 0.0 0.0

-1.0466679852417346e7 4.676653762729314e6 0.0
4.676653762729314e6 1.3569064485282078e7 0.0
0.0 0.0 0.0

-5.97931367477579e6 1.0650501753766276e7 0.0
1.0650501753766276e7 4.289266473449702e6 0.0
0.0 0.0 0.0

-1.3837348082174696e7 7.480908759942444e6 0.0
7.480908759942444e6 4.821325731982492e7 0.0
0.0 0.0 0.0

7.708875663407748e6 1.0515973670537258e7 0.0
1.0515973670537258e7 -2.1040366757419206e7 0.0
0.0 0.0 0.0

-1.0765786146312939e7 1.223422448803719e7 0.0
1.223422448803719e7 5.375054160913015e6 0.0
0.0 0.0 0.0

-2.6454384632445704e6 1.1701533392376453e7 0.0
1.1701533392376453e7 2.9240790885103894e6 0.0
0.0 0.0 0.0

-9.298619910471847e6 1.1619227522230629e7 0.0
1.1619227522230629e7 2.1626520280490667e6 0.0
0.0 0.0 0.0

-251642.03719919926 2.731181260662937e6 0.0
2.731181260662937e6 -507613.90121583326 0.0
0.0 0.0 0.0

-7.585866810921913e6 8.94594127650998e6 0.0
8.94594127650998e6 7.52108863033899e6 0.0
0.0 0.0 0.0

-4.120991336501935e6 1.2666864735758279e7 0.0
1.2666864735758279e7 241657.478659285 0.0
0.0 0.0 0.0

-7.984416643076591e6 587206.3917811463 0.0
587206.3917811463 1.0082169645325327e7 0.0
0.0 0.0 0.0

7.032665181072736e6 1.2744456027274132e7 0.0
1.2744456027274132e7 3.1559119018395795e6 0.0
0.0 0.0 0.0

-3.3666200228553507e6 1.2161521039595533e7 0.0
1.2161521039595533e7 5.720065560160952e6 0.0
0.0 0.0 0.0

-6.366587785536313e6 9.622910233539179e6 0.0
9.622910233539179e6 6.278672706361609e6 0.0
0.0 0.0 0.0

-1.901254328953767e7 1.1992202674292345e7 0.0
1.1992202674292345e7 1.3285747950360302e7 0.0
0.0 0.0 0.0

1.7401901354060885e6 9.95188460093993e6 0.0
9.95188460093993e6 -1.0981402426803857e6 0.0
0.0 0.0 0.0

2.4281428664572705e6 9.986348481430192e6 0.0
9.986348481430192e6 -3.958052119110913e6 0.0
0.0 0.0 0.0

-6.318803143728352e6 1.2932915018417425e7 0.0
1.2932915018417425e7 5.647146545772333e6 0.0
0.0 0.0 0.0

-2.708220232248439e6 1.2532709581694745e7 0.0
1.2532709581694745e7 256117.77226161782 0.0
0.0 0.0 0.0

313125.990867245 8.958064556050597e6 0.0
8.958064556050597e6 -4.055545633674084e6 0.0
0.0 0.0 0.0

2.3307646775327837e6 1.0827965930491082e7 0.0
1.0827965930491082e7 -4.960749486494921e6 0.0
0.0 0.0 0.0

-3.627319548570602e6 1.0401654711763587e7 0.0
1.0401654711763587e7 5.048272563745102e6 0.0
0.0 0.0 0.0

-7.10359117581462e6 1.660532173411731e7 0.0
1.660532173411731e7 3.5012915984690865e6 0.0
0.0 0.0 0.0

-6.52762053304347e6 1.1680153916107714e7 0.0
1.1680153916107714e7 5.8498926512901e6 0.0
0.0 0.0 0.0

-1.0935117817051034e7 1.5804566929988403e7 0.0
1.5804566929988403e7 7.9922721105175875e6 0.0
0.0 0.0 0.0

-208747.31712751277 1.1253853066717397e7 0.0
1.1253853066717397e7 -1.1760323134065816e7 0.0
0.0 0.0 0.0

-737444.3211263064 1.3496573200716497e7 0.0
1.3496573200716497e7 -1.6261464057625001e7 0.0
0.0 0.0 0.0

-38034.61650678143 1.3531760046933629e7 0.0
1.3531760046933629e7 3.552647462673781e7 0.0
0.0 0.0 0.0

-551049.868378938 1.2529604633980742e7 0.0
1.2529604633980742e7 4.420673643556072e6 0.0
0.0 0.0 0.0

2.9012477731332825e6 8.3685009163421765e6 0.0
8.3685009163421765e6 -1.2499210150190344e7 0.0
0.0 0.0 0.0

-8.015391421985915e6 1.6400225637868313e7 0.0
1.6400225637868313e7 3.211080161771053e6 0.0
0.0 0.0 0.0

-2.898458750185366e6 1.25383284058127e7 0.0
1.25383284058127e7 -2.3160184610612565e6 0.0
0.0 0.0 0.0

-515577.7101351015 1.167255472848872e7 0.0
1.167255472848872e7 -2.0400129407512592e6 0.0
0.0 0.0 0.0

-1.2782832710347688e6 1.2756794383766184e7 0.0
1.2756794383766184e7 -4.517015168663285e6 0.0
0.0 0.0 0.0

-2.058976750205317e7 1.2412728561513975e7 0.0
1.2412728561513975e7 1.394274725699094e7 0.0
0.0 0.0 0.0

-8.080386030794846e6 1.4752235633150965e7 0.0
1.4752235633150965e7 5.833672246376444e6 0.0
0.0 0.0 0.0

-6.526286801573418e6 1.3092435319427345e7 0.0
1.3092435319427345e7 5.289922386858109e6 0.0
0.0 0.0 0.0

4.77563681519859e6 6.012597793366325e6 0.0
6.012597793366325e6 -1.35214279396572e7 0.0
0.0 0.0 0.0

623497.6622204771 1.4308905366955103e7 0.0
1.4308905366955103e7 -5.021070825678142e6 0.0
0.0 0.0 0.0

1.2331414230281957e6 1.0274756326194234e7 0.0
1.0274756326194234e7 -1.0906758537335629e7 0.0
0.0 0.0 0.0

-378382.91845341574 1.462983684049885e7 0.0
1.462983684049885e7 -4.123414858474058e6 0.0
0.0 0.0 0.0

714337.4101414734 8.490707403256997e6 0.0
8.490707403256997e6 -3.40510387600959e6 0.0
0.0 0.0 0.0

-2.6902622515277434e6 1.216103695627296e7 0.0
1.216103695627296e7 4.562209572245842e6 0.0
0.0 0.0 0.0

-6.944060971105397e6 1.3270233814375501e7 0.0
1.3270233814375501e7 5.684391001349031e6 0.0
0.0 0.0 0.0

-5.818707134803229e6 -528735.7673155703 0.0
-528735.7673155703 6.381843430727975e6 0.0
0.0 0.0 0.0

5.400958265289496e6 1.0515957124268467e7 0.0
1.0515957124268467e7 -4.300306278683456e6 0.0
0.0 0.0 0.0

-3.256264517571417e7 1.1650847003446082e7 0.0
1.1650847003446082e7 1.2900887505389297e7 0.0
0.0 0.0 0.0

-1.0795699205503639e7 4.9007639052428715e6 0.0
4.9007639052428715e6 1.2315989620904338e7 0.0
0.0 0.0 0.0

-4.1053583163116714e6 1.2264972478628485e7 0.0
1.2264972478628485e7 2.198110629574254e6 0.0
0.0 0.0 0.0

2.3324327441629656e6 1.0724244243256995e7 0.0
1.0724244243256995e7 -4.238264679942928e6 0.0
0.0 0.0 0.0

3.4564373435379104e6 5.792318208316857e6 0.0
5.792318208316857e6 -9.86859766144253e6 0.0
0.0 0.0 0.0

-2.8019736057240544e6 1.1868655478035046e7 0.0
1.1868655478035046e7 2.3781413563974397e6 0.0
0.0 0.0 0.0

-8.031222014133576e6 -6.126798800731719e6 0.0
-6.126798800731719e6 1.4784906243345406e7 0.0
0.0 0.0 0.0

-1.9179136129567903e6 1.4708007683469428e7 0.0
1.4708007683469428e7 -2.1529492478230137e7 0.0
0.0 0.0 0.0

1.3175968181115482e6 1.8542877969501182e7 0.0
1.8542877969501182e7 4.48418086310732e7 0.0
0.0 0.0 0.0

1.6576256990226852e6 9.53000113133002e6 0.0
9.53000113133002e6 -1.0327378475653067e7 0.0
0.0 0.0 0.0

1.2480108343039365e6 6.816540639347693e6 0.0
6.816540639347693e6 -4.020677190304416e6 0.0
0.0 0.0 0.0

-1.814652861544529e6 1.1697849039326575e7 0.0
1.1697849039326575e7 5.795043719721299e6 0.0
0.0 0.0 0.0

-1.1304566102221292e7 -5.619900899681754e6 0.0
-5.619900899681754e6 2.15168622076016e7 0.0
0.0 0.0 0.0

789369.4612288789 6.9784644155386435e6 0.0
6.9784644155386435e6 -4.463978777207425e6 0.0
0.0 0.0 0.0

-6.648998183705781e6 1.6756194508222278e7 0.0
1.6756194508222278e7 1.239844445526342e6 0.0
0.0 0.0 0.0

-1.6903072414552222e6 1.1191895504907813e7 0.0
1.1191895504907813e7 -4.812041126963986e6 0.0
0.0 0.0 0.0

-783228.1699782137 1.1900975633999122e7 0.0
1.1900975633999122e7 3.323780557206211e6 0.0
0.0 0.0 0.0

-2.5040249906238597e6 1.2612617327265348e7 0.0
1.2612617327265348e7 372164.89370710787 0.0
0.0 0.0 0.0

-1.0367327991914283e7 1.1595880616864346e7 0.0
1.1595880616864346e7 2.3272430268689175e6 0.0
0.0 0.0 0.0

-7.803593221637705e6 1.4416881991565887e7 0.0
1.4416881991565887e7 5.856359336397315e6 0.0
0.0 0.0 0.0

-808312.7436519407 1.1600926764807388e7 0.0
1.1600926764807388e7 1.314854489888271e6 0.0
0.0 0.0 0.0

-2.524160101883056e6 1.1717653658070076e7 0.0
1.1717653658070076e7 3.386229589696734e6 0.0
0.0 0.0 0.0

203878.57511407137 1.0325572130480342e7 0.0
1.0325572130480342e7 -7.164371287429329e6 0.0
0.0 0.0 0.0

-1.4387705960068977e6 1.2652484548221206e7 0.0
1.2652484548221206e7 -5.195340186690136e6 0.0
0.0 0.0 0.0

-1.1851279889172478e7 -3.9048298958056085e6 0.0
-3.9048298958056085e6 1.9953808358302392e7 0.0
0.0 0.0 0.0

-1.9936579416536808e7 1.3885561332628021e7 0.0
1.3885561332628021e7 1.3177224061232422e7 0.0
0.0 0.0 0.0

-1.2445379235661322e7 1.2489298431534568e7 0.0
1.2489298431534568e7 9.12367129827661e6 0.0
0.0 0.0 0.0

-1.697914671101293e7 8.795953888964154e6 0.0
8.795953888964154e6 9.884296688364143e6 0.0
0.0 0.0 0.0

-477808.37928505463 1.1779813820446668e7 0.0
1.1779813820446668e7 -377182.1495311347 0.0
0.0 0.0 0.0

-3.2669820011733063e6 1.2372477414235491e7 0.0
1.2372477414235491e7 529120.7812388225 0.0
0.0 0.0 0.0

-1.230629004174334e7 1.0725650907998664e7 0.0
1.0725650907998664e7 7.354674049628283e6 0.0
0.0 0.0 0.0

1.0294207767978003e6 6.938580987687383e6 0.0
6.938580987687383e6 -4.595278995648899e6 0.0
0.0 0.0 0.0

-1.542115276084764e6 1.2229934974310065e7 0.0
1.2229934974310065e7 3.7505164089666544e6 0.0
0.0 0.0 0.0

3.5204597097272007e6 8.015586654757204e6 0.0
8.015586654757204e6 -1.2103660290495405e7 0.0
0.0 0.0 0.0

-9.815767318445683e6 5.558904406419071e6 0.0
5.558904406419071e6 1.3152071988859355e7 0.0
0.0 0.0 0.0

-1.0343694299765985e7 -6.067828551937371e6 0.0
-6.067828551937371e6 2.1883333255677234e7 0.0
0.0 0.0 0.0

4.959100994437504e6 6.096873722548444e6 0.0
6.096873722548444e6 -1.3437835619957464e7 0.0
0.0 0.0 0.0

-1.9322209242843494e7 1.0664426318291472e7 0.0
1.0664426318291472e7 9.092267480931856e6 0.0
0.0 0.0 0.0

-7.718096808991124e6 -4.1089610443298835e6 0.0
-4.1089610443298835e6 1.1585331999886934e7 0.0
0.0 0.0 0.0

-7.010744173832791e6 -2.851230565023966e6 0.0
-2.851230565023966e6 9.356500934672546e6 0.0
0.0 0.0 0.0

892651.0692150721 6.81315316447764e6 0.0
6.81315316447764e6 -4.88798660344463e6 0.0
0.0 0.0 0.0

-6.5877892986405045e6 -979188.3539265167 0.0
-979188.3539265167 9.278433676631087e6 0.0
0.0 0.0 0.0

-1.0569623430604262e7 2.161228997543687e7 0.0
2.161228997543687e7 338362.397873187 0.0
0.0 0.0 0.0

-6.381146340115821e6 1.0189835402657898e7 0.0
1.0189835402657898e7 6.338702620333541e6 0.0
0.0 0.0 0.0

5.064234071934006e6 6.82071795355039e6 0.0
6.82071795355039e6 -1.5589604057097588e7 0.0
0.0 0.0 0.0

3.682887761323261e6 6.047321455259423e6 0.0
6.047321455259423e6 -1.1333639112585265e7 0.0
0.0 0.0 0.0

-5.836128229385849e6 1.0489238247648349e7 0.0
1.0489238247648349e7 3.7783989792667897e6 0.0
0.0 0.0 0.0

-1.1032926049092881e7 1.5098491639379628e7 0.0
1.5098491639379628e7 8.29979582195953e6 0.0
0.0 0.0 0.0

453261.988815786 6.923299016478436e6 0.0
6.923299016478436e6 3.0403465986182406e6 0.0
0.0 0.0 0.0

-2.96083177168467e6 1.166037693662505e7 0.0
1.166037693662505e7 8.249966324671007e6 0.0
0.0 0.0 0.0

494796.70553140435 1.4061204433431495e7 0.0
1.4061204433431495e7 -5.292008525384659e6 0.0
0.0 0.0 0.0

-6.720856669281909e6 -4.712796584389195e6 0.0
-4.712796584389195e6 1.2886436986440636e7 0.0
0.0 0.0 0.0

-1.33146168722122e7 6.533056200001823e6 0.0
6.533056200001823e6 7.406861339660502e6 0.0
0.0 0.0 0.0

-7.708093459563255e6 1.4194277621087402e7 0.0
1.4194277621087402e7 5.507148822995494e6 0.0
0.0 0.0 0.0

-6.133864720800016e6 1.3091954890237458e7 0.0
1.3091954890237458e7 1.590890630882854e7 0.0
0.0 0.0 0.0

660983.4382922568 1.416037719906636e7 0.0
1.416037719906636e7 -4.734216678918342e6 0.0
0.0 0.0 0.0

-1.9128562699410124e6 1.2731677632729843e7 0.0
1.2731677632729843e7 -472538.9097477109 0.0
0.0 0.0 0.0

-5.520907860126819e6 1.204027420213164e7 0.0
1.204027420213164e7 5.954398870517836e6 0.0
0.0 0.0 0.0

-1.761518547037467e6 1.2286923881217772e7 0.0
1.2286923881217772e7 -1.4604526029357556e6 0.0
0.0 0.0 0.0

-3.203388987782571e7 1.5797207648829106e7 0.0
1.5797207648829106e7 6.481325368809575e6 0.0
0.0 0.0 0.0

-7.047346854142144e6 9.888600657720374e6 0.0
9.888600657720374e6 5.860110304844174e6 0.0
0.0 0.0 0.0

-1.7390451801554775e6 1.2700287174648743e7 0.0
1.2700287174648743e7 -869616.1589685612 0.0
0.0 0.0 0.0

-4.82168686173214e6 1.2435688851423029e7 0.0
1.2435688851423029e7 5.612997602635993e6 0.0
0.0 0.0 0.0

-91060.93691064487 1.3766393863425974e7 0.0
1.3766393863425974e7 -4.759667202022228e6 0.0
0.0 0.0 0.0

3.235781312713487e6 5.830598473130499e6 0.0
5.830598473130499e6 -9.584985523281883e6 0.0
0.0 0.0 0.0

-1.4419777881839613e6 1.3412156464641929e7 0.0
1.3412156464641929e7 -4.518500657499792e6 0.0
0.0 0.0 0.0

-2.1155713612640988e7 1.3263282691998553e7 0.0
1.3263282691998553e7 1.212828242257176e7 0.0
0.0 0.0 0.0

-7.636902731927298e6 1.3616081378808154e7 0.0
1.3616081378808154e7 6.239660462448636e6 0.0
0.0 0.0 0.0

-2.1578669197034524e6 1.1625962269250008e6 0.0
1.1625962269250008e6 1.7010467248389283e6 0.0
0.0 0.0 0.0

-804440.0660339668 1.1750603145204028e7 0.0
1.1750603145204028e7 -6.339321431043172e6 0.0
0.0 0.0 0.0

4.478947729385102e6 1.0653277963121794e7 0.0
1.0653277963121794e7 -4.0851401366832657e6 0.0
0.0 0.0 0.0

-2.876437041813587e7 1.3436768759679127e7 0.0
1.3436768759679127e7 1.0242089260150896e7 0.0
0.0 0.0 0.0

-495825.608777976 1.1088393529047132e7 0.0
1.1088393529047132e7 1.498130359245311e6 0.0
0.0 0.0 0.0

3.321579088155833e6 8.052301171101124e6 0.0
8.052301171101124e6 -1.276024249230005e7 0.0
0.0 0.0 0.0

-106710.09451137157 1.0269731380131988e7 0.0
1.0269731380131988e7 -7.039751847618574e6 0.0
0.0 0.0 0.0

-2.4864876268158415e6 1.2061315038266333e7 0.0
1.2061315038266333e7 2.7892347389337984e6 0.0
0.0 0.0 0.0

-1.1466254098884242e7 1.4959359909125758e7 0.0
1.4959359909125758e7 8.62331715636859e6 0.0
0.0 0.0 0.0

-4.858815482069821e6 1.3209016802086903e7 0.0
1.3209016802086903e7 862499.5736095887 0.0
0.0 0.0 0.0

3.9511071689637755e6 5.7241349807115905e6 0.0
5.7241349807115905e6 -1.1077593991731297e7 0.0
0.0 0.0 0.0

-3.3388241747252485e6 1.3296064046695791e7 0.0
1.3296064046695791e7 9.647763315036692e6 0.0
0.0 0.0 0.0

-265257.92065703194 8.089466183808051e6 0.0
8.089466183808051e6 -3.6453820445052306e6 0.0
0.0 0.0 0.0

-2.2024374352630384e7 1.3662039638488894e7 0.0
1.3662039638488894e7 9.562692413437145e6 0.0
0.0 0.0 0.0

-7.454231422988857e6 -752116.9270082376 0.0
-752116.9270082376 7.653755963930314e6 0.0
0.0 0.0 0.0

-7.066515788675443e6 -606777.9250157548 0.0
-606777.9250157548 9.146071306276863e6 0.0
0.0 0.0 0.0

4.329130622294359e6 9.812768073863126e6 0.0
9.812768073863126e6 -1.620003947542625e6 0.0
0.0 0.0 0.0

-7.6232728978893785e6 -3.8082757408408606e6 0.0
-3.8082757408408606e6 1.3834209723308869e7 0.0
0.0 0.0 0.0

-335382.9447557039 1.1171864869705023e7 0.0
1.1171864869705023e7 1.4994619111993355e6 0.0
0.0 0.0 0.0

-139395.57482829737 1.2813728614440557e7 0.0
1.2813728614440557e7 4.471163919576579e6 0.0
0.0 0.0 0.0

-8.2303704459838085e6 1.585541247403848e7 0.0
1.585541247403848e7 4.631616588107333e6 0.0
0.0 0.0 0.0

-1.3178658325091857e7 -593224.6268511618 0.0
-593224.6268511618 2.3427353196726978e7 0.0
0.0 0.0 0.0

1.1282461006860007e6 1.0328828219883466e7 0.0
1.0328828219883466e7 -1.0816163156480344e7 0.0
0.0 0.0 0.0

679009.9304161952 6.923345569447681e6 0.0
6.923345569447681e6 -4.559763466162735e6 0.0
0.0 0.0 0.0

-2.3309399126855987e6 1.1886399353042437e7 0.0
1.1886399353042437e7 2.1217884126483346e6 0.0
0.0 0.0 0.0

-2.0250375898103814e6 1.3024091619410478e7 0.0
1.3024091619410478e7 5.5484909129635105e6 0.0
0.0 0.0 0.0

-9.262668631115723e6 -2.838165168611626e6 0.0
-2.838165168611626e6 1.2880251071920667e7 0.0
0.0 0.0 0.0

-7.690223840260365e6 3.1167378603340364e6 0.0
3.1167378603340364e6 6.862640093700506e6 0.0
0.0 0.0 0.0

-4.04685155737672e6 1.0778972270036666e7 0.0
1.0778972270036666e7 1.1269000179591111e6 0.0
0.0 0.0 0.0

-3.3560122603918696e6 4.455069433230479e6 0.0
4.455069433230479e6 8.956535273800265e6 0.0
0.0 0.0 0.0

2.2044664690466523e6 1.0541717318959735e7 0.0
1.0541717318959735e7 -4.367997097352496e6 0.0
0.0 0.0 0.0

-7.041168335905649e6 -1.1995738522385028e6 0.0
-1.1995738522385028e6 7.781575891217262e6 0.0
0.0 0.0 0.0

-1.2782977652034367e7 -743684.4369928231 0.0
-743684.4369928231 2.603487907767537e7 0.0
0.0 0.0 0.0

2.120400665019896e6 1.0580580146715624e7 0.0
1.0580580146715624e7 -4.29750132924466e6 0.0
0.0 0.0 0.0

-1.4255343821937304e6 1.138621509752731e7 0.0
1.138621509752731e7 -4.56659206055836e6 0.0
0.0 0.0 0.0

-1.2405352635360008e7 -556840.624463582 0.0
-556840.624463582 2.6358394439678963e7 0.0
0.0 0.0 0.0

1.05157345399704e6 1.3436884662331788e7 0.0
1.3436884662331788e7 -5.159738524472759e6 0.0
0.0 0.0 0.0

-1.7553185803274245e6 1.1945954147346852e7 0.0
1.1945954147346852e7 3.309463802833334e6 0.0
0.0 0.0 0.0

-2.402892272199676e6 5.809964122001167e6 0.0
5.809964122001167e6 533889.585309206 0.0
0.0 0.0 0.0

-4.1741819700973295e6 690966.7044991746 0.0
690966.7044991746 5.294914849477336e6 0.0
0.0 0.0 0.0

-4.266063823582623e6 395483.8042730837 0.0
395483.8042730837 2.1464077566484557e6 0.0
0.0 0.0 0.0

