# vtk DataFile Version 2.0
phase field modeling fracture
ASCII
DATASET UNSTRUCTURED_GRID
POINTS 2538 float
0.0 0.0 0.0
10.0 0.0 0.0
0.0 10.0 0.0
10.0 10.0 0.0
0.0 4.9995 0.0
0.0 5.0005 0.0
5.0 5.0 0.0
0.9416964895726688 0.0 0.0
1.803581725054446 0.0 0.0
2.592419885431098 0.0 0.0
3.314401822861676 0.0 0.0
3.975193910351406 0.0 0.0
4.579982132660152 0.0 0.0
5.133512780936812 0.0 0.0
5.640130319506143 0.0 0.0
6.103810708661955 0.0 0.0
6.528192895506818 0.0 0.0
6.916607540127679 0.0 0.0
7.272102969376355 0.0 0.0
7.597469242948583 0.0 0.0
7.895259826292669 0.0 0.0
8.167811885738017 0.0 0.0
8.417264413845215 0.0 0.0
8.645575169389538 0.0 0.0
8.854535961159101 0.0 0.0
9.045786767735546 0.0 0.0
9.220828555767493 0.0 0.0
9.38103509633881 0.0 0.0
9.527663687265145 0.0 0.0
9.661865124984566 0.0 0.0
9.784692609918062 0.0 0.0
9.897110148790482 0.0 0.0
10.0 0.09999999999992584 0.0
10.0 0.199999999999856 0.0
10.0 0.2999999999997771 0.0
10.0 0.3999999999996677 0.0
10.0 0.4999999999995511 0.0
10.0 0.5999999999994683 0.0
10.0 0.6999999999993983 0.0
10.0 0.7999999999993286 0.0
10.0 0.8999999999992587 0.0
10.0 0.9999999999991888 0.0
10.0 1.099999999999119 0.0
10.0 1.199999999999033 0.0
10.0 1.299999999998852 0.0
10.0 1.399999999998576 0.0
10.0 1.499999999998284 0.0
10.0 1.599999999997992 0.0
10.0 1.6999999999977 0.0
10.0 1.799999999997408 0.0
10.0 1.899999999997116 0.0
10.0 1.999999999996825 0.0
10.0 2.099999999996533 0.0
10.0 2.199999999996241 0.0
10.0 2.299999999995949 0.0
10.0 2.399999999995657 0.0
10.0 2.499999999995365 0.0
10.0 2.599999999995073 0.0
10.0 2.699999999994782 0.0
10.0 2.79999999999449 0.0
10.0 2.899999999994198 0.0
10.0 2.999999999993906 0.0
10.0 3.099999999993614 0.0
10.0 3.199999999993322 0.0
10.0 3.299999999993029 0.0
10.0 3.399999999992738 0.0
10.0 3.499999999992446 0.0
10.0 3.599999999992154 0.0
10.0 3.699999999991863 0.0
10.0 3.799999999991571 0.0
10.0 3.899999999991278 0.0
10.0 3.999999999991022 0.0
10.0 4.099999999991035 0.0
10.0 4.199999999991187 0.0
10.0 4.299999999991338 0.0
10.0 4.399999999991491 0.0
10.0 4.499999999991642 0.0
10.0 4.599999999991795 0.0
10.0 4.699999999991947 0.0
10.0 4.799999999992099 0.0
10.0 4.89999999999225 0.0
10.0 4.999999999992403 0.0
10.0 5.099999999992555 0.0
10.0 5.199999999992706 0.0
10.0 5.299999999992858 0.0
10.0 5.39999999999301 0.0
10.0 5.499999999993161 0.0
10.0 5.599999999993313 0.0
10.0 5.699999999993466 0.0
10.0 5.799999999993618 0.0
10.0 5.899999999993771 0.0
10.0 5.999999999993922 0.0
10.0 6.099999999994074 0.0
10.0 6.199999999994227 0.0
10.0 6.299999999994378 0.0
10.0 6.39999999999453 0.0
10.0 6.499999999994682 0.0
10.0 6.599999999994833 0.0
10.0 6.699999999994986 0.0
10.0 6.799999999995138 0.0
10.0 6.899999999995289 0.0
10.0 6.999999999995442 0.0
10.0 7.099999999995594 0.0
10.0 7.199999999995747 0.0
10.0 7.299999999995897 0.0
10.0 7.39999999999605 0.0
10.0 7.499999999996202 0.0
10.0 7.599999999996353 0.0
10.0 7.699999999996505 0.0
10.0 7.799999999996658 0.0
10.0 7.899999999996808 0.0
10.0 7.999999999996962 0.0
10.0 8.099999999997113 0.0
10.0 8.199999999997265 0.0
10.0 8.299999999997418 0.0
10.0 8.399999999997569 0.0
10.0 8.499999999997721 0.0
10.0 8.599999999997873 0.0
10.0 8.699999999998024 0.0
10.0 8.799999999998176 0.0
10.0 8.899999999998329 0.0
10.0 8.99999999999848 0.0
10.0 9.099999999998634 0.0
10.0 9.199999999998786 0.0
10.0 9.299999999998937 0.0
10.0 9.399999999999089 0.0
10.0 9.499999999999241 0.0
10.0 9.599999999999392 0.0
10.0 9.699999999999545 0.0
10.0 9.799999999999697 0.0
10.0 9.899999999999848 0.0
9.897110148790565 10.0 0.0
9.784692609918244 10.0 0.0
9.66186512498486 10.0 0.0
9.527663687265571 10.0 0.0
9.381035096339392 10.0 0.0
9.220828555768257 10.0 0.0
9.045786767736512 10.0 0.0
8.854535961160305 10.0 0.0
8.645575169391027 10.0 0.0
8.417264413847017 10.0 0.0
8.167811885740178 10.0 0.0
7.895259826295246 10.0 0.0
7.597469242951631 10.0 0.0
7.272102969379938 10.0 0.0
6.916607540131873 10.0 0.0
6.528192895511704 10.0 0.0
6.103810708667616 10.0 0.0
5.640130319512691 10.0 0.0
5.13351278094435 10.0 0.0
4.579982132668816 10.0 0.0
3.975193910361222 10.0 0.0
3.314401822869852 10.0 0.0
2.592419885437257 10.0 0.0
1.803581725058137 10.0 0.0
0.9416964895740705 10.0 0.0
0.0 9.00010000000243 0.0
0.0 8.000200000005481 0.0
0.0 7.000300000005135 0.0
0.0 6.000400000002569 0.0
0.901790731451151 5.000409820926855 0.0
1.657200899774397 5.000334279910023 0.0
2.289991063707192 5.000271000893629 0.0
2.820065163538221 5.000217993483646 0.0
3.264096435579811 5.000173590356442 0.0
3.636051481595835 5.00013639485184 0.0
3.947629914072366 5.000105237008593 0.0
4.208632181002628 5.0000791367819 0.0
4.427267949625672 5.000057273205037 0.0
4.610414277633563 5.000038958572237 0.0
4.763831845154243 5.000023616815485 0.0
4.892346298799659 5.00001076537012 0.0
4.892346298799748 4.99998923462988 0.0
4.763831845154455 4.999976383184515 0.0
4.610414277633943 4.999961041427763 0.0
4.427267949626277 4.999942726794963 0.0
4.208632181003523 4.9999208632181 0.0
3.94762991407365 4.999894762991407 0.0
3.636051481597624 4.99986360514816 0.0
3.264096435582253 4.999826409643559 0.0
2.820065163541503 4.999782006516354 0.0
2.289991063711534 4.999728999106371 0.0
1.657200899778495 4.999665720089978 0.0
0.9017907314530094 4.999590179073145 0.0
0.0 3.999600000002013 0.0
0.0 2.999700000005187 0.0
0.0 1.99980000000512 0.0
0.0 0.9999000000025537 0.0
9.897889398521345 2.93573355845387 0.0
9.906568249974548 7.060009441434234 0.0
9.913122631074113 3.64016132281653 0.0
9.922462129543863 6.354535290629151 0.0
9.917693659967533 4.354211663134567 0.0
9.909873057440208 5.637584487339942 0.0
9.914183254994697 4.950672966925282 0.0
9.913885043715895 7.666887930262611 0.0
9.91009668007573 2.351889069770817 0.0
9.905135696074536 8.138152454502785 0.0
9.913397459621809 1.849999999997262 0.0
7.099302372137626 0.297750452375005 0.0
7.095143729410097 9.700359990366296 0.0
4.942912558701401 5.095838627899509 0.0
4.315009232304429 5.165022115481685 0.0
4.946182472483878 4.906763777264103 0.0
4.317967462990024 4.825955043772673 0.0
9.916390871492647 8.64999999999792 0.0
9.921504649680616 1.368376469890358 0.0
8.292538149791614 0.206877570318844 0.0
8.292538149793597 9.793122429681448 0.0
5.884594439766573 9.587645267048616 0.0
5.794826292691579 0.3794853783929359 0.0
9.913397459621425 9.049999999998557 0.0
9.908526577714177 0.9568239351922434 0.0
3.456851160380649 5.315740054130451 0.0
3.457889657868442 4.707121019609468 0.0
8.945214200703926 0.1503383337970344 0.0
8.950161364448409 9.8413906539257 0.0
9.913862335499305 4.055887885208452 0.0
9.916697353372683 4.650158482607802 0.0
9.919076340414442 6.049999999994006 0.0
9.906994308667635 5.25749687748192 0.0
9.917490342358025 6.655979201891897 0.0
9.915757520293784 7.343848891656911 0.0
9.910049507471042 3.363474386285078 0.0
9.914471988502868 2.647400064832979 0.0
9.91474124160965 9.337490423485129 0.0
9.916971008170838 0.6499999999994355 0.0
4.307157269264427 9.509674045029644 0.0
4.331527375865619 0.4401616696422582 0.0
9.45434939180249 9.878397030523757 0.0
9.457696120412969 0.1270877537061785 0.0
2.555070293622606 5.422044496190925 0.0
2.566232917480916 4.608001224030952 0.0
3.026511860837692 9.332320638257093 0.0
2.945561971800619 0.5895662714727601 0.0
7.7395404387124 0.2511088946967771 0.0
7.736379255744154 9.745848826372828 0.0
4.687135269408529 5.122111433928926 0.0
4.688420821504113 4.871895064967488 0.0
9.910554884115975 0.3448356354522978 0.0
9.911230082250466 9.65764729394159 0.0
9.921953841410854 6.851023993342036 0.0
9.912065178606017 5.448170483544033 0.0
9.911660025326261 3.861846960030188 0.0
9.914847467973438 3.14501593945607 0.0
9.913397459621425 5.849999999993703 0.0
9.913397459621425 7.849999999996735 0.0
9.906916878988277 2.15455769998631 0.0
9.913397459621425 8.349999999997479 0.0
9.909472363117661 1.640528221515488 0.0
9.913987325695956 1.152857110636247 0.0
9.913397459621425 8.849999999998241 0.0
0.9100099990995943 2.614215977520411 0.0
0.8395284981715456 7.451196254860987 0.0
9.723278867451556 9.898135916635193 0.0
9.723316350887044 0.09841820909386662 0.0
1.385819164827588 4.454539963646463 0.0
1.338343629665047 5.523111536005823 0.0
1.377179700550677 0.6809168304959698 0.0
1.418060461092743 9.285896715136046 0.0
9.91268220142518 0.1457914080939694 0.0
9.906737126737994 9.845745933882352 0.0
0.7108351382691361 6.537941170074089 0.0
1.527735020267026 6.915620208855231 0.0
1.630993885659103 7.838271825205868 0.0
2.232760943566823 7.370850737296832 0.0
2.243414218068206 6.688299277952821 0.0
2.779655053105118 7.021588754814074 0.0
2.80227799359795 7.632420170547022 0.0
3.282022065908813 7.305859666021318 0.0
3.327597298795347 7.857554136825748 0.0
3.743210251018715 7.549183328204379 0.0
3.716353232200752 7.062036086888612 0.0
4.111978858674101 7.27497101169417 0.0
4.104192177581432 6.879858986267289 0.0
4.436230765617037 7.045693351607117 0.0
4.430360014817357 6.703971783962796 0.0
4.732390145036301 6.849841042423394 0.0
5.056161327708878 5.095276573498806 0.0
5.111586796021131 4.999081142133581 0.0
5.169267363407189 5.09444870412406 0.0
5.223795108752053 4.996986220359468 0.0
5.281480803887719 5.092780870372803 0.0
5.335670761900611 4.994887492556936 0.0
5.393485214772442 5.090486192743301 0.0
5.447323082877892 4.992601527033996 0.0
5.505243219343024 5.087953380710069 0.0
5.558739102026105 4.990287787962959 0.0
5.616491581184779 5.085335255235766 0.0
5.669852346908056 4.9879269227514 0.0
5.727502713908907 5.082679981817038 0.0
5.780766004135139 4.988313988715834 0.0
5.838244881129535 5.080480568766611 0.0
5.891357695677371 4.986433849408193 0.0
5.948696036767613 5.077969900389505 0.0
6.001601341641615 4.981313698556656 0.0
6.058851024265095 5.074871552128682 0.0
6.111614020704875 4.978360695880202 0.0
6.168801161530775 5.072044953270978 0.0
6.221368818778567 4.975825765213497 0.0
6.278268309066882 5.066182320461055 0.0
6.330814273567539 4.972837984645718 0.0
6.387565032421376 5.062889771971895 0.0
6.437476667631405 4.971693683589553 0.0
6.496181111585419 5.060210690175857 0.0
6.539454812256072 4.964658165361536 0.0
6.604198202576491 5.056387520850258 0.0
6.648506025747331 4.939374587506267 0.0
6.714026758992516 5.05873885840664 0.0
6.764418045981209 4.959246676066148 0.0
6.8219334571197 5.055299567406268 0.0
6.873708540948134 4.960426349093742 0.0
6.930181428849307 5.053461390218819 0.0
6.981893615341967 4.96435459462232 0.0
7.037791764774784 5.051219747103022 0.0
7.090993561518408 4.96392420322464 0.0
5.504417457283294 4.900897920552702 0.0
7.145434864123609 5.048960634292441 0.0
6.054532384032612 4.883956083938546 0.0
6.738027949040956 4.850032323068674 0.0
7.198432914526514 4.956325226333323 0.0
7.252637187936749 5.046012229327236 0.0
7.30926729605109 4.948903216650376 0.0
7.248106275544042 4.860306312845646 0.0
7.363100274863074 4.849952416808486 0.0
7.365733472701664 5.039519554615095 0.0
7.308483293090149 5.137557220352172 0.0
6.768399513646964 5.145609705119954 0.0
7.422800035311104 5.132251445551834 0.0
7.358273518796229 5.235980394389298 0.0
7.480824155801127 5.227946127939927 0.0
7.302193400058628 4.761917474298247 0.0
7.413570879789824 4.754555110721153 0.0
7.414392998903179 5.334729114426734 0.0
7.352769630272076 4.660405502266205 0.0
7.467556835255426 4.658352623795039 0.0
7.536246869015014 5.328986926716081 0.0
7.478865844607288 5.432598185493195 0.0
7.406396991826072 4.556956233957538 0.0
7.523581002009154 4.552005631348623 0.0
7.597792398573263 5.429506106314967 0.0
7.540511043402902 5.53619421580439 0.0
7.46214474876342 4.452580994318881 0.0
7.5852185078634 4.446021810672608 0.0
7.663329342323453 5.533453399066901 0.0
7.603478967594521 5.643227430483237 0.0
7.513450346818673 4.347641323140766 0.0
7.640744971722214 4.333388343316237 0.0
7.727671715775243 5.642390483050116 0.0
7.667774597993788 5.753188858425915 0.0
7.570065256728661 4.230515669344811 0.0
7.702881065467917 4.218307808529532 0.0
7.638288257073729 4.107994211855027 0.0
7.493362356301017 4.120843902105771 0.0
7.779018500630071 5.521233457321821 0.0
7.794641287388929 5.752364621610818 0.0
7.73369774483611 5.865894287356292 0.0
7.600834531784728 5.867752110500446 0.0
6.233038857278689 5.15645045634683 0.0
7.669727996028819 5.985665563643058 0.0
7.528582452554481 5.987393423295551 0.0
7.598722674572824 6.11001923494443 0.0
7.778305000222867 4.104318908265786 0.0
7.704329019832056 3.987744174608892 0.0
7.838453459801382 4.213322728668484 0.0
7.864495721576461 5.862306066517277 0.0
7.846552353360407 3.98481756181946 0.0
7.769730409703277 3.86544808681145 0.0
5.785249360396857 5.177248808588045 0.0
7.908837087876153 3.861484036275285 0.0
7.834824606222196 3.740586825753288 0.0
7.97685993406276 3.736209527152902 0.0
7.89665098770825 3.615501862931453 0.0
7.753228010315262 3.617800245018972 0.0
7.826063013090472 3.483173292579822 0.0
7.66789744383048 3.48859328808356 0.0
8.042515855796823 3.595394268381807 0.0
7.75200750488492 3.341279823834038 0.0
7.582870318332553 3.346584916806707 0.0
8.120807847415062 3.732493963388337 0.0
8.189783970303546 3.61159165475499 0.0
7.657801000286734 3.200439907646711 0.0
7.486781956172036 3.201402473247712 0.0
7.452595103886905 6.11418616185016 0.0
7.527098033550077 6.243191052852112 0.0
8.260502906807751 3.728437634721859 0.0
8.327629317451398 3.608173631356984 0.0
7.372763970891452 6.247552889754036 0.0
7.456170570815929 6.384992468962936 0.0
7.621837793616884 6.376077080857113 0.0
7.548039512904141 6.520750676893614 0.0
7.717475944451644 6.514856553988943 0.0
7.636658166268699 6.661648164052906 0.0
7.807468267259438 6.664076174524672 0.0
7.718022764310774 6.817938967122142 0.0
7.887785766941087 6.807440365887151 0.0
7.545993589083432 6.815070675854734 0.0
7.809874785067209 6.967537287475282 0.0
7.975643812145337 6.948729406725126 0.0
8.396477808021062 3.725446935061211 0.0
7.565651643157136 3.044354774611752 0.0
7.384328725505071 3.043048915147076 0.0
8.056405351948353 6.802790889114673 0.0
8.14128318237188 6.940027831915737 0.0
8.064621760266059 7.086348792208953 0.0
8.225003598857908 6.805225152373254 0.0
8.463085452993242 3.606998510553562 0.0
8.230426869720718 7.079551841000411 0.0
8.155262284174286 7.224761758176069 0.0
8.530696760758996 3.721683301125054 0.0
8.596669886994064 3.604516769862316 0.0
8.528531058025589 3.490411531312337 0.0
8.320451770844851 7.218191678954744 0.0
8.245273958732774 7.363444652121271 0.0
8.66324687389452 3.717094013035765 0.0
8.600103125209296 3.831913857228569 0.0
8.662131102573216 3.488322280861316 0.0
8.594166125380536 3.374071873435548 0.0
8.411074336066186 7.353871649576861 0.0
8.339644223432472 7.505172120620427 0.0
8.165883718619623 7.513159193685373 0.0
8.483453820080417 7.2082285366806 0.0
8.261200365730348 7.657400951288149 0.0
8.081570576666843 7.670933304838066 0.0
7.471613195794025 2.872548423100142 0.0
7.268733678357991 2.881209199257603 0.0
7.184255506995786 3.084448584600423 0.0
7.065899603697895 2.883902449336828 0.0
6.960163891183182 3.081014635802978 0.0
6.847612128388715 2.885646860602812 0.0
6.739800729737967 3.078895733381448 0.0
8.729373804596847 3.827689165637365 0.0
8.668550856907444 3.938702277545298 0.0
8.72770789162863 3.371798381178293 0.0
8.659764090070603 3.257493349874974 0.0
8.436453928793245 7.648724489148887 0.0
6.619080287792762 2.90880017416788 0.0
6.511740956842646 3.09340654756684 0.0
8.793527829963288 3.935174834810256 0.0
8.736430500996828 4.042719556852617 0.0
7.631260330584174 4.565300771328012 0.0
8.359058396840432 7.801678182761817 0.0
5.339436215072359 5.184870243702279 0.0
4.994031736761993 5.193306795607908 0.0
6.383387675268097 4.87760645722207 0.0
7.29117392392962 6.382172868329505 0.0
6.378196825372041 2.907113079755629 0.0
6.269817199014261 3.12412150658573 0.0
8.793149127377946 3.255386294257182 0.0
8.725774239201558 3.141596687892195 0.0
8.857434600673502 4.041295940541356 0.0
8.802868937128341 4.1471119953668 0.0
8.532045262478793 7.7905977476835 0.0
7.364542641624493 2.699128473342751 0.0
7.571677611088925 2.695732556686516 0.0
6.723058333614999 2.672341359410618 0.0
8.456744924757372 7.94483904450548 0.0
6.140831279784704 2.921247401137864 0.0
6.02419219050745 3.14358702955763 0.0
8.916255604212301 3.934279868822481 0.0
8.859287250884009 3.140226640574265 0.0
8.791092798057303 3.025929352146465 0.0
7.210445465986021 6.245773134960393 0.0
7.120884161792869 6.385155584680196 0.0
7.036931702064287 6.240721609143972 0.0
6.943722280007011 6.3869279517155 0.0
8.920094519678617 4.144837222494242 0.0
8.864374107136287 4.250930406527029 0.0
7.347569838739255 4.463467417508182 0.0
5.90383431757064 2.935113219563906 0.0
5.783476009580765 3.156456199832474 0.0
8.626013191558314 7.935092223505354 0.0
8.687240186957197 7.796697889991163 0.0
5.642059327424706 2.903018174330269 0.0
5.52647853955939 3.162549070310043 0.0
8.555300051897738 8.086169516016518 0.0
8.405624441178524 8.083972416481254 0.0
5.374124307190728 2.945480555950917 0.0
8.935805220807357 3.249260758206028 0.0
8.981625171409894 4.247375537584228 0.0
8.924725364486765 4.352101286657735 0.0
8.807208588134106 4.356163101450244 0.0
8.868277832430604 4.45657124153171 0.0
8.75099635287701 4.460644845248524 0.0
8.812385950597063 4.560891222623518 0.0
8.693833206943118 4.564602972998703 0.0
8.756474732548273 4.665720853686476 0.0
8.63721608225855 4.669394550615355 0.0
8.700108119351134 4.770682016274914 0.0
8.81920502916846 4.767536120893284 0.0
8.76355311338807 4.871451945248518 0.0
8.881442328033694 4.868382238751069 0.0
8.826433523510634 4.97132552240372 0.0
8.943387824985514 4.967694248194483 0.0
8.888718468126953 5.071044784833541 0.0
8.580377663835254 4.774669738817985 0.0
8.770572242937233 5.073880380431421 0.0
8.832915096600454 5.174518948293615 0.0
8.952224483821848 5.170970838320107 0.0
8.897282771771884 5.275476392171722 0.0
7.463928467290875 2.513944501591933 0.0
7.675935950092034 2.509420347143072 0.0
8.924252417741767 3.024418701372628 0.0
8.857265893102921 2.911213535286156 0.0
8.776981063213334 5.27944309004916 0.0
8.840710910770163 5.380165700477552 0.0
8.960876896785969 5.375521424256389 0.0
8.904555918255223 5.482125846038813 0.0
7.567193097677677 2.32750151280277 0.0
7.780880844888839 2.323064027160363 0.0
6.851602118390116 6.234522818184622 0.0
6.758680682687229 6.389359516748128 0.0
6.66345977321418 6.231254850996584 0.0
8.715764716958308 8.079994249772627 0.0
8.65189989696114 8.227534663647639 0.0
9.042229096541828 4.348551764001607 0.0
6.436774206993324 3.316782326998922 0.0
7.590527613340588 5.22651784724799 0.0
9.024366884701616 5.476726561488805 0.0
8.968734351641839 5.583879050892151 0.0
8.845941080047659 5.586406316932274 0.0
8.909881305857882 5.690482454668167 0.0
7.348726871578975 5.44047403999932 0.0
6.567070253986433 6.398115757512583 0.0
6.697077150072261 6.553426749743366 0.0
5.252377383990728 3.187782967482479 0.0
8.988440431820699 2.908621158637298 0.0
8.922541972760119 2.796420836075996 0.0
6.466806010659505 6.229115583261771 0.0
9.033851153821296 5.686506775615425 0.0
8.978340519963718 5.795772485582058 0.0
8.85111463793018 5.798672910287243 0.0
8.922171984280597 5.907237880910408 0.0
8.795190680908043 5.911854068712683 0.0
8.864373398892472 6.019728357749566 0.0
8.991346995940626 6.014539153309398 0.0
8.93374019140187 6.12698887312768 0.0
5.095192648098848 2.952353430985476 0.0
7.672651464908932 2.141715359830917 0.0
7.886266921042761 2.136211284120189 0.0
9.098474286589756 4.245971410451114 0.0
8.813172564986438 8.216887361735234 0.0
8.74802978243154 8.366104673219047 0.0
9.059985162956899 6.120982589539211 0.0
9.00342813739303 6.233245043891739 0.0
4.961413514304496 3.214209167276753 0.0
9.05248113004685 2.794651022570942 0.0
8.986028039118027 2.681341972594222 0.0
5.671890458441996 3.377122473800023 0.0
4.755829262593116 7.184480462344647 0.0
9.158258644940048 4.34465968221255 0.0
4.799687186662534 2.961354824469195 0.0
6.030554747591715 2.726787502996874 0.0
8.938327180212585 8.34758372042188 0.0
8.847392320655468 8.503370672816716 0.0
8.67342124373679 8.518117686968314 0.0
5.234423106934083 2.694925204361751 0.0
8.964923046453565 8.185313058214797 0.0
7.456650986668838 2.134076476407834 0.0
9.111732084821366 2.897226832609386 0.0
6.368055837513985 6.402805870976705 0.0
6.265629899005033 6.226581076317183 0.0
8.736327196352686 6.026404178766982 0.0
9.117473097358854 2.67987006607594 0.0
9.052137415465204 2.565428515518978 0.0
7.781001557847192 1.955874236406257 0.0
7.992134447300669 1.949184538864554 0.0
8.593074792993455 3.143159483125708 0.0
9.1291360203536 6.226877897052981 0.0
9.072154326613617 6.338696745620542 0.0
8.916532550320525 2.566986282201109 0.0
8.984021113721658 2.449252898983242 0.0
9.178032243215632 6.120533546076094 0.0
9.213703592343162 4.244823670856978 0.0
9.11972142641474 2.449071238668887 0.0
9.052853896812186 2.33190758581705 0.0
8.635035926402708 4.462329956179506 0.0
8.773614475966344 8.657865377672689 0.0
8.596400917257634 8.67759750279447 0.0
8.942023339420883 8.644678093589654 0.0
9.19471670675691 6.33096438039349 0.0
9.138460613363325 6.443043552768813 0.0
8.66620319432524 5.916297234509582 0.0
8.606669825267202 6.032658196729024 0.0
9.27222540210304 4.341341907533128 0.0
9.013782808177437 6.451040569407859 0.0
9.08360982569773 6.55729980456602 0.0
7.885622149776354 1.768093045890686 0.0
8.095672144455353 1.768790621151345 0.0
9.208772072925791 6.549717411809656 0.0
9.154272208194383 6.662613503537815 0.0
9.187669783927937 2.334640996932141 0.0
9.122379015831417 2.215832190697178 0.0
6.164077036161143 6.404611236428829 0.0
6.062367614988677 6.224307160647549 0.0
8.987075041759633 2.211477580983978 0.0
9.056972755801603 2.093573581203428 0.0
9.194557288902232 2.096029761809264 0.0
9.131223008370409 1.972713028695079 0.0
8.87381302587057 8.795793668920256 0.0
9.039169086943392 8.781606667490083 0.0
4.662813350519927 3.228118291851354 0.0
4.474181267994617 2.945703616023359 0.0
6.562627723301209 6.075544382232434 0.0
9.326886053211574 4.243083624343211 0.0
9.280374192897945 6.656072830232892 0.0
9.224718905178564 6.766740750539347 0.0
4.703284910421452 6.528907865005451 0.0
8.955136474970331 6.565989985649191 0.0
8.998148826814893 4.865480736169776 0.0
8.99429836796776 1.965972383552685 0.0
9.065669391141741 1.847195105148808 0.0
9.207236162050343 1.853010386995843 0.0
9.143218073349985 1.725630086781897 0.0
8.998867447699345 1.719378449325465 0.0
9.082595782768397 1.592017827427701 0.0
8.92804562738841 1.585238202229766 0.0
9.01637794607019 1.453847302675876 0.0
8.854253119154375 1.446306868730686 0.0
8.941620273019874 1.320083886766936 0.0
8.775393064215876 1.308487027359826 0.0
9.102170347200483 1.324733726345249 0.0
9.013857060361985 1.178821526410403 0.0
7.991031819452564 1.587689878441685 0.0
7.767218744640202 1.595993197647291 0.0
9.191539171305216 1.194087248761656 0.0
9.123965901037613 1.057102462689568 0.0
4.853921953226772 3.470213116851758 0.0
7.496563223334782 3.470157221608763 0.0
8.536691379028115 5.921845852206257 0.0
8.475496498707471 6.037633662010236 0.0
7.978668526342969 2.307231488316941 0.0
9.384721922092124 4.337357165846226 0.0
9.331039180200886 4.435926256444196 0.0
8.546261775564837 6.150267290476958 0.0
8.411727261785726 6.155319300628062 0.0
8.972203609044218 8.930944433074036 0.0
9.133480321468399 8.90955269607895 0.0
9.197778815538276 8.768743880012563 0.0
6.162231825784922 6.05277753404107 0.0
5.962111081146334 6.046949845237622 0.0
9.268727788642101 4.146883230687689 0.0
9.380694211527906 4.144811697563401 0.0
9.323823335199954 4.049557759546529 0.0
9.283324894520613 1.736313094621396 0.0
5.858151623803662 6.22041808248046 0.0
5.759668475561988 6.038806123495502 0.0
7.836860473863919 3.191674397465999 0.0
9.348591928839294 6.75855034547469 0.0
9.293979592221298 6.870213350675044 0.0
9.170543172728557 6.879819332293818 0.0
9.240028263813034 6.983394994050525 0.0
4.347372565145963 3.312731475520695 0.0
4.114183445909965 2.96879678229065 0.0
8.616264880152233 4.042035981070631 0.0
9.403174760076901 6.650407069150438 0.0
4.173860112179449 7.723461240865885 0.0
9.365302975518428 6.973476802087294 0.0
9.312420275675276 7.088420778208979 0.0
9.184876614539778 7.0978133687822 0.0
9.25921281729617 7.204979813006656 0.0
9.12816413817609 7.21569648263899 0.0
9.203944409919862 7.322703303071253 0.0
9.334311975087337 7.311477957762272 0.0
9.280415785210538 7.428795599957155 0.0
9.274060219641907 1.066603180421249 0.0
9.211820491509728 0.9316562593680151 0.0
9.050684011148748 0.9017681241401576 0.0
9.441953732403995 4.432092590771756 0.0
9.394725873909666 4.526051349391942 0.0
9.43453556160865 4.048003950509361 0.0
9.378043599351757 3.952631412328806 0.0
9.289691247910705 8.890746792319852 0.0
9.228148443138926 9.030109127390128 0.0
4.440757888677695 6.389562448928118 0.0
4.689874463978985 6.239329075084555 0.0
4.291519540095677 2.622920583112654 0.0
3.886073352912894 2.632778677714434 0.0
9.344015622314338 1.202401041544343 0.0
8.193292196814806 3.849649660906171 0.0
6.960946604527747 6.07044529864598 0.0
9.347708267319902 8.756364147482309 0.0
6.826423138602714 3.261415861395883 0.0
6.06309517882478 5.884563187328262 0.0
9.4085057714426 7.414123963607981 0.0
9.356416821537886 7.532359471354527 0.0
5.042074134251055 6.938947182785697 0.0
5.063988238156824 7.311205832605263 0.0
3.946666851334923 3.30681624613374 0.0
8.189857914071878 1.939951128540477 0.0
7.880690277686857 1.38928908049477 0.0
7.63766396748483 1.399736360041063 0.0
9.345004233592562 1.857695941115052 0.0
9.440465164139875 7.085860901905448 0.0
7.918332480761888 5.744468010879592 0.0
9.08007135068879 5.372457017512481 0.0
8.78639561093144 3.718391405525285 0.0
9.356843485085705 0.9414458825132457 0.0
9.29705128845331 0.8103081541678832 0.0
9.251825423225316 2.451701826351773 0.0
8.483895366325516 6.270717564685176 0.0
8.346386886249478 6.275973306650227 0.0
9.493299170161215 4.138582531223591 0.0
5.321115649032961 7.117073603021904 0.0
5.354076009109965 7.436189411362466 0.0
5.597984079819928 7.254284331170681 0.0
5.644042313435943 7.564172740776336 0.0
5.383963016128051 7.753854027984002 0.0
5.681168258142109 7.880444993178456 0.0
5.935548099874979 7.687258900444162 0.0
5.979508404301389 7.994332725561488 0.0
6.21936843555201 7.802335560754011 0.0
6.267092590637372 8.104873033518185 0.0
6.498845418385807 7.917606504106031 0.0
6.544600005636809 8.209910620392591 0.0
6.77336078689533 8.027284686082275 0.0
6.814840179123049 8.311778392637773 0.0
6.721304148677048 7.737863326704131 0.0
7.031320924898797 8.1335673274533 0.0
7.077388928622946 8.403901803728003 0.0
5.417471987089176 8.090112295667405 0.0
8.845427688507666 2.446352368201366 0.0
9.318512319918124 2.339233739859646 0.0
9.380241452597096 2.451895615249572 0.0
7.283805558009199 8.237518806365102 0.0
7.329200330160381 8.497045124353782 0.0
7.233272584416691 7.991590926766813 0.0
9.142592248414191 5.471315142785471 0.0
9.196303265878848 5.36738298742727 0.0
9.25795832955665 5.465260877691205 0.0
9.310581303233182 5.36341558704714 0.0
9.371094700882272 5.459458038195667 0.0
9.422767107822985 5.360687090455724 0.0
9.36402660964156 5.264821436196721 0.0
9.474220736978928 5.262802348886269 0.0
9.41680330511366 5.169477108906666 0.0
5.168675939028436 4.895496152382537 0.0
9.482591449057548 5.454699312257291 0.0
9.431567605310825 5.552723344040521 0.0
7.531449703396948 4.741663470323411 0.0
8.517293123442691 4.672601123164268 0.0
8.459978676626639 4.778466809901586 0.0
8.396595115309985 4.67568709170855 0.0
8.338966609235166 4.782101664607259 0.0
8.275355646032752 4.678829956447008 0.0
8.217675280223542 4.785699596769931 0.0
8.28149024865807 4.888803783902183 0.0
8.16019781596952 4.892696417098926 0.0
8.22433278506531 4.995725219088695 0.0
8.102825704443651 4.999629142625341 0.0
8.166887930010795 5.098242831115916 0.0
8.034904900788316 4.896825406879729 0.0
8.15353539905931 4.682103688185489 0.0
8.211891449058882 4.574219757233394 0.0
8.290305306104333 5.094007100958221 0.0
8.225684228618732 5.201525567655179 0.0
9.444618942559746 2.343141375196729 0.0
6.929446520625337 4.868116916840016 0.0
5.737810725167649 4.893891407574175 0.0
8.720389971487277 5.38508368411851 0.0
8.805734920311323 8.951818172412821 0.0
8.905272694453211 9.083303226359831 0.0
6.006155038818204 5.171375272745409 0.0
6.431496448228514 5.152985998213245 0.0
9.052675024457304 7.106590131831544 0.0
7.740007013494393 6.09727525827826 0.0
9.375852260355511 9.013078430361404 0.0
9.32035844773103 9.14584923943073 0.0
6.989707597683965 5.146377438798643 0.0
9.488190206836386 3.951168069367155 0.0
9.432429152094464 3.855725756072153 0.0
5.568386402814275 5.185723849666124 0.0
9.525561551078322 5.166162126187324 0.0
9.465026391994275 5.072601962964018 0.0
9.320357339516937 3.857795423728873 0.0
9.375955927831914 3.759314274140895 0.0
9.261783786753899 3.761412578759438 0.0
9.31820665563318 3.661845422072752 0.0
9.431798673168924 3.660830894813109 0.0
9.374584413615914 3.563138564686839 0.0
9.48759661134647 3.562294297118573 0.0
9.431339678707085 3.464016717943268 0.0
9.417896212887529 1.746970678437863 0.0
8.731705369070733 9.110902182838881 0.0
5.652297951447118 6.21188565774667 0.0
5.569122518069258 6.024400786163834 0.0
8.257007204149394 3.505875091031567 0.0
8.717428603143034 2.925525757227976 0.0
6.882852832747376 8.57686572931064 0.0
6.337330066435714 8.416819098143066 0.0
9.50188906539997 4.521022403818629 0.0
9.453500859905136 4.617181635748691 0.0
9.46806769570129 6.749352117850711 0.0
8.836822104875719 1.72282859852854 0.0
7.481071063421426 5.64593758994851 0.0
5.668814988976305 5.86611128457842 0.0
5.487644760735084 5.847591822776978 0.0
8.993992818065195 7.228173913870249 0.0
7.98322414937693 7.229980191466666 0.0
9.22810751684646 7.54864871395298 0.0
9.304103360459063 7.654622011545798 0.0
9.432787371848761 7.633691049023619 0.0
9.382619818023882 7.759136995934441 0.0
7.239096822516492 4.679179578301165 0.0
9.47692479956498 1.861231395362419 0.0
8.041243110813022 5.095895152648969 0.0
6.190208781188077 7.509864122823853 0.0
9.283062812782122 4.549418667685757 0.0
9.503847665760087 2.450295046295932 0.0
9.443345385250678 2.557904120404248 0.0
9.52009568463353 6.644015937008899 0.0
9.203119005973903 3.662458522935253 0.0
8.406198651282708 5.92630414760378 0.0
8.467263597743843 5.811987729136874 0.0
9.461423029059445 9.128120577356565 0.0
9.408445330070542 9.26024300250086 0.0
9.266505293379728 9.277952925446408 0.0
4.14874709022218 3.631681332690154 0.0
9.437448107949258 0.8198473430736303 0.0
9.376993771693973 0.6910550697058979 0.0
9.22882356848217 0.6931820370818127 0.0
4.451823867195988 6.103664366188579 0.0
4.200031743909027 6.232039028149317 0.0
4.687154754667774 5.975132870483986 0.0
6.268889397098538 6.592235545990395 0.0
7.509366161722768 8.340075462391164 0.0
7.564775703413765 8.59800936579159 0.0
9.542148732924264 3.854614593058991 0.0
7.036231103929761 6.550562550831048 0.0
4.089373665437328 2.268193930262139 0.0
3.642558884866483 2.250386188148396 0.0
3.442182385618804 2.651948803899947 0.0
3.146832503011753 2.222630466765926 0.0
2.948870467975985 2.805088883766417 0.0
9.352005315330274 5.067356449300542 0.0
9.31729677031493 3.462944187594675 0.0
9.37428383619102 3.365546369736205 0.0
9.4883538239391 3.365384871181599 0.0
9.432147665178338 3.267287636377487 0.0
9.25034519267688 7.775848812012313 0.0
9.332091350002502 7.881724023243533 0.0
9.462101000264603 7.86490055671988 0.0
9.413353271651825 7.98561007219363 0.0
8.273592814723814 6.158623919352561 0.0
8.207135014732339 6.280394934566054 0.0
9.541483811580331 5.548224291759592 0.0
9.491365919893726 5.644847811894615 0.0
8.088095771120983 4.577581369371366 0.0
8.14760102783746 4.468303741922308 0.0
9.556217963323956 4.414867468889523 0.0
9.543667331547693 3.266908751519594 0.0
9.489307652535885 3.169908976697059 0.0
9.26285575842982 8.635341362685686 0.0
9.403220742003983 8.621447866627538 0.0
9.326013417886902 8.506778946171965 0.0
9.455477927154853 8.503896705359047 0.0
9.566646674069602 4.611465258087684 0.0
9.499341049870914 0.9352184973273918 0.0
8.683891958597638 1.444705608998412 0.0
8.599973456173778 1.287265568270043 0.0
7.760988189317371 1.175381292562583 0.0
7.50927661322749 1.171223823957793 0.0
7.380927152434357 1.411062577009695 0.0
7.242417847270241 1.170759311509981 0.0
7.107236746116019 1.421234419770886 0.0
6.960799033544566 1.169618322344823 0.0
6.817786081200392 1.434174581170586 0.0
9.48095050141868 8.738557748483624 0.0
9.319762046171894 3.263060331456388 0.0
8.920653400180534 7.117307656029475 0.0
9.452431221190624 6.544166520883111 0.0
9.571407933653493 6.540336592280795 0.0
9.507586285214174 6.443281357841339 0.0
9.575252974749443 5.070210512157044 0.0
5.755172844377253 6.370710487467459 0.0
9.541351959064952 7.969072511059531 0.0
9.354607289792183 9.3921968735401 0.0
9.495213435762107 9.37218405175897 0.0
3.77688136092967 3.643094492921176 0.0
5.460967180339239 6.159077196937325 0.0
8.656589552918996 5.283032675040985 0.0
8.599307076390474 5.387421722684671 0.0
9.584017606465821 5.263931993965828 0.0
9.51536593891754 4.977534386249715 0.0
7.788544970111893 2.70578432810479 0.0
7.381746833264364 8.755477463411431 0.0
7.615969996822885 8.852710176548548 0.0
7.783643411970649 8.691528137204457 0.0
7.845017394185501 8.938777577473743 0.0
8.570520580943368 7.342304222498308 0.0
9.103648004226827 5.781084627507008 0.0
8.338082930126799 5.815990105349368 0.0
8.930848895071895 4.561111316304916 0.0
7.381089602119859 5.983657236035151 0.0
8.42066837692862 6.393608568217351 0.0
8.888256157021065 6.459558428285236 0.0
8.826495664731354 6.575679897210801 0.0
4.22522220414496 5.921354747981145 0.0
3.943296448343383 6.075578573904587 0.0
9.563175937841836 2.554860696349795 0.0
9.505342423182917 2.656889632284623 0.0
6.660863480070611 1.168750929063519 0.0
6.518316961679488 1.436478598119306 0.0
6.683474168246802 1.694104067636375 0.0
6.376799057174731 1.707382100972048 0.0
6.205091481342603 1.443621641108414 0.0
6.058670988071357 1.728841803855816 0.0
5.877457486049096 1.454297236926778 0.0
5.724979192982589 1.756666409586195 0.0
5.529885788012015 1.462283739157555 0.0
9.514953777019835 0.7018468683209754 0.0
8.398665270372675 5.702731562702358 0.0
9.456442249775696 0.5772068858285652 0.0
9.565795671866349 2.345573662774494 0.0
8.830758563027459 9.247271599108435 0.0
8.523580738257648 4.88015211128435 0.0
5.580123316488715 5.701889892660689 0.0
5.398591029446707 5.685938459654249 0.0
5.367686360823392 1.778740548277203 0.0
9.546603444041448 1.754984055696778 0.0
9.489649223089446 1.641312329051244 0.0
9.617973952467912 3.363804764345866 0.0
9.584322830999731 6.729956156156573 0.0
9.597221861144487 3.948534024289882 0.0
9.49401963819799 8.089507968561776 0.0
9.207321074262563 9.416906871900888 0.0
8.27185428346661 4.464932191097996 0.0
8.207416067213774 4.35878753684812 0.0
8.332747746635944 4.354903699457511 0.0
3.990181919126853 3.930792395858886 0.0
8.267392138262498 4.254008221702929 0.0
7.997788712685495 1.196805377512679 0.0
9.600316638269724 5.639973985281733 0.0
9.550939606739425 5.737313319038155 0.0
9.44084303195315 5.74233753256161 0.0
9.50112296154558 5.834555019909565 0.0
8.897429225733994 6.685415510921676 0.0
8.762930941408914 6.695907295903629 0.0
8.654628175336732 9.278157371342388 0.0
8.544676900803436 9.133790942553834 0.0
5.294904777716057 5.855935872688884 0.0
5.216749389964556 5.66865685845661 0.0
9.508453581298625 2.239460033375932 0.0
9.599691370793206 3.169496930704394 0.0
9.546615051106684 3.073514534194011 0.0
7.484714626923596 5.028675123117963 0.0
9.588496050271255 7.850836295555126 0.0
5.153197381012662 1.471340286561097 0.0
9.433168304679345 3.071871997104804 0.0
9.610464706874994 5.829217654498672 0.0
9.561407772947403 5.926179534044419 0.0
8.273381980676042 5.705233340662362 0.0
8.330794188929296 5.594351887246082 0.0
8.207319603076424 5.596747949305344 0.0
7.251338559467102 5.233758892662348 0.0
8.708518799790543 1.130513882092466 0.0
9.590155250193266 0.5878623138195824 0.0
9.389919385420015 5.841079912164009 0.0
7.991397852194216 5.859910582924319 0.0
9.624951589233206 4.975554514425905 0.0
7.240016788025947 2.531866266726309 0.0
7.635666783493215 3.873554782053258 0.0
9.608476620993713 1.863530872936442 0.0
9.365330459496413 8.10677840682376 0.0
8.775076110585598 2.572737931759856 0.0
8.699389445914996 2.444602334375113 0.0
8.625078713232146 2.580891022578613 0.0
8.54447196848446 2.447624719286678 0.0
8.468898498943965 2.586757328881282 0.0
8.62282309213608 2.307826916202421 0.0
9.622102662978762 6.439307895185218 0.0
9.561995355724862 6.35103962032292 0.0
3.898245450818314 1.856155797593496 0.0
9.681759177700954 5.07069253017652 0.0
9.059254996454502 4.963357716933865 0.0
9.113144532326562 4.861710138088372 0.0
9.62140874877204 2.656009146517733 0.0
7.884510615470827 0.9666888912541309 0.0
8.14902661050739 1.005010215149227 0.0
8.491263206618079 8.527197931363634 0.0
8.408859203395778 8.697060715788105 0.0
6.54422152733529 1.954566069381189 0.0
9.563546573097593 2.755667904356369 0.0
9.453065492925557 2.761122255953964 0.0
9.676889098520615 2.755084315170127 0.0
9.678287124781653 2.556838324720633 0.0
2.60254317790297 2.278874965850319 0.0
9.211706272534968 4.050470567310489 0.0
8.526711683538949 5.698821878547752 0.0
8.296604023060945 8.533761944401608 0.0
9.649704314258118 5.543946557831669 0.0
9.651176136337964 3.85122804518279 0.0
9.44590154800397 9.498503704959054 0.0
9.580491248736612 9.476376347552954 0.0
4.3239388803087 3.921156392977062 0.0
9.65737873521736 3.075324100817917 0.0
8.128000846282253 6.160273991836929 0.0
8.06242981852327 6.292371360998262 0.0
8.500465019503922 1.442700595221201 0.0
9.615253212967009 1.649819368149096 0.0
9.561768620580791 1.538553925606111 0.0
9.435477757657937 1.527391516499924 0.0
9.627993450010088 2.242685831452484 0.0
9.5338252733548 0.4673994795805215 0.0
9.398055066504014 0.4589059948533885 0.0
9.669486082509058 5.920177035588319 0.0
9.621072177439727 6.016493814615133 0.0
9.506185962103057 6.018397021409126 0.0
9.196884440497488 7.898824858961557 0.0
9.112591143666748 7.789491461180181 0.0
9.664357762385308 7.950712034233033 0.0
8.46233617997115 2.308903464128035 0.0
8.547917980328803 2.169381684694277 0.0
8.139931430059324 6.410762600521521 0.0
7.672499127532963 9.099143622036436 0.0
7.91372855627271 9.178704612763656 0.0
8.463425076318451 9.290653726808348 0.0
9.643938029094286 9.335632419679458 0.0
9.647017668702574 0.7068996148634754 0.0
6.241662276606473 5.884018212993202 0.0
6.157742245066693 5.73500474100449 0.0
6.318815619949124 5.730068085823802 0.0
6.247706374231452 5.593094310939028 0.0
6.406948541886973 5.593272398468375 0.0
6.092564106310554 5.587409338401505 0.0
8.535507922245372 5.286142900439676 0.0
8.022959839404006 4.471630490587016 0.0
7.963561162854596 4.581393556789843 0.0
9.683487139413305 1.546750704925431 0.0
9.630761777960082 1.435922217091829 0.0
5.121714348989337 7.950140247572198 0.0
5.136464096196084 8.310254432483559 0.0
5.47349124035624 8.455234262268478 0.0
5.176273618280354 8.687190323573228 0.0
4.796664658962938 8.592678692862421 0.0
9.568705729418735 4.887269869750176 0.0
9.462711651199594 4.88832222094458 0.0
9.674903475028225 4.882285174433025 0.0
5.4996067353406 5.546583260717527 0.0
5.663632234555963 5.557613452957074 0.0
6.829408195405585 1.947174574944512 0.0
5.336529198289861 1.127585641139875 0.0
9.672387559812332 6.34138351957329 0.0
4.463988917379896 2.271060678869338 0.0
8.618048281355405 6.263841736419089 0.0
6.480949808711781 5.74815588680617 0.0
6.562207427719153 5.592185077216444 0.0
6.643040463857446 5.721233693378952 0.0
6.712825900331884 5.588664360236 0.0
6.79240375630333 5.711383948285569 0.0
6.86115931532141 5.584697050428064 0.0
6.939210100691576 5.704407337029545 0.0
7.007668476576536 5.580801046893123 0.0
7.084627386867475 5.702817970154801 0.0
6.633257976075473 5.460881327825488 0.0
6.931430743764456 5.461960451448691 0.0
9.682652370938209 6.533133024505995 0.0
8.761108695241376 9.450742747770144 0.0
9.146031326900015 3.764292700000154 0.0
9.089378801805193 3.661317181076136 0.0
9.514354521818781 8.994988681611192 0.0
8.157650730500988 4.262987189670279 0.0
6.329633198899328 5.4647789391701 0.0
2.340685767996258 2.811285337457589 0.0
7.379572471323651 0.9290892725587991 0.0
4.171878172186605 4.222320767259098 0.0
4.4876601621649 4.16473354200826 0.0
5.336389369563535 6.806464508860387 0.0
9.595468321212476 9.108133206829102 0.0
9.645038675267227 8.982113951305912 0.0
8.393140678816192 4.246338342095281 0.0
8.309440721624494 4.155300532283633 0.0
9.418269339704423 1.9925512363779 0.0
9.662781807969623 0.477809346089035 0.0
8.011297869803792 0.7518828483803571 0.0
8.250149975885678 0.7646904662196189 0.0
9.608674873602773 0.3618049194050078 0.0
8.692696069692623 6.582927327365709 0.0
8.628225948401226 6.705702462696891 0.0
8.701883181418305 6.822086652299242 0.0
8.559276855155542 6.829564723911442 0.0
7.069268463354993 5.459534423493629 0.0
2.654575201159115 3.323490466195074 0.0
3.610801136544596 4.044075244426243 0.0
8.263757217166944 5.48730323490738 0.0
8.138838162809126 5.491254533497952 0.0
7.90196833683664 4.477386962763833 0.0
7.987943097943191 3.978756490171551 0.0
9.704623491880403 3.945605151832784 0.0
9.461009573830147 7.301728818091931 0.0
9.532468631193666 7.399916015174975 0.0
9.582688928417856 7.292330983701011 0.0
9.652579613269625 7.387768793572397 0.0
9.699264016151023 7.282867433965265 0.0
9.633305589700536 7.188543855060478 0.0
9.505576100168666 6.961225778216469 0.0
9.43876966151099 6.342441564206569 0.0
4.908483672172518 6.098703904450545 0.0
9.135448256237908 5.269827196966999 0.0
5.905650502271389 2.025036080946255 0.0
9.709890722072377 9.452748507541063 0.0
9.663337613522643 9.572126259365891 0.0
9.603900123387826 7.495180532331903 0.0
9.720147629525837 7.483400774981126 0.0
9.674588415444239 7.588303295299578 0.0
9.653186673863587 4.039274180923234 0.0
9.053164539680804 4.764545162185531 0.0
9.164908495749003 4.763017269285045 0.0
9.226019227262443 4.858029410614327 0.0
8.809947621994619 3.4964384919072 0.0
9.10538997155458 4.665865142902959 0.0
9.331074106432244 5.748993480915537 0.0
9.055854333858068 7.918554535314415 0.0
9.446431573964945 8.209836764658437 0.0
9.573844810886287 8.191100251691205 0.0
9.309704769895653 8.244395007943949 0.0
7.240329561730736 1.676197957122907 0.0
9.543389817573933 3.660019800390455 0.0
9.598599341122098 3.563130123982772 0.0
9.652615161407017 3.658119804270645 0.0
9.706336063693934 3.564815526226687 0.0
8.632284427755456 6.946688912416058 0.0
9.682863230715835 2.349655023034811 0.0
9.571538455120994 2.142369886250143 0.0
8.090821900439733 9.017409120951333 0.0
6.812258669899192 0.9007667548831626 0.0
6.50135254578461 0.8974046495177885 0.0
9.598335906230732 6.246437748035812 0.0
9.719677442549804 6.253968775436637 0.0
8.593026822691716 5.180101360605356 0.0
5.537586126848265 8.836083861509138 0.0
9.688689404995035 2.143487155934306 0.0
2.821389253975936 6.507820864074362 0.0
9.176571289960709 8.507736431357309 0.0
2.918303740542162 8.256728920338826 0.0
3.428955230180972 8.401446814887457 0.0
8.490587404589881 6.715350139132777 0.0
8.86049054904785 7.243279881821806 0.0
8.93696309213556 7.356650230611625 0.0
3.951931175165697 5.78308550088855 0.0
3.65055612573298 5.91672400098539 0.0
3.668142216548471 6.247526235973777 0.0
9.717269848920886 5.821831227352286 0.0
9.708364917734201 3.164198601626433 0.0
8.45581975650687 4.569560863828342 0.0
8.204448312099833 6.040774355519757 0.0
8.65969449127868 5.485991799508151 0.0
9.707534571012967 5.634423933296901 0.0
9.62102991883279 2.849662850313935 0.0
9.144093558002634 3.560383427867003 0.0
8.29763273805118 1.77155302934031 0.0
5.280452715709455 9.01633391004168 0.0
8.984558945859158 6.99932633710603 0.0
8.4157550875812 1.275784953143711 0.0
2.068078118650995 3.355462780535101 0.0
9.205703884756806 5.568274778556933 0.0
9.745857863753141 7.178456670302003 0.0
9.681628895748586 7.081494416756802 0.0
8.875818787971069 6.240744812097083 0.0
7.993733797566922 6.414830952863579 0.0
8.462810157069566 3.377071044664789 0.0
9.29428363519789 4.759591981903337 0.0
7.933956818298286 5.97437536746848 0.0
9.028281726378319 3.558713145763133 0.0
9.083461773461467 3.455531762175701 0.0
9.73231939683535 2.849247643393067 0.0
6.70072305037728 2.192432536215492 0.0
6.423245125077639 2.212870246546939 0.0
4.931537051605536 1.135086496804522 0.0
4.746426561586179 1.500381091957315 0.0
9.707706579932626 7.836419656220658 0.0
8.590593344701457 1.595639668013959 0.0
8.708946574109854 2.1688179918246 0.0
8.634728854549891 2.028564483452208 0.0
9.230357659411311 8.129337203173913 0.0
9.102841374461482 4.452881308250647 0.0
8.472081531214734 5.388993924853032 0.0
4.925996806199801 5.844046944846857 0.0
4.702806345752284 5.745688656289065 0.0
4.884357002239844 5.633237011762874 0.0
4.709628434300812 5.536404116679045 0.0
4.530800966746534 5.627044171217377 0.0
6.040296145349247 6.603808099703576 0.0
6.162203578696918 6.795213950202512 0.0
5.923135943221574 6.824060069869489 0.0
6.046693245732212 7.010423490915212 0.0
6.297337598588478 6.979895528204233 0.0
7.760448385794147 0.7294020304851334 0.0
8.492228348169641 6.958778476405878 0.0
2.89219822877093 1.704113597264478 0.0
2.26178643438086 1.7814602252425 0.0
9.726968895980871 6.009547057102511 0.0
6.63195110828313 0.6072886418835157 0.0
7.984023036954866 7.515675826210831 0.0
7.893857204140559 7.681876703427663 0.0
7.778465117872411 7.537836322197895 0.0
7.998204230811618 7.844922503023499 0.0
7.798554315988981 7.858161805718108 0.0
7.917846202023782 8.03040048103727 0.0
8.547520504556728 2.721261126162116 0.0
8.39253850806587 2.732073315877738 0.0
8.306047241032278 2.59069854402512 0.0
8.233011054235162 2.739783364361515 0.0
8.318836035587811 2.879838477099622 0.0
8.159530874574331 2.888511553151382 0.0
8.245490421394788 3.024568439743106 0.0
9.759103003747676 3.077839427881478 0.0
8.083610090773394 3.033523757291178 0.0
8.174562583800352 3.166768504406541 0.0
6.046769434852523 1.155662270344939 0.0
6.968371001421964 2.176347877216873 0.0
8.324858098380334 3.152966249334499 0.0
8.145556596142626 2.609897633546475 0.0
8.970652052821418 7.804556541250797 0.0
9.033737629244714 7.681328986528639 0.0
9.62347010002576 4.796939565664328 0.0
9.72520380348743 4.790261082613535 0.0
4.882631186210167 5.455006233451049 0.0
4.618356368594037 3.933076284395493 0.0
4.748083507220199 4.151025177732873 0.0
4.641724290430313 4.358202249373887 0.0
4.87055838101999 4.337900676660481 0.0
4.974114446887331 4.149149057174687 0.0
5.081577844806959 4.3240148266423 0.0
5.179521650033781 4.148725180298481 0.0
5.276261408871418 4.316673822529601 0.0
5.369189110897883 4.148362797753505 0.0
5.463892033849439 4.338819369807593 0.0
5.550828466075906 4.146274465971151 0.0
5.646554822352869 4.303571429647391 0.0
5.728109623160046 4.138582010823754 0.0
5.821689108984419 4.291959598724587 0.0
5.906082534948073 4.141649907302701 0.0
5.99655838673762 4.288752711512514 0.0
6.077312859438928 4.141011188943332 0.0
6.164215275138099 4.281164574562373 0.0
6.241782344986693 4.140701084167517 0.0
6.324316420613108 4.277393447415522 0.0
6.40284165425941 4.140026953305852 0.0
6.483655157361099 4.273418937894759 0.0
6.561170698911611 4.136221843106807 0.0
6.63512300179586 4.269917278694155 0.0
6.720306110251473 4.133393659385058 0.0
6.63777078218551 3.99617001426095 0.0
6.802492763973074 3.994355399489989 0.0
6.798834760478153 4.276914787769972 0.0
6.15377608509923 4.000134206628027 0.0
6.548727135071258 4.400510710520637 0.0
6.251479300130713 4.421887359316258 0.0
5.275876048175579 3.979624500657822 0.0
5.910905077162284 4.431174408784691 0.0
6.717070288412452 3.851239795555301 0.0
6.883499045994213 3.852555480300214 0.0
6.96664848901999 3.994033961856844 0.0
7.048208567116626 3.854750001965969 0.0
5.810004974283072 3.982497501655442 0.0
5.586615391658107 4.471070246359201 0.0
6.547331954052155 3.853872077215347 0.0
5.179081233207816 4.485638492900557 0.0
7.126615227065496 3.995337770596979 0.0
7.209459742762513 3.856893463870469 0.0
7.130226097876905 3.713620439679428 0.0
6.63075064074106 3.699684148676045 0.0
6.446985573861992 3.697358756862005 0.0
7.043151422977365 4.131713936060725 0.0
7.198322215260019 4.129850614748363 0.0
7.119378405252723 4.26005098890218 0.0
4.797146270976422 4.525762781577414 0.0
4.608329098388589 4.573584257851931 0.0
7.294442092743627 3.720853338661503 0.0
7.215753312764997 3.571378507508807 0.0
7.049631633956289 3.568047985538775 0.0
7.133765707749521 3.414282375958479 0.0
9.755079417839903 5.539705890434435 0.0
9.698955703441971 5.450920012703194 0.0
9.717604099406742 9.09084770432896 0.0
9.276716006673976 5.847248422342224 0.0
9.339081208926798 5.941174203394446 0.0
9.031261921742963 3.750271483819014 0.0
9.08721978689863 3.853416037308712 0.0
4.801461566647803 7.510704110489921 0.0
8.206553504932042 5.818005960412773 0.0
7.362361315389098 3.863102442315545 0.0
9.492826845316191 2.963845037486267 0.0
9.376710375304633 2.97229517374228 0.0
9.3192743723601 3.070687802230453 0.0
7.915389082113898 6.293241865913004 0.0
6.735006382384437 5.832450056405368 0.0
8.456481836836168 4.35369289249905 0.0
8.517718268476031 4.246675068616396 0.0
5.583512022030555 5.411069060406398 0.0
5.73625200174779 5.422617752052123 0.0
5.81006929286229 5.548584937688919 0.0
5.903438861894402 5.420604003204523 0.0
5.43801870974416 5.402925156167655 0.0
7.022641548594327 5.825217331839047 0.0
7.165095795605366 5.826005223633447 0.0
7.223078558430726 5.690146755650336 0.0
7.841396000338385 4.586693006493787 0.0
7.904793170875705 4.690826189066096 0.0
7.785999820520073 4.696719777099973 0.0
7.846448506395101 4.798518978096564 0.0
7.728149182067156 4.803800941124008 0.0
7.788983823826226 4.904802634695232 0.0
7.672018889153144 4.910077510508749 0.0
7.731996012352178 5.014717724244488 0.0
7.852072803124419 5.00743796185411 0.0
7.779278698005006 5.118909346425974 0.0
8.088113864063853 5.605434545811022 0.0
8.016457362785575 5.494849890158723 0.0
8.072290383394757 5.385594956317259 0.0
7.95068657972964 5.38825563681957 0.0
8.309366678475389 1.438342408757099 0.0
9.748160780780179 1.447794693754379 0.0
9.696454228162398 1.337889922375316 0.0
9.568813761940916 1.329560834053294 0.0
9.638326779791626 1.226729570935787 0.0
8.472132467407484 5.182856496818138 0.0
8.066211547412054 6.53691730655352 0.0
8.217035586462373 6.522976700918602 0.0
3.544839338670893 3.324491119989469 0.0
6.999740002965287 5.347729916247808 0.0
6.874544698914502 5.347027470386579 0.0
4.880451234715014 5.193043717957879 0.0
9.104510033763066 9.313204713465637 0.0
9.0466357104558 9.45359399494339 0.0
9.146803165140184 9.569652364413551 0.0
8.134107047896672 0.5527712356100052 0.0
8.369770412730738 0.5571215815175228 0.0
8.47386979744655 0.7564607169846485 0.0
8.585193608569258 0.5749174254532757 0.0
8.683868132726584 0.75505070091701 0.0
8.787381435061018 0.5813987798627239 0.0
8.697570280442534 0.3771156480326233 0.0
8.530048434259976 5.077280516000916 0.0
7.995091351438729 2.90367515012593 0.0
9.731083608815164 1.662638626153251 0.0
7.260488865351954 4.255073962371814 0.0
9.760728358076392 8.990038509880067 0.0
9.716710396257366 8.884160310398862 0.0
8.794627466210242 7.369659405098349 0.0
8.868068657550866 7.515048014893154 0.0
8.702594597629135 7.510501129643432 0.0
5.132320689147051 0.7610757801158905 0.0
9.755852887652699 3.853180024615871 0.0
9.787424819067885 2.757921105725315 0.0
9.731193479931608 0.3736343090103709 0.0
9.796526908308536 0.489684029254899 0.0
8.226019692057042 2.453349105940535 0.0
4.560989821496479 5.428206018250252 0.0
4.348810639659689 5.517048281386008 0.0
8.785190163106925 7.119142251269924 0.0
9.015515413043023 7.464769766852701 0.0
9.754861440190705 3.659036930324926 0.0
9.7543610723378 4.033687839160082 0.0
9.707881226943384 4.127219992296752 0.0
9.52841017383273 8.309020665649431 0.0
9.65186044414544 8.289498614805698 0.0
9.714051275521857 8.173576484362068 0.0
8.209758892476394 8.715513071423135 0.0
8.097084883671858 8.548851201381087 0.0
8.177989947800599 8.367872862579052 0.0
7.974142434808908 8.36779470623567 0.0
8.409012054919861 2.142624252464372 0.0
7.707002321497132 8.039129945341395 0.0
7.574653123518228 7.83895791570255 0.0
9.229858094382692 5.951357214361815 0.0
9.75307989876696 1.229893222503321 0.0
9.715811155868643 1.128779429890018 0.0
9.597960915003707 1.117058287635912 0.0
9.672063923518955 1.020806103150243 0.0
8.99090422125785 9.593878510105375 0.0
8.133165456134304 9.257620998029804 0.0
7.976779931497633 9.420725324095141 0.0
9.77231778617502 7.927819487779705 0.0
7.957213679655531 4.364530256281665 0.0
9.609903116082736 8.403725680286847 0.0
9.724891358972584 8.388392708395173 0.0
9.687487059868507 8.495935345161797 0.0
9.810055520269009 8.494090598382963 0.0
9.755967487162335 8.599790818513082 0.0
9.645698986824481 8.606121319182705 0.0
9.721376049217765 8.699989876681524 0.0
9.773009257015609 4.884557953188837 0.0
9.830105798750992 4.796546393900876 0.0
9.775335108731761 4.686093304257503 0.0
7.455611517737074 3.730099283949135 0.0
8.906943567829634 0.4197477661467797 0.0
8.980613334153533 0.5814185917581446 0.0
9.081059111759728 0.4263421860552371 0.0
9.821654809259165 3.576985724143072 0.0
9.761309244784803 3.4792267780002 0.0
9.763329553045937 9.353068233045157 0.0
4.463051839136694 1.164440352584939 0.0
8.0213168204867 5.283436382300235 0.0
7.89385412333227 5.290429544753158 0.0
5.806940001023414 8.583716119232427 0.0
5.88977793877374 8.96065112858812 0.0
9.177759062826041 8.25539130897928 0.0
9.626582559276994 2.05283181283147 0.0
9.747673294325121 2.064954301745188 0.0
8.775905508647185 6.951821187702613 0.0
2.3581644273991 6.029034686663493 0.0
9.777798009058461 9.548066962498762 0.0
9.737129197219856 9.662299853506903 0.0
9.615080366030512 9.683349544763068 0.0
3.315839678697904 6.042943273456425 0.0
8.915083018115329 7.937748428923896 0.0
9.489832173860055 4.712364754630572 0.0
8.118313727862493 8.013944064029838 0.0
8.902248750797776 7.67372145952523 0.0
8.954075939212636 3.463080912810881 0.0
9.45247551997678 2.133243108303608 0.0
8.311151553157742 8.899233004613622 0.0
3.28672004268868 6.826745674539142 0.0
9.86008383798735 3.468233656255824 0.0
8.389990589860254 1.947086063498656 0.0
7.144231739553659 5.329544660076687 0.0
9.654500729007207 7.743301971143119 0.0
9.761920842881946 7.740144345898896 0.0
9.692820773976567 0.2651585113981998 0.0
9.690951720399688 6.100517071814821 0.0
9.775704281989471 6.077882312279847 0.0
9.823117117198079 4.115168542267924 0.0
9.764391943581737 4.214465954230587 0.0
9.659455011849253 4.218716850797838 0.0
9.713462125022623 4.30742830316693 0.0
9.849638067150842 4.208845651573708 0.0
6.376241713254513 3.858766051594979 0.0
6.274931849158213 3.701528298009006 0.0
7.097780104117746 1.926449727602711 0.0
2.457742027508782 3.810157622192786 0.0
2.963634206580268 3.740748099915693 0.0
5.065585416063965 5.544355730437482 0.0
9.783560252464587 7.566507987677117 0.0
9.825819294611026 7.470942204664841 0.0
9.799976114123012 1.01659516618323 0.0
9.745559590633832 0.9150866860898854 0.0
8.20473400632469 9.495828670767946 0.0
8.784586030320169 2.054461500762216 0.0
8.758471587067168 1.888286802854785 0.0
0.9188935087347281 8.510730800272478 0.0
9.674192026048217 9.20389587377276 0.0
9.796314981283475 9.185916994648775 0.0
7.206882433199502 5.452024361489832 0.0
9.773927048949279 6.334665846819535 0.0
9.830288393591173 6.225300227041885 0.0
8.25177349297509 3.282767705830209 0.0
8.099233469407428 3.304040153764131 0.0
9.607860512870598 4.315652630490023 0.0
9.403674738018715 8.367349042046314 0.0
7.611756786273919 5.018691202305147 0.0
7.549513964643336 4.923310232561835 0.0
9.80986724662116 0.2915868356190958 0.0
0.7757562810577034 3.504187313079081 0.0
7.659562100664981 4.698467529240196 0.0
6.539424975891206 3.541729955691742 0.0
6.717348880400739 3.55221857686142 0.0
6.836337579501807 2.417476958454302 0.0
7.096480496160066 5.959124656438389 0.0
7.189742782777612 4.377051328076039 0.0
7.051723187622053 4.38470822973091 0.0
7.125489805519186 4.497018383456762 0.0
6.994915621927777 4.501504591168814 0.0
7.056755276274058 4.607929817497045 0.0
6.932937068803914 4.613249390039674 0.0
6.86629288290367 4.50541343988659 0.0
6.80427099775847 4.617607827251794 0.0
6.739195362053689 4.511124964201849 0.0
6.677260697693361 4.624288827143181 0.0
6.996760608675822 4.711715831373894 0.0
6.316045249462968 0.6456945497683586 0.0
7.321834163850416 5.816449323512759 0.0
7.833101485370825 4.390058096386987 0.0
4.996572652976738 4.498711166259074 0.0
5.112334577457371 4.663858846723513 0.0
5.271923064784868 4.629759173373871 0.0
4.93773508827367 4.668006487116195 0.0
5.348137647919096 4.485934621930562 0.0
5.413454827497575 4.62999925573761 0.0
5.356581113747675 4.770594395332836 0.0
5.013422223730484 4.793321773780133 0.0
8.58674425943957 0.9312335381466886 0.0
8.776450596582496 0.9362399987293505 0.0
4.783496233934828 9.486061758876032 0.0
4.544176394620909 9.034071856445296 0.0
4.082330493623582 9.015765881393772 0.0
9.820867469965414 7.285959215547852 0.0
9.852697883440127 7.166089674802766 0.0
9.260999083164238 2.971390964911171 0.0
9.197701900169713 3.073162109379564 0.0
9.31960210441945 2.867465579641856 0.0
6.660951583415121 3.383363199709994 0.0
5.210469976037585 4.761678854423166 0.0
6.740780285297665 4.733615686805694 0.0
6.611362405615225 4.731958642073806 0.0
6.549091884465382 4.629620704100811 0.0
6.491761716522486 4.733409494449344 0.0
6.425259228542098 4.640546096196947 0.0
9.715556659367534 2.986725573570596 0.0
3.710524324925069 9.463213827486557 0.0
4.768537031214573 4.727001037865238 0.0
5.039413681704655 5.378508462165627 0.0
5.188746429211535 5.440476671296013 0.0
5.172214816037712 5.298914527247826 0.0
4.469063601436893 3.667917323494335 0.0
3.799121596584382 4.741629285988305 0.0
3.661085664896249 4.442847704416992 0.0
3.316563386321876 4.380147387454913 0.0
3.802087298647255 5.26743535640985 0.0
9.738116341343215 8.047178982429934 0.0
9.85106076399546 8.021725551312715 0.0
9.837581050304836 2.844176011307251 0.0
9.664579962075123 4.402853107737106 0.0
9.76433159763034 4.39807801415352 0.0
9.718924973226878 4.487825491046641 0.0
9.826405563645343 4.494594135148365 0.0
4.931068003413168 6.359330991212394 0.0
5.130175746947236 6.201075257041828 0.0
5.143884286052002 6.445382329515047 0.0
4.953395875296406 6.628748468717369 0.0
7.833019185167153 5.400347121613631 0.0
7.766636138801143 5.313240048256084 0.0
9.767038723422333 4.578090619166644 0.0
7.315369355237483 3.441501197259575 0.0
9.556068971301514 0.2347811136726856 0.0
5.733871280791703 4.444861510772459 0.0
5.828809543126846 4.569791247698539 0.0
5.986701526182213 4.562881783985375 0.0
5.912543327921148 4.692966271273211 0.0
6.052130330528581 4.682477327897978 0.0
5.773525984744635 4.697697018456535 0.0
6.121646311546238 4.572302645403103 0.0
6.182349700936326 4.67713231096357 0.0
5.846371383601797 4.808939734754761 0.0
5.117807918383606 5.974361363083184 0.0
6.256132501905665 4.575863546153224 0.0
6.324770064521816 9.645040261272253 0.0
7.345522892050965 4.12581088034536 0.0
9.338523512844539 4.854480276600515 0.0
9.286984287289403 4.959628690044808 0.0
5.676298026114105 4.589279806918992 0.0
5.631257891894775 4.722749088404111 0.0
7.970415275563177 5.621040275419208 0.0
9.565118337557308 7.081391220827488 0.0
9.626201005045262 6.980441083020495 0.0
9.733729506193331 6.979928568877979 0.0
9.684556253529976 6.887102896543928 0.0
9.780785815410074 6.890287441101827 0.0
9.740054813822885 6.794211367612523 0.0
6.462628988057306 7.629921412015864 0.0
6.692564520952154 7.473594130811262 0.0
6.927983108788191 7.570982428592125 0.0
6.899878641134941 7.329306734748538 0.0
7.117542472438434 7.416951094809493 0.0
7.089537168123128 7.186691566729968 0.0
7.296585396514727 7.275888419524222 0.0
6.879678873774065 7.097443005287856 0.0
7.063454637059129 6.967740076426161 0.0
7.329105042924355 7.496317641003757 0.0
6.867084781778411 6.878842928865059 0.0
7.494278796275744 7.351949197351029 0.0
7.462564159480594 7.150140034494138 0.0
7.644835001206406 7.21506678718646 0.0
6.682478929414216 7.008358327294905 0.0
6.449199855715812 7.365660640952548 0.0
7.548139855358765 7.57299228324251 0.0
7.008502809092701 7.844601794812628 0.0
7.371739019901781 7.707688433423657 0.0
5.665345294602155 5.290628720253272 0.0
3.987583013016546 4.486920698115711 0.0
8.893480480320447 0.7785000884179994 0.0
9.715485963651112 0.5955299613117169 0.0
9.761785841543585 0.7048670948649375 0.0
9.670304314877074 4.578896619304786 0.0
8.058509626083154 5.744161686650483 0.0
6.181795443628869 5.462040811515966 0.0
6.256771804808641 5.338464817889848 0.0
6.124070400983443 5.352376180901929 0.0
6.399679261813415 5.349186390888865 0.0
6.477776305607503 5.46505688468465 0.0
6.541624525938461 5.346017118512589 0.0
6.673064575428321 5.339051516933525 0.0
6.599301548842115 5.241958624987057 0.0
9.573774011620444 0.815274945835158 0.0
5.86493292693426 5.877588788523632 0.0
5.552663040119136 6.957487930464628 0.0
5.535080960199246 6.663033131707637 0.0
3.708603689392072 0.5979254716153909 0.0
3.31896983256719 1.188583855309964 0.0
3.895664898001925 1.128137111173669 0.0
6.363360407965353 6.032416442205533 0.0
9.445959758065749 1.070139246426051 0.0
9.50632172780449 1.214052376665338 0.0
9.441030033980638 1.325047485624912 0.0
9.295799464644857 1.341410624832976 0.0
9.184164107767781 1.461677744200096 0.0
6.407191016756832 4.407273313799791 0.0
5.544591888593027 0.7652641669375747 0.0
7.883090151006535 2.497506182548758 0.0
8.073420508370992 2.120510489750234 0.0
5.494822040671399 4.732314720081375 0.0
0.8986976806403217 1.464611451578306 0.0
9.536325549598013 6.83286654168725 0.0
5.972289519322897 5.727532110854501 0.0
9.82203607053145 9.443411729566549 0.0
7.263199949874008 7.064207941227515 0.0
7.233659553805083 6.853135694774254 0.0
9.793310082768443 7.072747972018893 0.0
6.734168931095253 9.67499220075154 0.0
6.941134861034159 9.382328333169653 0.0
7.285822522704258 9.443989747444657 0.0
6.576263515512108 9.333035011158342 0.0
7.160560566479093 9.127732577621245 0.0
6.218711947378506 9.298064908857533 0.0
6.432383355119106 8.980985203293491 0.0
6.795390278360442 9.046043538032663 0.0
8.54677014121837 0.1957422484480979 0.0
8.528696320820908 9.804850950580938 0.0
8.42644965647489 9.604735484095604 0.0
8.010239224104339 9.715048083583248 0.0
8.644359648763341 9.628432815860457 0.0
5.344212921686536 5.526744195650314 0.0
9.760936589662048 7.38409687515441 0.0
9.128187788393989 0.1445485608215519 0.0
9.133307661752394 9.854833215426817 0.0
4.867351616228264 3.944459575003425 0.0
5.905323253270366 7.385600364255367 0.0
5.909045412185362 3.361969954191194 0.0
5.80580919758911 3.569999290452344 0.0
5.578230704221431 3.587842862412673 0.0
6.013352753603037 3.550699073477782 0.0
5.936624955014758 3.721630401607248 0.0
5.735413275357409 3.78528948606432 0.0
5.512538847486775 3.794760621907932 0.0
5.360571639388366 3.618649018042938 0.0
5.134141179590394 3.459385929220745 0.0
6.167399567008798 3.367365990358096 0.0
9.766756262206602 8.291756450136036 0.0
5.486063578307141 9.64505925252771 0.0
9.497624614180321 4.328873442170357 0.0
9.811387324954623 1.570516917365688 0.0
9.389210081887331 4.69150887571586 0.0
9.704395728912932 3.754226393630331 0.0
9.808172776193384 3.748784464356272 0.0
6.549660911932182 4.839747932361234 0.0
6.757415124099031 6.077939876843736 0.0
3.805578542126494 8.040840085419626 0.0
4.232580149691158 8.198659880701744 0.0
4.559765382564095 7.87091698350757 0.0
8.3829075948167 0.9495097054886067 0.0
9.8571301061408 1.456307792614791 0.0
2.005900212453279 4.535525273813588 0.0
1.85904408608185 3.956445706785572 0.0
1.979307922430775 5.474327285927505 0.0
4.387923194305381 4.427191306527721 0.0
9.429258370703248 8.873693567695483 0.0
8.99196583083892 4.664567567015693 0.0
3.050357122593155 5.368999067452741 0.0
2.861107385476722 5.785089447130829 0.0
5.005058958272409 3.711196438448062 0.0
9.8972295764837 2.755337284632969 0.0
9.581048890980513 8.853909321617065 0.0
9.668838904423916 1.762418716497425 0.0
9.716576458425756 1.852218615166234 0.0
9.799043132681442 1.780583141193779 0.0
7.661868217848455 2.880323287492419 0.0
6.780136552904057 5.443858690999834 0.0
6.489544866845868 5.913957888434588 0.0
6.880149522020364 4.134257616716107 0.0
6.970134365280068 4.264072319341612 0.0
2.225481516813409 9.348422240784 0.0
1.843418032490818 8.641605249943353 0.0
2.198000805242772 0.6459947140825729 0.0
8.740020306282506 0.1903932731609072 0.0
6.86957996016679 4.720776242956433 0.0
7.430920333506809 0.2702852342693345 0.0
7.302066064947383 0.6134316505458445 0.0
9.305398039877746 4.64854361125207 0.0
4.078151380865065 5.203425462519088 0.0
4.080704120371218 4.778853303303787 0.0
8.052525541571825 5.965483159581719 0.0
6.367194027835946 4.754896037842673 0.0
8.604191121620719 7.648182513679963 0.0
9.546446695207845 9.234701521982952 0.0
9.018652854946867 3.351011585453845 0.0
9.143853648154607 3.350173119015413 0.0
9.067079866763024 3.245174561579149 0.0
8.991492136849105 3.135578770028028 0.0
9.29603967712795 0.1426516429033488 0.0
9.392428271030795 0.2506306237151588 0.0
9.223973843394301 0.2912279164401488 0.0
8.39375191941536 3.018777714002827 0.0
8.4836475746111 2.88135207267795 0.0
8.741089053946197 9.821127577434911 0.0
9.803966507713174 5.448064463539533 0.0
9.748132240148552 5.359371181503531 0.0
9.850258990973547 5.355211921626304 0.0
9.7965346514158 5.266762244994661 0.0
9.84142096963129 5.171050273734619 0.0
9.738843612428232 5.167483913244169 0.0
9.64168976006725 5.359875132194057 0.0
3.335917453809221 5.671837672982919 0.0
6.962669142802881 1.683222554707996 0.0
7.365210844496719 1.887492842536114 0.0
7.517378971174123 1.677983072937792 0.0
8.00383870208024 6.089394601875145 0.0
1.725435941000569 2.759295503019395 0.0
7.907977929549089 5.102827208603365 0.0
8.052861051278896 0.2683271125209605 0.0
9.80169732768395 3.385443381464333 0.0
9.831597648680848 3.28491948963525 0.0
9.736335895866404 3.316207814499244 0.0
9.597256128490281 3.756160701977744 0.0
8.865819925321706 3.366235906378775 0.0
8.489614436807788 1.757152185195495 0.0
8.88089641144391 1.078983279100314 0.0
7.430923851187758 9.724389499796425 0.0
7.584252919312249 9.509430586267927 0.0
9.744026095940516 2.247117754488748 0.0
9.729961521243718 2.659836747108116 0.0
9.790866569780063 2.558993767350471 0.0
9.736606445116795 2.455104424879619 0.0
9.846806182714698 2.452157456754448 0.0
4.518102112052724 5.141350889745285 0.0
4.519880229178207 4.85678334497067 0.0
9.7302407894617 6.434012603549242 0.0
9.787537474544765 6.523591663056312 0.0
9.744262337067932 6.617499601377625 0.0
9.8406238811518 6.41591236129004 0.0
8.914967252734657 3.579360039684312 0.0
9.154797282599406 5.670753066089419 0.0
4.228839454580575 4.612979739018002 0.0
6.095037541675208 4.42126627187728 0.0
9.304166983880842 9.864854494751789 0.0
9.406445527105628 9.759007358529582 0.0
9.256225114941945 9.700832989525724 0.0
9.796206564635622 2.351215649506205 0.0
9.849373673349081 2.25090453834006 0.0
6.332048155295931 3.511675163099286 0.0
9.069679774213784 3.022879178706259 0.0
9.070599961450037 9.055284879641471 0.0
1.808685691036764 6.331557276533421 0.0
7.120156826652838 4.698481230214924 0.0
7.052894345811342 4.799848851879358 0.0
4.739957520484086 5.369107149361242 0.0
9.389197839958292 7.197139943834638 0.0
9.046688232613976 4.560364044038737 0.0
9.162685461967492 4.562194096410666 0.0
4.227377821420887 1.564128177298305 0.0
9.201090975245227 2.794301402811909 0.0
9.251941624303948 2.677556975242327 0.0
9.186758273070138 2.563916005021366 0.0
9.317609833868786 2.560335260954038 0.0
6.57599191748324 2.437689779955877 0.0
6.305556560534859 2.459112595979303 0.0
6.981058048792093 2.642476994448363 0.0
9.886113463139504 6.510498309609482 0.0
9.250462794607717 6.221362629571698 0.0
9.305373999084068 6.108271307139882 0.0
9.390477915810829 6.228015172491477 0.0
9.44452571968143 6.114582165110393 0.0
9.502105740270528 6.197677857389309 0.0
9.31559697209813 6.331647407124485 0.0
9.370938253597153 6.437386206819511 0.0
9.594764406124872 0.1099001288712305 0.0
9.602872681151728 9.894988341116305 0.0
9.622661196143387 8.076680696281343 0.0
9.769069277144705 5.9102532189237 0.0
2.615076109785583 8.807551523115547 0.0
9.658920005405456 5.730890135691177 0.0
9.76063135061807 5.720703211793342 0.0
8.63963723169499 7.177334225227945 0.0
7.841904391869763 6.41346852896409 0.0
7.764520718520185 6.297267738834625 0.0
9.546492996136271 3.465225175657335 0.0
9.25600964352143 2.219157062786616 0.0
7.625057159226293 7.012987957636062 0.0
9.529121062829038 7.730283486008674 0.0
8.329887090625894 3.845190321147069 0.0
8.265841850823831 3.95687001944245 0.0
8.402006523775544 3.947660780406651 0.0
8.128436391670505 3.968543393650448 0.0
8.46705122470662 3.835767362024195 0.0
8.218867047074696 4.063481375518748 0.0
8.089763413611255 4.08062363292928 0.0
7.939578083855268 4.111915744184436 0.0
3.74991304509639 6.615676756107112 0.0
2.627714335615619 1.170993030860914 0.0
7.046129971268607 6.759930788612616 0.0
8.534603732661887 7.486325780553722 0.0
1.569381386467569 2.042794535871475 0.0
6.228703743210918 1.986421863690014 0.0
6.467030855792859 2.67190498312861 0.0
9.272246093269825 1.975478263632296 0.0
8.05269609263041 3.854522845257449 0.0
8.008595521536957 3.177870309354594 0.0
7.929796740504207 3.350600835935766 0.0
8.048703574664067 3.449582532910417 0.0
9.72947480375618 4.973926800124758 0.0
9.784850360535604 5.072865219810449 0.0
9.896036387646596 5.069261557893528 0.0
9.633140953203334 5.168645132864771 0.0
9.558102991128836 7.602453108835212 0.0
7.278758746505716 3.994295887299482 0.0
8.306681733482405 6.936428510427854 0.0
9.487163072013963 3.757777670075558 0.0
9.532950522284125 5.359403698944497 0.0
9.816036650072329 3.927268437107025 0.0
6.173882586235392 8.734645960664665 0.0
7.972518459433741 5.003005338485466 0.0
8.398453459336153 1.601072016988848 0.0
8.97460527296194 4.040886705742754 0.0
9.037941657530773 4.143578781749325 0.0
8.849604200183613 3.828506169652706 0.0
9.545296177100065 4.042698359132156 0.0
8.595941796785514 5.806754902023664 0.0
8.65588412428292 5.694192853853139 0.0
8.723710665131787 5.801528918332044 0.0
6.861288985046249 6.673713222735126 0.0
8.87477249219366 4.664500928777609 0.0
8.72385765226959 3.608276264790996 0.0
7.145228858696953 5.573648565429618 0.0
7.282945121585866 5.558559688509987 0.0
9.224761401603633 1.602363370249125 0.0
9.609115686587552 2.986868833620756 0.0
9.633989947851914 6.628120633848649 0.0
6.046214325132457 5.45615093027661 0.0
9.017014346798927 5.271996636983457 0.0
9.070824864071271 5.168510834798647 0.0
9.189021391555556 5.166867900487267 0.0
9.123328759137758 5.064718588163964 0.0
9.240587446378079 5.06459430516883 0.0
9.250848280531756 5.267364371053135 0.0
5.773050603406019 5.7192906317521 0.0
8.576466432793914 4.3559007860436 0.0
8.634627802680399 4.253467736542067 0.0
8.461790117175607 5.591735227444779 0.0
8.907610717370224 3.713397213891439 0.0
9.80665594564509 5.628066492225966 0.0
8.985935132601089 4.455263493464225 0.0
9.00640209566022 5.067597672073404 0.0
9.833659276096986 6.976519563917422 0.0
8.0283368553477 4.687271895436317 0.0
8.326580191759327 9.127498457128247 0.0
8.650637373791266 5.07513089931925 0.0
8.701067313435203 2.700069743477523 0.0
4.825307249916392 4.884175191874744 0.0
9.418335984190309 6.858444798015129 0.0
3.91434687300816 8.542956908935874 0.0
5.569239724399552 2.064135034637056 0.0
5.234271567762738 2.128974435011933 0.0
5.757920427527626 2.312422707096966 0.0
5.43365689737979 2.427455772745759 0.0
5.673210219624612 2.602111218343444 0.0
7.214258468265766 6.652783071431555 0.0
9.823626269633962 4.30685540664529 0.0
7.96996639420014 4.794005510174826 0.0
7.616003332725032 0.502676560965646 0.0
3.050634530589821 4.659174799474146 0.0
2.870894249800723 4.246924313393336 0.0
5.285393339952368 6.079037173753393 0.0
9.439954241218905 4.23581687956071 0.0
9.67709722097145 4.710772408106511 0.0
7.40767785509217 4.259947873553335 0.0
8.396202587439676 5.486075637998701 0.0
8.323689688705493 5.372061002264632 0.0
8.191312386254125 5.384662546230823 0.0
5.304380054816289 5.369675374029755 0.0
9.093848379546637 4.047647920840374 0.0
7.916313220758624 3.045043876114836 0.0
8.435854831444637 4.144861908356168 0.0
9.060262453079693 0.7340576053322918 0.0
7.053195520344596 5.238809779682351 0.0
9.621762679347093 2.45205452967588 0.0
8.410730269104743 5.287995309529392 0.0
9.655094569234972 3.472720279371932 0.0
7.982140513923982 6.667914768024983 0.0
8.402690325256646 4.883576657130221 0.0
9.17488654147479 4.962006474835693 0.0
9.013188196102961 8.49700148123058 0.0
9.795977244531603 2.156818021002043 0.0
9.893813711206834 9.545820400859157 0.0
7.965349232662289 4.250048884270795 0.0
8.644264557989125 4.874751532150782 0.0
8.215430976121077 1.26077208565765 0.0
8.379717637669398 8.37324652769609 0.0
9.320026533461409 5.559861899725609 0.0
7.885778178744864 0.4977439426642278 0.0
7.547066983926719 5.125166613071239 0.0
7.657542898944819 5.122996245335209 0.0
7.423918840193691 9.000935553397358 0.0
9.854133000712425 5.541931969512857 0.0
9.328508174398952 2.101486405523264 0.0
9.300749600926641 9.530012105354274 0.0
8.130307182491519 5.277079344947874 0.0
8.346752967392757 4.987627363826086 0.0
9.118404185029991 6.007087846617186 0.0
9.048232213728614 5.89431792713258 0.0
9.088340967655858 5.576242562571367 0.0
8.094762487139027 4.789727191449318 0.0
9.915265904493378 5.749591413470928 0.0
9.92169805280126 6.154216704502091 0.0
9.918022441582268 4.549125436287157 0.0
9.919332362905616 4.849536560132457 0.0
9.914800786693318 6.750595509794719 0.0
9.811792900437824 6.703950687575952 0.0
9.900643083988882 3.749855087409844 0.0
9.912423171222734 3.043228996968949 0.0
9.91892875832665 5.949999999993851 0.0
9.913300070218703 3.960831593817277 0.0
7.709347001661226 4.444236534782706 0.0
7.479443107717332 8.071637285053104 0.0
8.839057072155848 6.807845119358974 0.0
8.972330068019902 6.78765448182788 0.0
8.542093772125282 3.941452413628317 0.0
8.279144752968262 5.930387616620717 0.0
9.393455876855919 4.973162505621418 0.0
9.507123333872533 2.855087674515822 0.0
8.77504684283825 2.317347145885344 0.0
8.394133129040345 4.464046960801843 0.0
5.725509852450801 8.210843960481027 0.0
5.62632390239664 3.967637659758752 0.0
7.910815814627989 4.900765971697654 0.0
8.595808444085467 5.590040244353608 0.0
9.705160502006024 0.8106158419444889 0.0
9.82021247904746 0.808810893177099 0.0
9.218352146075844 4.447736986422823 0.0
9.20781892622228 3.858281726888132 0.0
8.713609974387523 5.178241668554946 0.0
3.55755059259364 8.921522400238844 0.0
9.59122926011489 5.452844834281716 0.0
9.70565100407009 9.77887811062354 0.0
9.826938454219809 9.74303055702321 0.0
7.238962096855633 3.278078153406256 0.0
8.575609105166194 4.567807831727537 0.0
8.936449841121737 4.765835458965493 0.0
5.59323463391086 9.248527978398117 0.0
5.280809113285124 4.886132326418428 0.0
9.328132730893216 6.544753806716806 0.0
9.026944889277736 6.67247283515637 0.0
9.81946239021469 3.007926663525007 0.0
8.677633568960493 6.144049349297466 0.0
8.33427489656924 4.571212803519522 0.0
8.55734024448315 6.382535186588269 0.0
8.692399379422756 6.372347713955898 0.0
8.495817478252626 6.503308565233578 0.0
9.905494734661673 2.544078755559835 0.0
6.177101405266569 7.228490244483556 0.0
9.825373011845263 5.807482724503027 0.0
9.808678508609606 8.118683092442964 0.0
8.397717712407108 7.08010313863416 0.0
7.428555529689225 4.935946611338556 0.0
9.575504958128711 6.125633853639113 0.0
9.154066996197898 4.146562596982661 0.0
8.074381802159323 4.337569667261167 0.0
7.018337246891919 8.843475095716133 0.0
7.970627172560641 2.658650028065857 0.0
7.382546388883145 6.723381543491632 0.0
6.822972334933889 4.884555620881615 0.0
8.343732976791593 6.041576709398377 0.0
7.743680217306919 8.423336160305476 0.0
8.505717922983454 1.115022897794028 0.0
9.113973198216474 6.992972408167606 0.0
5.818882632841168 5.300437503812764 0.0
5.951991891717714 5.279516346785062 0.0
9.450183479138845 5.92934813870612 0.0
8.783346541536119 5.48419035750989 0.0
9.38074895894124 5.65076274999803 0.0
9.513658728876734 7.193620441323493 0.0
6.396040948797887 6.776064256962667 0.0
5.389661780244388 4.89715084345563 0.0
4.473247649068957 5.85935163892416 0.0
9.249586607512612 8.37680799459232 0.0
9.103796366487646 8.379197231055114 0.0
6.274057301184156 4.87985402946409 0.0
9.259628836118232 3.561431822636308 0.0
4.037922477011971 5.489409780163391 0.0
5.62712958624254 4.893925433488392 0.0
8.806426003347967 6.133410188141932 0.0
9.53304466499349 9.59279975429444 0.0
9.542890959420024 1.966631379116419 0.0
7.459736176874619 5.863847835420528 0.0
5.937613117200432 4.89232797168023 0.0
6.171611131472617 4.879541833448487 0.0
6.100695199816815 2.291172318314745 0.0
2.315194906726768 8.081958163666464 0.0
6.878489987598286 5.148099521847569 0.0
9.105264414399338 8.639184652727645 0.0
9.20047261316883 3.457820810661327 0.0
9.895329010385955 7.55944047105717 0.0
9.912742873006831 7.76210330502246 0.0
9.37761459375249 3.168397068877758 0.0
8.946121261512507 6.345629828835438 0.0
9.918632496443566 4.449809517365367 0.0
6.848211525651934 5.945010613369067 0.0
9.915721525903255 2.047407395915179 0.0
6.117255841708726 5.163321965161054 0.0
7.276595248786602 5.347247322210079 0.0
6.32682869954104 5.23674259421017 0.0
8.785886448438022 5.692775375342819 0.0
9.099994401883361 6.776698531382792 0.0
9.913397459621638 0.2499999999998165 0.0
9.910352525643928 0.4481571029410266 0.0
9.907850422008579 0.5479735220323012 0.0
9.911983631350465 9.24778487019403 0.0
9.917634740384067 0.7514684821956668 0.0
9.195214232985496 3.254172408378337 0.0
5.000896927376288 1.846006038077654 0.0
9.917172478547403 8.250155740683276 0.0
9.908120476950126 1.742986232208194 0.0
9.914524635720774 1.949567899316728 0.0
9.907358878377153 9.145625165175748 0.0
9.917695944922635 8.949999999998397 0.0
7.648387553139914 5.325741673607362 0.0
9.605343588986079 4.130627398479715 0.0
6.648113233057817 6.774798386229164 0.0
9.910347203087213 8.446729917003672 0.0
9.913623694530468 8.548470085896316 0.0
9.9201245863254 1.536225488581779 0.0
9.906538426683255 1.059019360781604 0.0
9.912867352010919 8.74999999999809 0.0
9.799662981388353 8.79550485462418 0.0
9.831828680383174 5.99966894118311 0.0
9.91414179906643 1.263025320602998 0.0
9.920690092699912 7.240982963665807 0.0
9.385889285950551 2.235126904097426 0.0
9.28133998925606 8.00415195851526 0.0
9.817074723108401 3.172398890123306 0.0
9.482030285089927 7.512954023388035 0.0
6.682432918504054 7.233889573028878 0.0
8.528699633246763 3.260502457553277 0.0
8.91699963742029 2.327016692708648 0.0
9.267676068834481 3.954520684561369 0.0
8.70811637467455 4.974101624783084 0.0
8.18184214270768 7.816666208279135 0.0
9.690393137288163 5.264344933127836 0.0
6.937111790104696 5.245184991960528 0.0
5.895846026722989 5.174232967273284 0.0
8.281683356622615 6.400073017261236 0.0
9.150883172924027 7.444273543454419 0.0
5.430406600793122 3.390815886517273 0.0
5.049583827974758 5.697634876048387 0.0
8.3966710383105 3.495813899905868 0.0
9.007538428392454 8.046563579784266 0.0
4.645155158868719 2.637132843684674 0.0
4.887444326771336 2.30020425915506 0.0
6.483736782775559 4.522536327482678 0.0
7.843169154548308 8.2116075844056 0.0
5.06295551628385 4.901632590583318 0.0
7.201400991012747 5.138239336380897 0.0
8.519791031104612 8.848807089071627 0.0
8.658623737989732 3.031313729049854 0.0
7.585566208322493 3.629882964874684 0.0
8.411818469596405 6.834326722716643 0.0
9.172363528634236 7.669230647622864 0.0
8.85455683341768 2.682483055215344 0.0
9.359398739738925 1.631421337140716 0.0
9.071793864444992 7.337030604117359 0.0
6.968394563521436 3.712808894519514 0.0
7.899236117684646 7.094583340182754 0.0
9.54362864504834 9.781852543872333 0.0
7.151298729743687 7.644795130415299 0.0
5.452218361466201 5.186873761308322 0.0
5.517642289161902 5.293540933999446 0.0
7.802500357665464 5.978295671754199 0.0
6.594850839687122 8.491429270558893 0.0
6.029132431949566 8.294997405201931 0.0
9.31286590869111 0.5672913838331921 0.0
9.25238720319541 0.4415953739444106 0.0
9.550589523211062 4.228044955453704 0.0
8.748611832783206 6.250900951984038 0.0
7.566980108995873 3.995148257893202 0.0
7.426142759241261 3.996743578498081 0.0
6.478912513785404 4.000296412419969 0.0
9.30435638148753 5.168210982711592 0.0
7.542154188520517 5.752525075248498 0.0
7.219033852073297 2.139582470800704 0.0
7.370913620388047 6.545121498197235 0.0
5.226731036024996 5.187572666585561 0.0
8.515591031124366 4.462223215179979 0.0
6.762864307079274 0.3078036604979366 0.0
8.587432696997471 4.977010533175154 0.0
8.703948448756302 8.815629076400704 0.0
8.081003990931544 7.370949680119862 0.0
7.424404567669909 6.949730915714445 0.0
8.578903262311433 8.377992954045473 0.0
7.301258690263783 6.106184350645308 0.0
5.991600556904204 3.99820087171043 0.0
8.203048538477193 1.601044215405025 0.0
7.289972483120081 4.572350254111052 0.0
7.714697186439165 5.420586967696794 0.0
8.918853780709807 1.841796898567452 0.0
9.919941345877513 4.749808449067644 0.0
7.245589454939737 5.94251251443003 0.0
9.258480524497795 3.358952871140391 0.0
3.705877615124628 5.574038727593425 0.0
8.287096858129765 7.962370605242409 0.0
6.799629860952143 3.705385600481528 0.0
4.146753450763018 6.544154457143895 0.0
7.413973555029582 5.545687501585183 0.0
8.466524978378082 4.980481756569235 0.0
7.336312153537934 2.337983522449311 0.0
7.695505222753409 3.747498713679684 0.0
4.898236813123799 4.795853653580084 0.0
4.59779105899602 1.896916774247134 0.0
8.560170375862322 7.072369101894893 0.0
8.386150468360862 2.449771437140704 0.0
8.41200018115259 5.084601315536367 0.0
5.102189912301071 7.621598618277815 0.0
8.336320418935243 6.71651223072348 0.0
5.081745734883095 3.977838926197614 0.0
7.63590698378166 0.9500570055008507 0.0
7.743369677149255 3.051233984704873 0.0
5.357527459690566 0.3809996753407537 0.0
5.967373112873382 0.7731113464301924 0.0
8.169449265206127 6.666271947462212 0.0
5.95122726745053 5.55758205410881 0.0
9.922289489207834 3.53923011719877 0.0
9.39154684476555 2.659037023454942 0.0
7.701415639167884 7.690060291860976 0.0
9.819179654793023 1.329863870021845 0.0
8.358229579054417 6.506108206863729 0.0
9.269720555169467 5.657096143475924 0.0
4.473187658045934 7.435037860084884 0.0
9.65807158077373 3.255496360750368 0.0
9.605155446454205 8.713645566904637 0.0
7.097383547728313 5.141197376985936 0.0
9.812212483832656 1.89920712759492 0.0
9.83875570675407 6.81603549325055 0.0
8.926246869879279 2.079976511571457 0.0
9.166785856141402 9.169070814302419 0.0
8.763479010228052 1.587152667342957 0.0
5.957377924852992 6.404530806530254 0.0
7.14506854375872 6.10342416684208 0.0
5.672595070581394 5.164323323112049 0.0
4.899782787268781 0.3801727265981219 0.0
4.447133848117348 4.673614099606824 0.0
7.044865074789195 3.253639989243549 0.0
9.818461337102992 7.819456450952447 0.0
9.925334577033155 7.954012377173311 0.0
6.352907898232792 1.173665225954276 0.0
7.351721385581032 5.660361289755705 0.0
9.337367583861807 2.76534436379692 0.0
8.693118347802024 4.360254099729149 0.0
9.476812970101324 0.3524826622168163 0.0
7.109868985890334 0.9024224571333925 0.0
7.899106846231403 5.511805431542581 0.0
8.352799544476607 5.187887629361129 0.0
6.957483547582747 0.6176251309213842 0.0
8.099559500483094 1.412323841044818 0.0
9.913030944540278 0.8542404645334569 0.0
9.143075088381442 8.022165366829135 0.0
8.819861450593166 6.356592599428041 0.0
9.319444417409162 1.49938505915629 0.0
6.490262520326714 7.118204362551877 0.0
6.490874470087819 6.582907761235813 0.0
9.82506653058937 0.6146757679104559 0.0
6.803129818897624 4.419048038171804 0.0
9.840901379354312 0.08198751964190581 0.0
9.839740374244226 9.918356239418472 0.0
8.551927134544655 9.449788917425456 0.0
9.92097857388158 3.249999999993177 0.0
5.797087413057367 7.077351493358238 0.0
9.255412859987286 6.433984412022419 0.0
8.668174522249984 1.740767926084485 0.0
9.920991430240607 6.25262219124529 0.0
7.57275248448898 1.94367954756322 0.0
8.052865444445507 8.19900054463639 0.0
8.748697149245206 4.25201068974208 0.0
9.158270227735827 0.5542256343091421 0.0
5.997487767477439 4.787924707603557 0.0
6.119759900601896 4.78043793682227 0.0
4.353034750397793 8.619182743639561 0.0
8.721093521611476 5.588932824583312 0.0
5.717101151444983 1.123034066822819 0.0
9.825602081347064 8.68753399402474 0.0
8.005502510832988 8.7824052910506 0.0
5.548184234622668 6.408009287230429 0.0
5.77830300433981 6.598697187164234 0.0
9.613093825495433 4.50282172481406 0.0
9.928981132641653 9.74928475696928 0.0
6.613628176297015 4.515513362596662 0.0
1.822126723816303 1.297795131355289 0.0
9.514164594137375 1.43081427463862 0.0
4.735494753432723 3.698541604583975 0.0
9.52844959749262 8.615213629960298 0.0
4.660704511759056 0.7947595073298008 0.0
6.82340845160293 5.239926830264399 0.0
7.885938077030673 7.380147032865134 0.0
7.884599891021201 6.09005968568029 0.0
8.846834820720167 9.653276456345532 0.0
8.457777199486827 0.3851010632068662 0.0
6.66485224572131 8.771510767670392 0.0
9.091499342133352 9.708315832477556 0.0
9.824286725109655 4.976315293637262 0.0
7.848197684391786 5.632217046637356 0.0
3.88430598115417 4.225391362015386 0.0
8.776890759183289 2.809688928468134 0.0
7.393884285023409 3.59397875231041 0.0
6.927568893329758 4.396788356869783 0.0
4.96854327720728 2.662368428358774 0.0
9.1480130720193 3.951479613991279 0.0
7.071049729490975 2.38092990636632 0.0
3.40193058782919 1.686321186206593 0.0
7.612042194200681 4.815904436723407 0.0
9.043395868401339 6.888481825015849 0.0
9.098933057562759 8.152197681006806 0.0
6.058682303253315 3.857501492181965 0.0
3.707092669281355 2.986685502034343 0.0
5.113272509841263 5.189455016444592 0.0
6.960565857079232 3.416349532571279 0.0
8.755151527375476 7.649255597361291 0.0
3.393680865444538 3.679982303262531 0.0
3.117424600120088 3.35605258976247 0.0
8.530814041264104 5.488376426140491 0.0
4.820719767306654 5.106646490188182 0.0
9.918899263509473 4.144927088739744 0.0
9.918194630017027 7.447268230913605 0.0
8.461970084137805 3.144844565847669 0.0
9.924415919486059 6.949999999995354 0.0
7.184050152099684 2.72771667662237 0.0
8.834356715215904 7.801565642745232 0.0
8.689015446783005 4.145232831954543 0.0
8.490778532265319 8.234414357968106 0.0
8.63666290918932 2.83060276219705 0.0
4.61028976098935 4.741894230894578 0.0
6.314735925012879 4.003132559161639 0.0
9.20786580425652 4.67001723737971 0.0
7.141401229301469 4.873205425098625 0.0
6.235177809922153 4.774126344778935 0.0
9.12491895896937 3.145675090615719 0.0
9.255747684068178 3.162525801823036 0.0
8.312852272796098 2.290855459722148 0.0
1.449266720542303 3.363629101350872 0.0
9.525687840398492 4.800807314407045 0.0
4.829905263804087 8.14474456977717 0.0
9.09338914689732 7.563794106183232 0.0
5.389401689694107 5.283808684471545 0.0
8.530979415204587 3.029374286908943 0.0
7.901489077080633 6.535344047486632 0.0
9.218572924671975 5.760893551533255 0.0
8.562382833959296 4.143913974026883 0.0
8.62959127904665 8.974877485888243 0.0
9.408442441596518 9.62276529745719 0.0
7.5034765601713 3.869833107932387 0.0
9.842813436634783 6.600620949014236 0.0
9.826116984327193 8.911617279149695 0.0
7.529907780698261 0.7369111006685982 0.0
7.832164962480427 2.905293639437395 0.0
8.39517908433056 3.267417602291069 0.0
9.823014010107707 9.085319632577246 0.0
9.022314123618541 3.944559746338292 0.0
4.243701230676532 5.332574856090426 0.0
9.816740542566388 1.127839952679595 0.0
8.166775715766304 5.693916696568397 0.0
8.865374421689054 8.068986769641638 0.0
8.761145809863661 6.470583506581853 0.0
8.998345275919851 9.209303502026401 0.0
9.698477487436316 6.706902829754045 0.0
6.439032098063426 0.3109134377713525 0.0
7.562681994382136 4.643158005207056 0.0
9.03999088074715 0.2799354672273258 0.0
5.180741540467516 3.805018725608906 0.0
6.243990330956698 2.718077286244967 0.0
9.79416634023361 0.1815240178579244 0.0
9.926540005061975 2.847049370876555 0.0
9.826476210374608 2.670192168078066 0.0
6.365816673179121 4.536333049275508 0.0
5.546353765219417 4.618331215552614 0.0
9.820703096450293 2.000649418331399 0.0
6.884388790679166 3.561583980715254 0.0
7.431303395649604 5.747824222777201 0.0
8.849816832721245 2.19318290395604 0.0
4.185147517585975 5.697469360586313 0.0
9.165905238119013 5.873664931582344 0.0
7.70479478158537 1.788324620089049 0.0
9.627376046933474 0.9196091445437269 0.0
6.657687963328663 5.144792385996769 0.0
9.83245016645186 0.3925568446109945 0.0
7.483092985762584 9.253837199159435 0.0
5.445348362202234 3.977855663863651 0.0
7.476680532833337 4.837183287808616 0.0
9.572749890969304 8.505160319814301 0.0
9.915853314998252 9.437014513917465 0.0
7.679469018350979 7.390484878021194 0.0
9.418139053434402 4.790576000488359 0.0
8.096967733471567 5.865447162201908 0.0
9.829153508938724 8.378494945652118 0.0
9.926595955569645 5.157718300415699 0.0
8.774484245600224 7.939747459426853 0.0
8.629764448155779 6.481031318922794 0.0
8.961169458302376 3.839036702328818 0.0
4.617199205561317 5.256318959792646 0.0
8.480815774219478 4.031210317621497 0.0
9.708341592512763 3.401018043990571 0.0
7.183974816647467 4.77882314543966 0.0
9.821437962294304 7.659391965474772 0.0
8.150320284869602 2.286501016204562 0.0
9.828114434347311 1.684891358832554 0.0
5.349187766238684 6.538177907133678 0.0
8.076053471314525 2.76180604769483 0.0
4.907713691134565 5.29818629967416 0.0
0.6874399366049438 4.328593906714074 0.0
0.6980011780697519 5.702671170050627 0.0
8.263861466707834 8.182284285231713 0.0
5.838783785156478 4.913981390426639 0.0
7.807619472656604 7.235706382002089 0.0
9.388504256318683 6.022122644748753 0.0
9.929839894767033 6.436189192303577 0.0
8.3205848711706 3.39107920408397 0.0
3.240770542267401 4.019899919523968 0.0
8.059047070496568 2.468855909103855 0.0
9.932479519490421 2.449625056415224 0.0
7.737639000139152 4.580708137963557 0.0
8.26141077223695 0.3940397126348397 0.0
9.69568953371801 1.959951226402445 0.0
6.469120930453264 4.892267070266994 0.0
9.167223997255698 0.8102256463122337 0.0
6.236889648241256 0.9291076084031108 0.0
8.306379082772498 5.268830342852036 0.0
6.716089118890225 5.239344620507032 0.0
9.82511981852641 9.282822358664017 0.0
6.68375719572285 4.404998642130821 0.0
8.913754712375674 6.908138360584365 0.0
6.173250048857013 5.251634416326969 0.0
4.235907497612446 1.924052997345291 0.0
5.151007663981651 2.438629730660893 0.0
8.924254300637541 9.3764975797567 0.0
4.438612423541503 5.287968640901957 0.0
8.571203234299599 1.897009944569934 0.0
6.878800676380218 5.821332862798138 0.0
5.710626178601224 4.792560699857408 0.0
7.149510071621283 5.216310009157644 0.0
2.099966541549645 2.334742113488256 0.0
9.93396330620579 5.350566393301629 0.0
7.143046479323961 8.646955109387985 0.0
7.965747313080266 5.193641450105844 0.0
6.3314394693073 5.135050228240639 0.0
7.665821333021348 6.222698255001823 0.0
6.305321657053551 4.659816230868476 0.0
7.833020917089713 5.208837056143474 0.0
9.41455902676429 2.869725681199307 0.0
8.567151507735133 6.598605357295113 0.0
7.405527786978573 4.377085529441429 0.0
6.552969697053132 5.137148974085434 0.0
9.93630620742063 8.042778076596578 0.0
7.166743296019233 4.593171678848165 0.0
6.595561806063966 5.839366735225723 0.0
6.066152182102007 5.262519562574559 0.0
9.834694151277489 0.9093455747994099 0.0
8.98259191950674 7.579732466796592 0.0
6.465071238839505 5.25485771955322 0.0
9.759759896588413 3.236659507608532 0.0
4.775529448101694 5.224235675150505 0.0
9.935991245222917 7.153416415978829 0.0
0.6530736820718381 9.352299998916202 0.0
0.6449439415299687 0.6468300344151556 0.0
7.804690364869245 4.495816547678174 0.0
9.84503784553893 5.70620404704573 0.0
9.83525329400959 3.826992990746767 0.0
9.922964894244684 4.265000406933376 0.0
8.333767638401964 1.121219971446645 0.0
8.876012546033895 7.019147158538482 0.0
8.172413577824324 3.413096916572049 0.0
7.232233017296214 4.478957103028363 0.0
6.214597295185415 3.852860083673202 0.0
9.85013791746415 4.400709747289421 0.0
3.941627380932058 6.342995010255737 0.0
3.097271569675528 8.77391871286929 0.0
9.292917152323044 6.010976049411984 0.0
8.104342196673183 5.184165973282902 0.0
8.994300084006271 3.652611812846807 0.0
9.937157897030163 5.549999999993244 0.0
8.721368888525245 7.274540720770752 0.0
8.920003648712827 0.9516585309368178 0.0
7.910527456030004 8.536826514867816 0.0
9.846441288756814 4.60515911863952 0.0
9.584942233925151 4.712073182517884 0.0
9.642357858573972 6.805672051759494 0.0
9.797024725252207 9.838837222258014 0.0
9.842451438022124 4.018973836958878 0.0
6.112723137676118 3.704473949316424 0.0
7.574641969193845 3.765362276156904 0.0
7.826594968121701 6.200366572362263 0.0
7.762805366733504 9.34009502796868 0.0
9.56854033867856 1.012566255816665 0.0
7.71256563655353 5.219373702836014 0.0
9.68039392238282 8.786964504862018 0.0
5.910362452777086 9.277662068919813 0.0
7.418090653922814 3.326443419100716 0.0
9.857704179097952 4.697553149694669 0.0
8.452469674653342 8.996585816905599 0.0
9.522351366699843 2.057525484575908 0.0
7.802315574700843 9.548878971475935 0.0
9.938875656926385 3.449999999992592 0.0
8.425189037911712 6.608575180629274 0.0
5.925965231566842 2.523669697740033 0.0
6.654918072256329 5.95749128982984 0.0
9.826748589235729 9.631118448471485 0.0
8.6684585637523 7.39633999085442 0.0
9.844673843931567 3.090088625379724 0.0
9.93613850661301 2.250382721159617 0.0
9.218291993658738 2.892108990205171 0.0
9.83502846611296 8.212781989607324 0.0
7.754136409732265 7.104288507262783 0.0
8.510570542791681 2.036933285735889 0.0
7.757745059307245 4.315798612475442 0.0
7.989231770559189 6.201656630465583 0.0
8.068934521422738 4.198631572122605 0.0
4.957478134450373 9.038766150325067 0.0
7.208661142641733 6.501402463831379 0.0
7.299506095906239 4.363561999234681 0.0
8.250303873550486 2.105322217421675 0.0
8.678637541413377 7.053471135702286 0.0
9.761528395137384 6.163503990672834 0.0
9.84494857233395 8.59999999999775 0.0
9.83825138794677 3.672838954969637 0.0
5.121008544047756 5.808127183024784 0.0
8.343911550360986 4.043535893276861 0.0
9.85324441775315 5.899999999993774 0.0
9.51114465213134 8.41035540646284 0.0
6.505812179224195 6.93390566262983 0.0
6.15572847138365 9.023097246950844 0.0
3.352081892333425 3.024853379890529 0.0
6.433163283162099 8.675072413910678 0.0
8.825744236698243 3.624446391299867 0.0
4.883007294861279 7.819620905924936 0.0
5.876659170760434 5.638247433601083 0.0
6.859400040348503 6.510797998354633 0.0
7.946400945409184 3.500317276373196 0.0
7.496830255505493 6.653194511698024 0.0
9.852183479755313 4.891525833556942 0.0
9.77998778436291 2.922486526124376 0.0
6.774672660492365 5.324728659740495 0.0
5.717254072187427 6.824125962512845 0.0
9.713440940838062 4.63793103997539 0.0
8.859858662536796 0.2721395536350836 0.0
8.37556017530946 9.436653414116012 0.0
7.395237381047616 7.885576562773319 0.0
5.4709157802033 4.511152089197594 0.0
9.489749416979361 9.691840729914848 0.0
4.599216022837964 3.46438688931078 0.0
5.572287492757569 4.807021644849729 0.0
9.926499336309957 9.92730688390086 0.0
9.926499336310107 0.07269311609890093 0.0
9.338127766332573 0.3585313952168247 0.0
6.810761948165162 3.414693294319008 0.0
8.166274345037138 5.943611545564389 0.0
5.2892644736731 6.301081312912763 0.0
9.731911074791544 7.649313380659622 0.0
8.90251102352767 9.50983415326544 0.0
8.997881406541017 1.033666784655452 0.0
5.835124768755703 2.738139962594905 0.0
9.665357480775825 6.185331297099201 0.0
7.656532192558493 8.217157287499347 0.0
9.170463887605525 2.975444721032631 0.0
4.208158615905443 0.8648302238584886 0.0
6.97015686031129 5.933674629077266 0.0
6.181941366523793 3.565885175921835 0.0
3.30313590337911 6.393402837735046 0.0
6.447482061767014 4.816169316820496 0.0
8.185341428749446 4.169172087371246 0.0
4.552595724340015 8.298301336212145 0.0
9.84850676569699 8.999999999998423 0.0
9.846941514449377 7.393642828194986 0.0
7.924592433490734 2.788309934035703 0.0
8.154308714226714 8.853640122009672 0.0
8.876629743004642 1.96110242719995 0.0
7.228849192966834 8.90811350348676 0.0
9.852301635085423 8.296637825215246 0.0
5.219795195341889 5.547413133147649 0.0
9.861497117995457 6.901363010201344 0.0
2.953911258021604 6.136007283255669 0.0
6.93158841067062 4.77708273647784 0.0
9.67540418457871 2.912802891506324 0.0
4.194055958522277 4.437353127730132 0.0
6.133959559341536 0.406856611599261 0.0
8.29952795189331 9.309744645643846 0.0
9.843692337952948 1.209647690818311 0.0
5.164986286280336 6.671544079402435 0.0
9.838533350075606 2.081705440779448 0.0
8.301244777513975 6.604088853319459 0.0
5.471494771710784 2.714598185146428 0.0
8.86534684892311 1.208599471795828 0.0
9.940610684232212 1.451558535868664 0.0
9.40896208432968 1.428353940655538 0.0
2.329177605337097 4.238803555614174 0.0
5.980761651517799 7.182207186682233 0.0
9.66541573964336 0.1719254072074424 0.0
7.220979380229172 7.806128737674462 0.0
1.251721227904697 6.151932667911503 0.0
8.104967286191181 6.057912607875576 0.0
6.650768762224724 4.817922869198292 0.0
6.634976350437587 3.213339182992986 0.0
7.034320437500567 4.898219100342838 0.0
9.502772020064167 6.283064492634301 0.0
8.13187938667684 3.518506862055515 0.0
9.855471943454193 2.599999999994991 0.0
9.056747742708522 8.263936599935574 0.0
4.352645795441222 5.724453640019 0.0
3.744263984699181 1.488951698361357 0.0
5.175860134287045 3.6375726667098 0.0
7.736434712114619 6.400417475661193 0.0
9.857658576695343 6.316607183405179 0.0
7.876525261950537 4.304285002335559 0.0
9.856114384785611 7.914602773442983 0.0
9.848334119947063 0.7059644476295188 0.0
9.59694321995579 6.895814046141667 0.0
5.906465212962551 3.869023950643881 0.0
9.840676994268005 9.364956386459765 0.0
5.355015287544095 3.83518170601625 0.0
6.374090407153147 5.855743754257685 0.0
8.227401290513832 5.297819733684674 0.0
5.451235131977493 4.825706629991923 0.0
6.022070213762754 5.355923882747634 0.0
9.845674433677614 6.108401449483281 0.0
9.835067400944396 7.739582406783081 0.0
8.602026805792988 2.941372356914139 0.0
5.059869081004962 5.269480960018243 0.0
5.284714507903736 5.26496663762182 0.0
9.627110479149561 7.660076105040499 0.0
6.820001127809743 4.792514421153957 0.0
5.120512795059439 4.806607659110254 0.0
9.56933817216883 2.911464407429096 0.0
9.74091654291531 9.267545397628387 0.0
9.93006767325302 6.576784040838644 0.0
9.642486276936268 4.650227701598451 0.0
5.185183328569137 9.410919109238325 0.0
9.37052946854105 4.605636695802024 0.0
1.677077220416309 5.871167715901136 0.0
7.345783833404538 3.184020711886284 0.0
5.419239942654976 5.982692039856376 0.0
6.133318300188262 2.551919945731369 0.0
6.187291396343277 4.499077117404439 0.0
1.231465237822878 3.921479198315213 0.0
8.969849937139944 9.699215363213542 0.0
9.218303154263054 6.037447959776716 0.0
CELLS 4886 19544
3 1113 1356 1450
3 1402 231 1659
3 272 269 1414
3 396 394 1777
3 1451 945 1452
3 194 81 1801
3 1847 1501 2104
3 2024 2121 2479
3 1115 1113 1450
3 1124 1413 1844
3 1061 1955 2409
3 307 305 1645
3 1592 1369 1593
3 238 1501 1847
3 1955 1883 2409
3 1808 243 1910
3 1885 978 2362
3 1440 793 2092
3 189 1488 1608
3 353 350 1864
3 2007 2231 2232
3 307 1645 2493
3 1096 1760 2496
3 2178 874 2179
3 621 625 1595
3 1493 1480 1938
3 1655 1268 2137
3 1341 1410 2212
3 243 1808 2360
3 1902 1446 2516
3 1760 1096 1763
3 856 790 2180
3 2008 2046 2105
3 789 1809 2067
3 694 1543 1575
3 1127 1762 1953
3 1748 807 2228
3 1543 1308 1575
3 820 1872 2170
3 1417 954 1998
3 1369 1592 2386
3 272 1414 1787
3 329 333 1998
3 1544 1095 1545
3 2231 1490 2232
3 1342 1683 1790
3 374 377 1797
3 807 1678 2228
3 1665 198 2128
3 141 142 1620
3 325 322 1952
3 231 1402 1654
3 198 1665 2010
3 1890 1307 2387
3 208 1438 1619
3 2016 1970 2156
3 1436 212 2020
3 954 1417 2333
3 1736 1894 2244
3 1491 1750 2143
3 1677 1064 2146
3 1474 1258 1475
3 1500 233 1930
3 1446 2415 2516
3 1700 973 1800
3 2128 2270 2316
3 1316 1315 1593
3 1307 2341 2387
3 2258 1324 2328
3 1083 1507 1508
3 693 1095 1544
3 621 1595 1596
3 667 1571 1872
3 1932 1766 2061
3 393 391 2240
3 1342 1790 2400
3 252 1707 2234
3 931 978 1885
3 1430 1116 1704
3 1411 1109 1714
3 1478 1227 2440
3 1990 195 2297
3 1792 1167 1985
3 1682 444 1975
3 394 397 1777
3 1711 2028 2162
3 1574 856 2180
3 2008 1851 2046
3 736 1493 1938
3 1069 1060 1662
3 1458 455 1754
3 862 691 1705
3 1161 1642 2286
3 1699 1700 1800
3 447 516 1637
3 955 1482 1483
3 2024 206 2121
3 391 1773 2240
3 1072 1412 1893
3 212 1436 2350
3 1566 1365 1568
3 259 1441 1672
3 872 870 1764
3 330 328 1889
3 1539 1161 2286
3 1897 1898 2275
3 1434 1990 2297
3 1109 1411 1730
3 319 307 2493
3 1762 1761 1953
3 1369 1316 1593
3 1540 834 1832
3 1505 652 2442
3 1732 1655 2137
3 921 1712 2295
3 1872 1388 2170
3 1712 921 2125
3 2028 244 2162
3 1506 1570 1680
3 1569 368 1964
3 1571 667 2375
3 1587 2178 2179
3 196 1723 1737
3 524 2016 2156
3 1528 1250 1733
3 1115 1450 1973
3 1938 1480 1971
3 1809 1396 2067
3 1641 249 2299
3 1223 1258 1474
3 1365 1566 2120
3 1981 962 2316
3 1538 353 1864
3 455 1458 1756
3 152 233 1500
3 1116 1430 1703
3 817 652 1505
3 1347 2003 2004
3 1607 1958 2085
3 194 1801 2195
3 1410 1341 2351
3 223 1415 1710
3 197 1511 2346
3 2198 787 2225
3 81 82 1801
3 1438 208 1620
3 1444 522 1823
3 1511 197 1950
3 726 718 1567
3 1637 516 1739
3 1708 2337 2341
3 1280 1649 2124
3 2337 1395 2341
3 1327 1709 2315
3 1225 1227 1478
3 691 624 1705
3 476 2224 2305
3 830 832 2204
3 1750 1491 2403
3 1366 1897 2275
3 2345 1583 2352
3 2054 405 2110
3 1984 2172 2230
3 1846 2198 2225
3 1177 2042 2418
3 2121 1367 2479
3 1527 1531 1541
3 916 1039 1834
3 1413 1124 2467
3 1622 1503 1868
3 249 1641 2019
3 1805 405 2054
3 1761 1007 1953
3 1415 223 2395
3 960 1756 2203
3 368 1569 2135
3 1402 1659 2473
3 941 1433 2471
3 1267 1477 1501
3 260 2002 2265
3 1704 558 2077
3 2224 1886 2305
3 2053 1386 2199
3 1452 945 1952
3 1717 1611 1718
3 1682 1975 2230
3 1760 1762 2496
3 1481 203 2104
3 1264 1266 1670
3 142 236 1620
3 2133 1182 2179
3 1791 1602 2183
3 350 346 1864
3 1412 1072 2393
3 1281 1575 2255
3 1565 1948 2155
3 849 1449 1513
3 1958 396 2085
3 1339 1069 1662
3 834 1540 1917
3 269 267 1414
3 1268 1267 1501
3 1440 2092 2468
3 1399 1981 2316
3 1635 1636 2041
3 1454 252 2234
3 1451 1305 1890
3 1375 1883 1955
3 362 366 1786
3 1484 2410 2528
3 1449 849 1640
3 1267 1474 1477
3 200 1611 1717
3 1054 1581 1582
3 1350 1977 2253
3 190 1390 2118
3 788 1956 2193
3 1709 1327 1888
3 2233 2298 2413
3 1488 189 2355
3 478 1685 1714
3 230 1525 1690
3 1687 478 1688
3 427 429 1756
3 1570 1065 2476
3 1880 1133 1988
3 1649 656 2124
3 1537 209 1614
3 1134 1769 1986
3 1220 1268 1655
3 396 1777 2085
3 1167 1755 1985
3 2229 1744 2296
3 1575 1281 2287
3 127 240 1882
3 377 647 1797
3 954 329 1998
3 220 1697 1698
3 1342 1341 2212
3 1441 264 1672
3 1512 188 2433
3 763 2345 2352
3 1685 1411 1714
3 1805 1188 1951
3 1347 2004 2157
3 1054 1582 1667
3 1333 1617 1674
3 2217 73 2361
3 1539 1036 1917
3 1039 1292 1834
3 208 141 1620
3 1965 1964 2038
3 693 1544 1969
3 1453 239 2279
3 203 1481 2049
3 945 1451 1889
3 680 1459 2134
3 354 2147 2196
3 1405 1932 2061
3 1723 1722 1737
3 1748 1175 1927
3 1532 1528 1733
3 2057 1824 2154
3 1406 1659 1702
3 1948 1186 2155
3 210 1598 2114
3 1685 478 1687
3 1324 1325 2328
3 1526 1250 1527
3 165 166 1509
3 1493 736 2523
3 1526 1527 1541
3 1390 190 2417
3 522 1444 1998
3 1680 1570 1732
3 1017 1442 2525
3 374 1797 2430
3 1507 1083 2197
3 1756 960 2221
3 2270 1400 2316
3 2205 1452 2282
3 1074 1187 1888
3 2158 1245 2200
3 1442 1017 1684
3 864 1116 1703
3 1750 1751 2143
3 1456 516 1492
3 1677 2146 2149
3 2022 1339 2388
3 1602 258 2183
3 678 1594 1595
3 1245 1670 2200
3 972 830 2204
3 2143 983 2342
3 1268 1501 2226
3 1266 1461 1670
3 1487 222 2465
3 1382 2022 2388
3 58 59 1661
3 2147 1543 2196
3 1484 1485 2410
3 628 2053 2199
3 1906 1549 2259
3 364 362 1786
3 1339 2022 2247
3 1636 525 2041
3 625 678 1595
3 678 1593 1594
3 2212 1410 2222
3 1837 1865 2215
3 1699 1800 1801
3 866 864 1703
3 893 1472 1982
3 1735 1736 2244
3 1633 1255 1922
3 126 127 1882
3 681 867 1656
3 1351 1401 2363
3 11 228 1588
3 1127 1953 2454
3 265 266 267
3 1722 1122 1737
3 1389 1691 2069
3 1613 1610 1616
3 1227 1256 2440
3 429 455 1756
3 1535 1177 2418
3 322 324 1952
3 973 1700 1802
3 1964 368 2038
3 1176 1865 1866
3 1096 872 1764
3 1176 1866 1875
3 193 1839 1892
3 156 157 1441
3 615 617 1596
3 686 1520 2480
3 1409 2097 2305
3 2410 1151 2528
3 1427 2217 2361
3 440 1911 2314
3 1744 1743 2296
3 516 1456 1739
3 1939 589 2164
3 690 931 2150
3 1062 1579 1580
3 1054 1580 1581
3 955 1483 1716
3 1064 1677 2248
3 1956 1616 2193
3 1776 1893 2026
3 1398 1115 1973
3 2002 1453 2265
3 1541 1531 1542
3 216 2191 2536
3 1736 1326 1894
3 1065 994 1066
3 1598 2115 2175
3 2314 1911 2358
3 1433 941 2042
3 2115 1209 2175
3 717 1550 1551
3 188 1941 2433
3 267 1132 1414
3 771 1569 2064
3 1157 1545 1546
3 1231 1250 1526
3 1933 240 2181
3 222 1487 2025
3 1525 230 1765
3 1430 1704 2077
3 757 1744 2495
3 264 263 265
3 883 773 1917
3 739 2205 2282
3 1667 1582 2434
3 1744 757 2474
3 239 1453 2002
3 1441 259 2356
3 2005 1443 2012
3 254 1766 1932
3 1509 166 1679
3 1477 1475 1481
3 793 1440 2165
3 1385 1523 2377
3 1481 1475 2523
3 156 1441 2356
3 1066 1220 1655
3 945 325 1952
3 2094 2087 2134
3 1747 1175 1748
3 253 262 263
3 1327 1074 1888
3 718 715 1567
3 2046 1043 2105
3 240 1933 2399
3 1305 1307 1890
3 224 58 1661
3 1195 1566 2285
3 1590 1393 1749
3 1255 1230 1922
3 353 1538 2073
3 358 1999 2325
3 882 1802 2036
3 1024 1020 1604
3 333 522 1998
3 1401 1351 2414
3 1475 1258 1476
3 2310 786 2364
3 328 945 1889
3 807 1748 1927
3 825 724 1912
3 1742 263 2491
3 267 266 1132
3 2077 2102 2203
3 1431 1432 1860
3 1212 1957 2312
3 2097 476 2305
3 1132 1402 2473
3 717 713 1550
3 1746 693 1969
3 1372 1124 1844
3 1256 1541 2269
3 1977 1350 2274
3 2332 1978 2443
3 874 2133 2179
3 1983 1534 2171
3 1157 1544 1545
3 1230 1228 1922
3 1580 1579 1581
3 1565 806 1948
3 1416 1363 2413
3 1287 1995 2398
3 265 263 266
3 1534 1529 2171
3 1604 1834 2428
3 1255 1633 2509
3 1344 1643 1644
3 1332 1388 1571
3 1423 217 2217
3 2191 1057 2451
3 458 447 1637
3 1250 1233 1733
3 472 2212 2222
3 1175 1747 1840
3 1652 256 1653
3 1073 1347 1572
3 200 145 1609
3 683 640 1585
3 1116 862 1705
3 1221 1223 1474
3 1778 801 1803
3 1503 1622 2471
3 1475 1493 2523
3 464 680 2134
3 14 210 2114
3 579 1880 1988
3 1434 1435 1990
3 1447 2310 2364
3 275 274 276
3 2294 1871 2419
3 814 1068 1684
3 1172 1439 2273
3 273 272 274
3 1363 1416 2406
3 1220 1219 1221
3 1060 1656 1662
3 1099 1792 1985
3 2048 1198 2168
3 1241 1245 2323
3 699 723 1753
3 1640 1862 2070
3 910 1018 1584
3 1586 1067 1587
3 1656 867 1662
3 1067 686 2480
3 654 2242 2294
3 1593 1315 1594
3 1880 553 1974
3 236 1717 1718
3 617 621 1596
3 1723 196 2313
3 402 1877 2116
3 273 274 275
3 2202 1869 2252
3 1510 1358 1767
3 193 1892 2373
3 1188 1805 2054
3 1220 1221 1267
3 1066 1218 1219
3 1517 1097 1518
3 1677 1676 1858
3 686 277 1520
3 268 267 269
3 697 857 1592
3 220 1698 1699
3 1802 1700 2036
3 1612 1537 1614
3 929 817 994
3 228 12 2136
3 2110 2116 2482
3 1659 1658 1702
3 1611 1613 2280
3 1344 991 1643
3 683 1585 1604
3 1638 1358 2404
3 1485 1034 2410
3 2214 833 2424
3 271 272 273
3 1482 955 1962
3 1066 1219 1220
3 931 1885 2150
3 1613 1891 2280
3 1189 1589 2204
3 1566 1195 2120
3 726 1567 2490
3 1122 1722 1874
3 1494 319 2493
3 1671 259 1672
3 1267 1221 1474
3 603 528 1591
3 1664 2128 2316
3 1817 1924 2174
3 1626 1660 2111
3 1474 1475 1477
3 1023 1062 1580
3 1957 1599 2312
3 1764 1939 2164
3 1358 1950 2404
3 200 1609 1610
3 1431 1082 1432
3 1778 1803 2521
3 1830 1832 2075
3 1930 233 2369
3 1329 1482 1650
3 757 1959 2522
3 1239 1247 1597
3 758 1978 2332
3 1569 1290 2064
3 216 1694 2191
3 1453 1420 2265
3 1549 1906 2129
3 24 215 1674
3 19 235 1676
3 1621 1057 2191
3 1691 1389 2262
3 1617 1333 2192
3 929 994 1065
3 1769 1672 1986
3 1893 1412 2026
3 1609 1537 1612
3 271 269 272
3 1373 1438 1620
3 217 1423 2381
3 517 330 1889
3 1322 1055 1667
3 1974 553 2499
3 228 2136 2187
3 1589 1189 1788
3 1999 1577 2325
3 2110 405 2116
3 189 1608 1842
3 1055 1050 1667
3 739 1455 2205
3 1865 1176 2215
3 319 1494 2522
3 2474 757 2522
3 1484 227 1485
3 10 11 1588
3 723 809 1753
3 27 230 1689
3 1550 806 1565
3 1179 1180 1217
3 207 1617 2192
3 1433 1217 1502
3 1562 1556 1606
3 1379 2017 2018
3 1245 2158 2323
3 675 1097 1517
3 884 501 1599
3 1020 683 1604
3 1603 1095 1848
3 1001 2057 2154
3 1604 1585 1834
3 1610 1612 1616
3 1764 870 1939
3 2242 1871 2294
3 1669 1264 1670
3 1658 213 1702
3 1995 1646 2398
3 631 539 1600
3 1491 2143 2342
3 1801 1800 2195
3 1200 1199 1693
3 1535 940 1861
3 1534 758 2332
3 914 2258 2328
3 1588 228 2457
3 216 138 1694
3 151 152 1500
3 1133 1880 1974
3 1677 1858 2248
3 1294 1622 1868
3 875 1010 1767
3 1379 2018 2416
3 1279 2202 2252
3 182 256 1652
3 1592 857 2386
3 672 681 1656
3 615 1596 1824
3 1093 1487 1623
3 1823 522 2100
3 1245 1242 1669
3 1582 1581 1583
3 758 1534 2306
3 1975 1984 2230
3 1358 1510 1950
3 1663 1336 1665
3 2102 960 2203
3 366 1087 1786
3 1740 1490 2231
3 21 207 1709
3 145 146 1609
3 2339 765 2384
3 603 1591 1668
3 2081 199 2149
3 1540 1832 1879
3 1721 1723 1947
3 1754 455 1793
3 1751 1753 2119
3 882 1701 1807
3 1540 1539 1917
3 242 1695 1697
3 1521 354 2091
3 1363 2233 2413
3 1584 1018 1925
3 703 1067 1586
3 1177 1178 1179
3 795 916 1834
3 277 276 607
3 1571 1388 1872
3 22 23 1617
3 1097 823 1177
3 25 26 1624
3 419 418 1790
3 1728 1906 2259
3 440 1455 2261
3 1877 1318 2116
3 1488 1156 1608
3 1439 2130 2273
3 1889 1451 1890
3 1614 209 2389
3 1472 893 2094
3 675 821 823
3 23 24 1674
3 1788 1190 2183
3 917 941 1622
3 1763 1096 1764
3 1068 1442 1684
3 1034 1485 2173
3 2172 1533 2230
3 138 139 1694
3 1065 1570 2197
3 607 674 675
3 1536 1248 2268
3 229 135 1734
3 1437 1925 1926
3 680 510 1646
3 147 209 1537
3 26 27 1689
3 1627 705 2163
3 206 1651 2121
3 2409 1785 2462
3 1492 682 2447
3 1223 1225 1258
3 889 1772 2374
3 253 263 264
3 275 276 277
3 1455 739 2261
3 2022 1382 2176
3 150 227 1484
3 639 1019 1591
3 1449 1640 2070
3 1082 833 2214
3 1503 1502 1504
3 144 200 1717
3 1643 991 1713
3 1190 1791 2183
3 1538 1804 2073
3 1256 2269 2440
3 18 19 1676
3 521 531 2000
3 790 849 2180
3 1075 1329 1650
3 1087 1782 1785
3 1066 994 1218
3 270 269 271
3 682 1492 2494
3 185 252 1454
3 253 158 262
3 1629 1632 1633
3 200 1610 1611
3 1477 1481 2104
3 1623 1487 2465
3 1518 1097 1535
3 1414 1132 2460
3 1179 1217 1433
3 177 1506 1680
3 1392 1017 2525
3 1832 834 2075
3 675 823 1097
3 1459 2094 2134
3 1782 1087 1795
3 1838 1730 2372
3 1639 149 2528
3 1617 23 1674
3 2265 1420 2489
3 180 232 1859
3 1527 1250 1528
3 20 21 1709
3 1083 1508 2311
3 903 866 1703
3 1455 440 2314
3 1187 1858 1888
3 1659 1406 2473
3 1446 1902 2166
3 421 1951 2106
3 1598 210 2115
3 154 259 1671
3 1288 1835 2080
3 1832 1831 1879
3 1258 1225 1478
3 1024 1604 2117
3 1263 1429 1739
3 706 705 1627
3 1583 1581 2352
3 407 1805 1951
3 856 1574 2527
3 1701 882 2036
3 1624 26 1689
3 717 1551 1552
3 1385 2377 2391
3 2302 1745 2354
3 1572 1347 2157
3 1036 883 1917
3 1689 1690 1691
3 1664 1665 2128
3 1476 1479 1480
3 1751 2119 2143
3 815 814 1684
3 1790 889 2400
3 1606 1607 2085
3 265 267 268
3 418 889 1790
3 1522 1521 2091
3 135 136 1734
3 1726 1445 1729
3 647 1796 1797
3 1346 1453 2279
3 1293 1827 2117
3 1242 1244 1669
3 1853 1852 1854
3 889 2374 2400
3 1039 1038 1290
3 1524 628 2199
3 1331 1332 1571
3 1291 1290 1569
3 1475 1476 1493
3 1850 1852 1853
3 1490 1740 2456
3 1689 230 1690
3 1256 1526 1541
3 1704 1705 2167
3 1465 1470 1675
3 956 1073 1572
3 1613 1616 1956
3 916 917 1038
3 2014 1522 2091
3 1221 1222 1223
3 1999 763 2352
3 234 10 1588
3 1697 220 2335
3 1527 1528 1529
3 2298 1600 2413
3 1436 2020 2254
3 1642 1161 1678
3 1523 1385 2436
3 1730 1838 2426
3 795 796 916
3 713 711 1550
3 1456 1263 1739
3 999 1336 1663
3 1785 1784 2462
3 409 415 1783
3 607 675 1517
3 1229 1231 1526
3 1958 1855 2078
3 1589 1588 1590
3 1933 261 2380
3 762 1965 2038
3 1756 1458 2203
3 1776 597 1893
3 1794 1072 1893
3 188 1512 2266
3 1774 2339 2384
3 188 1908 1941
3 1010 1510 1767
3 2189 2285 2307
3 773 834 1917
3 1245 1669 1670
3 1248 1597 2268
3 146 1537 1609
3 818 910 1584
3 1641 1313 1651
3 1217 1745 2302
3 1065 1066 1655
3 1597 1247 2047
3 1360 2177 2376
3 1612 1615 1616
3 2126 867 2186
3 1019 683 1020
3 1747 892 1840
3 1092 1093 1623
3 261 1933 2181
3 400 424 1666
3 1516 1903 2377
3 1100 1392 1605
3 247 1738 1881
3 268 1134 1986
3 1177 823 1178
3 884 1599 1957
3 263 262 2491
3 806 1627 1948
3 1227 1229 1256
3 191 1729 2504
3 1636 1635 2502
3 1480 1479 1601
3 1721 1947 2498
3 1924 1146 2174
3 229 1734 1735
3 175 204 1725
3 1179 1178 1180
3 354 1521 2147
3 665 697 1592
3 640 646 1585
3 627 545 1636
3 1882 240 2399
3 1556 1555 1606
3 1373 1620 2394
3 1871 1071 2419
3 548 1628 1629
3 455 436 1793
3 974 1831 1841
3 1844 1413 2392
3 1612 1614 1615
3 209 1639 1937
3 1329 1330 1331
3 1823 2100 2142
3 1097 1177 1535
3 1021 1020 1022
3 825 1912 2455
3 913 1122 1874
3 400 1666 2113
3 1256 1229 1526
3 1419 1418 2450
3 1552 1551 1553
3 1850 1099 1852
3 1629 1631 1632
3 801 685 2029
3 1618 1619 1621
3 265 268 1986
3 1715 2165 2330
3 1531 1529 1534
3 1022 1024 1576
3 658 693 1746
3 703 686 1067
3 1062 1576 1577
3 1023 1022 1062
3 236 1718 2394
3 1688 502 1740
3 1501 1477 2104
3 213 165 1509
3 646 795 1585
3 196 1737 1738
3 379 679 1795
3 639 640 683
3 924 875 1767
3 1752 699 1753
3 207 2192 2315
3 627 1636 1660
3 1217 1180 1745
3 730 728 1833
3 528 561 1591
3 1444 1417 1998
3 252 186 1602
3 1729 1445 2504
3 460 502 1688
3 1418 946 1778
3 1203 1200 1693
3 548 470 1628
3 849 668 1640
3 646 785 795
3 607 276 674
3 14 15 210
3 147 148 209
3 478 460 1688
3 1709 207 2315
3 1157 1546 1608
3 1155 1731 1899
3 1524 1934 2390
3 1775 921 1876
3 1433 1502 1503
3 470 458 1628
3 1223 1224 1225
3 1291 1569 1964
3 871 1056 1826
3 1781 1783 1915
3 1587 1067 2300
3 916 1038 1039
3 1388 1387 1389
3 1611 1610 1613
3 1075 1328 1329
3 1039 1290 1291
3 1538 1265 1804
3 1184 1185 2163
3 597 598 1794
3 1450 1356 2421
3 1835 576 2080
3 1629 1628 1631
3 1331 1330 1332
3 561 639 1591
3 1476 1480 1493
3 705 703 1586
3 639 683 1019
3 1951 1188 2106
3 436 446 1793
3 1472 1297 2142
3 1332 1387 1388
3 1345 984 1720
3 1329 1328 1330
3 1050 1048 1667
3 150 151 227
3 11 12 228
3 557 541 2256
3 1831 974 1879
3 134 229 1766
3 1357 1358 1638
3 1336 1641 2299
3 1650 1482 1962
3 1591 1019 2512
3 1506 1507 1570
3 1803 801 2029
3 1178 823 1972
3 1552 1553 1554
3 1290 1038 1294
3 1028 1313 1641
3 1237 1239 1597
3 993 1017 1100
3 893 2087 2094
3 149 1484 2528
3 1768 1142 1949
3 9 234 1673
3 1554 1553 1555
3 668 632 1640
3 711 806 1550
3 1628 458 1637
3 1098 1829 1830
3 1482 1331 1483
3 531 1818 2000
3 435 419 1790
3 1156 1157 1608
3 1182 1184 2179
3 510 512 1646
3 1231 1233 1250
3 946 841 1778
3 1483 1331 1571
3 1459 680 2458
3 1166 1040 1210
3 892 1657 1820
3 1042 1445 1726
3 1019 1020 1021
3 749 805 1810
3 234 1588 1589
3 1695 242 1892
3 556 1853 2483
3 1018 1572 1573
3 1529 1528 1530
3 1606 1558 1607
3 1761 1759 2308
3 1396 1032 1921
3 1018 956 1572
3 689 1150 1416
3 1827 1293 2515
3 149 150 1484
3 1647 656 1648
3 1543 694 2196
3 399 409 1783
3 545 525 1636
3 268 269 270
3 715 713 717
3 1100 1017 1392
3 1657 892 1747
3 207 22 1617
3 1666 884 2249
3 1671 1672 1769
3 1554 1555 1556
3 146 147 1537
3 1081 1444 1822
3 711 709 806
3 1443 2005 2322
3 660 658 1746
3 1166 1458 1754
3 916 796 917
3 1056 1728 1826
3 1068 1069 1275
3 184 185 1454
3 158 159 262
3 2007 1687 2231
3 805 1708 1810
3 1672 264 1986
3 1561 1562 1563
3 978 1075 1650
3 1590 1588 2457
3 215 25 1624
3 1551 1550 1565
3 1073 1346 1347
3 857 818 1584
3 1648 656 1649
3 675 674 821
3 561 594 639
3 1731 529 1899
3 2303 1454 2535
3 981 903 1040
3 1630 1629 1633
3 993 877 1017
3 724 718 726
3 512 603 1646
3 1676 235 1858
3 814 1060 1068
3 715 717 1567
3 1796 647 1870
3 1715 1171 2165
3 678 1592 1593
3 644 613 1824
3 1690 1525 2145
3 1297 1822 1823
3 271 656 1647
3 1704 1116 1705
3 1225 1226 1227
3 1275 1069 1338
3 910 956 1018
3 1824 1596 2154
3 1403 1100 1605
3 1221 1219 1222
3 1068 1060 1069
3 1901 245 1949
3 1081 1055 1321
3 1751 563 1752
3 1021 1022 1023
3 672 638 681
3 1095 657 1848
3 1235 1237 1248
3 1561 1556 1562
3 1265 1259 1804
3 524 1819 2016
3 978 1650 2362
3 1492 516 2494
3 229 1735 2061
3 185 186 252
3 157 158 253
3 152 153 233
3 9 10 234
3 1527 1529 1531
3 1808 1344 2360
3 1062 1577 1579
3 1509 1679 1977
3 424 454 1666
3 637 638 672
3 981 1040 1166
3 1555 1558 1606
3 751 749 1810
3 1166 1210 1458
3 1651 1313 2121
3 15 16 2260
3 1633 1632 2509
3 2167 1705 2276
3 551 602 2045
3 697 818 857
3 364 1786 1883
3 832 1189 2204
3 1476 1478 1479
3 678 665 1592
3 213 1509 2096
3 1015 888 1124
3 1062 1022 1576
3 679 1782 1795
3 680 1646 1995
3 1101 1100 1403
3 1109 433 1714
3 1248 1237 1597
3 733 730 1833
3 1702 213 2096
3 499 498 1828
3 1418 1778 2521
3 637 600 638
3 1048 1046 1054
3 1577 1576 1578
3 814 766 1060
3 1279 2252 2292
3 474 470 548
3 199 18 1676
3 157 253 1441
3 1048 1054 1667
3 471 472 2290
3 625 665 678
3 795 785 796
3 1264 1265 1266
3 1437 1926 2350
3 1362 2048 2168
3 1394 2337 2371
3 454 884 1666
3 1022 1020 1024
3 751 1810 1923
3 1046 1023 1580
3 1807 1701 1931
3 1618 208 1619
3 566 588 689
3 1828 498 1829
3 501 509 1599
3 1118 780 1775
3 878 817 929
3 1510 1511 1950
3 1618 1621 1694
3 1052 1081 1822
3 1416 1150 1715
3 1239 1241 1247
3 1396 1921 2067
3 1751 1752 1753
3 1264 1259 1265
3 539 566 1600
3 1762 1127 2496
3 1673 1788 2183
3 1555 1557 1558
3 1052 1050 1055
3 725 724 825
3 1142 1770 1771
3 681 853 867
3 454 501 884
3 1346 1420 1453
3 932 1147 1770
3 1546 1545 1547
3 533 582 1818
3 1266 1337 1460
3 1872 820 2318
3 1117 1119 1713
3 1081 1321 1417
3 1253 1259 1264
3 1569 771 2135
3 1052 1055 1081
3 1181 1178 1972
3 709 706 1627
3 1073 1076 1346
3 1098 1828 1829
3 1382 1380 2176
3 1442 1275 1443
3 919 999 1663
3 1789 828 1855
3 877 815 1684
3 509 539 631
3 992 877 993
3 1266 1265 1337
3 2268 1498 2340
3 1130 1032 1396
3 1095 1603 2508
3 886 826 887
3 531 533 1818
3 1131 1400 1881
3 447 437 516
3 2460 1132 2473
3 940 1535 2418
3 768 1873 2037
3 1813 1869 1954
3 1627 2163 2488
3 1497 1495 1645
3 1198 1409 2168
3 724 726 1912
3 1869 987 1954
3 763 1999 2338
3 1010 1170 1374
3 984 976 1720
3 1470 1743 1744
3 689 588 1150
3 1901 1949 2359
3 1640 632 1862
3 274 272 1787
3 563 564 1752
3 994 817 1505
3 737 1807 1931
3 1770 1147 1771
3 1233 1235 1733
3 2450 1418 2521
3 414 410 1821
3 908 1099 1850
3 1227 1228 1229
3 1692 1203 1693
3 1625 216 2194
3 512 528 603
3 1377 1357 1638
3 1465 1464 1470
3 1360 1359 2177
3 1686 2007 2095
3 1336 1028 1641
3 1857 751 1923
3 1758 572 1759
3 553 541 557
3 1171 1715 1811
3 956 1003 1073
3 1467 1465 1675
3 719 718 724
3 1509 1977 2096
3 1734 1625 1736
3 1503 1504 1868
3 592 597 1776
3 180 181 232
3 162 163 231
3 2308 1759 2370
3 1357 1114 1358
3 875 946 1010
3 509 631 1599
3 17 18 199
3 144 145 200
3 1099 906 1792
3 1469 1467 1494
3 605 589 1939
3 1208 1205 1211
3 354 344 2091
3 692 782 804
3 1010 946 1170
3 1463 1462 1464
3 716 715 718
3 714 713 715
3 271 273 656
3 139 1618 1694
3 549 277 686
3 673 672 766
3 1378 1377 1379
3 2007 868 2095
3 999 1028 1336
3 1208 1211 1447
3 601 545 627
3 1119 1643 1713
3 1332 1333 1387
3 910 912 956
3 520 521 2000
3 828 1789 1819
3 277 607 1520
3 1338 1339 2247
3 818 819 910
3 767 766 814
3 712 711 713
3 1494 1467 1675
3 639 594 640
3 2044 557 2256
3 235 20 1709
3 1620 236 2394
3 804 919 962
3 1862 702 2070
3 681 852 853
3 1559 1556 1561
3 1622 941 2471
3 2165 1440 2330
3 612 644 692
3 697 698 818
3 1903 1516 1994
3 371 379 1795
3 428 426 2138
3 1290 1294 2064
3 1384 1904 2432
3 566 689 1600
3 471 452 472
3 1092 1091 1093
3 1002 1131 1719
3 1090 1089 1091
3 875 841 946
3 1758 1760 1763
3 1562 1606 2085
3 1833 1830 2075
3 178 179 214
3 164 165 213
3 769 923 1815
3 692 644 782
3 804 782 919
3 182 183 256
3 160 161 257
3 1329 1331 1482
3 962 1663 1664
3 1177 1179 2042
3 403 405 1805
3 1461 1460 1462
3 140 208 1618
3 1859 232 1860
3 274 1787 2099
3 1381 2126 2186
3 1558 1560 1789
3 430 428 682
3 452 435 1683
3 1487 1156 1488
3 1470 1464 1743
3 597 1794 1893
3 1244 1253 1669
3 962 919 1663
3 258 8 1673
3 1087 1785 1786
3 970 1042 1726
3 199 1677 2149
3 1664 1663 1665
3 1229 1230 1231
3 991 827 1713
3 792 1603 1848
3 1822 1444 1823
3 665 666 697
3 19 20 235
3 142 143 236
3 728 1098 1833
3 532 530 1898
3 1015 1124 1372
3 1546 1547 1548
3 1851 1850 1853
3 1877 393 2240
3 923 1105 1815
3 1090 1091 1092
3 687 686 703
3 1683 435 1790
3 887 826 1961
3 684 663 1089
3 426 1934 2138
3 464 510 680
3 853 854 855
3 568 572 1758
3 1376 1357 1377
3 1205 1203 1692
3 1607 1789 1855
3 710 709 711
3 780 781 1775
3 1434 1103 1435
3 876 815 877
3 766 672 1656
3 1393 1590 2457
3 684 1089 1090
3 530 890 1898
3 926 1920 1943
3 696 414 1821
3 1563 1562 1777
3 1054 1046 1580
3 1398 1973 1974
3 137 216 1625
3 1210 1040 1430
3 1750 563 1751
3 2010 1665 2299
3 1510 1374 1511
3 1777 1562 2085
3 1707 252 1791
3 1932 1404 1933
3 459 438 1814
3 139 140 1618
3 1093 1156 1487
3 231 163 1658
3 699 722 723
3 1545 1095 2508
3 598 612 1794
3 579 554 1880
3 1941 1908 2401
3 1231 1232 1233
3 1831 1829 1841
3 1037 1383 1799
3 177 178 1506
3 636 600 637
3 1036 1539 2286
3 1356 1114 1357
3 1523 1516 2377
3 704 703 705
3 403 402 405
3 648 792 1848
3 723 756 808
3 1388 1389 2170
3 933 932 1770
3 223 1710 1711
3 1779 399 1783
3 1223 1222 1224
3 1028 1029 1313
3 257 161 1654
3 418 412 421
3 734 882 1807
3 693 657 1095
3 1368 1370 1436
3 136 137 1625
3 688 652 817
3 1075 1327 1328
3 540 479 1813
3 398 395 402
3 548 1629 1630
3 574 591 699
3 1469 1494 1495
3 1041 1598 2175
3 167 168 202
3 175 176 204
3 2045 2046 2201
3 186 187 1602
3 886 887 888
3 1253 1254 1259
3 8 9 1673
3 792 655 810
3 843 1145 1960
3 1180 1349 1745
3 1165 1345 1512
3 708 706 709
3 136 1625 1734
3 21 22 207
3 140 141 208
3 625 626 665
3 1093 1094 1156
3 1585 795 1834
3 1117 1713 1806
3 599 579 600
3 810 871 1826
3 1047 1046 1048
3 1292 1291 1293
3 161 162 1654
3 199 1676 1677
3 1260 1282 1804
3 1005 1142 1768
3 1233 1234 1235
3 792 810 922
3 1122 1719 1737
3 976 985 1720
3 1278 1279 2292
3 2390 1934 2531
3 1436 1437 2350
3 270 271 1647
3 1199 966 1846
3 1683 1342 2212
3 656 273 2124
3 699 591 722
3 1977 1139 2096
3 1738 1719 1881
3 1722 985 1874
3 1797 1448 1798
3 162 231 1654
3 632 604 1862
3 252 1602 1791
3 1051 1050 1052
3 1045 1023 1046
3 648 655 792
3 993 1100 1101
3 1321 1055 1322
3 806 709 1627
3 904 903 981
3 1220 1267 1268
3 648 605 655
3 1737 1719 1738
3 385 399 1779
3 506 499 1828
3 1132 266 1402
3 1170 1418 1419
3 1323 2302 2354
3 24 25 215
3 137 138 216
3 721 965 1919
3 1787 1414 2460
3 778 1117 1806
3 723 722 756
3 407 403 1805
3 564 574 1752
3 1049 1048 1050
3 842 841 875
3 1608 1546 1842
3 809 808 899
3 1517 1519 1520
3 1530 1532 1533
3 889 421 1772
3 913 1002 1122
3 1314 1316 1367
3 1017 877 1684
3 841 802 1778
3 1235 1236 1237
3 751 1857 1900
3 1114 924 1767
3 1344 1644 2360
3 1895 1394 2371
3 1518 1535 1861
3 1758 1759 1760
3 1122 1002 1719
3 546 563 1750
3 1056 1726 1727
3 663 660 1746
3 621 622 625
3 1720 985 1721
3 1857 1843 1900
3 808 756 913
3 1056 970 1726
3 27 28 230
3 134 135 229
3 908 906 1099
3 163 164 1658
3 1727 1726 1729
3 7 8 258
3 154 155 259
3 1101 1403 1404
3 808 913 1874
3 1260 1269 1282
3 1389 1387 2262
3 1297 1053 1822
3 1555 1553 1557
3 1463 1464 1465
3 230 28 1765
3 1237 1238 1239
3 554 553 1880
3 775 778 1806
3 985 899 1874
3 1270 1524 2199
3 489 1820 1936
3 692 1072 1794
3 1472 2142 2272
3 1845 496 1929
3 438 431 1814
3 613 615 1824
3 1241 1242 1245
3 1783 415 1915
3 1192 2081 2149
3 178 214 1506
3 1816 988 1817
3 1760 1759 1761
3 1103 1092 1623
3 1512 1345 1661
3 1876 921 2295
3 1165 984 1345
3 978 1074 1075
3 1239 1240 1241
3 542 541 553
3 813 988 1816
3 1148 984 1165
3 871 970 1056
3 472 452 1683
3 1207 1796 1870
3 1167 1166 1754
3 1296 1053 1297
3 966 964 1846
3 976 899 985
3 982 976 984
3 702 1815 2015
3 900 899 976
3 1143 995 1206
3 1576 1024 1827
3 1235 1248 1733
3 1558 1557 1560
3 943 995 1143
3 1920 1144 1943
3 1471 2115 2477
3 29 30 255
3 132 133 254
3 1630 1633 1634
3 1225 1224 1226
3 1925 1573 1926
3 1211 1205 1692
3 725 825 826
3 1113 924 1114
3 600 579 1988
3 717 1552 1567
3 1820 1657 1936
3 674 276 2099
3 395 393 1877
3 572 543 1897
3 1575 1308 2255
3 999 1000 1028
3 1118 1775 1876
3 1797 1798 2430
3 526 546 559
3 867 853 2186
3 1142 1771 1949
3 1068 1275 1442
3 679 385 1779
3 1607 1558 1789
3 580 568 1758
3 1244 1252 1253
3 1760 1761 1762
3 398 402 403
3 1476 1258 1478
3 418 421 889
3 1771 1147 1839
3 164 213 1658
3 1720 1721 2267
3 1668 1591 2512
3 1042 1128 1445
3 1098 1830 1833
3 1102 1092 1103
3 2249 884 2466
3 1104 1103 1434
3 410 416 1821
3 514 513 541
3 580 1758 1763
3 637 673 1741
3 1913 936 1914
3 1394 1395 2337
3 919 920 999
3 577 554 579
3 2111 1660 2263
3 231 1658 1659
3 612 613 644
3 568 543 572
3 770 775 1806
3 1445 1128 1446
3 1546 1548 1842
3 448 460 478
3 810 870 871
3 1789 1560 1819
3 1154 1082 1431
3 873 973 1802
3 379 385 679
3 837 850 921
3 1461 1462 1463
3 1346 1076 1420
3 1088 1344 1808
3 2125 1143 2353
3 931 977 978
3 882 772 1802
3 29 255 1765
3 849 1513 2180
3 1713 827 1806
3 1130 1396 1397
3 681 638 852
3 1417 1321 1873
3 1654 1402 2530
3 502 526 1740
3 1124 888 2177
3 1266 1460 1461
3 515 1175 1840
3 1253 1264 1669
3 479 466 1813
3 1727 1729 1757
3 379 380 385
3 1971 1480 2514
3 1637 1739 2459
3 1207 1205 1208
3 529 519 1899
3 1129 1845 1929
3 224 1661 2267
3 192 1856 2361
3 732 734 1807
3 1184 2163 2435
3 1119 1120 1353
3 415 414 431
3 719 724 725
3 559 546 1750
3 871 872 970
3 1038 917 1622
3 574 699 1752
3 166 167 1679
3 1117 1118 1119
3 1409 1196 2035
3 617 619 621
3 1172 1173 1439
3 1191 1005 1768
3 664 663 684
3 494 493 1841
3 890 529 1731
3 840 802 841
3 493 974 1841
3 385 386 399
3 679 1779 1780
3 371 376 379
3 416 433 1109
3 670 769 1815
3 902 866 903
3 1780 1779 1781
3 480 515 1840
3 970 971 1042
3 433 448 1714
3 28 29 1765
3 1005 949 1142
3 778 780 1117
3 959 1037 1799
3 1073 1003 1076
3 535 532 1898
3 1119 1118 1120
3 658 657 693
3 1378 1379 1380
3 1397 1396 1809
3 1610 1609 1612
3 1819 1560 2016
3 1837 952 1865
3 1719 1131 1881
3 1131 1399 1400
3 1352 1138 2058
3 399 406 409
3 548 1630 2041
3 1275 1338 2251
3 582 1816 1818
3 1835 1836 2144
3 993 1101 1980
3 1699 1698 1700
3 2407 364 2505
3 1189 1190 1788
3 1117 780 1118
3 1830 1829 1831
3 637 672 673
3 692 804 1072
3 1204 1203 1205
3 1374 1170 2139
3 612 692 1794
3 1642 1408 2286
3 723 808 809
3 450 459 1812
3 409 410 414
3 802 801 1778
3 1853 1854 2483
3 1042 1127 1128
3 1199 1846 2225
3 1147 990 1273
3 1383 1384 2432
3 432 431 438
3 1353 1120 1390
3 1093 1091 1094
3 2020 250 2254
3 148 149 1639
3 606 605 648
3 1970 2016 2422
3 2201 2046 2327
3 475 471 513
3 412 407 1951
3 1991 246 2139
3 727 695 728
3 1673 234 1788
3 1554 1556 1559
3 1089 663 1746
3 1846 964 2056
3 923 991 1088
3 409 406 410
3 729 728 730
3 1424 1427 1856
3 1473 1911 2407
3 1376 1377 1378
3 1010 1374 1510
3 853 852 854
3 366 369 1087
3 772 873 1802
3 1219 1218 1626
3 1766 229 2061
3 1088 991 1344
3 922 810 1826
3 518 506 695
3 405 402 2116
3 962 1664 2316
3 913 942 1002
3 932 990 1147
3 629 813 1816
3 876 877 992
3 399 386 406
3 932 845 990
3 1002 1123 1131
3 843 996 1145
3 781 837 1775
3 262 2304 2491
3 431 696 1814
3 1273 1695 1892
3 731 730 732
3 737 732 1807
3 439 438 450
3 1829 498 1841
3 800 685 801
3 767 814 815
3 1060 766 1656
3 673 766 767
3 1403 1605 1882
3 716 718 719
3 1338 1069 1339
3 847 752 1843
3 864 862 1116
3 2302 443 2519
3 923 827 991
3 526 559 1740
3 1911 1473 2358
3 1085 1310 1867
3 809 899 900
3 1227 1226 1228
3 729 730 731
3 1436 1370 1437
3 731 732 737
3 769 827 923
3 456 452 471
3 1433 1503 2471
3 1435 1103 1623
3 385 380 386
3 1141 1787 2460
3 1354 1088 1808
3 657 649 1848
3 415 431 432
3 484 892 1820
3 727 728 729
3 855 854 1450
3 1721 1722 1723
3 1643 1353 1644
3 1145 1916 1960
3 1421 1191 1422
3 466 1812 1813
3 943 944 995
3 1356 1357 1376
3 714 715 716
3 1156 1094 1157
3 598 611 612
3 631 1600 2298
3 590 589 605
3 965 969 1919
3 416 1109 1821
3 242 1697 2335
3 1548 1547 1549
3 550 573 584
3 584 604 632
3 409 414 415
3 712 713 714
3 642 670 702
3 818 698 819
3 1006 1005 1191
3 1624 1689 1691
3 169 170 237
3 173 174 238
3 956 912 1003
3 937 936 1913
3 1317 1025 1875
3 515 540 550
3 973 1799 1800
3 973 959 1799
3 518 695 727
3 910 819 912
3 584 573 604
3 1170 946 1418
3 173 238 1847
3 550 540 573
3 982 984 1148
3 900 976 982
3 441 435 452
3 448 478 1714
3 1849 1648 2173
3 1631 1628 1637
3 1830 1831 1832
3 1383 1216 1384
3 734 772 882
3 949 933 1770
3 1332 1330 1333
3 574 575 591
3 1105 1088 1354
3 702 670 1815
3 498 494 1841
3 827 770 1806
3 873 959 973
3 1390 1391 1415
3 450 438 459
3 950 949 1005
3 351 362 364
3 1313 1029 1314
3 432 438 439
3 837 838 850
3 1273 1274 1695
3 850 851 943
3 911 952 1837
3 1259 1260 1804
3 566 587 588
3 1037 1216 1383
3 1337 1265 1538
3 1087 369 1795
3 810 655 870
3 1559 1561 1566
3 1147 1273 1839
3 732 733 734
3 1662 867 2126
3 890 1731 2241
3 1854 1852 2397
3 515 479 540
3 451 450 466
3 697 666 698
3 1367 1316 1368
3 662 660 663
3 365 355 694
3 1358 1114 1767
3 379 376 380
3 1796 1448 1797
3 179 180 1859
3 790 668 849
3 569 568 580
3 690 860 931
3 466 450 1812
3 431 414 696
3 1973 1133 1974
3 651 649 657
3 467 466 479
3 1288 1289 1835
3 264 265 1986
3 1302 1303 1304
3 592 596 597
3 1873 1321 2037
3 544 543 568
3 275 277 549
3 209 1937 2389
3 539 565 566
3 1485 227 1486
3 2384 2190 2408
3 1781 1779 1783
3 480 479 515
3 689 1416 2413
3 1108 1161 1539
3 1867 1310 1895
3 1300 1301 1302
3 1695 1696 1697
3 633 632 668
3 1304 1451 1452
3 988 911 1837
3 168 169 1724
3 969 1012 1172
3 582 629 1816
3 1843 752 1900
3 629 812 813
3 710 711 712
3 1782 1780 1784
3 536 535 543
3 1089 1746 1969
3 1108 1107 1161
3 1514 1426 1856
3 486 484 1820
3 369 371 1795
3 1817 988 1924
3 493 609 974
3 1422 1191 2023
3 1426 1424 1856
3 842 875 924
3 922 1826 2259
3 989 1361 1886
3 928 1070 1288
3 669 668 790
3 1113 1114 1356
3 1027 847 1843
3 728 695 1098
3 734 735 772
3 975 1107 1108
3 955 859 1962
3 813 911 988
3 1208 1448 1796
3 1101 1405 1980
3 602 676 2045
3 586 581 589
3 546 547 563
3 493 491 609
3 628 1524 2390
3 348 344 354
3 1298 1299 1300
3 509 538 539
3 974 609 975
3 813 891 911
3 871 870 872
3 1355 1354 1423
3 489 486 1820
3 778 779 780
3 1025 1176 1875
3 772 773 873
3 803 1743 2347
3 167 202 1679
3 873 883 959
3 1483 1571 2375
3 427 1756 2221
3 540 1813 1954
3 1202 1200 1203
3 959 1035 1037
3 837 921 1775
3 1304 1305 1451
3 1799 1383 2195
3 604 642 1862
3 1470 1744 2474
3 1854 2397 2453
3 1282 1269 1386
3 1573 1572 2157
3 472 2222 2290
3 1307 1708 2341
3 769 770 827
3 1037 1215 1216
3 791 790 856
3 1053 1052 1822
3 1056 1727 1728
3 1341 1138 1352
3 1300 1299 1301
3 1814 696 1838
3 1198 1196 1409
3 492 491 493
3 439 450 451
3 1171 858 2132
3 1259 1254 1260
3 665 626 666
3 970 872 971
3 258 1602 2357
3 1296 1297 1472
3 490 489 491
3 516 437 2494
3 1298 1027 1299
3 846 845 932
3 501 508 509
3 460 461 502
3 448 449 460
3 482 480 1840
3 1229 1228 1230
3 604 641 642
3 1424 1423 1427
3 502 503 526
3 1028 1000 1029
3 935 933 949
3 1084 1085 1867
3 2028 1711 2353
3 1513 1426 1514
3 892 482 1840
3 852 638 1988
3 402 395 1877
3 738 737 845
3 413 412 418
3 1119 1353 1643
3 526 527 546
3 280 279 281
3 1731 1155 2123
3 1042 971 1127
3 1208 1447 1448
3 433 434 448
3 262 159 2304
3 184 1454 2303
3 1051 1052 1053
3 1816 1817 1818
3 1081 1417 1444
3 781 836 837
3 911 951 952
3 1090 1092 1102
3 202 168 1724
3 1085 1309 1310
3 408 407 412
3 1337 1538 1864
3 1515 1514 1516
3 530 529 890
3 1517 1518 1519
3 549 686 687
3 923 1088 1105
3 404 403 407
3 1835 1289 1836
3 1314 1367 2121
3 1380 1379 2416
3 670 671 769
3 899 808 1874
3 1040 903 1703
3 1596 1595 2154
3 1496 1495 1497
3 636 637 1741
3 1377 1638 2288
3 1288 1070 1289
3 1072 804 1981
3 1129 1334 1845
3 1865 1084 1866
3 792 922 1603
3 1253 1252 1254
3 981 1167 1792
3 1302 1301 1303
3 1641 1651 2019
3 952 953 1084
3 1813 1812 1869
3 732 730 733
3 975 1106 1107
3 1142 949 1770
3 981 1166 1167
3 840 841 842
3 451 466 467
3 1273 990 1274
3 1049 1050 1051
3 1473 2407 2505
3 968 966 1199
3 642 643 670
3 1310 1309 1311
3 422 419 435
3 1063 833 1082
3 919 782 920
3 911 891 951
3 1084 953 1085
3 1763 1764 2164
3 1498 1497 1682
3 515 550 1175
3 1079 937 1913
3 642 702 1862
3 845 737 1931
3 1394 1311 1395
3 1395 1521 1522
3 467 479 480
3 1755 1754 1793
3 1231 1230 1232
3 1557 1553 2030
3 1624 1691 2262
3 584 632 633
3 1094 1091 1969
3 708 709 710
3 1948 1627 2488
3 952 951 953
3 1102 1103 1104
3 1047 1048 1049
3 1310 1311 1394
3 1852 1099 1985
3 143 144 1717
3 813 812 891
3 1944 1044 1945
3 1105 1354 1355
3 1300 1302 1455
3 1914 936 1940
3 1415 1391 1710
3 1299 1027 1843
3 952 1084 1865
3 1695 1274 1696
3 776 774 1928
3 282 281 283
3 2003 1347 2279
3 1206 995 1499
3 1164 1685 1686
3 1551 1565 2030
3 969 1172 1919
3 633 668 669
3 734 733 735
3 1373 1372 1438
3 599 600 636
3 1431 1860 2487
3 1579 1577 1999
3 484 482 892
3 917 940 941
3 2144 1836 2169
3 1866 1084 1867
3 1110 1747 1748
3 998 1171 1811
3 1390 1120 1391
3 644 1824 2057
3 1362 1961 2048
3 944 1283 1825
3 1086 1027 1298
3 679 1780 1782
3 974 975 1879
3 507 506 518
3 1121 1079 1401
3 775 777 778
3 1965 762 2349
3 1045 1046 1047
3 1772 421 2106
3 16 17 2081
3 416 417 433
3 921 850 2125
3 1607 1855 1958
3 649 648 1848
3 1241 1240 1242
3 2012 1443 2251
3 926 928 1920
3 1487 1488 2025
3 1006 1191 1421
3 1355 1423 1424
3 1133 852 1988
3 591 592 1776
3 1299 1843 1857
3 1085 1308 1309
3 490 491 492
3 958 694 1575
3 1384 1216 1385
3 741 915 1878
3 1233 1232 1234
3 669 790 791
3 481 480 482
3 687 703 704
3 492 493 494
3 1634 1633 1922
3 1697 1696 1698
3 1721 985 1722
3 1839 1273 1892
3 772 735 773
3 488 486 489
3 950 1005 1006
3 1513 1514 1515
3 454 500 501
3 873 773 883
3 284 283 285
3 2185 1505 2442
3 959 883 1035
3 543 535 1897
3 1904 1384 2093
3 800 801 802
3 1037 1035 1215
3 1293 1964 1965
3 1239 1238 1240
3 943 1143 2125
3 1782 1784 1785
3 913 756 942
3 488 490 1884
3 1590 1749 2501
3 1235 1234 1236
3 791 856 1408
3 702 2015 2070
3 1108 1539 1540
3 1021 1023 1045
3 695 506 1828
3 1530 1528 1532
3 488 489 490
3 1621 1619 2161
3 704 705 706
3 1304 1303 1305
3 558 1704 2167
3 625 622 626
3 542 553 554
3 604 573 641
3 664 684 685
3 564 571 574
3 1108 1540 1879
3 1856 1427 2361
3 880 1025 1129
3 1395 1311 1521
3 1466 1465 1467
3 915 495 1884
3 1515 1516 1523
3 1237 1236 1238
3 606 648 649
3 999 920 1000
3 676 829 1043
3 2100 794 2142
3 227 151 1500
3 577 579 599
3 153 154 1671
3 1175 550 1927
3 1014 888 1015
3 286 285 287
3 1649 1280 2427
3 1725 204 2137
3 975 609 1106
3 1129 1317 1334
3 1109 1730 2426
3 1468 1467 1469
3 1131 1123 1399
3 1215 2235 2378
3 1976 1149 1989
3 397 395 398
3 746 743 1878
3 1041 1343 1598
3 975 1108 1879
3 741 495 915
3 1167 1754 1755
3 288 287 289
3 743 741 1878
3 1274 990 1931
3 1506 214 1507
3 857 1584 2277
3 2341 1522 2387
3 846 932 933
3 1107 1106 1110
3 584 633 1927
3 290 289 291
3 722 591 1776
3 1544 1094 1969
3 1135 270 1647
3 935 949 950
3 1920 1288 2080
3 754 1896 2108
3 1693 1199 2225
3 292 291 293
3 394 393 395
3 745 743 746
3 1002 942 1123
3 731 737 738
3 294 293 295
3 1018 1573 1925
3 296 295 297
3 298 297 299
3 321 322 325
3 317 320 321
3 314 315 317
3 312 313 314
3 310 311 312
3 308 309 310
3 1898 890 2275
3 306 307 308
3 304 305 306
3 1401 1079 1913
3 300 299 301
3 302 303 304
3 300 301 302
3 302 301 303
3 491 489 1936
3 298 299 300
3 304 303 305
3 306 305 307
3 308 307 309
3 310 309 311
3 312 311 313
3 314 313 315
3 317 315 320
3 321 320 322
3 1301 1299 1857
3 514 541 542
3 296 297 298
3 850 838 851
3 1310 1394 1895
3 294 295 296
3 590 605 606
3 292 293 294
3 651 657 658
3 290 291 292
3 1207 1208 1796
3 835 1976 1989
3 621 619 622
3 746 1878 1896
3 481 482 483
3 1026 847 1027
3 1335 1207 1870
3 1661 59 2266
3 727 729 1155
3 288 289 290
3 1058 776 1928
3 662 663 664
3 495 488 1884
3 1959 319 2522
3 943 851 944
3 1293 1291 1964
3 534 532 535
3 640 645 646
3 2280 1014 2385
3 286 287 288
3 591 575 592
3 521 519 529
3 13 14 2114
3 780 779 781
3 918 908 1850
3 837 836 838
3 209 148 1639
3 754 748 1896
3 745 746 747
3 769 671 770
3 929 1065 2197
3 1278 1058 1279
3 483 482 484
3 1564 1557 2030
3 633 807 1927
3 392 391 393
3 1057 1621 2161
3 569 580 581
3 284 285 286
3 876 992 1894
3 497 494 498
3 1630 1635 2041
3 982 1148 1918
3 612 611 613
3 700 634 1044
3 822 674 2099
3 880 1129 1929
3 432 439 654
3 1039 1291 1292
3 1164 1686 1989
3 1129 1025 1317
3 738 845 846
3 582 583 629
3 278 6 279
3 544 568 569
3 1701 1274 1931
3 747 749 751
3 1085 953 1308
3 928 930 1070
3 747 748 749
3 1421 1422 2415
3 902 903 904
3 1309 1308 1543
3 642 641 643
3 904 981 1792
3 646 784 785
3 536 543 544
3 1204 1205 1207
3 365 694 958
3 71 72 217
3 88 89 1901
3 87 88 193
3 101 102 189
3 85 86 242
3 99 100 241
3 74 75 192
3 91 92 219
3 94 95 191
3 83 84 220
3 97 98 221
3 77 78 218
3 80 81 194
3 89 90 245
3 62 63 244
3 60 61 188
3 64 65 223
3 67 68 190
3 90 91 1909
3 98 99 1905
3 61 62 1908
3 69 70 243
3 68 69 1907
3 70 71 1910
3 410 411 416
3 586 589 590
3 685 684 2029
3 390 389 391
3 1715 1150 1811
3 1924 1837 2215
3 282 283 284
3 496 497 1929
3 233 1671 1769
3 627 2185 2442
3 1567 1552 2062
3 629 630 812
3 424 453 454
3 583 562 1942
3 749 750 805
3 744 743 745
3 1897 535 1898
3 467 480 481
3 504 759 880
3 670 643 671
3 89 245 1901
3 193 88 1901
3 221 98 1905
3 245 90 1909
3 91 219 1909
3 62 244 1908
3 188 61 1908
3 99 241 1905
3 190 68 1907
3 71 217 1910
3 69 243 1907
3 243 70 1910
3 505 499 506
3 475 513 514
3 1945 1044 2071
3 1712 2125 2353
3 339 343 440
3 989 1360 1361
3 764 869 1152
3 778 777 779
3 1686 1685 1687
3 742 741 743
3 979 989 1886
3 729 731 1887
3 926 927 928
3 1305 1306 1307
3 1838 1278 2292
3 747 746 748
3 181 182 1652
3 1886 1361 2305
3 1595 1594 2486
3 597 596 598
3 928 1288 1920
3 1970 824 2156
3 1425 1424 1426
3 497 504 1929
3 748 746 1896
3 745 747 1900
3 998 858 1171
3 563 547 564
3 1155 729 1887
3 634 583 1942
3 1439 1173 1440
3 1026 1027 1086
3 79 80 1904
3 1533 1532 1536
3 1449 1426 1513
3 1106 609 1936
3 1318 1013 1319
3 1098 695 1828
3 492 494 496
3 750 748 754
3 731 738 1887
3 2415 1422 2516
3 533 562 582
3 988 1837 1924
3 1216 1215 1863
3 534 535 536
3 747 751 1900
3 1753 809 2119
3 1183 824 1970
3 740 495 741
3 80 194 1904
3 893 383 2087
3 655 605 1939
3 1884 2034 2082
3 1301 1857 1923
3 1307 1306 1708
3 752 745 1900
3 750 754 755
3 76 77 1903
3 2090 2347 2365
3 255 30 2159
3 132 254 2160
3 448 434 449
3 753 848 926
3 1075 1074 1327
3 487 488 495
3 377 381 647
3 483 484 485
3 755 754 2148
3 1584 1925 2277
3 1186 1183 1970
3 951 891 1281
3 485 484 486
3 546 527 547
3 133 134 1766
3 1786 1785 2409
3 280 281 282
3 460 449 461
3 744 745 752
3 77 218 1903
3 983 1918 2342
3 1708 1306 1810
3 1389 2069 2170
3 487 486 488
3 641 573 1954
3 507 518 519
3 502 461 503
3 519 518 1899
3 1202 1203 1204
3 821 897 1972
3 92 93 1902
3 521 529 530
3 749 748 750
3 2176 1380 2416
3 885 826 886
3 485 486 487
3 371 372 376
3 1289 1070 1871
3 1110 1657 1747
3 753 926 1943
3 700 1044 1944
3 880 881 1025
3 496 1845 2034
3 1072 1981 2393
3 462 464 2134
3 1949 1771 2359
3 1044 634 1942
3 550 584 1927
3 1390 1415 2118
3 526 503 527
3 990 845 1931
3 1009 1213 1214
3 740 742 1144
3 219 92 1902
3 727 1155 1899
3 369 370 371
3 623 690 2150
3 1279 1058 1928
3 1408 2235 2286
3 487 495 740
3 979 1886 2086
3 1305 1303 1306
3 421 412 1951
3 843 844 996
3 633 669 807
3 518 727 1899
3 826 825 1961
3 1657 1106 1936
3 1172 1012 1173
3 740 741 742
3 433 417 434
3 505 506 507
3 1333 1674 2437
3 742 743 744
3 469 458 470
3 1381 1380 1382
3 1293 1965 2515
3 1554 1559 2062
3 553 557 2499
3 1774 389 2339
3 497 498 499
3 483 485 576
3 740 1144 1935
3 773 735 834
3 366 367 369
3 1120 1118 1876
3 1515 1523 1574
3 1319 1013 2039
3 1303 1301 1923
3 457 447 458
3 561 593 594
3 1355 1424 1425
3 609 491 1936
3 204 1732 2137
3 791 1408 1642
3 995 944 1825
3 456 471 475
3 1692 1693 2239
3 580 1763 2164
3 1292 1293 2117
3 441 452 456
3 388 384 389
3 823 821 1972
3 504 880 1929
3 176 177 1680
3 1070 1071 1871
3 15 2260 2477
3 362 363 366
3 2178 2300 2449
3 1035 883 1036
3 2285 1563 2307
3 978 977 1074
3 1090 1102 2029
3 1810 1306 1923
3 496 494 497
3 1306 1303 1923
3 432 654 1915
3 934 933 935
3 356 355 365
3 398 403 404
3 635 701 843
3 1110 1106 1657
3 574 571 575
3 1025 881 1176
3 386 380 786
3 415 432 1915
3 343 347 1911
3 1070 930 1071
3 1688 1740 2231
3 1385 1216 1863
3 1696 1274 1701
3 1645 305 2317
3 880 759 881
3 926 848 927
3 1427 1423 2217
3 1339 1662 2388
3 770 774 775
3 1263 1257 1428
3 1337 1864 2412
3 349 348 355
3 2267 1721 2498
3 753 752 847
3 1375 1086 1473
3 900 982 983
3 332 335 739
3 429 428 430
3 744 752 753
3 1171 2132 2165
3 1425 1426 1449
3 987 641 1954
3 1883 1786 2409
3 427 426 428
3 928 927 930
3 1815 1105 2015
3 1206 1499 1941
3 410 406 411
3 573 540 1954
3 497 499 504
3 528 560 561
3 1933 1404 2399
3 1091 1089 1969
3 1804 1282 2073
3 504 505 759
3 963 924 1113
3 1711 1710 1712
3 881 759 1146
3 968 1199 1200
3 351 352 362
3 848 847 1026
3 521 530 531
3 1884 490 2034
3 1277 957 1966
3 1349 1350 2329
3 676 1043 2045
3 997 1159 1286
3 517 1889 1890
3 781 835 836
3 944 948 1283
3 722 1776 2026
3 507 519 520
3 2040 1352 2058
3 1276 957 1277
3 446 437 447
3 931 860 977
3 361 359 765
3 1248 1536 2534
3 512 523 528
3 408 412 413
3 1368 1369 1370
3 451 2169 2223
3 192 75 1994
3 942 756 2026
3 345 344 348
3 764 1152 1963
3 413 418 419
3 1286 1773 1774
3 770 671 774
3 275 549 2124
3 1497 1645 2461
3 1982 1472 2272
3 422 435 441
3 281 279 736
3 1134 270 1135
3 582 562 583
3 1421 2415 2454
3 485 487 1935
3 2300 1067 2480
3 1578 1576 1827
3 930 927 1061
3 1026 1086 1375
3 922 2259 2379
3 1391 1120 1876
3 1495 1494 2493
3 404 407 408
3 879 2178 2449
3 1700 1698 2036
3 607 1517 1520
3 753 847 848
3 416 411 417
3 1144 742 1943
3 775 776 777
3 754 2108 2148
3 1006 1421 1953
3 585 581 586
3 531 530 532
3 235 1709 1888
3 520 519 521
3 1180 1181 1349
3 1146 759 1967
3 708 710 1921
3 1350 2253 2329
3 436 430 437
3 504 499 505
3 643 641 987
3 336 330 517
3 811 1059 1149
3 1164 1411 1685
3 846 933 934
3 635 843 1960
3 983 982 1918
3 971 872 1096
3 1149 1163 1164
3 169 237 1724
3 1314 1315 1316
3 629 583 630
3 891 812 1916
3 462 463 464
3 487 740 1935
3 798 2084 2189
3 1814 1838 2292
3 1284 1489 1491
3 340 336 2014
3 1670 1461 2200
3 920 782 2057
3 890 2241 2275
3 510 511 512
3 278 279 280
3 839 802 840
3 1858 235 1888
3 1698 1696 2036
3 104 105 222
3 57 58 224
3 1185 1183 1186
3 588 587 623
3 638 600 1988
3 1282 1386 2245
3 811 776 1058
3 816 815 876
3 2034 1845 2082
3 761 636 1741
3 566 565 587
3 174 175 1725
3 347 350 351
3 1469 1495 1496
3 1059 1058 1278
3 811 1149 1976
3 576 485 1935
3 659 658 660
3 859 1153 1962
3 76 1903 1994
3 1821 1109 2426
3 1294 1038 1622
3 733 1833 2075
3 992 993 1980
3 1566 1561 2285
3 525 474 2041
3 464 465 510
3 343 346 347
3 360 893 1982
3 650 649 651
3 896 608 936
3 950 1006 1007
3 1508 1859 1860
3 539 538 565
3 440 343 1911
3 341 340 344
3 221 1905 1906
3 1297 1823 2142
3 759 505 1967
3 1295 1053 1296
3 473 470 474
3 1463 1465 1466
3 1143 1206 2028
3 799 685 800
3 1210 2077 2203
3 509 508 538
3 492 496 2034
3 1553 1551 2030
3 1260 1261 1269
3 1430 1040 1703
3 586 590 1940
3 838 836 868
3 1705 624 2276
3 1749 972 2501
3 742 744 1943
3 804 962 1981
3 1367 1368 2254
3 531 532 533
3 337 336 340
3 1157 1094 1544
3 536 544 1158
3 812 630 1960
3 781 779 835
3 56 57 1947
3 630 583 634
3 1405 1404 1932
3 1281 891 1916
3 339 342 343
3 1411 1163 1730
3 322 323 324
3 344 340 2091
3 1735 1734 1736
3 75 76 1994
3 430 682 2494
3 1907 243 2360
3 589 581 2164
3 694 355 2196
3 744 753 1943
3 775 774 776
3 1210 1430 2077
3 335 338 339
3 1102 1803 2029
3 1078 937 1079
3 870 655 1939
3 505 507 1967
3 357 360 1982
3 1896 1878 2101
3 326 325 328
3 934 935 957
3 585 608 895
3 333 330 336
3 1270 1272 1524
3 688 817 878
3 507 520 1967
3 1428 1257 2074
3 1818 1817 2000
3 896 937 1077
3 934 957 1111
3 329 328 330
3 1499 995 1825
3 944 851 948
3 387 445 462
3 1678 1161 2228
3 777 776 811
3 313 311 757
3 324 331 332
3 848 1026 1955
3 1312 998 1811
3 1321 1322 2037
3 1080 1079 1121
3 1105 1355 2015
3 1645 2317 2461
3 1559 1568 2062
3 332 334 335
3 501 500 508
3 321 325 326
3 394 395 397
3 322 320 323
3 1529 1530 2171
3 1137 797 1138
3 811 1058 1059
3 661 660 662
3 569 581 585
3 183 4 2303
3 5 160 2304
3 1340 1138 1341
3 1660 1626 2185
3 1743 1464 2347
3 1026 1375 1955
3 1149 1059 1163
3 1736 1625 2194
3 1322 1667 2434
3 311 309 1959
3 309 307 319
3 894 700 1944
3 533 534 562
3 1276 1277 1366
3 2190 1706 2408
3 533 532 534
3 1214 1213 1410
3 1164 1163 1411
3 843 701 844
3 1009 1214 2055
3 234 1589 1788
3 2000 1817 2174
3 317 321 2050
3 328 325 945
3 392 393 394
3 588 623 2089
3 1162 958 1681
3 1078 1080 1136
3 927 848 1955
3 1496 1497 1498
3 390 391 392
3 1061 927 1955
3 1283 948 1284
3 635 634 700
3 1244 1251 1252
3 218 78 2093
3 756 722 2026
3 1071 1784 2419
3 1218 1505 2185
3 1284 948 1285
3 1489 1285 1490
3 918 1850 1851
3 684 1090 2029
3 1759 572 2537
3 1691 1690 2446
3 1979 1158 2071
3 606 649 650
3 2045 1043 2046
3 103 104 2025
3 630 634 635
3 360 383 893
3 406 386 2043
3 1909 219 2023
3 1111 957 1276
3 1925 1437 2277
3 1536 2268 2340
3 854 852 1133
3 233 153 1671
3 651 658 659
3 2099 1787 2368
3 1033 1032 1130
3 1015 1372 1373
3 1412 942 2026
3 253 264 1441
3 1531 1534 2332
3 701 700 894
3 106 107 1990
3 2048 1961 2455
3 276 274 2099
3 738 846 1968
3 1325 925 1326
3 896 936 937
3 585 586 608
3 1450 854 1973
3 1361 1360 1362
3 1045 1668 2512
3 303 301 444
3 996 844 997
3 79 1904 2093
3 1989 1686 2095
3 1928 774 2033
3 1942 562 1979
3 287 285 316
3 935 950 1966
3 1466 1467 1468
3 1242 1243 1244
3 1887 738 1968
3 2115 210 2477
3 878 929 1083
3 1326 1736 2194
3 886 888 1014
3 895 608 896
3 289 287 1978
3 821 822 897
3 936 608 1940
3 613 614 615
3 51 52 1996
3 417 411 1160
3 1149 1164 1989
3 386 786 2043
3 285 283 1971
3 1309 1543 2147
3 375 373 2053
3 371 370 372
3 779 777 1976
3 1286 1159 1773
3 2177 887 2376
3 1560 1557 1564
3 1403 1882 2399
3 1727 1757 2246
3 279 6 2049
3 1619 1438 2438
3 291 289 758
3 1781 1915 2294
3 425 401 426
3 349 355 356
3 66 67 2118
3 474 548 2041
3 1686 1687 2007
3 1262 1456 1457
3 1123 942 1412
3 1916 812 1960
3 1355 1425 2015
3 735 733 2075
3 1861 879 2449
3 1284 1285 1489
3 490 492 2034
3 366 363 367
3 980 578 2051
3 906 904 1792
3 534 536 1979
3 842 924 963
3 2051 578 2083
3 1077 937 1078
3 1102 1104 1803
3 894 1944 1946
3 398 404 2060
3 1007 1006 1953
3 369 367 370
3 348 354 2196
3 1078 1079 1080
3 1378 1380 1381
3 1568 1365 2439
3 608 586 1940
3 598 610 611
3 760 636 761
3 869 1137 1351
3 671 643 2033
3 1661 1345 2267
3 938 914 1057
3 783 761 914
3 576 1835 2144
3 388 389 390
3 297 295 318
3 454 453 500
3 1906 1728 2246
3 1439 1440 2468
3 1159 1013 1318
3 764 797 869
3 236 143 1717
3 782 644 2057
3 592 595 596
3 1542 2332 2443
3 1521 1311 2147
3 345 348 349
3 1304 1452 2205
3 1644 1907 2360
3 2146 1125 2149
3 997 844 1013
3 628 375 2053
3 299 297 1984
3 957 935 1966
3 664 685 799
3 301 299 1975
3 362 352 363
3 777 811 1976
3 1942 1979 2071
3 1001 920 2057
3 312 314 768
3 1552 1554 2062
3 615 616 617
3 357 1982 2076
3 800 802 839
3 774 671 2033
3 1749 1169 2105
3 365 958 1162
3 617 618 619
3 283 281 1938
3 1351 1772 2414
3 1525 1765 2489
3 846 934 1968
3 635 700 701
3 555 554 577
3 536 1158 1979
3 1101 1404 1405
3 630 635 1960
3 1811 1150 2089
3 2113 1666 2249
3 172 173 1847
3 107 108 195
3 54 55 196
3 1191 1768 2023
3 1455 1302 2205
3 115 116 2017
3 1387 1333 2437
3 659 661 764
3 1080 1121 1188
3 50 51 2011
3 411 406 2043
3 295 293 1983
3 643 987 2033
3 707 706 708
3 129 130 261
3 32 33 260
3 2159 260 2265
3 449 434 567
3 1314 1029 1315
3 917 796 940
3 378 375 628
3 108 109 1991
3 2370 1759 2537
3 341 344 345
3 997 1013 1159
3 544 569 1993
3 950 1007 1966
3 477 474 525
3 351 350 352
3 1696 1701 2036
3 334 331 803
3 1137 1138 1340
3 562 534 1979
3 109 110 246
3 52 53 247
3 1368 1316 1369
3 659 660 661
3 33 34 2002
3 123 124 2005
3 835 779 1976
3 851 838 1992
3 1530 1533 2172
3 1668 1045 2348
3 1162 1681 1706
3 342 338 468
3 298 300 358
3 765 359 2065
3 725 826 885
3 35 36 2003
3 46 47 2019
3 38 39 2006
3 336 517 2014
3 934 1111 1968
3 116 117 2018
3 650 651 1963
3 223 1711 2162
3 640 594 645
3 1333 1330 2192
3 104 222 2025
3 1603 922 2379
3 963 1113 1115
3 2084 1193 2189
3 564 570 571
3 36 37 2004
3 57 224 1947
3 1542 1601 2269
3 122 123 2012
3 1000 920 1001
3 127 128 240
3 34 35 239
3 383 387 2087
3 1161 1107 2228
3 1781 2294 2419
3 1201 1200 1202
3 124 125 225
3 37 38 226
3 1340 1341 1342
3 869 797 1137
3 839 840 1008
3 1158 544 1993
3 1326 925 1894
3 352 350 353
3 326 329 954
3 1864 2344 2412
3 836 835 2095
3 1051 1053 1295
3 1031 720 1032
3 503 461 787
3 1407 1112 2044
3 661 662 2058
3 838 868 1992
3 112 113 197
3 49 50 198
3 1359 980 1413
3 121 122 211
3 40 41 212
3 48 49 2010
3 113 114 2009
3 1741 673 2131
3 41 42 2020
3 120 121 2013
3 1409 2035 2097
3 1511 1374 2506
3 114 115 248
3 47 48 249
3 42 43 250
3 119 120 251
3 171 6 201
3 6 172 203
3 585 895 1993
3 43 44 2024
3 118 119 2021
3 905 904 906
3 764 661 797
3 337 340 341
3 1413 980 2051
3 117 118 205
3 44 45 206
3 347 346 350
3 1420 1076 1525
3 324 323 331
3 434 417 2031
3 965 967 969
3 716 719 788
3 1260 1254 1261
3 2053 373 2103
3 2069 2068 2170
3 326 328 329
3 1706 996 2408
3 273 275 2124
3 969 1011 1012
3 590 606 2001
3 1718 1611 2280
3 1914 1940 2001
3 915 1884 2082
3 329 330 333
3 620 859 955
3 2168 1409 2305
3 296 298 1997
3 915 2082 2101
3 339 338 342
3 1218 994 1505
3 333 336 337
3 266 263 1742
3 1873 768 2127
3 244 63 2162
3 64 223 2162
3 343 342 346
3 914 761 2258
3 310 312 1987
3 799 800 2055
3 302 304 763
3 1559 1566 1568
3 1598 1343 2114
3 592 575 595
3 341 345 794
3 189 1842 2220
3 767 815 816
3 1003 912 1004
3 839 1008 1009
3 1263 1428 1429
3 564 547 570
3 1845 1334 2082
3 332 331 334
3 901 866 902
3 651 659 1963
3 1009 1112 1213
3 335 334 338
3 569 585 1993
3 1665 1336 2299
3 1945 2071 2153
3 863 862 864
3 907 906 908
3 1849 1486 1930
3 1935 1144 2080
3 967 966 968
3 809 900 2119
3 865 864 866
3 835 1989 2095
3 190 1907 2417
3 333 337 522
3 1110 1748 2228
3 1193 1194 1195
3 94 191 2166
3 473 1854 2453
3 1769 1134 2369
3 948 851 1992
3 237 170 2216
3 420 419 422
3 1448 1447 2364
3 483 576 2144
3 721 1919 2032
3 885 886 1891
3 613 611 614
3 886 1014 1891
3 1160 411 2043
3 1918 1283 2342
3 1651 206 2485
3 1242 1240 1243
3 598 596 610
3 1295 1296 1459
3 1185 1186 1948
3 1425 1449 2070
3 294 296 762
3 1285 948 1992
3 925 876 1894
3 712 714 789
3 603 1668 2398
3 1940 590 2001
3 721 570 964
3 834 735 2075
3 1144 1920 2080
3 2263 1635 2511
3 1204 1207 1335
3 2235 1408 2378
3 965 964 966
3 1990 1435 2218
3 397 398 2060
3 1138 797 2058
3 1787 1141 2368
3 2068 820 2170
3 360 359 361
3 387 462 2087
3 1524 1272 1934
3 819 698 820
3 1197 1196 1198
3 1662 2126 2388
3 78 79 2093
3 1150 588 2089
3 1269 1261 1270
3 1878 915 2101
3 451 467 2169
3 2262 1387 2437
3 1009 1008 1112
3 757 311 1959
3 897 898 1139
3 1854 473 2483
3 2015 1425 2070
3 2082 1334 2101
3 963 1115 1174
3 1047 1049 1287
3 1194 423 1196
3 321 326 2050
3 417 1160 2031
3 854 1133 1973
3 1201 1212 1348
3 705 1586 2163
3 309 319 1959
3 1353 1390 2417
3 427 428 429
3 357 356 359
3 606 650 2001
3 549 1280 2124
3 1213 1112 1407
3 256 2303 2535
3 356 365 2065
3 662 664 2040
3 701 894 2039
3 1325 1371 2451
3 666 626 667
3 1902 93 2166
3 1236 1234 1246
3 800 839 2055
3 1869 1812 2252
3 1197 1364 1365
3 576 1935 2080
3 404 408 798
3 1678 807 2529
3 1560 1564 2016
3 1319 2039 2122
3 425 426 427
3 349 356 357
3 308 310 327
3 1716 622 2484
3 1801 82 2289
3 1768 1949 2420
3 2006 1926 2507
3 351 364 2407
3 420 423 1193
3 659 764 1963
3 292 294 2038
3 840 842 2027
3 736 279 2049
3 372 373 374
3 461 449 2052
3 2189 1195 2285
3 1174 1115 1398
3 367 363 961
3 909 908 918
3 1738 247 2402
3 1007 1761 2308
3 288 290 2135
3 422 441 2035
3 623 624 690
3 537 525 545
3 1953 1421 2454
3 1887 1968 2123
3 861 691 862
3 654 439 2223
3 1136 1080 2054
3 1312 1811 2089
3 575 571 2032
3 383 361 384
3 968 1200 1201
3 797 661 2058
3 1423 1354 2381
3 1180 1178 1181
3 1513 1515 2180
3 72 73 2217
3 462 445 463
3 12 13 2136
3 457 458 469
3 542 554 555
3 599 636 760
3 254 133 1766
3 1130 1397 1937
3 404 798 2060
3 1044 1942 2071
3 690 691 860
3 357 359 360
3 1008 2027 2152
3 1232 1230 1255
3 372 370 373
3 850 943 2125
3 1457 1456 1492
3 1952 324 2282
3 155 2 2356
3 0 7 2357
3 2017 1379 2288
3 918 1851 2008
3 195 1991 2517
3 2090 803 2347
3 1244 1243 1251
3 290 292 368
3 1432 1082 2214
3 1008 840 2027
3 1743 803 2296
3 1013 844 2039
3 365 1162 2065
3 1594 1315 2184
3 387 384 388
3 1508 1860 2311
3 547 527 2056
3 2005 225 2322
3 314 317 2127
3 1853 556 2327
3 201 6 278
3 1907 1644 2417
3 1896 2101 2108
3 646 645 784
3 538 508 558
3 374 375 377
3 1630 1634 1635
3 1579 1999 2352
3 1647 1648 1849
3 1313 1314 2121
3 1179 1433 2042
3 844 701 2039
3 1252 1251 2098
3 816 876 925
3 1922 1228 2281
3 392 394 396
3 1915 654 2294
3 1652 1653 2487
3 429 430 436
3 456 475 476
3 1605 1392 2510
3 126 1882 2284
3 1784 1780 2419
3 500 453 960
3 377 378 381
3 2178 1587 2300
3 1222 1219 1626
3 413 419 420
3 381 382 400
3 2169 1836 2223
3 1906 1905 2129
3 616 614 793
3 1170 1419 2139
3 101 189 2220
3 241 100 2220
3 1968 1111 2123
3 567 434 2031
3 615 614 616
3 1032 720 1921
3 682 428 2138
3 469 470 473
3 339 440 2261
3 1501 238 2226
3 1154 1431 1653
3 446 447 457
3 1251 1243 1257
3 2229 315 2495
3 1201 1202 1212
3 785 784 879
3 464 463 465
3 66 2118 2395
3 324 332 2282
3 286 288 771
3 17 199 2081
3 571 570 721
3 611 610 2092
3 617 616 618
3 1542 1531 2332
3 400 401 424
3 1325 1326 1371
3 1140 1406 1702
3 1323 443 2302
3 1926 1573 2507
3 436 437 446
3 1262 1457 2098
3 67 190 2118
3 1518 1861 2449
3 989 1359 1360
3 1063 1082 1154
3 1757 96 2526
3 969 967 1011
3 868 836 2095
3 1215 1035 2235
3 96 1757 2309
3 261 2160 2380
3 1381 1382 2126
3 1468 1469 2182
3 1334 1317 2108
3 861 863 1064
3 1270 1261 1271
3 360 361 383
3 287 316 1978
3 1856 192 2367
3 1905 241 2129
3 1615 1809 2425
3 528 523 560
3 979 980 989
3 662 2040 2058
3 721 964 965
3 170 171 2216
3 664 799 2040
3 512 511 523
3 1201 1348 2107
3 620 618 858
3 758 289 1978
3 859 858 998
3 424 425 453
3 1616 1615 2193
3 444 301 1975
3 561 560 593
3 965 966 967
3 1798 376 2430
3 340 2014 2091
3 510 465 511
3 107 195 1990
3 1080 1188 2054
3 1153 998 1312
3 1226 1224 1249
3 1012 1011 1363
3 902 904 905
3 842 963 2027
3 268 270 1134
3 865 901 1125
3 2077 558 2102
3 282 284 442
3 1977 1679 2253
3 1496 1498 2047
3 284 286 2063
3 281 736 1938
3 2132 793 2165
3 1674 215 2437
3 2078 1855 2411
3 839 1009 2055
3 1182 824 1183
3 1168 947 1169
3 1289 1871 2242
3 316 285 1971
3 1270 1271 1272
3 1755 1793 2264
3 51 1996 2011
3 383 384 387
3 1146 1924 2215
3 1279 1928 2202
3 619 618 620
3 1194 1196 1197
3 555 578 979
3 1937 1639 2528
3 1262 1257 1263
3 389 384 2339
3 2251 1338 2464
3 1155 1887 2123
3 1151 1937 2528
3 465 463 828
3 1318 1319 2116
3 1687 1688 2231
3 326 954 2050
3 297 318 1984
3 1308 953 2255
3 1846 2056 2198
3 320 315 2229
3 1254 1252 2059
3 760 761 783
3 951 1281 2255
3 1459 1296 2094
3 2288 1638 2470
3 1975 299 1984
3 52 247 1996
3 468 338 2090
3 2140 1511 2506
3 1125 1126 1192
3 593 824 1182
3 720 708 1921
3 704 706 707
3 623 587 624
3 2044 1112 2152
3 1393 1169 1749
3 900 983 2119
3 783 914 938
3 255 2265 2489
3 2039 894 2122
3 317 2050 2127
3 1866 1867 2513
3 374 373 375
3 429 436 455
3 387 388 445
3 1193 423 1194
3 555 577 578
3 1074 977 1187
3 449 567 2052
3 1197 1198 1364
3 2154 1595 2486
3 1486 1849 2173
3 318 295 1983
3 939 1016 1844
3 131 132 2160
3 30 31 2159
3 881 1146 2215
3 1294 1868 2238
3 1300 1455 2314
3 1365 1364 1912
3 783 938 939
3 2061 1735 2441
3 551 545 601
3 2194 216 2536
3 1251 1257 1262
3 888 887 2177
3 1364 1198 2048
3 1498 1682 2340
3 1589 1590 2501
3 60 188 2266
3 1401 1913 2324
3 195 108 1991
3 420 422 423
3 1675 1470 2474
3 258 1673 2183
3 2161 1619 2438
3 1296 1472 2094
3 1808 1910 2381
3 334 803 2090
3 1490 1285 2232
3 523 511 524
3 1240 1238 2074
3 1184 1183 1185
3 39 40 2151
3 473 474 477
3 1461 1463 2200
3 2072 353 2073
3 861 862 863
3 1206 1941 2401
3 958 1575 2287
3 614 611 2092
3 110 111 2140
3 1136 2054 2110
3 645 594 2133
3 260 33 2002
3 673 767 2131
3 989 980 1359
3 1741 2131 2258
3 1317 1875 2148
3 894 1946 2122
3 863 864 865
3 787 461 2052
3 857 2277 2386
3 109 246 1991
3 2017 116 2018
3 1182 1183 1184
3 377 375 378
3 816 925 1324
3 865 866 901
3 1262 1263 1456
3 359 356 2065
3 2129 241 2472
3 283 1938 1971
3 1458 1210 2203
3 1076 1003 2145
3 196 1738 2402
3 1033 1130 1151
3 1188 1121 2106
3 1140 1702 2096
3 549 687 1280
3 1694 1621 2191
3 861 1064 2112
3 1548 1549 2129
3 1784 1071 2462
3 714 716 2066
3 1961 825 2455
3 1447 1211 2250
3 979 578 980
3 905 907 1209
3 381 378 382
3 457 469 552
3 595 575 2032
3 408 413 2084
3 481 483 2144
3 1745 1349 2293
3 1980 1405 2441
3 198 50 2011
3 248 115 2017
3 912 819 2068
3 620 858 859
3 707 708 720
3 821 674 822
3 514 542 2086
3 400 382 401
3 123 2005 2012
3 1772 1351 2374
3 34 239 2002
3 768 314 2127
3 2003 36 2004
3 280 282 2079
3 124 225 2005
3 596 595 2130
3 593 560 824
3 1504 1502 2519
3 239 35 2003
3 1311 1309 2147
3 1318 1877 2240
3 1860 1432 2311
3 1416 1715 2330
3 859 998 1153
3 352 353 2072
3 312 768 1987
3 2027 1174 2152
3 226 38 2006
3 1827 1024 2117
3 1710 1391 2295
3 690 624 691
3 37 226 2004
3 1153 1312 1885
3 853 855 2186
3 1892 242 2373
3 1967 520 2174
3 939 938 1016
3 47 249 2019
3 388 390 2078
3 1991 2139 2517
3 905 906 907
3 571 721 2032
3 1196 423 2035
3 1324 925 1325
3 1151 1130 1937
3 363 352 2072
3 345 349 2076
3 1031 1032 1033
3 214 179 1859
3 211 122 2012
3 602 601 652
3 117 205 2018
3 710 712 2067
3 1602 187 2357
3 520 2000 2174
3 85 242 2335
3 220 84 2335
3 381 400 2113
3 1586 1587 2435
3 424 401 425
3 963 1174 2027
3 860 691 861
3 610 596 2130
3 1958 2078 2431
3 570 547 2056
3 237 2216 2354
3 1211 1692 2219
3 298 358 1997
3 909 947 1041
3 441 456 2097
3 1135 1647 1849
3 1601 1542 2443
3 197 113 2009
3 49 198 2010
3 1911 347 2407
3 1729 191 2309
3 212 41 2020
3 121 211 2013
3 222 105 2218
3 1125 901 1126
3 114 248 2009
3 249 48 2010
3 42 250 2020
3 251 120 2013
3 233 1769 2369
3 1870 647 2113
3 794 345 2076
3 250 43 2024
3 119 251 2021
3 901 902 2141
3 964 570 2056
3 739 335 2261
3 2108 1317 2148
3 577 599 2083
3 205 118 2021
3 44 206 2024
3 1247 1241 2323
3 1894 992 2244
3 6 203 2049
3 1642 1678 2529
3 1417 1873 2333
3 1422 2023 2516
3 341 794 2100
3 73 74 2361
3 1234 1232 2088
3 1261 1254 2059
3 896 1077 2257
3 1921 710 2067
3 125 126 2284
3 220 1699 2289
3 159 5 2304
3 4 184 2303
3 2059 1252 2098
3 1003 1004 2145
3 2328 1325 2451
3 1486 227 1500
3 63 64 2162
3 2081 1192 2260
3 508 500 2102
3 667 1872 2318
3 338 334 2090
3 423 422 2035
3 1192 1126 1471
3 907 908 909
3 1330 1328 2192
3 1972 897 2500
3 2443 316 2514
3 242 86 2373
3 87 193 2373
3 420 1193 2084
3 1473 1086 2358
3 1987 768 2037
3 522 337 2100
3 627 1660 2185
3 1793 446 2264
3 1405 2061 2441
3 1502 1217 2302
3 171 201 2216
3 1158 1993 2153
3 1197 1365 2120
3 1712 1710 2295
3 1121 1401 2414
3 93 94 2166
3 653 652 688
3 622 1716 2452
3 1345 1720 2267
3 477 537 556
3 128 129 2181
3 2331 1295 2458
3 784 645 874
3 1269 1270 2199
3 189 102 2355
3 1041 1168 1343
3 246 110 2140
3 477 525 537
3 755 1895 2371
3 1947 1723 2313
3 1134 1135 2369
3 223 65 2395
3 968 1201 2107
3 1577 1578 2325
3 210 15 2477
3 961 363 2072
3 1581 1579 2352
3 349 357 2076
3 337 341 2100
3 305 303 2317
3 370 367 2103
3 762 296 1997
3 581 580 2164
3 1278 1838 2372
3 1548 2129 2472
3 594 593 2133
3 2021 251 2022
3 2047 1247 2182
3 967 968 2107
3 1169 947 2008
3 481 2144 2169
3 793 614 2092
3 1910 217 2381
3 1251 1262 2098
3 716 788 2066
3 2101 1334 2108
3 2006 39 2151
3 1603 2379 2508
3 1926 2006 2151
3 96 97 2526
3 750 755 2371
3 789 714 2066
3 909 918 947
3 1993 895 2153
3 106 1990 2218
3 1243 1240 2074
3 832 986 1189
3 1283 1284 2342
3 2297 195 2517
3 1043 829 2326
3 767 816 2131
3 602 653 676
3 1004 912 2068
3 2086 1886 2224
3 1124 2177 2467
3 426 401 2531
3 707 720 1030
3 1000 1001 2184
3 1315 1029 2184
3 467 481 2169
3 541 513 2256
3 647 381 2113
3 225 2284 2510
3 2 156 2356
3 187 0 2357
3 40 212 2151
3 2245 1386 2383
3 676 677 829
3 1004 2068 2069
3 1860 232 2487
3 1031 1033 1034
3 829 830 972
3 996 997 2408
3 1195 1194 2120
3 987 1869 2202
3 1410 1213 2222
3 819 820 2068
3 1485 1486 2173
3 1564 2030 2155
3 807 669 2529
3 129 261 2181
3 1525 1076 2145
3 578 577 2083
3 327 310 1987
3 1083 929 2197
3 2131 1324 2258
3 798 408 2084
3 1838 696 2426
3 1486 1500 1930
3 1946 1944 2291
3 2257 1077 2291
3 1512 1661 2266
3 445 388 2078
3 1192 1471 2260
3 2118 1415 2395
3 1466 1468 2158
3 830 677 831
3 211 2012 2251
3 652 601 2442
3 537 545 551
3 558 508 2102
3 198 2011 2128
3 1718 2280 2385
3 500 960 2102
3 1168 1169 1393
3 1127 971 2496
3 95 96 2309
3 2030 1565 2155
3 1919 1172 2273
3 977 860 2112
3 240 128 2181
3 294 762 2038
3 1800 1799 2195
3 712 789 2067
3 972 1749 2326
3 472 1683 2212
3 874 645 2133
3 551 2045 2201
3 2105 1043 2326
3 1957 1212 2301
3 1514 1856 2367
3 565 538 2167
3 373 370 2103
3 355 348 2196
3 1934 1272 2138
3 1934 426 2531
3 1881 1400 2481
3 2046 1851 2327
3 367 961 2103
3 1963 1152 2206
3 201 278 443
3 3 131 2444
3 31 1 2445
3 2035 441 2097
3 503 787 2198
3 1135 1849 1930
3 1534 1983 2306
3 2089 623 2150
3 687 704 2109
3 869 1351 2363
3 1302 1304 2205
3 955 1716 2484
3 1030 720 1031
3 1159 1318 2240
3 1228 1226 2281
3 947 918 2008
3 413 420 2084
3 785 879 2532
3 1041 947 1168
3 1468 2182 2323
3 1246 1234 2088
3 1730 1163 2372
3 542 555 2086
3 1599 631 2312
3 1146 1967 2174
3 1078 1136 2343
3 1515 1574 2180
3 2336 885 2469
3 1257 1243 2074
3 1347 1346 2279
3 2001 650 2206
3 1480 1601 2514
3 1029 1000 2184
3 1956 788 2336
3 1271 1261 2059
3 130 3 2444
3 1 32 2445
3 1570 1507 2197
3 1232 1255 2088
3 791 1642 2529
3 1601 1479 2269
3 1361 1362 2168
3 1634 1922 2281
3 765 2065 2190
3 2071 1158 2153
3 1699 1801 2289
3 832 831 833
3 1864 346 2344
3 456 476 2097
3 1855 828 2411
3 2065 1162 2190
3 1125 1192 2149
3 599 760 2083
3 361 765 2339
3 1731 2123 2241
3 1349 1181 1350
3 1443 1275 2251
3 1819 524 2429
3 1021 1045 2512
3 858 618 2132
3 1999 358 2338
3 368 292 2038
3 290 368 2135
3 803 331 2296
3 1112 1008 2152
3 56 1947 2313
3 555 979 2086
3 1469 1496 2182
3 1011 967 2107
3 248 2017 2288
3 1809 789 2425
3 960 453 2221
3 538 558 2167
3 1858 1187 2248
3 2246 1757 2526
3 902 905 2141
3 1851 1853 2327
3 1224 1222 2111
3 771 288 2135
3 1945 2153 2257
3 1420 1525 2489
3 1399 1123 2393
3 103 2025 2355
3 897 822 898
3 1861 940 2532
3 865 1125 2146
3 1675 2474 2522
3 1573 2157 2507
3 1632 1631 2382
3 551 601 602
3 527 503 2198
3 1708 805 2337
3 1059 1278 2372
3 2056 527 2198
3 860 861 2112
3 1668 2348 2398
3 255 2159 2265
3 1541 1542 2269
3 1428 2074 2227
3 1582 1583 2321
3 389 1774 2503
3 2004 226 2157
3 1777 397 2405
3 1368 1436 2254
3 1061 2409 2462
3 1071 930 2462
3 1126 901 2141
3 1194 1197 2120
3 1452 1952 2282
3 2116 1319 2482
3 105 106 2218
3 1981 1399 2393
3 2119 983 2143
3 444 1682 2461
3 2173 1648 2463
3 616 793 2132
3 1791 1190 2334
3 1826 1728 2259
3 602 652 653
3 1834 1292 2428
3 556 2201 2327
3 1014 1015 2385
3 1995 1287 2331
3 1193 1195 2189
3 816 1324 2131
3 879 1861 2532
3 593 1182 2133
3 1402 266 1742
3 2216 1323 2354
3 1660 1636 2502
3 620 955 2484
3 1162 1706 2190
3 1870 2113 2249
3 204 1680 1732
3 1909 2023 2420
3 217 72 2217
3 376 372 2430
3 905 1209 2141
3 1378 1381 2283
3 1236 1246 2227
3 286 771 2063
3 1635 2263 2502
3 100 101 2220
3 1139 898 1140
3 2114 1343 2136
3 442 284 2063
3 1772 2106 2414
3 1985 1755 2533
3 2192 1328 2315
3 1064 863 2146
3 1631 1637 2459
3 736 2049 2523
3 221 1906 2246
3 318 1983 2171
3 1496 2047 2182
3 1374 2139 2506
3 196 55 2313
3 2087 462 2134
3 676 653 677
3 2304 257 2491
3 1401 2324 2363
3 829 677 830
3 654 2223 2242
3 1187 977 2112
3 1463 1466 2200
3 2023 219 2516
3 1176 881 2215
3 513 471 2290
3 1812 459 2252
3 1386 1269 2199
3 291 758 2306
3 618 616 2132
3 278 280 2210
3 83 220 2289
3 82 83 2289
3 938 1057 2161
3 1189 986 1190
3 788 719 2336
3 1914 2001 2206
3 232 181 1652
3 1567 2062 2490
3 313 757 2495
3 622 619 2484
3 688 878 1320
3 1222 1626 2111
3 282 442 2079
3 1169 2008 2105
3 1966 1007 2308
3 2040 799 2237
3 1744 2229 2495
3 986 833 1063
3 2284 1605 2510
3 887 1961 2376
3 215 1624 2262
3 830 831 832
3 476 475 2224
3 439 451 2223
3 1932 1933 2380
3 2227 1246 2366
3 1212 1202 2301
3 1107 1110 2228
3 249 2010 2299
3 1983 293 2306
3 2055 1214 2237
3 1438 1372 2478
3 824 560 2156
3 2320 1866 2513
3 1351 1137 2374
3 868 2007 2232
3 2063 771 2064
3 1507 214 1508
3 1728 1727 2246
3 1045 1047 2348
3 1139 1140 2096
3 1648 1649 2463
3 1502 2302 2519
3 704 707 2109
3 2343 1136 2396
3 650 1963 2206
3 2153 895 2257
3 396 1958 2431
3 1379 1377 2288
3 2115 1471 2319
3 2033 987 2202
3 2239 1693 2518
3 2025 1488 2355
3 1209 2115 2319
3 523 524 2156
3 783 939 2243
3 376 1798 2497
3 2066 788 2193
3 1984 318 2172
3 425 427 2221
3 203 172 1847
3 446 457 2264
3 1312 2089 2150
3 2138 1272 2211
3 897 1139 2274
3 828 1819 2429
3 1249 1224 2111
3 666 667 2318
3 1371 1326 2194
3 2433 1499 2475
3 1272 1271 2211
3 1367 2254 2479
3 1386 2053 2383
3 2074 1238 2227
3 755 2148 2320
3 2117 1604 2428
3 475 514 2224
3 228 2187 2457
3 1868 1504 2520
3 1626 1218 2185
3 2123 1111 2241
3 1287 1049 2331
3 1280 687 2109
3 459 1814 2292
3 54 196 2402
3 863 865 2146
3 204 176 1680
3 514 2086 2224
3 1646 603 2398
3 112 197 2346
3 358 300 2338
3 1140 898 1141
3 1204 1335 2301
3 1016 2161 2438
3 909 1041 2175
3 1681 2448 2492
3 2252 459 2292
3 1992 868 2232
3 1035 1036 2235
3 1051 1295 2331
3 1836 1289 2242
3 1508 214 1859
3 247 53 2402
3 1016 938 2161
3 1408 856 2378
3 1466 2158 2200
3 725 885 2336
3 855 1450 2421
3 2023 1768 2420
3 1238 1236 2227
3 1679 202 2253
3 2107 1348 2233
3 1653 1431 2487
3 1946 2291 2343
3 2253 202 2329
3 1885 1312 2150
3 378 628 2390
3 2195 1383 2432
3 1520 1519 2480
3 1532 1733 2534
3 308 327 2278
3 953 951 2255
3 1213 1407 2222
3 1561 1563 2285
3 302 763 2338
3 1928 2033 2202
3 763 304 2345
3 832 833 986
3 1352 2040 2237
3 247 1881 2481
3 560 523 2156
3 335 339 2261
3 346 342 2344
3 201 443 1323
3 2301 1335 2466
3 323 320 2229
3 1136 2110 2396
3 1139 1977 2274
3 1809 1615 2423
3 1707 1791 2334
3 46 2019 2485
3 2064 1294 2238
3 1950 197 2404
3 2021 2022 2176
3 1949 245 2420
3 2044 2152 2207
3 1063 1154 1707
3 1012 1363 2406
3 280 2079 2210
3 2237 1214 2351
3 820 698 2318
3 1140 1141 1406
3 205 2021 2176
3 2043 786 2310
3 2145 1004 2446
3 707 1030 2109
3 1406 2460 2473
3 2137 1268 2226
3 16 2081 2260
3 567 2031 2219
3 2112 1064 2248
3 206 45 2485
3 2347 1462 2365
3 1650 1962 2362
3 453 425 2221
3 1209 907 2175
3 1111 1276 2241
3 2448 1145 2492
3 2051 2083 2243
3 59 60 2266
3 1402 1742 2530
3 831 677 2209
3 624 587 2276
3 238 174 1725
3 1011 2107 2233
3 468 2365 2412
3 2337 805 2371
3 254 1932 2380
3 1174 1398 2207
3 2140 111 2346
3 1381 2186 2283
3 1987 2037 2188
3 1740 559 2456
3 1773 391 2503
3 1335 1870 2249
3 1945 2257 2291
3 828 463 2411
3 1246 2088 2208
3 2060 798 2307
3 1773 1159 2240
3 1187 2112 2248
3 1352 2237 2351
3 2037 1322 2188
3 1941 1499 2433
3 2322 225 2510
3 1031 1034 2236
3 327 2188 2321
3 595 2032 2273
3 1464 1462 2347
3 1285 1992 2232
3 799 2055 2237
3 443 278 2210
3 784 874 2178
3 392 396 2431
3 191 95 2309
3 879 784 2178
3 524 511 2429
3 2128 2011 2270
3 895 896 2257
3 2206 1152 2324
3 318 2171 2172
3 2259 1549 2379
3 1214 1410 2351
3 306 308 2278
3 2022 251 2247
3 1757 1729 2309
3 1283 1918 2524
3 996 1706 2492
3 557 2044 2207
3 1798 1448 2364
3 1447 2250 2310
3 559 1750 2403
3 1363 1011 2233
3 1343 1168 2187
3 1407 2044 2256
3 1462 1460 2365
3 1995 2331 2458
3 327 1987 2188
3 2160 254 2380
3 1681 958 2287
3 2031 1160 2250
3 1600 689 2413
3 2219 1692 2239
3 1494 1675 2522
3 1281 1916 2448
3 907 909 2175
3 565 2167 2276
3 2241 1276 2275
3 1978 316 2443
3 2151 212 2350
3 203 1847 2104
3 2049 1481 2523
3 1961 1362 2376
3 2187 1393 2457
3 940 796 2532
3 2293 1349 2329
3 572 1897 2537
3 332 739 2282
3 2052 567 2239
3 1437 1370 2277
3 567 2219 2239
3 667 626 2452
3 1914 2206 2324
3 2243 939 2392
3 2136 1343 2187
3 257 1654 2530
3 1376 1378 2283
3 2076 1982 2272
3 2083 760 2243
3 1944 1945 2291
3 1771 1839 2359
3 1404 1403 2399
3 1875 1866 2320
3 1460 1337 2412
3 760 783 2243
3 1276 1366 2275
3 1428 2227 2366
3 1882 1605 2284
3 1739 1429 2459
3 2321 2188 2434
3 1328 1327 2315
3 798 2189 2307
3 2152 1174 2207
3 2182 1247 2323
3 1516 1514 2367
3 293 291 2306
3 556 537 2201
3 1298 1300 2314
3 1400 1399 2316
3 1649 2236 2463
3 833 831 2424
3 2127 2050 2333
3 1057 914 2328
3 1839 193 2359
3 761 1741 2258
3 1186 1970 2422
3 1429 2366 2382
3 2211 1271 2271
3 1733 1248 2534
3 13 2114 2136
3 2078 390 2431
3 1533 1536 2340
3 1690 2145 2446
3 1277 2308 2370
3 1168 1393 2187
3 1597 2047 2268
3 587 565 2276
3 1908 244 2401
3 225 125 2284
3 610 2130 2468
3 1749 2105 2326
3 1913 1914 2324
3 2366 2208 2382
3 1391 1876 2295
3 457 552 2264
3 653 688 2209
3 1601 2443 2514
3 682 2138 2211
3 992 1980 2244
3 55 56 2313
3 1645 1495 2493
3 473 477 2483
3 202 1724 2329
3 465 828 2429
3 1277 1966 2308
3 1416 2330 2406
3 1912 1364 2455
3 1716 1483 2375
3 2019 1651 2485
3 1725 2137 2226
3 201 1323 2216
3 878 1083 2213
3 2072 2073 2245
3 1563 1777 2405
3 244 2028 2401
3 2016 1564 2422
3 1682 1497 2461
3 1962 1153 2362
3 1298 2314 2358
3 1384 1385 2391
3 688 1320 2209
3 1587 2179 2435
3 786 380 2497
3 1395 1522 2341
3 2032 1919 2273
3 251 2013 2247
3 2219 2031 2250
3 2397 552 2453
3 1765 255 2489
3 2475 1825 2524
3 1202 1204 2301
3 445 2078 2411
3 323 2229 2296
3 1286 2384 2408
3 537 551 2201
3 1724 237 2293
3 84 85 2335
3 1471 1126 2319
3 1635 1634 2511
3 300 302 2338
3 698 666 2318
3 1030 1031 2236
3 2098 1457 2271
3 696 1821 2426
3 1457 1492 2447
3 1956 2336 2469
3 331 323 2296
3 1284 1491 2342
3 2011 1996 2270
3 256 183 2303
3 160 257 2304
3 2204 1589 2501
3 1891 1014 2280
3 719 725 2336
3 1354 1808 2381
3 437 430 2494
3 2377 218 2391
3 2211 2271 2447
3 1407 2256 2290
3 2365 1460 2412
3 2047 1498 2268
3 1825 1283 2524
3 1499 1825 2475
3 1226 1249 2281
3 2051 2243 2392
3 2250 1160 2310
3 111 112 2346
3 304 306 2345
3 1341 1352 2351
3 2166 191 2504
3 2223 1836 2242
3 1996 247 2481
3 1049 1051 2331
3 1086 1298 2358
3 2130 595 2273
3 1249 2111 2263
3 680 1995 2458
3 1511 2140 2346
3 102 103 2355
3 469 473 2453
3 961 2072 2245
3 2073 1282 2245
3 1442 1443 2525
3 74 192 2361
3 2163 1586 2435
3 1519 1518 2449
3 897 2274 2500
3 303 444 2317
3 1615 1614 2423
3 197 2009 2404
3 1634 2281 2511
3 1780 1781 2419
3 1435 1623 2465
3 1286 1774 2384
3 384 361 2339
3 193 1901 2359
3 1165 2433 2475
3 2277 1370 2386
3 677 653 2209
3 1994 1516 2367
3 1479 1478 2440
3 1165 1512 2433
3 1644 1353 2417
3 1711 1712 2353
3 2193 1615 2425
3 1613 1956 2469
3 1440 1173 2330
3 2269 1479 2440
3 222 2218 2465
3 391 389 2503
3 306 2278 2345
3 468 2090 2365
3 221 2246 2526
3 1445 1446 2504
3 939 1844 2392
3 86 87 2373
3 1429 1428 2366
3 2053 2103 2383
3 1348 1212 2312
3 805 750 2371
3 997 1286 2408
3 1152 869 2363
3 2063 2064 2238
3 192 1994 2367
3 1160 2043 2310
3 1926 2151 2350
3 2059 2098 2271
3 1897 1366 2537
3 215 2262 2437
3 1655 1732 2476
3 2415 1128 2454
3 1320 2213 2214
3 7 258 2357
3 259 155 2356
3 2171 1530 2172
3 347 351 2407
3 1077 1078 2343
3 239 2003 2279
3 1446 1128 2415
3 1034 1033 2410
3 601 627 2442
3 1154 1653 2234
3 397 2060 2405
3 2142 794 2272
3 442 2063 2238
3 1863 1215 2378
3 794 2076 2272
3 1883 1375 2505
3 1320 878 2213
3 342 468 2344
3 1903 218 2377
3 380 376 2497
3 1549 1547 2379
3 1148 1165 2475
3 2157 226 2507
3 829 972 2326
3 884 1957 2466
3 2291 1077 2343
3 65 66 2395
3 787 2052 2518
3 2298 1348 2312
3 1946 2343 2396
3 1653 256 2535
3 1842 1548 2472
3 1957 2301 2466
3 1366 1277 2370
3 2213 1432 2214
3 961 2245 2383
3 218 2093 2391
3 1376 2283 2421
3 1873 2127 2333
3 1019 1021 2512
3 1128 1127 2454
3 1104 1434 2450
3 2130 1439 2468
3 2396 2110 2482
3 2186 855 2283
3 1724 2293 2329
3 1163 1059 2372
3 1614 2389 2423
3 53 54 2402
3 1063 1707 2334
3 2283 855 2421
3 1385 1863 2436
3 364 1883 2505
3 517 1890 2387
3 1145 996 2492
3 1047 1287 2348
3 2148 1875 2320
3 205 2176 2416
3 1372 1844 2478
3 1211 2219 2250
3 1141 898 2368
3 245 1909 2420
3 2278 327 2321
3 2389 1397 2423
3 2256 513 2290
3 559 2403 2456
3 1137 1340 2374
3 2093 1384 2391
3 1918 1148 2524
3 1030 2236 2427
3 1867 1895 2513
3 2014 517 2387
3 2271 1457 2447
3 1143 2028 2353
3 1904 194 2432
3 1148 2475 2524
3 1574 1523 2436
3 2213 1083 2311
3 1997 358 2325
3 2139 246 2506
3 1370 1369 2386
3 1271 2059 2271
3 1034 2173 2463
3 1123 1412 2393
3 1578 1827 2515
3 2209 1320 2424
3 2079 1504 2210
3 1361 2168 2305
3 1491 1489 2403
3 238 1725 2226
3 1190 986 2334
3 1547 1545 2508
3 1891 1613 2469
3 1153 1885 2362
3 2208 1632 2382
3 2287 1281 2448
3 1356 1376 2421
3 1965 2349 2515
3 2155 1186 2422
3 1522 2014 2387
3 2158 1468 2323
3 2050 954 2333
3 1397 1809 2423
3 1362 1360 2376
3 1852 1985 2397
3 2069 1691 2446
3 789 2066 2425
3 1895 755 2513
3 1707 1154 2234
3 372 374 2430
3 2225 787 2518
3 2028 1206 2401
3 986 1063 2334
3 1912 726 2439
3 1340 1342 2400
3 1916 1145 2448
3 2236 1649 2427
3 2374 1340 2400
3 2222 1407 2290
3 2324 1152 2363
3 241 2220 2472
3 765 2190 2384
3 2375 667 2452
3 2330 1173 2406
3 1181 1972 2500
3 2126 1382 2388
3 1173 1012 2406
3 315 313 2495
3 1015 1373 2385
3 97 221 2526
3 1937 1397 2389
3 930 1061 2462
3 971 1096 2496
3 45 46 2485
3 669 791 2529
3 1104 2450 2521
3 382 378 2390
3 2191 1371 2536
3 2235 1036 2286
3 831 2209 2424
3 762 1997 2349
3 2379 1547 2508
3 2177 1359 2467
3 2403 1489 2456
3 796 785 2532
3 219 1902 2516
3 1519 2300 2480
3 1065 1655 2476
3 1375 1473 2505
3 1489 1490 2456
3 390 392 2431
3 2247 2013 2464
3 1135 1930 2369
3 2278 1583 2345
3 626 622 2452
3 631 2298 2312
3 2233 1348 2298
3 1398 1974 2499
3 1706 1681 2492
3 261 130 2444
3 32 260 2445
3 822 2099 2368
3 1365 1912 2439
3 941 940 2418
3 1446 2166 2504
3 2106 1121 2414
3 2300 1519 2449
3 1803 1104 2521
3 1732 1570 2476
3 1413 2051 2392
3 2122 1946 2396
3 2238 1868 2520
3 477 556 2483
3 2397 1985 2533
3 463 445 2411
3 2163 1185 2488
3 1126 2141 2319
3 1755 2264 2533
3 972 2204 2501
3 2230 1533 2340
3 1774 1773 2503
3 1997 2325 2349
3 1004 2069 2446
3 2159 31 2445
3 131 2160 2444
3 1371 2191 2451
3 1001 2154 2486
3 1682 2230 2340
3 2103 961 2383
3 1033 1151 2410
3 382 2390 2531
3 1504 2079 2520
3 1583 2278 2321
3 511 465 2429
3 250 2024 2479
3 2208 2088 2509
3 619 620 2484
3 1246 2208 2366
3 2141 1209 2319
3 1359 1413 2467
3 1295 1459 2458
3 2218 1435 2465
3 2281 1249 2511
3 2293 237 2354
3 2207 1398 2499
3 1564 2155 2422
3 552 469 2453
3 1947 224 2498
3 2062 1568 2490
3 2018 205 2416
3 260 2159 2445
3 2160 261 2444
3 2092 610 2468
3 194 2195 2432
3 1432 2213 2311
3 211 2251 2464
3 2378 856 2527
3 1536 1532 2534
3 2364 786 2497
3 2438 1438 2478
3 1185 1948 2488
3 2042 941 2418
3 1582 2321 2434
3 885 1891 2469
3 1364 2048 2455
3 1693 2225 2518
3 401 382 2531
3 1338 2247 2464
3 442 2238 2520
3 1292 2117 2428
3 2274 1350 2500
3 2066 2193 2425
3 2179 1184 2435
3 898 822 2368
3 2436 1863 2527
3 1844 1016 2478
3 2184 1001 2486
3 557 2207 2499
3 2013 211 2464
3 2254 250 2479
3 1350 1181 2500
3 2009 248 2470
3 246 2140 2506
3 1574 2436 2527
3 2139 1419 2517
3 316 1971 2514
3 1319 2122 2482
3 226 2006 2507
3 1400 2270 2481
3 1681 2287 2448
3 2325 1578 2349
3 232 1652 2487
3 1320 2214 2424
3 1632 2208 2509
3 248 2288 2470
3 1406 1141 2460
3 2188 1322 2434
3 2244 1980 2441
3 2088 1255 2509
3 1280 2109 2427
3 2060 2307 2405
3 2236 1034 2463
3 1745 2293 2354
3 2122 2396 2482
3 2109 1030 2427
3 2307 1563 2405
3 1429 2382 2459
3 224 2267 2498
3 682 2211 2447
3 2079 442 2520
3 2348 1287 2398
3 2220 1842 2472
3 1335 2249 2466
3 1249 2263 2511
3 443 2210 2519
3 2385 1373 2394
3 1594 2184 2486
3 2052 2239 2518
3 1568 2439 2490
3 2349 1578 2515
3 2344 468 2412
3 2270 1996 2481
3 1735 2244 2441
3 2260 1471 2477
3 2210 1504 2519
3 1434 2297 2450
3 2297 1419 2450
3 2263 1660 2502
3 2404 2009 2470
3 1718 2385 2394
3 1371 2194 2536
3 2317 444 2461
3 1443 2322 2525
3 1716 2375 2452
3 1863 2378 2527
3 2439 726 2490
3 1057 2328 2451
3 1638 2404 2470
3 1454 2234 2535
3 755 2320 2513
3 2234 1653 2535
3 2264 552 2533
3 1419 2297 2517
3 1392 2322 2510
3 552 2397 2533
3 1798 2364 2497
3 2322 1392 2525
3 2382 1631 2459
3 1016 2438 2478
3 1366 2370 2537
3 1742 2491 2530
3 2491 257 2530
CELL_TYPES 4886
5
5
5
5
5
5
5
5
5
5
5
5
5
5
5
5
5
5
5
5
5
5
5
5
5
5
5
5
5
5
5
5
5
5
5
5
5
5
5
5
5
5
5
5
5
5
5
5
5
5
5
5
5
5
5
5
5
5
5
5
5
5
5
5
5
5
5
5
5
5
5
5
5
5
5
5
5
5
5
5
5
5
5
5
5
5
5
5
5
5
5
5
5
5
5
5
5
5
5
5
5
5
5
5
5
5
5
5
5
5
5
5
5
5
5
5
5
5
5
5
5
5
5
5
5
5
5
5
5
5
5
5
5
5
5
5
5
5
5
5
5
5
5
5
5
5
5
5
5
5
5
5
5
5
5
5
5
5
5
5
5
5
5
5
5
5
5
5
5
5
5
5
5
5
5
5
5
5
5
5
5
5
5
5
5
5
5
5
5
5
5
5
5
5
5
5
5
5
5
5
5
5
5
5
5
5
5
5
5
5
5
5
5
5
5
5
5
5
5
5
5
5
5
5
5
5
5
5
5
5
5
5
5
5
5
5
5
5
5
5
5
5
5
5
5
5
5
5
5
5
5
5
5
5
5
5
5
5
5
5
5
5
5
5
5
5
5
5
5
5
5
5
5
5
5
5
5
5
5
5
5
5
5
5
5
5
5
5
5
5
5
5
5
5
5
5
5
5
5
5
5
5
5
5
5
5
5
5
5
5
5
5
5
5
5
5
5
5
5
5
5
5
5
5
5
5
5
5
5
5
5
5
5
5
5
5
5
5
5
5
5
5
5
5
5
5
5
5
5
5
5
5
5
5
5
5
5
5
5
5
5
5
5
5
5
5
5
5
5
5
5
5
5
5
5
5
5
5
5
5
5
5
5
5
5
5
5
5
5
5
5
5
5
5
5
5
5
5
5
5
5
5
5
5
5
5
5
5
5
5
5
5
5
5
5
5
5
5
5
5
5
5
5
5
5
5
5
5
5
5
5
5
5
5
5
5
5
5
5
5
5
5
5
5
5
5
5
5
5
5
5
5
5
5
5
5
5
5
5
5
5
5
5
5
5
5
5
5
5
5
5
5
5
5
5
5
5
5
5
5
5
5
5
5
5
5
5
5
5
5
5
5
5
5
5
5
5
5
5
5
5
5
5
5
5
5
5
5
5
5
5
5
5
5
5
5
5
5
5
5
5
5
5
5
5
5
5
5
5
5
5
5
5
5
5
5
5
5
5
5
5
5
5
5
5
5
5
5
5
5
5
5
5
5
5
5
5
5
5
5
5
5
5
5
5
5
5
5
5
5
5
5
5
5
5
5
5
5
5
5
5
5
5
5
5
5
5
5
5
5
5
5
5
5
5
5
5
5
5
5
5
5
5
5
5
5
5
5
5
5
5
5
5
5
5
5
5
5
5
5
5
5
5
5
5
5
5
5
5
5
5
5
5
5
5
5
5
5
5
5
5
5
5
5
5
5
5
5
5
5
5
5
5
5
5
5
5
5
5
5
5
5
5
5
5
5
5
5
5
5
5
5
5
5
5
5
5
5
5
5
5
5
5
5
5
5
5
5
5
5
5
5
5
5
5
5
5
5
5
5
5
5
5
5
5
5
5
5
5
5
5
5
5
5
5
5
5
5
5
5
5
5
5
5
5
5
5
5
5
5
5
5
5
5
5
5
5
5
5
5
5
5
5
5
5
5
5
5
5
5
5
5
5
5
5
5
5
5
5
5
5
5
5
5
5
5
5
5
5
5
5
5
5
5
5
5
5
5
5
5
5
5
5
5
5
5
5
5
5
5
5
5
5
5
5
5
5
5
5
5
5
5
5
5
5
5
5
5
5
5
5
5
5
5
5
5
5
5
5
5
5
5
5
5
5
5
5
5
5
5
5
5
5
5
5
5
5
5
5
5
5
5
5
5
5
5
5
5
5
5
5
5
5
5
5
5
5
5
5
5
5
5
5
5
5
5
5
5
5
5
5
5
5
5
5
5
5
5
5
5
5
5
5
5
5
5
5
5
5
5
5
5
5
5
5
5
5
5
5
5
5
5
5
5
5
5
5
5
5
5
5
5
5
5
5
5
5
5
5
5
5
5
5
5
5
5
5
5
5
5
5
5
5
5
5
5
5
5
5
5
5
5
5
5
5
5
5
5
5
5
5
5
5
5
5
5
5
5
5
5
5
5
5
5
5
5
5
5
5
5
5
5
5
5
5
5
5
5
5
5
5
5
5
5
5
5
5
5
5
5
5
5
5
5
5
5
5
5
5
5
5
5
5
5
5
5
5
5
5
5
5
5
5
5
5
5
5
5
5
5
5
5
5
5
5
5
5
5
5
5
5
5
5
5
5
5
5
5
5
5
5
5
5
5
5
5
5
5
5
5
5
5
5
5
5
5
5
5
5
5
5
5
5
5
5
5
5
5
5
5
5
5
5
5
5
5
5
5
5
5
5
5
5
5
5
5
5
5
5
5
5
5
5
5
5
5
5
5
5
5
5
5
5
5
5
5
5
5
5
5
5
5
5
5
5
5
5
5
5
5
5
5
5
5
5
5
5
5
5
5
5
5
5
5
5
5
5
5
5
5
5
5
5
5
5
5
5
5
5
5
5
5
5
5
5
5
5
5
5
5
5
5
5
5
5
5
5
5
5
5
5
5
5
5
5
5
5
5
5
5
5
5
5
5
5
5
5
5
5
5
5
5
5
5
5
5
5
5
5
5
5
5
5
5
5
5
5
5
5
5
5
5
5
5
5
5
5
5
5
5
5
5
5
5
5
5
5
5
5
5
5
5
5
5
5
5
5
5
5
5
5
5
5
5
5
5
5
5
5
5
5
5
5
5
5
5
5
5
5
5
5
5
5
5
5
5
5
5
5
5
5
5
5
5
5
5
5
5
5
5
5
5
5
5
5
5
5
5
5
5
5
5
5
5
5
5
5
5
5
5
5
5
5
5
5
5
5
5
5
5
5
5
5
5
5
5
5
5
5
5
5
5
5
5
5
5
5
5
5
5
5
5
5
5
5
5
5
5
5
5
5
5
5
5
5
5
5
5
5
5
5
5
5
5
5
5
5
5
5
5
5
5
5
5
5
5
5
5
5
5
5
5
5
5
5
5
5
5
5
5
5
5
5
5
5
5
5
5
5
5
5
5
5
5
5
5
5
5
5
5
5
5
5
5
5
5
5
5
5
5
5
5
5
5
5
5
5
5
5
5
5
5
5
5
5
5
5
5
5
5
5
5
5
5
5
5
5
5
5
5
5
5
5
5
5
5
5
5
5
5
5
5
5
5
5
5
5
5
5
5
5
5
5
5
5
5
5
5
5
5
5
5
5
5
5
5
5
5
5
5
5
5
5
5
5
5
5
5
5
5
5
5
5
5
5
5
5
5
5
5
5
5
5
5
5
5
5
5
5
5
5
5
5
5
5
5
5
5
5
5
5
5
5
5
5
5
5
5
5
5
5
5
5
5
5
5
5
5
5
5
5
5
5
5
5
5
5
5
5
5
5
5
5
5
5
5
5
5
5
5
5
5
5
5
5
5
5
5
5
5
5
5
5
5
5
5
5
5
5
5
5
5
5
5
5
5
5
5
5
5
5
5
5
5
5
5
5
5
5
5
5
5
5
5
5
5
5
5
5
5
5
5
5
5
5
5
5
5
5
5
5
5
5
5
5
5
5
5
5
5
5
5
5
5
5
5
5
5
5
5
5
5
5
5
5
5
5
5
5
5
5
5
5
5
5
5
5
5
5
5
5
5
5
5
5
5
5
5
5
5
5
5
5
5
5
5
5
5
5
5
5
5
5
5
5
5
5
5
5
5
5
5
5
5
5
5
5
5
5
5
5
5
5
5
5
5
5
5
5
5
5
5
5
5
5
5
5
5
5
5
5
5
5
5
5
5
5
5
5
5
5
5
5
5
5
5
5
5
5
5
5
5
5
5
5
5
5
5
5
5
5
5
5
5
5
5
5
5
5
5
5
5
5
5
5
5
5
5
5
5
5
5
5
5
5
5
5
5
5
5
5
5
5
5
5
5
5
5
5
5
5
5
5
5
5
5
5
5
5
5
5
5
5
5
5
5
5
5
5
5
5
5
5
5
5
5
5
5
5
5
5
5
5
5
5
5
5
5
5
5
5
5
5
5
5
5
5
5
5
5
5
5
5
5
5
5
5
5
5
5
5
5
5
5
5
5
5
5
5
5
5
5
5
5
5
5
5
5
5
5
5
5
5
5
5
5
5
5
5
5
5
5
5
5
5
5
5
5
5
5
5
5
5
5
5
5
5
5
5
5
5
5
5
5
5
5
5
5
5
5
5
5
5
5
5
5
5
5
5
5
5
5
5
5
5
5
5
5
5
5
5
5
5
5
5
5
5
5
5
5
5
5
5
5
5
5
5
5
5
5
5
5
5
5
5
5
5
5
5
5
5
5
5
5
5
5
5
5
5
5
5
5
5
5
5
5
5
5
5
5
5
5
5
5
5
5
5
5
5
5
5
5
5
5
5
5
5
5
5
5
5
5
5
5
5
5
5
5
5
5
5
5
5
5
5
5
5
5
5
5
5
5
5
5
5
5
5
5
5
5
5
5
5
5
5
5
5
5
5
5
5
5
5
5
5
5
5
5
5
5
5
5
5
5
5
5
5
5
5
5
5
5
5
5
5
5
5
5
5
5
5
5
5
5
5
5
5
5
5
5
5
5
5
5
5
5
5
5
5
5
5
5
5
5
5
5
5
5
5
5
5
5
5
5
5
5
5
5
5
5
5
5
5
5
5
5
5
5
5
5
5
5
5
5
5
5
5
5
5
5
5
5
5
5
5
5
5
5
5
5
5
5
5
5
5
5
5
5
5
5
5
5
5
5
5
5
5
5
5
5
5
5
5
5
5
5
5
5
5
5
5
5
5
5
5
5
5
5
5
5
5
5
5
5
5
5
5
5
5
5
5
5
5
5
5
5
5
5
5
5
5
5
5
5
5
5
5
5
5
5
5
5
5
5
5
5
5
5
5
5
5
5
5
5
5
5
5
5
5
5
5
5
5
5
5
5
5
5
5
5
5
5
5
5
5
5
5
5
5
5
5
5
5
5
5
5
5
5
5
5
5
5
5
5
5
5
5
5
5
5
5
5
5
5
5
5
5
5
5
5
5
5
5
5
5
5
5
5
5
5
5
5
5
5
5
5
5
5
5
5
5
5
5
5
5
5
5
5
5
5
5
5
5
5
5
5
5
5
5
5
5
5
5
5
5
5
5
5
5
5
5
5
5
5
5
5
5
5
5
5
5
5
5
5
5
5
5
5
5
5
5
5
5
5
5
5
5
5
5
5
5
5
5
5
5
5
5
5
5
5
5
5
5
5
5
5
5
5
5
5
5
5
5
5
5
5
5
5
5
5
5
5
5
5
5
5
5
5
5
5
5
5
5
5
5
5
5
5
5
5
5
5
5
5
5
5
5
5
5
5
5
5
5
5
5
5
5
5
5
5
5
5
5
5
5
5
5
5
5
5
5
5
5
5
5
5
5
5
5
5
5
5
5
5
5
5
5
5
5
5
5
5
5
5
5
5
5
5
5
5
5
5
5
5
5
5
5
5
5
5
5
5
5
5
5
5
5
5
5
5
5
5
5
5
5
5
5
5
5
5
5
5
5
5
5
5
5
5
5
5
5
5
5
5
5
5
5
5
5
5
5
5
5
5
5
5
5
5
5
5
5
5
5
5
5
5
5
5
5
5
5
5
5
5
5
5
5
5
5
5
5
5
5
5
5
5
5
5
5
5
5
5
5
5
5
5
5
5
5
5
5
5
5
5
5
5
5
5
5
5
5
5
5
5
5
5
5
5
5
5
5
5
5
5
5
5
5
5
5
5
5
5
5
5
5
5
5
5
5
5
5
5
5
5
5
5
5
5
5
5
5
5
5
5
5
5
5
5
5
5
5
5
5
5
5
5
5
5
5
5
5
5
5
5
5
5
5
5
5
5
5
5
5
5
5
5
5
5
5
5
5
5
5
5
5
5
5
5
5
5
5
5
5
5
5
5
5
5
5
5
5
5
5
5
5
5
5
5
5
5
5
5
5
5
5
5
5
5
5
5
5
5
5
5
5
5
5
5
5
5
5
5
5
5
5
5
5
5
5
5
5
5
5
5
5
5
5
5
5
5
5
5
5
5
5
5
5
5
5
5
5
5
5
5
5
5
5
5
5
5
5
5
5
5
5
5
5
5
5
5
5
5
5
5
5
5
5
5
5
5
5
5
5
5
5
5
5
5
5
5
5
5
5
5
5
5
5
5
5
5
5
5
5
5
5
5
5
5
5
5
5
5
5
5
5
5
5
5
5
5
5
5
5
5
5
5
5
5
5
5
5
5
5
5
5
5
5
5
5
5
5
5
5
5
5
5
5
5
5
5
5
5
5
5
5
5
5
5
5
5
5
5
5
5
5
5
5
5
5
5
5
5
5
5
5
5
5
5
5
5
5
5
5
5
5
5
5
5
5
5
5
5
5
5
5
5
5
5
5
5
5
5
5
5
5
5
5
5
5
5
5
5
5
5
5
5
5
5
5
5
5
5
5
5
5
5
5
5
5
5
5
5
5
5
5
5
5
5
5
5
5
5
5
5
5
5
5
5
5
5
5
5
5
5
5
5
5
5
5
5
5
5
5
5
5
5
5
5
5
5
5
5
5
5
5
5
5
5
5
5
5
5
5
5
5
5
5
5
5
5
5
5
5
5
5
5
5
5
5
5
5
5
5
5
5
5
5
5
5
5
5
5
5
5
5
5
5
5
5
5
5
5
5
5
5
5
5
5
5
5
5
5
5
5
5
5
5
5
5
5
5
5
5
5
5
5
5
5
5
5
5
5
5
5
5
5
5
5
5
5
5
5
5
5
5
5
5
5
5
5
5
5
5
5
5
5
5
5
5
5
5
5
5
5
5
5
5
5
5
5
5
5
5
5
5
5
5
5
5
5
5
5
5
5
5
5
5
5
5
5
5
5
5
5
5
5
5
5
5
5
5
5
5
5
5
5
5
5
5
5
5
5
5
5
5
5
5
5
5
5
5
5
5
5
5
5
5
5
5
5
5
5
5
5
5
5
5
5
5
5
5
5
5
5
5
5
5
5
5
5
5
5
5
5
5
5
5
5
5
5
5
5
5
5
5
5
5
5
5
5
5
5
5
5
5
5
5
5
5
5
5
5
5
5
5
5
5
5
5
5
5
5
5
5
5
5
5
5
5
5
5
5
5
5
5
5
5
5
5
5
5
5
5
5
5
5
5
5
5
5
5
5
5
5
5
5
5
5
5
5
5
5
5
5
5
5
5
5
5
5
5
5
5
5
5
5
5
5
5
5
5
5
5
5
5
5
5
5
5
5
5
5
5
5
5
5
5
5
5
5
5
5
5
5
5
5
5
5
5
5
5
5
5
5
5
5
5
5
5
5
5
5
5
5
5
5
5
5
5
5
5
5
5
5
5
5
5
5
5
5
5
5
5
5
5
5
5
5
5
5
5
5
5
5
5
5
5
5
5
5
5
5
5
5
5
5
5
5
5
5
5
5
5
5
5
5
5
5
5
5
5
5
5
5
5
5
5
5
5
5
5
5
5
5
5
5
5
5
5
5
5
5
5
5
5
5
5
5
5
5
5
5
5
5
5
5
5
5
5
5
5
5
5
5
5
5
5
5
5
5
5
5
5
5
5
5
5
5
5
5
5
5
5
5
5
5
5
5
5
5
5
5
5
5
5
5
5
5
5
5
5
5
5
5
5
5
5
5
5
5
5
5
5
5
5
5
5
5
5
5
5
5
5
5
5
5
5
5
5
5
5
5
5
5
5
5
5
5
5
5
5
5
5
5
5
5
5
5
5
5
5
5
5
5
5
5
5
5
5
5
5
5
5
5
5
5
5
5
5
5
5
5
5
5
5
5
5
5
5
5
5
5
5
5
5
5
5
5
5
5
5
5
5
5
5
5
5
5
5
5
5
5
5
5
5
5
5
5
5
5
5
5
5
5
5
5
5
5
5
5
5
5
5
5
5
5
5
5
5
5
5
5
5
5
5
5
5
5
5
5
5
5
5
5
5
5
5
5
5
5
5
5
5
5
5
5
5
5
5
5
5
5
5
5
5
5
5
5
5
5
5
5
5
5
5
5
5
5
5
5
5
5
5
5
5
5
5
5
5
5
5
5
5
5
5
5
5
5
5
5
5
5
5
5
5
5
5
5
5
5
5
5
5
5
5
5
5
5
5
5
5
5
5
5
5
5
5
5
5
5
5
5
5
5
5
5
5
5
5
5
5
5
5
5
5
5
5
5
5
5
5
5
5
5
5
5
5
5
5
5
5
5
5
5
5
5
5
5
5
5
5
5
5
5
5
5
5
5
5
5
5
5
5
5
5
5
5
5
5
5
5
5
5
5
5
5
5
5
5
5
5
5
5
5
5
5
5
5
5
5
5
5
5
5
5
5
5
5
5
5
5
5
5
5
5
5
5
5
5
5
5
5
5
5
5
5
5
5
5
5
5
5
5
5
5
5
5
5
5
5
5
5
5
5
5
5
5
5
5
5
5
5
5
5
5
5
5
5
5
5
5
5
5
5
5
5
5
5
5
5
5
5
5
5
5
5
5
5
5
5
5
5
5
5
5
5
5
5
5
5
5
5
5
5
5
5
5
5
5
5
5
5
5
5
5
5
5
5
5
5
5
5
5
5
5
5
5
5
5
5
5
5
5
5
5
5
5
5
5
5
5
5
5
5
5
5
5
5
5
5
5
5
5
5
5
5
5
5
5
5
5
5
5
5
5
5
5
5
5
5
5
5
5
5
5
5
5
5
5
5
5
5
5
5
5
5
5
5
5
5
5
5
5
5
5
5
5
5
5
5
5
5
5
5
5
5
5
5
5
5
5
5
5
5
5
5
5
5
5
5
5
5
5
5
5
5
5
5
5
5
5
5
5
5
5
5
5
5
5
5
5
5
5
5
5
5
5
5
5
5
5
5
5
5
5
5
5
5
5
5
5
5
5
5
5
5
5
5
5
5
5
5
5
5
5
5
5
5
5
5
5
5
5
5
5
5
5
5
5
5
5
5
5
5
5
5
5
5
5
5
5
5
5
5
5
5
5
5
5
5
5
5
5
5
5
5
5
5
5
5
5
5
5
5
5
5
5
5
5
5
5
5
5
5
5
5
5
5
5
5
5
5
5
5
5
5
5
5
5
5
5
5
5
5
5
5
5
5
5
5
5
5
5
5
5
5
5
5
5
5
5
5
5
5
5
5
5
5
5
5
5
5
5
5
5
5
5
5
5
5
5
5
5
5
5
5
5
5
5
5
5
5
5
5
5
5
5
5
5
5
5
5
5
5
5
5
5
5
5
5
5
5
5
5
5
5
5
5
5
5
5
5
5
5
5
5
5
5
5
5
5
5
5
5
5
5
5
5
5
5
5
5
5
5
5
5
5
5
5
5
5
5
5
5
5
5
5
5
5
5
5
5
5
5
5
5
5
5
5
5
5
5
5
5
5
5
5
5
5
5
5
5
5
5
5
5
5
5
5
5
5
5
5
5
5
5
5
5
5
5
5
5
5
5
5
5
5
5
5
5
5
5
5
5
5
5
5
5
5
5
5
5
5
5
5
5
5
5
5
5
5
5
5
5
5
5
5
5
5
5
5
5
5
5
5
5
5
5
5
5
5
5
5
5
5
5
5
5
5
5
5
5
5
5
5
5
5
5
5
5
5
5
5
5
5
5
5
5
5
5
5
5
5
5
5
5
5
5
5
5
5
5
5
5
5
5
5
5
5
5
5
5
5
5
5
5
5
5
5
5
5
5
5
5
5
5
5
5
5
5
5
5
5
5
5
5
5
5
5
5
5
5
5
5
5
5
5
5
5
5
5
5
5
5
5
5
5
5
5
5
5
5
5
5
5
5
5
5
5
5
5
5
5
5
5
5
5
5
5
5
5
5
5
5
5
5
5
5
5
5
5
5
5
5
5
5
5
5
5
5
5
5
5
5
5
5
5
5
5
5
5
5
5
5
5
5
5
5
5
5
5
5
5
5
5
5
5
5
5
5
5
5
5
5
5
5
5
5
5
5
5
5
5
5
5
5
5
5
5
5
5
5
5
5
5
5
5
5
5
5
5
5
5
5
5
5
5
5
5
5
5
5
5
5
5
5
5
5
5
5
5
5
5
5
5
5
5
5
5
5
5
5
5
5
5
5
5
5
5
5
5
5
5
5
5
5
5
5
5
5
5
5
5
5
5
5
5
5
5
5
5
5
5
5
5
5
5
5
5
5
5
5
5
5
5
5
5
5
5
5
5
5
5
5
5
5
5
5
5
5
5
5
5
5
5
5
5
5
5
5
5
5
5
5
5
5
5
5
5
5
5
5
5
5
5
5
5
5
5
5
5
5
5
5
5
5
5
5
5
5
5
5
5
5
5
5
5
5
5
5
5
5
5
5
5
5
5
5
5
5
5
5
5
5
5
5
5
5
5
5
5
5
5
5
5
5
5
5
5
5
5
5
5
5
5
5
5
5
5
5
5
5
5
5
5
5
5
5
5
5
5
5
5
5
5
5
5
5
5
5
5
5
5
5
5
5
5
5
5
5
5
5
5
5
5
5
5
5
5
5
5
5
5
5
5
5
5
5
5
5
5
5
5
5
5
5
5
5
5
5
5
5
5
5
5
5
5
5
5
5
5
5
5
5
5
5
5
5
5
5
5
5
5
5
5
5
5
5
5
5
5
5
5
5
5
5
5
5
5
5
5
5
5
5
5
5
5
5
5
5
5
5
5
5
5
5
5
5
5
5
5
5
5
5
5
5
5
5
5
5
5
5
5
5
5
5
5
5
5
5
5
5
5
5
5
5
5
5
5
5
5
5
5
5
5
5
5
5
5
5
5
5
5
5
5
5
5
5
5
5
5
5
5
5
5
5
5
5
5
5
5
5
5
5
5
5
5
5
5
5
5
5
5
5
5
5
5
5
5
5
5
5
5
5
5
5
POINT_DATA 2538
VECTORS disp float
1.5509883657377287e-11 3.6591735715149706e-11 0.0
2.954677781435809e-11 -7.932977392674689e-11 0.0
0.0033999999910794025 2.2629507927762315e-11 0.0
0.0033999999674058606 -8.886380970785048e-11 0.0
0.001161039372479905 0.0004710914147994142 0.0
0.0024601541764407643 0.00020925316809352026 0.0
0.0016769657160874752 8.557170350898585e-5 0.0
3.217005413625487e-12 1.020766641080422e-12 0.0
6.644834139510256e-12 7.150706875549231e-12 0.0
5.72538821166197e-12 3.755028983228992e-12 0.0
5.352475974644211e-12 3.4437707349542252e-12 0.0
4.706191317465322e-12 2.3685084461548876e-12 0.0
4.2598629876333995e-12 1.4850253735108489e-12 0.0
3.8327928318265304e-12 6.76846346280591e-13 0.0
3.512765849482546e-12 -2.1489564134703258e-13 0.0
2.9680692113544605e-12 -1.1976979059834928e-12 0.0
3.20152821677532e-12 -2.14556178875967e-12 0.0
3.103281815709858e-12 -3.2809049832460665e-12 0.0
3.201593980116973e-12 -4.512434754520986e-12 0.0
3.4050916890474002e-12 -5.754159909505696e-12 0.0
3.447064692109208e-12 -6.874661232983472e-12 0.0
3.771988903638659e-12 -8.234561120246281e-12 0.0
3.832009401469121e-12 -9.30150946512355e-12 0.0
4.111820642489467e-12 -1.0618684950700615e-11 0.0
4.292802107366812e-12 -1.2050627309229521e-11 0.0
4.515955692052628e-12 -1.3411196557101914e-11 0.0
4.8151918731913325e-12 -1.507091093822934e-11 0.0
5.203897122622508e-12 -1.6951631930855322e-11 0.0
5.8362585609918e-12 -1.9326500139613533e-11 0.0
5.959002593986311e-12 -2.1861273649512283e-11 0.0
8.3585235601231e-12 -2.8212227837323015e-11 0.0
3.926298927785175e-12 -2.5139153242213746e-11 0.0
4.369448492188561e-5 -5.3823635896080275e-5 0.0
7.602303873936553e-5 -9.206127306819106e-5 0.0
0.00010727843714451254 -0.000125220544234444 0.0
0.00013704639125021207 -0.00015522407528576946 0.0
0.00016575107843381468 -0.00018306241721140982 0.0
0.00019396723653125383 -0.00020951275618459462 0.0
0.00022216782414229456 -0.00023465238065960823 0.0
0.0002500890255632625 -0.0002587110620725453 0.0
0.0002779879554547797 -0.00028192437078942094 0.0
0.00030594593658067376 -0.0003042797423782923 0.0
0.00033397348401985246 -0.0003259860080204932 0.0
0.0003623041149722252 -0.00034703220120322817 0.0
0.0003907263346750359 -0.0003674211730218854 0.0
0.00041937622527233145 -0.0003873195082549301 0.0
0.00044843513454569003 -0.00040666234990920547 0.0
0.0004775922973086158 -0.00042544058997063703 0.0
0.0005070600207777141 -0.00044377309317901844 0.0
0.0005368363781979825 -0.0004615533220047746 0.0
0.0005668921620510326 -0.00047889278784298537 0.0
0.0005972462196168226 -0.0004957821505167277 0.0
0.0006279367107476089 -0.0005122203376439299 0.0
0.0006588947009137712 -0.0005281995600837154 0.0
0.0006903139072779251 -0.0005437851695643419 0.0
0.0007218784242463029 -0.0005588965911800468 0.0
0.000753955568931526 -0.0005736016406055991 0.0
0.0007861509291157834 -0.0005878288445583471 0.0
0.0008187377249195663 -0.0006016611581046784 0.0
0.0008515684111116335 -0.0006150058654949026 0.0
0.0008848476819717203 -0.0006279677851381252 0.0
0.0009182228935568004 -0.0006404831138557402 0.0
0.000952054311841332 -0.0006525984200042572 0.0
0.0009861148390192557 -0.0006642293868438869 0.0
0.001020500621555583 -0.0006754570254237503 0.0
0.0010550762048811232 -0.0006862208653275267 0.0
0.0010900598633874626 -0.0006965749681683747 0.0
0.0011251215299266993 -0.0007064301707796572 0.0
0.0011605076876064595 -0.0007158457905745079 0.0
0.0011960473651550778 -0.0007247167657693085 0.0
0.0012318237254973362 -0.0007330658831908358 0.0
0.0012677931677591908 -0.000741008048091331 0.0
0.0013039073409651049 -0.0007483679604584995 0.0
0.0013402978881896655 -0.0007553088529316878 0.0
0.0013768836352152387 -0.0007617064278727956 0.0
0.0014135821881111816 -0.0007676847924224903 0.0
0.0014504889539428388 -0.0007730685375204725 0.0
0.001487377643116036 -0.0007780087909491127 0.0
0.0015244817443570047 -0.0007824679654824538 0.0
0.0015616067137609396 -0.0007863831875372679 0.0
0.0015988104318576907 -0.0007898769567830328 0.0
0.0016361715040442838 -0.0007928225515724645 0.0
0.00167324765366972 -0.0007951493223834105 0.0
0.0017106821011998175 -0.0007970710382531067 0.0
0.0017474956606976404 -0.0007983634448900743 0.0
0.0017847646190386464 -0.0007991773849065875 0.0
0.0018208753140713835 -0.00079934989165352 0.0
0.0018576138496080752 -0.0007990663105808089 0.0
0.0018929732742987812 -0.00079800967345682 0.0
0.0019281523947919936 -0.0007959608861763919 0.0
0.0019632279466547525 -0.0007934816886338019 0.0
0.0019982267200811723 -0.000789920928565974 0.0
0.0020327275439484737 -0.0007860241983659374 0.0
0.0020670824505450366 -0.0007811301852335124 0.0
0.002101764725293716 -0.0007756328619388815 0.0
0.0021358615930569345 -0.0007686155523989021 0.0
0.0021705910740394433 -0.0007607331750906465 0.0
0.0022057285851802997 -0.0007519377470961762 0.0
0.0022402759226236666 -0.0007421064109386447 0.0
0.0022751447232492806 -0.0007315758583744488 0.0
0.0023103898985333557 -0.0007201915735086878 0.0
0.0023457901065104085 -0.000708093746270932 0.0
0.0023809662052878726 -0.0006953696168547416 0.0
0.0024164771508444994 -0.0006818481153690167 0.0
0.002451675303317 -0.0006677282382667994 0.0
0.0024868395636956477 -0.0006531922729349054 0.0
0.0025221633974916065 -0.0006379504726094252 0.0
0.0025571512933942604 -0.0006222595209484581 0.0
0.002592121135006482 -0.0006060239945658868 0.0
0.0026268958820229913 -0.0005892867732797218 0.0
0.0026616912169433286 -0.000572028006991461 0.0
0.0026963398384511317 -0.0005541934199219775 0.0
0.0027308205813466125 -0.0005358218997725925 0.0
0.0027649543758477735 -0.000516947892631402 0.0
0.0027990006218647544 -0.0004975553993696606 0.0
0.00283296488556764 -0.00047755102931356036 0.0
0.0028666618248453382 -0.00045698592926304594 0.0
0.00290027958187922 -0.0004358924733347568 0.0
0.0029339503366347763 -0.0004140745765219852 0.0
0.0029674025950440852 -0.00039156776853645003 0.0
0.0030006988123556524 -0.0003684230061696845 0.0
0.003034151270672776 -0.00034447811350847405 0.0
0.0030677543800034855 -0.00031959091530230603 0.0
0.0031013094298271496 -0.000293718252149591 0.0
0.003134905008670465 -0.00026683337227799273 0.0
0.0031688127412329613 -0.000238662342912755 0.0
0.003203459931246132 -0.00020885581655926522 0.0
0.0032384030671004354 -0.0001771964596785148 0.0
0.0032740358828609057 -0.00014294072870341002 0.0
0.0033118942354415344 -0.00010478353640381912 0.0
0.0033508211034176025 -6.0801959238437755e-5 0.0
0.0033999999954142236 -2.4589712246097668e-11 0.0
0.003399999990435823 -2.7319583484047477e-11 0.0
0.003399999993633172 -1.7533019700883718e-11 0.0
0.003399999993656288 -1.5301949543840307e-11 0.0
0.0033999999941700027 -1.2630155830359754e-11 0.0
0.0033999999944397787 -1.0749614087124748e-11 0.0
0.003399999994552317 -9.363825028832505e-12 0.0
0.003399999994762497 -8.133453059744986e-12 0.0
0.0033999999948377316 -7.016552090239271e-12 0.0
0.003399999995006126 -5.9567697798209824e-12 0.0
0.0033999999952157504 -5.1080357759475525e-12 0.0
0.003399999995313591 -4.021434206058709e-12 0.0
0.0033999999954448406 -3.208667641377347e-12 0.0
0.0033999999955804153 -2.243082990419482e-12 0.0
0.0033999999956575437 -1.3130616415906842e-12 0.0
0.0033999999956867413 -2.925225619341783e-13 0.0
0.00339999999574514 7.397301223632927e-13 0.0
0.0033999999953622808 1.945429617669941e-12 0.0
0.003399999995698798 2.9332807245965667e-12 0.0
0.003399999995030872 4.2261324043618175e-12 0.0
0.003399999995054402 5.0912427332169904e-12 0.0
0.003399999994833478 6.0240906402843945e-12 0.0
0.003399999995018011 6.263843091446466e-12 0.0
0.0033999999950768568 8.19962640117595e-12 0.0
0.003399999997446575 3.609943358866452e-12 0.0
0.003144326170325772 0.00015060682914297969 0.0
0.002928102997876462 0.0002183441603444963 0.0
0.002735919141285276 0.00023424760506751213 0.0
0.002570808582531922 0.00022395173541953068 0.0
0.002457734388129559 0.00010814353972769109 0.0
0.002444495977516964 5.3585619927973386e-5 0.0
0.002404706520370004 2.8738473193364227e-5 0.0
0.0023543136231223625 2.7597030355803988e-5 0.0
0.0022955077225724407 3.786471461909402e-5 0.0
0.002233718058805676 4.945986993137267e-5 0.0
0.002169937012873781 6.0271646256257783e-5 0.0
0.002105053611541865 7.128664732996057e-5 0.0
0.0020377346108407086 8.017439581711416e-5 0.0
0.001967380496682751 8.64679908708324e-5 0.0
0.0018903908867810473 9.004060198577805e-5 0.0
0.0017993997384881135 9.169516627619334e-5 0.0
0.0015682753979931955 0.0001239909446092668 0.0
0.0014915287657378054 0.0001382780384131052 0.0
0.00142828707236697 0.00014590549178180988 0.0
0.0013732872164967974 0.00015176118588944794 0.0
0.001323544311155797 0.0001572512809565414 0.0
0.0012786837225370832 0.00016327241752837662 0.0
0.0012384535243165542 0.00017104454050871775 0.0
0.0012043118718103143 0.00018186096013188063 0.0
0.0011778465640104475 0.00020011331207057484 0.0
0.001159779080711319 0.00022822568678440246 0.0
0.001156925214808457 0.00027970056986697167 0.0
0.0011569065470801796 0.00035383760010867236 0.0
0.0010341626968052946 0.00048461621039584966 0.0
0.0008523260425192528 0.00046366545496951913 0.0
0.0005989281095841659 0.0003798529658975908 0.0
0.000318842502430453 0.0002467210826319349 0.0
0.0008907996426893258 -0.0006017644654181246 0.0
0.002374162002578803 -0.0006601030570986481 0.0
0.0011351200327070778 -0.0006826957087891762 0.0
0.0021241075114200587 -0.0007383208660419249 0.0
0.001393957764418744 -0.00073809695830117 0.0
0.0018718627652520965 -0.0007665682684550663 0.0
0.0016162534152147803 -0.0007626816865230597 0.0
0.0025883128668066704 -0.0005762287694551564 0.0
0.0007007870483482228 -0.0005258549761703461 0.0
0.0027530541919489255 -0.000491751427745448 0.0
0.0005456986373281672 -0.0004465526275585533 0.0
5.57892930771952e-5 -9.98328756422643e-6 0.0
0.0033406166995755444 -8.1577077762249e-6 0.0
0.0018136289064285154 0.00011005374549604502 0.0
0.002075425657133276 9.513781837544794e-5 0.0
0.0015404921056732979 0.00012576099213808966 0.0
0.0013290175824639406 0.00016764328559697118 0.0
0.002925810834059362 -0.0003939280106748807 0.0
0.0004042224074795171 -0.0003604534331731455 0.0
4.006082300447847e-5 -1.7630582467556703e-5 0.0
0.0033575266206398685 -1.373396165146827e-5 0.0
0.00331634739256222 2.7786971305325035e-6 0.0
7.41440954058721e-5 2.5395801990575505e-6 0.0
0.0030605356988755317 -0.00030092008357711787 0.0
0.00028628545734301 -0.0002714979313955968 0.0
0.0022604039617610426 7.079023843368234e-5 0.0
0.0011913774562261024 0.0001880598824941982 0.0
3.0609471786853445e-5 -1.8733336453465774e-5 0.0
0.0033661469717119756 -1.5696565199319777e-5 0.0
0.0012846019778345857 -0.0007173423251741154 0.0
0.001503789658941927 -0.0007528149001438259 0.0
0.002017936326513681 -0.000755188652665755 0.0
0.0017312854911004018 -0.0007662156772941794 0.0
0.0022302897785699597 -0.0007102994561777111 0.0
0.002474138369540046 -0.0006258964163642687 0.0
0.001037716865786033 -0.0006543317300204929 0.0
0.000796261186210051 -0.0005692398273787556 0.0
0.003157601730865604 -0.00022635422106450533 0.0
0.00020065117939952677 -0.00020117763855233525 0.0
0.0032932608157196543 2.021237752207612e-5 0.0
9.496812061728198e-5 1.5107377079481781e-5 0.0
0.003371902942002351 -1.8431763688338076e-5 0.0
2.87504899186716e-5 -2.2692170373103126e-5 0.0
0.0023787146228439952 5.3748484288641186e-5 0.0
0.0011207789565350409 0.0002198154560906822 0.0
0.003249266982098108 3.7285951894845885e-5 0.0
0.0001361112269624863 3.0453115744118027e-5 0.0
4.7669303439223374e-5 -1.50191719660245e-5 0.0
0.003348843957315267 -1.1942188916531434e-5 0.0
0.0019445358302783008 0.00010739757989885326 0.0
0.0014331086511014074 0.00015588927167104174 0.0
0.00011173693218675661 -0.00011616273354214513 0.0
0.003270638669828799 -0.00012769336210532507 0.0
0.002298689163984946 -0.0006916059119611104 0.0
0.001802299695006443 -0.0007688538644195097 0.0
0.0012143763754714513 -0.0007016233357119617 0.0
0.0009626686256452712 -0.0006317761866697511 0.0
0.001947662635898457 -0.0007618438573094631 0.0
0.0026523041101392335 -0.0005459008434931277 0.0
0.0006385248778199548 -0.0004947691470725558 0.0
0.002824628636207596 -0.0004545123586203027 0.0
0.0004828021167830375 -0.00040862336785151655 0.0
0.00034203749798301393 -0.0003150075563805814 0.0
0.0029932886724466585 -0.00034846713661632793 0.0
0.0007075268521884691 0.00024811226837438043 0.0
0.0028137492937911493 0.00014946454602639538 0.0
0.003372348276940093 -2.317106591464836e-5 0.0
2.504734554720403e-5 -2.3316120131305533e-5 0.0
0.0010910888897933061 0.0003028442918065742 0.0
0.002479105428017669 8.729920862399924e-5 0.0
0.00015909491505786195 4.837720461416672e-5 0.0
0.003244841084004166 4.49706195656609e-5 0.0
4.900249017114641e-5 -5.199704565479211e-5 0.0
0.0033427123198033304 -5.785979003182644e-5 0.0
0.0026417737139349065 0.00015221884956588942 0.0
0.0026868344445922046 0.00013090907884909304 0.0
0.002898495070707995 0.00011335765381047041 0.0
0.0027741829348608667 0.00012140607630936904 0.0
0.0026092666582905513 0.00012183721335580578 0.0
0.0026670229345768367 0.00012869050840417698 0.0
0.0028260631978877537 0.00011679276932667325 0.0
0.002726518743446813 0.00012680130658138228 0.0
0.002877014770047995 0.00010792473697440445 0.0
0.002785963004139775 0.00011595913858134444 0.0
0.002645029877356777 0.00013203321027276327 0.0
0.0027002372144853443 0.00011913912944211885 0.0
0.0025793889365379914 0.00013217760018281667 0.0
0.002624558396754446 0.00011721913170723202 0.0
0.0025151279673315974 0.00012859504858044843 0.0
0.0025560928612835166 0.00011022260602094366 0.0
0.00177160988276568 7.153350105655497e-5 0.0
0.0016707267809485723 5.5245745872363435e-5 0.0
0.0017477618702267377 4.7306333213060514e-5 0.0
0.0016659025599140675 3.556920954613877e-5 0.0
0.0017335442082876827 2.8842227061762973e-5 0.0
0.0016629807355170783 1.9795721845266367e-5 0.0
0.0017242257992124176 1.3339577810187152e-5 0.0
0.0016602268294757692 5.388883887790542e-6 0.0
0.0017173385596855031 -6.980125887074377e-7 0.0
0.0016578328526343357 -8.012241659575342e-6 0.0
0.001712022823086098 -1.3727918834076337e-5 0.0
0.0016558237555842667 -2.0663478815416385e-5 0.0
0.0017077966455603688 -2.6484949878715248e-5 0.0
0.001655520544822247 -3.303351745236796e-5 0.0
0.00170438779727515 -3.8830413634666076e-5 0.0
0.0016539554897711333 -4.523537725172535e-5 0.0
0.0017012459587743018 -5.094205136420657e-5 0.0
0.0016508548039344205 -5.728308304883543e-5 0.0
0.0016981450040208445 -6.29875619477979e-5 0.0
0.001648993799880463 -6.921777588406373e-5 0.0
0.0016954630180036217 -7.503305034069248e-5 0.0
0.0016473626074522546 -8.118701021055702e-5 0.0
0.0016914587663447857 -8.70479044568573e-5 0.0
0.001645468039528118 -9.325763250040126e-5 0.0
0.0016888195447520185 -9.918357132130892e-5 0.0
0.0016444542588252209 -0.00010514095521048517 0.0
0.001686463501774293 -0.00011143097348114973 0.0
0.001640544986015017 -0.00011669039353036394 0.0
0.0016836288977760112 -0.00012378929564253377 0.0
0.001628078089949756 -0.00012929784701491782 0.0
0.0016837432158302097 -0.00013656320830367333 0.0
0.0016367446153599178 -0.00014283474348473243 0.0
0.0016811063813374442 -0.00014943105795139862 0.0
0.0016365726635599988 -0.00015601671694040944 0.0
0.0016791903033830595 -0.0001626729298637776 0.0
0.0016376362417487148 -0.00016933923892162458 0.0
0.0016770884389961044 -0.00017614613170444064 0.0
0.0016365826863923272 -0.00018316370659577543 0.0
0.001604191479177213 -4.494612715465839e-7 0.0
0.0016749475011715357 -0.0001900001576076302 0.0
0.0016015654680356334 -6.274114077325e-5 0.0
0.0015860444249375938 -0.0001396184301423173 0.0
0.0016322553652904268 -0.00019715177928382468 0.0
0.0016724840523319317 -0.00020420886178479554 0.0
0.001627971453764394 -0.00021201089418739549 0.0
0.00158847137227989 -0.00020357468771452033 0.0
0.001583078877925231 -0.00021914023457946845 0.0
0.0016683340063907276 -0.00021966316924711327 0.0
0.0017134342937605287 -0.00021130613229322837 0.0
0.0017239109749430076 -0.00014235097752021586 0.0
0.0017095472621180407 -0.00022721663127491502 0.0
0.0017574436918294735 -0.00021730342635629287 0.0
0.0017519661308939098 -0.0002347059839063277 0.0
0.0015440206978070588 -0.0002102822512841858 0.0
0.0015402386181210342 -0.00022551608051237518 0.0
0.0018013661257630905 -0.0002239139454823196 0.0
0.0014986909146406605 -0.00021615804276374788 0.0
0.0014974576591469833 -0.0002321037479223063 0.0
0.0017966965867218388 -0.00024153559312096814 0.0
0.0018445365025273957 -0.0002315470294876722 0.0
0.001453047122516161 -0.00022208857295202434 0.0
0.0014507471719036903 -0.00023847838479611346 0.0
0.0018408957788550587 -0.00024906610318500345 0.0
0.0018900952055601575 -0.00023846568116441273 0.0
0.0014075995579622786 -0.00022794886204809535 0.0
0.0014048699408125706 -0.00024528009602858895 0.0
0.0018862933535821003 -0.00025690341245641007 0.0
0.0019368394794854857 -0.000245248121968646 0.0
0.0013625359191573967 -0.0002328446905348013 0.0
0.0013568271224991425 -0.0002506673791740104 0.0
0.0019336179007414863 -0.00026416114257086723 0.0
0.0019844655628806665 -0.00025182977798062997 0.0
0.0013130392117225364 -0.0002376742930182129 0.0
0.001308520924498903 -0.0002564557920764946 0.0
0.001262157686646843 -0.00024353475557643438 0.0
0.0012665169401915029 -0.00022366453526685034 0.0
0.0018783913741944483 -0.0002750900859969742 0.0
0.001980958573364783 -0.0002714995308175391 0.0
0.0020328462002180137 -0.0002582601850553674 0.0
0.0020371938980227365 -0.0002380393694463681 0.0
0.0017365737819992825 -8.123975108436559e-5 0.0
0.002087561436014767 -0.00024406035820527896 0.0
0.002092346963840068 -0.0002230483476722382 0.0
0.0021443774012040928 -0.000228351494953424 0.0
0.0012615799090247742 -0.0002637706847988015 0.0
0.001213181680274772 -0.00024864770417462985 0.0
0.001307098752296773 -0.0002766052769166398 0.0
0.0020277878990202104 -0.00027897962505243716 0.0
0.0012132459574501976 -0.0002693623309452268 0.0
0.0011642941652796833 -0.00025306446115261257 0.0
0.0017576800794014455 -3.127439840980202e-5 0.0
0.0011642690477486402 -0.0002732936414032482 0.0
0.0011153855962707357 -0.0002567006504390891 0.0
0.0011155771148998873 -0.00027737034844444374 0.0
0.0010673635923158218 -0.00025924470788573684 0.0
0.0010661275824971933 -0.0002390962897031089 0.0
0.0010152252977737467 -0.0002421444546898892 0.0
0.001014774649364483 -0.00022087510324144525 0.0
0.0010618624265287572 -0.0002795731007660013 0.0
0.0009601045767263696 -0.00022408626978613855 0.0
0.0009592701910975893 -0.000202307963876199 0.0
0.0011162503837034326 -0.0002992025253679865 0.0
0.0010706044540989158 -0.00030312068926010595 0.0
0.0009058849541790917 -0.00020379036772399023 0.0
0.0009032347893283383 -0.0001825290319077676 0.0
0.0021506415730325147 -0.00020704245728842916 0.0
0.0022048090809674175 -0.00021199911081575508 0.0
0.0011168943127035599 -0.0003212889514062045 0.0
0.0010718752404033458 -0.0003250259377027357 0.0
0.0022117227664012608 -0.00018999463910841793 0.0
0.0022685433435155077 -0.00019505572286956742 0.0
0.002259111519876021 -0.00021919216003308783 0.0
0.0023233121000000995 -0.00020087847529450277 0.0
0.002314777511403451 -0.00022554796304111868 0.0
0.002379077429480811 -0.00020528732613247626 0.0
0.002373589227479353 -0.00022967310464763155 0.0
0.0024400840272311175 -0.00020681302798992323 0.0
0.002428933128452481 -0.00023175395647204272 0.0
0.0024455503050338635 -0.0001834272549549646 0.0
0.002496371629563763 -0.00020918661233873304 0.0
0.0024816200895714006 -0.00023401576955103687 0.0
0.0011181307702157143 -0.00034377923375351964 0.0
0.0008469822281672335 -0.00018340913435855238 0.0
0.0008432573420379165 -0.00016176871910077192 0.0
0.0024196895534348275 -0.00025725364922361214 0.0
0.002470140934191089 -0.00025905765548783733 0.0
0.0025310596036312847 -0.00023540055338448228 0.0
0.0024125275744876764 -0.00028315773139543984 0.0
0.001074219752751867 -0.0003476229711389092 0.0
0.002519486043433978 -0.0002599387934704018 0.0
0.002579098315024467 -0.00023562367561528723 0.0
0.001119322133220238 -0.000366892786313435 0.0
0.0010762855011136239 -0.0003708660712779476 0.0
0.0010318758181718961 -0.0003508269392292065 0.0
0.002566793065625232 -0.0002597088637056873 0.0
0.002625751145110475 -0.00023446514726399099 0.0
0.0011204391176382065 -0.0003907112798957917 0.0
0.0011630223546611838 -0.00038636085219323306 0.0
0.0010344753916662122 -0.0003742373249608084 0.0
0.0009904411332730223 -0.00035353362784632853 0.0
0.0026113466518220174 -0.0002585273029214093 0.0
0.0026717037771848673 -0.00023220267493763737 0.0
0.0026854351472918266 -0.00020906656700754933 0.0
0.0025521974915866073 -0.00028490323962492757 0.0
0.00273164232105453 -0.00020594289187276642 0.0
0.0027468161605616634 -0.00018352360874058206 0.0
0.0007835862116483003 -0.00016246675666192168 0.0
0.0007829948896140818 -0.00014010185630270404 0.0
0.0008547569055207162 -0.00014068369708339527 0.0
0.0007803289631200162 -0.0001178789457582382 0.0
0.0008495505256357778 -0.0001149983454851558 0.0
0.0007770479884871884 -9.42971850238551e-5 0.0
0.0008446811399857543 -9.002897139799865e-5 0.0
0.0011640311290866954 -0.00041043978192433644 0.0
0.0012055888523421004 -0.0004055821769355911 0.0
0.0009933533743724213 -0.00037711545653790137 0.0
0.0009496987590160695 -0.0003556878727680439 0.0
0.0027168893406819667 -0.0002290009485502052 0.0
0.0007810877143077584 -7.042177184420996e-5 0.0
0.000845384883992334 -6.488388435035238e-5 0.0
0.001206631858340759 -0.00042972322487282 0.0
0.0012472171768169184 -0.00042469015554606184 0.0
0.0014563840992153137 -0.00025431765445752094 0.0
0.002776466076572958 -0.00020199239668060363 0.0
0.0017889408993969121 2.4997988097042123e-5 0.0
0.001863416933805534 0.00010145444597704516 0.0
0.001599373426104494 -9.896670757552178e-5 0.0
0.0022729993979802425 -0.00017251762692420254 0.0
0.0007759119576545897 -4.438650920261541e-5 0.0
0.0008512821831840953 -3.827633762792888e-5 0.0
0.0009530330286713752 -0.00037942935590496823 0.0
0.0009099729274882297 -0.00035744451664369587 0.0
0.0012488519506681545 -0.0004489898996243402 0.0
0.0012891155099116595 -0.0004436633693550854 0.0
0.00276040276572774 -0.00022479291581017094 0.0
0.0007209391622196476 -0.00014081622037540175 0.0
0.0007236214207701874 -0.00016321051917163155 0.0
0.0007006260862853479 -7.289973831638036e-5 0.0
0.002819875139394128 -0.00019718338857175504 0.0
0.0007761417034676076 -1.8917710608690128e-5 0.0
0.0008524375900067091 -1.0348592923188127e-5 0.0
0.001208896795487123 -0.0004546441170548575 0.0
0.0009139082497975522 -0.00038151294636042425 0.0
0.0008710482909513748 -0.00035860145741389734 0.0
0.002216314170710332 -0.00016791981826336854 0.0
0.002280276290341278 -0.00014970118321942663 0.0
0.0022201420589770047 -0.0001452495219640617 0.0
0.0022877282745563123 -0.00012672697629819395 0.0
0.00129017772189284 -0.0004678921430389144 0.0
0.0013308154663119725 -0.00046162410090162126 0.0
0.001412202134908004 -0.0002124037013597892 0.0
0.0007762113364938046 6.4915972772447815e-6 0.0
0.0008510222749060592 1.7341099842479447e-5 0.0
0.0028041211238959227 -0.00021936863933510336 0.0
0.002750367604112106 -0.000245147327859371 0.0
0.0007601290868099801 3.4023761513923876e-5 0.0
0.0008471182312078869 4.6242032132275636e-5 0.0
0.0028618573471815754 -0.00019198022099513792 0.0
0.0028709646675784133 -0.00017558413845629456 0.0
0.0007703120413988214 6.0144704669132086e-5 0.0
0.0009555412177611767 -0.0004059088537510649 0.0
0.0013311931944287086 -0.0004865391500877115 0.0
0.001371541318441557 -0.00047920677619459393 0.0
0.001371808195881514 -0.0004544962150438348 0.0
0.0014124748307802614 -0.0004714645586623043 0.0
0.0014132085159039496 -0.00044702298387013206 0.0
0.001454067081048575 -0.00046330394053533335 0.0
0.0014551291512969985 -0.000438794247522876 0.0
0.001496596483878949 -0.00045460691108269147 0.0
0.0014981080750246796 -0.00043017105400978126 0.0
0.0015399058575977706 -0.0004452616235582295 0.0
0.001538328414389409 -0.00047035626916820515 0.0
0.0015814313407969682 -0.00046033335962492007 0.0
0.0015795854063798888 -0.0004858518334324809 0.0
0.0016224916999307492 -0.000475124668497533 0.0
0.0016201058006421291 -0.0005011191295837925 0.0
0.0016633601119385914 -0.0004896144442460771 0.0
0.0015420074084327522 -0.0004209682908679283 0.0
0.0016659130136696006 -0.00046365160594763136 0.0
0.0017073593251840215 -0.0004772845923669038 0.0
0.0017041351398467241 -0.0005041773165825589 0.0
0.0017487052279671754 -0.0004911203644840567 0.0
0.0006597013579478611 -0.00014060741215956234 0.0
0.0006622649977762355 -0.00016263229148806173 0.0
0.0008753071520067138 -0.0003827415549073078 0.0
0.00083327527074459 -0.0003594243106655944 0.0
0.0017525872234035668 -0.00046438083162661476 0.0
0.0017939745441892213 -0.00047715003862980625 0.0
0.0017894157032854767 -0.0005045135916740739 0.0
0.0018355429355227742 -0.000489588380988251 0.0
0.0005999658903048396 -0.00013949768759227254 0.0
0.0006027427562370518 -0.00016080779226661983 0.0
0.0022243141277482927 -0.00012164557514937084 0.0
0.0022963475004870687 -0.00010302769200579834 0.0
0.002230702971277981 -9.791360755378336e-5 0.0
0.002847557019486701 -0.00021270755258521697 0.0
0.002903218649030546 -0.00018574359618895664 0.0
0.0013717231860766238 -0.000504902348343452 0.0
0.0009266327009220159 -6.354450924654255e-5 0.0
0.0017496761182512121 -0.0002507452489915071 0.0
0.0018302501106885704 -0.00051753021542895 0.0
0.0018765865746073452 -0.0005017097126592423 0.0
0.0018811848237310351 -0.0004737191638639034 0.0
0.001923155195192476 -0.00048469309772076016 0.0
0.0018505918387938453 -0.00021296778475041092 0.0
0.0023089055315356453 -7.849567714585007e-5 0.0
0.002369869363128412 -8.793621752903804e-5 0.0
0.0008501215368765835 7.512779555667524e-5 0.0
0.000837416182666149 -0.00038336378593385636 0.0
0.0007961636625045176 -0.00035955250447311575 0.0
0.0022390165695735814 -7.320554802086071e-5 0.0
0.00191739133060351 -0.000513563968596605 0.0
0.001964795157402629 -0.0004961274014517685 0.0
0.001970639758601936 -0.00046723798564452093 0.0
0.0020133314875118006 -0.0004779940167053181 0.0
0.002020221650816471 -0.0004498627888342617 0.0
0.002062290585430057 -0.0004591026001265401 0.0
0.0020544356354620795 -0.00048769776911890896 0.0
0.0021029454744480713 -0.00046766706148099044 0.0
0.0007693552895050918 8.450645005354203e-5 0.0
0.0005422116816298886 -0.000137376385361997 0.0
0.000544835875935919 -0.0001575910643408315 0.0
0.0013326486264172703 -0.0005124769199421767 0.0
0.002886923121361654 -0.0002075943613395818 0.0
0.0029429565995006384 -0.00017913301920957566 0.0
0.002094012817189261 -0.0004966328329066285 0.0
0.002141730655103432 -0.0004755521042480352 0.0
0.0008541897694701276 0.00010240400568321638 0.0
0.000800847858338242 -0.0003835816701194995 0.0
0.0007595362799430791 -0.00035884164197327845 0.0
0.000927749422415782 2.8163250661039025e-5 0.0
0.0026641296837994675 9.851360650742405e-5 0.0
0.001371998052602736 -0.0005312814975794865 0.0
0.0007700119620782686 0.00010658494626035006 0.0
0.0007073393179720008 -4.006326083442827e-6 0.0
0.0029211685361350496 -0.000206753554015469 0.0
0.002981511402805639 -0.00017266214413009297 0.0
0.0029986663718231036 -0.00015152006361013478 0.0
0.000687545555218988 6.748565104799698e-5 0.0
0.0028627626682977496 -0.00023420735824082392 0.0
0.000535867197249036 -0.00011701401984142237 0.0
0.0008385561301508759 -0.0004062390359545796 0.0
0.002321155028159143 -5.310314223078819e-5 0.0
0.002248767432759557 -4.7548141613898084e-5 0.0
0.0020704309123465233 -0.0004314489979022402 0.0
0.0007647226141853596 -0.0003834852811349387 0.0
0.0007234669482018147 -0.0003579846779107093 0.0
0.0004863247899513749 -0.00013411488028712676 0.0
0.0004886902752209885 -0.00015292335756610933 0.0
0.0009064435409540769 -0.00033476299278001716 0.0
0.0021316232052789965 -0.0005047712802505431 0.0
0.0021786901665453253 -0.0004823523660625055 0.0
0.0007181847157586577 -0.00033390193037478356 0.0
0.000681930449941508 -0.00033229149546522724 0.0
0.002087274468720518 -0.0005245310841847252 0.0
0.0013344213647045482 -0.0005391171139230381 0.0
0.0006880089709749922 -0.00035681664934659226 0.0
0.0006465794611462916 -0.00033038746529463867 0.0
0.0014132134378496597 -0.000423638962832746 0.0
0.0030377477628747603 -0.00014376732612588253 0.0
0.00305424980901233 -0.0001254728563737778 0.0
0.0030212466583541104 -0.00016437809423188016 0.0
0.002167259577558338 -0.0005114985411330267 0.0
0.0022138736198482768 -0.0004879455768327945 0.0
0.002026850527678968 -0.0004225512746088416 0.0
0.0020781454262056532 -0.00040467589287828196 0.0
0.001372734257578932 -0.0005582506197554678 0.0
0.002225995091840225 -0.0004593722336441502 0.0
0.002261156367617106 -0.00046430709586344106 0.0
0.00043145162468182294 -0.00012892695528471222 0.0
0.0004361635276509116 -0.00014709124694724146 0.0
0.0022482328477882907 -0.0004937543008364543 0.0
0.002294753165942306 -0.00046909934818066307 0.0
0.000653899239887424 -0.00035542518468377135 0.0
0.0006123685831788443 -0.0003281911018357216 0.0
0.0023336892350379924 -2.683483561531233e-5 0.0
0.0022605131835037647 -2.0899271134658268e-5 0.0
0.0006046435755987673 -0.00030433776392901115 0.0
0.0005702543606799485 -0.0003011011966978197 0.0
0.0005778143729668469 -0.0003253641842999198 0.0
0.0005358764653108235 -0.0002974999577474682 0.0
0.003075787567569731 -0.00013551951201586895 0.0
0.003058955323694124 -0.0001564513513464197 0.0
0.0008548881483429836 0.0001255837059908672 0.0
0.0007636308549932314 0.00012526032769055517 0.0
0.0021648761750852597 -9.17724508193373e-5 0.0
0.0013361895772714023 -0.000566334044502255 0.0
0.002281445453663811 -0.0004998561936238292 0.0
0.0023271445563187512 -0.0004739855534291393 0.0
0.0024489003025337836 0.00012135122337637019 0.0
0.002274183044509472 -0.0004360051102636086 0.0
0.0015780097225894726 -0.0005120782880618763 0.0
0.0005271893038480017 -0.0002744425875469993 0.0
0.0004937770934435315 -0.00026966999236552406 0.0
0.0005026906479814022 -0.0002936732870554658 0.0
0.00046041706734064404 -0.00026479074333499506 0.0
0.0004515379124117113 -0.0002422164046089939 0.0
0.0004171184078822242 -0.00023637808177860844 0.0
0.00040797236088603963 -0.0002143667086916712 0.0
0.0003730047415873583 -0.00020736775944844393 0.0
0.00036392163871655465 -0.00018685856530766004 0.0
0.00033087019956429666 -0.0001794313514286874 0.0
0.0003212641565969486 -0.0001606155437881508 0.0
0.0003392948288018907 -0.00019935477016474042 0.0
0.0002934351025818208 -0.00016706680618370104 0.0
0.0003805232721391717 -0.00012287181490288094 0.0
0.00037886673438729626 -0.00010671725574120042 0.0
0.00030596488121142185 -0.00019044169291526053 0.0
0.00026399760327839705 -0.00016065594257592654 0.0
0.0009387673058435229 0.00011882721968985097 0.0
0.001005083333799568 -0.00019749402884035815 0.0
0.002033724303238011 -0.0003962409427018516 0.0
0.0020850949022881587 -0.0003788003680947067 0.0
0.0006019920974168558 -0.00018058415858281476 0.0
0.0013734683093865926 -0.000585951579070105 0.0
0.001410295230952194 -0.0005773654380144595 0.0
0.002129872975512148 -0.0003862802441540892 0.0
0.002137249508804044 -0.0003605166633499599 0.0
0.0031126807175063166 -0.0001267190210175677 0.0
0.0030935365412323853 -0.00014890805137705228 0.0
0.0030407961492741834 -0.00018177617532068113 0.0
0.002175533439030954 -4.191165231912337e-5 0.0
0.00218643447381893 -1.5420694180980004e-5 0.0
0.0012981722885260544 -0.0005465742405769819 0.0
0.001300189696044501 -0.0005738772316630015 0.0
0.0012627401386725637 -0.0005537647026581918 0.0
0.0004710916355800914 -0.0002896173035417421 0.0
0.002273292149291088 6.547242595616871e-6 0.0
0.0021988069068581647 1.2681984765139298e-5 0.0
0.0009059728230404781 -0.0002264312908777802 0.0
0.0023130391701215204 -0.0005060446415535907 0.0
0.00235891705604207 -0.0004790664452830807 0.0
0.0023736762212129966 -0.00044840479072305806 0.0
0.002405312281205295 -0.0004523691559819745 0.0
0.0008782698480145764 0.0001479997527512051 0.0
0.0007691532236516135 0.00014274756288332836 0.0
0.0012450086586485744 -0.0004014056359384141 0.0
0.0022686695326998756 -0.0005326997175134278 0.0
0.0028320590753742624 0.0001003112336751621 0.0
0.0023900871239039534 -0.0004853285036900481 0.0
0.0024368828173800174 -0.00045745359197897357 0.0
0.002452300209677834 -0.0004254776235909808 0.0
0.002484414283041679 -0.0004295251049930297 0.0
0.0025007398585012827 -0.0003981309818549291 0.0
0.0025325037498306873 -0.0004012797667837976 0.0
0.0025159061702086944 -0.0004346055306580371 0.0
0.0025635765856297905 -0.0004053611876165321 0.0
0.00027398149736384734 -0.00017974890580335545 0.0
0.0002330190586483535 -0.00014963732152222238 0.0
0.0002180154580978609 -0.00012922316430985278 0.0
0.0014108970674280865 -0.000605504054724537 0.0
0.0014462283319249744 -0.0005975952896478399 0.0
0.001265300369138551 -0.0005812143088634833 0.0
0.001227984419362653 -0.0005604768688329637 0.0
0.0030732469262340243 -0.000176174553870466 0.0
0.003125402778621922 -0.00014197268406504672 0.0
0.002410853625778354 0.00013707704292036395 0.0
0.0023481444903105243 0.00012989429844568565 0.0
0.0006650570314976033 0.00011867286798848186 0.0
0.0006686997525319962 0.00013326351664678612 0.0
0.0003165838723561188 -0.00021288612559829857 0.0
0.0011631931078867255 -0.0003169926509993766 0.0
0.0021469302877107728 -0.00014245025873686203 0.0
0.003022121564969355 -0.00021128363380615992 0.0
0.0009140910939373993 -0.00010713772089257772 0.0
0.0021024286954989826 -3.6764942254123205e-5 0.0
0.002545855594275847 -0.0004407403148870034 0.0
0.0025934360292050613 -0.00041043934402635966 0.0
0.002579980902020509 8.881120105959885e-5 0.0
0.0027012557213150477 7.747656446993885e-5 0.0
0.0008703915743416673 0.00016475089474649924 0.0
0.0004906117899811785 -0.0001714003641953065 0.0
0.0003222591801097025 -9.912461159620542e-5 0.0
0.0003215464425168129 -8.441548772049627e-5 0.0
0.000511654495273079 -0.0003191267251156558 0.0
0.0024239885761995375 -0.0004925171463554728 0.0
0.0019743775769934346 -0.0002916062977945427 0.0
0.0017855996749917536 -0.0005327673420908448 0.0
0.0011238277055566964 -0.0004141602585040431 0.0
0.00024301565880561476 -0.0001684266746342938 0.0
0.00020336422405911364 -0.00013787296686157413 0.0
0.0006952550503969392 -0.0003827478711897084 0.0
0.0021826828096486593 -0.00036709394139118785 0.0
0.0021905199741568946 -0.0003415893624368081 0.0
0.001300936430249583 -0.0006023118454542715 0.0
0.002634685304638374 6.497850383175031e-5 0.0
0.002738351228099073 5.648600859092203e-5 0.0
0.0026760552708809857 4.202320611032003e-5 0.0
0.0027764203050652694 3.523028362873146e-5 0.0
0.002836976871834923 4.8256029468958856e-5 0.0
0.002874085228014599 2.901643233194865e-5 0.0
0.0028126368932024984 1.4145722429207816e-5 0.0
0.002906953607901479 1.024341481686032e-5 0.0
0.002845976732343694 -5.914802948065164e-6 0.0
0.0029382913608296105 -7.1567255241476305e-6 0.0
0.002878776727867612 -2.4813825078423438e-5 0.0
0.002967090143819578 -2.293002351787818e-5 0.0
0.0029090389331447287 -4.20957420793921e-5 0.0
0.0029942767314230434 -3.702611162171515e-5 0.0
0.0028171980225542167 -4.626855154416013e-5 0.0
0.0029374885882883896 -5.711057398004241e-5 0.0
0.003017622255021831 -4.973492173068564e-5 0.0
0.002936413958886821 3.9545441137276964e-5 0.0
0.0006751395286033629 -0.0003085979069828592 0.0
0.0006620505295449204 -0.0003817631662611043 0.0
0.0007019117188797455 -0.00040939434397194434 0.0
0.0029643153510986392 -7.005020943179569e-5 0.0
0.0030404353229890454 -6.022017137894844e-5 0.0
0.002888299231565937 -7.855297812509919e-5 0.0
0.0018250080692103095 -0.0005462708482950334 0.0
0.0017811057577587438 -0.0005614843091940937 0.0
0.0018196603382914644 -0.0005755387081667258 0.0
0.0017772550889014812 -0.0005908684952007419 0.0
0.0018146372186096452 -0.0006054868003922834 0.0
0.0017741597128719212 -0.0006209074342242575 0.0
0.0017368250587177342 -0.000605708234090392 0.0
0.001734723206752261 -0.0006355634906943441 0.0
0.0016983594610539623 -0.0006197255087022641 0.0
0.0015820653105832103 4.999397685340122e-5 0.0
0.0018103183832114402 -0.0006363004197978354 0.0
0.0018503830002886306 -0.0006199822826449233 0.0
0.0015339351244626435 -0.00024212248125823145 0.0
0.001499605560116551 -0.0004064875290513055 0.0
0.001544187037213685 -0.00039742949955730143 0.0
0.0015012038579107973 -0.0003835159565326746 0.0
0.001546416814565913 -0.00037464726362990445 0.0
0.0015029425443454367 -0.00036129249714647257 0.0
0.0015487228379714676 -0.0003526548210300798 0.0
0.0015924095608924542 -0.0003653071522206252 0.0
0.001595199394737933 -0.00034356530193577586 0.0
0.0016391183242645182 -0.00035553631897207856 0.0
0.0016422315699294047 -0.0003340369335319011 0.0
0.0016844304146130349 -0.0003452672620236031 0.0
0.0015981661136128525 -0.00032197111547367457 0.0
0.0015048281827955228 -0.00033979225363259057 0.0
0.0014589339524916417 -0.0003478045835092565 0.0
0.0016808671760600116 -0.0003676581074426614 0.0
0.0017286267807368582 -0.0003553667043351089 0.0
0.0006700945675234682 -0.0004089093249428231 0.0
0.0015937386717063949 -0.00016278129464269425 0.0
0.001604151575489677 -2.7760116219743568e-5 0.0
0.0017986682324849703 -0.00045083219773333564 0.0
0.0031288944904765558 -0.0001092545936034446 0.0
0.0031641610434910926 -0.00010019245589086795 0.0
0.00174839767158834 -5.592737234865117e-5 0.0
0.0017319319094748627 -0.00010332885331641401 0.0
0.002467750610063489 -0.00039577917282970207 0.0
0.002134517660813719 -0.0002501604053394925 0.0
0.0031061417122911117 -0.00016891472625880563 0.0
0.003155730139014859 -0.0001348055122249321 0.0
0.0017214961974563448 -0.0001694931048803943 0.0
0.001230923865549038 -0.0005882331116045507 0.0
0.00119378908949757 -0.0005669465614242453 0.0
0.0017717959033129724 -5.496246647081805e-6 0.0
0.0016964254566927302 -0.0006495440810696219 0.0
0.0016599242009408572 -0.0006319151736483391 0.0
0.0011909065588110689 -0.000539564274765341 0.0
0.0011563652897315136 -0.0005455047258613013 0.0
0.001153330867225224 -0.0005184403666803147 0.0
0.0011186141416470077 -0.0005237796467010197 0.0
0.0011223537012763575 -0.0005512350110466691 0.0
0.001084735897906469 -0.000528893208256134 0.0
0.0010888302502307116 -0.0005566992692069404 0.0
0.0010512417097937887 -0.0005337848425053262 0.0
0.0004820534922757875 -0.0003159262613705573 0.0
0.0031795387258186565 -8.556335387934946e-5 0.0
0.002285367353145042 3.441194294873517e-5 0.0
0.0022090959425491623 4.018552115401804e-5 0.0
0.001031653848474937 -0.00030715203509357517 0.0
0.0008332694227821919 -0.0003364392158273413 0.0
0.0030690405183681525 -3.3456391110428935e-5 0.0
0.0030278084742448464 -8.833009621614215e-6 0.0
0.0014461068904108461 -0.0006255975649656363 0.0
0.0014822932936930868 -0.000616791662620653 0.0
0.00229907364897361 -0.0005402064600664253 0.0
0.00044549193455908773 -0.00022070404010009494 0.0
0.001940863489602008 -0.00022718764950230085 0.0
0.0021248678859411042 1.765797157845542e-5 0.0
0.0021343981175001264 4.496691197182302e-5 0.0
0.002517753678578916 -0.00036901767550227794 0.0
0.0025901651363070444 -0.00021185344421656476 0.0
0.0026118512427382667 -0.0003765147768994528 0.0
0.002642409399826388 -0.0003798119711630684 0.0
0.0026221949483919895 -0.00041675527860968403 0.0
0.0026719483096517174 -0.000384613389682677 0.0
0.0015072922757545576 -0.00020107722023679617 0.0
0.000520452811765538 -0.00034554434064661333 0.0
0.0016851105888926882 -0.0003234257481113437 0.0
0.0027515304083193894 -5.796494080374585e-6 0.0
0.0014535983534556289 -0.0005704396181983665 0.0
0.0007080688632568152 -0.0004365968908669329 0.0
0.0007400156679584978 -0.000436885536820962 0.0
0.00225625130754258 -0.0005672188012191835 0.0
0.0011149219949747738 -0.0004972299796989237 0.0
0.0020399512230137172 -0.00037088475981381384 0.0
0.001988895870096201 -0.000387280925171764 0.0
0.0031365316633869054 -0.00016226800450387183 0.0
0.0031860048374334426 -0.0001264590475920871 0.0
0.0032032541053800575 -0.00010434188315774244 0.0
0.0009752583562243523 0.0001703035703840072 0.0
0.0002134295010857675 -0.00015587653920588957 0.0
0.00017444169471559956 -0.00012427743385590452 0.0
0.00016853938596061107 -0.00011109203465590827 0.0
0.0023124703779349425 0.0001428724096380607 0.0
0.00237038046776291 0.00014487569865067766 0.0
0.0022523045422204718 0.0001361007534590623 0.0
0.002407353593814014 -3.305926811654542e-5 0.0
0.002990195371860689 -7.977138266244574e-5 0.0
0.003064812528890188 -6.772412283664491e-5 0.0
0.001197188403747475 -0.0005950937735770986 0.0
0.0023545567856374425 -0.0001308753603073738 0.0
0.0005628406756291321 0.00010749915435790983 0.0
0.0005607380265014044 0.00011814065566691105 0.0
0.0006740650651369004 0.00014569822947165274 0.0
0.0005557855461118454 0.00012598497023979927 0.0
0.0007154846687755795 0.00016452150432818243 0.0
0.0016581773492161016 -0.0006017212489434873 0.0
0.0010463642626984627 -0.0005064693200139674 0.0
0.0010137366194090088 -0.0005108379331397307 0.0
0.0010184922993729136 -0.0005385133614827326 0.0
0.0009813681306941279 -0.0005150830863849743 0.0
0.002691014474060255 -0.0003495320188592511 0.0
0.0027205058125006065 -0.00035339912960340164 0.0
0.00270154030081679 -0.0003904189542581877 0.0
0.002749055242127564 -0.00035821854032583203 0.0
0.002143736740139964 -0.00033526171008840014 0.0
0.002197744644914521 -0.00031690919705089403 0.0
0.0018457432160844923 -0.0006513346494704222 0.0
0.0018850510280224938 -0.0006341676797378004 0.0
0.0014605797385360995 -0.0003265632539588754 0.0
0.0014144636829712927 -0.00033403101594434907 0.0
0.0014067680525600313 -0.0006350867868609876 0.0
0.0009862155301977068 -0.0005426458758216803 0.0
0.0009497889824828232 -0.0005190203797836415 0.0
0.002989328892898854 -0.00021595831973873354 0.0
0.002970379163449649 -0.00024781195029385854 0.0
0.0029389495303863097 -0.00025099290412052645 0.0
0.002924651089842814 -0.0002815934204112018 0.0
0.0014818311666435578 -0.0006471179711960717 0.0
0.000249709353328361 -0.00018702797127510313 0.0
0.000357223376207703 -0.0001685879155181981 0.0
0.0003095713005963954 -0.00014208416409774053 0.0
0.0002627455978111475 -7.628309663325839e-5 0.0
0.00025885233443809664 -6.291485663318408e-5 0.0
0.00032148994666376967 -6.940672940219857e-5 0.0
0.00025634177914196963 -4.964267405011055e-5 0.0
0.00032153310207086325 -5.377458500470438e-5 0.0
0.0002541637044254154 -3.6195979740616627e-5 0.0
0.000322773412118725 -3.7660786064477786e-5 0.0
0.003002346055319593 -0.00024419502925268784 0.0
0.0009750859766378065 -0.000488254330556761 0.0
0.002483505748241722 -0.000368534720299383 0.0
0.0022256539068032082 -0.0005577718966222716 0.0
0.002214452216798867 -0.0005937961393267986 0.0
0.0021844443012607835 -0.0005838368222625212 0.0
0.0016590056749417603 -0.0006624575773317677 0.0
0.0023448846574845804 2.4785736270219767e-5 0.0
0.0027303086837404886 -0.000396941021259126 0.0
0.0032336112660930508 -9.42254287573029e-5 0.0
0.0032154980517545826 -0.00011700308369746797 0.0
0.0009663703486576823 0.00018286991122479706 0.0
0.0022768974566137164 5.879020988040936e-5 0.0
0.001756361765610807 -0.000438669957928617 0.0
0.0018022701517259377 -0.0004254264355068334 0.0
0.0017342023497819142 -0.00066656216142663 0.0
0.001622793359240348 -0.0006441093464601581 0.0
0.0007314220497722291 -0.00018857535175840337 0.0
0.0031119693995834354 -5.0365238354262566e-5 0.0
0.003134723341511248 -5.5516435380436756e-5 0.0
0.0030866700456886158 -7.348674218161397e-5 0.0
0.003153978998447657 -5.990898784957087e-5 0.0
0.002595420843908088 -0.0002831052469034108 0.0
0.001953988329161066 -0.000526431298252329 0.0
0.0019944613455429553 -0.0003625779963549747 0.0
0.00145481550350972 -0.0004888568165950201 0.0
0.0020949192546991374 -0.00020212891000848392 0.0
0.00223630248204149 -0.00034739654009469177 0.0
0.002237757013133363 -0.00043213412806622037 0.0
0.002286936213691312 -0.0004091397405485974 0.0
0.002268238341865696 0.0001454641659050985 0.0
0.0023391447407557294 0.00014238170782720943 0.0
0.000745512927292073 -0.0004643281349825647 0.0
0.0007760411647023537 -0.00046369225668936256 0.0
0.0002525998646781332 -2.251407829473429e-5 0.0
0.00032172430064995427 -2.122337959872513e-5 0.0
0.0003938579285667549 -3.7224097652395896e-5 0.0
0.00039552891366478307 -1.7733314944483935e-5 0.0
0.0003227813536852181 -5.074174165061746e-6 0.0
0.00040027554410220845 1.489347544141194e-6 0.0
0.00032571410413922644 1.0351442738072813e-5 0.0
0.00040788142606381104 2.0311393640235394e-5 0.0
0.0003292838571040648 2.483365764474517e-5 0.0
0.00018491886470601947 -0.00014216655824205628 0.0
0.0019436477423103815 -0.000377935918031677 0.0
0.00014701461252539293 -0.00011012382930834132 0.0
0.0006777337230104941 -0.000436651380888738 0.0
0.0032154838604633125 -7.556703025769731e-5 0.0
0.0015866915614683743 -0.0004112323777486201 0.0
0.002052244727412167 2.1892392951795492e-5 0.0
0.002065602381288737 5.104281659508109e-5 0.0
0.00041525227571949987 3.838813771545774e-5 0.0
0.0004923484947679182 -0.0003431635440673756 0.0
0.0004545188213840951 -0.00031287643265914697 0.0
0.0010236968558246372 -0.000571618674513184 0.0
0.0022819264059105037 -0.0005780068307369267 0.0
0.0012336515924286416 -0.000616913189052721 0.0
0.0027772857078460916 -0.00036347269406918097 0.0
0.0032501374141900344 -7.652734888635547e-5 0.0
0.001413159925138856 -0.00035556472386072895 0.0
0.0013689241069482856 -0.0003410411637993917 0.0
0.0013678356860050752 -0.00036293095062878996 0.0
0.0010591884472670873 0.00018472605054368173 0.0
0.001326179384641592 -0.0003477614955584717 0.0
0.0002717006938585246 -9.110825242748057e-5 0.0
0.0018798550627707551 -0.0006663751260225723 0.0
0.0019191806442242407 -0.0006482257061183591 0.0
0.0019252092841127977 -0.0006161713125676868 0.0
0.0019588409236198827 -0.0006292538233421367 0.0
0.0023239648709857614 -0.0004123747119056255 0.0
0.002337713493790436 -0.0003854031044567913 0.0
0.0032287674107648132 -6.414500182834412e-5 0.0
0.003191757456949594 -7.365730918401829e-5 0.0
0.0021597214285261337 7.615112837385123e-5 0.0
0.002080724631209425 8.256638522373211e-5 0.0
0.0006405000784194796 -0.0004086132966825368 0.0
0.0009548575806100452 -0.0005467792154342285 0.0
0.000919107731101009 -0.0005228401990306797 0.0
0.0016621603709713229 -0.00023645240290077696 0.0
0.0026840424995452183 -0.0004302487945787574 0.0
0.0003345732160578654 3.8326552330943554e-5 0.0
0.0009131238007760428 -0.0004950168491634948 0.0
0.001952073946249525 -0.0006621292105105046 0.0
0.001990899224810273 -0.000642027661634381 0.0
0.0019480966519764694 -0.00035442860275378824 0.0
0.0018982581351543876 -0.00036826137546703376 0.0
0.0019022950719422098 -0.0003454769149960389 0.0
0.0017580553875728164 -0.0002026951990885914 0.0
0.0002690730589021701 -0.00013218508660552993 0.0
0.00015744922826508646 -0.00012746208327417538 0.0
0.0019662690530395516 -0.0005972883223742905 0.0
0.0020233424676694665 -0.00029985843727803904 0.0
0.001622582087148099 -0.0006749469475880354 0.0
0.0006617594885364128 -0.00011882491407433167 0.0
0.0011661458699500304 -0.00023439322282758172 0.0
0.0005293101896382648 -0.00037420159678267406 0.0
0.0027964202471777748 -0.0003267096381084905 0.0
0.0007144711026167685 -0.00031087346575290085 0.0
0.0006688787532214697 -0.0002854840851718911 0.0
0.0007117382770265905 -0.0002881924957066003 0.0
0.0006643891706216044 -0.0002631142446803639 0.0
0.0007085226118736127 -0.00026584269837090995 0.0
0.0006211181584934102 -0.0002598522817864579 0.0
0.0021739789515220734 -0.0006200320407164559 0.0
0.002146585617445621 -0.0006091452653391672 0.0
0.00045036804290604247 8.989128618259665e-5 0.0
0.001659488116489685 -0.0006933183825812004 0.0
0.001617627582628889 -0.0005278313926474892 0.0
0.0015763110959190914 -0.0005388604556158785 0.0
0.0007820535796503328 -0.000491698022583467 0.0
0.00021051906943832387 -6.726283981215123e-5 0.0
0.00022355921224557492 -8.311655505336852e-5 0.0
0.0030120810098461953 -0.0001338857005046157 0.0
0.003068844682065122 -0.00010946069157141095 0.0
0.0004685548339487862 -3.437587661911441e-5 0.0
0.0008120572675611353 -0.0004899523189608283 0.0
0.0008081539281254637 -0.0004642662537008146 0.0
0.0008180217687777914 -0.0005184003431250425 0.0
0.0007526696899553957 -0.0004929884157247249 0.0
0.0005728949897074539 0.00013964410578672833 0.0
0.0012601513852658452 -0.0005271150970736955 0.0
0.0019383878733074647 -0.0004030234471784461 0.0
0.003023312868894937 -0.00011792456166042527 0.0
0.0018415836038171913 -0.0006837324039852711 0.0
0.0011999710623293754 -0.0006242337368925845 0.0
0.0032611815472246833 -8.436874641982562e-5 0.0
0.003242797541911502 -0.00010783336856034051 0.0
0.0010740767084225643 0.00017170371312221584 0.0
0.0009252098526374569 -0.000551479176766058 0.0
0.0021495118335700418 -0.00030989684594922066 0.0
0.002208080395112724 -0.00029186600857364163 0.0
0.00035090451700648447 -0.00015101601545322758 0.0
0.0004651210929189949 -0.00034022892566492604 0.0
0.00042843910714938314 -0.00030992331208665733 0.0
0.0004171427952134521 -0.00028361481862824013 0.0
0.0006485682845319811 -0.0004367086916326977 0.0
0.00012052739970847765 -9.491801779025442e-5 0.0
0.00011234514438885994 -8.210090417384997e-5 0.0
0.0019832448726464593 -0.0006757755912153113 0.0
0.002020993776911003 -0.0006546254370234377 0.0
0.002028489667721986 -0.0006195099815546996 0.0
0.0027400171271580584 -0.00031960798609966066 0.0
0.00270936788709108 -0.0003177925464882628 0.0
0.0027116105130891815 -0.0004386714050275898 0.0
0.0006160043576311366 -0.00023814103342426933 0.0
0.0005737259527257768 -0.00023512996109497806 0.0
0.00225511064267348 -0.0002977483859878246 0.0
0.0031987219024118036 -4.385448977573096e-5 0.0
0.0032157916208935926 -4.679483141673345e-5 0.0
0.003235933075322819 -5.597225929911148e-5 0.0
0.003188264433564273 -0.000153158407812634 0.0
0.0001949895708009502 -0.00016219398931150515 0.0
0.002091638067589078 -5.958686849634669e-5 0.0
0.0020246820224703588 -5.542169987365193e-5 0.0
0.002014394334048988 -7.534925703076423e-5 0.0
0.001951337028205112 -7.184066768261303e-5 0.0
0.0019452188808097468 -9.076190198909773e-5 0.0
0.0019557075678966786 -5.343940248304461e-5 0.0
0.0017599531733145171 -0.00041381111091577866 0.0
0.0014158016933888135 -0.0003132365897888986 0.0
0.001462482062398919 -0.00030598613684974904 0.0
0.00043903198290011784 -0.0003371766278053149 0.0
0.00040277864099712296 -0.0003059374104882972 0.0
0.0028958660674171977 5.686489001747671e-5 0.0
0.0029978774040333913 4.6195562790202896e-5 0.0
0.0030384592684096555 2.954857696613086e-5 0.0
0.0030987522824153383 3.4330488410088684e-5 0.0
0.0030727464649833425 4.828802216214741e-5 0.0
0.0015880428199446428 -0.0006569110450669421 0.0
0.0015877267174541304 -0.0006278818547414617 0.0
0.0015871503636650881 -0.0006871339854661235 0.0
0.0019798122803763515 2.4647708649865073e-5 0.0
0.0019691128564001646 5.451219664647045e-7 0.0
0.0004693431342755171 -5.587557331409704e-5 0.0
0.00024614832419635814 2.3593432158978033e-5 0.0
0.0021349912994111987 -0.0006456637354381495 0.0
0.0005609909675895807 9.50035225942108e-5 0.0
0.002173945784080796 -0.0003931596873151122 0.0
0.002016262224036915 -9.447066566142607e-5 0.0
0.0019394536653167507 -0.00010929607312662828 0.0
0.0019977123908863663 -0.00011511318680677072 0.0
0.001933373420782666 -0.00012752682490064615 0.0
0.001988372183523003 -0.0001337526165760717 0.0
0.0019275953447062393 -0.00014586017675634314 0.0
0.001980916907580743 -0.00015236993231144443 0.0
0.0019221560558634531 -0.0001644671898972528 0.0
0.0019762794474042916 -0.00017117467002179072 0.0
0.001875266283657456 -0.00012117736249237533 0.0
0.00186884598642271 -0.00015750059664137775 0.0
0.002203042948347053 -0.0006313829520753546 0.0
0.003272702397694911 -5.0717818493008697e-5 0.0
0.0011507798613962167 -0.000492316061722687 0.0
0.0011108635392941017 -0.0004720449101541053 0.0
0.0030859851729072058 -0.00020073290799725273 0.0
0.0013292551450430862 -0.00032936431630042933 0.0
0.0018857402967863157 -8.555794653506668e-5 0.0
0.0007173239980129173 0.00017854965158682265 0.0
0.00019672248796900166 -4.376635417015333e-5 0.0
0.0011582302308169577 0.00018402039218226235 0.0
0.001163648119726561 0.0001691858996642142 0.0
0.002527990008604629 6.909728236107165e-5 0.0
0.003115801483033356 -0.00019504813031956207 0.0
0.003067548435151051 -0.0002353400644206427 0.0
0.0013239338491554196 -0.0003697120979795852 0.0
0.0012864284983924985 -0.0003510994993225929 0.0
0.0005575243691813549 -0.00035355770085414057 0.0
0.00013093661450822226 -0.00011149551876991905 0.0
0.0001589923025210389 -5.595441913931065e-5 0.0
0.00016477804692167634 -6.625354294047661e-5 0.0
9.472063661909364e-5 -7.847983016292102e-5 0.0
0.0022983927643794246 -0.00038276497508444457 0.0
0.0023504346898921384 -0.0003597117931613561 0.0
0.002390446416717874 -0.000361579476977509 0.0
0.002402899382269531 -0.0003359149746560649 0.0
0.001864835032741115 -0.00017513695045447023 0.0
0.0008501233441195281 0.00019693828641117097 0.0
0.0010679265295396785 0.00019493126766331485 0.0
0.0018529975826655626 -0.0003582935572120015 0.0
0.0018574579837445989 -0.00033568590042341656 0.0
0.0014182639326127957 -0.0002938875498465184 0.0
0.0012121256061290114 -0.0002906053088236687 0.0
0.0012364705929532494 -0.0006464929815907554 0.0
0.002500258009664431 -0.000470731937631853 0.0
0.00252887096640407 -0.0004789929948898612 0.0
0.002485431106472057 -0.0005094747552289377 0.0
0.002513243936722872 -0.0005198933981855028 0.0
0.002471409480333712 -0.0005504901966745818 0.0
0.0024435133181042313 -0.0005398344074551649 0.0
0.0023727456046030606 -0.0005268191558229201 0.0
0.0021534145712059894 -0.0005738704297828777 0.0
0.002286067581347833 0.00011815587936015778 0.0
0.0017422264933137591 -0.0005473184415461227 0.0
0.0004848859620753588 1.0877884477207853e-5 0.0
0.003221531526008523 -0.00013806215120561256 0.0
0.003267723735979348 -9.828054745199274e-5 0.0
0.002556253259832069 -0.0004884588955911175 0.0
0.0025412473070440104 -0.0005302280225363498 0.0
0.0025827392155544685 -0.0004988903892180047 0.0
0.0012690202964221549 -0.0006388499687967753 0.0
0.0015371334000005691 -0.0005225583445489035 0.0
0.0015368515366860323 -0.0005488824791013367 0.0
0.0015749099477123825 -0.0005661767532145421 0.0
0.0010415427998470533 -0.00040230970971678133 0.0
0.0014977912006776672 -0.0005319333289944062 0.0
0.0019321405193421012 -0.0005857423041703045 0.0
0.0027607045747236976 -0.00028832776999588455 0.0
0.002824076081632818 -0.0003304295311811961 0.0
0.002804501505921318 -0.00036950261461597277 0.0
0.002850077056804141 -0.0002913062240564956 0.0
0.0003943653386539563 -7.432588323662243e-5 0.0
0.0011263302411236042 -0.0005795446935914982 0.0
0.0010936724085746456 -0.0005855039558807059 0.0
0.0011300590404127924 -0.000608534251827965 0.0
0.001098924533812741 -0.0006149272745505402 0.0
0.002442830930796813 -0.00033664547570357684 0.0
0.0006859438551945263 -0.0004654817676780537 0.0
0.0006134718534372092 -0.00040880950793430204 0.0
0.003170474576862225 -6.430984472433188e-5 0.0
0.00018730372926185703 -2.176786627139772e-5 0.0
0.0001861616050235528 -1.1442394214944139e-5 0.0
0.002106436255641818 -0.0006296386414978874 0.0
0.002100470800558425 -0.0006692705853590597 0.0
0.0017134499883135258 -0.0004262777300955738 0.0
0.003138467338263262 1.9938052293264938e-5 0.0
0.0006209958841753256 -0.0004366837879554252 0.0
0.002533085734939714 0.00012506038888271883 0.0
0.002954032462249035 -0.00022106857797295904 0.0
0.0029857948593764064 9.25345650308228e-5 0.0
0.003020035836444295 8.272337205864209e-5 0.0
0.002362511032427257 -0.0003346655281927719 0.0
0.0025352705857850737 -0.00034229452858354666 0.0
0.0025698923023064154 -0.00034200652515789325 0.0
0.0022575070998089052 0.0001322106941270755 0.0
0.002323829307178069 0.00012624210588676012 0.0
0.0024092687389814012 0.00013834542508024537 0.0
0.0019449012478904484 -0.0006961155501311235 0.0
0.000958378728624665 -0.0005749723292324313 0.0
0.0014567992128194816 -0.00039217748110275167 0.0
0.002095708762472287 -0.0003289633530304211 0.0
0.001843250689044251 -0.00043606118487087025 0.0
0.0018747976841051181 -0.0006997006601900611 0.0
0.0008466555038507432 -0.0005157753267137934 0.0
0.0010755156938610498 -0.00047580250157225915 0.0
0.00044206015037263945 -0.00016620033599645012 0.0
0.0031819050379293507 2.2877294049581344e-5 0.0
0.0024343855200972915 -0.00039493500393097085 0.0
0.00030149702967112836 -0.0001260583394578841 0.0
0.0008545203485631121 0.0002155447151716073 0.0
0.0018631118239453846 -0.0005596204533098712 0.0
0.0024299653268791827 -0.0005813184066730465 0.0
0.002400647219482526 -0.0005701953539187682 0.0
0.0021518304565925116 -0.00044719603719160404 0.0
0.0022624042731390257 -0.0002737202206890887 0.0
0.0009881532923106254 -0.00033148388606191485 0.0
0.001536126846452676 -0.0005805757676986447 0.0
0.0020750813440774773 -0.000286005044250929 0.0
0.0010711210733071411 -0.0004509154546978301 0.0
0.0010352129614182293 -0.0004539174589836216 0.0
0.0008525451733604473 -0.0005447178503307611 0.0
0.0005430706435621502 -5.3899359309082704e-5 0.0
0.0005460747364970477 -3.089660825894377e-5 0.0
0.0002517281891886727 3.3296052832964045e-5 0.0
0.0003462301133405646 5.167832481741092e-5 0.0
0.0026672360092012425 -0.0004719822866122407 0.0
0.000398297793136724 -0.00017689819570496963 0.0
0.0005793599446522854 -0.0002568602336506682 0.0
0.0005320328410037938 -0.00023124992747657882 0.0
0.002817908878590042 -0.0002919982103067483 0.0
0.0014135068844507446 -0.0005233786344049736 0.0
0.0018056214930142738 -0.0003998044522550339 0.0
0.0021859253028551637 0.00012131170003327469 0.0
0.002164618697222674 0.00013882137590949168 0.0
0.0021018774870029955 0.00012734863008954272 0.0
0.0020815547177180406 0.00013852035506881576 0.0
0.002138452499303448 0.00014240060598086127 0.0
0.0024242963561328925 -4.627932640349067e-6 0.0
0.0024946213045643744 -1.4049976743325805e-5 0.0
0.0025157662527901165 1.2965426410669902e-5 0.0
0.0025803066720076835 2.288228777398194e-6 0.0
0.002560260104801156 -2.4602173862532436e-5 0.0
0.00015171028271192244 -4.578149397099487e-5 0.0
0.0024570041501713394 -0.00031210322994309824 0.0
0.0004173923495687621 9.796712831199904e-5 0.0
0.00044168063772770193 0.00011248008233668716 0.0
0.0020128134646944123 -0.0006892296612035401 0.0
0.00012055640574789157 -1.0152236964997887e-5 0.0
0.002696172650791916 -0.00018666371531379623 0.0
0.0027600491914323267 -0.000161736630600193 0.0
0.0027138379997926295 -0.00016094205865908352 0.0
0.002811868265154388 -0.00015814151726411583 0.0
0.0028254171309905433 -0.00013717070852020856 0.0
0.002878207306371184 -0.0001338883328261681 0.0
0.0007568350266739705 -0.00028999336097177954 0.0
0.0007557275665100731 -0.00026819096524105014 0.0
0.0007049356927173614 -0.00024380892491606622 0.0
0.0007538761723361856 -0.00024671647046839017 0.0
0.0008049776963217981 -0.00027021296456465263 0.0
0.0008038320881541304 -0.00024864698862788934 0.0
0.0008543071487769661 -0.00027119284190690597 0.0
0.000931341024534577 -0.000579243307082557 0.0
0.0008536048377466242 -0.0002490719952635089 0.0
0.0009039344972045064 -0.00027147672802916 0.0
0.0002489921553128192 2.464487072472551e-6 0.0
0.0005416418436603812 -7.633016919015593e-5 0.0
0.0009025793048914516 -0.0002928087569872367 0.0
0.0007070787776007469 -0.0002246337890145675 0.0
0.002728243559163191 -0.0002888086949408197 0.0
0.0026781988501085887 -0.00031736593898184227 0.0
0.0015538310962254773 -0.0006697840756607897 0.0
0.001552658430569593 -0.0006991508869727133 0.0
0.0020231805017996494 0.0001276013372091874 0.0
0.0010911624412804643 0.00015305248372077452 0.0
0.0011748839136248067 0.00014758057133413738 0.0
0.0012426051461931645 0.0001627162283378104 0.0
0.001253757353577768 0.00013703979012002777 0.0
0.001187712745486858 0.0001201063060254702 0.0
0.0012655997586103588 0.00010320774449766847 0.0
0.0012012672670706289 8.851186797478969e-5 0.0
0.001279695390525983 6.740420842801658e-5 0.0
0.0012145867936360802 5.683927052120929e-5 0.0
0.0013052077315642003 3.352545203754745e-5 0.0
0.001226099354590461 2.7504545275869317e-5 0.0
0.00130200534906123 6.3883989308733094e-6 0.0
0.0012333374918055097 1.2359522698366512e-6 0.0
0.0013067590948512015 -1.812666143656354e-5 0.0
0.0012436968134595754 -2.382932197820104e-5 0.0
0.0013132949340528518 -4.1215439749805984e-5 0.0
0.0012505880471884532 -4.6372314415917295e-5 0.0
0.0013159303177249589 -6.201712035890695e-5 0.0
0.0012560683651154402 -6.708413674635843e-5 0.0
0.001318830014694807 -8.143279517909447e-5 0.0
0.0012602451824433561 -8.684138719602732e-5 0.0
0.001320677724555011 -0.00010044138207578554 0.0
0.001262143282033576 -0.00010592110858234372 0.0
0.0013218632407964931 -0.00011851041988767998 0.0
0.001263809825520764 -0.00012512647462689105 0.0
0.0012037473903812508 -0.00011096747103238928 0.0
0.001205956948290116 -0.00013099204481030878 0.0
0.001327229658333339 -0.0001384828010586071 0.0
0.0011925288692635869 -5.128905322077383e-5 0.0
0.0013786328524146541 -0.00011134756338056997 0.0
0.0013825037642394358 -7.67655533289789e-5 0.0
0.001139880341725461 7.529659839378704e-5 0.0
0.0013756429386466262 -3.5336259733536004e-5 0.0
0.0011447256558956684 -0.00011590430518926438 0.0
0.0011482307810822992 -0.00013627889543610673 0.0
0.0012082699854107492 -0.00015119793906709237 0.0
0.0011516279460087129 -0.00015670451190715696 0.0
0.0011707148841759332 -4.779065223085453e-6 0.0
0.0013769766874535776 7.521423856912559e-6 0.0
0.001142225619909681 -9.529575031348871e-5 0.0
0.0013464916887279093 7.951983533241632e-5 0.0
0.001210807486336823 -0.00017129544291814147 0.0
0.0011546239884034164 -0.00017709981893665932 0.0
0.0010954972778380518 -0.00016174647161062197 0.0
0.0010810304300999545 -0.00010019014090273016 0.0
0.0010757270347775377 -7.766768028927275e-5 0.0
0.0012673454200022975 -0.0001648686244378422 0.0
0.0012680580128358796 -0.0001845977910262669 0.0
0.001323000983609087 -0.00017796404683078412 0.0
0.0013215014421572528 0.0001500764750869501 0.0
0.0013158826997891296 0.00016820446063669158 0.0
0.0011006842197011698 -0.00018273909488370144 0.0
0.0010402494599699994 -0.00016664299025521666 0.0
0.0010363269757489087 -0.00014607977502164337 0.0
0.0009778378384949697 -0.00014986150717473344 0.0
0.0018379912217036058 -0.0007166099262838547 0.0
0.001805146588943486 -0.0007000885066132084 0.0
0.0030964710573907674 -0.00023016684530592207 0.0
0.0019737784602572436 -0.0005666980027914794 0.0
0.0020081183800167214 -0.0005778550636508561 0.0
0.0011422056212881137 -0.00046626065279160926 0.0
0.0011824748121572893 -0.00048573583602983287 0.0
0.0027654892222883573 8.5515839294079e-5 0.0
0.001999062481430794 -0.00033849614882833706 0.0
0.0011589692679186284 -0.00019710965893360413 0.0
0.0008787823610708958 -0.0004973448022509594 0.0
0.0008761774927680017 -0.00047101724845702623 0.0
0.0009075543061417804 -0.00046861159128901473 0.0
0.002213641688146564 -0.0002681423900157621 0.0
0.002046259837027108 -0.00012269416313774936 0.0
0.0013679905129041089 -0.0003854602745275373 0.0
0.001325116281866896 -0.0003926509323860359 0.0
0.0018973290609326555 3.40785641555909e-6 0.0
0.0018918642728341093 -1.6385057050060934e-5 0.0
0.0019528220598867645 -1.983612262601414e-5 0.0
0.001881052385655236 -3.709894135036971e-5 0.0
0.001907418862141564 2.470594801668198e-5 0.0
0.0020339045379048305 -0.00015932013605263908 0.0
0.0020302057408707534 -0.000178075022455608 0.0
0.0019669867275617548 -0.00018998563151872787 0.0
0.0014650706113736793 -0.00028658122116760116 0.0
0.0015097416890423711 -0.0002983435684522052 0.0
0.0015129089870586784 -0.0002796210640229206 0.0
0.0015568903519143722 -0.00029027381886966 0.0
0.0015600411778303365 -0.0002718819393724495 0.0
0.0016039545262653465 -0.00028194777043972054 0.0
0.001607373146078875 -0.0002639483745348859 0.0
0.0016531587344169915 -0.00027327630938223406 0.0
0.001648547901411057 -0.00029220408777264143 0.0
0.0016988629624494433 -0.00028037288594995807 0.0
0.0019088885517815739 -0.000324158587144094 0.0
0.0018616750041874526 -0.00031447105899031104 0.0
0.0018122619247394436 -0.00032603291405412744 0.0
0.0018157695761104693 -0.00030538852252830515 0.0
0.0003446116011404643 -0.00013439529982411046 0.0
0.00041448595124748586 -0.00033375825810586646 0.0
0.0003788258586838825 -0.00030159876766860797 0.0
0.0003675667410777366 -0.00027405983593419643 0.0
0.00034253377674677704 -0.00026835195476373195 0.0
0.0017165765115578068 -0.0004020565396551947 0.0
0.0023105874714606216 -0.0002776726136609723 0.0
0.0022984667691380795 -0.0003031749130866013 0.0
0.0008677207453395937 0.00017687595295938298 0.0
0.0018145575593012976 -0.00016824590931871527 0.0
0.0018165448991307143 -0.0001526540918446578 0.0
0.0018954592977225898 0.00011845745535847935 0.0
0.0032238294187480862 -8.385816233777074e-5 0.0
0.0032667580036153995 -6.180307351903231e-5 0.0
0.003296162356399958 -5.1487800153511825e-5 0.0
0.00011373976032785913 -4.383431301068432e-5 0.0
0.00011682100849052641 -5.1043506383915356e-5 0.0
0.00016586932364406223 -7.484608203299656e-5 0.0
0.00012330524775696285 -5.988540435361861e-5 0.0
0.00016923676853547345 -8.47500485296535e-5 0.0
0.0001278338095063791 -6.84879682516707e-5 0.0
7.856205327321826e-5 -4.123367043979052e-5 0.0
0.00167042076701524 -0.0004137563061415361 0.0
0.0008052623158626019 -0.0002279154762092361 0.0
0.0004767738496704788 -0.0003685428840296842 0.0
0.0013218077495789355 -0.00019612310599759214 0.0
0.00305737364154239 -0.00026621159932742767 0.0
0.003026282364666171 -0.00027701760875801774 0.0
0.0025873122013916477 -0.0003154250887235954 0.0
0.002633723868379668 -0.00030944831513387265 0.0
0.0026463131532661606 -0.00028320972201007253 0.0
0.00016141064826811062 1.7975135903405696e-5 0.0
0.0012047557759283345 -0.0006540593507394453 0.0
0.0008251686746780656 -0.0005481495655831888 0.0
0.00010545969480923194 -9.465882668919972e-5 0.0
0.00014428158636213925 -0.00013464875462659338 0.0
0.0006565207745161698 -0.00022150376878697336 0.0
0.002066582043081867 0.00013400374290226783 0.0
0.0021315946153004023 0.00013197681575251023 0.0
0.002495818829904694 -0.0003437953153780825 0.0
0.0026020302617901264 -0.0003428568911469498 0.0
0.0011347568718772945 -0.0006373010380148155 0.0
0.0012705132606171323 -0.0006673747754046841 0.0
0.0013033350968689836 -0.000660366101434068 0.0
0.002850108578067601 -0.0003357562419240664 0.0
0.002830576549034366 -0.0003761197433605919 0.0
0.002784129291254771 -0.0004169437007076859 0.0
0.0030815877694620364 -9.511432439753613e-5 0.0
0.003035702997751548 -0.00010271045033584533 0.0
0.0029763273822517498 -0.00012504346871158634 0.0
0.0029843823686262353 -0.00010967197855507661 0.0
0.0005606202247391067 -0.00021494689841797387 0.0
0.0028893742287237323 -0.00011475880330333734 0.0
0.002827676839267074 -0.0001173599991873347 0.0
0.002017582227322874 -0.0005488900354108883 0.0
0.00035168834332397007 -0.00029309001459558947 0.0
0.0003198633695220406 -0.0002649055059603597 0.0
0.0003080199395069551 -0.00023927999949317376 0.0
0.00028588395328622764 -0.00023403992288652443 0.0
0.003305652384000594 -4.292110773572558e-5 0.0
0.003232768074319256 -4.801391955155535e-5 0.0
0.003274764836093486 -3.321046941870996e-5 0.0
0.0026929632550148903 -0.00047975072995112264 0.0
0.0013707228227657785 -0.00029971691052322344 0.0
0.0028741183125103203 -0.0003423945343326411 0.0
0.0028569931214304308 -0.0003811912619137802 0.0
0.0028975405349024237 -0.00034849980984983877 0.0
0.0028841035752350586 -0.00038892398719685985 0.0
0.0029257291105902992 -0.00034967551326184473 0.0
0.002939594212972394 -0.00031415522874391133 0.0
0.0029635550444838603 -0.00031798581913275713 0.0
0.0015892366716510743 -0.000716522872763113 0.0
0.001556823427706203 -0.0007311992709489387 0.0
0.0015140960045794641 -0.0007103889151107059 0.0
0.001106476039587648 -0.00020406666303065873 0.0
9.093822446332168e-5 -5.247497326774932e-5 0.0
0.00013182779215284004 -7.753503019814116e-5 0.0
9.545807854806515e-5 -5.984152210475268e-5 0.0
0.0011084672257643772 -0.000649123073033261 0.0
0.0010710385416122085 -0.0006223268297810303 0.0
0.003180782129788475 -0.0001773803496539757 0.0
0.0002639368120167153 4.363589838809946e-5 0.0
0.0017680855509267087 -0.00031870548547903807 0.0
0.0017733663249201975 -0.0002973600269477398 0.0
0.00307378010682165 1.447286587870344e-5 0.0
0.0031709189667516293 7.88110164058587e-6 0.0
0.0028670641610167072 -0.0002615689636252204 0.0
0.0005887778921655793 -0.00040809670855876997 0.0
0.0006002993965544361 -0.0004390690576487509 0.0
0.0024341456417445533 -0.00036109866305890814 0.0
0.0024648338629523515 9.490994539001991e-5 0.0
0.0032471926596455993 -0.0001270539133169879 0.0
0.003292178780986881 -8.674553790194171e-5 0.0
0.0033097308277539777 -6.454572677603191e-5 0.0
0.002386641702875689 0.000119895485764536 0.0
0.00278061083322409 -0.0002610541565548578 0.0
0.0015196089325589972 -0.00063006065508346 0.0
0.002863381915691036 -0.00015404116433416696 0.0
0.002687742591657877 -0.0002945980802759983 0.0
0.0010336752155760901 -0.00042788413215897117 0.0
0.0006036142788753898 -0.00038120745234034 0.0
0.003132163519774158 -8.401266056683022e-5 0.0
0.0025926444807860584 0.0001346811931574255 0.0
0.001071852745134238 -0.0006500715912612115 0.0
0.000498386606168263 -0.00019324186006876594 0.0
0.001803610235051776 -0.00018719292811310263 0.0
0.0026394649953150324 -0.0004685825926799139 0.0
0.002628092208423403 -0.000506626256657696 0.0
7.13671988955777e-5 -6.267225528343435e-5 0.0
0.002047654007540698 -0.0006714729839700833 0.0
0.0020346672901035818 -0.0007015173349998002 0.0
0.0013028232068783927 -0.0006934652873462919 0.0
0.0013374210959733461 -0.0006825750051195836 0.0
0.0013357556696152577 -0.0006524886216690334 0.0
0.0013704139287130167 -0.0006732878063866728 0.0
0.001338168887820533 -0.0007078371564927686 0.0
0.0011399295372466608 -7.445146627403622e-5 0.0
0.0010726579860144388 -5.6610526396491034e-5 0.0
0.00046637987819512567 -7.58766218349937e-5 0.0
0.0009622148058703559 0.00021769755603699673 0.0
0.0009611923879388161 0.00020236367482277245 0.0
0.002040533172403056 0.00010441063268675909 0.0
0.0025648551713243484 -0.0005412001497969121 0.0
0.0025271836109926676 -0.0005714924109681812 0.0
0.00029435558304894327 -0.00025939239684997747 0.0
0.0002614199549196448 -0.00022617643469686653 0.0
0.0032907563374385378 -3.295359678449983e-5 0.0
0.0005459862196053322 -0.0002543019055816778 0.0
0.0004929754460481694 -0.00023100047482151493 0.0
0.0030603801437725413 9.96471066043592e-5 0.0
0.003139735257799414 -0.0001918190615473104 0.0
0.003119894257869973 -0.00022935446102383675 0.0
0.0018586416103011517 -0.000193381670144571 0.0
0.0021254303843086333 -0.0006819242839262848 0.0
0.0020833877912115172 -0.0007108332605446999 0.0
0.0009482777658176075 -0.00029122146450977194 0.0
0.00095282081612473 -0.000269971876511494 0.0
0.0013705768270823588 -0.0006438677812258525 0.0
0.0028829940011915584 -0.00029281003038201056 0.0
0.0016562758175557891 -0.0002550246514527618 0.0
0.0016143683449934157 -0.0002458204388840126 0.0
8.694075512567544e-5 -8.279709356569465e-5 0.0
0.0009315313729330171 0.000337291987431789 0.0
0.0015142836628936828 -0.00026044612691992586 0.0
0.0010159559736690495 -8.357072242249527e-5 0.0
0.0010240232374851186 -0.00010535913154559282 0.0
0.0006171274594600973 -7.42914085076208e-5 0.0
0.0020924269332659013 -0.00016439968605749133 0.0
0.0013740950315253408 -0.00018973950799225375 0.0
0.0013767151500821279 -0.00017220447613740004 0.0
0.0014264246980594437 -0.00018374172542237147 0.0
0.0014279302579922333 -0.00016724953758935203 0.0
0.0014755811636136562 -0.0001766351465678455 0.0
0.0014777573429092463 -0.0001611825034943556 0.0
0.0014290227423618559 -0.00015140648289604128 0.0
0.0014793005313370876 -0.0001455412822718429 0.0
0.0014307088655024574 -0.00013612628554604092 0.0
0.0014817066057101484 -0.00013049887942830245 0.0
0.0015223194841645668 -0.00017017705817578933 0.0
0.00012940967977563856 -4.000192129324208e-6 0.0
0.0020216763590999386 -0.00019971205976310164 0.0
0.001381290447504488 -0.00028097688937746247 0.0
0.0013316202239964429 0.00011744916365488201 0.0
0.0014251124017908082 8.552036326788891e-5 0.0
0.0014286798266393713 5.1949380110817036e-5 0.0
0.0014014984715912883 0.00012870635188406198 0.0
0.0013642515030849196 4.637142843945241e-5 0.0
0.0014435053406014779 2.5932087567568307e-5 0.0
0.001517777127481695 2.6207013351641493e-5 0.0
0.001480749043319928 0.00010549672475411056 0.0
0.0002124330178947655 -9.988394057768662e-5 0.0
0.00021852338865792296 -0.00011289109882787798 0.0
0.003289909875465107 1.6548962086412878e-5 0.0
0.003182519629209487 3.69793513506525e-5 0.0
0.0031758173550520954 4.4844662410228265e-5 0.0
0.002461832660352555 -0.0005957132120691142 0.0
0.0024164446443126326 -0.0006244201905890768 0.0
0.000870611976249707 -0.00044522823835943005 0.0
0.0009031601540853758 -0.00044228258163794273 0.0
0.0008375682757793085 -0.0004466027600077407 0.0
0.0009571998533625289 -9.243693172088761e-5 0.0
0.0014966884021097682 5.387181727978925e-5 0.0
0.0015321430537936726 -0.00013920902229713585 0.0
0.0015310441779355852 -0.00012400357929455777 0.0
0.001483237381568639 -0.00011560832757358968 0.0
0.0015312086175271813 -0.00011025679054171507 0.0
0.0014870918068554525 -0.00010150040879477402 0.0
0.0008979429523704817 -0.0005567831318108574 0.0
0.0032805697735745955 2.6797881194981998e-5 0.0
0.0014006163042411682 0.00015633082579134052 0.0
0.0019597009119640065 0.00010297170845315064 0.0
0.0019662655687791124 7.434197154709112e-5 0.0
0.0018867582772622157 6.567798885218755e-5 0.0
0.0009960875443172526 0.00015469817985738803 0.0
0.0012333192388233997 0.0001801124723167993 0.0
0.0011651533309433068 0.0001912436208439633 0.0
0.0011230770170169483 0.000199329271423511 0.0
0.0021988908727064546 8.096958831986952e-5 0.0
0.0027379511480342886 -0.00044726876154235914 0.0
0.0027180994515324883 -0.0004924026158082369 0.0
0.0008567478702628361 -0.0005731008810554878 0.0
0.0014048279557514047 -0.0006645892324483937 0.0
0.001405693891651107 -0.0006934059198155418 0.0
0.0014381720561387472 -0.0006846373090135391 0.0
0.0014434562042531546 -0.0007171579985597888 0.0
0.0023812961383441393 0.00011079106550089453 0.0
0.0023136060573686825 9.630356045269322e-5 0.0
0.0024045177113371217 9.12857184527592e-5 0.0
0.0024760693699502115 0.00010267353663118571 0.0
0.0018233792628807397 -0.0002859808582230847 0.0
0.0017857010853859487 -0.0002766948347913317 0.0
0.0014732931660313728 -0.0007032189301165392 0.0
0.0009912551360967438 -0.00017326837205132946 0.0
5.7718053056771404e-5 -4.6890070675756405e-5 0.0
0.0013735083903903841 -1.2408307672138411e-5 0.0
0.0014390067236953405 -2.9917378068614306e-5 0.0
0.0014414278133717867 -4.908652429323754e-5 0.0
0.0015032803150993623 -4.387508198061254e-5 0.0
0.0015014630847449586 -5.967167461695675e-5 0.0
0.001501339369952282 -2.743712187645684e-5 0.0
0.001449722206276769 -6.525881061453476e-5 0.0
0.0015012476997253474 -7.437255950660889e-5 0.0
0.0015608269802606274 -3.8802610532185475e-5 0.0
0.0022248835764049754 9.989016111491871e-5 0.0
0.0014542062204118205 -8.089744904692121e-5 0.0
0.0033290378905273077 -1.8230451459840544e-6 0.0
0.0012675583635732772 -0.0002037743732532406 0.0
0.0015738785062341801 -0.0005944036752496913 0.0
0.001615421651813544 -0.0005834740350536699 0.0
0.0014412945795017654 -1.0876087770543665e-5 0.0
0.0015084453194333432 -1.0600417934339807e-5 0.0
0.0019185292227480496 -0.00030378478667235945 0.0
0.0024109905524636573 -0.0005308100312526382 0.0
0.0023688860231541437 -0.0005633223365351808 0.0
0.0023595632363002934 -0.0006015436142169802 0.0
0.0023303326657457433 -0.0005946266435520615 0.0
0.0023235644133964384 -0.0006298789653390152 0.0
0.002292330582827656 -0.0006252087851984344 0.0
0.002786525948072973 -2.7040593853032665e-5 0.0
0.0027279921848319573 -5.148498423371824e-5 0.0
0.0027556553407863745 -7.049695838675246e-5 0.0
0.002670019896971419 -7.766487873838676e-5 0.0
0.0026949031344910314 -9.667240916395635e-5 0.0
0.0026099578218336107 -0.0001052930367027928 0.0
0.002636294452122562 -0.0001241369051604593 0.0
0.0025833293292710884 -8.553412006545089e-5 0.0
0.0025254529409121907 -0.00011340150600947878 0.0
0.002716462846470265 -0.00011475128962986519 0.0
0.002497488109491175 -9.401097782150508e-5 0.0
0.002657396133934972 -0.00014213356979108523 0.0
0.002581954020703323 -0.0001515400167518831 0.0
0.0025996529301488686 -0.00016964630060682526 0.0
0.0025562332562211773 -6.674526971328483e-5 0.0
0.002696476744481625 -3.114592916330463e-5 0.0
0.0027360470046939637 -0.00013305280229090617 0.0
0.0028461704757149773 -6.673143773659823e-5 0.0
0.002789520715134634 -0.00010643601218668514 0.0
0.0018250014582369288 -1.3447750611518364e-5 0.0
0.0012098778107246385 0.0001863356803228719 0.0
0.00018005022817259848 -9.974523653435322e-5 0.0
0.000168274751073077 -0.00014752084248071155 0.0
0.00020309606840950123 -0.0001817726676738746 0.0
0.0014714343079902919 -0.0006749030883855651 0.0
0.0019706909855925236 -0.0003150948622985896 0.0
0.0018895889706161825 -6.848190954191482e-5 0.0
0.0018260575938202268 -8.050680386153732e-5 0.0
0.0018370761464451624 -6.50982792913302e-5 0.0
0.0018275538899494648 -9.647981182768827e-5 0.0
0.001881374132927783 -0.00010278024368145234 0.0
0.0018227111248420335 -0.00011289801868093053 0.0
0.0018166468680591383 -0.00012841607744651048 0.0
0.0017719533032542361 -0.0001213253537778774 0.0
0.0002206369754038864 -0.0001740867688042416 0.0
0.0021133209750151447 -1.0330170676845947e-5 0.0
0.002575577338727474 4.867951373124847e-5 0.0
0.0024701734459622307 5.21627879131814e-5 0.0
0.00013411058537928907 2.5877655524843466e-5 0.0
0.00028093337943834563 6.077900992387229e-5 0.0
0.00026126480438913856 5.1035516632633045e-5 0.0
0.002154714799850197 -6.86070539433304e-5 0.0
0.0002846852684574683 -0.00020456121554129967 0.0
0.0003299700607977674 -0.0002412394156180315 0.0
0.00035797001137474396 -0.0002499819591535417 0.0
0.00035415937194655043 -0.00022904462650081273 0.0
0.0003834557674108341 -0.00023174079286349982 0.0
0.0013792410373764928 -9.47592270625386e-5 0.0
0.00015919034577414337 1.1266766168396693e-5 0.0
0.0006626887473204913 -0.00018458040519393542 0.0
0.0005442086607107567 -0.00017536081379463858 0.0
0.0015062897830745874 7.4957215654019335e-6 0.0
0.0003892612583458729 0.00013688239093703094 0.0
0.002323360704559679 -0.0005512496641770229 0.0
0.002031930212119001 -3.2359040496995785e-5 0.0
0.0032053700350002097 -0.00016820651839448216 0.0
0.0025560534860964955 -0.00013241445902675915 0.0
0.002472813608906321 -0.00014052263065537427 0.0
0.002387971878848564 -0.0006127557646145123 0.0
0.003335544292710109 -5.431508877456854e-6 0.0
0.0032715607453266695 -1.4406956468030289e-5 0.0
0.0032844204010739073 -1.887192550833212e-5 0.0
0.0032607620262810884 -8.247747730890121e-6 0.0
0.0032106039455495304 -2.7136892717543953e-5 0.0
0.0032523261026198022 -1.380715898257265e-6 0.0
0.003176985360528986 -8.437262828943402e-6 0.0
0.0031922703217395747 -1.856182787199803e-5 0.0
3.850118980670013e-5 -1.9296887150232883e-5 0.0
0.0033593748190751936 -1.489308041835912e-5 0.0
0.0033144078403864706 -2.9065311343172205e-5 0.0
0.003341786131001837 -1.5953078057182843e-5 0.0
0.0033183735324868254 -3.1077383970169917e-5 0.0
0.001989004790970438 5.0590381649206794e-5 0.0
0.0025020945503860183 -0.0005593864057702315 0.0
3.01794870080203e-5 -2.0264545016285603e-5 0.0
0.0033684817238029624 -1.6330275434916704e-5 0.0
0.0011057923591942772 0.00012978599410712265 0.0
0.0027149808025675086 1.7039346563788183e-5 0.0
0.0009295083112408204 -1.1106013454474984e-6 0.0
0.001004806610237978 7.573686756330005e-6 0.0
0.0010028927495161681 3.7509428496550806e-5 0.0
0.0010045734958004505 -1.8764775063345103e-5 0.0
0.001069215295191662 -1.363748199352076e-5 0.0
0.0010862609360669955 1.18800639410315e-5 0.0
0.0010798118322645342 4.321839251503338e-5 0.0
0.0010060491237026204 6.5953077079454e-5 0.0
0.0009415100303443076 9.144205412430524e-5 0.0
0.0009389386785150017 -3.29008056406194e-5 0.0
0.0028196406640417604 -0.0004133815054923367 0.0
0.0033268988801640866 6.074766507118402e-6 0.0
0.0013727871446426506 -0.0006147686515877251 0.0
0.0004550623161175793 -0.00037116387698694876 0.0
0.0015103611649574789 -0.0006026944089283521 0.0
0.0011668761907505118 -0.0006311821452982197 0.0
0.0011692595894376668 -0.0006605911255692738 0.0
0.0015813780633040294 -0.0001176981567275346 0.0
0.0021577958392665123 -0.00011620755302040044 0.0
0.0029229538497829817 9.464702841656023e-5 0.0
0.0029653419783882058 7.888580386599314e-5 0.0
0.0028733980650619663 8.261556788484369e-5 0.0
0.00021316015824662853 -9.024400768559822e-5 0.0
0.00042492572357694623 -0.0003612243057564538 0.0
0.0010998539442001916 0.00024774871554187944 0.0
0.0009893565829816038 0.0002463829896382652 0.0
0.0024338763748988673 6.453756423551174e-5 0.0
0.0012406651407037448 0.00017839016404783646 0.0
0.0030536462576381393 -0.00020622819808014382 0.0
0.0014966903543555195 -0.0005057996997104956 0.0
0.0023194476512312374 6.145755493487497e-5 0.0
0.0023826008386551526 8.942545328381507e-5 0.0
0.0010269559741087303 0.00010978593716942272 0.0
0.0008306948817372239 -0.0005786395666210182 0.0
0.003030872365059828 -0.00024589297750165877 0.0
0.0005025285820793534 -0.0003711355752842526 0.0
0.0005329299788909938 -0.0003972625261285982 0.0
0.0005168163875620826 -0.0004051442968052844 0.0
0.0007899527711914203 -0.00018510634580090818 0.0
0.0018637605246567108 -0.00013921794106436426 0.0
0.0020937037422520824 -8.927760363266679e-5 0.0
0.0012665104513877243 -0.0001446943143964964 0.0
0.0013234849166626924 -0.00015920808062219123 0.0
0.0032544358671299377 3.8277553938633854e-5 0.0
0.0030886383290497643 7.59453993830451e-5 0.0
0.00015112570949831573 3.781053931861834e-5 0.0
3.8220649327385416e-5 -2.1121870106245385e-5 0.0
0.0015264375135253694 -0.00015457833552760608 0.0
5.086820911479042e-5 -1.2694618994451562e-5 0.0
0.00012268562090533974 -2.6220027575527355e-5 0.0
0.0014926785170003003 -0.0005797053307068193 0.0
0.002137733814243498 8.70117280224136e-5 0.0
0.0012788629952843037 0.00017369988760448503 0.0
0.0020677550959864524 -0.0003059980779222251 0.0
0.0015405019177668962 -9.636591484474904e-5 0.0
0.002704071738792657 -0.0002517945117062131 0.0
0.0031640240838540796 -0.00015633099316018418 0.0
0.0009950724887276 -0.00043137848942666717 0.0
0.000999241251083689 -0.000457504082316811 0.0
0.0009587805870325563 -0.00043174595385282234 0.0
0.0009170049843415984 -0.00040632510612191797 0.0
3.095985300644074e-5 -2.2532867649688784e-5 0.0
5.807366320816361e-5 -4.333100067072074e-5 0.0
6.503440786896552e-5 -4.450107853583721e-5 0.0
0.0008561910613699414 -0.0002927199769752899 0.0
0.0008102548602223116 -0.00029477925693532794 0.0
0.0033622912528866273 -1.5487342403943055e-5 0.0
0.0018029063796813625 -0.0007332312904392175 0.0
0.0017697865109085062 -0.0007157731794926619 0.0
0.0017678161441755237 -0.0007483710303733368 0.0
0.0017345208277881568 -0.0007306291051018632 0.0
0.0016984443013291681 -0.0007439218296033533 0.0
0.0016966928055931498 -0.0007117900520706173 0.0
0.0017708443028529096 -0.0006833275156026168 0.0
0.002311926466549984 9.582010976093815e-5 0.0
0.00039330106923644593 -5.5564079389633395e-5 0.0
0.000458326615293802 -9.492506983195679e-5 0.0
0.0003984916922366652 -9.40190611610893e-5 0.0
0.0021229916514503497 -0.00029252224978317415 0.0
0.0007130502778873095 0.0001962609132845625 0.0
0.0016899920429061608 -0.00030109082682390064 0.0
5.1675464665465694e-5 -1.9750573909366224e-5 0.0
0.0010399716808142752 -0.0006245526123881067 0.0
0.0010064552175927824 -0.0006227294686220508 0.0
0.0010126296546129046 -0.0005989153773757902 0.0
0.0011633023036380016 -0.0006018759105443077 0.0
0.0009955124723895167 -0.0004024768939097184 0.0
0.00044333510754070247 -0.0001842467917132191 0.0
0.000260489420027852 -0.00014004960963607822 0.0
0.003345054638160883 -1.0293670174602602e-5 0.0
0.0032978342714247533 -2.1170387290282824e-5 0.0
0.0006570676064136396 -0.00046593832434833627 0.0
0.0007894446601561502 -0.0005200503618589895 0.0
0.0007599767670404572 -0.0005227263308504352 0.0
0.0007230670643266234 -0.0004940216976893413 0.0
0.0007288448520450999 -0.0005229974974227169 0.0
0.0020107227307193825 0.0001019417734789274 0.0
0.0013809036662857585 0.00016128212480986059 0.0
0.002164057729459045 -0.0006573830636545096 0.0
0.0021919840043946323 -0.0006703419253775033 0.0
0.0022286343790128044 -0.0006451684261663203 0.0
0.0021501102719612974 -0.0007002008913205346 0.0
0.001075240934827333 -0.0004293494944926314 0.0
0.0019067961635126076 -0.0005434595149388058 0.0
0.001270035618901523 0.0001788544776146162 0.0
0.0013777634635805634 -5.795236773265337e-5 0.0
0.00336979793733367 -1.7532685264041452e-5 0.0
0.0033412926643129875 -3.5767874968691154e-5 0.0
0.0033292426510922444 -3.8124452690560936e-5 0.0
0.0006933760325889382 -0.000494777197073612 0.0
0.0006649371374192714 -0.000494085841175242 0.0
0.000998986246787482 -5.735946703830498e-5 0.0
0.0008803729993809965 -0.0004107707314105017 0.0
0.0031457932444446312 -0.00011869567342997028 0.0
0.0025623287635598963 0.00011453634173864217 0.0
0.0015161679792740448 -0.00018572888582329714 0.0
0.0015621018240490334 -0.000177903807938308 0.0
0.002009908779771406 0.00013279192946113222 0.0
0.0024692207472926755 -0.0004640793500506963 0.0
0.0014553837474757093 -0.0005147635143726723 0.0
0.0014572163874769029 -0.0005417910640077108 0.0
0.0003688764374567097 6.753060040082301e-5 0.0
0.0008071877796973512 -0.0004130799395534808 0.0
0.0007701572059884566 -0.0004101902258491629 0.0
0.0007291402577173602 -0.00038353237867143136 0.0
0.0007343154925791806 -0.0004098230345866339 0.0
0.0006198594080188702 -5.0525714046253374e-5 0.0
0.0006229875170382889 -2.5814439366296913e-5 0.0
0.0006947063084038735 -9.796804888981854e-5 0.0
0.0021808992959630037 -0.000710213387516886 0.0
0.0021216137828393537 -0.0005345537196686421 0.0
0.002074666409261916 -0.0005577463399960418 0.0
0.002114510660052803 -0.0005707484070183273 0.0
0.0020680331889369923 -0.0005948193352829787 0.0
0.0020955525828932745 -0.000605061609191677 0.0
0.0021587773138136293 -0.0005416567989342861 0.0
0.002193444033782719 -0.0005460948060016087 0.0
2.6285870202949172e-5 -2.2389098026764195e-5 0.0
0.0033744823016940264 -1.898572031434546e-5 0.0
0.002759758164125626 -0.0004041814487925175 0.0
0.0019749683247599114 -0.0007089882372110083 0.0
0.003123918130596209 6.656035846736011e-5 0.0
0.0019129188640505548 -0.0006813442090060433 0.0
0.0019057907915172494 -0.0007143118888414232 0.0
0.0025291110855077854 -0.00031271680554331504 0.0
0.0022673946829740643 -0.00025009640961159383 0.0
0.0022204603089984345 -0.0002444389264523426 0.0
0.001056478810226082 -0.0005628541106733605 0.0
0.0006201536573067675 -0.0003534371196342552 0.0
0.0025220149874434347 -0.00018112621031393187 0.0
0.002647142292551823 -0.00043039865634858233 0.0
0.0011634619064623565 -0.000339394797649421 0.0
0.0012065473459427138 -0.00033443670248465304 0.0
0.0012047498952607331 -0.0003573489161042525 0.0
0.0012095402585896625 -0.00031235877452954054 0.0
0.0011620546577439518 -0.00036258553948898903 0.0
0.0012485893509633305 -0.00033160768747483394 0.0
0.0012542965997396776 -0.0003110640842038493 0.0
0.0012658321185523443 -0.00028851837399841793 0.0
0.0025111670452366433 0.0001408964471003064 0.0
0.00028099995978888046 6.711841477508783e-5 0.0
0.0024418534596385294 -0.00012180500647146193 0.0
0.002651026085039033 -0.00026117543602477075 0.0
0.0005220333243365551 0.00015102120653347008 0.0
0.00047535978998121837 -1.1694288629607155e-5 0.0
0.0006961453080197943 -4.686069048061592e-5 0.0
0.0005440600249316646 -0.00032278300360554483 0.0
0.0011632456002241421 -0.00029490087266941016 0.0
0.0009043259114852665 -0.00024874182909898095 0.0
0.0009667832918360045 -0.00024883469353651286 0.0
0.0010062861337999675 -0.0002719164887789334 0.0
0.0016228065855308455 -0.0007056257726586061 0.0
0.0016609170324174544 -0.0007244882004608917 0.0
0.0016605503315994972 -0.0007596402905523231 0.0
0.001697101684374932 -0.0006802837626913367 0.0
0.0025988180186783437 -0.00045823917189851266 0.0
0.0012120082100344422 -0.0001908179377593406 0.0
0.0024597893789027442 -0.00028464946067824115 0.0
0.0011597490467223383 -0.0005731680364352021 0.0
0.0017719724571724316 -0.0006516756310181534 0.0
0.0012340250778240711 -0.0006775600247720105 0.0
0.0031142836895232395 -6.068401818530263e-7 0.0
0.0016452052706240154 -0.000311899533406787 0.0
0.00039406671029352115 -0.00015864648185715528 0.0
0.0012510409997218367 -0.00047352836969048094 0.0
0.0012918934015555428 -0.0004933110274552817 0.0
0.0011670298839682894 -0.0004341517694312149 0.0
0.0012667209493215266 -0.0006096928794362313 0.0
0.0019826423017528004 -0.00041298094010209797 0.0
0.0019326374791706028 -0.0004294261047016562 0.0
0.0019762442152138765 -0.0004396138127335991 0.0
0.0024134216129579247 -0.00010289339464110572 0.0
0.0014962842537354878 -0.00047982713850977206 0.0
0.0010808287049967982 -0.00039449918815849164 0.0
0.0019156411862445966 -0.0001825662661928924 0.0
0.0019056902629371619 -0.000201442812678271 0.0
0.0004274801733824383 -0.00025948672061991017 0.0
0.0008924541166630078 -0.0005289147618600655 0.0
0.002241045089453358 -0.0006051916362795363 0.0
0.0018922880547114869 -5.2799585471969564e-5 0.0
0.0017451227752554859 -0.0005188110771711381 0.0
0.0017015169317475302 -0.000531975965002164 0.0
0.001699418338994603 -0.0005607981827128892 0.0
0.001658492719248787 -0.0005441982375561915 0.0
0.0016576179283202207 -0.0005731292811265408 0.0
0.0017394244938502652 -0.0005762211371864988 0.0
0.002042739758163175 -5.775463820244974e-6 0.0
0.0013696709301355102 -0.00040827290418230444 0.0
0.0013289990633950331 -0.0004152979186006595 0.0
0.0018938269301753332 -0.0003934095320290234 0.0
0.0011250202575846455 -0.00043784291318472085 0.0
0.001870208006833239 -0.0007317452938504381 0.0
0.0014130837946660208 -0.0004970293499982359 0.0
0.0016607081560154509 -0.0005164681796601347 0.0
0.0023501889828770567 -0.0006404914358786941 0.0
0.0015076064118396831 -0.0003185485002132535 0.0
0.0031952438803511743 -6.498199645775968e-5 0.0
0.0016679323536602229 -0.00043828633721024966 0.0
0.0007548598739904242 -0.0003119168718264629 0.0
0.0014824148745557267 0.00014649904835220597 0.0
0.002343240934023764 -0.0005136065331430443 0.0
0.0030564956417362134 6.966665529629015e-5 0.0
0.0004956771138409824 3.300359011401491e-5 0.0
0.0005152069714379043 5.39086264003823e-5 0.0
0.0005709035181838836 2.2187509616603785e-5 0.0
0.0006045637292024417 4.7698272804110075e-5 0.0
0.0006614239095173828 3.032983975668545e-5 0.0
0.002390902465494454 -0.00014873180605799637 0.0
0.0013734907372025611 -0.00070594903842123 0.0
0.001554030428327471 -0.0003102431125155336 0.0
9.985815067651923e-5 -2.787525487190219e-5 0.0
0.0011523173247412325 0.00020019007607362997 0.0
0.0010698001716549772 0.0002106678574216488 0.0
0.002256036003975241 7.977997777071144e-5 0.0
0.0013361192527497816 -0.000594416442192365 0.0
0.0015216923962831635 -0.0006822746862976102 0.0
0.001324708166134823 -0.00021594899865406993 0.0
0.0018495025579506777 -0.0003832466754830714 0.0
0.001801321094824771 -0.0003715291384385667 0.0
0.0018095268005092666 -0.00034697916919195187 0.0
0.0019061210700321081 4.5149112755973115e-5 0.0
0.0012562397761194807 -0.000500043468309169 0.0
0.0008540888329095681 -0.000227432545609815 0.0
0.0012834621145812717 -0.00037308022534643165 0.0
0.00017347969600650073 -0.00010481676435715296 0.0
0.001763303461113933 -0.0001766275468633339 0.0
0.0007153175690642031 -0.000464722608266849 0.0
0.0017630748752926761 -0.00038927343992298084 0.0
0.0010639150145783634 -0.0005921636768188071 0.0
0.0023681026034302072 -0.0002556012618900141 0.0
0.0015891188591020244 -0.00038785035752742614 0.0
0.0016166021503976806 -0.0005555621749774416 0.0
0.0029655251144035306 -0.00019588728882450392 0.0
0.0006319887308210932 -0.00046556274584354576 0.0
0.0032326045626595076 -0.00015828634737377097 0.0
0.0013229664382148785 -0.00029749206981567115 0.0
0.0015835470032665676 -0.0004354557192504006 0.0
0.00029289007897673495 -0.00011032107300805155 0.0
0.0029684384519082503 -0.00014118062393127728 0.0
0.0018563594465871754 -0.0005895088403156329 0.0
9.988874000634497e-5 -3.345439862143082e-5 0.0
0.0017047417890158135 -0.00024511236186815726 0.0
0.0017023115503212083 -0.00026158640284786126 0.0
0.0031764796920114866 -4.036346974196093e-5 0.0
0.0018373694962624872 -0.0007490374117478652 0.0
0.0005866391687725885 -0.0003514203306304162 0.0
0.003279509214634811 -6.581804943760276e-5 0.0
0.0017633784263644176 -0.0003376462755106996 0.0
0.001634215407140033 -0.00037803154548370614 0.0
0.0020453155456328998 -0.0005179533285181205 0.0
0.0020027383145382036 -0.0005077101801456707 0.0
0.0018698768814243804 -0.0005302993402957032 0.0
0.0015512913652804198 -0.00033121004658457444 0.0
0.0019122559941476863 -0.0007658764589400882 0.0
0.0020542032398092065 -0.0007506693855721593 0.0
0.001466246614449216 -0.0007486298443834914 0.0
0.0015783512002682035 -0.0007613336657244622 0.0
0.0022635567496592426 -0.0006995266461562146 0.0
0.002254527329528872 -0.0006620443021751978 0.0
0.0011737003772278156 -0.0006886735180281243 0.0
0.0009278451106145132 -0.0006191236012201263 0.0
0.0019832620470218837 -0.0007598418501746813 0.0
0.0012500485655845325 -0.0007100268898928267 0.0
0.001404164309663992 -0.0002635162356096058 0.0
0.002907519292613616 -9.374599493081032e-5 0.0
0.0023748540733813106 -0.00038831711233055187 0.0
0.002356645060109078 -0.00041653170409004667 0.0
0.0012044816691829461 -0.0003821080006421675 0.0
0.0020457277549524445 -0.00034724494448153847 0.0
0.0016208314314504258 -0.0006112331890419622 0.0
0.0008425266000356935 -0.00048821765546054044 0.0
0.0006299634439398813 -0.0002831347817889699 0.0
0.0014130224829057949 -0.00037764207031990515 0.0
0.002971001003825157 2.2443209825347003e-5 0.0
0.0011551925704331707 2.2229798808575608e-5 0.0
0.0016010482005793887 -0.0003013861840726759 0.0
0.0018896039429340964 -0.0004202605397453793 0.0
0.00022869067717189563 -0.00019529585769177316 0.0
0.0002372333485725997 -0.0002177110748237085 0.0
0.0014130644773999658 -0.0005503543782972402 0.0
0.0011876718460136011 -0.0005131754312908284 0.0
0.0017107580013724373 -0.00045141807533963024 0.0
0.003151051444531956 5.5483018428712993e-5 0.0
0.0018075111163352966 -0.0006676331213010735 0.0
0.0033355689396214055 -5.060978201365705e-5 0.0
0.003312439870975927 -7.822959687094352e-5 0.0
0.0009277348364031017 -0.0001563180655890098 0.0
0.0014561811304887782 -0.00041523187857524083 0.0
0.0015375383022689826 -0.0004960228220322469 0.0
0.0032392182732933882 1.1398199346848546e-5 0.0
0.0015856774606672513 3.1171769012174995e-5 0.0
0.0022364042026889407 -0.0005238604272452486 0.0
0.002308984392590103 -0.00044017498493533 0.0
0.0009107410669439823 -0.0005879858598537762 0.0
0.002121814934298533 -0.0004126007326956828 0.0
0.0014575253582104998 -0.0003696327695423491 0.0
0.0022254401163756595 -0.00037333290540313217 0.0
0.0022145503404710134 -0.0004000063127450469 0.0
0.0022775855729977464 -0.00035307252917474424 0.0
0.0007621719213428404 -0.0005523069362160029 0.0
0.002655275103252876 -7.449588793766104e-6 0.0
0.001935585551421199 -0.0007326794878037978 0.0
0.002755776310928165 -0.0004597519108079257 0.0
0.0025096153927344055 -0.0002850705304688235 0.0
0.0016211069444052025 -0.00022849898819704104 0.0
0.0020640542696735587 -0.0006324704446312312 0.0
0.0012954340867438493 -0.0005196479383590172 0.0
0.001359707125416946 -0.00031795016338179144 0.0
0.003139579690213983 -3.16291808993139e-5 0.0
0.0007193793168186799 -0.00020683298752801878 0.0
0.002414086212055539 -0.00016698652501613158 0.0
0.0016017585641383235 -0.00014983041822202845 0.0
0.002091378520368692 -0.0003539125584992894 0.0
0.003009109538212779 -8.952152378945275e-5 0.0
0.0002595489761926136 -0.00011528005319233252 0.0
0.0024204300633961368 -0.0004224694968948134 0.0
0.0018222493323293031 -3.138044159372307e-5 0.0
0.0018058729977587086 -4.740442572599294e-5 0.0
0.0019979513706985764 -0.0006093161845661406 0.0
0.0018394454521192959 -0.00046254210735458 0.0
0.0018909905187979555 -0.0006030373645375048 0.0
0.0024562381624454073 -0.0005005861104000226 0.0
0.0024763472091237824 -4.198542673153554e-5 0.0
0.0015986046018056158 1.4740240510446817e-5 0.0
0.0022261866117441243 0.00014421450231921594 0.0
0.0029018629252247716 -0.0002565385545989557 0.0
0.0029168690861592944 -0.00022850889193464096 0.0
0.0016002861701791592 -8.686947054133445e-5 0.0
0.0010798986448217985 -0.0005017564995881175 0.0
0.0021796501030546213 0.00011363691423859585 0.0
0.0016026139254061128 -1.5017021924658607e-5 0.0
0.002111682057491033 -0.0004398114342781596 0.0
0.0032856059572428237 -7.528953260602991e-5 0.0
0.0005569792002738979 -0.0003758486341402241 0.0
0.002039197622996613 -0.00021755672241973383 0.0
0.0016051073261429602 -5.008311597629271e-5 0.0
0.0015998605598218426 -7.554836639336753e-5 0.0
0.0005670032910028372 -5.198419156267536e-6 0.0
0.0029486617356395406 0.00010016618260297434 0.0
0.0017236988425288387 -0.00015566101340499792 0.0
0.003005492304472994 -0.00018802550935693275 0.0
0.0010401622618559868 -0.00047946353433772485 0.0
0.0025522338607941774 -0.0005855728363481144 0.0
0.0026216807800741922 -0.0005603367083048107 0.0
0.000944220755344545 -0.000492112757967637 0.0
0.0021895065520380792 -0.0004540449860133623 0.0
0.001429463471176223 -0.0007437375358529293 0.0
0.002094019169151351 -0.00013286161207652015 0.0
0.0006059636459161169 -0.0004800742025568274 0.0
0.00174203882314251 -6.833441597613639e-5 0.0
0.001809416961269402 -0.00020460457264307054 0.0
0.0017744027293538172 -9.044144636380946e-5 0.0
0.0019280735179943726 -0.0004570924012631184 0.0
0.0023417927250255315 -0.00044449984271112067 0.0
8.27411946324884e-5 -8.716916532729171e-5 0.0
0.0001424248111578473 -0.00014622544956070815 0.0
0.00017070676764013114 -0.00017272841396041868 0.0
0.0031274670765391345 -0.0002498409852051837 0.0
0.0002293653680605077 -0.000226310672888365 0.0
0.0009668991095294348 -0.0004596089329087951 0.0
0.0004363935854375916 5.604952134999755e-5 0.0
0.0027901581627659423 -0.00047533020284656755 0.0
0.0005132328375766738 -0.00042658234410153487 0.0
0.0005759387123539285 -0.00046365705992544446 0.0
0.0030935457763445733 -0.00027485708772773685 0.0
0.0030263393470363327 -0.0003266542657820318 0.0
0.0017933236111013686 -0.00025830142951841916 0.0
0.0013013108427497029 -0.0006318374718731795 0.0
0.0024644701312920665 -7.220740465505089e-5 0.0
0.002857787846162517 -0.0004341080054932014 0.0
0.002891745960826234 -0.0004144573125156063 0.0
0.00045299566786489293 -0.0003921929332167803 0.0
0.00031482609590719737 -0.000293318303619472 0.0
0.00295989272371391 -0.00037079423051458195 0.0
0.0029873590262108553 -0.0003221322720540279 0.0
0.002004149859909816 -0.0007256441948701925 0.0
0.0003735059369198023 -0.00033767198772420695 0.0
0.002437464062569402 -0.0006422717941873174 0.0
0.000632209043562047 -0.00038159956863630616 0.0
0.0027688333209326273 -0.00032265506290909534 0.0
0.0009668047135155376 -0.0006061636442793046 0.0
0.0025742791240508153 -0.0004480650801535435 0.0
0.002641933229930743 -5.8305135408843255e-5 0.0
0.0009470597273355182 -0.0003335599856881608 0.0
0.0006389532329321092 -0.0003066700970010465 0.0
0.001225444904842519 -0.0005338981620234685 0.0
0.001624694218496894 -0.00044978491762000223 0.0
0.0027924814492009033 -0.0001802177039189599 0.0
0.0017337683013213215 -0.0006978876186806862 0.0
0.001768047982352098 -0.00016188197685348762 0.0
0.001752611167947171 -4.366862056017326e-5 0.0
0.0022449272328047124 -0.0003224050419373172 0.0
0.0025817199022084504 -0.0003733990321497946 0.0
0.0009254422128421853 5.736243768242441e-5 0.0
0.0021129496265647678 0.00010807297077483837 0.0
0.0010308337297683461 -0.0003289842235581497 0.0
0.002810397793172378 -0.00026126386300526385 0.0
0.0006684878094120236 0.00010316365225996293 0.0
0.0005665751216942942 7.758973338350107e-5 0.0
0.0014331746934147407 -0.00010625323620248517 0.0
0.002940131172848772 -0.0001125883445547095 0.0
0.001571219041872132 7.479721196423418e-5 0.0
0.0017151154764802937 -0.00019686120922516985 0.0
0.003110123766392308 -0.00010109810028182229 0.0
0.0008685549037382979 -0.00033613221925759103 0.0
0.0010684844202201095 -0.00021679674697378686 0.0
0.00241381299409828 -0.0003108030479741749 0.0
0.0026605394745670558 -0.00034728308370010185 0.0
0.0007546051634175667 -0.0003356778933689306 0.0
0.00044371138241123295 -0.00028673848680682335 0.0
0.002550255648676399 -0.0003707647944882517 0.0
0.001092690091936251 -0.0001417157531706508 0.0
0.0025422342148449435 -0.00021180755283257507 0.0
0.003343790098066083 -3.816322201578972e-5 0.0
0.002774797213318307 -8.863684308174421e-5 0.0
0.0017800497374480294 9.326010787113868e-6 0.0
0.001837194291393311 5.991026665207815e-6 0.0
0.002080542804542217 -0.00026482157634993955 0.0
0.003047419195168722 -2.1136380315221548e-5 0.0
0.002994621669601007 6.42240722012024e-6 0.0
0.00013805675991805555 -9.580359521575401e-5 0.0
0.00010321746894578375 -7.010141194969824e-5 0.0
0.0013361090939365183 -0.0006230947145201954 0.0
0.002162453467656967 -0.0004200267302607769 0.0
0.00121502480533898 -0.0002295464444232959 0.0
0.0012144202310743414 -0.00021039633035889387 0.0
0.0012020248410393672 -9.174309171609643e-5 0.0
0.001698773269344434 -0.0005900541069727491 0.0
0.001987286894228104 -0.00023310680766996635 0.0
0.0005337261337853276 -9.63993530477335e-5 0.0
0.002339914873655468 -0.0001751170050447098 0.0
0.0018049638144638875 4.396462519222527e-5 0.0
0.0014126461693290886 -0.0004003695606779024 0.0
5.763757695646741e-5 -6.456646202280992e-6 0.0
0.0016270959389645674 -0.0004249017876537438 0.0
0.0030918773314050343 -0.00011789513484417254 0.0
0.002637977308101383 -0.0002119907744039243 0.0
0.002504584208469833 -0.0001592274212505359 0.0
0.0029585942530594624 -0.00015922685615793206 0.0
0.0021517886519578583 -0.00018622537893276335 0.0
0.0011855723263503946 -3.0135437542007415e-5 0.0
0.0003890054920893582 -0.00014127257106843612 0.0
0.0014598727253455892 -0.00020648851548728874 0.0
0.0018346696050307034 -0.00026699240201648246 0.0
0.0004853693064135155 -0.00024709118509717187 0.0
0.0015411408711839827 -0.0007579743725377919 0.0
0.0020804447026744528 -0.0001849479198363312 0.0
0.0010067453973494785 -0.00048350172270172844 0.0
0.002247326272456511 0.00010479138863569431 0.0
0.0028366706419872363 -0.00017632060876704043 0.0
0.001086748241485129 -0.00012087598770077348 0.0
0.0024731378909723903 0.00013981518457920219 0.0
0.0018970360030807418 -0.00021999100879583475 0.0
0.0016298317180126604 -0.00040089551491396934 0.0
0.0005992441432063289 -0.00011775494685545029 0.0
0.001116345247115895 -0.0002373021949405717 0.0
0.0014593715795245788 0.0001373519327006191 0.0
0.00045411077930435496 7.318122209224289e-5 0.0
0.002495662059120707 -0.00031147074354853123 0.0
0.0006600068944380812 -0.00024166804140752227 0.0
0.001675132053769727 -0.00039061149881946877 0.0
0.00279785211182528 6.686122456758474e-5 0.0
0.0023714184808950574 -0.0003085307727320318 0.0
0.0011283727665832635 0.00010367178785355306 0.0
0.0002039404690675314 -5.538517414509879e-5 0.0
0.0008528264575977612 -0.00020567342653147276 0.0
7.622225019682599e-5 6.310075127327947e-6 0.0
0.00015846881116356206 3.223314296163988e-6 0.0
0.002359317421806817 -0.00028518554830013514 0.0
0.0019486062024044377 -3.7220179060763666e-5 0.0
0.001099936802704944 -0.0006759391661494324 0.0
0.0007708632593044855 -0.00043794108053535775 0.0
0.0027712342363541815 -0.00014072569792447024 0.0
0.00038541557109184125 -0.0003277624555310653 0.0
0.0022853067814888684 -0.0003284433615580989 0.0
0.0018972834715184617 -0.0005731828300057539 0.0
0.002744645943361047 0.00010195865134611499 0.0
0.0009875751462455097 -0.0005712194547712528 0.0
0.0029806090157042824 -0.0002809636804673706 0.0
0.0017177659776878317 -0.00018321595092987567 0.0
0.0005536693769956004 -0.0004285262184052016 0.0
0.002292459004692733 -0.0006609277106498488 0.0
0.0005599951646119636 -0.00027834934310875023 0.0
0.0031754305339000365 -0.0001112232188550672 0.0
0.0004018800483726056 -0.00019467997421325126 0.0
0.002346449141039787 1.2294953970045521e-7 0.0
0.0021554829638900383 -0.00016521453014905823 0.0
0.0017548902170290983 -1.8368778534601232e-5 0.0
7.8453597429227e-5 9.51544302685525e-6 0.0
0.0013210036893773125 0.0001726203239139217 0.0
0.0009151840910512123 -0.00013227425439062715 0.0
0.002650617297512362 -0.0005145031930042208 0.0
0.0026874811295839267 -0.0005326939872426005 0.0
0.0002532798914552648 -9.52165382455933e-6 0.0
0.001950366518513681 -0.00020842212747721505 0.0
0.00080381880576202 -0.0004387564716529292 0.0
0.0013723456620329442 -0.0004313899719071488 0.0
8.665637974106186e-5 -6.665583762186613e-5 0.0
0.00018870335532523126 -3.245837118273209e-5 0.0
0.0018716678114082817 -0.00029458100245096676 0.0
0.0017206682213974209 -0.00037897123919200114 0.0
0.00012293881685986302 -1.7916114730604085e-5 0.0
0.0003326067967416616 -0.00011602141236009925 0.0
0.00025775329203867 -0.0002493838876890681 0.0
0.002788864966885638 -0.0002901537424096591 0.0
0.002201313408906428 -0.0004267376250528086 0.0
0.0004020291450158438 -0.0002587147847059597 0.0
0.0026052905522596435 -4.1487243238450145e-5 0.0
0.002392068275315732 -6.102259416489582e-5 0.0
0.00018262900183247874 -0.00017213217883186736 0.0
0.0013899858553229488 -0.00014210273832098968 0.0
2.305081484605896e-5 -2.340302850151656e-5 0.0
0.003375619840101441 -2.374649905224333e-5 0.0
0.0032755174692623967 -4.4634706834267955e-5 0.0
0.000998996379303519 -0.000645431651672342 0.0
0.0026117188000868135 2.6569585103398328e-5 0.0
0.0022014885916009 -0.0005167354631909238 0.0
0.0004444096869398923 -0.00020229468549096472 0.0
0.0020882346033119052 -0.0007443741967848813 0.0
0.00047872425258001895 -0.00011523866001112817 0.0
0.002927615050843501 -0.00013061441260016094 0.0
0.0013297265450716506 -0.0004378450842066313 0.0
0.00012946145180772905 -8.327937942184518e-5 0.0
0.0015527587373570014 -5.5408611866941556e-5 0.0
0.0015506610992106085 -6.89331661158677e-5 0.0
0.0030774209263823094 5.789822252946963e-5 0.0
0.001885751150887086 -0.0004464588943443693 0.0
0.0002422283722785678 1.287097389893208e-5 0.0
0.002948059887264502 -0.00035420066002722937 0.0
0.0031072274933337096 -7.823751379280888e-5 0.0
0.002372500159431087 5.053267754916685e-5 0.0
0.002435614617845462 2.628381220573927e-5 0.0
0.0014413718024438571 -0.0006551343927360292 0.0
0.003301924798095116 -0.00010075643638845937 0.0
0.0014315383324636306 -0.00012133030190392183 0.0
0.00032003097088226614 8.419102416129659e-5 0.0
0.0003935283066927455 -0.00028185098530772245 0.0
0.0010141561407785895 0.0001360003601913726 0.0
0.0029551896544007077 -0.00027971994071701015 0.0
0.0001731618349468442 2.554208720156826e-5 0.0
0.0017673589104383615 -0.00014793479389459208 0.0
0.002651204189442008 -0.00018658867564281327 0.0
0.002126978645962792 -0.00027314042393805654 0.0
0.003322464877733404 -3.287478555265494e-5 0.0
7.85619595230133e-5 -3.6606872785806824e-5 0.0
0.0031228040686713233 -1.9380409310135282e-5 0.0
0.003333359257056775 -3.254689803180411e-5 0.0
0.0016247023869641081 -0.0007347428238081002 0.0
0.0019263226347403623 -0.00028345507265407677 0.0
0.0011343561733033526 0.00019039327268573935 0.0
0.0007951923705416097 -0.00033537222209797403 0.0
0.0010517329779762756 -0.00019008747858973154 0.0
0.0013811679071903133 -0.00015695332689411834 0.0
0.0006763007970206609 8.534969646696105e-5 0.0
0.0012210484246268929 -0.0005059945863766502 0.0
0.0006088422324324631 -9.48554278673465e-5 0.0
0.00040924945365610426 8.925038856582704e-5 0.0
0.0015661870848095207 -0.0002544875594538239 0.0
0.0023882341303355405 -0.00041977847288785696 0.0
0.002838764964531576 -0.0002622372268151965 0.0
0.0011292476079790526 -3.411948217769563e-5 0.0
0.000771947976029293 0.0001570128480113204 0.0
0.0018275479010084333 6.773677212837987e-5 0.0
0.0009756561715984033 -0.00012918291811451403 0.0
0.0026919947397559805 -0.00027396883656824103 0.0
0.000961223108993916 0.00019215559836153855 0.0
0.0008665245997874371 0.00018700887842179053 0.0
0.001847360649027468 -0.00040960344251699183 0.0
0.001880819723013827 0.00010976228791236513 0.0
0.0013171483070309443 -0.00072520251910007 0.0
0.002510594367612383 -0.0006118145577812251 0.0
0.0009032858125337705 -0.0003135127220913727 0.0
0.0023336642193915597 -0.0006811520012572281 0.0
0.0007277010082449393 -0.00012306260105771037 0.0
0.0027395513318922127 -0.00026653259989288476 0.0
0.001286701320013833 -0.0004207808271133997 0.0
0.002916406183891577 -0.00016725079691527484 0.0
0.0007975260986982029 -0.0003141717418551186 0.0
0.0013727337940284445 0.00016489808697813484 0.0
0.0011989043594729874 -7.161771129672351e-5 0.0
0.0015001619936780624 -0.0005565550760312669 0.0
0.0015949509491209166 -0.00018958121469693983 0.0
0.0015487564977894309 -8.168992538377706e-5 0.0
0.000925711528242915 -0.00043418405895994603 0.0
0.0009369284204639519 -0.0004638898006232427 0.0
0.000605481928666311 -0.00021756766493831938 0.0
0.0008652604965856286 0.00024902730914972126 0.0
0.001554191332806278 -0.0006426182354073523 0.0
0.0029512018150135533 6.268931462269199e-5 0.0
0.0026303401696983913 -0.0003452300627029469 0.0
0.001844040242273272 2.390090853446788e-5 0.0
0.0008639475611662859 -0.0003149619449173835 0.0
0.002316438046621296 -0.00025192897650335474 0.0
0.001941294057994135 -0.0005558174474050545 0.0
0.0012845379814650614 -0.00039637498859222665 0.0
0.003143485856524953 -9.456142444933854e-5 0.0
0.0033021943183699073 -5.799271103262096e-5 0.0
0.0011632556567042675 -0.00021610054965738316 0.0
0.0022154651762098655 -0.0006846047182315739 0.0
0.0030235403333081913 -0.0003047035689631396 0.0
0.0001521591613839091 -3.884949972312257e-5 0.0
0.0008022924172761111 -0.00020731949576682836 0.0
0.0009460791237946033 -0.00031238400983321554 0.0
0.003082641349402957 -0.0002625244467517466 0.0
0.0012152739823927594 -0.00047778342221152905 0.0
0.0021139017108256545 0.000110198685537133 0.0
0.0003272848948442279 -0.0002866060454182541 0.0
0.0019459209679120227 -0.000335530571289821 0.0
0.0028311501954423756 -0.0002352391862292971 0.0
0.002249972364031524 -0.0004056646423903422 0.0
0.003197808794132072 -9.047714260716648e-5 0.0
0.002264284243466215 -0.0006193210377011722 0.0
5.8675488709110516e-5 -3.0751731156775444e-6 0.0
0.0014904861018023542 -0.00024551531912386446 0.0
6.0041548342000444e-5 -3.7559761652244066e-5 0.0
0.0010683902009572832 8.93197437525824e-5 0.0
0.0007080293577979988 -2.5482378044578766e-5 0.0
5.170708192606703e-5 -4.892077975057976e-5 0.0
0.0008628532504650273 -0.0005991016148314832 0.0
0.0007984952082349945 -0.0005474424067738124 0.0
0.001437743976855487 -9.285605445741917e-5 0.0
0.001448020384272252 5.88412968343187e-6 0.0
0.0005851942373704271 -0.0004472827229247495 0.0
0.001030945705102087 -0.00012578507361660492 0.0
0.001987951419142999 -0.00021722754572945803 0.0
0.0005928071839940381 -0.00028030002823053524 0.0
0.0022050565115945974 0.00013654375619184605 0.0
0.001989198796716592 -0.0005371535454762416 0.0
0.00043422550290631663 -0.00011563817953053002 0.0
0.0002539682504754057 -0.00020481551715823682 0.0
0.0017249231154949141 -0.00012931076402663319 0.0
0.00011894721012484116 -0.00011503661120530015 0.0
0.0032388724185806717 -3.074056877035549e-5 0.0
0.0011492261950916333 4.922980972264139e-5 0.0
0.0015766028237309214 -0.0002349741896539881 0.0
0.0029127692623957513 -0.00031265974152797603 0.0
0.0031916577486915923 -0.00019831339535780588 0.0
0.0026642396296605304 -0.00016098333865655778 0.0
0.0015492674642003628 -0.0006134268082182179 0.0
0.0020228723793834086 -0.0003175301481346397 0.0
0.0028428512681296933 -0.00041840691182673935 0.0
0.0016941080142144761 -0.0007713586957820674 0.0
0.0027936719688776623 -0.0002392202607656727 0.0
0.0022616089426839257 -0.0003795049209002973 0.0
0.0011737676035703274 -0.00045770757783598995 0.0
0.0020018609788332023 0.00012058051306255827 0.0
0.0012388069003659522 -0.0003757306528454467 0.0
0.0010409566891375756 -0.0005998152576712837 0.0
0.0015521111827093094 -0.00019464865793738644 0.0
0.0025941242608076105 -0.0005413850543955914 0.0
0.0005995310635243251 -0.0001980207547554002 0.0
0.0004901712200742664 -0.00039579410427106757 0.0
0.002430969333760843 7.118435694502188e-5 0.0
0.0007574502388645905 -0.00022784891248740674 0.0
0.0019434715669102323 0.00012223353852531366 0.0
0.001081884886379294 0.0003772463545572332 0.0
0.0025217226893626057 0.00013704116447630803 0.0
0.0029120751749454154 -0.00015086405749414747 0.0
0.00161575402433338 -3.917730945208602e-5 0.0
0.0026005865233936034 -0.0001885602189959818 0.0
0.0020367909182046674 -0.0005862485340664947 0.0
0.002151893538916465 -0.0007352050346718978 0.0
0.0009899907351632042 -0.00030947595306904976 0.0
0.0010391117627025445 0.000200850881664024 0.0
0.0006572803326050804 -0.0002026411694730924 0.0
0.0007334314181694689 -0.0005465714275631455 0.0
0.0014628122221512078 -0.0002704837278303081 0.0
7.954482167335144e-5 -3.343920274624737e-5 0.0
0.000564508004644079 -0.0004097012755545063 0.0
0.0016063424578501714 -0.00010870235682627156 0.0
0.0001976843365560966 -0.00012530889696036425 0.0
0.0001940129541087329 -3.599846619454897e-6 0.0
0.0017565921105939066 -0.0003696280066297212 0.0
0.0017687709110501138 -0.00013505516581266045 0.0
0.0031496393782888283 -0.00021307579372329669 0.0
0.0013824865512514538 -0.00012751628252871482 0.0
0.002406649609222328 -0.00039159360310466314 0.0
0.0017851891245673488 -7.301382297971063e-5 0.0
0.0004656396501198248 8.527947807171338e-5 0.0
0.0006078038492296968 6.69683746180423e-5 0.0
0.0032487906660038464 -6.511388017897635e-5 0.0
0.0020586623815426514 0.00011507997852237595 0.0
0.0004888271637566563 -0.00020864087734876908 0.0
0.002036459908163746 -0.00014103804882489572 0.0
0.0015488761155148223 -2.2688012476694784e-5 0.0
0.0017515540146709474 -0.00018929764604482397 0.0
0.000591917017136708 0.00015513822048736475 0.0
0.0017661246472970855 -0.00077593557800833 0.0
0.0030854954905745577 -4.3972648895399394e-5 0.0
0.0017292998336541478 -0.0003101464341155275 0.0
0.0017246046073840888 -9.228698321739692e-5 0.0
0.002191453609728324 -0.00023321016008652915 0.0
0.001494687984252368 -8.812743874314639e-5 0.0
0.0017380669334459559 -0.0002883306034524103 0.0
0.0008428433046942114 -0.00046821946109181894 0.0
0.002311977082755761 -0.0003582536426977029 0.0
0.001374900030685361 -0.00021849989167263903 0.0
0.0017226333024836853 -0.00011727799978758502 0.0
0.002717127267852371 -0.0005212004684244545 0.0
0.001469079375349782 -0.00019054018236162098 0.0
0.0020545520798697786 -0.00010522126530185012 0.0
0.001793533982850829 -6.081679848207327e-5 0.0
0.0002668540294457458 -0.0002437333754918734 0.0
0.0026465245109760695 -0.0003215557571723031 0.0
0.0017804786591029923 -0.00010570899890190448 0.0
0.000986057224348014 -0.0005970681716981883 0.0
0.0019433245233985907 0.00012243371803056092 0.0
0.002405138804277791 -0.0006605334917104384 0.0
0.0032616790835227564 4.985230577950002e-5 0.0
0.00015686547274307395 7.140916108194927e-5 0.0
0.0014261995342115827 -0.0002791127418109819 0.0
0.0018981959309430948 -0.0007427426285793236 0.0
0.0011985778947003704 -0.000675297591249742 0.0
0.0013613571054460127 -0.0007343764193789322 0.0
0.0002575816258456089 -0.00010457674389481171 0.0
0.0024510882530499834 -0.0003718632527614963 0.0
0.0009950287217878415 -0.00028805071321920677 0.0
0.0014187556124990498 -0.00019731967140698063 0.0
0.0011326953381265794 -5.403941368541789e-5 0.0
0.001409142914922178 -0.0007194987448860449 0.0
0.0024199774618938793 0.0001435656176671622 0.0
0.003114362993551349 6.632710348567283e-5 0.0
0.002037642617260886 -0.0005612629110741782 0.0
0.001722940301900094 -0.000333881286098289 0.0
0.001104783543262708 -0.00045123200559031356 0.0
0.0018395280747070361 -0.0007768888109867195 0.0
0.002558551228725243 -0.00031474488775594465 0.0
0.00022723043169894588 -0.0001258270547248242 0.0
0.0030380422689295404 -9.190236554979499e-5 0.0
0.0014853348252011995 -0.0007286679549402372 0.0
0.0015207807710261119 -0.0006560351991795827 0.0
0.0023044607624764625 -0.0005891130023799614 0.0
0.003349644134463977 -4.409349348065735e-5 0.0
0.0012684330857919567 -0.000692485166231893 0.0
0.0010686949093098533 -3.6130669004459254e-5 0.0
0.0011220189194547977 -0.00022143193240861724 0.0
0.002176636197568693 -0.00025881430675187136 0.0
0.003257310097373938 -3.3140248108452136e-5 0.0
0.00027632539358868 -0.00021367994321533454 0.0
0.0017446167509997622 -0.0002693011483989141 0.0
0.0029975007073405778 -0.0002874001701455625 0.0
0.0032465333863293086 4.7563776286564264e-6 0.0
0.0009489725300771669 -0.00018049625310428226 0.0
0.0015201081110791197 -0.0007360814226774441 0.0
0.0031556681683139556 -8.245315403254618e-5 0.0
0.0005838996343069123 -0.00038522171181679875 0.0
0.003305470728929491 -2.267136939713476e-5 0.0
0.0010694365037212832 -0.0006721839190185876 0.0
0.0023236306492973625 -0.000332353644080768 0.0
0.0006389510383936691 7.923675280892587e-6 0.0
0.0021068386023675254 -0.00010807422479267924 0.0
0.003271144969445769 -0.00011393812609573556 0.0
0.002607608225107986 -0.0002918656782608777 0.0
0.0009400685510994902 -0.0006048144326590197 0.0
0.0006704486446268166 -0.0005178366155613608 0.0
0.000841499601008292 -0.00042752370523474676 0.0
0.002785479407150748 -0.00045204973838718787 0.0
0.0025523208007279035 -0.00019167458165753734 0.0
0.0005303701237537918 -0.00021651071579447285 0.0
0.0013497043656414862 -0.0002675085613567274 0.0
0.0021719379419102357 -0.00028470796425792176 0.0
0.0013022616496097654 -0.0003123348360613324 0.0
0.00318592829339491 2.9169435245694115e-5 0.0
0.002327080763425957 -0.00015567819500090547 0.0
0.001368717626175596 -0.00020393259012701056 0.0
0.0005440481896719035 -0.0001930909136243841 0.0
0.002479768532511403 -0.00033310972723853735 0.0
0.0020656854211935486 -0.0006907842439842693 0.0
0.0029163855897846682 -0.00037933160542089306 0.0
0.0011433870292124441 -0.0006628761970231715 0.0
0.002154838567337251 9.915379583297461e-5 0.0
0.0012419773349371134 -0.0003520322370507981 0.0
0.001967767433725279 -0.0007381437422811385 0.0
0.002886561367233278 -0.00031314917952852966 0.0
0.0025340308475270707 -4.922825702693787e-5 0.0
0.0031866934556265395 -2.4220075783936558e-8 0.0
0.0007796804254119004 0.00016770702618544773 0.0
0.0030979260399087247 -1.132229995708156e-5 0.0
0.0010895659657462237 -0.0004150977328589624 0.0
0.002857701847756765 7.136775767648866e-5 0.0
0.0019936904635186976 -2.4119183717403924e-5 0.0
0.002344588754765938 -0.00011027207348682171 0.0
0.0010238056039860036 -0.00026005074734960365 0.0
0.0023806931978491786 -0.00018639371191659282 0.0
0.001593037693184806 -0.0007411883865787809 0.0
0.0008797371341913877 -0.0005666493420520484 0.0
0.0018079503799294503 -0.00014076237710583807 0.0
0.0025229011195255923 3.382164018307425e-5 0.0
0.0014946358545430435 -0.0006900852057395203 0.0
5.66554609444518e-5 -3.2595940231994505e-5 0.0
0.0032743202951918695 -4.128268159490646e-5 0.0
0.0028489586747617135 -9.793770932359035e-5 0.0
0.0013877491006300726 2.348358954130031e-5 0.0
0.003319185895828428 -5.1721355304968574e-5 0.0
0.0009319788840495878 0.00013852016565528758 0.0
0.0015522642168042142 -6.092105651966698e-6 0.0
0.0033740099890898524 -2.8597496916677193e-5 0.0
2.3801810800839437e-5 -2.664875236134176e-5 0.0
8.421862213586156e-5 -6.0232154186921737e-5 0.0
0.0009722972437122321 -0.00011132595995662043 0.0
0.002054848149789329 -0.0003264733089205467 0.0
0.0023440034411710453 7.90297060914766e-5 0.0
0.0025989160372208 -0.0005099095703331295 0.0
0.0032853101680608426 -4.929890614105801e-5 0.0
0.0002523824166651527 -0.000144248973763968 0.0
0.000708137598013306 1.5208920688699876e-5 0.0
0.002079630014519651 -0.0006567321966622928 0.0
0.0029480641862408372 -9.796704434037677e-5 0.0
0.0008681306317326928 -0.00042650995965138916 0.0
0.00019380416402930368 3.382417097835961e-5 0.0
0.0020848365372644045 -0.00014878017253771122 0.0
0.0010159170090444014 -4.056089550923186e-5 0.0
0.002473764998202491 0.00013214622922818318 0.0
0.0015700618246745396 -0.00010594605919529904 0.0
0.0012910412020877013 -0.0003304566617176525 0.0
0.002992890735733982 6.604368661001136e-5 0.0
0.0030508797107714793 -0.00029133168990221476 0.0
0.0024978164732991325 -0.0005909850926385853 0.0
0.0007631578226368792 -0.00021072309823073922 0.0
0.003123344140368085 -8.038784054688729e-5 0.0
0.0005204655353571807 -0.0002562245858999481 0.0
0.003154415409794991 -3.7464628659930495e-5 0.0
0.0028125631276655324 -0.00044248880190373476 0.0
0.0020181418019105377 7.496407389508437e-5 0.0
0.0023211492385182726 -0.0006606331537605633 0.0
0.0024392914725330033 0.00011234552040217129 0.0
0.0015520688360034609 -0.0001625975562104959 0.0
0.0008707961171881407 -0.0005373829728805965 0.0
0.0012203033824101915 0.00018153178630232132 0.0
7.899554896058112e-5 -3.3719987414119906e-7 0.0
0.003243518942641548 -4.9267749428264544e-5 0.0
0.0003527717570152691 -0.0003096805818602857 0.0
0.002485061074756933 8.535342025181616e-5 0.0
0.0006114149276324521 -0.00046495564006479416 0.0
0.0023279102949051943 -0.00031149886762618786 0.0
0.000695861275793055 4.8621771126792426e-5 0.0
0.00029617659514250574 -0.0001562267889276346 0.0
0.0004298215793860116 -0.00038151821671258854 0.0
0.0003862585523559743 -0.0002622360999276187 0.0
0.0010494486898522323 0.00022962622935122096 0.0
0.0026435952994331192 9.831817708451341e-6 0.0
4.409793752271446e-5 -3.8489891226255213e-5 0.0
0.0028275195142721424 -8.691463070539958e-5 0.0
0.002560526292681534 0.00011913170658097072 0.0
0.0021062619688697035 -0.0003108954727516043 0.0
0.001571177604299753 -0.0001291984390363842 0.0
0.0008922911378754668 -8.312602140774795e-5 0.0
0.0016069639907549283 -0.00017590541808311825 0.0
0.0021266782013267082 -0.0005979655521884583 0.0
0.0010340442828040257 -0.0002885994190503303 0.0
0.0007771996227026744 -0.0005461392503752031 0.0
0.00288166556874575 -0.00023803278296804126 0.0
0.0021923236074670623 0.00014204353172653233 0.0
0.00035457926021119346 7.233442994465886e-5 0.0
0.0010067200569654534 8.849990480328736e-5 0.0
0.0022654387775024602 -0.00023474864656415623 0.0
0.002114036880650291 -0.0007146355814273232 0.0
0.0013452763611357492 -0.00028531076267642233 0.0
0.002680301188790551 -0.0005128337574063606 0.0
0.0002105474487105761 -0.00019952843481632434 0.0
0.002341053922918611 -0.0005637137558666277 0.0
0.0011280323411465324 -1.421903843019995e-5 0.0
0.0031757968051923727 -0.00019560768213762987 0.0
0.0010880596631325586 6.513867498947474e-5 0.0
0.0020716779143699453 -7.727977164798488e-5 0.0
0.0017706754526257984 -0.00035476668733051933 0.0
0.0015575582483548114 8.983174531487094e-6 0.0
0.0018425882781060636 -5.33259183963492e-5 0.0
0.0020417150598466605 -0.0007242442353229975 0.0
0.0026209543760316164 -0.0005338587729916688 0.0
0.0008350074555950497 -0.0003187659272348617 0.0
0.0018930242466239807 9.115948080188244e-5 0.0
0.0018460991605526668 3.9737109394832544e-5 0.0
0.0026127856619372744 -0.0004722187623584322 0.0
0.0015593200797103944 -0.0001491463491982489 0.0
0.0015116876874736024 7.065037089751021e-5 0.0
0.0008648336950269637 -0.0005101796277186978 0.0
0.0031541962216850078 -0.0001935896007019391 0.0
0.0022016477504909313 -0.0007231305052671393 0.0
0.0014979490713352168 -0.0006700254551953729 0.0
0.003274644722962358 1.4777357052528251e-5 0.0
0.0014766362138266828 -0.000594707495419703 0.0
0.0024972997060788587 9.254548006214608e-5 0.0
0.0008943916898773825 -0.0001645507241472775 0.0
0.0022040540211258567 6.102136783181615e-5 0.0
0.0006509660401490466 -1.1473436179370895e-5 0.0
0.0014168807980205636 -7.118908840552522e-5 0.0
0.000995973107632401 0.000303110806414132 0.0
0.0033321656878014354 -3.1002171779505346e-5 0.0
0.0020519493697183167 -0.0005406030340879778 0.0
SCALARS damage float 1
LOOKUP_TABLE damage
0.41206936497084895
0.1631964069638676
0.5575493441498185
0.1689581586908139
0.9721326811107284
0.9869033020592904
0.05312564740949357
0.5985506897860735
0.5941444754881504
0.6029227868319508
0.630522997070655
0.6528292095966874
0.6820396863371307
0.7106544751154549
0.7274910278548175
0.7388974895058007
0.7339441160889795
0.7259927095345435
0.7105832109192803
0.6901760105270394
0.6704800885629862
0.6586367013338846
0.6380681707254918
0.6167545047778913
0.6022246982573747
0.5831565421259965
0.5566939182646495
0.5321441425419215
0.497286336436438
0.4610669412128109
0.41225679110158736
0.353619619182574
0.14271670687415536
0.2504441069088937
0.2716986094500945
0.30440181534774247
0.3260684124963717
0.3418603171725167
0.3595337195891937
0.37173389896830883
0.3843343594579022
0.39679353217320107
0.40644623742077296
0.4173363344992531
0.4287278167380349
0.4362110545350548
0.4430770866153877
0.45267913510414176
0.46323422684073157
0.4756501925963756
0.4827170146681378
0.4920361801400142
0.5008077248181979
0.5135532253452906
0.5174524553147462
0.5319750260477759
0.5377666016374898
0.5505884851952151
0.5589498035017222
0.5739597471857298
0.577405258481234
0.5930217348812177
0.6025295417621939
0.615906387239084
0.6250443757111129
0.6370957655310124
0.6428641086845346
0.652210402820894
0.6658295562256862
0.6778049423527494
0.6979245766336429
0.7102891814152291
0.722431932465928
0.7459957205787662
0.758259297811432
0.7746473661685706
0.7944672490345157
0.8042138485952887
0.8256440771225309
0.8375921818668725
0.8530413709044401
0.8698303527843706
0.8817673380677965
0.8857368800643085
0.9075448976891133
0.9163267268888802
0.9421531457652567
0.9432900110057333
0.9615169115175791
0.9663795520754642
0.9663894718742301
0.9628964930143699
0.9539616563984542
0.9420609948002768
0.9292758197490455
0.9123253425339125
0.9002947543713197
0.8846323051255052
0.8572670569454846
0.8375380360863434
0.8198088576585403
0.8094514388670572
0.7873737163977911
0.7812695177990082
0.7629686883988744
0.7484836736689366
0.7377407505687401
0.7179054903495907
0.7112394067362002
0.6983384297371653
0.6857915331688972
0.6689850983275447
0.670331460112772
0.6483729640445035
0.6420093701275413
0.6259157495094168
0.6151618031741084
0.605370369809632
0.5889433177464232
0.5772243842638733
0.5681650023362546
0.5536448380481899
0.5356375852871392
0.5163074989906334
0.5034768595647473
0.4856959642580112
0.46919119076703625
0.427037861579558
0.39241908982490253
0.37712504945337266
0.2484466342465356
0.3280587731790385
0.4135476949572053
0.5042811092405961
0.5487666005470062
0.5724574240116489
0.5877415214841563
0.5981705278468923
0.6050037135967071
0.6102907603984937
0.6189247189038927
0.6249367361699179
0.6308150723307048
0.6365559666938437
0.6417721349191556
0.6437431957483131
0.6421680195273419
0.6371060614850165
0.6329011187526606
0.6198865135202952
0.6154127438526652
0.6090221950695272
0.6047435815972917
0.6163033610849121
0.6381519312937227
0.7166169750452718
0.6243556189601962
0.9153774962342222
1.0064132655956535
0.9920250973487741
0.9882788077178443
0.9642604496160193
0.8594298739236347
0.7697474558214645
0.6713423091376778
0.5882023940023235
0.5017726825731628
0.44032895099531705
0.36602006613740723
0.2910272107952718
0.21651600391768358
0.17986206957295087
0.02594473692915754
0.09887480960458303
0.17418496107341688
0.2592150866256742
0.35062227483275865
0.4577749111341962
0.5661486921280526
0.6890324967969151
0.8138236456986715
0.9278059368490592
1.0059142439566695
0.9945629587720659
1.0017734957630764
0.9627661496375918
0.8559574083248511
0.6289244971770123
0.5854915507636282
0.8134093661323034
0.6661702284741992
0.9214973121810357
0.7646139083169088
0.9462634519537476
0.8584277295959656
0.7308123111347937
0.5259537529990168
0.6733112645942902
0.47849627356281943
0.6855753229029167
0.6383167491033452
0.46695256204140245
0.4813883528633452
0.06992897629641162
0.30970794306014277
0.611864478376827
0.43423459832127975
0.6237991711519754
0.6185877844597417
0.6234160791778774
0.7199480700216102
0.5602532444662126
0.38730957741811384
0.6974687691212257
0.5673172536609835
0.572531652910799
0.5912123899434061
0.7130660509447104
0.8153092757225986
0.95587809178615
0.8908228977684272
0.8800290077571711
0.7669587468112893
0.6346270454615145
0.5543382589252482
0.50601980859957
0.34618675940030436
0.5994531364545292
0.6894252349551915
0.5485234778575521
0.48223578664214656
0.8359718194824807
0.8080630954873486
0.6072248674759183
0.6159218959472509
0.6576455009222179
0.6341028312571324
0.4020383789134506
0.17578313793715866
0.28598723893977585
0.43424875007641095
0.8379997634520886
0.9219498248486729
0.6855790260419706
0.607770299823051
0.960759596545768
0.7049130355474832
0.5070403877386079
0.6479324233464192
0.45832396663699726
0.4109880059868017
0.5839060198583157
0.8180056112255428
0.857220461069303
0.4686236464808177
0.39885267444984945
0.9868574685475396
0.972805030397778
0.549306604622379
0.6688562612808975
0.23254220481873913
0.3692931994227895
0.976700403779448
0.8332522997358307
0.7021764369697882
0.7083819107685713
0.792466500126197
0.6797828853436009
0.6400473103179398
0.6163401744822007
0.5939258229719804
0.5743997441278609
0.5860289230652076
0.5585814433150464
0.566477356141082
0.5488472288204347
0.55751381520865
0.5537057985873236
0.4359738685806524
0.19742145381837964
0.37884709916245546
0.23593509670431895
0.36916679861360663
0.28725532847141144
0.3723335112818759
0.32350772472178313
0.38242403363211963
0.3469860200236047
0.38775214388822804
0.36953133925039133
0.40370605763512446
0.38530609518317444
0.41295065096176253
0.4009771989110011
0.42279303856309985
0.41089890562608145
0.4294742199368288
0.4218329639314952
0.4370628122235861
0.4328036510133982
0.444603928590246
0.442562866626777
0.45465482089634784
0.4540595449598708
0.4639305292715329
0.46235864975510366
0.4720085398948805
0.46929987067853507
0.4793125241408382
0.4803912489188066
0.48863617126644077
0.49052876900079906
0.4974132885460565
0.49902845369206494
0.5061097431945784
0.5090478340068411
0.30762588562656956
0.5158999655745073
0.4073324649941013
0.4761113673124171
0.5187531787170679
0.5259205665263225
0.5288514182497773
0.5217545528031972
0.531884957713195
0.536095132836293
0.5330917000727992
0.48694140782444045
0.5437157433581952
0.5404406762488547
0.550644218269703
0.5245625304027398
0.5349365619450216
0.5472289048823965
0.5277959922699523
0.5380534031569341
0.5591354921919902
0.5560311394329295
0.5318236890737814
0.5419397515470534
0.568268697933751
0.5655182930116448
0.5349836522518051
0.544387539699372
0.5783357913780489
0.5757126118194902
0.5369234177078154
0.5469854802517864
0.5888887622820267
0.586349147938853
0.5386619902744681
0.5505479665102025
0.5410285921533314
0.5301298856161872
0.5915693997127467
0.5998405455178889
0.5966697722845653
0.5824893298101378
0.4496136063504181
0.5938328061741351
0.5787366551754177
0.5903515509744217
0.5531800228281832
0.544647006640885
0.559423512703457
0.6110083456012244
0.5539542442055776
0.5446338766029812
0.433708665530101
0.5535241056071513
0.5445881795373753
0.5531345686514693
0.5438582329140543
0.5356715822979777
0.5341857685246597
0.5281338999865611
0.5523076046611651
0.5296528602565171
0.5218207085182586
0.5622484170609374
0.5605918682370868
0.5228041836350111
0.5165455689794317
0.5775503789221771
0.5886690538889644
0.570116377602823
0.5668629571203057
0.5771119271894235
0.5894537797642686
0.6022945314573248
0.6014635706707923
0.6187884807985113
0.615256605438194
0.6330047583301321
0.6275549190779626
0.6469661607078514
0.6127826164919318
0.6392344549209319
0.6612300882534056
0.5774128960005718
0.5183361302150811
0.5129373318637735
0.6684130532541582
0.6838421328622325
0.674308541343639
0.6953056287848783
0.5740130236174159
0.6982801439415177
0.686444296320706
0.5848388227217796
0.581859049018959
0.5714654275995563
0.7112440991453934
0.6984675139505628
0.593826627659804
0.5976567339755391
0.5780619423498586
0.5670698300497242
0.7205089240876691
0.7081688769533466
0.6808549135482291
0.7333554361656478
0.6887423069337358
0.6657404271877906
0.5151141497107665
0.5121159737984264
0.5075635451244785
0.5115490747198298
0.502229827659472
0.5082548836167259
0.49755502717711103
0.6069277653963698
0.6104704210975498
0.5729230042975614
0.5622458729967698
0.7142357134794363
0.5092131277877141
0.4964885394925728
0.6198619778464648
0.6235863038287809
0.5505164798259292
0.6947697114309954
0.45580649663871353
0.7439484051936397
0.44468222456118334
0.5786648243652718
0.5118359554192057
0.4984388018264113
0.568949262010944
0.5588264456662468
0.6331179523905396
0.6377586583000547
0.7197269924923764
0.5170430168760972
0.5183541126376395
0.5207398185670702
0.6968186954755117
0.5210354428254944
0.5035556570797474
0.6285888680515453
0.5635053785037876
0.5531946925388672
0.5668646480592107
0.5721337818681508
0.5598857246570169
0.5696148676681009
0.6474067200308099
0.6517530183020068
0.5240117281252022
0.5292134408489776
0.5200440667251459
0.7225593583525735
0.7394951261512905
0.5544752587145689
0.5388176567268985
0.7026066050044749
0.6770683260492101
0.5729232424791896
0.5749255813747274
0.6626435187236498
0.6665248091154872
0.6551945201528627
0.6703188934432385
0.6582386630804117
0.6735726808550663
0.6607039313586136
0.6756868583096433
0.6619010337277441
0.6767756899719903
0.6913444582181743
0.6926857253303661
0.7080162877331919
0.7091681137298935
0.7251579644801273
0.726082765180658
0.6624765932462467
0.7088431542797115
0.7257693204729557
0.7442293463080517
0.7438667639462676
0.519288526128775
0.5193470007080715
0.5580999839637957
0.548285724031926
0.7241915640326292
0.7419481518234575
0.7630758327338661
0.7607553123581486
0.522256435835959
0.5203195350343637
0.5579948089349425
0.5718161322912346
0.5613836681483717
0.7258043637151703
0.7056722174131833
0.6784964614770134
0.4813634092591862
0.5626475971954575
0.7832789093143783
0.7802161952451447
0.7569172227153669
0.776452555403149
0.5439284201197441
0.580295199618943
0.5896361704249771
0.560677337716791
0.5525501025443944
0.5428343275294353
0.5692016795477124
0.7997439629442125
0.7961424189660575
0.7706986603945154
0.7917163068555142
0.765002646570907
0.7847211914729134
0.8120461679314902
0.8042553245329507
0.5886737997016058
0.5240169947067137
0.5202397537321326
0.6746814599378709
0.72925660203715
0.7107869324639566
0.8287830210020893
0.8237174589179616
0.5712751102088093
0.5480882342773833
0.5375118653766411
0.5020684673360079
0.5493034011475002
0.6907936625543577
0.5938018741056676
0.5436460842855456
0.7326700307541734
0.7102749013583386
0.6794838894192964
0.5958422710131812
0.7424683228356942
0.5302247686494139
0.5541272639459444
0.5969284575924763
0.5868706114278365
0.7584519770522015
0.5406615534942567
0.5306487841150926
0.5256620042238173
0.5202874175727462
0.5532585496895464
0.8480489080739416
0.8388678677931408
0.5278236505956646
0.5217943010707143
0.853972305904221
0.6855386289506077
0.5233928821616382
0.5149192043824141
0.6464062146435866
0.680325665464195
0.6506046380293574
0.7103467773910834
0.8622803620169471
0.8524385850550905
0.7397921060864678
0.7333053897259607
0.7022175586618379
0.8297183101275606
0.8409285876697336
0.528027660069261
0.5200064362684113
0.8604624204804624
0.8473074153275237
0.5157676660362658
0.5072500319109389
0.6181308132274496
0.6125284847271102
0.5073478099310575
0.5001433033349256
0.4983487411780921
0.49147273864075947
0.6800149156542415
0.7077428022116972
0.5789494454383192
0.5966672876984783
0.5493921169342251
0.696846183843993
0.8631988688912918
0.8498940405161908
0.5624385970080722
0.8187996369060627
0.7230597084256156
0.49420518226038634
0.4863382206234427
0.48348408566790285
0.4774552030379515
0.481561701076778
0.4731397308382095
0.4798572346010864
0.4717169871981201
0.48275481170986695
0.4743285561521164
0.4885064913459985
0.46246090185051447
0.46914460394492363
0.5290000526756662
0.5393020426379549
0.4478257600042152
0.4563103306173035
0.5613371681608231
0.520140882565946
0.7157599052852874
0.7097113132527427
0.5182933639303997
0.7135682189721656
0.7179234346280872
0.7265667791461313
0.7033314987241189
0.6797064141239499
0.7000659180591823
0.7123232964555973
0.577289355600181
0.6072643350077975
0.6798482219448394
0.6898821387496209
0.6740818369727647
0.47302792123957993
0.6392080837675294
0.6417933726061748
0.5284217669117768
0.8628117835786718
0.8494258863746345
0.8375465833775553
0.8381129664643429
0.5690321691731478
0.5887183918807414
0.6138536149882406
0.8742219365691459
0.5576710361496129
0.8465190241942556
0.8356022315696117
0.8248451873530218
0.823733610631108
0.812697544644681
0.8123920664055403
0.8198279778232815
0.8088212947541276
0.43890692383639335
0.44328587623899407
0.4683414881562643
0.7282456192450893
0.7353490220472484
0.6827240087883448
0.6671286739033101
0.6968856632435386
0.6875615020463173
0.5684822760792835
0.5707092395724435
0.6127335793196641
0.6065227481765574
0.43520383560113907
0.572026300610479
0.547577944537633
0.7026774436351297
0.49376816196842893
0.5634203500583841
0.8131481882644062
0.8031826395646593
0.5609530188036045
0.5539024743913817
0.5634741949179651
0.5159423233645013
0.5421018253682934
0.5546903244812438
0.480243087343345
0.841818060264289
0.6153344119890831
0.7844831077273309
0.6016955882892613
0.42482360793755314
0.4321347769517591
0.5256367373838481
0.7199795579067854
0.6966676166467157
0.6980838855040866
0.5657777036270046
0.5610259533325573
0.571331163902587
0.5687032000204694
0.5617475736364379
0.568309576460769
0.5766981494686577
0.5745228680540659
0.5855820203437814
0.586841008163338
0.5949324398113914
0.5953122723111228
0.6051968425532189
0.603175754445886
0.605007343852136
0.6109461326515043
0.6112524629830419
0.5650775411193101
0.5197681419880267
0.5177038295783608
0.5275446236779413
0.6189256911063836
0.6166873327258662
0.6186183865830484
0.8056892332397083
0.8058025380495789
0.8271418566895381
0.8264807850122691
0.8473256393328329
0.8457780081628191
0.8242682475334457
0.8422817641428094
0.8200119416024146
0.16294299763146175
0.8666671720213406
0.8679464266991708
0.5462925283877597
0.6483820725444058
0.6482467228328137
0.6348598502213745
0.6339081375383783
0.6212845133465166
0.6197819669553127
0.632097025741719
0.617518797092275
0.6301925970904497
0.6139366742715205
0.6262737995630037
0.603108495096957
0.6077572444611548
0.6095570141215546
0.6423116582971928
0.6386924668612852
0.519581754206344
0.49199593141148124
0.36012270422497705
0.7215167428831398
0.6439415139098408
0.6391784906820963
0.43915397463145905
0.4644254223575429
0.8109836174473641
0.606239066517486
0.680679172709379
0.6731632038745924
0.5049458856953242
0.6753665686841015
0.6599246906982424
0.4335971658987683
0.8356774762552879
0.8128939340071801
0.6517033144985607
0.6457404002592175
0.6370877948530211
0.6322280848294725
0.6401988026373854
0.6268662465603752
0.6355617365760238
0.6217587287144851
0.471559525075716
0.6161662643871618
0.6666916380210847
0.6747905835288655
0.5588899890486745
0.5453567461155349
0.6055497087022279
0.5900205286126203
0.7457006344275011
0.751280814655186
0.8701912530100482
0.48810169649483226
0.5630077660823734
0.6378059400543803
0.6877180212870383
0.7981657099355584
0.6634937362137742
0.7978025955266442
0.7918336888315596
0.7935910554585742
0.7823303827019081
0.5172302631374366
0.48054800559718297
0.6105225628142437
0.5901550998673645
0.7241998573413508
0.5300320367137161
0.5378743753673922
0.8817970693525202
0.6238383165321554
0.6926171311202032
0.6985620648702887
0.6592570213444933
0.6527808277134456
0.6581591522228927
0.5375870648534219
0.4079999435691526
0.418211518531031
0.4485481585612633
0.5916222902397764
0.5989567302382673
0.5882878734131962
0.6159231586636655
0.6213318685380093
0.6200392557363041
0.668148240288307
0.5815783476589511
0.6247609203069345
0.6189482452671132
0.5955258294286593
0.5997708423851841
0.6004742752537164
0.7962141393074991
0.6142812237156647
0.6083087757073635
0.6160116438873615
0.603270629505383
0.7831870851770285
0.7752394468080905
0.7721507142585298
0.7626561111593354
0.6802737283089206
0.6737967193917644
0.8864883462867954
0.8866952158674509
0.5963270356930235
0.5984625563325481
0.7357944818102603
0.6090024368102974
0.5965728869040215
0.7181131221725932
0.7106224964643524
0.7261650034234428
0.7140410284519786
0.7643206179224655
0.40457299279568815
0.49435154041544727
0.5022133633138725
0.5616287361456868
0.5758627313788686
0.5654310264620417
0.5915395143090111
0.5799522936202725
0.6074386792503454
0.5962955952178666
0.6912093808096293
0.5957112898231306
0.7940038772067602
0.8858258597728699
0.8939218831486246
0.8965062486444227
0.8287802750469913
0.6490168075958955
0.7550539287832481
0.64073496023479
0.6261896546604371
0.5324805779754405
0.6516447200005444
0.7053025247455563
0.7012297212343288
0.8579416981901647
0.8065584465202151
0.5195768176897476
0.61518282263488
0.6182251799113377
0.6180210056511631
0.6155084865777226
0.7426137442009717
0.8201081653788381
0.6765041146538131
0.6866900236620301
0.5663321284268681
0.7132288488038483
0.805501859269068
0.7948066887848232
0.6450002656429651
0.6567902234137257
0.5405890458099996
0.5491908774742937
0.6252108327762288
0.6145339220266364
0.5844917596978607
0.6024680396505542
0.6324717163972918
0.62054286244691
0.6484127958468556
0.6367729345473044
0.6608789197310441
0.3927459953823435
0.6826400151954507
0.40514578704976145
0.5217474772094898
0.6108996835808759
0.662052387185661
0.6319235237672095
0.7023328175539996
0.6482059452805534
0.47034191363830985
0.4618807565262997
0.622602671650418
0.8769166950016246
0.6830177526265278
0.7454329632820748
0.6231828653008545
0.6100420155608937
0.5986846788522476
0.6096070211204294
0.4858340207458693
0.5991238196635018
0.5461266200808167
0.9042556472380547
0.9039240471501425
0.8867733148149939
0.9038219562316068
0.8072078301007647
0.7836579159680094
0.6018339892983587
0.6092047710304495
0.7022018575649661
0.7285609736456211
0.5114915881948547
0.6024715345588879
0.5901826580157572
0.5477529701787864
0.7636039231674814
0.6651508429459385
0.5846271036726812
0.9203768407317029
0.9198794789546612
0.6644898465403669
0.6680907191942292
0.6491956280166474
0.5306923016903407
0.49876009584941616
0.37451136165607807
0.8838794013782686
0.6256511924155986
0.8219004644292893
0.5207881455051399
0.5363568442074339
0.4779853694298522
0.7552637251477378
0.5262720772176437
0.5193491964511662
0.5254342415261105
0.5192010891187259
0.5238455695282841
0.5136968858718008
0.9060776444413544
0.9067558602692642
0.6283526696313319
0.8439306440541872
0.7408416744094446
0.7374530133404807
0.5505974821511812
0.5695641333919026
0.549496732744147
0.6513643572043675
0.6337254805631994
0.5742640213171702
0.5594118060123693
0.5568395475284974
0.5617940716438737
0.5428819055164809
0.5976696262351106
0.6640526290777039
0.7041152519803122
0.6383248437171581
0.9016845274287787
0.6774169628227054
0.6161297310624143
0.5980788704244441
0.5011912599147511
0.5940070581420358
0.6583317650210267
0.6542767350619877
0.5060968950920272
0.45967523765290913
0.4511349546973087
0.45520998628617376
0.5143571299546804
0.3886907674808496
0.42812794386817227
0.9343074345523709
0.9289879497288144
0.9124026660492931
0.7727809493295188
0.7754461593172817
0.7417792862738276
0.5144244577576007
0.5102872029036556
0.6689153133190457
0.6171791086739717
0.6151832197347127
0.6039599526264585
0.5953302085321328
0.37100801131759653
0.5450283331738224
0.5294726381474265
0.5200991877717813
0.5041212661102873
0.5024303181245959
0.5104514253031583
0.6862358849064478
0.5863777187692482
0.5835338474741525
0.4493638126658914
0.44002836154446767
0.557976904914544
0.5626973831977632
0.5722336595755454
0.575383245398296
0.5702221709487962
0.8014898830034116
0.7871744955823462
0.8161832479193055
0.6073165845770986
0.5620017688996507
0.5600519995677712
0.683832518992089
0.9170045629615957
0.6332940058533556
0.7445395202094124
0.518294335750729
0.5025027394672583
0.516071056705744
0.5066224842287883
0.5184220630294494
0.5134709209032632
0.5247644250463825
0.5219455997865874
0.5330931838769694
0.49508329453966227
0.5118835660585735
0.8991630642670865
0.5922262220039245
0.6289252093175481
0.6163434919452877
0.6637981270881224
0.5912265554096786
0.48717766812393004
0.647056578267926
0.6039195044147126
0.4399102138314226
0.46679674890937845
0.5755887181600219
0.633688839105699
0.6347922791136678
0.6092553265481511
0.597246226276143
0.4898227474865736
0.35314029780334877
0.5796839164168001
0.5604868997716097
0.3720771224296883
0.7712963574802011
0.7596057499515654
0.7714819678977934
0.7481844673615804
0.5213420033765392
0.6380479096879194
0.4976475638853984
0.6545888522075992
0.6362133068780332
0.576386357618313
0.5630966248676773
0.6924915555808983
0.82158359234813
0.8102551395119785
0.8192278885940949
0.8051178408247888
0.8112001128473405
0.8279982176609622
0.8526996436150711
0.8951816710076207
0.5894768711192645
0.7842598370256729
0.6064813861452513
0.5574543100132944
0.5576403768278461
0.7988793767176197
0.7905225150869264
0.7851462809997714
0.7010767450438459
0.7189821226072584
0.7341430957704143
0.7501845057174557
0.5862467188634191
0.7163755207811446
0.8666641198570932
0.7650388337672303
0.7413516638201127
0.7273950647626882
0.7461614245237197
0.5591220600481571
0.6488985594576288
0.6423706281389341
0.6555022100869766
0.6505085022130668
0.7603633826960237
0.5236676989680782
0.504541871498254
0.6146957204855508
0.6418840818716671
0.6590804958614173
0.9168707215458883
0.9252075499570953
0.6895950090735606
0.5855922636596665
0.5049743073533889
0.7525999321850254
0.7310847343960846
0.6118022791510547
0.5873054132497484
0.7345657906808095
0.7824831826934564
0.7860556741768282
0.7151038023630635
0.7389864320860441
0.6714545186752061
0.9363036580124946
0.605726863184763
0.6348698253705902
0.6675697459288071
0.7169706990331944
0.9181646717266982
0.568081579243924
0.6110164406540299
0.5115656797535684
0.583811648171656
0.8104406661396419
0.5163235075749633
0.7253619091199157
0.8263948253601334
0.8201080011600642
0.8382790443448931
0.7966699417646281
0.6480672262924253
0.5613388406707105
0.7461096496326247
0.6238215214531144
0.6025748538878791
0.5980685150659488
0.572920073113131
0.55016640938835
0.5634220616731157
0.6794334309756355
0.6647258830633296
0.747401348582313
0.4995088809470414
0.5070157784414248
0.5032211020441618
0.7569486163578689
0.694999272766115
0.6802478255763155
0.6203474935460062
0.6131506006381235
0.6436086225842839
0.6485581304663403
0.6591473751467506
0.6258569767584032
0.6180156488239698
0.6136459672223141
0.6017432201156854
0.6142840800440873
0.5987337636208369
0.7370691228063003
0.6078350967839228
0.6178938178566432
0.9408662642053477
0.6751732240620559
0.6587961773005336
0.6503264397046195
0.6425038730641975
0.6545815081241624
0.643302845594896
0.6431459872952485
0.5294208188840911
0.5282055129560687
0.5225258410087676
0.5261798320007689
0.532342025444332
0.5282870540286547
0.535512346518674
0.5977879269180028
0.5322588383917247
0.5387584683964723
0.663336621700606
0.5411911860331267
0.5434514367363821
0.5219922204768402
0.7658919026981058
0.777086215478835
0.8013052716685414
0.8153607299985989
0.6785476950868725
0.5175015799225285
0.49325954204280426
0.4313640056390145
0.461178796867431
0.4854585009624298
0.4269638349908447
0.4416441228429416
0.37359324931500465
0.4007287965787412
0.3504402775190626
0.38718624454477907
0.3588658542738349
0.38803773133974195
0.3737005778693425
0.3954086713388389
0.39238984031316493
0.40753525629171067
0.40823855315395347
0.4219133783399803
0.4252200601114606
0.43688686377220187
0.4416552973825709
0.451817825357838
0.45695176884003424
0.4661114408029779
0.46062535973298396
0.474066683081786
0.4735708847196101
0.42323429705026894
0.4486233453942035
0.4159938367423193
0.45983376485851785
0.37407041474803726
0.4699356697576
0.48186978969138883
0.4873766207349283
0.4940238197557872
0.41261432379699003
0.3287053689370022
0.4574094290114809
0.3405334753940202
0.5000449652797496
0.5055478561533778
0.49948492130880984
0.4680157059329554
0.45861417747390704
0.494057316205928
0.5068995068236807
0.5018342368410597
0.405141374208478
0.3338415186377399
0.5101101815864663
0.5050322459214552
0.49563033374774784
0.5009516000452414
0.9145847396525565
0.8967875270591311
0.6030075207144097
0.8615267519357105
0.8821386331679589
0.6218878928050733
0.6344665155021176
0.5497415231810069
0.656791861067464
0.5164627412654548
0.5774236564840431
0.5743054081505863
0.5788095242240829
0.6346559101582844
0.5261918805987137
0.6208618618002986
0.6199349592461056
0.5284439310930116
0.5005958480777272
0.533429391774602
0.4887636669796765
0.5668106959995955
0.5355373178399062
0.543999537967615
0.5414802403553254
0.5731933626445662
0.5827414138551135
0.5704700127827554
0.5795812680235866
0.56690697982971
0.5763050198129045
0.5637023018720708
0.5726341899124744
0.5857250998535882
0.5803946793345833
0.6317589739917246
0.6197388682381488
0.6230231357304357
0.6081831066839664
0.5164124988655295
0.4387460252344953
0.4303387917317172
0.431349926717711
0.42115081254794573
0.6723470664790975
0.6622660881108713
0.6832088790357793
0.5574515312857796
0.5124146360505982
0.5038324997276685
0.6980172258172708
0.6271730576805624
0.5968148232031947
0.5853992836798333
0.5907910603567925
0.571133995338774
0.5432930530509524
0.5509185507694844
0.5220567316875406
0.5261515219884956
0.5625281662593316
0.6743386411527889
0.5261993869673488
0.46052683349156426
0.5134611564460672
0.6035960614192467
0.6268597130093362
0.771330760227508
0.7720324591419074
0.7561467818344895
0.698300494296534
0.682203076230899
0.5651107849608402
0.32602914887126655
0.3260954914328268
0.517797420015785
0.6747568235955389
0.7024512597549554
0.7776683120371648
0.7912302809307127
0.6611962674491084
0.7016451965143504
0.7134053502656394
0.7253771957593991
0.7079522053449974
0.7098784540900229
0.6210313011176288
0.6326085384466286
0.6398502863756464
0.6305105930578353
0.5116767288205677
0.6331659018856223
0.6323501749134935
0.8629388573607175
0.4181935853561287
0.40705099998164684
0.4148900143217401
0.400735101818684
0.582572565753313
0.6114188344857745
0.6168683262650502
0.7272583010798633
0.5766321304558002
0.7011723609580138
0.6844125558968527
0.6775679384318312
0.6576726044557281
0.6572184737680673
0.6737560089107099
0.6506182241725835
0.8290741864699037
0.8247948935976464
0.801058716849864
0.5199694270909817
0.5286104060219592
0.49895827212414423
0.5010767188378247
0.6565190775189106
0.6430137626073159
0.550329219646234
0.672744513886556
0.6133821866187977
0.598204443005357
0.5799453126797814
0.5931789159599687
0.747931953836235
0.4962648448917447
0.4960178796805882
0.7818845461592014
0.885190550547474
0.5196485435379264
0.5109641414435793
0.5481867639820578
0.7779068589944931
0.7538654069899076
0.7657365351454228
0.6549071801768463
0.7658769271815683
0.5911876740766056
0.5026673091872271
0.6152920152518847
0.6482760116178583
0.6418725228738125
0.508566021082238
0.5227637023837637
0.761728215294833
0.7542960881680345
0.3460918964600794
0.9356317050001899
0.9431844295018983
0.7145488421167622
0.7242855124942322
0.71982487224775
0.7350562262553095
0.7282855107821871
0.4457898012474239
0.4501585315994822
0.5498929337775689
0.6806248285240419
0.5994091724218455
0.7252312390928658
0.7677583018852819
0.774723572544348
0.39396023750157216
0.3841761200536866
0.609547422044729
0.5012616004213061
0.49658686264635676
0.7222312193157125
0.6042316567702687
0.5739268991302413
0.531744497103524
0.923540415200694
0.9370979927389588
0.5470600022866868
0.5422191899641534
0.7281107092651956
0.7317902352514563
0.5597558731525083
0.5515514559998441
0.2954260743169837
0.9480907204709171
0.5575097911404563
0.47294331867923867
0.47927799283991523
0.5317779514801687
0.5469000846092938
0.5082540092571476
0.496801505452966
0.5035600185149766
0.4932298100627683
0.4996164030073472
0.4883709703729325
0.48184985071955744
0.47626773724741345
0.4684982616856984
0.4647355477433524
0.496824614435116
0.6856037638831238
0.5549469610459521
0.5665937641065284
0.3972370894622625
0.2746857608187121
0.2656933955911805
0.3517399821153847
0.31876115335176625
0.2836764490085688
0.25349198053115035
0.24250424325746295
0.5168641075903696
0.49892544725214355
0.604387740809544
0.5793253791531967
0.5789106356168578
0.8003227438501658
0.8149739070494284
0.5703175812470402
0.5746852017739885
0.5643962537879484
0.4822076299482564
0.20898850847825065
0.4722407887025338
0.459816482086135
0.45147002514831674
0.4479016188509777
0.4377208352802119
0.5858738745072584
0.5982891887459323
0.2671678542723139
0.7627043553593977
0.737805618190513
0.6557601698903526
0.541363143029615
0.47581991536798357
0.4627159539706639
0.5436639831547485
0.6269769819554714
0.7222845200816232
0.7021628474886172
0.5739902840627565
0.7430443632898007
0.7527231233518376
0.7646063421331968
0.7757203127769833
0.5777554882594026
0.6051023043938152
0.5831997270764759
0.5653341012134302
0.5943619322332301
0.5838270071866855
0.7821505021036355
0.5107857787822317
0.41511367183465697
0.3505758704636116
0.35655068883368035
0.3796148982140702
0.37283736124047784
0.3929255992251362
0.34878969160331036
0.40274651543031426
0.4113501065167074
0.37036158817486453
0.6457730289200627
0.4186098927736723
0.6330899218716185
0.5191748785617892
0.7658007786110188
0.7713657143472372
0.33090189809561654
0.32136618719100435
0.6176794086400147
0.8427817519197979
0.848802051782141
0.8466725764931572
0.8578560433321702
0.8548375193175897
0.8700734676648015
0.5985882550144522
0.6077304915654052
0.6134035008643436
0.613354701419809
0.6168166718768993
0.6116178630255711
0.6174700984504011
0.6083972366258602
0.6035905718339346
0.6224292465326665
0.6013586772715006
0.6266601792515355
0.620468115253606
0.6303494142218895
0.609490965366572
0.6035998708932434
0.6336453586287071
0.6140764650662975
0.6264039381902556
0.4687888841389103
0.41111746755850553
0.4944035926670537
0.3495154048758145
0.3571048975175004
0.7739750393677164
0.6328283680480188
0.48819080221997907
0.4737067007563703
0.4727002199951834
0.476622194912054
0.4904114150232087
0.4828627038482304
0.48994074661886794
0.4807217733764646
0.3891811147065939
0.5955015229343256
0.5798279054861908
0.5994033973013285
0.6520675388136794
0.6288388370217906
0.6607068700387265
0.5562406210529405
0.4214778392804181
0.4242351991163738
0.4381354172670239
0.44823614368487763
0.4612101643997761
0.433000036741542
0.6995889880576865
0.5182591140317747
0.5164887842072393
0.28916136193552383
0.6776057459327259
0.8665850475561783
0.5460018690217807
0.5168183182587092
0.6098489085545495
0.6005417905376914
0.8283481710589661
0.6360162533576135
0.6215681719845417
0.6231716669389266
0.6154313090282952
0.617349665447415
0.6077855194813206
0.6049380025916548
0.6122915922127161
0.6049360426134469
0.6098302156717841
0.6042189082866981
0.6254727766655629
0.5968523428716856
0.6667281487500262
0.7962062665828641
0.5448241255531888
0.5805962160167965
0.5206648082046063
0.581209974914097
0.4859819295213115
0.4664044940088474
0.4815198168497743
0.4614716918612779
0.4421335658976806
0.44024056533566075
0.45658572109790213
0.5020085549618679
0.5467714446431201
0.4784846100441069
0.6859632261964665
0.6170048755167965
0.7223734623492212
0.45046265360946514
0.753245690595337
0.6692159107492656
0.6769992909260993
0.4563381348526078
0.5463980327479575
0.5712499136583786
0.5625617198440993
0.5547093788431463
0.5361146169484045
0.4396401081687687
0.9103606416690246
0.8397879872846752
0.9173891232461843
0.3811996909679636
0.6841783425426182
0.7032216838188716
0.7558618192529978
0.8358088411747034
0.5327109600697725
0.5670986960303825
0.6630578602373272
0.469541546719759
0.47636490300543605
0.4700265475510746
0.517720172817466
0.5024502586026016
0.535466394906016
0.4799181272056028
0.4878771592531434
0.642106503951963
0.658690811585083
0.5643162442185917
0.5911703962374415
0.4840533304596882
0.6718129082342396
0.6370925859042069
0.7374682293627589
0.5575777878637461
0.37847714820535666
0.6384575093127467
0.436509098321802
0.7353966764763724
0.6292099887933951
0.5859072346332695
0.5934880289838483
0.580414710488654
0.5680119940226632
0.5176023506778875
0.464840563496702
0.4973329341905275
0.5384255926668565
0.5359358825495765
0.6016402752526997
0.9108158010540267
0.8910345289146792
0.8982776638246602
0.8835035568743917
0.8716353922313032
0.8646322594674729
0.8773712519376322
0.7970715571401648
0.5697821198188561
0.5399012012177843
0.5449849057786573
0.6365111584817107
0.732175140092094
0.5950861368393702
0.6333822172725406
0.6338383757153707
0.623619599265173
0.6230801867295038
0.662081476206238
0.5796557271539767
0.5044621486456647
0.4826317857287384
0.6372090568713941
0.6241039363097736
0.5151084080202724
0.5532019403716483
0.5448289309014832
0.5337292257420055
0.533741834163559
0.4360952164953517
0.23626382952380207
0.9110432380982142
0.9037360351890756
0.8901293387001563
0.9155713441844295
0.5997276250452424
0.823755831578681
0.3533673004441105
0.39583575673956195
0.5727718159153016
0.5616649030854101
0.5752704972205982
0.5249836044100338
0.5143636631687485
0.46299219070265196
0.5649599511768759
0.676343915416744
0.9312361433064216
0.507356798764845
0.5036853949495961
0.664743204612836
0.8296148029591837
0.6992683139193657
0.712444492134457
0.6568360041542497
0.5514582126534202
0.542785572000981
0.533357049832085
0.5356231423867741
0.539054446205807
0.546409671514357
0.5180590338875626
0.899906264400937
0.8737799898056247
0.8803579836437943
0.8941697587944377
0.9016140802581272
0.9107410971284632
0.8830852338923246
0.8865474382108377
0.45068854239970885
0.5258031248714298
0.7365161066225526
0.9446228962128913
0.6139507015588228
0.9208967555589237
0.9348992186253297
0.7556342392113418
0.6298522330588783
0.6171574255113161
0.628386141898382
0.5075982101459241
0.6243442492083812
0.7797534776875359
0.5807760471411737
0.5820259021944062
0.591887739329709
0.5722728501014985
0.5887763776194946
0.5838927424331145
0.5750172592798148
0.5644247280453558
0.6073390085006364
0.5991456817373907
0.5928355062316295
0.7321426589318203
0.6753807318138526
0.5903597512348163
0.5254137221927685
0.4906559070450991
0.5624922337556081
0.534236001464677
0.5366140266278935
0.5453444443333629
0.8377911747140104
0.8584501463906341
0.8681163054468791
0.8513592857064864
0.7919314896874929
0.5121896147455738
0.7107036263473324
0.6537659637512243
0.8632504836616235
0.69093366042485
0.5876896090660149
0.5996257612015592
0.5090946925632895
0.6439378772787231
0.6590177355225819
0.6138985806841987
0.6912852640948354
0.7213051786972315
0.7273269400949032
0.7454280447155419
0.5902160238579419
0.6895174361999972
0.5876971553537786
0.5313741863135235
0.5418885449219053
0.46671867793337046
0.5848210012241919
0.8871848829158994
0.49223359475447437
0.7639365987709877
0.7631611673685134
0.7823351946992543
0.7606092641209252
0.7783614424246865
0.8045007334304122
0.5819780898866442
0.6327036228228704
0.6303679932690683
0.6888801292572968
0.610285727784095
0.9321738776045332
0.6824747566796145
0.7432123416569839
0.8395916381817481
0.5946929947078509
0.6078327138958572
0.6914941232961777
0.5316364794405997
0.14005819929793567
0.8588709317659111
0.5739180909104269
0.6237903215318208
0.6337568742423999
0.598001207792156
0.6069358656849603
0.5772565296159765
0.5902414513639036
0.7444012357885548
0.5926972418931765
0.6302681045235997
0.680342653340555
0.6397306730293636
0.6436798344458787
0.7065689731816047
0.7974406937695198
0.5264973631743022
0.673690950897071
0.6592530163891952
0.6402348734706225
0.6136505317522901
0.6540089316159843
0.5281191490268897
0.6069400923233274
0.4742387513704562
0.5125225810119937
0.5321883961216042
0.6690354231243989
0.6379203503828229
0.6551946872722597
0.64690078145249
0.7570166579129248
0.727911344545859
0.5063932654415262
0.47414225776058305
0.5722835123854114
0.677257249807461
0.5299442029558855
0.6536843813677568
0.8480256738359693
0.6120567643991411
0.5553061615256686
0.5674219283113762
0.6146394089384751
0.9282914740465712
0.4986785956556586
0.6125448907756275
0.6278770651447421
0.6451330998800826
0.8377650934150329
0.8170729372045713
0.8033925543504696
0.6058462677307241
0.9580633988572907
0.9463377958195226
0.7976703251473819
0.8471903711000804
0.8570126449858407
0.8794175872362564
0.6755453379584392
0.596684196904337
0.9599947730578468
0.7018993011936131
0.556507315687215
0.6264517214056768
0.7944340717102647
0.8156705671905651
0.6013851209574078
0.6721338175764255
0.7895417095426037
0.565816543172597
0.5129697579249451
0.6218286564786882
0.5723043297774699
0.4156606340908407
0.5893791422907713
0.7107999854838183
0.3750201082059686
0.36824977369815526
0.707769376281661
0.6434774910825919
0.7074569336315097
0.5835160041516796
0.8831356430980617
0.5042269574525268
0.44906443366461746
0.5086548396495862
0.6475983289151539
0.7057319472900062
0.5984227573392947
0.21987143604329254
0.8747479004968481
0.82885707361783
0.5905302785196942
0.7512729530389126
0.6223664135391724
0.7370276273988847
0.7629056661309498
0.7296273751987157
0.5426334017051523
0.5994885460844317
0.9476823245768783
0.6981578608127137
0.7219049247526256
0.5400271592585689
0.9199818092445078
0.6694789829188638
0.5873351608391464
0.6106336822680523
0.5209001080306116
0.6000090740038542
0.4853134167330801
0.6869082880347775
0.6270550680221458
0.5172912115238008
0.8250849667820633
0.4634276496743353
0.45762550586267764
0.901696398198432
0.7387935298380124
0.8679666142457475
0.8323872738854025
0.6135536729914807
0.273394258206398
0.6114527757942461
0.7395418804258466
0.7388401736038364
0.43170895350896044
0.6193657793420317
0.7210909667987746
0.33806979104213636
0.7771928394263059
0.5888665027491637
0.4887783542050501
0.5695564183717751
0.39282417463188074
0.4209706373555233
0.5756250147845683
0.6552307373925678
0.49606533571698036
0.722750219888846
0.6064371192067162
0.7447710126438776
0.7168849583034638
0.5903161619150774
0.8145720203763017
0.7799583898091822
0.5354322746310501
0.496185173377693
0.44378204021786843
0.5352984843860978
0.46507092834182334
0.7517854943865897
0.8343454872873535
0.26372063835587783
0.3037180580247696
0.33007380721408475
0.5243515645284411
0.35954530524204137
0.588450575147823
0.6500858162002737
0.6597871597108584
0.4664271799788066
0.4886360841342144
0.5473343798174486
0.5705850238046629
0.5709869385252478
0.7063061816295796
0.603669248395979
0.6385691494155411
0.6224019915742038
0.44676334639017035
0.40083662294700045
0.6014856248329267
0.619462899895388
0.9493816721895313
0.4213972069616951
0.7884597109057319
0.5094543603332492
0.7664127797911054
0.6085323917387239
0.8027984411233718
0.6096083226532221
0.55665353245156
0.5138804573026067
0.6584658819669685
0.6929191497341952
0.6705948549287137
0.8711550144733978
0.5035504652327375
0.4339098615813484
0.6906858646892795
0.8007008296275293
0.5274837329833891
0.6868347798186523
0.5648943583177887
0.7542429845680346
0.6126534386553609
0.6312305305755869
0.44214539898799665
0.636589012902605
0.11505437393630547
0.5232704730957053
0.6247600008532708
0.5496708964371473
0.5270250442305486
0.7243569056246477
0.7876206547990513
0.5338911204261456
0.4638795239610137
0.8003618246132832
0.4894440623941249
0.6530157019222443
0.5535350071626398
0.6210070559184603
0.4398822034124094
0.4890605502306327
0.6085687888105097
0.5975293487776321
0.5824429909208194
0.4382173300286737
0.46443915435187705
0.7140921980379695
0.7698977552015125
0.5334547647200184
0.5231192028857647
0.4472251078392198
0.8014027775962129
0.5737264020497853
0.5344843422386181
0.5900830905416464
0.5002838624389918
0.633875514094038
0.7051828475958987
0.6764240594931092
0.6455183926470964
0.6726243190543258
0.6095726820112702
0.67641978469268
0.5653382249314958
0.41460905719149804
0.5188069577963504
0.5206249198311176
0.580835833474492
0.4900474680291344
0.8287697262837045
0.5547728881305116
0.6009138349622961
0.7614797753266548
0.6727085908335934
0.4785460573455046
0.5778629372150633
0.5534324706336343
0.6605493760843322
0.524171829208947
0.537414401211578
0.25024342859079085
0.646662545384104
0.7450610420988952
0.518173006427276
0.6582154114238646
0.5563139783180787
0.712925458694804
0.49992373304780957
0.5844101953555594
0.5224594339866929
0.7205264523332627
0.6901806868608001
0.6807403654471741
0.5169319883905121
0.650800847769317
0.5447139299332997
0.6387931125573492
0.42840998792924295
0.705866503675645
0.8469834005875918
0.5507753219138083
0.6118244462667264
0.6735233427922247
0.5129620238323029
0.4817931827983781
0.8619992927417398
0.5011265330056492
0.6676576010455431
0.49013019879765346
0.6320286978221894
0.5559988372167249
0.42245909499544654
0.7084303124517087
0.29568064821353407
0.4994860368004179
0.7315808656648276
0.6865465664609909
0.6430279216185162
0.5510321477453082
0.5521871829481357
0.6437269703909277
0.4198576539336882
0.6205934914258429
0.6053235900959576
0.6556286732561232
0.6577942349699123
0.5304912495273201
0.3758885359529281
0.7634164482393541
0.7885892375775159
0.4555898821334904
0.6083453935234335
0.6007985531836788
0.3386278602769782
0.47652940764070206
0.31644714153393655
0.39501686647590384
0.596976903179255
0.6212852431435723
0.5881595719849564
0.872352041560369
0.4957496413464967
0.9377720215204953
0.5331775350086593
0.6446907513371875
0.6412519472568217
0.4722725669660835
0.39103722689646336
0.4079887412582327
0.5696244597071096
0.7338818130350401
0.6744804621258128
0.6315991583533439
0.6190934651337628
0.6235820891234676
0.6221467300825935
0.7531173006594821
0.38656366031436523
0.45633587554922855
0.6016833965442832
0.44325430040766955
0.5449827975375091
0.6947906729818998
0.6859902991069183
0.49507218159938676
0.6529118008144331
0.6216595145402196
0.5877331372940491
0.5847193309375754
0.5997656991986616
0.573728329365484
0.8487450102691856
0.6030869600514599
0.44201231114666245
0.5402914829801481
0.5158842548981649
0.4852157498241037
0.6080356424821334
0.6486477882262213
0.5271562383981832
0.6266697935958936
0.5560868352455189
0.8221322686236707
0.7546941218636768
0.43014018431543194
0.5865800208795395
0.5669179715142878
0.4933780884480071
0.7524609030353703
0.5420728715584648
0.5806683528124481
0.694722053397474
0.390195794719151
0.7303944798918496
0.7582737638403039
0.5473954205663695
0.8297918252835949
0.5142060884006534
0.7534408451429617
0.6274392180918738
0.6782276331450864
0.5379117509870163
0.24482412415257535
0.43500685213175067
0.7258811131601665
0.5119779404686612
0.4229551287777079
0.5769935431369483
0.5837092848793943
0.5146968801426286
0.8518908479978426
0.7850288031674001
0.5621429160970832
0.7910573829585499
0.5130632905845947
0.5450248128793759
0.6410391108372785
0.8445102519640705
0.6168119092908114
0.6229883364890898
0.5862528247156095
0.5266293239409122
0.8960661866649123
0.6004300738219057
0.607097826734875
0.5237183674121214
0.551935382569938
0.5795702354365998
0.6388071306962653
0.6643144115113334
0.4052112703900999
0.6477153127168811
0.7415398441463998
0.7807410610335932
0.6385733315908076
0.8804904612922393
0.7201399707587536
0.5469851541411374
0.5333079577813034
0.49969623562163007
0.5307644182368257
0.3004820574900847
0.5762770345295832
0.5575365345858633
0.42922348653185277
0.3056573686827315
0.4934057843662231
0.4870834864384376
0.5630880029229787
0.5068363870758482
0.698069495335925
0.8384327214170524
0.5320526280869392
0.3910948055530517
0.47900404211273245
0.3024992525119557
0.6200204846807691
0.4282958142952746
0.5437293857428114
0.6962345627220743
0.4862219748813637
0.6383549069266018
0.7685333536709753
0.6422914940737566
0.6675292264360051
0.8767129322100743
0.7404554888974698
0.754858311131847
0.6238294558756003
0.6326846600725614
0.603358401969536
0.6339435218991891
0.5144849839076435
0.752309004222304
0.5163681586157484
0.46176588979791283
0.5987509925455657
0.524158150603142
0.709295056491363
0.9836948371155502
0.9889535130125572
0.6573373435404221
0.3845465191625357
0.6444630405908777
0.8966120598064647
0.90756167472212
0.555882409578241
0.5446351812121083
0.5179736260409399
0.5354395567171029
0.564255264774917
0.5966025321184211
0.4873360750598115
0.45125987872194745
0.4556645244030261
0.6686711050281601
0.6520462987719184
0.4873616959721971
0.5444086812158553
0.46118552726703904
0.8049979593623959
0.45929304042992136
0.6383069221778447
0.6161554554245798
0.5988690227658406
0.6373445118655559
0.503138700355376
0.5288674041375453
0.3433713033598559
0.5195066048114361
0.6161867336969125
0.9027987292490403
0.6139436847747135
0.6047295285586055
0.45427428489112465
0.601699901915429
0.42724543858889663
0.5887940656955627
0.5645301256334867
0.7464529184472352
0.5291080607996619
0.4715356010877643
0.6760130318355685
0.5099417426161228
0.5270410194865858
0.45752735947149015
0.38094441428157844
0.7807209003037756
0.4732753614042039
0.6123161355095059
0.6365185895728401
0.7991100023099584
0.6184450634875378
0.5206163804454181
0.5682347508918112
0.9436915497556642
0.6815459567141852
0.7484805008879081
0.5275758663308845
0.7973391076800034
0.550510515138767
0.5144482864004403
0.4379492101820506
0.7647446738153463
0.6129655313806545
0.6014583464458084
0.8778195730661894
0.6208505349470239
0.6108835535347341
0.939684239255451
0.7646727719994595
0.48133831924951526
0.6260631877926641
0.8010018691040438
0.7826401634689779
0.8708629920535405
0.44852511717503263
0.6972738966706573
0.4458208597073588
0.53134913750191
0.6187116172413857
0.6194753261448493
0.40458509588351316
0.5751373061764508
0.6492427090827623
0.607785830563509
0.5152166946649933
0.8113276905956849
0.6158984363355603
0.49884591227442326
0.6189514755983666
0.6412266965410031
0.7229357727385943
0.5679972147414585
0.5353207903520698
0.4839298708266212
0.7566824935467584
0.600178006977502
0.5151469449167937
0.5607140439011554
0.6808028611294286
0.6386756119645955
0.5080339676426143
0.5561467407713351
0.637623585543289
0.5790444185648173
0.578987351381559
0.581045872831174
0.5172712871607277
0.5124125385816642
0.7629234778919717
0.9361396602095894
0.6363762862462308
0.6702149761604217
0.6626125703335362
0.5933799653730587
0.95193855729664
0.7136453961552109
0.612410359632129
0.5989616188816429
0.576145953308441
0.5956558933956195
0.5968306310918081
0.5537028664176685
0.5399550286496422
0.5808425140681984
0.5437029225239651
0.6048856706161049
0.8439302580260463
0.5814353694946266
0.4952765356123726
0.5959383870920381
0.784035457927014
0.5551614756413523
0.6030334484220731
0.6251606563241355
0.31712586625575623
0.5793654357205478
0.5580736823679934
0.3142030070046956
0.26959713562189397
0.20149639141019066
0.45720398283873886
0.48883532874425994
0.6560144727387978
0.6152606797300962
0.764696643914183
0.598284267674384
0.47106117829009986
0.5566214191888386
0.9272954796457425
0.6295615924528242
0.5644089412317919
0.6693083108704221
0.5384475639888667
0.4612746510478773
0.7004950824260426
0.4476421090408014
0.5879742360478419
0.5576472461723738
0.5824303418623588
0.7818431053984293
0.5228223081500694
0.6202779783012993
0.4982977319613896
0.614478070455168
0.6673140355774674
0.7469360157524975
0.8485003691868047
0.8037576390436025
0.49130159099019993
0.5784956270109194
0.3836446334210021
0.7198558539242249
0.6066403262396745
0.4142368798909741
0.5766666210689617
0.49967489588821945
0.702333150478984
0.5855337570590798
0.48169643537967327
0.4396604937497989
0.4512452077082216
0.7388336896357462
0.5947855165590445
0.3907209994557518
0.621097501247469
0.9599296228132701
0.6494174872139638
0.4637787106210742
0.49061915631603525
0.5032461912495889
0.9047446650689852
0.5542030184764752
0.5506559084476774
0.7500723130675757
0.6679335974648021
0.6417410149993674
0.5293556235468417
0.6166614106931029
0.9321860820867245
0.5642822112071909
0.7168145102116616
0.35209177048857443
0.8607332481788694
0.4228604012438515
0.5277615857955757
0.4725453894760036
0.5346518031208585
0.6433174923993566
0.2828101957619535
0.4754665589875231
0.9471600740696162
0.7421068228188298
0.5433917848549765
0.7297791112050768
0.5427886240333456
0.7760470497572515
0.4823683014287611
0.1718999481855592
0.5758539064206512
0.581983599771944
0.8942289467623424
0.7823866229945786
0.6049356705444662
0.7416241462640467
0.9473618893921824
0.5113647319257788
0.6862057501344898
0.5526579022625988
0.4073920930335543
0.940431801584863
0.5943569824940667
0.8631941481630715
CELL_DATA 4886
TENSORS stress float
-1.1357089216069635e7 6.156225089070863e6 0.0
6.156225089070863e6 2.989515055592506e7 0.0
0.0 0.0 0.0

-1.9666959354705546e7 1.0116880978414869e7 0.0
1.0116880978414869e7 9.355229921735188e6 0.0
0.0 0.0 0.0

-7.880198604262749e6 2.1688139245980073e7 0.0
2.1688139245980073e7 -5.647870112024456e6 0.0
0.0 0.0 0.0

-4.0793644994798303e6 2.035911239083566e7 0.0
2.035911239083566e7 1.205093015644573e7 0.0
0.0 0.0 0.0

-2.5339789688830646e6 2.3108952830752917e7 0.0
2.3108952830752917e7 -969536.0574538045 0.0
0.0 0.0 0.0

1.8110153777016213e6 3.046365221952712e6 0.0
3.046365221952712e6 -4.622141783088904e6 0.0
0.0 0.0 0.0

4.726551114157505e7 2.3192034038754925e7 0.0
2.3192034038754925e7 1.1779369634469979e7 0.0
0.0 0.0 0.0

3.644431244549105e6 3.2109298477948e6 0.0
3.2109298477948e6 -3.899838900718554e7 0.0
0.0 0.0 0.0

-1.1155599910103792e7 7.982792523999812e6 0.0
7.982792523999812e6 3.126006316244264e7 0.0
0.0 0.0 0.0

247134.06609223783 1.8067443278925266e7 0.0
1.8067443278925266e7 1.7331511253047686e7 0.0
0.0 0.0 0.0

-1.2504670225863745e6 1.8914504952559017e7 0.0
1.8914504952559017e7 -7.145734424788204e6 0.0
0.0 0.0 0.0

-1.1006461230384705e6 2.748958983698928e7 0.0
2.748958983698928e7 -611183.6218919132 0.0
0.0 0.0 0.0

2.1884277564772256e6 8.88374125222436e6 0.0
8.88374125222436e6 -3.588671091996344e7 0.0
0.0 0.0 0.0

6.863654899888329e7 2.6023598057114597e7 0.0
2.6023598057114597e7 1.27827486155234e7 0.0
0.0 0.0 0.0

-1.097037164265458e6 1.9463202526994385e7 0.0
1.9463202526994385e7 -7.155878564266371e6 0.0
0.0 0.0 0.0

3.6637396032411912e6 4.1115129123771857e6 0.0
4.1115129123771857e6 -1.486553095490978e7 0.0
0.0 0.0 0.0

-2.421181968193602e6 1.599788493013311e7 0.0
1.599788493013311e7 -1.894278999916003e7 0.0
0.0 0.0 0.0

723655.0339008477 1.3031756386060676e7 0.0
1.3031756386060676e7 -2.5222538032931138e7 0.0
0.0 0.0 0.0

-9.295234638963407e6 -3.5524148289504526e6 0.0
-3.5524148289504526e6 2.3530826669540964e7 0.0
0.0 0.0 0.0

-1.0195195376770278e6 2.1676332691900857e7 0.0
2.1676332691900857e7 -6.371731736509953e6 0.0
0.0 0.0 0.0

2.5597052680081157e6 1.0674939673216155e7 0.0
1.0674939673216155e7 -1.82655511390204e7 0.0
0.0 0.0 0.0

-140678.652943869 2.7240622565407835e7 0.0
2.7240622565407835e7 -632097.9376991881 0.0
0.0 0.0 0.0

-9.925009142474934e6 6.329831700877669e6 0.0
6.329831700877669e6 1.5936842528454047e7 0.0
0.0 0.0 0.0

-1.207523443038616e7 2.177824293965898e7 0.0
2.177824293965898e7 146636.24059553258 0.0
0.0 0.0 0.0

594067.3721200526 1.16353467062026e7 0.0
1.16353467062026e7 -3.2517643264395773e7 0.0
0.0 0.0 0.0

1.7774970675191764e7 3.627028712220512e7 0.0
3.627028712220512e7 -1.0283128131387502e7 0.0
0.0 0.0 0.0

3.1652492672708437e7 1.9528771282355316e7 0.0
1.9528771282355316e7 6.566163241428018e6 0.0
0.0 0.0 0.0

-1.1030491961123195e7 1.5226937071474096e7 0.0
1.5226937071474096e7 2.237086461746434e7 0.0
0.0 0.0 0.0

3.8275887152912356e6 4.164237090067007e6 0.0
4.164237090067007e6 -1.514549959142099e7 0.0
0.0 0.0 0.0

-6.083425174111177e6 -2.7526150522589525e6 0.0
-2.7526150522589525e6 1.0955903902585214e7 0.0
0.0 0.0 0.0

-1.1047238843598824e7 7.92575785034335e6 0.0
7.92575785034335e6 1.3942291951055469e7 0.0
0.0 0.0 0.0

1.5221461321376641e6 8.32645170814045e6 0.0
8.32645170814045e6 -8.09487081318778e6 0.0
0.0 0.0 0.0

746579.983272719 1.8993821635820538e7 0.0
1.8993821635820538e7 7.82557272299682e6 0.0
0.0 0.0 0.0

47826.824323792505 1.711545051717889e7 0.0
1.711545051717889e7 85321.69131155072 0.0
0.0 0.0 0.0

-3.7225666664034473e6 2.1098896378745444e7 0.0
2.1098896378745444e7 4.480840813872349e6 0.0
0.0 0.0 0.0

-1.0488831221466929e7 5.289770920338452e6 0.0
5.289770920338452e6 1.271412146041245e7 0.0
0.0 0.0 0.0

221623.93178581307 1.166357341164005e7 0.0
1.166357341164005e7 -7.057702526791832e6 0.0
0.0 0.0 0.0

-3.239489474826308e6 2.086563128333275e7 0.0
2.086563128333275e7 4.872562457026097e6 0.0
0.0 0.0 0.0

-3.0308096494025113e6 1.4406262076040734e7 0.0
1.4406262076040734e7 -3.3185540904199805e7 0.0
0.0 0.0 0.0

-2.9274382312044213e6 2.4856283352084767e7 0.0
2.4856283352084767e7 1.6882733406894493e6 0.0
0.0 0.0 0.0

1.3680380175431296e6 9.04024036688494e6 0.0
9.04024036688494e6 -3.9166029784164004e7 0.0
0.0 0.0 0.0

-1.0218077282770721e7 2.31822202202286e7 0.0
2.31822202202286e7 -6.968727041373022e6 0.0
0.0 0.0 0.0

-2.969815266164611e6 2.4268857767591964e7 0.0
2.4268857767591964e7 1.5230164324903344e6 0.0
0.0 0.0 0.0

-1.1376045232145539e7 3.0730824585293923e6 0.0
3.0730824585293923e6 2.1935168379699834e7 0.0
0.0 0.0 0.0

2.1047836428815722e6 1.0599754066980757e7 0.0
1.0599754066980757e7 -1.9951570116257265e7 0.0
0.0 0.0 0.0

-9.584968396983135e6 1.6422987971515806e7 0.0
1.6422987971515806e7 2.1502738653503522e7 0.0
0.0 0.0 0.0

184042.54242016235 1.869073811277445e7 0.0
1.869073811277445e7 -1.1175187911201132e7 0.0
0.0 0.0 0.0

-402810.81215318386 1.1256924740796043e7 0.0
1.1256924740796043e7 -7.741234968340717e6 0.0
0.0 0.0 0.0

3.9845363840460423e6 3.3139185179870105e6 0.0
3.3139185179870105e6 -3.245422489551433e7 0.0
0.0 0.0 0.0

3.6913279820879204e6 1.5714895088939939e7 0.0
1.5714895088939939e7 1.2304426846279873e7 0.0
0.0 0.0 0.0

-1.782778629735359e6 2.4055569205121994e7 0.0
2.4055569205121994e7 -219555.20855723444 0.0
0.0 0.0 0.0

-1.4584084893650847e7 7.784605977462182e6 0.0
7.784605977462182e6 8.346233045951914e6 0.0
0.0 0.0 0.0

4.0280659206603523e6 3.3384445090920934e6 0.0
3.3384445090920934e6 -3.3584717982637465e7 0.0
0.0 0.0 0.0

-2.4098645236798567e6 2.2500826561242077e7 0.0
2.2500826561242077e7 858028.9581756425 0.0
0.0 0.0 0.0

3.6492278712490858e6 1.6094011710113464e7 0.0
1.6094011710113464e7 1.5006862866919793e7 0.0
0.0 0.0 0.0

-7.274712760132844e6 2.2655257761302184e7 0.0
2.2655257761302184e7 5.776043963294751e6 0.0
0.0 0.0 0.0

3.271820996537214e6 3.7898544189185486e6 0.0
3.7898544189185486e6 -4.2622688142956495e7 0.0
0.0 0.0 0.0

-2.440508997234992e6 2.502634618158671e7 0.0
2.502634618158671e7 1.738952459414798e6 0.0
0.0 0.0 0.0

2.55042202626431e6 1.753203196973681e7 0.0
1.753203196973681e7 3.033828693905335e7 0.0
0.0 0.0 0.0

2.8798501307205204e6 9.700334256394638e6 0.0
9.700334256394638e6 -2.1899627028993744e7 0.0
0.0 0.0 0.0

-1.5869239793958229e6 1.5043369724619841e7 0.0
1.5043369724619841e7 -9.759809900010485e6 0.0
0.0 0.0 0.0

2.254603919899431e7 2.104531412682069e7 0.0
2.104531412682069e7 -2.312447303315052e6 0.0
0.0 0.0 0.0

-3.387050693010468e6 1.7969258922064167e7 0.0
1.7969258922064167e7 -1.1296610508132502e7 0.0
0.0 0.0 0.0

-7.8665639957351815e6 -296669.4722570683 0.0
-296669.4722570683 1.1294054084565606e7 0.0
0.0 0.0 0.0

445748.10447723046 6.065833589785416e6 0.0
6.065833589785416e6 -2.40231927974491e6 0.0
0.0 0.0 0.0

3.701019582018839e6 4.467210835957286e6 0.0
4.467210835957286e6 -3.173194358170432e7 0.0
0.0 0.0 0.0

2.7846317096712906e6 7.780723554654009e6 0.0
7.780723554654009e6 -3.5664875436232366e7 0.0
0.0 0.0 0.0

-3.0212278679952594e6 2.212973620849935e7 0.0
2.212973620849935e7 218970.55266335735 0.0
0.0 0.0 0.0

72057.26478307508 1.7567324533431362e7 0.0
1.7567324533431362e7 2.503779674782359e7 0.0
0.0 0.0 0.0

1.706651132111576e7 1.626784635546023e7 0.0
1.626784635546023e7 3.8327997849724386e6 0.0
0.0 0.0 0.0

-1.234333211705622e7 4.652005701178266e6 0.0
4.652005701178266e6 1.9682406116626263e7 0.0
0.0 0.0 0.0

1.2950933178489283e6 1.1642309955647996e7 0.0
1.1642309955647996e7 -3.012164736099399e7 0.0
0.0 0.0 0.0

-2.85965416637507e6 1.5162651579762556e7 0.0
1.5162651579762556e7 -3.0765791231386587e7 0.0
0.0 0.0 0.0

3.735556723724166e6 1.707804906664067e7 0.0
1.707804906664067e7 4.266841913092789e7 0.0
0.0 0.0 0.0

-4.0551796251384e6 2.048299272482844e7 0.0
2.048299272482844e7 1.1393482009458575e7 0.0
0.0 0.0 0.0

-9.722196735448316e6 1.6506556756583676e7 0.0
1.6506556756583676e7 2.1126401062406894e7 0.0
0.0 0.0 0.0

-4.179178520442126e6 1.250890052688213e7 0.0
1.250890052688213e7 9.521146559718624e6 0.0
0.0 0.0 0.0

-1.7480106607119255e6 1.5721455796529153e7 0.0
1.5721455796529153e7 -1.8592530828851227e7 0.0
0.0 0.0 0.0

-533228.5850374638 1.664960127953138e7 0.0
1.664960127953138e7 -1.0360303248174524e7 0.0
0.0 0.0 0.0

1.1655827563934335e6 1.306352013834838e7 0.0
1.306352013834838e7 -1.6273167115076471e7 0.0
0.0 0.0 0.0

1.7244562925975315e7 2.3017054736450724e7 0.0
2.3017054736450724e7 -5.046675023207596e6 0.0
0.0 0.0 0.0

-9.912858137350408e6 -2.9112966339878784e6 0.0
-2.9112966339878784e6 2.786902794602419e7 0.0
0.0 0.0 0.0

1.0944601765922452e6 1.7042824282294843e7 0.0
1.7042824282294843e7 -2.3776611423896793e6 0.0
0.0 0.0 0.0

-101610.66339988273 2.8367442278868772e7 0.0
2.8367442278868772e7 -1.3454520059345043e6 0.0
0.0 0.0 0.0

-4.39431879986088e6 2.0431829569452636e7 0.0
2.0431829569452636e7 1.2123019395584675e7 0.0
0.0 0.0 0.0

4.161057348025386e6 3.7818816180891395e6 0.0
3.7818816180891395e6 -2.0541361117173266e7 0.0
0.0 0.0 0.0

1.1335518788719885e6 7.522880042018349e6 0.0
7.522880042018349e6 -9.088094089146432e6 0.0
0.0 0.0 0.0

628384.5179052448 1.79661513254619e7 0.0
1.79661513254619e7 7.116806671410995e6 0.0
0.0 0.0 0.0

1.378138228136889e7 3.7737778211935356e7 0.0
3.7737778211935356e7 -1.2582296423579644e7 0.0
0.0 0.0 0.0

-1.0169956548316227e7 7.3159483189244475e6 0.0
7.3159483189244475e6 3.783613686416006e7 0.0
0.0 0.0 0.0

1.0035188100011232e6 1.8491529040006585e7 0.0
1.8491529040006585e7 -6.972532126255534e6 0.0
0.0 0.0 0.0

-1.2359258841498247e6 1.69893015293631e7 0.0
1.69893015293631e7 -1.2560552666179582e7 0.0
0.0 0.0 0.0

-335186.8353234471 1.025774635791527e7 0.0
1.025774635791527e7 -6.7636502580739055e6 0.0
0.0 0.0 0.0

-324797.5560571997 5.181393166241219e6 0.0
5.181393166241219e6 -3.6585220724255526e6 0.0
0.0 0.0 0.0

3.3999582976322565e6 1.9338207143045392e7 0.0
1.9338207143045392e7 -4.582706933946893e6 0.0
0.0 0.0 0.0

-2.558605631150943e6 1.5661635287600249e7 0.0
1.5661635287600249e7 -2.519979589491209e7 0.0
0.0 0.0 0.0

3.585225341825446e6 3.209360431960864e6 0.0
3.209360431960864e6 -3.87551157695901e7 0.0
0.0 0.0 0.0

-4.477185238594342e6 2.085054914846696e7 0.0
2.085054914846696e7 1.0301573488473458e7 0.0
0.0 0.0 0.0

2.714075657813752e6 8.561285654749598e6 0.0
8.561285654749598e6 -2.8641895561199103e7 0.0
0.0 0.0 0.0

3.2681915078981686e6 3.7859475720234234e6 0.0
3.7859475720234234e6 -4.334079250646338e7 0.0
0.0 0.0 0.0

-3.647086459289087e6 1.92216310217532e7 0.0
1.92216310217532e7 1.266730562130803e7 0.0
0.0 0.0 0.0

-4.674121281968186e6 1.7150201740023155e7 0.0
1.7150201740023155e7 -1.3291307435317842e7 0.0
0.0 0.0 0.0

-1.1009473285549756e7 6.397476636549673e6 0.0
6.397476636549673e6 1.7674654707547043e7 0.0
0.0 0.0 0.0

-2.269051374497908e6 2.366263489393098e7 0.0
2.366263489393098e7 1.070190525395343e6 0.0
0.0 0.0 0.0

-12869.155802278081 1.0415317995979438e7 0.0
1.0415317995979438e7 -4.9998682227347195e6 0.0
0.0 0.0 0.0

-5.812471293300064e6 1.2690918383630125e7 0.0
1.2690918383630125e7 9.951927725698244e6 0.0
0.0 0.0 0.0

-9.647028278011583e6 -2.697070390301716e6 0.0
-2.697070390301716e6 2.8283159225852277e7 0.0
0.0 0.0 0.0

1.5398758043525536e6 1.3242079326688228e7 0.0
1.3242079326688228e7 -1.5214750768389892e7 0.0
0.0 0.0 0.0

-640945.2194847399 2.6935651011320803e7 0.0
2.6935651011320803e7 -796794.2188168619 0.0
0.0 0.0 0.0

-8.29664982281438e6 6.141299829596886e6 0.0
6.141299829596886e6 1.3640404838248273e7 0.0
0.0 0.0 0.0

1.8471514860698562e6 7.953368276448245e6 0.0
7.953368276448245e6 -3.8731754033730514e7 0.0
0.0 0.0 0.0

-2.0453026853022538e6 1.1044955876451427e7 0.0
1.1044955876451427e7 -3.5567288061477076e6 0.0
0.0 0.0 0.0

6.380656841633943e6 2.0318377782395065e7 0.0
2.0318377782395065e7 9.916142838285556e6 0.0
0.0 0.0 0.0

3.2489503442588557e7 2.0429891640724022e7 0.0
2.0429891640724022e7 6.199636502302764e6 0.0
0.0 0.0 0.0

3.7481242945376504e6 6.053862812880558e6 0.0
6.053862812880558e6 -1.887734882111245e7 0.0
0.0 0.0 0.0

-4.092905801055747e6 1.568115731801031e7 0.0
1.568115731801031e7 -3.1205781131012194e7 0.0
0.0 0.0 0.0

3.5869748848063527e6 6.036236609895667e6 0.0
6.036236609895667e6 -1.985284748912272e7 0.0
0.0 0.0 0.0

4.363134133777971e6 3.7927995580118042e6 0.0
3.7927995580118042e6 -2.127630302331832e7 0.0
0.0 0.0 0.0

2.7465390298905283e7 1.3464775720849324e7 0.0
1.3464775720849324e7 718680.9063962623 0.0
0.0 0.0 0.0

-9.41745468268179e6 3.227847458376348e7 0.0
3.227847458376348e7 3.4903937064688914e6 0.0
0.0 0.0 0.0

-2.1774874099649517e6 1.4518469817346875e7 0.0
1.4518469817346875e7 -2.8361604733125765e7 0.0
0.0 0.0 0.0

-9.024090987358615e6 2.1132308336036794e7 0.0
2.1132308336036794e7 -2.519664957538068e6 0.0
0.0 0.0 0.0

4.443637362064404e6 3.6676429745681523e6 0.0
3.6676429745681523e6 -2.7308698600048102e7 0.0
0.0 0.0 0.0

-7.694733709848618e6 2.249326271387873e7 0.0
2.249326271387873e7 6.403599064812263e6 0.0
0.0 0.0 0.0

6.028378313556163e6 2.7189336286748827e7 0.0
2.7189336286748827e7 -4.732000328985862e6 0.0
0.0 0.0 0.0

-1.1697136586122453e7 9.196331156448461e6 0.0
9.196331156448461e6 2.852284716460976e7 0.0
0.0 0.0 0.0

8.751338424284935e6 3.680810837639515e7 0.0
3.680810837639515e7 -7.882334705043629e6 0.0
0.0 0.0 0.0

-586469.9551391354 1.791139363475246e7 0.0
1.791139363475246e7 -744544.7224800097 0.0
0.0 0.0 0.0

3.8919888056662977e6 3.2127731427991474e6 0.0
3.2127731427991474e6 -3.444916805793136e7 0.0
0.0 0.0 0.0

2.3380153767159995e7 1.7182045382072333e7 0.0
1.7182045382072333e7 2.951899901961103e6 0.0
0.0 0.0 0.0

-3.417886516380677e6 1.885964790625947e7 0.0
1.885964790625947e7 1.2828088128313515e7 0.0
0.0 0.0 0.0

3.1496221817994434e6 6.129240679442538e6 0.0
6.129240679442538e6 -3.1335022729856547e7 0.0
0.0 0.0 0.0

-271916.1759926579 2.2096869205019284e7 0.0
2.2096869205019284e7 -5.67872306044801e6 0.0
0.0 0.0 0.0

848127.9996503778 1.7913106507389814e7 0.0
1.7913106507389814e7 -7.700001361494757e6 0.0
0.0 0.0 0.0

-2.924203414474505e6 1.6883664384262636e7 0.0
1.6883664384262636e7 -1.1609321367342344e7 0.0
0.0 0.0 0.0

-511265.4351416072 1.7344092972725853e7 0.0
1.7344092972725853e7 -9.22142226465124e6 0.0
0.0 0.0 0.0

8.726690712418947e6 2.0692471029073924e7 0.0
2.0692471029073924e7 1.001480314784557e7 0.0
0.0 0.0 0.0

1.4724173820993602e6 6.548880039089762e6 0.0
6.548880039089762e6 -5.3666412541744664e7 0.0
0.0 0.0 0.0

-4.894886126876902e6 2.1522720303884428e7 0.0
2.1522720303884428e7 1.0097390017903682e7 0.0
0.0 0.0 0.0

1.3763357828407118e6 4.478462121325448e6 0.0
4.478462121325448e6 -4.169410240795213e6 0.0
0.0 0.0 0.0

-1.1411007192948058e7 1.3818229930055473e7 0.0
1.3818229930055473e7 2.3073117239608757e7 0.0
0.0 0.0 0.0

4.411739375036567e6 4.20120963711838e6 0.0
4.20120963711838e6 -1.8696340438893188e7 0.0
0.0 0.0 0.0

-9.136148176510714e6 -2.926279164988185e6 0.0
-2.926279164988185e6 3.39691556491798e7 0.0
0.0 0.0 0.0

1.5081485898094326e6 1.3961995779860279e7 0.0
1.3961995779860279e7 -1.8350909130504448e7 0.0
0.0 0.0 0.0

1.2155410794462431e6 2.7760346991923777e6 0.0
2.7760346991923777e6 -4.288879298043979e6 0.0
0.0 0.0 0.0

2.9536368442936046e6 1.6594473840510448e7 0.0
1.6594473840510448e7 1.4460253950755969e7 0.0
0.0 0.0 0.0

-2.889921459134762e6 2.456418709368872e7 0.0
2.456418709368872e7 3.4650369077610457e6 0.0
0.0 0.0 0.0

-9.923279972301815e6 -1.658640136029655e6 0.0
-1.658640136029655e6 3.2261528911969654e7 0.0
0.0 0.0 0.0

-1.8530474023017013e6 1.840017655328816e7 0.0
1.840017655328816e7 7.341341806030976e6 0.0
0.0 0.0 0.0

3.718572266080608e6 2.043939048466994e7 0.0
2.043939048466994e7 -5.422746225421173e6 0.0
0.0 0.0 0.0

-3.0824144135766625e6 2.144386223345637e7 0.0
2.144386223345637e7 -21968.61508748436 0.0
0.0 0.0 0.0

-3.4365258562360713e6 1.9582185360700704e7 0.0
1.9582185360700704e7 -8.246962266840301e6 0.0
0.0 0.0 0.0

-2.6239394220500747e6 2.1605159642588004e7 0.0
2.1605159642588004e7 1.4024636198889143e6 0.0
0.0 0.0 0.0

-4.690991343712147e6 1.5371735984751217e7 0.0
1.5371735984751217e7 -1.7333756162634384e7 0.0
0.0 0.0 0.0

1.4514937621880636e7 2.234507064286042e7 0.0
2.234507064286042e7 -5.665259076318454e6 0.0
0.0 0.0 0.0

-1.2153249842275274e6 1.6173485861447914e7 0.0
1.6173485861447914e7 -1.3529497657029977e7 0.0
0.0 0.0 0.0

-5.412529880248897e6 1.8242105867952403e7 0.0
1.8242105867952403e7 2.0507642281893592e7 0.0
0.0 0.0 0.0

2.7793224677377674e6 1.9355570965107337e7 0.0
1.9355570965107337e7 1.2711167663202822e7 0.0
0.0 0.0 0.0

2.5632848774266634e6 9.839753188069206e6 0.0
9.839753188069206e6 -2.1202242222657915e7 0.0
0.0 0.0 0.0

-6.683616604638383e6 1.1827680881441817e7 0.0
1.1827680881441817e7 8.964395901819078e6 0.0
0.0 0.0 0.0

-3.04622254665873e6 2.7935802542786397e7 0.0
2.7935802542786397e7 1.5442503728677647e6 0.0
0.0 0.0 0.0

-6.472851757596149e6 1.7984035082269624e7 0.0
1.7984035082269624e7 1.4842317768770872e7 0.0
0.0 0.0 0.0

1.702777537134138e6 2.9232855055630695e7 0.0
2.9232855055630695e7 -1.2240322741166388e6 0.0
0.0 0.0 0.0

1.0784060385118555e6 1.3691168578823479e7 0.0
1.3691168578823479e7 -1.9509680651589226e7 0.0
0.0 0.0 0.0

-1.8021674745434348e7 2.431050419815399e7 0.0
2.431050419815399e7 -6.706404782408198e6 0.0
0.0 0.0 0.0

3.754292848517202e6 4.61651443862073e6 0.0
4.61651443862073e6 -3.821505259295611e7 0.0
0.0 0.0 0.0

8.584119141016439e6 2.9187039538009312e7 0.0
2.9187039538009312e7 -4.743412107496887e6 0.0
0.0 0.0 0.0

-1.7075689905297086e7 2.85792718533223e7 0.0
2.85792718533223e7 7.223370520947139e6 0.0
0.0 0.0 0.0

-130684.86262007151 1.7831686745007217e7 0.0
1.7831686745007217e7 1.5996811422385855e7 0.0
0.0 0.0 0.0

-3.185196774543771e7 2.8521115973982923e7 0.0
2.8521115973982923e7 7.525459006577071e6 0.0
0.0 0.0 0.0

4.0720382903247774e6 3.239465878954304e6 0.0
3.239465878954304e6 -3.541376070080699e7 0.0
0.0 0.0 0.0

-6.086259274529749e6 1.7865040324108824e7 0.0
1.7865040324108824e7 1.605937271241816e7 0.0
0.0 0.0 0.0

-9.036674288926382e6 6.022424919749318e6 0.0
6.022424919749318e6 1.1030046948002582e7 0.0
0.0 0.0 0.0

4.1465236560917133e6 3.4580317879213067e6 0.0
3.4580317879213067e6 -1.9706089633394744e7 0.0
0.0 0.0 0.0

287004.1647280506 1.7935321074044626e7 0.0
1.7935321074044626e7 -9.201462170148e6 0.0
0.0 0.0 0.0

-6.377455579375414e6 3.3432492607137676e7 0.0
3.3432492607137676e7 4.521539235909689e6 0.0
0.0 0.0 0.0

-1.2600574047916368e7 1.5378508021320242e7 0.0
1.5378508021320242e7 8.308840084431331e6 0.0
0.0 0.0 0.0

-3.0328362833724655e7 2.4628629876036573e7 0.0
2.4628629876036573e7 2.476879130072657e6 0.0
0.0 0.0 0.0

3.3449526401513938e7 1.9541818405037906e7 0.0
1.9541818405037906e7 1.169059189368305e7 0.0
0.0 0.0 0.0

-5.791921375293454e6 1.5061129616291115e7 0.0
1.5061129616291115e7 -6.906591531791708e7 0.0
0.0 0.0 0.0

-201654.7354936041 1.6953299308102716e7 0.0
1.6953299308102716e7 -1.1444369822557285e7 0.0
0.0 0.0 0.0

-5.200340505849163e6 1.785026360727724e7 0.0
1.785026360727724e7 2.0405634552859444e7 0.0
0.0 0.0 0.0

50153.6273323847 2.0379585756237373e7 0.0
2.0379585756237373e7 -8.620286225131413e6 0.0
0.0 0.0 0.0

-1.8958818302760469e6 2.3462083361622427e7 0.0
2.3462083361622427e7 -388913.9828188438 0.0
0.0 0.0 0.0

1.9593244829853093e6 1.5494550947534634e7 0.0
1.5494550947534634e7 8.388703170568604e6 0.0
0.0 0.0 0.0

1.2589664311226252e6 2.8625859018408958e7 0.0
2.8625859018408958e7 -1.1617268766723531e6 0.0
0.0 0.0 0.0

-9.894174725699157e6 6.221203178573489e6 0.0
6.221203178573489e6 1.4096278539138675e7 0.0
0.0 0.0 0.0

4.4888291378321424e7 2.8370774700432193e7 0.0
2.8370774700432193e7 1.6447294622816447e7 0.0
0.0 0.0 0.0

48472.96833027573 2.325630902625178e7 0.0
2.325630902625178e7 -5.378069009851107e6 0.0
0.0 0.0 0.0

2.815159663974493e6 1.4951242643869232e7 0.0
1.4951242643869232e7 1.1335759324532634e7 0.0
0.0 0.0 0.0

-9.582250927176025e6 2.257566922206846e7 0.0
2.257566922206846e7 2.2172845444489084e6 0.0
0.0 0.0 0.0

-1.1437027928409372e6 1.6786844332858022e7 0.0
1.6786844332858022e7 1.464482059621941e7 0.0
0.0 0.0 0.0

-552817.3576710133 2.2050891093553133e7 0.0
2.2050891093553133e7 -5.302685714147488e6 0.0
0.0 0.0 0.0

3.1443976726516783e6 7.658181517516293e6 0.0
7.658181517516293e6 -2.7955175465915054e7 0.0
0.0 0.0 0.0

-3.646372303542588e6 2.0205382512889855e7 0.0
2.0205382512889855e7 5.279527968291428e6 0.0
0.0 0.0 0.0

-5.301936538271539e6 2.0263800621111274e7 0.0
2.0263800621111274e7 3.455178921189101e6 0.0
0.0 0.0 0.0

1.5340527319578398e6 7.592937319511245e6 0.0
7.592937319511245e6 -1.0833324214458322e7 0.0
0.0 0.0 0.0

-3.9032970681967465e6 2.097597309854365e7 0.0
2.097597309854365e7 1.0629295376485018e7 0.0
0.0 0.0 0.0

-9.540481669838928e6 4.776059014901412e6 0.0
4.776059014901412e6 4.143304410875662e7 0.0
0.0 0.0 0.0

-772629.291124054 1.0583610586381841e7 0.0
1.0583610586381841e7 -2.835785344841076e6 0.0
0.0 0.0 0.0

-9.75419709442834e6 2.1888380304420922e7 0.0
2.1888380304420922e7 -6.204800508487601e6 0.0
0.0 0.0 0.0

3.0677496516957443e7 2.4675714537001725e7 0.0
2.4675714537001725e7 1.2819504262439761e7 0.0
0.0 0.0 0.0

1.0353338881093645e6 1.32748055316306e7 0.0
1.32748055316306e7 -2.4663930269038003e7 0.0
0.0 0.0 0.0

3.73156579571118e6 6.135540784868269e6 0.0
6.135540784868269e6 -2.9386294546772618e7 0.0
0.0 0.0 0.0

6.71491939283024e6 1.9115363025480505e7 0.0
1.9115363025480505e7 2.5412160622974965e6 0.0
0.0 0.0 0.0

-4.93271147037053e6 1.0064223560085954e7 0.0
1.0064223560085954e7 1.5130261808348231e7 0.0
0.0 0.0 0.0

-2.2144344479421563e6 2.2660737781367183e7 0.0
2.2660737781367183e7 69628.117738912 0.0
0.0 0.0 0.0

-1.603386588544874e6 1.9580568318721853e7 0.0
1.9580568318721853e7 -6.6809694713489e6 0.0
0.0 0.0 0.0

-1.0571561567805554e6 1.9765604816831946e7 0.0
1.9765604816831946e7 -8.272173298483429e6 0.0
0.0 0.0 0.0

-828329.7819303903 1.7255316376279414e7 0.0
1.7255316376279414e7 -6.7043541239910005e6 0.0
0.0 0.0 0.0

2.1164969023041874e6 8.285112397829595e6 0.0
8.285112397829595e6 -9.795279386424024e6 0.0
0.0 0.0 0.0

2.5284137917460125e7 2.226564904186814e7 0.0
2.226564904186814e7 9.607409342063323e6 0.0
0.0 0.0 0.0

1.8046866031280023e6 1.6044328990068141e7 0.0
1.6044328990068141e7 7.578973289473756e6 0.0
0.0 0.0 0.0

-3.2174619458439816e6 2.7489085217278145e7 0.0
2.7489085217278145e7 3.2764374060936193e6 0.0
0.0 0.0 0.0

-3.1894381788220093e7 1.8837325422521774e7 0.0
1.8837325422521774e7 8.2214507318553645e6 0.0
0.0 0.0 0.0

4.248387679348963e6 3.9263141821969347e6 0.0
3.9263141821969347e6 -1.7597246951543115e7 0.0
0.0 0.0 0.0

228530.79703756608 1.7538746532375414e7 0.0
1.7538746532375414e7 5.52564161966048e6 0.0
0.0 0.0 0.0

-3.3768330786090614e6 1.4718198879440425e7 0.0
1.4718198879440425e7 -1.654200285136311e7 0.0
0.0 0.0 0.0

72704.9209872717 1.5683648471131902e7 0.0
1.5683648471131902e7 -1.8421133539558694e7 0.0
0.0 0.0 0.0

-9.581901628738947e6 -4.395473106222054e6 0.0
-4.395473106222054e6 2.2311270557354547e7 0.0
0.0 0.0 0.0

1.4068425751114106e6 1.2580682370092405e7 0.0
1.2580682370092405e7 -1.7400390036007084e7 0.0
0.0 0.0 0.0

-7.585667659502481e6 1.6074382096378244e7 0.0
1.6074382096378244e7 -3.99111077690335e7 0.0
0.0 0.0 0.0

1.6522540415275432e6 1.2058260243679458e7 0.0
1.2058260243679458e7 -1.8341335532027524e7 0.0
0.0 0.0 0.0

988925.2631929656 1.8462213329327065e7 0.0
1.8462213329327065e7 -8.58002327048703e6 0.0
0.0 0.0 0.0

2.5101946175779063e7 1.932282394801669e7 0.0
1.932282394801669e7 5.740205988133654e6 0.0
0.0 0.0 0.0

-9.705312862738078e6 1.3569029670980016e7 0.0
1.3569029670980016e7 2.948744479120951e7 0.0
0.0 0.0 0.0

-3.882876078345761e6 2.041139862823755e7 0.0
2.041139862823755e7 -8.798012209465835e6 0.0
0.0 0.0 0.0

132522.36074799736 1.618239211560321e7 0.0
1.618239211560321e7 439843.71340487234 0.0
0.0 0.0 0.0

-5.180657593266587e6 1.8950934210745037e7 0.0
1.8950934210745037e7 -1.0889259616396127e7 0.0
0.0 0.0 0.0

2.4068392798401352e7 2.301429250731243e7 0.0
2.301429250731243e7 1.0541680994126406e7 0.0
0.0 0.0 0.0

-4.616702080481666e6 2.101952232027763e7 0.0
2.101952232027763e7 1.1251265044737391e7 0.0
0.0 0.0 0.0

1.4192694969220294e6 1.7984592214257002e7 0.0
1.7984592214257002e7 -3.5198849626760636e6 0.0
0.0 0.0 0.0

-1.0876814402227022e6 2.490867819607065e7 0.0
2.490867819607065e7 -1.1740427567899157e6 0.0
0.0 0.0 0.0

-3.641005774099584e6 2.0231780661869377e7 0.0
2.0231780661869377e7 6.0451965301312115e6 0.0
0.0 0.0 0.0

-6.813520980600864e6 1.1649223097222648e6 0.0
1.1649223097222648e6 6.342009892312162e7 0.0
0.0 0.0 0.0

-82715.2538979901 1.8161024941156775e7 0.0
1.8161024941156775e7 -1.2314774129476938e7 0.0
0.0 0.0 0.0

-2.4395919768328993e6 2.454308834444474e7 0.0
2.454308834444474e7 1.9962643461167323e6 0.0
0.0 0.0 0.0

170344.01367552922 4.042467486796911e6 0.0
4.042467486796911e6 -881938.8325928302 0.0
0.0 0.0 0.0

-1.0466866336127253e7 1.5363535592608e7 0.0
1.5363535592608e7 2.245836444364935e7 0.0
0.0 0.0 0.0

-3.3971585776808644e6 1.6747387738147493e7 0.0
1.6747387738147493e7 -9.287075585474921e6 0.0
0.0 0.0 0.0

4.029065565180205e6 3.9420117403369024e6 0.0
3.9420117403369024e6 -2.4036647150596276e7 0.0
0.0 0.0 0.0

-2.1228794233598425e6 2.831396196535796e7 0.0
2.831396196535796e7 2.1402926916910787e6 0.0
0.0 0.0 0.0

1.8880668245708533e6 1.2795647571504407e7 0.0
1.2795647571504407e7 -1.5938307999690918e7 0.0
0.0 0.0 0.0

-7.02825911660538e6 1.738040153038433e7 0.0
1.738040153038433e7 1.7556752788281064e7 0.0
0.0 0.0 0.0

2.5452276480184104e6 5.902528582058435e6 0.0
5.902528582058435e6 -4.961628012910619e7 0.0
0.0 0.0 0.0

-3.834331878436874e6 2.715304918761183e7 0.0
2.715304918761183e7 2.858372870790526e6 0.0
0.0 0.0 0.0

-6.287612709884307e6 1.5737122287704118e7 0.0
1.5737122287704118e7 -2.3996733949543394e7 0.0
0.0 0.0 0.0

3.6604241799737653e6 3.084598459880096e6 0.0
3.084598459880096e6 -1.196894112399511e7 0.0
0.0 0.0 0.0

-353883.5156868006 9.953248452304715e6 0.0
9.953248452304715e6 -4.0035603323662253e6 0.0
0.0 0.0 0.0

-1.405965554364569e7 2.873134881456089e7 0.0
2.873134881456089e7 6.360642464214362e6 0.0
0.0 0.0 0.0

3.826787020015358e6 1.5059950693793012e7 0.0
1.5059950693793012e7 1.3340316024467755e7 0.0
0.0 0.0 0.0

-7.077695599731615e6 3.1621871380475227e7 0.0
3.1621871380475227e7 3.1754564954960467e6 0.0
0.0 0.0 0.0

-1.1459222925401162e7 4.5220933447447205e6 0.0
4.5220933447447205e6 2.268152504283791e7 0.0
0.0 0.0 0.0

1.2645744797567166e6 8.671267327652328e6 0.0
8.671267327652328e6 -5.523530893770415e7 0.0
0.0 0.0 0.0

5.918071153500795e7 2.0062546484974172e7 0.0
2.0062546484974172e7 1.315274287715666e6 0.0
0.0 0.0 0.0

-2.138368297553275e6 2.3278318692499448e7 0.0
2.3278318692499448e7 256611.51945888682 0.0
0.0 0.0 0.0

-4.917016603686102e6 2.4452752084942125e7 0.0
2.4452752084942125e7 6.183537266685222e6 0.0
0.0 0.0 0.0

-3.0052144000710966e6 2.1894258094912563e7 0.0
2.1894258094912563e7 4.017274554481889e6 0.0
0.0 0.0 0.0

4.285671056047186e6 1.8481461640527032e7 0.0
1.8481461640527032e7 4.428047046828985e7 0.0
0.0 0.0 0.0

3.7946618579541016e6 4.150649349951854e6 0.0
4.150649349951854e6 -2.8023729615803827e7 0.0
0.0 0.0 0.0

386497.9216259951 1.208369516896413e7 0.0
1.208369516896413e7 -7.808419771356737e6 0.0
0.0 0.0 0.0

4.455992650134684e6 2.719120781878741e7 0.0
2.719120781878741e7 -4.183490931060016e6 0.0
0.0 0.0 0.0

1.6751224387000222e6 1.009020836210644e7 0.0
1.009020836210644e7 -3.1806169468860224e7 0.0
0.0 0.0 0.0

-1.806722475068061e7 1.7317332312790666e7 0.0
1.7317332312790666e7 7.872037615122584e6 0.0
0.0 0.0 0.0

-5.319765926319336e6 2.045470143019899e7 0.0
2.045470143019899e7 2.3643357638498787e6 0.0
0.0 0.0 0.0

246703.7601559828 1.6099776143545736e7 0.0
1.6099776143545736e7 3.4875709330084035e6 0.0
0.0 0.0 0.0

2.0901294086616319e6 1.2289301452327706e7 0.0
1.2289301452327706e7 -1.693997686554736e7 0.0
0.0 0.0 0.0

812433.3321823655 1.797687475375455e7 0.0
1.797687475375455e7 2.6956768230560757e7 0.0
0.0 0.0 0.0

8.31830578104336e6 2.722878715781396e7 0.0
2.722878715781396e7 -5.387569335066884e6 0.0
0.0 0.0 0.0

-3.863886639102929e7 2.4284971018635104e6 0.0
2.4284971018635104e6 7.67266762697256e6 0.0
0.0 0.0 0.0

3.274385954114729e7 3.5083779530459665e7 0.0
3.5083779530459665e7 -1.0847625013536485e7 0.0
0.0 0.0 0.0

7.6949402433432015e6 2.7549413145478208e7 0.0
2.7549413145478208e7 -5.944591452835924e6 0.0
0.0 0.0 0.0

3.941897952644837e6 4.0111796450238284e6 0.0
4.0111796450238284e6 -1.697466713259535e7 0.0
0.0 0.0 0.0

-3.2352142861393457e6 2.4617225149876587e7 0.0
2.4617225149876587e7 2.252111495215906e6 0.0
0.0 0.0 0.0

3.0557343550786186e7 1.3696050253303062e7 0.0
1.3696050253303062e7 1.1531161174855176e6 0.0
0.0 0.0 0.0

-8.737448465470912e6 7.04652586936248e6 0.0
7.04652586936248e6 4.4525386342502356e7 0.0
0.0 0.0 0.0

-107780.92657235963 1.8354136690399956e7 0.0
1.8354136690399956e7 -1.1902429370577049e7 0.0
0.0 0.0 0.0

1.8971046004398e7 1.7016881372746453e7 0.0
1.7016881372746453e7 4.129717664062299e6 0.0
0.0 0.0 0.0

798577.7055465905 1.84481520532528e7 0.0
1.84481520532528e7 -9.932644455191268e6 0.0
0.0 0.0 0.0

3.994932397221254e6 4.527638152913722e6 0.0
4.527638152913722e6 -3.0001603884960346e7 0.0
0.0 0.0 0.0

-1.7896289446007595e6 2.3058086393748537e7 0.0
2.3058086393748537e7 -1.2476742392883878e6 0.0
0.0 0.0 0.0

-2.8432262393166684e6 1.4938670697823223e7 0.0
1.4938670697823223e7 -1.5188435179102704e7 0.0
0.0 0.0 0.0

341192.4441247438 2.4465902758995317e7 0.0
2.4465902758995317e7 -4.246599923575549e6 0.0
0.0 0.0 0.0

-7.538139497415382e6 9.583160584146248e6 0.0
9.583160584146248e6 4.636567778509721e7 0.0
0.0 0.0 0.0

-550917.2252598228 1.6250491922088055e7 0.0
1.6250491922088055e7 -9.113556332538562e6 0.0
0.0 0.0 0.0

2.5749715322867054e6 9.557763587486124e6 0.0
9.557763587486124e6 -2.277066528057439e7 0.0
0.0 0.0 0.0

2.3781529620668744e6 2.0681579162253436e7 0.0
2.0681579162253436e7 -6.2765473479240965e6 0.0
0.0 0.0 0.0

-2.047074245933384e6 1.5788748075552277e7 0.0
1.5788748075552277e7 -8.198235999069793e6 0.0
0.0 0.0 0.0

-9.382286949571315e6 2.294854282687499e6 0.0
2.294854282687499e6 4.149660665377738e7 0.0
0.0 0.0 0.0

373776.4627162665 1.826545707833762e7 0.0
1.826545707833762e7 1.7667410918226965e7 0.0
0.0 0.0 0.0

1.5600369697167873e6 9.7780288024613e6 0.0
9.7780288024613e6 -3.413319667668207e7 0.0
0.0 0.0 0.0

941244.6687967181 2.426882003192841e7 0.0
2.426882003192841e7 -4.188085763151563e6 0.0
0.0 0.0 0.0

1.5819251419825098e6 1.9544452205428235e7 0.0
1.9544452205428235e7 1.2340100044255512e7 0.0
0.0 0.0 0.0

3.2848562411369253e6 8.641344391722675e6 0.0
8.641344391722675e6 -2.2230129195625518e7 0.0
0.0 0.0 0.0

4.440866307524644e7 2.1494616170774233e7 0.0
2.1494616170774233e7 9.523986532448173e6 0.0
0.0 0.0 0.0

394061.75168097904 2.3786838636820376e7 0.0
2.3786838636820376e7 -4.347753382303784e6 0.0
0.0 0.0 0.0

-9.773573458546817e6 -3.8007994586521736e6 0.0
-3.8007994586521736e6 2.5445338344349913e7 0.0
0.0 0.0 0.0

-1.0342375275510132e7 2.5179753986360165e6 0.0
2.5179753986360165e6 3.838654525620905e7 0.0
0.0 0.0 0.0

4.482689116815371e6 2.49551373647523e6 0.0
2.49551373647523e6 -2.534460804546382e7 0.0
0.0 0.0 0.0

-3.5747319825286595e6 2.1528490467183918e7 0.0
2.1528490467183918e7 3.51945222087126e6 0.0
0.0 0.0 0.0

-1.1077427102911507e6 1.6626489539324496e7 0.0
1.6626489539324496e7 -7.414053177615642e6 0.0
0.0 0.0 0.0

19534.44971584156 1.988598422864223e7 0.0
1.988598422864223e7 -9.642071298593128e6 0.0
0.0 0.0 0.0

-9.574018087896071e6 -1.2574951196585144e6 0.0
-1.2574951196585144e6 1.9274968947547145e7 0.0
0.0 0.0 0.0

-727709.5882536101 2.014948655347635e7 0.0
2.014948655347635e7 -7.008685273036078e6 0.0
0.0 0.0 0.0

-9.542869314373182e6 2.1694429274359634e6 0.0
2.1694429274359634e6 4.120816747072328e7 0.0
0.0 0.0 0.0

6.510926655637423e6 1.811265075638606e7 0.0
1.811265075638606e7 4.1752684392278707e6 0.0
0.0 0.0 0.0

1.0171962233211361e6 1.159634439753313e7 0.0
1.159634439753313e7 -3.253319410193358e7 0.0
0.0 0.0 0.0

2.089464775546249e6 9.723402393564392e6 0.0
9.723402393564392e6 -3.4207167651994415e7 0.0
0.0 0.0 0.0

-1.066140024863709e7 1.5064947796802308e7 0.0
1.5064947796802308e7 2.3457673393888608e7 0.0
0.0 0.0 0.0

-3.437600784450951e6 1.8288183790163763e7 0.0
1.8288183790163763e7 4.094303808511342e6 0.0
0.0 0.0 0.0

940318.0875362913 4.646997907482852e6 0.0
4.646997907482852e6 -2.8143530652145827e6 0.0
0.0 0.0 0.0

-744394.2151113583 1.7003758892605234e7 0.0
1.7003758892605234e7 -7.923237224834554e6 0.0
0.0 0.0 0.0

-3.523905694720902e6 2.3525144392314944e7 0.0
2.3525144392314944e7 6.094590705712076e6 0.0
0.0 0.0 0.0

3.952956597989238e6 1.8408393282041486e7 0.0
1.8408393282041486e7 3.367298669585231e7 0.0
0.0 0.0 0.0

9.34170913850543e6 2.03199473834318e7 0.0
2.03199473834318e7 -3.1512441874067932e6 0.0
0.0 0.0 0.0

-6.308998669002432e6 754692.6837722824 0.0
754692.6837722824 6.142601416073123e7 0.0
0.0 0.0 0.0

-9.668978329165012e6 9.192129580925064e6 0.0
9.192129580925064e6 3.6402284702008046e7 0.0
0.0 0.0 0.0

-1.0463797420879541e7 1.4552282276530482e7 0.0
1.4552282276530482e7 1.9585099315456282e7 0.0
0.0 0.0 0.0

1.149499071600347e6 1.647131916438645e7 0.0
1.647131916438645e7 8.364465789984967e6 0.0
0.0 0.0 0.0

-9.400496216542173e6 2.857217357773413e6 0.0
2.857217357773413e6 1.4213116297249872e7 0.0
0.0 0.0 0.0

-9.271836566053417e6 1.9539014738565452e7 0.0
1.9539014738565452e7 -2.867156635108638e6 0.0
0.0 0.0 0.0

4.216101191462686e6 4.949226978110938e6 0.0
4.949226978110938e6 -2.6715694919730976e7 0.0
0.0 0.0 0.0

-5.5881809589913e6 1.5698453436615203e7 0.0
1.5698453436615203e7 -3.4007574060284615e7 0.0
0.0 0.0 0.0

1.0271266014916002e6 1.599524787609707e7 0.0
1.599524787609707e7 5.298431221193852e6 0.0
0.0 0.0 0.0

1.2358924777404517e7 2.462243834024116e7 0.0
2.462243834024116e7 -6.675181528418256e6 0.0
0.0 0.0 0.0

1.1226678368156566e6 1.8942480846552685e7 0.0
1.8942480846552685e7 -7.826878885100471e6 0.0
0.0 0.0 0.0

-1.7893089747221246e7 2.3582610995094884e7 0.0
2.3582610995094884e7 -4.9179284562080605e6 0.0
0.0 0.0 0.0

-2.151864144569814e6 2.3870861323602203e7 0.0
2.3870861323602203e7 -1.3146788675678808e6 0.0
0.0 0.0 0.0

-908559.9067485259 6.610994423760326e6 0.0
6.610994423760326e6 -3.263341435719757e6 0.0
0.0 0.0 0.0

-4.934404148601428e6 3.2418040399303764e7 0.0
3.2418040399303764e7 4.422918293478097e6 0.0
0.0 0.0 0.0

-3.2507391604277017e6 1.8690369078512304e7 0.0
1.8690369078512304e7 2.995695623872291e6 0.0
0.0 0.0 0.0

-1.182950981895067e7 6.397886835339806e6 0.0
6.397886835339806e6 1.492582583839063e7 0.0
0.0 0.0 0.0

-3.694928308783151e6 1.8597455586818542e7 0.0
1.8597455586818542e7 1.3578754178402126e6 0.0
0.0 0.0 0.0

-3.0714111653938848e6 2.5031558531144555e6 0.0
2.5031558531144555e6 1.894760441694142e6 0.0
0.0 0.0 0.0

766002.7384490017 9.593004045584908e6 0.0
9.593004045584908e6 -1.331902030092221e7 0.0
0.0 0.0 0.0

1.1880266927495245e6 1.211360199975943e7 0.0
1.211360199975943e7 -2.8354470960482307e7 0.0
0.0 0.0 0.0

-7.381356158779888e6 2.041232403804803e7 0.0
2.041232403804803e7 -6.73322562635948e6 0.0
0.0 0.0 0.0

-5.210767227309145e6 1.8245328781366114e7 0.0
1.8245328781366114e7 1.9478133948104467e7 0.0
0.0 0.0 0.0

-827552.6795710598 1.6516636038939938e7 0.0
1.6516636038939938e7 -5.380624196150259e6 0.0
0.0 0.0 0.0

3.390736169809635e6 4.268628110723002e6 0.0
4.268628110723002e6 -1.2153837837139126e7 0.0
0.0 0.0 0.0

-1.7402332311011737e6 2.1621874105282124e7 0.0
2.1621874105282124e7 -4.553128320636257e6 0.0
0.0 0.0 0.0

-1.4273980220914395e6 2.4724183096995838e7 0.0
2.4724183096995838e7 -2.1225616702270564e6 0.0
0.0 0.0 0.0

3.5012318722728365e6 2.0283868256451022e7 0.0
2.0283868256451022e7 -5.66331330293678e6 0.0
0.0 0.0 0.0

-1.1897738800425202e7 9.387247528954988e6 0.0
9.387247528954988e6 1.6145415950921284e7 0.0
0.0 0.0 0.0

-1.435545499126154e6 1.580412356186769e7 0.0
1.580412356186769e7 -1.7086691363521807e7 0.0
0.0 0.0 0.0

-5.094300599942398e6 2.8358812079343967e7 0.0
2.8358812079343967e7 3.273995780152156e6 0.0
0.0 0.0 0.0

-4.368335303698279e6 2.776071265079168e7 0.0
2.776071265079168e7 3.0586195874606594e6 0.0
0.0 0.0 0.0

-1.6178882334688865e6 1.438638421855417e7 0.0
1.438638421855417e7 -2.6229766782827098e7 0.0
0.0 0.0 0.0

-2.623141750830796e6 1.5747846917210355e7 0.0
1.5747846917210355e7 -1.0470801767456314e7 0.0
0.0 0.0 0.0

433425.60189899954 1.662557465505866e7 0.0
1.662557465505866e7 4.438767999241075e6 0.0
0.0 0.0 0.0

2.5698758227106445e6 9.10099811182039e6 0.0
9.10099811182039e6 -2.7252907167697877e7 0.0
0.0 0.0 0.0

-1.0981679438256998e7 1.0325230281604547e7 0.0
1.0325230281604547e7 3.0014883657218143e7 0.0
0.0 0.0 0.0

-520481.44529917836 1.1643866668607322e7 0.0
1.1643866668607322e7 -5.723847947364089e7 0.0
0.0 0.0 0.0

6.375650320269909e6 3.011908905525628e7 0.0
3.011908905525628e7 -6.13999810820506e6 0.0
0.0 0.0 0.0

4.7083627118281e6 1.6453042645306764e7 0.0
1.6453042645306764e7 2.2285305717773296e7 0.0
0.0 0.0 0.0

1.9201142671884894e6 1.744854199199152e7 0.0
1.744854199199152e7 3.013121599148903e7 0.0
0.0 0.0 0.0

1.7735884996396817e7 2.1059998200355727e7 0.0
2.1059998200355727e7 9.104729681953173e6 0.0
0.0 0.0 0.0

-425204.99580206664 1.6595723119299948e7 0.0
1.6595723119299948e7 2.6285883303692928e6 0.0
0.0 0.0 0.0

-1.6131427361216352e6 2.1302152981261156e7 0.0
2.1302152981261156e7 -4.345453578105447e6 0.0
0.0 0.0 0.0

-2.428231196634227e7 2.380641550593456e7 0.0
2.380641550593456e7 -5.662463023983117e6 0.0
0.0 0.0 0.0

-343928.2720705461 1.578599037519296e7 0.0
1.578599037519296e7 829553.444130282 0.0
0.0 0.0 0.0

-3.2088342011569724e6 1.950776018977058e7 0.0
1.950776018977058e7 4.866445443104042e6 0.0
0.0 0.0 0.0

4.502005791616478e6 4.0362318897827463e6 0.0
4.0362318897827463e6 -2.2301382477193445e7 0.0
0.0 0.0 0.0

-1.0005157713690115e7 2.0907208458856277e7 0.0
2.0907208458856277e7 -1.344755456270826e6 0.0
0.0 0.0 0.0

-1.2691221347024081e7 3.4024152501441784e7 0.0
3.4024152501441784e7 5.196822357324912e6 0.0
0.0 0.0 0.0

-1.0328344417871028e7 466474.40827092866 0.0
466474.40827092866 2.2225777252055123e7 0.0
0.0 0.0 0.0

7.983736056293038e6 2.550599807962254e7 0.0
2.550599807962254e7 -5.345610529565614e6 0.0
0.0 0.0 0.0

-5.106060102981027e6 9.543900242377115e6 0.0
9.543900242377115e6 6.662014235432069e7 0.0
0.0 0.0 0.0

-9.532197558771325e6 -3.9207155864399346e6 0.0
-3.9207155864399346e6 2.5109879385876767e7 0.0
0.0 0.0 0.0

-1.0306461308254201e7 1.7906112758705925e7 0.0
1.7906112758705925e7 -4.3774534404818386e7 0.0
0.0 0.0 0.0

-165320.45230917586 1.7607008295545787e7 0.0
1.7607008295545787e7 -1.0349709013681285e7 0.0
0.0 0.0 0.0

-1.207006899237694e6 2.545812958743971e7 0.0
2.545812958743971e7 -990799.8918776575 0.0
0.0 0.0 0.0

-6.985062275954556e6 1.777219736471357e7 0.0
1.777219736471357e7 -5.871224098798585e6 0.0
0.0 0.0 0.0

-489991.6277922318 9.422559327501165e6 0.0
9.422559327501165e6 -2.9985088505600095e6 0.0
0.0 0.0 0.0

-2.1919143067972567e6 2.2841624026961587e7 0.0
2.2841624026961587e7 -2.376783838301576e6 0.0
0.0 0.0 0.0

-3.054854494386633e6 2.6958389953182995e7 0.0
2.6958389953182995e7 2.7671867506214227e6 0.0
0.0 0.0 0.0

-1.0271432092128168e6 2.5570489790132195e7 0.0
2.5570489790132195e7 -1.3011851073180554e6 0.0
0.0 0.0 0.0

-2.190259304145124e6 1.0861210281201351e7 0.0
1.0861210281201351e7 -6.280336214457199e7 0.0
0.0 0.0 0.0

-4.4298892575779315e6 1.7457485792273466e7 0.0
1.7457485792273466e7 -1.3910861887329115e7 0.0
0.0 0.0 0.0

-8.167593081273206e6 1.6545889548987108e6 0.0
1.6545889548987108e6 4.9382870121240765e7 0.0
0.0 0.0 0.0

9.879829756344002e6 2.086886194580614e7 0.0
2.086886194580614e7 5.0189832995572224e7 0.0
0.0 0.0 0.0

-4.266420360704144e7 2.4243092947515384e6 0.0
2.4243092947515384e6 7.650274781384587e6 0.0
0.0 0.0 0.0

3.0230647129647046e7 2.267326573817535e7 0.0
2.267326573817535e7 2.0063076140556587e6 0.0
0.0 0.0 0.0

640578.831215878 1.4114213333650725e7 0.0
1.4114213333650725e7 -2.380045102246101e7 0.0
0.0 0.0 0.0

2.331879847676456e6 5.392787126279117e6 0.0
5.392787126279117e6 -7.878454448581352e6 0.0
0.0 0.0 0.0

4.1614797357929625e7 2.149643857013946e7 0.0
2.149643857013946e7 -4.74339997667348e6 0.0
0.0 0.0 0.0

3.441582705739349e6 1.140922529431287e7 0.0
1.140922529431287e7 -1.7406456168622416e7 0.0
0.0 0.0 0.0

2.2276813286492623e7 2.0942170079845563e7 0.0
2.0942170079845563e7 9.270569962144705e6 0.0
0.0 0.0 0.0

-2.4221298599617234e6 2.370866519605151e7 0.0
2.370866519605151e7 -785705.5851030162 0.0
0.0 0.0 0.0

-4.415778007595838e6 2.3956161749607686e7 0.0
2.3956161749607686e7 6.31100862664407e6 0.0
0.0 0.0 0.0

-614823.8734207028 1.2481931302763222e7 0.0
1.2481931302763222e7 -8.431586263568677e6 0.0
0.0 0.0 0.0

-7.453358667386239e6 1.2823593997033373e7 0.0
1.2823593997033373e7 -2.0947938566184796e6 0.0
0.0 0.0 0.0

-3.9792247283566725e6 1.5792636909579245e7 0.0
1.5792636909579245e7 -1.6440354298974391e7 0.0
0.0 0.0 0.0

-1.9420295986498129e6 1.871542827217261e7 0.0
1.871542827217261e7 7.250307819031071e6 0.0
0.0 0.0 0.0

1.418381766997409e6 1.8411814619326983e7 0.0
1.8411814619326983e7 8.939840313719729e6 0.0
0.0 0.0 0.0

-5.730207914183732e6 8.15729968256331e6 0.0
8.15729968256331e6 6.21855388325162e7 0.0
0.0 0.0 0.0

-2.8198135732200104e6 2.234440625057831e7 0.0
2.234440625057831e7 -467474.1522539307 0.0
0.0 0.0 0.0

4.464624697491007e6 2.4851894539450402e6 0.0
2.4851894539450402e6 -2.5547208474174395e7 0.0
0.0 0.0 0.0

-4.0980460588880256e6 1.955870932820533e7 0.0
1.955870932820533e7 1.3578201323990837e7 0.0
0.0 0.0 0.0

749382.1509114397 1.8417767977837253e7 0.0
1.8417767977837253e7 1.0264736708898153e7 0.0
0.0 0.0 0.0

8.531217068669416e6 2.1797036352149203e7 0.0
2.1797036352149203e7 -4.84897859674486e6 0.0
0.0 0.0 0.0

-680541.6674006227 2.1567492495276645e7 0.0
2.1567492495276645e7 -6.8907659405313805e6 0.0
0.0 0.0 0.0

-3.783366608595239e6 2.961435251850256e7 0.0
2.961435251850256e7 2.089820482541755e6 0.0
0.0 0.0 0.0

-1.7404592206369238e6 7.079306152118059e6 0.0
7.079306152118059e6 -2.0811171787479776e6 0.0
0.0 0.0 0.0

-1.0174031806184513e7 2.82537441944036e7 0.0
2.82537441944036e7 5.395342916462736e6 0.0
0.0 0.0 0.0

-2.6055407979288115e6 2.4334971860638626e7 0.0
2.4334971860638626e7 2.7149957985330285e6 0.0
0.0 0.0 0.0

-9.977812881930484e6 1.5627692906522518e7 0.0
1.5627692906522518e7 1.9574234285723932e7 0.0
0.0 0.0 0.0

2.4625542687531605e7 2.0598341630583007e7 0.0
2.0598341630583007e7 -2.4200394475920536e6 0.0
0.0 0.0 0.0

473611.2481146101 1.697479769088293e7 0.0
1.697479769088293e7 -1.289896204343405e7 0.0
0.0 0.0 0.0

-2.6534008667644546e6 2.3529941240399953e7 0.0
2.3529941240399953e7 -157461.03889168275 0.0
0.0 0.0 0.0

-323482.36865947675 1.1443233186905686e7 0.0
1.1443233186905686e7 -8.728654052532483e6 0.0
0.0 0.0 0.0

-1.9075589867101396e6 1.8509807875400946e7 0.0
1.8509807875400946e7 1.1407527222810384e7 0.0
0.0 0.0 0.0

-1.1091214371981815e7 1.3147786087072017e7 0.0
1.3147786087072017e7 839016.4891257449 0.0
0.0 0.0 0.0

-1.0856954161088794e7 2.0344670735546295e7 0.0
2.0344670735546295e7 -1.7142143363973566e6 0.0
0.0 0.0 0.0

59931.66984320432 1.7401135537141893e7 0.0
1.7401135537141893e7 -1.0314869570063138e7 0.0
0.0 0.0 0.0

6.915259871562243e6 1.4687298641338928e7 0.0
1.4687298641338928e7 4.301007487630714e6 0.0
0.0 0.0 0.0

5621.677528065629 1.648827433528529e7 0.0
1.648827433528529e7 -1.597080103996013e7 0.0
0.0 0.0 0.0

-5.456432865940354e6 1.8106991165605757e7 0.0
1.8106991165605757e7 1.9368808149395127e7 0.0
0.0 0.0 0.0

-1.544707821594988e7 1.8804708177094825e7 0.0
1.8804708177094825e7 3.7546364888222506e6 0.0
0.0 0.0 0.0

-2.344420821692013e6 1.8525188658771567e7 0.0
1.8525188658771567e7 2.9058610095430505e6 0.0
0.0 0.0 0.0

-1.2623928809724003e7 5.636956277933477e6 0.0
5.636956277933477e6 2.061452183900724e7 0.0
0.0 0.0 0.0

1.070514227813458e6 1.729080247509629e7 0.0
1.729080247509629e7 1.5215644862164175e7 0.0
0.0 0.0 0.0

9.874610845517453e6 2.7595781096673902e7 0.0
2.7595781096673902e7 -6.917919427936738e6 0.0
0.0 0.0 0.0

-3.398975273336393e7 2.3041325764914997e7 0.0
2.3041325764914997e7 4.391651221765682e6 0.0
0.0 0.0 0.0

5.767752665457167e6 3.349269471340961e7 0.0
3.349269471340961e7 -3.334071115161224e6 0.0
0.0 0.0 0.0

-1.1881040744546523e7 2.1449237883606415e7 0.0
2.1449237883606415e7 290123.6742012999 0.0
0.0 0.0 0.0

3.041207282900978e6 3.07603848336201e7 0.0
3.07603848336201e7 -1.6981724326520003e6 0.0
0.0 0.0 0.0

-1.1837330755394906e7 1.9251257872938858e6 0.0
1.9251257872938858e6 1.9940629038305327e7 0.0
0.0 0.0 0.0

1.077424821345663e7 2.0945178735848147e7 0.0
2.0945178735848147e7 -3.510128896281348e6 0.0
0.0 0.0 0.0

-3.609649840548954e6 2.8085154652950376e7 0.0
2.8085154652950376e7 3.5640304631771008e6 0.0
0.0 0.0 0.0

-4.0631957533008577e6 1.929839176252919e7 0.0
1.929839176252919e7 815193.864166185 0.0
0.0 0.0 0.0

74759.0495838821 1.5468144766905263e7 0.0
1.5468144766905263e7 -1.995539320826451e7 0.0
0.0 0.0 0.0

-5.64071383704271e6 2.578195024019018e7 0.0
2.578195024019018e7 5.565057703466215e6 0.0
0.0 0.0 0.0

-7.043152910974922e6 1.7552338986230616e7 0.0
1.7552338986230616e7 -2.2796725105481166e6 0.0
0.0 0.0 0.0

2.369411096245525e6 3.0240711221088387e7 0.0
3.0240711221088387e7 -3.408423242186698e6 0.0
0.0 0.0 0.0

-1.3058560237499412e7 2.8717887436201666e7 0.0
2.8717887436201666e7 6.6759815673095565e6 0.0
0.0 0.0 0.0

7.157129568242251e6 2.1207858514848337e7 0.0
2.1207858514848337e7 -4.421803941478003e6 0.0
0.0 0.0 0.0

3.8279473913240954e6 5.642216591595767e6 0.0
5.642216591595767e6 -1.5171924599579845e7 0.0
0.0 0.0 0.0

-4.257893997389056e6 1.5923341073086968e7 0.0
1.5923341073086968e7 -2.7955214965667006e7 0.0
0.0 0.0 0.0

3.3854843064698316e6 4.161331082804723e6 0.0
4.161331082804723e6 -1.3139869598142121e7 0.0
0.0 0.0 0.0

3.108280492764927e6 1.6931722923108738e7 0.0
1.6931722923108738e7 2.1306661035556756e7 0.0
0.0 0.0 0.0

3.665665267447671e6 1.9610810243782558e7 0.0
1.9610810243782558e7 -4.233079579109215e6 0.0
0.0 0.0 0.0

5.745566879492303e6 2.5763950649948146e7 0.0
2.5763950649948146e7 -5.011856038704608e6 0.0
0.0 0.0 0.0

-1.0405039609977767e7 1.5927159968003301e7 0.0
1.5927159968003301e7 2.2197227957229305e7 0.0
0.0 0.0 0.0

61932.597320000175 1.3042742888514828e7 0.0
1.3042742888514828e7 -7.581929387855631e6 0.0
0.0 0.0 0.0

-754331.1326247414 7.802310355579105e6 0.0
7.802310355579105e6 4.922559741613539e6 0.0
0.0 0.0 0.0

700945.2869897187 1.0138397732256798e7 0.0
1.0138397732256798e7 -4.7385558986394e7 0.0
0.0 0.0 0.0

1.4644143219286497e6 1.4551400417695194e7 0.0
1.4551400417695194e7 4.801676314829812e6 0.0
0.0 0.0 0.0

-1.2609467224792257e7 2.5978443465350997e7 0.0
2.5978443465350997e7 5.706092007952724e6 0.0
0.0 0.0 0.0

-821634.1495628655 1.6236586078219948e7 0.0
1.6236586078219948e7 -1.1457597421458492e7 0.0
0.0 0.0 0.0

1.8627326652133375e7 1.988760208583493e7 0.0
1.988760208583493e7 6.31298925298084e6 0.0
0.0 0.0 0.0

-1.1528073293757934e7 4.80994950886935e6 0.0
4.80994950886935e6 2.6799582574425407e7 0.0
0.0 0.0 0.0

-2.8260672157001585e7 2.6283961752926838e7 0.0
2.6283961752926838e7 3.484246990250686e6 0.0
0.0 0.0 0.0

2.3102635840037484e7 2.8230343309018046e7 0.0
2.8230343309018046e7 -1.1245748496824468e7 0.0
0.0 0.0 0.0

-4.524423844507503e6 2.4123358559585627e7 0.0
2.4123358559585627e7 7.062226031681938e6 0.0
0.0 0.0 0.0

-222451.23142599012 1.4496367813317372e7 0.0
1.4496367813317372e7 1.9717863694645118e6 0.0
0.0 0.0 0.0

-9.102490732479285e6 1.5101204466410019e7 0.0
1.5101204466410019e7 2.645408435456513e7 0.0
0.0 0.0 0.0

-1.0303514577238189e7 -2.587764303403828e6 0.0
-2.587764303403828e6 2.60072606485597e7 0.0
0.0 0.0 0.0

45110.680373024195 1.6663776069706922e7 0.0
1.6663776069706922e7 -1.3998198049034642e7 0.0
0.0 0.0 0.0

-7.460951281350531e6 2.245976759223041e7 0.0
2.245976759223041e7 -8.79777940499427e6 0.0
0.0 0.0 0.0

-303458.3432614999 1.6969728287554752e7 0.0
1.6969728287554752e7 -9.45642780908748e6 0.0
0.0 0.0 0.0

-8.043629605683338e6 9.973652061228923e6 0.0
9.973652061228923e6 4.241236398245561e7 0.0
0.0 0.0 0.0

1.0359708152105082e6 1.3284497083562288e7 0.0
1.3284497083562288e7 -2.3456152060013767e7 0.0
0.0 0.0 0.0

-7.726524168942496e6 2.241293723047335e7 0.0
2.241293723047335e7 -8.85876138397935e6 0.0
0.0 0.0 0.0

101563.13115355652 1.5110777899252828e7 0.0
1.5110777899252828e7 -1.9856940374398127e7 0.0
0.0 0.0 0.0

1.8967275126170967e7 1.983985784059079e7 0.0
1.983985784059079e7 8.928325231162237e6 0.0
0.0 0.0 0.0

-9.402857718061429e6 8.2082660011177e6 0.0
8.2082660011177e6 3.9074644705667704e7 0.0
0.0 0.0 0.0

936306.7568064212 1.789919064463957e7 0.0
1.789919064463957e7 -1.410775180099599e6 0.0
0.0 0.0 0.0

-3.2691844331559595e6 1.8791458593391065e7 0.0
1.8791458593391065e7 1.5860299861495504e7 0.0
0.0 0.0 0.0

1.5118619355336255e6 2.483148801398459e7 0.0
2.483148801398459e7 -4.166840867942269e6 0.0
0.0 0.0 0.0

3.128222240514992e6 9.319780505294897e6 0.0
9.319780505294897e6 -2.3799962018048212e7 0.0
0.0 0.0 0.0

2.1418219898901535e6 8.810089542248337e6 0.0
8.810089542248337e6 -1.0485727222038884e7 0.0
0.0 0.0 0.0

757115.568519393 1.0553203481599243e7 0.0
1.0553203481599243e7 -4.114836369741964e7 0.0
0.0 0.0 0.0

-7.290694273024167e6 2.076408771307816e7 0.0
2.076408771307816e7 -3.479588146138789e6 0.0
0.0 0.0 0.0

-1.0699830136874866e7 7.896366296697059e6 0.0
7.896366296697059e6 3.488872144701163e7 0.0
0.0 0.0 0.0

-6.158199548471983e6 2.062129417072989e7 0.0
2.062129417072989e7 -6.350722989123662e6 0.0
0.0 0.0 0.0

-102621.62352301972 1.614237238407824e7 0.0
1.614237238407824e7 -9.79292034659027e6 0.0
0.0 0.0 0.0

2.0044659488363005e6 8.349276056226833e6 0.0
8.349276056226833e6 -3.6547856571098864e7 0.0
0.0 0.0 0.0

-9.994311223096035e6 1.3994163927147176e7 0.0
1.3994163927147176e7 2.765514879538665e7 0.0
0.0 0.0 0.0

2.3017130658825147e6 1.6083908876258511e7 0.0
1.6083908876258511e7 9.594226760041676e6 0.0
0.0 0.0 0.0

538830.4494551774 1.1945688030483248e7 0.0
1.1945688030483248e7 -3.0601271864193242e7 0.0
0.0 0.0 0.0

4.08748018967928e6 3.0806280483256755e6 0.0
3.0806280483256755e6 -2.8363045775413223e7 0.0
0.0 0.0 0.0

-4.622296198248852e6 1.91574944599591e7 0.0
1.91574944599591e7 1.3484532875240486e7 0.0
0.0 0.0 0.0

-5.849994168143074e6 2.1333695179619823e7 0.0
2.1333695179619823e7 -8.24115934227342e6 0.0
0.0 0.0 0.0

1.3719465290408735e6 1.2233597169898849e7 0.0
1.2233597169898849e7 -1.2105394636923516e7 0.0
0.0 0.0 0.0

-1.03647854859101e7 1.4141498631937988e6 0.0
1.4141498631937988e6 3.2390605585086092e7 0.0
0.0 0.0 0.0

-1.2537317538421727e6 2.2677409163693637e6 0.0
2.2677409163693637e6 2.2117939806485297e6 0.0
0.0 0.0 0.0

-7.452333600970296e6 1.7521082008229043e7 0.0
1.7521082008229043e7 1.6232121223389149e7 0.0
0.0 0.0 0.0

2.012432068413749e7 2.1802074103701726e7 0.0
2.1802074103701726e7 1.1330338501298927e7 0.0
0.0 0.0 0.0

1.5055100922080187e7 2.044924020859601e7 0.0
2.044924020859601e7 9.223898285397258e6 0.0
0.0 0.0 0.0

-1.15430090681591e7 2.156254538581556e7 0.0
2.156254538581556e7 -7.570575572330302e6 0.0
0.0 0.0 0.0

-2.8616751599966977e6 1.4436168528454749e7 0.0
1.4436168528454749e7 -1.0401928193445101e7 0.0
0.0 0.0 0.0

-6.400273399867379e6 2.151186136826314e7 0.0
2.151186136826314e7 -7.351498630694602e6 0.0
0.0 0.0 0.0

-7.79021208176492e6 2.0682834629044946e7 0.0
2.0682834629044946e7 -6.28758938451074e6 0.0
0.0 0.0 0.0

855055.4375418834 1.108407458163038e7 0.0
1.108407458163038e7 -3.670238103935973e7 0.0
0.0 0.0 0.0

-305340.23356572725 4.217712820520294e6 0.0
4.217712820520294e6 -2.632662192532978e6 0.0
0.0 0.0 0.0

-294475.7170446894 6.52405547335268e6 0.0
6.52405547335268e6 -1.2073637366659075e6 0.0
0.0 0.0 0.0

758728.0979642926 1.5445945218659567e7 0.0
1.5445945218659567e7 1.1750817839770727e6 0.0
0.0 0.0 0.0

1.3608164711919604e7 2.0828072802889194e7 0.0
2.0828072802889194e7 9.674809662138145e6 0.0
0.0 0.0 0.0

548122.9507701735 1.5797980848228103e7 0.0
1.5797980848228103e7 6.2825510898670945e6 0.0
0.0 0.0 0.0

-5.57505791717439e6 1.838288594626588e7 0.0
1.838288594626588e7 1.3789742664186645e7 0.0
0.0 0.0 0.0

-2.234578570888583e7 9.799885759586977e6 0.0
9.799885759586977e6 9.749499729820965e6 0.0
0.0 0.0 0.0

1.4446382688411642e6 1.6137615389673917e7 0.0
1.6137615389673917e7 7.665102460589611e6 0.0
0.0 0.0 0.0

3.032480131096851e6 6.090787295188705e6 0.0
6.090787295188705e6 -1.5857564206361026e7 0.0
0.0 0.0 0.0

-1.257290622752556e7 2.735042359738897e7 0.0
2.735042359738897e7 6.248647605304989e6 0.0
0.0 0.0 0.0

-9.853064361290237e6 -399872.937961785 0.0
-399872.937961785 3.4346891358464845e7 0.0
0.0 0.0 0.0

-1.2023420287111395e6 1.794566230709443e7 0.0
1.794566230709443e7 -7.599597379862205e6 0.0
0.0 0.0 0.0

5.622222753630297e6 1.9486573752238236e7 0.0
1.9486573752238236e7 1.0902928833382716e7 0.0
0.0 0.0 0.0

-5.781451368379594e6 2.114889173937859e7 0.0
2.114889173937859e7 -8.165156672785984e6 0.0
0.0 0.0 0.0

-1.8657955983750876e6 1.4891127154241744e7 0.0
1.4891127154241744e7 -2.3878462382911474e7 0.0
0.0 0.0 0.0

1.569681461020955e7 2.133884204674592e7 0.0
2.133884204674592e7 1.0971467884064948e7 0.0
0.0 0.0 0.0

-2.0093117674180148e6 1.6285276402129747e7 0.0
1.6285276402129747e7 -1.7767136581678018e7 0.0
0.0 0.0 0.0

819175.9231603486 1.6946473709310748e7 0.0
1.6946473709310748e7 9.197535621904412e6 0.0
0.0 0.0 0.0

2.4121826696734955e6 1.8764478075715523e7 0.0
1.8764478075715523e7 1.2664558632213967e7 0.0
0.0 0.0 0.0

-4.1485419912531376e6 1.8959367465662614e7 0.0
1.8959367465662614e7 1.4256577586752396e7 0.0
0.0 0.0 0.0

-2.828506653667175e6 1.8752776055028018e7 0.0
1.8752776055028018e7 9.30593919402102e6 0.0
0.0 0.0 0.0

3.5517196182760075e6 5.436887939566247e6 0.0
5.436887939566247e6 -2.744551216681734e7 0.0
0.0 0.0 0.0

-414377.9823609568 2.6607893197852943e7 0.0
2.6607893197852943e7 -1.3813679610670763e6 0.0
0.0 0.0 0.0

-4.799790339161117e6 1.798219735442279e7 0.0
1.798219735442279e7 -1.1628713947018601e7 0.0
0.0 0.0 0.0

2.350832411349106e7 1.8377260695223063e7 0.0
1.8377260695223063e7 8.205971779064557e6 0.0
0.0 0.0 0.0

-7.5487895820273645e6 2.5222558898360908e7 0.0
2.5222558898360908e7 6.257361696025579e6 0.0
0.0 0.0 0.0

3.8509586240077205e6 4.564016898547368e6 0.0
4.564016898547368e6 -3.150162143060264e7 0.0
0.0 0.0 0.0

-3.7863600085546225e6 1.691590160938073e7 0.0
1.691590160938073e7 5.353849179905431e6 0.0
0.0 0.0 0.0

1.1443250967455648e7 1.8668382542348087e7 0.0
1.8668382542348087e7 5.966638915088624e6 0.0
0.0 0.0 0.0

3.085051937468715e7 1.659857013876614e7 0.0
1.659857013876614e7 5.329095870330258e6 0.0
0.0 0.0 0.0

-4.731868926470784e6 2.8066092204373345e7 0.0
2.8066092204373345e7 4.477354470142657e6 0.0
0.0 0.0 0.0

372547.5407266682 1.7199483989511155e7 0.0
1.7199483989511155e7 -1.501677596320661e7 0.0
0.0 0.0 0.0

-1.0793449085208027e7 8.52490069220205e6 0.0
8.52490069220205e6 1.7669798517783877e7 0.0
0.0 0.0 0.0

-1.0201123649687286e7 -353637.1237289871 0.0
-353637.1237289871 3.2817808131554663e7 0.0
0.0 0.0 0.0

1.3161559573898462e6 1.6037908638721684e7 0.0
1.6037908638721684e7 5.220476403551285e6 0.0
0.0 0.0 0.0

9.004995742047742e6 1.6699709993650237e7 0.0
1.6699709993650237e7 9.138040785449449e6 0.0
0.0 0.0 0.0

-1.1402160830955163e7 2.5535916402113386e6 0.0
2.5535916402113386e6 2.548047217196582e7 0.0
0.0 0.0 0.0

-2.7421468833871814e6 1.1534369205823041e7 0.0
1.1534369205823041e7 -2.2791230759985363e6 0.0
0.0 0.0 0.0

-3.012188675801175e6 1.8096039271470655e7 0.0
1.8096039271470655e7 -1.1472779744719235e7 0.0
0.0 0.0 0.0

-2.803455259339082e6 1.5167172386320611e7 0.0
1.5167172386320611e7 -2.2150360748295516e7 0.0
0.0 0.0 0.0

-1.1343679219581818e6 2.608013092308798e7 0.0
2.608013092308798e7 -1.0379743674599197e6 0.0
0.0 0.0 0.0

2.091611193482369e6 2.5297126997378338e7 0.0
2.5297126997378338e7 -4.410278612905102e6 0.0
0.0 0.0 0.0

1.826237061569862e6 3.281420334333696e7 0.0
3.281420334333696e7 -3.285309800353814e6 0.0
0.0 0.0 0.0

-1.2374677927593784e7 3.2402552366645496e7 0.0
3.2402552366645496e7 6.530668160875651e6 0.0
0.0 0.0 0.0

5.454490081509674e6 1.7243303586360496e7 0.0
1.7243303586360496e7 2.1043007987463824e7 0.0
0.0 0.0 0.0

-5.497097018104885e6 1.579338736686421e7 0.0
1.579338736686421e7 -6.0187250938289404e7 0.0
0.0 0.0 0.0

-1.0311750091295402e7 -2.1112941531173484e6 0.0
-2.1112941531173484e6 1.7400019240032516e7 0.0
0.0 0.0 0.0

-7.243163809349436e6 1.4678859063750356e7 0.0
1.4678859063750356e7 -2.5725610701424755e7 0.0
0.0 0.0 0.0

-3.2345554090304784e6 1.3706684096202202e7 0.0
1.3706684096202202e7 -1.170304079117337e7 0.0
0.0 0.0 0.0

4.0838104877081267e6 1.7644035922061283e7 0.0
1.7644035922061283e7 2.0602819580774188e7 0.0
0.0 0.0 0.0

-6.75191824820756e6 1.6116386382372376e7 0.0
1.6116386382372376e7 -3.0843292192657385e7 0.0
0.0 0.0 0.0

-5.157399078733253e6 1.478689545952533e7 0.0
1.478689545952533e7 -2.1963085667007577e7 0.0
0.0 0.0 0.0

1.3166550362525435e7 2.061697088931233e7 0.0
2.061697088931233e7 8.251998158985978e6 0.0
0.0 0.0 0.0

-4.488998155101655e6 1.8610863382638387e7 0.0
1.8610863382638387e7 -1.0409915447817478e7 0.0
0.0 0.0 0.0

3.1571020771655235e6 8.622338047016991e6 0.0
8.622338047016991e6 -2.6615382379699387e7 0.0
0.0 0.0 0.0

815423.0343189536 1.6076478802588006e7 0.0
1.6076478802588006e7 2.7918216898090057e6 0.0
0.0 0.0 0.0

-7.52731593356422e6 2.1874468290792413e7 0.0
2.1874468290792413e7 -8.788182651964908e6 0.0
0.0 0.0 0.0

2.895257596313899e6 1.6106919131902771e7 0.0
1.6106919131902771e7 1.3025122672173256e7 0.0
0.0 0.0 0.0

3.498456031682289e6 4.194543843708814e6 0.0
4.194543843708814e6 -1.347198189943533e7 0.0
0.0 0.0 0.0

-2.8341331702553728e6 2.3359936477197375e7 0.0
2.3359936477197375e7 565229.2507259828 0.0
0.0 0.0 0.0

-3.6303736540853153e6 2.6379384358968783e7 0.0
2.6379384358968783e7 2.6614935733409226e6 0.0
0.0 0.0 0.0

-1.0356440908373388e7 1.408025167855131e7 0.0
1.408025167855131e7 2.6458174106453404e7 0.0
0.0 0.0 0.0

1.1580990652976057e6 1.6866918845680535e7 0.0
1.6866918845680535e7 7.37147304867656e6 0.0
0.0 0.0 0.0

2.6972280274718706e6 1.910599287755778e7 0.0
1.910599287755778e7 1.345160182563947e7 0.0
0.0 0.0 0.0

-3.5657565142255155e6 2.9296924478819188e7 0.0
2.9296924478819188e7 3.1119315100042103e6 0.0
0.0 0.0 0.0

-5.400898774763204e6 1.8333722769964524e7 0.0
1.8333722769964524e7 1.441518048213971e7 0.0
0.0 0.0 0.0

-1.0123634652589858e7 -3.5617516129972166e6 0.0
-3.5617516129972166e6 2.066837125367304e7 0.0
0.0 0.0 0.0

-3.28296896179907e6 2.6328578539071225e7 0.0
2.6328578539071225e7 3.8169910439099e6 0.0
0.0 0.0 0.0

-1.6577867726391247e6 2.2623481512629643e7 0.0
2.2623481512629643e7 -2.150165336168981e6 0.0
0.0 0.0 0.0

-3.986685965049099e6 1.8282737553706616e7 0.0
1.8282737553706616e7 2.261588833958933e6 0.0
0.0 0.0 0.0

-674463.4118523485 2.6328815409971155e7 0.0
2.6328815409971155e7 -1.4764189303139497e6 0.0
0.0 0.0 0.0

-691765.7711806768 2.588314364359346e7 0.0
2.588314364359346e7 -1.1816114283435335e6 0.0
0.0 0.0 0.0

-1.6267129442015334e6 1.734384013262839e7 0.0
1.734384013262839e7 -8.503411710308272e6 0.0
0.0 0.0 0.0

2.8535642204529173e6 1.7253318194564074e7 0.0
1.7253318194564074e7 9.51188138687332e6 0.0
0.0 0.0 0.0

2.8077543486232758e6 8.53318396014213e6 0.0
8.53318396014213e6 -2.5100579685701866e7 0.0
0.0 0.0 0.0

-9.404331803778341e6 1.5724719210619261e7 0.0
1.5724719210619261e7 -3.645982477813871e7 0.0
0.0 0.0 0.0

-3.56636126754617e6 1.9624226579958726e7 0.0
1.9624226579958726e7 2.9190425186375473e6 0.0
0.0 0.0 0.0

-2.8422710403150696e7 2.9177137676681776e7 0.0
2.9177137676681776e7 -8.68742585436011e6 0.0
0.0 0.0 0.0

-5.65858555648289e6 1.5560209209745454e7 0.0
1.5560209209745454e7 -2.0993573493589506e7 0.0
0.0 0.0 0.0

-3.204695443592463e7 2.845681931068689e7 0.0
2.845681931068689e7 -3.39927869513378e6 0.0
0.0 0.0 0.0

-4.056736589014278e6 2.0285879950930458e7 0.0
2.0285879950930458e7 1.0420966490657782e7 0.0
0.0 0.0 0.0

-9.195993335453995e6 -1.2952090193640317e6 0.0
-1.2952090193640317e6 3.8150030765243605e7 0.0
0.0 0.0 0.0

953822.4178719693 2.4736990980561744e7 0.0
2.4736990980561744e7 -4.0846248980436106e6 0.0
0.0 0.0 0.0

-1.1658731502779648e7 2.3178403906395674e7 0.0
2.3178403906395674e7 -7.969374508737009e6 0.0
0.0 0.0 0.0

190180.3944348162 1.7683366334504407e7 0.0
1.7683366334504407e7 -1.3758790957945231e7 0.0
0.0 0.0 0.0

-9.904886022788133e6 2.743295143803017e7 0.0
2.743295143803017e7 6.008745494507546e6 0.0
0.0 0.0 0.0

-1.1803213494180746e7 5.403610798447989e6 0.0
5.403610798447989e6 2.0487110144232724e7 0.0
0.0 0.0 0.0

2.3388797519810945e6 9.369510809682904e6 0.0
9.369510809682904e6 -3.108087886540761e7 0.0
0.0 0.0 0.0

-1.3082460772225246e7 2.7201637801729765e7 0.0
2.7201637801729765e7 6.049211344829287e6 0.0
0.0 0.0 0.0

850563.5718949183 1.6701512643957574e7 0.0
1.6701512643957574e7 4.434080049188879e6 0.0
0.0 0.0 0.0

-1.2133220691584717e7 7.228752455453062e6 0.0
7.228752455453062e6 1.6060531181388894e7 0.0
0.0 0.0 0.0

-751065.252882387 1.6382724040914578e7 0.0
1.6382724040914578e7 -1.0157340908757977e7 0.0
0.0 0.0 0.0

906283.9026775307 2.357786639442127e7 0.0
2.357786639442127e7 -4.874601384271935e6 0.0
0.0 0.0 0.0

-2.3661229199118655e7 1.026653139383301e7 0.0
1.026653139383301e7 9.246173579853803e6 0.0
0.0 0.0 0.0

-5.525989385607738e6 2.5294910739877567e7 0.0
2.5294910739877567e7 6.2287621342649255e6 0.0
0.0 0.0 0.0

-54222.139674552716 1.690981206101987e7 0.0
1.690981206101987e7 -1.592457406509858e7 0.0
0.0 0.0 0.0

2.791766190350543e6 8.758331040706735e6 0.0
8.758331040706735e6 -2.235358361070222e7 0.0
0.0 0.0 0.0

441317.4493038864 4.757355447537854e6 0.0
4.757355447537854e6 -4.514115239095944e6 0.0
0.0 0.0 0.0

1.0440804142610673e6 1.5332363041366512e7 0.0
1.5332363041366512e7 -1.7383764129603434e7 0.0
0.0 0.0 0.0

-1.721521036494989e7 2.3188185708017983e7 0.0
2.3188185708017983e7 -2.9924916989307245e6 0.0
0.0 0.0 0.0

3.806092944790314e6 3.253027907580136e7 0.0
3.253027907580136e7 -2.6214716348818503e6 0.0
0.0 0.0 0.0

-660301.6204236913 1.7408371580175024e7 0.0
1.7408371580175024e7 2.4762550030298956e7 0.0
0.0 0.0 0.0

1.855739297661563e6 1.7300149628403943e7 0.0
1.7300149628403943e7 8.987205229035994e6 0.0
0.0 0.0 0.0

5.661301416818972e6 1.5550065698403707e7 0.0
1.5550065698403707e7 2.0284424686202347e7 0.0
0.0 0.0 0.0

-3.2916139727767813e6 1.7114710697029434e7 0.0
1.7114710697029434e7 -1.0972046798810864e7 0.0
0.0 0.0 0.0

-1.0453710625153761e7 1.3663578946209645e7 0.0
1.3663578946209645e7 2.701426687629648e7 0.0
0.0 0.0 0.0

-2.1658794995308574e6 1.5445723752651129e7 0.0
1.5445723752651129e7 -1.1861526534130959e7 0.0
0.0 0.0 0.0

-2.3352374564724445e7 2.985573311343291e7 0.0
2.985573311343291e7 8.670797490227852e6 0.0
0.0 0.0 0.0

-1.075279222788839e7 2.712135495820827e6 0.0
2.712135495820827e6 3.0753370654261336e7 0.0
0.0 0.0 0.0

-9.224972711628111e6 -1.2645426420138746e6 0.0
-1.2645426420138746e6 3.8778595442649245e7 0.0
0.0 0.0 0.0

921184.7072930308 1.2090515187117716e7 0.0
1.2090515187117716e7 -1.3690850159954533e7 0.0
0.0 0.0 0.0

-259689.19462368148 2.5034144447547356e6 0.0
2.5034144447547356e6 302387.95851006435 0.0
0.0 0.0 0.0

1.549701366734406e6 9.14804409820406e6 0.0
9.14804409820406e6 -3.868752255491327e7 0.0
0.0 0.0 0.0

-1.0084719075466355e7 1.1076814357153514e7 0.0
1.1076814357153514e7 3.2508148757166725e7 0.0
0.0 0.0 0.0

1.126750542130638e6 1.129093286650757e7 0.0
1.129093286650757e7 -3.036951062390272e7 0.0
0.0 0.0 0.0

-1.0013462770344837e7 -1.4494377944436476e6 0.0
-1.4494377944436476e6 2.516966895855078e7 0.0
0.0 0.0 0.0

-3.3918152723059487e6 2.4236604881024603e7 0.0
2.4236604881024603e7 2.947582647060317e6 0.0
0.0 0.0 0.0

1.4731992027577015e6 2.397279848879262e7 0.0
2.397279848879262e7 -4.789388414463574e6 0.0
0.0 0.0 0.0

-3.5375302441123114e6 2.7614122783217143e7 0.0
2.7614122783217143e7 2.1423977940508034e6 0.0
0.0 0.0 0.0

1.5917029596467437e6 3.176239449233031e7 0.0
3.176239449233031e7 -1.836193872882603e6 0.0
0.0 0.0 0.0

35989.98546800017 2.891661998416319e7 0.0
2.891661998416319e7 -1.66151343234227e6 0.0
0.0 0.0 0.0

-1.026749287261992e7 -425201.0917084005 0.0
-425201.0917084005 3.1496024515466604e7 0.0
0.0 0.0 0.0

3.4468741521043424e6 4.882668071498085e6 0.0
4.882668071498085e6 -3.372542846704176e7 0.0
0.0 0.0 0.0

358857.9101891103 1.8172551043786615e7 0.0
1.8172551043786615e7 -1.0417675620710261e7 0.0
0.0 0.0 0.0

-514272.2220037703 1.9603393036401615e7 0.0
1.9603393036401615e7 -8.0568405527424e6 0.0
0.0 0.0 0.0

2.4009713149820166e6 1.1014890988195779e7 0.0
1.1014890988195779e7 -1.8699232792481545e7 0.0
0.0 0.0 0.0

-4.945149655598029e6 1.3981631390656712e7 0.0
1.3981631390656712e7 -1.7169852798030537e7 0.0
0.0 0.0 0.0

1.1018855699348412e6 1.5255421386162417e7 0.0
1.5255421386162417e7 3.6729519498966527e6 0.0
0.0 0.0 0.0

-4.028681116602612e6 2.170260142207438e7 0.0
2.170260142207438e7 7.713922226667547e6 0.0
0.0 0.0 0.0

-8.087113729021024e6 2.5963496177575495e7 0.0
2.5963496177575495e7 5.807777337320104e6 0.0
0.0 0.0 0.0

-1.7941036181320087e6 1.5300040225280508e7 0.0
1.5300040225280508e7 -6.506742248205372e6 0.0
0.0 0.0 0.0

-1.2104726738601606e6 1.1681899556186914e7 0.0
1.1681899556186914e7 -2.686366287738949e6 0.0
0.0 0.0 0.0

4.07821599183047e6 3.60718075324139e6 0.0
3.60718075324139e6 -2.7231295169527695e7 0.0
0.0 0.0 0.0

1.635205424866988e6 1.784121023497669e7 0.0
1.784121023497669e7 -5.837711116137978e6 0.0
0.0 0.0 0.0

2.6763212178387446e6 9.090728245153408e6 0.0
9.090728245153408e6 -2.3933539315978523e7 0.0
0.0 0.0 0.0

-2.635918030746862e6 7.544785205792567e6 0.0
7.544785205792567e6 -745020.8851540191 0.0
0.0 0.0 0.0

-1.3583620070177983e6 1.0576691604984274e7 0.0
1.0576691604984274e7 -4.897422012438355e6 0.0
0.0 0.0 0.0

-1.396181269302874e6 3.4919849701035735e6 0.0
3.4919849701035735e6 -667240.4776438773 0.0
0.0 0.0 0.0

-2.8688853788302112e6 2.226914909800088e7 0.0
2.226914909800088e7 3.1244577536062934e6 0.0
0.0 0.0 0.0

225181.44773486722 1.580738851621647e7 0.0
1.580738851621647e7 -1.8504008172551583e7 0.0
0.0 0.0 0.0

909653.9859314859 8.887144271187702e6 0.0
8.887144271187702e6 -4.456845663230132e7 0.0
0.0 0.0 0.0

-5.355777492132065e6 2.0018442847727273e7 0.0
2.0018442847727273e7 -5.068397739769753e6 0.0
0.0 0.0 0.0

-2.0264639108719956e7 2.645700074310192e7 0.0
2.645700074310192e7 -8.958142164473262e6 0.0
0.0 0.0 0.0

-1.7016295510893077e7 2.650248950396937e7 0.0
2.650248950396937e7 5.757758525043519e6 0.0
0.0 0.0 0.0

-7.912906070443131e6 2.2333558496290997e7 0.0
2.2333558496290997e7 -8.472841721724397e6 0.0
0.0 0.0 0.0

-2.9987933704563947e6 1.4546590530709181e7 0.0
1.4546590530709181e7 -2.949655730365131e7 0.0
0.0 0.0 0.0

-6.499984160291341e6 1.5130252231006054e7 0.0
1.5130252231006054e7 -2.1666614684685722e7 0.0
0.0 0.0 0.0

-1.532310930011347e7 2.441455547714129e7 0.0
2.441455547714129e7 -8.057708941049328e6 0.0
0.0 0.0 0.0

-9.243418610012786e6 1.6060336566314157e7 0.0
1.6060336566314157e7 -3.08113965063845e7 0.0
0.0 0.0 0.0

-8.3709532069678195e6 1.7495361230851036e7 0.0
1.7495361230851036e7 1.9247654442917556e7 0.0
0.0 0.0 0.0

-1.0448714831070382e7 -1.1569115267942362e6 0.0
-1.1569115267942362e6 1.633053469723764e7 0.0
0.0 0.0 0.0

-1.6421861001025636e6 2.230145791629557e7 0.0
2.230145791629557e7 -3.512433623720622e6 0.0
0.0 0.0 0.0

-5.06470042044498e6 1.9532128789283045e7 0.0
1.9532128789283045e7 1.1981023809046322e7 0.0
0.0 0.0 0.0

-1.0589137362879721e7 -2.3166083546984177e6 0.0
-2.3166083546984177e6 2.135829342469635e7 0.0
0.0 0.0 0.0

1.3980580744560687e6 1.3027896781816998e7 0.0
1.3027896781816998e7 -2.3089552407470565e7 0.0
0.0 0.0 0.0

-2.737411024434325e6 2.2929819248876393e7 0.0
2.2929819248876393e7 -315882.18952642195 0.0
0.0 0.0 0.0

322101.36544832494 1.5858880357344452e7 0.0
1.5858880357344452e7 -1.5014681285328537e6 0.0
0.0 0.0 0.0

-4.197233439600538e6 2.3943510207525294e7 0.0
2.3943510207525294e7 5.571984358007587e6 0.0
0.0 0.0 0.0

-1.409511549933257e7 2.4767417325050108e7 0.0
2.4767417325050108e7 -8.841721556580266e6 0.0
0.0 0.0 0.0

-7.31459664549932e6 1.5441982148327481e7 0.0
1.5441982148327481e7 -2.4381989395732734e7 0.0
0.0 0.0 0.0

2.781216173233898e6 1.9082827656434987e7 0.0
1.9082827656434987e7 1.4438547887483107e7 0.0
0.0 0.0 0.0

-2.504872404816346e7 2.6708357906212166e7 0.0
2.6708357906212166e7 5.3134143137762025e6 0.0
0.0 0.0 0.0

-1.0088416974711165e7 7.480426904736868e6 0.0
7.480426904736868e6 1.6867660796469748e7 0.0
0.0 0.0 0.0

-9.39780640480569e6 8.7667215316558e6 0.0
8.7667215316558e6 4.092700975721538e7 0.0
0.0 0.0 0.0

-1.6116474667637227e6 1.7480180257515784e7 0.0
1.7480180257515784e7 -8.354898232923125e6 0.0
0.0 0.0 0.0

1.2187765376117267e6 2.86951178356338e7 0.0
2.86951178356338e7 -2.594732867850077e6 0.0
0.0 0.0 0.0

5.708777966538389e6 1.6216431465470709e7 0.0
1.6216431465470709e7 1.902926012848689e7 0.0
0.0 0.0 0.0

1.8400141865555305e7 1.7898267891755052e7 0.0
1.7898267891755052e7 4.1730080089972434e6 0.0
0.0 0.0 0.0

-1.0764471475847596e7 2.342070341966729e7 0.0
2.342070341966729e7 -8.709583892188618e6 0.0
0.0 0.0 0.0

2.321976655737141e6 2.674784178198492e7 0.0
2.674784178198492e7 -3.9606422083427166e6 0.0
0.0 0.0 0.0

7.831445790281593e6 1.6039649343647905e7 0.0
1.6039649343647905e7 3.0416335203074366e7 0.0
0.0 0.0 0.0

2.8596363348529916e6 6.507389152472079e6 0.0
6.507389152472079e6 -4.292657202732432e7 0.0
0.0 0.0 0.0

-5.352643130915359e6 2.45868113068398e7 0.0
2.45868113068398e7 6.774216506143818e6 0.0
0.0 0.0 0.0

478060.4949954896 1.4709078035728222e7 0.0
1.4709078035728222e7 -110346.10846908434 0.0
0.0 0.0 0.0

-1.0414758800461495e7 1.6694701810762353e7 0.0
1.6694701810762353e7 -3.4715864285722174e7 0.0
0.0 0.0 0.0

-4.445247140501796e6 2.0131204278354134e7 0.0
2.0131204278354134e7 -1.892083453650727e6 0.0
0.0 0.0 0.0

3.856179348397972e6 3.245849080354447e6 0.0
3.245849080354447e6 -3.689113327815154e7 0.0
0.0 0.0 0.0

-1.1503845038190603e6 1.8603383513300758e7 0.0
1.8603383513300758e7 -8.351952246197226e6 0.0
0.0 0.0 0.0

2.0007582682706239e6 2.030977539932675e7 0.0
2.030977539932675e7 -7.273032552755525e6 0.0
0.0 0.0 0.0

1.731819991707664e7 2.0110532852397352e7 0.0
2.0110532852397352e7 -1.7693453161001615e6 0.0
0.0 0.0 0.0

-9.845581304500736e6 1.6150082780871931e7 0.0
1.6150082780871931e7 1.9618778404093582e7 0.0
0.0 0.0 0.0

-2.160851885095519e6 1.4737761589705605e7 0.0
1.4737761589705605e7 -3.5928637169736046e6 0.0
0.0 0.0 0.0

-6.360934188476257e6 2.1187380487879682e7 0.0
2.1187380487879682e7 -8.41122998191292e6 0.0
0.0 0.0 0.0

-1.9547469959854253e6 2.248298456150973e7 0.0
2.248298456150973e7 -3.0286023405847335e6 0.0
0.0 0.0 0.0

-9.302233164399808e6 1.2903844691146095e6 0.0
1.2903844691146095e6 4.117856884691817e7 0.0
0.0 0.0 0.0

-1.567045701618365e6 1.586026467644621e7 0.0
1.586026467644621e7 -7.660404347076664e6 0.0
0.0 0.0 0.0

-9.347153571446296e6 2.635469333116031e7 0.0
2.635469333116031e7 6.0717206047368245e6 0.0
0.0 0.0 0.0

1.5833548664219328e6 8.141058454878595e6 0.0
8.141058454878595e6 -1.1496590145624524e7 0.0
0.0 0.0 0.0

6.819900126752065e6 1.878687209382933e7 0.0
1.878687209382933e7 1.1729907867002364e7 0.0
0.0 0.0 0.0

-3.788556375690087e7 2.7436801141397286e7 0.0
2.7436801141397286e7 6.2040484895762205e6 0.0
0.0 0.0 0.0

1.9112773579396356e6 1.462318923325787e7 0.0
1.462318923325787e7 7.04317157238407e6 0.0
0.0 0.0 0.0

3.54825271230344e6 6.77789596557398e6 0.0
6.77789596557398e6 -1.4780694106611976e7 0.0
0.0 0.0 0.0

1.8993866017769743e6 1.852326134660824e7 0.0
1.852326134660824e7 1.6814036710048523e7 0.0
0.0 0.0 0.0

5903.578159466153 2.194464612132168e7 0.0
2.194464612132168e7 -6.267150903679862e6 0.0
0.0 0.0 0.0

1.4413943460557349e7 2.6779879230213888e7 0.0
2.6779879230213888e7 -6.465263571913196e6 0.0
0.0 0.0 0.0

-3.096756185778864e6 1.4477072119716484e7 0.0
1.4477072119716484e7 -1.0322521036224164e7 0.0
0.0 0.0 0.0

-4.311666886483472e6 1.5365135576875003e7 0.0
1.5365135576875003e7 6.874126368264569e6 0.0
0.0 0.0 0.0

985579.1440885635 8.211711221580716e6 0.0
8.211711221580716e6 -9.864293076313518e6 0.0
0.0 0.0 0.0

-3.459617764863862e6 1.6119769763253767e7 0.0
1.6119769763253767e7 -2.0954891300813522e7 0.0
0.0 0.0 0.0

-436342.58975562593 1.8855883887740955e7 0.0
1.8855883887740955e7 -8.721252879964035e6 0.0
0.0 0.0 0.0

1.1932930382495541e7 2.101776412756782e7 0.0
2.101776412756782e7 1.0209048068694644e7 0.0
0.0 0.0 0.0

-5.678744448149336e6 2.0644712207514398e7 0.0
2.0644712207514398e7 -8.452479261288034e6 0.0
0.0 0.0 0.0

1.672977036765392e6 2.0213611743511777e7 0.0
2.0213611743511777e7 -6.902385713404512e6 0.0
0.0 0.0 0.0

-7.784415166621723e6 2.734229480684618e6 0.0
2.734229480684618e6 1.143951853036486e7 0.0
0.0 0.0 0.0

-1.2047696255314397e6 6.314646110037319e6 0.0
6.314646110037319e6 2.0652624349179033e6 0.0
0.0 0.0 0.0

6.997853919813013e6 1.974710165131882e7 0.0
1.974710165131882e7 -2.688986586860524e6 0.0
0.0 0.0 0.0

1.501845099825965e6 1.5378360618517872e7 0.0
1.5378360618517872e7 6.126815275951229e6 0.0
0.0 0.0 0.0

4.2087295720843054e7 1.8196115120669376e7 0.0
1.8196115120669376e7 9.038348199049106e6 0.0
0.0 0.0 0.0

-1.0608424511983942e7 -2.0609446199869744e6 0.0
-2.0609446199869744e6 2.4125281307304025e7 0.0
0.0 0.0 0.0

-1.3442809660818063e7 2.3144516017899133e7 0.0
2.3144516017899133e7 -6.175346820054254e6 0.0
0.0 0.0 0.0

-1.2432562692803523e7 2.2181463625106044e7 0.0
2.2181463625106044e7 -2.436739101724283e6 0.0
0.0 0.0 0.0

-2.668618805531621e7 2.4312092777369343e7 0.0
2.4312092777369343e7 -8.0441319509801995e6 0.0
0.0 0.0 0.0

2.923056625256131e7 5.702034533639827e6 0.0
5.702034533639827e6 -2.510076289109107e6 0.0
0.0 0.0 0.0

-8.057514983324528e6 7.736888644141886e6 0.0
7.736888644141886e6 4.805435183610379e7 0.0
0.0 0.0 0.0

-1.4392097008278281e6 1.1055480214634014e7 0.0
1.1055480214634014e7 -1.5303789336659396e6 0.0
0.0 0.0 0.0

-1.2552260811268114e7 2.2686397179535832e7 0.0
2.2686397179535832e7 -8.323313406270718e6 0.0
0.0 0.0 0.0

-4.119886930776644e6 2.4140739838636752e7 0.0
2.4140739838636752e7 6.620310543802215e6 0.0
0.0 0.0 0.0

-831108.1495035812 1.8512032182538994e7 0.0
1.8512032182538994e7 -9.838091797957208e6 0.0
0.0 0.0 0.0

1.2382950843864186e6 1.2775639897497028e7 0.0
1.2775639897497028e7 -1.4572200255945668e7 0.0
0.0 0.0 0.0

-43575.712959734956 1.5743015521846982e7 0.0
1.5743015521846982e7 -5.184570468632071e6 0.0
0.0 0.0 0.0

-6.020914617776874e6 1.433787625129161e7 0.0
1.433787625129161e7 -2.276915176504918e7 0.0
0.0 0.0 0.0

-7.499245164237975e6 1.6785810035306346e7 0.0
1.6785810035306346e7 -5.041757757695371e7 0.0
0.0 0.0 0.0

1.0028818112501957e7 5.637974559372881e6 0.0
5.637974559372881e6 -2.1525093598499205e6 0.0
0.0 0.0 0.0

5.752243830608149e6 2.7363023901405893e7 0.0
2.7363023901405893e7 -5.010992304480799e6 0.0
0.0 0.0 0.0

-4.853162450542101e6 1.4814139814474484e7 0.0
1.4814139814474484e7 -1.6177208963243451e7 0.0
0.0 0.0 0.0

1.390235543953003e7 1.567480424092657e7 0.0
1.567480424092657e7 3.996708415435272e6 0.0
0.0 0.0 0.0

-227614.08140169596 1.6236388324387804e7 0.0
1.6236388324387804e7 -6.653500446927368e6 0.0
0.0 0.0 0.0

-1.5109333010854144e6 2.1956288771352507e7 0.0
2.1956288771352507e7 -3.2851750050600343e6 0.0
0.0 0.0 0.0

-3.355557732894359e6 1.5701942585051853e7 0.0
1.5701942585051853e7 -1.4015547211832248e7 0.0
0.0 0.0 0.0

-1.7695757605729222e7 1.7118645895320393e7 0.0
1.7118645895320393e7 5.889359918433294e6 0.0
0.0 0.0 0.0

-7.092519238953536e6 -3.288789933169419e6 0.0
-3.288789933169419e6 1.0109091857293462e7 0.0
0.0 0.0 0.0

-7.892338641258984e6 1.6950326566197246e7 0.0
1.6950326566197246e7 1.896289268457795e7 0.0
0.0 0.0 0.0

-589374.1239015476 1.5194104085350564e7 0.0
1.5194104085350564e7 1.8550607432104475e6 0.0
0.0 0.0 0.0

-5.159060609987997e6 1.6653923545555755e7 0.0
1.6653923545555755e7 -1.3758142422291493e7 0.0
0.0 0.0 0.0

-824351.2647410792 1.680133634255535e7 0.0
1.680133634255535e7 -7.080488162555063e6 0.0
0.0 0.0 0.0

-2.416908343963134e6 1.2120953619410012e7 0.0
1.2120953619410012e7 -3.368484009683882e6 0.0
0.0 0.0 0.0

2.0208024439073857e7 1.9944793300165914e7 0.0
1.9944793300165914e7 -2.143304829754304e6 0.0
0.0 0.0 0.0

-9.112264710779618e6 2.8694026154472332e7 0.0
2.8694026154472332e7 6.061399841853661e6 0.0
0.0 0.0 0.0

3.8476612266005734e6 2.100861632812593e7 0.0
2.100861632812593e7 -5.468921592185722e6 0.0
0.0 0.0 0.0

-3.444999920869826e6 1.9148760730459392e7 0.0
1.9148760730459392e7 -3.134611678020593e6 0.0
0.0 0.0 0.0

-2.7133193401335473e6 2.795195286707399e7 0.0
2.795195286707399e7 2.6721209422027953e6 0.0
0.0 0.0 0.0

-7.150871951344734e6 1.8034983396347098e7 0.0
1.8034983396347098e7 1.6344852776125291e7 0.0
0.0 0.0 0.0

1.4137145059792777e6 7.542343530355943e6 0.0
7.542343530355943e6 -7.816416860104629e6 0.0
0.0 0.0 0.0

-1.0753519638994287e6 6.9827835198771125e6 0.0
6.9827835198771125e6 132760.86826165864 0.0
0.0 0.0 0.0

-8.334478036463391e6 1.5238511993422586e7 0.0
1.5238511993422586e7 -3.248810630108185e7 0.0
0.0 0.0 0.0

-3.1247977119929893e6 1.8997262383332856e7 0.0
1.8997262383332856e7 5.035607725958583e6 0.0
0.0 0.0 0.0

1.780421259275259e6 5.219678087071085e6 0.0
5.219678087071085e6 -8.054403844217581e6 0.0
0.0 0.0 0.0

-4.534821871110224e7 2.829524645319482e7 0.0
2.829524645319482e7 -1.0970893110685218e6 0.0
0.0 0.0 0.0

642674.7063616179 8.387691601491761e6 0.0
8.387691601491761e6 -5.15941407196067e7 0.0
0.0 0.0 0.0

-1.0827606985605052e6 9.463327299554065e6 0.0
9.463327299554065e6 -4.969421710263098e6 0.0
0.0 0.0 0.0

-7.316139666584986e6 1.5732095474055149e7 0.0
1.5732095474055149e7 -3.491778871876967e7 0.0
0.0 0.0 0.0

3.7127582356151305e6 4.599978527650064e6 0.0
4.599978527650064e6 -3.2905292302181456e7 0.0
0.0 0.0 0.0

1.8038708655931678e7 2.9734290952691436e7 0.0
2.9734290952691436e7 -9.059713968949242e6 0.0
0.0 0.0 0.0

3.1795322323544743e6 9.304590787519775e6 0.0
9.304590787519775e6 -2.242225123746456e7 0.0
0.0 0.0 0.0

-8.239062771749463e6 1.198844368455481e7 0.0
1.198844368455481e7 3.7328621334430195e7 0.0
0.0 0.0 0.0

-9.580876226851884e6 1.647627298814632e7 0.0
1.647627298814632e7 1.9974012971020114e7 0.0
0.0 0.0 0.0

-4.141733391451807e6 2.09908499653312e7 0.0
2.09908499653312e7 9.980572949248413e6 0.0
0.0 0.0 0.0

-7.655549074330236e6 2.0176946651851147e7 0.0
2.0176946651851147e7 -6.198624408537315e6 0.0
0.0 0.0 0.0

-8.443838547296062e6 1.7084607347963598e7 0.0
1.7084607347963598e7 2.0651493829668514e7 0.0
0.0 0.0 0.0

-3.25110605152649e6 2.222245820490607e7 0.0
2.222245820490607e7 1.8017845313720843e6 0.0
0.0 0.0 0.0

8.553746577039165e6 1.719062002779139e7 0.0
1.719062002779139e7 2.851248971274644e7 0.0
0.0 0.0 0.0

-9.394599963888366e6 -1.1726295485973526e6 0.0
-1.1726295485973526e6 1.3660171163836394e7 0.0
0.0 0.0 0.0

349926.0908537372 1.814680592962512e7 0.0
1.814680592962512e7 -1.2310913897764739e7 0.0
0.0 0.0 0.0

-1.9089853516403437e6 1.169003802929628e7 0.0
1.169003802929628e7 -5.782291726599713e7 0.0
0.0 0.0 0.0

-7.905804069440441e6 2.9987047765577964e7 0.0
2.9987047765577964e7 5.837281511669138e6 0.0
0.0 0.0 0.0

1.2254574865293382e6 2.3266697024337538e7 0.0
2.3266697024337538e7 -5.648346831342088e6 0.0
0.0 0.0 0.0

2.1031034252506164e6 1.831693466303593e7 0.0
1.831693466303593e7 1.7693875799460034e6 0.0
0.0 0.0 0.0

-9.411520930272207e6 1.6365187024291642e7 0.0
1.6365187024291642e7 2.1212889474801697e7 0.0
0.0 0.0 0.0

-1.823743809269833e7 3.033659644865282e7 0.0
3.033659644865282e7 7.153702797876783e6 0.0
0.0 0.0 0.0

275415.56287019374 2.018882186870161e7 0.0
2.018882186870161e7 -8.944406369447535e6 0.0
0.0 0.0 0.0

-3.2908877488432005e6 1.5008030614914514e7 0.0
1.5008030614914514e7 -2.654136890707855e7 0.0
0.0 0.0 0.0

-1.3715901884529065e7 3.1903285945792478e7 0.0
3.1903285945792478e7 5.758557113004593e6 0.0
0.0 0.0 0.0

2.6233709795483783e7 2.7225090436688032e7 0.0
2.7225090436688032e7 -1.0658251271324148e7 0.0
0.0 0.0 0.0

1.479204612347997e6 1.7433811271706596e7 0.0
1.7433811271706596e7 2.999406419231921e6 0.0
0.0 0.0 0.0

2.308932748329269e6 1.0893945262411147e7 0.0
1.0893945262411147e7 -2.014905722738195e7 0.0
0.0 0.0 0.0

-9.514474123357907e6 1.7267722463537376e7 0.0
1.7267722463537376e7 -3.816615753014457e7 0.0
0.0 0.0 0.0

1.1114614038906507e7 2.703614480416897e7 0.0
2.703614480416897e7 -5.996655242316076e6 0.0
0.0 0.0 0.0

-304790.3353672521 1.6731059029627696e7 0.0
1.6731059029627696e7 -1.2695705253968105e7 0.0
0.0 0.0 0.0

-775808.5769897865 2.532236278328915e7 0.0
2.532236278328915e7 -2.497673156044137e6 0.0
0.0 0.0 0.0

-754737.5615183525 1.0849533765580028e7 0.0
1.0849533765580028e7 -4.842050665433794e7 0.0
0.0 0.0 0.0

637933.3271958104 1.7126211678418037e7 0.0
1.7126211678418037e7 6.39639397989017e6 0.0
0.0 0.0 0.0

-2.1855329462036423e7 2.784628852931066e7 0.0
2.784628852931066e7 7.170604023552062e6 0.0
0.0 0.0 0.0

-2.709395991096329e6 2.2617611990201186e7 0.0
2.2617611990201186e7 2.3748260081519675e6 0.0
0.0 0.0 0.0

1.8165804257022835e7 1.8057171960169338e7 0.0
1.8057171960169338e7 5.813257846810314e6 0.0
0.0 0.0 0.0

-3.3500853560008863e6 2.8514851158936918e7 0.0
2.8514851158936918e7 1.7195802213360884e6 0.0
0.0 0.0 0.0

2.0124734750062204e6 1.7011423616401024e7 0.0
1.7011423616401024e7 1.0118934503722973e7 0.0
0.0 0.0 0.0

-462109.37987530115 3.413243128311741e6 0.0
3.413243128311741e6 -1.9125821998793995e6 0.0
0.0 0.0 0.0

6.175237050019682e6 2.87611466993578e7 0.0
2.87611466993578e7 -4.1264296976078083e6 0.0
0.0 0.0 0.0

145401.79248289857 1.6405012896966165e7 0.0
1.6405012896966165e7 -1.7282405854802094e7 0.0
0.0 0.0 0.0

3.567477320303267e6 3.7710469913612255e6 0.0
3.7710469913612255e6 -4.0770219960040376e7 0.0
0.0 0.0 0.0

-37704.591972056776 1.0397087329830863e7 0.0
1.0397087329830863e7 -6.725103588144709e6 0.0
0.0 0.0 0.0

1.8879802552757785e6 6.321069384759661e6 0.0
6.321069384759661e6 -8.194964431307039e6 0.0
0.0 0.0 0.0

1.2377941902992977e6 1.3514855710595725e7 0.0
1.3514855710595725e7 -1.4466768263590837e7 0.0
0.0 0.0 0.0

-1.8870722548253544e7 2.6260247827665746e7 0.0
2.6260247827665746e7 6.113622456524759e6 0.0
0.0 0.0 0.0

-2.323114888328692e6 1.907309910118752e7 0.0
1.907309910118752e7 2.731749792273199e6 0.0
0.0 0.0 0.0

3.040575653261718e6 2.1302742244308002e7 0.0
2.1302742244308002e7 -5.927932581286845e6 0.0
0.0 0.0 0.0

3.8021002277549915e6 5.706399397063719e6 0.0
5.706399397063719e6 -3.2248657436275564e7 0.0
0.0 0.0 0.0

-630959.9131261825 1.8467001646900408e7 0.0
1.8467001646900408e7 -8.45433655889059e6 0.0
0.0 0.0 0.0

-102470.42865484813 1.5717768936471814e7 0.0
1.5717768936471814e7 -1.262100556666967e7 0.0
0.0 0.0 0.0

-9.766411997192064e6 2.181408687350297e7 0.0
2.181408687350297e7 -8.21854355766218e6 0.0
0.0 0.0 0.0

9.867803245730195e6 2.516124938993756e7 0.0
2.516124938993756e7 -5.979412711907299e6 0.0
0.0 0.0 0.0

-4.741404218500461e6 2.2104200157803744e7 0.0
2.2104200157803744e7 9.411958601827797e6 0.0
0.0 0.0 0.0

1.4950157237913099e6 1.779787987223743e7 0.0
1.779787987223743e7 1.0749478367464628e7 0.0
0.0 0.0 0.0

1.617067183805097e6 1.6648533962835735e7 0.0
1.6648533962835735e7 6.268704089144793e7 0.0
0.0 0.0 0.0

-3.8928540128342034e6 3.1428107436709847e7 0.0
3.1428107436709847e7 3.523525644259056e6 0.0
0.0 0.0 0.0

744286.5406908146 1.8424043235750325e7 0.0
1.8424043235750325e7 -8.662048187069116e6 0.0
0.0 0.0 0.0

2.826375516891269e6 9.874038624784054e6 0.0
9.874038624784054e6 -2.5878473987675406e7 0.0
0.0 0.0 0.0

2.9563251480397806e6 9.135176798831109e6 0.0
9.135176798831109e6 -2.7213207877911802e7 0.0
0.0 0.0 0.0

4.593361078235445e6 3.5009200927061155e6 0.0
3.5009200927061155e6 -2.325504247280362e7 0.0
0.0 0.0 0.0

-3.7259098970664903e6 2.1494648916787133e7 0.0
2.1494648916787133e7 9.053825687778637e6 0.0
0.0 0.0 0.0

4.23026810319014e6 3.739473342575004e6 0.0
3.739473342575004e6 -2.3228734862391196e7 0.0
0.0 0.0 0.0

-1.1075627175582878e7 1.3836507942730053e6 0.0
1.3836507942730053e6 2.9507624805934526e7 0.0
0.0 0.0 0.0

-4.562026944359389e6 1.9571754660285395e7 0.0
1.9571754660285395e7 1.43823941649936e7 0.0
0.0 0.0 0.0

-1.7056533558514842e6 9.908450024411945e6 0.0
9.908450024411945e6 -3.7612597375030783e6 0.0
0.0 0.0 0.0

556175.0893952439 2.374111186034597e7 0.0
2.374111186034597e7 -5.144529285820906e6 0.0
0.0 0.0 0.0

3.376387742625381e6 2.6363230283033695e7 0.0
2.6363230283033695e7 -3.585302777701108e6 0.0
0.0 0.0 0.0

991622.9459736254 1.4582025962559989e7 0.0
1.4582025962559989e7 2.424077573738195e6 0.0
0.0 0.0 0.0

-45809.86366330646 1.0922549101425685e7 0.0
1.0922549101425685e7 -4.171719448367304e7 0.0
0.0 0.0 0.0

4.005570756837299e6 4.250804717150001e6 0.0
4.250804717150001e6 -3.525389116421188e7 0.0
0.0 0.0 0.0

-4.099230489969089e7 3.2709571849700093e7 0.0
3.2709571849700093e7 -7.114766651989322e6 0.0
0.0 0.0 0.0

1.790835266830807e7 2.1438270165675648e7 0.0
2.1438270165675648e7 9.072454491370576e6 0.0
0.0 0.0 0.0

2.4485123284218516e6 2.6005971932530336e7 0.0
2.6005971932530336e7 -3.508085746497702e6 0.0
0.0 0.0 0.0

-1.6416057532850094e6 1.775423397530037e7 0.0
1.775423397530037e7 1.5516374179472823e7 0.0
0.0 0.0 0.0

720662.5551645561 1.600062103592413e7 0.0
1.600062103592413e7 2.7923081309496905e6 0.0
0.0 0.0 0.0

-1.098539489838282e7 6.390237567157267e6 0.0
6.390237567157267e6 3.442043494201353e7 0.0
0.0 0.0 0.0

-1.0059674078922207e7 2.7296886872911617e7 0.0
2.7296886872911617e7 5.771973068386155e6 0.0
0.0 0.0 0.0

-949396.4959021327 1.340415832469161e7 0.0
1.340415832469161e7 -8.147252392462837e6 0.0
0.0 0.0 0.0

-1.1277664483402608e7 -123460.9173309216 0.0
-123460.9173309216 2.2907367649795882e7 0.0
0.0 0.0 0.0

-2.3454574684772603e6 1.1458162790493406e7 0.0
1.1458162790493406e7 7.695804640290384e7 0.0
0.0 0.0 0.0

304676.340965447 1.86216045088381e7 0.0
1.86216045088381e7 -1.1520860177348752e7 0.0
0.0 0.0 0.0

2.6494641947030528e6 4.495469874210513e6 0.0
4.495469874210513e6 -8.587542781365255e6 0.0
0.0 0.0 0.0

-8.045881931337766e6 7.696177595566469e6 0.0
7.696177595566469e6 4.999341494296075e7 0.0
0.0 0.0 0.0

4.329363450998047e6 3.5980626622349652e6 0.0
3.5980626622349652e6 -2.9099570960086063e7 0.0
0.0 0.0 0.0

-5.4643659198666625e6 1.9757684292905554e7 0.0
1.9757684292905554e7 -9.35576847917131e6 0.0
0.0 0.0 0.0

-1.6667434083056454e7 2.355736950262952e7 0.0
2.355736950262952e7 -8.341592259665426e6 0.0
0.0 0.0 0.0

-30313.423302765004 1.6975321154545967e7 0.0
1.6975321154545967e7 -1.4671592417149171e7 0.0
0.0 0.0 0.0

-3.6548028847239194e6 1.0365975284609176e7 0.0
1.0365975284609176e7 4.87060201953203e6 0.0
0.0 0.0 0.0

-4.046477332909203e6 1.9896067825751573e7 0.0
1.9896067825751573e7 747740.4296933294 0.0
0.0 0.0 0.0

1.2965521018198188e7 2.4297944175576042e7 0.0
2.4297944175576042e7 -6.078500544027151e6 0.0
0.0 0.0 0.0

-6.472450359582048e6 -4.239889639734909e6 0.0
-4.239889639734909e6 1.3082015297950137e7 0.0
0.0 0.0 0.0

8.044600858088257e6 1.82588225145228e7 0.0
1.82588225145228e7 4.770356126316074e6 0.0
0.0 0.0 0.0

1.171789696373478e7 3.1171797156279597e7 0.0
3.1171797156279597e7 -8.37617611385154e6 0.0
0.0 0.0 0.0

4.465400192014705e6 3.6697305338885384e6 0.0
3.6697305338885384e6 -2.5945191838589605e7 0.0
0.0 0.0 0.0

-4.369878529591655e6 1.6926269599180225e7 0.0
1.6926269599180225e7 3.4075318846548805e6 0.0
0.0 0.0 0.0

8.021916746984053e6 1.849098080414758e7 0.0
1.849098080414758e7 3.303643944718344e7 0.0
0.0 0.0 0.0

4.781157224431742e7 6.4188601772032585e6 0.0
6.4188601772032585e6 -1.4717585427858606e6 0.0
0.0 0.0 0.0

-2.2416715997283816e7 2.5383873647257984e7 0.0
2.5383873647257984e7 -6.851893396151559e6 0.0
0.0 0.0 0.0

-3.413009003134067e6 2.1909195726635996e7 0.0
2.1909195726635996e7 2.621634741636544e6 0.0
0.0 0.0 0.0

302941.64095399156 1.1089138240529284e7 0.0
1.1089138240529284e7 -3.659726376353727e7 0.0
0.0 0.0 0.0

-1.4309030700873544e7 2.591831544962226e7 0.0
2.591831544962226e7 5.860763969899777e6 0.0
0.0 0.0 0.0

6.587835514068701e6 1.8706305837274455e7 0.0
1.8706305837274455e7 6.676212606563473e6 0.0
0.0 0.0 0.0

-5.3417520966986455e6 7.466874623053912e6 0.0
7.466874623053912e6 6.12583213301857e7 0.0
0.0 0.0 0.0

-4.731315979617575e6 2.072728993641585e7 0.0
2.072728993641585e7 1.0051610637490982e7 0.0
0.0 0.0 0.0

2.214558547707189e6 1.6355988833271222e7 0.0
1.6355988833271222e7 1.2755044433532162e7 0.0
0.0 0.0 0.0

-949153.8770176633 1.715176166720164e7 0.0
1.715176166720164e7 -9.577969446399298e6 0.0
0.0 0.0 0.0

5.604034856671977e6 1.945296722014939e7 0.0
1.945296722014939e7 -2.348857001877026e6 0.0
0.0 0.0 0.0

1.460076543614983e6 1.8928226648454633e7 0.0
1.8928226648454633e7 -6.405422103360634e6 0.0
0.0 0.0 0.0

-2.70227129695945e6 1.318011459643456e7 0.0
1.318011459643456e7 -3.0863283550496483e6 0.0
0.0 0.0 0.0

170385.45343249105 1.7645189216365125e7 0.0
1.7645189216365125e7 1.738311326468311e7 0.0
0.0 0.0 0.0

649138.9704684353 1.6751700256803744e7 0.0
1.6751700256803744e7 1.9420970747028308e6 0.0
0.0 0.0 0.0

155793.69922551117 1.6308751403097596e7 0.0
1.6308751403097596e7 -3.2122125328346463e6 0.0
0.0 0.0 0.0

-3.484397780471094e6 1.5183638845168423e7 0.0
1.5183638845168423e7 -2.3403076087929953e7 0.0
0.0 0.0 0.0

-3.052841544665981e6 2.4178678579445004e7 0.0
2.4178678579445004e7 4.1626308910246e6 0.0
0.0 0.0 0.0

-1.4714693898188435e7 2.2337174991768464e7 0.0
2.2337174991768464e7 -8.249782091734067e6 0.0
0.0 0.0 0.0

-8.259047843899689e6 2.7941247632575847e7 0.0
2.7941247632575847e7 5.123768392967196e6 0.0
0.0 0.0 0.0

-1.8673808219277756e6 1.827840287393468e7 0.0
1.827840287393468e7 1.148644242378391e7 0.0
0.0 0.0 0.0

3.933742606702864e6 6.192028504407918e6 0.0
6.192028504407918e6 -2.615786843779158e7 0.0
0.0 0.0 0.0

104307.73867492145 1.8148241746120848e7 0.0
1.8148241746120848e7 -1.2316029814232662e7 0.0
0.0 0.0 0.0

1.0236586951012949e7 2.505975724728236e7 0.0
2.505975724728236e7 -5.829353190580208e6 0.0
0.0 0.0 0.0

-1.098833160224305e7 236012.98230875054 0.0
236012.98230875054 2.7040506412147418e7 0.0
0.0 0.0 0.0

-4.00880171726354e6 2.0012581808572415e7 0.0
2.0012581808572415e7 7.002193584177234e6 0.0
0.0 0.0 0.0

1.0221594854674619e6 1.8131257018795192e7 0.0
1.8131257018795192e7 1.4860204294193666e6 0.0
0.0 0.0 0.0

5.95260170820131e6 2.035375446828165e7 0.0
2.035375446828165e7 -3.843048850413877e6 0.0
0.0 0.0 0.0

-1.173987248510885e7 6.172482704507043e6 0.0
6.172482704507043e6 2.575378359251536e7 0.0
0.0 0.0 0.0

3.8220070550152226e6 1.6165249124838289e7 0.0
1.6165249124838289e7 1.714302557641478e7 0.0
0.0 0.0 0.0

-7.027875903132902e6 1.9533848118284468e7 0.0
1.9533848118284468e7 -8.219685785678782e6 0.0
0.0 0.0 0.0

256042.15232189652 1.4944936058638962e7 0.0
1.4944936058638962e7 -2.1841298917105466e7 0.0
0.0 0.0 0.0

5.318419898527037e6 3.039135151936777e7 0.0
3.039135151936777e7 -3.2442931219993094e6 0.0
0.0 0.0 0.0

-7.888106025608435e6 2.8812932998838164e7 0.0
2.8812932998838164e7 4.565982910118054e6 0.0
0.0 0.0 0.0

-1.1924432831893954e7 7.092429820989106e6 0.0
7.092429820989106e6 2.2542070562054396e7 0.0
0.0 0.0 0.0

-6.066679621336887e6 2.05994769854254e7 0.0
2.05994769854254e7 -5.205763266324645e6 0.0
0.0 0.0 0.0

-5.952138240970286e6 2.8982424936118923e7 0.0
2.8982424936118923e7 3.5994511950513376e6 0.0
0.0 0.0 0.0

-6.518558330465902e6 2.8267830392085977e7 0.0
2.8267830392085977e7 4.247665341157427e6 0.0
0.0 0.0 0.0

2.2451757507823603e6 1.5607744204128891e7 0.0
1.5607744204128891e7 1.0511199794700563e7 0.0
0.0 0.0 0.0

2.2128851224691393e6 1.2157667053141575e7 0.0
1.2157667053141575e7 -1.8329281212180007e7 0.0
0.0 0.0 0.0

4.143076614744816e7 2.7121288827449545e7 0.0
2.7121288827449545e7 1.6280744804243486e7 0.0
0.0 0.0 0.0

-3.367482987769765e7 1.8657348968607131e6 0.0
1.8657348968607131e6 8.218613625392124e6 0.0
0.0 0.0 0.0

-1.5885698325149983e7 2.5246451843650103e7 0.0
2.5246451843650103e7 4.78129789250353e6 0.0
0.0 0.0 0.0

3.930253082645418e6 3.463144017892587e6 0.0
3.463144017892587e6 -2.903064182642227e7 0.0
0.0 0.0 0.0

-618700.7543176888 1.7962868675715268e7 0.0
1.7962868675715268e7 -1.088304188406348e7 0.0
0.0 0.0 0.0

-1.1829934634107303e7 2.6235805058884792e7 0.0
2.6235805058884792e7 6.100346800545543e6 0.0
0.0 0.0 0.0

-1.1734379117484616e7 3.824528138133348e6 0.0
3.824528138133348e6 2.8437233361739077e7 0.0
0.0 0.0 0.0

2.4042109050871152e6 9.675937150004588e6 0.0
9.675937150004588e6 -2.4375766950165432e7 0.0
0.0 0.0 0.0

-4.771626119092626e6 1.4738714518112583e7 0.0
1.4738714518112583e7 -1.899398503161428e7 0.0
0.0 0.0 0.0

6.664779221113384e6 1.9574694025856048e7 0.0
1.9574694025856048e7 6.641611715137335e6 0.0
0.0 0.0 0.0

-3.101550086989706e7 2.6917648212942023e7 0.0
2.6917648212942023e7 -4.319632802050328e6 0.0
0.0 0.0 0.0

-3.8292015950190127e6 1.1474597228877028e7 0.0
1.1474597228877028e7 301896.5193544673 0.0
0.0 0.0 0.0

-9.018088834968124e6 2.530846583039395e7 0.0
2.530846583039395e7 6.091741333817292e6 0.0
0.0 0.0 0.0

-2.6410915658442155e6 2.4943657889834918e7 0.0
2.4943657889834918e7 2.805531620924864e6 0.0
0.0 0.0 0.0

-8.436040825211575e6 5.078253808877393e6 0.0
5.078253808877393e6 1.723640874583185e7 0.0
0.0 0.0 0.0

-7.810767871376124e6 -1.5498712389837299e6 0.0
-1.5498712389837299e6 1.3927111934314689e7 0.0
0.0 0.0 0.0

1.5110916736813234e6 1.2488876783160133e7 0.0
1.2488876783160133e7 -1.8862463162885204e7 0.0
0.0 0.0 0.0

-1.103531363664149e7 2.559704459080814e6 0.0
2.559704459080814e6 2.8567477542157736e7 0.0
0.0 0.0 0.0

557717.18385527 1.5340458606025739e7 0.0
1.5340458606025739e7 -1.7358528850670412e7 0.0
0.0 0.0 0.0

5.818703117127133e6 1.837466689462798e7 0.0
1.837466689462798e7 -1.0189794861452724e6 0.0
0.0 0.0 0.0

1.0906384722173735e6 8.737909758820608e6 0.0
8.737909758820608e6 -1.0531459746198926e7 0.0
0.0 0.0 0.0

-1.6532024070107251e7 2.5185850912822124e7 0.0
2.5185850912822124e7 4.855325055738878e6 0.0
0.0 0.0 0.0

-8.596019869882623e6 2.1988024667200066e7 0.0
2.1988024667200066e7 -8.270608046383614e6 0.0
0.0 0.0 0.0

441241.7332404473 1.5029279020826193e7 0.0
1.5029279020826193e7 1.4708065606177163e6 0.0
0.0 0.0 0.0

-444303.4697722035 1.5605048320886154e7 0.0
1.5605048320886154e7 -1.4810121163709548e6 0.0
0.0 0.0 0.0

1.981226283564222e6 1.2750814892442862e7 0.0
1.2750814892442862e7 -1.736958830615555e7 0.0
0.0 0.0 0.0

-4.4238823140299935e6 1.5273712121433934e7 0.0
1.5273712121433934e7 -1.8665212826280724e7 0.0
0.0 0.0 0.0

-1.0960783726531068e7 -851969.0526946888 0.0
-851969.0526946888 2.0291304725639112e7 0.0
0.0 0.0 0.0

-4.235923110314381e6 1.261930720885835e7 0.0
1.261930720885835e7 5.682805921641336e6 0.0
0.0 0.0 0.0

359885.55217188224 1.9921107392462246e7 0.0
1.9921107392462246e7 -9.188164268584311e6 0.0
0.0 0.0 0.0

3.14936781243317e6 7.015807076323213e6 0.0
7.015807076323213e6 -1.8851089825193793e7 0.0
0.0 0.0 0.0

-3.448028566197703e7 2.3470369181433715e7 0.0
2.3470369181433715e7 -2.0123984104023613e6 0.0
0.0 0.0 0.0

4.351697898907847e6 1.925403721148536e7 0.0
1.925403721148536e7 -2.471009342994509e6 0.0
0.0 0.0 0.0

1.8087780780968223e7 1.781512904501314e7 0.0
1.781512904501314e7 1.5607443565656496e6 0.0
0.0 0.0 0.0

-8.680422240072343e6 3.192911127011477e7 0.0
3.192911127011477e7 5.781902168252725e6 0.0
0.0 0.0 0.0

-1.0425405952357557e7 2.188912173062434e6 0.0
2.188912173062434e6 1.810458153098176e7 0.0
0.0 0.0 0.0

-403032.5225567878 1.6248695428553741e7 0.0
1.6248695428553741e7 -1.1604924629764851e7 0.0
0.0 0.0 0.0

-7.62208590901842e6 2.0466624802911565e7 0.0
2.0466624802911565e7 -4.740137278333455e6 0.0
0.0 0.0 0.0

-1.8003720051462997e7 2.8250286412271265e7 0.0
2.8250286412271265e7 6.709090618920416e6 0.0
0.0 0.0 0.0

-5.443028565176988e6 1.6018924074744971e7 0.0
1.6018924074744971e7 -2.92551579524293e7 0.0
0.0 0.0 0.0

1.1669004078834564e6 1.6640664819844931e7 0.0
1.6640664819844931e7 7.079764470630541e6 0.0
0.0 0.0 0.0

-3.423423618145891e6 1.514801337631475e7 0.0
1.514801337631475e7 -2.0522535609067556e7 0.0
0.0 0.0 0.0

-1.3164292289640348e7 3.0595202149036072e7 0.0
3.0595202149036072e7 6.755937167544268e6 0.0
0.0 0.0 0.0

-328849.3658229059 2.2086967446061783e7 0.0
2.2086967446061783e7 -6.486083222819874e6 0.0
0.0 0.0 0.0

-5.752548060824643e6 2.071118182010396e7 0.0
2.071118182010396e7 -502667.4810720205 0.0
0.0 0.0 0.0

2.486111491279172e6 1.0523429387978094e7 0.0
1.0523429387978094e7 -2.6302268369283848e7 0.0
0.0 0.0 0.0

-1.100850374491896e7 6.254511879731585e6 0.0
6.254511879731585e6 3.2430614975168902e7 0.0
0.0 0.0 0.0

-1.4880701198139354e6 1.6302212091775054e7 0.0
1.6302212091775054e7 -7.884070477481082e6 0.0
0.0 0.0 0.0

6.02923209273349e6 1.9224007764703654e7 0.0
1.9224007764703654e7 -2.6431764568839627e6 0.0
0.0 0.0 0.0

-4.517664435933749e6 1.601934271120613e7 0.0
1.601934271120613e7 -2.4710989986300185e7 0.0
0.0 0.0 0.0

-9.72083008339116e6 2.5170887163099766e7 0.0
2.5170887163099766e7 5.861405015506508e6 0.0
0.0 0.0 0.0

1.9401826296425804e7 2.9360509081317674e7 0.0
2.9360509081317674e7 -8.49828273887334e6 0.0
0.0 0.0 0.0

-5.060722683355872e6 2.0299974264983788e7 0.0
2.0299974264983788e7 -3.631476671923615e6 0.0
0.0 0.0 0.0

-1.002260294901783e7 2.6284046014920123e7 0.0
2.6284046014920123e7 5.922337528621999e6 0.0
0.0 0.0 0.0

-8.303830062091438e6 1.716176130057858e7 0.0
1.716176130057858e7 1.749385014601753e7 0.0
0.0 0.0 0.0

2.1965699411685523e6 1.8343115032166008e7 0.0
1.8343115032166008e7 -5.3853878530685315e6 0.0
0.0 0.0 0.0

-3.4288307390466523e6 2.428618159498741e7 0.0
2.428618159498741e7 4.906628165091034e6 0.0
0.0 0.0 0.0

-4.2767164553633e6 1.5131188810475439e7 0.0
1.5131188810475439e7 -2.8018660389411055e7 0.0
0.0 0.0 0.0

3.719286662798086e6 5.041420265018532e6 0.0
5.041420265018532e6 -2.5038378903781235e7 0.0
0.0 0.0 0.0

-4.506088929540299e6 1.6010342778695997e7 0.0
1.6010342778695997e7 -2.18298879293176e7 0.0
0.0 0.0 0.0

-4.252900811099375e6 2.657580129669256e7 0.0
2.657580129669256e7 3.4397818069208013e6 0.0
0.0 0.0 0.0

-2.717955104213694e6 1.6745403673813626e7 0.0
1.6745403673813626e7 -9.059850321440816e6 0.0
0.0 0.0 0.0

2.2630107797033964e6 1.6596719251299841e7 0.0
1.6596719251299841e7 7.54336975767206e6 0.0
0.0 0.0 0.0

-1.025773612263556e7 1.531058467249226e7 0.0
1.531058467249226e7 2.3907690999403063e7 0.0
0.0 0.0 0.0

-1.553031985981577e6 1.2756805839284042e7 0.0
1.2756805839284042e7 -2.4258839066219656e6 0.0
0.0 0.0 0.0

8.884606489974149e6 1.6489264973872043e7 0.0
1.6489264973872043e7 3.565131836870854e7 0.0
0.0 0.0 0.0

-1.078756667510573e7 1.3993511832555044e6 0.0
1.3993511832555044e6 3.2027779126496468e7 0.0
0.0 0.0 0.0

3.5005126827170625e6 4.4020641559646e6 0.0
4.4020641559646e6 -3.501408637642122e7 0.0
0.0 0.0 0.0

-2.7385716343930643e6 1.6016363104848128e7 0.0
1.6016363104848128e7 -2.2606704894361235e7 0.0
0.0 0.0 0.0

-8.47970158829065e6 2.632031019920441e7 0.0
2.632031019920441e7 5.758734718372382e6 0.0
0.0 0.0 0.0

2.2758351033328343e7 1.270442383662817e7 0.0
1.270442383662817e7 362234.77779530175 0.0
0.0 0.0 0.0

-1.2312093058003284e7 4.656956741080374e6 0.0
4.656956741080374e6 2.398178523844458e7 0.0
0.0 0.0 0.0

-1.8882740864479948e7 2.6630736166506436e7 0.0
2.6630736166506436e7 -8.450937292353269e6 0.0
0.0 0.0 0.0

-3.78481842407048e6 1.9511989155331396e7 0.0
1.9511989155331396e7 7.218593699212711e6 0.0
0.0 0.0 0.0

-1.775585744374571e7 3.0524541869009852e7 0.0
3.0524541869009852e7 7.450217725421347e6 0.0
0.0 0.0 0.0

3.288059056834748e6 4.846089431891102e6 0.0
4.846089431891102e6 -3.6147226759663716e7 0.0
0.0 0.0 0.0

3.299776050855466e6 2.5431728570162438e7 0.0
2.5431728570162438e7 -4.223923420470587e6 0.0
0.0 0.0 0.0

-6.843726738002259e6 1.1615547483387893e7 0.0
1.1615547483387893e7 4.518075305865457e7 0.0
0.0 0.0 0.0

-3.6618142129567303e6 2.360191093055317e7 0.0
2.360191093055317e7 6.779508930311797e6 0.0
0.0 0.0 0.0

-1.3041813605379234e6 1.5669545181769393e7 0.0
1.5669545181769393e7 -5.570700001066215e6 0.0
0.0 0.0 0.0

-5.153643746603133e6 2.35305827607715e6 0.0
2.35305827607715e6 8.207658453825407e6 0.0
0.0 0.0 0.0

3.071364066368385e6 1.7438776922355574e7 0.0
1.7438776922355574e7 1.1933241666059263e7 0.0
0.0 0.0 0.0

-4.57759287585241e6 2.0431915718351148e7 0.0
2.0431915718351148e7 8.733624336726353e6 0.0
0.0 0.0 0.0

1.6810188784988956e6 9.41751867765219e6 0.0
9.41751867765219e6 -9.481433926317574e6 0.0
0.0 0.0 0.0

-2.6763418725483287e6 1.869148536896437e7 0.0
1.869148536896437e7 738932.0886554462 0.0
0.0 0.0 0.0

4.860142112870876e6 1.888657041255222e7 0.0
1.888657041255222e7 -3.0084132745037116e6 0.0
0.0 0.0 0.0

-2.382918032109415e6 1.2746712473886022e7 0.0
1.2746712473886022e7 98970.172009237 0.0
0.0 0.0 0.0

-2.4858320793827157e6 1.4904606365515586e7 0.0
1.4904606365515586e7 -2.513025305086128e7 0.0
0.0 0.0 0.0

-5.128009067708442e6 1.5940009376701683e7 0.0
1.5940009376701683e7 5.908370722324155e6 0.0
0.0 0.0 0.0

-8.021368745529136e6 1.7320134956427865e7 0.0
1.7320134956427865e7 2.0598550938196283e7 0.0
0.0 0.0 0.0

-1.0133401496865988e7 -915971.2174959533 0.0
-915971.2174959533 2.3145974666680545e7 0.0
0.0 0.0 0.0

-1.0042407826165065e7 2.0766926642832164e7 0.0
2.0766926642832164e7 375467.02413559007 0.0
0.0 0.0 0.0

-6.439344529944849e6 2.4852170913220294e7 0.0
2.4852170913220294e7 6.38403815550406e6 0.0
0.0 0.0 0.0

7.548272717575755e6 2.558765648746921e7 0.0
2.558765648746921e7 -5.445815241288738e6 0.0
0.0 0.0 0.0

-1.1969007882922167e7 4.323929139345844e6 0.0
4.323929139345844e6 2.6073148733906467e7 0.0
0.0 0.0 0.0

-3.37315552754525e6 1.5623423710180288e7 0.0
1.5623423710180288e7 -2.620383491648609e7 0.0
0.0 0.0 0.0

-4.335127777188716e6 2.4671012085103232e7 0.0
2.4671012085103232e7 6.188802027177593e6 0.0
0.0 0.0 0.0

443144.4806454615 1.703628183712006e7 0.0
1.703628183712006e7 -7.283994147951504e6 0.0
0.0 0.0 0.0

-1.4551130969158888e6 1.394188168632433e7 0.0
1.394188168632433e7 -7.007812402696454e6 0.0
0.0 0.0 0.0

-9.38024659024919e6 526313.2326891441 0.0
526313.2326891441 1.5723835650450526e7 0.0
0.0 0.0 0.0

-8.119553428698028e6 2.727721275498373e7 0.0
2.727721275498373e7 5.767013899876274e6 0.0
0.0 0.0 0.0

-2.417028481038973e6 2.0633789334895257e7 0.0
2.0633789334895257e7 -410007.39943064214 0.0
0.0 0.0 0.0

2.442767496789811e6 1.834447379514796e7 0.0
1.834447379514796e7 1.1680386333613757e7 0.0
0.0 0.0 0.0

-803349.0190785241 3.1380615298648225e6 0.0
3.1380615298648225e6 1.3058644257427314e6 0.0
0.0 0.0 0.0

2.844856810211766e6 1.815955060490942e7 0.0
1.815955060490942e7 3.6240466886168635e6 0.0
0.0 0.0 0.0

864994.9792521521 8.583695713646807e6 0.0
8.583695713646807e6 -4.7587401495477006e7 0.0
0.0 0.0 0.0

3.530273794284777e6 2.8763014506652046e7 0.0
2.8763014506652046e7 -4.050129949677623e6 0.0
0.0 0.0 0.0

-5.124990801785557e6 2.1382819705445826e7 0.0
2.1382819705445826e7 9.559752035731405e6 0.0
0.0 0.0 0.0

-9.576420655637946e6 8.270938099017929e6 0.0
8.270938099017929e6 1.1260968021665819e7 0.0
0.0 0.0 0.0

-895781.3986057375 1.8102810131227136e7 0.0
1.8102810131227136e7 -2.7804856270320546e6 0.0
0.0 0.0 0.0

562680.6025298797 1.045236077178603e7 0.0
1.045236077178603e7 -4.4191875172136046e7 0.0
0.0 0.0 0.0

-354152.24049830344 1.5428239120862639e7 0.0
1.5428239120862639e7 -1.980202454222749e7 0.0
0.0 0.0 0.0

-8.239298622201075e6 2.9920662854640886e7 0.0
2.9920662854640886e7 4.28163263853601e6 0.0
0.0 0.0 0.0

-2.123095513105349e6 1.6477603697791928e7 0.0
1.6477603697791928e7 -7.076985848128392e6 0.0
0.0 0.0 0.0

-3.8122157551227193e6 1.9987026958414156e7 0.0
1.9987026958414156e7 -9.636795217330467e6 0.0
0.0 0.0 0.0

-3.1647995286676763e6 2.1463122990844414e7 0.0
2.1463122990844414e7 4.974845201575065e6 0.0
0.0 0.0 0.0

420774.0497866487 1.628344673363561e7 0.0
1.628344673363561e7 -1.1722474488080405e7 0.0
0.0 0.0 0.0

5.115477588980818e6 1.938991440894329e7 0.0
1.938991440894329e7 5.5446085958345365e6 0.0
0.0 0.0 0.0

-6.78132612292136e6 2.093810910853183e7 0.0
2.093810910853183e7 -8.83953900640529e6 0.0
0.0 0.0 0.0

-2.088904859390573e6 1.8961310244308908e7 0.0
1.8961310244308908e7 4.9201345832321765e6 0.0
0.0 0.0 0.0

-7.473622721063599e6 8.183955786401161e6 0.0
8.183955786401161e6 5.074535302793647e7 0.0
0.0 0.0 0.0

-433240.2863755936 1.3576055875719968e7 0.0
1.3576055875719968e7 -6.436126283314681e6 0.0
0.0 0.0 0.0

-5.50926412781892e6 1.4194799863186534e7 0.0
1.4194799863186534e7 -1.9971276968424153e7 0.0
0.0 0.0 0.0

168928.86567122862 1.7699656732500505e7 0.0
1.7699656732500505e7 -1.3469299976084808e7 0.0
0.0 0.0 0.0

-4.660536041357495e6 1.8205029409483865e7 0.0
1.8205029409483865e7 -1.1970779001971537e7 0.0
0.0 0.0 0.0

-3.983419382481739e6 1.9993732381924503e7 0.0
1.9993732381924503e7 9.043024521403316e6 0.0
0.0 0.0 0.0

338632.15554679884 1.5378148037595322e7 0.0
1.5378148037595322e7 1.128773943561779e6 0.0
0.0 0.0 0.0

-2.9190761358007155e6 2.51664352907042e7 0.0
2.51664352907042e7 3.5914610144399228e6 0.0
0.0 0.0 0.0

-2.6273137692084284e6 1.929514070371641e7 0.0
1.929514070371641e7 596246.7804722952 0.0
0.0 0.0 0.0

-8.49826799811383e6 1.8773237111279035e6 0.0
1.8773237111279035e6 4.991875057442035e7 0.0
0.0 0.0 0.0

-1.2840052443620212e7 8.151412135674057e6 0.0
8.151412135674057e6 2.04695138557476e7 0.0
0.0 0.0 0.0

918407.3083370831 1.7421808331190545e7 0.0
1.7421808331190545e7 -6.526993288796124e6 0.0
0.0 0.0 0.0

-2.2106537613701567e7 2.4965019589467924e7 0.0
2.4965019589467924e7 4.0609191034906367e6 0.0
0.0 0.0 0.0

-1.0867949376651544e7 521675.9364298132 0.0
521675.9364298132 1.5676011693247002e7 0.0
0.0 0.0 0.0

-9.796332676899979e6 6.38285183458166e6 0.0
6.38285183458166e6 4.0822016968543015e7 0.0
0.0 0.0 0.0

-2.170682146642428e6 409636.9121688692 0.0
409636.9121688692 3.5393654983009016e6 0.0
0.0 0.0 0.0

-4.823810105386343e6 4.340531660691777e6 0.0
4.340531660691777e6 612236.8359618627 0.0
0.0 0.0 0.0

1.9956030912187584e6 1.1086896739795562e7 0.0
1.1086896739795562e7 -1.8982191715185594e7 0.0
0.0 0.0 0.0

-3.028389010576675e6 2.0936330869486168e7 0.0
2.0936330869486168e7 -925372.1012706612 0.0
0.0 0.0 0.0

-5.682748049393544e6 1.822498022569301e7 0.0
1.822498022569301e7 -1.0861837089561267e7 0.0
0.0 0.0 0.0

-4.0493136328000193e6 1.9770484515496816e7 0.0
1.9770484515496816e7 1.1967458245203773e7 0.0
0.0 0.0 0.0

-2.763315207983933e6 1.5276167741700782e7 0.0
1.5276167741700782e7 -1.9268755646442264e7 0.0
0.0 0.0 0.0

1.0598698560088482e6 1.78411899709792e7 0.0
1.78411899709792e7 1.0628865883216776e7 0.0
0.0 0.0 0.0

-7.851751874758215e6 1.4909483528500622e7 0.0
1.4909483528500622e7 -2.8959901983942885e7 0.0
0.0 0.0 0.0

-3.52894723568092e6 1.917947453987512e7 0.0
1.917947453987512e7 2.9889876482883915e6 0.0
0.0 0.0 0.0

-939774.875040425 1.0998606671672728e7 0.0
1.0998606671672728e7 -5.230915532207689e7 0.0
0.0 0.0 0.0

844494.9897410553 1.0840668267614597e7 0.0
1.0840668267614597e7 -3.8715455959083065e7 0.0
0.0 0.0 0.0

-2.7394393778266897e6 1.9264550531631205e7 0.0
1.9264550531631205e7 -9.096751472281473e6 0.0
0.0 0.0 0.0

-1.1390162068073647e7 2.310227809768431e7 0.0
2.310227809768431e7 -7.796627597251978e6 0.0
0.0 0.0 0.0

-1.0803785656860076e7 2.5167151321460653e7 0.0
2.5167151321460653e7 5.933201876130704e6 0.0
0.0 0.0 0.0

-5.305611687721476e6 1.3171869051273642e7 0.0
1.3171869051273642e7 4.740868491343504e6 0.0
0.0 0.0 0.0

-2.6948726150724376e6 5.473903127977147e6 0.0
5.473903127977147e6 6.555037301640748e6 0.0
0.0 0.0 0.0

308916.9724381182 1.6627267767590513e7 0.0
1.6627267767590513e7 -5.863870808912739e6 0.0
0.0 0.0 0.0

7.031214207205127e6 1.982554488869395e7 0.0
1.982554488869395e7 -2.6134332222208143e6 0.0
0.0 0.0 0.0

-5.969944713020625e6 1.2194085975417985e7 0.0
1.2194085975417985e7 4.599292146119305e7 0.0
0.0 0.0 0.0

-1.7953997513195956e6 1.863688280385715e7 0.0
1.863688280385715e7 9.316042491674637e6 0.0
0.0 0.0 0.0

-6.426990212234682e6 2.4916080384708732e7 0.0
2.4916080384708732e7 6.497745710980542e6 0.0
0.0 0.0 0.0

-3.1546406320804404e6 1.520685391500679e7 0.0
1.520685391500679e7 -1.2251886216989856e7 0.0
0.0 0.0 0.0

-9.468908969850311e6 9.544379812467353e6 0.0
9.544379812467353e6 3.7914517994193e7 0.0
0.0 0.0 0.0

-2.0928642031394118e6 1.8347477212408464e7 0.0
1.8347477212408464e7 5.208935452023026e6 0.0
0.0 0.0 0.0

-50017.66359758843 1.7635946808601826e7 0.0
1.7635946808601826e7 -1.3307050343227152e7 0.0
0.0 0.0 0.0

-233851.24070745613 1.4473401080195436e7 0.0
1.4473401080195436e7 -2.313137791515237e7 0.0
0.0 0.0 0.0

1.2255611384104956e6 9.809216485921616e6 0.0
9.809216485921616e6 -3.707832491243518e7 0.0
0.0 0.0 0.0

1.619525711769456e6 1.0521897780800138e7 0.0
1.0521897780800138e7 -3.0024843053934228e7 0.0
0.0 0.0 0.0

-7.790026580845355e6 1.698334838854965e7 0.0
1.698334838854965e7 -4.1399942667023085e7 0.0
0.0 0.0 0.0

-3.1934751404216085e6 2.472655346031993e7 0.0
2.472655346031993e7 4.2429895200084215e6 0.0
0.0 0.0 0.0

-4.0174779365691943e6 1.9968113552489273e7 0.0
1.9968113552489273e7 -9.372147855928471e6 0.0
0.0 0.0 0.0

-816337.1383485282 1.725452028235621e7 0.0
1.725452028235621e7 -1.1383087105222087e7 0.0
0.0 0.0 0.0

1.6349473657640647e7 1.9782970521412473e7 0.0
1.9782970521412473e7 -2.0275607880789116e6 0.0
0.0 0.0 0.0

-8.860072267149074e6 4.399785452909994e6 0.0
4.399785452909994e6 4.463650315748248e7 0.0
0.0 0.0 0.0

-360274.9156774115 1.0848523792627044e7 0.0
1.0848523792627044e7 -4.479121394922269e7 0.0
0.0 0.0 0.0

1.9520583394663595e6 1.0781593432132632e7 0.0
1.0781593432132632e7 -2.9794123851236217e7 0.0
0.0 0.0 0.0

-6.141676639958404e6 8.183938276981232e6 0.0
8.183938276981232e6 5.611711131412374e7 0.0
0.0 0.0 0.0

1.4697477062004874e7 2.0109645557025228e7 0.0
2.0109645557025228e7 9.035463310352527e6 0.0
0.0 0.0 0.0

-8.845491300880441e6 7.529629245400686e6 0.0
7.529629245400686e6 4.2196799356426515e7 0.0
0.0 0.0 0.0

-4.99327641280133e6 339915.441798596 0.0
339915.441798596 5.240759311686583e6 0.0
0.0 0.0 0.0

-3.435795970406547e6 2.5775721774809573e7 0.0
2.5775721774809573e7 2.5172843528490267e6 0.0
0.0 0.0 0.0

2.268613495323141e6 1.0292389693088248e7 0.0
1.0292389693088248e7 -2.3216960513788328e7 0.0
0.0 0.0 0.0

-6.182541709353073e6 2.78249492957219e7 0.0
2.78249492957219e7 5.363432433071155e6 0.0
0.0 0.0 0.0

-9.174098619191801e6 1.2079474451407824e7 0.0
1.2079474451407824e7 3.38098766037928e7 0.0
0.0 0.0 0.0

-1.2645565239466898e7 6.086169173228542e6 0.0
6.086169173228542e6 1.9017279241331037e7 0.0
0.0 0.0 0.0

4.413350912351337e6 2.5634112063021194e7 0.0
2.5634112063021194e7 -4.511352056433991e6 0.0
0.0 0.0 0.0

-4.400799460334654e6 2.0311837438766323e7 0.0
2.0311837438766323e7 1.164712600417985e7 0.0
0.0 0.0 0.0

363495.02847210714 2.2411504318175986e7 0.0
2.2411504318175986e7 -5.966586623648658e6 0.0
0.0 0.0 0.0

-6.154097181281779e6 2.2697301170459107e7 0.0
2.2697301170459107e7 6.915266123196838e6 0.0
0.0 0.0 0.0

-2.5301495325156916e6 1.615010021318714e7 0.0
1.615010021318714e7 -2.0540784235215355e7 0.0
0.0 0.0 0.0

2.8656571943775145e6 2.000891619225158e7 0.0
2.000891619225158e7 -6.48821106637842e6 0.0
0.0 0.0 0.0

4.986376962920753e6 1.709972251931386e7 0.0
1.709972251931386e7 3.411811412211972e7 0.0
0.0 0.0 0.0

-5.850730911874255e6 4.0047010918589192e6 0.0
4.0047010918589192e6 1.5008954958245443e7 0.0
0.0 0.0 0.0

-3.36120487847174e6 7.673576706914872e6 0.0
7.673576706914872e6 -4.189368508848114e6 0.0
0.0 0.0 0.0

-3.682027909686923e6 1.7365891154442262e7 0.0
1.7365891154442262e7 -1.227342619522813e7 0.0
0.0 0.0 0.0

3.405719651976376e6 1.775897713693795e7 0.0
1.775897713693795e7 1.1352399184262497e7 0.0
0.0 0.0 0.0

4.691175948596135e6 2.9337907948157366e7 0.0
2.9337907948157366e7 -5.03058747320249e6 0.0
0.0 0.0 0.0

3.9024362986171367e6 5.227588620209741e6 0.0
5.227588620209741e6 -1.4589846297035834e7 0.0
0.0 0.0 0.0

-4.0506940988285383e6 2.8758654178747084e7 0.0
2.8758654178747084e7 3.9031313414515136e6 0.0
0.0 0.0 0.0

-3.605377661393095e7 1.2633555161300018e7 0.0
1.2633555161300018e7 9.06820402100498e6 0.0
0.0 0.0 0.0

142506.2809599177 1.796203582924142e7 0.0
1.796203582924142e7 -1.2299086149583079e7 0.0
0.0 0.0 0.0

-8.99536574986337e6 1.3739508144857047e7 0.0
1.3739508144857047e7 2.9833418867099017e7 0.0
0.0 0.0 0.0

246442.44156808453 1.769315710396163e7 0.0
1.769315710396163e7 -6.312505601793545e6 0.0
0.0 0.0 0.0

-4.35796995675146e6 2.0782710496041447e7 0.0
2.0782710496041447e7 8.95760849539878e6 0.0
0.0 0.0 0.0

-2.8636912071358925e6 2.047919672513037e7 0.0
2.047919672513037e7 -1.867130254863076e6 0.0
0.0 0.0 0.0

510068.9257898312 1.8042050648607768e7 0.0
1.8042050648607768e7 -7.588661562809637e6 0.0
0.0 0.0 0.0

3.3076557495150473e6 4.122726001943492e6 0.0
4.122726001943492e6 -3.771275780474974e7 0.0
0.0 0.0 0.0

-652138.1079407881 1.4516898555131594e7 0.0
1.4516898555131594e7 -2.173794059879292e6 0.0
0.0 0.0 0.0

7.652915879236227e6 2.0861729519733038e7 0.0
2.0861729519733038e7 -4.09708034454428e6 0.0
0.0 0.0 0.0

-968787.1593394345 1.7001548070178844e7 0.0
1.7001548070178844e7 -1.3016816297841527e7 0.0
0.0 0.0 0.0

3.5802480024089664e6 1.935961428202426e7 0.0
1.935961428202426e7 8.83142626316914e6 0.0
0.0 0.0 0.0

155096.592991177 1.1042979253503708e7 0.0
1.1042979253503708e7 -3.9033515906560384e7 0.0
0.0 0.0 0.0

-1.1478707617889112e6 1.98805786667126e7 0.0
1.98805786667126e7 -7.586504541352033e6 0.0
0.0 0.0 0.0

2.6082991670503328e6 1.9627590019557122e7 0.0
1.9627590019557122e7 1.3058538436298711e7 0.0
0.0 0.0 0.0

1.8972353266995944e7 2.4561081535703868e7 0.0
2.4561081535703868e7 -6.023592206398204e6 0.0
0.0 0.0 0.0

1.0919354612692092e6 1.1064942137035986e7 0.0
1.1064942137035986e7 -3.396822362057625e7 0.0
0.0 0.0 0.0

-2.988094667217111e7 1.1458459316117907e7 0.0
1.1458459316117907e7 9.223875697871398e6 0.0
0.0 0.0 0.0

636237.400657916 1.719218551398853e7 0.0
1.719218551398853e7 1.3354046742777832e7 0.0
0.0 0.0 0.0

-5.550816102434916e6 2.8669288226039853e7 0.0
2.8669288226039853e7 4.888263982047282e6 0.0
0.0 0.0 0.0

-197874.30628432194 1.833417505995654e7 0.0
1.833417505995654e7 -9.58714139158422e6 0.0
0.0 0.0 0.0

-5.5356343430910595e6 2.517086748710923e7 0.0
2.517086748710923e7 5.97448951310469e6 0.0
0.0 0.0 0.0

-6.577697669348717e6 1.1366834378394201e7 0.0
1.1366834378394201e7 4.926921512992287e7 0.0
0.0 0.0 0.0

1.4798451205973644e6 1.3828155318086168e7 0.0
1.3828155318086168e7 -1.5331635537112271e7 0.0
0.0 0.0 0.0

2.911215098589301e6 2.564227750347092e7 0.0
2.564227750347092e7 -4.574403152204726e6 0.0
0.0 0.0 0.0

-2.4405167354395003e6 1.093785307805804e7 0.0
1.093785307805804e7 1.147400040689478e6 0.0
0.0 0.0 0.0

-2.7238460343034618e7 1.0835569717463147e7 0.0
1.0835569717463147e7 9.082362351181995e6 0.0
0.0 0.0 0.0

-3.6870793853248702e6 1.4304173463508554e7 0.0
1.4304173463508554e7 -425126.983476582 0.0
0.0 0.0 0.0

-1.1683158073509494e7 2.5195182446613666e6 0.0
2.5195182446613666e6 2.6297231260605358e7 0.0
0.0 0.0 0.0

-8.207313512730023e6 1.450127559631643e7 0.0
1.450127559631643e7 3.0875086609448418e7 0.0
0.0 0.0 0.0

-4.773446976095264e6 2.7118265344221607e7 0.0
2.7118265344221607e7 3.630149872461159e6 0.0
0.0 0.0 0.0

-4.947689432660303e6 2.9393929802680247e7 0.0
2.9393929802680247e7 4.2522691582598975e6 0.0
0.0 0.0 0.0

-8.500230242681209e6 1.0532831821459532e7 0.0
1.0532831821459532e7 3.913149816164909e7 0.0
0.0 0.0 0.0

1.3612956886093905e6 1.2574120119188739e7 0.0
1.2574120119188739e7 -1.2742290075017003e7 0.0
0.0 0.0 0.0

4.690830841730495e6 1.900437605374765e7 0.0
1.900437605374765e7 -176383.65900604683 0.0
0.0 0.0 0.0

-2.4942989390407214e6 1.3559767571872814e7 0.0
1.3559767571872814e7 -8.78961170788609e6 0.0
0.0 0.0 0.0

784969.205099938 9.546454724181686e6 0.0
9.546454724181686e6 -7.557299697862175e6 0.0
0.0 0.0 0.0

-3.6069154358915812e6 2.6899195001337424e7 0.0
2.6899195001337424e7 3.915691529291802e6 0.0
0.0 0.0 0.0

-9.629454575374605e6 1.6518925439104844e7 0.0
1.6518925439104844e7 2.2186637608019542e7 0.0
0.0 0.0 0.0

470568.7098149955 1.1392966338147748e7 0.0
1.1392966338147748e7 -3.4468950418689065e7 0.0
0.0 0.0 0.0

-1.9158273065812945e7 2.4116543598547224e7 0.0
2.4116543598547224e7 3.1559615080413874e6 0.0
0.0 0.0 0.0

402348.47372799553 2.3109737660876215e7 0.0
2.3109737660876215e7 -5.145819537277926e6 0.0
0.0 0.0 0.0

2.3522631720843613e6 5.503310550803673e6 0.0
5.503310550803673e6 -4.4963806160946816e7 0.0
0.0 0.0 0.0

-3.2276414949641423e6 1.820034805562185e7 0.0
1.820034805562185e7 1.6312063773880806e7 0.0
0.0 0.0 0.0

-2.774137107276427e6 2.0853306006978467e7 0.0
2.0853306006978467e7 1.2136534841185082e6 0.0
0.0 0.0 0.0

196215.2010474354 1.812634023729325e7 0.0
1.812634023729325e7 -1.2520367870929832e7 0.0
0.0 0.0 0.0

-7.508618044308571e6 2.827638826294065e7 0.0
2.827638826294065e7 5.664957357627456e6 0.0
0.0 0.0 0.0

-2.226592729643955e6 2.0889060635980573e7 0.0
2.0889060635980573e7 -1.2008065833663873e6 0.0
0.0 0.0 0.0

-5.583888523821788e6 2.7700748548807368e7 0.0
2.7700748548807368e7 3.9045814678838584e6 0.0
0.0 0.0 0.0

-1.9377448060192838e6 7.440316456280635e6 0.0
7.440316456280635e6 1.5784303510928163e6 0.0
0.0 0.0 0.0

4.2089578739450695e6 1.675446018623417e7 0.0
1.675446018623417e7 1.6310132875260226e7 0.0
0.0 0.0 0.0

-558648.3627423961 1.5950387886706697e7 0.0
1.5950387886706697e7 -1.7834122474702146e7 0.0
0.0 0.0 0.0

-2.6071961297440035e6 1.385254075094385e7 0.0
1.385254075094385e7 296839.8015283982 0.0
0.0 0.0 0.0

-95682.64279498532 1.701560005082087e7 0.0
1.701560005082087e7 -1.4384775919959329e7 0.0
0.0 0.0 0.0

2.8222880324999066e6 7.640268135615737e6 0.0
7.640268135615737e6 -1.7876009330810513e7 0.0
0.0 0.0 0.0

9.29501601472846e6 2.0405551141237196e7 0.0
2.0405551141237196e7 8.94946233088607e6 0.0
0.0 0.0 0.0

-9.646829896185543e6 -1.0204702764268556e6 0.0
-1.0204702764268556e6 3.3062866597359203e7 0.0
0.0 0.0 0.0

4.790494327119308e6 1.6961930441901844e7 0.0
1.6961930441901844e7 1.8557742104582008e7 0.0
0.0 0.0 0.0

-3.7105993962877705e6 2.5412055912509162e7 0.0
2.5412055912509162e7 3.2318218722370164e6 0.0
0.0 0.0 0.0

-141032.52607294638 1.5676447488046508e7 0.0
1.5676447488046508e7 -2.0166947250702135e7 0.0
0.0 0.0 0.0

2.378137867405069e6 2.5142847007770978e7 0.0
2.5142847007770978e7 -4.1755968079929026e6 0.0
0.0 0.0 0.0

-364400.61600640626 1.7342908325889546e7 0.0
1.7342908325889546e7 -2.2067296774092256e6 0.0
0.0 0.0 0.0

2.948701667692788e6 9.914368087705838e6 0.0
9.914368087705838e6 -2.261335319635562e7 0.0
0.0 0.0 0.0

80604.41720633069 2.253523180299054e7 0.0
2.253523180299054e7 -6.1589508804757185e6 0.0
0.0 0.0 0.0

-410158.15478541143 1.625359569950479e7 0.0
1.625359569950479e7 -1.6648388477517886e7 0.0
0.0 0.0 0.0

-1.0166702060659152e7 5.10752737354593e6 0.0
5.10752737354593e6 1.4037130151065346e7 0.0
0.0 0.0 0.0

2.4219108513198434e6 1.8714416088906933e7 0.0
1.8714416088906933e7 1.3690565579320295e7 0.0
0.0 0.0 0.0

-5.272661074636526e6 2.1142974165873937e7 0.0
2.1142974165873937e7 8.583004107327705e6 0.0
0.0 0.0 0.0

-3.9634587063481905e6 2.600560739907897e7 0.0
2.600560739907897e7 3.3047612891311785e6 0.0
0.0 0.0 0.0

-1.1930338340210896e6 1.779314705163238e7 0.0
1.779314705163238e7 9.509918901861947e6 0.0
0.0 0.0 0.0

-4.377204858024227e6 4.0656874340543365e6 0.0
4.0656874340543365e6 7.245142639090719e6 0.0
0.0 0.0 0.0

-1.0798217104276463e7 9.086197524298629e6 0.0
9.086197524298629e6 3.2551788340652447e7 0.0
0.0 0.0 0.0

29921.22269560024 1.7442397604002096e7 0.0
1.7442397604002096e7 -1.3355039911232539e7 0.0
0.0 0.0 0.0

-1.940615101338612e6 1.3531652289663758e7 0.0
1.3531652289663758e7 -5.145570816172251e7 0.0
0.0 0.0 0.0

-3.750198819900919e6 5.563208712294871e6 0.0
5.563208712294871e6 5.785119109814107e6 0.0
0.0 0.0 0.0

-1.1194909886447683e7 385055.95772848366 0.0
385055.95772848366 1.934039011334595e7 0.0
0.0 0.0 0.0

-5.240063365148323e6 1.6326071966757873e7 0.0
1.6326071966757873e7 7.092138369877912e6 0.0
0.0 0.0 0.0

-6248.008608914912 2.331685939944289e7 0.0
2.331685939944289e7 -4.555680049528858e6 0.0
0.0 0.0 0.0

-2.832375396534346e6 1.471673191611736e7 0.0
1.471673191611736e7 -3.318892091519601e7 0.0
0.0 0.0 0.0

3.4296504873317154e6 7.312030915278053e6 0.0
7.312030915278053e6 -1.5523849702739323e7 0.0
0.0 0.0 0.0

-2.6893861669389727e6 2.553391956067266e7 0.0
2.553391956067266e7 2.886329308964562e6 0.0
0.0 0.0 0.0

777283.0316094954 2.2829349697966617e7 0.0
2.2829349697966617e7 -5.690213932271086e6 0.0
0.0 0.0 0.0

-8.600879324023886e6 3.3491391081729308e7 0.0
3.3491391081729308e7 3.8699832823250485e6 0.0
0.0 0.0 0.0

-3.0785697081495808e6 2.573026470577104e7 0.0
2.573026470577104e7 3.7160997595924e6 0.0
0.0 0.0 0.0

-2.0193496571776956e7 2.5566208178801224e7 0.0
2.5566208178801224e7 -5.604912611434529e6 0.0
0.0 0.0 0.0

-3.019326054045969e6 1.951827963586336e7 0.0
1.951827963586336e7 -1.3955696551140738e6 0.0
0.0 0.0 0.0

-2.1621813146625534e6 1.3430822444058059e7 0.0
1.3430822444058059e7 -4.735494330039858e7 0.0
0.0 0.0 0.0

-3.576953396032011e6 1.3224564894084748e7 0.0
1.3224564894084748e7 -658355.0665676701 0.0
0.0 0.0 0.0

-1.0237647850498762e7 1.3250950208176072e6 0.0
1.3250950208176072e6 3.7880936624129266e7 0.0
0.0 0.0 0.0

-9.264326071678467e6 5.128224575151287e6 0.0
5.128224575151287e6 4.410884698679431e7 0.0
0.0 0.0 0.0

3.0333369402625933e6 6.372227028967055e6 0.0
6.372227028967055e6 -3.3193204149457764e7 0.0
0.0 0.0 0.0

-4.705887494528061e6 2.230739210014012e7 0.0
2.230739210014012e7 8.469426263385547e6 0.0
0.0 0.0 0.0

-6.696200171889907e6 1.2519690007807666e7 0.0
1.2519690007807666e7 4.211277903411674e7 0.0
0.0 0.0 0.0

-246411.00814436655 1.6627623773026347e7 0.0
1.6627623773026347e7 -1.5491817989412008e7 0.0
0.0 0.0 0.0

-4.708545601223826e6 1.4504724979722874e7 0.0
1.4504724979722874e7 3.925523963524608e7 0.0
0.0 0.0 0.0

-380688.5462887329 2.279288820185659e7 0.0
2.279288820185659e7 -5.64771169998176e6 0.0
0.0 0.0 0.0

1.3975049824200526e6 2.7116985186113082e7 0.0
2.7116985186113082e7 -3.125897042871085e6 0.0
0.0 0.0 0.0

-127320.28452123818 1.721451836098131e7 0.0
1.721451836098131e7 -3.80775524284083e6 0.0
0.0 0.0 0.0

-1.1496801193211708e7 3.1661923137203297e6 0.0
3.1661923137203297e6 1.9144762698263697e7 0.0
0.0 0.0 0.0

-348407.01392955147 1.7469608743601058e7 0.0
1.7469608743601058e7 1.1539862520312237e7 0.0
0.0 0.0 0.0

-4.501450175576609e6 1.5786991173978368e7 0.0
1.5786991173978368e7 8.029867557198966e6 0.0
0.0 0.0 0.0

3.653951444741275e6 4.752514568751752e6 0.0
4.752514568751752e6 -3.033009265218982e7 0.0
0.0 0.0 0.0

2.8759537624389343e6 1.9791302650742847e7 0.0
1.9791302650742847e7 -5.595434167500385e6 0.0
0.0 0.0 0.0

-1.2339319953139368e7 1.942966298588964e7 0.0
1.942966298588964e7 4.915552832554695e6 0.0
0.0 0.0 0.0

-1.906391845864629e7 2.2068424344859686e7 0.0
2.2068424344859686e7 -5.344590157310239e6 0.0
0.0 0.0 0.0

-2.755979775207682e6 2.5878435424938638e7 0.0
2.5878435424938638e7 1.1126126526204038e6 0.0
0.0 0.0 0.0

507252.64122569514 1.218887692989033e7 0.0
1.218887692989033e7 -1.2063521300966967e7 0.0
0.0 0.0 0.0

-4.774295489686875e6 1.929743800579795e7 0.0
1.929743800579795e7 -1.1620461049437276e6 0.0
0.0 0.0 0.0

464943.3323273032 2.7262317125542425e7 0.0
2.7262317125542425e7 -1.3300278033989312e6 0.0
0.0 0.0 0.0

-4.1080507345001996e6 1.8285325379936498e7 0.0
1.8285325379936498e7 1.751973626086365e7 0.0
0.0 0.0 0.0

-1.944347827332744e6 1.8142692634864498e7 0.0
1.8142692634864498e7 9.544560006116001e6 0.0
0.0 0.0 0.0

1.381027343186602e6 1.179409744344574e7 0.0
1.179409744344574e7 -1.1429902333393402e7 0.0
0.0 0.0 0.0

-2.3121194816037146e6 2.8949722204952426e7 0.0
2.8949722204952426e7 1.9141017189185643e6 0.0
0.0 0.0 0.0

-1.105507890966372e7 337972.40342596994 0.0
337972.40342596994 2.8684190591094535e7 0.0
0.0 0.0 0.0

4.1051255474260338e6 5.746541494162526e6 0.0
5.746541494162526e6 -2.391638273385088e7 0.0
0.0 0.0 0.0

-752668.8520462286 2.5036387313130733e7 0.0
2.5036387313130733e7 -1.6110336310294054e6 0.0
0.0 0.0 0.0

-474334.75343241636 1.6227571124688875e7 0.0
1.6227571124688875e7 -1.8270579431088444e7 0.0
0.0 0.0 0.0

-3.3857605127906958e6 1.1849908153338528e6 0.0
1.1849908153338528e6 5.306087409688637e6 0.0
0.0 0.0 0.0

1.137619097004949e6 9.268791347597003e6 0.0
9.268791347597003e6 -1.1225670972347315e7 0.0
0.0 0.0 0.0

-7.820546171966147e6 2.2184984740792528e7 0.0
2.2184984740792528e7 -6.457095261248844e6 0.0
0.0 0.0 0.0

2.5874744434734136e6 1.10183283713073e7 0.0
1.10183283713073e7 -2.1974251168081738e7 0.0
0.0 0.0 0.0

8.6600699647547e6 2.087127546377662e7 0.0
2.087127546377662e7 9.966844486187005e6 0.0
0.0 0.0 0.0

-3.613450879794896e6 8.000908153327039e6 0.0
8.000908153327039e6 718101.8911518215 0.0
0.0 0.0 0.0

-5.189331748662504e6 4.438434046104118e6 0.0
4.438434046104118e6 4.118092060483792e6 0.0
0.0 0.0 0.0

5.849184421107412e6 2.5677406879949994e7 0.0
2.5677406879949994e7 -4.842758620220231e6 0.0
0.0 0.0 0.0

-1.0801170998942023e7 667015.4261890408 0.0
667015.4261890408 2.811036110679257e7 0.0
0.0 0.0 0.0

941605.6450076131 1.4913028531295594e7 0.0
1.4913028531295594e7 -1.3232385268442675e7 0.0
0.0 0.0 0.0

817207.0418583294 1.7027277805013537e7 0.0
1.7027277805013537e7 1.9379727921543445e6 0.0
0.0 0.0 0.0

1.2280463669759294e7 2.1943526967099693e7 0.0
2.1943526967099693e7 -4.1610297748904983e6 0.0
0.0 0.0 0.0

916201.302056184 1.5752513938871982e7 0.0
1.5752513938871982e7 -1.6130470089502914e7 0.0
0.0 0.0 0.0

6.432247167682774e6 1.7638172916462775e7 0.0
1.7638172916462775e7 2.474100740790879e7 0.0
0.0 0.0 0.0

-7.591426179479072e6 2.517067330034934e7 0.0
2.517067330034934e7 6.1663691605674885e6 0.0
0.0 0.0 0.0

-9.80524580941588e6 1.1011526592088717e6 0.0
1.1011526592088717e6 3.525517086494588e7 0.0
0.0 0.0 0.0

-271199.1933015868 2.508814737209266e7 0.0
2.508814737209266e7 -2.115397859264585e6 0.0
0.0 0.0 0.0

-887443.5398481181 1.8420254825238395e7 0.0
1.8420254825238395e7 1.6343856723189417e7 0.0
0.0 0.0 0.0

2.0769485497016674e6 1.0599316003999902e7 0.0
1.0599316003999902e7 -1.8477098117923312e7 0.0
0.0 0.0 0.0

3.89314042490644e6 4.8934807674811855e6 0.0
4.8934807674811855e6 -3.3805319393394224e7 0.0
0.0 0.0 0.0

-2.667901822736118e6 2.06934882525737e7 0.0
2.06934882525737e7 -2.6223452533748737e6 0.0
0.0 0.0 0.0

-8.186295249340649e6 1.016499105204172e7 0.0
1.016499105204172e7 1.3999624663124818e7 0.0
0.0 0.0 0.0

-9.59985003694922e6 1.5423086684223086e7 0.0
1.5423086684223086e7 2.6200104627416093e7 0.0
0.0 0.0 0.0

-349432.11419471167 1.5374586040066458e7 0.0
1.5374586040066458e7 -2.1459961058606017e7 0.0
0.0 0.0 0.0

-1.6072580888506267e6 1.2951323733233841e7 0.0
1.2951323733233841e7 -4.4139412327673756e7 0.0
0.0 0.0 0.0

62571.1908963992 2.560135255831944e7 0.0
2.560135255831944e7 -2.0647310213424806e6 0.0
0.0 0.0 0.0

-1.1784771409360706e6 1.785549235671374e7 0.0
1.785549235671374e7 7.393357736167323e6 0.0
0.0 0.0 0.0

-3.2903285864453517e7 1.1743870317351796e7 0.0
1.1743870317351796e7 8.836172404051747e6 0.0
0.0 0.0 0.0

7.039674133153631e6 1.8048134169435386e7 0.0
1.8048134169435386e7 2.8077047920587502e7 0.0
0.0 0.0 0.0

-3.0569452479010105e7 2.9246970289294638e7 0.0
2.9246970289294638e7 7.755839286910603e6 0.0
0.0 0.0 0.0

2.1341897298896983e6 1.0245575460089074e7 0.0
1.0245575460089074e7 -2.643761736393984e7 0.0
0.0 0.0 0.0

6.438202426655182e6 5.427196077304822e6 0.0
5.427196077304822e6 -1.2543032585468683e6 0.0
0.0 0.0 0.0

-1.689533895951826e7 -309510.5367320338 0.0
-309510.5367320338 7.060759690844466e6 0.0
0.0 0.0 0.0

-7.229180748988659e6 9.063407221931249e6 0.0
9.063407221931249e6 1.1964163033188362e7 0.0
0.0 0.0 0.0

-1.0372774439372953e7 2.3394603089442467e6 0.0
2.3394603089442467e6 3.3468566377459127e7 0.0
0.0 0.0 0.0

-1.160781409773468e7 2.738813630134546e6 0.0
2.738813630134546e6 2.765794855804026e7 0.0
0.0 0.0 0.0

85003.64113612846 1.7264936374449875e7 0.0
1.7264936374449875e7 -1.4816947571371987e7 0.0
0.0 0.0 0.0

-2.210705169706429e6 1.441302179957958e7 0.0
1.441302179957958e7 -7.369017416721249e6 0.0
0.0 0.0 0.0

1.7950563791082008e6 1.5244779209446292e7 0.0
1.5244779209446292e7 5.983521408334089e6 0.0
0.0 0.0 0.0

781576.2236725418 1.6753124507204928e7 0.0
1.6753124507204928e7 -703415.6132418301 0.0
0.0 0.0 0.0

440484.0283226152 2.6103564960506737e7 0.0
2.6103564960506737e7 -1.975339233910345e6 0.0
0.0 0.0 0.0

-1.119923127142623e7 9.307341920690278e6 0.0
9.307341920690278e6 1.85150239124452e7 0.0
0.0 0.0 0.0

275362.24369444884 1.6315170234867955e7 0.0
1.6315170234867955e7 -1.517455138413971e7 0.0
0.0 0.0 0.0

-3.3796383816407067e6 2.2508243335938882e7 0.0
2.2508243335938882e7 2.734812063686004e6 0.0
0.0 0.0 0.0

2.4424223845426477e6 8.448158406877067e6 0.0
8.448158406877067e6 -3.085684951331354e7 0.0
0.0 0.0 0.0

-1.0694062302208051e7 1.6081622177698305e6 0.0
1.6081622177698305e6 3.005216845309593e7 0.0
0.0 0.0 0.0

-126402.53810291423 2.4518623105378408e7 0.0
2.4518623105378408e7 -2.9397093066154807e6 0.0
0.0 0.0 0.0

-1.2310710288269105e6 1.783968339824704e7 0.0
1.783968339824704e7 5.228193239540112e6 0.0
0.0 0.0 0.0

-1.3087117689102956e6 1.799818369261291e7 0.0
1.799818369261291e7 3.0846405623259814e6 0.0
0.0 0.0 0.0

-5.353536154328445e6 2.1167160874943193e7 0.0
2.1167160874943193e7 -9.436734269690888e6 0.0
0.0 0.0 0.0

4.877852809974383e6 1.5423663955885315e7 0.0
1.5423663955885315e7 1.7812163627612773e7 0.0
0.0 0.0 0.0

-5.56275772158291e6 2.028346124395188e7 0.0
2.028346124395188e7 -7.822274650807588e6 0.0
0.0 0.0 0.0

-8.751496884718096e6 1.3174787681797603e7 0.0
1.3174787681797603e7 3.211674566969102e7 0.0
0.0 0.0 0.0

-1.0421787077258874e7 1.0572477586446845e6 0.0
1.0572477586446845e6 3.492775589919481e7 0.0
0.0 0.0 0.0

2.721251184801786e6 1.019878513933228e7 0.0
1.019878513933228e7 -1.781781118460452e7 0.0
0.0 0.0 0.0

3.1035081274789553e6 5.630444811875092e6 0.0
5.630444811875092e6 -3.474345171435857e7 0.0
0.0 0.0 0.0

697266.1495963959 1.6724505767326936e7 0.0
1.6724505767326936e7 -1.4066399511736855e7 0.0
0.0 0.0 0.0

5.047672959527627e6 1.9987406667588715e7 0.0
1.9987406667588715e7 7.951729510405806e6 0.0
0.0 0.0 0.0

3.0015472054830743e6 6.652719521928703e6 0.0
6.652719521928703e6 -1.658524203117118e7 0.0
0.0 0.0 0.0

-5.53835592827538e6 1.5940962991682166e7 0.0
1.5940962991682166e7 -2.578279612850917e7 0.0
0.0 0.0 0.0

-1.1552844395050034e6 1.26497256380621e7 0.0
1.26497256380621e7 -4.111376620218821e7 0.0
0.0 0.0 0.0

-4.957872875550193e6 1.5446792099358082e7 0.0
1.5446792099358082e7 4.704767980599298e6 0.0
0.0 0.0 0.0

-5.892230907850927e6 2.258735881446051e7 0.0
2.258735881446051e7 8.081499478452704e6 0.0
0.0 0.0 0.0

-7.5415700621332005e6 2.101587480940553e7 0.0
2.101587480940553e7 -8.052758673439644e6 0.0
0.0 0.0 0.0

-8.97567709893639e6 2.181607957280543e6 0.0
2.181607957280543e6 4.358947874028319e7 0.0
0.0 0.0 0.0

-703050.4714239966 1.2504875840882344e7 0.0
1.2504875840882344e7 -3.851403882597911e7 0.0
0.0 0.0 0.0

-8.4662527857503e6 1.2520093930030925e7 0.0
1.2520093930030925e7 3.451308993222492e7 0.0
0.0 0.0 0.0

-1.5333288691028862e6 1.8157649692987725e7 0.0
1.8157649692987725e7 943780.4836762653 0.0
0.0 0.0 0.0

-489819.0614968724 2.582251323625771e7 0.0
2.582251323625771e7 -2.415230289429966e6 0.0
0.0 0.0 0.0

-1.194472964243724e7 2.479253331667992e7 0.0
2.479253331667992e7 5.351423006102025e6 0.0
0.0 0.0 0.0

-1.0350781812881272e7 1.4572705217935085e7 0.0
1.4572705217935085e7 2.6063296209673867e7 0.0
0.0 0.0 0.0

-3.910430581272515e6 1.383247544641094e7 0.0
1.383247544641094e7 -1.455234523010594e7 0.0
0.0 0.0 0.0

3.166423919481542e6 1.6230751804533781e7 0.0
1.6230751804533781e7 1.125146566202219e7 0.0
0.0 0.0 0.0

2.8519224559023436e6 6.937814515459348e6 0.0
6.937814515459348e6 -3.1823989430105872e7 0.0
0.0 0.0 0.0

1.6054110237450874e6 8.662668807172997e6 0.0
8.662668807172997e6 -1.2209722994579418e7 0.0
0.0 0.0 0.0

-1.0042012075300273e7 1.0250650317532973e7 0.0
1.0250650317532973e7 3.396829208536248e7 0.0
0.0 0.0 0.0

-3.8178604803048796e6 1.96157072427366e7 0.0
1.96157072427366e7 1.0730485645166557e7 0.0
0.0 0.0 0.0

-2.8934601614410505e7 2.5089713623842217e7 0.0
2.5089713623842217e7 2.924328544911802e6 0.0
0.0 0.0 0.0

221162.43983588554 1.4000448416021485e7 0.0
1.4000448416021485e7 -2.3561184193306483e7 0.0
0.0 0.0 0.0

1.9973237569467612e6 9.755014182112528e6 0.0
9.755014182112528e6 -2.9771420389620416e7 0.0
0.0 0.0 0.0

-274169.08502322435 1.2484761896287985e7 0.0
1.2484761896287985e7 -3.610241884745699e7 0.0
0.0 0.0 0.0

2.82520527009704e6 4.422088231639862e6 0.0
4.422088231639862e6 -9.389038893568985e6 0.0
0.0 0.0 0.0

-45348.35692641605 1.849482992169364e7 0.0
1.849482992169364e7 -1.0038759221547337e7 0.0
0.0 0.0 0.0

942414.9115405376 1.981995494952168e7 0.0
1.981995494952168e7 -8.551204211521719e6 0.0
0.0 0.0 0.0

-1.8145007170700274e7 3.2192614445989076e7 0.0
3.2192614445989076e7 6.958335585835674e6 0.0
0.0 0.0 0.0

1.7419478032993735e6 4.456171989025223e6 0.0
4.456171989025223e6 -5.665052537344146e6 0.0
0.0 0.0 0.0

-244480.64239026234 1.6546910089817904e7 0.0
1.6546910089817904e7 -1.7023111679595143e7 0.0
0.0 0.0 0.0

-8.955205446676496e6 1.6734080149114594e7 0.0
1.6734080149114594e7 2.252425308305486e7 0.0
0.0 0.0 0.0

-1.080288835523311e7 1.3655293145811814e6 0.0
1.3655293145811814e6 2.4790543652469505e7 0.0
0.0 0.0 0.0

3.5043767777324915e6 5.327099972350059e6 0.0
5.327099972350059e6 -2.912047026776902e7 0.0
0.0 0.0 0.0

-1.1458721804972956e7 4.0198379332885984e6 0.0
4.0198379332885984e6 2.450971629703018e7 0.0
0.0 0.0 0.0

-1.1057400928246347e7 4.212132647194743e6 0.0
4.212132647194743e6 2.934332946445764e7 0.0
0.0 0.0 0.0

-9.104258338439098e6 8.824097040821116e6 0.0
8.824097040821116e6 1.5431727920005484e7 0.0
0.0 0.0 0.0

-4.66896357274928e6 2.085430858285562e7 0.0
2.085430858285562e7 1.0936870688603964e7 0.0
0.0 0.0 0.0

-2.0924286173643984e6 1.1594819407357058e7 0.0
1.1594819407357058e7 -106400.6414623931 0.0
0.0 0.0 0.0

1.750564708027518e7 5.83678129475557e6 0.0
5.83678129475557e6 -2.833998138388397e6 0.0
0.0 0.0 0.0

-3.0886801656521827e7 1.6471264306964942e6 0.0
1.6471264306964942e6 7.792193411240289e6 0.0
0.0 0.0 0.0

2.893420719477921e6 8.091817910738204e6 0.0
8.091817910738204e6 -1.2991443050263073e7 0.0
0.0 0.0 0.0

2.716302821893597e6 9.33991647766416e6 0.0
9.33991647766416e6 -2.914438901911821e7 0.0
0.0 0.0 0.0

3.2013355093016587e6 7.889268197685654e6 0.0
7.889268197685654e6 -3.001349884644539e7 0.0
0.0 0.0 0.0

424928.8544063058 1.740336396792975e6 0.0
1.740336396792975e6 1.4080059154883933e6 0.0
0.0 0.0 0.0

-2.5027074091164065e6 -1.284870527281571e6 0.0
-1.284870527281571e6 3.3371394713328397e6 0.0
0.0 0.0 0.0

-3.5047329497193457e6 1.592660877147039e7 0.0
1.592660877147039e7 -2.3514110363853507e7 0.0
0.0 0.0 0.0

3.2585375773210395e6 5.608658296194561e6 0.0
5.608658296194561e6 -3.2659286274077285e7 0.0
0.0 0.0 0.0

-2.144369263626238e7 2.3331007913969092e7 0.0
2.3331007913969092e7 -7.645104487758096e6 0.0
0.0 0.0 0.0

-6.344947987359228e6 1.8533828947527003e7 0.0
1.8533828947527003e7 1.4860100028093135e7 0.0
0.0 0.0 0.0

-45208.813633051 2.3923055264028877e7 0.0
2.3923055264028877e7 -3.734087025200393e6 0.0
0.0 0.0 0.0

4.176389750813117e6 1.5255492144698067e7 0.0
1.5255492144698067e7 1.5550219341751741e7 0.0
0.0 0.0 0.0

9.59274620714692e6 1.0801042852201741e7 0.0
1.0801042852201741e7 1.252618100394923e6 0.0
0.0 0.0 0.0

-1.02823905632189e7 2.3421887637271743e7 0.0
2.3421887637271743e7 -7.812005431520315e6 0.0
0.0 0.0 0.0

-9.972131341367066e6 4.876316925642192e6 0.0
4.876316925642192e6 3.77904274053026e7 0.0
0.0 0.0 0.0

-5.734511204762474e6 2.1852864348809227e7 0.0
2.1852864348809227e7 8.39557124406791e6 0.0
0.0 0.0 0.0

1.424603368106688e6 1.9890051603538856e7 0.0
1.9890051603538856e7 -7.601312705041629e6 0.0
0.0 0.0 0.0

-8.56551732024451e6 1.7070555756900076e7 0.0
1.7070555756900076e7 2.1621571661855306e7 0.0
0.0 0.0 0.0

-9.753386921620233e6 -2.4334133418792896e6 0.0
-2.4334133418792896e6 2.4385300186491027e7 0.0
0.0 0.0 0.0

-1.1107945396001777e6 2.477923408475033e7 0.0
2.477923408475033e7 -2.599539167309607e6 0.0
0.0 0.0 0.0

2.236676629818665e6 9.65485013923168e6 0.0
9.65485013923168e6 -2.7931900560428146e7 0.0
0.0 0.0 0.0

1.328856464392828e6 2.3184370802075285e7 0.0
2.3184370802075285e7 -5.518356556326413e6 0.0
0.0 0.0 0.0

3.624870262889426e6 6.502039325665563e6 0.0
6.502039325665563e6 -3.112974197883296e7 0.0
0.0 0.0 0.0

4.318917256975518e6 1.7205925285062313e7 0.0
1.7205925285062313e7 1.423761641109572e7 0.0
0.0 0.0 0.0

-1.0530582529715768e6 1.9022155006120734e7 0.0
1.9022155006120734e7 -8.722641020662397e6 0.0
0.0 0.0 0.0

-1.0581365767791443e7 1.4554066127026086e6 0.0
1.4554066127026086e6 1.4137684141581371e7 0.0
0.0 0.0 0.0

-1.9501428310458288e6 1.4323314288026322e7 0.0
1.4323314288026322e7 -7.720348806249127e6 0.0
0.0 0.0 0.0

4.006030910452338e6 4.952310172983693e6 0.0
4.952310172983693e6 -3.1653862268867984e7 0.0
0.0 0.0 0.0

9.850149160729613e6 2.3199125843114562e7 0.0
2.3199125843114562e7 -4.89481125721641e6 0.0
0.0 0.0 0.0

2.6838976008412195e6 7.30672048680329e6 0.0
7.30672048680329e6 -1.5623078880001714e7 0.0
0.0 0.0 0.0

-1.2488495281826723e7 5.281219928699059e6 0.0
5.281219928699059e6 1.8089383435499925e7 0.0
0.0 0.0 0.0

-3.508270495044994e6 2.4816767550456572e7 0.0
2.4816767550456572e7 3.0646348800047715e6 0.0
0.0 0.0 0.0

-130107.71368704364 1.2485177296321934e7 0.0
1.2485177296321934e7 -3.37652123505514e7 0.0
0.0 0.0 0.0

-3.9436064320151247e6 1.4602705187330708e7 0.0
1.4602705187330708e7 -1.3145354867349118e7 0.0
0.0 0.0 0.0

3.0981435143692847e6 1.548322497154356e7 0.0
1.548322497154356e7 1.032714534172739e7 0.0
0.0 0.0 0.0

-2.704116881958656e6 1.2155433935916116e7 0.0
1.2155433935916116e7 1.3650334234207058e6 0.0
0.0 0.0 0.0

-6.080139868371708e6 1.4116528516519593e7 0.0
1.4116528516519593e7 7.4330654263530085e6 0.0
0.0 0.0 0.0

1.113964379689489e6 1.7718407876118198e7 0.0
1.7718407876118198e7 1.502961669971892e7 0.0
0.0 0.0 0.0

-1.004233051160086e7 -917110.7837903796 0.0
-917110.7837903796 2.1323143607068226e7 0.0
0.0 0.0 0.0

1.1502068425505995e6 1.851934652545007e7 0.0
1.851934652545007e7 4.0433901572604016e6 0.0
0.0 0.0 0.0

-4.721127563555642e6 2.034838180444639e7 0.0
2.034838180444639e7 1.1274230360684719e7 0.0
0.0 0.0 0.0

2.4055643291553743e6 7.447757078309667e6 0.0
7.447757078309667e6 -1.4005358630563784e7 0.0
0.0 0.0 0.0

-1.1985196755725069e7 2.5166453808820993e6 0.0
2.5166453808820993e6 2.2511488252800845e7 0.0
0.0 0.0 0.0

-4.463289679035356e6 1.9843207340246566e7 0.0
1.9843207340246566e7 -6.62158273176757e6 0.0
0.0 0.0 0.0

-8.87592120764087e6 1.7274773997842662e7 0.0
1.7274773997842662e7 2.0581140376484863e7 0.0
0.0 0.0 0.0

-1.0773469748164034e6 1.8274346312082257e7 0.0
1.8274346312082257e7 1.3285614030789897e7 0.0
0.0 0.0 0.0

-1.1899869966552546e7 6.653711203121929e6 0.0
6.653711203121929e6 2.4155087995064043e7 0.0
0.0 0.0 0.0

794206.2674626936 1.953462145180485e7 0.0
1.953462145180485e7 -9.248190320945019e6 0.0
0.0 0.0 0.0

-5.527344463659096e6 2.445674439256484e7 0.0
2.445674439256484e7 6.543255896003172e6 0.0
0.0 0.0 0.0

-1.0453322467692114e7 8.541774488513116e6 0.0
8.541774488513116e6 3.368891488204863e7 0.0
0.0 0.0 0.0

-9.351368294332817e6 1.1161793276893409e7 0.0
1.1161793276893409e7 1.2094672597440943e7 0.0
0.0 0.0 0.0

-1.07938018897324e7 2.301483648148466e6 0.0
2.301483648148466e6 3.278966210726983e7 0.0
0.0 0.0 0.0

428963.96260684077 1.5837776235939223e7 0.0
1.5837776235939223e7 -1.6266367890436618e7 0.0
0.0 0.0 0.0

-5.28985048616358e6 2.203528280987392e7 0.0
2.203528280987392e7 9.052894060866058e6 0.0
0.0 0.0 0.0

-1.8300077579076968e6 1.8358071593477976e7 0.0
1.8358071593477976e7 -1.0988226047876691e6 0.0
0.0 0.0 0.0

3.287579098173945e6 8.237690755302197e6 0.0
8.237690755302197e6 -1.6852181803037032e7 0.0
0.0 0.0 0.0

-1.0045263744779931e7 -1.4430318682898018e6 0.0
-1.4430318682898018e6 2.7434053136732407e7 0.0
0.0 0.0 0.0

-5.603737907581368e6 1.4780922289265553e7 0.0
1.4780922289265553e7 3.615278323356609e7 0.0
0.0 0.0 0.0

-8.960725834570544e6 1.1313270911001805e7 0.0
1.1313270911001805e7 3.61698412568095e7 0.0
0.0 0.0 0.0

670609.0334396465 1.7485356260142572e7 0.0
1.7485356260142572e7 9.474658519866034e6 0.0
0.0 0.0 0.0

-1.2471808610636884e7 5.176212416492947e6 0.0
5.176212416492947e6 2.2184829045849357e7 0.0
0.0 0.0 0.0

-5.055922342194583e6 1.3535153664669279e7 0.0
1.3535153664669279e7 8.450771566605432e6 0.0
0.0 0.0 0.0

-1.3131228093826561e6 1.8122135266782906e7 0.0
1.8122135266782906e7 -5.637053061341874e6 0.0
0.0 0.0 0.0

504030.4456589166 1.441959293879117e7 0.0
1.441959293879117e7 -1.4015362482330626e7 0.0
0.0 0.0 0.0

-4.507250096315936e6 2.033346316861075e7 0.0
2.033346316861075e7 1.2434757262874553e7 0.0
0.0 0.0 0.0

-4.0627792537509236e6 2.745250478001859e7 0.0
2.745250478001859e7 4.1512812136458196e6 0.0
0.0 0.0 0.0

-1.1249713772052322e7 1.1878376798638519e7 0.0
1.1878376798638519e7 2.7360713184287287e7 0.0
0.0 0.0 0.0

6.300139795667949e6 1.5696668791599963e7 0.0
1.5696668791599963e7 2.303571752919737e7 0.0
0.0 0.0 0.0

21401.239906548988 1.7690944010247234e7 0.0
1.7690944010247234e7 -8.411979988020226e6 0.0
0.0 0.0 0.0

2.7668771983265784e6 1.0523097426764835e7 0.0
1.0523097426764835e7 -2.1589017533650976e7 0.0
0.0 0.0 0.0

3.902306903281899e6 3.2862516319689816e6 0.0
3.2862516319689816e6 -3.399589420487195e7 0.0
0.0 0.0 0.0

-1.0228534292746793e7 -965021.697436923 0.0
-965021.697436923 3.0633884414952077e7 0.0
0.0 0.0 0.0

-3.997193209426214e6 2.0318749756285705e7 0.0
2.0318749756285705e7 1.1384045072549727e7 0.0
0.0 0.0 0.0

-4.0154063730969653e6 1.5228566445102338e7 0.0
1.5228566445102338e7 1.4813973872710178e7 0.0
0.0 0.0 0.0

-1.467862000708755e6 1.5431417648426037e7 0.0
1.5431417648426037e7 5.3565862633552335e7 0.0
0.0 0.0 0.0

351383.4242784763 1.3761054703720808e7 0.0
1.3761054703720808e7 -1.2991224144952891e7 0.0
0.0 0.0 0.0

5.031850735098793e6 1.6013470044815654e7 0.0
1.6013470044815654e7 1.6772836275373483e7 0.0
0.0 0.0 0.0

-1.0877933229017137e7 -1.3391983775448008e6 0.0
-1.3391983775448008e6 2.2306782037614785e7 0.0
0.0 0.0 0.0

-2.1662884408144344e7 402305.4413043349 0.0
402305.4413043349 8.891356121232547e6 0.0
0.0 0.0 0.0

2.6029080917263925e6 9.105946485470232e6 0.0
9.105946485470232e6 -2.5553817950668555e7 0.0
0.0 0.0 0.0

-1.200442609350917e7 2.978457846183677e6 0.0
2.978457846183677e6 1.9521730676891785e7 0.0
0.0 0.0 0.0

1.9209258556175884e6 1.028951250452893e7 0.0
1.028951250452893e7 -2.822822322052295e7 0.0
0.0 0.0 0.0

-8.546827377911363e6 1.5594074843833905e7 0.0
1.5594074843833905e7 2.715834112584058e7 0.0
0.0 0.0 0.0

4.434883038054508e6 3.771453300245266e6 0.0
3.771453300245266e6 -2.17694367668567e7 0.0
0.0 0.0 0.0

7.597266061559242e6 2.4031696448773928e7 0.0
2.4031696448773928e7 -5.03476171075039e6 0.0
0.0 0.0 0.0

-2.092791308989777e6 1.3294802306060828e7 0.0
1.3294802306060828e7 -1.0755083765784446e6 0.0
0.0 0.0 0.0

1.1661509041644924e6 6.359352260378838e6 0.0
6.359352260378838e6 -4.39519618754548e6 0.0
0.0 0.0 0.0

2.5021564765812505e7 5.882447171154395e6 0.0
5.882447171154395e6 -2.666292444980692e6 0.0
0.0 0.0 0.0

-6.955626478500411e6 1.597746928014154e7 0.0
1.597746928014154e7 2.713108386505834e7 0.0
0.0 0.0 0.0

-802302.2324257572 9.95505653327785e6 0.0
9.95505653327785e6 -5.940064217770381e6 0.0
0.0 0.0 0.0

-1.1467074424250273e7 3.6119343847477785e6 0.0
3.6119343847477785e6 3.0678993258588877e7 0.0
0.0 0.0 0.0

2.0435024444639655e6 5.43333068015867e6 0.0
5.43333068015867e6 -9.19731465659963e6 0.0
0.0 0.0 0.0

-3.934343735633024e6 1.9433073891486377e7 0.0
1.9433073891486377e7 -4.984855083913373e6 0.0
0.0 0.0 0.0

-5.150033686002978e6 1.866210969741256e7 0.0
1.866210969741256e7 1.4978523928362193e7 0.0
0.0 0.0 0.0

-1.1770422032300957e7 6.729644560977698e6 0.0
6.729644560977698e6 1.999087671001286e7 0.0
0.0 0.0 0.0

2.9192664035318363e6 7.900158435834684e6 0.0
7.900158435834684e6 -2.627908262186207e7 0.0
0.0 0.0 0.0

-4.375190899043436e6 1.503715991853298e7 0.0
1.503715991853298e7 -3.1292597514964752e7 0.0
0.0 0.0 0.0

-5.596618033887668e6 6.26372905026381e6 0.0
6.26372905026381e6 4.68753471446926e6 0.0
0.0 0.0 0.0

3.935523184895221e6 3.9877598779716105e6 0.0
3.9877598779716105e6 -2.0078470566423476e7 0.0
0.0 0.0 0.0

-337043.88359872345 1.650006218280093e7 0.0
1.650006218280093e7 -1.2038820122768333e7 0.0
0.0 0.0 0.0

1.4547320793192236e7 1.927125812510078e7 0.0
1.927125812510078e7 3.942440668615038e6 0.0
0.0 0.0 0.0

3.671705415192783e6 5.753644084074504e6 0.0
5.753644084074504e6 -3.4434344939994045e7 0.0
0.0 0.0 0.0

-1.2140825709219461e7 -600111.4236903928 0.0
-600111.4236903928 5.340730453171448e6 0.0
0.0 0.0 0.0

-7.578074682942381e6 1.7304816299665187e7 0.0
1.7304816299665187e7 1.923729428322985e7 0.0
0.0 0.0 0.0

-1.6045160794665911e6 8.349939461278979e6 0.0
8.349939461278979e6 495529.7974918671 0.0
0.0 0.0 0.0

-1.1861964927484404e7 6.0298711941131875e6 0.0
6.0298711941131875e6 2.173501689750795e7 0.0
0.0 0.0 0.0

3.2365618753211815e6 6.092185459695321e6 0.0
6.092185459695321e6 -3.959950005116363e7 0.0
0.0 0.0 0.0

7.41712904106645e6 1.6701356854688268e7 0.0
1.6701356854688268e7 2.4723763898836978e7 0.0
0.0 0.0 0.0

6.171986133650966e6 2.0846394495837484e7 0.0
2.0846394495837484e7 1.0550721292639423e7 0.0
0.0 0.0 0.0

-4.014909868721959e6 1.5933424509783862e7 0.0
1.5933424509783862e7 -1.9194382364215244e7 0.0
0.0 0.0 0.0

98862.85714970948 1.2712725179617938e7 0.0
1.2712725179617938e7 -1.1081791248222062e7 0.0
0.0 0.0 0.0

-4.565269863705009e6 1.9309125966363348e7 0.0
1.9309125966363348e7 1.3973120064522803e7 0.0
0.0 0.0 0.0

7.3178042881350145e6 1.8512637465273753e7 0.0
1.8512637465273753e7 -729134.3868367993 0.0
0.0 0.0 0.0

2.2372742116863197e6 1.0232993857432159e7 0.0
1.0232993857432159e7 -2.4771726651516303e7 0.0
0.0 0.0 0.0

-185610.8635821949 2.634459993825305e7 0.0
2.634459993825305e7 -2.3543075981946154e6 0.0
0.0 0.0 0.0

-459670.52269000094 1.598050056489789e7 0.0
1.598050056489789e7 3.4552010954615553e6 0.0
0.0 0.0 0.0

-5.986583723676402e7 4.58568109428026e6 0.0
4.58568109428026e6 5.7158066493144445e6 0.0
0.0 0.0 0.0

4.502196157820174e7 6.6475623137118025e6 0.0
6.6475623137118025e6 -1.5959914023694042e6 0.0
0.0 0.0 0.0

2.381372976664803e6 1.8852881000975303e7 0.0
1.8852881000975303e7 7.58687136112188e6 0.0
0.0 0.0 0.0

-5.83409926356311e6 6.849626894816799e6 0.0
6.849626894816799e6 2.487880977794961e7 0.0
0.0 0.0 0.0

-78303.68212427851 1.7947109390705355e7 0.0
1.7947109390705355e7 1.313938287511417e7 0.0
0.0 0.0 0.0

511450.8669468118 2.2201488369614117e7 0.0
2.2201488369614117e7 -6.62086022033538e6 0.0
0.0 0.0 0.0

3.859167905055054e6 1.7995586703242257e7 0.0
1.7995586703242257e7 1.2863893793896705e7 0.0
0.0 0.0 0.0

-1.1475505656538937e7 5.759615140398767e6 0.0
5.759615140398767e6 1.9294461832155265e7 0.0
0.0 0.0 0.0

-3.9565405899208183e6 1.9061417258173496e7 0.0
1.9061417258173496e7 9.17831236597665e6 0.0
0.0 0.0 0.0

-3.865343349437984e7 3.071439952086864e7 0.0
3.071439952086864e7 -4.572880514981955e6 0.0
0.0 0.0 0.0

3.810177332399538e6 4.438563976717795e6 0.0
4.438563976717795e6 -2.4630859574186802e7 0.0
0.0 0.0 0.0

-2.195846284893899e6 1.862971232127492e7 0.0
1.862971232127492e7 -3.0064479603539235e6 0.0
0.0 0.0 0.0

6.832793342406463e6 1.585590338131925e7 0.0
1.585590338131925e7 2.6252886236354046e7 0.0
0.0 0.0 0.0

-5.619049933872216e6 1.4895773400176255e7 0.0
1.4895773400176255e7 -1.873016660664665e7 0.0
0.0 0.0 0.0

4.377156637559222e6 1.579283144347448e7 0.0
1.579283144347448e7 1.4590522685421726e7 0.0
0.0 0.0 0.0

163003.20845315047 1.2713045696495466e7 0.0
1.2713045696495466e7 -3.1885983837447293e7 0.0
0.0 0.0 0.0

-1.0430915461477233e7 88465.44243364438 0.0
88465.44243364438 2.4116447966089077e7 0.0
0.0 0.0 0.0

-1.5641892058049671e7 2.6995715557269562e7 0.0
2.6995715557269562e7 6.500004950258245e6 0.0
0.0 0.0 0.0

2.631184603448266e6 7.805492782016199e6 0.0
7.805492782016199e6 -1.6305162555235658e7 0.0
0.0 0.0 0.0

-7.014158347765876e6 1.6386311058048086e7 0.0
1.6386311058048086e7 2.5740461806602858e7 0.0
0.0 0.0 0.0

-1.1767900954549396e7 3.2599316136523886e6 0.0
3.2599316136523886e6 1.6092091725637924e7 0.0
0.0 0.0 0.0

-4.4608649587308355e6 2.6886403891215615e7 0.0
2.6886403891215615e7 4.720877094597154e6 0.0
0.0 0.0 0.0

-9.881575918885335e6 3.0369332835280746e7 0.0
3.0369332835280746e7 6.013632082856089e6 0.0
0.0 0.0 0.0

-1.0536607550107306e7 -1.4566623646126506e6 0.0
-1.4566623646126506e6 6.796210719308046e6 0.0
0.0 0.0 0.0

-2.325412877219346e6 1.5265365534013174e7 0.0
1.5265365534013174e7 -9.467578567029491e6 0.0
0.0 0.0 0.0

293661.76440666756 2.1713150215497352e7 0.0
2.1713150215497352e7 -6.820574279942336e6 0.0
0.0 0.0 0.0

-7.119759950420082e6 2.958442493431607e6 0.0
2.958442493431607e6 7.274401559647365e6 0.0
0.0 0.0 0.0

5.646290146116433e6 2.449325177587742e7 0.0
2.449325177587742e7 -5.055622787690476e6 0.0
0.0 0.0 0.0

-1.2196076127861824e7 4.301577679740673e6 0.0
4.301577679740673e6 1.7230620276874743e7 0.0
0.0 0.0 0.0

3.657512365327699e6 4.745865814728482e6 0.0
4.745865814728482e6 -2.860301185998507e7 0.0
0.0 0.0 0.0

3.5768036493677627e6 5.557072350875609e6 0.0
5.557072350875609e6 -2.574226555463275e7 0.0
0.0 0.0 0.0

957224.0571687333 1.247358158212036e7 0.0
1.247358158212036e7 -1.4248679592324682e7 0.0
0.0 0.0 0.0

524096.8447260307 1.9459059356568653e7 0.0
1.9459059356568653e7 -9.909180310225632e6 0.0
0.0 0.0 0.0

3.2660882821990103e6 5.482422899435318e6 0.0
5.482422899435318e6 -4.1867029622798905e7 0.0
0.0 0.0 0.0

-5.2394605549080465e6 2.064115240804291e7 0.0
2.064115240804291e7 -9.943819297335548e6 0.0
0.0 0.0 0.0

942165.891405303 1.4124089960724073e7 0.0
1.4124089960724073e7 -1.957554847631367e7 0.0
0.0 0.0 0.0

-1.0064540714850541e7 1.6364587271347085e7 0.0
1.6364587271347085e7 2.1493976551316533e7 0.0
0.0 0.0 0.0

-4.197425035814935e6 2.031928181759996e7 0.0
2.031928181759996e7 -8.804129639099801e6 0.0
0.0 0.0 0.0

2.9069419552507335e6 9.88551537910732e6 0.0
9.88551537910732e6 -2.4227823223165363e7 0.0
0.0 0.0 0.0

-2.7297119885430153e7 2.063137537933831e7 0.0
2.063137537933831e7 7.166052866013613e6 0.0
0.0 0.0 0.0

3.736867559337575e6 4.0446859005466187e6 0.0
4.0446859005466187e6 -2.9814597029230624e7 0.0
0.0 0.0 0.0

4.0965995029780734e6 5.627577494474785e6 0.0
5.627577494474785e6 -2.5581358655982606e7 0.0
0.0 0.0 0.0

374241.5201889174 1.7884855863994453e7 0.0
1.7884855863994453e7 -1.2417569326971775e7 0.0
0.0 0.0 0.0

-1.6649810653262988e7 -1.074547111301489e6 0.0
-1.074547111301489e6 8.452472552740876e6 0.0
0.0 0.0 0.0

1.7075316595712425e6 9.922054084845124e6 0.0
9.922054084845124e6 -1.020921608008758e7 0.0
0.0 0.0 0.0

-2.6013150035622222e6 1.6491482203534368e7 0.0
1.6491482203534368e7 1.8694302416576758e7 0.0
0.0 0.0 0.0

-3.619311598122416e6 2.5797285591303222e7 0.0
2.5797285591303222e7 4.5025093007060215e6 0.0
0.0 0.0 0.0

-5.25568392019549e6 2.7361289045289155e7 0.0
2.7361289045289155e7 5.019366490855238e6 0.0
0.0 0.0 0.0

-1.249753300672328e7 6.749439595597841e6 0.0
6.749439595597841e6 1.750924499802211e7 0.0
0.0 0.0 0.0

-4.980387457938481e6 1.2430805644476585e7 0.0
1.2430805644476585e7 5.064713352652087e7 0.0
0.0 0.0 0.0

-2.7736975551098967e6 2.611951180604132e7 0.0
2.611951180604132e7 3.0733201813528235e6 0.0
0.0 0.0 0.0

-3.075058237265567e6 1.8895185531443514e7 0.0
1.8895185531443514e7 -1.2489669898871572e6 0.0
0.0 0.0 0.0

12394.888740911381 1.738641673003267e7 0.0
1.738641673003267e7 -4.71422755332405e6 0.0
0.0 0.0 0.0

2.7246566844086513e7 2.043963788313497e7 0.0
2.043963788313497e7 1.0379631502141995e7 0.0
0.0 0.0 0.0

-1.1624966620315824e7 8.009027774434523e6 0.0
8.009027774434523e6 1.9341721037840553e7 0.0
0.0 0.0 0.0

4.3042895740697365e6 4.239274357796797e6 0.0
4.239274357796797e6 -2.785486309156356e7 0.0
0.0 0.0 0.0

180222.23255792446 1.7057170442500066e7 0.0
1.7057170442500066e7 -1.1156205124196127e7 0.0
0.0 0.0 0.0

-3.05411596689817e6 1.4408944644997315e7 0.0
1.4408944644997315e7 1.6637079313166095e6 0.0
0.0 0.0 0.0

-1.1818542019843843e7 1.7445935326715596e7 0.0
1.7445935326715596e7 5.298115851265565e6 0.0
0.0 0.0 0.0

-1.0234772977834813e7 264646.63956142816 0.0
264646.63956142816 2.9551655436350178e7 0.0
0.0 0.0 0.0

-6.2587321923823945e7 3.911609124467938e7 0.0
3.911609124467938e7 -1.0282826507252458e7 0.0
0.0 0.0 0.0

-8.215896332348953e6 1.566183602506142e7 0.0
1.566183602506142e7 -2.7386321885703985e7 0.0
0.0 0.0 0.0

6.525074185494183e6 1.6418191450075759e7 0.0
1.6418191450075759e7 2.175024801763066e7 0.0
0.0 0.0 0.0

1.186788279176196e6 1.323205273194105e7 0.0
1.323205273194105e7 -2.1996611721553028e7 0.0
0.0 0.0 0.0

-1.0955822505321141e7 2.2210445829281013e7 0.0
2.2210445829281013e7 -1.9927905574772793e6 0.0
0.0 0.0 0.0

3.070908551392896e6 8.4299902055883e6 0.0
8.4299902055883e6 -1.5283421257165937e7 0.0
0.0 0.0 0.0

3.27106535075425e6 8.701472731881665e6 0.0
8.701472731881665e6 -2.4920736646194562e7 0.0
0.0 0.0 0.0

-5.8801014123708345e6 1.8116473178393546e7 0.0
1.8116473178393546e7 1.6490655559427632e7 0.0
0.0 0.0 0.0

2.0987342249698387e6 1.0787596575839693e7 0.0
1.0787596575839693e7 -2.358153281430562e7 0.0
0.0 0.0 0.0

-3.9193839809051966e6 2.6348644647541832e7 0.0
2.6348644647541832e7 4.606702890779916e6 0.0
0.0 0.0 0.0

-1.2109919545121757e7 5.391065761828364e6 0.0
5.391065761828364e6 2.6876486380366184e7 0.0
0.0 0.0 0.0

-9.581758768447299e6 -2.0771091931589567e6 0.0
-2.0771091931589567e6 2.244808670523541e7 0.0
0.0 0.0 0.0

3.1176269366298877e6 7.303640413599358e6 0.0
7.303640413599358e6 -2.5733984474180527e7 0.0
0.0 0.0 0.0

-9.069116676997524e6 2.0952697911203682e7 0.0
2.0952697911203682e7 -7.383831631080631e6 0.0
0.0 0.0 0.0

2.5871044760611663e6 2.8252509782512654e7 0.0
2.8252509782512654e7 -3.436913307185996e6 0.0
0.0 0.0 0.0

-8.828628435017431e6 1.6560424670772238e7 0.0
1.6560424670772238e7 2.022422864024519e7 0.0
0.0 0.0 0.0

3.3907868441769704e6 5.994695123539476e6 0.0
5.994695123539476e6 -2.8034287337140426e7 0.0
0.0 0.0 0.0

3.31529060738199e6 6.043832998243414e6 0.0
6.043832998243414e6 -3.682271931777032e7 0.0
0.0 0.0 0.0

-7.85304459296106e6 1.1293275338627258e7 0.0
1.1293275338627258e7 4.067834686825251e7 0.0
0.0 0.0 0.0

-1.1530019528455565e7 5.608645503725287e6 0.0
5.608645503725287e6 2.7894438618818536e7 0.0
0.0 0.0 0.0

4.2044689792366e6 2.46089071517128e7 0.0
2.46089071517128e7 -4.999125688933905e6 0.0
0.0 0.0 0.0

-2.0691200869283245e6 2.0419001460866302e7 0.0
2.0419001460866302e7 -2.1776029745017006e6 0.0
0.0 0.0 0.0

-1.0751136120600633e7 3.7508123110184106e6 0.0
3.7508123110184106e6 3.1882833441382606e7 0.0
0.0 0.0 0.0

3.3934345687914966e6 4.992482149381055e6 0.0
4.992482149381055e6 -1.6110494600552443e7 0.0
0.0 0.0 0.0

-3.3282527017557607e6 2.052283676615034e7 0.0
2.052283676615034e7 584345.4590494614 0.0
0.0 0.0 0.0

-1.3954275769031117e7 2.158806664583351e7 0.0
2.158806664583351e7 -6.106441350846495e6 0.0
0.0 0.0 0.0

-1.0007912501931943e7 9.191504206729926e6 0.0
9.191504206729926e6 1.2551202301083263e7 0.0
0.0 0.0 0.0

4.0290980388440248e6 5.507683106588537e6 0.0
5.507683106588537e6 -2.730355127594338e7 0.0
0.0 0.0 0.0

2.0757678131730948e6 1.0813743772988819e7 0.0
1.0813743772988819e7 -2.2054006366708636e7 0.0
0.0 0.0 0.0

-1.0219214287646925e7 -393523.14994548046 0.0
-393523.14994548046 1.449631866072068e7 0.0
0.0 0.0 0.0

-1.2042990848852903e7 8.073457211356649e6 0.0
8.073457211356649e6 2.3197311473413363e7 0.0
0.0 0.0 0.0

235730.80088568106 1.2907587503985466e7 0.0
1.2907587503985466e7 -2.9815416188909177e7 0.0
0.0 0.0 0.0

4.217423867566487e6 5.076500285980603e6 0.0
5.076500285980603e6 -2.5030728127632275e7 0.0
0.0 0.0 0.0

-2.521365878802755e6 2.019455375884629e7 0.0
2.019455375884629e7 -3.623535324302408e6 0.0
0.0 0.0 0.0

3.6390867172366455e6 7.451347799854754e6 0.0
7.451347799854754e6 -2.557337446701835e7 0.0
0.0 0.0 0.0

-9.800192887159988e6 1.3161321477266597e6 0.0
1.3161321477266597e6 1.682026847822124e7 0.0
0.0 0.0 0.0

-1.1772855321772922e7 1.740195651451198e7 0.0
1.740195651451198e7 -3.924285394769298e7 0.0
0.0 0.0 0.0

9.993835784321079e6 1.7773509350168653e7 0.0
1.7773509350168653e7 3.331278828341025e7 0.0
0.0 0.0 0.0

411881.7849056099 1.769460731944856e7 0.0
1.769460731944856e7 657968.1407069294 0.0
0.0 0.0 0.0

-2.4005675269194003e7 868517.2803363095 0.0
868517.2803363095 8.272801242281703e6 0.0
0.0 0.0 0.0

-8.792411322429745e6 -1.3265688594997814e6 0.0
-1.3265688594997814e6 1.6087608317118082e7 0.0
0.0 0.0 0.0

4.684428375900087e6 1.7972929780555468e7 0.0
1.7972929780555468e7 1.5614758601580989e7 0.0
0.0 0.0 0.0

-4.152194625941996e6 1.6713690412546841e7 0.0
1.6713690412546841e7 -1.3840646920167556e7 0.0
0.0 0.0 0.0

-4.1775077001823448e6 1.269948799730719e7 0.0
1.269948799730719e7 5.5680291646856874e7 0.0
0.0 0.0 0.0

3.2630046977643482e6 6.672382924411264e6 0.0
6.672382924411264e6 -2.689099159667307e7 0.0
0.0 0.0 0.0

48975.4881494781 2.1133221839748863e7 0.0
2.1133221839748863e7 -7.845521530051883e6 0.0
0.0 0.0 0.0

-5.620110301012329e6 1.540046363349865e7 0.0
1.540046363349865e7 -3.005198966987612e7 0.0
0.0 0.0 0.0

-3.8626734290778167e6 2.492902664164661e7 0.0
2.492902664164661e7 3.9500316175876018e6 0.0
0.0 0.0 0.0

-4.445075898428987e6 2.0309726251151104e7 0.0
2.0309726251151104e7 7.419093956568688e6 0.0
0.0 0.0 0.0

-652113.334546533 2.4718562473008834e7 0.0
2.4718562473008834e7 -3.2538000726867914e6 0.0
0.0 0.0 0.0

-1.010763278087841e7 1.6207126182780582e7 0.0
1.6207126182780582e7 -4.112990765596181e7 0.0
0.0 0.0 0.0

3.0294835335387457e6 2.4565660520443857e7 0.0
2.4565660520443857e7 -4.938987274206424e6 0.0
0.0 0.0 0.0

-9.087692506356064e6 1.568901318549605e7 0.0
1.568901318549605e7 2.5315582015374847e7 0.0
0.0 0.0 0.0

2.290431599758681e6 8.88933871378409e6 0.0
8.88933871378409e6 -1.6016826212102715e7 0.0
0.0 0.0 0.0

3.4196118465194385e6 6.101583504300843e6 0.0
6.101583504300843e6 -2.6316439558115464e7 0.0
0.0 0.0 0.0

325397.976908111 2.023092820183102e7 0.0
2.023092820183102e7 -9.00375813514102e6 0.0
0.0 0.0 0.0

-1.9189480264830007e6 1.4485706448302945e7 0.0
1.4485706448302945e7 -5.84548486485028e6 0.0
0.0 0.0 0.0

2.3919218248877246e6 8.965355081109481e6 0.0
8.965355081109481e6 -2.935658548653746e7 0.0
0.0 0.0 0.0

-3.528803301330164e6 2.385103920675174e7 0.0
2.385103920675174e7 4.660968679908412e6 0.0
0.0 0.0 0.0

-2.6127878951875437e6 1.6265592954452714e7 0.0
1.6265592954452714e7 -424446.1086232633 0.0
0.0 0.0 0.0

825582.6625571861 1.4323463932627738e7 0.0
1.4323463932627738e7 -1.2140786363406986e7 0.0
0.0 0.0 0.0

1.7348621420839932e6 1.144879366156099e7 0.0
1.144879366156099e7 -2.8207976651507832e7 0.0
0.0 0.0 0.0

1.350085632149961e6 2.409661451003523e7 0.0
2.409661451003523e7 -4.982995074835573e6 0.0
0.0 0.0 0.0

333276.5467173122 1.5997266657086601e7 0.0
1.5997266657086601e7 -1.1235162303970719e7 0.0
0.0 0.0 0.0

-1.3400722961235587e6 1.4402498828378119e7 0.0
1.4402498828378119e7 -4.8927352813385045e6 0.0
0.0 0.0 0.0

2.1889050344236292e7 5.62249748805931e6 0.0
5.62249748805931e6 -2.799651165872109e6 0.0
0.0 0.0 0.0

-3.903513324523545e6 1.7359964311977133e7 0.0
1.7359964311977133e7 6.424074274468301e6 0.0
0.0 0.0 0.0

-8.750051782927994e6 8.356096431882473e6 0.0
8.356096431882473e6 1.4066538351864427e7 0.0
0.0 0.0 0.0

-1.0332317845975703e7 -196032.3717069279 0.0
-196032.3717069279 2.609093710681959e7 0.0
0.0 0.0 0.0

4.466310671130226e6 3.973952654673427e6 0.0
3.973952654673427e6 -2.3876971915126506e7 0.0
0.0 0.0 0.0

3.6426847254396332e6 6.247863507984891e6 0.0
6.247863507984891e6 -1.8052053292573243e7 0.0
0.0 0.0 0.0

4.2243567891961895e6 5.202302405787202e6 0.0
5.202302405787202e6 -2.3315578471920796e7 0.0
0.0 0.0 0.0

-3.3070080220425464e6 1.6206012515652748e7 0.0
1.6206012515652748e7 -1.8264985175643593e7 0.0
0.0 0.0 0.0

2.1049290318442164e6 2.437199118794742e7 0.0
2.437199118794742e7 -4.933049595022129e6 0.0
0.0 0.0 0.0

-9.120559439379763e6 1.5983064573719697e7 0.0
1.5983064573719697e7 2.3868853393950522e7 0.0
0.0 0.0 0.0

-4.5344355883570425e6 1.7820899311282348e7 0.0
1.7820899311282348e7 5.6273377127679e6 0.0
0.0 0.0 0.0

3.590064173966852e6 5.708393212658649e6 0.0
5.708393212658649e6 -2.414709299110654e7 0.0
0.0 0.0 0.0

-1.126153671289958e7 2.2332026759608723e6 0.0
2.2332026759608723e6 1.5256318466897398e7 0.0
0.0 0.0 0.0

-9.322481286356308e6 1.690776703190704e7 0.0
1.690776703190704e7 2.1353706731418934e7 0.0
0.0 0.0 0.0

415672.4643971976 1.760624002097504e7 0.0
1.760624002097504e7 -1.334378491704224e7 0.0
0.0 0.0 0.0

847849.791158518 1.803739784925557e7 0.0
1.803739784925557e7 -5.647695812878376e6 0.0
0.0 0.0 0.0

-3.574049259802932e6 2.472265405159386e7 0.0
2.472265405159386e7 5.105651363581216e6 0.0
0.0 0.0 0.0

1.5059844130607955e6 1.3990303399935031e7 0.0
1.3990303399935031e7 -1.9391365864533268e7 0.0
0.0 0.0 0.0

3.9492066857414953e6 6.303389870713008e6 0.0
6.303389870713008e6 -2.4519463871209122e7 0.0
0.0 0.0 0.0

3.463304751325857e6 6.227561573407576e6 0.0
6.227561573407576e6 -2.4679830488650188e7 0.0
0.0 0.0 0.0

2.0344045597794428e6 8.048523292016505e6 0.0
8.048523292016505e6 -1.3102456938385228e7 0.0
0.0 0.0 0.0

3.2909549578153975e6 6.746756599139324e6 0.0
6.746756599139324e6 -2.523341265383685e7 0.0
0.0 0.0 0.0

4.1725385724014705e6 5.636407350555366e6 0.0
5.636407350555366e6 -2.0610624177847885e7 0.0
0.0 0.0 0.0

-6.7198115041926345e6 2.927518758172734e7 0.0
2.927518758172734e7 5.290100942712411e6 0.0
0.0 0.0 0.0

4.263890759029439e6 2.579054113758035e7 0.0
2.579054113758035e7 -4.782168197312462e6 0.0
0.0 0.0 0.0

-4.969388289290858e6 2.118181915851271e7 0.0
2.118181915851271e7 7.640719418716282e6 0.0
0.0 0.0 0.0

3.4088390836233236e6 6.158883997328561e6 0.0
6.158883997328561e6 -2.1450646631754257e7 0.0
0.0 0.0 0.0

-1.9909761858067214e6 1.7631166799697373e7 0.0
1.7631166799697373e7 -6.414723070864156e6 0.0
0.0 0.0 0.0

-1.0431644682292502e6 1.4938074847958507e7 0.0
1.4938074847958507e7 -241358.57620683016 0.0
0.0 0.0 0.0

-1.562032618507382e7 1.9576844201961994e7 0.0
1.9576844201961994e7 -5.206776697404645e7 0.0
0.0 0.0 0.0

1.499802949059189e7 2.0881299008111376e7 0.0
2.0881299008111376e7 4.999344898945219e7 0.0
0.0 0.0 0.0

8.82636768447989e6 1.8829940752941146e7 0.0
1.8829940752941146e7 -808731.2157849493 0.0
0.0 0.0 0.0

1.367076118271812e7 1.9923918983247556e7 0.0
1.9923918983247556e7 -1.7906059126876984e6 0.0
0.0 0.0 0.0

1.8587440671012998e6 6.590608022911811e6 0.0
6.590608022911811e6 -4.627669640151021e7 0.0
0.0 0.0 0.0

817819.0856974702 1.624854581039937e7 0.0
1.624854581039937e7 -1.5103911160515426e7 0.0
0.0 0.0 0.0

-1.0748622433524723e6 1.823137712743661e7 0.0
1.823137712743661e7 1.1473506926899388e7 0.0
0.0 0.0 0.0

-1.1772665936545353e7 5.0484946463891715e6 0.0
5.0484946463891715e6 2.902704843485067e7 0.0
0.0 0.0 0.0

-8.380812599177938e6 1.5096913566836996e7 0.0
1.5096913566836996e7 2.886922930292397e7 0.0
0.0 0.0 0.0

-2.874212610709122e6 1.9411966851880368e7 0.0
1.9411966851880368e7 6.93648994716368e6 0.0
0.0 0.0 0.0

-933601.994719444 1.4117793898157472e7 0.0
1.4117793898157472e7 -5.268573456868708e6 0.0
0.0 0.0 0.0

-1.0209688936086055e7 2.357510980193534e7 0.0
2.357510980193534e7 -8.616591975694256e6 0.0
0.0 0.0 0.0

-4.294784940257903e6 1.9899978177743703e7 0.0
1.9899978177743703e7 1.2611917691581136e7 0.0
0.0 0.0 0.0

-7.853315367645402e6 1.2537217991197707e7 0.0
1.2537217991197707e7 1.0864855287724907e7 0.0
0.0 0.0 0.0

-3.5425712360130707e6 2.034058757821922e7 0.0
2.034058757821922e7 4.499022879660586e6 0.0
0.0 0.0 0.0

3.498633584554225e6 6.541285736167298e6 0.0
6.541285736167298e6 -3.300121818851509e7 0.0
0.0 0.0 0.0

3.637071170566271e6 7.15014324999397e6 0.0
7.15014324999397e6 -1.711989908113814e7 0.0
0.0 0.0 0.0

-204882.9925237447 1.7989198473315813e7 0.0
1.7989198473315813e7 -1.1824848974861542e7 0.0
0.0 0.0 0.0

1.8999792879073853e6 1.1415353302452227e7 0.0
1.1415353302452227e7 -2.1019829976290755e7 0.0
0.0 0.0 0.0

-1.0149114102847472e7 7.462046542087772e6 0.0
7.462046542087772e6 3.567631719132748e7 0.0
0.0 0.0 0.0

-5.679215338170793e6 2.8909198527268246e6 0.0
2.8909198527268246e6 5.6989774019339895e6 0.0
0.0 0.0 0.0

-8.243049905258557e6 6.702578065246835e6 0.0
6.702578065246835e6 4.591648722861389e7 0.0
0.0 0.0 0.0

-494789.43232907634 1.7251470355786815e7 0.0
1.7251470355786815e7 -1.1451857784460666e7 0.0
0.0 0.0 0.0

-4.636284022486819e6 2.1555918114896633e7 0.0
2.1555918114896633e7 8.782578587853596e6 0.0
0.0 0.0 0.0

-8.530788383315668e6 1.0913687550142301e7 0.0
1.0913687550142301e7 1.4945626878811274e7 0.0
0.0 0.0 0.0

1.0951807962843436e6 2.2496598332103502e7 0.0
2.2496598332103502e7 -6.2856125674421415e6 0.0
0.0 0.0 0.0

-9.784886132796466e6 6.989366228230681e6 0.0
6.989366228230681e6 1.2168611830384944e7 0.0
0.0 0.0 0.0

-5.509408441579502e6 1.9267110515352305e7 0.0
1.9267110515352305e7 1.3913044143606534e7 0.0
0.0 0.0 0.0

1.860500424026162e7 2.363088094824495e7 0.0
2.363088094824495e7 -7.430796021747781e6 0.0
0.0 0.0 0.0

-8.908035171538832e6 1.7195245794971947e7 0.0
1.7195245794971947e7 1.9008222277450655e7 0.0
0.0 0.0 0.0

-3.0410036724081757e6 3.9639618344542203e6 0.0
3.9639618344542203e6 4.783781827810407e6 0.0
0.0 0.0 0.0

-2.701016110583143e7 1.00505258153615e6 0.0
1.00505258153615e6 8.621303793641299e6 0.0
0.0 0.0 0.0

3.9131053873446863e6 4.492845552138093e6 0.0
4.492845552138093e6 -2.603772346060874e7 0.0
0.0 0.0 0.0

-7.117386272379953e6 2.6341098661594357e7 0.0
2.6341098661594357e7 6.166137772295423e6 0.0
0.0 0.0 0.0

-1.0251166130768105e7 376921.03566311736 0.0
376921.03566311736 1.286858235282978e7 0.0
0.0 0.0 0.0

-3.384114938941836e6 1.209437478120976e7 0.0
1.209437478120976e7 -893452.3708327934 0.0
0.0 0.0 0.0

-1.1418235078464355e7 988201.5705996652 0.0
988201.5705996652 2.3786724847433984e7 0.0
0.0 0.0 0.0

72437.61190454662 1.7596661908573687e7 0.0
1.7596661908573687e7 -1.3434589240533013e7 0.0
0.0 0.0 0.0

-1.1065529307074416e7 -359032.81969133194 0.0
-359032.81969133194 2.5177311367055483e7 0.0
0.0 0.0 0.0

515333.8235022668 1.4624335921840698e7 0.0
1.4624335921840698e7 -1.4731239872426113e7 0.0
0.0 0.0 0.0

-8.801825843611784e6 1.6637127476175884e7 0.0
1.6637127476175884e7 2.291125894251277e7 0.0
0.0 0.0 0.0

-1.0406702240161385e7 9.979147408957407e6 0.0
9.979147408957407e6 1.3521788290116455e7 0.0
0.0 0.0 0.0

-6.858316459244756e6 1.5542404512243612e7 0.0
1.5542404512243612e7 2.878195513329056e7 0.0
0.0 0.0 0.0

-1.0657306026879141e7 1.3977539272324132e7 0.0
1.3977539272324132e7 1.7403719089850735e7 0.0
0.0 0.0 0.0

-3.238781798641571e6 2.1194360229374662e7 0.0
2.1194360229374662e7 637220.4956719861 0.0
0.0 0.0 0.0

3.33750580661064e6 7.228593852244705e6 0.0
7.228593852244705e6 -3.1570691840969715e7 0.0
0.0 0.0 0.0

-7.055955215113381e6 1.6739098582445748e7 0.0
1.6739098582445748e7 2.459895623258729e7 0.0
0.0 0.0 0.0

9.321073979893837e6 1.8927759251278263e7 0.0
1.8927759251278263e7 5.294899543232552e6 0.0
0.0 0.0 0.0

-1.874102801294128e7 9.712797770116922e6 0.0
9.712797770116922e6 9.997627483457714e6 0.0
0.0 0.0 0.0

2.1888837403413e6 1.0692039630702678e7 0.0
1.0692039630702678e7 -2.7978195764216002e7 0.0
0.0 0.0 0.0

-7.122699926474315e6 1.1956221845217876e7 0.0
1.1956221845217876e7 1.3319501870350186e7 0.0
0.0 0.0 0.0

2.787079639167726e6 9.043473293986646e6 0.0
9.043473293986646e6 -1.4378843004424553e7 0.0
0.0 0.0 0.0

-8.522973489386095e6 -214298.73574472533 0.0
-214298.73574472533 1.3760287200396711e7 0.0
0.0 0.0 0.0

-1.0441573289478578e7 -2.0853619986174742e6 0.0
-2.0853619986174742e6 1.9574330979207486e7 0.0
0.0 0.0 0.0

1.2657856098824916e6 1.3013275580416447e7 0.0
1.3013275580416447e7 -1.7769909405979525e7 0.0
0.0 0.0 0.0

-1.0993922252848579e7 4.848706902219591e6 0.0
4.848706902219591e6 1.8344621670468345e7 0.0
0.0 0.0 0.0

-5.229845017544967e6 2.205720478132425e7 0.0
2.205720478132425e7 7.792874699555466e6 0.0
0.0 0.0 0.0

3.1477171450478975e6 1.5565749279347453e7 0.0
1.5565749279347453e7 7.043778607590906e6 0.0
0.0 0.0 0.0

-94859.47326104227 7.3594486943672355e6 0.0
7.3594486943672355e6 -2.1732501883653565e6 0.0
0.0 0.0 0.0

7563.4915052684955 1.778214631071552e7 0.0
1.778214631071552e7 -1.061318745701808e7 0.0
0.0 0.0 0.0

3.031706593347257e6 7.390974702923088e6 0.0
7.390974702923088e6 -1.95291588764937e7 0.0
0.0 0.0 0.0

-484394.1046193247 2.4098358668666787e7 0.0
2.4098358668666787e7 -4.011669707270483e6 0.0
0.0 0.0 0.0

-3.9003333764454983e6 1.4311672252516773e7 0.0
1.4311672252516773e7 -5.2557155003106095e7 0.0
0.0 0.0 0.0

3.0755309332728414e6 5.552902909105736e6 0.0
5.552902909105736e6 -1.5075482360935079e7 0.0
0.0 0.0 0.0

3.5819330329149915e6 5.567289153843088e6 0.0
5.567289153843088e6 -2.0958396795840375e7 0.0
0.0 0.0 0.0

-2.711043268759439e6 1.6291220023178445e7 0.0
1.6291220023178445e7 -1.6775570527450483e7 0.0
0.0 0.0 0.0

-801920.2128721748 7.870580719543865e6 0.0
7.870580719543865e6 -893709.7735150096 0.0
0.0 0.0 0.0

-1.1787665351345792e7 1.6913914629273683e7 0.0
1.6913914629273683e7 -4.756218007153406e7 0.0
0.0 0.0 0.0

2.0823293725604047e6 7.714363970746448e6 0.0
7.714363970746448e6 -9.056340320365623e6 0.0
0.0 0.0 0.0

3.1488875330642294e6 7.949920745320615e6 0.0
7.949920745320615e6 -1.4596753568100818e7 0.0
0.0 0.0 0.0

-475706.42862020456 1.746598567820982e7 0.0
1.746598567820982e7 -2.303527966990397e6 0.0
0.0 0.0 0.0

-1.0220997267287362e7 1.197394230886561e7 0.0
1.197394230886561e7 3.0323642976500474e7 0.0
0.0 0.0 0.0

-2.9893343445782345e6 2.557498664243992e7 0.0
2.557498664243992e7 1.7884935302176394e6 0.0
0.0 0.0 0.0

-1.1721149302560823e7 7.2331611648702305e6 0.0
7.2331611648702305e6 8.93066578308069e6 0.0
0.0 0.0 0.0

1.7375239383012457e6 1.190421552583067e7 0.0
1.190421552583067e7 -1.9891095221246038e7 0.0
0.0 0.0 0.0

185087.88936949335 1.809416640605068e7 0.0
1.809416640605068e7 1.4937017205214221e7 0.0
0.0 0.0 0.0

-431385.00409197155 2.3484611379193228e7 0.0
2.3484611379193228e7 -4.820494073580214e6 0.0
0.0 0.0 0.0

-448666.08991021104 1.287815091570817e7 0.0
1.287815091570817e7 -9.256964458575096e6 0.0
0.0 0.0 0.0

580030.2636734964 2.2948300340413995e7 0.0
2.2948300340413995e7 -5.877702507978048e6 0.0
0.0 0.0 0.0

677735.177940846 1.327108209635088e7 0.0
1.327108209635088e7 -1.0214265505300472e7 0.0
0.0 0.0 0.0

-8.802778244016226e6 -2.8155842606060705e6 0.0
-2.8155842606060705e6 1.402821685068365e7 0.0
0.0 0.0 0.0

-394566.6913810163 1.744359709671632e7 0.0
1.744359709671632e7 -1.1871621837168515e7 0.0
0.0 0.0 0.0

9.20362503933074e6 3.6256440337723814e7 0.0
3.6256440337723814e7 -7.392590496595519e6 0.0
0.0 0.0 0.0

3.881870934496053e6 2.0247362903963502e7 0.0
2.0247362903963502e7 -4.756506677589856e6 0.0
0.0 0.0 0.0

587300.8972351523 1.696036344482441e7 0.0
1.696036344482441e7 -1.4253081442425737e7 0.0
0.0 0.0 0.0

-4.196095558704102e6 1.380893293079435e7 0.0
1.380893293079435e7 5.690906603158491e6 0.0
0.0 0.0 0.0

-3.4677287688450804e6 1.6652140238255182e7 0.0
1.6652140238255182e7 -1.0453136539623864e6 0.0
0.0 0.0 0.0

4.412221182178097e6 3.5864128255810784e6 0.0
3.5864128255810784e6 -2.510079645389667e7 0.0
0.0 0.0 0.0

3.209961590634396e6 4.297509881771748e6 0.0
4.297509881771748e6 -1.1059018021736499e7 0.0
0.0 0.0 0.0

-3.156915547333726e6 8.896864484055411e6 0.0
8.896864484055411e6 -355261.11998708546 0.0
0.0 0.0 0.0

-7.373631052087952e6 2.0025666420183964e7 0.0
2.0025666420183964e7 -1.5524990094890022e6 0.0
0.0 0.0 0.0

3.260485376347296e6 5.982894409210285e6 0.0
5.982894409210285e6 -1.7620008751113437e7 0.0
0.0 0.0 0.0

125344.97959215473 1.489322406830127e7 0.0
1.489322406830127e7 -1.3107925061277334e7 0.0
0.0 0.0 0.0

-1.0214888147885515e6 1.824237337231041e7 0.0
1.824237337231041e7 9.350372147561356e6 0.0
0.0 0.0 0.0

2.558750811149138e6 1.1058565026984155e7 0.0
1.1058565026984155e7 -2.0449027815773185e7 0.0
0.0 0.0 0.0

-1.0548623768471159e7 3.733861209681715e6 0.0
3.733861209681715e6 1.741129059109094e7 0.0
0.0 0.0 0.0

-2.358338250451348e7 2.686817779575555e7 0.0
2.686817779575555e7 5.444698670372784e6 0.0
0.0 0.0 0.0

2.736462836166459e6 1.0465291221055584e7 0.0
1.0465291221055584e7 -2.3065617710377768e7 0.0
0.0 0.0 0.0

-4.775112676082314e7 3.3393050003687507e6 0.0
3.3393050003687507e6 6.558329763434824e6 0.0
0.0 0.0 0.0

2.9041262536604404e6 7.161306670615771e6 0.0
7.161306670615771e6 -1.725446075762765e7 0.0
0.0 0.0 0.0

-5.105324450848121e6 1.8258424629690014e7 0.0
1.8258424629690014e7 1.8243489971400395e7 0.0
0.0 0.0 0.0

335568.03787994385 1.310602706385714e7 0.0
1.310602706385714e7 -2.8257410120897852e7 0.0
0.0 0.0 0.0

1.0734970069073439e6 1.404576098042056e7 0.0
1.404576098042056e7 -2.1955134178014886e7 0.0
0.0 0.0 0.0

-6.392169756411825e6 2.587578083565734e6 0.0
2.587578083565734e6 1.0106530089311156e7 0.0
0.0 0.0 0.0

-1.2780204329145433e7 7.723800615793558e6 0.0
7.723800615793558e6 2.2002502858656205e7 0.0
0.0 0.0 0.0

-2.922535961799373e6 1.4194947462236963e7 0.0
1.4194947462236963e7 -2.783580463541513e6 0.0
0.0 0.0 0.0

-4.669989817717539e6 1.3101981657517163e7 0.0
1.3101981657517163e7 7.058805386050391e6 0.0
0.0 0.0 0.0

-1.2407388832721835e7 6.84027028595115e6 0.0
6.84027028595115e6 2.5276753209698766e7 0.0
0.0 0.0 0.0

-1.8561407463147189e6 1.3798454772801643e7 0.0
1.3798454772801643e7 -2.1637107402274036e6 0.0
0.0 0.0 0.0

-233042.71705694078 1.6720192742235683e7 0.0
1.6720192742235683e7 -1.2471441543821644e7 0.0
0.0 0.0 0.0

-74851.54340913612 1.7588389366569307e7 0.0
1.7588389366569307e7 -1.0143189676905062e7 0.0
0.0 0.0 0.0

-444608.0398930595 1.8092539023342554e7 0.0
1.8092539023342554e7 -1.1282126540536944e7 0.0
0.0 0.0 0.0

806130.3958378881 1.406864149457827e7 0.0
1.406864149457827e7 -1.5701280791426677e7 0.0
0.0 0.0 0.0

1.9949085695066443e6 8.570372737695621e6 0.0
8.570372737695621e6 -1.3779567178064886e7 0.0
0.0 0.0 0.0

-529000.8797768366 1.7022349638717752e7 0.0
1.7022349638717752e7 -5.516438879323717e6 0.0
0.0 0.0 0.0

-626168.6822754918 1.7042447907160044e7 0.0
1.7042447907160044e7 -1.1028647408657514e7 0.0
0.0 0.0 0.0

174520.05346000474 1.3441768169883993e7 0.0
1.3441768169883993e7 -8.398734999796223e6 0.0
0.0 0.0 0.0

-9.811990222254112e6 2.923340704962935e6 0.0
2.923340704962935e6 1.6296244684896093e7 0.0
0.0 0.0 0.0

1.0293133859477919e6 1.3562284885921925e7 0.0
1.3562284885921925e7 -1.6747530565005833e7 0.0
0.0 0.0 0.0

-1.343222160640194e7 1.839842612597642e7 0.0
1.839842612597642e7 -4.4774072631090015e7 0.0
0.0 0.0 0.0

-5.578625089315985e6 4.246565974417389e6 0.0
4.246565974417389e6 9.13171260735383e6 0.0
0.0 0.0 0.0

2.5703483395900857e6 8.272817751559316e6 0.0
8.272817751559316e6 -1.6942320187432494e7 0.0
0.0 0.0 0.0

23199.995345765725 6.9471039417461045e6 0.0
6.9471039417461045e6 -5.343682652702806e6 0.0
0.0 0.0 0.0

-2.7125104751816913e6 1.3506166491407925e7 0.0
1.3506166491407925e7 -4.7501235686061345e7 0.0
0.0 0.0 0.0

-5.42417682116553e6 1.3871748515516363e7 0.0
1.3871748515516363e7 9.917121504469745e6 0.0
0.0 0.0 0.0

3.683786047157675e6 6.676801038952381e6 0.0
6.676801038952381e6 -1.6481339931580659e7 0.0
0.0 0.0 0.0

-1.2777954766577348e7 7.126921573015076e6 0.0
7.126921573015076e6 1.9687559417866528e7 0.0
0.0 0.0 0.0

-9.509636331087768e6 1.0456759075412068e6 0.0
1.0456759075412068e6 3.797185974322542e7 0.0
0.0 0.0 0.0

445772.1761183521 1.687514298574637e7 0.0
1.687514298574637e7 -1.7256116656270542e6 0.0
0.0 0.0 0.0

1.1393696276253029e6 1.5344099929931652e7 0.0
1.5344099929931652e7 3.76123774596875e6 0.0
0.0 0.0 0.0

-6.706711836419695e6 2.225363618934042e7 0.0
2.225363618934042e7 7.336454251844784e6 0.0
0.0 0.0 0.0

-4.0275176627457654e6 1.8737028703702316e7 0.0
1.8737028703702316e7 3.3321258520173808e6 0.0
0.0 0.0 0.0

4.152942982327372e6 4.88331704556141e6 0.0
4.88331704556141e6 -2.8436168347359754e7 0.0
0.0 0.0 0.0

4.1381001133469567e6 5.450439660494902e6 0.0
5.450439660494902e6 -2.8843475960926566e7 0.0
0.0 0.0 0.0

-1.1579519134844096e7 1.3121994987131834e7 0.0
1.3121994987131834e7 2.313290974766752e7 0.0
0.0 0.0 0.0

-9986.638551927172 1.5975917078828378e7 0.0
1.5975917078828378e7 -1.308684426883451e7 0.0
0.0 0.0 0.0

6.078115212210738e6 1.9132058732502263e7 0.0
1.9132058732502263e7 -103211.46126308199 0.0
0.0 0.0 0.0

-9.664787270270733e6 3.4224265186988185e6 0.0
3.4224265186988185e6 4.3386686575506434e7 0.0
0.0 0.0 0.0

-4.212331051621016e6 1.6765674790476616e7 0.0
1.6765674790476616e7 7.765879253828617e6 0.0
0.0 0.0 0.0

-1.091284054669854e6 1.576942704343695e7 0.0
1.576942704343695e7 -8.933024863512693e6 0.0
0.0 0.0 0.0

-3.9049983972427696e6 1.4775414388496531e7 0.0
1.4775414388496531e7 4.3222763567032516e7 0.0
0.0 0.0 0.0

338191.87078421423 5.060772394941783e6 0.0
5.060772394941783e6 -1.4769137114888416e6 0.0
0.0 0.0 0.0

-1.370393334972159e6 2.041477287335344e7 0.0
2.041477287335344e7 -6.7489615491701355e6 0.0
0.0 0.0 0.0

2.8273108759436323e6 1.8782125755739145e7 0.0
1.8782125755739145e7 1.3910220929518443e7 0.0
0.0 0.0 0.0

3.3211574173170393e6 7.809586482861121e6 0.0
7.809586482861121e6 -1.6201773846452165e7 0.0
0.0 0.0 0.0

-3.0261086526628905e6 1.2652639746935997e7 0.0
1.2652639746935997e7 -2.034915944389816e6 0.0
0.0 0.0 0.0

-7.968851726742813e6 1.3964261748901255e7 0.0
1.3964261748901255e7 3.3166793493573803e7 0.0
0.0 0.0 0.0

3.037973873128211e6 8.62527404160907e6 0.0
8.62527404160907e6 -2.882610594397421e7 0.0
0.0 0.0 0.0

708559.114421431 1.651238331286987e7 0.0
1.651238331286987e7 -1.5290212631056005e7 0.0
0.0 0.0 0.0

-1.0117282416590268e7 -651447.6474864037 0.0
-651447.6474864037 3.0603080322383437e7 0.0
0.0 0.0 0.0

2.616605076031314e6 9.916540282513143e6 0.0
9.916540282513143e6 -2.765208313503773e7 0.0
0.0 0.0 0.0

428364.7409765143 9.528463908118216e6 0.0
9.528463908118216e6 -6.027156225578467e6 0.0
0.0 0.0 0.0

3.482866612929251e6 8.118804366814408e6 0.0
8.118804366814408e6 -2.4424010273902014e7 0.0
0.0 0.0 0.0

287192.6226060712 1.3440024892554477e7 0.0
1.3440024892554477e7 -1.2392697875253558e7 0.0
0.0 0.0 0.0

215979.90588575415 1.5183424039249104e7 0.0
1.5183424039249104e7 -1.3656560615634995e7 0.0
0.0 0.0 0.0

-1.2367158462144814e7 5.58075199545104e6 0.0
5.58075199545104e6 2.4781570163311303e7 0.0
0.0 0.0 0.0

2.27947532459218e6 1.8026177860748276e7 0.0
1.8026177860748276e7 3.5093473460147097e6 0.0
0.0 0.0 0.0

-9.709885881726542e6 1.855614112909956e6 0.0
1.855614112909956e6 1.5152985741756078e7 0.0
0.0 0.0 0.0

1.3987582109492226e6 1.4474072893428903e7 0.0
1.4474072893428903e7 -1.840667502052806e7 0.0
0.0 0.0 0.0

-2.6650089681195975e6 5.23316850962004e6 0.0
5.23316850962004e6 3.6723688437643005e6 0.0
0.0 0.0 0.0

1.0378803465585457e6 5.328001006594337e6 0.0
5.328001006594337e6 -6.376666166175086e6 0.0
0.0 0.0 0.0

64481.02519536298 1.4610022973612431e7 0.0
1.4610022973612431e7 -1.259076342460452e7 0.0
0.0 0.0 0.0

3.995943350846813e6 5.385733793161629e6 0.0
5.385733793161629e6 -1.6723485632138312e7 0.0
0.0 0.0 0.0

-1.1719845755143965e7 1.3721533675110172e6 0.0
1.3721533675110172e6 2.16667810558452e7 0.0
0.0 0.0 0.0

3.302065163291361e6 3.5608616620631563e6 0.0
3.5608616620631563e6 -4.146682354618674e7 0.0
0.0 0.0 0.0

-1.1284530221060275e6 1.5842539077951234e7 0.0
1.5842539077951234e7 -3.7615096308581145e6 0.0
0.0 0.0 0.0

-1.2613334629899915e7 8.937501396543402e6 0.0
8.937501396543402e6 1.7651509967248715e7 0.0
0.0 0.0 0.0

-7.454037172545861e6 2.1317609048999663e7 0.0
2.1317609048999663e7 5.236473240243828e6 0.0
0.0 0.0 0.0

1.6040537474958003e6 1.8864038243062638e7 0.0
1.8864038243062638e7 7.383092130573147e6 0.0
0.0 0.0 0.0

-8.541283137941802e6 1.7096942944993887e7 0.0
1.7096942944993887e7 2.2046466956165526e7 0.0
0.0 0.0 0.0

-6.687944467696238e6 1.7676466592831533e7 0.0
1.7676466592831533e7 1.7877755426803388e7 0.0
0.0 0.0 0.0

-9.762397643054023e6 -2.7214703868376543e6 0.0
-2.7214703868376543e6 3.0491293382320773e7 0.0
0.0 0.0 0.0

-3.2859758990038084e6 1.2729983828302931e7 0.0
1.2729983828302931e7 2.8400519630023576e6 0.0
0.0 0.0 0.0

3.6746352432696004e6 1.8705219111924853e7 0.0
1.8705219111924853e7 1.3135040526717061e7 0.0
0.0 0.0 0.0

-4.18186331799218e6 2.01319437350973e7 0.0
2.01319437350973e7 1.0429224882968824e7 0.0
0.0 0.0 0.0

-1.2738332952647693e7 6.686965645011473e6 0.0
6.686965645011473e6 2.1286380255582046e7 0.0
0.0 0.0 0.0

1.2321047648422597e6 1.3225723281163782e7 0.0
1.3225723281163782e7 -2.066557174039591e7 0.0
0.0 0.0 0.0

2.7766425616768654e6 6.820239159531585e6 0.0
6.820239159531585e6 -1.4900681905284245e7 0.0
0.0 0.0 0.0

681809.1715961816 1.5753518577567933e7 0.0
1.5753518577567933e7 -1.2742999245383339e7 0.0
0.0 0.0 0.0

-3.1200491752443956e6 1.1518594207382841e7 0.0
1.1518594207382841e7 2.6611237213035533e6 0.0
0.0 0.0 0.0

3.2921852321638437e6 5.296188691836181e6 0.0
5.296188691836181e6 -1.110087838658011e7 0.0
0.0 0.0 0.0

-1.5335965413100063e6 2.090071870345383e7 0.0
2.090071870345383e7 -5.749058095036189e6 0.0
0.0 0.0 0.0

-9.83266093690563e6 2.288750864979564e6 0.0
2.288750864979564e6 3.619278873550367e7 0.0
0.0 0.0 0.0

-1.0265384274764968e7 378277.91505995253 0.0
378277.91505995253 3.1651694229216684e7 0.0
0.0 0.0 0.0

-1.1067357603801323e7 1.015407515119743e7 0.0
1.015407515119743e7 3.0531115067247275e7 0.0
0.0 0.0 0.0

-921119.4458684467 1.920272842499418e7 0.0
1.920272842499418e7 -9.27083219279394e6 0.0
0.0 0.0 0.0

-1.4624968731360026e6 7.935570392549679e6 0.0
7.935570392549679e6 -3.086173234888674e6 0.0
0.0 0.0 0.0

1.1375008755619068e7 2.031173372109615e7 0.0
2.031173372109615e7 9.685536778354397e6 0.0
0.0 0.0 0.0

8.987321695546856e6 1.9569923203598768e7 0.0
1.9569923203598768e7 3.9119178446333714e7 0.0
0.0 0.0 0.0

3.587249976177034e6 6.244626164460361e6 0.0
6.244626164460361e6 -1.3981487295847774e7 0.0
0.0 0.0 0.0

-1.0891497674478918e7 3.3165047602087935e6 0.0
3.3165047602087935e6 1.912484003061043e7 0.0
0.0 0.0 0.0

-3.377521303784392e6 1.3870154713803161e7 0.0
1.3870154713803161e7 2.940534233105615e6 0.0
0.0 0.0 0.0

-5.571082225565083e6 1.9037958931700397e7 0.0
1.9037958931700397e7 1.3621203970689256e7 0.0
0.0 0.0 0.0

3.8390366238485295e6 5.825467346942697e6 0.0
5.825467346942697e6 -3.08616596526825e7 0.0
0.0 0.0 0.0

3.760090807387635e6 6.753307745381629e6 0.0
6.753307745381629e6 -2.6722263236229185e7 0.0
0.0 0.0 0.0

-4.576772430965889e6 5.755039777132692e6 0.0
5.755039777132692e6 2.9204420445146277e6 0.0
0.0 0.0 0.0

-3.98683408101328e6 1.7678792889245715e7 0.0
1.7678792889245715e7 7.512244663430496e6 0.0
0.0 0.0 0.0

-4.37852636528774e6 1.5160525620450383e7 0.0
1.5160525620450383e7 4.000379454998802e7 0.0
0.0 0.0 0.0

467486.65906980773 1.6535377425333453e7 0.0
1.6535377425333453e7 -1.2191700033737542e7 0.0
0.0 0.0 0.0

-3.2859018860314228e6 6.79630458930612e6 0.0
6.79630458930612e6 4.482594460660701e6 0.0
0.0 0.0 0.0

3.8946249796424657e6 6.065825862160252e6 0.0
6.065825862160252e6 -2.782928172076192e7 0.0
0.0 0.0 0.0

-4.457274467220202e6 1.9561058401478034e7 0.0
1.9561058401478034e7 8.353051671848005e6 0.0
0.0 0.0 0.0

2.7526116377833867e6 8.057538408336426e6 0.0
8.057538408336426e6 -1.865239364055299e7 0.0
0.0 0.0 0.0

-9.110243998646794e6 7.443837531005646e6 0.0
7.443837531005646e6 1.0476505877406001e6 0.0
0.0 0.0 0.0

391230.2354607554 1.4057374682577811e7 0.0
1.4057374682577811e7 -1.3604503761436015e7 0.0
0.0 0.0 0.0

-2.7930302335739816e6 3.652482367989991e6 0.0
3.652482367989991e6 492783.0856064925 0.0
0.0 0.0 0.0

-2.8518526143171843e6 1.0239032882855387e7 0.0
1.0239032882855387e7 2.3948398527435544e6 0.0
0.0 0.0 0.0

-2.439557494898974e6 8.864789243626637e6 0.0
8.864789243626637e6 2.0401562677405719e6 0.0
0.0 0.0 0.0

1031.3085444872268 1.4264998857157553e7 0.0
1.4264998857157553e7 -1.2038422300066471e7 0.0
0.0 0.0 0.0

-3.2319777585614724e6 1.3734400580007488e7 0.0
1.3734400580007488e7 -1.7672195853510038e6 0.0
0.0 0.0 0.0

-1.2669252500314465e7 7.193369472656819e6 0.0
7.193369472656819e6 2.3642656837888673e7 0.0
0.0 0.0 0.0

-7.208792335677544e6 1.2900891001919664e7 0.0
1.2900891001919664e7 3.847878914356e7 0.0
0.0 0.0 0.0

-9.818404436299467e6 1.0210577669169256e7 0.0
1.0210577669169256e7 3.488328023283545e7 0.0
0.0 0.0 0.0

-7.652280621104473e6 1.3431977323565472e7 0.0
1.3431977323565472e7 3.5666488513588585e7 0.0
0.0 0.0 0.0

-7.573284342478313e6 6.5828791747174375e6 0.0
6.5828791747174375e6 5.4074317130658634e7 0.0
0.0 0.0 0.0

-1.0358156152210333e6 1.8268716378703788e7 0.0
1.8268716378703788e7 7.24765723998915e6 0.0
0.0 0.0 0.0

-9.990783481766442e6 4.4637820685968045e6 0.0
4.4637820685968045e6 4.0851566068892606e7 0.0
0.0 0.0 0.0

-2.316986024141646e6 1.967066532166656e7 0.0
1.967066532166656e7 -4.659089631917146e6 0.0
0.0 0.0 0.0

-1.0301283072081115e6 1.702568218496704e7 0.0
1.702568218496704e7 -1.0273678578599267e7 0.0
0.0 0.0 0.0

-4.645113650615838e7 2.9465846999158997e7 0.0
2.9465846999158997e7 -6.822698054345174e6 0.0
0.0 0.0 0.0

3.2168117038333984e6 7.462901447112748e6 0.0
7.462901447112748e6 -1.3883662438867727e7 0.0
0.0 0.0 0.0

2.393703919142519e6 1.167032273334814e7 0.0
1.167032273334814e7 -1.954039709110989e7 0.0
0.0 0.0 0.0

-1.2486719445993076e6 2.1062529934160497e7 0.0
2.1062529934160497e7 -4.970400865518391e6 0.0
0.0 0.0 0.0

-3.0146300610410646e6 2.0324569093474917e7 0.0
2.0324569093474917e7 2.972990720154181e6 0.0
0.0 0.0 0.0

3.6572113598244553e6 7.520719702110116e6 0.0
7.520719702110116e6 -2.397972799067642e7 0.0
0.0 0.0 0.0

1.2285839329082102e7 2.152202756315313e7 0.0
2.152202756315313e7 -4.6875247756852945e6 0.0
0.0 0.0 0.0

-4.271180439905512e6 1.0781180510558529e7 0.0
1.0781180510558529e7 1.542898141281471e6 0.0
0.0 0.0 0.0

2.293593887975376e6 6.045825484692449e6 0.0
6.045825484692449e6 -4.273982223245467e7 0.0
0.0 0.0 0.0

-3.997108767359716e6 9.429589859985009e6 0.0
9.429589859985009e6 1.1625217006840152e6 0.0
0.0 0.0 0.0

2.378279197081049e6 7.957490142677322e6 0.0
7.957490142677322e6 -1.4683447774872314e7 0.0
0.0 0.0 0.0

-8.223240163809521e6 1.736385813645333e7 0.0
1.736385813645333e7 2.1201618957202457e7 0.0
0.0 0.0 0.0

-3.016059769625924e7 2.601163922257891e7 0.0
2.601163922257891e7 3.274714810538741e6 0.0
0.0 0.0 0.0

-1.0771015537008552e7 -1.3153731778906956e6 0.0
-1.3153731778906956e6 2.477114547646569e7 0.0
0.0 0.0 0.0

270453.4586278978 1.7265084666022737e7 0.0
1.7265084666022737e7 -1.1605572140252598e7 0.0
0.0 0.0 0.0

-1.3147969535081051e7 2.372366938417157e7 0.0
2.372366938417157e7 -3.3644739895328116e6 0.0
0.0 0.0 0.0

3.574299877162257e6 5.70212608666347e6 0.0
5.70212608666347e6 -1.3496731073218804e7 0.0
0.0 0.0 0.0

-1.199250027144027e7 7.612256757426008e6 0.0
7.612256757426008e6 2.1032148926651407e7 0.0
0.0 0.0 0.0

570340.7648429913 1.5178524911773942e7 0.0
1.5178524911773942e7 -1.1700878966125987e7 0.0
0.0 0.0 0.0

-729911.2566275392 1.4497150496855697e7 0.0
1.4497150496855697e7 -6.144353256712841e6 0.0
0.0 0.0 0.0

-4.428960776250961e6 1.2053348147225307e7 0.0
1.2053348147225307e7 1.8107856758071538e6 0.0
0.0 0.0 0.0

-1.1356101953099348e7 8.576775736703228e6 0.0
8.576775736703228e6 3.0668353804525606e7 0.0
0.0 0.0 0.0

4.387063855766956e6 4.367282078323886e6 0.0
4.367282078323886e6 -2.609509024474092e7 0.0
0.0 0.0 0.0

3.3622538790964615e6 5.505816563481295e6 0.0
5.505816563481295e6 -1.6674741118029015e7 0.0
0.0 0.0 0.0

-4.460861009276344e6 1.9283726612886727e7 0.0
1.9283726612886727e7 7.508175008245848e6 0.0
0.0 0.0 0.0

-8.477642191822328e6 1.71662958709683e6 0.0
1.71662958709683e6 9.72152270536732e6 0.0
0.0 0.0 0.0

201712.24816749804 1.3074246138415743e7 0.0
1.3074246138415743e7 -1.1783334013653412e7 0.0
0.0 0.0 0.0

3.787320931164345e6 6.793182193128636e6 0.0
6.793182193128636e6 -2.0344352038991973e7 0.0
0.0 0.0 0.0

-1.0591818463557148e7 3.495183888679918e6 0.0
3.495183888679918e6 3.401250829584201e7 0.0
0.0 0.0 0.0

-1.0955009968038176e6 1.8401002870666597e7 0.0
1.8401002870666597e7 5.052073078078036e6 0.0
0.0 0.0 0.0

-1.1294715689095527e7 235607.558409704 0.0
235607.558409704 2.1047598149535216e7 0.0
0.0 0.0 0.0

2.074222114783639e6 1.1168438004740551e7 0.0
1.1168438004740551e7 -2.6595374858065084e7 0.0
0.0 0.0 0.0

-191923.45324564446 1.6161939168608764e7 0.0
1.6161939168608764e7 -1.7000249035224706e7 0.0
0.0 0.0 0.0

-1.2165161455037024e7 1.014173216996138e7 0.0
1.014173216996138e7 1.699597243017656e7 0.0
0.0 0.0 0.0

1.306020824058191e6 1.3984427799450383e7 0.0
1.3984427799450383e7 -2.070277724122645e7 0.0
0.0 0.0 0.0

1.1847652832016684e6 1.4342415221774418e7 0.0
1.4342415221774418e7 -1.429590390016511e7 0.0
0.0 0.0 0.0

-8101.409538544845 3.1791910665173642e6 0.0
3.1791910665173642e6 -271190.6163759206 0.0
0.0 0.0 0.0

-1.094113536705378e7 -765688.6404150516 0.0
-765688.6404150516 1.836072640045406e7 0.0
0.0 0.0 0.0

343201.2914816658 1.138531977670509e7 0.0
1.138531977670509e7 -1.0658162006441863e7 0.0
0.0 0.0 0.0

736444.2419347032 1.0376007298705818e7 0.0
1.0376007298705818e7 -1.0941867506043099e7 0.0
0.0 0.0 0.0

669470.8016913314 1.5457539266587952e7 0.0
1.5457539266587952e7 -1.2221988343881153e7 0.0
0.0 0.0 0.0

-1.3965030752001996e6 1.8529011140692968e7 0.0
1.8529011140692968e7 2.842639225713159e6 0.0
0.0 0.0 0.0

1.62648351842116e6 9.187464078325758e6 0.0
9.187464078325758e6 -1.2852777239935255e7 0.0
0.0 0.0 0.0

-1.0042536942384746e6 1.2514788496634198e7 0.0
1.2514788496634198e7 -3.855268774779653e7 0.0
0.0 0.0 0.0

-7.940336611850695e6 3.2396813591191317e6 0.0
3.2396813591191317e6 9.062459383029561e6 0.0
0.0 0.0 0.0

-8.636999647206508e6 1.67387320408659e7 0.0
1.67387320408659e7 -3.364390146730026e7 0.0
0.0 0.0 0.0

-9.995068131154558e7 1.1657562710819567e7 0.0
1.1657562710819567e7 1.376158749267295e6 0.0
0.0 0.0 0.0

8.345661949689533e7 1.259380998885628e7 0.0
1.259380998885628e7 3.3900452200405933e6 0.0
0.0 0.0 0.0

-2.1103929502039663e6 1.2933436421769494e7 0.0
1.2933436421769494e7 -4.415993539867499e7 0.0
0.0 0.0 0.0

-9.023541740594044e6 1.4518201172416821e7 0.0
1.4518201172416821e7 1.8250423854877092e7 0.0
0.0 0.0 0.0

-3.6429052908857926e6 1.8064299041424695e7 0.0
1.8064299041424695e7 266246.68341583083 0.0
0.0 0.0 0.0

-22019.60307529755 1.2330151665227018e7 0.0
1.2330151665227018e7 -1.0360167454702701e7 0.0
0.0 0.0 0.0

-152169.91460908344 6.157391295249098e6 0.0
6.157391295249098e6 -4.381320482931342e6 0.0
0.0 0.0 0.0

617419.3060238285 6.8683834139575185e6 0.0
6.8683834139575185e6 -3.35086035922082e6 0.0
0.0 0.0 0.0

-4.474478521643355e6 1.3256623519619033e7 0.0
1.3256623519619033e7 1.9910256895033412e6 0.0
0.0 0.0 0.0

-1.5305278944535665e6 1.2689022593552185e7 0.0
1.2689022593552185e7 -4.119711867558585e7 0.0
0.0 0.0 0.0

1.3054655841965103e6 1.0971583568345066e7 0.0
1.0971583568345066e7 -9.99822294747624e6 0.0
0.0 0.0 0.0

-1.1483065625952488e7 1.74788269107474e6 0.0
1.74788269107474e6 2.7145557770917516e7 0.0
0.0 0.0 0.0

6.732441946226156e7 1.5249990940882467e7 0.0
1.5249990940882467e7 -308002.17213876545 0.0
0.0 0.0 0.0

919431.5463391282 1.1952028991832875e7 0.0
1.1952028991832875e7 -9.761785081726082e6 0.0
0.0 0.0 0.0

3.9763590188730443e6 6.402726661934721e6 0.0
6.402726661934721e6 -2.297732927754572e7 0.0
0.0 0.0 0.0

3.821708339709199e6 6.952329231092815e6 0.0
6.952329231092815e6 -2.3477443957853496e7 0.0
0.0 0.0 0.0

-7.937121769509094e6 1.765109695718881e7 0.0
1.765109695718881e7 2.033219934941051e7 0.0
0.0 0.0 0.0

1.74603974678032e6 1.3253447620779848e7 0.0
1.3253447620779848e7 -1.6249983958654871e7 0.0
0.0 0.0 0.0

-2.608555051172842e6 1.899990654557276e7 0.0
1.899990654557276e7 -9.669719790548066e6 0.0
0.0 0.0 0.0

4.565629121170815e6 1.9958955409622952e7 0.0
1.9958955409622952e7 -3.7970251014069146e6 0.0
0.0 0.0 0.0

-1.7979192320611496e6 1.2187251546964923e7 0.0
1.2187251546964923e7 -1.3057889433167726e6 0.0
0.0 0.0 0.0

1.7359776844630165e6 5.815646987257131e6 0.0
5.815646987257131e6 -5.531851640514036e6 0.0
0.0 0.0 0.0

-2.277160104751363e6 8.412173095820438e6 0.0
8.412173095820438e6 -1.7417859891778813e6 0.0
0.0 0.0 0.0

-4.759367064669157e6 5.907762999823019e6 0.0
5.907762999823019e6 7.694386528200183e6 0.0
0.0 0.0 0.0

-4.401940444889342e6 1.506429123752567e7 0.0
1.506429123752567e7 -2.4590280804874357e7 0.0
0.0 0.0 0.0

2.5016064502659086e6 1.1009899094817018e7 0.0
1.1009899094817018e7 -2.3445947445398692e7 0.0
0.0 0.0 0.0

2.7143512297799177e6 6.200976671753963e6 0.0
6.200976671753963e6 -1.4288654081309669e7 0.0
0.0 0.0 0.0

2.523289581862822e6 8.71612332277516e6 0.0
8.71612332277516e6 -1.2066918081643317e7 0.0
0.0 0.0 0.0

-2.329704612521074e6 1.4342152145586848e7 0.0
1.4342152145586848e7 -839794.6307089311 0.0
0.0 0.0 0.0

2.3319702303703837e6 8.42845439485597e6 0.0
8.42845439485597e6 -1.5358601963622302e7 0.0
0.0 0.0 0.0

-716709.0977872825 7.430404049505835e6 0.0
7.430404049505835e6 -4.243427792928033e6 0.0
0.0 0.0 0.0

4.244596244519896e6 4.778088719509991e6 0.0
4.778088719509991e6 -1.7574744144170277e7 0.0
0.0 0.0 0.0

782272.9850557824 1.3965768943485137e7 0.0
1.3965768943485137e7 -1.1567634080608558e7 0.0
0.0 0.0 0.0

-7.639759922362768e6 5.05318893241077e6 0.0
5.05318893241077e6 7.859684557650339e6 0.0
0.0 0.0 0.0

-1.2612119546118162e6 2.038809982019737e7 0.0
2.038809982019737e7 -7.382800936240001e6 0.0
0.0 0.0 0.0

2.901305360530719e6 5.6667087825568095e6 0.0
5.6667087825568095e6 -3.7163706026045576e7 0.0
0.0 0.0 0.0

506665.3002785761 1.4835276326958144e7 0.0
1.4835276326958144e7 -1.11684915436606e7 0.0
0.0 0.0 0.0

3.417909344982677e6 8.1049832799325995e6 0.0
8.1049832799325995e6 -1.8384014724500228e7 0.0
0.0 0.0 0.0

-1.5656388550204714e6 4.744811486767108e6 0.0
4.744811486767108e6 2.1699538945558844e6 0.0
0.0 0.0 0.0

3.625377509687758e6 7.4777706873876965e6 0.0
7.4777706873876965e6 -1.939608167785848e7 0.0
0.0 0.0 0.0

-3.5108733067421885e6 1.870644385277519e7 0.0
1.870644385277519e7 5.061662657426052e6 0.0
0.0 0.0 0.0

47146.96224806784 2.1821233661018442e7 0.0
2.1821233661018442e7 -6.986192405027923e6 0.0
0.0 0.0 0.0

-685206.3827701034 1.671310157390665e7 0.0
1.671310157390665e7 -1.656699090180481e7 0.0
0.0 0.0 0.0

572025.5050744759 6.369319079338598e6 0.0
6.369319079338598e6 -6.376839317647984e6 0.0
0.0 0.0 0.0

38227.504473031266 2.2623697813841492e7 0.0
2.2623697813841492e7 -5.387671480344888e6 0.0
0.0 0.0 0.0

-267913.6660334645 1.903548395121128e7 0.0
1.903548395121128e7 -9.048410104369484e6 0.0
0.0 0.0 0.0

-1.2254314548476052e7 5.786015572434247e6 0.0
5.786015572434247e6 1.6662033941824127e7 0.0
0.0 0.0 0.0

-4.0156328180544954e6 1.9854645095213596e7 0.0
1.9854645095213596e7 1.2229439772507872e7 0.0
0.0 0.0 0.0

-3.7485792907958115e6 4.253108616310059e6 0.0
4.253108616310059e6 2.2323961673884825e6 0.0
0.0 0.0 0.0

-2.107978841448858e6 9.683339146536622e6 0.0
9.683339146536622e6 843862.582908784 0.0
0.0 0.0 0.0

-9.87615052152005e6 6.56385625777358e6 0.0
6.56385625777358e6 3.829045473653823e7 0.0
0.0 0.0 0.0

-5.878983949729289e6 1.2389042840027602e7 0.0
1.2389042840027602e7 6.030290153059039e6 0.0
0.0 0.0 0.0

2.107564884707881e6 1.7474326413764477e7 0.0
1.7474326413764477e7 1.1128789374388088e6 0.0
0.0 0.0 0.0

591125.7358467686 1.2904779011693174e7 0.0
1.2904779011693174e7 -9.460206755429568e6 0.0
0.0 0.0 0.0

-94971.17297949037 1.394489007504069e7 0.0
1.394489007504069e7 -1.1390718767233796e7 0.0
0.0 0.0 0.0

-828692.3916249853 1.2468545850136679e7 0.0
1.2468545850136679e7 -3.6136391088483684e7 0.0
0.0 0.0 0.0

2.512137949332224e6 6.018724706829865e6 0.0
6.018724706829865e6 -3.951209723582013e7 0.0
0.0 0.0 0.0

-1.2863936352296751e7 9.11895518847946e6 0.0
9.11895518847946e6 2.1134699009657398e7 0.0
0.0 0.0 0.0

-3.260634785235606e6 2.1649032162690967e7 0.0
2.1649032162690967e7 5.7965295330087505e6 0.0
0.0 0.0 0.0

-1.13316106532132e7 2.3214506140632643e6 0.0
2.3214506140632643e6 3.013325873592715e7 0.0
0.0 0.0 0.0

39796.46192362672 1.7946924415160794e7 0.0
1.7946924415160794e7 -1.1056497944163892e7 0.0
0.0 0.0 0.0

-69401.24419938773 1.7510365339515477e7 0.0
1.7510365339515477e7 -1.3157165737557532e7 0.0
0.0 0.0 0.0

1.1247458423283355e7 5.706779066469977e6 0.0
5.706779066469977e6 -2.2356866036633407e6 0.0
0.0 0.0 0.0

1.6183356354604065e6 8.89082011631625e6 0.0
8.89082011631625e6 -8.857428130947525e6 0.0
0.0 0.0 0.0

-9.745178589443743e6 1.1781666153121885e7 0.0
1.1781666153121885e7 1.346520144680579e7 0.0
0.0 0.0 0.0

-2.0554550002950523e6 1.653833005347165e7 0.0
1.653833005347165e7 -1.5731456833357155e7 0.0
0.0 0.0 0.0

730438.6888579922 1.3644613630572392e7 0.0
1.3644613630572392e7 -1.0921349372728024e7 0.0
0.0 0.0 0.0

885465.0654399004 1.4644047370335307e7 0.0
1.4644047370335307e7 -1.2722984186964964e7 0.0
0.0 0.0 0.0

-1.0489707819221817e7 1.1896161892525181e7 0.0
1.1896161892525181e7 2.989360375956097e7 0.0
0.0 0.0 0.0

-1.2776710386818629e7 8.5986539191693e6 0.0
8.5986539191693e6 1.912695881073327e7 0.0
0.0 0.0 0.0

-205865.48533571186 1.3603399515320385e7 0.0
1.3603399515320385e7 -1.073601269928993e7 0.0
0.0 0.0 0.0

-1.2717929226655131e6 1.6539301385362355e7 0.0
1.6539301385362355e7 -8.615330434771752e6 0.0
0.0 0.0 0.0

-5.125284967083673e6 1.831144980921377e7 0.0
1.831144980921377e7 -7.302345971060837e6 0.0
0.0 0.0 0.0

-2.5059252740389085e6 2.2017402223177817e7 0.0
2.2017402223177817e7 -2.1092644296440138e6 0.0
0.0 0.0 0.0

2.358397842922602e6 1.1081064350895863e7 0.0
1.1081064350895863e7 -2.498478934152702e7 0.0
0.0 0.0 0.0

-2.404408206372555e6 2.5906559606068235e7 0.0
2.5906559606068235e7 2.2818262747796117e6 0.0
0.0 0.0 0.0

-8.496105271176685e6 1.2758092849680135e7 0.0
1.2758092849680135e7 1.1957449090875577e7 0.0
0.0 0.0 0.0

-5.81389903617258e6 2.148736888654623e7 0.0
2.148736888654623e7 -8.116062836669426e6 0.0
0.0 0.0 0.0

-13096.637321464543 1.5785495617477745e7 0.0
1.5785495617477745e7 -1.6158089867685921e6 0.0
0.0 0.0 0.0

-425104.80498639215 1.697119255122407e7 0.0
1.697119255122407e7 -1.5479614995978033e7 0.0
0.0 0.0 0.0

-1.6896125241533937e6 1.6930451310661986e7 0.0
1.6930451310661986e7 -9.085681758880664e6 0.0
0.0 0.0 0.0

-4.0737322840864547e6 2.1046354103835456e7 0.0
2.1046354103835456e7 7.970264201518841e6 0.0
0.0 0.0 0.0

116435.05575696984 1.680565388121114e7 0.0
1.680565388121114e7 -1.069009131973746e7 0.0
0.0 0.0 0.0

-324752.8538013329 1.3260038789521722e7 0.0
1.3260038789521722e7 -1.001987661494036e7 0.0
0.0 0.0 0.0

-11859.85970085673 1.593624530107177e7 0.0
1.593624530107177e7 -1.8499003055862732e7 0.0
0.0 0.0 0.0

-1.1355686817598387e6 1.1116078742966125e7 0.0
1.1116078742966125e7 -6.007828631275193e6 0.0
0.0 0.0 0.0

-3.4367602232551863e6 2.031897136456858e7 0.0
2.031897136456858e7 1.5660083144392222e6 0.0
0.0 0.0 0.0

-2.364167236633626e6 2.156027081167643e7 0.0
2.156027081167643e7 -3.1109324336339603e6 0.0
0.0 0.0 0.0

-611848.7067660254 4.376954428491481e6 0.0
4.376954428491481e6 615933.8334399656 0.0
0.0 0.0 0.0

676852.5278946161 9.86923977287719e6 0.0
9.86923977287719e6 -1.0204942324460104e7 0.0
0.0 0.0 0.0

-1.9754328490290404e6 2.2867410638217073e7 0.0
2.2867410638217073e7 -580278.047538582 0.0
0.0 0.0 0.0

-4.244790334213499e6 1.8304060007730056e7 0.0
1.8304060007730056e7 4.421788864525891e6 0.0
0.0 0.0 0.0

-7.572498255688998e7 6.934840175775746e6 0.0
6.934840175775746e6 3.6740391637788564e6 0.0
0.0 0.0 0.0

991126.1796049485 1.442005475998614e7 0.0
1.442005475998614e7 -2.077453110101599e7 0.0
0.0 0.0 0.0

-4.899163748821262e6 1.7273145622975558e7 0.0
1.7273145622975558e7 6.887722377820363e6 0.0
0.0 0.0 0.0

-1.8538624978121736e6 1.9927117474566244e7 0.0
1.9927117474566244e7 -3.1995920825347733e6 0.0
0.0 0.0 0.0

-4.604997915897205e6 1.815545221572954e7 0.0
1.815545221572954e7 6.6922143025552165e6 0.0
0.0 0.0 0.0

-1.5641725155456746e6 1.875392449328957e7 0.0
1.875392449328957e7 688835.3797704249 0.0
0.0 0.0 0.0

-355711.4893626352 1.8086896893996928e7 0.0
1.8086896893996928e7 -9.303243310239036e6 0.0
0.0 0.0 0.0

-7.221151559645398e6 1.3732970516152559e7 0.0
1.3732970516152559e7 1.0254414260704348e7 0.0
0.0 0.0 0.0

-1.1767632550086936e7 5.527881751220478e6 0.0
5.527881751220478e6 2.3502587584752347e7 0.0
0.0 0.0 0.0

-504344.3571474841 1.1676191637195555e7 0.0
1.1676191637195555e7 -4.961099457546597e6 0.0
0.0 0.0 0.0

2.9113809297402906e6 5.820325935290506e6 0.0
5.820325935290506e6 -1.0206124788562872e7 0.0
0.0 0.0 0.0

-1.696964229245285e6 1.4847452507101825e7 0.0
1.4847452507101825e7 -6.691810964373631e6 0.0
0.0 0.0 0.0

-679471.0121406345 1.865921454781504e7 0.0
1.865921454781504e7 -1.0271050399915839e7 0.0
0.0 0.0 0.0

-4.466263149417872e6 1.743222839831113e7 0.0
1.743222839831113e7 4.518362690142134e6 0.0
0.0 0.0 0.0

-2.4363035962291677e6 1.3647214193995183e7 0.0
1.3647214193995183e7 -4.0565551435329746e6 0.0
0.0 0.0 0.0

-6.61886921801161e6 1.0465196640556502e6 0.0
1.0465196640556502e6 1.0730211420873487e7 0.0
0.0 0.0 0.0

2.428411948676506e6 5.727716317597227e6 0.0
5.727716317597227e6 -1.181197917353507e7 0.0
0.0 0.0 0.0

-1.1197797177336205e7 5.338915975922278e6 0.0
5.338915975922278e6 3.0141751825028017e7 0.0
0.0 0.0 0.0

-1.1298418077572208e7 1.541423262165703e6 0.0
1.541423262165703e6 1.6673717121126559e7 0.0
0.0 0.0 0.0

-3.723274337848434e6 1.8040432441847973e7 0.0
1.8040432441847973e7 1.929409068662248e7 0.0
0.0 0.0 0.0

-1.4229723032695272e6 1.7294943423390653e7 0.0
1.7294943423390653e7 -8.234503638506883e6 0.0
0.0 0.0 0.0

531617.6043337802 9.304470722176492e6 0.0
9.304470722176492e6 -9.50258335779301e6 0.0
0.0 0.0 0.0

-1.07985722644228e7 5.136167662584006e6 0.0
5.136167662584006e6 3.2383141239262603e7 0.0
0.0 0.0 0.0

-1.6175029777138042e6 2.0136112917071853e7 0.0
2.0136112917071853e7 -3.932900613545922e6 0.0
0.0 0.0 0.0

-3.9778882121845423e6 1.2673847117357202e7 0.0
1.2673847117357202e7 541634.4657037624 0.0
0.0 0.0 0.0

-1.340498542807131e6 9.154498328067245e6 0.0
9.154498328067245e6 -603408.0778848659 0.0
0.0 0.0 0.0

-1.5631055597367503e6 1.2100568471250907e7 0.0
1.2100568471250907e7 -5.633909238817083e6 0.0
0.0 0.0 0.0

-1.8857993517067013e6 1.5513675995046692e7 0.0
1.5513675995046692e7 -2.3526040133059353e7 0.0
0.0 0.0 0.0

-3.706512000167726e6 1.8220063510539122e7 0.0
1.8220063510539122e7 6.243436471172653e6 0.0
0.0 0.0 0.0

502156.05355644133 1.7454798379017174e7 0.0
1.7454798379017174e7 -1.3180485390946763e7 0.0
0.0 0.0 0.0

-2.1940319135390185e6 1.5679725910659587e7 0.0
1.5679725910659587e7 4.804395385035731e7 0.0
0.0 0.0 0.0

2.4729911676197387e6 2.008923648037237e7 0.0
2.008923648037237e7 9.997709438266084e6 0.0
0.0 0.0 0.0

-1.1318415603990074e7 1.1212470286027363e7 0.0
1.1212470286027363e7 1.5955934254606187e7 0.0
0.0 0.0 0.0

2.4067904128760546e6 1.1579681325004103e7 0.0
1.1579681325004103e7 -2.081395272260079e7 0.0
0.0 0.0 0.0

-1.6071442018125074e6 1.4232290970736526e7 0.0
1.4232290970736526e7 -3.1530130435391357e6 0.0
0.0 0.0 0.0

237757.0924481349 1.9681772892979074e7 0.0
1.9681772892979074e7 -9.838520812996171e6 0.0
0.0 0.0 0.0

-3.0097546518353494e6 2.2483713956121076e7 0.0
2.2483713956121076e7 4.0344190909902873e6 0.0
0.0 0.0 0.0

-2.235892708346337e6 2.10565303510508e7 0.0
2.10565303510508e7 -3.9716998524051965e6 0.0
0.0 0.0 0.0

-202180.91808205377 1.7310047126592975e7 0.0
1.7310047126592975e7 -1.4386412579359347e7 0.0
0.0 0.0 0.0

-1.3273589490867807e6 1.325326956586395e7 0.0
1.325326956586395e7 -3.445154415458771e6 0.0
0.0 0.0 0.0

-4.288375690840249e6 1.8661563264690176e7 0.0
1.8661563264690176e7 5.488213334454038e6 0.0
0.0 0.0 0.0

-1.1891249477058098e7 4.896963351804805e6 0.0
4.896963351804805e6 1.5330587132054154e7 0.0
0.0 0.0 0.0

2.7624783763371967e6 5.624157718881838e6 0.0
5.624157718881838e6 -1.3475157291493084e7 0.0
0.0 0.0 0.0

-1.182076423995636e6 1.5036550006542636e7 0.0
1.5036550006542636e7 -4.991870742143601e6 0.0
0.0 0.0 0.0

3.003711214638886e6 8.891314790874911e6 0.0
8.891314790874911e6 -1.5944695386209862e7 0.0
0.0 0.0 0.0

-3.0948110821465706e6 1.8163698785952974e7 0.0
1.8163698785952974e7 2.0816512391759465e6 0.0
0.0 0.0 0.0

-566011.6866687528 8.674608962021481e6 0.0
8.674608962021481e6 -1.9729916536359056e6 0.0
0.0 0.0 0.0

-1.2975341375156553e6 2.424055513050449e7 0.0
2.424055513050449e7 -2.845223927990308e6 0.0
0.0 0.0 0.0

-5.082640997898396e7 3.3277637875335044e6 0.0
3.3277637875335044e6 6.9284131867350675e6 0.0
0.0 0.0 0.0

62819.89938476519 8.136361591188815e6 0.0
8.136361591188815e6 -3.172153407126673e6 0.0
0.0 0.0 0.0

-2.158008714319042e6 1.4800662972894432e7 0.0
1.4800662972894432e7 -2.8469359815942816e7 0.0
0.0 0.0 0.0

491923.69765574485 1.8818746463912323e7 0.0
1.8818746463912323e7 -9.009415473515691e6 0.0
0.0 0.0 0.0

966846.545221271 1.2342558476735331e7 0.0
1.2342558476735331e7 -1.0494168264901679e7 0.0
0.0 0.0 0.0

780608.3794360412 1.6065283239763243e7 0.0
1.6065283239763243e7 -1.6330404088154307e7 0.0
0.0 0.0 0.0

654161.7607481508 7.648208989035535e6 0.0
7.648208989035535e6 -4.266405731755298e6 0.0
0.0 0.0 0.0

3.5504748001905503e6 7.540059452481057e6 0.0
7.540059452481057e6 -1.781491014876305e7 0.0
0.0 0.0 0.0

-2.611178312155444e6 2.2472124146428056e7 0.0
2.2472124146428056e7 -1.20303151557606e6 0.0
0.0 0.0 0.0

484752.1844034004 5.714387199932319e6 0.0
5.714387199932319e6 -5.320682767084907e6 0.0
0.0 0.0 0.0

1.1734973974658423e6 9.771148301018933e6 0.0
9.771148301018933e6 -1.192671759073881e7 0.0
0.0 0.0 0.0

-1.0479385445286003e6 2.5247653950741056e7 0.0
2.5247653950741056e7 -1.9738433878220527e6 0.0
0.0 0.0 0.0

2.5633375547578996e6 1.8317681347318042e7 0.0
1.8317681347318042e7 -55096.63365340384 0.0
0.0 0.0 0.0

243627.60794731695 2.1041456656566747e7 0.0
2.1041456656566747e7 -7.708190689107848e6 0.0
0.0 0.0 0.0

2.349797150866503e6 7.737428243641584e6 0.0
7.737428243641584e6 -4.641331579134745e7 0.0
0.0 0.0 0.0

-9.98426110415046e6 1.5766551425824996e7 0.0
1.5766551425824996e7 2.355827304272842e7 0.0
0.0 0.0 0.0

-2.482218693215507e6 2.183874076682447e7 0.0
2.183874076682447e7 690880.0814204107 0.0
0.0 0.0 0.0

2.8352608039909797e6 8.578752680936811e6 0.0
8.578752680936811e6 -1.3693640799300876e7 0.0
0.0 0.0 0.0

1.1212852578421198e6 7.054877029023718e6 0.0
7.054877029023718e6 -5.30588665882677e6 0.0
0.0 0.0 0.0

437179.87137946254 8.750174651972648e6 0.0
8.750174651972648e6 -8.754377971677283e6 0.0
0.0 0.0 0.0

-3.381903626672132e6 2.5249923110277478e7 0.0
2.5249923110277478e7 4.410266692638328e6 0.0
0.0 0.0 0.0

-9.374660689525954e6 -430942.06941898377 0.0
-430942.06941898377 1.7414507471117463e7 0.0
0.0 0.0 0.0

-1.1724977440332884e7 1.3818801136720374e7 0.0
1.3818801136720374e7 2.1608380496362e7 0.0
0.0 0.0 0.0

-1.8243282824506892e6 2.1301327714273196e7 0.0
2.1301327714273196e7 -2.695617684811034e6 0.0
0.0 0.0 0.0

1.112791253681833e6 1.3814294058757925e7 0.0
1.3814294058757925e7 -1.3225543057139006e7 0.0
0.0 0.0 0.0

-4.200230049733895e6 1.8809732983482376e7 0.0
1.8809732983482376e7 1.682438470788658e7 0.0
0.0 0.0 0.0

-2.6434835039276136e6 1.4616981185037212e7 0.0
1.4616981185037212e7 -3.754827357113877e6 0.0
0.0 0.0 0.0

447025.8615225605 1.4491499665938187e7 0.0
1.4491499665938187e7 -1.0574254803738847e7 0.0
0.0 0.0 0.0

-342581.27128342167 1.4230853361803254e7 0.0
1.4230853361803254e7 -2.4572628377873104e7 0.0
0.0 0.0 0.0

666657.4393139761 2.2123979809564907e7 0.0
2.2123979809564907e7 -6.49879267776485e6 0.0
0.0 0.0 0.0

-461031.39695003256 1.2660664682791853e7 0.0
1.2660664682791853e7 -3.402084669616748e7 0.0
0.0 0.0 0.0

-1.1390405868861295e7 3.9244510807274925e6 0.0
3.9244510807274925e6 1.4537517881957456e7 0.0
0.0 0.0 0.0

3.73803224801944e6 1.9360605176381316e7 0.0
1.9360605176381316e7 1.934913204716091e7 0.0
0.0 0.0 0.0

-3.9313434273860157e6 2.4436168734422676e7 0.0
2.4436168734422676e7 4.724836020212124e6 0.0
0.0 0.0 0.0

-2.3848193220720524e6 1.501330347533876e7 0.0
1.501330347533876e7 -4.665190047793211e6 0.0
0.0 0.0 0.0

2.2430596953199063e6 1.9575880001922317e7 0.0
1.9575880001922317e7 -5.912712284335374e6 0.0
0.0 0.0 0.0

-1.5963544184199497e6 2.0844778048725836e7 0.0
2.0844778048725836e7 -3.645417960376463e6 0.0
0.0 0.0 0.0

-4.9931794555479605e6 7.434837994654576e6 0.0
7.434837994654576e6 3.484754990781039e6 0.0
0.0 0.0 0.0

-34971.16228511557 1.765176585139159e7 0.0
1.765176585139159e7 -1.3356538114409778e7 0.0
0.0 0.0 0.0

1.866404406816721e6 1.3168038809123816e7 0.0
1.3168038809123816e7 -1.777438155799003e7 0.0
0.0 0.0 0.0

1.6204792277871575e6 1.3664164460300917e7 0.0
1.3664164460300917e7 -1.6702997727359705e7 0.0
0.0 0.0 0.0

-764386.8438068307 1.3787370075099118e7 0.0
1.3787370075099118e7 -8.940205067230232e6 0.0
0.0 0.0 0.0

1.0395166108850986e7 2.276186209475584e7 0.0
2.276186209475584e7 -5.468490640071243e6 0.0
0.0 0.0 0.0

1.724623016627465e6 1.0394934338901095e7 0.0
1.0394934338901095e7 -1.0950804743854804e7 0.0
0.0 0.0 0.0

2.7599540885002604e6 5.162999096917305e6 0.0
5.162999096917305e6 -1.2821495318179835e7 0.0
0.0 0.0 0.0

2.0661419983674642e6 1.2624542018928614e7 0.0
1.2624542018928614e7 -1.8750169328097466e7 0.0
0.0 0.0 0.0

2.814164394044537e6 6.420066760041909e6 0.0
6.420066760041909e6 -3.538648222278927e7 0.0
0.0 0.0 0.0

-6.685569366393877e6 6.706521406108213e6 0.0
6.706521406108213e6 6.418954130508693e6 0.0
0.0 0.0 0.0

-3.6673275476469584e6 1.9883820428960532e7 0.0
1.9883820428960532e7 2.3240422915072814e6 0.0
0.0 0.0 0.0

4.062241910088839e6 4.836966806526313e6 0.0
4.836966806526313e6 -2.0925343567901857e7 0.0
0.0 0.0 0.0

2.00444152822928e6 6.353208492976163e6 0.0
6.353208492976163e6 -1.1049800735633861e7 0.0
0.0 0.0 0.0

-265916.8317270088 1.3967824476982024e7 0.0
1.3967824476982024e7 -7.2954056109375e6 0.0
0.0 0.0 0.0

-9.392252350043105e6 1.282729417456129e7 0.0
1.282729417456129e7 3.154455325057266e7 0.0
0.0 0.0 0.0

-4.972398214035679e6 1.9783996752437245e7 0.0
1.9783996752437245e7 1.2499118315302344e7 0.0
0.0 0.0 0.0

-4.509972657350154e6 8.514105450225873e6 0.0
8.514105450225873e6 2.324805071463855e6 0.0
0.0 0.0 0.0

-7.666251735588273e6 1.7907531188307513e7 0.0
1.7907531188307513e7 1.8043786735767722e7 0.0
0.0 0.0 0.0

3.8183413132694066e6 6.113959939877486e6 0.0
6.113959939877486e6 -1.5749843507914776e7 0.0
0.0 0.0 0.0

2.1747600218206765e6 1.2109205096360967e7 0.0
1.2109205096360967e7 -1.9904852348008387e7 0.0
0.0 0.0 0.0

-4.57896566686058e6 4.9963679503451325e7 0.0
4.9963679503451325e7 3.1372809965850916e6 0.0
0.0 0.0 0.0

-5.453976909889545e6 1.1875225097884908e7 0.0
1.1875225097884908e7 4.574917978635316e6 0.0
0.0 0.0 0.0

-1.068912121263649e7 2.671333011420286e6 0.0
2.671333011420286e6 1.3498884548462281e7 0.0
0.0 0.0 0.0

56270.88518076856 1.682682954199082e7 0.0
1.682682954199082e7 -1.4164879652946593e7 0.0
0.0 0.0 0.0

1.4223369755192725e6 1.4182321100975005e7 0.0
1.4182321100975005e7 -1.5753328731152456e7 0.0
0.0 0.0 0.0

-653335.9918195615 2.1432589834232386e6 0.0
2.1432589834232386e6 3.7946744203415387e6 0.0
0.0 0.0 0.0

-1.7440406364723688e6 763374.6464120962 0.0
763374.6464120962 5.513763449397031e6 0.0
0.0 0.0 0.0

-4.161506066589178e6 2.549887568572312e7 0.0
2.549887568572312e7 4.0332773140272377e6 0.0
0.0 0.0 0.0

-4.802726377276421e6 1.691502810017412e7 0.0
1.691502810017412e7 5.734611931550512e6 0.0
0.0 0.0 0.0

-3.2711037210373115e6 2.5218701648325372e7 0.0
2.5218701648325372e7 2.382360398143488e6 0.0
0.0 0.0 0.0

3.1827627029807586e6 8.7445573632025e6 0.0
8.7445573632025e6 -1.7521138366714783e7 0.0
0.0 0.0 0.0

-4.054054223430828e6 1.9116641487111937e7 0.0
1.9116641487111937e7 4.361460315071613e6 0.0
0.0 0.0 0.0

-1.1081792529891314e7 2.4610032795279007e6 0.0
2.4610032795279007e6 2.567005074224797e7 0.0
0.0 0.0 0.0

-6.15658010596298e7 4.658224226853363e6 0.0
4.658224226853363e6 6.186825986700367e6 0.0
0.0 0.0 0.0

-3.5701364218152706e6 2.0650166872366346e7 0.0
2.0650166872366346e7 2.428746137905962e6 0.0
0.0 0.0 0.0

-6.860144816259378e6 1.8285875392963808e7 0.0
1.8285875392963808e7 1.672388420489011e7 0.0
0.0 0.0 0.0

-648896.9855302225 2.228291901649732e7 0.0
2.228291901649732e7 -5.952666337140459e6 0.0
0.0 0.0 0.0

2.0788200787486942e6 5.817124490233067e6 0.0
5.817124490233067e6 -1.0110302583587714e7 0.0
0.0 0.0 0.0

-5.696252580373868e6 1.3650945285973495e7 0.0
1.3650945285973495e7 6.099840357985679e6 0.0
0.0 0.0 0.0

-1.0337524994701287e7 2.2246998408780135e7 0.0
2.2246998408780135e7 -6.251988541911159e6 0.0
0.0 0.0 0.0

-4.825417336909262e6 2.0728210141062908e7 0.0
2.0728210141062908e7 -6.864674408224211e6 0.0
0.0 0.0 0.0

3.309082132884384e6 6.9285626773154605e6 0.0
6.9285626773154605e6 -1.314753487000278e7 0.0
0.0 0.0 0.0

-6.174973119008073e6 1.87408196020274e7 0.0
1.87408196020274e7 1.5345131606313692e7 0.0
0.0 0.0 0.0

-485237.5200290838 1.6249853526469417e7 0.0
1.6249853526469417e7 -8.162866305998295e6 0.0
0.0 0.0 0.0

2.948978966722833e6 4.8663492983089145e6 0.0
4.8663492983089145e6 -3.858223114897801e7 0.0
0.0 0.0 0.0

-1.0031811719618721e7 454572.9940522052 0.0
454572.9940522052 3.709676211859018e7 0.0
0.0 0.0 0.0

2.4931079798409278e6 9.202619121765427e6 0.0
9.202619121765427e6 -1.2780196942096341e7 0.0
0.0 0.0 0.0

3.805771693665825e6 6.877021159591258e6 0.0
6.877021159591258e6 -2.5054061822482508e7 0.0
0.0 0.0 0.0

-239793.89381429018 1.736858718832113e7 0.0
1.736858718832113e7 -7.07866811154143e6 0.0
0.0 0.0 0.0

1.247914692290688e6 1.087124027015644e7 0.0
1.087124027015644e7 -3.259549146071292e7 0.0
0.0 0.0 0.0

144643.4788734282 2.688224859621997e7 0.0
2.688224859621997e7 -2.3581932023985097e6 0.0
0.0 0.0 0.0

-6.23760871391114e6 1.6096349025673913e7 0.0
1.6096349025673913e7 2.951498931156017e7 0.0
0.0 0.0 0.0

-1.0406524023707846e7 196110.3451404604 0.0
196110.3451404604 3.410336650786705e7 0.0
0.0 0.0 0.0

-667683.2453464291 1.7030860541216955e7 0.0
1.7030860541216955e7 -7.822729399193708e6 0.0
0.0 0.0 0.0

2.923421647362767e6 7.529073812439576e6 0.0
7.529073812439576e6 -3.019243280537809e7 0.0
0.0 0.0 0.0

-2.6807809985564076e6 1.7161642669560242e7 0.0
1.7161642669560242e7 -247103.70622107456 0.0
0.0 0.0 0.0

-3.7921773124374514e6 1.9119404394765135e7 0.0
1.9119404394765135e7 2.2526566044337414e6 0.0
0.0 0.0 0.0

-1.139584704896349e7 4.342667336998022e6 0.0
4.342667336998022e6 2.008081762887916e7 0.0
0.0 0.0 0.0

1.1520156732227956e6 2.245608311199634e7 0.0
2.245608311199634e7 -6.219425017653915e6 0.0
0.0 0.0 0.0

616662.9112295266 1.772126504339675e7 0.0
1.772126504339675e7 -4.0551961403933847e6 0.0
0.0 0.0 0.0

-1.9321220976799806e6 2.179104082273919e7 0.0
2.179104082273919e7 -1.7519109484019654e6 0.0
0.0 0.0 0.0

3.738785812382089e6 3.1185813632051437e6 0.0
3.1185813632051437e6 -3.6531658615991294e7 0.0
0.0 0.0 0.0

-3.8558566372917513e6 1.9527570583783433e7 0.0
1.9527570583783433e7 3.2776853851690628e6 0.0
0.0 0.0 0.0

1.0003900875534336e6 1.271274634904486e7 0.0
1.271274634904486e7 -1.1201445774417765e7 0.0
0.0 0.0 0.0

-3.565248309017705e6 1.0212223723533917e7 0.0
1.0212223723533917e7 18241.098356526112 0.0
0.0 0.0 0.0

-809935.4434567225 1.2730668018294586e7 0.0
1.2730668018294586e7 -4.6769129615178825e6 0.0
0.0 0.0 0.0

-6.379032668307286e6 4.811850112134398e6 0.0
4.811850112134398e6 6.080049808752306e6 0.0
0.0 0.0 0.0

835748.9873201889 1.6980622743265316e7 0.0
1.6980622743265316e7 -5.001696365079191e6 0.0
0.0 0.0 0.0

-1.1458430199088542e7 6.857684167831699e6 0.0
6.857684167831699e6 2.8589429464045525e7 0.0
0.0 0.0 0.0

367006.85202481085 1.4164252382133892e7 0.0
1.4164252382133892e7 -9.885969020208413e6 0.0
0.0 0.0 0.0

-3.3994154702226836e6 5.400132351931454e6 0.0
5.400132351931454e6 1.1537064266174e6 0.0
0.0 0.0 0.0

-4.503165835571175e6 2.6049217587013986e7 0.0
2.6049217587013986e7 4.139742891608212e6 0.0
0.0 0.0 0.0

-967070.1596413682 2.0710630837009005e7 0.0
2.0710630837009005e7 -5.621575166986909e6 0.0
0.0 0.0 0.0

1.1418312682155315e6 1.4851454377113478e7 0.0
1.4851454377113478e7 -1.842645404596947e7 0.0
0.0 0.0 0.0

2.1158385999590317e6 9.798535283704346e6 0.0
9.798535283704346e6 -1.1883789228934059e7 0.0
0.0 0.0 0.0

-2.9403447461430253e6 2.1010328634440232e7 0.0
2.1010328634440232e7 2.9745117756025568e6 0.0
0.0 0.0 0.0

-7.504940254854957e6 1.7944861847056434e7 0.0
1.7944861847056434e7 1.9237512670215175e7 0.0
0.0 0.0 0.0

3.1950084835812636e6 1.8226458802201133e7 0.0
1.8226458802201133e7 1.0903603954903802e7 0.0
0.0 0.0 0.0

2.528075913977148e6 7.75636881976725e6 0.0
7.75636881976725e6 -3.2357080984079942e7 0.0
0.0 0.0 0.0

-3.5502761870018034e6 1.90287221587568e7 0.0
1.90287221587568e7 6.057990280525754e6 0.0
0.0 0.0 0.0

-3.200466606413379e6 1.992075781329308e7 0.0
1.992075781329308e7 3.874824448669751e6 0.0
0.0 0.0 0.0

-1.1602339018127654e7 8.703040454468163e6 0.0
8.703040454468163e6 1.5011979759354446e7 0.0
0.0 0.0 0.0

588738.2360605673 2.7435738972064696e7 0.0
2.7435738972064696e7 -2.393024705351811e6 0.0
0.0 0.0 0.0

495682.4645617581 1.2512463751737779e7 0.0
1.2512463751737779e7 -8.681782004734779e6 0.0
0.0 0.0 0.0

-9.702439248574782e6 1.5194777253423773e7 0.0
1.5194777253423773e7 1.6989469216657776e7 0.0
0.0 0.0 0.0

2.1412018646910465e6 9.317296684653345e6 0.0
9.317296684653345e6 -1.1183846073057322e7 0.0
0.0 0.0 0.0

-2.851993177139422e6 7.90635020115183e6 0.0
7.90635020115183e6 3.2725426491787033e6 0.0
0.0 0.0 0.0

-2.786499296337296e6 2.128743765159903e7 0.0
2.128743765159903e7 2.114027707925139e6 0.0
0.0 0.0 0.0

-2.754200895376486e6 2.198689326786247e7 0.0
2.198689326786247e7 2.1980647663244265e6 0.0
0.0 0.0 0.0

284081.6180115673 1.3816366775536453e7 0.0
1.3816366775536453e7 -9.154419239879452e6 0.0
0.0 0.0 0.0

1.4092825295953609e6 1.8384527891590312e7 0.0
1.8384527891590312e7 -5.155092198863517e6 0.0
0.0 0.0 0.0

8.409678937249515e6 2.3673849673374288e7 0.0
2.3673849673374288e7 -5.625387633078778e6 0.0
0.0 0.0 0.0

-5.116366317074416e6 2.069160341254819e7 0.0
2.069160341254819e7 7.135657490133566e6 0.0
0.0 0.0 0.0

-6.783205819217807e6 1.5411454954046365e7 0.0
1.5411454954046365e7 -3.132854090103566e7 0.0
0.0 0.0 0.0

1.2682822391089606e6 1.051171244379177e7 0.0
1.051171244379177e7 -9.204133026346613e6 0.0
0.0 0.0 0.0

-1.1099033995558696e7 2.8584679859819114e6 0.0
2.8584679859819114e6 2.3737807279143143e7 0.0
0.0 0.0 0.0

-1.9037399854341503e6 1.8983676048871323e7 0.0
1.8983676048871323e7 -1.353857161342016e6 0.0
0.0 0.0 0.0

-4.52921847564299e6 1.9570854386846e7 0.0
1.9570854386846e7 -845507.9548645429 0.0
0.0 0.0 0.0

-3.376746923716491e6 1.9460181113573514e7 0.0
1.9460181113573514e7 4.887892025239969e6 0.0
0.0 0.0 0.0

-1.0621630149087442e7 838874.0738755788 0.0
838874.0738755788 2.6663504552777022e7 0.0
0.0 0.0 0.0

-5.042008373267794e6 2.6599329570108864e7 0.0
2.6599329570108864e7 4.277834033988659e6 0.0
0.0 0.0 0.0

-3.3673618497572816e6 2.0962304073777277e7 0.0
2.0962304073777277e7 1.5581724072589336e6 0.0
0.0 0.0 0.0

1.5124783948170901e6 1.716274988262417e7 0.0
1.716274988262417e7 99183.60237012699 0.0
0.0 0.0 0.0

2.462545234241112e6 1.5335286152803777e7 0.0
1.5335286152803777e7 8.208484391926407e6 0.0
0.0 0.0 0.0

-3.7682703173980727e6 1.8523225270292528e7 0.0
1.8523225270292528e7 7.264227655986807e6 0.0
0.0 0.0 0.0

-6.42276126909223e6 1.661877699012411e7 0.0
1.661877699012411e7 1.1809038727119103e7 0.0
0.0 0.0 0.0

3.2948878311529635e6 6.3629325224728435e6 0.0
6.3629325224728435e6 -1.241374928544698e7 0.0
0.0 0.0 0.0

-1.7018509957954427e6 2.1981380613260303e7 0.0
2.1981380613260303e7 -2.456755328829627e6 0.0
0.0 0.0 0.0

-9.982372297982529e6 1.3308103119335923e7 0.0
1.3308103119335923e7 1.8733133156967673e7 0.0
0.0 0.0 0.0

3.6799004142633667e6 4.570077674938011e6 0.0
4.570077674938011e6 -1.9321553775265526e7 0.0
0.0 0.0 0.0

-2.2894363806005856e6 2.039534731306897e7 0.0
2.039534731306897e7 -4.341181159968347e6 0.0
0.0 0.0 0.0

-3.27964302758238e6 1.9124580370833825e7 0.0
1.9124580370833825e7 3.961133654069444e6 0.0
0.0 0.0 0.0

-2.2957154858455844e6 4.982723378958292e6 0.0
4.982723378958292e6 -325314.61385916057 0.0
0.0 0.0 0.0

1.6283594499378763e6 1.0507519419061191e7 0.0
1.0507519419061191e7 -1.4804239491034983e7 0.0
0.0 0.0 0.0

-1.8400199866429225e6 4.408121034792194e7 0.0
4.408121034792194e7 2.3510533294686247e6 0.0
0.0 0.0 0.0

1.7751120307732485e6 7.063153875278607e6 0.0
7.063153875278607e6 -5.48480196479744e7 0.0
0.0 0.0 0.0

3.6453134360194393e6 5.519625035441843e6 0.0
5.519625035441843e6 -2.2396384882669944e7 0.0
0.0 0.0 0.0

2.1870157287399312e6 1.174243642058298e7 0.0
1.174243642058298e7 -1.6523430379991597e7 0.0
0.0 0.0 0.0

-4.509451826816039e6 2.017466850747728e7 0.0
2.017466850747728e7 5.166323153321426e6 0.0
0.0 0.0 0.0

938265.5510680024 1.3684894214165157e7 0.0
1.3684894214165157e7 -2.2107862997898366e7 0.0
0.0 0.0 0.0

1.2121256768089668e6 1.0017885361257717e7 0.0
1.0017885361257717e7 -8.458912475977877e6 0.0
0.0 0.0 0.0

-2.7905457870265977e6 9.686013671873664e6 0.0
9.686013671873664e6 -1.4341054145252705e6 0.0
0.0 0.0 0.0

2.149894980180602e6 1.7301516480546646e7 0.0
1.7301516480546646e7 1.4603688887863396e7 0.0
0.0 0.0 0.0

-6.452325561610289e6 1.6368726007804666e7 0.0
1.6368726007804666e7 2.7669510691471007e7 0.0
0.0 0.0 0.0

8.690014343357146e6 1.3735496976372644e7 0.0
1.3735496976372644e7 6.057903828557428e6 0.0
0.0 0.0 0.0

-4.476693641650442e6 2.8958721598387215e7 0.0
2.8958721598387215e7 2.5909985153981047e6 0.0
0.0 0.0 0.0

-1.2351227375444914e6 1.4311508880069183e7 0.0
1.4311508880069183e7 -7.83139837675247e6 0.0
0.0 0.0 0.0

-2.559127348531999e7 2.2941946650735043e7 0.0
2.2941946650735043e7 255330.4997188691 0.0
0.0 0.0 0.0

-254446.52252833825 1.5494584619199315e7 0.0
1.5494584619199315e7 -8.502918798055949e6 0.0
0.0 0.0 0.0

-3.186239373260289e6 1.955727781271398e7 0.0
1.955727781271398e7 2.916487615626987e6 0.0
0.0 0.0 0.0

-104874.12471815757 1.2629123121153608e7 0.0
1.2629123121153608e7 -6.7103268710395e6 0.0
0.0 0.0 0.0

-690386.9816725291 1.4915321469231403e7 0.0
1.4915321469231403e7 -2.2486405354061093e7 0.0
0.0 0.0 0.0

3.5327777664925996e6 5.281034200037309e6 0.0
5.281034200037309e6 -1.8420995861173905e7 0.0
0.0 0.0 0.0

2.269843253881069e6 1.0108629364382982e7 0.0
1.0108629364382982e7 -2.9451394884237178e7 0.0
0.0 0.0 0.0

-2.087113417883804e6 1.858036824759429e7 0.0
1.858036824759429e7 1.4679195591506226e7 0.0
0.0 0.0 0.0

3.6438094058623454e6 7.206367243837089e6 0.0
7.206367243837089e6 -2.0908530898759615e7 0.0
0.0 0.0 0.0

-2.0193318695181455e6 2.053461161423302e7 0.0
2.053461161423302e7 -4.946096929540141e6 0.0
0.0 0.0 0.0

-752739.9767190772 1.7791600722995292e7 0.0
1.7791600722995292e7 -1.0433578499144742e7 0.0
0.0 0.0 0.0

-2.14743439504855e6 1.2633204559842363e7 0.0
1.2633204559842363e7 -4.395522747619903e6 0.0
0.0 0.0 0.0

-4.421534354681056e6 1.4376867163406024e7 0.0
1.4376867163406024e7 2.1141483269681577e6 0.0
0.0 0.0 0.0

-9.48005888828304e6 1.5779087538410835e7 0.0
1.5779087538410835e7 1.774620398217048e7 0.0
0.0 0.0 0.0

2.72713686879028e6 9.497236465885337e6 0.0
9.497236465885337e6 -1.5035349001791362e7 0.0
0.0 0.0 0.0

-5.45373168190998e6 3.0887647065093286e7 0.0
3.0887647065093286e7 2.679498694757344e6 0.0
0.0 0.0 0.0

-5.783092991398387e6 2.7054027951211236e7 0.0
2.7054027951211236e7 4.549863702627638e6 0.0
0.0 0.0 0.0

-9.155409101910895e6 1.6735683209217925e7 0.0
1.6735683209217925e7 1.8640768989388898e7 0.0
0.0 0.0 0.0

-1.3830659653096984e6 1.4404180404467743e7 0.0
1.4404180404467743e7 -4.61021971573762e6 0.0
0.0 0.0 0.0

1.200960339745134e6 1.4680032675428957e7 0.0
1.4680032675428957e7 -1.4720052091889985e7 0.0
0.0 0.0 0.0

3.721616669709173e6 7.011257917208433e6 0.0
7.011257917208433e6 -1.8851202203286167e7 0.0
0.0 0.0 0.0

-4.1933513758302345e6 2.1635255085461184e7 0.0
2.1635255085461184e7 9.473460121312626e6 0.0
0.0 0.0 0.0

-1.2777727009372786e7 7.607579779409598e6 0.0
7.607579779409598e6 1.8345386805204194e7 0.0
0.0 0.0 0.0

2.2174708523311494e6 2.4264137057961136e7 0.0
2.4264137057961136e7 -4.763000140043707e6 0.0
0.0 0.0 0.0

-8.905867620216757e6 1.4650438146209083e6 0.0
1.4650438146209083e6 4.623276227748527e7 0.0
0.0 0.0 0.0

-1.772803855498994e6 1.7859652275777206e7 0.0
1.7859652275777206e7 -7.153095315859623e6 0.0
0.0 0.0 0.0

-9.69290852678341e6 -3.9048011428249767e6 0.0
-3.9048011428249767e6 2.3361665278073862e7 0.0
0.0 0.0 0.0

-7.306144303210438e6 3.0354663383379276e6 0.0
3.0354663383379276e6 1.1322221163923148e7 0.0
0.0 0.0 0.0

3.265187040910677e6 5.742862804408935e6 0.0
5.742862804408935e6 -1.1853426632871382e7 0.0
0.0 0.0 0.0

-1.034576871142247e7 1.2841201572763236e7 0.0
1.2841201572763236e7 2.835747453654045e7 0.0
0.0 0.0 0.0

2.660458557769387e6 1.0475758671338933e7 0.0
1.0475758671338933e7 -2.463034857058144e7 0.0
0.0 0.0 0.0

-1.8439060379619529e6 2.0647468772466198e7 0.0
2.0647468772466198e7 -2.9153779893282615e6 0.0
0.0 0.0 0.0

-3.1267894051412167e6 2.0633992137791328e7 0.0
2.0633992137791328e7 3.9145798839720935e6 0.0
0.0 0.0 0.0

-1.8375363309834595e6 1.51867126730334e7 0.0
1.51867126730334e7 -2.876374960149793e6 0.0
0.0 0.0 0.0

-3.292455229507232e6 2.0976761144475713e7 0.0
2.0976761144475713e7 5.916879523251708e6 0.0
0.0 0.0 0.0

1.2347363445730344e6 5.7818293152509285e6 0.0
5.7818293152509285e6 -7.238843878355624e6 0.0
0.0 0.0 0.0

-2.7354255320561146e6 1.763364613597559e7 0.0
1.763364613597559e7 -3.7220257279050946e6 0.0
0.0 0.0 0.0

6.763647746257271e6 2.4273449471490745e7 0.0
2.4273449471490745e7 -5.397229697053081e6 0.0
0.0 0.0 0.0

1.0246625803425559e6 9.354736063759236e6 0.0
9.354736063759236e6 -7.868634818250628e6 0.0
0.0 0.0 0.0

-129873.06440850254 1.4335627484617352e7 0.0
1.4335627484617352e7 -8.090457760414239e6 0.0
0.0 0.0 0.0

-4.100535614834364e6 2.0186973278317742e7 0.0
2.0186973278317742e7 -5.236199974426955e6 0.0
0.0 0.0 0.0

-2.073969624150946e6 1.4775270291388087e7 0.0
1.4775270291388087e7 -1.8936097069336737e6 0.0
0.0 0.0 0.0

8.29704817030853e6 2.0295597187685687e7 0.0
2.0295597187685687e7 -3.125913631909986e6 0.0
0.0 0.0 0.0

-1.2817222995674533e6 4.563401279985632e6 0.0
4.563401279985632e6 -1.6944494933717235e6 0.0
0.0 0.0 0.0

3.68576681163577e6 4.857727524518599e6 0.0
4.857727524518599e6 -2.6841237019385274e7 0.0
0.0 0.0 0.0

-1.8998854473522617e6 3.487737768407732e6 0.0
3.487737768407732e6 3.442359631843252e6 0.0
0.0 0.0 0.0

-1.982784176936354e6 9.182465393026674e6 0.0
9.182465393026674e6 -2.7578231773569696e6 0.0
0.0 0.0 0.0

-2.1361450711195758e6 1.5383917729968898e7 0.0
1.5383917729968898e7 -5.534128787216406e6 0.0
0.0 0.0 0.0

-6.842724804378335e6 4.452506522725881e6 0.0
4.452506522725881e6 1.0833716223338006e7 0.0
0.0 0.0 0.0

2.58298457235709e6 6.469654836886771e6 0.0
6.469654836886771e6 -9.156498169047546e6 0.0
0.0 0.0 0.0

166483.06612262735 1.807224159760075e7 0.0
1.807224159760075e7 -1.2345627600616388e7 0.0
0.0 0.0 0.0

-1.1995372522531718e6 8.704311491219172e6 0.0
8.704311491219172e6 -4.0933572012231853e6 0.0
0.0 0.0 0.0

-1.8232019045911515e6 3.990195386008324e7 0.0
3.990195386008324e7 1.527446424036349e6 0.0
0.0 0.0 0.0

8.597711752030462e6 1.9994589546873935e7 0.0
1.9994589546873935e7 9.027258207012063e6 0.0
0.0 0.0 0.0

-513520.43322391063 8.164617226756224e6 0.0
8.164617226756224e6 -5.099621148809946e6 0.0
0.0 0.0 0.0

-6.160761361061917e6 1.2974843637293035e7 0.0
1.2974843637293035e7 1.1566309294047352e7 0.0
0.0 0.0 0.0

1.961772532658833e6 4.35856073088478e6 0.0
4.35856073088478e6 -6.535001770875316e6 0.0
0.0 0.0 0.0

-1.178927568047635e7 7.271536223707464e6 0.0
7.271536223707464e6 2.6713229547553092e7 0.0
0.0 0.0 0.0

82610.2131689114 7.580592695820394e6 0.0
7.580592695820394e6 -6.156694425353394e6 0.0
0.0 0.0 0.0

-6.92259561487456e6 3.1033603468721595e7 0.0
3.1033603468721595e7 4.607895805237101e6 0.0
0.0 0.0 0.0

3.074344618965933e6 2.447630154301889e7 0.0
2.447630154301889e7 -4.784194621692856e6 0.0
0.0 0.0 0.0

3.941148390196264e6 6.34083180234653e6 0.0
6.34083180234653e6 -1.974088061245419e7 0.0
0.0 0.0 0.0

-965347.4128323402 1.8257997380228907e7 0.0
1.8257997380228907e7 -9.376762962083703e6 0.0
0.0 0.0 0.0

3.076169773230545e6 7.246516306498638e6 0.0
7.246516306498638e6 -2.748774079785117e7 0.0
0.0 0.0 0.0

-2.5524497912452174e6 1.5919780773590067e7 0.0
1.5919780773590067e7 -4.355647155801813e6 0.0
0.0 0.0 0.0

1.198135571698361e6 1.8190014762443066e7 0.0
1.8190014762443066e7 1.065850982976153e7 0.0
0.0 0.0 0.0

5.298749268623183e6 2.4541867390359778e7 0.0
2.4541867390359778e7 -5.111033893214777e6 0.0
0.0 0.0 0.0

990313.3390851156 8.945033077048898e6 0.0
8.945033077048898e6 -6.982254390691257e6 0.0
0.0 0.0 0.0

2.5623564352226593e6 8.167476867655969e6 0.0
8.167476867655969e6 -1.1389694688897237e7 0.0
0.0 0.0 0.0

-538960.9181797428 1.117115982391024e7 0.0
1.117115982391024e7 -4.0282222741453084e6 0.0
0.0 0.0 0.0

-6.948439801919317e6 2.745740259205901e7 0.0
2.745740259205901e7 4.760862195723677e6 0.0
0.0 0.0 0.0

-4.0441865544672045e6 1.3807840277857471e7 0.0
1.3807840277857471e7 727766.6718104898 0.0
0.0 0.0 0.0

4.46437744907864e6 2.8367652854731172e7 0.0
2.8367652854731172e7 -3.431566236261435e6 0.0
0.0 0.0 0.0

-1.606505623001081e6 1.5568977336397834e7 0.0
1.5568977336397834e7 -3.807382524376466e6 0.0
0.0 0.0 0.0

3.798512810505784e6 1.736101006034084e7 0.0
1.736101006034084e7 1.823502309971154e7 0.0
0.0 0.0 0.0

-3.520934972231678e6 1.9817967137090996e7 0.0
1.9817967137090996e7 -3.4161848635443696e6 0.0
0.0 0.0 0.0

-2.0945696650024303e6 2.2225331207672313e7 0.0
2.2225331207672313e7 -811385.6080124355 0.0
0.0 0.0 0.0

-692662.5321110757 1.747669168606859e7 0.0
1.747669168606859e7 -1.2053929127955973e7 0.0
0.0 0.0 0.0

-359586.8813935816 1.2748418730743313e7 0.0
1.2748418730743313e7 -3.1966868724955536e7 0.0
0.0 0.0 0.0

-8.519812036722103e6 1.603922674523798e7 0.0
1.603922674523798e7 2.588184124276407e7 0.0
0.0 0.0 0.0

803621.0939453552 1.0831363081490496e7 0.0
1.0831363081490496e7 -1.1653540496796302e7 0.0
0.0 0.0 0.0

-1.2007221204420228e7 7.6652932758794585e6 0.0
7.6652932758794585e6 2.474707931510252e7 0.0
0.0 0.0 0.0

2.35303863548823e6 1.1548021910929047e7 0.0
1.1548021910929047e7 -2.2314425484170794e7 0.0
0.0 0.0 0.0

-1.8066226832548813e6 1.1579704055668542e7 0.0
1.1579704055668542e7 -4.657433850079852e6 0.0
0.0 0.0 0.0

3.1417946559978584e6 4.323853558859531e6 0.0
4.323853558859531e6 -1.1821582129782852e7 0.0
0.0 0.0 0.0

-3.685612352729494e6 1.7174843707581505e7 0.0
1.7174843707581505e7 152137.6314052469 0.0
0.0 0.0 0.0

-3.3191851391780614e6 2.1606747219173957e7 0.0
2.1606747219173957e7 1.5996107341445028e6 0.0
0.0 0.0 0.0

-289179.26852654177 2.5218952923290282e7 0.0
2.5218952923290282e7 -3.128635275452795e6 0.0
0.0 0.0 0.0

-2.664766794532553e6 1.678918199672494e7 0.0
1.678918199672494e7 -4.03278148013637e6 0.0
0.0 0.0 0.0

2.566985267133348e6 5.832233005378832e6 0.0
5.832233005378832e6 -8.454891205784881e6 0.0
0.0 0.0 0.0

4.074194134035589e6 2.458224296176538e7 0.0
2.458224296176538e7 -4.942681669046407e6 0.0
0.0 0.0 0.0

-1.1855009479276527e7 8.930106151850605e6 0.0
8.930106151850605e6 2.021757715980415e7 0.0
0.0 0.0 0.0

2.6746848410617635e6 7.1389018541438645e6 0.0
7.1389018541438645e6 -3.386478075417183e7 0.0
0.0 0.0 0.0

1.7680653443235506e6 1.9884567291413415e7 0.0
1.9884567291413415e7 1.0676229973085342e7 0.0
0.0 0.0 0.0

-3.5021662874222216e6 2.3855918901581004e7 0.0
2.3855918901581004e7 3.6602794457139033e6 0.0
0.0 0.0 0.0

-2.148100262619162e6 1.6387107615196252e7 0.0
1.6387107615196252e7 -9.895733265116515e6 0.0
0.0 0.0 0.0

-6.607590973203814e6 1.6686986521396354e7 0.0
1.6686986521396354e7 2.6157985033875216e7 0.0
0.0 0.0 0.0

-3.8733585789249777e6 1.7184810757440764e7 0.0
1.7184810757440764e7 -1.291119521335163e7 0.0
0.0 0.0 0.0

-161207.02201177087 1.191089789568975e7 0.0
1.191089789568975e7 -9.578020838544102e6 0.0
0.0 0.0 0.0

785343.2589513394 1.7596660761663266e7 0.0
1.7596660761663266e7 1.307860107728667e7 0.0
0.0 0.0 0.0

-1.3631552750382165e6 3.725344484283822e7 0.0
3.725344484283822e7 1.413318729954862e6 0.0
0.0 0.0 0.0

-2.567729904893056e6 1.9879282112558562e7 0.0
1.9879282112558562e7 -7.798612474869549e6 0.0
0.0 0.0 0.0

4.497477652774441e7 1.6615907781660678e7 0.0
1.6615907781660678e7 2.977213546679238e6 0.0
0.0 0.0 0.0

-1.8856695856006169e6 1.3113640632716974e7 0.0
1.3113640632716974e7 -5.272459617153635e6 0.0
0.0 0.0 0.0

-3.4774969568443885e6 1.75399620361016e7 0.0
1.75399620361016e7 -858512.6873430607 0.0
0.0 0.0 0.0

1.0273161570839137e6 1.3377849785543261e7 0.0
1.3377849785543261e7 -1.4788178510198735e7 0.0
0.0 0.0 0.0

52947.69471093826 2.5698862342278592e7 0.0
2.5698862342278592e7 -3.091855048440824e6 0.0
0.0 0.0 0.0

3.3485060761799365e6 5.920430140808058e6 0.0
5.920430140808058e6 -2.9662201651148334e7 0.0
0.0 0.0 0.0

206371.62512276927 8.076825854039024e6 0.0
8.076825854039024e6 -6.987662220259488e6 0.0
0.0 0.0 0.0

1.8525096531331232e6 1.0760884844453199e7 0.0
1.0760884844453199e7 -1.6915217864763297e7 0.0
0.0 0.0 0.0

-4.83277281849215e6 1.987759108564825e7 0.0
1.987759108564825e7 1.2959669630134096e7 0.0
0.0 0.0 0.0

-2.780664364757422e6 1.8442980183652516e7 0.0
1.8442980183652516e7 -3.42572683418206e6 0.0
0.0 0.0 0.0

-91902.73440628476 1.6847272308790144e7 0.0
1.6847272308790144e7 4.879267426878366e6 0.0
0.0 0.0 0.0

-986239.4747617262 1.2210729263266172e7 0.0
1.2210729263266172e7 -3.7360413953806185e6 0.0
0.0 0.0 0.0

-1.9305918832369857e6 1.7315095241743963e7 0.0
1.7315095241743963e7 -3.218280796487774e6 0.0
0.0 0.0 0.0

1.431316769624989e6 1.7355278346448135e7 0.0
1.7355278346448135e7 -4.358500581923871e6 0.0
0.0 0.0 0.0

-705903.8457894921 3.538819476510933e7 0.0
3.538819476510933e7 1.5747015634244438e6 0.0
0.0 0.0 0.0

-2.0173441304487875e6 1.8135777121626716e7 0.0
1.8135777121626716e7 -2.9385285258671916e6 0.0
0.0 0.0 0.0

-2.2312186135822632e6 6.362411056777298e6 0.0
6.362411056777298e6 2.6250482448341753e6 0.0
0.0 0.0 0.0

2.118591787070978e7 1.2252304378502158e7 0.0
1.2252304378502158e7 797049.0306409057 0.0
0.0 0.0 0.0

1.0893122951184753e6 9.23274337438226e6 0.0
9.23274337438226e6 -4.1672233340276256e7 0.0
0.0 0.0 0.0

-2.5985417593645374e6 2.2273270179962005e7 0.0
2.2273270179962005e7 1.5498202022409416e6 0.0
0.0 0.0 0.0

-4.198180354073923e6 7.283674930399786e6 0.0
7.283674930399786e6 6.209944890857869e6 0.0
0.0 0.0 0.0

-1.3222637563886554e6 1.2635522600547528e7 0.0
1.2635522600547528e7 -6.374361245371264e6 0.0
0.0 0.0 0.0

233934.64293300826 1.0941954084716301e7 0.0
1.0941954084716301e7 -9.88959319159445e6 0.0
0.0 0.0 0.0

-599587.8041755463 3.3830138018993855e7 0.0
3.3830138018993855e7 1.1065929575599679e6 0.0
0.0 0.0 0.0

2.3987182509650756e6 9.674845885444669e6 0.0
9.674845885444669e6 -2.599261208011139e7 0.0
0.0 0.0 0.0

-1.200916625552565e7 2.965231372754895e6 0.0
2.965231372754895e6 2.064786951606194e7 0.0
0.0 0.0 0.0

-4.0404824889753815e6 1.9471121346533168e7 0.0
1.9471121346533168e7 -1.0077338059763504e7 0.0
0.0 0.0 0.0

-5.810326992723068e6 6.1960627219817005e6 0.0
6.1960627219817005e6 9.575363392717328e6 0.0
0.0 0.0 0.0

-1.6477311125919712e6 1.708796463905016e7 0.0
1.708796463905016e7 -7.529063380027975e6 0.0
0.0 0.0 0.0

-3.2092787217200943e6 1.86459151969038e7 0.0
1.86459151969038e7 -1.498767376413432e6 0.0
0.0 0.0 0.0

847580.0369533645 1.4525502311735917e7 0.0
1.4525502311735917e7 -1.8291790866452333e7 0.0
0.0 0.0 0.0

-731617.4709025808 3.254947799822504e7 0.0
3.254947799822504e7 950519.1317994383 0.0
0.0 0.0 0.0

-4.561439986435862e6 2.044714820583625e7 0.0
2.044714820583625e7 1.173613950488549e7 0.0
0.0 0.0 0.0

-2.0697100898874688e6 1.8923523158117004e7 0.0
1.8923523158117004e7 -2.6808816657167883e6 0.0
0.0 0.0 0.0

3.191169704581905e6 6.5885747623976115e6 0.0
6.5885747623976115e6 -2.866148602412377e7 0.0
0.0 0.0 0.0

-3.2604630961964997e6 9.385550367477395e6 0.0
9.385550367477395e6 3.6480477047948297e6 0.0
0.0 0.0 0.0

-490759.97848122555 3.154924195646592e7 0.0
3.154924195646592e7 1.0404812189283206e6 0.0
0.0 0.0 0.0

2.0305962613527365e6 8.309298275456431e6 0.0
8.309298275456431e6 -4.365620372846751e7 0.0
0.0 0.0 0.0

-373017.3766636685 3.0702984715314068e7 0.0
3.0702984715314068e7 952794.7370883755 0.0
0.0 0.0 0.0

-445813.6220277891 2.9932134128478497e7 0.0
2.9932134128478497e7 753008.6282694138 0.0
0.0 0.0 0.0

-2.315625055756034e6 2.426971541815391e7 0.0
2.426971541815391e7 -558996.8095248942 0.0
0.0 0.0 0.0

-2.2088900003778776e6 2.4797681681274075e7 0.0
2.4797681681274075e7 -383637.2259067477 0.0
0.0 0.0 0.0

-2.129597652703407e6 2.5313736649450805e7 0.0
2.5313736649450805e7 -243594.5505875324 0.0
0.0 0.0 0.0

-2.0405366812932484e6 2.5801106110784795e7 0.0
2.5801106110784795e7 -176496.1411155542 0.0
0.0 0.0 0.0

-1.9816099250759147e6 2.6289183557360202e7 0.0
2.6289183557360202e7 -58146.72136372025 0.0
0.0 0.0 0.0

-1.9186280190425827e6 2.6799364196743436e7 0.0
2.6799364196743436e7 -39484.6180156488 0.0
0.0 0.0 0.0

-6.403724356431566e6 1.287692582243268e7 0.0
1.287692582243268e7 7.460542687650844e6 0.0
0.0 0.0 0.0

-1.7903729677824746e6 2.7303218844216943e7 0.0
2.7303218844216943e7 65131.92406822648 0.0
0.0 0.0 0.0

-1.8460452543420475e6 2.7847191690270208e7 0.0
2.7847191690270208e7 102298.4595356388 0.0
0.0 0.0 0.0

-9.17555447657808e6 1.5044082025979072e7 0.0
1.5044082025979072e7 1.894596094655756e7 0.0
0.0 0.0 0.0

-564307.4471601159 2.925591716191072e7 0.0
2.925591716191072e7 732656.0653410781 0.0
0.0 0.0 0.0

-1.9178553465973712e6 2.8341302377177086e7 0.0
2.8341302377177086e7 156962.55348562275 0.0
0.0 0.0 0.0

-1.810597498375801e6 2.8958501736371335e7 0.0
2.8958501736371335e7 274882.53773182887 0.0
0.0 0.0 0.0

-658920.774928418 2.867379791094114e7 0.0
2.867379791094114e7 677451.2407102145 0.0
0.0 0.0 0.0

-1.3876882387236774e6 1.4647672447067423e7 0.0
1.4647672447067423e7 -4.0938632605966297e6 0.0
0.0 0.0 0.0

-1.9489990845296655e6 2.9603702924699455e7 0.0
2.9603702924699455e7 238089.87865359976 0.0
0.0 0.0 0.0

-919943.4965459674 2.8088397791819748e7 0.0
2.8088397791819748e7 498586.29748705454 0.0
0.0 0.0 0.0

-786087.7211497019 2.755413598802494e7 0.0
2.755413598802494e7 487625.19867887435 0.0
0.0 0.0 0.0

-1.0217259222746794e6 2.7083715792053293e7 0.0
2.7083715792053293e7 408428.43185070297 0.0
0.0 0.0 0.0

-1.215306736026214e6 2.65497946722207e7 0.0
2.65497946722207e7 349747.3386894415 0.0
0.0 0.0 0.0

-1.3125636494743056e6 2.6079913382054716e7 0.0
2.6079913382054716e7 261678.7231087156 0.0
0.0 0.0 0.0

-1.5151190998500367e6 2.5578817261000384e7 0.0
2.5578817261000384e7 179721.54612763983 0.0
0.0 0.0 0.0

-1.5727380379732538e6 2.5099025244733233e7 0.0
2.5099025244733233e7 94150.21625362278 0.0
0.0 0.0 0.0

-1.671410294003321e6 2.458722753533665e7 0.0
2.458722753533665e7 -51634.65431057656 0.0
0.0 0.0 0.0

-2.455795515300286e6 2.0900676373075847e7 0.0
2.0900676373075847e7 -3.3189588422761136e6 0.0
0.0 0.0 0.0

-8.322339874302458e6 1.6515009069683904e7 0.0
1.6515009069683904e7 2.460189223762563e7 0.0
0.0 0.0 0.0

-2.2072671901018405e6 3.0275625096223593e7 0.0
3.0275625096223593e7 283254.2151065392 0.0
0.0 0.0 0.0

2.9014212411792874e6 7.922550719727117e6 0.0
7.922550719727117e6 -2.0100330131221984e7 0.0
0.0 0.0 0.0

-2.876816731682146e6 2.0631212588166475e7 0.0
2.0631212588166475e7 2.0494265511816426e6 0.0
0.0 0.0 0.0

-2.6254290139608984e6 3.1127722565886315e7 0.0
3.1127722565886315e7 380423.0596768458 0.0
0.0 0.0 0.0

-1.1459499696357047e7 1.0116778976027029e7 0.0
1.0116778976027029e7 1.9378865914273113e7 0.0
0.0 0.0 0.0

-3.2067218421474136e6 3.211027439255674e7 0.0
3.211027439255674e7 289223.69070354756 0.0
0.0 0.0 0.0

-1.2057337481338477e7 8.566329805711236e6 0.0
8.566329805711236e6 2.159408627921117e7 0.0
0.0 0.0 0.0

-3.9648327572404593e6 3.317935838763544e7 0.0
3.317935838763544e7 119784.40368133597 0.0
0.0 0.0 0.0

108356.04786689859 1.7000759400435884e7 0.0
1.7000759400435884e7 -1.4244034001423972e7 0.0
0.0 0.0 0.0

2.550909483727238e6 1.0373145872667931e7 0.0
1.0373145872667931e7 -1.6297356237028256e7 0.0
0.0 0.0 0.0

-107752.27376612648 1.2907113358525828e7 0.0
1.2907113358525828e7 -2.978898289228442e7 0.0
0.0 0.0 0.0

-2.2830630576379774e6 1.8654273084911413e7 0.0
1.8654273084911413e7 -1.837108126800489e6 0.0
0.0 0.0 0.0

-1.0462159855903015e6 1.4655582210715039e7 0.0
1.4655582210715039e7 -8.587507195443071e6 0.0
0.0 0.0 0.0

-2.0705780282000834e6 1.9852449912677184e7 0.0
1.9852449912677184e7 -5.3719655731553035e6 0.0
0.0 0.0 0.0

66570.03461732809 1.71711822174736e7 0.0
1.71711822174736e7 -1.4260658297047574e7 0.0
0.0 0.0 0.0

4.521692056268906e6 2.5758393616813747e6 0.0
2.5758393616813747e6 -2.4196847635188445e7 0.0
0.0 0.0 0.0

-3.7182796651947736e6 1.206757381369096e7 0.0
1.206757381369096e7 4.193165812501811e6 0.0
0.0 0.0 0.0

-4.853768096650018e6 3.4519587968663685e7 0.0
3.4519587968663685e7 215566.5195882062 0.0
0.0 0.0 0.0

2.105103246683485e6 1.111152500386845e7 0.0
1.111152500386845e7 -1.3845001165263789e7 0.0
0.0 0.0 0.0

-1.2076537253044367e7 9.104975068886906e6 0.0
9.104975068886906e6 2.3830582868937727e7 0.0
0.0 0.0 0.0

-1.7860075564387823e6 1.6460766637519283e7 0.0
1.6460766637519283e7 -3.5194068417600077e6 0.0
0.0 0.0 0.0

-771869.9556414364 2.6338673826503355e7 0.0
2.6338673826503355e7 -951275.4702242112 0.0
0.0 0.0 0.0

3.115217140586825e6 7.2668474989947565e6 0.0
7.2668474989947565e6 -2.1089864148874752e7 0.0
0.0 0.0 0.0

-1.0220520141905738e7 3.1302536532139506e7 0.0
3.1302536532139506e7 4.785857112506024e6 0.0
0.0 0.0 0.0

-6.377472333097529e6 1.4543929296517882e7 0.0
1.4543929296517882e7 8.755855043023583e6 0.0
0.0 0.0 0.0

-1.4641370114255987e7 2.4048934381892644e7 0.0
2.4048934381892644e7 4.0922291920313872e6 0.0
0.0 0.0 0.0

1.3014732358089467e6 1.7060861730851702e7 0.0
1.7060861730851702e7 1.1173023387622574e7 0.0
0.0 0.0 0.0

-6.729144948747555e6 3.645028777528354e7 0.0
3.645028777528354e7 156525.79507069103 0.0
0.0 0.0 0.0

2.0130957073670998e6 1.0785646152315548e7 0.0
1.0785646152315548e7 -2.5115809187604997e7 0.0
0.0 0.0 0.0

-5.183710824291539e6 1.4362329948832948e7 0.0
1.4362329948832948e7 4.76779964003228e6 0.0
0.0 0.0 0.0

1.091992631220843e6 1.5389119884064516e7 0.0
1.5389119884064516e7 3.6399758585317787e6 0.0
0.0 0.0 0.0

2.4929571436646106e6 8.727897982396415e6 0.0
8.727897982396415e6 -1.7636914821537614e7 0.0
0.0 0.0 0.0

387397.804891545 1.802966619479888e7 0.0
1.802966619479888e7 3.347928049336641e6 0.0
0.0 0.0 0.0

2.6958002148467544e6 8.57758549330888e6 0.0
8.57758549330888e6 -1.9142307748835757e7 0.0
0.0 0.0 0.0

-178509.10416915524 1.4964898297432289e7 0.0
1.4964898297432289e7 -2.5993425445238925e6 0.0
0.0 0.0 0.0

-2.514338917083178e6 1.913187974906869e7 0.0
1.913187974906869e7 -752467.355063744 0.0
0.0 0.0 0.0

-2.7871113133986723e6 1.9215292463996574e7 0.0
1.9215292463996574e7 -3.144030912575695e6 0.0
0.0 0.0 0.0

1.987628717291087e6 9.04768064835793e6 0.0
9.04768064835793e6 -1.4448180289804762e7 0.0
0.0 0.0 0.0

1.9663496365729716e7 2.031128762032581e7 0.0
2.031128762032581e7 8.162261788563181e6 0.0
0.0 0.0 0.0

1.7222951110539064e6 1.2022001450222308e7 0.0
1.2022001450222308e7 -1.354525194318027e7 0.0
0.0 0.0 0.0

-545583.6991904529 1.4866128426303644e7 0.0
1.4866128426303644e7 -6.976236825149529e6 0.0
0.0 0.0 0.0

-5.0622140592366e6 2.0600833241825055e7 0.0
2.0600833241825055e7 5.961428449961219e6 0.0
0.0 0.0 0.0

764584.2352282912 1.10961346870793e7 0.0
1.10961346870793e7 -8.204954319705296e6 0.0
0.0 0.0 0.0

-4.477128902750041e6 2.103676632486066e7 0.0
2.103676632486066e7 1.0448976355094343e7 0.0
0.0 0.0 0.0

2.8043332854937115e6 1.676517848161135e7 0.0
1.676517848161135e7 1.907167701594828e7 0.0
0.0 0.0 0.0

-9.030937423767567e6 1.148221661361796e7 0.0
1.148221661361796e7 1.604106879404811e7 0.0
0.0 0.0 0.0

-9.60694434796566e6 3.86478021656469e7 0.0
3.86478021656469e7 -423519.3347378392 0.0
0.0 0.0 0.0

-1.7092215366729815e6 1.6864309527044736e7 0.0
1.6864309527044736e7 3.3619074925087206e7 0.0
0.0 0.0 0.0

-3.372429954779872e6 1.4758689267722957e7 0.0
1.4758689267722957e7 -1.499693567322532e6 0.0
0.0 0.0 0.0

8.0108328769168295e6 1.801298243901056e7 0.0
1.801298243901056e7 1.9119597981658364e6 0.0
0.0 0.0 0.0

3.36286967189472e6 6.79457537929763e6 0.0
6.79457537929763e6 -2.3627993546937473e7 0.0
0.0 0.0 0.0

1.5422659431062955e6 1.099504496614638e7 0.0
1.099504496614638e7 -2.8439768151595265e7 0.0
0.0 0.0 0.0

-5.655687192944409e6 1.72722696707839e7 0.0
1.72722696707839e7 1.0360196633622512e7 0.0
0.0 0.0 0.0

-1.0642124674567942e7 2.325902091871304e7 0.0
2.325902091871304e7 -7.104423091885628e6 0.0
0.0 0.0 0.0

-2.91482728033257e6 1.6789091989577506e7 0.0
1.6789091989577506e7 780702.3600864332 0.0
0.0 0.0 0.0

-236587.74268291797 1.5093483859266967e7 0.0
1.5093483859266967e7 -1.1563515494826328e7 0.0
0.0 0.0 0.0

-1.3822103501311084e7 3.030802215259652e7 0.0
3.030802215259652e7 6.30843899128678e6 0.0
0.0 0.0 0.0

1.8014239028231213e6 1.1157844627671177e7 0.0
1.1157844627671177e7 -1.747771259156871e7 0.0
0.0 0.0 0.0

-2.937527151835827e6 1.7667535274665993e7 0.0
1.7667535274665993e7 918986.4730283995 0.0
0.0 0.0 0.0

-3.7376412199700056e6 8.40557636804523e6 0.0
8.40557636804523e6 4.951116023124081e6 0.0
0.0 0.0 0.0

-4.333104731451748e6 1.70744744807547e7 0.0
1.70744744807547e7 8.859376946341002e6 0.0
0.0 0.0 0.0

-9.596229644058306e6 5.766901356251707e7 0.0
5.766901356251707e7 -320312.28556855675 0.0
0.0 0.0 0.0

-7.776710343294453e6 1.2449511387169102e7 0.0
1.2449511387169102e7 1.4510880212970436e7 0.0
0.0 0.0 0.0

-2.955092933297922e6 6.542085853343003e6 0.0
6.542085853343003e6 181941.81928271067 0.0
0.0 0.0 0.0

-2.280527813839852e6 2.018085148961698e7 0.0
2.018085148961698e7 -1.3690141670760002e6 0.0
0.0 0.0 0.0

-3.642190294101538e6 2.0222527009797208e7 0.0
2.0222527009797208e7 3.3531772888791002e6 0.0
0.0 0.0 0.0

-815683.4715704881 1.781190527078347e7 0.0
1.781190527078347e7 -7.416614792421458e6 0.0
0.0 0.0 0.0

-2.960581232394386e6 1.9725124767469544e7 0.0
1.9725124767469544e7 -2.0738627906223105e6 0.0
0.0 0.0 0.0

-8.388759278877724e6 1.2783305778064379e6 0.0
1.2783305778064379e6 1.1432806140947416e7 0.0
0.0 0.0 0.0

56597.99383354047 1.6259685281698488e7 0.0
1.6259685281698488e7 -4.140589297799799e6 0.0
0.0 0.0 0.0

-3.6292790821938342e6 2.091845369367502e7 0.0
2.091845369367502e7 3.435185550196657e6 0.0
0.0 0.0 0.0

1.2226988777573174e6 1.0243852841339808e7 0.0
1.0243852841339808e7 -1.260137149519537e7 0.0
0.0 0.0 0.0

548993.8840275516 1.6657426437939063e7 0.0
1.6657426437939063e7 -3.324359536793134e6 0.0
0.0 0.0 0.0

-1.7005713490311023e7 2.298286562892456e7 0.0
2.298286562892456e7 1.7770194577633785e6 0.0
0.0 0.0 0.0

-6.502423163189901e6 1.3311550503505053e7 0.0
1.3311550503505053e7 1.2841834625666916e7 0.0
0.0 0.0 0.0

222769.63715741877 1.6531994687009225e7 0.0
1.6531994687009225e7 -1.5272085783703107e7 0.0
0.0 0.0 0.0

-3.7419315123701054e6 2.131795220539866e7 0.0
2.131795220539866e7 5.330117701362936e6 0.0
0.0 0.0 0.0

3.757697123988104e6 2.972775372930649e6 0.0
2.972775372930649e6 -1.3592515597130772e7 0.0
0.0 0.0 0.0

-3.4136273196365573e6 -1.187862935165348e6 0.0
-1.187862935165348e6 3.0734863649660395e6 0.0
0.0 0.0 0.0

-1.6425250826467741e6 -198473.98872753922 0.0
-198473.98872753922 1.6205167231870047e6 0.0
0.0 0.0 0.0

-8.695076174670504e6 -6.16605210280053e6 0.0
-6.16605210280053e6 2.283973597991186e7 0.0
0.0 0.0 0.0

-464598.874968508 1.1785454258785234e6 0.0
1.1785454258785234e6 -484393.156354771 0.0
0.0 0.0 0.0

-8.153658194682235e6 -6.55797738941271e6 0.0
-6.55797738941271e6 2.0322472273071658e7 0.0
0.0 0.0 0.0

3.5904321651759665e6 3.135374232958588e6 0.0
3.135374232958588e6 -1.0879599449825251e7 0.0
0.0 0.0 0.0

-4.1096431263220045e6 -4.624093644436036e6 0.0
-4.624093644436036e6 6.560567462178443e6 0.0
0.0 0.0 0.0

-5.996753423968823e6 -6.9912245137287835e6 0.0
-6.9912245137287835e6 1.223559305272664e7 0.0
0.0 0.0 0.0

478887.82685994834 2.183696881247039e6 0.0
2.183696881247039e6 -2.441146925878672e6 0.0
0.0 0.0 0.0

-7.427246621541281e6 -7.113290893937908e6 0.0
-7.113290893937908e6 1.743449832854907e7 0.0
0.0 0.0 0.0

2.861155281947126e6 3.211785711850575e6 0.0
3.211785711850575e6 -8.060002482105773e6 0.0
0.0 0.0 0.0

1.8711897371798903e6 3.024481918070062e6 0.0
3.024481918070062e6 -5.329832657707552e6 0.0
0.0 0.0 0.0

-3.3710930479458272e6 -2.221564899370904e6 0.0
-2.221564899370904e6 3.9470671707725544e6 0.0
0.0 0.0 0.0

4.50938346891706e6 2.660726687144969e6 0.0
2.660726687144969e6 -2.190911863864254e7 0.0
0.0 0.0 0.0

4.606827130842685e6 2.564441980904705e6 0.0
2.564441980904705e6 -2.3648609296043e7 0.0
0.0 0.0 0.0

4.460956924326e6 2.6880861684127054e6 0.0
2.6880861684127054e6 -2.0189392730323512e7 0.0
0.0 0.0 0.0

4.449959244028652e6 2.8569565654208222e6 0.0
2.8569565654208222e6 -1.7496251816536725e7 0.0
0.0 0.0 0.0

-4.523732377737077e6 -3.307175047580533e6 0.0
-3.307175047580533e6 5.764400422306711e6 0.0
0.0 0.0 0.0

-7.602596163410345e6 -6.811036350625898e6 0.0
-6.811036350625898e6 1.8780326279319905e7 0.0
0.0 0.0 0.0

4.56667899389493e6 2.6628445887863585e6 0.0
2.6628445887863585e6 -2.2860608598947916e7 0.0
0.0 0.0 0.0

3.9430545756252063e6 2.9150687490235367e6 0.0
2.9150687490235367e6 -1.551531847038752e7 0.0
0.0 0.0 0.0

4.1618620188762164e6 2.8771351556111495e6 0.0
2.8771351556111495e6 -1.6493391783984087e7 0.0
0.0 0.0 0.0

4.0310551767845945e6 2.9413051880965102e6 0.0
2.9413051880965102e6 -1.467501324801103e7 0.0
0.0 0.0 0.0

925382.9261557385 1.5212262652975982e7 0.0
1.5212262652975982e7 -1.3787310576121125e7 0.0
0.0 0.0 0.0

-1.0606475738172598e7 1.1107574457564633e7 0.0
1.1107574457564633e7 1.8411568470349744e7 0.0
0.0 0.0 0.0

-1.2509419379796768e7 6.214385061921563e6 0.0
6.214385061921563e6 2.292592822525901e7 0.0
0.0 0.0 0.0

-4.304614370787807e6 2.1682730980383825e7 0.0
2.1682730980383825e7 9.360991446617628e6 0.0
0.0 0.0 0.0

-508710.18482985534 1.5142557960398877e7 0.0
1.5142557960398877e7 -2.106014155348847e7 0.0
0.0 0.0 0.0

-4.202755836269181e6 1.7854506222253058e7 0.0
1.7854506222253058e7 3.353943550850681e6 0.0
0.0 0.0 0.0

-1.4158647689293142e7 4.187859075300954e7 0.0
4.187859075300954e7 -1.0527914848319208e6 0.0
0.0 0.0 0.0

-3.4463077787714317e6 1.5730068827194601e7 0.0
1.5730068827194601e7 -1.260918609214307e6 0.0
0.0 0.0 0.0

-3.915386589901044e6 1.8293595100162413e7 0.0
1.8293595100162413e7 -1.1967471115921363e7 0.0
0.0 0.0 0.0

6.4363043370563695e6 2.014285507229896e7 0.0
2.014285507229896e7 8.870698031985467e6 0.0
0.0 0.0 0.0

-3.000752826312509e6 1.8729784501184747e7 0.0
1.8729784501184747e7 7.444637834895212e6 0.0
0.0 0.0 0.0

-4.0694647069790545e6 1.7961001139349796e7 0.0
1.7961001139349796e7 8.541471529544355e6 0.0
0.0 0.0 0.0

314103.28948578006 1.8511732820176437e7 0.0
1.8511732820176437e7 -1.1408134823336007e7 0.0
0.0 0.0 0.0

-4.790786627140747e6 1.6420023703756267e7 0.0
1.6420023703756267e7 1.0283535226778308e7 0.0
0.0 0.0 0.0

-3.0469395769380354e6 2.0224726770834662e7 0.0
2.0224726770834662e7 -1.1071651563897668e6 0.0
0.0 0.0 0.0

-2.549976804356874e6 1.8698759993459944e7 0.0
1.8698759993459944e7 -4.228103204213584e6 0.0
0.0 0.0 0.0

-6.87746811473438e6 1.3267475266646583e7 0.0
1.3267475266646583e7 9.001616756975368e6 0.0
0.0 0.0 0.0

-616956.217170402 1.414077950787394e7 0.0
1.414077950787394e7 -9.661374910273613e6 0.0
0.0 0.0 0.0

-3.1696755668786718e6 1.6390541715987513e7 0.0
1.6390541715987513e7 1.863844247311859e6 0.0
0.0 0.0 0.0

1.6224569468451515e6 9.656591593157189e6 0.0
9.656591593157189e6 -1.351210151693125e7 0.0
0.0 0.0 0.0

-2.632015694457437e6 -1.7362363534611533e6 0.0
-1.7362363534611533e6 5.847934823488371e6 0.0
0.0 0.0 0.0

-1.9609916245084563e6 -300828.8498977235 0.0
-300828.8498977235 4.1647985250441562e6 0.0
0.0 0.0 0.0

-7.725913446918491e6 -6.910610621407799e6 0.0
-6.910610621407799e6 1.795474390824248e7 0.0
0.0 0.0 0.0

-3.117679174560015e6 -2.4496323926238315e6 0.0
-2.4496323926238315e6 7.375529221161645e6 0.0
0.0 0.0 0.0

-3.330528885005704e6 -4.099742896840795e6 0.0
-4.099742896840795e6 8.425326426834792e6 0.0
0.0 0.0 0.0

4.485945399062421e6 2.6472931670415103e6 0.0
2.6472931670415103e6 -2.205568195960045e7 0.0
0.0 0.0 0.0

4.4678049203615775e6 2.586754055440352e6 0.0
2.586754055440352e6 -2.2753997792998634e7 0.0
0.0 0.0 0.0

-8.056771038151146e6 -6.560507867673135e6 0.0
-6.560507867673135e6 1.962578860145931e7 0.0
0.0 0.0 0.0

4.199428613766316e6 2.9187273324485337e6 0.0
2.9187273324485337e6 -1.6898481002048217e7 0.0
0.0 0.0 0.0

3.9650617262388607e6 3.063887712557039e6 0.0
3.063887712557039e6 -1.3819649823046833e7 0.0
0.0 0.0 0.0

4.0759929587541213e6 2.968347851204065e6 0.0
2.968347851204065e6 -1.5601615539047569e7 0.0
0.0 0.0 0.0

4.0194635926050143e6 2.9324014211141253e6 0.0
2.9324014211141253e6 -1.4708104006942913e7 0.0
0.0 0.0 0.0

-4.064547640039215e6 1.4876694271209303e7 0.0
1.4876694271209303e7 903669.810587161 0.0
0.0 0.0 0.0

-8.168333790584782e6 1.693988333839202e7 0.0
1.693988333839202e7 2.334788705471029e7 0.0
0.0 0.0 0.0

-5.671745177511235e6 1.6026722894689536e7 0.0
1.6026722894689536e7 1.2888575515130945e7 0.0
0.0 0.0 0.0

4.074866795791881e6 5.788745946236964e6 0.0
5.788745946236964e6 -1.9523619622561306e7 0.0
0.0 0.0 0.0

-1.5396421769229847e6 2.2126154893674925e7 0.0
2.2126154893674925e7 -4.449702397202468e6 0.0
0.0 0.0 0.0

-2.3870603426185567e6 1.8581987663899537e7 0.0
1.8581987663899537e7 1.777150097748388e7 0.0
0.0 0.0 0.0

-1.1941045042527463e7 1.3155446069404442e7 0.0
1.3155446069404442e7 1.984547628622327e7 0.0
0.0 0.0 0.0

2.2339715634336993e6 9.33880827898517e6 0.0
9.33880827898517e6 -1.6667364853961293e7 0.0
0.0 0.0 0.0

1.7616269994879495e6 1.1534778239397882e7 0.0
1.1534778239397882e7 -1.79295313697249e7 0.0
0.0 0.0 0.0

-2.512946972524779e6 1.791731232602619e7 0.0
1.791731232602619e7 -4.538030101236109e6 0.0
0.0 0.0 0.0

-3.4546365860231426e6 1.8388562788962126e7 0.0
1.8388562788962126e7 1.9813074928187933e7 0.0
0.0 0.0 0.0

-3.5509939699159814e6 1.0774619823452966e7 0.0
1.0774619823452966e7 3.9657880214731097e6 0.0
0.0 0.0 0.0

-1.0806514809701042e6 1.835677462758959e7 0.0
1.835677462758959e7 -6.37018627377183e6 0.0
0.0 0.0 0.0

-2.305435708571222e6 2.2033894694785498e7 0.0
2.2033894694785498e7 -25409.28863867058 0.0
0.0 0.0 0.0

1.3185661833667317e6 1.2873025157134706e7 0.0
1.2873025157134706e7 -1.3383700405658215e7 0.0
0.0 0.0 0.0

-2.306164724749648e6 1.942845701820922e7 0.0
1.942845701820922e7 -1.595343401009589e6 0.0
0.0 0.0 0.0

1.4978861707365403e6 3.461023021057058e6 0.0
3.461023021057058e6 1.994728586342261e6 0.0
0.0 0.0 0.0

-3.8416132414357495e6 1.8572032445822023e7 0.0
1.8572032445822023e7 1.902179515732456e7 0.0
0.0 0.0 0.0

1.8401645393810142e6 9.919639571177796e6 0.0
9.919639571177796e6 -3.330628243265049e7 0.0
0.0 0.0 0.0

1.8324910499020256e6 1.0833651602736266e7 0.0
1.0833651602736266e7 -2.677782855701915e7 0.0
0.0 0.0 0.0

-964282.3599517562 1.758876169782314e7 0.0
1.758876169782314e7 -6.730019053291883e6 0.0
0.0 0.0 0.0

-8.866364840439742e6 2.204635430951561e7 0.0
2.204635430951561e7 4.837035874040919e6 0.0
0.0 0.0 0.0

2.9435687211002e6 6.367305978600407e6 0.0
6.367305978600407e6 -1.0810864897299472e7 0.0
0.0 0.0 0.0

-2.8643852330759806e6 1.5871290405586498e7 0.0
1.5871290405586498e7 646255.9298224726 0.0
0.0 0.0 0.0

-3.0090761569825658e6 1.895744719093726e7 0.0
1.895744719093726e7 -2.3223242032261835e6 0.0
0.0 0.0 0.0

-2.0795683839528484e6 1.968964611571857e7 0.0
1.968964611571857e7 -2.4098615788359926e6 0.0
0.0 0.0 0.0

-613096.5820072982 1.5146364881474463e7 0.0
1.5146364881474463e7 -2.2885662055501793e7 0.0
0.0 0.0 0.0

1.9121170721034575e6 1.1311681719824247e7 0.0
1.1311681719824247e7 -2.2437471507316776e7 0.0
0.0 0.0 0.0

-4.89745497523593e6 1.1328563640419278e7 0.0
1.1328563640419278e7 3.08242922815537e6 0.0
0.0 0.0 0.0

-5.511672135628101e6 1.6979950729634073e7 0.0
1.6979950729634073e7 9.314395613448149e6 0.0
0.0 0.0 0.0

715858.2912782077 1.381989143170558e7 0.0
1.381989143170558e7 -2.3642874772610594e7 0.0
0.0 0.0 0.0

-1.4127377026534665e6 2.0330551054156393e7 0.0
2.0330551054156393e7 -4.629328431990303e6 0.0
0.0 0.0 0.0

2.2871035911751376e6 3.0811568782059355e6 0.0
3.0811568782059355e6 -6.301407414172753e6 0.0
0.0 0.0 0.0

3.224576869594807e6 2.798498522956346e7 0.0
2.798498522956346e7 -3.0141186019592937e6 0.0
0.0 0.0 0.0

2.535786240596615e6 7.07894710714989e6 0.0
7.07894710714989e6 -9.978934489459846e6 0.0
0.0 0.0 0.0

-1.109905034857607e6 1.3688452217562623e7 0.0
1.3688452217562623e7 -4.37567949553698e6 0.0
0.0 0.0 0.0

-5.022595424870535e6 1.9386630089360338e7 0.0
1.9386630089360338e7 1.1247852780633247e7 0.0
0.0 0.0 0.0

-2.9172237561862967e6 1.3309768770539759e7 0.0
1.3309768770539759e7 1.5294429155297633e6 0.0
0.0 0.0 0.0

-3.071771863286484e6 1.5164357622064376e7 0.0
1.5164357622064376e7 -2.5073789104805994e6 0.0
0.0 0.0 0.0

-3.170698187841336e6 1.9437608690258272e7 0.0
1.9437608690258272e7 -1.255159860177637e6 0.0
0.0 0.0 0.0

-4.755400588985054e6 9.960567668523395e6 0.0
9.960567668523395e6 2.7447550370684853e6 0.0
0.0 0.0 0.0

-7.340999796946157e6 -38659.18647018029 0.0
-38659.18647018029 1.1149160149330601e7 0.0
0.0 0.0 0.0

-4.633667608449355e6 1.6108840267122028e7 0.0
1.6108840267122028e7 9.185870697874893e6 0.0
0.0 0.0 0.0

-3.651423275855043e6 1.7842810484110665e7 0.0
1.7842810484110665e7 5.193893582852779e6 0.0
0.0 0.0 0.0

584220.5175542678 6.950065091899243e6 0.0
6.950065091899243e6 -7.059344845688819e6 0.0
0.0 0.0 0.0

-5.702832826778467e6 1.428161764616425e7 0.0
1.428161764616425e7 1.1109539370208839e7 0.0
0.0 0.0 0.0

-2.7479571944137486e6 1.997870008121611e7 0.0
1.997870008121611e7 -2.874317798310267e6 0.0
0.0 0.0 0.0

3.3362214522633497e6 8.764073452973986e6 0.0
8.764073452973986e6 -2.3375761647886448e7 0.0
0.0 0.0 0.0

-7.735537935731144e6 2.227131952335341e7 0.0
2.227131952335341e7 4.129079649948114e6 0.0
0.0 0.0 0.0

-2.438913818667506e6 1.709999898627123e7 0.0
1.709999898627123e7 -4.858829676567473e6 0.0
0.0 0.0 0.0

2.0829295859261835e6 3.144155146477192e6 0.0
3.144155146477192e6 -5.45033458586617e6 0.0
0.0 0.0 0.0

-4.263761381852033e6 2.3407539799982887e7 0.0
2.3407539799982887e7 6.4880732508574e6 0.0
0.0 0.0 0.0

-1.235506821797104e7 8.041805529974485e6 0.0
8.041805529974485e6 1.687902209991999e7 0.0
0.0 0.0 0.0

-2.9072175768710263e6 1.6459856187368916e7 0.0
1.6459856187368916e7 -3.17950872484369e6 0.0
0.0 0.0 0.0

-2.0289997110231284e6 2.111487695907476e7 0.0
2.111487695907476e7 -1.9586564911276805e6 0.0
0.0 0.0 0.0

-2.924540109400835e6 2.1663432833395485e7 0.0
2.1663432833395485e7 -656914.8331249256 0.0
0.0 0.0 0.0

-2.5536665398000404e6 1.9459707979324855e7 0.0
1.9459707979324855e7 -3.9298200325000426e6 0.0
0.0 0.0 0.0

-2.7024775940620378e6 1.9584466239562288e7 0.0
1.9584466239562288e7 267319.86053691374 0.0
0.0 0.0 0.0

3.080712464691934e6 3.1667508426301507e6 0.0
3.1667508426301507e6 -8.956293117867453e6 0.0
0.0 0.0 0.0

-1.1485695748313472e6 2.371082659213285e7 0.0
2.371082659213285e7 -3.633396229874723e6 0.0
0.0 0.0 0.0

-1.2670735275882782e7 1.7701534161940128e7 0.0
1.7701534161940128e7 -5.5806966284291126e7 0.0
0.0 0.0 0.0

1.2297133131204335e7 1.8049846359341e7 0.0
1.8049846359341e7 5.5167542941120975e7 0.0
0.0 0.0 0.0

1.0081708425535737e6 1.3913974719154228e7 0.0
1.3913974719154228e7 -1.7098159678911105e7 0.0
0.0 0.0 0.0

-1.4171250839130734e6 1.8873674273717567e7 0.0
1.8873674273717567e7 -5.314056548073311e6 0.0
0.0 0.0 0.0

-3.0216979655747972e6 1.5067626649605172e7 0.0
1.5067626649605172e7 -1.7839726921772696e7 0.0
0.0 0.0 0.0

-2.3058630180480396e6 1.6256219376850301e7 0.0
1.6256219376850301e7 -5.19884893302837e6 0.0
0.0 0.0 0.0

314446.76095199864 1.8706480750296086e7 0.0
1.8706480750296086e7 -1.1434026455339268e7 0.0
0.0 0.0 0.0

-1.496347486159612e6 1.5188928809404768e7 0.0
1.5188928809404768e7 -7.474989691997167e6 0.0
0.0 0.0 0.0

-3.3214185907714693e6 1.9170042452607647e7 0.0
1.9170042452607647e7 -416490.1770611546 0.0
0.0 0.0 0.0

1.97490739572973e6 8.771373330984415e6 0.0
8.771373330984415e6 -4.096828111358647e7 0.0
0.0 0.0 0.0

-8.285789431997547e6 2.0934342567109723e7 0.0
2.0934342567109723e7 3.227347628620301e6 0.0
0.0 0.0 0.0

-4.0413469930679793e6 1.9428666315182403e7 0.0
1.9428666315182403e7 5.403825091760166e6 0.0
0.0 0.0 0.0

-994038.2521651194 1.5393884302013723e7 0.0
1.5393884302013723e7 -5.851426320197919e6 0.0
0.0 0.0 0.0

1.7550223958700942e6 1.1870555495900309e7 0.0
1.1870555495900309e7 -2.1276577274463862e7 0.0
0.0 0.0 0.0

1.1920625319009129e7 1.869220301150148e7 0.0
1.869220301150148e7 3.9735417844859876e7 0.0
0.0 0.0 0.0

-753019.2037882754 1.920921766848153e7 0.0
1.920921766848153e7 -7.9634673919082545e6 0.0
0.0 0.0 0.0

-2.342728992716071e7 4.7026802966456905e7 0.0
4.7026802966456905e7 -1.3068749703808492e6 0.0
0.0 0.0 0.0

1.1912911512585692e6 1.338522519587214e7 0.0
1.338522519587214e7 -1.8109266081368443e7 0.0
0.0 0.0 0.0

-1.8503002702672016e6 1.917826343566034e7 0.0
1.917826343566034e7 -3.484119760464974e6 0.0
0.0 0.0 0.0

2.9043887905958733e6 3.2276561005729204e6 0.0
3.2276561005729204e6 -8.278789918187289e6 0.0
0.0 0.0 0.0

3.071003192817251e6 7.855645421348966e6 0.0
7.855645421348966e6 -2.3021550570723373e7 0.0
0.0 0.0 0.0

-2.358134781831438e6 2.1369005864972886e7 0.0
2.1369005864972886e7 -184185.9304334994 0.0
0.0 0.0 0.0

-5.230228302564914e6 1.5850597449996687e7 0.0
1.5850597449996687e7 -3.266435493320877e7 0.0
0.0 0.0 0.0

-1.399880473516916e6 1.5929739510421779e7 0.0
1.5929739510421779e7 -4.690483396092207e6 0.0
0.0 0.0 0.0

1.340276397796698e6 1.1403831382543111e7 0.0
1.1403831382543111e7 -1.0739132941531938e7 0.0
0.0 0.0 0.0

-3.762853454185126e6 1.4409167479548074e7 0.0
1.4409167479548074e7 4.310667702351771e6 0.0
0.0 0.0 0.0

1.4375976513416823e6 1.28934880590038e7 0.0
1.28934880590038e7 -1.9177290136784874e7 0.0
0.0 0.0 0.0

-4.870401074425233e6 1.3820068740214232e7 0.0
1.3820068740214232e7 3.408799133719895e6 0.0
0.0 0.0 0.0

343091.08704016544 1.6075341769194685e7 0.0
1.6075341769194685e7 -1.6311229978627488e7 0.0
0.0 0.0 0.0

-1.8659340080948625e7 2.6102206633419044e7 0.0
2.6102206633419044e7 -6.81143873351931e6 0.0
0.0 0.0 0.0

-4.771513113019705e6 -5.698727848110202e6 0.0
-5.698727848110202e6 8.356572330927957e6 0.0
0.0 0.0 0.0

-4.513381616872983e6 1.4267124555833027e7 0.0
1.4267124555833027e7 7.03577721664938e6 0.0
0.0 0.0 0.0

-2.487500581788305e6 1.9890023165918138e7 0.0
1.9890023165918138e7 -538047.4248764828 0.0
0.0 0.0 0.0

-9.187552398858909e6 360049.8301357412 0.0
360049.8301357412 3.99090811754892e7 0.0
0.0 0.0 0.0

-262309.8706403882 1.7881767161831964e7 0.0
1.7881767161831964e7 1.1344453372144327e7 0.0
0.0 0.0 0.0

-1.9142834367077698e6 1.5717436820227053e7 0.0
1.5717436820227053e7 -6.353252382500599e6 0.0
0.0 0.0 0.0

16152.430877858307 1.8633196276312247e7 0.0
1.8633196276312247e7 -1.0540262186391788e7 0.0
0.0 0.0 0.0

-1.0715397751159896e6 1.679639133464379e7 0.0
1.679639133464379e7 -9.174440365791686e6 0.0
0.0 0.0 0.0

-1.1626710365408966e6 1.3007218738865003e7 0.0
1.3007218738865003e7 -7.302123088560753e6 0.0
0.0 0.0 0.0

-2.0662936077081165e6 1.8394967076975726e7 0.0
1.8394967076975726e7 -6.064007619858378e6 0.0
0.0 0.0 0.0

-5.098961285906644e6 1.696750439496831e7 0.0
1.696750439496831e7 1.2367439767728709e7 0.0
0.0 0.0 0.0

-3.1437106619555256e6 1.7278764240229305e7 0.0
1.7278764240229305e7 1.9389140234761988e6 0.0
0.0 0.0 0.0

-3.167762610926641e6 1.6102586936950106e7 0.0
1.6102586936950106e7 -2.2602368293021615e6 0.0
0.0 0.0 0.0

3.266488083007347e6 7.65745202452337e6 0.0
7.65745202452337e6 -2.9143939089756574e7 0.0
0.0 0.0 0.0

-4.945644259336105e6 2.396424600500868e7 0.0
2.396424600500868e7 6.82767773381339e6 0.0
0.0 0.0 0.0

-3.7231739007954975e6 2.5418179126960402e6 0.0
2.5418179126960402e6 5.909374933990551e6 0.0
0.0 0.0 0.0

-4.940537355242739e6 1.6700651004384315e7 0.0
1.6700651004384315e7 1.134664328821443e7 0.0
0.0 0.0 0.0

850541.7116595651 1.1543405118763132e7 0.0
1.1543405118763132e7 -9.002665746115124e6 0.0
0.0 0.0 0.0

4.0324953630380733e6 3.8600183114414667e6 0.0
3.8600183114414667e6 -1.848963490778148e7 0.0
0.0 0.0 0.0

1.591238779241344e6 1.2351455416414304e7 0.0
1.2351455416414304e7 -2.0288223334221758e7 0.0
0.0 0.0 0.0

-4.077194329359253e6 6.926015585961254e6 0.0
6.926015585961254e6 1.7877180932863553e6 0.0
0.0 0.0 0.0

-1.201980720711265e7 1.2887433105583068e7 0.0
1.2887433105583068e7 2.3296960751554206e7 0.0
0.0 0.0 0.0

-2.212453130038545e6 1.738557024107188e7 0.0
1.738557024107188e7 -5.65411968381775e6 0.0
0.0 0.0 0.0

-3.6500661561583695e6 -5.035263046327697e6 0.0
-5.035263046327697e6 9.662148366818704e6 0.0
0.0 0.0 0.0

-4.942395998326951e6 1.2621140109072901e7 0.0
1.2621140109072901e7 3.2933636779157016e6 0.0
0.0 0.0 0.0

-137692.60707734432 1.915843724685193e7 0.0
1.915843724685193e7 -9.494803741682671e6 0.0
0.0 0.0 0.0

-1.553959937713372e6 1.6567545900095377e7 0.0
1.6567545900095377e7 -1.6772149907832973e7 0.0
0.0 0.0 0.0

1.252842621222632e6 1.1506046954409113e7 0.0
1.1506046954409113e7 -1.4490357153492121e7 0.0
0.0 0.0 0.0

-228459.53348107566 9.163964417513864e6 0.0
9.163964417513864e6 -6.714205250824638e6 0.0
0.0 0.0 0.0

-1.5832647628032744e6 1.6788680854431245e7 0.0
1.6788680854431245e7 -4.373046287019447e6 0.0
0.0 0.0 0.0

-4.9802086555778235e6 1.7812336682924923e7 0.0
1.7812336682924923e7 2.1508876118818562e7 0.0
0.0 0.0 0.0

-2.747875046355218e6 2.1832410626343966e7 0.0
2.1832410626343966e7 -1.4096758189059093e6 0.0
0.0 0.0 0.0

-7.982966623527782e6 1.757205741230503e7 0.0
1.757205741230503e7 1.77288156912206e7 0.0
0.0 0.0 0.0

-3.969645657809446e6 1.93010136636693e7 0.0
1.93010136636693e7 1.000466820263046e7 0.0
0.0 0.0 0.0

315723.00234711077 1.0398934612308623e7 0.0
1.0398934612308623e7 -9.072180177497296e6 0.0
0.0 0.0 0.0

-3.783952395588782e6 1.3280392860907929e7 0.0
1.3280392860907929e7 4.298014747443805e6 0.0
0.0 0.0 0.0

-1.2800956564709349e6 1.7800235627809037e7 0.0
1.7800235627809037e7 1.1664864334227346e7 0.0
0.0 0.0 0.0

-1.644630918391957e6 1.3557318152133422e7 0.0
1.3557318152133422e7 -6.146190929558307e6 0.0
0.0 0.0 0.0

616786.6254202044 1.4076965914037809e7 0.0
1.4076965914037809e7 -2.2011966831316777e7 0.0
0.0 0.0 0.0

-1.720143301674154e6 1.7613759190890033e7 0.0
1.7613759190890033e7 -4.0604998292289763e6 0.0
0.0 0.0 0.0

774852.1130616209 1.4405878166259715e7 0.0
1.4405878166259715e7 -1.6101173179906629e7 0.0
0.0 0.0 0.0

-3.43378709893052e6 1.4947400036161711e7 0.0
1.4947400036161711e7 2.9919773076333925e6 0.0
0.0 0.0 0.0

-6.16263900607433e6 1.5233660378059518e7 0.0
1.5233660378059518e7 -2.42674915163549e7 0.0
0.0 0.0 0.0

-1.8066171144603717e6 1.8409795765421085e7 0.0
1.8409795765421085e7 -3.77249801391432e6 0.0
0.0 0.0 0.0

4.502138972607181e6 1.8124878647325575e7 0.0
1.8124878647325575e7 -1.4369357781791184e6 0.0
0.0 0.0 0.0

-9.540405035050131e6 2.364609150941119e6 0.0
2.364609150941119e6 3.8979341964537494e7 0.0
0.0 0.0 0.0

-7.011782945702668e6 3.0709352351710934e7 0.0
3.0709352351710934e7 4.2902950455170665e6 0.0
0.0 0.0 0.0

-3.5511892601676416e6 1.9293057747677986e7 0.0
1.9293057747677986e7 9.084421923375487e6 0.0
0.0 0.0 0.0

-1.033393569632828e7 1.3973356588919539e7 0.0
1.3973356588919539e7 2.537516928959383e7 0.0
0.0 0.0 0.0

-3.9294072671762947e6 2.165932105980107e7 0.0
2.165932105980107e7 8.482120390644921e6 0.0
0.0 0.0 0.0

-2.7705473176896777e6 1.4893661320632668e7 0.0
1.4893661320632668e7 477089.9816835278 0.0
0.0 0.0 0.0

-820032.442156286 1.5719229597770225e7 0.0
1.5719229597770225e7 -6.642965056452719e6 0.0
0.0 0.0 0.0

-1.3721500579772517e6 1.708325775181989e7 0.0
1.708325775181989e7 -5.181743856745538e6 0.0
0.0 0.0 0.0

-1.0966111572034042e6 9.883300480579581e6 0.0
9.883300480579581e6 -1.727947465136431e6 0.0
0.0 0.0 0.0

-297381.49935886776 1.9707031062732533e7 0.0
1.9707031062732533e7 -8.523439468876274e6 0.0
0.0 0.0 0.0

3.1564046255768677e6 6.501465512422116e6 0.0
6.501465512422116e6 -1.8264375241655737e7 0.0
0.0 0.0 0.0

1.6430520575419664e6 6.464602212796018e6 0.0
6.464602212796018e6 -9.428973151833812e6 0.0
0.0 0.0 0.0

-4.462267534541279e6 1.8878915804838564e7 0.0
1.8878915804838564e7 1.219219208086158e7 0.0
0.0 0.0 0.0

-2.5873165861121593e6 2.1380192504148368e7 0.0
2.1380192504148368e7 -2.390490131155488e6 0.0
0.0 0.0 0.0

3.7053344066387583e6 1.846264717753656e7 0.0
1.846264717753656e7 -3.292828243803987e6 0.0
0.0 0.0 0.0

-1.1062194030887187e7 2.38201365381567e7 0.0
2.38201365381567e7 4.94085934460392e6 0.0
0.0 0.0 0.0

2.364890921029037e6 6.250446155626178e6 0.0
6.250446155626178e6 -1.2708192603333134e7 0.0
0.0 0.0 0.0

-2.164081728360124e6 1.4074675060945848e7 0.0
1.4074675060945848e7 -4.978928224819453e6 0.0
0.0 0.0 0.0

3.589852542727696e7 1.438747090637758e7 0.0
1.438747090637758e7 1.5613006309897657e6 0.0
0.0 0.0 0.0

-7219.332165767439 9.51291027637576e6 0.0
9.51291027637576e6 -7.732544741619784e6 0.0
0.0 0.0 0.0

3.289973348261169e6 6.663841712840554e6 0.0
6.663841712840554e6 -2.202185018489845e7 0.0
0.0 0.0 0.0

-7.924169692953447e6 1.723164592817903e7 0.0
1.723164592817903e7 2.227537622875759e7 0.0
0.0 0.0 0.0

711284.2064080061 1.523052574194623e7 0.0
1.523052574194623e7 -1.7118928787235178e7 0.0
0.0 0.0 0.0

-9.526467897214502e6 9.600952787359526e6 0.0
9.600952787359526e6 1.643766461151829e7 0.0
0.0 0.0 0.0

-1.0941317368879264e7 2.993452073525382e7 0.0
2.993452073525382e7 5.325035980313789e6 0.0
0.0 0.0 0.0

-7.660242474800791e6 1.7462015979884755e7 0.0
1.7462015979884755e7 2.137319601731625e7 0.0
0.0 0.0 0.0

-4.2372737110003475e6 2.2270419777842674e7 0.0
2.2270419777842674e7 8.309322564999465e6 0.0
0.0 0.0 0.0

-1.5045441823190354e7 2.4154931972094905e7 0.0
2.4154931972094905e7 -6.197609350100514e6 0.0
0.0 0.0 0.0

-3.7403695228836243e6 1.6279079292867864e7 0.0
1.6279079292867864e7 -14725.945615494624 0.0
0.0 0.0 0.0

3.3747290486573495e7 6.122760495844815e6 0.0
6.122760495844815e6 -2.0876257887800783e6 0.0
0.0 0.0 0.0

-576539.6866768966 1.7358230466929097e7 0.0
1.7358230466929097e7 -8.460830868736401e6 0.0
0.0 0.0 0.0

-1.2015080715798894e6 1.4272081041769112e7 0.0
1.4272081041769112e7 -392454.268400361 0.0
0.0 0.0 0.0

-476310.1782270181 2.0240637725690726e7 0.0
2.0240637725690726e7 -7.507152488940368e6 0.0
0.0 0.0 0.0

-1.0551861355525324e7 2.0834847459541135e7 0.0
2.0834847459541135e7 -4.342972793910876e6 0.0
0.0 0.0 0.0

176783.26616348373 8.842680199848326e6 0.0
8.842680199848326e6 -3.9738643215431063e6 0.0
0.0 0.0 0.0

-4.3394429290436115e6 1.929875787478022e7 0.0
1.929875787478022e7 1.353453844788228e7 0.0
0.0 0.0 0.0

-2.401203261391483e6 1.535368543680674e7 0.0
1.535368543680674e7 -1.693776001664758e7 0.0
0.0 0.0 0.0

-1.2132983954905951e7 3.6333983131898046e6 0.0
3.6333983131898046e6 2.3252271944192793e7 0.0
0.0 0.0 0.0

-2.8166945968015823e6 2.117145768648685e7 0.0
2.117145768648685e7 -1.6557331418121075e6 0.0
0.0 0.0 0.0

-2.4956571323694526e6 1.5327183562953107e7 0.0
1.5327183562953107e7 -617568.5049846114 0.0
0.0 0.0 0.0

-2.1573784431094853e6 2.1582386720344808e7 0.0
2.1582386720344808e7 -1.0108470705765585e6 0.0
0.0 0.0 0.0

222000.75426458707 1.5646031838994717e7 0.0
1.5646031838994717e7 -1.0754273830137987e7 0.0
0.0 0.0 0.0

-5.032318026362285e6 7.683924107081504e6 0.0
7.683924107081504e6 7.899478357682793e6 0.0
0.0 0.0 0.0

-3.716296663687516e6 2.194405737877658e7 0.0
2.194405737877658e7 5.295758037961126e6 0.0
0.0 0.0 0.0

-5.127821752949287e6 1.877340950902949e7 0.0
1.877340950902949e7 1.542260963402382e7 0.0
0.0 0.0 0.0

-4.240061964648977e6 1.8470481457918335e7 0.0
1.8470481457918335e7 1.0452138379733045e7 0.0
0.0 0.0 0.0

-641456.8392622757 1.3176227958265604e7 0.0
1.3176227958265604e7 -5.547288352929385e6 0.0
0.0 0.0 0.0

1.8751518622724973e6 1.1299590430734957e7 0.0
1.1299590430734957e7 -2.3904507745308794e7 0.0
0.0 0.0 0.0

-3.8220073646155326e6 1.7678736386733778e7 0.0
1.7678736386733778e7 1.2698491888430412e6 0.0
0.0 0.0 0.0

-116068.30040864693 1.690810971862218e7 0.0
1.690810971862218e7 -1.2819514640172767e7 0.0
0.0 0.0 0.0

-190650.0138140996 1.5434845337480504e7 0.0
1.5434845337480504e7 -1.2091885768720675e7 0.0
0.0 0.0 0.0

-1.5336588618197225e6 2.149961569319709e7 0.0
2.149961569319709e7 -5.414364527609423e6 0.0
0.0 0.0 0.0

-1.2314380691425772e6 1.7580579512537263e7 0.0
1.7580579512537263e7 -8.694481561778974e6 0.0
0.0 0.0 0.0

1.8866282153424155e6 1.1586448140850345e7 0.0
1.1586448140850345e7 -1.9464396788965087e7 0.0
0.0 0.0 0.0

1.680009465773825e6 6.466290123469429e6 0.0
6.466290123469429e6 -6.285724341745401e6 0.0
0.0 0.0 0.0

-1.2851133524725963e6 5.930239796409703e6 0.0
5.930239796409703e6 1.1360883027185274e6 0.0
0.0 0.0 0.0

-325521.93965427997 2.7781491566106122e7 0.0
2.7781491566106122e7 -321229.01346303243 0.0
0.0 0.0 0.0

-3.9399324740388924e6 1.6800045425194763e7 0.0
1.6800045425194763e7 1.1890651171837545e6 0.0
0.0 0.0 0.0

-1.87458688291037e6 1.862416973758477e7 0.0
1.862416973758477e7 -6.783523947252114e6 0.0
0.0 0.0 0.0

3.481673914220211e6 4.325881407684154e6 0.0
4.325881407684154e6 -1.202754418511381e7 0.0
0.0 0.0 0.0

-1.0094245945260383e7 4.658418528500651e6 0.0
4.658418528500651e6 3.898091873766282e7 0.0
0.0 0.0 0.0

1.9794117013858603e6 9.487107793358704e6 0.0
9.487107793358704e6 -1.5093192832438214e7 0.0
0.0 0.0 0.0

3.284390401931515e6 2.1997866176893994e7 0.0
2.1997866176893994e7 -5.794120981902765e6 0.0
0.0 0.0 0.0

-372608.6531959432 2.2809844987059325e7 0.0
2.2809844987059325e7 -4.876857961927999e6 0.0
0.0 0.0 0.0

-3.62096309514899e6 2.2359861643348258e7 0.0
2.2359861643348258e7 4.429109137779381e6 0.0
0.0 0.0 0.0

4.0984913576962687e6 3.8332883575877687e6 0.0
3.8332883575877687e6 -2.5433371211065583e7 0.0
0.0 0.0 0.0

-1.6296510259893192e6 1.941170756572639e7 0.0
1.941170756572639e7 -4.253024279356944e6 0.0
0.0 0.0 0.0

-1.2657649232292655e6 2.046030457341202e7 0.0
2.046030457341202e7 -5.330337855281097e6 0.0
0.0 0.0 0.0

3.1340654844141463e6 7.338816140221673e6 0.0
7.338816140221673e6 -2.410216350592636e7 0.0
0.0 0.0 0.0

-1.8765669564569187e6 2.3053344035775002e7 0.0
2.3053344035775002e7 -2.817064427645383e6 0.0
0.0 0.0 0.0

1.397670523746896e6 1.9035178731518347e7 0.0
1.9035178731518347e7 -7.762376277162163e6 0.0
0.0 0.0 0.0

-2.320869565023078e6 1.8931759353430238e7 0.0
1.8931759353430238e7 -4.998578336983488e6 0.0
0.0 0.0 0.0

67351.90221287217 1.4632341717012659e7 0.0
1.4632341717012659e7 -2.3368311008082118e7 0.0
0.0 0.0 0.0

1.9784402154109874e6 6.960010613021178e6 0.0
6.960010613021178e6 -1.1789706149705362e7 0.0
0.0 0.0 0.0

857494.1691396348 1.1246442432615796e7 0.0
1.1246442432615796e7 -1.2352259659134477e7 0.0
0.0 0.0 0.0

-1.2150835357446845e6 1.9387083288022827e7 0.0
1.9387083288022827e7 -7.36260843337974e6 0.0
0.0 0.0 0.0

826307.2793211713 1.898223913453194e7 0.0
1.898223913453194e7 -9.049847046945713e6 0.0
0.0 0.0 0.0

-1.519953270182215e6 1.8036212959529404e7 0.0
1.8036212959529404e7 -7.752436019433142e6 0.0
0.0 0.0 0.0

2.927577537979493e6 7.573553698530836e6 0.0
7.573553698530836e6 -1.2294698192503348e7 0.0
0.0 0.0 0.0

4.257643412805773e6 4.916792597930638e6 0.0
4.916792597930638e6 -2.1545125378688283e7 0.0
0.0 0.0 0.0

256382.63192908932 1.542172957433254e7 0.0
1.542172957433254e7 -1.4109091219938524e7 0.0
0.0 0.0 0.0

434730.65744571993 1.1795526042788597e7 0.0
1.1795526042788597e7 -1.1364426633415123e7 0.0
0.0 0.0 0.0

-3.737853645984585e6 1.531814589233241e7 0.0
1.531814589233241e7 -206978.1761790408 0.0
0.0 0.0 0.0

-9.04707403488091e6 2.4161543811062127e7 0.0
2.4161543811062127e7 5.869782704021638e6 0.0
0.0 0.0 0.0

-2.2930498486689776e6 1.360627273888557e7 0.0
1.360627273888557e7 6.31926415825235e7 0.0
0.0 0.0 0.0

-1.2349637989618327e7 4.057821631583702e6 0.0
4.057821631583702e6 2.1459229754758514e7 0.0
0.0 0.0 0.0

-295054.8240144942 2.1394619536042027e7 0.0
2.1394619536042027e7 -7.350425107289075e6 0.0
0.0 0.0 0.0

-4.0123545864058253e6 1.5872152205901703e7 0.0
1.5872152205901703e7 1.0617984639340155e6 0.0
0.0 0.0 0.0

-1.1144053359083284e7 6.598723622084816e6 0.0
6.598723622084816e6 3.0794268776465036e7 0.0
0.0 0.0 0.0

4.127689911042867e6 4.961321130837041e6 0.0
4.961321130837041e6 -1.9263275043948986e7 0.0
0.0 0.0 0.0

-3.371896840422769e6 1.6882602742408182e7 0.0
1.6882602742408182e7 3.07082835690008e6 0.0
0.0 0.0 0.0

635052.8593957284 1.4915571172619844e7 0.0
1.4915571172619844e7 -1.8511492361839935e7 0.0
0.0 0.0 0.0

-616011.3349820657 2.084139458695133e7 0.0
2.084139458695133e7 -6.587420108805398e6 0.0
0.0 0.0 0.0

-1.3880898236675952e6 1.9604340495454136e7 0.0
1.9604340495454136e7 -4.984669136090689e6 0.0
0.0 0.0 0.0

-5.459713972497065e6 1.4841568057878193e7 0.0
1.4841568057878193e7 6.056664036684262e6 0.0
0.0 0.0 0.0

-2.016511338225623e6 1.6100159358923689e7 0.0
1.6100159358923689e7 -2.6083807613175265e6 0.0
0.0 0.0 0.0

-7.4137820352970045e6 8.873080729966035e6 0.0
8.873080729966035e6 8.416177436989862e6 0.0
0.0 0.0 0.0

-3.940056220967455e7 2.1966686181376807e7 0.0
2.1966686181376807e7 6.724692818558915e6 0.0
0.0 0.0 0.0

2.4887429369655354e6 1.9157630834229726e7 0.0
1.9157630834229726e7 9.724234984590596e6 0.0
0.0 0.0 0.0

-3.945848438795987e6 2.021534266763463e7 0.0
2.021534266763463e7 1.038883561932135e7 0.0
0.0 0.0 0.0

-2.3490347710095705e6 2.308054915005353e7 0.0
2.308054915005353e7 954526.2306590673 0.0
0.0 0.0 0.0

2.411221750376937e6 9.18604849176893e6 0.0
9.18604849176893e6 -1.823008012230582e7 0.0
0.0 0.0 0.0

3.047247489491022e6 7.742693890703795e6 0.0
7.742693890703795e6 -2.1683867070141476e7 0.0
0.0 0.0 0.0

3.0542906093015876e6 9.26809467506664e6 0.0
9.26809467506664e6 -2.537269419437032e7 0.0
0.0 0.0 0.0

-4.719120798020218e6 1.4927994444866646e7 0.0
1.4927994444866646e7 3.4507620898049753e6 0.0
0.0 0.0 0.0

-1.2468547582979567e7 1.2088595014648505e7 0.0
1.2088595014648505e7 2.1776001494021695e7 0.0
0.0 0.0 0.0

-5.986015910904726e6 9.870236501563223e6 0.0
9.870236501563223e6 9.908472758724112e6 0.0
0.0 0.0 0.0

2.742519053481443e6 1.8785941889706682e7 0.0
1.8785941889706682e7 -4.894155528327363e6 0.0
0.0 0.0 0.0

-1.8582806493327045e6 1.5620730603768917e7 0.0
1.5620730603768917e7 -1.5797104275717758e7 0.0
0.0 0.0 0.0

-3.966795762967252e6 2.222751138160973e7 0.0
2.222751138160973e7 6.861499164492893e6 0.0
0.0 0.0 0.0

3.6406894691166403e6 2.692236295022403e7 0.0
2.692236295022403e7 -3.579840965695716e6 0.0
0.0 0.0 0.0

-7.477362888852952e6 2.425831839616062e7 0.0
2.425831839616062e7 6.460666810955369e6 0.0
0.0 0.0 0.0

-6.473765268615943e6 1.794272312074273e7 0.0
1.794272312074273e7 1.8136940138494182e7 0.0
0.0 0.0 0.0

2.2596476296728477e6 6.810963579021317e6 0.0
6.810963579021317e6 -4.0535484744191185e7 0.0
0.0 0.0 0.0

69041.25527719315 1.496458848864439e7 0.0
1.496458848864439e7 -9.562714712492524e6 0.0
0.0 0.0 0.0

3.3523850660995445e6 3.279883431131129e6 0.0
3.279883431131129e6 -1.0149791455231568e7 0.0
0.0 0.0 0.0

3.439177635994917e6 8.039015977502824e6 0.0
8.039015977502824e6 -2.6088737905213483e7 0.0
0.0 0.0 0.0

-3.505919729187337e6 2.2756001720231973e7 0.0
2.2756001720231973e7 3.5944744503569044e6 0.0
0.0 0.0 0.0

-1.1592637479493078e7 1.2411989554817326e7 0.0
1.2411989554817326e7 2.1200999673501294e7 0.0
0.0 0.0 0.0

-7.276026098356557e6 1.7620682309492e7 0.0
1.7620682309492e7 1.950299142941369e7 0.0
0.0 0.0 0.0

-3.8081505107489256e6 2.0829300854402207e7 0.0
2.0829300854402207e7 9.850661905213462e6 0.0
0.0 0.0 0.0

2.4715907998400424e6 9.654843115720034e6 0.0
9.654843115720034e6 -1.347777334695949e7 0.0
0.0 0.0 0.0

-4.634024673735384e6 2.047273199520111e7 0.0
2.047273199520111e7 -8.407409102162227e6 0.0
0.0 0.0 0.0

-82100.09308326046 2.7503523434965678e7 0.0
2.7503523434965678e7 -1.7069510964149658e6 0.0
0.0 0.0 0.0

-3.8627416804840807e6 2.369804824110917e7 0.0
2.369804824110917e7 5.147106797602249e6 0.0
0.0 0.0 0.0

-7.190128169484438e6 1.76802024902779e7 0.0
1.76802024902779e7 2.040924523576836e7 0.0
0.0 0.0 0.0

-9.059553177045036e6 5.112792978244925e7 0.0
5.112792978244925e7 -1.2002422351930892e7 0.0
0.0 0.0 0.0

-4.709117015702302e6 1.9846675229928907e7 0.0
1.9846675229928907e7 -1.0440456729043353e7 0.0
0.0 0.0 0.0

-5.373017609245744e6 1.6665344533871626e7 0.0
1.6665344533871626e7 8.225606899530394e6 0.0
0.0 0.0 0.0

-9.282946258116197e6 1.5379965240405425e6 0.0
1.5379965240405425e6 1.1589902630854178e7 0.0
0.0 0.0 0.0

-1.2038499021795895e6 1.6257947016554575e7 0.0
1.6257947016554575e7 -5.514803345133042e6 0.0
0.0 0.0 0.0

-8.026876761477664e6 2.111929981726293e7 0.0
2.111929981726293e7 -4.779728508684298e6 0.0
0.0 0.0 0.0

-7.130172447034624e6 2.9521288804688532e7 0.0
2.9521288804688532e7 4.0075937198610846e6 0.0
0.0 0.0 0.0

-967347.1321080171 1.852236225141101e7 0.0
1.852236225141101e7 -6.966998168348048e6 0.0
0.0 0.0 0.0

-1.8671709352337732e6 1.9990730020212594e7 0.0
1.9990730020212594e7 -6.013399355384351e6 0.0
0.0 0.0 0.0

-1.0510841652356055e7 1.6345210272694963e6 0.0
1.6345210272694963e6 1.9486257525957838e7 0.0
0.0 0.0 0.0

3.8749633959254203e6 5.89214900751399e6 0.0
5.89214900751399e6 -1.7300260214137487e7 0.0
0.0 0.0 0.0

119749.1925726023 2.6792048678314425e7 0.0
2.6792048678314425e7 -1.2862553176920465e6 0.0
0.0 0.0 0.0

-5.775444895769738e6 1.83323176030837e7 0.0
1.83323176030837e7 1.682966849799736e7 0.0
0.0 0.0 0.0

-1.2058517456872677e7 2.2405636023754578e7 0.0
2.2405636023754578e7 -2.357245505894767e6 0.0
0.0 0.0 0.0

-1.055711696284625e6 5.672113075142834e6 0.0
5.672113075142834e6 -2.4462428409666996e6 0.0
0.0 0.0 0.0

-8.8592411533261e6 2.228478828291766e7 0.0
2.228478828291766e7 -7.609806922170794e6 0.0
0.0 0.0 0.0

-2.088817778891765e6 1.913219740415348e7 0.0
1.913219740415348e7 -5.7210701584349265e6 0.0
0.0 0.0 0.0

521028.7781470772 1.4921387602536744e7 0.0
1.4921387602536744e7 -1.5096703879315685e7 0.0
0.0 0.0 0.0

-1.5184092652275092e6 1.7882093878984194e7 0.0
1.7882093878984194e7 -4.868191828038516e6 0.0
0.0 0.0 0.0

1.9486173729554396e6 9.924464069040772e6 0.0
9.924464069040772e6 -1.572653369739936e7 0.0
0.0 0.0 0.0

-2.684818593726594e6 1.883095330430475e7 0.0
1.883095330430475e7 155289.35068570997 0.0
0.0 0.0 0.0

-9.098647614712033e6 3.5160126084350115e6 0.0
3.5160126084350115e6 1.0896947769131238e7 0.0
0.0 0.0 0.0

-9.437388054348603e6 1.2004263841679027e7 0.0
1.2004263841679027e7 1.7158150113566227e7 0.0
0.0 0.0 0.0

-4.7878603870746195e6 1.4701692581566859e7 0.0
1.4701692581566859e7 8.32739694686783e6 0.0
0.0 0.0 0.0

-4.222668528155695e6 1.5358364368938038e7 0.0
1.5358364368938038e7 -1.486864756042242e7 0.0
0.0 0.0 0.0

-4.0731004217742486e6 1.4900311811061861e7 0.0
1.4900311811061861e7 5.611878993789523e6 0.0
0.0 0.0 0.0

-2.935482509371417e7 2.607183046352591e7 0.0
2.607183046352591e7 -370187.86976143345 0.0
0.0 0.0 0.0

-4.227596588226985e6 1.6395831512520742e7 0.0
1.6395831512520742e7 2.2762060521435663e6 0.0
0.0 0.0 0.0

-1.2136349999454885e6 1.809744139920395e7 0.0
1.809744139920395e7 -2.7777235120526976e6 0.0
0.0 0.0 0.0

-4.4781003362814784e7 2.105807834712948e7 0.0
2.105807834712948e7 4.928500497692317e6 0.0
0.0 0.0 0.0

2.0179683285865476e6 1.902310692679013e7 0.0
1.902310692679013e7 -6.478754390783023e6 0.0
0.0 0.0 0.0

-3.1350302434317498e6 1.5437208363456652e7 0.0
1.5437208363456652e7 1.7749363955850848e6 0.0
0.0 0.0 0.0

1.7333859219748508e6 1.0821906592679134e7 0.0
1.0821906592679134e7 -1.1671629708732136e7 0.0
0.0 0.0 0.0

-2.472394781135939e6 2.3452621836198512e7 0.0
2.3452621836198512e7 1.7611801136151107e6 0.0
0.0 0.0 0.0

1.60150049451706e6 1.1303981730162341e7 0.0
1.1303981730162341e7 -1.5990702548054932e7 0.0
0.0 0.0 0.0

1.4906818630144363e6 1.2092292364233121e7 0.0
1.2092292364233121e7 -1.7094499080830775e7 0.0
0.0 0.0 0.0

-5.817969573183611e6 7.943357435742701e6 0.0
7.943357435742701e6 5.160658013197453e6 0.0
0.0 0.0 0.0

-4.755241786425168e6 1.8743034984733343e7 0.0
1.8743034984733343e7 8.675267626401516e6 0.0
0.0 0.0 0.0

3.643014467354659e6 7.509712902904139e6 0.0
7.509712902904139e6 -2.2466741439163767e7 0.0
0.0 0.0 0.0

-1.1061320305192538e7 5.344214953607873e6 0.0
5.344214953607873e6 1.695103982864835e7 0.0
0.0 0.0 0.0

1.565721411203254e6 1.1678466028362142e7 0.0
1.1678466028362142e7 -1.6564307511965113e7 0.0
0.0 0.0 0.0

-7.53796082465956e7 7.9499649253471065e6 0.0
7.9499649253471065e6 5.601115202800494e6 0.0
0.0 0.0 0.0

2.508637395837318e6 6.6994310865430655e6 0.0
6.6994310865430655e6 -3.7817048535631806e7 0.0
0.0 0.0 0.0

-4.98787659750596e6 1.759209974971133e7 0.0
1.759209974971133e7 7.967464599062126e6 0.0
0.0 0.0 0.0

-4.382467615743536e6 1.900431840406081e7 0.0
1.900431840406081e7 6.448478704738744e6 0.0
0.0 0.0 0.0

-4.615606403921252e6 2.3428004837432355e7 0.0
2.3428004837432355e7 7.794956020755567e6 0.0
0.0 0.0 0.0

-2.0846371122338814e6 1.6567641640904587e7 0.0
1.6567641640904587e7 -5.996575724078076e6 0.0
0.0 0.0 0.0

-5.322632611920788e6 1.906349905325637e7 0.0
1.906349905325637e7 1.570762854686065e7 0.0
0.0 0.0 0.0

764763.0344568761 1.330725352132619e7 0.0
1.330725352132619e7 -1.3962008056205127e7 0.0
0.0 0.0 0.0

2.599154413625597e6 9.351201687688977e6 0.0
9.351201687688977e6 -2.161186298901671e7 0.0
0.0 0.0 0.0

-2.67052910488429e6 2.3162660549766243e7 0.0
2.3162660549766243e7 2.4656717451816592e6 0.0
0.0 0.0 0.0

-67531.17913497775 2.3974677869633213e7 0.0
2.3974677869633213e7 -4.64637469495316e6 0.0
0.0 0.0 0.0

2.8511090424742512e6 8.665918160443189e6 0.0
8.665918160443189e6 -3.05536739928144e7 0.0
0.0 0.0 0.0

-5.267416698710126e6 1.2283808236422185e7 0.0
1.2283808236422185e7 8.460218064312305e6 0.0
0.0 0.0 0.0

-6.237240349140142e6 2.410381109097024e7 0.0
2.410381109097024e7 6.945566666994711e6 0.0
0.0 0.0 0.0

-4.1802538063634895e7 5.5177827830865026e7 0.0
5.5177827830865026e7 -3.3212135181381367e6 0.0
0.0 0.0 0.0

-1.1709230104611475e7 8.410928074240949e6 0.0
8.410928074240949e6 2.714610708874213e7 0.0
0.0 0.0 0.0

-3.2093293085208666e6 1.4429176637686951e7 0.0
1.4429176637686951e7 -1.3325712844652073e7 0.0
0.0 0.0 0.0

-396365.2205006643 5.502517420410781e6 0.0
5.502517420410781e6 -278489.89061083074 0.0
0.0 0.0 0.0

-8.79275144576067e6 -5.327768237366767e6 0.0
-5.327768237366767e6 2.6434105230053734e7 0.0
0.0 0.0 0.0

4.591399639586771e6 2.451104924870477e6 0.0
2.451104924870477e6 -2.6287207200883277e7 0.0
0.0 0.0 0.0

-6.110738411133034e6 2.116698255777594e7 0.0
2.116698255777594e7 2.0900722460886138e6 0.0
0.0 0.0 0.0

-818846.3962409887 1.604928877773068e7 0.0
1.604928877773068e7 -1.7031579058055244e7 0.0
0.0 0.0 0.0

-9.082108327657277e6 1.4432666287659246e7 0.0
1.4432666287659246e7 2.7948930105927907e7 0.0
0.0 0.0 0.0

-226173.51125921402 2.0759701620461516e7 0.0
2.0759701620461516e7 -8.205080540515903e6 0.0
0.0 0.0 0.0

1.631479292466389e6 1.0920346072876018e7 0.0
1.0920346072876018e7 -1.5385407206189584e7 0.0
0.0 0.0 0.0

-5.163783999537332e6 1.5063470328624593e7 0.0
1.5063470328624593e7 3.6530106135952525e7 0.0
0.0 0.0 0.0

-2.3693150958367144e6 1.662900733546661e7 0.0
1.662900733546661e7 -1.418738325443687e6 0.0
0.0 0.0 0.0

-3.8836069710198287e6 1.7176480691755388e7 0.0
1.7176480691755388e7 2.5832930958220698e7 0.0
0.0 0.0 0.0

-607477.7290010229 1.6326812212390993e7 0.0
1.6326812212390993e7 -1.5911840342069594e7 0.0
0.0 0.0 0.0

6.024972304205193e7 8.392083358462855e6 0.0
8.392083358462855e6 638124.7448758259 0.0
0.0 0.0 0.0

-752217.8482333594 2.141712378386197e7 0.0
2.141712378386197e7 -5.708484996746944e6 0.0
0.0 0.0 0.0

876166.1943705137 2.662015013742136e7 0.0
2.662015013742136e7 -1.9495375977159645e6 0.0
0.0 0.0 0.0

1.35847111832181e6 1.1838237374100203e7 0.0
1.1838237374100203e7 -1.5020532865057115e7 0.0
0.0 0.0 0.0

2.3037987245924873e6 1.093266472277491e7 0.0
1.093266472277491e7 -1.5397032064160377e7 0.0
0.0 0.0 0.0

-1.7030008328003096e6 1.602997411119322e7 0.0
1.602997411119322e7 -7.128666488078745e6 0.0
0.0 0.0 0.0

-1.212167119778738e7 9.51592028499885e6 0.0
9.51592028499885e6 2.2267194108377367e7 0.0
0.0 0.0 0.0

-1.5183974637741046e6 1.506273045288706e7 0.0
1.506273045288706e7 -2.2820893226971384e7 0.0
0.0 0.0 0.0

3.1757353558128797e6 3.2080051131643024e6 0.0
3.2080051131643024e6 -9.303281854531052e6 0.0
0.0 0.0 0.0

835946.2473928342 1.3986146953905493e7 0.0
1.3986146953905493e7 -1.503899257250705e7 0.0
0.0 0.0 0.0

-2.374873027420158e7 2.949053642694747e7 0.0
2.949053642694747e7 7.932988325101396e6 0.0
0.0 0.0 0.0

-3.132987915378408e6 1.091595145142242e7 0.0
1.091595145142242e7 -1.1601058121734331e6 0.0
0.0 0.0 0.0

-3.2031037612724993e6 1.5140929724995466e7 0.0
1.5140929724995466e7 4.372929260745799e7 0.0
0.0 0.0 0.0

-4.010373578787662e6 1.9162214988342684e7 0.0
1.9162214988342684e7 1.2677363180271398e7 0.0
0.0 0.0 0.0

5.016412326796736e6 1.9014785062779497e7 0.0
1.9014785062779497e7 2.4127616885735057e6 0.0
0.0 0.0 0.0

-5.234671987594824e6 2.38239159118373e7 0.0
2.38239159118373e7 7.338024496625066e6 0.0
0.0 0.0 0.0

-801583.7899195063 2.196444471527394e7 0.0
2.196444471527394e7 -4.726726614539568e6 0.0
0.0 0.0 0.0

-4.004104466020297e6 2.3345795888653528e7 0.0
2.3345795888653528e7 5.81523990464654e6 0.0
0.0 0.0 0.0

-1.1966265719316501e7 9.816325293643614e6 0.0
9.816325293643614e6 2.0809794442606673e7 0.0
0.0 0.0 0.0

-8.815966337440789e6 1.3970355100595998e7 0.0
1.3970355100595998e7 1.7478491615492992e7 0.0
0.0 0.0 0.0

-8.912386794962045e6 5.201459501539732e6 0.0
5.201459501539732e6 9.67838786241882e6 0.0
0.0 0.0 0.0

1.4003619225579798e7 1.1516139292225232e7 0.0
1.1516139292225232e7 907063.9147907244 0.0
0.0 0.0 0.0

-397955.33188760467 1.6619116020122597e7 0.0
1.6619116020122597e7 -1.4885678582240256e7 0.0
0.0 0.0 0.0

-1.1345872452044806e6 2.1883956024893183e7 0.0
2.1883956024893183e7 -4.131230933898225e6 0.0
0.0 0.0 0.0

-3.344843179135969e6 2.3094186483769476e7 0.0
2.3094186483769476e7 2.7935922402942274e6 0.0
0.0 0.0 0.0

-8.78836585385611e6 -4.658947628653497e6 0.0
-4.658947628653497e6 1.7803244501358017e7 0.0
0.0 0.0 0.0

-3.631146645856032e6 2.4408880264760055e7 0.0
2.4408880264760055e7 3.7989335786036486e6 0.0
0.0 0.0 0.0

-3.4177943388082413e6 1.5945108449396746e7 0.0
1.5945108449396746e7 3.027776962820649e6 0.0
0.0 0.0 0.0

-4.277103627556136e6 2.496509934667851e7 0.0
2.496509934667851e7 4.735592731808516e6 0.0
0.0 0.0 0.0

4.939251844976525e6 1.7928028782443278e7 0.0
1.7928028782443278e7 874671.3548948974 0.0
0.0 0.0 0.0

189997.1757482012 2.5011203518692747e7 0.0
2.5011203518692747e7 -2.7959617452091984e6 0.0
0.0 0.0 0.0

3.821142124790012e6 5.006530316869386e6 0.0
5.006530316869386e6 -2.166623734965183e7 0.0
0.0 0.0 0.0

-1.19589046590787e7 8.667328101522041e6 0.0
8.667328101522041e6 2.5465587331828564e7 0.0
0.0 0.0 0.0

304835.11329956213 1.7982390429073974e7 0.0
1.7982390429073974e7 -9.291393549232753e6 0.0
0.0 0.0 0.0

-212881.75052667502 1.6990876092747573e7 0.0
1.6990876092747573e7 -1.383123616141264e7 0.0
0.0 0.0 0.0

-2.252165343931976e6 1.5717263930591417e7 0.0
1.5717263930591417e7 -1.6448667870893078e6 0.0
0.0 0.0 0.0

-4.1899490322982366e6 1.9754371227706324e7 0.0
1.9754371227706324e7 5.307867338244496e6 0.0
0.0 0.0 0.0

556361.408014257 2.1453499859658543e7 0.0
2.1453499859658543e7 -7.308211205846123e6 0.0
0.0 0.0 0.0

-99707.36268239701 1.6640908477189617e7 0.0
1.6640908477189617e7 -8.106107340396288e6 0.0
0.0 0.0 0.0

-1.1489109632303704e7 1.1942672266556354e7 0.0
1.1942672266556354e7 1.6880508125125088e7 0.0
0.0 0.0 0.0

3.0735009596628556e6 9.180746546671296e6 0.0
9.180746546671296e6 -1.813128466217025e7 0.0
0.0 0.0 0.0

-727310.0734543195 1.689908289166049e7 0.0
1.689908289166049e7 -1.4293191011890756e7 0.0
0.0 0.0 0.0

1.0807289174140533e6 1.9015129457334056e7 0.0
1.9015129457334056e7 1.1446338628026513e7 0.0
0.0 0.0 0.0

-2.2869206698853225e6 1.8171813683405694e7 0.0
1.8171813683405694e7 -5.323194578787683e6 0.0
0.0 0.0 0.0

3.537336042755369e6 7.12381108221852e6 0.0
7.12381108221852e6 -2.950895247579224e7 0.0
0.0 0.0 0.0

3.6388938670231253e6 5.369261244563969e6 0.0
5.369261244563969e6 -3.86704517371319e7 0.0
0.0 0.0 0.0

-5.621873939656975e6 1.5298410264779674e7 0.0
1.5298410264779674e7 7.285060642152167e6 0.0
0.0 0.0 0.0

-3.1579314306099173e6 2.341153580462712e7 0.0
2.341153580462712e7 2.0604018599068387e6 0.0
0.0 0.0 0.0

-1.0946035945923697e7 1.6967277107202911e6 0.0
1.6967277107202911e6 2.2909865560058653e7 0.0
0.0 0.0 0.0

-7.668237401626007e6 1.4099051032187345e7 0.0
1.4099051032187345e7 1.1474221408711843e7 0.0
0.0 0.0 0.0

-4.663228882114325e6 1.8438850020884234e7 0.0
1.8438850020884234e7 7.725169172543684e6 0.0
0.0 0.0 0.0

2.8969753824219042e6 9.366016380840095e6 0.0
9.366016380840095e6 -1.6595793895316256e7 0.0
0.0 0.0 0.0

4.514719444765886e6 2.328264026840814e6 0.0
2.328264026840814e6 -2.7099992072140995e7 0.0
0.0 0.0 0.0

-4.431086063719353e6 1.7360128062894072e7 0.0
1.7360128062894072e7 9.908195422227044e6 0.0
0.0 0.0 0.0

-314021.2043498345 1.6534103136354897e7 0.0
1.6534103136354897e7 5.462519546030371e7 0.0
0.0 0.0 0.0

-3.589293962395031e6 1.931274089653452e7 0.0
1.931274089653452e7 6.92715318075562e6 0.0
0.0 0.0 0.0

-1.0036644825285842e6 2.2431567843337093e7 0.0
2.2431567843337093e7 -3.9585417618608866e6 0.0
0.0 0.0 0.0

1.355967112913778e6 1.2506504104505602e7 0.0
1.2506504104505602e7 -1.591616102510665e7 0.0
0.0 0.0 0.0

-1.5072151273839683e6 2.4209054982122015e7 0.0
2.4209054982122015e7 -786842.9600103325 0.0
0.0 0.0 0.0

-2.8420920628320845e6 2.2841410266143247e7 0.0
2.2841410266143247e7 3.2084014525252352e6 0.0
0.0 0.0 0.0

5.14267111379969e6 1.6557169626948148e7 0.0
1.6557169626948148e7 2.882217740022919e7 0.0
0.0 0.0 0.0

3.2078394203467206e6 3.2154586691744113e6 0.0
3.2154586691744113e6 -9.805138369856264e6 0.0
0.0 0.0 0.0

2.0229100580322626e6 1.959383078679113e7 0.0
1.959383078679113e7 -7.161333756707545e6 0.0
0.0 0.0 0.0

3.811938361398923e6 4.112556338040032e6 0.0
4.112556338040032e6 -1.5972004953217316e7 0.0
0.0 0.0 0.0

-1.0164101165109504e7 1.0356646549446287e7 0.0
1.0356646549446287e7 1.7463931661893863e7 0.0
0.0 0.0 0.0

-3.6330039679863825e6 2.1759240761484936e7 0.0
2.1759240761484936e7 4.477924914986435e6 0.0
0.0 0.0 0.0

-1.6007842862600638e6 1.8656290137752406e7 0.0
1.8656290137752406e7 -4.565220925546588e6 0.0
0.0 0.0 0.0

2.4365663511431105e6 1.008964638984975e7 0.0
1.008964638984975e7 -1.4124708633172797e7 0.0
0.0 0.0 0.0

-92386.12788622268 1.7022692937987573e7 0.0
1.7022692937987573e7 -9.394370802233445e6 0.0
0.0 0.0 0.0

-1.16725702025556e6 2.2937887434007138e7 0.0
2.2937887434007138e7 -3.1605613148772586e6 0.0
0.0 0.0 0.0

-1.1245467688594513e7 3.5501333962377e6 0.0
3.5501333962377e6 2.6529363047689773e7 0.0
0.0 0.0 0.0

-7.99291027655968e6 1.556580590749482e7 0.0
1.556580590749482e7 1.761265113675172e7 0.0
0.0 0.0 0.0

-1.1392685641966432e7 7.175926853994885e6 0.0
7.175926853994885e6 1.8531311790343538e7 0.0
0.0 0.0 0.0

-4.334692332965151e6 1.5423088334949784e7 0.0
1.5423088334949784e7 2.2083184896561746e6 0.0
0.0 0.0 0.0

-3.386639184055193e6 2.2983469495607246e7 0.0
2.2983469495607246e7 6.386958168239153e6 0.0
0.0 0.0 0.0

-3.0019646368348445e6 1.8156745388919e7 0.0
1.8156745388919e7 -2.607198222272973e6 0.0
0.0 0.0 0.0

-2.5889738202338982e6 2.411130392210837e7 0.0
2.411130392210837e7 39008.27499960258 0.0
0.0 0.0 0.0

-6.686219267970515e6 8.340751099254751e6 0.0
8.340751099254751e6 6.860508611534982e6 0.0
0.0 0.0 0.0

-8.533183047044065e6 1.3403109397746176e7 0.0
1.3403109397746176e7 1.661898238883158e7 0.0
0.0 0.0 0.0

-2.986600319456895e6 2.3689102672249522e7 0.0
2.3689102672249522e7 1.3909549700330624e6 0.0
0.0 0.0 0.0

589056.2834715294 2.0515951538717672e7 0.0
2.0515951538717672e7 -8.405851053033378e6 0.0
0.0 0.0 0.0

9.757071491162254e6 2.0732295749024898e7 0.0
2.0732295749024898e7 1.04068760591792e7 0.0
0.0 0.0 0.0

-3.70911607757774e6 1.5458913100449663e7 0.0
1.5458913100449663e7 4.290116048223734e6 0.0
0.0 0.0 0.0

3.4087904277425315e6 2.288507852149606e7 0.0
2.288507852149606e7 -5.598969785426785e6 0.0
0.0 0.0 0.0

-4.1052672855084892e6 1.6394663702170383e7 0.0
1.6394663702170383e7 6.6272142379752e6 0.0
0.0 0.0 0.0

-7.870273707909017e6 1.5097454944443868e7 0.0
1.5097454944443868e7 1.6830992176175304e7 0.0
0.0 0.0 0.0

-5.3198229705988765e6 9.342026583449308e6 0.0
9.342026583449308e6 8.370043043504191e6 0.0
0.0 0.0 0.0

-2.8079166279961085e6 2.39140484579049e7 0.0
2.39140484579049e7 665677.8899521491 0.0
0.0 0.0 0.0

4.0395519616327267e6 6.150037289913383e6 0.0
6.150037289913383e6 -2.1219586731144723e7 0.0
0.0 0.0 0.0

3.548464258904678e6 7.917883252384673e6 0.0
7.917883252384673e6 -1.999008323589485e7 0.0
0.0 0.0 0.0

-4.160748150208328e6 2.2971817119934317e7 0.0
2.2971817119934317e7 8.169234621036891e6 0.0
0.0 0.0 0.0

-14395.900681610685 1.1365106583185412e7 0.0
1.1365106583185412e7 -6.465662955272375e6 0.0
0.0 0.0 0.0

2.3825024556343397e6 1.0528022259320755e7 0.0
1.0528022259320755e7 -1.4752608713249043e7 0.0
0.0 0.0 0.0

-1.5787155233008894e6 2.5905548650847454e7 0.0
2.5905548650847454e7 -684171.0152215073 0.0
0.0 0.0 0.0

-1.3507035546644935e6 2.3813425781958766e7 0.0
2.3813425781958766e7 -1.5508639968584923e6 0.0
0.0 0.0 0.0

-1.8245571946529958e6 1.9306329268763613e7 0.0
1.9306329268763613e7 -6.373612129715873e6 0.0
0.0 0.0 0.0

-984733.1912910482 1.5758751660949325e7 0.0
1.5758751660949325e7 -2.0834442352240317e7 0.0
0.0 0.0 0.0

-3.1356382771056825e6 2.6170931662312508e7 0.0
2.6170931662312508e7 1.8692365395732166e6 0.0
0.0 0.0 0.0

-8.01560323114339e6 1.6020271021797288e7 0.0
1.6020271021797288e7 1.8113254636341855e7 0.0
0.0 0.0 0.0

2.4163396907445695e6 6.899544187473509e6 0.0
6.899544187473509e6 -1.3309087472736722e7 0.0
0.0 0.0 0.0

-75829.64690119991 2.7876451549216416e7 0.0
2.7876451549216416e7 -775174.192980773 0.0
0.0 0.0 0.0

-3.5292910293244994e6 1.9605047024322465e7 0.0
1.9605047024322465e7 1.0745721374255411e7 0.0
0.0 0.0 0.0

-1.2508386312359334e6 2.338680425610119e7 0.0
2.338680425610119e7 -2.2900762195063927e6 0.0
0.0 0.0 0.0

-26294.358776496723 1.736513184928378e7 0.0
1.736513184928378e7 -1.2858134051084831e7 0.0
0.0 0.0 0.0

-1.9673372110153802e6 2.4422451428218428e7 0.0
2.4422451428218428e7 536861.4590258698 0.0
0.0 0.0 0.0

-4.259076165162166e6 1.9912440400985844e7 0.0
1.9912440400985844e7 1.304615039482333e7 0.0
0.0 0.0 0.0

-2.0160275513002912e6 2.4415945013070855e7 0.0
2.4415945013070855e7 -1.115306977638762e6 0.0
0.0 0.0 0.0

4.132518803496328e6 2.958127175807045e7 0.0
2.958127175807045e7 -2.5507049513015808e6 0.0
0.0 0.0 0.0

-1.1309741776463356e7 1.3865551462649241e7 0.0
1.3865551462649241e7 2.2168602266259957e7 0.0
0.0 0.0 0.0

2.0512160411237068e6 1.1490186144039169e7 0.0
1.1490186144039169e7 -1.4474993652286913e7 0.0
0.0 0.0 0.0

-1.2098055244644446e7 1.04047794106692e7 0.0
1.04047794106692e7 2.2880628994656336e7 0.0
0.0 0.0 0.0

-1.0133622677307874e7 1.2294410073586099e7 0.0
1.2294410073586099e7 1.4644470277924653e7 0.0
0.0 0.0 0.0

-571274.3947385442 -1.2884586798635856e6 0.0
-1.2884586798635856e6 1.158576684455569e6 0.0
0.0 0.0 0.0

-19850.136135951732 -1.6752792143580916e6 0.0
-1.6752792143580916e6 1.716686571710728e6 0.0
0.0 0.0 0.0

-1.104529239035285e7 1.456245323563013e7 0.0
1.456245323563013e7 2.2579801626619212e7 0.0
0.0 0.0 0.0

8.578985715151388e6 1.9814790704410177e7 0.0
1.9814790704410177e7 8.086924642107374e6 0.0
0.0 0.0 0.0

-511175.5034274293 2.4590508711816076e7 0.0
2.4590508711816076e7 -2.3304746558838347e6 0.0
0.0 0.0 0.0

-1.2280739598163608e6 1.981322714340338e7 0.0
1.981322714340338e7 -5.749349741568282e6 0.0
0.0 0.0 0.0

1.988165553073002e6 1.185725671832595e7 0.0
1.185725671832595e7 -1.5132908027517553e7 0.0
0.0 0.0 0.0

4.773585291133136e6 1.655574851988399e7 0.0
1.655574851988399e7 2.5192545248291023e7 0.0
0.0 0.0 0.0

-2.890386906607788e6 2.6624172907497946e7 0.0
2.6624172907497946e7 2.8560921615615776e6 0.0
0.0 0.0 0.0

-1.5032410428140555e6 2.6357861271352936e7 0.0
2.6357861271352936e7 -628334.8427596688 0.0
0.0 0.0 0.0

-1.1895740538732829e6 2.683656208887561e7 0.0
2.683656208887561e7 -613478.483886634 0.0
0.0 0.0 0.0

-5.809724473184231e6 1.7550307638470646e7 0.0
1.7550307638470646e7 1.1331486967683652e7 0.0
0.0 0.0 0.0

-5.82414482552879e6 1.5655089613798589e7 0.0
1.5655089613798589e7 8.481011292564003e6 0.0
0.0 0.0 0.0

-7.320845369574377e6 1.0639320081241481e7 0.0
1.0639320081241481e7 8.595091784805125e6 0.0
0.0 0.0 0.0

-3.621921252868016e6 2.0745188643935304e7 0.0
2.0745188643935304e7 8.612043976741694e6 0.0
0.0 0.0 0.0

-4.973416874797886e6 1.5043740792165164e7 0.0
1.5043740792165164e7 9.535879161186209e6 0.0
0.0 0.0 0.0

-1.1345082943734696e7 1.3626845073570572e7 0.0
1.3626845073570572e7 2.4392908986786462e7 0.0
0.0 0.0 0.0

1.959476871111977e6 1.2295668197882082e7 0.0
1.2295668197882082e7 -1.5619548071619805e7 0.0
0.0 0.0 0.0

-4.831698092233734e6 1.9002893222637348e7 0.0
1.9002893222637348e7 9.538101883074371e6 0.0
0.0 0.0 0.0

-1.1617455396701729e7 1.1924561759378826e7 0.0
1.1924561759378826e7 2.5357455869086012e7 0.0
0.0 0.0 0.0

2.379317693357626e6 1.808433618083784e7 0.0
1.808433618083784e7 1.2164004606953304e7 0.0
0.0 0.0 0.0

-4.703649819667639e6 1.646777078248776e7 0.0
1.646777078248776e7 4.624975078552153e6 0.0
0.0 0.0 0.0

-1.887123770862812e6 2.4929209154182144e7 0.0
2.4929209154182144e7 659953.8006069311 0.0
0.0 0.0 0.0

-2.03222056095489e6 2.3878606808314346e7 0.0
2.3878606808314346e7 409612.82820964104 0.0
0.0 0.0 0.0

-4.0543048608291047e6 2.049324024879405e7 0.0
2.049324024879405e7 1.179225003909466e7 0.0
0.0 0.0 0.0

-1.0082927065915372e6 1.642482981730534e7 0.0
1.642482981730534e7 -1.765141549804711e7 0.0
0.0 0.0 0.0

-3.8748705326349773e6 2.089855990981252e7 0.0
2.089855990981252e7 6.404376424988035e6 0.0
0.0 0.0 0.0

-7.044387777716494e6 1.6507745398679085e7 0.0
1.6507745398679085e7 1.6789693369724225e7 0.0
0.0 0.0 0.0

-1.268620998615703e6 1.9096822044641722e7 0.0
1.9096822044641722e7 -6.045234565568764e6 0.0
0.0 0.0 0.0

1.4421357584120333e6 2.714029261664734e7 0.0
2.714029261664734e7 -1.9575648874492666e6 0.0
0.0 0.0 0.0

-3.982606166037248e6 2.1136142549080838e7 0.0
2.1136142549080838e7 1.0603763179931752e7 0.0
0.0 0.0 0.0

-1.503976677956423e6 1.8783750050563373e7 0.0
1.8783750050563373e7 -7.368736598499071e6 0.0
0.0 0.0 0.0

3.312897648456636e6 8.42474202274733e6 0.0
8.42474202274733e6 -2.060736678911789e7 0.0
0.0 0.0 0.0

-4.555849845636123e6 1.761377816350631e7 0.0
1.761377816350631e7 1.0898314419047812e7 0.0
0.0 0.0 0.0

1.7605778602038166e6 2.269828553535312e7 0.0
2.269828553535312e7 -5.972969985981253e6 0.0
0.0 0.0 0.0

2.706770147884972e6 3.27521742368319e6 0.0
3.27521742368319e6 -7.385195935984715e6 0.0
0.0 0.0 0.0

2.7232042140518557e6 8.49960648700053e6 0.0
8.49960648700053e6 -2.680666204107452e7 0.0
0.0 0.0 0.0

-473283.08852580143 1.775060017349891e7 0.0
1.775060017349891e7 -8.983295832296018e6 0.0
0.0 0.0 0.0

8.599485171633685e6 2.063623309646725e7 0.0
2.063623309646725e7 9.702048862630054e6 0.0
0.0 0.0 0.0

2.691206102134823e6 8.819119772825658e6 0.0
8.819119772825658e6 -2.123601893863276e7 0.0
0.0 0.0 0.0

2.4324104194584973e6 9.841197700879455e6 0.0
9.841197700879455e6 -2.0692123807642598e7 0.0
0.0 0.0 0.0

736061.0693083135 1.7386094297630403e7 0.0
1.7386094297630403e7 4.656085403839879e6 0.0
0.0 0.0 0.0

-1.1627133070437254e7 5.135560656156778e6 0.0
5.135560656156778e6 2.51599752223414e7 0.0
0.0 0.0 0.0

-8.752392254112791e6 1.0890396876688875e7 0.0
1.0890396876688875e7 1.1433173289924778e7 0.0
0.0 0.0 0.0

-7.220323032251088e6 1.6694566804797415e7 0.0
1.6694566804797415e7 -3.702152070313156e7 0.0
0.0 0.0 0.0

-6.867634997804492e6 1.5285048426075013e7 0.0
1.5285048426075013e7 1.111633319283007e7 0.0
0.0 0.0 0.0

-1.2643199294752793e7 9.861335786078595e6 0.0
9.861335786078595e6 1.848006067358255e7 0.0
0.0 0.0 0.0

1.3128404595422733e6 1.946815651906752e7 0.0
1.946815651906752e7 9.223082294824999e6 0.0
0.0 0.0 0.0

-8.873597955842672e6 -5.697178401281482e6 0.0
-5.697178401281482e6 2.5577674817652073e7 0.0
0.0 0.0 0.0

-5.09494033176101e6 1.7886332326049767e7 0.0
1.7886332326049767e7 9.004502137853213e6 0.0
0.0 0.0 0.0

-3.618890209156251e6 2.3056117508515935e7 0.0
2.3056117508515935e7 7.038060336882746e6 0.0
0.0 0.0 0.0

64870.13257257268 1.6193099104505667e7 0.0
1.6193099104505667e7 -1.3508320644344086e7 0.0
0.0 0.0 0.0

-6.137680988300702e6 -1.4597877583365226e6 0.0
-1.4597877583365226e6 7.573056490705689e6 0.0
0.0 0.0 0.0

-6.786009403339631e6 1.0105611189792389e7 0.0
1.0105611189792389e7 7.105303125337237e6 0.0
0.0 0.0 0.0

1.58779172403121e6 7.3413002779048225e6 0.0
7.3413002779048225e6 -4.400473930908973e7 0.0
0.0 0.0 0.0

3.0895675332357963e6 2.7314474742209323e7 0.0
2.7314474742209323e7 -2.745438135978259e6 0.0
0.0 0.0 0.0

-1.0180500868131217e7 1.1095742405242613e7 0.0
1.1095742405242613e7 3.1883850918412164e7 0.0
0.0 0.0 0.0

-4.210968612498716e6 1.7084882738843102e7 0.0
1.7084882738843102e7 -1.2743100382487943e7 0.0
0.0 0.0 0.0

-1.284766721424997e7 9.491028608876845e6 0.0
9.491028608876845e6 1.9822844186016783e7 0.0
0.0 0.0 0.0

-9.832567053002974e6 2.3126940588170834e7 0.0
2.3126940588170834e7 -5.630273491190585e6 0.0
0.0 0.0 0.0

-909701.7209295513 1.7742686894677766e7 0.0
1.7742686894677766e7 -4.25522074364355e6 0.0
0.0 0.0 0.0

1.6987589585188343e6 1.6786099403842334e7 0.0
1.6786099403842334e7 1.3215289062286405e7 0.0
0.0 0.0 0.0

2.8690261454661526e6 7.864626123824316e6 0.0
7.864626123824316e6 -2.805013525274813e7 0.0
0.0 0.0 0.0

-4.52764478465852e6 1.6139465101078127e7 0.0
1.6139465101078127e7 -1.0410095499975724e7 0.0
0.0 0.0 0.0

3.862500307276884e6 3.0963399121152963e7 0.0
3.0963399121152963e7 -4.146811971212285e6 0.0
0.0 0.0 0.0

-4.676676977164853e6 1.7862453928612545e7 0.0
1.7862453928612545e7 1.1828500067551415e7 0.0
0.0 0.0 0.0

-9.126096473303499e6 -4.72446223927292e6 0.0
-4.72446223927292e6 2.86440743799586e7 0.0
0.0 0.0 0.0

-2.491419489640263e6 1.79986166721757e7 0.0
1.79986166721757e7 1.3883750998030163e7 0.0
0.0 0.0 0.0

-7.923337902612744e6 2.2150620437524833e7 0.0
2.2150620437524833e7 -7.560044962970314e6 0.0
0.0 0.0 0.0

-5.302513217497997e6 9.033549491590487e6 0.0
9.033549491590487e6 3.9553088545452165e6 0.0
0.0 0.0 0.0

881381.7531288117 1.7433163227192104e7 0.0
1.7433163227192104e7 2.8327875686245862e7 0.0
0.0 0.0 0.0

-9.594286972658318e6 1.4695682051237002e7 0.0
1.4695682051237002e7 1.6189624863963893e7 0.0
0.0 0.0 0.0

-1.0419593409479655e7 1.2822061997719398e7 0.0
1.2822061997719398e7 1.5701695478350546e7 0.0
0.0 0.0 0.0

-1.0736151418897899e7 9.249035620810557e6 0.0
9.249035620810557e6 3.173481580381338e7 0.0
0.0 0.0 0.0

-2.7980018703108793e6 1.8070935469559826e7 0.0
1.8070935469559826e7 1.7095833218169793e7 0.0
0.0 0.0 0.0

-7.609562530320186e6 2.665611425206294e7 0.0
2.665611425206294e7 5.255761120232437e6 0.0
0.0 0.0 0.0

-1.0564876669429133e6 2.8477296980957497e7 0.0
2.8477296980957497e7 -629957.2637001337 0.0
0.0 0.0 0.0

-4.4815924586957935e6 1.9746060279515058e7 0.0
1.9746060279515058e7 9.207133366726156e6 0.0
0.0 0.0 0.0

2.3995412012236393e6 3.137737824845569e6 0.0
3.137737824845569e6 -6.423068910660128e6 0.0
0.0 0.0 0.0

2.5049606543531837e6 1.078269416522588e7 0.0
1.078269416522588e7 -1.6900338273894608e7 0.0
0.0 0.0 0.0

2.1029847954086857e6 1.0678781633261396e7 0.0
1.0678781633261396e7 -1.3228479655609204e7 0.0
0.0 0.0 0.0

-5.995136586729237e6 1.6004076332712071e7 0.0
1.6004076332712071e7 9.633947167031277e6 0.0
0.0 0.0 0.0

-2.7083287042081133e6 3.7306414796121895e7 0.0
3.7306414796121895e7 -3.0860138579278225e6 0.0
0.0 0.0 0.0

-8.0274212672631685e6 7.0622290165394265e6 0.0
7.0622290165394265e6 8.211112676971627e6 0.0
0.0 0.0 0.0

589746.9369134753 2.5472983383157365e7 0.0
2.5472983383157365e7 -2.732080286533975e6 0.0
0.0 0.0 0.0

2.0122422796821827e6 2.3454353892345592e7 0.0
2.3454353892345592e7 -5.369595172760203e6 0.0
0.0 0.0 0.0

-4.02485025075893e6 9.888034442289129e6 0.0
9.888034442289129e6 5.25138506621171e6 0.0
0.0 0.0 0.0

-307112.19169730577 1.5895581816443034e7 0.0
1.5895581816443034e7 1.0389726342066131e6 0.0
0.0 0.0 0.0

1.4615254357968546e7 1.9821583936219834e7 0.0
1.9821583936219834e7 8.706764474976694e6 0.0
0.0 0.0 0.0

5.399485984100197e6 1.806822110217539e7 0.0
1.806822110217539e7 2.6692457206567146e7 0.0
0.0 0.0 0.0

480987.79988112487 1.7126639423341118e7 0.0
1.7126639423341118e7 1.1464446576605601e7 0.0
0.0 0.0 0.0

-9.42198648108247e6 1.417266697602949e7 0.0
1.417266697602949e7 1.528836797914306e7 0.0
0.0 0.0 0.0

-1.861228705467395e6 3.498033543590704e7 0.0
3.498033543590704e7 -2.206444910674489e6 0.0
0.0 0.0 0.0

-1.4474071506811406e7 2.416793793656097e7 0.0
2.416793793656097e7 -4.87195740873335e6 0.0
0.0 0.0 0.0

-1.0568625512047667e7 1.3423492455615802e7 0.0
1.3423492455615802e7 1.6614345493036527e7 0.0
0.0 0.0 0.0

1.1136991840086356e6 1.1689506212943047e7 0.0
1.1689506212943047e7 -2.8572953787746895e7 0.0
0.0 0.0 0.0

4.370598008871753e6 2.158241774005698e6 0.0
2.158241774005698e6 -3.1565194851868883e7 0.0
0.0 0.0 0.0

916814.0170393921 1.5479985550620146e7 0.0
1.5479985550620146e7 -1.4198835992755035e7 0.0
0.0 0.0 0.0

2.2308261559729753e6 1.1334391182173856e7 0.0
1.1334391182173856e7 -1.6014737503985878e7 0.0
0.0 0.0 0.0

504500.0491751693 1.6731306068998067e7 0.0
1.6731306068998067e7 -1.2577090195145456e7 0.0
0.0 0.0 0.0

-3.7891514277730146e6 4.022961948881261e7 0.0
4.022961948881261e7 -5.092285482882166e6 0.0
0.0 0.0 0.0

-3.063362012956938e6 2.129304351666368e7 0.0
2.129304351666368e7 3.9036853759517996e6 0.0
0.0 0.0 0.0

-287493.34913386405 1.935311184446184e7 0.0
1.935311184446184e7 -1.0240116347812872e7 0.0
0.0 0.0 0.0

-512689.569945978 1.872237124857034e7 0.0
1.872237124857034e7 -1.0631566332218027e7 0.0
0.0 0.0 0.0

2.6317698088774728e6 9.948194654092532e6 0.0
9.948194654092532e6 -1.567580143552099e7 0.0
0.0 0.0 0.0

-4.454960336570219e6 2.066098417801026e7 0.0
2.066098417801026e7 9.603021034322929e6 0.0
0.0 0.0 0.0

-929972.5771549251 1.8434256716547992e7 0.0
1.8434256716547992e7 1.4912554740635505e7 0.0
0.0 0.0 0.0

-6.027414438402848e6 2.1480119765249018e7 0.0
2.1480119765249018e7 7.281782781095788e6 0.0
0.0 0.0 0.0

-5.471427658979379e6 7.329057795574245e6 0.0
7.329057795574245e6 6.0963101790154986e7 0.0
0.0 0.0 0.0

-8.112896356823323e6 -3.0578792846084847e6 0.0
-3.0578792846084847e6 1.6754922575231524e7 0.0
0.0 0.0 0.0

-1.4666102123176806e7 5.941820931857574e7 0.0
5.941820931857574e7 -1.7348224151964717e7 0.0
0.0 0.0 0.0

2.5138324247350767e6 1.6991194055670694e7 0.0
1.6991194055670694e7 1.6583757635415168e7 0.0
0.0 0.0 0.0

-1.3572829170135718e6 3.343328541459972e7 0.0
3.343328541459972e7 -1.4311539766806369e6 0.0
0.0 0.0 0.0

34022.92626007693 1.646122863887526e7 0.0
1.646122863887526e7 -1.0221505904042052e7 0.0
0.0 0.0 0.0

381242.48325524665 1.8786710650315274e7 0.0
1.8786710650315274e7 -1.009746618423274e7 0.0
0.0 0.0 0.0

-3.232694748262617e6 2.2224909237322893e7 0.0
2.2224909237322893e7 5.731102421831071e6 0.0
0.0 0.0 0.0

4.469207682066543e6 2.716779907005393e6 0.0
2.716779907005393e6 -1.8369642917979304e7 0.0
0.0 0.0 0.0

6.385169443765578e6 1.8045492470961064e7 0.0
1.8045492470961064e7 1.4701677628503537e6 0.0
0.0 0.0 0.0

2.4102356952222046e6 1.1254218558356179e7 0.0
1.1254218558356179e7 -1.747553211043179e7 0.0
0.0 0.0 0.0

2.4415970945094633e6 2.146317714401888e7 0.0
2.146317714401888e7 -6.393084751732171e6 0.0
0.0 0.0 0.0

3.531876469538424e6 7.341688127492105e6 0.0
7.341688127492105e6 -2.725235857935343e7 0.0
0.0 0.0 0.0

-3.848040064406193e6 1.880207031688178e7 0.0
1.880207031688178e7 8.292034485533041e6 0.0
0.0 0.0 0.0

2.945969670954814e6 7.00152801978248e6 0.0
7.00152801978248e6 -1.1567198619219504e7 0.0
0.0 0.0 0.0

-1.7333937465068435e6 1.0387263977688989e7 0.0
1.0387263977688989e7 -330161.3185357616 0.0
0.0 0.0 0.0

-1.3774272755743552e7 2.140786152127779e7 0.0
2.140786152127779e7 -4.393295373891986e6 0.0
0.0 0.0 0.0

3.0434634792230083e6 9.487964269300923e6 0.0
9.487964269300923e6 -2.0121294338653885e7 0.0
0.0 0.0 0.0

-2.8041001910698265e6 1.5554881320032066e7 0.0
1.5554881320032066e7 -3.4546466667102166e6 0.0
0.0 0.0 0.0

-856587.7808420004 1.984013343593805e7 0.0
1.984013343593805e7 -8.704848406106275e6 0.0
0.0 0.0 0.0

-2.9281003515115585e6 1.7821574204675388e7 0.0
1.7821574204675388e7 2.0968902762009956e7 0.0
0.0 0.0 0.0

284937.6155344222 1.7488271061585937e7 0.0
1.7488271061585937e7 -2.077335840890018e6 0.0
0.0 0.0 0.0

-6.600151962590308e6 1.494235444317836e7 0.0
1.494235444317836e7 9.960461392655827e6 0.0
0.0 0.0 0.0

-1.211272392944653e7 6.596873217120679e6 0.0
6.596873217120679e6 2.7379990448407e7 0.0
0.0 0.0 0.0

-2.3472266918884274e6 1.8110139814441476e7 0.0
1.8110139814441476e7 2.138773678106975e7 0.0
0.0 0.0 0.0

-8.529978776407026e6 1.577312566512338e7 0.0
1.577312566512338e7 1.5660196650415204e7 0.0
0.0 0.0 0.0

-1.1594003161018794e7 1.8741337720105622e6 0.0
1.8741337720105622e6 2.451798837238119e7 0.0
0.0 0.0 0.0

-5.311566411334838e6 1.725823075937658e7 0.0
1.725823075937658e7 1.3235499503441107e7 0.0
0.0 0.0 0.0

-5.3292651031190315e6 1.9359716355013277e7 0.0
1.9359716355013277e7 1.432286782085067e7 0.0
0.0 0.0 0.0

-7.988359659734859e6 5.035681453334922e6 0.0
5.035681453334922e6 1.2784867571290176e7 0.0
0.0 0.0 0.0

-675041.3533767518 1.9287849035416134e7 0.0
1.9287849035416134e7 -9.681608769794995e6 0.0
0.0 0.0 0.0

-3.4975026938657477e6 2.2154588198336247e7 0.0
2.2154588198336247e7 3.589040408462485e6 0.0
0.0 0.0 0.0

-8.496302622481732e6 1.6248950063746514e7 0.0
1.6248950063746514e7 1.6392545910805661e7 0.0
0.0 0.0 0.0

-1.055267697187623e7 2.338863244334688e6 0.0
2.338863244334688e6 3.5583945564905316e7 0.0
0.0 0.0 0.0

-2.7997810355858454e6 1.8887135723261707e7 0.0
1.8887135723261707e7 1.1162717760903269e7 0.0
0.0 0.0 0.0

-9.767440179532059e6 1.2672726250849953e7 0.0
1.2672726250849953e7 1.7995078102574363e7 0.0
0.0 0.0 0.0

1.5341431064502522e6 1.1431661497180464e7 0.0
1.1431661497180464e7 -2.7000679887334697e7 0.0
0.0 0.0 0.0

-3.866709895032432e6 1.7260151824047968e7 0.0
1.7260151824047968e7 2.5936290266582105e7 0.0
0.0 0.0 0.0

-1.0840852254274903e7 1.453281252403756e7 0.0
1.453281252403756e7 2.1121461716529846e7 0.0
0.0 0.0 0.0

2.1100203452383466e6 1.023769503272643e7 0.0
1.023769503272643e7 -1.2586318059455551e7 0.0
0.0 0.0 0.0

3.994112416972976e6 3.7766673188953274e6 0.0
3.7766673188953274e6 -2.541330671515257e7 0.0
0.0 0.0 0.0

905361.5988832396 1.734594219821322e7 0.0
1.734594219821322e7 2.153344213328587e7 0.0
0.0 0.0 0.0

-1.246684846273763e6 1.760588499030019e7 0.0
1.760588499030019e7 2.3745145050327428e7 0.0
0.0 0.0 0.0

-658648.0439946894 1.5999377341586776e7 0.0
1.5999377341586776e7 -7.410064486463893e6 0.0
0.0 0.0 0.0

-3.925520001876284e6 2.1817390174604792e7 0.0
2.1817390174604792e7 9.571070710891157e6 0.0
0.0 0.0 0.0

-937268.5536751745 3.0451640210321702e7 0.0
3.0451640210321702e7 -873551.0474771644 0.0
0.0 0.0 0.0

138684.69122305606 1.781079360639689e7 0.0
1.781079360639689e7 -1.189365668060852e7 0.0
0.0 0.0 0.0

-9.13388479571908e6 -2.0151172730448837e6 0.0
-2.0151172730448837e6 1.7964856927657124e7 0.0
0.0 0.0 0.0

988793.6980975764 1.3233930437525151e7 0.0
1.3233930437525151e7 -2.3325968094117492e7 0.0
0.0 0.0 0.0

-4.183032195630757e6 1.9601336021346666e7 0.0
1.9601336021346666e7 1.1572498367855161e7 0.0
0.0 0.0 0.0

-1.1391194385110453e7 1.3223580445101947e7 0.0
1.3223580445101947e7 2.166676029501273e7 0.0
0.0 0.0 0.0

2.429000973310903e6 1.4768627314442985e7 0.0
1.4768627314442985e7 9.210754993633537e6 0.0
0.0 0.0 0.0

2.081335906883372e6 9.222799270456947e6 0.0
9.222799270456947e6 -3.138417574759195e7 0.0
0.0 0.0 0.0

1.750608535601087e6 1.1330551099228919e7 0.0
1.1330551099228919e7 -2.5373580084079325e7 0.0
0.0 0.0 0.0

4.914942241499597e6 3.2239374587748516e7 0.0
3.2239374587748516e7 -5.096189022065324e6 0.0
0.0 0.0 0.0

-2.891956349286918e6 2.165903750602539e7 0.0
2.165903750602539e7 3.0227177884371504e6 0.0
0.0 0.0 0.0

-3.122714593548723e6 2.2648658559801623e7 0.0
2.2648658559801623e7 4.878271281680119e6 0.0
0.0 0.0 0.0

-2.4112546042864975e6 2.266263732042515e7 0.0
2.266263732042515e7 -1.8870569560745205e6 0.0
0.0 0.0 0.0

4.1524643423400903e6 4.3814856928696195e6 0.0
4.3814856928696195e6 -1.5398100365596969e7 0.0
0.0 0.0 0.0

-1.3522136531939278e6 1.4872236219520336e7 0.0
1.4872236219520336e7 -6.792993106221913e6 0.0
0.0 0.0 0.0

-4.058565999492512e6 1.947018262520135e7 0.0
1.947018262520135e7 1.0849713553273749e7 0.0
0.0 0.0 0.0

95827.09825870907 1.9799257336116124e7 0.0
1.9799257336116124e7 -9.504399871004421e6 0.0
0.0 0.0 0.0

-896800.6733203952 2.9693845373839013e7 0.0
2.9693845373839013e7 -704935.6000935794 0.0
0.0 0.0 0.0

-5.862011287475689e6 8.06846303171443e6 0.0
8.06846303171443e6 9.776963511871701e6 0.0
0.0 0.0 0.0

-1.2750653649590537e7 8.656719300382126e6 0.0
8.656719300382126e6 2.2702409556172267e7 0.0
0.0 0.0 0.0

-964195.1415346988 2.907794584498588e7 0.0
2.907794584498588e7 -561111.9534349538 0.0
0.0 0.0 0.0

-1.0016074165057077e6 2.041815453548805e7 0.0
2.041815453548805e7 -7.778927690980446e6 0.0
0.0 0.0 0.0

1.9085656862097448e6 1.0351369748222347e7 0.0
1.0351369748222347e7 -1.6324377221256359e7 0.0
0.0 0.0 0.0

-5.418000497786035e6 1.5719880115654008e7 0.0
1.5719880115654008e7 1.1806681628337825e7 0.0
0.0 0.0 0.0

2.19564135531551e6 8.576062155433066e6 0.0
8.576062155433066e6 -3.28378296689369e7 0.0
0.0 0.0 0.0

-1.7360922825772152e6 2.5892429582886472e7 0.0
2.5892429582886472e7 823145.1409266538 0.0
0.0 0.0 0.0

-3.6961785563983577e6 1.9821923543738008e7 0.0
1.9821923543738008e7 8.838769184326902e6 0.0
0.0 0.0 0.0

597551.5564992372 1.2391011612215314e7 0.0
1.2391011612215314e7 -2.8770311461093057e7 0.0
0.0 0.0 0.0

-3.75616064276079e6 2.312350389116987e7 0.0
2.312350389116987e7 5.186019759867575e6 0.0
0.0 0.0 0.0

-1.2533916716355659e7 8.42309398913691e6 0.0
8.42309398913691e6 2.4242500678332616e7 0.0
0.0 0.0 0.0

1.6299704228592254e6 1.0077938707517462e7 0.0
1.0077938707517462e7 -1.4164184167146433e7 0.0
0.0 0.0 0.0

602719.3109033429 1.8693047125107165e7 0.0
1.8693047125107165e7 9.149502552448682e6 0.0
0.0 0.0 0.0

-3.3190806170788337e6 2.1137583743289948e7 0.0
2.1137583743289948e7 6.770688870195749e6 0.0
0.0 0.0 0.0

-15769.4187922813 1.3180506161847334e7 0.0
1.3180506161847334e7 -2.8372038021048352e7 0.0
0.0 0.0 0.0

-4.969722659871113e6 4.427501646626718e7 0.0
4.427501646626718e7 -8.123984751544543e6 0.0
0.0 0.0 0.0

-1.0117806747306827e7 1.5721137855487231e7 0.0
1.5721137855487231e7 1.925241038615214e7 0.0
0.0 0.0 0.0

-8.448378463264793e6 1.6579591451879328e7 0.0
1.6579591451879328e7 -4.4484650454221435e7 0.0
0.0 0.0 0.0

-4.530366168624626e6 8.903893554904222e6 0.0
8.903893554904222e6 6.612334471857615e6 0.0
0.0 0.0 0.0

-5.204559514660851e6 1.8158041567040764e7 0.0
1.8158041567040764e7 9.962663431859527e6 0.0
0.0 0.0 0.0

-6.655034772685526e6 1.6934717526646238e7 0.0
1.6934717526646238e7 2.489064172440479e7 0.0
0.0 0.0 0.0

-5.951135386318219e6 1.4611950123543186e7 0.0
1.4611950123543186e7 1.22863473136172e7 0.0
0.0 0.0 0.0

-2.697832763226263e6 1.5440354433870185e7 0.0
1.5440354433870185e7 4.769809091865662e7 0.0
0.0 0.0 0.0

-4.1380717804936795e6 1.8225926301434647e7 0.0
1.8225926301434647e7 9.535849641396035e6 0.0
0.0 0.0 0.0

-704588.4790602466 1.5993227354813663e7 0.0
1.5993227354813663e7 -1.9587929366595823e7 0.0
0.0 0.0 0.0

254676.55891709542 1.8239006552779775e7 0.0
1.8239006552779775e7 -1.2425087995068947e7 0.0
0.0 0.0 0.0

1.2266866418870834e8 2.188849357597545e7 0.0
2.188849357597545e7 1.080000420202297e7 0.0
0.0 0.0 0.0

-9.128113306806225e6 -4.517110552834538e6 0.0
-4.517110552834538e6 2.973261877303037e7 0.0
0.0 0.0 0.0

4.472917847961597e6 2.2298989751854516e6 0.0
2.2298989751854516e6 -2.888096787706257e7 0.0
0.0 0.0 0.0

-7.140388582384316e6 1.4092543059978934e6 0.0
1.4092543059978934e6 8.638418551661327e6 0.0
0.0 0.0 0.0

-2.2544630439038696e6 2.216779848597247e7 0.0
2.216779848597247e7 -2.739846906685797e6 0.0
0.0 0.0 0.0

-8.691043974614305e6 -3.1083341881047366e6 0.0
-3.1083341881047366e6 3.852288690869671e7 0.0
0.0 0.0 0.0

-5.5106896157087665e6 1.5394632691020781e7 0.0
1.5394632691020781e7 -2.6795825516601175e7 0.0
0.0 0.0 0.0

-1.1900522903259432e7 1.1557071062732602e7 0.0
1.1557071062732602e7 2.202870560975005e7 0.0
0.0 0.0 0.0

-8.523845621614993e6 1.6660702974839868e7 0.0
1.6660702974839868e7 1.6989318171939727e7 0.0
0.0 0.0 0.0

4.290022464588845e6 2.103900025881241e6 0.0
2.103900025881241e6 -3.2491718608206317e7 0.0
0.0 0.0 0.0

704444.3162220214 1.5991437403177135e7 0.0
1.5991437403177135e7 -1.319827069432811e7 0.0
0.0 0.0 0.0

-1.0522012556086644e6 3.13591150600155e7 0.0
3.13591150600155e7 -766240.4390230072 0.0
0.0 0.0 0.0

1.247020233482901e6 1.0671027827884786e7 0.0
1.0671027827884786e7 -1.328252632574182e7 0.0
0.0 0.0 0.0

-2.3797443441573046e6 1.9253183780804202e7 0.0
1.9253183780804202e7 -3.2503775107986564e6 0.0
0.0 0.0 0.0

-1.6615690543671139e6 7.83587628888124e6 0.0
7.83587628888124e6 8.746468361442581e7 0.0
0.0 0.0 0.0

-1.310821561544124e6 7.833841020834855e6 0.0
7.833841020834855e6 -7.686852081273694e7 0.0
0.0 0.0 0.0

-4.246220167602541e6 1.5585672892089447e7 0.0
1.5585672892089447e7 -6.384175386587207e7 0.0
0.0 0.0 0.0

1.3221105021384144e6 1.4495105837106325e7 0.0
1.4495105837106325e7 -1.6153293272083545e7 0.0
0.0 0.0 0.0

3.2880487233771253e6 6.675766272055113e6 0.0
6.675766272055113e6 -3.519854659743422e7 0.0
0.0 0.0 0.0

-2.0929071860285178e7 2.5133950003121074e7 0.0
2.5133950003121074e7 3.790208004822879e6 0.0
0.0 0.0 0.0

-48122.36114932457 1.9288058214373674e7 0.0
1.9288058214373674e7 -1.0497620977412118e7 0.0
0.0 0.0 0.0

-9.022348943345405e6 -4.363296666308923e6 0.0
-4.363296666308923e6 3.0767737889273304e7 0.0
0.0 0.0 0.0

-7.412531260735279e6 1.037580679111652e7 0.0
1.037580679111652e7 1.1472873722848902e7 0.0
0.0 0.0 0.0

-2.9772250892376406e6 2.3036155258534443e7 0.0
2.3036155258534443e7 4.0320822754417183e6 0.0
0.0 0.0 0.0

-4.6327997366857985e6 1.9956916627859145e7 0.0
1.9956916627859145e7 9.983763791737495e6 0.0
0.0 0.0 0.0

-8.90563067315233e6 1.3238463108832616e7 0.0
1.3238463108832616e7 1.3140173422577627e7 0.0
0.0 0.0 0.0

-7.01476305496805e6 6.4572833074981645e6 0.0
6.4572833074981645e6 1.1744738598618813e7 0.0
0.0 0.0 0.0

5.076946974030425e6 1.8081253890608825e7 0.0
1.8081253890608825e7 3.386360665855979e6 0.0
0.0 0.0 0.0

-1.1860642062766985e6 2.102454221863507e7 0.0
2.102454221863507e7 -6.870980359457953e6 0.0
0.0 0.0 0.0

-1.982165230506468e6 6.087312836446891e6 0.0
6.087312836446891e6 -1.1940214912760272e6 0.0
0.0 0.0 0.0

-1.0493444133838327e6 2.395063105374266e7 0.0
2.395063105374266e7 -2.105488109045236e6 0.0
0.0 0.0 0.0

-1.1576617691444304e7 1.45941265962152e7 0.0
1.45941265962152e7 2.0736746495741144e7 0.0
0.0 0.0 0.0

-5.201738911969385e6 1.5405330778005533e7 0.0
1.5405330778005533e7 1.0686844371775031e7 0.0
0.0 0.0 0.0

-8.949821573185502e6 -4.106206307620074e6 0.0
-4.106206307620074e6 3.183258610448499e7 0.0
0.0 0.0 0.0

4.343542259248761e6 2.1879341733077355e6 0.0
2.1879341733077355e6 -3.065538220191834e7 0.0
0.0 0.0 0.0

3.120998045681039e6 6.917636195301616e6 0.0
6.917636195301616e6 -3.748014506716084e7 0.0
0.0 0.0 0.0

-1.280129169334361e7 1.0440736445622748e7 0.0
1.0440736445622748e7 2.0461808171341613e7 0.0
0.0 0.0 0.0

747413.4203559048 4.970742176118797e6 0.0
4.970742176118797e6 -6.6094318306451485e7 0.0
0.0 0.0 0.0

-7.50388513297493e6 -1.276644939338254e6 0.0
-1.276644939338254e6 5.151859420309683e7 0.0
0.0 0.0 0.0

2.159849597555449e6 9.788688092589607e6 0.0
9.788688092589607e6 -1.7270460802300848e7 0.0
0.0 0.0 0.0

3.3078562676286995e6 8.555189418684764e6 0.0
8.555189418684764e6 -1.9043707906050544e7 0.0
0.0 0.0 0.0

2.987652088885924e6 2.891826137550668e7 0.0
2.891826137550668e7 -2.333060814807818e6 0.0
0.0 0.0 0.0

-6.136533642196067e6 2.6559386858440246e7 0.0
2.6559386858440246e7 5.707112301437231e6 0.0
0.0 0.0 0.0

-3.534384424715653e6 2.0689100809413183e7 0.0
2.0689100809413183e7 7.697806027910082e6 0.0
0.0 0.0 0.0

-855419.8165009764 2.2983871739198778e7 0.0
2.2983871739198778e7 -3.695097308264828e6 0.0
0.0 0.0 0.0

-1.5827302090001903e6 2.9653344125848755e7 0.0
2.9653344125848755e7 1.4464474004245522e6 0.0
0.0 0.0 0.0

-3.4756534064441e6 2.1896501542953014e7 0.0
2.1896501542953014e7 7.422791963904611e6 0.0
0.0 0.0 0.0

-426152.9725183253 1.7490536772099204e7 0.0
1.7490536772099204e7 9.645926713605681e6 0.0
0.0 0.0 0.0

2.348673919700466e6 2.8558549452234153e6 0.0
2.8558549452234153e6 -5.4972081675430164e7 0.0
0.0 0.0 0.0

4.1328985627523866e6 1.9429088933521765e6 0.0
1.9429088933521765e6 -3.63166105541494e7 0.0
0.0 0.0 0.0

3.2774834899640772e6 2.122836849827183e6 0.0
2.122836849827183e6 -4.713411777892023e7 0.0
0.0 0.0 0.0

-3.034397909219484e6 2.312647249446628e7 0.0
2.312647249446628e7 1.2587875235653936e6 0.0
0.0 0.0 0.0

-6.116828512508264e6 9.558189225819897e6 0.0
9.558189225819897e6 5.568355438566557e6 0.0
0.0 0.0 0.0

-8.456877361437008e6 -2.9092950315392544e6 0.0
-2.9092950315392544e6 3.964984864812805e7 0.0
0.0 0.0 0.0

-1.2645176259995233e7 1.0670898991733102e7 0.0
1.0670898991733102e7 1.9204317862565406e7 0.0
0.0 0.0 0.0

4.3373560686386265e6 3.880922984699663e6 0.0
3.880922984699663e6 -2.0082491755766623e7 0.0
0.0 0.0 0.0

-1.2664921482848745e7 2.4824333389594723e7 0.0
2.4824333389594723e7 5.3152958900556015e6 0.0
0.0 0.0 0.0

-5.386281235302659e6 1.5976676699539237e7 0.0
1.5976676699539237e7 -2.307326022280134e7 0.0
0.0 0.0 0.0

-9.119772237231947e6 -5.519678706100972e6 0.0
-5.519678706100972e6 2.503325697939561e7 0.0
0.0 0.0 0.0

-1.1720000227004996e7 2.541093261161749e6 0.0
2.541093261161749e6 1.771504219003077e7 0.0
0.0 0.0 0.0

-1.2028522441118108e7 7.874944390153547e6 0.0
7.874944390153547e6 2.793406647734733e7 0.0
0.0 0.0 0.0

-5.112453906233065e6 1.864264068527213e7 0.0
1.864264068527213e7 1.6586244538526796e7 0.0
0.0 0.0 0.0

1.7358235533883162e6 1.1809484680727288e7 0.0
1.1809484680727288e7 -2.272871824434442e7 0.0
0.0 0.0 0.0

3.025260300519444e6 2.4858481604443756e6 0.0
2.4858481604443756e6 -5.199309985625355e7 0.0
0.0 0.0 0.0

4.4329322184335645e6 2.351010536631459e6 0.0
2.351010536631459e6 -2.6338106371094994e7 0.0
0.0 0.0 0.0

8.600672313756367e6 3.0720532700647853e7 0.0
3.0720532700647853e7 -6.884834336414471e6 0.0
0.0 0.0 0.0

-7.808062367758531e6 -1.5308102803648608e6 0.0
-1.5308102803648608e6 4.9402907595023155e7 0.0
0.0 0.0 0.0

3.0072766636229325e6 8.025007905389063e6 0.0
8.025007905389063e6 -3.20426264460201e7 0.0
0.0 0.0 0.0

-6.366906467762835e6 1.6253128952817568e6 0.0
1.6253128952817568e6 6.660139000965311e7 0.0
0.0 0.0 0.0

2.0570006424720772e6 3.5396837904674266e6 0.0
3.5396837904674266e6 -5.9389961909964114e7 0.0
0.0 0.0 0.0

-3.866475696519389e6 2.3050716746599257e7 0.0
2.3050716746599257e7 7.6586446259755455e6 0.0
0.0 0.0 0.0

-968431.107259307 1.1614029312613836e7 0.0
1.1614029312613836e7 -6.497055309665145e6 0.0
0.0 0.0 0.0

-704539.2751329811 1.6772613422003731e7 0.0
1.6772613422003731e7 -1.0669075110746901e7 0.0
0.0 0.0 0.0

413376.645089129 1.5631844170462757e7 0.0
1.5631844170462757e7 -1.738027417889721e7 0.0
0.0 0.0 0.0

-7.163941133033801e6 -909810.6318928339 0.0
-909810.6318928339 5.41928763902437e7 0.0
0.0 0.0 0.0

3.05572573140396e6 2.325169019330219e6 0.0
2.325169019330219e6 -4.9362531230638295e7 0.0
0.0 0.0 0.0

-1.080709427024069e7 1.5442031133302659e7 0.0
1.5442031133302659e7 2.1340407644983273e7 0.0
0.0 0.0 0.0

-1.18266515411635e7 1.3958760441958813e7 0.0
1.3958760441958813e7 2.028019024783841e7 0.0
0.0 0.0 0.0

-1.2443086749894064e7 9.490593089409934e6 0.0
9.490593089409934e6 2.4771341678445242e7 0.0
0.0 0.0 0.0

-6.965545650718799e6 1.3781404036807586e7 0.0
1.3781404036807586e7 1.4005032653085783e7 0.0
0.0 0.0 0.0

1.8423064770092778e6 1.7782104750618678e7 0.0
1.7782104750618678e7 2.8849320430178918e7 0.0
0.0 0.0 0.0

-418890.21209167084 2.149771020535626e7 0.0
2.149771020535626e7 -6.124204812159452e6 0.0
0.0 0.0 0.0

-2.7891577754338877e6 2.446447091211721e7 0.0
2.446447091211721e7 815342.4256217186 0.0
0.0 0.0 0.0

-796443.262241549 2.263431265157968e7 0.0
2.263431265157968e7 -5.087352299385854e6 0.0
0.0 0.0 0.0

2.8329060105225984e6 9.804577714740505e6 0.0
9.804577714740505e6 -1.720134339737822e7 0.0
0.0 0.0 0.0

-3.8313607106017834e6 2.5246537122421995e7 0.0
2.5246537122421995e7 5.158072810813077e6 0.0
0.0 0.0 0.0

-1.3541993955197963e6 1.8398353576077603e7 0.0
1.8398353576077603e7 -4.646354842456757e6 0.0
0.0 0.0 0.0

1.7400733056921298e6 1.3542848572592068e7 0.0
1.3542848572592068e7 -1.810638655194366e7 0.0
0.0 0.0 0.0

-1.0887707492765307e7 1.3779142369625792e7 0.0
1.3779142369625792e7 2.589329961575655e7 0.0
0.0 0.0 0.0

-1.2638088635407437e7 1.1277913081780566e7 0.0
1.1277913081780566e7 2.1116330266159065e7 0.0
0.0 0.0 0.0

2.598352840122264e6 9.020393841959788e6 0.0
9.020393841959788e6 -1.9774462342934456e7 0.0
0.0 0.0 0.0

-8.894883489982868e6 -3.639845626167239e6 0.0
-3.639845626167239e6 3.507954923534724e7 0.0
0.0 0.0 0.0

4.214548918516105e6 2.0950220235751725e6 0.0
2.0950220235751725e6 -3.3414567000959195e7 0.0
0.0 0.0 0.0

-1.7629979859060422e6 1.7867215151773203e7 0.0
1.7867215151773203e7 1.853480098520315e7 0.0
0.0 0.0 0.0

-7.910307189021459e6 -1.788262075430998e6 0.0
-1.788262075430998e6 4.74013042555949e7 0.0
0.0 0.0 0.0

3.4948148056575973e6 2.0556461766693357e6 0.0
2.0556461766693357e6 -4.366229873607323e7 0.0
0.0 0.0 0.0

4.128675895020025e6 2.1136170561218453e6 0.0
2.1136170561218453e6 -3.432185488310186e7 0.0
0.0 0.0 0.0

-8.780177631485503e6 -3.428421415533043e6 0.0
-3.428421415533043e6 3.615093323402217e7 0.0
0.0 0.0 0.0

-5.931294650575886e6 1.576431992069341e7 0.0
1.576431992069341e7 3.1797716177356236e7 0.0
0.0 0.0 0.0

3.7046777525965367e6 1.9939488927476096e6 0.0
1.9939488927476096e6 -4.230112795864259e7 0.0
0.0 0.0 0.0

-8.016429628798921e6 -2.1155741792810266e6 0.0
-2.1155741792810266e6 4.548485643372745e7 0.0
0.0 0.0 0.0

-5.213429364209781e6 1.8511916131093297e7 0.0
1.8511916131093297e7 1.844064200737974e7 0.0
0.0 0.0 0.0

-9.703317986867499e6 -1.4723456433910038e6 0.0
-1.4723456433910038e6 3.1767288285389576e7 0.0
0.0 0.0 0.0

-8.751855276354821e6 -3.2215616823122725e6 0.0
-3.2215616823122725e6 3.7383183529134884e7 0.0
0.0 0.0 0.0

4.258623461713634e6 2.0642859455823887e6 0.0
2.0642859455823887e6 -3.53874193783739e7 0.0
0.0 0.0 0.0

3.7817603321464006e6 2.0257051043932256e6 0.0
2.0257051043932256e6 -4.0957858265864335e7 0.0
0.0 0.0 0.0

-8.18386544045903e6 -2.3919006063788943e6 0.0
-2.3919006063788943e6 4.383436510120922e7 0.0
0.0 0.0 0.0

-2.3532870722191444e8 5.320876410497384e7 0.0
5.320876410497384e7 -2.6282223289387606e7 0.0
0.0 0.0 0.0

2.0703771238292632e8 4.0320037784499556e7 0.0
4.0320037784499556e7 1.7098322173487872e7 0.0
0.0 0.0 0.0

-9.179938336172989e6 1.3701726678358557e7 0.0
1.3701726678358557e7 1.4254198450369168e7 0.0
0.0 0.0 0.0

3.736525884139754e6 1.964220919197998e6 0.0
1.964220919197998e6 -3.9656985872157715e7 0.0
0.0 0.0 0.0

-8.407099786779663e6 -2.5417510118592065e6 0.0
-2.5417510118592065e6 4.24914860349346e7 0.0
0.0 0.0 0.0

228832.49612874445 1.634828221531746e7 0.0
1.634828221531746e7 -1.5902490871422363e6 0.0
0.0 0.0 0.0

-1.2413616116301712e7 1.2366154220021801e7 0.0
1.2366154220021801e7 2.0436239772415955e7 0.0
0.0 0.0 0.0

-2.795740547697369e6 2.340275484790943e7 0.0
2.340275484790943e7 3.2721690944111384e6 0.0
0.0 0.0 0.0

-1.0081710439708065e6 1.834880958633363e7 0.0
1.834880958633363e7 1.9239470144464977e7 0.0
0.0 0.0 0.0

-8.473097585588314e6 -2.6714874986730036e6 0.0
-2.6714874986730036e6 4.1093864349802755e7 0.0
0.0 0.0 0.0

3.942084490855681e6 1.8769489426636447e6 0.0
1.8769489426636447e6 -3.8614045118929185e7 0.0
0.0 0.0 0.0

-1.269278636162219e6 2.159352074194933e7 0.0
2.159352074194933e7 -5.9719411403828645e6 0.0
0.0 0.0 0.0

-6.091925083124826e6 1.6079609186398285e7 0.0
1.6079609186398285e7 -4.607770095909043e7 0.0
0.0 0.0 0.0

-1.8698375702198641e6 2.401849897827121e7 0.0
2.401849897827121e7 -1.8733069646992018e6 0.0
0.0 0.0 0.0

1.1584038110745344e6 1.4994215434962548e7 0.0
1.4994215434962548e7 -1.515713909333248e7 0.0
0.0 0.0 0.0

831133.3139166124 1.4070346431822773e7 0.0
1.4070346431822773e7 -2.0833796480059095e7 0.0
0.0 0.0 0.0

-549744.6899018767 1.742146288639865e7 0.0
1.742146288639865e7 5.524342847864211e6 0.0
0.0 0.0 0.0

427339.0069577121 2.149286279730845e7 0.0
2.149286279730845e7 -7.369698221126342e6 0.0
0.0 0.0 0.0

53990.04528358532 1.9782599494202647e7 0.0
1.9782599494202647e7 -9.356562090766247e6 0.0
0.0 0.0 0.0

-4.003809251490795e6 1.4969391957176136e7 0.0
1.4969391957176136e7 -3.5704116810666755e7 0.0
0.0 0.0 0.0

-2.234737277248164e6 2.422645072552747e7 0.0
2.422645072552747e7 1.180915905152183e6 0.0
0.0 0.0 0.0

-4.067690040250079e6 2.034433610877769e7 0.0
2.034433610877769e7 8.348916092930699e6 0.0
0.0 0.0 0.0

-5.538468334684148e6 2.1405819235794768e7 0.0
2.1405819235794768e7 -8.902211052604735e6 0.0
0.0 0.0 0.0

557882.1152818399 1.4454913481159454e7 0.0
1.4454913481159454e7 -2.083174138957063e7 0.0
0.0 0.0 0.0

-1.2240850108797655e7 1.097475588649856e7 0.0
1.097475588649856e7 1.7772295967452675e7 0.0
0.0 0.0 0.0

1.566697673654838e6 1.6592671120162483e7 0.0
1.6592671120162483e7 9.337896720181454e6 0.0
0.0 0.0 0.0

-1.1549254597263303e7 1.260233106091197e7 0.0
1.260233106091197e7 1.7673808635849852e7 0.0
0.0 0.0 0.0

-2.141546729384497e6 1.6983069584073875e7 0.0
1.6983069584073875e7 -2.353750342354433e6 0.0
0.0 0.0 0.0

-2.4173946688801358e6 2.4012984042764544e7 0.0
2.4012984042764544e7 1.9276055066671579e6 0.0
0.0 0.0 0.0

-1.113275045344795e6 1.4657935670440134e7 0.0
1.4657935670440134e7 -2.5487575856493626e7 0.0
0.0 0.0 0.0

-4.150531631579212e6 1.8606753896630224e7 0.0
1.8606753896630224e7 1.781910306574853e7 0.0
0.0 0.0 0.0

-1.7436332739132568e6 3.035033754112943e7 0.0
3.035033754112943e7 1.8151227643583207e6 0.0
0.0 0.0 0.0

-2.9598082011611573e6 1.7323146192215562e7 0.0
1.7323146192215562e7 -2.8973935249435226e6 0.0
0.0 0.0 0.0

-1.528683517010573e6 2.2621984309998803e7 0.0
2.2621984309998803e7 -4.255522040729153e6 0.0
0.0 0.0 0.0

1.1774785884905614e7 2.068582593136859e7 0.0
2.068582593136859e7 9.562153393556284e6 0.0
0.0 0.0 0.0

-2.633084902550455e6 2.372947735875787e7 0.0
2.372947735875787e7 2.5607242238455284e6 0.0
0.0 0.0 0.0

-8.844350577554222e6 1.4278908332649928e7 0.0
1.4278908332649928e7 2.524868094142566e6 0.0
0.0 0.0 0.0

-2.0803294718808914e6 2.5684907381620202e7 0.0
2.5684907381620202e7 1.3800066489426254e6 0.0
0.0 0.0 0.0

4.467991460325284e6 2.6236704087123265e6 0.0
2.6236704087123265e6 -2.1067468141354088e7 0.0
0.0 0.0 0.0

4.498531672582854e6 2.6898396731032464e6 0.0
2.6898396731032464e6 -2.0334599666665666e7 0.0
0.0 0.0 0.0

-1.3428638966083354e6 2.2134227680067148e7 0.0
2.2134227680067148e7 -4.96039053387443e6 0.0
0.0 0.0 0.0

-399069.00768110715 1.8019128393904477e7 0.0
1.8019128393904477e7 2.435013184434482e7 0.0
0.0 0.0 0.0

-1.6708488199237706e6 2.6364790271154214e7 0.0
2.6364790271154214e7 967492.8126724433 0.0
0.0 0.0 0.0

-1.2593556072466103e7 9.739352467087897e6 0.0
9.739352467087897e6 2.3262937793716367e7 0.0
0.0 0.0 0.0

-1.562948926440178e6 2.851839442693083e7 0.0
2.851839442693083e7 1.3042379543968132e6 0.0
0.0 0.0 0.0

-3.4818966572859613e6 1.9059390650352567e7 0.0
1.9059390650352567e7 1.1047855484818885e7 0.0
0.0 0.0 0.0

-294410.5424230518 1.5625972226764333e7 0.0
1.5625972226764333e7 4.096460851467245e6 0.0
0.0 0.0 0.0

2.2108622094038194e6 1.156487080531304e7 0.0
1.156487080531304e7 -2.3768979608483076e7 0.0
0.0 0.0 0.0

-3.5091749235867457e6 2.33208704716858e7 0.0
2.33208704716858e7 3.5734932043687617e6 0.0
0.0 0.0 0.0

-8.977807692681666e6 -4.321599637659744e6 0.0
-4.321599637659744e6 2.2218090390017375e7 0.0
0.0 0.0 0.0

-6.139636577649359e6 1.4844173054699544e7 0.0
1.4844173054699544e7 3.3365366357934255e7 0.0
0.0 0.0 0.0

-3.436571137055937e6 1.4583616035049966e7 0.0
1.4583616035049966e7 -4.030062811071966e7 0.0
0.0 0.0 0.0

-1.1671583366842052e7 1.0791155683134364e7 0.0
1.0791155683134364e7 2.6420495646953877e7 0.0
0.0 0.0 0.0

3.856914677763936e6 2.2055885591142744e7 0.0
2.2055885591142744e7 -5.6584085353488065e6 0.0
0.0 0.0 0.0

2.195322186989084e6 1.2056763089485135e7 0.0
1.2056763089485135e7 -2.1221072305782262e7 0.0
0.0 0.0 0.0

-3.2222328890422024e6 1.7006958541758217e7 0.0
1.7006958541758217e7 -2.0297620714736066e6 0.0
0.0 0.0 0.0

-1.7086599701789627e6 2.3598533017273154e7 0.0
2.3598533017273154e7 -2.6351710305178943e6 0.0
0.0 0.0 0.0

-404151.5053035994 1.5849787737564344e7 0.0
1.5849787737564344e7 -5.021999480818579e6 0.0
0.0 0.0 0.0

-1.1981546190516397e7 1.0661298637002097e7 0.0
1.0661298637002097e7 2.1462358452042807e7 0.0
0.0 0.0 0.0

-1.1344117027700093e7 1.2856438542862473e7 0.0
1.2856438542862473e7 2.5658850742374446e7 0.0
0.0 0.0 0.0

-1.6101878505009282e6 2.3118911222375855e7 0.0
2.3118911222375855e7 -3.4475035264631957e6 0.0
0.0 0.0 0.0

-8.213375944483037e6 1.2917765623642385e7 0.0
1.2917765623642385e7 1.5623537768195434e7 0.0
0.0 0.0 0.0

3.966431687679235e6 4.45516368788646e6 0.0
4.45516368788646e6 -3.3032598231073976e7 0.0
0.0 0.0 0.0

-7.108441712394405e6 1.5629407330176309e7 0.0
1.5629407330176309e7 1.2245914287228445e7 0.0
0.0 0.0 0.0

-1.0498788895780589e6 1.5892333904852198e7 0.0
1.5892333904852198e7 -9.973049716921337e6 0.0
0.0 0.0 0.0

278704.29133367847 1.6589260350356737e7 0.0
1.6589260350356737e7 1.0222037224506576e6 0.0
0.0 0.0 0.0

-2.7508830259313486e6 1.846728134287959e7 0.0
1.846728134287959e7 -1.0502003487118218e7 0.0
0.0 0.0 0.0

-1.860209376915598e6 1.6839774167572524e7 0.0
1.6839774167572524e7 -6.778762652193378e6 0.0
0.0 0.0 0.0

740806.5539393546 1.449171321662614e7 0.0
1.449171321662614e7 -1.965129098617e7 0.0
0.0 0.0 0.0

2.9639238989667e6 7.909938068016014e6 0.0
7.909938068016014e6 -2.4625576403881337e7 0.0
0.0 0.0 0.0

-761329.6680653153 1.5852697604732137e7 0.0
1.5852697604732137e7 -7.531061880611155e6 0.0
0.0 0.0 0.0

2.1061764584769225e6 1.0213028869975822e7 0.0
1.0213028869975822e7 -1.7849754100394603e7 0.0
0.0 0.0 0.0

4.094388432663421e6 4.0996087195270373e6 0.0
4.0996087195270373e6 -1.6578091157762837e7 0.0
0.0 0.0 0.0

-3.1741152923642113e6 2.3987586704042207e7 0.0
2.3987586704042207e7 2.135798036581164e6 0.0
0.0 0.0 0.0

-867016.9047785881 1.204150078676705e7 0.0
1.204150078676705e7 -7.635312617446161e6 0.0
0.0 0.0 0.0

-4.639679299934449e6 1.868911823951008e7 0.0
1.868911823951008e7 1.6047402626594426e7 0.0
0.0 0.0 0.0

-4.499278135278844e6 -6.341820926592848e6 0.0
-6.341820926592848e6 1.1785156364560533e7 0.0
0.0 0.0 0.0

2.7716154130354114e6 1.798865364833209e7 0.0
1.798865364833209e7 1.3113669544825442e6 0.0
0.0 0.0 0.0

-3.783097982839802e6 1.888487161119434e7 0.0
1.888487161119434e7 -1.0997959727736356e7 0.0
0.0 0.0 0.0

2.8182066111101126e6 8.361216671043152e6 0.0
8.361216671043152e6 -2.06995508376522e7 0.0
0.0 0.0 0.0

-8.998219765682624e7 1.4767408363250198e7 0.0
1.4767408363250198e7 6.067557292196967e6 0.0
0.0 0.0 0.0

-6.699139739106352e6 1.7948046058475144e7 0.0
1.7948046058475144e7 1.927232260973063e7 0.0
0.0 0.0 0.0

502634.37873923406 1.720455947655906e7 0.0
1.720455947655906e7 -1.307131915300598e7 0.0
0.0 0.0 0.0

-1.3003229226932668e6 1.549666419768309e7 0.0
1.549666419768309e7 -8.216909468923638e6 0.0
0.0 0.0 0.0

1.6884731106261006e6 1.3045266064859638e7 0.0
1.3045266064859638e7 -2.170438345705272e7 0.0
0.0 0.0 0.0

331752.48430415895 1.7163967485217e7 0.0
1.7163967485217e7 9.688630973040225e6 0.0
0.0 0.0 0.0

1.637553700498812e6 1.1902933827071825e7 0.0
1.1902933827071825e7 -2.67361623903824e7 0.0
0.0 0.0 0.0

492892.80587026896 1.7462069873408645e7 0.0
1.7462069873408645e7 1.126417563160759e7 0.0
0.0 0.0 0.0

284423.14034342207 1.5669069223787699e7 0.0
1.5669069223787699e7 -1.4490400361832503e7 0.0
0.0 0.0 0.0

3.5012798266976653e6 8.138107411887626e6 0.0
8.138107411887626e6 -2.1890931884696044e7 0.0
0.0 0.0 0.0

3.6738786264254004e6 2.792281173106358e6 0.0
2.792281173106358e6 -3.786863858523003e7 0.0
0.0 0.0 0.0

1.9730267582111924e6 2.3508640156214703e7 0.0
2.3508640156214703e7 -5.462106767380247e6 0.0
0.0 0.0 0.0

2.0196366622480825e6 1.1684466879785486e7 0.0
1.1684466879785486e7 -2.526163669000547e7 0.0
0.0 0.0 0.0

-3.964355905418625e6 2.46836121783718e7 0.0
2.46836121783718e7 5.764687712583626e6 0.0
0.0 0.0 0.0

-6.608053303261144e6 1.9996739376315735e7 0.0
1.9996739376315735e7 1.6534295609939266e6 0.0
0.0 0.0 0.0

2.5561902520757867e6 7.665684321757095e6 0.0
7.665684321757095e6 -1.071189885039645e7 0.0
0.0 0.0 0.0

-2.1136648704550504e6 3.109827796429578e7 0.0
3.109827796429578e7 2.0976047624216643e6 0.0
0.0 0.0 0.0

3.178150939015615e6 9.034788084387057e6 0.0
9.034788084387057e6 -1.9592896077660847e7 0.0
0.0 0.0 0.0

-2.0180933665395174e6 1.6761322160785247e7 0.0
1.6761322160785247e7 3.3461733572814334e7 0.0
0.0 0.0 0.0

-627747.7051815101 1.755720494722083e7 0.0
1.755720494722083e7 1.4348534319910852e6 0.0
0.0 0.0 0.0

-6.419819559893924e6 2.5753975291469533e7 0.0
2.5753975291469533e7 6.239799293160584e6 0.0
0.0 0.0 0.0

-1.085658607244729e7 1.1874003661736904e7 0.0
1.1874003661736904e7 1.907507098379913e7 0.0
0.0 0.0 0.0

1.420986253720631e6 1.2772851721001523e7 0.0
1.2772851721001523e7 -2.180154396582899e7 0.0
0.0 0.0 0.0

-2.384516494796863e6 1.0376190376239853e7 0.0
1.0376190376239853e7 -2.502486583900327e6 0.0
0.0 0.0 0.0

-1.1714276512733279e6 1.7348561453661036e7 0.0
1.7348561453661036e7 -5.974236530890126e6 0.0
0.0 0.0 0.0

9.871861358714445e6 1.8650871744611055e7 0.0
1.8650871744611055e7 1.5037141473900166e6 0.0
0.0 0.0 0.0

524707.2866112124 1.716191834145991e7 0.0
1.716191834145991e7 -1.4329271020381982e7 0.0
0.0 0.0 0.0

908593.9542041719 8.641967717261896e6 0.0
8.641967717261896e6 -5.973215971718613e6 0.0
0.0 0.0 0.0

1.0456892232304895e6 1.3644426704856433e7 0.0
1.3644426704856433e7 -2.07750155845353e7 0.0
0.0 0.0 0.0

-9.498983622553153e6 -3.404457835305045e6 0.0
-3.404457835305045e6 2.7740953749086764e7 0.0
0.0 0.0 0.0

-4.602793633724595e6 1.933841352070021e7 0.0
1.933841352070021e7 1.4311488457721744e7 0.0
0.0 0.0 0.0

-1.2198400564059373e7 1.3032242030383743e7 0.0
1.3032242030383743e7 2.1049195719168887e7 0.0
0.0 0.0 0.0

-1.3498730953862697e7 2.374541919480378e7 0.0
2.374541919480378e7 -3.4664678461790397e6 0.0
0.0 0.0 0.0

-3.6455398784728274e6 1.5182132833541695e7 0.0
1.5182132833541695e7 -3.432375265182617e7 0.0
0.0 0.0 0.0

-3.522511368617475e6 2.2480934870407518e7 0.0
2.2480934870407518e7 7.265696034328267e6 0.0
0.0 0.0 0.0

-4.48580221386222e6 2.3403595139318667e7 0.0
2.3403595139318667e7 7.126372543783913e6 0.0
0.0 0.0 0.0

611698.9639443127 1.9918819626735784e7 0.0
1.9918819626735784e7 -9.163250879108177e6 0.0
0.0 0.0 0.0

-1.9488179126635194e6 1.3872686679277517e7 0.0
1.3872686679277517e7 -3.565408271268839e7 0.0
0.0 0.0 0.0

-4.20193373768853e6 1.836587121493475e7 0.0
1.836587121493475e7 1.6294360902186692e7 0.0
0.0 0.0 0.0

-1.018409367521954e7 4.462692888178239e6 0.0
4.462692888178239e6 3.725912112624578e7 0.0
0.0 0.0 0.0

2.4484862230369356e6 3.149658552054202e6 0.0
3.149658552054202e6 -7.095898242700841e6 0.0
0.0 0.0 0.0

-702497.1247057766 1.5683664671028528e7 0.0
1.5683664671028528e7 -1.9096068691330515e7 0.0
0.0 0.0 0.0

373916.51897204714 2.0836474724710636e7 0.0
2.0836474724710636e7 -8.157028891184555e6 0.0
0.0 0.0 0.0

-2.2308578848133637e6 1.783104955983747e7 0.0
1.783104955983747e7 -2.0846224893548994e6 0.0
0.0 0.0 0.0

-481121.5562153822 1.4451278316041414e7 0.0
1.4451278316041414e7 -1.033178963769616e7 0.0
0.0 0.0 0.0

-6.46712508450531e6 1.5953388018874131e7 0.0
1.5953388018874131e7 -2.7469409452176485e7 0.0
0.0 0.0 0.0

-1.2131581084750324e7 1.1755200274347099e7 0.0
1.1755200274347099e7 2.4233466906498346e7 0.0
0.0 0.0 0.0

-903978.2459671953 2.6147189325107675e7 0.0
2.6147189325107675e7 -307161.34460569243 0.0
0.0 0.0 0.0

-1.9724053008021805e7 2.3584004597606454e7 0.0
2.3584004597606454e7 1.217258129245231e6 0.0
0.0 0.0 0.0

3.04805291774414e6 1.8491813740015376e7 0.0
1.8491813740015376e7 1.5274612832996584e6 0.0
0.0 0.0 0.0

2.022102698679584e6 7.521479364605885e6 0.0
7.521479364605885e6 -1.2423059854519233e7 0.0
0.0 0.0 0.0

-2.4500619433029126e6 1.7500870990298733e7 0.0
1.7500870990298733e7 -1.2383222202105434e6 0.0
0.0 0.0 0.0

-1.1325053899594322e7 9.187784105297962e6 0.0
9.187784105297962e6 2.9485953407396473e7 0.0
0.0 0.0 0.0

-4.843413909992024e6 2.6182664173000112e7 0.0
2.6182664173000112e7 5.190312594770679e6 0.0
0.0 0.0 0.0

-4.887672175465644e6 1.8402319013698366e7 0.0
1.8402319013698366e7 1.710669143841784e7 0.0
0.0 0.0 0.0

-2.5004497543056826e6 2.4635947884766016e7 0.0
2.4635947884766016e7 198973.98072716035 0.0
0.0 0.0 0.0

521964.2036026651 1.5189568298402848e7 0.0
1.5189568298402848e7 -1.5459518935192475e7 0.0
0.0 0.0 0.0

-1.1161318503878413e7 1.109108438015744e7 0.0
1.109108438015744e7 2.8614310325557534e7 0.0
0.0 0.0 0.0

201345.32483647857 1.5918852172652403e7 0.0
1.5918852172652403e7 -1.7286932538070016e7 0.0
0.0 0.0 0.0

-4.926861499976267e6 1.966518155114168e7 0.0
1.966518155114168e7 -3.340376630253966e6 0.0
0.0 0.0 0.0

-925820.6796694275 2.6551754982518602e7 0.0
2.6551754982518602e7 -366495.2824157111 0.0
0.0 0.0 0.0

3.6386219115202073e6 5.023980273074753e6 0.0
5.023980273074753e6 -1.7517380470364816e7 0.0
0.0 0.0 0.0

1.0674391367786345e6 1.9416098640277732e7 0.0
1.9416098640277732e7 -8.384338242036526e6 0.0
0.0 0.0 0.0

-3.355544253950657e6 2.2383993456800282e7 0.0
2.2383993456800282e7 6.503795151312744e6 0.0
0.0 0.0 0.0

-1.1586748697033312e7 1.0948440179879665e7 0.0
1.0948440179879665e7 2.001430969022745e7 0.0
0.0 0.0 0.0

-4.0820004872350674e6 2.073938854622895e7 0.0
2.073938854622895e7 -8.010737067303844e6 0.0
0.0 0.0 0.0

-1.154367943968957e7 1.3771288842194315e7 0.0
1.3771288842194315e7 2.3585168619554177e7 0.0
0.0 0.0 0.0

-2.294565352702099e6 5.532924245900966e6 0.0
5.532924245900966e6 5.715766441680354e6 0.0
0.0 0.0 0.0

-3.3405505012004753e6 2.1788317654526494e7 0.0
2.1788317654526494e7 6.58823274067242e6 0.0
0.0 0.0 0.0

-1.2799654918214902e7 1.0092225641307462e7 0.0
1.0092225641307462e7 2.1826843156584293e7 0.0
0.0 0.0 0.0

-5.273603995467545e6 1.8402968813528094e7 0.0
1.8402968813528094e7 1.0887461086191382e7 0.0
0.0 0.0 0.0

2.472436063926724e6 1.7467799072605804e7 0.0
1.7467799072605804e7 2.4441894980118502e7 0.0
0.0 0.0 0.0

-1.101221411436176e6 1.3735677955967937e7 0.0
1.3735677955967937e7 -3.158268906741074e7 0.0
0.0 0.0 0.0

-4.239631491705571e6 -6.0831245930695115e6 0.0
-6.0831245930695115e6 1.0912653615180694e7 0.0
0.0 0.0 0.0

5.29403137313749e6 2.3435298502304807e7 0.0
2.3435298502304807e7 -5.1086778668441605e6 0.0
0.0 0.0 0.0

-1.180573514445642e7 9.764455480787214e6 0.0
9.764455480787214e6 2.596598935642416e7 0.0
0.0 0.0 0.0

589387.4112360105 1.2572723554816045e7 0.0
1.2572723554816045e7 -1.2654513967553578e7 0.0
0.0 0.0 0.0

-3.513485927210007e6 1.8372699514166016e7 0.0
1.8372699514166016e7 1.41047024364249e7 0.0
0.0 0.0 0.0

-1.0172919795220346e6 1.6541961673320161e7 0.0
1.6541961673320161e7 -6.312949367182948e6 0.0
0.0 0.0 0.0

-5.848572815292147e6 1.8929836125217065e7 0.0
1.8929836125217065e7 1.5672923977970306e7 0.0
0.0 0.0 0.0

180613.941104603 1.057185837858344e7 0.0
1.057185837858344e7 -7.186031190947013e6 0.0
0.0 0.0 0.0

-5.785524312293738e6 2.1504831365521744e7 0.0
2.1504831365521744e7 6.443668678963002e6 0.0
0.0 0.0 0.0

-5.267760415824611e6 1.8577114755308345e7 0.0
1.8577114755308345e7 1.172160096742988e7 0.0
0.0 0.0 0.0

731686.2397486884 1.925660456967622e7 0.0
1.925660456967622e7 -9.514862641224232e6 0.0
0.0 0.0 0.0

-3.734559873915435e6 2.25399547398698e7 0.0
2.25399547398698e7 5.220747345537129e6 0.0
0.0 0.0 0.0

-1.5718476424615874e6 2.6872091562739663e7 0.0
2.6872091562739663e7 1.0998662559722175e6 0.0
0.0 0.0 0.0

-748280.259135237 1.3801043366250679e7 0.0
1.3801043366250679e7 -2.7595862608075008e7 0.0
0.0 0.0 0.0

1.3763663526752363e6 2.98067110690901e6 0.0
2.98067110690901e6 -2.8121891327537075e6 0.0
0.0 0.0 0.0

-6.273294879610558e6 1.4882570110959758e6 0.0
1.4882570110959758e6 6.8540924567493405e6 0.0
0.0 0.0 0.0

3.060552698711483e6 4.1308731385687506e6 0.0
4.1308731385687506e6 -4.697610692329093e7 0.0
0.0 0.0 0.0

-834718.1808897005 2.076594252687657e7 0.0
2.076594252687657e7 -6.076253561657445e6 0.0
0.0 0.0 0.0

-5.499807441629203e6 1.8331353652701642e7 0.0
1.8331353652701642e7 1.770634351785732e7 0.0
0.0 0.0 0.0

-1.2560950450136961e7 1.1519275636369396e7 0.0
1.1519275636369396e7 1.981948036143831e7 0.0
0.0 0.0 0.0

-2.606137549558738e6 3.1939867700296022e7 0.0
3.1939867700296022e7 2.3279428640981736e6 0.0
0.0 0.0 0.0

-1.226157628159569e7 8.046521343175695e6 0.0
8.046521343175695e6 2.5934789208772644e7 0.0
0.0 0.0 0.0

2.921930402897558e7 5.410019437624644e7 0.0
5.410019437624644e7 -7.4741584716672115e6 0.0
0.0 0.0 0.0

-295167.11522931745 1.8827968248694804e7 0.0
1.8827968248694804e7 -1.085415969127416e7 0.0
0.0 0.0 0.0

1.521931689574127e6 1.400919670672675e7 0.0
1.400919670672675e7 -1.7103111871146858e7 0.0
0.0 0.0 0.0

-4.508173678504843e6 1.897808412883173e7 0.0
1.897808412883173e7 1.4823068454496194e7 0.0
0.0 0.0 0.0

-1.184890843836088e7 1.0438081601517644e7 0.0
1.0438081601517644e7 2.6978332716673523e7 0.0
0.0 0.0 0.0

-260983.3355897041 2.0292606923521135e7 0.0
2.0292606923521135e7 -8.007546316891288e6 0.0
0.0 0.0 0.0

277793.2664267272 1.693139033213688e7 0.0
1.693139033213688e7 3.5739353256416596e6 0.0
0.0 0.0 0.0

4.0258398486207277e6 2.963055363889212e6 0.0
2.963055363889212e6 -3.0184535454108335e7 0.0
0.0 0.0 0.0

-7.8227419412628645e6 7.175339247049479e6 0.0
7.175339247049479e6 1.3068259530041697e7 0.0
0.0 0.0 0.0

-3.939270875183107e6 3.429621217535251e7 0.0
3.429621217535251e7 3.315584631789239e6 0.0
0.0 0.0 0.0

-6.418694331828821e6 1.8290694239363644e7 0.0
1.8290694239363644e7 1.901704935363447e7 0.0
0.0 0.0 0.0

-1.199169982923129e6 1.6048333517220195e7 0.0
1.6048333517220195e7 -1.5948215119256444e7 0.0
0.0 0.0 0.0

4.973445111476908e6 1.8496252464631222e7 0.0
1.8496252464631222e7 5.782304494179837e6 0.0
0.0 0.0 0.0

-9.051453460522681e6 2.8086869577291934e6 0.0
2.8086869577291934e6 1.2664610419698028e7 0.0
0.0 0.0 0.0

-5.442836271680844e6 1.0481940777059305e7 0.0
1.0481940777059305e7 4.299852969553639e6 0.0
0.0 0.0 0.0

-1.297454085750956e6 1.5884981417675305e7 0.0
1.5884981417675305e7 -1.2341883462149544e7 0.0
0.0 0.0 0.0

162483.16532682208 1.5319296866010956e7 0.0
1.5319296866010956e7 -1.022201446536818e7 0.0
0.0 0.0 0.0

-7.5776688542805435e6 1.7164896082132977e7 0.0
1.7164896082132977e7 1.5673968549618691e7 0.0
0.0 0.0 0.0

-933634.2730424516 1.545034922329253e7 0.0
1.545034922329253e7 -2.0352084797737293e7 0.0
0.0 0.0 0.0

2.0878772687789928e6 1.2067380303422054e7 0.0
1.2067380303422054e7 -2.260921016108885e7 0.0
0.0 0.0 0.0

-3.709477429631271e6 2.2530781375746462e7 0.0
2.2530781375746462e7 7.897689430637746e6 0.0
0.0 0.0 0.0

825979.2791726384 1.5639382639464317e7 0.0
1.5639382639464317e7 -1.7428308301113702e7 0.0
0.0 0.0 0.0

-1.1814829229232486e7 1.2314384094339848e7 0.0
1.2314384094339848e7 2.252907418098813e7 0.0
0.0 0.0 0.0

3.6060015005185893e6 5.253652642928417e6 0.0
5.253652642928417e6 -1.2883463488811444e7 0.0
0.0 0.0 0.0

-2.609775194257956e7 2.859195432229922e7 0.0
2.859195432229922e7 -7.680663479668515e6 0.0
0.0 0.0 0.0

1.6276401252913163e6 7.020828488426044e6 0.0
7.020828488426044e6 -1.0082481635262894e7 0.0
0.0 0.0 0.0

3.8468313886638815e6 3.062876038202573e6 0.0
3.062876038202573e6 -1.2727735529782303e7 0.0
0.0 0.0 0.0

-4.736788841888869e6 2.331952528432166e7 0.0
2.331952528432166e7 7.603715935918197e6 0.0
0.0 0.0 0.0

1.6502807077863845e6 1.5874078639314113e7 0.0
1.5874078639314113e7 5.500936206980221e6 0.0
0.0 0.0 0.0

3.281280738729795e6 1.8890349590165414e7 0.0
1.8890349590165414e7 -2.668424032210844e6 0.0
0.0 0.0 0.0

-7.095602732000286e6 1.701195283342434e7 0.0
1.701195283342434e7 2.3331154734590515e7 0.0
0.0 0.0 0.0

-4.1732510075347237e6 1.7420393055817824e7 0.0
1.7420393055817824e7 2.4679288646314356e7 0.0
0.0 0.0 0.0

8.034734271827142e6 1.6665411692076106e7 0.0
1.6665411692076106e7 4.307223707620622e7 0.0
0.0 0.0 0.0

211633.7103733311 1.6554217855119182e7 0.0
1.6554217855119182e7 -3.315036473292385e6 0.0
0.0 0.0 0.0

-5.009215471196603e6 1.889670694126709e7 0.0
1.889670694126709e7 1.5599248507812295e7 0.0
0.0 0.0 0.0

-6.220509894260213e6 1.6320159690184975e7 0.0
1.6320159690184975e7 1.0742412006894201e7 0.0
0.0 0.0 0.0

-1.4981979981914954e6 1.5884374642247293e7 0.0
1.5884374642247293e7 -1.4689416588587126e7 0.0
0.0 0.0 0.0

-3.906321256168354e6 2.2720090111571092e7 0.0
2.2720090111571092e7 5.960362120866947e6 0.0
0.0 0.0 0.0

-1.2211885368674388e7 1.0511367068643283e7 0.0
1.0511367068643283e7 2.522923670256422e7 0.0
0.0 0.0 0.0

8.861319855636619e6 2.212666667701866e7 0.0
2.212666667701866e7 -4.349931684327994e6 0.0
0.0 0.0 0.0

9025.697347697802 1.9230642129385076e7 0.0
1.9230642129385076e7 -9.895366411938816e6 0.0
0.0 0.0 0.0

3.178638089168949e6 6.791084867654352e6 0.0
6.791084867654352e6 -2.0520757990479853e7 0.0
0.0 0.0 0.0

2.538747050957042e6 2.0609764562594615e7 0.0
2.0609764562594615e7 -6.506916541084111e6 0.0
0.0 0.0 0.0

-1.6434004083257867e6 2.366516615978215e7 0.0
2.366516615978215e7 -993896.519006292 0.0
0.0 0.0 0.0

-5.074824186915692e6 1.6427465072765836e7 0.0
1.6427465072765836e7 -1.691608513064221e7 0.0
0.0 0.0 0.0

7.279027599875071e6 1.8654935237199683e7 0.0
1.8654935237199683e7 2.426343403556394e7 0.0
0.0 0.0 0.0

-9.459557796287552e6 -1.3821734751416624e6 0.0
-1.3821734751416624e6 3.6342778825448915e7 0.0
0.0 0.0 0.0

588660.4142897148 1.84763776834853e7 0.0
1.84763776834853e7 5.761200477184258e6 0.0
0.0 0.0 0.0

-9.507599736760715e6 -2.9675447229908262e6 0.0
-2.9675447229908262e6 2.9598336594109476e7 0.0
0.0 0.0 0.0

-718306.8900921657 2.4045632816487025e7 0.0
2.4045632816487025e7 -2.6037652582243755e6 0.0
0.0 0.0 0.0

1.8052829007619713e6 2.2705418898962528e7 0.0
2.2705418898962528e7 -5.988181089931721e6 0.0
0.0 0.0 0.0

-3.274008577600143e6 3.2968937675362773e7 0.0
3.2968937675362773e7 2.461557010939537e6 0.0
0.0 0.0 0.0

5.883828338501849e6 1.7656515487555776e7 0.0
1.7656515487555776e7 7.861285352420307e6 0.0
0.0 0.0 0.0

-1.1626126282241423e7 9.47858297448172e6 0.0
9.47858297448172e6 2.764803348898641e7 0.0
0.0 0.0 0.0

-891396.2294224529 2.4502591959055454e7 0.0
2.4502591959055454e7 -1.7768807657519297e6 0.0
0.0 0.0 0.0

-4.908123431603139e6 1.9219496262182463e7 0.0
1.9219496262182463e7 1.0452984169348909e7 0.0
0.0 0.0 0.0

-3.8419180592549834e6 2.150543498620643e7 0.0
2.150543498620643e7 6.150415371490371e6 0.0
0.0 0.0 0.0

2.6853782564102076e6 8.395870526443982e6 0.0
8.395870526443982e6 -3.425520160873194e7 0.0
0.0 0.0 0.0

-3.9331067652081475e6 2.2460167535128452e7 0.0
2.2460167535128452e7 8.592492452199051e6 0.0
0.0 0.0 0.0

1.1775529442744795e7 1.5082949094056146e7 0.0
1.5082949094056146e7 3.7735951621041773e6 0.0
0.0 0.0 0.0

2.0442629322105888e6 1.2577925254648866e7 0.0
1.2577925254648866e7 -2.016139576311433e7 0.0
0.0 0.0 0.0

-8.098177798000712e6 1.9855733329532493e6 0.0
1.9855733329532493e6 5.186366396956851e7 0.0
0.0 0.0 0.0

-1.8211301351412616e6 2.540876670280274e7 0.0
2.540876670280274e7 768696.0588361435 0.0
0.0 0.0 0.0

1.757347737707764e6 1.8740862974918116e7 0.0
1.8740862974918116e7 5.307199004359904e6 0.0
0.0 0.0 0.0

-7.67329716809811e7 6.681993244250556e7 0.0
6.681993244250556e7 -1.2419922107163712e7 0.0
0.0 0.0 0.0

3.7241536525776815e6 4.261499366423408e6 0.0
4.261499366423408e6 -1.6838428607299328e7 0.0
0.0 0.0 0.0

-2.4960494067378794e6 1.8335164498086825e7 0.0
1.8335164498086825e7 -995748.2387154021 0.0
0.0 0.0 0.0

-1.433803924626444e7 2.4235635209590577e7 0.0
2.4235635209590577e7 3.805506076105982e6 0.0
0.0 0.0 0.0

-236961.2339074039 1.762092633747456e7 0.0
1.762092633747456e7 -1.2801287139167897e7 0.0
0.0 0.0 0.0

-208032.82612990402 1.8752473985173844e7 0.0
1.8752473985173844e7 -1.1278204992383286e7 0.0
0.0 0.0 0.0

7.810927536913932e6 1.9359010002621785e7 0.0
1.9359010002621785e7 -566988.3830290511 0.0
0.0 0.0 0.0

-3.0343511229706616e6 2.864852304766338e7 0.0
2.864852304766338e7 2.9911968706964403e6 0.0
0.0 0.0 0.0

-2.76058048716628e6 1.8891770495024867e7 0.0
1.8891770495024867e7 -9.905833385459613e6 0.0
0.0 0.0 0.0

3.6716378337603025e6 4.9908087012888165e6 0.0
4.9908087012888165e6 -3.621322719506203e7 0.0
0.0 0.0 0.0

-2.3993553298688143e7 2.612690499639044e7 0.0
2.612690499639044e7 -4.946798586127406e6 0.0
0.0 0.0 0.0

-4.314686580879591e6 1.8697219018745124e7 0.0
1.8697219018745124e7 1.1351164235040307e7 0.0
0.0 0.0 0.0

1.6094043932966911e6 2.195805699400294e7 0.0
2.195805699400294e7 -6.527703234307647e6 0.0
0.0 0.0 0.0

-2.580336543894332e6 1.6819752312657733e7 0.0
1.6819752312657733e7 3.131726108887947e7 0.0
0.0 0.0 0.0

1.020434688817738e7 2.07521917440399e7 0.0
2.07521917440399e7 -3.807289492578228e6 0.0
0.0 0.0 0.0

-4.429882614644389e6 2.103678975437546e7 0.0
2.103678975437546e7 1.0979566685912624e7 0.0
0.0 0.0 0.0

-476351.3984934059 1.5934080093385616e7 0.0
1.5934080093385616e7 -1.1210768244446551e7 0.0
0.0 0.0 0.0

4.313332780203719e6 1.101104596326204e7 0.0
1.101104596326204e7 3.9830746604421344e6 0.0
0.0 0.0 0.0

1.6123176202330147e6 1.9394879253740747e7 0.0
1.9394879253740747e7 -7.189553720329238e6 0.0
0.0 0.0 0.0

-6.938276017449892e6 1.7828371204270627e7 0.0
1.7828371204270627e7 2.079365348557878e7 0.0
0.0 0.0 0.0

-7.296012101017352e6 5.365132490244967e6 0.0
5.365132490244967e6 5.439804748723271e7 0.0
0.0 0.0 0.0

-7.382480370648205e6 273244.1747518854 0.0
273244.1747518854 5.7266348732564375e7 0.0
0.0 0.0 0.0

-852467.9923503767 1.7535832647228457e7 0.0
1.7535832647228457e7 -1.0029425129302e7 0.0
0.0 0.0 0.0

292803.9323072615 1.8356311221919682e7 0.0
1.8356311221919682e7 -1.105843303524151e7 0.0
0.0 0.0 0.0

-83002.95826461865 1.8714480207898755e7 0.0
1.8714480207898755e7 -1.138242191045644e7 0.0
0.0 0.0 0.0

-9.7734055377994e6 2.13563950692042e7 0.0
2.13563950692042e7 -2.7126983996623014e6 0.0
0.0 0.0 0.0

1.4204815744111601e7 1.9046073717530202e7 0.0
1.9046073717530202e7 7.46944209177739e6 0.0
0.0 0.0 0.0

-6.980720113591236e6 1.8244360460267063e7 0.0
1.8244360460267063e7 1.8208782564757995e7 0.0
0.0 0.0 0.0

102092.33557589212 1.864347595842139e7 0.0
1.864347595842139e7 -1.136768093760411e7 0.0
0.0 0.0 0.0

-714644.9057681286 1.5250626561560418e7 0.0
1.5250626561560418e7 -1.0010651602723865e7 0.0
0.0 0.0 0.0

-8.96304388486994e6 -4.407558553121832e6 0.0
-4.407558553121832e6 1.9193922839467995e7 0.0
0.0 0.0 0.0

644968.2918819524 1.2771951566782797e7 0.0
1.2771951566782797e7 -2.7005895869175956e7 0.0
0.0 0.0 0.0

-1.0747171863246072e7 -565672.5956615051 0.0
-565672.5956615051 2.821785969405248e7 0.0
0.0 0.0 0.0

-8.542910481322877e6 -6.17305590749292e6 0.0
-6.17305590749292e6 2.1550866785052188e7 0.0
0.0 0.0 0.0

-8.351934753726729e6 -6.4785254452620195e6 0.0
-6.4785254452620195e6 2.0804634579137247e7 0.0
0.0 0.0 0.0

-4.697297279719215e6 1.0408068122647159e7 0.0
1.0408068122647159e7 6.846701657553038e6 0.0
0.0 0.0 0.0

750352.9595363671 1.4691345920399398e7 0.0
1.4691345920399398e7 -1.6459116803190686e7 0.0
0.0 0.0 0.0

1.171091386763474e6 1.2616590360641263e7 0.0
1.2616590360641263e7 -2.676096674682544e7 0.0
0.0 0.0 0.0

-681989.5942334064 1.7798518255219564e7 0.0
1.7798518255219564e7 -4.218212870121669e6 0.0
0.0 0.0 0.0

1.1779197499887971e6 1.95900424973401e7 0.0
1.95900424973401e7 -8.220025577247238e6 0.0
0.0 0.0 0.0

3.614894301282451e6 1.876498388809073e7 0.0
1.876498388809073e7 -448082.6951469111 0.0
0.0 0.0 0.0

-1.3249103622693773e6 2.2413316345212817e7 0.0
2.2413316345212817e7 -3.3753245132356714e6 0.0
0.0 0.0 0.0

4.344914967374568e7 2.1686014820113678e7 0.0
2.1686014820113678e7 6.0761989508465165e6 0.0
0.0 0.0 0.0

4.775182065550059e6 1.4561904536315847e7 0.0
1.4561904536315847e7 9.005772929898785e6 0.0
0.0 0.0 0.0

2.7372843787435982e6 1.912334040953671e7 0.0
1.912334040953671e7 -4.420892563919282e6 0.0
0.0 0.0 0.0

2.512219134898643e6 2.284119352136147e7 0.0
2.284119352136147e7 -5.775486019090086e6 0.0
0.0 0.0 0.0

-1.2764978418790267e6 2.5226971049935024e7 0.0
2.5226971049935024e7 -434364.745822518 0.0
0.0 0.0 0.0

585223.0644774679 1.6335799993844874e7 0.0
1.6335799993844874e7 -1.640294484919066e7 0.0
0.0 0.0 0.0

-1.5100788649856843e7 2.351467283334865e7 0.0
2.351467283334865e7 1.3340041324229632e6 0.0
0.0 0.0 0.0

-5.360368292960122e6 2.3769918878003873e7 0.0
2.3769918878003873e7 7.25132893892675e6 0.0
0.0 0.0 0.0

4.371600033773241e6 2.665362625258332e6 0.0
2.665362625258332e6 -1.887144453764128e7 0.0
0.0 0.0 0.0

-2.0112770854171002e6 2.347410873097497e7 0.0
2.347410873097497e7 -2.0748902838303866e6 0.0
0.0 0.0 0.0

-5.781252532476393e6 3.5580122594405845e7 0.0
3.5580122594405845e7 3.4992940121840416e6 0.0
0.0 0.0 0.0

-1.7317703955669738e6 1.3540654860148283e7 0.0
1.3540654860148283e7 -5.841409944169734e6 0.0
0.0 0.0 0.0

1.9656908270203667e6 1.256858558584163e7 0.0
1.256858558584163e7 -2.1480918265850745e7 0.0
0.0 0.0 0.0

1.536900357619889e6 1.2297503335524924e7 0.0
1.2297503335524924e7 -2.548385258103411e7 0.0
0.0 0.0 0.0

458889.63207777403 1.3409507775621379e7 0.0
1.3409507775621379e7 -2.6686405915980563e7 0.0
0.0 0.0 0.0

7.407874370221483e6 3.121875924219214e7 0.0
3.121875924219214e7 -4.210001407311197e6 0.0
0.0 0.0 0.0

201737.1093341508 1.847924977891603e7 0.0
1.847924977891603e7 -1.129831294233214e7 0.0
0.0 0.0 0.0

3.757570998400755e6 1.7957531395504057e7 0.0
1.7957531395504057e7 2.5164680260744847e7 0.0
0.0 0.0 0.0

-2.0633629459938876e7 1.842228131139269e7 0.0
1.842228131139269e7 7.264524401721316e6 0.0
0.0 0.0 0.0

-5.73421851398991e7 2.924873165277697e7 0.0
2.924873165277697e7 -2.2477315723106004e6 0.0
0.0 0.0 0.0

2.833726364679599e6 6.140373401046559e6 0.0
6.140373401046559e6 -4.556698266502207e7 0.0
0.0 0.0 0.0

2.012321674603737e6 1.934385507754787e7 0.0
1.934385507754787e7 -5.938885872121471e6 0.0
0.0 0.0 0.0

2.099615707850142e6 2.133017979095005e7 0.0
2.133017979095005e7 -6.602472484525241e6 0.0
0.0 0.0 0.0

4.250822094170859e6 2.7294400519449958e6 0.0
2.7294400519449958e6 -1.787986518661379e7 0.0
0.0 0.0 0.0

-1.2980528045605669e7 2.2273631315706044e7 0.0
2.2273631315706044e7 -4.194639226583495e6 0.0
0.0 0.0 0.0

-2.5381627778894706e6 1.7892340865723323e7 0.0
1.7892340865723323e7 1.7719728010195997e7 0.0
0.0 0.0 0.0

4.942469949262792e6 1.742530096677163e7 0.0
1.742530096677163e7 1.2193412033881983e7 0.0
0.0 0.0 0.0

-6.601855520561945e6 -6.417440624350589e6 0.0
-6.417440624350589e6 1.6731678675848033e7 0.0
0.0 0.0 0.0

925287.1496476997 1.4820660538764251e7 0.0
1.4820660538764251e7 -1.9628157051588856e7 0.0
0.0 0.0 0.0

2.371990161008655e6 9.63832286302716e6 0.0
9.63832286302716e6 -1.8835938121491008e7 0.0
0.0 0.0 0.0

792663.0479186848 8.222093622984202e6 0.0
8.222093622984202e6 -5.074093914222458e6 0.0
0.0 0.0 0.0

-7.423297054422109e6 -6.142187786679482e6 0.0
-6.142187786679482e6 1.3694591560400896e7 0.0
0.0 0.0 0.0

3.0098831595978513e6 1.743682230435276e7 0.0
1.743682230435276e7 6.782232334062712e7 0.0
0.0 0.0 0.0

-1.0428207828234475e7 3.5284137520192624e6 0.0
3.5284137520192624e6 3.6334926894501716e7 0.0
0.0 0.0 0.0

1.0565361343779569e6 2.5953603147307504e7 0.0
2.5953603147307504e7 -2.693063991190797e6 0.0
0.0 0.0 0.0

-2.688989593546925e6 1.8004600854095727e7 0.0
1.8004600854095727e7 -130845.57980816287 0.0
0.0 0.0 0.0

-1.4895255673966054e6 1.554954186351076e7 0.0
1.554954186351076e7 -1.0944769755791428e7 0.0
0.0 0.0 0.0

830333.1404934912 2.1139829112197313e7 0.0
2.1139829112197313e7 -7.656595695189097e6 0.0
0.0 0.0 0.0

-4.0481699682963295e6 2.2840094425162867e7 0.0
2.2840094425162867e7 6.689271962106146e6 0.0
0.0 0.0 0.0

3.718204217447293e6 3.6016031935383245e7 0.0
3.6016031935383245e7 -1.2939728889758254e6 0.0
0.0 0.0 0.0

3.072696045181645e6 4.423876028348346e6 0.0
4.423876028348346e6 -1.0230531395395445e7 0.0
0.0 0.0 0.0

-9.219846737424199e6 -4.552764766170478e6 0.0
-4.552764766170478e6 1.8909870892248087e7 0.0
0.0 0.0 0.0

-200361.8104448371 1.6864944822894316e7 0.0
1.6864944822894316e7 1.8060943469868114e6 0.0
0.0 0.0 0.0

-8.341937025162837e6 2.4407314396375846e7 0.0
2.4407314396375846e7 6.253949044365412e6 0.0
0.0 0.0 0.0

-3.4022769573530518e6 1.791112304124599e7 0.0
1.791112304124599e7 2.0128271391928986e7 0.0
0.0 0.0 0.0

-1.1967091512949875e7 1.1317042937751114e7 0.0
1.1317042937751114e7 2.3397719443639174e7 0.0
0.0 0.0 0.0

1.595885234531994e6 1.3525939862630757e7 0.0
1.3525939862630757e7 -2.0601824338211194e7 0.0
0.0 0.0 0.0

-1.4386097785563695e8 2.3143941726097517e7 0.0
2.3143941726097517e7 -7.540669348539449e6 0.0
0.0 0.0 0.0

-1.206702262120384e7 1.003571432760373e7 0.0
1.003571432760373e7 2.4441450745517388e7 0.0
0.0 0.0 0.0

-7.087787212587137e6 2.434234019538453e7 0.0
2.434234019538453e7 6.586312605737187e6 0.0
0.0 0.0 0.0

637394.4490323309 1.5965828595971212e7 0.0
1.5965828595971212e7 -1.7385338782968644e7 0.0
0.0 0.0 0.0

-509548.6148134433 1.4041812739598503e7 0.0
1.4041812739598503e7 -2.610228156815009e7 0.0
0.0 0.0 0.0

2.580828037335301e6 3.419423360605912e7 0.0
3.419423360605912e7 -773682.686134248 0.0
0.0 0.0 0.0

-893879.8763573011 1.4728000562590532e7 0.0
1.4728000562590532e7 -2.3861594881782435e7 0.0
0.0 0.0 0.0

278573.93552133767 1.8278125542482637e7 0.0
1.8278125542482637e7 -1.0981457011047613e7 0.0
0.0 0.0 0.0

391759.12398947764 1.7203588265232824e7 0.0
1.7203588265232824e7 3.668883397101519e6 0.0
0.0 0.0 0.0

280421.04452605697 2.8788406376577098e7 0.0
2.8788406376577098e7 -145485.52128404786 0.0
0.0 0.0 0.0

-9.798983429334242e6 2.429236112866137e7 0.0
2.429236112866137e7 5.68144429994336e6 0.0
0.0 0.0 0.0

1.2293975424156738e6 1.4421979110236635e7 0.0
1.4421979110236635e7 -1.9564245207258593e7 0.0
0.0 0.0 0.0

121766.09248368535 1.821847308312139e7 0.0
1.821847308312139e7 -1.1696866093991399e7 0.0
0.0 0.0 0.0

-3.1981392234999794e6 2.2845552004558485e7 0.0
2.2845552004558485e7 1.9974151919267557e6 0.0
0.0 0.0 0.0

-6.081454859657677e6 2.4095586833653003e7 0.0
2.4095586833653003e7 6.920674042336518e6 0.0
0.0 0.0 0.0

-9.159350054715926e6 -4.659837112963156e6 0.0
-4.659837112963156e6 2.8866656955508906e7 0.0
0.0 0.0 0.0

-7.08910057203072e6 1.6896326226455122e7 0.0
1.6896326226455122e7 1.7383128872781765e7 0.0
0.0 0.0 0.0

-1.208550876284183e6 1.5232138686294358e7 0.0
1.5232138686294358e7 -2.1685947207141686e7 0.0
0.0 0.0 0.0

1.4481441142176922e7 1.818857733390949e7 0.0
1.818857733390949e7 940425.9126783656 0.0
0.0 0.0 0.0

543664.2362625515 1.511787119545219e7 0.0
1.511787119545219e7 -1.9638689985777337e7 0.0
0.0 0.0 0.0

-306268.90160287044 1.7081325332186274e7 0.0
1.7081325332186274e7 -2.93582559979495e6 0.0
0.0 0.0 0.0

-1.1388401135039117e7 8.036241686602082e6 0.0
8.036241686602082e6 2.904519601833298e7 0.0
0.0 0.0 0.0

-5.581752408104816e6 1.985854972069071e7 0.0
1.985854972069071e7 -9.436504908183359e6 0.0
0.0 0.0 0.0

-890239.102241525 1.5435870213058071e7 0.0
1.5435870213058071e7 -5.96874734016023e6 0.0
0.0 0.0 0.0

-52931.76958983857 1.7882284095139153e7 0.0
1.7882284095139153e7 -1.1134712317962034e7 0.0
0.0 0.0 0.0

-1.2425225406710707e7 3.9084239590395994e7 0.0
3.9084239590395994e7 5.229502416881819e6 0.0
0.0 0.0 0.0

-4.445323228484967e7 1.3429973766126124e7 0.0
1.3429973766126124e7 6.99353620802227e6 0.0
0.0 0.0 0.0

995109.7757565728 2.6632746087887775e7 0.0
2.6632746087887775e7 -3.0853464397053756e6 0.0
0.0 0.0 0.0

-8.244657370230891e6 3.719117436404803e7 0.0
3.719117436404803e7 4.411119612908357e6 0.0
0.0 0.0 0.0

1.806096221432753e7 4.627399843007298e7 0.0
4.627399843007298e7 -4.332966327286228e6 0.0
0.0 0.0 0.0

159803.03974415082 1.3705060802405117e7 0.0
1.3705060802405117e7 -2.5068220011107694e7 0.0
0.0 0.0 0.0

-6.886348785151907e6 1.5797118478522075e7 0.0
1.5797118478522075e7 -2.654585734166064e7 0.0
0.0 0.0 0.0

-4.307773822885631e6 2.226044901652499e7 0.0
2.226044901652499e7 8.872289953778364e6 0.0
0.0 0.0 0.0

-1.2438919173928158e7 1.0815450665431812e7 0.0
1.0815450665431812e7 2.376248209308051e7 0.0
0.0 0.0 0.0

-9.904868925386615e6 2.14433122640294e7 0.0
2.14433122640294e7 2.8391418925988264e6 0.0
0.0 0.0 0.0

-18482.841961956583 1.715506929456959e7 0.0
1.715506929456959e7 6.985069073840002e6 0.0
0.0 0.0 0.0

-368901.95129961846 1.6572404130917253e7 0.0
1.6572404130917253e7 -8.895564494881935e6 0.0
0.0 0.0 0.0

4.9777330212619975e6 3.821655420189695e7 0.0
3.821655420189695e7 -2.1809851460751174e6 0.0
0.0 0.0 0.0

662063.8578177141 2.0469374638835233e7 0.0
2.0469374638835233e7 -8.334829412941916e6 0.0
0.0 0.0 0.0

1.906545433130851e6 1.7810419572016366e7 0.0
1.7810419572016366e7 -3.9516619618108026e6 0.0
0.0 0.0 0.0

4.263296944025841e6 2.091469686331333e6 0.0
2.091469686331333e6 -3.159810170781148e7 0.0
0.0 0.0 0.0

-4.27186914132457e6 2.2864916945359096e7 0.0
2.2864916945359096e7 7.3611372810164625e6 0.0
0.0 0.0 0.0

-3.535484731150236e6 1.7384983797639202e7 0.0
1.7384983797639202e7 4.160769849374039e6 0.0
0.0 0.0 0.0

1.7047659075046852e6 1.1632928624695638e7 0.0
1.1632928624695638e7 -1.2931859351156063e7 0.0
0.0 0.0 0.0

-343097.6815256821 1.4144712766742267e7 0.0
1.4144712766742267e7 -2.627710056161582e7 0.0
0.0 0.0 0.0

-4.217909663243919e6 1.90141957276215e7 0.0
1.90141957276215e7 1.5862246191095635e7 0.0
0.0 0.0 0.0

-4.796218557340458e6 1.7679261620884024e7 0.0
1.7679261620884024e7 2.2450830120365515e7 0.0
0.0 0.0 0.0

-866717.8940050437 1.5862333213460162e7 0.0
1.5862333213460162e7 -3.770203357187654e6 0.0
0.0 0.0 0.0

2.93984878498062e6 2.2120698791255265e7 0.0
2.2120698791255265e7 -5.984033390665006e6 0.0
0.0 0.0 0.0

-3.866248932049292e6 2.201793499817288e7 0.0
2.201793499817288e7 8.77036287928941e6 0.0
0.0 0.0 0.0

-8.62783932874873e6 1.9097522562748918e6 0.0
1.9097522562748918e6 4.618428927659604e7 0.0
0.0 0.0 0.0

-4.180935510463505e6 1.1294612852396602e7 0.0
1.1294612852396602e7 5.532832521789344e6 0.0
0.0 0.0 0.0

-10248.174628710374 1.6817342058713786e7 0.0
1.6817342058713786e7 -4.987432847708783e6 0.0
0.0 0.0 0.0

-5.155259025043644e6 2.3119085580231868e7 0.0
2.3119085580231868e7 7.991682337894678e6 0.0
0.0 0.0 0.0

-4.601903019582413e6 1.908440453757025e7 0.0
1.908440453757025e7 1.2936762292889837e7 0.0
0.0 0.0 0.0

2.3248781991763506e6 1.1762306763624616e7 0.0
1.1762306763624616e7 -1.7860125204560433e7 0.0
0.0 0.0 0.0

-2.191002095377698e6 2.472257907845098e7 0.0
2.472257907845098e7 1.2258098756219298e6 0.0
0.0 0.0 0.0

782393.5468356154 3.0024951408183295e7 0.0
3.0024951408183295e7 -246830.58645033964 0.0
0.0 0.0 0.0

-3.2351843670469015e6 2.0191961775245782e7 0.0
2.0191961775245782e7 4.751761325298369e6 0.0
0.0 0.0 0.0

1.716733475597836e6 1.3524906173620116e7 0.0
1.3524906173620116e7 -1.9293558315935537e7 0.0
0.0 0.0 0.0

-1.8987154953547623e6 2.492880332265377e7 0.0
2.492880332265377e7 -903097.5477709384 0.0
0.0 0.0 0.0

959431.8148419303 2.1780633721914243e7 0.0
2.1780633721914243e7 -6.939758142047594e6 0.0
0.0 0.0 0.0

-1.2025678282529833e6 1.798590592304452e7 0.0
1.798590592304452e7 2.3332615990482856e7 0.0
0.0 0.0 0.0

-3.452434894457904e6 1.9667537953253113e7 0.0
1.9667537953253113e7 5.781522573808177e6 0.0
0.0 0.0 0.0

-4.377911164360183e6 2.4452387380971443e7 0.0
2.4452387380971443e7 5.412552418268154e6 0.0
0.0 0.0 0.0

-9.615299743512863e6 -789324.6836690779 0.0
-789324.6836690779 3.60815078476951e7 0.0
0.0 0.0 0.0

487519.8018134533 2.934448377525856e7 0.0
2.934448377525856e7 -145071.01367064932 0.0
0.0 0.0 0.0

4.294188129926169e6 2.1557471297792965e6 0.0
2.1557471297792965e6 -3.0765235190333832e7 0.0
0.0 0.0 0.0

-1.3478352849504007e6 2.3157667086760174e7 0.0
2.3157667086760174e7 -3.9641449406126137e6 0.0
0.0 0.0 0.0

-9.418897562033463e6 -2.8284977553819087e6 0.0
-2.8284977553819087e6 3.168558461149762e7 0.0
0.0 0.0 0.0

-1.0041303521240957e6 1.4898645466438845e7 0.0
1.4898645466438845e7 -4.1618956881477586e6 0.0
0.0 0.0 0.0

-9.265416666574977e6 2.3038140519250814e7 0.0
2.3038140519250814e7 4.281601372537554e6 0.0
0.0 0.0 0.0

-1.4889166977466529e6 1.8718302966912474e7 0.0
1.8718302966912474e7 -3.0735895664942265e6 0.0
0.0 0.0 0.0

-2.6252631002690336e6 1.896041144827198e7 0.0
1.896041144827198e7 -4.754520165559135e6 0.0
0.0 0.0 0.0

-1.0888537945280774e6 1.676366776343521e7 0.0
1.676366776343521e7 -1.5810012032226231e7 0.0
0.0 0.0 0.0

-1.1719152358242346e7 1.2638979048514714e7 0.0
1.2638979048514714e7 2.4587615936285168e7 0.0
0.0 0.0 0.0

271934.5033044787 1.7715925114852622e7 0.0
1.7715925114852622e7 9.088874950839017e6 0.0
0.0 0.0 0.0

3.4646455158865117e6 8.1161423294787835e6 0.0
8.1161423294787835e6 -2.2988463125055954e7 0.0
0.0 0.0 0.0

1.3500749763905779e6 1.81751467068799e7 0.0
1.81751467068799e7 2.176576254854824e7 0.0
0.0 0.0 0.0

-8.572170548476178e6 1.7444207348323546e7 0.0
1.7444207348323546e7 -5.3621997655289605e7 0.0
0.0 0.0 0.0

-4.781172553825176e6 1.8096016204206277e7 0.0
1.8096016204206277e7 1.2664380995240882e7 0.0
0.0 0.0 0.0

-2.3906292907974264e6 2.513063553287507e7 0.0
2.513063553287507e7 340845.93223494804 0.0
0.0 0.0 0.0

-3.5739500644592624e6 1.9598187090087757e7 0.0
1.9598187090087757e7 1.5526856755746005e6 0.0
0.0 0.0 0.0

172975.813145109 1.927589226406654e7 0.0
1.927589226406654e7 -1.0159694444654157e7 0.0
0.0 0.0 0.0

1.416891305882412e6 1.844425415690933e7 0.0
1.844425415690933e7 -6.997709992496782e6 0.0
0.0 0.0 0.0

-4.497282616271136e6 2.2840222721938446e7 0.0
2.2840222721938446e7 7.96165135804832e6 0.0
0.0 0.0 0.0

-4.989768528606095e6 1.896656472065372e7 0.0
1.896656472065372e7 1.6474467810233865e7 0.0
0.0 0.0 0.0

-4.708383526161921e6 1.7763659272969514e7 0.0
1.7763659272969514e7 2.2571083436823897e7 0.0
0.0 0.0 0.0

-3.2234124497515913e6 1.6158660822345888e7 0.0
1.6158660822345888e7 -1.5513818884523751e7 0.0
0.0 0.0 0.0

931086.6013677092 1.421856680487047e7 0.0
1.421856680487047e7 -1.7429016345361024e7 0.0
0.0 0.0 0.0

-3.355380909440008e6 1.89367460982897e7 0.0
1.89367460982897e7 1.4915865697207209e7 0.0
0.0 0.0 0.0

1.9041349946966115e6 9.696456048026675e6 0.0
9.696456048026675e6 -3.1951824931769084e7 0.0
0.0 0.0 0.0

-2.117943952828652e6 1.784932312422743e7 0.0
1.784932312422743e7 -9.79438164934854e6 0.0
0.0 0.0 0.0

1.1704931401902004e6 3.0859223933278903e7 0.0
3.0859223933278903e7 -231133.2584363069 0.0
0.0 0.0 0.0

764524.5478359573 1.7455218292987138e7 0.0
1.7455218292987138e7 1.838567215711711e7 0.0
0.0 0.0 0.0

1.917724397487692e7 2.2970481837723393e7 0.0
2.2970481837723393e7 6.392411705964806e7 0.0
0.0 0.0 0.0

-1.8820617852730706e7 2.162694165156769e7 0.0
2.162694165156769e7 -6.273536655813477e7 0.0
0.0 0.0 0.0

-4.092984006766553e6 1.734201709735083e7 0.0
1.734201709735083e7 2.307404779959974e6 0.0
0.0 0.0 0.0

-2.492987328563565e7 3.197416636368837e7 0.0
3.197416636368837e7 7.923996248245038e6 0.0
0.0 0.0 0.0

-2.0903975155548772e6 2.1691444209671948e7 0.0
2.1691444209671948e7 -3.71790514652755e6 0.0
0.0 0.0 0.0

-2.70961954942427e6 1.900911593195873e7 0.0
1.900911593195873e7 1.2718630594055792e7 0.0
0.0 0.0 0.0

71364.27770770062 1.762793162711989e7 0.0
1.762793162711989e7 2.0945810358488705e7 0.0
0.0 0.0 0.0

5.128424736020108e6 1.8788411070854522e7 0.0
1.8788411070854522e7 3.732096920568104e7 0.0
0.0 0.0 0.0

4.930743453119681e6 1.912318556041118e7 0.0
1.912318556041118e7 7.910810801904075e6 0.0
0.0 0.0 0.0

5.155351729453307e6 1.6720389727526141e7 0.0
1.6720389727526141e7 2.2508372305687275e7 0.0
0.0 0.0 0.0

2.371633342717914e6 2.202588925022951e7 0.0
2.202588925022951e7 -6.134781326806158e6 0.0
0.0 0.0 0.0

-191123.9078789074 1.7581720226658512e7 0.0
1.7581720226658512e7 1.3352241670753788e7 0.0
0.0 0.0 0.0

-3.3020586065611364e6 1.831570328457886e7 0.0
1.831570328457886e7 1.5318660460025914e7 0.0
0.0 0.0 0.0

1.9610721628502535e6 2.769239717476213e7 0.0
2.769239717476213e7 -1.963065252887325e6 0.0
0.0 0.0 0.0

1.9734180529172025e6 1.879610411915518e7 0.0
1.879610411915518e7 1.1458055477395443e7 0.0
0.0 0.0 0.0

4.4872511061477605e6 2.5295808384081325e6 0.0
2.5295808384081325e6 -2.4118734384073243e7 0.0
0.0 0.0 0.0

-1.0557619090540405e7 1.456374911745212e7 0.0
1.456374911745212e7 1.8206792847688284e7 0.0
0.0 0.0 0.0

-9.12284503402262e6 -4.532452432635894e6 0.0
-4.532452432635894e6 2.9664903075323682e7 0.0
0.0 0.0 0.0

-6.092431789196774e6 1.8537851428823505e7 0.0
1.8537851428823505e7 1.8010788685214e7 0.0
0.0 0.0 0.0

-439183.2348935668 2.554030515642648e7 0.0
2.554030515642648e7 -1.494894206304791e6 0.0
0.0 0.0 0.0

4.604482309626358e6 1.921700673381252e7 0.0
1.921700673381252e7 1.4448718084080894e7 0.0
0.0 0.0 0.0

2.8235167086392767e6 1.6685880568518732e7 0.0
1.6685880568518732e7 1.689723571176145e7 0.0
0.0 0.0 0.0

-3.6302607193677574e6 2.4149214662665065e7 0.0
2.4149214662665065e7 5.893426247255649e6 0.0
0.0 0.0 0.0

3.73129010450916e6 4.279755266209544e6 0.0
4.279755266209544e6 -1.367119375707635e7 0.0
0.0 0.0 0.0

-1.4586919447224992e6 2.367298982037119e7 0.0
2.367298982037119e7 -3.15701450942551e6 0.0
0.0 0.0 0.0

2.9282805618300736e6 1.0090123273709074e7 0.0
1.0090123273709074e7 -1.908111195574044e7 0.0
0.0 0.0 0.0

-7.130675612108851e6 2.3455115745107625e7 0.0
2.3455115745107625e7 6.79628824466772e6 0.0
0.0 0.0 0.0

2.8603380857944237e6 2.365756209232672e7 0.0
2.365756209232672e7 -5.327941547165116e6 0.0
0.0 0.0 0.0

-8.41934705829613e6 2.0301953427748423e7 0.0
2.0301953427748423e7 738605.4390501431 0.0
0.0 0.0 0.0

3.567579651545774e6 2.074349612834422e6 0.0
2.074349612834422e6 -4.5356343538321726e7 0.0
0.0 0.0 0.0

3.833722158337518e6 1.8888837510316014e7 0.0
1.8888837510316014e7 1.9380635731521798e6 0.0
0.0 0.0 0.0

370020.6926681888 2.4412443999806304e7 0.0
2.4412443999806304e7 -3.5257995975883254e6 0.0
0.0 0.0 0.0

-203467.12871845416 2.1428952978342492e7 0.0
2.1428952978342492e7 -6.673372636438108e6 0.0
0.0 0.0 0.0

-1.5703528048747664e6 1.6639296694769647e7 0.0
1.6639296694769647e7 -1.1197756381467193e7 0.0
0.0 0.0 0.0

3.898313072682786e6 4.51691825826031e6 0.0
4.51691825826031e6 -2.2495125134776138e7 0.0
0.0 0.0 0.0

-3.825514382012795e6 2.0753398484494824e7 0.0
2.0753398484494824e7 5.563839875285953e6 0.0
0.0 0.0 0.0

1.074098012696283e6 1.2128759684439791e7 0.0
1.2128759684439791e7 -2.7086897483196735e7 0.0
0.0 0.0 0.0

-9.067520180611692e6 -3.946421000904408e6 0.0
-3.946421000904408e6 3.294891808472255e7 0.0
0.0 0.0 0.0

-6.178287783544815e6 1.7399452792299587e7 0.0
1.7399452792299587e7 1.5915988630744461e7 0.0
0.0 0.0 0.0

-1.307501117370331e7 2.310939774583579e7 0.0
2.310939774583579e7 3.6634361531425193e6 0.0
0.0 0.0 0.0

1.797367923955746e6 5.588566532523131e6 0.0
5.588566532523131e6 -6.662040734204787e7 0.0
0.0 0.0 0.0

-6.547525085629776e6 1.5106082653198829e7 0.0
1.5106082653198829e7 3.0926305625314526e7 0.0
0.0 0.0 0.0

-1.6019338497175807e6 1.8481778603015475e7 0.0
1.8481778603015475e7 1.8577905366366804e7 0.0
0.0 0.0 0.0

-3.6035362609408237e6 1.6978854425092533e7 0.0
1.6978854425092533e7 2.7171643397784654e7 0.0
0.0 0.0 0.0

-2.9430312103955843e6 1.84469192517592e7 0.0
1.84469192517592e7 881431.1118193439 0.0
0.0 0.0 0.0

-5.894757058874294e6 1.780648393669162e7 0.0
1.780648393669162e7 1.221389897048657e7 0.0
0.0 0.0 0.0

-1.3158256734509468e6 1.6637753711237162e7 0.0
1.6637753711237162e7 -8.829454511795398e6 0.0
0.0 0.0 0.0

1.1163234500597818e6 1.3734251976309763e7 0.0
1.3734251976309763e7 -1.8364561910630666e7 0.0
0.0 0.0 0.0

1.8094362822965905e6 9.253320866727518e6 0.0
9.253320866727518e6 -3.91808314220749e7 0.0
0.0 0.0 0.0

-9.158212035170741e6 -4.256248360482845e6 0.0
-4.256248360482845e6 3.070223664842595e7 0.0
0.0 0.0 0.0

-8.723205841034267e6 -3.0869255267390166e6 0.0
-3.0869255267390166e6 3.8441490832894e7 0.0
0.0 0.0 0.0

-7.610955746895899e6 2.1773107295225892e7 0.0
2.1773107295225892e7 1.9414198487035022e6 0.0
0.0 0.0 0.0

236683.58282754943 1.9256631543022953e7 0.0
1.9256631543022953e7 -1.046147041899674e7 0.0
0.0 0.0 0.0

-2.3485904900803026e6 1.699155490701469e7 0.0
1.699155490701469e7 3.154753112440611e7 0.0
0.0 0.0 0.0

-1.0082765560024411e6 1.6632246075470036e7 0.0
1.6632246075470036e7 -6.3322294036850035e6 0.0
0.0 0.0 0.0

2.9534764249865315e6 2.1237483668536115e7 0.0
2.1237483668536115e7 -6.035499206259778e6 0.0
0.0 0.0 0.0

-3.848554445227902e6 2.210227835034678e7 0.0
2.210227835034678e7 6.068031146574249e6 0.0
0.0 0.0 0.0

-8.911028205427684e6 -4.670365679502058e6 0.0
-4.670365679502058e6 2.024041758151303e7 0.0
0.0 0.0 0.0

8.863956255247131e6 4.1384716294373386e7 0.0
4.1384716294373386e7 -3.3379370626268326e6 0.0
0.0 0.0 0.0

382002.01936148945 1.7442950577760592e7 0.0
1.7442950577760592e7 -8.525904142264204e6 0.0
0.0 0.0 0.0

-4.581687321748849e6 1.5315664196741858e7 0.0
1.5315664196741858e7 -4.312886759322048e7 0.0
0.0 0.0 0.0

4.524185660483351e6 3.1561246149150934e6 0.0
3.1561246149150934e6 -2.853326497109791e7 0.0
0.0 0.0 0.0

-213781.28915996873 1.7015402446235556e7 0.0
1.7015402446235556e7 -5.167582374016573e6 0.0
0.0 0.0 0.0

-8.089187411936384e6 1.6538754559883561e7 0.0
1.6538754559883561e7 1.856531275744698e7 0.0
0.0 0.0 0.0

-2.195810802459076e7 1.8951330076422013e7 0.0
1.8951330076422013e7 7.30768000974143e6 0.0
0.0 0.0 0.0

-3.8206421791939694e6 1.9749222373414416e7 0.0
1.9749222373414416e7 -7.57477169069432e6 0.0
0.0 0.0 0.0

4.1806205906930827e6 1.6309622956702122e7 0.0
1.6309622956702122e7 1.944705009705101e7 0.0
0.0 0.0 0.0

-2.130939548272133e6 1.630284814650328e7 0.0
1.630284814650328e7 -1.2101916214740451e7 0.0
0.0 0.0 0.0

-9.491496551780928e6 -2.2577374177496266e6 0.0
-2.2577374177496266e6 2.028336391850595e7 0.0
0.0 0.0 0.0

-1.1016462664409115e6 1.792372919291273e7 0.0
1.792372919291273e7 -9.013103930802384e6 0.0
0.0 0.0 0.0

-531166.8983738062 1.755187826388456e7 0.0
1.755187826388456e7 3.2033228488448802e6 0.0
0.0 0.0 0.0

-1.790133766578069e6 1.8628097347324878e7 0.0
1.8628097347324878e7 1.3242704599031698e7 0.0
0.0 0.0 0.0

256064.41597347986 1.6139598949935606e7 0.0
1.6139598949935606e7 -1.5004356283482008e7 0.0
0.0 0.0 0.0

-2.876519847050706e6 1.830337233884575e7 0.0
1.830337233884575e7 2.0697181989372846e7 0.0
0.0 0.0 0.0

-148940.53467146278 1.6114030264360035e7 0.0
1.6114030264360035e7 -102382.64637929952 0.0
0.0 0.0 0.0

324651.0175029128 1.9206990283005364e7 0.0
1.9206990283005364e7 -1.0653238257845096e7 0.0
0.0 0.0 0.0

3.32743306735484e6 1.803838936879452e7 0.0
1.803838936879452e7 -2.0759908308179288e6 0.0
0.0 0.0 0.0

1.639721867264404e6 1.1829890949095009e7 0.0
1.1829890949095009e7 -2.4183380256481864e7 0.0
0.0 0.0 0.0

-6.384836039213755e6 1.8548001515321296e7 0.0
1.8548001515321296e7 1.695541708797217e7 0.0
0.0 0.0 0.0

-388334.84420307865 1.5196927038197381e7 0.0
1.5196927038197381e7 -7.750652910485399e6 0.0
0.0 0.0 0.0

-4.177854709583429e7 2.518027730228548e7 0.0
2.518027730228548e7 4.479424372514818e6 0.0
0.0 0.0 0.0

1.2456780837254077e6 1.74293069732512e7 0.0
1.74293069732512e7 4.0199915472111546e7 0.0
0.0 0.0 0.0

4.2265638304629475e6 2.0667175971224357e6 0.0
2.0667175971224357e6 -3.2464327301405817e7 0.0
0.0 0.0 0.0

-8.826626017357508e6 -3.171292233921887e6 0.0
-3.171292233921887e6 3.7138193329018064e7 0.0
0.0 0.0 0.0

-2.604870600568494e6 1.4185177633438582e7 0.0
1.4185177633438582e7 -3.778278339765954e7 0.0
0.0 0.0 0.0

-838457.7725189347 1.4953778973437035e7 0.0
1.4953778973437035e7 -2.4202680593616225e7 0.0
0.0 0.0 0.0

-1.591777872742929e6 1.8442230505199388e7 0.0
1.8442230505199388e7 -4.540686976921352e6 0.0
0.0 0.0 0.0

-1.3613218047835376e7 2.486977304637247e7 0.0
2.486977304637247e7 -8.282559273646124e6 0.0
0.0 0.0 0.0

-7.019515990274312e6 1.7351428564433258e7 0.0
1.7351428564433258e7 2.2562685058128327e7 0.0
0.0 0.0 0.0

364282.5566110462 1.9093761976050574e7 0.0
1.9093761976050574e7 -1.0718047509457331e7 0.0
0.0 0.0 0.0

-7.87034527520778e6 -1.5070729051578229e6 0.0
-1.5070729051578229e6 4.984385127722098e7 0.0
0.0 0.0 0.0

-9.876801514199313e6 1.5735017968586981e7 0.0
1.5735017968586981e7 2.078651300902868e7 0.0
0.0 0.0 0.0

2.4067301412745863e6 3.884347056502845e6 0.0
3.884347056502845e6 -6.197188962022523e7 0.0
0.0 0.0 0.0

-2.3736155731962603e6 2.562979040842124e7 0.0
2.562979040842124e7 418628.66801875853 0.0
0.0 0.0 0.0

2.946326207562674e6 2.4643412048768844e6 0.0
2.4643412048768844e6 -5.349134016455488e7 0.0
0.0 0.0 0.0

-2.1315956103794344e7 4.019760233291841e7 0.0
4.019760233291841e7 6.615962529718362e6 0.0
0.0 0.0 0.0

-7.713083809114609e6 -1.179354391946535e6 0.0
-1.179354391946535e6 5.223189197753007e7 0.0
0.0 0.0 0.0

1.8533062367433123e6 1.2100697035870526e7 0.0
1.2100697035870526e7 -2.405249138042039e7 0.0
0.0 0.0 0.0

-1.0135408690756787e7 2.2800346850793716e7 0.0
2.2800346850793716e7 4.674237312890012e6 0.0
0.0 0.0 0.0

-4.1113272472491086e7 2.536082814280851e7 0.0
2.536082814280851e7 207123.17084802315 0.0
0.0 0.0 0.0

2.685811299293041e6 3.096937094006467e6 0.0
3.096937094006467e6 -5.748748932119809e7 0.0
0.0 0.0 0.0

-3.454151135048944e6 2.1286395359516125e7 0.0
2.1286395359516125e7 2.5213442713295138e6 0.0
0.0 0.0 0.0

-4.206106257260037e6 1.9753284799862e7 0.0
1.9753284799862e7 1.2292476104902254e7 0.0
0.0 0.0 0.0

1.2923742251404455e7 1.5851178975156913e7 0.0
1.5851178975156913e7 6.478212932465224e6 0.0
0.0 0.0 0.0

-60755.20350844413 1.4763883572015768e7 0.0
1.4763883572015768e7 -2.1521234778478965e7 0.0
0.0 0.0 0.0

-1.4137676845242316e6 1.557599924995998e7 0.0
1.557599924995998e7 -2.218710555452427e7 0.0
0.0 0.0 0.0

-883025.5978242029 2.1021091033424195e7 0.0
2.1021091033424195e7 -7.333108734642422e6 0.0
0.0 0.0 0.0

-2.366028983887865e6 2.6086978976202272e7 0.0
2.6086978976202272e7 532914.5709217167 0.0
0.0 0.0 0.0

-1.138589869289794e7 1.054895771617651e7 0.0
1.054895771617651e7 2.808779293496082e7 0.0
0.0 0.0 0.0

3.3572447717238124e6 2.1069440860809293e6 0.0
2.1069440860809293e6 -4.819780777418002e7 0.0
0.0 0.0 0.0

-9.74299433086053e6 2.9231935865465607e7 0.0
2.9231935865465607e7 4.780771864511194e6 0.0
0.0 0.0 0.0

4.1674253859276753e6 5.444882042956918e6 0.0
5.444882042956918e6 -1.822519781845941e7 0.0
0.0 0.0 0.0

-1.4139820640879394e6 1.680929152601595e7 0.0
1.680929152601595e7 -1.4753840919356627e7 0.0
0.0 0.0 0.0

3.187071039602995e6 2.3640139962512567e6 0.0
2.3640139962512567e6 -5.026023187839199e7 0.0
0.0 0.0 0.0

-1.6177671485358793e6 1.6031421292707477e7 0.0
1.6031421292707477e7 -2.0065087224615406e7 0.0
0.0 0.0 0.0

-1.1169418168178132e7 7.441111275614915e6 0.0
7.441111275614915e6 3.2258631056545895e7 0.0
0.0 0.0 0.0

-1.8916023782909748e6 2.47447231365137e6 0.0
2.47447231365137e6 202440.7274768059 0.0
0.0 0.0 0.0

-4.559437541527668e6 1.5969897028599262e7 0.0
1.5969897028599262e7 3.4452708793623485e6 0.0
0.0 0.0 0.0

1.844748103914896e6 1.806000299167865e7 0.0
1.806000299167865e7 1.930869987984126e7 0.0
0.0 0.0 0.0

4.0157792350891475e6 1.9023200555262256e6 0.0
1.9023200555262256e6 -3.578627309759922e7 0.0
0.0 0.0 0.0

-4.336266103548175e6 2.220320358987668e7 0.0
2.220320358987668e7 8.859347370493341e6 0.0
0.0 0.0 0.0

-9.718590581299087e6 -2.7440209437878733e6 0.0
-2.7440209437878733e6 2.9426201869449403e7 0.0
0.0 0.0 0.0

-99601.62386405046 1.7271386365716305e7 0.0
1.7271386365716305e7 -265379.1078041249 0.0
0.0 0.0 0.0

1.5295260418103347e6 1.230698290904314e7 0.0
1.230698290904314e7 -2.2984253918175578e7 0.0
0.0 0.0 0.0

-5.114801386175953e6 1.872955612017493e7 0.0
1.872955612017493e7 1.7527334820790228e7 0.0
0.0 0.0 0.0

528126.3460327666 1.7609446950063657e7 0.0
1.7609446950063657e7 2.650282942741164e7 0.0
0.0 0.0 0.0

-690970.8083760843 1.69453784010211e7 0.0
1.69453784010211e7 -3.7087564760950403e6 0.0
0.0 0.0 0.0

-367157.602326568 2.0858762748569734e7 0.0
2.0858762748569734e7 -7.088314835081009e6 0.0
0.0 0.0 0.0

-3.650786934370611e6 2.295713293287451e7 0.0
2.295713293287451e7 4.380364639249988e6 0.0
0.0 0.0 0.0

-596100.2058574297 1.7651828528093558e7 0.0
1.7651828528093558e7 -5.681019020030486e6 0.0
0.0 0.0 0.0

1.5992738722825514e7 5.737222290822517e6 0.0
5.737222290822517e6 -2.790333987383154e6 0.0
0.0 0.0 0.0

-8.114479049650293e6 -1.6687481313950506e6 0.0
-1.6687481313950506e6 4.753183468739107e7 0.0
0.0 0.0 0.0

5.057660160215678e6 1.9693633281268135e7 0.0
1.9693633281268135e7 9.762062667689772e6 0.0
0.0 0.0 0.0

-8.640565170571886e6 -2.8122132031466505e6 0.0
-2.8122132031466505e6 3.989120862921468e7 0.0
0.0 0.0 0.0

-920900.288106038 1.7903175379881892e7 0.0
1.7903175379881892e7 -857632.2701103181 0.0
0.0 0.0 0.0

-8.689837355807854e6 8.818413746950751e6 0.0
8.818413746950751e6 2.5500138176376197e7 0.0
0.0 0.0 0.0

-3.944865864097857e6 1.5949639101817219e7 0.0
1.5949639101817219e7 5.499949204546545e6 0.0
0.0 0.0 0.0

545502.9472968234 1.8238784095063463e6 0.0
1.8238784095063463e6 -933568.8027260439 0.0
0.0 0.0 0.0

491547.20729540125 2.296680006109036e6 0.0
2.296680006109036e6 -838271.1449326957 0.0
0.0 0.0 0.0

290697.30882098107 1.871514180214856e7 0.0
1.871514180214856e7 -1.150075828217817e7 0.0
0.0 0.0 0.0

-6.69392432243587e6 2.034024673774519e7 0.0
2.034024673774519e7 -3.2366246800692575e6 0.0
0.0 0.0 0.0

483740.4534618757 1.8984565749614257e7 0.0
1.8984565749614257e7 -1.0556726658814639e7 0.0
0.0 0.0 0.0

-1.21781448797988e7 9.157335052713426e6 0.0
9.157335052713426e6 2.642525750593041e7 0.0
0.0 0.0 0.0

-1.8500286079391683e6 1.6624428962014e7 0.0
1.6624428962014e7 -1.3525486323730722e7 0.0
0.0 0.0 0.0

1.469362025535455e6 1.1887174874756657e7 0.0
1.1887174874756657e7 -2.5575552872545395e7 0.0
0.0 0.0 0.0

-4.152028785788119e6 2.169575900036072e7 0.0
2.169575900036072e7 9.65587277141443e6 0.0
0.0 0.0 0.0

1.6048727327500535e6 1.22989382905246e7 0.0
1.22989382905246e7 -2.1605373597443573e7 0.0
0.0 0.0 0.0

-8.765042825530909e7 3.0465097824708354e7 0.0
3.0465097824708354e7 -2.315631045872662e6 0.0
0.0 0.0 0.0

492693.96190136764 1.5652984717089834e7 0.0
1.5652984717089834e7 -1.598002459494108e7 0.0
0.0 0.0 0.0

-3.1344852358510457e6 2.9966464906000707e7 0.0
2.9966464906000707e7 1.2209432084620253e6 0.0
0.0 0.0 0.0

-162618.6914402214 1.6749732147635918e7 0.0
1.6749732147635918e7 4.764115770164426e6 0.0
0.0 0.0 0.0

-6.655011582141356e6 1.805513877573689e7 0.0
1.805513877573689e7 1.9956570900965754e7 0.0
0.0 0.0 0.0

-3.6595742472702116e6 1.9483607474574476e7 0.0
1.9483607474574476e7 -1.0474683954189025e7 0.0
0.0 0.0 0.0

9.350971682804868e6 3.252959322245102e7 0.0
3.252959322245102e7 -5.463469833023846e6 0.0
0.0 0.0 0.0

-8.977639125688465e6 -3.589736011245696e6 0.0
-3.589736011245696e6 3.4977691125711784e7 0.0
0.0 0.0 0.0

4.1461212525634523e6 2.054655712889299e6 0.0
2.054655712889299e6 -3.338484904680227e7 0.0
0.0 0.0 0.0

-950220.9330133948 2.1348568229191758e7 0.0
2.1348568229191758e7 -5.194484067118381e6 0.0
0.0 0.0 0.0

-7.914028236177482e6 -4.911722195751457e6 0.0
-4.911722195751457e6 1.2656387917583212e7 0.0
0.0 0.0 0.0

3.694625471389357e6 1.9713019675549113e6 0.0
1.9713019675549113e6 -4.258798789857346e7 0.0
0.0 0.0 0.0

-8.228792136881629e6 -2.0130927588350293e6 0.0
-2.0130927588350293e6 4.587552551223358e7 0.0
0.0 0.0 0.0

-9.16624486571704e6 -5.143857422490568e6 0.0
-5.143857422490568e6 2.6468719783011314e7 0.0
0.0 0.0 0.0

-1.1851469198440304e6 1.6250814686926257e7 0.0
1.6250814686926257e7 -4.638723105823867e6 0.0
0.0 0.0 0.0

-8.91720527625223e6 -3.3488850330935256e6 0.0
-3.3488850330935256e6 3.611384020012431e7 0.0
0.0 0.0 0.0

4.0794834776881076e6 2.0908439726274926e6 0.0
2.0908439726274926e6 -3.454698058853952e7 0.0
0.0 0.0 0.0

3.803011152336685e6 2.035258617770252e6 0.0
2.035258617770252e6 -4.100395271706702e7 0.0
0.0 0.0 0.0

-8.303457219216898e6 -2.3300132528802706e6 0.0
-2.3300132528802706e6 4.427635007126954e7 0.0
0.0 0.0 0.0

-4.1212331521538906e6 1.823557045604831e7 0.0
1.823557045604831e7 -1.1743015406444121e7 0.0
0.0 0.0 0.0

349745.8505330174 1.8216764683634557e7 0.0
1.8216764683634557e7 -1.2406938861654826e7 0.0
0.0 0.0 0.0

-3.1521927402779637e6 2.3213853518108778e7 0.0
2.3213853518108778e7 4.785774460023736e6 0.0
0.0 0.0 0.0

3.850313604069408e6 1.9816383789965576e6 0.0
1.9816383789965576e6 -3.991719739429112e7 0.0
0.0 0.0 0.0

-8.396788126687605e6 -2.5486364494619626e6 0.0
-2.5486364494619626e6 4.252494209592659e7 0.0
0.0 0.0 0.0

-749365.5372238699 1.6672526220689433e7 0.0
1.6672526220689433e7 -3.783433948730903e6 0.0
0.0 0.0 0.0

1.8546385756420698e6 1.3054356692150231e7 0.0
1.3054356692150231e7 -2.044849585412412e7 0.0
0.0 0.0 0.0

-1.3683261509389156e6 2.287857259016393e7 0.0
2.287857259016393e7 -2.5717427334977635e6 0.0
0.0 0.0 0.0

-3.41336606315424e6 1.8328981293362953e7 0.0
1.8328981293362953e7 -651504.9407489905 0.0
0.0 0.0 0.0

-4.449924326999767e6 1.7573259510956686e7 0.0
1.7573259510956686e7 2.3585328754201736e7 0.0
0.0 0.0 0.0

-8.525996472297756e6 -2.6410444604081865e6 0.0
-2.6410444604081865e6 4.1091937385602646e7 0.0
0.0 0.0 0.0

3.942569319614686e6 1.917552448584793e6 0.0
1.917552448584793e6 -3.841442367657073e7 0.0
0.0 0.0 0.0

1.45826931447157e6 2.4990588509168055e7 0.0
2.4990588509168055e7 -4.331300196343957e6 0.0
0.0 0.0 0.0

-587846.6853151377 1.7306563202427857e7 0.0
1.7306563202427857e7 3.7003769353973396e7 0.0
0.0 0.0 0.0

5.866877417336883e7 6.425333512122993e7 0.0
6.425333512122993e7 -1.7339288550448757e7 0.0
0.0 0.0 0.0

-87257.34477437846 1.0408839208464418e7 0.0
1.0408839208464418e7 -7.531040813768527e6 0.0
0.0 0.0 0.0

-2.413076648301757e6 2.541726706286975e7 0.0
2.541726706286975e7 1.7945371022298392e6 0.0
0.0 0.0 0.0

-7.840850442416306e6 181805.1613405175 0.0
181805.1613405175 9.132768302770982e6 0.0
0.0 0.0 0.0

-2.9869749503456866e6 2.3622055444238394e7 0.0
2.3622055444238394e7 4.042362749288439e6 0.0
0.0 0.0 0.0

3.546702119730345e6 3.0884876179877035e6 0.0
3.0884876179877035e6 -1.1731139246296557e7 0.0
0.0 0.0 0.0

6.916328280430367e6 2.2950735745963298e7 0.0
2.2950735745963298e7 -4.8455102346329e6 0.0
0.0 0.0 0.0

983942.5692242631 2.1771239374528036e7 0.0
2.1771239374528036e7 -6.925022679731102e6 0.0
0.0 0.0 0.0

-8.445622656971905e6 1.5333066439829452e7 0.0
1.5333066439829452e7 1.4784227352085905e7 0.0
0.0 0.0 0.0

-971858.0322037924 1.8499949666069154e7 0.0
1.8499949666069154e7 -1.129846312786942e6 0.0
0.0 0.0 0.0

-6.519638985890489e6 -147859.8098535778 0.0
-147859.8098535778 5.765716101117716e7 0.0
0.0 0.0 0.0

881948.008334918 3.852525489419308e6 0.0
3.852525489419308e6 -2.1573526700760243e6 0.0
0.0 0.0 0.0

-4.1120238141007656e6 -582907.9599463169 0.0
-582907.9599463169 1.7064003217108967e6 0.0
0.0 0.0 0.0

1.018858227158063e6 -1.7557918541230315e6 0.0
-1.7557918541230315e6 -2.3995721741093467e6 0.0
0.0 0.0 0.0

1.4754811958917277e6 2.1999216013275217e7 0.0
2.1999216013275217e7 -6.591596769071316e6 0.0
0.0 0.0 0.0

-4.0608320349529814e6 1.4752254852067813e7 0.0
1.4752254852067813e7 -4.231388705750728e7 0.0
0.0 0.0 0.0

2.2279956733851247e6 1.745066656229366e7 0.0
1.745066656229366e7 2.2980492718382064e7 0.0
0.0 0.0 0.0

-2.437987775946587e6 1.762052867805537e7 0.0
1.762052867805537e7 -1.0030582492903557e7 0.0
0.0 0.0 0.0

4.5882087833526395e6 2.687276307769815e6 0.0
2.687276307769815e6 -2.107881452476647e7 0.0
0.0 0.0 0.0

-1.3813777214973622e6 1.5304900902460568e7 0.0
1.5304900902460568e7 -3.8095314530052776e6 0.0
0.0 0.0 0.0

53794.94393756939 1.796588572010545e7 0.0
1.796588572010545e7 -1.1905925590182343e7 0.0
0.0 0.0 0.0

-2.0588352100275606e6 1.4082803796343567e7 0.0
1.4082803796343567e7 -3.0688432577468358e7 0.0
0.0 0.0 0.0

-926677.0240114954 2.3487991081247505e7 0.0
2.3487991081247505e7 -2.88318195380349e6 0.0
0.0 0.0 0.0

-5.913076658779304e6 1.8163982533018347e7 0.0
1.8163982533018347e7 1.886793571422449e7 0.0
0.0 0.0 0.0

-1.0455914669894457e6 1.574667744864535e7 0.0
1.574667744864535e7 -3.109397768424885e6 0.0
0.0 0.0 0.0

-99613.94355552155 1.756163559384836e7 0.0
1.756163559384836e7 2.383684253830858e6 0.0
0.0 0.0 0.0

-4.164590104760973e6 1.5033681729573024e7 0.0
1.5033681729573024e7 -2.1382955715872213e7 0.0
0.0 0.0 0.0

-1.8073490708853338e7 2.524858728515882e7 0.0
2.524858728515882e7 -2.0549834056324507e6 0.0
0.0 0.0 0.0

8.081808382294686e6 3.517712479218448e7 0.0
3.517712479218448e7 -4.313003261721291e6 0.0
0.0 0.0 0.0

-585203.1283609198 1.1920631465606499e6 0.0
1.1920631465606499e6 1.3577036813737233e6 0.0
0.0 0.0 0.0

-629260.3112861549 750560.7298666014 0.0
750560.7298666014 1.0766146988309082e6 0.0
0.0 0.0 0.0

-5.710603596152044e6 1.8772313226661187e7 0.0
1.8772313226661187e7 1.6950362554954875e7 0.0
0.0 0.0 0.0

-1.8711149974473394e6 2.060081864663755e7 0.0
2.060081864663755e7 -5.444978602291564e6 0.0
0.0 0.0 0.0

-2.0524426198518113e6 2.6170841693742786e7 0.0
2.6170841693742786e7 1.5677003779692405e6 0.0
0.0 0.0 0.0

-2.8132454399464736e6 2.3982875345626228e7 0.0
2.3982875345626228e7 3.3547281470166435e6 0.0
0.0 0.0 0.0

8.456726579771457e6 1.9076052847166795e7 0.0
1.9076052847166795e7 7.37386147619547e6 0.0
0.0 0.0 0.0

2.1978424261601083e6 1.880376879931889e7 0.0
1.880376879931889e7 -4.912605206258302e6 0.0
0.0 0.0 0.0

1.4026466696038544e6 1.6735344298128562e7 0.0
1.6735344298128562e7 4.114434601484706e7 0.0
0.0 0.0 0.0

-3.674823178299182e7 2.5291467899747726e7 0.0
2.5291467899747726e7 -9.049831958478011e6 0.0
0.0 0.0 0.0

-1.0071598717621356e8 3.365787810648887e7 0.0
3.365787810648887e7 6.151888742638946e6 0.0
0.0 0.0 0.0

-7.980069210003485e6 1.4534428080958309e7 0.0
1.4534428080958309e7 1.2663318599693676e7 0.0
0.0 0.0 0.0

-3.7125565472199237e6 1.9251127911750413e7 0.0
1.9251127911750413e7 1.4095335503162734e7 0.0
0.0 0.0 0.0

3.662975165797501e6 5.191463385921391e6 0.0
5.191463385921391e6 -1.965929698629386e7 0.0
0.0 0.0 0.0

-9.092390629188726e6 1.5683376081698678e7 0.0
1.5683376081698678e7 1.9013689622178793e7 0.0
0.0 0.0 0.0

-4.446792250009684e6 -6.2906586264347825e6 0.0
-6.2906586264347825e6 9.660608914272381e6 0.0
0.0 0.0 0.0

6.22979672291171e6 2.034982593672675e7 0.0
2.034982593672675e7 1.0679974765268266e7 0.0
0.0 0.0 0.0

-1.2051442800015416e6 1.4287585280883433e7 0.0
1.4287585280883433e7 -2.9757453806320447e7 0.0
0.0 0.0 0.0

4.3699610793238245e6 4.613427261181695e6 0.0
4.613427261181695e6 -2.4342971068815216e7 0.0
0.0 0.0 0.0

3.769985128738935e6 1.8238528234523445e7 0.0
1.8238528234523445e7 4.958184209409536e6 0.0
0.0 0.0 0.0

-3.4068533344491273e6 3.7995974331735387e6 0.0
3.7995974331735387e6 7.52923285983431e7 0.0
0.0 0.0 0.0

-4.283501026325425e6 2.515460853005646e7 0.0
2.515460853005646e7 5.757868411438555e6 0.0
0.0 0.0 0.0

-1.4921730183956094e7 2.2123266709122162e7 0.0
2.2123266709122162e7 1.086486826130771e6 0.0
0.0 0.0 0.0

388631.77105618315 2.080703460117678e7 0.0
2.080703460117678e7 -8.112712314580755e6 0.0
0.0 0.0 0.0

-8.848514723253816e6 -5.938576167097142e6 0.0
-5.938576167097142e6 2.3765601248081006e7 0.0
0.0 0.0 0.0

-194115.74729041103 1.638511020339148e7 0.0
1.638511020339148e7 5.6187079185712105e6 0.0
0.0 0.0 0.0

-9.035564545814168e6 -4.056348025903113e6 0.0
-4.056348025903113e6 3.1902362359678604e7 0.0
0.0 0.0 0.0

3.7678637298004767e6 1.910478448697315e7 0.0
1.910478448697315e7 4.765738595884812e6 0.0
0.0 0.0 0.0

-2.910509528566087e6 2.0100538605478384e7 0.0
2.0100538605478384e7 993463.1990006899 0.0
0.0 0.0 0.0

4.59470293097117e6 3.306428997476894e6 0.0
3.306428997476894e6 -2.6725823045254156e7 0.0
0.0 0.0 0.0

-4.045959759926493e6 1.8808681912555035e7 0.0
1.8808681912555035e7 -1.0976005785149077e7 0.0
0.0 0.0 0.0

4.489457811867205e6 2.8074592336145137e6 0.0
2.8074592336145137e6 -1.9056106975383632e7 0.0
0.0 0.0 0.0

470755.8422539234 1.5260743540715823e7 0.0
1.5260743540715823e7 -1.8534921293260902e7 0.0
0.0 0.0 0.0

-5.205380520730089e6 2.972409072244018e7 0.0
2.972409072244018e7 3.0522034423681693e6 0.0
0.0 0.0 0.0

-315114.65216790093 1.4291995042522753e7 0.0
1.4291995042522753e7 -134815.8260505862 0.0
0.0 0.0 0.0

-761444.6654036734 2.0428524759623926e7 0.0
2.0428524759623926e7 -8.21133243769547e6 0.0
0.0 0.0 0.0

-3.9462158103292454e6 2.8277916928562086e7 0.0
2.8277916928562086e7 2.4030821765346834e6 0.0
0.0 0.0 0.0

-3.265803000623677e6 2.281050337885113e7 0.0
2.281050337885113e7 5.657037588025041e6 0.0
0.0 0.0 0.0

-3.330495510582111e6 2.3666559044159167e7 0.0
2.3666559044159167e7 2.8478807468348853e6 0.0
0.0 0.0 0.0

-1.2011528185756032e6 2.8032298859494258e7 0.0
2.8032298859494258e7 -418446.4044663174 0.0
0.0 0.0 0.0

-111711.04841811629 1.9766616423808552e7 0.0
1.9766616423808552e7 -8.957742566212121e6 0.0
0.0 0.0 0.0

-3.623600852783179e6 3.068446135187094e7 0.0
3.068446135187094e7 1.4493477570186874e6 0.0
0.0 0.0 0.0

-1.0909058027608354e7 1.0633360975165633e7 0.0
1.0633360975165633e7 1.4745069641788824e7 0.0
0.0 0.0 0.0

1.1493624532673266e6 1.2716538148630714e7 0.0
1.2716538148630714e7 -1.473880734791423e7 0.0
0.0 0.0 0.0

-1.0165547596868448e7 -2.9782560842530634e6 0.0
-2.9782560842530634e6 1.8748841558827147e7 0.0
0.0 0.0 0.0

-1.0924290362282787e7 2.3871645241028972e7 0.0
2.3871645241028972e7 4.854564815823628e6 0.0
0.0 0.0 0.0

-8.930189484394614e6 -373457.42840077303 0.0
-373457.42840077303 4.23349550234528e7 0.0
0.0 0.0 0.0

1.2552785352346816e6 2.5855597622123837e7 0.0
2.5855597622123837e7 -3.756997549146172e6 0.0
0.0 0.0 0.0

890948.5830835383 1.5228567582877591e7 0.0
1.5228567582877591e7 -1.850879373270957e7 0.0
0.0 0.0 0.0

211220.8191760485 1.8273988226383545e7 0.0
1.8273988226383545e7 7.058500434003238e6 0.0
0.0 0.0 0.0

-872946.6378501267 1.4962210417637147e7 0.0
1.4962210417637147e7 -9.299097066084187e6 0.0
0.0 0.0 0.0

1.1628376073130388e6 1.3038519080139587e7 0.0
1.3038519080139587e7 -2.53265501535381e7 0.0
0.0 0.0 0.0

3.537403400280106e6 4.1558669859381136e6 0.0
4.1558669859381136e6 -1.3964727648494357e7 0.0
0.0 0.0 0.0

2.127116756334143e6 2.2117904329705454e7 0.0
2.2117904329705454e7 -6.279123879224835e6 0.0
0.0 0.0 0.0

-299791.4690538577 1.7984253774190467e7 0.0
1.7984253774190467e7 5.201067984041042e6 0.0
0.0 0.0 0.0

-3.2026265912832543e6 1.782847743870067e7 0.0
1.782847743870067e7 -1.767312102720107e6 0.0
0.0 0.0 0.0

3.4712329228324145e6 1.9789026008696489e6 0.0
1.9789026008696489e6 -4.613939351089267e7 0.0
0.0 0.0 0.0

-1.0997515670597624e7 2.766830520255866e6 0.0
2.766830520255866e6 2.00961179938735e7 0.0
0.0 0.0 0.0

2.998405500356851e6 4.123183670351054e6 0.0
4.123183670351054e6 -4.6030482590354204e7 0.0
0.0 0.0 0.0

-7.012812089597166e6 -6.904153453735046e6 0.0
-6.904153453735046e6 1.5487012362014996e7 0.0
0.0 0.0 0.0

-3.218526287968745e6 1.9944535550694305e7 0.0
1.9944535550694305e7 -309256.92565945315 0.0
0.0 0.0 0.0

-474850.58834472357 1.8018501949957147e7 0.0
1.8018501949957147e7 2.9999201568933153e6 0.0
0.0 0.0 0.0

-37509.461502688006 1.788751900481045e7 0.0
1.788751900481045e7 4.944342300954011e6 0.0
0.0 0.0 0.0

-7.357068515465307e6 1.4198371031262927e7 0.0
1.4198371031262927e7 1.504810337765634e7 0.0
0.0 0.0 0.0

-9.172017467014631e6 -4.776218310895942e6 0.0
-4.776218310895942e6 2.7090322039563313e7 0.0
0.0 0.0 0.0

2.8151663192061894e6 2.3628757017322987e7 0.0
2.3628757017322987e7 -5.273662910846327e6 0.0
0.0 0.0 0.0

3.357858280378441e6 1.9241068366125297e7 0.0
1.9241068366125297e7 1.3638086697113914e7 0.0
0.0 0.0 0.0

2.8910217862528106e6 8.264246526809865e6 0.0
8.264246526809865e6 -2.193357265174278e7 0.0
0.0 0.0 0.0

-9.49711540642818e6 -3.061451407290002e6 0.0
-3.061451407290002e6 2.9175211350353386e7 0.0
0.0 0.0 0.0

1.7546797292703192e6 1.889941715834922e7 0.0
1.889941715834922e7 1.0566253650754336e7 0.0
0.0 0.0 0.0

-5.499936274346966e6 1.5474181129597262e7 0.0
1.5474181129597262e7 3.415825011128908e7 0.0
0.0 0.0 0.0

3.9487818601983795e6 1.980426028935281e7 0.0
1.980426028935281e7 1.0428524690671893e7 0.0
0.0 0.0 0.0

-3.2182349173963256e6 1.4246224919773804e7 0.0
1.4246224919773804e7 -3.9820259058496214e7 0.0
0.0 0.0 0.0

-5.124629821401396e6 1.8129374936590597e7 0.0
1.8129374936590597e7 2.1092240194986444e7 0.0
0.0 0.0 0.0

-312833.3933129823 1.7409541975362305e7 0.0
1.7409541975362305e7 1.552267700632741e7 0.0
0.0 0.0 0.0

702346.8345616139 1.9368267179859944e7 0.0
1.9368267179859944e7 -1.0081512355083218e7 0.0
0.0 0.0 0.0

-2.0470522172777345e6 1.9032563716089297e7 0.0
1.9032563716089297e7 -4.82655301403166e6 0.0
0.0 0.0 0.0

2.3449488349552266e6 7.942554936463866e6 0.0
7.942554936463866e6 -3.436895083487966e7 0.0
0.0 0.0 0.0

2.484218819486944e6 7.215116106917068e6 0.0
7.215116106917068e6 -3.607272647148515e7 0.0
0.0 0.0 0.0

-28461.95952968346 1.4668716770764468e7 0.0
1.4668716770764468e7 -8.840128796583537e6 0.0
0.0 0.0 0.0

-9.429838127969535e6 1.5916446791775217e7 0.0
1.5916446791775217e7 2.463613366370877e7 0.0
0.0 0.0 0.0

-15717.090043991804 1.820821976935902e7 0.0
1.820821976935902e7 -1.2329542655638784e7 0.0
0.0 0.0 0.0

-7.190557585935812e6 2.626359517498034e6 0.0
2.626359517498034e6 5.488402770469515e7 0.0
0.0 0.0 0.0

-745272.2313782405 1.4050133473276187e7 0.0
1.4050133473276187e7 -3.0347955409555025e7 0.0
0.0 0.0 0.0

-562590.1770015545 1.400988517966608e7 0.0
1.400988517966608e7 4.918036706922557e7 0.0
0.0 0.0 0.0

3.5920066644416805e6 2.0762863398676596e6 0.0
2.0762863398676596e6 -4.427468977767281e7 0.0
0.0 0.0 0.0

-157592.35967077035 2.06524156986197e7 0.0
2.06524156986197e7 -8.093059521922125e6 0.0
0.0 0.0 0.0

2.9533393801455004e6 1.9579058442622356e7 0.0
1.9579058442622356e7 1.1145250145661296e7 0.0
0.0 0.0 0.0

-4.599292657478943e6 1.5415711287601305e7 0.0
1.5415711287601305e7 -3.634796176664607e7 0.0
0.0 0.0 0.0

7.421215559384126e6 1.0445378494922321e7 0.0
1.0445378494922321e7 1.397916335540607e6 0.0
0.0 0.0 0.0

-1.4447237261352171e6 1.828477163042565e7 0.0
1.828477163042565e7 -6.101349975835098e6 0.0
0.0 0.0 0.0

2.2304958372884765e6 1.9221832658743575e7 0.0
1.9221832658743575e7 1.1627956740042776e7 0.0
0.0 0.0 0.0

-3.9905819857650734e6 2.007498284602278e7 0.0
2.007498284602278e7 9.693944588746637e6 0.0
0.0 0.0 0.0

-4.228261623961664e6 1.9189910963107683e7 0.0
1.9189910963107683e7 1.4581453331105862e7 0.0
0.0 0.0 0.0

906092.300235467 1.1646655122541323e7 0.0
1.1646655122541323e7 -1.304644102298309e7 0.0
0.0 0.0 0.0

-1.1305185954046482e7 1.467003326176208e7 0.0
1.467003326176208e7 2.284935616890914e7 0.0
0.0 0.0 0.0

-2.4286040589219145e6 1.3824570238041736e7 0.0
1.3824570238041736e7 -3.724837996430555e7 0.0
0.0 0.0 0.0

-1.858342787019967e6 1.8146772174563807e7 0.0
1.8146772174563807e7 -9.230784224194866e6 0.0
0.0 0.0 0.0

-5.900927836035339e6 2.0765631958110984e7 0.0
2.0765631958110984e7 5.709901762751176e6 0.0
0.0 0.0 0.0

623896.6637782166 1.0384753719911572e7 0.0
1.0384753719911572e7 -7.855039577330393e6 0.0
0.0 0.0 0.0

-6.05508928058124e6 5.3457040253589265e6 0.0
5.3457040253589265e6 7.230337120077969e7 0.0
0.0 0.0 0.0

-5.185734564958174e6 1.5364384994726568e7 0.0
1.5364384994726568e7 -4.514304442798493e7 0.0
0.0 0.0 0.0

-4.482813407133322e6 1.75564029287956e7 0.0
1.75564029287956e7 2.356110484473685e7 0.0
0.0 0.0 0.0

-2.3047812691920074e6 2.6578839946240555e7 0.0
2.6578839946240555e7 636741.8833536104 0.0
0.0 0.0 0.0

1.3793856877860464e7 1.9450330001044236e7 0.0
1.9450330001044236e7 6.282157756260533e6 0.0
0.0 0.0 0.0

-2.8569854999490026e6 1.720403980862791e7 0.0
1.720403980862791e7 2.9616309024620533e7 0.0
0.0 0.0 0.0

-5.506335225785417e6 1.850211601290665e7 0.0
1.850211601290665e7 1.6929697180518985e7 0.0
0.0 0.0 0.0

739815.7876369469 1.3608278520190107e7 0.0
1.3608278520190107e7 -1.4401250945246104e7 0.0
0.0 0.0 0.0

-2.295580791062187e6 1.7422873350831866e7 0.0
1.7422873350831866e7 -1.0639309864024254e7 0.0
0.0 0.0 0.0

-6.554928062790518e6 1.6940470791466918e7 0.0
1.6940470791466918e7 1.2724497013101555e7 0.0
0.0 0.0 0.0

-6.823118853104399e6 1.5693731448010983e7 0.0
1.5693731448010983e7 1.5297121191055605e7 0.0
0.0 0.0 0.0

4.085026231970178e6 3.3918900166740995e6 0.0
3.3918900166740995e6 -2.4985500458704237e7 0.0
0.0 0.0 0.0

-4.1571402384256916e6 2.2305382108629834e7 0.0
2.2305382108629834e7 9.017175799319666e6 0.0
0.0 0.0 0.0

-1.2223921745710378e6 1.458841385339232e7 0.0
1.458841385339232e7 -2.442889793363302e6 0.0
0.0 0.0 0.0

4.629963048487496e6 3.676162988676508e6 0.0
3.676162988676508e6 -1.830851763671314e7 0.0
0.0 0.0 0.0

235253.50740050734 2.5070954805628292e7 0.0
2.5070954805628292e7 -3.763375730773678e6 0.0
0.0 0.0 0.0

3.7051578931937814e6 1.974350755152081e7 0.0
1.974350755152081e7 1.2281781042882869e7 0.0
0.0 0.0 0.0

-8.103529365925433e6 903625.4916238885 0.0
903625.4916238885 4.795793335570036e7 0.0
0.0 0.0 0.0

5.705449765362642e6 2.0723719664707035e7 0.0
2.0723719664707035e7 9.391112191771524e6 0.0
0.0 0.0 0.0

3.728314577321291e6 1.9550904775501102e7 0.0
1.9550904775501102e7 7.249547595223777e6 0.0
0.0 0.0 0.0

-118875.1723457682 1.725619248781835e7 0.0
1.725619248781835e7 -1.2203943264587896e7 0.0
0.0 0.0 0.0

3.932944887331931e6 3.2827378088911236e6 0.0
3.2827378088911236e6 -3.258817216590794e7 0.0
0.0 0.0 0.0

1.7595999002679107e6 1.6162832928726844e7 0.0
1.6162832928726844e7 9.831045700524278e6 0.0
0.0 0.0 0.0

106549.5773257371 1.763571517100797e7 0.0
1.763571517100797e7 -1.118084208680425e7 0.0
0.0 0.0 0.0

429203.82057153806 1.8000548218184635e7 0.0
1.8000548218184635e7 8.212951550170884e6 0.0
0.0 0.0 0.0

-1.0261729821192957e7 4.782804466668811e6 0.0
4.782804466668811e6 1.555731450503847e7 0.0
0.0 0.0 0.0

-5.652822521633423e6 -6.788548541064293e6 0.0
-6.788548541064293e6 1.4068907860042311e7 0.0
0.0 0.0 0.0

-4.590318589012101e6 2.010417325146321e7 0.0
2.010417325146321e7 3.581240833343588e6 0.0
0.0 0.0 0.0

1.3517139968813611e6 1.3535637535004305e7 0.0
1.3535637535004305e7 -2.187943889229301e7 0.0
0.0 0.0 0.0

-2.479978812482047e6 1.6354901257601008e7 0.0
1.6354901257601008e7 -1.4499629300969342e7 0.0
0.0 0.0 0.0

-6.405898054782998e6 1.8637931000454915e6 0.0
1.8637931000454915e6 7.018716528346655e7 0.0
0.0 0.0 0.0

-4.461321620513761e6 3.148220001164174e7 0.0
3.148220001164174e7 1.612595248246372e6 0.0
0.0 0.0 0.0

1.0394097596593841e6 5.594400539552172e6 0.0
5.594400539552172e6 -3.494509699904865e6 0.0
0.0 0.0 0.0

-969036.5400342201 1.8183164848472487e7 0.0
1.8183164848472487e7 976350.2215735274 0.0
0.0 0.0 0.0

1.338113521590625e6 1.8874337368269343e7 0.0
1.8874337368269343e7 1.0376249364054397e7 0.0
0.0 0.0 0.0

-9.741562513240153e6 1.6160708371230368e7 0.0
1.6160708371230368e7 2.255817332725628e7 0.0
0.0 0.0 0.0

-1.1949729960987417e7 2.3422600911137726e7 0.0
2.3422600911137726e7 3.1944263836002704e6 0.0
0.0 0.0 0.0

2.457734223998333e6 1.9630721087708797e7 0.0
1.9630721087708797e7 8.383162825764272e6 0.0
0.0 0.0 0.0

784569.2179852105 1.9382478368555557e7 0.0
1.9382478368555557e7 9.764955378073817e6 0.0
0.0 0.0 0.0

448234.4038709374 1.690658938582616e7 0.0
1.690658938582616e7 -1.5389756211879967e7 0.0
0.0 0.0 0.0

2.4394413481256566e6 5.342514385040766e6 0.0
5.342514385040766e6 -1.106462885897348e7 0.0
0.0 0.0 0.0

-474263.22259700065 1.7285851680136543e7 0.0
1.7285851680136543e7 -1.3756836197892152e7 0.0
0.0 0.0 0.0

-476370.02781403856 1.931659940323664e7 0.0
1.931659940323664e7 -9.98732872074447e6 0.0
0.0 0.0 0.0

-3.1285971627271697e6 2.2067014481659275e7 0.0
2.2067014481659275e7 4.91157026302954e6 0.0
0.0 0.0 0.0

774347.826184602 2.0186940105071343e7 0.0
2.0186940105071343e7 -8.56622824759771e6 0.0
0.0 0.0 0.0

357250.72645058203 1.9521886870013032e7 0.0
1.9521886870013032e7 -9.337173542034525e6 0.0
0.0 0.0 0.0

4.1766729538796972e6 4.1650936089544734e6 0.0
4.1650936089544734e6 -2.944096809194638e7 0.0
0.0 0.0 0.0

1.690091280272352e6 1.8781764344450276e7 0.0
1.8781764344450276e7 5.999200967457144e6 0.0
0.0 0.0 0.0

-641103.3895252636 1.984935121482772e7 0.0
1.984935121482772e7 -9.0536791676464e6 0.0
0.0 0.0 0.0

-1.2193643190348854e7 1.2428797050293246e7 0.0
1.2428797050293246e7 1.9175670250573013e7 0.0
0.0 0.0 0.0

-7.484869849385443e7 2.799120647945791e7 0.0
2.799120647945791e7 -4.4682757221250795e6 0.0
0.0 0.0 0.0

2.5938385469987366e7 2.750228982451671e7 0.0
2.750228982451671e7 8.646146637793869e7 0.0
0.0 0.0 0.0

-2.417084358387023e7 2.518676886242732e7 0.0
2.518676886242732e7 -8.05696446187707e7 0.0
0.0 0.0 0.0

-6.228295813886999e6 1.7975212245370254e7 0.0
1.7975212245370254e7 1.9902708366787054e7 0.0
0.0 0.0 0.0

1.3011581269758735e6 1.32679449065424e7 0.0
1.32679449065424e7 -1.9364938641106404e7 0.0
0.0 0.0 0.0

-2.8533729957046886e6 1.8379885032335002e7 0.0
1.8379885032335002e7 -1.0711774150005138e7 0.0
0.0 0.0 0.0

754566.3298427907 3.1576212262744278e7 0.0
3.1576212262744278e7 -2.1183752534694816e6 0.0
0.0 0.0 0.0

-1.0651493809949867e6 1.581930324446983e7 0.0
1.581930324446983e7 -1.8178229359875623e7 0.0
0.0 0.0 0.0

-3.201431628435487e6 1.9320176495671462e7 0.0
1.9320176495671462e7 -6.302513569793419e6 0.0
0.0 0.0 0.0

-1.1213223038728058e7 1.448143552262299e7 0.0
1.448143552262299e7 1.9885568768290363e7 0.0
0.0 0.0 0.0

-1.8254533397365473e6 2.241711538504981e7 0.0
2.241711538504981e7 -1.4946162191574865e6 0.0
0.0 0.0 0.0

-1.4983389549953174e6 1.4873543104305867e7 0.0
1.4873543104305867e7 -2.747503811064533e7 0.0
0.0 0.0 0.0

-1.150832234931203e6 1.8286923103138234e7 0.0
1.8286923103138234e7 -5.89872127034145e6 0.0
0.0 0.0 0.0

-4.678242543829331e6 2.0096614054540418e7 0.0
2.0096614054540418e7 1.0746680620457482e7 0.0
0.0 0.0 0.0

1.315245236241386e7 1.9380602464323353e7 0.0
1.9380602464323353e7 -1.5841863555784272e6 0.0
0.0 0.0 0.0

123215.97226726031 1.736006341506359e7 0.0
1.736006341506359e7 6.029722712329685e6 0.0
0.0 0.0 0.0

-6.100481269037919e6 1.8141192314384267e7 0.0
1.8141192314384267e7 1.8071516580785718e7 0.0
0.0 0.0 0.0

-1.7695004841371838e7 2.2193900664752126e7 0.0
2.2193900664752126e7 -975847.6280521173 0.0
0.0 0.0 0.0

2483.3270426597446 1.76140519969264e7 0.0
1.76140519969264e7 6.077231114303221e6 0.0
0.0 0.0 0.0

734189.0055186632 2.5471000699952714e7 0.0
2.5471000699952714e7 -3.624779584643127e6 0.0
0.0 0.0 0.0

5.942517854755878e6 2.327678882163097e7 0.0
2.327678882163097e7 -5.350206090213217e6 0.0
0.0 0.0 0.0

1.7151917001975784e6 1.2715901750606159e7 0.0
1.2715901750606159e7 -1.4954968719590068e7 0.0
0.0 0.0 0.0

-6.723433067109667e6 1.7222526306025434e7 0.0
1.7222526306025434e7 2.36445100130249e7 0.0
0.0 0.0 0.0

-135296.0658201771 1.6544918693972772e7 0.0
1.6544918693972772e7 -1.5845685174177635e7 0.0
0.0 0.0 0.0

-3.647600485234243e6 1.6440899871289706e7 0.0
1.6440899871289706e7 4.205077539885563e6 0.0
0.0 0.0 0.0

-7.506949249638844e6 1.673126058121559e7 0.0
1.673126058121559e7 1.5086417414829047e7 0.0
0.0 0.0 0.0

2.1246181696967236e6 7.112237688793417e6 0.0
7.112237688793417e6 -8.438063440234654e6 0.0
0.0 0.0 0.0

269910.4248178806 1.7123224704379067e7 0.0
1.7123224704379067e7 8.008876809703012e6 0.0
0.0 0.0 0.0

2.6177764240250303e6 2.2821439419950806e7 0.0
2.2821439419950806e7 -5.750826162165068e6 0.0
0.0 0.0 0.0

318651.1220898405 1.054704815223024e7 0.0
1.054704815223024e7 -5.160230302047754e7 0.0
0.0 0.0 0.0

-1.2302076402989864e7 1.1744458664199933e7 0.0
1.1744458664199933e7 1.85069381362407e7 0.0
0.0 0.0 0.0

1.381646278480809e7 3.3501556165673226e7 0.0
3.3501556165673226e7 -6.706075688974471e6 0.0
0.0 0.0 0.0

3.217448906621471e6 7.358729415627835e6 0.0
7.358729415627835e6 -3.355942900686234e7 0.0
0.0 0.0 0.0

47969.35264955112 1.694923619572038e7 0.0
1.694923619572038e7 6.361773962235998e6 0.0
0.0 0.0 0.0

788919.585972196 2.110685449497301e7 0.0
2.110685449497301e7 -7.604026263020652e6 0.0
0.0 0.0 0.0

1.090597343338583e7 2.150208240526062e7 0.0
2.150208240526062e7 1.2487553277887511e8 0.0
0.0 0.0 0.0

-1.168299675136203e7 2.0552789048487782e7 0.0
2.0552789048487782e7 -1.111520121581036e8 0.0
0.0 0.0 0.0

2.2084690418105688e7 1.8017153688853223e7 0.0
1.8017153688853223e7 4.601787840967719e6 0.0
0.0 0.0 0.0

7.313719220779149e6 2.2716256314310268e7 0.0
2.2716256314310268e7 -5.276973993321095e6 0.0
0.0 0.0 0.0

680448.7984200385 9.889963354030333e6 0.0
9.889963354030333e6 -7.036561459378746e6 0.0
0.0 0.0 0.0

1.433551539237562e7 3.019534520937933e7 0.0
3.019534520937933e7 -6.958385653758219e6 0.0
0.0 0.0 0.0

-2.8507052512696506e6 1.8644931475307494e7 0.0
1.8644931475307494e7 1.6922062507639453e7 0.0
0.0 0.0 0.0

1.0727327722552432e7 1.915668686387958e7 0.0
1.915668686387958e7 -1.2578750411358075e6 0.0
0.0 0.0 0.0

-3.967069370322078e6 2.160333301073235e7 0.0
2.160333301073235e7 6.973383485642171e6 0.0
0.0 0.0 0.0

-6.258461485448727e6 1.4986913435258472e7 0.0
1.4986913435258472e7 1.3397796838546019e7 0.0
0.0 0.0 0.0

440556.33872138895 3.9478453773786817e6 0.0
3.9478453773786817e6 -3.888528919141779e6 0.0
0.0 0.0 0.0

4.2041059455824075e6 1.9609445628372286e7 0.0
1.9609445628372286e7 1.3154758460734239e7 0.0
0.0 0.0 0.0

-1.0883011717922022e6 2.2228582816729642e7 0.0
2.2228582816729642e7 -5.194184843701894e6 0.0
0.0 0.0 0.0

-6.405488540685267e6 1.7901941777824983e7 0.0
1.7901941777824983e7 2.095852313181488e7 0.0
0.0 0.0 0.0

-5.1731770436996855e6 2.2587200470455866e7 0.0
2.2587200470455866e7 8.58232079890414e6 0.0
0.0 0.0 0.0

-3.435281928206973e6 2.1275142351175003e7 0.0
2.1275142351175003e7 7.569234583513679e6 0.0
0.0 0.0 0.0

-1.6544852220094749e6 1.571786106529248e7 0.0
1.571786106529248e7 -5.580800733879363e6 0.0
0.0 0.0 0.0

-4.181115251155006e6 1.7422107922321964e7 0.0
1.7422107922321964e7 2.468043766378091e7 0.0
0.0 0.0 0.0

-3.6420116707013366e6 2.1980575322288174e7 0.0
2.1980575322288174e7 8.169997779612894e6 0.0
0.0 0.0 0.0

-4.7697203651949335e6 1.1803617044987889e7 0.0
1.1803617044987889e7 7.035694901262656e6 0.0
0.0 0.0 0.0

-3.3316982111610547e7 2.8107360629330356e7 0.0
2.8107360629330356e7 -666026.2015796322 0.0
0.0 0.0 0.0

-8.313707703153854e6 3.574287449199904e6 0.0
3.574287449199904e6 4.78585436795504e7 0.0
0.0 0.0 0.0

-6.730944127166194e6 2.2899957692613214e7 0.0
2.2899957692613214e7 7.329642544177173e6 0.0
0.0 0.0 0.0

-6.558371220963832e6 2.7059719031708587e7 0.0
2.7059719031708587e7 5.711155896411155e6 0.0
0.0 0.0 0.0

-133370.46923063044 1.4383551519742826e7 0.0
1.4383551519742826e7 -2.482017212024463e7 0.0
0.0 0.0 0.0

-2.490688272797394e6 2.9200062545742948e7 0.0
2.9200062545742948e7 1.8903949169409233e6 0.0
0.0 0.0 0.0

-5.756733526537288e6 3.2460364838967443e7 0.0
3.2460364838967443e7 1.665594930843102e6 0.0
0.0 0.0 0.0

-7.081605436251574e6 3.3386151666898422e7 0.0
3.3386151666898422e7 2.0281497689900403e6 0.0
0.0 0.0 0.0

-1.6006604303672507e6 2.4133510144974373e7 0.0
2.4133510144974373e7 -2.356690251905212e6 0.0
0.0 0.0 0.0

-1.139220984444903e7 1.1768670402426556e7 0.0
1.1768670402426556e7 2.683708850477991e7 0.0
0.0 0.0 0.0

4.425197844081489e6 2.2890723443692806e6 0.0
2.2890723443692806e6 -2.753843219066748e7 0.0
0.0 0.0 0.0

-4.953824889548986e6 1.797874063550801e7 0.0
1.797874063550801e7 2.179102208720459e7 0.0
0.0 0.0 0.0

503238.76003006473 2.61715984119321e7 0.0
2.61715984119321e7 -3.036534669135969e6 0.0
0.0 0.0 0.0

537017.14808397 1.4842526507899798e7 0.0
1.4842526507899798e7 -1.9643830734774556e7 0.0
0.0 0.0 0.0

-9.136890377401952e6 -1.6523570474455194e6 0.0
-1.6523570474455194e6 3.716996607738461e7 0.0
0.0 0.0 0.0

203167.88394315372 1.78174447941997e7 0.0
1.78174447941997e7 1.1108364745651055e6 0.0
0.0 0.0 0.0

216819.85496138036 1.8063629033558e7 0.0
1.8063629033558e7 -1.0355723584950397e7 0.0
0.0 0.0 0.0

-276273.5880602859 1.6874264693634987e7 0.0
1.6874264693634987e7 -1.3162635703621501e7 0.0
0.0 0.0 0.0

-2.6794159473502147e6 1.4868363773590555e7 0.0
1.4868363773590555e7 -1.2524852358437214e7 0.0
0.0 0.0 0.0

-8.0889692572685005e6 -4.998262590728323e6 0.0
-4.998262590728323e6 1.4152449552001651e7 0.0
0.0 0.0 0.0

-229311.0651494154 1.5923797954211898e7 0.0
1.5923797954211898e7 -2.4497213082503313e6 0.0
0.0 0.0 0.0

1.6685283701145032e6 1.7838880548773617e7 0.0
1.7838880548773617e7 5.320378138309135e6 0.0
0.0 0.0 0.0

1.4632613202085374e7 1.8041312632272057e7 0.0
1.8041312632272057e7 4.248749610064622e6 0.0
0.0 0.0 0.0

-8.07151833167295e6 3.5065414943145536e7 0.0
3.5065414943145536e7 2.637472508576825e6 0.0
0.0 0.0 0.0

-6.580338725838284e6 1.5322123955131186e7 0.0
1.5322123955131186e7 1.4439061096786905e7 0.0
0.0 0.0 0.0

-7.711719527392988e6 1.690006095080926e7 0.0
1.690006095080926e7 -5.055380886986469e7 0.0
0.0 0.0 0.0

3.6975878729761206e6 6.704238058347679e6 0.0
6.704238058347679e6 -2.827986557440623e7 0.0
0.0 0.0 0.0

-9.049440258092789e6 -5.777977881260021e6 0.0
-5.777977881260021e6 2.396436374778752e7 0.0
0.0 0.0 0.0

-1.6550105349606257e7 2.5618605342747852e7 0.0
2.5618605342747852e7 -5.175904575938872e6 0.0
0.0 0.0 0.0

-1.6899221640617866e7 2.2752742614204537e7 0.0
2.2752742614204537e7 -2.946511172682335e6 0.0
0.0 0.0 0.0

-1.5049416779401908e6 1.6239638408861319e7 0.0
1.6239638408861319e7 -7.236197588631768e6 0.0
0.0 0.0 0.0

-940563.8377105366 2.5803582403468125e7 0.0
2.5803582403468125e7 -1.9604752590577912e6 0.0
0.0 0.0 0.0

1.735861575886298e6 6.369251099709861e6 0.0
6.369251099709861e6 -4.920315364821264e7 0.0
0.0 0.0 0.0

5.9036262340597175e6 2.0274262872639835e7 0.0
2.0274262872639835e7 -3.946926294297722e6 0.0
0.0 0.0 0.0

3.611922754023546e6 2.007630389708641e7 0.0
2.007630389708641e7 9.238731080201637e6 0.0
0.0 0.0 0.0

1.8851152540082466e6 1.3075082890594907e7 0.0
1.3075082890594907e7 -1.9111028180281196e7 0.0
0.0 0.0 0.0

-2.562556744828634e6 2.1098322592833698e7 0.0
2.1098322592833698e7 566569.702522873 0.0
0.0 0.0 0.0

1.7190681936943727e6 1.2285289567120047e7 0.0
1.2285289567120047e7 -1.4202072591821957e7 0.0
0.0 0.0 0.0

1.407181926394728e6 1.28160840667267e7 0.0
1.28160840667267e7 -2.0535087198510416e7 0.0
0.0 0.0 0.0

-1.7351675130836037e6 1.5590360829437397e7 0.0
1.5590360829437397e7 -1.3290455879754897e7 0.0
0.0 0.0 0.0

-6.891268323636681e6 2.6189184181217466e7 0.0
2.6189184181217466e7 5.529897041733478e6 0.0
0.0 0.0 0.0

-1.2645986152553715e7 2.003464768296261e7 0.0
2.003464768296261e7 -5.874142040130672e7 0.0
0.0 0.0 0.0

1.147781058234162e7 2.971347592504422e7 0.0
2.971347592504422e7 -5.5252479542718725e6 0.0
0.0 0.0 0.0

3.6056238498940966e6 2.28110126880746e7 0.0
2.28110126880746e7 -5.485965871837372e6 0.0
0.0 0.0 0.0

-2.6064985660368856e6 2.73671395691879e7 0.0
2.73671395691879e7 2.420324892586775e6 0.0
0.0 0.0 0.0

-4.219601214709617e6 2.147936753275396e7 0.0
2.147936753275396e7 9.507348691473037e6 0.0
0.0 0.0 0.0

1.8463527724946178e6 5.345347926888171e6 0.0
5.345347926888171e6 -5.1347276423631236e7 0.0
0.0 0.0 0.0

-4.4658869526222395e6 1.9855000654609893e7 0.0
1.9855000654609893e7 1.336946893317759e7 0.0
0.0 0.0 0.0

2.7695207910230868e6 5.195967380496828e6 0.0
5.195967380496828e6 -4.155513990419027e7 0.0
0.0 0.0 0.0

-854311.1961936757 1.880067510814851e7 0.0
1.880067510814851e7 -7.671443963666614e6 0.0
0.0 0.0 0.0

-754125.7741899106 1.811794231713036e7 0.0
1.811794231713036e7 -8.005210243136824e6 0.0
0.0 0.0 0.0

-675318.4239260124 1.5493463048550824e7 0.0
1.5493463048550824e7 -3.373215237395064e6 0.0
0.0 0.0 0.0

-4.1064203372312877e6 1.859137897394767e7 0.0
1.859137897394767e7 1.5211759319492478e7 0.0
0.0 0.0 0.0

-2.2924672050337773e6 2.327037067185717e7 0.0
2.327037067185717e7 -1.5761517224123487e6 0.0
0.0 0.0 0.0

-5.257372971228488e6 1.8707709605384752e7 0.0
1.8707709605384752e7 1.2471776323433448e7 0.0
0.0 0.0 0.0

-8.912253117519904e6 -4.961488142318875e6 0.0
-4.961488142318875e6 2.780992471560371e7 0.0
0.0 0.0 0.0

3.180775519073339e6 6.42242629659383e6 0.0
6.42242629659383e6 -2.9902510372095164e7 0.0
0.0 0.0 0.0

2.859781545484878e6 8.491205108676465e6 0.0
8.491205108676465e6 -2.3605097955599345e7 0.0
0.0 0.0 0.0

98125.40159233287 2.8058623388779975e7 0.0
2.8058623388779975e7 -1.1821970497400337e6 0.0
0.0 0.0 0.0

-2.0327486289205195e6 1.83500062099545e7 0.0
1.83500062099545e7 -9.044830826536195e6 0.0
0.0 0.0 0.0

571570.4273991706 1.3726763595658604e7 0.0
1.3726763595658604e7 -2.509814377969497e7 0.0
0.0 0.0 0.0

1.1570701979822912e6 1.8247618880666196e7 0.0
1.8247618880666196e7 1.4020579850094482e7 0.0
0.0 0.0 0.0

-9.964761582534192e6 520718.1364022219 0.0
520718.1364022219 1.8774884243869364e7 0.0
0.0 0.0 0.0

4.101455999452189e6 2.0645455661489468e7 0.0
2.0645455661489468e7 1.0469712663791617e7 0.0
0.0 0.0 0.0

-1.2756802208570395e7 2.885256651196256e7 0.0
2.885256651196256e7 6.764269639483362e6 0.0
0.0 0.0 0.0

2.6004535478706784e6 1.8421183774479643e7 0.0
1.8421183774479643e7 5.755587438416718e6 0.0
0.0 0.0 0.0

1.3231512080085217e6 1.6657366213827474e7 0.0
1.6657366213827474e7 1.1587119976227134e7 0.0
0.0 0.0 0.0

-4.885377689869083e6 2.5572207395257097e7 0.0
2.5572207395257097e7 5.580911785802973e6 0.0
0.0 0.0 0.0

-4.72303338030289e6 1.9180780927558515e7 0.0
1.9180780927558515e7 1.528147985358037e7 0.0
0.0 0.0 0.0

-3.2441016816461347e6 1.6623094938013177e7 0.0
1.6623094938013177e7 2.88784995255875e7 0.0
0.0 0.0 0.0

-1.5953318007793749e7 2.33736545860044e7 0.0
2.33736545860044e7 -1.281589975493406e6 0.0
0.0 0.0 0.0

-1.1596557065382615e7 2.1997624584828462e7 0.0
2.1997624584828462e7 2.607354943353933e6 0.0
0.0 0.0 0.0

-1.1284749008260962e7 1.4885515393173756e7 0.0
1.4885515393173756e7 4.274054935218557e6 0.0
0.0 0.0 0.0

-6.704847982046923e7 3.0427940815577492e7 0.0
3.0427940815577492e7 928844.3409138843 0.0
0.0 0.0 0.0

8.598677495886022e6 1.8303649656524852e7 0.0
1.8303649656524852e7 4.880733363213686e6 0.0
0.0 0.0 0.0

-1.0359514227927057e6 1.4624776748013705e7 0.0
1.4624776748013705e7 -2.5440925192285962e7 0.0
0.0 0.0 0.0

-4.048900358017289e6 2.100532497548918e7 0.0
2.100532497548918e7 7.176069548855926e6 0.0
0.0 0.0 0.0

25046.11420648545 1.7716091230403524e7 0.0
1.7716091230403524e7 -1.3337518857127994e7 0.0
0.0 0.0 0.0

3.4473112914297625e7 1.4547218046456395e7 0.0
1.4547218046456395e7 1.189989349532079e6 0.0
0.0 0.0 0.0

-4.843880510768642e6 -666691.3801292904 0.0
-666691.3801292904 7.902784465737287e6 0.0
0.0 0.0 0.0

3.7482103034729715e6 3.000070673292069e6 0.0
3.000070673292069e6 -1.2861145151370835e7 0.0
0.0 0.0 0.0

-360698.25012861565 1.8278199085303042e7 0.0
1.8278199085303042e7 -1.1420936580137325e7 0.0
0.0 0.0 0.0

-558540.2629472989 1.6767911698290419e7 0.0
1.6767911698290419e7 -1.129294619118713e6 0.0
0.0 0.0 0.0

-9.990744549882498e6 3.4925028147734962e6 0.0
3.4925028147734962e6 3.686450469786097e7 0.0
0.0 0.0 0.0

4.714403230981956e6 2.358439260610098e7 0.0
2.358439260610098e7 -5.323300251910801e6 0.0
0.0 0.0 0.0

-1.2128876011713514e7 3.629103489555305e7 0.0
3.629103489555305e7 2.984423683202274e6 0.0
0.0 0.0 0.0

8.02792378600619e6 1.893122651173399e7 0.0
1.893122651173399e7 4.0942606181208985e6 0.0
0.0 0.0 0.0

-8.231884677282657e6 -6.344169597179256e6 0.0
-6.344169597179256e6 2.1726089072324526e7 0.0
0.0 0.0 0.0

-1.9083334011843853e7 2.3993876615733434e7 0.0
2.3993876615733434e7 1.440433496471975e6 0.0
0.0 0.0 0.0

589057.4443076567 1.6458440036314748e7 0.0
1.6458440036314748e7 5.4794751361269085e6 0.0
0.0 0.0 0.0

-1.6933488972397335e7 3.802549323154858e7 0.0
3.802549323154858e7 3.620789267314639e6 0.0
0.0 0.0 0.0

-8.903029079584118e6 1.6176089386801602e7 0.0
1.6176089386801602e7 1.9887753333440937e7 0.0
0.0 0.0 0.0

1.435641950551616e6 1.7735257183680028e7 0.0
1.7735257183680028e7 -2.126548663648586e6 0.0
0.0 0.0 0.0

-5.070647531009728e6 1.5743363378279788e7 0.0
1.5743363378279788e7 -2.0396130936984792e7 0.0
0.0 0.0 0.0

-1.8920846197801323e6 1.6318763408387978e7 0.0
1.6318763408387978e7 -9.678476990499152e6 0.0
0.0 0.0 0.0

5.226043602102714e6 1.990238883724438e7 0.0
1.990238883724438e7 -4.294021383931123e6 0.0
0.0 0.0 0.0

2.4924066298799988e7 3.639851060502673e7 0.0
3.639851060502673e7 -1.2933659116381647e7 0.0
0.0 0.0 0.0

-8.4870234892174e6 -4.297475116564209e6 0.0
-4.297475116564209e6 1.6273403200689439e7 0.0
0.0 0.0 0.0

523891.36580298666 3.0436321588894673e7 0.0
3.0436321588894673e7 -2.153572963254163e6 0.0
0.0 0.0 0.0

1.64319010707723e6 2.6390518121509437e7 0.0
2.6390518121509437e7 -2.705504650976614e6 0.0
0.0 0.0 0.0

-1.0294304237250518e7 -1.46651742981392e6 0.0
-1.46651742981392e6 2.962655385057582e7 0.0
0.0 0.0 0.0

4.388849785330618e6 2.2955933725394527e6 0.0
2.2955933725394527e6 -2.781233920429168e7 0.0
0.0 0.0 0.0

-4.070714972067603e6 2.3577241500862494e7 0.0
2.3577241500862494e7 7.404214764933476e6 0.0
0.0 0.0 0.0

3.0444194891176424e6 2.0413167788840055e7 0.0
2.0413167788840055e7 1.1273282976814216e7 0.0
0.0 0.0 0.0

-4.176517759754459e6 4.547076435569723e6 0.0
4.547076435569723e6 7.0522073234763155e6 0.0
0.0 0.0 0.0

-1.0308863862843957e7 1.4449314079447258e7 0.0
1.4449314079447258e7 1.988803701972554e7 0.0
0.0 0.0 0.0

2.225260016070937e6 2.0042761759116795e7 0.0
2.0042761759116795e7 1.1895484950820755e7 0.0
0.0 0.0 0.0

-595269.3475893354 1.5590892641199492e7 0.0
1.5590892641199492e7 -1.0631637010731246e7 0.0
0.0 0.0 0.0

-2.2280974062407617e6 1.5327033006943086e7 0.0
1.5327033006943086e7 -1.4253448000484424e7 0.0
0.0 0.0 0.0

-141139.50911017973 2.4585817132687412e7 0.0
2.4585817132687412e7 -3.790468100929749e6 0.0
0.0 0.0 0.0

-5.808356679600332e6 -1.7180140183382183e6 0.0
-1.7180140183382183e6 1.0344442530408118e7 0.0
0.0 0.0 0.0

-3.278564495947182e6 1.778882359332003e7 0.0
1.778882359332003e7 3.0703687042884333e6 0.0
0.0 0.0 0.0

-9.22109024413336e6 1.6332895803185947e7 0.0
1.6332895803185947e7 2.3501206935100406e7 0.0
0.0 0.0 0.0

1.0430928022204298e6 1.3111550739805201e7 0.0
1.3111550739805201e7 -1.1878744648999326e7 0.0
0.0 0.0 0.0

13131.047659480479 2.048928139446556e7 0.0
2.048928139446556e7 -8.761847835010942e6 0.0
0.0 0.0 0.0

1.2905886156760654e6 3.2968658376586493e7 0.0
3.2968658376586493e7 -582537.0165756743 0.0
0.0 0.0 0.0

81111.80347941443 1.3415111304069988e7 0.0
1.3415111304069988e7 -2.670224153220521e7 0.0
0.0 0.0 0.0

-3.930365231159113e7 3.885250153738401e7 0.0
3.885250153738401e7 6.045539618303321e6 0.0
0.0 0.0 0.0

1.182506768991872e6 2.5555669340772466e6 0.0
2.5555669340772466e6 -2.748076366190643e6 0.0
0.0 0.0 0.0

967043.1339673162 2.7022092656131107e6 0.0
2.7022092656131107e6 -3.5533187991879834e6 0.0
0.0 0.0 0.0

3.108591541246343e6 1.8007370409809567e7 0.0
1.8007370409809567e7 2.0135028064181164e7 0.0
0.0 0.0 0.0

3.031375812332428e6 1.9433170349922925e7 0.0
1.9433170349922925e7 1.3894289118915139e7 0.0
0.0 0.0 0.0

-377890.54118390987 1.786668551322077e7 0.0
1.786668551322077e7 7.355305330623469e6 0.0
0.0 0.0 0.0

-1.0940327958422825e7 1.258191032345713e7 0.0
1.258191032345713e7 1.9765620172735658e7 0.0
0.0 0.0 0.0

4.100892180785618e6 5.16472641006629e6 0.0
5.16472641006629e6 -1.2779349382846598e6 0.0
0.0 0.0 0.0

-2.6695989509176486e6 1.938017319566821e7 0.0
1.938017319566821e7 8.789416467597362e6 0.0
0.0 0.0 0.0

-1.251177181707225e6 2.5699183925995447e7 0.0
2.5699183925995447e7 -362084.68740796816 0.0
0.0 0.0 0.0

-680803.987543324 1.4144276998187514e7 0.0
1.4144276998187514e7 -2.8028030482478462e7 0.0
0.0 0.0 0.0

6.921808945278224e6 2.0530244399929337e7 0.0
2.0530244399929337e7 9.98127495069161e6 0.0
0.0 0.0 0.0

1.145409010296968e7 1.9326468451335948e7 0.0
1.9326468451335948e7 6.97168691936832e6 0.0
0.0 0.0 0.0

-2.3490259827703256e7 3.953708522935764e7 0.0
3.953708522935764e7 5.594927232474189e6 0.0
0.0 0.0 0.0

437679.3712435216 1.77585920886335e7 0.0
1.77585920886335e7 8.171252165626188e6 0.0
0.0 0.0 0.0

-8.770441606042111e6 7.6204064024339905e6 0.0
7.6204064024339905e6 9.77710056431468e6 0.0
0.0 0.0 0.0

-1.2620079267944088e7 1.09822871057615e7 0.0
1.09822871057615e7 2.2426486010920975e7 0.0
0.0 0.0 0.0

-1.5620926872142316e6 2.5099544195924547e7 0.0
2.5099544195924547e7 -1.2636218250603385e6 0.0
0.0 0.0 0.0

4.033075286176727e6 1.9131661786587987e7 0.0
1.9131661786587987e7 1.361808295816233e7 0.0
0.0 0.0 0.0

-8.612826062976122e6 3.5280424433596954e6 0.0
3.5280424433596954e6 5.291738868057977e7 0.0
0.0 0.0 0.0

-1.1570191472695442e6 1.7840592501319777e7 0.0
1.7840592501319777e7 1.3432507006145736e7 0.0
0.0 0.0 0.0

-7.928278635598677e6 1.6228895902675543e7 0.0
1.6228895902675543e7 -2.9578811194872577e7 0.0
0.0 0.0 0.0

2.652932088675881e6 2.0020201019766405e7 0.0
2.0020201019766405e7 1.2611733100104053e7 0.0
0.0 0.0 0.0

-6.662332752512192e6 1.754092112514456e7 0.0
1.754092112514456e7 2.167747070090315e7 0.0
0.0 0.0 0.0

-349024.2152715209 1.4760934762942811e7 0.0
1.4760934762942811e7 -1.0986576833184863e7 0.0
0.0 0.0 0.0

2.3333556685354747e6 1.7488621356705204e7 0.0
1.7488621356705204e7 6.3538996270651296e7 0.0
0.0 0.0 0.0

4.797452374965394e6 2.259438714182292e7 0.0
2.259438714182292e7 -5.206191864065026e6 0.0
0.0 0.0 0.0

212626.65719596948 1.6275184641803805e7 0.0
1.6275184641803805e7 -1.621399016142466e7 0.0
0.0 0.0 0.0

-300697.8539746993 1.2201322012060057e7 0.0
1.2201322012060057e7 -5.681699508543424e6 0.0
0.0 0.0 0.0

4.021894116271155e6 3.2963671018891395e6 0.0
3.2963671018891395e6 -3.452288967715649e7 0.0
0.0 0.0 0.0

1.276670816225187e6 3.1643313639725037e7 0.0
3.1643313639725037e7 -228021.9598381662 0.0
0.0 0.0 0.0

-1.2323801307740659e7 1.1864948999618791e7 0.0
1.1864948999618791e7 2.2993418718430422e7 0.0
0.0 0.0 0.0

1.9404075869129673e6 1.6700927100070292e7 0.0
1.6700927100070292e7 1.504074446697229e7 0.0
0.0 0.0 0.0

-8.489285695624128e6 2.33971774872361e7 0.0
2.33971774872361e7 5.605893419293503e6 0.0
0.0 0.0 0.0

-3.1751160996466875e6 1.943912774865884e7 0.0
1.943912774865884e7 1.5226656259572208e6 0.0
0.0 0.0 0.0

-1.088275477504504e7 1.516419115595625e7 0.0
1.516419115595625e7 2.0005341061172746e7 0.0
0.0 0.0 0.0

2.274071381546514e6 1.0072399035215119e7 0.0
1.0072399035215119e7 -1.9411349005761705e7 0.0
0.0 0.0 0.0

-1.1283090864973295e7 3.4513815596512236e7 0.0
3.4513815596512236e7 5.957060802818591e6 0.0
0.0 0.0 0.0

1.8324319205353215e7 1.1597056500921605e7 0.0
1.1597056500921605e7 217634.26674405672 0.0
0.0 0.0 0.0

-9.947103393595675e6 -2.1337223046330884e6 0.0
-2.1337223046330884e6 1.5181927207701936e7 0.0
0.0 0.0 0.0

-5.830947556765147e6 2.6517147081011306e7 0.0
2.6517147081011306e7 5.2267392917979015e6 0.0
0.0 0.0 0.0

-2.3988358454984695e7 1.949400794982213e7 0.0
1.949400794982213e7 6.976707368568115e6 0.0
0.0 0.0 0.0

-2.799311307935073e6 1.9358753953059874e7 0.0
1.9358753953059874e7 -8.688462267410634e6 0.0
0.0 0.0 0.0

-4.446809523044383e7 2.9152426510485154e7 0.0
2.9152426510485154e7 1.1785814205346592e6 0.0
0.0 0.0 0.0

-2.9390032586434297e6 1.959923613266112e7 0.0
1.959923613266112e7 -5.002791848764148e6 0.0
0.0 0.0 0.0

-6.213790911012794e6 1.6995809367931932e7 0.0
1.6995809367931932e7 1.541116657857369e7 0.0
0.0 0.0 0.0

-1.1684074187341195e7 1.1660413602772098e7 0.0
1.1660413602772098e7 2.0646810308052957e7 0.0
0.0 0.0 0.0

-8.234863659310995e6 1.4909249241438702e7 0.0
1.4909249241438702e7 1.3775963289177382e7 0.0
0.0 0.0 0.0

-4.660475579420205e6 2.1448571177580692e7 0.0
2.1448571177580692e7 1.0384207519470764e7 0.0
0.0 0.0 0.0

-9.58671449348839e6 135006.2718085922 0.0
135006.2718085922 3.6964910257649496e7 0.0
0.0 0.0 0.0

-331537.4411215449 1.5802853216102293e7 0.0
1.5802853216102293e7 -1.0736065564981678e6 0.0
0.0 0.0 0.0

1.7216370510466266e6 1.1230819470438449e7 0.0
1.1230819470438449e7 -1.2358288614456998e7 0.0
0.0 0.0 0.0

974804.4902290395 1.4907566510798376e7 0.0
1.4907566510798376e7 -1.6788169187320698e7 0.0
0.0 0.0 0.0

-8.970883766796533e6 -4.457276452066012e6 0.0
-4.457276452066012e6 2.459129224344851e7 0.0
0.0 0.0 0.0

-1.0240455503754552e6 1.6181653994159032e7 0.0
1.6181653994159032e7 436225.1065040622 0.0
0.0 0.0 0.0

-7.261627904726599e6 2.3594206512900442e7 0.0
2.3594206512900442e7 6.479439511468932e6 0.0
0.0 0.0 0.0

259179.20730466023 1.8213400631296664e7 0.0
1.8213400631296664e7 2.094819642131478e7 0.0
0.0 0.0 0.0

-89579.99743894674 1.7704495406258915e7 0.0
1.7704495406258915e7 -1.1816663525033636e7 0.0
0.0 0.0 0.0

75213.67357653147 1.709457142437425e7 0.0
1.709457142437425e7 3.6864091124858204e6 0.0
0.0 0.0 0.0

280245.9544603721 2.958226409932249e7 0.0
2.958226409932249e7 -1.7825658741451276e6 0.0
0.0 0.0 0.0

601645.1573626576 1.847625656440251e7 0.0
1.847625656440251e7 -9.858712097960446e6 0.0
0.0 0.0 0.0

7.723839126471663e7 2.82907772590301e7 0.0
2.82907772590301e7 1.8588836615663245e6 0.0
0.0 0.0 0.0

2.7976171877171113e6 1.819493590485454e7 0.0
1.819493590485454e7 -3.7327410778185385e6 0.0
0.0 0.0 0.0

-1.3148821597166536e6 1.6217391293101164e7 0.0
1.6217391293101164e7 -1.8801896008121505e7 0.0
0.0 0.0 0.0

923256.4561360306 2.00484282816897e7 0.0
2.00484282816897e7 -8.34779197801574e6 0.0
0.0 0.0 0.0

-2.2756258994424958e7 2.5672211821131233e7 0.0
2.5672211821131233e7 26377.989484475926 0.0
0.0 0.0 0.0

-5.431175211154602e6 2.2763568993775334e7 0.0
2.2763568993775334e7 7.72352595435595e6 0.0
0.0 0.0 0.0

1.1893251247975688e7 1.9123784042593032e7 0.0
1.9123784042593032e7 2.5462066409655665e6 0.0
0.0 0.0 0.0

-1.6528913054315373e6 1.3806975912511647e7 0.0
1.3806975912511647e7 -3.3508893575457796e7 0.0
0.0 0.0 0.0

3.5652904521592287e6 1.724176270950383e7 0.0
1.724176270950383e7 2.552104907190234e7 0.0
0.0 0.0 0.0

4.248091007063134e6 5.2857763551926445e6 0.0
5.2857763551926445e6 -2.198323937788459e7 0.0
0.0 0.0 0.0

1.0876595694665266e6 2.0764268290193684e7 0.0
2.0764268290193684e7 -7.873624565565079e6 0.0
0.0 0.0 0.0

3.0796855748978406e6 4.405898922976781e6 0.0
4.405898922976781e6 -4.038298240370547e7 0.0
0.0 0.0 0.0

-59594.45311532682 2.0278993675460532e7 0.0
2.0278993675460532e7 -8.998718799837423e6 0.0
0.0 0.0 0.0

3.70690664219147e6 2.3686715389647752e7 0.0
2.3686715389647752e7 -5.279288309540107e6 0.0
0.0 0.0 0.0

-2.883352412656538e6 1.9229566709925927e7 0.0
1.9229566709925927e7 1.0391937368841383e6 0.0
0.0 0.0 0.0

-1.1456818690380992e7 2.8519965958804384e7 0.0
2.8519965958804384e7 5.447300612932847e6 0.0
0.0 0.0 0.0

-6.959831595643713e6 1.761099808552732e7 0.0
1.761099808552732e7 2.1726672591306932e7 0.0
0.0 0.0 0.0

471684.6011063368 1.6754317265987556e7 0.0
1.6754317265987556e7 8.258058037109431e6 0.0
0.0 0.0 0.0

-3.3266401877540577e7 3.1020120513057522e7 0.0
3.1020120513057522e7 7.99971995462263e6 0.0
0.0 0.0 0.0

1.1078111562246703e7 1.962247069761335e7 0.0
1.962247069761335e7 8.41455024867326e6 0.0
0.0 0.0 0.0

-5.946341500536199e6 1.1005337188681852e7 0.0
1.1005337188681852e7 5.860024466715787e6 0.0
0.0 0.0 0.0

-5.00244048966239e6 2.5977548421614356e7 0.0
2.5977548421614356e7 4.9063644559395835e6 0.0
0.0 0.0 0.0

-3.479461267542809e6 2.002755305926297e7 0.0
2.002755305926297e7 -6.60946330970052e6 0.0
0.0 0.0 0.0

1.1273521722769802e6 1.3487428259072896e7 0.0
1.3487428259072896e7 -1.2567814001345359e7 0.0
0.0 0.0 0.0

4.376045873671886e6 2.163785528819747e6 0.0
2.163785528819747e6 -2.9243918309798054e7 0.0
0.0 0.0 0.0

-1.1943502642199355e6 1.5473781468535854e7 0.0
1.5473781468535854e7 -8.465389489623968e6 0.0
0.0 0.0 0.0

3.8083539858744234e7 5.999507461109313e6 0.0
5.999507461109313e6 -2.049583310921412e6 0.0
0.0 0.0 0.0

-6.725431422548819e6 1.73663828378614e7 0.0
1.73663828378614e7 2.260342893418528e7 0.0
0.0 0.0 0.0

-6.615343856357267e6 2.560481903631538e7 0.0
2.560481903631538e7 5.9430566550257085e6 0.0
0.0 0.0 0.0

-9.056667701243445e6 -3.5678762530901125e6 0.0
-3.5678762530901125e6 3.3421780103701968e7 0.0
0.0 0.0 0.0

-2.5937523095185733e6 2.9401355356447738e7 0.0
2.9401355356447738e7 1.0379187526606764e6 0.0
0.0 0.0 0.0

-1.7593246826498475e7 2.303187157423347e7 0.0
2.303187157423347e7 1.6533438692386532e6 0.0
0.0 0.0 0.0

151889.39491826016 1.672108359933264e7 0.0
1.672108359933264e7 -1.5242400263918359e7 0.0
0.0 0.0 0.0

2.9361639339186074e6 1.7707269769003294e7 0.0
1.7707269769003294e7 1.795086777086075e7 0.0
0.0 0.0 0.0

-291357.4528355128 1.7281352399804942e7 0.0
1.7281352399804942e7 3.8815882178194625e6 0.0
0.0 0.0 0.0

-3.6898399323777333e6 2.0168592396959372e7 0.0
2.0168592396959372e7 7.755002047871155e6 0.0
0.0 0.0 0.0

664744.759595368 1.2939299366659272e7 0.0
1.2939299366659272e7 -1.3326380393917143e7 0.0
0.0 0.0 0.0

2.967140719318211e6 9.644530878408132e6 0.0
9.644530878408132e6 -1.868811018734819e7 0.0
0.0 0.0 0.0

-403271.9986410008 8.76559051448512e6 0.0
8.76559051448512e6 -5.901324745172155e6 0.0
0.0 0.0 0.0

-4.599273476619282e6 2.550065816041934e7 0.0
2.550065816041934e7 4.784148367538124e6 0.0
0.0 0.0 0.0

-882859.1404636204 1.6018247112884363e7 0.0
1.6018247112884363e7 -9.619951045984073e6 0.0
0.0 0.0 0.0

1.5014791057475027e7 1.1484723877219273e7 0.0
1.1484723877219273e7 -45449.31848452892 0.0
0.0 0.0 0.0

4.347061380854681e6 2.2402047668712353e6 0.0
2.2402047668712353e6 -2.9526561903026927e7 0.0
0.0 0.0 0.0

1.5450376348133292e6 1.718327034058079e7 0.0
1.718327034058079e7 1.8800307733632475e7 0.0
0.0 0.0 0.0

399038.2522126576 8.574479990591185e6 0.0
8.574479990591185e6 -7.66999027761432e6 0.0
0.0 0.0 0.0

749782.2896429456 2.4843097432329386e7 0.0
2.4843097432329386e7 -3.3912375075493427e6 0.0
0.0 0.0 0.0

-450850.8503488181 1.781035895837269e7 0.0
1.781035895837269e7 9.468260069264956e6 0.0
0.0 0.0 0.0

-1.1065559945359986e7 6.380544516817327e6 0.0
6.380544516817327e6 3.2979830120016556e7 0.0
0.0 0.0 0.0

-5.8196585311714895e6 1.2291183089702865e6 0.0
1.2291183089702865e6 8.725608411902081e6 0.0
0.0 0.0 0.0

3.9743668533714875e6 2.3648730313214727e7 0.0
2.3648730313214727e7 -5.24159156889502e6 0.0
0.0 0.0 0.0

-4.591145355523266e7 1.3762111471143976e7 0.0
1.3762111471143976e7 8.673092846070614e6 0.0
0.0 0.0 0.0

296723.28446509875 1.5513377466622947e7 0.0
1.5513377466622947e7 -1.8434876537579037e7 0.0
0.0 0.0 0.0

1.9990842257984332e6 1.2351321901353685e7 0.0
1.2351321901353685e7 3.504205118997166e6 0.0
0.0 0.0 0.0

-6.10799608780648e6 1.6677243833897982e7 0.0
1.6677243833897982e7 1.4769909182987755e7 0.0
0.0 0.0 0.0

-4.886745489371153e7 1.3178640747650491e7 0.0
1.3178640747650491e7 7.618780842657868e6 0.0
0.0 0.0 0.0

-1.3354035203989958e6 1.5661481470717508e7 0.0
1.5661481470717508e7 -1.9503421991893366e7 0.0
0.0 0.0 0.0

228529.4643912064 1.9649878007840432e7 0.0
1.9649878007840432e7 -9.788810732268784e6 0.0
0.0 0.0 0.0

1.5374596087005727e6 5.30944330438954e6 0.0
5.30944330438954e6 -4.685771256076821e6 0.0
0.0 0.0 0.0

-7.865371404778069e6 2.160895334998631e7 0.0
2.160895334998631e7 -6.14967419405056e6 0.0
0.0 0.0 0.0

3.9353143322130535e6 2.7018838708729316e7 0.0
2.7018838708729316e7 -4.2451536939627025e6 0.0
0.0 0.0 0.0

-2.3021665877733068e6 2.711090676846393e7 0.0
2.711090676846393e7 735407.4946508083 0.0
0.0 0.0 0.0

-3.942436760103737e6 1.984047795628713e7 0.0
1.984047795628713e7 4.255488276931668e6 0.0
0.0 0.0 0.0

-1.0788195293704718e7 1.4524337049079819e7 0.0
1.4524337049079819e7 2.4547426086776312e7 0.0
0.0 0.0 0.0

-4.312749449215139e6 1.996075140112904e7 0.0
1.996075140112904e7 1.3197742112555327e7 0.0
0.0 0.0 0.0

-2.4576570861695292e6 2.8717657921339553e7 0.0
2.8717657921339553e7 972249.4063497125 0.0
0.0 0.0 0.0

1.2679186555340588e6 1.1092928777950855e7 0.0
1.1092928777950855e7 -1.3904088713923078e7 0.0
0.0 0.0 0.0

-2.531920349037329e6 2.8199745125326276e7 0.0
2.8199745125326276e7 839107.60743814 0.0
0.0 0.0 0.0

3.2317471131329667e6 1.955119222105041e7 0.0
1.955119222105041e7 1.2915607305796986e7 0.0
0.0 0.0 0.0

-1.1923448198680906e7 1.2003630446441326e7 0.0
1.2003630446441326e7 2.3850527271272134e7 0.0
0.0 0.0 0.0

3.8522355059269965e6 3.413050732668921e6 0.0
3.413050732668921e6 -3.0659288627461597e7 0.0
0.0 0.0 0.0

-8.513806027221743e6 2.3248360846257005e7 0.0
2.3248360846257005e7 5.917234646060795e6 0.0
0.0 0.0 0.0

-1.7827028112771718e6 2.2610686937777393e7 0.0
2.2610686937777393e7 -3.6645165694882465e6 0.0
0.0 0.0 0.0

-736776.5395047626 2.2476872370880567e7 0.0
2.2476872370880567e7 -4.451381909221072e6 0.0
0.0 0.0 0.0

-6.297951423338797e7 3.922277334763855e7 0.0
3.922277334763855e7 -2.0838912622964326e7 0.0
0.0 0.0 0.0

437346.88221497927 1.7292852915424533e7 0.0
1.7292852915424533e7 -1.4310283520540377e7 0.0
0.0 0.0 0.0

-1.3800359292993676e6 2.4741401800574113e7 0.0
2.4741401800574113e7 -616949.5860925989 0.0
0.0 0.0 0.0

-6.642780551795769e6 1.760520626929024e7 0.0
1.760520626929024e7 1.4353977499175424e7 0.0
0.0 0.0 0.0

-2.634136192804783e7 2.0776116626895633e7 0.0
2.0776116626895633e7 7.489343558730593e6 0.0
0.0 0.0 0.0

699482.8756456975 1.6987240511292063e7 0.0
1.6987240511292063e7 231235.75212530716 0.0
0.0 0.0 0.0

862495.0174219911 1.843443565298712e7 0.0
1.843443565298712e7 1.422209998949353e7 0.0
0.0 0.0 0.0

3.9660107700614054e6 1.8632435943457345e6 0.0
1.8632435943457345e6 -3.698088753229242e7 0.0
0.0 0.0 0.0

-1.692763470319545e7 3.2839471201704577e7 0.0
3.2839471201704577e7 8.08123588389473e6 0.0
0.0 0.0 0.0

-9.20374597576376e6 -2.014550545890896e6 0.0
-2.014550545890896e6 3.4282518461241685e7 0.0
0.0 0.0 0.0

-9.291809789681917e6 -406983.56468222797 0.0
-406983.56468222797 4.010223352830712e7 0.0
0.0 0.0 0.0

-4.781314065177734e6 334987.5554787039 0.0
334987.5554787039 8.103618848310046e6 0.0
0.0 0.0 0.0

-1.102352465222165e7 1.2724803783489835e7 0.0
1.2724803783489835e7 2.70117828651173e7 0.0
0.0 0.0 0.0

360702.23793571535 1.631437725784585e7 0.0
1.631437725784585e7 1.0385641324001485e7 0.0
0.0 0.0 0.0

328190.6911718622 1.4846090562009264e7 0.0
1.4846090562009264e7 -2.0966956385867074e7 0.0
0.0 0.0 0.0

-3.499102662549705e7 4.0125046088724814e7 0.0
4.0125046088724814e7 7.994376982209232e6 0.0
0.0 0.0 0.0

-1.1595789582760299e7 1.2736242087879093e7 0.0
1.2736242087879093e7 2.4272892245356236e7 0.0
0.0 0.0 0.0

-1.785847330237221e6 1.3482911845615732e7 0.0
1.3482911845615732e7 -3.500398395804085e7 0.0
0.0 0.0 0.0

-1.714835384960647e7 2.269985622582957e7 0.0
2.269985622582957e7 1.8315970563700637e6 0.0
0.0 0.0 0.0

-8.784292122526985e6 -761553.3652747071 0.0
-761553.3652747071 4.118698778245547e7 0.0
0.0 0.0 0.0

85560.9774244409 1.6410003074117972e7 0.0
1.6410003074117972e7 -1.3791791589538127e7 0.0
0.0 0.0 0.0

-5.840460672036633e6 1.6036280459979609e7 0.0
1.6036280459979609e7 -3.883014971288816e7 0.0
0.0 0.0 0.0

-2.0631780183607433e6 1.8859197867289804e7 0.0
1.8859197867289804e7 -6.071533064233931e6 0.0
0.0 0.0 0.0

-1.5714305219190624e7 2.1211008373613145e7 0.0
2.1211008373613145e7 2.4953867743807333e6 0.0
0.0 0.0 0.0

3.753978779650024e7 2.280142420824683e7 0.0
2.280142420824683e7 7.42459038489272e6 0.0
0.0 0.0 0.0

-1.158878638575898e6 1.367331017611002e7 0.0
1.367331017611002e7 -2.9318270662637525e6 0.0
0.0 0.0 0.0

1.0919847423419477e6 1.5291768070071595e7 0.0
1.5291768070071595e7 -1.551804940537703e7 0.0
0.0 0.0 0.0

-1.8843060290632977e6 1.5231441654254632e7 0.0
1.5231441654254632e7 -1.2039605156339275e7 0.0
0.0 0.0 0.0

4.0406508049320076e6 1.9636293396853912e6 0.0
1.9636293396853912e6 -3.727367573235121e7 0.0
0.0 0.0 0.0

-332904.4337309969 2.404454024594104e7 0.0
2.404454024594104e7 -3.1074911713437284e6 0.0
0.0 0.0 0.0

-2.13639134760515e6 1.5289977158817997e7 0.0
1.5289977158817997e7 -2.1108851147379667e7 0.0
0.0 0.0 0.0

519840.5644227462 1.874377187885482e7 0.0
1.874377187885482e7 -1.0280616862452723e7 0.0
0.0 0.0 0.0

-490305.24020221306 1.7069890337128386e7 0.0
1.7069890337128386e7 1.4650998383781863e6 0.0
0.0 0.0 0.0

-5.261318850807978e6 1.0888541946046429e7 0.0
1.0888541946046429e7 8.335151807283984e6 0.0
0.0 0.0 0.0

-4.099472690523372e6 1.98977999137365e7 0.0
1.98977999137365e7 7.336178007191068e6 0.0
0.0 0.0 0.0

-2.283073391954609e6 1.7889518463848073e7 0.0
1.7889518463848073e7 2.201145892646119e7 0.0
0.0 0.0 0.0

4.536521844306493e6 2.5594238077453095e6 0.0
2.5594238077453095e6 -2.4562882733285535e7 0.0
0.0 0.0 0.0

-1.562309928116974e7 1.2132710322407365e7 0.0
1.2132710322407365e7 5.331561648591075e6 0.0
0.0 0.0 0.0

3.6835137286842777e6 2.0486735636025134e7 0.0
2.0486735636025134e7 1.1929304818535674e7 0.0
0.0 0.0 0.0

-959457.331538456 1.629743376765416e7 0.0
1.629743376765416e7 -1.486413602314424e7 0.0
0.0 0.0 0.0

5.916199161962578e7 9.191415292248046e6 0.0
9.191415292248046e6 -731726.9906571992 0.0
0.0 0.0 0.0

585169.2194539206 1.5584728907298328e7 0.0
1.5584728907298328e7 -1.8499390622905992e7 0.0
0.0 0.0 0.0

-1.017223144595894e6 2.3152037396842673e7 0.0
2.3152037396842673e7 -4.41425065172108e6 0.0
0.0 0.0 0.0

-3.2258083831778727e6 2.0682541967862114e7 0.0
2.0682541967862114e7 -210818.68413143 0.0
0.0 0.0 0.0

4.266321485159295e6 1.75457210080617e7 0.0
1.75457210080617e7 4.99036823961018e7 0.0
0.0 0.0 0.0

-1.1088332040902806e7 1.1552071043913016e7 0.0
1.1552071043913016e7 2.835453262119734e7 0.0
0.0 0.0 0.0

-8.929881600151142e6 -4.0278891567390854e6 0.0
-4.0278891567390854e6 3.305587219021979e7 0.0
0.0 0.0 0.0

-1.1069577499571571e7 4.877583862601249e6 0.0
4.877583862601249e6 3.406331151876749e7 0.0
0.0 0.0 0.0

-2.7284698391827834e6 2.6386499461865734e7 0.0
2.6386499461865734e7 1.2365850106821563e6 0.0
0.0 0.0 0.0

2.2598042244334426e6 1.0865572348829549e7 0.0
1.0865572348829549e7 -2.029104354165531e7 0.0
0.0 0.0 0.0

-3.8588653811189793e6 2.101087149091575e7 0.0
2.101087149091575e7 9.874292318528848e6 0.0
0.0 0.0 0.0

342805.92395624984 1.7726060667750113e7 0.0
1.7726060667750113e7 -1.3377338029306173e7 0.0
0.0 0.0 0.0

-7.364656644765579e6 1.5948687705461625e7 0.0
1.5948687705461625e7 1.327712392450643e7 0.0
0.0 0.0 0.0

-4.954518383229956e6 2.3068407926092897e7 0.0
2.3068407926092897e7 7.926792597324798e6 0.0
0.0 0.0 0.0

6.110550264005081e6 2.2181369811482172e7 0.0
2.2181369811482172e7 -4.903086077381434e6 0.0
0.0 0.0 0.0

-5.002001549376939e6 1.946467447923704e7 0.0
1.946467447923704e7 1.456299498943543e7 0.0
0.0 0.0 0.0

-4.0108813542379397e6 2.0321090052926347e7 0.0
2.0321090052926347e7 1.10572055176877e7 0.0
0.0 0.0 0.0

-2.773090719766368e6 1.5995617148974622e7 0.0
1.5995617148974622e7 -1.3157448241771434e7 0.0
0.0 0.0 0.0

-1.2187363760843033e7 1.2690576521853257e7 0.0
1.2690576521853257e7 2.2229181516898185e7 0.0
0.0 0.0 0.0

-2.4332480606404743e6 2.6408597061818454e7 0.0
2.6408597061818454e7 2.23600708416086e6 0.0
0.0 0.0 0.0

3.842324701731477e6 4.808906039929356e6 0.0
4.808906039929356e6 -2.3354048589896e7 0.0
0.0 0.0 0.0

-8.249352972319376e6 2.0657264509782447e6 0.0
2.0657264509782447e6 5.196326115273285e7 0.0
0.0 0.0 0.0

-1.0744053899675205e6 1.82088252607639e7 0.0
1.82088252607639e7 -7.2724858818791825e6 0.0
0.0 0.0 0.0

-2.737960216521939e6 2.6903629612878922e7 0.0
2.6903629612878922e7 1.3439826551162454e6 0.0
0.0 0.0 0.0

1.775945423756105e6 1.2584051863289334e7 0.0
1.2584051863289334e7 -2.2856997319446467e7 0.0
0.0 0.0 0.0

-941252.4129219234 2.4225602409314454e7 0.0
2.4225602409314454e7 -3.3959168700876525e6 0.0
0.0 0.0 0.0

2.508628971618374e6 9.467080080870269e6 0.0
9.467080080870269e6 -2.0301997843371406e7 0.0
0.0 0.0 0.0

-1.1899194459490914e7 1.0983310252678448e7 0.0
1.0983310252678448e7 2.4924570346617054e7 0.0
0.0 0.0 0.0

-5.222468461867724e7 3.714186315586731e7 0.0
3.714186315586731e7 1.0060899759087563e7 0.0
0.0 0.0 0.0

-1.1789070289901307e7 2.2445049372117247e7 0.0
2.2445049372117247e7 38120.71804838115 0.0
0.0 0.0 0.0

-4.023190442914011e6 2.099628396855222e7 0.0
2.099628396855222e7 1.0887688695966197e7 0.0
0.0 0.0 0.0

-6.0109950246562045e6 -7.025242729976856e6 0.0
-7.025242729976856e6 1.3710853999002121e7 0.0
0.0 0.0 0.0

-1.4182784824566344e7 2.131359627887987e7 0.0
2.131359627887987e7 -1.715328407695027e6 0.0
0.0 0.0 0.0

-6.330497880712728e6 2.357013544457663e7 0.0
2.357013544457663e7 7.046395133510036e6 0.0
0.0 0.0 0.0

4.09063433037024e6 3.224470990469237e6 0.0
3.224470990469237e6 -3.134653698387968e7 0.0
0.0 0.0 0.0

-7.646518631752671e6 1.4623725279218026e7 0.0
1.4623725279218026e7 1.6003171947628621e7 0.0
0.0 0.0 0.0

-1.1066800276323564e7 1.317889412119339e7 0.0
1.317889412119339e7 2.032891478691049e7 0.0
0.0 0.0 0.0

2.2837170835267724e6 2.9922612224940017e7 0.0
2.9922612224940017e7 -1.3702799928961692e6 0.0
0.0 0.0 0.0

-1.122470784603364e7 217239.49617690238 0.0
217239.49617690238 1.7186042334363542e7 0.0
0.0 0.0 0.0

-1.1793428655345444e7 1.368830564989183e7 0.0
1.368830564989183e7 2.291424298356018e7 0.0
0.0 0.0 0.0

-1.4661663804217763e6 2.739354461399575e7 0.0
2.739354461399575e7 1.1641106055277102e6 0.0
0.0 0.0 0.0

-8.958467892495913e6 -322914.22549950687 0.0
-322914.22549950687 4.2855174532994404e7 0.0
0.0 0.0 0.0

-7.190835371836992e6 -4.524838444890847e6 0.0
-4.524838444890847e6 1.6443881878630439e7 0.0
0.0 0.0 0.0

3.4112876276126374e6 7.116940822122785e6 0.0
7.116940822122785e6 -2.22673380059517e7 0.0
0.0 0.0 0.0

-3.841794121796473e6 2.0207660991589103e7 0.0
2.0207660991589103e7 8.312113103149059e6 0.0
0.0 0.0 0.0

-1.1079248856957208e7 1.343758232991488e7 0.0
1.343758232991488e7 2.4976246286010753e7 0.0
0.0 0.0 0.0

-60706.926127066836 1.7259488162776466e7 0.0
1.7259488162776466e7 -1.308423905946574e7 0.0
0.0 0.0 0.0

711308.040447698 1.6511710544316396e7 0.0
1.6511710544316396e7 -1.3790951261353377e7 0.0
0.0 0.0 0.0

2.333508089781926e6 1.0611546870724833e7 0.0
1.0611546870724833e7 -2.1620856383248936e7 0.0
0.0 0.0 0.0

359285.92452819366 1.5181430531429812e7 0.0
1.5181430531429812e7 -1.9730881387857273e7 0.0
0.0 0.0 0.0

465202.59425244364 1.719694227645518e7 0.0
1.719694227645518e7 6.867609603900982e6 0.0
0.0 0.0 0.0

-1.0991856597402092e7 1.4543484810333045e7 0.0
1.4543484810333045e7 2.3794095130944464e7 0.0
0.0 0.0 0.0

-840929.0193487641 2.3598388212452777e7 0.0
2.3598388212452777e7 -4.240210609261593e6 0.0
0.0 0.0 0.0

-4.924355554695452e6 2.5382034846896008e7 0.0
2.5382034846896008e7 5.446850838116307e6 0.0
0.0 0.0 0.0

-1.9937494953446952e6 2.667647873646852e7 0.0
2.667647873646852e7 1.6942962659516297e6 0.0
0.0 0.0 0.0

1.1861145872270737e7 2.2244116954371724e7 0.0
2.2244116954371724e7 6.0582762219352655e7 0.0
0.0 0.0 0.0

-3.37396125229288e6 2.054051125489564e7 0.0
2.054051125489564e7 6.9840339208066305e6 0.0
0.0 0.0 0.0

917222.2120347824 1.5769603058663849e7 0.0
1.5769603058663849e7 -1.4525239406856326e7 0.0
0.0 0.0 0.0

-323637.20814578515 1.5808705063505277e7 0.0
1.5808705063505277e7 -1.842678003747376e7 0.0
0.0 0.0 0.0

1.0339455287839463e6 1.5544826741644641e7 0.0
1.5544826741644641e7 -1.5808937582969535e7 0.0
0.0 0.0 0.0

-148615.82745995896 2.610421010716759e7 0.0
2.610421010716759e7 -1.4941356846424527e6 0.0
0.0 0.0 0.0

-4.0552358977911323e6 1.9614236212143656e7 0.0
1.9614236212143656e7 6.410804781269357e6 0.0
0.0 0.0 0.0

-154406.23130628315 1.6368127518538667e7 0.0
1.6368127518538667e7 2.438847683332152e6 0.0
0.0 0.0 0.0

-547759.0565544683 1.6608769484633384e7 0.0
1.6608769484633384e7 -1.4351995214953769e7 0.0
0.0 0.0 0.0

-6.330384761444699e6 1.1481143919533627e7 0.0
1.1481143919533627e7 7.324184083757377e6 0.0
0.0 0.0 0.0

2.4886389536674814e6 3.437786211914447e7 0.0
3.437786211914447e7 -4.617623632238108e6 0.0
0.0 0.0 0.0

3.1422392892946675e6 3.9102278533483665e6 0.0
3.9102278533483665e6 -4.419933888742112e7 0.0
0.0 0.0 0.0

8.002248106164628e7 3.1102362978945374e7 0.0
3.1102362978945374e7 1.74052817268947e7 0.0
0.0 0.0 0.0

3.3758445229508474e7 3.3674573640200876e7 0.0
3.3674573640200876e7 -1.841789173216487e7 0.0
0.0 0.0 0.0

-2.204636183909728e6 1.8186007230380185e7 0.0
1.8186007230380185e7 1.5223311336699735e7 0.0
0.0 0.0 0.0

995412.9058200163 1.764866313907238e7 0.0
1.764866313907238e7 8.837423873658504e6 0.0
0.0 0.0 0.0

-2.2019210444974355e7 2.2997409509471767e7 0.0
2.2997409509471767e7 942283.6840511402 0.0
0.0 0.0 0.0

-5.246488799185101e7 2.5898033614547536e7 0.0
2.5898033614547536e7 2.9784027886267602e6 0.0
0.0 0.0 0.0

-7.229957686034962e6 1.1521189269042125e7 0.0
1.1521189269042125e7 1.2394951846306514e7 0.0
0.0 0.0 0.0

-1.5018514972236366e6 2.325319472546097e7 0.0
2.325319472546097e7 -1.7181032181936912e6 0.0
0.0 0.0 0.0

1.1894815491219182e6 1.4781637372732151e7 0.0
1.4781637372732151e7 -1.6484984405501833e7 0.0
0.0 0.0 0.0

2.686215556353448e6 7.2425590092953695e6 0.0
7.2425590092953695e6 -4.029407625400681e7 0.0
0.0 0.0 0.0

701836.1140726348 1.497255369915248e7 0.0
1.497255369915248e7 -1.6783619270168107e7 0.0
0.0 0.0 0.0

-1.2502184362615924e6 1.3494530230371773e7 0.0
1.3494530230371773e7 -3.1278097530117225e7 0.0
0.0 0.0 0.0

-1.156349160613877e7 1.3282788980832333e7 0.0
1.3282788980832333e7 1.840038531992195e7 0.0
0.0 0.0 0.0

-716201.2679066602 1.767849015321356e7 0.0
1.767849015321356e7 2.0119986465361297e7 0.0
0.0 0.0 0.0

50456.063058724394 1.6108661222476372e7 0.0
1.6108661222476372e7 6.148646795122081e6 0.0
0.0 0.0 0.0

-1.057809147171943e7 6.2009633675527405e6 0.0
6.2009633675527405e6 6.068681201452449e6 0.0
0.0 0.0 0.0

-1.0976434162065148e7 3.4580051689467207e6 0.0
3.4580051689467207e6 3.3537595466087054e7 0.0
0.0 0.0 0.0

-3.341358741494155e6 2.3321450351015586e7 0.0
2.3321450351015586e7 5.518859797316516e6 0.0
0.0 0.0 0.0

-1.9054874081932465e6 1.8120103454576444e7 0.0
1.8120103454576444e7 2.2344102135549515e7 0.0
0.0 0.0 0.0

-5.864739965130653e6 1.634547922827259e7 0.0
1.634547922827259e7 1.3883947805091217e7 0.0
0.0 0.0 0.0

-4.26383320548713e6 2.9353152267894996e6 0.0
2.9353152267894996e6 3.278550568392872e6 0.0
0.0 0.0 0.0

-6.07846566336593e6 1.1378831151938062e7 0.0
1.1378831151938062e7 5.406715079806378e7 0.0
0.0 0.0 0.0

-3.0629439990706095e6 1.8888941079501342e7 0.0
1.8888941079501342e7 1.7953393687524663e6 0.0
0.0 0.0 0.0

-735776.7098992508 2.2974067802688666e7 0.0
2.2974067802688666e7 -5.10109687924728e6 0.0
0.0 0.0 0.0

-1.9028610010500904e6 1.7683458998982694e7 0.0
1.7683458998982694e7 2.2878758803388774e7 0.0
0.0 0.0 0.0

-5.795609907533307e6 1.1397799325833684e7 0.0
1.1397799325833684e7 9.69832132581431e6 0.0
0.0 0.0 0.0

4.236720008712612e6 2.2767130409367323e7 0.0
2.2767130409367323e7 -5.45828825531392e6 0.0
0.0 0.0 0.0

-6.604769523578953e6 3.970065827037506e6 0.0
3.970065827037506e6 5.944146904977249e7 0.0
0.0 0.0 0.0

4.544704881987786e6 2.1024851949269906e7 0.0
2.1024851949269906e7 -5.305766726747956e6 0.0
0.0 0.0 0.0

-2.425748331777312e6 2.6887729892940704e7 0.0
2.6887729892940704e7 2.3840342260856833e6 0.0
0.0 0.0 0.0

-3.87858674354837e6 1.489715329307556e7 0.0
1.489715329307556e7 -1.890547982112144e7 0.0
0.0 0.0 0.0

-4.804425763088207e6 1.8928171621921856e7 0.0
1.8928171621921856e7 1.537587106478559e7 0.0
0.0 0.0 0.0

-1.1817932163620356e7 1.150833436984066e7 0.0
1.150833436984066e7 2.5747621698556706e7 0.0
0.0 0.0 0.0

1.6755676644175027e6 2.564050143468816e7 0.0
2.564050143468816e7 -3.4166370001369426e6 0.0
0.0 0.0 0.0

2.9234617960571996e6 5.403548967166842e6 0.0
5.403548967166842e6 -9.430334418371262e6 0.0
0.0 0.0 0.0

-1.3577206957426893e6 3.2352991362473063e7 0.0
3.2352991362473063e7 -1.1093448927129668e6 0.0
0.0 0.0 0.0

2.5379886075040335e6 1.9146288624981668e7 0.0
1.9146288624981668e7 6.347385757030166e6 0.0
0.0 0.0 0.0

-1.6593634999976961e6 2.1450308800440796e7 0.0
2.1450308800440796e7 -3.3847783709190977e6 0.0
0.0 0.0 0.0

3.493293179545652e6 5.339820417645383e6 0.0
5.339820417645383e6 -3.1159725761980437e7 0.0
0.0 0.0 0.0

-1.598815246662447e6 1.8906499994178094e7 0.0
1.8906499994178094e7 -8.348348424015473e6 0.0
0.0 0.0 0.0

4.490594463256124e6 2.0216475236687157e7 0.0
2.0216475236687157e7 1.211492701118114e7 0.0
0.0 0.0 0.0

-2.0837171501735458e6 2.519734871886899e7 0.0
2.519734871886899e7 1.349916097806217e6 0.0
0.0 0.0 0.0

2.339097305964088e6 1.807569915468474e7 0.0
1.807569915468474e7 2.2478262566536013e7 0.0
0.0 0.0 0.0

-2.1879366581905615e6 2.0880665325115877e6 0.0
2.0880665325115877e6 4.576441437912793e6 0.0
0.0 0.0 0.0

-3.49833530512766e6 1.710896351352396e7 0.0
1.710896351352396e7 2.735056274268806e7 0.0
0.0 0.0 0.0

-6.538885710509993e6 2.1654953908008963e7 0.0
2.1654953908008963e7 4.326369704035446e6 0.0
0.0 0.0 0.0

4.789001392766245e6 2.1735811919684652e7 0.0
2.1735811919684652e7 -5.281389870480309e6 0.0
0.0 0.0 0.0

1.1558025407791059e6 2.065618597749573e7 0.0
2.065618597749573e7 -7.693002617719105e6 0.0
0.0 0.0 0.0

4.426153973000496e6 2.683530767013072e7 0.0
2.683530767013072e7 -4.205315343540292e6 0.0
0.0 0.0 0.0

212899.6879303716 1.5084657182524446e7 0.0
1.5084657182524446e7 4.204094040568611e6 0.0
0.0 0.0 0.0

-4.221114326693811e6 2.1660985576315004e7 0.0
2.1660985576315004e7 9.95682981502579e6 0.0
0.0 0.0 0.0

1.7017312365453145e6 2.767594174868035e7 0.0
2.767594174868035e7 -3.292324180859194e6 0.0
0.0 0.0 0.0

-5.806103040645097e6 1.5572674995367622e7 0.0
1.5572674995367622e7 -3.853860028316659e7 0.0
0.0 0.0 0.0

-7.913777235596452e6 9.138959277124763e6 0.0
9.138959277124763e6 9.663558456012731e6 0.0
0.0 0.0 0.0

106611.51449501188 1.6921678370035004e7 0.0
1.6921678370035004e7 7.718292436704133e6 0.0
0.0 0.0 0.0

1.7776245154839684e6 2.6293294138261706e7 0.0
2.6293294138261706e7 -3.970799943388877e6 0.0
0.0 0.0 0.0

-753999.6042007403 1.6989198876922715e7 0.0
1.6989198876922715e7 -1.4852121573505655e7 0.0
0.0 0.0 0.0

4.417051457761315e6 3.7258909292389997e6 0.0
3.7258909292389997e6 -2.2143118267514803e7 0.0
0.0 0.0 0.0

-7.61879608946681e6 -792178.4082518406 0.0
-792178.4082518406 5.485492447724005e7 0.0
0.0 0.0 0.0

1.54984502602869e6 1.2646264529118866e7 0.0
1.2646264529118866e7 -2.4261518452647574e7 0.0
0.0 0.0 0.0

731230.7078760653 1.841836557195706e7 0.0
1.841836557195706e7 1.022259466472139e7 0.0
0.0 0.0 0.0

-1.0091712120557718e7 1.3972058308150958e7 0.0
1.3972058308150958e7 1.9438954531376027e7 0.0
0.0 0.0 0.0

5.397327246867911e6 2.1466970873711985e7 0.0
2.1466970873711985e7 -4.843870242396982e6 0.0
0.0 0.0 0.0

3.405565459141778e6 5.847446683026768e6 0.0
5.847446683026768e6 -1.89069888768652e7 0.0
0.0 0.0 0.0

2.531739110017555e6 1.8662650106857255e7 0.0
1.8662650106857255e7 -3.0756921775879445e6 0.0
0.0 0.0 0.0

4.631518245379634e6 2.075354572004987e7 0.0
2.075354572004987e7 1.114769269174495e7 0.0
0.0 0.0 0.0

6.712746783708747e6 3.3694449513202414e7 0.0
3.3694449513202414e7 -7.080259463913309e6 0.0
0.0 0.0 0.0

1.3541358129656292e6 2.036429236977417e7 0.0
2.036429236977417e7 -7.870246184357761e6 0.0
0.0 0.0 0.0

-623637.3595738932 1.676541206326043e7 0.0
1.676541206326043e7 3.656004453487557e7 0.0
0.0 0.0 0.0

4.5135062866064105e6 2.319626144466496e6 0.0
2.319626144466496e6 -2.80560469652094e7 0.0
0.0 0.0 0.0

-519487.7891261006 2.7041298411191806e7 0.0
2.7041298411191806e7 -1.6646215680736615e6 0.0
0.0 0.0 0.0

3.706307209540562e6 1.787578356057606e7 0.0
1.787578356057606e7 2.996591147675731e6 0.0
0.0 0.0 0.0

-5.82164630963359e7 1.627388156126043e7 0.0
1.627388156126043e7 5.543297770472929e6 0.0
0.0 0.0 0.0

-5.869867929659521e6 2.3416938457728922e7 0.0
2.3416938457728922e7 7.522942324111266e6 0.0
0.0 0.0 0.0

-6.819838984119147e6 8.369134014508682e6 0.0
8.369134014508682e6 1.0949841334754217e7 0.0
0.0 0.0 0.0

342493.1260831868 1.5163341514519183e7 0.0
1.5163341514519183e7 -2.1042747996780515e7 0.0
0.0 0.0 0.0

-2.794713683456691e6 1.829449903085206e7 0.0
1.829449903085206e7 1.3365451697670346e7 0.0
0.0 0.0 0.0

-1.9609039439523136e6 1.5021996088883696e7 0.0
1.5021996088883696e7 -2.7574164687418196e7 0.0
0.0 0.0 0.0

4.178038353715474e6 2.93493000638945e6 0.0
2.93493000638945e6 -3.624252789695716e7 0.0
0.0 0.0 0.0

4.409138464902961e7 1.6576068337506443e7 0.0
1.6576068337506443e7 2.88847356173232e6 0.0
0.0 0.0 0.0

-1.0463255194385839e8 4.065929341671164e7 0.0
4.065929341671164e7 -1.2732143382474195e7 0.0
0.0 0.0 0.0

1.0031959363660552e7 1.9027601289777935e7 0.0
1.9027601289777935e7 7.184678024806995e6 0.0
0.0 0.0 0.0

-556242.977558838 2.0937328657661166e7 0.0
2.0937328657661166e7 -7.801466212239105e6 0.0
0.0 0.0 0.0

-4.1378060324703557e6 1.977802638501714e7 0.0
1.977802638501714e7 1.2684108483952768e7 0.0
0.0 0.0 0.0

4.220595729724505e6 3.742744838756866e6 0.0
3.742744838756866e6 -2.1739990634007458e7 0.0
0.0 0.0 0.0

-6.67982015042642e6 2.1764090408310484e7 0.0
2.1764090408310484e7 6.09328323707726e6 0.0
0.0 0.0 0.0

992947.7377201739 2.771338840465565e7 0.0
2.771338840465565e7 -1.3714285745728102e6 0.0
0.0 0.0 0.0

-2.1798097496587066e6 1.5911075982559575e7 0.0
1.5911075982559575e7 -2.1448993122798685e7 0.0
0.0 0.0 0.0

-1.9715986634472774e6 2.114952847929607e7 0.0
2.114952847929607e7 -4.588232579117624e6 0.0
0.0 0.0 0.0

2.1361394175924505e6 5.365359707480378e6 0.0
5.365359707480378e6 -6.606479738373649e6 0.0
0.0 0.0 0.0

7.276709998635734e6 2.036240014888501e7 0.0
2.036240014888501e7 1.1235666304456294e7 0.0
0.0 0.0 0.0

-9.062302225470278e6 2.0811356457411382e7 0.0
2.0811356457411382e7 -1.7227217281447651e6 0.0
0.0 0.0 0.0

292709.71051896596 1.741616149370706e7 0.0
1.741616149370706e7 -1.1912143102270808e7 0.0
0.0 0.0 0.0

-3.150735049654827e6 2.1891732426983755e7 0.0
2.1891732426983755e7 897537.7575859325 0.0
0.0 0.0 0.0

1.2970545681578424e6 1.2794067791110197e7 0.0
1.2794067791110197e7 -2.317839053938849e7 0.0
0.0 0.0 0.0

-8.824706932542522e6 -150478.46187820003 0.0
-150478.46187820003 4.387713082342217e7 0.0
0.0 0.0 0.0

511581.17166475113 1.5436142881799223e7 0.0
1.5436142881799223e7 -1.5737451533887122e7 0.0
0.0 0.0 0.0

2.78309436100384e6 1.7705868298386402e7 0.0
1.7705868298386402e7 -739169.7587640013 0.0
0.0 0.0 0.0

-1.1848569852297304e7 1.8694361090976313e7 0.0
1.8694361090976313e7 -4.918610729514686e7 0.0
0.0 0.0 0.0

3.903393070228805e6 6.450837994094781e6 0.0
6.450837994094781e6 -2.1613739513852738e7 0.0
0.0 0.0 0.0

624958.1621189769 1.6746083587435175e7 0.0
1.6746083587435175e7 -1.536454819448223e7 0.0
0.0 0.0 0.0

-4.74643607566293e6 2.272209798699818e7 0.0
2.272209798699818e7 8.40750888847982e6 0.0
0.0 0.0 0.0

-1.7419974202627558e6 2.455867949052779e7 0.0
2.455867949052779e7 -1.6784726793695912e6 0.0
0.0 0.0 0.0

-3.6573858616067865e6 2.074551922885372e7 0.0
2.074551922885372e7 9.337665237024771e6 0.0
0.0 0.0 0.0

3.572150479846852e6 1.8755237873648368e7 0.0
1.8755237873648368e7 6.938235029319337e6 0.0
0.0 0.0 0.0

-7.206098671662848e7 2.1796716632579073e7 0.0
2.1796716632579073e7 2.841981976286333e6 0.0
0.0 0.0 0.0

184152.47721647343 2.0638186791571165e6 0.0
2.0638186791571165e6 -1.572634289855351e6 0.0
0.0 0.0 0.0

-1.0058152983775842e6 1.5135238926893866e7 0.0
1.5135238926893866e7 -1.7232943807377114e6 0.0
0.0 0.0 0.0

9.43092985116901e6 1.8373297534377024e7 0.0
1.8373297534377024e7 1.353176244620412e6 0.0
0.0 0.0 0.0

-1.4503634548549359e6 2.9063526005538117e7 0.0
2.9063526005538117e7 1.4514750294631815e6 0.0
0.0 0.0 0.0

-1.2920365957894288e6 1.3716399646800058e7 0.0
1.3716399646800058e7 -3.3356660144535854e7 0.0
0.0 0.0 0.0

-2.0024427700408804e6 1.881858103173481e7 0.0
1.881858103173481e7 -6.209549610989419e6 0.0
0.0 0.0 0.0

1.7666838689770298e6 2.1466224774472706e7 0.0
2.1466224774472706e7 -6.814660064141194e6 0.0
0.0 0.0 0.0

1.1260907782547893e6 1.419941792483229e7 0.0
1.419941792483229e7 -1.3670945194986846e7 0.0
0.0 0.0 0.0

1.816910312802408e6 2.0840493609316584e7 0.0
2.0840493609316584e7 -6.85495472903701e6 0.0
0.0 0.0 0.0

-85310.33476925688 1.75705999855962e7 0.0
1.75705999855962e7 7.543423959311178e6 0.0
0.0 0.0 0.0

-1.237227204763975e6 2.435043042753433e7 0.0
2.435043042753433e7 -1.353110825062918e6 0.0
0.0 0.0 0.0

3.1443780175971044e6 9.035407459498752e6 0.0
9.035407459498752e6 -2.1118924310018092e7 0.0
0.0 0.0 0.0

4.0898937510526925e6 3.224850775183331e6 0.0
3.224850775183331e6 -3.168614935185734e7 0.0
0.0 0.0 0.0

-1.6885365718558999e6 600145.3559805802 0.0
600145.3559805802 -687736.0619286244 0.0
0.0 0.0 0.0

-8.474478577240529e6 474181.2246676248 0.0
474181.2246676248 1.5087716843571002e6 0.0
0.0 0.0 0.0

1.717258192200046e6 1.8806761630380567e7 0.0
1.8806761630380567e7 1.2455319128430575e7 0.0
0.0 0.0 0.0

1.067853358413384e6 1.6671511394718258e7 0.0
1.6671511394718258e7 9.429609497263554e6 0.0
0.0 0.0 0.0

-539852.8780819946 1.746604802273326e7 0.0
1.746604802273326e7 7.605400350032203e6 0.0
0.0 0.0 0.0

3.1167718272736724e6 5.120262603407386e6 0.0
5.120262603407386e6 -1.4453494579491306e7 0.0
0.0 0.0 0.0

2.095119817833432e6 1.9808132274826072e7 0.0
1.9808132274826072e7 -6.657194415056821e6 0.0
0.0 0.0 0.0

2.4120417710442888e6 4.341366482150036e6 0.0
4.341366482150036e6 -7.593876912948269e6 0.0
0.0 0.0 0.0

1.4148796169124502e6 2.0878263961541142e7 0.0
2.0878263961541142e7 -7.355876327304504e6 0.0
0.0 0.0 0.0

-1.0177037458613548e7 1.5267952296783395e7 0.0
1.5267952296783395e7 2.4672916834155433e7 0.0
0.0 0.0 0.0

-266052.4151747327 2.3432589155644655e7 0.0
2.3432589155644655e7 -3.9740701391330883e6 0.0
0.0 0.0 0.0

2.3097286302837655e6 2.6847745485023186e7 0.0
2.6847745485023186e7 -2.7090456592823295e6 0.0
0.0 0.0 0.0

3.3055812511567893e6 7.042580948998682e6 0.0
7.042580948998682e6 -2.2513444797164805e7 0.0
0.0 0.0 0.0

3.512456232820047e6 5.922602113471347e6 0.0
5.922602113471347e6 -2.297392920099768e7 0.0
0.0 0.0 0.0

1.1465688596620217e7 1.967765424950453e7 0.0
1.967765424950453e7 -1.397548559391553e6 0.0
0.0 0.0 0.0

-581704.977704728 1.824665818782069e7 0.0
1.824665818782069e7 1.9954491521548767e7 0.0
0.0 0.0 0.0

258803.3507474074 1.5937506523682762e7 0.0
1.5937506523682762e7 -1.476941478493455e7 0.0
0.0 0.0 0.0

-8.718828521633886e6 -3.8306784181809467e6 0.0
-3.8306784181809467e6 3.4127391742221445e7 0.0
0.0 0.0 0.0

-1.513774287410811e6 2.79155894508993e7 0.0
2.79155894508993e7 1.1930258262512353e6 0.0
0.0 0.0 0.0

-1.1412258563172527e7 1.3816555227661218e7 0.0
1.3816555227661218e7 2.326195565009609e7 0.0
0.0 0.0 0.0

-6.918029317190126e6 -3.918085347812875e6 0.0
-3.918085347812875e6 1.0969044251927152e7 0.0
0.0 0.0 0.0

-184311.1965260557 1.5773078691926148e7 0.0
1.5773078691926148e7 -9.244875220278775e6 0.0
0.0 0.0 0.0

4.204973660187574e6 3.2953615681682145e6 0.0
3.2953615681682145e6 -3.054748361549018e7 0.0
0.0 0.0 0.0

-4.233521286135964e6 2.575402170544369e7 0.0
2.575402170544369e7 5.167264233216362e6 0.0
0.0 0.0 0.0

-1.3866012251387117e6 2.095300308722242e7 0.0
2.095300308722242e7 -4.28704687776138e6 0.0
0.0 0.0 0.0

1.403852723337465e6 1.2366524514191661e7 0.0
1.2366524514191661e7 -2.44354448107006e7 0.0
0.0 0.0 0.0

1.2217125793397708e7 1.7913842441145767e7 0.0
1.7913842441145767e7 3.529588620914335e6 0.0
0.0 0.0 0.0

-4.832553435369356e6 2.4978825441947185e7 0.0
2.4978825441947185e7 6.095597141991397e6 0.0
0.0 0.0 0.0

-9.638110839223064e6 -2.7301438127936046e6 0.0
-2.7301438127936046e6 3.243432401051819e7 0.0
0.0 0.0 0.0

-8.952900211045293e6 -5.868559723651995e6 0.0
-5.868559723651995e6 2.435713290813245e7 0.0
0.0 0.0 0.0

3.855557543608745e6 1.8034350413181484e7 0.0
1.8034350413181484e7 -424673.65163974534 0.0
0.0 0.0 0.0

-204721.10125543736 2.081008365072061e7 0.0
2.081008365072061e7 -7.6033658320163945e6 0.0
0.0 0.0 0.0

6086.013975483831 2.129965257639496e7 0.0
2.129965257639496e7 -7.20059528508956e6 0.0
0.0 0.0 0.0

-7.749658726510074e6 5.734953012561789e6 0.0
5.734953012561789e6 4.868110788072129e7 0.0
0.0 0.0 0.0

3.57935397092435e6 3.1100228814332047e6 0.0
3.1100228814332047e6 -1.113199581704966e7 0.0
0.0 0.0 0.0

-6.284865053578566e6 2.072000864021219e7 0.0
2.072000864021219e7 -1.9140098913982918e6 0.0
0.0 0.0 0.0

-1.074919786792713e7 2.1188158321937785e7 0.0
2.1188158321937785e7 -6.219688489864267e6 0.0
0.0 0.0 0.0

-2.518609517342912e7 2.5522842901715714e7 0.0
2.5522842901715714e7 -560851.0687883468 0.0
0.0 0.0 0.0

-182505.21008361928 2.815831541101443e7 0.0
2.815831541101443e7 -130283.7795546237 0.0
0.0 0.0 0.0

393345.30722571135 1.6023560971119475e7 0.0
1.6023560971119475e7 510774.40068322595 0.0
0.0 0.0 0.0

-9.391958520921066e6 -2.01885939317361e6 0.0
-2.01885939317361e6 3.44173090201244e7 0.0
0.0 0.0 0.0

9.572411328530377e6 1.9461154211442657e7 0.0
1.9461154211442657e7 -1.154129649943679e6 0.0
0.0 0.0 0.0

-204275.56472141063 1.7307307683798235e7 0.0
1.7307307683798235e7 -9.760174366296211e6 0.0
0.0 0.0 0.0

-9.89271527749994e6 -2.1705315974245234e6 0.0
-2.1705315974245234e6 2.6494017373743314e7 0.0
0.0 0.0 0.0

-4.207308382675661e6 2.114207763416956e7 0.0
2.114207763416956e7 8.444747856554858e6 0.0
0.0 0.0 0.0

-4.075960020402946e6 2.2331585468821626e7 0.0
2.2331585468821626e7 7.588362319498058e6 0.0
0.0 0.0 0.0

-3.6206166089878203e6 1.4085268234291833e6 0.0
1.4085268234291833e6 3.4562827224682486e6 0.0
0.0 0.0 0.0

3.723111640909481e6 5.199850643559533e6 0.0
5.199850643559533e6 -2.3850998678407867e7 0.0
0.0 0.0 0.0

1.5143049846359044e6 8.046235694667811e6 0.0
8.046235694667811e6 -4.140483763685473e7 0.0
0.0 0.0 0.0

4.668576232831474e6 2.015351490551566e7 0.0
2.015351490551566e7 1.1501942350600403e7 0.0
0.0 0.0 0.0

2.851011895913275e6 4.4756853379360195e6 0.0
4.4756853379360195e6 -1.0069517467169074e7 0.0
0.0 0.0 0.0

1.4827953333449865e7 2.596227599291265e7 0.0
2.596227599291265e7 -8.201003963318813e6 0.0
0.0 0.0 0.0

4.396070605353462e6 4.566091484219691e6 0.0
4.566091484219691e6 -2.2717689526816238e7 0.0
0.0 0.0 0.0

4.0617521026971927e6 5.05245870087007e6 0.0
5.05245870087007e6 -1.5933012482400712e7 0.0
0.0 0.0 0.0

3.8563090747414175e6 4.8832815119916e6 0.0
4.8832815119916e6 -2.0283221355753995e7 0.0
0.0 0.0 0.0

572437.2563987635 1.6905584139842685e7 0.0
1.6905584139842685e7 2.0381988834549934e6 0.0
0.0 0.0 0.0

689782.7133670568 1.6543513027413826e7 0.0
1.6543513027413826e7 7.218739545621716e6 0.0
0.0 0.0 0.0

685327.5540869739 1.4318192108589862e7 0.0
1.4318192108589862e7 -2.2132917857795253e7 0.0
0.0 0.0 0.0

1.36480819901233e7 2.7034147172631886e7 0.0
2.7034147172631886e7 -6.836026913413956e6 0.0
0.0 0.0 0.0

-9.632702755841004e6 -3.643593339302659e6 0.0
-3.643593339302659e6 2.6237081936487447e7 0.0
0.0 0.0 0.0

-4.031199311524381e6 2.136039241365704e7 0.0
2.136039241365704e7 9.978732384547366e6 0.0
0.0 0.0 0.0

-2.3240055303584333e6 2.7645988448172823e7 0.0
2.7645988448172823e7 781674.1233495546 0.0
0.0 0.0 0.0

-586415.8853561014 2.3539364743793033e7 0.0
2.3539364743793033e7 -3.374294989177362e6 0.0
0.0 0.0 0.0

-7.348905095012567e6 -4.885741964841475e6 0.0
-4.885741964841475e6 1.7008102227256782e7 0.0
0.0 0.0 0.0

-8.471535688165944e6 -1.6755481476015549e6 0.0
-1.6755481476015549e6 1.16347722157494e7 0.0
0.0 0.0 0.0

824144.1121424977 1.8210607803727828e7 0.0
1.8210607803727828e7 1.877431723017166e7 0.0
0.0 0.0 0.0

-804494.5005076649 940058.3915342847 0.0
940058.3915342847 325813.79527075915 0.0
0.0 0.0 0.0

4.387070506322386e6 2.1810846090135563e7 0.0
2.1810846090135563e7 -5.259244437517251e6 0.0
0.0 0.0 0.0

-440483.34766044375 1.9851927180650715e7 0.0
1.9851927180650715e7 -9.200436259337805e6 0.0
0.0 0.0 0.0

467734.2151530627 1.6623583700726455e7 0.0
1.6623583700726455e7 -1.6253735737760367e7 0.0
0.0 0.0 0.0

-2.6010355443440634e6 2.0334040119567715e7 0.0
2.0334040119567715e7 398480.0405870214 0.0
0.0 0.0 0.0

-4.391994706395847e6 2.045072680189309e7 0.0
2.045072680189309e7 8.889444755383715e6 0.0
0.0 0.0 0.0

-1.1039385659372354e7 1.3769527139539698e7 0.0
1.3769527139539698e7 2.0800291285865944e7 0.0
0.0 0.0 0.0

-1.791573153445864e7 3.478729928036271e7 0.0
3.478729928036271e7 6.035111032876512e6 0.0
0.0 0.0 0.0

3.0490691017210213e6 4.408758127266309e6 0.0
4.408758127266309e6 -1.0269584898280388e7 0.0
0.0 0.0 0.0

683917.1307213726 1.6242876798533395e7 0.0
1.6242876798533395e7 -1.3578653496875213e7 0.0
0.0 0.0 0.0

3.3018990826333556e6 3.992220090201477e6 0.0
3.992220090201477e6 -4.412747869265651e7 0.0
0.0 0.0 0.0

1.4021819391402267e6 2.1280477554802917e7 0.0
2.1280477554802917e7 -7.113141464749718e6 0.0
0.0 0.0 0.0

-7.42575553732191e6 1.124364288810332e7 0.0
1.124364288810332e7 1.0421924402398992e7 0.0
0.0 0.0 0.0

-6.483424077665155e6 1.5258934654612254e7 0.0
1.5258934654612254e7 -2.7786164418962535e7 0.0
0.0 0.0 0.0

2.5289485483383294e7 1.868028661952694e7 0.0
1.868028661952694e7 5.2046045452479785e6 0.0
0.0 0.0 0.0

-8.723374994955972e6 1.4899517246210715e6 0.0
1.4899517246210715e6 1.3921107778506145e7 0.0
0.0 0.0 0.0

7.281652570825589e6 1.9352203454381455e7 0.0
1.9352203454381455e7 8.978028379680756e6 0.0
0.0 0.0 0.0

4.421112715024222e6 1.5614033135160688e7 0.0
1.5614033135160688e7 2.011859871146159e7 0.0
0.0 0.0 0.0

-5.440286892911717e6 1.557470644600743e7 0.0
1.557470644600743e7 -1.5904919562531726e7 0.0
0.0 0.0 0.0

1.7168029347900369e6 2.9349122214310147e7 0.0
2.9349122214310147e7 -2.973574909336496e6 0.0
0.0 0.0 0.0

-1.4346683039075313e6 2.097239726446529e7 0.0
2.097239726446529e7 -6.398976491276849e6 0.0
0.0 0.0 0.0

-6.984445196140976e6 1.607489529375133e7 0.0
1.607489529375133e7 1.6150230878508758e7 0.0
0.0 0.0 0.0

409167.604965698 8.0588130797463665e6 0.0
8.0588130797463665e6 -5.814520766302317e7 0.0
0.0 0.0 0.0

-8.886996988167122e6 -91622.13921074822 0.0
-91622.13921074822 1.1873210794797467e7 0.0
0.0 0.0 0.0

-855563.3064549954 1.7148938913270798e7 0.0
1.7148938913270798e7 -6.761178775507518e6 0.0
0.0 0.0 0.0

6.415652398841355e6 1.9486899219639737e7 0.0
1.9486899219639737e7 8.671482148339225e6 0.0
0.0 0.0 0.0

-1.0260941340614362e6 1.2742486483573541e7 0.0
1.2742486483573541e7 6.220785653696766e6 0.0
0.0 0.0 0.0

-4.676639999918647e6 1.981798345025082e7 0.0
1.981798345025082e7 1.3298489385648536e7 0.0
0.0 0.0 0.0

-3.222731690225124e6 2.3763485735986784e7 0.0
2.3763485735986784e7 4.721570433715906e6 0.0
0.0 0.0 0.0

-1.5746040842287406e7 3.554637306757291e7 0.0
3.554637306757291e7 7.200658016750756e6 0.0
0.0 0.0 0.0

1.2156088154425803e6 7.485091790318785e6 0.0
7.485091790318785e6 -6.142161524785495e6 0.0
0.0 0.0 0.0

-3.7160046902917065e6 2.3500685319446374e7 0.0
2.3500685319446374e7 4.329457610676995e6 0.0
0.0 0.0 0.0

-1.196702625905972e6 2.0127093696062583e7 0.0
2.0127093696062583e7 -6.459702737387352e6 0.0
0.0 0.0 0.0

1.1126849802851608e7 1.9942444317885358e7 0.0
1.9942444317885358e7 1.0152611028002674e7 0.0
0.0 0.0 0.0

-1.2390798135670763e6 2.2668509287558164e7 0.0
2.2668509287558164e7 -4.742323273910462e6 0.0
0.0 0.0 0.0

2.3743590246284544e6 4.41439405897428e6 0.0
4.41439405897428e6 -8.397245995156562e6 0.0
0.0 0.0 0.0

-188129.54465858778 1.7595985407739837e7 0.0
1.7595985407739837e7 -1.2193874735752277e7 0.0
0.0 0.0 0.0

-1.03105215641483e7 337073.87018650374 0.0
337073.87018650374 2.0238957218689702e7 0.0
0.0 0.0 0.0

4.1342397821850423e6 5.782773817471888e6 0.0
5.782773817471888e6 -2.233550285725566e7 0.0
0.0 0.0 0.0

3.090452339397058e6 4.703326184172619e6 0.0
4.703326184172619e6 -4.7752518650372066e7 0.0
0.0 0.0 0.0

1.2264834060318628e6 1.9489916026063785e7 0.0
1.9489916026063785e7 1.1191276691141695e7 0.0
0.0 0.0 0.0

383075.85893028695 1.7460178448363848e7 0.0
1.7460178448363848e7 -1.4333599291635565e7 0.0
0.0 0.0 0.0

-7.456938920384767e6 1.6324425996632986e7 0.0
1.6324425996632986e7 1.4211787349266417e7 0.0
0.0 0.0 0.0

4.432928237675897e6 2.730290429589766e6 0.0
2.730290429589766e6 -1.9378327210441276e7 0.0
0.0 0.0 0.0

1.4449821350701954e6 1.435995563699383e7 0.0
1.435995563699383e7 -1.7371113586152047e7 0.0
0.0 0.0 0.0

68566.0930636162 1.6061037620476585e7 0.0
1.6061037620476585e7 -1.7153954374618422e7 0.0
0.0 0.0 0.0

-6.699428970937875e6 1.725266185605212e7 0.0
1.725266185605212e7 1.3608804394551584e7 0.0
0.0 0.0 0.0

-2.8553933962467625e6 7.12435769404602e6 0.0
7.12435769404602e6 4.362371342728726e6 0.0
0.0 0.0 0.0

-9.38823395898224e6 -3.1117423653581077e6 0.0
-3.1117423653581077e6 2.1328413310163435e7 0.0
0.0 0.0 0.0

83301.99789355882 1.6891022320791364e7 0.0
1.6891022320791364e7 -1.493383586894116e7 0.0
0.0 0.0 0.0

-6.679451873034309e6 1.005354834207579e7 0.0
1.005354834207579e7 1.1278550625958769e7 0.0
0.0 0.0 0.0

1.0242483794895584e7 1.8589815187362604e7 0.0
1.8589815187362604e7 9.52199365832497e6 0.0
0.0 0.0 0.0

-478467.41385069303 2.0362982986250088e7 0.0
2.0362982986250088e7 -8.62743517972026e6 0.0
0.0 0.0 0.0

2.5170951227332815e6 4.391423031619573e6 0.0
4.391423031619573e6 -7.536421238053207e6 0.0
0.0 0.0 0.0

-1.0142161901216885e7 4.608909792353729e6 0.0
4.608909792353729e6 3.482374778094342e7 0.0
0.0 0.0 0.0

-2.611579923379246e6 2.541952711251771e7 0.0
2.541952711251771e7 993379.9508525693 0.0
0.0 0.0 0.0

-8.114140476072455e6 2.7088064000830308e7 0.0
2.7088064000830308e7 5.500753225272462e6 0.0
0.0 0.0 0.0

-1.0462232520695448e7 2.205721802181909e6 0.0
2.205721802181909e6 1.2806250249325994e7 0.0
0.0 0.0 0.0

-1.0329000221316315e7 -326379.3632670409 0.0
-326379.3632670409 2.7910845514930088e7 0.0
0.0 0.0 0.0

1.0497683641487015e6 1.2894484704550607e7 0.0
1.2894484704550607e7 -2.4612117442629397e7 0.0
0.0 0.0 0.0

-5.527854765776771e6 1.7782428305603564e7 0.0
1.7782428305603564e7 1.4301333443842448e7 0.0
0.0 0.0 0.0

-1.0431678092473023e7 5.861918289787327e6 0.0
5.861918289787327e6 3.523864840768085e7 0.0
0.0 0.0 0.0

-5.5490261045202404e7 1.7123154053709324e7 0.0
1.7123154053709324e7 6.87434853499224e6 0.0
0.0 0.0 0.0

1.349934717514433e6 1.21398151539467e7 0.0
1.21398151539467e7 -1.5583460660456808e7 0.0
0.0 0.0 0.0

642738.0593071735 1.6778335127449572e7 0.0
1.6778335127449572e7 116800.09760880566 0.0
0.0 0.0 0.0

4.439368968988668e6 2.227628295898693e6 0.0
2.227628295898693e6 -2.9839408270661276e7 0.0
0.0 0.0 0.0

874585.1656542174 1.821700834347289e7 0.0
1.821700834347289e7 1.3563958112712348e7 0.0
0.0 0.0 0.0

-1.1311371828029815e7 5.989179226519891e6 0.0
5.989179226519891e6 3.2317191599772543e7 0.0
0.0 0.0 0.0

1.3362568275893582e6 6.474204395887671e6 0.0
6.474204395887671e6 -7.731180899722993e6 0.0
0.0 0.0 0.0

-1.1179874475368923e6 2.0172169058666296e7 0.0
2.0172169058666296e7 -6.437058921705247e6 0.0
0.0 0.0 0.0

-2.920624302896583e6 2.27686955058613e7 0.0
2.27686955058613e7 432004.6380159579 0.0
0.0 0.0 0.0

-3.830552520152776e6 1.9731366930238992e7 0.0
1.9731366930238992e7 8.59791709275357e6 0.0
0.0 0.0 0.0

-5.73811466127407e6 2.6379711212802444e7 0.0
2.6379711212802444e7 5.089319360067379e6 0.0
0.0 0.0 0.0

-3.409644283617114e6 1.878903772691957e7 0.0
1.878903772691957e7 327289.73409346 0.0
0.0 0.0 0.0

-9.276379071010167e6 -948083.508548982 0.0
-948083.508548982 3.912354976298338e7 0.0
0.0 0.0 0.0

1.504050806440508e6 1.763590967696018e7 0.0
1.763590967696018e7 1.6716102783433724e7 0.0
0.0 0.0 0.0

888226.8437273502 1.6015219193817643e7 0.0
1.6015219193817643e7 -1.4835541094764592e7 0.0
0.0 0.0 0.0

-1.4254134998208303e7 2.4566430394015603e7 0.0
2.4566430394015603e7 -3.368947500290244e6 0.0
0.0 0.0 0.0

-5.416146141456733e6 -211416.15508204396 0.0
-211416.15508204396 6.370212306623237e6 0.0
0.0 0.0 0.0

-1.9796584938614792e6 2.720491647804245e7 0.0
2.720491647804245e7 1.8166281522466377e6 0.0
0.0 0.0 0.0

207460.9893815515 1.6190016731983464e7 0.0
1.6190016731983464e7 -1.547648906565515e6 0.0
0.0 0.0 0.0

-9.886820299937483e6 1.6001140690103259e7 0.0
1.6001140690103259e7 2.3032390618651547e7 0.0
0.0 0.0 0.0

2.7638489755275184e6 1.0778402233841602e7 0.0
1.0778402233841602e7 -2.0246262379916918e7 0.0
0.0 0.0 0.0

-1.0452235371014202e7 1.518834848444187e7 0.0
1.518834848444187e7 2.1648105535902627e7 0.0
0.0 0.0 0.0

2.1224000552648297e6 4.483474166417773e6 0.0
4.483474166417773e6 -7.264107239500778e6 0.0
0.0 0.0 0.0

3.82551502479544e6 6.956853250069026e6 0.0
6.956853250069026e6 -2.214264215217815e7 0.0
0.0 0.0 0.0

-1.684574194996797e6 1.889241384610674e7 0.0
1.889241384610674e7 -7.228183052729481e6 0.0
0.0 0.0 0.0

-3.1270124722878207e6 2.0003081119590487e7 0.0
2.0003081119590487e7 2.0740716104350854e6 0.0
0.0 0.0 0.0

-2.54023495483684e6 2.2877200547871117e7 0.0
2.2877200547871117e7 1.657616019835087e6 0.0
0.0 0.0 0.0

1.7895545683075506e6 2.0715304930946153e7 0.0
2.0715304930946153e7 -7.106435180608747e6 0.0
0.0 0.0 0.0

4.241740712545643e6 5.126775306283578e6 0.0
5.126775306283578e6 -2.0159445623052437e7 0.0
0.0 0.0 0.0

1.6002316248797006e6 4.392466884336177e6 0.0
4.392466884336177e6 -5.428633740976498e6 0.0
0.0 0.0 0.0

3.329542112631308e6 6.358906270382568e6 0.0
6.358906270382568e6 -2.3537560230543222e7 0.0
0.0 0.0 0.0

2.0764557369375653e6 6.4312933409315245e6 0.0
6.4312933409315245e6 -7.981584082112608e6 0.0
0.0 0.0 0.0

1.4607196759955525e7 1.842024196169975e7 0.0
1.842024196169975e7 7.954003233009135e6 0.0
0.0 0.0 0.0

-2.7317575832398767e6 2.994479824488949e7 0.0
2.994479824488949e7 2.589158265830214e6 0.0
0.0 0.0 0.0

-9.589575087916201e6 -2.769445610311159e6 0.0
-2.769445610311159e6 3.1139286420987442e7 0.0
0.0 0.0 0.0

2.5412056858559214e6 7.880725953104878e6 0.0
7.880725953104878e6 -3.8031271208240815e7 0.0
0.0 0.0 0.0

1.2262916469148947e6 2.13491634079941e7 0.0
2.13491634079941e7 -7.220801863638108e6 0.0
0.0 0.0 0.0

-1.4735667515427629e6 1.867055939869351e7 0.0
1.867055939869351e7 -8.513359392115908e6 0.0
0.0 0.0 0.0

2.987899866409082e6 7.2476437026504995e6 0.0
7.2476437026504995e6 -2.916230484434633e7 0.0
0.0 0.0 0.0

-5.857963646781776e6 3.002973689695257e7 0.0
3.002973689695257e7 4.798527094079747e6 0.0
0.0 0.0 0.0

5.098392001784036e6 2.0217156414222226e7 0.0
2.0217156414222226e7 1.0878620868343372e7 0.0
0.0 0.0 0.0

-3.526127936921351e7 3.3415735087521747e7 0.0
3.3415735087521747e7 8.058369705107395e6 0.0
0.0 0.0 0.0

-4.062084421367456e6 1.814042861004565e7 0.0
1.814042861004565e7 1.8446691120826162e7 0.0
0.0 0.0 0.0

2.711867565820249e6 9.892982588409603e6 0.0
9.892982588409603e6 -2.073601990976405e7 0.0
0.0 0.0 0.0

5.87914446553553e7 2.0527368687155876e7 0.0
2.0527368687155876e7 7.053580056515168e6 0.0
0.0 0.0 0.0

2.898736322166944e6 1.8939460277453702e7 0.0
1.8939460277453702e7 1.4943887427847922e7 0.0
0.0 0.0 0.0

-1.0982500122453868e7 1.398970221279463e6 0.0
1.398970221279463e6 2.1185607091146998e7 0.0
0.0 0.0 0.0

782968.9978871807 1.7005349328169715e7 0.0
1.7005349328169715e7 7.62277522788243e6 0.0
0.0 0.0 0.0

-1.721371397557483e6 1.5475884347907474e7 0.0
1.5475884347907474e7 -2.0784138562431578e7 0.0
0.0 0.0 0.0

5.919380358483503e6 2.136618257892196e7 0.0
2.136618257892196e7 -4.844941535192734e6 0.0
0.0 0.0 0.0

-3.7491023782968475e6 2.00599863323282e7 0.0
2.00599863323282e7 6.856567339656526e6 0.0
0.0 0.0 0.0

-1.1128325201773038e7 4.443564596416169e6 0.0
4.443564596416169e6 3.1588580758171916e7 0.0
0.0 0.0 0.0

-5.311201166928992e6 3.0498798408955198e7 0.0
3.0498798408955198e7 3.7308729191331677e6 0.0
0.0 0.0 0.0

-6.921776106469747e6 2.0941998347306415e7 0.0
2.0941998347306415e7 4.452200794536876e6 0.0
0.0 0.0 0.0

-3.094577868908763e6 2.2545860161689088e7 0.0
2.2545860161689088e7 1.113958229775282e6 0.0
0.0 0.0 0.0

972925.63734924 2.5320127579896048e7 0.0
2.5320127579896048e7 -3.394543273495772e6 0.0
0.0 0.0 0.0

-2.624697626060649e6 2.4930099502095863e7 0.0
2.4930099502095863e7 905931.8535531707 0.0
0.0 0.0 0.0

90040.83237672359 1.7022552739541188e7 0.0
1.7022552739541188e7 56387.68200926723 0.0
0.0 0.0 0.0

-1.7175019201057162e6 1.8626998319697294e7 0.0
1.8626998319697294e7 1.5754540565907113e7 0.0
0.0 0.0 0.0

1.5502951546043232e6 1.8113882956783663e7 0.0
1.8113882956783663e7 -290939.7780883813 0.0
0.0 0.0 0.0

-6.164177129443593e6 1.5993154809520757e7 0.0
1.5993154809520757e7 -3.430780780880479e7 0.0
0.0 0.0 0.0

-20519.60378408828 1.708832644493082e7 0.0
1.708832644493082e7 1.8067442676545177e6 0.0
0.0 0.0 0.0

-3.377841164485542e6 1.9896538837744337e7 0.0
1.9896538837744337e7 868869.6113446287 0.0
0.0 0.0 0.0

1.0489243772551832e6 1.477970826665715e7 0.0
1.477970826665715e7 1.29080333075854e7 0.0
0.0 0.0 0.0

50927.449317020364 1.8779621408684608e7 0.0
1.8779621408684608e7 -1.0775001186778683e7 0.0
0.0 0.0 0.0

1.0551900488182446e6 1.4051165066641746e7 0.0
1.4051165066641746e7 -1.8357588521734037e7 0.0
0.0 0.0 0.0

4.302762197447979e6 4.590197167979555e6 0.0
4.590197167979555e6 -2.0959446605697855e7 0.0
0.0 0.0 0.0

2.2504257029480035e6 1.871164539616777e7 0.0
1.871164539616777e7 1.2927276483908456e7 0.0
0.0 0.0 0.0

-2.3524047926442125e6 1.897383783390547e7 0.0
1.897383783390547e7 1.1127761653953338e7 0.0
0.0 0.0 0.0

-1.0267545783970539e7 1.5659319544981552e7 0.0
1.5659319544981552e7 2.168522378378189e7 0.0
0.0 0.0 0.0

-3.6834405991732883e6 1.9506051175433345e7 0.0
1.9506051175433345e7 7.819315447972448e6 0.0
0.0 0.0 0.0

-2.8506587873421065e6 1.900165284640133e7 0.0
1.900165284640133e7 -7.502709796761361e6 0.0
0.0 0.0 0.0

-1.0569450912114315e7 1.574504161520137e7 0.0
1.574504161520137e7 2.033382929312737e7 0.0
0.0 0.0 0.0

-1.06628742023773e7 1.5397133225844545e7 0.0
1.5397133225844545e7 2.3036538586788114e7 0.0
0.0 0.0 0.0

-1.151406830534474e7 1.3770516870639792e7 0.0
1.3770516870639792e7 1.9036207455351375e7 0.0
0.0 0.0 0.0

-8.993096708789328e6 -4.6542057952342555e6 0.0
-4.6542057952342555e6 2.0494634924966507e7 0.0
0.0 0.0 0.0

-3.5624838864834565e6 2.1353475968547024e7 0.0
2.1353475968547024e7 8.441239451715192e6 0.0
0.0 0.0 0.0

-2.163326261544061e6 1.4786611927647397e7 0.0
1.4786611927647397e7 -2.9999349547608577e7 0.0
0.0 0.0 0.0

248676.01296939887 1.4278348773668647e7 0.0
1.4278348773668647e7 -2.2110504995328754e7 0.0
0.0 0.0 0.0

-2.3743128024801876e7 2.7495536838381283e7 0.0
2.7495536838381283e7 -5.20174977075679e6 0.0
0.0 0.0 0.0

-9.401992400479464e6 3.576509656146672e6 0.0
3.576509656146672e6 3.985446714898065e7 0.0
0.0 0.0 0.0

717187.759152811 1.4748642174305059e7 0.0
1.4748642174305059e7 -2.080590179069852e7 0.0
0.0 0.0 0.0

-1.8026923228625536e6 2.544894784535912e7 0.0
2.544894784535912e7 -774460.7326922519 0.0
0.0 0.0 0.0

1.6128353854055726e6 1.7139476594195347e7 0.0
1.7139476594195347e7 1.29505928742594e7 0.0
0.0 0.0 0.0

-6.833336394488051e6 -6.926017689321742e6 0.0
-6.926017689321742e6 1.6301960710520532e7 0.0
0.0 0.0 0.0

-308451.86130927433 1.679148359636245e7 0.0
1.679148359636245e7 -1.802112716668781e6 0.0
0.0 0.0 0.0

-1.362803906283052e6 1.831708038328503e7 0.0
1.831708038328503e7 -8.163678048372911e6 0.0
0.0 0.0 0.0

-1.1787179317583997e7 5.435025766467701e6 0.0
5.435025766467701e6 1.4551009616431154e7 0.0
0.0 0.0 0.0

4.0363927818718627e6 1.921751895703232e6 0.0
1.921751895703232e6 -3.747476547411633e7 0.0
0.0 0.0 0.0

342876.45307243196 9.711704118871236e6 0.0
9.711704118871236e6 -8.462240026369529e6 0.0
0.0 0.0 0.0

-1.1610405617660148e7 792931.2647853656 0.0
792931.2647853656 2.5207318251478516e7 0.0
0.0 0.0 0.0

174007.08629382402 1.9156502220857523e7 0.0
1.9156502220857523e7 -1.052927315673052e7 0.0
0.0 0.0 0.0

4.033334468659373e6 1.721000031854421e7 0.0
1.721000031854421e7 2.2834565004855398e7 0.0
0.0 0.0 0.0

256909.27883755788 9.265532352908505e6 0.0
9.265532352908505e6 -4.964168340834983e6 0.0
0.0 0.0 0.0

5.458603706791833e6 2.0073974232626222e7 0.0
2.0073974232626222e7 1.226187149857003e7 0.0
0.0 0.0 0.0

-3.225960127338746e6 3.0640420492658902e7 0.0
3.0640420492658902e7 2.824479177955119e6 0.0
0.0 0.0 0.0

-1.1754954475833992e7 1.577456934716228e6 0.0
1.577456934716228e6 1.8371872200577874e7 0.0
0.0 0.0 0.0

-1.1365312203162601e6 1.80855456968034e7 0.0
1.80855456968034e7 1.6571738953937113e7 0.0
0.0 0.0 0.0

2.2033926106241522e6 1.0191606309648927e7 0.0
1.0191606309648927e7 -2.1199612469182514e7 0.0
0.0 0.0 0.0

-1.835882891285948e7 2.430852154376837e7 0.0
2.430852154376837e7 2.985125737424327e6 0.0
0.0 0.0 0.0

-6.654285323697722e6 -2.3324108330507274e6 0.0
-2.3324108330507274e6 8.585795301151985e6 0.0
0.0 0.0 0.0

-8.54856882790316e6 2.0724441329624962e7 0.0
2.0724441329624962e7 -6.134068677445624e6 0.0
0.0 0.0 0.0

2.5617515662089888e7 1.9970869039922986e7 0.0
1.9970869039922986e7 5.715536615686206e6 0.0
0.0 0.0 0.0

-1.608979934831352e6 2.027853784640007e7 0.0
2.027853784640007e7 -6.2680936958181e6 0.0
0.0 0.0 0.0

2.6752883358913185e6 1.0397887006467205e7 0.0
1.0397887006467205e7 -1.9697583086975444e7 0.0
0.0 0.0 0.0

-4.426677723337764e6 2.157626855575594e7 0.0
2.157626855575594e7 9.835275438132115e6 0.0
0.0 0.0 0.0

-8.72359548814243e6 -130451.26952217959 0.0
-130451.26952217959 4.4823002635626435e7 0.0
0.0 0.0 0.0

-3.5906137040318586e6 1.8835374326617043e7 0.0
1.8835374326617043e7 -1.1189460323887141e7 0.0
0.0 0.0 0.0

-2.0046303868562991e6 2.7726440169500425e7 0.0
2.7726440169500425e7 1.915585421962055e6 0.0
0.0 0.0 0.0

-742397.1243911628 1.348925999490819e7 0.0
1.348925999490819e7 -2.939447143633025e7 0.0
0.0 0.0 0.0

246681.1753901923 1.677303814923855e7 0.0
1.677303814923855e7 -1.6142554932085017e7 0.0
0.0 0.0 0.0

357842.0406527119 1.623274066789264e7 0.0
1.623274066789264e7 -1.7340801938176956e7 0.0
0.0 0.0 0.0

-1.0785246983538086e7 1.24128016319966e7 0.0
1.24128016319966e7 2.8260754787640855e7 0.0
0.0 0.0 0.0

-3.8680552278798963e6 2.041638082780425e7 0.0
2.041638082780425e7 7.354722049155142e6 0.0
0.0 0.0 0.0

-6.743552471937656e6 1.0960862118288646e7 0.0
1.0960862118288646e7 8.32859823382479e7 0.0
0.0 0.0 0.0

3.6077823845224977e6 1.114194998198977e7 0.0
1.114194998198977e7 -7.678082607281898e7 0.0
0.0 0.0 0.0

-1.3084974165553002e7 2.4451724512935244e7 0.0
2.4451724512935244e7 -7.237915837853363e6 0.0
0.0 0.0 0.0

-3.0246682221123213e6 1.8310134286566388e7 0.0
1.8310134286566388e7 1.1891686488984123e7 0.0
0.0 0.0 0.0

-2.025943537564542e7 2.4958548267053556e7 0.0
2.4958548267053556e7 -1.345406117419321e6 0.0
0.0 0.0 0.0

-6.502492202024593e6 -3.178678423729636e6 0.0
-3.178678423729636e6 1.3263976939151488e7 0.0
0.0 0.0 0.0

-9.302754054365985e6 1.63146287606591e7 0.0
1.63146287606591e7 1.8233672147756238e7 0.0
0.0 0.0 0.0

-9.788547708342936e6 2.18218864098144e7 0.0
2.18218864098144e7 -4.820488625864131e6 0.0
0.0 0.0 0.0

-1.0742871880711742e7 1.9642370193593998e6 0.0
1.9642370193593998e6 2.7388882483645573e7 0.0
0.0 0.0 0.0

2.4186902783749606e7 1.808208502793107e7 0.0
1.808208502793107e7 5.225360740945505e6 0.0
0.0 0.0 0.0

-1.1088561981688766e6 1.80378702407738e7 0.0
1.80378702407738e7 1.963879352058643e7 0.0
0.0 0.0 0.0

-5.392803161124111e6 1.7528500643066894e7 0.0
1.7528500643066894e7 1.3938272899137346e7 0.0
0.0 0.0 0.0

-2.247629422503353e7 3.31471520821242e7 0.0
3.31471520821242e7 9.836938068551874e6 0.0
0.0 0.0 0.0

2.8079179229566418e6 1.8843834806173414e7 0.0
1.8843834806173414e7 4.001975632052014e6 0.0
0.0 0.0 0.0

2.317555288150831e6 1.75679586480334e7 0.0
1.75679586480334e7 -1.8199182110061666e6 0.0
0.0 0.0 0.0

-4.501693264468366e6 2.2776470825042672e7 0.0
2.2776470825042672e7 8.470618646252103e6 0.0
0.0 0.0 0.0

-6.146248501805336e6 2.0117695787014592e7 0.0
2.0117695787014592e7 -377547.8293696942 0.0
0.0 0.0 0.0

-765356.204419079 1.6294131952097565e7 0.0
1.6294131952097565e7 -2.149653910735299e6 0.0
0.0 0.0 0.0

2.2568116489650807e6 1.82803002915711e7 0.0
1.82803002915711e7 -3.569454103480422e6 0.0
0.0 0.0 0.0

1.9925230873085805e6 1.89543673929361e7 0.0
1.89543673929361e7 1.1635786380381104e7 0.0
0.0 0.0 0.0

2.301061552448452e6 2.8319452962127347e7 0.0
2.8319452962127347e7 -2.0068034153671134e6 0.0
0.0 0.0 0.0

-4.064515224481582e6 2.1130854182567973e7 0.0
2.1130854182567973e7 9.290835214650843e6 0.0
0.0 0.0 0.0

-4.643674747509794e6 3.02607569809794e7 0.0
3.02607569809794e7 2.2186534063995657e6 0.0
0.0 0.0 0.0

-5.026023640495649e6 1.5426836678631732e7 0.0
1.5426836678631732e7 -3.7822316928252965e7 0.0
0.0 0.0 0.0

-1.2853808888893077e7 1.81389518580653e7 0.0
1.81389518580653e7 -7.11542691841736e7 0.0
0.0 0.0 0.0

1.1772213795004996e7 1.872140050241581e7 0.0
1.872140050241581e7 7.472131766749698e7 0.0
0.0 0.0 0.0

4.271276417015709e6 1.750980284529794e7 0.0
1.750980284529794e7 2.209956765322269e7 0.0
0.0 0.0 0.0

1.7530841250321083e6 9.414473069157954e6 0.0
9.414473069157954e6 -3.334502826483437e7 0.0
0.0 0.0 0.0

676520.2682155756 2.8017027992917918e7 0.0
2.8017027992917918e7 -2.410571584960556e6 0.0
0.0 0.0 0.0

-77623.47315957863 2.0258801295170736e7 0.0
2.0258801295170736e7 -8.466570686951054e6 0.0
0.0 0.0 0.0

-752548.3326537893 1.766382373216954e7 0.0
1.766382373216954e7 -5.828720171709216e6 0.0
0.0 0.0 0.0

306432.45141026657 1.950411617167696e7 0.0
1.950411617167696e7 -9.983606386859898e6 0.0
0.0 0.0 0.0

-2.9682558049715076e7 3.483329498050784e7 0.0
3.483329498050784e7 1.0365066270425007e7 0.0
0.0 0.0 0.0

-2.885763585653698e6 2.7439901167322084e7 0.0
2.7439901167322084e7 1.4738864619649537e6 0.0
0.0 0.0 0.0

-5.954678455328401e6 2.3362449361589134e7 0.0
2.3362449361589134e7 7.427025377683647e6 0.0
0.0 0.0 0.0

3.595180921058232e6 3.3708066882292386e6 0.0
3.3708066882292386e6 -3.999880111708562e7 0.0
0.0 0.0 0.0

6.402991546600859e6 2.198836109113892e7 0.0
2.198836109113892e7 -5.137039392837381e6 0.0
0.0 0.0 0.0

-722809.4391764114 1.3973731243438087e7 0.0
1.3973731243438087e7 -2.7666886773933806e7 0.0
0.0 0.0 0.0

5.336114438178095e6 2.2445156814190917e7 0.0
2.2445156814190917e7 -5.301579403600106e6 0.0
0.0 0.0 0.0

-438069.9374928708 1.5665522795955483e7 0.0
1.5665522795955483e7 -1.2918576421240796e6 0.0
0.0 0.0 0.0

-481256.6388632916 1.8652145385187607e7 0.0
1.8652145385187607e7 1.728877590200338e7 0.0
0.0 0.0 0.0

-4.669801561616734e6 2.4913818914453015e7 0.0
2.4913818914453015e7 5.404668312595111e6 0.0
0.0 0.0 0.0

-1.0009043325465815e7 -3.3942025765560037e6 0.0
-3.3942025765560037e6 2.557792035627047e7 0.0
0.0 0.0 0.0

1.2092688242557464e7 1.8250497870452568e7 0.0
1.8250497870452568e7 822283.9970287457 0.0
0.0 0.0 0.0

-6.188887940289238e7 2.288491945271601e7 0.0
2.288491945271601e7 4.762188599104706e6 0.0
0.0 0.0 0.0

-1.1424002957613736e7 1.2580231834617225e7 0.0
1.2580231834617225e7 2.5994618286535937e7 0.0
0.0 0.0 0.0

-5.769005134311866e6 2.0828830107244805e7 0.0
2.0828830107244805e7 4.765669949783875e6 0.0
0.0 0.0 0.0

2.801123536348733e6 1.8557050604386374e7 0.0
1.8557050604386374e7 -1.1118475677168332e6 0.0
0.0 0.0 0.0

4.501224997753881e6 3.4726103170513944e6 0.0
3.4726103170513944e6 -2.6572039556370057e7 0.0
0.0 0.0 0.0

-3.2035491342846523e6 1.8788603412254274e7 0.0
1.8788603412254274e7 9.428927357004182e6 0.0
0.0 0.0 0.0

-9.0870368308183e6 -1.0902522875807155e6 0.0
-1.0902522875807155e6 3.9635519404117584e7 0.0
0.0 0.0 0.0

-1.3457287590137392e7 2.1270228764676195e7 0.0
2.1270228764676195e7 -7.630796238962688e7 0.0
0.0 0.0 0.0

1.2071833231019543e7 2.3297922084419616e7 0.0
2.3297922084419616e7 7.999591624560997e7 0.0
0.0 0.0 0.0

1.2047356152204517e6 1.2337594606690692e7 0.0
1.2337594606690692e7 -2.552924637626755e7 0.0
0.0 0.0 0.0

1.132217037439374e6 4.535074184328774e6 0.0
4.535074184328774e6 -5.4507386421506135e6 0.0
0.0 0.0 0.0

8.665008899225418e6 1.7172243827592425e7 0.0
1.7172243827592425e7 5.782317587271838e6 0.0
0.0 0.0 0.0

-8.930826968081659e6 550596.9226056985 0.0
550596.9226056985 4.503375856175233e7 0.0
0.0 0.0 0.0

1.1005060552946446e6 7.780414730697934e6 0.0
7.780414730697934e6 -7.101666672654543e6 0.0
0.0 0.0 0.0

3.110482991141463e6 2.7047083825553462e7 0.0
2.7047083825553462e7 -3.6109707108959625e6 0.0
0.0 0.0 0.0

-92609.00067409407 1.712563000534588e7 0.0
1.712563000534588e7 -1.297451263815919e7 0.0
0.0 0.0 0.0

2.8208740415569353e6 1.74153943245501e7 0.0
1.74153943245501e7 1.6105596552573655e7 0.0
0.0 0.0 0.0

-4.90166133558438e6 2.066021641246347e7 0.0
2.066021641246347e7 387688.132109151 0.0
0.0 0.0 0.0

-2.4048291333154935e7 2.3321214097745433e7 0.0
2.3321214097745433e7 -3.9932836224182122e6 0.0
0.0 0.0 0.0

-3.1959952141917613e6 2.7119726399684653e7 0.0
2.7119726399684653e7 2.0552692748004657e6 0.0
0.0 0.0 0.0

249270.3241886422 1.7519419290487807e7 0.0
1.7519419290487807e7 9.505921179372892e6 0.0
0.0 0.0 0.0

-2.4533647611620966e6 1.878000476530823e7 0.0
1.878000476530823e7 1.3808977826859344e7 0.0
0.0 0.0 0.0

1.154404906099679e6 1.4750465902446503e7 0.0
1.4750465902446503e7 -1.7751218509646982e7 0.0
0.0 0.0 0.0

345005.5637807045 1.8960993897982568e7 0.0
1.8960993897982568e7 -1.0460019257760119e7 0.0
0.0 0.0 0.0

-9.492142560833605e6 1.9582197484721777e6 0.0
1.9582197484721777e6 4.3235489619352944e7 0.0
0.0 0.0 0.0

-2.4250323548597384e7 3.5331596611845754e7 0.0
3.5331596611845754e7 7.092010981711855e6 0.0
0.0 0.0 0.0

-1.0568404604028028e7 2.8896710090245627e7 0.0
2.8896710090245627e7 6.002455224978777e6 0.0
0.0 0.0 0.0

-2.3985847970379498e7 2.462910432253789e7 0.0
2.462910432253789e7 2.418742563828647e6 0.0
0.0 0.0 0.0

-40984.630968572805 1.7593942654513583e7 0.0
1.7593942654513583e7 3.327580316680887e6 0.0
0.0 0.0 0.0

-7.194040026957206e6 2.127306966156258e7 0.0
2.127306966156258e7 -957322.0876619776 0.0
0.0 0.0 0.0

-1.3399717759118471e7 2.375950266407029e7 0.0
2.375950266407029e7 -3.1257474170109127e6 0.0
0.0 0.0 0.0

1.811200756219217e6 7.074580832207593e6 0.0
7.074580832207593e6 -6.863274185631503e6 0.0
0.0 0.0 0.0

1.9270002266134247e6 1.7780955386967413e7 0.0
1.7780955386967413e7 1.689080193579205e7 0.0
0.0 0.0 0.0

2.659656031341886e6 8.665191382856825e6 0.0
8.665191382856825e6 -3.260044892529241e7 0.0
0.0 0.0 0.0

-1.03996811826887e7 1.3633039162996637e7 0.0
1.3633039162996637e7 2.7242709046155456e7 0.0
0.0 0.0 0.0

-8.379809721973557e6 171914.12586521305 0.0
171914.12586521305 4.6074807454908505e7 0.0
0.0 0.0 0.0

3.7951419128390383e6 3.5359598048291206e6 0.0
3.5359598048291206e6 -3.947113906150335e7 0.0
0.0 0.0 0.0

-2.7793256958472393e7 2.4897297071483817e7 0.0
2.4897297071483817e7 1.2648094612791762e6 0.0
0.0 0.0 0.0

-9.30526593233381e6 -1.9509246113324384e6 0.0
-1.9509246113324384e6 3.613541052584349e7 0.0
0.0 0.0 0.0

-9.606417581516018e6 -2.708405408188227e6 0.0
-2.708405408188227e6 3.1334164292351723e7 0.0
0.0 0.0 0.0

1.2168242244774243e6 6.817867879344553e6 0.0
6.817867879344553e6 -8.616640297178851e6 0.0
0.0 0.0 0.0

-9.961506951050991e6 -1.491273273340754e6 0.0
-1.491273273340754e6 3.0049073981781878e7 0.0
0.0 0.0 0.0

4.248858380917118e6 3.6023552887019165e7 0.0
3.6023552887019165e7 -5.241263001559272e6 0.0
0.0 0.0 0.0

-4.865850611399328e6 1.8377418890299827e7 0.0
1.8377418890299827e7 1.3339296227416791e7 0.0
0.0 0.0 0.0

2.68781164491779e6 4.433282634795743e6 0.0
4.433282634795743e6 -4.8438176864865765e7 0.0
0.0 0.0 0.0

3.685615191559581e6 4.158533051340747e6 0.0
4.158533051340747e6 -3.127997440450675e7 0.0
0.0 0.0 0.0

-3.9906388298345073e6 2.0221002436218582e7 0.0
2.0221002436218582e7 6.524474063471845e6 0.0
0.0 0.0 0.0

-4.319132326243992e6 3.003738224798712e7 0.0
3.003738224798712e7 3.539346721706949e6 0.0
0.0 0.0 0.0

3.3519403981769714e6 1.0302673026903199e7 0.0
1.0302673026903199e7 2.1911104027301427e6 0.0
0.0 0.0 0.0

8.025477993697319e6 1.9869543998746507e7 0.0
1.9869543998746507e7 1.116200353633407e7 0.0
0.0 0.0 0.0

6.469785427785967e6 2.1068282144474737e7 0.0
2.1068282144474737e7 -4.295080650709573e6 0.0
0.0 0.0 0.0

-9.53990943707261e6 -1.7207136843919596e6 0.0
-1.7207136843919596e6 3.539687116536901e7 0.0
0.0 0.0 0.0

-1.4869104830772402e7 2.1320125202152416e7 0.0
2.1320125202152416e7 2.75822387126829e6 0.0
0.0 0.0 0.0

-3.1112805286168605e6 2.6599556423227485e7 0.0
2.6599556423227485e7 1.9291229491516724e6 0.0
0.0 0.0 0.0

391001.45730187744 1.7128823376034357e7 0.0
1.7128823376034357e7 3.973888452408674e7 0.0
0.0 0.0 0.0

7.910319375356585e6 2.1415723174094915e7 0.0
2.1415723174094915e7 -4.241639107070074e6 0.0
0.0 0.0 0.0

-2.7479808421058943e6 1.9170088865624372e7 0.0
1.9170088865624372e7 -7.343880922856636e6 0.0
0.0 0.0 0.0

-4.471630895116313e6 1.934959372583876e7 0.0
1.934959372583876e7 1.4266893589934846e7 0.0
0.0 0.0 0.0

-2.290615327230299e6 1.8473725979405235e7 0.0
1.8473725979405235e7 -7.580048766120457e6 0.0
0.0 0.0 0.0

-5.880871649591951e7 3.197741320351915e7 0.0
3.197741320351915e7 -1.989110070676282e6 0.0
0.0 0.0 0.0

-5.971839426452198e6 1.8097098612344023e7 0.0
1.8097098612344023e7 1.2914622717820581e7 0.0
0.0 0.0 0.0

-2.5637036096551744e6 1.945601769329292e7 0.0
1.945601769329292e7 -6.3123939198993705e6 0.0
0.0 0.0 0.0

-4.527246194339142e6 1.993157784377951e7 0.0
1.993157784377951e7 1.3611022406738378e7 0.0
0.0 0.0 0.0

4.883850779041238e6 2.075366502817785e7 0.0
2.075366502817785e7 -4.81016480317082e6 0.0
0.0 0.0 0.0

4.1658597228470184e6 3.4786405011637267e6 0.0
3.4786405011637267e6 -2.5825642856079154e7 0.0
0.0 0.0 0.0

1.3989625774384318e6 2.021828687265784e7 0.0
2.021828687265784e7 -7.472216946067311e6 0.0
0.0 0.0 0.0

-2.3314258570706643e7 3.5396571937767215e7 0.0
3.5396571937767215e7 7.044705662502697e6 0.0
0.0 0.0 0.0

-5.546840685242253e6 2.5969535583590984e7 0.0
2.5969535583590984e7 5.9094815336422995e6 0.0
0.0 0.0 0.0

-9.502533617617415e6 -4.378393485168988e6 0.0
-4.378393485168988e6 2.003681527739926e7 0.0
0.0 0.0 0.0

70191.38524310663 1.727470850126235e7 0.0
1.727470850126235e7 -1.4247453971798759e7 0.0
0.0 0.0 0.0

9.848940951962734e6 1.8947523935750015e7 0.0
1.8947523935750015e7 1.9139437393013977e6 0.0
0.0 0.0 0.0

-5.462486438477255e7 2.70550724294758e7 0.0
2.70550724294758e7 4.868595748806354e6 0.0
0.0 0.0 0.0

2.2986124564750064e6 1.6235621597753365e7 0.0
1.6235621597753365e7 1.1501426017100073e7 0.0
0.0 0.0 0.0

2.1273462623820435e6 8.523283864239937e6 0.0
8.523283864239937e6 -3.4406578892766446e7 0.0
0.0 0.0 0.0

845945.7132735932 1.4551366170254307e7 0.0
1.4551366170254307e7 -1.766125237333312e7 0.0
0.0 0.0 0.0

-2.9156726238138173e6 1.90586700937093e7 0.0
1.90586700937093e7 1.1070576645183694e7 0.0
0.0 0.0 0.0

-6.268906510725323e6 3.0270141847866762e7 0.0
3.0270141847866762e7 3.350909983309253e6 0.0
0.0 0.0 0.0

-658692.0723304449 2.2997336909042493e7 0.0
2.2997336909042493e7 -4.179895247642843e6 0.0
0.0 0.0 0.0

4.130812526161192e6 3.242723560906158e6 0.0
3.242723560906158e6 -3.0634809956434634e7 0.0
0.0 0.0 0.0

3.137368013700743e6 1.7367181612410378e7 0.0
1.7367181612410378e7 3.3388788025086258e7 0.0
0.0 0.0 0.0

-491441.39902042993 1.5391455947277777e7 0.0
1.5391455947277777e7 -1.5177713654476863e6 0.0
0.0 0.0 0.0

-4.2602801091135345e7 3.1262990204336777e7 0.0
3.1262990204336777e7 1.1278826955471719e7 0.0
0.0 0.0 0.0

-1.0730768075805105e7 -1.1618419936183146e6 0.0
-1.1618419936183146e6 2.6417424631896593e7 0.0
0.0 0.0 0.0

-1.004225774530033e7 -1.338039416416078e6 0.0
-1.338039416416078e6 2.862508639602253e7 0.0
0.0 0.0 0.0

9.297941802610239e6 1.8934246186675843e7 0.0
1.8934246186675843e7 4.474054656018669e6 0.0
0.0 0.0 0.0

-9.281321237787254e6 -2.040322085611548e6 0.0
-2.040322085611548e6 3.526012485732242e7 0.0
0.0 0.0 0.0

1.985214515920325e6 1.6574398974550482e7 0.0
1.6574398974550482e7 1.1249234189055556e7 0.0
0.0 0.0 0.0

5.232941057112276e6 1.762101335766992e7 0.0
1.762101335766992e7 2.3366491521965936e7 0.0
0.0 0.0 0.0

-327890.68676025304 2.7998791259252794e7 0.0
2.7998791259252794e7 -924482.0251656888 0.0
0.0 0.0 0.0

-9.00773911913583e6 4.971203495795784e6 0.0
4.971203495795784e6 4.73518009259353e7 0.0
0.0 0.0 0.0

-1.2302429368249532e6 1.4036320718210675e7 0.0
1.4036320718210675e7 -2.8229584413490307e7 0.0
0.0 0.0 0.0

776916.4015978626 7.548244631252605e6 0.0
7.548244631252605e6 -7.613084561151562e6 0.0
0.0 0.0 0.0

-2.628844964687507e6 1.869993424455027e7 0.0
1.869993424455027e7 9.37415707987044e6 0.0
0.0 0.0 0.0

2.21784487901205e6 1.79244789959074e7 0.0
1.79244789959074e7 2.3180199292449296e7 0.0
0.0 0.0 0.0

-1.0215184402554717e7 -524622.3683479741 0.0
-524622.3683479741 3.419426716971998e7 0.0
0.0 0.0 0.0

-8.556741662259215e6 7.125126643457592e6 0.0
7.125126643457592e6 7.401925047154094e6 0.0
0.0 0.0 0.0

-3.3105818916975693e6 1.940873237160367e7 0.0
1.940873237160367e7 911645.6232319768 0.0
0.0 0.0 0.0

-1.0971575634431075e6 1.0118760271081908e7 0.0
1.0118760271081908e7 1.1739967577393372e7 0.0
0.0 0.0 0.0

2.5806021632061657e6 1.77644007244619e7 0.0
1.77644007244619e7 -2.592518850802252e6 0.0
0.0 0.0 0.0

-1.0507702179854529e7 -1.568279424639278e6 0.0
-1.568279424639278e6 2.823322533639983e7 0.0
0.0 0.0 0.0

-8.196425186949551e6 4.938959332009668e6 0.0
4.938959332009668e6 5.054701248134461e7 0.0
0.0 0.0 0.0

2.104386544639588e6 1.8308374147214927e7 0.0
1.8308374147214927e7 -1.641209006045897e6 0.0
0.0 0.0 0.0

385961.29873696575 1.7628880552518755e7 0.0
1.7628880552518755e7 -1.2371821685044004e7 0.0
0.0 0.0 0.0

-8.183196647461835e6 4.784469105049075e6 0.0
4.784469105049075e6 5.00787190800527e7 0.0
0.0 0.0 0.0

4.879343685275115e6 2.077783651519779e7 0.0
2.077783651519779e7 -4.776483702396443e6 0.0
0.0 0.0 0.0

1.6875960353627075e6 1.7031187394284133e7 0.0
1.7031187394284133e7 1.6851135187266268e7 0.0
0.0 0.0 0.0

-7.473702164102618e6 1.0558338089264905e7 0.0
1.0558338089264905e7 1.016788233596245e7 0.0
0.0 0.0 0.0

-6.604443607876976e6 9.885805316668928e6 0.0
9.885805316668928e6 9.061616959417613e6 0.0
0.0 0.0 0.0

-1.2226709627299989e7 6.762296219834469e6 0.0
6.762296219834469e6 5.574902655771041e6 0.0
0.0 0.0 0.0

