# vtk DataFile Version 2.0
phase field modeling fracture
ASCII
DATASET UNSTRUCTURED_GRID
POINTS 2538 float
0.0 0.0 0.0
10.0 0.0 0.0
0.0 10.0 0.0
10.0 10.0 0.0
0.0 4.9995 0.0
0.0 5.0005 0.0
5.0 5.0 0.0
0.9416964895726688 0.0 0.0
1.803581725054446 0.0 0.0
2.592419885431098 0.0 0.0
3.314401822861676 0.0 0.0
3.975193910351406 0.0 0.0
4.579982132660152 0.0 0.0
5.133512780936812 0.0 0.0
5.640130319506143 0.0 0.0
6.103810708661955 0.0 0.0
6.528192895506818 0.0 0.0
6.916607540127679 0.0 0.0
7.272102969376355 0.0 0.0
7.597469242948583 0.0 0.0
7.895259826292669 0.0 0.0
8.167811885738017 0.0 0.0
8.417264413845215 0.0 0.0
8.645575169389538 0.0 0.0
8.854535961159101 0.0 0.0
9.045786767735546 0.0 0.0
9.220828555767493 0.0 0.0
9.38103509633881 0.0 0.0
9.527663687265145 0.0 0.0
9.661865124984566 0.0 0.0
9.784692609918062 0.0 0.0
9.897110148790482 0.0 0.0
10.0 0.09999999999992584 0.0
10.0 0.199999999999856 0.0
10.0 0.2999999999997771 0.0
10.0 0.3999999999996677 0.0
10.0 0.4999999999995511 0.0
10.0 0.5999999999994683 0.0
10.0 0.6999999999993983 0.0
10.0 0.7999999999993286 0.0
10.0 0.8999999999992587 0.0
10.0 0.9999999999991888 0.0
10.0 1.099999999999119 0.0
10.0 1.199999999999033 0.0
10.0 1.299999999998852 0.0
10.0 1.399999999998576 0.0
10.0 1.499999999998284 0.0
10.0 1.599999999997992 0.0
10.0 1.6999999999977 0.0
10.0 1.799999999997408 0.0
10.0 1.899999999997116 0.0
10.0 1.999999999996825 0.0
10.0 2.099999999996533 0.0
10.0 2.199999999996241 0.0
10.0 2.299999999995949 0.0
10.0 2.399999999995657 0.0
10.0 2.499999999995365 0.0
10.0 2.599999999995073 0.0
10.0 2.699999999994782 0.0
10.0 2.79999999999449 0.0
10.0 2.899999999994198 0.0
10.0 2.999999999993906 0.0
10.0 3.099999999993614 0.0
10.0 3.199999999993322 0.0
10.0 3.299999999993029 0.0
10.0 3.399999999992738 0.0
10.0 3.499999999992446 0.0
10.0 3.599999999992154 0.0
10.0 3.699999999991863 0.0
10.0 3.799999999991571 0.0
10.0 3.899999999991278 0.0
10.0 3.999999999991022 0.0
10.0 4.099999999991035 0.0
10.0 4.199999999991187 0.0
10.0 4.299999999991338 0.0
10.0 4.399999999991491 0.0
10.0 4.499999999991642 0.0
10.0 4.599999999991795 0.0
10.0 4.699999999991947 0.0
10.0 4.799999999992099 0.0
10.0 4.89999999999225 0.0
10.0 4.999999999992403 0.0
10.0 5.099999999992555 0.0
10.0 5.199999999992706 0.0
10.0 5.299999999992858 0.0
10.0 5.39999999999301 0.0
10.0 5.499999999993161 0.0
10.0 5.599999999993313 0.0
10.0 5.699999999993466 0.0
10.0 5.799999999993618 0.0
10.0 5.899999999993771 0.0
10.0 5.999999999993922 0.0
10.0 6.099999999994074 0.0
10.0 6.199999999994227 0.0
10.0 6.299999999994378 0.0
10.0 6.39999999999453 0.0
10.0 6.499999999994682 0.0
10.0 6.599999999994833 0.0
10.0 6.699999999994986 0.0
10.0 6.799999999995138 0.0
10.0 6.899999999995289 0.0
10.0 6.999999999995442 0.0
10.0 7.099999999995594 0.0
10.0 7.199999999995747 0.0
10.0 7.299999999995897 0.0
10.0 7.39999999999605 0.0
10.0 7.499999999996202 0.0
10.0 7.599999999996353 0.0
10.0 7.699999999996505 0.0
10.0 7.799999999996658 0.0
10.0 7.899999999996808 0.0
10.0 7.999999999996962 0.0
10.0 8.099999999997113 0.0
10.0 8.199999999997265 0.0
10.0 8.299999999997418 0.0
10.0 8.399999999997569 0.0
10.0 8.499999999997721 0.0
10.0 8.599999999997873 0.0
10.0 8.699999999998024 0.0
10.0 8.799999999998176 0.0
10.0 8.899999999998329 0.0
10.0 8.99999999999848 0.0
10.0 9.099999999998634 0.0
10.0 9.199999999998786 0.0
10.0 9.299999999998937 0.0
10.0 9.399999999999089 0.0
10.0 9.499999999999241 0.0
10.0 9.599999999999392 0.0
10.0 9.699999999999545 0.0
10.0 9.799999999999697 0.0
10.0 9.899999999999848 0.0
9.897110148790565 10.0 0.0
9.784692609918244 10.0 0.0
9.66186512498486 10.0 0.0
9.527663687265571 10.0 0.0
9.381035096339392 10.0 0.0
9.220828555768257 10.0 0.0
9.045786767736512 10.0 0.0
8.854535961160305 10.0 0.0
8.645575169391027 10.0 0.0
8.417264413847017 10.0 0.0
8.167811885740178 10.0 0.0
7.895259826295246 10.0 0.0
7.597469242951631 10.0 0.0
7.272102969379938 10.0 0.0
6.916607540131873 10.0 0.0
6.528192895511704 10.0 0.0
6.103810708667616 10.0 0.0
5.640130319512691 10.0 0.0
5.13351278094435 10.0 0.0
4.579982132668816 10.0 0.0
3.975193910361222 10.0 0.0
3.314401822869852 10.0 0.0
2.592419885437257 10.0 0.0
1.803581725058137 10.0 0.0
0.9416964895740705 10.0 0.0
0.0 9.00010000000243 0.0
0.0 8.000200000005481 0.0
0.0 7.000300000005135 0.0
0.0 6.000400000002569 0.0
0.901790731451151 5.000409820926855 0.0
1.657200899774397 5.000334279910023 0.0
2.289991063707192 5.000271000893629 0.0
2.820065163538221 5.000217993483646 0.0
3.264096435579811 5.000173590356442 0.0
3.636051481595835 5.00013639485184 0.0
3.947629914072366 5.000105237008593 0.0
4.208632181002628 5.0000791367819 0.0
4.427267949625672 5.000057273205037 0.0
4.610414277633563 5.000038958572237 0.0
4.763831845154243 5.000023616815485 0.0
4.892346298799659 5.00001076537012 0.0
4.892346298799748 4.99998923462988 0.0
4.763831845154455 4.999976383184515 0.0
4.610414277633943 4.999961041427763 0.0
4.427267949626277 4.999942726794963 0.0
4.208632181003523 4.9999208632181 0.0
3.94762991407365 4.999894762991407 0.0
3.636051481597624 4.99986360514816 0.0
3.264096435582253 4.999826409643559 0.0
2.820065163541503 4.999782006516354 0.0
2.289991063711534 4.999728999106371 0.0
1.657200899778495 4.999665720089978 0.0
0.9017907314530094 4.999590179073145 0.0
0.0 3.999600000002013 0.0
0.0 2.999700000005187 0.0
0.0 1.99980000000512 0.0
0.0 0.9999000000025537 0.0
9.897889398521345 2.93573355845387 0.0
9.906568249974548 7.060009441434234 0.0
9.913122631074113 3.64016132281653 0.0
9.922462129543863 6.354535290629151 0.0
9.917693659967533 4.354211663134567 0.0
9.909873057440208 5.637584487339942 0.0
9.914183254994697 4.950672966925282 0.0
9.913885043715895 7.666887930262611 0.0
9.91009668007573 2.351889069770817 0.0
9.905135696074536 8.138152454502785 0.0
9.913397459621809 1.849999999997262 0.0
7.099302372137626 0.297750452375005 0.0
7.095143729410097 9.700359990366296 0.0
4.942912558701401 5.095838627899509 0.0
4.315009232304429 5.165022115481685 0.0
4.946182472483878 4.906763777264103 0.0
4.317967462990024 4.825955043772673 0.0
9.916390871492647 8.64999999999792 0.0
9.921504649680616 1.368376469890358 0.0
8.292538149791614 0.206877570318844 0.0
8.292538149793597 9.793122429681448 0.0
5.884594439766573 9.587645267048616 0.0
5.794826292691579 0.3794853783929359 0.0
9.913397459621425 9.049999999998557 0.0
9.908526577714177 0.9568239351922434 0.0
3.456851160380649 5.315740054130451 0.0
3.457889657868442 4.707121019609468 0.0
8.945214200703926 0.1503383337970344 0.0
8.950161364448409 9.8413906539257 0.0
9.913862335499305 4.055887885208452 0.0
9.916697353372683 4.650158482607802 0.0
9.919076340414442 6.049999999994006 0.0
9.906994308667635 5.25749687748192 0.0
9.917490342358025 6.655979201891897 0.0
9.915757520293784 7.343848891656911 0.0
9.910049507471042 3.363474386285078 0.0
9.914471988502868 2.647400064832979 0.0
9.91474124160965 9.337490423485129 0.0
9.916971008170838 0.6499999999994355 0.0
4.307157269264427 9.509674045029644 0.0
4.331527375865619 0.4401616696422582 0.0
9.45434939180249 9.878397030523757 0.0
9.457696120412969 0.1270877537061785 0.0
2.555070293622606 5.422044496190925 0.0
2.566232917480916 4.608001224030952 0.0
3.026511860837692 9.332320638257093 0.0
2.945561971800619 0.5895662714727601 0.0
7.7395404387124 0.2511088946967771 0.0
7.736379255744154 9.745848826372828 0.0
4.687135269408529 5.122111433928926 0.0
4.688420821504113 4.871895064967488 0.0
9.910554884115975 0.3448356354522978 0.0
9.911230082250466 9.65764729394159 0.0
9.921953841410854 6.851023993342036 0.0
9.912065178606017 5.448170483544033 0.0
9.911660025326261 3.861846960030188 0.0
9.914847467973438 3.14501593945607 0.0
9.913397459621425 5.849999999993703 0.0
9.913397459621425 7.849999999996735 0.0
9.906916878988277 2.15455769998631 0.0
9.913397459621425 8.349999999997479 0.0
9.909472363117661 1.640528221515488 0.0
9.913987325695956 1.152857110636247 0.0
9.913397459621425 8.849999999998241 0.0
0.9100099990995943 2.614215977520411 0.0
0.8395284981715456 7.451196254860987 0.0
9.723278867451556 9.898135916635193 0.0
9.723316350887044 0.09841820909386662 0.0
1.385819164827588 4.454539963646463 0.0
1.338343629665047 5.523111536005823 0.0
1.377179700550677 0.6809168304959698 0.0
1.418060461092743 9.285896715136046 0.0
9.91268220142518 0.1457914080939694 0.0
9.906737126737994 9.845745933882352 0.0
0.7108351382691361 6.537941170074089 0.0
1.527735020267026 6.915620208855231 0.0
1.630993885659103 7.838271825205868 0.0
2.232760943566823 7.370850737296832 0.0
2.243414218068206 6.688299277952821 0.0
2.779655053105118 7.021588754814074 0.0
2.80227799359795 7.632420170547022 0.0
3.282022065908813 7.305859666021318 0.0
3.327597298795347 7.857554136825748 0.0
3.743210251018715 7.549183328204379 0.0
3.716353232200752 7.062036086888612 0.0
4.111978858674101 7.27497101169417 0.0
4.104192177581432 6.879858986267289 0.0
4.436230765617037 7.045693351607117 0.0
4.430360014817357 6.703971783962796 0.0
4.732390145036301 6.849841042423394 0.0
5.056161327708878 5.095276573498806 0.0
5.111586796021131 4.999081142133581 0.0
5.169267363407189 5.09444870412406 0.0
5.223795108752053 4.996986220359468 0.0
5.281480803887719 5.092780870372803 0.0
5.335670761900611 4.994887492556936 0.0
5.393485214772442 5.090486192743301 0.0
5.447323082877892 4.992601527033996 0.0
5.505243219343024 5.087953380710069 0.0
5.558739102026105 4.990287787962959 0.0
5.616491581184779 5.085335255235766 0.0
5.669852346908056 4.9879269227514 0.0
5.727502713908907 5.082679981817038 0.0
5.780766004135139 4.988313988715834 0.0
5.838244881129535 5.080480568766611 0.0
5.891357695677371 4.986433849408193 0.0
5.948696036767613 5.077969900389505 0.0
6.001601341641615 4.981313698556656 0.0
6.058851024265095 5.074871552128682 0.0
6.111614020704875 4.978360695880202 0.0
6.168801161530775 5.072044953270978 0.0
6.221368818778567 4.975825765213497 0.0
6.278268309066882 5.066182320461055 0.0
6.330814273567539 4.972837984645718 0.0
6.387565032421376 5.062889771971895 0.0
6.437476667631405 4.971693683589553 0.0
6.496181111585419 5.060210690175857 0.0
6.539454812256072 4.964658165361536 0.0
6.604198202576491 5.056387520850258 0.0
6.648506025747331 4.939374587506267 0.0
6.714026758992516 5.05873885840664 0.0
6.764418045981209 4.959246676066148 0.0
6.8219334571197 5.055299567406268 0.0
6.873708540948134 4.960426349093742 0.0
6.930181428849307 5.053461390218819 0.0
6.981893615341967 4.96435459462232 0.0
7.037791764774784 5.051219747103022 0.0
7.090993561518408 4.96392420322464 0.0
5.504417457283294 4.900897920552702 0.0
7.145434864123609 5.048960634292441 0.0
6.054532384032612 4.883956083938546 0.0
6.738027949040956 4.850032323068674 0.0
7.198432914526514 4.956325226333323 0.0
7.252637187936749 5.046012229327236 0.0
7.30926729605109 4.948903216650376 0.0
7.248106275544042 4.860306312845646 0.0
7.363100274863074 4.849952416808486 0.0
7.365733472701664 5.039519554615095 0.0
7.308483293090149 5.137557220352172 0.0
6.768399513646964 5.145609705119954 0.0
7.422800035311104 5.132251445551834 0.0
7.358273518796229 5.235980394389298 0.0
7.480824155801127 5.227946127939927 0.0
7.302193400058628 4.761917474298247 0.0
7.413570879789824 4.754555110721153 0.0
7.414392998903179 5.334729114426734 0.0
7.352769630272076 4.660405502266205 0.0
7.467556835255426 4.658352623795039 0.0
7.536246869015014 5.328986926716081 0.0
7.478865844607288 5.432598185493195 0.0
7.406396991826072 4.556956233957538 0.0
7.523581002009154 4.552005631348623 0.0
7.597792398573263 5.429506106314967 0.0
7.540511043402902 5.53619421580439 0.0
7.46214474876342 4.452580994318881 0.0
7.5852185078634 4.446021810672608 0.0
7.663329342323453 5.533453399066901 0.0
7.603478967594521 5.643227430483237 0.0
7.513450346818673 4.347641323140766 0.0
7.640744971722214 4.333388343316237 0.0
7.727671715775243 5.642390483050116 0.0
7.667774597993788 5.753188858425915 0.0
7.570065256728661 4.230515669344811 0.0
7.702881065467917 4.218307808529532 0.0
7.638288257073729 4.107994211855027 0.0
7.493362356301017 4.120843902105771 0.0
7.779018500630071 5.521233457321821 0.0
7.794641287388929 5.752364621610818 0.0
7.73369774483611 5.865894287356292 0.0
7.600834531784728 5.867752110500446 0.0
6.233038857278689 5.15645045634683 0.0
7.669727996028819 5.985665563643058 0.0
7.528582452554481 5.987393423295551 0.0
7.598722674572824 6.11001923494443 0.0
7.778305000222867 4.104318908265786 0.0
7.704329019832056 3.987744174608892 0.0
7.838453459801382 4.213322728668484 0.0
7.864495721576461 5.862306066517277 0.0
7.846552353360407 3.98481756181946 0.0
7.769730409703277 3.86544808681145 0.0
5.785249360396857 5.177248808588045 0.0
7.908837087876153 3.861484036275285 0.0
7.834824606222196 3.740586825753288 0.0
7.97685993406276 3.736209527152902 0.0
7.89665098770825 3.615501862931453 0.0
7.753228010315262 3.617800245018972 0.0
7.826063013090472 3.483173292579822 0.0
7.66789744383048 3.48859328808356 0.0
8.042515855796823 3.595394268381807 0.0
7.75200750488492 3.341279823834038 0.0
7.582870318332553 3.346584916806707 0.0
8.120807847415062 3.732493963388337 0.0
8.189783970303546 3.61159165475499 0.0
7.657801000286734 3.200439907646711 0.0
7.486781956172036 3.201402473247712 0.0
7.452595103886905 6.11418616185016 0.0
7.527098033550077 6.243191052852112 0.0
8.260502906807751 3.728437634721859 0.0
8.327629317451398 3.608173631356984 0.0
7.372763970891452 6.247552889754036 0.0
7.456170570815929 6.384992468962936 0.0
7.621837793616884 6.376077080857113 0.0
7.548039512904141 6.520750676893614 0.0
7.717475944451644 6.514856553988943 0.0
7.636658166268699 6.661648164052906 0.0
7.807468267259438 6.664076174524672 0.0
7.718022764310774 6.817938967122142 0.0
7.887785766941087 6.807440365887151 0.0
7.545993589083432 6.815070675854734 0.0
7.809874785067209 6.967537287475282 0.0
7.975643812145337 6.948729406725126 0.0
8.396477808021062 3.725446935061211 0.0
7.565651643157136 3.044354774611752 0.0
7.384328725505071 3.043048915147076 0.0
8.056405351948353 6.802790889114673 0.0
8.14128318237188 6.940027831915737 0.0
8.064621760266059 7.086348792208953 0.0
8.225003598857908 6.805225152373254 0.0
8.463085452993242 3.606998510553562 0.0
8.230426869720718 7.079551841000411 0.0
8.155262284174286 7.224761758176069 0.0
8.530696760758996 3.721683301125054 0.0
8.596669886994064 3.604516769862316 0.0
8.528531058025589 3.490411531312337 0.0
8.320451770844851 7.218191678954744 0.0
8.245273958732774 7.363444652121271 0.0
8.66324687389452 3.717094013035765 0.0
8.600103125209296 3.831913857228569 0.0
8.662131102573216 3.488322280861316 0.0
8.594166125380536 3.374071873435548 0.0
8.411074336066186 7.353871649576861 0.0
8.339644223432472 7.505172120620427 0.0
8.165883718619623 7.513159193685373 0.0
8.483453820080417 7.2082285366806 0.0
8.261200365730348 7.657400951288149 0.0
8.081570576666843 7.670933304838066 0.0
7.471613195794025 2.872548423100142 0.0
7.268733678357991 2.881209199257603 0.0
7.184255506995786 3.084448584600423 0.0
7.065899603697895 2.883902449336828 0.0
6.960163891183182 3.081014635802978 0.0
6.847612128388715 2.885646860602812 0.0
6.739800729737967 3.078895733381448 0.0
8.729373804596847 3.827689165637365 0.0
8.668550856907444 3.938702277545298 0.0
8.72770789162863 3.371798381178293 0.0
8.659764090070603 3.257493349874974 0.0
8.436453928793245 7.648724489148887 0.0
6.619080287792762 2.90880017416788 0.0
6.511740956842646 3.09340654756684 0.0
8.793527829963288 3.935174834810256 0.0
8.736430500996828 4.042719556852617 0.0
7.631260330584174 4.565300771328012 0.0
8.359058396840432 7.801678182761817 0.0
5.339436215072359 5.184870243702279 0.0
4.994031736761993 5.193306795607908 0.0
6.383387675268097 4.87760645722207 0.0
7.29117392392962 6.382172868329505 0.0
6.378196825372041 2.907113079755629 0.0
6.269817199014261 3.12412150658573 0.0
8.793149127377946 3.255386294257182 0.0
8.725774239201558 3.141596687892195 0.0
8.857434600673502 4.041295940541356 0.0
8.802868937128341 4.1471119953668 0.0
8.532045262478793 7.7905977476835 0.0
7.364542641624493 2.699128473342751 0.0
7.571677611088925 2.695732556686516 0.0
6.723058333614999 2.672341359410618 0.0
8.456744924757372 7.94483904450548 0.0
6.140831279784704 2.921247401137864 0.0
6.02419219050745 3.14358702955763 0.0
8.916255604212301 3.934279868822481 0.0
8.859287250884009 3.140226640574265 0.0
8.791092798057303 3.025929352146465 0.0
7.210445465986021 6.245773134960393 0.0
7.120884161792869 6.385155584680196 0.0
7.036931702064287 6.240721609143972 0.0
6.943722280007011 6.3869279517155 0.0
8.920094519678617 4.144837222494242 0.0
8.864374107136287 4.250930406527029 0.0
7.347569838739255 4.463467417508182 0.0
5.90383431757064 2.935113219563906 0.0
5.783476009580765 3.156456199832474 0.0
8.626013191558314 7.935092223505354 0.0
8.687240186957197 7.796697889991163 0.0
5.642059327424706 2.903018174330269 0.0
5.52647853955939 3.162549070310043 0.0
8.555300051897738 8.086169516016518 0.0
8.405624441178524 8.083972416481254 0.0
5.374124307190728 2.945480555950917 0.0
8.935805220807357 3.249260758206028 0.0
8.981625171409894 4.247375537584228 0.0
8.924725364486765 4.352101286657735 0.0
8.807208588134106 4.356163101450244 0.0
8.868277832430604 4.45657124153171 0.0
8.75099635287701 4.460644845248524 0.0
8.812385950597063 4.560891222623518 0.0
8.693833206943118 4.564602972998703 0.0
8.756474732548273 4.665720853686476 0.0
8.63721608225855 4.669394550615355 0.0
8.700108119351134 4.770682016274914 0.0
8.81920502916846 4.767536120893284 0.0
8.76355311338807 4.871451945248518 0.0
8.881442328033694 4.868382238751069 0.0
8.826433523510634 4.97132552240372 0.0
8.943387824985514 4.967694248194483 0.0
8.888718468126953 5.071044784833541 0.0
8.580377663835254 4.774669738817985 0.0
8.770572242937233 5.073880380431421 0.0
8.832915096600454 5.174518948293615 0.0
8.952224483821848 5.170970838320107 0.0
8.897282771771884 5.275476392171722 0.0
7.463928467290875 2.513944501591933 0.0
7.675935950092034 2.509420347143072 0.0
8.924252417741767 3.024418701372628 0.0
8.857265893102921 2.911213535286156 0.0
8.776981063213334 5.27944309004916 0.0
8.840710910770163 5.380165700477552 0.0
8.960876896785969 5.375521424256389 0.0
8.904555918255223 5.482125846038813 0.0
7.567193097677677 2.32750151280277 0.0
7.780880844888839 2.323064027160363 0.0
6.851602118390116 6.234522818184622 0.0
6.758680682687229 6.389359516748128 0.0
6.66345977321418 6.231254850996584 0.0
8.715764716958308 8.079994249772627 0.0
8.65189989696114 8.227534663647639 0.0
9.042229096541828 4.348551764001607 0.0
6.436774206993324 3.316782326998922 0.0
7.590527613340588 5.22651784724799 0.0
9.024366884701616 5.476726561488805 0.0
8.968734351641839 5.583879050892151 0.0
8.845941080047659 5.586406316932274 0.0
8.909881305857882 5.690482454668167 0.0
7.348726871578975 5.44047403999932 0.0
6.567070253986433 6.398115757512583 0.0
6.697077150072261 6.553426749743366 0.0
5.252377383990728 3.187782967482479 0.0
8.988440431820699 2.908621158637298 0.0
8.922541972760119 2.796420836075996 0.0
6.466806010659505 6.229115583261771 0.0
9.033851153821296 5.686506775615425 0.0
8.978340519963718 5.795772485582058 0.0
8.85111463793018 5.798672910287243 0.0
8.922171984280597 5.907237880910408 0.0
8.795190680908043 5.911854068712683 0.0
8.864373398892472 6.019728357749566 0.0
8.991346995940626 6.014539153309398 0.0
8.93374019140187 6.12698887312768 0.0
5.095192648098848 2.952353430985476 0.0
7.672651464908932 2.141715359830917 0.0
7.886266921042761 2.136211284120189 0.0
9.098474286589756 4.245971410451114 0.0
8.813172564986438 8.216887361735234 0.0
8.74802978243154 8.366104673219047 0.0
9.059985162956899 6.120982589539211 0.0
9.00342813739303 6.233245043891739 0.0
4.961413514304496 3.214209167276753 0.0
9.05248113004685 2.794651022570942 0.0
8.986028039118027 2.681341972594222 0.0
5.671890458441996 3.377122473800023 0.0
4.755829262593116 7.184480462344647 0.0
9.158258644940048 4.34465968221255 0.0
4.799687186662534 2.961354824469195 0.0
6.030554747591715 2.726787502996874 0.0
8.938327180212585 8.34758372042188 0.0
8.847392320655468 8.503370672816716 0.0
8.67342124373679 8.518117686968314 0.0
5.234423106934083 2.694925204361751 0.0
8.964923046453565 8.185313058214797 0.0
7.456650986668838 2.134076476407834 0.0
9.111732084821366 2.897226832609386 0.0
6.368055837513985 6.402805870976705 0.0
6.265629899005033 6.226581076317183 0.0
8.736327196352686 6.026404178766982 0.0
9.117473097358854 2.67987006607594 0.0
9.052137415465204 2.565428515518978 0.0
7.781001557847192 1.955874236406257 0.0
7.992134447300669 1.949184538864554 0.0
8.593074792993455 3.143159483125708 0.0
9.1291360203536 6.226877897052981 0.0
9.072154326613617 6.338696745620542 0.0
8.916532550320525 2.566986282201109 0.0
8.984021113721658 2.449252898983242 0.0
9.178032243215632 6.120533546076094 0.0
9.213703592343162 4.244823670856978 0.0
9.11972142641474 2.449071238668887 0.0
9.052853896812186 2.33190758581705 0.0
8.635035926402708 4.462329956179506 0.0
8.773614475966344 8.657865377672689 0.0
8.596400917257634 8.67759750279447 0.0
8.942023339420883 8.644678093589654 0.0
9.19471670675691 6.33096438039349 0.0
9.138460613363325 6.443043552768813 0.0
8.66620319432524 5.916297234509582 0.0
8.606669825267202 6.032658196729024 0.0
9.27222540210304 4.341341907533128 0.0
9.013782808177437 6.451040569407859 0.0
9.08360982569773 6.55729980456602 0.0
7.885622149776354 1.768093045890686 0.0
8.095672144455353 1.768790621151345 0.0
9.208772072925791 6.549717411809656 0.0
9.154272208194383 6.662613503537815 0.0
9.187669783927937 2.334640996932141 0.0
9.122379015831417 2.215832190697178 0.0
6.164077036161143 6.404611236428829 0.0
6.062367614988677 6.224307160647549 0.0
8.987075041759633 2.211477580983978 0.0
9.056972755801603 2.093573581203428 0.0
9.194557288902232 2.096029761809264 0.0
9.131223008370409 1.972713028695079 0.0
8.87381302587057 8.795793668920256 0.0
9.039169086943392 8.781606667490083 0.0
4.662813350519927 3.228118291851354 0.0
4.474181267994617 2.945703616023359 0.0
6.562627723301209 6.075544382232434 0.0
9.326886053211574 4.243083624343211 0.0
9.280374192897945 6.656072830232892 0.0
9.224718905178564 6.766740750539347 0.0
4.703284910421452 6.528907865005451 0.0
8.955136474970331 6.565989985649191 0.0
8.998148826814893 4.865480736169776 0.0
8.99429836796776 1.965972383552685 0.0
9.065669391141741 1.847195105148808 0.0
9.207236162050343 1.853010386995843 0.0
9.143218073349985 1.725630086781897 0.0
8.998867447699345 1.719378449325465 0.0
9.082595782768397 1.592017827427701 0.0
8.92804562738841 1.585238202229766 0.0
9.01637794607019 1.453847302675876 0.0
8.854253119154375 1.446306868730686 0.0
8.941620273019874 1.320083886766936 0.0
8.775393064215876 1.308487027359826 0.0
9.102170347200483 1.324733726345249 0.0
9.013857060361985 1.178821526410403 0.0
7.991031819452564 1.587689878441685 0.0
7.767218744640202 1.595993197647291 0.0
9.191539171305216 1.194087248761656 0.0
9.123965901037613 1.057102462689568 0.0
4.853921953226772 3.470213116851758 0.0
7.496563223334782 3.470157221608763 0.0
8.536691379028115 5.921845852206257 0.0
8.475496498707471 6.037633662010236 0.0
7.978668526342969 2.307231488316941 0.0
9.384721922092124 4.337357165846226 0.0
9.331039180200886 4.435926256444196 0.0
8.546261775564837 6.150267290476958 0.0
8.411727261785726 6.155319300628062 0.0
8.972203609044218 8.930944433074036 0.0
9.133480321468399 8.90955269607895 0.0
9.197778815538276 8.768743880012563 0.0
6.162231825784922 6.05277753404107 0.0
5.962111081146334 6.046949845237622 0.0
9.268727788642101 4.146883230687689 0.0
9.380694211527906 4.144811697563401 0.0
9.323823335199954 4.049557759546529 0.0
9.283324894520613 1.736313094621396 0.0
5.858151623803662 6.22041808248046 0.0
5.759668475561988 6.038806123495502 0.0
7.836860473863919 3.191674397465999 0.0
9.348591928839294 6.75855034547469 0.0
9.293979592221298 6.870213350675044 0.0
9.170543172728557 6.879819332293818 0.0
9.240028263813034 6.983394994050525 0.0
4.347372565145963 3.312731475520695 0.0
4.114183445909965 2.96879678229065 0.0
8.616264880152233 4.042035981070631 0.0
9.403174760076901 6.650407069150438 0.0
4.173860112179449 7.723461240865885 0.0
9.365302975518428 6.973476802087294 0.0
9.312420275675276 7.088420778208979 0.0
9.184876614539778 7.0978133687822 0.0
9.25921281729617 7.204979813006656 0.0
9.12816413817609 7.21569648263899 0.0
9.203944409919862 7.322703303071253 0.0
9.334311975087337 7.311477957762272 0.0
9.280415785210538 7.428795599957155 0.0
9.274060219641907 1.066603180421249 0.0
9.211820491509728 0.9316562593680151 0.0
9.050684011148748 0.9017681241401576 0.0
9.441953732403995 4.432092590771756 0.0
9.394725873909666 4.526051349391942 0.0
9.43453556160865 4.048003950509361 0.0
9.378043599351757 3.952631412328806 0.0
9.289691247910705 8.890746792319852 0.0
9.228148443138926 9.030109127390128 0.0
4.440757888677695 6.389562448928118 0.0
4.689874463978985 6.239329075084555 0.0
4.291519540095677 2.622920583112654 0.0
3.886073352912894 2.632778677714434 0.0
9.344015622314338 1.202401041544343 0.0
8.193292196814806 3.849649660906171 0.0
6.960946604527747 6.07044529864598 0.0
9.347708267319902 8.756364147482309 0.0
6.826423138602714 3.261415861395883 0.0
6.06309517882478 5.884563187328262 0.0
9.4085057714426 7.414123963607981 0.0
9.356416821537886 7.532359471354527 0.0
5.042074134251055 6.938947182785697 0.0
5.063988238156824 7.311205832605263 0.0
3.946666851334923 3.30681624613374 0.0
8.189857914071878 1.939951128540477 0.0
7.880690277686857 1.38928908049477 0.0
7.63766396748483 1.399736360041063 0.0
9.345004233592562 1.857695941115052 0.0
9.440465164139875 7.085860901905448 0.0
7.918332480761888 5.744468010879592 0.0
9.08007135068879 5.372457017512481 0.0
8.78639561093144 3.718391405525285 0.0
9.356843485085705 0.9414458825132457 0.0
9.29705128845331 0.8103081541678832 0.0
9.251825423225316 2.451701826351773 0.0
8.483895366325516 6.270717564685176 0.0
8.346386886249478 6.275973306650227 0.0
9.493299170161215 4.138582531223591 0.0
5.321115649032961 7.117073603021904 0.0
5.354076009109965 7.436189411362466 0.0
5.597984079819928 7.254284331170681 0.0
5.644042313435943 7.564172740776336 0.0
5.383963016128051 7.753854027984002 0.0
5.681168258142109 7.880444993178456 0.0
5.935548099874979 7.687258900444162 0.0
5.979508404301389 7.994332725561488 0.0
6.21936843555201 7.802335560754011 0.0
6.267092590637372 8.104873033518185 0.0
6.498845418385807 7.917606504106031 0.0
6.544600005636809 8.209910620392591 0.0
6.77336078689533 8.027284686082275 0.0
6.814840179123049 8.311778392637773 0.0
6.721304148677048 7.737863326704131 0.0
7.031320924898797 8.1335673274533 0.0
7.077388928622946 8.403901803728003 0.0
5.417471987089176 8.090112295667405 0.0
8.845427688507666 2.446352368201366 0.0
9.318512319918124 2.339233739859646 0.0
9.380241452597096 2.451895615249572 0.0
7.283805558009199 8.237518806365102 0.0
7.329200330160381 8.497045124353782 0.0
7.233272584416691 7.991590926766813 0.0
9.142592248414191 5.471315142785471 0.0
9.196303265878848 5.36738298742727 0.0
9.25795832955665 5.465260877691205 0.0
9.310581303233182 5.36341558704714 0.0
9.371094700882272 5.459458038195667 0.0
9.422767107822985 5.360687090455724 0.0
9.36402660964156 5.264821436196721 0.0
9.474220736978928 5.262802348886269 0.0
9.41680330511366 5.169477108906666 0.0
5.168675939028436 4.895496152382537 0.0
9.482591449057548 5.454699312257291 0.0
9.431567605310825 5.552723344040521 0.0
7.531449703396948 4.741663470323411 0.0
8.517293123442691 4.672601123164268 0.0
8.459978676626639 4.778466809901586 0.0
8.396595115309985 4.67568709170855 0.0
8.338966609235166 4.782101664607259 0.0
8.275355646032752 4.678829956447008 0.0
8.217675280223542 4.785699596769931 0.0
8.28149024865807 4.888803783902183 0.0
8.16019781596952 4.892696417098926 0.0
8.22433278506531 4.995725219088695 0.0
8.102825704443651 4.999629142625341 0.0
8.166887930010795 5.098242831115916 0.0
8.034904900788316 4.896825406879729 0.0
8.15353539905931 4.682103688185489 0.0
8.211891449058882 4.574219757233394 0.0
8.290305306104333 5.094007100958221 0.0
8.225684228618732 5.201525567655179 0.0
9.444618942559746 2.343141375196729 0.0
6.929446520625337 4.868116916840016 0.0
5.737810725167649 4.893891407574175 0.0
8.720389971487277 5.38508368411851 0.0
8.805734920311323 8.951818172412821 0.0
8.905272694453211 9.083303226359831 0.0
6.006155038818204 5.171375272745409 0.0
6.431496448228514 5.152985998213245 0.0
9.052675024457304 7.106590131831544 0.0
7.740007013494393 6.09727525827826 0.0
9.375852260355511 9.013078430361404 0.0
9.32035844773103 9.14584923943073 0.0
6.989707597683965 5.146377438798643 0.0
9.488190206836386 3.951168069367155 0.0
9.432429152094464 3.855725756072153 0.0
5.568386402814275 5.185723849666124 0.0
9.525561551078322 5.166162126187324 0.0
9.465026391994275 5.072601962964018 0.0
9.320357339516937 3.857795423728873 0.0
9.375955927831914 3.759314274140895 0.0
9.261783786753899 3.761412578759438 0.0
9.31820665563318 3.661845422072752 0.0
9.431798673168924 3.660830894813109 0.0
9.374584413615914 3.563138564686839 0.0
9.48759661134647 3.562294297118573 0.0
9.431339678707085 3.464016717943268 0.0
9.417896212887529 1.746970678437863 0.0
8.731705369070733 9.110902182838881 0.0
5.652297951447118 6.21188565774667 0.0
5.569122518069258 6.024400786163834 0.0
8.257007204149394 3.505875091031567 0.0
8.717428603143034 2.925525757227976 0.0
6.882852832747376 8.57686572931064 0.0
6.337330066435714 8.416819098143066 0.0
9.50188906539997 4.521022403818629 0.0
9.453500859905136 4.617181635748691 0.0
9.46806769570129 6.749352117850711 0.0
8.836822104875719 1.72282859852854 0.0
7.481071063421426 5.64593758994851 0.0
5.668814988976305 5.86611128457842 0.0
5.487644760735084 5.847591822776978 0.0
8.993992818065195 7.228173913870249 0.0
7.98322414937693 7.229980191466666 0.0
9.22810751684646 7.54864871395298 0.0
9.304103360459063 7.654622011545798 0.0
9.432787371848761 7.633691049023619 0.0
9.382619818023882 7.759136995934441 0.0
7.239096822516492 4.679179578301165 0.0
9.47692479956498 1.861231395362419 0.0
8.041243110813022 5.095895152648969 0.0
6.190208781188077 7.509864122823853 0.0
9.283062812782122 4.549418667685757 0.0
9.503847665760087 2.450295046295932 0.0
9.443345385250678 2.557904120404248 0.0
9.52009568463353 6.644015937008899 0.0
9.203119005973903 3.662458522935253 0.0
8.406198651282708 5.92630414760378 0.0
8.467263597743843 5.811987729136874 0.0
9.461423029059445 9.128120577356565 0.0
9.408445330070542 9.26024300250086 0.0
9.266505293379728 9.277952925446408 0.0
4.14874709022218 3.631681332690154 0.0
9.437448107949258 0.8198473430736303 0.0
9.376993771693973 0.6910550697058979 0.0
9.22882356848217 0.6931820370818127 0.0
4.451823867195988 6.103664366188579 0.0
4.200031743909027 6.232039028149317 0.0
4.687154754667774 5.975132870483986 0.0
6.268889397098538 6.592235545990395 0.0
7.509366161722768 8.340075462391164 0.0
7.564775703413765 8.59800936579159 0.0
9.542148732924264 3.854614593058991 0.0
7.036231103929761 6.550562550831048 0.0
4.089373665437328 2.268193930262139 0.0
3.642558884866483 2.250386188148396 0.0
3.442182385618804 2.651948803899947 0.0
3.146832503011753 2.222630466765926 0.0
2.948870467975985 2.805088883766417 0.0
9.352005315330274 5.067356449300542 0.0
9.31729677031493 3.462944187594675 0.0
9.37428383619102 3.365546369736205 0.0
9.4883538239391 3.365384871181599 0.0
9.432147665178338 3.267287636377487 0.0
9.25034519267688 7.775848812012313 0.0
9.332091350002502 7.881724023243533 0.0
9.462101000264603 7.86490055671988 0.0
9.413353271651825 7.98561007219363 0.0
8.273592814723814 6.158623919352561 0.0
8.207135014732339 6.280394934566054 0.0
9.541483811580331 5.548224291759592 0.0
9.491365919893726 5.644847811894615 0.0
8.088095771120983 4.577581369371366 0.0
8.14760102783746 4.468303741922308 0.0
9.556217963323956 4.414867468889523 0.0
9.543667331547693 3.266908751519594 0.0
9.489307652535885 3.169908976697059 0.0
9.26285575842982 8.635341362685686 0.0
9.403220742003983 8.621447866627538 0.0
9.326013417886902 8.506778946171965 0.0
9.455477927154853 8.503896705359047 0.0
9.566646674069602 4.611465258087684 0.0
9.499341049870914 0.9352184973273918 0.0
8.683891958597638 1.444705608998412 0.0
8.599973456173778 1.287265568270043 0.0
7.760988189317371 1.175381292562583 0.0
7.50927661322749 1.171223823957793 0.0
7.380927152434357 1.411062577009695 0.0
7.242417847270241 1.170759311509981 0.0
7.107236746116019 1.421234419770886 0.0
6.960799033544566 1.169618322344823 0.0
6.817786081200392 1.434174581170586 0.0
9.48095050141868 8.738557748483624 0.0
9.319762046171894 3.263060331456388 0.0
8.920653400180534 7.117307656029475 0.0
9.452431221190624 6.544166520883111 0.0
9.571407933653493 6.540336592280795 0.0
9.507586285214174 6.443281357841339 0.0
9.575252974749443 5.070210512157044 0.0
5.755172844377253 6.370710487467459 0.0
9.541351959064952 7.969072511059531 0.0
9.354607289792183 9.3921968735401 0.0
9.495213435762107 9.37218405175897 0.0
3.77688136092967 3.643094492921176 0.0
5.460967180339239 6.159077196937325 0.0
8.656589552918996 5.283032675040985 0.0
8.599307076390474 5.387421722684671 0.0
9.584017606465821 5.263931993965828 0.0
9.51536593891754 4.977534386249715 0.0
7.788544970111893 2.70578432810479 0.0
7.381746833264364 8.755477463411431 0.0
7.615969996822885 8.852710176548548 0.0
7.783643411970649 8.691528137204457 0.0
7.845017394185501 8.938777577473743 0.0
8.570520580943368 7.342304222498308 0.0
9.103648004226827 5.781084627507008 0.0
8.338082930126799 5.815990105349368 0.0
8.930848895071895 4.561111316304916 0.0
7.381089602119859 5.983657236035151 0.0
8.42066837692862 6.393608568217351 0.0
8.888256157021065 6.459558428285236 0.0
8.826495664731354 6.575679897210801 0.0
4.22522220414496 5.921354747981145 0.0
3.943296448343383 6.075578573904587 0.0
9.563175937841836 2.554860696349795 0.0
9.505342423182917 2.656889632284623 0.0
6.660863480070611 1.168750929063519 0.0
6.518316961679488 1.436478598119306 0.0
6.683474168246802 1.694104067636375 0.0
6.376799057174731 1.707382100972048 0.0
6.205091481342603 1.443621641108414 0.0
6.058670988071357 1.728841803855816 0.0
5.877457486049096 1.454297236926778 0.0
5.724979192982589 1.756666409586195 0.0
5.529885788012015 1.462283739157555 0.0
9.514953777019835 0.7018468683209754 0.0
8.398665270372675 5.702731562702358 0.0
9.456442249775696 0.5772068858285652 0.0
9.565795671866349 2.345573662774494 0.0
8.830758563027459 9.247271599108435 0.0
8.523580738257648 4.88015211128435 0.0
5.580123316488715 5.701889892660689 0.0
5.398591029446707 5.685938459654249 0.0
5.367686360823392 1.778740548277203 0.0
9.546603444041448 1.754984055696778 0.0
9.489649223089446 1.641312329051244 0.0
9.617973952467912 3.363804764345866 0.0
9.584322830999731 6.729956156156573 0.0
9.597221861144487 3.948534024289882 0.0
9.49401963819799 8.089507968561776 0.0
9.207321074262563 9.416906871900888 0.0
8.27185428346661 4.464932191097996 0.0
8.207416067213774 4.35878753684812 0.0
8.332747746635944 4.354903699457511 0.0
3.990181919126853 3.930792395858886 0.0
8.267392138262498 4.254008221702929 0.0
7.997788712685495 1.196805377512679 0.0
9.600316638269724 5.639973985281733 0.0
9.550939606739425 5.737313319038155 0.0
9.44084303195315 5.74233753256161 0.0
9.50112296154558 5.834555019909565 0.0
8.897429225733994 6.685415510921676 0.0
8.762930941408914 6.695907295903629 0.0
8.654628175336732 9.278157371342388 0.0
8.544676900803436 9.133790942553834 0.0
5.294904777716057 5.855935872688884 0.0
5.216749389964556 5.66865685845661 0.0
9.508453581298625 2.239460033375932 0.0
9.599691370793206 3.169496930704394 0.0
9.546615051106684 3.073514534194011 0.0
7.484714626923596 5.028675123117963 0.0
9.588496050271255 7.850836295555126 0.0
5.153197381012662 1.471340286561097 0.0
9.433168304679345 3.071871997104804 0.0
9.610464706874994 5.829217654498672 0.0
9.561407772947403 5.926179534044419 0.0
8.273381980676042 5.705233340662362 0.0
8.330794188929296 5.594351887246082 0.0
8.207319603076424 5.596747949305344 0.0
7.251338559467102 5.233758892662348 0.0
8.708518799790543 1.130513882092466 0.0
9.590155250193266 0.5878623138195824 0.0
9.389919385420015 5.841079912164009 0.0
7.991397852194216 5.859910582924319 0.0
9.624951589233206 4.975554514425905 0.0
7.240016788025947 2.531866266726309 0.0
7.635666783493215 3.873554782053258 0.0
9.608476620993713 1.863530872936442 0.0
9.365330459496413 8.10677840682376 0.0
8.775076110585598 2.572737931759856 0.0
8.699389445914996 2.444602334375113 0.0
8.625078713232146 2.580891022578613 0.0
8.54447196848446 2.447624719286678 0.0
8.468898498943965 2.586757328881282 0.0
8.62282309213608 2.307826916202421 0.0
9.622102662978762 6.439307895185218 0.0
9.561995355724862 6.35103962032292 0.0
3.898245450818314 1.856155797593496 0.0
9.681759177700954 5.07069253017652 0.0
9.059254996454502 4.963357716933865 0.0
9.113144532326562 4.861710138088372 0.0
9.62140874877204 2.656009146517733 0.0
7.884510615470827 0.9666888912541309 0.0
8.14902661050739 1.005010215149227 0.0
8.491263206618079 8.527197931363634 0.0
8.408859203395778 8.697060715788105 0.0
6.54422152733529 1.954566069381189 0.0
9.563546573097593 2.755667904356369 0.0
9.453065492925557 2.761122255953964 0.0
9.676889098520615 2.755084315170127 0.0
9.678287124781653 2.556838324720633 0.0
2.60254317790297 2.278874965850319 0.0
9.211706272534968 4.050470567310489 0.0
8.526711683538949 5.698821878547752 0.0
8.296604023060945 8.533761944401608 0.0
9.649704314258118 5.543946557831669 0.0
9.651176136337964 3.85122804518279 0.0
9.44590154800397 9.498503704959054 0.0
9.580491248736612 9.476376347552954 0.0
4.3239388803087 3.921156392977062 0.0
9.65737873521736 3.075324100817917 0.0
8.128000846282253 6.160273991836929 0.0
8.06242981852327 6.292371360998262 0.0
8.500465019503922 1.442700595221201 0.0
9.615253212967009 1.649819368149096 0.0
9.561768620580791 1.538553925606111 0.0
9.435477757657937 1.527391516499924 0.0
9.627993450010088 2.242685831452484 0.0
9.5338252733548 0.4673994795805215 0.0
9.398055066504014 0.4589059948533885 0.0
9.669486082509058 5.920177035588319 0.0
9.621072177439727 6.016493814615133 0.0
9.506185962103057 6.018397021409126 0.0
9.196884440497488 7.898824858961557 0.0
9.112591143666748 7.789491461180181 0.0
9.664357762385308 7.950712034233033 0.0
8.46233617997115 2.308903464128035 0.0
8.547917980328803 2.169381684694277 0.0
8.139931430059324 6.410762600521521 0.0
7.672499127532963 9.099143622036436 0.0
7.91372855627271 9.178704612763656 0.0
8.463425076318451 9.290653726808348 0.0
9.643938029094286 9.335632419679458 0.0
9.647017668702574 0.7068996148634754 0.0
6.241662276606473 5.884018212993202 0.0
6.157742245066693 5.73500474100449 0.0
6.318815619949124 5.730068085823802 0.0
6.247706374231452 5.593094310939028 0.0
6.406948541886973 5.593272398468375 0.0
6.092564106310554 5.587409338401505 0.0
8.535507922245372 5.286142900439676 0.0
8.022959839404006 4.471630490587016 0.0
7.963561162854596 4.581393556789843 0.0
9.683487139413305 1.546750704925431 0.0
9.630761777960082 1.435922217091829 0.0
5.121714348989337 7.950140247572198 0.0
5.136464096196084 8.310254432483559 0.0
5.47349124035624 8.455234262268478 0.0
5.176273618280354 8.687190323573228 0.0
4.796664658962938 8.592678692862421 0.0
9.568705729418735 4.887269869750176 0.0
9.462711651199594 4.88832222094458 0.0
9.674903475028225 4.882285174433025 0.0
5.4996067353406 5.546583260717527 0.0
5.663632234555963 5.557613452957074 0.0
6.829408195405585 1.947174574944512 0.0
5.336529198289861 1.127585641139875 0.0
9.672387559812332 6.34138351957329 0.0
4.463988917379896 2.271060678869338 0.0
8.618048281355405 6.263841736419089 0.0
6.480949808711781 5.74815588680617 0.0
6.562207427719153 5.592185077216444 0.0
6.643040463857446 5.721233693378952 0.0
6.712825900331884 5.588664360236 0.0
6.79240375630333 5.711383948285569 0.0
6.86115931532141 5.584697050428064 0.0
6.939210100691576 5.704407337029545 0.0
7.007668476576536 5.580801046893123 0.0
7.084627386867475 5.702817970154801 0.0
6.633257976075473 5.460881327825488 0.0
6.931430743764456 5.461960451448691 0.0
9.682652370938209 6.533133024505995 0.0
8.761108695241376 9.450742747770144 0.0
9.146031326900015 3.764292700000154 0.0
9.089378801805193 3.661317181076136 0.0
9.514354521818781 8.994988681611192 0.0
8.157650730500988 4.262987189670279 0.0
6.329633198899328 5.4647789391701 0.0
2.340685767996258 2.811285337457589 0.0
7.379572471323651 0.9290892725587991 0.0
4.171878172186605 4.222320767259098 0.0
4.4876601621649 4.16473354200826 0.0
5.336389369563535 6.806464508860387 0.0
9.595468321212476 9.108133206829102 0.0
9.645038675267227 8.982113951305912 0.0
8.393140678816192 4.246338342095281 0.0
8.309440721624494 4.155300532283633 0.0
9.418269339704423 1.9925512363779 0.0
9.662781807969623 0.477809346089035 0.0
8.011297869803792 0.7518828483803571 0.0
8.250149975885678 0.7646904662196189 0.0
9.608674873602773 0.3618049194050078 0.0
8.692696069692623 6.582927327365709 0.0
8.628225948401226 6.705702462696891 0.0
8.701883181418305 6.822086652299242 0.0
8.559276855155542 6.829564723911442 0.0
7.069268463354993 5.459534423493629 0.0
2.654575201159115 3.323490466195074 0.0
3.610801136544596 4.044075244426243 0.0
8.263757217166944 5.48730323490738 0.0
8.138838162809126 5.491254533497952 0.0
7.90196833683664 4.477386962763833 0.0
7.987943097943191 3.978756490171551 0.0
9.704623491880403 3.945605151832784 0.0
9.461009573830147 7.301728818091931 0.0
9.532468631193666 7.399916015174975 0.0
9.582688928417856 7.292330983701011 0.0
9.652579613269625 7.387768793572397 0.0
9.699264016151023 7.282867433965265 0.0
9.633305589700536 7.188543855060478 0.0
9.505576100168666 6.961225778216469 0.0
9.43876966151099 6.342441564206569 0.0
4.908483672172518 6.098703904450545 0.0
9.135448256237908 5.269827196966999 0.0
5.905650502271389 2.025036080946255 0.0
9.709890722072377 9.452748507541063 0.0
9.663337613522643 9.572126259365891 0.0
9.603900123387826 7.495180532331903 0.0
9.720147629525837 7.483400774981126 0.0
9.674588415444239 7.588303295299578 0.0
9.653186673863587 4.039274180923234 0.0
9.053164539680804 4.764545162185531 0.0
9.164908495749003 4.763017269285045 0.0
9.226019227262443 4.858029410614327 0.0
8.809947621994619 3.4964384919072 0.0
9.10538997155458 4.665865142902959 0.0
9.331074106432244 5.748993480915537 0.0
9.055854333858068 7.918554535314415 0.0
9.446431573964945 8.209836764658437 0.0
9.573844810886287 8.191100251691205 0.0
9.309704769895653 8.244395007943949 0.0
7.240329561730736 1.676197957122907 0.0
9.543389817573933 3.660019800390455 0.0
9.598599341122098 3.563130123982772 0.0
9.652615161407017 3.658119804270645 0.0
9.706336063693934 3.564815526226687 0.0
8.632284427755456 6.946688912416058 0.0
9.682863230715835 2.349655023034811 0.0
9.571538455120994 2.142369886250143 0.0
8.090821900439733 9.017409120951333 0.0
6.812258669899192 0.9007667548831626 0.0
6.50135254578461 0.8974046495177885 0.0
9.598335906230732 6.246437748035812 0.0
9.719677442549804 6.253968775436637 0.0
8.593026822691716 5.180101360605356 0.0
5.537586126848265 8.836083861509138 0.0
9.688689404995035 2.143487155934306 0.0
2.821389253975936 6.507820864074362 0.0
9.176571289960709 8.507736431357309 0.0
2.918303740542162 8.256728920338826 0.0
3.428955230180972 8.401446814887457 0.0
8.490587404589881 6.715350139132777 0.0
8.86049054904785 7.243279881821806 0.0
8.93696309213556 7.356650230611625 0.0
3.951931175165697 5.78308550088855 0.0
3.65055612573298 5.91672400098539 0.0
3.668142216548471 6.247526235973777 0.0
9.717269848920886 5.821831227352286 0.0
9.708364917734201 3.164198601626433 0.0
8.45581975650687 4.569560863828342 0.0
8.204448312099833 6.040774355519757 0.0
8.65969449127868 5.485991799508151 0.0
9.707534571012967 5.634423933296901 0.0
9.62102991883279 2.849662850313935 0.0
9.144093558002634 3.560383427867003 0.0
8.29763273805118 1.77155302934031 0.0
5.280452715709455 9.01633391004168 0.0
8.984558945859158 6.99932633710603 0.0
8.4157550875812 1.275784953143711 0.0
2.068078118650995 3.355462780535101 0.0
9.205703884756806 5.568274778556933 0.0
9.745857863753141 7.178456670302003 0.0
9.681628895748586 7.081494416756802 0.0
8.875818787971069 6.240744812097083 0.0
7.993733797566922 6.414830952863579 0.0
8.462810157069566 3.377071044664789 0.0
9.29428363519789 4.759591981903337 0.0
7.933956818298286 5.97437536746848 0.0
9.028281726378319 3.558713145763133 0.0
9.083461773461467 3.455531762175701 0.0
9.73231939683535 2.849247643393067 0.0
6.70072305037728 2.192432536215492 0.0
6.423245125077639 2.212870246546939 0.0
4.931537051605536 1.135086496804522 0.0
4.746426561586179 1.500381091957315 0.0
9.707706579932626 7.836419656220658 0.0
8.590593344701457 1.595639668013959 0.0
8.708946574109854 2.1688179918246 0.0
8.634728854549891 2.028564483452208 0.0
9.230357659411311 8.129337203173913 0.0
9.102841374461482 4.452881308250647 0.0
8.472081531214734 5.388993924853032 0.0
4.925996806199801 5.844046944846857 0.0
4.702806345752284 5.745688656289065 0.0
4.884357002239844 5.633237011762874 0.0
4.709628434300812 5.536404116679045 0.0
4.530800966746534 5.627044171217377 0.0
6.040296145349247 6.603808099703576 0.0
6.162203578696918 6.795213950202512 0.0
5.923135943221574 6.824060069869489 0.0
6.046693245732212 7.010423490915212 0.0
6.297337598588478 6.979895528204233 0.0
7.760448385794147 0.7294020304851334 0.0
8.492228348169641 6.958778476405878 0.0
2.89219822877093 1.704113597264478 0.0
2.26178643438086 1.7814602252425 0.0
9.726968895980871 6.009547057102511 0.0
6.63195110828313 0.6072886418835157 0.0
7.984023036954866 7.515675826210831 0.0
7.893857204140559 7.681876703427663 0.0
7.778465117872411 7.537836322197895 0.0
7.998204230811618 7.844922503023499 0.0
7.798554315988981 7.858161805718108 0.0
7.917846202023782 8.03040048103727 0.0
8.547520504556728 2.721261126162116 0.0
8.39253850806587 2.732073315877738 0.0
8.306047241032278 2.59069854402512 0.0
8.233011054235162 2.739783364361515 0.0
8.318836035587811 2.879838477099622 0.0
8.159530874574331 2.888511553151382 0.0
8.245490421394788 3.024568439743106 0.0
9.759103003747676 3.077839427881478 0.0
8.083610090773394 3.033523757291178 0.0
8.174562583800352 3.166768504406541 0.0
6.046769434852523 1.155662270344939 0.0
6.968371001421964 2.176347877216873 0.0
8.324858098380334 3.152966249334499 0.0
8.145556596142626 2.609897633546475 0.0
8.970652052821418 7.804556541250797 0.0
9.033737629244714 7.681328986528639 0.0
9.62347010002576 4.796939565664328 0.0
9.72520380348743 4.790261082613535 0.0
4.882631186210167 5.455006233451049 0.0
4.618356368594037 3.933076284395493 0.0
4.748083507220199 4.151025177732873 0.0
4.641724290430313 4.358202249373887 0.0
4.87055838101999 4.337900676660481 0.0
4.974114446887331 4.149149057174687 0.0
5.081577844806959 4.3240148266423 0.0
5.179521650033781 4.148725180298481 0.0
5.276261408871418 4.316673822529601 0.0
5.369189110897883 4.148362797753505 0.0
5.463892033849439 4.338819369807593 0.0
5.550828466075906 4.146274465971151 0.0
5.646554822352869 4.303571429647391 0.0
5.728109623160046 4.138582010823754 0.0
5.821689108984419 4.291959598724587 0.0
5.906082534948073 4.141649907302701 0.0
5.99655838673762 4.288752711512514 0.0
6.077312859438928 4.141011188943332 0.0
6.164215275138099 4.281164574562373 0.0
6.241782344986693 4.140701084167517 0.0
6.324316420613108 4.277393447415522 0.0
6.40284165425941 4.140026953305852 0.0
6.483655157361099 4.273418937894759 0.0
6.561170698911611 4.136221843106807 0.0
6.63512300179586 4.269917278694155 0.0
6.720306110251473 4.133393659385058 0.0
6.63777078218551 3.99617001426095 0.0
6.802492763973074 3.994355399489989 0.0
6.798834760478153 4.276914787769972 0.0
6.15377608509923 4.000134206628027 0.0
6.548727135071258 4.400510710520637 0.0
6.251479300130713 4.421887359316258 0.0
5.275876048175579 3.979624500657822 0.0
5.910905077162284 4.431174408784691 0.0
6.717070288412452 3.851239795555301 0.0
6.883499045994213 3.852555480300214 0.0
6.96664848901999 3.994033961856844 0.0
7.048208567116626 3.854750001965969 0.0
5.810004974283072 3.982497501655442 0.0
5.586615391658107 4.471070246359201 0.0
6.547331954052155 3.853872077215347 0.0
5.179081233207816 4.485638492900557 0.0
7.126615227065496 3.995337770596979 0.0
7.209459742762513 3.856893463870469 0.0
7.130226097876905 3.713620439679428 0.0
6.63075064074106 3.699684148676045 0.0
6.446985573861992 3.697358756862005 0.0
7.043151422977365 4.131713936060725 0.0
7.198322215260019 4.129850614748363 0.0
7.119378405252723 4.26005098890218 0.0
4.797146270976422 4.525762781577414 0.0
4.608329098388589 4.573584257851931 0.0
7.294442092743627 3.720853338661503 0.0
7.215753312764997 3.571378507508807 0.0
7.049631633956289 3.568047985538775 0.0
7.133765707749521 3.414282375958479 0.0
9.755079417839903 5.539705890434435 0.0
9.698955703441971 5.450920012703194 0.0
9.717604099406742 9.09084770432896 0.0
9.276716006673976 5.847248422342224 0.0
9.339081208926798 5.941174203394446 0.0
9.031261921742963 3.750271483819014 0.0
9.08721978689863 3.853416037308712 0.0
4.801461566647803 7.510704110489921 0.0
8.206553504932042 5.818005960412773 0.0
7.362361315389098 3.863102442315545 0.0
9.492826845316191 2.963845037486267 0.0
9.376710375304633 2.97229517374228 0.0
9.3192743723601 3.070687802230453 0.0
7.915389082113898 6.293241865913004 0.0
6.735006382384437 5.832450056405368 0.0
8.456481836836168 4.35369289249905 0.0
8.517718268476031 4.246675068616396 0.0
5.583512022030555 5.411069060406398 0.0
5.73625200174779 5.422617752052123 0.0
5.81006929286229 5.548584937688919 0.0
5.903438861894402 5.420604003204523 0.0
5.43801870974416 5.402925156167655 0.0
7.022641548594327 5.825217331839047 0.0
7.165095795605366 5.826005223633447 0.0
7.223078558430726 5.690146755650336 0.0
7.841396000338385 4.586693006493787 0.0
7.904793170875705 4.690826189066096 0.0
7.785999820520073 4.696719777099973 0.0
7.846448506395101 4.798518978096564 0.0
7.728149182067156 4.803800941124008 0.0
7.788983823826226 4.904802634695232 0.0
7.672018889153144 4.910077510508749 0.0
7.731996012352178 5.014717724244488 0.0
7.852072803124419 5.00743796185411 0.0
7.779278698005006 5.118909346425974 0.0
8.088113864063853 5.605434545811022 0.0
8.016457362785575 5.494849890158723 0.0
8.072290383394757 5.385594956317259 0.0
7.95068657972964 5.38825563681957 0.0
8.309366678475389 1.438342408757099 0.0
9.748160780780179 1.447794693754379 0.0
9.696454228162398 1.337889922375316 0.0
9.568813761940916 1.329560834053294 0.0
9.638326779791626 1.226729570935787 0.0
8.472132467407484 5.182856496818138 0.0
8.066211547412054 6.53691730655352 0.0
8.217035586462373 6.522976700918602 0.0
3.544839338670893 3.324491119989469 0.0
6.999740002965287 5.347729916247808 0.0
6.874544698914502 5.347027470386579 0.0
4.880451234715014 5.193043717957879 0.0
9.104510033763066 9.313204713465637 0.0
9.0466357104558 9.45359399494339 0.0
9.146803165140184 9.569652364413551 0.0
8.134107047896672 0.5527712356100052 0.0
8.369770412730738 0.5571215815175228 0.0
8.47386979744655 0.7564607169846485 0.0
8.585193608569258 0.5749174254532757 0.0
8.683868132726584 0.75505070091701 0.0
8.787381435061018 0.5813987798627239 0.0
8.697570280442534 0.3771156480326233 0.0
8.530048434259976 5.077280516000916 0.0
7.995091351438729 2.90367515012593 0.0
9.731083608815164 1.662638626153251 0.0
7.260488865351954 4.255073962371814 0.0
9.760728358076392 8.990038509880067 0.0
9.716710396257366 8.884160310398862 0.0
8.794627466210242 7.369659405098349 0.0
8.868068657550866 7.515048014893154 0.0
8.702594597629135 7.510501129643432 0.0
5.132320689147051 0.7610757801158905 0.0
9.755852887652699 3.853180024615871 0.0
9.787424819067885 2.757921105725315 0.0
9.731193479931608 0.3736343090103709 0.0
9.796526908308536 0.489684029254899 0.0
8.226019692057042 2.453349105940535 0.0
4.560989821496479 5.428206018250252 0.0
4.348810639659689 5.517048281386008 0.0
8.785190163106925 7.119142251269924 0.0
9.015515413043023 7.464769766852701 0.0
9.754861440190705 3.659036930324926 0.0
9.7543610723378 4.033687839160082 0.0
9.707881226943384 4.127219992296752 0.0
9.52841017383273 8.309020665649431 0.0
9.65186044414544 8.289498614805698 0.0
9.714051275521857 8.173576484362068 0.0
8.209758892476394 8.715513071423135 0.0
8.097084883671858 8.548851201381087 0.0
8.177989947800599 8.367872862579052 0.0
7.974142434808908 8.36779470623567 0.0
8.409012054919861 2.142624252464372 0.0
7.707002321497132 8.039129945341395 0.0
7.574653123518228 7.83895791570255 0.0
9.229858094382692 5.951357214361815 0.0
9.75307989876696 1.229893222503321 0.0
9.715811155868643 1.128779429890018 0.0
9.597960915003707 1.117058287635912 0.0
9.672063923518955 1.020806103150243 0.0
8.99090422125785 9.593878510105375 0.0
8.133165456134304 9.257620998029804 0.0
7.976779931497633 9.420725324095141 0.0
9.77231778617502 7.927819487779705 0.0
7.957213679655531 4.364530256281665 0.0
9.609903116082736 8.403725680286847 0.0
9.724891358972584 8.388392708395173 0.0
9.687487059868507 8.495935345161797 0.0
9.810055520269009 8.494090598382963 0.0
9.755967487162335 8.599790818513082 0.0
9.645698986824481 8.606121319182705 0.0
9.721376049217765 8.699989876681524 0.0
9.773009257015609 4.884557953188837 0.0
9.830105798750992 4.796546393900876 0.0
9.775335108731761 4.686093304257503 0.0
7.455611517737074 3.730099283949135 0.0
8.906943567829634 0.4197477661467797 0.0
8.980613334153533 0.5814185917581446 0.0
9.081059111759728 0.4263421860552371 0.0
9.821654809259165 3.576985724143072 0.0
9.761309244784803 3.4792267780002 0.0
9.763329553045937 9.353068233045157 0.0
4.463051839136694 1.164440352584939 0.0
8.0213168204867 5.283436382300235 0.0
7.89385412333227 5.290429544753158 0.0
5.806940001023414 8.583716119232427 0.0
5.88977793877374 8.96065112858812 0.0
9.177759062826041 8.25539130897928 0.0
9.626582559276994 2.05283181283147 0.0
9.747673294325121 2.064954301745188 0.0
8.775905508647185 6.951821187702613 0.0
2.3581644273991 6.029034686663493 0.0
9.777798009058461 9.548066962498762 0.0
9.737129197219856 9.662299853506903 0.0
9.615080366030512 9.683349544763068 0.0
3.315839678697904 6.042943273456425 0.0
8.915083018115329 7.937748428923896 0.0
9.489832173860055 4.712364754630572 0.0
8.118313727862493 8.013944064029838 0.0
8.902248750797776 7.67372145952523 0.0
8.954075939212636 3.463080912810881 0.0
9.45247551997678 2.133243108303608 0.0
8.311151553157742 8.899233004613622 0.0
3.28672004268868 6.826745674539142 0.0
9.86008383798735 3.468233656255824 0.0
8.389990589860254 1.947086063498656 0.0
7.144231739553659 5.329544660076687 0.0
9.654500729007207 7.743301971143119 0.0
9.761920842881946 7.740144345898896 0.0
9.692820773976567 0.2651585113981998 0.0
9.690951720399688 6.100517071814821 0.0
9.775704281989471 6.077882312279847 0.0
9.823117117198079 4.115168542267924 0.0
9.764391943581737 4.214465954230587 0.0
9.659455011849253 4.218716850797838 0.0
9.713462125022623 4.30742830316693 0.0
9.849638067150842 4.208845651573708 0.0
6.376241713254513 3.858766051594979 0.0
6.274931849158213 3.701528298009006 0.0
7.097780104117746 1.926449727602711 0.0
2.457742027508782 3.810157622192786 0.0
2.963634206580268 3.740748099915693 0.0
5.065585416063965 5.544355730437482 0.0
9.783560252464587 7.566507987677117 0.0
9.825819294611026 7.470942204664841 0.0
9.799976114123012 1.01659516618323 0.0
9.745559590633832 0.9150866860898854 0.0
8.20473400632469 9.495828670767946 0.0
8.784586030320169 2.054461500762216 0.0
8.758471587067168 1.888286802854785 0.0
0.9188935087347281 8.510730800272478 0.0
9.674192026048217 9.20389587377276 0.0
9.796314981283475 9.185916994648775 0.0
7.206882433199502 5.452024361489832 0.0
9.773927048949279 6.334665846819535 0.0
9.830288393591173 6.225300227041885 0.0
8.25177349297509 3.282767705830209 0.0
8.099233469407428 3.304040153764131 0.0
9.607860512870598 4.315652630490023 0.0
9.403674738018715 8.367349042046314 0.0
7.611756786273919 5.018691202305147 0.0
7.549513964643336 4.923310232561835 0.0
9.80986724662116 0.2915868356190958 0.0
0.7757562810577034 3.504187313079081 0.0
7.659562100664981 4.698467529240196 0.0
6.539424975891206 3.541729955691742 0.0
6.717348880400739 3.55221857686142 0.0
6.836337579501807 2.417476958454302 0.0
7.096480496160066 5.959124656438389 0.0
7.189742782777612 4.377051328076039 0.0
7.051723187622053 4.38470822973091 0.0
7.125489805519186 4.497018383456762 0.0
6.994915621927777 4.501504591168814 0.0
7.056755276274058 4.607929817497045 0.0
6.932937068803914 4.613249390039674 0.0
6.86629288290367 4.50541343988659 0.0
6.80427099775847 4.617607827251794 0.0
6.739195362053689 4.511124964201849 0.0
6.677260697693361 4.624288827143181 0.0
6.996760608675822 4.711715831373894 0.0
6.316045249462968 0.6456945497683586 0.0
7.321834163850416 5.816449323512759 0.0
7.833101485370825 4.390058096386987 0.0
4.996572652976738 4.498711166259074 0.0
5.112334577457371 4.663858846723513 0.0
5.271923064784868 4.629759173373871 0.0
4.93773508827367 4.668006487116195 0.0
5.348137647919096 4.485934621930562 0.0
5.413454827497575 4.62999925573761 0.0
5.356581113747675 4.770594395332836 0.0
5.013422223730484 4.793321773780133 0.0
8.58674425943957 0.9312335381466886 0.0
8.776450596582496 0.9362399987293505 0.0
4.783496233934828 9.486061758876032 0.0
4.544176394620909 9.034071856445296 0.0
4.082330493623582 9.015765881393772 0.0
9.820867469965414 7.285959215547852 0.0
9.852697883440127 7.166089674802766 0.0
9.260999083164238 2.971390964911171 0.0
9.197701900169713 3.073162109379564 0.0
9.31960210441945 2.867465579641856 0.0
6.660951583415121 3.383363199709994 0.0
5.210469976037585 4.761678854423166 0.0
6.740780285297665 4.733615686805694 0.0
6.611362405615225 4.731958642073806 0.0
6.549091884465382 4.629620704100811 0.0
6.491761716522486 4.733409494449344 0.0
6.425259228542098 4.640546096196947 0.0
9.715556659367534 2.986725573570596 0.0
3.710524324925069 9.463213827486557 0.0
4.768537031214573 4.727001037865238 0.0
5.039413681704655 5.378508462165627 0.0
5.188746429211535 5.440476671296013 0.0
5.172214816037712 5.298914527247826 0.0
4.469063601436893 3.667917323494335 0.0
3.799121596584382 4.741629285988305 0.0
3.661085664896249 4.442847704416992 0.0
3.316563386321876 4.380147387454913 0.0
3.802087298647255 5.26743535640985 0.0
9.738116341343215 8.047178982429934 0.0
9.85106076399546 8.021725551312715 0.0
9.837581050304836 2.844176011307251 0.0
9.664579962075123 4.402853107737106 0.0
9.76433159763034 4.39807801415352 0.0
9.718924973226878 4.487825491046641 0.0
9.826405563645343 4.494594135148365 0.0
4.931068003413168 6.359330991212394 0.0
5.130175746947236 6.201075257041828 0.0
5.143884286052002 6.445382329515047 0.0
4.953395875296406 6.628748468717369 0.0
7.833019185167153 5.400347121613631 0.0
7.766636138801143 5.313240048256084 0.0
9.767038723422333 4.578090619166644 0.0
7.315369355237483 3.441501197259575 0.0
9.556068971301514 0.2347811136726856 0.0
5.733871280791703 4.444861510772459 0.0
5.828809543126846 4.569791247698539 0.0
5.986701526182213 4.562881783985375 0.0
5.912543327921148 4.692966271273211 0.0
6.052130330528581 4.682477327897978 0.0
5.773525984744635 4.697697018456535 0.0
6.121646311546238 4.572302645403103 0.0
6.182349700936326 4.67713231096357 0.0
5.846371383601797 4.808939734754761 0.0
5.117807918383606 5.974361363083184 0.0
6.256132501905665 4.575863546153224 0.0
6.324770064521816 9.645040261272253 0.0
7.345522892050965 4.12581088034536 0.0
9.338523512844539 4.854480276600515 0.0
9.286984287289403 4.959628690044808 0.0
5.676298026114105 4.589279806918992 0.0
5.631257891894775 4.722749088404111 0.0
7.970415275563177 5.621040275419208 0.0
9.565118337557308 7.081391220827488 0.0
9.626201005045262 6.980441083020495 0.0
9.733729506193331 6.979928568877979 0.0
9.684556253529976 6.887102896543928 0.0
9.780785815410074 6.890287441101827 0.0
9.740054813822885 6.794211367612523 0.0
6.462628988057306 7.629921412015864 0.0
6.692564520952154 7.473594130811262 0.0
6.927983108788191 7.570982428592125 0.0
6.899878641134941 7.329306734748538 0.0
7.117542472438434 7.416951094809493 0.0
7.089537168123128 7.186691566729968 0.0
7.296585396514727 7.275888419524222 0.0
6.879678873774065 7.097443005287856 0.0
7.063454637059129 6.967740076426161 0.0
7.329105042924355 7.496317641003757 0.0
6.867084781778411 6.878842928865059 0.0
7.494278796275744 7.351949197351029 0.0
7.462564159480594 7.150140034494138 0.0
7.644835001206406 7.21506678718646 0.0
6.682478929414216 7.008358327294905 0.0
6.449199855715812 7.365660640952548 0.0
7.548139855358765 7.57299228324251 0.0
7.008502809092701 7.844601794812628 0.0
7.371739019901781 7.707688433423657 0.0
5.665345294602155 5.290628720253272 0.0
3.987583013016546 4.486920698115711 0.0
8.893480480320447 0.7785000884179994 0.0
9.715485963651112 0.5955299613117169 0.0
9.761785841543585 0.7048670948649375 0.0
9.670304314877074 4.578896619304786 0.0
8.058509626083154 5.744161686650483 0.0
6.181795443628869 5.462040811515966 0.0
6.256771804808641 5.338464817889848 0.0
6.124070400983443 5.352376180901929 0.0
6.399679261813415 5.349186390888865 0.0
6.477776305607503 5.46505688468465 0.0
6.541624525938461 5.346017118512589 0.0
6.673064575428321 5.339051516933525 0.0
6.599301548842115 5.241958624987057 0.0
9.573774011620444 0.815274945835158 0.0
5.86493292693426 5.877588788523632 0.0
5.552663040119136 6.957487930464628 0.0
5.535080960199246 6.663033131707637 0.0
3.708603689392072 0.5979254716153909 0.0
3.31896983256719 1.188583855309964 0.0
3.895664898001925 1.128137111173669 0.0
6.363360407965353 6.032416442205533 0.0
9.445959758065749 1.070139246426051 0.0
9.50632172780449 1.214052376665338 0.0
9.441030033980638 1.325047485624912 0.0
9.295799464644857 1.341410624832976 0.0
9.184164107767781 1.461677744200096 0.0
6.407191016756832 4.407273313799791 0.0
5.544591888593027 0.7652641669375747 0.0
7.883090151006535 2.497506182548758 0.0
8.073420508370992 2.120510489750234 0.0
5.494822040671399 4.732314720081375 0.0
0.8986976806403217 1.464611451578306 0.0
9.536325549598013 6.83286654168725 0.0
5.972289519322897 5.727532110854501 0.0
9.82203607053145 9.443411729566549 0.0
7.263199949874008 7.064207941227515 0.0
7.233659553805083 6.853135694774254 0.0
9.793310082768443 7.072747972018893 0.0
6.734168931095253 9.67499220075154 0.0
6.941134861034159 9.382328333169653 0.0
7.285822522704258 9.443989747444657 0.0
6.576263515512108 9.333035011158342 0.0
7.160560566479093 9.127732577621245 0.0
6.218711947378506 9.298064908857533 0.0
6.432383355119106 8.980985203293491 0.0
6.795390278360442 9.046043538032663 0.0
8.54677014121837 0.1957422484480979 0.0
8.528696320820908 9.804850950580938 0.0
8.42644965647489 9.604735484095604 0.0
8.010239224104339 9.715048083583248 0.0
8.644359648763341 9.628432815860457 0.0
5.344212921686536 5.526744195650314 0.0
9.760936589662048 7.38409687515441 0.0
9.128187788393989 0.1445485608215519 0.0
9.133307661752394 9.854833215426817 0.0
4.867351616228264 3.944459575003425 0.0
5.905323253270366 7.385600364255367 0.0
5.909045412185362 3.361969954191194 0.0
5.80580919758911 3.569999290452344 0.0
5.578230704221431 3.587842862412673 0.0
6.013352753603037 3.550699073477782 0.0
5.936624955014758 3.721630401607248 0.0
5.735413275357409 3.78528948606432 0.0
5.512538847486775 3.794760621907932 0.0
5.360571639388366 3.618649018042938 0.0
5.134141179590394 3.459385929220745 0.0
6.167399567008798 3.367365990358096 0.0
9.766756262206602 8.291756450136036 0.0
5.486063578307141 9.64505925252771 0.0
9.497624614180321 4.328873442170357 0.0
9.811387324954623 1.570516917365688 0.0
9.389210081887331 4.69150887571586 0.0
9.704395728912932 3.754226393630331 0.0
9.808172776193384 3.748784464356272 0.0
6.549660911932182 4.839747932361234 0.0
6.757415124099031 6.077939876843736 0.0
3.805578542126494 8.040840085419626 0.0
4.232580149691158 8.198659880701744 0.0
4.559765382564095 7.87091698350757 0.0
8.3829075948167 0.9495097054886067 0.0
9.8571301061408 1.456307792614791 0.0
2.005900212453279 4.535525273813588 0.0
1.85904408608185 3.956445706785572 0.0
1.979307922430775 5.474327285927505 0.0
4.387923194305381 4.427191306527721 0.0
9.429258370703248 8.873693567695483 0.0
8.99196583083892 4.664567567015693 0.0
3.050357122593155 5.368999067452741 0.0
2.861107385476722 5.785089447130829 0.0
5.005058958272409 3.711196438448062 0.0
9.8972295764837 2.755337284632969 0.0
9.581048890980513 8.853909321617065 0.0
9.668838904423916 1.762418716497425 0.0
9.716576458425756 1.852218615166234 0.0
9.799043132681442 1.780583141193779 0.0
7.661868217848455 2.880323287492419 0.0
6.780136552904057 5.443858690999834 0.0
6.489544866845868 5.913957888434588 0.0
6.880149522020364 4.134257616716107 0.0
6.970134365280068 4.264072319341612 0.0
2.225481516813409 9.348422240784 0.0
1.843418032490818 8.641605249943353 0.0
2.198000805242772 0.6459947140825729 0.0
8.740020306282506 0.1903932731609072 0.0
6.86957996016679 4.720776242956433 0.0
7.430920333506809 0.2702852342693345 0.0
7.302066064947383 0.6134316505458445 0.0
9.305398039877746 4.64854361125207 0.0
4.078151380865065 5.203425462519088 0.0
4.080704120371218 4.778853303303787 0.0
8.052525541571825 5.965483159581719 0.0
6.367194027835946 4.754896037842673 0.0
8.604191121620719 7.648182513679963 0.0
9.546446695207845 9.234701521982952 0.0
9.018652854946867 3.351011585453845 0.0
9.143853648154607 3.350173119015413 0.0
9.067079866763024 3.245174561579149 0.0
8.991492136849105 3.135578770028028 0.0
9.29603967712795 0.1426516429033488 0.0
9.392428271030795 0.2506306237151588 0.0
9.223973843394301 0.2912279164401488 0.0
8.39375191941536 3.018777714002827 0.0
8.4836475746111 2.88135207267795 0.0
8.741089053946197 9.821127577434911 0.0
9.803966507713174 5.448064463539533 0.0
9.748132240148552 5.359371181503531 0.0
9.850258990973547 5.355211921626304 0.0
9.7965346514158 5.266762244994661 0.0
9.84142096963129 5.171050273734619 0.0
9.738843612428232 5.167483913244169 0.0
9.64168976006725 5.359875132194057 0.0
3.335917453809221 5.671837672982919 0.0
6.962669142802881 1.683222554707996 0.0
7.365210844496719 1.887492842536114 0.0
7.517378971174123 1.677983072937792 0.0
8.00383870208024 6.089394601875145 0.0
1.725435941000569 2.759295503019395 0.0
7.907977929549089 5.102827208603365 0.0
8.052861051278896 0.2683271125209605 0.0
9.80169732768395 3.385443381464333 0.0
9.831597648680848 3.28491948963525 0.0
9.736335895866404 3.316207814499244 0.0
9.597256128490281 3.756160701977744 0.0
8.865819925321706 3.366235906378775 0.0
8.489614436807788 1.757152185195495 0.0
8.88089641144391 1.078983279100314 0.0
7.430923851187758 9.724389499796425 0.0
7.584252919312249 9.509430586267927 0.0
9.744026095940516 2.247117754488748 0.0
9.729961521243718 2.659836747108116 0.0
9.790866569780063 2.558993767350471 0.0
9.736606445116795 2.455104424879619 0.0
9.846806182714698 2.452157456754448 0.0
4.518102112052724 5.141350889745285 0.0
4.519880229178207 4.85678334497067 0.0
9.7302407894617 6.434012603549242 0.0
9.787537474544765 6.523591663056312 0.0
9.744262337067932 6.617499601377625 0.0
9.8406238811518 6.41591236129004 0.0
8.914967252734657 3.579360039684312 0.0
9.154797282599406 5.670753066089419 0.0
4.228839454580575 4.612979739018002 0.0
6.095037541675208 4.42126627187728 0.0
9.304166983880842 9.864854494751789 0.0
9.406445527105628 9.759007358529582 0.0
9.256225114941945 9.700832989525724 0.0
9.796206564635622 2.351215649506205 0.0
9.849373673349081 2.25090453834006 0.0
6.332048155295931 3.511675163099286 0.0
9.069679774213784 3.022879178706259 0.0
9.070599961450037 9.055284879641471 0.0
1.808685691036764 6.331557276533421 0.0
7.120156826652838 4.698481230214924 0.0
7.052894345811342 4.799848851879358 0.0
4.739957520484086 5.369107149361242 0.0
9.389197839958292 7.197139943834638 0.0
9.046688232613976 4.560364044038737 0.0
9.162685461967492 4.562194096410666 0.0
4.227377821420887 1.564128177298305 0.0
9.201090975245227 2.794301402811909 0.0
9.251941624303948 2.677556975242327 0.0
9.186758273070138 2.563916005021366 0.0
9.317609833868786 2.560335260954038 0.0
6.57599191748324 2.437689779955877 0.0
6.305556560534859 2.459112595979303 0.0
6.981058048792093 2.642476994448363 0.0
9.886113463139504 6.510498309609482 0.0
9.250462794607717 6.221362629571698 0.0
9.305373999084068 6.108271307139882 0.0
9.390477915810829 6.228015172491477 0.0
9.44452571968143 6.114582165110393 0.0
9.502105740270528 6.197677857389309 0.0
9.31559697209813 6.331647407124485 0.0
9.370938253597153 6.437386206819511 0.0
9.594764406124872 0.1099001288712305 0.0
9.602872681151728 9.894988341116305 0.0
9.622661196143387 8.076680696281343 0.0
9.769069277144705 5.9102532189237 0.0
2.615076109785583 8.807551523115547 0.0
9.658920005405456 5.730890135691177 0.0
9.76063135061807 5.720703211793342 0.0
8.63963723169499 7.177334225227945 0.0
7.841904391869763 6.41346852896409 0.0
7.764520718520185 6.297267738834625 0.0
9.546492996136271 3.465225175657335 0.0
9.25600964352143 2.219157062786616 0.0
7.625057159226293 7.012987957636062 0.0
9.529121062829038 7.730283486008674 0.0
8.329887090625894 3.845190321147069 0.0
8.265841850823831 3.95687001944245 0.0
8.402006523775544 3.947660780406651 0.0
8.128436391670505 3.968543393650448 0.0
8.46705122470662 3.835767362024195 0.0
8.218867047074696 4.063481375518748 0.0
8.089763413611255 4.08062363292928 0.0
7.939578083855268 4.111915744184436 0.0
3.74991304509639 6.615676756107112 0.0
2.627714335615619 1.170993030860914 0.0
7.046129971268607 6.759930788612616 0.0
8.534603732661887 7.486325780553722 0.0
1.569381386467569 2.042794535871475 0.0
6.228703743210918 1.986421863690014 0.0
6.467030855792859 2.67190498312861 0.0
9.272246093269825 1.975478263632296 0.0
8.05269609263041 3.854522845257449 0.0
8.008595521536957 3.177870309354594 0.0
7.929796740504207 3.350600835935766 0.0
8.048703574664067 3.449582532910417 0.0
9.72947480375618 4.973926800124758 0.0
9.784850360535604 5.072865219810449 0.0
9.896036387646596 5.069261557893528 0.0
9.633140953203334 5.168645132864771 0.0
9.558102991128836 7.602453108835212 0.0
7.278758746505716 3.994295887299482 0.0
8.306681733482405 6.936428510427854 0.0
9.487163072013963 3.757777670075558 0.0
9.532950522284125 5.359403698944497 0.0
9.816036650072329 3.927268437107025 0.0
6.173882586235392 8.734645960664665 0.0
7.972518459433741 5.003005338485466 0.0
8.398453459336153 1.601072016988848 0.0
8.97460527296194 4.040886705742754 0.0
9.037941657530773 4.143578781749325 0.0
8.849604200183613 3.828506169652706 0.0
9.545296177100065 4.042698359132156 0.0
8.595941796785514 5.806754902023664 0.0
8.65588412428292 5.694192853853139 0.0
8.723710665131787 5.801528918332044 0.0
6.861288985046249 6.673713222735126 0.0
8.87477249219366 4.664500928777609 0.0
8.72385765226959 3.608276264790996 0.0
7.145228858696953 5.573648565429618 0.0
7.282945121585866 5.558559688509987 0.0
9.224761401603633 1.602363370249125 0.0
9.609115686587552 2.986868833620756 0.0
9.633989947851914 6.628120633848649 0.0
6.046214325132457 5.45615093027661 0.0
9.017014346798927 5.271996636983457 0.0
9.070824864071271 5.168510834798647 0.0
9.189021391555556 5.166867900487267 0.0
9.123328759137758 5.064718588163964 0.0
9.240587446378079 5.06459430516883 0.0
9.250848280531756 5.267364371053135 0.0
5.773050603406019 5.7192906317521 0.0
8.576466432793914 4.3559007860436 0.0
8.634627802680399 4.253467736542067 0.0
8.461790117175607 5.591735227444779 0.0
8.907610717370224 3.713397213891439 0.0
9.80665594564509 5.628066492225966 0.0
8.985935132601089 4.455263493464225 0.0
9.00640209566022 5.067597672073404 0.0
9.833659276096986 6.976519563917422 0.0
8.0283368553477 4.687271895436317 0.0
8.326580191759327 9.127498457128247 0.0
8.650637373791266 5.07513089931925 0.0
8.701067313435203 2.700069743477523 0.0
4.825307249916392 4.884175191874744 0.0
9.418335984190309 6.858444798015129 0.0
3.91434687300816 8.542956908935874 0.0
5.569239724399552 2.064135034637056 0.0
5.234271567762738 2.128974435011933 0.0
5.757920427527626 2.312422707096966 0.0
5.43365689737979 2.427455772745759 0.0
5.673210219624612 2.602111218343444 0.0
7.214258468265766 6.652783071431555 0.0
9.823626269633962 4.30685540664529 0.0
7.96996639420014 4.794005510174826 0.0
7.616003332725032 0.502676560965646 0.0
3.050634530589821 4.659174799474146 0.0
2.870894249800723 4.246924313393336 0.0
5.285393339952368 6.079037173753393 0.0
9.439954241218905 4.23581687956071 0.0
9.67709722097145 4.710772408106511 0.0
7.40767785509217 4.259947873553335 0.0
8.396202587439676 5.486075637998701 0.0
8.323689688705493 5.372061002264632 0.0
8.191312386254125 5.384662546230823 0.0
5.304380054816289 5.369675374029755 0.0
9.093848379546637 4.047647920840374 0.0
7.916313220758624 3.045043876114836 0.0
8.435854831444637 4.144861908356168 0.0
9.060262453079693 0.7340576053322918 0.0
7.053195520344596 5.238809779682351 0.0
9.621762679347093 2.45205452967588 0.0
8.410730269104743 5.287995309529392 0.0
9.655094569234972 3.472720279371932 0.0
7.982140513923982 6.667914768024983 0.0
8.402690325256646 4.883576657130221 0.0
9.17488654147479 4.962006474835693 0.0
9.013188196102961 8.49700148123058 0.0
9.795977244531603 2.156818021002043 0.0
9.893813711206834 9.545820400859157 0.0
7.965349232662289 4.250048884270795 0.0
8.644264557989125 4.874751532150782 0.0
8.215430976121077 1.26077208565765 0.0
8.379717637669398 8.37324652769609 0.0
9.320026533461409 5.559861899725609 0.0
7.885778178744864 0.4977439426642278 0.0
7.547066983926719 5.125166613071239 0.0
7.657542898944819 5.122996245335209 0.0
7.423918840193691 9.000935553397358 0.0
9.854133000712425 5.541931969512857 0.0
9.328508174398952 2.101486405523264 0.0
9.300749600926641 9.530012105354274 0.0
8.130307182491519 5.277079344947874 0.0
8.346752967392757 4.987627363826086 0.0
9.118404185029991 6.007087846617186 0.0
9.048232213728614 5.89431792713258 0.0
9.088340967655858 5.576242562571367 0.0
8.094762487139027 4.789727191449318 0.0
9.915265904493378 5.749591413470928 0.0
9.92169805280126 6.154216704502091 0.0
9.918022441582268 4.549125436287157 0.0
9.919332362905616 4.849536560132457 0.0
9.914800786693318 6.750595509794719 0.0
9.811792900437824 6.703950687575952 0.0
9.900643083988882 3.749855087409844 0.0
9.912423171222734 3.043228996968949 0.0
9.91892875832665 5.949999999993851 0.0
9.913300070218703 3.960831593817277 0.0
7.709347001661226 4.444236534782706 0.0
7.479443107717332 8.071637285053104 0.0
8.839057072155848 6.807845119358974 0.0
8.972330068019902 6.78765448182788 0.0
8.542093772125282 3.941452413628317 0.0
8.279144752968262 5.930387616620717 0.0
9.393455876855919 4.973162505621418 0.0
9.507123333872533 2.855087674515822 0.0
8.77504684283825 2.317347145885344 0.0
8.394133129040345 4.464046960801843 0.0
5.725509852450801 8.210843960481027 0.0
5.62632390239664 3.967637659758752 0.0
7.910815814627989 4.900765971697654 0.0
8.595808444085467 5.590040244353608 0.0
9.705160502006024 0.8106158419444889 0.0
9.82021247904746 0.808810893177099 0.0
9.218352146075844 4.447736986422823 0.0
9.20781892622228 3.858281726888132 0.0
8.713609974387523 5.178241668554946 0.0
3.55755059259364 8.921522400238844 0.0
9.59122926011489 5.452844834281716 0.0
9.70565100407009 9.77887811062354 0.0
9.826938454219809 9.74303055702321 0.0
7.238962096855633 3.278078153406256 0.0
8.575609105166194 4.567807831727537 0.0
8.936449841121737 4.765835458965493 0.0
5.59323463391086 9.248527978398117 0.0
5.280809113285124 4.886132326418428 0.0
9.328132730893216 6.544753806716806 0.0
9.026944889277736 6.67247283515637 0.0
9.81946239021469 3.007926663525007 0.0
8.677633568960493 6.144049349297466 0.0
8.33427489656924 4.571212803519522 0.0
8.55734024448315 6.382535186588269 0.0
8.692399379422756 6.372347713955898 0.0
8.495817478252626 6.503308565233578 0.0
9.905494734661673 2.544078755559835 0.0
6.177101405266569 7.228490244483556 0.0
9.825373011845263 5.807482724503027 0.0
9.808678508609606 8.118683092442964 0.0
8.397717712407108 7.08010313863416 0.0
7.428555529689225 4.935946611338556 0.0
9.575504958128711 6.125633853639113 0.0
9.154066996197898 4.146562596982661 0.0
8.074381802159323 4.337569667261167 0.0
7.018337246891919 8.843475095716133 0.0
7.970627172560641 2.658650028065857 0.0
7.382546388883145 6.723381543491632 0.0
6.822972334933889 4.884555620881615 0.0
8.343732976791593 6.041576709398377 0.0
7.743680217306919 8.423336160305476 0.0
8.505717922983454 1.115022897794028 0.0
9.113973198216474 6.992972408167606 0.0
5.818882632841168 5.300437503812764 0.0
5.951991891717714 5.279516346785062 0.0
9.450183479138845 5.92934813870612 0.0
8.783346541536119 5.48419035750989 0.0
9.38074895894124 5.65076274999803 0.0
9.513658728876734 7.193620441323493 0.0
6.396040948797887 6.776064256962667 0.0
5.389661780244388 4.89715084345563 0.0
4.473247649068957 5.85935163892416 0.0
9.249586607512612 8.37680799459232 0.0
9.103796366487646 8.379197231055114 0.0
6.274057301184156 4.87985402946409 0.0
9.259628836118232 3.561431822636308 0.0
4.037922477011971 5.489409780163391 0.0
5.62712958624254 4.893925433488392 0.0
8.806426003347967 6.133410188141932 0.0
9.53304466499349 9.59279975429444 0.0
9.542890959420024 1.966631379116419 0.0
7.459736176874619 5.863847835420528 0.0
5.937613117200432 4.89232797168023 0.0
6.171611131472617 4.879541833448487 0.0
6.100695199816815 2.291172318314745 0.0
2.315194906726768 8.081958163666464 0.0
6.878489987598286 5.148099521847569 0.0
9.105264414399338 8.639184652727645 0.0
9.20047261316883 3.457820810661327 0.0
9.895329010385955 7.55944047105717 0.0
9.912742873006831 7.76210330502246 0.0
9.37761459375249 3.168397068877758 0.0
8.946121261512507 6.345629828835438 0.0
9.918632496443566 4.449809517365367 0.0
6.848211525651934 5.945010613369067 0.0
9.915721525903255 2.047407395915179 0.0
6.117255841708726 5.163321965161054 0.0
7.276595248786602 5.347247322210079 0.0
6.32682869954104 5.23674259421017 0.0
8.785886448438022 5.692775375342819 0.0
9.099994401883361 6.776698531382792 0.0
9.913397459621638 0.2499999999998165 0.0
9.910352525643928 0.4481571029410266 0.0
9.907850422008579 0.5479735220323012 0.0
9.911983631350465 9.24778487019403 0.0
9.917634740384067 0.7514684821956668 0.0
9.195214232985496 3.254172408378337 0.0
5.000896927376288 1.846006038077654 0.0
9.917172478547403 8.250155740683276 0.0
9.908120476950126 1.742986232208194 0.0
9.914524635720774 1.949567899316728 0.0
9.907358878377153 9.145625165175748 0.0
9.917695944922635 8.949999999998397 0.0
7.648387553139914 5.325741673607362 0.0
9.605343588986079 4.130627398479715 0.0
6.648113233057817 6.774798386229164 0.0
9.910347203087213 8.446729917003672 0.0
9.913623694530468 8.548470085896316 0.0
9.9201245863254 1.536225488581779 0.0
9.906538426683255 1.059019360781604 0.0
9.912867352010919 8.74999999999809 0.0
9.799662981388353 8.79550485462418 0.0
9.831828680383174 5.99966894118311 0.0
9.91414179906643 1.263025320602998 0.0
9.920690092699912 7.240982963665807 0.0
9.385889285950551 2.235126904097426 0.0
9.28133998925606 8.00415195851526 0.0
9.817074723108401 3.172398890123306 0.0
9.482030285089927 7.512954023388035 0.0
6.682432918504054 7.233889573028878 0.0
8.528699633246763 3.260502457553277 0.0
8.91699963742029 2.327016692708648 0.0
9.267676068834481 3.954520684561369 0.0
8.70811637467455 4.974101624783084 0.0
8.18184214270768 7.816666208279135 0.0
9.690393137288163 5.264344933127836 0.0
6.937111790104696 5.245184991960528 0.0
5.895846026722989 5.174232967273284 0.0
8.281683356622615 6.400073017261236 0.0
9.150883172924027 7.444273543454419 0.0
5.430406600793122 3.390815886517273 0.0
5.049583827974758 5.697634876048387 0.0
8.3966710383105 3.495813899905868 0.0
9.007538428392454 8.046563579784266 0.0
4.645155158868719 2.637132843684674 0.0
4.887444326771336 2.30020425915506 0.0
6.483736782775559 4.522536327482678 0.0
7.843169154548308 8.2116075844056 0.0
5.06295551628385 4.901632590583318 0.0
7.201400991012747 5.138239336380897 0.0
8.519791031104612 8.848807089071627 0.0
8.658623737989732 3.031313729049854 0.0
7.585566208322493 3.629882964874684 0.0
8.411818469596405 6.834326722716643 0.0
9.172363528634236 7.669230647622864 0.0
8.85455683341768 2.682483055215344 0.0
9.359398739738925 1.631421337140716 0.0
9.071793864444992 7.337030604117359 0.0
6.968394563521436 3.712808894519514 0.0
7.899236117684646 7.094583340182754 0.0
9.54362864504834 9.781852543872333 0.0
7.151298729743687 7.644795130415299 0.0
5.452218361466201 5.186873761308322 0.0
5.517642289161902 5.293540933999446 0.0
7.802500357665464 5.978295671754199 0.0
6.594850839687122 8.491429270558893 0.0
6.029132431949566 8.294997405201931 0.0
9.31286590869111 0.5672913838331921 0.0
9.25238720319541 0.4415953739444106 0.0
9.550589523211062 4.228044955453704 0.0
8.748611832783206 6.250900951984038 0.0
7.566980108995873 3.995148257893202 0.0
7.426142759241261 3.996743578498081 0.0
6.478912513785404 4.000296412419969 0.0
9.30435638148753 5.168210982711592 0.0
7.542154188520517 5.752525075248498 0.0
7.219033852073297 2.139582470800704 0.0
7.370913620388047 6.545121498197235 0.0
5.226731036024996 5.187572666585561 0.0
8.515591031124366 4.462223215179979 0.0
6.762864307079274 0.3078036604979366 0.0
8.587432696997471 4.977010533175154 0.0
8.703948448756302 8.815629076400704 0.0
8.081003990931544 7.370949680119862 0.0
7.424404567669909 6.949730915714445 0.0
8.578903262311433 8.377992954045473 0.0
7.301258690263783 6.106184350645308 0.0
5.991600556904204 3.99820087171043 0.0
8.203048538477193 1.601044215405025 0.0
7.289972483120081 4.572350254111052 0.0
7.714697186439165 5.420586967696794 0.0
8.918853780709807 1.841796898567452 0.0
9.919941345877513 4.749808449067644 0.0
7.245589454939737 5.94251251443003 0.0
9.258480524497795 3.358952871140391 0.0
3.705877615124628 5.574038727593425 0.0
8.287096858129765 7.962370605242409 0.0
6.799629860952143 3.705385600481528 0.0
4.146753450763018 6.544154457143895 0.0
7.413973555029582 5.545687501585183 0.0
8.466524978378082 4.980481756569235 0.0
7.336312153537934 2.337983522449311 0.0
7.695505222753409 3.747498713679684 0.0
4.898236813123799 4.795853653580084 0.0
4.59779105899602 1.896916774247134 0.0
8.560170375862322 7.072369101894893 0.0
8.386150468360862 2.449771437140704 0.0
8.41200018115259 5.084601315536367 0.0
5.102189912301071 7.621598618277815 0.0
8.336320418935243 6.71651223072348 0.0
5.081745734883095 3.977838926197614 0.0
7.63590698378166 0.9500570055008507 0.0
7.743369677149255 3.051233984704873 0.0
5.357527459690566 0.3809996753407537 0.0
5.967373112873382 0.7731113464301924 0.0
8.169449265206127 6.666271947462212 0.0
5.95122726745053 5.55758205410881 0.0
9.922289489207834 3.53923011719877 0.0
9.39154684476555 2.659037023454942 0.0
7.701415639167884 7.690060291860976 0.0
9.819179654793023 1.329863870021845 0.0
8.358229579054417 6.506108206863729 0.0
9.269720555169467 5.657096143475924 0.0
4.473187658045934 7.435037860084884 0.0
9.65807158077373 3.255496360750368 0.0
9.605155446454205 8.713645566904637 0.0
7.097383547728313 5.141197376985936 0.0
9.812212483832656 1.89920712759492 0.0
9.83875570675407 6.81603549325055 0.0
8.926246869879279 2.079976511571457 0.0
9.166785856141402 9.169070814302419 0.0
8.763479010228052 1.587152667342957 0.0
5.957377924852992 6.404530806530254 0.0
7.14506854375872 6.10342416684208 0.0
5.672595070581394 5.164323323112049 0.0
4.899782787268781 0.3801727265981219 0.0
4.447133848117348 4.673614099606824 0.0
7.044865074789195 3.253639989243549 0.0
9.818461337102992 7.819456450952447 0.0
9.925334577033155 7.954012377173311 0.0
6.352907898232792 1.173665225954276 0.0
7.351721385581032 5.660361289755705 0.0
9.337367583861807 2.76534436379692 0.0
8.693118347802024 4.360254099729149 0.0
9.476812970101324 0.3524826622168163 0.0
7.109868985890334 0.9024224571333925 0.0
7.899106846231403 5.511805431542581 0.0
8.352799544476607 5.187887629361129 0.0
6.957483547582747 0.6176251309213842 0.0
8.099559500483094 1.412323841044818 0.0
9.913030944540278 0.8542404645334569 0.0
9.143075088381442 8.022165366829135 0.0
8.819861450593166 6.356592599428041 0.0
9.319444417409162 1.49938505915629 0.0
6.490262520326714 7.118204362551877 0.0
6.490874470087819 6.582907761235813 0.0
9.82506653058937 0.6146757679104559 0.0
6.803129818897624 4.419048038171804 0.0
9.840901379354312 0.08198751964190581 0.0
9.839740374244226 9.918356239418472 0.0
8.551927134544655 9.449788917425456 0.0
9.92097857388158 3.249999999993177 0.0
5.797087413057367 7.077351493358238 0.0
9.255412859987286 6.433984412022419 0.0
8.668174522249984 1.740767926084485 0.0
9.920991430240607 6.25262219124529 0.0
7.57275248448898 1.94367954756322 0.0
8.052865444445507 8.19900054463639 0.0
8.748697149245206 4.25201068974208 0.0
9.158270227735827 0.5542256343091421 0.0
5.997487767477439 4.787924707603557 0.0
6.119759900601896 4.78043793682227 0.0
4.353034750397793 8.619182743639561 0.0
8.721093521611476 5.588932824583312 0.0
5.717101151444983 1.123034066822819 0.0
9.825602081347064 8.68753399402474 0.0
8.005502510832988 8.7824052910506 0.0
5.548184234622668 6.408009287230429 0.0
5.77830300433981 6.598697187164234 0.0
9.613093825495433 4.50282172481406 0.0
9.928981132641653 9.74928475696928 0.0
6.613628176297015 4.515513362596662 0.0
1.822126723816303 1.297795131355289 0.0
9.514164594137375 1.43081427463862 0.0
4.735494753432723 3.698541604583975 0.0
9.52844959749262 8.615213629960298 0.0
4.660704511759056 0.7947595073298008 0.0
6.82340845160293 5.239926830264399 0.0
7.885938077030673 7.380147032865134 0.0
7.884599891021201 6.09005968568029 0.0
8.846834820720167 9.653276456345532 0.0
8.457777199486827 0.3851010632068662 0.0
6.66485224572131 8.771510767670392 0.0
9.091499342133352 9.708315832477556 0.0
9.824286725109655 4.976315293637262 0.0
7.848197684391786 5.632217046637356 0.0
3.88430598115417 4.225391362015386 0.0
8.776890759183289 2.809688928468134 0.0
7.393884285023409 3.59397875231041 0.0
6.927568893329758 4.396788356869783 0.0
4.96854327720728 2.662368428358774 0.0
9.1480130720193 3.951479613991279 0.0
7.071049729490975 2.38092990636632 0.0
3.40193058782919 1.686321186206593 0.0
7.612042194200681 4.815904436723407 0.0
9.043395868401339 6.888481825015849 0.0
9.098933057562759 8.152197681006806 0.0
6.058682303253315 3.857501492181965 0.0
3.707092669281355 2.986685502034343 0.0
5.113272509841263 5.189455016444592 0.0
6.960565857079232 3.416349532571279 0.0
8.755151527375476 7.649255597361291 0.0
3.393680865444538 3.679982303262531 0.0
3.117424600120088 3.35605258976247 0.0
8.530814041264104 5.488376426140491 0.0
4.820719767306654 5.106646490188182 0.0
9.918899263509473 4.144927088739744 0.0
9.918194630017027 7.447268230913605 0.0
8.461970084137805 3.144844565847669 0.0
9.924415919486059 6.949999999995354 0.0
7.184050152099684 2.72771667662237 0.0
8.834356715215904 7.801565642745232 0.0
8.689015446783005 4.145232831954543 0.0
8.490778532265319 8.234414357968106 0.0
8.63666290918932 2.83060276219705 0.0
4.61028976098935 4.741894230894578 0.0
6.314735925012879 4.003132559161639 0.0
9.20786580425652 4.67001723737971 0.0
7.141401229301469 4.873205425098625 0.0
6.235177809922153 4.774126344778935 0.0
9.12491895896937 3.145675090615719 0.0
9.255747684068178 3.162525801823036 0.0
8.312852272796098 2.290855459722148 0.0
1.449266720542303 3.363629101350872 0.0
9.525687840398492 4.800807314407045 0.0
4.829905263804087 8.14474456977717 0.0
9.09338914689732 7.563794106183232 0.0
5.389401689694107 5.283808684471545 0.0
8.530979415204587 3.029374286908943 0.0
7.901489077080633 6.535344047486632 0.0
9.218572924671975 5.760893551533255 0.0
8.562382833959296 4.143913974026883 0.0
8.62959127904665 8.974877485888243 0.0
9.408442441596518 9.62276529745719 0.0
7.5034765601713 3.869833107932387 0.0
9.842813436634783 6.600620949014236 0.0
9.826116984327193 8.911617279149695 0.0
7.529907780698261 0.7369111006685982 0.0
7.832164962480427 2.905293639437395 0.0
8.39517908433056 3.267417602291069 0.0
9.823014010107707 9.085319632577246 0.0
9.022314123618541 3.944559746338292 0.0
4.243701230676532 5.332574856090426 0.0
9.816740542566388 1.127839952679595 0.0
8.166775715766304 5.693916696568397 0.0
8.865374421689054 8.068986769641638 0.0
8.761145809863661 6.470583506581853 0.0
8.998345275919851 9.209303502026401 0.0
9.698477487436316 6.706902829754045 0.0
6.439032098063426 0.3109134377713525 0.0
7.562681994382136 4.643158005207056 0.0
9.03999088074715 0.2799354672273258 0.0
5.180741540467516 3.805018725608906 0.0
6.243990330956698 2.718077286244967 0.0
9.79416634023361 0.1815240178579244 0.0
9.926540005061975 2.847049370876555 0.0
9.826476210374608 2.670192168078066 0.0
6.365816673179121 4.536333049275508 0.0
5.546353765219417 4.618331215552614 0.0
9.820703096450293 2.000649418331399 0.0
6.884388790679166 3.561583980715254 0.0
7.431303395649604 5.747824222777201 0.0
8.849816832721245 2.19318290395604 0.0
4.185147517585975 5.697469360586313 0.0
9.165905238119013 5.873664931582344 0.0
7.70479478158537 1.788324620089049 0.0
9.627376046933474 0.9196091445437269 0.0
6.657687963328663 5.144792385996769 0.0
9.83245016645186 0.3925568446109945 0.0
7.483092985762584 9.253837199159435 0.0
5.445348362202234 3.977855663863651 0.0
7.476680532833337 4.837183287808616 0.0
9.572749890969304 8.505160319814301 0.0
9.915853314998252 9.437014513917465 0.0
7.679469018350979 7.390484878021194 0.0
9.418139053434402 4.790576000488359 0.0
8.096967733471567 5.865447162201908 0.0
9.829153508938724 8.378494945652118 0.0
9.926595955569645 5.157718300415699 0.0
8.774484245600224 7.939747459426853 0.0
8.629764448155779 6.481031318922794 0.0
8.961169458302376 3.839036702328818 0.0
4.617199205561317 5.256318959792646 0.0
8.480815774219478 4.031210317621497 0.0
9.708341592512763 3.401018043990571 0.0
7.183974816647467 4.77882314543966 0.0
9.821437962294304 7.659391965474772 0.0
8.150320284869602 2.286501016204562 0.0
9.828114434347311 1.684891358832554 0.0
5.349187766238684 6.538177907133678 0.0
8.076053471314525 2.76180604769483 0.0
4.907713691134565 5.29818629967416 0.0
0.6874399366049438 4.328593906714074 0.0
0.6980011780697519 5.702671170050627 0.0
8.263861466707834 8.182284285231713 0.0
5.838783785156478 4.913981390426639 0.0
7.807619472656604 7.235706382002089 0.0
9.388504256318683 6.022122644748753 0.0
9.929839894767033 6.436189192303577 0.0
8.3205848711706 3.39107920408397 0.0
3.240770542267401 4.019899919523968 0.0
8.059047070496568 2.468855909103855 0.0
9.932479519490421 2.449625056415224 0.0
7.737639000139152 4.580708137963557 0.0
8.26141077223695 0.3940397126348397 0.0
9.69568953371801 1.959951226402445 0.0
6.469120930453264 4.892267070266994 0.0
9.167223997255698 0.8102256463122337 0.0
6.236889648241256 0.9291076084031108 0.0
8.306379082772498 5.268830342852036 0.0
6.716089118890225 5.239344620507032 0.0
9.82511981852641 9.282822358664017 0.0
6.68375719572285 4.404998642130821 0.0
8.913754712375674 6.908138360584365 0.0
6.173250048857013 5.251634416326969 0.0
4.235907497612446 1.924052997345291 0.0
5.151007663981651 2.438629730660893 0.0
8.924254300637541 9.3764975797567 0.0
4.438612423541503 5.287968640901957 0.0
8.571203234299599 1.897009944569934 0.0
6.878800676380218 5.821332862798138 0.0
5.710626178601224 4.792560699857408 0.0
7.149510071621283 5.216310009157644 0.0
2.099966541549645 2.334742113488256 0.0
9.93396330620579 5.350566393301629 0.0
7.143046479323961 8.646955109387985 0.0
7.965747313080266 5.193641450105844 0.0
6.3314394693073 5.135050228240639 0.0
7.665821333021348 6.222698255001823 0.0
6.305321657053551 4.659816230868476 0.0
7.833020917089713 5.208837056143474 0.0
9.41455902676429 2.869725681199307 0.0
8.567151507735133 6.598605357295113 0.0
7.405527786978573 4.377085529441429 0.0
6.552969697053132 5.137148974085434 0.0
9.93630620742063 8.042778076596578 0.0
7.166743296019233 4.593171678848165 0.0
6.595561806063966 5.839366735225723 0.0
6.066152182102007 5.262519562574559 0.0
9.834694151277489 0.9093455747994099 0.0
8.98259191950674 7.579732466796592 0.0
6.465071238839505 5.25485771955322 0.0
9.759759896588413 3.236659507608532 0.0
4.775529448101694 5.224235675150505 0.0
9.935991245222917 7.153416415978829 0.0
0.6530736820718381 9.352299998916202 0.0
0.6449439415299687 0.6468300344151556 0.0
7.804690364869245 4.495816547678174 0.0
9.84503784553893 5.70620404704573 0.0
9.83525329400959 3.826992990746767 0.0
9.922964894244684 4.265000406933376 0.0
8.333767638401964 1.121219971446645 0.0
8.876012546033895 7.019147158538482 0.0
8.172413577824324 3.413096916572049 0.0
7.232233017296214 4.478957103028363 0.0
6.214597295185415 3.852860083673202 0.0
9.85013791746415 4.400709747289421 0.0
3.941627380932058 6.342995010255737 0.0
3.097271569675528 8.77391871286929 0.0
9.292917152323044 6.010976049411984 0.0
8.104342196673183 5.184165973282902 0.0
8.994300084006271 3.652611812846807 0.0
9.937157897030163 5.549999999993244 0.0
8.721368888525245 7.274540720770752 0.0
8.920003648712827 0.9516585309368178 0.0
7.910527456030004 8.536826514867816 0.0
9.846441288756814 4.60515911863952 0.0
9.584942233925151 4.712073182517884 0.0
9.642357858573972 6.805672051759494 0.0
9.797024725252207 9.838837222258014 0.0
9.842451438022124 4.018973836958878 0.0
6.112723137676118 3.704473949316424 0.0
7.574641969193845 3.765362276156904 0.0
7.826594968121701 6.200366572362263 0.0
7.762805366733504 9.34009502796868 0.0
9.56854033867856 1.012566255816665 0.0
7.71256563655353 5.219373702836014 0.0
9.68039392238282 8.786964504862018 0.0
5.910362452777086 9.277662068919813 0.0
7.418090653922814 3.326443419100716 0.0
9.857704179097952 4.697553149694669 0.0
8.452469674653342 8.996585816905599 0.0
9.522351366699843 2.057525484575908 0.0
7.802315574700843 9.548878971475935 0.0
9.938875656926385 3.449999999992592 0.0
8.425189037911712 6.608575180629274 0.0
5.925965231566842 2.523669697740033 0.0
6.654918072256329 5.95749128982984 0.0
9.826748589235729 9.631118448471485 0.0
8.6684585637523 7.39633999085442 0.0
9.844673843931567 3.090088625379724 0.0
9.93613850661301 2.250382721159617 0.0
9.218291993658738 2.892108990205171 0.0
9.83502846611296 8.212781989607324 0.0
7.754136409732265 7.104288507262783 0.0
8.510570542791681 2.036933285735889 0.0
7.757745059307245 4.315798612475442 0.0
7.989231770559189 6.201656630465583 0.0
8.068934521422738 4.198631572122605 0.0
4.957478134450373 9.038766150325067 0.0
7.208661142641733 6.501402463831379 0.0
7.299506095906239 4.363561999234681 0.0
8.250303873550486 2.105322217421675 0.0
8.678637541413377 7.053471135702286 0.0
9.761528395137384 6.163503990672834 0.0
9.84494857233395 8.59999999999775 0.0
9.83825138794677 3.672838954969637 0.0
5.121008544047756 5.808127183024784 0.0
8.343911550360986 4.043535893276861 0.0
9.85324441775315 5.899999999993774 0.0
9.51114465213134 8.41035540646284 0.0
6.505812179224195 6.93390566262983 0.0
6.15572847138365 9.023097246950844 0.0
3.352081892333425 3.024853379890529 0.0
6.433163283162099 8.675072413910678 0.0
8.825744236698243 3.624446391299867 0.0
4.883007294861279 7.819620905924936 0.0
5.876659170760434 5.638247433601083 0.0
6.859400040348503 6.510797998354633 0.0
7.946400945409184 3.500317276373196 0.0
7.496830255505493 6.653194511698024 0.0
9.852183479755313 4.891525833556942 0.0
9.77998778436291 2.922486526124376 0.0
6.774672660492365 5.324728659740495 0.0
5.717254072187427 6.824125962512845 0.0
9.713440940838062 4.63793103997539 0.0
8.859858662536796 0.2721395536350836 0.0
8.37556017530946 9.436653414116012 0.0
7.395237381047616 7.885576562773319 0.0
5.4709157802033 4.511152089197594 0.0
9.489749416979361 9.691840729914848 0.0
4.599216022837964 3.46438688931078 0.0
5.572287492757569 4.807021644849729 0.0
9.926499336309957 9.92730688390086 0.0
9.926499336310107 0.07269311609890093 0.0
9.338127766332573 0.3585313952168247 0.0
6.810761948165162 3.414693294319008 0.0
8.166274345037138 5.943611545564389 0.0
5.2892644736731 6.301081312912763 0.0
9.731911074791544 7.649313380659622 0.0
8.90251102352767 9.50983415326544 0.0
8.997881406541017 1.033666784655452 0.0
5.835124768755703 2.738139962594905 0.0
9.665357480775825 6.185331297099201 0.0
7.656532192558493 8.217157287499347 0.0
9.170463887605525 2.975444721032631 0.0
4.208158615905443 0.8648302238584886 0.0
6.97015686031129 5.933674629077266 0.0
6.181941366523793 3.565885175921835 0.0
3.30313590337911 6.393402837735046 0.0
6.447482061767014 4.816169316820496 0.0
8.185341428749446 4.169172087371246 0.0
4.552595724340015 8.298301336212145 0.0
9.84850676569699 8.999999999998423 0.0
9.846941514449377 7.393642828194986 0.0
7.924592433490734 2.788309934035703 0.0
8.154308714226714 8.853640122009672 0.0
8.876629743004642 1.96110242719995 0.0
7.228849192966834 8.90811350348676 0.0
9.852301635085423 8.296637825215246 0.0
5.219795195341889 5.547413133147649 0.0
9.861497117995457 6.901363010201344 0.0
2.953911258021604 6.136007283255669 0.0
6.93158841067062 4.77708273647784 0.0
9.67540418457871 2.912802891506324 0.0
4.194055958522277 4.437353127730132 0.0
6.133959559341536 0.406856611599261 0.0
8.29952795189331 9.309744645643846 0.0
9.843692337952948 1.209647690818311 0.0
5.164986286280336 6.671544079402435 0.0
9.838533350075606 2.081705440779448 0.0
8.301244777513975 6.604088853319459 0.0
5.471494771710784 2.714598185146428 0.0
8.86534684892311 1.208599471795828 0.0
9.940610684232212 1.451558535868664 0.0
9.40896208432968 1.428353940655538 0.0
2.329177605337097 4.238803555614174 0.0
5.980761651517799 7.182207186682233 0.0
9.66541573964336 0.1719254072074424 0.0
7.220979380229172 7.806128737674462 0.0
1.251721227904697 6.151932667911503 0.0
8.104967286191181 6.057912607875576 0.0
6.650768762224724 4.817922869198292 0.0
6.634976350437587 3.213339182992986 0.0
7.034320437500567 4.898219100342838 0.0
9.502772020064167 6.283064492634301 0.0
8.13187938667684 3.518506862055515 0.0
9.855471943454193 2.599999999994991 0.0
9.056747742708522 8.263936599935574 0.0
4.352645795441222 5.724453640019 0.0
3.744263984699181 1.488951698361357 0.0
5.175860134287045 3.6375726667098 0.0
7.736434712114619 6.400417475661193 0.0
9.857658576695343 6.316607183405179 0.0
7.876525261950537 4.304285002335559 0.0
9.856114384785611 7.914602773442983 0.0
9.848334119947063 0.7059644476295188 0.0
9.59694321995579 6.895814046141667 0.0
5.906465212962551 3.869023950643881 0.0
9.840676994268005 9.364956386459765 0.0
5.355015287544095 3.83518170601625 0.0
6.374090407153147 5.855743754257685 0.0
8.227401290513832 5.297819733684674 0.0
5.451235131977493 4.825706629991923 0.0
6.022070213762754 5.355923882747634 0.0
9.845674433677614 6.108401449483281 0.0
9.835067400944396 7.739582406783081 0.0
8.602026805792988 2.941372356914139 0.0
5.059869081004962 5.269480960018243 0.0
5.284714507903736 5.26496663762182 0.0
9.627110479149561 7.660076105040499 0.0
6.820001127809743 4.792514421153957 0.0
5.120512795059439 4.806607659110254 0.0
9.56933817216883 2.911464407429096 0.0
9.74091654291531 9.267545397628387 0.0
9.93006767325302 6.576784040838644 0.0
9.642486276936268 4.650227701598451 0.0
5.185183328569137 9.410919109238325 0.0
9.37052946854105 4.605636695802024 0.0
1.677077220416309 5.871167715901136 0.0
7.345783833404538 3.184020711886284 0.0
5.419239942654976 5.982692039856376 0.0
6.133318300188262 2.551919945731369 0.0
6.187291396343277 4.499077117404439 0.0
1.231465237822878 3.921479198315213 0.0
8.969849937139944 9.699215363213542 0.0
9.218303154263054 6.037447959776716 0.0
CELLS 4886 19544
3 1113 1356 1450
3 1402 231 1659
3 272 269 1414
3 396 394 1777
3 1451 945 1452
3 194 81 1801
3 1847 1501 2104
3 2024 2121 2479
3 1115 1113 1450
3 1124 1413 1844
3 1061 1955 2409
3 307 305 1645
3 1592 1369 1593
3 238 1501 1847
3 1955 1883 2409
3 1808 243 1910
3 1885 978 2362
3 1440 793 2092
3 189 1488 1608
3 353 350 1864
3 2007 2231 2232
3 307 1645 2493
3 1096 1760 2496
3 2178 874 2179
3 621 625 1595
3 1493 1480 1938
3 1655 1268 2137
3 1341 1410 2212
3 243 1808 2360
3 1902 1446 2516
3 1760 1096 1763
3 856 790 2180
3 2008 2046 2105
3 789 1809 2067
3 694 1543 1575
3 1127 1762 1953
3 1748 807 2228
3 1543 1308 1575
3 820 1872 2170
3 1417 954 1998
3 1369 1592 2386
3 272 1414 1787
3 329 333 1998
3 1544 1095 1545
3 2231 1490 2232
3 1342 1683 1790
3 374 377 1797
3 807 1678 2228
3 1665 198 2128
3 141 142 1620
3 325 322 1952
3 231 1402 1654
3 198 1665 2010
3 1890 1307 2387
3 208 1438 1619
3 2016 1970 2156
3 1436 212 2020
3 954 1417 2333
3 1736 1894 2244
3 1491 1750 2143
3 1677 1064 2146
3 1474 1258 1475
3 1500 233 1930
3 1446 2415 2516
3 1700 973 1800
3 2128 2270 2316
3 1316 1315 1593
3 1307 2341 2387
3 2258 1324 2328
3 1083 1507 1508
3 693 1095 1544
3 621 1595 1596
3 667 1571 1872
3 1932 1766 2061
3 393 391 2240
3 1342 1790 2400
3 252 1707 2234
3 931 978 1885
3 1430 1116 1704
3 1411 1109 1714
3 1478 1227 2440
3 1990 195 2297
3 1792 1167 1985
3 1682 444 1975
3 394 397 1777
3 1711 2028 2162
3 1574 856 2180
3 2008 1851 2046
3 736 1493 1938
3 1069 1060 1662
3 1458 455 1754
3 862 691 1705
3 1161 1642 2286
3 1699 1700 1800
3 447 516 1637
3 955 1482 1483
3 2024 206 2121
3 391 1773 2240
3 1072 1412 1893
3 212 1436 2350
3 1566 1365 1568
3 259 1441 1672
3 872 870 1764
3 330 328 1889
3 1539 1161 2286
3 1897 1898 2275
3 1434 1990 2297
3 1109 1411 1730
3 319 307 2493
3 1762 1761 1953
3 1369 1316 1593
3 1540 834 1832
3 1505 652 2442
3 1732 1655 2137
3 921 1712 2295
3 1872 1388 2170
3 1712 921 2125
3 2028 244 2162
3 1506 1570 1680
3 1569 368 1964
3 1571 667 2375
3 1587 2178 2179
3 196 1723 1737
3 524 2016 2156
3 1528 1250 1733
3 1115 1450 1973
3 1938 1480 1971
3 1809 1396 2067
3 1641 249 2299
3 1223 1258 1474
3 1365 1566 2120
3 1981 962 2316
3 1538 353 1864
3 455 1458 1756
3 152 233 1500
3 1116 1430 1703
3 817 652 1505
3 1347 2003 2004
3 1607 1958 2085
3 194 1801 2195
3 1410 1341 2351
3 223 1415 1710
3 197 1511 2346
3 2198 787 2225
3 81 82 1801
3 1438 208 1620
3 1444 522 1823
3 1511 197 1950
3 726 718 1567
3 1637 516 1739
3 1708 2337 2341
3 1280 1649 2124
3 2337 1395 2341
3 1327 1709 2315
3 1225 1227 1478
3 691 624 1705
3 476 2224 2305
3 830 832 2204
3 1750 1491 2403
3 1366 1897 2275
3 2345 1583 2352
3 2054 405 2110
3 1984 2172 2230
3 1846 2198 2225
3 1177 2042 2418
3 2121 1367 2479
3 1527 1531 1541
3 916 1039 1834
3 1413 1124 2467
3 1622 1503 1868
3 249 1641 2019
3 1805 405 2054
3 1761 1007 1953
3 1415 223 2395
3 960 1756 2203
3 368 1569 2135
3 1402 1659 2473
3 941 1433 2471
3 1267 1477 1501
3 260 2002 2265
3 1704 558 2077
3 2224 1886 2305
3 2053 1386 2199
3 1452 945 1952
3 1717 1611 1718
3 1682 1975 2230
3 1760 1762 2496
3 1481 203 2104
3 1264 1266 1670
3 142 236 1620
3 2133 1182 2179
3 1791 1602 2183
3 350 346 1864
3 1412 1072 2393
3 1281 1575 2255
3 1565 1948 2155
3 849 1449 1513
3 1958 396 2085
3 1339 1069 1662
3 834 1540 1917
3 269 267 1414
3 1268 1267 1501
3 1440 2092 2468
3 1399 1981 2316
3 1635 1636 2041
3 1454 252 2234
3 1451 1305 1890
3 1375 1883 1955
3 362 366 1786
3 1484 2410 2528
3 1449 849 1640
3 1267 1474 1477
3 200 1611 1717
3 1054 1581 1582
3 1350 1977 2253
3 190 1390 2118
3 788 1956 2193
3 1709 1327 1888
3 2233 2298 2413
3 1488 189 2355
3 478 1685 1714
3 230 1525 1690
3 1687 478 1688
3 427 429 1756
3 1570 1065 2476
3 1880 1133 1988
3 1649 656 2124
3 1537 209 1614
3 1134 1769 1986
3 1220 1268 1655
3 396 1777 2085
3 1167 1755 1985
3 2229 1744 2296
3 1575 1281 2287
3 127 240 1882
3 377 647 1797
3 954 329 1998
3 220 1697 1698
3 1342 1341 2212
3 1441 264 1672
3 1512 188 2433
3 763 2345 2352
3 1685 1411 1714
3 1805 1188 1951
3 1347 2004 2157
3 1054 1582 1667
3 1333 1617 1674
3 2217 73 2361
3 1539 1036 1917
3 1039 1292 1834
3 208 141 1620
3 1965 1964 2038
3 693 1544 1969
3 1453 239 2279
3 203 1481 2049
3 945 1451 1889
3 680 1459 2134
3 354 2147 2196
3 1405 1932 2061
3 1723 1722 1737
3 1748 1175 1927
3 1532 1528 1733
3 2057 1824 2154
3 1406 1659 1702
3 1948 1186 2155
3 210 1598 2114
3 1685 478 1687
3 1324 1325 2328
3 1526 1250 1527
3 165 166 1509
3 1493 736 2523
3 1526 1527 1541
3 1390 190 2417
3 522 1444 1998
3 1680 1570 1732
3 1017 1442 2525
3 374 1797 2430
3 1507 1083 2197
3 1756 960 2221
3 2270 1400 2316
3 2205 1452 2282
3 1074 1187 1888
3 2158 1245 2200
3 1442 1017 1684
3 864 1116 1703
3 1750 1751 2143
3 1456 516 1492
3 1677 2146 2149
3 2022 1339 2388
3 1602 258 2183
3 678 1594 1595
3 1245 1670 2200
3 972 830 2204
3 2143 983 2342
3 1268 1501 2226
3 1266 1461 1670
3 1487 222 2465
3 1382 2022 2388
3 58 59 1661
3 2147 1543 2196
3 1484 1485 2410
3 628 2053 2199
3 1906 1549 2259
3 364 362 1786
3 1339 2022 2247
3 1636 525 2041
3 625 678 1595
3 678 1593 1594
3 2212 1410 2222
3 1837 1865 2215
3 1699 1800 1801
3 866 864 1703
3 893 1472 1982
3 1735 1736 2244
3 1633 1255 1922
3 126 127 1882
3 681 867 1656
3 1351 1401 2363
3 11 228 1588
3 1127 1953 2454
3 265 266 267
3 1722 1122 1737
3 1389 1691 2069
3 1613 1610 1616
3 1227 1256 2440
3 429 455 1756
3 1535 1177 2418
3 322 324 1952
3 973 1700 1802
3 1964 368 2038
3 1176 1865 1866
3 1096 872 1764
3 1176 1866 1875
3 193 1839 1892
3 156 157 1441
3 615 617 1596
3 686 1520 2480
3 1409 2097 2305
3 2410 1151 2528
3 1427 2217 2361
3 440 1911 2314
3 1744 1743 2296
3 516 1456 1739
3 1939 589 2164
3 690 931 2150
3 1062 1579 1580
3 1054 1580 1581
3 955 1483 1716
3 1064 1677 2248
3 1956 1616 2193
3 1776 1893 2026
3 1398 1115 1973
3 2002 1453 2265
3 1541 1531 1542
3 216 2191 2536
3 1736 1326 1894
3 1065 994 1066
3 1598 2115 2175
3 2314 1911 2358
3 1433 941 2042
3 2115 1209 2175
3 717 1550 1551
3 188 1941 2433
3 267 1132 1414
3 771 1569 2064
3 1157 1545 1546
3 1231 1250 1526
3 1933 240 2181
3 222 1487 2025
3 1525 230 1765
3 1430 1704 2077
3 757 1744 2495
3 264 263 265
3 883 773 1917
3 739 2205 2282
3 1667 1582 2434
3 1744 757 2474
3 239 1453 2002
3 1441 259 2356
3 2005 1443 2012
3 254 1766 1932
3 1509 166 1679
3 1477 1475 1481
3 793 1440 2165
3 1385 1523 2377
3 1481 1475 2523
3 156 1441 2356
3 1066 1220 1655
3 945 325 1952
3 2094 2087 2134
3 1747 1175 1748
3 253 262 263
3 1327 1074 1888
3 718 715 1567
3 2046 1043 2105
3 240 1933 2399
3 1305 1307 1890
3 224 58 1661
3 1195 1566 2285
3 1590 1393 1749
3 1255 1230 1922
3 353 1538 2073
3 358 1999 2325
3 882 1802 2036
3 1024 1020 1604
3 333 522 1998
3 1401 1351 2414
3 1475 1258 1476
3 2310 786 2364
3 328 945 1889
3 807 1748 1927
3 825 724 1912
3 1742 263 2491
3 267 266 1132
3 2077 2102 2203
3 1431 1432 1860
3 1212 1957 2312
3 2097 476 2305
3 1132 1402 2473
3 717 713 1550
3 1746 693 1969
3 1372 1124 1844
3 1256 1541 2269
3 1977 1350 2274
3 2332 1978 2443
3 874 2133 2179
3 1983 1534 2171
3 1157 1544 1545
3 1230 1228 1922
3 1580 1579 1581
3 1565 806 1948
3 1416 1363 2413
3 1287 1995 2398
3 265 263 266
3 1534 1529 2171
3 1604 1834 2428
3 1255 1633 2509
3 1344 1643 1644
3 1332 1388 1571
3 1423 217 2217
3 2191 1057 2451
3 458 447 1637
3 1250 1233 1733
3 472 2212 2222
3 1175 1747 1840
3 1652 256 1653
3 1073 1347 1572
3 200 145 1609
3 683 640 1585
3 1116 862 1705
3 1221 1223 1474
3 1778 801 1803
3 1503 1622 2471
3 1475 1493 2523
3 464 680 2134
3 14 210 2114
3 579 1880 1988
3 1434 1435 1990
3 1447 2310 2364
3 275 274 276
3 2294 1871 2419
3 814 1068 1684
3 1172 1439 2273
3 273 272 274
3 1363 1416 2406
3 1220 1219 1221
3 1060 1656 1662
3 1099 1792 1985
3 2048 1198 2168
3 1241 1245 2323
3 699 723 1753
3 1640 1862 2070
3 910 1018 1584
3 1586 1067 1587
3 1656 867 1662
3 1067 686 2480
3 654 2242 2294
3 1593 1315 1594
3 1880 553 1974
3 236 1717 1718
3 617 621 1596
3 1723 196 2313
3 402 1877 2116
3 273 274 275
3 2202 1869 2252
3 1510 1358 1767
3 193 1892 2373
3 1188 1805 2054
3 1220 1221 1267
3 1066 1218 1219
3 1517 1097 1518
3 1677 1676 1858
3 686 277 1520
3 268 267 269
3 697 857 1592
3 220 1698 1699
3 1802 1700 2036
3 1612 1537 1614
3 929 817 994
3 228 12 2136
3 2110 2116 2482
3 1659 1658 1702
3 1611 1613 2280
3 1344 991 1643
3 683 1585 1604
3 1638 1358 2404
3 1485 1034 2410
3 2214 833 2424
3 271 272 273
3 1482 955 1962
3 1066 1219 1220
3 931 1885 2150
3 1613 1891 2280
3 1189 1589 2204
3 1566 1195 2120
3 726 1567 2490
3 1122 1722 1874
3 1494 319 2493
3 1671 259 1672
3 1267 1221 1474
3 603 528 1591
3 1664 2128 2316
3 1817 1924 2174
3 1626 1660 2111
3 1474 1475 1477
3 1023 1062 1580
3 1957 1599 2312
3 1764 1939 2164
3 1358 1950 2404
3 200 1609 1610
3 1431 1082 1432
3 1778 1803 2521
3 1830 1832 2075
3 1930 233 2369
3 1329 1482 1650
3 757 1959 2522
3 1239 1247 1597
3 758 1978 2332
3 1569 1290 2064
3 216 1694 2191
3 1453 1420 2265
3 1549 1906 2129
3 24 215 1674
3 19 235 1676
3 1621 1057 2191
3 1691 1389 2262
3 1617 1333 2192
3 929 994 1065
3 1769 1672 1986
3 1893 1412 2026
3 1609 1537 1612
3 271 269 272
3 1373 1438 1620
3 217 1423 2381
3 517 330 1889
3 1322 1055 1667
3 1974 553 2499
3 228 2136 2187
3 1589 1189 1788
3 1999 1577 2325
3 2110 405 2116
3 189 1608 1842
3 1055 1050 1667
3 739 1455 2205
3 1865 1176 2215
3 319 1494 2522
3 2474 757 2522
3 1484 227 1485
3 10 11 1588
3 723 809 1753
3 27 230 1689
3 1550 806 1565
3 1179 1180 1217
3 207 1617 2192
3 1433 1217 1502
3 1562 1556 1606
3 1379 2017 2018
3 1245 2158 2323
3 675 1097 1517
3 884 501 1599
3 1020 683 1604
3 1603 1095 1848
3 1001 2057 2154
3 1604 1585 1834
3 1610 1612 1616
3 1764 870 1939
3 2242 1871 2294
3 1669 1264 1670
3 1658 213 1702
3 1995 1646 2398
3 631 539 1600
3 1491 2143 2342
3 1801 1800 2195
3 1200 1199 1693
3 1535 940 1861
3 1534 758 2332
3 914 2258 2328
3 1588 228 2457
3 216 138 1694
3 151 152 1500
3 1133 1880 1974
3 1677 1858 2248
3 1294 1622 1868
3 875 1010 1767
3 1379 2018 2416
3 1279 2202 2252
3 182 256 1652
3 1592 857 2386
3 672 681 1656
3 615 1596 1824
3 1093 1487 1623
3 1823 522 2100
3 1245 1242 1669
3 1582 1581 1583
3 758 1534 2306
3 1975 1984 2230
3 1358 1510 1950
3 1663 1336 1665
3 2102 960 2203
3 366 1087 1786
3 1740 1490 2231
3 21 207 1709
3 145 146 1609
3 2339 765 2384
3 603 1591 1668
3 2081 199 2149
3 1540 1832 1879
3 1721 1723 1947
3 1754 455 1793
3 1751 1753 2119
3 882 1701 1807
3 1540 1539 1917
3 242 1695 1697
3 1521 354 2091
3 1363 2233 2413
3 1584 1018 1925
3 703 1067 1586
3 1177 1178 1179
3 795 916 1834
3 277 276 607
3 1571 1388 1872
3 22 23 1617
3 1097 823 1177
3 25 26 1624
3 419 418 1790
3 1728 1906 2259
3 440 1455 2261
3 1877 1318 2116
3 1488 1156 1608
3 1439 2130 2273
3 1889 1451 1890
3 1614 209 2389
3 1472 893 2094
3 675 821 823
3 23 24 1674
3 1788 1190 2183
3 917 941 1622
3 1763 1096 1764
3 1068 1442 1684
3 1034 1485 2173
3 2172 1533 2230
3 138 139 1694
3 1065 1570 2197
3 607 674 675
3 1536 1248 2268
3 229 135 1734
3 1437 1925 1926
3 680 510 1646
3 147 209 1537
3 26 27 1689
3 1627 705 2163
3 206 1651 2121
3 2409 1785 2462
3 1492 682 2447
3 1223 1225 1258
3 889 1772 2374
3 253 263 264
3 275 276 277
3 1455 739 2261
3 2022 1382 2176
3 150 227 1484
3 639 1019 1591
3 1449 1640 2070
3 1082 833 2214
3 1503 1502 1504
3 144 200 1717
3 1643 991 1713
3 1190 1791 2183
3 1538 1804 2073
3 1256 2269 2440
3 18 19 1676
3 521 531 2000
3 790 849 2180
3 1075 1329 1650
3 1087 1782 1785
3 1066 994 1218
3 270 269 271
3 682 1492 2494
3 185 252 1454
3 253 158 262
3 1629 1632 1633
3 200 1610 1611
3 1477 1481 2104
3 1623 1487 2465
3 1518 1097 1535
3 1414 1132 2460
3 1179 1217 1433
3 177 1506 1680
3 1392 1017 2525
3 1832 834 2075
3 675 823 1097
3 1459 2094 2134
3 1782 1087 1795
3 1838 1730 2372
3 1639 149 2528
3 1617 23 1674
3 2265 1420 2489
3 180 232 1859
3 1527 1250 1528
3 20 21 1709
3 1083 1508 2311
3 903 866 1703
3 1455 440 2314
3 1187 1858 1888
3 1659 1406 2473
3 1446 1902 2166
3 421 1951 2106
3 1598 210 2115
3 154 259 1671
3 1288 1835 2080
3 1832 1831 1879
3 1258 1225 1478
3 1024 1604 2117
3 1263 1429 1739
3 706 705 1627
3 1583 1581 2352
3 407 1805 1951
3 856 1574 2527
3 1701 882 2036
3 1624 26 1689
3 717 1551 1552
3 1385 2377 2391
3 2302 1745 2354
3 1572 1347 2157
3 1036 883 1917
3 1689 1690 1691
3 1664 1665 2128
3 1476 1479 1480
3 1751 2119 2143
3 815 814 1684
3 1790 889 2400
3 1606 1607 2085
3 265 267 268
3 418 889 1790
3 1522 1521 2091
3 135 136 1734
3 1726 1445 1729
3 647 1796 1797
3 1346 1453 2279
3 1293 1827 2117
3 1242 1244 1669
3 1853 1852 1854
3 889 2374 2400
3 1039 1038 1290
3 1524 628 2199
3 1331 1332 1571
3 1291 1290 1569
3 1475 1476 1493
3 1850 1852 1853
3 1490 1740 2456
3 1689 230 1690
3 1256 1526 1541
3 1704 1705 2167
3 1465 1470 1675
3 956 1073 1572
3 1613 1616 1956
3 916 917 1038
3 2014 1522 2091
3 1221 1222 1223
3 1999 763 2352
3 234 10 1588
3 1697 220 2335
3 1527 1528 1529
3 2298 1600 2413
3 1436 2020 2254
3 1642 1161 1678
3 1523 1385 2436
3 1730 1838 2426
3 795 796 916
3 713 711 1550
3 1456 1263 1739
3 999 1336 1663
3 1785 1784 2462
3 409 415 1783
3 607 675 1517
3 1229 1231 1526
3 1958 1855 2078
3 1589 1588 1590
3 1933 261 2380
3 762 1965 2038
3 1756 1458 2203
3 1776 597 1893
3 1794 1072 1893
3 188 1512 2266
3 1774 2339 2384
3 188 1908 1941
3 1010 1510 1767
3 2189 2285 2307
3 773 834 1917
3 1245 1669 1670
3 1248 1597 2268
3 146 1537 1609
3 818 910 1584
3 1641 1313 1651
3 1217 1745 2302
3 1065 1066 1655
3 1597 1247 2047
3 1360 2177 2376
3 1612 1615 1616
3 2126 867 2186
3 1019 683 1020
3 1747 892 1840
3 1092 1093 1623
3 261 1933 2181
3 400 424 1666
3 1516 1903 2377
3 1100 1392 1605
3 247 1738 1881
3 268 1134 1986
3 1177 823 1178
3 884 1599 1957
3 263 262 2491
3 806 1627 1948
3 1227 1229 1256
3 191 1729 2504
3 1636 1635 2502
3 1480 1479 1601
3 1721 1947 2498
3 1924 1146 2174
3 229 1734 1735
3 175 204 1725
3 1179 1178 1180
3 354 1521 2147
3 665 697 1592
3 640 646 1585
3 627 545 1636
3 1882 240 2399
3 1556 1555 1606
3 1373 1620 2394
3 1871 1071 2419
3 548 1628 1629
3 455 436 1793
3 974 1831 1841
3 1844 1413 2392
3 1612 1614 1615
3 209 1639 1937
3 1329 1330 1331
3 1823 2100 2142
3 1097 1177 1535
3 1021 1020 1022
3 825 1912 2455
3 913 1122 1874
3 400 1666 2113
3 1256 1229 1526
3 1419 1418 2450
3 1552 1551 1553
3 1850 1099 1852
3 1629 1631 1632
3 801 685 2029
3 1618 1619 1621
3 265 268 1986
3 1715 2165 2330
3 1531 1529 1534
3 1022 1024 1576
3 658 693 1746
3 703 686 1067
3 1062 1576 1577
3 1023 1022 1062
3 236 1718 2394
3 1688 502 1740
3 1501 1477 2104
3 213 165 1509
3 646 795 1585
3 196 1737 1738
3 379 679 1795
3 639 640 683
3 924 875 1767
3 1752 699 1753
3 207 2192 2315
3 627 1636 1660
3 1217 1180 1745
3 730 728 1833
3 528 561 1591
3 1444 1417 1998
3 252 186 1602
3 1729 1445 2504
3 460 502 1688
3 1418 946 1778
3 1203 1200 1693
3 548 470 1628
3 849 668 1640
3 646 785 795
3 607 276 674
3 14 15 210
3 147 148 209
3 478 460 1688
3 1709 207 2315
3 1157 1546 1608
3 1155 1731 1899
3 1524 1934 2390
3 1775 921 1876
3 1433 1502 1503
3 470 458 1628
3 1223 1224 1225
3 1291 1569 1964
3 871 1056 1826
3 1781 1783 1915
3 1587 1067 2300
3 916 1038 1039
3 1388 1387 1389
3 1611 1610 1613
3 1075 1328 1329
3 1039 1290 1291
3 1538 1265 1804
3 1184 1185 2163
3 597 598 1794
3 1450 1356 2421
3 1835 576 2080
3 1629 1628 1631
3 1331 1330 1332
3 561 639 1591
3 1476 1480 1493
3 705 703 1586
3 639 683 1019
3 1951 1188 2106
3 436 446 1793
3 1472 1297 2142
3 1332 1387 1388
3 1345 984 1720
3 1329 1328 1330
3 1050 1048 1667
3 150 151 227
3 11 12 228
3 557 541 2256
3 1831 974 1879
3 134 229 1766
3 1357 1358 1638
3 1336 1641 2299
3 1650 1482 1962
3 1591 1019 2512
3 1506 1507 1570
3 1803 801 2029
3 1178 823 1972
3 1552 1553 1554
3 1290 1038 1294
3 1028 1313 1641
3 1237 1239 1597
3 993 1017 1100
3 893 2087 2094
3 149 1484 2528
3 1768 1142 1949
3 9 234 1673
3 1554 1553 1555
3 668 632 1640
3 711 806 1550
3 1628 458 1637
3 1098 1829 1830
3 1482 1331 1483
3 531 1818 2000
3 435 419 1790
3 1156 1157 1608
3 1182 1184 2179
3 510 512 1646
3 1231 1233 1250
3 946 841 1778
3 1483 1331 1571
3 1459 680 2458
3 1166 1040 1210
3 892 1657 1820
3 1042 1445 1726
3 1019 1020 1021
3 749 805 1810
3 234 1588 1589
3 1695 242 1892
3 556 1853 2483
3 1018 1572 1573
3 1529 1528 1530
3 1606 1558 1607
3 1761 1759 2308
3 1396 1032 1921
3 1018 956 1572
3 689 1150 1416
3 1827 1293 2515
3 149 150 1484
3 1647 656 1648
3 1543 694 2196
3 399 409 1783
3 545 525 1636
3 268 269 270
3 715 713 717
3 1100 1017 1392
3 1657 892 1747
3 207 22 1617
3 1666 884 2249
3 1671 1672 1769
3 1554 1555 1556
3 146 147 1537
3 1081 1444 1822
3 711 709 806
3 1443 2005 2322
3 660 658 1746
3 1166 1458 1754
3 916 796 917
3 1056 1728 1826
3 1068 1069 1275
3 184 185 1454
3 158 159 262
3 2007 1687 2231
3 805 1708 1810
3 1672 264 1986
3 1561 1562 1563
3 978 1075 1650
3 1590 1588 2457
3 215 25 1624
3 1551 1550 1565
3 1073 1346 1347
3 857 818 1584
3 1648 656 1649
3 675 674 821
3 561 594 639
3 1731 529 1899
3 2303 1454 2535
3 981 903 1040
3 1630 1629 1633
3 993 877 1017
3 724 718 726
3 512 603 1646
3 1676 235 1858
3 814 1060 1068
3 715 717 1567
3 1796 647 1870
3 1715 1171 2165
3 678 1592 1593
3 644 613 1824
3 1690 1525 2145
3 1297 1822 1823
3 271 656 1647
3 1704 1116 1705
3 1225 1226 1227
3 1275 1069 1338
3 910 956 1018
3 1824 1596 2154
3 1403 1100 1605
3 1221 1219 1222
3 1068 1060 1069
3 1901 245 1949
3 1081 1055 1321
3 1751 563 1752
3 1021 1022 1023
3 672 638 681
3 1095 657 1848
3 1235 1237 1248
3 1561 1556 1562
3 1265 1259 1804
3 524 1819 2016
3 978 1650 2362
3 1492 516 2494
3 229 1735 2061
3 185 186 252
3 157 158 253
3 152 153 233
3 9 10 234
3 1527 1529 1531
3 1808 1344 2360
3 1062 1577 1579
3 1509 1679 1977
3 424 454 1666
3 637 638 672
3 981 1040 1166
3 1555 1558 1606
3 751 749 1810
3 1166 1210 1458
3 1651 1313 2121
3 15 16 2260
3 1633 1632 2509
3 2167 1705 2276
3 551 602 2045
3 697 818 857
3 364 1786 1883
3 832 1189 2204
3 1476 1478 1479
3 678 665 1592
3 213 1509 2096
3 1015 888 1124
3 1062 1022 1576
3 679 1782 1795
3 680 1646 1995
3 1101 1100 1403
3 1109 433 1714
3 1248 1237 1597
3 733 730 1833
3 1702 213 2096
3 499 498 1828
3 1418 1778 2521
3 637 600 638
3 1048 1046 1054
3 1577 1576 1578
3 814 766 1060
3 1279 2252 2292
3 474 470 548
3 199 18 1676
3 157 253 1441
3 1048 1054 1667
3 471 472 2290
3 625 665 678
3 795 785 796
3 1264 1265 1266
3 1437 1926 2350
3 1362 2048 2168
3 1394 2337 2371
3 454 884 1666
3 1022 1020 1024
3 751 1810 1923
3 1046 1023 1580
3 1807 1701 1931
3 1618 208 1619
3 566 588 689
3 1828 498 1829
3 501 509 1599
3 1118 780 1775
3 878 817 929
3 1510 1511 1950
3 1618 1621 1694
3 1052 1081 1822
3 1416 1150 1715
3 1239 1241 1247
3 1396 1921 2067
3 1751 1752 1753
3 1264 1259 1265
3 539 566 1600
3 1762 1127 2496
3 1673 1788 2183
3 1555 1557 1558
3 1052 1050 1055
3 725 724 825
3 1142 1770 1771
3 681 853 867
3 454 501 884
3 1346 1420 1453
3 932 1147 1770
3 1546 1545 1547
3 533 582 1818
3 1266 1337 1460
3 1872 820 2318
3 1117 1119 1713
3 1081 1321 1417
3 1253 1259 1264
3 1569 771 2135
3 1052 1055 1081
3 1181 1178 1972
3 709 706 1627
3 1073 1076 1346
3 1098 1828 1829
3 1382 1380 2176
3 1442 1275 1443
3 919 999 1663
3 1789 828 1855
3 877 815 1684
3 509 539 631
3 992 877 993
3 1266 1265 1337
3 2268 1498 2340
3 1130 1032 1396
3 1095 1603 2508
3 886 826 887
3 531 533 1818
3 1131 1400 1881
3 447 437 516
3 2460 1132 2473
3 940 1535 2418
3 768 1873 2037
3 1813 1869 1954
3 1627 2163 2488
3 1497 1495 1645
3 1198 1409 2168
3 724 726 1912
3 1869 987 1954
3 763 1999 2338
3 1010 1170 1374
3 984 976 1720
3 1470 1743 1744
3 689 588 1150
3 1901 1949 2359
3 1640 632 1862
3 274 272 1787
3 563 564 1752
3 994 817 1505
3 737 1807 1931
3 1770 1147 1771
3 1233 1235 1733
3 2450 1418 2521
3 414 410 1821
3 908 1099 1850
3 1227 1228 1229
3 1692 1203 1693
3 1625 216 2194
3 512 528 603
3 1377 1357 1638
3 1465 1464 1470
3 1360 1359 2177
3 1686 2007 2095
3 1336 1028 1641
3 1857 751 1923
3 1758 572 1759
3 553 541 557
3 1171 1715 1811
3 956 1003 1073
3 1467 1465 1675
3 719 718 724
3 1509 1977 2096
3 1734 1625 1736
3 1503 1504 1868
3 592 597 1776
3 180 181 232
3 162 163 231
3 2308 1759 2370
3 1357 1114 1358
3 875 946 1010
3 509 631 1599
3 17 18 199
3 144 145 200
3 1099 906 1792
3 1469 1467 1494
3 605 589 1939
3 1208 1205 1211
3 354 344 2091
3 692 782 804
3 1010 946 1170
3 1463 1462 1464
3 716 715 718
3 714 713 715
3 271 273 656
3 139 1618 1694
3 549 277 686
3 673 672 766
3 1378 1377 1379
3 2007 868 2095
3 999 1028 1336
3 1208 1211 1447
3 601 545 627
3 1119 1643 1713
3 1332 1333 1387
3 910 912 956
3 520 521 2000
3 828 1789 1819
3 277 607 1520
3 1338 1339 2247
3 818 819 910
3 767 766 814
3 712 711 713
3 1494 1467 1675
3 639 594 640
3 2044 557 2256
3 235 20 1709
3 1620 236 2394
3 804 919 962
3 1862 702 2070
3 681 852 853
3 1559 1556 1561
3 1622 941 2471
3 2165 1440 2330
3 612 644 692
3 697 698 818
3 1903 1516 1994
3 371 379 1795
3 428 426 2138
3 1290 1294 2064
3 1384 1904 2432
3 566 689 1600
3 471 452 472
3 1092 1091 1093
3 1002 1131 1719
3 1090 1089 1091
3 875 841 946
3 1758 1760 1763
3 1562 1606 2085
3 1833 1830 2075
3 178 179 214
3 164 165 213
3 769 923 1815
3 692 644 782
3 804 782 919
3 182 183 256
3 160 161 257
3 1329 1331 1482
3 962 1663 1664
3 1177 1179 2042
3 403 405 1805
3 1461 1460 1462
3 140 208 1618
3 1859 232 1860
3 274 1787 2099
3 1381 2126 2186
3 1558 1560 1789
3 430 428 682
3 452 435 1683
3 1487 1156 1488
3 1470 1464 1743
3 597 1794 1893
3 1244 1253 1669
3 962 919 1663
3 258 8 1673
3 1087 1785 1786
3 970 1042 1726
3 199 1677 2149
3 1664 1663 1665
3 1229 1230 1231
3 991 827 1713
3 792 1603 1848
3 1822 1444 1823
3 665 666 697
3 19 20 235
3 142 143 236
3 728 1098 1833
3 532 530 1898
3 1015 1124 1372
3 1546 1547 1548
3 1851 1850 1853
3 1877 393 2240
3 923 1105 1815
3 1090 1091 1092
3 687 686 703
3 1683 435 1790
3 887 826 1961
3 684 663 1089
3 426 1934 2138
3 464 510 680
3 853 854 855
3 568 572 1758
3 1376 1357 1377
3 1205 1203 1692
3 1607 1789 1855
3 710 709 711
3 780 781 1775
3 1434 1103 1435
3 876 815 877
3 766 672 1656
3 1393 1590 2457
3 684 1089 1090
3 530 890 1898
3 926 1920 1943
3 696 414 1821
3 1563 1562 1777
3 1054 1046 1580
3 1398 1973 1974
3 137 216 1625
3 1210 1040 1430
3 1750 563 1751
3 2010 1665 2299
3 1510 1374 1511
3 1777 1562 2085
3 1707 252 1791
3 1932 1404 1933
3 459 438 1814
3 139 140 1618
3 1093 1156 1487
3 231 163 1658
3 699 722 723
3 1545 1095 2508
3 598 612 1794
3 579 554 1880
3 1941 1908 2401
3 1231 1232 1233
3 1831 1829 1841
3 1037 1383 1799
3 177 178 1506
3 636 600 637
3 1036 1539 2286
3 1356 1114 1357
3 1523 1516 2377
3 704 703 705
3 403 402 405
3 648 792 1848
3 723 756 808
3 1388 1389 2170
3 933 932 1770
3 223 1710 1711
3 1779 399 1783
3 1223 1222 1224
3 1028 1029 1313
3 257 161 1654
3 418 412 421
3 734 882 1807
3 693 657 1095
3 1368 1370 1436
3 136 137 1625
3 688 652 817
3 1075 1327 1328
3 540 479 1813
3 398 395 402
3 548 1629 1630
3 574 591 699
3 1469 1494 1495
3 1041 1598 2175
3 167 168 202
3 175 176 204
3 2045 2046 2201
3 186 187 1602
3 886 887 888
3 1253 1254 1259
3 8 9 1673
3 792 655 810
3 843 1145 1960
3 1180 1349 1745
3 1165 1345 1512
3 708 706 709
3 136 1625 1734
3 21 22 207
3 140 141 208
3 625 626 665
3 1093 1094 1156
3 1585 795 1834
3 1117 1713 1806
3 599 579 600
3 810 871 1826
3 1047 1046 1048
3 1292 1291 1293
3 161 162 1654
3 199 1676 1677
3 1260 1282 1804
3 1005 1142 1768
3 1233 1234 1235
3 792 810 922
3 1122 1719 1737
3 976 985 1720
3 1278 1279 2292
3 2390 1934 2531
3 1436 1437 2350
3 270 271 1647
3 1199 966 1846
3 1683 1342 2212
3 656 273 2124
3 699 591 722
3 1977 1139 2096
3 1738 1719 1881
3 1722 985 1874
3 1797 1448 1798
3 162 231 1654
3 632 604 1862
3 252 1602 1791
3 1051 1050 1052
3 1045 1023 1046
3 648 655 792
3 993 1100 1101
3 1321 1055 1322
3 806 709 1627
3 904 903 981
3 1220 1267 1268
3 648 605 655
3 1737 1719 1738
3 385 399 1779
3 506 499 1828
3 1132 266 1402
3 1170 1418 1419
3 1323 2302 2354
3 24 25 215
3 137 138 216
3 721 965 1919
3 1787 1414 2460
3 778 1117 1806
3 723 722 756
3 407 403 1805
3 564 574 1752
3 1049 1048 1050
3 842 841 875
3 1608 1546 1842
3 809 808 899
3 1517 1519 1520
3 1530 1532 1533
3 889 421 1772
3 913 1002 1122
3 1314 1316 1367
3 1017 877 1684
3 841 802 1778
3 1235 1236 1237
3 751 1857 1900
3 1114 924 1767
3 1344 1644 2360
3 1895 1394 2371
3 1518 1535 1861
3 1758 1759 1760
3 1122 1002 1719
3 546 563 1750
3 1056 1726 1727
3 663 660 1746
3 621 622 625
3 1720 985 1721
3 1857 1843 1900
3 808 756 913
3 1056 970 1726
3 27 28 230
3 134 135 229
3 908 906 1099
3 163 164 1658
3 1727 1726 1729
3 7 8 258
3 154 155 259
3 1101 1403 1404
3 808 913 1874
3 1260 1269 1282
3 1389 1387 2262
3 1297 1053 1822
3 1555 1553 1557
3 1463 1464 1465
3 230 28 1765
3 1237 1238 1239
3 554 553 1880
3 775 778 1806
3 985 899 1874
3 1270 1524 2199
3 489 1820 1936
3 692 1072 1794
3 1472 2142 2272
3 1845 496 1929
3 438 431 1814
3 613 615 1824
3 1241 1242 1245
3 1783 415 1915
3 1192 2081 2149
3 178 214 1506
3 1816 988 1817
3 1760 1759 1761
3 1103 1092 1623
3 1512 1345 1661
3 1876 921 2295
3 1165 984 1345
3 978 1074 1075
3 1239 1240 1241
3 542 541 553
3 813 988 1816
3 1148 984 1165
3 871 970 1056
3 472 452 1683
3 1207 1796 1870
3 1167 1166 1754
3 1296 1053 1297
3 966 964 1846
3 976 899 985
3 982 976 984
3 702 1815 2015
3 900 899 976
3 1143 995 1206
3 1576 1024 1827
3 1235 1248 1733
3 1558 1557 1560
3 943 995 1143
3 1920 1144 1943
3 1471 2115 2477
3 29 30 255
3 132 133 254
3 1630 1633 1634
3 1225 1224 1226
3 1925 1573 1926
3 1211 1205 1692
3 725 825 826
3 1113 924 1114
3 600 579 1988
3 717 1552 1567
3 1820 1657 1936
3 674 276 2099
3 395 393 1877
3 572 543 1897
3 1575 1308 2255
3 999 1000 1028
3 1118 1775 1876
3 1797 1798 2430
3 526 546 559
3 867 853 2186
3 1142 1771 1949
3 1068 1275 1442
3 679 385 1779
3 1607 1558 1789
3 580 568 1758
3 1244 1252 1253
3 1760 1761 1762
3 398 402 403
3 1476 1258 1478
3 418 421 889
3 1771 1147 1839
3 164 213 1658
3 1720 1721 2267
3 1668 1591 2512
3 1042 1128 1445
3 1098 1830 1833
3 1102 1092 1103
3 2249 884 2466
3 1104 1103 1434
3 410 416 1821
3 514 513 541
3 580 1758 1763
3 637 673 1741
3 1913 936 1914
3 1394 1395 2337
3 919 920 999
3 577 554 579
3 2111 1660 2263
3 231 1658 1659
3 612 613 644
3 568 543 572
3 770 775 1806
3 1445 1128 1446
3 1546 1548 1842
3 448 460 478
3 810 870 871
3 1789 1560 1819
3 1154 1082 1431
3 873 973 1802
3 379 385 679
3 837 850 921
3 1461 1462 1463
3 1346 1076 1420
3 1088 1344 1808
3 2125 1143 2353
3 931 977 978
3 882 772 1802
3 29 255 1765
3 849 1513 2180
3 1713 827 1806
3 1130 1396 1397
3 681 638 852
3 1417 1321 1873
3 1654 1402 2530
3 502 526 1740
3 1124 888 2177
3 1266 1460 1461
3 515 1175 1840
3 1253 1264 1669
3 479 466 1813
3 1727 1729 1757
3 379 380 385
3 1971 1480 2514
3 1637 1739 2459
3 1207 1205 1208
3 529 519 1899
3 1129 1845 1929
3 224 1661 2267
3 192 1856 2361
3 732 734 1807
3 1184 2163 2435
3 1119 1120 1353
3 415 414 431
3 719 724 725
3 559 546 1750
3 871 872 970
3 1038 917 1622
3 574 699 1752
3 166 167 1679
3 1117 1118 1119
3 1409 1196 2035
3 617 619 621
3 1172 1173 1439
3 1191 1005 1768
3 664 663 684
3 494 493 1841
3 890 529 1731
3 840 802 841
3 493 974 1841
3 385 386 399
3 679 1779 1780
3 371 376 379
3 416 433 1109
3 670 769 1815
3 902 866 903
3 1780 1779 1781
3 480 515 1840
3 970 971 1042
3 433 448 1714
3 28 29 1765
3 1005 949 1142
3 778 780 1117
3 959 1037 1799
3 1073 1003 1076
3 535 532 1898
3 1119 1118 1120
3 658 657 693
3 1378 1379 1380
3 1397 1396 1809
3 1610 1609 1612
3 1819 1560 2016
3 1837 952 1865
3 1719 1131 1881
3 1131 1399 1400
3 1352 1138 2058
3 399 406 409
3 548 1630 2041
3 1275 1338 2251
3 582 1816 1818
3 1835 1836 2144
3 993 1101 1980
3 1699 1698 1700
3 2407 364 2505
3 1189 1190 1788
3 1117 780 1118
3 1830 1829 1831
3 637 672 673
3 692 804 1072
3 1204 1203 1205
3 1374 1170 2139
3 612 692 1794
3 1642 1408 2286
3 723 808 809
3 450 459 1812
3 409 410 414
3 802 801 1778
3 1853 1854 2483
3 1042 1127 1128
3 1199 1846 2225
3 1147 990 1273
3 1383 1384 2432
3 432 431 438
3 1353 1120 1390
3 1093 1091 1094
3 2020 250 2254
3 148 149 1639
3 606 605 648
3 1970 2016 2422
3 2201 2046 2327
3 475 471 513
3 412 407 1951
3 1991 246 2139
3 727 695 728
3 1673 234 1788
3 1554 1556 1559
3 1089 663 1746
3 1846 964 2056
3 923 991 1088
3 409 406 410
3 729 728 730
3 1424 1427 1856
3 1473 1911 2407
3 1376 1377 1378
3 1010 1374 1510
3 853 852 854
3 366 369 1087
3 772 873 1802
3 1219 1218 1626
3 1766 229 2061
3 1088 991 1344
3 922 810 1826
3 518 506 695
3 405 402 2116
3 962 1664 2316
3 913 942 1002
3 932 990 1147
3 629 813 1816
3 876 877 992
3 399 386 406
3 932 845 990
3 1002 1123 1131
3 843 996 1145
3 781 837 1775
3 262 2304 2491
3 431 696 1814
3 1273 1695 1892
3 731 730 732
3 737 732 1807
3 439 438 450
3 1829 498 1841
3 800 685 801
3 767 814 815
3 1060 766 1656
3 673 766 767
3 1403 1605 1882
3 716 718 719
3 1338 1069 1339
3 847 752 1843
3 864 862 1116
3 2302 443 2519
3 923 827 991
3 526 559 1740
3 1911 1473 2358
3 1085 1310 1867
3 809 899 900
3 1227 1226 1228
3 729 730 731
3 1436 1370 1437
3 731 732 737
3 769 827 923
3 456 452 471
3 1433 1503 2471
3 1435 1103 1623
3 385 380 386
3 1141 1787 2460
3 1354 1088 1808
3 657 649 1848
3 415 431 432
3 484 892 1820
3 727 728 729
3 855 854 1450
3 1721 1722 1723
3 1643 1353 1644
3 1145 1916 1960
3 1421 1191 1422
3 466 1812 1813
3 943 944 995
3 1356 1357 1376
3 714 715 716
3 1156 1094 1157
3 598 611 612
3 631 1600 2298
3 590 589 605
3 965 969 1919
3 416 1109 1821
3 242 1697 2335
3 1548 1547 1549
3 550 573 584
3 584 604 632
3 409 414 415
3 712 713 714
3 642 670 702
3 818 698 819
3 1006 1005 1191
3 1624 1689 1691
3 169 170 237
3 173 174 238
3 956 912 1003
3 937 936 1913
3 1317 1025 1875
3 515 540 550
3 973 1799 1800
3 973 959 1799
3 518 695 727
3 910 819 912
3 584 573 604
3 1170 946 1418
3 173 238 1847
3 550 540 573
3 982 984 1148
3 900 976 982
3 441 435 452
3 448 478 1714
3 1849 1648 2173
3 1631 1628 1637
3 1830 1831 1832
3 1383 1216 1384
3 734 772 882
3 949 933 1770
3 1332 1330 1333
3 574 575 591
3 1105 1088 1354
3 702 670 1815
3 498 494 1841
3 827 770 1806
3 873 959 973
3 1390 1391 1415
3 450 438 459
3 950 949 1005
3 351 362 364
3 1313 1029 1314
3 432 438 439
3 837 838 850
3 1273 1274 1695
3 850 851 943
3 911 952 1837
3 1259 1260 1804
3 566 587 588
3 1037 1216 1383
3 1337 1265 1538
3 1087 369 1795
3 810 655 870
3 1559 1561 1566
3 1147 1273 1839
3 732 733 734
3 1662 867 2126
3 890 1731 2241
3 1854 1852 2397
3 515 479 540
3 451 450 466
3 697 666 698
3 1367 1316 1368
3 662 660 663
3 365 355 694
3 1358 1114 1767
3 379 376 380
3 1796 1448 1797
3 179 180 1859
3 790 668 849
3 569 568 580
3 690 860 931
3 466 450 1812
3 431 414 696
3 1973 1133 1974
3 651 649 657
3 467 466 479
3 1288 1289 1835
3 264 265 1986
3 1302 1303 1304
3 592 596 597
3 1873 1321 2037
3 544 543 568
3 275 277 549
3 209 1937 2389
3 539 565 566
3 1485 227 1486
3 2384 2190 2408
3 1781 1779 1783
3 480 479 515
3 689 1416 2413
3 1108 1161 1539
3 1867 1310 1895
3 1300 1301 1302
3 1695 1696 1697
3 633 632 668
3 1304 1451 1452
3 988 911 1837
3 168 169 1724
3 969 1012 1172
3 582 629 1816
3 1843 752 1900
3 629 812 813
3 710 711 712
3 1782 1780 1784
3 536 535 543
3 1089 1746 1969
3 1108 1107 1161
3 1514 1426 1856
3 486 484 1820
3 369 371 1795
3 1817 988 1924
3 493 609 974
3 1422 1191 2023
3 1426 1424 1856
3 842 875 924
3 922 1826 2259
3 989 1361 1886
3 928 1070 1288
3 669 668 790
3 1113 1114 1356
3 1027 847 1843
3 728 695 1098
3 734 735 772
3 975 1107 1108
3 955 859 1962
3 813 911 988
3 1208 1448 1796
3 1101 1405 1980
3 602 676 2045
3 586 581 589
3 546 547 563
3 493 491 609
3 628 1524 2390
3 348 344 354
3 1298 1299 1300
3 509 538 539
3 974 609 975
3 813 891 911
3 871 870 872
3 1355 1354 1423
3 489 486 1820
3 778 779 780
3 1025 1176 1875
3 772 773 873
3 803 1743 2347
3 167 202 1679
3 873 883 959
3 1483 1571 2375
3 427 1756 2221
3 540 1813 1954
3 1202 1200 1203
3 959 1035 1037
3 837 921 1775
3 1304 1305 1451
3 1799 1383 2195
3 604 642 1862
3 1470 1744 2474
3 1854 2397 2453
3 1282 1269 1386
3 1573 1572 2157
3 472 2222 2290
3 1307 1708 2341
3 769 770 827
3 1037 1215 1216
3 791 790 856
3 1053 1052 1822
3 1056 1727 1728
3 1341 1138 1352
3 1300 1299 1301
3 1814 696 1838
3 1198 1196 1409
3 492 491 493
3 439 450 451
3 1171 858 2132
3 1259 1254 1260
3 665 626 666
3 970 872 971
3 258 1602 2357
3 1296 1297 1472
3 490 489 491
3 516 437 2494
3 1298 1027 1299
3 846 845 932
3 501 508 509
3 460 461 502
3 448 449 460
3 482 480 1840
3 1229 1228 1230
3 604 641 642
3 1424 1423 1427
3 502 503 526
3 1028 1000 1029
3 935 933 949
3 1084 1085 1867
3 2028 1711 2353
3 1513 1426 1514
3 892 482 1840
3 852 638 1988
3 402 395 1877
3 738 737 845
3 413 412 418
3 1119 1353 1643
3 526 527 546
3 280 279 281
3 1731 1155 2123
3 1042 971 1127
3 1208 1447 1448
3 433 434 448
3 262 159 2304
3 184 1454 2303
3 1051 1052 1053
3 1816 1817 1818
3 1081 1417 1444
3 781 836 837
3 911 951 952
3 1090 1092 1102
3 202 168 1724
3 1085 1309 1310
3 408 407 412
3 1337 1538 1864
3 1515 1514 1516
3 530 529 890
3 1517 1518 1519
3 549 686 687
3 923 1088 1105
3 404 403 407
3 1835 1289 1836
3 1314 1367 2121
3 1380 1379 2416
3 670 671 769
3 899 808 1874
3 1040 903 1703
3 1596 1595 2154
3 1496 1495 1497
3 636 637 1741
3 1377 1638 2288
3 1288 1070 1289
3 1072 804 1981
3 1129 1334 1845
3 1865 1084 1866
3 792 922 1603
3 1253 1252 1254
3 981 1167 1792
3 1302 1301 1303
3 1641 1651 2019
3 952 953 1084
3 1813 1812 1869
3 732 730 733
3 975 1106 1107
3 1142 949 1770
3 981 1166 1167
3 840 841 842
3 451 466 467
3 1273 990 1274
3 1049 1050 1051
3 1473 2407 2505
3 968 966 1199
3 642 643 670
3 1310 1309 1311
3 422 419 435
3 1063 833 1082
3 919 782 920
3 911 891 951
3 1084 953 1085
3 1763 1764 2164
3 1498 1497 1682
3 515 550 1175
3 1079 937 1913
3 642 702 1862
3 845 737 1931
3 1394 1311 1395
3 1395 1521 1522
3 467 479 480
3 1755 1754 1793
3 1231 1230 1232
3 1557 1553 2030
3 1624 1691 2262
3 584 632 633
3 1094 1091 1969
3 708 709 710
3 1948 1627 2488
3 952 951 953
3 1102 1103 1104
3 1047 1048 1049
3 1310 1311 1394
3 1852 1099 1985
3 143 144 1717
3 813 812 891
3 1944 1044 1945
3 1105 1354 1355
3 1300 1302 1455
3 1914 936 1940
3 1415 1391 1710
3 1299 1027 1843
3 952 1084 1865
3 1695 1274 1696
3 776 774 1928
3 282 281 283
3 2003 1347 2279
3 1206 995 1499
3 1164 1685 1686
3 1551 1565 2030
3 969 1172 1919
3 633 668 669
3 734 733 735
3 1373 1372 1438
3 599 600 636
3 1431 1860 2487
3 1579 1577 1999
3 484 482 892
3 917 940 941
3 2144 1836 2169
3 1866 1084 1867
3 1110 1747 1748
3 998 1171 1811
3 1390 1120 1391
3 644 1824 2057
3 1362 1961 2048
3 944 1283 1825
3 1086 1027 1298
3 679 1780 1782
3 974 975 1879
3 507 506 518
3 1121 1079 1401
3 775 777 778
3 1965 762 2349
3 1045 1046 1047
3 1772 421 2106
3 16 17 2081
3 416 417 433
3 921 850 2125
3 1607 1855 1958
3 649 648 1848
3 1241 1240 1242
3 2012 1443 2251
3 926 928 1920
3 1487 1488 2025
3 1006 1191 1421
3 1355 1423 1424
3 1133 852 1988
3 591 592 1776
3 1299 1843 1857
3 1085 1308 1309
3 490 491 492
3 958 694 1575
3 1384 1216 1385
3 741 915 1878
3 1233 1232 1234
3 669 790 791
3 481 480 482
3 687 703 704
3 492 493 494
3 1634 1633 1922
3 1697 1696 1698
3 1721 985 1722
3 1839 1273 1892
3 772 735 773
3 488 486 489
3 950 1005 1006
3 1513 1514 1515
3 454 500 501
3 873 773 883
3 284 283 285
3 2185 1505 2442
3 959 883 1035
3 543 535 1897
3 1904 1384 2093
3 800 801 802
3 1037 1035 1215
3 1293 1964 1965
3 1239 1238 1240
3 943 1143 2125
3 1782 1784 1785
3 913 756 942
3 488 490 1884
3 1590 1749 2501
3 1235 1234 1236
3 791 856 1408
3 702 2015 2070
3 1108 1539 1540
3 1021 1023 1045
3 695 506 1828
3 1530 1528 1532
3 488 489 490
3 1621 1619 2161
3 704 705 706
3 1304 1303 1305
3 558 1704 2167
3 625 622 626
3 542 553 554
3 604 573 641
3 664 684 685
3 564 571 574
3 1108 1540 1879
3 1856 1427 2361
3 880 1025 1129
3 1395 1311 1521
3 1466 1465 1467
3 915 495 1884
3 1515 1516 1523
3 1237 1236 1238
3 606 648 649
3 999 920 1000
3 676 829 1043
3 2100 794 2142
3 227 151 1500
3 577 579 599
3 153 154 1671
3 1175 550 1927
3 1014 888 1015
3 286 285 287
3 1649 1280 2427
3 1725 204 2137
3 975 609 1106
3 1129 1317 1334
3 1109 1730 2426
3 1468 1467 1469
3 1131 1123 1399
3 1215 2235 2378
3 1976 1149 1989
3 397 395 398
3 746 743 1878
3 1041 1343 1598
3 975 1108 1879
3 741 495 915
3 1167 1754 1755
3 288 287 289
3 743 741 1878
3 1274 990 1931
3 1506 214 1507
3 857 1584 2277
3 2341 1522 2387
3 846 932 933
3 1107 1106 1110
3 584 633 1927
3 290 289 291
3 722 591 1776
3 1544 1094 1969
3 1135 270 1647
3 935 949 950
3 1920 1288 2080
3 754 1896 2108
3 1693 1199 2225
3 292 291 293
3 394 393 395
3 745 743 746
3 1002 942 1123
3 731 737 738
3 294 293 295
3 1018 1573 1925
3 296 295 297
3 298 297 299
3 321 322 325
3 317 320 321
3 314 315 317
3 312 313 314
3 310 311 312
3 308 309 310
3 1898 890 2275
3 306 307 308
3 304 305 306
3 1401 1079 1913
3 300 299 301
3 302 303 304
3 300 301 302
3 302 301 303
3 491 489 1936
3 298 299 300
3 304 303 305
3 306 305 307
3 308 307 309
3 310 309 311
3 312 311 313
3 314 313 315
3 317 315 320
3 321 320 322
3 1301 1299 1857
3 514 541 542
3 296 297 298
3 850 838 851
3 1310 1394 1895
3 294 295 296
3 590 605 606
3 292 293 294
3 651 657 658
3 290 291 292
3 1207 1208 1796
3 835 1976 1989
3 621 619 622
3 746 1878 1896
3 481 482 483
3 1026 847 1027
3 1335 1207 1870
3 1661 59 2266
3 727 729 1155
3 288 289 290
3 1058 776 1928
3 662 663 664
3 495 488 1884
3 1959 319 2522
3 943 851 944
3 1293 1291 1964
3 534 532 535
3 640 645 646
3 2280 1014 2385
3 286 287 288
3 591 575 592
3 521 519 529
3 13 14 2114
3 780 779 781
3 918 908 1850
3 837 836 838
3 209 148 1639
3 754 748 1896
3 745 746 747
3 769 671 770
3 929 1065 2197
3 1278 1058 1279
3 483 482 484
3 1564 1557 2030
3 633 807 1927
3 392 391 393
3 1057 1621 2161
3 569 580 581
3 284 285 286
3 876 992 1894
3 497 494 498
3 1630 1635 2041
3 982 1148 1918
3 612 611 613
3 700 634 1044
3 822 674 2099
3 880 1129 1929
3 432 439 654
3 1039 1291 1292
3 1164 1686 1989
3 1129 1025 1317
3 738 845 846
3 582 583 629
3 278 6 279
3 544 568 569
3 1701 1274 1931
3 747 749 751
3 1085 953 1308
3 928 930 1070
3 747 748 749
3 1421 1422 2415
3 902 903 904
3 1309 1308 1543
3 642 641 643
3 904 981 1792
3 646 784 785
3 536 543 544
3 1204 1205 1207
3 365 694 958
3 71 72 217
3 88 89 1901
3 87 88 193
3 101 102 189
3 85 86 242
3 99 100 241
3 74 75 192
3 91 92 219
3 94 95 191
3 83 84 220
3 97 98 221
3 77 78 218
3 80 81 194
3 89 90 245
3 62 63 244
3 60 61 188
3 64 65 223
3 67 68 190
3 90 91 1909
3 98 99 1905
3 61 62 1908
3 69 70 243
3 68 69 1907
3 70 71 1910
3 410 411 416
3 586 589 590
3 685 684 2029
3 390 389 391
3 1715 1150 1811
3 1924 1837 2215
3 282 283 284
3 496 497 1929
3 233 1671 1769
3 627 2185 2442
3 1567 1552 2062
3 629 630 812
3 424 453 454
3 583 562 1942
3 749 750 805
3 744 743 745
3 1897 535 1898
3 467 480 481
3 504 759 880
3 670 643 671
3 89 245 1901
3 193 88 1901
3 221 98 1905
3 245 90 1909
3 91 219 1909
3 62 244 1908
3 188 61 1908
3 99 241 1905
3 190 68 1907
3 71 217 1910
3 69 243 1907
3 243 70 1910
3 505 499 506
3 475 513 514
3 1945 1044 2071
3 1712 2125 2353
3 339 343 440
3 989 1360 1361
3 764 869 1152
3 778 777 779
3 1686 1685 1687
3 742 741 743
3 979 989 1886
3 729 731 1887
3 926 927 928
3 1305 1306 1307
3 1838 1278 2292
3 747 746 748
3 181 182 1652
3 1886 1361 2305
3 1595 1594 2486
3 597 596 598
3 928 1288 1920
3 1970 824 2156
3 1425 1424 1426
3 497 504 1929
3 748 746 1896
3 745 747 1900
3 998 858 1171
3 563 547 564
3 1155 729 1887
3 634 583 1942
3 1439 1173 1440
3 1026 1027 1086
3 79 80 1904
3 1533 1532 1536
3 1449 1426 1513
3 1106 609 1936
3 1318 1013 1319
3 1098 695 1828
3 492 494 496
3 750 748 754
3 731 738 1887
3 2415 1422 2516
3 533 562 582
3 988 1837 1924
3 1216 1215 1863
3 534 535 536
3 747 751 1900
3 1753 809 2119
3 1183 824 1970
3 740 495 741
3 80 194 1904
3 893 383 2087
3 655 605 1939
3 1884 2034 2082
3 1301 1857 1923
3 1307 1306 1708
3 752 745 1900
3 750 754 755
3 76 77 1903
3 2090 2347 2365
3 255 30 2159
3 132 254 2160
3 448 434 449
3 753 848 926
3 1075 1074 1327
3 487 488 495
3 377 381 647
3 483 484 485
3 755 754 2148
3 1584 1925 2277
3 1186 1183 1970
3 951 891 1281
3 485 484 486
3 546 527 547
3 133 134 1766
3 1786 1785 2409
3 280 281 282
3 460 449 461
3 744 745 752
3 77 218 1903
3 983 1918 2342
3 1708 1306 1810
3 1389 2069 2170
3 487 486 488
3 641 573 1954
3 507 518 519
3 502 461 503
3 519 518 1899
3 1202 1203 1204
3 821 897 1972
3 92 93 1902
3 521 529 530
3 749 748 750
3 2176 1380 2416
3 885 826 886
3 485 486 487
3 371 372 376
3 1289 1070 1871
3 1110 1657 1747
3 753 926 1943
3 700 1044 1944
3 880 881 1025
3 496 1845 2034
3 1072 1981 2393
3 462 464 2134
3 1949 1771 2359
3 1044 634 1942
3 550 584 1927
3 1390 1415 2118
3 526 503 527
3 990 845 1931
3 1009 1213 1214
3 740 742 1144
3 219 92 1902
3 727 1155 1899
3 369 370 371
3 623 690 2150
3 1279 1058 1928
3 1408 2235 2286
3 487 495 740
3 979 1886 2086
3 1305 1303 1306
3 421 412 1951
3 843 844 996
3 633 669 807
3 518 727 1899
3 826 825 1961
3 1657 1106 1936
3 1172 1012 1173
3 740 741 742
3 433 417 434
3 505 506 507
3 1333 1674 2437
3 742 743 744
3 469 458 470
3 1381 1380 1382
3 1293 1965 2515
3 1554 1559 2062
3 553 557 2499
3 1774 389 2339
3 497 498 499
3 483 485 576
3 740 1144 1935
3 773 735 834
3 366 367 369
3 1120 1118 1876
3 1515 1523 1574
3 1319 1013 2039
3 1303 1301 1923
3 457 447 458
3 561 593 594
3 1355 1424 1425
3 609 491 1936
3 204 1732 2137
3 791 1408 1642
3 995 944 1825
3 456 471 475
3 1692 1693 2239
3 580 1763 2164
3 1292 1293 2117
3 441 452 456
3 388 384 389
3 823 821 1972
3 504 880 1929
3 176 177 1680
3 1070 1071 1871
3 15 2260 2477
3 362 363 366
3 2178 2300 2449
3 1035 883 1036
3 2285 1563 2307
3 978 977 1074
3 1090 1102 2029
3 1810 1306 1923
3 496 494 497
3 1306 1303 1923
3 432 654 1915
3 934 933 935
3 356 355 365
3 398 403 404
3 635 701 843
3 1110 1106 1657
3 574 571 575
3 1025 881 1176
3 386 380 786
3 415 432 1915
3 343 347 1911
3 1070 930 1071
3 1688 1740 2231
3 1385 1216 1863
3 1696 1274 1701
3 1645 305 2317
3 880 759 881
3 926 848 927
3 1427 1423 2217
3 1339 1662 2388
3 770 774 775
3 1263 1257 1428
3 1337 1864 2412
3 349 348 355
3 2267 1721 2498
3 753 752 847
3 1375 1086 1473
3 900 982 983
3 332 335 739
3 429 428 430
3 744 752 753
3 1171 2132 2165
3 1425 1426 1449
3 987 641 1954
3 1883 1786 2409
3 427 426 428
3 928 927 930
3 1815 1105 2015
3 1206 1499 1941
3 410 406 411
3 573 540 1954
3 497 499 504
3 528 560 561
3 1933 1404 2399
3 1091 1089 1969
3 1804 1282 2073
3 504 505 759
3 963 924 1113
3 1711 1710 1712
3 881 759 1146
3 968 1199 1200
3 351 352 362
3 848 847 1026
3 521 530 531
3 1884 490 2034
3 1277 957 1966
3 1349 1350 2329
3 676 1043 2045
3 997 1159 1286
3 517 1889 1890
3 781 835 836
3 944 948 1283
3 722 1776 2026
3 507 519 520
3 2040 1352 2058
3 1276 957 1277
3 446 437 447
3 931 860 977
3 361 359 765
3 1248 1536 2534
3 512 523 528
3 408 412 413
3 1368 1369 1370
3 451 2169 2223
3 192 75 1994
3 942 756 2026
3 345 344 348
3 764 1152 1963
3 413 418 419
3 1286 1773 1774
3 770 671 774
3 275 549 2124
3 1497 1645 2461
3 1982 1472 2272
3 422 435 441
3 281 279 736
3 1134 270 1135
3 582 562 583
3 1421 2415 2454
3 485 487 1935
3 2300 1067 2480
3 1578 1576 1827
3 930 927 1061
3 1026 1086 1375
3 922 2259 2379
3 1391 1120 1876
3 1495 1494 2493
3 404 407 408
3 879 2178 2449
3 1700 1698 2036
3 607 1517 1520
3 753 847 848
3 416 411 417
3 1144 742 1943
3 775 776 777
3 754 2108 2148
3 1006 1421 1953
3 585 581 586
3 531 530 532
3 235 1709 1888
3 520 519 521
3 1180 1181 1349
3 1146 759 1967
3 708 710 1921
3 1350 2253 2329
3 436 430 437
3 504 499 505
3 643 641 987
3 336 330 517
3 811 1059 1149
3 1164 1411 1685
3 846 933 934
3 635 843 1960
3 983 982 1918
3 971 872 1096
3 1149 1163 1164
3 169 237 1724
3 1314 1315 1316
3 629 583 630
3 891 812 1916
3 462 463 464
3 487 740 1935
3 798 2084 2189
3 1814 1838 2292
3 1284 1489 1491
3 340 336 2014
3 1670 1461 2200
3 920 782 2057
3 890 2241 2275
3 510 511 512
3 278 279 280
3 839 802 840
3 1858 235 1888
3 1698 1696 2036
3 104 105 222
3 57 58 224
3 1185 1183 1186
3 588 587 623
3 638 600 1988
3 1282 1386 2245
3 811 776 1058
3 816 815 876
3 2034 1845 2082
3 761 636 1741
3 566 565 587
3 174 175 1725
3 347 350 351
3 1469 1495 1496
3 1059 1058 1278
3 811 1149 1976
3 576 485 1935
3 659 658 660
3 859 1153 1962
3 76 1903 1994
3 1821 1109 2426
3 1294 1038 1622
3 733 1833 2075
3 992 993 1980
3 1566 1561 2285
3 525 474 2041
3 464 465 510
3 343 346 347
3 360 893 1982
3 650 649 651
3 896 608 936
3 950 1006 1007
3 1508 1859 1860
3 539 538 565
3 440 343 1911
3 341 340 344
3 221 1905 1906
3 1297 1823 2142
3 759 505 1967
3 1295 1053 1296
3 473 470 474
3 1463 1465 1466
3 1143 1206 2028
3 799 685 800
3 1210 2077 2203
3 509 508 538
3 492 496 2034
3 1553 1551 2030
3 1260 1261 1269
3 1430 1040 1703
3 586 590 1940
3 838 836 868
3 1705 624 2276
3 1749 972 2501
3 742 744 1943
3 804 962 1981
3 1367 1368 2254
3 531 532 533
3 337 336 340
3 1157 1094 1544
3 536 544 1158
3 812 630 1960
3 781 779 835
3 56 57 1947
3 630 583 634
3 1405 1404 1932
3 1281 891 1916
3 339 342 343
3 1411 1163 1730
3 322 323 324
3 344 340 2091
3 1735 1734 1736
3 75 76 1994
3 430 682 2494
3 1907 243 2360
3 589 581 2164
3 694 355 2196
3 744 753 1943
3 775 774 776
3 1210 1430 2077
3 335 338 339
3 1102 1803 2029
3 1078 937 1079
3 870 655 1939
3 505 507 1967
3 357 360 1982
3 1896 1878 2101
3 326 325 328
3 934 935 957
3 585 608 895
3 333 330 336
3 1270 1272 1524
3 688 817 878
3 507 520 1967
3 1428 1257 2074
3 1818 1817 2000
3 896 937 1077
3 934 957 1111
3 329 328 330
3 1499 995 1825
3 944 851 948
3 387 445 462
3 1678 1161 2228
3 777 776 811
3 313 311 757
3 324 331 332
3 848 1026 1955
3 1312 998 1811
3 1321 1322 2037
3 1080 1079 1121
3 1105 1355 2015
3 1645 2317 2461
3 1559 1568 2062
3 332 334 335
3 501 500 508
3 321 325 326
3 394 395 397
3 322 320 323
3 1529 1530 2171
3 1137 797 1138
3 811 1058 1059
3 661 660 662
3 569 581 585
3 183 4 2303
3 5 160 2304
3 1340 1138 1341
3 1660 1626 2185
3 1743 1464 2347
3 1026 1375 1955
3 1149 1059 1163
3 1736 1625 2194
3 1322 1667 2434
3 311 309 1959
3 309 307 319
3 894 700 1944
3 533 534 562
3 1276 1277 1366
3 2190 1706 2408
3 533 532 534
3 1214 1213 1410
3 1164 1163 1411
3 843 701 844
3 1009 1214 2055
3 234 1589 1788
3 2000 1817 2174
3 317 321 2050
3 328 325 945
3 392 393 394
3 588 623 2089
3 1162 958 1681
3 1078 1080 1136
3 927 848 1955
3 1496 1497 1498
3 390 391 392
3 1061 927 1955
3 1283 948 1284
3 635 634 700
3 1244 1251 1252
3 218 78 2093
3 756 722 2026
3 1071 1784 2419
3 1218 1505 2185
3 1284 948 1285
3 1489 1285 1490
3 918 1850 1851
3 684 1090 2029
3 1759 572 2537
3 1691 1690 2446
3 1979 1158 2071
3 606 649 650
3 2045 1043 2046
3 103 104 2025
3 630 634 635
3 360 383 893
3 406 386 2043
3 1909 219 2023
3 1111 957 1276
3 1925 1437 2277
3 1536 2268 2340
3 854 852 1133
3 233 153 1671
3 651 658 659
3 2099 1787 2368
3 1033 1032 1130
3 1015 1372 1373
3 1412 942 2026
3 253 264 1441
3 1531 1534 2332
3 701 700 894
3 106 107 1990
3 2048 1961 2455
3 276 274 2099
3 738 846 1968
3 1325 925 1326
3 896 936 937
3 585 586 608
3 1450 854 1973
3 1361 1360 1362
3 1045 1668 2512
3 303 301 444
3 996 844 997
3 79 1904 2093
3 1989 1686 2095
3 1928 774 2033
3 1942 562 1979
3 287 285 316
3 935 950 1966
3 1466 1467 1468
3 1242 1243 1244
3 1887 738 1968
3 2115 210 2477
3 878 929 1083
3 1326 1736 2194
3 886 888 1014
3 895 608 896
3 289 287 1978
3 821 822 897
3 936 608 1940
3 613 614 615
3 51 52 1996
3 417 411 1160
3 1149 1164 1989
3 386 786 2043
3 285 283 1971
3 1309 1543 2147
3 375 373 2053
3 371 370 372
3 779 777 1976
3 1286 1159 1773
3 2177 887 2376
3 1560 1557 1564
3 1403 1882 2399
3 1727 1757 2246
3 279 6 2049
3 1619 1438 2438
3 291 289 758
3 1781 1915 2294
3 425 401 426
3 349 355 356
3 66 67 2118
3 474 548 2041
3 1686 1687 2007
3 1262 1456 1457
3 1123 942 1412
3 1916 812 1960
3 1355 1425 2015
3 735 733 2075
3 1861 879 2449
3 1284 1285 1489
3 490 492 2034
3 366 363 367
3 980 578 2051
3 906 904 1792
3 534 536 1979
3 842 924 963
3 2051 578 2083
3 1077 937 1078
3 1102 1104 1803
3 894 1944 1946
3 398 404 2060
3 1007 1006 1953
3 369 367 370
3 348 354 2196
3 1078 1079 1080
3 1378 1380 1381
3 1568 1365 2439
3 608 586 1940
3 598 610 611
3 760 636 761
3 869 1137 1351
3 671 643 2033
3 1661 1345 2267
3 938 914 1057
3 783 761 914
3 576 1835 2144
3 388 389 390
3 297 295 318
3 454 453 500
3 1906 1728 2246
3 1439 1440 2468
3 1159 1013 1318
3 764 797 869
3 236 143 1717
3 782 644 2057
3 592 595 596
3 1542 2332 2443
3 1521 1311 2147
3 345 348 349
3 1304 1452 2205
3 1644 1907 2360
3 2146 1125 2149
3 997 844 1013
3 628 375 2053
3 299 297 1984
3 957 935 1966
3 664 685 799
3 301 299 1975
3 362 352 363
3 777 811 1976
3 1942 1979 2071
3 1001 920 2057
3 312 314 768
3 1552 1554 2062
3 615 616 617
3 357 1982 2076
3 800 802 839
3 774 671 2033
3 1749 1169 2105
3 365 958 1162
3 617 618 619
3 283 281 1938
3 1351 1772 2414
3 1525 1765 2489
3 846 934 1968
3 635 700 701
3 555 554 577
3 536 1158 1979
3 1101 1404 1405
3 630 635 1960
3 1811 1150 2089
3 2113 1666 2249
3 172 173 1847
3 107 108 195
3 54 55 196
3 1191 1768 2023
3 1455 1302 2205
3 115 116 2017
3 1387 1333 2437
3 659 661 764
3 1080 1121 1188
3 50 51 2011
3 411 406 2043
3 295 293 1983
3 643 987 2033
3 707 706 708
3 129 130 261
3 32 33 260
3 2159 260 2265
3 449 434 567
3 1314 1029 1315
3 917 796 940
3 378 375 628
3 108 109 1991
3 2370 1759 2537
3 341 344 345
3 997 1013 1159
3 544 569 1993
3 950 1007 1966
3 477 474 525
3 351 350 352
3 1696 1701 2036
3 334 331 803
3 1137 1138 1340
3 562 534 1979
3 109 110 246
3 52 53 247
3 1368 1316 1369
3 659 660 661
3 33 34 2002
3 123 124 2005
3 835 779 1976
3 851 838 1992
3 1530 1533 2172
3 1668 1045 2348
3 1162 1681 1706
3 342 338 468
3 298 300 358
3 765 359 2065
3 725 826 885
3 35 36 2003
3 46 47 2019
3 38 39 2006
3 336 517 2014
3 934 1111 1968
3 116 117 2018
3 650 651 1963
3 223 1711 2162
3 640 594 645
3 1333 1330 2192
3 104 222 2025
3 1603 922 2379
3 963 1113 1115
3 2084 1193 2189
3 564 570 571
3 36 37 2004
3 57 224 1947
3 1542 1601 2269
3 122 123 2012
3 1000 920 1001
3 127 128 240
3 34 35 239
3 383 387 2087
3 1161 1107 2228
3 1781 2294 2419
3 1201 1200 1202
3 124 125 225
3 37 38 226
3 1340 1341 1342
3 869 797 1137
3 839 840 1008
3 1158 544 1993
3 1326 925 1894
3 352 350 353
3 326 329 954
3 1864 2344 2412
3 836 835 2095
3 1051 1053 1295
3 1031 720 1032
3 503 461 787
3 1407 1112 2044
3 661 662 2058
3 838 868 1992
3 112 113 197
3 49 50 198
3 1359 980 1413
3 121 122 211
3 40 41 212
3 48 49 2010
3 113 114 2009
3 1741 673 2131
3 41 42 2020
3 120 121 2013
3 1409 2035 2097
3 1511 1374 2506
3 114 115 248
3 47 48 249
3 42 43 250
3 119 120 251
3 171 6 201
3 6 172 203
3 585 895 1993
3 43 44 2024
3 118 119 2021
3 905 904 906
3 764 661 797
3 337 340 341
3 1413 980 2051
3 117 118 205
3 44 45 206
3 347 346 350
3 1420 1076 1525
3 324 323 331
3 434 417 2031
3 965 967 969
3 716 719 788
3 1260 1254 1261
3 2053 373 2103
3 2069 2068 2170
3 326 328 329
3 1706 996 2408
3 273 275 2124
3 969 1011 1012
3 590 606 2001
3 1718 1611 2280
3 1914 1940 2001
3 915 1884 2082
3 329 330 333
3 620 859 955
3 2168 1409 2305
3 296 298 1997
3 915 2082 2101
3 339 338 342
3 1218 994 1505
3 333 336 337
3 266 263 1742
3 1873 768 2127
3 244 63 2162
3 64 223 2162
3 343 342 346
3 914 761 2258
3 310 312 1987
3 799 800 2055
3 302 304 763
3 1559 1566 1568
3 1598 1343 2114
3 592 575 595
3 341 345 794
3 189 1842 2220
3 767 815 816
3 1003 912 1004
3 839 1008 1009
3 1263 1428 1429
3 564 547 570
3 1845 1334 2082
3 332 331 334
3 901 866 902
3 651 659 1963
3 1009 1112 1213
3 335 334 338
3 569 585 1993
3 1665 1336 2299
3 1945 2071 2153
3 863 862 864
3 907 906 908
3 1849 1486 1930
3 1935 1144 2080
3 967 966 968
3 809 900 2119
3 865 864 866
3 835 1989 2095
3 190 1907 2417
3 333 337 522
3 1110 1748 2228
3 1193 1194 1195
3 94 191 2166
3 473 1854 2453
3 1769 1134 2369
3 948 851 1992
3 237 170 2216
3 420 419 422
3 1448 1447 2364
3 483 576 2144
3 721 1919 2032
3 885 886 1891
3 613 611 614
3 886 1014 1891
3 1160 411 2043
3 1918 1283 2342
3 1651 206 2485
3 1242 1240 1243
3 598 596 610
3 1295 1296 1459
3 1185 1186 1948
3 1425 1449 2070
3 294 296 762
3 1285 948 1992
3 925 876 1894
3 712 714 789
3 603 1668 2398
3 1940 590 2001
3 721 570 964
3 834 735 2075
3 1144 1920 2080
3 2263 1635 2511
3 1204 1207 1335
3 2235 1408 2378
3 965 964 966
3 1990 1435 2218
3 397 398 2060
3 1138 797 2058
3 1787 1141 2368
3 2068 820 2170
3 360 359 361
3 387 462 2087
3 1524 1272 1934
3 819 698 820
3 1197 1196 1198
3 1662 2126 2388
3 78 79 2093
3 1150 588 2089
3 1269 1261 1270
3 1878 915 2101
3 451 467 2169
3 2262 1387 2437
3 1009 1008 1112
3 757 311 1959
3 897 898 1139
3 1854 473 2483
3 2015 1425 2070
3 2082 1334 2101
3 963 1115 1174
3 1047 1049 1287
3 1194 423 1196
3 321 326 2050
3 417 1160 2031
3 854 1133 1973
3 1201 1212 1348
3 705 1586 2163
3 309 319 1959
3 1353 1390 2417
3 427 428 429
3 357 356 359
3 606 650 2001
3 549 1280 2124
3 1213 1112 1407
3 256 2303 2535
3 356 365 2065
3 662 664 2040
3 701 894 2039
3 1325 1371 2451
3 666 626 667
3 1902 93 2166
3 1236 1234 1246
3 800 839 2055
3 1869 1812 2252
3 1197 1364 1365
3 576 1935 2080
3 404 408 798
3 1678 807 2529
3 1560 1564 2016
3 1319 2039 2122
3 425 426 427
3 349 356 357
3 308 310 327
3 1716 622 2484
3 1801 82 2289
3 1768 1949 2420
3 2006 1926 2507
3 351 364 2407
3 420 423 1193
3 659 764 1963
3 292 294 2038
3 840 842 2027
3 736 279 2049
3 372 373 374
3 461 449 2052
3 2189 1195 2285
3 1174 1115 1398
3 367 363 961
3 909 908 918
3 1738 247 2402
3 1007 1761 2308
3 288 290 2135
3 422 441 2035
3 623 624 690
3 537 525 545
3 1953 1421 2454
3 1887 1968 2123
3 861 691 862
3 654 439 2223
3 1136 1080 2054
3 1312 1811 2089
3 575 571 2032
3 383 361 384
3 968 1200 1201
3 797 661 2058
3 1423 1354 2381
3 1180 1178 1181
3 1513 1515 2180
3 72 73 2217
3 462 445 463
3 12 13 2136
3 457 458 469
3 542 554 555
3 599 636 760
3 254 133 1766
3 1130 1397 1937
3 404 798 2060
3 1044 1942 2071
3 690 691 860
3 357 359 360
3 1008 2027 2152
3 1232 1230 1255
3 372 370 373
3 850 943 2125
3 1457 1456 1492
3 1952 324 2282
3 155 2 2356
3 0 7 2357
3 2017 1379 2288
3 918 1851 2008
3 195 1991 2517
3 2090 803 2347
3 1244 1243 1251
3 290 292 368
3 1432 1082 2214
3 1008 840 2027
3 1743 803 2296
3 1013 844 2039
3 365 1162 2065
3 1594 1315 2184
3 387 384 388
3 1508 1860 2311
3 547 527 2056
3 2005 225 2322
3 314 317 2127
3 1853 556 2327
3 201 6 278
3 1907 1644 2417
3 1896 2101 2108
3 646 645 784
3 538 508 558
3 374 375 377
3 1630 1634 1635
3 1579 1999 2352
3 1647 1648 1849
3 1313 1314 2121
3 1179 1433 2042
3 844 701 2039
3 1252 1251 2098
3 816 876 925
3 1922 1228 2281
3 392 394 396
3 1915 654 2294
3 1652 1653 2487
3 429 430 436
3 456 475 476
3 1605 1392 2510
3 126 1882 2284
3 1784 1780 2419
3 500 453 960
3 377 378 381
3 2178 1587 2300
3 1222 1219 1626
3 413 419 420
3 381 382 400
3 2169 1836 2223
3 1906 1905 2129
3 616 614 793
3 1170 1419 2139
3 101 189 2220
3 241 100 2220
3 1968 1111 2123
3 567 434 2031
3 615 614 616
3 1032 720 1921
3 682 428 2138
3 469 470 473
3 339 440 2261
3 1501 238 2226
3 1154 1431 1653
3 446 447 457
3 1251 1243 1257
3 2229 315 2495
3 1201 1202 1212
3 785 784 879
3 464 463 465
3 66 2118 2395
3 324 332 2282
3 286 288 771
3 17 199 2081
3 571 570 721
3 611 610 2092
3 617 616 618
3 1542 1531 2332
3 400 401 424
3 1325 1326 1371
3 1140 1406 1702
3 1323 443 2302
3 1926 1573 2507
3 436 437 446
3 1262 1457 2098
3 67 190 2118
3 1518 1861 2449
3 989 1359 1360
3 1063 1082 1154
3 1757 96 2526
3 969 967 1011
3 868 836 2095
3 1215 1035 2235
3 96 1757 2309
3 261 2160 2380
3 1381 1382 2126
3 1468 1469 2182
3 1334 1317 2108
3 861 863 1064
3 1270 1261 1271
3 360 361 383
3 287 316 1978
3 1856 192 2367
3 1905 241 2129
3 1615 1809 2425
3 528 523 560
3 979 980 989
3 662 2040 2058
3 721 964 965
3 170 171 2216
3 664 799 2040
3 512 511 523
3 1201 1348 2107
3 620 618 858
3 758 289 1978
3 859 858 998
3 424 425 453
3 1616 1615 2193
3 444 301 1975
3 561 560 593
3 965 966 967
3 1798 376 2430
3 340 2014 2091
3 510 465 511
3 107 195 1990
3 1080 1188 2054
3 1153 998 1312
3 1226 1224 1249
3 1012 1011 1363
3 902 904 905
3 842 963 2027
3 268 270 1134
3 865 901 1125
3 2077 558 2102
3 282 284 442
3 1977 1679 2253
3 1496 1498 2047
3 284 286 2063
3 281 736 1938
3 2132 793 2165
3 1674 215 2437
3 2078 1855 2411
3 839 1009 2055
3 1182 824 1183
3 1168 947 1169
3 1289 1871 2242
3 316 285 1971
3 1270 1271 1272
3 1755 1793 2264
3 51 1996 2011
3 383 384 387
3 1146 1924 2215
3 1279 1928 2202
3 619 618 620
3 1194 1196 1197
3 555 578 979
3 1937 1639 2528
3 1262 1257 1263
3 389 384 2339
3 2251 1338 2464
3 1155 1887 2123
3 1151 1937 2528
3 465 463 828
3 1318 1319 2116
3 1687 1688 2231
3 326 954 2050
3 297 318 1984
3 1308 953 2255
3 1846 2056 2198
3 320 315 2229
3 1254 1252 2059
3 760 761 783
3 951 1281 2255
3 1459 1296 2094
3 2288 1638 2470
3 1975 299 1984
3 52 247 1996
3 468 338 2090
3 2140 1511 2506
3 1125 1126 1192
3 593 824 1182
3 720 708 1921
3 704 706 707
3 623 587 624
3 2044 1112 2152
3 1393 1169 1749
3 900 983 2119
3 783 914 938
3 255 2265 2489
3 2039 894 2122
3 317 2050 2127
3 1866 1867 2513
3 374 373 375
3 429 436 455
3 387 388 445
3 1193 423 1194
3 555 577 578
3 1074 977 1187
3 449 567 2052
3 1197 1198 1364
3 2154 1595 2486
3 1486 1849 2173
3 318 295 1983
3 939 1016 1844
3 131 132 2160
3 30 31 2159
3 881 1146 2215
3 1294 1868 2238
3 1300 1455 2314
3 1365 1364 1912
3 783 938 939
3 2061 1735 2441
3 551 545 601
3 2194 216 2536
3 1251 1257 1262
3 888 887 2177
3 1364 1198 2048
3 1498 1682 2340
3 1589 1590 2501
3 60 188 2266
3 1401 1913 2324
3 195 108 1991
3 420 422 423
3 1675 1470 2474
3 258 1673 2183
3 2161 1619 2438
3 1296 1472 2094
3 1808 1910 2381
3 334 803 2090
3 1490 1285 2232
3 523 511 524
3 1240 1238 2074
3 1184 1183 1185
3 39 40 2151
3 473 474 477
3 1461 1463 2200
3 2072 353 2073
3 861 862 863
3 1206 1941 2401
3 958 1575 2287
3 614 611 2092
3 110 111 2140
3 1136 2054 2110
3 645 594 2133
3 260 33 2002
3 673 767 2131
3 989 980 1359
3 1741 2131 2258
3 1317 1875 2148
3 894 1946 2122
3 863 864 865
3 787 461 2052
3 857 2277 2386
3 109 246 1991
3 2017 116 2018
3 1182 1183 1184
3 377 375 378
3 816 925 1324
3 865 866 901
3 1262 1263 1456
3 359 356 2065
3 2129 241 2472
3 283 1938 1971
3 1458 1210 2203
3 1076 1003 2145
3 196 1738 2402
3 1033 1130 1151
3 1188 1121 2106
3 1140 1702 2096
3 549 687 1280
3 1694 1621 2191
3 861 1064 2112
3 1548 1549 2129
3 1784 1071 2462
3 714 716 2066
3 1961 825 2455
3 1447 1211 2250
3 979 578 980
3 905 907 1209
3 381 378 382
3 457 469 552
3 595 575 2032
3 408 413 2084
3 481 483 2144
3 1745 1349 2293
3 1980 1405 2441
3 198 50 2011
3 248 115 2017
3 912 819 2068
3 620 858 859
3 707 708 720
3 821 674 822
3 514 542 2086
3 400 382 401
3 123 2005 2012
3 1772 1351 2374
3 34 239 2002
3 768 314 2127
3 2003 36 2004
3 280 282 2079
3 124 225 2005
3 596 595 2130
3 593 560 824
3 1504 1502 2519
3 239 35 2003
3 1311 1309 2147
3 1318 1877 2240
3 1860 1432 2311
3 1416 1715 2330
3 859 998 1153
3 352 353 2072
3 312 768 1987
3 2027 1174 2152
3 226 38 2006
3 1827 1024 2117
3 1710 1391 2295
3 690 624 691
3 37 226 2004
3 1153 1312 1885
3 853 855 2186
3 1892 242 2373
3 1967 520 2174
3 939 938 1016
3 47 249 2019
3 388 390 2078
3 1991 2139 2517
3 905 906 907
3 571 721 2032
3 1196 423 2035
3 1324 925 1325
3 1151 1130 1937
3 363 352 2072
3 345 349 2076
3 1031 1032 1033
3 214 179 1859
3 211 122 2012
3 602 601 652
3 117 205 2018
3 710 712 2067
3 1602 187 2357
3 520 2000 2174
3 85 242 2335
3 220 84 2335
3 381 400 2113
3 1586 1587 2435
3 424 401 425
3 963 1174 2027
3 860 691 861
3 610 596 2130
3 1958 2078 2431
3 570 547 2056
3 237 2216 2354
3 1211 1692 2219
3 298 358 1997
3 909 947 1041
3 441 456 2097
3 1135 1647 1849
3 1601 1542 2443
3 197 113 2009
3 49 198 2010
3 1911 347 2407
3 1729 191 2309
3 212 41 2020
3 121 211 2013
3 222 105 2218
3 1125 901 1126
3 114 248 2009
3 249 48 2010
3 42 250 2020
3 251 120 2013
3 233 1769 2369
3 1870 647 2113
3 794 345 2076
3 250 43 2024
3 119 251 2021
3 901 902 2141
3 964 570 2056
3 739 335 2261
3 2108 1317 2148
3 577 599 2083
3 205 118 2021
3 44 206 2024
3 1247 1241 2323
3 1894 992 2244
3 6 203 2049
3 1642 1678 2529
3 1417 1873 2333
3 1422 2023 2516
3 341 794 2100
3 73 74 2361
3 1234 1232 2088
3 1261 1254 2059
3 896 1077 2257
3 1921 710 2067
3 125 126 2284
3 220 1699 2289
3 159 5 2304
3 4 184 2303
3 2059 1252 2098
3 1003 1004 2145
3 2328 1325 2451
3 1486 227 1500
3 63 64 2162
3 2081 1192 2260
3 508 500 2102
3 667 1872 2318
3 338 334 2090
3 423 422 2035
3 1192 1126 1471
3 907 908 909
3 1330 1328 2192
3 1972 897 2500
3 2443 316 2514
3 242 86 2373
3 87 193 2373
3 420 1193 2084
3 1473 1086 2358
3 1987 768 2037
3 522 337 2100
3 627 1660 2185
3 1793 446 2264
3 1405 2061 2441
3 1502 1217 2302
3 171 201 2216
3 1158 1993 2153
3 1197 1365 2120
3 1712 1710 2295
3 1121 1401 2414
3 93 94 2166
3 653 652 688
3 622 1716 2452
3 1345 1720 2267
3 477 537 556
3 128 129 2181
3 2331 1295 2458
3 784 645 874
3 1269 1270 2199
3 189 102 2355
3 1041 1168 1343
3 246 110 2140
3 477 525 537
3 755 1895 2371
3 1947 1723 2313
3 1134 1135 2369
3 223 65 2395
3 968 1201 2107
3 1577 1578 2325
3 210 15 2477
3 961 363 2072
3 1581 1579 2352
3 349 357 2076
3 337 341 2100
3 305 303 2317
3 370 367 2103
3 762 296 1997
3 581 580 2164
3 1278 1838 2372
3 1548 2129 2472
3 594 593 2133
3 2021 251 2022
3 2047 1247 2182
3 967 968 2107
3 1169 947 2008
3 481 2144 2169
3 793 614 2092
3 1910 217 2381
3 1251 1262 2098
3 716 788 2066
3 2101 1334 2108
3 2006 39 2151
3 1603 2379 2508
3 1926 2006 2151
3 96 97 2526
3 750 755 2371
3 789 714 2066
3 909 918 947
3 1993 895 2153
3 106 1990 2218
3 1243 1240 2074
3 832 986 1189
3 1283 1284 2342
3 2297 195 2517
3 1043 829 2326
3 767 816 2131
3 602 653 676
3 1004 912 2068
3 2086 1886 2224
3 1124 2177 2467
3 426 401 2531
3 707 720 1030
3 1000 1001 2184
3 1315 1029 2184
3 467 481 2169
3 541 513 2256
3 647 381 2113
3 225 2284 2510
3 2 156 2356
3 187 0 2357
3 40 212 2151
3 2245 1386 2383
3 676 677 829
3 1004 2068 2069
3 1860 232 2487
3 1031 1033 1034
3 829 830 972
3 996 997 2408
3 1195 1194 2120
3 987 1869 2202
3 1410 1213 2222
3 819 820 2068
3 1485 1486 2173
3 1564 2030 2155
3 807 669 2529
3 129 261 2181
3 1525 1076 2145
3 578 577 2083
3 327 310 1987
3 1083 929 2197
3 2131 1324 2258
3 798 408 2084
3 1838 696 2426
3 1486 1500 1930
3 1946 1944 2291
3 2257 1077 2291
3 1512 1661 2266
3 445 388 2078
3 1192 1471 2260
3 2118 1415 2395
3 1466 1468 2158
3 830 677 831
3 211 2012 2251
3 652 601 2442
3 537 545 551
3 558 508 2102
3 198 2011 2128
3 1718 2280 2385
3 500 960 2102
3 1168 1169 1393
3 1127 971 2496
3 95 96 2309
3 2030 1565 2155
3 1919 1172 2273
3 977 860 2112
3 240 128 2181
3 294 762 2038
3 1800 1799 2195
3 712 789 2067
3 972 1749 2326
3 472 1683 2212
3 874 645 2133
3 551 2045 2201
3 2105 1043 2326
3 1957 1212 2301
3 1514 1856 2367
3 565 538 2167
3 373 370 2103
3 355 348 2196
3 1934 1272 2138
3 1934 426 2531
3 1881 1400 2481
3 2046 1851 2327
3 367 961 2103
3 1963 1152 2206
3 201 278 443
3 3 131 2444
3 31 1 2445
3 2035 441 2097
3 503 787 2198
3 1135 1849 1930
3 1534 1983 2306
3 2089 623 2150
3 687 704 2109
3 869 1351 2363
3 1302 1304 2205
3 955 1716 2484
3 1030 720 1031
3 1159 1318 2240
3 1228 1226 2281
3 947 918 2008
3 413 420 2084
3 785 879 2532
3 1041 947 1168
3 1468 2182 2323
3 1246 1234 2088
3 1730 1163 2372
3 542 555 2086
3 1599 631 2312
3 1146 1967 2174
3 1078 1136 2343
3 1515 1574 2180
3 2336 885 2469
3 1257 1243 2074
3 1347 1346 2279
3 2001 650 2206
3 1480 1601 2514
3 1029 1000 2184
3 1956 788 2336
3 1271 1261 2059
3 130 3 2444
3 1 32 2445
3 1570 1507 2197
3 1232 1255 2088
3 791 1642 2529
3 1601 1479 2269
3 1361 1362 2168
3 1634 1922 2281
3 765 2065 2190
3 2071 1158 2153
3 1699 1801 2289
3 832 831 833
3 1864 346 2344
3 456 476 2097
3 1855 828 2411
3 2065 1162 2190
3 1125 1192 2149
3 599 760 2083
3 361 765 2339
3 1731 2123 2241
3 1349 1181 1350
3 1443 1275 2251
3 1819 524 2429
3 1021 1045 2512
3 858 618 2132
3 1999 358 2338
3 368 292 2038
3 290 368 2135
3 803 331 2296
3 1112 1008 2152
3 56 1947 2313
3 555 979 2086
3 1469 1496 2182
3 1011 967 2107
3 248 2017 2288
3 1809 789 2425
3 960 453 2221
3 538 558 2167
3 1858 1187 2248
3 2246 1757 2526
3 902 905 2141
3 1851 1853 2327
3 1224 1222 2111
3 771 288 2135
3 1945 2153 2257
3 1420 1525 2489
3 1399 1123 2393
3 103 2025 2355
3 897 822 898
3 1861 940 2532
3 865 1125 2146
3 1675 2474 2522
3 1573 2157 2507
3 1632 1631 2382
3 551 601 602
3 527 503 2198
3 1708 805 2337
3 1059 1278 2372
3 2056 527 2198
3 860 861 2112
3 1668 2348 2398
3 255 2159 2265
3 1541 1542 2269
3 1428 2074 2227
3 1582 1583 2321
3 389 1774 2503
3 2004 226 2157
3 1777 397 2405
3 1368 1436 2254
3 1061 2409 2462
3 1071 930 2462
3 1126 901 2141
3 1194 1197 2120
3 1452 1952 2282
3 2116 1319 2482
3 105 106 2218
3 1981 1399 2393
3 2119 983 2143
3 444 1682 2461
3 2173 1648 2463
3 616 793 2132
3 1791 1190 2334
3 1826 1728 2259
3 602 652 653
3 1834 1292 2428
3 556 2201 2327
3 1014 1015 2385
3 1995 1287 2331
3 1193 1195 2189
3 816 1324 2131
3 879 1861 2532
3 593 1182 2133
3 1402 266 1742
3 2216 1323 2354
3 1660 1636 2502
3 620 955 2484
3 1162 1706 2190
3 1870 2113 2249
3 204 1680 1732
3 1909 2023 2420
3 217 72 2217
3 376 372 2430
3 905 1209 2141
3 1378 1381 2283
3 1236 1246 2227
3 286 771 2063
3 1635 2263 2502
3 100 101 2220
3 1139 898 1140
3 2114 1343 2136
3 442 284 2063
3 1772 2106 2414
3 1985 1755 2533
3 2192 1328 2315
3 1064 863 2146
3 1631 1637 2459
3 736 2049 2523
3 221 1906 2246
3 318 1983 2171
3 1496 2047 2182
3 1374 2139 2506
3 196 55 2313
3 2087 462 2134
3 676 653 677
3 2304 257 2491
3 1401 2324 2363
3 829 677 830
3 654 2223 2242
3 1187 977 2112
3 1463 1466 2200
3 2023 219 2516
3 1176 881 2215
3 513 471 2290
3 1812 459 2252
3 1386 1269 2199
3 291 758 2306
3 618 616 2132
3 278 280 2210
3 83 220 2289
3 82 83 2289
3 938 1057 2161
3 1189 986 1190
3 788 719 2336
3 1914 2001 2206
3 232 181 1652
3 1567 2062 2490
3 313 757 2495
3 622 619 2484
3 688 878 1320
3 1222 1626 2111
3 282 442 2079
3 1169 2008 2105
3 1966 1007 2308
3 2040 799 2237
3 1744 2229 2495
3 986 833 1063
3 2284 1605 2510
3 887 1961 2376
3 215 1624 2262
3 830 831 832
3 476 475 2224
3 439 451 2223
3 1932 1933 2380
3 2227 1246 2366
3 1212 1202 2301
3 1107 1110 2228
3 249 2010 2299
3 1983 293 2306
3 2055 1214 2237
3 1438 1372 2478
3 824 560 2156
3 2320 1866 2513
3 1351 1137 2374
3 868 2007 2232
3 2063 771 2064
3 1507 214 1508
3 1728 1727 2246
3 1045 1047 2348
3 1139 1140 2096
3 1648 1649 2463
3 1502 2302 2519
3 704 707 2109
3 2343 1136 2396
3 650 1963 2206
3 2153 895 2257
3 396 1958 2431
3 1379 1377 2288
3 2115 1471 2319
3 2033 987 2202
3 2239 1693 2518
3 2025 1488 2355
3 1209 2115 2319
3 523 524 2156
3 783 939 2243
3 376 1798 2497
3 2066 788 2193
3 1984 318 2172
3 425 427 2221
3 203 172 1847
3 446 457 2264
3 1312 2089 2150
3 2138 1272 2211
3 897 1139 2274
3 828 1819 2429
3 1249 1224 2111
3 666 667 2318
3 1371 1326 2194
3 2433 1499 2475
3 1272 1271 2211
3 1367 2254 2479
3 1386 2053 2383
3 2074 1238 2227
3 755 2148 2320
3 2117 1604 2428
3 475 514 2224
3 228 2187 2457
3 1868 1504 2520
3 1626 1218 2185
3 2123 1111 2241
3 1287 1049 2331
3 1280 687 2109
3 459 1814 2292
3 54 196 2402
3 863 865 2146
3 204 176 1680
3 514 2086 2224
3 1646 603 2398
3 112 197 2346
3 358 300 2338
3 1140 898 1141
3 1204 1335 2301
3 1016 2161 2438
3 909 1041 2175
3 1681 2448 2492
3 2252 459 2292
3 1992 868 2232
3 1035 1036 2235
3 1051 1295 2331
3 1836 1289 2242
3 1508 214 1859
3 247 53 2402
3 1016 938 2161
3 1408 856 2378
3 1466 2158 2200
3 725 885 2336
3 855 1450 2421
3 2023 1768 2420
3 1238 1236 2227
3 1679 202 2253
3 2107 1348 2233
3 1653 1431 2487
3 1946 2291 2343
3 2253 202 2329
3 1885 1312 2150
3 378 628 2390
3 2195 1383 2432
3 1520 1519 2480
3 1532 1733 2534
3 308 327 2278
3 953 951 2255
3 1213 1407 2222
3 1561 1563 2285
3 302 763 2338
3 1928 2033 2202
3 763 304 2345
3 832 833 986
3 1352 2040 2237
3 247 1881 2481
3 560 523 2156
3 335 339 2261
3 346 342 2344
3 201 443 1323
3 2301 1335 2466
3 323 320 2229
3 1136 2110 2396
3 1139 1977 2274
3 1809 1615 2423
3 1707 1791 2334
3 46 2019 2485
3 2064 1294 2238
3 1950 197 2404
3 2021 2022 2176
3 1949 245 2420
3 2044 2152 2207
3 1063 1154 1707
3 1012 1363 2406
3 280 2079 2210
3 2237 1214 2351
3 820 698 2318
3 1140 1141 1406
3 205 2021 2176
3 2043 786 2310
3 2145 1004 2446
3 707 1030 2109
3 1406 2460 2473
3 2137 1268 2226
3 16 2081 2260
3 567 2031 2219
3 2112 1064 2248
3 206 45 2485
3 2347 1462 2365
3 1650 1962 2362
3 453 425 2221
3 1209 907 2175
3 1111 1276 2241
3 2448 1145 2492
3 2051 2083 2243
3 59 60 2266
3 1402 1742 2530
3 831 677 2209
3 624 587 2276
3 238 174 1725
3 1011 2107 2233
3 468 2365 2412
3 2337 805 2371
3 254 1932 2380
3 1174 1398 2207
3 2140 111 2346
3 1381 2186 2283
3 1987 2037 2188
3 1740 559 2456
3 1773 391 2503
3 1335 1870 2249
3 1945 2257 2291
3 828 463 2411
3 1246 2088 2208
3 2060 798 2307
3 1773 1159 2240
3 1187 2112 2248
3 1352 2237 2351
3 2037 1322 2188
3 1941 1499 2433
3 2322 225 2510
3 1031 1034 2236
3 327 2188 2321
3 595 2032 2273
3 1464 1462 2347
3 1285 1992 2232
3 799 2055 2237
3 443 278 2210
3 784 874 2178
3 392 396 2431
3 191 95 2309
3 879 784 2178
3 524 511 2429
3 2128 2011 2270
3 895 896 2257
3 2206 1152 2324
3 318 2171 2172
3 2259 1549 2379
3 1214 1410 2351
3 306 308 2278
3 2022 251 2247
3 1757 1729 2309
3 1283 1918 2524
3 996 1706 2492
3 557 2044 2207
3 1798 1448 2364
3 1447 2250 2310
3 559 1750 2403
3 1363 1011 2233
3 1343 1168 2187
3 1407 2044 2256
3 1462 1460 2365
3 1995 2331 2458
3 327 1987 2188
3 2160 254 2380
3 1681 958 2287
3 2031 1160 2250
3 1600 689 2413
3 2219 1692 2239
3 1494 1675 2522
3 1281 1916 2448
3 907 909 2175
3 565 2167 2276
3 2241 1276 2275
3 1978 316 2443
3 2151 212 2350
3 203 1847 2104
3 2049 1481 2523
3 1961 1362 2376
3 2187 1393 2457
3 940 796 2532
3 2293 1349 2329
3 572 1897 2537
3 332 739 2282
3 2052 567 2239
3 1437 1370 2277
3 567 2219 2239
3 667 626 2452
3 1914 2206 2324
3 2243 939 2392
3 2136 1343 2187
3 257 1654 2530
3 1376 1378 2283
3 2076 1982 2272
3 2083 760 2243
3 1944 1945 2291
3 1771 1839 2359
3 1404 1403 2399
3 1875 1866 2320
3 1460 1337 2412
3 760 783 2243
3 1276 1366 2275
3 1428 2227 2366
3 1882 1605 2284
3 1739 1429 2459
3 2321 2188 2434
3 1328 1327 2315
3 798 2189 2307
3 2152 1174 2207
3 2182 1247 2323
3 1516 1514 2367
3 293 291 2306
3 556 537 2201
3 1298 1300 2314
3 1400 1399 2316
3 1649 2236 2463
3 833 831 2424
3 2127 2050 2333
3 1057 914 2328
3 1839 193 2359
3 761 1741 2258
3 1186 1970 2422
3 1429 2366 2382
3 2211 1271 2271
3 1733 1248 2534
3 13 2114 2136
3 2078 390 2431
3 1533 1536 2340
3 1690 2145 2446
3 1277 2308 2370
3 1168 1393 2187
3 1597 2047 2268
3 587 565 2276
3 1908 244 2401
3 225 125 2284
3 610 2130 2468
3 1749 2105 2326
3 1913 1914 2324
3 2366 2208 2382
3 1391 1876 2295
3 457 552 2264
3 653 688 2209
3 1601 2443 2514
3 682 2138 2211
3 992 1980 2244
3 55 56 2313
3 1645 1495 2493
3 473 477 2483
3 202 1724 2329
3 465 828 2429
3 1277 1966 2308
3 1416 2330 2406
3 1912 1364 2455
3 1716 1483 2375
3 2019 1651 2485
3 1725 2137 2226
3 201 1323 2216
3 878 1083 2213
3 2072 2073 2245
3 1563 1777 2405
3 244 2028 2401
3 2016 1564 2422
3 1682 1497 2461
3 1962 1153 2362
3 1298 2314 2358
3 1384 1385 2391
3 688 1320 2209
3 1587 2179 2435
3 786 380 2497
3 1395 1522 2341
3 2032 1919 2273
3 251 2013 2247
3 2219 2031 2250
3 2397 552 2453
3 1765 255 2489
3 2475 1825 2524
3 1202 1204 2301
3 445 2078 2411
3 323 2229 2296
3 1286 2384 2408
3 537 551 2201
3 1724 237 2293
3 84 85 2335
3 1471 1126 2319
3 1635 1634 2511
3 300 302 2338
3 698 666 2318
3 1030 1031 2236
3 2098 1457 2271
3 696 1821 2426
3 1457 1492 2447
3 1956 2336 2469
3 331 323 2296
3 1284 1491 2342
3 2011 1996 2270
3 256 183 2303
3 160 257 2304
3 2204 1589 2501
3 1891 1014 2280
3 719 725 2336
3 1354 1808 2381
3 437 430 2494
3 2377 218 2391
3 2211 2271 2447
3 1407 2256 2290
3 2365 1460 2412
3 2047 1498 2268
3 1825 1283 2524
3 1499 1825 2475
3 1226 1249 2281
3 2051 2243 2392
3 2250 1160 2310
3 111 112 2346
3 304 306 2345
3 1341 1352 2351
3 2166 191 2504
3 2223 1836 2242
3 1996 247 2481
3 1049 1051 2331
3 1086 1298 2358
3 2130 595 2273
3 1249 2111 2263
3 680 1995 2458
3 1511 2140 2346
3 102 103 2355
3 469 473 2453
3 961 2072 2245
3 2073 1282 2245
3 1442 1443 2525
3 74 192 2361
3 2163 1586 2435
3 1519 1518 2449
3 897 2274 2500
3 303 444 2317
3 1615 1614 2423
3 197 2009 2404
3 1634 2281 2511
3 1780 1781 2419
3 1435 1623 2465
3 1286 1774 2384
3 384 361 2339
3 193 1901 2359
3 1165 2433 2475
3 2277 1370 2386
3 677 653 2209
3 1994 1516 2367
3 1479 1478 2440
3 1165 1512 2433
3 1644 1353 2417
3 1711 1712 2353
3 2193 1615 2425
3 1613 1956 2469
3 1440 1173 2330
3 2269 1479 2440
3 222 2218 2465
3 391 389 2503
3 306 2278 2345
3 468 2090 2365
3 221 2246 2526
3 1445 1446 2504
3 939 1844 2392
3 86 87 2373
3 1429 1428 2366
3 2053 2103 2383
3 1348 1212 2312
3 805 750 2371
3 997 1286 2408
3 1152 869 2363
3 2063 2064 2238
3 192 1994 2367
3 1160 2043 2310
3 1926 2151 2350
3 2059 2098 2271
3 1897 1366 2537
3 215 2262 2437
3 1655 1732 2476
3 2415 1128 2454
3 1320 2213 2214
3 7 258 2357
3 259 155 2356
3 2171 1530 2172
3 347 351 2407
3 1077 1078 2343
3 239 2003 2279
3 1446 1128 2415
3 1034 1033 2410
3 601 627 2442
3 1154 1653 2234
3 397 2060 2405
3 2142 794 2272
3 442 2063 2238
3 1863 1215 2378
3 794 2076 2272
3 1883 1375 2505
3 1320 878 2213
3 342 468 2344
3 1903 218 2377
3 380 376 2497
3 1549 1547 2379
3 1148 1165 2475
3 2157 226 2507
3 829 972 2326
3 884 1957 2466
3 2291 1077 2343
3 65 66 2395
3 787 2052 2518
3 2298 1348 2312
3 1946 2343 2396
3 1653 256 2535
3 1842 1548 2472
3 1957 2301 2466
3 1366 1277 2370
3 2213 1432 2214
3 961 2245 2383
3 218 2093 2391
3 1376 2283 2421
3 1873 2127 2333
3 1019 1021 2512
3 1128 1127 2454
3 1104 1434 2450
3 2130 1439 2468
3 2396 2110 2482
3 2186 855 2283
3 1724 2293 2329
3 1163 1059 2372
3 1614 2389 2423
3 53 54 2402
3 1063 1707 2334
3 2283 855 2421
3 1385 1863 2436
3 364 1883 2505
3 517 1890 2387
3 1145 996 2492
3 1047 1287 2348
3 2148 1875 2320
3 205 2176 2416
3 1372 1844 2478
3 1211 2219 2250
3 1141 898 2368
3 245 1909 2420
3 2278 327 2321
3 2389 1397 2423
3 2256 513 2290
3 559 2403 2456
3 1137 1340 2374
3 2093 1384 2391
3 1918 1148 2524
3 1030 2236 2427
3 1867 1895 2513
3 2014 517 2387
3 2271 1457 2447
3 1143 2028 2353
3 1904 194 2432
3 1148 2475 2524
3 1574 1523 2436
3 2213 1083 2311
3 1997 358 2325
3 2139 246 2506
3 1370 1369 2386
3 1271 2059 2271
3 1034 2173 2463
3 1123 1412 2393
3 1578 1827 2515
3 2209 1320 2424
3 2079 1504 2210
3 1361 2168 2305
3 1491 1489 2403
3 238 1725 2226
3 1190 986 2334
3 1547 1545 2508
3 1891 1613 2469
3 1153 1885 2362
3 2208 1632 2382
3 2287 1281 2448
3 1356 1376 2421
3 1965 2349 2515
3 2155 1186 2422
3 1522 2014 2387
3 2158 1468 2323
3 2050 954 2333
3 1397 1809 2423
3 1362 1360 2376
3 1852 1985 2397
3 2069 1691 2446
3 789 2066 2425
3 1895 755 2513
3 1707 1154 2234
3 372 374 2430
3 2225 787 2518
3 2028 1206 2401
3 986 1063 2334
3 1912 726 2439
3 1340 1342 2400
3 1916 1145 2448
3 2236 1649 2427
3 2374 1340 2400
3 2222 1407 2290
3 2324 1152 2363
3 241 2220 2472
3 765 2190 2384
3 2375 667 2452
3 2330 1173 2406
3 1181 1972 2500
3 2126 1382 2388
3 1173 1012 2406
3 315 313 2495
3 1015 1373 2385
3 97 221 2526
3 1937 1397 2389
3 930 1061 2462
3 971 1096 2496
3 45 46 2485
3 669 791 2529
3 1104 2450 2521
3 382 378 2390
3 2191 1371 2536
3 2235 1036 2286
3 831 2209 2424
3 762 1997 2349
3 2379 1547 2508
3 2177 1359 2467
3 2403 1489 2456
3 796 785 2532
3 219 1902 2516
3 1519 2300 2480
3 1065 1655 2476
3 1375 1473 2505
3 1489 1490 2456
3 390 392 2431
3 2247 2013 2464
3 1135 1930 2369
3 2278 1583 2345
3 626 622 2452
3 631 2298 2312
3 2233 1348 2298
3 1398 1974 2499
3 1706 1681 2492
3 261 130 2444
3 32 260 2445
3 822 2099 2368
3 1365 1912 2439
3 941 940 2418
3 1446 2166 2504
3 2106 1121 2414
3 2300 1519 2449
3 1803 1104 2521
3 1732 1570 2476
3 1413 2051 2392
3 2122 1946 2396
3 2238 1868 2520
3 477 556 2483
3 2397 1985 2533
3 463 445 2411
3 2163 1185 2488
3 1126 2141 2319
3 1755 2264 2533
3 972 2204 2501
3 2230 1533 2340
3 1774 1773 2503
3 1997 2325 2349
3 1004 2069 2446
3 2159 31 2445
3 131 2160 2444
3 1371 2191 2451
3 1001 2154 2486
3 1682 2230 2340
3 2103 961 2383
3 1033 1151 2410
3 382 2390 2531
3 1504 2079 2520
3 1583 2278 2321
3 511 465 2429
3 250 2024 2479
3 2208 2088 2509
3 619 620 2484
3 1246 2208 2366
3 2141 1209 2319
3 1359 1413 2467
3 1295 1459 2458
3 2218 1435 2465
3 2281 1249 2511
3 2293 237 2354
3 2207 1398 2499
3 1564 2155 2422
3 552 469 2453
3 1947 224 2498
3 2062 1568 2490
3 2018 205 2416
3 260 2159 2445
3 2160 261 2444
3 2092 610 2468
3 194 2195 2432
3 1432 2213 2311
3 211 2251 2464
3 2378 856 2527
3 1536 1532 2534
3 2364 786 2497
3 2438 1438 2478
3 1185 1948 2488
3 2042 941 2418
3 1582 2321 2434
3 885 1891 2469
3 1364 2048 2455
3 1693 2225 2518
3 401 382 2531
3 1338 2247 2464
3 442 2238 2520
3 1292 2117 2428
3 2274 1350 2500
3 2066 2193 2425
3 2179 1184 2435
3 898 822 2368
3 2436 1863 2527
3 1844 1016 2478
3 2184 1001 2486
3 557 2207 2499
3 2013 211 2464
3 2254 250 2479
3 1350 1181 2500
3 2009 248 2470
3 246 2140 2506
3 1574 2436 2527
3 2139 1419 2517
3 316 1971 2514
3 1319 2122 2482
3 226 2006 2507
3 1400 2270 2481
3 1681 2287 2448
3 2325 1578 2349
3 232 1652 2487
3 1320 2214 2424
3 1632 2208 2509
3 248 2288 2470
3 1406 1141 2460
3 2188 1322 2434
3 2244 1980 2441
3 2088 1255 2509
3 1280 2109 2427
3 2060 2307 2405
3 2236 1034 2463
3 1745 2293 2354
3 2122 2396 2482
3 2109 1030 2427
3 2307 1563 2405
3 1429 2382 2459
3 224 2267 2498
3 682 2211 2447
3 2079 442 2520
3 2348 1287 2398
3 2220 1842 2472
3 1335 2249 2466
3 1249 2263 2511
3 443 2210 2519
3 2385 1373 2394
3 1594 2184 2486
3 2052 2239 2518
3 1568 2439 2490
3 2349 1578 2515
3 2344 468 2412
3 2270 1996 2481
3 1735 2244 2441
3 2260 1471 2477
3 2210 1504 2519
3 1434 2297 2450
3 2297 1419 2450
3 2263 1660 2502
3 2404 2009 2470
3 1718 2385 2394
3 1371 2194 2536
3 2317 444 2461
3 1443 2322 2525
3 1716 2375 2452
3 1863 2378 2527
3 2439 726 2490
3 1057 2328 2451
3 1638 2404 2470
3 1454 2234 2535
3 755 2320 2513
3 2234 1653 2535
3 2264 552 2533
3 1419 2297 2517
3 1392 2322 2510
3 552 2397 2533
3 1798 2364 2497
3 2322 1392 2525
3 2382 1631 2459
3 1016 2438 2478
3 1366 2370 2537
3 1742 2491 2530
3 2491 257 2530
CELL_TYPES 4886
5
5
5
5
5
5
5
5
5
5
5
5
5
5
5
5
5
5
5
5
5
5
5
5
5
5
5
5
5
5
5
5
5
5
5
5
5
5
5
5
5
5
5
5
5
5
5
5
5
5
5
5
5
5
5
5
5
5
5
5
5
5
5
5
5
5
5
5
5
5
5
5
5
5
5
5
5
5
5
5
5
5
5
5
5
5
5
5
5
5
5
5
5
5
5
5
5
5
5
5
5
5
5
5
5
5
5
5
5
5
5
5
5
5
5
5
5
5
5
5
5
5
5
5
5
5
5
5
5
5
5
5
5
5
5
5
5
5
5
5
5
5
5
5
5
5
5
5
5
5
5
5
5
5
5
5
5
5
5
5
5
5
5
5
5
5
5
5
5
5
5
5
5
5
5
5
5
5
5
5
5
5
5
5
5
5
5
5
5
5
5
5
5
5
5
5
5
5
5
5
5
5
5
5
5
5
5
5
5
5
5
5
5
5
5
5
5
5
5
5
5
5
5
5
5
5
5
5
5
5
5
5
5
5
5
5
5
5
5
5
5
5
5
5
5
5
5
5
5
5
5
5
5
5
5
5
5
5
5
5
5
5
5
5
5
5
5
5
5
5
5
5
5
5
5
5
5
5
5
5
5
5
5
5
5
5
5
5
5
5
5
5
5
5
5
5
5
5
5
5
5
5
5
5
5
5
5
5
5
5
5
5
5
5
5
5
5
5
5
5
5
5
5
5
5
5
5
5
5
5
5
5
5
5
5
5
5
5
5
5
5
5
5
5
5
5
5
5
5
5
5
5
5
5
5
5
5
5
5
5
5
5
5
5
5
5
5
5
5
5
5
5
5
5
5
5
5
5
5
5
5
5
5
5
5
5
5
5
5
5
5
5
5
5
5
5
5
5
5
5
5
5
5
5
5
5
5
5
5
5
5
5
5
5
5
5
5
5
5
5
5
5
5
5
5
5
5
5
5
5
5
5
5
5
5
5
5
5
5
5
5
5
5
5
5
5
5
5
5
5
5
5
5
5
5
5
5
5
5
5
5
5
5
5
5
5
5
5
5
5
5
5
5
5
5
5
5
5
5
5
5
5
5
5
5
5
5
5
5
5
5
5
5
5
5
5
5
5
5
5
5
5
5
5
5
5
5
5
5
5
5
5
5
5
5
5
5
5
5
5
5
5
5
5
5
5
5
5
5
5
5
5
5
5
5
5
5
5
5
5
5
5
5
5
5
5
5
5
5
5
5
5
5
5
5
5
5
5
5
5
5
5
5
5
5
5
5
5
5
5
5
5
5
5
5
5
5
5
5
5
5
5
5
5
5
5
5
5
5
5
5
5
5
5
5
5
5
5
5
5
5
5
5
5
5
5
5
5
5
5
5
5
5
5
5
5
5
5
5
5
5
5
5
5
5
5
5
5
5
5
5
5
5
5
5
5
5
5
5
5
5
5
5
5
5
5
5
5
5
5
5
5
5
5
5
5
5
5
5
5
5
5
5
5
5
5
5
5
5
5
5
5
5
5
5
5
5
5
5
5
5
5
5
5
5
5
5
5
5
5
5
5
5
5
5
5
5
5
5
5
5
5
5
5
5
5
5
5
5
5
5
5
5
5
5
5
5
5
5
5
5
5
5
5
5
5
5
5
5
5
5
5
5
5
5
5
5
5
5
5
5
5
5
5
5
5
5
5
5
5
5
5
5
5
5
5
5
5
5
5
5
5
5
5
5
5
5
5
5
5
5
5
5
5
5
5
5
5
5
5
5
5
5
5
5
5
5
5
5
5
5
5
5
5
5
5
5
5
5
5
5
5
5
5
5
5
5
5
5
5
5
5
5
5
5
5
5
5
5
5
5
5
5
5
5
5
5
5
5
5
5
5
5
5
5
5
5
5
5
5
5
5
5
5
5
5
5
5
5
5
5
5
5
5
5
5
5
5
5
5
5
5
5
5
5
5
5
5
5
5
5
5
5
5
5
5
5
5
5
5
5
5
5
5
5
5
5
5
5
5
5
5
5
5
5
5
5
5
5
5
5
5
5
5
5
5
5
5
5
5
5
5
5
5
5
5
5
5
5
5
5
5
5
5
5
5
5
5
5
5
5
5
5
5
5
5
5
5
5
5
5
5
5
5
5
5
5
5
5
5
5
5
5
5
5
5
5
5
5
5
5
5
5
5
5
5
5
5
5
5
5
5
5
5
5
5
5
5
5
5
5
5
5
5
5
5
5
5
5
5
5
5
5
5
5
5
5
5
5
5
5
5
5
5
5
5
5
5
5
5
5
5
5
5
5
5
5
5
5
5
5
5
5
5
5
5
5
5
5
5
5
5
5
5
5
5
5
5
5
5
5
5
5
5
5
5
5
5
5
5
5
5
5
5
5
5
5
5
5
5
5
5
5
5
5
5
5
5
5
5
5
5
5
5
5
5
5
5
5
5
5
5
5
5
5
5
5
5
5
5
5
5
5
5
5
5
5
5
5
5
5
5
5
5
5
5
5
5
5
5
5
5
5
5
5
5
5
5
5
5
5
5
5
5
5
5
5
5
5
5
5
5
5
5
5
5
5
5
5
5
5
5
5
5
5
5
5
5
5
5
5
5
5
5
5
5
5
5
5
5
5
5
5
5
5
5
5
5
5
5
5
5
5
5
5
5
5
5
5
5
5
5
5
5
5
5
5
5
5
5
5
5
5
5
5
5
5
5
5
5
5
5
5
5
5
5
5
5
5
5
5
5
5
5
5
5
5
5
5
5
5
5
5
5
5
5
5
5
5
5
5
5
5
5
5
5
5
5
5
5
5
5
5
5
5
5
5
5
5
5
5
5
5
5
5
5
5
5
5
5
5
5
5
5
5
5
5
5
5
5
5
5
5
5
5
5
5
5
5
5
5
5
5
5
5
5
5
5
5
5
5
5
5
5
5
5
5
5
5
5
5
5
5
5
5
5
5
5
5
5
5
5
5
5
5
5
5
5
5
5
5
5
5
5
5
5
5
5
5
5
5
5
5
5
5
5
5
5
5
5
5
5
5
5
5
5
5
5
5
5
5
5
5
5
5
5
5
5
5
5
5
5
5
5
5
5
5
5
5
5
5
5
5
5
5
5
5
5
5
5
5
5
5
5
5
5
5
5
5
5
5
5
5
5
5
5
5
5
5
5
5
5
5
5
5
5
5
5
5
5
5
5
5
5
5
5
5
5
5
5
5
5
5
5
5
5
5
5
5
5
5
5
5
5
5
5
5
5
5
5
5
5
5
5
5
5
5
5
5
5
5
5
5
5
5
5
5
5
5
5
5
5
5
5
5
5
5
5
5
5
5
5
5
5
5
5
5
5
5
5
5
5
5
5
5
5
5
5
5
5
5
5
5
5
5
5
5
5
5
5
5
5
5
5
5
5
5
5
5
5
5
5
5
5
5
5
5
5
5
5
5
5
5
5
5
5
5
5
5
5
5
5
5
5
5
5
5
5
5
5
5
5
5
5
5
5
5
5
5
5
5
5
5
5
5
5
5
5
5
5
5
5
5
5
5
5
5
5
5
5
5
5
5
5
5
5
5
5
5
5
5
5
5
5
5
5
5
5
5
5
5
5
5
5
5
5
5
5
5
5
5
5
5
5
5
5
5
5
5
5
5
5
5
5
5
5
5
5
5
5
5
5
5
5
5
5
5
5
5
5
5
5
5
5
5
5
5
5
5
5
5
5
5
5
5
5
5
5
5
5
5
5
5
5
5
5
5
5
5
5
5
5
5
5
5
5
5
5
5
5
5
5
5
5
5
5
5
5
5
5
5
5
5
5
5
5
5
5
5
5
5
5
5
5
5
5
5
5
5
5
5
5
5
5
5
5
5
5
5
5
5
5
5
5
5
5
5
5
5
5
5
5
5
5
5
5
5
5
5
5
5
5
5
5
5
5
5
5
5
5
5
5
5
5
5
5
5
5
5
5
5
5
5
5
5
5
5
5
5
5
5
5
5
5
5
5
5
5
5
5
5
5
5
5
5
5
5
5
5
5
5
5
5
5
5
5
5
5
5
5
5
5
5
5
5
5
5
5
5
5
5
5
5
5
5
5
5
5
5
5
5
5
5
5
5
5
5
5
5
5
5
5
5
5
5
5
5
5
5
5
5
5
5
5
5
5
5
5
5
5
5
5
5
5
5
5
5
5
5
5
5
5
5
5
5
5
5
5
5
5
5
5
5
5
5
5
5
5
5
5
5
5
5
5
5
5
5
5
5
5
5
5
5
5
5
5
5
5
5
5
5
5
5
5
5
5
5
5
5
5
5
5
5
5
5
5
5
5
5
5
5
5
5
5
5
5
5
5
5
5
5
5
5
5
5
5
5
5
5
5
5
5
5
5
5
5
5
5
5
5
5
5
5
5
5
5
5
5
5
5
5
5
5
5
5
5
5
5
5
5
5
5
5
5
5
5
5
5
5
5
5
5
5
5
5
5
5
5
5
5
5
5
5
5
5
5
5
5
5
5
5
5
5
5
5
5
5
5
5
5
5
5
5
5
5
5
5
5
5
5
5
5
5
5
5
5
5
5
5
5
5
5
5
5
5
5
5
5
5
5
5
5
5
5
5
5
5
5
5
5
5
5
5
5
5
5
5
5
5
5
5
5
5
5
5
5
5
5
5
5
5
5
5
5
5
5
5
5
5
5
5
5
5
5
5
5
5
5
5
5
5
5
5
5
5
5
5
5
5
5
5
5
5
5
5
5
5
5
5
5
5
5
5
5
5
5
5
5
5
5
5
5
5
5
5
5
5
5
5
5
5
5
5
5
5
5
5
5
5
5
5
5
5
5
5
5
5
5
5
5
5
5
5
5
5
5
5
5
5
5
5
5
5
5
5
5
5
5
5
5
5
5
5
5
5
5
5
5
5
5
5
5
5
5
5
5
5
5
5
5
5
5
5
5
5
5
5
5
5
5
5
5
5
5
5
5
5
5
5
5
5
5
5
5
5
5
5
5
5
5
5
5
5
5
5
5
5
5
5
5
5
5
5
5
5
5
5
5
5
5
5
5
5
5
5
5
5
5
5
5
5
5
5
5
5
5
5
5
5
5
5
5
5
5
5
5
5
5
5
5
5
5
5
5
5
5
5
5
5
5
5
5
5
5
5
5
5
5
5
5
5
5
5
5
5
5
5
5
5
5
5
5
5
5
5
5
5
5
5
5
5
5
5
5
5
5
5
5
5
5
5
5
5
5
5
5
5
5
5
5
5
5
5
5
5
5
5
5
5
5
5
5
5
5
5
5
5
5
5
5
5
5
5
5
5
5
5
5
5
5
5
5
5
5
5
5
5
5
5
5
5
5
5
5
5
5
5
5
5
5
5
5
5
5
5
5
5
5
5
5
5
5
5
5
5
5
5
5
5
5
5
5
5
5
5
5
5
5
5
5
5
5
5
5
5
5
5
5
5
5
5
5
5
5
5
5
5
5
5
5
5
5
5
5
5
5
5
5
5
5
5
5
5
5
5
5
5
5
5
5
5
5
5
5
5
5
5
5
5
5
5
5
5
5
5
5
5
5
5
5
5
5
5
5
5
5
5
5
5
5
5
5
5
5
5
5
5
5
5
5
5
5
5
5
5
5
5
5
5
5
5
5
5
5
5
5
5
5
5
5
5
5
5
5
5
5
5
5
5
5
5
5
5
5
5
5
5
5
5
5
5
5
5
5
5
5
5
5
5
5
5
5
5
5
5
5
5
5
5
5
5
5
5
5
5
5
5
5
5
5
5
5
5
5
5
5
5
5
5
5
5
5
5
5
5
5
5
5
5
5
5
5
5
5
5
5
5
5
5
5
5
5
5
5
5
5
5
5
5
5
5
5
5
5
5
5
5
5
5
5
5
5
5
5
5
5
5
5
5
5
5
5
5
5
5
5
5
5
5
5
5
5
5
5
5
5
5
5
5
5
5
5
5
5
5
5
5
5
5
5
5
5
5
5
5
5
5
5
5
5
5
5
5
5
5
5
5
5
5
5
5
5
5
5
5
5
5
5
5
5
5
5
5
5
5
5
5
5
5
5
5
5
5
5
5
5
5
5
5
5
5
5
5
5
5
5
5
5
5
5
5
5
5
5
5
5
5
5
5
5
5
5
5
5
5
5
5
5
5
5
5
5
5
5
5
5
5
5
5
5
5
5
5
5
5
5
5
5
5
5
5
5
5
5
5
5
5
5
5
5
5
5
5
5
5
5
5
5
5
5
5
5
5
5
5
5
5
5
5
5
5
5
5
5
5
5
5
5
5
5
5
5
5
5
5
5
5
5
5
5
5
5
5
5
5
5
5
5
5
5
5
5
5
5
5
5
5
5
5
5
5
5
5
5
5
5
5
5
5
5
5
5
5
5
5
5
5
5
5
5
5
5
5
5
5
5
5
5
5
5
5
5
5
5
5
5
5
5
5
5
5
5
5
5
5
5
5
5
5
5
5
5
5
5
5
5
5
5
5
5
5
5
5
5
5
5
5
5
5
5
5
5
5
5
5
5
5
5
5
5
5
5
5
5
5
5
5
5
5
5
5
5
5
5
5
5
5
5
5
5
5
5
5
5
5
5
5
5
5
5
5
5
5
5
5
5
5
5
5
5
5
5
5
5
5
5
5
5
5
5
5
5
5
5
5
5
5
5
5
5
5
5
5
5
5
5
5
5
5
5
5
5
5
5
5
5
5
5
5
5
5
5
5
5
5
5
5
5
5
5
5
5
5
5
5
5
5
5
5
5
5
5
5
5
5
5
5
5
5
5
5
5
5
5
5
5
5
5
5
5
5
5
5
5
5
5
5
5
5
5
5
5
5
5
5
5
5
5
5
5
5
5
5
5
5
5
5
5
5
5
5
5
5
5
5
5
5
5
5
5
5
5
5
5
5
5
5
5
5
5
5
5
5
5
5
5
5
5
5
5
5
5
5
5
5
5
5
5
5
5
5
5
5
5
5
5
5
5
5
5
5
5
5
5
5
5
5
5
5
5
5
5
5
5
5
5
5
5
5
5
5
5
5
5
5
5
5
5
5
5
5
5
5
5
5
5
5
5
5
5
5
5
5
5
5
5
5
5
5
5
5
5
5
5
5
5
5
5
5
5
5
5
5
5
5
5
5
5
5
5
5
5
5
5
5
5
5
5
5
5
5
5
5
5
5
5
5
5
5
5
5
5
5
5
5
5
5
5
5
5
5
5
5
5
5
5
5
5
5
5
5
5
5
5
5
5
5
5
5
5
5
5
5
5
5
5
5
5
5
5
5
5
5
5
5
5
5
5
5
5
5
5
5
5
5
5
5
5
5
5
5
5
5
5
5
5
5
5
5
5
5
5
5
5
5
5
5
5
5
5
5
5
5
5
5
5
5
5
5
5
5
5
5
5
5
5
5
5
5
5
5
5
5
5
5
5
5
5
5
5
5
5
5
5
5
5
5
5
5
5
5
5
5
5
5
5
5
5
5
5
5
5
5
5
5
5
5
5
5
5
5
5
5
5
5
5
5
5
5
5
5
5
5
5
5
5
5
5
5
5
5
5
5
5
5
5
5
5
5
5
5
5
5
5
5
5
5
5
5
5
5
5
5
5
5
5
5
5
5
5
5
5
5
5
5
5
5
5
5
5
5
5
5
5
5
5
5
5
5
5
5
5
5
5
5
5
5
5
5
5
5
5
5
5
5
5
5
5
5
5
5
5
5
5
5
5
5
5
5
5
5
5
5
5
5
5
5
5
5
5
5
5
5
5
5
5
5
5
5
5
5
5
5
5
5
5
5
5
5
5
5
5
5
5
5
5
5
5
5
5
5
5
5
5
5
5
5
5
5
5
5
5
5
5
5
5
5
5
5
5
5
5
5
5
5
5
5
5
5
5
5
5
5
5
5
5
5
5
5
5
5
5
5
5
5
5
5
5
5
5
5
5
5
5
5
5
5
5
5
5
5
5
5
5
5
5
5
5
5
5
5
5
5
5
5
5
5
5
5
5
5
5
5
5
5
5
5
5
5
5
5
5
5
5
5
5
5
5
5
5
5
5
5
5
5
5
5
5
5
5
5
5
5
5
5
5
5
5
5
5
5
5
5
5
5
5
5
5
5
5
5
5
5
5
5
5
5
5
5
5
5
5
5
5
5
5
5
5
5
5
5
5
5
5
5
5
5
5
5
5
5
5
5
5
5
5
5
5
5
5
5
5
5
5
5
5
5
5
5
5
5
5
5
5
5
5
5
5
5
5
5
5
5
5
5
5
5
5
5
5
5
5
5
5
5
5
5
5
5
5
5
5
5
5
5
5
5
5
5
5
5
5
5
5
5
5
5
5
5
5
5
5
5
5
5
5
5
5
5
5
5
5
5
5
5
5
5
5
5
5
5
5
5
5
5
5
5
5
5
5
5
5
5
5
5
5
5
5
5
5
5
5
5
5
5
5
5
5
5
5
5
5
5
5
5
5
5
5
5
5
5
5
5
5
5
5
5
5
5
5
5
5
5
5
5
5
5
5
5
5
5
5
5
5
5
5
5
5
5
5
5
5
5
5
5
5
5
5
5
5
5
5
5
5
5
5
5
5
5
5
5
5
5
5
5
5
5
5
5
5
5
5
5
5
5
5
5
5
5
5
5
5
5
5
5
5
5
5
5
5
5
5
5
5
5
5
5
5
5
5
5
5
5
5
5
5
5
5
5
5
5
5
5
5
5
5
5
5
5
5
5
5
5
5
5
5
5
5
5
5
5
5
5
5
5
5
5
5
5
5
5
5
5
5
5
5
5
5
5
5
5
5
5
5
5
5
5
5
5
5
5
5
5
5
5
5
5
5
5
5
5
5
5
5
5
5
5
5
5
5
5
5
5
5
5
5
5
5
5
5
5
5
5
5
5
5
5
5
5
5
5
5
5
5
5
5
5
5
5
5
5
5
5
5
5
5
5
5
5
5
5
5
5
5
5
5
5
5
5
5
5
5
5
5
5
5
5
5
5
5
5
5
5
5
5
5
5
5
5
5
5
5
5
5
5
5
5
5
5
5
5
5
5
5
5
5
5
5
5
5
5
5
5
5
5
5
5
5
5
5
5
5
5
5
5
5
5
5
5
5
5
5
5
5
5
5
5
5
5
5
5
5
5
5
5
5
5
5
5
5
5
5
5
5
5
5
5
5
5
5
5
5
5
5
5
5
5
5
5
5
5
5
5
5
5
5
5
5
5
5
5
5
5
5
5
5
5
5
5
5
5
5
5
5
5
5
5
5
5
5
5
5
5
5
5
5
5
5
5
5
5
5
5
5
5
5
5
5
5
5
5
5
5
5
5
5
5
5
5
5
5
5
5
5
5
5
5
5
5
5
5
5
5
5
5
5
5
5
5
5
5
5
5
5
5
5
5
5
5
5
5
5
5
5
5
5
5
5
5
5
5
5
5
5
5
5
5
5
5
5
5
5
5
5
5
5
5
5
5
5
5
5
5
5
5
5
5
5
5
5
5
5
5
5
5
5
5
5
5
5
5
5
5
5
5
5
5
5
5
5
5
5
5
5
5
5
5
5
5
5
5
5
5
5
5
5
5
5
5
5
5
5
5
5
5
5
5
5
5
5
5
5
5
5
5
5
5
5
5
5
5
5
5
5
5
5
5
5
5
5
5
5
5
5
5
5
5
5
5
5
5
5
5
5
5
5
5
5
5
5
5
5
5
5
5
5
5
5
5
5
5
5
5
5
5
5
5
5
5
5
5
5
5
5
5
5
5
5
5
5
5
5
5
5
5
5
5
5
5
5
5
5
5
5
5
5
5
5
5
5
5
5
5
5
5
5
5
5
5
5
5
5
5
5
5
5
5
5
5
5
5
5
5
5
5
5
5
5
5
5
5
5
5
5
5
5
5
5
5
5
5
5
5
5
5
5
5
5
5
5
5
5
5
5
5
5
5
5
5
5
5
5
5
5
5
5
5
5
5
5
5
5
5
5
5
5
5
5
5
5
5
5
5
5
5
5
5
5
5
5
5
5
5
5
5
5
5
5
5
5
5
5
5
5
5
5
5
5
5
5
5
5
5
5
5
5
5
5
5
5
5
5
5
5
5
5
5
5
5
5
5
5
5
5
5
5
5
5
5
5
5
5
5
5
5
5
5
5
5
5
5
5
5
5
5
5
5
5
5
5
5
5
5
5
5
5
5
5
5
5
5
5
5
5
5
5
5
5
5
5
5
5
5
5
5
5
5
5
5
5
5
5
5
5
5
5
5
5
5
5
5
5
5
5
5
5
5
5
5
5
5
5
5
5
5
5
5
5
5
5
5
5
5
5
5
5
5
5
5
5
5
5
5
5
5
5
5
5
5
5
5
5
5
5
5
5
5
5
5
5
5
5
5
5
5
5
5
5
5
5
5
5
5
5
5
5
5
5
5
5
5
5
5
5
5
5
5
5
5
5
5
5
5
5
5
5
5
5
5
5
5
5
5
5
5
5
5
5
5
5
5
5
5
5
5
5
5
5
5
5
5
5
5
5
5
5
5
5
5
5
5
5
5
5
5
5
5
5
5
5
5
5
5
5
5
5
5
5
5
5
5
5
5
5
5
5
5
5
5
5
5
5
5
5
5
5
5
5
5
5
5
5
5
5
5
5
5
5
5
5
5
5
5
5
5
5
5
5
5
5
5
5
5
5
5
5
5
5
5
5
5
5
5
5
5
5
5
5
5
5
5
5
5
5
5
5
5
5
5
5
5
5
5
5
5
5
5
5
5
5
5
5
5
5
5
5
5
5
5
5
5
5
5
5
5
5
5
5
5
5
5
5
5
5
5
5
5
5
5
5
5
5
5
5
5
5
5
5
5
5
5
5
5
5
5
5
5
5
5
5
5
5
5
5
5
5
5
5
5
5
5
5
5
5
5
5
5
5
5
5
5
5
5
5
5
5
5
5
5
5
5
5
5
5
5
5
5
5
5
5
5
5
5
5
5
5
5
5
5
5
5
5
5
5
5
5
5
5
5
5
5
5
5
5
5
5
5
5
5
5
5
5
5
5
5
5
POINT_DATA 2538
VECTORS disp float
1.255394926859389e-11 1.812541168549649e-11 0.0
2.866203676840006e-12 -7.896849015937817e-12 0.0
0.001400000000056827 2.2161284742290815e-12 0.0
0.001399999978256481 -4.59143715235153e-11 0.0
0.0006761301157234153 0.00031741640625827707 0.0
0.0010566238855388003 5.552542309537784e-6 0.0
0.0008136957471168127 -5.220791807239421e-5 0.0
-1.953186937401114e-12 -3.690480351735761e-12 0.0
1.331745620297809e-12 8.411571346246795e-13 0.0
6.841392926428072e-13 -1.1419700504025468e-12 0.0
7.414097860811362e-13 -8.195665004274607e-13 0.0
3.1130160076972893e-13 -7.850093882435039e-13 0.0
3.8489256274355e-13 -1.0955952452814015e-12 0.0
2.7654187676956705e-13 -1.1911210217638706e-12 0.0
2.345983301244199e-13 -1.483400592178473e-12 0.0
1.3007816614725113e-13 -1.7421809376818455e-12 0.0
2.671185442069682e-13 -2.0606297206819747e-12 0.0
2.596246915797309e-13 -2.292753236121768e-12 0.0
3.1436720976758425e-13 -2.492639090666757e-12 0.0
3.545485195379574e-13 -2.645499214735497e-12 0.0
3.343549196774947e-13 -2.689268530761683e-12 0.0
4.2099219365277297e-13 -2.847472096657372e-12 0.0
3.912014475777528e-13 -2.835464107060765e-12 0.0
3.990461992648473e-13 -2.9352496420331334e-12 0.0
4.830191458433881e-13 -2.979553785122191e-12 0.0
4.499378438331471e-13 -2.997353714621124e-12 0.0
4.869998574759292e-13 -3.074774889032283e-12 0.0
5.532649487696354e-13 -3.168628327314059e-12 0.0
5.748069214678067e-13 -3.289236313220399e-12 0.0
5.360748942592162e-13 -3.504727292789808e-12 0.0
8.006960380053066e-13 -3.8854844229825096e-12 0.0
1.6005646242573747e-13 -3.4393938381427486e-12 0.0
1.8088233941537217e-5 -7.540737530465499e-6 0.0
3.2726067709030356e-5 -1.386616853732149e-5 0.0
4.7272666340996775e-5 -1.9619495290900994e-5 0.0
6.12252175794065e-5 -2.512100794035999e-5 0.0
7.454907544917152e-5 -3.037991946271468e-5 0.0
8.751065313234582e-5 -3.555759316395938e-5 0.0
0.00010038519620642789 -4.047773716518323e-5 0.0
0.00011295132221085817 -4.5277246692279126e-5 0.0
0.00012534660391789538 -4.998791020879129e-5 0.0
0.0001376568111473599 -5.45393678585707e-5 0.0
0.00014980800808943776 -5.89973531590934e-5 0.0
0.00016202781207508578 -6.3331958073557e-5 0.0
0.00017422583793950982 -6.757690314362417e-5 0.0
0.00018619929902320538 -7.166685834147835e-5 0.0
0.0001984568808815629 -7.586548707353911e-5 0.0
0.00021065322422019923 -8.017201755913942e-5 0.0
0.0002229566941469128 -8.449543447881486e-5 0.0
0.00023525131013666287 -8.877796475308323e-5 0.0
0.000247464223443746 -9.308427794728574e-5 0.0
0.00025963646683868543 -9.738295032574889e-5 0.0
0.0002719640933625047 -0.00010158344552894897 0.0
0.000284029230192875 -0.00010571272654782802 0.0
0.0002964124358823442 -0.00010958527242418162 0.0
0.00030856732225999954 -0.00011340846106743629 0.0
0.00032096734649487323 -0.00011705511391154767 0.0
0.00033319871815338386 -0.00012054658146666676 0.0
0.00034550471388603634 -0.00012395182496913317 0.0
0.0003576829099336067 -0.00012707020697800983 0.0
0.000370121372816322 -0.00013003294640400145 0.0
0.0003822572870474745 -0.00013284912043926556 0.0
0.00039457925749548684 -0.00013542571970944688 0.0
0.0004067450095072111 -0.00013772487912285772 0.0
0.0004187587554341773 -0.00013986988633079227 0.0
0.000430655559565184 -0.00014185529651594833 0.0
0.0004435603799950348 -0.0001441867336911879 0.0
0.0004571580094819836 -0.00014699807685929472 0.0
0.0004712386884829153 -0.00015060436235537345 0.0
0.0004871248091511853 -0.0001543789450757962 0.0
0.0005020620427896771 -0.00015868808449781595 0.0
0.0005171868531230498 -0.00016280667153692664 0.0
0.000531570032694558 -0.00016722453028413032 0.0
0.000543925891542534 -0.00017244559593961728 0.0
0.0005559092957678305 -0.0001761727217057885 0.0
0.0005662071452126831 -0.00018018365214000733 0.0
0.000577754891621949 -0.00018301631899028507 0.0
0.0005890655793939139 -0.0001857874528865736 0.0
0.0006005300998609931 -0.0001882555641943511 0.0
0.0006126731361534077 -0.0001899760747145147 0.0
0.0006243335646131227 -0.0001922249176332336 0.0
0.0006370776742969462 -0.00019385683007992028 0.0
0.0006489069631838035 -0.0001959987056340703 0.0
0.0006614517456098077 -0.0001980648568907426 0.0
0.0006732652855193852 -0.00020001582057053654 0.0
0.0006865549253647935 -0.00020113950003775895 0.0
0.0006994919105082131 -0.00020223432612040618 0.0
0.0007137125996062746 -0.00020311908045544242 0.0
0.0007286913352904403 -0.00020375562671150953 0.0
0.0007444859740038498 -0.00020417370049293976 0.0
0.0007609532618124784 -0.00020454792082148652 0.0
0.0007779697335930133 -0.0002047588174846219 0.0
0.000794990041693779 -0.00020501015586595547 0.0
0.0008117117164097573 -0.00020532416977975303 0.0
0.0008281955270371394 -0.00020573896365240043 0.0
0.0008439215303591011 -0.00020610829755450877 0.0
0.0008591026808982835 -0.0002065675504747506 0.0
0.0008736859843285901 -0.00020694099478348995 0.0
0.0008879533826982912 -0.0002070849817168851 0.0
0.0009020869295721422 -0.00020710505995380322 0.0
0.0009165936225170797 -0.00020675388101049975 0.0
0.0009314654709604392 -0.00020616722708008365 0.0
0.0009457783777174293 -0.00020536789666423253 0.0
0.0009605167035468045 -0.00020433151182284805 0.0
0.0009746487665752953 -0.00020346643128035113 0.0
0.0009884516202382104 -0.00020256128260318445 0.0
0.001001968869895814 -0.00020163588435646304 0.0
0.0010140995138175745 -0.0002009308033819084 0.0
0.001025595293383329 -0.00020008925324701152 0.0
0.0010363005693713563 -0.0001992626145738856 0.0
0.0010469636618784723 -0.0001982744968359157 0.0
0.0010569527138936253 -0.00019599853259016572 0.0
0.0010695519063594415 -0.00019464103436228101 0.0
0.0010820865708584056 -0.00019351937840928764 0.0
0.001094896658145874 -0.00019241694092985781 0.0
0.0011071417564615534 -0.00019025296951152008 0.0
0.0011189175771694833 -0.00018673040624076615 0.0
0.001131009564601537 -0.00018245767984419246 0.0
0.0011445244780993698 -0.00017695073891542978 0.0
0.0011586042970683516 -0.00017091565296871312 0.0
0.001172281541216351 -0.00016539486149209435 0.0
0.0011862539783723356 -0.00015958458234858943 0.0
0.0012011090652113438 -0.00015249451710509158 0.0
0.001215696328900397 -0.00014410851580801742 0.0
0.0012309949935206854 -0.00013452527405140942 0.0
0.0012469743486369156 -0.0001239060869888249 0.0
0.0012648317511605106 -0.00011166993041609508 0.0
0.001284413722985168 -9.725469932654138e-5 0.0
0.0013059116664235334 -8.043629490771855e-5 0.0
0.0013316926827375718 -6.052750910507073e-5 0.0
0.0013609534196458457 -3.618404099420933e-5 0.0
0.0014000000003708771 -5.939044101637876e-13 0.0
0.0013999999967139447 -4.600892575474666e-12 0.0
0.0013999999990038923 1.2313802256874678e-13 0.0
0.001399999998359811 -2.952323520547979e-13 0.0
0.001399999998741651 2.2982980604329434e-13 0.0
0.0013999999987476558 4.778260428009594e-13 0.0
0.001399999998773529 5.269189083145679e-13 0.0
0.00139999999891358 6.109425823549961e-13 0.0
0.0013999999989528517 6.918649319353917e-13 0.0
0.0013999999990487063 7.569041620393012e-13 0.0
0.0013999999991032232 8.342365582706179e-13 0.0
0.0013999999991494937 9.678302982547098e-13 0.0
0.001399999999141197 1.0650181731204235e-12 0.0
0.0013999999991447024 1.176117719554897e-12 0.0
0.0013999999991294824 1.2692237128066223e-12 0.0
0.0013999999991207393 1.3611325088073857e-12 0.0
0.0013999999990936326 1.4232102917847129e-12 0.0
0.0013999999991010838 1.5238104327885537e-12 0.0
0.0013999999991204722 1.5866449652722534e-12 0.0
0.0013999999991500063 1.562978286721791e-12 0.0
0.001399999999213049 1.5158229719645588e-12 0.0
0.0013999999992367017 1.401866477552469e-12 0.0
0.0013999999994378587 1.3559680820471414e-12 0.0
0.0013999999996597743 1.4776345794210855e-12 0.0
0.0013999999997380526 1.1217519410300884e-12 0.0
0.0013172019342729971 2.1658927281816624e-5 0.0
0.0012393148577334785 2.599589233606066e-5 0.0
0.0011621394389681216 1.760724939060938e-5 0.0
0.0010963913045236137 1.0638818890367302e-5 0.0
0.0010480153220001037 -2.8268593903603604e-5 0.0
0.0010430823645645015 -5.445797276395788e-5 0.0
0.0010400910943345423 -8.40063944920142e-5 0.0
0.001032600462187474 -0.0001039077717992423 0.0
0.0010219146939373315 -0.00011794532044829935 0.0
0.0010077319235036498 -0.00012652758208146176 0.0
0.0009905469738688078 -0.0001308113689451831 0.0
0.0009709138655671106 -0.00012832826169586228 0.0
0.0009488674999571368 -0.0001219422179255447 0.0
0.0009244355530047663 -0.00011211411730944389 0.0
0.0008962385374031421 -9.946958701860822e-5 0.0
0.0008629233789613423 -8.35396671895831e-5 0.0
0.0007855752977502862 -1.6520262654864232e-5 0.0
0.0007645145113713295 5.084801264236351e-6 0.0
0.0007460425474269378 2.2688476570214705e-5 0.0
0.0007288994178233423 4.001200345974749e-5 0.0
0.000712369308206816 5.72106238184344e-5 0.0
0.0006976324171690519 7.494821723685147e-5 0.0
0.0006842653487141181 9.369516354463472e-5 0.0
0.0006730313884076497 0.00011185459868712049 0.0
0.0006658110195062505 0.0001358557593145617 0.0
0.0006602743708606245 0.00016268934042069856 0.0
0.0006634074462136988 0.00020166453240796488 0.0
0.0006624176728751445 0.00024689653301383167 0.0
0.000593270438623233 0.00031479787708216115 0.0
0.0005003588168874903 0.0003089563173683617 0.0
0.000394597303148946 0.00027372673470114103 0.0
0.00025947510828936966 0.0001931151778340578 0.0
0.0003730588690420415 -0.000125073445376822 0.0
0.0009407989910169603 -0.00019338200759401594 0.0
0.00046071606196675867 -0.00014173179281334866 0.0
0.0008367215565859104 -0.00019577444504873963 0.0
0.0005588152074070988 -0.00017120786080729476 0.0
0.0007192181944615845 -0.00019099508331952287 0.0
0.0006297949374279622 -0.0001834032419894207 0.0
0.0010222341560865186 -0.00019099127326872197 0.0
0.0003008670709126812 -0.00010738822520065718 0.0
0.0010756110537849556 -0.00018058114732199016 0.0
0.00023910352084140213 -8.75581951297778e-5 0.0
2.7104238727287257e-5 -6.429404883129999e-6 0.0
0.0013641515972983892 1.0684086730029047e-6 0.0
0.0008471500775741854 -5.6031914131627e-5 0.0
0.0009445155684002467 -0.00011379309028999544 0.0
0.0007567783495962976 -2.4133393391462767e-5 0.0
0.000692093584659254 5.559814985839974e-5 0.0
0.0011414598882566345 -0.0001627853898422552 0.0
0.00018068384565310215 -6.717179856583569e-5 0.0
2.1588987514375283e-5 -5.227188149335712e-6 0.0
0.001374691099637561 -7.103340664423578e-7 0.0
0.0013494632846517678 2.4504537618229043e-6 0.0
3.111391750334539e-5 -4.21640319285859e-6 0.0
0.0011977861542423435 -0.00013437795566852853 0.0
0.0001300875891484346 -4.840036784337579e-5 0.0
0.0010062421784093085 -0.00011253290513720645 0.0
0.0006443640209297084 0.00010610347842870142 0.0
1.6967333360263603e-5 -4.002887106042439e-6 0.0
0.0013785727474084882 -1.2929886290748848e-6 0.0
0.0005221026341479287 -0.00015714499030057262 0.0
0.0005933533579377954 -0.00017879640734667053 0.0
0.0007864341858651027 -0.0001937414932701624 0.0
0.0006670474248735498 -0.00018786341674199416 0.0
0.0008817681982046903 -0.00019604618697474768 0.0
0.0009812555925862022 -0.00019268176370494967 0.0
0.00042555468855775327 -0.0001356875926358411 0.0
0.0003375198384732582 -0.00011759981057604244 0.0
0.0012428432142070718 -0.00010740153315550729 0.0
9.172668550828478e-5 -3.3988426173959235e-5 0.0
0.00134177975365793 2.5187378285919775e-6 0.0
4.26266134450081e-5 2.83683096329073e-7 0.0
0.0013818404375701256 -1.883855067112477e-6 0.0
1.5640933048764363e-5 -3.6722132925089606e-6 0.0
0.001042820741087059 -8.813405549203037e-5 0.0
0.000625756616170272 0.00014894718663735062 0.0
0.001328542590974536 1.6735550686787805e-6 0.0
7.000380603879603e-5 3.53818445449056e-6 0.0
2.4738492731967782e-5 -6.0236228700853356e-6 0.0
0.0013696563811294706 1.5820812932928504e-7 0.0
0.0008978401634717505 -9.294410422975765e-5 0.0
0.000726413694700296 2.0434111700893064e-5 0.0
5.091613901062466e-5 -1.7700362933711086e-5 0.0
0.0013061432719363338 -6.22834697658637e-5 0.0
0.0009098719083739497 -0.00019638907901668338 0.0
0.000692385594043917 -0.00019049055192779923 0.0
0.0004935517340969542 -0.0001488346703207785 0.0
0.0003991789192385588 -0.00013133759990712697 0.0
0.0007526573509054087 -0.00019213370410167848 0.0
0.0010423815703673926 -0.0001895306206324394 0.0
0.00027638125325675446 -9.984392051184032e-5 0.0
0.0011027342073179763 -0.00017615033226016009 0.0
0.0002132669817303261 -7.828547685021612e-5 0.0
0.00015422843336417196 -5.7490355445057414e-5 0.0
0.0011689595266337043 -0.00014897944184083655 0.0
0.00043211387942308836 0.00017423268249518024 0.0
0.0011841731234269897 -5.670935213395673e-6 0.0
0.0013815376212227444 -4.5614403340498894e-6 0.0
1.293999063309199e-5 -3.2730483048443946e-6 0.0
0.0006176318225807725 0.00021704732209802658 0.0
0.0010633945120111154 -4.000651343778827e-5 0.0
9.458767081515299e-5 1.3278236921194125e-5 0.0
0.001339082698275807 3.108447523487273e-6 0.0
2.2214585281509643e-5 -7.0531575955069315e-6 0.0
0.0013564933612113255 -2.5126425130022626e-5 0.0
0.0011244169144715343 -1.1892337442359348e-5 0.0
0.0011336063755399317 -2.4968422997339608e-5 0.0
0.0012015268048543271 -1.1501120141347155e-5 0.0
0.0011477593286825846 -2.395266622983526e-5 0.0
0.0010950462548743487 -4.358390303423883e-5 0.0
0.0010986448038391569 -3.714035248651314e-5 0.0
0.0011524787966212366 -1.9853733386353255e-5 0.0
0.00110430358703857 -2.676591520411486e-5 0.0
0.0011611030748513557 -1.3650100392555586e-5 0.0
0.001115174914773961 -1.682748334160357e-5 0.0
0.0010637080431894904 -3.0085347168738846e-5 0.0
0.0010726927234685271 -1.784576634922497e-5 0.0
0.001029337954851754 -2.8867018558158414e-5 0.0
0.0010358242114928008 -1.688729345249644e-5 0.0
0.0009979252659066294 -2.5783419338161668e-5 0.0
0.0010039210279628983 -1.3456567417711215e-5 0.0
0.0008339241076482767 -4.9412649510986465e-5 0.0
0.0008020268963049869 -5.672273531402379e-5 0.0
0.0008181697518849268 -4.9876971749446774e-5 0.0
0.0007905275427340177 -5.788407786088508e-5 0.0
0.000804953836213938 -5.1434356844249587e-5 0.0
0.0007805097325218034 -5.8103126191301924e-5 0.0
0.0007929140493610562 -5.139324494595832e-5 0.0
0.0007705277025110168 -5.769313991473566e-5 0.0
0.000781762451514638 -5.125239668081879e-5 0.0
0.0007607119504117827 -5.7705952912277925e-5 0.0
0.0007714959986704484 -5.156151166849034e-5 0.0
0.0007515948862402658 -5.739496280668077e-5 0.0
0.0007620674108882317 -5.1720067543690895e-5 0.0
0.0007435045228140511 -5.657425531088648e-5 0.0
0.0007533962886574099 -5.1129936911578625e-5 0.0
0.0007353788419697149 -5.576221153097467e-5 0.0
0.0007453477190855901 -5.080236829347755e-5 0.0
0.0007272517163540172 -5.5528071783222515e-5 0.0
0.0007377659190642591 -5.079118755345785e-5 0.0
0.000720237060746845 -5.472837013155996e-5 0.0
0.0007308352768487735 -5.03342109471254e-5 0.0
0.0007137118309882846 -5.402598012661827e-5 0.0
0.0007238716116630082 -5.0054090485004315e-5 0.0
0.0007073982696763022 -5.362326881275794e-5 0.0
0.0007176278092799786 -5.006901501287828e-5 0.0
0.0007018586036917586 -5.344181624211753e-5 0.0
0.0007117281894593004 -5.01285239840361e-5 0.0
0.0006958035181369819 -5.365440094004551e-5 0.0
0.0007059495932827183 -5.050282047251918e-5 0.0
0.0006869881226098711 -5.4709997634122354e-5 0.0
0.0007012687527573959 -5.097565953234497e-5 0.0
0.000684831105862221 -5.420075154681161e-5 0.0
0.0006962114203862125 -5.157587203171529e-5 0.0
0.0006804524714259925 -5.473355448252834e-5 0.0
0.0006915532227044217 -5.247550232356771e-5 0.0
0.0006767410066265209 -5.5419410955231995e-5 0.0
0.0006870439411589842 -5.3564391399640926e-5 0.0
0.000672575741469703 -5.640574516436283e-5 0.0
0.0007454067941630911 -6.248686854072533e-5 0.0
0.0006827464046854071 -5.487466061233447e-5 0.0
0.0007087150535279752 -5.9111878382754455e-5 0.0
0.000670237607234102 -5.743230987505304e-5 0.0
0.0006676581821193488 -5.783859965719414e-5 0.0
0.0006785619572050083 -5.646563094954191e-5 0.0
0.000662872491354654 -5.951912270622207e-5 0.0
0.000652400001955539 -6.0629919193501816e-5 0.0
0.0006472494653321137 -6.233506096349405e-5 0.0
0.0006738645843336479 -5.8420650079612096e-5 0.0
0.0006898280427473761 -5.518875325637294e-5 0.0
0.000711525613220491 -4.847179681827967e-5 0.0
0.00068529758373778 -5.7410619658829e-5 0.0
0.0007024631313321592 -5.376474813094758e-5 0.0
0.0006973180200463226 -5.649735012736844e-5 0.0
0.0006368716572627791 -6.328732319260096e-5 0.0
0.000632430888305575 -6.480965072743073e-5 0.0
0.0007151793093395262 -5.2578068481944186e-5 0.0
0.0006211235355835829 -6.572111285136874e-5 0.0
0.0006174860316587294 -6.71434304950845e-5 0.0
0.0007104389776620225 -5.5549238335416344e-5 0.0
0.0007277065867287791 -5.1777233547454964e-5 0.0
0.0006051381649156834 -6.797184047868528e-5 0.0
0.0006012459608780963 -6.937028656270226e-5 0.0
0.0007235107262194043 -5.492899396067784e-5 0.0
0.0007414097673853987 -5.096893641605532e-5 0.0
0.0005890556605881069 -6.994881718388403e-5 0.0
0.0005849840277234989 -7.147181992121237e-5 0.0
0.0007371974396300387 -5.4525994936564604e-5 0.0
0.0007558288310703363 -5.031289260650695e-5 0.0
0.0005729449570680268 -7.173831331243482e-5 0.0
0.0005679566911436212 -7.326798051904096e-5 0.0
0.0007519385221532354 -5.4185002918520355e-5 0.0
0.000770877317090819 -4.985632930229449e-5 0.0
0.000555082370432369 -7.331423485845257e-5 0.0
0.0005504982461228216 -7.482155254157831e-5 0.0
0.0005361152193984741 -7.469596110933288e-5 0.0
0.000540948973562404 -7.341399089482086e-5 0.0
0.0007319481921350854 -5.833376616190254e-5 0.0
0.0007670281231246052 -5.415282406365422e-5 0.0
0.0007866163162027196 -4.965339189323748e-5 0.0
0.0007908676406407256 -4.5118730698990746e-5 0.0
0.0007393124166064115 -4.64109455961311e-5 0.0
0.000807481691587081 -4.4813648736036576e-5 0.0
0.0008119682770654828 -4.006046845384639e-5 0.0
0.000829350972815461 -3.959759294392143e-5 0.0
0.0005328966716626479 -7.629873225355749e-5 0.0
0.0005174932905538477 -7.579139513626379e-5 0.0
0.0005471119625039883 -7.673803347930195e-5 0.0
0.0007823559242347905 -5.449721120303811e-5 0.0
0.0005146109347725969 -7.745521705277857e-5 0.0
0.0004985387364885423 -7.666113646380159e-5 0.0
0.0007709978353699439 -4.5904698903096393e-5 0.0
0.0004958747991839622 -7.81999145253316e-5 0.0
0.00047940228978349817 -7.716054308824666e-5 0.0
0.0004769206884348635 -7.87514212279724e-5 0.0
0.0004606291060957018 -7.73600808406008e-5 0.0
0.0004626581622443611 -7.605113024290302e-5 0.0
0.0004422968205636881 -7.603857663401668e-5 0.0
0.0004446309484830385 -7.476744235906509e-5 0.0
0.0004561457088957915 -7.897632067754284e-5 0.0
0.00042240172712893154 -7.434463841450849e-5 0.0
0.0004245274502074166 -7.32577163841985e-5 0.0
0.00047469465636402667 -8.076465599384972e-5 0.0
0.0004568964250643824 -8.125856020344818e-5 0.0
0.00040260997244265684 -7.235800504346273e-5 0.0
0.0004036822721656218 -7.134243069698244e-5 0.0
0.0008342894961093924 -3.484508428313037e-5 0.0
0.0008525433740537402 -3.4322916003727894e-5 0.0
0.0004726099855116028 -8.31567021175678e-5 0.0
0.0004552092137096142 -8.363129633430662e-5 0.0
0.0008576425125380352 -2.9478550672027347e-5 0.0
0.0008769606105808401 -2.8987933019978574e-5 0.0
0.0008710506039796885 -3.4693435159231486e-5 0.0
0.0008959725689967975 -2.9111631892174896e-5 0.0
0.0008906792619171261 -3.535287810819397e-5 0.0
0.0009161190354059644 -2.9343545015660695e-5 0.0
0.0009122603822775788 -3.592454007634137e-5 0.0
0.0009390777283556785 -2.920262439945826e-5 0.0
0.0009332217987827011 -3.637074470273952e-5 0.0
0.000942668763065761 -2.3263285047457024e-5 0.0
0.0009608096855607301 -2.9710425419296983e-5 0.0
0.0009538085736498305 -3.740528591011611e-5 0.0
0.00047092439566843156 -8.58584088987182e-5 0.0
0.00038017337556633403 -6.995302407788733e-5 0.0
0.0003804941121732152 -6.881180408853129e-5 0.0
0.0009282682859118567 -4.46880381512243e-5 0.0
0.0009481888973282756 -4.6157047375730724e-5 0.0
0.0009738178238097128 -3.861969482687273e-5 0.0
0.0009244988291647381 -5.382717367819484e-5 0.0
0.00045405657417710234 -8.63422791143431e-5 0.0
0.0009683744266441694 -4.797547312231331e-5 0.0
0.0009939082930366973 -4.000041795853426e-5 0.0
0.00046937199760355505 -8.889831029798623e-5 0.0
0.0004529270574188606 -8.942863098498435e-5 0.0
0.00043791422526321435 -8.662608991459264e-5 0.0
0.0009884796523127225 -5.01189835243564e-5 0.0
0.001014051241850803 -4.154284397434125e-5 0.0
0.00046792413449927515 -9.232096378371992e-5 0.0
0.000484197159022889 -9.163775183568073e-5 0.0
0.00043709090283689997 -8.975845150972771e-5 0.0
0.0004221181075676956 -8.67016570992523e-5 0.0
0.0010078246127121463 -5.2473818231849236e-5 0.0
0.0010345122735460697 -4.322164720875587e-5 0.0
0.001040411666654422 -3.343485906689403e-5 0.0
0.0009825891071634865 -6.140943201866686e-5 0.0
0.0010613266555633365 -3.449578766113739e-5 0.0
0.0010676937863288536 -2.6218226175672157e-5 0.0
0.0003549734197121939 -6.689828778210972e-5 0.0
0.0003562454607682936 -6.575798215685621e-5 0.0
0.000387188959102404 -6.811627979996417e-5 0.0
0.00035655472709511727 -6.428393340841785e-5 0.0
0.0003868902222419219 -6.653200035782742e-5 0.0
0.0003562246377820786 -6.232070720209859e-5 0.0
0.00038629656275025796 -6.431423819430455e-5 0.0
0.00048280536790368034 -9.532497321919524e-5 0.0
0.0004985880990460964 -9.449875675218858e-5 0.0
0.0004215402171354831 -8.98864701550183e-5 0.0
0.0004064489404635944 -8.655497629755186e-5 0.0
0.0010549643717231005 -4.510347571436234e-5 0.0
0.0003587485007682009 -5.9744217591614935e-5 0.0
0.0003876737983176562 -6.15196925500687e-5 0.0
0.0004973865040962675 -9.846221108474347e-5 0.0
0.0005124497881557273 -9.754777812000774e-5 0.0
0.0006003324644609313 -7.073976929432349e-5 0.0
0.001082111566470795 -3.565406511296834e-5 0.0
0.0008122241359525825 -4.3952084744443425e-5 0.0
0.0008535236493021631 -4.7452057787038425e-5 0.0
0.0006905044416925449 -5.6910245485264775e-5 0.0
0.0008810159899859775 -2.4298234727286758e-5 0.0
0.0003566498319803424 -5.560809176609477e-5 0.0
0.00039113887952360707 -5.7425553520295307e-5 0.0
0.0004061266427304946 -8.98147248730258e-5 0.0
0.00039098869228560974 -8.625522648363495e-5 0.0
0.0005116447087377436 -0.00010180685368610407 0.0
0.0005260499832582514 -0.00010075990463004136 0.0
0.0010750063325263009 -4.668385693544313e-5 0.0
0.00032939335743366446 -6.334155277279993e-5 0.0
0.00032924511138384554 -6.460508180024677e-5 0.0
0.0003226076035981765 -5.680391729241566e-5 0.0
0.001102640456533392 -3.666695568899748e-5 0.0
0.0003565294676566596 -4.99006561146046e-5 0.0
0.00039171584402612004 -5.098202481790448e-5 0.0
0.0004967856063405285 -0.00010281440152376188 0.0
0.0003909788402904857 -8.961453728622036e-5 0.0
0.00037567558930550805 -8.57712922143866e-5 0.0
0.0008621136650658131 -2.5185278137525412e-5 0.0
0.0008862041007534048 -2.0024540181370178e-5 0.0
0.0008665109312730343 -2.1302960597915506e-5 0.0
0.0008914825577231045 -1.6110448940206076e-5 0.0
0.0005251562774722932 -0.00010523385257578848 0.0
0.0005393009969302389 -0.00010392687766100444 0.0
0.0005936947874698833 -6.881156371887932e-5 0.0
0.00035567563230201225 -4.2303990301316026e-5 0.0
0.00039028351300978087 -4.215812110651144e-5 0.0
0.001095621089172509 -4.811473827090925e-5 0.0
0.001070737086669811 -5.841404634352485e-5 0.0
0.00034637924082172976 -3.080559145455622e-5 0.0
0.00038701684484718365 -2.9878450150646e-5 0.0
0.0011229500948036612 -3.7801386407094194e-5 0.0
0.0011265726458476696 -3.0244774093475017e-5 0.0
0.00034932239969285027 -1.8503240885897603e-5 0.0
0.0004054640186645511 -9.371761722815644e-5 0.0
0.0005382324900252919 -0.00010874801001383607 0.0
0.0005521375272333879 -0.00010716636827522593 0.0
0.0005534366413661347 -0.00010236397215625813 0.0
0.0005661519112446492 -0.00010544221619569951 0.0
0.0005675837007674887 -0.0001006715546725181 0.0
0.0005802331932664066 -0.00010357966846833447 0.0
0.0005817663834167759 -9.876414116047921e-5 0.0
0.0005944764075580001 -0.00010154439977021391 0.0
0.0005961524724407134 -9.670351284711574e-5 0.0
0.0006088615022271247 -9.931335868754336e-5 0.0
0.0006073247657947927 -0.00010452244510213715 0.0
0.0006215335979317672 -0.00010214064154492325 0.0
0.0006200739901279517 -0.00010768002839292805 0.0
0.0006341587515346707 -0.00010513870997129678 0.0
0.0006326745522412238 -0.00011102258022746847 0.0
0.000646859796050576 -0.00010829897521418385 0.0
0.0006107318285437413 -9.445136800799496e-5 0.0
0.0006484340064569663 -0.00010236994759266629 0.0
0.0006613232344679677 -0.00010532699877829083 0.0
0.0006596484642759703 -0.00011170647566893476 0.0
0.0006743639924269992 -0.00010856842243580692 0.0
0.00030283723342203563 -6.05494117763334e-5 0.0
0.00030287334428274657 -6.183713232930646e-5 0.0
0.00037588272795344976 -8.914026608881635e-5 0.0
0.0003606531393240344 -8.510459488970641e-5 0.0
0.0006763053042041783 -0.00010215347674911765 0.0
0.0006895431756080305 -0.00010515145914407259 0.0
0.0006875183906295807 -0.00011194500604576832 0.0
0.0007032336159221495 -0.00010833775447704378 0.0
0.0002768187218006841 -5.743253315371737e-5 0.0
0.00027715348854525734 -5.8752310811657034e-5 0.0
0.0008713010384217181 -1.766979586876329e-5 0.0
0.0008972166735870062 -1.255500554391844e-5 0.0
0.0008767625396332099 -1.4362384655249673e-5 0.0
0.001116341590517795 -4.900224863938306e-5 0.0
0.001142913283126256 -3.8506329648328186e-5 0.0
0.0005510848930075344 -0.00011234869379431191 0.0
0.0004245813521073134 -6.416946043180266e-5 0.0
0.0006937700519145841 -5.9021996154720143e-5 0.0
0.0007011072137967957 -0.00011549303401168877 0.0
0.0007172718234884637 -0.0001117515857439246 0.0
0.0007192004466795802 -0.00010446032291233134 0.0
0.0007340477504508191 -0.00010771349071320988 0.0
0.0007331990835013993 -4.8511807685297486e-5 0.0
0.0009041233576888501 -8.985500881868708e-6 0.0
0.0009230828373904414 -8.183849036990095e-6 0.0
0.0003867602274400314 -1.4874736254550455e-5 0.0
0.00036090228944090627 -8.85025704586597e-5 0.0
0.00034576622313993796 -8.426047657030927e-5 0.0
0.0008828809362017725 -1.1100532273672499e-5 0.0
0.0007319448330286357 -0.00011544933913421642 0.0
0.0007495993864375142 -0.00011153142186077547 0.0
0.0007517013660787425 -0.00010357012465521836 0.0
0.0007681418633137184 -0.00010748371779029423 0.0
0.000770599458117119 -9.9511912232872e-5 0.0
0.0007872061101778004 -0.00010326036604567826 0.0
0.0007848070299991331 -0.00011164185141130777 0.0
0.0008039678320504632 -0.00010738071236011432 0.0
0.0003473804604281376 -4.29094188330484e-6 0.0
0.0002516120793410054 -5.4075303804949744e-5 0.0
0.0002520516798771082 -5.533983886258953e-5 0.0
0.0005376180522212009 -0.00011395368257784223 0.0
0.0011351395227635756 -5.0752814299072824e-5 0.0
0.001162134713255373 -3.9120558067869014e-5 0.0
0.0008016338917236134 -0.0001161225298644567 0.0
0.000820604927522136 -0.00011186271856797242 0.0
0.0003876082662991462 1.741692186222729e-6 0.0
0.00034629262682873334 -8.769612247377013e-5 0.0
0.00033093399815845004 -8.320133557091313e-5 0.0
0.0004264683175708756 -4.183801086992623e-5 0.0
0.0010439410011239578 -7.17894345284698e-6 0.0
0.0005501738479493599 -0.00011784929023619897 0.0
0.00034732942601948315 1.0223909121439739e-5 0.0
0.000324082789254382 -4.245123177152799e-5 0.0
0.0011514237522681097 -5.5026148118448216e-5 0.0
0.0011805800531717982 -3.9964844756628166e-5 0.0
0.0011885819852712897 -2.970464919712767e-5 0.0
0.00030955075699339794 -9.348398726787215e-6 0.0
0.0011233544409075008 -6.611071082234317e-5 0.0
0.00024926559341556124 -5.2500804891578425e-5 0.0
0.00036013863616373717 -9.186933867326863e-5 0.0
0.0009106658911338105 -5.630140379081133e-6 0.0
0.0008893746253015816 -7.889587536716824e-6 0.0
0.0007900861423104678 -9.518922671450362e-5 0.0
0.00033170706989627224 -8.676691645217209e-5 0.0
0.00031621572986143285 -8.200870881730261e-5 0.0
0.00022714058592691262 -5.045292480098866e-5 0.0
0.00022764830819443265 -5.158477552775295e-5 0.0
0.00039118953989731887 -8.332476911069328e-5 0.0
0.0008184072903721307 -0.00012095428133762417 0.0
0.0008369121283695465 -0.00011657373245006543 0.0
0.0003153913362145954 -7.870507750983643e-5 0.0
0.00030042840320015457 -7.725468982374258e-5 0.0
0.0008004996533200966 -0.000124567880248818 0.0
0.0005372090433542588 -0.00011948177300159762 0.0
0.000301649599095174 -8.061986977372638e-5 0.0
0.00028575516791491776 -7.564581996788066e-5 0.0
0.0005688841395008937 -9.630396875430493e-5 0.0
0.0012073073378199297 -2.9532376140953848e-5 0.0
0.0012149286744007944 -2.2214128375483703e-5 0.0
0.0011987961511400495 -3.9536440756965595e-5 0.0
0.0008347302609369977 -0.00012583615749005276 0.0
0.0008527871132935222 -0.0001213921879117428 0.0
0.0007732980519000746 -9.184189322330466e-5 0.0
0.0007931587929763564 -8.744157217633473e-5 0.0
0.0005495233278114956 -0.00012365476444448103 0.0
0.000855126767859678 -0.00011184381300862228 0.0
0.000870863547826038 -0.00011675656374405368 0.0
0.00020318322173488562 -4.642739067067704e-5 0.0
0.00020479777056380108 -4.773155877241512e-5 0.0
0.0008687090385260009 -0.0001267868977034965 0.0
0.0008862563062486458 -0.00012197490096624438 0.0
0.00028754772255598914 -7.909769860201632e-5 0.0
0.000271472591530554 -7.389691581767326e-5 0.0
0.0009168471710493763 -2.7194276766266123e-6 0.0
0.0008959406017930192 -4.853227384669246e-6 0.0
0.0002694707770598836 -7.073570004216578e-5 0.0
0.00025501337048087727 -6.872693501911913e-5 0.0
0.00025698652453723814 -7.189390717222749e-5 0.0
0.00024047660745389675 -6.650685834322715e-5 0.0
0.0012249479167802525 -2.8594570360179904e-5 0.0
0.0012154387395515915 -3.889506364377936e-5 0.0
0.0003884281503466943 1.839755950305157e-5 0.0
0.0003457589831625294 2.5071357992901658e-5 0.0
0.0008574244534497326 -1.6578506781604216e-5 0.0
0.000536917490602222 -0.000125285892476899 0.0
0.00088423681240592 -0.00013245696076078403 0.0
0.000901359643587856 -0.0001273350933849717 0.0
0.0009690466618596575 -2.148703571151067e-5 0.0
0.0008735068733129048 -0.00010679733047680227 0.0
0.0006188634137364347 -0.00011356979737346505 0.0
0.00023798199176441317 -6.358713445355331e-5 0.0
0.00022378680655410485 -6.115186270213503e-5 0.0
0.00022636693963200727 -6.420293723561094e-5 0.0
0.00020948803283547023 -5.859573655291333e-5 0.0
0.00020682614736469574 -5.5859320873419627e-5 0.0
0.00019198099208884748 -5.297346736675029e-5 0.0
0.00018913165904756266 -5.042621865650747e-5 0.0
0.00017395468182614145 -4.7223460574006815e-5 0.0
0.00017100854052702353 -4.501768839710211e-5 0.0
0.00015655275619986292 -4.1778852699299765e-5 0.0
0.00015317582971897438 -3.9803057496180104e-5 0.0
0.0001592711583190623 -4.388310096329578e-5 0.0
0.00014020961983504004 -3.769129138446452e-5 0.0
0.0001807694139533916 -4.236416106906616e-5 0.0
0.00018009388290840346 -4.1394956854334885e-5 0.0
0.00014458752589537692 -4.0353850809447036e-5 0.0
0.00012694548826856756 -3.4551751510892465e-5 0.0
0.0004292393030961875 7.665437604778603e-6 0.0
0.00044370507341236264 -7.356230880351028e-5 0.0
0.00077642448282989 -8.455107042989076e-5 0.0
0.0007962903463803698 -8.002804605080252e-5 0.0
0.0002758070588297558 -5.9799085658089835e-5 0.0
0.0005489904261185498 -0.00012978988336300492 0.0
0.0005618490052266367 -0.0001280548776160172 0.0
0.0008133390614266052 -8.286362578866237e-5 0.0
0.0008166002795476496 -7.519237199990926e-5 0.0
0.001241816301675363 -2.7029502406865898e-5 0.0
0.0012304018627353722 -3.806630100147328e-5 0.0
0.0012041276159753197 -5.3700796778377825e-5 0.0
0.0008692712075452471 -1.0826085426578434e-5 0.0
0.0008766126990957472 -7.753375797395337e-6 0.0
0.0005247202933120367 -0.00012093621298577632 0.0
0.0005246006903403543 -0.0001266678931172965 0.0
0.0005122884744554874 -0.00012221110967614406 0.0
0.000212844805623144 -6.1859236761758e-5 0.0
0.0009020616400131141 -2.613864962815144e-6 0.0
0.0008836416821482367 -5.493957117400635e-6 0.0
0.00040035967569442444 -7.355861037214497e-5 0.0
0.0008990719723024191 -0.00013800059078665397 0.0
0.0009163566385149401 -0.0001327640598128842 0.0
0.0009190557709168449 -0.00012207595694692575 0.0
0.0009339563702380213 -0.00012736547391548007 0.0
0.0004027540287247009 3.606282975331077e-5 0.0
0.0003527854023918587 4.0218614843251196e-5 0.0
0.0005131771652619715 -9.371200658377365e-5 0.0
0.0008825705747464282 -0.00014296358186497506 0.0
0.0011242223079267885 -8.032594156342538e-6 0.0
0.0009312614991638315 -0.0001385915611060916 0.0
0.0009489266766590257 -0.00013312943149690126 0.0
0.0009517779994338758 -0.00012159450908744694 0.0
0.0009667391874613085 -0.0001273355890601664 0.0
0.0009701039584426003 -0.00011529596466050958 0.0
0.0009844608403446898 -0.00012093827609985835 0.0
0.0009810888025251212 -0.00013342919347629972 0.0
0.0009982388644786426 -0.00012688172010607643 0.0
0.00013036822570951798 -3.660250015775598e-5 0.0
0.00011294374330125448 -3.0798486702331546e-5 0.0
0.00010711523615409112 -2.833358539056795e-5 0.0
0.000561550531484922 -0.00013456826644892846 0.0
0.0005736981752859642 -0.00013306182492134626 0.0
0.0005124583167267361 -0.00012782425492702536 0.0
0.0004994928774773434 -0.00012322376496293473 0.0
0.001217427653082618 -5.384637439223424e-5 0.0
0.001244143374639987 -3.7403578729918806e-5 0.0
0.0009673726621871401 -3.572556627742966e-5 0.0
0.0009416199645741834 -3.0351088405399945e-5 0.0
0.00030125830856275406 2.745332629049334e-5 0.0
0.000309299554206199 4.0044914152316736e-5 0.0
0.00014810155879108148 -4.295986661554298e-5 0.0
0.0004904785155391371 -8.247918438143631e-5 0.0
0.0008429591221172918 -2.3776833503624326e-5 0.0
0.0011922485655808171 -7.078356836509685e-5 0.0
0.00041573737032893885 -6.787783417621554e-5 0.0
0.0008508264149065501 -1.462757083278965e-5 0.0
0.000994432684672529 -0.00013974231021235886 0.0
0.0010111421821631327 -0.00013304153967746206 0.0
0.001006963896771531 -4.847225855077935e-6 0.0
0.0010541479307263181 -6.325801080093681e-7 0.0
0.00040692437895088274 5.5290940294970495e-5 0.0
0.00022774805093348413 -5.27923101057595e-5 0.0
0.00015492050652358337 -3.654078806596429e-5 0.0
0.0001542583726473983 -3.5724083122920845e-5 0.0
0.00022896408961262481 -6.764843962824893e-5 0.0
0.0009473648800604892 -0.00014500289676917534 0.0
0.0007623493164240673 -5.8799337829275504e-5 0.0
0.0006859198393333525 -0.00011909806493659358 0.0
0.00046750448922796737 -9.590186186103667e-5 0.0
0.00011637165655880426 -3.29096493041766e-5 0.0
9.930010004657426e-5 -2.713506159610613e-5 0.0
0.00030339763945984197 -8.433314487585424e-5 0.0
0.0008339462765020011 -7.796079452467793e-5 0.0
0.000837369293286336 -7.004360189926172e-5 0.0
0.0005241936493612548 -0.00013254403410391697 0.0
0.0010247446881913398 9.89226048712939e-7 0.0
0.00106657232680884 3.3067350304991547e-6 0.0
0.0010392258761486655 4.269158703155234e-6 0.0
0.0010807661096991687 5.7078895803430415e-6 0.0
0.001109033538264364 5.023007848279952e-6 0.0
0.0011238402372283404 6.625643627227571e-6 0.0
0.0010952979077160049 6.857010585110119e-6 0.0
0.0011378420460078451 7.191828504229081e-6 0.0
0.0011095059048999967 6.840334910498101e-6 0.0
0.0011519235198507978 6.9253447468858075e-6 0.0
0.0011241368328349971 5.85897448889024e-6 0.0
0.0011654844260120703 5.9384763318862e-6 0.0
0.0011381633360748095 4.230236250600664e-6 0.0
0.0011787313780805067 4.465297845966182e-6 0.0
0.0010965256798947203 3.677659433532491e-6 0.0
0.0011518546901785975 2.1135811626642073e-6 0.0
0.001190655320377686 2.468055872475415e-6 0.0
0.001154121213831094 6.032496151993279e-6 0.0
0.0002989691709915801 -7.414182522718035e-5 0.0
0.0002897270765371736 -8.287393027101918e-5 0.0
0.0003049809236301836 -8.823714839420047e-5 0.0
0.0011653123811272666 -3.3107126005378615e-7 0.0
0.0012027174553971784 2.4515476467648786e-7 0.0
0.0011293790800971707 -1.0328762021184567e-6 0.0
0.0006991746347051205 -0.00012294263537296064 0.0
0.0006842305949444274 -0.00012647786131731554 0.0
0.0006973260382807309 -0.0001305936255304417 0.0
0.0006828346123957493 -0.00013413894319811505 0.0
0.0006956531868774765 -0.00013852352884821583 0.0
0.0006817208771818439 -0.0001421575869159066 0.0
0.0006691906237754191 -0.00013766245675668723 0.0
0.0006683108657615127 -0.00014571405742329252 0.0
0.0006564668284485627 -0.00014102597822338793 0.0
0.0007608895676451239 -5.959346494020349e-5 0.0
0.0006942468980382871 -0.00014693501854781343 0.0
0.0007084577167568213 -0.0001431273039119529 0.0
0.0006272495113276811 -6.674877520465247e-5 0.0
0.0005979860661533651 -9.220018021616826e-5 0.0
0.0006128062563402663 -8.991145383874051e-5 0.0
0.0006000309122209565 -8.801271196516254e-5 0.0
0.000615089823581794 -8.569625594777109e-5 0.0
0.0006023074714736543 -8.414823396012876e-5 0.0
0.0006175931998164163 -8.181282092384527e-5 0.0
0.0006303609924897937 -8.318450000321728e-5 0.0
0.0006330828351132166 -7.927623332457547e-5 0.0
0.0006459087396897394 -8.04656477050225e-5 0.0
0.0006488326354821303 -7.650638216379366e-5 0.0
0.0006611666230386404 -7.75375356402514e-5 0.0
0.0006361548241031387 -7.556970377233051e-5 0.0
0.0006048285449987716 -8.060923355367778e-5 0.0
0.0005893671989361123 -8.277594652168237e-5 0.0
0.0006581918789572438 -8.193587816118635e-5 0.0
0.000674399020416358 -7.851028193708618e-5 0.0
0.00029192926290246685 -8.694836709390713e-5 0.0
0.0006650117788519494 -5.768279358040252e-5 0.0
0.0007294593682448941 -6.16163475780036e-5 0.0
0.0006918176488781106 -9.874458928622172e-5 0.0
0.0012506727137346458 -2.049045963899912e-5 0.0
0.0012673477540819263 -1.8612098423319148e-5 0.0
0.0007551225567332888 -4.6079854304963343e-5 0.0
0.0007282694327133811 -4.6551059315426616e-5 0.0
0.0009548785509688078 -0.00010991777061348238 0.0
0.0008232728158158298 -4.498742495174577e-5 0.0
0.0012313777966752365 -5.338897284188266e-5 0.0
0.0012575813254926502 -3.6784885979905305e-5 0.0
0.0007026717901584608 -5.0380014508538904e-5 0.0
0.0004998660404787051 -0.0001286342899038638 0.0
0.00048656343667105405 -0.0001240145449172758 0.0
0.0007899735123871112 -4.455990058137367e-5 0.0
0.000655627421044142 -0.00014916087950563517 0.0
0.0006439183177431578 -0.0001439226544032812 0.0
0.00048633505069072 -0.00011871787893888173 0.0
0.0004730782490834751 -0.00011945407666579376 0.0
0.00047294130585372526 -0.00011433173570107305 0.0
0.0004597670622318246 -0.0001150235053329276 0.0
0.0004601329126542318 -0.00012007241584595024 0.0
0.00044708535644868503 -0.00011565214593320094 0.0
0.00044753101866518125 -0.00012054482880735681 0.0
0.0004348133644811956 -0.0001161448642627788 0.0
0.00021632942897782212 -6.557101588150661e-5 0.0
0.0012759408500415824 -1.4174672131739233e-5 0.0
0.0009072768028751167 -2.257978004434305e-6 0.0
0.0008888272175606199 -5.0139186427931515e-6 0.0
0.0004416855444932126 -8.159322158561824e-5 0.0
0.0003620959289376746 -8.216586521588936e-5 0.0
0.00121591939745995 4.167531494143367e-6 0.0
0.0011951448556049144 6.565102797534831e-6 0.0
0.0005733707266088353 -0.0001397607217663718 0.0
0.0005856861940036455 -0.0001380989729661809 0.0
0.0008968820906290274 -0.00014855935073067268 0.0
0.00020535578619276798 -5.3550054061798435e-5 0.0
0.0007601316756824069 -4.675465329353918e-5 0.0
0.0008671050631128549 -8.999329906687905e-6 0.0
0.0008733068518877071 -8.80785195305717e-6 0.0
0.0009741997537159415 -0.00010306317825198938 0.0
0.0009990324395289603 -3.1501443068850626e-5 0.0
0.001015827050874902 -0.00011953341977293188 0.0
0.0010290444987340744 -0.0001251941216370028 0.0
0.00102354998143842 -0.00013942665844802622 0.0
0.0010418114780357704 -0.00013123353197538933 0.0
0.0006273043370104913 -6.428572592844387e-5 0.0
0.00023152084106173133 -7.144809905715397e-5 0.0
0.0006634842439150764 -7.353191672966212e-5 0.0
0.0010683876560133021 6.311813706983047e-6 0.0
0.0005766563808827928 -0.000126681669722864 0.0
0.0003064656287909992 -9.245584308157601e-5 0.0
0.00031941593639427254 -9.358817575255929e-5 0.0
0.0008810024238871899 -0.00015333173014732887 0.0
0.00045952698191791344 -0.0001101346215436244 0.0
0.0007796426457120406 -7.763746265800384e-5 0.0
0.0007601833358964433 -8.20589926791063e-5 0.0
0.0012445492981800206 -5.362040639787613e-5 0.0
0.001271603245281987 -3.590477849311293e-5 0.0
0.0012836510253047971 -2.318380085052852e-5 0.0
0.00045706720052835317 5.276081483652388e-5 0.0
0.00010273019163558376 -2.9132001857789914e-5 0.0
8.577500596682743e-5 -2.3323692766364165e-5 0.0
8.39860969553786e-5 -2.2215024511846796e-5 0.0
0.000944925591133042 -4.725027429839061e-5 0.0
0.0009696057724626137 -5.1360706281097046e-5 0.0
0.0009205778699986092 -4.045888700042281e-5 0.0
0.0009394693062785528 -1.052938485743561e-6 0.0
0.0011786593724632496 -2.8772137078129573e-6 0.0
0.0012158301339576362 -2.0334298211323505e-6 0.0
0.0004871048286528395 -0.00012913673839249482 0.0
0.0009137383070216575 -1.4740192198923448e-5 0.0
0.0002563705806674516 2.66103138013244e-5 0.0
0.00026291810595655907 3.5795855632577355e-5 0.0
0.00032262983557743987 5.2042441213024816e-5 0.0
0.0002717253335486814 4.304641341062406e-5 0.0
0.00035950425301142205 6.94682613326786e-5 0.0
0.0006435882963945948 -0.00013592746781838504 0.0
0.0004341315911088263 -0.0001113182223700609 0.0
0.000422148183531209 -0.00011172405535296515 0.0
0.0004228915145453557 -0.00011639575038355453 0.0
0.00041013837843480795 -0.00011191487369161367 0.0
0.0010476360967401272 -0.00011630070341659244 0.0
0.0010605063043103253 -0.00012199273715875488 0.0
0.0010542802614164017 -0.00013730621573646473 0.0
0.0010727287707854064 -0.0001275391059460877 0.0
0.0008199424492094974 -6.778783948402165e-5 0.0
0.0008410317654064886 -6.251002432914521e-5 0.0
0.0007071015394679098 -0.00015190653219051382 0.0
0.0007216045334840567 -0.00014794960552093266 0.0
0.0005919775551753868 -7.954232906472622e-5 0.0
0.0005762528966054719 -8.154122075890519e-5 0.0
0.0005598458930902768 -0.00014127123898814348 0.0
0.00041100768743366215 -0.00011637505100342289 0.0
0.0003982664257746238 -0.00011190330294116386 0.0
0.001179203603315077 -7.042931918555104e-5 0.0
0.0011678203939337983 -8.785503208973227e-5 0.0
0.0011556304973596085 -8.714130349650217e-5 0.0
0.0011470192497543908 -0.00010275407272329071 0.0
0.0005854578288558707 -0.00014582848986658032 0.0
0.00011815408688619508 -3.488886210379979e-5 0.0
0.00016893290913940775 -4.326360331357949e-5 0.0
0.00014869456479145327 -3.77201731263438e-5 0.0
0.00012780664624986122 -3.0327160668720407e-5 0.0
0.00012532812003622482 -2.928198708828425e-5 0.0
0.00015361328937022628 -3.474060879858269e-5 0.0
0.00012314530005108756 -2.7996912810080592e-5 0.0
0.0001525675528978621 -3.329626860848083e-5 0.0
0.0001206906572279799 -2.6227708846727522e-5 0.0
0.00015162935588319967 -3.1162536421503636e-5 0.0
0.0011804473670880978 -8.879195020032037e-5 0.0
0.00040881504448601186 -0.00010735567198306157 0.0
0.0009586412880848683 -9.843882203563339e-5 0.0
0.0008664949657096993 -0.0001472582681582258 0.0
0.0008654975222284395 -0.00015790678009305296 0.0
0.0008509868451295024 -0.00015188020077579634 0.0
0.0006434243946657535 -0.00015236358151986208 0.0
0.0009232200805148545 -3.006689171306281e-7 0.0
0.0010660483635779683 -0.00014308985824361688 0.0
0.0012988105326702277 -2.1058871828885317e-5 0.0
0.0012853665564921543 -3.426103438897635e-5 0.0
0.000464179048085147 7.29881166450488e-5 0.0
0.0009065251036646804 -4.504844312330489e-6 0.0
0.000678410014294135 -9.6130336586729e-5 0.0
0.0006939627178689708 -9.269018982244773e-5 0.0
0.0006679700166330658 -0.00015452391440801873 0.0
0.0006318626553566075 -0.00014680792206021647 0.0
0.00033093185051477245 -6.625617220310259e-5 0.0
0.0012392298161338724 5.699214913208106e-7 0.0
0.0012518031930035766 -1.3124495335135554e-6 0.0
0.0012277739553472966 -4.363194551467825e-6 0.0
0.0012625849792712604 -3.3661654795363407e-6 0.0
0.0010014785424015626 -6.42664937899614e-5 0.0
0.0007458936447904973 -0.00011975089630562989 0.0
0.0007634420043286312 -7.564657428586802e-5 0.0
0.0005794198001767763 -0.00010879609978099563 0.0
0.0008159170406541868 -3.58126030135573e-5 0.0
0.0008548080758571587 -7.27624339993532e-5 0.0
0.0008578484082850105 -0.00010257262573859486 0.0
0.0008766324570792519 -9.720413451329364e-5 0.0
0.0009510353045774632 -6.609794747197945e-5 0.0
0.0009779599981439404 -6.620476225675197e-5 0.0
0.00032064352503927666 -9.798381453431287e-5 0.0
0.0003328973339676789 -9.879173867202627e-5 0.0
0.00011807827632348913 -2.372180238701172e-5 0.0
0.00014924188441641482 -2.776325682503414e-5 0.0
0.00018353482088454822 -3.5425214518338965e-5 0.0
0.0001823673207812934 -3.105859552007504e-5 0.0
0.00014747833375020481 -2.3210769072813385e-5 0.0
0.0001822417139106456 -2.520218764904193e-5 0.0
0.00014642896291569923 -1.7428817662433705e-5 0.0
0.00018326369833767715 -1.7786327607400496e-5 0.0
0.00014586408130060348 -1.070983803861981e-5 0.0
8.93604039488108e-5 -2.538048430622399e-5 0.0
0.0007444422008709321 -7.994287279148747e-5 0.0
7.273584659033401e-5 -1.9632337131200802e-5 0.0
0.0002940581910503886 -9.14275422840288e-5 0.0
0.0012938733436135491 -1.215433028712769e-5 0.0
0.0006254924459445333 -9.200743844449256e-5 0.0
0.000853182417991012 -1.3952634183122657e-5 0.0
0.0008619729821052732 -1.3603030281573474e-5 0.0
0.0001844844212510139 -9.132788369201884e-6 0.0
0.00021955523738798673 -6.969893919371222e-5 0.0
0.00020451650138245735 -6.361480907499021e-5 0.0
0.00042370513069164476 -0.00012159905783963691 0.0
0.0008933853703889038 -0.00015928307527809918 0.0
0.0005003116126190125 -0.0001336956541991649 0.0
0.0010844232967219588 -0.00013267530448488917 0.0
0.001309605106148403 -1.3587356836644072e-5 0.0
0.0005738060513671118 -8.478706482412087e-5 0.0
0.0005605617669165447 -8.334500912685806e-5 0.0
0.0005582152182818102 -8.660653156089509e-5 0.0
0.0005120866099783964 6.943202642675363e-5 0.0
0.00054557149003116 -8.49349025049119e-5 0.0
0.00013230719291577541 -3.17955901570235e-5 0.0
0.0007203130908624693 -0.0001573472249227162 0.0
0.0007355478067292216 -0.00015321343916472075 0.0
0.0007369264374260202 -0.00014404474750119955 0.0
0.0007512536026874918 -0.00014918560323452622 0.0
0.0008925243831693344 -0.0001014807944170825 0.0
0.0008960980317821467 -9.13592786708115e-5 0.0
0.0013017500249124007 -9.046903432274687e-6 0.0
0.001282831058649519 -1.055095371620434e-5 0.0
0.0008821447411473962 -1.1482687853454906e-5 0.0
0.0008700457612504344 -1.784387961463332e-5 0.0
0.0002796966463837216 -8.574082433109864e-5 0.0
0.00039924997046787556 -0.00011632358088220017 0.0
0.0003865649341015786 -0.00011179358295587265 0.0
0.0006685929537306629 -6.075612038358388e-5 0.0
0.001049220568709185 -0.00015188666418254954 0.0
0.0001468201419368449 -3.6796246060625165e-6 0.0
0.0003852334343071775 -0.00010730498188044994 0.0
0.0007499451800286999 -0.00015895484697580394 0.0
0.0007660308456801674 -0.00015477359137160287 0.0
0.0007474765176890282 -7.41093421270695e-5 0.0
0.0007293106940607514 -7.81321638643369e-5 0.0
0.0007323846936344719 -7.278078666365711e-5 0.0
0.0007058087964485133 -5.1801063658298584e-5 0.0
0.00013075349126918177 -3.357628210128111e-5 0.0
7.624047475453702e-5 -2.175502599094814e-5 0.0
0.0007529684481360131 -0.00014017539794542044 0.0
0.0007785835996361486 -5.95277341999531e-5 0.0
0.0006316370875473733 -0.00015553817017550434 0.0
0.0003045528147748604 -5.9364710673384164e-5 0.0
0.0005019271066294891 -7.534179879313743e-5 0.0
0.00023412161885042596 -7.593172997928442e-5 0.0
0.0010924567974957586 -0.00011658897483051894 0.0
0.0003152477737155235 -7.581351027747357e-5 0.0
0.00029777423482869365 -7.134585414591025e-5 0.0
0.00031558070543700854 -7.318325196812365e-5 0.0
0.0002973529018009637 -6.890814060883798e-5 0.0
0.00031576663871825763 -7.085963550624658e-5 0.0
0.0002791563166007367 -6.678011608855497e-5 0.0
0.0008500722169267695 -0.00016248771175894386 0.0
0.00083639417096971 -0.0001565226460279226 0.0
0.00020620580469474253 2.188008947378124e-5 0.0
0.0006434288066659829 -0.00016159753514247423 0.0
0.0006313157248027913 -0.00011725892574019623 0.0
0.0006177651661926057 -0.00011978597290911966 0.0
0.0003343305033788776 -0.00010346057602492653 0.0
0.00010403706882931377 -2.5047364907823257e-5 0.0
0.00011057647138775878 -2.7012805239204266e-5 0.0
0.001194328951975833 -2.2531022575216956e-5 0.0
0.0012214457390351103 -1.6412459607532725e-5 0.0
0.00021697575021868275 -3.898458580678247e-5 0.0
0.00034627095098641774 -0.00010394539427209278 0.0
0.0003456288431691451 -9.982556520316932e-5 0.0
0.0003476937648302734 -0.00010885005158761041 0.0
0.00032255969190113484 -0.00010296974330693588 0.0
0.0002967560544455709 5.4258276850586037e-5 0.0
0.0005122328545261693 -0.00011679142632555076 0.0
0.0007413549948053163 -8.628293830070078e-5 0.0
0.0011988273832817969 -1.6553001616676254e-5 0.0
0.0007060071521416014 -0.0001616339726631665 0.0
0.00048752068251499295 -0.00013369946449916088 0.0
0.001312761960766517 -1.8848114251570373e-5 0.0
0.001298721308946352 -3.322661731765953e-5 0.0
0.0005080545880347632 4.694031246358536e-5 0.0
0.00038791388972923943 -0.00011650784032409331 0.0
0.0008234573890333028 -6.048763428514704e-5 0.0
0.0008463022467956982 -5.503865620222986e-5 0.0
0.0001668627878454107 -4.164944522259848e-5 0.0
0.00020794255176770569 -6.77659638235891e-5 0.0
0.00019328431750933992 -6.164445780789597e-5 0.0
0.0001895340146974936 -5.774243700815753e-5 0.0
0.0002820484294918261 -9.045762260367008e-5 0.0
5.991830169522645e-5 -1.606793080470251e-5 0.0
5.709523504937416e-5 -1.4690015591833287e-5 0.0
0.0007647497322811674 -0.00016511621654219025 0.0
0.0007809608854625915 -0.00016073805895621315 0.0
0.0007816069697530628 -0.00015017421635693493 0.0
0.0010675591731898481 -0.00010621581833426224 0.0
0.0010538567000662464 -0.00010102307389491574 0.0
0.0010601252920856773 -0.00015786224059876746 0.0
0.0002783674079410987 -6.454570268796456e-5 0.0
0.0002603683807048348 -6.227512058590135e-5 0.0
0.000863460759972469 -5.680513088774893e-5 0.0
0.0012857765813152598 -7.805172288531479e-7 0.0
0.0012954846238113868 -2.4601651437193203e-6 0.0
0.0013062178812456198 -6.746516803883778e-6 0.0
0.0012661966799256163 -5.638182940770403e-5 0.0
9.251479339599615e-5 -2.8042123303741925e-5 0.0
0.0008427659783717261 -1.723581814893707e-5 0.0
0.0008258985599006372 -2.1401323075357124e-5 0.0
0.0008175341558400227 -2.3858423891228783e-5 0.0
0.0008010056334015411 -2.811850251241271e-5 0.0
0.0007934387124500071 -2.989538920334327e-5 0.0
0.0008081512322244197 -2.6530194992243376e-5 0.0
0.0006806770551069502 -9.045050937339531e-5 0.0
0.0005789039446619828 -7.864057543143486e-5 0.0
0.0005948820904502453 -7.664853140140011e-5 0.0
0.00019678355102443045 -6.582070210531561e-5 0.0
0.00018222770726237202 -5.9482705232279784e-5 0.0
0.0011378246773692843 4.145266463911261e-6 0.0
0.0011856103293472243 5.496249133555301e-6 0.0
0.0012031282252126787 6.34789876752476e-6 0.0
0.0012353791822522298 5.839872848644014e-6 0.0
0.0012252789677733187 4.5864179825477856e-6 0.0
0.0006205487972196781 -0.00014993912493868063 0.0
0.0006206164457698614 -0.00014211781325506893 0.0
0.0006201467523194255 -0.00015875347886389665 0.0
0.0008414107894208382 -2.026132951539229e-5 0.0
0.0008310210597352037 -2.2093056531926096e-5 0.0
0.0002186973938377809 -4.2882992282449175e-5 0.0
0.00010699985748757892 -5.6898242779118615e-6 0.0
0.0008346473368662309 -0.0001671590801867215 0.0
0.00025167561674277044 1.7198312715316522e-5 0.0
0.0008305716499981577 -8.608736938870297e-5 0.0
0.0008129245919716357 -2.53344705637202e-5 0.0
0.0007863607890176886 -3.1529110135563676e-5 0.0
0.0008020764646888608 -2.8233652123776222e-5 0.0
0.0007794492949458954 -3.3358711552217234e-5 0.0
0.0007946221545821269 -3.0636262272626186e-5 0.0
0.0007728494779704515 -3.555602385272329e-5 0.0
0.0007879499949538753 -3.328523402556449e-5 0.0
0.0007666290699520819 -3.802910399457006e-5 0.0
0.0007823965814296999 -3.601637234710314e-5 0.0
0.0007638093601553584 -3.669449059554729e-5 0.0
0.0007516299502726668 -4.032181934228917e-5 0.0
0.0008641165450682726 -0.00016873998394188492 0.0
0.0013248430712901353 -6.563926286822557e-6 0.0
0.0004731121260462754 -0.00010948001419211518 0.0
0.00045923968529888764 -0.00010563916425030044 0.0
0.0012185512201661583 -7.218217030781193e-5 0.0
0.0005484158101404946 -8.241017330609233e-5 0.0
0.0007783417465953725 -3.396082430664253e-5 0.0
0.0003865076034310692 9.371749811262345e-5 0.0
9.58908320524268e-5 -2.2585555773357726e-5 0.0
0.0005671103625090815 6.378601868201937e-5 0.0
0.0005550998699262451 3.8446332641291015e-5 0.0
0.0009850604553987316 -1.0843926274000149e-6 0.0
0.0012308918621491383 -7.294809268743045e-5 0.0
0.0012067987521257866 -9.201140729558669e-5 0.0
0.0005429147066280066 -8.817049747788405e-5 0.0
0.0005316977845425104 -8.585718851289151e-5 0.0
0.0002470324317088566 -7.438621156412835e-5 0.0
6.335632471102209e-5 -1.8187817795766524e-5 0.0
8.02108856635828e-5 -1.94831572712984e-5 0.0
8.333645731082958e-5 -2.052979737145125e-5 0.0
4.719106968245437e-5 -1.2609259963654636e-5 0.0
0.0008797764445541645 -8.769355992745163e-5 0.0
0.0008999247765416668 -8.165969018641007e-5 0.0
0.0009167131214132392 -8.523986489727283e-5 0.0
0.0009206489261722091 -7.493311331986077e-5 0.0
0.0007460124549457437 -4.252728722521724e-5 0.0
0.00044334819284008357 0.00010639785735913233 0.0
0.0005356355710027952 9.126714046224969e-5 0.0
0.0007147451481113208 -7.66086517875335e-5 0.0
0.0007181035659729693 -7.152112239095635e-5 0.0
0.000582048189739646 -7.620697334772979e-5 0.0
0.0005115200963907912 -7.937185628039134e-5 0.0
0.0005010211531649333 -0.00013809431250768017 0.0
0.0009783717124751967 -0.0001458280157915546 0.0
0.000991175029404745 -0.00015235001014066738 0.0
0.0009760576429899922 -0.00015797197034236204 0.0
0.0009886085777303696 -0.00016467318494608509 0.0
0.0009739832845496114 -0.00016984343658611124 0.0
0.0009610545929966432 -0.0001634225893319641 0.0
0.0009283436669060212 -0.00015156329563163084 0.0
0.0008354809938453306 -0.00014567879885951066 0.0
0.0009187697494152265 -2.320541422204846e-5 0.0
0.0006714086402756905 -0.0001225386044290905 0.0
0.00022007033583214993 -2.617116962735963e-5 0.0
0.0012828925577550569 -5.2736595375078385e-5 0.0
0.0013113922752152883 -3.226755743367265e-5 0.0
0.0010030906219100381 -0.00015912336943650382 0.0
0.001000887423739103 -0.00017141884008506722 0.0
0.001014568932003885 -0.000166296250112227 0.0
0.0005127312678157703 -0.00013829619653460095 0.0
0.000605368274141701 -0.0001159625337141513 0.0
0.0006047341964763072 -0.00012203885081923917 0.0
0.0006169063481304383 -0.00012633425847719337 0.0
0.0004377908203039566 -9.38510910714315e-5 0.0
0.0005922285225578611 -0.00011806724476247592 0.0
0.0007387779117358605 -0.00013570023645837956 0.0
0.0010759566950502223 -8.963256837429667e-5 0.0
0.001104017663854416 -0.00012080765047411966 0.0
0.001095283339904219 -0.00013763121009342073 0.0
0.001116382445487298 -0.00010260013679480522 0.0
0.00018615425634061449 -4.040783289149074e-5 0.0
0.00046067077533711433 -0.00012493936297500432 0.0
0.00044830094183545923 -0.00012514347660145058 0.0
0.0004611546327173863 -0.00012928126659064154 0.0
0.0004491740463388184 -0.0001294486688149399 0.0
0.0009374975198404176 -7.809986047801938e-5 0.0
0.0002964578050000423 -9.64449730954387e-5 0.0
0.00026840452272587764 -8.473821491342995e-5 0.0
0.0012718225512302584 -5.6874180329758185e-6 0.0
8.84664763951768e-5 -1.8986982310858676e-5 0.0
8.588343225438358e-5 -1.668813753993893e-5 0.0
0.0008195512756468465 -0.00015949329336337976 0.0
0.0008205096610797949 -0.00017173858370812893 0.0
0.0006651191068136585 -9.370910802464846e-5 0.0
0.0012537156193445323 5.848016491173077e-6 0.0
0.00027060519614205815 -8.951087405054794e-5 0.0
0.0010621149947067678 -5.426470573721517e-5 0.0
0.0011647016661822317 -6.988665395221737e-5 0.0
0.0012134296435347151 -8.663605894753098e-6 0.0
0.0012192789410387936 -4.811722563401976e-6 0.0
0.000904126029313486 -7.227274043673119e-5 0.0
0.0009791229242499036 -9.12419861063457e-5 0.0
0.0009944154988673942 -9.561933019048409e-5 0.0
0.0009688652438271185 -8.319344106252926e-5 0.0
0.000994303742588278 -8.076153306169644e-5 0.0
0.0010029224383571558 -6.294904470829883e-5 0.0
0.0007485150589084693 -0.00016960133208319717 0.0
0.0003996019523393887 -0.00012095438266928989 0.0
0.0005851245379103334 -9.018369599352467e-5 0.0
0.0008024578622579206 -6.6065666317298e-5 0.0
0.000707195807914905 -9.495633864309119e-5 0.0
0.000719116262253601 -0.00016774123697885172 0.0
0.00035896400155094484 -0.00010904108144023539 0.0
0.0004460726232993425 -0.00010609423435712251 0.0
0.00020667973416459723 -4.927609414817626e-5 0.0
0.001277643825230761 5.0976788574624895e-6 0.0
0.0009395477622738905 -0.00010537579584525183 0.0
0.00014551778273298293 -3.613957790244532e-5 0.0
0.0004688565201627383 0.00013280878889596363 0.0
0.0007125124591153315 -0.00012699355791226117 0.0
0.0009590209890651393 -0.00017489742071966503 0.0
0.0009452106841669559 -0.0001685178720830042 0.0
0.0008232387604283642 -0.00010295936261195109 0.0
0.0008676002544323489 -4.950955532538404e-5 0.0
0.00042297593551337745 -8.397567013681249e-5 0.0
0.0006040188800084893 -0.00012959341084204257 0.0
0.0007983609321593806 -5.509568304075675e-5 0.0
0.0004457558864860199 -0.00010183360864418891 0.0
0.0004325095733829609 -0.00010210735911406523 0.0
0.0003602852020987052 -0.00011408169841687468 0.0
0.0002516249993636946 -4.654766762655607e-5 0.0
0.00025176261732715976 -4.2166743442174646e-5 0.0
0.00010915039063513548 -5.802333534783845e-7 0.0
0.00015204185356792094 3.5397207079142535e-6 0.0
0.0010445640868287605 -0.00016618327039009712 0.0
0.00018682008551501733 -4.692548975442567e-5 0.0
0.00026146448926045495 -6.45271941751895e-5 0.0
0.00024261308247850312 -5.97464403443224e-5 0.0
0.0011021445817699024 -9.965574335654823e-5 0.0
0.0005644517819654881 -0.00011616514614935889 0.0
0.0006963269117370039 -8.673847451637499e-5 0.0
0.0008973385914442923 -2.8972938644036283e-5 0.0
0.0009059402640572217 -4.934883580281626e-5 0.0
0.0008867264378386295 -3.912787418216764e-5 0.0
0.00089674324823518 -5.993908418376127e-5 0.0
0.0009160601476971913 -6.847861422999852e-5 0.0
0.0009463134368934285 1.2706777993465083e-6 0.0
0.000969547325278358 2.374652692639844e-6 0.0
0.0009776718549526044 3.5825411067610284e-6 0.0
0.0010007785652797118 4.537687863938834e-6 0.0
0.0009927355537047537 2.9039988014933178e-6 0.0
7.607198606571724e-5 -1.8320866529774293e-5 0.0
0.0009424304925031308 -6.794771163610931e-5 0.0
0.00020982036614034574 2.863661410323572e-5 0.0
0.00023846871023952958 3.949388781822866e-5 0.0
0.0007796245335605553 -0.00017142887338855421 0.0
5.580987686054181e-5 -1.1590477361934279e-5 0.0
0.0010448790940030977 -2.5575061999370202e-5 0.0
0.001073138703143186 -1.9305104675724406e-5 0.0
0.0010523854343179877 -1.8030858818498595e-5 0.0
0.0010969300200368772 -1.981837306410655e-5 0.0
0.0011023293833975943 -1.3707680915508156e-5 0.0
0.0011272735768286142 -1.4387283115423683e-5 0.0
0.00033417569904645297 -7.484562052863961e-5 0.0
0.00033526946478852024 -7.27174596371679e-5 0.0
0.00031581007637250947 -6.882496721248734e-5 0.0
0.000336077226862181 -7.083324039046764e-5 0.0
0.0003553870583118836 -7.438448977305035e-5 0.0
0.00035659845151514213 -7.258427445894794e-5 0.0
0.00037537032722025635 -7.574894303497184e-5 0.0
0.00038926778589903395 -0.00012134427848511665 0.0
0.00037695105398020175 -7.39485197839784e-5 0.0
0.0003952604547600921 -7.67991645823263e-5 0.0
0.00011202973483602696 -1.6086820028682336e-5 0.0
0.00025167004700835105 -4.9535495176001026e-5 0.0
0.0003929191956367652 -7.876057941693563e-5 0.0
0.00031808614832562243 -6.747590107647536e-5 0.0
0.001061308766044322 -8.54210317602278e-5 0.0
0.0010400347617570433 -9.652539011268623e-5 0.0
0.0006092876698909468 -0.0001531737380799156 0.0
0.0006087406144762599 -0.00016211093449190368 0.0
0.0008777616087030077 -4.642633277814864e-5 0.0
0.0005102135348648457 2.5377374618839795e-5 0.0
0.0005539935724573822 1.5065494281570286e-5 0.0
0.0005964628034583819 2.6259773396294544e-5 0.0
0.0005958014665117605 1.366714483896753e-6 0.0
0.0005578156283019841 -7.327216801671671e-6 0.0
0.0005990904878067096 -2.328604211896775e-5 0.0
0.0005637541993223606 -2.8303398014133495e-5 0.0
0.0006044817656759518 -4.3852705117561635e-5 0.0
0.0005697134371960861 -4.5080271934815346e-5 0.0
0.000614368976223052 -5.800839073380455e-5 0.0
0.0005735066614501004 -5.639506550341111e-5 0.0
0.0006083060348646897 -6.415940457775995e-5 0.0
0.0005740316450048716 -6.307364024441866e-5 0.0
0.0006056614762226783 -6.789639906281788e-5 0.0
0.0005749631796969691 -6.747471314725491e-5 0.0
0.0006030876639920938 -6.982680085936447e-5 0.0
0.0005736680170134377 -6.971501824451888e-5 0.0
0.0005986810453411359 -7.040419763150652e-5 0.0
0.0005715092984608179 -7.070109202152134e-5 0.0
0.0005944599906423016 -7.046442264763173e-5 0.0
0.000568631241071788 -7.106392741816262e-5 0.0
0.0005897955100932263 -7.020809162720805e-5 0.0
0.000564754078816662 -7.111509506806362e-5 0.0
0.0005851980599358465 -6.99717207837752e-5 0.0
0.0005607601126747477 -7.114460074328141e-5 0.0
0.0005395466032779669 -7.16402194551893e-5 0.0
0.0005362487697805305 -7.185060891152263e-5 0.0
0.0005818176946173633 -6.974867817539565e-5 0.0
0.000546440204014462 -6.931788318256639e-5 0.0
0.0006090642321162281 -6.846537952173583e-5 0.0
0.0006219433636118884 -6.93050122830823e-5 0.0
0.00053140921699497 -3.186582761851522e-5 0.0
0.00063250994953918 -6.943573016683604e-5 0.0
0.0005138621701350594 -7.176591812273157e-5 0.0
0.0005115953301221823 -7.220579093545011e-5 0.0
0.0005329660632660198 -7.2047610519334e-5 0.0
0.0005092272466226949 -7.259077933522126e-5 0.0
0.0005429226587074921 -6.232569680876266e-5 0.0
0.0006451564014063283 -6.582458237086286e-5 0.0
0.0005164642200931053 -7.116455456872342e-5 0.0
0.0006418993721555343 -4.129647061295655e-5 0.0
0.0005299131768570627 -7.23695748701218e-5 0.0
0.0005067844462859945 -7.307316601555926e-5 0.0
0.0004855600230566692 -7.28033988770231e-5 0.0
0.0004891553667319054 -7.07295898877496e-5 0.0
0.0004900041721631124 -6.939357000504667e-5 0.0
0.0005528838855087674 -7.129937390909415e-5 0.0
0.0005489533733384538 -7.173628291947532e-5 0.0
0.0005704565712523967 -7.02401028128245e-5 0.0
0.0006375398526397224 8.757375786456583e-6 0.0
0.0006460016852029831 3.163446335989416e-5 0.0
0.0004843498389398892 -7.340270189964271e-5 0.0
0.0004621856108040409 -7.266101866517443e-5 0.0
0.000463440200351598 -7.200123372588723e-5 0.0
0.0004384706877102632 -7.132537160443659e-5 0.0
0.0007051264175810499 -0.00017234249292542934 0.0
0.0006927635447436705 -0.00016604561946759953 0.0
0.0012183154039099853 -9.33347411482669e-5 0.0
0.0007548249523322901 -0.0001317417264730911 0.0
0.0007696543925219177 -0.00013642320979201887 0.0
0.00047120678356595664 -0.00010473328524128441 0.0
0.00048535793735606604 -0.00010841804413894237 0.0
0.0010845983175320703 -2.219945470325889e-6 0.0
0.0007666431115795563 -6.94671939687621e-5 0.0
0.0005050933884984934 -7.370751157573841e-5 0.0
0.0003719968128070605 -0.00010684776311903366 0.0
0.0003719483851930997 -0.00010269893210185317 0.0
0.00038410445323077265 -0.00010298683051104971 0.0
0.0008501184601202086 -4.8320734825062925e-5 0.0
0.0008149002326461453 -2.6151224977504346e-5 0.0
0.0005564769565245658 -9.01663665160849e-5 0.0
0.0005415553540099238 -9.178263720155923e-5 0.0
0.0008187797119243654 -2.9509208306867938e-5 0.0
0.0008085660602640058 -3.106321045894059e-5 0.0
0.0008200189833739745 -2.5161325386576765e-5 0.0
0.0007967267208820231 -3.3085730018230395e-5 0.0
0.0008299159648402023 -2.811892439121004e-5 0.0
0.0008033300951003099 -3.1481803079254503e-5 0.0
0.0007984987446700692 -3.437699182314028e-5 0.0
0.0007755653605702796 -3.92387302496951e-5 0.0
0.0005982108618506319 -7.407638042449701e-5 0.0
0.0006109601978935298 -7.437299149755283e-5 0.0
0.0006144926851533933 -7.177732327952305e-5 0.0
0.0006269242019272625 -7.187043019508141e-5 0.0
0.0006305044810797657 -6.930360726104822e-5 0.0
0.0006428608351096574 -6.921931910538601e-5 0.0
0.0006466168642530293 -6.656775201261402e-5 0.0
0.0006596031074238401 -6.622672717160301e-5 0.0
0.000655522548509736 -6.932481199356537e-5 0.0
0.000673053051108569 -6.570877947986191e-5 0.0
0.000736492761430905 -6.776354050183495e-5 0.0
0.000721616168010995 -6.688720894371214e-5 0.0
0.000704124874057483 -7.062537689744924e-5 0.0
0.0007074925769315789 -6.637269002585791e-5 0.0
0.00016458798896708135 -4.019028693157929e-5 0.0
0.00018627281277308527 -6.383940299843967e-5 0.0
0.00017180319869275376 -5.733248965359265e-5 0.0
0.00016801273276244758 -5.319044765656051e-5 0.0
0.00015693203781034422 -5.0749091242361775e-5 0.0
0.0006673628242242913 -8.843066203137193e-5 0.0
0.0008853657877435178 -5.068646234032301e-5 0.0
0.0008795933044662626 -5.8914112585571656e-5 0.0
0.0004181768604097943 7.301553702827853e-5 0.0
0.000731907989637387 -4.465635172933053e-5 0.0
0.0007367311969394734 -4.309873793290283e-5 0.0
0.0008660088536752236 -6.0544491531636555e-5 0.0
0.001296259187843388 -1.4933380022755178e-5 0.0
0.001320056045087247 -9.220596517272738e-6 0.0
0.0013359151823271666 -6.9349357397421055e-6 0.0
5.8561553086375944e-5 -1.4358765772670247e-5 0.0
6.045888404035706e-5 -1.4861680127284482e-5 0.0
8.405300681275299e-5 -2.088141736080486e-5 0.0
6.384990972221166e-5 -1.5765174529935055e-5 0.0
8.566181129318434e-5 -2.154481878446195e-5 0.0
6.605247563195911e-5 -1.6515604385916545e-5 0.0
4.188151373837829e-5 -1.0219384299024715e-5 0.0
0.0006519774791385368 -9.149688831918338e-5 0.0
0.0003588749135215424 -7.11827922087819e-5 0.0
0.00021189508964671665 -7.23114361277898e-5 0.0
0.0005660130640170859 -7.08196482673511e-5 0.0
0.0011991735795488484 -0.00011029010868590385 0.0
0.0011862074261357576 -0.00011216743116361619 0.0
0.0009998544209671868 -8.284669044074562e-5 0.0
0.001019829502044622 -8.555171203473989e-5 0.0
0.0010240376448608303 -7.041960068344335e-5 0.0
6.878722186485554e-5 -2.5885455255744117e-6 0.0
0.0004888372784167338 -0.00013779281417313733 0.0
0.0003495004409776932 -0.00011426794493598179 0.0
5.076846578223425e-5 -1.4766933074416611e-5 0.0
6.766124457453553e-5 -2.1636960300636323e-5 0.0
0.0002967788318119921 -6.511376589971459e-5 0.0
0.0009090742442612843 -7.91015307585075e-5 0.0
0.0009308516076409188 -8.636982727115204e-5 0.0
0.0009614017642232907 -8.711316349261663e-5 0.0
0.0010087255115402902 -0.00010062341190194 0.0
0.0004619876002483538 -0.0001333856830653151 0.0
0.000513287803806892 -0.00014270169462075982 0.0
0.0005244406143317593 -0.00014297740128514725 0.0
0.001114344566660683 -0.0001252725076602763 0.0
0.0011048931071546205 -0.00014207767844106123 0.0
0.0010867922271588727 -0.00015561512907121466 0.0
0.0012270773599277595 -1.1480741130333038e-5 0.0
0.001203878838836487 -1.1410650821537492e-5 0.0
0.001175434680710327 -1.619066009989574e-5 0.0
0.0011781609732857607 -1.1016279496172924e-5 0.0
0.0002559313830804159 -5.988463667873706e-5 0.0
0.0011315149009496147 -9.09848239257156e-6 0.0
0.0011025629327568005 -8.527060851428053e-6 0.0
0.0007721721813827602 -0.00012833395275445354 0.0
0.0001598776500960661 -5.45742751642972e-5 0.0
0.00014659585635516087 -4.888504844767646e-5 0.0
0.00014253739405211335 -4.489604485986395e-5 0.0
0.0001323380103023322 -4.274154824349358e-5 0.0
0.0013423169557822269 -5.4099519100659145e-6 0.0
0.001304796606333376 -3.739341606948751e-6 0.0
0.0013277316653461505 -1.4602487559327901e-6 0.0
0.001054300151477026 -0.0001714561271628912 0.0
0.0005657294243808672 -7.793514683552454e-5 0.0
0.001122599384884396 -0.00012978952213310192 0.0
0.0011143142473817394 -0.00014626628158808858 0.0
0.0011313163692229559 -0.0001347569210220681 0.0
0.0011250708649967987 -0.00015382616054606586 0.0
0.0011428485977278803 -0.00013920248791168986 0.0
0.0011499391902829268 -0.00012132205903282834 0.0
0.0011596575368797435 -0.00012701181127063935 0.0
0.0006207608899866696 -0.00016813058328952741 0.0
0.0006100720905413731 -0.00017239033842601117 0.0
0.0005964164301360274 -0.00016507524090444617 0.0
0.00048341204838531763 -7.421077663437118e-5 0.0
4.80618696245213e-5 -1.1803706251837932e-5 0.0
6.773478629375748e-5 -1.7107532923590065e-5 0.0
5.008534991277685e-5 -1.2382017969134679e-5 0.0
0.0004513612181090112 -0.00013495909094918919 0.0
0.00043871867807434607 -0.0001301711901822274 0.0
0.0012587101418956347 -7.400242604394015e-5 0.0
0.00011631635155675355 4.584141441007173e-6 0.0
0.0006905145256465916 -7.037720225738184e-5 0.0
0.0006946731640168005 -6.616109823213311e-5 0.0
0.0012192621852757499 6.507553537565794e-6 0.0
0.0012693686548215454 5.511480646030243e-6 0.0
0.0011250132883308976 -8.62499225575968e-5 0.0
0.0002580456742546523 -8.368113816499397e-5 0.0
0.00026191059808719714 -8.908991472731508e-5 0.0
0.0009355693074934406 -8.89643764250811e-5 0.0
0.0010658788210464582 -6.772760376959633e-5 0.0
0.0012955277560307247 -5.134152211803781e-5 0.0
0.001325106064154305 -3.022453623489122e-5 0.0
0.0013400422687816812 -1.540054372639912e-5 0.0
0.0010190188306558002 -7.705167841141849e-5 0.0
0.001084860875303643 -7.37708710770091e-5 0.0
0.0005983115273525885 -0.0001419692739891857 0.0
0.001121366936351509 -2.06620346224859e-5 0.0
0.0010432731934422973 -8.348104193598418e-5 0.0
0.00043332910635682806 -9.781582508571905e-5 0.0
0.00026535470692556174 -8.02513390646504e-5 0.0
0.0012525148060429825 -1.0567608541465004e-5 0.0
0.0010616156050911952 -4.2355220021448086e-5 0.0
0.00043792060117345017 -0.00013475694332991492 0.0
0.0002300970661871357 -5.4736255194374075e-5 0.0
0.0007237649755197455 -4.741022316429535e-5 0.0
0.0010337114081651975 -0.00016201736175583254 0.0
0.001031527650704683 -0.00017425363671281913 0.0
3.544962328333469e-5 -9.457310109331627e-6 0.0
0.0007951457844967101 -0.000168127311975977 0.0
0.0007911888699740199 -0.00017702225114903913 0.0
0.0005261380900369066 -0.00015130963348950125 0.0
0.0005371079619699272 -0.00015042921706654255 0.0
0.0005353422877689734 -0.00014284451650264547 0.0
0.0005475075127559505 -0.00014952310216545978 0.0
0.0005394745426202499 -0.00015790265580610454 0.0
0.0005189930258610011 -7.021765101639113e-5 0.0
0.0004911758391968833 -6.752304258804337e-5 0.0
0.0002182247236205053 -4.514308459295388e-5 0.0
0.0005150424145332327 0.00013374086845816923 0.0
0.0004949056005487723 0.00010854535203429402 0.0
0.0008692028624622843 -2.774752794709782e-5 0.0
0.0010111769652800574 -0.0001776890184461762 0.0
0.0009987146079802993 -0.00018251165107674506 0.0
0.0001347752451894203 -4.671012449821964e-5 0.0
0.0001209401750287617 -4.025351727608304e-5 0.0
0.001336605761101774 -2.2690171977231898e-6 0.0
0.00024725222615572007 -6.254417965519799e-5 0.0
0.0002256314727462048 -5.744100820399584e-5 0.0
0.0012735345125254793 2.2368031038476587e-6 0.0
0.001240313702926886 -7.483388448890306e-5 0.0
0.0012275218695029105 -9.805128148166167e-5 0.0
0.0007398775336691783 -4.523185620638318e-5 0.0
0.000833384663899396 -0.00017792404312365475 0.0
0.0008157562878253038 -0.00018375565860452993 0.0
0.00041105818512147686 -7.930622560203731e-5 0.0
0.0004148009486001359 -7.740178205896418e-5 0.0
0.0005470154924431818 -0.00014232337572781981 0.0
0.0011299654571757134 -0.00010608480466042004 0.0
0.000663446916507751 -6.347839972032869e-5 0.0
0.0006518626233914381 -6.396845869336254e-5 0.0
4.115370290047713e-5 -1.2314786543363683e-5 0.0
0.0005413657042154876 0.00022797340563481038 0.0
0.000617861060925424 -6.947398208659116e-5 0.0
0.0004627968769557792 -6.85881772194135e-5 0.0
0.00046368980764268335 -7.013565280451158e-5 0.0
0.00028531632393280514 -5.3159776198264744e-5 0.0
0.0008213271492096548 -2.9456920156084954e-5 0.0
0.0005857591920248782 -6.902171033687332e-5 0.0
0.0005908744197191556 -6.843299999125011e-5 0.0
0.0006050331865939712 -6.691284308478089e-5 0.0
0.0006098082105684113 -6.636390357195835e-5 0.0
0.0006232541152274691 -6.454989209468815e-5 0.0
0.0006283309551974559 -6.38554916780812e-5 0.0
0.0006147324165028929 -6.594290638784646e-5 0.0
0.0006336125201996956 -6.35518276633966e-5 0.0
0.0006200051855436728 -6.590820737753622e-5 0.0
0.0006394042841053553 -6.354642551061417e-5 0.0
0.0006403142479813209 -6.191643308833749e-5 0.0
5.805316291314175e-5 -1.0714729678945876e-5 0.0
0.0007917179094007106 -3.831370147446058e-5 0.0
0.0005716993332829695 -7.566932897929247e-5 0.0
0.0006372640634187568 -1.7859644177256797e-5 0.0
0.0006864087476927002 -4.2098633853378126e-5 0.0
0.0006825091253276619 -5.652823142973746e-5 0.0
0.000679139454018758 -1.4096873946726433e-5 0.0
0.0006470300662171846 -5.613841685158024e-5 0.0
0.0006831131333476409 -6.347890220319436e-5 0.0
0.0007205886998622744 -6.38303619945996e-5 0.0
0.0007210106758512346 -3.334055608589306e-5 0.0
0.00010559982181083456 -2.6625805107009916e-5 0.0
0.00010809941372520496 -2.7751430328230375e-5 0.0
0.0013376693039543995 3.049623205460732e-6 0.0
0.0012824937360479906 3.8395563276809596e-6 0.0
0.0012830999350122011 2.3223134388968114e-6 0.0
0.000973812765440454 -0.00018245813202393357 0.0
0.0009566480728832958 -0.00018653307650292862 0.0
0.0003708625332652025 -9.852623509883216e-5 0.0
0.00038354653538151675 -9.869644355051948e-5 0.0
0.00035787687724955525 -9.802223315799026e-5 0.0
0.0004358781072797373 -6.794518982615036e-5 0.0
0.00071963252688252 -5.770519987958071e-5 0.0
0.0006531570273130513 -6.072382385301212e-5 0.0
0.00065818231117277 -6.089595576174547e-5 0.0
0.0006452860743216669 -6.38729223663662e-5 0.0
0.000663556734635214 -6.13485706411947e-5 0.0
0.0006519372425830486 -6.421136004442862e-5 0.0
0.0003773098888699493 -0.00011694698583580974 0.0
0.0013389250074149278 2.063856696859069e-6 0.0
0.0006900201415349943 1.2411114984872982e-5 0.0
0.0008611242560115379 -3.53554046708823e-5 0.0
0.0008538660566816663 -2.5508811257567468e-5 0.0
0.0008442131793722939 -3.261209536580453e-5 0.0
0.00046181779488492405 3.350396895730005e-5 0.0
0.0006568320918408566 8.905234384215288e-5 0.0
0.0006061867502369824 9.544867713229574e-5 0.0
0.0005942569371700166 0.00011086403896944195 0.0
0.0009857044537986367 -0.0001172751857011785 0.0
0.0010702069318906096 -0.000163357032137601 0.0
0.0010638835320790536 -0.00017849362500160115 0.0
0.00036096575686172557 -0.00011932749204546795 0.0
0.0005594839860128428 -0.00014852360504390846 0.0
0.0005607987810803997 -0.00015737246265348835 0.0
0.0005712111371633477 -0.00015560853142474487 0.0
0.0005735520677579977 -0.00016591061555995507 0.0
0.0009432223803228994 -1.6506002240001276e-5 0.0
0.0009203828116057577 -1.1895957902078339e-5 0.0
0.0009461904824789434 -8.21748964170182e-6 0.0
0.0009720099704780183 -1.1161199332783336e-5 0.0
0.0007123611302710885 -6.236698987337518e-5 0.0
0.0007013745852186057 -6.197893225307723e-5 0.0
0.0005828379475943111 -0.00016210868083581551 0.0
0.0004411685135390914 -7.23713736665457e-5 0.0
2.9947077400743187e-5 -7.437052267438394e-6 0.0
0.0006383001460802173 -6.812130026733353e-5 0.0
0.0006620502755626703 -6.874478495852101e-5 0.0
0.0006558403281947346 -6.842321862390662e-5 0.0
0.0006828563143984457 -6.662379426197886e-5 0.0
0.0006750425119240399 -6.562262121282055e-5 0.0
0.0006894627812160329 -6.731348819226114e-5 0.0
0.000652818010435824 -6.74490926190363e-5 0.0
0.0006684178594924254 -6.458060779927964e-5 0.0
0.0007072973801147751 -6.405046488632603e-5 0.0
0.0008991343184734306 -1.6041142974388565e-5 0.0
0.000648111107684016 -6.665004829530823e-5 0.0
0.0013568497899660913 1.9555614175379016e-6 0.0
0.0005449533615657628 -7.241685234940925e-5 0.0
0.0006163307755071582 -0.00013335920916654617 0.0
0.0006298992303821937 -0.00013092070085864586 0.0
0.0006699054510019637 -6.818108677581466e-5 0.0
0.0007000659266779072 -6.707985403024817e-5 0.0
0.0007418685045965706 -6.30356276722136e-5 0.0
0.0009458358543331913 -0.00015696260340816896 0.0
0.0009305076325368728 -0.00016315618722607432 0.0
0.0009299368005363613 -0.00017412557151905137 0.0
0.0009163531348206749 -0.00016917277960995527 0.0
0.0009164180560888893 -0.0001794030784005695 0.0
0.0009023488547622152 -0.00017506135575228368 0.0
0.0010831176420552184 5.34232090738471e-6 0.0
0.0010582255992110145 2.657793784304539e-6 0.0
0.0010699399053839668 4.1858230386724577e-7 0.0
0.0010342423197468105 -1.1539828996395927e-6 0.0
0.0010443260416350953 -3.97110945160673e-6 0.0
0.0010097106394381169 -6.028219158597624e-6 0.0
0.0010198917854194359 -9.187086793706893e-6 0.0
0.0009998214225615779 -3.273045686879107e-6 0.0
0.0009768145263920232 -8.398923466928208e-6 0.0
0.0010533888058921073 -7.195555975699537e-6 0.0
0.0009673368524313187 -5.854111674239136e-6 0.0
0.0010283250037602862 -1.2858062078321509e-5 0.0
0.000997256054671629 -1.506248683386886e-5 0.0
0.0010039081374517845 -1.9304962219794135e-5 0.0
0.0009900621652528876 -1.1979818396386039e-6 0.0
0.0010453302978117194 4.336757024863937e-6 0.0
0.0010618153758994264 -1.1113141580499286e-5 0.0
0.0011096653498419947 1.063506072838154e-6 0.0
0.001085060898437997 -5.689190442338841e-6 0.0
0.0007959290360189789 -3.834405025466993e-5 0.0
0.0006178928052135348 7.943795280703883e-5 0.0
9.04422634201155e-5 -2.3199905377445543e-5 0.0
7.967662934391e-5 -2.459781907828936e-5 0.0
9.481176254424166e-5 -3.1028079219242835e-5 0.0
0.0005820900591874149 -0.00015348583571757693 0.0
0.0007586046027745392 -6.426990833564797e-5 0.0
0.0007855736832742588 -3.2808959214867e-5 0.0
0.0007638090105464349 -3.8591276814923804e-5 0.0
0.0007732799570727337 -3.7393766224012426e-5 0.0
0.0007580926084293059 -3.887730861710706e-5 0.0
0.0007713653128789146 -3.5150581464793483e-5 0.0
0.0007509547336301404 -3.9879616122048e-5 0.0
0.0007440819092878408 -4.117429925512111e-5 0.0
0.0007331484677912575 -4.392799572554926e-5 0.0
0.0001046865169051357 -3.1221372981943614e-5 0.0
0.0008593497176228428 -1.1527575429202705e-5 0.0
0.0010006604997129054 2.45988157762648e-6 0.0
0.0009636130847475779 5.19201794111641e-7 0.0
6.328705799163651e-5 2.7053198826696372e-6 0.0
0.00013830764002945207 1.264866778307065e-5 0.0
0.00012118104090364274 9.758657362530692e-6 0.0
0.0008585884110585242 -1.4563940868424462e-5 0.0
0.00013374390347765044 -3.948416883100849e-5 0.0
0.00015262056383725617 -4.675185809877192e-5 0.0
0.00016490381890056166 -4.9864061222932915e-5 0.0
0.00016430734149963788 -4.7484378303589086e-5 0.0
0.00017729633054458437 -5.0083436274513194e-5 0.0
0.0006146510265539311 -6.885696923458184e-5 0.0
6.826541478128062e-5 -6.084497485330725e-6 0.0
0.0003017641047936907 -6.302874201435958e-5 0.0
0.0002509862659101116 -5.6286303465471884e-5 0.0
0.0007071390437285703 -6.611612217606698e-5 0.0
0.0002688453535836323 8.666559850822701e-5 0.0
0.0009089520972543021 -0.00015468848660460402 0.0
0.0008342158835022821 -1.9187605438480818e-5 0.0
0.001270367336942438 -7.365362352902149e-5 0.0
0.0009877290524345898 -1.1370427298633394e-5 0.0
0.0009556291249210556 -1.3973489944791624e-5 0.0
0.0009433458473709367 -0.0001802569228320873 0.0
0.0013608380561898302 1.5001662781917891e-6 0.0
0.0013242541353486459 2.4260067406082976e-6 0.0
0.0013321415843729379 1.434367835309734e-6 0.0
0.0013177780060090287 3.275737057169926e-6 0.0
0.0012909121916982126 2.334415177355684e-6 0.0
0.0013131212185464322 3.876186432125292e-6 0.0
0.0012717438302303245 4.95265292458472e-6 0.0
0.0012802763802891117 3.842293324774468e-6 0.0
2.105312178440534e-5 -5.066928294333647e-6 0.0
0.0013754070622563424 -1.001128956612755e-6 0.0
0.0013496903831710992 -2.4488038880526353e-6 0.0
0.0013656531166498552 -3.2350060004541305e-7 0.0
0.001351237561955676 -3.0565100041528074e-6 0.0
0.0008506409487795432 -1.9770221292594267e-5 0.0
0.0009875172030273265 -0.000175989439662002 0.0
1.6766401762300473e-5 -3.948895732818823e-6 0.0
0.0013797275011360717 -1.2832892017468622e-6 0.0
0.000514778410715559 4.9481708593295625e-6 0.0
0.0010537601672413405 6.059240113844378e-6 0.0
0.0004277138669899613 -5.186188611523543e-5 0.0
0.0004636536889545679 -5.262266133175546e-5 0.0
0.0004627829706683953 -4.195629830273003e-5 0.0
0.00046271599680027225 -5.925699378112066e-5 0.0
0.0004936207133678367 -6.055026832478978e-5 0.0
0.0005032981291683165 -5.497371742207838e-5 0.0
0.0005008933992717154 -4.354352530888287e-5 0.0
0.0004637348674809136 -2.890057860347666e-5 0.0
0.0004307695360194095 -1.0836999297181927e-5 0.0
0.00043159065770163977 -5.981398781463527e-5 0.0
0.0010996916551845016 -0.00015652234458123163 0.0
0.001356441460797445 2.3130378310188688e-6 0.0
0.0005481489090744617 -0.00013619099186470239 0.0
0.0002024871093621239 -7.136998433218174e-5 0.0
0.0005952946245674712 -0.00013486599968506592 0.0
0.00047474376254544803 -0.00013341993820165782 0.0
0.0004750402554495816 -0.0001375769510141747 0.0
0.0006768616368020196 -5.793618532669678e-5 0.0
0.0008509642516680023 -1.9761552571172778e-5 0.0
0.001170380690674139 -6.9980833228365825e-6 0.0
0.001181308421652291 -1.1076171379716709e-6 0.0
0.0011347957110256718 -1.1882162882196379e-6 0.0
0.00010594770015028171 -2.6306820028823608e-5 0.0
0.00018979965942568684 -6.828759312085402e-5 0.0
0.0006206962374868506 0.00017451436167268192 0.0
0.000552251997476891 0.00017265778708013097 0.0
0.0010575041105513783 -6.706144689511007e-5 0.0
0.0006096565955727312 5.10151093290379e-5 0.0
0.0012050941107043384 -7.122231583461519e-5 0.0
0.0005925891755561921 -0.00011228045642912426 0.0
0.0010253381189438463 -0.00010335678192330302 0.0
0.0010398440390822035 -8.42311233503931e-5 0.0
0.00047338541799545454 -4.254941844574916e-6 0.0
0.00035069054560369923 -0.00011998510462725857 0.0
0.001191343549812767 -9.347502901105832e-5 0.0
0.0002228348193758743 -7.407070311827586e-5 0.0
0.00023486673303271238 -7.944813049987775e-5 0.0
0.0002278269581026863 -7.97887772635935e-5 0.0
0.0003560028040836781 -6.826963194991328e-5 0.0
0.0007550137805613563 -3.8850396233134434e-5 0.0
0.0008365117009612007 -2.0056709814910478e-5 0.0
0.0005571572121583232 -7.113391247443339e-5 0.0
0.0005750930713059767 -6.987183612776184e-5 0.0
0.0013368506610538058 1.1823752749269359e-6 0.0
0.0012719222591785152 -3.193974931860759e-6 0.0
8.31110074120068e-5 4.548849125181136e-6 0.0
2.1004178649008632e-5 -5.054942452507314e-6 0.0
0.0006463083857189567 -6.120277231624968e-5 0.0
2.5668670339582696e-5 -6.247612488460935e-6 0.0
6.0328046121143894e-5 -1.4370575615688824e-5 0.0
0.0005896283725547451 -0.00012908148653717827 0.0
0.0009656594031465679 -0.00011836478297100053 0.0
0.0006725321645761848 7.215762181389393e-5 0.0
0.0007939419429271885 -6.028769660636436e-5 0.0
0.000672476369878049 -6.122144735782055e-5 0.0
0.0010494688585437788 -5.708129123002563e-5 0.0
0.0012562947140431439 -5.400667421025229e-5 0.0
0.00041888570649218786 -9.807410314857715e-5 0.0
0.0004191180111670432 -0.00010242005195452472 0.0
0.0004052845591695286 -9.77598840351296e-5 0.0
0.0003907423502300378 -9.327621666693397e-5 0.0
1.7057031786175186e-5 -4.016059240001619e-6 0.0
3.077626651253986e-5 -7.481439793522112e-6 0.0
3.4751154855560226e-5 -8.435908260400718e-6 0.0
0.0003744390200723593 -7.78164091122435e-5 0.0
0.00035572947883236693 -7.688631526132198e-5 0.0
0.0013766919501022991 -1.1554875273267027e-6 0.0
0.0006922428723900087 -0.00017727876552014386 0.0
0.0006803055618815733 -0.00017054916447751902 0.0
0.0006798463814204227 -0.0001820549892638903 0.0
0.0006679833275416656 -0.000175023143834609 0.0
0.0006561238893001845 -0.00017902092150363694 0.0
0.0006554341174678106 -0.00016797053979093353 0.0
0.0006805273868322368 -0.0001600586867576298 0.0
0.0010122186809557192 -9.493722777159758e-5 0.0
0.00018468078713193775 -3.830454961181136e-5 0.0
0.0002150861934205309 -4.6267036427024614e-5 0.0
0.0001886065308953395 -4.2135063728256425e-5 0.0
0.0008150411287073405 -5.601193991153331e-5 0.0
0.0004075099598980974 0.0001198379997922179 0.0
0.0006675371666245182 -6.947637228117816e-5 0.0
2.739577262693599e-5 -6.6336525748187495e-6 0.0
0.0004276228718284697 -0.0001301491487778501 0.0
0.00041561219389396283 -0.00012972608435923432 0.0
0.0004188157496896159 -0.0001256536345503913 0.0
0.00047405314155892425 -0.00012927435917880453 0.0
0.0004207024630244732 -9.358275020979043e-5 0.0
0.00020638045059901398 -5.0567473578628426e-5 0.0
0.00012646331747581473 -3.317547002461022e-5 0.0
0.001367147836815159 6.147753475200948e-7 0.0
0.0013402669808185643 5.126896557500888e-7 0.0
0.0002846399345784035 -9.563694482928838e-5 0.0
0.000336359133539421 -0.00010858125646603863 0.0
0.0003245808854925088 -0.00010846972887952798 0.0
0.0003106455201502377 -0.000102429886339868 0.0
0.00031218405191677336 -0.00010773536057052182 0.0
0.0009215757904986273 -0.00010527642198034956 0.0
0.0007105579347597978 3.77497878144467e-5 0.0
0.0008490447857370566 -0.0001734388533428645 0.0
0.0008625564715045893 -0.0001800361874742498 0.0
0.0008763891138502327 -0.00017541880420963828 0.0
0.0008461637126621563 -0.00018586193860636613 0.0
0.00044849331376975107 -9.823941849421016e-5 0.0
0.0007282621241613255 -0.00012341160797883077 0.0
0.0006469901963821537 6.433484360192251e-5 0.0
0.0006261150241813893 -6.971173358210826e-5 0.0
0.0013804406625676068 -1.4977907531436908e-6 0.0
0.0013620126977592665 -4.678217366949414e-6 0.0
0.0013548931180285373 -4.3290181254510924e-6 0.0
0.0002986332178092109 -0.00010176035037020144 0.0
0.0002871441007250569 -0.00010075383271049264 0.0
0.0004577021812862017 -6.566122730944008e-5 0.0
0.00037631797973449935 -9.336541617325077e-5 0.0
0.001256868699908329 -2.551180950876196e-5 0.0
0.0010964213339451283 -4.6516099362351714e-5 0.0
0.0006340026227745077 -6.296612889665845e-5 0.0
0.0006507068957450068 -6.014742246337135e-5 0.0
0.0008889491530265629 -6.744502830927703e-5 0.0
0.0009641615416097836 -0.00013954744246609806 0.0
0.0005787000090439553 -0.00011428716026260944 0.0
0.0005785243960205537 -0.00012022397038149863 0.0
0.0001651725797579033 1.2765276726457359e-5 0.0
0.00034732282096167473 -9.218530276512748e-5 0.0
0.00033262300028951813 -9.070801545890523e-5 0.0
0.00031724714315710514 -8.565317644614371e-5 0.0
0.00031816900019056526 -8.947797762263985e-5 0.0
0.00028610832103061147 -4.9746146935198175e-5 0.0
0.00028653044020127177 -4.466913031890377e-5 0.0
0.0003196110718829648 -5.928564867705559e-5 0.0
0.0008605842719356919 -0.00019171212222489876 0.0
0.0008166264715852915 -0.00013003934862045922 0.0
0.0007975576644712756 -0.0001341061060408915 0.0
0.0008170450095757577 -0.00014123883674579038 0.0
0.0007979813282120865 -0.0001452775534853697 0.0
0.0008117275446235518 -0.00015068701492514883 0.0
0.0008341999930524026 -0.00013540775264090347 0.0
0.0008505943062874099 -0.00014016926374675213 0.0
1.3976414413673648e-5 -3.37072695816025e-6 0.0
0.0013835458821792347 -2.267836200162829e-6 0.0
0.0010777402172779153 -0.00014879087057123404 0.0
0.0007629138222829407 -0.0001755158472073985 0.0
0.001276994734535574 -1.3171965044883472e-6 0.0
0.0007341657449813905 -0.00016323563604127598 0.0
0.0007324100774937705 -0.0001738482857105458 0.0
0.0009735637282345465 -7.414929581888164e-5 0.0
0.0008712625215320002 -4.2693636563005215e-5 0.0
0.0008546698427511645 -4.1775894947482765e-5 0.0
0.0004356628062827921 -0.00012096859260740593 0.0
0.0002735256585536878 -7.736868706817417e-5 0.0
0.0009722596193041023 -2.2144245611844082e-5 0.0
0.0010346797115953859 -0.00014813482521929425 0.0
0.0004883609742335836 -8.517371032588652e-5 0.0
0.0005048061632439903 -8.432225004030066e-5 0.0
0.0005020447709651906 -8.734741880315717e-5 0.0
0.0005081273361117599 -8.168574007133962e-5 0.0
0.0004857554573332479 -8.824245126788227e-5 0.0
0.0005202712545516368 -8.36678203132011e-5 0.0
0.0005244272463496845 -8.113232457680563e-5 0.0
0.0005311501186835949 -7.854584188843875e-5 0.0
0.0010216151453422005 -4.578821100580413e-5 0.0
0.00015174214667775754 1.459232986057314e-5 0.0
0.0009454613639510593 -1.1250624677294715e-5 0.0
0.0010256922741079364 -5.726506644030154e-5 0.0
0.00031051716946114944 8.341168616432798e-5 0.0
0.00021812456106855909 -3.355325228176469e-5 0.0
0.00032052079309968133 -5.25264980337749e-5 0.0
0.00024270962534666624 -6.983836344793614e-5 0.0
0.0004929004533087763 -8.015193904710774e-5 0.0
0.0003975065850575583 -7.497329483801025e-5 0.0
0.00042243104183580605 -7.597508671313705e-5 0.0
0.0004354693353452065 -7.813340709917755e-5 0.0
0.0006316145556444031 -0.00016501093814034248 0.0
0.0006437706422250998 -0.00017168460179900344 0.0
0.0006437839692605148 -0.0001836004548767195 0.0
0.0006556886368642046 -0.00015809792350545576 0.0
0.0010175007921522238 -0.00015326520093380416 0.0
0.0005266516680836576 -7.290973161751188e-5 0.0
0.0009434589919040904 -5.595905790372375e-5 0.0
0.00047348160440560915 -0.00012454550045711154 0.0
0.0006809337635735012 -0.00015070906900052636 0.0
0.0005004071677039555 -0.0001424947590334608 0.0
0.0012388553347025305 6.096873619622354e-6 0.0
0.0006520893584686027 -7.263276402123078e-5 0.0
0.0001857642734499305 -4.5414751783737865e-5 0.0
0.0005111891812062669 -0.0001063171260314689 0.0
0.000524581327129788 -0.00011013319832807878 0.0
0.0004823655885642808 -9.920142178947477e-5 0.0
0.0005123611887542835 -0.00013332299704850388 0.0
0.0007569755621688994 -8.886161074023039e-5 0.0
0.0007383785364981077 -9.308410202913009e-5 0.0
0.0007540314337022391 -9.602450752640811e-5 0.0
0.0009366992728308695 -8.943691009570264e-6 0.0
0.0005933409426409442 -0.00010673259046754994 0.0
0.00045287585944862776 -9.285880071501338e-5 0.0
0.0007605002171092482 -4.074091127433709e-5 0.0
0.00075334906251546 -4.4008307030032606e-5 0.0
0.00019531293608521835 -5.5870213246241146e-5 0.0
0.0003761676312496779 -0.00011219162302952644 0.0
0.0008782247281466494 -0.00016400680874042303 0.0
0.0007924202055463432 -3.196658356796467e-5 0.0
0.0006726985030370362 -0.00011536932709503532 0.0
0.0006583283613539868 -0.0001184792753236507 0.0
0.000657307311485578 -0.00012570008128754722 0.0
0.000644260239400731 -0.0001213309457115879 0.0
0.0006436567439543355 -0.000128573367294266 0.0
0.000670248091860892 -0.0001299472408903014 0.0
0.0008439021701569488 -1.5952731734453858e-5 0.0
0.0005554333471779142 -9.398860135486866e-5 0.0
0.000541328935407852 -9.554648549941112e-5 0.0
0.0007262883633350947 -8.420949502087068e-5 0.0
0.00046641987319805117 -9.97350866686526e-5 0.0
0.0007180329634251827 -0.00017864748255641538 0.0
0.0005652714836174946 -0.00011062510508136502 0.0
0.0006454173275404913 -0.00011461395253510594 0.0
0.0009289523878581647 -0.00018513577410366714 0.0
0.0006078908802253671 -7.731723256176174e-5 0.0
0.0012849404740445283 -7.561504990348519e-6 0.0
0.0006500297929703338 -9.675627484111622e-5 0.0
0.00033189164165414107 -7.719000518270905e-5 0.0
0.0007398307222731984 1.940085402982473e-6 0.0
0.0009135373392572251 -0.00014385943073346103 0.0
0.001227800044480132 -4.0080766018235464e-7 0.0
0.00022248144338861485 -1.683121402673146e-5 0.0
0.0002295384547424583 -6.89935982585998e-6 0.0
0.00025864156340974723 -2.607139248010343e-5 0.0
0.0002718778387879453 -1.5602507657157296e-5 0.0
0.0003002709614601277 -2.7203281932452553e-5 0.0
0.0009250291072716224 -1.70011436562597e-5 0.0
0.0005504355276839724 -0.00016010495207126964 0.0
0.0006235423220590454 -7.488579092255763e-5 0.0
5.0406814764407585e-5 -1.2183390884393753e-5 0.0
0.0006326125861462812 0.0001239085143388464 0.0
0.0005753757608811513 0.0001269878875954419 0.0
0.0009032226217130739 -8.950010376400464e-6 0.0
0.0005361489253926145 -0.0001313462768589153 0.0
0.0005988663290171368 -0.00015653080843019282 0.0
0.0005630815107460344 -7.168890795053435e-5 0.0
0.0007118569423050872 -8.233902286172963e-5 0.0
0.0006966948789231926 -8.047466929006711e-5 0.0
0.0007012893616699077 -7.501916200751951e-5 0.0
0.0008381048735479417 -2.8459095277493753e-5 0.0
0.0005118708818148731 -0.00011141743422565033 0.0
0.000379100543051476 -7.24527548295529e-5 0.0
0.0005288015856622451 -8.907454055371115e-5 0.0
8.694449413140542e-5 -2.2609790338885106e-5 0.0
0.0007137537870821823 -4.854543876343242e-5 0.0
0.00030843399236743567 -9.7166414214372e-5 0.0
0.000683065161893364 -8.501466240761904e-5 0.0
0.0004373129414752804 -0.00012547318837424217 0.0
0.0009084549727860537 -4.37900630502323e-5 0.0
0.0006276893110578865 -8.74317270735758e-5 0.0
0.0006305624789809001 -0.00012394698261920478 0.0
0.001172014173233392 -5.3708301892845305e-5 0.0
0.00027433688052435614 -9.47060263564267e-5 0.0
0.0012833489377260087 -7.495144959871349e-5 0.0
0.0005499184936265471 -7.859552582856445e-5 0.0
0.0006232558046299325 -9.692573785537639e-5 0.0
0.00014190387853471446 -3.460558632628656e-5 0.0
0.0011728159864545379 -2.229654413660208e-5 0.0
0.0007103170138104103 -0.0001349102646305416 0.0
5.121875587371488e-5 -1.2399880158734665e-5 0.0
0.0006804406252436272 -6.007712590942408e-5 0.0
0.0006769270026719344 -6.26263994360902e-5 0.0
0.0012731969257296725 8.331518486457923e-7 0.0
0.0007054327918921642 -0.0001838806139705843 0.0
0.0002594974079039708 -7.553891047598502e-5 0.0
0.0013251471736504716 -1.1253609997605063e-5 0.0
0.0006871231918568147 -7.420000939613509e-5 0.0
0.0006426363944783995 -8.480870475303132e-5 0.0
0.0007822568288081851 -0.00012040423481098466 0.0
0.000764569485817375 -0.00011580797220030076 0.0
0.0007148162480185816 -0.00011926147306080422 0.0
0.0006204080963189064 -7.822499046334474e-5 0.0
0.000736547217050299 -0.00019206659234182705 0.0
0.0008040137285174997 -0.00019461025431492606 0.0
0.0005816545591173549 -0.00017661987443800737 0.0
0.0006171723368713351 -0.00018264922569997803 0.0
0.0008952584080584422 -0.00019573929165967536 0.0
0.0008888513232501789 -0.00018307477206547696 0.0
0.00047641480961975333 -0.0001435491786435727 0.0
0.00038651003253942895 -0.00012870472092781364 0.0
0.000769474494322018 -0.00019325695973711549 0.0
0.0005084586557864293 -0.00015292906727667585 0.0
0.0005818059493542777 -7.323552184977024e-5 0.0
0.0011390796491830145 -4.329997092885539e-6 0.0
0.0009121990241443535 -9.575645018805206e-5 0.0
0.0009072731258574672 -0.00010646182770739862 0.0
0.0004999112160587442 -9.090761087134727e-5 0.0
0.0007829815230999461 -7.129813214035208e-5 0.0
0.0006314440575537923 -0.00013808706732585201 0.0
0.00035825488000890024 -0.00010446875990968897 0.0
0.0002814627448390612 -6.949743411543359e-5 0.0
0.0005719398873687276 -8.83189888242511e-5 0.0
0.0011688907735884027 6.85630751531997e-6 0.0
0.0005377505763208722 -5.477173463059208e-5 0.0
0.0006394129944825971 -7.220561900111256e-5 0.0
0.0007235937922522656 -9.083224855529599e-5 0.0
0.00010690797221795076 -3.422958228629368e-5 0.0
0.00010938785537776679 -3.788028849895744e-5 0.0
0.0005634787633005759 -0.00012201580564408552 0.0
0.0004861005207635817 -0.00011361451824120683 0.0
0.0006632314187536649 -9.935276010856608e-5 0.0
0.0012764300023716058 4.91198002234032e-7 0.0
0.0006933784959673793 -0.0001559211103382795 0.0
0.0013558766345901877 -1.256117651644718e-5 0.0
0.0013364163309235759 -3.0276816191112122e-5 0.0
0.0004166718656121813 -7.06189148892349e-5 0.0
0.0005834307604668952 -9.432711753241274e-5 0.0
0.0006062090654247065 -0.00011004563684790026 0.0
0.0013069133008179838 4.39425268302139e-6 0.0
0.0007545082053747047 -6.20892778742351e-5 0.0
0.0008672058573132054 -0.00013663812653499368 0.0
0.0008890011016123244 -0.00011167881330104906 0.0
0.00038110462051036125 -0.0001227111444756612 0.0
0.0008101972930940535 -9.07527685636562e-5 0.0
0.0005870428268453969 -8.632268006578087e-5 0.0
0.000850589227840638 -8.112682821130583e-5 0.0
0.0008468016546649741 -8.981996296612585e-5 0.0
0.0008708236891342775 -7.584786047216297e-5 0.0
0.00032464286717799417 -0.00011374995546976366 0.0
0.001029107326038607 5.355307152184177e-6 0.0
0.00074598036123475 -0.0001813500178245286 0.0
0.0010768084155404003 -0.00016962662502145384 0.0
0.0009641750432761908 -5.860033612588216e-5 0.0
0.000657255671925465 -6.162058150861155e-5 0.0
0.0007995704559897714 -0.00015684621511488167 0.0
0.00052473033437313 -0.00011540132050069154 0.0
0.0005599221614532523 -8.035458605994414e-5 0.0
0.0012525885396244265 3.2719178060058216e-6 0.0
0.00032455420972672065 -6.681707082372104e-5 0.0
0.0009320171628944037 -2.0126182486328095e-5 0.0
0.0006716661674924815 -5.6678750919353935e-5 0.0
0.0007995371033992782 -7.300182262285715e-5 0.0
0.0011889727936835078 -5.858472898029396e-6 0.0
0.00012687320671455322 -3.184907200993319e-5 0.0
0.0009368468394723631 -0.00011635475808173857 0.0
0.0007858926569887762 -3.891354235915156e-5 0.0
0.0007741028174003083 -4.0601967749604865e-5 0.0
0.0007670466425186708 -0.00014516432994169046 0.0
0.0007051027771809612 -0.00010151887723162153 0.0
0.0007232675537223033 -0.00013936651449198242 0.0
0.0009625811606264775 -0.0001515524056051427 0.0
0.0009622668224183532 -1.7884913148130462e-7 0.0
0.0007518372692416817 -6.238826052863821e-5 0.0
0.000928974931761865 -5.9106966303583475e-5 0.0
0.0011402618309304515 -8.698858740646012e-5 0.0
0.0011484467050809789 -7.025123943795537e-5 0.0
0.0006963607985904236 -5.740898470844143e-5 0.0
0.00044645833542604675 -0.00011072454548156399 0.0
0.0009601113742324877 -0.00010022340938886038 0.0
0.00073624792418556 -6.224644148553364e-5 0.0
0.0008066130104229438 -9.892988124871532e-5 0.0
0.0013258841713904735 -1.737578526812649e-5 0.0
0.0002458646050782493 -7.744073456537445e-5 0.0
0.000794651392250959 -4.088534991425903e-5 0.0
0.0007167350636973335 -6.009664916481087e-5 0.0
0.0007016523112538986 -5.815698634323085e-5 0.0
0.000259368837345621 -3.6215345142639896e-5 0.0
0.0012084684905621825 -1.0239669898196336e-5 0.0
0.0007073547349510178 -4.921511203708863e-5 0.0
0.0011894491640505125 -5.358385495281476e-5 0.0
0.0004330688215283652 -0.0001065129248924768 0.0
0.0010096632487409522 -0.00018943376979653175 0.0
0.0010327658558924794 -0.00019035732579545162 0.0
0.0003971210686959902 -0.000107484803779702 0.0
0.0008392679259610146 -0.00010736160169296653 0.0
0.0005702735620132455 -0.00017402431528151024 0.0
0.0008277634643477221 -2.4919692481332418e-5 0.0
0.00026339573239301216 -9.58669202470267e-5 0.0
0.0007470480051108119 -4.6447205040817276e-5 0.0
0.0007216943210533907 -4.935726720899889e-5 0.0
0.0007456494448220352 -4.30185329924052e-5 0.0
0.0007361198893710397 -0.00010035595484016719 0.0
0.0009041180535017669 -0.0001168988104785004 0.0
3.7521780634845965e-5 -1.2668774024447345e-5 0.0
6.51082321466088e-5 -2.3316065865324223e-5 0.0
7.813489219113694e-5 -2.8429616410463886e-5 0.0
0.0012285827460932703 -0.00011627696509728178 0.0
0.00010469280865096853 -3.905227139822642e-5 0.0
0.0004069939706507307 -0.0001024100361998434 0.0
0.00019303500566269526 -3.784313423825142e-7 0.0
0.0010895348848205455 -0.0001795918337782312 0.0
0.00022585889705946217 -8.269826524240988e-5 0.0
0.00025130696714413775 -9.181478095197427e-5 0.0
0.0012129943969560852 -0.00012495583815373863 0.0
0.0011825820628571626 -0.00014299275483545444 0.0
0.0007065752775502319 -5.847585127058367e-5 0.0
0.0005238660743910547 -0.00013809283693268047 0.0
0.0009565812825017908 -3.6550875016949535e-6 0.0
0.0011152572163870662 -0.00017216768711963547 0.0
0.001127739024746201 -0.00016816786769665486 0.0
0.0002008335702380293 -7.418690586799342e-5 0.0
0.00014256721388307842 -5.299037517198157e-5 0.0
0.0011556292550540597 -0.00015555686401845715 0.0
0.0011683551477293282 -0.0001327582219908069 0.0
0.0007778693749349853 -0.00018288394418278909 0.0
0.00016772153728406597 -6.233192137339052e-5 0.0
0.0009668604385578269 -0.00019392298099929297 0.0
0.0002773222573576148 -8.157608150523123e-5 0.0
0.0010803882445734872 -0.00011152550894212908 0.0
0.0004016250352997102 -0.00012651632541870345 0.0
0.001006732964906684 -0.0001462242499069875 0.0
0.0010232413095189446 1.070842900065596e-6 0.0
0.0004070498053190633 -8.378515578008401e-5 0.0
0.0002838663100498145 -7.249175992347665e-5 0.0
0.0004993957309029825 -0.00011792142527837142 0.0
0.0006357577176446134 -9.958591800512748e-5 0.0
0.001088791402762063 -2.707136359852139e-5 0.0
0.0006676848963978977 -0.00016404553126673073 0.0
0.0007192004493842976 -4.688224424591935e-5 0.0
0.0007627041818999147 -4.589251254419186e-5 0.0
0.0008585797363074596 -6.461332572168577e-5 0.0
0.001002808630884457 -0.00011394423374680584 0.0
0.0004242387110685339 -2.881837316789408e-5 0.0
0.0008807298390962941 -2.4816310599208934e-5 0.0
0.00043936167619641097 -8.396623239161283e-5 0.0
0.0010985862205375582 -7.805144629510827e-5 0.0
0.0003001299128459534 1.5009832452289738e-5 0.0
0.00025256791477930903 4.325826577292163e-6 0.0
0.0006309593020251717 -6.655672666878935e-5 0.0
0.0011561593373183 -1.0084045978214092e-5 0.0
0.0007643189660176915 -5.309132840743966e-5 0.0
0.0006936439406201408 -5.340384155543217e-5 0.0
0.0012418858500480346 -1.6011705800075363e-5 0.0
0.00037617492815077575 -8.284844171627282e-5 0.0
0.0004665247468220715 -7.479540754092445e-5 0.0
0.0009245905280400634 -6.505884559433811e-5 0.0
0.0010342767690522572 -0.00011103654461018479 0.0
0.00033028213233135333 -8.005984546877363e-5 0.0
0.0002010407357884381 -5.978917751949686e-5 0.0
0.0009888095800637217 -0.00010836554329558056 0.0
0.0004876289323594226 -7.226257084328836e-5 0.0
0.0009792224065977829 -3.082375478145245e-5 0.0
0.0013629695333776267 -6.037872541872303e-6 0.0
0.0010784117017620513 -2.4428525627126533e-6 0.0
0.000800867880246144 -4.3979496526728425e-5 0.0
0.0008087691599249717 -3.667581522634913e-5 0.0
0.000802515156832169 -4.984723651220052e-5 0.0
0.0012047927296091848 5.62128959427927e-6 0.0
0.001179275344815857 7.0127282653895345e-6 0.0
6.956504061130439e-5 -1.8173381029478582e-5 0.0
5.3408402156299406e-5 -1.3460087994475889e-5 0.0
0.0005356156265583907 -0.00013732110679739765 0.0
0.0008265343412260106 -9.444235332051851e-5 0.0
0.0005210971890778174 -7.452214527828986e-5 0.0
0.0005240403285314445 -7.361223909755831e-5 0.0
0.0005428431151143452 -7.131681393835677e-5 0.0
0.0006568344214008116 -0.00013321467757019623 0.0
0.0007746503311716394 -4.5968422598900926e-5 0.0
0.00024842863326466155 -5.096849911498263e-5 0.0
0.0009043550319185474 -2.3166141576335956e-5 0.0
0.0008254104610780977 -4.25469238496832e-5 0.0
0.0005701735097009593 -9.216335590505176e-5 0.0
2.6819556567255355e-5 -5.984516287013876e-6 0.0
0.0006376204167789274 -9.431222958043381e-5 0.0
0.001233087425627664 -2.1820597263018934e-5 0.0
0.0010194175566849723 -3.273456004873421e-5 0.0
0.0009665729454545689 -1.7309752535229037e-5 0.0
0.0011690953546944342 -2.9821607248354002e-5 0.0
0.0008376177528297752 -3.073881068908206e-5 0.0
0.0005466327406935389 -6.70499334690249e-5 0.0
0.00018413992524624731 -4.399940745678851e-5 0.0
0.0006107135051559013 -6.665413384135838e-5 0.0
0.0007186953132129721 -5.8396273248528264e-5 0.0
0.00022139030158614345 -5.8455943179295463e-5 0.0
0.0006056695934587767 -0.00018082849870498533 0.0
0.0008138177147044243 -3.326701506138682e-5 0.0
0.0004206998352752585 -0.00010692375756302202 0.0
0.0009868202123636317 -0.00010006938533854908 0.0
0.0011097641438872902 -2.8092811184514872e-5 0.0
0.0004884536159371762 -7.160642554352443e-5 0.0
0.0009957496709100066 -3.982631829191677e-5 0.0
0.000746948588523802 -4.743478036762853e-5 0.0
0.0006397776782444094 -8.938029393350387e-5 0.0
0.00027710196157366165 -5.611676154575029e-5 0.0
0.00048235414869791867 -7.591425902772481e-5 0.0
0.0007159393296069193 -9.936251729615776e-6 0.0
0.0002017190636935118 9.707165331400236e-6 0.0
0.0009587994232015536 -7.042920773836258e-5 0.0
0.00029692657734405124 -6.681632071199133e-5 0.0
0.0006547991754786309 -8.66393751697962e-5 0.0
0.0010945544878326657 2.249087078183953e-6 0.0
0.0009076409011273722 -6.25677639707394e-5 0.0
0.0005256768559565438 -1.4686501800705705e-5 0.0
0.00010023790691602543 -2.3945829960834693e-5 0.0
0.0003805747226686971 -7.119095989661937e-5 0.0
3.1724456869480964e-5 -2.6459591079812074e-6 0.0
6.960724792432739e-5 -9.854726728813782e-6 0.0
0.0009036052051566599 -5.3544240475934536e-5 0.0
0.0008119116574300681 -2.6412476715593342e-5 0.0
0.0004475083383198028 -0.0001398296195198844 0.0
0.00033178338303660335 -9.476924548576003e-5 0.0
0.001077671281712392 -1.352711039664098e-5 0.0
0.000173644347829077 -6.1349193179359e-5 0.0
0.0008739674667183513 -6.745959983108306e-5 0.0
0.0007251236482132297 -0.00013131613484625078 0.0
0.0010818198424569683 -8.44021966941151e-6 0.0
0.00041060596492389944 -0.00012080867558932198 0.0
0.0011686379241147003 -0.00010757196690273727 0.0
0.0006978357870509685 -5.18243844693879e-5 0.0
0.00024278667174708918 -8.531512980671757e-5 0.0
0.0009051724354983341 -0.000186150539608327 0.0
0.00025187880261239297 -6.572904933614549e-5 0.0
0.001270529785157155 -2.4099525423252715e-5 0.0
0.0001875040925698916 -4.846930754440656e-5 0.0
0.0009224550407476201 -5.18977779126037e-7 0.0
0.0008420650914150821 -2.691979939792168e-5 0.0
0.0007782588995030097 -4.6557809837531834e-5 0.0
3.34193973800056e-5 -1.1255572234393052e-6 0.0
0.0006659188524058559 4.7321539498172e-5 0.0
0.0004138330610880334 -6.933672616458682e-5 0.0
0.001040194539975162 -0.00017950534340884758 0.0
0.0010540622071484337 -0.0001892196436757816 0.0
0.00011624963911960609 -2.049383383522981e-5 0.0
0.0007666099864960692 -4.3014528236166294e-5 0.0
0.00034488252621848146 -9.593088402494613e-5 0.0
0.0005548876670657694 -9.806524389942511e-5 0.0
4.442453243247599e-5 -1.1271849151724633e-5 0.0
9.084908228631745e-5 -2.072927043658601e-5 0.0
0.0007271998223174244 -6.24829767447192e-5 0.0
0.0006701017790454632 -8.350403830230721e-5 0.0
5.874570734530101e-5 -1.3375772092188559e-5 0.0
0.00015957506017177917 -3.8232163101991124e-5 0.0
0.00011742247251054617 -4.380335037486548e-5 0.0
0.0010888070945773722 -9.478236616890053e-5 0.0
0.0008425206311071242 -9.846712558425249e-5 0.0
0.00018410942151844627 -5.396277930487347e-5 0.0
0.0010092394877507964 2.3885784497138467e-6 0.0
0.0009326683868395135 -4.258892634132959e-6 0.0
8.474912246712518e-5 -2.8675202573636372e-5 0.0
0.0006037767839369336 -6.749174823187973e-5 0.0
1.141572725284746e-5 -3.0105019951186756e-6 0.0
0.0013831264043293995 -6.489413342369583e-6 0.0
0.0013273660281597007 -5.074324755240119e-6 0.0
0.0004119913867116699 -0.0001340726836269505 0.0
0.0010130989921725915 4.618285270151126e-6 0.0
0.0008506270638947321 -0.00013066766576635798 0.0
0.00020591442005584226 -5.200381234241886e-5 0.0
0.0008202531374089493 -0.0001949707029957214 0.0
0.0002241164136636986 -4.8893728433576215e-5 0.0
0.0011513081897485326 -1.542592951104719e-5 0.0
0.0005402154356055724 -9.951393589331201e-5 0.0
6.621819973652916e-5 -1.6915856106040232e-5 0.0
0.0006958902608554934 -6.319016067554006e-5 0.0
0.0006885134762335538 -6.214087254163535e-5 0.0
0.0012323035737837628 2.343523191211892e-6 0.0
0.0007213834298454544 -9.744706553118992e-5 0.0
0.00010679456526083682 -1.1002304074567736e-5 0.0
0.0011516618191630321 -0.0001445791505014397 0.0
0.001239053916269712 -6.855683265380037e-6 0.0
0.000932421813747788 -1.0540859230138283e-6 0.0
0.0009510558710166876 1.943394705888546e-6 0.0
0.0005718116780393214 -0.00014710010218724412 0.0
0.0013261984284018689 -5.021678348294158e-5 0.0
0.0006251989456539622 -6.622468559226541e-5 0.0
0.00019441944883502094 2.4434026898749026e-5 0.0
0.00017920464744746158 -5.5959920428970926e-5 0.0
0.00046804391273289747 1.5758308267069932e-5 0.0
0.0011587582887835728 -0.00010409951171048527 0.0
7.490621962765357e-5 6.227431017963318e-7 0.0
0.0007230519788199639 -4.5933735451166786e-5 0.0
0.0010252430243076697 -2.4503394670920446e-5 0.0
0.0008181721423525481 -5.0896646588827925e-5 0.0
0.0013527229520570066 -3.449461442012569e-6 0.0
4.168080030928147e-5 -1.0134539483562063e-5 0.0
0.0012432480661888822 4.935319264292362e-6 0.0
0.0013581421807826596 -3.466733969879398e-6 0.0
0.0006321599504686896 -0.0001745544317890329 0.0
0.0007469095382005907 -5.843250319550441e-5 0.0
0.0005677430879314916 8.149999744783617e-5 0.0
0.000346867020256973 -8.1115713705139e-5 0.0
0.0004635339056139392 -7.354310902542749e-5 0.0
0.00059639614315725 -6.807782128471219e-5 0.0
0.00030343938084340127 2.1301922004008016e-6 0.0
0.0004988301085149825 -0.00011243114287838563 0.0
0.0002816154526359225 -5.491548902367224e-5 0.0
0.00019508956963633814 2.4490445867794987e-5 0.0
0.0006352283538798098 -6.690084588320062e-5 0.0
0.000921881119111927 -0.00011136028105236207 0.0
0.0011119355312882485 -8.292154549988485e-5 0.0
0.0005199999283653302 -6.610536585066365e-5 0.0
0.0003630757617560933 5.547699147102519e-5 0.0
0.0008391181081468449 -4.0500432801081454e-5 0.0
0.00043999492949552566 -7.050735785724235e-5 0.0
0.0010444839017233255 -7.045629391762456e-5 0.0
0.0004762857046011994 9.003428673100237e-5 0.0
0.0004336817966319079 8.765247649538668e-5 0.0
0.0007096927345325407 -8.854786772034861e-5 0.0
0.0008748524237695882 -7.961636312028802e-5 0.0
0.0005337405743565721 -0.00016204458375815994 0.0
0.0009953392225035085 -0.00019231142655025323 0.0
0.0003915404392088674 -8.088241198492658e-5 0.0
0.0009244865898799596 -0.00019619300303326545 0.0
0.000333177307208503 -6.2625281088199e-5 0.0
0.0010659908324097012 -7.183452430368393e-5 0.0
0.0005265557989919754 -9.672851917265894e-5 0.0
0.0011485537081309478 -3.0028645717864145e-5 0.0
0.0003492061122767256 -7.865341377510837e-5 0.0
0.0006883557239238581 3.110601462398873e-5 0.0
0.0005455493150762093 -7.061633574968487e-5 0.0
0.0005924832073842445 -0.00012371682285111717 0.0
0.0006578793852284905 -5.916624438882825e-5 0.0
0.000681836712292535 -6.128205870697667e-5 0.0
0.0003926218000136199 -9.7705202192664e-5 0.0
0.0003955007503349288 -0.00010273544560611983 0.0
0.00027515479458933525 -6.241028034076743e-5 0.0
0.0004961571521145045 0.0001738658858361814 0.0
0.0006095596783738889 -0.00014567262445131768 0.0
0.0011666367201807915 3.1637285535790347e-6 0.0
0.0010210220171439726 -0.00010579902264489308 0.0
0.0008193417204902916 -3.627798583048262e-5 0.0
0.0003758650398375521 -8.026204966536397e-5 0.0
0.0008892132798289469 -4.277641764088498e-5 0.0
0.0007415888264921039 -0.00012763802190809867 0.0
0.0005274214457682691 -9.270109439684023e-5 0.0
0.0012583420443010055 -1.56651541747203e-5 0.0
0.0013374267730105792 -9.765501105124593e-6 0.0
0.0005036349022737928 -7.437580673531053e-5 0.0
0.0008737529988497476 -0.0001866476526524682 0.0
0.001182702870756645 -0.00012856997791736054 0.0
7.544833591274254e-5 -1.8095700129911588e-5 0.0
0.0003593797257476257 -6.979027949504775e-5 0.0
0.00040836439537357886 -8.140851447580086e-5 0.0
0.0012092816932115975 -0.00011293592014853908 0.0
0.0004979600545492967 -0.00010706187775130164 0.0
0.0009441817528749942 -0.00010362103376751216 0.0
0.00014884556108100115 -5.236646204398858e-5 0.0
0.0007482078604005212 -6.96468364051566e-5 0.0
0.0011085440386867768 -6.241389111157083e-5 0.0
0.0008612657536766205 -9.354773894033552e-5 0.0
0.0012836426153399732 -1.6326011109655326e-5 0.0
0.0008895900831784391 -0.00017060605111069588 0.0
2.6205241892788888e-5 -5.171327999546301e-6 0.0
0.0006127963004728339 -6.868701368393299e-5 0.0
3.241515859445432e-5 -7.796187564059442e-6 0.0
0.0004946810623858561 -1.973176400974867e-5 0.0
0.0003253030734691367 -4.859413002120302e-5 0.0
2.5220439426048807e-5 -6.861465958296033e-6 0.0
0.0003624654759849531 -0.00012421114649779203 0.0
0.0003390481523292443 -0.00011368822359213196 0.0
0.0006374454611657968 -6.696515492015585e-5 0.0
0.0006788755389724103 -6.674984029796535e-5 0.0
0.00025546661106870604 -8.976635498220611e-5 0.0
0.0004639832040845073 -7.120857337541907e-5 0.0
0.000777493143791936 -4.292618811175552e-5 0.0
0.0002658137017805778 -6.752739618117919e-5 0.0
0.0009475814809483029 -8.075995784560107e-5 0.0
0.0007600563151937734 -0.00012383406277951335 0.0
0.00020451110078520458 -4.594290654969366e-5 0.0
0.00011885983555947653 -3.7053427320989357e-5 0.0
0.0007162917939991236 -4.769266935908364e-5 0.0
5.5486855414457296e-5 -1.7844579731742572e-5 0.0
0.0013071613901423408 7.85671852366441e-7 0.0
0.0005358979805472094 -4.477321475424609e-5 0.0
0.0006420272825251255 -6.426820041363035e-5 0.0
0.0011396205629594718 -0.00011796561348999173 0.0
0.0012599873032103422 -9.580623813888708e-5 0.0
0.0010310361931822295 -1.745720090754056e-5 0.0
0.000608131552813643 -0.000138000039711446 0.0
0.0007768461420818695 -6.39170358939714e-5 0.0
0.0011088897311104808 -0.00016184558619133823 0.0
0.0006550039255499371 -0.00018839358816321287 0.0
0.0010908871195304383 -6.0032077800705945e-5 0.0
0.0008649460912174587 -8.462761740554232e-5 0.0
0.00048352275158766256 -0.00010327795836665092 0.0
0.0009031687107163303 -8.744109464990278e-5 0.0
0.0005128707536537127 -8.979139362321053e-5 0.0
0.0004289001279696651 -0.0001262434883905538 0.0
0.0006431348172534292 -6.172314984624134e-5 0.0
0.0010217487601898482 -0.00018110145310712428 0.0
0.00027377287514147934 -6.075783569895618e-5 0.0
0.00021678574866217177 -7.686752141784687e-5 0.0
0.0009521299820374427 -3.0483992249557408e-6 0.0
0.0003389892967337001 -6.960673472068189e-5 0.0
0.0008684998700281166 -5.1004802711363614e-5 0.0
0.0006174317978354851 0.0002516369390109074 0.0
0.0010797885718104557 -1.3204115440075645e-5 0.0
0.001145175621980686 -2.2328706633177398e-5 0.0
0.0007266228993609995 -5.968634189601626e-5 0.0
0.0010039030457769142 -2.4443707599715702e-5 0.0
0.0007827347217038943 -0.00014044389070639668 0.0
0.0008492814636970992 -0.0001971093252103812 0.0
0.0004255728860275802 -8.156084434958829e-5 0.0
0.0005349837668750057 0.00010615146155143212 0.0
0.00029832353295821345 -6.387371272553952e-5 0.0
0.00031340967918022964 -0.00011187004299919414 0.0
0.000599830767190394 -7.224454175502895e-5 0.0
4.185988444751263e-5 -1.0184692562708568e-5 0.0
0.000247829041278596 -8.286215798377912e-5 0.0
0.0006884944188274029 -5.629338713964781e-5 0.0
9.748868531773604e-5 -2.5985854825326365e-5 0.0
8.781193803114102e-5 -1.4817843535901572e-5 0.0
0.0006823122181139055 -8.089678452856003e-5 0.0
0.0007275534871595671 -4.4914478550376474e-5 0.0
0.0012414056960620243 -9.371348897379066e-5 0.0
0.0006055116453011414 -6.806906726329842e-5 0.0
0.0009266506723356276 -0.00010058322526117414 0.0
0.0007563145104955427 -4.223873248052665e-5 0.0
0.0002095962482957185 1.768100923760975e-5 0.0
0.00027210462174844804 -4.803347421250317e-6 0.0
0.0013108916775815714 -9.754845093183307e-6 0.0
0.0009243229700617753 -9.793985982498001e-5 0.0
0.0002250779131984736 -5.5308845528430345e-5 0.0
0.0008079049649715377 -2.8881185554363233e-5 0.0
0.0007109459886122733 -6.536606417423343e-5 0.0
0.0007069039700501585 -5.055529874487806e-5 0.0
0.0003272837964304393 7.804866693729904e-5 0.0
0.0006795553286022508 -0.00019218130304566206 0.0
0.0012248928398143704 2.3342693636687268e-6 0.0
0.0006789997002880671 -6.988583551245257e-5 0.0
0.0007309536909186801 -4.7188708831859504e-5 0.0
0.0008454179258314984 -3.952469843956932e-5 0.0
0.0006600811876823481 -6.434946734824267e-5 0.0
0.0006844703385206592 -6.570038040096207e-5 0.0
0.0003590858850714391 -0.0001014539112704435 0.0
0.000884412708325647 -7.906361824839786e-5 0.0
0.000579896483732231 -7.03553252490353e-5 0.0
0.0007200220926192124 -4.741947588360019e-5 0.0
0.0010634655097461097 -0.0001873408078294358 0.0
0.0006175062398446585 -6.540062714037222e-5 0.0
0.0008213593749331433 -2.3845484595551854e-5 0.0
0.0007644050260358656 -4.1641981763134266e-5 0.0
0.0001223480565812792 -4.313867500583702e-5 0.0
0.0010262787186440625 -9.459738033908499e-5 0.0
0.0007413029324462123 -4.273692611477695e-5 0.0
0.0004091059598065943 -0.0001250754356911076 0.0
0.0008822695855854996 -7.37903916753899e-5 0.0
0.0009542518852711959 -0.00019637876271641616 0.0
0.0013508925803202994 4.1444224748901915e-6 0.0
0.00011015826153097613 3.2497246078218e-5 0.0
0.0005866651621117795 -7.429429700516218e-5 0.0
0.0007299478127338873 -0.00018338318248425624 0.0
0.0004861782197410284 -0.00014083634341678658 0.0
0.0005494167278185027 -0.0001677364031183238 0.0
0.000126080767441929 -3.1155321056161266e-5 0.0
0.0009442858599025358 -9.613479582963301e-5 0.0
0.00042952102654948113 -7.95039691558166e-5 0.0
0.0005992222915222428 -6.778586563242284e-5 0.0
0.0005189350287163368 -6.849789844339094e-5 0.0
0.0005628621853200649 -0.00016563078772538598 0.0
0.0009926136651716459 -5.331450998810924e-5 0.0
0.001266206003235116 -2.3429350078355036e-6 0.0
0.0007814727490965693 -0.00013301393780399605 0.0
0.0006744861805534842 -7.446443495532245e-5 0.0
0.0004581361117332687 -0.00010203222486034938 0.0
0.0007064397736282324 -0.00019421621650970577 0.0
0.0009869530928128091 -7.879915118073923e-5 0.0
0.00011159977361841282 -2.9171197682816567e-5 0.0
0.0012041048629607691 -7.811606505872668e-6 0.0
0.000587051470562143 -0.00017052203954974308 0.0
0.0005986585181938931 -0.00014884274405471391 0.0
0.0009044111980745118 -0.0001649644689499079 0.0
0.0013640955749880418 -1.3151794024773793e-5 0.0
0.0005143257169024607 -0.00014866568357031504 0.0
0.0004915478668747781 -6.466741716705463e-5 0.0
0.0004868252074208772 -7.489081142960329e-5 0.0
0.0008374807268765743 -4.6296037442853124e-5 0.0
0.0013178871446641392 -5.49827041741721e-7 0.0
0.00012912018483622617 -3.9728145849163337e-5 0.0
0.0006892251852068216 -6.222976825946709e-5 0.0
0.0011749898221514816 -0.00011405644947265198 0.0
0.0013105310632921102 4.085948503447685e-6 0.0
0.00042280683603184045 -7.212605897010334e-5 0.0
0.0005984930742053303 -0.00017327356416052225 0.0
0.0012646300731433493 -1.1647654866516085e-5 0.0
0.0002568574558489167 -8.001219033837598e-5 0.0
0.0013448990483852776 -1.530028579526927e-7 0.0
0.00043622894475884373 -0.00013900814886859907 0.0
0.0008888038983180381 -6.989951701998138e-5 0.0
0.0002915376565654092 -3.502796620067262e-5 0.0
0.0008366428236001849 -2.1264950707958286e-5 0.0
0.001308688781493856 -4.811796694436185e-5 0.0
0.0010076086362381456 -7.109325425739273e-5 0.0
0.00039162272013554587 -0.0001260806872316394 0.0
0.0002888923594781961 -0.00010475834797402452 0.0
0.0003602789139864554 -9.517182586229323e-5 0.0
0.0010866328664061087 -0.00016906478815775078 0.0
0.0009840166182502647 -2.497966439010693e-5 0.0
0.00024272939221143123 -5.840085546377138e-5 0.0
0.0005629823489997689 -7.496280722584756e-5 0.0
0.0008335405131197869 -5.333670799711958e-5 0.0
0.0005410623524461945 -8.065256661005594e-5 0.0
0.001281293224895547 4.711425961458649e-6 0.0
0.0009017128934981089 -1.9786749554533875e-5 0.0
0.0005808052203977073 -6.985009655746428e-5 0.0
0.0002500113531412236 -5.7424114935394194e-5 0.0
0.0009532165706926314 -7.970664440269722e-5 0.0
0.0008055996307435272 -0.0001758288580302893 0.0
0.001138187536249862 -0.0001534403704151166 0.0
0.00046447346526430974 -0.0001378021782400787 0.0
0.0008857926993885422 -1.896406390534092e-5 0.0
0.0005159976384193156 -8.638418175923236e-5 0.0
0.0007610685250182502 -0.0001849503930746867 0.0
0.0011295421678308283 -0.00011647561575462951 0.0
0.0009825166127304641 3.7296547144269824e-7 0.0
0.0012774160718737972 5.0734233288968735e-6 0.0
0.0003783966187836657 6.845550446636692e-5 0.0
0.001230393360189222 5.790012257215745e-6 0.0
0.00045471189016011115 -9.598089158935382e-5 0.0
0.001123479615346597 1.3210536811385847e-6 0.0
0.0008271204363343831 -2.1326307582928673e-5 0.0
0.0009124196403119918 -1.1969589870570668e-5 0.0
0.0004435872737411263 -7.7262727262428e-5 0.0
0.0009182126491575096 -2.4843645886366508e-5 0.0
0.0006220245219416425 -0.00017606805263873783 0.0
0.0003700092993157802 -0.00011842807142901736 0.0
0.0007376238758439034 -4.267858181615634e-5 0.0
0.0009809452930574412 2.9485111475755658e-6 0.0
0.0005898624614891696 -0.00015847191575433267 0.0
3.0673077052485034e-5 -7.381179544076198e-6 0.0
0.001327214908482452 -4.0634137383484046e-6 0.0
0.001111774917607685 -4.459424664592196e-6 0.0
0.0006542544291912961 -6.286962291980041e-5 0.0
0.0013474887701944637 -9.02709613957166e-6 0.0
0.00042730502170157424 2.365817514037896e-5 0.0
0.00072097690763124 -6.531757341727818e-5 0.0
0.0013806965070812269 -1.1757122915341421e-5 0.0
1.1033346095396842e-5 -3.2107369098633396e-6 0.0
4.391532944440917e-5 -1.0904308915938492e-5 0.0
0.00044048338465089553 -6.947894464776369e-5 0.0
0.0007876641443014769 -6.57269480915578e-5 0.0
0.0009264653008105812 -6.365190584839461e-6 0.0
0.0010212651634584047 -0.00017192159679298426 0.0
0.0013312470257173037 -6.481973499885464e-6 0.0
0.00012244290642243297 -3.250954376065494e-5 0.0
0.00032322142514980696 -3.563779308438969e-5 0.0
0.0008093261972361102 -0.00016593726254757313 0.0
0.0011590598136050913 -6.226673080601442e-6 0.0
0.00037076668177290806 -9.559551378031168e-5 0.0
8.645675423472033e-5 3.1845802391850436e-6 0.0
0.0008217687617826013 -2.754543397623271e-5 0.0
0.0004666683417483883 -6.373457971374867e-5 0.0
0.0010310606294114742 -6.077350440549266e-5 0.0
0.0006779921245089837 -5.892706255575803e-5 0.0
0.0005352629405523172 -8.307655174405257e-5 0.0
0.00118969384781032 2.1336820393320612e-6 0.0
0.001194414234693745 -0.00012541396413405932 0.0
0.0009884490937820119 -0.0001848647284825509 0.0
0.0003426659590004452 -6.87413193743454e-5 0.0
0.0012477602582552185 -8.704227146987468e-6 0.0
0.00023610350574048648 -6.138963572815076e-5 0.0
0.0012609776338232434 1.95815323619948e-6 0.0
0.0010973830178146776 -0.0001684618854710841 0.0
0.0008601193861542498 -2.1436286453809318e-5 0.0
0.0009176696167074764 -0.0001886716310487554 0.0
0.0010408797688723002 -7.140672020161082e-5 0.0
0.0006520112454676506 -6.0023947702935555e-5 0.0
0.00036756350521180913 -0.0001131564211604138 0.0
0.0006101189711605378 6.482275624145774e-5 0.0
3.417902850009726e-5 -5.962324781669093e-6 0.0
0.0013105780683124546 -4.9883067190562714e-6 0.0
0.00015952294232882084 -5.706440548571703e-5 0.0
0.0009720188338103679 -5.269428917722964e-6 0.0
0.00026586371995466536 -9.379712546173776e-5 0.0
0.0008907654381448607 -6.249202517646754e-5 0.0
0.00031497293698703446 -2.022579085273748e-5 0.0
0.0001420175821988798 -3.7351147516995976e-5 0.0
0.00019107157016490537 -7.137612856554122e-5 0.0
0.00017692830081571142 -5.324364787043941e-5 0.0
0.0005819345137747207 0.00015415335868606671 0.0
0.0010251283381555783 5.215550453153224e-6 0.0
2.257212117686193e-5 -5.684489998013468e-6 0.0
0.0011017086749880237 -2.2198681397933135e-6 0.0
0.0010995434309944109 -2.827454238502847e-5 0.0
0.0008075475113274723 -6.110482440199638e-5 0.0
0.0006692906670621466 -5.841167996791791e-5 0.0
0.00040788046613995287 -6.519057139438818e-5 0.0
0.0006653205281536541 -5.7560665490021574e-5 0.0
0.0008256847432712763 -0.00015108924988198376 0.0
0.0004444679285807834 -7.981253069477262e-5 0.0
0.00033069103473318045 -0.00011305291680119883 0.0
0.0011323632488838891 -7.190461050210523e-5 0.0
0.0009341095298169195 -7.283706929790542e-5 0.0
0.00016423293316734504 1.6613566972049626e-5 0.0
0.00046351079138755736 -1.6455573533314175e-5 0.0
0.0008718755993192047 -3.8534574633813305e-5 0.0
0.0008305105325825355 -0.00018744707811739944 0.0
0.0005590405199173548 -7.69142820442954e-5 0.0
0.001050797742837943 -0.00018194266624191425 0.0
9.708847948011448e-5 -3.4002992571092765e-5 0.0
0.0009180685163807705 -0.00016046138048014135 0.0
0.0005215181613897979 -6.27583208259217e-5 0.0
0.0012538479518970926 -8.762221886201785e-5 0.0
0.000504967789837396 -3.3921207465810816e-5 0.0
0.0008330162527579548 -2.0364139838801173e-5 0.0
0.0006880122436497734 -7.748347790394864e-5 0.0
0.0007309131036466153 -6.476578212642678e-5 0.0
0.0007801139759319429 -3.691547310462023e-5 0.0
0.0007963061231410431 -0.00018507684287647527 0.0
0.0010307945628428344 -0.00018207509716324996 0.0
0.00036397842421928746 -8.010769875306284e-5 0.0
0.0008520525227419278 -3.8628053009211716e-5 0.0
0.0008279810368881038 -3.6723387052795956e-5 0.0
0.0010241148042107373 -0.00016040435794101768 0.0
0.0006585056591977483 -5.928640389177655e-5 0.0
0.0007319616243440027 -5.2383402969413226e-5 0.0
0.00036618054257568666 -0.00010856048604114654 0.0
0.001245987807207914 -7.962854673253262e-5 0.0
0.0008702744593862678 -0.00019755030784135918 0.0
0.0005909205872474533 -0.0001525929720105737 0.0
0.0013278265360918166 3.346398517939097e-6 0.0
0.0005840157507901335 -0.00013262043940639212 0.0
0.0010769870314915513 -5.19520078181355e-5 0.0
0.0004017560692686252 -7.032911780748809e-5 0.0
0.0008896427714958985 -7.221825863736329e-6 0.0
0.00029844522953294896 -4.212847681826431e-5 0.0
0.0006373760598325183 -6.864616840283994e-5 0.0
0.0005678159435940365 0.000212868877303217 0.0
0.0013581514336101941 -3.499849183270231e-6 0.0
0.0007863801528808072 -0.00012750331630729094 0.0
SCALARS damage float 1
LOOKUP_TABLE damage
0.8033235383377543
0.8808806631795696
0.9646158866258494
0.5238396636973788
0.9986321770330305
0.9999008731426208
0.5616243463512421
0.9464502197050995
0.9385419548298766
0.9446640269174904
0.9500659607139911
0.9528482668917458
0.9564187090750111
0.9601059633641669
0.9603352083355126
0.9584449577807961
0.955881031614136
0.9537879651656633
0.9517695527967768
0.9494663464083694
0.9473933980427448
0.9465160136439746
0.9444588390598729
0.9424872742221875
0.9409880484507159
0.939065094820737
0.9362031383370357
0.9334516900982178
0.9299092937093381
0.9263324421249934
0.921118293407325
0.9142785500333237
0.8751921753519893
0.9078080764055383
0.9113914969664424
0.9154662079242437
0.9191468021322114
0.9220383334590798
0.923314148778104
0.9239235831572506
0.9253872357135078
0.9271556793317128
0.9278706882481446
0.9270290777935513
0.9306358074817045
0.9302486925966735
0.9168933691210048
0.9212092200652464
0.9247292094334983
0.9297309426530799
0.9317406484126441
0.9358976692533376
0.93748677932689
0.9441648142688048
0.9411451767175252
0.9455777067059818
0.9450060160729628
0.9479530426575254
0.9497911947792006
0.9533554740017064
0.9523845592029401
0.9556471797482912
0.9566869274436025
0.9594649325175545
0.9603278216938581
0.9577410165899639
0.9503595346148149
0.9425598805971708
0.9423520374945901
0.9282765582278716
0.9458959771570189
0.9503025161933181
0.9493968374732565
0.9725470784481863
0.9796794517001911
0.9808254338968084
0.9834391670321314
0.9826987687510834
0.9853207093144276
0.983950801964554
0.982240986102473
0.9850852186491715
0.9858321773311324
0.9843716189586016
0.9854028754989201
0.9869363572782449
0.9932760985286295
0.9935027953146712
0.9953467794728796
0.9942440950920504
0.9940484002021757
0.9944365359288242
0.9946718312784901
0.9951259501276218
0.9948661237760925
0.996095473427101
0.9952872998612267
0.9956220723105416
0.9960089344198744
0.9962346952643847
0.9961058531025831
0.9958181541867627
0.9960705140434677
0.9949614966405359
0.9954560632809806
0.9964369021383581
0.9959237708632198
0.9975964030377226
0.9978691089077475
0.9981309035326238
0.9982463830549435
0.9978446717977775
0.9985795783595982
0.9960159909966744
0.9894870803477092
0.9811656027471887
0.9797782766064483
0.9789781895353679
0.9761411564935624
0.9734737255225536
0.9682551231674794
0.9589906235597712
0.9439995275082701
0.9201895506353811
0.903999307980708
0.8848162495483364
0.8610976187393533
0.8110276123347818
0.7630085537014603
0.7531055114978553
0.5828563239631158
0.7375878906384304
0.803929644035673
0.8564661528206077
0.8779936287051765
0.8907868598267374
0.8979233039067777
0.9035481943170824
0.907070933168963
0.9100777117921944
0.9130203337416513
0.9148986853728688
0.915578159859267
0.915720106937126
0.9153153561056666
0.9143788899444935
0.9133100815321612
0.9120411243718543
0.9118758236034894
0.9165730361160875
0.9200475071671445
0.9284676775437731
0.936858759888892
0.9465485287609803
0.9596864199038891
0.9723502694229821
0.9764488644839499
0.9951821227514015
0.9973667508196855
0.9988750495981324
0.9992045988357551
0.9998873660227645
0.9960303675946708
0.9896477941610433
0.9778953447977444
0.9578104225128844
0.931216226694211
0.9011517585729263
0.8668651945371021
0.8103488939073372
0.7374350015480379
0.6702328371027566
0.48044010288351124
0.6347230614765288
0.7273406114244204
0.7912544676837093
0.8416724849197664
0.8904057226816178
0.9195804124471364
0.9478853633076081
0.9730938036430902
0.9832409833224115
0.9935587615679226
0.9963588308147262
0.9990289756149564
0.9959545026003799
0.9613494525268491
0.8296752783136873
0.9518435484991019
0.9947238609215023
0.9498338646708517
0.9937121823645977
0.9776078189713435
0.9918583143893168
0.9847873361472517
0.9987574795888636
0.9400786335152473
0.9962357087496564
0.9255671822372422
0.9459419956962958
0.9135314753596021
0.8485077969225145
0.8843715822118616
0.5695482464482959
0.8403672432386811
0.9784336857551803
0.9263330431234306
0.9407716811026103
0.9146404925474378
0.9133622866402669
0.9536549267917084
0.9569762643210217
0.9223710760417553
0.963241754166858
0.9277181912423009
0.9359670621138586
0.9058609447431787
0.9413524367506281
0.9849719391010737
0.9928576840826633
0.9835866008448928
0.9945506619977644
0.995568153223136
0.9581782919651195
0.9465259502761337
0.9024460600291513
0.9182428018718204
0.93032363222028
0.9573203217894254
0.8850754871430379
0.9262118163723245
0.9924565373585039
0.9768355422433631
0.9510018033623577
0.9335826857533123
0.9437550095540385
0.9152450532255423
0.8015277278706002
0.7646921692303243
0.9086556169908055
0.8009836277113886
0.9954062886038006
0.9887614845037769
0.933740946653707
0.9556655129781377
0.9913130337050493
0.9989484061480405
0.9355478041883818
0.9874340541988859
0.9204282324672031
0.9229836688787046
0.9718692052508532
0.9757066156198891
0.9936509202497642
0.8547409874161273
0.9173746989047792
0.9950931982514456
0.9991102664197988
0.9097730434635474
0.9717989790516932
0.8966339905330091
0.7472866447416558
0.9989065303757666
0.994677385617896
0.9868561009416587
0.9887935761938164
0.9892992654184678
0.9872431707083886
0.9804018329210468
0.9773562792332919
0.9697622455707969
0.966198293800726
0.9732807528886392
0.9612864030495399
0.9671069563856852
0.9550501226674173
0.961134460205948
0.9469292463415155
0.9848167813996145
0.8282833062382703
0.9428478714152861
0.8597135789114722
0.9496860818361241
0.8969174282326804
0.9549141774205604
0.9214017594611917
0.9582806238352168
0.9323109699392845
0.96003430688421
0.9411593532405077
0.9613987408074939
0.943952388269303
0.9611538871772694
0.9481081133160448
0.9618345453085846
0.9476215260909806
0.9591013430979131
0.9477195584340941
0.9578774623511223
0.9492779896788937
0.9584811912684998
0.9511245777110264
0.9591714632936426
0.9521213683878722
0.9590795657394569
0.9528407589468062
0.959772532852664
0.9520244463803315
0.9581060481631226
0.9536191082669464
0.9580558042212222
0.9556991210853776
0.9589608777300731
0.9558158373491012
0.9591294571097048
0.9569929635073796
0.8808099978289806
0.9599695794565989
0.9332533111100687
0.9481035239883486
0.9578748130048172
0.9606392959387319
0.9586393814243949
0.9558086182731897
0.9567942509985028
0.9611947670623884
0.9621763702236666
0.959877607778221
0.962668074518358
0.9627971497980341
0.9632088264575053
0.9536048824279961
0.9547432031419852
0.9629718649670507
0.9509929582152047
0.9523789349229218
0.9636793054669031
0.9634618683233797
0.9482941234814406
0.9505705367952547
0.9641611392061944
0.9638272426704719
0.9452937221742772
0.9474086575371383
0.9646188488477995
0.9644785499774366
0.9421517314974094
0.9439003753887483
0.9654252840923054
0.965332319527719
0.9382822111071356
0.9415016865195782
0.935335561710097
0.9315262045671487
0.9655074536708348
0.9664058342326445
0.9661948883007198
0.964748101717606
0.962231988037514
0.9659335675793421
0.9636853008187501
0.9647555464127926
0.9389786935970674
0.9337240842153371
0.9436471273276836
0.9673145546580697
0.9362336685616649
0.9309187895784478
0.9652001272034566
0.9337919400812558
0.9291105635654587
0.9326031712136824
0.9276036838324846
0.9239459825989452
0.9222832174810022
0.9188569370405566
0.9314828612738378
0.9191390939137539
0.9150363109349766
0.9358283890052983
0.9349401875112551
0.9152459581669665
0.9111277746812955
0.9626371940911694
0.963246531553868
0.9381684062580126
0.9368024147216446
0.9612373049436813
0.961684496646392
0.9645525559920468
0.9616647031864028
0.9658276305411883
0.9621556900903213
0.96661835497748
0.9623013027471554
0.9674922800012272
0.9576443159486018
0.9615788849316984
0.9681360984158558
0.9401175034092609
0.9116685609222254
0.9074822527843726
0.9722753791485771
0.9738014639702041
0.9693874144183853
0.9772528176176591
0.9390234707786115
0.975749344215098
0.9708494094064342
0.9421634385799948
0.941278630702019
0.9383881238747273
0.9775033235287885
0.9724864914119704
0.9443840615500302
0.9456606677922721
0.9403253221251304
0.9370147940699551
0.978876569303285
0.9743163017861002
0.9629113262902076
0.9816719786141987
0.9645854166508904
0.9534528657864306
0.9088613015869318
0.9056165444746118
0.9031010359638257
0.9026407886828383
0.8973704827005344
0.89826438817912
0.8928347816157974
0.9475566351323614
0.9493851302741865
0.9390603073458618
0.9356731187623312
0.9760117892358566
0.8953144802429699
0.8887282596333791
0.9509174754380413
0.953379516339549
0.9525887578313907
0.9650642337976284
0.9519865632698687
0.9669169085007999
0.9435351909057091
0.9591241816629501
0.893700585599393
0.8871991573213397
0.9378943989718669
0.9348202468669714
0.9547956770701809
0.9568194357306599
0.9764609673549599
0.9085302297687844
0.9119477997040532
0.9010535051549229
0.9652429711022354
0.8951454040692082
0.8867024103339161
0.9522438593107574
0.9365887665016149
0.9336661872078046
0.9593836460246545
0.9582673499418317
0.958667476616834
0.9575294910362567
0.958062413161197
0.9596548587557681
0.9424118654583626
0.8963850768968773
0.8917560982018468
0.9769596768594656
0.9828835738275011
0.9072860098473289
0.9020794181469141
0.9679534583384443
0.9540504974734018
0.9193175745574551
0.9397320432079349
0.9608579751042071
0.9620186536735776
0.9609115161995028
0.9630608237422545
0.9621238153840262
0.9641601144241584
0.963349965323064
0.9651426623616104
0.964445531186597
0.9658712731426407
0.9664520183194616
0.9670519665354493
0.9675933702647824
0.9682735909786496
0.9688908322017045
0.9692596634679629
0.9652821099447306
0.9686355905326112
0.9692869185751487
0.9699492372766374
0.9698391110734501
0.9109808764492966
0.9142981190504187
0.9356097975351818
0.9331794137071538
0.9692695215569042
0.9696472845048864
0.970219094612305
0.9701493811679739
0.913716587398987
0.9166215214041165
0.958614235956916
0.9577311552402537
0.9593146265865647
0.978301049143837
0.96949356346799
0.9630926938429542
0.8822404539740576
0.9638721890868898
0.9707635024568093
0.9709227743857894
0.9705708111871284
0.9717685861931293
0.9626138192078081
0.95866078645502
0.9563933002271323
0.9164945753559409
0.9349943290334282
0.9325365934595156
0.9612571296912389
0.9721134063563613
0.9733649588393541
0.9729492623310266
0.9749529848471971
0.9741886826824848
0.9762387524248171
0.9769669158230518
0.978332716271244
0.9323924047651397
0.9168321903851713
0.9183826606788233
0.9620581424143692
0.9795416532000679
0.9722120421679225
0.9788059818389347
0.9803692248797125
0.931101843911716
0.9346527727918108
0.9320812821904865
0.8837064791947772
0.9424535622023248
0.9640369819385108
0.9441936510408386
0.9031222220091208
0.9814121520876884
0.9742994324373395
0.9584196909075737
0.9307218672894227
0.9830646073728009
0.9151689714462038
0.9359863002818696
0.9600889901595139
0.9632053728012594
0.9754887270835171
0.933765688612257
0.931291282853095
0.9193816610509637
0.9207269956827187
0.9326386591575894
0.9807572017786431
0.9817514068169981
0.9296576348838829
0.9291585054689236
0.9796114745904587
0.9628676882584194
0.9301421714930017
0.9284496438580823
0.9611561794072871
0.9612664868247236
0.944114134981436
0.9753272941395067
0.9822192446048025
0.9832354179692283
0.9734667410112321
0.9747762759242274
0.9647525963939715
0.9826480153210086
0.9839731519461632
0.9217108215339558
0.9229983201419144
0.9855104620051858
0.9856748108311528
0.9292154390315261
0.9276558960681025
0.9610680814648357
0.965214967224124
0.9271814932607411
0.9266468452837541
0.9269373757559639
0.9262901539118071
0.9635944660552997
0.9750553472942887
0.9453850260390512
0.9535462515589619
0.9610081822376876
0.9627302588257879
0.9874367469245511
0.9874381417696981
0.9532168871935697
0.9833031978483654
0.9682133321921642
0.926141909267508
0.9257160445394887
0.9260994799237633
0.9250570830282036
0.9246594166400532
0.9244257070027779
0.9246563040897199
0.9244611963568241
0.924918660798744
0.9245566068308589
0.9253443043615259
0.9237586835046362
0.9245418038732492
0.9234507233503644
0.9224584585259
0.922334077879165
0.9233417142367008
0.9333836459780234
0.9148313134210472
0.9728421215228675
0.9742179026528588
0.9186878435018554
0.9638301709068611
0.9655259501560179
0.9761070510544319
0.9754970266595641
0.9656486064949484
0.9723388686636409
0.9739433366970323
0.967134693615532
0.9706786729341761
0.9606067131390283
0.9590225334622524
0.9580147529242824
0.9249758665055959
0.9651625495601042
0.9712732947921862
0.9192350789939447
0.988898486957779
0.9890889808847767
0.9876143410319466
0.9893100064816847
0.9534285959509778
0.9588065274327625
0.9516963013244781
0.9886247805342196
0.9554516676215509
0.9906402375077413
0.9910660016926265
0.989591027579729
0.9915702225442401
0.9902904906331141
0.9920681484266942
0.9934618215523193
0.9938432329729827
0.9216831495965769
0.9219825929959613
0.9241209764151153
0.9637038738082035
0.9667847437627998
0.9562269656978638
0.9537071003332471
0.9681338959544284
0.9675339085606455
0.9686338229330269
0.9587485648279004
0.9576528209370507
0.9612951564694201
0.9207976192258239
0.9397800996163066
0.9591822895952458
0.9697950417867224
0.8937785126405089
0.9700491478413827
0.995282132288302
0.9946533647035499
0.9373815839555945
0.934499940215688
0.9591779588943377
0.9224125474978169
0.9246871803112455
0.9246449542083397
0.9261160191991901
0.9923796943649899
0.9675536889058487
0.9710942072795768
0.9460628955297687
0.9202113491581894
0.921081060361675
0.931283530181382
0.9773066215208502
0.9765782430001456
0.957029780824889
0.9332516569592146
0.9308004492702031
0.9321790900645686
0.9293820760658045
0.9296381839293633
0.925929298757943
0.9282306749196959
0.9240718755632458
0.9278632896849939
0.9228048589981174
0.9269689186080416
0.9221100900062155
0.926432431056592
0.9217519012890115
0.931671901720075
0.925373139464705
0.9214534947403199
0.9257902824672071
0.9276502111053004
0.9303337042513101
0.9323952036957074
0.9252060638496704
0.9212032857024172
0.9289903170469365
0.971726246710438
0.9723305856535525
0.9730157496016948
0.9740542949609164
0.9746113970089184
0.9761077089765574
0.9755161358287626
0.9774742360808456
0.9764600836305408
0.7115673374447757
0.9768851578766808
0.9756954426506189
0.9558801843611644
0.9637202466702225
0.9647111645754104
0.9629781038063298
0.9640567252759986
0.9621230442278863
0.963268279721491
0.9649254532714423
0.9642873107400491
0.9658229520202419
0.9651558061974559
0.966191032759125
0.9637238849492761
0.9610900326152334
0.9595167890083484
0.9667719136595946
0.9669298634543576
0.9314500646556542
0.951838083909113
0.9106590229817981
0.9692102555336427
0.9476908399965176
0.9481732003063993
0.9647426412682536
0.9619092419274352
0.9881014536535215
0.9673195775382978
0.9622532767166608
0.9620967977383864
0.9606397797359194
0.952887821820674
0.9490307503392146
0.9653281634182358
0.9780947073757494
0.9773383542687974
0.9504973557562465
0.9483278804197639
0.9494654794941376
0.9484830979350172
0.9484694384683879
0.9481186621138938
0.9499733748876477
0.9494092970054675
0.9259322222642417
0.9340641294953129
0.96240129871639
0.9679245067021561
0.9338820641341548
0.9315360722266424
0.918038484975947
0.9191566307181853
0.966476305737977
0.968736043304076
0.9897390259118485
0.9245537210896652
0.9633728389456563
0.9752265773435416
0.9728175511950478
0.9889509243814172
0.9626193374546456
0.9928001611369315
0.9926372968023239
0.9946963045894445
0.9928407888585172
0.949491747391609
0.927058028076338
0.9655706608838478
0.9333005623982171
0.9667003273020989
0.9336182121375419
0.9346033486727378
0.9892576196996447
0.9487255476566983
0.9721934047822659
0.9710182511852905
0.9546589025261769
0.9542812828105808
0.9593701939806853
0.9530723416624087
0.9185206111223099
0.9194371342125688
0.9224344809586101
0.9696054858138262
0.9764792730182277
0.9597784294254249
0.9564638365516472
0.9249949668189317
0.9216974169078399
0.9502336199031826
0.9559285575908999
0.9561486875141186
0.9567555332867055
0.9601389626233909
0.9503204890262009
0.9625190951389759
0.9753258985398635
0.947709011457858
0.9477108565336925
0.9500490261164641
0.9476545130392209
0.9906401911016149
0.9906603374645748
0.9930539563072445
0.9901421074931802
0.974621770417942
0.9752100051211544
0.9780239480448718
0.9772121564004201
0.9580716167941278
0.9566744895635497
0.9646314857978828
0.9490922488114563
0.946813007915559
0.9751115311425781
0.9753197343832497
0.9799151047249507
0.9811738206813554
0.9729202167093356
0.9177745045023522
0.9251967464911505
0.9257927848835265
0.9272868165537004
0.9277473752142715
0.9239709981516369
0.9279798473827237
0.9238612924147885
0.928492903453252
0.9243899173296698
0.9715709825349887
0.945374153841197
0.9865278328352276
0.9879412175426553
0.9888169638342429
0.987174823110512
0.9791231450649349
0.9567573185185416
0.9928873088473922
0.9541525934650186
0.9434644093655107
0.952127096653596
0.9546489123297319
0.9688034015710614
0.9687380511691139
0.9791844168781553
0.9778555104202565
0.915266226384862
0.918244362419066
0.9193943431221159
0.9223759698955254
0.9199227297121045
0.9836414266120069
0.9737901656042912
0.9704187103118113
0.9649131441299232
0.9619515103586479
0.9781075008188358
0.9822313796737593
0.9827976890252414
0.9640941384727426
0.9689936339591118
0.93625706118975
0.937247926945176
0.929681753401718
0.9263043348166814
0.9204415388762853
0.9227467247684391
0.9296298607548599
0.9266291359801503
0.9342895229827981
0.9322782321449571
0.9397227660097726
0.9174743330647759
0.9697923079262137
0.9185056667532969
0.9330039083904966
0.93209210088872
0.9660049873310592
0.9789829246799239
0.9775702339133467
0.9386874929839838
0.9265567405442429
0.9255000291154071
0.9515159554171811
0.9899667069644663
0.9553717395210427
0.9900568546342573
0.9444045868625597
0.9578040622600684
0.9548358404368498
0.9558780773586139
0.9379180259490454
0.9527111890484921
0.9269465647131178
0.9794575129896229
0.978919672010475
0.9775010864265936
0.9791447409918633
0.9835659587661082
0.9829768139312259
0.9250809743495271
0.927541710851703
0.9641171228405317
0.9679496062773061
0.930814695648586
0.9482914877365403
0.9457009781633123
0.9618209981242964
0.9950350791158463
0.9448786887506203
0.9443768315999811
0.9810922254172302
0.980843137449155
0.9694861980777655
0.9688491356940784
0.9684597679147287
0.9623444703267287
0.9261233277037905
0.9161328687469757
0.9779101163581446
0.9684190498266608
0.979831745509193
0.9077734753298919
0.9282753249094832
0.9267867312325943
0.9874088230530701
0.9281992904904252
0.9264828653944581
0.9269369754618313
0.9251593493213757
0.9249993847003007
0.9251598305753221
0.9882274437821189
0.9865854894019848
0.9521783903594845
0.9810031184083092
0.969735411026652
0.9690417460048145
0.9385296136242827
0.9298576628853236
0.9289603111536853
0.9425421086901871
0.9344750081374306
0.9163870720896168
0.9397418136152474
0.938449215039797
0.9414606394288716
0.9382122044129166
0.9516085785796219
0.9584091910734159
0.9702085859473643
0.9345190853347751
0.9805494136227441
0.9526820480770234
0.9456595369934201
0.9341759564714667
0.9420254498105395
0.9472650004230115
0.9730417077448366
0.9731120991904946
0.9252703831478162
0.9251362996436185
0.9239897630881339
0.9245433921218852
0.9325836699446232
0.9168822192997937
0.9201647639182939
0.9834253220460568
0.9828529704606445
0.9798728456462129
0.9893173592843031
0.9893084133903491
0.9949697306346975
0.9239650672084933
0.9246568123793655
0.9750418438844676
0.9169502383432334
0.9182219688300992
0.9214359054408054
0.9298136749948248
0.9154224495635457
0.9669398540132962
0.9669991614688837
0.9649731315607456
0.9654287334739823
0.9627343370498248
0.9671186742815149
0.9682481100489302
0.9552512796605208
0.9566819355550249
0.9234615004379282
0.9221623252248861
0.9317104667923038
0.9280795086214741
0.9219615555310736
0.924592177014596
0.9329151067296609
0.9780286201691376
0.9756398278452726
0.9809082548727325
0.9796891615590586
0.9774464506401621
0.9153149793689109
0.9463666639939685
0.9884811920135912
0.9530853880740323
0.97810135389459
0.9625520168851186
0.9613408246280493
0.9611716357995287
0.9609783027324805
0.9606345543483442
0.9608926784187436
0.9601251790331914
0.9605680303408344
0.9600768176889124
0.9615952962404933
0.9606320995902871
0.9894440144334959
0.9200428983987167
0.9498267432709541
0.9484023064212749
0.9592920019325842
0.9518122034846788
0.9643791238485704
0.9738725379769351
0.932084437050712
0.9286431186373556
0.9336970979550222
0.9373407251871234
0.9496090378151629
0.9563303428568354
0.954256270102949
0.9508052911154283
0.9273733033589228
0.9138703672288903
0.932899948539193
0.9312407699705918
0.9144978828514021
0.9821720084393359
0.9823214957520567
0.9832468521300283
0.9818549288591727
0.9610367276983042
0.97563333923106
0.9325320148458048
0.9678836422521697
0.9675871900069924
0.954239910084131
0.9387555373876397
0.9546924223485184
0.9948576766304505
0.9967538839728791
0.9962374799589228
0.9978148589844904
0.9966528145092294
0.9953185980437418
0.9917751857568662
0.9847380682360097
0.9488981048079936
0.9717665104639064
0.9238033845956689
0.9109511646058742
0.9150961862708076
0.9978135109328515
0.998365964062846
0.9983684139097755
0.9606571185114087
0.9675922440216906
0.9685570069897441
0.9701124989099185
0.9424481456820953
0.967146900852573
0.9763358982951401
0.9884284720870813
0.9877554272892813
0.9901383045797137
0.98600351305929
0.9202082293226533
0.950801096914702
0.9521665389212413
0.9524198629232495
0.9537472160258939
0.9836333830355735
0.9348999179845984
0.9303670383162188
0.9220268111213387
0.9342955385061503
0.9356347454330363
0.9858433579839284
0.9888197245671123
0.9682745031981999
0.9198904071299371
0.9311133244290998
0.9859669671426254
0.9799605919192678
0.971772470758568
0.9610130548565615
0.9808905631669697
0.9873524552239615
0.98928587124915
0.9489799938332263
0.9616652280600461
0.9762115164435718
0.9843908148797178
0.949789557366976
0.9615704219332099
0.9729526646177445
0.9693569568519589
0.9825103460208702
0.9421024066440438
0.9469985377777745
0.9238259435250934
0.9207751772750462
0.9864914479533683
0.9262954418880013
0.9804716653244757
0.9726462692103371
0.9951036829228752
0.99393395816362
0.9797292415644546
0.9722383635220542
0.9348613250241895
0.9695789990782399
0.9687984226202253
0.9461503703155223
0.9449355445313155
0.9451369052434502
0.9106147125706158
0.9110105837896767
0.9495587781486081
0.9509397076756249
0.9970897506572467
0.924943655626224
0.9250251514939906
0.9246062490011087
0.9867753583613573
0.9646436298300091
0.9682246877416673
0.9552070645163157
0.9608111967867128
0.9541163933400397
0.9492795962793905
0.9527963134817875
0.9547476455179728
0.9503692766699151
0.9468852643944838
0.9427010596357327
0.9471359189991176
0.9337367817245852
0.9820565768978907
0.958296569511119
0.9648421017621058
0.9858169777413232
0.9405164996147964
0.9532483846735136
0.9465703802660379
0.9469337074440544
0.9446812946042596
0.9398563214654914
0.9370775912155979
0.9266140574548412
0.9249225714165483
0.9227859556167
0.922802132731661
0.9246706445303453
0.9220120945612813
0.9248326871256958
0.9491710578190609
0.9225278468106733
0.9254839811876601
0.9369397274856697
0.9114224373497278
0.9278309886709872
0.9205395930922585
0.9881535753045928
0.9893539927866395
0.9800939260513688
0.9826367148185692
0.9548317407397179
0.9351252672951764
0.9228559344280302
0.9204117837366875
0.9001571225140683
0.8957755103707363
0.852602683363056
0.8556263369539536
0.8129127994660511
0.8299125116310269
0.8077203307009104
0.8260283736885385
0.8205282279564228
0.8344688509548986
0.8387673467621712
0.8461840800877893
0.8560198383764593
0.8573515022331156
0.8688204710944492
0.8701767169015312
0.8815929309240649
0.8816254332898386
0.8925177793610183
0.8916330235075144
0.90209110344092
0.9008446282857732
0.8907443788708903
0.8995086043117263
0.9123192845119636
0.8622736252071888
0.905800622161396
0.8864730916584648
0.8630695127636897
0.8538270219247904
0.89126259186075
0.8991633637540357
0.9073441263993022
0.9064353441074875
0.8477903987747472
0.8113178895776506
0.8824631615472334
0.7954993267514666
0.9141799550027954
0.9128763841366705
0.9057875881277963
0.8851160663984715
0.876613353222879
0.9161255368892797
0.922375384469383
0.9253090204633286
0.9001152099789306
0.8882205547377238
0.9119915314095859
0.9065701139381437
0.9005941688234675
0.9020809873778923
0.9838525442576832
0.9815614150177544
0.9482920400088777
0.976944158497058
0.978391893596957
0.9499900158063587
0.9513519863843213
0.9403583286546914
0.969973032660888
0.9187784336561994
0.9429364571971173
0.9419666034819749
0.942631429402618
0.9707590026444994
0.9599981828238658
0.9571708301367883
0.9557486015407487
0.9730827650460753
0.9733194285495445
0.9753778688969114
0.9716654634308092
0.9737464052399017
0.9595977063501806
0.960317973384255
0.9609641315469771
0.9559628257158382
0.9593778420342338
0.958018417171325
0.9608594447322152
0.9598095964338886
0.9620407921418678
0.9612499375481239
0.9633001207161733
0.9639317510585032
0.9644504501245821
0.9679681987501322
0.966941326698218
0.9668404945506431
0.9662213001825438
0.9251634881020564
0.9216505149424976
0.9210729984600616
0.9210133388747431
0.9196101383190707
0.9677488971633953
0.973362900061895
0.9763305162069718
0.9584228364210444
0.9609928732487173
0.9609726768846648
0.9135893594477572
0.9454326306584633
0.9266794158282726
0.9231029063641105
0.9350190038326964
0.9331048385186445
0.9297313476879636
0.9315840976119519
0.9283582373189387
0.9293319339424262
0.933322583485407
0.9675282532192762
0.9197637739390102
0.9240810409889327
0.9297575861898695
0.9567385584723234
0.9628309059604386
0.9885131732957749
0.9891314979043692
0.9877134273628636
0.9507650330169461
0.9493909007895556
0.9447966846297493
0.9097618517286685
0.910610045595617
0.9207938169282343
0.9113282731345574
0.9153577374175325
0.9856741468323805
0.991026889292237
0.9509914071646965
0.9525528149226784
0.958839351084309
0.9873791632987396
0.9893781340911678
0.9922956265492989
0.9286033072662039
0.9301082314404336
0.9344406160033608
0.930072000333697
0.9236567871179768
0.9331412718933869
0.9364197980587708
0.9780196115641301
0.919653266443655
0.9184633587221166
0.9190935788653831
0.9182724574334042
0.9165017805617295
0.9193659744560861
0.9161535399887117
0.9969943574466054
0.9515800206987044
0.986289096113275
0.9894655156178634
0.9852747323302626
0.9866041348305905
0.9829728638843274
0.9805957142587045
0.9773418325378239
0.983023579654616
0.9845480557583612
0.9820515866421218
0.9179359617470275
0.929917118510294
0.9267783014337175
0.9272473732132942
0.9520165331219108
0.9523489494322533
0.9114119450564514
0.9554483842498637
0.9663734801165026
0.9658420530393349
0.9185084226612347
0.9162204434276128
0.9846696772645378
0.9299139088290094
0.9301310600048425
0.9846055977071344
0.99066708020398
0.8835613907793741
0.8901367941132304
0.9183615724945601
0.9716426975087157
0.985965980704762
0.9721634104039498
0.9426698781753338
0.9884726598349124
0.9439066369695259
0.9293062736762109
0.9268557176142626
0.9835725394937922
0.9510775759148312
0.923406896893551
0.9616070244015092
0.9971096592691228
0.9988635482314827
0.9109080212641205
0.9858242494037506
0.9881392702515355
0.9499914737748064
0.9602252107451872
0.9588449095003994
0.9651276114789435
0.9600168507531404
0.8743166643041979
0.8705107348867547
0.91577153902318
0.9697024432996824
0.9617248878396356
0.9584623618904168
0.9989294840380253
0.9969404516925016
0.9180939359188285
0.9172373767992487
0.9157587821063382
0.9256899192437602
0.9249298023654916
0.9823806338719794
0.9413300308003394
0.9429729097949006
0.9616978113687931
0.989574916251655
0.9907398571329775
0.9289005130413656
0.9265001697612217
0.9632883565042378
0.9847964672889675
0.9624682554874535
0.9603716240597286
0.9046765246231362
0.9969012848832195
0.9564858570090271
0.8825184232583335
0.889193873146525
0.9065867061856165
0.9594768621293696
0.933196021511421
0.9289993011043248
0.937275719766386
0.9344229284471638
0.9415861361635707
0.9389392020683367
0.9311505519151294
0.9344085133715072
0.9247505326663112
0.9308269631019556
0.9467620422011016
0.9412699283480055
0.9615766628503123
0.9507483944970274
0.8494284385738069
0.7424963216217226
0.7488044987401895
0.8478510751096114
0.7899057332553019
0.783199006541545
0.7859894215211587
0.7399479860396386
0.9274104541064482
0.9264603625865759
0.924189618372165
0.932000595625712
0.9381057435423318
0.9954055342834046
0.9945590735538157
0.9406908606129016
0.9410815090665794
0.9396985587900625
0.8884692943946595
0.706857492440808
0.9409629444332411
0.9365516899102401
0.9256879980370316
0.9343271697459836
0.9201476538916359
0.9468073056707614
0.9389330050197227
0.858564438332185
0.9639238653035811
0.9736970566702176
0.9712457592955559
0.9453642598657476
0.9051129686523425
0.914110496484675
0.930579155078369
0.940012183012628
0.9952586505164639
0.996433253996155
0.9477965070033273
0.9692410930870852
0.9755662314900047
0.9785664033789466
0.9809006146495767
0.9449583685941932
0.9447833257496834
0.9408938530531687
0.9403660040685727
0.9655977119533274
0.9650554104050273
0.9821490664140331
0.9090989964683827
0.918116339866612
0.8317255198715446
0.8545922739211386
0.8724744572032935
0.8856772657589277
0.8980801865394746
0.8697766028146713
0.890683742897702
0.9105953606162044
0.9050292467361669
0.9516934516345027
0.9017695932741829
0.9117978831261099
0.9277254703830375
0.9722350346137277
0.9730189599812354
0.8319252018150926
0.8489401781317103
0.9671818668288396
0.9935800976083861
0.9928450877968032
0.9928401084536999
0.9919082517422333
0.9922306730748919
0.9910652416356824
0.9325455072967558
0.937112925208595
0.9362383046391362
0.9417909291614197
0.9407404625460728
0.9454845120840483
0.9450485203383724
0.9461784923121517
0.9495302597343525
0.9409924618917591
0.9503097930604679
0.9462729870732963
0.9499943240632474
0.9518010355363651
0.9477559642587831
0.9383352955205119
0.942506264488783
0.9312947885143199
0.9372735764176523
0.9690293820232108
0.8959222273148957
0.926271708891311
0.9136803045103032
0.9142706053304052
0.9794946080475448
0.9686539214908697
0.9671673095955766
0.9655135085795546
0.9674337372188603
0.9635203784843762
0.9623925213308004
0.9623976694077742
0.9620628094949824
0.9617633009406927
0.916590377318396
0.9736644232875121
0.9373574714389004
0.94190516582286
0.947817504828988
0.9517660264971525
0.9572656589987666
0.9639115067522206
0.9197527830798587
0.919481217623947
0.9217168994638845
0.9223351206851086
0.9233615943943759
0.8970387783653011
0.9475145437331215
0.9167309577038916
0.9201875665062947
0.8216006055727687
0.918736306137176
0.9906128305681025
0.9706960696693724
0.8873242345535197
0.9492858404474616
0.9527516926754549
0.9938266541353046
0.9125820527121955
0.9125773715349202
0.9131209055447531
0.912382074581584
0.9139300089225368
0.9130890541402525
0.9133218532083797
0.9132146887434864
0.9390656391604066
0.9127153897082049
0.9144850320414702
0.9152043802898804
0.9134075981065362
0.9810368292070316
0.9972360146860434
0.9330030850338733
0.8988044368696873
0.9191790118701536
0.9330379838762912
0.8773116404128122
0.8663833781626138
0.8727085948384736
0.8674667499193145
0.8581898134525426
0.8552222328843997
0.8590887158544535
0.8844009057047852
0.9153469765323092
0.8772568868766768
0.9913658029584221
0.9145399918022955
0.9627567015933962
0.9211106264618856
0.9698951980048078
0.9511179193457692
0.9531173324688664
0.9435953881691012
0.9597259682474664
0.9595619810023271
0.9490247338235674
0.9453964105514314
0.9284479704930002
0.920585094461827
0.9867049437490392
0.9854017388566632
0.9975912163202777
0.9064649971884174
0.9647177311193869
0.9664508638233401
0.9808610848186422
0.9809150823529817
0.916644350928491
0.9491065008499912
0.9651736708493124
0.9264201026579508
0.9261654594248516
0.9224702102426499
0.9125349330365773
0.9614567916296252
0.9614513184241704
0.9087099358642263
0.9192407333747302
0.9636695739653264
0.9736474890568347
0.9058418202595662
0.9378484037897404
0.9434125795323142
0.9448787349633505
0.9374415407874833
0.968302566946576
0.9193815667497426
0.8717351396818478
0.969931377076657
0.9327563798095815
0.9825319363118029
0.9431595945626093
0.9424472972639296
0.9440307111960177
0.9412601587201329
0.9383327396101594
0.9299500356889907
0.9229876173262883
0.9264475202035708
0.9269153735035661
0.9271872238295903
0.909475903613617
0.9855855941609241
0.9829057163396814
0.9845803227799831
0.9824200883192193
0.9814950503723644
0.9808163541739409
0.9797441439467379
0.9687976506987827
0.9196709528577625
0.9168428333870776
0.9206610350770023
0.970412220787907
0.9736048131335756
0.9651029214220608
0.9413704938729365
0.9529676253376259
0.954629499915971
0.9521788499074325
0.9510422814714572
0.9409771805309615
0.9244282357078824
0.9253088266095573
0.9144800940363402
0.9140673431088822
0.9341722917581168
0.9410088510112384
0.9409223330295543
0.937451311284123
0.939377061098817
0.8491067016625024
0.8030898031817046
0.9895783423964668
0.9904996454162167
0.989999059755199
0.9915155148824976
0.9457390286966146
0.973018250562689
0.8721285896600803
0.8720781332123588
0.8963402142836595
0.9047585915327725
0.9114398924752429
0.9370422416881772
0.934725328415006
0.8744971218136326
0.9381989027134775
0.9654901263936698
0.9949176785639235
0.9482520208492144
0.9522368210351428
0.9255570951966601
0.9929291121618223
0.9656455275256834
0.9662498359838401
0.9576524473334279
0.9362506414862979
0.9342812087829883
0.9324008770734858
0.9333516069939737
0.9054230219248286
0.9044784537399697
0.9036499786600642
0.9931350079622766
0.981391722041568
0.9795657290581531
0.9816462246981708
0.9794441640642038
0.9819967313173127
0.9830566863508878
0.9858945638749663
0.9229332687246874
0.8802559262054154
0.9926789358020577
0.9862262859084351
0.9648324828785328
0.9816283956821537
0.9854430806266266
0.9849260757217908
0.9695942198058514
0.9681788251142456
0.951434451875317
0.9284120126823765
0.9558836835494006
0.9951356578591105
0.9419146987316572
0.943445174924081
0.9456573650393655
0.9412283809126527
0.9437115970743406
0.945978873102601
0.9441510689303131
0.9418731635814935
0.9785426478228195
0.9431789215872411
0.9528024001463804
0.9817116647072007
0.9756858225347428
0.9188916978953718
0.8991868637533755
0.9268666072922727
0.936987890855013
0.9227764657470608
0.9233788830614285
0.9282024380944441
0.9823987088433517
0.9825992152731303
0.9844453248877818
0.9798445532042691
0.9968381673583299
0.9202174621698823
0.9790302380811061
0.9484115394480989
0.9780631736353744
0.9415803092411988
0.9161376220430988
0.9645701125840443
0.9247862843444045
0.9563798806666449
0.9594774900645217
0.9487043566872321
0.9570236197253682
0.9716099562651274
0.9707483819967526
0.9722589037044567
0.9536234579596606
0.9658130317579476
0.9428492839741427
0.9611221575029487
0.9619307457997068
0.9240611438339186
0.945453803016261
0.9894989956103338
0.9687971281347804
0.9706154873303856
0.970915116402797
0.972385169947407
0.9712474357868598
0.9730958827987906
0.9733915722102255
0.975894999294491
0.9585272666980406
0.9570382011539216
0.9692783856415484
0.9480836418224395
0.986480646952742
0.9639212641295779
0.970043352732281
0.993198890568742
0.9600609883815833
0.9231663150588312
0.9680700759065931
0.9284563416502422
0.7738774272127324
0.9900700043088174
0.9509627340661724
0.9308643924692366
0.9389175187835326
0.9207368416816164
0.9284712874780087
0.9148029357961306
0.9553375179351148
0.9686542409490717
0.9618806158149532
0.9379553875507033
0.9564027080284631
0.9554726397727581
0.9524134927355893
0.9606772928649729
0.981066629342478
0.9349251599312385
0.9684315064393635
0.9679071757159338
0.9672696262343924
0.9740762446290518
0.9577475124622689
0.9195543819398794
0.9524168310602995
0.9245912506551685
0.9614869912703456
0.9354404164290243
0.9679612030323966
0.9530899247184015
0.971321015690615
0.9655024674815887
0.9710993945618844
0.9805707126401735
0.9326945970662248
0.8586992245906107
0.9470022045015859
0.966511004674352
0.9266577571449033
0.9417245055498732
0.9737808349299137
0.9371077870741441
0.963219847258243
0.9637741543436925
0.9159075591683299
0.9883783416700468
0.9275982520495594
0.9410484814068385
0.96653539197698
0.966263952036164
0.9774210771272901
0.975266532460556
0.9716007391955376
0.9624674466322506
0.9920632846496259
0.9937011610303312
0.9836705203774287
0.9852643687247168
0.9953693422909078
0.9920737054857885
0.9415975897678421
0.9536746429385132
0.991520841159687
0.9430985784558681
0.9499130052528416
0.9295270855132522
0.9836059873270171
0.9842339378270921
0.9476472185269488
0.9716555259353639
0.9754957876849503
0.9404094007253317
0.9261446390134924
0.9589288289983277
0.9214762045543896
0.8426569098384633
0.9629853471862041
0.9696998000757427
0.9157389092753737
0.9165797711823621
0.9652384446183361
0.9513745791845928
0.9687459065415216
0.9476632260582292
0.9788326021158322
0.8937504967668233
0.8438350312115676
0.9057496993406842
0.9624905193281467
0.9670213626763559
0.9166590116325496
0.779366146345033
0.9870590614026675
0.9842093303318937
0.9495912786183164
0.9768037853885905
0.9606199241919275
0.9789443006597898
0.9799491174091144
0.979535529507674
0.9437335405989038
0.9396280743293264
0.9876980935029329
0.994450585117075
0.9802138567136545
0.9596017728288191
0.9826572613840391
0.96041098788855
0.9530593131622498
0.9152127964039733
0.9181457758405323
0.955818095865048
0.9514817252470693
0.9736040483920613
0.9260365227700917
0.9269290568357427
0.9878203431307366
0.9691391315880657
0.9679280486344551
0.9790435306437071
0.9697683815353815
0.9755467050661195
0.9943030436570442
0.9521123339272276
0.8452871132069868
0.9643203302371011
0.9831247860911521
0.9826319205583832
0.9411928049000557
0.9477163815748901
0.9323853027731487
0.8995763085951504
0.9776040272592201
0.9339781222153096
0.9286080272754925
0.9629707373892585
0.9304515950810683
0.937351522371263
0.9135682422474394
0.9786697586563543
0.9598786917537627
0.9785453261060083
0.946402991734232
0.9974867338362979
0.9989174489076688
0.9449354803357738
0.98141243234805
0.9818319449431466
0.9592438776426628
0.9315248149816389
0.9626097715257595
0.962161659793949
0.9642713770031701
0.9713459550376375
0.985609096564449
0.9052085567203306
0.9112993273284821
0.915736446324886
0.9222968079454829
0.9197312911618553
0.943476986309617
0.9446605831013167
0.9943287016625041
0.9217393146949358
0.9301332526262729
0.9420363120465914
0.9649428273368452
0.9643947721507914
0.9581346140082622
0.9523165085703521
0.984117689041606
0.9811167692515778
0.919547337562128
0.9231641784816796
0.9766527024316544
0.9726225251249101
0.9884748755519993
0.9236749281437128
0.9950661402206895
0.9294173270897876
0.9880624804563117
0.951994614454107
0.9962630584586476
0.9425102672021822
0.9333485053499664
0.9275014683712663
0.9549495619019532
0.9677235888825568
0.9525793288997106
0.9807822507438063
0.9609235636099113
0.9651497387161115
0.9771729216398414
0.9922128659981887
0.8978518571179014
0.9577055117564918
0.9362063004844576
0.9858184785109577
0.9502357365733679
0.946029505413846
0.912066889342418
0.9322632786776328
0.5612265905095161
0.9616072937139223
0.9335121203579059
0.9320647100249443
0.9198667064661162
0.980441984238033
0.9907350319657939
0.930099237775187
0.9246788002715343
0.9906574353812456
0.8996675530293661
0.9623788316764057
0.9099938683485473
0.9371161951500051
0.9618821106093866
0.9679026027146772
0.9675401474145093
0.9186529778145144
0.919383820090265
0.9212570302737754
0.9232778570099168
0.9599284669579287
0.9789185313892539
0.9294590390843566
0.925191784218371
0.8816891977974995
0.9743687037417131
0.964121696586055
0.9129960490292878
0.95842091437598
0.9469734842361259
0.9600602612934926
0.9486207059703556
0.9671903417355677
0.9454461414398055
0.9625387714483205
0.9532311488947941
0.9549203491428753
0.9608981380781195
0.853421579821874
0.9241762160821055
0.9463221628240525
0.964869993200063
0.9253722929513343
0.9861940630173327
0.9604978861681098
0.9458633679461521
0.9526882943481475
0.9517183481011292
0.892652624602808
0.9723270176489642
0.9629255175964558
0.9667096278667933
0.9106658613828639
0.9266111129284423
0.8462457142369276
0.9495359973585442
0.9832781240938191
0.9229591877799443
0.9670398311677905
0.9331395374010618
0.9799739769338789
0.8925038930370287
0.9305537205357397
0.9153892211621183
0.956472417432408
0.9437659624831684
0.9757926597203208
0.9711030600083964
0.9493958164322234
0.9351938433352581
0.9419354179418518
0.9203333018818523
0.9782802789258809
0.9740930083536823
0.9504865319946013
0.9497138321536679
0.9763466380773981
0.9608376362689619
0.9260958427899044
0.9931672881336719
0.9263828180955183
0.9625879244005628
0.9250077898829778
0.9599893745438632
0.9593824076664568
0.964535041716794
0.9576008567588982
0.8602136852899289
0.8990484333043899
0.998920278915442
0.9979660323292938
0.9326187500717392
0.9621830932798706
0.9370747809755113
0.9596997306732523
0.9191703308884258
0.9327690691360281
0.9662698294422717
0.9674585223112864
0.9390083493413319
0.9251650397225036
0.9215043710335876
0.9879837456597619
0.9807683883789575
0.9234835685804397
0.9438476732413226
0.9562895778569126
0.9123613186530217
0.9219154665260636
0.9069746875087483
0.8023030400117643
0.9179280909947561
0.9583323424218538
0.9374913102081313
0.9845753449490969
0.9245241262757746
0.9933075464958984
0.9187317625525268
0.9361651072644476
0.9583736899705497
0.9245353145845443
0.9148727740732205
0.9217649647772029
0.9405053559791944
0.970213167645593
0.9412437496009703
0.9798456784104771
0.9243435467453792
0.9484887831881016
0.949860148831993
0.9720838190661197
0.7628896857484773
0.919240247401101
0.9363305201486448
0.9228920556174042
0.9347182838106722
0.978347144286936
0.9503470672051081
0.9608426256617898
0.9549463311769288
0.96891082916442
0.9131924438751754
0.9353782308224574
0.9149716160082907
0.907024275999969
0.9838148074063093
0.9664559773190063
0.916932826130273
0.9309383459078383
0.9131935612230504
0.9253565379717843
0.9406034344320887
0.9548758199793191
0.9083064909728078
0.9566327799078671
0.9591329864104089
0.9859952701933942
0.985917018628669
0.8590678661733193
0.9619172934188895
0.9524654457132041
0.897250896030096
0.9867768607494615
0.9502980103963868
0.9635124644261759
0.9687769321583696
0.7456710226328207
0.9563324592683979
0.995302711226302
0.9299582841508748
0.9948401002284165
0.9059196955837955
0.9864210596801226
0.9552851210439363
0.9541707316503554
0.9292729859331192
0.8338837129743194
0.8726068589993052
0.967466953570382
0.9550924945167845
0.9285713288501135
0.9409402355663935
0.9428506726533099
0.9221177638635966
0.9867666825245538
0.9763408009498946
0.936759781358728
0.9911510210695929
0.9641416617981929
0.9298240257540691
0.970097607981777
0.975003932123981
0.9537292428365886
0.9349585036955953
0.9305959585206554
0.9236559515480539
0.9915768374790199
0.9664114539484973
0.9338192570320415
0.9169682725656952
0.9311711060904841
0.9539514228916512
0.9539401821605025
0.9091222361630468
0.9180500307057278
0.9692419491007926
0.9826169401390916
0.9815660966964908
0.9479770110713969
0.9900604666528322
0.9506861245976901
0.953655882852479
0.9303050961226769
0.8870769068908988
0.8997366164531786
0.9042484929406852
0.9510328445270992
0.9445370649213563
0.9064358646425442
0.8103864201667665
0.9289713001168681
0.8948828607498088
0.9629192630389263
0.9262631445545724
0.939053821159977
0.9756403946509985
0.9204428336005347
0.9167004900086874
0.9611366898026369
0.9063433122533521
0.9145957022437377
0.8452683143145775
0.9580191076831467
0.9825144162510252
0.8806426392527992
0.949744088631312
0.9727099715458933
0.9695381902540623
0.9908070732331574
0.9840893104958828
0.9827837712375418
0.9806535319436168
0.950359951053274
0.8723365215323992
0.9498689161319132
0.9530510373663431
0.952825894598326
0.9994858254655712
0.9205138111645932
0.919469439677624
0.9415788018899797
0.9204087696172699
0.9527352734806601
0.997938253258684
0.9991750678185461
0.9427752900465215
0.9277558387309598
0.955956334879461
0.9788163538781178
0.9948949832100853
0.9326436487952076
0.9416673252283259
0.9186934245047194
0.9431952198117515
0.9544887604183495
0.9361781688333406
0.9284108033896677
0.9454868550637626
0.9231190677680495
0.9378677392419518
0.9677726492331853
0.9617688742654713
0.9225066302180001
0.9127512091846308
0.9850055663045347
0.9655644502082501
0.9517105898713858
0.9371508433380565
0.9287716552326203
0.881805474231882
0.9244109055541518
0.9596780873439472
0.88606827350838
0.9618333528448366
0.9621510108934276
0.9839413486681925
0.9182935712345826
0.9659430743500595
0.9626347355501192
0.9659056854846153
0.9172557333164841
0.9652896060086599
0.9396902637995943
0.9814282135198744
0.9401268148660075
0.9608899028766923
0.9974591285755745
0.9439734427963185
0.9611733735315995
0.966965992655078
0.9181389737079332
0.98995003447825
0.9624790541845478
0.9509278560311335
0.8751047951108545
0.995162039352015
0.9690060665328863
0.8345639966241577
0.9539699434266722
0.9883536206599081
0.9450581337972396
0.9728458297413837
0.9271560910905972
0.985653992225826
0.9303813633368332
0.9403948866095015
0.8673379321080082
0.9795514730980274
0.9797425463698132
0.9622549640993435
0.979062363738991
0.9662859278275167
0.9482286129379973
0.9928149875164194
0.9868875822566838
0.925066480360284
0.9262266477177683
0.9833886819261511
0.97772388466239
0.99067182535167
0.8548496764326322
0.9356024897868978
0.8647625569154119
0.9242851590772905
0.9685526418210426
0.9159819630098402
0.9183934045096903
0.9645242124086129
0.9696440164463257
0.9139035043347549
0.9109527113323271
0.9841523122900346
0.9287400093063349
0.9299594043000073
0.91418615834716
0.954739978348132
0.9800967619061316
0.9104478922922461
0.9597846146743279
0.8648342014560869
0.9874289457737601
0.9511351565002577
0.9383213716511621
0.9381247126594945
0.9934794193793464
0.9572389930322819
0.9243753160773924
0.9457922462061427
0.9707307679034528
0.9482232741395172
0.9270433952492881
0.957104606641993
0.9359405394776834
0.9217414902641502
0.9845815446813553
0.9882802551789768
0.981200491665072
0.9525931390135008
0.95785047221177
0.9479719878513402
0.987979939505094
0.9843297620441795
0.9486763206260477
0.9135085540384955
0.9581758531834149
0.9162200370498141
0.9447979525923146
0.9379650540337441
0.9727721281098515
0.956415565557775
0.9265058463026872
0.9590594280355058
0.9849678359531365
0.9479506853122239
0.9621331726605582
0.9419648235637589
0.9806931224600333
0.9324975192898077
0.9175357203383454
0.9327264366899813
0.8034420719060705
0.928481546533332
0.942338680320259
0.8658972870320287
0.6446454564704189
0.888295770612234
0.9221116383648437
0.8930580473074615
0.9710656864935038
0.9465216198765813
0.9989373406916704
0.9218462824642147
0.9245740633996793
0.9062086526345794
0.9868618224960952
0.9288899554568562
0.9388374138614927
0.9487697281773574
0.9596878466588299
0.8718800683772268
0.9802182121258505
0.941314202829514
0.9493565526396078
0.9405536615435667
0.9603342476145675
0.9953089097636797
0.918445251730749
0.9256191762755672
0.9262614110315776
0.9165435745132546
0.9918272019866905
0.9746574129742597
0.9934454417550732
0.9765367168750736
0.949425859995084
0.9452327219460676
0.903515409375684
0.950709745813138
0.9200637570759632
0.9190079703073368
0.937670055425304
0.9306403481044406
0.9789387633683456
0.9221337700494168
0.925118422508482
0.9223621645397684
0.9239611586189496
0.9704099516317605
0.9384809909052705
0.9151791047332634
0.933513164404833
0.9989228547506701
0.9715503413879808
0.9442230516947927
0.8880955584085019
0.9539309354016635
0.9841276873542799
0.9319049639277708
0.9438000649480003
0.9848653301267809
0.9480688865543198
0.9633770379935486
0.901313326007165
0.9671224981645999
0.9909115061361716
0.9468693553685158
0.9986497210676148
0.9145817189931946
0.9919133419437192
0.853271845616906
0.9060922470535302
0.8701080719160634
0.9651452871662789
0.9670744699142807
0.8489689272814778
0.9682694789096498
0.9908295751720455
0.9994386109209347
0.930255749765417
0.9748473440586917
0.9573581803271296
0.9976742122455455
0.9482980602355858
0.6643244822211796
0.9435684903679409
0.9304403220606733
0.9941894027207946
0.9794218751925357
0.9202766151614181
0.968691572926358
0.9989130140631926
0.9082272716249163
0.9639785738638507
0.9066524321899407
0.8885856905560408
0.992809974121983
0.914555857489064
0.9787534912147341
CELL_DATA 4886
TENSORS stress float
-8.22791271330617e6 1.8169519299033298e6 0.0
1.8169519299033298e6 9.37829908649267e6 0.0
0.0 0.0 0.0

-6.897932788445551e6 427927.19493361254 0.0
427927.19493361254 3.383462067465201e6 0.0
0.0 0.0 0.0

-7.449911178399725e6 7.642422314781815e6 0.0
7.642422314781815e6 4.293531145830194e6 0.0
0.0 0.0 0.0

-3.8793717285996918e6 9.542845692106158e6 0.0
9.542845692106158e6 2.7514915118106464e6 0.0
0.0 0.0 0.0

-5.273608055390031e6 9.282559662824176e6 0.0
9.282559662824176e6 2.055621600581889e6 0.0
0.0 0.0 0.0

2.215760042640335e6 713535.9812192855 0.0
713535.9812192855 -3.067636665437135e6 0.0
0.0 0.0 0.0

8.235552297426046e6 1.0259317592763228e7 0.0
1.0259317592763228e7 1.3851875216650576e6 0.0
0.0 0.0 0.0

2.304934022285277e6 6.225270268935714e6 0.0
6.225270268935714e6 -8.1242250348042715e6 0.0
0.0 0.0 0.0

-7.456645341656771e6 2.5309317892254256e6 0.0
2.5309317892254256e6 1.0072091868191848e7 0.0
0.0 0.0 0.0

-1.4931051003607172e6 9.864648124538066e6 0.0
9.864648124538066e6 2.382734981947156e6 0.0
0.0 0.0 0.0

-3.3265043738818723e6 8.798344008794138e6 0.0
8.798344008794138e6 -396558.66964657477 0.0
0.0 0.0 0.0

-7.982447047215844e6 1.123645482384339e7 0.0
1.123645482384339e7 4.432190166855967e6 0.0
0.0 0.0 0.0

1.6898424993807902e6 7.6775682082306715e6 0.0
7.6775682082306715e6 -7.664368553811399e6 0.0
0.0 0.0 0.0

1.4591231991951272e7 1.2114254308174446e7 0.0
1.2114254308174446e7 693687.7328245593 0.0
0.0 0.0 0.0

-3.7166215456415876e6 9.077245334308721e6 0.0
9.077245334308721e6 -541491.3458454711 0.0
0.0 0.0 0.0

4.1858187789164567e6 4.34960636421376e6 0.0
4.34960636421376e6 -6.707080525673534e6 0.0
0.0 0.0 0.0

-74650.37157326122 8.913247747284476e6 0.0
8.913247747284476e6 -5.727100511803107e6 0.0
0.0 0.0 0.0

286172.9316741342 8.637590785631832e6 0.0
8.637590785631832e6 -6.060379974211548e6 0.0
0.0 0.0 0.0

-925119.6063361859 2.3954543034941843e6 0.0
2.3954543034941843e6 934379.751628153 0.0
0.0 0.0 0.0

-4.589526918747831e6 1.0477772636624573e7 0.0
1.0477772636624573e7 27113.353309694678 0.0
0.0 0.0 0.0

-141909.63271186943 7.1626812456806535e6 0.0
7.1626812456806535e6 -4.069079923375775e6 0.0
0.0 0.0 0.0

-7.570819296361917e6 1.1291344131462254e7 0.0
1.1291344131462254e7 3.8315001973332646e6 0.0
0.0 0.0 0.0

-714728.5795455885 5.814297587893383e6 0.0
5.814297587893383e6 -663598.5180826426 0.0
0.0 0.0 0.0

-4.232978392965889e6 9.972882778600672e6 0.0
9.972882778600672e6 590824.6232712374 0.0
0.0 0.0 0.0

914978.8950306056 8.274912065998652e6 0.0
8.274912065998652e6 -7.230595506468438e6 0.0
0.0 0.0 0.0

-3.1902963891189643e6 1.8862848189142283e7 0.0
1.8862848189142283e7 -3.3461631069834647e6 0.0
0.0 0.0 0.0

3.9477969470998175e6 1.0134052284344438e7 0.0
1.0134052284344438e7 2.6454235551545075e6 0.0
0.0 0.0 0.0

-5.281015038223764e6 4.691579047060878e6 0.0
4.691579047060878e6 5.079142021819711e6 0.0
0.0 0.0 0.0

4.2028414845964955e6 4.47466231195058e6 0.0
4.47466231195058e6 -5.470594984002456e6 0.0
0.0 0.0 0.0

-91117.31847433394 3.3865370698868814e6 0.0
3.3865370698868814e6 -991478.6536987216 0.0
0.0 0.0 0.0

-1.0959624745777142e6 6.1298157175569525e6 0.0
6.1298157175569525e6 -1.078446973034185e6 0.0
0.0 0.0 0.0

374442.9981220439 4.59274542444744e6 0.0
4.59274542444744e6 -3.4383701310870433e6 0.0
0.0 0.0 0.0

-852521.7498622872 8.100133472998909e6 0.0
8.100133472998909e6 592542.8171764328 0.0
0.0 0.0 0.0

-645866.5762994103 1.0429193482477985e7 0.0
1.0429193482477985e7 -562776.2168999997 0.0
0.0 0.0 0.0

-4.618608642803191e6 8.908979526659932e6 0.0
8.908979526659932e6 2.1885480110272504e6 0.0
0.0 0.0 0.0

-945615.9659824964 5.922847151094151e6 0.0
5.922847151094151e6 -1.304887204355694e6 0.0
0.0 0.0 0.0

-1.0002014255492161e6 5.80929343518859e6 0.0
5.80929343518859e6 -2.1987469554038104e6 0.0
0.0 0.0 0.0

-4.423328465938535e6 8.930656779454015e6 0.0
8.930656779454015e6 2.0920035905129183e6 0.0
0.0 0.0 0.0

324650.0552111594 8.894975756807059e6 0.0
8.894975756807059e6 -6.905314500188432e6 0.0
0.0 0.0 0.0

-6.098481763796747e6 9.979062044658978e6 0.0
9.979062044658978e6 3.2840770778399766e6 0.0
0.0 0.0 0.0

1.537212771996608e6 7.731792903195028e6 0.0
7.731792903195028e6 -8.176037464515604e6 0.0
0.0 0.0 0.0

-7.509865770997351e6 7.680772414196999e6 0.0
7.680772414196999e6 4.91722167942833e6 0.0
0.0 0.0 0.0

-5.849861574815974e6 9.754887843542948e6 0.0
9.754887843542948e6 3.0567072748863185e6 0.0
0.0 0.0 0.0

-1.0600015108787788e6 3.9861010949973175e6 0.0
3.9861010949973175e6 265869.422734798 0.0
0.0 0.0 0.0

-309637.0696702383 7.290648747589577e6 0.0
7.290648747589577e6 -4.506745264911504e6 0.0
0.0 0.0 0.0

-4.814159434925403e6 5.958268541033145e6 0.0
5.958268541033145e6 5.975044666850031e6 0.0
0.0 0.0 0.0

-2.108592088875415e6 1.0406327836186262e7 0.0
1.0406327836186262e7 -2.1031839780081124e6 0.0
0.0 0.0 0.0

-838212.4925738357 5.652368310536137e6 0.0
5.652368310536137e6 -2.503024546604913e6 0.0
0.0 0.0 0.0

2.437740724895649e6 6.227457866794568e6 0.0
6.227457866794568e6 -7.641842031132892e6 0.0
0.0 0.0 0.0

74853.88982948566 9.271977902681774e6 0.0
9.271977902681774e6 249513.07927684928 0.0
0.0 0.0 0.0

-5.553915191023187e6 9.679100471597472e6 0.0
9.679100471597472e6 2.6609136838081847e6 0.0
0.0 0.0 0.0

-3.516573760249377e6 -303718.55132919824 0.0
-303718.55132919824 3.4262960436135614e6 0.0
0.0 0.0 0.0

2.4608652970124083e6 6.227107856286744e6 0.0
6.227107856286744e6 -7.934089894443195e6 0.0
0.0 0.0 0.0

-4.737207886617356e6 9.101711958134014e6 0.0
9.101711958134014e6 2.2231770968125733e6 0.0
0.0 0.0 0.0

-582541.9261145147 9.653612165406698e6 0.0
9.653612165406698e6 1.1077797141854314e6 0.0
0.0 0.0 0.0

-3.8512532638824284e6 9.90728009629095e6 0.0
9.90728009629095e6 1.7221668729605132e6 0.0
0.0 0.0 0.0

2.3307353730466096e6 6.296145116164297e6 0.0
6.296145116164297e6 -8.44209183264125e6 0.0
0.0 0.0 0.0

-6.12887214406275e6 1.0028249517343352e7 0.0
1.0028249517343352e7 3.559138235303564e6 0.0
0.0 0.0 0.0

-4.0765969195713047e6 1.148107139800101e7 0.0
1.148107139800101e7 5.986353901202436e6 0.0
0.0 0.0 0.0

354357.14900392643 7.371930726897735e6 0.0
7.371930726897735e6 -5.139719066530059e6 0.0
0.0 0.0 0.0

57149.767346663866 8.180369936142144e6 0.0
8.180369936142144e6 -4.970953801174382e6 0.0
0.0 0.0 0.0

6.212350856844559e6 1.0316604439746648e7 0.0
1.0316604439746648e7 -8.945174378754346e6 0.0
0.0 0.0 0.0

-1.4116711498606668e6 9.034268219320197e6 0.0
9.034268219320197e6 156248.09572112124 0.0
0.0 0.0 0.0

-586358.9756683232 4.1537907063089847e6 0.0
4.1537907063089847e6 -868271.1754010862 0.0
0.0 0.0 0.0

-387020.9719271689 1.9954844670374955e6 0.0
1.9954844670374955e6 -1.7638335838446429e6 0.0
0.0 0.0 0.0

1.9485220189722623e6 6.242436813392768e6 0.0
6.242436813392768e6 -7.486750668885475e6 0.0
0.0 0.0 0.0

1.8676956360897645e6 7.35585106827369e6 0.0
7.35585106827369e6 -7.742857641749673e6 0.0
0.0 0.0 0.0

-4.840290796985664e6 8.899884697588906e6 0.0
8.899884697588906e6 1.8383389283928706e6 0.0
0.0 0.0 0.0

-4.1588548083843226e6 1.0210012550102597e7 0.0
1.0210012550102597e7 5.045957479591745e6 0.0
0.0 0.0 0.0

1.6347408712904416e6 9.91223895887759e6 0.0
9.91223895887759e6 3.7918226899055424e6 0.0
0.0 0.0 0.0

-1.3527137098230114e6 4.088171635971576e6 0.0
4.088171635971576e6 106701.3098465564 0.0
0.0 0.0 0.0

1.0267288862850042e6 8.2202294496891545e6 0.0
8.2202294496891545e6 -6.891353595538905e6 0.0
0.0 0.0 0.0

200533.06163505418 8.867044212725237e6 0.0
8.867044212725237e6 -6.830089620790655e6 0.0
0.0 0.0 0.0

-5.249866661027211e6 1.2582667544617837e7 0.0
1.2582667544617837e7 9.202699430559546e6 0.0
0.0 0.0 0.0

-4.221792677715474e6 9.030620994425936e6 0.0
9.030620994425936e6 3.12835494120791e6 0.0
0.0 0.0 0.0

-4.9985904851037515e6 5.441990791444474e6 0.0
5.441990791444474e6 4.627138665334713e6 0.0
0.0 0.0 0.0

-7.844848487198635e6 3.5771693776858808e6 0.0
3.5771693776858808e6 8.543903847214911e6 0.0
0.0 0.0 0.0

46082.830588235985 8.898448938067531e6 0.0
8.898448938067531e6 -5.688243428801408e6 0.0
0.0 0.0 0.0

128818.98046412994 9.605388483223978e6 0.0
9.605388483223978e6 -4.610304280522454e6 0.0
0.0 0.0 0.0

-1.1567414435417375e6 7.684337116548374e6 0.0
7.684337116548374e6 -3.425860102724e6 0.0
0.0 0.0 0.0

778407.9093016086 1.3964271973532561e7 0.0
1.3964271973532561e7 -5.005120571539843e6 0.0
0.0 0.0 0.0

-678088.0233386932 802488.8233108898 0.0
802488.8233108898 603776.8557298969 0.0
0.0 0.0 0.0

1.0590587186121019e6 8.982128878663369e6 0.0
8.982128878663369e6 -3.353781299071545e6 0.0
0.0 0.0 0.0

-8.808217064408384e6 1.2218272905523503e7 0.0
1.2218272905523503e7 4.245076957812703e6 0.0
0.0 0.0 0.0

-3.7627143224776676e6 9.458961956231967e6 0.0
9.458961956231967e6 2.6490547787592313e6 0.0
0.0 0.0 0.0

288744.4285768776 5.108663511641526e6 0.0
5.108663511641526e6 -4.149630541022635e6 0.0
0.0 0.0 0.0

256893.65970389103 3.689510538924467e6 0.0
3.689510538924467e6 -4.515183352884833e6 0.0
0.0 0.0 0.0

-252590.71374014788 7.654290790420272e6 0.0
7.654290790420272e6 442736.0616689316 0.0
0.0 0.0 0.0

-8.45834778742316e6 2.109628277175499e7 0.0
2.109628277175499e7 -6.862769382554915e6 0.0
0.0 0.0 0.0

-1.0873842970308354e7 1.087151541342285e6 0.0
1.087151541342285e6 1.3350966692511084e7 0.0
0.0 0.0 0.0

518997.56551657245 1.0416687255690346e7 0.0
1.0416687255690346e7 -4.0134048586349264e6 0.0
0.0 0.0 0.0

123127.36117347004 9.385456504225105e6 0.0
9.385456504225105e6 -4.9984157320719175e6 0.0
0.0 0.0 0.0

-653152.729047013 4.972569160098247e6 0.0
4.972569160098247e6 -2.745215887220462e6 0.0
0.0 0.0 0.0

-324107.09647639585 1.319674881349149e6 0.0
1.319674881349149e6 -2.6791143484676336e6 0.0
0.0 0.0 0.0

52396.09704629565 1.147097685323409e7 0.0
1.147097685323409e7 -3.5951608254584894e6 0.0
0.0 0.0 0.0

104855.93420133111 8.847128772469386e6 0.0
8.847128772469386e6 -6.321409724959416e6 0.0
0.0 0.0 0.0

2.2340513956682645e6 6.21097869765934e6 0.0
6.21097869765934e6 -7.949223906713109e6 0.0
0.0 0.0 0.0

-4.335340696961859e6 9.023131559028191e6 0.0
9.023131559028191e6 2.7274781925051976e6 0.0
0.0 0.0 0.0

973626.0703286543 7.498399794866963e6 0.0
7.498399794866963e6 -6.628031905717599e6 0.0
0.0 0.0 0.0

2.4381307849047426e6 6.363985052794623e6 0.0
6.363985052794623e6 -8.600039510669148e6 0.0
0.0 0.0 0.0

-2.237394293081632e6 1.022329087232174e7 0.0
1.022329087232174e7 1.7055679161260193e6 0.0
0.0 0.0 0.0

-2.9604031635158625e6 6.741437930809666e6 0.0
6.741437930809666e6 191734.8520050568 0.0
0.0 0.0 0.0

-874130.4040220042 5.081164492521829e6 0.0
5.081164492521829e6 -465478.89571759827 0.0
0.0 0.0 0.0

-5.344260132861236e6 9.546709751984548e6 0.0
9.546709751984548e6 2.756890241216086e6 0.0
0.0 0.0 0.0

-414494.72617148433 4.904633947887594e6 0.0
4.904633947887594e6 -1.9449807177631268e6 0.0
0.0 0.0 0.0

-2.044840098384948e6 7.305943407561658e6 0.0
7.305943407561658e6 -309761.3882890274 0.0
0.0 0.0 0.0

-966803.123887816 895087.1840804234 0.0
895087.1840804234 901795.6748093977 0.0
0.0 0.0 0.0

-1.1063307346408083e6 7.645021057574388e6 0.0
7.645021057574388e6 -3.1285828073302144e6 0.0
0.0 0.0 0.0

-7.326016673873191e6 1.1148674379183726e7 0.0
1.1148674379183726e7 3.897952016344251e6 0.0
0.0 0.0 0.0

-698972.6270957699 6.061127888252452e6 0.0
6.061127888252452e6 -1.0372800810152825e6 0.0
0.0 0.0 0.0

1.683547340849732e6 7.501749810260899e6 0.0
7.501749810260899e6 -8.2491179347931715e6 0.0
0.0 0.0 0.0

-1.2842419464588477e6 4.887689786567902e6 0.0
4.887689786567902e6 -1.7329978899779492e6 0.0
0.0 0.0 0.0

69207.42505563877 8.526244704206286e6 0.0
8.526244704206286e6 2.4578047906435765e6 0.0
0.0 0.0 0.0

5.74968491038418e6 1.1020668527730243e7 0.0
1.1020668527730243e7 2.525993933069603e6 0.0
0.0 0.0 0.0

260522.59020248684 6.050627976774112e6 0.0
6.050627976774112e6 -4.1332891804418797e6 0.0
0.0 0.0 0.0

-52205.20997994393 8.96591423387743e6 0.0
8.96591423387743e6 -6.796194709634026e6 0.0
0.0 0.0 0.0

344045.4082295485 6.187264254786835e6 0.0
6.187264254786835e6 -4.591653667416062e6 0.0
0.0 0.0 0.0

477859.37783669354 5.063009540234617e6 0.0
5.063009540234617e6 -4.416577741530764e6 0.0
0.0 0.0 0.0

6.717162128070335e6 9.049005024276156e6 0.0
9.049005024276156e6 804129.4343102274 0.0
0.0 0.0 0.0

-1.2473119264195403e7 1.0288900372959139e7 0.0
1.0288900372959139e7 8.0160051875386005e6 0.0
0.0 0.0 0.0

351048.05823006295 8.770693576531019e6 0.0
8.770693576531019e6 -6.596073169123407e6 0.0
0.0 0.0 0.0

-3.8624832426499673e6 9.914901622413624e6 0.0
9.914901622413624e6 153091.98122822656 0.0
0.0 0.0 0.0

1.8722962292441064e6 5.81315332504151e6 0.0
5.81315332504151e6 -6.343203901986414e6 0.0
0.0 0.0 0.0

-4.53394371239768e6 9.92387047996666e6 0.0
9.92387047996666e6 1.9954538713540325e6 0.0
0.0 0.0 0.0

-4.824915672368945e6 1.4627008592852887e7 0.0
1.4627008592852887e7 211203.04818511452 0.0
0.0 0.0 0.0

-8.423969209476687e6 2.635689581044607e6 0.0
2.635689581044607e6 1.015291406790347e7 0.0
0.0 0.0 0.0

-1.036139827301695e7 1.9708210601466745e7 0.0
1.9708210601466745e7 -620002.0963092819 0.0
0.0 0.0 0.0

-726858.3834561846 1.046975662473545e7 0.0
1.046975662473545e7 -614706.1357241808 0.0
0.0 0.0 0.0

2.2926755046546734e6 6.248121801317527e6 0.0
6.248121801317527e6 -7.743287724291086e6 0.0
0.0 0.0 0.0

7.200957833645693e6 8.343258382593464e6 0.0
8.343258382593464e6 -4.351325867598613e6 0.0
0.0 0.0 0.0

-2.421719861817668e6 9.968038138292275e6 0.0
9.968038138292275e6 1.7182977914428934e6 0.0
0.0 0.0 0.0

1.508734736774587e6 6.801152036501325e6 0.0
6.801152036501325e6 -7.201610203471249e6 0.0
0.0 0.0 0.0

-4.323866907260884e6 1.0690113507137815e7 0.0
1.0690113507137815e7 387055.7844933951 0.0
0.0 0.0 0.0

-57872.19378071558 1.053279492556533e7 0.0
1.053279492556533e7 -3.9335977658689017e6 0.0
0.0 0.0 0.0

-1.4677385620018807e6 8.512283246115055e6 0.0
8.512283246115055e6 -1.0403411275763079e6 0.0
0.0 0.0 0.0

351848.58389002737 9.609398524566311e6 0.0
9.609398524566311e6 -4.609771354903155e6 0.0
0.0 0.0 0.0

8504.543875074713 8.154939957955145e6 0.0
8.154939957955145e6 2.7891427539067776e6 0.0
0.0 0.0 0.0

2.1523279609301775e6 7.491771115376974e6 0.0
7.491771115376974e6 -9.76941615405698e6 0.0
0.0 0.0 0.0

-3.6941206325061293e6 1.0037186787935045e7 0.0
1.0037186787935045e7 2.3512076980093317e6 0.0
0.0 0.0 0.0

533654.580698634 1.2088657166610735e6 0.0
1.2088657166610735e6 -3.337704161314559e6 0.0
0.0 0.0 0.0

-4.5334250800444465e6 4.314229466961311e6 0.0
4.314229466961311e6 5.4857314166973885e6 0.0
0.0 0.0 0.0

47951.85455823573 5.077420780194774e6 0.0
5.077420780194774e6 -3.416624849290751e6 0.0
0.0 0.0 0.0

-5.1384139935819935e6 317095.23746636295 0.0
317095.23746636295 5.297621871909959e6 0.0
0.0 0.0 0.0

-594292.6027970503 8.662797866182761e6 0.0
8.662797866182761e6 -4.093951534844688e6 0.0
0.0 0.0 0.0

1.731001774800996e6 413076.82232653425 0.0
413076.82232653425 -3.7644505758464877e6 0.0
0.0 0.0 0.0

-411662.47628430225 9.702591778867934e6 0.0
9.702591778867934e6 1.1064930567377126e6 0.0
0.0 0.0 0.0

-5.896266521246823e6 1.002330795856693e7 0.0
1.002330795856693e7 3.522374341843591e6 0.0
0.0 0.0 0.0

-5.408012517371699e6 -293314.57475543517 0.0
-293314.57475543517 6.061449509883394e6 0.0
0.0 0.0 0.0

-1.4972535382959747e6 1.0331380320152417e7 0.0
1.0331380320152417e7 472498.71191508067 0.0
0.0 0.0 0.0

241734.0571903591 1.1837148344755968e7 0.0
1.1837148344755968e7 -3.5628341092422428e6 0.0
0.0 0.0 0.0

-4.527707293072389e6 8.631987022474933e6 0.0
8.631987022474933e6 1.5407739032615656e6 0.0
0.0 0.0 0.0

-3.6133643507334753e6 1.0880474265789088e7 0.0
1.0880474265789088e7 1.6143214452127041e6 0.0
0.0 0.0 0.0

-4.362093110606248e6 8.759652620626654e6 0.0
8.759652620626654e6 1.9833119040415727e6 0.0
0.0 0.0 0.0

-897202.1522374826 8.27944755972713e6 0.0
8.27944755972713e6 -5.655601707497049e6 0.0
0.0 0.0 0.0

2.5131083917055535e6 1.3129015041416641e7 0.0
1.3129015041416641e7 -7.783397055349575e6 0.0
0.0 0.0 0.0

-22928.070546078496 9.333018521333946e6 0.0
9.333018521333946e6 -5.0783581389395e6 0.0
0.0 0.0 0.0

-3.1543941034463514e6 9.144542176061317e6 0.0
9.144542176061317e6 3.7995004570387825e6 0.0
0.0 0.0 0.0

-3.7408716205749246e6 8.832522367436558e6 0.0
8.832522367436558e6 4.262801922703367e6 0.0
0.0 0.0 0.0

176210.16583247972 7.455810338915789e6 0.0
7.455810338915789e6 -4.854525860184982e6 0.0
0.0 0.0 0.0

-1.9166344379729019e6 7.101496788490629e6 0.0
7.101496788490629e6 -483397.8946616182 0.0
0.0 0.0 0.0

-7.91521102966878e6 1.0804331072782611e7 0.0
1.0804331072782611e7 4.768996622902626e6 0.0
0.0 0.0 0.0

-4.0786762996186144e6 7.410903380693863e6 0.0
7.410903380693863e6 2.6386095612248797e6 0.0
0.0 0.0 0.0

-8.484053030008618e6 1.2898796244311405e7 0.0
1.2898796244311405e7 4.514012013284441e6 0.0
0.0 0.0 0.0

-678556.184218793 8.733667378872002e6 0.0
8.733667378872002e6 -4.494238042715345e6 0.0
0.0 0.0 0.0

-8.80441191957083e6 9.979018490240626e6 0.0
9.979018490240626e6 895178.0221271408 0.0
0.0 0.0 0.0

2.2928695919649266e6 6.546227542006389e6 0.0
6.546227542006389e6 -7.955076454631165e6 0.0
0.0 0.0 0.0

-4.941308474129725e6 1.5452704400408562e7 0.0
1.5452704400408562e7 548307.2136134289 0.0
0.0 0.0 0.0

-9.781607898058835e6 8.0640355509602465e6 0.0
8.0640355509602465e6 6.649542645475758e6 0.0
0.0 0.0 0.0

-1.6299596521436486e6 9.77841270901128e6 0.0
9.77841270901128e6 1.9942733642596898e6 0.0
0.0 0.0 0.0

-1.3107076309782572e7 8.172283809776095e6 0.0
8.172283809776095e6 6.764752411507244e6 0.0
0.0 0.0 0.0

2.2263451972563844e6 6.307307312564385e6 0.0
6.307307312564385e6 -7.999375444245257e6 0.0
0.0 0.0 0.0

-3.813027824038781e6 7.378068241941569e6 0.0
7.378068241941569e6 3.5467899370407593e6 0.0
0.0 0.0 0.0

-822595.5878492252 6.231817625994625e6 0.0
6.231817625994625e6 -1.330617476862322e6 0.0
0.0 0.0 0.0

195535.59954043478 4.833662904066769e6 0.0
4.833662904066769e6 -3.72956132511706e6 0.0
0.0 0.0 0.0

-294286.15100030147 1.0624766082217254e7 0.0
1.0624766082217254e7 -4.030437387203343e6 0.0
0.0 0.0 0.0

-1.329635429762813e7 1.0281258853163201e7 0.0
1.0281258853163201e7 8.998306892913673e6 0.0
0.0 0.0 0.0

-7.161840252159815e6 105888.81719233225 0.0
105888.81719233225 5.867824186880246e6 0.0
0.0 0.0 0.0

-1.127553743252089e7 9.282331356351292e6 0.0
9.282331356351292e6 2.7458375162671343e6 0.0
0.0 0.0 0.0

5.870458268225983e6 8.199253337475964e6 0.0
8.199253337475964e6 894870.0818018884 0.0
0.0 0.0 0.0

605739.1005173777 9.917880777830495e6 0.0
9.917880777830495e6 -1.0571450903747179e7 0.0
0.0 0.0 0.0

-28891.440823724726 9.935488511877805e6 0.0
9.935488511877805e6 -4.547508391977817e6 0.0
0.0 0.0 0.0

-3.099849250530075e6 9.093527298797855e6 0.0
9.093527298797855e6 3.893382861679636e6 0.0
0.0 0.0 0.0

-2.9622235752958767e6 1.1209306984673664e7 0.0
1.1209306984673664e7 -1.3131920019453291e6 0.0
0.0 0.0 0.0

-5.268809279927474e6 9.464931696073983e6 0.0
9.464931696073983e6 2.38413421063821e6 0.0
0.0 0.0 0.0

-135497.9226111703 9.397723241795244e6 0.0
9.397723241795244e6 -339512.20267511223 0.0
0.0 0.0 0.0

-8.334499930060528e6 1.2356651784565248e7 0.0
1.2356651784565248e7 4.421609019483263e6 0.0
0.0 0.0 0.0

-970956.2391362905 5.980416328124333e6 0.0
5.980416328124333e6 -1.0996315957295364e6 0.0
0.0 0.0 0.0

8.723854259484548e6 1.091037442086383e7 0.0
1.091037442086383e7 -5.341033641112672e6 0.0
0.0 0.0 0.0

-5.291427496306114e6 1.1593925473677207e7 0.0
1.1593925473677207e7 325840.47434505937 0.0
0.0 0.0 0.0

-214973.2459501908 9.106019102108095e6 0.0
9.106019102108095e6 24661.22881394536 0.0
0.0 0.0 0.0

-3.8603885381444576e6 9.65635144973915e6 0.0
9.65635144973915e6 868157.2551352531 0.0
0.0 0.0 0.0

-8.324517336919177e6 6.178835832285685e6 0.0
6.178835832285685e6 9.498129876521546e6 0.0
0.0 0.0 0.0

-4.58473053528973e6 1.0212141716210792e7 0.0
1.0212141716210792e7 513453.2763273984 0.0
0.0 0.0 0.0

1.1752833189890836e6 7.186948633348428e6 0.0
7.186948633348428e6 -6.378144855288459e6 0.0
0.0 0.0 0.0

-4.184554559576263e6 8.72877654734784e6 0.0
8.72877654734784e6 1.7683756198830598e6 0.0
0.0 0.0 0.0

-2.3784769516257774e6 1.0507804903375933e7 0.0
1.0507804903375933e7 624829.1257872699 0.0
0.0 0.0 0.0

869665.1172139442 5.04740513222869e6 0.0
5.04740513222869e6 -4.882277319869678e6 0.0
0.0 0.0 0.0

-3.8437833844121336e6 9.822070108186292e6 0.0
9.822070108186292e6 2.4155172981450157e6 0.0
0.0 0.0 0.0

-1.0061527916205302e7 -76606.38511896279 0.0
-76606.38511896279 1.5027849303866427e7 0.0
0.0 0.0 0.0

-808949.7100098459 4.741749813762508e6 0.0
4.741749813762508e6 -1.5101854835594217e6 0.0
0.0 0.0 0.0

-6.410759333953707e6 6.995599261806969e6 0.0
6.995599261806969e6 4.588694912736556e6 0.0
0.0 0.0 0.0

4.904874564464082e6 1.100023836346294e7 0.0
1.100023836346294e7 1.6647110102982214e6 0.0
0.0 0.0 0.0

307310.7474791857 8.61527335643729e6 0.0
8.61527335643729e6 -5.8870976991693275e6 0.0
0.0 0.0 0.0

1.6129714013530277e6 6.6546852161644595e6 0.0
6.6546852161644595e6 -6.796275883035205e6 0.0
0.0 0.0 0.0

2.9309285616634456e6 8.761723531179221e6 0.0
8.761723531179221e6 -3.203238182636314e6 0.0
0.0 0.0 0.0

-6.132595191518612e6 3.565995653535237e6 0.0
3.565995653535237e6 8.12717472991043e6 0.0
0.0 0.0 0.0

-4.817293394893806e6 9.150546085601654e6 0.0
9.150546085601654e6 2.1431218752835845e6 0.0
0.0 0.0 0.0

-3.685325316354789e6 9.01393716026291e6 0.0
9.01393716026291e6 -231095.65090910543 0.0
0.0 0.0 0.0

-3.750035826681266e6 9.921002236160133e6 0.0
9.921002236160133e6 -790000.9401528274 0.0
0.0 0.0 0.0

-463236.91550385335 9.668957350595953e6 0.0
9.668957350595953e6 -878338.8538911097 0.0
0.0 0.0 0.0

-65071.6562424642 5.711122316324911e6 0.0
5.711122316324911e6 -3.934154013185656e6 0.0
0.0 0.0 0.0

5.748265471311393e6 9.398259335183207e6 0.0
9.398259335183207e6 -3.3465636882565315e6 0.0
0.0 0.0 0.0

-154782.1107491094 9.512638426877318e6 0.0
9.512638426877318e6 -508306.08313107275 0.0
0.0 0.0 0.0

-7.524053116932028e6 1.0719474283449566e7 0.0
1.0719474283449566e7 4.571558744359581e6 0.0
0.0 0.0 0.0

-1.5569981677584898e7 1.4271320975397965e6 0.0
1.4271320975397965e6 9.681160792158647e6 0.0
0.0 0.0 0.0

872935.6712562342 5.726886691610661e6 0.0
5.726886691610661e6 -4.550475579991559e6 0.0
0.0 0.0 0.0

-457753.24384902493 1.030359525151121e7 0.0
1.030359525151121e7 -353253.24889470683 0.0
0.0 0.0 0.0

-511934.48140130076 8.1505967555231135e6 0.0
8.1505967555231135e6 -5.4712516249714615e6 0.0
0.0 0.0 0.0

-479602.21657087 9.563810778010627e6 0.0
9.563810778010627e6 -4.8760705857705735e6 0.0
0.0 0.0 0.0

-1.1134405667092565e6 2.2021482992496765e6 0.0
2.2021482992496765e6 649150.5814960877 0.0
0.0 0.0 0.0

-897248.1855882253 7.679719910548528e6 0.0
7.679719910548528e6 -3.763267560554357e6 0.0
0.0 0.0 0.0

-557832.4279077558 9.494977477549221e6 0.0
9.494977477549221e6 -6.6363482243305985e6 0.0
0.0 0.0 0.0

-675364.4023673524 7.648602400359619e6 0.0
7.648602400359619e6 -4.054620543076016e6 0.0
0.0 0.0 0.0

-553994.6379827694 1.0994693669745924e7 0.0
1.0994693669745924e7 -3.664900855508954e6 0.0
0.0 0.0 0.0

3.0029975126384483e6 1.007857138622136e7 0.0
1.007857138622136e7 3.266695292471024e6 0.0
0.0 0.0 0.0

-7.647058469428111e6 4.220259932884803e6 0.0
4.220259932884803e6 1.1283629755014319e7 0.0
0.0 0.0 0.0

-3.592833100136856e6 1.0611063111567834e7 0.0
1.0611063111567834e7 1.7605339962337157e6 0.0
0.0 0.0 0.0

-276883.0168058929 9.65368292781355e6 0.0
9.65368292781355e6 -1.1645015556625894e6 0.0
0.0 0.0 0.0

-3.9391572761064563e6 7.87305049391034e6 0.0
7.87305049391034e6 1.3668374418158343e6 0.0
0.0 0.0 0.0

3.0941712072787452e6 1.053551562274146e7 0.0
1.053551562274146e7 2.9809253909047446e6 0.0
0.0 0.0 0.0

-3.573007944326197e6 9.884296050493749e6 0.0
9.884296050493749e6 2.4241963293882934e6 0.0
0.0 0.0 0.0

1.2432126407642665e6 9.485544882816842e6 0.0
9.485544882816842e6 -3.9214446376734003e6 0.0
0.0 0.0 0.0

-6.209177815976944e6 1.0157143133871697e7 0.0
1.0157143133871697e7 2.8089708195445426e6 0.0
0.0 0.0 0.0

-4.310256954927174e6 8.829301682234477e6 0.0
8.829301682234477e6 2.0427792817857498e6 0.0
0.0 0.0 0.0

-1.1980064283604598e7 -5.478824069516418e6 0.0
-5.478824069516418e6 2.8125456233995512e7 0.0
0.0 0.0 0.0

-2.282906890194212e6 1.0348650375948876e7 0.0
1.0348650375948876e7 -2.7155718459732705e6 0.0
0.0 0.0 0.0

-5.853158752559301e6 9.901701669669677e6 0.0
9.901701669669677e6 3.3918883015883723e6 0.0
0.0 0.0 0.0

22801.23651438672 1.1971517698489155e6 0.0
1.1971517698489155e6 -1.6858150323210768e6 0.0
0.0 0.0 0.0

-4.257009952075457e6 5.095223524543592e6 0.0
5.095223524543592e6 5.669908991645182e6 0.0
0.0 0.0 0.0

-2.4157688538148496e6 6.453279101554649e6 0.0
6.453279101554649e6 1.746602665128766e6 0.0
0.0 0.0 0.0

791701.9297497969 5.460449021942958e6 0.0
5.460449021942958e6 -5.298485420298567e6 0.0
0.0 0.0 0.0

-8.276271293835408e6 1.091920856019408e7 0.0
1.091920856019408e7 5.14855002760856e6 0.0
0.0 0.0 0.0

-801554.0460560475 7.579012395361959e6 0.0
7.579012395361959e6 -3.3444402169663385e6 0.0
0.0 0.0 0.0

-3.8413533343949066e6 7.10382430115747e6 0.0
7.10382430115747e6 3.7316597075487217e6 0.0
0.0 0.0 0.0

2.4429947509975564e6 7.312446669516165e6 0.0
7.312446669516165e6 -8.893482661206536e6 0.0
0.0 0.0 0.0

-7.201084365064084e6 1.0548967821191542e7 0.0
1.0548967821191542e7 4.48639294523532e6 0.0
0.0 0.0 0.0

-1.2057798635322768e6 8.596276735992976e6 0.0
8.596276735992976e6 -5.925604970780098e6 0.0
0.0 0.0 0.0

5.402172999509145e6 2.381226811431166e6 0.0
2.381226811431166e6 -7.194113864658261e6 0.0
0.0 0.0 0.0

-590985.6441491871 4.550783067815852e6 0.0
4.550783067815852e6 -1.823473334016059e6 0.0
0.0 0.0 0.0

-1.151341406900178e7 8.263469901023747e6 0.0
8.263469901023747e6 6.559966380402959e6 0.0
0.0 0.0 0.0

-195257.1687791358 9.185335562881064e6 0.0
9.185335562881064e6 388385.5456701833 0.0
0.0 0.0 0.0

-1.1041890779066797e7 1.0696808019327672e7 0.0
1.0696808019327672e7 7.208567695697286e6 0.0
0.0 0.0 0.0

-1.2629351330670898e6 3.8609114509809567e6 0.0
3.8609114509809567e6 478062.7623576893 0.0
0.0 0.0 0.0

2.2542673535462064e6 8.352975833023401e6 0.0
8.352975833023401e6 -9.032861672458034e6 0.0
0.0 0.0 0.0

1.3242066202818993e7 8.62080179617244e6 0.0
8.62080179617244e6 -9.54434536789958e6 0.0
0.0 0.0 0.0

-5.14365147801256e6 9.376497023350736e6 0.0
9.376497023350736e6 2.4317713144279206e6 0.0
0.0 0.0 0.0

-5.519231831199835e6 1.024317996728539e7 0.0
1.024317996728539e7 3.309719958234138e6 0.0
0.0 0.0 0.0

-4.76944055019724e6 9.154503542892678e6 0.0
9.154503542892678e6 2.505944341092936e6 0.0
0.0 0.0 0.0

-4.399439081295707e6 1.2667550700855436e7 0.0
1.2667550700855436e7 1.2026838817765845e7 0.0
0.0 0.0 0.0

1.5253803355377913e6 5.884082431829361e6 0.0
5.884082431829361e6 -6.461464612137941e6 0.0
0.0 0.0 0.0

-1.1823157917255405e6 6.085830827992366e6 0.0
6.085830827992366e6 -2.1902362057874156e6 0.0
0.0 0.0 0.0

-6.814976832862103e6 1.4557271021057803e7 0.0
1.4557271021057803e7 731452.3376375423 0.0
0.0 0.0 0.0

1.0042793401900711e6 7.882080028310055e6 0.0
7.882080028310055e6 -7.256135160846006e6 0.0
0.0 0.0 0.0

-8.843493786677279e6 321347.326945525 0.0
321347.326945525 6.864855122584317e6 0.0
0.0 0.0 0.0

-2.7373498420716e6 1.0163806948657615e7 0.0
1.0163806948657615e7 451274.6375635306 0.0
0.0 0.0 0.0

-708015.199450033 7.076585161130623e6 0.0
7.076585161130623e6 -1.6500025674660432e6 0.0
0.0 0.0 0.0

-553912.9514180315 7.56933998232525e6 0.0
7.56933998232525e6 -3.6271369570512725e6 0.0
0.0 0.0 0.0

-3.3415060567285777e6 1.093709649651333e7 0.0
1.093709649651333e7 5.743930502693586e6 0.0
0.0 0.0 0.0

-3.6977638600002145e6 1.5050522924282294e7 0.0
1.5050522924282294e7 -986236.4328624415 0.0
0.0 0.0 0.0

-9.277745799243882e6 -4.760702072111472e6 0.0
-4.760702072111472e6 5.8470505278146425e6 0.0
0.0 0.0 0.0

1.8624579151290152e6 1.8163852531268064e7 0.0
1.8163852531268064e7 -7.163302912348188e6 0.0
0.0 0.0 0.0

-5.582560601667491e6 1.5769773932293864e7 0.0
1.5769773932293864e7 -2.0725216868649244e6 0.0
0.0 0.0 0.0

684020.3362951519 5.725329161586303e6 0.0
5.725329161586303e6 -3.62035582415624e6 0.0
0.0 0.0 0.0

-5.984694883489061e6 9.946435600869937e6 0.0
9.946435600869937e6 3.2770272251503076e6 0.0
0.0 0.0 0.0

5.623294418387053e6 9.14971221617814e6 0.0
9.14971221617814e6 494289.8111306813 0.0
0.0 0.0 0.0

-1.1775013993927669e7 664708.509935463 0.0
664708.509935463 1.6739540784903064e7 0.0
0.0 0.0 0.0

-2.6014798503237627e6 1.0252142043910244e7 0.0
1.0252142043910244e7 -2.298904109379976e6 0.0
0.0 0.0 0.0

1.1037950189430646e6 1.0027079843968265e7 0.0
1.0027079843968265e7 3.602426700233372e6 0.0
0.0 0.0 0.0

-185705.73509092373 1.070000863893339e7 0.0
1.070000863893339e7 -3.8681600129301725e6 0.0
0.0 0.0 0.0

2.0554571345799072e6 6.230407818631359e6 0.0
6.230407818631359e6 -7.005589795929014e6 0.0
0.0 0.0 0.0

-5.101611394877309e6 9.354132153559608e6 0.0
9.354132153559608e6 1.9873302761434617e6 0.0
0.0 0.0 0.0

-321741.58194231684 8.354011843868648e6 0.0
8.354011843868648e6 -5.450132863029416e6 0.0
0.0 0.0 0.0

-5.873423580673261e6 1.1814560388177617e7 0.0
1.1814560388177617e7 1.4250040574251802e6 0.0
0.0 0.0 0.0

-1.0919708352458434e7 3.133990368393663e6 0.0
3.133990368393663e6 1.8452543838875577e7 0.0
0.0 0.0 0.0

316253.63002886577 9.162122094303563e6 0.0
9.162122094303563e6 -4.630372505166998e6 0.0
0.0 0.0 0.0

353744.6743865055 7.45463122496528e6 0.0
7.45463122496528e6 -5.321369477381969e6 0.0
0.0 0.0 0.0

-928370.9101395482 1.2091219960138109e7 0.0
1.2091219960138109e7 -3.0449491415079907e6 0.0
0.0 0.0 0.0

-287960.54111712985 8.182513038179953e6 0.0
8.182513038179953e6 -4.9100549949145e6 0.0
0.0 0.0 0.0

-9.142391093628582e6 -1.7386371757981614e6 0.0
-1.7386371757981614e6 1.3290965868081115e7 0.0
0.0 0.0 0.0

-6.0966569180277055e6 1.0605953419618862e7 0.0
1.0605953419618862e7 9.971976700885031e6 0.0
0.0 0.0 0.0

1.3203324505825555e6 7.8412158979096105e6 0.0
7.8412158979096105e6 -7.561194427889887e6 0.0
0.0 0.0 0.0

-5.232709725393083e6 1.1682449750135409e7 0.0
1.1682449750135409e7 1.1530801827750753e6 0.0
0.0 0.0 0.0

-3.10485699161198e6 8.878965837062892e6 0.0
8.878965837062892e6 4.287708249502305e6 0.0
0.0 0.0 0.0

644310.7461798373 7.168706974220457e6 0.0
7.168706974220457e6 -5.263084479484895e6 0.0
0.0 0.0 0.0

7.392281991759627e6 1.0226311045880424e7 0.0
1.0226311045880424e7 1.8653628025607858e6 0.0
0.0 0.0 0.0

-5.064398809436264e6 1.1307996701177934e7 0.0
1.1307996701177934e7 1.1512055684204283e6 0.0
0.0 0.0 0.0

-867114.1610207292 2.0596310198692714e6 0.0
2.0596310198692714e6 617366.0001871875 0.0
0.0 0.0 0.0

-9.72242728394793e6 -1.2945028728078727e6 0.0
-1.2945028728078727e6 1.1607332781922944e7 0.0
0.0 0.0 0.0

1.2656375217422885e6 5.107152840184924e6 0.0
5.107152840184924e6 -5.8570727612446835e6 0.0
0.0 0.0 0.0

-4.792528305099709e6 8.934714474137077e6 0.0
8.934714474137077e6 2.247690269683038e6 0.0
0.0 0.0 0.0

-1.138843898787059e6 9.730820893321378e6 0.0
9.730820893321378e6 -918045.5348793339 0.0
0.0 0.0 0.0

-3.038338815421571e6 1.1086900336499827e7 0.0
1.1086900336499827e7 -1.8225160786512257e6 0.0
0.0 0.0 0.0

-499543.4297860912 2.8776819680419546e6 0.0
2.8776819680419546e6 120927.67893687575 0.0
0.0 0.0 0.0

-3.582193236552335e6 9.685847645636035e6 0.0
9.685847645636035e6 -323448.40387099364 0.0
0.0 0.0 0.0

-9.784721463457448e6 -2.2934182509504664e6 0.0
-2.2934182509504664e6 1.1961899488694701e7 0.0
0.0 0.0 0.0

2.9310056799371317e6 8.142433770798822e6 0.0
8.142433770798822e6 -1.6906791306871502e6 0.0
0.0 0.0 0.0

1.110196430744436e6 8.248427122462194e6 0.0
8.248427122462194e6 -7.219385000653484e6 0.0
0.0 0.0 0.0

1.5528026438895925e6 7.800784088451632e6 0.0
7.800784088451632e6 -7.552036837182199e6 0.0
0.0 0.0 0.0

-4.9603344874529615e6 4.921437692787074e6 0.0
4.921437692787074e6 6.61188017693536e6 0.0
0.0 0.0 0.0

-3.361688647344038e6 7.83252183770214e6 0.0
7.83252183770214e6 1.2006299721181372e6 0.0
0.0 0.0 0.0

66062.30905857554 1.2198925599521832e6 0.0
1.2198925599521832e6 -2.5269560602966603e6 0.0
0.0 0.0 0.0

397921.699229775 9.159609950119954e6 0.0
9.159609950119954e6 -4.634742937876727e6 0.0
0.0 0.0 0.0

-5.506138975459516e6 9.932672586588042e6 0.0
9.932672586588042e6 3.259746719141087e6 0.0
0.0 0.0 0.0

-2.46907065504311e6 1.2572287955750814e7 0.0
1.2572287955750814e7 6.6783605403626915e6 0.0
0.0 0.0 0.0

1.2209497767312427e6 1.207468968659605e7 0.0
1.207468968659605e7 -4.1158879519271767e6 0.0
0.0 0.0 0.0

-1.0250591664122567e7 -6.751556156715152e6 0.0
-6.751556156715152e6 2.575528467983932e7 0.0
0.0 0.0 0.0

-9.427230317805942e6 2.4908098194113397e6 0.0
2.4908098194113397e6 1.367867323168569e7 0.0
0.0 0.0 0.0

-2.796356276851008e6 5.632389551076848e6 0.0
5.632389551076848e6 2.2853795801281556e6 0.0
0.0 0.0 0.0

-1.3683642764138395e6 7.658226521554726e6 0.0
7.658226521554726e6 218795.8900461145 0.0
0.0 0.0 0.0

-540887.2853220291 5.125058512239179e6 0.0
5.125058512239179e6 -800503.6304710757 0.0
0.0 0.0 0.0

-7.097076315430166e6 5.445191782453277e6 0.0
5.445191782453277e6 3.6050699326060917e6 0.0
0.0 0.0 0.0

1.6564634217583886e6 6.092641586613741e6 0.0
6.092641586613741e6 -6.120533140827324e6 0.0
0.0 0.0 0.0

-294579.10063761496 9.161424501016388e6 0.0
9.161424501016388e6 -6.643381045267289e6 0.0
0.0 0.0 0.0

-208225.22557022324 9.79291915795016e6 0.0
9.79291915795016e6 -598865.8180146609 0.0
0.0 0.0 0.0

-1.4316088617459699e6 1.512014322759726e7 0.0
1.512014322759726e7 -5.7873295712768445e6 0.0
0.0 0.0 0.0

114125.0120756661 1.0935436865599921e7 0.0
1.0935436865599921e7 -3.7586958042248255e6 0.0
0.0 0.0 0.0

-8.569245774665184e6 1.0319767452935088e7 0.0
1.0319767452935088e7 1.1567132689947807e6 0.0
0.0 0.0 0.0

-5.670210214259515e6 9.626087909719827e6 0.0
9.626087909719827e6 2.3107689882783284e6 0.0
0.0 0.0 0.0

-933037.2393164232 2.394464860155891e6 0.0
2.394464860155891e6 -2.4177494850408253e6 0.0
0.0 0.0 0.0

-1.1928017332957303e7 1.092194233947849e7 0.0
1.092194233947849e7 7.682065471171241e6 0.0
0.0 0.0 0.0

-3.4376303986203866e6 7.8144440309804715e6 0.0
7.8144440309804715e6 1.2318166666742174e6 0.0
0.0 0.0 0.0

-1.056290389277358e6 5.44954876593679e6 0.0
5.44954876593679e6 -937533.2442150433 0.0
0.0 0.0 0.0

-3.516488530911511e6 7.649363076547456e6 0.0
7.649363076547456e6 787438.9044625533 0.0
0.0 0.0 0.0

-744863.9911748071 2.0045899403458012e6 0.0
2.0045899403458012e6 -1.2099037702553682e6 0.0
0.0 0.0 0.0

-1.6129661517209113e6 4.1883461530319904e6 0.0
4.1883461530319904e6 -1.3513696043436113e6 0.0
0.0 0.0 0.0

852822.3167489059 8.3259315382804815e6 0.0
8.3259315382804815e6 -6.586458985097458e6 0.0
0.0 0.0 0.0

-4.439223759080661e6 1.1136100733257988e7 0.0
1.1136100733257988e7 1.29922855285307e6 0.0
0.0 0.0 0.0

-2.9691172339332607e6 9.35944048818931e6 0.0
9.35944048818931e6 3.564945240517527e6 0.0
0.0 0.0 0.0

-829517.0178192416 9.80581583591907e6 0.0
9.80581583591907e6 -1.0929166651896215e6 0.0
0.0 0.0 0.0

5.132621808976902e6 2.22360239778288e6 0.0
2.22360239778288e6 -7.260816685211708e6 0.0
0.0 0.0 0.0

-4.710086616735154e6 9.346639609375333e6 0.0
9.346639609375333e6 688872.3449707965 0.0
0.0 0.0 0.0

-6.243648658212044e6 1.0235342236354839e7 0.0
1.0235342236354839e7 2.5653520032063317e6 0.0
0.0 0.0 0.0

-944860.502081711 1.2142114645355234e7 0.0
1.2142114645355234e7 -3.110971418048833e6 0.0
0.0 0.0 0.0

-1.3445475366674594e6 5.478316156490477e6 0.0
5.478316156490477e6 -348264.33027619193 0.0
0.0 0.0 0.0

19822.213362458628 9.057467940592093e6 0.0
9.057467940592093e6 -5.5115324134994745e6 0.0
0.0 0.0 0.0

-7.929738016223946e6 1.0643980943873389e7 0.0
1.0643980943873389e7 5.14576867289301e6 0.0
0.0 0.0 0.0

-7.508647793687807e6 1.0655927028214848e7 0.0
1.0655927028214848e7 4.7280640808637375e6 0.0
0.0 0.0 0.0

299429.9649183904 8.69921530867664e6 0.0
8.69921530867664e6 -6.425106042292472e6 0.0
0.0 0.0 0.0

-329009.366443994 8.351533667922455e6 0.0
8.351533667922455e6 -5.176509386859821e6 0.0
0.0 0.0 0.0

-379186.7587122997 1.0085375157611027e7 0.0
1.0085375157611027e7 -499911.85663948144 0.0
0.0 0.0 0.0

800943.6089990456 7.632817346638342e6 0.0
7.632817346638342e6 -6.3613447998675825e6 0.0
0.0 0.0 0.0

-7.284556285331116e6 2.9222128361829934e6 0.0
2.9222128361829934e6 1.0627437599150773e7 0.0
0.0 0.0 0.0

1.7360687120185634e6 9.199598905352684e6 0.0
9.199598905352684e6 -8.759322469897943e6 0.0
0.0 0.0 0.0

-7.57743601649706e6 1.64083735698837e7 0.0
1.64083735698837e7 -636648.6874675034 0.0
0.0 0.0 0.0

-1.0178964928826519e6 1.0498573660013199e7 0.0
1.0498573660013199e7 2.635616994682162e6 0.0
0.0 0.0 0.0

-3.5669046771536605e6 1.140290811231041e7 0.0
1.140290811231041e7 6.053022150179342e6 0.0
0.0 0.0 0.0

569258.2248388951 9.052281550048145e6 0.0
9.052281550048145e6 3.5673632766218768e6 0.0
0.0 0.0 0.0

-367859.6798766423 7.567700627009028e6 0.0
7.567700627009028e6 -2.0165782755470485e6 0.0
0.0 0.0 0.0

-4.361304938754916e6 9.225303859579116e6 0.0
9.225303859579116e6 845943.0503535899 0.0
0.0 0.0 0.0

-9.811300532437118e6 8.895992952227803e6 0.0
8.895992952227803e6 1.8386869147485313e6 0.0
0.0 0.0 0.0

219380.92776073364 7.365692702525312e6 0.0
7.365692702525312e6 -2.607070337248747e6 0.0
0.0 0.0 0.0

-1.6750369657415529e6 1.0575748322072491e7 0.0
1.0575748322072491e7 452643.0847322339 0.0
0.0 0.0 0.0

938396.3227223845 5.450575320990627e6 0.0
5.450575320990627e6 -4.799994024518365e6 0.0
0.0 0.0 0.0

-8.157155949139259e6 5.3749192240853e6 0.0
5.3749192240853e6 4.261349587800663e6 0.0
0.0 0.0 0.0

-1.4009606609207898e7 9.593774063123075e6 0.0
9.593774063123075e6 9.485919662747633e6 0.0
0.0 0.0 0.0

-821184.7341066473 3.540215112195144e6 0.0
3.540215112195144e6 331474.42870503356 0.0
0.0 0.0 0.0

-4.122356019712486e6 1.5064161017562727e7 0.0
1.5064161017562727e7 -2.4370507736443914e6 0.0
0.0 0.0 0.0

-1.3943090283364618e7 2.706859326493132e6 0.0
2.706859326493132e6 3.013064832111112e7 0.0
0.0 0.0 0.0

-1.0393949800697586e6 2.1373857661004993e6 0.0
2.1373857661004993e6 1.0289545259323076e6 0.0
0.0 0.0 0.0

-1.2968471116532406e6 9.783256513695754e6 0.0
9.783256513695754e6 -7.022818472939411e6 0.0
0.0 0.0 0.0

289291.9461094737 9.959710725116419e6 0.0
9.959710725116419e6 -4.519717355627433e6 0.0
0.0 0.0 0.0

-6.617602847031016e6 1.0414787739881193e7 0.0
1.0414787739881193e7 3.0452833832476935e6 0.0
0.0 0.0 0.0

-5.478869733509168e6 5.255447714435925e6 0.0
5.255447714435925e6 1.468225863974918e6 0.0
0.0 0.0 0.0

-727448.4402436259 4.227880518360942e6 0.0
4.227880518360942e6 -1.6960058566890385e6 0.0
0.0 0.0 0.0

-5.18429049169544e6 9.345656650053188e6 0.0
9.345656650053188e6 1.701803857929438e6 0.0
0.0 0.0 0.0

-7.236167719329679e6 1.0594139741863701e7 0.0
1.0594139741863701e7 4.349699504943489e6 0.0
0.0 0.0 0.0

-6.5307951202944545e6 1.0470074450690808e7 0.0
1.0470074450690808e7 3.1568423178806663e6 0.0
0.0 0.0 0.0

1.269156096676778e6 8.98938885296523e6 0.0
8.98938885296523e6 -1.0380494089892944e7 0.0
0.0 0.0 0.0

-1.5608773238292148e6 6.792976061757599e6 0.0
6.792976061757599e6 -90097.06956795673 0.0
0.0 0.0 0.0

-1.009435546003157e7 -4.007393143096252e6 0.0
-4.007393143096252e6 1.5846121220286217e7 0.0
0.0 0.0 0.0

-294639.9879269507 1.5199912573659062e7 0.0
1.5199912573659062e7 1.3944837909935389e7 0.0
0.0 0.0 0.0

-1.5661532751809275e7 -4.38878469142572e6 0.0
-4.38878469142572e6 6.399694482176262e6 0.0
0.0 0.0 0.0

7.0552096552885715e6 1.0992751416806648e7 0.0
1.0992751416806648e7 -9.062757781406103e6 0.0
0.0 0.0 0.0

315977.82997009065 8.85399512465533e6 0.0
8.85399512465533e6 -5.772306894413559e6 0.0
0.0 0.0 0.0

994721.9946963454 1.9789547012619253e6 0.0
1.9789547012619253e6 -3.671159286179284e6 0.0
0.0 0.0 0.0

9.76409438339662e6 1.1185040618433524e7 0.0
1.1185040618433524e7 -9.531445288254034e6 0.0
0.0 0.0 0.0

28883.357132503006 5.269647005011302e6 0.0
5.269647005011302e6 -1.051576245922388e6 0.0
0.0 0.0 0.0

1.9033514952725996e6 8.886623983634993e6 0.0
8.886623983634993e6 2.984972825996924e6 0.0
0.0 0.0 0.0

-5.581937772643823e6 9.500005796029547e6 0.0
9.500005796029547e6 2.3455752323465664e6 0.0
0.0 0.0 0.0

-5.28774622114396e6 1.0089404437007505e7 0.0
1.0089404437007505e7 3.1950659537183945e6 0.0
0.0 0.0 0.0

-1.3918758898165934e6 6.127626053765255e6 0.0
6.127626053765255e6 -2.255671410064145e6 0.0
0.0 0.0 0.0

-3.827795888883968e6 3.6772998730593272e6 0.0
3.6772998730593272e6 791651.5468997303 0.0
0.0 0.0 0.0

-716394.2580197786 8.444470774038795e6 0.0
8.444470774038795e6 -5.599338990696835e6 0.0
0.0 0.0 0.0

-1.3162856329555854e6 1.050386216470406e7 0.0
1.050386216470406e7 490281.9325971008 0.0
0.0 0.0 0.0

-930289.4333202468 7.695155383024552e6 0.0
7.695155383024552e6 1.5071218236726075e6 0.0
0.0 0.0 0.0

-1.3198543212028325e7 2.3147558109610146e6 0.0
2.3147558109610146e6 2.7998575763552196e7 0.0
0.0 0.0 0.0

-4.88175859883451e6 8.969233229871677e6 0.0
8.969233229871677e6 1.7783787571356418e6 0.0
0.0 0.0 0.0

1.6263991750714104e6 5.3412780203284e6 0.0
5.3412780203284e6 -5.697023638714461e6 0.0
0.0 0.0 0.0

-2.7790541188395787e6 9.89066799257843e6 0.0
9.89066799257843e6 2.1203882753912616e6 0.0
0.0 0.0 0.0

-2.513418613891788e6 7.913066181085848e6 0.0
7.913066181085848e6 2.154503859094544e6 0.0
0.0 0.0 0.0

869231.5522828065 1.279127157168112e7 0.0
1.279127157168112e7 -4.79845006986843e6 0.0
0.0 0.0 0.0

-4.518479015261693e6 1.0896326852203045e7 0.0
1.0896326852203045e7 -324151.6807883063 0.0
0.0 0.0 0.0

-9.345064083949246e6 1.0990644894626534e7 0.0
1.0990644894626534e7 5.8524478976334855e6 0.0
0.0 0.0 0.0

-1.2659848789713634e6 2.905849080970058e6 0.0
2.905849080970058e6 -2.103751230654424e6 0.0
0.0 0.0 0.0

-8.43303955721037e6 9.923600194580624e6 0.0
9.923600194580624e6 5.619261500412179e6 0.0
0.0 0.0 0.0

-5.733831565321743e6 9.877851238372007e6 0.0
9.877851238372007e6 3.353879667218689e6 0.0
0.0 0.0 0.0

-3.1537967187027936e6 5.877672830780159e6 0.0
5.877672830780159e6 2.143729177310248e6 0.0
0.0 0.0 0.0

4.161279574415575e6 1.2476306709369287e7 0.0
1.2476306709369287e7 -7.091817211091362e6 0.0
0.0 0.0 0.0

-1.9590204556257296e6 9.361023058152124e6 0.0
9.361023058152124e6 -2.324695262221098e6 0.0
0.0 0.0 0.0

-5.471755082021227e6 9.420948296448179e6 0.0
9.420948296448179e6 2.390491928929352e6 0.0
0.0 0.0 0.0

-1.0887002243556506e6 5.833475501421517e6 0.0
5.833475501421517e6 -2.5273243939983617e6 0.0
0.0 0.0 0.0

-1.3579751018137268e6 1.0298877306610169e7 0.0
1.0298877306610169e7 997886.402612404 0.0
0.0 0.0 0.0

-3.76661963480467e6 1.086775710397911e6 0.0
1.086775710397911e6 2.529885738581273e6 0.0
0.0 0.0 0.0

-5.688419537935231e6 4.609353038958614e6 0.0
4.609353038958614e6 4.825107080500333e6 0.0
0.0 0.0 0.0

-120029.40992153226 1.023932009094026e7 0.0
1.023932009094026e7 -4.283843334857582e6 0.0
0.0 0.0 0.0

-2.209295381187268e6 8.433424426384928e6 0.0
8.433424426384928e6 4.940066735384909e6 0.0
0.0 0.0 0.0

-918468.6673249695 9.97973138758745e6 0.0
9.97973138758745e6 -4.243250814671605e6 0.0
0.0 0.0 0.0

-3.1928636105798837e6 9.08875438307822e6 0.0
9.08875438307822e6 3.4254924607899007e6 0.0
0.0 0.0 0.0

-8.0655496075376775e6 2.0027628788935835e6 0.0
2.0027628788935835e6 5.832722870996448e6 0.0
0.0 0.0 0.0

-1.596637110804955e6 1.0462998394759271e7 0.0
1.0462998394759271e7 71114.73856730643 0.0
0.0 0.0 0.0

-1.5706615408625645e6 3.8986716286949427e6 0.0
3.8986716286949427e6 458295.2779249203 0.0
0.0 0.0 0.0

-1.3423616165131913e6 9.700508622907653e6 0.0
9.700508622907653e6 1.670129165667462e6 0.0
0.0 0.0 0.0

-4.828546081658872e6 1.619639866191695e7 0.0
1.619639866191695e7 -3.428477731119016e6 0.0
0.0 0.0 0.0

-1.6454491064724132e7 3.4985525480953683e6 0.0
3.4985525480953683e6 8.29937547443205e6 0.0
0.0 0.0 0.0

-8.963185771835392e6 1.6224010734821197e7 0.0
1.6224010734821197e7 3.9830412052716473e6 0.0
0.0 0.0 0.0

-4.743986736984229e6 9.370689354629334e6 0.0
9.370689354629334e6 601662.1526967597 0.0
0.0 0.0 0.0

-9.040043485010333e6 1.3890886415971648e7 0.0
1.3890886415971648e7 4.437221502994735e6 0.0
0.0 0.0 0.0

-1.119727455642954e6 3.794936197438689e6 0.0
3.794936197438689e6 -67543.10758892127 0.0
0.0 0.0 0.0

927790.0871246201 1.2799781736607008e7 0.0
1.2799781736607008e7 -4.816766782013299e6 0.0
0.0 0.0 0.0

-7.935937887215465e6 1.0768533160375299e7 0.0
1.0768533160375299e7 4.894170111877972e6 0.0
0.0 0.0 0.0

-2.1791619723747675e6 1.0348205657783005e7 0.0
1.0348205657783005e7 78198.53552644083 0.0
0.0 0.0 0.0

-269376.136034386 9.38183638743556e6 0.0
9.38183638743556e6 -5.161199798961842e6 0.0
0.0 0.0 0.0

-6.102873802778986e6 1.0277034091547603e7 0.0
1.0277034091547603e7 3.7952064624034422e6 0.0
0.0 0.0 0.0

-4.603486667834048e6 4.60073904206306e6 0.0
4.60073904206306e6 4.318322885568684e6 0.0
0.0 0.0 0.0

-9.202003770449506e6 1.4743330329988778e7 0.0
1.4743330329988778e7 2.7653164817317273e6 0.0
0.0 0.0 0.0

-9.083898115560545e6 9.201086695351299e6 0.0
9.201086695351299e6 5.926926615755722e6 0.0
0.0 0.0 0.0

576710.5303854244 1.2591213235666167e7 0.0
1.2591213235666167e7 -4.75226471679103e6 0.0
0.0 0.0 0.0

709732.0080216969 7.380683371951214e6 0.0
7.380683371951214e6 -4.335243489025764e6 0.0
0.0 0.0 0.0

-216655.58142064 8.923266084123755e6 0.0
8.923266084123755e6 -6.518163460416616e6 0.0
0.0 0.0 0.0

5.404331542356927e6 2.445709470896119e6 0.0
2.445709470896119e6 -8.290347639018503e6 0.0
0.0 0.0 0.0

-2.0551917195168133e6 1.052653342447695e7 0.0
1.052653342447695e7 3.0602419538078494e6 0.0
0.0 0.0 0.0

1.0392611685863615e6 1.1005737866752103e7 0.0
1.1005737866752103e7 -4.005169107014425e6 0.0
0.0 0.0 0.0

-5.237713165917013e6 1.4654842537162695e7 0.0
1.4654842537162695e7 -1.1900986421190375e6 0.0
0.0 0.0 0.0

-5.683978057422599e6 5.24861029267807e6 0.0
5.24861029267807e6 6.107174605966346e6 0.0
0.0 0.0 0.0

-1.4430499320299278e6 6.365229664586073e6 0.0
6.365229664586073e6 -1.9056486273385866e6 0.0
0.0 0.0 0.0

-980704.4807316512 3.81324515853e6 0.0
3.81324515853e6 3.9672017537214723e6 0.0
0.0 0.0 0.0

1.603758104053943e6 8.272760825160892e6 0.0
8.272760825160892e6 -8.455112575487513e6 0.0
0.0 0.0 0.0

-107949.96461448734 9.167083239072148e6 0.0
9.167083239072148e6 -853657.6781847668 0.0
0.0 0.0 0.0

-8.349013682192863e6 8.65021513411055e6 0.0
8.65021513411055e6 3.876398930734545e6 0.0
0.0 0.0 0.0

143758.83956996072 9.301336152342647e6 0.0
9.301336152342647e6 -4.876230964737847e6 0.0
0.0 0.0 0.0

5.047310656123655e6 8.84593809605094e6 0.0
8.84593809605094e6 -3.8133363620370277e6 0.0
0.0 0.0 0.0

-2.386021761102595e6 1.876765953842567e6 0.0
1.876765953842567e6 2.484559356160624e6 0.0
0.0 0.0 0.0

-1.1785215689246345e7 7.3613904014875125e6 0.0
7.3613904014875125e6 2.9888510223350897e6 0.0
0.0 0.0 0.0

368928.3347352464 1.733631107293491e7 0.0
1.733631107293491e7 -1.3239080409702994e7 0.0
0.0 0.0 0.0

-5.490755766297263e6 1.010037053814674e7 0.0
1.010037053814674e7 3.1667510847952156e6 0.0
0.0 0.0 0.0

-879266.1299056627 6.062917880410765e6 0.0
6.062917880410765e6 -2.190437076646015e6 0.0
0.0 0.0 0.0

-7.775931791774698e6 5.546801520747012e6 0.0
5.546801520747012e6 8.746242661492912e6 0.0
0.0 0.0 0.0

-926576.944384356 1.7827282559391123e6 0.0
1.7827282559391123e6 544512.7470200055 0.0
0.0 0.0 0.0

-2.0748123387089255e6 9.415885679194879e6 0.0
9.415885679194879e6 -2.814841621641434e6 0.0
0.0 0.0 0.0

-6.258651021491578e6 1.0369552095178325e7 0.0
1.0369552095178325e7 3.249077266497763e6 0.0
0.0 0.0 0.0

-2.571035008877664e6 8.520172534175323e6 0.0
8.520172534175323e6 -1.505072074334124e6 0.0
0.0 0.0 0.0

-1.0220468084017005e7 3.2140448676966787e6 0.0
3.2140448676966787e6 1.6845357876869358e7 0.0
0.0 0.0 0.0

-9846.368176111253 8.725138266084071e6 0.0
8.725138266084071e6 -5.643225520235975e6 0.0
0.0 0.0 0.0

-6.255962925602812e6 9.73435373315357e6 0.0
9.73435373315357e6 3.6385720425941134e6 0.0
0.0 0.0 0.0

-164467.31441742182 9.21859413636532e6 0.0
9.21859413636532e6 -5.089228104207999e6 0.0
0.0 0.0 0.0

3.3969402480946295e6 8.020514420712099e6 0.0
8.020514420712099e6 639087.7083408318 0.0
0.0 0.0 0.0

-9.594640254433975e6 1.893489734693577e6 0.0
1.893489734693577e6 1.4518198325584255e7 0.0
0.0 0.0 0.0

1.0768335131801558e6 8.820776522675157e6 0.0
8.820776522675157e6 -3.5375259373904224e6 0.0
0.0 0.0 0.0

-2.1580145388322165e6 9.924899829518452e6 0.0
9.924899829518452e6 2.0697975788341134e6 0.0
0.0 0.0 0.0

-5.133403282177765e6 1.2388716254310865e7 0.0
1.2388716254310865e7 1.2214194738613798e6 0.0
0.0 0.0 0.0

756565.2039951992 7.559093309832248e6 0.0
7.559093309832248e6 -5.568268723621329e6 0.0
0.0 0.0 0.0

-282136.4149536481 5.475394807565757e6 0.0
5.475394807565757e6 -3.6481885628863946e6 0.0
0.0 0.0 0.0

1.4357132892873352e6 8.20488461410135e6 0.0
8.20488461410135e6 -7.944020315631315e6 0.0
0.0 0.0 0.0

-3.2206650957454355e6 1.06996374960881e7 0.0
1.06996374960881e7 205082.74318122002 0.0
0.0 0.0 0.0

-1.0324917745346908e7 1.4635367915073028e6 0.0
1.4635367915073028e6 1.2465801161180813e7 0.0
0.0 0.0 0.0

-3.702160976560333e6 1.0666204775753966e7 0.0
1.0666204775753966e7 769474.1163130719 0.0
0.0 0.0 0.0

-2.220086716911065e6 8.2124769755606735e6 0.0
8.2124769755606735e6 -1.6995462173447062e6 0.0
0.0 0.0 0.0

1.5965556156205717e6 7.530869233365557e6 0.0
7.530869233365557e6 -8.014914683641585e6 0.0
0.0 0.0 0.0

-6.767286207762698e6 4.518838552095513e6 0.0
4.518838552095513e6 1.0116376687672395e7 0.0
0.0 0.0 0.0

-157009.225346353 9.477453363914374e6 0.0
9.477453363914374e6 -159711.9204445468 0.0
0.0 0.0 0.0

735294.697019753 8.290700993277011e6 0.0
8.290700993277011e6 -6.995178625293904e6 0.0
0.0 0.0 0.0

1.671750707502305e6 5.763968274140213e6 0.0
5.763968274140213e6 -6.412463166232657e6 0.0
0.0 0.0 0.0

-3.936748641345414e6 8.346058589561008e6 0.0
8.346058589561008e6 3.200958936696577e6 0.0
0.0 0.0 0.0

-6.018191023602301e6 1.021521257591209e7 0.0
1.021521257591209e7 3.6851776950572967e6 0.0
0.0 0.0 0.0

-980295.1178698037 7.177945345112242e6 0.0
7.177945345112242e6 -2.9162757650278e6 0.0
0.0 0.0 0.0

-4.747614829582965e6 669547.098709685 0.0
669547.098709685 6.402495055196831e6 0.0
0.0 0.0 0.0

-565363.6356410674 1.6138174051288948e6 0.0
1.6138174051288948e6 -558593.1517884226 0.0
0.0 0.0 0.0

-4.1111182668686854e6 7.099734354613838e6 0.0
7.099734354613838e6 2.7863692449574126e6 0.0
0.0 0.0 0.0

3.6132304904398452e6 9.223967149643734e6 0.0
9.223967149643734e6 427485.1826823107 0.0
0.0 0.0 0.0

1.7396202101196575e6 8.288825315511687e6 0.0
8.288825315511687e6 1.7097602188505563e6 0.0
0.0 0.0 0.0

-6.791108878517124e6 1.0604020026039746e7 0.0
1.0604020026039746e7 2.396982067029894e6 0.0
0.0 0.0 0.0

-579027.1366593825 7.781057421741305e6 0.0
7.781057421741305e6 -5.027955290148924e6 0.0
0.0 0.0 0.0

-4.520043413258285e6 1.1048591437035378e7 0.0
1.1048591437035378e7 1.3478226580409715e6 0.0
0.0 0.0 0.0

-6.812215131136477e6 7.256088066495141e6 0.0
7.256088066495141e6 3.581281428257054e6 0.0
0.0 0.0 0.0

1.272942206907326e6 8.228352098536014e6 0.0
8.228352098536014e6 -7.668239054158718e6 0.0
0.0 0.0 0.0

-435449.28043746756 576015.2121639224 0.0
576015.2121639224 -2.784313555649603e6 0.0
0.0 0.0 0.0

-635927.2578079039 2.4997941582656153e6 0.0
2.4997941582656153e6 -1.4370525715589372e6 0.0
0.0 0.0 0.0

-183187.07096841084 9.587302237732507e6 0.0
9.587302237732507e6 -1.090312804836959e6 0.0
0.0 0.0 0.0

-171115.8463001356 8.730429805886615e6 0.0
8.730429805886615e6 4.0131217085023355e6 0.0
0.0 0.0 0.0

-1.4503310399262556e6 6.97611314349475e6 0.0
6.97611314349475e6 -595738.3857912155 0.0
0.0 0.0 0.0

-3.9172176787952445e6 7.529495183700243e6 0.0
7.529495183700243e6 2.4001624047664767e6 0.0
0.0 0.0 0.0

-9.652337023152929e6 -274807.25714219455 0.0
-274807.25714219455 5.115298069749277e6 0.0
0.0 0.0 0.0

-227360.0200209138 9.713737698050268e6 0.0
9.713737698050268e6 -291613.8556849669 0.0
0.0 0.0 0.0

613632.7554317887 7.581539074383517e6 0.0
7.581539074383517e6 -4.633876679789778e6 0.0
0.0 0.0 0.0

-7.921455427717259e6 8.950239851018343e6 0.0
8.950239851018343e6 5.398865400967815e6 0.0
0.0 0.0 0.0

-6.196383428058362e6 94486.03144889043 0.0
94486.03144889043 7.937892093205611e6 0.0
0.0 0.0 0.0

-987551.7494340247 9.94235201055555e6 0.0
9.94235201055555e6 -392709.6513742222 0.0
0.0 0.0 0.0

-4.323766232787014e6 9.212938895768896e6 0.0
9.212938895768896e6 6.809056048019992e6 0.0
0.0 0.0 0.0

-6.002295495242106e6 9.567499449056694e6 0.0
9.567499449056694e6 3.457270566521476e6 0.0
0.0 0.0 0.0

135991.6845427493 8.769161826125601e6 0.0
8.769161826125601e6 -6.184483773900153e6 0.0
0.0 0.0 0.0

2.015985459530089e6 9.160884701758912e6 0.0
9.160884701758912e6 2.2372480862947106e6 0.0
0.0 0.0 0.0

-56806.871616025455 9.07191937081072e6 0.0
9.07191937081072e6 -5.536871866659576e6 0.0
0.0 0.0 0.0

-447015.34647735185 9.972520051318968e6 0.0
9.972520051318968e6 71899.91138891058 0.0
0.0 0.0 0.0

-3.796151849908324e6 8.534448999655781e6 0.0
8.534448999655781e6 3.8614556600238737e6 0.0
0.0 0.0 0.0

-2.6848575594987734e6 9.992611462489415e6 0.0
9.992611462489415e6 2.3122245314497063e6 0.0
0.0 0.0 0.0

-1.7818916346662217e6 1.0442756364414206e7 0.0
1.0442756364414206e7 932714.8703232128 0.0
0.0 0.0 0.0

1.2620036141323652e6 6.269979846548369e6 0.0
6.269979846548369e6 -6.392603811215279e6 0.0
0.0 0.0 0.0

-7.533533679925687e6 1.1270839551937766e7 0.0
1.1270839551937766e7 3.398496187961381e6 0.0
0.0 0.0 0.0

-1.7510113850838484e6 7.264836127649187e6 0.0
7.264836127649187e6 1.0362765157175026e6 0.0
0.0 0.0 0.0

5.781172744172688e6 7.595206481020696e6 0.0
7.595206481020696e6 -972163.1424138551 0.0
0.0 0.0 0.0

-6.372223495375069e6 9.778580028050346e6 0.0
9.778580028050346e6 3.2621338053522543e6 0.0
0.0 0.0 0.0

2.1315087074520867e6 6.362944445548851e6 0.0
6.362944445548851e6 -7.319163801570082e6 0.0
0.0 0.0 0.0

-3.0039966120063458e6 7.587456447304437e6 0.0
7.587456447304437e6 856534.6665712458 0.0
0.0 0.0 0.0

3.7885641981972386e6 7.730747839123673e6 0.0
7.730747839123673e6 -1.5398190102292136e6 0.0
0.0 0.0 0.0

8.300699292034862e6 7.909276005499225e6 0.0
7.909276005499225e6 -4.267989251616251e6 0.0
0.0 0.0 0.0

-8.002766669169419e6 1.060716536421793e7 0.0
1.060716536421793e7 4.901738588601796e6 0.0
0.0 0.0 0.0

-564500.2747757762 1.0135719657040099e7 0.0
1.0135719657040099e7 -4.009736509699471e6 0.0
0.0 0.0 0.0

-1.0448750534069595e6 5.427687359361959e6 0.0
5.427687359361959e6 -294096.5239658669 0.0
0.0 0.0 0.0

-5.806402703327276e6 -705199.8013600353 0.0
-705199.8013600353 6.419171137544671e6 0.0
0.0 0.0 0.0

-169190.9431872696 9.564727791445399e6 0.0
9.564727791445399e6 -814661.718767386 0.0
0.0 0.0 0.0

-2.04306847536413e6 7.258331511766076e6 0.0
7.258331511766076e6 7.018746893634511e6 0.0
0.0 0.0 0.0

-2.1009771372832446e6 1.2386269472342725e6 0.0
1.2386269472342725e6 2.1744708430654346e6 0.0
0.0 0.0 0.0

-1.547268216217045e6 5.041332711871491e6 0.0
5.041332711871491e6 -1.4099496772991656e6 0.0
0.0 0.0 0.0

-2.364268598286731e6 8.74460860970193e6 0.0
8.74460860970193e6 823067.8709043832 0.0
0.0 0.0 0.0

-43619.84677022998 8.716424191707363e6 0.0
8.716424191707363e6 -6.035750581049446e6 0.0
0.0 0.0 0.0

-6.96119169016464e6 1.071174242286249e7 0.0
1.071174242286249e7 3.6103954407619876e6 0.0
0.0 0.0 0.0

-6.12270204717342e6 1.3158464465127943e7 0.0
1.3158464465127943e7 563597.5014184287 0.0
0.0 0.0 0.0

-1.112764060757769e7 1.5757263103046484e7 0.0
1.5757263103046484e7 3.7566190856641936e6 0.0
0.0 0.0 0.0

-1.4142680513798565e7 9.419406245420843e6 0.0
9.419406245420843e6 9.071650506441567e6 0.0
0.0 0.0 0.0

-179856.8071921249 1.0619605345835797e7 0.0
1.0619605345835797e7 2.4439982232067524e6 0.0
0.0 0.0 0.0

505745.6217427682 9.902615917038647e6 0.0
9.902615917038647e6 -9.367846552919492e6 0.0
0.0 0.0 0.0

-862155.0042169434 2.636263053789459e6 0.0
2.636263053789459e6 -346202.31274274545 0.0
0.0 0.0 0.0

-1.2894447027912694e6 8.578901934196314e6 0.0
8.578901934196314e6 -5.7044055469554e6 0.0
0.0 0.0 0.0

-894313.2321098201 7.390755200138494e6 0.0
7.390755200138494e6 -4.982314607178491e6 0.0
0.0 0.0 0.0

-1.0882636421417787e6 1.0606443843530916e7 0.0
1.0606443843530916e7 3.0907898523126803e6 0.0
0.0 0.0 0.0

-853189.8930928886 9.046238816896498e6 0.0
9.046238816896498e6 -6.431724021067364e6 0.0
0.0 0.0 0.0

-806867.7653547341 8.44624187356997e6 0.0
8.44624187356997e6 -5.713336555500937e6 0.0
0.0 0.0 0.0

34259.3242094391 9.696524238236364e6 0.0
9.696524238236364e6 4.457033541519674e6 0.0
0.0 0.0 0.0

-2.496348971684068e6 7.7261193758358555e6 0.0
7.7261193758358555e6 1.7297153360803453e6 0.0
0.0 0.0 0.0

1.0927525073497943e6 7.489201134727676e6 0.0
7.489201134727676e6 -6.155909968439873e6 0.0
0.0 0.0 0.0

-198902.6940708009 9.60856563978737e6 0.0
9.60856563978737e6 -1.0281343551819612e6 0.0
0.0 0.0 0.0

-5.514298172854134e6 8.83710316298919e6 0.0
8.83710316298919e6 3.7071101802715915e6 0.0
0.0 0.0 0.0

-511590.81154180976 9.557756952009333e6 0.0
9.557756952009333e6 732837.044149315 0.0
0.0 0.0 0.0

5.977211128359813e6 2.7980192777850004e6 0.0
2.7980192777850004e6 -7.510430535914181e6 0.0
0.0 0.0 0.0

-5.3646538555103205e6 9.371352551634325e6 0.0
9.371352551634325e6 2.423893338745097e6 0.0
0.0 0.0 0.0

-6.81761009664584e6 1.0472765140231874e7 0.0
1.0472765140231874e7 4.1144637016860656e6 0.0
0.0 0.0 0.0

-6.931850748156366e6 4.349319758291606e6 0.0
4.349319758291606e6 9.179106649630938e6 0.0
0.0 0.0 0.0

-1.1239587208839993e6 7.264519593474086e6 0.0
7.264519593474086e6 256317.43328266975 0.0
0.0 0.0 0.0

-3.0908142250363315e6 8.967031450913187e6 0.0
8.967031450913187e6 4.691386061159752e6 0.0
0.0 0.0 0.0

-9.449855130541986e6 1.0702195344055355e7 0.0
1.0702195344055355e7 5.7431063499238435e6 0.0
0.0 0.0 0.0

-3.80057528921667e6 7.62852611265195e6 0.0
7.62852611265195e6 3.312441971934604e6 0.0
0.0 0.0 0.0

-1.1604910494432782e6 2.4189267310757176e6 0.0
2.4189267310757176e6 94489.46645250742 0.0
0.0 0.0 0.0

-6.802737749198162e6 1.0489884338146927e7 0.0
1.0489884338146927e7 4.1849396754512964e6 0.0
0.0 0.0 0.0

-4.944700076038085e6 9.294958080285482e6 0.0
9.294958080285482e6 1.597594232822206e6 0.0
0.0 0.0 0.0

-3.477005396129108e6 7.629141725407801e6 0.0
7.629141725407801e6 785743.5315302999 0.0
0.0 0.0 0.0

-7.117966305149648e6 1.099439283524811e7 0.0
1.099439283524811e7 3.5059590931357276e6 0.0
0.0 0.0 0.0

-6.787425670230659e6 1.067989992683656e7 0.0
1.067989992683656e7 3.092820426288888e6 0.0
0.0 0.0 0.0

-702316.4571506269 9.569560530286586e6 0.0
9.569560530286586e6 -666295.1982741631 0.0
0.0 0.0 0.0

298319.29751537915 8.141876247694731e6 0.0
8.141876247694731e6 994398.0923165337 0.0
0.0 0.0 0.0

704961.5034302599 7.3462020552688725e6 0.0
7.3462020552688725e6 -5.921590277381482e6 0.0
0.0 0.0 0.0

-1.2388855997761907e6 9.283984411645845e6 0.0
9.283984411645845e6 -6.076004860397952e6 0.0
0.0 0.0 0.0

-1.7425661106924391e6 1.0623229336363137e7 0.0
1.0623229336363137e7 292702.48985017976 0.0
0.0 0.0 0.0

-1.6188895986649761e7 1.138928929644184e7 0.0
1.138928929644184e7 3.145508341723903e6 0.0
0.0 0.0 0.0

-1.1839724449647032e6 8.435326380257718e6 0.0
8.435326380257718e6 -5.759578122323027e6 0.0
0.0 0.0 0.0

-1.467883934893264e7 1.1317276491630409e7 0.0
1.1317276491630409e7 2.045681202539377e6 0.0
0.0 0.0 0.0

-3.238472574610526e6 1.002275811817136e7 0.0
1.002275811817136e7 1.868548054634505e6 0.0
0.0 0.0 0.0

-5.705615871290624e6 -2.915821097468565e6 0.0
-2.915821097468565e6 7.193620409642039e6 0.0
0.0 0.0 0.0

-6.175052562235338e6 1.21897447829545e7 0.0
1.21897447829545e7 1.3052804424351575e6 0.0
0.0 0.0 0.0

-7.76713178801997e6 1.1082405103324782e7 0.0
1.1082405103324782e7 2.0028360389905712e6 0.0
0.0 0.0 0.0

-616629.8745647878 1.0344539471538743e7 0.0
1.0344539471538743e7 -3.903457893539085e6 0.0
0.0 0.0 0.0

-8.62480548746331e6 9.341208653595386e6 0.0
9.341208653595386e6 4.772390187913948e6 0.0
0.0 0.0 0.0

-1.2525369180508323e6 4.483727748053497e6 0.0
4.483727748053497e6 122234.3431334428 0.0
0.0 0.0 0.0

1.3083797427288652e6 7.648015427455393e6 0.0
7.648015427455393e6 -7.00160540828877e6 0.0
0.0 0.0 0.0

-9.331617370660858e6 8.544496780328732e6 0.0
8.544496780328732e6 4.860151088730968e6 0.0
0.0 0.0 0.0

-205215.91310941742 9.912956350175075e6 0.0
9.912956350175075e6 -741846.755791281 0.0
0.0 0.0 0.0

-1.1760233868486516e6 5.1752265571071e6 0.0
5.1752265571071e6 -588319.180470652 0.0
0.0 0.0 0.0

-2.505674285893419e6 8.273951255136173e6 0.0
8.273951255136173e6 -1.7609626124120704e6 0.0
0.0 0.0 0.0

-4.551337069601341e6 1.183158345394035e7 0.0
1.183158345394035e7 697439.8252067184 0.0
0.0 0.0 0.0

-7.418977493670983e6 -1.229337362636585e6 0.0
-1.229337362636585e6 6.512362744635777e6 0.0
0.0 0.0 0.0

-6.185108045192113e6 1.0200288471751267e7 0.0
1.0200288471751267e7 3.561128576507372e6 0.0
0.0 0.0 0.0

-219149.125191133 9.914829696135953e6 0.0
9.914829696135953e6 -4.531720773295355e6 0.0
0.0 0.0 0.0

366344.8363850999 7.186202153536853e6 0.0
7.186202153536853e6 -5.221232144207322e6 0.0
0.0 0.0 0.0

-44030.11104247789 1.0989915638481146e6 0.0
1.0989915638481146e6 -2.861024282205622e6 0.0
0.0 0.0 0.0

-708156.3016501863 9.273340990071395e6 0.0
9.273340990071395e6 -3.9619610841704705e6 0.0
0.0 0.0 0.0

-6.56562592112904e6 9.796036340372834e6 0.0
9.796036340372834e6 593280.4182570004 0.0
0.0 0.0 0.0

-8.767739634823447e6 1.5512928989576548e7 0.0
1.5512928989576548e7 4.480806524243988e6 0.0
0.0 0.0 0.0

-3.821417896401453e6 1.0255602978479525e7 0.0
1.0255602978479525e7 5.138929280374905e6 0.0
0.0 0.0 0.0

-1.2613838651261663e6 7.590593987399439e6 0.0
7.590593987399439e6 852469.8080158422 0.0
0.0 0.0 0.0

-367669.3973489627 1.0107137491426215e7 0.0
1.0107137491426215e7 1.355173446221095e6 0.0
0.0 0.0 0.0

-253505.7305592744 8.752230479437644e6 0.0
8.752230479437644e6 -845019.0780011029 0.0
0.0 0.0 0.0

-8.079913899612999e6 4.201827424131098e6 0.0
4.201827424131098e6 9.81095892010747e6 0.0
0.0 0.0 0.0

-174298.74208309874 8.251021344819837e6 0.0
8.251021344819837e6 -5.2641713914941335e6 0.0
0.0 0.0 0.0

-1.5184973359700827e7 6.907728881384642e6 0.0
6.907728881384642e6 7.115590963723913e6 0.0
0.0 0.0 0.0

-4.069645179989541e6 1.1774730675439143e6 0.0
1.1774730675439143e6 5.56657467709452e6 0.0
0.0 0.0 0.0

-6.507128497512767e6 -2.3279582736841133e6 0.0
-2.3279582736841133e6 9.961852225296836e6 0.0
0.0 0.0 0.0

-1.1318356310342816e6 7.377040595360458e6 0.0
7.377040595360458e6 -3.330142187114062e6 0.0
0.0 0.0 0.0

-998214.6932649778 1.3661521214093268e6 0.0
1.3661521214093268e6 968770.9489148096 0.0
0.0 0.0 0.0

1.6455925154317045e6 7.807539508789422e6 0.0
7.807539508789422e6 -8.066359204253337e6 0.0
0.0 0.0 0.0

-1.0160114098120064e7 3.2578447634181045e6 0.0
3.2578447634181045e6 1.2214528341858024e7 0.0
0.0 0.0 0.0

795142.7958853464 8.165085875810133e6 0.0
8.165085875810133e6 -6.9632650262115635e6 0.0
0.0 0.0 0.0

-905364.4432993175 2.5281692055434454e6 0.0
2.5281692055434454e6 233466.9488570529 0.0
0.0 0.0 0.0

-5.815751178643469e6 9.848431657793012e6 0.0
9.848431657793012e6 3.242169873180074e6 0.0
0.0 0.0 0.0

-4.502617025197276e6 1.2272329255679416e7 0.0
1.2272329255679416e7 592896.0326178228 0.0
0.0 0.0 0.0

-7.514526464100229e6 1.0647152684797077e7 0.0
1.0647152684797077e7 4.637117503003056e6 0.0
0.0 0.0 0.0

-1.1227307728338111e7 1.4620506429852158e7 0.0
1.4620506429852158e7 5.095622374837945e6 0.0
0.0 0.0 0.0

-9.21604159494593e6 1.2595372513019556e7 0.0
1.2595372513019556e7 4.0323202403896e6 0.0
0.0 0.0 0.0

-4.810616884906644e6 -122034.64684605857 0.0
-122034.64684605857 5.989539383022062e6 0.0
0.0 0.0 0.0

1.9283020725289402e6 6.517398083667939e6 0.0
6.517398083667939e6 -7.70597431863158e6 0.0
0.0 0.0 0.0

49519.725284165936 1.0530887121894889e7 0.0
1.0530887121894889e7 -4.117720211479127e6 0.0
0.0 0.0 0.0

-3.3838818353145807e6 9.860295992669834e6 0.0
9.860295992669834e6 -755187.624142789 0.0
0.0 0.0 0.0

-178277.63229593798 7.438166528455257e6 0.0
7.438166528455257e6 -4.088203418247935e6 0.0
0.0 0.0 0.0

-1.1637706865160342e6 7.885237462790746e6 0.0
7.885237462790746e6 -5.338842562874166e6 0.0
0.0 0.0 0.0

-304337.2324842372 9.268876469853269e6 0.0
9.268876469853269e6 -1.0144574566206385e6 0.0
0.0 0.0 0.0

-4.609726084834795e6 9.327488932477884e6 0.0
9.327488932477884e6 2.679386046317355e6 0.0
0.0 0.0 0.0

-6.339912315908047e6 1.0001720893069532e7 0.0
1.0001720893069532e7 3.8839772985498086e6 0.0
0.0 0.0 0.0

-643398.2771275549 7.586836838833407e6 0.0
7.586836838833407e6 -4.713340237060054e6 0.0
0.0 0.0 0.0

-1.037691996917042e6 5.180485325912866e6 0.0
5.180485325912866e6 -1.348151159763152e6 0.0
0.0 0.0 0.0

1.4955170849646856e6 5.725499941408228e6 0.0
5.725499941408228e6 -6.203105421794523e6 0.0
0.0 0.0 0.0

440821.2632168764 1.0301980762401009e7 0.0
1.0301980762401009e7 -3.793292874104531e6 0.0
0.0 0.0 0.0

547571.8837145569 7.4334057405088395e6 0.0
7.4334057405088395e6 -5.623902427767981e6 0.0
0.0 0.0 0.0

-1.345415696362048e6 3.655526633383981e6 0.0
3.655526633383981e6 -1.607483484701465e6 0.0
0.0 0.0 0.0

-999991.6736161008 4.771712034692961e6 0.0
4.771712034692961e6 -2.1450927352393023e6 0.0
0.0 0.0 0.0

-364466.10262708575 914582.562764084 0.0
914582.562764084 -2.0073998405118824e6 0.0
0.0 0.0 0.0

-4.831932398596004e6 9.183550901553223e6 0.0
9.183550901553223e6 2.529024174995082e6 0.0
0.0 0.0 0.0

-249447.35470135277 9.50362617699773e6 0.0
9.50362617699773e6 -4.777052494592032e6 0.0
0.0 0.0 0.0

1.677037219877658e6 7.865544540103521e6 0.0
7.865544540103521e6 -8.678809685535565e6 0.0
0.0 0.0 0.0

-3.153426147113872e6 1.063747577491468e7 0.0
1.063747577491468e7 500661.2933923693 0.0
0.0 0.0 0.0

-1.2441807138809323e7 1.0786426492604395e7 0.0
1.0786426492604395e7 2.869862932135854e6 0.0
0.0 0.0 0.0

-1.0401262583775206e7 7.897865267180653e6 0.0
7.897865267180653e6 4.398127126458421e6 0.0
0.0 0.0 0.0

-6.029718264055656e6 1.0908052204662979e7 0.0
1.0908052204662979e7 2.6505908533891463e6 0.0
0.0 0.0 0.0

230618.49645623798 8.828340898555191e6 0.0
8.828340898555191e6 -6.584409587106091e6 0.0
0.0 0.0 0.0

-1.7067495378573008e6 8.273486599427525e6 0.0
8.273486599427525e6 -5.689165149097652e6 0.0
0.0 0.0 0.0

-9.895360421176448e6 1.1030645604665395e7 0.0
1.1030645604665395e7 2.4261004945121403e6 0.0
0.0 0.0 0.0

-1.8012392747278474e6 8.922421394469416e6 0.0
8.922421394469416e6 -6.004131056914409e6 0.0
0.0 0.0 0.0

-4.616368073495589e6 7.166211408591511e6 0.0
7.166211408591511e6 4.303470400047835e6 0.0
0.0 0.0 0.0

-763681.1990651834 2.7820955872780615e6 0.0
2.7820955872780615e6 -739717.1895550076 0.0
0.0 0.0 0.0

-4.877453883661683e6 9.364587112928307e6 0.0
9.364587112928307e6 1.093293244469442e6 0.0
0.0 0.0 0.0

-4.1063192334633316e6 8.356754875172448e6 0.0
8.356754875172448e6 2.6347784469853747e6 0.0
0.0 0.0 0.0

-1.043614602612706e6 2.8623999925102443e6 0.0
2.8623999925102443e6 69309.85485392966 0.0
0.0 0.0 0.0

229181.27498852788 8.608667240180435e6 0.0
8.608667240180435e6 -5.470516391073782e6 0.0
0.0 0.0 0.0

-5.180859617153655e6 9.17344646111151e6 0.0
9.17344646111151e6 2.0739736737341096e6 0.0
0.0 0.0 0.0

-330065.1551006554 9.636360070357444e6 0.0
9.636360070357444e6 -1.1597103092464304e6 0.0
0.0 0.0 0.0

-5.410312311690579e6 9.99092858726776e6 0.0
9.99092858726776e6 3.221336392837063e6 0.0
0.0 0.0 0.0

-1.061565220515901e7 9.979700186031755e6 0.0
9.979700186031755e6 4.365175603768261e6 0.0
0.0 0.0 0.0

-1.7505487024529781e6 8.486150725701854e6 0.0
8.486150725701854e6 -5.8351626094164755e6 0.0
0.0 0.0 0.0

-4.992981618850293e6 8.87713180293523e6 0.0
8.87713180293523e6 5.893040492231699e6 0.0
0.0 0.0 0.0

-9.524009057296755e6 8.426475785509428e6 0.0
8.426475785509428e6 3.5040503163839276e6 0.0
0.0 0.0 0.0

-830074.109391127 5.656447504229436e6 0.0
5.656447504229436e6 -539930.7911010364 0.0
0.0 0.0 0.0

-1.2302616843826e7 2.1469402329355916e6 0.0
2.1469402329355916e6 1.5393113313636921e7 0.0
0.0 0.0 0.0

-1.759068751425653e6 9.99704437520784e6 0.0
9.99704437520784e6 -279232.4580492176 0.0
0.0 0.0 0.0

-8.813670163157372e6 1.3382582114382954e7 0.0
1.3382582114382954e7 3.173630395043665e6 0.0
0.0 0.0 0.0

425923.8261020749 1.0023494970541745e7 0.0
1.0023494970541745e7 1.4197462122996324e6 0.0
0.0 0.0 0.0

1.0460056382818936e6 1.003016200282183e7 0.0
1.003016200282183e7 3.588079669384215e6 0.0
0.0 0.0 0.0

-7.991129771550611e6 1.0441751541320685e7 0.0
1.0441751541320685e7 3.363970241365418e6 0.0
0.0 0.0 0.0

-6.694444576807088e6 1.3409851954923343e7 0.0
1.3409851954923343e7 1.4202266705755638e6 0.0
0.0 0.0 0.0

7711.888177081943 1.1015486411090195e7 0.0
1.1015486411090195e7 2.6469402658997644e6 0.0
0.0 0.0 0.0

2.1942364932650034e6 7.137181817610756e6 0.0
7.137181817610756e6 -8.365183783606832e6 0.0
0.0 0.0 0.0

-5.801398624058225e6 1.0106968915456258e7 0.0
1.0106968915456258e7 3.19535621398145e6 0.0
0.0 0.0 0.0

-189608.71818733745 9.363357519247176e6 0.0
9.363357519247176e6 -1.2054773517794746e6 0.0
0.0 0.0 0.0

-1.8562344655179556e6 9.197786265758986e6 0.0
9.197786265758986e6 -6.187448494141774e6 0.0
0.0 0.0 0.0

-2.141341144609612e6 1.078152673912261e7 0.0
1.078152673912261e7 -23676.589851777768 0.0
0.0 0.0 0.0

2.3213244379507937e6 6.145659459209164e6 0.0
6.145659459209164e6 -7.825160949419893e6 0.0
0.0 0.0 0.0

-3.2273287345221587e6 9.04865179104704e6 0.0
9.04865179104704e6 -886539.2271765056 0.0
0.0 0.0 0.0

-1.3922961882611131e6 1.1789121916091802e7 0.0
1.1789121916091802e7 -2.6679848038019966e6 0.0
0.0 0.0 0.0

5.021789108035149e6 1.0403203017249921e7 0.0
1.0403203017249921e7 -7.821971958144108e6 0.0
0.0 0.0 0.0

-3.90292904755361e6 5.632356363985102e6 0.0
5.632356363985102e6 3.6440778133440753e6 0.0
0.0 0.0 0.0

-2.1971277255735574e6 4.61047955360979e6 0.0
4.61047955360979e6 2.603583382406627e6 0.0
0.0 0.0 0.0

-5.786972126769444e6 1.0766649280267581e7 0.0
1.0766649280267581e7 3.3727152071744483e6 0.0
0.0 0.0 0.0

-4.904969014232564e6 9.375524690712987e6 0.0
9.375524690712987e6 1.4244866235177699e6 0.0
0.0 0.0 0.0

-8.49468258614192e6 -1.5274642718496963e6 0.0
-1.5274642718496963e6 1.165740708604737e7 0.0
0.0 0.0 0.0

-956149.8874056092 9.312317096014779e6 0.0
9.312317096014779e6 -1.4073383319018243e6 0.0
0.0 0.0 0.0

-6.564244252641185e6 9.476178375805628e6 0.0
9.476178375805628e6 4.170122988465222e6 0.0
0.0 0.0 0.0

-182478.93151530554 5.30470467113866e6 0.0
5.30470467113866e6 -3.89973791564474e6 0.0
0.0 0.0 0.0

-3.7595536434102496e6 7.719968696642647e6 0.0
7.719968696642647e6 8.150704421608387e6 0.0
0.0 0.0 0.0

-1.4818496566147571e7 9.618362934693882e6 0.0
9.618362934693882e6 4.482650758546827e6 0.0
0.0 0.0 0.0

-107582.92354310912 9.097779833838774e6 0.0
9.097779833838774e6 -610258.9909244004 0.0
0.0 0.0 0.0

353142.00089609646 7.498107867381056e6 0.0
7.498107867381056e6 -4.764413852109684e6 0.0
0.0 0.0 0.0

-7.043486281516632e6 7.673812921508503e6 0.0
7.673812921508503e6 1.1109297468340538e7 0.0
0.0 0.0 0.0

-4.0293147860033466e6 1.1118845105119664e7 0.0
1.1118845105119664e7 35182.10829787073 0.0
0.0 0.0 0.0

-798886.9600435162 1.5274390226272453e7 0.0
1.5274390226272453e7 -3.1704155825604056e6 0.0
0.0 0.0 0.0

-1.5240577912173897e6 7.305293879348819e6 0.0
7.305293879348819e6 -5.080192719721713e6 0.0
0.0 0.0 0.0

-2.6362057575002424e6 7.417979255957553e6 0.0
7.417979255957553e6 434684.94986354175 0.0
0.0 0.0 0.0

232281.29903369583 4.748652972373585e6 0.0
4.748652972373585e6 -4.19735279814185e6 0.0
0.0 0.0 0.0

-285905.40341556445 8.792309816185927e6 0.0
8.792309816185927e6 -5.956392536469859e6 0.0
0.0 0.0 0.0

-3.1110993147850954e6 9.546173267030098e6 0.0
9.546173267030098e6 -1.0861952783230674e6 0.0
0.0 0.0 0.0

863081.4329084458 9.20328746068374e6 0.0
9.20328746068374e6 3.210497181126405e6 0.0
0.0 0.0 0.0

-5.549235506167135e6 8.84825712971002e6 0.0
8.84825712971002e6 2.9343806632176777e6 0.0
0.0 0.0 0.0

-1.035221810331711e6 1.1873279151828874e7 0.0
1.1873279151828874e7 -3.2341129219978442e6 0.0
0.0 0.0 0.0

-2.7180729189184024e6 -905656.0185635033 0.0
-905656.0185635033 7.314434583711291e6 0.0
0.0 0.0 0.0

-1.3508666541038656e6 2.5255453278675815e6 0.0
2.5255453278675815e6 1.9142170558405402e6 0.0
0.0 0.0 0.0

1.0219409424613605e6 1.1775735195268473e7 0.0
1.1775735195268473e7 -4.1510939765820224e6 0.0
0.0 0.0 0.0

-101506.51483204444 9.454137752541764e6 0.0
9.454137752541764e6 -660115.953789979 0.0
0.0 0.0 0.0

9.135755143057572e6 7.665306803529345e6 0.0
7.665306803529345e6 -3.3468287185364217e6 0.0
0.0 0.0 0.0

-781282.8473328406 2.575490869579212e6 0.0
2.575490869579212e6 307878.59376952413 0.0
0.0 0.0 0.0

-7.0687772562249815e6 1.072385120088416e7 0.0
1.072385120088416e7 1.059643275116161e6 0.0
0.0 0.0 0.0

-7.788348869132016e6 5.01837089683621e6 0.0
5.01837089683621e6 6.137938610896951e6 0.0
0.0 0.0 0.0

-1.3107500155454032e7 1.0267705226484558e7 0.0
1.0267705226484558e7 4.097901862075709e6 0.0
0.0 0.0 0.0

6.859795754542023e6 6.088775472822655e6 0.0
6.088775472822655e6 -2.294972963508426e6 0.0
0.0 0.0 0.0

-1.2132819725225043e7 639794.2185438242 0.0
639794.2185438242 1.808421168336281e7 0.0
0.0 0.0 0.0

-1.1200973724078755e6 4.894760127023569e6 0.0
4.894760127023569e6 -1.1833049867363859e6 0.0
0.0 0.0 0.0

-9.151462908702543e6 1.0547037195083655e7 0.0
1.0547037195083655e7 4.789105861363813e6 0.0
0.0 0.0 0.0

-5.612538074950681e6 1.0163259278077506e7 0.0
1.0163259278077506e7 3.36412510488996e6 0.0
0.0 0.0 0.0

-3.185602140540211e6 9.696304866110664e6 0.0
9.696304866110664e6 -1.4348720823941722e6 0.0
0.0 0.0 0.0

-1.2713032852347435e6 7.534245623217833e6 0.0
7.534245623217833e6 -3.004947976065637e6 0.0
0.0 0.0 0.0

-418197.0924665028 9.494029207043417e6 0.0
9.494029207043417e6 -1.2454060058580765e6 0.0
0.0 0.0 0.0

-1.121728403690237e6 8.329687879870718e6 0.0
8.329687879870718e6 -5.580666315086688e6 0.0
0.0 0.0 0.0

-238570.1303477632 9.90558708939029e6 0.0
9.90558708939029e6 -7.796752088908732e6 0.0
0.0 0.0 0.0

796307.4952805075 3.7081928623209014e6 0.0
3.7081928623209014e6 254859.14224337402 0.0
0.0 0.0 0.0

-6.350833271288925e6 1.5167657221047575e7 0.0
1.5167657221047575e7 -634155.9254092416 0.0
0.0 0.0 0.0

-1.6300383515123392e6 7.8537240005152095e6 0.0
7.8537240005152095e6 -5.4334613836239455e6 0.0
0.0 0.0 0.0

-562631.7159478278 9.600016276045382e6 0.0
9.600016276045382e6 4.200141792792557e6 0.0
0.0 0.0 0.0

531593.0298012334 8.942822358789977e6 0.0
8.942822358789977e6 -4.275506274915778e6 0.0
0.0 0.0 0.0

-4.541363654358273e6 9.294492246139184e6 0.0
9.294492246139184e6 1.2193808429026043e6 0.0
0.0 0.0 0.0

-627457.4268844882 8.362923977171416e6 0.0
8.362923977171416e6 -5.438838636676509e6 0.0
0.0 0.0 0.0

-9.762779401280716e6 916548.2683827283 0.0
916548.2683827283 4.687273197424509e6 0.0
0.0 0.0 0.0

-328343.0495216327 3.288199465175942e6 0.0
3.288199465175942e6 -1.0066900910130804e6 0.0
0.0 0.0 0.0

-3.878276072774043e6 6.858708994542907e6 0.0
6.858708994542907e6 4.03096662483324e6 0.0
0.0 0.0 0.0

-391263.7303049487 6.805259196460849e6 0.0
6.805259196460849e6 -2.2174612699794397e6 0.0
0.0 0.0 0.0

-2.3601897967216074e6 6.803672399959867e6 0.0
6.803672399959867e6 -1.347823891569484e6 0.0
0.0 0.0 0.0

-2.516486844935616e6 7.725108508208588e6 0.0
7.725108508208588e6 -967160.0796995014 0.0
0.0 0.0 0.0

-1.4657322459303697e6 5.313578495425153e6 0.0
5.313578495425153e6 -1.5470966830371858e6 0.0
0.0 0.0 0.0

4.2487960222467e6 1.1610467902237527e7 0.0
1.1610467902237527e7 -5.791308217363881e6 0.0
0.0 0.0 0.0

-9.369918082851779e6 9.852515786453376e6 0.0
9.852515786453376e6 5.940914253455415e6 0.0
0.0 0.0 0.0

-1.430277316929554e6 1.2642580135584978e7 0.0
1.2642580135584978e7 -3.063755742646387e6 0.0
0.0 0.0 0.0

-2.077170852407538e6 1.074882677983526e7 0.0
1.074882677983526e7 183485.42971840862 0.0
0.0 0.0 0.0

-7.918463711632121e6 1.075038200537976e7 0.0
1.075038200537976e7 4.804198832702583e6 0.0
0.0 0.0 0.0

-4.1889333095273664e6 7.449554083308432e6 0.0
7.449554083308432e6 3.124203162527986e6 0.0
0.0 0.0 0.0

380534.74385117437 3.6106752730040913e6 0.0
3.6106752730040913e6 -3.5991531858242988e6 0.0
0.0 0.0 0.0

-959020.601931248 3.331550656951574e6 0.0
3.331550656951574e6 -1.0661675467087664e6 0.0
0.0 0.0 0.0

-1.1578962400312386e6 9.01857433863201e6 0.0
9.01857433863201e6 -5.902653442601296e6 0.0
0.0 0.0 0.0

-2.0082794982291844e6 1.034290944505858e7 0.0
1.034290944505858e7 422340.0187472395 0.0
0.0 0.0 0.0

601038.1302589418 1.9854646386362475e6 0.0
1.9854646386362475e6 -3.410053872678223e6 0.0
0.0 0.0 0.0

-2.012114241733866e7 1.1389465369503887e7 0.0
1.1389465369503887e7 9.108397694125064e6 0.0
0.0 0.0 0.0

1.844986255687551e6 7.913542027994803e6 0.0
7.913542027994803e6 -9.406581219580077e6 0.0
0.0 0.0 0.0

-941360.3010922953 4.273921309864821e6 0.0
4.273921309864821e6 -2.3974678676528954e6 0.0
0.0 0.0 0.0

-745454.4831994656 9.245590948308434e6 0.0
9.245590948308434e6 -6.338364380335334e6 0.0
0.0 0.0 0.0

2.0733154639979503e6 6.383497428920499e6 0.0
6.383497428920499e6 -7.792274482065333e6 0.0
0.0 0.0 0.0

-635671.9530872306 1.684765365938502e7 0.0
1.684765365938502e7 -4.660827704553315e6 0.0
0.0 0.0 0.0

614288.6221388523 7.393238940738325e6 0.0
7.393238940738325e6 -5.339843644781085e6 0.0
0.0 0.0 0.0

-1.1534165136310412e7 4.480910551437283e6 0.0
4.480910551437283e6 1.4143883053581566e7 0.0
0.0 0.0 0.0

-4.018520887697865e6 5.896947202495951e6 0.0
5.896947202495951e6 4.28504111114121e6 0.0
0.0 0.0 0.0

-3.5970914195855884e6 9.96093586628166e6 0.0
9.96093586628166e6 2.102456270412446e6 0.0
0.0 0.0 0.0

-5.31699269050523e6 6.418788176755721e6 0.0
6.418788176755721e6 4.1086414849792137e6 0.0
0.0 0.0 0.0

-4.1526776890737703e6 6.875677486695353e6 0.0
6.875677486695353e6 4.899206987585929e6 0.0
0.0 0.0 0.0

-4.981905986495032e6 9.023898538095387e6 0.0
9.023898538095387e6 2.2422101596949836e6 0.0
0.0 0.0 0.0

730734.2998773071 1.1132921531106733e7 0.0
1.1132921531106733e7 2.435781024577981e6 0.0
0.0 0.0 0.0

-368521.89464234957 3.39987424198733e6 0.0
3.39987424198733e6 -1.0467100893646089e6 0.0
0.0 0.0 0.0

-1.7982566019044423e6 1.0222069358029405e7 0.0
1.0222069358029405e7 -2.5237770846170834e6 0.0
0.0 0.0 0.0

1.3027303078226862e6 8.940814467235057e6 0.0
8.940814467235057e6 -9.621392649730396e6 0.0
0.0 0.0 0.0

-1.058250167437251e7 9.863602536858326e6 0.0
9.863602536858326e6 6.896654901649908e6 0.0
0.0 0.0 0.0

-4.81053243021739e6 1.2499127697253546e7 0.0
1.2499127697253546e7 -422954.5393357051 0.0
0.0 0.0 0.0

1.5094019946520836e6 8.41925698647478e6 0.0
8.41925698647478e6 -2.5257702428330416e6 0.0
0.0 0.0 0.0

-3.7370962602727534e6 5.718940667299839e6 0.0
5.718940667299839e6 4.2007340776369e6 0.0
0.0 0.0 0.0

-1.1852424272202574e7 8.272926824200126e6 0.0
8.272926824200126e6 8.2196808017071625e6 0.0
0.0 0.0 0.0

-2.509532519837207e6 1.1231078191046888e7 0.0
1.1231078191046888e7 -1.6891410636580358e6 0.0
0.0 0.0 0.0

15029.28468069993 8.78796186444777e6 0.0
8.78796186444777e6 -6.308169219136217e6 0.0
0.0 0.0 0.0

-1.2810508559329037e7 9.406819548907101e6 0.0
9.406819548907101e6 8.795870923419787e6 0.0
0.0 0.0 0.0

4.974580699939845e6 1.5180412237912264e7 0.0
1.5180412237912264e7 -9.844389313683234e6 0.0
0.0 0.0 0.0

1.2189597857287382e6 7.947501763183117e6 0.0
7.947501763183117e6 -1.6320125352366546e6 0.0
0.0 0.0 0.0

-232541.28564353217 7.4172461962724505e6 0.0
7.4172461962724505e6 -4.58991367467037e6 0.0
0.0 0.0 0.0

-1.3610398103106045e6 9.485656374313202e6 0.0
9.485656374313202e6 -6.668640684913776e6 0.0
0.0 0.0 0.0

-2.270868709934801e6 1.528561063962877e7 0.0
1.528561063962877e7 -2.1089035836245753e6 0.0
0.0 0.0 0.0

113784.19287810405 9.685770863270355e6 0.0
9.685770863270355e6 -4.798503797958878e6 0.0
0.0 0.0 0.0

-6.609533166544633e6 1.088505017404171e7 0.0
1.088505017404171e7 2.4771437557467627e6 0.0
0.0 0.0 0.0

1.2758832958056265e6 8.46337164241989e6 0.0
8.46337164241989e6 -8.725917269348983e6 0.0
0.0 0.0 0.0

-347324.19701055036 1.0121827590115448e7 0.0
1.0121827590115448e7 -381668.9524466946 0.0
0.0 0.0 0.0

-9.809221430677636e6 7.689183082755846e6 0.0
7.689183082755846e6 5.778397097331954e6 0.0
0.0 0.0 0.0

-4.912845932404585e6 9.240101294352682e6 0.0
9.240101294352682e6 2.539629816864511e6 0.0
0.0 0.0 0.0

5.339713010385391e6 7.66144023661129e6 0.0
7.66144023661129e6 -2.1402622092780834e6 0.0
0.0 0.0 0.0

-8.539248775650375e6 1.0888202032105684e7 0.0
1.0888202032105684e7 5.12399140951274e6 0.0
0.0 0.0 0.0

-1.857126409159287e6 8.562358387247683e6 0.0
8.562358387247683e6 499316.8187324628 0.0
0.0 0.0 0.0

125469.79674099758 897010.3176943522 0.0
897010.3176943522 -2.1941324032874866e6 0.0
0.0 0.0 0.0

-5.8027808834489025e6 1.4823724212422416e7 0.0
1.4823724212422416e7 1.3346431678443644e6 0.0
0.0 0.0 0.0

-192717.3431027606 9.697638768582534e6 0.0
9.697638768582534e6 -4.666178777128242e6 0.0
0.0 0.0 0.0

2.3796680455716248e6 6.282210262503971e6 0.0
6.282210262503971e6 -8.214662863175115e6 0.0
0.0 0.0 0.0

-476700.8430294901 5.099857172803151e6 0.0
5.099857172803151e6 -2.3341163256071266e6 0.0
0.0 0.0 0.0

532460.492031551 2.640577878126161e6 0.0
2.640577878126161e6 -3.9397267169995727e6 0.0
0.0 0.0 0.0

-1.3287181964554507e6 7.829922681923932e6 0.0
7.829922681923932e6 -2.9797838914857944e6 0.0
0.0 0.0 0.0

-7.834307089463707e6 8.070739790171342e6 0.0
8.070739790171342e6 4.155505579455705e6 0.0
0.0 0.0 0.0

-1.3414034980118817e6 1.0688933264177827e7 0.0
1.0688933264177827e7 69681.90447817289 0.0
0.0 0.0 0.0

-978788.1068507993 1.246893101475633e7 0.0
1.246893101475633e7 -2.7904105538116647e6 0.0
0.0 0.0 0.0

1.923473724795044e6 6.7374715536996825e6 0.0
6.7374715536996825e6 -7.30136408660412e6 0.0
0.0 0.0 0.0

-3.108438609105811e6 9.053410972703837e6 0.0
9.053410972703837e6 -1.0651851321494055e6 0.0
0.0 0.0 0.0

-2.2560011775538977e6 8.735190013612183e6 0.0
8.735190013612183e6 -2.402175884682583e6 0.0
0.0 0.0 0.0

-7.219836529367564e6 1.0753738563782878e7 0.0
1.0753738563782878e7 3.556262535039678e6 0.0
0.0 0.0 0.0

-1.1572529651670977e6 1.4662459960918399e7 0.0
1.4662459960918399e7 -3.201073688489968e6 0.0
0.0 0.0 0.0

-4.08884928187082e6 1.0024037465320146e7 0.0
1.0024037465320146e7 2.529228530673707e6 0.0
0.0 0.0 0.0

-2.9103343148576533e6 8.608647822454384e6 0.0
8.608647822454384e6 2.033590458779867e6 0.0
0.0 0.0 0.0

-9.502161317924742e6 1.107990037240548e7 0.0
1.107990037240548e7 2.5524859701474592e7 0.0
0.0 0.0 0.0

-1.096481317706806e7 1.0965635206411641e7 0.0
1.0965635206411641e7 6.802376987917096e6 0.0
0.0 0.0 0.0

247991.39315081737 1.0547010622457473e7 0.0
1.0547010622457473e7 -4.00044728168867e6 0.0
0.0 0.0 0.0

899144.7840520791 7.818171654594716e6 0.0
7.818171654594716e6 -6.035089268257087e6 0.0
0.0 0.0 0.0

1.0728313187851124e6 7.641583585696065e6 0.0
7.641583585696065e6 -6.290027093282551e6 0.0
0.0 0.0 0.0

1.0359357177658661e6 5.352862902160517e6 0.0
5.352862902160517e6 -5.124251598696619e6 0.0
0.0 0.0 0.0

-4.542483962258222e6 9.298522754261417e6 0.0
9.298522754261417e6 2.9548121507956665e6 0.0
0.0 0.0 0.0

720158.2445802437 5.321283347251216e6 0.0
5.321283347251216e6 -5.067974566957956e6 0.0
0.0 0.0 0.0

-4.907713112364581e6 880317.7388407585 0.0
880317.7388407585 5.137124422935683e6 0.0
0.0 0.0 0.0

-3.2595360820908276e6 9.646430353784967e6 0.0
9.646430353784967e6 2.5447398516142275e6 0.0
0.0 0.0 0.0

-1.1898921565239378e6 4.40301406240293e6 0.0
4.40301406240293e6 -1.9646645244289665e6 0.0
0.0 0.0 0.0

-5.396896409145441e6 1.209357894258137e7 0.0
1.209357894258137e7 324051.9578999728 0.0
0.0 0.0 0.0

-5.796773403984564e6 1.315414413182286e7 0.0
1.315414413182286e7 1.4738113303389482e6 0.0
0.0 0.0 0.0

-140727.2112451405 9.255081136933323e6 0.0
9.255081136933323e6 -1.0592123565220593e6 0.0
0.0 0.0 0.0

1.256882209331416e6 8.363941372844477e6 0.0
8.363941372844477e6 -8.183339152403203e6 0.0
0.0 0.0 0.0

2.2771528087718156e6 6.365478541457191e6 0.0
6.365478541457191e6 -7.721546222757856e6 0.0
0.0 0.0 0.0

-1.9675374689064223e7 1.2367516875431785e7 0.0
1.2367516875431785e7 3.7222886931264e6 0.0
0.0 0.0 0.0

1.2024748057000125e6 1.0075474334418112e7 0.0
1.0075474334418112e7 4.098795956949878e6 0.0
0.0 0.0 0.0

-5.810478461617634e6 1.2780716655324057e7 0.0
1.2780716655324057e7 1.7692276029706276e6 0.0
0.0 0.0 0.0

-1.5729220425967902e6 9.722258357026713e6 0.0
9.722258357026713e6 1.8568671003444814e6 0.0
0.0 0.0 0.0

-233290.19258143604 9.873080662693858e6 0.0
9.873080662693858e6 -828158.0167358927 0.0
0.0 0.0 0.0

-9.53846852930574e6 1.0768145275751573e6 0.0
1.0768145275751573e6 1.141682797617067e7 0.0
0.0 0.0 0.0

-7.446568666398918e6 9.529310607289195e6 0.0
9.529310607289195e6 4.989585323645793e6 0.0
0.0 0.0 0.0

-1.6689927072448307e6 6.417072974284949e6 0.0
6.417072974284949e6 -1.9836730209502915e6 0.0
0.0 0.0 0.0

-1.0051588863406524e6 2.512690624533376e6 0.0
2.512690624533376e6 269049.51074105036 0.0
0.0 0.0 0.0

-1.1890937504954703e7 6.039444509179749e6 0.0
6.039444509179749e6 3.884274154674615e7 0.0
0.0 0.0 0.0

-1.064224136090547e6 1.0797965258072848e7 0.0
1.0797965258072848e7 -3.149543070769914e6 0.0
0.0 0.0 0.0

2.367225210263947e6 1.2072681636171108e6 0.0
1.2072681636171108e6 -3.8912594456884814e6 0.0
0.0 0.0 0.0

-1.3224327117213976e7 1.1247150394274243e6 0.0
1.1247150394274243e6 1.976143186186851e7 0.0
0.0 0.0 0.0

2.1297634496809263e6 5.934559129948327e6 0.0
5.934559129948327e6 -6.873347051754349e6 0.0
0.0 0.0 0.0

-3.4457603688683286e6 7.603302069899432e6 0.0
7.603302069899432e6 2.6524662180776717e6 0.0
0.0 0.0 0.0

-1.1342966985436833e7 1.0110357660561698e7 0.0
1.0110357660561698e7 5.329245935751539e6 0.0
0.0 0.0 0.0

-956996.0880991737 1.0202818729584191e7 0.0
1.0202818729584191e7 -4.1158242550216257e6 0.0
0.0 0.0 0.0

-1.6724234685662165e6 2.0806814358557167e6 0.0
2.0806814358557167e6 1.926990115080635e6 0.0
0.0 0.0 0.0

-1.91588544057732e6 1.0726716890142366e7 0.0
1.0726716890142366e7 110787.2265798389 0.0
0.0 0.0 0.0

628927.7247090086 1.4256246797961459e7 0.0
1.4256246797961459e7 -4.535914473370982e6 0.0
0.0 0.0 0.0

352319.639139585 2.532222681919313e6 0.0
2.532222681919313e6 -999491.3916593548 0.0
0.0 0.0 0.0

3.286173977561964e6 8.477953249962263e6 0.0
8.477953249962263e6 -2.0917884951748773e6 0.0
0.0 0.0 0.0

-6.494240033571368e6 1.818863477352472e7 0.0
1.818863477352472e7 -4.0177648286911524e6 0.0
0.0 0.0 0.0

1.4902200891351667e6 5.588684926528301e6 0.0
5.588684926528301e6 -6.058212443955658e6 0.0
0.0 0.0 0.0

-3.112318958217612e6 7.294906758949413e6 0.0
7.294906758949413e6 517791.59763644077 0.0
0.0 0.0 0.0

382143.16045316495 1.2582553127672434e7 0.0
1.2582553127672434e7 5.185479623088e6 0.0
0.0 0.0 0.0

1.1895559102285642e7 6.753621828709885e6 0.0
6.753621828709885e6 -3.963937256158055e6 0.0
0.0 0.0 0.0

-1.4104832293598594e7 1.0059733179889627e7 0.0
1.0059733179889627e7 6.472124233636725e6 0.0
0.0 0.0 0.0

-4.883592282306494e6 8.963089246175673e6 0.0
8.963089246175673e6 2.251147810505177e6 0.0
0.0 0.0 0.0

1.1186131164994808e6 8.246566265449463e6 0.0
8.246566265449463e6 -7.674182987970931e6 0.0
0.0 0.0 0.0

-6.797464220404934e6 8.645352300389348e6 0.0
8.645352300389348e6 3.8341124348127735e6 0.0
0.0 0.0 0.0

2.3164105501321675e6 7.801746281546497e6 0.0
7.801746281546497e6 -237180.0923062308 0.0
0.0 0.0 0.0

-1.2090301279239422e7 427039.90414144896 0.0
427039.90414144896 2.5685818206993885e7 0.0
0.0 0.0 0.0

-2.939766518351455e6 1.0273781230715347e7 0.0
1.0273781230715347e7 1.8476386138439663e6 0.0
0.0 0.0 0.0

-475457.57033688226 9.610795979819648e6 0.0
9.610795979819648e6 727512.4398525092 0.0
0.0 0.0 0.0

-2.7629010018337755e6 8.552226158059172e6 0.0
8.552226158059172e6 -1.4721422082832437e6 0.0
0.0 0.0 0.0

2.0202428278680544e6 1.055535580276749e7 0.0
1.055535580276749e7 -4.481746624963641e6 0.0
0.0 0.0 0.0

429535.31672916724 1.0741233339194912e7 0.0
1.0741233339194912e7 -3.8244245142747313e6 0.0
0.0 0.0 0.0

-1.711650409863295e6 5.720750724535746e6 0.0
5.720750724535746e6 -1.273609538886846e6 0.0
0.0 0.0 0.0

-1.8492857606154317e6 9.644696110461041e6 0.0
9.644696110461041e6 2.316070121807672e6 0.0
0.0 0.0 0.0

-226166.76321721787 9.953561945724674e6 0.0
9.953561945724674e6 -917191.668062387 0.0
0.0 0.0 0.0

-242918.67512504844 9.58552060285792e6 0.0
9.58552060285792e6 -1.1457203837098484e6 0.0
0.0 0.0 0.0

-138478.94129056786 8.700035507799536e6 0.0
8.700035507799536e6 -6.090271665331941e6 0.0
0.0 0.0 0.0

-5.734218893782398e6 9.959893578768227e6 0.0
9.959893578768227e6 3.424110509175843e6 0.0
0.0 0.0 0.0

-8.320679430176863e6 1.0055803750287361e7 0.0
1.0055803750287361e7 2.7171628842801577e6 0.0
0.0 0.0 0.0

-7.901661816488393e6 1.0095272111941515e7 0.0
1.0095272111941515e7 5.311421853284905e6 0.0
0.0 0.0 0.0

-1.5370013856693509e6 1.0137021782848509e7 0.0
1.0137021782848509e7 993295.627622797 0.0
0.0 0.0 0.0

1.4284257506222855e6 6.523720142294287e6 0.0
6.523720142294287e6 -5.962320766936078e6 0.0
0.0 0.0 0.0

-1.6654931288602622e6 1.0688801891754095e7 0.0
1.0688801891754095e7 -3.3056427199639115e6 0.0
0.0 0.0 0.0

-2.830964843691427e6 1.5278973426021725e7 0.0
1.5278973426021725e7 -4.165016887333984e6 0.0
0.0 0.0 0.0

-2.921033604196741e6 383647.73203043925 0.0
383647.73203043925 1.49278791529853e6 0.0
0.0 0.0 0.0

-2.09205568656338e6 1.0482649721021e7 0.0
1.0482649721021e7 971939.0071099527 0.0
0.0 0.0 0.0

994425.001064455 8.410665653864872e6 0.0
8.410665653864872e6 -2.663540402943196e6 0.0
0.0 0.0 0.0

1.3121077171948673e6 1.1728370732432412e7 0.0
1.1728370732432412e7 -4.1802894497486087e6 0.0
0.0 0.0 0.0

-2.236369569066569e6 2.357880247095406e6 0.0
2.357880247095406e6 2.2102304209886133e6 0.0
0.0 0.0 0.0

-995381.753836727 9.880211272741994e6 0.0
9.880211272741994e6 1.5350929586966012e6 0.0
0.0 0.0 0.0

-5.893685602524013e6 6.72354676004894e6 0.0
6.72354676004894e6 2.1293356816665917e6 0.0
0.0 0.0 0.0

186592.47216494777 9.057982240655012e6 0.0
9.057982240655012e6 -5.4889601217639465e6 0.0
0.0 0.0 0.0

-7.361618541504293e6 1.4853638174982578e7 0.0
1.4853638174982578e7 2.8945400077453535e6 0.0
0.0 0.0 0.0

-8.528934329274144e6 1.0138225734248815e7 0.0
1.0138225734248815e7 5.782905147142288e6 0.0
0.0 0.0 0.0

-1.616750584328136e6 4.1593567670540405e6 0.0
4.1593567670540405e6 787472.1749009002 0.0
0.0 0.0 0.0

-3.3082623211462586e6 1.100460164273602e7 0.0
1.100460164273602e7 501522.8619973515 0.0
0.0 0.0 0.0

-8.598056925188495e6 1.0481147648706114e7 0.0
1.0481147648706114e7 5.739969312105659e6 0.0
0.0 0.0 0.0

-7.949025144337436e6 1.0383171721623993e7 0.0
1.0383171721623993e7 5.291120582886197e6 0.0
0.0 0.0 0.0

-275338.03763890854 9.390061745653408e6 0.0
9.390061745653408e6 22639.775105137946 0.0
0.0 0.0 0.0

-323612.1752996512 7.828339904636176e6 0.0
7.828339904636176e6 -3.9987116357995253e6 0.0
0.0 0.0 0.0

7.709001263145355e6 1.0573941272489805e7 0.0
1.0573941272489805e7 -1.2419874632689822e6 0.0
0.0 0.0 0.0

-1.1743152450414028e7 -3.8463644343401017e6 0.0
-3.8463644343401017e6 4.416411497977835e6 0.0
0.0 0.0 0.0

-8.395687170728166e6 8.133568398591226e6 0.0
8.133568398591226e6 3.0693790637351396e6 0.0
0.0 0.0 0.0

1.767949973073685e6 5.795309044918608e6 0.0
5.795309044918608e6 -6.691976185693879e6 0.0
0.0 0.0 0.0

-2.985329150798375e6 9.663794642660633e6 0.0
9.663794642660633e6 -1.7558392413917687e6 0.0
0.0 0.0 0.0

-6.794412406190108e6 9.02085967277448e6 0.0
9.02085967277448e6 4.401815081944986e6 0.0
0.0 0.0 0.0

-5.848049480669865e6 1.2410285448157324e6 0.0
1.2410285448157324e6 5.997334313328849e6 0.0
0.0 0.0 0.0

403925.1751775576 7.656359853937129e6 0.0
7.656359853937129e6 -5.71391026497344e6 0.0
0.0 0.0 0.0

-867098.028101503 8.309415568182083e6 0.0
8.309415568182083e6 -5.589531057173431e6 0.0
0.0 0.0 0.0

2.1721218020520387e6 8.398558334998634e6 0.0
8.398558334998634e6 -921182.5362693211 0.0
0.0 0.0 0.0

-1.6841120111221403e7 1.0588905722217988e7 0.0
1.0588905722217988e7 7.8536936073755855e6 0.0
0.0 0.0 0.0

-1.775132683481359e6 5.277023379105188e6 0.0
5.277023379105188e6 -914220.4427660615 0.0
0.0 0.0 0.0

-5.759937451679895e6 9.624832705355534e6 0.0
9.624832705355534e6 3.5070213668012302e6 0.0
0.0 0.0 0.0

-6.050161941307364e6 1.0112296022709971e7 0.0
1.0112296022709971e7 3.618659976122827e6 0.0
0.0 0.0 0.0

-6.966855234056324e6 -1.4826356498145717e6 0.0
-1.4826356498145717e6 1.3462742011254894e7 0.0
0.0 0.0 0.0

-318096.9049251143 3.3108382519234945e6 0.0
3.3108382519234945e6 -832148.3920242904 0.0
0.0 0.0 0.0

-694077.8937897499 7.965578441141308e6 0.0
7.965578441141308e6 -4.213741166152861e6 0.0
0.0 0.0 0.0

-3.0628816188462507e6 1.3724461786608098e6 0.0
1.3724461786608098e6 4.015923089879359e6 0.0
0.0 0.0 0.0

-1.05639346111968e6 9.349916804831898e6 0.0
9.349916804831898e6 -4.070339570873087e6 0.0
0.0 0.0 0.0

2.2149343644153946e6 9.893582656573381e6 0.0
9.893582656573381e6 -3.4531231562051713e6 0.0
0.0 0.0 0.0

-28985.8023267386 5.484229478937099e6 0.0
5.484229478937099e6 -3.4740468163773785e6 0.0
0.0 0.0 0.0

-6.401018431978e6 8.493151257460192e6 0.0
8.493151257460192e6 2.5835137347335187e6 0.0
0.0 0.0 0.0

-7.597999764683247e6 1.019319635866189e7 0.0
1.019319635866189e7 4.288376820387608e6 0.0
0.0 0.0 0.0

-732582.9590616915 6.306905019551533e6 0.0
6.306905019551533e6 -2.4419430465961434e6 0.0
0.0 0.0 0.0

-391818.67327293777 9.427415899937905e6 0.0
9.427415899937905e6 -1.306062233530052e6 0.0
0.0 0.0 0.0

-552618.6176183176 7.88885167644241e6 0.0
7.88885167644241e6 -3.716960476225907e6 0.0
0.0 0.0 0.0

-944198.4745617041 8.304437654840641e6 0.0
8.304437654840641e6 -5.612874823420598e6 0.0
0.0 0.0 0.0

-1.0378602940018058e6 3.2882853455738206e6 0.0
3.2882853455738206e6 -42001.67686183291 0.0
0.0 0.0 0.0

-1.9396769738796887e6 6.4026873119491115e6 0.0
6.4026873119491115e6 -121139.19286093477 0.0
0.0 0.0 0.0

-2.0778186727388138e6 1.1300902635965215e7 0.0
1.1300902635965215e7 -2.177466446995332e6 0.0
0.0 0.0 0.0

31898.70786940423 6.360159354574067e6 0.0
6.360159354574067e6 -4.380378289666361e6 0.0
0.0 0.0 0.0

-1.368223362648265e7 8.50154406765376e6 0.0
8.50154406765376e6 3.485888604621507e6 0.0
0.0 0.0 0.0

1.7540143286387029e6 1.0377462824320717e7 0.0
1.0377462824320717e7 -4.280709053450883e6 0.0
0.0 0.0 0.0

5.876011937151235e6 8.840029772425503e6 0.0
8.840029772425503e6 -4.448950140550813e6 0.0
0.0 0.0 0.0

-1.2366788880286735e7 9.847696823840978e6 0.0
9.847696823840978e6 8.127236641668182e6 0.0
0.0 0.0 0.0

-639693.6876559041 3.8199197640182776e6 0.0
3.8199197640182776e6 -204251.8552066356 0.0
0.0 0.0 0.0

-2.4388278467194885e6 8.816817453211807e6 0.0
8.816817453211807e6 -2.122373990523419e6 0.0
0.0 0.0 0.0

-3.875262681919244e6 1.04323024235087e7 0.0
1.04323024235087e7 433497.5284636547 0.0
0.0 0.0 0.0

-1.2414357724086367e7 7.550620087757981e6 0.0
7.550620087757981e6 5.893075194114441e6 0.0
0.0 0.0 0.0

-531154.8462737354 8.947529631772993e6 0.0
8.947529631772993e6 -6.527821679168691e6 0.0
0.0 0.0 0.0

-224815.2804072266 9.84655500980366e6 0.0
9.84655500980366e6 -434761.6336852965 0.0
0.0 0.0 0.0

-270920.95828277036 8.604437213267092e6 0.0
8.604437213267092e6 -5.846071055862077e6 0.0
0.0 0.0 0.0

-1.2915141353536002e7 8.51286104461433e6 0.0
8.51286104461433e6 7.843748991342077e6 0.0
0.0 0.0 0.0

-4.666057919975443e6 1.1261177696878368e7 0.0
1.1261177696878368e7 -197606.68706552475 0.0
0.0 0.0 0.0

-2.7081194834687035e6 1.0303925871997928e7 0.0
1.0303925871997928e7 94236.62680244655 0.0
0.0 0.0 0.0

831160.3500149613 8.002324858647804e6 0.0
8.002324858647804e6 -6.12518468820199e6 0.0
0.0 0.0 0.0

-8.817081251986824e6 1.2874826175404056e6 0.0
1.2874826175404056e6 1.0524322295703407e7 0.0
0.0 0.0 0.0

-2.5751255908575156e6 7.517313740423685e6 0.0
7.517313740423685e6 -1.3084225360423694e6 0.0
0.0 0.0 0.0

1.3114430000059716e6 1.1146316972321693e7 0.0
1.1146316972321693e7 -3.6995383737798156e6 0.0
0.0 0.0 0.0

-448223.90439123637 8.803602744003136e6 0.0
8.803602744003136e6 -6.252345095331788e6 0.0
0.0 0.0 0.0

-6.844753827723172e6 9.46038628775425e6 0.0
9.46038628775425e6 3.219341377657897e6 0.0
0.0 0.0 0.0

-4.09507639874742e6 1.81817085830917e7 0.0
1.81817085830917e7 -6.761320666159125e6 0.0
0.0 0.0 0.0

-2.569289208316619e6 1.0883417594532298e7 0.0
1.0883417594532298e7 156819.48795700353 0.0
0.0 0.0 0.0

-7.775614443652489e6 9.345945554645779e6 0.0
9.345945554645779e6 3.897585244107157e6 0.0
0.0 0.0 0.0

-4.213620704298619e6 6.734585291548093e6 0.0
6.734585291548093e6 2.9570111664784485e6 0.0
0.0 0.0 0.0

385920.5866626748 1.0726717708546288e7 0.0
1.0726717708546288e7 -3.7912132374832286e6 0.0
0.0 0.0 0.0

-5.75422603561784e6 1.0073519034952903e7 0.0
1.0073519034952903e7 3.400307320841245e6 0.0
0.0 0.0 0.0

-160323.3138982493 8.820247672796717e6 0.0
8.820247672796717e6 -6.330480770040418e6 0.0
0.0 0.0 0.0

921036.5133019334 6.00389111088622e6 0.0
6.00389111088622e6 -5.665401132417767e6 0.0
0.0 0.0 0.0

-560202.6918948398 8.717771377365185e6 0.0
8.717771377365185e6 -6.022261408972629e6 0.0
0.0 0.0 0.0

-6.825117579356771e6 1.0458174487844227e7 0.0
1.0458174487844227e7 4.238367227258509e6 0.0
0.0 0.0 0.0

-338694.15632567316 9.133680120740086e6 0.0
9.133680120740086e6 -1.128980451592844e6 0.0
0.0 0.0 0.0

42494.51250156227 7.449467880736035e6 0.0
7.449467880736035e6 141648.29388484263 0.0
0.0 0.0 0.0

-6.47773673470389e6 5.612917716906532e6 0.0
5.612917716906532e6 7.364959406115467e6 0.0
0.0 0.0 0.0

-1.331961047537218e6 5.613626532482944e6 0.0
5.613626532482944e6 -1.116530075537136e6 0.0
0.0 0.0 0.0

-19825.835580487503 1.1389869032380516e7 0.0
1.1389869032380516e7 3.650411841051884e6 0.0
0.0 0.0 0.0

-7.294407888506873e6 292681.0308645086 0.0
292681.0308645086 7.575432585943751e6 0.0
0.0 0.0 0.0

2.131415867959404e6 6.5037479740511365e6 0.0
6.5037479740511365e6 -7.886335330323714e6 0.0
0.0 0.0 0.0

-14062.18058333965 8.880514566343974e6 0.0
8.880514566343974e6 -6.065775387087107e6 0.0
0.0 0.0 0.0

-7.414899644115379e6 9.637155890510077e6 0.0
9.637155890510077e6 4.1371207444531117e6 0.0
0.0 0.0 0.0

3.1283777030677674e6 8.761314982351566e6 0.0
8.761314982351566e6 1.2045511421848678e6 0.0
0.0 0.0 0.0

-2.488762472140766e6 1.9868799830525336e6 0.0
1.9868799830525336e6 1.7606459380429173e6 0.0
0.0 0.0 0.0

-1.2797512270255128e7 9.445456880640674e6 0.0
9.445456880640674e6 4.780958861881258e6 0.0
0.0 0.0 0.0

-2.4776890820911326e6 1.0229670542706434e7 0.0
1.0229670542706434e7 937814.8775888698 0.0
0.0 0.0 0.0

-1.4272654541933248e7 7.898155969543243e6 0.0
7.898155969543243e6 7.765937192801727e6 0.0
0.0 0.0 0.0

2.0270900159037001e6 6.563920178520139e6 0.0
6.563920178520139e6 -8.019753360143067e6 0.0
0.0 0.0 0.0

-4.757521610767116e6 1.3330602761478849e7 0.0
1.3330602761478849e7 807172.1836168312 0.0
0.0 0.0 0.0

-1.2253162812203515e7 4.628264816374802e6 0.0
4.628264816374802e6 1.7366575710883215e7 0.0
0.0 0.0 0.0

-5.419178400546471e6 1.0007965469195187e7 0.0
1.0007965469195187e7 3.2445785789620946e6 0.0
0.0 0.0 0.0

-730457.5674344782 9.388325107866107e6 0.0
9.388325107866107e6 -1.3610550884061756e6 0.0
0.0 0.0 0.0

-570960.258926119 4.212358647148137e6 0.0
4.212358647148137e6 -769283.8863658512 0.0
0.0 0.0 0.0

-1.372496587024754e6 9.445332109336387e6 0.0
9.445332109336387e6 891551.3387057778 0.0
0.0 0.0 0.0

-2.554364766369958e6 1.0365942329549622e7 0.0
1.0365942329549622e7 1.4435157164620897e6 0.0
0.0 0.0 0.0

-493530.4647300824 5.636278684775346e6 0.0
5.636278684775346e6 -3.245076055378886e6 0.0
0.0 0.0 0.0

-1.6641138385988036e6 1.0527393412451278e7 0.0
1.0527393412451278e7 -46982.06850821042 0.0
0.0 0.0 0.0

1.1924458596923274e6 1.0808307873021752e7 0.0
1.0808307873021752e7 -3.649788037348344e6 0.0
0.0 0.0 0.0

-1.5628166048859446e6 5.563359472931084e6 0.0
5.563359472931084e6 -686793.4504979505 0.0
0.0 0.0 0.0

120555.8907895328 8.738843515504086e6 0.0
8.738843515504086e6 -6.29379017875951e6 0.0
0.0 0.0 0.0

-2.851135755923349e6 7.473429857706749e6 0.0
7.473429857706749e6 353733.4680251613 0.0
0.0 0.0 0.0

-4.297248203894766e6 7.19848564310912e6 0.0
7.19848564310912e6 5.370416511216564e6 0.0
0.0 0.0 0.0

-917936.373723927 3.161062473426461e6 0.0
3.161062473426461e6 453490.6863248669 0.0
0.0 0.0 0.0

-3.945783735361579e6 9.895313772448761e6 0.0
9.895313772448761e6 623629.7163736166 0.0
0.0 0.0 0.0

-5.353651821900875e6 1.0068929067063428e7 0.0
1.0068929067063428e7 3.2310419014945216e6 0.0
0.0 0.0 0.0

-2.6885319774112385e6 1.4525210384736216e7 0.0
1.4525210384736216e7 -1.593868480308085e6 0.0
0.0 0.0 0.0

-3.9382884037620006e6 1.5690147911130553e6 0.0
1.5690147911130553e6 3.6902369413001654e6 0.0
0.0 0.0 0.0

-26431.166642258875 8.82100053400013e6 0.0
8.82100053400013e6 -6.418418685805996e6 0.0
0.0 0.0 0.0

-5.800274714552775e6 1.0170872906207703e7 0.0
1.0170872906207703e7 3.4959165704129864e6 0.0
0.0 0.0 0.0

453154.486353504 9.712732285052177e6 0.0
9.712732285052177e6 -4.1593780312940213e6 0.0
0.0 0.0 0.0

-1.8030770190185339e6 6.445503394108537e6 0.0
6.445503394108537e6 -1.6840426630238583e6 0.0
0.0 0.0 0.0

-554267.1393194452 3.892631743978041e6 0.0
3.892631743978041e6 -469667.0990184569 0.0
0.0 0.0 0.0

-8.101158838636311e6 9.682197317332217e6 0.0
9.682197317332217e6 4.754596715094826e6 0.0
0.0 0.0 0.0

-3.9075592675072467e6 8.39176965063004e6 0.0
8.39176965063004e6 1.2441394875385382e6 0.0
0.0 0.0 0.0

-1.1695101885153942e6 9.159129078714265e6 0.0
9.159129078714265e6 2.8488882323376727e6 0.0
0.0 0.0 0.0

-70649.59037795829 1.3591756914929936e6 0.0
1.3591756914929936e6 -1.0242295494744917e6 0.0
0.0 0.0 0.0

1.644500117018444e6 7.973546266865496e6 0.0
7.973546266865496e6 -1.5398677372159306e6 0.0
0.0 0.0 0.0

1.7729194416495077e6 7.855881665931398e6 0.0
7.855881665931398e6 -8.955780287003554e6 0.0
0.0 0.0 0.0

-8.035626499308575e6 1.4785711718990365e7 0.0
1.4785711718990365e7 1.3340361834204039e6 0.0
0.0 0.0 0.0

-3.4134078025535126e6 1.0196945636668105e7 0.0
1.0196945636668105e7 2.067881052555702e6 0.0
0.0 0.0 0.0

-1.2485049386050184e6 6.734604463746778e6 0.0
6.734604463746778e6 -1.122158916405244e6 0.0
0.0 0.0 0.0

-954798.7108280192 1.0529303471113196e7 0.0
1.0529303471113196e7 -513524.2408481393 0.0
0.0 0.0 0.0

1.4621029299176815e6 8.254184671268301e6 0.0
8.254184671268301e6 -8.210365217069083e6 0.0
0.0 0.0 0.0

-183092.84369242354 9.299596912089474e6 0.0
9.299596912089474e6 -5.353410292718145e6 0.0
0.0 0.0 0.0

-1.0868506641213926e7 1.0277532293974165e7 0.0
1.0277532293974165e7 6.843129825321608e6 0.0
0.0 0.0 0.0

-391241.4835344454 9.329270481156264e6 0.0
9.329270481156264e6 -1.3041382428773574e6 0.0
0.0 0.0 0.0

-3.442545779287176e6 1.0105978616724752e7 0.0
1.0105978616724752e7 1.6640366113032266e6 0.0
0.0 0.0 0.0

-4.696171127464322e6 9.121552078528948e6 0.0
9.121552078528948e6 2.424935160820024e6 0.0
0.0 0.0 0.0

-2.144576170589732e6 8.960832253856607e6 0.0
8.960832253856607e6 -2.0425569284475953e6 0.0
0.0 0.0 0.0

2.014510618688275e6 8.410103818660777e6 0.0
8.410103818660777e6 -1.4768216472699177e6 0.0
0.0 0.0 0.0

-4.754294488853851e6 8.231346994864152e6 0.0
8.231346994864152e6 3.300690910785756e6 0.0
0.0 0.0 0.0

-1.3001512600966408e6 1.0606757994295945e7 0.0
1.0606757994295945e7 251326.55097216385 0.0
0.0 0.0 0.0

-1.17950377928009e7 2.157288407747297e6 0.0
2.157288407747297e6 2.1356205929812025e7 0.0
0.0 0.0 0.0

-1.553526356845811e6 6.386834000659117e6 0.0
6.386834000659117e6 -1.5970457560648094e6 0.0
0.0 0.0 0.0

-1.1294043210997377e6 8.1071018102354435e6 0.0
8.1071018102354435e6 -5.451223603046139e6 0.0
0.0 0.0 0.0

-1.3184244435555714e6 1.0483920675952267e7 0.0
1.0483920675952267e7 -3.652274236244167e6 0.0
0.0 0.0 0.0

-2.9141685240377462e6 7.7821405863053985e6 0.0
7.7821405863053985e6 229439.2649213042 0.0
0.0 0.0 0.0

-2.8652396032393207e6 1.016702740550487e7 0.0
1.016702740550487e7 1.4176389335294247e6 0.0
0.0 0.0 0.0

-363246.88319383294 9.351051657163713e6 0.0
9.351051657163713e6 -1.2108229865617005e6 0.0
0.0 0.0 0.0

-6.156810122354194e6 1.0231012546622429e7 0.0
1.0231012546622429e7 3.698806469740133e6 0.0
0.0 0.0 0.0

-1.465601611410982e6 1.0806577850400599e7 0.0
1.0806577850400599e7 -61816.71739543043 0.0
0.0 0.0 0.0

-1.0448046959196333e7 -3.7468503066586684e6 0.0
-3.7468503066586684e6 1.864885134667322e7 0.0
0.0 0.0 0.0

-1.9361169131532027e6 4.1778941539126104e6 0.0
4.1778941539126104e6 822077.0586944866 0.0
0.0 0.0 0.0

448707.0655672464 1.0004973106889285e7 0.0
1.0004973106889285e7 -3.9693695389944995e6 0.0
0.0 0.0 0.0

-1.0478166300289664e7 7.45765034025268e6 0.0
7.45765034025268e6 3.313994291863363e6 0.0
0.0 0.0 0.0

-762264.0925481822 3.34254015476713e6 0.0
3.34254015476713e6 -899455.2022808356 0.0
0.0 0.0 0.0

-1.1690058444962688e7 421381.24827648676 0.0
421381.24827648676 1.4625416139910437e7 0.0
0.0 0.0 0.0

-1.2779902723216736e6 -1.1746568599226065e6 0.0
-1.1746568599226065e6 785031.70394566 0.0
0.0 0.0 0.0

-1.8038165232827843e6 2.214449322857183e6 0.0
2.214449322857183e6 852680.5256082636 0.0
0.0 0.0 0.0

-441261.93981036893 7.299492710654735e6 0.0
7.299492710654735e6 -4.291728094836628e6 0.0
0.0 0.0 0.0

-4.270982085558957e6 8.461738989031564e6 0.0
8.461738989031564e6 1.1906683456882073e6 0.0
0.0 0.0 0.0

-4.393684238832273e6 7.05752256885309e6 0.0
7.05752256885309e6 857451.4013518803 0.0
0.0 0.0 0.0

-3.252256333057531e6 9.863708298721636e6 0.0
9.863708298721636e6 2.1134752837154055e6 0.0
0.0 0.0 0.0

-147734.1306698562 8.685609613703748e6 0.0
8.685609613703748e6 -5.755929401232562e6 0.0
0.0 0.0 0.0

-2.1852763548130197e6 8.216377475145978e6 0.0
8.216377475145978e6 2.539579969920244e6 0.0
0.0 0.0 0.0

-1.2249303581710623e6 8.768609193337578e6 0.0
8.768609193337578e6 -5.767474741657321e6 0.0
0.0 0.0 0.0

-2.0649288459589556e6 1.0365410524472715e7 0.0
1.0365410524472715e7 230842.82068751333 0.0
0.0 0.0 0.0

1.3555013391505945e6 8.6566422363408e6 0.0
8.6566422363408e6 -8.999596934571642e6 0.0
0.0 0.0 0.0

1.3669126245115981e6 8.235731142481268e6 0.0
8.235731142481268e6 -7.777906216094453e6 0.0
0.0 0.0 0.0

-3.411444163393894e6 1.0407799686096547e7 0.0
1.0407799686096547e7 1.575517452044842e6 0.0
0.0 0.0 0.0

-9.830173896390753e6 9.482651887171006e6 0.0
9.482651887171006e6 5.476743965617685e6 0.0
0.0 0.0 0.0

-5.722091024634097e6 9.273859752501843e6 0.0
9.273859752501843e6 3.474401048952316e6 0.0
0.0 0.0 0.0

-2.255858244920587e6 6.492044649149064e6 0.0
6.492044649149064e6 -240771.94104518986 0.0
0.0 0.0 0.0

-3.783073827807034e6 2.7359590175685203e6 0.0
2.7359590175685203e6 3.4462747967214673e6 0.0
0.0 0.0 0.0

684734.5423096947 9.172837938039396e6 0.0
9.172837938039396e6 -4.048305926905036e6 0.0
0.0 0.0 0.0

2.34368156310043e6 1.0868648703643901e7 0.0
1.0868648703643901e7 -4.6841474045723e6 0.0
0.0 0.0 0.0

-1.0593311712296762e7 5.595503912061116e6 0.0
5.595503912061116e6 1.8744923497284617e7 0.0
0.0 0.0 0.0

-1.2971790243542665e6 1.0445491854191542e7 0.0
1.0445491854191542e7 669010.7699490044 0.0
0.0 0.0 0.0

-6.0367467121281065e6 1.0014603754371481e7 0.0
1.0014603754371481e7 3.1916569049537336e6 0.0
0.0 0.0 0.0

-887021.8780820925 7.915188357257044e6 0.0
7.915188357257044e6 -5.243816018160495e6 0.0
0.0 0.0 0.0

-1.1246889782748856e7 2.5654286529442486e6 0.0
2.5654286529442486e6 1.408002231090108e7 0.0
0.0 0.0 0.0

-1.5669342972771716e6 1.0372146028811034e7 0.0
1.0372146028811034e7 290013.64495592704 0.0
0.0 0.0 0.0

-1.9672377683580988e6 1.0225240853078425e7 0.0
1.0225240853078425e7 -3.100587726187574e6 0.0
0.0 0.0 0.0

53410.27562173223 8.924484060266627e6 0.0
8.924484060266627e6 -5.835338336882065e6 0.0
0.0 0.0 0.0

1.4085959558498883e6 7.911362035596482e6 0.0
7.911362035596482e6 -7.970372913796648e6 0.0
0.0 0.0 0.0

823209.4725036081 7.999388897076421e6 0.0
7.999388897076421e6 -6.896616508830655e6 0.0
0.0 0.0 0.0

-675523.944142916 9.603648787154494e6 0.0
9.603648787154494e6 -7.134341770893131e6 0.0
0.0 0.0 0.0

-5.966137424652927e6 1.0156649588149743e7 0.0
1.0156649588149743e7 3.5677019685433134e6 0.0
0.0 0.0 0.0

-4.450678072931502e6 9.888551326297414e6 0.0
9.888551326297414e6 2.3334829374972247e6 0.0
0.0 0.0 0.0

166689.5601109499 9.70153662447437e6 0.0
9.70153662447437e6 -4.777434499309891e6 0.0
0.0 0.0 0.0

3.7151925855164262e6 1.150855104441094e7 0.0
1.150855104441094e7 -5.337184548604343e6 0.0
0.0 0.0 0.0

-1.040625575051656e7 -585322.9888148422 0.0
-585322.9888148422 1.642617282870267e7 0.0
0.0 0.0 0.0

1.2756073897508802e6 8.397552928454066e6 0.0
8.397552928454066e6 -8.415888694677433e6 0.0
0.0 0.0 0.0

1.1495903447888177e6 8.057192660427066e6 0.0
8.057192660427066e6 -6.801454147070276e6 0.0
0.0 0.0 0.0

-1.1700819760053392e7 1.9481454663742697e6 0.0
1.9481454663742697e6 2.434089068877308e7 0.0
0.0 0.0 0.0

3.5528815441400376e6 8.642276109332275e6 0.0
8.642276109332275e6 -600292.4432823732 0.0
0.0 0.0 0.0

-9.973028949214233e6 1.5188924257897492e6 0.0
1.5188924257897492e6 1.6064083539030343e7 0.0
0.0 0.0 0.0

-550784.7054612631 3.024529233467622e6 0.0
3.024529233467622e6 -749595.8651086432 0.0
0.0 0.0 0.0

-6.486395771790867e6 1.0335472848048715e7 0.0
1.0335472848048715e7 3.7899080613974486e6 0.0
0.0 0.0 0.0

182384.4529724035 7.717789071033273e6 0.0
7.717789071033273e6 -5.425134480708365e6 0.0
0.0 0.0 0.0

-8.04533064918064e6 1.0324838415855695e7 0.0
1.0324838415855695e7 4.969535628346799e6 0.0
0.0 0.0 0.0

-9.277072253424017e6 3.958850331772162e6 0.0
3.958850331772162e6 1.3154275437526409e7 0.0
0.0 0.0 0.0

-1.4646421928700376e6 4.489628137628332e6 0.0
4.489628137628332e6 219393.30988403806 0.0
0.0 0.0 0.0

-4.3448705825953e6 1.3757741670964886e7 0.0
1.3757741670964886e7 282230.2892720194 0.0
0.0 0.0 0.0

-2.905616124573185e6 1.0191322274814745e7 0.0
1.0191322274814745e7 2.0747584742518293e6 0.0
0.0 0.0 0.0

-4.048412288669587e6 1.1455029813485807e7 0.0
1.1455029813485807e7 100807.28971715295 0.0
0.0 0.0 0.0

-4.1788759343202123e6 9.932983948936107e6 0.0
9.932983948936107e6 2.0912503578496792e6 0.0
0.0 0.0 0.0

-42250.89534751652 8.905091089795686e6 0.0
8.905091089795686e6 -5.886078816922173e6 0.0
0.0 0.0 0.0

-599323.4050938054 1.1679110116731288e7 0.0
1.1679110116731288e7 -3.034996706599768e6 0.0
0.0 0.0 0.0

-2.936233710833639e6 1.2320821122655071e7 0.0
1.2320821122655071e7 4.987694982277836e6 0.0
0.0 0.0 0.0

-4.311688586734057e6 -2.10379557053298e6 0.0
-2.10379557053298e6 5.753114619543007e6 0.0
0.0 0.0 0.0

-2.7893574958897536e6 3.4576617587953196e6 0.0
3.4576617587953196e6 841089.1299606208 0.0
0.0 0.0 0.0

-165265.31479963614 8.232579943104501e6 0.0
8.232579943104501e6 -550884.1969202267 0.0
0.0 0.0 0.0

395692.517657176 9.133677387699926e6 0.0
9.133677387699926e6 1.3189750059745885e6 0.0
0.0 0.0 0.0

-8.081283645629957e6 1.5545552041182553e7 0.0
1.5545552041182553e7 282343.0542217926 0.0
0.0 0.0 0.0

1.4416725013865812e6 7.529331937293666e6 0.0
7.529331937293666e6 -4.666662779016281e6 0.0
0.0 0.0 0.0

-8.566012818409277e6 1.0723620593699936e7 0.0
1.0723620593699936e7 5.334831292677525e6 0.0
0.0 0.0 0.0

-1.323256017204336e7 -1.499064059116443e6 0.0
-1.499064059116443e6 9.030170603732053e6 0.0
0.0 0.0 0.0

-1.2137599398267693e6 1.0668133311391175e7 0.0
1.0668133311391175e7 -3.696774524868208e6 0.0
0.0 0.0 0.0

-9.563168933917012e6 4.966750815987652e6 0.0
4.966750815987652e6 1.0867190135893606e7 0.0
0.0 0.0 0.0

642191.5553977648 9.620647968171412e6 0.0
9.620647968171412e6 -4.291219869966049e6 0.0
0.0 0.0 0.0

-3.2971165379695147e6 1.009043930063298e7 0.0
1.009043930063298e7 1.6846287452181862e6 0.0
0.0 0.0 0.0

-4.027510310800726e6 8.309292570283752e6 0.0
8.309292570283752e6 862048.3519552711 0.0
0.0 0.0 0.0

502472.0113258923 1.0146341054771703e7 0.0
1.0146341054771703e7 -4.221753864925819e6 0.0
0.0 0.0 0.0

2.1599670632576384e6 6.421247551990919e6 0.0
6.421247551990919e6 -8.081003411308845e6 0.0
0.0 0.0 0.0

-1.0966606339457277e6 6.483437371111521e6 0.0
6.483437371111521e6 -3.655535661764004e6 0.0
0.0 0.0 0.0

1.3136987949649575e6 1.208842643328556e7 0.0
1.208842643328556e7 -4.0221235214109183e6 0.0
0.0 0.0 0.0

-46160.63090040558 9.699442230262399e6 0.0
9.699442230262399e6 -4.847587745656342e6 0.0
0.0 0.0 0.0

-18306.90213926771 7.744762612962396e6 0.0
7.744762612962396e6 1.423091006735175e6 0.0
0.0 0.0 0.0

1.2061700456147292e6 8.33601516231089e6 0.0
8.33601516231089e6 -7.933149024761563e6 0.0
0.0 0.0 0.0

-3.832371645045398e6 9.53090403033765e6 0.0
9.53090403033765e6 -648385.4936444887 0.0
0.0 0.0 0.0

-3.2835638617140697e6 9.560456679115843e6 0.0
9.560456679115843e6 5.264775921159974e6 0.0
0.0 0.0 0.0

-1.0476680450764068e6 1.5358399758755283e7 0.0
1.5358399758755283e7 -6.056054312417079e6 0.0
0.0 0.0 0.0

1.221184076047942e6 8.137729266584019e6 0.0
8.137729266584019e6 -7.351270970002311e6 0.0
0.0 0.0 0.0

-9.985126459507782e6 -1.6825299349213445e6 0.0
-1.6825299349213445e6 7.8416917519147955e6 0.0
0.0 0.0 0.0

-1.0500267608151475e6 9.7983867074121e6 0.0
9.7983867074121e6 1.1118303045793863e6 0.0
0.0 0.0 0.0

-8.693352062836675e6 1.0396938296953311e7 0.0
1.0396938296953311e7 5.408455461170968e6 0.0
0.0 0.0 0.0

-2.864675523479639e6 9.622222068792554e6 0.0
9.622222068792554e6 -1.339650606964373e6 0.0
0.0 0.0 0.0

-5.705199348734202e6 1.0208352079005038e7 0.0
1.0208352079005038e7 3.484844012619064e6 0.0
0.0 0.0 0.0

-1.3520855986630738e7 4.531804958631528e6 0.0
4.531804958631528e6 1.9141176765582785e7 0.0
0.0 0.0 0.0

-1.0832263851254077e6 7.968137260317986e6 0.0
7.968137260317986e6 -3.0816921260474822e6 0.0
0.0 0.0 0.0

-6.030047721068482e6 1.3744675103691094e7 0.0
1.3744675103691094e7 179961.09949585237 0.0
0.0 0.0 0.0

-1.4681121360811891e6 5.136005842944987e6 0.0
5.136005842944987e6 -686408.9365397454 0.0
0.0 0.0 0.0

-1.2267184156751405e7 -620423.806416731 0.0
-620423.806416731 6.141904368022019e6 0.0
0.0 0.0 0.0

-2.180159997502595e6 6.059460293795132e6 0.0
6.059460293795132e6 -620436.4702160985 0.0
0.0 0.0 0.0

-3.3173086922395155e6 727795.7355241267 0.0
727795.7355241267 2.537330075548129e6 0.0
0.0 0.0 0.0

-8.138643380996185e6 5.566767285368306e6 0.0
5.566767285368306e6 1.1766115143912563e7 0.0
0.0 0.0 0.0

-7.132619611682329e6 1.0571558461638397e7 0.0
1.0571558461638397e7 4.497384174211198e6 0.0
0.0 0.0 0.0

-9.508514596444082e6 1.0572691432782382e7 0.0
1.0572691432782382e7 5.972017111447956e6 0.0
0.0 0.0 0.0

-9.61138160426736e6 3.325115923871199e6 0.0
3.325115923871199e6 1.514810070941462e7 0.0
0.0 0.0 0.0

-1.110173030355896e6 7.5525322672657315e6 0.0
7.5525322672657315e6 -2.952203838990649e6 0.0
0.0 0.0 0.0

2.17667936338563e6 9.549909113721142e6 0.0
9.549909113721142e6 -3.9443475785400495e6 0.0
0.0 0.0 0.0

-732398.367675707 7.052647216697641e6 0.0
7.052647216697641e6 -4.68959007512103e6 0.0
0.0 0.0 0.0

-1.5591101878116454e6 4.1374122716734745e6 0.0
4.1374122716734745e6 1.4939419675754905e6 0.0
0.0 0.0 0.0

-7.200145225532654e6 1.0620478838072939e7 0.0
1.0620478838072939e7 4.414462308466106e6 0.0
0.0 0.0 0.0

-5.603539481688851e6 6.304730677292454e6 0.0
6.304730677292454e6 5.994284018521048e6 0.0
0.0 0.0 0.0

1.0228013079857272e6 8.245079363687691e6 0.0
8.245079363687691e6 -7.514953306139584e6 0.0
0.0 0.0 0.0

-8.446543964371841e6 8.097189432754717e6 0.0
8.097189432754717e6 2.0719748340783352e6 0.0
0.0 0.0 0.0

-4.519006885634918e6 1.1399817147372548e7 0.0
1.1399817147372548e7 615481.0596449974 0.0
0.0 0.0 0.0

2.135294102722112e6 6.928035139627006e6 0.0
6.928035139627006e6 -8.80014592824842e6 0.0
0.0 0.0 0.0

-2.102189615921998e6 9.844714400270015e6 0.0
9.844714400270015e6 2.3002353905409593e6 0.0
0.0 0.0 0.0

-4.0711532455923567e6 8.485470829377739e6 0.0
8.485470829377739e6 1.651524825912594e6 0.0
0.0 0.0 0.0

-850179.2279077251 1.0583010316892846e7 0.0
1.0583010316892846e7 -3.556300232892582e6 0.0
0.0 0.0 0.0

-8.641672076325528e6 1.0091871887533758e7 0.0
1.0091871887533758e7 5.390788020638112e6 0.0
0.0 0.0 0.0

-4.024915296013955e6 8.497938482844125e6 0.0
8.497938482844125e6 1.1833946312753086e6 0.0
0.0 0.0 0.0

-7.464016100376903e6 1.0559294687191177e7 0.0
1.0559294687191177e7 4.822995262879357e6 0.0
0.0 0.0 0.0

-1.0931273119939403e6 3.8390933449997376e6 0.0
3.8390933449997376e6 -759576.5078309451 0.0
0.0 0.0 0.0

-223596.54145092552 9.894896294819089e6 0.0
9.894896294819089e6 1.546535838325226e6 0.0
0.0 0.0 0.0

-234820.981605181 9.473539467195513e6 0.0
9.473539467195513e6 -5.180460399602591e6 0.0
0.0 0.0 0.0

-1.8091940487825484e6 5.9558167206691215e6 0.0
5.9558167206691215e6 -470389.21367218206 0.0
0.0 0.0 0.0

-761992.3517495283 1.0199151478207245e7 0.0
1.0199151478207245e7 -4.319638766172434e6 0.0
0.0 0.0 0.0

-47217.15396899544 6.509713713098733e6 0.0
6.509713713098733e6 -4.1494457679632083e6 0.0
0.0 0.0 0.0

-1.208486124099467e6 9.471109122886019e6 0.0
9.471109122886019e6 5.106513633907125e6 0.0
0.0 0.0 0.0

-3.9212109210073063e6 -390517.82683131326 0.0
-390517.82683131326 6.116055725345095e6 0.0
0.0 0.0 0.0

-229607.25353888108 1.0206270120068656e7 0.0
1.0206270120068656e7 2.0590332613192142e6 0.0
0.0 0.0 0.0

-6.22831632206738e6 1.0239177427150857e7 0.0
1.0239177427150857e7 3.694309893244705e6 0.0
0.0 0.0 0.0

37649.05551634985 9.262677497292073e6 0.0
9.262677497292073e6 -5.292754444071547e6 0.0
0.0 0.0 0.0

-4.990092640022585e6 1.2850279262718333e7 0.0
1.2850279262718333e7 1.055405438469697e6 0.0
0.0 0.0 0.0

-831509.8987143209 1.0512905911036571e7 0.0
1.0512905911036571e7 -472520.2760614465 0.0
0.0 0.0 0.0

526501.4171373511 7.63506498675195e6 0.0
7.63506498675195e6 -5.299329384091944e6 0.0
0.0 0.0 0.0

-4.75369499189706e6 1.1640358978085883e7 0.0
1.1640358978085883e7 -192200.44041090086 0.0
0.0 0.0 0.0

-375747.21553095174 9.732702896677721e6 0.0
9.732702896677721e6 -4.929526007038515e6 0.0
0.0 0.0 0.0

-600489.5263042192 5.69163381165618e6 0.0
5.69163381165618e6 -982653.1709453863 0.0
0.0 0.0 0.0

-4.606683960994996e6 1.123570680932892e7 0.0
1.123570680932892e7 3.779067032565247e6 0.0
0.0 0.0 0.0

-3.022339093624114e6 1.0282204770135956e7 0.0
1.0282204770135956e7 1.7038501135566738e6 0.0
0.0 0.0 0.0

-6.496833643602693e6 1.0367906403566627e7 0.0
1.0367906403566627e7 3.9741278128552004e6 0.0
0.0 0.0 0.0

-1.2178405076648633e6 1.015204020208807e7 0.0
1.015204020208807e7 546080.8731515146 0.0
0.0 0.0 0.0

-490101.4288708606 4.156770532911866e6 0.0
4.156770532911866e6 -720306.3558379181 0.0
0.0 0.0 0.0

-1.0022690050010575e7 2.146790896922385e6 0.0
2.146790896922385e6 1.2003140201187866e7 0.0
0.0 0.0 0.0

-967854.5105023417 1.0420020047136193e7 0.0
1.0420020047136193e7 -4.0170709571109107e6 0.0
0.0 0.0 0.0

1.135459196062767e6 9.247776348286096e6 0.0
9.247776348286096e6 -8.421526036497908e6 0.0
0.0 0.0 0.0

-842061.5260230647 4.411803175080368e6 0.0
4.411803175080368e6 -693777.1322707485 0.0
0.0 0.0 0.0

-965863.7705344274 3.597023553708344e6 0.0
3.597023553708344e6 -153169.08335750675 0.0
0.0 0.0 0.0

-2.9395630527233733e6 7.763456484965853e6 0.0
7.763456484965853e6 471175.07664180547 0.0
0.0 0.0 0.0

-4.952408728141981e6 1.0996697338346684e7 0.0
1.0996697338346684e7 1.0374688899432046e6 0.0
0.0 0.0 0.0

284446.16296457965 8.875520882535314e6 0.0
8.875520882535314e6 -7.018204353206833e6 0.0
0.0 0.0 0.0

1289.087520772824 7.326836428681798e6 0.0
7.326836428681798e6 -4.519103729070517e6 0.0
0.0 0.0 0.0

-6.361559087469273e6 1.0311210739990456e7 0.0
1.0311210739990456e7 3.8220375506800245e6 0.0
0.0 0.0 0.0

-4.039774124196829e6 1.1839388166892726e7 0.0
1.1839388166892726e7 104625.74170549423 0.0
0.0 0.0 0.0

-1.4346163927598871e7 9.934823489894502e6 0.0
9.934823489894502e6 8.634762489025567e6 0.0
0.0 0.0 0.0

-6.447192690819703e6 1.0397649647895372e7 0.0
1.0397649647895372e7 3.9112137511628033e6 0.0
0.0 0.0 0.0

-1.44180994299491e7 8.173090040933217e6 0.0
8.173090040933217e6 7.27174045763429e6 0.0
0.0 0.0 0.0

-1.74783834129507e6 1.088580535903381e7 0.0
1.088580535903381e7 -54547.25510991097 0.0
0.0 0.0 0.0

870351.999491089 9.08316492236988e6 0.0
9.08316492236988e6 -8.089984404141415e6 0.0
0.0 0.0 0.0

-1.9470572948438427e6 5.686035018702086e6 0.0
5.686035018702086e6 -871760.1744380813 0.0
0.0 0.0 0.0

-8.62486649181597e6 -1.0221052136454503e6 0.0
-1.0221052136454503e6 1.0654136693673596e7 0.0
0.0 0.0 0.0

-1.1392041455493852e7 -950118.8728175348 0.0
-950118.8728175348 1.5798317221061815e7 0.0
0.0 0.0 0.0

1.605611757003907e6 6.9021765026696045e6 0.0
6.9021765026696045e6 -7.54508812061935e6 0.0
0.0 0.0 0.0

-4.1561858085792745e6 9.982490785959562e6 0.0
9.982490785959562e6 2.303030483432007e6 0.0
0.0 0.0 0.0

-1.0238199572717361e7 5.414193698614899e6 0.0
5.414193698614899e6 1.728050371099891e7 0.0
0.0 0.0 0.0

-558887.5942523429 9.969023217325045e6 0.0
9.969023217325045e6 -4.618165766170427e6 0.0
0.0 0.0 0.0

-1.0468181846528362e7 7.346663697351306e6 0.0
7.346663697351306e6 1.4023260250368409e7 0.0
0.0 0.0 0.0

-5.157355914965003e6 1.119007289046683e7 0.0
1.119007289046683e7 292366.3864806676 0.0
0.0 0.0 0.0

-7.616056755612849e6 1.2908330077784125e7 0.0
1.2908330077784125e7 2.436109492142808e6 0.0
0.0 0.0 0.0

-755109.9467485303 1.0337196857563114e7 0.0
1.0337196857563114e7 -524478.3735309361 0.0
0.0 0.0 0.0

-1.0607551819506923e6 4.101450550165997e6 0.0
4.101450550165997e6 -72694.46350693714 0.0
0.0 0.0 0.0

-1.0305128551948047e6 9.96453673825985e6 0.0
9.96453673825985e6 778287.2428969152 0.0
0.0 0.0 0.0

-2.793197575170967e6 7.740603085250746e6 0.0
7.740603085250746e6 495162.05524935736 0.0
0.0 0.0 0.0

1.7100402282431014e6 6.26742291978008e6 0.0
6.26742291978008e6 -7.12044232134478e6 0.0
0.0 0.0 0.0

319487.8504388677 1.1408415703165393e7 0.0
1.1408415703165393e7 -3.5686895434098765e6 0.0
0.0 0.0 0.0

-9.24669638499624e6 2.653559959487262e6 0.0
2.653559959487262e6 6.247316379423102e6 0.0
0.0 0.0 0.0

-8.202600342609845e6 9.032347981253551e6 0.0
9.032347981253551e6 1.2021282492589853e6 0.0
0.0 0.0 0.0

-6.656398179008105e6 1.0294966365890255e7 0.0
1.0294966365890255e7 3.72499276637527e6 0.0
0.0 0.0 0.0

-1.3071672510426757e6 6.634035156602392e6 0.0
6.634035156602392e6 -2.963892285901102e6 0.0
0.0 0.0 0.0

-2.405768067321069e6 1.0534502463378374e7 0.0
1.0534502463378374e7 161983.27212337602 0.0
0.0 0.0 0.0

-7.51297128249183e6 1.1750015143771794e7 0.0
1.1750015143771794e7 3.7125672058483968e6 0.0
0.0 0.0 0.0

-2.493293769120195e6 9.696656714464603e6 0.0
9.696656714464603e6 2.799949971218513e6 0.0
0.0 0.0 0.0

-1.5128244297489622e6 1.019622108340433e7 0.0
1.019622108340433e7 747588.9942036328 0.0
0.0 0.0 0.0

-846924.5303311081 6.518356428160919e6 0.0
6.518356428160919e6 -2.7944560030045025e6 0.0
0.0 0.0 0.0

-8.79507634479705e6 1.0859241758837856e7 0.0
1.0859241758837856e7 5.554231390864713e6 0.0
0.0 0.0 0.0

-4.199637984933851e6 435825.7621018781 0.0
435825.7621018781 4.187705131325253e6 0.0
0.0 0.0 0.0

1.2415238172598828e6 6.211956877754406e6 0.0
6.211956877754406e6 -5.336712107150907e6 0.0
0.0 0.0 0.0

-6.347687374956832e6 1.037900288297217e7 0.0
1.037900288297217e7 2.867738182712317e6 0.0
0.0 0.0 0.0

-27289.87072332995 9.433718099400269e6 0.0
9.433718099400269e6 -5.1184347962812e6 0.0
0.0 0.0 0.0

-982851.4248750759 2.78162849808922e6 0.0
2.78162849808922e6 -997172.0075680504 0.0
0.0 0.0 0.0

-596687.5143577612 5.362949164485798e6 0.0
5.362949164485798e6 -3.4135203780731168e6 0.0
0.0 0.0 0.0

-7.677393373328356e6 8.556488496128004e6 0.0
8.556488496128004e6 5.0393047660347875e6 0.0
0.0 0.0 0.0

293917.7015533806 7.9070763902665805e6 0.0
7.9070763902665805e6 -5.102913517164259e6 0.0
0.0 0.0 0.0

-49944.09491774067 9.027118643267829e6 0.0
9.027118643267829e6 3.479619180196684e6 0.0
0.0 0.0 0.0

-1.5172270499093353e6 4.1481365807514084e6 0.0
4.1481365807514084e6 -1.284203309462787e6 0.0
0.0 0.0 0.0

-786795.4518482718 3.859897961079679e6 0.0
3.859897961079679e6 -1.4738163442461595e6 0.0
0.0 0.0 0.0

-3.6976608548327796e6 1.4132489498776548e7 0.0
1.4132489498776548e7 -446059.38191417826 0.0
0.0 0.0 0.0

-2.192541975085428e6 920404.3399962547 0.0
920404.3399962547 2.5898293983275136e6 0.0
0.0 0.0 0.0

-1.6246634233648262e6 8.39631339470898e6 0.0
8.39631339470898e6 -2.470587417046176e6 0.0
0.0 0.0 0.0

1.0205891677667067e6 7.888843710892857e6 0.0
7.888843710892857e6 -2.0221845442013773e6 0.0
0.0 0.0 0.0

164914.67978821718 1.3646238430129776e7 0.0
1.3646238430129776e7 -5.117346929179082e6 0.0
0.0 0.0 0.0

-913630.7681641623 9.35796123165272e6 0.0
9.35796123165272e6 -3.5937016871829387e6 0.0
0.0 0.0 0.0

-9412.98285211937 1.135179803883906e7 0.0
1.135179803883906e7 3.0383051184977875e6 0.0
0.0 0.0 0.0

-5.527190370533995e6 9.884883265070926e6 0.0
9.884883265070926e6 3.37193264372977e6 0.0
0.0 0.0 0.0

-7.135892495394923e6 297325.5243722123 0.0
297325.5243722123 8.105228987438478e6 0.0
0.0 0.0 0.0

-6.152947359199635e6 1.0740430899838982e7 0.0
1.0740430899838982e7 2.6932521448488683e6 0.0
0.0 0.0 0.0

-1.5444933996393676e6 9.82821083613803e6 0.0
9.82821083613803e6 1.974470500251207e6 0.0
0.0 0.0 0.0

-466761.51581148675 6.97509074557496e6 0.0
6.97509074557496e6 -4.198641736770173e6 0.0
0.0 0.0 0.0

2.1192795227807686e6 6.587558364273059e6 0.0
6.587558364273059e6 -7.6330646876535155e6 0.0
0.0 0.0 0.0

-4.141153327510207e6 8.440528905086344e6 0.0
8.440528905086344e6 810598.759781969 0.0
0.0 0.0 0.0

-1.611433554502978e6 6.936368304246997e6 0.0
6.936368304246997e6 -569203.2802223547 0.0
0.0 0.0 0.0

-5.950904495707615e6 5.834173295091318e6 0.0
5.834173295091318e6 8.924303961067762e6 0.0
0.0 0.0 0.0

152040.69574605091 9.086988886946663e6 0.0
9.086988886946663e6 -5.546243286660548e6 0.0
0.0 0.0 0.0

882907.6839830889 8.825528517659215e6 0.0
8.825528517659215e6 -7.949892605143728e6 0.0
0.0 0.0 0.0

-6.369171709775761e6 1.1104641990437936e7 0.0
1.1104641990437936e7 2.8400060788798644e6 0.0
0.0 0.0 0.0

-1.1589374281163989e6 1.0276622904132482e7 0.0
1.0276622904132482e7 289252.5517527695 0.0
0.0 0.0 0.0

-1.4982509520438747e7 -649032.6367690573 0.0
-649032.6367690573 7.672743843988813e6 0.0
0.0 0.0 0.0

73107.68606489385 1.191733786056689e7 0.0
1.191733786056689e7 3.60908193821852e6 0.0
0.0 0.0 0.0

-1.612289163266744e7 6.4119136513793655e6 0.0
6.4119136513793655e6 5.085152938647764e6 0.0
0.0 0.0 0.0

572444.3468509917 7.927946612787742e6 0.0
7.927946612787742e6 -6.207016769936601e6 0.0
0.0 0.0 0.0

2.252811905587257e6 3.4502632646974795e6 0.0
3.4502632646974795e6 552373.6999632455 0.0
0.0 0.0 0.0

-2.19496154424256e6 -1.7069951076867466e6 0.0
-1.7069951076867466e6 2.1032997002892047e6 0.0
0.0 0.0 0.0

-1.440867119565666e6 6.810112103966257e6 0.0
6.810112103966257e6 -690812.690791295 0.0
0.0 0.0 0.0

-6.279385654976035e6 823267.5116605492 0.0
823267.5116605492 8.399006911225375e6 0.0
0.0 0.0 0.0

-4.429409393447028e6 1.1560353894737568e6 0.0
1.1560353894737568e6 4.309769603507314e6 0.0
0.0 0.0 0.0

-406914.52289784746 1.0126263388452834e7 0.0
1.0126263388452834e7 -4.212994062858907e6 0.0
0.0 0.0 0.0

-1.4237312960538808e6 7.00231146222134e6 0.0
7.00231146222134e6 -4.745771089505851e6 0.0
0.0 0.0 0.0

-235096.9236547496 9.202941121063447e6 0.0
9.202941121063447e6 -783656.4407250605 0.0
0.0 0.0 0.0

1.1055443871817703e6 8.310237798364821e6 0.0
8.310237798364821e6 -2.882145370536092e6 0.0
0.0 0.0 0.0

-6.660371894404581e6 1.1465333370974155e7 0.0
1.1465333370974155e7 3.017155166929386e6 0.0
0.0 0.0 0.0

-1.2499933414082427e6 5.217547062640983e6 0.0
5.217547062640983e6 63105.9939607128 0.0
0.0 0.0 0.0

-1.5895008682361927e6 9.542940282782879e6 0.0
9.542940282782879e6 -3.3892369974499624e6 0.0
0.0 0.0 0.0

-5.1405236644403245e6 9.21104406559341e6 0.0
9.21104406559341e6 2.5150933724769065e6 0.0
0.0 0.0 0.0

1.0811378717236985e6 7.450640029595761e6 0.0
7.450640029595761e6 -7.089486435144735e6 0.0
0.0 0.0 0.0

-3.316947312560289e6 823524.6058008637 0.0
823524.6058008637 4.731315082505389e6 0.0
0.0 0.0 0.0

-5.684823701587806e6 1.0858002907156095e7 0.0
1.0858002907156095e7 2.115815460279584e6 0.0
0.0 0.0 0.0

-1.185395583397604e6 1.0337375739388883e7 0.0
1.0337375739388883e7 74752.94510803057 0.0
0.0 0.0 0.0

-1.1862646672599434e6 1.0454936875624306e7 0.0
1.0454936875624306e7 -99718.81918256608 0.0
0.0 0.0 0.0

-4.601823713085209e6 1.0067088578970268e7 0.0
1.0067088578970268e7 2.6574530219760276e6 0.0
0.0 0.0 0.0

-446516.0313793213 9.777875793455862e6 0.0
9.777875793455862e6 1.0326603185266946e6 0.0
0.0 0.0 0.0

-4.383047037113237e6 1.1093248889422327e7 0.0
1.1093248889422327e7 2.1166740836904794e6 0.0
0.0 0.0 0.0

-1.0019029493958946e7 4.774777141384656e6 0.0
4.774777141384656e6 1.1786065693871599e7 0.0
0.0 0.0 0.0

-7.225299604938434e6 -1.0513252098972662e6 0.0
-1.0513252098972662e6 8.469922376656847e6 0.0
0.0 0.0 0.0

-101871.824709435 6.86040712974007e6 0.0
6.86040712974007e6 -4.02294869776065e6 0.0
0.0 0.0 0.0

1.7785571811436494e6 6.715973048844501e6 0.0
6.715973048844501e6 -7.824628716360545e6 0.0
0.0 0.0 0.0

-1.4392411647638306e6 9.534271948595397e6 0.0
9.534271948595397e6 -2.868089102719908e6 0.0
0.0 0.0 0.0

1.0635916032381197e6 8.376435261188947e6 0.0
8.376435261188947e6 261613.87752197034 0.0
0.0 0.0 0.0

508013.8686985448 7.500329990210465e6 0.0
7.500329990210465e6 -4.248011394444887e6 0.0
0.0 0.0 0.0

-681239.4879393505 8.790967724257054e6 0.0
8.790967724257054e6 -6.243880158976397e6 0.0
0.0 0.0 0.0

909053.2142822384 8.70060549369392e6 0.0
8.70060549369392e6 -7.760937250044984e6 0.0
0.0 0.0 0.0

-2.7195123134165374e6 7.0742103081181515e6 0.0
7.0742103081181515e6 211864.9083062755 0.0
0.0 0.0 0.0

-4.066328317809309e6 1.0148570079325592e7 0.0
1.0148570079325592e7 2.309375455378882e6 0.0
0.0 0.0 0.0

-5.734238587029915e6 1.1084952159571892e7 0.0
1.1084952159571892e7 2.695202970897597e6 0.0
0.0 0.0 0.0

-9.508070898343027e6 -1.596797964916842e6 0.0
-1.596797964916842e6 1.5024835248845212e7 0.0
0.0 0.0 0.0

972085.7784919771 8.62977289034322e6 0.0
8.62977289034322e6 -7.618883915629129e6 0.0
0.0 0.0 0.0

-1.0444726177891068e7 4.4748061077088e6 0.0
4.4748061077088e6 1.2735248512893278e7 0.0
0.0 0.0 0.0

-1.2286862036962684e6 1.0557735180942489e7 0.0
1.0557735180942489e7 -190005.10117522933 0.0
0.0 0.0 0.0

-6.898447730698351e6 1.1234946954842087e7 0.0
1.1234946954842087e7 2.6568322293636436e6 0.0
0.0 0.0 0.0

-7.228748923664663e6 8.906944342916762e6 0.0
8.906944342916762e6 2.9214603838358936e6 0.0
0.0 0.0 0.0

-6.052768470766959e6 4.896786473635576e6 0.0
4.896786473635576e6 9.17153112482947e6 0.0
0.0 0.0 0.0

-954614.0811766273 7.67294560155118e6 0.0
7.67294560155118e6 -5.159410234636403e6 0.0
0.0 0.0 0.0

-42076.64229331243 9.529256054829424e6 0.0
9.529256054829424e6 193367.4600902168 0.0
0.0 0.0 0.0

1.337834254966598e6 6.980812679549471e6 0.0
6.980812679549471e6 -7.273668253613037e6 0.0
0.0 0.0 0.0

-314558.5287035764 5.373978290489922e6 0.0
5.373978290489922e6 -3.695130307633762e6 0.0
0.0 0.0 0.0

-9.288082311357131e6 2.892597245289948e6 0.0
2.892597245289948e6 1.294484131228254e7 0.0
0.0 0.0 0.0

-2.8603679161861506e6 1.0081810879445747e7 0.0
1.0081810879445747e7 1.6384454723075004e6 0.0
0.0 0.0 0.0

-1.182775037517769e7 7.590954315802423e6 0.0
7.590954315802423e6 2.4699967723684874e6 0.0
0.0 0.0 0.0

46017.181913129054 8.881086093207445e6 0.0
8.881086093207445e6 -5.798169790969331e6 0.0
0.0 0.0 0.0

858681.2592583434 7.814313386499444e6 0.0
7.814313386499444e6 -6.862542139738379e6 0.0
0.0 0.0 0.0

980161.6897331001 8.55814248785055e6 0.0
8.55814248785055e6 -7.455900546197977e6 0.0
0.0 0.0 0.0

2.666226262967943e6 1.0577331396695871e6 0.0
1.0577331396695871e6 -4.551046056187165e6 0.0
0.0 0.0 0.0

-2.775993289280868e6 9.888994603892932e6 0.0
9.888994603892932e6 -1.3979962956256196e6 0.0
0.0 0.0 0.0

-1.0833485804888443e6 1.1517524615499796e7 0.0
1.1517524615499796e7 -2.9000820375553714e6 0.0
0.0 0.0 0.0

-1.3933599280117016e7 9.141016520161811e6 0.0
9.141016520161811e6 9.516265301036373e6 0.0
0.0 0.0 0.0

316483.0970238993 1.371247262029105e6 0.0
1.371247262029105e6 -2.688362332604343e6 0.0
0.0 0.0 0.0

-106993.75766160688 9.677249502353093e6 0.0
9.677249502353093e6 -4.83457992036011e6 0.0
0.0 0.0 0.0

-4.813455472038501e6 6.738670589462221e6 0.0
6.738670589462221e6 6.612091303735895e6 0.0
0.0 0.0 0.0

-1.2053192757295354e6 2.6867779012753204e6 0.0
2.6867779012753204e6 461512.3138983133 0.0
0.0 0.0 0.0

1.475733723715546e6 6.370352471828325e6 0.0
6.370352471828325e6 -6.760054294401793e6 0.0
0.0 0.0 0.0

-1.4739341929005631e6 2.8625347631225158e6 0.0
2.8625347631225158e6 733887.2712303265 0.0
0.0 0.0 0.0

-3.6044851037952323e6 1.55230620135035e6 0.0
1.55230620135035e6 4.863309410915018e6 0.0
0.0 0.0 0.0

-1.1335426285928313e6 6.324110726831943e6 0.0
6.324110726831943e6 -635744.4822247627 0.0
0.0 0.0 0.0

-3.3000774302550866e6 1.011063271131297e7 0.0
1.011063271131297e7 2.22146943966037e6 0.0
0.0 0.0 0.0

-1.3842004766000859e6 5.162259784087199e6 0.0
5.162259784087199e6 -853956.9160070629 0.0
0.0 0.0 0.0

5.79962465492593e6 5.315963549457497e6 0.0
5.315963549457497e6 -795034.5049641258 0.0
0.0 0.0 0.0

-6.320879519702013e6 -3.80327176612747e6 0.0
-3.80327176612747e6 4.352382949928304e6 0.0
0.0 0.0 0.0

152762.11868908 6.540309564125727e6 0.0
6.540309564125727e6 -4.340761218081581e6 0.0
0.0 0.0 0.0

1.2076637238121056e6 7.680958289010737e6 0.0
7.680958289010737e6 -6.655754833974028e6 0.0
0.0 0.0 0.0

1.4363820725938645e6 7.243460279624937e6 0.0
7.243460279624937e6 -6.774197181336062e6 0.0
0.0 0.0 0.0

390986.70606754464 1.8036072002674874e6 0.0
1.8036072002674874e6 435346.48557418125 0.0
0.0 0.0 0.0

-1.0059748852482159e6 15773.432387924251 0.0
15773.432387924251 997872.6941673041 0.0
0.0 0.0 0.0

-166186.92708957824 8.804678349301279e6 0.0
8.804678349301279e6 -6.188734500053574e6 0.0
0.0 0.0 0.0

1.694111585126176e6 6.669436480646785e6 0.0
6.669436480646785e6 -7.560851686655548e6 0.0
0.0 0.0 0.0

-1.1094727222728426e7 1.0446659116763948e7 0.0
1.0446659116763948e7 3.4021512066411055e6 0.0
0.0 0.0 0.0

-4.1761654064498255e6 7.794080363643828e6 0.0
7.794080363643828e6 2.820829049446022e6 0.0
0.0 0.0 0.0

-5.336672656910738e6 1.0902462758855341e7 0.0
1.0902462758855341e7 1.5515110814250812e6 0.0
0.0 0.0 0.0

-405832.90446045226 9.444947441983186e6 0.0
9.444947441983186e6 739226.410885846 0.0
0.0 0.0 0.0

922982.9919874396 6.593565290281782e6 0.0
6.593565290281782e6 3.4357971617359486e6 0.0
0.0 0.0 0.0

-8.272747259687798e6 8.871698724587943e6 0.0
8.871698724587943e6 4.589835534973174e6 0.0
0.0 0.0 0.0

-9.052201703584887e6 679043.4662237667 0.0
679043.4662237667 1.2219593401821114e7 0.0
0.0 0.0 0.0

-3.562140192783093e6 1.0206703594919689e7 0.0
1.0206703594919689e7 2.008091744972232e6 0.0
0.0 0.0 0.0

-724494.9574027956 1.1602699340568207e7 0.0
1.1602699340568207e7 -3.1804820221586335e6 0.0
0.0 0.0 0.0

-4.652285661167181e6 7.053662358069221e6 0.0
7.053662358069221e6 5.983056841885494e6 0.0
0.0 0.0 0.0

-932449.4153224323 2.56537524873651e6 0.0
2.56537524873651e6 767526.5105222506 0.0
0.0 0.0 0.0

-6.415860874115905e6 1.0581031367171338e7 0.0
1.0581031367171338e7 2.436969489273604e6 0.0
0.0 0.0 0.0

759016.1262016371 7.794828643931328e6 0.0
7.794828643931328e6 -6.512836063123573e6 0.0
0.0 0.0 0.0

-3.9447622863840666e6 1.2245193495390888e7 0.0
1.2245193495390888e7 -26889.20036225766 0.0
0.0 0.0 0.0

1.7207321528930767e6 6.903042049018308e6 0.0
6.903042049018308e6 -7.156531705878854e6 0.0
0.0 0.0 0.0

-952778.1341145064 9.511188001749821e6 0.0
9.511188001749821e6 2.3526089699360332e6 0.0
0.0 0.0 0.0

-3.344059293980813e6 9.58951267069631e6 0.0
9.58951267069631e6 -1.0144703810861264e6 0.0
0.0 0.0 0.0

-693815.0162160378 4.237745552954727e6 0.0
4.237745552954727e6 -1.090128784670946e6 0.0
0.0 0.0 0.0

-243711.34426783095 7.56411929919862e6 0.0
7.56411929919862e6 -4.697236495365531e6 0.0
0.0 0.0 0.0

2.0623769886294426e6 6.484078649157609e6 0.0
6.484078649157609e6 -7.273923670848505e6 0.0
0.0 0.0 0.0

-1.4690631486950796e6 1.4195913493943416e7 0.0
1.4195913493943416e7 -3.9824323146293038e6 0.0
0.0 0.0 0.0

296135.4707411474 7.272241212134875e6 0.0
7.272241212134875e6 -4.394391090814432e6 0.0
0.0 0.0 0.0

-1.3150326094906349e6 4.482581971169336e6 0.0
4.482581971169336e6 -118744.5481098803 0.0
0.0 0.0 0.0

-6.022274910741777e6 1.0063400286157511e7 0.0
1.0063400286157511e7 3.4657160422923225e6 0.0
0.0 0.0 0.0

914678.2953994074 8.460731524678912e6 0.0
8.460731524678912e6 -7.21795832552413e6 0.0
0.0 0.0 0.0

-1.5816316498658368e6 7.578229963972669e6 0.0
7.578229963972669e6 -5.272105454345182e6 0.0
0.0 0.0 0.0

-41043.43211762875 9.18400030597862e6 0.0
9.18400030597862e6 -136811.45896635833 0.0
0.0 0.0 0.0

-1.5944588850419293e6 5.514586081993766e6 0.0
5.514586081993766e6 -543866.3761040798 0.0
0.0 0.0 0.0

-2.405019463176779e6 7.280595751340955e6 0.0
7.280595751340955e6 -80737.1559432284 0.0
0.0 0.0 0.0

-983166.5250373904 9.94133131741997e6 0.0
9.94133131741997e6 1.6562235389787774e6 0.0
0.0 0.0 0.0

-733666.1352669911 3.2439582068204423e6 0.0
3.2439582068204423e6 382729.10088309797 0.0
0.0 0.0 0.0

697572.8209769983 8.216656324539471e6 0.0
8.216656324539471e6 -1.4469380160503048e6 0.0
0.0 0.0 0.0

-4.243777894221967e6 8.851770149030577e6 0.0
8.851770149030577e6 2.7301341128859078e6 0.0
0.0 0.0 0.0

235574.60337498598 6.5676728071443895e6 0.0
6.5676728071443895e6 -4.297963427860822e6 0.0
0.0 0.0 0.0

-1.348834846788894e6 2.682651625289996e6 0.0
2.682651625289996e6 511287.9939104704 0.0
0.0 0.0 0.0

-3.234355041237561e6 1.0925031882042002e7 0.0
1.0925031882042002e7 1.126598795732205e6 0.0
0.0 0.0 0.0

-4.9902467336055e6 6.881217914553704e6 0.0
6.881217914553704e6 4.861313362601327e6 0.0
0.0 0.0 0.0

-1.1967991516026335e6 1.0147494375117179e7 0.0
1.0147494375117179e7 1.1706669182072645e6 0.0
0.0 0.0 0.0

-1.8056732420733618e6 3.1265614893069025e6 0.0
3.1265614893069025e6 1.2073670414265255e6 0.0
0.0 0.0 0.0

-1.7918740582129671e6 1.1417990056777641e7 0.0
1.1417990056777641e7 -2.830835480785995e6 0.0
0.0 0.0 0.0

-5.240794283929306e6 1.0132727557647778e7 0.0
1.0132727557647778e7 3.153638098410414e6 0.0
0.0 0.0 0.0

-9.019907582942624e6 2.3006027653852324e6 0.0
2.3006027653852324e6 1.2067206486810975e7 0.0
0.0 0.0 0.0

-1.6067503916982075e6 6.937923497142268e6 0.0
6.937923497142268e6 -573836.9434549945 0.0
0.0 0.0 0.0

-8.065220842961751e6 -32553.950200183826 0.0
-32553.950200183826 9.135110502752122e6 0.0
0.0 0.0 0.0

-1.3087766518397732e6 9.462410154489702e6 0.0
9.462410154489702e6 -3.758133080292919e6 0.0
0.0 0.0 0.0

-3.8639009845503615e6 1.0137930284518762e7 0.0
1.0137930284518762e7 2.3113878848665664e6 0.0
0.0 0.0 0.0

-1.349829906002707e6 1.068804394033315e7 0.0
1.068804394033315e7 -171655.31858015427 0.0
0.0 0.0 0.0

-48421.754816811066 6.482254641878992e6 0.0
6.482254641878992e6 -4.198049429231943e6 0.0
0.0 0.0 0.0

-921414.9151601894 1.8088361083411272e6 0.0
1.8088361083411272e6 576972.754767538 0.0
0.0 0.0 0.0

-1.0268305079402875e7 7.292372352814102e6 0.0
7.292372352814102e6 1.2674158498773579e7 0.0
0.0 0.0 0.0

-9.51286000633061e6 3.699652022834532e6 0.0
3.699652022834532e6 1.3982510900762478e7 0.0
0.0 0.0 0.0

-2.6082403660482536e6 7.934758009467228e6 0.0
7.934758009467228e6 1.8466470496523124e6 0.0
0.0 0.0 0.0

-1.8369343557732834e6 2.854509148590894e6 0.0
2.854509148590894e6 851062.9674198464 0.0
0.0 0.0 0.0

-2.197441963687502e6 7.258416187912762e6 0.0
7.258416187912762e6 -82199.18095244688 0.0
0.0 0.0 0.0

-2.977503366356596e6 8.005971052945683e6 0.0
8.005971052945683e6 -392273.55417666794 0.0
0.0 0.0 0.0

-1.8005572381281704e6 8.202702118523199e6 0.0
8.202702118523199e6 -2.777759847341236e6 0.0
0.0 0.0 0.0

-3.277712154892019e6 9.943766709678622e6 0.0
9.943766709678622e6 2.4003322211813023e6 0.0
0.0 0.0 0.0

-7.536959603190975e6 1.0661085545613177e7 0.0
1.0661085545613177e7 4.632280892841287e6 0.0
0.0 0.0 0.0

-7.734606705241753e6 3.344239854665519e6 0.0
3.344239854665519e6 9.927294993731469e6 0.0
0.0 0.0 0.0

-270092.15528050216 1.0523189868506663e7 0.0
1.0523189868506663e7 1.6181865667647396e6 0.0
0.0 0.0 0.0

456217.6278434505 9.867282123471996e6 0.0
9.867282123471996e6 -4.433474892410311e6 0.0
0.0 0.0 0.0

299254.24191753333 7.7003922648728015e6 0.0
7.7003922648728015e6 -5.03262240808647e6 0.0
0.0 0.0 0.0

2.488785784939849e6 6.246882318201989e6 0.0
6.246882318201989e6 -7.883293438341577e6 0.0
0.0 0.0 0.0

-4.021773089801274e6 -123423.92007408426 0.0
-123423.92007408426 5.09069648944694e6 0.0
0.0 0.0 0.0

-3.550561638390762e6 9.82656191158581e6 0.0
9.82656191158581e6 2.296858210057633e6 0.0
0.0 0.0 0.0

-7.921823147457617e6 5.296752451223415e6 0.0
5.296752451223415e6 1.1224095675585829e7 0.0
0.0 0.0 0.0

-1.1658587985491246e7 9.976354054227857e6 0.0
9.976354054227857e6 2.086150161957891e7 0.0
0.0 0.0 0.0

-1.6289049775125545e6 7.940662754671739e6 0.0
7.940662754671739e6 -2.8402259149674727e6 0.0
0.0 0.0 0.0

338246.7536281153 9.693946070454003e6 0.0
9.693946070454003e6 1.1274894586551257e6 0.0
0.0 0.0 0.0

-958823.9528082858 2.8681838663773397e6 0.0
2.8681838663773397e6 130002.76280479913 0.0
0.0 0.0 0.0

-6.427471052550811e6 -2.03508665008325e6 0.0
-2.03508665008325e6 1.9498329110527458e6 0.0
0.0 0.0 0.0

624875.5921991568 7.568575551035472e6 0.0
7.568575551035472e6 -6.007113113064502e6 0.0
0.0 0.0 0.0

-1.1769456695089005e6 4.050044357333078e6 0.0
4.050044357333078e6 -60286.17981101491 0.0
0.0 0.0 0.0

705187.2492873026 7.953378213552812e6 0.0
7.953378213552812e6 -6.553914021130684e6 0.0
0.0 0.0 0.0

-6.245848498007002e6 6.054471296748951e6 0.0
6.054471296748951e6 9.541418082698591e6 0.0
0.0 0.0 0.0

787140.4119379474 5.335072216153338e6 0.0
5.335072216153338e6 -4.56922088418838e6 0.0
0.0 0.0 0.0

-3.036574326247015e6 1.4369431515203496e7 0.0
1.4369431515203496e7 -2.730407823451872e6 0.0
0.0 0.0 0.0

-1.5653937126462443e6 5.745845383739282e6 0.0
5.745845383739282e6 -790554.8301273952 0.0
0.0 0.0 0.0

-10776.941836335347 2.1379608293916895e6 0.0
2.1379608293916895e6 -2.307893800134084e6 0.0
0.0 0.0 0.0

8.106260933233045e6 5.627011450441959e6 0.0
5.627011450441959e6 -1.570999230610007e6 0.0
0.0 0.0 0.0

-7.6452687214438915e6 7.115381688290294e6 0.0
7.115381688290294e6 8.076753596316645e6 0.0
0.0 0.0 0.0

-824921.8357877079 4.650517982613939e6 0.0
4.650517982613939e6 -2.5236614682724713e6 0.0
0.0 0.0 0.0

-8.259827697092036e6 1.0313435666010787e6 0.0
1.0313435666010787e6 8.672453161224313e6 0.0
0.0 0.0 0.0

1.0988515353282285e6 1.7003200106716529e6 0.0
1.7003200106716529e6 -4.468105825103939e6 0.0
0.0 0.0 0.0

-2.511511262441613e6 1.0857190073485212e7 0.0
1.0857190073485212e7 519440.8943831783 0.0
0.0 0.0 0.0

-3.904539636618145e6 8.144303775750407e6 0.0
8.144303775750407e6 3.4340270498969397e6 0.0
0.0 0.0 0.0

-1.306727425761641e6 4.723952712267663e6 0.0
4.723952712267663e6 187179.11817656417 0.0
0.0 0.0 0.0

874710.7041638289 7.196494741242618e6 0.0
7.196494741242618e6 -6.197877050070113e6 0.0
0.0 0.0 0.0

-11747.249597543385 8.939912921529857e6 0.0
8.939912921529857e6 -6.613524698289104e6 0.0
0.0 0.0 0.0

-1.1044041068722089e6 4.737571169975015e6 0.0
4.737571169975015e6 -1.2828708525772456e6 0.0
0.0 0.0 0.0

-160440.44179115724 5.061792459559759e6 0.0
5.061792459559759e6 -4.179819042002823e6 0.0
0.0 0.0 0.0

-2.5156972384410757e6 9.043384599439045e6 0.0
9.043384599439045e6 -2.1528665474116458e6 0.0
0.0 0.0 0.0

4.575866865064958e6 8.908836193839544e6 0.0
8.908836193839544e6 -4.321151274763368e6 0.0
0.0 0.0 0.0

2.1505543476053984e6 6.757232142375782e6 0.0
6.757232142375782e6 -7.660991946482863e6 0.0
0.0 0.0 0.0

-1.305223781514832e6 -553111.1041288519 0.0
-553111.1041288519 6651.790724371327 0.0
0.0 0.0 0.0

-3.95940921916678e6 7.123664868330768e6 0.0
7.123664868330768e6 4.3669498699036995e6 0.0
0.0 0.0 0.0

-1.1780468390238183e6 4.091092477806266e6 0.0
4.091092477806266e6 -942315.1715258171 0.0
0.0 0.0 0.0

-1.4218134801931106e6 4.342012070395225e6 0.0
4.342012070395225e6 480193.615519669 0.0
0.0 0.0 0.0

2.1911709624364018e6 6.940559827668165e6 0.0
6.940559827668165e6 -8.091491497496613e6 0.0
0.0 0.0 0.0

582864.0725007405 1.0742284439578744e7 0.0
1.0742284439578744e7 1.942880340209524e6 0.0
0.0 0.0 0.0

-1.3459317825572535e6 8.769213581280032e6 0.0
8.769213581280032e6 4.0492932807059726e6 0.0
0.0 0.0 0.0

-553382.676385928 8.618054505187701e6 0.0
8.618054505187701e6 -5.8133350386458365e6 0.0
0.0 0.0 0.0

-1.5321586802686711e6 6.525248589647478e6 0.0
6.525248589647478e6 -2.6391129237898677e6 0.0
0.0 0.0 0.0

-3.9658708771502227e6 8.65517985985685e6 0.0
8.65517985985685e6 3.401552808435382e6 0.0
0.0 0.0 0.0

2.4867033471210776e6 1.0131807631810399e7 0.0
1.0131807631810399e7 -3.687158530376185e6 0.0
0.0 0.0 0.0

386723.2189992878 7.849420024918944e6 0.0
7.849420024918944e6 -5.812494361304323e6 0.0
0.0 0.0 0.0

-7.290938341753513e6 1.1574924653689958e7 0.0
1.1574924653689958e7 2.859308910103801e6 0.0
0.0 0.0 0.0

-296294.1448936425 7.176235442767359e6 0.0
7.176235442767359e6 -1.483821348993784e6 0.0
0.0 0.0 0.0

-1.7595919286998473e7 -5.060839929197815e6 0.0
-5.060839929197815e6 8.57729766310794e6 0.0
0.0 0.0 0.0

1.3964626846320895e7 6.56904724450292e6 0.0
6.56904724450292e6 -3.84410453536507e6 0.0
0.0 0.0 0.0

28924.798476547847 7.736691711311617e6 0.0
7.736691711311617e6 590018.3419221492 0.0
0.0 0.0 0.0

-7.750669987743287e6 -1.9231496491187385e6 0.0
-1.9231496491187385e6 1.3798722769428857e7 0.0
0.0 0.0 0.0

-958653.6701442506 1.0063847526615454e7 0.0
1.0063847526615454e7 1.0927926171941338e6 0.0
0.0 0.0 0.0

-4.299761924034365e6 1.2036013102422016e7 0.0
1.2036013102422016e7 -748282.7257934562 0.0
0.0 0.0 0.0

464282.45458482945 9.896604530160757e6 0.0
9.896604530160757e6 1.5476087292575785e6 0.0
0.0 0.0 0.0

-1.0660612459201582e6 4.579618680563058e6 0.0
4.579618680563058e6 -10106.995940169552 0.0
0.0 0.0 0.0

-3.8466412307814807e6 8.563765826980116e6 0.0
8.563765826980116e6 1.7767789660286983e6 0.0
0.0 0.0 0.0

-1.871707863381991e7 8.685321937355509e6 0.0
8.685321937355509e6 6.44137921329032e6 0.0
0.0 0.0 0.0

847900.0470723195 5.72440032839939e6 0.0
5.72440032839939e6 -5.519692303384204e6 0.0
0.0 0.0 0.0

-1.601129362246925e6 1.0769013690862462e7 0.0
1.0769013690862462e7 32909.97833298694 0.0
0.0 0.0 0.0

-259209.17016708525 1.0793942118584862e7 0.0
1.0793942118584862e7 1.9119982023771405e6 0.0
0.0 0.0 0.0

-1.665959174004646e6 8.027411160272089e6 0.0
8.027411160272089e6 -5.553197167065813e6 0.0
0.0 0.0 0.0

226391.17241327828 9.410582357515536e6 0.0
9.410582357515536e6 754637.3870752843 0.0
0.0 0.0 0.0

899979.9913486135 8.460905138773376e6 0.0
8.460905138773376e6 -7.082779257531527e6 0.0
0.0 0.0 0.0

-996432.0567055058 3.014908163964071e6 0.0
3.014908163964071e6 307024.42994736717 0.0
0.0 0.0 0.0

-7.877286312486272e6 8.441418890174607e6 0.0
8.441418890174607e6 4.973487803106036e6 0.0
0.0 0.0 0.0

202426.24171853857 7.070367150988944e6 0.0
7.070367150988944e6 -4.1097421151895924e6 0.0
0.0 0.0 0.0

-6.715583576495318e6 7.283608682375692e6 0.0
7.283608682375692e6 7.2001174458215805e6 0.0
0.0 0.0 0.0

-990486.5060023215 4.1238393380096587e6 0.0
4.1238393380096587e6 -782740.2589126433 0.0
0.0 0.0 0.0

-7.1691400415188465e6 1.053600679786528e7 0.0
1.053600679786528e7 4.382662614177468e6 0.0
0.0 0.0 0.0

-1.1683989885990337e7 9.233653044596914e6 0.0
9.233653044596914e6 7.207521259071133e6 0.0
0.0 0.0 0.0

-699150.6980916297 -1.004522212495564e6 0.0
-1.004522212495564e6 818663.5292683076 0.0
0.0 0.0 0.0

-681283.9814536998 7.777791334954145e6 0.0
7.777791334954145e6 -5.048261207235904e6 0.0
0.0 0.0 0.0

-3.5780597538069445e6 1.1463429426499119e7 0.0
1.1463429426499119e7 -403320.63843560056 0.0
0.0 0.0 0.0

-814361.1355064216 4.545718300025492e6 0.0
4.545718300025492e6 -1.3235930470910254e6 0.0
0.0 0.0 0.0

-4.0705220763026634e6 1.429870155852471e7 0.0
1.429870155852471e7 -1.7623513499695873e6 0.0
0.0 0.0 0.0

-1.19830255712792e6 4.293157537460205e6 0.0
4.293157537460205e6 -415026.5816865087 0.0
0.0 0.0 0.0

1.493248891349568e6 6.09724783660641e6 0.0
6.09724783660641e6 -6.664344624925361e6 0.0
0.0 0.0 0.0

1.055895606637334e6 6.213785106386141e6 0.0
6.213785106386141e6 -5.957255043279695e6 0.0
0.0 0.0 0.0

-1.211739083832303e6 7.59266112290416e6 0.0
7.59266112290416e6 -3.263254567699151e6 0.0
0.0 0.0 0.0

-2.0789061654973484e6 1.1179353871326823e7 0.0
1.1179353871326823e7 -2.5578828185826805e6 0.0
0.0 0.0 0.0

2.2725944893631507e6 6.793278224346803e6 0.0
6.793278224346803e6 -8.260359677333897e6 0.0
0.0 0.0 0.0

-4.199578670214051e6 9.385267193343014e6 0.0
9.385267193343014e6 2.571915648782876e6 0.0
0.0 0.0 0.0

-636750.8670174831 8.939329029000835e6 0.0
8.939329029000835e6 -4.581599904722892e6 0.0
0.0 0.0 0.0

-5.306727845854368e6 5.4967960841910895e6 0.0
5.4967960841910895e6 5.084944377608427e6 0.0
0.0 0.0 0.0

-4.7194534620924685e6 1.04670819817188e7 0.0
1.04670819817188e7 2.479895885767616e6 0.0
0.0 0.0 0.0

724168.8774683797 7.76314372427983e6 0.0
7.76314372427983e6 -5.677515513470695e6 0.0
0.0 0.0 0.0

-1.3177792282932889e7 1.7099957166041825e6 0.0
1.7099957166041825e6 8.550449498588398e6 0.0
0.0 0.0 0.0

1.7642162982731988e6 5.996989211061821e6 0.0
5.996989211061821e6 -6.966383452165147e6 0.0
0.0 0.0 0.0

1.4445630481179731e6 6.247922376154136e6 0.0
6.247922376154136e6 -5.787856162609635e6 0.0
0.0 0.0 0.0

-2.039269231572582e6 9.912927123075401e6 0.0
9.912927123075401e6 -2.3695282416896806e6 0.0
0.0 0.0 0.0

-4.355815446857565e6 -1.0907026270909896e6 0.0
-1.0907026270909896e6 1.1937260367068546e6 0.0
0.0 0.0 0.0

-641700.4954300768 5.5920589455464035e6 0.0
5.5920589455464035e6 -3.058141544014593e6 0.0
0.0 0.0 0.0

-8.29781521081618e6 5.499926055186913e6 0.0
5.499926055186913e6 1.288492093522375e7 0.0
0.0 0.0 0.0

-6.504938393741602e6 1.0392788525486486e7 0.0
1.0392788525486486e7 3.941305863669205e6 0.0
0.0 0.0 0.0

-7.527408602414859e6 1.052439012859236e7 0.0
1.052439012859236e7 4.613774362166179e6 0.0
0.0 0.0 0.0

-1.4166871309622065e6 4.681495253113628e6 0.0
4.681495253113628e6 -157176.0599915911 0.0
0.0 0.0 0.0

-1.063225694550401e7 5.92735317222476e6 0.0
5.92735317222476e6 2.1071502719573025e7 0.0
0.0 0.0 0.0

-6.646383193619821e6 1.0500009510149404e7 0.0
1.0500009510149404e7 4.0867918065569596e6 0.0
0.0 0.0 0.0

-1.8271818665888936e6 1.0640925749352505e7 0.0
1.0640925749352505e7 -13637.350504397415 0.0
0.0 0.0 0.0

671014.1162081766 9.102702102066921e6 0.0
9.102702102066921e6 -4.155155478096605e6 0.0
0.0 0.0 0.0

3.497457158000006e6 8.664582025459051e6 0.0
8.664582025459051e6 2.333310862836113e6 0.0
0.0 0.0 0.0

-1.2861740125507666e6 4.906473654553514e6 0.0
4.906473654553514e6 168885.9170941966 0.0
0.0 0.0 0.0

1.9238120180004402e6 5.957492976553854e6 0.0
5.957492976553854e6 -6.44466110535374e6 0.0
0.0 0.0 0.0

-2.4014617616950367e6 9.26556744466226e6 0.0
9.26556744466226e6 -1.7999272259584335e6 0.0
0.0 0.0 0.0

-2.024628792624465e6 6.234417482851234e6 0.0
6.234417482851234e6 -144859.54917352303 0.0
0.0 0.0 0.0

-7.7021723728616275e6 2.219154561222864e6 0.0
2.219154561222864e6 4.754473882510194e6 0.0
0.0 0.0 0.0

-2.334131323892462e6 978803.1074513046 0.0
978803.1074513046 3.3022129748645634e6 0.0
0.0 0.0 0.0

-2.663627992331176e7 1.5504483338888029e7 0.0
1.5504483338888029e7 2.7783320630261265e6 0.0
0.0 0.0 0.0

-1.7555497950208366e6 8.681614457614027e6 0.0
8.681614457614027e6 -5.851832534753856e6 0.0
0.0 0.0 0.0

537496.7592791364 1.0391885130509704e7 0.0
1.0391885130509704e7 1.7916563524566079e6 0.0
0.0 0.0 0.0

-245732.22038667952 8.71274418002956e6 0.0
8.71274418002956e6 -5.218647508205626e6 0.0
0.0 0.0 0.0

-9.294806899033895e6 6.198908500775672e6 0.0
6.198908500775672e6 5.804294086835176e6 0.0
0.0 0.0 0.0

-120158.62951363763 6.970213435313666e6 0.0
6.970213435313666e6 -4.2649812147676945e6 0.0
0.0 0.0 0.0

960690.4928129108 7.433311544470709e6 0.0
7.433311544470709e6 -5.7954242687227065e6 0.0
0.0 0.0 0.0

-3.9016743507687487e6 7.844671737665598e6 0.0
7.844671737665598e6 3.7275590404477185e6 0.0
0.0 0.0 0.0

170344.73364964547 7.930866803426088e6 0.0
7.930866803426088e6 -5.517298716215263e6 0.0
0.0 0.0 0.0

-6.837304584040937e6 1.0454841970190702e7 0.0
1.0454841970190702e7 4.198429836539534e6 0.0
0.0 0.0 0.0

-5.307645693767596e6 1.6815496675035253e6 0.0
1.6815496675035253e6 5.1285049917875035e6 0.0
0.0 0.0 0.0

-757621.4251967492 2.887112098482635e6 0.0
2.887112098482635e6 686139.6583939095 0.0
0.0 0.0 0.0

882229.8959296148 6.957528617835854e6 0.0
6.957528617835854e6 -6.054944673460208e6 0.0
0.0 0.0 0.0

-5.520110941670369e6 1.087365616024885e7 0.0
1.087365616024885e7 1.7812844689647064e6 0.0
0.0 0.0 0.0

-8.146155057822019e6 1.4080363156009953e7 0.0
1.4080363156009953e7 1.9965338285073931e6 0.0
0.0 0.0 0.0

-3.9771110569233415e6 6.314112470182058e6 0.0
6.314112470182058e6 4.418255314994547e6 0.0
0.0 0.0 0.0

1.2542964108508998e6 6.523090554958303e6 0.0
6.523090554958303e6 -6.545091577036085e6 0.0
0.0 0.0 0.0

2.10570763799549e6 6.919532897401482e6 0.0
6.919532897401482e6 -7.849245284023467e6 0.0
0.0 0.0 0.0

-1.2209865711783659e7 4.232776187581336e6 0.0
4.232776187581336e6 1.575456482030064e7 0.0
0.0 0.0 0.0

-3.192817711810018e6 1.8628766810386388e6 0.0
1.8628766810386388e6 4.1431669097746424e6 0.0
0.0 0.0 0.0

-4.728905574355401e6 1.391622962344873e7 0.0
1.391622962344873e7 -1.0324584561438656e6 0.0
0.0 0.0 0.0

-3.836747950676905e6 8.398356163346851e6 0.0
8.398356163346851e6 855070.3442428438 0.0
0.0 0.0 0.0

-5.379938178771993e6 1.2540000896820799e6 0.0
1.2540000896820799e6 7.594784678975891e6 0.0
0.0 0.0 0.0

978239.645015469 7.037351433497389e6 0.0
7.037351433497389e6 -4.804897205206281e6 0.0
0.0 0.0 0.0

-4.1929058059597826e6 8.310333818883881e6 0.0
8.310333818883881e6 1.2310988233991303e6 0.0
0.0 0.0 0.0

-6.678786860074908e6 9.818103768763497e6 0.0
9.818103768763497e6 1.3041663392889868e6 0.0
0.0 0.0 0.0

-1.2643492161788493e6 6.644360521593642e6 0.0
6.644360521593642e6 -941902.6390875881 0.0
0.0 0.0 0.0

1.6288901387892896e6 6.335718479277616e6 0.0
6.335718479277616e6 -6.258783483242121e6 0.0
0.0 0.0 0.0

-72364.60852029151 7.761977754420548e6 0.0
7.761977754420548e6 -5.068418070568182e6 0.0
0.0 0.0 0.0

-536025.0085506302 3.340159071106828e6 0.0
3.340159071106828e6 -1.0605494012909927e6 0.0
0.0 0.0 0.0

-1.896110130110439e6 3.7870152825866486e6 0.0
3.7870152825866486e6 1.163750006954284e6 0.0
0.0 0.0 0.0

789521.0899617183 8.470080530893823e6 0.0
8.470080530893823e6 -6.802290079757932e6 0.0
0.0 0.0 0.0

1.419562520742108e6 5.992855053215868e6 0.0
5.992855053215868e6 -5.626531951023117e6 0.0
0.0 0.0 0.0

-3.951746860234821e6 8.382480583586468e6 0.0
8.382480583586468e6 475104.1059536352 0.0
0.0 0.0 0.0

1.234784385224335e6 7.001967929115433e6 0.0
7.001967929115433e6 -5.892296437960859e6 0.0
0.0 0.0 0.0

-544609.8370751088 3.8241280140252896e6 0.0
3.8241280140252896e6 -412182.9134445699 0.0
0.0 0.0 0.0

-1.9051696887359654e6 9.467069874994239e6 0.0
9.467069874994239e6 -6.350565727063369e6 0.0
0.0 0.0 0.0

1.0214401258939508e6 1.1487295735597664e7 0.0
1.1487295735597664e7 3.404802155734628e6 0.0
0.0 0.0 0.0

725997.5135690733 8.3309481111704055e6 0.0
8.3309481111704055e6 -2.8655628057986684e6 0.0
0.0 0.0 0.0

-3.8891064730029553e6 -2.790480754937406e6 0.0
-2.790480754937406e6 3.080189806609609e6 0.0
0.0 0.0 0.0

-371134.3869807721 2.987306194137187e6 0.0
2.987306194137187e6 -412162.05892532226 0.0
0.0 0.0 0.0

1.2857499949679237e6 1.0685556077024268e7 0.0
1.0685556077024268e7 4.285830775670369e6 0.0
0.0 0.0 0.0

-287006.8176884648 6.562000742753819e6 0.0
6.562000742753819e6 -956689.3317468172 0.0
0.0 0.0 0.0

-1.1050416066058973e7 6.801227245483571e6 0.0
6.801227245483571e6 2.3821961209992122e7 0.0
0.0 0.0 0.0

1.065277448590911e6 6.75216185364759e6 0.0
6.75216185364759e6 -6.312114637899285e6 0.0
0.0 0.0 0.0

-3.8168594354729517e6 1.1534760260557577e7 0.0
1.1534760260557577e7 -1.1780806645252798e6 0.0
0.0 0.0 0.0

-459133.08837156766 8.964270306695439e6 0.0
8.964270306695439e6 -6.281178202132491e6 0.0
0.0 0.0 0.0

-6.000249466014524e6 1.0162611690960761e7 0.0
1.0162611690960761e7 3.5615133884585137e6 0.0
0.0 0.0 0.0

-2.9501727580522625e6 1.017165348206626e7 0.0
1.017165348206626e7 1.2506818450398806e6 0.0
0.0 0.0 0.0

-6.322022466758342e6 1.090397150350919e7 0.0
1.090397150350919e7 2.0652231237849025e6 0.0
0.0 0.0 0.0

-1.1842621373462942e6 9.499038485790262e6 0.0
9.499038485790262e6 -6.302686546074924e6 0.0
0.0 0.0 0.0

-5.1277751713487115e6 1.3501065373028152e7 0.0
1.3501065373028152e7 -466267.56403039885 0.0
0.0 0.0 0.0

-6.741883412482476e6 6.123265866953225e6 0.0
6.123265866953225e6 7.857512542873194e6 0.0
0.0 0.0 0.0

-102160.336283196 6.807727775772039e6 0.0
6.807727775772039e6 -3.998077597934766e6 0.0
0.0 0.0 0.0

1.0480935484547024e6 6.480513903603913e6 0.0
6.480513903603913e6 -6.149189589375805e6 0.0
0.0 0.0 0.0

-2.9583770704622716e6 1.1423659579021797e7 0.0
1.1423659579021797e7 -1.986246655902586e6 0.0
0.0 0.0 0.0

-1.9346848822192901e6 6.496188854730464e6 0.0
6.496188854730464e6 -1.377707520065961e6 0.0
0.0 0.0 0.0

944747.7392092394 7.605979103077965e6 0.0
7.605979103077965e6 -6.773321984797085e6 0.0
0.0 0.0 0.0

-5.616761828177468e6 9.853631550694508e6 0.0
9.853631550694508e6 3.3262231784971463e6 0.0
0.0 0.0 0.0

-2.3911950289611975e6 6.80977991159549e6 0.0
6.80977991159549e6 -40824.12927535514 0.0
0.0 0.0 0.0

-1.668903867943498e6 8.171316037331881e6 0.0
8.171316037331881e6 -2.4974897378643113e6 0.0
0.0 0.0 0.0

920896.1888066223 8.2000663056909125e6 0.0
8.2000663056909125e6 -6.514774654409652e6 0.0
0.0 0.0 0.0

-5.451745615552547e6 1.252095683719929e7 0.0
1.252095683719929e7 203648.852790419 0.0
0.0 0.0 0.0

-2.145357643541461e6 8.74402893107912e6 0.0
8.74402893107912e6 -2.0346479157605697e6 0.0
0.0 0.0 0.0

-84521.58312271652 7.272365915786204e6 0.0
7.272365915786204e6 -4.190737476362786e6 0.0
0.0 0.0 0.0

4.487583444814867e6 5.605111006896089e6 0.0
5.605111006896089e6 -1.2058638294726268e6 0.0
0.0 0.0 0.0

-3.199436766276122e6 7.970372405959608e6 0.0
7.970372405959608e6 971842.9669627086 0.0
0.0 0.0 0.0

-1.1556353632887132e6 6.59702714492234e6 0.0
6.59702714492234e6 -865097.5170119035 0.0
0.0 0.0 0.0

-1.018688079429609e6 2.155161180741909e6 0.0
2.155161180741909e6 329200.583667327 0.0
0.0 0.0 0.0

1.1819842195132985e6 5.552818407442757e6 0.0
5.552818407442757e6 -5.245174244327314e6 0.0
0.0 0.0 0.0

158891.1991418132 6.138373893354328e6 0.0
6.138373893354328e6 -4.152561585490339e6 0.0
0.0 0.0 0.0

1.0936915198388605e6 5.975553773829754e6 0.0
5.975553773829754e6 -5.095048801266461e6 0.0
0.0 0.0 0.0

-352117.9277283526 8.720163777252778e6 0.0
8.720163777252778e6 -5.742541044133758e6 0.0
0.0 0.0 0.0

-5.318988846055217e6 1.3022860380990865e7 0.0
1.3022860380990865e7 -77335.36159844417 0.0
0.0 0.0 0.0

-6.02250399738135e6 6.454562749650586e6 0.0
6.454562749650586e6 6.854448418361893e6 0.0
0.0 0.0 0.0

-3.435247368409913e6 8.012344262736756e6 0.0
8.012344262736756e6 921963.9381025445 0.0
0.0 0.0 0.0

811732.413861017 6.234811059444459e6 0.0
6.234811059444459e6 -5.523243387133144e6 0.0
0.0 0.0 0.0

-814063.2336340686 4.1349300343311206e6 0.0
4.1349300343311206e6 -972272.5309409539 0.0
0.0 0.0 0.0

-5.202296851309465e6 6.556225164318857e6 0.0
6.556225164318857e6 5.24737498210383e6 0.0
0.0 0.0 0.0

-1.4966574203601459e6 1.007574359310921e7 0.0
1.007574359310921e7 -2.8853408748965836e6 0.0
0.0 0.0 0.0

808016.7484745798 9.877658575313456e6 0.0
9.877658575313456e6 -4.1357688707432207e6 0.0
0.0 0.0 0.0

-5.977563641953233e6 1.0226081254774075e7 0.0
1.0226081254774075e7 3.5873203085281607e6 0.0
0.0 0.0 0.0

-321229.49228661694 8.840806184256047e6 0.0
8.840806184256047e6 -4.433869294307155e6 0.0
0.0 0.0 0.0

1.23390196283218e6 6.475467741119351e6 0.0
6.475467741119351e6 -5.530025227101432e6 0.0
0.0 0.0 0.0

919977.5508991787 6.465778566498342e6 0.0
6.465778566498342e6 -5.739820201544958e6 0.0
0.0 0.0 0.0

49930.6280832577 5.829992410238286e6 0.0
5.829992410238286e6 -3.881432023914137e6 0.0
0.0 0.0 0.0

892407.5239866036 6.70690360993702e6 0.0
6.70690360993702e6 -5.902777681258254e6 0.0
0.0 0.0 0.0

720282.2610990102 6.052711622601037e6 0.0
6.052711622601037e6 -4.400599304653847e6 0.0
0.0 0.0 0.0

-9.513093189471746e6 1.0129782964588543e7 0.0
1.0129782964588543e7 6.004237545789852e6 0.0
0.0 0.0 0.0

-5.60997326765755e6 1.4220445516125977e7 0.0
1.4220445516125977e7 -440169.8595217862 0.0
0.0 0.0 0.0

-3.439663759972862e6 1.007173447193151e7 0.0
1.007173447193151e7 1.5461122626331819e6 0.0
0.0 0.0 0.0

422252.65637618816 6.330817499398875e6 0.0
6.330817499398875e6 -4.8512342052801205e6 0.0
0.0 0.0 0.0

-3.0122400616181735e6 7.797817934826331e6 0.0
7.797817934826331e6 -725318.8301672932 0.0
0.0 0.0 0.0

-346191.12526509503 6.94779849703712e6 0.0
6.94779849703712e6 -2.9221903359464966e6 0.0
0.0 0.0 0.0

-2.1927354143315977e6 1.0113817647453232e7 0.0
1.0113817647453232e7 -7.309119484047399e6 0.0
0.0 0.0 0.0

2.9525003592825597e6 1.3941935860848438e7 0.0
1.3941935860848438e7 9.841680293348018e6 0.0
0.0 0.0 0.0

2.5465872824394437e6 1.0604271610237101e7 0.0
1.0604271610237101e7 -4.0920958023287132e6 0.0
0.0 0.0 0.0

4.257447325789267e6 1.0432461472503029e7 0.0
1.0432461472503029e7 -7.04029330639127e6 0.0
0.0 0.0 0.0

2.0323000358785712e6 7.270476835088526e6 0.0
7.270476835088526e6 -8.923513447716665e6 0.0
0.0 0.0 0.0

-1.1575525581533308e6 9.441122566949401e6 0.0
9.441122566949401e6 -3.244465662173345e6 0.0
0.0 0.0 0.0

-1.0883914260962517e6 1.0258129731256822e7 0.0
1.0258129731256822e7 851800.168556963 0.0
0.0 0.0 0.0

-7.1598563583256975e6 1.4859093641600495e6 0.0
1.4859093641600495e6 7.706656860249437e6 0.0
0.0 0.0 0.0

-7.179779745168611e6 5.730082415167703e6 0.0
5.730082415167703e6 1.0686611270956911e7 0.0
0.0 0.0 0.0

-1.652550299363469e6 1.0514872461661406e7 0.0
1.0514872461661406e7 635025.5818817221 0.0
0.0 0.0 0.0

-1.682176887842232e6 6.430691933768472e6 0.0
6.430691933768472e6 -1.281114821814693e6 0.0
0.0 0.0 0.0

-8.006974500876006e6 9.750922856569877e6 0.0
9.750922856569877e6 4.1280502239611577e6 0.0
0.0 0.0 0.0

-4.086490076913863e6 8.836051183600172e6 0.0
8.836051183600172e6 3.25219748976609e6 0.0
0.0 0.0 0.0

-1.9140170048702196e6 7.2297809477142375e6 0.0
7.2297809477142375e6 -394252.5175406636 0.0
0.0 0.0 0.0

-4.313468898101692e6 8.616548868984528e6 0.0
8.616548868984528e6 1.9436529766242409e6 0.0
0.0 0.0 0.0

1.889649891470265e6 6.941324899978274e6 0.0
6.941324899978274e6 -7.395704343603687e6 0.0
0.0 0.0 0.0

26350.641885721125 6.585254134436175e6 0.0
6.585254134436175e6 -4.262335955282817e6 0.0
0.0 0.0 0.0

-2.410342606323526e6 1.0013345615156574e7 0.0
1.0013345615156574e7 -2.1745979352618437e6 0.0
0.0 0.0 0.0

-248751.68821022357 7.849700832891038e6 0.0
7.849700832891038e6 -4.80427066776724e6 0.0
0.0 0.0 0.0

-9.26895554855976e6 1.9163419501766183e6 0.0
1.9163419501766183e6 1.2339327496189123e7 0.0
0.0 0.0 0.0

-860056.9104648262 3.759629149405447e6 0.0
3.759629149405447e6 -1.234372424801556e6 0.0
0.0 0.0 0.0

-1.058966859651861e7 918662.1173367787 0.0
918662.1173367787 1.7878596045333385e7 0.0
0.0 0.0 0.0

-2.7518617765443185e6 9.344202441409212e6 0.0
9.344202441409212e6 -1.9149882454099704e6 0.0
0.0 0.0 0.0

-3.734393441924152e6 1.0032183991466057e7 0.0
1.0032183991466057e7 1.995414896381334e6 0.0
0.0 0.0 0.0

-1.5951673215534685e6 6.6597276572480295e6 0.0
6.6597276572480295e6 -424622.31210898544 0.0
0.0 0.0 0.0

-4.20499021149453e6 1.2417085879950646e7 0.0
1.2417085879950646e7 -897242.8307281355 0.0
0.0 0.0 0.0

-853014.9031906247 6.220976428214548e6 0.0
6.220976428214548e6 -1.3413115219623477e6 0.0
0.0 0.0 0.0

-4.195463200633116e6 8.39936692399881e6 0.0
8.39936692399881e6 2.997824641430936e6 0.0
0.0 0.0 0.0

3.32592559271432e6 1.3447298531992026e7 0.0
1.3447298531992026e7 -8.83968633593314e6 0.0
0.0 0.0 0.0

-4.526096157174945e6 6.701675644971777e6 0.0
6.701675644971777e6 3.7456084042159e6 0.0
0.0 0.0 0.0

-416024.02148304565 3.4215361824682625e6 0.0
3.4215361824682625e6 -715436.9364877304 0.0
0.0 0.0 0.0

-8.994919168598501e6 -2.9412771136710136e6 0.0
-2.9412771136710136e6 3.030994056456425e6 0.0
0.0 0.0 0.0

1.1167379563869876e6 5.839279927743766e6 0.0
5.839279927743766e6 -5.875299752503696e6 0.0
0.0 0.0 0.0

-6.99648415387259e6 9.903726531500567e6 0.0
9.903726531500567e6 4.303379593151102e6 0.0
0.0 0.0 0.0

-735119.1660746781 4.184547885605899e6 0.0
4.184547885605899e6 -1.250483842533691e6 0.0
0.0 0.0 0.0

-1.7654327007156839e6 5.303749249897323e6 0.0
5.303749249897323e6 -1.0755118082281693e6 0.0
0.0 0.0 0.0

-960632.406310556 2.0724022719648688e6 0.0
2.0724022719648688e6 494405.91800176684 0.0
0.0 0.0 0.0

-1.1046951372486681e6 1.0306078182889355e7 0.0
1.0306078182889355e7 -3.495021635084415e6 0.0
0.0 0.0 0.0

-966028.3543921325 1.863540944181794e6 0.0
1.863540944181794e6 460733.8332580523 0.0
0.0 0.0 0.0

-1.7592086727716262e6 8.248036651248004e6 0.0
8.248036651248004e6 -2.958359354352876e6 0.0
0.0 0.0 0.0

-5.618069327417942e6 6.967796007089854e6 0.0
6.967796007089854e6 6.193575002671257e6 0.0
0.0 0.0 0.0

-1.2924122524895933e6 6.408320549386862e6 0.0
6.408320549386862e6 -771505.9648517943 0.0
0.0 0.0 0.0

-8.421487689255591e6 7.026632999065745e6 0.0
7.026632999065745e6 8.983049674530149e6 0.0
0.0 0.0 0.0

-2.387282373494706e6 5.790251788921885e6 0.0
5.790251788921885e6 1.1071031456695069e6 0.0
0.0 0.0 0.0

-4.48327462336468e6 8.559241737195896e6 0.0
8.559241737195896e6 1.5560533656986055e6 0.0
0.0 0.0 0.0

1.6440820876334286e6 7.103246376743916e6 0.0
7.103246376743916e6 -7.1593672753389785e6 0.0
0.0 0.0 0.0

-5.76379035004306e6 7.571421473589089e6 0.0
7.571421473589089e6 6.406839656924118e6 0.0
0.0 0.0 0.0

3.2066054596517924e6 8.547073811229756e6 0.0
8.547073811229756e6 -2.295439464726795e6 0.0
0.0 0.0 0.0

-5.075461073805772e6 -566388.7488848339 0.0
-566388.7488848339 5.202125239808822e6 0.0
0.0 0.0 0.0

950988.6440917584 8.041259902881098e6 0.0
8.041259902881098e6 -6.434809751925578e6 0.0
0.0 0.0 0.0

-1.9026905850650535e6 7.132638842058418e6 0.0
7.132638842058418e6 -353293.4466408825 0.0
0.0 0.0 0.0

-127673.76115469448 6.96743725445445e6 0.0
6.96743725445445e6 -4.102309278712882e6 0.0
0.0 0.0 0.0

-506463.33842385764 3.92579929793604e6 0.0
3.92579929793604e6 -767476.3568908691 0.0
0.0 0.0 0.0

-983662.785047605 2.9346623885226473e6 0.0
2.9346623885226473e6 -84114.93620046918 0.0
0.0 0.0 0.0

-953644.563684415 8.000085235726858e6 0.0
8.000085235726858e6 -3.8645276015938343e6 0.0
0.0 0.0 0.0

-808480.8240541331 4.480397236899906e6 0.0
4.480397236899906e6 -276726.80550821923 0.0
0.0 0.0 0.0

-3.9284176751805134e6 1.0017541321792997e7 0.0
1.0017541321792997e7 1.9454902216707086e6 0.0
0.0 0.0 0.0

-5.409493392449029e6 6.902751621681197e6 0.0
6.902751621681197e6 6.142586864728444e6 0.0
0.0 0.0 0.0

-595687.876283803 2.941160065783172e6 0.0
2.941160065783172e6 -1.6363980616914667e6 0.0
0.0 0.0 0.0

-2.638985376010603e6 9.55224466748747e6 0.0
9.55224466748747e6 -1.585511590143235e6 0.0
0.0 0.0 0.0

203717.98756281403 6.510552992751369e6 0.0
6.510552992751369e6 -4.5218974829850225e6 0.0
0.0 0.0 0.0

-5.878131465187786e6 1.1009153244277202e7 0.0
1.1009153244277202e7 1.4239547696122853e6 0.0
0.0 0.0 0.0

625433.7698705373 9.398308761348959e6 0.0
9.398308761348959e6 -8.65804045313978e6 0.0
0.0 0.0 0.0

2.0892426747172223e6 7.511054983958434e6 0.0
7.511054983958434e6 -4.909093730191095e6 0.0
0.0 0.0 0.0

274232.5522432532 6.059862382204024e6 0.0
6.059862382204024e6 -4.710431387818575e6 0.0
0.0 0.0 0.0

-183650.91826249287 8.904217503703162e6 0.0
8.904217503703162e6 -5.582825512010591e6 0.0
0.0 0.0 0.0

-869130.7687063878 3.43924651192757e6 0.0
3.43924651192757e6 -1.312091686729445e6 0.0
0.0 0.0 0.0

-1.340237201856549e6 9.785293772367412e6 0.0
9.785293772367412e6 -6.7919042369655855e6 0.0
0.0 0.0 0.0

993812.9159608698 4.588725386255217e6 0.0
4.588725386255217e6 -3.9927870666197515e6 0.0
0.0 0.0 0.0

76484.04197767889 7.177428491254936e6 0.0
7.177428491254936e6 -4.543461965018928e6 0.0
0.0 0.0 0.0

-786835.666560055 1.0270889120986562e7 0.0
1.0270889120986562e7 -763566.5654520846 0.0
0.0 0.0 0.0

-9.814904120337078e6 3.574591871204736e6 0.0
3.574591871204736e6 1.1604938016599666e7 0.0
0.0 0.0 0.0

-6.435652410654336e6 1.020338231351194e7 0.0
1.020338231351194e7 3.686702533991976e6 0.0
0.0 0.0 0.0

-4.0272942676317003e6 306402.8751871014 0.0
306402.8751871014 2.2654342607535976e6 0.0
0.0 0.0 0.0

-468918.36411284364 7.885880488055898e6 0.0
7.885880488055898e6 -4.488511461639252e6 0.0
0.0 0.0 0.0

-1.1201606558144756e6 9.987738605782067e6 0.0
9.987738605782067e6 1.5646520563059403e6 0.0
0.0 0.0 0.0

-5.511087571274485e6 1.1120701348983744e7 0.0
1.1120701348983744e7 858627.4590520889 0.0
0.0 0.0 0.0

-1.5455907258155798e6 6.390590505916448e6 0.0
6.390590505916448e6 -2.2523672919384753e6 0.0
0.0 0.0 0.0

-4.828299750443961e6 1.2072594180784525e7 0.0
1.2072594180784525e7 -259073.6626227654 0.0
0.0 0.0 0.0

-1.3789186279880512e6 6.765344965701359e6 0.0
6.765344965701359e6 -2.2666624819334843e6 0.0
0.0 0.0 0.0

-252475.13006923412 2.561055370274287e6 0.0
2.561055370274287e6 -994219.796368227 0.0
0.0 0.0 0.0

-2.760811022725523e6 9.518702422067685e6 0.0
9.518702422067685e6 -1.9841737534074446e6 0.0
0.0 0.0 0.0

-7.905849847487907e6 1.8317485853788424e7 0.0
1.8317485853788424e7 925728.8033013642 0.0
0.0 0.0 0.0

-334407.24447542767 1.207327843738329e7 0.0
1.207327843738329e7 -3.7651694373634635e6 0.0
0.0 0.0 0.0

-1.335027887313866e6 9.76745264492138e6 0.0
9.76745264492138e6 -3.06051120169521e6 0.0
0.0 0.0 0.0

-2.16707700607464e6 6.720883693686392e6 0.0
6.720883693686392e6 81841.77501768328 0.0
0.0 0.0 0.0

-2.7563141079382855e6 6.889173941631437e6 0.0
6.889173941631437e6 -152770.22725296952 0.0
0.0 0.0 0.0

1.2557694626804567e6 5.542525552658474e6 0.0
5.542525552658474e6 -5.715309204192566e6 0.0
0.0 0.0 0.0

4.755023376898191e6 909320.0109911228 0.0
909320.0109911228 -7.4857692728359215e6 0.0
0.0 0.0 0.0

-1.5229539442732502e6 4.338465804118415e6 0.0
4.338465804118415e6 -1.3550977064053637e6 0.0
0.0 0.0 0.0

-3.1144142952290177e6 1.0389014731107164e7 0.0
1.0389014731107164e7 190188.86292731587 0.0
0.0 0.0 0.0

131069.28213425237 7.112145594364563e6 0.0
7.112145594364563e6 -4.202428662643134e6 0.0
0.0 0.0 0.0

-2.026630218323146e6 8.418759185286138e6 0.0
8.418759185286138e6 -2.590768295170551e6 0.0
0.0 0.0 0.0

-1.0060301470430177e6 1.0371055747282196e7 0.0
1.0371055747282196e7 503146.5256057209 0.0
0.0 0.0 0.0

61278.43528636871 7.733750879077718e6 0.0
7.733750879077718e6 -4.622358244352681e6 0.0
0.0 0.0 0.0

-677779.9085021365 4.510786055010916e6 0.0
4.510786055010916e6 -434741.23927297816 0.0
0.0 0.0 0.0

-1.2993137638609137e7 6.705251771224174e6 0.0
6.705251771224174e6 4.429115295653765e6 0.0
0.0 0.0 0.0

511880.95346634975 7.849253795925759e6 0.0
7.849253795925759e6 -5.394828175111596e6 0.0
0.0 0.0 0.0

-1.2900584834092252e7 -4.968692530941073e6 0.0
-4.968692530941073e6 7.150980587457605e6 0.0
0.0 0.0 0.0

108179.5688300617 7.029550745077791e6 0.0
7.029550745077791e6 -4.1176112062228112e6 0.0
0.0 0.0 0.0

-3.001483642903339e6 9.417097654519565e6 0.0
9.417097654519565e6 3.259708180379292e6 0.0
0.0 0.0 0.0

703812.3842822635 8.49944450846105e6 0.0
8.49944450846105e6 -6.574350295959592e6 0.0
0.0 0.0 0.0

113071.83530154754 8.910964359002102e6 0.0
8.910964359002102e6 -5.294828407734302e6 0.0
0.0 0.0 0.0

-596686.3739552925 4.830964217089323e6 0.0
4.830964217089323e6 -830196.0022278585 0.0
0.0 0.0 0.0

-2.3350318473192253e6 3.1279396931373426e6 0.0
3.1279396931373426e6 1.3439434433261086e6 0.0
0.0 0.0 0.0

-1.9748546832116374e6 6.085155167841574e6 0.0
6.085155167841574e6 -1.0052105030168539e6 0.0
0.0 0.0 0.0

-2.0668275356526515e6 6.891309275497094e6 0.0
6.891309275497094e6 -54032.7548251414 0.0
0.0 0.0 0.0

-4.667774564252617e6 2.009537003021142e6 0.0
2.009537003021142e6 4.268304597720012e6 0.0
0.0 0.0 0.0

-1.6218113111496465e6 5.99534405017059e6 0.0
5.99534405017059e6 -877188.9502705005 0.0
0.0 0.0 0.0

-2.527100874065441e6 9.188699054225031e6 0.0
9.188699054225031e6 -2.2046635621027164e6 0.0
0.0 0.0 0.0

-2.643239792592291e6 9.319516472450765e6 0.0
9.319516472450765e6 -1.5447307942813062e6 0.0
0.0 0.0 0.0

-2.9215766763887834e6 9.839860682748863e6 0.0
9.839860682748863e6 -1.8732413047127272e6 0.0
0.0 0.0 0.0

-1.4790302890972942e6 8.086436579515591e6 0.0
8.086436579515591e6 -3.2535015926610134e6 0.0
0.0 0.0 0.0

-88197.380578198 6.345875153831013e6 0.0
6.345875153831013e6 -3.9593089196006833e6 0.0
0.0 0.0 0.0

493677.9233133744 8.911499455902928e6 0.0
8.911499455902928e6 -4.322612376980679e6 0.0
0.0 0.0 0.0

-2.710770568276896e6 9.11682682789605e6 0.0
9.11682682789605e6 -1.8778645724224544e6 0.0
0.0 0.0 0.0

-1.5804965289453114e6 6.613211101484781e6 0.0
6.613211101484781e6 -1.920036358228808e6 0.0
0.0 0.0 0.0

-593151.3349793201 4.608055303713427e6 0.0
4.608055303713427e6 -549281.1316739875 0.0
0.0 0.0 0.0

-1.2213799123348931e6 8.044255898223954e6 0.0
8.044255898223954e6 -3.5711957763638957e6 0.0
0.0 0.0 0.0

-2.022249826110131e6 9.782597671115637e6 0.0
9.782597671115637e6 -6.740832561293025e6 0.0
0.0 0.0 0.0

-641721.9249067882 4.938574388070831e6 0.0
4.938574388070831e6 -777603.4941293233 0.0
0.0 0.0 0.0

-48852.339202961186 6.723103016229556e6 0.0
6.723103016229556e6 -4.0116864621863514e6 0.0
0.0 0.0 0.0

-557686.1442968594 2.558898158762835e6 0.0
2.558898158762835e6 -3.00378206522571e6 0.0
0.0 0.0 0.0

750200.8544104416 9.140982181786336e6 0.0
9.140982181786336e6 -8.175592940568245e6 0.0
0.0 0.0 0.0

-2.32444605075613e6 7.473553651692962e6 0.0
7.473553651692962e6 19095.323579875636 0.0
0.0 0.0 0.0

-58521.33846251364 7.096163208025458e6 0.0
7.096163208025458e6 -4.22236444084433e6 0.0
0.0 0.0 0.0

-1.7007964978019493e6 4.370550423933263e6 0.0
4.370550423933263e6 470337.91397502914 0.0
0.0 0.0 0.0

-6.822298439483857e6 -882357.2155861635 0.0
-882357.2155861635 9.792126527878629e6 0.0
0.0 0.0 0.0

-483303.8987140141 1.0246570612333562e7 0.0
1.0246570612333562e7 -671943.8808286991 0.0
0.0 0.0 0.0

-116698.33471647665 9.524892914240014e6 0.0
9.524892914240014e6 -913191.1944515278 0.0
0.0 0.0 0.0

-3.8416849941650676e6 1.019613425355513e7 0.0
1.019613425355513e7 1.958324211841987e6 0.0
0.0 0.0 0.0

-3.6937603413007115e6 7.914098638934251e6 0.0
7.914098638934251e6 1.0837983394672163e6 0.0
0.0 0.0 0.0

1.8777679248058526e6 6.243491145930677e6 0.0
6.243491145930677e6 -6.560915872930982e6 0.0
0.0 0.0 0.0

1.8726989188543004e6 6.478622284809351e6 0.0
6.478622284809351e6 -6.675711066739267e6 0.0
0.0 0.0 0.0

-3.1004295904065883e6 4.263934576665932e6 0.0
4.263934576665932e6 3.1214904905129494e6 0.0
0.0 0.0 0.0

-2.270591588665194e6 8.860339671861691e6 0.0
8.860339671861691e6 -2.4391267328397785e6 0.0
0.0 0.0 0.0

2.626127514132759e6 9.666130112670625e6 0.0
9.666130112670625e6 -4.244031988598787e6 0.0
0.0 0.0 0.0

-1.1049854657857787e7 -1.8814996992039415e6 0.0
-1.8814996992039415e6 1.4821105589984097e7 0.0
0.0 0.0 0.0

-3.067333637015931e6 7.991258034288841e6 0.0
7.991258034288841e6 785368.2427455809 0.0
0.0 0.0 0.0

-2.411894809140898e6 7.496779663341331e6 0.0
7.496779663341331e6 -1.6311575422999156e6 0.0
0.0 0.0 0.0

-1.112261676022005e7 7.836812284078188e6 0.0
7.836812284078188e6 1.5815496017390884e7 0.0
0.0 0.0 0.0

-45252.580652215984 1.3534428711470845e6 0.0
1.3534428711470845e6 -1.7359612316927137e6 0.0
0.0 0.0 0.0

-4.0115043588179355e6 9.492581983180998e6 0.0
9.492581983180998e6 -254203.21079326677 0.0
0.0 0.0 0.0

-4.47724408429057e6 8.519487098513786e6 0.0
8.519487098513786e6 5.234027948510958e6 0.0
0.0 0.0 0.0

-103998.30341513734 6.907092187465968e6 0.0
6.907092187465968e6 -4.312811737465793e6 0.0
0.0 0.0 0.0

-1.7226981876436176e6 5.45850925284801e6 0.0
5.45850925284801e6 -1.2074054850857044e6 0.0
0.0 0.0 0.0

-8.81234706684082e6 5.541403805967763e6 0.0
5.541403805967763e6 1.2855535503928212e7 0.0
0.0 0.0 0.0

1.225713240416693e6 7.492952762531849e6 0.0
7.492952762531849e6 -6.596664718317684e6 0.0
0.0 0.0 0.0

-1.0472274445995822e6 9.682961865640761e6 0.0
9.682961865640761e6 -3.4310354820671184e6 0.0
0.0 0.0 0.0

-2.961868874513018e6 367216.9186830514 0.0
367216.9186830514 4.045243535523504e6 0.0
0.0 0.0 0.0

1.0052206962248599e6 7.8332036532852e6 0.0
7.8332036532852e6 -6.366767250367827e6 0.0
0.0 0.0 0.0

-42442.55582745583 4.649593359787585e6 0.0
4.649593359787585e6 -2.358984076714119e6 0.0
0.0 0.0 0.0

1.0308721517358036e6 7.193362970722278e6 0.0
7.193362970722278e6 -5.6767223337233905e6 0.0
0.0 0.0 0.0

-1.525035923369572e6 7.5723894009394385e6 0.0
7.5723894009394385e6 -2.81057228271996e6 0.0
0.0 0.0 0.0

-2.0324955390313114e6 8.515229104788797e6 0.0
8.515229104788797e6 -2.6522031024332414e6 0.0
0.0 0.0 0.0

-3.4013815972546376e6 1.970731054915632e6 0.0
1.970731054915632e6 3.1425713710966427e6 0.0
0.0 0.0 0.0

1.5040424392423315e6 8.320675502923408e6 0.0
8.320675502923408e6 -1.6993274442607078e6 0.0
0.0 0.0 0.0

-595650.3430481467 4.602131166619951e6 0.0
4.602131166619951e6 -605475.4716791329 0.0
0.0 0.0 0.0

-516964.7708012295 8.955143776230631e6 0.0
8.955143776230631e6 -4.177877758229266e6 0.0
0.0 0.0 0.0

-705196.8889838753 3.441564408794535e6 0.0
3.441564408794535e6 -708059.4179585824 0.0
0.0 0.0 0.0

58306.057013600715 1.9857724190120858e6 0.0
1.9857724190120858e6 -3.13042706242234e6 0.0
0.0 0.0 0.0

-1.9157155027573917e6 8.234949991769603e6 0.0
8.234949991769603e6 -2.592513357036365e6 0.0
0.0 0.0 0.0

-125130.38971969602 6.739511390053164e6 0.0
6.739511390053164e6 -3.669996435292832e6 0.0
0.0 0.0 0.0

-1.1907469634064361e6 3.068068083634384e6 0.0
3.068068083634384e6 236794.14729719318 0.0
0.0 0.0 0.0

2.3001554691469204e6 6.244684883826744e6 0.0
6.244684883826744e6 -8.246929682683692e6 0.0
0.0 0.0 0.0

-429671.40628107515 9.440045454111245e6 0.0
9.440045454111245e6 -1.4322379954234716e6 0.0
0.0 0.0 0.0

-1.6694286279282437e6 4.964693638435949e6 0.0
4.964693638435949e6 115938.72786942183 0.0
0.0 0.0 0.0

-3.9389705559631e6 9.980910653841842e6 0.0
9.980910653841842e6 1.4265486562722852e6 0.0
0.0 0.0 0.0

214208.79879019607 8.056173388989589e6 0.0
8.056173388989589e6 448171.92218339926 0.0
0.0 0.0 0.0

-5.269420943672687e6 7.398049398460021e6 0.0
7.398049398460021e6 5.6684741850863695e6 0.0
0.0 0.0 0.0

-3.9306716093023573e6 7.543627468285942e6 0.0
7.543627468285942e6 3.98779073808745e6 0.0
0.0 0.0 0.0

-2.0052186272379681e6 46274.49004368244 0.0
46274.49004368244 1.4416994247275854e6 0.0
0.0 0.0 0.0

-1.775361758554882e6 5.844835689214251e6 0.0
5.844835689214251e6 -286502.89806198055 0.0
0.0 0.0 0.0

-330045.83927074284 1.0517105486426983e7 0.0
1.0517105486426983e7 3.712889061930564e6 0.0
0.0 0.0 0.0

-2.50936757596758e6 1.0342601204663632e7 0.0
1.0342601204663632e7 1.6360579771554281e6 0.0
0.0 0.0 0.0

-1.847030347216336e6 3.5150083213412208e6 0.0
3.5150083213412208e6 802719.6959998523 0.0
0.0 0.0 0.0

-473865.66545632156 8.626973140791375e6 0.0
8.626973140791375e6 -4.7870306986355735e6 0.0
0.0 0.0 0.0

756538.6340539628 7.354247034271425e6 0.0
7.354247034271425e6 -4.376592129827311e6 0.0
0.0 0.0 0.0

-1.8640800735376508e6 8.751097709022915e6 0.0
8.751097709022915e6 -2.273771793610391e6 0.0
0.0 0.0 0.0

-1.6167355835536467e6 5.49443724810316e6 0.0
5.49443724810316e6 -449971.65285353694 0.0
0.0 0.0 0.0

4.790156338601673e6 2.3529564088099245e6 0.0
2.3529564088099245e6 -7.873370515610592e6 0.0
0.0 0.0 0.0

-4.1306026914578616e6 9.396734388275143e6 0.0
9.396734388275143e6 206918.6827178828 0.0
0.0 0.0 0.0

-7.793487233222162e6 323950.32792745245 0.0
323950.32792745245 9.654870130231474e6 0.0
0.0 0.0 0.0

-3.7826077691309853e6 514284.4764261928 0.0
514284.4764261928 5.631221009131162e6 0.0
0.0 0.0 0.0

-9.759647059801511e6 2.6067808162317327e6 0.0
2.6067808162317327e6 1.157812928856894e7 0.0
0.0 0.0 0.0

-3.502272294047669e6 1.0030840208983632e7 0.0
1.0030840208983632e7 -1.215786633874694e6 0.0
0.0 0.0 0.0

-1.1422927117111848e6 3.3164598768283105e6 0.0
3.3164598768283105e6 -2.248710492057077e6 0.0
0.0 0.0 0.0

2.170397964109122e6 8.70433232768649e6 0.0
8.70433232768649e6 964097.5143291522 0.0
0.0 0.0 0.0

366258.75349039887 1.3852825437116189e7 0.0
1.3852825437116189e7 7.476165410988272e6 0.0
0.0 0.0 0.0

573937.4717952351 7.594732338793697e6 0.0
7.594732338793697e6 -4.764199341157823e6 0.0
0.0 0.0 0.0

-804037.603179281 4.1043616694648424e6 0.0
4.1043616694648424e6 -96780.51521051419 0.0
0.0 0.0 0.0

-1.9860610936113945e6 6.190202944140127e6 0.0
6.190202944140127e6 -86057.22103668214 0.0
0.0 0.0 0.0

-4.1200119457218526e6 8.133565579327007e6 0.0
8.133565579327007e6 2.7139869120513676e6 0.0
0.0 0.0 0.0

1.8136893836357556e6 6.737479059039081e6 0.0
6.737479059039081e6 -7.212565266477077e6 0.0
0.0 0.0 0.0

1.414229881939827e6 6.767773000355203e6 0.0
6.767773000355203e6 -6.124912416354774e6 0.0
0.0 0.0 0.0

-1.1326044479454837e6 3.841073529099046e6 0.0
3.841073529099046e6 -1.4118461008555703e6 0.0
0.0 0.0 0.0

-3.36390873181886e6 8.234823668647235e6 0.0
8.234823668647235e6 1.0821138941403783e6 0.0
0.0 0.0 0.0

-9.107791262203159e6 8.390864779343568e6 0.0
8.390864779343568e6 1.534429438835687e7 0.0
0.0 0.0 0.0

-2.0815183186815402e6 9.09383180333993e6 0.0
9.09383180333993e6 -2.0653533063916485e6 0.0
0.0 0.0 0.0

-1.0544384635085624e6 4.370059988487536e6 0.0
4.370059988487536e6 -640501.955564813 0.0
0.0 0.0 0.0

1.6045966372527368e6 6.592464495343106e6 0.0
6.592464495343106e6 -6.372799670505274e6 0.0
0.0 0.0 0.0

-3.9341088063284e6 8.575380553616112e6 0.0
8.575380553616112e6 1.761335648740756e6 0.0
0.0 0.0 0.0

-85863.25494151725 6.362936128768394e6 0.0
6.362936128768394e6 -4.333752251741729e6 0.0
0.0 0.0 0.0

-1.5750533740780652e6 1.8998975379247812e6 0.0
1.8998975379247812e6 -69761.20425562363 0.0
0.0 0.0 0.0

-1.76778361503292e6 8.110216373670325e6 0.0
8.110216373670325e6 -2.830733950939585e6 0.0
0.0 0.0 0.0

-553530.1841161147 1.8655049790190866e6 0.0
1.8655049790190866e6 -1.8013241618893933e6 0.0
0.0 0.0 0.0

-1.4863943301833712e6 5.086370608498316e6 0.0
5.086370608498316e6 -567546.6217914482 0.0
0.0 0.0 0.0

-1.3134666037155902e6 4.549419700758581e6 0.0
4.549419700758581e6 -677823.9473310029 0.0
0.0 0.0 0.0

-1.7827260007734434e6 7.851751453938596e6 0.0
7.851751453938596e6 -2.584477690891582e6 0.0
0.0 0.0 0.0

-1.9589029643221786e6 5.856852099935813e6 0.0
5.856852099935813e6 -952255.3292282233 0.0
0.0 0.0 0.0

-3.26520054340695e6 2.3145484763702126e6 0.0
2.3145484763702126e6 2.644967850945262e6 0.0
0.0 0.0 0.0

-9.438281369763492e6 5.283657797656513e6 0.0
5.283657797656513e6 1.5329761631601812e7 0.0
0.0 0.0 0.0

-1.0456051588582871e7 2.7618537760925884e6 0.0
2.7618537760925884e6 1.2854083819962263e7 0.0
0.0 0.0 0.0

-9.172546259526506e6 5.449481992830449e6 0.0
5.449481992830449e6 1.402124920110641e7 0.0
0.0 0.0 0.0

-1.3776085975676196e7 -258963.3503387125 0.0
-258963.3503387125 2.15117926824427e7 0.0
0.0 0.0 0.0

-973125.8759102756 1.0449560475463765e7 0.0
1.0449560475463765e7 262745.86641542125 0.0
0.0 0.0 0.0

-1.1146872670496995e7 -740118.6933792526 0.0
-740118.6933792526 1.3828400420208987e7 0.0
0.0 0.0 0.0

-3.750963400885253e6 8.364437965475705e6 0.0
8.364437965475705e6 94182.39977307734 0.0
0.0 0.0 0.0

253419.39311635797 9.313387913270058e6 0.0
9.313387913270058e6 -4.855832589961712e6 0.0
0.0 0.0 0.0

-1.853369388164232e7 1.1727145774301054e7 0.0
1.1727145774301054e7 2.2701588940262888e6 0.0
0.0 0.0 0.0

211915.89395229775 7.178823737763809e6 0.0
7.178823737763809e6 -4.650718214001757e6 0.0
0.0 0.0 0.0

-137793.4908770013 7.801459880889901e6 0.0
7.801459880889901e6 -4.384775920157349e6 0.0
0.0 0.0 0.0

-4.333808878751101e6 9.20540570240027e6 0.0
9.20540570240027e6 449287.1642687153 0.0
0.0 0.0 0.0

-4.014278914068695e6 8.444636920055639e6 0.0
8.444636920055639e6 1.7358209974815634e6 0.0
0.0 0.0 0.0

1.0438833255759543e6 6.948099164278061e6 0.0
6.948099164278061e6 -5.512963289368065e6 0.0
0.0 0.0 0.0

2.7332574175769845e6 1.2314878011654465e7 0.0
1.2314878011654465e7 -6.519092281312533e6 0.0
0.0 0.0 0.0

-1.7857015898103276e6 5.242204693940137e6 0.0
5.242204693940137e6 -824391.1222825618 0.0
0.0 0.0 0.0

2.0405957606203882e6 7.026802571269495e6 0.0
7.026802571269495e6 -8.619760064303178e6 0.0
0.0 0.0 0.0

-1.6623698107044045e6 4.766983137106979e6 0.0
4.766983137106979e6 -1.045882115683377e6 0.0
0.0 0.0 0.0

235728.4419368268 6.874017440224308e6 0.0
6.874017440224308e6 -4.133722189248612e6 0.0
0.0 0.0 0.0

-4.878837974047104e6 7.521055269167831e6 0.0
7.521055269167831e6 5.106179574402292e6 0.0
0.0 0.0 0.0

-1.1539512715083493e7 8.955460153697925e6 0.0
8.955460153697925e6 1.8086301970251906e6 0.0
0.0 0.0 0.0

-881275.7886566923 2.153985723656476e6 0.0
2.153985723656476e6 346880.33550140023 0.0
0.0 0.0 0.0

-2.306780972283319e6 9.418127922647053e6 0.0
9.418127922647053e6 -1.8401918087082398e6 0.0
0.0 0.0 0.0

-8.562153572373336e6 5.692125872204878e6 0.0
5.692125872204878e6 6.237173153793305e6 0.0
0.0 0.0 0.0

1.6907683939620212e6 6.634863052454076e6 0.0
6.634863052454076e6 -4.9834756108725285e6 0.0
0.0 0.0 0.0

-1.5377277694014325e6 4.724568781351165e6 0.0
4.724568781351165e6 513363.6656455606 0.0
0.0 0.0 0.0

-1.9191461156638335e6 8.4584606527882e6 0.0
8.4584606527882e6 -2.2426080963624865e6 0.0
0.0 0.0 0.0

-1.8209787026449195e6 6.674192337269558e6 0.0
6.674192337269558e6 -1.3304471014898284e6 0.0
0.0 0.0 0.0

-1.9327480834785819e6 5.611526157026986e6 0.0
5.611526157026986e6 -632928.3364004261 0.0
0.0 0.0 0.0

-9.304018276294786e6 2.2940668870600336e6 0.0
2.2940668870600336e6 1.1120007843849005e7 0.0
0.0 0.0 0.0

1.658319949193962e6 5.85255937105742e6 0.0
5.85255937105742e6 -6.010045620053459e6 0.0
0.0 0.0 0.0

769807.56981671 7.552013726552542e6 0.0
7.552013726552542e6 -4.211890382506003e6 0.0
0.0 0.0 0.0

-3.913314383285611e6 8.595422484527994e6 0.0
8.595422484527994e6 1.5560933727853757e6 0.0
0.0 0.0 0.0

-663265.4577455132 4.8923430153188035e6 0.0
4.8923430153188035e6 -1.3753843892905992e6 0.0
0.0 0.0 0.0

-1.5157255507364525e6 6.98852547354746e6 0.0
6.98852547354746e6 -2.743506061048212e6 0.0
0.0 0.0 0.0

647918.5024748656 6.492121321251358e6 0.0
6.492121321251358e6 -4.580873021843346e6 0.0
0.0 0.0 0.0

-8.114375255108241e6 634573.3066581811 0.0
634573.3066581811 9.790649184221942e6 0.0
0.0 0.0 0.0

-987679.1397827121 1.0556123724947894e7 0.0
1.0556123724947894e7 46762.94265883212 0.0
0.0 0.0 0.0

-991959.637382912 3.3801375260565914e6 0.0
3.3801375260565914e6 30818.373254635022 0.0
0.0 0.0 0.0

750461.5449695634 8.147817534225528e6 0.0
8.147817534225528e6 -6.194023414277228e6 0.0
0.0 0.0 0.0

-536351.6453810644 9.756278842470493e6 0.0
9.756278842470493e6 -4.773029210682775e6 0.0
0.0 0.0 0.0

-1.6240126758541253e6 5.2692103348872475e6 0.0
5.2692103348872475e6 24779.081421196228 0.0
0.0 0.0 0.0

-86108.7738389438 8.918025862201389e6 0.0
8.918025862201389e6 -4.873232977973997e6 0.0
0.0 0.0 0.0

-1.3502190442169448e6 8.144506049027795e6 0.0
8.144506049027795e6 -2.7922506860713447e6 0.0
0.0 0.0 0.0

194174.64944441942 830042.5708264126 0.0
830042.5708264126 -1.9304090801455355e6 0.0
0.0 0.0 0.0

-937890.6888940837 3.224955001566731e6 0.0
3.224955001566731e6 -305759.37007031194 0.0
0.0 0.0 0.0

-1.2306727578764043e6 5.959971521608747e6 0.0
5.959971521608747e6 -2.7961278485109988e6 0.0
0.0 0.0 0.0

-967215.9715902571 5.62700036123675e6 0.0
5.62700036123675e6 -3.0929458896568245e6 0.0
0.0 0.0 0.0

-1.902403142531272e6 8.633931272863857e6 0.0
8.633931272863857e6 -2.252740062891863e6 0.0
0.0 0.0 0.0

-1.0338829761151406e6 1.064170388359968e7 0.0
1.064170388359968e7 -134000.37400891812 0.0
0.0 0.0 0.0

-408082.74120404094 5.705887742775421e6 0.0
5.705887742775421e6 -3.6464364504362093e6 0.0
0.0 0.0 0.0

899031.7411504267 8.662439303250553e6 0.0
8.662439303250553e6 -7.667804586867202e6 0.0
0.0 0.0 0.0

-719363.1476994101 5.0904975590743655e6 0.0
5.0904975590743655e6 -1.3097935594600786e6 0.0
0.0 0.0 0.0

-1.3050206920302901e6 9.219358467678621e6 0.0
9.219358467678621e6 -6.412932173106129e6 0.0
0.0 0.0 0.0

-3.3457854647001397e7 -1.5321734193413227e6 0.0
-1.5321734193413227e6 1.1009049641635844e7 0.0
0.0 0.0 0.0

2.3009872799753662e7 8.604487506209075e6 0.0
8.604487506209075e6 -3.554108339351815e6 0.0
0.0 0.0 0.0

793638.296311113 8.879058219221584e6 0.0
8.879058219221584e6 -8.027313370387969e6 0.0
0.0 0.0 0.0

-2.4587928386254422e6 6.106092239894989e6 0.0
6.106092239894989e6 1.5217058737349277e6 0.0
0.0 0.0 0.0

-3.282792337117434e6 7.37854012131939e6 0.0
7.37854012131939e6 437166.31407530885 0.0
0.0 0.0 0.0

-1.4670536371705693e6 6.276490965723876e6 0.0
6.276490965723876e6 -2.54833003643327e6 0.0
0.0 0.0 0.0

-685033.9593857503 1.9137147263368133e6 0.0
1.9137147263368133e6 -2.7735082791819638e6 0.0
0.0 0.0 0.0

-252172.7249278032 2.4732952736853417e6 0.0
2.4732952736853417e6 -1.9730916163978556e6 0.0
0.0 0.0 0.0

-2.11914836872875e6 5.9526913395851785e6 0.0
5.9526913395851785e6 -448979.94865213 0.0
0.0 0.0 0.0

871411.7254225952 8.774469504975116e6 0.0
8.774469504975116e6 -7.86068403888738e6 0.0
0.0 0.0 0.0

-926985.3655581423 5.883704721795005e6 0.0
5.883704721795005e6 -2.6840785275692516e6 0.0
0.0 0.0 0.0

-3.665494133282835e6 973430.1808783652 0.0
973430.1808783652 3.350141618943576e6 0.0
0.0 0.0 0.0

1.3746076986181285e7 9.372792410924483e6 0.0
9.372792410924483e6 -4.384378449287521e6 0.0
0.0 0.0 0.0

-1.1809326124193897e6 6.194103569419831e6 0.0
6.194103569419831e6 -2.4240474253777396e6 0.0
0.0 0.0 0.0

1.0787968735039253e6 6.426738558790528e6 0.0
6.426738558790528e6 -5.208637616064243e6 0.0
0.0 0.0 0.0

1.0575796953460665e6 6.700282489317036e6 0.0
6.700282489317036e6 -5.351672253853584e6 0.0
0.0 0.0 0.0

-4.73599416190321e6 7.70345661002446e6 0.0
7.70345661002446e6 4.680174341329843e6 0.0
0.0 0.0 0.0

-815647.400064022 7.909546219911136e6 0.0
7.909546219911136e6 -3.3680470144318934e6 0.0
0.0 0.0 0.0

-2.054025550669783e6 9.969687925511157e6 0.0
9.969687925511157e6 733968.6914133695 0.0
0.0 0.0 0.0

996215.0752081636 1.1455887300172064e7 0.0
1.1455887300172064e7 -4.1873659864355163e6 0.0
0.0 0.0 0.0

-1.3016720364850718e6 5.321415319929928e6 0.0
5.321415319929928e6 -1.000299442760441e6 0.0
0.0 0.0 0.0

182955.1982750002 2.1318553975847303e6 0.0
2.1318553975847303e6 -2.865662261485691e6 0.0
0.0 0.0 0.0

-1.4301550328443276e6 3.747975934257978e6 0.0
3.747975934257978e6 -1.813551214143984e6 0.0
0.0 0.0 0.0

-886197.3342040356 5.067446520647805e6 0.0
5.067446520647805e6 -719706.6875094266 0.0
0.0 0.0 0.0

-369166.3962183313 8.64553902368981e6 0.0
8.64553902368981e6 -6.032059958848017e6 0.0
0.0 0.0 0.0

487732.43813806353 8.041356921397583e6 0.0
8.041356921397583e6 -5.487056469480617e6 0.0
0.0 0.0 0.0

1.0388707205914194e6 6.693242316486711e6 0.0
6.693242316486711e6 -5.064661262903288e6 0.0
0.0 0.0 0.0

-136545.76296845917 5.818214572333041e6 0.0
5.818214572333041e6 -3.9008561662000734e6 0.0
0.0 0.0 0.0

-1.8356328936303717e6 6.125331568947766e6 0.0
6.125331568947766e6 -550155.0043884293 0.0
0.0 0.0 0.0

19207.70687667653 6.938238179768379e6 0.0
6.938238179768379e6 -4.1511048404245246e6 0.0
0.0 0.0 0.0

-902671.3516357018 2.8930537269585854e6 0.0
2.8930537269585854e6 -2.6616268951003095e6 0.0
0.0 0.0 0.0

44807.97404196905 5.933433251944437e6 0.0
5.933433251944437e6 -3.7889385228980766e6 0.0
0.0 0.0 0.0

-1.5240586424766686e6 7.78231590923078e6 0.0
7.78231590923078e6 -2.4806724828257193e6 0.0
0.0 0.0 0.0

-956098.137382621 5.271106437365066e6 0.0
5.271106437365066e6 -1.3761642958034344e6 0.0
0.0 0.0 0.0

-4.1038353143883552e6 9.794292301100126e6 0.0
9.794292301100126e6 -492098.1073971037 0.0
0.0 0.0 0.0

1.9886850126185548e6 6.810384130438234e6 0.0
6.810384130438234e6 -8.169656266929612e6 0.0
0.0 0.0 0.0

-1.821034778672578e6 8.081665058070707e6 0.0
8.081665058070707e6 -2.2385507323551863e6 0.0
0.0 0.0 0.0

308862.3643962343 6.555623748829132e6 0.0
6.555623748829132e6 -4.450994744205771e6 0.0
0.0 0.0 0.0

-467282.5991699677 2.531713856352096e6 0.0
2.531713856352096e6 -789588.1561123454 0.0
0.0 0.0 0.0

505055.0464966134 6.612581479411786e6 0.0
6.612581479411786e6 -4.570438041464375e6 0.0
0.0 0.0 0.0

-3.598786480479326e6 8.154696596312884e6 0.0
8.154696596312884e6 1.3590543027526431e6 0.0
0.0 0.0 0.0

-4.2825427464976115e6 1.1641417540144855e7 0.0
1.1641417540144855e7 -690802.367999147 0.0
0.0 0.0 0.0

-46341.209498994984 9.592792427102776e6 0.0
9.592792427102776e6 -4.989139677168529e6 0.0
0.0 0.0 0.0

-290731.628337358 2.350406279286677e6 0.0
2.350406279286677e6 -3.1998673280054647e6 0.0
0.0 0.0 0.0

-4.455888261632367e6 1.1026839239463264e7 0.0
1.1026839239463264e7 560440.0140607022 0.0
0.0 0.0 0.0

-3.0801148162380313e6 9.930017571857972e6 0.0
9.930017571857972e6 -1.0867943494605792e6 0.0
0.0 0.0 0.0

-1.205879127878074e6 4.627121969430385e6 0.0
4.627121969430385e6 -503163.6562546595 0.0
0.0 0.0 0.0

-2.616667800258412e6 1.0216633991567101e7 0.0
1.0216633991567101e7 1.893945194311865e6 0.0
0.0 0.0 0.0

-783794.468176691 2.805751013204338e6 0.0
2.805751013204338e6 -1.6097975538483951e6 0.0
0.0 0.0 0.0

-1.3528108682639403e6 4.691308530214774e6 0.0
4.691308530214774e6 -824884.6550747296 0.0
0.0 0.0 0.0

-9.163555188929517e6 1.1546795675017692e6 0.0
1.1546795675017692e6 1.268634404869337e7 0.0
0.0 0.0 0.0

-2.1468762526024934e6 6.669396819499748e6 0.0
6.669396819499748e6 -347229.6009031136 0.0
0.0 0.0 0.0

1.4883846623441624e6 8.581048770074254e6 0.0
8.581048770074254e6 -2.404150157287231e6 0.0
0.0 0.0 0.0

-1.3971465446147926e6 6.507130421702831e6 0.0
6.507130421702831e6 -2.1869874532209667e6 0.0
0.0 0.0 0.0

-1.7578178999848384e6 7.321759962702613e6 0.0
7.321759962702613e6 -2.504422067628257e6 0.0
0.0 0.0 0.0

823188.0646033483 8.557075584207628e6 0.0
8.557075584207628e6 -7.469972205036109e6 0.0
0.0 0.0 0.0

1.965910626433393e6 7.002766443996253e6 0.0
7.002766443996253e6 -8.296374640788894e6 0.0
0.0 0.0 0.0

-2.3123044718140685e6 3.788453884791292e6 0.0
3.788453884791292e6 1.2571446186218855e6 0.0
0.0 0.0 0.0

-4.795615936167003e6 9.29131256157239e6 0.0
9.29131256157239e6 2.546812420566171e6 0.0
0.0 0.0 0.0

-6.629532655196544e6 926916.6574254974 0.0
926916.6574254974 7.055065889046924e6 0.0
0.0 0.0 0.0

-2.5892672936487244e6 9.711646668723864e6 0.0
9.711646668723864e6 -1.6718484013242323e6 0.0
0.0 0.0 0.0

-2.0786243581187327e6 1.0003192187466344e7 0.0
1.0003192187466344e7 -2.8281542167589865e6 0.0
0.0 0.0 0.0

3.471631250600582e6 4.185842628453273e6 0.0
4.185842628453273e6 738704.1990953523 0.0
0.0 0.0 0.0

-107181.28683310724 5.272510937700477e6 0.0
5.272510937700477e6 -3.454861244126101e6 0.0
0.0 0.0 0.0

-1.6264109036506272e6 6.621817358495513e6 0.0
6.621817358495513e6 -350684.0234713822 0.0
0.0 0.0 0.0

-31409.30560775171 9.11909806565832e6 0.0
9.11909806565832e6 -5.397835917371056e6 0.0
0.0 0.0 0.0

-1.3976760586027808e6 7.2338222298979685e6 0.0
7.2338222298979685e6 -2.375775003836301e6 0.0
0.0 0.0 0.0

-1.715865307521576e6 8.34500838982524e6 0.0
8.34500838982524e6 -2.482360281508063e6 0.0
0.0 0.0 0.0

-7.342531038589687e6 3.314393343021203e6 0.0
3.314393343021203e6 1.123952246839667e7 0.0
0.0 0.0 0.0

-1.7600079270305517e6 4.749257472178999e6 0.0
4.749257472178999e6 507552.2724206697 0.0
0.0 0.0 0.0

-1.7540115143886083e6 6.862571379227059e6 0.0
6.862571379227059e6 -2.411457077820373e6 0.0
0.0 0.0 0.0

-2.6536486365301167e6 7.788762233647052e6 0.0
7.788762233647052e6 -1.4146732601218014e6 0.0
0.0 0.0 0.0

-3.3331652051713318e6 6.352432652633805e6 0.0
6.352432652633805e6 2.9783598297119495e6 0.0
0.0 0.0 0.0

-4.760492348297371e6 8.915347424643273e6 0.0
8.915347424643273e6 1.3929848342725665e6 0.0
0.0 0.0 0.0

653755.7685456453 8.130762802071147e6 0.0
8.130762802071147e6 -5.856240648973666e6 0.0
0.0 0.0 0.0

-6.587270363898329e6 1.0378225122405281e7 0.0
1.0378225122405281e7 3.917517616542048e6 0.0
0.0 0.0 0.0

-1.9102799151206957e6 7.08698644650851e6 0.0
7.08698644650851e6 -263313.0205155033 0.0
0.0 0.0 0.0

-4.884104624572938e6 1.111046616485422e7 0.0
1.111046616485422e7 1.9654569737854116e6 0.0
0.0 0.0 0.0

-378945.4731974603 9.623084018153781e6 0.0
9.623084018153781e6 -1.1769417174039239e6 0.0
0.0 0.0 0.0

-88323.28322984022 9.857166527549088e6 0.0
9.857166527549088e6 -4.733359602020621e6 0.0
0.0 0.0 0.0

-1.4214656612670068e6 9.609849758242853e6 0.0
9.609849758242853e6 -650016.4592439472 0.0
0.0 0.0 0.0

-4.362611780194815e6 9.091526636165433e6 0.0
9.091526636165433e6 2.4640589568332145e6 0.0
0.0 0.0 0.0

-2.4028904514808324e6 9.030899995744279e6 0.0
9.030899995744279e6 -1.763822880895501e6 0.0
0.0 0.0 0.0

-1.6993990424529174e6 6.589785968179282e6 0.0
6.589785968179282e6 -2.311327046074035e6 0.0
0.0 0.0 0.0

-89012.91847621626 9.479013751342833e6 0.0
9.479013751342833e6 -4.982925084271644e6 0.0
0.0 0.0 0.0

-908637.11321666 5.188540657840733e6 0.0
5.188540657840733e6 -2.356819566208458e6 0.0
0.0 0.0 0.0

-4.112760807068304e6 8.287043356670468e6 0.0
8.287043356670468e6 1.4181887546237267e6 0.0
0.0 0.0 0.0

-4.543548679730769e6 8.86876324705475e6 0.0
8.86876324705475e6 969014.9444673609 0.0
0.0 0.0 0.0

-107208.54400914797 1.6251824924404537e6 0.0
1.6251824924404537e6 -997761.9480186504 0.0
0.0 0.0 0.0

-559145.4666599521 5.556197199767343e6 0.0
5.556197199767343e6 -3.0990383955948744e6 0.0
0.0 0.0 0.0

-4.928730919492325e6 9.250521352680555e6 0.0
9.250521352680555e6 2.068182999721086e6 0.0
0.0 0.0 0.0

-3.585814719208693e6 7.945799260325845e6 0.0
7.945799260325845e6 1.0166402084724805e6 0.0
0.0 0.0 0.0

-2.3819259568090744e7 -4.132141690353067e6 0.0
-4.132141690353067e6 9.543786244672362e6 0.0
0.0 0.0 0.0

-46057.61559718102 9.053953733831763e6 0.0
9.053953733831763e6 -4.998994990253671e6 0.0
0.0 0.0 0.0

-3.226919453433659e6 8.012860104416191e6 0.0
8.012860104416191e6 764552.881416424 0.0
0.0 0.0 0.0

-3.6303743817637917e6 8.343672276664691e6 0.0
8.343672276664691e6 505706.9793638871 0.0
0.0 0.0 0.0

-3.5220439666156177e6 8.257645959842002e6 0.0
8.257645959842002e6 1.0573662551408678e6 0.0
0.0 0.0 0.0

-1.1227949691597023e6 1.0764010441696731e7 0.0
1.0764010441696731e7 -245891.71145640785 0.0
0.0 0.0 0.0

-2.863610954466091e6 9.249637369728211e6 0.0
9.249637369728211e6 -1.340300456970769e6 0.0
0.0 0.0 0.0

-2.1748862799122576e6 7.370523368313697e6 0.0
7.370523368313697e6 -156311.54675664392 0.0
0.0 0.0 0.0

-1.5097149951403642e6 3.503633866615032e6 0.0
3.503633866615032e6 759017.4695722982 0.0
0.0 0.0 0.0

-957894.3721956778 5.451636348655661e6 0.0
5.451636348655661e6 -1.7920524435490146e6 0.0
0.0 0.0 0.0

3.8426351461292617e6 2.6999415983867715e6 0.0
2.6999415983867715e6 -5.365611121123555e6 0.0
0.0 0.0 0.0

-2.0751745729975067e6 6.736587681552935e6 0.0
6.736587681552935e6 -1.4222073119727843e6 0.0
0.0 0.0 0.0

-3.2149731546889315e6 1.001056975807252e7 0.0
1.001056975807252e7 -1.5735870474419445e6 0.0
0.0 0.0 0.0

-3.3011645494412207e6 7.673471842787306e6 0.0
7.673471842787306e6 724031.1845606638 0.0
0.0 0.0 0.0

-1.7594396082396714e6 5.961611285630644e6 0.0
5.961611285630644e6 -1.326915287638966e6 0.0
0.0 0.0 0.0

-407578.3729718466 4.628591359439759e6 0.0
4.628591359439759e6 -861202.8650909397 0.0
0.0 0.0 0.0

3.1512328401480457e6 2.3470743244945086e6 0.0
2.3470743244945086e6 -7.654569373780087e6 0.0
0.0 0.0 0.0

-4.830065486762796e6 1.7617799401340748e6 0.0
1.7617799401340748e6 6.710665787751759e6 0.0
0.0 0.0 0.0

-921374.2715065348 3.655117594799327e6 0.0
3.655117594799327e6 -718079.8057425608 0.0
0.0 0.0 0.0

-2.4421880843677125e6 9.416765070711317e6 0.0
9.416765070711317e6 3.2344980368730286e6 0.0
0.0 0.0 0.0

-2.9056632825938463e6 8.081663709472007e6 0.0
8.081663709472007e6 -1.1931479654679352e6 0.0
0.0 0.0 0.0

-361225.4168688692 5.198965371437482e6 0.0
5.198965371437482e6 -3.260294064245165e6 0.0
0.0 0.0 0.0

-6.663607099023813e6 1.5170938758420872e6 0.0
1.5170938758420872e6 9.43492344934853e6 0.0
0.0 0.0 0.0

-3.708977108648356e6 8.585681667426689e6 0.0
8.585681667426689e6 438345.96406812407 0.0
0.0 0.0 0.0

-1.9315415364325764e6 5.634500469737054e6 0.0
5.634500469737054e6 -730044.2882240359 0.0
0.0 0.0 0.0

-1.1033353252453585e6 4.177864046728637e6 0.0
4.177864046728637e6 -1.1584897774210074e6 0.0
0.0 0.0 0.0

-1.2484495898264255e6 5.539005016761296e6 0.0
5.539005016761296e6 -1.9211460161984311e6 0.0
0.0 0.0 0.0

144174.34508191491 8.855240863088509e6 0.0
8.855240863088509e6 -6.098600892523994e6 0.0
0.0 0.0 0.0

-3.492400074176207e6 8.235064941068548e6 0.0
8.235064941068548e6 1.2521209191368897e6 0.0
0.0 0.0 0.0

-1.6289724228437687e6 9.87217824174712e6 0.0
9.87217824174712e6 -2.6535758714107694e6 0.0
0.0 0.0 0.0

-9.378808107640363e6 9.83882317333818e6 0.0
9.83882317333818e6 1.9107522194310572e7 0.0
0.0 0.0 0.0

-1.1180990278965493e6 8.24761404290419e6 0.0
8.24761404290419e6 2.229485547019862e6 0.0
0.0 0.0 0.0

-1.5843786023014686e6 5.725359581203349e6 0.0
5.725359581203349e6 -42700.89304746612 0.0
0.0 0.0 0.0

59232.56623534649 7.988068775809005e6 0.0
7.988068775809005e6 -4.703149254411837e6 0.0
0.0 0.0 0.0

-1.7037047898860374e6 6.214800343636963e6 0.0
6.214800343636963e6 -940213.5260023521 0.0
0.0 0.0 0.0

-2.626838323549868e6 1.1179194871310644e7 0.0
1.1179194871310644e7 -2.190106759005189e6 0.0
0.0 0.0 0.0

-5.0289803410993125e6 9.378995019000812e6 0.0
9.378995019000812e6 2.7402864273225367e6 0.0
0.0 0.0 0.0

-4.378939723928632e6 8.851505418152332e6 0.0
8.851505418152332e6 715868.2718847794 0.0
0.0 0.0 0.0

-214354.46279769484 1.0078033131372431e7 0.0
1.0078033131372431e7 -4.44834256383388e6 0.0
0.0 0.0 0.0

-1.4132388560221274e6 5.871720441350781e6 0.0
5.871720441350781e6 -1.1968754290132895e6 0.0
0.0 0.0 0.0

-3.712894129467655e6 8.275523987864812e6 0.0
8.275523987864812e6 1.2007752388171735e6 0.0
0.0 0.0 0.0

-977725.4564663987 4.785068174904763e6 0.0
4.785068174904763e6 -927948.2062217433 0.0
0.0 0.0 0.0

3.601888078584686e6 4.3772064030434815e6 0.0
4.3772064030434815e6 -7.121578790202893e6 0.0
0.0 0.0 0.0

-1.958004811083301e6 6.722510606287157e6 0.0
6.722510606287157e6 -1.0302568433709024e6 0.0
0.0 0.0 0.0

-224573.10464397026 6.710384659340987e6 0.0
6.710384659340987e6 -4.0283883488474186e6 0.0
0.0 0.0 0.0

-3.1302293908030763e6 7.556049401830592e6 0.0
7.556049401830592e6 923194.105321825 0.0
0.0 0.0 0.0

-801467.146529607 3.812416704844381e6 0.0
3.812416704844381e6 -1.510691233804481e6 0.0
0.0 0.0 0.0

-6.021971543380056e6 1.03085311174016e7 0.0
1.03085311174016e7 2.1169855459834365e6 0.0
0.0 0.0 0.0

-1.8408067522459902e7 -4.797135424760042e6 0.0
-4.797135424760042e6 8.179651376471209e6 0.0
0.0 0.0 0.0

-509347.0600277443 3.4470878317687395e6 0.0
3.4470878317687395e6 -1.8266864496940498e6 0.0
0.0 0.0 0.0

305976.192707872 8.780187199455367e6 0.0
8.780187199455367e6 -6.612433237240494e6 0.0
0.0 0.0 0.0

-490389.4437840623 1.0989246213329699e7 0.0
1.0989246213329699e7 -3.648073535976216e6 0.0
0.0 0.0 0.0

-1.146229995052251e6 6.417112507453288e6 0.0
6.417112507453288e6 -2.474770685499036e6 0.0
0.0 0.0 0.0

-818708.7745716281 9.558391310807196e6 0.0
9.558391310807196e6 -3.7650225262169214e6 0.0
0.0 0.0 0.0

-224723.07952531608 3.139404836243681e6 0.0
3.139404836243681e6 -2.114539535334087e6 0.0
0.0 0.0 0.0

241931.41669874545 6.382456713852923e6 0.0
6.382456713852923e6 -4.380921967360153e6 0.0
0.0 0.0 0.0

-4.952085216644341e6 9.03483282690751e6 0.0
9.03483282690751e6 1.7255836336403762e6 0.0
0.0 0.0 0.0

-335413.91364004626 1.7260229643896925e6 0.0
1.7260229643896925e6 -2.891535763563823e6 0.0
0.0 0.0 0.0

-758062.1732141518 5.494620469218307e6 0.0
5.494620469218307e6 -3.395910878799825e6 0.0
0.0 0.0 0.0

-6.656596053021959e6 1.0482532380809268e7 0.0
1.0482532380809268e7 2.7097027493157415e6 0.0
0.0 0.0 0.0

1.6468932511397311e6 8.967670462536884e6 0.0
8.967670462536884e6 -3.1800350380736794e6 0.0
0.0 0.0 0.0

-3.1882121039138106e6 1.1366167699728686e7 0.0
1.1366167699728686e7 -904819.9993990953 0.0
0.0 0.0 0.0

2.1806671382843074e6 7.633278531020801e6 0.0
7.633278531020801e6 -8.644755820130944e6 0.0
0.0 0.0 0.0

-5.299272792316755e6 5.470971027871566e6 0.0
5.470971027871566e6 7.457797427294806e6 0.0
0.0 0.0 0.0

-4.441373781630633e6 8.82633620314122e6 0.0
8.82633620314122e6 1.940800803553889e6 0.0
0.0 0.0 0.0

1581.3522476826329 6.8304358089969e6 0.0
6.8304358089969e6 -4.200412599028038e6 0.0
0.0 0.0 0.0

-159729.5129905002 2.83672895497249e6 0.0
2.83672895497249e6 -2.4405015984245855e6 0.0
0.0 0.0 0.0

-152528.46329250326 4.705512529417141e6 0.0
4.705512529417141e6 -3.5540175421689413e6 0.0
0.0 0.0 0.0

-6.204457994411821e6 1.0313262975684874e7 0.0
1.0313262975684874e7 3.740807356995096e6 0.0
0.0 0.0 0.0

-369987.87894188846 2.988177843814437e6 0.0
2.988177843814437e6 -207429.8119329859 0.0
0.0 0.0 0.0

-3.8367945534411105e6 4.258007084714966e6 0.0
4.258007084714966e6 3.334141766420223e6 0.0
0.0 0.0 0.0

-4.282589086904152e6 8.808199116383476e6 0.0
8.808199116383476e6 1.0582293001264876e6 0.0
0.0 0.0 0.0

-1.4881051067468682e6 8.058526716343975e6 0.0
8.058526716343975e6 -2.754283485149288e6 0.0
0.0 0.0 0.0

-2.579306948027135e6 9.725453039935552e6 0.0
9.725453039935552e6 2.4862861793188863e6 0.0
0.0 0.0 0.0

-2.0340350442678113e6 6.296519302575253e6 0.0
6.296519302575253e6 -1.0569462215237338e6 0.0
0.0 0.0 0.0

-1.6647278299648399e6 7.555282082015099e6 0.0
7.555282082015099e6 -2.160742211267183e6 0.0
0.0 0.0 0.0

190323.98325444618 8.792560962533787e6 0.0
8.792560962533787e6 -6.085564059491148e6 0.0
0.0 0.0 0.0

-3.5720560017655347e6 1.1824209892148022e7 0.0
1.1824209892148022e7 -418410.8971185279 0.0
0.0 0.0 0.0

819162.3710563579 8.530807162314717e6 0.0
8.530807162314717e6 -7.316623411235226e6 0.0
0.0 0.0 0.0

-850405.2043227233 4.916531964779093e6 0.0
4.916531964779093e6 -1.1347738446354282e6 0.0
0.0 0.0 0.0

-1.7801881958962837e6 1.3371111021450978e7 0.0
1.3371111021450978e7 1.4560482188419675e7 0.0
0.0 0.0 0.0

-5.743032678109415e6 1.0062206195528751e7 0.0
1.0062206195528751e7 3.424203049932337e6 0.0
0.0 0.0 0.0

-2.116088035776159e6 6.530459498821839e6 0.0
6.530459498821839e6 -1.0899452350844727e6 0.0
0.0 0.0 0.0

-561275.4319785001 1.1713585546574807e7 0.0
1.1713585546574807e7 -3.46388889168814e6 0.0
0.0 0.0 0.0

-4.0568349264073344e6 8.831651430744894e6 0.0
8.831651430744894e6 725623.9634333225 0.0
0.0 0.0 0.0

-1.4119693002581706e6 4.687687979461341e6 0.0
4.687687979461341e6 -1.19922273050315e6 0.0
0.0 0.0 0.0

-350644.08308295335 1.0303311539368989e7 0.0
1.0303311539368989e7 -4.1588824919527955e6 0.0
0.0 0.0 0.0

-542360.0500148316 8.196829053589012e6 0.0
8.196829053589012e6 -3.84375449836746e6 0.0
0.0 0.0 0.0

-791615.3598046944 8.22665709888562e6 0.0
8.22665709888562e6 -3.4944168756422875e6 0.0
0.0 0.0 0.0

-1.808950261864419e6 6.673694782119899e6 0.0
6.673694782119899e6 -2.011066627109978e6 0.0
0.0 0.0 0.0

991503.5507591646 1.3461254492301032e7 0.0
1.3461254492301032e7 -4.853490935580685e6 0.0
0.0 0.0 0.0

-652599.5128068913 5.736427048730021e6 0.0
5.736427048730021e6 -3.0176279511348386e6 0.0
0.0 0.0 0.0

5.065858635790493e6 3.186476542241539e6 0.0
3.186476542241539e6 -7.425339634407068e6 0.0
0.0 0.0 0.0

-334158.2366100558 8.120285347071174e6 0.0
8.120285347071174e6 -4.1174599314694135e6 0.0
0.0 0.0 0.0

1.7357688863239335e6 6.929725529807692e6 0.0
6.929725529807692e6 -7.9226789648247985e6 0.0
0.0 0.0 0.0

-1.214451610143576e6 5.369551848467156e6 0.0
5.369551848467156e6 -1.2568160961636784e6 0.0
0.0 0.0 0.0

-4.0330989441043595e6 8.190611619124137e6 0.0
8.190611619124137e6 1.3840170897395182e6 0.0
0.0 0.0 0.0

242725.77218540735 5.64679009888303e6 0.0
5.64679009888303e6 -4.344226292977119e6 0.0
0.0 0.0 0.0

1.9597875388218374e6 3.4737466938699274e6 0.0
3.4737466938699274e6 -6.581407827552631e6 0.0
0.0 0.0 0.0

-1.7001639775883835e6 6.647186211420565e6 0.0
6.647186211420565e6 -1.645755137249263e6 0.0
0.0 0.0 0.0

-8.559174208581535e6 3.992333031660747e6 0.0
3.992333031660747e6 1.2259389309777867e7 0.0
0.0 0.0 0.0

-4.151419447418403e6 8.605201778662626e6 0.0
8.605201778662626e6 2.793601265320585e6 0.0
0.0 0.0 0.0

-1.6221391438573166e6 4.736956032647922e6 0.0
4.736956032647922e6 -1.0446462033633182e6 0.0
0.0 0.0 0.0

-4.511546092217905e6 7.460799821718003e6 0.0
7.460799821718003e6 3.784165883669937e6 0.0
0.0 0.0 0.0

98894.87367198989 7.517172403271433e6 0.0
7.517172403271433e6 -4.278208433311812e6 0.0
0.0 0.0 0.0

-173367.73348248843 8.0561252710005455e6 0.0
8.0561252710005455e6 -4.472448487090242e6 0.0
0.0 0.0 0.0

-1.6497032862578874e7 1.690479107615725e7 0.0
1.690479107615725e7 1.0485163789006457e7 0.0
0.0 0.0 0.0

-2.057736643925571e6 6.171594595649854e6 0.0
6.171594595649854e6 -450259.505748455 0.0
0.0 0.0 0.0

-739345.8041310008 4.891285453357856e6 0.0
4.891285453357856e6 -1.2685324697631686e6 0.0
0.0 0.0 0.0

-1.9175934923717554e6 9.644821356108053e6 0.0
9.644821356108053e6 -3.0098180534144817e6 0.0
0.0 0.0 0.0

-1.0269379181383386e6 8.273359589307697e6 0.0
8.273359589307697e6 -3.204708476055817e6 0.0
0.0 0.0 0.0

-80196.1770026673 1.5518541509743016e6 0.0
1.5518541509743016e6 392279.7913388318 0.0
0.0 0.0 0.0

-700806.4157793706 -701173.633835645 0.0
-701173.633835645 3.378000394949157e6 0.0
0.0 0.0 0.0

-6.171676987388482e6 1.0291353982727658e7 0.0
1.0291353982727658e7 3.777963457013822e6 0.0
0.0 0.0 0.0

-3.142619033590517e6 7.7391797731093895e6 0.0
7.7391797731093895e6 622994.7814084871 0.0
0.0 0.0 0.0

-6.211183743063668e6 1.0153040172400553e7 0.0
1.0153040172400553e7 3.553155605324373e6 0.0
0.0 0.0 0.0

76661.7173589284 6.442812186273197e6 0.0
6.442812186273197e6 -4.206496589204017e6 0.0
0.0 0.0 0.0

-3.841203680323609e6 8.196466931386629e6 0.0
8.196466931386629e6 1.3072977211929553e6 0.0
0.0 0.0 0.0

-1.4236259449391395e6 2.2388298328273464e6 0.0
2.2388298328273464e6 656712.0513757485 0.0
0.0 0.0 0.0

-2.2115921557016753e7 -4.6414014638857795e6 0.0
-4.6414014638857795e6 1.0295197768182613e7 0.0
0.0 0.0 0.0

-4.359824541707575e6 8.478740659356693e6 0.0
8.478740659356693e6 1.7103533822756861e6 0.0
0.0 0.0 0.0

-4.242326395513236e6 7.835176451709387e6 0.0
7.835176451709387e6 3.4676930896804333e6 0.0
0.0 0.0 0.0

-4.897799886367123e6 1.0803455930006856e7 0.0
1.0803455930006856e7 188783.88284736965 0.0
0.0 0.0 0.0

1.2399856709808437e6 2.2326573706040634e6 0.0
2.2326573706040634e6 -5.217913500835331e6 0.0
0.0 0.0 0.0

-2.3076419953170256e6 6.965465511663808e6 0.0
6.965465511663808e6 -153696.280606659 0.0
0.0 0.0 0.0

-5.600776821304629e6 1.0839178937208567e7 0.0
1.0839178937208567e7 953801.7811123242 0.0
0.0 0.0 0.0

-3.599329845511794e6 1.114585329100119e7 0.0
1.114585329100119e7 984425.1530455004 0.0
0.0 0.0 0.0

585043.2743126308 6.843221268742745e6 0.0
6.843221268742745e6 -4.828458856955169e6 0.0
0.0 0.0 0.0

-4.282095556830378e6 8.147316562968395e6 0.0
8.147316562968395e6 3.2015638307155427e6 0.0
0.0 0.0 0.0

-2.310234822407865e6 7.708473036150648e6 0.0
7.708473036150648e6 -1.2876971741312253e6 0.0
0.0 0.0 0.0

2.1423917091854513e6 6.682349243455778e6 0.0
6.682349243455778e6 -8.200648690762798e6 0.0
0.0 0.0 0.0

-7.866710990310631e6 -1.455950624786587e6 0.0
-1.455950624786587e6 8.920687885428961e6 0.0
0.0 0.0 0.0

-119583.28647204442 6.424558004806424e6 0.0
6.424558004806424e6 -3.8342173407061556e6 0.0
0.0 0.0 0.0

1.2434712398013228e6 6.746126686758354e6 0.0
6.746126686758354e6 -5.718514922278232e6 0.0
0.0 0.0 0.0

529457.0328041685 9.412708086236037e6 0.0
9.412708086236037e6 -4.442184925996846e6 0.0
0.0 0.0 0.0

1.0110367124658078e6 8.072648219021005e6 0.0
8.072648219021005e6 -7.3597966689953115e6 0.0
0.0 0.0 0.0

-7.717029031702671e6 1.202633090277485e7 0.0
1.202633090277485e7 3.0030066051010946e6 0.0
0.0 0.0 0.0

-6.923820494906785e6 7.675218413171886e6 0.0
7.675218413171886e6 9.934262822551975e6 0.0
0.0 0.0 0.0

-5.7860940609496785e6 -848184.8727650746 0.0
-848184.8727650746 6.898624996325954e6 0.0
0.0 0.0 0.0

-2.5751579014398544e6 7.999268249120919e6 0.0
7.999268249120919e6 -1.0697685542862755e6 0.0
0.0 0.0 0.0

1.2599744110029815e6 7.188692750898048e6 0.0
7.188692750898048e6 -6.968839907740188e6 0.0
0.0 0.0 0.0

-2.6770336558135347e6 7.130308190670457e6 0.0
7.130308190670457e6 225391.84722922742 0.0
0.0 0.0 0.0

-3.7634542053768393e6 7.909912768660788e6 0.0
7.909912768660788e6 1.090895873383856e6 0.0
0.0 0.0 0.0

-1.0375896573356714e6 4.374415069736692e6 0.0
4.374415069736692e6 41031.02061111084 0.0
0.0 0.0 0.0

-3.465015694184877e6 1.2183900725006279e7 0.0
1.2183900725006279e7 -537217.1820553375 0.0
0.0 0.0 0.0

886226.8011076993 9.245727162637142e6 0.0
9.245727162637142e6 -4.012769885594794e6 0.0
0.0 0.0 0.0

-4.415601536231512e6 8.907109570132853e6 0.0
8.907109570132853e6 1.3831639748303965e6 0.0
0.0 0.0 0.0

2.1676640509439297e6 6.214299970454296e6 0.0
6.214299970454296e6 -7.902990370576811e6 0.0
0.0 0.0 0.0

-3.9916696628294396e6 8.210921322286106e6 0.0
8.210921322286106e6 1.3532516104335207e6 0.0
0.0 0.0 0.0

-1.1185791082869782e6 6.872605493731423e6 0.0
6.872605493731423e6 -2.5697146332493112e6 0.0
0.0 0.0 0.0

-1.66241854495128e6 4.863864084016794e6 0.0
4.863864084016794e6 -1.1083554057789214e6 0.0
0.0 0.0 0.0

-1.2345808946148427e6 5.810467122660453e6 0.0
5.810467122660453e6 -1.5172804611954582e6 0.0
0.0 0.0 0.0

-902763.3619344449 4.555984000479626e6 0.0
4.555984000479626e6 -1.427542053958011e6 0.0
0.0 0.0 0.0

798837.8230471232 9.380994417187996e6 0.0
9.380994417187996e6 -3.8439957683082866e6 0.0
0.0 0.0 0.0

-4.199256482639693e6 2.1246796624726527e6 0.0
2.1246796624726527e6 5.777280964052407e6 0.0
0.0 0.0 0.0

-1.6329660131541833e6 7.10263859138078e6 0.0
7.10263859138078e6 -2.0508755666755713e6 0.0
0.0 0.0 0.0

-1.0201043340691259e6 3.004343214529474e6 0.0
3.004343214529474e6 -1.6096150663765336e6 0.0
0.0 0.0 0.0

-6.445138363708412e6 1.0343517762077667e7 0.0
1.0343517762077667e7 4.0284635350826355e6 0.0
0.0 0.0 0.0

-3.933956647212563e6 9.364282071577987e6 0.0
9.364282071577987e6 123161.29060527124 0.0
0.0 0.0 0.0

-501321.75441444805 9.150739292397968e6 0.0
9.150739292397968e6 -4.248063097500973e6 0.0
0.0 0.0 0.0

-350308.5588974253 5.872627205929402e6 0.0
5.872627205929402e6 -3.381255843778891e6 0.0
0.0 0.0 0.0

-4.287090798550169e6 8.691062426651895e6 0.0
8.691062426651895e6 2.0195097068409813e6 0.0
0.0 0.0 0.0

-4.452831567587592e6 7.873814232602269e6 0.0
7.873814232602269e6 4.027095408995281e6 0.0
0.0 0.0 0.0

-6.227523233532395e6 7.534663056132039e6 0.0
7.534663056132039e6 7.908788801789489e6 0.0
0.0 0.0 0.0

1.2680951309054103e6 7.225575733823306e6 0.0
7.225575733823306e6 -7.351612571886657e6 0.0
0.0 0.0 0.0

-3.768078889213315e6 8.474803450932456e6 0.0
8.474803450932456e6 1.503107997532391e6 0.0
0.0 0.0 0.0

-3.931061498455791e6 8.42113413402541e6 0.0
8.42113413402541e6 1.6617720325227254e6 0.0
0.0 0.0 0.0

-1.2153217626691402e6 5.802732862703746e6 0.0
5.802732862703746e6 -767761.3837428446 0.0
0.0 0.0 0.0

-7.933135511982168e6 1.2371777018155282e7 0.0
1.2371777018155282e7 3.237876569601629e6 0.0
0.0 0.0 0.0

-1.3507698474279824e6 6.341762486648058e6 0.0
6.341762486648058e6 -2.178436230031964e6 0.0
0.0 0.0 0.0

-2.8981088351914235e6 6.1413170673581185e6 0.0
6.1413170673581185e6 1.5322782320080367e6 0.0
0.0 0.0 0.0

-386774.1076145993 5.5109307697018e6 0.0
5.5109307697018e6 -3.4803102300832206e6 0.0
0.0 0.0 0.0

-1.2978346950315894e6 4.47924614330333e6 0.0
4.47924614330333e6 -601281.2125317734 0.0
0.0 0.0 0.0

-4.328138444303211e6 8.707195827454504e6 0.0
8.707195827454504e6 2.0068795399027271e6 0.0
0.0 0.0 0.0

-4.617885069027005e6 8.97366801533308e6 0.0
8.97366801533308e6 2.238964832010744e6 0.0
0.0 0.0 0.0

-1.6220421476908582e6 6.817244732201693e6 0.0
6.817244732201693e6 -1.958382243387145e6 0.0
0.0 0.0 0.0

889177.0078575616 1.0102033996070713e7 0.0
1.0102033996070713e7 -4.0118628644819115e6 0.0
0.0 0.0 0.0

-716883.1168462712 1.3903275012069179e7 0.0
1.3903275012069179e7 -3.5210322782637905e6 0.0
0.0 0.0 0.0

-2.6373987264210526e6 1.0381771785103135e7 0.0
1.0381771785103135e7 1.2946464397838782e6 0.0
0.0 0.0 0.0

-761253.9349878205 9.03296435011893e6 0.0
9.03296435011893e6 -6.128875397894096e6 0.0
0.0 0.0 0.0

-839525.5773248335 5.801137013677036e6 0.0
5.801137013677036e6 -2.7193659272860996e6 0.0
0.0 0.0 0.0

-1.2086653339562987e6 3.24810652507712e6 0.0
3.24810652507712e6 481427.03762921365 0.0
0.0 0.0 0.0

-1.327641960483484e6 1.0847393932263538e7 0.0
1.0847393932263538e7 -225094.32267941293 0.0
0.0 0.0 0.0

-2.343332602824805e6 1.0470782282729784e7 0.0
1.0470782282729784e7 108468.53377972858 0.0
0.0 0.0 0.0

-3.899547047470096e6 8.41568181657622e6 0.0
8.41568181657622e6 1.6261984334356824e6 0.0
0.0 0.0 0.0

-1.1190994027790376e6 1.7194049366082025e6 0.0
1.7194049366082025e6 270144.09795510623 0.0
0.0 0.0 0.0

-6.738102887514191e6 1.0429268365417896e7 0.0
1.0429268365417896e7 4.234092144139487e6 0.0
0.0 0.0 0.0

-4.407475653138074e6 8.523958362606818e6 0.0
8.523958362606818e6 1.6493811094910023e6 0.0
0.0 0.0 0.0

1.358169722321878e6 8.400977239549648e6 0.0
8.400977239549648e6 -2.6634780831455174e6 0.0
0.0 0.0 0.0

-147071.91834187272 9.169060687914807e6 0.0
9.169060687914807e6 -490239.72062333074 0.0
0.0 0.0 0.0

-3.6433918909489037e6 8.471553520049453e6 0.0
8.471553520049453e6 1.3803198064405029e6 0.0
0.0 0.0 0.0

-2.894310179962943e6 7.448347247880867e6 0.0
7.448347247880867e6 977303.3173745254 0.0
0.0 0.0 0.0

1.0640833157435907e6 6.190439017758846e6 0.0
6.190439017758846e6 -4.736757536383735e6 0.0
0.0 0.0 0.0

-4.560607798782951e6 9.086245026727803e6 0.0
9.086245026727803e6 1.3036645533718895e6 0.0
0.0 0.0 0.0

-2.0679430221959737e6 5.775535145739552e6 0.0
5.775535145739552e6 1.0504166256033198e6 0.0
0.0 0.0 0.0

-226395.50013588043 5.5248769274267815e6 0.0
5.5248769274267815e6 -4.317331588676443e6 0.0
0.0 0.0 0.0

-4.0668648494101e6 8.621450883601477e6 0.0
8.621450883601477e6 404203.39373720996 0.0
0.0 0.0 0.0

-3.6462867444788753e6 8.131488930412012e6 0.0
8.131488930412012e6 1.4637518430538687e6 0.0
0.0 0.0 0.0

-833780.7123002994 2.1688464507169183e6 0.0
2.1688464507169183e6 -1.9282665527274406e6 0.0
0.0 0.0 0.0

-591891.1909854641 7.07013620792596e6 0.0
7.07013620792596e6 -3.7579449860469447e6 0.0
0.0 0.0 0.0

-1.437970118898106e7 1.5503545497853396e7 0.0
1.5503545497853396e7 9.234570269563638e6 0.0
0.0 0.0 0.0

2.5278836479702354e6 7.8297992584673315e6 0.0
7.8297992584673315e6 -9.530224568526315e6 0.0
0.0 0.0 0.0

534396.0776682568 6.11293333274745e6 0.0
6.11293333274745e6 -5.008439574046889e6 0.0
0.0 0.0 0.0

-523335.6590214714 7.218180997591989e6 0.0
7.218180997591989e6 -3.5558541339983335e6 0.0
0.0 0.0 0.0

-2.1652727097317674e6 1.0494632297121026e7 0.0
1.0494632297121026e7 759236.1650602428 0.0
0.0 0.0 0.0

-209058.4696208858 8.873197822346322e6 0.0
8.873197822346322e6 -5.3126107669011615e6 0.0
0.0 0.0 0.0

-507202.37819308374 5.461354241493451e6 0.0
5.461354241493451e6 -2.8967404561294266e6 0.0
0.0 0.0 0.0

-1.5739583794065183e6 4.399287359034487e6 0.0
4.399287359034487e6 -1.516369851307779e6 0.0
0.0 0.0 0.0

-706083.8246027726 9.925382091787867e6 0.0
9.925382091787867e6 1.3949028507595223e6 0.0
0.0 0.0 0.0

-6.147857649208923e6 7.629459793018212e6 0.0
7.629459793018212e6 8.87222144392975e6 0.0
0.0 0.0 0.0

-1.022363553004195e6 7.777505616394125e6 0.0
7.777505616394125e6 6.180163834636707e6 0.0
0.0 0.0 0.0

-8.51619630622152e6 1.0657444723937817e7 0.0
1.0657444723937817e7 5.45992455152498e6 0.0
0.0 0.0 0.0

-1.9405902849432253e6 6.703745383387271e6 0.0
6.703745383387271e6 -1.7286806848487165e6 0.0
0.0 0.0 0.0

-9.901301005536407e6 8.268264559572844e6 0.0
8.268264559572844e6 2.0765298630565968e6 0.0
0.0 0.0 0.0

-2.0735372854367723e6 7.427654010772309e6 0.0
7.427654010772309e6 -1.522983306978302e6 0.0
0.0 0.0 0.0

-3.7373287789803776e6 8.138342303109417e6 0.0
8.138342303109417e6 1.427880029438446e6 0.0
0.0 0.0 0.0

-1.273318667513992e6 6.088682536419056e6 0.0
6.088682536419056e6 -1.8655112688012717e6 0.0
0.0 0.0 0.0

48674.33992019319 8.959605214951828e6 0.0
8.959605214951828e6 -5.860339059674156e6 0.0
0.0 0.0 0.0

-123625.54595260648 6.171295269322274e6 0.0
6.171295269322274e6 -4.204555670430868e6 0.0
0.0 0.0 0.0

1.1403576568624228e6 7.88445938664678e6 0.0
7.88445938664678e6 -6.721402648015339e6 0.0
0.0 0.0 0.0

-1.6683367425235528e6 1.0007443178004889e7 0.0
1.0007443178004889e7 1.6288897128903859e6 0.0
0.0 0.0 0.0

681122.3813088327 6.664139005189279e6 0.0
6.664139005189279e6 -4.792776096929254e6 0.0
0.0 0.0 0.0

-4.1630282150676395e6 8.871525033467462e6 0.0
8.871525033467462e6 354527.7716817192 0.0
0.0 0.0 0.0

-2.9262932940545916e6 9.408009289860792e6 0.0
9.408009289860792e6 -1.6734096805793038e6 0.0
0.0 0.0 0.0

-1.481122658945783e6 5.596733855949656e6 0.0
5.596733855949656e6 -1.612229883173246e6 0.0
0.0 0.0 0.0

-2.3457159774507345e6 6.291577486054384e6 0.0
6.291577486054384e6 -235391.36767044367 0.0
0.0 0.0 0.0

-3.2045982048041457e6 6.154992377279879e6 0.0
6.154992377279879e6 1.9893973258021728e6 0.0
0.0 0.0 0.0

-283326.0417568976 6.871838064840855e6 0.0
6.871838064840855e6 -3.8891570190258385e6 0.0
0.0 0.0 0.0

-1.0684628656154659e7 1.0922022305199236e7 0.0
1.0922022305199236e7 6.755850752516358e6 0.0
0.0 0.0 0.0

-7.102256415805113e6 1.0455153448714498e7 0.0
1.0455153448714498e7 4.524904650478734e6 0.0
0.0 0.0 0.0

-4.218662288180221e6 6.411263108374134e6 0.0
6.411263108374134e6 3.3116574779417804e6 0.0
0.0 0.0 0.0

-1.2819319530046752e6 6.702463431328831e6 0.0
6.702463431328831e6 -4.273106497153294e6 0.0
0.0 0.0 0.0

-1.276463727663551e6 8.325103587430966e6 0.0
8.325103587430966e6 -2.8713568904108834e6 0.0
0.0 0.0 0.0

470058.36704035243 6.402707012254868e6 0.0
6.402707012254868e6 -4.353970532585774e6 0.0
0.0 0.0 0.0

-4.003230402031715e6 9.9263732284264e6 0.0
9.9263732284264e6 2.3241953390800636e6 0.0
0.0 0.0 0.0

-1.623384945864273e6 4.752325377148997e6 0.0
4.752325377148997e6 196378.6211285903 0.0
0.0 0.0 0.0

-4.30577997820243e6 1.270310772541552e7 0.0
1.270310772541552e7 422343.8899107373 0.0
0.0 0.0 0.0

-9.712997423565907e6 -3.5753315101174866e6 0.0
-3.5753315101174866e6 1.5600721674032234e7 0.0
0.0 0.0 0.0

-3.1048516783606815e6 8.069826645019201e6 0.0
8.069826645019201e6 -820842.5388662401 0.0
0.0 0.0 0.0

-1.018493725712168e6 2.1988613628544705e6 0.0
2.1988613628544705e6 488840.4774377961 0.0
0.0 0.0 0.0

-570906.9696865185 5.295125709415879e6 0.0
5.295125709415879e6 -926416.0138384948 0.0
0.0 0.0 0.0

3.7753189887222447e6 3.9199863833128335e6 0.0
3.9199863833128335e6 -6.093482497577826e6 0.0
0.0 0.0 0.0

-9.045084856908198e6 3.8300104474122385e6 0.0
3.8300104474122385e6 1.0671135893373787e7 0.0
0.0 0.0 0.0

701497.310416647 7.952447513694343e6 0.0
7.952447513694343e6 -5.770736554448598e6 0.0
0.0 0.0 0.0

-3.952511834397074e6 8.58721123712542e6 0.0
8.58721123712542e6 794900.5507438772 0.0
0.0 0.0 0.0

-4.263183631721593e6 8.682986707962772e6 0.0
8.682986707962772e6 1.9811817811382008e6 0.0
0.0 0.0 0.0

-1.9936998979588337e6 6.541740044910434e6 0.0
6.541740044910434e6 -683695.2864320643 0.0
0.0 0.0 0.0

-4.584792235053403e6 9.10236223908603e6 0.0
9.10236223908603e6 2.297608476405442e6 0.0
0.0 0.0 0.0

-1405.8709352847654 1.8485207818507436e6 0.0
1.8485207818507436e6 -3.6358819104289804e6 0.0
0.0 0.0 0.0

-2.9628074323979467e6 7.383921727376978e6 0.0
7.383921727376978e6 -287108.1268614568 0.0
0.0 0.0 0.0

-2.0246724662579014e6 1.402154357727068e7 0.0
1.402154357727068e7 -2.192233026149744e6 0.0
0.0 0.0 0.0

-292144.71422365925 5.107998177126412e6 0.0
5.107998177126412e6 -2.9912047221758217e6 0.0
0.0 0.0 0.0

-1.8121119726400054e6 6.888586849075577e6 0.0
6.888586849075577e6 -1.6802265495022535e6 0.0
0.0 0.0 0.0

-2.7337450028732466e6 1.1037371135294804e7 0.0
1.1037371135294804e7 406393.07043214445 0.0
0.0 0.0 0.0

-1.9007928375660442e6 6.338716386776586e6 0.0
6.338716386776586e6 -622893.9429965019 0.0
0.0 0.0 0.0

2.243069178146084e6 1.137805422410206e7 0.0
1.137805422410206e7 -5.396103231963657e6 0.0
0.0 0.0 0.0

-505062.9277298014 1.5728649271940673e6 0.0
1.5728649271940673e6 -2.312083825603389e6 0.0
0.0 0.0 0.0

1.2429621254975214e6 5.984347021180699e6 0.0
5.984347021180699e6 -6.217268769302651e6 0.0
0.0 0.0 0.0

-266919.5239482668 2.2901425027497956e6 0.0
2.2901425027497956e6 -761642.9883842837 0.0
0.0 0.0 0.0

-1.3322105854377726e6 4.0463345552210705e6 0.0
4.0463345552210705e6 -1.8887108840680597e6 0.0
0.0 0.0 0.0

-2.218916820910855e6 6.784352965394489e6 0.0
6.784352965394489e6 -1.118615842053419e6 0.0
0.0 0.0 0.0

-746016.5749227371 5.4744781413352555e6 0.0
5.4744781413352555e6 -768178.7895827153 0.0
0.0 0.0 0.0

2.515073491013453e6 2.7527406301448494e6 0.0
2.7527406301448494e6 -4.416062213057584e6 0.0
0.0 0.0 0.0

-508436.70068112377 1.0529618927359307e7 0.0
1.0529618927359307e7 -3.8477417379341237e6 0.0
0.0 0.0 0.0

-1.064876662117661e6 3.775626091385666e6 0.0
3.775626091385666e6 -2.3830499737565625e6 0.0
0.0 0.0 0.0

-1.4405376160977399e7 1.435536578015171e7 0.0
1.435536578015171e7 9.105596455582067e6 0.0
0.0 0.0 0.0

1.1490691113760609e6 8.050480577612708e6 0.0
8.050480577612708e6 1.422099482480098e6 0.0
0.0 0.0 0.0

-779783.4593130881 3.505545010066859e6 0.0
3.505545010066859e6 -2.7381978103918396e6 0.0
0.0 0.0 0.0

-2.1362977426029015e6 7.381811502571551e6 0.0
7.381811502571551e6 -183039.8768623211 0.0
0.0 0.0 0.0

1.180042043751982e6 896266.7717392107 0.0
896266.7717392107 -3.4240860506746103e6 0.0
0.0 0.0 0.0

-2.9843199526960757e6 2.3464633129235753e6 0.0
2.3464633129235753e6 3.614299206731333e6 0.0
0.0 0.0 0.0

-517497.1148073934 3.2503590110274847e6 0.0
3.2503590110274847e6 -3.1424927023014575e6 0.0
0.0 0.0 0.0

-1.1314610641265975e7 1.0210853389352253e7 0.0
1.0210853389352253e7 6.946618651937095e6 0.0
0.0 0.0 0.0

-4.049038534002239e6 1.314165239308143e7 0.0
1.314165239308143e7 88658.49756873096 0.0
0.0 0.0 0.0

576331.1471359401 6.306200758238418e6 0.0
6.306200758238418e6 -4.323421896797292e6 0.0
0.0 0.0 0.0

-3.093973297292457e6 9.29828225333602e6 0.0
9.29828225333602e6 -1.3136077000800432e6 0.0
0.0 0.0 0.0

1.059260775501457e6 6.995804462765457e6 0.0
6.995804462765457e6 -6.479164765656102e6 0.0
0.0 0.0 0.0

-2.4018473418296776e6 6.831016772298639e6 0.0
6.831016772298639e6 -825262.8294296132 0.0
0.0 0.0 0.0

-2.460275295719087e6 7.886069162939523e6 0.0
7.886069162939523e6 2.2011972129749563e6 0.0
0.0 0.0 0.0

-2.886468628496039e6 1.387628498762692e7 0.0
1.387628498762692e7 -1.1056225444784842e6 0.0
0.0 0.0 0.0

66255.07910366345 4.757787449480686e6 0.0
4.757787449480686e6 -2.842129600647773e6 0.0
0.0 0.0 0.0

-76501.80777300964 5.608919923782544e6 0.0
5.608919923782544e6 -4.1710700823552245e6 0.0
0.0 0.0 0.0

-729906.4569723976 5.064723625767216e6 0.0
5.064723625767216e6 -1.7252814631636702e6 0.0
0.0 0.0 0.0

-7.504826784231011e6 1.0319646600833692e7 0.0
1.0319646600833692e7 4.888553614941327e6 0.0
0.0 0.0 0.0

-2.1331069275214896e6 5.984924167335684e6 0.0
5.984924167335684e6 -531354.9173248034 0.0
0.0 0.0 0.0

-6.344603914695772e6 1.4267710471709674e7 0.0
1.4267710471709674e7 2.1448347047079424e6 0.0
0.0 0.0 0.0

-2.1050517137863985e6 6.764224643638409e6 0.0
6.764224643638409e6 -733641.6674377449 0.0
0.0 0.0 0.0

-840737.4106600168 1.0264935156243388e7 0.0
1.0264935156243388e7 2.4473015163777e6 0.0
0.0 0.0 0.0

-2.162114681721052e6 1.0949469011620121e7 0.0
1.0949469011620121e7 81669.00171937072 0.0
0.0 0.0 0.0

-4.636157568465216e6 8.997200939574111e6 0.0
8.997200939574111e6 1.7777976910302064e6 0.0
0.0 0.0 0.0

-46772.81233570143 9.975697785174426e6 0.0
9.975697785174426e6 -4.590974939260955e6 0.0
0.0 0.0 0.0

707996.6889621997 8.457535682547757e6 0.0
8.457535682547757e6 -7.0898527835417185e6 0.0
0.0 0.0 0.0

-5.52325711431149e6 6.53486974215231e6 0.0
6.53486974215231e6 8.498032802954957e6 0.0
0.0 0.0 0.0

-1.0649382037384699e6 5.820560890128744e6 0.0
5.820560890128744e6 -3.1358313595985468e6 0.0
0.0 0.0 0.0

-2.267222794953072e6 2.7804227109374707e6 0.0
2.7804227109374707e6 1.9401350796879702e6 0.0
0.0 0.0 0.0

278205.54644074524 8.129164094626741e6 0.0
8.129164094626741e6 -5.188600356433749e6 0.0
0.0 0.0 0.0

-1.2039749953246715e6 5.185182759014351e6 0.0
5.185182759014351e6 -1.9040502872735085e6 0.0
0.0 0.0 0.0

5.940542501221893e6 1.976706415912699e6 0.0
1.976706415912699e6 -7.868816042945981e6 0.0
0.0 0.0 0.0

-2.9797651504078787e6 7.055227448756211e6 0.0
7.055227448756211e6 178026.38791892596 0.0
0.0 0.0 0.0

-4.692466873772015e6 8.769933741028292e6 0.0
8.769933741028292e6 1.9166436193874306e6 0.0
0.0 0.0 0.0

-6.5727766995878145e6 1.1284396544462558e7 0.0
1.1284396544462558e7 2.1059774541921453e6 0.0
0.0 0.0 0.0

-2.680731362279323e6 7.112813422771804e6 0.0
7.112813422771804e6 -553102.6326314542 0.0
0.0 0.0 0.0

1.6810658580521017e6 2.0601001973941608e6 0.0
2.0601001973941608e6 -3.8251633187729344e6 0.0
0.0 0.0 0.0

-3.5600787296045795e6 1.3538423453905191e7 0.0
1.3538423453905191e7 -451255.709091163 0.0
0.0 0.0 0.0

-1.5438394402424328e6 4.989130616742163e6 0.0
4.989130616742163e6 525992.6132305393 0.0
0.0 0.0 0.0

1.5027205841042195e6 7.100886453147933e6 0.0
7.100886453147933e6 -7.638637469978881e6 0.0
0.0 0.0 0.0

-1.8747507819905994e6 8.38588331297695e6 0.0
8.38588331297695e6 2.791003825149247e6 0.0
0.0 0.0 0.0

-5.640336496044242e6 9.796884113281032e6 0.0
9.796884113281032e6 3.1722634830452376e6 0.0
0.0 0.0 0.0

-1.2208331876657158e6 8.997908595762067e6 0.0
8.997908595762067e6 -1.2441064058458102e6 0.0
0.0 0.0 0.0

-5.31063532999591e6 7.696044661889316e6 0.0
7.696044661889316e6 7.859697869066857e6 0.0
0.0 0.0 0.0

-119646.12877467951 7.455198317715542e6 0.0
7.455198317715542e6 -398820.24170262803 0.0
0.0 0.0 0.0

-1.273064174160146e6 6.113385490054439e6 0.0
6.113385490054439e6 -2.5052689900887185e6 0.0
0.0 0.0 0.0

-788854.0509682593 9.9718803761952e6 0.0
9.9718803761952e6 1.0377564138241636e6 0.0
0.0 0.0 0.0

-1.4187646490846436e7 1.3113576778440874e7 0.0
1.3113576778440874e7 9.098636858366814e6 0.0
0.0 0.0 0.0

-2.575732979578431e6 1.0682237923263695e7 0.0
1.0682237923263695e7 1.0342748788627685e6 0.0
0.0 0.0 0.0

1.1486242211819302e7 1.0397202751555292e7 0.0
1.0397202751555292e7 -205403.11542289378 0.0
0.0 0.0 0.0

-1.5426908398396627e6 5.891179653846609e6 0.0
5.891179653846609e6 -1.635343976722408e6 0.0
0.0 0.0 0.0

-3.0515232417334095e6 7.209112671246806e6 0.0
7.209112671246806e6 115696.34936152725 0.0
0.0 0.0 0.0

-1.4386268611597326e6 7.75254076170814e6 0.0
7.75254076170814e6 -2.975794139139268e6 0.0
0.0 0.0 0.0

-6.863368832396624e6 1.1684290503084114e7 0.0
1.1684290503084114e7 2.234018215136684e6 0.0
0.0 0.0 0.0

1.4478570167543935e6 6.623739638975606e6 0.0
6.623739638975606e6 -6.892823459531981e6 0.0
0.0 0.0 0.0

-580739.6905696639 3.610367029428796e6 0.0
3.610367029428796e6 -3.3584395137457587e6 0.0
0.0 0.0 0.0

-699039.3806988031 6.774668640176269e6 0.0
6.774668640176269e6 -3.7815357048082673e6 0.0
0.0 0.0 0.0

-3.94982720609722e6 8.96154582804486e6 0.0
8.96154582804486e6 2.839660039430757e6 0.0
0.0 0.0 0.0

-3.2563160939832e6 7.656151110442484e6 0.0
7.656151110442484e6 -22010.650061262306 0.0
0.0 0.0 0.0

-761674.8579917677 7.470927129145241e6 0.0
7.470927129145241e6 -980155.3304539565 0.0
0.0 0.0 0.0

-1.1160777537682634e6 5.4982607768325005e6 0.0
5.4982607768325005e6 -1.4669225591057006e6 0.0
0.0 0.0 0.0

-2.673253011893813e6 7.3306859754879875e6 0.0
7.3306859754879875e6 -218948.4009077011 0.0
0.0 0.0 0.0

887089.9468637435 9.663477783674052e6 0.0
9.663477783674052e6 -3.7114366213131575e6 0.0
0.0 0.0 0.0

-1.3183134932586309e7 1.271949803017784e7 0.0
1.271949803017784e7 8.47368146419111e6 0.0
0.0 0.0 0.0

-2.9573052781677647e6 7.600265236205829e6 0.0
7.600265236205829e6 49481.77702752128 0.0
0.0 0.0 0.0

-857584.1062420527 3.588200272845198e6 0.0
3.588200272845198e6 -728636.5415387211 0.0
0.0 0.0 0.0

4.5879288973698625e6 8.458356439123157e6 0.0
8.458356439123157e6 1.728339302156065e6 0.0
0.0 0.0 0.0

1.6359971695639216e6 7.911593670054387e6 0.0
7.911593670054387e6 -8.395097894765576e6 0.0
0.0 0.0 0.0

-4.680888384003395e6 9.051068449790811e6 0.0
9.051068449790811e6 2.2647227267110096e6 0.0
0.0 0.0 0.0

-1.1779621432899453e6 5.2060294043017635e6 0.0
5.2060294043017635e6 -616740.954269778 0.0
0.0 0.0 0.0

-1.347931306473803e6 5.893921051796401e6 0.0
5.893921051796401e6 -1.9052250870419664e6 0.0
0.0 0.0 0.0

-982856.7222841386 5.8379771533600185e6 0.0
5.8379771533600185e6 -2.7726915749192326e6 0.0
0.0 0.0 0.0

-1.249065288672419e7 1.2495405863282138e7 0.0
1.2495405863282138e7 7.354245766608063e6 0.0
0.0 0.0 0.0

598351.1446986895 7.757431411564288e6 0.0
7.757431411564288e6 -6.100226762420808e6 0.0
0.0 0.0 0.0

-1.2581427216419932e6 3.6236735912508266e6 0.0
3.6236735912508266e6 176657.371167681 0.0
0.0 0.0 0.0

-4.144159065481575e6 9.198101199324887e6 0.0
9.198101199324887e6 1.6982989943742536e6 0.0
0.0 0.0 0.0

-1.0123999061509148e6 5.72615170716803e6 0.0
5.72615170716803e6 -730471.3647856192 0.0
0.0 0.0 0.0

-2.8332404362691925e6 7.797217614293798e6 0.0
7.797217614293798e6 -1.0804173748690942e6 0.0
0.0 0.0 0.0

-3.352419276485861e6 7.609798846774789e6 0.0
7.609798846774789e6 349204.74781646626 0.0
0.0 0.0 0.0

-806855.2452974945 9.029361762537336e6 0.0
9.029361762537336e6 -4.242339756346727e6 0.0
0.0 0.0 0.0

-1.2026913955713846e7 1.2292259011383539e7 0.0
1.2292259011383539e7 7.175830115366119e6 0.0
0.0 0.0 0.0

-4.0975355025779796e6 9.153579315099156e6 0.0
9.153579315099156e6 2.7417758117505284e6 0.0
0.0 0.0 0.0

-3.2398856615104307e6 7.870596760765101e6 0.0
7.870596760765101e6 307138.07640282577 0.0
0.0 0.0 0.0

1.2410371032607178e6 6.796926240484303e6 0.0
6.796926240484303e6 -6.696665289651774e6 0.0
0.0 0.0 0.0

-1.472865387192153e6 5.084013937626312e6 0.0
5.084013937626312e6 -528674.0742197594 0.0
0.0 0.0 0.0

-1.1277482325387368e7 1.1939202825269006e7 0.0
1.1939202825269006e7 6.888758671747773e6 0.0
0.0 0.0 0.0

1.947682284387841e6 7.653329380908317e6 0.0
7.653329380908317e6 -8.341561448848561e6 0.0
0.0 0.0 0.0

-1.0139160100072078e7 1.211086600822714e7 0.0
1.211086600822714e7 6.045471299982476e6 0.0
0.0 0.0 0.0

-9.523046933852276e6 1.1901538979675585e7 0.0
1.1901538979675585e7 5.623018040543376e6 0.0
0.0 0.0 0.0

-5.878127768203945e6 9.698789583985893e6 0.0
9.698789583985893e6 2.6572098249852313e6 0.0
0.0 0.0 0.0

-6.141024347131478e6 9.892989703165568e6 0.0
9.892989703165568e6 2.9338656530941497e6 0.0
0.0 0.0 0.0

-6.4353867296660775e6 1.0123129377953766e7 0.0
1.0123129377953766e7 3.1605619996845163e6 0.0
0.0 0.0 0.0

-6.738907259455991e6 1.0315544640275445e7 0.0
1.0315544640275445e7 3.4779400514724106e6 0.0
0.0 0.0 0.0

-7.007283870743516e6 1.0472086965186706e7 0.0
1.0472086965186706e7 3.701138748663352e6 0.0
0.0 0.0 0.0

-7.309708809151181e6 1.0707354256467033e7 0.0
1.0707354256467033e7 3.8238763237690604e6 0.0
0.0 0.0 0.0

-2.157527521516716e6 7.074358975923281e6 0.0
7.074358975923281e6 -331927.45158912044 0.0
0.0 0.0 0.0

-7.8029876879259255e6 1.0746170432226436e7 0.0
1.0746170432226436e7 4.468817249294637e6 0.0
0.0 0.0 0.0

-8.264146450851185e6 1.0965931459237298e7 0.0
1.0965931459237298e7 4.701982806814178e6 0.0
0.0 0.0 0.0

-2.761204400562699e6 6.134596359757436e6 0.0
6.134596359757436e6 2.0103755790565049e6 0.0
0.0 0.0 0.0

-9.101777127360974e6 1.1619271179821558e7 0.0
1.1619271179821558e7 5.456888885354544e6 0.0
0.0 0.0 0.0

-8.698957437530275e6 1.1193601890403857e7 0.0
1.1193601890403857e7 4.827551533311786e6 0.0
0.0 0.0 0.0

-9.023955758715667e6 1.137257141565262e7 0.0
1.137257141565262e7 5.056433493779777e6 0.0
0.0 0.0 0.0

-8.557241104786832e6 1.1342637992833365e7 0.0
1.1342637992833365e7 5.060637978906432e6 0.0
0.0 0.0 0.0

-1.8196687564414453e6 6.460092445249504e6 0.0
6.460092445249504e6 -989534.6444267911 0.0
0.0 0.0 0.0

-9.543703860630637e6 1.1713674389340779e7 0.0
1.1713674389340779e7 5.329883331983907e6 0.0
0.0 0.0 0.0

-8.414940221016396e6 1.1134798203575935e7 0.0
1.1134798203575935e7 4.898608658966984e6 0.0
0.0 0.0 0.0

-8.09048495330409e6 1.0970223128019435e7 0.0
1.0970223128019435e7 4.652262658738153e6 0.0
0.0 0.0 0.0

-7.389475038545341e6 1.0944032480883412e7 0.0
1.0944032480883412e7 4.1577772743981066e6 0.0
0.0 0.0 0.0

-7.138238369901577e6 1.063021214746618e7 0.0
1.063021214746618e7 3.947201202084453e6 0.0
0.0 0.0 0.0

-6.787704478444985e6 1.045515869020243e7 0.0
1.045515869020243e7 3.71427559312594e6 0.0
0.0 0.0 0.0

-6.479961890107689e6 1.0298470349920467e7 0.0
1.0298470349920467e7 3.4768232359822625e6 0.0
0.0 0.0 0.0

-6.170754277023978e6 1.0070424819715107e7 0.0
1.0070424819715107e7 3.2274393100440446e6 0.0
0.0 0.0 0.0

-5.850216811100006e6 9.872337486217704e6 0.0
9.872337486217704e6 2.948996308212479e6 0.0
0.0 0.0 0.0

-4.251043659101957e6 8.619864442105744e6 0.0
8.619864442105744e6 767550.018300409 0.0
0.0 0.0 0.0

-5.163658231557954e6 7.05555336754016e6 0.0
7.05555336754016e6 7.677647328091575e6 0.0
0.0 0.0 0.0

-1.013027660889009e7 1.1887810519783022e7 0.0
1.1887810519783022e7 5.697193946175459e6 0.0
0.0 0.0 0.0

249023.25804249663 6.666836590912721e6 0.0
6.666836590912721e6 -4.6537401765844375e6 0.0
0.0 0.0 0.0

-4.0200725447146897e6 8.486629329314211e6 0.0
8.486629329314211e6 1.723083927054498e6 0.0
0.0 0.0 0.0

-1.0910449059379505e7 1.1798829640869055e7 0.0
1.1798829640869055e7 6.669424034641035e6 0.0
0.0 0.0 0.0

-1.499809379999186e6 5.208603309373615e6 0.0
5.208603309373615e6 469690.0362055637 0.0
0.0 0.0 0.0

-1.185240825146045e7 1.2040089591977987e7 0.0
1.2040089591977987e7 6.7627252909157565e6 0.0
0.0 0.0 0.0

-1.7007700386297465e6 4.625291422396319e6 0.0
4.625291422396319e6 795721.2485314987 0.0
0.0 0.0 0.0

-1.2904868364819054e7 1.2359081258757949e7 0.0
1.2359081258757949e7 7.141556026798875e6 0.0
0.0 0.0 0.0

-1.7880816770918109e6 9.873580645965107e6 0.0
9.873580645965107e6 -3.1920727922970983e6 0.0
0.0 0.0 0.0

-387586.7046594117 6.681498734721291e6 0.0
6.681498734721291e6 -3.6372054282025383e6 0.0
0.0 0.0 0.0

625818.2022816557 8.495973039533736e6 0.0
8.495973039533736e6 -6.835868029721669e6 0.0
0.0 0.0 0.0

-3.1358107128377235e6 7.705224728747241e6 0.0
7.705224728747241e6 363497.4249708301 0.0
0.0 0.0 0.0

-2.0629630917388357e6 6.954552484258651e6 0.0
6.954552484258651e6 -1.777833707381549e6 0.0
0.0 0.0 0.0

-3.842748835996095e6 8.624929405153977e6 0.0
8.624929405153977e6 -19276.244277359918 0.0
0.0 0.0 0.0

-1.6424045299884246e6 1.0107135947460188e7 0.0
1.0107135947460188e7 -3.3973000424752925e6 0.0
0.0 0.0 0.0

1.2832969225500277e6 5.157035697375502e6 0.0
5.157035697375502e6 -5.200002462544649e6 0.0
0.0 0.0 0.0

-1.7826877428624474e6 5.91181185151764e6 0.0
5.91181185151764e6 -266349.8879261196 0.0
0.0 0.0 0.0

-1.3877590159038661e7 1.2298304517282313e7 0.0
1.2298304517282313e7 7.814496763074548e6 0.0
0.0 0.0 0.0

-641763.2465065544 7.277236952267614e6 0.0
7.277236952267614e6 -3.4266078179818015e6 0.0
0.0 0.0 0.0

-2.2289294497216e6 3.467513261064312e6 0.0
3.467513261064312e6 1.7870396968977682e6 0.0
0.0 0.0 0.0

-2.3874435058786785e6 7.055975523454953e6 0.0
7.055975523454953e6 -481545.65006155265 0.0
0.0 0.0 0.0

-7.322709391501291e6 1.0896715431810971e7 0.0
1.0896715431810971e7 3.486753180321648e6 0.0
0.0 0.0 0.0

414066.6257962994 6.679444642070178e6 0.0
6.679444642070178e6 -4.875908812940533e6 0.0
0.0 0.0 0.0

-1.146894653279388e7 9.799648984402848e6 0.0
9.799648984402848e6 7.865535632035775e6 0.0
0.0 0.0 0.0

-2.4424665603656205e6 7.48729486372308e6 0.0
7.48729486372308e6 8370.139690026757 0.0
0.0 0.0 0.0

-7.240969194497103e6 8.528680113186589e6 0.0
8.528680113186589e6 2.307569652995412e6 0.0
0.0 0.0 0.0

-478819.72164726176 9.899933983695183e6 0.0
9.899933983695183e6 477520.4573024508 0.0
0.0 0.0 0.0

-1.5105665942544477e7 1.2761801278305648e7 0.0
1.2761801278305648e7 8.548133522839833e6 0.0
0.0 0.0 0.0

364934.324851708 8.034034505724746e6 0.0
8.034034505724746e6 -5.8981830680880565e6 0.0
0.0 0.0 0.0

-2.4359925725607234e6 6.798557697953824e6 0.0
6.798557697953824e6 -32521.878620721865 0.0
0.0 0.0 0.0

-457897.40372967476 6.405104668861655e6 0.0
6.405104668861655e6 -1.526324623904687e6 0.0
0.0 0.0 0.0

-237729.26931967866 6.397274531303473e6 0.0
6.397274531303473e6 -4.0519735391596192e6 0.0
0.0 0.0 0.0

389156.49641287315 8.083104211040038e6 0.0
8.083104211040038e6 -1.7747327569667008e6 0.0
0.0 0.0 0.0

8079.097185268765 6.552535113732985e6 0.0
6.552535113732985e6 -4.436453037217346e6 0.0
0.0 0.0 0.0

-378532.76336067874 9.39170292148436e6 0.0
9.39170292148436e6 -1.3683634146468458e6 0.0
0.0 0.0 0.0

-3.326355648786192e6 7.840739034416206e6 0.0
7.840739034416206e6 697735.590158368 0.0
0.0 0.0 0.0

-3.5502048113514856e6 7.925210403648069e6 0.0
7.925210403648069e6 236969.9509222824 0.0
0.0 0.0 0.0

-146544.1413031756 6.6892302045163335e6 0.0
6.6892302045163335e6 -3.9546273580696164e6 0.0
0.0 0.0 0.0

1.2057008531671523e6 9.804635651880816e6 0.0
9.804635651880816e6 4.141459274615868e6 0.0
0.0 0.0 0.0

-975794.8343069123 7.513049425629912e6 0.0
7.513049425629912e6 -3.1386142971387026e6 0.0
0.0 0.0 0.0

-1.948703826275731e6 6.927685140552853e6 0.0
6.927685140552853e6 -1.387449722068599e6 0.0
0.0 0.0 0.0

-3.066235502788866e6 1.0157404019029992e7 0.0
1.0157404019029992e7 1.0914972563726746e6 0.0
0.0 0.0 0.0

-909443.5163070624 5.797882713131649e6 0.0
5.797882713131649e6 -2.481712602739559e6 0.0
0.0 0.0 0.0

-4.1730698641544194e6 9.293267219246525e6 0.0
9.293267219246525e6 2.662593872839704e6 0.0
0.0 0.0 0.0

-1.8012789831976627e6 1.0231393886514451e7 0.0
1.0231393886514451e7 2.462645127932678e6 0.0
0.0 0.0 0.0

-1.6165998644462626e6 6.283668394348439e6 0.0
6.283668394348439e6 -130203.57453235541 0.0
0.0 0.0 0.0

-1.6710324802261962e7 1.3751255044091063e7 0.0
1.3751255044091063e7 8.161843592419547e6 0.0
0.0 0.0 0.0

-6.876260223423511e6 1.0160307758066736e7 0.0
1.0160307758066736e7 9.017260117472038e6 0.0
0.0 0.0 0.0

-2.2145676069297725e6 6.222265830531537e6 0.0
6.222265830531537e6 -687611.909544986 0.0
0.0 0.0 0.0

3.340162980882232e6 9.00461599987785e6 0.0
9.00461599987785e6 -2.9172845020635873e6 0.0
0.0 0.0 0.0

802476.2648484141 6.615745771229372e6 0.0
6.615745771229372e6 -5.524117139673012e6 0.0
0.0 0.0 0.0

634203.8622248117 8.137561009764243e6 0.0
8.137561009764243e6 -6.587215850211132e6 0.0
0.0 0.0 0.0

-3.0670418207422458e6 7.867984603117597e6 0.0
7.867984603117597e6 998570.7202125152 0.0
0.0 0.0 0.0

-9.820803442471184e6 8.507230069845833e6 0.0
8.507230069845833e6 5.696822062578429e6 0.0
0.0 0.0 0.0

-2.6232492661522203e6 6.9816183591133e6 0.0
6.9816183591133e6 278733.4461815789 0.0
0.0 0.0 0.0

-2.0638702659916827e6 8.142498088918045e6 0.0
8.142498088918045e6 -2.321844605484269e6 0.0
0.0 0.0 0.0

-1.0984844576782234e7 8.67750492724395e6 0.0
8.67750492724395e6 8.118366517400192e6 0.0
0.0 0.0 0.0

-715313.030476392 7.008728409221148e6 0.0
7.008728409221148e6 -3.8960571941939485e6 0.0
0.0 0.0 0.0

-2.9155482510551163e6 7.296920274136894e6 0.0
7.296920274136894e6 552288.6538889296 0.0
0.0 0.0 0.0

-1.423098768858358e6 5.147943138140586e6 0.0
5.147943138140586e6 -524400.3410106557 0.0
0.0 0.0 0.0

-3.17360199860255e6 8.152302993301007e6 0.0
8.152302993301007e6 891179.1534774741 0.0
0.0 0.0 0.0

-1.8999496207106937e7 1.7892690436997693e7 0.0
1.7892690436997693e7 4.886353140784759e6 0.0
0.0 0.0 0.0

-1.895941579426991e6 6.809770730537599e6 0.0
6.809770730537599e6 -92404.55260856944 0.0
0.0 0.0 0.0

-1.1519355462142015e6 3.257929810434342e6 0.0
3.257929810434342e6 -1.6595612608819825e6 0.0
0.0 0.0 0.0

-3.726421020272998e6 8.253854373950526e6 0.0
8.253854373950526e6 924335.7431967147 0.0
0.0 0.0 0.0

-4.193437365710167e6 8.43092240991445e6 0.0
8.43092240991445e6 1.679322708958492e6 0.0
0.0 0.0 0.0

-2.8446492508784793e6 8.307139818954256e6 0.0
8.307139818954256e6 -834297.1988711937 0.0
0.0 0.0 0.0

-3.758256724674021e6 8.03261052745311e6 0.0
8.03261052745311e6 586113.5165357077 0.0
0.0 0.0 0.0

-636885.0613591672 4.776437067849466e6 0.0
4.776437067849466e6 -910537.4706974793 0.0
0.0 0.0 0.0

724174.866633855 8.618083942388581e6 0.0
8.618083942388581e6 -3.7939481987329326e6 0.0
0.0 0.0 0.0

-4.534676120847447e6 8.706015990598686e6 0.0
8.706015990598686e6 1.9740277146917877e6 0.0
0.0 0.0 0.0

-770456.4440899538 5.922107929506162e6 0.0
5.922107929506162e6 -3.440699824843445e6 0.0
0.0 0.0 0.0

899628.7106366379 8.785767321648756e6 0.0
8.785767321648756e6 -3.5500375176052623e6 0.0
0.0 0.0 0.0

-6.801397583376502e6 8.504333660848273e6 0.0
8.504333660848273e6 1.232798669368776e6 0.0
0.0 0.0 0.0

-2.1458341324859085e6 7.2692219634846365e6 0.0
7.2692219634846365e6 -16714.04206276452 0.0
0.0 0.0 0.0

-1.4869532009418237e6 9.790979545171877e6 0.0
9.790979545171877e6 -3.583074616143168e6 0.0
0.0 0.0 0.0

-4.655970539970046e6 9.09751048812097e6 0.0
9.09751048812097e6 2.314820054703851e6 0.0
0.0 0.0 0.0

5.054627335602185e6 3.8030409956689714e6 0.0
3.8030409956689714e6 -7.3193292937207e6 0.0
0.0 0.0 0.0

-335561.6388819722 1.3499980108953947e6 0.0
1.3499980108953947e6 -936816.0545252862 0.0
0.0 0.0 0.0

-117108.91382351948 970116.056449951 0.0
970116.056449951 -1.3082251862832748e6 0.0
0.0 0.0 0.0

-1.2240847700228842e6 878677.9934501074 0.0
878677.9934501074 1.231435400691142e6 0.0
0.0 0.0 0.0

280726.4391865113 174765.50195394695 0.0
174765.50195394695 -2.105434233533798e6 0.0
0.0 0.0 0.0

-847231.1057092422 773823.2975187541 0.0
773823.2975187541 448188.55489281565 0.0
0.0 0.0 0.0

4.503008028339174e6 1.2491139669138058e6 0.0
1.2491139669138058e6 -6.670958459928288e6 0.0
0.0 0.0 0.0

-41596.350526460694 2.500421904000016e6 0.0
2.500421904000016e6 -515155.6678251668 0.0
0.0 0.0 0.0

-101248.00733302406 2.011594861445572e6 0.0
2.011594861445572e6 -769042.2064143923 0.0
0.0 0.0 0.0

1.5416405675030039e6 -277831.535033988 0.0
-277831.535033988 -3.4394351893394254e6 0.0
0.0 0.0 0.0

-349154.13224442897 742636.6124050429 0.0
742636.6124050429 -392720.10646282695 0.0
0.0 0.0 0.0

2.2316358866311237e6 1.2200519657791627e6 0.0
1.2200519657791627e6 -4.266731849569855e6 0.0
0.0 0.0 0.0

1.4759521907738063e6 1.154486908452832e6 0.0
1.154486908452832e6 -2.8210392361401375e6 0.0
0.0 0.0 0.0

-88717.26803775056 1.806647143169744e6 0.0
1.806647143169744e6 -775055.8375012905 0.0
0.0 0.0 0.0

747277.194780268 4.730278840582366e6 0.0
4.730278840582366e6 -4.374135668399098e6 0.0
0.0 0.0 0.0

1.1545638610800619e6 4.841081594136015e6 0.0
4.841081594136015e6 -5.285978912219019e6 0.0
0.0 0.0 0.0

536862.8768716597 4.497100518524801e6 0.0
4.497100518524801e6 -3.809761507263271e6 0.0
0.0 0.0 0.0

2.927002303187942e6 4.886027197937348e6 0.0
4.886027197937348e6 -6.33447030121788e6 0.0
0.0 0.0 0.0

-174285.95192679294 2.2763032915358567e6 0.0
2.2763032915358567e6 -474079.11184722686 0.0
0.0 0.0 0.0

-410717.3468157772 619202.182995019 0.0
619202.182995019 -163371.6778809009 0.0
0.0 0.0 0.0

996218.0523247593 4.859867709217982e6 0.0
4.859867709217982e6 -4.854333124682775e6 0.0
0.0 0.0 0.0

4.1530168153391858e6 4.341794248932452e6 0.0
4.341794248932452e6 -7.372373799448301e6 0.0
0.0 0.0 0.0

3.580886381005033e6 5.3009776950453315e6 0.0
5.3009776950453315e6 -6.474899526563458e6 0.0
0.0 0.0 0.0

4.392582669459688e6 4.302000271075811e6 0.0
4.302000271075811e6 -6.919399277412478e6 0.0
0.0 0.0 0.0

-1.5837024083545026e6 8.491486911870826e6 0.0
8.491486911870826e6 -2.5676044107680423e6 0.0
0.0 0.0 0.0

-1.4980408805838916e6 5.512135713666651e6 0.0
5.512135713666651e6 361670.62114175595 0.0
0.0 0.0 0.0

-2.3907145348372944e6 2.4488460089404336e6 0.0
2.4488460089404336e6 1.5229654735785215e6 0.0
0.0 0.0 0.0

-4.32074088437603e6 9.462860918641742e6 0.0
9.462860918641742e6 2.7337432830546475e6 0.0
0.0 0.0 0.0

-79215.7259770208 9.12297360602906e6 0.0
9.12297360602906e6 -5.596522035536366e6 0.0
0.0 0.0 0.0

-3.4097656185943703e6 7.622100726557501e6 0.0
7.622100726557501e6 786945.8347945032 0.0
0.0 0.0 0.0

-1.820211073247489e7 1.4935507021235168e7 0.0
1.4935507021235168e7 8.361315973111271e6 0.0
0.0 0.0 0.0

-2.4809627330375076e6 6.564664743705095e6 0.0
6.564664743705095e6 -423019.3566745654 0.0
0.0 0.0 0.0

-1.4781721399031493e6 8.109813467868286e6 0.0
8.109813467868286e6 584039.0746665394 0.0
0.0 0.0 0.0

992579.4100298414 8.384363678016023e6 0.0
8.384363678016023e6 866462.6431245405 0.0
0.0 0.0 0.0

-1.9996448831029637e6 1.0261901904745122e7 0.0
1.0261901904745122e7 757694.414581201 0.0
0.0 0.0 0.0

-3.4650301292064455e6 8.373598476395999e6 0.0
8.373598476395999e6 1.2136205502732494e6 0.0
0.0 0.0 0.0

-722440.0107301432 1.0776242101582522e7 0.0
1.0776242101582522e7 -3.5318123992028874e6 0.0
0.0 0.0 0.0

-2.9462884219911024e6 7.975663291938277e6 0.0
7.975663291938277e6 734782.906576795 0.0
0.0 0.0 0.0

-3.9393847177854916e6 8.205103382298693e6 0.0
8.205103382298693e6 894177.9170970717 0.0
0.0 0.0 0.0

-3.355896121190566e6 7.858331883859547e6 0.0
7.858331883859547e6 -77436.26026949205 0.0
0.0 0.0 0.0

-2.168433666186994e6 7.271541754378604e6 0.0
7.271541754378604e6 -234594.5132733183 0.0
0.0 0.0 0.0

-1.9298864997403806e6 6.896407441438986e6 0.0
6.896407441438986e6 -2.0765886612377428e6 0.0
0.0 0.0 0.0

-2.5603624920677505e6 6.911010605216628e6 0.0
6.911010605216628e6 343269.9289948639 0.0
0.0 0.0 0.0

-440229.1996809648 6.3822670739993565e6 0.0
6.3822670739993565e6 -3.74320066055088e6 0.0
0.0 0.0 0.0

-599440.3833122666 1.4990424896640556e6 0.0
1.4990424896640556e6 -837990.8268676137 0.0
0.0 0.0 0.0

-650209.178636828 1.1693005449386789e6 0.0
1.1693005449386789e6 -763939.1190488646 0.0
0.0 0.0 0.0

-275677.2323107017 696401.9153424368 0.0
696401.9153424368 -192924.99484273276 0.0
0.0 0.0 0.0

-520348.3190326238 2.0668456750937414e6 0.0
2.0668456750937414e6 -838621.4713419084 0.0
0.0 0.0 0.0

-264176.81679724914 2.3526895136481705e6 0.0
2.3526895136481705e6 -1.0072888457835282e6 0.0
0.0 0.0 0.0

947346.9353627476 4.866991487923152e6 0.0
4.866991487923152e6 -4.598934462869963e6 0.0
0.0 0.0 0.0

1.0284976368647153e6 4.881907396605486e6 0.0
4.881907396605486e6 -4.825324934830013e6 0.0
0.0 0.0 0.0

-761253.9219082608 814609.2262704162 0.0
814609.2262704162 404038.3287398202 0.0
0.0 0.0 0.0

2.871962953810661e6 4.720686652635116e6 0.0
4.720686652635116e6 -4.366086477837741e6 0.0
0.0 0.0 0.0

5.007407727830527e6 3.7830702789166253e6 0.0
3.7830702789166253e6 -7.256775976711682e6 0.0
0.0 0.0 0.0

4.53811876355494e6 4.632783240356393e6 0.0
4.632783240356393e6 -6.314211877747657e6 0.0
0.0 0.0 0.0

4.303183405456784e6 4.286606126183946e6 0.0
4.286606126183946e6 -6.669186275639967e6 0.0
0.0 0.0 0.0

-2.383721922395456e6 6.333358704925364e6 0.0
6.333358704925364e6 -288415.1558410211 0.0
0.0 0.0 0.0

-4.911586962684888e6 7.447594562517578e6 0.0
7.447594562517578e6 6.850032548883857e6 0.0
0.0 0.0 0.0

-2.729400300619985e6 7.445448887470084e6 0.0
7.445448887470084e6 950771.8674700425 0.0
0.0 0.0 0.0

458556.4749246703 6.054262832997749e6 0.0
6.054262832997749e6 -4.013655822164383e6 0.0
0.0 0.0 0.0

-4.859566256631253e6 9.569583055397969e6 0.0
9.569583055397969e6 861998.4734459501 0.0
0.0 0.0 0.0

-2.0392157604902505e6 9.718920036443103e6 0.0
9.718920036443103e6 2.4704612738345535e6 0.0
0.0 0.0 0.0

-2.724804732016349e6 5.167459859830202e6 0.0
5.167459859830202e6 1.630479089559492e6 0.0
0.0 0.0 0.0

-295403.43017385784 6.6436726081034485e6 0.0
6.6436726081034485e6 -3.911758920823487e6 0.0
0.0 0.0 0.0

-648013.6988302601 7.30141740105755e6 0.0
7.30141740105755e6 -3.9763359470435744e6 0.0
0.0 0.0 0.0

-3.071633949774902e6 7.593787332609515e6 0.0
7.593787332609515e6 -330968.4825154635 0.0
0.0 0.0 0.0

-2.6128220708235214e6 9.440197835745964e6 0.0
9.440197835745964e6 3.2628862058431795e6 0.0
0.0 0.0 0.0

-1.6234930668058384e6 5.551129154814787e6 0.0
5.551129154814787e6 -417880.85772228055 0.0
0.0 0.0 0.0

-3.0616113170694103e6 8.282481576485167e6 0.0
8.282481576485167e6 -484185.1635832535 0.0
0.0 0.0 0.0

-4.524509861407557e6 8.909544181662926e6 0.0
8.909544181662926e6 1.889258988384112e6 0.0
0.0 0.0 0.0

-1.3021970886779511e6 7.72082287852846e6 0.0
7.72082287852846e6 -2.903585571521498e6 0.0
0.0 0.0 0.0

-3.4241397621565443e6 7.983974836422457e6 0.0
7.983974836422457e6 642103.1608129502 0.0
0.0 0.0 0.0

-284311.2935316147 2.0539974393888533e6 0.0
2.0539974393888533e6 2.358987018879084e6 0.0
0.0 0.0 0.0

-2.5192749097491363e6 9.565815961922068e6 0.0
9.565815961922068e6 3.011479705150967e6 0.0
0.0 0.0 0.0

1.3394448665976631e6 7.779761433021861e6 0.0
7.779761433021861e6 -7.432264627334959e6 0.0
0.0 0.0 0.0

530693.4875999652 8.0956188089620685e6 0.0
8.0956188089620685e6 -6.272288445516463e6 0.0
0.0 0.0 0.0

-2.76948373068562e6 8.011809931696638e6 0.0
8.011809931696638e6 -733158.1713735732 0.0
0.0 0.0 0.0

-4.485547833894844e6 9.789594988216545e6 0.0
9.789594988216545e6 1.5199224605628923e6 0.0
0.0 0.0 0.0

2.787673585027991e6 3.8707365269373646e6 0.0
3.8707365269373646e6 -5.269413065734441e6 0.0
0.0 0.0 0.0

-2.340754698783545e6 6.659365089990963e6 0.0
6.659365089990963e6 20032.439389969106 0.0
0.0 0.0 0.0

-3.456872914207083e6 7.761278704190328e6 0.0
7.761278704190328e6 303045.749008609 0.0
0.0 0.0 0.0

-3.523536130426287e6 8.147381512465531e6 0.0
8.147381512465531e6 577017.3333942473 0.0
0.0 0.0 0.0

235780.40500694583 8.935875379204515e6 0.0
8.935875379204515e6 -5.82962773192497e6 0.0
0.0 0.0 0.0

-93952.19696632819 7.980927822873365e6 0.0
7.980927822873365e6 -5.213266122248582e6 0.0
0.0 0.0 0.0

-1.9198476262215744e6 5.673530217771907e6 0.0
5.673530217771907e6 -613244.7370363713 0.0
0.0 0.0 0.0

-3.011587221474665e6 7.970253297052442e6 0.0
7.970253297052442e6 752856.7597359899 0.0
0.0 0.0 0.0

31658.024275577394 8.84649861304457e6 0.0
8.84649861304457e6 -5.700732780099766e6 0.0
0.0 0.0 0.0

-3.8084552321676915e6 8.863271373508146e6 0.0
8.863271373508146e6 348638.91460944735 0.0
0.0 0.0 0.0

1.9963829544065124e6 920532.7982082709 0.0
920532.7982082709 -3.898770951112945e6 0.0
0.0 0.0 0.0

-7.089471781195038e6 1.3616089903265402e7 0.0
1.3616089903265402e7 2.732217605749571e6 0.0
0.0 0.0 0.0

1.6249548147519054e6 4.8497254311043555e6 0.0
4.8497254311043555e6 -4.605845663386495e6 0.0
0.0 0.0 0.0

-1.526481322368946e6 6.140130327342166e6 0.0
6.140130327342166e6 -1.247971182482909e6 0.0
0.0 0.0 0.0

-4.004592223416522e6 8.229301811438176e6 0.0
8.229301811438176e6 2.3131816531128474e6 0.0
0.0 0.0 0.0

-1.7852743844053023e6 5.873213776295133e6 0.0
5.873213776295133e6 -361682.8957836195 0.0
0.0 0.0 0.0

-2.2457473261873783e6 6.422638128645796e6 0.0
6.422638128645796e6 -742033.7533729882 0.0
0.0 0.0 0.0

-3.6789642376589896e6 7.895544639504053e6 0.0
7.895544639504053e6 648532.2990313724 0.0
0.0 0.0 0.0

-1.764444514675917e6 5.264040131813753e6 0.0
5.264040131813753e6 -835791.7728759695 0.0
0.0 0.0 0.0

-371566.2912816123 4.248706180504446e6 0.0
4.248706180504446e6 -1.066669295738949e6 0.0
0.0 0.0 0.0

-2.887932101919683e6 7.924951195924108e6 0.0
7.924951195924108e6 595496.678863612 0.0
0.0 0.0 0.0

-3.3037951454999917e6 7.879839104630963e6 0.0
7.879839104630963e6 1.1120862508285537e6 0.0
0.0 0.0 0.0

-493100.0805357393 2.5908786076037027e6 0.0
2.5908786076037027e6 -3.424562525712914e6 0.0
0.0 0.0 0.0

-2.403570631540867e6 7.562486705500708e6 0.0
7.562486705500708e6 111902.28509745083 0.0
0.0 0.0 0.0

-3.85012290250018e6 8.194107510563249e6 0.0
8.194107510563249e6 527758.9975302815 0.0
0.0 0.0 0.0

833586.596959271 7.338319383489736e6 0.0
7.338319383489736e6 -5.491030572524017e6 0.0
0.0 0.0 0.0

-3.5955587539148834e6 9.829371176503789e6 0.0
9.829371176503789e6 1.250991456499555e6 0.0
0.0 0.0 0.0

-2.784511578626026e6 7.327975678773466e6 0.0
7.327975678773466e6 -590189.6397867813 0.0
0.0 0.0 0.0

1.4161156581004434e6 1.139539611892657e6 0.0
1.139539611892657e6 -2.1916386727273823e6 0.0
0.0 0.0 0.0

-5.149554538336942e6 9.924094041941032e6 0.0
9.924094041941032e6 3.043299706880738e6 0.0
0.0 0.0 0.0

-1.4022229170785262e6 4.971136908724857e6 0.0
4.971136908724857e6 -246500.55226407223 0.0
0.0 0.0 0.0

-2.5990237033374724e6 6.92448757090976e6 0.0
6.92448757090976e6 -521910.0764269722 0.0
0.0 0.0 0.0

-4.1441059865739415e6 8.635769895485932e6 0.0
8.635769895485932e6 1.1203995296337998e6 0.0
0.0 0.0 0.0

-4.59722205218291e6 8.71548958162379e6 0.0
8.71548958162379e6 1.5219856227367788e6 0.0
0.0 0.0 0.0

-3.646397025661109e6 8.129248241608308e6 0.0
8.129248241608308e6 171310.50371860317 0.0
0.0 0.0 0.0

-3.5450678118736777e6 7.988409889467425e6 0.0
7.988409889467425e6 1.068723659027343e6 0.0
0.0 0.0 0.0

2.614612232515089e6 1.4210732563394771e6 0.0
1.4210732563394771e6 -4.75788412281953e6 0.0
0.0 0.0 0.0

-5.73320537244792e6 1.0377200903040446e7 0.0
1.0377200903040446e7 1.6132069628179264e6 0.0
0.0 0.0 0.0

-999166.7100678086 1.0194632988349006e7 0.0
1.0194632988349006e7 -7.280913164315099e6 0.0
0.0 0.0 0.0

-343169.5376600558 1.2775018640971238e7 0.0
1.2775018640971238e7 1.2129585992912754e7 0.0
0.0 0.0 0.0

-1.1667046399410903e6 8.347497972449495e6 0.0
8.347497972449495e6 -3.6811088935507718e6 0.0
0.0 0.0 0.0

-3.259073866491857e6 8.273877519099633e6 0.0
8.273877519099633e6 -151568.43705539883 0.0
0.0 0.0 0.0

-271493.1922774245 8.473511599080848e6 0.0
8.473511599080848e6 -5.587158727887537e6 0.0
0.0 0.0 0.0

-2.499469941450049e6 7.0622903182359515e6 0.0
7.0622903182359515e6 -858057.7918626616 0.0
0.0 0.0 0.0

-1.8247135774737597e6 1.0542276666042743e7 0.0
1.0542276666042743e7 -2.410539060286394e6 0.0
0.0 0.0 0.0

-2.204407319128728e6 6.9872801571376715e6 0.0
6.9872801571376715e6 -1.4727518783091945e6 0.0
0.0 0.0 0.0

-3.561218933766419e6 7.774645827147992e6 0.0
7.774645827147992e6 695193.0372970891 0.0
0.0 0.0 0.0

1.8313644328810931e6 7.726987122468534e6 0.0
7.726987122468534e6 -8.11965319849498e6 0.0
0.0 0.0 0.0

-3.6485337450988656e6 9.990169263608024e6 0.0
9.990169263608024e6 953999.1459053766 0.0
0.0 0.0 0.0

-3.9337103281682665e6 8.475861530757166e6 0.0
8.475861530757166e6 1.5089303678747865e6 0.0
0.0 0.0 0.0

-2.0906121782670706e6 6.959372054459648e6 0.0
6.959372054459648e6 -1.0847056764254528e6 0.0
0.0 0.0 0.0

-294606.9983457187 8.103708433780211e6 0.0
8.103708433780211e6 -4.882427250520257e6 0.0
0.0 0.0 0.0

1.423915876571129e6 1.2052959748143248e7 0.0
1.2052959748143248e7 4.7463830556622315e6 0.0
0.0 0.0 0.0

-3.4419480430113175e6 9.318871803891711e6 0.0
9.318871803891711e6 -819606.3814388352 0.0
0.0 0.0 0.0

-2.0221352886234485e7 1.5906835939765751e7 0.0
1.5906835939765751e7 8.936543179584917e6 0.0
0.0 0.0 0.0

-935756.7201369082 8.289856925848989e6 0.0
8.289856925848989e6 -3.980664134637877e6 0.0
0.0 0.0 0.0

-3.3450629803672903e6 8.070763867054157e6 0.0
8.070763867054157e6 249316.71683837124 0.0
0.0 0.0 0.0

2.5377620219817264e6 1.412838811316127e6 0.0
1.412838811316127e6 -3.803413819695417e6 0.0
0.0 0.0 0.0

618147.8713508518 6.990856415842144e6 0.0
6.990856415842144e6 -5.438201428627674e6 0.0
0.0 0.0 0.0

-4.198793026288077e6 8.669648285961682e6 0.0
8.669648285961682e6 1.5805481264544316e6 0.0
0.0 0.0 0.0

-309274.2458370901 9.048387976562167e6 0.0
9.048387976562167e6 -6.783158757574975e6 0.0
0.0 0.0 0.0

-2.2336646723044314e6 7.00570324953496e6 0.0
7.00570324953496e6 -780468.2502547811 0.0
0.0 0.0 0.0

-905171.6629700382 6.078996755203337e6 0.0
6.078996755203337e6 -2.7216052623556554e6 0.0
0.0 0.0 0.0

-2.2001725003083036e6 6.576462534605559e6 0.0
6.576462534605559e6 140738.47443435842 0.0
0.0 0.0 0.0

-681518.7856444494 8.245089499191452e6 0.0
8.245089499191452e6 -4.3125451400109185e6 0.0
0.0 0.0 0.0

-2.319381613953068e6 6.336033569785789e6 0.0
6.336033569785789e6 -216318.56087474024 0.0
0.0 0.0 0.0

-1.1968524002770996e6 9.666132191825883e6 0.0
9.666132191825883e6 -3.9262941628510384e6 0.0
0.0 0.0 0.0

-1.2880632009033935e7 7.692238949715765e6 0.0
7.692238949715765e6 6.564926260307692e6 0.0
0.0 0.0 0.0

-88441.9555671939 2.478813844564058e6 0.0
2.478813844564058e6 -654560.4142642935 0.0
0.0 0.0 0.0

-2.3537318009721087e6 7.171107354600229e6 0.0
7.171107354600229e6 138637.29609192396 0.0
0.0 0.0 0.0

-3.62362943400063e6 8.121681103729929e6 0.0
8.121681103729929e6 1.0113935813071537e6 0.0
0.0 0.0 0.0

-7.245563419713026e6 -1.375718674203789e6 0.0
-1.375718674203789e6 1.0992849178165829e7 0.0
0.0 0.0 0.0

-867148.8764719083 1.017474722368365e7 0.0
1.017474722368365e7 710014.267215627 0.0
0.0 0.0 0.0

-2.3479027788500995e6 7.017091205306816e6 0.0
7.017091205306816e6 -1.1654113938049027e6 0.0
0.0 0.0 0.0

-2.6939812833979703e6 1.0057364217456022e7 0.0
1.0057364217456022e7 -1.571061061975977e6 0.0
0.0 0.0 0.0

-2.695041449952652e6 8.103519680581243e6 0.0
8.103519680581243e6 -1.4669470339105425e6 0.0
0.0 0.0 0.0

-1.5216342995192525e6 6.146129879689011e6 0.0
6.146129879689011e6 -1.9545018755217034e6 0.0
0.0 0.0 0.0

-3.2846512385377046e6 8.065511884179133e6 0.0
8.065511884179133e6 -478291.208885742 0.0
0.0 0.0 0.0

-2.9946089608178805e6 7.689929700384745e6 0.0
7.689929700384745e6 1.3217448763395294e6 0.0
0.0 0.0 0.0

-2.8382355279821064e6 7.228905107590388e6 0.0
7.228905107590388e6 611988.6163826988 0.0
0.0 0.0 0.0

-2.524628912842981e6 6.746391745072328e6 0.0
6.746391745072328e6 -480020.36615305813 0.0
0.0 0.0 0.0

1.299448733083055e6 7.137716591812006e6 0.0
7.137716591812006e6 -6.709713161320572e6 0.0
0.0 0.0 0.0

-5.057616520311827e6 1.0116081232923817e7 0.0
1.0116081232923817e7 3.0358074693442155e6 0.0
0.0 0.0 0.0

-576703.5307777149 3.431500716923106e6 0.0
3.431500716923106e6 -557592.5147419004 0.0
0.0 0.0 0.0

-2.9580724951562686e6 7.87591117593959e6 0.0
7.87591117593959e6 971450.8393795164 0.0
0.0 0.0 0.0

-1.1167316782234241e6 6.072928679229532e6 0.0
6.072928679229532e6 -2.443925170132099e6 0.0
0.0 0.0 0.0

606468.95500626 5.406373350072413e6 0.0
5.406373350072413e6 -4.1898234964747615e6 0.0
0.0 0.0 0.0

-480739.06177431776 8.146607670171267e6 0.0
8.146607670171267e6 -4.61115659840004e6 0.0
0.0 0.0 0.0

-1.3155097525416114e6 3.957160164631236e6 0.0
3.957160164631236e6 -1.3726957118176976e6 0.0
0.0 0.0 0.0

-5.583946505919395e6 3.6934305391254434e6 0.0
3.6934305391254434e6 5.481572471296432e6 0.0
0.0 0.0 0.0

-2.9034016983424765e6 7.556560382011335e6 0.0
7.556560382011335e6 -648754.8165924007 0.0
0.0 0.0 0.0

12122.026913469192 2.4943805755188023e6 0.0
2.4943805755188023e6 -978238.1111679054 0.0
0.0 0.0 0.0

-2.0962836213715826e6 6.012710965566618e6 0.0
6.012710965566618e6 -417538.5605806755 0.0
0.0 0.0 0.0

-2.9756643746013786e6 1.022876422041633e7 0.0
1.022876422041633e7 -1.2342999303451977e6 0.0
0.0 0.0 0.0

8952.600354178809 9.29973484958565e6 0.0
9.29973484958565e6 -5.319580920095218e6 0.0
0.0 0.0 0.0

-929460.5581496367 7.335218798925165e6 0.0
7.335218798925165e6 -3.4967869550842512e6 0.0
0.0 0.0 0.0

-618406.4046249555 4.355667051942852e6 0.0
4.355667051942852e6 -2.879555354368917e6 0.0
0.0 0.0 0.0

-2.5090168864568854e6 7.278395775557277e6 0.0
7.278395775557277e6 -525718.6584310291 0.0
0.0 0.0 0.0

-3.187813443234343e6 9.043044397865904e6 0.0
9.043044397865904e6 4.304452485218759e6 0.0
0.0 0.0 0.0

-4.672939410569333e6 8.779872207661755e6 0.0
8.779872207661755e6 1.4578871726921403e6 0.0
0.0 0.0 0.0

-4.228336719234205e6 7.190164978347891e6 0.0
7.190164978347891e6 3.4245666106323116e6 0.0
0.0 0.0 0.0

-3.844992975530967e6 8.542223470857142e6 0.0
8.542223470857142e6 2.0617624250127827e6 0.0
0.0 0.0 0.0

-676420.963549132 5.457023169011959e6 0.0
5.457023169011959e6 -2.8477030867652274e6 0.0
0.0 0.0 0.0

-1.974696896493005e6 6.241003679994188e6 0.0
6.241003679994188e6 -79568.82723272545 0.0
0.0 0.0 0.0

-1.2827275352349782e6 1.0057618942015609e7 0.0
1.0057618942015609e7 915339.2620243684 0.0
0.0 0.0 0.0

-1.6437988830803721e6 6.198570249574318e6 0.0
6.198570249574318e6 -1.6447762306676481e6 0.0
0.0 0.0 0.0

-159772.7733082946 8.960527795039324e6 0.0
8.960527795039324e6 -5.375225103555394e6 0.0
0.0 0.0 0.0

-2.788421407559973e6 7.541105243421714e6 0.0
7.541105243421714e6 -261293.4056888367 0.0
0.0 0.0 0.0

-1.429628895847052e6 8.39608126368751e6 0.0
8.39608126368751e6 -3.392839370055295e6 0.0
0.0 0.0 0.0

-2.2349974140616963e6 6.540257050359755e6 0.0
6.540257050359755e6 139941.9146500713 0.0
0.0 0.0 0.0

-990958.8910274965 8.631279779174438e6 0.0
8.631279779174438e6 -5.850405655359347e6 0.0
0.0 0.0 0.0

-3.066574302172331e6 7.804364423895485e6 0.0
7.804364423895485e6 -5830.909994470538 0.0
0.0 0.0 0.0

1.9302213855819546e6 9.742292137973543e6 0.0
9.742292137973543e6 -3.391081761165964e6 0.0
0.0 0.0 0.0

-7.840386295420289e6 -754372.4972668516 0.0
-754372.4972668516 1.1050470092128318e7 0.0
0.0 0.0 0.0

-1.081074814688572e7 1.0314075823149057e7 0.0
1.0314075823149057e7 7.137236336025729e6 0.0
0.0 0.0 0.0

-2.4656115109252604e6 1.0221727938954135e7 0.0
1.0221727938954135e7 1.1589447719272685e6 0.0
0.0 0.0 0.0

-6.285238905511932e6 4.5514368520186255e6 0.0
4.5514368520186255e6 8.281182720224663e6 0.0
0.0 0.0 0.0

-4.52274521630275e6 9.318992316575477e6 0.0
9.318992316575477e6 2.745929142980946e6 0.0
0.0 0.0 0.0

-2.070753067594734e6 6.318333321775445e6 0.0
6.318333321775445e6 -231773.5209717871 0.0
0.0 0.0 0.0

-2.2023764860211737e6 7.200812705897646e6 0.0
7.200812705897646e6 -1.137026604328915e6 0.0
0.0 0.0 0.0

-2.6130541908684573e6 7.502225938657315e6 0.0
7.502225938657315e6 -572578.1013322952 0.0
0.0 0.0 0.0

-1.006554270866811e6 4.42529391078399e6 0.0
4.42529391078399e6 -1.3404897139801865e6 0.0
0.0 0.0 0.0

-3.2747706648093616e6 1.0251644751331935e7 0.0
1.0251644751331935e7 -890767.2840148124 0.0
0.0 0.0 0.0

-42281.21712570009 6.595689134791965e6 0.0
6.595689134791965e6 -4.236099574224949e6 0.0
0.0 0.0 0.0

318405.33998568566 2.6763385743058114e6 0.0
2.6763385743058114e6 -4.7824242462396035e6 0.0
0.0 0.0 0.0

-3.7351956148223844e6 8.112331232399104e6 0.0
8.112331232399104e6 2.502609218716505e6 0.0
0.0 0.0 0.0

-4.436522950848535e6 8.690933778749002e6 0.0
8.690933778749002e6 1.0498866887014124e6 0.0
0.0 0.0 0.0

1.0559749505187005e6 1.0466212787572024e7 0.0
1.0466212787572024e7 -3.5698901781630637e6 0.0
0.0 0.0 0.0

-6.087166649119938e6 9.219975127640475e6 0.0
9.219975127640475e6 2.251793577227134e6 0.0
0.0 0.0 0.0

2.383392503512128e6 4.38900071688029e6 0.0
4.38900071688029e6 -6.806713633436078e6 0.0
0.0 0.0 0.0

-1.8292541076586344e6 6.21743458410368e6 0.0
6.21743458410368e6 -1.3600662721248996e6 0.0
0.0 0.0 0.0

6.30811349516585e6 9.482808252958095e6 0.0
9.482808252958095e6 -9911.927610953106 0.0
0.0 0.0 0.0

-387842.4078048108 4.931089856496561e6 0.0
4.931089856496561e6 -3.095251361871732e6 0.0
0.0 0.0 0.0

518309.7983674798 6.54946155296611e6 0.0
6.54946155296611e6 -5.005126149760073e6 0.0
0.0 0.0 0.0

-4.533076213237863e6 7.730201391108113e6 0.0
7.730201391108113e6 6.164900376728433e6 0.0
0.0 0.0 0.0

-1.1818335609409143e6 9.200013690871878e6 0.0
9.200013690871878e6 -3.862541184396411e6 0.0
0.0 0.0 0.0

-1.175937949828206e6 6.018107857480821e6 0.0
6.018107857480821e6 -402331.6227615997 0.0
0.0 0.0 0.0

-1.1004530497438848e7 9.356171296473527e6 0.0
9.356171296473527e6 7.296285664120262e6 0.0
0.0 0.0 0.0

-4.413474573770568e6 7.901584882933413e6 0.0
7.901584882933413e6 5.65729244205056e6 0.0
0.0 0.0 0.0

-4.58233166158217e6 9.639045992327923e6 0.0
9.639045992327923e6 2.8174744735803464e6 0.0
0.0 0.0 0.0

-1.2115352626027007e7 9.014869186297385e6 0.0
9.014869186297385e6 7.091391656219557e6 0.0
0.0 0.0 0.0

-2.704325575795922e6 6.741757310684727e6 0.0
6.741757310684727e6 -94039.05929308722 0.0
0.0 0.0 0.0

1.0541036878213745e7 6.121638638463451e6 0.0
6.121638638463451e6 -2.495170300466303e6 0.0
0.0 0.0 0.0

-2.7248875686126365e6 8.345373532827945e6 0.0
8.345373532827945e6 -1.191272382581904e6 0.0
0.0 0.0 0.0

-895951.3636954131 6.30900431712143e6 0.0
6.30900431712143e6 -3.170509654316149e6 0.0
0.0 0.0 0.0

-3.606947497895778e6 1.0114503883456597e7 0.0
1.0114503883456597e7 -475663.22173166205 0.0
0.0 0.0 0.0

-4.676281797622758e6 1.0063166778336992e7 0.0
1.0063166778336992e7 563317.8318391531 0.0
0.0 0.0 0.0

-457279.347926621 3.9863359262569235e6 0.0
3.9863359262569235e6 -1.930787578031823e6 0.0
0.0 0.0 0.0

-3.2933003990529077e6 9.60591576291257e6 0.0
9.60591576291257e6 2.4513309223727747e6 0.0
0.0 0.0 0.0

-87843.63957199245 8.633581206547324e6 0.0
8.633581206547324e6 -5.606970562386497e6 0.0
0.0 0.0 0.0

-1.8160586326400656e6 2.1687169446513914e6 0.0
2.1687169446513914e6 944921.3683777262 0.0
0.0 0.0 0.0

-4.347822120383008e6 8.54645863720397e6 0.0
8.54645863720397e6 1.1212038346598947e6 0.0
0.0 0.0 0.0

-2.1090796238978915e6 6.47598037325064e6 0.0
6.47598037325064e6 -296794.08312922006 0.0
0.0 0.0 0.0

-4.308019423195721e6 8.761261570237016e6 0.0
8.761261570237016e6 1.4593944009512847e6 0.0
0.0 0.0 0.0

-2.0931922612073228e6 8.373470977395059e6 0.0
8.373470977395059e6 -1.9940974598097221e6 0.0
0.0 0.0 0.0

-1.2431715528250854e6 5.805695746737752e6 0.0
5.805695746737752e6 -627406.6265085194 0.0
0.0 0.0 0.0

-4.88807156257936e6 9.299054233586743e6 0.0
9.299054233586743e6 2.543170401821414e6 0.0
0.0 0.0 0.0

-3.9723306558304476e6 8.48350149085422e6 0.0
8.48350149085422e6 3.709222780563005e6 0.0
0.0 0.0 0.0

-3.558987512083678e6 8.2960325912562e6 0.0
8.2960325912562e6 1.697045158970201e6 0.0
0.0 0.0 0.0

-1.3991737032292716e6 6.1328150404274985e6 0.0
6.1328150404274985e6 -1.5474584687525113e6 0.0
0.0 0.0 0.0

151658.22659524996 8.122149583508871e6 0.0
8.122149583508871e6 -5.610345666413638e6 0.0
0.0 0.0 0.0

-3.217844666790158e6 7.314666021039319e6 0.0
7.314666021039319e6 494265.54162236676 0.0
0.0 0.0 0.0

-2.457669420892142e6 9.297829457180815e6 0.0
9.297829457180815e6 -2.3181881201854153e6 0.0
0.0 0.0 0.0

-2.191207836397928e6 8.533877974663595e6 0.0
8.533877974663595e6 -2.3515666059112167e6 0.0
0.0 0.0 0.0

-4.592158450630712e6 9.651005968237983e6 0.0
9.651005968237983e6 423584.9316389577 0.0
0.0 0.0 0.0

-2.9424055429243315e6 8.402350324114438e6 0.0
8.402350324114438e6 -1.2148363136748374e6 0.0
0.0 0.0 0.0

-474052.8488505165 7.638098080339071e6 0.0
7.638098080339071e6 -4.367902254466653e6 0.0
0.0 0.0 0.0

190765.43659283267 2.317151885974228e6 0.0
2.317151885974228e6 -2.9915907972528026e6 0.0
0.0 0.0 0.0

-564937.2849049706 2.825515960696363e6 0.0
2.825515960696363e6 -920864.5287016823 0.0
0.0 0.0 0.0

-8.30305444189908e6 1.1521411259995073e7 0.0
1.1521411259995073e7 4.398617101787712e6 0.0
0.0 0.0 0.0

-2.928563169691017e6 6.989506171115552e6 0.0
6.989506171115552e6 236624.60052948957 0.0
0.0 0.0 0.0

-3.378374385635308e6 8.3425139556646105e6 0.0
8.3425139556646105e6 -566307.8159607777 0.0
0.0 0.0 0.0

5.673996941790587e6 2.5036573568081968e6 0.0
2.5036573568081968e6 -6.773349827399965e6 0.0
0.0 0.0 0.0

-1.014649265305053e7 -1.0541724280337223e6 0.0
-1.0541724280337223e6 1.242887283435484e7 0.0
0.0 0.0 0.0

-274982.6651864664 6.890281267320713e6 0.0
6.890281267320713e6 -3.96424293881406e6 0.0
0.0 0.0 0.0

-2.649154065120018e6 1.304367392252243e7 0.0
1.304367392252243e7 -2.3201404415534995e6 0.0
0.0 0.0 0.0

-4.696279222493663e6 1.0689582451398233e7 0.0
1.0689582451398233e7 829962.3313726566 0.0
0.0 0.0 0.0

-5.073185214041028e6 9.334008946534283e6 0.0
9.334008946534283e6 2.644697591073041e6 0.0
0.0 0.0 0.0

1.3058870033648424e6 5.663677193971874e6 0.0
5.663677193971874e6 -5.685917140247146e6 0.0
0.0 0.0 0.0

-3.4368441332932287e6 8.301446266053245e6 0.0
8.301446266053245e6 177643.13290032698 0.0
0.0 0.0 0.0

-4.0193644200519314e6 9.061981330717085e6 0.0
9.061981330717085e6 212216.57131500356 0.0
0.0 0.0 0.0

733741.7106261086 6.884344953353278e6 0.0
6.884344953353278e6 -5.649384074325938e6 0.0
0.0 0.0 0.0

-5.258410916023061e6 9.578995427343454e6 0.0
9.578995427343454e6 1.6245328645920611e6 0.0
0.0 0.0 0.0

-782931.3585454971 1.125886813558075e7 0.0
1.125886813558075e7 -3.4039864557804205e6 0.0
0.0 0.0 0.0

-3.4641545945708845e6 8.087492369303687e6 0.0
8.087492369303687e6 -152432.57015072764 0.0
0.0 0.0 0.0

289036.75297507644 8.9052486691733e6 0.0
8.9052486691733e6 -5.80242784243326e6 0.0
0.0 0.0 0.0

1.0923498376396373e6 4.425159472046754e6 0.0
4.425159472046754e6 -6.122052192872505e6 0.0
0.0 0.0 0.0

-1.0527125933621945e6 6.273518389136053e6 0.0
6.273518389136053e6 -3.2087056388300285e6 0.0
0.0 0.0 0.0

-3.429451623293458e6 9.27811792507799e6 0.0
9.27811792507799e6 -416492.2923421714 0.0
0.0 0.0 0.0

-1.2173470872072207e6 1.1270412764315322e7 0.0
1.1270412764315322e7 -3.379905969614869e6 0.0
0.0 0.0 0.0

-3.178565159787252e6 8.363376877417709e6 0.0
8.363376877417709e6 -896966.0781449656 0.0
0.0 0.0 0.0

161852.02772624674 6.074786258023509e6 0.0
6.074786258023509e6 -4.40842929096495e6 0.0
0.0 0.0 0.0

783618.7916299091 5.809550472920567e6 0.0
5.809550472920567e6 -4.584562006726199e6 0.0
0.0 0.0 0.0

-2.0085734672678877e6 8.601411484651515e6 0.0
8.601411484651515e6 -2.731792545565258e6 0.0
0.0 0.0 0.0

-1.3124047299959208e6 6.175086008921029e6 0.0
6.175086008921029e6 -2.8607775267218524e6 0.0
0.0 0.0 0.0

-2.4346631157625997e6 6.409629351195512e6 0.0
6.409629351195512e6 -359994.4756697907 0.0
0.0 0.0 0.0

-6.01576332349934e6 9.566782089002715e6 0.0
9.566782089002715e6 2.6475159804810197e6 0.0
0.0 0.0 0.0

-1.077536925324409e7 7.986053830229294e6 0.0
7.986053830229294e6 2.8700505251757436e7 0.0
0.0 0.0 0.0

-1.4690816783924368e6 3.284079777822068e6 0.0
3.284079777822068e6 462469.0662188255 0.0
0.0 0.0 0.0

-4.248207423500526e6 1.1278041253475828e7 0.0
1.1278041253475828e7 -672136.4605415401 0.0
0.0 0.0 0.0

-2.646574224892379e6 6.667930600188387e6 0.0
6.667930600188387e6 -28415.392562139663 0.0
0.0 0.0 0.0

-5.991574031674463e6 2.1434960066281212e6 0.0
2.1434960066281212e6 8.592130343680024e6 0.0
0.0 0.0 0.0

130722.03318261821 5.570828775869311e6 0.0
5.570828775869311e6 -3.712150895455404e6 0.0
0.0 0.0 0.0

-2.786938179397161e6 7.196240514145837e6 0.0
7.196240514145837e6 674602.8206569186 0.0
0.0 0.0 0.0

-842866.360666371 9.25287517193141e6 0.0
9.25287517193141e6 -4.405155015725434e6 0.0
0.0 0.0 0.0

-3.8734766389288604e6 1.002786541597642e7 0.0
1.002786541597642e7 -66056.62202049303 0.0
0.0 0.0 0.0

-3.5110068872989244e6 8.549703814504262e6 0.0
8.549703814504262e6 87176.91678874986 0.0
0.0 0.0 0.0

-2.561306651131532e6 7.204167974732986e6 0.0
7.204167974732986e6 103812.16183361236 0.0
0.0 0.0 0.0

-2.280424706483109e6 6.851914428232213e6 0.0
6.851914428232213e6 -424601.47024755453 0.0
0.0 0.0 0.0

-1.503094726080719e6 6.513262954512156e6 0.0
6.513262954512156e6 -973881.4039332315 0.0
0.0 0.0 0.0

-1.8806205929786265e7 4.018704928803828e6 0.0
4.018704928803828e6 9.656189575826094e6 0.0
0.0 0.0 0.0

-1.1390658801936014e6 7.76950957387654e6 0.0
7.76950957387654e6 1.9918243692637547e6 0.0
0.0 0.0 0.0

-4.204616416003335e6 8.793773225084817e6 0.0
8.793773225084817e6 2.6558550136970887e6 0.0
0.0 0.0 0.0

-5.040830860047912e6 9.327913347180752e6 0.0
9.327913347180752e6 2.5149496235148096e6 0.0
0.0 0.0 0.0

-296777.8136993232 6.439282452309782e6 0.0
6.439282452309782e6 -4.1857463736629975e6 0.0
0.0 0.0 0.0

466133.8412107285 6.830614465519135e6 0.0
6.830614465519135e6 -5.035350450569236e6 0.0
0.0 0.0 0.0

926484.2654141898 7.639131048678842e6 0.0
7.639131048678842e6 -5.915581026692769e6 0.0
0.0 0.0 0.0

-2.537685585655726e6 6.667355491451511e6 0.0
6.667355491451511e6 8972.706846885732 0.0
0.0 0.0 0.0

-3.5150641222183034e6 3.9088931324213683e6 0.0
3.9088931324213683e6 2.643024361073802e6 0.0
0.0 0.0 0.0

-1.6775773721036569e6 6.796979946682179e6 0.0
6.796979946682179e6 -575742.1478195945 0.0
0.0 0.0 0.0

189317.60524874227 1.0988253501802519e7 0.0
1.0988253501802519e7 -3.536441760481239e6 0.0
0.0 0.0 0.0

2092.629126918502 8.85173369634789e6 0.0
8.85173369634789e6 -5.49883323078409e6 0.0
0.0 0.0 0.0

-4.891243826053196e6 9.483326154594552e6 0.0
9.483326154594552e6 2.7841042384395236e6 0.0
0.0 0.0 0.0

-6.530397632864023e6 1.3930927900256202e7 0.0
1.3930927900256202e7 1.4283508178118588e6 0.0
0.0 0.0 0.0

-5.701238491186059e6 9.865994206318127e6 0.0
9.865994206318127e6 2.789782360718889e6 0.0
0.0 0.0 0.0

-3.9627193569711e6 7.864497054756983e6 0.0
7.864497054756983e6 4.39405211655776e6 0.0
0.0 0.0 0.0

1.9119482560551148e6 7.206372738839929e6 0.0
7.206372738839929e6 -8.425906768932024e6 0.0
0.0 0.0 0.0

-1.8728024812096742e6 7.409192103142859e6 0.0
7.409192103142859e6 -1.8325793073814942e6 0.0
0.0 0.0 0.0

3.229269028306626e6 2.0353037264081975e6 0.0
2.0353037264081975e6 -4.7405119410740165e6 0.0
0.0 0.0 0.0

1.1682364995169197e6 7.253036328013765e6 0.0
7.253036328013765e6 -6.024282780239686e6 0.0
0.0 0.0 0.0

-5.242710875188503e6 9.398119255317932e6 0.0
9.398119255317932e6 2.719147194879511e6 0.0
0.0 0.0 0.0

-2.2153598123204457e6 5.166949267239625e6 0.0
5.166949267239625e6 1.5715885552038867e6 0.0
0.0 0.0 0.0

-4.1489071576062664e6 7.612167141547721e6 0.0
7.612167141547721e6 4.928728368692485e6 0.0
0.0 0.0 0.0

-4.331815333281444e6 9.016051589370774e6 0.0
9.016051589370774e6 2.8254865361309545e6 0.0
0.0 0.0 0.0

-223706.75523919705 6.797839480851046e6 0.0
6.797839480851046e6 -3.7783340540774856e6 0.0
0.0 0.0 0.0

-4.6443222288722955e6 1.0965909898375662e7 0.0
1.0965909898375662e7 2.5309076259590006e6 0.0
0.0 0.0 0.0

-8.016695988606015e6 1.1739178558728226e7 0.0
1.1739178558728226e7 3.727447708898208e6 0.0
0.0 0.0 0.0

-5.498259439527069e6 9.910000087837117e6 0.0
9.910000087837117e6 3.1901281279593417e6 0.0
0.0 0.0 0.0

-4.096164160116821e6 8.019956106474442e6 0.0
8.019956106474442e6 5.161677210205534e6 0.0
0.0 0.0 0.0

-1.964495403475876e7 2.571243145875526e7 0.0
2.571243145875526e7 -1.4458018529908685e6 0.0
0.0 0.0 0.0

-3.3424484040364726e6 8.75184196595826e6 0.0
8.75184196595826e6 2.131709928418305e6 0.0
0.0 0.0 0.0

-2.99528045807154e6 7.936374994587853e6 0.0
7.936374994587853e6 586866.8963978111 0.0
0.0 0.0 0.0

-558569.7095714287 4.831422998562472e6 0.0
4.831422998562472e6 -1.2875699289778469e6 0.0
0.0 0.0 0.0

-2.3510430591188786e6 7.235130650866695e6 0.0
7.235130650866695e6 -829754.8708194944 0.0
0.0 0.0 0.0

-3.809685800032342e6 1.0752193962717727e7 0.0
1.0752193962717727e7 492738.2431223125 0.0
0.0 0.0 0.0

-9.411737100174908e6 1.0285542494491939e7 0.0
1.0285542494491939e7 6.403051397084992e6 0.0
0.0 0.0 0.0

-3.1385064339293693e6 8.591993768600764e6 0.0
8.591993768600764e6 -520866.2360425313 0.0
0.0 0.0 0.0

-3.930592740950455e6 8.85946718645894e6 0.0
8.85946718645894e6 -59722.275573573774 0.0
0.0 0.0 0.0

-674014.2935202045 3.7809835213662144e6 0.0
3.7809835213662144e6 -30448.33339926417 0.0
0.0 0.0 0.0

-50455.85208929307 6.358332449052723e6 0.0
6.358332449052723e6 -3.8574910382390795e6 0.0
0.0 0.0 0.0

-7.073969804713445e6 1.1450320972510044e7 0.0
1.1450320972510044e7 3.5690628104327223e6 0.0
0.0 0.0 0.0

-4.021108721449094e6 8.226277286916851e6 0.0
8.226277286916851e6 4.0477684473182885e6 0.0
0.0 0.0 0.0

-4.613642250627337e6 9.96121994350929e6 0.0
9.96121994350929e6 176836.72518153233 0.0
0.0 0.0 0.0

-745843.8611314038 1.7901550650507216e6 0.0
1.7901550650507216e6 -2.4407783859002558e6 0.0
0.0 0.0 0.0

-5.882608919255758e6 1.107684596125753e7 0.0
1.107684596125753e7 1.6309328686204483e6 0.0
0.0 0.0 0.0

-3.5599055455459426e6 8.337942828793958e6 0.0
8.337942828793958e6 -242091.5668083838 0.0
0.0 0.0 0.0

-1.7323525843224619e6 8.448651830036804e6 0.0
8.448651830036804e6 -3.0576626781241605e6 0.0
0.0 0.0 0.0

-2.891111549698473e6 7.763744673100034e6 0.0
7.763744673100034e6 -317314.77509165474 0.0
0.0 0.0 0.0

-424584.8043082465 6.86048673611905e6 0.0
6.86048673611905e6 -3.8615531724677663e6 0.0
0.0 0.0 0.0

-3.211933398365789e6 7.7167884490019595e6 0.0
7.7167884490019595e6 753026.3118873339 0.0
0.0 0.0 0.0

-669978.0912510206 5.461506301430276e6 0.0
5.461506301430276e6 -1.3314237476331515e6 0.0
0.0 0.0 0.0

-1.695251172948401e6 5.969886102991829e6 0.0
5.969886102991829e6 276899.08246837324 0.0
0.0 0.0 0.0

-2.511264237042268e6 7.492085338576785e6 0.0
7.492085338576785e6 213898.8270476868 0.0
0.0 0.0 0.0

-1.097008311766925e6 8.095415782239494e6 0.0
8.095415782239494e6 -5.435194833600924e6 0.0
0.0 0.0 0.0

-2.431564695416528e6 7.010260187897738e6 0.0
7.010260187897738e6 301912.83323346835 0.0
0.0 0.0 0.0

-1.714569681332392e7 7.797356572190736e6 0.0
7.797356572190736e6 8.0030039919635495e6 0.0
0.0 0.0 0.0

-2.887037766688426e6 6.960270852171953e6 0.0
6.960270852171953e6 267582.78046618844 0.0
0.0 0.0 0.0

-1.1548335275095068e6 1.0676561172199883e7 0.0
1.0676561172199883e7 -252972.41820199578 0.0
0.0 0.0 0.0

-1.8538848673664764e7 2.4730152371800723e6 0.0
2.4730152371800723e6 8.0456504869459905e6 0.0
0.0 0.0 0.0

-249252.479127381 1.1207678426844558e7 0.0
1.1207678426844558e7 -3.5519076406966946e6 0.0
0.0 0.0 0.0

-2.284436282915471e6 6.580713331737783e6 0.0
6.580713331737783e6 93351.39330980566 0.0
0.0 0.0 0.0

-605780.7164836304 6.165528714118326e6 0.0
6.165528714118326e6 -3.048041188826713e6 0.0
0.0 0.0 0.0

-5.247961516373213e6 9.524801300635224e6 0.0
9.524801300635224e6 2.7957436761765536e6 0.0
0.0 0.0 0.0

-843361.0218468504 7.057962763077144e6 0.0
7.057962763077144e6 -3.618053251326403e6 0.0
0.0 0.0 0.0

-877134.143181386 7.338675421561657e6 0.0
7.338675421561657e6 -3.741653480223928e6 0.0
0.0 0.0 0.0

-1.4139030199488194e6 5.4539168434716845e6 0.0
5.4539168434716845e6 -1.0600306020833105e6 0.0
0.0 0.0 0.0

-3.6338952717878046e6 8.3736897571188295e6 0.0
8.3736897571188295e6 1.4307865422060348e6 0.0
0.0 0.0 0.0

867076.8473249299 6.828816811954534e6 0.0
6.828816811954534e6 -5.17766762473741e6 0.0
0.0 0.0 0.0

-865724.6344234964 5.250070487124964e6 0.0
5.250070487124964e6 -562819.5354043415 0.0
0.0 0.0 0.0

-921025.6236654291 7.100162922718987e6 0.0
7.100162922718987e6 -3.6545091455616686e6 0.0
0.0 0.0 0.0

-2.704595367462321e7 -2.7840218307627244e6 0.0
-2.7840218307627244e6 1.263865356077417e7 0.0
0.0 0.0 0.0

1.8863550985614816e6 7.141073669579539e6 0.0
7.141073669579539e6 -8.1837104377361955e6 0.0
0.0 0.0 0.0

-3.2761442485754592e6 8.157266782326421e6 0.0
8.157266782326421e6 893429.1499318494 0.0
0.0 0.0 0.0

-3.821064585643518e6 8.493828815105664e6 0.0
8.493828815105664e6 1.356244246142037e6 0.0
0.0 0.0 0.0

-5.087180973137927e6 1.0050472251467261e7 0.0
1.0050472251467261e7 2.9204042677110275e6 0.0
0.0 0.0 0.0

-2.6227778496189886e6 7.291391729304191e6 0.0
7.291391729304191e6 -908765.014095109 0.0
0.0 0.0 0.0

-3.594424216603109e6 9.140434812564256e6 0.0
9.140434812564256e6 2.895964975556666e6 0.0
0.0 0.0 0.0

-1.4343010855812263e6 7.840660162612803e6 0.0
7.840660162612803e6 -3.0605918276616917e6 0.0
0.0 0.0 0.0

186519.21787551814 7.215897085807433e6 0.0
7.215897085807433e6 -4.95883299021332e6 0.0
0.0 0.0 0.0

-5.192805409636235e6 9.46450156550063e6 0.0
9.46450156550063e6 2.794915135696849e6 0.0
0.0 0.0 0.0

-5.688852532808507e6 1.1489823575541975e7 0.0
1.1489823575541975e7 894551.9256475135 0.0
0.0 0.0 0.0

1.3913091432491378e6 7.458425820230189e6 0.0
7.458425820230189e6 -6.897508549309474e6 0.0
0.0 0.0 0.0

-1.9591509162991652e6 7.00260442853968e6 0.0
7.00260442853968e6 -221714.13817953068 0.0
0.0 0.0 0.0

-5.479298907176086e6 1.0033878424799316e7 0.0
1.0033878424799316e7 2.8065528727517794e6 0.0
0.0 0.0 0.0

-2.5331739291666236e7 1.9141033573777802e7 0.0
1.9141033573777802e7 7.188184658470735e6 0.0
0.0 0.0 0.0

-3.735675438209993e6 2.5142765673521548e6 0.0
2.5142765673521548e6 4.966057103873172e6 0.0
0.0 0.0 0.0

-574073.5520182687 7.937520300897002e6 0.0
7.937520300897002e6 -5.1932257438224675e6 0.0
0.0 0.0 0.0

-421803.5653705617 2.280668727757751e6 0.0
2.280668727757751e6 -1.2619572830676017e6 0.0
0.0 0.0 0.0

-849645.0974080089 1.132350592268734e6 0.0
1.132350592268734e6 1.5554038251106003e6 0.0
0.0 0.0 0.0

1.6399704441990573e6 5.364157958765932e6 0.0
5.364157958765932e6 -6.318495871696847e6 0.0
0.0 0.0 0.0

-2.9272489158981666e6 1.0090650584747158e7 0.0
1.0090650584747158e7 523972.5403760973 0.0
0.0 0.0 0.0

-125334.16181277717 9.412508518281179e6 0.0
9.412508518281179e6 -5.257647443978663e6 0.0
0.0 0.0 0.0

-8.808619035752393e6 5.147927469135897e6 0.0
5.147927469135897e6 9.788288370481623e6 0.0
0.0 0.0 0.0

-3.8219741147714243e6 1.1228449473860636e7 0.0
1.1228449473860636e7 -1.0568878669878105e6 0.0
0.0 0.0 0.0

-730426.4821997602 7.085181103205239e6 0.0
7.085181103205239e6 -3.68120721508795e6 0.0
0.0 0.0 0.0

-8.422305000203166e6 7.778444014622697e6 0.0
7.778444014622697e6 1.347635135224182e7 0.0
0.0 0.0 0.0

-2.4702575546680633e6 6.977386512986105e6 0.0
6.977386512986105e6 -103003.59991256194 0.0
0.0 0.0 0.0

-5.67772979255986e6 8.922698854821518e6 0.0
8.922698854821518e6 6.273275575598048e6 0.0
0.0 0.0 0.0

-196904.02813639934 9.622243448577315e6 0.0
9.622243448577315e6 -5.031674500117762e6 0.0
0.0 0.0 0.0

1.75755659677863e7 7.236684948262112e6 0.0
7.236684948262112e6 -3.8045079878872316e6 0.0
0.0 0.0 0.0

-4.245662553988216e6 9.952579697021026e6 0.0
9.952579697021026e6 277731.21121607977 0.0
0.0 0.0 0.0

-6.94224381252482e6 1.1831090876151796e7 0.0
1.1831090876151796e7 3.2892535766681586e6 0.0
0.0 0.0 0.0

-994309.4056886202 7.32134179981962e6 0.0
7.32134179981962e6 -3.41687583183578e6 0.0
0.0 0.0 0.0

-614191.213684748 6.971975170729837e6 0.0
6.971975170729837e6 -3.4831167021373375e6 0.0
0.0 0.0 0.0

-2.4685885485337633e6 7.261467151403391e6 0.0
7.261467151403391e6 -1.2286513708456191e6 0.0
0.0 0.0 0.0

-1.950105083046903e6 4.444498853223235e6 0.0
4.444498853223235e6 1.1582324877100321e6 0.0
0.0 0.0 0.0

121043.20038986183 8.823781055744112e6 0.0
8.823781055744112e6 -6.049436132351927e6 0.0
0.0 0.0 0.0

2.8934831352713173e6 1.5915325305573503e6 0.0
1.5915325305573503e6 -4.474351562411261e6 0.0
0.0 0.0 0.0

-1.5278963440506235e6 7.999885311416911e6 0.0
7.999885311416911e6 -3.0810566815970233e6 0.0
0.0 0.0 0.0

-1.2275992182710048e7 7.758214492571978e6 0.0
7.758214492571978e6 8.176589306840496e6 0.0
0.0 0.0 0.0

-1.658341668847185e6 4.890965330336349e6 0.0
4.890965330336349e6 -1.2736838189230068e6 0.0
0.0 0.0 0.0

-8.994050988654334e6 8.7680603072207e6 0.0
8.7680603072207e6 1.715397546571304e7 0.0
0.0 0.0 0.0

-2.9411582771312427e6 9.842597332728826e6 0.0
9.842597332728826e6 2.0557114316191855e6 0.0
0.0 0.0 0.0

2.384644947956278e6 8.734317439774795e6 0.0
8.734317439774795e6 -3.111651346424042e6 0.0
0.0 0.0 0.0

-5.305334043650341e6 1.0056926143536035e7 0.0
1.0056926143536035e7 2.915717424416848e6 0.0
0.0 0.0 0.0

-4.478668508469062e6 9.902375878892649e6 0.0
9.902375878892649e6 778092.5276473169 0.0
0.0 0.0 0.0

-5.239986574560588e6 9.840091915989319e6 0.0
9.840091915989319e6 3.038266961605667e6 0.0
0.0 0.0 0.0

-1.7890585912073299e6 4.968987546125096e6 0.0
4.968987546125096e6 797530.9294852504 0.0
0.0 0.0 0.0

-2.22542123429815e6 6.089402681014322e6 0.0
6.089402681014322e6 1.0930890647619036e6 0.0
0.0 0.0 0.0

-972630.5990366534 5.781551398902941e6 0.0
5.781551398902941e6 -1.339506434398546e6 0.0
0.0 0.0 0.0

847619.4886231071 7.644156034758074e6 0.0
7.644156034758074e6 2.1640450173021657e6 0.0
0.0 0.0 0.0

-319556.0903596885 9.87586272499576e6 0.0
9.87586272499576e6 -4.754476065840466e6 0.0
0.0 0.0 0.0

-4.429449092970607e6 9.51940123553288e6 0.0
9.51940123553288e6 982705.6149371888 0.0
0.0 0.0 0.0

-5.357109276194625e6 9.437834515149886e6 0.0
9.437834515149886e6 2.758831139886345e6 0.0
0.0 0.0 0.0

-529175.4299044895 1.5136154518579417e6 0.0
1.5136154518579417e6 -208375.241849722 0.0
0.0 0.0 0.0

-5.811099574995033e6 9.991175084300917e6 0.0
9.991175084300917e6 3.374379855076406e6 0.0
0.0 0.0 0.0

-2.5009020478816554e6 6.872677483059551e6 0.0
6.872677483059551e6 386697.2908221644 0.0
0.0 0.0 0.0

-5.881226080082404e6 1.0226924476697583e7 0.0
1.0226924476697583e7 3.5716805185236232e6 0.0
0.0 0.0 0.0

2.468050898909979e6 8.905186080811774e6 0.0
8.905186080811774e6 -2.8387312140853927e6 0.0
0.0 0.0 0.0

-6.0485429904505415e6 1.1105214498514438e7 0.0
1.1105214498514438e7 2.38263763571365e6 0.0
0.0 0.0 0.0

404035.37130920053 5.82602652490888e6 0.0
5.82602652490888e6 -4.770935810810534e6 0.0
0.0 0.0 0.0

-2.831041183901489e6 2.739020253274885e6 0.0
2.739020253274885e6 3.198340961558863e6 0.0
0.0 0.0 0.0

308944.7345075705 1.026652835763233e7 0.0
1.026652835763233e7 -4.271682033647523e6 0.0
0.0 0.0 0.0

-464548.08383862255 1.0120323758730892e7 0.0
1.0120323758730892e7 -4.506079436645246e6 0.0
0.0 0.0 0.0

-2.1857142146875714e6 6.664961897042829e6 0.0
6.664961897042829e6 -365103.7938725646 0.0
0.0 0.0 0.0

-2.5383433572222455e6 1.0241678224090846e7 0.0
1.0241678224090846e7 675734.9226691534 0.0
0.0 0.0 0.0

-3.120779450115393e6 1.1719987915308366e7 0.0
1.1719987915308366e7 -908484.4582480042 0.0
0.0 0.0 0.0

391467.4228801208 9.463102206549926e6 0.0
9.463102206549926e6 -4.37729741100719e6 0.0
0.0 0.0 0.0

-1.844270575865353e6 5.551944191358585e6 0.0
5.551944191358585e6 341504.31411448773 0.0
0.0 0.0 0.0

127530.62417203095 6.661668228084598e6 0.0
6.661668228084598e6 -4.25619277978493e6 0.0
0.0 0.0 0.0

192974.64916490507 9.56471761445849e6 0.0
9.56471761445849e6 -5.019951283212945e6 0.0
0.0 0.0 0.0

-2.477463240240709e6 8.500107538899675e6 0.0
8.500107538899675e6 3.0401278020306295e6 0.0
0.0 0.0 0.0

-3.182340018106078e6 7.819495367148731e6 0.0
7.819495367148731e6 -395911.98627669003 0.0
0.0 0.0 0.0

1.4963033344553793e6 7.048395125818432e6 0.0
7.048395125818432e6 -6.734699414295691e6 0.0
0.0 0.0 0.0

2.288196050639292e6 6.7554359786794055e6 0.0
6.7554359786794055e6 -7.994134162543811e6 0.0
0.0 0.0 0.0

-2.648275568434387e6 7.514454011855753e6 0.0
7.514454011855753e6 190404.5868925876 0.0
0.0 0.0 0.0

-5.447560694269036e6 9.487643140527075e6 0.0
9.487643140527075e6 2.7749015085229417e6 0.0
0.0 0.0 0.0

-1.0212682555302428e6 3.5649847188506355e6 0.0
3.5649847188506355e6 258889.83638135204 0.0
0.0 0.0 0.0

-2.193341470918613e6 7.248489357859886e6 0.0
7.248489357859886e6 30975.73813744029 0.0
0.0 0.0 0.0

-3.59245945016649e6 8.375233907729626e6 0.0
8.375233907729626e6 1.2232354391066139e6 0.0
0.0 0.0 0.0

-210929.56342344172 6.49275757772785e6 0.0
6.49275757772785e6 -3.895148875700307e6 0.0
0.0 0.0 0.0

1.6884448600879167e6 5.4658219106074525e6 0.0
5.4658219106074525e6 -6.476401652230166e6 0.0
0.0 0.0 0.0

-3.226865320778705e6 8.18130531916218e6 0.0
8.18130531916218e6 1.0504722760563775e6 0.0
0.0 0.0 0.0

-9.506532396508813e6 1.0938276444332035e7 0.0
1.0938276444332035e7 2.205155657756862e7 0.0
0.0 0.0 0.0

-3.893986458107221e6 8.673601138233382e6 0.0
8.673601138233382e6 1.6151518200854468e6 0.0
0.0 0.0 0.0

-4.78928688788162e6 9.75463453870614e6 0.0
9.75463453870614e6 1.1704224065463014e6 0.0
0.0 0.0 0.0

-1.0977939515741593e6 7.367219274498843e6 0.0
7.367219274498843e6 -3.3783944064218653e6 0.0
0.0 0.0 0.0

-5.651894766890306e6 9.807635397785766e6 0.0
9.807635397785766e6 2.59267238430963e6 0.0
0.0 0.0 0.0

-5.11072390744395e6 9.414575591125634e6 0.0
9.414575591125634e6 2.774843354408643e6 0.0
0.0 0.0 0.0

-1.8691876070647691e6 1.1527538090866294e7 0.0
1.1527538090866294e7 3.485390300568937e6 0.0
0.0 0.0 0.0

2.6848714672495946e6 1.7261081323840942e6 0.0
1.7261081323840942e6 -4.85987226037852e6 0.0
0.0 0.0 0.0

-829836.454048251 1.1588082310779262e7 0.0
1.1588082310779262e7 -3.1695848918556976e6 0.0
0.0 0.0 0.0

3.5970937846331624e6 4.862340379963306e6 0.0
4.862340379963306e6 -6.64709290002183e6 0.0
0.0 0.0 0.0

-1.3376362265425369e6 5.723506097889638e6 0.0
5.723506097889638e6 -77193.74564692326 0.0
0.0 0.0 0.0

-4.857754295877742e6 9.12871894855054e6 0.0
9.12871894855054e6 2.4282892641194426e6 0.0
0.0 0.0 0.0

-3.164730324529514e6 8.027978899301656e6 0.0
8.027978899301656e6 -69812.9997107255 0.0
0.0 0.0 0.0

-373690.0219070129 7.039350693817468e6 0.0
7.039350693817468e6 -3.720251399413317e6 0.0
0.0 0.0 0.0

127846.314257588 9.89331858983873e6 0.0
9.89331858983873e6 -4.4067203124138005e6 0.0
0.0 0.0 0.0

-5.027777354676819e6 9.76829354480069e6 0.0
9.76829354480069e6 1.4889247344558868e6 0.0
0.0 0.0 0.0

-1.7505784818492318e6 1.943605463817347e6 0.0
1.943605463817347e6 1.4845855428336803e6 0.0
0.0 0.0 0.0

-2.8315115320077958e6 6.470341914662989e6 0.0
6.470341914662989e6 1.98214857197049e6 0.0
0.0 0.0 0.0

-1.048658009861063e6 4.888559425719925e6 0.0
4.888559425719925e6 -151999.7708145974 0.0
0.0 0.0 0.0

-2.596700873227393e6 6.6322944914036235e6 0.0
6.6322944914036235e6 7876.5526594111 0.0
0.0 0.0 0.0

-5.285024513095127e6 9.759854602476034e6 0.0
9.759854602476034e6 3.1669853269661823e6 0.0
0.0 0.0 0.0

-3.154096342807165e6 7.482720028847337e6 0.0
7.482720028847337e6 22745.727949892636 0.0
0.0 0.0 0.0

-5.780530071636331e6 9.628741819795301e6 0.0
9.628741819795301e6 2.70947221144047e6 0.0
0.0 0.0 0.0

-1.511257695206312e6 6.011547374382009e6 0.0
6.011547374382009e6 -989560.1220618263 0.0
0.0 0.0 0.0

-2.0411442806302067e6 6.211678359059053e6 0.0
6.211678359059053e6 676228.3498456688 0.0
0.0 0.0 0.0

-5.560663056690441e6 9.542233431236718e6 0.0
9.542233431236718e6 2.7687160648272876e6 0.0
0.0 0.0 0.0

-2.2457550479211095e6 1.157624335841085e7 0.0
1.157624335841085e7 -1.8662233797733423e6 0.0
0.0 0.0 0.0

-1.4176280318863324e6 8.424772593415849e6 0.0
8.424772593415849e6 4.686571610374372e6 0.0
0.0 0.0 0.0

-2.4730393965329616e6 6.898559273275535e6 0.0
6.898559273275535e6 381101.6014305274 0.0
0.0 0.0 0.0

-2.386868306406344e6 1.3073433555522643e7 0.0
1.3073433555522643e7 -1.4510765048805205e6 0.0
0.0 0.0 0.0

-2.9245012707261983e6 7.683554186012167e6 0.0
7.683554186012167e6 702214.5619906102 0.0
0.0 0.0 0.0

-2.58333772748139e6 6.417278850125397e6 0.0
6.417278850125397e6 1.4969269011512334e6 0.0
0.0 0.0 0.0

-1.592977231751434e6 6.362168943182434e6 0.0
6.362168943182434e6 -481675.8272354511 0.0
0.0 0.0 0.0

-5.671145922042572e6 9.573064037310176e6 0.0
9.573064037310176e6 2.735049479562738e6 0.0
0.0 0.0 0.0

787182.9930348683 6.318145947001161e6 0.0
6.318145947001161e6 -4.644118863304788e6 0.0
0.0 0.0 0.0

562430.5099540711 6.774012330171629e6 0.0
6.774012330171629e6 -4.721264719841761e6 0.0
0.0 0.0 0.0

-4.959161851231197e6 9.938515842765205e6 0.0
9.938515842765205e6 2.972709223689003e6 0.0
0.0 0.0 0.0

-848123.6115447587 5.556219523188341e6 0.0
5.556219523188341e6 -2.3230327773834243e6 0.0
0.0 0.0 0.0

-517266.8584360082 7.025412110905944e6 0.0
7.025412110905944e6 -3.5904842173251635e6 0.0
0.0 0.0 0.0

-6.870004253418352e6 1.046715123869089e7 0.0
1.046715123869089e7 3.442631629665802e6 0.0
0.0 0.0 0.0

-5.463751037711624e6 9.747641358430026e6 0.0
9.747641358430026e6 2.2381892757983245e6 0.0
0.0 0.0 0.0

-3.626720403591913e6 8.58805748241087e6 0.0
8.58805748241087e6 -308263.31033508363 0.0
0.0 0.0 0.0

124303.47564959154 9.09131444640266e6 0.0
9.09131444640266e6 -5.6183277311855685e6 0.0
0.0 0.0 0.0

-6.71074606643213e6 1.0411634976575226e7 0.0
1.0411634976575226e7 3.867930573927692e6 0.0
0.0 0.0 0.0

-3.1182150578488805e6 6.507587260560974e6 0.0
6.507587260560974e6 2.553196931189878e6 0.0
0.0 0.0 0.0

634562.7005180262 6.048266382547715e6 0.0
6.048266382547715e6 -4.434528733715797e6 0.0
0.0 0.0 0.0

-7.845676372447164e6 1.1761595886676563e7 0.0
1.1761595886676563e7 4.4639701543362625e6 0.0
0.0 0.0 0.0

-2.2290510542635913e6 1.0365546124877786e7 0.0
1.0365546124877786e7 1.4740000595894693e6 0.0
0.0 0.0 0.0

-5.265846680560555e6 9.76009875862496e6 0.0
9.76009875862496e6 1.9164605898571634e6 0.0
0.0 0.0 0.0

-639695.0969511027 1.036993138398068e7 0.0
1.036993138398068e7 -4.256296988309038e6 0.0
0.0 0.0 0.0

-5.759019471263111e6 9.804188896671884e6 0.0
9.804188896671884e6 3.005227868389619e6 0.0
0.0 0.0 0.0

-3.9704804531640466e6 9.19056344738597e6 0.0
9.19056344738597e6 3.150190971116593e6 0.0
0.0 0.0 0.0

-5.957947303410338e6 9.82933815321656e6 0.0
9.82933815321656e6 2.6102697853855756e6 0.0
0.0 0.0 0.0

-7.566340524831807e6 1.4215513623684896e7 0.0
1.4215513623684896e7 3.3040860156872584e6 0.0
0.0 0.0 0.0

-3.119873940018077e6 4.777635293525198e6 0.0
4.777635293525198e6 2.9879616365356557e6 0.0
0.0 0.0 0.0

-771785.7107065258 7.284572435779363e6 0.0
7.284572435779363e6 -3.3596818328387793e6 0.0
0.0 0.0 0.0

-2.2860800284952214e6 4.0840712486466244e6 0.0
4.0840712486466244e6 1.6457708071430046e6 0.0
0.0 0.0 0.0

-1.7445135669921176e6 6.2465500024739355e6 0.0
6.2465500024739355e6 -45320.49969512096 0.0
0.0 0.0 0.0

-2.1621788056468735e6 -484491.9938853668 0.0
-484491.9938853668 2.9347259416331584e6 0.0
0.0 0.0 0.0

-1.4002965239485437e6 382452.83102562476 0.0
382452.83102562476 1.6935644064919222e6 0.0
0.0 0.0 0.0

-3.7053345517608346e6 4.798217529363014e6 0.0
4.798217529363014e6 3.9972455453143823e6 0.0
0.0 0.0 0.0

2.175327493340973e6 8.462002942406597e6 0.0
8.462002942406597e6 -198942.97427964467 0.0
0.0 0.0 0.0

-5.918702802347707e6 1.054071279404453e7 0.0
1.054071279404453e7 2.412135215081626e6 0.0
0.0 0.0 0.0

-3.7420947493564e6 8.848031518862642e6 0.0
8.848031518862642e6 -55474.540498764254 0.0
0.0 0.0 0.0

-823626.9920812715 7.257173443992505e6 0.0
7.257173443992505e6 -3.3100030712173316e6 0.0
0.0 0.0 0.0

-1.7602577155206145e6 1.1268784525946451e7 0.0
1.1268784525946451e7 2.7091586507065115e6 0.0
0.0 0.0 0.0

-7.06847025766496e6 1.0492242014577681e7 0.0
1.0492242014577681e7 4.411846383402968e6 0.0
0.0 0.0 0.0

-7.226817488548027e6 1.0649645759215593e7 0.0
1.0649645759215593e7 3.653651752172352e6 0.0
0.0 0.0 0.0

-7.5568374526534695e6 1.1029186647204176e7 0.0
1.1029186647204176e7 3.6850288869446903e6 0.0
0.0 0.0 0.0

-3.1810407454613755e6 7.714148403402092e6 0.0
7.714148403402092e6 1.3023803523357105e6 0.0
0.0 0.0 0.0

-2.7143297974237083e6 7.705781244576587e6 0.0
7.705781244576587e6 284257.7460437127 0.0
0.0 0.0 0.0

-1.765845334035384e6 6.844167823207495e6 0.0
6.844167823207495e6 -655292.0675229721 0.0
0.0 0.0 0.0

-4.369035504568296e6 9.130034231451763e6 0.0
9.130034231451763e6 2.3416173033573134e6 0.0
0.0 0.0 0.0

-2.599498196020833e6 7.6910080077669e6 0.0
7.6910080077669e6 297778.94822534826 0.0
0.0 0.0 0.0

-4.871053742474448e6 4.154841996963708e6 0.0
4.154841996963708e6 6.177480674491526e6 0.0
0.0 0.0 0.0

-764313.9410493645 7.303095544215354e6 0.0
7.303095544215354e6 -3.343460175425877e6 0.0
0.0 0.0 0.0

-3.7254325123856375e6 8.306257182440266e6 0.0
8.306257182440266e6 1.6943583113085334e6 0.0
0.0 0.0 0.0

-4.1253032660867344e6 3.5988802029683604e6 0.0
3.5988802029683604e6 5.293086907840674e6 0.0
0.0 0.0 0.0

-3.851893701069567e6 9.609570017059285e6 0.0
9.609570017059285e6 2.2914763452492952e6 0.0
0.0 0.0 0.0

-3.00370033314628e6 7.373704941738885e6 0.0
7.373704941738885e6 467413.840743682 0.0
0.0 0.0 0.0

-6.037180936430306e6 9.99256463043896e6 0.0
9.99256463043896e6 3.2570118218858954e6 0.0
0.0 0.0 0.0

-5.447790649922114e6 9.608787649249533e6 0.0
9.608787649249533e6 2.7159452828178983e6 0.0
0.0 0.0 0.0

-4.0720269172017574e6 9.308637259513594e6 0.0
9.308637259513594e6 3.00150503896683e6 0.0
0.0 0.0 0.0

-3209.3165436682757 9.391641973348299e6 0.0
9.391641973348299e6 -5.227405554757352e6 0.0
0.0 0.0 0.0

-4.404872320963155e6 9.047665496294064e6 0.0
9.047665496294064e6 2.1585955144393616e6 0.0
0.0 0.0 0.0

-3.177403517649755e6 6.878491264174598e6 0.0
6.878491264174598e6 2.448038600486488e6 0.0
0.0 0.0 0.0

-3.3935435051244046e6 8.547514096764283e6 0.0
8.547514096764283e6 -246611.5625460794 0.0
0.0 0.0 0.0

-7.0305912124890415e6 1.2230451720680386e7 0.0
1.2230451720680386e7 3.321830407226943e6 0.0
0.0 0.0 0.0

-4.260640672160024e6 9.465455319736475e6 0.0
9.465455319736475e6 2.9340303228464006e6 0.0
0.0 0.0 0.0

-3.555585564291888e6 8.669365879371615e6 0.0
8.669365879371615e6 -648254.8827995232 0.0
0.0 0.0 0.0

491083.1573993738 6.950339199179928e6 0.0
6.950339199179928e6 -4.846265728601735e6 0.0
0.0 0.0 0.0

-3.2415241790143447e6 8.083425505489758e6 0.0
8.083425505489758e6 1.3079144722918738e6 0.0
0.0 0.0 0.0

-3.2154653318764963e6 1.2514018780857706e7 0.0
1.2514018780857706e7 -766547.2998291581 0.0
0.0 0.0 0.0

1.612671961684326e6 1.525071470129311e6 0.0
1.525071470129311e6 -2.9216780903146625e6 0.0
0.0 0.0 0.0

809611.7205738281 7.43047600870265e6 0.0
7.43047600870265e6 -6.301255564206657e6 0.0
0.0 0.0 0.0

-2.8582882493167096e6 8.81546088183339e6 0.0
8.81546088183339e6 -1.274969724265743e6 0.0
0.0 0.0 0.0

1.0446479055392313e6 8.740779773611335e6 0.0
8.740779773611335e6 1.778770549716596e6 0.0
0.0 0.0 0.0

242622.1793547927 6.9921427100281585e6 0.0
6.9921427100281585e6 -4.908565103119272e6 0.0
0.0 0.0 0.0

8733.56106531038 7.180279171202809e6 0.0
7.180279171202809e6 -4.782304559595206e6 0.0
0.0 0.0 0.0

559414.8677763386 7.656795196295775e6 0.0
7.656795196295775e6 -894007.7671797147 0.0
0.0 0.0 0.0

-1.820870974344687e6 2.4656587136414307e6 0.0
2.4656587136414307e6 1.3107822046809373e6 0.0
0.0 0.0 0.0

-1.620997400686044e6 7.039383576918975e6 0.0
7.039383576918975e6 -690721.1430760255 0.0
0.0 0.0 0.0

-728118.1276145699 9.446987495699687e6 0.0
9.446987495699687e6 -6.789588982628468e6 0.0
0.0 0.0 0.0

-2.4696402515533417e6 7.43868766274289e6 0.0
7.43868766274289e6 351716.2166409369 0.0
0.0 0.0 0.0

-1.8675725661495314e6 5.037772903084953e6 0.0
5.037772903084953e6 483562.67297962133 0.0
0.0 0.0 0.0

-974444.6821316417 8.069670907785528e6 0.0
8.069670907785528e6 1.584759219761707e6 0.0
0.0 0.0 0.0

-959286.9985772719 1.1193973573484938e6 0.0
1.1193973573484938e6 1.4423749854188259e6 0.0
0.0 0.0 0.0

-3.2984145893065888e6 8.163415916133531e6 0.0
8.163415916133531e6 1.0913090726200766e6 0.0
0.0 0.0 0.0

-5.211033801351269e6 9.862399742182035e6 0.0
9.862399742182035e6 3.1398723691407284e6 0.0
0.0 0.0 0.0

-2.2274359480019114e6 8.957461981240997e6 0.0
8.957461981240997e6 -2.5416008212958835e6 0.0
0.0 0.0 0.0

-234968.15535633243 3.6802127895843596e6 0.0
3.6802127895843596e6 -1.003620193645045e6 0.0
0.0 0.0 0.0

-1.762744534720017e6 6.499209092853829e6 0.0
6.499209092853829e6 -720186.8179379117 0.0
0.0 0.0 0.0

1.859359098579924e6 7.445680893996346e6 0.0
7.445680893996346e6 -8.742677685552746e6 0.0
0.0 0.0 0.0

-6.737119891010382e6 1.3118883053718353e7 0.0
1.3118883053718353e7 2.781932079798185e6 0.0
0.0 0.0 0.0

-8.277570880062574e6 3.002686122886817e6 0.0
3.002686122886817e6 1.221700888486588e7 0.0
0.0 0.0 0.0

-1.9714334651020926e6 7.859884751261705e6 0.0
7.859884751261705e6 -1.0185845344580575e6 0.0
0.0 0.0 0.0

-2.012538959946755e6 4.646309572427432e6 0.0
4.646309572427432e6 815459.7053192812 0.0
0.0 0.0 0.0

-8.697953485297177e6 7.093398773993476e6 0.0
7.093398773993476e6 6.130827937668714e6 0.0
0.0 0.0 0.0

-1.0349556739329767e6 1.0319558077983085e7 0.0
1.0319558077983085e7 -593373.2815594319 0.0
0.0 0.0 0.0

-918278.6005737028 9.749628724061398e6 0.0
9.749628724061398e6 971376.493029236 0.0
0.0 0.0 0.0

1.0003533682072302e6 7.263206027560738e6 0.0
7.263206027560738e6 -6.582894741678356e6 0.0
0.0 0.0 0.0

-3.8594108628281327e6 5.723635448627024e6 0.0
5.723635448627024e6 506171.7564573956 0.0
0.0 0.0 0.0

-9.384802939780759e6 1.5374359128973577e7 0.0
1.5374359128973577e7 2.1761638483031443e6 0.0
0.0 0.0 0.0

-3.2734660315314997e6 7.924437342740246e6 0.0
7.924437342740246e6 1.6044042653210086e6 0.0
0.0 0.0 0.0

-551098.6465611204 671888.4173095524 0.0
671888.4173095524 1.244832355141642e6 0.0
0.0 0.0 0.0

-1.7516432193379612e6 9.954635680481529e6 0.0
9.954635680481529e6 1.5527313215003172e6 0.0
0.0 0.0 0.0

-7.596513336557204e6 9.487175564086236e6 0.0
9.487175564086236e6 4.986631056025485e6 0.0
0.0 0.0 0.0

-1.6986410823090784e6 5.358163965568331e6 0.0
5.358163965568331e6 -892246.4876982889 0.0
0.0 0.0 0.0

-3.8365407104257415e6 1.0930863609817946e7 0.0
1.0930863609817946e7 6.058220532265912e6 0.0
0.0 0.0 0.0

-2.5885210334541807e6 6.129485167561725e6 0.0
6.129485167561725e6 1.0649891199145336e6 0.0
0.0 0.0 0.0

-1.9243477056843978e6 5.963490115685872e6 0.0
5.963490115685872e6 324150.35384345066 0.0
0.0 0.0 0.0

-8.071837561999108e6 2.489910307166802e6 0.0
2.489910307166802e6 1.1418817508433148e7 0.0
0.0 0.0 0.0

-1.9590235336336389e6 9.674981228830006e6 0.0
9.674981228830006e6 2.4246772271128837e6 0.0
0.0 0.0 0.0

-7.20968948683181e6 1.0055441216821657e7 0.0
1.0055441216821657e7 4.345957660516506e6 0.0
0.0 0.0 0.0

-8.710235293812169e6 1.166887444218326e7 0.0
1.166887444218326e7 4.520134719967279e6 0.0
0.0 0.0 0.0

-3.9932411095842645e6 8.554721175134094e6 0.0
8.554721175134094e6 2.0599904339175937e6 0.0
0.0 0.0 0.0

2.0761079361603903e6 1.0007984984341731e6 0.0
1.0007984984341731e6 -3.153637049131707e6 0.0
0.0 0.0 0.0

-305340.2203240278 6.88993495865811e6 0.0
6.88993495865811e6 -3.7084597689720485e6 0.0
0.0 0.0 0.0

-500480.84260140464 7.005067075703396e6 0.0
7.005067075703396e6 -3.450789537462581e6 0.0
0.0 0.0 0.0

-2.7273502889179154e6 7.757204872600517e6 0.0
7.757204872600517e6 440631.4734127212 0.0
0.0 0.0 0.0

-1.4862603296539266e7 1.7149083075403217e7 0.0
1.7149083075403217e7 6.11848653425014e6 0.0
0.0 0.0 0.0

-1.2472459289370643e6 5.9769423516292395e6 0.0
5.9769423516292395e6 -1.187658006388342e6 0.0
0.0 0.0 0.0

-6.214943589258623e6 1.151933569466861e7 0.0
1.151933569466861e7 2.4755333065999425e6 0.0
0.0 0.0 0.0

-3.712457523841508e6 1.2638950364756621e7 0.0
1.2638950364756621e7 -243508.3287683206 0.0
0.0 0.0 0.0

-1.5797019162995063e6 5.665351937433373e6 0.0
5.665351937433373e6 -437899.36307768436 0.0
0.0 0.0 0.0

-563868.57569301 7.164048874212342e6 0.0
7.164048874212342e6 -2.6711476165830228e6 0.0
0.0 0.0 0.0

-585896.6635005986 9.528635338980861e6 0.0
9.528635338980861e6 4.787581126816417e6 0.0
0.0 0.0 0.0

-1.2457246238389285e6 1.1620489652538981e7 0.0
1.1620489652538981e7 4.295656124897186e6 0.0
0.0 0.0 0.0

-833571.9793471391 9.872927944947956e6 0.0
9.872927944947956e6 672511.6623885245 0.0
0.0 0.0 0.0

-2.321928325192998e6 6.230242794877716e6 0.0
6.230242794877716e6 672039.845146545 0.0
0.0 0.0 0.0

-1.3818538462007347e7 1.5576524122898845e7 0.0
1.5576524122898845e7 5.825867954815084e6 0.0
0.0 0.0 0.0

-1.2131330278326957e7 7.408924748827374e6 0.0
7.408924748827374e6 6.532782701313658e6 0.0
0.0 0.0 0.0

-2.1590415667793974e6 5.803764902069773e6 0.0
5.803764902069773e6 711948.773524826 0.0
0.0 0.0 0.0

610308.6236147122 8.280214090676877e6 0.0
8.280214090676877e6 -6.646709045616359e6 0.0
0.0 0.0 0.0

2.6675229634342366e6 6.281520080785453e6 0.0
6.281520080785453e6 -7.6007335174021255e6 0.0
0.0 0.0 0.0

-1.5024312097258558e6 8.677445706388634e6 0.0
8.677445706388634e6 -2.6912794697780814e6 0.0
0.0 0.0 0.0

-583885.0382692479 6.977687747468008e6 0.0
6.977687747468008e6 -3.462724137122477e6 0.0
0.0 0.0 0.0

-2.0044001214311356e6 9.178808841638176e6 0.0
9.178808841638176e6 -2.162310757050968e6 0.0
0.0 0.0 0.0

-1.5479430695851237e7 1.9337700026728503e7 0.0
1.9337700026728503e7 4.635548554623555e6 0.0
0.0 0.0 0.0

-4.487977807750374e6 8.933187022005986e6 0.0
8.933187022005986e6 2.2066132146477215e6 0.0
0.0 0.0 0.0

-3.042801503467878e6 1.0760692215159807e7 0.0
1.0760692215159807e7 -1.8652810472836262e6 0.0
0.0 0.0 0.0

-3.1309178431322933e6 1.017782114350866e7 0.0
1.017782114350866e7 -1.739657432271509e6 0.0
0.0 0.0 0.0

-411313.15265337203 6.760672548700477e6 0.0
6.760672548700477e6 -3.715792053545669e6 0.0
0.0 0.0 0.0

-4.34746860709986e6 8.860114881594112e6 0.0
8.860114881594112e6 2.547695219030217e6 0.0
0.0 0.0 0.0

-1.3004346895145304e6 1.0037930092610301e7 0.0
1.0037930092610301e7 1.5674568841907554e6 0.0
0.0 0.0 0.0

-3.1405939358448586e6 1.0258925600658515e7 0.0
1.0258925600658515e7 1.6068612131442807e6 0.0
0.0 0.0 0.0

-1.1794785716687597e7 1.3375213513953078e6 0.0
1.3375213513953078e6 2.785538471926956e7 0.0
0.0 0.0 0.0

-190712.35925948885 2.0973650137030734e6 0.0
2.0973650137030734e6 -209509.0121408053 0.0
0.0 0.0 0.0

-2.3312473638944462e7 3.051854041522046e7 0.0
3.051854041522046e7 -1.0394448306433663e7 0.0
0.0 0.0 0.0

-958133.2192636442 9.968687049443802e6 0.0
9.968687049443802e6 2.0270919043658702e6 0.0
0.0 0.0 0.0

-1.2867042951093895e7 1.4572721323635994e7 0.0
1.4572721323635994e7 6.162396602574289e6 0.0
0.0 0.0 0.0

-2.335669375383756e6 8.655937922345e6 0.0
8.655937922345e6 -1.714251173660201e6 0.0
0.0 0.0 0.0

-1.4120582846670956e6 1.1148515959356522e7 0.0
1.1148515959356522e7 -3.2789020695221694e6 0.0
0.0 0.0 0.0

-5.024937527225535e6 9.467047183961181e6 0.0
9.467047183961181e6 2.798051871500344e6 0.0
0.0 0.0 0.0

2.0673937465463034e6 5.055033380322381e6 0.0
5.055033380322381e6 -5.002468212259516e6 0.0
0.0 0.0 0.0

2.941681014721268e6 8.928241010536391e6 0.0
8.928241010536391e6 -2.815255036194211e6 0.0
0.0 0.0 0.0

-293099.0383182175 7.202087379519775e6 0.0
7.202087379519775e6 -3.8506116442333837e6 0.0
0.0 0.0 0.0

-1.6785729002393968e6 1.2429361434183296e7 0.0
1.2429361434183296e7 -2.269465477280862e6 0.0
0.0 0.0 0.0

1.3097072198137767e6 7.0383501833123695e6 0.0
7.0383501833123695e6 -6.2392713697886625e6 0.0
0.0 0.0 0.0

-3.7531258366584424e6 8.5914248329066e6 0.0
8.5914248329066e6 1.5561400874219981e6 0.0
0.0 0.0 0.0

544640.6261366587 5.835333182216616e6 0.0
5.835333182216616e6 -4.673725362467341e6 0.0
0.0 0.0 0.0

-1.2502483751422386e6 4.72269444035225e6 0.0
4.72269444035225e6 -1.0060904537541775e6 0.0
0.0 0.0 0.0

-5.660325201109274e6 9.64272076891705e6 0.0
9.64272076891705e6 559772.157463761 0.0
0.0 0.0 0.0

268172.8520092743 7.120293342939065e6 0.0
7.120293342939065e6 -4.693079807660129e6 0.0
0.0 0.0 0.0

-2.315119193873155e6 6.616425220026411e6 0.0
6.616425220026411e6 -787287.3879709209 0.0
0.0 0.0 0.0

-3.737932665630394e6 1.0313392055347096e7 0.0
1.0313392055347096e7 -948361.7092842361 0.0
0.0 0.0 0.0

-2.695304671010684e6 9.254881195211623e6 0.0
9.254881195211623e6 3.8863654999858537e6 0.0
0.0 0.0 0.0

780883.1099559185 8.72317720286161e6 0.0
8.72317720286161e6 -3.6467545304832547e6 0.0
0.0 0.0 0.0

-2.4563760978036574e6 7.553055405155577e6 0.0
7.553055405155577e6 137175.22931303503 0.0
0.0 0.0 0.0

-6.575365751727488e6 2.0473949277567095e6 0.0
2.0473949277567095e6 6.651969773219401e6 0.0
0.0 0.0 0.0

-3.054173682357397e6 9.291891944286505e6 0.0
9.291891944286505e6 3.8940803608492175e6 0.0
0.0 0.0 0.0

-2.987643001666446e6 6.458746873682676e6 0.0
6.458746873682676e6 1.46065161302108e6 0.0
0.0 0.0 0.0

-1.5754012766162325e6 1.4889118183005617e6 0.0
1.4889118183005617e6 972500.14998251 0.0
0.0 0.0 0.0

-3.1025340105544096e6 7.554651008453036e6 0.0
7.554651008453036e6 1.6838995101086814e6 0.0
0.0 0.0 0.0

-4.033585064183863e6 8.864385072262991e6 0.0
8.864385072262991e6 2.9854015310133127e6 0.0
0.0 0.0 0.0

-800783.2849639885 5.949088049481386e6 0.0
5.949088049481386e6 -790280.3899158856 0.0
0.0 0.0 0.0

-3.4162609755536276e6 1.0332744883816836e7 0.0
1.0332744883816836e7 -1.3836501646873774e6 0.0
0.0 0.0 0.0

-5.015929027525905e6 9.171225989548648e6 0.0
9.171225989548648e6 2.4999702740911706e6 0.0
0.0 0.0 0.0

-3.305913305843156e6 6.539064439819249e6 0.0
6.539064439819249e6 1.907831452510246e6 0.0
0.0 0.0 0.0

-8.193859650580233e6 -827865.1714656384 0.0
-827865.1714656384 9.897287809636993e6 0.0
0.0 0.0 0.0

-1.9870907783619058e6 1.0120347534060504e7 0.0
1.0120347534060504e7 1.3197090836872286e6 0.0
0.0 0.0 0.0

-1.8501594963873737e6 5.794409897808341e6 0.0
5.794409897808341e6 675584.6718248049 0.0
0.0 0.0 0.0

499674.777242118 8.229196750856714e6 0.0
8.229196750856714e6 -6.321815613994961e6 0.0
0.0 0.0 0.0

-4.836037898796212e6 9.105389864912026e6 0.0
9.105389864912026e6 6.590374598948075e6 0.0
0.0 0.0 0.0

-2.879257642403836e6 5.421453549035579e6 0.0
5.421453549035579e6 2.5987540677059344e6 0.0
0.0 0.0 0.0

-396795.43736214633 6.573893888403069e6 0.0
6.573893888403069e6 -3.4362371110899057e6 0.0
0.0 0.0 0.0

1.0453387914124983e6 5.577301817556189e6 0.0
5.577301817556189e6 -5.706427721359521e6 0.0
0.0 0.0 0.0

-2.7121043058737777e6 1.015363135468914e7 0.0
1.015363135468914e7 3.7473268012185795e6 0.0
0.0 0.0 0.0

-3.6613782798222937e6 9.947277307181092e6 0.0
9.947277307181092e6 4.887310799163181e6 0.0
0.0 0.0 0.0

-2.277821770735515e6 7.446911928891136e6 0.0
7.446911928891136e6 -1.1985545734505919e6 0.0
0.0 0.0 0.0

-4.542112899784989e6 9.625998427226463e6 0.0
9.625998427226463e6 2.9588708563003927e6 0.0
0.0 0.0 0.0

-1.0353884995981311e7 1.2801348305828542e7 0.0
1.2801348305828542e7 5.167137192995864e6 0.0
0.0 0.0 0.0

-858115.4872295344 1.0606608939977963e7 0.0
1.0606608939977963e7 -3.960308691201264e6 0.0
0.0 0.0 0.0

-373451.978368716 2.438481638236478e6 0.0
2.438481638236478e6 -33639.35157762932 0.0
0.0 0.0 0.0

197042.52710721712 8.660886680982087e6 0.0
8.660886680982087e6 -5.578456442374968e6 0.0
0.0 0.0 0.0

-3.9500206439926084e6 8.487085781689841e6 0.0
8.487085781689841e6 2.7470234347937517e6 0.0
0.0 0.0 0.0

-2.5794478046795614e6 5.026642460285614e6 0.0
5.026642460285614e6 2.226204320388039e6 0.0
0.0 0.0 0.0

-128488.94953212296 9.06941873401081e6 0.0
9.06941873401081e6 -315790.5211369229 0.0
0.0 0.0 0.0

1.051672400233352e6 7.659769031831676e6 0.0
7.659769031831676e6 -7.200684014517352e6 0.0
0.0 0.0 0.0

341201.81873378996 8.195602571595656e6 0.0
8.195602571595656e6 -5.959617155603599e6 0.0
0.0 0.0 0.0

-9.573145664880339e6 1.6534972691969177e7 0.0
1.6534972691969177e7 1.587536826278821e6 0.0
0.0 0.0 0.0

-4.547445327634219e6 8.955551514003864e6 0.0
8.955551514003864e6 2.2447580991943874e6 0.0
0.0 0.0 0.0

-5.185680771234016e6 9.502409074789375e6 0.0
9.502409074789375e6 2.9031817082437733e6 0.0
0.0 0.0 0.0

-5.067424008190457e6 9.166872760521527e6 0.0
9.166872760521527e6 1.670325164716681e6 0.0
0.0 0.0 0.0

1.6378307507435172e6 5.650634394668614e6 0.0
5.650634394668614e6 -3.386660386956355e6 0.0
0.0 0.0 0.0

126170.0828444534 7.925850166969371e6 0.0
7.925850166969371e6 -4.513235064042854e6 0.0
0.0 0.0 0.0

-3.9119090022434155e6 8.457679709710099e6 0.0
8.457679709710099e6 2.4080956048416523e6 0.0
0.0 0.0 0.0

-2.5973370418875543e6 1.0936801041211078e7 0.0
1.0936801041211078e7 -1.5878232107796762e6 0.0
0.0 0.0 0.0

-9.704136828713546e6 1.2418254720450278e7 0.0
1.2418254720450278e7 4.914792380156314e6 0.0
0.0 0.0 0.0

-1.3572700694142939e6 6.336983551033167e6 0.0
6.336983551033167e6 -638256.9389416695 0.0
0.0 0.0 0.0

-3.08827471590734e6 2.713284853464675e6 0.0
2.713284853464675e6 2.3265200352005763e6 0.0
0.0 0.0 0.0

-9.275338138981754e6 1.2008040511586256e7 0.0
1.2008040511586256e7 4.7848316739623025e6 0.0
0.0 0.0 0.0

-4.0306439630761617e6 1.022649302969973e7 0.0
1.022649302969973e7 -636335.2854011374 0.0
0.0 0.0 0.0

-573443.2406027955 6.795375604060619e6 0.0
6.795375604060619e6 -3.767133267418566e6 0.0
0.0 0.0 0.0

-2.688987997882488e6 7.659560319098215e6 0.0
7.659560319098215e6 642747.8516526101 0.0
0.0 0.0 0.0

1.2366853947281218e6 7.451413786938389e6 0.0
7.451413786938389e6 -7.426818654221693e6 0.0
0.0 0.0 0.0

-6.658519473674184e6 1.0388965653098745e7 0.0
1.0388965653098745e7 3.732978195269398e6 0.0
0.0 0.0 0.0

-2.0635844464188546e6 1.0429979964237595e7 0.0
1.0429979964237595e7 1.190718288704968e6 0.0
0.0 0.0 0.0

583318.6560242176 8.405361242640909e6 0.0
8.405361242640909e6 -6.713110580028754e6 0.0
0.0 0.0 0.0

-5.331128039104197e6 9.689744240435863e6 0.0
9.689744240435863e6 2.996092761395458e6 0.0
0.0 0.0 0.0

-4.11363801403404e6 2.461860227594228e6 0.0
2.461860227594228e6 3.7023713288634596e6 0.0
0.0 0.0 0.0

-485406.4449531173 6.802376482278442e6 0.0
6.802376482278442e6 -3.765799851617737e6 0.0
0.0 0.0 0.0

-1.6689917445582896e6 8.058015254514455e6 0.0
8.058015254514455e6 1.3633147049017448e6 0.0
0.0 0.0 0.0

-4.618833913331943e6 9.237780661423273e6 0.0
9.237780661423273e6 2.415767643764008e6 0.0
0.0 0.0 0.0

494500.72839935543 8.547291799887529e6 0.0
8.547291799887529e6 -6.648213586059643e6 0.0
0.0 0.0 0.0

-1.6060544959956758e7 2.156388953273308e7 0.0
2.156388953273308e7 2.639309364092854e6 0.0
0.0 0.0 0.0

-3.2270023054321655e6 5.881408164798083e6 0.0
5.881408164798083e6 2.8810141779472614e6 0.0
0.0 0.0 0.0

-591235.3342648915 9.761685145087648e6 0.0
9.761685145087648e6 -6.892507493389797e6 0.0
0.0 0.0 0.0

-1.5093829721505095e6 5.848371405133882e6 0.0
5.848371405133882e6 -485222.91235415265 0.0
0.0 0.0 0.0

-3.3362683100335407e6 8.067844981426065e6 0.0
8.067844981426065e6 1.3463948320447872e6 0.0
0.0 0.0 0.0

-4.471659754430206e6 7.838909206116907e6 0.0
7.838909206116907e6 6.863145709837012e6 0.0
0.0 0.0 0.0

-2.4162761714009233e6 7.453687987904574e6 0.0
7.453687987904574e6 315688.70076895156 0.0
0.0 0.0 0.0

-1.1466172379927892e7 9.078414583885089e6 0.0
9.078414583885089e6 1.795114983830268e7 0.0
0.0 0.0 0.0

-3.533734563583391e6 8.376682847448434e6 0.0
8.376682847448434e6 1.4191414774723367e6 0.0
0.0 0.0 0.0

47317.27764686011 9.25776999258804e6 0.0
9.25776999258804e6 -5.371993156530525e6 0.0
0.0 0.0 0.0

-1.205522799984247e6 1.0577386997531505e7 0.0
1.0577386997531505e7 -3.1215527785616578e6 0.0
0.0 0.0 0.0

3.1917047010697633e7 1.0156257046907945e7 0.0
1.0156257046907945e7 -2.8423255153530724e6 0.0
0.0 0.0 0.0

-581750.0771925353 467131.31119214353 0.0
467131.31119214353 1.508575246632433e6 0.0
0.0 0.0 0.0

2.007701011915171e6 5.772681609521504e6 0.0
5.772681609521504e6 -7.044066982945182e6 0.0
0.0 0.0 0.0

-556641.1721450554 4.473628034441823e6 0.0
4.473628034441823e6 -1.2414889801060213e6 0.0
0.0 0.0 0.0

-4.866399670842489e6 9.07613794509504e6 0.0
9.07613794509504e6 1.3667086688537106e6 0.0
0.0 0.0 0.0

-4.0821847689873073e6 -5.04668186386115e6 0.0
-5.04668186386115e6 5.820471110820625e6 0.0
0.0 0.0 0.0

-642338.7949606655 8.796038085517038e6 0.0
8.796038085517038e6 -6.084906095187378e6 0.0
0.0 0.0 0.0

-2.2364944380653314e6 4.719789753632066e6 0.0
4.719789753632066e6 1.5888189370442538e6 0.0
0.0 0.0 0.0

-3.6206671224141885e6 6.641635701969235e6 0.0
6.641635701969235e6 2.3576444648500895e6 0.0
0.0 0.0 0.0

2.798801138397178e6 6.303220411848015e6 0.0
6.303220411848015e6 -7.757704415432164e6 0.0
0.0 0.0 0.0

-1.79315611394921e6 8.835786004752059e6 0.0
8.835786004752059e6 -2.357604964424008e6 0.0
0.0 0.0 0.0

-1.133288941794428e7 1.3078785992683766e7 0.0
1.3078785992683766e7 6.2408307010239195e6 0.0
0.0 0.0 0.0

-737751.9476496045 6.634248699471961e6 0.0
6.634248699471961e6 -3.5211140390586094e6 0.0
0.0 0.0 0.0

-1.7372847950341648e6 1.0890793511237064e7 0.0
1.0890793511237064e7 -43544.199714975315 0.0
0.0 0.0 0.0

-1.0849766404927112e7 2.494575670603788e6 0.0
2.494575670603788e6 4.5432006300229825e7 0.0
0.0 0.0 0.0

2.3145230838437798e6 8.27864553582914e6 0.0
8.27864553582914e6 -1.195650508856747e7 0.0
0.0 0.0 0.0

1.1823503692525239e6 1.0170484596054284e7 0.0
1.0170484596054284e7 -8.836038906210579e6 0.0
0.0 0.0 0.0

-993876.0107042696 8.551274661408972e6 0.0
8.551274661408972e6 -3.35148245220797e6 0.0
0.0 0.0 0.0

2.0327881958980588e6 7.0175838347894205e6 0.0
7.0175838347894205e6 -7.760048389064983e6 0.0
0.0 0.0 0.0

-7.773563136704387e6 8.304629154470452e6 0.0
8.304629154470452e6 1.9689690758715621e6 0.0
0.0 0.0 0.0

-2.761401452529827e6 1.088926582498509e7 0.0
1.088926582498509e7 -2.2007916634217454e6 0.0
0.0 0.0 0.0

-770344.1061284285 108043.85147883746 0.0
108043.85147883746 1.4221741144107212e6 0.0
0.0 0.0 0.0

-1.6078788848289053e6 7.056669888767596e6 0.0
7.056669888767596e6 -820892.7920186596 0.0
0.0 0.0 0.0

-5.280257406060944e6 9.57185537940668e6 0.0
9.57185537940668e6 2.989428178977455e6 0.0
0.0 0.0 0.0

-4.091909737206915e6 8.548012815826707e6 0.0
8.548012815826707e6 2.25821390231923e6 0.0
0.0 0.0 0.0

-1.9724404622880786e6 6.777996787643489e6 0.0
6.777996787643489e6 -19763.671014553518 0.0
0.0 0.0 0.0

-1.0909220631492347e6 6.140364272915282e6 0.0
6.140364272915282e6 -705750.4367285953 0.0
0.0 0.0 0.0

2.627436061645335e6 8.196031452528985e6 0.0
8.196031452528985e6 -1.8389759108786047e6 0.0
0.0 0.0 0.0

-4.354356328454689e6 1.0156403202847593e7 0.0
1.0156403202847593e7 -261206.86390635278 0.0
0.0 0.0 0.0

-881480.6267284132 2.6998696535050957e6 0.0
2.6998696535050957e6 -1.970924815779525e6 0.0
0.0 0.0 0.0

-5.615096468375124e6 1.0006268916555827e7 0.0
1.0006268916555827e7 2.16941621010829e6 0.0
0.0 0.0 0.0

-3.9969780107993633e6 4.883595584023203e6 0.0
4.883595584023203e6 2.930195444186001e6 0.0
0.0 0.0 0.0

-2.664878128782148e6 7.760107622744202e6 0.0
7.760107622744202e6 425696.6020790342 0.0
0.0 0.0 0.0

-1.250462578544924e6 -3043.1496672549342 0.0
-3043.1496672549342 1.6010967023716888e6 0.0
0.0 0.0 0.0

2.3899286169832186e6 5.981618339757623e6 0.0
5.981618339757623e6 -7.541583452694657e6 0.0
0.0 0.0 0.0

2.078299406385691e6 7.189123527345614e6 0.0
7.189123527345614e6 -7.869572775611399e6 0.0
0.0 0.0 0.0

-2.3320362525254856e6 4.452421607150375e6 0.0
4.452421607150375e6 1.2223930981053812e6 0.0
0.0 0.0 0.0

2.4942248627145826e6 7.570985994915614e6 0.0
7.570985994915614e6 -1.075838604835372e7 0.0
0.0 0.0 0.0

-7.604788611400358e6 -8.5533758150834e6 0.0
-8.5533758150834e6 1.688504692972198e7 0.0
0.0 0.0 0.0

-463037.81384002825 6.512564172320056e6 0.0
6.512564172320056e6 -3.9202714688799516e6 0.0
0.0 0.0 0.0

349387.2858261424 6.744633656590207e6 0.0
6.744633656590207e6 -4.526308416841963e6 0.0
0.0 0.0 0.0

-7.741760364891007e6 1.3621422824884666e7 0.0
1.3621422824884666e7 3.515626774734475e6 0.0
0.0 0.0 0.0

-6.9396133410221785e6 1.0117774157400303e7 0.0
1.0117774157400303e7 4.41791136591511e6 0.0
0.0 0.0 0.0

-4.372588241835019e6 9.069670175260676e6 0.0
9.069670175260676e6 2.2535045746689243e6 0.0
0.0 0.0 0.0

-5.0375549518680805e6 1.0075256654576212e7 0.0
1.0075256654576212e7 1.3624857819124488e6 0.0
0.0 0.0 0.0

-9.476445023239253e6 1.1374537856129052e7 0.0
1.1374537856129052e7 5.714979564202002e6 0.0
0.0 0.0 0.0

-4.854135126019085e6 9.442401065976834e6 0.0
9.442401065976834e6 2.8560874293975835e6 0.0
0.0 0.0 0.0

-944495.771863122 1.009133999535145e7 0.0
1.009133999535145e7 422863.68913102796 0.0
0.0 0.0 0.0

2.7434075170082483e6 6.527294066381521e6 0.0
6.527294066381521e6 -9.694800789618166e6 0.0
0.0 0.0 0.0

2.777781676098771e6 6.262865631138418e6 0.0
6.262865631138418e6 -7.779726468396658e6 0.0
0.0 0.0 0.0

2.5990989342844165e6 6.02795389136938e6 0.0
6.02795389136938e6 -8.819289373913499e6 0.0
0.0 0.0 0.0

-5.295822763410297e6 9.320149211351234e6 0.0
9.320149211351234e6 2.4869549349008994e6 0.0
0.0 0.0 0.0

-1.7296408356066383e6 6.000286827081846e6 0.0
6.000286827081846e6 -749831.7619938172 0.0
0.0 0.0 0.0

-4.715538011296545e6 -5.385141708612237e6 0.0
-5.385141708612237e6 7.130791389754549e6 0.0
0.0 0.0 0.0

-2.0370361103140754e6 4.97828478850251e6 0.0
4.97828478850251e6 821802.142110693 0.0
0.0 0.0 0.0

117104.45827016258 4.910603312915515e6 0.0
4.910603312915515e6 -3.895820469362571e6 0.0
0.0 0.0 0.0

-5.6172858035880765e6 8.914696400615416e6 0.0
8.914696400615416e6 2.8740298915571985e6 0.0
0.0 0.0 0.0

-881710.412063431 8.644371065468967e6 0.0
8.644371065468967e6 -6.021048802729389e6 0.0
0.0 0.0 0.0

-858260.975602179 1.1393261541295066e6 0.0
1.1393261541295066e6 958397.6626076687 0.0
0.0 0.0 0.0

-1.0475849600616206e6 4.004212092810889e6 0.0
4.004212092810889e6 -440113.8279113427 0.0
0.0 0.0 0.0

-7.868504132961005e6 2.5556013809539545e6 0.0
2.5556013809539545e6 8.292550202927812e6 0.0
0.0 0.0 0.0

-3.4521688528020075e6 9.21839430050388e6 0.0
9.21839430050388e6 3.3412763787051495e6 0.0
0.0 0.0 0.0

-76544.00324966316 8.2135376427207785e6 0.0
8.2135376427207785e6 -5.314698711961778e6 0.0
0.0 0.0 0.0

2.8643044817992803e6 6.268924447597911e6 0.0
6.268924447597911e6 -9.496056057957405e6 0.0
0.0 0.0 0.0

1.733597474305173e6 5.424634442893888e6 0.0
5.424634442893888e6 -6.018548243188548e6 0.0
0.0 0.0 0.0

-7.659805256308429e6 1.7306234518200852e7 0.0
1.7306234518200852e7 -1.809193033632701e6 0.0
0.0 0.0 0.0

-6.878019587470093e6 -8.468367073644157e6 0.0
-8.468367073644157e6 1.4708596717881601e7 0.0
0.0 0.0 0.0

1.6093424003478484e6 7.311516642949221e6 0.0
7.311516642949221e6 -7.211734034695937e6 0.0
0.0 0.0 0.0

-1.202679767774525e7 -5.365788475253618e6 0.0
-5.365788475253618e6 3.0028769534210347e7 0.0
0.0 0.0 0.0

2.791304764666802e6 6.96095548556388e6 0.0
6.96095548556388e6 -1.0165633869528007e7 0.0
0.0 0.0 0.0

-5.123925937355078e6 9.892925245772954e6 0.0
9.892925245772954e6 3.115042376360627e6 0.0
0.0 0.0 0.0

-1.0502331586521566e6 5.549571414567164e6 0.0
5.549571414567164e6 -2.1230287377520544e6 0.0
0.0 0.0 0.0

-2.614669531264952e6 8.763374805262053e6 0.0
8.763374805262053e6 -1.8492276976724924e6 0.0
0.0 0.0 0.0

-961293.1152676649 9.533484178951042e6 0.0
9.533484178951042e6 -4.233183051430104e6 0.0
0.0 0.0 0.0

-8.097796314856e6 -8.588120991603533e6 0.0
-8.588120991603533e6 1.880903523059097e7 0.0
0.0 0.0 0.0

2.635635373419857e6 6.170564114168896e6 0.0
6.170564114168896e6 -9.049597390428048e6 0.0
0.0 0.0 0.0

-4.664680303585514e6 4.62584033008125e6 0.0
4.62584033008125e6 4.195825773005959e6 0.0
0.0 0.0 0.0

-3.2590879925625594e6 5.1143870051917555e6 0.0
5.1143870051917555e6 2.160133561040784e6 0.0
0.0 0.0 0.0

-5.183681570624087e6 2.6874523377393954e6 0.0
2.6874523377393954e6 5.0648993987128325e6 0.0
0.0 0.0 0.0

-2.1610021935613663e6 6.988055816404289e6 0.0
6.988055816404289e6 274113.172739265 0.0
0.0 0.0 0.0

-3.88231638235341e6 1.0938757565105032e7 0.0
1.0938757565105032e7 6.059883531158624e6 0.0
0.0 0.0 0.0

-4.0972117890514866e6 1.0388986672969652e7 0.0
1.0388986672969652e7 107196.8232425109 0.0
0.0 0.0 0.0

-5.958548827656573e6 9.759380738158759e6 0.0
9.759380738158759e6 3.0144665324322144e6 0.0
0.0 0.0 0.0

-5.151089318422818e6 1.052719862028726e7 0.0
1.052719862028726e7 708851.5925262822 0.0
0.0 0.0 0.0

-111524.6727319241 6.600427916192633e6 0.0
6.600427916192633e6 -3.9212867249780837e6 0.0
0.0 0.0 0.0

-6.201232582622526e6 1.0311677355660303e7 0.0
1.0311677355660303e7 3.6774832142520635e6 0.0
0.0 0.0 0.0

-1.321886833548411e6 1.0574988349794675e7 0.0
1.0574988349794675e7 -294611.38589385286 0.0
0.0 0.0 0.0

-536028.615779997 8.452227881678026e6 0.0
8.452227881678026e6 -3.972722244535824e6 0.0
0.0 0.0 0.0

-5.738500643678103e6 4.262838546043969e6 0.0
4.262838546043969e6 8.387104374911912e6 0.0
0.0 0.0 0.0

-2.850830868239785e6 4.044561801445698e6 0.0
4.044561801445698e6 1.8653675258714627e6 0.0
0.0 0.0 0.0

21455.187537105056 6.775757214477548e6 0.0
6.775757214477548e6 -4.573934069707622e6 0.0
0.0 0.0 0.0

-2.218669209575415e6 -1.4117537972717711e6 0.0
-1.4117537972717711e6 1.5777111431117859e6 0.0
0.0 0.0 0.0

2.881505609810998e6 6.398610449606336e6 0.0
6.398610449606336e6 -7.748174705484685e6 0.0
0.0 0.0 0.0

-2.0618195625080776e6 9.495746086922335e6 0.0
9.495746086922335e6 2.9281465374865774e6 0.0
0.0 0.0 0.0

-5.741981818449696e6 -7.813513447900777e6 0.0
-7.813513447900777e6 1.2457535941450857e7 0.0
0.0 0.0 0.0

2.4150333787764013e6 5.959451184770351e6 0.0
5.959451184770351e6 -8.378405285931567e6 0.0
0.0 0.0 0.0

2.8760997157206177e6 6.41154569628688e6 0.0
6.41154569628688e6 -7.7022306338435635e6 0.0
0.0 0.0 0.0

-1.988465010051027e6 -2.5672729798245025e6 0.0
-2.5672729798245025e6 1.6083354558435376e6 0.0
0.0 0.0 0.0

-7.497302652639521e6 7.782596321138416e6 0.0
7.782596321138416e6 1.11801382701295e7 0.0
0.0 0.0 0.0

2.3779063839336936e6 5.906691397307437e6 0.0
5.906691397307437e6 -8.202598685869346e6 0.0
0.0 0.0 0.0

-5.01937924326361e6 -7.474241237734801e6 0.0
-7.474241237734801e6 1.0114744514017705e7 0.0
0.0 0.0 0.0

-3.1188985128462915e6 9.290271168794155e6 0.0
9.290271168794155e6 3.126322628157104e6 0.0
0.0 0.0 0.0

-3.2420339082094235e6 9346.563021402824 0.0
9346.563021402824 4.325482482722151e6 0.0
0.0 0.0 0.0

-2.9255384929332566e6 -4.068149224545014e6 0.0
-4.068149224545014e6 3.4502812887783125e6 0.0
0.0 0.0 0.0

2.909569578337244e6 6.372296174046049e6 0.0
6.372296174046049e6 -7.773962965879228e6 0.0
0.0 0.0 0.0

2.3510901418574327e6 6.003082709998148e6 0.0
6.003082709998148e6 -7.963882786377872e6 0.0
0.0 0.0 0.0

-5.284376089099828e6 -6.511600158586282e6 0.0
-6.511600158586282e6 9.456270126463672e6 0.0
0.0 0.0 0.0

-9.16986588135316e7 2.828817846549316e7 0.0
2.828817846549316e7 -815539.9680771269 0.0
0.0 0.0 0.0

5.01616811395336e7 9.863206118821442e6 0.0
9.863206118821442e6 -6.905148560706817e6 0.0
0.0 0.0 0.0

-2.1074767503932724e6 6.458799281495007e6 0.0
6.458799281495007e6 304388.056296936 0.0
0.0 0.0 0.0

2.305691946586951e6 6.090165611770603e6 0.0
6.090165611770603e6 -7.798182556175977e6 0.0
0.0 0.0 0.0

-6.273896204015354e6 -5.392496793775936e6 0.0
-5.392496793775936e6 1.018800303220142e7 0.0
0.0 0.0 0.0

839358.543191744 8.223653248123719e6 0.0
8.223653248123719e6 -3.1525751066153366e6 0.0
0.0 0.0 0.0

-2.7696780115555683e6 4.691261978187184e6 0.0
4.691261978187184e6 1.7600048698268775e6 0.0
0.0 0.0 0.0

-5.361070316958964e6 9.618150319197826e6 0.0
9.618150319197826e6 3.0343213434093324e6 0.0
0.0 0.0 0.0

-2.2178130478840494e6 9.576203788065672e6 0.0
9.576203788065672e6 3.0257198794162376e6 0.0
0.0 0.0 0.0

-6.076352414098687e6 -5.169768719158404e6 0.0
-5.169768719158404e6 9.190976133279584e6 0.0
0.0 0.0 0.0

2.144439753680871e6 6.072813069209727e6 0.0
6.072813069209727e6 -7.536578469623921e6 0.0
0.0 0.0 0.0

-4.604542118036224e6 1.0007471631569246e7 0.0
1.0007471631569246e7 235429.9625297638 0.0
0.0 0.0 0.0

-72216.3530091811 9.603631152647771e6 0.0
9.603631152647771e6 -7.642821552570244e6 0.0
0.0 0.0 0.0

-5.7625515767859565e6 9.776840641180532e6 0.0
9.776840641180532e6 2.239191477954896e6 0.0
0.0 0.0 0.0

-1.2120407563373852e6 8.624251743072413e6 0.0
8.624251743072413e6 -3.0279860944608347e6 0.0
0.0 0.0 0.0

-434025.87563340226 8.994919791238548e6 0.0
8.994919791238548e6 -4.99162802777439e6 0.0
0.0 0.0 0.0

-859590.56735483 1.026406770263044e7 0.0
1.026406770263044e7 -75792.84318095085 0.0
0.0 0.0 0.0

-3.805284156634324e6 1.1899088997604536e7 0.0
1.1899088997604536e7 -1.18762360354654e6 0.0
0.0 0.0 0.0

-2.9066928977689208e6 1.0663752996090058e7 0.0
1.0663752996090058e7 -1.34270026703125e6 0.0
0.0 0.0 0.0

162762.2804733324 9.073255597227361e6 0.0
9.073255597227361e6 -6.9526319525682675e6 0.0
0.0 0.0 0.0

-5.665300304715844e6 9.744961474626644e6 0.0
9.744961474626644e6 3.04901247183935e6 0.0
0.0 0.0 0.0

-4.203069108948067e6 8.875829908058943e6 0.0
8.875829908058943e6 2.302401447302331e6 0.0
0.0 0.0 0.0

-4.890460668728897e6 1.0612748845777642e7 0.0
1.0612748845777642e7 2.5464839512721803e6 0.0
0.0 0.0 0.0

-367038.73706252384 9.113540245393172e6 0.0
9.113540245393172e6 -5.093444412236332e6 0.0
0.0 0.0 0.0

-1.8758314667490388e6 5.271047642012532e6 0.0
5.271047642012532e6 411108.7709529087 0.0
0.0 0.0 0.0

-271752.31058043044 9.762185257962514e6 0.0
9.762185257962514e6 -47729.39304327435 0.0
0.0 0.0 0.0

-2.0942553337290222e6 5.536998128124518e6 0.0
5.536998128124518e6 732952.244298337 0.0
0.0 0.0 0.0

-2.563632177617017e6 7.144054946171671e6 0.0
7.144054946171671e6 -172582.94119372696 0.0
0.0 0.0 0.0

-5.537557597488618e6 9.724066758744784e6 0.0
9.724066758744784e6 3.0991905090356604e6 0.0
0.0 0.0 0.0

264082.60883932933 8.763520993162455e6 0.0
8.763520993162455e6 -6.316622455331743e6 0.0
0.0 0.0 0.0

-2.5391090134078236e6 9.57936238200162e6 0.0
9.57936238200162e6 2.6795625440753335e6 0.0
0.0 0.0 0.0

-1.003326136105948e7 1.149579847842039e7 0.0
1.149579847842039e7 6.108762025461111e6 0.0
0.0 0.0 0.0

-2.8728456114947977e6 7.209809377944081e6 0.0
7.209809377944081e6 -254328.27359903848 0.0
0.0 0.0 0.0

-5.156990367547015e6 9.853867921476046e6 0.0
9.853867921476046e6 1.0243496433632139e6 0.0
0.0 0.0 0.0

701696.8082468926 8.374653007024316e6 0.0
8.374653007024316e6 2.377508956789283e6 0.0
0.0 0.0 0.0

-5.456183003351474e6 9.671314793424726e6 0.0
9.671314793424726e6 3.0662358036178397e6 0.0
0.0 0.0 0.0

-6.833687941440949e6 2.1297125830719625e6 0.0
2.1297125830719625e6 3.7054226278788703e6 0.0
0.0 0.0 0.0

-6.473217493434076e6 1.0296867297411555e7 0.0
1.0296867297411555e7 3.6843849621944567e6 0.0
0.0 0.0 0.0

810287.2813126908 4.689569440764735e6 0.0
4.689569440764735e6 -4.261120603925136e6 0.0
0.0 0.0 0.0

750056.5422491594 4.598099122034087e6 0.0
4.598099122034087e6 -3.789766523494525e6 0.0
0.0 0.0 0.0

-4.8742814675382e6 9.942381097745739e6 0.0
9.942381097745739e6 797096.1584729762 0.0
0.0 0.0 0.0

-3.9139413711065063e6 1.0123886579908682e7 0.0
1.0123886579908682e7 5.0845960552772945e6 0.0
0.0 0.0 0.0

-6.92662451688765e6 1.053909181544305e7 0.0
1.053909181544305e7 3.9603680608329196e6 0.0
0.0 0.0 0.0

-3.8256601293018037e6 2.8371922068436486e6 0.0
2.8371922068436486e6 3.2338945128086125e6 0.0
0.0 0.0 0.0

-8.601770509890435e6 1.1022364686088441e7 0.0
1.1022364686088441e7 5.188786546549028e6 0.0
0.0 0.0 0.0

-2.5448178268814785e6 1.0072848199127713e7 0.0
1.0072848199127713e7 1.5464999017882915e6 0.0
0.0 0.0 0.0

-812340.2374192949 6.750351823421189e6 0.0
6.750351823421189e6 -1.2125593415735357e6 0.0
0.0 0.0 0.0

456373.9245126359 8.228188531201057e6 0.0
8.228188531201057e6 -5.56537914639203e6 0.0
0.0 0.0 0.0

-5.467219960199811e6 9.60281468574853e6 0.0
9.60281468574853e6 2.9462042666062843e6 0.0
0.0 0.0 0.0

-955560.5556859935 2.09399318835583e6 0.0
2.09399318835583e6 928180.0781589912 0.0
0.0 0.0 0.0

-9.338761378561577e6 6.967048342013102e6 0.0
6.967048342013102e6 1.1194765059395934e7 0.0
0.0 0.0 0.0

338269.56576795876 9.081368943464652e6 0.0
9.081368943464652e6 -7.4865191202905e6 0.0
0.0 0.0 0.0

-4.35785473553388e6 3.182663982902325e6 0.0
3.182663982902325e6 5.755459965035055e6 0.0
0.0 0.0 0.0

-1.2036965033368124e6 1.2876804100997282e7 0.0
1.2876804100997282e7 -2.3564282439433704e6 0.0
0.0 0.0 0.0

62601.40051876777 8.204774673476779e6 0.0
8.204774673476779e6 -4.849822142331142e6 0.0
0.0 0.0 0.0

-2.8119516621513143e6 7.058700266319848e6 0.0
7.058700266319848e6 -213694.21419134655 0.0
0.0 0.0 0.0

-5.560445071270278e6 9.798651032935191e6 0.0
9.798651032935191e6 1.881885704519969e6 0.0
0.0 0.0 0.0

557488.9820036893 8.432849117551735e6 0.0
8.432849117551735e6 -4.077948671984886e6 0.0
0.0 0.0 0.0

-1.9610080368577335e6 4.885805919534445e6 0.0
4.885805919534445e6 1.1418436011158698e6 0.0
0.0 0.0 0.0

-5.151894961856473e6 3.84078273585381e6 0.0
3.84078273585381e6 6.832044949417471e6 0.0
0.0 0.0 0.0

-5.396299797369114e6 9.790348097748047e6 0.0
9.790348097748047e6 1.476500987814638e6 0.0
0.0 0.0 0.0

-1.9311487241282137e6 6.465104195863011e6 0.0
6.465104195863011e6 269844.462779606 0.0
0.0 0.0 0.0

2.1581511642974913e6 6.525482220401777e6 0.0
6.525482220401777e6 -7.727595194851699e6 0.0
0.0 0.0 0.0

-2.555161984461945e6 7.196332080193884e6 0.0
7.196332080193884e6 646356.0693265429 0.0
0.0 0.0 0.0

220901.70442627207 8.906674760128127e6 0.0
8.906674760128127e6 -4.833072437652602e6 0.0
0.0 0.0 0.0

775107.6242044064 7.865641157158489e6 0.0
7.865641157158489e6 -2.35408986380162e6 0.0
0.0 0.0 0.0

-1.6289064108836292e6 9.440802062729333e6 0.0
9.440802062729333e6 476884.2986136456 0.0
0.0 0.0 0.0

-2.7358270568008292e6 7.53034059082936e6 0.0
7.53034059082936e6 -985655.3757418799 0.0
0.0 0.0 0.0

-639786.1790192279 9.132114895609139e6 0.0
9.132114895609139e6 -4.705504284289816e6 0.0
0.0 0.0 0.0

701671.3799182114 7.125332622174115e6 0.0
7.125332622174115e6 -5.804281552076478e6 0.0
0.0 0.0 0.0

377927.45983098075 8.709894398846563e6 0.0
8.709894398846563e6 -4.5263856378848925e6 0.0
0.0 0.0 0.0

-510563.35640036385 6.684064361546798e6 0.0
6.684064361546798e6 -4.048553085952777e6 0.0
0.0 0.0 0.0

1.2756164019419788e6 6.288309029840172e6 0.0
6.288309029840172e6 -4.360613512879751e6 0.0
0.0 0.0 0.0

-5.71600927328758e6 9.705885151607903e6 0.0
9.705885151607903e6 3.0381811878977655e6 0.0
0.0 0.0 0.0

-1.240419946513136e6 5.837615093229845e6 0.0
5.837615093229845e6 -2.2628677232210045e6 0.0
0.0 0.0 0.0

-2.997727390338716e6 9.607109790789992e6 0.0
9.607109790789992e6 2.884889018145232e6 0.0
0.0 0.0 0.0

410143.2365465366 2.217572154446955e6 0.0
2.217572154446955e6 -1.0712358508974498e6 0.0
0.0 0.0 0.0

1.5774293350964352e6 8.907596145311972e6 0.0
8.907596145311972e6 -2.721751341743944e6 0.0
0.0 0.0 0.0

-2.4398948061971976e6 8.150360491473799e6 0.0
8.150360491473799e6 1.798415357616249e6 0.0
0.0 0.0 0.0

261304.7578973493 6.833202416039951e6 0.0
6.833202416039951e6 -4.809683392066496e6 0.0
0.0 0.0 0.0

-3.216983799525097e7 910194.6018120951 0.0
910194.6018120951 1.5395719545643013e7 0.0
0.0 0.0 0.0

-3.9091820944941044e6 8.269837932787243e6 0.0
8.269837932787243e6 4.623965705029147e6 0.0
0.0 0.0 0.0

-1.8052818909880433e6 9.585175664642476e6 0.0
9.585175664642476e6 -2.534745082250176e6 0.0
0.0 0.0 0.0

-2.3213975979731833e6 7.238580271472188e6 0.0
7.238580271472188e6 -1.5387778311543977e6 0.0
0.0 0.0 0.0

77667.06442133873 8.614299831447367e6 0.0
8.614299831447367e6 -5.064478318098183e6 0.0
0.0 0.0 0.0

-716934.4724526813 9.99583657228696e6 0.0
9.99583657228696e6 313236.2842544766 0.0
0.0 0.0 0.0

729394.6824520384 8.334347090645353e6 0.0
8.334347090645353e6 -6.227036636267983e6 0.0
0.0 0.0 0.0

-668249.8664074908 1.0058273656087162e7 0.0
1.0058273656087162e7 601749.8122456747 0.0
0.0 0.0 0.0

-1.9500735093853585e6 8.793807505383402e6 0.0
8.793807505383402e6 -2.8683516944651906e6 0.0
0.0 0.0 0.0

708601.5115574072 7.002835686058124e6 0.0
7.002835686058124e6 -5.1296485300779985e6 0.0
0.0 0.0 0.0

2.110162848578597e6 6.188921772617122e6 0.0
6.188921772617122e6 -7.667660120637507e6 0.0
0.0 0.0 0.0

-4.61734908476304e6 1.2905516251476752e7 0.0
1.2905516251476752e7 -648424.8247590548 0.0
0.0 0.0 0.0

609499.2590809211 8.291583864123279e6 0.0
8.291583864123279e6 -5.926186693490279e6 0.0
0.0 0.0 0.0

-5.899296935114486e6 1.0238414362815447e7 0.0
1.0238414362815447e7 3.5119895570552084e6 0.0
0.0 0.0 0.0

-2.862400695957474e6 1.0255866886973742e7 0.0
1.0255866886973742e7 566894.3520019068 0.0
0.0 0.0 0.0

303747.3512195996 5.546026300762435e6 0.0
5.546026300762435e6 -4.441252972557406e6 0.0
0.0 0.0 0.0

-1.0961093280613186e7 1.1229814995412856e7 0.0
1.1229814995412856e7 6.63927856312257e6 0.0
0.0 0.0 0.0

333597.3186593321 6.955802362627323e6 0.0
6.955802362627323e6 -4.608490983534724e6 0.0
0.0 0.0 0.0

-6.075690124081755e6 1.0180401927796857e7 0.0
1.0180401927796857e7 9.16222556148434e6 0.0
0.0 0.0 0.0

-884757.123968848 1.0463420701431375e7 0.0
1.0463420701431375e7 -342847.90838030924 0.0
0.0 0.0 0.0

-6.443547533994334e6 1.0136927941147098e7 0.0
1.0136927941147098e7 3.7040496814631885e6 0.0
0.0 0.0 0.0

-1.7404029923003528e6 5.50202319250325e6 0.0
5.50202319250325e6 728339.4537408203 0.0
0.0 0.0 0.0

-254025.2761644707 8.530523117550611e6 0.0
8.530523117550611e6 -5.111250273156751e6 0.0
0.0 0.0 0.0

-1.426335774825144e6 4.592877244559423e6 0.0
4.592877244559423e6 -1.6059477979795136e6 0.0
0.0 0.0 0.0

-2.705316203939726e6 7.742926195676963e6 0.0
7.742926195676963e6 -646640.950124762 0.0
0.0 0.0 0.0

4.0447552194606382e6 8.771109276182253e6 0.0
8.771109276182253e6 -3.8193744125301423e6 0.0
0.0 0.0 0.0

-1.1690621374913338e6 9.99910804827564e6 0.0
9.99910804827564e6 -3.265410756181957e6 0.0
0.0 0.0 0.0

58361.893072315026 4.0952388070102576e6 0.0
4.0952388070102576e6 -2.494249318086777e6 0.0
0.0 0.0 0.0

-459960.4225585479 8.81305340906077e6 0.0
8.81305340906077e6 -4.887287541367175e6 0.0
0.0 0.0 0.0

-604109.8342742473 1.6830291797313339e6 0.0
1.6830291797313339e6 668948.2885146388 0.0
0.0 0.0 0.0

-3.790792442857885e6 9.06308422799016e6 0.0
9.06308422799016e6 3.287084068188496e6 0.0
0.0 0.0 0.0

-3.2631132908661957e6 4.341182446058381e6 0.0
4.341182446058381e6 2.4369209324323465e6 0.0
0.0 0.0 0.0

-1.043119016435194e7 6.512962902413053e6 0.0
6.512962902413053e6 5.280482745288111e6 0.0
0.0 0.0 0.0

147113.06083094794 8.998725032311888e6 0.0
8.998725032311888e6 -7.061876617939497e6 0.0
0.0 0.0 0.0

-5.050485246572041e6 9.648297503897307e6 0.0
9.648297503897307e6 3.060166222786896e6 0.0
0.0 0.0 0.0

-4.952903250030685e6 9.981097811888715e6 0.0
9.981097811888715e6 2.9976268715763967e6 0.0
0.0 0.0 0.0

-2.368198009141696e6 1.1481408172040489e7 0.0
1.1481408172040489e7 -2.4375873997735498e6 0.0
0.0 0.0 0.0

578873.4189688219 8.82083189953155e6 0.0
8.82083189953155e6 -7.293440713551694e6 0.0
0.0 0.0 0.0

-2.577185526519945e6 9.758388531289008e6 0.0
9.758388531289008e6 2.525852476824157e6 0.0
0.0 0.0 0.0

-8.964049208737731e6 -509782.1268520485 0.0
-509782.1268520485 1.1990368656991074e7 0.0
0.0 0.0 0.0

1.3603739799404761e6 1.3812241742883588e6 0.0
1.3812241742883588e6 -3.0329088463379852e6 0.0
0.0 0.0 0.0

-110942.3670412898 9.285679047132928e6 0.0
9.285679047132928e6 -5.414994629608046e6 0.0
0.0 0.0 0.0

-3.332817432746733e6 1.171228500432769e7 0.0
1.171228500432769e7 -1.6224234929057667e6 0.0
0.0 0.0 0.0

-2.846036760952006e6 7.422678181018805e6 0.0
7.422678181018805e6 93536.94707060233 0.0
0.0 0.0 0.0

-1.985598190987443e6 7.18226026044725e6 0.0
7.18226026044725e6 -2.167861013077286e6 0.0
0.0 0.0 0.0

-934924.882296107 8.869486390695432e6 0.0
8.869486390695432e6 -6.207570428525462e6 0.0
0.0 0.0 0.0

-5.76556018662156e6 3.2636499311910076e6 0.0
3.2636499311910076e6 6.062261416843979e6 0.0
0.0 0.0 0.0

-6.979393483570685e6 1.0607038909367299e7 0.0
1.0607038909367299e7 3.697149259541674e6 0.0
0.0 0.0 0.0

-1.3641218192226961e7 4.724498412305105e6 0.0
4.724498412305105e6 7.717049287046342e6 0.0
0.0 0.0 0.0

1.8424237706921431e6 8.524345172589635e6 0.0
8.524345172589635e6 -2.7483345371929687e6 0.0
0.0 0.0 0.0

379892.9474062305 5.587692687497444e6 0.0
5.587692687497444e6 -4.213357595067808e6 0.0
0.0 0.0 0.0

-2.751029970247493e6 7.272426995817084e6 0.0
7.272426995817084e6 137118.60474983323 0.0
0.0 0.0 0.0

-6.4667595287251035e6 3.0010360983576817e6 0.0
3.0010360983576817e6 8.986174404719986e6 0.0
0.0 0.0 0.0

-6.81430987199189e6 1.0337999481721831e7 0.0
1.0337999481721831e7 4.0295981760249543e6 0.0
0.0 0.0 0.0

-3.045348805986825e6 9.452716431946825e6 0.0
9.452716431946825e6 3.023780431397762e6 0.0
0.0 0.0 0.0

-6.046016191369862e6 9.82529982496063e6 0.0
9.82529982496063e6 2.9908443652465823e6 0.0
0.0 0.0 0.0

-1.6521988256979326e6 8.739187433962576e6 0.0
8.739187433962576e6 -3.2035344385203416e6 0.0
0.0 0.0 0.0

-8.742193781855948e6 2.9483178767657215e6 0.0
2.9483178767657215e6 1.0671092370282704e7 0.0
0.0 0.0 0.0

-871764.9940857294 9.721311574531961e6 0.0
9.721311574531961e6 -4.397710011241262e6 0.0
0.0 0.0 0.0

-2.710120662971398e6 1.0643908551809782e7 0.0
1.0643908551809782e7 213339.62687735446 0.0
0.0 0.0 0.0

-7.130094193685603e6 1.0782297489027647e7 0.0
1.0782297489027647e7 3.9478477394922753e6 0.0
0.0 0.0 0.0

231178.028338694 6.618977482989217e6 0.0
6.618977482989217e6 -4.149694985276407e6 0.0
0.0 0.0 0.0

-469441.49353168765 1.1250219585301606e7 0.0
1.1250219585301606e7 -3.4007035041166656e6 0.0
0.0 0.0 0.0

-5.072609892296196e6 9.575739830103278e6 0.0
9.575739830103278e6 2.9474435764702037e6 0.0
0.0 0.0 0.0

-1.7586363234231097e6 5.273786771733116e6 0.0
5.273786771733116e6 807539.9671377188 0.0
0.0 0.0 0.0

-3.7466953932168796e6 1.1039859131637815e7 0.0
1.1039859131637815e7 1.4697613817606352e6 0.0
0.0 0.0 0.0

-6.293134410622522e6 4.0526827626438797e6 0.0
4.0526827626438797e6 6.691924662889182e6 0.0
0.0 0.0 0.0

-2.298679922199048e6 3.443476324360255e6 0.0
3.443476324360255e6 3.9908302708038865e6 0.0
0.0 0.0 0.0

-4.843676904648232e6 9.403999103360916e6 0.0
9.403999103360916e6 2.666477313958468e6 0.0
0.0 0.0 0.0

-3.0291243447741996e6 3.4508622581647024e6 0.0
3.4508622581647024e6 2.0321320021481202e6 0.0
0.0 0.0 0.0

-3.430779592133751e6 7.896721900070862e6 0.0
7.896721900070862e6 1.6737328510885944e6 0.0
0.0 0.0 0.0

-2.559926195073535e6 1.087281622668858e7 0.0
1.087281622668858e7 3.874702712173351e6 0.0
0.0 0.0 0.0

637752.1737503288 8.659721570577547e6 0.0
8.659721570577547e6 -7.00087280081218e6 0.0
0.0 0.0 0.0

93512.02243827278 2.3780828952806457e6 0.0
2.3780828952806457e6 -897145.3943306458 0.0
0.0 0.0 0.0

-3.2083114898205046e6 1.3871803407045454e7 0.0
1.3871803407045454e7 -2.1783704173800154e6 0.0
0.0 0.0 0.0

-3.4668809591660146e6 2.946314389788807e6 0.0
2.946314389788807e6 4.366985665623895e6 0.0
0.0 0.0 0.0

-1.3053266977374381e6 7.2544574409250235e6 0.0
7.2544574409250235e6 -3.0086646226003445e6 0.0
0.0 0.0 0.0

-2.2635973083194736e6 9.984026256738812e6 0.0
9.984026256738812e6 1.9592685749419746e6 0.0
0.0 0.0 0.0

-2.4503240701617035e6 7.469130550408389e6 0.0
7.469130550408389e6 -892789.6342521184 0.0
0.0 0.0 0.0

-4.0232632545148055e6 8.670035948012915e6 0.0
8.670035948012915e6 3.1809782200779123e6 0.0
0.0 0.0 0.0

-680009.0119187492 5.358288009156366e6 0.0
5.358288009156366e6 -2.288036396157037e6 0.0
0.0 0.0 0.0

-3.637870433537801e6 1.0014103474072855e7 0.0
1.0014103474072855e7 1.488586422114107e6 0.0
0.0 0.0 0.0

-3.531221224689752e6 7.800539335079716e6 0.0
7.800539335079716e6 2.0427896912814192e6 0.0
0.0 0.0 0.0

-859775.9814502128 1.115358785123165e7 0.0
1.115358785123165e7 -3.199014311369413e6 0.0
0.0 0.0 0.0

-5.126399103669527e6 9.480771431810636e6 0.0
9.480771431810636e6 2.7795561231053476e6 0.0
0.0 0.0 0.0

-7.199909595234681e6 1.0766837929142931e7 0.0
1.0766837929142931e7 4.174518282542143e6 0.0
0.0 0.0 0.0

482078.0892695775 8.65370192695769e6 0.0
8.65370192695769e6 -6.513633175768563e6 0.0
0.0 0.0 0.0

1.9284901491927053e6 563957.8654517856 0.0
563957.8654517856 -2.314205577716859e6 0.0
0.0 0.0 0.0

-763651.4143640738 3.9227022941378616e6 0.0
3.9227022941378616e6 -1.2226769351112777e6 0.0
0.0 0.0 0.0

2.5933240099308174e6 6.618434747304689e6 0.0
6.618434747304689e6 -8.99230029555425e6 0.0
0.0 0.0 0.0

-3.9441261068913173e6 9.64059277841429e6 0.0
9.64059277841429e6 91661.6946573283 0.0
0.0 0.0 0.0

-3.405149112155283e6 9.08298910015878e6 0.0
9.08298910015878e6 3.541103546861506e6 0.0
0.0 0.0 0.0

-2.32873656645793e6 4.905537521728276e6 0.0
4.905537521728276e6 1.1687051942610631e6 0.0
0.0 0.0 0.0

-1.1791471759622859e7 1.1249679442424232e7 0.0
1.1249679442424232e7 7.122147064444727e6 0.0
0.0 0.0 0.0

-5.751917307880187e6 2.372831625813637e6 0.0
2.372831625813637e6 5.752225735936411e6 0.0
0.0 0.0 0.0

-2.5523760612211293e6 2.537828382504391e7 0.0
2.537828382504391e7 -2.04310947362237e6 0.0
0.0 0.0 0.0

-2.933766356649276e6 1.0433594063803855e7 0.0
1.0433594063803855e7 -1.8950915421027038e6 0.0
0.0 0.0 0.0

-760645.9621535976 8.50491291148361e6 0.0
8.50491291148361e6 -3.635164236491831e6 0.0
0.0 0.0 0.0

-3.209285236527079e6 9.63103146826869e6 0.0
9.63103146826869e6 2.7202656419079853e6 0.0
0.0 0.0 0.0

-7.718901563618155e6 3.1138367680519177e6 0.0
3.1138367680519177e6 9.00670878926696e6 0.0
0.0 0.0 0.0

-3.485828198133183e6 1.0498079807588683e7 0.0
1.0498079807588683e7 -663603.5234594551 0.0
0.0 0.0 0.0

429906.6945087415 7.656038648849219e6 0.0
7.656038648849219e6 -1.4056905165863715e6 0.0
0.0 0.0 0.0

2.1436118774652095e6 5.985590036093536e6 0.0
5.985590036093536e6 -6.785486809404901e6 0.0
0.0 0.0 0.0

-1.0818317317992244e6 6.518671983711592e6 0.0
6.518671983711592e6 -752460.2448476966 0.0
0.0 0.0 0.0

-1.3739581692454347e7 1.1045632333350737e7 0.0
1.1045632333350737e7 8.535497274653912e6 0.0
0.0 0.0 0.0

-3.7544967876755856e6 8.76770706988475e6 0.0
8.76770706988475e6 3.5684643824917264e6 0.0
0.0 0.0 0.0

-49771.72743101092 9.284459630583888e6 0.0
9.284459630583888e6 -5.294631158753946e6 0.0
0.0 0.0 0.0

2.1196232964839665e6 7.834361237663629e6 0.0
7.834361237663629e6 -651432.5924397722 0.0
0.0 0.0 0.0

-717760.1117797423 5.230228678773465e6 0.0
5.230228678773465e6 -1.0000744600686809e6 0.0
0.0 0.0 0.0

-1.8560365082320985e6 5.804385247907972e6 0.0
5.804385247907972e6 -670042.6574522618 0.0
0.0 0.0 0.0

61350.51142719039 9.016246413929813e6 0.0
9.016246413929813e6 -5.063476923733143e6 0.0
0.0 0.0 0.0

-1.9438111533626996e6 7.889695177732526e6 0.0
7.889695177732526e6 -1.9340731371393842e6 0.0
0.0 0.0 0.0

-3.657465047681907e6 7.019504394438211e6 0.0
7.019504394438211e6 2.2339245422977414e6 0.0
0.0 0.0 0.0

-32477.19762762403 9.103965215586632e6 0.0
9.103965215586632e6 -5.638164408482367e6 0.0
0.0 0.0 0.0

258967.74546092097 8.322397619331167e6 0.0
8.322397619331167e6 -5.27506537595094e6 0.0
0.0 0.0 0.0

-4.9540122176568415e6 9.73262948081524e6 0.0
9.73262948081524e6 3.0058905295153093e6 0.0
0.0 0.0 0.0

-628584.2039970758 9.448323844580559e6 0.0
9.448323844580559e6 -4.1084299313304895e6 0.0
0.0 0.0 0.0

-2.701671752178019e6 4.351294023762663e6 0.0
4.351294023762663e6 2.274952156595786e6 0.0
0.0 0.0 0.0

4.540454716531558e6 4.208250141465637e6 0.0
4.208250141465637e6 -7.141995199677104e6 0.0
0.0 0.0 0.0

-1.5665029646487188e7 8.902853739672842e6 0.0
8.902853739672842e6 5.907494210235624e6 0.0
0.0 0.0 0.0

865190.7231736067 3.48631691117825e6 0.0
3.48631691117825e6 -5.60145698965247e6 0.0
0.0 0.0 0.0

5.718811491938645e6 2.3665470364972367e6 0.0
2.3665470364972367e6 -8.726487863395996e6 0.0
0.0 0.0 0.0

-4.705513930054197e6 1.0021438857582934e7 0.0
1.0021438857582934e7 2.81586850501257e6 0.0
0.0 0.0 0.0

-195207.3346404666 6.761986501635468e6 0.0
6.761986501635468e6 -650690.9849717611 0.0
0.0 0.0 0.0

1.441597249262012e6 1.0142581489624172e7 0.0
1.0142581489624172e7 -4.040610526271036e6 0.0
0.0 0.0 0.0

-4.89583568758001e6 7.839988446293968e6 0.0
7.839988446293968e6 5.416839760698924e6 0.0
0.0 0.0 0.0

-5.135246239404857e6 8.861381776812585e6 0.0
8.861381776812585e6 5.822651310826398e6 0.0
0.0 0.0 0.0

-2.4727863460770403e6 1.1432884003270812e7 0.0
1.1432884003270812e7 5.8138664812875055e6 0.0
0.0 0.0 0.0

-506316.00816767465 9.957981164005985e6 0.0
9.957981164005985e6 -865095.2010453434 0.0
0.0 0.0 0.0

-3.863823186383867e6 8.894121018082883e6 0.0
8.894121018082883e6 3.542626774259388e6 0.0
0.0 0.0 0.0

-2.75791871421696e6 7.651701604154326e6 0.0
7.651701604154326e6 669613.7959273007 0.0
0.0 0.0 0.0

4985.3893997345585 9.060573937849006e6 0.0
9.060573937849006e6 -5.30438553868292e6 0.0
0.0 0.0 0.0

-5.102657779728765e6 9.610379344725177e6 0.0
9.610379344725177e6 2.890203608999866e6 0.0
0.0 0.0 0.0

-6.171651442114677e6 2.992281243152837e6 0.0
2.992281243152837e6 6.602765782929568e6 0.0
0.0 0.0 0.0

-769216.0693932304 1.3524492471947972e7 0.0
1.3524492471947972e7 -3.7522775358256083e6 0.0
0.0 0.0 0.0

-2.79510135019349e6 1.038920131461202e7 0.0
1.038920131461202e7 -1.4263437144385611e6 0.0
0.0 0.0 0.0

392650.8456101769 6.518180959157759e6 0.0
6.518180959157759e6 -4.72330850761969e6 0.0
0.0 0.0 0.0

-1.728794594516855e6 1.2170264233867073e7 0.0
1.2170264233867073e7 -2.572580639285822e6 0.0
0.0 0.0 0.0

-5.368586043242105e6 9.585133296600975e6 0.0
9.585133296600975e6 2.3068801651941324e6 0.0
0.0 0.0 0.0

-421890.65365323494 5.832165732066111e6 0.0
5.832165732066111e6 -1.4063019531703258e6 0.0
0.0 0.0 0.0

3.3125752541090474e6 1.3100367361616407e7 0.0
1.3100367361616407e7 1.104192778391047e7 0.0
0.0 0.0 0.0

-4.767590883885034e6 -2.1948451879358985e6 0.0
-2.1948451879358985e6 7.064519212746146e6 0.0
0.0 0.0 0.0

-126458.37418606952 8.027031958718595e6 0.0
8.027031958718595e6 -621700.063551496 0.0
0.0 0.0 0.0

-1.112022503828479e6 180695.91261152315 0.0
180695.91261152315 738462.1544508231 0.0
0.0 0.0 0.0

-5.660879061245248e6 1.0258108656376533e7 0.0
1.0258108656376533e7 2.0701043306138287e6 0.0
0.0 0.0 0.0

-3.9839651717670737e6 1.2769060677286126e7 0.0
1.2769060677286126e7 -1.161294286976421e6 0.0
0.0 0.0 0.0

-1.2801395004655736e7 1.1308676465059387e7 0.0
1.1308676465059387e7 7.667920210951786e6 0.0
0.0 0.0 0.0

-4.413254066560803e6 7.966629404294117e6 0.0
7.966629404294117e6 6.091355885787973e6 0.0
0.0 0.0 0.0

-4.751559395225918e6 2.8331230109018404e6 0.0
2.8331230109018404e6 6.410466771143058e6 0.0
0.0 0.0 0.0

-5.9545140086730085e6 1.0208437191828677e7 0.0
1.0208437191828677e7 2.515857025516531e6 0.0
0.0 0.0 0.0

-3.8531167506915014e6 8.204343540220814e6 0.0
8.204343540220814e6 2.0413300863550575e6 0.0
0.0 0.0 0.0

-4.644009020469185e6 9.238139802239116e6 0.0
9.238139802239116e6 2.417508170300611e6 0.0
0.0 0.0 0.0

1.7264100133084827e6 7.44270588810668e6 0.0
7.44270588810668e6 -7.607522139449218e6 0.0
0.0 0.0 0.0

-4.814492304591756e6 9.779916588223547e6 0.0
9.779916588223547e6 3.0030389765253034e6 0.0
0.0 0.0 0.0

-143099.9628238338 9.483494976787573e6 0.0
9.483494976787573e6 4.373471804840896e6 0.0
0.0 0.0 0.0

-141081.06510720728 8.320458567873814e6 0.0
8.320458567873814e6 -4.541026944214309e6 0.0
0.0 0.0 0.0

-1.1163051013258968e7 -4.2808276005790485e6 0.0
-4.2808276005790485e6 1.7774109674594216e7 0.0
0.0 0.0 0.0

-6.326740543099651e6 1.0212978793886248e7 0.0
1.0212978793886248e7 3.506833972027259e6 0.0
0.0 0.0 0.0

734299.6967052448 8.1610314280112535e6 0.0
8.1610314280112535e6 -825965.1129331278 0.0
0.0 0.0 0.0

-2.5697907307887636e7 2.6058167678779524e7 0.0
2.6058167678779524e7 -8.729302183007069e6 0.0
0.0 0.0 0.0

1.4154381260588567e6 6.156696547296153e6 0.0
6.156696547296153e6 -4.0774682886011973e6 0.0
0.0 0.0 0.0

-3.030905724333005e6 7.557181744003777e6 0.0
7.557181744003777e6 398904.82836379367 0.0
0.0 0.0 0.0

-5.508308710499038e6 8.874606368362166e6 0.0
8.874606368362166e6 1.7839456048757832e6 0.0
0.0 0.0 0.0

-128683.75751596759 1.0194708119740607e7 0.0
1.0194708119740607e7 -4.392809277480216e6 0.0
0.0 0.0 0.0

-2.6505832060427954e6 1.0539785886387564e7 0.0
1.0539785886387564e7 -2.3166938744881772e6 0.0
0.0 0.0 0.0

3.1481469158456395e6 9.803991637181241e6 0.0
9.803991637181241e6 -4.649706942733725e6 0.0
0.0 0.0 0.0

-8.475426088210095e6 1.0780002323560646e7 0.0
1.0780002323560646e7 5.218148003362272e6 0.0
0.0 0.0 0.0

-3.255947596358369e6 9.8459620531106e6 0.0
9.8459620531106e6 1.2300331312209594e6 0.0
0.0 0.0 0.0

2.2324487800226463e6 6.566933713703761e6 0.0
6.566933713703761e6 -7.830145569348641e6 0.0
0.0 0.0 0.0

-1.2070175022506353e7 1.1130053895745993e7 0.0
1.1130053895745993e7 1.791874380622408e6 0.0
0.0 0.0 0.0

-3.6223784233345045e6 8.173048803467151e6 0.0
8.173048803467151e6 2.0757073358994308e6 0.0
0.0 0.0 0.0

-3.451480928930584e6 1.2548543208958296e7 0.0
1.2548543208958296e7 -1.551049246100905e6 0.0
0.0 0.0 0.0

-6.560423520526554e6 9.644920362640826e6 0.0
9.644920362640826e6 8.253412430480641e6 0.0
0.0 0.0 0.0

2.658396074114717e6 1.1720123980328843e7 0.0
1.1720123980328843e7 -5.848295787011994e6 0.0
0.0 0.0 0.0

-3.915572819569582e6 9.56178942718716e6 0.0
9.56178942718716e6 2.6334593002234777e6 0.0
0.0 0.0 0.0

-2.391504036830956e6 8.460542291577727e6 0.0
8.460542291577727e6 -2.1066823919742024e6 0.0
0.0 0.0 0.0

-1.0096076593948643e6 5.52614483390896e6 0.0
5.52614483390896e6 2.808605963020844e6 0.0
0.0 0.0 0.0

-60537.29876790568 1.1180555569687884e7 0.0
1.1180555569687884e7 -3.5382344209667845e6 0.0
0.0 0.0 0.0

-4.0321045773416515e6 8.565514481372343e6 0.0
8.565514481372343e6 4.282474285596773e6 0.0
0.0 0.0 0.0

-1.1526712998691903e7 -581025.1859748658 0.0
-581025.1859748658 2.2823680380208798e7 0.0
0.0 0.0 0.0

-1.089684538687666e7 -7.055079759830753e6 0.0
-7.055079759830753e6 2.338600150610099e7 0.0
0.0 0.0 0.0

-2.852933923936721e6 9.03975506294701e6 0.0
9.03975506294701e6 -1.5944126967617346e6 0.0
0.0 0.0 0.0

-358030.1304644254 1.0673431370842552e7 0.0
1.0673431370842552e7 -3.8516958051906372e6 0.0
0.0 0.0 0.0

-2.3899632433473645e6 1.0703480678157661e7 0.0
1.0703480678157661e7 -2.6381110958710387e6 0.0
0.0 0.0 0.0

-3.8726331361322505e6 1.0449343427577987e7 0.0
1.0449343427577987e7 221523.83116779383 0.0
0.0 0.0 0.0

3.537493068768926e6 7.802330971255306e6 0.0
7.802330971255306e6 -591162.0972139523 0.0
0.0 0.0 0.0

-4.183561173018865e6 8.218283921281591e6 0.0
8.218283921281591e6 3.7241488472566716e6 0.0
0.0 0.0 0.0

-1.9784091864179263e6 1.084262577386157e7 0.0
1.084262577386157e7 -2.966088610724503e6 0.0
0.0 0.0 0.0

-2.208694248174679e6 7.505459903687981e6 0.0
7.505459903687981e6 -1.9823475856325561e6 0.0
0.0 0.0 0.0

-764059.2024601568 1.7377973877600401e6 0.0
1.7377973877600401e6 249841.54686112347 0.0
0.0 0.0 0.0

432183.58580553066 8.520116060899364e6 0.0
8.520116060899364e6 -6.392865281055619e6 0.0
0.0 0.0 0.0

-3.339893194278748e6 483710.0348008939 0.0
483710.0348008939 2.5201462336756364e6 0.0
0.0 0.0 0.0

-896138.0640765703 1.0000878767404056e6 0.0
1.0000878767404056e6 479470.88169581635 0.0
0.0 0.0 0.0

-1.1050621479012894e6 896282.3542191618 0.0
896282.3542191618 742161.3954007688 0.0
0.0 0.0 0.0

-1.7003515671891875e6 6.262574097009916e6 0.0
6.262574097009916e6 -374914.42644394 0.0
0.0 0.0 0.0

-1.3658874854446067e6 8.680346453185944e6 0.0
8.680346453185944e6 -3.5528111830767365e6 0.0
0.0 0.0 0.0

699589.8305174853 8.463054879542995e6 0.0
8.463054879542995e6 -6.3011876097356435e6 0.0
0.0 0.0 0.0

-1.0576614785327422e6 1.0574365346702017e7 0.0
1.0574365346702017e7 -220793.72129649945 0.0
0.0 0.0 0.0

-1.5234948366885413e6 1.1574561833516782e7 0.0
1.1574561833516782e7 -3.0066185104705924e6 0.0
0.0 0.0 0.0

1.931729475292524e6 9.49463728425748e6 0.0
9.49463728425748e6 -3.7752866072476106e6 0.0
0.0 0.0 0.0

-4.6979297782032015e6 9.479783342994241e6 0.0
9.479783342994241e6 1.3257989936577152e6 0.0
0.0 0.0 0.0

7.22697932453947e6 1.1690111776832411e7 0.0
1.1690111776832411e7 68827.69134323997 0.0
0.0 0.0 0.0

-3.6354062184806457e6 5.745762692899193e6 0.0
5.745762692899193e6 8.460540391007056e6 0.0
0.0 0.0 0.0

873376.8068792562 1.0674302540810425e7 0.0
1.0674302540810425e7 -3.939687970438528e6 0.0
0.0 0.0 0.0

-2.8600569864922566e6 1.2824363048911568e7 0.0
1.2824363048911568e7 -1.074092180600394e6 0.0
0.0 0.0 0.0

-6.318904790806092e6 1.0209879233476896e7 0.0
1.0209879233476896e7 3.183090544286042e6 0.0
0.0 0.0 0.0

-746136.3502814074 9.721965367341625e6 0.0
9.721965367341625e6 -3.9605709374523135e6 0.0
0.0 0.0 0.0

-5.105321002289269e6 9.146845649842827e6 0.0
9.146845649842827e6 631174.9046314138 0.0
0.0 0.0 0.0

-4.790296295438694e6 1.0069184620143095e7 0.0
1.0069184620143095e7 2.8764300224367254e6 0.0
0.0 0.0 0.0

1.727328577005479e6 4.774867265771875e6 0.0
4.774867265771875e6 -3.813973470925592e6 0.0
0.0 0.0 0.0

-5.476020315453492e6 9.561527625397578e6 0.0
9.561527625397578e6 1.9584439924112314e6 0.0
0.0 0.0 0.0

-1.4988440350698791e7 1.079100810585611e7 0.0
1.079100810585611e7 9.342253257738922e6 0.0
0.0 0.0 0.0

-575881.9046747958 6.688391440335747e6 0.0
6.688391440335747e6 -4.254308151728017e6 0.0
0.0 0.0 0.0

67490.79494013195 8.431508806320043e6 0.0
8.431508806320043e6 -4.958875892733305e6 0.0
0.0 0.0 0.0

530692.6070201469 8.407367310923386e6 0.0
8.407367310923386e6 -6.011772148406774e6 0.0
0.0 0.0 0.0

584561.0231973473 8.596978352442171e6 0.0
8.596978352442171e6 -6.325855007760497e6 0.0
0.0 0.0 0.0

-7.17118573616481e6 1.5591126745184755e7 0.0
1.5591126745184755e7 2.2505578934280323e6 0.0
0.0 0.0 0.0

-1.57229899053931e6 1.0926062011052154e7 0.0
1.0926062011052154e7 -3.350068663912748e6 0.0
0.0 0.0 0.0

-2.206878058420631e6 1.1216264169296136e7 0.0
1.1216264169296136e7 4.299775224927649e6 0.0
0.0 0.0 0.0

-1.1812493658129353e7 1.6819845713556393e6 0.0
1.6819845713556393e6 6.173635119988429e6 0.0
0.0 0.0 0.0

-2.017166275318342e7 1.2873416940142319e7 0.0
1.2873416940142319e7 6.124324527377602e6 0.0
0.0 0.0 0.0

2.334739708873727e6 7.1205210306408405e6 0.0
7.1205210306408405e6 -8.686742294159673e6 0.0
0.0 0.0 0.0

379670.7471654918 1.108170718699979e7 0.0
1.108170718699979e7 -3.790497959116564e6 0.0
0.0 0.0 0.0

-2.609448604241245e6 1.2460037298091326e7 0.0
1.2460037298091326e7 -2.1706508384409985e6 0.0
0.0 0.0 0.0

2.8062693288676785e6 4.6417645750758005e6 0.0
4.6417645750758005e6 -4.241899578529255e6 0.0
0.0 0.0 0.0

-5.390372636904319e6 1.0224120998882972e7 0.0
1.0224120998882972e7 614326.7975341007 0.0
0.0 0.0 0.0

-2.0260465197444852e6 9.550626887803417e6 0.0
9.550626887803417e6 2.627585738682287e6 0.0
0.0 0.0 0.0

-4.622991470645784e6 6.992805518292978e6 0.0
6.992805518292978e6 8.745157101956744e6 0.0
0.0 0.0 0.0

-1574.7263368987333 1.1783581285573079e6 0.0
1.1783581285573079e6 -298384.67904275516 0.0
0.0 0.0 0.0

-246802.21891316422 9.180193650750091e6 0.0
9.180193650750091e6 -4.696476855592767e6 0.0
0.0 0.0 0.0

-242955.26882112725 6.696550273865548e6 0.0
6.696550273865548e6 -4.315793714083611e6 0.0
0.0 0.0 0.0

-238806.51126961253 3.758090240961378e6 0.0
3.758090240961378e6 -2.2641307564881113e6 0.0
0.0 0.0 0.0

-52370.34196488824 1.68402454529054e6 0.0
1.68402454529054e6 -887954.5305839207 0.0
0.0 0.0 0.0

-9.471728704694072e6 1.290775699370974e7 0.0
1.290775699370974e7 2.6638452437532727e7 0.0
0.0 0.0 0.0

-8.599541677267265e6 -601621.3848233173 0.0
-601621.3848233173 1.0982757014783088e7 0.0
0.0 0.0 0.0

-6.429883259441674e6 1.1923211138481887e7 0.0
1.1923211138481887e7 2.6077854412482516e6 0.0
0.0 0.0 0.0

-2.940605731819526e6 7.427116342442712e6 0.0
7.427116342442712e6 457375.13294529554 0.0
0.0 0.0 0.0

97932.8671050067 8.65615296390231e6 0.0
8.65615296390231e6 -4.990556420426996e6 0.0
0.0 0.0 0.0

-2.5763114513768964e6 1.1844594013455097e7 0.0
1.1844594013455097e7 -1.4426345110278595e6 0.0
0.0 0.0 0.0

-4.982586483053178e6 9.738801845912505e6 0.0
9.738801845912505e6 2.9088778493452375e6 0.0
0.0 0.0 0.0

-1.0456631515315212e7 1.6475180555177882e7 0.0
1.6475180555177882e7 6.972581554210256e6 0.0
0.0 0.0 0.0

3.7830624568918133e6 1.690294073065683e6 0.0
1.690294073065683e6 -4.818873697056192e6 0.0
0.0 0.0 0.0

-910847.9583325475 1.6769362115268405e6 0.0
1.6769362115268405e6 199917.53554562037 0.0
0.0 0.0 0.0

-527991.6424292008 1.025794274252997e7 0.0
1.025794274252997e7 -706771.9038836485 0.0
0.0 0.0 0.0

-5.019313605928259e6 9.758451094433544e6 0.0
9.758451094433544e6 2.9356239308295855e6 0.0
0.0 0.0 0.0

-2.5447948434153255e6 9.300841782840794e6 0.0
9.300841782840794e6 3.5313097373596737e6 0.0
0.0 0.0 0.0

-2.7091079497405943e6 3.848109708660798e6 0.0
3.848109708660798e6 2.5474229775517443e6 0.0
0.0 0.0 0.0

-114912.35010413872 8.739304748604544e6 0.0
8.739304748604544e6 -4.779631438376517e6 0.0
0.0 0.0 0.0

-4.905962509475575e7 4.746491126412292e6 0.0
4.746491126412292e6 9.29391712354786e6 0.0
0.0 0.0 0.0

-2.8816558977786414e6 3.148722996825162e6 0.0
3.148722996825162e6 2.87457386056159e6 0.0
0.0 0.0 0.0

-4.9918666235036e6 9.954728831848925e6 0.0
9.954728831848925e6 2.9113194420797597e6 0.0
0.0 0.0 0.0

-483627.12859066296 9.627533494606096e6 0.0
9.627533494606096e6 -4.256600451804204e6 0.0
0.0 0.0 0.0

305822.9209999391 8.699042294686366e6 0.0
8.699042294686366e6 -6.331816819314892e6 0.0
0.0 0.0 0.0

-1.023531076766667e7 1.5140005691596057e7 0.0
1.5140005691596057e7 6.7326973170556445e6 0.0
0.0 0.0 0.0

160257.03022178495 8.829573492478602e6 0.0
8.829573492478602e6 -6.091538017671166e6 0.0
0.0 0.0 0.0

-1.0888551293879042e6 1.085831423402234e7 0.0
1.085831423402234e7 -3.646980033517422e6 0.0
0.0 0.0 0.0

-342539.9989571418 1.020468465427615e7 0.0
1.020468465427615e7 -655238.561396694 0.0
0.0 0.0 0.0

-8.627278572509306e6 1.1911906844314618e7 0.0
1.1911906844314618e7 4.903640554639855e6 0.0
0.0 0.0 0.0

-5.007126673334381e6 9.510743774494817e6 0.0
9.510743774494817e6 2.6993011589394705e6 0.0
0.0 0.0 0.0

-299828.56985427486 9.029663103279008e6 0.0
9.029663103279008e6 -4.549668540058659e6 0.0
0.0 0.0 0.0

-2.440657772077928e6 9.983705176492386e6 0.0
9.983705176492386e6 -1.9870059346085284e6 0.0
0.0 0.0 0.0

-5.20981868075822e6 9.273829373673517e6 0.0
9.273829373673517e6 2.5334847805959675e6 0.0
0.0 0.0 0.0

-4.948499280102877e6 1.00792494828649e7 0.0
1.00792494828649e7 2.8501265833162786e6 0.0
0.0 0.0 0.0

-379295.40428792685 449592.75868080376 0.0
449592.75868080376 845118.7675503817 0.0
0.0 0.0 0.0

-3.4629316852532467e6 7.000583171815754e6 0.0
7.000583171815754e6 2.8897417015692266e6 0.0
0.0 0.0 0.0

54914.25363503117 8.94623501138241e6 0.0
8.94623501138241e6 -5.878715710325421e6 0.0
0.0 0.0 0.0

5.057032702200995e6 9.29977891807411e6 0.0
9.29977891807411e6 -4.356223213419657e6 0.0
0.0 0.0 0.0

-188069.94534866256 9.254502560549872e6 0.0
9.254502560549872e6 -4.8554131361782905e6 0.0
0.0 0.0 0.0

554242.7836208746 8.595258923276858e6 0.0
8.595258923276858e6 -3.8327308886675583e6 0.0
0.0 0.0 0.0

-5.228135592977046e6 2.5422769171578162e6 0.0
2.5422769171578162e6 7.389216413621677e6 0.0
0.0 0.0 0.0

-4.944260261357662e6 8.249839918941992e6 0.0
8.249839918941992e6 1.9348289336956705e6 0.0
0.0 0.0 0.0

367262.8536350818 8.226184952742007e6 0.0
8.226184952742007e6 -4.360169406700317e6 0.0
0.0 0.0 0.0

49881.192264600424 1.027389578398608e7 0.0
1.027389578398608e7 -4.352585818849552e6 0.0
0.0 0.0 0.0

-1.7699415690454345e7 1.1287542099929897e7 0.0
1.1287542099929897e7 1.0687733004519913e7 0.0
0.0 0.0 0.0

-1.8183120054334544e7 133283.99183629145 0.0
133283.99183629145 8.235253910980983e6 0.0
0.0 0.0 0.0

-7.276062779004302e6 1.2519293019057034e7 0.0
1.2519293019057034e7 2.257016124196632e6 0.0
0.0 0.0 0.0

-1.6273909959955728e7 1.1102456859387273e7 0.0
1.1102456859387273e7 1.0139988154802635e7 0.0
0.0 0.0 0.0

-5.012934909406924e6 2.222911835943631e7 0.0
2.222911835943631e7 4.0312821628154553e6 0.0
0.0 0.0 0.0

194549.98318819702 8.744464904141366e6 0.0
8.744464904141366e6 -6.086570764285071e6 0.0
0.0 0.0 0.0

-1.260492343374646e6 8.77337106644151e6 0.0
8.77337106644151e6 -5.971987227835346e6 0.0
0.0 0.0 0.0

-4.3213507669309145e6 9.916912647378448e6 0.0
9.916912647378448e6 2.576471721037483e6 0.0
0.0 0.0 0.0

-4.7596323789608255e6 3.0508742579922904e6 0.0
3.0508742579922904e6 4.491949748042044e6 0.0
0.0 0.0 0.0

-4.284391360981908e6 9.730985516233785e6 0.0
9.730985516233785e6 1.0865585850596474e6 0.0
0.0 0.0 0.0

-859398.8789546387 7.499654655226225e6 0.0
7.499654655226225e6 216292.0362680175 0.0
0.0 0.0 0.0

-2.4107829047962492e6 8.041981004002554e6 0.0
8.041981004002554e6 -1.4295395581978927e6 0.0
0.0 0.0 0.0

-1.0653574645313276e7 1.7828459703099884e7 0.0
1.7828459703099884e7 6.94558675612429e6 0.0
0.0 0.0 0.0

-2.7779747779421736e6 1.1745843461969744e7 0.0
1.1745843461969744e7 -2.132847744253575e6 0.0
0.0 0.0 0.0

866520.9910841335 1.0020541789284417e7 0.0
1.0020541789284417e7 -3.8099519680107012e6 0.0
0.0 0.0 0.0

2.7367393252522177e6 6.3270351387031935e6 0.0
6.3270351387031935e6 -7.361896444702862e6 0.0
0.0 0.0 0.0

-4.841410507299492e6 9.78673575423639e6 0.0
9.78673575423639e6 2.9114189078011326e6 0.0
0.0 0.0 0.0

-3.0514416647947505e6 7.5249547237490155e6 0.0
7.5249547237490155e6 926589.3526252452 0.0
0.0 0.0 0.0

-822479.2985014574 7.268495919977804e6 0.0
7.268495919977804e6 -3.161870307032944e6 0.0
0.0 0.0 0.0

452686.4549226025 8.694844701604124e6 0.0
8.694844701604124e6 -6.329355658179769e6 0.0
0.0 0.0 0.0

-2.621900996728794e6 9.770730403424665e6 0.0
9.770730403424665e6 2.3675846853097887e6 0.0
0.0 0.0 0.0

-3.3621327903451067e6 8.900990409280617e6 0.0
8.900990409280617e6 4.719120931783075e6 0.0
0.0 0.0 0.0

-716714.7901615892 9.613300978124047e6 0.0
9.613300978124047e6 -1.2357004093099579e6 0.0
0.0 0.0 0.0

-1.9397982611650755e6 1.2787880397752028e7 0.0
1.2787880397752028e7 -1.9236254204587496e6 0.0
0.0 0.0 0.0

-4.694011391002495e6 9.602647821522634e6 0.0
9.602647821522634e6 2.924528959220173e6 0.0
0.0 0.0 0.0

-9.68571392999623e6 -2.2943173732404425e6 0.0
-2.2943173732404425e6 1.5426682667928224e7 0.0
0.0 0.0 0.0

-1.7494724078926125e6 6.06264920798717e6 0.0
6.06264920798717e6 -288557.64958357817 0.0
0.0 0.0 0.0

-433793.18076067 9.838052376774086e6 0.0
9.838052376774086e6 -974968.7542890592 0.0
0.0 0.0 0.0

-4.846143027949258e6 1.0008262862694003e7 0.0
1.0008262862694003e7 2.6955015918940725e6 0.0
0.0 0.0 0.0

-3.8493753640646716e6 8.235231464326872e6 0.0
8.235231464326872e6 2.8394828526522587e6 0.0
0.0 0.0 0.0

-315281.15215732064 7.537692571133824e6 0.0
7.537692571133824e6 -3.8964196063997294e6 0.0
0.0 0.0 0.0

-5.952870630663049e6 9.922567348913291e6 0.0
9.922567348913291e6 3.295997232402496e6 0.0
0.0 0.0 0.0

-9.298472271401754e6 1.2667457870269803e7 0.0
1.2667457870269803e7 5.3257904157294165e6 0.0
0.0 0.0 0.0

-4.1227852544680634e6 8.625659073996652e6 0.0
8.625659073996652e6 1.793490345681551e6 0.0
0.0 0.0 0.0

-345569.64135658764 8.628846812655961e6 0.0
8.628846812655961e6 -4.343513332335298e6 0.0
0.0 0.0 0.0

-6.269929476679918e6 1.0039356915565893e7 0.0
1.0039356915565893e7 2.911120758581111e6 0.0
0.0 0.0 0.0

-3.6989412065330665e6 1.2241075786120575e7 0.0
1.2241075786120575e7 -1.3107830368090402e6 0.0
0.0 0.0 0.0

-3.7763958121503764e6 9.681223640177323e6 0.0
9.681223640177323e6 4.872198720191415e6 0.0
0.0 0.0 0.0

-4.13431870275612e6 8.660085636464344e6 0.0
8.660085636464344e6 1.8376709242199813e6 0.0
0.0 0.0 0.0

-5.624049844295363e6 1.0127306732285203e7 0.0
1.0127306732285203e7 3.3604576062346906e6 0.0
0.0 0.0 0.0

-4.888335209040357e6 -851096.541145167 0.0
-851096.541145167 6.673927867003483e6 0.0
0.0 0.0 0.0

-8.86978615692775e6 1.2258751484357415e7 0.0
1.2258751484357415e7 5.177646797675557e6 0.0
0.0 0.0 0.0

2.766672177334693e6 6.210506482582219e6 0.0
6.210506482582219e6 -7.291482495699293e6 0.0
0.0 0.0 0.0

-5.452349940131743e6 1.0112938221229061e7 0.0
1.0112938221229061e7 1.337690335832052e6 0.0
0.0 0.0 0.0

-3.0427975923843794e6 69130.02174228163 0.0
69130.02174228163 4.392187390354762e6 0.0
0.0 0.0 0.0

200619.77943609026 7.670079470997833e6 0.0
7.670079470997833e6 -4.0994845235689683e6 0.0
0.0 0.0 0.0

-4.1610358920172937e6 9.544066407558057e6 0.0
9.544066407558057e6 1.5836851889846514e6 0.0
0.0 0.0 0.0

-1.2509615399456196e6 1.0743406042586263e7 0.0
1.0743406042586263e7 -303678.0049399218 0.0
0.0 0.0 0.0

-1.9857695819161905e6 1.083112587767578e7 0.0
1.083112587767578e7 369072.5086612522 0.0
0.0 0.0 0.0

25074.787463976536 9.50138215568963e6 0.0
9.50138215568963e6 -5.114164430657345e6 0.0
0.0 0.0 0.0

-6.405506183588363e6 3.4986095716585238e6 0.0
3.4986095716585238e6 7.493876134055093e6 0.0
0.0 0.0 0.0

-1.726973786322158e6 7.634338064517967e6 0.0
7.634338064517967e6 1.6355655987793016e6 0.0
0.0 0.0 0.0

843114.915424167 7.107202002555787e6 0.0
7.107202002555787e6 -5.329324518672435e6 0.0
0.0 0.0 0.0

-2.6069150045960126e6 1.0162356630017376e7 0.0
1.0162356630017376e7 4.119623547651357e6 0.0
0.0 0.0 0.0

-249422.73977342108 1.0211350614106284e7 0.0
1.0211350614106284e7 -7.6322606303883605e6 0.0
0.0 0.0 0.0

-3.347425349817781e6 7.801718784043358e6 0.0
7.801718784043358e6 1.9919910194429085e6 0.0
0.0 0.0 0.0

-6.268538764676655e6 1.0021990134945203e7 0.0
1.0021990134945203e7 3.2270256250806367e6 0.0
0.0 0.0 0.0

-3.839446339124966e6 8.005383372254512e6 0.0
8.005383372254512e6 1.1909499695276641e6 0.0
0.0 0.0 0.0

-2.44244680000806e6 1.0597921271224165e7 0.0
1.0597921271224165e7 -1.6377582353057014e6 0.0
0.0 0.0 0.0

-178627.4972152135 1.0905221959926806e7 0.0
1.0905221959926806e7 -3.6942376047007046e6 0.0
0.0 0.0 0.0

-4.60489127748418e6 9.870732057304028e6 0.0
9.870732057304028e6 2.8258602684389222e6 0.0
0.0 0.0 0.0

-3.1252699239549707e6 9.505856567089556e6 0.0
9.505856567089556e6 2.727441879991646e6 0.0
0.0 0.0 0.0

-3.8334488202182213e6 8.809707674026463e6 0.0
8.809707674026463e6 4.562043683141407e6 0.0
0.0 0.0 0.0

-424241.6277117168 8.646201046851208e6 0.0
8.646201046851208e6 -5.567167528626874e6 0.0
0.0 0.0 0.0

-1.1270989157597632e6 8.61510035716593e6 0.0
8.61510035716593e6 -3.8022632236996433e6 0.0
0.0 0.0 0.0

-2.1561253507900783e6 9.983589152896741e6 0.0
9.983589152896741e6 1.9637753084886053e6 0.0
0.0 0.0 0.0

1.2926161178978714e6 7.75924173690456e6 0.0
7.75924173690456e6 -7.158312516384823e6 0.0
0.0 0.0 0.0

-2.107210881661522e6 9.720717257128345e6 0.0
9.720717257128345e6 121748.96202737652 0.0
0.0 0.0 0.0

-9.729124387317391e6 1.3139429215570189e7 0.0
1.3139429215570189e7 5.694562914037289e6 0.0
0.0 0.0 0.0

-1.9115364358303584e6 9.82807284347673e6 0.0
9.82807284347673e6 2.8066899827671302e6 0.0
0.0 0.0 0.0

5.2407411645864e6 1.589795714115829e7 0.0
1.589795714115829e7 1.7469115528681785e7 0.0
0.0 0.0 0.0

-2.4210330927851107e6 1.0710567382854467e7 0.0
1.0710567382854467e7 -8.070106510116289e6 0.0
0.0 0.0 0.0

-3.183309346762446e6 7.299580808832193e6 0.0
7.299580808832193e6 522754.7967903749 0.0
0.0 0.0 0.0

-1.5441975623708513e7 8.500556512902228e6 0.0
8.500556512902228e6 1.0383816438771224e7 0.0
0.0 0.0 0.0

-4.677918248133027e6 9.126417007567693e6 0.0
9.126417007567693e6 907587.2814889201 0.0
0.0 0.0 0.0

-1.863831411924092e6 1.0209001480505895e7 0.0
1.0209001480505895e7 1.4510399423885508e6 0.0
0.0 0.0 0.0

-2.6638397302062223e6 9.921841384951202e6 0.0
9.921841384951202e6 3.8065073497364335e6 0.0
0.0 0.0 0.0

-2.422455866455468e6 1.3018413319094017e7 0.0
1.3018413319094017e7 7.9683897174998e6 0.0
0.0 0.0 0.0

1.134074531517945e6 7.746913946167268e6 0.0
7.746913946167268e6 754105.6334805664 0.0
0.0 0.0 0.0

-1.3385051765446153e6 1.086705619492906e7 0.0
1.086705619492906e7 2.678501748515965e6 0.0
0.0 0.0 0.0

-3.103941244310731e6 1.2817830239320738e7 0.0
1.2817830239320738e7 -1.8867545026063062e6 0.0
0.0 0.0 0.0

-1.1699296351653922e6 9.871927883647125e6 0.0
9.871927883647125e6 1.1676751927278843e6 0.0
0.0 0.0 0.0

-2.122587898884168e6 9.940119048490498e6 0.0
9.940119048490498e6 2.0918390847501522e6 0.0
0.0 0.0 0.0

-7.424014457599704e6 1.2604448808088543e7 0.0
1.2604448808088543e7 3.594074330687041e6 0.0
0.0 0.0 0.0

-2.786897748137066e6 8.354935367205261e6 0.0
8.354935367205261e6 2.698513069311315e6 0.0
0.0 0.0 0.0

1.3404778218377102e6 5.0462283775380375e6 0.0
5.0462283775380375e6 -5.328635598692382e6 0.0
0.0 0.0 0.0

-2.603534049922445e6 5.771859370620573e6 0.0
5.771859370620573e6 1.5893678111824747e6 0.0
0.0 0.0 0.0

-411800.90937695926 219610.89372224727 0.0
219610.89372224727 949650.6983351418 0.0
0.0 0.0 0.0

-3.6833631046709702e6 8.923994958739253e6 0.0
8.923994958739253e6 3.2951055990460874e6 0.0
0.0 0.0 0.0

-6.476672968566503e6 1.0632464145294717e7 0.0
1.0632464145294717e7 3.0855809918823573e6 0.0
0.0 0.0 0.0

134314.08773657167 1.2094488369088257e7 0.0
1.2094488369088257e7 5.037953659923297e6 0.0
0.0 0.0 0.0

-1.281587714344838e6 9.995432756881367e6 0.0
9.995432756881367e6 1.9361508121158127e6 0.0
0.0 0.0 0.0

-5.732581679860912e6 1.010060972095468e7 0.0
1.010060972095468e7 3.438891100953253e6 0.0
0.0 0.0 0.0

4.756165396551348e6 3.7472331390098254e6 0.0
3.7472331390098254e6 -6.654427427536976e6 0.0
0.0 0.0 0.0

-5.695713107426091e6 1.0055685174442623e7 0.0
1.0055685174442623e7 1.7984277122359634e6 0.0
0.0 0.0 0.0

136531.13459971966 7.180371703159098e6 0.0
7.180371703159098e6 -4.355792999994112e6 0.0
0.0 0.0 0.0

-5.1312438426202005e6 9.917099969222182e6 0.0
9.917099969222182e6 2.458772498689036e6 0.0
0.0 0.0 0.0

-4.356431022828784e6 1.3323935068303216e7 0.0
1.3323935068303216e7 -975821.8137463611 0.0
0.0 0.0 0.0

-3.3539604980111816e6 1.0120007531057788e7 0.0
1.0120007531057788e7 563250.1580613598 0.0
0.0 0.0 0.0

2.5853889740584563e6 5.971246187324847e6 0.0
5.971246187324847e6 -8.645710340813702e6 0.0
0.0 0.0 0.0

2.073280111998287e6 8.801153563861493e6 0.0
8.801153563861493e6 -3.009485460907098e6 0.0
0.0 0.0 0.0

-5.491615003070314e6 1.125096072978293e7 0.0
1.125096072978293e7 1.7794929755410731e6 0.0
0.0 0.0 0.0

-3.8936914458077108e6 1.0789677912970616e7 0.0
1.0789677912970616e7 -154933.95809980226 0.0
0.0 0.0 0.0

81994.25669796579 9.032779171981826e6 0.0
9.032779171981826e6 -5.038003849880189e6 0.0
0.0 0.0 0.0

456797.4837899739 5.639393125212796e6 0.0
5.639393125212796e6 -4.889044474150576e6 0.0
0.0 0.0 0.0

-4.362154730323418e6 8.908957494404322e6 0.0
8.908957494404322e6 1.9643931556130874e6 0.0
0.0 0.0 0.0

426016.9687867346 8.417442677448263e6 0.0
8.417442677448263e6 -6.358903122386194e6 0.0
0.0 0.0 0.0

-3.512852821747083e6 -378285.31523934676 0.0
-378285.31523934676 3.498072644967935e6 0.0
0.0 0.0 0.0

-3.4885554301883196e6 7.303071589033282e6 0.0
7.303071589033282e6 2.7690426308114654e6 0.0
0.0 0.0 0.0

-5.972580912921908e6 8.995202630910872e6 0.0
8.995202630910872e6 1.7017118475808143e6 0.0
0.0 0.0 0.0

2.9099702964530494e6 7.840570907911597e6 0.0
7.840570907911597e6 -9.843208836453257e6 0.0
0.0 0.0 0.0

-8.90769442164342e6 6.96718996450735e6 0.0
6.96718996450735e6 1.002849484161275e7 0.0
0.0 0.0 0.0

-2.0831266649833566e6 9.637012898385057e6 0.0
9.637012898385057e6 2.7384057182462714e6 0.0
0.0 0.0 0.0

-6.170536159760775e6 9.131711879512165e6 0.0
9.131711879512165e6 6.705784649230946e6 0.0
0.0 0.0 0.0

-3.1865261808193317e6 7.573349326592994e6 0.0
7.573349326592994e6 762282.6376810286 0.0
0.0 0.0 0.0

-3.4219585890409765e6 7.5947859069676325e6 0.0
7.5947859069676325e6 1.6636349202234545e6 0.0
0.0 0.0 0.0

192096.08155134693 8.901562393605711e6 0.0
8.901562393605711e6 -4.841208479676029e6 0.0
0.0 0.0 0.0

-893864.0070444507 8.552068881581139e6 0.0
8.552068881581139e6 -4.098165610902699e6 0.0
0.0 0.0 0.0

1.697237845282577e6 7.78970694006081e6 0.0
7.78970694006081e6 -8.045781156947497e6 0.0
0.0 0.0 0.0

-871800.8264730125 227917.40936209925 0.0
227917.40936209925 1.778150388656822e6 0.0
0.0 0.0 0.0

-4.191056501437101e6 -5.052528424507458e6 0.0
-5.052528424507458e6 7.825524181989066e6 0.0
0.0 0.0 0.0

-3.3965675008836486e6 9.905936616007797e6 0.0
9.905936616007797e6 649912.8233954397 0.0
0.0 0.0 0.0

-2.19241050096897e6 1.0746709448746257e7 0.0
1.0746709448746257e7 -1.9894201383260111e6 0.0
0.0 0.0 0.0

-5.565020917903317e6 9.981311320529938e6 0.0
9.981311320529938e6 8.772211378145756e6 0.0
0.0 0.0 0.0

311757.71467270097 8.705857550668048e6 0.0
8.705857550668048e6 -4.533168663082434e6 0.0
0.0 0.0 0.0

-2.111431356562348e6 1.2587955403131075e7 0.0
1.2587955403131075e7 -2.517951126382285e6 0.0
0.0 0.0 0.0

-4.912326853072359e6 9.398876501522042e6 0.0
9.398876501522042e6 2.681438826910315e6 0.0
0.0 0.0 0.0

-1.022878786566191e6 1.7993894306798556e6 0.0
1.7993894306798556e6 425716.2844256045 0.0
0.0 0.0 0.0

-8.64511824189768e6 1.9860607565196753e7 0.0
1.9860607565196753e7 5.423450560244062e6 0.0
0.0 0.0 0.0

53243.74893908133 1.0182130822418509e7 0.0
1.0182130822418509e7 -4.165851331625681e6 0.0
0.0 0.0 0.0

99705.68972172914 9.345091290401557e6 0.0
9.345091290401557e6 -7.577587329427712e6 0.0
0.0 0.0 0.0

2.0986371826925315e6 5.919132132261992e6 0.0
5.919132132261992e6 -6.931954527039112e6 0.0
0.0 0.0 0.0

-719016.4707062206 1.0022379439084474e7 0.0
1.0022379439084474e7 -735977.4601871856 0.0
0.0 0.0 0.0

-3.4126571724479836e6 6.641669378381454e6 0.0
6.641669378381454e6 3.0670553949680203e6 0.0
0.0 0.0 0.0

-1.0709343285375016e7 946315.2519491113 0.0
946315.2519491113 8.090228921172779e6 0.0
0.0 0.0 0.0

-3.3722130531644877e6 1.1017556718315428e7 0.0
1.1017556718315428e7 1.5835578881079871e6 0.0
0.0 0.0 0.0

-1.316280587207329e6 1.0268064003164189e7 0.0
1.0268064003164189e7 1.9153454496211908e6 0.0
0.0 0.0 0.0

-98818.22316423617 8.804673766152142e6 0.0
8.804673766152142e6 -5.21970209039319e6 0.0
0.0 0.0 0.0

-737222.3648352704 2.7119895853642332e6 0.0
2.7119895853642332e6 317395.02166639303 0.0
0.0 0.0 0.0

-3.0366986500529842e6 8.848419024174735e6 0.0
8.848419024174735e6 -1.2247620931563284e6 0.0
0.0 0.0 0.0

-862571.6015023905 1.037938011325377e7 0.0
1.037938011325377e7 -291715.009579165 0.0
0.0 0.0 0.0

-1.3936970555939695e6 1.0239474322232027e7 0.0
1.0239474322232027e7 1.2678666651158473e6 0.0
0.0 0.0 0.0

-1.7689387644130434e6 9.336372313746553e6 0.0
9.336372313746553e6 -3.182046659556331e6 0.0
0.0 0.0 0.0

-2.749061978236263e6 9.362467038264705e6 0.0
9.362467038264705e6 3.600732586182624e6 0.0
0.0 0.0 0.0

583621.0179293638 7.775179268738575e6 0.0
7.775179268738575e6 -2.7793171792338872e6 0.0
0.0 0.0 0.0

-1.8043844951832523e6 1.0860802237501012e7 0.0
1.0860802237501012e7 -2.386837292551727e6 0.0
0.0 0.0 0.0

1.5583139687373817e6 9.7173747994233e6 0.0
9.7173747994233e6 -3.429377108796849e6 0.0
0.0 0.0 0.0

136381.048449456 8.307661067371132e6 0.0
8.307661067371132e6 -5.689919023681775e6 0.0
0.0 0.0 0.0

-4.0401342999658333e6 8.391069241998373e6 0.0
8.391069241998373e6 3.387650181443532e6 0.0
0.0 0.0 0.0

-2.0359731296184966e6 7.173950997280866e6 0.0
7.173950997280866e6 -1.441437199888353e6 0.0
0.0 0.0 0.0

-1.9750491626162663e7 6.789956278992658e6 0.0
6.789956278992658e6 9.728586566849176e6 0.0
0.0 0.0 0.0

-5.892374217459197e6 1.1654650248263318e7 0.0
1.1654650248263318e7 1.1024181013169115e7 0.0
0.0 0.0 0.0

2.9135968183469195e6 6.375787954328124e6 0.0
6.375787954328124e6 -7.586864580060569e6 0.0
0.0 0.0 0.0

-2.8148087110004984e6 -4.19635788424092e6 0.0
-4.19635788424092e6 6.234238902102156e6 0.0
0.0 0.0 0.0

486539.232321735 8.954621129035357e6 0.0
8.954621129035357e6 -7.393612709208968e6 0.0
0.0 0.0 0.0

312635.4829181421 8.824044975598965e6 0.0
8.824044975598965e6 -6.080515402400774e6 0.0
0.0 0.0 0.0

-1.5041268996379587e6 1.070318297457162e7 0.0
1.070318297457162e7 63565.24161712127 0.0
0.0 0.0 0.0

-1.0247355242697973e7 8.757210347700397e6 0.0
8.757210347700397e6 5.279120450423155e6 0.0
0.0 0.0 0.0

-4.462179653639332e6 8.212624655242825e6 0.0
8.212624655242825e6 5.089882371885073e6 0.0
0.0 0.0 0.0

-1.4123161675310298e6 1.0927726576346932e7 0.0
1.0927726576346932e7 -2.8166047596936724e6 0.0
0.0 0.0 0.0

-7.2476543204187695e6 -8.323924916781636e6 0.0
-8.323924916781636e6 1.720319456054303e7 0.0
0.0 0.0 0.0

-3.3509786859910507e6 5.745879227130447e6 0.0
5.745879227130447e6 3.0440268282371145e6 0.0
0.0 0.0 0.0

3.1134794894021675e6 7.182192109009515e6 0.0
7.182192109009515e6 -9.96958110327019e6 0.0
0.0 0.0 0.0

-6.533770663782968e6 1.022803190092529e7 0.0
1.022803190092529e7 3.51003606223206e6 0.0
0.0 0.0 0.0

3.006516805249549e6 6.367391438134513e6 0.0
6.367391438134513e6 -9.586942544725712e6 0.0
0.0 0.0 0.0

-1.969542301607939e7 1.0497526944889102e7 0.0
1.0497526944889102e7 1.1388121592217628e7 0.0
0.0 0.0 0.0

-7.9039293028975995e6 -8.45391136080828e6 0.0
-8.45391136080828e6 1.9082674316193156e7 0.0
0.0 0.0 0.0

421157.45029475796 8.38125211070774e6 0.0
8.38125211070774e6 -5.644333687226204e6 0.0
0.0 0.0 0.0

-5.28821394646433e6 9.438626196791235e6 0.0
9.438626196791235e6 1.7676542172726924e6 0.0
0.0 0.0 0.0

-1.6666266774792781e7 8.49026590604333e6 0.0
8.49026590604333e6 2.637387381820284e6 0.0
0.0 0.0 0.0

3.1142861283663106e6 6.7719833676993195e6 0.0
6.7719833676993195e6 -9.955408335974684e6 0.0
0.0 0.0 0.0

-4.628606823772128e6 8.731504912557913e6 0.0
8.731504912557913e6 1.977383350332955e6 0.0
0.0 0.0 0.0

-4.0395832512413207e6 8.619722732076684e6 0.0
8.619722732076684e6 3.1269149225478405e6 0.0
0.0 0.0 0.0

-939138.8999440102 9.100157091895597e6 0.0
9.100157091895597e6 5.602757351055179e6 0.0
0.0 0.0 0.0

-70311.1615310181 9.096564474662183e6 0.0
9.096564474662183e6 -5.542597936357987e6 0.0
0.0 0.0 0.0

153988.96431132918 8.944789079358932e6 0.0
8.944789079358932e6 -5.872090965771261e6 0.0
0.0 0.0 0.0

-4.232886395078532e6 1.0575065723580405e7 0.0
1.0575065723580405e7 -502960.9164731719 0.0
0.0 0.0 0.0

-6.849528833776603e6 1.0397833895915523e7 0.0
1.0397833895915523e7 3.740186423194053e6 0.0
0.0 0.0 0.0

-5.708793258556911e6 3.269960237106397e6 0.0
3.269960237106397e6 7.897493080767946e6 0.0
0.0 0.0 0.0

2.760941206502202e6 6.1008427653090805e6 0.0
6.1008427653090805e6 -9.089655972766047e6 0.0
0.0 0.0 0.0

-9.353030839157863e6 9.946565183249587e6 0.0
9.946565183249587e6 6.2081389070597105e6 0.0
0.0 0.0 0.0

137611.55410383875 5.846642421916551e6 0.0
5.846642421916551e6 -3.8916760799927516e6 0.0
0.0 0.0 0.0

81327.17294302443 9.368007907864345e6 0.0
9.368007907864345e6 -5.163726678550412e6 0.0
0.0 0.0 0.0

2.837943158292465e6 6.280974869875206e6 0.0
6.280974869875206e6 -9.168139489338115e6 0.0
0.0 0.0 0.0

56438.714295438025 9.043391323253244e6 0.0
9.043391323253244e6 -5.689241916764535e6 0.0
0.0 0.0 0.0

-9.626532698109526e6 1.6815121355161916e6 0.0
1.6815121355161916e6 1.1240530047799258e7 0.0
0.0 0.0 0.0

-688255.4245177223 1.1108652563286384e6 0.0
1.1108652563286384e6 -1.417696636508971e6 0.0
0.0 0.0 0.0

-2.8237289712046427e6 6.980495854503871e6 0.0
6.980495854503871e6 263744.306964208 0.0
0.0 0.0 0.0

-1.8691212054271686e6 1.0075016760236442e7 0.0
1.0075016760236442e7 3.169835773553999e6 0.0
0.0 0.0 0.0

2.779230126642793e6 6.273370353575981e6 0.0
6.273370353575981e6 -7.847813747982076e6 0.0
0.0 0.0 0.0

-4.325854802866382e6 9.73765994954878e6 0.0
9.73765994954878e6 2.69152518415724e6 0.0
0.0 0.0 0.0

-1.1900476930110329e6 508375.83273755305 0.0
508375.83273755305 1.5301665052796751e6 0.0
0.0 0.0 0.0

527908.9712272347 8.265313705872918e6 0.0
8.265313705872918e6 -3.1045267384245014e6 0.0
0.0 0.0 0.0

-67094.56351983594 8.409939683329165e6 0.0
8.409939683329165e6 -5.412008558875625e6 0.0
0.0 0.0 0.0

-3.109659893773755e6 9.381108592992216e6 0.0
9.381108592992216e6 2.923110441407902e6 0.0
0.0 0.0 0.0

-4.243799904763497e6 1.0598215815367464e7 0.0
1.0598215815367464e7 5.237541919086163e6 0.0
0.0 0.0 0.0

-766465.9463550113 9.978136777849793e6 0.0
9.978136777849793e6 -945916.3192415183 0.0
0.0 0.0 0.0

-3.777912627906017e6 1.0439825876754763e7 0.0
1.0439825876754763e7 -301858.938118589 0.0
0.0 0.0 0.0

-5.309500655276353e6 9.525016224310234e6 0.0
9.525016224310234e6 2.8706644756089477e6 0.0
0.0 0.0 0.0

-1.0652884414353971e6 1.036961814269057e7 0.0
1.036961814269057e7 -184500.48813179234 0.0
0.0 0.0 0.0

2.9636199832478496e6 5.067390651803233e6 0.0
5.067390651803233e6 -835963.488578866 0.0
0.0 0.0 0.0

-5.9067838898079e6 -7.764324052862916e6 0.0
-7.764324052862916e6 1.46920300520854e7 0.0
0.0 0.0 0.0

-140911.0755468721 7.768249721347802e6 0.0
7.768249721347802e6 2.293941322933753e6 0.0
0.0 0.0 0.0

-5.697271823226547e6 -4.922673467439688e6 0.0
-4.922673467439688e6 9.985499940771785e6 0.0
0.0 0.0 0.0

-970876.8208183032 1.059741861431176e7 0.0
1.059741861431176e7 -385809.7222041002 0.0
0.0 0.0 0.0

-1.5449404830522116e7 3.4918487992811175e6 0.0
3.4918487992811175e6 1.9900345274834137e7 0.0
0.0 0.0 0.0

-2.713433728551482e6 7.298616490175882e6 0.0
7.298616490175882e6 575982.5643180384 0.0
0.0 0.0 0.0

688660.7034930944 435400.5098542665 0.0
435400.5098542665 -2.0387958875378931e6 0.0
0.0 0.0 0.0

729116.1039515863 492920.3908549171 0.0
492920.3908549171 -1.7480434941360252e6 0.0
0.0 0.0 0.0

-1.5057457400458357e6 1.0709614267561134e7 0.0
1.0709614267561134e7 -2.7637020379439234e6 0.0
0.0 0.0 0.0

-3.3362037816624735e6 1.0366038870372616e7 0.0
1.0366038870372616e7 222642.24995470257 0.0
0.0 0.0 0.0

-923534.5137303587 1.1039060329739006e7 0.0
1.1039060329739006e7 -3.1601264402227793e6 0.0
0.0 0.0 0.0

-6.983317729093581e6 2.885059803863264e6 0.0
2.885059803863264e6 7.2886742476007445e6 0.0
0.0 0.0 0.0

-428.984408660559 9.114082968022041e6 0.0
9.114082968022041e6 -5.220275881391049e6 0.0
0.0 0.0 0.0

322041.6901971898 8.345838855194355e6 0.0
8.345838855194355e6 -6.0190842636112515e6 0.0
0.0 0.0 0.0

-4.1342939669283545e6 9.781513940601029e6 0.0
9.781513940601029e6 2.556972813229919e6 0.0
0.0 0.0 0.0

-284475.04946518014 8.31504472256245e6 0.0
8.31504472256245e6 -5.01870880302627e6 0.0
0.0 0.0 0.0

-3.1837417299369525e7 8.247701600331073e6 0.0
8.247701600331073e6 8.844717418170072e6 0.0
0.0 0.0 0.0

-1.4490107388389285e6 9.255576937416567e6 0.0
9.255576937416567e6 -3.5249350947464206e6 0.0
0.0 0.0 0.0

-9.878576788856246e6 1.1360159574586906e7 0.0
1.1360159574586906e7 5.885308113652057e6 0.0
0.0 0.0 0.0

-219231.4441880218 7.477654214089226e6 0.0
7.477654214089226e6 -897578.9594008134 0.0
0.0 0.0 0.0

-3.890232202089041e6 8.678653508827992e6 0.0
8.678653508827992e6 3.9541205473587094e6 0.0
0.0 0.0 0.0

-2.9166004320749985e6 9.508867793515801e6 0.0
9.508867793515801e6 1.5097059100758878e6 0.0
0.0 0.0 0.0

-6.853709916340841e6 1.668477494829542e7 0.0
1.668477494829542e7 1.3024290505086374e6 0.0
0.0 0.0 0.0

-1.3568512541293094e6 -2.0816161563881286e6 0.0
-2.0816161563881286e6 4.644935148230525e6 0.0
0.0 0.0 0.0

2.8974547864472885e6 6.406420584749852e6 0.0
6.406420584749852e6 -7.827086151774213e6 0.0
0.0 0.0 0.0

-4.2134888703506095e6 9.627997738432204e6 0.0
9.627997738432204e6 429897.09314360865 0.0
0.0 0.0 0.0

-336734.893411893 2.2231693444502368e6 0.0
2.2231693444502368e6 -1.1132392452718567e6 0.0
0.0 0.0 0.0

2.4484278428228963e6 5.931108615100972e6 0.0
5.931108615100972e6 -8.425290802666161e6 0.0
0.0 0.0 0.0

-5.248991555666589e6 -7.494179825375594e6 0.0
-7.494179825375594e6 1.3527452374333005e7 0.0
0.0 0.0 0.0

-769390.5298662479 1.1335952670813368e6 0.0
1.1335952670813368e6 1.0583410412621663e6 0.0
0.0 0.0 0.0

122233.48066586792 8.256402728789127e6 0.0
8.256402728789127e6 -4.305893027241949e6 0.0
0.0 0.0 0.0

-1.340229723005295e6 -3.07895877064605e6 0.0
-3.07895877064605e6 5.193475738278952e6 0.0
0.0 0.0 0.0

2.8557068687586966e6 6.406574074824036e6 0.0
6.406574074824036e6 -7.8625778712537605e6 0.0
0.0 0.0 0.0

2.306252252921203e6 5.9673188960670065e6 0.0
5.9673188960670065e6 -8.187781792317746e6 0.0
0.0 0.0 0.0

-4.481785962944662e6 -7.062708245591034e6 0.0
-7.062708245591034e6 1.2604564105305826e7 0.0
0.0 0.0 0.0

-2.774149067809391e6 8.3176042785067465e6 0.0
8.3176042785067465e6 564757.0254970819 0.0
0.0 0.0 0.0

-1.5203044039973274e6 1.0417394985421168e7 0.0
1.0417394985421168e7 -2.800595076249454e6 0.0
0.0 0.0 0.0

-5.409461652368692e6 9.681227195211995e6 0.0
9.681227195211995e6 3.123948016617893e6 0.0
0.0 0.0 0.0

2.285861803471153e6 6.044766807013773e6 0.0
6.044766807013773e6 -8.091347623692108e6 0.0
0.0 0.0 0.0

-4.924366239723135e6 -6.241375312854158e6 0.0
-6.241375312854158e6 1.190512641284977e7 0.0
0.0 0.0 0.0

353020.61534483475 8.443986303521166e6 0.0
8.443986303521166e6 -4.064789347225728e6 0.0
0.0 0.0 0.0

-124137.32703484874 8.536600180409404e6 0.0
8.536600180409404e6 -4.678260528740736e6 0.0
0.0 0.0 0.0

-4.978365569829004e6 9.561938268219072e6 0.0
9.561938268219072e6 1.5678412933432735e6 0.0
0.0 0.0 0.0

-3.3103359001797964e6 7.488397942854155e6 0.0
7.488397942854155e6 378570.59627865185 0.0
0.0 0.0 0.0

-4.508151695981415e6 8.765787115601918e6 0.0
8.765787115601918e6 5.242000139635613e6 0.0
0.0 0.0 0.0

-6.067170962466065e6 -5.248363113130407e6 0.0
-5.248363113130407e6 1.1169261670947907e7 0.0
0.0 0.0 0.0

2.326834215226389e6 6.06245271132176e6 0.0
6.06245271132176e6 -7.894773730736641e6 0.0
0.0 0.0 0.0

-6.094725342666521e6 1.2637348334697628e7 0.0
1.2637348334697628e7 808848.2228187611 0.0
0.0 0.0 0.0

-5.889323045394468e6 1.1219934533923216e7 0.0
1.1219934533923216e7 1.0499966149329076e7 0.0
0.0 0.0 0.0

9.4329397787584e6 2.340442025484098e7 0.0
2.340442025484098e7 -2.7982747283506647e7 0.0
0.0 0.0 0.0

-758563.4958034601 5.2834870862191385e6 0.0
5.2834870862191385e6 -2.7343068078078027e6 0.0
0.0 0.0 0.0

-6.28686281586544e6 1.0204101818921251e7 0.0
1.0204101818921251e7 3.5333802515969384e6 0.0
0.0 0.0 0.0

-576148.8365054773 4.3924034055765355e6 0.0
4.3924034055765355e6 -1.3395203535195575e6 0.0
0.0 0.0 0.0

-5.49613620296645e6 9.769300076316977e6 0.0
9.769300076316977e6 3.2030680964319627e6 0.0
0.0 0.0 0.0

4.0999336835722513e6 2.0965350406445437e6 0.0
2.0965350406445437e6 -6.224271427270947e6 0.0
0.0 0.0 0.0

-2.214922488011711e6 1.386860490313624e7 0.0
1.386860490313624e7 -2.821482079142565e6 0.0
0.0 0.0 0.0

-3.0145086746934e6 1.2035651303320587e7 0.0
1.2035651303320587e7 -991220.0706324088 0.0
0.0 0.0 0.0

-2.71205408185432e6 6.538334940773943e6 0.0
6.538334940773943e6 1.0066261823251542e6 0.0
0.0 0.0 0.0

-966599.3705226909 1.0708394819175715e7 0.0
1.0708394819175715e7 -432648.3524513118 0.0
0.0 0.0 0.0

-8.656332838869682e6 -7.810795125282527e6 0.0
-7.810795125282527e6 2.1875413293784253e7 0.0
0.0 0.0 0.0

193344.7343403611 707182.299512456 0.0
707182.299512456 -3.3062588105812683e6 0.0
0.0 0.0 0.0

-1.1639096349434033e6 598635.7144858262 0.0
598635.7144858262 668184.1613854566 0.0
0.0 0.0 0.0

-818970.2519633307 -789524.2521076713 0.0
-789524.2521076713 278067.135456344 0.0
0.0 0.0 0.0

-2.786386013663741e6 1.233385347117303e7 0.0
1.233385347117303e7 -1.216855814014264e6 0.0
0.0 0.0 0.0

305866.56454426935 9.286061827446492e6 0.0
9.286061827446492e6 -7.483383572714303e6 0.0
0.0 0.0 0.0

-2.732650291199564e6 1.0726880790286222e7 0.0
1.0726880790286222e7 3.761168645278747e6 0.0
0.0 0.0 0.0

-1.0143372312993105e6 9.35949942087238e6 0.0
9.35949942087238e6 -293800.18864683213 0.0
0.0 0.0 0.0

700856.4404685514 4.642104432571062e6 0.0
4.642104432571062e6 -4.0797574837371944e6 0.0
0.0 0.0 0.0

-688232.3432357641 7.333779461568161e6 0.0
7.333779461568161e6 -4.186448935296339e6 0.0
0.0 0.0 0.0

-192379.4236620376 1.0448482207860542e7 0.0
1.0448482207860542e7 -4.13504873590244e6 0.0
0.0 0.0 0.0

454871.89821014553 8.76960402083699e6 0.0
8.76960402083699e6 -6.7690270919162035e6 0.0
0.0 0.0 0.0

-5.353668391238108e6 1.0013895032245789e7 0.0
1.0013895032245789e7 1.805673002636939e6 0.0
0.0 0.0 0.0

-3.507028218973819e6 8.968608938750809e6 0.0
8.968608938750809e6 3.8635122566049984e6 0.0
0.0 0.0 0.0

-33579.916865439154 7.775979895073924e6 0.0
7.775979895073924e6 -3.9917907693731696e6 0.0
0.0 0.0 0.0

254645.18281801615 8.037875720742728e6 0.0
8.037875720742728e6 -2.135369755846584e6 0.0
0.0 0.0 0.0

-456369.3594847056 8.50894267243921e6 0.0
8.50894267243921e6 -5.821808476581832e6 0.0
0.0 0.0 0.0

-1.355954744837813e7 5.978192687055781e6 0.0
5.978192687055781e6 8.450703786459226e6 0.0
0.0 0.0 0.0

-8.375525260173082e6 1.7402654445137065e7 0.0
1.7402654445137065e7 3.5336901927212602e6 0.0
0.0 0.0 0.0

-421201.6629804146 550469.6423728707 0.0
550469.6423728707 -986909.7137868829 0.0
0.0 0.0 0.0

-450599.166875423 679284.25633811 0.0
679284.25633811 -1.3142433365299923e6 0.0
0.0 0.0 0.0

-3.544526339066307e6 9.079097481206913e6 0.0
9.079097481206913e6 3.0767097749286685e6 0.0
0.0 0.0 0.0

-4.246078169272807e6 9.041763227614686e6 0.0
9.041763227614686e6 352888.86692516156 0.0
0.0 0.0 0.0

-6.774219310393659e6 1.0466423253705095e7 0.0
1.0466423253705095e7 3.9821892436140114e6 0.0
0.0 0.0 0.0

-5.6255875358986035e6 9.814910948954307e6 0.0
9.814910948954307e6 3.285086506590117e6 0.0
0.0 0.0 0.0

2.3424814488057666e6 7.83398004295099e6 0.0
7.83398004295099e6 104580.07742095715 0.0
0.0 0.0 0.0

1.055903457460704e6 1.044458421385694e7 0.0
1.044458421385694e7 -3.9705082318543973e6 0.0
0.0 0.0 0.0

-6.055104373869899e6 1.1750201004989503e7 0.0
1.1750201004989503e7 1.041710131982163e7 0.0
0.0 0.0 0.0

-1.553162581137644e7 1.0591601819358002e7 0.0
1.0591601819358002e7 4.123964581302936e6 0.0
0.0 0.0 0.0

-3.8994724968901485e7 1.2745843647768602e7 0.0
1.2745843647768602e7 2.369117162112147e7 0.0
0.0 0.0 0.0

-2.2677177633088706e6 6.978749226990443e6 0.0
6.978749226990443e6 311270.4245249169 0.0
0.0 0.0 0.0

-2.2974668914123923e6 1.0055506602285828e7 0.0
1.0055506602285828e7 1.8982569159740142e6 0.0
0.0 0.0 0.0

-17165.87666605157 5.811776236720198e6 0.0
5.811776236720198e6 -4.400045228830177e6 0.0
0.0 0.0 0.0

-2.980070900904822e6 6.088696093010803e6 0.0
6.088696093010803e6 2.7201132326746653e6 0.0
0.0 0.0 0.0

95704.02281474648 2.387163255251827e6 0.0
2.387163255251827e6 -800876.5384513453 0.0
0.0 0.0 0.0

-1.4245446535860428e6 8.122395320391052e6 0.0
8.122395320391052e6 3.7042645160906324e6 0.0
0.0 0.0 0.0

453042.3859018218 8.70907411954586e6 0.0
8.70907411954586e6 -6.831941013934481e6 0.0
0.0 0.0 0.0

1.2647248905422334e6 5.82489214898609e6 0.0
5.82489214898609e6 -5.378009905570958e6 0.0
0.0 0.0 0.0

1.8286448873493674e6 7.815642748514594e6 0.0
7.815642748514594e6 -1.0551224699932064e6 0.0
0.0 0.0 0.0

-1.0332968395360766e7 -2.272558551844961e6 0.0
-2.272558551844961e6 3.67176810864245e7 0.0
0.0 0.0 0.0

-6.103254187916454e6 1.0292983702382192e7 0.0
1.0292983702382192e7 3.606956635380607e6 0.0
0.0 0.0 0.0

-5.7504361346287085e6 9.054856521846898e6 0.0
9.054856521846898e6 1.037747165967366e6 0.0
0.0 0.0 0.0

-2.814442641524952e6 1.1537827064136593e7 0.0
1.1537827064136593e7 -1.3490564718353825e6 0.0
0.0 0.0 0.0

-1.4867938121273378e6 1.1277372713316649e6 0.0
1.1277372713316649e6 1.4788236281319116e6 0.0
0.0 0.0 0.0

-828521.9440087269 7.190890032067693e6 0.0
7.190890032067693e6 -532050.8554047233 0.0
0.0 0.0 0.0

-1.7780524497781983e6 291341.1034011535 0.0
291341.1034011535 2.588922660759929e6 0.0
0.0 0.0 0.0

1.687087687790093e6 8.366910367802645e6 0.0
8.366910367802645e6 -1.6458106167813973e6 0.0
0.0 0.0 0.0

-3.7835841635552268e6 8.209730198983884e6 0.0
8.209730198983884e6 1.3989588164323778e6 0.0
0.0 0.0 0.0

1.709808335854053e6 5.753644478719524e6 0.0
5.753644478719524e6 -6.282614774801819e6 0.0
0.0 0.0 0.0

-3.5531456209804877e6 8.712940161476977e6 0.0
8.712940161476977e6 1.0652530797141145e6 0.0
0.0 0.0 0.0

496500.511528732 4.580288673962761e6 0.0
4.580288673962761e6 -3.44368585395006e6 0.0
0.0 0.0 0.0

-764426.8355321371 9.437844096149942e6 0.0
9.437844096149942e6 -4.559842380561412e6 0.0
0.0 0.0 0.0

-9.406629819480594e6 1.0505448886904273e7 0.0
1.0505448886904273e7 6.386800779014356e6 0.0
0.0 0.0 0.0

-447524.6492216139 6.142303950756925e6 0.0
6.142303950756925e6 -3.0060557641227446e6 0.0
0.0 0.0 0.0

-3.9179739789298773e6 1.0628054625788808e7 0.0
1.0628054625788808e7 -861685.4294332938 0.0
0.0 0.0 0.0

-7.926096886045097e6 1.0702849298056014e7 0.0
1.0702849298056014e7 4.939754404857544e6 0.0
0.0 0.0 0.0

-5.253278592545062e6 9.645125088466728e6 0.0
9.645125088466728e6 3.063588123314447e6 0.0
0.0 0.0 0.0

-5.5798666468298985e6 9.64463398685119e6 0.0
9.64463398685119e6 3.0017185787311443e6 0.0
0.0 0.0 0.0

-8.417445065334212e6 1.1468656118549103e7 0.0
1.1468656118549103e7 4.687299141374977e6 0.0
0.0 0.0 0.0

-3.1097250103845494e6 1.0539421662886612e7 0.0
1.0539421662886612e7 -1.069221779725897e6 0.0
0.0 0.0 0.0

-1.0420423793704005e7 1.1245190572527114e7 0.0
1.1245190572527114e7 6.66433767389285e6 0.0
0.0 0.0 0.0

-1.3805820426639265e6 6.050546591380896e6 0.0
6.050546591380896e6 -447035.0110216 0.0
0.0 0.0 0.0

-1.21570593119663e6 7.544885103367021e6 0.0
7.544885103367021e6 -3.1510390159404622e6 0.0
0.0 0.0 0.0

-974880.8976406149 2.5188194537989856e6 0.0
2.5188194537989856e6 -72438.0379843089 0.0
0.0 0.0 0.0

-4.797495525094576e6 9.279406719465423e6 0.0
9.279406719465423e6 2.1294676993611623e6 0.0
0.0 0.0 0.0

-8.504702952247977e6 -3.15141547323826e6 0.0
-3.15141547323826e6 1.0788528306285203e7 0.0
0.0 0.0 0.0

-6.68598143184036e6 1.2610269949029747e7 0.0
1.2610269949029747e7 1.4956103978717136e6 0.0
0.0 0.0 0.0

-414826.5196180737 9.33077166097773e6 0.0
9.33077166097773e6 -4.3964818527917e6 0.0
0.0 0.0 0.0

-803914.9650771451 8.002432473195301e6 0.0
8.002432473195301e6 87679.7451232815 0.0
0.0 0.0 0.0

-2.1598990126094916e6 7.195539431629411e6 0.0
7.195539431629411e6 -1.8628793308527065e6 0.0
0.0 0.0 0.0

545873.1879698483 8.596443516769588e6 0.0
8.596443516769588e6 -6.027483630307049e6 0.0
0.0 0.0 0.0

4.764406893319486e6 3.6325293153682197e6 0.0
3.6325293153682197e6 -7.327353266143063e6 0.0
0.0 0.0 0.0

-2.4253730722298995e6 1.2582465984755388e7 0.0
1.2582465984755388e7 -1.5189781095686532e6 0.0
0.0 0.0 0.0

-697149.6332791179 1.0462397254461292e7 0.0
1.0462397254461292e7 -171952.97671010526 0.0
0.0 0.0 0.0

-3.071843382135303e6 7.333409845903334e6 0.0
7.333409845903334e6 65764.7734041746 0.0
0.0 0.0 0.0

2.6550686713460176e6 5.996826188496589e6 0.0
5.996826188496589e6 -8.871281130663658e6 0.0
0.0 0.0 0.0

-915886.9305382745 4.0486393202501372e6 0.0
4.0486393202501372e6 -15414.247420808068 0.0
0.0 0.0 0.0

2.411321102910179e6 6.5151671026473055e6 0.0
6.5151671026473055e6 -8.883552411123265e6 0.0
0.0 0.0 0.0

-164920.23570289998 983868.9036773812 0.0
983868.9036773812 -796364.6881876006 0.0
0.0 0.0 0.0

-3.870971881296266e6 8.083912550537948e6 0.0
8.083912550537948e6 920836.6747567421 0.0
0.0 0.0 0.0

-725760.4630328855 1.051320037705538e7 0.0
1.051320037705538e7 -317381.7555433377 0.0
0.0 0.0 0.0

-217764.9070346849 7.9592797399700545e6 0.0
7.9592797399700545e6 -993231.3438088939 0.0
0.0 0.0 0.0

-2.235963975983923e6 6.695912021048698e6 0.0
6.695912021048698e6 637921.0386982594 0.0
0.0 0.0 0.0

-106044.61406736597 931223.9517547991 0.0
931223.9517547991 395815.06114903797 0.0
0.0 0.0 0.0

-3.4078100326028713e6 1.3007772245832762e7 0.0
1.3007772245832762e7 -487538.74041151244 0.0
0.0 0.0 0.0

-4.65999012507071e6 9.095733828891745e6 0.0
9.095733828891745e6 5.817114046450933e6 0.0
0.0 0.0 0.0

439526.0636172837 7.030599228214875e6 0.0
7.030599228214875e6 -5.072462621585921e6 0.0
0.0 0.0 0.0

-464386.1050612939 461585.8108096613 0.0
461585.8108096613 1.0857116940228438e6 0.0
0.0 0.0 0.0

-1.9712109736845912e6 8.070380989784304e6 0.0
8.070380989784304e6 2.4484839613807946e6 0.0
0.0 0.0 0.0

-7.890699631067599e6 7.8645906903509535e6 0.0
7.8645906903509535e6 1.239993699924776e7 0.0
0.0 0.0 0.0

-1.2183628327462662e6 7.895045532324414e6 0.0
7.895045532324414e6 2.805608577311275e6 0.0
0.0 0.0 0.0

438050.48444199003 9.081410951318031e6 0.0
9.081410951318031e6 -7.480504855742839e6 0.0
0.0 0.0 0.0

-3.2786080441621225e6 9.111750563903844e6 0.0
9.111750563903844e6 4.0154976040710574e6 0.0
0.0 0.0 0.0

-1.4359948719844639e6 9.626515815566333e6 0.0
9.626515815566333e6 1.8643568049588618e6 0.0
0.0 0.0 0.0

-1.343524806730269e6 1.1086589456896683e7 0.0
1.1086589456896683e7 -2.886304097055558e6 0.0
0.0 0.0 0.0

-1.7640091961989207e6 1.0782017856170623e7 0.0
1.0782017856170623e7 -32530.781808981323 0.0
0.0 0.0 0.0

1.4665393034937195e6 7.310721789299675e6 0.0
7.310721789299675e6 -7.699951083729649e6 0.0
0.0 0.0 0.0

1.7149308073149612e6 7.177395069108842e6 0.0
7.177395069108842e6 -8.015591455917336e6 0.0
0.0 0.0 0.0

-1.858252142707389e6 7.114791566143966e6 0.0
7.114791566143966e6 -1.7377996080825024e6 0.0
0.0 0.0 0.0

-5.579603710180786e6 6.12688120435981e6 0.0
6.12688120435981e6 8.018594086662138e6 0.0
0.0 0.0 0.0

-1.9984935084097371e6 1.0557014463964561e7 0.0
1.0557014463964561e7 -3.0003531468962445e6 0.0
0.0 0.0 0.0

-1.0693080118219621e7 -3.824892113984276e6 0.0
-3.824892113984276e6 2.059175296364977e7 0.0
0.0 0.0 0.0

95024.6537111518 5.205347038058817e6 0.0
5.205347038058817e6 -4.303710838858307e6 0.0
0.0 0.0 0.0

-6.926762316097604e6 8.937649465961518e6 0.0
8.937649465961518e6 3.654886593626441e7 0.0
0.0 0.0 0.0

2.5291507656277777e6 6.009516129332903e6 0.0
6.009516129332903e6 -8.611754366472924e6 0.0
0.0 0.0 0.0

-3.4164406645534514e6 1.108989901368386e7 0.0
1.108989901368386e7 -852211.7901712552 0.0
0.0 0.0 0.0

-2.3268878487755945e6 8.106565692728424e6 0.0
8.106565692728424e6 3.2619198863680447e6 0.0
0.0 0.0 0.0

1037.2384087494574 9.16824192732666e6 0.0
9.16824192732666e6 -7.092231705681504e6 0.0
0.0 0.0 0.0

-1.8768629720054152e6 5.944432051182038e6 0.0
5.944432051182038e6 3.091557685806126e6 0.0
0.0 0.0 0.0

-1.3762339482231427e6 1.0451770298540536e7 0.0
1.0451770298540536e7 -297251.6642223813 0.0
0.0 0.0 0.0

-2.9560144005145547e6 8.427322949465735e6 0.0
8.427322949465735e6 3.395570214249996e6 0.0
0.0 0.0 0.0

-4.227383964633773e6 8.815901079777457e6 0.0
8.815901079777457e6 2.410421685726909e6 0.0
0.0 0.0 0.0

-2.734118834260882e6 9.860033854337826e6 0.0
9.860033854337826e6 2.120886918986954e6 0.0
0.0 0.0 0.0

-1.0232480326578441e6 6.943553306867111e6 0.0
6.943553306867111e6 -3.2948013719665366e6 0.0
0.0 0.0 0.0

-5.82297811924508e6 4.3927720336178215e6 0.0
4.3927720336178215e6 5.797519737645996e6 0.0
0.0 0.0 0.0

574265.9558574399 8.906034230048906e6 0.0
8.906034230048906e6 -7.319415758889332e6 0.0
0.0 0.0 0.0

-1.2267480653644279e6 9.772250571294388e6 0.0
9.772250571294388e6 58232.6701578779 0.0
0.0 0.0 0.0

-2.7872276847799383e6 1.0323136666587612e7 0.0
1.0323136666587612e7 1.1752875006521675e6 0.0
0.0 0.0 0.0

-683080.5165357906 5.389862099428711e6 0.0
5.389862099428711e6 -2.7307285395785156e6 0.0
0.0 0.0 0.0

-1.489331625946173e7 64380.189121578005 0.0
64380.189121578005 3.44491748124966e7 0.0
0.0 0.0 0.0

96847.64076151559 9.493435699649502e6 0.0
9.493435699649502e6 -7.494829236434936e6 0.0
0.0 0.0 0.0

-3.6099362752502915e6 8.783013711030763e6 0.0
8.783013711030763e6 5.363182725426128e6 0.0
0.0 0.0 0.0

-7.07229074612195e6 1.0595353530458441e7 0.0
1.0595353530458441e7 3.8717473820574866e6 0.0
0.0 0.0 0.0

104387.62438421953 1.0451770567937111e7 0.0
1.0451770567937111e7 4.574795332158562e6 0.0
0.0 0.0 0.0

-5.419542574036312e6 9.771035401950166e6 0.0
9.771035401950166e6 8.109814104507515e6 0.0
0.0 0.0 0.0

-3.8191952794008157e6 8.70900523857237e6 0.0
8.70900523857237e6 3.8528331196693284e6 0.0
0.0 0.0 0.0

-1.578604607876593e6 7.892718054627038e6 0.0
7.892718054627038e6 -2.997967452859356e6 0.0
0.0 0.0 0.0

-1.7210454572072604e6 9.298397525043396e6 0.0
9.298397525043396e6 -112249.84035900148 0.0
0.0 0.0 0.0

-3.1023327195465984e6 7.304289335546184e6 0.0
7.304289335546184e6 1.3243216865727638e6 0.0
0.0 0.0 0.0

-2.699411538381204e6 6.786471569190025e6 0.0
6.786471569190025e6 1.447962378464034e6 0.0
0.0 0.0 0.0

921869.3558877858 5.409132145875895e6 0.0
5.409132145875895e6 -5.489873732038729e6 0.0
0.0 0.0 0.0

-4.603161823500575e6 9.829535193941709e6 0.0
9.829535193941709e6 2.8255228924282305e6 0.0
0.0 0.0 0.0

-186052.98223630537 7.06448639584478e6 0.0
7.06448639584478e6 -3.7354953799371105e6 0.0
0.0 0.0 0.0

462119.9505392751 5.331789130892822e6 0.0
5.331789130892822e6 -3.8813646704739854e6 0.0
0.0 0.0 0.0

-6.457132909325211e6 1.1746683642169962e7 0.0
1.1746683642169962e7 1.5741130079494957e6 0.0
0.0 0.0 0.0

-3.4855013913613018e6 8.524673862817906e6 0.0
8.524673862817906e6 4.467478279320327e6 0.0
0.0 0.0 0.0

-9.007347772833765e6 -3.763781406534323e6 0.0
-3.763781406534323e6 1.4430745515933488e7 0.0
0.0 0.0 0.0

208267.04988877225 8.480893174018182e6 0.0
8.480893174018182e6 1.612639211775297e6 0.0
0.0 0.0 0.0

945581.5234201066 8.227819997154052e6 0.0
8.227819997154052e6 -134065.28357256117 0.0
0.0 0.0 0.0

-306675.72258655285 1.0218953700029386e7 0.0
1.0218953700029386e7 -4.427498160299548e6 0.0
0.0 0.0 0.0

2.2849804940392273e6 6.121544301269603e6 0.0
6.121544301269603e6 -7.767892528160706e6 0.0
0.0 0.0 0.0

-338114.2980940129 9.629330392017512e6 0.0
9.629330392017512e6 85742.62728573091 0.0
0.0 0.0 0.0

-490598.83865461405 1.0505923305454323e7 0.0
1.0505923305454323e7 -4.183634382732304e6 0.0
0.0 0.0 0.0

-1.4144463708651697e6 7.892760462703356e6 0.0
7.892760462703356e6 751464.9048290773 0.0
0.0 0.0 0.0

-789524.8754553914 5.472027009141473e6 0.0
5.472027009141473e6 -733583.4049178868 0.0
0.0 0.0 0.0

116965.52214131097 1.62917364538078e6 0.0
1.62917364538078e6 -883416.183842483 0.0
0.0 0.0 0.0

-2.5810693841935545e6 1.0234641308058998e7 0.0
1.0234641308058998e7 450334.34750157944 0.0
0.0 0.0 0.0

93039.27873491356 8.783157825878073e6 0.0
8.783157825878073e6 -5.169102490723866e6 0.0
0.0 0.0 0.0

-151049.21187251736 8.894308382900514e6 0.0
8.894308382900514e6 -5.417007105312806e6 0.0
0.0 0.0 0.0

-1.3473371389585504e7 -4.0648268652129886e6 0.0
-4.0648268652129886e6 3.370469614152778e7 0.0
0.0 0.0 0.0

-1.0933123357556596e7 1.1095587237354858e7 0.0
1.1095587237354858e7 6.8789828722760985e6 0.0
0.0 0.0 0.0

-151004.3420532433 1.614123487402204e6 0.0
1.614123487402204e6 -2.30013414986965e6 0.0
0.0 0.0 0.0

-850017.9142411198 1.0636160822189415e7 0.0
1.0636160822189415e7 -436739.70165429777 0.0
0.0 0.0 0.0

-2.3389838031800175e6 8.347846399614353e6 0.0
8.347846399614353e6 2.1021406236358443e6 0.0
0.0 0.0 0.0

-4.825428700111701e6 5.648257023733618e6 0.0
5.648257023733618e6 6.698853269168742e6 0.0
0.0 0.0 0.0

-4.522349093413374e6 9.284814510371137e6 0.0
9.284814510371137e6 1.272310960147878e6 0.0
0.0 0.0 0.0

31953.231909398193 8.151235601391531e6 0.0
8.151235601391531e6 886469.4352482979 0.0
0.0 0.0 0.0

-1.8320350665889017e6 8.315689006888327e6 0.0
8.315689006888327e6 1.9457375143198646e6 0.0
0.0 0.0 0.0

-844009.4121405617 9.96362053597402e6 0.0
9.96362053597402e6 -3.8636383323578537e6 0.0
0.0 0.0 0.0

2.323269751768907e6 2.418869967950868e6 0.0
2.418869967950868e6 -5.69643170437143e6 0.0
0.0 0.0 0.0

-73560.30933073675 9.952558056110116e6 0.0
9.952558056110116e6 -4.635949180259181e6 0.0
0.0 0.0 0.0

-3.2658345570778265e6 1.0504003769664323e7 0.0
1.0504003769664323e7 -1.5781495668679243e6 0.0
0.0 0.0 0.0

-4.936924445337403e6 9.321092965973163e6 0.0
9.321092965973163e6 2.656847780519233e6 0.0
0.0 0.0 0.0

-1.724948032604807e6 1.1594673076981006e7 0.0
1.1594673076981006e7 -2.3928714653543965e6 0.0
0.0 0.0 0.0

-1.7018623833590979e6 1.1275547618027741e7 0.0
1.1275547618027741e7 -2.7033277401647912e6 0.0
0.0 0.0 0.0

2.0446395816615853e6 6.120658438485976e6 0.0
6.120658438485976e6 -6.89306841484645e6 0.0
0.0 0.0 0.0

224390.60594345818 8.034706867077003e6 0.0
8.034706867077003e6 -378676.95655052277 0.0
0.0 0.0 0.0

-3.603271881574673e6 1.0589161129879989e7 0.0
1.0589161129879989e7 -1.1077995605760643e6 0.0
0.0 0.0 0.0

-2.337289364708361e6 5.222178685240054e6 0.0
5.222178685240054e6 1.1384696077265895e6 0.0
0.0 0.0 0.0

-2.1756681313613616e7 1.4234360520132698e7 0.0
1.4234360520132698e7 4.917715369076224e6 0.0
0.0 0.0 0.0

1.0663878954869898e7 2.042670929448313e7 0.0
2.042670929448313e7 3.554640647138259e7 0.0
0.0 0.0 0.0

-2.912190583462755e6 1.167536435277189e7 0.0
1.167536435277189e7 -9.707319479143048e6 0.0
0.0 0.0 0.0

-3.547412719498173e6 8.854834930496648e6 0.0
8.854834930496648e6 4.20866453450668e6 0.0
0.0 0.0 0.0

-653682.6064064817 8.46221420305678e6 0.0
8.46221420305678e6 -4.386993304501142e6 0.0
0.0 0.0 0.0

-2.8652557451231657e6 9.256820245335383e6 0.0
9.256820245335383e6 853833.5640298525 0.0
0.0 0.0 0.0

-1.0577477199179808e7 1.4201976089759978e7 0.0
1.4201976089759978e7 5.208754236074239e6 0.0
0.0 0.0 0.0

-45628.77194922906 9.215203122800915e6 0.0
9.215203122800915e6 -5.468135021981053e6 0.0
0.0 0.0 0.0

-2.5468384547331007e6 1.092446300512212e7 0.0
1.092446300512212e7 843725.0693245037 0.0
0.0 0.0 0.0

-3.0651600619444395e6 5.472991222311717e6 0.0
5.472991222311717e6 1.9726814916799355e6 0.0
0.0 0.0 0.0

-4.753432441815089e6 9.126234632759761e6 0.0
9.126234632759761e6 1.7091840650115516e6 0.0
0.0 0.0 0.0

320119.82440580474 8.7532509056972e6 0.0
8.7532509056972e6 -6.528905173729029e6 0.0
0.0 0.0 0.0

-1.490966143939951e6 1.059338380330312e7 0.0
1.059338380330312e7 264545.2326662226 0.0
0.0 0.0 0.0

-4.218841416602414e6 8.622282584876334e6 0.0
8.622282584876334e6 2.529434272815763e6 0.0
0.0 0.0 0.0

3.153781736412145e6 1.1237499005950822e7 0.0
1.1237499005950822e7 -5.009382938024694e6 0.0
0.0 0.0 0.0

-227559.75789080557 7.615539386798015e6 0.0
7.615539386798015e6 -260830.94609492755 0.0
0.0 0.0 0.0

-3.8080234768022224e6 8.482566403418317e6 0.0
8.482566403418317e6 4.1298033390367394e6 0.0
0.0 0.0 0.0

-6.705206121842358e6 8.847403652683988e6 0.0
8.847403652683988e6 540185.5220969841 0.0
0.0 0.0 0.0

-761115.8615548618 7.80782128637761e6 0.0
7.80782128637761e6 -406270.0899569934 0.0
0.0 0.0 0.0

-6.664296289179172e6 1.2193361800200995e7 0.0
1.2193361800200995e7 1.741342016527791e6 0.0
0.0 0.0 0.0

-1.444298823030327e6 1.365612891169278e7 0.0
1.365612891169278e7 -2.501775718869652e6 0.0
0.0 0.0 0.0

-991161.9539600721 7.494162924802972e6 0.0
7.494162924802972e6 -3.208112173506462e6 0.0
0.0 0.0 0.0

-4.19759658978113e6 8.218328565971813e6 0.0
8.218328565971813e6 5.981732561807818e6 0.0
0.0 0.0 0.0

-755599.8614689242 9.97181532236869e6 0.0
9.97181532236869e6 -4.44921253100717e6 0.0
0.0 0.0 0.0

-2.763036837097741e6 7.206124933313279e6 0.0
7.206124933313279e6 650121.6210011288 0.0
0.0 0.0 0.0

-3.3761702877430376e6 6.830718488062185e6 0.0
6.830718488062185e6 1.8049483494303504e6 0.0
0.0 0.0 0.0

1.2763802356843e6 3.27317061414671e6 0.0
3.27317061414671e6 -3.860825062472874e6 0.0
0.0 0.0 0.0

-635391.7875464071 1.0101287644201199e7 0.0
1.0101287644201199e7 41742.127780230396 0.0
0.0 0.0 0.0

-3.7085411510231546e6 1.3112578606418673e7 0.0
1.3112578606418673e7 -1.5156792152104392e6 0.0
0.0 0.0 0.0

1.6626839337633396e6 8.596718167945364e6 0.0
8.596718167945364e6 -8.90841896884725e6 0.0
0.0 0.0 0.0

-2.1243284087418644e6 5.318318894630737e6 0.0
5.318318894630737e6 786879.3710457914 0.0
0.0 0.0 0.0

-6.254220645214495e6 1.736973682532603e7 0.0
1.736973682532603e7 -327745.79718028964 0.0
0.0 0.0 0.0

1.8778235415132246e6 7.163633965986412e6 0.0
7.163633965986412e6 -7.474692744365323e6 0.0
0.0 0.0 0.0

-635436.6010534168 1.0148643558559863e7 0.0
1.0148643558559863e7 -139371.86004871555 0.0
0.0 0.0 0.0

-3.227509219248286e6 1.2011364633563066e7 0.0
1.2011364633563066e7 -1.7023316664687314e6 0.0
0.0 0.0 0.0

-3.2953161310404353e6 1.481230285198703e7 0.0
1.481230285198703e7 7.137939532012737e7 0.0
0.0 0.0 0.0

1.353982506011744e6 1.1537423350451542e7 0.0
1.1537423350451542e7 -1.4675264515440973e7 0.0
0.0 0.0 0.0

3.1138943095080596e6 1.0532498197586179e7 0.0
1.0532498197586179e7 3.3595158702256563e6 0.0
0.0 0.0 0.0

-457485.0975201597 1.345377126812096e7 0.0
1.345377126812096e7 -3.65020099567975e6 0.0
0.0 0.0 0.0

-380498.2796299655 5.12233051861051e6 0.0
5.12233051861051e6 -2.544939471326402e6 0.0
0.0 0.0 0.0

-2.6973875579789947e6 1.6775215410373889e7 0.0
1.6775215410373889e7 -1.9687205444963167e6 0.0
0.0 0.0 0.0

-2.0104972951219133e6 9.80246731916733e6 0.0
9.80246731916733e6 2.253521563181333e6 0.0
0.0 0.0 0.0

2.9027532780239796e6 1.0943044430237737e7 0.0
1.0943044430237737e7 -4.6414818737015985e6 0.0
0.0 0.0 0.0

-4.684513196009163e6 9.250605394120228e6 0.0
9.250605394120228e6 2.5749907425906286e6 0.0
0.0 0.0 0.0

-2.4431510707204225e6 7.2063369962548055e6 0.0
7.2063369962548055e6 606021.329459991 0.0
0.0 0.0 0.0

386515.9257972946 938643.0818554692 0.0
938643.0818554692 -2.9521563950272845e6 0.0
0.0 0.0 0.0

-4.412382162924083e6 8.948522900739852e6 0.0
8.948522900739852e6 6.134572881955582e6 0.0
0.0 0.0 0.0

-4.838138913470892e6 1.0255818034937877e7 0.0
1.0255818034937877e7 789688.3144013167 0.0
0.0 0.0 0.0

-3.641294538064491e6 8.860258581038984e6 0.0
8.860258581038984e6 4.643132396602696e6 0.0
0.0 0.0 0.0

-4.346128092607914e6 1.0092183630395217e7 0.0
1.0092183630395217e7 2.552212688967414e6 0.0
0.0 0.0 0.0

-4.6115288621219685e6 9.266098041565346e6 0.0
9.266098041565346e6 2.5188207917565275e6 0.0
0.0 0.0 0.0

-238666.94037134736 7.927700581766083e6 0.0
7.927700581766083e6 -4.52518310102292e6 0.0
0.0 0.0 0.0

-4.238452364295546e6 8.928401815981157e6 0.0
8.928401815981157e6 6.007546352448043e6 0.0
0.0 0.0 0.0

-4.828504359391854e6 9.498875356787868e6 0.0
9.498875356787868e6 2.9860466973283254e6 0.0
0.0 0.0 0.0

-1.8666495689437701e6 6.585726090603164e6 0.0
6.585726090603164e6 -232254.9229624039 0.0
0.0 0.0 0.0

-1.6508366388370637e7 6.2574815670278175e6 0.0
6.2574815670278175e6 7.568645091557841e6 0.0
0.0 0.0 0.0

-1.0388281666949254e7 -1.5304590702288004e6 0.0
-1.5304590702288004e6 1.6883888650841344e7 0.0
0.0 0.0 0.0

-4.579394658618372e6 1.0073127719531665e7 0.0
1.0073127719531665e7 2.383514777528803e6 0.0
0.0 0.0 0.0

-7.541785371837022e6 9.989340008458799e6 0.0
9.989340008458799e6 4.427323753151747e6 0.0
0.0 0.0 0.0

380164.0561415802 8.785563845765002e6 0.0
8.785563845765002e6 -6.076896505955694e6 0.0
0.0 0.0 0.0

-9.172317944646416e6 1.1006588801629083e7 0.0
1.1006588801629083e7 5.459145784994144e6 0.0
0.0 0.0 0.0

-1.200627084361354e7 1.1120522470625136e7 0.0
1.1120522470625136e7 7.373583603035329e6 0.0
0.0 0.0 0.0

-1.3684757628399897e7 1.0962912530151779e7 0.0
1.0962912530151779e7 8.35848720472783e6 0.0
0.0 0.0 0.0

-5.904682932219638e6 1.0024543499000048e7 0.0
1.0024543499000048e7 2.224295741013504e6 0.0
0.0 0.0 0.0

-5.389208387441637e6 3.4141333704510955e6 0.0
3.4141333704510955e6 7.201254305358676e6 0.0
0.0 0.0 0.0

1.929474731433067e6 5.640924050832278e6 0.0
5.640924050832278e6 -6.31927074388072e6 0.0
0.0 0.0 0.0

-3.4866347026870535e6 9.005468883382672e6 0.0
9.005468883382672e6 4.255446881107549e6 0.0
0.0 0.0 0.0

-7.1917339168294985e6 1.209118497451954e7 0.0
1.209118497451954e7 2.358911294478795e6 0.0
0.0 0.0 0.0

-553544.2912621722 9.28144589195711e6 0.0
9.28144589195711e6 -4.853332462971233e6 0.0
0.0 0.0 0.0

-4.1169066239224114e6 -2.232696612438088e6 0.0
-2.232696612438088e6 6.005832311610386e6 0.0
0.0 0.0 0.0

-414106.076045953 1.0399886829370968e7 0.0
1.0399886829370968e7 -596394.5729970572 0.0
0.0 0.0 0.0

-725082.9580669582 1.076079546310499e7 0.0
1.076079546310499e7 -3.9425874608682427e6 0.0
0.0 0.0 0.0

-177484.2927447043 9.946512361533301e6 0.0
9.946512361533301e6 -4.6324873417630615e6 0.0
0.0 0.0 0.0

-332034.3587366624 8.26069590006435e6 0.0
8.26069590006435e6 -5.281644396384024e6 0.0
0.0 0.0 0.0

-278288.9181408709 1.5375914691163788e6 0.0
1.5375914691163788e6 -967306.7028226827 0.0
0.0 0.0 0.0

636867.8711378069 8.101133122302227e6 0.0
8.101133122302227e6 -3.4590493181910813e6 0.0
0.0 0.0 0.0

795392.6262867394 7.721152280743992e6 0.0
7.721152280743992e6 -469851.40616119106 0.0
0.0 0.0 0.0

5.047846210561348e6 7.990273444091875e6 0.0
7.990273444091875e6 -2.731438223363803e6 0.0
0.0 0.0 0.0

-1.3760416504168276e7 1.069412083808546e7 0.0
1.069412083808546e7 9.305430406427536e6 0.0
0.0 0.0 0.0

-2.53428393929536e6 6.953251459464075e6 0.0
6.953251459464075e6 993722.6109636779 0.0
0.0 0.0 0.0

-301306.95400911523 9.91756347621212e6 0.0
9.91756347621212e6 -7.819905654561172e6 0.0
0.0 0.0 0.0

1.4864227243133495e6 6.880355658437111e6 0.0
6.880355658437111e6 -6.433596111865572e6 0.0
0.0 0.0 0.0

-977926.5137602594 1.1216504037535856e6 0.0
1.1216504037535856e6 830597.3717755659 0.0
0.0 0.0 0.0

-1.1169063382436384e7 6.307198628000045e6 0.0
6.307198628000045e6 6.58298144429483e6 0.0
0.0 0.0 0.0

-6.775286956238183e6 8.827387643335076e6 0.0
8.827387643335076e6 423300.3059586892 0.0
0.0 0.0 0.0

50639.86623589136 8.466871626609582e6 0.0
8.466871626609582e6 -4.738937799699383e6 0.0
0.0 0.0 0.0

-6.814726133039955e6 1.0791970022507409e7 0.0
1.0791970022507409e7 2.852714455809783e6 0.0
0.0 0.0 0.0

2.1413401511960602e6 7.3183305657587e6 0.0
7.3183305657587e6 -9.309973986653754e6 0.0
0.0 0.0 0.0

97794.18027811218 1.2178857855963973e7 0.0
1.2178857855963973e7 -3.7480174365141164e6 0.0
0.0 0.0 0.0

-88441.9307094118 8.216751484009394e6 0.0
8.216751484009394e6 1.3858685959482791e6 0.0
0.0 0.0 0.0

-378599.8449114156 8.366191425757709e6 0.0
8.366191425757709e6 -4.254273627924804e6 0.0
0.0 0.0 0.0

-4.1254539211606877e6 8.555300522400001e6 0.0
8.555300522400001e6 1.6372171324321318e6 0.0
0.0 0.0 0.0

-1.0557645683416703e6 7.493682206687818e6 0.0
7.493682206687818e6 -3.072193437735178e6 0.0
0.0 0.0 0.0

-494735.0502045896 8.423641388959246e6 0.0
8.423641388959246e6 -4.698058944747895e6 0.0
0.0 0.0 0.0

4689.227673117304 8.788334001254229e6 0.0
8.788334001254229e6 -5.249873003159924e6 0.0
0.0 0.0 0.0

-6.486978367481662e6 1.0277013654518463e7 0.0
1.0277013654518463e7 3.9353051405618084e6 0.0
0.0 0.0 0.0

-1.1467718103152774e6 1.065524064032209e7 0.0
1.065524064032209e7 -8.400744063991906e6 0.0
0.0 0.0 0.0

-4.07672312793751e6 1.6099941487386521e7 0.0
1.6099941487386521e7 -242226.0283563002 0.0
0.0 0.0 0.0

-3.250192951164024e6 1.3376414149767604e7 0.0
1.3376414149767604e7 -1.8977205155240907e6 0.0
0.0 0.0 0.0

-7.553595462568777e6 1.0679328237368591e7 0.0
1.0679328237368591e7 4.573349617070313e6 0.0
0.0 0.0 0.0

-4.475447221515201e6 9.349362532780614e6 0.0
9.349362532780614e6 2.8729358165744143e6 0.0
0.0 0.0 0.0

2.258617180991272e6 7.134380607923953e6 0.0
7.134380607923953e6 -9.536543899214223e6 0.0
0.0 0.0 0.0

-3.6265664784912467e6 9.576806805298239e6 0.0
9.576806805298239e6 2.892573009347775e6 0.0
0.0 0.0 0.0

2.14487748644442e6 6.771637977077442e6 0.0
6.771637977077442e6 -8.473295721292369e6 0.0
0.0 0.0 0.0

-3.3377300394067536e6 8.851087089204594e6 0.0
8.851087089204594e6 -794505.7332861344 0.0
0.0 0.0 0.0

-3.0179690324725304e6 8.638513526994864e6 0.0
8.638513526994864e6 -947680.0524683169 0.0
0.0 0.0 0.0

414462.3212706873 7.945642752556436e6 0.0
7.945642752556436e6 -3.7908453480732786e6 0.0
0.0 0.0 0.0

-2.6668729239520906e6 9.777105503819732e6 0.0
9.777105503819732e6 2.3770256187702776e6 0.0
0.0 0.0 0.0

-5.389294947464828e6 9.38991958700177e6 0.0
9.38991958700177e6 2.039197447657656e6 0.0
0.0 0.0 0.0

-3.61774113211923e6 7.753855162791775e6 0.0
7.753855162791775e6 2.455079088247748e6 0.0
0.0 0.0 0.0

-728423.7827432876 1.1710717217260788e6 0.0
1.1710717217260788e6 1.6322693586137863e6 0.0
0.0 0.0 0.0

1.3261326522088666e6 6.76447160411038e6 0.0
6.76447160411038e6 -6.925671178192481e6 0.0
0.0 0.0 0.0

564835.4395353107 7.24597889112882e6 0.0
7.24597889112882e6 -5.553624713819256e6 0.0
0.0 0.0 0.0

-8.312597014266994e6 1.1942272520540085e7 0.0
1.1942272520540085e7 4.481063804193208e6 0.0
0.0 0.0 0.0

-2.404104683029204e6 1.024728800957546e7 0.0
1.024728800957546e7 443784.46011247486 0.0
0.0 0.0 0.0

461893.92671165103 8.70699307618272e6 0.0
8.70699307618272e6 -6.026564262519032e6 0.0
0.0 0.0 0.0

-6.949298900280206e6 8.038386759983948e6 0.0
8.038386759983948e6 9.410750629522288e6 0.0
0.0 0.0 0.0

-502684.2121360386 3.3035228628553487e6 0.0
3.3035228628553487e6 24545.00435860397 0.0
0.0 0.0 0.0

-1.1088709222762326e6 8.526645262501316e6 0.0
8.526645262501316e6 2.8191793565499918e6 0.0
0.0 0.0 0.0

-1.051454796301828e7 8.811145282118328e6 0.0
8.811145282118328e6 7.129481957428375e6 0.0
0.0 0.0 0.0

913372.5942954485 7.821215372311084e6 0.0
7.821215372311084e6 -493077.21786644583 0.0
0.0 0.0 0.0

-661769.7818233514 9.734354896447457e6 0.0
9.734354896447457e6 615497.7413308299 0.0
0.0 0.0 0.0

-6.281271289430423e6 1.0353804176435184e7 0.0
1.0353804176435184e7 3.68923057132965e6 0.0
0.0 0.0 0.0

-3.119502848178325e6 9.54449957950899e6 0.0
9.54449957950899e6 2.524939583187069e6 0.0
0.0 0.0 0.0

-6.430546468549167e6 9.152129861457577e6 0.0
9.152129861457577e6 7.251939511145313e6 0.0
0.0 0.0 0.0

-5.419494392588574e6 9.44635846573115e6 0.0
9.44635846573115e6 484606.69492258783 0.0
0.0 0.0 0.0

-5.0896329070286285e6 9.26029501354366e6 0.0
9.26029501354366e6 1.1556115278490796e6 0.0
0.0 0.0 0.0

-5.409709110899831e6 1.3720446121030385e6 0.0
1.3720446121030385e6 4.991554775543984e6 0.0
0.0 0.0 0.0

-2.650237886708571e7 1.2548408518745119e7 0.0
1.2548408518745119e7 1.4191444221383963e7 0.0
0.0 0.0 0.0

3.383409732132024e6 7.843719162170135e6 0.0
7.843719162170135e6 -1.6750107275752444e6 0.0
0.0 0.0 0.0

354688.3758041756 8.73869912114964e6 0.0
8.73869912114964e6 -6.276274425386119e6 0.0
0.0 0.0 0.0

-4.385135368152694e6 9.048615054596145e6 0.0
9.048615054596145e6 2.291882275495748e6 0.0
0.0 0.0 0.0

-1.6933367614569918e6 1.04117182798556e7 0.0
1.04117182798556e7 -3.3778521029100213e6 0.0
0.0 0.0 0.0

8.834991357812488e6 9.700091538630947e6 0.0
9.700091538630947e6 73576.01873436989 0.0
0.0 0.0 0.0

-429198.4868519859 3.558049644284136e6 0.0
3.558049644284136e6 -1.2356332613708207e6 0.0
0.0 0.0 0.0

6.439696441611681e6 2.8242603105465844e6 0.0
2.8242603105465844e6 -8.038487481821554e6 0.0
0.0 0.0 0.0

-2.81147987230338e6 1.0099789548272973e7 0.0
1.0099789548272973e7 -2.0409395061881645e6 0.0
0.0 0.0 0.0

340149.72466299194 8.154692379393081e6 0.0
8.154692379393081e6 -3.375322961833943e6 0.0
0.0 0.0 0.0

-8.809011107032754e6 398413.1188948739 0.0
398413.1188948739 1.1060588632568195e7 0.0
0.0 0.0 0.0

-2.28909537772724e6 1.353667777065883e7 0.0
1.353667777065883e7 -1.6559651657747577e6 0.0
0.0 0.0 0.0

-1.5602767458326533e7 1.0718485683930079e7 0.0
1.0718485683930079e7 9.563672144191694e6 0.0
0.0 0.0 0.0

3.28771853967216e6 8.95294489677938e6 0.0
8.95294489677938e6 -2.5235044810915217e6 0.0
0.0 0.0 0.0

-942166.0910839939 990439.4220833143 0.0
990439.4220833143 890658.0335069143 0.0
0.0 0.0 0.0

-1.1862301081391208e7 3.607853145486523e6 0.0
3.607853145486523e6 8.163582798639827e6 0.0
0.0 0.0 0.0

-971286.6304373944 7.069221654447518e6 0.0
7.069221654447518e6 -654404.6984118915 0.0
0.0 0.0 0.0

-1.7561223962721534e7 1.1063282451616373e7 0.0
1.1063282451616373e7 1.0313122278310597e7 0.0
0.0 0.0 0.0

-3.4382712920567384e6 6.339814224980211e6 0.0
6.339814224980211e6 3.224056891566328e6 0.0
0.0 0.0 0.0

1.0964088226280215e6 9.479951260381633e6 0.0
9.479951260381633e6 -3.5743527455053134e6 0.0
0.0 0.0 0.0

-933327.4485085892 8.482136433917917e6 0.0
8.482136433917917e6 -5.880306851920487e6 0.0
0.0 0.0 0.0

-72054.54623720958 8.646792023794867e6 0.0
8.646792023794867e6 -5.001690226354485e6 0.0
0.0 0.0 0.0

483665.6745170669 1.1630521361316152e7 0.0
1.1630521361316152e7 -3.4392879188207686e6 0.0
0.0 0.0 0.0

-5.941730261476947e6 2.064351110245384e7 0.0
2.064351110245384e7 -1.104885677651364e7 0.0
0.0 0.0 0.0

-350144.2103432808 1.6895065377929776e6 0.0
1.6895065377929776e6 -629465.3139182981 0.0
0.0 0.0 0.0

-1.0075271506128218e7 1.3706098012656365e7 0.0
1.3706098012656365e7 4.164711540773101e6 0.0
0.0 0.0 0.0

-6.39619681461099e6 1.2269497672898732e7 0.0
1.2269497672898732e7 2.631462463040639e6 0.0
0.0 0.0 0.0

-3.5265806764032473e6 -87000.90916161191 0.0
-87000.90916161191 3.44255865295233e6 0.0
0.0 0.0 0.0

1.958399491464646e6 5.811679338916581e6 0.0
5.811679338916581e6 -6.369231020172594e6 0.0
0.0 0.0 0.0

-5.304238656037358e6 1.0023809883186085e7 0.0
1.0023809883186085e7 3.1299823135908945e6 0.0
0.0 0.0 0.0

-2.2067660814516754e6 8.463045186346363e6 0.0
8.463045186346363e6 3.5877784871727307e6 0.0
0.0 0.0 0.0

-1.2835746870664707e6 1.387068123369505e6 0.0
1.387068123369505e6 2.296765590772248e6 0.0
0.0 0.0 0.0

-2.6927199873768664e6 5.627704789425707e6 0.0
5.627704789425707e6 1.751062250432691e6 0.0
0.0 0.0 0.0

-2.7572040364024984e6 8.65220206579364e6 0.0
8.65220206579364e6 4.139570121881962e6 0.0
0.0 0.0 0.0

-2.264768663112429e6 7.978687812103644e6 0.0
7.978687812103644e6 -2.0514700885393517e6 0.0
0.0 0.0 0.0

-93788.04019932845 8.555335674239911e6 0.0
8.555335674239911e6 -5.423022521131936e6 0.0
0.0 0.0 0.0

-6.2191177685107775e6 1.1311703482502779e7 0.0
1.1311703482502779e7 1.7579042075239667e6 0.0
0.0 0.0 0.0

-224185.86546262063 3.6736631793887857e6 0.0
3.6736631793887857e6 -1.0000278662217683e6 0.0
0.0 0.0 0.0

-3.073983142317419e6 7.5193006176700145e6 0.0
7.5193006176700145e6 952098.8417887923 0.0
0.0 0.0 0.0

-5.220228735567526e6 6.485245041002564e6 0.0
6.485245041002564e6 7.325023320223773e6 0.0
0.0 0.0 0.0

-1.2308008295641649e6 7.488389695696457e6 0.0
7.488389695696457e6 -2.679093526051919e6 0.0
0.0 0.0 0.0

-3.38152734791556e6 1.1368012408146607e7 0.0
1.1368012408146607e7 -1.5547809917557393e6 0.0
0.0 0.0 0.0

-1.069935212632858e7 1.4379789942674702e7 0.0
1.4379789942674702e7 6.620741856820157e6 0.0
0.0 0.0 0.0

354619.95298430277 8.627413288426401e6 0.0
8.627413288426401e6 -6.376263973273367e6 0.0
0.0 0.0 0.0

-2.401396471702038e7 1.0430976712090319e7 0.0
1.0430976712090319e7 1.2134100633879004e7 0.0
0.0 0.0 0.0

2.3975130092443773e6 217264.38037383565 0.0
217264.38037383565 -2.9764934045038586e6 0.0
0.0 0.0 0.0

2.0619915588133102e6 430402.6155397806 0.0
430402.6155397806 -3.513705045684985e6 0.0
0.0 0.0 0.0

-1.5509739355031662e6 1.0341491730238974e7 0.0
1.0341491730238974e7 3.3013991091193827e6 0.0
0.0 0.0 0.0

-3.7755257535738656e6 9.560394146585282e6 0.0
9.560394146585282e6 6.5202345715463655e6 0.0
0.0 0.0 0.0

-723347.3418151578 1.034098269449086e7 0.0
1.034098269449086e7 74805.2060214571 0.0
0.0 0.0 0.0

-1.9830267200252418e6 5.540097341176043e6 0.0
5.540097341176043e6 1.1098424472050793e6 0.0
0.0 0.0 0.0

-301134.8285063768 3.1242024966998957e6 0.0
3.1242024966998957e6 441938.80660325335 0.0
0.0 0.0 0.0

-1.8108062726786418e6 1.0371479189656842e7 0.0
1.0371479189656842e7 951148.4531071299 0.0
0.0 0.0 0.0

-6.558588519993035e6 1.0457985953349052e7 0.0
1.0457985953349052e7 3.457915041500545e6 0.0
0.0 0.0 0.0

487743.2704427382 8.689066309094362e6 0.0
8.689066309094362e6 -6.563055246257288e6 0.0
0.0 0.0 0.0

-2.5640833461872973e6 8.994048330718307e6 0.0
8.994048330718307e6 5.439797761742489e6 0.0
0.0 0.0 0.0

3.453573660870407e6 8.497501771807268e6 0.0
8.497501771807268e6 -1.6202295884685686e6 0.0
0.0 0.0 0.0

-1.9134651664513983e7 1.0765284416929897e7 0.0
1.0765284416929897e7 1.1813995049165823e7 0.0
0.0 0.0 0.0

-892404.8638649418 7.6020046621060455e6 0.0
7.6020046621060455e6 1.0286585012792533e6 0.0
0.0 0.0 0.0

-1.2250207441186837e6 6.41622350144559e6 0.0
6.41622350144559e6 -1.203009520195688e6 0.0
0.0 0.0 0.0

-3.6472728608408356e6 3.2162349686855967e6 0.0
3.2162349686855967e6 2.9458272182664424e6 0.0
0.0 0.0 0.0

-6.38007598661595e6 1.0186607087248897e7 0.0
1.0186607087248897e7 2.995522005337316e6 0.0
0.0 0.0 0.0

-5.816210592025281e6 8.320317318939874e6 0.0
8.320317318939874e6 9.210865652611773e6 0.0
0.0 0.0 0.0

-1.3337149720607763e7 -3.105313252480887e6 0.0
-3.105313252480887e6 2.0788894763125483e7 0.0
0.0 0.0 0.0

-1.3499835018636654e6 9.90073953546075e6 0.0
9.90073953546075e6 1.2240676315082894e6 0.0
0.0 0.0 0.0

-1.3258242124970767e6 8.974688152699858e6 0.0
8.974688152699858e6 -6.161516061008338e6 0.0
0.0 0.0 0.0

-3.451676318410356e6 9.200025217277171e6 0.0
9.200025217277171e6 5.416262413786679e6 0.0
0.0 0.0 0.0

-3.843679108661427e6 8.478259235450145e6 0.0
8.478259235450145e6 4.89986152438936e6 0.0
0.0 0.0 0.0

-2.0130959762090393e6 7.634525155926143e6 0.0
7.634525155926143e6 -2.2683491887635994e6 0.0
0.0 0.0 0.0

-8.502586876480116e6 1.2336706960887345e7 0.0
1.2336706960887345e7 2.6784396186285097e7 0.0
0.0 0.0 0.0

-2.5482228258376718e6 1.3474248123066494e7 0.0
1.3474248123066494e7 -2.530723999136824e6 0.0
0.0 0.0 0.0

-1.0631529880990856e6 9.809135554186895e6 0.0
9.809135554186895e6 -4.0809256778763137e6 0.0
0.0 0.0 0.0

-1.0957363769733275e6 5.815553242052357e6 0.0
5.815553242052357e6 -1.7859640331160016e6 0.0
0.0 0.0 0.0

2.3851181952267955e6 6.3080059438194465e6 0.0
6.3080059438194465e6 -8.00706155058595e6 0.0
0.0 0.0 0.0

-1.0698835742940314e7 1.3351545561991503e7 0.0
1.3351545561991503e7 6.656571171119623e6 0.0
0.0 0.0 0.0

-4.527182853753494e6 3.4520948973047e6 0.0
3.4520948973047e6 4.0356482299804427e6 0.0
0.0 0.0 0.0

-1.1058222634957365e6 9.651012179787103e6 0.0
9.651012179787103e6 1.5290235856808207e6 0.0
0.0 0.0 0.0

-4.3297034552640775e6 9.641950380658021e6 0.0
9.641950380658021e6 2.096288862865603e6 0.0
0.0 0.0 0.0

-3.650298635399606e6 7.949927915893712e6 0.0
7.949927915893712e6 1.0407109397591166e6 0.0
0.0 0.0 0.0

-3.463742744328282e6 5.414501436462457e6 0.0
5.414501436462457e6 2.6557219383425433e6 0.0
0.0 0.0 0.0

-237385.42304767622 6.986355435753371e6 0.0
6.986355435753371e6 -4.402518933763207e6 0.0
0.0 0.0 0.0

-1.5638468648799647e7 9.731378200720008e6 0.0
9.731378200720008e6 9.529343092548635e6 0.0
0.0 0.0 0.0

1.9493303262749827e6 8.0304454967685975e6 0.0
8.0304454967685975e6 1.6224409457131517e6 0.0
0.0 0.0 0.0

-601777.480490306 2.4599441739317416e6 0.0
2.4599441739317416e6 -905091.1699634831 0.0
0.0 0.0 0.0

-7.259923007754855e6 1.0271493458037717e7 0.0
1.0271493458037717e7 4.2420640140203135e6 0.0
0.0 0.0 0.0

-1.378043079816147e7 2.081806262212607e6 0.0
2.081806262212607e6 7.7226671681489255e6 0.0
0.0 0.0 0.0

-2.4945006291219844e6 1.0453051410607854e7 0.0
1.0453051410607854e7 831903.3078786372 0.0
0.0 0.0 0.0

-1.7957562159679785e7 1.1956358900331128e7 0.0
1.1956358900331128e7 4.0006218751005577e6 0.0
0.0 0.0 0.0

-2.3017576344846315e6 1.095620027755207e7 0.0
1.095620027755207e7 246151.36349319993 0.0
0.0 0.0 0.0

-3.2999966104356237e6 7.104474899862521e6 0.0
7.104474899862521e6 2.3295179664378595e6 0.0
0.0 0.0 0.0

-2.0433902010615293e6 5.199239738320877e6 0.0
5.199239738320877e6 1.1319477012847832e6 0.0
0.0 0.0 0.0

-2.44927595971928e6 6.710469195589681e6 0.0
6.710469195589681e6 643665.226305198 0.0
0.0 0.0 0.0

-3.948540263963628e6 9.88551499993093e6 0.0
9.88551499993093e6 2.5742286595896157e6 0.0
0.0 0.0 0.0

-5.656352500098391e6 -895093.6600816491 0.0
-895093.6600816491 7.383074196740641e6 0.0
0.0 0.0 0.0

167374.480406828 7.5377334025658285e6 0.0
7.5377334025658285e6 -3.327841477548101e6 0.0
0.0 0.0 0.0

-686368.3549914073 6.84973648566982e6 0.0
6.84973648566982e6 -3.159446627376607e6 0.0
0.0 0.0 0.0

-922985.0844898202 9.00623527784522e6 0.0
9.00623527784522e6 -3.6435317153634587e6 0.0
0.0 0.0 0.0

-1.0483020234718295e6 1.9774603609815354e6 0.0
1.9774603609815354e6 1.2038618495241692e6 0.0
0.0 0.0 0.0

-94988.08499423554 7.683733029641622e6 0.0
7.683733029641622e6 -2.8627633748015612e6 0.0
0.0 0.0 0.0

-4.456642960979449e6 9.80296706720809e6 0.0
9.80296706720809e6 2.4310305793697303e6 0.0
0.0 0.0 0.0

-2.688411867429569e6 9.792742082068924e6 0.0
9.792742082068924e6 3.864806201790775e6 0.0
0.0 0.0 0.0

-2.401043300616994e6 9.734278715262324e6 0.0
9.734278715262324e6 -2.002721774149309e6 0.0
0.0 0.0 0.0

-582246.3242328767 1.0246096314299898e7 0.0
1.0246096314299898e7 -431212.20736007195 0.0
0.0 0.0 0.0

-9.601065928893715e6 1.3111354746337818e7 0.0
1.3111354746337818e7 4.167035886175013e6 0.0
0.0 0.0 0.0

-970733.4364370051 1.0965164866430435e7 0.0
1.0965164866430435e7 -3.547374542484973e6 0.0
0.0 0.0 0.0

1.3809057108484577e7 1.1032252106196258e7 0.0
1.1032252106196258e7 -3.6020626952729486e6 0.0
0.0 0.0 0.0

921786.6430554427 1.027412902694765e7 0.0
1.027412902694765e7 -3.567577492937062e6 0.0
0.0 0.0 0.0

27930.75368216494 9.204398316712173e6 0.0
9.204398316712173e6 -5.451259899616234e6 0.0
0.0 0.0 0.0

-2.161478969143263e6 1.1720200251372527e7 0.0
1.1720200251372527e7 -2.5887519477397557e6 0.0
0.0 0.0 0.0

-1.3716722373237288e7 4.78108964644816e6 0.0
4.78108964644816e6 7.824647287553063e6 0.0
0.0 0.0 0.0

-4.501762144286033e6 9.956814662491245e6 0.0
9.956814662491245e6 2.4103015588775557e6 0.0
0.0 0.0 0.0

4.145725019791544e6 9.137829200851118e6 0.0
9.137829200851118e6 -4.597126389335571e6 0.0
0.0 0.0 0.0

556465.1348112966 8.753593387018073e6 0.0
8.753593387018073e6 -7.133321152357648e6 0.0
0.0 0.0 0.0

-2.3011501376849585e6 1.1318557829869514e7 0.0
1.1318557829869514e7 3.8106761583636133e6 0.0
0.0 0.0 0.0

927667.0648198784 5.952031351344004e6 0.0
5.952031351344004e6 -4.7544999702540375e6 0.0
0.0 0.0 0.0

-1.9813473692395282e6 1.1830812699095303e7 0.0
1.1830812699095303e7 -1.9995006248720798e6 0.0
0.0 0.0 0.0

2.1976174341358216e6 6.555577811321336e6 0.0
6.555577811321336e6 -8.351980425294933e6 0.0
0.0 0.0 0.0

-3.448542896983353e6 1.1017538896795562e7 0.0
1.1017538896795562e7 -1.2621007857811963e6 0.0
0.0 0.0 0.0

-2.9839224027204006e6 1.3305672790766587e7 0.0
1.3305672790766587e7 -998746.0820164571 0.0
0.0 0.0 0.0

-3.446531347737356e6 7.8389314378142925e6 0.0
7.8389314378142925e6 1.0292059940744455e6 0.0
0.0 0.0 0.0

-9.049937806609634e6 9.10924666780347e6 0.0
9.10924666780347e6 6.273022553474154e6 0.0
0.0 0.0 0.0

-4.204152640430102e6 8.394248179351112e6 0.0
8.394248179351112e6 4.756806360550178e6 0.0
0.0 0.0 0.0

-1.8380148404614716e6 7.345182637356717e6 0.0
7.345182637356717e6 534737.1452675827 0.0
0.0 0.0 0.0

-1.8588956427887328e7 8.084602280361883e6 0.0
8.084602280361883e6 1.0661062956644367e7 0.0
0.0 0.0 0.0

2.175341171135712e6 7.899337178485516e6 0.0
7.899337178485516e6 659492.7805909464 0.0
0.0 0.0 0.0

-1.8942727070654705e6 6.3624707668670025e6 0.0
6.3624707668670025e6 -542463.3299355694 0.0
0.0 0.0 0.0

-6.224757522223384e6 1.024562304126045e7 0.0
1.024562304126045e7 3.955054892816e6 0.0
0.0 0.0 0.0

-2.9148118827377884e6 1.1083105279102916e7 0.0
1.1083105279102916e7 687431.846096387 0.0
0.0 0.0 0.0

-1.3636940715260613e6 7.890688104086011e6 0.0
7.890688104086011e6 -2.7765026474135113e6 0.0
0.0 0.0 0.0

2.2923138367876518e6 5.947308542204976e6 0.0
5.947308542204976e6 -6.866512288901269e6 0.0
0.0 0.0 0.0

227777.82332308334 8.469178418660594e6 0.0
8.469178418660594e6 -4.737446687446813e6 0.0
0.0 0.0 0.0

9.560899703777017e6 6.615559933323245e6 0.0
6.615559933323245e6 -3.2833092253946024e6 0.0
0.0 0.0 0.0

-4.0215078217872763e6 8.395391660901677e6 0.0
8.395391660901677e6 5.3685842319976855e6 0.0
0.0 0.0 0.0

-5.932733594326636e6 1.0154622385521725e7 0.0
1.0154622385521725e7 3.5534575170149873e6 0.0
0.0 0.0 0.0

-1.49923327880743e6 -1.1721273991604038e6 0.0
-1.1721273991604038e6 4.716595056659948e6 0.0
0.0 0.0 0.0

-9.083233065099336e6 1.1168188651239764e7 0.0
1.1168188651239764e7 5.445074842622049e6 0.0
0.0 0.0 0.0

-1.23581381213866e7 3.9230424194228025e6 0.0
3.9230424194228025e6 6.837317709782165e6 0.0
0.0 0.0 0.0

-1.3246957487910714e6 9.964467818728995e6 0.0
9.964467818728995e6 -3.7694694007701785e6 0.0
0.0 0.0 0.0

-1.1308310724208222e6 1.0103349303288238e7 0.0
1.0103349303288238e7 2.518257657916991e6 0.0
0.0 0.0 0.0

-268690.9728480567 7.814492706263831e6 0.0
7.814492706263831e6 -1.457958922868718e6 0.0
0.0 0.0 0.0

-4.240566618350265e6 8.946646181209829e6 0.0
8.946646181209829e6 2.026021721769211e6 0.0
0.0 0.0 0.0

-1.393291741692696e6 7.6469648103448395e6 0.0
7.6469648103448395e6 -3.099149989497534e6 0.0
0.0 0.0 0.0

129886.15567953466 6.920884372732083e6 0.0
6.920884372732083e6 -4.323207606518007e6 0.0
0.0 0.0 0.0

-692404.5797998421 4.0671706086314153e6 0.0
4.0671706086314153e6 -2.7217305686081015e6 0.0
0.0 0.0 0.0

-6.051081647456976e6 1.0251953599669497e7 0.0
1.0251953599669497e7 3.7716244188635447e6 0.0
0.0 0.0 0.0

-2.4533704081300194e6 7.80188272844148e6 0.0
7.80188272844148e6 -1.7221853444807678e6 0.0
0.0 0.0 0.0

2.805352787104324e6 8.004837853138109e6 0.0
8.004837853138109e6 1.755565218570944e6 0.0
0.0 0.0 0.0

2.2739374472509213e6 6.1000165643666675e6 0.0
6.1000165643666675e6 -6.85106265648883e6 0.0
0.0 0.0 0.0

-2.019320844718704e6 9.986649506329484e6 0.0
9.986649506329484e6 2.7133657679620846e6 0.0
0.0 0.0 0.0

-218550.5531752063 4.473302839637945e6 0.0
4.473302839637945e6 -3.4273621349843787e6 0.0
0.0 0.0 0.0

-5.870767612448638e6 1.1477508427805187e7 0.0
1.1477508427805187e7 2.0197365559377777e6 0.0
0.0 0.0 0.0

-809470.3180903528 1.0264961545585655e7 0.0
1.0264961545585655e7 365289.5277045825 0.0
0.0 0.0 0.0

-9.223385788017534e6 1.8083819646868207e6 0.0
1.8083819646868207e6 1.1633850546363614e7 0.0
0.0 0.0 0.0

-540360.9241543268 4.289128407988838e6 0.0
4.289128407988838e6 -850086.254025932 0.0
0.0 0.0 0.0

-3.881789027258621e6 1.3643676515549725e7 0.0
1.3643676515549725e7 -1.5274986634951555e6 0.0
0.0 0.0 0.0

-1.62684781951669e7 -895549.8369440928 0.0
-895549.8369440928 9.925945290065728e6 0.0
0.0 0.0 0.0

-622790.8945400976 9.542019374930833e6 0.0
9.542019374930833e6 -4.704597349734045e6 0.0
0.0 0.0 0.0

-3.6955739728295146e6 6.9764068009166205e6 0.0
6.9764068009166205e6 4.961064736667301e6 0.0
0.0 0.0 0.0

-3.04278094441305e6 7.133762849899948e6 0.0
7.133762849899948e6 1.8119334270469232e6 0.0
0.0 0.0 0.0

-1.9579015372951455e7 -197079.272736403 0.0
-197079.272736403 1.032706716617584e7 0.0
0.0 0.0 0.0

22776.14230290684 9.028852330405373e6 0.0
9.028852330405373e6 -5.66815264513694e6 0.0
0.0 0.0 0.0

-2.167952956634999e6 1.105045921668117e7 0.0
1.105045921668117e7 -1.9884580459925164e6 0.0
0.0 0.0 0.0

192281.37322185165 1.7166955827692985e6 0.0
1.7166955827692985e6 -2.8837437180001778e6 0.0
0.0 0.0 0.0

-4.463423453879826e6 1.0929942522859572e7 0.0
1.0929942522859572e7 788542.8059559229 0.0
0.0 0.0 0.0

-5.980999500957116e6 1.3932455252389459e7 0.0
1.3932455252389459e7 1.2467584278427598e6 0.0
0.0 0.0 0.0

-7.497016428912181e6 1.064653294180998e7 0.0
1.064653294180998e7 4.427261521728359e6 0.0
0.0 0.0 0.0

-4.148246858495619e6 8.44857788150998e6 0.0
8.44857788150998e6 1.587413757411679e6 0.0
0.0 0.0 0.0

-5.328975009700507e6 4.641542648363283e6 0.0
4.641542648363283e6 7.493994065082198e6 0.0
0.0 0.0 0.0

-2.958741465250991e6 1.000576673868973e7 0.0
1.000576673868973e7 2.332003624499458e6 0.0
0.0 0.0 0.0

-8.96324863977291e6 1.1005706918455826e7 0.0
1.1005706918455826e7 5.187300097114483e6 0.0
0.0 0.0 0.0

-814808.15518997 7.07053785227068e6 0.0
7.07053785227068e6 -3.539683115844736e6 0.0
0.0 0.0 0.0

-8.359069243190782e6 1.0901284865149157e7 0.0
1.0901284865149157e7 4.878940802876598e6 0.0
0.0 0.0 0.0

-4.306481621673403e6 9.500005102819614e6 0.0
9.500005102819614e6 6.659634143527022e6 0.0
0.0 0.0 0.0

-3.41173839107932e6 3.5903367054021046e6 0.0
3.5903367054021046e6 3.465983629963129e6 0.0
0.0 0.0 0.0

2.050990352274898e6 5.967937290530931e6 0.0
5.967937290530931e6 -7.142157132729638e6 0.0
0.0 0.0 0.0

-5.248021595694246e6 9.683227978631413e6 0.0
9.683227978631413e6 2.1873696717945524e6 0.0
0.0 0.0 0.0

-5.0852208969983095e6 9.562711182715734e6 0.0
9.562711182715734e6 1.1803583429221902e6 0.0
0.0 0.0 0.0

-4.8922430129097635e6 1.0107408841134543e7 0.0
1.0107408841134543e7 1.0218969655893741e6 0.0
0.0 0.0 0.0

-2.2401684332075536e7 1.83383784151959e7 0.0
1.83383784151959e7 -1.1994965251626298e6 0.0
0.0 0.0 0.0

-990755.8800763022 1.014015239945986e7 0.0
1.014015239945986e7 -3.4900699768309915e6 0.0
0.0 0.0 0.0

-5.989688532711698e6 1.0022149383403972e7 0.0
1.0022149383403972e7 2.891134309666786e6 0.0
0.0 0.0 0.0

-3.6779214193713097e6 7.226406994080265e6 0.0
7.226406994080265e6 2.142720059551167e6 0.0
0.0 0.0 0.0

-1.5268960954581853e7 3.0000508855532226e6 0.0
3.0000508855532226e6 9.098619076364148e6 0.0
0.0 0.0 0.0

-272217.7913152666 1.0206624141396334e7 0.0
1.0206624141396334e7 -803694.7180352991 0.0
0.0 0.0 0.0

-6.735348257439153e6 7.901220136746e6 0.0
7.901220136746e6 1.0031925029846594e7 0.0
0.0 0.0 0.0

2.72818629910106e6 6.223573023226637e6 0.0
6.223573023226637e6 -7.781874741349546e6 0.0
0.0 0.0 0.0

-1.5479773593936387e7 9.05912361669617e6 0.0
9.05912361669617e6 9.75458636090476e6 0.0
0.0 0.0 0.0

-5.161003055903117e6 -561935.5526504581 0.0
-561935.5526504581 6.4588101195462085e6 0.0
0.0 0.0 0.0

-7.769375078292567e6 -2.535814470424821e6 0.0
-2.535814470424821e6 1.1195291890861304e7 0.0
0.0 0.0 0.0

-905809.4497372166 3.287840608193818e6 0.0
3.287840608193818e6 -742071.8024720922 0.0
0.0 0.0 0.0

-5.931738837165315e6 3.7975526036385577e6 0.0
3.7975526036385577e6 8.724266261867754e6 0.0
0.0 0.0 0.0

-6.695368186682126e6 6.324671130910237e6 0.0
6.324671130910237e6 7.694159330856101e6 0.0
0.0 0.0 0.0

-239565.14818345173 9.158586544428675e6 0.0
9.158586544428675e6 -5.231840226028915e6 0.0
0.0 0.0 0.0

-2.0139638632085152e7 1.0323065170445679e7 0.0
1.0323065170445679e7 1.1744627142816158e7 0.0
0.0 0.0 0.0

-3.7691076180232335e6 3.977562575287597e6 0.0
3.977562575287597e6 4.821951866265906e6 0.0
0.0 0.0 0.0

618778.7275446597 8.75672826301984e6 0.0
8.75672826301984e6 -7.187096997836495e6 0.0
0.0 0.0 0.0

-1.0273919603229087e7 2.9561873071823358e6 0.0
2.9561873071823358e6 7.59097159369916e6 0.0
0.0 0.0 0.0

-7.633165396218662e6 -2.569387014581215e6 0.0
-2.569387014581215e6 1.0946749713139657e7 0.0
0.0 0.0 0.0

-2.1598810652147634e6 9.144276817872636e6 0.0
9.144276817872636e6 -2.66694356196753e6 0.0
0.0 0.0 0.0

-308766.78940573265 9.357857640542204e6 0.0
9.357857640542204e6 -7.1359312448175205e6 0.0
0.0 0.0 0.0

-2.0067865732202148e6 1.0744759579253726e7 0.0
1.0744759579253726e7 465021.555771856 0.0
0.0 0.0 0.0

-8.386152818142476e6 2.2142556465738695e6 0.0
2.2142556465738695e6 6.747033784635993e6 0.0
0.0 0.0 0.0

6.981666533655726e6 1.1747145122029563e7 0.0
1.1747145122029563e7 1.696164424876683e6 0.0
0.0 0.0 0.0

-550843.7551584035 6.337285077785409e6 0.0
6.337285077785409e6 -3.6453986450045854e6 0.0
0.0 0.0 0.0

-1.1470534668946797e6 8.91004124253839e6 0.0
8.91004124253839e6 -3.192894615897559e6 0.0
0.0 0.0 0.0

668.5610269014724 8.404028183775622e6 0.0
8.404028183775622e6 -5.171699712652938e6 0.0
0.0 0.0 0.0

2.1160860726184673e6 6.089461721468371e6 0.0
6.089461721468371e6 -7.605820117206214e6 0.0
0.0 0.0 0.0

-5.474683847051872e6 1.0582454985808143e7 0.0
1.0582454985808143e7 1.94443392984299e6 0.0
0.0 0.0 0.0

3749.0003295838833 8.823065445886515e6 0.0
8.823065445886515e6 -5.9383633383608665e6 0.0
0.0 0.0 0.0

-530844.8298610728 1.094040972177019e7 0.0
1.094040972177019e7 -3.5104188946564733e6 0.0
0.0 0.0 0.0

105762.43525512645 7.954650645273907e6 0.0
7.954650645273907e6 -2.4751923529733326e6 0.0
0.0 0.0 0.0

-1.7549214326651061e6 6.707579389239837e6 0.0
6.707579389239837e6 -390213.62544330896 0.0
0.0 0.0 0.0

-4.1375058554457957e6 8.781764735095333e6 0.0
8.781764735095333e6 1.7757560943099835e6 0.0
0.0 0.0 0.0

-2.886345571015098e6 9.38140276925179e6 0.0
9.38140276925179e6 4.358550791574451e6 0.0
0.0 0.0 0.0

1.2467696896985576e6 5.114540408791824e6 0.0
5.114540408791824e6 -5.551447945103884e6 0.0
0.0 0.0 0.0

-4.840588875771265e6 1.7280292837854852e6 0.0
1.7280292837854852e6 2.495057369792087e6 0.0
0.0 0.0 0.0

-3.255163256287534e6 8.777707056584248e6 0.0
8.777707056584248e6 5.144344327988843e6 0.0
0.0 0.0 0.0

-112692.42070225044 9.518380763634566e6 0.0
9.518380763634566e6 -5.121771752084192e6 0.0
0.0 0.0 0.0

1.3929625398164403e7 7.750371701400773e6 0.0
7.750371701400773e6 -4.350555551424343e6 0.0
0.0 0.0 0.0

-323652.3245401683 9.461617346709589e6 0.0
9.461617346709589e6 -4.573722338202334e6 0.0
0.0 0.0 0.0

-5.4079109350271635e6 1.0446362685958216e7 0.0
1.0446362685958216e7 1.1342306839332918e6 0.0
0.0 0.0 0.0

-4.2179715519998595e6 8.372353195372835e6 0.0
8.372353195372835e6 1.2231675475446836e6 0.0
0.0 0.0 0.0

-7.505168093694307e6 1.2896744038297107e7 0.0
1.2896744038297107e7 1.2816967352461597e7 0.0
0.0 0.0 0.0

-6.392805542305894e6 3.4424200684934794e6 0.0
3.4424200684934794e6 9.558973188562216e6 0.0
0.0 0.0 0.0

-4.000651034165735e6 -222961.66098993173 0.0
-222961.66098993173 5.811191326640836e6 0.0
0.0 0.0 0.0

-9.453680359136086e6 516114.45124063693 0.0
516114.45124063693 1.0968160556894336e7 0.0
0.0 0.0 0.0

-6.96280598956325e6 1.0525716461231565e7 0.0
1.0525716461231565e7 3.891349181097229e6 0.0
0.0 0.0 0.0

-70939.74041887489 7.54154853363291e6 0.0
7.54154853363291e6 -4.605795445065687e6 0.0
0.0 0.0 0.0

-4.256523788954757e6 9.081105806460407e6 0.0
9.081105806460407e6 2.891523634305265e6 0.0
0.0 0.0 0.0

-1.2820421987779704e6 1.0265079842023512e7 0.0
1.0265079842023512e7 -3.149138171981899e6 0.0
0.0 0.0 0.0

-2.796860630936266e6 6.990187416582308e6 0.0
6.990187416582308e6 973343.0964215463 0.0
0.0 0.0 0.0

-4.42374946978228e6 9.962214721694529e6 0.0
9.962214721694529e6 2.6464564549847995e6 0.0
0.0 0.0 0.0

-1.6298615640271348e6 1.3371555924724959e7 0.0
1.3371555924724959e7 -3.1500002628178857e6 0.0
0.0 0.0 0.0

-3.6594988670745976e6 9.286140828207245e6 0.0
9.286140828207245e6 2.8082818514573798e6 0.0
0.0 0.0 0.0

-4.207932219029806e6 8.822895981177282e6 0.0
8.822895981177282e6 3.010034881841805e6 0.0
0.0 0.0 0.0

-344944.27369233663 8.560363448712084e6 0.0
8.560363448712084e6 -5.40970887535943e6 0.0
0.0 0.0 0.0

-4.227128638351479e6 3.6534911159169273e6 0.0
3.6534911159169273e6 3.6262401737240595e6 0.0
0.0 0.0 0.0

-6.887006005458749e6 1.0566396452273535e7 0.0
1.0566396452273535e7 4.162087641189443e6 0.0
0.0 0.0 0.0

648890.1538020119 5.753217169503035e6 0.0
5.753217169503035e6 -5.215181035837014e6 0.0
0.0 0.0 0.0

-1.1290935454052538e7 -4.306934760756908e6 0.0
-4.306934760756908e6 1.9924508966910604e7 0.0
0.0 0.0 0.0

-1.6201797781259138e6 1.0458223635957858e7 0.0
1.0458223635957858e7 233275.4175040964 0.0
0.0 0.0 0.0

-7.247822400739832e6 1.0574145515099075e7 0.0
1.0574145515099075e7 4.336069620158702e6 0.0
0.0 0.0 0.0

248961.54536565416 8.498074299117193e6 0.0
8.498074299117193e6 -5.360992307827703e6 0.0
0.0 0.0 0.0

-6.055686562185646e6 1.0657042374994226e7 0.0
1.0657042374994226e7 1.7850784980578623e6 0.0
0.0 0.0 0.0

10897.69810385094 7.011326555151185e6 0.0
7.011326555151185e6 -4.684592405637901e6 0.0
0.0 0.0 0.0

-3.3290027896751147e6 3.339068612653659e6 0.0
3.339068612653659e6 3.9242446855073776e6 0.0
0.0 0.0 0.0

-2.182429077236285e7 1.4317068858401021e7 0.0
1.4317068858401021e7 5.080494158778901e6 0.0
0.0 0.0 0.0

-4.600752414817597e6 9.301854511595285e6 0.0
9.301854511595285e6 404654.5846311825 0.0
0.0 0.0 0.0

-4.0850437810153775e6 9.627122905957345e6 0.0
9.627122905957345e6 2.754906267126538e6 0.0
0.0 0.0 0.0

318701.30991281633 1.7658301754099794e6 0.0
1.7658301754099794e6 -813787.4457195469 0.0
0.0 0.0 0.0

-5.318761927341831e6 9.416103003039997e6 0.0
9.416103003039997e6 562639.5053430051 0.0
0.0 0.0 0.0

-4.61373983977094e6 9.955935714958968e6 0.0
9.955935714958968e6 2.5842859431369556e6 0.0
0.0 0.0 0.0

2.333991812768233e6 6.105163616445685e6 0.0
6.105163616445685e6 -7.34363635147488e6 0.0
0.0 0.0 0.0

-2.376311911281661e6 6.489575056820518e6 0.0
6.489575056820518e6 1.0628921731230929e6 0.0
0.0 0.0 0.0

-2.31015763234861e6 5.430089460157809e6 0.0
5.430089460157809e6 1.4524401509414674e6 0.0
0.0 0.0 0.0

-8.682549671633456e6 1.3402347561739037e7 0.0
1.3402347561739037e7 4.607044623399155e6 0.0
0.0 0.0 0.0

-938938.4191097496 3.4132974642721517e6 0.0
3.4132974642721517e6 -625178.1769911099 0.0
0.0 0.0 0.0

-5.245822715534832e6 3.9370138463346665e6 0.0
3.9370138463346665e6 4.804966075136965e6 0.0
0.0 0.0 0.0

-7.750162800825864e6 1.0738186204242984e7 0.0
1.0738186204242984e7 4.643661686161057e6 0.0
0.0 0.0 0.0

-8.221250119435553e6 -3.2423948821930387e6 0.0
-3.2423948821930387e6 1.292694994753473e7 0.0
0.0 0.0 0.0

-17402.68554406638 2.0417249069801646e6 0.0
2.0417249069801646e6 -279060.0017745898 0.0
0.0 0.0 0.0

734222.1358965151 6.677936433934891e6 0.0
6.677936433934891e6 -5.233989370229401e6 0.0
0.0 0.0 0.0

-4.211662734904433e6 8.88664925633074e6 0.0
8.88664925633074e6 1.9815314227170115e6 0.0
0.0 0.0 0.0

-6.382965769448854e6 4.008957112820512e6 0.0
4.008957112820512e6 8.3720077766764965e6 0.0
0.0 0.0 0.0

-2.1698827181200595e6 9.66284275377808e6 0.0
9.66284275377808e6 -2.6280628151498856e6 0.0
0.0 0.0 0.0

-1.6238385508690402e6 9.295194848330555e6 0.0
9.295194848330555e6 -2.6411859346724786e6 0.0
0.0 0.0 0.0

33378.38729214901 7.610735309841703e6 0.0
7.610735309841703e6 -4.964820810694498e6 0.0
0.0 0.0 0.0

-419441.68002733146 9.37345520048066e6 0.0
9.37345520048066e6 -5.004821598361209e6 0.0
0.0 0.0 0.0

-1.0861302596068755e6 7.561378973692161e6 0.0
7.561378973692161e6 30683.68431965605 0.0
0.0 0.0 0.0

-6.5726511791945845e6 4.710767355990632e6 0.0
4.710767355990632e6 7.573266711298643e6 0.0
0.0 0.0 0.0

-5.629818143131366e6 1.0683561683892753e7 0.0
1.0683561683892753e7 1.2137662083578398e6 0.0
0.0 0.0 0.0

-5.898511845793532e6 1.0223789393731898e7 0.0
1.0223789393731898e7 3.697183381782437e6 0.0
0.0 0.0 0.0

-6.992333799090816e6 1.067500153029204e7 0.0
1.067500153029204e7 4.1543229206219306e6 0.0
0.0 0.0 0.0

-25947.683689478785 1.704296584971374e7 0.0
1.704296584971374e7 2.043397056874705e7 0.0
0.0 0.0 0.0

-4.312222482617784e6 9.028485889270458e6 0.0
9.028485889270458e6 2.1870662651481107e6 0.0
0.0 0.0 0.0

-1.4214733618305642e6 8.968305836790744e6 0.0
8.968305836790744e6 -2.836095202122059e6 0.0
0.0 0.0 0.0

-351386.69408494886 9.531866821514888e6 0.0
9.531866821514888e6 -5.080732170314425e6 0.0
0.0 0.0 0.0

-1.0290126211941475e6 9.158584861083137e6 0.0
9.158584861083137e6 -3.372025311469372e6 0.0
0.0 0.0 0.0

-6.840682420088489e6 1.0923401714839034e7 0.0
1.0923401714839034e7 3.133763436490666e6 0.0
0.0 0.0 0.0

-4.040665320567334e6 8.64664462940325e6 0.0
8.64664462940325e6 1.6865565912888541e6 0.0
0.0 0.0 0.0

295998.87716545514 7.537889725034647e6 0.0
7.537889725034647e6 -1.8975588628724318e6 0.0
0.0 0.0 0.0

-99503.7956713473 9.68451152764058e6 0.0
9.68451152764058e6 -4.860945024773561e6 0.0
0.0 0.0 0.0

-1.9907705750653124e6 6.785600175014592e6 0.0
6.785600175014592e6 -506438.0563898268 0.0
0.0 0.0 0.0

-1.1546749729959754e7 1.684160599003627e7 0.0
1.684160599003627e7 3.120476452804113e6 0.0
0.0 0.0 0.0

2.361986174444246e6 6.40499097683574e6 0.0
6.40499097683574e6 -8.616435107637685e6 0.0
0.0 0.0 0.0

1.4577559615366908e7 9.692370946321784e6 0.0
9.692370946321784e6 -3.1892192780789267e6 0.0
0.0 0.0 0.0

5.205901549180829e6 1.613787752996723e7 0.0
1.613787752996723e7 -1.9859843888656035e7 0.0
0.0 0.0 0.0

-1.634584809112254e6 9.983861537289092e6 0.0
9.983861537289092e6 1.8270557312550908e6 0.0
0.0 0.0 0.0

-1.4071650815637028e6 7.914241536910451e6 0.0
7.914241536910451e6 1.2544595784184914e6 0.0
0.0 0.0 0.0

-7.862299817086952e6 8.815240215707326e6 0.0
8.815240215707326e6 1.4787048726381906e6 0.0
0.0 0.0 0.0

-2.1473528582854044e7 5.144907428009932e6 0.0
5.144907428009932e6 7.939870712305654e6 0.0
0.0 0.0 0.0

-1.9357294975402458e6 7.250797420563186e6 0.0
7.250797420563186e6 -426130.66528993356 0.0
0.0 0.0 0.0

-5.176114761168804e6 9.511505755658414e6 0.0
9.511505755658414e6 1.975842944978201e6 0.0
0.0 0.0 0.0

-969858.0965859839 8.803831048601866e6 0.0
8.803831048601866e6 -3.4892647307051197e6 0.0
0.0 0.0 0.0

2.0367563242018372e6 7.275985417126783e6 0.0
7.275985417126783e6 -8.092159985622335e6 0.0
0.0 0.0 0.0

-1.3030707568085163e6 8.949901781840323e6 0.0
8.949901781840323e6 -3.7176555964306e6 0.0
0.0 0.0 0.0

545678.2918527271 8.605196085542088e6 0.0
8.605196085542088e6 -6.936846561195517e6 0.0
0.0 0.0 0.0

-2.34703886290927e6 5.581656877927414e6 0.0
5.581656877927414e6 1.1045198340123908e6 0.0
0.0 0.0 0.0

-2.491854145215014e6 9.580930162169194e6 0.0
9.580930162169194e6 3.546081976595459e6 0.0
0.0 0.0 0.0

-1.315814801674418e6 6.905809951969435e6 0.0
6.905809951969435e6 -334173.12181798404 0.0
0.0 0.0 0.0

-857373.8083637427 227352.98887372072 0.0
227352.98887372072 1.001281935605425e6 0.0
0.0 0.0 0.0

-9.05684513297892e6 342470.30420396506 0.0
342470.30420396506 1.0257759574175015e7 0.0
0.0 0.0 0.0

-5.468296060656838e6 9.792548293299839e6 0.0
9.792548293299839e6 3.2736578126121396e6 0.0
0.0 0.0 0.0

-3.516192971980499e6 9.497653470728388e6 0.0
9.497653470728388e6 4.454307843623142e6 0.0
0.0 0.0 0.0

-2.813926481349434e6 7.239615562161837e6 0.0
7.239615562161837e6 1.3890536264548025e6 0.0
0.0 0.0 0.0

-914756.3864101277 3.0815152341554845e6 0.0
3.0815152341554845e6 -1.2184206434417942e6 0.0
0.0 0.0 0.0

-1.4791838261068106e7 5.124770176569736e6 0.0
5.124770176569736e6 2.1534989928758986e7 0.0
0.0 0.0 0.0

-3.4379477889296096e6 7.770290166964933e6 0.0
7.770290166964933e6 1.1779228302364578e6 0.0
0.0 0.0 0.0

-5.23696889720863e6 1.0765084595480213e7 0.0
1.0765084595480213e7 660515.3199528307 0.0
0.0 0.0 0.0

-3.4311903868249627e6 9.532810976844937e6 0.0
9.532810976844937e6 4.710966354386965e6 0.0
0.0 0.0 0.0

-1.7980379278692352e6 7.050230425877195e6 0.0
7.050230425877195e6 -401888.88972563366 0.0
0.0 0.0 0.0

-1.8504166873004888e6 1.3146524310835062e7 0.0
1.3146524310835062e7 -1.9916228070317202e6 0.0
0.0 0.0 0.0

-1.1777678625109036e7 -2.3991091257477184e6 0.0
-2.3991091257477184e6 2.5637690234657828e7 0.0
0.0 0.0 0.0

-38938.56960145058 1.2251625237634383e7 0.0
1.2251625237634383e7 -3.078484075599282e6 0.0
0.0 0.0 0.0

-7.229992211421958e6 1.0584167411975756e7 0.0
1.0584167411975756e7 4.395980135240063e6 0.0
0.0 0.0 0.0

-496758.88305796054 8.340213243109432e6 0.0
8.340213243109432e6 -5.668895186005795e6 0.0
0.0 0.0 0.0

-3.564409235127166e6 9.26516734187859e6 0.0
9.26516734187859e6 3.1322215805688645e6 0.0
0.0 0.0 0.0

-6.811623357646504e6 3.3610601411394663e6 0.0
3.3610601411394663e6 8.156823424601699e6 0.0
0.0 0.0 0.0

-5.739386725312733e6 1.2341777281148447e7 0.0
1.2341777281148447e7 1.9118399748066522e6 0.0
0.0 0.0 0.0

2.6960659535703734e6 1.8158104002264554e6 0.0
1.8158104002264554e6 -4.611025458180992e6 0.0
0.0 0.0 0.0

-1.232489124419599e7 1.386206929631298e7 0.0
1.386206929631298e7 5.950182510163474e6 0.0
0.0 0.0 0.0

799819.2712588586 8.210578862340171e6 0.0
8.210578862340171e6 -454768.1761394007 0.0
0.0 0.0 0.0

-4.388230842072771e6 9.064419820104195e6 0.0
9.064419820104195e6 1.0170553086215162e6 0.0
0.0 0.0 0.0

1.6956985010431008e6 6.440363987025867e6 0.0
6.440363987025867e6 -7.318609928860684e6 0.0
0.0 0.0 0.0

-2.1445184797783624e6 1.0487812434231397e7 0.0
1.0487812434231397e7 938324.606922291 0.0
0.0 0.0 0.0

-4.200957207361387e6 9.13317452254091e6 0.0
9.13317452254091e6 6.410933078959159e6 0.0
0.0 0.0 0.0

-6.171857058211993e6 1.0107501101068476e7 0.0
1.0107501101068476e7 3.5289585105151827e6 0.0
0.0 0.0 0.0

-2.6069458638950754e6 1.0558607608975042e7 0.0
1.0558607608975042e7 4.140813982309187e6 0.0
0.0 0.0 0.0

-720973.3219858654 2.6433001302197785e6 0.0
2.6433001302197785e6 -602818.0209899042 0.0
0.0 0.0 0.0

-5.230037790024824e6 9.399133640851535e6 0.0
9.399133640851535e6 7.135503126677052e6 0.0
0.0 0.0 0.0

-3.2649149702357054e6 1.007120152875951e7 0.0
1.007120152875951e7 1.090773761435112e6 0.0
0.0 0.0 0.0

-664289.9979166184 1.2769112714174647e7 0.0
1.2769112714174647e7 -2.9110497759329346e6 0.0
0.0 0.0 0.0

-2.5736742581655784e6 1.1972627255912192e7 0.0
1.1972627255912192e7 -2.2114128847106434e6 0.0
0.0 0.0 0.0

-5.312234224949175e6 1.382540053368744e7 0.0
1.382540053368744e7 538747.8744131573 0.0
0.0 0.0 0.0

-1.17724788592171e6 6.32475850598754e6 0.0
6.32475850598754e6 -1.3526051684606825e6 0.0
0.0 0.0 0.0

-4.282010621315849e6 9.789248696482843e6 0.0
9.789248696482843e6 2.780969714016323e6 0.0
0.0 0.0 0.0

-8.085714054577569e6 1.3362227151779527e7 0.0
1.3362227151779527e7 2.433758168146213e6 0.0
0.0 0.0 0.0

-209926.40768672875 9.405192827595506e6 0.0
9.405192827595506e6 -6.822556742693494e6 0.0
0.0 0.0 0.0

-1.49178273516131e6 6.757263768442248e6 0.0
6.757263768442248e6 -923810.7946543876 0.0
0.0 0.0 0.0

-1.553328928064284e6 7.440456781738909e6 0.0
7.440456781738909e6 531806.8478721121 0.0
0.0 0.0 0.0

-6.76118143236508e6 1.3120141615443641e7 0.0
1.3120141615443641e7 1.248310123977919e6 0.0
0.0 0.0 0.0

12151.357705258066 9.714164991818944e6 0.0
9.714164991818944e6 -4.887246032163507e6 0.0
0.0 0.0 0.0

678823.7154222645 5.270082642793111e6 0.0
5.270082642793111e6 -4.704318518509515e6 0.0
0.0 0.0 0.0

-9.360639029725153e6 -8.320701526692735e6 0.0
-8.320701526692735e6 2.112195180617131e7 0.0
0.0 0.0 0.0

415774.1009842593 8.522460107782358e6 0.0
8.522460107782358e6 -5.718070721237558e6 0.0
0.0 0.0 0.0

-1.8117437242643896e6 7.90368991268475e6 0.0
7.90368991268475e6 2.287414939113176e6 0.0
0.0 0.0 0.0

-2.2950886290132906e6 5.8066809653469045e6 0.0
5.8066809653469045e6 1.414224954199819e6 0.0
0.0 0.0 0.0

-1.27491070170046e6 1.3051895389589963e7 0.0
1.3051895389589963e7 -3.377096132358692e6 0.0
0.0 0.0 0.0

-122686.59547366132 6.053023202417873e6 0.0
6.053023202417873e6 -4.265178172395565e6 0.0
0.0 0.0 0.0

1.273945863524814e6 1.0019560442837203e7 0.0
1.0019560442837203e7 -3.915711158775274e6 0.0
0.0 0.0 0.0

-2.3445095263686925e6 8.816297500498017e6 0.0
8.816297500498017e6 4.61546140010914e6 0.0
0.0 0.0 0.0

-9.258038863173109e6 1.773345292753283e7 0.0
1.773345292753283e7 -119658.72238028469 0.0
0.0 0.0 0.0

-1.3861200329010263e6 1.1703336109565753e7 0.0
1.1703336109565753e7 -2.586831248329741e6 0.0
0.0 0.0 0.0

-6.75244943248082e6 1.0538388268156916e7 0.0
1.0538388268156916e7 9.765252322277669e6 0.0
0.0 0.0 0.0

1.86346665340338e6 5.724171288738739e6 0.0
5.724171288738739e6 -6.734265692223248e6 0.0
0.0 0.0 0.0

-7.533706447022167e6 1.155516898908778e7 0.0
1.155516898908778e7 3.391597631698048e6 0.0
0.0 0.0 0.0

2.124936728051615e6 8.19454777523484e6 0.0
8.19454777523484e6 -1.913684021794591e6 0.0
0.0 0.0 0.0

-2.0864852560162466e7 432431.2804113535 0.0
432431.2804113535 9.27708873723624e6 0.0
0.0 0.0 0.0

-4.521653229938703e6 1.0067738424097965e7 0.0
1.0067738424097965e7 2.591771707681437e6 0.0
0.0 0.0 0.0

-1.3954241909090928e6 6.641865550554913e6 0.0
6.641865550554913e6 -725453.8830700581 0.0
0.0 0.0 0.0

30645.76246671984 9.165412372648746e6 0.0
9.165412372648746e6 -5.322695931417756e6 0.0
0.0 0.0 0.0

-1.8515289762437628e6 1.0153355638696434e7 0.0
1.0153355638696434e7 1.56869251298975e6 0.0
0.0 0.0 0.0

318990.9146174481 8.765768070532618e6 0.0
8.765768070532618e6 -6.581430951824615e6 0.0
0.0 0.0 0.0

2.0391588427894674e6 6.247509106817758e6 0.0
6.247509106817758e6 -7.935890699360654e6 0.0
0.0 0.0 0.0

8.3540984738450525e6 1.0293153220347127e7 0.0
1.0293153220347127e7 -560364.3498166576 0.0
0.0 0.0 0.0

-4.340544957887883e7 1.9348642521818563e7 0.0
1.9348642521818563e7 3.433549602199396e6 0.0
0.0 0.0 0.0

-1.4399959561595973e6 1.0016542454352181e7 0.0
1.0016542454352181e7 5.225844485784599e6 0.0
0.0 0.0 0.0

-4.0836227938383953e6 1.0972619080549095e7 0.0
1.0972619080549095e7 -806252.126465582 0.0
0.0 0.0 0.0

-3.5025418689063042e6 9.569841516151087e6 0.0
9.569841516151087e6 2.430274589677601e6 0.0
0.0 0.0 0.0

598446.6101640114 5.292172696301861e6 0.0
5.292172696301861e6 -4.638281673176751e6 0.0
0.0 0.0 0.0

-3.316149969931821e6 1.0147723274749568e7 0.0
1.0147723274749568e7 1.5272709767909439e6 0.0
0.0 0.0 0.0

-7.966970826657452e6 1.1876037065389894e7 0.0
1.1876037065389894e7 3.9364646930037565e6 0.0
0.0 0.0 0.0

23420.46615928365 8.91508556525169e6 0.0
8.91508556525169e6 -5.90139940772071e6 0.0
0.0 0.0 0.0

-4.518942359536917e6 9.101342549170192e6 0.0
9.101342549170192e6 595568.5628738224 0.0
0.0 0.0 0.0

696088.3567393287 1.719724676423489e6 0.0
1.719724676423489e6 -3.4158569698673803e6 0.0
0.0 0.0 0.0

-2.606442125680403e6 8.47428169042878e6 0.0
8.47428169042878e6 5.497196241809832e6 0.0
0.0 0.0 0.0

-3.4903344913250147e6 1.0410553956346232e7 0.0
1.0410553956346232e7 255066.52943088347 0.0
0.0 0.0 0.0

-2.2255502567404145e6 9.521400363502583e6 0.0
9.521400363502583e6 -1.9250972493681624e6 0.0
0.0 0.0 0.0

-4.768385818222617e6 8.850255544120803e6 0.0
8.850255544120803e6 1.8972968904370703e6 0.0
0.0 0.0 0.0

-47238.55364454724 8.587607718687877e6 0.0
8.587607718687877e6 -5.502787955485994e6 0.0
0.0 0.0 0.0

-8.599586613156572e6 -3.626840903297945e6 0.0
-3.626840903297945e6 1.0991943813245354e7 0.0
0.0 0.0 0.0

-1.568300701668482e6 9.013568542239018e6 0.0
9.013568542239018e6 -3.350037333844983e6 0.0
0.0 0.0 0.0

1.736362595343808e6 9.035243600701379e6 0.0
9.035243600701379e6 -3.089983660193959e6 0.0
0.0 0.0 0.0

-1.4233369811450327e6 1.0137501956683936e7 0.0
1.0137501956683936e7 -7.355876324204076e6 0.0
0.0 0.0 0.0

835907.3763075706 6.415444133611731e6 0.0
6.415444133611731e6 -4.8426298989732815e6 0.0
0.0 0.0 0.0

-917156.1987806142 9.864222843159577e6 0.0
9.864222843159577e6 -3.634858927013882e6 0.0
0.0 0.0 0.0

-4.346071315150756e6 9.973607279405607e6 0.0
9.973607279405607e6 2.644795356614424e6 0.0
0.0 0.0 0.0

-6.089109024933317e6 9.976023918397393e6 0.0
9.976023918397393e6 2.5950893817162057e6 0.0
0.0 0.0 0.0

-4.302946604503848e6 9.000308794514924e6 0.0
9.000308794514924e6 2.6567087350641713e6 0.0
0.0 0.0 0.0

993643.7738426627 7.71734270438647e6 0.0
7.71734270438647e6 161776.28072913009 0.0
0.0 0.0 0.0

-2.621278890697414e7 3.6107348746328787e6 0.0
3.6107348746328787e6 8.937153802022744e6 0.0
0.0 0.0 0.0

690379.5419219492 434859.709518997 0.0
434859.709518997 -2.0402450718602885e6 0.0
0.0 0.0 0.0

81694.84751526732 7.493759535368092e6 0.0
7.493759535368092e6 -3.3800151256078077e6 0.0
0.0 0.0 0.0

3.4450738951792913e6 9.502969844405213e6 0.0
9.502969844405213e6 -3.9500818694762075e6 0.0
0.0 0.0 0.0

-8.916882771705126e6 1.1130272124559084e7 0.0
1.1130272124559084e7 5.477780879516739e6 0.0
0.0 0.0 0.0

650052.9836939182 8.719266080316247e6 0.0
8.719266080316247e6 -7.083055685650316e6 0.0
0.0 0.0 0.0

-1.959314186318444e6 1.0677979582919177e7 0.0
1.0677979582919177e7 115742.84326682764 0.0
0.0 0.0 0.0

-2.0743302581413696e6 1.228145412934611e7 0.0
1.228145412934611e7 -1.8908908487254444e6 0.0
0.0 0.0 0.0

-1.4815212597094448e6 8.14636919469669e6 0.0
8.14636919469669e6 -2.693629898152656e6 0.0
0.0 0.0 0.0

-1.5525492938784873e6 1.214980102979879e7 0.0
1.214980102979879e7 -2.519832587447739e6 0.0
0.0 0.0 0.0

-584753.2848715109 1.020491522961532e7 0.0
1.020491522961532e7 -39690.29120023761 0.0
0.0 0.0 0.0

-5.841429173870205e6 9.962671134923855e6 0.0
9.962671134923855e6 2.531469429906559e6 0.0
0.0 0.0 0.0

458663.3518319628 7.186925797687148e6 0.0
7.186925797687148e6 -4.91282440583013e6 0.0
0.0 0.0 0.0

2.3122340421462394e6 6.091508426026676e6 0.0
6.091508426026676e6 -7.481698642161598e6 0.0
0.0 0.0 0.0

-2.1402371645998713e6 1.5261974533597603e6 0.0
1.5261974533597603e6 1.2164378798019981e6 0.0
0.0 0.0 0.0

-2.422029890168435e6 165263.8679563353 0.0
165263.8679563353 1.2992555637984609e6 0.0
0.0 0.0 0.0

-3.2235043901730943e6 8.408228684106652e6 0.0
8.408228684106652e6 4.0738095537426993e6 0.0
0.0 0.0 0.0

-497162.13951936306 9.835410090107543e6 0.0
9.835410090107543e6 144199.59913571796 0.0
0.0 0.0 0.0

-891983.2225231382 1.0195716543275004e7 0.0
1.0195716543275004e7 139975.50309541408 0.0
0.0 0.0 0.0

4.780309582330111e6 5.096191497516084e6 0.0
5.096191497516084e6 -7.685079265202487e6 0.0
0.0 0.0 0.0

-149321.65576993884 1.1587612103942286e7 0.0
1.1587612103942286e7 -3.4270334540396556e6 0.0
0.0 0.0 0.0

1.3719325919697299e6 1.1848622011102813e6 0.0
1.1848622011102813e6 -2.9343760630185185e6 0.0
0.0 0.0 0.0

-1.6640726757314869e6 1.1980325769068865e7 0.0
1.1980325769068865e7 -2.175294906566239e6 0.0
0.0 0.0 0.0

-5.62101425487512e6 5.238894658869849e6 0.0
5.238894658869849e6 8.272418495205766e6 0.0
0.0 0.0 0.0

-5.083465035692678e6 1.0601027469894454e7 0.0
1.0601027469894454e7 1.380877321652432e6 0.0
0.0 0.0 0.0

-6.469350676618145e6 1.2762784504411248e7 0.0
1.2762784504411248e7 2.6430907992735286e6 0.0
0.0 0.0 0.0

605893.6910453367 6.623101009654505e6 0.0
6.623101009654505e6 -5.158837540436829e6 0.0
0.0 0.0 0.0

616161.6747717785 6.247096930809489e6 0.0
6.247096930809489e6 -5.21336429613208e6 0.0
0.0 0.0 0.0

3.9327862977499953e6 1.0353842249153605e7 0.0
1.0353842249153605e7 -6.017658835989425e6 0.0
0.0 0.0 0.0

-2.5322993117274274e6 9.668419109730097e6 0.0
9.668419109730097e6 3.306968684062538e6 0.0
0.0 0.0 0.0

-1.868244328302164e6 9.08134147885737e6 0.0
9.08134147885737e6 -3.0001597506301925e6 0.0
0.0 0.0 0.0

-2.980299797317859e6 -62932.84818967853 0.0
-62932.84818967853 1.820906516569781e6 0.0
0.0 0.0 0.0

-8.214218542677135e6 1.0874897742759999e7 0.0
1.0874897742759999e7 4.897085834992357e6 0.0
0.0 0.0 0.0

-3.9702511190784653e6 3.9874680256656664e6 0.0
3.9874680256656664e6 3.938599718686776e6 0.0
0.0 0.0 0.0

-120242.98095764674 2.8179363477611896e6 0.0
2.8179363477611896e6 -1.2527784969826504e6 0.0
0.0 0.0 0.0

-2.137286312936657e6 7.739393869527634e6 0.0
7.739393869527634e6 -1.647995997287272e6 0.0
0.0 0.0 0.0

2.299420345346894e6 6.008239838848005e6 0.0
6.008239838848005e6 -7.472082126391785e6 0.0
0.0 0.0 0.0

-6.496972999497174e6 1.0324955494994346e7 0.0
1.0324955494994346e7 3.8621918835928626e6 0.0
0.0 0.0 0.0

-4.1423863788964255e6 9.075580063659746e6 0.0
9.075580063659746e6 678202.6802903507 0.0
0.0 0.0 0.0

148648.87254992803 8.456291455488952e6 0.0
8.456291455488952e6 -5.765824498040975e6 0.0
0.0 0.0 0.0

4.685080177392767e6 8.226285994578446e6 0.0
8.226285994578446e6 -2.8714979740495877e6 0.0
0.0 0.0 0.0

-5.9548891060067415e6 1.0268310992364114e7 0.0
1.0268310992364114e7 3.467254474293502e6 0.0
0.0 0.0 0.0

-4.730625268054979e6 -196143.39089275952 0.0
-196143.39089275952 5.593736110373629e6 0.0
0.0 0.0 0.0

-1.379649907265123e6 1.1996971016277962e6 0.0
1.1996971016277962e6 1.6588747105891232e6 0.0
0.0 0.0 0.0

2.2398757489751056e6 9.048630617168125e6 0.0
9.048630617168125e6 -3.1977435851364266e6 0.0
0.0 0.0 0.0

-3.5856140424696766e6 1.0817338004395878e7 0.0
1.0817338004395878e7 -561272.4704739781 0.0
0.0 0.0 0.0

-3.6446385158848637e6 1.1172605805610368e7 0.0
1.1172605805610368e7 -484919.28338705294 0.0
0.0 0.0 0.0

-1.0363320396465544e7 -150127.42541561503 0.0
-150127.42541561503 1.837018578365405e7 0.0
0.0 0.0 0.0

4.880243804473208e6 1.3856806862397932e6 0.0
1.3856806862397932e6 -7.375343063694514e6 0.0
0.0 0.0 0.0

-2.6611453948721653e6 1.0603118673294269e7 0.0
1.0603118673294269e7 103019.74288889184 0.0
0.0 0.0 0.0

-5.522194704876959e6 1.0269243307398913e7 0.0
1.0269243307398913e7 1.0603781403422926e6 0.0
0.0 0.0 0.0

-1.4892984696873033e7 5.27317068130983e6 0.0
5.27317068130983e6 7.275164170147828e6 0.0
0.0 0.0 0.0

-8.3512828389855735e6 1.1520742782964114e7 0.0
1.1520742782964114e7 4.753765609218704e6 0.0
0.0 0.0 0.0

-427566.24692841346 9.919463431756806e6 0.0
9.919463431756806e6 -950425.5350147997 0.0
0.0 0.0 0.0

-3.339368651306236e6 -942444.5251462967 0.0
-942444.5251462967 3.7516777897265223e6 0.0
0.0 0.0 0.0

3.50671259472519e6 1.0095451320628084e7 0.0
1.0095451320628084e7 -5.380179648966718e6 0.0
0.0 0.0 0.0

-2.6266975490938756e6 8.95994734633775e6 0.0
8.95994734633775e6 -1.5002932805920066e6 0.0
0.0 0.0 0.0

-689409.3448097494 2.179208909893247e6 0.0
2.179208909893247e6 228533.94974094594 0.0
0.0 0.0 0.0

-4.422226857308341e6 9.072500075582765e6 0.0
9.072500075582765e6 2.5103765511144474e6 0.0
0.0 0.0 0.0

-4.728557364403035e6 9.599780530182714e6 0.0
9.599780530182714e6 2.805114100101487e6 0.0
0.0 0.0 0.0

-610732.0855572403 2.572975714153334e6 0.0
2.572975714153334e6 -928018.3766468039 0.0
0.0 0.0 0.0

732260.8013662014 5.946034966896461e6 0.0
5.946034966896461e6 -5.428244926076741e6 0.0
0.0 0.0 0.0

1.702884049262518e6 7.560106937116685e6 0.0
7.560106937116685e6 -8.475874768376512e6 0.0
0.0 0.0 0.0

-2.5187980633050553e6 8.150443874777324e6 0.0
8.150443874777324e6 4.28629973838939e6 0.0
0.0 0.0 0.0

3.0506157168106567e6 1.3550632325101995e6 0.0
1.3550632325101995e6 -4.834417548922271e6 0.0
0.0 0.0 0.0

-104467.6540297044 1.521939168144343e7 0.0
1.521939168144343e7 -5.786491732515556e6 0.0
0.0 0.0 0.0

1.020695076557647e6 5.658641450779977e6 0.0
5.658641450779977e6 -4.911948266931889e6 0.0
0.0 0.0 0.0

284293.323401951 7.037893001908532e6 0.0
7.037893001908532e6 -3.29516066049785e6 0.0
0.0 0.0 0.0

122769.38930892921 5.707514243872139e6 0.0
5.707514243872139e6 -4.3597509048244655e6 0.0
0.0 0.0 0.0

-352365.1737602443 1.0201683042733165e7 0.0
1.0201683042733165e7 -654457.9331351343 0.0
0.0 0.0 0.0

-415156.45839762484 9.965928459363813e6 0.0
9.965928459363813e6 -166040.59701307345 0.0
0.0 0.0 0.0

149306.63067762414 8.945536292576356e6 0.0
8.945536292576356e6 -5.477797269083261e6 0.0
0.0 0.0 0.0

-3.597736188724892e6 1.6254860722183699e7 0.0
1.6254860722183699e7 -4.635524705818899e6 0.0
0.0 0.0 0.0

-889866.6119054098 2.0905838278235237e6 0.0
2.0905838278235237e6 963614.8128814495 0.0
0.0 0.0 0.0

-4.463978477064961e6 9.36881388817879e6 0.0
9.36881388817879e6 2.959465981875153e6 0.0
0.0 0.0 0.0

-7.852595553437095e6 1.075265255410259e7 0.0
1.075265255410259e7 4.62570141744689e6 0.0
0.0 0.0 0.0

-5.299683703667996e6 1.0327496290595338e7 0.0
1.0327496290595338e7 1.66318990002265e6 0.0
0.0 0.0 0.0

-108851.34259711263 1.5307410705928328e6 0.0
1.5307410705928328e6 -210722.24557152973 0.0
0.0 0.0 0.0

-284016.8615195938 3.571166820586714e6 0.0
3.571166820586714e6 -1.275468503943874e6 0.0
0.0 0.0 0.0

-1.8687254951618188e6 9.822578355318239e6 0.0
9.822578355318239e6 2.9483767361431215e6 0.0
0.0 0.0 0.0

-15101.655567135662 582771.1105645971 0.0
582771.1105645971 -1.7740391667449414e6 0.0
0.0 0.0 0.0

-2.0684000322784942e6 1.3129660909584617e7 0.0
1.3129660909584617e7 -2.726553080677879e6 0.0
0.0 0.0 0.0

-3.394792201590784e6 1.0765765471742168e7 0.0
1.0765765471742168e7 -1.2991812805543672e6 0.0
0.0 0.0 0.0

-526851.2015766094 9.897346711042719e6 0.0
9.897346711042719e6 -4.12879702475294e6 0.0
0.0 0.0 0.0

-3.8107193601843305e6 8.275225863175881e6 0.0
8.275225863175881e6 1.3348858287147586e6 0.0
0.0 0.0 0.0

-4.306775609431582e6 8.867119524146866e6 0.0
8.867119524146866e6 2.3115244652886447e6 0.0
0.0 0.0 0.0

-2.510719709017289e6 5.44586722184277e6 0.0
5.44586722184277e6 2.0619553554085246e6 0.0
0.0 0.0 0.0

-1.543317653857907e7 9.386273846065065e6 0.0
9.386273846065065e6 1.0132060858425234e7 0.0
0.0 0.0 0.0

3.055758626503194e6 1.34590515858162e6 0.0
1.34590515858162e6 -4.774946370354362e6 0.0
0.0 0.0 0.0

-1.7396933851227248e6 9.02202801351821e6 0.0
9.02202801351821e6 -2.5063041036370727e6 0.0
0.0 0.0 0.0

2.4906112342132335e6 6.474165575083245e6 0.0
6.474165575083245e6 -8.529253474730497e6 0.0
0.0 0.0 0.0

-2.975405566464038e6 1.2260695962191237e7 0.0
1.2260695962191237e7 -1.8787123115867835e6 0.0
0.0 0.0 0.0

-1.8682649297193435e6 7.138057411616075e6 0.0
7.138057411616075e6 -539247.3587720753 0.0
0.0 0.0 0.0

-854104.4518731198 8.82461289289912e6 0.0
8.82461289289912e6 -5.953565789396712e6 0.0
0.0 0.0 0.0

2.6141029690622212e6 1.058591682140087e7 0.0
1.058591682140087e7 3.026491317629366e6 0.0
0.0 0.0 0.0

-504090.7118405886 4.666698271683055e6 0.0
4.666698271683055e6 -680528.9649534106 0.0
0.0 0.0 0.0

-3.224763058139609e6 9.317607429049589e6 0.0
9.317607429049589e6 5.911037224105693e6 0.0
0.0 0.0 0.0

-3.815795861866888e6 9.938760556668168e6 0.0
9.938760556668168e6 6.335345882628178e6 0.0
0.0 0.0 0.0

-2.2419244849503264e6 5.9830239946712535e6 0.0
5.9830239946712535e6 -1.7884564195254315e6 0.0
0.0 0.0 0.0

-9.072632639172176e6 1.4016929527358271e7 0.0
1.4016929527358271e7 2.9615300585970297e6 0.0
0.0 0.0 0.0

-4.306666202812216e6 9.73603635854979e6 0.0
9.73603635854979e6 -55960.527247736 0.0
0.0 0.0 0.0

-2.9448703430614434e6 6.759655738203899e6 0.0
6.759655738203899e6 1.909656177887425e6 0.0
0.0 0.0 0.0

2.0023844376023249e6 8.154532449492451e6 0.0
8.154532449492451e6 -1.028193475816676e7 0.0
0.0 0.0 0.0

-442052.38343249325 4.196329375432491e6 0.0
4.196329375432491e6 -1.2794137373099963e6 0.0
0.0 0.0 0.0

-1.1900912007654363e6 1.007405469419159e7 0.0
1.007405469419159e7 -556999.116979063 0.0
0.0 0.0 0.0

1.1881972044275494e6 7.896843385183914e6 0.0
7.896843385183914e6 1.4227417515485764e6 0.0
0.0 0.0 0.0

-6.473202142257413e6 4.477997768964732e6 0.0
4.477997768964732e6 6.743724333012123e6 0.0
0.0 0.0 0.0

-3.668537791690458e6 9.352841566550285e6 0.0
9.352841566550285e6 2.6368668482154976e6 0.0
0.0 0.0 0.0

-5.589489070750127e6 9.861043847756786e6 0.0
9.861043847756786e6 3.2837381298109023e6 0.0
0.0 0.0 0.0

-1.744525350566812e7 9.405116156156264e6 0.0
9.405116156156264e6 1.0444502554440511e7 0.0
0.0 0.0 0.0

16387.55157613824 3.063161771603989e6 0.0
3.063161771603989e6 -2.6102099119213386e6 0.0
0.0 0.0 0.0

-5.5166042217369545e6 9.709279815986393e6 0.0
9.709279815986393e6 3.0809588865344706e6 0.0
0.0 0.0 0.0

-3.9151627302454263e6 9.280021712670196e6 0.0
9.280021712670196e6 -249750.64455483784 0.0
0.0 0.0 0.0

-1.6432407965479163e6 8.8348250177651e6 0.0
8.8348250177651e6 5.546010988808968e6 0.0
0.0 0.0 0.0

-5.152421746659137e6 1.0216016318932774e7 0.0
1.0216016318932774e7 849277.995617758 0.0
0.0 0.0 0.0

1.8759707423736264e6 991064.8840578948 0.0
991064.8840578948 -4.0162308499451946e6 0.0
0.0 0.0 0.0

-2.6790666164722247e6 9.624519640117738e6 0.0
9.624519640117738e6 -2.0691644011490513e6 0.0
0.0 0.0 0.0

-692626.1941928541 3.493693771572688e6 0.0
3.493693771572688e6 146116.19370766633 0.0
0.0 0.0 0.0

991963.0663067468 6.167699806515251e6 0.0
6.167699806515251e6 -4.920279087054746e6 0.0
0.0 0.0 0.0

2.6510847127038618e6 6.859452451729346e6 0.0
6.859452451729346e6 -8.877647638007628e6 0.0
0.0 0.0 0.0

-2.245879508232584e6 8.682637518005982e6 0.0
8.682637518005982e6 3.1308038422744265e6 0.0
0.0 0.0 0.0

-882622.4346366157 1.019284462501434e7 0.0
1.019284462501434e7 -3.774215179122013e6 0.0
0.0 0.0 0.0

-3.0696343816882293e6 6.845430187394636e6 0.0
6.845430187394636e6 1.3751003830941247e6 0.0
0.0 0.0 0.0

1.6234330711906538e6 4.876718106037453e6 0.0
4.876718106037453e6 -4.175844429132756e6 0.0
0.0 0.0 0.0

-701294.4895348378 8.769244130904078e6 0.0
8.769244130904078e6 -3.754128362697106e6 0.0
0.0 0.0 0.0

-688998.3616955542 9.760408213092668e6 0.0
9.760408213092668e6 -4.570365457434001e6 0.0
0.0 0.0 0.0

-3.454615302695063e6 7.222477100008176e6 0.0
7.222477100008176e6 1.7332605623866844e6 0.0
0.0 0.0 0.0

-4.934400107863212e6 2.8243000951563357e6 0.0
2.8243000951563357e6 3.884589347598602e6 0.0
0.0 0.0 0.0

-782330.4874732306 2.531001193891601e6 0.0
2.531001193891601e6 623970.901344088 0.0
0.0 0.0 0.0

-1.1463773854669721e6 1.0068402783077687e7 0.0
1.0068402783077687e7 -3.941285532736545e6 0.0
0.0 0.0 0.0

-1.7117674482285583e6 6.931982387065076e6 0.0
6.931982387065076e6 -543209.6259292797 0.0
0.0 0.0 0.0

-2.254591440163487e6 8.680285037474334e6 0.0
8.680285037474334e6 7.1883360195325175e6 0.0
0.0 0.0 0.0

-3.765965451191512e6 1.091801677423156e7 0.0
1.091801677423156e7 -1.1392623199897644e6 0.0
0.0 0.0 0.0

1.4923874125506384e6 1.2316228923982263e6 0.0
1.2316228923982263e6 -2.93280201025802e6 0.0
0.0 0.0 0.0

-8.760336496014271e6 1.1882360546736615e6 0.0
1.1882360546736615e6 1.114821242119699e7 0.0
0.0 0.0 0.0

-6.336120007774234e6 1.013813801342729e7 0.0
1.013813801342729e7 3.4992123043592125e6 0.0
0.0 0.0 0.0

-7.205236836453122e6 9.696051449963156e6 0.0
9.696051449963156e6 4.821442903853945e6 0.0
0.0 0.0 0.0

-834637.5369168452 4.935857435292487e6 0.0
4.935857435292487e6 -1.2296843548482605e6 0.0
0.0 0.0 0.0

-1.3630242940237806e6 1.03688069626558e6 0.0
1.03688069626558e6 605544.5866072184 0.0
0.0 0.0 0.0

147654.1278275533 8.58099814663244e6 0.0
8.58099814663244e6 -5.820685643073758e6 0.0
0.0 0.0 0.0

-3.527192595823626e6 7.414788106977172e6 0.0
7.414788106977172e6 2.5774301394747975e6 0.0
0.0 0.0 0.0

-9.372411681776024e6 1.33496928668037e6 0.0
1.33496928668037e6 1.1880739366512444e7 0.0
0.0 0.0 0.0

-2.201886775086237e7 1.886888876301912e6 0.0
1.886888876301912e6 1.1517892817390215e7 0.0
0.0 0.0 0.0

-1.1100660871812564e6 7.319356308358174e6 0.0
7.319356308358174e6 -3.400240652292265e6 0.0
0.0 0.0 0.0

-323912.8633577395 9.961431628397124e6 0.0
9.961431628397124e6 -949751.5065523662 0.0
0.0 0.0 0.0

2.181737506067315e6 6.025814320438401e6 0.0
6.025814320438401e6 -7.090570500913056e6 0.0
0.0 0.0 0.0

-6.506360983011048e6 7.737013053762354e6 0.0
7.737013053762354e6 9.397711000106761e6 0.0
0.0 0.0 0.0

-9.664146374944694e6 1.3758571027663387e6 0.0
1.3758571027663387e6 1.0911767528754469e7 0.0
0.0 0.0 0.0

273881.73263605265 2.716142453223192e6 0.0
2.716142453223192e6 -3.7474893010211573e6 0.0
0.0 0.0 0.0

-3.6461220408895514e6 9.435543901565025e6 0.0
9.435543901565025e6 -140553.6072441938 0.0
0.0 0.0 0.0

-5.111556317626375e6 9.142276154960187e6 0.0
9.142276154960187e6 2.167201139367473e6 0.0
0.0 0.0 0.0

-4.064436071255211e6 8.746518246599661e6 0.0
8.746518246599661e6 2.102060148565014e6 0.0
0.0 0.0 0.0

-6.519842088462786e6 1.0197222239937974e7 0.0
1.0197222239937974e7 4.268198650220207e6 0.0
0.0 0.0 0.0

-3.502703616405973e6 7.628322760444881e6 0.0
7.628322760444881e6 682591.5966900995 0.0
0.0 0.0 0.0

-7.657516573486386e6 -2.5047359498297847e6 0.0
-2.5047359498297847e6 1.0229415845814317e7 0.0
0.0 0.0 0.0

-1.138672287901131e6 9.842471345148165e6 0.0
9.842471345148165e6 2.143799554467095e6 0.0
0.0 0.0 0.0

-1.304264264021947e6 9.224488028806888e6 0.0
9.224488028806888e6 -3.021102290136455e6 0.0
0.0 0.0 0.0

-9.275606301349197e6 5.600403290191943e6 0.0
5.600403290191943e6 6.880822546597101e6 0.0
0.0 0.0 0.0

-300771.98490628717 3.4676397860248927e6 0.0
3.4676397860248927e6 -974999.0228991975 0.0
0.0 0.0 0.0

-7.465010066426893e6 1.0698142928302698e7 0.0
1.0698142928302698e7 4.537269694239632e6 0.0
0.0 0.0 0.0

-345047.4286894603 9.943081726801103e6 0.0
9.943081726801103e6 -995074.9892643136 0.0
0.0 0.0 0.0

-5.993817927710766e6 6.017535625651192e6 0.0
6.017535625651192e6 6.68579701794572e6 0.0
0.0 0.0 0.0

112873.10313073243 7.544029589338678e6 0.0
7.544029589338678e6 -4.669989183222436e6 0.0
0.0 0.0 0.0

-3.3548634081470957e6 5.244785287416459e6 0.0
5.244785287416459e6 3.4828749146161135e6 0.0
0.0 0.0 0.0

1.7141842456788067e6 1.261254717191847e6 0.0
1.261254717191847e6 -3.524414554121294e6 0.0
0.0 0.0 0.0

926400.373381638 6.585884720123942e6 0.0
6.585884720123942e6 -5.095754002605199e6 0.0
0.0 0.0 0.0

-2.0588915984234237e6 1.0683472161109202e7 0.0
1.0683472161109202e7 777718.9644299881 0.0
0.0 0.0 0.0

-3.876684427833284e6 8.252999064266004e6 0.0
8.252999064266004e6 1.4681102301619805e6 0.0
0.0 0.0 0.0

-4.980967877493035e6 9.283669505310953e6 0.0
9.283669505310953e6 2.5345084204343185e6 0.0
0.0 0.0 0.0

-2.2115699427886074e6 1.213632010715222e7 0.0
1.213632010715222e7 -2.424033973070853e6 0.0
0.0 0.0 0.0

590028.2378308475 5.777392857745546e6 0.0
5.777392857745546e6 -4.172460930882086e6 0.0
0.0 0.0 0.0

465490.4514789304 1.4665400896931347e6 0.0
1.4665400896931347e6 -2.4312625967840683e6 0.0
0.0 0.0 0.0

657953.6868806281 6.412797500598456e6 0.0
6.412797500598456e6 -5.436385162207157e6 0.0
0.0 0.0 0.0

662015.1167774941 2.765194191016958e6 0.0
2.765194191016958e6 -3.64323495085693e6 0.0
0.0 0.0 0.0

-154672.7967464109 9.72594442904259e6 0.0
9.72594442904259e6 5.650198413116734e6 0.0
0.0 0.0 0.0

-9.81675928863465e6 1.1151997672333611e7 0.0
1.1151997672333611e7 6.201934343565861e6 0.0
0.0 0.0 0.0

-2.0058747023670732e6 437710.8685107241 0.0
437710.8685107241 3.1048623116244404e6 0.0
0.0 0.0 0.0

1.9074349811346908e6 7.434344465536721e6 0.0
7.434344465536721e6 -7.869277196700855e6 0.0
0.0 0.0 0.0

-2.402577368646676e6 1.208275063467881e7 0.0
1.208275063467881e7 -1.6009031355327899e6 0.0
0.0 0.0 0.0

-1.543408942277504e6 1.0229053163867392e7 0.0
1.0229053163867392e7 325934.8652390498 0.0
0.0 0.0 0.0

1.1560122548865648e6 7.070516397447886e6 0.0
7.070516397447886e6 -6.739105461759271e6 0.0
0.0 0.0 0.0

-1.036972619536373e7 1.0370928557598196e7 0.0
1.0370928557598196e7 6.9064252393655665e6 0.0
0.0 0.0 0.0

-3.548371813863445e6 9.036659254186565e6 0.0
9.036659254186565e6 6.181600496575654e6 0.0
0.0 0.0 0.0

-2.0805421498181302e7 7.22496296251747e6 0.0
7.22496296251747e6 9.969367771469172e6 0.0
0.0 0.0 0.0

-2.456371864510948e6 9.5421413726905e6 0.0
9.5421413726905e6 2.986818939196255e6 0.0
0.0 0.0 0.0

119690.89156842395 7.334219344854378e6 0.0
7.334219344854378e6 -4.765735886581735e6 0.0
0.0 0.0 0.0

1.43385303329468e7 1.14503147490141e7 0.0
1.14503147490141e7 906.3177855396643 0.0
0.0 0.0 0.0

-5.939624212362388e6 8.202676030672411e6 0.0
8.202676030672411e6 9.761208992915113e6 0.0
0.0 0.0 0.0

-893410.4896642691 3.8046014450572995e6 0.0
3.8046014450572995e6 221618.63957156328 0.0
0.0 0.0 0.0

-429131.28935568087 9.99750273498609e6 0.0
9.99750273498609e6 -142678.12590229514 0.0
0.0 0.0 0.0

36723.91558025405 8.88736439799525e6 0.0
8.88736439799525e6 -5.859372551501595e6 0.0
0.0 0.0 0.0

238352.18057958456 1.2545121369616903e7 0.0
1.2545121369616903e7 -3.5849208424979732e6 0.0
0.0 0.0 0.0

-4.234743691078128e6 8.90957309340138e6 0.0
8.90957309340138e6 1.873272655448463e6 0.0
0.0 0.0 0.0

-9.133156957825344e6 701186.606872169 0.0
701186.606872169 1.0175917210072681e7 0.0
0.0 0.0 0.0

-1.087823706278508e7 1.0467401925376108e7 0.0
1.0467401925376108e7 6.697050741573826e6 0.0
0.0 0.0 0.0

-3.1480995580165405e6 1.0278527948466511e7 0.0
1.0278527948466511e7 1.0756340162128308e6 0.0
0.0 0.0 0.0

-5.049778821280727e6 9.09426749252875e6 0.0
9.09426749252875e6 2.2059064107757313e6 0.0
0.0 0.0 0.0

-5.914385311490771e6 1.201569222396485e7 0.0
1.201569222396485e7 2.0263171406348846e6 0.0
0.0 0.0 0.0

-6.186130250108553e6 9.958947923876561e6 0.0
9.958947923876561e6 3.235349495818202e6 0.0
0.0 0.0 0.0

-481986.65389023273 1.0216131923241753e7 0.0
1.0216131923241753e7 -864310.7067295925 0.0
0.0 0.0 0.0

-1.6296970782964155e6 9.952075326259557e6 0.0
9.952075326259557e6 1.7953807835826958e6 0.0
0.0 0.0 0.0

1.2815627055358517e6 8.92987205913204e6 0.0
8.92987205913204e6 -3.209709120087712e6 0.0
0.0 0.0 0.0

-413866.7485843608 9.261354249830887e6 0.0
9.261354249830887e6 -6.724875997962771e6 0.0
0.0 0.0 0.0

-633351.3955300652 1.0324657068473205e7 0.0
1.0324657068473205e7 -557800.5925157911 0.0
0.0 0.0 0.0

-3.896602987664411e6 8.116514108820738e6 0.0
8.116514108820738e6 1.0928770709442548e6 0.0
0.0 0.0 0.0

-5.407960785666866e6 4.748351194888231e6 0.0
4.748351194888231e6 1.0265466871102236e7 0.0
0.0 0.0 0.0

-2.4692003588354876e6 1.0328448514264444e7 0.0
1.0328448514264444e7 -1.7278041775358152e6 0.0
0.0 0.0 0.0

-829358.0172754342 8.730428170152107e6 0.0
8.730428170152107e6 -4.1577679411376086e6 0.0
0.0 0.0 0.0

622749.1666024211 5.589724771695005e6 0.0
5.589724771695005e6 -4.365104707596792e6 0.0
0.0 0.0 0.0

-6.219974162063783e6 8.104846812734865e6 0.0
8.104846812734865e6 8.888474449718267e6 0.0
0.0 0.0 0.0

-1.6198417969653842e6 1.0399464847577441e7 0.0
1.0399464847577441e7 1.0986837216415592e6 0.0
0.0 0.0 0.0

-4.320180291987485e6 5.091833805889186e6 0.0
5.091833805889186e6 5.053672413345553e6 0.0
0.0 0.0 0.0

-3.9660752970181904e6 8.73551492007823e6 0.0
8.73551492007823e6 1.8514740294770089e6 0.0
0.0 0.0 0.0

-2.6765250320636556e6 1.0715029633942084e7 0.0
1.0715029633942084e7 621052.3342327959 0.0
0.0 0.0 0.0

-4.539448284047434e6 5.345783263939434e6 0.0
5.345783263939434e6 3.659323862651186e6 0.0
0.0 0.0 0.0

-6.0543687527681105e6 5.038525753345051e6 0.0
5.038525753345051e6 6.85172374505306e6 0.0
0.0 0.0 0.0

-2.648693038047848e6 5.42982745782205e6 0.0
5.42982745782205e6 1.5782691001088445e6 0.0
0.0 0.0 0.0

-965842.4633045467 1.8738304645668315e6 0.0
1.8738304645668315e6 720612.9470572877 0.0
0.0 0.0 0.0

-4.621461425803101e6 9.29843339614716e6 0.0
9.29843339614716e6 2.765905937516752e6 0.0
0.0 0.0 0.0

342457.7196686645 8.788809942504374e6 0.0
8.788809942504374e6 -6.765911378834568e6 0.0
0.0 0.0 0.0

-106836.12528993888 8.986952857834792e6 0.0
8.986952857834792e6 -5.552110332593114e6 0.0
0.0 0.0 0.0

-1.4489113346100327e7 6.852506063935415e6 0.0
6.852506063935415e6 6.387878530703288e6 0.0
0.0 0.0 0.0

-8.2629821605562e6 -805327.1931107026 0.0
-805327.1931107026 1.2371312853217637e7 0.0
0.0 0.0 0.0

39107.507961729076 9.106241838892063e6 0.0
9.106241838892063e6 -5.1295807448584065e6 0.0
0.0 0.0 0.0

-6.599579847145328e6 1.0301860240057692e7 0.0
1.0301860240057692e7 3.0779619850391853e6 0.0
0.0 0.0 0.0

-640494.7996142444 9.846913490756849e6 0.0
9.846913490756849e6 969932.6004831644 0.0
0.0 0.0 0.0

-20312.058672825267 898162.5437978436 0.0
898162.5437978436 -449402.27927642374 0.0
0.0 0.0 0.0

-409235.5441858256 9.947460877979044e6 0.0
9.947460877979044e6 -1.0148250837944611e6 0.0
0.0 0.0 0.0

-3.232697946452664e6 8.680778148367349e6 0.0
8.680778148367349e6 -905753.0896277286 0.0
0.0 0.0 0.0

-1.0673077116293903e6 5.62421806755161e6 0.0
5.62421806755161e6 -1.0148648642620048e6 0.0
0.0 0.0 0.0

2.5886090783301913e6 6.248485628194489e6 0.0
6.248485628194489e6 -7.6206747406501025e6 0.0
0.0 0.0 0.0

-477535.0757573263 5.089445749406591e6 0.0
5.089445749406591e6 -2.9310939044856946e6 0.0
0.0 0.0 0.0

-2.526367001494628e6 1.118117211314378e6 0.0
1.118117211314378e6 1.2577988218711605e6 0.0
0.0 0.0 0.0

-2.320057428736142e6 1.099846772452512e7 0.0
1.099846772452512e7 -2.5776196463085455e6 0.0
0.0 0.0 0.0

-1.348271561112419e6 1.0877413786276026e7 0.0
1.0877413786276026e7 2.9550397738516824e6 0.0
0.0 0.0 0.0

-402242.2192027692 4.369517403408139e6 0.0
4.369517403408139e6 -2.1268379455173914e6 0.0
0.0 0.0 0.0

-3.728422273113031e6 8.473478633472294e6 0.0
8.473478633472294e6 6.105329413480011e6 0.0
0.0 0.0 0.0

-1.0495944726353046e7 1.1006208034032412e7 0.0
1.1006208034032412e7 6.561326593069321e6 0.0
0.0 0.0 0.0

-1.054245265745067e6 3.8207231511301887e6 0.0
3.8207231511301887e6 -345487.17794104177 0.0
0.0 0.0 0.0

-1.5925836089801579e6 9.754686362134501e6 0.0
9.754686362134501e6 2.0577992324308415e6 0.0
0.0 0.0 0.0

-91373.56826537778 7.41031159140168e6 0.0
7.41031159140168e6 -4.884741431340697e6 0.0
0.0 0.0 0.0

-6.420644372686423e6 8.73980717122352e6 0.0
8.73980717122352e6 1.4392728726085005e6 0.0
0.0 0.0 0.0

-407453.5007461345 3.5738092432827316e6 0.0
3.5738092432827316e6 -1.1744841774198844e6 0.0
0.0 0.0 0.0

-4.470453221112645e6 1.0503717368583854e7 0.0
1.0503717368583854e7 890159.6041882439 0.0
0.0 0.0 0.0

2.568285490529198e6 9.891637120792875e6 0.0
9.891637120792875e6 3.1907911648706095e6 0.0
0.0 0.0 0.0

-3.965327833264942e6 9.270092030934747e6 0.0
9.270092030934747e6 -12631.69524700963 0.0
0.0 0.0 0.0

22031.061582841678 7.346520878554019e6 0.0
7.346520878554019e6 -4.479490897680733e6 0.0
0.0 0.0 0.0

-4.1213120283804834e6 9.621376698811488e6 0.0
9.621376698811488e6 2.6296072524851486e6 0.0
0.0 0.0 0.0

-8.403040856509993e6 -3.4092630781131377e6 0.0
-3.4092630781131377e6 1.4396286964063741e7 0.0
0.0 0.0 0.0

-2.4885416967943897e6 8.963442773021625e6 0.0
8.963442773021625e6 1.1376286662271228e6 0.0
0.0 0.0 0.0

-7.817920176836783e6 1.0806119809170786e7 0.0
1.0806119809170786e7 4.777621587632168e6 0.0
0.0 0.0 0.0

625017.9792881324 8.552363122961149e6 0.0
8.552363122961149e6 -6.7372437928616125e6 0.0
0.0 0.0 0.0

-363962.34888686566 9.910673729540283e6 0.0
9.910673729540283e6 -4.34153579929103e6 0.0
0.0 0.0 0.0

-364878.1987669866 9.69948620236818e6 0.0
9.69948620236818e6 -4.4612443837439325e6 0.0
0.0 0.0 0.0

-6.849572495656619e6 3.4991682026734343e6 0.0
3.4991682026734343e6 1.0140400703901388e7 0.0
0.0 0.0 0.0

-4.175838115687917e6 8.899564397255406e6 0.0
8.899564397255406e6 2.101329577659059e6 0.0
0.0 0.0 0.0

-1.7144617093181483e7 6.379295687187608e6 0.0
6.379295687187608e6 3.970774456141749e7 0.0
0.0 0.0 0.0

4.1165572224768028e6 9.46764395063185e6 0.0
9.46764395063185e6 -1.0669177428009834e7 0.0
0.0 0.0 0.0

-9.865370722981587e6 7.636168253291421e6 0.0
7.636168253291421e6 5.294638751742287e6 0.0
0.0 0.0 0.0

-1.9520250533462968e6 1.0152155559678704e7 0.0
1.0152155559678704e7 1.3750538146818841e6 0.0
0.0 0.0 0.0

-8.424952931068517e6 9.301170077955812e6 0.0
9.301170077955812e6 1.0900405555443997e6 0.0
0.0 0.0 0.0

-25695.655575911805 2.981560936522849e6 0.0
2.981560936522849e6 -747424.6510155817 0.0
0.0 0.0 0.0

-3.6914241953868233e6 6.255360972229353e6 0.0
6.255360972229353e6 2.436620966424751e6 0.0
0.0 0.0 0.0

-4.39382564162035e6 1.0402894011384187e7 0.0
1.0402894011384187e7 403712.83199353074 0.0
0.0 0.0 0.0

-1.5740520851376934e6 1.209074518823416e6 0.0
1.209074518823416e6 1.2870516878079744e6 0.0
0.0 0.0 0.0

3.382441747169297e6 1.0717047376773942e7 0.0
1.0717047376773942e7 3.1609121610282706e6 0.0
0.0 0.0 0.0

-2.0877041863318163e6 9.659147044154098e6 0.0
9.659147044154098e6 3.339098313544604e6 0.0
0.0 0.0 0.0

-3.273940432616392e6 7.4602340041126935e6 0.0
7.4602340041126935e6 2.1814102559666834e6 0.0
0.0 0.0 0.0

-1.7398849628948912e7 8.139283597469916e6 0.0
8.139283597469916e6 1.0952498472789334e7 0.0
0.0 0.0 0.0

1.477708566297987e6 8.318046221957874e6 0.0
8.318046221957874e6 -1.8541446079456117e6 0.0
0.0 0.0 0.0

1.6495377798604423e6 8.963640913331157e6 0.0
8.963640913331157e6 -3.247584419652665e6 0.0
0.0 0.0 0.0

-4.735358016699591e6 9.972464484606145e6 0.0
9.972464484606145e6 2.723737528547253e6 0.0
0.0 0.0 0.0

-2.500319385035149e6 1.059302243978959e7 0.0
1.059302243978959e7 102015.08577172586 0.0
0.0 0.0 0.0

143718.39077530545 7.998026593932258e6 0.0
7.998026593932258e6 -3.714061817093035e6 0.0
0.0 0.0 0.0

1.487094852116798e6 9.736328315997897e6 0.0
9.736328315997897e6 -3.834957862650624e6 0.0
0.0 0.0 0.0

-3.0155563716668e6 8.509029876952777e6 0.0
8.509029876952777e6 2.9593289668917065e6 0.0
0.0 0.0 0.0

-7.841860206676947e6 1.2998430545515114e7 0.0
1.2998430545515114e7 3.7743452550328504e6 0.0
0.0 0.0 0.0

-4.30497656886454e6 9.071196338734385e6 0.0
9.071196338734385e6 2.710910466911661e6 0.0
0.0 0.0 0.0

-1.0225098237468515e7 1.0991521187566588e7 0.0
1.0991521187566588e7 6.550134440228999e6 0.0
0.0 0.0 0.0

-22858.91109519452 9.292772310746383e6 0.0
9.292772310746383e6 -7.040874938279435e6 0.0
0.0 0.0 0.0

-200724.57725051045 1.0791695693264617e7 0.0
1.0791695693264617e7 -8.341210184652994e6 0.0
0.0 0.0 0.0

-3.0057104640150648e6 1.3057099836525878e7 0.0
1.3057099836525878e7 2.5437532512419287e7 0.0
0.0 0.0 0.0

-1.5030372506026311e6 1.0695500778742794e7 0.0
1.0695500778742794e7 3.325195572533706e6 0.0
0.0 0.0 0.0

1.178951274549922e6 7.660879448109434e6 0.0
7.660879448109434e6 -7.494251613367023e6 0.0
0.0 0.0 0.0

-8.458234784868948e6 1.2770751952891268e7 0.0
1.2770751952891268e7 3.4180257500799103e6 0.0
0.0 0.0 0.0

-3.282394384800595e6 1.0747500164406322e7 0.0
1.0747500164406322e7 -872512.2960626807 0.0
0.0 0.0 0.0

-681886.1321681803 1.0012477389304785e7 0.0
1.0012477389304785e7 -719926.964335108 0.0
0.0 0.0 0.0

-1.6998309781217547e6 1.1097461536440268e7 0.0
1.1097461536440268e7 -2.4233680732733775e6 0.0
0.0 0.0 0.0

-1.854855143330808e7 7.997623979652875e6 0.0
7.997623979652875e6 1.1175764607057363e7 0.0
0.0 0.0 0.0

-7.557385233758332e6 1.0691182376405582e7 0.0
1.0691182376405582e7 4.558394479409132e6 0.0
0.0 0.0 0.0

-5.025698199567009e6 1.0024664422239685e7 0.0
1.0024664422239685e7 2.598882018369319e6 0.0
0.0 0.0 0.0

2.293689729996288e6 6.225185905925564e6 0.0
6.225185905925564e6 -8.08965699851049e6 0.0
0.0 0.0 0.0

-183439.8225254966 1.2931038987582672e7 0.0
1.2931038987582672e7 -3.623203629325574e6 0.0
0.0 0.0 0.0

402528.8972568568 8.672753165657729e6 0.0
8.672753165657729e6 -6.512634109572678e6 0.0
0.0 0.0 0.0

-1.0773790766019323e6 1.3117438644309033e7 0.0
1.3117438644309033e7 -2.733842231920437e6 0.0
0.0 0.0 0.0

459442.62048997567 7.652907320500823e6 0.0
7.652907320500823e6 -3.232180736446364e6 0.0
0.0 0.0 0.0

-1.6953472027335027e6 9.932031892612172e6 0.0
9.932031892612172e6 2.2373151071516736e6 0.0
0.0 0.0 0.0

-5.818544971076802e6 1.0224207879622487e7 0.0
1.0224207879622487e7 3.534040662069056e6 0.0
0.0 0.0 0.0

-489095.5783939852 2.0292101045957939e6 0.0
2.0292101045957939e6 165696.2552840743 0.0
0.0 0.0 0.0

4.453517610065972e6 9.404264611588433e6 0.0
9.404264611588433e6 -4.195387078652814e6 0.0
0.0 0.0 0.0

-2.412361595849403e7 5.62857980144975e6 0.0
5.62857980144975e6 1.1978252534171443e7 0.0
0.0 0.0 0.0

-7.152434647947817e6 3.8173892728059394e6 0.0
3.8173892728059394e6 8.917288012034602e6 0.0
0.0 0.0 0.0

-3.255618240818058e6 1.0035479256638566e7 0.0
1.0035479256638566e7 990645.3554719395 0.0
0.0 0.0 0.0

1.6100417497959547e6 9.529765171140281e6 0.0
9.529765171140281e6 -3.767208072763908e6 0.0
0.0 0.0 0.0

1.523023501823553e6 5.577241635538333e6 0.0
5.577241635538333e6 -6.114823606579123e6 0.0
0.0 0.0 0.0

-2.184103077617278e6 1.019943973864947e7 0.0
1.019943973864947e7 1.1109281070896275e6 0.0
0.0 0.0 0.0

-7.12555018826575e6 -2.667410149152055e6 0.0
-2.667410149152055e6 9.398132976827774e6 0.0
0.0 0.0 0.0

-843794.0759290792 1.1314564747777317e7 0.0
1.1314564747777317e7 -1.1076743527797295e7 0.0
0.0 0.0 0.0

-1.1345691597904935e6 1.7823059169497836e7 0.0
1.7823059169497836e7 3.63014886313792e7 0.0
0.0 0.0 0.0

325004.9822610293 8.439164003186056e6 0.0
8.439164003186056e6 -6.05226438139959e6 0.0
0.0 0.0 0.0

831545.9011152694 1.48892135124404e6 0.0
1.48892135124404e6 -2.9584348513846793e6 0.0
0.0 0.0 0.0

-2.4600312319951933e6 9.599525206675535e6 0.0
9.599525206675535e6 5.253140634769976e6 0.0
0.0 0.0 0.0

-9.077775938292105e6 -3.817163168209956e6 0.0
-3.817163168209956e6 1.4342724583255708e7 0.0
0.0 0.0 0.0

204949.12480010802 3.7508563520958526e6 0.0
3.7508563520958526e6 -2.9681815918181636e6 0.0
0.0 0.0 0.0

-7.316568869054899e6 1.3901913014813783e7 0.0
1.3901913014813783e7 2.0393564579153955e6 0.0
0.0 0.0 0.0

-2.3875389051755928e6 9.501187150356177e6 0.0
9.501187150356177e6 -2.4640316317364294e6 0.0
0.0 0.0 0.0

-998752.5895672301 9.94066708011452e6 0.0
9.94066708011452e6 1.949755597388885e6 0.0
0.0 0.0 0.0

-2.3948191738778893e6 1.0532217344687682e7 0.0
1.0532217344687682e7 55386.499578767456 0.0
0.0 0.0 0.0

-9.519871557384523e6 9.547591645738918e6 0.0
9.547591645738918e6 1.8206133635788783e6 0.0
0.0 0.0 0.0

-7.220285972939609e6 1.0551587073407618e7 0.0
1.0551587073407618e7 4.461728491044138e6 0.0
0.0 0.0 0.0

-619522.2786671869 1.0165097394018961e7 0.0
1.0165097394018961e7 263534.7897335748 0.0
0.0 0.0 0.0

-1.7418034340527821e6 1.0095028043953806e7 0.0
1.0095028043953806e7 1.5493319609225583e6 0.0
0.0 0.0 0.0

-839470.2805637005 8.936574561703255e6 0.0
8.936574561703255e6 -3.9872167051381622e6 0.0
0.0 0.0 0.0

-1.8604479087213217e6 1.1065453031375708e7 0.0
1.1065453031375708e7 -3.020777703607951e6 0.0
0.0 0.0 0.0

-1.0284863243968625e7 -2.3843468946380545e6 0.0
-2.3843468946380545e6 1.3255479790923748e7 0.0
0.0 0.0 0.0

-1.7611407942054223e7 8.792265074685879e6 0.0
8.792265074685879e6 1.1307782559610238e7 0.0
0.0 0.0 0.0

-1.0998954194684366e7 8.903566588376118e6 0.0
8.903566588376118e6 7.061656663594382e6 0.0
0.0 0.0 0.0

-1.403058933555492e7 4.1651002133709393e6 0.0
4.1651002133709393e6 8.703934050043408e6 0.0
0.0 0.0 0.0

-521410.4666725646 1.0368168086431507e7 0.0
1.0368168086431507e7 -497325.7459522335 0.0
0.0 0.0 0.0

-3.136393928845664e6 1.0105830075006997e7 0.0
1.0105830075006997e7 117708.88499808847 0.0
0.0 0.0 0.0

-1.124640231943549e7 6.36322935833022e6 0.0
6.36322935833022e6 6.302032724950919e6 0.0
0.0 0.0 0.0

505636.43795135524 3.194027723716885e6 0.0
3.194027723716885e6 -3.06472802559601e6 0.0
0.0 0.0 0.0

-1.4445475967812962e6 9.991509628818572e6 0.0
9.991509628818572e6 2.116113162601039e6 0.0
0.0 0.0 0.0

1.571898510135992e6 7.487795936140479e6 0.0
7.487795936140479e6 -7.279430130516794e6 0.0
0.0 0.0 0.0

-5.978082889672166e6 4.205106862454029e6 0.0
4.205106862454029e6 9.50805095766011e6 0.0
0.0 0.0 0.0

-8.74879533438424e6 -3.741064268917492e6 0.0
-3.741064268917492e6 1.290308223899141e7 0.0
0.0 0.0 0.0

2.3427327283022054e6 6.250145826856978e6 0.0
6.250145826856978e6 -8.052829487780312e6 0.0
0.0 0.0 0.0

-1.5945474420023248e7 5.918711637857071e6 0.0
5.918711637857071e6 8.045747563086615e6 0.0
0.0 0.0 0.0

-4.0348880991463503e6 -1.52184447454023e6 0.0
-1.52184447454023e6 4.541720726021751e6 0.0
0.0 0.0 0.0

-2.882807560968118e6 4760.220699255366 0.0
4760.220699255366 2.356642932336199e6 0.0
0.0 0.0 0.0

142155.1536697105 3.0767899411493116e6 0.0
3.0767899411493116e6 -4.203316819969931e6 0.0
0.0 0.0 0.0

-1.350628433386677e6 687244.0682129057 0.0
687244.0682129057 1.5863485902108236e6 0.0
0.0 0.0 0.0

-1.193621157189609e7 1.8153305458973337e7 0.0
1.8153305458973337e7 2.74850950937879e6 0.0
0.0 0.0 0.0

-3.474989541501839e6 7.754366212097546e6 0.0
7.754366212097546e6 2.288945533167541e6 0.0
0.0 0.0 0.0

2.4269384955310635e6 6.71927267416247e6 0.0
6.71927267416247e6 -9.200361731674999e6 0.0
0.0 0.0 0.0

1.9150260143603836e6 6.098138307307501e6 0.0
6.098138307307501e6 -7.415929968017647e6 0.0
0.0 0.0 0.0

-4.282066936654685e6 8.876361300285572e6 0.0
8.876361300285572e6 2.0035806177702823e6 0.0
0.0 0.0 0.0

-1.0363682728324229e7 1.0590303125136694e7 0.0
1.0590303125136694e7 6.43921417020007e6 0.0
0.0 0.0 0.0

-422516.3384643998 5.796154652302452e6 0.0
5.796154652302452e6 3.1877067229916286e6 0.0
0.0 0.0 0.0

-3.2097443492618906e6 9.03071106468201e6 0.0
9.03071106468201e6 6.148947053952314e6 0.0
0.0 0.0 0.0

-332783.8665215593 1.2822323775584342e7 0.0
1.2822323775584342e7 -4.0571273587280973e6 0.0
0.0 0.0 0.0

-3.8101156309530735e6 -1.9184270440218644e6 0.0
-1.9184270440218644e6 6.11296171414756e6 0.0
0.0 0.0 0.0

-1.1036331785457114e7 3.4475241941491636e6 0.0
3.4475241941491636e6 6.071428112728906e6 0.0
0.0 0.0 0.0

-7.112440138429521e6 1.0493547614179337e7 0.0
1.0493547614179337e7 4.241730122890428e6 0.0
0.0 0.0 0.0

-5.623470816087148e6 1.1762614753763616e7 0.0
1.1762614753763616e7 1.1185419276939085e7 0.0
0.0 0.0 0.0

-280853.12001271604 1.2873114722051287e7 0.0
1.2873114722051287e7 -3.494025781577657e6 0.0
0.0 0.0 0.0

-2.6889284231953826e6 1.088730548378736e7 0.0
1.088730548378736e7 863898.2245771842 0.0
0.0 0.0 0.0

-3.589884145663837e6 9.342992720583946e6 0.0
9.342992720583946e6 2.9084530132055664e6 0.0
0.0 0.0 0.0

-2.2040942804923146e6 1.0446190755242953e7 0.0
1.0446190755242953e7 58706.58623019606 0.0
0.0 0.0 0.0

-2.386042928517794e7 8.806491882499367e6 0.0
8.806491882499367e6 6.5161801236032825e6 0.0
0.0 0.0 0.0

-3.712890658602807e6 7.581747882080144e6 0.0
7.581747882080144e6 2.0085710812031038e6 0.0
0.0 0.0 0.0

-2.3618349870626004e6 1.0877137655878961e7 0.0
1.0877137655878961e7 339173.63379709073 0.0
0.0 0.0 0.0

-3.2767579119008724e6 9.672156481316784e6 0.0
9.672156481316784e6 2.586223980240356e6 0.0
0.0 0.0 0.0

-818538.4757021449 1.247065529976721e7 0.0
1.247065529976721e7 -3.378702286181047e6 0.0
0.0 0.0 0.0

1.2911511383434797e6 5.60680308463006e6 0.0
5.60680308463006e6 -5.752306847283454e6 0.0
0.0 0.0 0.0

-1.841823785944988e6 1.1860692155349383e7 0.0
1.1860692155349383e7 -2.779486236079891e6 0.0
0.0 0.0 0.0

-1.960952886482387e7 8.327772467781394e6 0.0
8.327772467781394e6 1.073581141439998e7 0.0
0.0 0.0 0.0

-6.616720075008731e6 1.0297806185147543e7 0.0
1.0297806185147543e7 3.899245457648887e6 0.0
0.0 0.0 0.0

-1.1739953924609579e6 2.0539231763070247e6 0.0
2.0539231763070247e6 78304.19975799439 0.0
0.0 0.0 0.0

-1.4166092090905607e6 1.0217782797561144e7 0.0
1.0217782797561144e7 -3.5937558765384485e6 0.0
0.0 0.0 0.0

3.659341683465666e6 9.24029161830089e6 0.0
9.24029161830089e6 -4.451924511094387e6 0.0
0.0 0.0 0.0

-2.1765681853781354e7 1.1011408066218643e7 0.0
1.1011408066218643e7 6.205145052074367e6 0.0
0.0 0.0 0.0

-457349.5067638891 9.583368669539781e6 0.0
9.583368669539781e6 445513.5034248611 0.0
0.0 0.0 0.0

1.4612503180829203e6 7.488600580672355e6 0.0
7.488600580672355e6 -7.648707066439127e6 0.0
0.0 0.0 0.0

-1.098252924079998e6 8.875464079805369e6 0.0
8.875464079805369e6 -3.908107359859476e6 0.0
0.0 0.0 0.0

-1.8983914844684694e6 1.0357526736038009e7 0.0
1.0357526736038009e7 1.263015058156841e6 0.0
0.0 0.0 0.0

-1.0420182246104276e7 1.0450984609465864e7 0.0
1.0450984609465864e7 6.713389080436778e6 0.0
0.0 0.0 0.0

-4.969034023205142e6 1.0412012578657174e7 0.0
1.0412012578657174e7 1.2127330289346143e6 0.0
0.0 0.0 0.0

2.377236448792168e6 6.053864383902116e6 0.0
6.053864383902116e6 -7.272224768624285e6 0.0
0.0 0.0 0.0

-3.9757907329115462e6 1.2128246181551982e7 0.0
1.2128246181551982e7 6.209716246638641e6 0.0
0.0 0.0 0.0

-223933.30367202568 7.211126985237183e6 0.0
7.211126985237183e6 -3.596037416755761e6 0.0
0.0 0.0 0.0

-1.7656798330598116e7 1.0638583407906232e7 0.0
1.0638583407906232e7 4.769333629723795e6 0.0
0.0 0.0 0.0

-1.3564939728592236e6 1.06528127921828e6 0.0
1.06528127921828e6 657030.2810167428 0.0
0.0 0.0 0.0

-1.1086552314386163e6 922999.0743096825 0.0
922999.0743096825 1.3713767787318898e6 0.0
0.0 0.0 0.0

3.729357599233536e6 8.202387515667046e6 0.0
8.202387515667046e6 -2.3344510239485973e6 0.0
0.0 0.0 0.0

-3.1338348128041173e6 -891546.2089970285 0.0
-891546.2089970285 6.472045936600318e6 0.0
0.0 0.0 0.0

-323024.0627967195 9.714164252329228e6 0.0
9.714164252329228e6 416332.7572252902 0.0
0.0 0.0 0.0

-1.2700672740297618e6 1.1309569097963678e7 0.0
1.1309569097963678e7 3.2029289202600224e6 0.0
0.0 0.0 0.0

-8.611326594594095e6 1.1801078555396413e7 0.0
1.1801078555396413e7 4.262096862826661e6 0.0
0.0 0.0 0.0

-1.2095290256733127e7 -1.2966239621641112e6 0.0
-1.2966239621641112e6 1.634552945423229e7 0.0
0.0 0.0 0.0

484795.4154770165 8.70419569462581e6 0.0
8.70419569462581e6 -6.5969406663031215e6 0.0
0.0 0.0 0.0

-239241.67736799025 3.480002508518916e6 0.0
3.480002508518916e6 -3.5138489267165773e6 0.0
0.0 0.0 0.0

-1.831178185461093e6 1.027974089593834e7 0.0
1.027974089593834e7 946257.1897684337 0.0
0.0 0.0 0.0

-2.287108012440848e6 1.0828867664765742e7 0.0
1.0828867664765742e7 3.927551557026891e6 0.0
0.0 0.0 0.0

-5.23087497354419e6 -484379.4674404907 0.0
-484379.4674404907 5.7040723734310195e6 0.0
0.0 0.0 0.0

-6.879336651443753e6 3.0569952976421923e6 0.0
3.0569952976421923e6 6.330318256689701e6 0.0
0.0 0.0 0.0

-3.679432095414333e6 7.898579401287671e6 0.0
7.898579401287671e6 1.1680702823966416e6 0.0
0.0 0.0 0.0

-3.9765585123026576e6 3.8247782417158824e6 0.0
3.8247782417158824e6 7.595932708588547e6 0.0
0.0 0.0 0.0

1.367452051932851e6 9.545446809188047e6 0.0
9.545446809188047e6 -3.433818459626777e6 0.0
0.0 0.0 0.0

-1.6123749905802151e6 575057.5135710837 0.0
575057.5135710837 721174.7529058575 0.0
0.0 0.0 0.0

-1.219918280398712e7 -1.9086851831731377e6 0.0
-1.9086851831731377e6 1.848809035410898e7 0.0
0.0 0.0 0.0

1.3730566738919022e6 9.415113782615855e6 0.0
9.415113782615855e6 -3.656258137161922e6 0.0
0.0 0.0 0.0

-2.086946049290555e6 9.66244968460595e6 0.0
9.66244968460595e6 -2.2474649758706144e6 0.0
0.0 0.0 0.0

-1.1196060987567097e7 -1.3073756237064886e6 0.0
-1.3073756237064886e6 1.9660141629702587e7 0.0
0.0 0.0 0.0

267966.5365881957 1.2166228472294187e7 0.0
1.2166228472294187e7 -3.7466345198836187e6 0.0
0.0 0.0 0.0

-1.483075523278579e6 9.861975890291218e6 0.0
9.861975890291218e6 2.1191096942799934e6 0.0
0.0 0.0 0.0

-1.6841526922864404e6 6.927998569942734e6 0.0
6.927998569942734e6 -560750.2292369653 0.0
0.0 0.0 0.0

-3.1154703777215155e6 614796.7006114422 0.0
614796.7006114422 3.729281463214987e6 0.0
0.0 0.0 0.0

-2.849759662585533e6 578081.964750902 0.0
578081.964750902 1.5627051988735972e6 0.0
0.0 0.0 0.0

