# vtk DataFile Version 2.0
phase field modeling fracture
ASCII
DATASET UNSTRUCTURED_GRID
POINTS 2538 float
0.0 0.0 0.0
10.0 0.0 0.0
0.0 10.0 0.0
10.0 10.0 0.0
0.0 4.9995 0.0
0.0 5.0005 0.0
5.0 5.0 0.0
0.9416964895726688 0.0 0.0
1.803581725054446 0.0 0.0
2.592419885431098 0.0 0.0
3.314401822861676 0.0 0.0
3.975193910351406 0.0 0.0
4.579982132660152 0.0 0.0
5.133512780936812 0.0 0.0
5.640130319506143 0.0 0.0
6.103810708661955 0.0 0.0
6.528192895506818 0.0 0.0
6.916607540127679 0.0 0.0
7.272102969376355 0.0 0.0
7.597469242948583 0.0 0.0
7.895259826292669 0.0 0.0
8.167811885738017 0.0 0.0
8.417264413845215 0.0 0.0
8.645575169389538 0.0 0.0
8.854535961159101 0.0 0.0
9.045786767735546 0.0 0.0
9.220828555767493 0.0 0.0
9.38103509633881 0.0 0.0
9.527663687265145 0.0 0.0
9.661865124984566 0.0 0.0
9.784692609918062 0.0 0.0
9.897110148790482 0.0 0.0
10.0 0.09999999999992584 0.0
10.0 0.199999999999856 0.0
10.0 0.2999999999997771 0.0
10.0 0.3999999999996677 0.0
10.0 0.4999999999995511 0.0
10.0 0.5999999999994683 0.0
10.0 0.6999999999993983 0.0
10.0 0.7999999999993286 0.0
10.0 0.8999999999992587 0.0
10.0 0.9999999999991888 0.0
10.0 1.099999999999119 0.0
10.0 1.199999999999033 0.0
10.0 1.299999999998852 0.0
10.0 1.399999999998576 0.0
10.0 1.499999999998284 0.0
10.0 1.599999999997992 0.0
10.0 1.6999999999977 0.0
10.0 1.799999999997408 0.0
10.0 1.899999999997116 0.0
10.0 1.999999999996825 0.0
10.0 2.099999999996533 0.0
10.0 2.199999999996241 0.0
10.0 2.299999999995949 0.0
10.0 2.399999999995657 0.0
10.0 2.499999999995365 0.0
10.0 2.599999999995073 0.0
10.0 2.699999999994782 0.0
10.0 2.79999999999449 0.0
10.0 2.899999999994198 0.0
10.0 2.999999999993906 0.0
10.0 3.099999999993614 0.0
10.0 3.199999999993322 0.0
10.0 3.299999999993029 0.0
10.0 3.399999999992738 0.0
10.0 3.499999999992446 0.0
10.0 3.599999999992154 0.0
10.0 3.699999999991863 0.0
10.0 3.799999999991571 0.0
10.0 3.899999999991278 0.0
10.0 3.999999999991022 0.0
10.0 4.099999999991035 0.0
10.0 4.199999999991187 0.0
10.0 4.299999999991338 0.0
10.0 4.399999999991491 0.0
10.0 4.499999999991642 0.0
10.0 4.599999999991795 0.0
10.0 4.699999999991947 0.0
10.0 4.799999999992099 0.0
10.0 4.89999999999225 0.0
10.0 4.999999999992403 0.0
10.0 5.099999999992555 0.0
10.0 5.199999999992706 0.0
10.0 5.299999999992858 0.0
10.0 5.39999999999301 0.0
10.0 5.499999999993161 0.0
10.0 5.599999999993313 0.0
10.0 5.699999999993466 0.0
10.0 5.799999999993618 0.0
10.0 5.899999999993771 0.0
10.0 5.999999999993922 0.0
10.0 6.099999999994074 0.0
10.0 6.199999999994227 0.0
10.0 6.299999999994378 0.0
10.0 6.39999999999453 0.0
10.0 6.499999999994682 0.0
10.0 6.599999999994833 0.0
10.0 6.699999999994986 0.0
10.0 6.799999999995138 0.0
10.0 6.899999999995289 0.0
10.0 6.999999999995442 0.0
10.0 7.099999999995594 0.0
10.0 7.199999999995747 0.0
10.0 7.299999999995897 0.0
10.0 7.39999999999605 0.0
10.0 7.499999999996202 0.0
10.0 7.599999999996353 0.0
10.0 7.699999999996505 0.0
10.0 7.799999999996658 0.0
10.0 7.899999999996808 0.0
10.0 7.999999999996962 0.0
10.0 8.099999999997113 0.0
10.0 8.199999999997265 0.0
10.0 8.299999999997418 0.0
10.0 8.399999999997569 0.0
10.0 8.499999999997721 0.0
10.0 8.599999999997873 0.0
10.0 8.699999999998024 0.0
10.0 8.799999999998176 0.0
10.0 8.899999999998329 0.0
10.0 8.99999999999848 0.0
10.0 9.099999999998634 0.0
10.0 9.199999999998786 0.0
10.0 9.299999999998937 0.0
10.0 9.399999999999089 0.0
10.0 9.499999999999241 0.0
10.0 9.599999999999392 0.0
10.0 9.699999999999545 0.0
10.0 9.799999999999697 0.0
10.0 9.899999999999848 0.0
9.897110148790565 10.0 0.0
9.784692609918244 10.0 0.0
9.66186512498486 10.0 0.0
9.527663687265571 10.0 0.0
9.381035096339392 10.0 0.0
9.220828555768257 10.0 0.0
9.045786767736512 10.0 0.0
8.854535961160305 10.0 0.0
8.645575169391027 10.0 0.0
8.417264413847017 10.0 0.0
8.167811885740178 10.0 0.0
7.895259826295246 10.0 0.0
7.597469242951631 10.0 0.0
7.272102969379938 10.0 0.0
6.916607540131873 10.0 0.0
6.528192895511704 10.0 0.0
6.103810708667616 10.0 0.0
5.640130319512691 10.0 0.0
5.13351278094435 10.0 0.0
4.579982132668816 10.0 0.0
3.975193910361222 10.0 0.0
3.314401822869852 10.0 0.0
2.592419885437257 10.0 0.0
1.803581725058137 10.0 0.0
0.9416964895740705 10.0 0.0
0.0 9.00010000000243 0.0
0.0 8.000200000005481 0.0
0.0 7.000300000005135 0.0
0.0 6.000400000002569 0.0
0.901790731451151 5.000409820926855 0.0
1.657200899774397 5.000334279910023 0.0
2.289991063707192 5.000271000893629 0.0
2.820065163538221 5.000217993483646 0.0
3.264096435579811 5.000173590356442 0.0
3.636051481595835 5.00013639485184 0.0
3.947629914072366 5.000105237008593 0.0
4.208632181002628 5.0000791367819 0.0
4.427267949625672 5.000057273205037 0.0
4.610414277633563 5.000038958572237 0.0
4.763831845154243 5.000023616815485 0.0
4.892346298799659 5.00001076537012 0.0
4.892346298799748 4.99998923462988 0.0
4.763831845154455 4.999976383184515 0.0
4.610414277633943 4.999961041427763 0.0
4.427267949626277 4.999942726794963 0.0
4.208632181003523 4.9999208632181 0.0
3.94762991407365 4.999894762991407 0.0
3.636051481597624 4.99986360514816 0.0
3.264096435582253 4.999826409643559 0.0
2.820065163541503 4.999782006516354 0.0
2.289991063711534 4.999728999106371 0.0
1.657200899778495 4.999665720089978 0.0
0.9017907314530094 4.999590179073145 0.0
0.0 3.999600000002013 0.0
0.0 2.999700000005187 0.0
0.0 1.99980000000512 0.0
0.0 0.9999000000025537 0.0
9.897889398521345 2.93573355845387 0.0
9.906568249974548 7.060009441434234 0.0
9.913122631074113 3.64016132281653 0.0
9.922462129543863 6.354535290629151 0.0
9.917693659967533 4.354211663134567 0.0
9.909873057440208 5.637584487339942 0.0
9.914183254994697 4.950672966925282 0.0
9.913885043715895 7.666887930262611 0.0
9.91009668007573 2.351889069770817 0.0
9.905135696074536 8.138152454502785 0.0
9.913397459621809 1.849999999997262 0.0
7.099302372137626 0.297750452375005 0.0
7.095143729410097 9.700359990366296 0.0
4.942912558701401 5.095838627899509 0.0
4.315009232304429 5.165022115481685 0.0
4.946182472483878 4.906763777264103 0.0
4.317967462990024 4.825955043772673 0.0
9.916390871492647 8.64999999999792 0.0
9.921504649680616 1.368376469890358 0.0
8.292538149791614 0.206877570318844 0.0
8.292538149793597 9.793122429681448 0.0
5.884594439766573 9.587645267048616 0.0
5.794826292691579 0.3794853783929359 0.0
9.913397459621425 9.049999999998557 0.0
9.908526577714177 0.9568239351922434 0.0
3.456851160380649 5.315740054130451 0.0
3.457889657868442 4.707121019609468 0.0
8.945214200703926 0.1503383337970344 0.0
8.950161364448409 9.8413906539257 0.0
9.913862335499305 4.055887885208452 0.0
9.916697353372683 4.650158482607802 0.0
9.919076340414442 6.049999999994006 0.0
9.906994308667635 5.25749687748192 0.0
9.917490342358025 6.655979201891897 0.0
9.915757520293784 7.343848891656911 0.0
9.910049507471042 3.363474386285078 0.0
9.914471988502868 2.647400064832979 0.0
9.91474124160965 9.337490423485129 0.0
9.916971008170838 0.6499999999994355 0.0
4.307157269264427 9.509674045029644 0.0
4.331527375865619 0.4401616696422582 0.0
9.45434939180249 9.878397030523757 0.0
9.457696120412969 0.1270877537061785 0.0
2.555070293622606 5.422044496190925 0.0
2.566232917480916 4.608001224030952 0.0
3.026511860837692 9.332320638257093 0.0
2.945561971800619 0.5895662714727601 0.0
7.7395404387124 0.2511088946967771 0.0
7.736379255744154 9.745848826372828 0.0
4.687135269408529 5.122111433928926 0.0
4.688420821504113 4.871895064967488 0.0
9.910554884115975 0.3448356354522978 0.0
9.911230082250466 9.65764729394159 0.0
9.921953841410854 6.851023993342036 0.0
9.912065178606017 5.448170483544033 0.0
9.911660025326261 3.861846960030188 0.0
9.914847467973438 3.14501593945607 0.0
9.913397459621425 5.849999999993703 0.0
9.913397459621425 7.849999999996735 0.0
9.906916878988277 2.15455769998631 0.0
9.913397459621425 8.349999999997479 0.0
9.909472363117661 1.640528221515488 0.0
9.913987325695956 1.152857110636247 0.0
9.913397459621425 8.849999999998241 0.0
0.9100099990995943 2.614215977520411 0.0
0.8395284981715456 7.451196254860987 0.0
9.723278867451556 9.898135916635193 0.0
9.723316350887044 0.09841820909386662 0.0
1.385819164827588 4.454539963646463 0.0
1.338343629665047 5.523111536005823 0.0
1.377179700550677 0.6809168304959698 0.0
1.418060461092743 9.285896715136046 0.0
9.91268220142518 0.1457914080939694 0.0
9.906737126737994 9.845745933882352 0.0
0.7108351382691361 6.537941170074089 0.0
1.527735020267026 6.915620208855231 0.0
1.630993885659103 7.838271825205868 0.0
2.232760943566823 7.370850737296832 0.0
2.243414218068206 6.688299277952821 0.0
2.779655053105118 7.021588754814074 0.0
2.80227799359795 7.632420170547022 0.0
3.282022065908813 7.305859666021318 0.0
3.327597298795347 7.857554136825748 0.0
3.743210251018715 7.549183328204379 0.0
3.716353232200752 7.062036086888612 0.0
4.111978858674101 7.27497101169417 0.0
4.104192177581432 6.879858986267289 0.0
4.436230765617037 7.045693351607117 0.0
4.430360014817357 6.703971783962796 0.0
4.732390145036301 6.849841042423394 0.0
5.056161327708878 5.095276573498806 0.0
5.111586796021131 4.999081142133581 0.0
5.169267363407189 5.09444870412406 0.0
5.223795108752053 4.996986220359468 0.0
5.281480803887719 5.092780870372803 0.0
5.335670761900611 4.994887492556936 0.0
5.393485214772442 5.090486192743301 0.0
5.447323082877892 4.992601527033996 0.0
5.505243219343024 5.087953380710069 0.0
5.558739102026105 4.990287787962959 0.0
5.616491581184779 5.085335255235766 0.0
5.669852346908056 4.9879269227514 0.0
5.727502713908907 5.082679981817038 0.0
5.780766004135139 4.988313988715834 0.0
5.838244881129535 5.080480568766611 0.0
5.891357695677371 4.986433849408193 0.0
5.948696036767613 5.077969900389505 0.0
6.001601341641615 4.981313698556656 0.0
6.058851024265095 5.074871552128682 0.0
6.111614020704875 4.978360695880202 0.0
6.168801161530775 5.072044953270978 0.0
6.221368818778567 4.975825765213497 0.0
6.278268309066882 5.066182320461055 0.0
6.330814273567539 4.972837984645718 0.0
6.387565032421376 5.062889771971895 0.0
6.437476667631405 4.971693683589553 0.0
6.496181111585419 5.060210690175857 0.0
6.539454812256072 4.964658165361536 0.0
6.604198202576491 5.056387520850258 0.0
6.648506025747331 4.939374587506267 0.0
6.714026758992516 5.05873885840664 0.0
6.764418045981209 4.959246676066148 0.0
6.8219334571197 5.055299567406268 0.0
6.873708540948134 4.960426349093742 0.0
6.930181428849307 5.053461390218819 0.0
6.981893615341967 4.96435459462232 0.0
7.037791764774784 5.051219747103022 0.0
7.090993561518408 4.96392420322464 0.0
5.504417457283294 4.900897920552702 0.0
7.145434864123609 5.048960634292441 0.0
6.054532384032612 4.883956083938546 0.0
6.738027949040956 4.850032323068674 0.0
7.198432914526514 4.956325226333323 0.0
7.252637187936749 5.046012229327236 0.0
7.30926729605109 4.948903216650376 0.0
7.248106275544042 4.860306312845646 0.0
7.363100274863074 4.849952416808486 0.0
7.365733472701664 5.039519554615095 0.0
7.308483293090149 5.137557220352172 0.0
6.768399513646964 5.145609705119954 0.0
7.422800035311104 5.132251445551834 0.0
7.358273518796229 5.235980394389298 0.0
7.480824155801127 5.227946127939927 0.0
7.302193400058628 4.761917474298247 0.0
7.413570879789824 4.754555110721153 0.0
7.414392998903179 5.334729114426734 0.0
7.352769630272076 4.660405502266205 0.0
7.467556835255426 4.658352623795039 0.0
7.536246869015014 5.328986926716081 0.0
7.478865844607288 5.432598185493195 0.0
7.406396991826072 4.556956233957538 0.0
7.523581002009154 4.552005631348623 0.0
7.597792398573263 5.429506106314967 0.0
7.540511043402902 5.53619421580439 0.0
7.46214474876342 4.452580994318881 0.0
7.5852185078634 4.446021810672608 0.0
7.663329342323453 5.533453399066901 0.0
7.603478967594521 5.643227430483237 0.0
7.513450346818673 4.347641323140766 0.0
7.640744971722214 4.333388343316237 0.0
7.727671715775243 5.642390483050116 0.0
7.667774597993788 5.753188858425915 0.0
7.570065256728661 4.230515669344811 0.0
7.702881065467917 4.218307808529532 0.0
7.638288257073729 4.107994211855027 0.0
7.493362356301017 4.120843902105771 0.0
7.779018500630071 5.521233457321821 0.0
7.794641287388929 5.752364621610818 0.0
7.73369774483611 5.865894287356292 0.0
7.600834531784728 5.867752110500446 0.0
6.233038857278689 5.15645045634683 0.0
7.669727996028819 5.985665563643058 0.0
7.528582452554481 5.987393423295551 0.0
7.598722674572824 6.11001923494443 0.0
7.778305000222867 4.104318908265786 0.0
7.704329019832056 3.987744174608892 0.0
7.838453459801382 4.213322728668484 0.0
7.864495721576461 5.862306066517277 0.0
7.846552353360407 3.98481756181946 0.0
7.769730409703277 3.86544808681145 0.0
5.785249360396857 5.177248808588045 0.0
7.908837087876153 3.861484036275285 0.0
7.834824606222196 3.740586825753288 0.0
7.97685993406276 3.736209527152902 0.0
7.89665098770825 3.615501862931453 0.0
7.753228010315262 3.617800245018972 0.0
7.826063013090472 3.483173292579822 0.0
7.66789744383048 3.48859328808356 0.0
8.042515855796823 3.595394268381807 0.0
7.75200750488492 3.341279823834038 0.0
7.582870318332553 3.346584916806707 0.0
8.120807847415062 3.732493963388337 0.0
8.189783970303546 3.61159165475499 0.0
7.657801000286734 3.200439907646711 0.0
7.486781956172036 3.201402473247712 0.0
7.452595103886905 6.11418616185016 0.0
7.527098033550077 6.243191052852112 0.0
8.260502906807751 3.728437634721859 0.0
8.327629317451398 3.608173631356984 0.0
7.372763970891452 6.247552889754036 0.0
7.456170570815929 6.384992468962936 0.0
7.621837793616884 6.376077080857113 0.0
7.548039512904141 6.520750676893614 0.0
7.717475944451644 6.514856553988943 0.0
7.636658166268699 6.661648164052906 0.0
7.807468267259438 6.664076174524672 0.0
7.718022764310774 6.817938967122142 0.0
7.887785766941087 6.807440365887151 0.0
7.545993589083432 6.815070675854734 0.0
7.809874785067209 6.967537287475282 0.0
7.975643812145337 6.948729406725126 0.0
8.396477808021062 3.725446935061211 0.0
7.565651643157136 3.044354774611752 0.0
7.384328725505071 3.043048915147076 0.0
8.056405351948353 6.802790889114673 0.0
8.14128318237188 6.940027831915737 0.0
8.064621760266059 7.086348792208953 0.0
8.225003598857908 6.805225152373254 0.0
8.463085452993242 3.606998510553562 0.0
8.230426869720718 7.079551841000411 0.0
8.155262284174286 7.224761758176069 0.0
8.530696760758996 3.721683301125054 0.0
8.596669886994064 3.604516769862316 0.0
8.528531058025589 3.490411531312337 0.0
8.320451770844851 7.218191678954744 0.0
8.245273958732774 7.363444652121271 0.0
8.66324687389452 3.717094013035765 0.0
8.600103125209296 3.831913857228569 0.0
8.662131102573216 3.488322280861316 0.0
8.594166125380536 3.374071873435548 0.0
8.411074336066186 7.353871649576861 0.0
8.339644223432472 7.505172120620427 0.0
8.165883718619623 7.513159193685373 0.0
8.483453820080417 7.2082285366806 0.0
8.261200365730348 7.657400951288149 0.0
8.081570576666843 7.670933304838066 0.0
7.471613195794025 2.872548423100142 0.0
7.268733678357991 2.881209199257603 0.0
7.184255506995786 3.084448584600423 0.0
7.065899603697895 2.883902449336828 0.0
6.960163891183182 3.081014635802978 0.0
6.847612128388715 2.885646860602812 0.0
6.739800729737967 3.078895733381448 0.0
8.729373804596847 3.827689165637365 0.0
8.668550856907444 3.938702277545298 0.0
8.72770789162863 3.371798381178293 0.0
8.659764090070603 3.257493349874974 0.0
8.436453928793245 7.648724489148887 0.0
6.619080287792762 2.90880017416788 0.0
6.511740956842646 3.09340654756684 0.0
8.793527829963288 3.935174834810256 0.0
8.736430500996828 4.042719556852617 0.0
7.631260330584174 4.565300771328012 0.0
8.359058396840432 7.801678182761817 0.0
5.339436215072359 5.184870243702279 0.0
4.994031736761993 5.193306795607908 0.0
6.383387675268097 4.87760645722207 0.0
7.29117392392962 6.382172868329505 0.0
6.378196825372041 2.907113079755629 0.0
6.269817199014261 3.12412150658573 0.0
8.793149127377946 3.255386294257182 0.0
8.725774239201558 3.141596687892195 0.0
8.857434600673502 4.041295940541356 0.0
8.802868937128341 4.1471119953668 0.0
8.532045262478793 7.7905977476835 0.0
7.364542641624493 2.699128473342751 0.0
7.571677611088925 2.695732556686516 0.0
6.723058333614999 2.672341359410618 0.0
8.456744924757372 7.94483904450548 0.0
6.140831279784704 2.921247401137864 0.0
6.02419219050745 3.14358702955763 0.0
8.916255604212301 3.934279868822481 0.0
8.859287250884009 3.140226640574265 0.0
8.791092798057303 3.025929352146465 0.0
7.210445465986021 6.245773134960393 0.0
7.120884161792869 6.385155584680196 0.0
7.036931702064287 6.240721609143972 0.0
6.943722280007011 6.3869279517155 0.0
8.920094519678617 4.144837222494242 0.0
8.864374107136287 4.250930406527029 0.0
7.347569838739255 4.463467417508182 0.0
5.90383431757064 2.935113219563906 0.0
5.783476009580765 3.156456199832474 0.0
8.626013191558314 7.935092223505354 0.0
8.687240186957197 7.796697889991163 0.0
5.642059327424706 2.903018174330269 0.0
5.52647853955939 3.162549070310043 0.0
8.555300051897738 8.086169516016518 0.0
8.405624441178524 8.083972416481254 0.0
5.374124307190728 2.945480555950917 0.0
8.935805220807357 3.249260758206028 0.0
8.981625171409894 4.247375537584228 0.0
8.924725364486765 4.352101286657735 0.0
8.807208588134106 4.356163101450244 0.0
8.868277832430604 4.45657124153171 0.0
8.75099635287701 4.460644845248524 0.0
8.812385950597063 4.560891222623518 0.0
8.693833206943118 4.564602972998703 0.0
8.756474732548273 4.665720853686476 0.0
8.63721608225855 4.669394550615355 0.0
8.700108119351134 4.770682016274914 0.0
8.81920502916846 4.767536120893284 0.0
8.76355311338807 4.871451945248518 0.0
8.881442328033694 4.868382238751069 0.0
8.826433523510634 4.97132552240372 0.0
8.943387824985514 4.967694248194483 0.0
8.888718468126953 5.071044784833541 0.0
8.580377663835254 4.774669738817985 0.0
8.770572242937233 5.073880380431421 0.0
8.832915096600454 5.174518948293615 0.0
8.952224483821848 5.170970838320107 0.0
8.897282771771884 5.275476392171722 0.0
7.463928467290875 2.513944501591933 0.0
7.675935950092034 2.509420347143072 0.0
8.924252417741767 3.024418701372628 0.0
8.857265893102921 2.911213535286156 0.0
8.776981063213334 5.27944309004916 0.0
8.840710910770163 5.380165700477552 0.0
8.960876896785969 5.375521424256389 0.0
8.904555918255223 5.482125846038813 0.0
7.567193097677677 2.32750151280277 0.0
7.780880844888839 2.323064027160363 0.0
6.851602118390116 6.234522818184622 0.0
6.758680682687229 6.389359516748128 0.0
6.66345977321418 6.231254850996584 0.0
8.715764716958308 8.079994249772627 0.0
8.65189989696114 8.227534663647639 0.0
9.042229096541828 4.348551764001607 0.0
6.436774206993324 3.316782326998922 0.0
7.590527613340588 5.22651784724799 0.0
9.024366884701616 5.476726561488805 0.0
8.968734351641839 5.583879050892151 0.0
8.845941080047659 5.586406316932274 0.0
8.909881305857882 5.690482454668167 0.0
7.348726871578975 5.44047403999932 0.0
6.567070253986433 6.398115757512583 0.0
6.697077150072261 6.553426749743366 0.0
5.252377383990728 3.187782967482479 0.0
8.988440431820699 2.908621158637298 0.0
8.922541972760119 2.796420836075996 0.0
6.466806010659505 6.229115583261771 0.0
9.033851153821296 5.686506775615425 0.0
8.978340519963718 5.795772485582058 0.0
8.85111463793018 5.798672910287243 0.0
8.922171984280597 5.907237880910408 0.0
8.795190680908043 5.911854068712683 0.0
8.864373398892472 6.019728357749566 0.0
8.991346995940626 6.014539153309398 0.0
8.93374019140187 6.12698887312768 0.0
5.095192648098848 2.952353430985476 0.0
7.672651464908932 2.141715359830917 0.0
7.886266921042761 2.136211284120189 0.0
9.098474286589756 4.245971410451114 0.0
8.813172564986438 8.216887361735234 0.0
8.74802978243154 8.366104673219047 0.0
9.059985162956899 6.120982589539211 0.0
9.00342813739303 6.233245043891739 0.0
4.961413514304496 3.214209167276753 0.0
9.05248113004685 2.794651022570942 0.0
8.986028039118027 2.681341972594222 0.0
5.671890458441996 3.377122473800023 0.0
4.755829262593116 7.184480462344647 0.0
9.158258644940048 4.34465968221255 0.0
4.799687186662534 2.961354824469195 0.0
6.030554747591715 2.726787502996874 0.0
8.938327180212585 8.34758372042188 0.0
8.847392320655468 8.503370672816716 0.0
8.67342124373679 8.518117686968314 0.0
5.234423106934083 2.694925204361751 0.0
8.964923046453565 8.185313058214797 0.0
7.456650986668838 2.134076476407834 0.0
9.111732084821366 2.897226832609386 0.0
6.368055837513985 6.402805870976705 0.0
6.265629899005033 6.226581076317183 0.0
8.736327196352686 6.026404178766982 0.0
9.117473097358854 2.67987006607594 0.0
9.052137415465204 2.565428515518978 0.0
7.781001557847192 1.955874236406257 0.0
7.992134447300669 1.949184538864554 0.0
8.593074792993455 3.143159483125708 0.0
9.1291360203536 6.226877897052981 0.0
9.072154326613617 6.338696745620542 0.0
8.916532550320525 2.566986282201109 0.0
8.984021113721658 2.449252898983242 0.0
9.178032243215632 6.120533546076094 0.0
9.213703592343162 4.244823670856978 0.0
9.11972142641474 2.449071238668887 0.0
9.052853896812186 2.33190758581705 0.0
8.635035926402708 4.462329956179506 0.0
8.773614475966344 8.657865377672689 0.0
8.596400917257634 8.67759750279447 0.0
8.942023339420883 8.644678093589654 0.0
9.19471670675691 6.33096438039349 0.0
9.138460613363325 6.443043552768813 0.0
8.66620319432524 5.916297234509582 0.0
8.606669825267202 6.032658196729024 0.0
9.27222540210304 4.341341907533128 0.0
9.013782808177437 6.451040569407859 0.0
9.08360982569773 6.55729980456602 0.0
7.885622149776354 1.768093045890686 0.0
8.095672144455353 1.768790621151345 0.0
9.208772072925791 6.549717411809656 0.0
9.154272208194383 6.662613503537815 0.0
9.187669783927937 2.334640996932141 0.0
9.122379015831417 2.215832190697178 0.0
6.164077036161143 6.404611236428829 0.0
6.062367614988677 6.224307160647549 0.0
8.987075041759633 2.211477580983978 0.0
9.056972755801603 2.093573581203428 0.0
9.194557288902232 2.096029761809264 0.0
9.131223008370409 1.972713028695079 0.0
8.87381302587057 8.795793668920256 0.0
9.039169086943392 8.781606667490083 0.0
4.662813350519927 3.228118291851354 0.0
4.474181267994617 2.945703616023359 0.0
6.562627723301209 6.075544382232434 0.0
9.326886053211574 4.243083624343211 0.0
9.280374192897945 6.656072830232892 0.0
9.224718905178564 6.766740750539347 0.0
4.703284910421452 6.528907865005451 0.0
8.955136474970331 6.565989985649191 0.0
8.998148826814893 4.865480736169776 0.0
8.99429836796776 1.965972383552685 0.0
9.065669391141741 1.847195105148808 0.0
9.207236162050343 1.853010386995843 0.0
9.143218073349985 1.725630086781897 0.0
8.998867447699345 1.719378449325465 0.0
9.082595782768397 1.592017827427701 0.0
8.92804562738841 1.585238202229766 0.0
9.01637794607019 1.453847302675876 0.0
8.854253119154375 1.446306868730686 0.0
8.941620273019874 1.320083886766936 0.0
8.775393064215876 1.308487027359826 0.0
9.102170347200483 1.324733726345249 0.0
9.013857060361985 1.178821526410403 0.0
7.991031819452564 1.587689878441685 0.0
7.767218744640202 1.595993197647291 0.0
9.191539171305216 1.194087248761656 0.0
9.123965901037613 1.057102462689568 0.0
4.853921953226772 3.470213116851758 0.0
7.496563223334782 3.470157221608763 0.0
8.536691379028115 5.921845852206257 0.0
8.475496498707471 6.037633662010236 0.0
7.978668526342969 2.307231488316941 0.0
9.384721922092124 4.337357165846226 0.0
9.331039180200886 4.435926256444196 0.0
8.546261775564837 6.150267290476958 0.0
8.411727261785726 6.155319300628062 0.0
8.972203609044218 8.930944433074036 0.0
9.133480321468399 8.90955269607895 0.0
9.197778815538276 8.768743880012563 0.0
6.162231825784922 6.05277753404107 0.0
5.962111081146334 6.046949845237622 0.0
9.268727788642101 4.146883230687689 0.0
9.380694211527906 4.144811697563401 0.0
9.323823335199954 4.049557759546529 0.0
9.283324894520613 1.736313094621396 0.0
5.858151623803662 6.22041808248046 0.0
5.759668475561988 6.038806123495502 0.0
7.836860473863919 3.191674397465999 0.0
9.348591928839294 6.75855034547469 0.0
9.293979592221298 6.870213350675044 0.0
9.170543172728557 6.879819332293818 0.0
9.240028263813034 6.983394994050525 0.0
4.347372565145963 3.312731475520695 0.0
4.114183445909965 2.96879678229065 0.0
8.616264880152233 4.042035981070631 0.0
9.403174760076901 6.650407069150438 0.0
4.173860112179449 7.723461240865885 0.0
9.365302975518428 6.973476802087294 0.0
9.312420275675276 7.088420778208979 0.0
9.184876614539778 7.0978133687822 0.0
9.25921281729617 7.204979813006656 0.0
9.12816413817609 7.21569648263899 0.0
9.203944409919862 7.322703303071253 0.0
9.334311975087337 7.311477957762272 0.0
9.280415785210538 7.428795599957155 0.0
9.274060219641907 1.066603180421249 0.0
9.211820491509728 0.9316562593680151 0.0
9.050684011148748 0.9017681241401576 0.0
9.441953732403995 4.432092590771756 0.0
9.394725873909666 4.526051349391942 0.0
9.43453556160865 4.048003950509361 0.0
9.378043599351757 3.952631412328806 0.0
9.289691247910705 8.890746792319852 0.0
9.228148443138926 9.030109127390128 0.0
4.440757888677695 6.389562448928118 0.0
4.689874463978985 6.239329075084555 0.0
4.291519540095677 2.622920583112654 0.0
3.886073352912894 2.632778677714434 0.0
9.344015622314338 1.202401041544343 0.0
8.193292196814806 3.849649660906171 0.0
6.960946604527747 6.07044529864598 0.0
9.347708267319902 8.756364147482309 0.0
6.826423138602714 3.261415861395883 0.0
6.06309517882478 5.884563187328262 0.0
9.4085057714426 7.414123963607981 0.0
9.356416821537886 7.532359471354527 0.0
5.042074134251055 6.938947182785697 0.0
5.063988238156824 7.311205832605263 0.0
3.946666851334923 3.30681624613374 0.0
8.189857914071878 1.939951128540477 0.0
7.880690277686857 1.38928908049477 0.0
7.63766396748483 1.399736360041063 0.0
9.345004233592562 1.857695941115052 0.0
9.440465164139875 7.085860901905448 0.0
7.918332480761888 5.744468010879592 0.0
9.08007135068879 5.372457017512481 0.0
8.78639561093144 3.718391405525285 0.0
9.356843485085705 0.9414458825132457 0.0
9.29705128845331 0.8103081541678832 0.0
9.251825423225316 2.451701826351773 0.0
8.483895366325516 6.270717564685176 0.0
8.346386886249478 6.275973306650227 0.0
9.493299170161215 4.138582531223591 0.0
5.321115649032961 7.117073603021904 0.0
5.354076009109965 7.436189411362466 0.0
5.597984079819928 7.254284331170681 0.0
5.644042313435943 7.564172740776336 0.0
5.383963016128051 7.753854027984002 0.0
5.681168258142109 7.880444993178456 0.0
5.935548099874979 7.687258900444162 0.0
5.979508404301389 7.994332725561488 0.0
6.21936843555201 7.802335560754011 0.0
6.267092590637372 8.104873033518185 0.0
6.498845418385807 7.917606504106031 0.0
6.544600005636809 8.209910620392591 0.0
6.77336078689533 8.027284686082275 0.0
6.814840179123049 8.311778392637773 0.0
6.721304148677048 7.737863326704131 0.0
7.031320924898797 8.1335673274533 0.0
7.077388928622946 8.403901803728003 0.0
5.417471987089176 8.090112295667405 0.0
8.845427688507666 2.446352368201366 0.0
9.318512319918124 2.339233739859646 0.0
9.380241452597096 2.451895615249572 0.0
7.283805558009199 8.237518806365102 0.0
7.329200330160381 8.497045124353782 0.0
7.233272584416691 7.991590926766813 0.0
9.142592248414191 5.471315142785471 0.0
9.196303265878848 5.36738298742727 0.0
9.25795832955665 5.465260877691205 0.0
9.310581303233182 5.36341558704714 0.0
9.371094700882272 5.459458038195667 0.0
9.422767107822985 5.360687090455724 0.0
9.36402660964156 5.264821436196721 0.0
9.474220736978928 5.262802348886269 0.0
9.41680330511366 5.169477108906666 0.0
5.168675939028436 4.895496152382537 0.0
9.482591449057548 5.454699312257291 0.0
9.431567605310825 5.552723344040521 0.0
7.531449703396948 4.741663470323411 0.0
8.517293123442691 4.672601123164268 0.0
8.459978676626639 4.778466809901586 0.0
8.396595115309985 4.67568709170855 0.0
8.338966609235166 4.782101664607259 0.0
8.275355646032752 4.678829956447008 0.0
8.217675280223542 4.785699596769931 0.0
8.28149024865807 4.888803783902183 0.0
8.16019781596952 4.892696417098926 0.0
8.22433278506531 4.995725219088695 0.0
8.102825704443651 4.999629142625341 0.0
8.166887930010795 5.098242831115916 0.0
8.034904900788316 4.896825406879729 0.0
8.15353539905931 4.682103688185489 0.0
8.211891449058882 4.574219757233394 0.0
8.290305306104333 5.094007100958221 0.0
8.225684228618732 5.201525567655179 0.0
9.444618942559746 2.343141375196729 0.0
6.929446520625337 4.868116916840016 0.0
5.737810725167649 4.893891407574175 0.0
8.720389971487277 5.38508368411851 0.0
8.805734920311323 8.951818172412821 0.0
8.905272694453211 9.083303226359831 0.0
6.006155038818204 5.171375272745409 0.0
6.431496448228514 5.152985998213245 0.0
9.052675024457304 7.106590131831544 0.0
7.740007013494393 6.09727525827826 0.0
9.375852260355511 9.013078430361404 0.0
9.32035844773103 9.14584923943073 0.0
6.989707597683965 5.146377438798643 0.0
9.488190206836386 3.951168069367155 0.0
9.432429152094464 3.855725756072153 0.0
5.568386402814275 5.185723849666124 0.0
9.525561551078322 5.166162126187324 0.0
9.465026391994275 5.072601962964018 0.0
9.320357339516937 3.857795423728873 0.0
9.375955927831914 3.759314274140895 0.0
9.261783786753899 3.761412578759438 0.0
9.31820665563318 3.661845422072752 0.0
9.431798673168924 3.660830894813109 0.0
9.374584413615914 3.563138564686839 0.0
9.48759661134647 3.562294297118573 0.0
9.431339678707085 3.464016717943268 0.0
9.417896212887529 1.746970678437863 0.0
8.731705369070733 9.110902182838881 0.0
5.652297951447118 6.21188565774667 0.0
5.569122518069258 6.024400786163834 0.0
8.257007204149394 3.505875091031567 0.0
8.717428603143034 2.925525757227976 0.0
6.882852832747376 8.57686572931064 0.0
6.337330066435714 8.416819098143066 0.0
9.50188906539997 4.521022403818629 0.0
9.453500859905136 4.617181635748691 0.0
9.46806769570129 6.749352117850711 0.0
8.836822104875719 1.72282859852854 0.0
7.481071063421426 5.64593758994851 0.0
5.668814988976305 5.86611128457842 0.0
5.487644760735084 5.847591822776978 0.0
8.993992818065195 7.228173913870249 0.0
7.98322414937693 7.229980191466666 0.0
9.22810751684646 7.54864871395298 0.0
9.304103360459063 7.654622011545798 0.0
9.432787371848761 7.633691049023619 0.0
9.382619818023882 7.759136995934441 0.0
7.239096822516492 4.679179578301165 0.0
9.47692479956498 1.861231395362419 0.0
8.041243110813022 5.095895152648969 0.0
6.190208781188077 7.509864122823853 0.0
9.283062812782122 4.549418667685757 0.0
9.503847665760087 2.450295046295932 0.0
9.443345385250678 2.557904120404248 0.0
9.52009568463353 6.644015937008899 0.0
9.203119005973903 3.662458522935253 0.0
8.406198651282708 5.92630414760378 0.0
8.467263597743843 5.811987729136874 0.0
9.461423029059445 9.128120577356565 0.0
9.408445330070542 9.26024300250086 0.0
9.266505293379728 9.277952925446408 0.0
4.14874709022218 3.631681332690154 0.0
9.437448107949258 0.8198473430736303 0.0
9.376993771693973 0.6910550697058979 0.0
9.22882356848217 0.6931820370818127 0.0
4.451823867195988 6.103664366188579 0.0
4.200031743909027 6.232039028149317 0.0
4.687154754667774 5.975132870483986 0.0
6.268889397098538 6.592235545990395 0.0
7.509366161722768 8.340075462391164 0.0
7.564775703413765 8.59800936579159 0.0
9.542148732924264 3.854614593058991 0.0
7.036231103929761 6.550562550831048 0.0
4.089373665437328 2.268193930262139 0.0
3.642558884866483 2.250386188148396 0.0
3.442182385618804 2.651948803899947 0.0
3.146832503011753 2.222630466765926 0.0
2.948870467975985 2.805088883766417 0.0
9.352005315330274 5.067356449300542 0.0
9.31729677031493 3.462944187594675 0.0
9.37428383619102 3.365546369736205 0.0
9.4883538239391 3.365384871181599 0.0
9.432147665178338 3.267287636377487 0.0
9.25034519267688 7.775848812012313 0.0
9.332091350002502 7.881724023243533 0.0
9.462101000264603 7.86490055671988 0.0
9.413353271651825 7.98561007219363 0.0
8.273592814723814 6.158623919352561 0.0
8.207135014732339 6.280394934566054 0.0
9.541483811580331 5.548224291759592 0.0
9.491365919893726 5.644847811894615 0.0
8.088095771120983 4.577581369371366 0.0
8.14760102783746 4.468303741922308 0.0
9.556217963323956 4.414867468889523 0.0
9.543667331547693 3.266908751519594 0.0
9.489307652535885 3.169908976697059 0.0
9.26285575842982 8.635341362685686 0.0
9.403220742003983 8.621447866627538 0.0
9.326013417886902 8.506778946171965 0.0
9.455477927154853 8.503896705359047 0.0
9.566646674069602 4.611465258087684 0.0
9.499341049870914 0.9352184973273918 0.0
8.683891958597638 1.444705608998412 0.0
8.599973456173778 1.287265568270043 0.0
7.760988189317371 1.175381292562583 0.0
7.50927661322749 1.171223823957793 0.0
7.380927152434357 1.411062577009695 0.0
7.242417847270241 1.170759311509981 0.0
7.107236746116019 1.421234419770886 0.0
6.960799033544566 1.169618322344823 0.0
6.817786081200392 1.434174581170586 0.0
9.48095050141868 8.738557748483624 0.0
9.319762046171894 3.263060331456388 0.0
8.920653400180534 7.117307656029475 0.0
9.452431221190624 6.544166520883111 0.0
9.571407933653493 6.540336592280795 0.0
9.507586285214174 6.443281357841339 0.0
9.575252974749443 5.070210512157044 0.0
5.755172844377253 6.370710487467459 0.0
9.541351959064952 7.969072511059531 0.0
9.354607289792183 9.3921968735401 0.0
9.495213435762107 9.37218405175897 0.0
3.77688136092967 3.643094492921176 0.0
5.460967180339239 6.159077196937325 0.0
8.656589552918996 5.283032675040985 0.0
8.599307076390474 5.387421722684671 0.0
9.584017606465821 5.263931993965828 0.0
9.51536593891754 4.977534386249715 0.0
7.788544970111893 2.70578432810479 0.0
7.381746833264364 8.755477463411431 0.0
7.615969996822885 8.852710176548548 0.0
7.783643411970649 8.691528137204457 0.0
7.845017394185501 8.938777577473743 0.0
8.570520580943368 7.342304222498308 0.0
9.103648004226827 5.781084627507008 0.0
8.338082930126799 5.815990105349368 0.0
8.930848895071895 4.561111316304916 0.0
7.381089602119859 5.983657236035151 0.0
8.42066837692862 6.393608568217351 0.0
8.888256157021065 6.459558428285236 0.0
8.826495664731354 6.575679897210801 0.0
4.22522220414496 5.921354747981145 0.0
3.943296448343383 6.075578573904587 0.0
9.563175937841836 2.554860696349795 0.0
9.505342423182917 2.656889632284623 0.0
6.660863480070611 1.168750929063519 0.0
6.518316961679488 1.436478598119306 0.0
6.683474168246802 1.694104067636375 0.0
6.376799057174731 1.707382100972048 0.0
6.205091481342603 1.443621641108414 0.0
6.058670988071357 1.728841803855816 0.0
5.877457486049096 1.454297236926778 0.0
5.724979192982589 1.756666409586195 0.0
5.529885788012015 1.462283739157555 0.0
9.514953777019835 0.7018468683209754 0.0
8.398665270372675 5.702731562702358 0.0
9.456442249775696 0.5772068858285652 0.0
9.565795671866349 2.345573662774494 0.0
8.830758563027459 9.247271599108435 0.0
8.523580738257648 4.88015211128435 0.0
5.580123316488715 5.701889892660689 0.0
5.398591029446707 5.685938459654249 0.0
5.367686360823392 1.778740548277203 0.0
9.546603444041448 1.754984055696778 0.0
9.489649223089446 1.641312329051244 0.0
9.617973952467912 3.363804764345866 0.0
9.584322830999731 6.729956156156573 0.0
9.597221861144487 3.948534024289882 0.0
9.49401963819799 8.089507968561776 0.0
9.207321074262563 9.416906871900888 0.0
8.27185428346661 4.464932191097996 0.0
8.207416067213774 4.35878753684812 0.0
8.332747746635944 4.354903699457511 0.0
3.990181919126853 3.930792395858886 0.0
8.267392138262498 4.254008221702929 0.0
7.997788712685495 1.196805377512679 0.0
9.600316638269724 5.639973985281733 0.0
9.550939606739425 5.737313319038155 0.0
9.44084303195315 5.74233753256161 0.0
9.50112296154558 5.834555019909565 0.0
8.897429225733994 6.685415510921676 0.0
8.762930941408914 6.695907295903629 0.0
8.654628175336732 9.278157371342388 0.0
8.544676900803436 9.133790942553834 0.0
5.294904777716057 5.855935872688884 0.0
5.216749389964556 5.66865685845661 0.0
9.508453581298625 2.239460033375932 0.0
9.599691370793206 3.169496930704394 0.0
9.546615051106684 3.073514534194011 0.0
7.484714626923596 5.028675123117963 0.0
9.588496050271255 7.850836295555126 0.0
5.153197381012662 1.471340286561097 0.0
9.433168304679345 3.071871997104804 0.0
9.610464706874994 5.829217654498672 0.0
9.561407772947403 5.926179534044419 0.0
8.273381980676042 5.705233340662362 0.0
8.330794188929296 5.594351887246082 0.0
8.207319603076424 5.596747949305344 0.0
7.251338559467102 5.233758892662348 0.0
8.708518799790543 1.130513882092466 0.0
9.590155250193266 0.5878623138195824 0.0
9.389919385420015 5.841079912164009 0.0
7.991397852194216 5.859910582924319 0.0
9.624951589233206 4.975554514425905 0.0
7.240016788025947 2.531866266726309 0.0
7.635666783493215 3.873554782053258 0.0
9.608476620993713 1.863530872936442 0.0
9.365330459496413 8.10677840682376 0.0
8.775076110585598 2.572737931759856 0.0
8.699389445914996 2.444602334375113 0.0
8.625078713232146 2.580891022578613 0.0
8.54447196848446 2.447624719286678 0.0
8.468898498943965 2.586757328881282 0.0
8.62282309213608 2.307826916202421 0.0
9.622102662978762 6.439307895185218 0.0
9.561995355724862 6.35103962032292 0.0
3.898245450818314 1.856155797593496 0.0
9.681759177700954 5.07069253017652 0.0
9.059254996454502 4.963357716933865 0.0
9.113144532326562 4.861710138088372 0.0
9.62140874877204 2.656009146517733 0.0
7.884510615470827 0.9666888912541309 0.0
8.14902661050739 1.005010215149227 0.0
8.491263206618079 8.527197931363634 0.0
8.408859203395778 8.697060715788105 0.0
6.54422152733529 1.954566069381189 0.0
9.563546573097593 2.755667904356369 0.0
9.453065492925557 2.761122255953964 0.0
9.676889098520615 2.755084315170127 0.0
9.678287124781653 2.556838324720633 0.0
2.60254317790297 2.278874965850319 0.0
9.211706272534968 4.050470567310489 0.0
8.526711683538949 5.698821878547752 0.0
8.296604023060945 8.533761944401608 0.0
9.649704314258118 5.543946557831669 0.0
9.651176136337964 3.85122804518279 0.0
9.44590154800397 9.498503704959054 0.0
9.580491248736612 9.476376347552954 0.0
4.3239388803087 3.921156392977062 0.0
9.65737873521736 3.075324100817917 0.0
8.128000846282253 6.160273991836929 0.0
8.06242981852327 6.292371360998262 0.0
8.500465019503922 1.442700595221201 0.0
9.615253212967009 1.649819368149096 0.0
9.561768620580791 1.538553925606111 0.0
9.435477757657937 1.527391516499924 0.0
9.627993450010088 2.242685831452484 0.0
9.5338252733548 0.4673994795805215 0.0
9.398055066504014 0.4589059948533885 0.0
9.669486082509058 5.920177035588319 0.0
9.621072177439727 6.016493814615133 0.0
9.506185962103057 6.018397021409126 0.0
9.196884440497488 7.898824858961557 0.0
9.112591143666748 7.789491461180181 0.0
9.664357762385308 7.950712034233033 0.0
8.46233617997115 2.308903464128035 0.0
8.547917980328803 2.169381684694277 0.0
8.139931430059324 6.410762600521521 0.0
7.672499127532963 9.099143622036436 0.0
7.91372855627271 9.178704612763656 0.0
8.463425076318451 9.290653726808348 0.0
9.643938029094286 9.335632419679458 0.0
9.647017668702574 0.7068996148634754 0.0
6.241662276606473 5.884018212993202 0.0
6.157742245066693 5.73500474100449 0.0
6.318815619949124 5.730068085823802 0.0
6.247706374231452 5.593094310939028 0.0
6.406948541886973 5.593272398468375 0.0
6.092564106310554 5.587409338401505 0.0
8.535507922245372 5.286142900439676 0.0
8.022959839404006 4.471630490587016 0.0
7.963561162854596 4.581393556789843 0.0
9.683487139413305 1.546750704925431 0.0
9.630761777960082 1.435922217091829 0.0
5.121714348989337 7.950140247572198 0.0
5.136464096196084 8.310254432483559 0.0
5.47349124035624 8.455234262268478 0.0
5.176273618280354 8.687190323573228 0.0
4.796664658962938 8.592678692862421 0.0
9.568705729418735 4.887269869750176 0.0
9.462711651199594 4.88832222094458 0.0
9.674903475028225 4.882285174433025 0.0
5.4996067353406 5.546583260717527 0.0
5.663632234555963 5.557613452957074 0.0
6.829408195405585 1.947174574944512 0.0
5.336529198289861 1.127585641139875 0.0
9.672387559812332 6.34138351957329 0.0
4.463988917379896 2.271060678869338 0.0
8.618048281355405 6.263841736419089 0.0
6.480949808711781 5.74815588680617 0.0
6.562207427719153 5.592185077216444 0.0
6.643040463857446 5.721233693378952 0.0
6.712825900331884 5.588664360236 0.0
6.79240375630333 5.711383948285569 0.0
6.86115931532141 5.584697050428064 0.0
6.939210100691576 5.704407337029545 0.0
7.007668476576536 5.580801046893123 0.0
7.084627386867475 5.702817970154801 0.0
6.633257976075473 5.460881327825488 0.0
6.931430743764456 5.461960451448691 0.0
9.682652370938209 6.533133024505995 0.0
8.761108695241376 9.450742747770144 0.0
9.146031326900015 3.764292700000154 0.0
9.089378801805193 3.661317181076136 0.0
9.514354521818781 8.994988681611192 0.0
8.157650730500988 4.262987189670279 0.0
6.329633198899328 5.4647789391701 0.0
2.340685767996258 2.811285337457589 0.0
7.379572471323651 0.9290892725587991 0.0
4.171878172186605 4.222320767259098 0.0
4.4876601621649 4.16473354200826 0.0
5.336389369563535 6.806464508860387 0.0
9.595468321212476 9.108133206829102 0.0
9.645038675267227 8.982113951305912 0.0
8.393140678816192 4.246338342095281 0.0
8.309440721624494 4.155300532283633 0.0
9.418269339704423 1.9925512363779 0.0
9.662781807969623 0.477809346089035 0.0
8.011297869803792 0.7518828483803571 0.0
8.250149975885678 0.7646904662196189 0.0
9.608674873602773 0.3618049194050078 0.0
8.692696069692623 6.582927327365709 0.0
8.628225948401226 6.705702462696891 0.0
8.701883181418305 6.822086652299242 0.0
8.559276855155542 6.829564723911442 0.0
7.069268463354993 5.459534423493629 0.0
2.654575201159115 3.323490466195074 0.0
3.610801136544596 4.044075244426243 0.0
8.263757217166944 5.48730323490738 0.0
8.138838162809126 5.491254533497952 0.0
7.90196833683664 4.477386962763833 0.0
7.987943097943191 3.978756490171551 0.0
9.704623491880403 3.945605151832784 0.0
9.461009573830147 7.301728818091931 0.0
9.532468631193666 7.399916015174975 0.0
9.582688928417856 7.292330983701011 0.0
9.652579613269625 7.387768793572397 0.0
9.699264016151023 7.282867433965265 0.0
9.633305589700536 7.188543855060478 0.0
9.505576100168666 6.961225778216469 0.0
9.43876966151099 6.342441564206569 0.0
4.908483672172518 6.098703904450545 0.0
9.135448256237908 5.269827196966999 0.0
5.905650502271389 2.025036080946255 0.0
9.709890722072377 9.452748507541063 0.0
9.663337613522643 9.572126259365891 0.0
9.603900123387826 7.495180532331903 0.0
9.720147629525837 7.483400774981126 0.0
9.674588415444239 7.588303295299578 0.0
9.653186673863587 4.039274180923234 0.0
9.053164539680804 4.764545162185531 0.0
9.164908495749003 4.763017269285045 0.0
9.226019227262443 4.858029410614327 0.0
8.809947621994619 3.4964384919072 0.0
9.10538997155458 4.665865142902959 0.0
9.331074106432244 5.748993480915537 0.0
9.055854333858068 7.918554535314415 0.0
9.446431573964945 8.209836764658437 0.0
9.573844810886287 8.191100251691205 0.0
9.309704769895653 8.244395007943949 0.0
7.240329561730736 1.676197957122907 0.0
9.543389817573933 3.660019800390455 0.0
9.598599341122098 3.563130123982772 0.0
9.652615161407017 3.658119804270645 0.0
9.706336063693934 3.564815526226687 0.0
8.632284427755456 6.946688912416058 0.0
9.682863230715835 2.349655023034811 0.0
9.571538455120994 2.142369886250143 0.0
8.090821900439733 9.017409120951333 0.0
6.812258669899192 0.9007667548831626 0.0
6.50135254578461 0.8974046495177885 0.0
9.598335906230732 6.246437748035812 0.0
9.719677442549804 6.253968775436637 0.0
8.593026822691716 5.180101360605356 0.0
5.537586126848265 8.836083861509138 0.0
9.688689404995035 2.143487155934306 0.0
2.821389253975936 6.507820864074362 0.0
9.176571289960709 8.507736431357309 0.0
2.918303740542162 8.256728920338826 0.0
3.428955230180972 8.401446814887457 0.0
8.490587404589881 6.715350139132777 0.0
8.86049054904785 7.243279881821806 0.0
8.93696309213556 7.356650230611625 0.0
3.951931175165697 5.78308550088855 0.0
3.65055612573298 5.91672400098539 0.0
3.668142216548471 6.247526235973777 0.0
9.717269848920886 5.821831227352286 0.0
9.708364917734201 3.164198601626433 0.0
8.45581975650687 4.569560863828342 0.0
8.204448312099833 6.040774355519757 0.0
8.65969449127868 5.485991799508151 0.0
9.707534571012967 5.634423933296901 0.0
9.62102991883279 2.849662850313935 0.0
9.144093558002634 3.560383427867003 0.0
8.29763273805118 1.77155302934031 0.0
5.280452715709455 9.01633391004168 0.0
8.984558945859158 6.99932633710603 0.0
8.4157550875812 1.275784953143711 0.0
2.068078118650995 3.355462780535101 0.0
9.205703884756806 5.568274778556933 0.0
9.745857863753141 7.178456670302003 0.0
9.681628895748586 7.081494416756802 0.0
8.875818787971069 6.240744812097083 0.0
7.993733797566922 6.414830952863579 0.0
8.462810157069566 3.377071044664789 0.0
9.29428363519789 4.759591981903337 0.0
7.933956818298286 5.97437536746848 0.0
9.028281726378319 3.558713145763133 0.0
9.083461773461467 3.455531762175701 0.0
9.73231939683535 2.849247643393067 0.0
6.70072305037728 2.192432536215492 0.0
6.423245125077639 2.212870246546939 0.0
4.931537051605536 1.135086496804522 0.0
4.746426561586179 1.500381091957315 0.0
9.707706579932626 7.836419656220658 0.0
8.590593344701457 1.595639668013959 0.0
8.708946574109854 2.1688179918246 0.0
8.634728854549891 2.028564483452208 0.0
9.230357659411311 8.129337203173913 0.0
9.102841374461482 4.452881308250647 0.0
8.472081531214734 5.388993924853032 0.0
4.925996806199801 5.844046944846857 0.0
4.702806345752284 5.745688656289065 0.0
4.884357002239844 5.633237011762874 0.0
4.709628434300812 5.536404116679045 0.0
4.530800966746534 5.627044171217377 0.0
6.040296145349247 6.603808099703576 0.0
6.162203578696918 6.795213950202512 0.0
5.923135943221574 6.824060069869489 0.0
6.046693245732212 7.010423490915212 0.0
6.297337598588478 6.979895528204233 0.0
7.760448385794147 0.7294020304851334 0.0
8.492228348169641 6.958778476405878 0.0
2.89219822877093 1.704113597264478 0.0
2.26178643438086 1.7814602252425 0.0
9.726968895980871 6.009547057102511 0.0
6.63195110828313 0.6072886418835157 0.0
7.984023036954866 7.515675826210831 0.0
7.893857204140559 7.681876703427663 0.0
7.778465117872411 7.537836322197895 0.0
7.998204230811618 7.844922503023499 0.0
7.798554315988981 7.858161805718108 0.0
7.917846202023782 8.03040048103727 0.0
8.547520504556728 2.721261126162116 0.0
8.39253850806587 2.732073315877738 0.0
8.306047241032278 2.59069854402512 0.0
8.233011054235162 2.739783364361515 0.0
8.318836035587811 2.879838477099622 0.0
8.159530874574331 2.888511553151382 0.0
8.245490421394788 3.024568439743106 0.0
9.759103003747676 3.077839427881478 0.0
8.083610090773394 3.033523757291178 0.0
8.174562583800352 3.166768504406541 0.0
6.046769434852523 1.155662270344939 0.0
6.968371001421964 2.176347877216873 0.0
8.324858098380334 3.152966249334499 0.0
8.145556596142626 2.609897633546475 0.0
8.970652052821418 7.804556541250797 0.0
9.033737629244714 7.681328986528639 0.0
9.62347010002576 4.796939565664328 0.0
9.72520380348743 4.790261082613535 0.0
4.882631186210167 5.455006233451049 0.0
4.618356368594037 3.933076284395493 0.0
4.748083507220199 4.151025177732873 0.0
4.641724290430313 4.358202249373887 0.0
4.87055838101999 4.337900676660481 0.0
4.974114446887331 4.149149057174687 0.0
5.081577844806959 4.3240148266423 0.0
5.179521650033781 4.148725180298481 0.0
5.276261408871418 4.316673822529601 0.0
5.369189110897883 4.148362797753505 0.0
5.463892033849439 4.338819369807593 0.0
5.550828466075906 4.146274465971151 0.0
5.646554822352869 4.303571429647391 0.0
5.728109623160046 4.138582010823754 0.0
5.821689108984419 4.291959598724587 0.0
5.906082534948073 4.141649907302701 0.0
5.99655838673762 4.288752711512514 0.0
6.077312859438928 4.141011188943332 0.0
6.164215275138099 4.281164574562373 0.0
6.241782344986693 4.140701084167517 0.0
6.324316420613108 4.277393447415522 0.0
6.40284165425941 4.140026953305852 0.0
6.483655157361099 4.273418937894759 0.0
6.561170698911611 4.136221843106807 0.0
6.63512300179586 4.269917278694155 0.0
6.720306110251473 4.133393659385058 0.0
6.63777078218551 3.99617001426095 0.0
6.802492763973074 3.994355399489989 0.0
6.798834760478153 4.276914787769972 0.0
6.15377608509923 4.000134206628027 0.0
6.548727135071258 4.400510710520637 0.0
6.251479300130713 4.421887359316258 0.0
5.275876048175579 3.979624500657822 0.0
5.910905077162284 4.431174408784691 0.0
6.717070288412452 3.851239795555301 0.0
6.883499045994213 3.852555480300214 0.0
6.96664848901999 3.994033961856844 0.0
7.048208567116626 3.854750001965969 0.0
5.810004974283072 3.982497501655442 0.0
5.586615391658107 4.471070246359201 0.0
6.547331954052155 3.853872077215347 0.0
5.179081233207816 4.485638492900557 0.0
7.126615227065496 3.995337770596979 0.0
7.209459742762513 3.856893463870469 0.0
7.130226097876905 3.713620439679428 0.0
6.63075064074106 3.699684148676045 0.0
6.446985573861992 3.697358756862005 0.0
7.043151422977365 4.131713936060725 0.0
7.198322215260019 4.129850614748363 0.0
7.119378405252723 4.26005098890218 0.0
4.797146270976422 4.525762781577414 0.0
4.608329098388589 4.573584257851931 0.0
7.294442092743627 3.720853338661503 0.0
7.215753312764997 3.571378507508807 0.0
7.049631633956289 3.568047985538775 0.0
7.133765707749521 3.414282375958479 0.0
9.755079417839903 5.539705890434435 0.0
9.698955703441971 5.450920012703194 0.0
9.717604099406742 9.09084770432896 0.0
9.276716006673976 5.847248422342224 0.0
9.339081208926798 5.941174203394446 0.0
9.031261921742963 3.750271483819014 0.0
9.08721978689863 3.853416037308712 0.0
4.801461566647803 7.510704110489921 0.0
8.206553504932042 5.818005960412773 0.0
7.362361315389098 3.863102442315545 0.0
9.492826845316191 2.963845037486267 0.0
9.376710375304633 2.97229517374228 0.0
9.3192743723601 3.070687802230453 0.0
7.915389082113898 6.293241865913004 0.0
6.735006382384437 5.832450056405368 0.0
8.456481836836168 4.35369289249905 0.0
8.517718268476031 4.246675068616396 0.0
5.583512022030555 5.411069060406398 0.0
5.73625200174779 5.422617752052123 0.0
5.81006929286229 5.548584937688919 0.0
5.903438861894402 5.420604003204523 0.0
5.43801870974416 5.402925156167655 0.0
7.022641548594327 5.825217331839047 0.0
7.165095795605366 5.826005223633447 0.0
7.223078558430726 5.690146755650336 0.0
7.841396000338385 4.586693006493787 0.0
7.904793170875705 4.690826189066096 0.0
7.785999820520073 4.696719777099973 0.0
7.846448506395101 4.798518978096564 0.0
7.728149182067156 4.803800941124008 0.0
7.788983823826226 4.904802634695232 0.0
7.672018889153144 4.910077510508749 0.0
7.731996012352178 5.014717724244488 0.0
7.852072803124419 5.00743796185411 0.0
7.779278698005006 5.118909346425974 0.0
8.088113864063853 5.605434545811022 0.0
8.016457362785575 5.494849890158723 0.0
8.072290383394757 5.385594956317259 0.0
7.95068657972964 5.38825563681957 0.0
8.309366678475389 1.438342408757099 0.0
9.748160780780179 1.447794693754379 0.0
9.696454228162398 1.337889922375316 0.0
9.568813761940916 1.329560834053294 0.0
9.638326779791626 1.226729570935787 0.0
8.472132467407484 5.182856496818138 0.0
8.066211547412054 6.53691730655352 0.0
8.217035586462373 6.522976700918602 0.0
3.544839338670893 3.324491119989469 0.0
6.999740002965287 5.347729916247808 0.0
6.874544698914502 5.347027470386579 0.0
4.880451234715014 5.193043717957879 0.0
9.104510033763066 9.313204713465637 0.0
9.0466357104558 9.45359399494339 0.0
9.146803165140184 9.569652364413551 0.0
8.134107047896672 0.5527712356100052 0.0
8.369770412730738 0.5571215815175228 0.0
8.47386979744655 0.7564607169846485 0.0
8.585193608569258 0.5749174254532757 0.0
8.683868132726584 0.75505070091701 0.0
8.787381435061018 0.5813987798627239 0.0
8.697570280442534 0.3771156480326233 0.0
8.530048434259976 5.077280516000916 0.0
7.995091351438729 2.90367515012593 0.0
9.731083608815164 1.662638626153251 0.0
7.260488865351954 4.255073962371814 0.0
9.760728358076392 8.990038509880067 0.0
9.716710396257366 8.884160310398862 0.0
8.794627466210242 7.369659405098349 0.0
8.868068657550866 7.515048014893154 0.0
8.702594597629135 7.510501129643432 0.0
5.132320689147051 0.7610757801158905 0.0
9.755852887652699 3.853180024615871 0.0
9.787424819067885 2.757921105725315 0.0
9.731193479931608 0.3736343090103709 0.0
9.796526908308536 0.489684029254899 0.0
8.226019692057042 2.453349105940535 0.0
4.560989821496479 5.428206018250252 0.0
4.348810639659689 5.517048281386008 0.0
8.785190163106925 7.119142251269924 0.0
9.015515413043023 7.464769766852701 0.0
9.754861440190705 3.659036930324926 0.0
9.7543610723378 4.033687839160082 0.0
9.707881226943384 4.127219992296752 0.0
9.52841017383273 8.309020665649431 0.0
9.65186044414544 8.289498614805698 0.0
9.714051275521857 8.173576484362068 0.0
8.209758892476394 8.715513071423135 0.0
8.097084883671858 8.548851201381087 0.0
8.177989947800599 8.367872862579052 0.0
7.974142434808908 8.36779470623567 0.0
8.409012054919861 2.142624252464372 0.0
7.707002321497132 8.039129945341395 0.0
7.574653123518228 7.83895791570255 0.0
9.229858094382692 5.951357214361815 0.0
9.75307989876696 1.229893222503321 0.0
9.715811155868643 1.128779429890018 0.0
9.597960915003707 1.117058287635912 0.0
9.672063923518955 1.020806103150243 0.0
8.99090422125785 9.593878510105375 0.0
8.133165456134304 9.257620998029804 0.0
7.976779931497633 9.420725324095141 0.0
9.77231778617502 7.927819487779705 0.0
7.957213679655531 4.364530256281665 0.0
9.609903116082736 8.403725680286847 0.0
9.724891358972584 8.388392708395173 0.0
9.687487059868507 8.495935345161797 0.0
9.810055520269009 8.494090598382963 0.0
9.755967487162335 8.599790818513082 0.0
9.645698986824481 8.606121319182705 0.0
9.721376049217765 8.699989876681524 0.0
9.773009257015609 4.884557953188837 0.0
9.830105798750992 4.796546393900876 0.0
9.775335108731761 4.686093304257503 0.0
7.455611517737074 3.730099283949135 0.0
8.906943567829634 0.4197477661467797 0.0
8.980613334153533 0.5814185917581446 0.0
9.081059111759728 0.4263421860552371 0.0
9.821654809259165 3.576985724143072 0.0
9.761309244784803 3.4792267780002 0.0
9.763329553045937 9.353068233045157 0.0
4.463051839136694 1.164440352584939 0.0
8.0213168204867 5.283436382300235 0.0
7.89385412333227 5.290429544753158 0.0
5.806940001023414 8.583716119232427 0.0
5.88977793877374 8.96065112858812 0.0
9.177759062826041 8.25539130897928 0.0
9.626582559276994 2.05283181283147 0.0
9.747673294325121 2.064954301745188 0.0
8.775905508647185 6.951821187702613 0.0
2.3581644273991 6.029034686663493 0.0
9.777798009058461 9.548066962498762 0.0
9.737129197219856 9.662299853506903 0.0
9.615080366030512 9.683349544763068 0.0
3.315839678697904 6.042943273456425 0.0
8.915083018115329 7.937748428923896 0.0
9.489832173860055 4.712364754630572 0.0
8.118313727862493 8.013944064029838 0.0
8.902248750797776 7.67372145952523 0.0
8.954075939212636 3.463080912810881 0.0
9.45247551997678 2.133243108303608 0.0
8.311151553157742 8.899233004613622 0.0
3.28672004268868 6.826745674539142 0.0
9.86008383798735 3.468233656255824 0.0
8.389990589860254 1.947086063498656 0.0
7.144231739553659 5.329544660076687 0.0
9.654500729007207 7.743301971143119 0.0
9.761920842881946 7.740144345898896 0.0
9.692820773976567 0.2651585113981998 0.0
9.690951720399688 6.100517071814821 0.0
9.775704281989471 6.077882312279847 0.0
9.823117117198079 4.115168542267924 0.0
9.764391943581737 4.214465954230587 0.0
9.659455011849253 4.218716850797838 0.0
9.713462125022623 4.30742830316693 0.0
9.849638067150842 4.208845651573708 0.0
6.376241713254513 3.858766051594979 0.0
6.274931849158213 3.701528298009006 0.0
7.097780104117746 1.926449727602711 0.0
2.457742027508782 3.810157622192786 0.0
2.963634206580268 3.740748099915693 0.0
5.065585416063965 5.544355730437482 0.0
9.783560252464587 7.566507987677117 0.0
9.825819294611026 7.470942204664841 0.0
9.799976114123012 1.01659516618323 0.0
9.745559590633832 0.9150866860898854 0.0
8.20473400632469 9.495828670767946 0.0
8.784586030320169 2.054461500762216 0.0
8.758471587067168 1.888286802854785 0.0
0.9188935087347281 8.510730800272478 0.0
9.674192026048217 9.20389587377276 0.0
9.796314981283475 9.185916994648775 0.0
7.206882433199502 5.452024361489832 0.0
9.773927048949279 6.334665846819535 0.0
9.830288393591173 6.225300227041885 0.0
8.25177349297509 3.282767705830209 0.0
8.099233469407428 3.304040153764131 0.0
9.607860512870598 4.315652630490023 0.0
9.403674738018715 8.367349042046314 0.0
7.611756786273919 5.018691202305147 0.0
7.549513964643336 4.923310232561835 0.0
9.80986724662116 0.2915868356190958 0.0
0.7757562810577034 3.504187313079081 0.0
7.659562100664981 4.698467529240196 0.0
6.539424975891206 3.541729955691742 0.0
6.717348880400739 3.55221857686142 0.0
6.836337579501807 2.417476958454302 0.0
7.096480496160066 5.959124656438389 0.0
7.189742782777612 4.377051328076039 0.0
7.051723187622053 4.38470822973091 0.0
7.125489805519186 4.497018383456762 0.0
6.994915621927777 4.501504591168814 0.0
7.056755276274058 4.607929817497045 0.0
6.932937068803914 4.613249390039674 0.0
6.86629288290367 4.50541343988659 0.0
6.80427099775847 4.617607827251794 0.0
6.739195362053689 4.511124964201849 0.0
6.677260697693361 4.624288827143181 0.0
6.996760608675822 4.711715831373894 0.0
6.316045249462968 0.6456945497683586 0.0
7.321834163850416 5.816449323512759 0.0
7.833101485370825 4.390058096386987 0.0
4.996572652976738 4.498711166259074 0.0
5.112334577457371 4.663858846723513 0.0
5.271923064784868 4.629759173373871 0.0
4.93773508827367 4.668006487116195 0.0
5.348137647919096 4.485934621930562 0.0
5.413454827497575 4.62999925573761 0.0
5.356581113747675 4.770594395332836 0.0
5.013422223730484 4.793321773780133 0.0
8.58674425943957 0.9312335381466886 0.0
8.776450596582496 0.9362399987293505 0.0
4.783496233934828 9.486061758876032 0.0
4.544176394620909 9.034071856445296 0.0
4.082330493623582 9.015765881393772 0.0
9.820867469965414 7.285959215547852 0.0
9.852697883440127 7.166089674802766 0.0
9.260999083164238 2.971390964911171 0.0
9.197701900169713 3.073162109379564 0.0
9.31960210441945 2.867465579641856 0.0
6.660951583415121 3.383363199709994 0.0
5.210469976037585 4.761678854423166 0.0
6.740780285297665 4.733615686805694 0.0
6.611362405615225 4.731958642073806 0.0
6.549091884465382 4.629620704100811 0.0
6.491761716522486 4.733409494449344 0.0
6.425259228542098 4.640546096196947 0.0
9.715556659367534 2.986725573570596 0.0
3.710524324925069 9.463213827486557 0.0
4.768537031214573 4.727001037865238 0.0
5.039413681704655 5.378508462165627 0.0
5.188746429211535 5.440476671296013 0.0
5.172214816037712 5.298914527247826 0.0
4.469063601436893 3.667917323494335 0.0
3.799121596584382 4.741629285988305 0.0
3.661085664896249 4.442847704416992 0.0
3.316563386321876 4.380147387454913 0.0
3.802087298647255 5.26743535640985 0.0
9.738116341343215 8.047178982429934 0.0
9.85106076399546 8.021725551312715 0.0
9.837581050304836 2.844176011307251 0.0
9.664579962075123 4.402853107737106 0.0
9.76433159763034 4.39807801415352 0.0
9.718924973226878 4.487825491046641 0.0
9.826405563645343 4.494594135148365 0.0
4.931068003413168 6.359330991212394 0.0
5.130175746947236 6.201075257041828 0.0
5.143884286052002 6.445382329515047 0.0
4.953395875296406 6.628748468717369 0.0
7.833019185167153 5.400347121613631 0.0
7.766636138801143 5.313240048256084 0.0
9.767038723422333 4.578090619166644 0.0
7.315369355237483 3.441501197259575 0.0
9.556068971301514 0.2347811136726856 0.0
5.733871280791703 4.444861510772459 0.0
5.828809543126846 4.569791247698539 0.0
5.986701526182213 4.562881783985375 0.0
5.912543327921148 4.692966271273211 0.0
6.052130330528581 4.682477327897978 0.0
5.773525984744635 4.697697018456535 0.0
6.121646311546238 4.572302645403103 0.0
6.182349700936326 4.67713231096357 0.0
5.846371383601797 4.808939734754761 0.0
5.117807918383606 5.974361363083184 0.0
6.256132501905665 4.575863546153224 0.0
6.324770064521816 9.645040261272253 0.0
7.345522892050965 4.12581088034536 0.0
9.338523512844539 4.854480276600515 0.0
9.286984287289403 4.959628690044808 0.0
5.676298026114105 4.589279806918992 0.0
5.631257891894775 4.722749088404111 0.0
7.970415275563177 5.621040275419208 0.0
9.565118337557308 7.081391220827488 0.0
9.626201005045262 6.980441083020495 0.0
9.733729506193331 6.979928568877979 0.0
9.684556253529976 6.887102896543928 0.0
9.780785815410074 6.890287441101827 0.0
9.740054813822885 6.794211367612523 0.0
6.462628988057306 7.629921412015864 0.0
6.692564520952154 7.473594130811262 0.0
6.927983108788191 7.570982428592125 0.0
6.899878641134941 7.329306734748538 0.0
7.117542472438434 7.416951094809493 0.0
7.089537168123128 7.186691566729968 0.0
7.296585396514727 7.275888419524222 0.0
6.879678873774065 7.097443005287856 0.0
7.063454637059129 6.967740076426161 0.0
7.329105042924355 7.496317641003757 0.0
6.867084781778411 6.878842928865059 0.0
7.494278796275744 7.351949197351029 0.0
7.462564159480594 7.150140034494138 0.0
7.644835001206406 7.21506678718646 0.0
6.682478929414216 7.008358327294905 0.0
6.449199855715812 7.365660640952548 0.0
7.548139855358765 7.57299228324251 0.0
7.008502809092701 7.844601794812628 0.0
7.371739019901781 7.707688433423657 0.0
5.665345294602155 5.290628720253272 0.0
3.987583013016546 4.486920698115711 0.0
8.893480480320447 0.7785000884179994 0.0
9.715485963651112 0.5955299613117169 0.0
9.761785841543585 0.7048670948649375 0.0
9.670304314877074 4.578896619304786 0.0
8.058509626083154 5.744161686650483 0.0
6.181795443628869 5.462040811515966 0.0
6.256771804808641 5.338464817889848 0.0
6.124070400983443 5.352376180901929 0.0
6.399679261813415 5.349186390888865 0.0
6.477776305607503 5.46505688468465 0.0
6.541624525938461 5.346017118512589 0.0
6.673064575428321 5.339051516933525 0.0
6.599301548842115 5.241958624987057 0.0
9.573774011620444 0.815274945835158 0.0
5.86493292693426 5.877588788523632 0.0
5.552663040119136 6.957487930464628 0.0
5.535080960199246 6.663033131707637 0.0
3.708603689392072 0.5979254716153909 0.0
3.31896983256719 1.188583855309964 0.0
3.895664898001925 1.128137111173669 0.0
6.363360407965353 6.032416442205533 0.0
9.445959758065749 1.070139246426051 0.0
9.50632172780449 1.214052376665338 0.0
9.441030033980638 1.325047485624912 0.0
9.295799464644857 1.341410624832976 0.0
9.184164107767781 1.461677744200096 0.0
6.407191016756832 4.407273313799791 0.0
5.544591888593027 0.7652641669375747 0.0
7.883090151006535 2.497506182548758 0.0
8.073420508370992 2.120510489750234 0.0
5.494822040671399 4.732314720081375 0.0
0.8986976806403217 1.464611451578306 0.0
9.536325549598013 6.83286654168725 0.0
5.972289519322897 5.727532110854501 0.0
9.82203607053145 9.443411729566549 0.0
7.263199949874008 7.064207941227515 0.0
7.233659553805083 6.853135694774254 0.0
9.793310082768443 7.072747972018893 0.0
6.734168931095253 9.67499220075154 0.0
6.941134861034159 9.382328333169653 0.0
7.285822522704258 9.443989747444657 0.0
6.576263515512108 9.333035011158342 0.0
7.160560566479093 9.127732577621245 0.0
6.218711947378506 9.298064908857533 0.0
6.432383355119106 8.980985203293491 0.0
6.795390278360442 9.046043538032663 0.0
8.54677014121837 0.1957422484480979 0.0
8.528696320820908 9.804850950580938 0.0
8.42644965647489 9.604735484095604 0.0
8.010239224104339 9.715048083583248 0.0
8.644359648763341 9.628432815860457 0.0
5.344212921686536 5.526744195650314 0.0
9.760936589662048 7.38409687515441 0.0
9.128187788393989 0.1445485608215519 0.0
9.133307661752394 9.854833215426817 0.0
4.867351616228264 3.944459575003425 0.0
5.905323253270366 7.385600364255367 0.0
5.909045412185362 3.361969954191194 0.0
5.80580919758911 3.569999290452344 0.0
5.578230704221431 3.587842862412673 0.0
6.013352753603037 3.550699073477782 0.0
5.936624955014758 3.721630401607248 0.0
5.735413275357409 3.78528948606432 0.0
5.512538847486775 3.794760621907932 0.0
5.360571639388366 3.618649018042938 0.0
5.134141179590394 3.459385929220745 0.0
6.167399567008798 3.367365990358096 0.0
9.766756262206602 8.291756450136036 0.0
5.486063578307141 9.64505925252771 0.0
9.497624614180321 4.328873442170357 0.0
9.811387324954623 1.570516917365688 0.0
9.389210081887331 4.69150887571586 0.0
9.704395728912932 3.754226393630331 0.0
9.808172776193384 3.748784464356272 0.0
6.549660911932182 4.839747932361234 0.0
6.757415124099031 6.077939876843736 0.0
3.805578542126494 8.040840085419626 0.0
4.232580149691158 8.198659880701744 0.0
4.559765382564095 7.87091698350757 0.0
8.3829075948167 0.9495097054886067 0.0
9.8571301061408 1.456307792614791 0.0
2.005900212453279 4.535525273813588 0.0
1.85904408608185 3.956445706785572 0.0
1.979307922430775 5.474327285927505 0.0
4.387923194305381 4.427191306527721 0.0
9.429258370703248 8.873693567695483 0.0
8.99196583083892 4.664567567015693 0.0
3.050357122593155 5.368999067452741 0.0
2.861107385476722 5.785089447130829 0.0
5.005058958272409 3.711196438448062 0.0
9.8972295764837 2.755337284632969 0.0
9.581048890980513 8.853909321617065 0.0
9.668838904423916 1.762418716497425 0.0
9.716576458425756 1.852218615166234 0.0
9.799043132681442 1.780583141193779 0.0
7.661868217848455 2.880323287492419 0.0
6.780136552904057 5.443858690999834 0.0
6.489544866845868 5.913957888434588 0.0
6.880149522020364 4.134257616716107 0.0
6.970134365280068 4.264072319341612 0.0
2.225481516813409 9.348422240784 0.0
1.843418032490818 8.641605249943353 0.0
2.198000805242772 0.6459947140825729 0.0
8.740020306282506 0.1903932731609072 0.0
6.86957996016679 4.720776242956433 0.0
7.430920333506809 0.2702852342693345 0.0
7.302066064947383 0.6134316505458445 0.0
9.305398039877746 4.64854361125207 0.0
4.078151380865065 5.203425462519088 0.0
4.080704120371218 4.778853303303787 0.0
8.052525541571825 5.965483159581719 0.0
6.367194027835946 4.754896037842673 0.0
8.604191121620719 7.648182513679963 0.0
9.546446695207845 9.234701521982952 0.0
9.018652854946867 3.351011585453845 0.0
9.143853648154607 3.350173119015413 0.0
9.067079866763024 3.245174561579149 0.0
8.991492136849105 3.135578770028028 0.0
9.29603967712795 0.1426516429033488 0.0
9.392428271030795 0.2506306237151588 0.0
9.223973843394301 0.2912279164401488 0.0
8.39375191941536 3.018777714002827 0.0
8.4836475746111 2.88135207267795 0.0
8.741089053946197 9.821127577434911 0.0
9.803966507713174 5.448064463539533 0.0
9.748132240148552 5.359371181503531 0.0
9.850258990973547 5.355211921626304 0.0
9.7965346514158 5.266762244994661 0.0
9.84142096963129 5.171050273734619 0.0
9.738843612428232 5.167483913244169 0.0
9.64168976006725 5.359875132194057 0.0
3.335917453809221 5.671837672982919 0.0
6.962669142802881 1.683222554707996 0.0
7.365210844496719 1.887492842536114 0.0
7.517378971174123 1.677983072937792 0.0
8.00383870208024 6.089394601875145 0.0
1.725435941000569 2.759295503019395 0.0
7.907977929549089 5.102827208603365 0.0
8.052861051278896 0.2683271125209605 0.0
9.80169732768395 3.385443381464333 0.0
9.831597648680848 3.28491948963525 0.0
9.736335895866404 3.316207814499244 0.0
9.597256128490281 3.756160701977744 0.0
8.865819925321706 3.366235906378775 0.0
8.489614436807788 1.757152185195495 0.0
8.88089641144391 1.078983279100314 0.0
7.430923851187758 9.724389499796425 0.0
7.584252919312249 9.509430586267927 0.0
9.744026095940516 2.247117754488748 0.0
9.729961521243718 2.659836747108116 0.0
9.790866569780063 2.558993767350471 0.0
9.736606445116795 2.455104424879619 0.0
9.846806182714698 2.452157456754448 0.0
4.518102112052724 5.141350889745285 0.0
4.519880229178207 4.85678334497067 0.0
9.7302407894617 6.434012603549242 0.0
9.787537474544765 6.523591663056312 0.0
9.744262337067932 6.617499601377625 0.0
9.8406238811518 6.41591236129004 0.0
8.914967252734657 3.579360039684312 0.0
9.154797282599406 5.670753066089419 0.0
4.228839454580575 4.612979739018002 0.0
6.095037541675208 4.42126627187728 0.0
9.304166983880842 9.864854494751789 0.0
9.406445527105628 9.759007358529582 0.0
9.256225114941945 9.700832989525724 0.0
9.796206564635622 2.351215649506205 0.0
9.849373673349081 2.25090453834006 0.0
6.332048155295931 3.511675163099286 0.0
9.069679774213784 3.022879178706259 0.0
9.070599961450037 9.055284879641471 0.0
1.808685691036764 6.331557276533421 0.0
7.120156826652838 4.698481230214924 0.0
7.052894345811342 4.799848851879358 0.0
4.739957520484086 5.369107149361242 0.0
9.389197839958292 7.197139943834638 0.0
9.046688232613976 4.560364044038737 0.0
9.162685461967492 4.562194096410666 0.0
4.227377821420887 1.564128177298305 0.0
9.201090975245227 2.794301402811909 0.0
9.251941624303948 2.677556975242327 0.0
9.186758273070138 2.563916005021366 0.0
9.317609833868786 2.560335260954038 0.0
6.57599191748324 2.437689779955877 0.0
6.305556560534859 2.459112595979303 0.0
6.981058048792093 2.642476994448363 0.0
9.886113463139504 6.510498309609482 0.0
9.250462794607717 6.221362629571698 0.0
9.305373999084068 6.108271307139882 0.0
9.390477915810829 6.228015172491477 0.0
9.44452571968143 6.114582165110393 0.0
9.502105740270528 6.197677857389309 0.0
9.31559697209813 6.331647407124485 0.0
9.370938253597153 6.437386206819511 0.0
9.594764406124872 0.1099001288712305 0.0
9.602872681151728 9.894988341116305 0.0
9.622661196143387 8.076680696281343 0.0
9.769069277144705 5.9102532189237 0.0
2.615076109785583 8.807551523115547 0.0
9.658920005405456 5.730890135691177 0.0
9.76063135061807 5.720703211793342 0.0
8.63963723169499 7.177334225227945 0.0
7.841904391869763 6.41346852896409 0.0
7.764520718520185 6.297267738834625 0.0
9.546492996136271 3.465225175657335 0.0
9.25600964352143 2.219157062786616 0.0
7.625057159226293 7.012987957636062 0.0
9.529121062829038 7.730283486008674 0.0
8.329887090625894 3.845190321147069 0.0
8.265841850823831 3.95687001944245 0.0
8.402006523775544 3.947660780406651 0.0
8.128436391670505 3.968543393650448 0.0
8.46705122470662 3.835767362024195 0.0
8.218867047074696 4.063481375518748 0.0
8.089763413611255 4.08062363292928 0.0
7.939578083855268 4.111915744184436 0.0
3.74991304509639 6.615676756107112 0.0
2.627714335615619 1.170993030860914 0.0
7.046129971268607 6.759930788612616 0.0
8.534603732661887 7.486325780553722 0.0
1.569381386467569 2.042794535871475 0.0
6.228703743210918 1.986421863690014 0.0
6.467030855792859 2.67190498312861 0.0
9.272246093269825 1.975478263632296 0.0
8.05269609263041 3.854522845257449 0.0
8.008595521536957 3.177870309354594 0.0
7.929796740504207 3.350600835935766 0.0
8.048703574664067 3.449582532910417 0.0
9.72947480375618 4.973926800124758 0.0
9.784850360535604 5.072865219810449 0.0
9.896036387646596 5.069261557893528 0.0
9.633140953203334 5.168645132864771 0.0
9.558102991128836 7.602453108835212 0.0
7.278758746505716 3.994295887299482 0.0
8.306681733482405 6.936428510427854 0.0
9.487163072013963 3.757777670075558 0.0
9.532950522284125 5.359403698944497 0.0
9.816036650072329 3.927268437107025 0.0
6.173882586235392 8.734645960664665 0.0
7.972518459433741 5.003005338485466 0.0
8.398453459336153 1.601072016988848 0.0
8.97460527296194 4.040886705742754 0.0
9.037941657530773 4.143578781749325 0.0
8.849604200183613 3.828506169652706 0.0
9.545296177100065 4.042698359132156 0.0
8.595941796785514 5.806754902023664 0.0
8.65588412428292 5.694192853853139 0.0
8.723710665131787 5.801528918332044 0.0
6.861288985046249 6.673713222735126 0.0
8.87477249219366 4.664500928777609 0.0
8.72385765226959 3.608276264790996 0.0
7.145228858696953 5.573648565429618 0.0
7.282945121585866 5.558559688509987 0.0
9.224761401603633 1.602363370249125 0.0
9.609115686587552 2.986868833620756 0.0
9.633989947851914 6.628120633848649 0.0
6.046214325132457 5.45615093027661 0.0
9.017014346798927 5.271996636983457 0.0
9.070824864071271 5.168510834798647 0.0
9.189021391555556 5.166867900487267 0.0
9.123328759137758 5.064718588163964 0.0
9.240587446378079 5.06459430516883 0.0
9.250848280531756 5.267364371053135 0.0
5.773050603406019 5.7192906317521 0.0
8.576466432793914 4.3559007860436 0.0
8.634627802680399 4.253467736542067 0.0
8.461790117175607 5.591735227444779 0.0
8.907610717370224 3.713397213891439 0.0
9.80665594564509 5.628066492225966 0.0
8.985935132601089 4.455263493464225 0.0
9.00640209566022 5.067597672073404 0.0
9.833659276096986 6.976519563917422 0.0
8.0283368553477 4.687271895436317 0.0
8.326580191759327 9.127498457128247 0.0
8.650637373791266 5.07513089931925 0.0
8.701067313435203 2.700069743477523 0.0
4.825307249916392 4.884175191874744 0.0
9.418335984190309 6.858444798015129 0.0
3.91434687300816 8.542956908935874 0.0
5.569239724399552 2.064135034637056 0.0
5.234271567762738 2.128974435011933 0.0
5.757920427527626 2.312422707096966 0.0
5.43365689737979 2.427455772745759 0.0
5.673210219624612 2.602111218343444 0.0
7.214258468265766 6.652783071431555 0.0
9.823626269633962 4.30685540664529 0.0
7.96996639420014 4.794005510174826 0.0
7.616003332725032 0.502676560965646 0.0
3.050634530589821 4.659174799474146 0.0
2.870894249800723 4.246924313393336 0.0
5.285393339952368 6.079037173753393 0.0
9.439954241218905 4.23581687956071 0.0
9.67709722097145 4.710772408106511 0.0
7.40767785509217 4.259947873553335 0.0
8.396202587439676 5.486075637998701 0.0
8.323689688705493 5.372061002264632 0.0
8.191312386254125 5.384662546230823 0.0
5.304380054816289 5.369675374029755 0.0
9.093848379546637 4.047647920840374 0.0
7.916313220758624 3.045043876114836 0.0
8.435854831444637 4.144861908356168 0.0
9.060262453079693 0.7340576053322918 0.0
7.053195520344596 5.238809779682351 0.0
9.621762679347093 2.45205452967588 0.0
8.410730269104743 5.287995309529392 0.0
9.655094569234972 3.472720279371932 0.0
7.982140513923982 6.667914768024983 0.0
8.402690325256646 4.883576657130221 0.0
9.17488654147479 4.962006474835693 0.0
9.013188196102961 8.49700148123058 0.0
9.795977244531603 2.156818021002043 0.0
9.893813711206834 9.545820400859157 0.0
7.965349232662289 4.250048884270795 0.0
8.644264557989125 4.874751532150782 0.0
8.215430976121077 1.26077208565765 0.0
8.379717637669398 8.37324652769609 0.0
9.320026533461409 5.559861899725609 0.0
7.885778178744864 0.4977439426642278 0.0
7.547066983926719 5.125166613071239 0.0
7.657542898944819 5.122996245335209 0.0
7.423918840193691 9.000935553397358 0.0
9.854133000712425 5.541931969512857 0.0
9.328508174398952 2.101486405523264 0.0
9.300749600926641 9.530012105354274 0.0
8.130307182491519 5.277079344947874 0.0
8.346752967392757 4.987627363826086 0.0
9.118404185029991 6.007087846617186 0.0
9.048232213728614 5.89431792713258 0.0
9.088340967655858 5.576242562571367 0.0
8.094762487139027 4.789727191449318 0.0
9.915265904493378 5.749591413470928 0.0
9.92169805280126 6.154216704502091 0.0
9.918022441582268 4.549125436287157 0.0
9.919332362905616 4.849536560132457 0.0
9.914800786693318 6.750595509794719 0.0
9.811792900437824 6.703950687575952 0.0
9.900643083988882 3.749855087409844 0.0
9.912423171222734 3.043228996968949 0.0
9.91892875832665 5.949999999993851 0.0
9.913300070218703 3.960831593817277 0.0
7.709347001661226 4.444236534782706 0.0
7.479443107717332 8.071637285053104 0.0
8.839057072155848 6.807845119358974 0.0
8.972330068019902 6.78765448182788 0.0
8.542093772125282 3.941452413628317 0.0
8.279144752968262 5.930387616620717 0.0
9.393455876855919 4.973162505621418 0.0
9.507123333872533 2.855087674515822 0.0
8.77504684283825 2.317347145885344 0.0
8.394133129040345 4.464046960801843 0.0
5.725509852450801 8.210843960481027 0.0
5.62632390239664 3.967637659758752 0.0
7.910815814627989 4.900765971697654 0.0
8.595808444085467 5.590040244353608 0.0
9.705160502006024 0.8106158419444889 0.0
9.82021247904746 0.808810893177099 0.0
9.218352146075844 4.447736986422823 0.0
9.20781892622228 3.858281726888132 0.0
8.713609974387523 5.178241668554946 0.0
3.55755059259364 8.921522400238844 0.0
9.59122926011489 5.452844834281716 0.0
9.70565100407009 9.77887811062354 0.0
9.826938454219809 9.74303055702321 0.0
7.238962096855633 3.278078153406256 0.0
8.575609105166194 4.567807831727537 0.0
8.936449841121737 4.765835458965493 0.0
5.59323463391086 9.248527978398117 0.0
5.280809113285124 4.886132326418428 0.0
9.328132730893216 6.544753806716806 0.0
9.026944889277736 6.67247283515637 0.0
9.81946239021469 3.007926663525007 0.0
8.677633568960493 6.144049349297466 0.0
8.33427489656924 4.571212803519522 0.0
8.55734024448315 6.382535186588269 0.0
8.692399379422756 6.372347713955898 0.0
8.495817478252626 6.503308565233578 0.0
9.905494734661673 2.544078755559835 0.0
6.177101405266569 7.228490244483556 0.0
9.825373011845263 5.807482724503027 0.0
9.808678508609606 8.118683092442964 0.0
8.397717712407108 7.08010313863416 0.0
7.428555529689225 4.935946611338556 0.0
9.575504958128711 6.125633853639113 0.0
9.154066996197898 4.146562596982661 0.0
8.074381802159323 4.337569667261167 0.0
7.018337246891919 8.843475095716133 0.0
7.970627172560641 2.658650028065857 0.0
7.382546388883145 6.723381543491632 0.0
6.822972334933889 4.884555620881615 0.0
8.343732976791593 6.041576709398377 0.0
7.743680217306919 8.423336160305476 0.0
8.505717922983454 1.115022897794028 0.0
9.113973198216474 6.992972408167606 0.0
5.818882632841168 5.300437503812764 0.0
5.951991891717714 5.279516346785062 0.0
9.450183479138845 5.92934813870612 0.0
8.783346541536119 5.48419035750989 0.0
9.38074895894124 5.65076274999803 0.0
9.513658728876734 7.193620441323493 0.0
6.396040948797887 6.776064256962667 0.0
5.389661780244388 4.89715084345563 0.0
4.473247649068957 5.85935163892416 0.0
9.249586607512612 8.37680799459232 0.0
9.103796366487646 8.379197231055114 0.0
6.274057301184156 4.87985402946409 0.0
9.259628836118232 3.561431822636308 0.0
4.037922477011971 5.489409780163391 0.0
5.62712958624254 4.893925433488392 0.0
8.806426003347967 6.133410188141932 0.0
9.53304466499349 9.59279975429444 0.0
9.542890959420024 1.966631379116419 0.0
7.459736176874619 5.863847835420528 0.0
5.937613117200432 4.89232797168023 0.0
6.171611131472617 4.879541833448487 0.0
6.100695199816815 2.291172318314745 0.0
2.315194906726768 8.081958163666464 0.0
6.878489987598286 5.148099521847569 0.0
9.105264414399338 8.639184652727645 0.0
9.20047261316883 3.457820810661327 0.0
9.895329010385955 7.55944047105717 0.0
9.912742873006831 7.76210330502246 0.0
9.37761459375249 3.168397068877758 0.0
8.946121261512507 6.345629828835438 0.0
9.918632496443566 4.449809517365367 0.0
6.848211525651934 5.945010613369067 0.0
9.915721525903255 2.047407395915179 0.0
6.117255841708726 5.163321965161054 0.0
7.276595248786602 5.347247322210079 0.0
6.32682869954104 5.23674259421017 0.0
8.785886448438022 5.692775375342819 0.0
9.099994401883361 6.776698531382792 0.0
9.913397459621638 0.2499999999998165 0.0
9.910352525643928 0.4481571029410266 0.0
9.907850422008579 0.5479735220323012 0.0
9.911983631350465 9.24778487019403 0.0
9.917634740384067 0.7514684821956668 0.0
9.195214232985496 3.254172408378337 0.0
5.000896927376288 1.846006038077654 0.0
9.917172478547403 8.250155740683276 0.0
9.908120476950126 1.742986232208194 0.0
9.914524635720774 1.949567899316728 0.0
9.907358878377153 9.145625165175748 0.0
9.917695944922635 8.949999999998397 0.0
7.648387553139914 5.325741673607362 0.0
9.605343588986079 4.130627398479715 0.0
6.648113233057817 6.774798386229164 0.0
9.910347203087213 8.446729917003672 0.0
9.913623694530468 8.548470085896316 0.0
9.9201245863254 1.536225488581779 0.0
9.906538426683255 1.059019360781604 0.0
9.912867352010919 8.74999999999809 0.0
9.799662981388353 8.79550485462418 0.0
9.831828680383174 5.99966894118311 0.0
9.91414179906643 1.263025320602998 0.0
9.920690092699912 7.240982963665807 0.0
9.385889285950551 2.235126904097426 0.0
9.28133998925606 8.00415195851526 0.0
9.817074723108401 3.172398890123306 0.0
9.482030285089927 7.512954023388035 0.0
6.682432918504054 7.233889573028878 0.0
8.528699633246763 3.260502457553277 0.0
8.91699963742029 2.327016692708648 0.0
9.267676068834481 3.954520684561369 0.0
8.70811637467455 4.974101624783084 0.0
8.18184214270768 7.816666208279135 0.0
9.690393137288163 5.264344933127836 0.0
6.937111790104696 5.245184991960528 0.0
5.895846026722989 5.174232967273284 0.0
8.281683356622615 6.400073017261236 0.0
9.150883172924027 7.444273543454419 0.0
5.430406600793122 3.390815886517273 0.0
5.049583827974758 5.697634876048387 0.0
8.3966710383105 3.495813899905868 0.0
9.007538428392454 8.046563579784266 0.0
4.645155158868719 2.637132843684674 0.0
4.887444326771336 2.30020425915506 0.0
6.483736782775559 4.522536327482678 0.0
7.843169154548308 8.2116075844056 0.0
5.06295551628385 4.901632590583318 0.0
7.201400991012747 5.138239336380897 0.0
8.519791031104612 8.848807089071627 0.0
8.658623737989732 3.031313729049854 0.0
7.585566208322493 3.629882964874684 0.0
8.411818469596405 6.834326722716643 0.0
9.172363528634236 7.669230647622864 0.0
8.85455683341768 2.682483055215344 0.0
9.359398739738925 1.631421337140716 0.0
9.071793864444992 7.337030604117359 0.0
6.968394563521436 3.712808894519514 0.0
7.899236117684646 7.094583340182754 0.0
9.54362864504834 9.781852543872333 0.0
7.151298729743687 7.644795130415299 0.0
5.452218361466201 5.186873761308322 0.0
5.517642289161902 5.293540933999446 0.0
7.802500357665464 5.978295671754199 0.0
6.594850839687122 8.491429270558893 0.0
6.029132431949566 8.294997405201931 0.0
9.31286590869111 0.5672913838331921 0.0
9.25238720319541 0.4415953739444106 0.0
9.550589523211062 4.228044955453704 0.0
8.748611832783206 6.250900951984038 0.0
7.566980108995873 3.995148257893202 0.0
7.426142759241261 3.996743578498081 0.0
6.478912513785404 4.000296412419969 0.0
9.30435638148753 5.168210982711592 0.0
7.542154188520517 5.752525075248498 0.0
7.219033852073297 2.139582470800704 0.0
7.370913620388047 6.545121498197235 0.0
5.226731036024996 5.187572666585561 0.0
8.515591031124366 4.462223215179979 0.0
6.762864307079274 0.3078036604979366 0.0
8.587432696997471 4.977010533175154 0.0
8.703948448756302 8.815629076400704 0.0
8.081003990931544 7.370949680119862 0.0
7.424404567669909 6.949730915714445 0.0
8.578903262311433 8.377992954045473 0.0
7.301258690263783 6.106184350645308 0.0
5.991600556904204 3.99820087171043 0.0
8.203048538477193 1.601044215405025 0.0
7.289972483120081 4.572350254111052 0.0
7.714697186439165 5.420586967696794 0.0
8.918853780709807 1.841796898567452 0.0
9.919941345877513 4.749808449067644 0.0
7.245589454939737 5.94251251443003 0.0
9.258480524497795 3.358952871140391 0.0
3.705877615124628 5.574038727593425 0.0
8.287096858129765 7.962370605242409 0.0
6.799629860952143 3.705385600481528 0.0
4.146753450763018 6.544154457143895 0.0
7.413973555029582 5.545687501585183 0.0
8.466524978378082 4.980481756569235 0.0
7.336312153537934 2.337983522449311 0.0
7.695505222753409 3.747498713679684 0.0
4.898236813123799 4.795853653580084 0.0
4.59779105899602 1.896916774247134 0.0
8.560170375862322 7.072369101894893 0.0
8.386150468360862 2.449771437140704 0.0
8.41200018115259 5.084601315536367 0.0
5.102189912301071 7.621598618277815 0.0
8.336320418935243 6.71651223072348 0.0
5.081745734883095 3.977838926197614 0.0
7.63590698378166 0.9500570055008507 0.0
7.743369677149255 3.051233984704873 0.0
5.357527459690566 0.3809996753407537 0.0
5.967373112873382 0.7731113464301924 0.0
8.169449265206127 6.666271947462212 0.0
5.95122726745053 5.55758205410881 0.0
9.922289489207834 3.53923011719877 0.0
9.39154684476555 2.659037023454942 0.0
7.701415639167884 7.690060291860976 0.0
9.819179654793023 1.329863870021845 0.0
8.358229579054417 6.506108206863729 0.0
9.269720555169467 5.657096143475924 0.0
4.473187658045934 7.435037860084884 0.0
9.65807158077373 3.255496360750368 0.0
9.605155446454205 8.713645566904637 0.0
7.097383547728313 5.141197376985936 0.0
9.812212483832656 1.89920712759492 0.0
9.83875570675407 6.81603549325055 0.0
8.926246869879279 2.079976511571457 0.0
9.166785856141402 9.169070814302419 0.0
8.763479010228052 1.587152667342957 0.0
5.957377924852992 6.404530806530254 0.0
7.14506854375872 6.10342416684208 0.0
5.672595070581394 5.164323323112049 0.0
4.899782787268781 0.3801727265981219 0.0
4.447133848117348 4.673614099606824 0.0
7.044865074789195 3.253639989243549 0.0
9.818461337102992 7.819456450952447 0.0
9.925334577033155 7.954012377173311 0.0
6.352907898232792 1.173665225954276 0.0
7.351721385581032 5.660361289755705 0.0
9.337367583861807 2.76534436379692 0.0
8.693118347802024 4.360254099729149 0.0
9.476812970101324 0.3524826622168163 0.0
7.109868985890334 0.9024224571333925 0.0
7.899106846231403 5.511805431542581 0.0
8.352799544476607 5.187887629361129 0.0
6.957483547582747 0.6176251309213842 0.0
8.099559500483094 1.412323841044818 0.0
9.913030944540278 0.8542404645334569 0.0
9.143075088381442 8.022165366829135 0.0
8.819861450593166 6.356592599428041 0.0
9.319444417409162 1.49938505915629 0.0
6.490262520326714 7.118204362551877 0.0
6.490874470087819 6.582907761235813 0.0
9.82506653058937 0.6146757679104559 0.0
6.803129818897624 4.419048038171804 0.0
9.840901379354312 0.08198751964190581 0.0
9.839740374244226 9.918356239418472 0.0
8.551927134544655 9.449788917425456 0.0
9.92097857388158 3.249999999993177 0.0
5.797087413057367 7.077351493358238 0.0
9.255412859987286 6.433984412022419 0.0
8.668174522249984 1.740767926084485 0.0
9.920991430240607 6.25262219124529 0.0
7.57275248448898 1.94367954756322 0.0
8.052865444445507 8.19900054463639 0.0
8.748697149245206 4.25201068974208 0.0
9.158270227735827 0.5542256343091421 0.0
5.997487767477439 4.787924707603557 0.0
6.119759900601896 4.78043793682227 0.0
4.353034750397793 8.619182743639561 0.0
8.721093521611476 5.588932824583312 0.0
5.717101151444983 1.123034066822819 0.0
9.825602081347064 8.68753399402474 0.0
8.005502510832988 8.7824052910506 0.0
5.548184234622668 6.408009287230429 0.0
5.77830300433981 6.598697187164234 0.0
9.613093825495433 4.50282172481406 0.0
9.928981132641653 9.74928475696928 0.0
6.613628176297015 4.515513362596662 0.0
1.822126723816303 1.297795131355289 0.0
9.514164594137375 1.43081427463862 0.0
4.735494753432723 3.698541604583975 0.0
9.52844959749262 8.615213629960298 0.0
4.660704511759056 0.7947595073298008 0.0
6.82340845160293 5.239926830264399 0.0
7.885938077030673 7.380147032865134 0.0
7.884599891021201 6.09005968568029 0.0
8.846834820720167 9.653276456345532 0.0
8.457777199486827 0.3851010632068662 0.0
6.66485224572131 8.771510767670392 0.0
9.091499342133352 9.708315832477556 0.0
9.824286725109655 4.976315293637262 0.0
7.848197684391786 5.632217046637356 0.0
3.88430598115417 4.225391362015386 0.0
8.776890759183289 2.809688928468134 0.0
7.393884285023409 3.59397875231041 0.0
6.927568893329758 4.396788356869783 0.0
4.96854327720728 2.662368428358774 0.0
9.1480130720193 3.951479613991279 0.0
7.071049729490975 2.38092990636632 0.0
3.40193058782919 1.686321186206593 0.0
7.612042194200681 4.815904436723407 0.0
9.043395868401339 6.888481825015849 0.0
9.098933057562759 8.152197681006806 0.0
6.058682303253315 3.857501492181965 0.0
3.707092669281355 2.986685502034343 0.0
5.113272509841263 5.189455016444592 0.0
6.960565857079232 3.416349532571279 0.0
8.755151527375476 7.649255597361291 0.0
3.393680865444538 3.679982303262531 0.0
3.117424600120088 3.35605258976247 0.0
8.530814041264104 5.488376426140491 0.0
4.820719767306654 5.106646490188182 0.0
9.918899263509473 4.144927088739744 0.0
9.918194630017027 7.447268230913605 0.0
8.461970084137805 3.144844565847669 0.0
9.924415919486059 6.949999999995354 0.0
7.184050152099684 2.72771667662237 0.0
8.834356715215904 7.801565642745232 0.0
8.689015446783005 4.145232831954543 0.0
8.490778532265319 8.234414357968106 0.0
8.63666290918932 2.83060276219705 0.0
4.61028976098935 4.741894230894578 0.0
6.314735925012879 4.003132559161639 0.0
9.20786580425652 4.67001723737971 0.0
7.141401229301469 4.873205425098625 0.0
6.235177809922153 4.774126344778935 0.0
9.12491895896937 3.145675090615719 0.0
9.255747684068178 3.162525801823036 0.0
8.312852272796098 2.290855459722148 0.0
1.449266720542303 3.363629101350872 0.0
9.525687840398492 4.800807314407045 0.0
4.829905263804087 8.14474456977717 0.0
9.09338914689732 7.563794106183232 0.0
5.389401689694107 5.283808684471545 0.0
8.530979415204587 3.029374286908943 0.0
7.901489077080633 6.535344047486632 0.0
9.218572924671975 5.760893551533255 0.0
8.562382833959296 4.143913974026883 0.0
8.62959127904665 8.974877485888243 0.0
9.408442441596518 9.62276529745719 0.0
7.5034765601713 3.869833107932387 0.0
9.842813436634783 6.600620949014236 0.0
9.826116984327193 8.911617279149695 0.0
7.529907780698261 0.7369111006685982 0.0
7.832164962480427 2.905293639437395 0.0
8.39517908433056 3.267417602291069 0.0
9.823014010107707 9.085319632577246 0.0
9.022314123618541 3.944559746338292 0.0
4.243701230676532 5.332574856090426 0.0
9.816740542566388 1.127839952679595 0.0
8.166775715766304 5.693916696568397 0.0
8.865374421689054 8.068986769641638 0.0
8.761145809863661 6.470583506581853 0.0
8.998345275919851 9.209303502026401 0.0
9.698477487436316 6.706902829754045 0.0
6.439032098063426 0.3109134377713525 0.0
7.562681994382136 4.643158005207056 0.0
9.03999088074715 0.2799354672273258 0.0
5.180741540467516 3.805018725608906 0.0
6.243990330956698 2.718077286244967 0.0
9.79416634023361 0.1815240178579244 0.0
9.926540005061975 2.847049370876555 0.0
9.826476210374608 2.670192168078066 0.0
6.365816673179121 4.536333049275508 0.0
5.546353765219417 4.618331215552614 0.0
9.820703096450293 2.000649418331399 0.0
6.884388790679166 3.561583980715254 0.0
7.431303395649604 5.747824222777201 0.0
8.849816832721245 2.19318290395604 0.0
4.185147517585975 5.697469360586313 0.0
9.165905238119013 5.873664931582344 0.0
7.70479478158537 1.788324620089049 0.0
9.627376046933474 0.9196091445437269 0.0
6.657687963328663 5.144792385996769 0.0
9.83245016645186 0.3925568446109945 0.0
7.483092985762584 9.253837199159435 0.0
5.445348362202234 3.977855663863651 0.0
7.476680532833337 4.837183287808616 0.0
9.572749890969304 8.505160319814301 0.0
9.915853314998252 9.437014513917465 0.0
7.679469018350979 7.390484878021194 0.0
9.418139053434402 4.790576000488359 0.0
8.096967733471567 5.865447162201908 0.0
9.829153508938724 8.378494945652118 0.0
9.926595955569645 5.157718300415699 0.0
8.774484245600224 7.939747459426853 0.0
8.629764448155779 6.481031318922794 0.0
8.961169458302376 3.839036702328818 0.0
4.617199205561317 5.256318959792646 0.0
8.480815774219478 4.031210317621497 0.0
9.708341592512763 3.401018043990571 0.0
7.183974816647467 4.77882314543966 0.0
9.821437962294304 7.659391965474772 0.0
8.150320284869602 2.286501016204562 0.0
9.828114434347311 1.684891358832554 0.0
5.349187766238684 6.538177907133678 0.0
8.076053471314525 2.76180604769483 0.0
4.907713691134565 5.29818629967416 0.0
0.6874399366049438 4.328593906714074 0.0
0.6980011780697519 5.702671170050627 0.0
8.263861466707834 8.182284285231713 0.0
5.838783785156478 4.913981390426639 0.0
7.807619472656604 7.235706382002089 0.0
9.388504256318683 6.022122644748753 0.0
9.929839894767033 6.436189192303577 0.0
8.3205848711706 3.39107920408397 0.0
3.240770542267401 4.019899919523968 0.0
8.059047070496568 2.468855909103855 0.0
9.932479519490421 2.449625056415224 0.0
7.737639000139152 4.580708137963557 0.0
8.26141077223695 0.3940397126348397 0.0
9.69568953371801 1.959951226402445 0.0
6.469120930453264 4.892267070266994 0.0
9.167223997255698 0.8102256463122337 0.0
6.236889648241256 0.9291076084031108 0.0
8.306379082772498 5.268830342852036 0.0
6.716089118890225 5.239344620507032 0.0
9.82511981852641 9.282822358664017 0.0
6.68375719572285 4.404998642130821 0.0
8.913754712375674 6.908138360584365 0.0
6.173250048857013 5.251634416326969 0.0
4.235907497612446 1.924052997345291 0.0
5.151007663981651 2.438629730660893 0.0
8.924254300637541 9.3764975797567 0.0
4.438612423541503 5.287968640901957 0.0
8.571203234299599 1.897009944569934 0.0
6.878800676380218 5.821332862798138 0.0
5.710626178601224 4.792560699857408 0.0
7.149510071621283 5.216310009157644 0.0
2.099966541549645 2.334742113488256 0.0
9.93396330620579 5.350566393301629 0.0
7.143046479323961 8.646955109387985 0.0
7.965747313080266 5.193641450105844 0.0
6.3314394693073 5.135050228240639 0.0
7.665821333021348 6.222698255001823 0.0
6.305321657053551 4.659816230868476 0.0
7.833020917089713 5.208837056143474 0.0
9.41455902676429 2.869725681199307 0.0
8.567151507735133 6.598605357295113 0.0
7.405527786978573 4.377085529441429 0.0
6.552969697053132 5.137148974085434 0.0
9.93630620742063 8.042778076596578 0.0
7.166743296019233 4.593171678848165 0.0
6.595561806063966 5.839366735225723 0.0
6.066152182102007 5.262519562574559 0.0
9.834694151277489 0.9093455747994099 0.0
8.98259191950674 7.579732466796592 0.0
6.465071238839505 5.25485771955322 0.0
9.759759896588413 3.236659507608532 0.0
4.775529448101694 5.224235675150505 0.0
9.935991245222917 7.153416415978829 0.0
0.6530736820718381 9.352299998916202 0.0
0.6449439415299687 0.6468300344151556 0.0
7.804690364869245 4.495816547678174 0.0
9.84503784553893 5.70620404704573 0.0
9.83525329400959 3.826992990746767 0.0
9.922964894244684 4.265000406933376 0.0
8.333767638401964 1.121219971446645 0.0
8.876012546033895 7.019147158538482 0.0
8.172413577824324 3.413096916572049 0.0
7.232233017296214 4.478957103028363 0.0
6.214597295185415 3.852860083673202 0.0
9.85013791746415 4.400709747289421 0.0
3.941627380932058 6.342995010255737 0.0
3.097271569675528 8.77391871286929 0.0
9.292917152323044 6.010976049411984 0.0
8.104342196673183 5.184165973282902 0.0
8.994300084006271 3.652611812846807 0.0
9.937157897030163 5.549999999993244 0.0
8.721368888525245 7.274540720770752 0.0
8.920003648712827 0.9516585309368178 0.0
7.910527456030004 8.536826514867816 0.0
9.846441288756814 4.60515911863952 0.0
9.584942233925151 4.712073182517884 0.0
9.642357858573972 6.805672051759494 0.0
9.797024725252207 9.838837222258014 0.0
9.842451438022124 4.018973836958878 0.0
6.112723137676118 3.704473949316424 0.0
7.574641969193845 3.765362276156904 0.0
7.826594968121701 6.200366572362263 0.0
7.762805366733504 9.34009502796868 0.0
9.56854033867856 1.012566255816665 0.0
7.71256563655353 5.219373702836014 0.0
9.68039392238282 8.786964504862018 0.0
5.910362452777086 9.277662068919813 0.0
7.418090653922814 3.326443419100716 0.0
9.857704179097952 4.697553149694669 0.0
8.452469674653342 8.996585816905599 0.0
9.522351366699843 2.057525484575908 0.0
7.802315574700843 9.548878971475935 0.0
9.938875656926385 3.449999999992592 0.0
8.425189037911712 6.608575180629274 0.0
5.925965231566842 2.523669697740033 0.0
6.654918072256329 5.95749128982984 0.0
9.826748589235729 9.631118448471485 0.0
8.6684585637523 7.39633999085442 0.0
9.844673843931567 3.090088625379724 0.0
9.93613850661301 2.250382721159617 0.0
9.218291993658738 2.892108990205171 0.0
9.83502846611296 8.212781989607324 0.0
7.754136409732265 7.104288507262783 0.0
8.510570542791681 2.036933285735889 0.0
7.757745059307245 4.315798612475442 0.0
7.989231770559189 6.201656630465583 0.0
8.068934521422738 4.198631572122605 0.0
4.957478134450373 9.038766150325067 0.0
7.208661142641733 6.501402463831379 0.0
7.299506095906239 4.363561999234681 0.0
8.250303873550486 2.105322217421675 0.0
8.678637541413377 7.053471135702286 0.0
9.761528395137384 6.163503990672834 0.0
9.84494857233395 8.59999999999775 0.0
9.83825138794677 3.672838954969637 0.0
5.121008544047756 5.808127183024784 0.0
8.343911550360986 4.043535893276861 0.0
9.85324441775315 5.899999999993774 0.0
9.51114465213134 8.41035540646284 0.0
6.505812179224195 6.93390566262983 0.0
6.15572847138365 9.023097246950844 0.0
3.352081892333425 3.024853379890529 0.0
6.433163283162099 8.675072413910678 0.0
8.825744236698243 3.624446391299867 0.0
4.883007294861279 7.819620905924936 0.0
5.876659170760434 5.638247433601083 0.0
6.859400040348503 6.510797998354633 0.0
7.946400945409184 3.500317276373196 0.0
7.496830255505493 6.653194511698024 0.0
9.852183479755313 4.891525833556942 0.0
9.77998778436291 2.922486526124376 0.0
6.774672660492365 5.324728659740495 0.0
5.717254072187427 6.824125962512845 0.0
9.713440940838062 4.63793103997539 0.0
8.859858662536796 0.2721395536350836 0.0
8.37556017530946 9.436653414116012 0.0
7.395237381047616 7.885576562773319 0.0
5.4709157802033 4.511152089197594 0.0
9.489749416979361 9.691840729914848 0.0
4.599216022837964 3.46438688931078 0.0
5.572287492757569 4.807021644849729 0.0
9.926499336309957 9.92730688390086 0.0
9.926499336310107 0.07269311609890093 0.0
9.338127766332573 0.3585313952168247 0.0
6.810761948165162 3.414693294319008 0.0
8.166274345037138 5.943611545564389 0.0
5.2892644736731 6.301081312912763 0.0
9.731911074791544 7.649313380659622 0.0
8.90251102352767 9.50983415326544 0.0
8.997881406541017 1.033666784655452 0.0
5.835124768755703 2.738139962594905 0.0
9.665357480775825 6.185331297099201 0.0
7.656532192558493 8.217157287499347 0.0
9.170463887605525 2.975444721032631 0.0
4.208158615905443 0.8648302238584886 0.0
6.97015686031129 5.933674629077266 0.0
6.181941366523793 3.565885175921835 0.0
3.30313590337911 6.393402837735046 0.0
6.447482061767014 4.816169316820496 0.0
8.185341428749446 4.169172087371246 0.0
4.552595724340015 8.298301336212145 0.0
9.84850676569699 8.999999999998423 0.0
9.846941514449377 7.393642828194986 0.0
7.924592433490734 2.788309934035703 0.0
8.154308714226714 8.853640122009672 0.0
8.876629743004642 1.96110242719995 0.0
7.228849192966834 8.90811350348676 0.0
9.852301635085423 8.296637825215246 0.0
5.219795195341889 5.547413133147649 0.0
9.861497117995457 6.901363010201344 0.0
2.953911258021604 6.136007283255669 0.0
6.93158841067062 4.77708273647784 0.0
9.67540418457871 2.912802891506324 0.0
4.194055958522277 4.437353127730132 0.0
6.133959559341536 0.406856611599261 0.0
8.29952795189331 9.309744645643846 0.0
9.843692337952948 1.209647690818311 0.0
5.164986286280336 6.671544079402435 0.0
9.838533350075606 2.081705440779448 0.0
8.301244777513975 6.604088853319459 0.0
5.471494771710784 2.714598185146428 0.0
8.86534684892311 1.208599471795828 0.0
9.940610684232212 1.451558535868664 0.0
9.40896208432968 1.428353940655538 0.0
2.329177605337097 4.238803555614174 0.0
5.980761651517799 7.182207186682233 0.0
9.66541573964336 0.1719254072074424 0.0
7.220979380229172 7.806128737674462 0.0
1.251721227904697 6.151932667911503 0.0
8.104967286191181 6.057912607875576 0.0
6.650768762224724 4.817922869198292 0.0
6.634976350437587 3.213339182992986 0.0
7.034320437500567 4.898219100342838 0.0
9.502772020064167 6.283064492634301 0.0
8.13187938667684 3.518506862055515 0.0
9.855471943454193 2.599999999994991 0.0
9.056747742708522 8.263936599935574 0.0
4.352645795441222 5.724453640019 0.0
3.744263984699181 1.488951698361357 0.0
5.175860134287045 3.6375726667098 0.0
7.736434712114619 6.400417475661193 0.0
9.857658576695343 6.316607183405179 0.0
7.876525261950537 4.304285002335559 0.0
9.856114384785611 7.914602773442983 0.0
9.848334119947063 0.7059644476295188 0.0
9.59694321995579 6.895814046141667 0.0
5.906465212962551 3.869023950643881 0.0
9.840676994268005 9.364956386459765 0.0
5.355015287544095 3.83518170601625 0.0
6.374090407153147 5.855743754257685 0.0
8.227401290513832 5.297819733684674 0.0
5.451235131977493 4.825706629991923 0.0
6.022070213762754 5.355923882747634 0.0
9.845674433677614 6.108401449483281 0.0
9.835067400944396 7.739582406783081 0.0
8.602026805792988 2.941372356914139 0.0
5.059869081004962 5.269480960018243 0.0
5.284714507903736 5.26496663762182 0.0
9.627110479149561 7.660076105040499 0.0
6.820001127809743 4.792514421153957 0.0
5.120512795059439 4.806607659110254 0.0
9.56933817216883 2.911464407429096 0.0
9.74091654291531 9.267545397628387 0.0
9.93006767325302 6.576784040838644 0.0
9.642486276936268 4.650227701598451 0.0
5.185183328569137 9.410919109238325 0.0
9.37052946854105 4.605636695802024 0.0
1.677077220416309 5.871167715901136 0.0
7.345783833404538 3.184020711886284 0.0
5.419239942654976 5.982692039856376 0.0
6.133318300188262 2.551919945731369 0.0
6.187291396343277 4.499077117404439 0.0
1.231465237822878 3.921479198315213 0.0
8.969849937139944 9.699215363213542 0.0
9.218303154263054 6.037447959776716 0.0
CELLS 4886 19544
3 1113 1356 1450
3 1402 231 1659
3 272 269 1414
3 396 394 1777
3 1451 945 1452
3 194 81 1801
3 1847 1501 2104
3 2024 2121 2479
3 1115 1113 1450
3 1124 1413 1844
3 1061 1955 2409
3 307 305 1645
3 1592 1369 1593
3 238 1501 1847
3 1955 1883 2409
3 1808 243 1910
3 1885 978 2362
3 1440 793 2092
3 189 1488 1608
3 353 350 1864
3 2007 2231 2232
3 307 1645 2493
3 1096 1760 2496
3 2178 874 2179
3 621 625 1595
3 1493 1480 1938
3 1655 1268 2137
3 1341 1410 2212
3 243 1808 2360
3 1902 1446 2516
3 1760 1096 1763
3 856 790 2180
3 2008 2046 2105
3 789 1809 2067
3 694 1543 1575
3 1127 1762 1953
3 1748 807 2228
3 1543 1308 1575
3 820 1872 2170
3 1417 954 1998
3 1369 1592 2386
3 272 1414 1787
3 329 333 1998
3 1544 1095 1545
3 2231 1490 2232
3 1342 1683 1790
3 374 377 1797
3 807 1678 2228
3 1665 198 2128
3 141 142 1620
3 325 322 1952
3 231 1402 1654
3 198 1665 2010
3 1890 1307 2387
3 208 1438 1619
3 2016 1970 2156
3 1436 212 2020
3 954 1417 2333
3 1736 1894 2244
3 1491 1750 2143
3 1677 1064 2146
3 1474 1258 1475
3 1500 233 1930
3 1446 2415 2516
3 1700 973 1800
3 2128 2270 2316
3 1316 1315 1593
3 1307 2341 2387
3 2258 1324 2328
3 1083 1507 1508
3 693 1095 1544
3 621 1595 1596
3 667 1571 1872
3 1932 1766 2061
3 393 391 2240
3 1342 1790 2400
3 252 1707 2234
3 931 978 1885
3 1430 1116 1704
3 1411 1109 1714
3 1478 1227 2440
3 1990 195 2297
3 1792 1167 1985
3 1682 444 1975
3 394 397 1777
3 1711 2028 2162
3 1574 856 2180
3 2008 1851 2046
3 736 1493 1938
3 1069 1060 1662
3 1458 455 1754
3 862 691 1705
3 1161 1642 2286
3 1699 1700 1800
3 447 516 1637
3 955 1482 1483
3 2024 206 2121
3 391 1773 2240
3 1072 1412 1893
3 212 1436 2350
3 1566 1365 1568
3 259 1441 1672
3 872 870 1764
3 330 328 1889
3 1539 1161 2286
3 1897 1898 2275
3 1434 1990 2297
3 1109 1411 1730
3 319 307 2493
3 1762 1761 1953
3 1369 1316 1593
3 1540 834 1832
3 1505 652 2442
3 1732 1655 2137
3 921 1712 2295
3 1872 1388 2170
3 1712 921 2125
3 2028 244 2162
3 1506 1570 1680
3 1569 368 1964
3 1571 667 2375
3 1587 2178 2179
3 196 1723 1737
3 524 2016 2156
3 1528 1250 1733
3 1115 1450 1973
3 1938 1480 1971
3 1809 1396 2067
3 1641 249 2299
3 1223 1258 1474
3 1365 1566 2120
3 1981 962 2316
3 1538 353 1864
3 455 1458 1756
3 152 233 1500
3 1116 1430 1703
3 817 652 1505
3 1347 2003 2004
3 1607 1958 2085
3 194 1801 2195
3 1410 1341 2351
3 223 1415 1710
3 197 1511 2346
3 2198 787 2225
3 81 82 1801
3 1438 208 1620
3 1444 522 1823
3 1511 197 1950
3 726 718 1567
3 1637 516 1739
3 1708 2337 2341
3 1280 1649 2124
3 2337 1395 2341
3 1327 1709 2315
3 1225 1227 1478
3 691 624 1705
3 476 2224 2305
3 830 832 2204
3 1750 1491 2403
3 1366 1897 2275
3 2345 1583 2352
3 2054 405 2110
3 1984 2172 2230
3 1846 2198 2225
3 1177 2042 2418
3 2121 1367 2479
3 1527 1531 1541
3 916 1039 1834
3 1413 1124 2467
3 1622 1503 1868
3 249 1641 2019
3 1805 405 2054
3 1761 1007 1953
3 1415 223 2395
3 960 1756 2203
3 368 1569 2135
3 1402 1659 2473
3 941 1433 2471
3 1267 1477 1501
3 260 2002 2265
3 1704 558 2077
3 2224 1886 2305
3 2053 1386 2199
3 1452 945 1952
3 1717 1611 1718
3 1682 1975 2230
3 1760 1762 2496
3 1481 203 2104
3 1264 1266 1670
3 142 236 1620
3 2133 1182 2179
3 1791 1602 2183
3 350 346 1864
3 1412 1072 2393
3 1281 1575 2255
3 1565 1948 2155
3 849 1449 1513
3 1958 396 2085
3 1339 1069 1662
3 834 1540 1917
3 269 267 1414
3 1268 1267 1501
3 1440 2092 2468
3 1399 1981 2316
3 1635 1636 2041
3 1454 252 2234
3 1451 1305 1890
3 1375 1883 1955
3 362 366 1786
3 1484 2410 2528
3 1449 849 1640
3 1267 1474 1477
3 200 1611 1717
3 1054 1581 1582
3 1350 1977 2253
3 190 1390 2118
3 788 1956 2193
3 1709 1327 1888
3 2233 2298 2413
3 1488 189 2355
3 478 1685 1714
3 230 1525 1690
3 1687 478 1688
3 427 429 1756
3 1570 1065 2476
3 1880 1133 1988
3 1649 656 2124
3 1537 209 1614
3 1134 1769 1986
3 1220 1268 1655
3 396 1777 2085
3 1167 1755 1985
3 2229 1744 2296
3 1575 1281 2287
3 127 240 1882
3 377 647 1797
3 954 329 1998
3 220 1697 1698
3 1342 1341 2212
3 1441 264 1672
3 1512 188 2433
3 763 2345 2352
3 1685 1411 1714
3 1805 1188 1951
3 1347 2004 2157
3 1054 1582 1667
3 1333 1617 1674
3 2217 73 2361
3 1539 1036 1917
3 1039 1292 1834
3 208 141 1620
3 1965 1964 2038
3 693 1544 1969
3 1453 239 2279
3 203 1481 2049
3 945 1451 1889
3 680 1459 2134
3 354 2147 2196
3 1405 1932 2061
3 1723 1722 1737
3 1748 1175 1927
3 1532 1528 1733
3 2057 1824 2154
3 1406 1659 1702
3 1948 1186 2155
3 210 1598 2114
3 1685 478 1687
3 1324 1325 2328
3 1526 1250 1527
3 165 166 1509
3 1493 736 2523
3 1526 1527 1541
3 1390 190 2417
3 522 1444 1998
3 1680 1570 1732
3 1017 1442 2525
3 374 1797 2430
3 1507 1083 2197
3 1756 960 2221
3 2270 1400 2316
3 2205 1452 2282
3 1074 1187 1888
3 2158 1245 2200
3 1442 1017 1684
3 864 1116 1703
3 1750 1751 2143
3 1456 516 1492
3 1677 2146 2149
3 2022 1339 2388
3 1602 258 2183
3 678 1594 1595
3 1245 1670 2200
3 972 830 2204
3 2143 983 2342
3 1268 1501 2226
3 1266 1461 1670
3 1487 222 2465
3 1382 2022 2388
3 58 59 1661
3 2147 1543 2196
3 1484 1485 2410
3 628 2053 2199
3 1906 1549 2259
3 364 362 1786
3 1339 2022 2247
3 1636 525 2041
3 625 678 1595
3 678 1593 1594
3 2212 1410 2222
3 1837 1865 2215
3 1699 1800 1801
3 866 864 1703
3 893 1472 1982
3 1735 1736 2244
3 1633 1255 1922
3 126 127 1882
3 681 867 1656
3 1351 1401 2363
3 11 228 1588
3 1127 1953 2454
3 265 266 267
3 1722 1122 1737
3 1389 1691 2069
3 1613 1610 1616
3 1227 1256 2440
3 429 455 1756
3 1535 1177 2418
3 322 324 1952
3 973 1700 1802
3 1964 368 2038
3 1176 1865 1866
3 1096 872 1764
3 1176 1866 1875
3 193 1839 1892
3 156 157 1441
3 615 617 1596
3 686 1520 2480
3 1409 2097 2305
3 2410 1151 2528
3 1427 2217 2361
3 440 1911 2314
3 1744 1743 2296
3 516 1456 1739
3 1939 589 2164
3 690 931 2150
3 1062 1579 1580
3 1054 1580 1581
3 955 1483 1716
3 1064 1677 2248
3 1956 1616 2193
3 1776 1893 2026
3 1398 1115 1973
3 2002 1453 2265
3 1541 1531 1542
3 216 2191 2536
3 1736 1326 1894
3 1065 994 1066
3 1598 2115 2175
3 2314 1911 2358
3 1433 941 2042
3 2115 1209 2175
3 717 1550 1551
3 188 1941 2433
3 267 1132 1414
3 771 1569 2064
3 1157 1545 1546
3 1231 1250 1526
3 1933 240 2181
3 222 1487 2025
3 1525 230 1765
3 1430 1704 2077
3 757 1744 2495
3 264 263 265
3 883 773 1917
3 739 2205 2282
3 1667 1582 2434
3 1744 757 2474
3 239 1453 2002
3 1441 259 2356
3 2005 1443 2012
3 254 1766 1932
3 1509 166 1679
3 1477 1475 1481
3 793 1440 2165
3 1385 1523 2377
3 1481 1475 2523
3 156 1441 2356
3 1066 1220 1655
3 945 325 1952
3 2094 2087 2134
3 1747 1175 1748
3 253 262 263
3 1327 1074 1888
3 718 715 1567
3 2046 1043 2105
3 240 1933 2399
3 1305 1307 1890
3 224 58 1661
3 1195 1566 2285
3 1590 1393 1749
3 1255 1230 1922
3 353 1538 2073
3 358 1999 2325
3 882 1802 2036
3 1024 1020 1604
3 333 522 1998
3 1401 1351 2414
3 1475 1258 1476
3 2310 786 2364
3 328 945 1889
3 807 1748 1927
3 825 724 1912
3 1742 263 2491
3 267 266 1132
3 2077 2102 2203
3 1431 1432 1860
3 1212 1957 2312
3 2097 476 2305
3 1132 1402 2473
3 717 713 1550
3 1746 693 1969
3 1372 1124 1844
3 1256 1541 2269
3 1977 1350 2274
3 2332 1978 2443
3 874 2133 2179
3 1983 1534 2171
3 1157 1544 1545
3 1230 1228 1922
3 1580 1579 1581
3 1565 806 1948
3 1416 1363 2413
3 1287 1995 2398
3 265 263 266
3 1534 1529 2171
3 1604 1834 2428
3 1255 1633 2509
3 1344 1643 1644
3 1332 1388 1571
3 1423 217 2217
3 2191 1057 2451
3 458 447 1637
3 1250 1233 1733
3 472 2212 2222
3 1175 1747 1840
3 1652 256 1653
3 1073 1347 1572
3 200 145 1609
3 683 640 1585
3 1116 862 1705
3 1221 1223 1474
3 1778 801 1803
3 1503 1622 2471
3 1475 1493 2523
3 464 680 2134
3 14 210 2114
3 579 1880 1988
3 1434 1435 1990
3 1447 2310 2364
3 275 274 276
3 2294 1871 2419
3 814 1068 1684
3 1172 1439 2273
3 273 272 274
3 1363 1416 2406
3 1220 1219 1221
3 1060 1656 1662
3 1099 1792 1985
3 2048 1198 2168
3 1241 1245 2323
3 699 723 1753
3 1640 1862 2070
3 910 1018 1584
3 1586 1067 1587
3 1656 867 1662
3 1067 686 2480
3 654 2242 2294
3 1593 1315 1594
3 1880 553 1974
3 236 1717 1718
3 617 621 1596
3 1723 196 2313
3 402 1877 2116
3 273 274 275
3 2202 1869 2252
3 1510 1358 1767
3 193 1892 2373
3 1188 1805 2054
3 1220 1221 1267
3 1066 1218 1219
3 1517 1097 1518
3 1677 1676 1858
3 686 277 1520
3 268 267 269
3 697 857 1592
3 220 1698 1699
3 1802 1700 2036
3 1612 1537 1614
3 929 817 994
3 228 12 2136
3 2110 2116 2482
3 1659 1658 1702
3 1611 1613 2280
3 1344 991 1643
3 683 1585 1604
3 1638 1358 2404
3 1485 1034 2410
3 2214 833 2424
3 271 272 273
3 1482 955 1962
3 1066 1219 1220
3 931 1885 2150
3 1613 1891 2280
3 1189 1589 2204
3 1566 1195 2120
3 726 1567 2490
3 1122 1722 1874
3 1494 319 2493
3 1671 259 1672
3 1267 1221 1474
3 603 528 1591
3 1664 2128 2316
3 1817 1924 2174
3 1626 1660 2111
3 1474 1475 1477
3 1023 1062 1580
3 1957 1599 2312
3 1764 1939 2164
3 1358 1950 2404
3 200 1609 1610
3 1431 1082 1432
3 1778 1803 2521
3 1830 1832 2075
3 1930 233 2369
3 1329 1482 1650
3 757 1959 2522
3 1239 1247 1597
3 758 1978 2332
3 1569 1290 2064
3 216 1694 2191
3 1453 1420 2265
3 1549 1906 2129
3 24 215 1674
3 19 235 1676
3 1621 1057 2191
3 1691 1389 2262
3 1617 1333 2192
3 929 994 1065
3 1769 1672 1986
3 1893 1412 2026
3 1609 1537 1612
3 271 269 272
3 1373 1438 1620
3 217 1423 2381
3 517 330 1889
3 1322 1055 1667
3 1974 553 2499
3 228 2136 2187
3 1589 1189 1788
3 1999 1577 2325
3 2110 405 2116
3 189 1608 1842
3 1055 1050 1667
3 739 1455 2205
3 1865 1176 2215
3 319 1494 2522
3 2474 757 2522
3 1484 227 1485
3 10 11 1588
3 723 809 1753
3 27 230 1689
3 1550 806 1565
3 1179 1180 1217
3 207 1617 2192
3 1433 1217 1502
3 1562 1556 1606
3 1379 2017 2018
3 1245 2158 2323
3 675 1097 1517
3 884 501 1599
3 1020 683 1604
3 1603 1095 1848
3 1001 2057 2154
3 1604 1585 1834
3 1610 1612 1616
3 1764 870 1939
3 2242 1871 2294
3 1669 1264 1670
3 1658 213 1702
3 1995 1646 2398
3 631 539 1600
3 1491 2143 2342
3 1801 1800 2195
3 1200 1199 1693
3 1535 940 1861
3 1534 758 2332
3 914 2258 2328
3 1588 228 2457
3 216 138 1694
3 151 152 1500
3 1133 1880 1974
3 1677 1858 2248
3 1294 1622 1868
3 875 1010 1767
3 1379 2018 2416
3 1279 2202 2252
3 182 256 1652
3 1592 857 2386
3 672 681 1656
3 615 1596 1824
3 1093 1487 1623
3 1823 522 2100
3 1245 1242 1669
3 1582 1581 1583
3 758 1534 2306
3 1975 1984 2230
3 1358 1510 1950
3 1663 1336 1665
3 2102 960 2203
3 366 1087 1786
3 1740 1490 2231
3 21 207 1709
3 145 146 1609
3 2339 765 2384
3 603 1591 1668
3 2081 199 2149
3 1540 1832 1879
3 1721 1723 1947
3 1754 455 1793
3 1751 1753 2119
3 882 1701 1807
3 1540 1539 1917
3 242 1695 1697
3 1521 354 2091
3 1363 2233 2413
3 1584 1018 1925
3 703 1067 1586
3 1177 1178 1179
3 795 916 1834
3 277 276 607
3 1571 1388 1872
3 22 23 1617
3 1097 823 1177
3 25 26 1624
3 419 418 1790
3 1728 1906 2259
3 440 1455 2261
3 1877 1318 2116
3 1488 1156 1608
3 1439 2130 2273
3 1889 1451 1890
3 1614 209 2389
3 1472 893 2094
3 675 821 823
3 23 24 1674
3 1788 1190 2183
3 917 941 1622
3 1763 1096 1764
3 1068 1442 1684
3 1034 1485 2173
3 2172 1533 2230
3 138 139 1694
3 1065 1570 2197
3 607 674 675
3 1536 1248 2268
3 229 135 1734
3 1437 1925 1926
3 680 510 1646
3 147 209 1537
3 26 27 1689
3 1627 705 2163
3 206 1651 2121
3 2409 1785 2462
3 1492 682 2447
3 1223 1225 1258
3 889 1772 2374
3 253 263 264
3 275 276 277
3 1455 739 2261
3 2022 1382 2176
3 150 227 1484
3 639 1019 1591
3 1449 1640 2070
3 1082 833 2214
3 1503 1502 1504
3 144 200 1717
3 1643 991 1713
3 1190 1791 2183
3 1538 1804 2073
3 1256 2269 2440
3 18 19 1676
3 521 531 2000
3 790 849 2180
3 1075 1329 1650
3 1087 1782 1785
3 1066 994 1218
3 270 269 271
3 682 1492 2494
3 185 252 1454
3 253 158 262
3 1629 1632 1633
3 200 1610 1611
3 1477 1481 2104
3 1623 1487 2465
3 1518 1097 1535
3 1414 1132 2460
3 1179 1217 1433
3 177 1506 1680
3 1392 1017 2525
3 1832 834 2075
3 675 823 1097
3 1459 2094 2134
3 1782 1087 1795
3 1838 1730 2372
3 1639 149 2528
3 1617 23 1674
3 2265 1420 2489
3 180 232 1859
3 1527 1250 1528
3 20 21 1709
3 1083 1508 2311
3 903 866 1703
3 1455 440 2314
3 1187 1858 1888
3 1659 1406 2473
3 1446 1902 2166
3 421 1951 2106
3 1598 210 2115
3 154 259 1671
3 1288 1835 2080
3 1832 1831 1879
3 1258 1225 1478
3 1024 1604 2117
3 1263 1429 1739
3 706 705 1627
3 1583 1581 2352
3 407 1805 1951
3 856 1574 2527
3 1701 882 2036
3 1624 26 1689
3 717 1551 1552
3 1385 2377 2391
3 2302 1745 2354
3 1572 1347 2157
3 1036 883 1917
3 1689 1690 1691
3 1664 1665 2128
3 1476 1479 1480
3 1751 2119 2143
3 815 814 1684
3 1790 889 2400
3 1606 1607 2085
3 265 267 268
3 418 889 1790
3 1522 1521 2091
3 135 136 1734
3 1726 1445 1729
3 647 1796 1797
3 1346 1453 2279
3 1293 1827 2117
3 1242 1244 1669
3 1853 1852 1854
3 889 2374 2400
3 1039 1038 1290
3 1524 628 2199
3 1331 1332 1571
3 1291 1290 1569
3 1475 1476 1493
3 1850 1852 1853
3 1490 1740 2456
3 1689 230 1690
3 1256 1526 1541
3 1704 1705 2167
3 1465 1470 1675
3 956 1073 1572
3 1613 1616 1956
3 916 917 1038
3 2014 1522 2091
3 1221 1222 1223
3 1999 763 2352
3 234 10 1588
3 1697 220 2335
3 1527 1528 1529
3 2298 1600 2413
3 1436 2020 2254
3 1642 1161 1678
3 1523 1385 2436
3 1730 1838 2426
3 795 796 916
3 713 711 1550
3 1456 1263 1739
3 999 1336 1663
3 1785 1784 2462
3 409 415 1783
3 607 675 1517
3 1229 1231 1526
3 1958 1855 2078
3 1589 1588 1590
3 1933 261 2380
3 762 1965 2038
3 1756 1458 2203
3 1776 597 1893
3 1794 1072 1893
3 188 1512 2266
3 1774 2339 2384
3 188 1908 1941
3 1010 1510 1767
3 2189 2285 2307
3 773 834 1917
3 1245 1669 1670
3 1248 1597 2268
3 146 1537 1609
3 818 910 1584
3 1641 1313 1651
3 1217 1745 2302
3 1065 1066 1655
3 1597 1247 2047
3 1360 2177 2376
3 1612 1615 1616
3 2126 867 2186
3 1019 683 1020
3 1747 892 1840
3 1092 1093 1623
3 261 1933 2181
3 400 424 1666
3 1516 1903 2377
3 1100 1392 1605
3 247 1738 1881
3 268 1134 1986
3 1177 823 1178
3 884 1599 1957
3 263 262 2491
3 806 1627 1948
3 1227 1229 1256
3 191 1729 2504
3 1636 1635 2502
3 1480 1479 1601
3 1721 1947 2498
3 1924 1146 2174
3 229 1734 1735
3 175 204 1725
3 1179 1178 1180
3 354 1521 2147
3 665 697 1592
3 640 646 1585
3 627 545 1636
3 1882 240 2399
3 1556 1555 1606
3 1373 1620 2394
3 1871 1071 2419
3 548 1628 1629
3 455 436 1793
3 974 1831 1841
3 1844 1413 2392
3 1612 1614 1615
3 209 1639 1937
3 1329 1330 1331
3 1823 2100 2142
3 1097 1177 1535
3 1021 1020 1022
3 825 1912 2455
3 913 1122 1874
3 400 1666 2113
3 1256 1229 1526
3 1419 1418 2450
3 1552 1551 1553
3 1850 1099 1852
3 1629 1631 1632
3 801 685 2029
3 1618 1619 1621
3 265 268 1986
3 1715 2165 2330
3 1531 1529 1534
3 1022 1024 1576
3 658 693 1746
3 703 686 1067
3 1062 1576 1577
3 1023 1022 1062
3 236 1718 2394
3 1688 502 1740
3 1501 1477 2104
3 213 165 1509
3 646 795 1585
3 196 1737 1738
3 379 679 1795
3 639 640 683
3 924 875 1767
3 1752 699 1753
3 207 2192 2315
3 627 1636 1660
3 1217 1180 1745
3 730 728 1833
3 528 561 1591
3 1444 1417 1998
3 252 186 1602
3 1729 1445 2504
3 460 502 1688
3 1418 946 1778
3 1203 1200 1693
3 548 470 1628
3 849 668 1640
3 646 785 795
3 607 276 674
3 14 15 210
3 147 148 209
3 478 460 1688
3 1709 207 2315
3 1157 1546 1608
3 1155 1731 1899
3 1524 1934 2390
3 1775 921 1876
3 1433 1502 1503
3 470 458 1628
3 1223 1224 1225
3 1291 1569 1964
3 871 1056 1826
3 1781 1783 1915
3 1587 1067 2300
3 916 1038 1039
3 1388 1387 1389
3 1611 1610 1613
3 1075 1328 1329
3 1039 1290 1291
3 1538 1265 1804
3 1184 1185 2163
3 597 598 1794
3 1450 1356 2421
3 1835 576 2080
3 1629 1628 1631
3 1331 1330 1332
3 561 639 1591
3 1476 1480 1493
3 705 703 1586
3 639 683 1019
3 1951 1188 2106
3 436 446 1793
3 1472 1297 2142
3 1332 1387 1388
3 1345 984 1720
3 1329 1328 1330
3 1050 1048 1667
3 150 151 227
3 11 12 228
3 557 541 2256
3 1831 974 1879
3 134 229 1766
3 1357 1358 1638
3 1336 1641 2299
3 1650 1482 1962
3 1591 1019 2512
3 1506 1507 1570
3 1803 801 2029
3 1178 823 1972
3 1552 1553 1554
3 1290 1038 1294
3 1028 1313 1641
3 1237 1239 1597
3 993 1017 1100
3 893 2087 2094
3 149 1484 2528
3 1768 1142 1949
3 9 234 1673
3 1554 1553 1555
3 668 632 1640
3 711 806 1550
3 1628 458 1637
3 1098 1829 1830
3 1482 1331 1483
3 531 1818 2000
3 435 419 1790
3 1156 1157 1608
3 1182 1184 2179
3 510 512 1646
3 1231 1233 1250
3 946 841 1778
3 1483 1331 1571
3 1459 680 2458
3 1166 1040 1210
3 892 1657 1820
3 1042 1445 1726
3 1019 1020 1021
3 749 805 1810
3 234 1588 1589
3 1695 242 1892
3 556 1853 2483
3 1018 1572 1573
3 1529 1528 1530
3 1606 1558 1607
3 1761 1759 2308
3 1396 1032 1921
3 1018 956 1572
3 689 1150 1416
3 1827 1293 2515
3 149 150 1484
3 1647 656 1648
3 1543 694 2196
3 399 409 1783
3 545 525 1636
3 268 269 270
3 715 713 717
3 1100 1017 1392
3 1657 892 1747
3 207 22 1617
3 1666 884 2249
3 1671 1672 1769
3 1554 1555 1556
3 146 147 1537
3 1081 1444 1822
3 711 709 806
3 1443 2005 2322
3 660 658 1746
3 1166 1458 1754
3 916 796 917
3 1056 1728 1826
3 1068 1069 1275
3 184 185 1454
3 158 159 262
3 2007 1687 2231
3 805 1708 1810
3 1672 264 1986
3 1561 1562 1563
3 978 1075 1650
3 1590 1588 2457
3 215 25 1624
3 1551 1550 1565
3 1073 1346 1347
3 857 818 1584
3 1648 656 1649
3 675 674 821
3 561 594 639
3 1731 529 1899
3 2303 1454 2535
3 981 903 1040
3 1630 1629 1633
3 993 877 1017
3 724 718 726
3 512 603 1646
3 1676 235 1858
3 814 1060 1068
3 715 717 1567
3 1796 647 1870
3 1715 1171 2165
3 678 1592 1593
3 644 613 1824
3 1690 1525 2145
3 1297 1822 1823
3 271 656 1647
3 1704 1116 1705
3 1225 1226 1227
3 1275 1069 1338
3 910 956 1018
3 1824 1596 2154
3 1403 1100 1605
3 1221 1219 1222
3 1068 1060 1069
3 1901 245 1949
3 1081 1055 1321
3 1751 563 1752
3 1021 1022 1023
3 672 638 681
3 1095 657 1848
3 1235 1237 1248
3 1561 1556 1562
3 1265 1259 1804
3 524 1819 2016
3 978 1650 2362
3 1492 516 2494
3 229 1735 2061
3 185 186 252
3 157 158 253
3 152 153 233
3 9 10 234
3 1527 1529 1531
3 1808 1344 2360
3 1062 1577 1579
3 1509 1679 1977
3 424 454 1666
3 637 638 672
3 981 1040 1166
3 1555 1558 1606
3 751 749 1810
3 1166 1210 1458
3 1651 1313 2121
3 15 16 2260
3 1633 1632 2509
3 2167 1705 2276
3 551 602 2045
3 697 818 857
3 364 1786 1883
3 832 1189 2204
3 1476 1478 1479
3 678 665 1592
3 213 1509 2096
3 1015 888 1124
3 1062 1022 1576
3 679 1782 1795
3 680 1646 1995
3 1101 1100 1403
3 1109 433 1714
3 1248 1237 1597
3 733 730 1833
3 1702 213 2096
3 499 498 1828
3 1418 1778 2521
3 637 600 638
3 1048 1046 1054
3 1577 1576 1578
3 814 766 1060
3 1279 2252 2292
3 474 470 548
3 199 18 1676
3 157 253 1441
3 1048 1054 1667
3 471 472 2290
3 625 665 678
3 795 785 796
3 1264 1265 1266
3 1437 1926 2350
3 1362 2048 2168
3 1394 2337 2371
3 454 884 1666
3 1022 1020 1024
3 751 1810 1923
3 1046 1023 1580
3 1807 1701 1931
3 1618 208 1619
3 566 588 689
3 1828 498 1829
3 501 509 1599
3 1118 780 1775
3 878 817 929
3 1510 1511 1950
3 1618 1621 1694
3 1052 1081 1822
3 1416 1150 1715
3 1239 1241 1247
3 1396 1921 2067
3 1751 1752 1753
3 1264 1259 1265
3 539 566 1600
3 1762 1127 2496
3 1673 1788 2183
3 1555 1557 1558
3 1052 1050 1055
3 725 724 825
3 1142 1770 1771
3 681 853 867
3 454 501 884
3 1346 1420 1453
3 932 1147 1770
3 1546 1545 1547
3 533 582 1818
3 1266 1337 1460
3 1872 820 2318
3 1117 1119 1713
3 1081 1321 1417
3 1253 1259 1264
3 1569 771 2135
3 1052 1055 1081
3 1181 1178 1972
3 709 706 1627
3 1073 1076 1346
3 1098 1828 1829
3 1382 1380 2176
3 1442 1275 1443
3 919 999 1663
3 1789 828 1855
3 877 815 1684
3 509 539 631
3 992 877 993
3 1266 1265 1337
3 2268 1498 2340
3 1130 1032 1396
3 1095 1603 2508
3 886 826 887
3 531 533 1818
3 1131 1400 1881
3 447 437 516
3 2460 1132 2473
3 940 1535 2418
3 768 1873 2037
3 1813 1869 1954
3 1627 2163 2488
3 1497 1495 1645
3 1198 1409 2168
3 724 726 1912
3 1869 987 1954
3 763 1999 2338
3 1010 1170 1374
3 984 976 1720
3 1470 1743 1744
3 689 588 1150
3 1901 1949 2359
3 1640 632 1862
3 274 272 1787
3 563 564 1752
3 994 817 1505
3 737 1807 1931
3 1770 1147 1771
3 1233 1235 1733
3 2450 1418 2521
3 414 410 1821
3 908 1099 1850
3 1227 1228 1229
3 1692 1203 1693
3 1625 216 2194
3 512 528 603
3 1377 1357 1638
3 1465 1464 1470
3 1360 1359 2177
3 1686 2007 2095
3 1336 1028 1641
3 1857 751 1923
3 1758 572 1759
3 553 541 557
3 1171 1715 1811
3 956 1003 1073
3 1467 1465 1675
3 719 718 724
3 1509 1977 2096
3 1734 1625 1736
3 1503 1504 1868
3 592 597 1776
3 180 181 232
3 162 163 231
3 2308 1759 2370
3 1357 1114 1358
3 875 946 1010
3 509 631 1599
3 17 18 199
3 144 145 200
3 1099 906 1792
3 1469 1467 1494
3 605 589 1939
3 1208 1205 1211
3 354 344 2091
3 692 782 804
3 1010 946 1170
3 1463 1462 1464
3 716 715 718
3 714 713 715
3 271 273 656
3 139 1618 1694
3 549 277 686
3 673 672 766
3 1378 1377 1379
3 2007 868 2095
3 999 1028 1336
3 1208 1211 1447
3 601 545 627
3 1119 1643 1713
3 1332 1333 1387
3 910 912 956
3 520 521 2000
3 828 1789 1819
3 277 607 1520
3 1338 1339 2247
3 818 819 910
3 767 766 814
3 712 711 713
3 1494 1467 1675
3 639 594 640
3 2044 557 2256
3 235 20 1709
3 1620 236 2394
3 804 919 962
3 1862 702 2070
3 681 852 853
3 1559 1556 1561
3 1622 941 2471
3 2165 1440 2330
3 612 644 692
3 697 698 818
3 1903 1516 1994
3 371 379 1795
3 428 426 2138
3 1290 1294 2064
3 1384 1904 2432
3 566 689 1600
3 471 452 472
3 1092 1091 1093
3 1002 1131 1719
3 1090 1089 1091
3 875 841 946
3 1758 1760 1763
3 1562 1606 2085
3 1833 1830 2075
3 178 179 214
3 164 165 213
3 769 923 1815
3 692 644 782
3 804 782 919
3 182 183 256
3 160 161 257
3 1329 1331 1482
3 962 1663 1664
3 1177 1179 2042
3 403 405 1805
3 1461 1460 1462
3 140 208 1618
3 1859 232 1860
3 274 1787 2099
3 1381 2126 2186
3 1558 1560 1789
3 430 428 682
3 452 435 1683
3 1487 1156 1488
3 1470 1464 1743
3 597 1794 1893
3 1244 1253 1669
3 962 919 1663
3 258 8 1673
3 1087 1785 1786
3 970 1042 1726
3 199 1677 2149
3 1664 1663 1665
3 1229 1230 1231
3 991 827 1713
3 792 1603 1848
3 1822 1444 1823
3 665 666 697
3 19 20 235
3 142 143 236
3 728 1098 1833
3 532 530 1898
3 1015 1124 1372
3 1546 1547 1548
3 1851 1850 1853
3 1877 393 2240
3 923 1105 1815
3 1090 1091 1092
3 687 686 703
3 1683 435 1790
3 887 826 1961
3 684 663 1089
3 426 1934 2138
3 464 510 680
3 853 854 855
3 568 572 1758
3 1376 1357 1377
3 1205 1203 1692
3 1607 1789 1855
3 710 709 711
3 780 781 1775
3 1434 1103 1435
3 876 815 877
3 766 672 1656
3 1393 1590 2457
3 684 1089 1090
3 530 890 1898
3 926 1920 1943
3 696 414 1821
3 1563 1562 1777
3 1054 1046 1580
3 1398 1973 1974
3 137 216 1625
3 1210 1040 1430
3 1750 563 1751
3 2010 1665 2299
3 1510 1374 1511
3 1777 1562 2085
3 1707 252 1791
3 1932 1404 1933
3 459 438 1814
3 139 140 1618
3 1093 1156 1487
3 231 163 1658
3 699 722 723
3 1545 1095 2508
3 598 612 1794
3 579 554 1880
3 1941 1908 2401
3 1231 1232 1233
3 1831 1829 1841
3 1037 1383 1799
3 177 178 1506
3 636 600 637
3 1036 1539 2286
3 1356 1114 1357
3 1523 1516 2377
3 704 703 705
3 403 402 405
3 648 792 1848
3 723 756 808
3 1388 1389 2170
3 933 932 1770
3 223 1710 1711
3 1779 399 1783
3 1223 1222 1224
3 1028 1029 1313
3 257 161 1654
3 418 412 421
3 734 882 1807
3 693 657 1095
3 1368 1370 1436
3 136 137 1625
3 688 652 817
3 1075 1327 1328
3 540 479 1813
3 398 395 402
3 548 1629 1630
3 574 591 699
3 1469 1494 1495
3 1041 1598 2175
3 167 168 202
3 175 176 204
3 2045 2046 2201
3 186 187 1602
3 886 887 888
3 1253 1254 1259
3 8 9 1673
3 792 655 810
3 843 1145 1960
3 1180 1349 1745
3 1165 1345 1512
3 708 706 709
3 136 1625 1734
3 21 22 207
3 140 141 208
3 625 626 665
3 1093 1094 1156
3 1585 795 1834
3 1117 1713 1806
3 599 579 600
3 810 871 1826
3 1047 1046 1048
3 1292 1291 1293
3 161 162 1654
3 199 1676 1677
3 1260 1282 1804
3 1005 1142 1768
3 1233 1234 1235
3 792 810 922
3 1122 1719 1737
3 976 985 1720
3 1278 1279 2292
3 2390 1934 2531
3 1436 1437 2350
3 270 271 1647
3 1199 966 1846
3 1683 1342 2212
3 656 273 2124
3 699 591 722
3 1977 1139 2096
3 1738 1719 1881
3 1722 985 1874
3 1797 1448 1798
3 162 231 1654
3 632 604 1862
3 252 1602 1791
3 1051 1050 1052
3 1045 1023 1046
3 648 655 792
3 993 1100 1101
3 1321 1055 1322
3 806 709 1627
3 904 903 981
3 1220 1267 1268
3 648 605 655
3 1737 1719 1738
3 385 399 1779
3 506 499 1828
3 1132 266 1402
3 1170 1418 1419
3 1323 2302 2354
3 24 25 215
3 137 138 216
3 721 965 1919
3 1787 1414 2460
3 778 1117 1806
3 723 722 756
3 407 403 1805
3 564 574 1752
3 1049 1048 1050
3 842 841 875
3 1608 1546 1842
3 809 808 899
3 1517 1519 1520
3 1530 1532 1533
3 889 421 1772
3 913 1002 1122
3 1314 1316 1367
3 1017 877 1684
3 841 802 1778
3 1235 1236 1237
3 751 1857 1900
3 1114 924 1767
3 1344 1644 2360
3 1895 1394 2371
3 1518 1535 1861
3 1758 1759 1760
3 1122 1002 1719
3 546 563 1750
3 1056 1726 1727
3 663 660 1746
3 621 622 625
3 1720 985 1721
3 1857 1843 1900
3 808 756 913
3 1056 970 1726
3 27 28 230
3 134 135 229
3 908 906 1099
3 163 164 1658
3 1727 1726 1729
3 7 8 258
3 154 155 259
3 1101 1403 1404
3 808 913 1874
3 1260 1269 1282
3 1389 1387 2262
3 1297 1053 1822
3 1555 1553 1557
3 1463 1464 1465
3 230 28 1765
3 1237 1238 1239
3 554 553 1880
3 775 778 1806
3 985 899 1874
3 1270 1524 2199
3 489 1820 1936
3 692 1072 1794
3 1472 2142 2272
3 1845 496 1929
3 438 431 1814
3 613 615 1824
3 1241 1242 1245
3 1783 415 1915
3 1192 2081 2149
3 178 214 1506
3 1816 988 1817
3 1760 1759 1761
3 1103 1092 1623
3 1512 1345 1661
3 1876 921 2295
3 1165 984 1345
3 978 1074 1075
3 1239 1240 1241
3 542 541 553
3 813 988 1816
3 1148 984 1165
3 871 970 1056
3 472 452 1683
3 1207 1796 1870
3 1167 1166 1754
3 1296 1053 1297
3 966 964 1846
3 976 899 985
3 982 976 984
3 702 1815 2015
3 900 899 976
3 1143 995 1206
3 1576 1024 1827
3 1235 1248 1733
3 1558 1557 1560
3 943 995 1143
3 1920 1144 1943
3 1471 2115 2477
3 29 30 255
3 132 133 254
3 1630 1633 1634
3 1225 1224 1226
3 1925 1573 1926
3 1211 1205 1692
3 725 825 826
3 1113 924 1114
3 600 579 1988
3 717 1552 1567
3 1820 1657 1936
3 674 276 2099
3 395 393 1877
3 572 543 1897
3 1575 1308 2255
3 999 1000 1028
3 1118 1775 1876
3 1797 1798 2430
3 526 546 559
3 867 853 2186
3 1142 1771 1949
3 1068 1275 1442
3 679 385 1779
3 1607 1558 1789
3 580 568 1758
3 1244 1252 1253
3 1760 1761 1762
3 398 402 403
3 1476 1258 1478
3 418 421 889
3 1771 1147 1839
3 164 213 1658
3 1720 1721 2267
3 1668 1591 2512
3 1042 1128 1445
3 1098 1830 1833
3 1102 1092 1103
3 2249 884 2466
3 1104 1103 1434
3 410 416 1821
3 514 513 541
3 580 1758 1763
3 637 673 1741
3 1913 936 1914
3 1394 1395 2337
3 919 920 999
3 577 554 579
3 2111 1660 2263
3 231 1658 1659
3 612 613 644
3 568 543 572
3 770 775 1806
3 1445 1128 1446
3 1546 1548 1842
3 448 460 478
3 810 870 871
3 1789 1560 1819
3 1154 1082 1431
3 873 973 1802
3 379 385 679
3 837 850 921
3 1461 1462 1463
3 1346 1076 1420
3 1088 1344 1808
3 2125 1143 2353
3 931 977 978
3 882 772 1802
3 29 255 1765
3 849 1513 2180
3 1713 827 1806
3 1130 1396 1397
3 681 638 852
3 1417 1321 1873
3 1654 1402 2530
3 502 526 1740
3 1124 888 2177
3 1266 1460 1461
3 515 1175 1840
3 1253 1264 1669
3 479 466 1813
3 1727 1729 1757
3 379 380 385
3 1971 1480 2514
3 1637 1739 2459
3 1207 1205 1208
3 529 519 1899
3 1129 1845 1929
3 224 1661 2267
3 192 1856 2361
3 732 734 1807
3 1184 2163 2435
3 1119 1120 1353
3 415 414 431
3 719 724 725
3 559 546 1750
3 871 872 970
3 1038 917 1622
3 574 699 1752
3 166 167 1679
3 1117 1118 1119
3 1409 1196 2035
3 617 619 621
3 1172 1173 1439
3 1191 1005 1768
3 664 663 684
3 494 493 1841
3 890 529 1731
3 840 802 841
3 493 974 1841
3 385 386 399
3 679 1779 1780
3 371 376 379
3 416 433 1109
3 670 769 1815
3 902 866 903
3 1780 1779 1781
3 480 515 1840
3 970 971 1042
3 433 448 1714
3 28 29 1765
3 1005 949 1142
3 778 780 1117
3 959 1037 1799
3 1073 1003 1076
3 535 532 1898
3 1119 1118 1120
3 658 657 693
3 1378 1379 1380
3 1397 1396 1809
3 1610 1609 1612
3 1819 1560 2016
3 1837 952 1865
3 1719 1131 1881
3 1131 1399 1400
3 1352 1138 2058
3 399 406 409
3 548 1630 2041
3 1275 1338 2251
3 582 1816 1818
3 1835 1836 2144
3 993 1101 1980
3 1699 1698 1700
3 2407 364 2505
3 1189 1190 1788
3 1117 780 1118
3 1830 1829 1831
3 637 672 673
3 692 804 1072
3 1204 1203 1205
3 1374 1170 2139
3 612 692 1794
3 1642 1408 2286
3 723 808 809
3 450 459 1812
3 409 410 414
3 802 801 1778
3 1853 1854 2483
3 1042 1127 1128
3 1199 1846 2225
3 1147 990 1273
3 1383 1384 2432
3 432 431 438
3 1353 1120 1390
3 1093 1091 1094
3 2020 250 2254
3 148 149 1639
3 606 605 648
3 1970 2016 2422
3 2201 2046 2327
3 475 471 513
3 412 407 1951
3 1991 246 2139
3 727 695 728
3 1673 234 1788
3 1554 1556 1559
3 1089 663 1746
3 1846 964 2056
3 923 991 1088
3 409 406 410
3 729 728 730
3 1424 1427 1856
3 1473 1911 2407
3 1376 1377 1378
3 1010 1374 1510
3 853 852 854
3 366 369 1087
3 772 873 1802
3 1219 1218 1626
3 1766 229 2061
3 1088 991 1344
3 922 810 1826
3 518 506 695
3 405 402 2116
3 962 1664 2316
3 913 942 1002
3 932 990 1147
3 629 813 1816
3 876 877 992
3 399 386 406
3 932 845 990
3 1002 1123 1131
3 843 996 1145
3 781 837 1775
3 262 2304 2491
3 431 696 1814
3 1273 1695 1892
3 731 730 732
3 737 732 1807
3 439 438 450
3 1829 498 1841
3 800 685 801
3 767 814 815
3 1060 766 1656
3 673 766 767
3 1403 1605 1882
3 716 718 719
3 1338 1069 1339
3 847 752 1843
3 864 862 1116
3 2302 443 2519
3 923 827 991
3 526 559 1740
3 1911 1473 2358
3 1085 1310 1867
3 809 899 900
3 1227 1226 1228
3 729 730 731
3 1436 1370 1437
3 731 732 737
3 769 827 923
3 456 452 471
3 1433 1503 2471
3 1435 1103 1623
3 385 380 386
3 1141 1787 2460
3 1354 1088 1808
3 657 649 1848
3 415 431 432
3 484 892 1820
3 727 728 729
3 855 854 1450
3 1721 1722 1723
3 1643 1353 1644
3 1145 1916 1960
3 1421 1191 1422
3 466 1812 1813
3 943 944 995
3 1356 1357 1376
3 714 715 716
3 1156 1094 1157
3 598 611 612
3 631 1600 2298
3 590 589 605
3 965 969 1919
3 416 1109 1821
3 242 1697 2335
3 1548 1547 1549
3 550 573 584
3 584 604 632
3 409 414 415
3 712 713 714
3 642 670 702
3 818 698 819
3 1006 1005 1191
3 1624 1689 1691
3 169 170 237
3 173 174 238
3 956 912 1003
3 937 936 1913
3 1317 1025 1875
3 515 540 550
3 973 1799 1800
3 973 959 1799
3 518 695 727
3 910 819 912
3 584 573 604
3 1170 946 1418
3 173 238 1847
3 550 540 573
3 982 984 1148
3 900 976 982
3 441 435 452
3 448 478 1714
3 1849 1648 2173
3 1631 1628 1637
3 1830 1831 1832
3 1383 1216 1384
3 734 772 882
3 949 933 1770
3 1332 1330 1333
3 574 575 591
3 1105 1088 1354
3 702 670 1815
3 498 494 1841
3 827 770 1806
3 873 959 973
3 1390 1391 1415
3 450 438 459
3 950 949 1005
3 351 362 364
3 1313 1029 1314
3 432 438 439
3 837 838 850
3 1273 1274 1695
3 850 851 943
3 911 952 1837
3 1259 1260 1804
3 566 587 588
3 1037 1216 1383
3 1337 1265 1538
3 1087 369 1795
3 810 655 870
3 1559 1561 1566
3 1147 1273 1839
3 732 733 734
3 1662 867 2126
3 890 1731 2241
3 1854 1852 2397
3 515 479 540
3 451 450 466
3 697 666 698
3 1367 1316 1368
3 662 660 663
3 365 355 694
3 1358 1114 1767
3 379 376 380
3 1796 1448 1797
3 179 180 1859
3 790 668 849
3 569 568 580
3 690 860 931
3 466 450 1812
3 431 414 696
3 1973 1133 1974
3 651 649 657
3 467 466 479
3 1288 1289 1835
3 264 265 1986
3 1302 1303 1304
3 592 596 597
3 1873 1321 2037
3 544 543 568
3 275 277 549
3 209 1937 2389
3 539 565 566
3 1485 227 1486
3 2384 2190 2408
3 1781 1779 1783
3 480 479 515
3 689 1416 2413
3 1108 1161 1539
3 1867 1310 1895
3 1300 1301 1302
3 1695 1696 1697
3 633 632 668
3 1304 1451 1452
3 988 911 1837
3 168 169 1724
3 969 1012 1172
3 582 629 1816
3 1843 752 1900
3 629 812 813
3 710 711 712
3 1782 1780 1784
3 536 535 543
3 1089 1746 1969
3 1108 1107 1161
3 1514 1426 1856
3 486 484 1820
3 369 371 1795
3 1817 988 1924
3 493 609 974
3 1422 1191 2023
3 1426 1424 1856
3 842 875 924
3 922 1826 2259
3 989 1361 1886
3 928 1070 1288
3 669 668 790
3 1113 1114 1356
3 1027 847 1843
3 728 695 1098
3 734 735 772
3 975 1107 1108
3 955 859 1962
3 813 911 988
3 1208 1448 1796
3 1101 1405 1980
3 602 676 2045
3 586 581 589
3 546 547 563
3 493 491 609
3 628 1524 2390
3 348 344 354
3 1298 1299 1300
3 509 538 539
3 974 609 975
3 813 891 911
3 871 870 872
3 1355 1354 1423
3 489 486 1820
3 778 779 780
3 1025 1176 1875
3 772 773 873
3 803 1743 2347
3 167 202 1679
3 873 883 959
3 1483 1571 2375
3 427 1756 2221
3 540 1813 1954
3 1202 1200 1203
3 959 1035 1037
3 837 921 1775
3 1304 1305 1451
3 1799 1383 2195
3 604 642 1862
3 1470 1744 2474
3 1854 2397 2453
3 1282 1269 1386
3 1573 1572 2157
3 472 2222 2290
3 1307 1708 2341
3 769 770 827
3 1037 1215 1216
3 791 790 856
3 1053 1052 1822
3 1056 1727 1728
3 1341 1138 1352
3 1300 1299 1301
3 1814 696 1838
3 1198 1196 1409
3 492 491 493
3 439 450 451
3 1171 858 2132
3 1259 1254 1260
3 665 626 666
3 970 872 971
3 258 1602 2357
3 1296 1297 1472
3 490 489 491
3 516 437 2494
3 1298 1027 1299
3 846 845 932
3 501 508 509
3 460 461 502
3 448 449 460
3 482 480 1840
3 1229 1228 1230
3 604 641 642
3 1424 1423 1427
3 502 503 526
3 1028 1000 1029
3 935 933 949
3 1084 1085 1867
3 2028 1711 2353
3 1513 1426 1514
3 892 482 1840
3 852 638 1988
3 402 395 1877
3 738 737 845
3 413 412 418
3 1119 1353 1643
3 526 527 546
3 280 279 281
3 1731 1155 2123
3 1042 971 1127
3 1208 1447 1448
3 433 434 448
3 262 159 2304
3 184 1454 2303
3 1051 1052 1053
3 1816 1817 1818
3 1081 1417 1444
3 781 836 837
3 911 951 952
3 1090 1092 1102
3 202 168 1724
3 1085 1309 1310
3 408 407 412
3 1337 1538 1864
3 1515 1514 1516
3 530 529 890
3 1517 1518 1519
3 549 686 687
3 923 1088 1105
3 404 403 407
3 1835 1289 1836
3 1314 1367 2121
3 1380 1379 2416
3 670 671 769
3 899 808 1874
3 1040 903 1703
3 1596 1595 2154
3 1496 1495 1497
3 636 637 1741
3 1377 1638 2288
3 1288 1070 1289
3 1072 804 1981
3 1129 1334 1845
3 1865 1084 1866
3 792 922 1603
3 1253 1252 1254
3 981 1167 1792
3 1302 1301 1303
3 1641 1651 2019
3 952 953 1084
3 1813 1812 1869
3 732 730 733
3 975 1106 1107
3 1142 949 1770
3 981 1166 1167
3 840 841 842
3 451 466 467
3 1273 990 1274
3 1049 1050 1051
3 1473 2407 2505
3 968 966 1199
3 642 643 670
3 1310 1309 1311
3 422 419 435
3 1063 833 1082
3 919 782 920
3 911 891 951
3 1084 953 1085
3 1763 1764 2164
3 1498 1497 1682
3 515 550 1175
3 1079 937 1913
3 642 702 1862
3 845 737 1931
3 1394 1311 1395
3 1395 1521 1522
3 467 479 480
3 1755 1754 1793
3 1231 1230 1232
3 1557 1553 2030
3 1624 1691 2262
3 584 632 633
3 1094 1091 1969
3 708 709 710
3 1948 1627 2488
3 952 951 953
3 1102 1103 1104
3 1047 1048 1049
3 1310 1311 1394
3 1852 1099 1985
3 143 144 1717
3 813 812 891
3 1944 1044 1945
3 1105 1354 1355
3 1300 1302 1455
3 1914 936 1940
3 1415 1391 1710
3 1299 1027 1843
3 952 1084 1865
3 1695 1274 1696
3 776 774 1928
3 282 281 283
3 2003 1347 2279
3 1206 995 1499
3 1164 1685 1686
3 1551 1565 2030
3 969 1172 1919
3 633 668 669
3 734 733 735
3 1373 1372 1438
3 599 600 636
3 1431 1860 2487
3 1579 1577 1999
3 484 482 892
3 917 940 941
3 2144 1836 2169
3 1866 1084 1867
3 1110 1747 1748
3 998 1171 1811
3 1390 1120 1391
3 644 1824 2057
3 1362 1961 2048
3 944 1283 1825
3 1086 1027 1298
3 679 1780 1782
3 974 975 1879
3 507 506 518
3 1121 1079 1401
3 775 777 778
3 1965 762 2349
3 1045 1046 1047
3 1772 421 2106
3 16 17 2081
3 416 417 433
3 921 850 2125
3 1607 1855 1958
3 649 648 1848
3 1241 1240 1242
3 2012 1443 2251
3 926 928 1920
3 1487 1488 2025
3 1006 1191 1421
3 1355 1423 1424
3 1133 852 1988
3 591 592 1776
3 1299 1843 1857
3 1085 1308 1309
3 490 491 492
3 958 694 1575
3 1384 1216 1385
3 741 915 1878
3 1233 1232 1234
3 669 790 791
3 481 480 482
3 687 703 704
3 492 493 494
3 1634 1633 1922
3 1697 1696 1698
3 1721 985 1722
3 1839 1273 1892
3 772 735 773
3 488 486 489
3 950 1005 1006
3 1513 1514 1515
3 454 500 501
3 873 773 883
3 284 283 285
3 2185 1505 2442
3 959 883 1035
3 543 535 1897
3 1904 1384 2093
3 800 801 802
3 1037 1035 1215
3 1293 1964 1965
3 1239 1238 1240
3 943 1143 2125
3 1782 1784 1785
3 913 756 942
3 488 490 1884
3 1590 1749 2501
3 1235 1234 1236
3 791 856 1408
3 702 2015 2070
3 1108 1539 1540
3 1021 1023 1045
3 695 506 1828
3 1530 1528 1532
3 488 489 490
3 1621 1619 2161
3 704 705 706
3 1304 1303 1305
3 558 1704 2167
3 625 622 626
3 542 553 554
3 604 573 641
3 664 684 685
3 564 571 574
3 1108 1540 1879
3 1856 1427 2361
3 880 1025 1129
3 1395 1311 1521
3 1466 1465 1467
3 915 495 1884
3 1515 1516 1523
3 1237 1236 1238
3 606 648 649
3 999 920 1000
3 676 829 1043
3 2100 794 2142
3 227 151 1500
3 577 579 599
3 153 154 1671
3 1175 550 1927
3 1014 888 1015
3 286 285 287
3 1649 1280 2427
3 1725 204 2137
3 975 609 1106
3 1129 1317 1334
3 1109 1730 2426
3 1468 1467 1469
3 1131 1123 1399
3 1215 2235 2378
3 1976 1149 1989
3 397 395 398
3 746 743 1878
3 1041 1343 1598
3 975 1108 1879
3 741 495 915
3 1167 1754 1755
3 288 287 289
3 743 741 1878
3 1274 990 1931
3 1506 214 1507
3 857 1584 2277
3 2341 1522 2387
3 846 932 933
3 1107 1106 1110
3 584 633 1927
3 290 289 291
3 722 591 1776
3 1544 1094 1969
3 1135 270 1647
3 935 949 950
3 1920 1288 2080
3 754 1896 2108
3 1693 1199 2225
3 292 291 293
3 394 393 395
3 745 743 746
3 1002 942 1123
3 731 737 738
3 294 293 295
3 1018 1573 1925
3 296 295 297
3 298 297 299
3 321 322 325
3 317 320 321
3 314 315 317
3 312 313 314
3 310 311 312
3 308 309 310
3 1898 890 2275
3 306 307 308
3 304 305 306
3 1401 1079 1913
3 300 299 301
3 302 303 304
3 300 301 302
3 302 301 303
3 491 489 1936
3 298 299 300
3 304 303 305
3 306 305 307
3 308 307 309
3 310 309 311
3 312 311 313
3 314 313 315
3 317 315 320
3 321 320 322
3 1301 1299 1857
3 514 541 542
3 296 297 298
3 850 838 851
3 1310 1394 1895
3 294 295 296
3 590 605 606
3 292 293 294
3 651 657 658
3 290 291 292
3 1207 1208 1796
3 835 1976 1989
3 621 619 622
3 746 1878 1896
3 481 482 483
3 1026 847 1027
3 1335 1207 1870
3 1661 59 2266
3 727 729 1155
3 288 289 290
3 1058 776 1928
3 662 663 664
3 495 488 1884
3 1959 319 2522
3 943 851 944
3 1293 1291 1964
3 534 532 535
3 640 645 646
3 2280 1014 2385
3 286 287 288
3 591 575 592
3 521 519 529
3 13 14 2114
3 780 779 781
3 918 908 1850
3 837 836 838
3 209 148 1639
3 754 748 1896
3 745 746 747
3 769 671 770
3 929 1065 2197
3 1278 1058 1279
3 483 482 484
3 1564 1557 2030
3 633 807 1927
3 392 391 393
3 1057 1621 2161
3 569 580 581
3 284 285 286
3 876 992 1894
3 497 494 498
3 1630 1635 2041
3 982 1148 1918
3 612 611 613
3 700 634 1044
3 822 674 2099
3 880 1129 1929
3 432 439 654
3 1039 1291 1292
3 1164 1686 1989
3 1129 1025 1317
3 738 845 846
3 582 583 629
3 278 6 279
3 544 568 569
3 1701 1274 1931
3 747 749 751
3 1085 953 1308
3 928 930 1070
3 747 748 749
3 1421 1422 2415
3 902 903 904
3 1309 1308 1543
3 642 641 643
3 904 981 1792
3 646 784 785
3 536 543 544
3 1204 1205 1207
3 365 694 958
3 71 72 217
3 88 89 1901
3 87 88 193
3 101 102 189
3 85 86 242
3 99 100 241
3 74 75 192
3 91 92 219
3 94 95 191
3 83 84 220
3 97 98 221
3 77 78 218
3 80 81 194
3 89 90 245
3 62 63 244
3 60 61 188
3 64 65 223
3 67 68 190
3 90 91 1909
3 98 99 1905
3 61 62 1908
3 69 70 243
3 68 69 1907
3 70 71 1910
3 410 411 416
3 586 589 590
3 685 684 2029
3 390 389 391
3 1715 1150 1811
3 1924 1837 2215
3 282 283 284
3 496 497 1929
3 233 1671 1769
3 627 2185 2442
3 1567 1552 2062
3 629 630 812
3 424 453 454
3 583 562 1942
3 749 750 805
3 744 743 745
3 1897 535 1898
3 467 480 481
3 504 759 880
3 670 643 671
3 89 245 1901
3 193 88 1901
3 221 98 1905
3 245 90 1909
3 91 219 1909
3 62 244 1908
3 188 61 1908
3 99 241 1905
3 190 68 1907
3 71 217 1910
3 69 243 1907
3 243 70 1910
3 505 499 506
3 475 513 514
3 1945 1044 2071
3 1712 2125 2353
3 339 343 440
3 989 1360 1361
3 764 869 1152
3 778 777 779
3 1686 1685 1687
3 742 741 743
3 979 989 1886
3 729 731 1887
3 926 927 928
3 1305 1306 1307
3 1838 1278 2292
3 747 746 748
3 181 182 1652
3 1886 1361 2305
3 1595 1594 2486
3 597 596 598
3 928 1288 1920
3 1970 824 2156
3 1425 1424 1426
3 497 504 1929
3 748 746 1896
3 745 747 1900
3 998 858 1171
3 563 547 564
3 1155 729 1887
3 634 583 1942
3 1439 1173 1440
3 1026 1027 1086
3 79 80 1904
3 1533 1532 1536
3 1449 1426 1513
3 1106 609 1936
3 1318 1013 1319
3 1098 695 1828
3 492 494 496
3 750 748 754
3 731 738 1887
3 2415 1422 2516
3 533 562 582
3 988 1837 1924
3 1216 1215 1863
3 534 535 536
3 747 751 1900
3 1753 809 2119
3 1183 824 1970
3 740 495 741
3 80 194 1904
3 893 383 2087
3 655 605 1939
3 1884 2034 2082
3 1301 1857 1923
3 1307 1306 1708
3 752 745 1900
3 750 754 755
3 76 77 1903
3 2090 2347 2365
3 255 30 2159
3 132 254 2160
3 448 434 449
3 753 848 926
3 1075 1074 1327
3 487 488 495
3 377 381 647
3 483 484 485
3 755 754 2148
3 1584 1925 2277
3 1186 1183 1970
3 951 891 1281
3 485 484 486
3 546 527 547
3 133 134 1766
3 1786 1785 2409
3 280 281 282
3 460 449 461
3 744 745 752
3 77 218 1903
3 983 1918 2342
3 1708 1306 1810
3 1389 2069 2170
3 487 486 488
3 641 573 1954
3 507 518 519
3 502 461 503
3 519 518 1899
3 1202 1203 1204
3 821 897 1972
3 92 93 1902
3 521 529 530
3 749 748 750
3 2176 1380 2416
3 885 826 886
3 485 486 487
3 371 372 376
3 1289 1070 1871
3 1110 1657 1747
3 753 926 1943
3 700 1044 1944
3 880 881 1025
3 496 1845 2034
3 1072 1981 2393
3 462 464 2134
3 1949 1771 2359
3 1044 634 1942
3 550 584 1927
3 1390 1415 2118
3 526 503 527
3 990 845 1931
3 1009 1213 1214
3 740 742 1144
3 219 92 1902
3 727 1155 1899
3 369 370 371
3 623 690 2150
3 1279 1058 1928
3 1408 2235 2286
3 487 495 740
3 979 1886 2086
3 1305 1303 1306
3 421 412 1951
3 843 844 996
3 633 669 807
3 518 727 1899
3 826 825 1961
3 1657 1106 1936
3 1172 1012 1173
3 740 741 742
3 433 417 434
3 505 506 507
3 1333 1674 2437
3 742 743 744
3 469 458 470
3 1381 1380 1382
3 1293 1965 2515
3 1554 1559 2062
3 553 557 2499
3 1774 389 2339
3 497 498 499
3 483 485 576
3 740 1144 1935
3 773 735 834
3 366 367 369
3 1120 1118 1876
3 1515 1523 1574
3 1319 1013 2039
3 1303 1301 1923
3 457 447 458
3 561 593 594
3 1355 1424 1425
3 609 491 1936
3 204 1732 2137
3 791 1408 1642
3 995 944 1825
3 456 471 475
3 1692 1693 2239
3 580 1763 2164
3 1292 1293 2117
3 441 452 456
3 388 384 389
3 823 821 1972
3 504 880 1929
3 176 177 1680
3 1070 1071 1871
3 15 2260 2477
3 362 363 366
3 2178 2300 2449
3 1035 883 1036
3 2285 1563 2307
3 978 977 1074
3 1090 1102 2029
3 1810 1306 1923
3 496 494 497
3 1306 1303 1923
3 432 654 1915
3 934 933 935
3 356 355 365
3 398 403 404
3 635 701 843
3 1110 1106 1657
3 574 571 575
3 1025 881 1176
3 386 380 786
3 415 432 1915
3 343 347 1911
3 1070 930 1071
3 1688 1740 2231
3 1385 1216 1863
3 1696 1274 1701
3 1645 305 2317
3 880 759 881
3 926 848 927
3 1427 1423 2217
3 1339 1662 2388
3 770 774 775
3 1263 1257 1428
3 1337 1864 2412
3 349 348 355
3 2267 1721 2498
3 753 752 847
3 1375 1086 1473
3 900 982 983
3 332 335 739
3 429 428 430
3 744 752 753
3 1171 2132 2165
3 1425 1426 1449
3 987 641 1954
3 1883 1786 2409
3 427 426 428
3 928 927 930
3 1815 1105 2015
3 1206 1499 1941
3 410 406 411
3 573 540 1954
3 497 499 504
3 528 560 561
3 1933 1404 2399
3 1091 1089 1969
3 1804 1282 2073
3 504 505 759
3 963 924 1113
3 1711 1710 1712
3 881 759 1146
3 968 1199 1200
3 351 352 362
3 848 847 1026
3 521 530 531
3 1884 490 2034
3 1277 957 1966
3 1349 1350 2329
3 676 1043 2045
3 997 1159 1286
3 517 1889 1890
3 781 835 836
3 944 948 1283
3 722 1776 2026
3 507 519 520
3 2040 1352 2058
3 1276 957 1277
3 446 437 447
3 931 860 977
3 361 359 765
3 1248 1536 2534
3 512 523 528
3 408 412 413
3 1368 1369 1370
3 451 2169 2223
3 192 75 1994
3 942 756 2026
3 345 344 348
3 764 1152 1963
3 413 418 419
3 1286 1773 1774
3 770 671 774
3 275 549 2124
3 1497 1645 2461
3 1982 1472 2272
3 422 435 441
3 281 279 736
3 1134 270 1135
3 582 562 583
3 1421 2415 2454
3 485 487 1935
3 2300 1067 2480
3 1578 1576 1827
3 930 927 1061
3 1026 1086 1375
3 922 2259 2379
3 1391 1120 1876
3 1495 1494 2493
3 404 407 408
3 879 2178 2449
3 1700 1698 2036
3 607 1517 1520
3 753 847 848
3 416 411 417
3 1144 742 1943
3 775 776 777
3 754 2108 2148
3 1006 1421 1953
3 585 581 586
3 531 530 532
3 235 1709 1888
3 520 519 521
3 1180 1181 1349
3 1146 759 1967
3 708 710 1921
3 1350 2253 2329
3 436 430 437
3 504 499 505
3 643 641 987
3 336 330 517
3 811 1059 1149
3 1164 1411 1685
3 846 933 934
3 635 843 1960
3 983 982 1918
3 971 872 1096
3 1149 1163 1164
3 169 237 1724
3 1314 1315 1316
3 629 583 630
3 891 812 1916
3 462 463 464
3 487 740 1935
3 798 2084 2189
3 1814 1838 2292
3 1284 1489 1491
3 340 336 2014
3 1670 1461 2200
3 920 782 2057
3 890 2241 2275
3 510 511 512
3 278 279 280
3 839 802 840
3 1858 235 1888
3 1698 1696 2036
3 104 105 222
3 57 58 224
3 1185 1183 1186
3 588 587 623
3 638 600 1988
3 1282 1386 2245
3 811 776 1058
3 816 815 876
3 2034 1845 2082
3 761 636 1741
3 566 565 587
3 174 175 1725
3 347 350 351
3 1469 1495 1496
3 1059 1058 1278
3 811 1149 1976
3 576 485 1935
3 659 658 660
3 859 1153 1962
3 76 1903 1994
3 1821 1109 2426
3 1294 1038 1622
3 733 1833 2075
3 992 993 1980
3 1566 1561 2285
3 525 474 2041
3 464 465 510
3 343 346 347
3 360 893 1982
3 650 649 651
3 896 608 936
3 950 1006 1007
3 1508 1859 1860
3 539 538 565
3 440 343 1911
3 341 340 344
3 221 1905 1906
3 1297 1823 2142
3 759 505 1967
3 1295 1053 1296
3 473 470 474
3 1463 1465 1466
3 1143 1206 2028
3 799 685 800
3 1210 2077 2203
3 509 508 538
3 492 496 2034
3 1553 1551 2030
3 1260 1261 1269
3 1430 1040 1703
3 586 590 1940
3 838 836 868
3 1705 624 2276
3 1749 972 2501
3 742 744 1943
3 804 962 1981
3 1367 1368 2254
3 531 532 533
3 337 336 340
3 1157 1094 1544
3 536 544 1158
3 812 630 1960
3 781 779 835
3 56 57 1947
3 630 583 634
3 1405 1404 1932
3 1281 891 1916
3 339 342 343
3 1411 1163 1730
3 322 323 324
3 344 340 2091
3 1735 1734 1736
3 75 76 1994
3 430 682 2494
3 1907 243 2360
3 589 581 2164
3 694 355 2196
3 744 753 1943
3 775 774 776
3 1210 1430 2077
3 335 338 339
3 1102 1803 2029
3 1078 937 1079
3 870 655 1939
3 505 507 1967
3 357 360 1982
3 1896 1878 2101
3 326 325 328
3 934 935 957
3 585 608 895
3 333 330 336
3 1270 1272 1524
3 688 817 878
3 507 520 1967
3 1428 1257 2074
3 1818 1817 2000
3 896 937 1077
3 934 957 1111
3 329 328 330
3 1499 995 1825
3 944 851 948
3 387 445 462
3 1678 1161 2228
3 777 776 811
3 313 311 757
3 324 331 332
3 848 1026 1955
3 1312 998 1811
3 1321 1322 2037
3 1080 1079 1121
3 1105 1355 2015
3 1645 2317 2461
3 1559 1568 2062
3 332 334 335
3 501 500 508
3 321 325 326
3 394 395 397
3 322 320 323
3 1529 1530 2171
3 1137 797 1138
3 811 1058 1059
3 661 660 662
3 569 581 585
3 183 4 2303
3 5 160 2304
3 1340 1138 1341
3 1660 1626 2185
3 1743 1464 2347
3 1026 1375 1955
3 1149 1059 1163
3 1736 1625 2194
3 1322 1667 2434
3 311 309 1959
3 309 307 319
3 894 700 1944
3 533 534 562
3 1276 1277 1366
3 2190 1706 2408
3 533 532 534
3 1214 1213 1410
3 1164 1163 1411
3 843 701 844
3 1009 1214 2055
3 234 1589 1788
3 2000 1817 2174
3 317 321 2050
3 328 325 945
3 392 393 394
3 588 623 2089
3 1162 958 1681
3 1078 1080 1136
3 927 848 1955
3 1496 1497 1498
3 390 391 392
3 1061 927 1955
3 1283 948 1284
3 635 634 700
3 1244 1251 1252
3 218 78 2093
3 756 722 2026
3 1071 1784 2419
3 1218 1505 2185
3 1284 948 1285
3 1489 1285 1490
3 918 1850 1851
3 684 1090 2029
3 1759 572 2537
3 1691 1690 2446
3 1979 1158 2071
3 606 649 650
3 2045 1043 2046
3 103 104 2025
3 630 634 635
3 360 383 893
3 406 386 2043
3 1909 219 2023
3 1111 957 1276
3 1925 1437 2277
3 1536 2268 2340
3 854 852 1133
3 233 153 1671
3 651 658 659
3 2099 1787 2368
3 1033 1032 1130
3 1015 1372 1373
3 1412 942 2026
3 253 264 1441
3 1531 1534 2332
3 701 700 894
3 106 107 1990
3 2048 1961 2455
3 276 274 2099
3 738 846 1968
3 1325 925 1326
3 896 936 937
3 585 586 608
3 1450 854 1973
3 1361 1360 1362
3 1045 1668 2512
3 303 301 444
3 996 844 997
3 79 1904 2093
3 1989 1686 2095
3 1928 774 2033
3 1942 562 1979
3 287 285 316
3 935 950 1966
3 1466 1467 1468
3 1242 1243 1244
3 1887 738 1968
3 2115 210 2477
3 878 929 1083
3 1326 1736 2194
3 886 888 1014
3 895 608 896
3 289 287 1978
3 821 822 897
3 936 608 1940
3 613 614 615
3 51 52 1996
3 417 411 1160
3 1149 1164 1989
3 386 786 2043
3 285 283 1971
3 1309 1543 2147
3 375 373 2053
3 371 370 372
3 779 777 1976
3 1286 1159 1773
3 2177 887 2376
3 1560 1557 1564
3 1403 1882 2399
3 1727 1757 2246
3 279 6 2049
3 1619 1438 2438
3 291 289 758
3 1781 1915 2294
3 425 401 426
3 349 355 356
3 66 67 2118
3 474 548 2041
3 1686 1687 2007
3 1262 1456 1457
3 1123 942 1412
3 1916 812 1960
3 1355 1425 2015
3 735 733 2075
3 1861 879 2449
3 1284 1285 1489
3 490 492 2034
3 366 363 367
3 980 578 2051
3 906 904 1792
3 534 536 1979
3 842 924 963
3 2051 578 2083
3 1077 937 1078
3 1102 1104 1803
3 894 1944 1946
3 398 404 2060
3 1007 1006 1953
3 369 367 370
3 348 354 2196
3 1078 1079 1080
3 1378 1380 1381
3 1568 1365 2439
3 608 586 1940
3 598 610 611
3 760 636 761
3 869 1137 1351
3 671 643 2033
3 1661 1345 2267
3 938 914 1057
3 783 761 914
3 576 1835 2144
3 388 389 390
3 297 295 318
3 454 453 500
3 1906 1728 2246
3 1439 1440 2468
3 1159 1013 1318
3 764 797 869
3 236 143 1717
3 782 644 2057
3 592 595 596
3 1542 2332 2443
3 1521 1311 2147
3 345 348 349
3 1304 1452 2205
3 1644 1907 2360
3 2146 1125 2149
3 997 844 1013
3 628 375 2053
3 299 297 1984
3 957 935 1966
3 664 685 799
3 301 299 1975
3 362 352 363
3 777 811 1976
3 1942 1979 2071
3 1001 920 2057
3 312 314 768
3 1552 1554 2062
3 615 616 617
3 357 1982 2076
3 800 802 839
3 774 671 2033
3 1749 1169 2105
3 365 958 1162
3 617 618 619
3 283 281 1938
3 1351 1772 2414
3 1525 1765 2489
3 846 934 1968
3 635 700 701
3 555 554 577
3 536 1158 1979
3 1101 1404 1405
3 630 635 1960
3 1811 1150 2089
3 2113 1666 2249
3 172 173 1847
3 107 108 195
3 54 55 196
3 1191 1768 2023
3 1455 1302 2205
3 115 116 2017
3 1387 1333 2437
3 659 661 764
3 1080 1121 1188
3 50 51 2011
3 411 406 2043
3 295 293 1983
3 643 987 2033
3 707 706 708
3 129 130 261
3 32 33 260
3 2159 260 2265
3 449 434 567
3 1314 1029 1315
3 917 796 940
3 378 375 628
3 108 109 1991
3 2370 1759 2537
3 341 344 345
3 997 1013 1159
3 544 569 1993
3 950 1007 1966
3 477 474 525
3 351 350 352
3 1696 1701 2036
3 334 331 803
3 1137 1138 1340
3 562 534 1979
3 109 110 246
3 52 53 247
3 1368 1316 1369
3 659 660 661
3 33 34 2002
3 123 124 2005
3 835 779 1976
3 851 838 1992
3 1530 1533 2172
3 1668 1045 2348
3 1162 1681 1706
3 342 338 468
3 298 300 358
3 765 359 2065
3 725 826 885
3 35 36 2003
3 46 47 2019
3 38 39 2006
3 336 517 2014
3 934 1111 1968
3 116 117 2018
3 650 651 1963
3 223 1711 2162
3 640 594 645
3 1333 1330 2192
3 104 222 2025
3 1603 922 2379
3 963 1113 1115
3 2084 1193 2189
3 564 570 571
3 36 37 2004
3 57 224 1947
3 1542 1601 2269
3 122 123 2012
3 1000 920 1001
3 127 128 240
3 34 35 239
3 383 387 2087
3 1161 1107 2228
3 1781 2294 2419
3 1201 1200 1202
3 124 125 225
3 37 38 226
3 1340 1341 1342
3 869 797 1137
3 839 840 1008
3 1158 544 1993
3 1326 925 1894
3 352 350 353
3 326 329 954
3 1864 2344 2412
3 836 835 2095
3 1051 1053 1295
3 1031 720 1032
3 503 461 787
3 1407 1112 2044
3 661 662 2058
3 838 868 1992
3 112 113 197
3 49 50 198
3 1359 980 1413
3 121 122 211
3 40 41 212
3 48 49 2010
3 113 114 2009
3 1741 673 2131
3 41 42 2020
3 120 121 2013
3 1409 2035 2097
3 1511 1374 2506
3 114 115 248
3 47 48 249
3 42 43 250
3 119 120 251
3 171 6 201
3 6 172 203
3 585 895 1993
3 43 44 2024
3 118 119 2021
3 905 904 906
3 764 661 797
3 337 340 341
3 1413 980 2051
3 117 118 205
3 44 45 206
3 347 346 350
3 1420 1076 1525
3 324 323 331
3 434 417 2031
3 965 967 969
3 716 719 788
3 1260 1254 1261
3 2053 373 2103
3 2069 2068 2170
3 326 328 329
3 1706 996 2408
3 273 275 2124
3 969 1011 1012
3 590 606 2001
3 1718 1611 2280
3 1914 1940 2001
3 915 1884 2082
3 329 330 333
3 620 859 955
3 2168 1409 2305
3 296 298 1997
3 915 2082 2101
3 339 338 342
3 1218 994 1505
3 333 336 337
3 266 263 1742
3 1873 768 2127
3 244 63 2162
3 64 223 2162
3 343 342 346
3 914 761 2258
3 310 312 1987
3 799 800 2055
3 302 304 763
3 1559 1566 1568
3 1598 1343 2114
3 592 575 595
3 341 345 794
3 189 1842 2220
3 767 815 816
3 1003 912 1004
3 839 1008 1009
3 1263 1428 1429
3 564 547 570
3 1845 1334 2082
3 332 331 334
3 901 866 902
3 651 659 1963
3 1009 1112 1213
3 335 334 338
3 569 585 1993
3 1665 1336 2299
3 1945 2071 2153
3 863 862 864
3 907 906 908
3 1849 1486 1930
3 1935 1144 2080
3 967 966 968
3 809 900 2119
3 865 864 866
3 835 1989 2095
3 190 1907 2417
3 333 337 522
3 1110 1748 2228
3 1193 1194 1195
3 94 191 2166
3 473 1854 2453
3 1769 1134 2369
3 948 851 1992
3 237 170 2216
3 420 419 422
3 1448 1447 2364
3 483 576 2144
3 721 1919 2032
3 885 886 1891
3 613 611 614
3 886 1014 1891
3 1160 411 2043
3 1918 1283 2342
3 1651 206 2485
3 1242 1240 1243
3 598 596 610
3 1295 1296 1459
3 1185 1186 1948
3 1425 1449 2070
3 294 296 762
3 1285 948 1992
3 925 876 1894
3 712 714 789
3 603 1668 2398
3 1940 590 2001
3 721 570 964
3 834 735 2075
3 1144 1920 2080
3 2263 1635 2511
3 1204 1207 1335
3 2235 1408 2378
3 965 964 966
3 1990 1435 2218
3 397 398 2060
3 1138 797 2058
3 1787 1141 2368
3 2068 820 2170
3 360 359 361
3 387 462 2087
3 1524 1272 1934
3 819 698 820
3 1197 1196 1198
3 1662 2126 2388
3 78 79 2093
3 1150 588 2089
3 1269 1261 1270
3 1878 915 2101
3 451 467 2169
3 2262 1387 2437
3 1009 1008 1112
3 757 311 1959
3 897 898 1139
3 1854 473 2483
3 2015 1425 2070
3 2082 1334 2101
3 963 1115 1174
3 1047 1049 1287
3 1194 423 1196
3 321 326 2050
3 417 1160 2031
3 854 1133 1973
3 1201 1212 1348
3 705 1586 2163
3 309 319 1959
3 1353 1390 2417
3 427 428 429
3 357 356 359
3 606 650 2001
3 549 1280 2124
3 1213 1112 1407
3 256 2303 2535
3 356 365 2065
3 662 664 2040
3 701 894 2039
3 1325 1371 2451
3 666 626 667
3 1902 93 2166
3 1236 1234 1246
3 800 839 2055
3 1869 1812 2252
3 1197 1364 1365
3 576 1935 2080
3 404 408 798
3 1678 807 2529
3 1560 1564 2016
3 1319 2039 2122
3 425 426 427
3 349 356 357
3 308 310 327
3 1716 622 2484
3 1801 82 2289
3 1768 1949 2420
3 2006 1926 2507
3 351 364 2407
3 420 423 1193
3 659 764 1963
3 292 294 2038
3 840 842 2027
3 736 279 2049
3 372 373 374
3 461 449 2052
3 2189 1195 2285
3 1174 1115 1398
3 367 363 961
3 909 908 918
3 1738 247 2402
3 1007 1761 2308
3 288 290 2135
3 422 441 2035
3 623 624 690
3 537 525 545
3 1953 1421 2454
3 1887 1968 2123
3 861 691 862
3 654 439 2223
3 1136 1080 2054
3 1312 1811 2089
3 575 571 2032
3 383 361 384
3 968 1200 1201
3 797 661 2058
3 1423 1354 2381
3 1180 1178 1181
3 1513 1515 2180
3 72 73 2217
3 462 445 463
3 12 13 2136
3 457 458 469
3 542 554 555
3 599 636 760
3 254 133 1766
3 1130 1397 1937
3 404 798 2060
3 1044 1942 2071
3 690 691 860
3 357 359 360
3 1008 2027 2152
3 1232 1230 1255
3 372 370 373
3 850 943 2125
3 1457 1456 1492
3 1952 324 2282
3 155 2 2356
3 0 7 2357
3 2017 1379 2288
3 918 1851 2008
3 195 1991 2517
3 2090 803 2347
3 1244 1243 1251
3 290 292 368
3 1432 1082 2214
3 1008 840 2027
3 1743 803 2296
3 1013 844 2039
3 365 1162 2065
3 1594 1315 2184
3 387 384 388
3 1508 1860 2311
3 547 527 2056
3 2005 225 2322
3 314 317 2127
3 1853 556 2327
3 201 6 278
3 1907 1644 2417
3 1896 2101 2108
3 646 645 784
3 538 508 558
3 374 375 377
3 1630 1634 1635
3 1579 1999 2352
3 1647 1648 1849
3 1313 1314 2121
3 1179 1433 2042
3 844 701 2039
3 1252 1251 2098
3 816 876 925
3 1922 1228 2281
3 392 394 396
3 1915 654 2294
3 1652 1653 2487
3 429 430 436
3 456 475 476
3 1605 1392 2510
3 126 1882 2284
3 1784 1780 2419
3 500 453 960
3 377 378 381
3 2178 1587 2300
3 1222 1219 1626
3 413 419 420
3 381 382 400
3 2169 1836 2223
3 1906 1905 2129
3 616 614 793
3 1170 1419 2139
3 101 189 2220
3 241 100 2220
3 1968 1111 2123
3 567 434 2031
3 615 614 616
3 1032 720 1921
3 682 428 2138
3 469 470 473
3 339 440 2261
3 1501 238 2226
3 1154 1431 1653
3 446 447 457
3 1251 1243 1257
3 2229 315 2495
3 1201 1202 1212
3 785 784 879
3 464 463 465
3 66 2118 2395
3 324 332 2282
3 286 288 771
3 17 199 2081
3 571 570 721
3 611 610 2092
3 617 616 618
3 1542 1531 2332
3 400 401 424
3 1325 1326 1371
3 1140 1406 1702
3 1323 443 2302
3 1926 1573 2507
3 436 437 446
3 1262 1457 2098
3 67 190 2118
3 1518 1861 2449
3 989 1359 1360
3 1063 1082 1154
3 1757 96 2526
3 969 967 1011
3 868 836 2095
3 1215 1035 2235
3 96 1757 2309
3 261 2160 2380
3 1381 1382 2126
3 1468 1469 2182
3 1334 1317 2108
3 861 863 1064
3 1270 1261 1271
3 360 361 383
3 287 316 1978
3 1856 192 2367
3 1905 241 2129
3 1615 1809 2425
3 528 523 560
3 979 980 989
3 662 2040 2058
3 721 964 965
3 170 171 2216
3 664 799 2040
3 512 511 523
3 1201 1348 2107
3 620 618 858
3 758 289 1978
3 859 858 998
3 424 425 453
3 1616 1615 2193
3 444 301 1975
3 561 560 593
3 965 966 967
3 1798 376 2430
3 340 2014 2091
3 510 465 511
3 107 195 1990
3 1080 1188 2054
3 1153 998 1312
3 1226 1224 1249
3 1012 1011 1363
3 902 904 905
3 842 963 2027
3 268 270 1134
3 865 901 1125
3 2077 558 2102
3 282 284 442
3 1977 1679 2253
3 1496 1498 2047
3 284 286 2063
3 281 736 1938
3 2132 793 2165
3 1674 215 2437
3 2078 1855 2411
3 839 1009 2055
3 1182 824 1183
3 1168 947 1169
3 1289 1871 2242
3 316 285 1971
3 1270 1271 1272
3 1755 1793 2264
3 51 1996 2011
3 383 384 387
3 1146 1924 2215
3 1279 1928 2202
3 619 618 620
3 1194 1196 1197
3 555 578 979
3 1937 1639 2528
3 1262 1257 1263
3 389 384 2339
3 2251 1338 2464
3 1155 1887 2123
3 1151 1937 2528
3 465 463 828
3 1318 1319 2116
3 1687 1688 2231
3 326 954 2050
3 297 318 1984
3 1308 953 2255
3 1846 2056 2198
3 320 315 2229
3 1254 1252 2059
3 760 761 783
3 951 1281 2255
3 1459 1296 2094
3 2288 1638 2470
3 1975 299 1984
3 52 247 1996
3 468 338 2090
3 2140 1511 2506
3 1125 1126 1192
3 593 824 1182
3 720 708 1921
3 704 706 707
3 623 587 624
3 2044 1112 2152
3 1393 1169 1749
3 900 983 2119
3 783 914 938
3 255 2265 2489
3 2039 894 2122
3 317 2050 2127
3 1866 1867 2513
3 374 373 375
3 429 436 455
3 387 388 445
3 1193 423 1194
3 555 577 578
3 1074 977 1187
3 449 567 2052
3 1197 1198 1364
3 2154 1595 2486
3 1486 1849 2173
3 318 295 1983
3 939 1016 1844
3 131 132 2160
3 30 31 2159
3 881 1146 2215
3 1294 1868 2238
3 1300 1455 2314
3 1365 1364 1912
3 783 938 939
3 2061 1735 2441
3 551 545 601
3 2194 216 2536
3 1251 1257 1262
3 888 887 2177
3 1364 1198 2048
3 1498 1682 2340
3 1589 1590 2501
3 60 188 2266
3 1401 1913 2324
3 195 108 1991
3 420 422 423
3 1675 1470 2474
3 258 1673 2183
3 2161 1619 2438
3 1296 1472 2094
3 1808 1910 2381
3 334 803 2090
3 1490 1285 2232
3 523 511 524
3 1240 1238 2074
3 1184 1183 1185
3 39 40 2151
3 473 474 477
3 1461 1463 2200
3 2072 353 2073
3 861 862 863
3 1206 1941 2401
3 958 1575 2287
3 614 611 2092
3 110 111 2140
3 1136 2054 2110
3 645 594 2133
3 260 33 2002
3 673 767 2131
3 989 980 1359
3 1741 2131 2258
3 1317 1875 2148
3 894 1946 2122
3 863 864 865
3 787 461 2052
3 857 2277 2386
3 109 246 1991
3 2017 116 2018
3 1182 1183 1184
3 377 375 378
3 816 925 1324
3 865 866 901
3 1262 1263 1456
3 359 356 2065
3 2129 241 2472
3 283 1938 1971
3 1458 1210 2203
3 1076 1003 2145
3 196 1738 2402
3 1033 1130 1151
3 1188 1121 2106
3 1140 1702 2096
3 549 687 1280
3 1694 1621 2191
3 861 1064 2112
3 1548 1549 2129
3 1784 1071 2462
3 714 716 2066
3 1961 825 2455
3 1447 1211 2250
3 979 578 980
3 905 907 1209
3 381 378 382
3 457 469 552
3 595 575 2032
3 408 413 2084
3 481 483 2144
3 1745 1349 2293
3 1980 1405 2441
3 198 50 2011
3 248 115 2017
3 912 819 2068
3 620 858 859
3 707 708 720
3 821 674 822
3 514 542 2086
3 400 382 401
3 123 2005 2012
3 1772 1351 2374
3 34 239 2002
3 768 314 2127
3 2003 36 2004
3 280 282 2079
3 124 225 2005
3 596 595 2130
3 593 560 824
3 1504 1502 2519
3 239 35 2003
3 1311 1309 2147
3 1318 1877 2240
3 1860 1432 2311
3 1416 1715 2330
3 859 998 1153
3 352 353 2072
3 312 768 1987
3 2027 1174 2152
3 226 38 2006
3 1827 1024 2117
3 1710 1391 2295
3 690 624 691
3 37 226 2004
3 1153 1312 1885
3 853 855 2186
3 1892 242 2373
3 1967 520 2174
3 939 938 1016
3 47 249 2019
3 388 390 2078
3 1991 2139 2517
3 905 906 907
3 571 721 2032
3 1196 423 2035
3 1324 925 1325
3 1151 1130 1937
3 363 352 2072
3 345 349 2076
3 1031 1032 1033
3 214 179 1859
3 211 122 2012
3 602 601 652
3 117 205 2018
3 710 712 2067
3 1602 187 2357
3 520 2000 2174
3 85 242 2335
3 220 84 2335
3 381 400 2113
3 1586 1587 2435
3 424 401 425
3 963 1174 2027
3 860 691 861
3 610 596 2130
3 1958 2078 2431
3 570 547 2056
3 237 2216 2354
3 1211 1692 2219
3 298 358 1997
3 909 947 1041
3 441 456 2097
3 1135 1647 1849
3 1601 1542 2443
3 197 113 2009
3 49 198 2010
3 1911 347 2407
3 1729 191 2309
3 212 41 2020
3 121 211 2013
3 222 105 2218
3 1125 901 1126
3 114 248 2009
3 249 48 2010
3 42 250 2020
3 251 120 2013
3 233 1769 2369
3 1870 647 2113
3 794 345 2076
3 250 43 2024
3 119 251 2021
3 901 902 2141
3 964 570 2056
3 739 335 2261
3 2108 1317 2148
3 577 599 2083
3 205 118 2021
3 44 206 2024
3 1247 1241 2323
3 1894 992 2244
3 6 203 2049
3 1642 1678 2529
3 1417 1873 2333
3 1422 2023 2516
3 341 794 2100
3 73 74 2361
3 1234 1232 2088
3 1261 1254 2059
3 896 1077 2257
3 1921 710 2067
3 125 126 2284
3 220 1699 2289
3 159 5 2304
3 4 184 2303
3 2059 1252 2098
3 1003 1004 2145
3 2328 1325 2451
3 1486 227 1500
3 63 64 2162
3 2081 1192 2260
3 508 500 2102
3 667 1872 2318
3 338 334 2090
3 423 422 2035
3 1192 1126 1471
3 907 908 909
3 1330 1328 2192
3 1972 897 2500
3 2443 316 2514
3 242 86 2373
3 87 193 2373
3 420 1193 2084
3 1473 1086 2358
3 1987 768 2037
3 522 337 2100
3 627 1660 2185
3 1793 446 2264
3 1405 2061 2441
3 1502 1217 2302
3 171 201 2216
3 1158 1993 2153
3 1197 1365 2120
3 1712 1710 2295
3 1121 1401 2414
3 93 94 2166
3 653 652 688
3 622 1716 2452
3 1345 1720 2267
3 477 537 556
3 128 129 2181
3 2331 1295 2458
3 784 645 874
3 1269 1270 2199
3 189 102 2355
3 1041 1168 1343
3 246 110 2140
3 477 525 537
3 755 1895 2371
3 1947 1723 2313
3 1134 1135 2369
3 223 65 2395
3 968 1201 2107
3 1577 1578 2325
3 210 15 2477
3 961 363 2072
3 1581 1579 2352
3 349 357 2076
3 337 341 2100
3 305 303 2317
3 370 367 2103
3 762 296 1997
3 581 580 2164
3 1278 1838 2372
3 1548 2129 2472
3 594 593 2133
3 2021 251 2022
3 2047 1247 2182
3 967 968 2107
3 1169 947 2008
3 481 2144 2169
3 793 614 2092
3 1910 217 2381
3 1251 1262 2098
3 716 788 2066
3 2101 1334 2108
3 2006 39 2151
3 1603 2379 2508
3 1926 2006 2151
3 96 97 2526
3 750 755 2371
3 789 714 2066
3 909 918 947
3 1993 895 2153
3 106 1990 2218
3 1243 1240 2074
3 832 986 1189
3 1283 1284 2342
3 2297 195 2517
3 1043 829 2326
3 767 816 2131
3 602 653 676
3 1004 912 2068
3 2086 1886 2224
3 1124 2177 2467
3 426 401 2531
3 707 720 1030
3 1000 1001 2184
3 1315 1029 2184
3 467 481 2169
3 541 513 2256
3 647 381 2113
3 225 2284 2510
3 2 156 2356
3 187 0 2357
3 40 212 2151
3 2245 1386 2383
3 676 677 829
3 1004 2068 2069
3 1860 232 2487
3 1031 1033 1034
3 829 830 972
3 996 997 2408
3 1195 1194 2120
3 987 1869 2202
3 1410 1213 2222
3 819 820 2068
3 1485 1486 2173
3 1564 2030 2155
3 807 669 2529
3 129 261 2181
3 1525 1076 2145
3 578 577 2083
3 327 310 1987
3 1083 929 2197
3 2131 1324 2258
3 798 408 2084
3 1838 696 2426
3 1486 1500 1930
3 1946 1944 2291
3 2257 1077 2291
3 1512 1661 2266
3 445 388 2078
3 1192 1471 2260
3 2118 1415 2395
3 1466 1468 2158
3 830 677 831
3 211 2012 2251
3 652 601 2442
3 537 545 551
3 558 508 2102
3 198 2011 2128
3 1718 2280 2385
3 500 960 2102
3 1168 1169 1393
3 1127 971 2496
3 95 96 2309
3 2030 1565 2155
3 1919 1172 2273
3 977 860 2112
3 240 128 2181
3 294 762 2038
3 1800 1799 2195
3 712 789 2067
3 972 1749 2326
3 472 1683 2212
3 874 645 2133
3 551 2045 2201
3 2105 1043 2326
3 1957 1212 2301
3 1514 1856 2367
3 565 538 2167
3 373 370 2103
3 355 348 2196
3 1934 1272 2138
3 1934 426 2531
3 1881 1400 2481
3 2046 1851 2327
3 367 961 2103
3 1963 1152 2206
3 201 278 443
3 3 131 2444
3 31 1 2445
3 2035 441 2097
3 503 787 2198
3 1135 1849 1930
3 1534 1983 2306
3 2089 623 2150
3 687 704 2109
3 869 1351 2363
3 1302 1304 2205
3 955 1716 2484
3 1030 720 1031
3 1159 1318 2240
3 1228 1226 2281
3 947 918 2008
3 413 420 2084
3 785 879 2532
3 1041 947 1168
3 1468 2182 2323
3 1246 1234 2088
3 1730 1163 2372
3 542 555 2086
3 1599 631 2312
3 1146 1967 2174
3 1078 1136 2343
3 1515 1574 2180
3 2336 885 2469
3 1257 1243 2074
3 1347 1346 2279
3 2001 650 2206
3 1480 1601 2514
3 1029 1000 2184
3 1956 788 2336
3 1271 1261 2059
3 130 3 2444
3 1 32 2445
3 1570 1507 2197
3 1232 1255 2088
3 791 1642 2529
3 1601 1479 2269
3 1361 1362 2168
3 1634 1922 2281
3 765 2065 2190
3 2071 1158 2153
3 1699 1801 2289
3 832 831 833
3 1864 346 2344
3 456 476 2097
3 1855 828 2411
3 2065 1162 2190
3 1125 1192 2149
3 599 760 2083
3 361 765 2339
3 1731 2123 2241
3 1349 1181 1350
3 1443 1275 2251
3 1819 524 2429
3 1021 1045 2512
3 858 618 2132
3 1999 358 2338
3 368 292 2038
3 290 368 2135
3 803 331 2296
3 1112 1008 2152
3 56 1947 2313
3 555 979 2086
3 1469 1496 2182
3 1011 967 2107
3 248 2017 2288
3 1809 789 2425
3 960 453 2221
3 538 558 2167
3 1858 1187 2248
3 2246 1757 2526
3 902 905 2141
3 1851 1853 2327
3 1224 1222 2111
3 771 288 2135
3 1945 2153 2257
3 1420 1525 2489
3 1399 1123 2393
3 103 2025 2355
3 897 822 898
3 1861 940 2532
3 865 1125 2146
3 1675 2474 2522
3 1573 2157 2507
3 1632 1631 2382
3 551 601 602
3 527 503 2198
3 1708 805 2337
3 1059 1278 2372
3 2056 527 2198
3 860 861 2112
3 1668 2348 2398
3 255 2159 2265
3 1541 1542 2269
3 1428 2074 2227
3 1582 1583 2321
3 389 1774 2503
3 2004 226 2157
3 1777 397 2405
3 1368 1436 2254
3 1061 2409 2462
3 1071 930 2462
3 1126 901 2141
3 1194 1197 2120
3 1452 1952 2282
3 2116 1319 2482
3 105 106 2218
3 1981 1399 2393
3 2119 983 2143
3 444 1682 2461
3 2173 1648 2463
3 616 793 2132
3 1791 1190 2334
3 1826 1728 2259
3 602 652 653
3 1834 1292 2428
3 556 2201 2327
3 1014 1015 2385
3 1995 1287 2331
3 1193 1195 2189
3 816 1324 2131
3 879 1861 2532
3 593 1182 2133
3 1402 266 1742
3 2216 1323 2354
3 1660 1636 2502
3 620 955 2484
3 1162 1706 2190
3 1870 2113 2249
3 204 1680 1732
3 1909 2023 2420
3 217 72 2217
3 376 372 2430
3 905 1209 2141
3 1378 1381 2283
3 1236 1246 2227
3 286 771 2063
3 1635 2263 2502
3 100 101 2220
3 1139 898 1140
3 2114 1343 2136
3 442 284 2063
3 1772 2106 2414
3 1985 1755 2533
3 2192 1328 2315
3 1064 863 2146
3 1631 1637 2459
3 736 2049 2523
3 221 1906 2246
3 318 1983 2171
3 1496 2047 2182
3 1374 2139 2506
3 196 55 2313
3 2087 462 2134
3 676 653 677
3 2304 257 2491
3 1401 2324 2363
3 829 677 830
3 654 2223 2242
3 1187 977 2112
3 1463 1466 2200
3 2023 219 2516
3 1176 881 2215
3 513 471 2290
3 1812 459 2252
3 1386 1269 2199
3 291 758 2306
3 618 616 2132
3 278 280 2210
3 83 220 2289
3 82 83 2289
3 938 1057 2161
3 1189 986 1190
3 788 719 2336
3 1914 2001 2206
3 232 181 1652
3 1567 2062 2490
3 313 757 2495
3 622 619 2484
3 688 878 1320
3 1222 1626 2111
3 282 442 2079
3 1169 2008 2105
3 1966 1007 2308
3 2040 799 2237
3 1744 2229 2495
3 986 833 1063
3 2284 1605 2510
3 887 1961 2376
3 215 1624 2262
3 830 831 832
3 476 475 2224
3 439 451 2223
3 1932 1933 2380
3 2227 1246 2366
3 1212 1202 2301
3 1107 1110 2228
3 249 2010 2299
3 1983 293 2306
3 2055 1214 2237
3 1438 1372 2478
3 824 560 2156
3 2320 1866 2513
3 1351 1137 2374
3 868 2007 2232
3 2063 771 2064
3 1507 214 1508
3 1728 1727 2246
3 1045 1047 2348
3 1139 1140 2096
3 1648 1649 2463
3 1502 2302 2519
3 704 707 2109
3 2343 1136 2396
3 650 1963 2206
3 2153 895 2257
3 396 1958 2431
3 1379 1377 2288
3 2115 1471 2319
3 2033 987 2202
3 2239 1693 2518
3 2025 1488 2355
3 1209 2115 2319
3 523 524 2156
3 783 939 2243
3 376 1798 2497
3 2066 788 2193
3 1984 318 2172
3 425 427 2221
3 203 172 1847
3 446 457 2264
3 1312 2089 2150
3 2138 1272 2211
3 897 1139 2274
3 828 1819 2429
3 1249 1224 2111
3 666 667 2318
3 1371 1326 2194
3 2433 1499 2475
3 1272 1271 2211
3 1367 2254 2479
3 1386 2053 2383
3 2074 1238 2227
3 755 2148 2320
3 2117 1604 2428
3 475 514 2224
3 228 2187 2457
3 1868 1504 2520
3 1626 1218 2185
3 2123 1111 2241
3 1287 1049 2331
3 1280 687 2109
3 459 1814 2292
3 54 196 2402
3 863 865 2146
3 204 176 1680
3 514 2086 2224
3 1646 603 2398
3 112 197 2346
3 358 300 2338
3 1140 898 1141
3 1204 1335 2301
3 1016 2161 2438
3 909 1041 2175
3 1681 2448 2492
3 2252 459 2292
3 1992 868 2232
3 1035 1036 2235
3 1051 1295 2331
3 1836 1289 2242
3 1508 214 1859
3 247 53 2402
3 1016 938 2161
3 1408 856 2378
3 1466 2158 2200
3 725 885 2336
3 855 1450 2421
3 2023 1768 2420
3 1238 1236 2227
3 1679 202 2253
3 2107 1348 2233
3 1653 1431 2487
3 1946 2291 2343
3 2253 202 2329
3 1885 1312 2150
3 378 628 2390
3 2195 1383 2432
3 1520 1519 2480
3 1532 1733 2534
3 308 327 2278
3 953 951 2255
3 1213 1407 2222
3 1561 1563 2285
3 302 763 2338
3 1928 2033 2202
3 763 304 2345
3 832 833 986
3 1352 2040 2237
3 247 1881 2481
3 560 523 2156
3 335 339 2261
3 346 342 2344
3 201 443 1323
3 2301 1335 2466
3 323 320 2229
3 1136 2110 2396
3 1139 1977 2274
3 1809 1615 2423
3 1707 1791 2334
3 46 2019 2485
3 2064 1294 2238
3 1950 197 2404
3 2021 2022 2176
3 1949 245 2420
3 2044 2152 2207
3 1063 1154 1707
3 1012 1363 2406
3 280 2079 2210
3 2237 1214 2351
3 820 698 2318
3 1140 1141 1406
3 205 2021 2176
3 2043 786 2310
3 2145 1004 2446
3 707 1030 2109
3 1406 2460 2473
3 2137 1268 2226
3 16 2081 2260
3 567 2031 2219
3 2112 1064 2248
3 206 45 2485
3 2347 1462 2365
3 1650 1962 2362
3 453 425 2221
3 1209 907 2175
3 1111 1276 2241
3 2448 1145 2492
3 2051 2083 2243
3 59 60 2266
3 1402 1742 2530
3 831 677 2209
3 624 587 2276
3 238 174 1725
3 1011 2107 2233
3 468 2365 2412
3 2337 805 2371
3 254 1932 2380
3 1174 1398 2207
3 2140 111 2346
3 1381 2186 2283
3 1987 2037 2188
3 1740 559 2456
3 1773 391 2503
3 1335 1870 2249
3 1945 2257 2291
3 828 463 2411
3 1246 2088 2208
3 2060 798 2307
3 1773 1159 2240
3 1187 2112 2248
3 1352 2237 2351
3 2037 1322 2188
3 1941 1499 2433
3 2322 225 2510
3 1031 1034 2236
3 327 2188 2321
3 595 2032 2273
3 1464 1462 2347
3 1285 1992 2232
3 799 2055 2237
3 443 278 2210
3 784 874 2178
3 392 396 2431
3 191 95 2309
3 879 784 2178
3 524 511 2429
3 2128 2011 2270
3 895 896 2257
3 2206 1152 2324
3 318 2171 2172
3 2259 1549 2379
3 1214 1410 2351
3 306 308 2278
3 2022 251 2247
3 1757 1729 2309
3 1283 1918 2524
3 996 1706 2492
3 557 2044 2207
3 1798 1448 2364
3 1447 2250 2310
3 559 1750 2403
3 1363 1011 2233
3 1343 1168 2187
3 1407 2044 2256
3 1462 1460 2365
3 1995 2331 2458
3 327 1987 2188
3 2160 254 2380
3 1681 958 2287
3 2031 1160 2250
3 1600 689 2413
3 2219 1692 2239
3 1494 1675 2522
3 1281 1916 2448
3 907 909 2175
3 565 2167 2276
3 2241 1276 2275
3 1978 316 2443
3 2151 212 2350
3 203 1847 2104
3 2049 1481 2523
3 1961 1362 2376
3 2187 1393 2457
3 940 796 2532
3 2293 1349 2329
3 572 1897 2537
3 332 739 2282
3 2052 567 2239
3 1437 1370 2277
3 567 2219 2239
3 667 626 2452
3 1914 2206 2324
3 2243 939 2392
3 2136 1343 2187
3 257 1654 2530
3 1376 1378 2283
3 2076 1982 2272
3 2083 760 2243
3 1944 1945 2291
3 1771 1839 2359
3 1404 1403 2399
3 1875 1866 2320
3 1460 1337 2412
3 760 783 2243
3 1276 1366 2275
3 1428 2227 2366
3 1882 1605 2284
3 1739 1429 2459
3 2321 2188 2434
3 1328 1327 2315
3 798 2189 2307
3 2152 1174 2207
3 2182 1247 2323
3 1516 1514 2367
3 293 291 2306
3 556 537 2201
3 1298 1300 2314
3 1400 1399 2316
3 1649 2236 2463
3 833 831 2424
3 2127 2050 2333
3 1057 914 2328
3 1839 193 2359
3 761 1741 2258
3 1186 1970 2422
3 1429 2366 2382
3 2211 1271 2271
3 1733 1248 2534
3 13 2114 2136
3 2078 390 2431
3 1533 1536 2340
3 1690 2145 2446
3 1277 2308 2370
3 1168 1393 2187
3 1597 2047 2268
3 587 565 2276
3 1908 244 2401
3 225 125 2284
3 610 2130 2468
3 1749 2105 2326
3 1913 1914 2324
3 2366 2208 2382
3 1391 1876 2295
3 457 552 2264
3 653 688 2209
3 1601 2443 2514
3 682 2138 2211
3 992 1980 2244
3 55 56 2313
3 1645 1495 2493
3 473 477 2483
3 202 1724 2329
3 465 828 2429
3 1277 1966 2308
3 1416 2330 2406
3 1912 1364 2455
3 1716 1483 2375
3 2019 1651 2485
3 1725 2137 2226
3 201 1323 2216
3 878 1083 2213
3 2072 2073 2245
3 1563 1777 2405
3 244 2028 2401
3 2016 1564 2422
3 1682 1497 2461
3 1962 1153 2362
3 1298 2314 2358
3 1384 1385 2391
3 688 1320 2209
3 1587 2179 2435
3 786 380 2497
3 1395 1522 2341
3 2032 1919 2273
3 251 2013 2247
3 2219 2031 2250
3 2397 552 2453
3 1765 255 2489
3 2475 1825 2524
3 1202 1204 2301
3 445 2078 2411
3 323 2229 2296
3 1286 2384 2408
3 537 551 2201
3 1724 237 2293
3 84 85 2335
3 1471 1126 2319
3 1635 1634 2511
3 300 302 2338
3 698 666 2318
3 1030 1031 2236
3 2098 1457 2271
3 696 1821 2426
3 1457 1492 2447
3 1956 2336 2469
3 331 323 2296
3 1284 1491 2342
3 2011 1996 2270
3 256 183 2303
3 160 257 2304
3 2204 1589 2501
3 1891 1014 2280
3 719 725 2336
3 1354 1808 2381
3 437 430 2494
3 2377 218 2391
3 2211 2271 2447
3 1407 2256 2290
3 2365 1460 2412
3 2047 1498 2268
3 1825 1283 2524
3 1499 1825 2475
3 1226 1249 2281
3 2051 2243 2392
3 2250 1160 2310
3 111 112 2346
3 304 306 2345
3 1341 1352 2351
3 2166 191 2504
3 2223 1836 2242
3 1996 247 2481
3 1049 1051 2331
3 1086 1298 2358
3 2130 595 2273
3 1249 2111 2263
3 680 1995 2458
3 1511 2140 2346
3 102 103 2355
3 469 473 2453
3 961 2072 2245
3 2073 1282 2245
3 1442 1443 2525
3 74 192 2361
3 2163 1586 2435
3 1519 1518 2449
3 897 2274 2500
3 303 444 2317
3 1615 1614 2423
3 197 2009 2404
3 1634 2281 2511
3 1780 1781 2419
3 1435 1623 2465
3 1286 1774 2384
3 384 361 2339
3 193 1901 2359
3 1165 2433 2475
3 2277 1370 2386
3 677 653 2209
3 1994 1516 2367
3 1479 1478 2440
3 1165 1512 2433
3 1644 1353 2417
3 1711 1712 2353
3 2193 1615 2425
3 1613 1956 2469
3 1440 1173 2330
3 2269 1479 2440
3 222 2218 2465
3 391 389 2503
3 306 2278 2345
3 468 2090 2365
3 221 2246 2526
3 1445 1446 2504
3 939 1844 2392
3 86 87 2373
3 1429 1428 2366
3 2053 2103 2383
3 1348 1212 2312
3 805 750 2371
3 997 1286 2408
3 1152 869 2363
3 2063 2064 2238
3 192 1994 2367
3 1160 2043 2310
3 1926 2151 2350
3 2059 2098 2271
3 1897 1366 2537
3 215 2262 2437
3 1655 1732 2476
3 2415 1128 2454
3 1320 2213 2214
3 7 258 2357
3 259 155 2356
3 2171 1530 2172
3 347 351 2407
3 1077 1078 2343
3 239 2003 2279
3 1446 1128 2415
3 1034 1033 2410
3 601 627 2442
3 1154 1653 2234
3 397 2060 2405
3 2142 794 2272
3 442 2063 2238
3 1863 1215 2378
3 794 2076 2272
3 1883 1375 2505
3 1320 878 2213
3 342 468 2344
3 1903 218 2377
3 380 376 2497
3 1549 1547 2379
3 1148 1165 2475
3 2157 226 2507
3 829 972 2326
3 884 1957 2466
3 2291 1077 2343
3 65 66 2395
3 787 2052 2518
3 2298 1348 2312
3 1946 2343 2396
3 1653 256 2535
3 1842 1548 2472
3 1957 2301 2466
3 1366 1277 2370
3 2213 1432 2214
3 961 2245 2383
3 218 2093 2391
3 1376 2283 2421
3 1873 2127 2333
3 1019 1021 2512
3 1128 1127 2454
3 1104 1434 2450
3 2130 1439 2468
3 2396 2110 2482
3 2186 855 2283
3 1724 2293 2329
3 1163 1059 2372
3 1614 2389 2423
3 53 54 2402
3 1063 1707 2334
3 2283 855 2421
3 1385 1863 2436
3 364 1883 2505
3 517 1890 2387
3 1145 996 2492
3 1047 1287 2348
3 2148 1875 2320
3 205 2176 2416
3 1372 1844 2478
3 1211 2219 2250
3 1141 898 2368
3 245 1909 2420
3 2278 327 2321
3 2389 1397 2423
3 2256 513 2290
3 559 2403 2456
3 1137 1340 2374
3 2093 1384 2391
3 1918 1148 2524
3 1030 2236 2427
3 1867 1895 2513
3 2014 517 2387
3 2271 1457 2447
3 1143 2028 2353
3 1904 194 2432
3 1148 2475 2524
3 1574 1523 2436
3 2213 1083 2311
3 1997 358 2325
3 2139 246 2506
3 1370 1369 2386
3 1271 2059 2271
3 1034 2173 2463
3 1123 1412 2393
3 1578 1827 2515
3 2209 1320 2424
3 2079 1504 2210
3 1361 2168 2305
3 1491 1489 2403
3 238 1725 2226
3 1190 986 2334
3 1547 1545 2508
3 1891 1613 2469
3 1153 1885 2362
3 2208 1632 2382
3 2287 1281 2448
3 1356 1376 2421
3 1965 2349 2515
3 2155 1186 2422
3 1522 2014 2387
3 2158 1468 2323
3 2050 954 2333
3 1397 1809 2423
3 1362 1360 2376
3 1852 1985 2397
3 2069 1691 2446
3 789 2066 2425
3 1895 755 2513
3 1707 1154 2234
3 372 374 2430
3 2225 787 2518
3 2028 1206 2401
3 986 1063 2334
3 1912 726 2439
3 1340 1342 2400
3 1916 1145 2448
3 2236 1649 2427
3 2374 1340 2400
3 2222 1407 2290
3 2324 1152 2363
3 241 2220 2472
3 765 2190 2384
3 2375 667 2452
3 2330 1173 2406
3 1181 1972 2500
3 2126 1382 2388
3 1173 1012 2406
3 315 313 2495
3 1015 1373 2385
3 97 221 2526
3 1937 1397 2389
3 930 1061 2462
3 971 1096 2496
3 45 46 2485
3 669 791 2529
3 1104 2450 2521
3 382 378 2390
3 2191 1371 2536
3 2235 1036 2286
3 831 2209 2424
3 762 1997 2349
3 2379 1547 2508
3 2177 1359 2467
3 2403 1489 2456
3 796 785 2532
3 219 1902 2516
3 1519 2300 2480
3 1065 1655 2476
3 1375 1473 2505
3 1489 1490 2456
3 390 392 2431
3 2247 2013 2464
3 1135 1930 2369
3 2278 1583 2345
3 626 622 2452
3 631 2298 2312
3 2233 1348 2298
3 1398 1974 2499
3 1706 1681 2492
3 261 130 2444
3 32 260 2445
3 822 2099 2368
3 1365 1912 2439
3 941 940 2418
3 1446 2166 2504
3 2106 1121 2414
3 2300 1519 2449
3 1803 1104 2521
3 1732 1570 2476
3 1413 2051 2392
3 2122 1946 2396
3 2238 1868 2520
3 477 556 2483
3 2397 1985 2533
3 463 445 2411
3 2163 1185 2488
3 1126 2141 2319
3 1755 2264 2533
3 972 2204 2501
3 2230 1533 2340
3 1774 1773 2503
3 1997 2325 2349
3 1004 2069 2446
3 2159 31 2445
3 131 2160 2444
3 1371 2191 2451
3 1001 2154 2486
3 1682 2230 2340
3 2103 961 2383
3 1033 1151 2410
3 382 2390 2531
3 1504 2079 2520
3 1583 2278 2321
3 511 465 2429
3 250 2024 2479
3 2208 2088 2509
3 619 620 2484
3 1246 2208 2366
3 2141 1209 2319
3 1359 1413 2467
3 1295 1459 2458
3 2218 1435 2465
3 2281 1249 2511
3 2293 237 2354
3 2207 1398 2499
3 1564 2155 2422
3 552 469 2453
3 1947 224 2498
3 2062 1568 2490
3 2018 205 2416
3 260 2159 2445
3 2160 261 2444
3 2092 610 2468
3 194 2195 2432
3 1432 2213 2311
3 211 2251 2464
3 2378 856 2527
3 1536 1532 2534
3 2364 786 2497
3 2438 1438 2478
3 1185 1948 2488
3 2042 941 2418
3 1582 2321 2434
3 885 1891 2469
3 1364 2048 2455
3 1693 2225 2518
3 401 382 2531
3 1338 2247 2464
3 442 2238 2520
3 1292 2117 2428
3 2274 1350 2500
3 2066 2193 2425
3 2179 1184 2435
3 898 822 2368
3 2436 1863 2527
3 1844 1016 2478
3 2184 1001 2486
3 557 2207 2499
3 2013 211 2464
3 2254 250 2479
3 1350 1181 2500
3 2009 248 2470
3 246 2140 2506
3 1574 2436 2527
3 2139 1419 2517
3 316 1971 2514
3 1319 2122 2482
3 226 2006 2507
3 1400 2270 2481
3 1681 2287 2448
3 2325 1578 2349
3 232 1652 2487
3 1320 2214 2424
3 1632 2208 2509
3 248 2288 2470
3 1406 1141 2460
3 2188 1322 2434
3 2244 1980 2441
3 2088 1255 2509
3 1280 2109 2427
3 2060 2307 2405
3 2236 1034 2463
3 1745 2293 2354
3 2122 2396 2482
3 2109 1030 2427
3 2307 1563 2405
3 1429 2382 2459
3 224 2267 2498
3 682 2211 2447
3 2079 442 2520
3 2348 1287 2398
3 2220 1842 2472
3 1335 2249 2466
3 1249 2263 2511
3 443 2210 2519
3 2385 1373 2394
3 1594 2184 2486
3 2052 2239 2518
3 1568 2439 2490
3 2349 1578 2515
3 2344 468 2412
3 2270 1996 2481
3 1735 2244 2441
3 2260 1471 2477
3 2210 1504 2519
3 1434 2297 2450
3 2297 1419 2450
3 2263 1660 2502
3 2404 2009 2470
3 1718 2385 2394
3 1371 2194 2536
3 2317 444 2461
3 1443 2322 2525
3 1716 2375 2452
3 1863 2378 2527
3 2439 726 2490
3 1057 2328 2451
3 1638 2404 2470
3 1454 2234 2535
3 755 2320 2513
3 2234 1653 2535
3 2264 552 2533
3 1419 2297 2517
3 1392 2322 2510
3 552 2397 2533
3 1798 2364 2497
3 2322 1392 2525
3 2382 1631 2459
3 1016 2438 2478
3 1366 2370 2537
3 1742 2491 2530
3 2491 257 2530
CELL_TYPES 4886
5
5
5
5
5
5
5
5
5
5
5
5
5
5
5
5
5
5
5
5
5
5
5
5
5
5
5
5
5
5
5
5
5
5
5
5
5
5
5
5
5
5
5
5
5
5
5
5
5
5
5
5
5
5
5
5
5
5
5
5
5
5
5
5
5
5
5
5
5
5
5
5
5
5
5
5
5
5
5
5
5
5
5
5
5
5
5
5
5
5
5
5
5
5
5
5
5
5
5
5
5
5
5
5
5
5
5
5
5
5
5
5
5
5
5
5
5
5
5
5
5
5
5
5
5
5
5
5
5
5
5
5
5
5
5
5
5
5
5
5
5
5
5
5
5
5
5
5
5
5
5
5
5
5
5
5
5
5
5
5
5
5
5
5
5
5
5
5
5
5
5
5
5
5
5
5
5
5
5
5
5
5
5
5
5
5
5
5
5
5
5
5
5
5
5
5
5
5
5
5
5
5
5
5
5
5
5
5
5
5
5
5
5
5
5
5
5
5
5
5
5
5
5
5
5
5
5
5
5
5
5
5
5
5
5
5
5
5
5
5
5
5
5
5
5
5
5
5
5
5
5
5
5
5
5
5
5
5
5
5
5
5
5
5
5
5
5
5
5
5
5
5
5
5
5
5
5
5
5
5
5
5
5
5
5
5
5
5
5
5
5
5
5
5
5
5
5
5
5
5
5
5
5
5
5
5
5
5
5
5
5
5
5
5
5
5
5
5
5
5
5
5
5
5
5
5
5
5
5
5
5
5
5
5
5
5
5
5
5
5
5
5
5
5
5
5
5
5
5
5
5
5
5
5
5
5
5
5
5
5
5
5
5
5
5
5
5
5
5
5
5
5
5
5
5
5
5
5
5
5
5
5
5
5
5
5
5
5
5
5
5
5
5
5
5
5
5
5
5
5
5
5
5
5
5
5
5
5
5
5
5
5
5
5
5
5
5
5
5
5
5
5
5
5
5
5
5
5
5
5
5
5
5
5
5
5
5
5
5
5
5
5
5
5
5
5
5
5
5
5
5
5
5
5
5
5
5
5
5
5
5
5
5
5
5
5
5
5
5
5
5
5
5
5
5
5
5
5
5
5
5
5
5
5
5
5
5
5
5
5
5
5
5
5
5
5
5
5
5
5
5
5
5
5
5
5
5
5
5
5
5
5
5
5
5
5
5
5
5
5
5
5
5
5
5
5
5
5
5
5
5
5
5
5
5
5
5
5
5
5
5
5
5
5
5
5
5
5
5
5
5
5
5
5
5
5
5
5
5
5
5
5
5
5
5
5
5
5
5
5
5
5
5
5
5
5
5
5
5
5
5
5
5
5
5
5
5
5
5
5
5
5
5
5
5
5
5
5
5
5
5
5
5
5
5
5
5
5
5
5
5
5
5
5
5
5
5
5
5
5
5
5
5
5
5
5
5
5
5
5
5
5
5
5
5
5
5
5
5
5
5
5
5
5
5
5
5
5
5
5
5
5
5
5
5
5
5
5
5
5
5
5
5
5
5
5
5
5
5
5
5
5
5
5
5
5
5
5
5
5
5
5
5
5
5
5
5
5
5
5
5
5
5
5
5
5
5
5
5
5
5
5
5
5
5
5
5
5
5
5
5
5
5
5
5
5
5
5
5
5
5
5
5
5
5
5
5
5
5
5
5
5
5
5
5
5
5
5
5
5
5
5
5
5
5
5
5
5
5
5
5
5
5
5
5
5
5
5
5
5
5
5
5
5
5
5
5
5
5
5
5
5
5
5
5
5
5
5
5
5
5
5
5
5
5
5
5
5
5
5
5
5
5
5
5
5
5
5
5
5
5
5
5
5
5
5
5
5
5
5
5
5
5
5
5
5
5
5
5
5
5
5
5
5
5
5
5
5
5
5
5
5
5
5
5
5
5
5
5
5
5
5
5
5
5
5
5
5
5
5
5
5
5
5
5
5
5
5
5
5
5
5
5
5
5
5
5
5
5
5
5
5
5
5
5
5
5
5
5
5
5
5
5
5
5
5
5
5
5
5
5
5
5
5
5
5
5
5
5
5
5
5
5
5
5
5
5
5
5
5
5
5
5
5
5
5
5
5
5
5
5
5
5
5
5
5
5
5
5
5
5
5
5
5
5
5
5
5
5
5
5
5
5
5
5
5
5
5
5
5
5
5
5
5
5
5
5
5
5
5
5
5
5
5
5
5
5
5
5
5
5
5
5
5
5
5
5
5
5
5
5
5
5
5
5
5
5
5
5
5
5
5
5
5
5
5
5
5
5
5
5
5
5
5
5
5
5
5
5
5
5
5
5
5
5
5
5
5
5
5
5
5
5
5
5
5
5
5
5
5
5
5
5
5
5
5
5
5
5
5
5
5
5
5
5
5
5
5
5
5
5
5
5
5
5
5
5
5
5
5
5
5
5
5
5
5
5
5
5
5
5
5
5
5
5
5
5
5
5
5
5
5
5
5
5
5
5
5
5
5
5
5
5
5
5
5
5
5
5
5
5
5
5
5
5
5
5
5
5
5
5
5
5
5
5
5
5
5
5
5
5
5
5
5
5
5
5
5
5
5
5
5
5
5
5
5
5
5
5
5
5
5
5
5
5
5
5
5
5
5
5
5
5
5
5
5
5
5
5
5
5
5
5
5
5
5
5
5
5
5
5
5
5
5
5
5
5
5
5
5
5
5
5
5
5
5
5
5
5
5
5
5
5
5
5
5
5
5
5
5
5
5
5
5
5
5
5
5
5
5
5
5
5
5
5
5
5
5
5
5
5
5
5
5
5
5
5
5
5
5
5
5
5
5
5
5
5
5
5
5
5
5
5
5
5
5
5
5
5
5
5
5
5
5
5
5
5
5
5
5
5
5
5
5
5
5
5
5
5
5
5
5
5
5
5
5
5
5
5
5
5
5
5
5
5
5
5
5
5
5
5
5
5
5
5
5
5
5
5
5
5
5
5
5
5
5
5
5
5
5
5
5
5
5
5
5
5
5
5
5
5
5
5
5
5
5
5
5
5
5
5
5
5
5
5
5
5
5
5
5
5
5
5
5
5
5
5
5
5
5
5
5
5
5
5
5
5
5
5
5
5
5
5
5
5
5
5
5
5
5
5
5
5
5
5
5
5
5
5
5
5
5
5
5
5
5
5
5
5
5
5
5
5
5
5
5
5
5
5
5
5
5
5
5
5
5
5
5
5
5
5
5
5
5
5
5
5
5
5
5
5
5
5
5
5
5
5
5
5
5
5
5
5
5
5
5
5
5
5
5
5
5
5
5
5
5
5
5
5
5
5
5
5
5
5
5
5
5
5
5
5
5
5
5
5
5
5
5
5
5
5
5
5
5
5
5
5
5
5
5
5
5
5
5
5
5
5
5
5
5
5
5
5
5
5
5
5
5
5
5
5
5
5
5
5
5
5
5
5
5
5
5
5
5
5
5
5
5
5
5
5
5
5
5
5
5
5
5
5
5
5
5
5
5
5
5
5
5
5
5
5
5
5
5
5
5
5
5
5
5
5
5
5
5
5
5
5
5
5
5
5
5
5
5
5
5
5
5
5
5
5
5
5
5
5
5
5
5
5
5
5
5
5
5
5
5
5
5
5
5
5
5
5
5
5
5
5
5
5
5
5
5
5
5
5
5
5
5
5
5
5
5
5
5
5
5
5
5
5
5
5
5
5
5
5
5
5
5
5
5
5
5
5
5
5
5
5
5
5
5
5
5
5
5
5
5
5
5
5
5
5
5
5
5
5
5
5
5
5
5
5
5
5
5
5
5
5
5
5
5
5
5
5
5
5
5
5
5
5
5
5
5
5
5
5
5
5
5
5
5
5
5
5
5
5
5
5
5
5
5
5
5
5
5
5
5
5
5
5
5
5
5
5
5
5
5
5
5
5
5
5
5
5
5
5
5
5
5
5
5
5
5
5
5
5
5
5
5
5
5
5
5
5
5
5
5
5
5
5
5
5
5
5
5
5
5
5
5
5
5
5
5
5
5
5
5
5
5
5
5
5
5
5
5
5
5
5
5
5
5
5
5
5
5
5
5
5
5
5
5
5
5
5
5
5
5
5
5
5
5
5
5
5
5
5
5
5
5
5
5
5
5
5
5
5
5
5
5
5
5
5
5
5
5
5
5
5
5
5
5
5
5
5
5
5
5
5
5
5
5
5
5
5
5
5
5
5
5
5
5
5
5
5
5
5
5
5
5
5
5
5
5
5
5
5
5
5
5
5
5
5
5
5
5
5
5
5
5
5
5
5
5
5
5
5
5
5
5
5
5
5
5
5
5
5
5
5
5
5
5
5
5
5
5
5
5
5
5
5
5
5
5
5
5
5
5
5
5
5
5
5
5
5
5
5
5
5
5
5
5
5
5
5
5
5
5
5
5
5
5
5
5
5
5
5
5
5
5
5
5
5
5
5
5
5
5
5
5
5
5
5
5
5
5
5
5
5
5
5
5
5
5
5
5
5
5
5
5
5
5
5
5
5
5
5
5
5
5
5
5
5
5
5
5
5
5
5
5
5
5
5
5
5
5
5
5
5
5
5
5
5
5
5
5
5
5
5
5
5
5
5
5
5
5
5
5
5
5
5
5
5
5
5
5
5
5
5
5
5
5
5
5
5
5
5
5
5
5
5
5
5
5
5
5
5
5
5
5
5
5
5
5
5
5
5
5
5
5
5
5
5
5
5
5
5
5
5
5
5
5
5
5
5
5
5
5
5
5
5
5
5
5
5
5
5
5
5
5
5
5
5
5
5
5
5
5
5
5
5
5
5
5
5
5
5
5
5
5
5
5
5
5
5
5
5
5
5
5
5
5
5
5
5
5
5
5
5
5
5
5
5
5
5
5
5
5
5
5
5
5
5
5
5
5
5
5
5
5
5
5
5
5
5
5
5
5
5
5
5
5
5
5
5
5
5
5
5
5
5
5
5
5
5
5
5
5
5
5
5
5
5
5
5
5
5
5
5
5
5
5
5
5
5
5
5
5
5
5
5
5
5
5
5
5
5
5
5
5
5
5
5
5
5
5
5
5
5
5
5
5
5
5
5
5
5
5
5
5
5
5
5
5
5
5
5
5
5
5
5
5
5
5
5
5
5
5
5
5
5
5
5
5
5
5
5
5
5
5
5
5
5
5
5
5
5
5
5
5
5
5
5
5
5
5
5
5
5
5
5
5
5
5
5
5
5
5
5
5
5
5
5
5
5
5
5
5
5
5
5
5
5
5
5
5
5
5
5
5
5
5
5
5
5
5
5
5
5
5
5
5
5
5
5
5
5
5
5
5
5
5
5
5
5
5
5
5
5
5
5
5
5
5
5
5
5
5
5
5
5
5
5
5
5
5
5
5
5
5
5
5
5
5
5
5
5
5
5
5
5
5
5
5
5
5
5
5
5
5
5
5
5
5
5
5
5
5
5
5
5
5
5
5
5
5
5
5
5
5
5
5
5
5
5
5
5
5
5
5
5
5
5
5
5
5
5
5
5
5
5
5
5
5
5
5
5
5
5
5
5
5
5
5
5
5
5
5
5
5
5
5
5
5
5
5
5
5
5
5
5
5
5
5
5
5
5
5
5
5
5
5
5
5
5
5
5
5
5
5
5
5
5
5
5
5
5
5
5
5
5
5
5
5
5
5
5
5
5
5
5
5
5
5
5
5
5
5
5
5
5
5
5
5
5
5
5
5
5
5
5
5
5
5
5
5
5
5
5
5
5
5
5
5
5
5
5
5
5
5
5
5
5
5
5
5
5
5
5
5
5
5
5
5
5
5
5
5
5
5
5
5
5
5
5
5
5
5
5
5
5
5
5
5
5
5
5
5
5
5
5
5
5
5
5
5
5
5
5
5
5
5
5
5
5
5
5
5
5
5
5
5
5
5
5
5
5
5
5
5
5
5
5
5
5
5
5
5
5
5
5
5
5
5
5
5
5
5
5
5
5
5
5
5
5
5
5
5
5
5
5
5
5
5
5
5
5
5
5
5
5
5
5
5
5
5
5
5
5
5
5
5
5
5
5
5
5
5
5
5
5
5
5
5
5
5
5
5
5
5
5
5
5
5
5
5
5
5
5
5
5
5
5
5
5
5
5
5
5
5
5
5
5
5
5
5
5
5
5
5
5
5
5
5
5
5
5
5
5
5
5
5
5
5
5
5
5
5
5
5
5
5
5
5
5
5
5
5
5
5
5
5
5
5
5
5
5
5
5
5
5
5
5
5
5
5
5
5
5
5
5
5
5
5
5
5
5
5
5
5
5
5
5
5
5
5
5
5
5
5
5
5
5
5
5
5
5
5
5
5
5
5
5
5
5
5
5
5
5
5
5
5
5
5
5
5
5
5
5
5
5
5
5
5
5
5
5
5
5
5
5
5
5
5
5
5
5
5
5
5
5
5
5
5
5
5
5
5
5
5
5
5
5
5
5
5
5
5
5
5
5
5
5
5
5
5
5
5
5
5
5
5
5
5
5
5
5
5
5
5
5
5
5
5
5
5
5
5
5
5
5
5
5
5
5
5
5
5
5
5
5
5
5
5
5
5
5
5
5
5
5
5
5
5
5
5
5
5
5
5
5
5
5
5
5
5
5
5
5
5
5
5
5
5
5
5
5
5
5
5
5
5
5
5
5
5
5
5
5
5
5
5
5
5
5
5
5
5
5
5
5
5
5
5
5
5
5
5
5
5
5
5
5
5
5
5
5
5
5
5
5
5
5
5
5
5
5
5
5
5
5
5
5
5
5
5
5
5
5
5
5
5
5
5
5
5
5
5
5
5
5
5
5
5
5
5
5
5
5
5
5
5
5
5
5
5
5
5
5
5
5
5
5
5
5
5
5
5
5
5
5
5
5
5
5
5
5
5
5
5
5
5
5
5
5
5
5
5
5
5
5
5
5
5
5
5
5
5
5
5
5
5
5
5
5
5
5
5
5
5
5
5
5
5
5
5
5
5
5
5
5
5
5
5
5
5
5
5
5
5
5
5
5
5
5
5
5
5
5
5
5
5
5
5
5
5
5
5
5
5
5
5
5
5
5
5
5
5
5
5
5
5
5
5
5
5
5
5
5
5
5
5
5
5
5
5
5
5
5
5
5
5
5
5
5
5
5
5
5
5
5
5
5
5
5
5
5
5
5
5
5
5
5
5
5
5
5
5
5
5
5
5
5
5
5
5
5
5
5
5
5
5
5
5
5
5
5
5
5
5
5
5
5
5
5
5
5
5
5
5
5
5
5
5
5
5
5
5
5
5
5
5
5
5
5
5
5
5
5
5
5
5
5
5
5
5
5
5
5
5
5
5
5
5
5
5
5
5
5
5
5
5
5
5
5
5
5
5
5
5
5
5
5
5
5
5
5
5
5
5
5
5
5
5
5
5
5
5
5
5
5
5
5
5
5
5
5
5
5
5
5
5
5
5
5
5
5
5
5
5
5
5
5
5
5
5
5
5
5
5
5
5
5
5
5
5
5
5
5
5
5
5
5
5
5
5
5
5
5
5
5
5
5
5
5
5
5
5
5
5
5
5
5
5
5
5
5
5
5
5
5
5
5
5
5
5
5
5
5
5
5
5
5
5
5
5
5
5
5
5
5
5
5
5
5
5
5
5
5
5
5
5
5
5
5
5
5
5
5
5
5
5
5
5
5
5
5
5
5
5
5
5
5
5
5
5
5
5
5
5
5
5
5
5
5
5
5
5
5
5
5
5
5
5
5
5
5
5
5
5
5
5
5
5
5
5
5
5
5
5
5
5
5
5
5
5
5
5
5
5
5
5
5
5
5
5
5
5
5
5
5
5
5
5
5
5
5
5
5
5
5
5
5
5
5
5
5
5
5
5
5
5
5
5
5
5
5
5
5
5
5
5
5
5
5
5
5
5
5
5
5
5
5
5
5
5
5
5
5
5
5
5
5
5
5
5
5
5
5
5
5
5
5
5
5
5
5
5
5
5
5
5
5
5
5
5
5
5
5
5
5
5
5
5
5
5
5
5
5
5
5
5
5
5
5
5
5
5
5
5
5
5
5
5
5
5
5
5
5
5
5
5
5
5
5
5
5
5
5
5
5
5
5
5
5
5
5
5
5
5
5
5
5
5
5
5
5
5
5
5
5
5
5
5
5
5
5
5
5
5
5
5
5
5
5
5
5
5
5
5
5
5
5
5
5
5
5
5
5
5
5
5
5
5
5
5
5
5
5
5
5
5
5
5
5
5
5
5
5
5
5
5
5
5
5
5
5
5
5
5
5
5
5
5
5
5
5
5
5
5
5
5
5
5
5
5
5
5
5
5
5
5
5
5
5
5
5
5
5
5
5
5
5
5
5
5
5
5
5
5
5
5
5
5
5
5
5
5
5
5
5
5
5
5
5
5
5
5
5
5
5
5
5
5
5
5
5
5
5
5
5
5
5
5
5
5
5
5
5
5
5
5
5
5
5
5
5
5
5
5
5
5
5
5
5
5
5
5
5
5
5
5
5
5
5
5
5
5
5
5
5
5
5
5
5
5
5
5
5
5
5
5
5
5
5
5
5
5
5
5
5
5
5
5
5
5
5
5
5
5
5
5
5
5
5
5
5
5
5
5
5
5
5
5
5
5
5
5
5
5
5
5
5
5
5
5
5
5
5
5
5
5
5
5
5
5
5
5
5
5
5
5
5
5
5
5
5
5
5
5
5
5
5
5
5
5
5
5
5
5
5
5
5
5
5
5
5
5
5
5
5
5
5
5
5
5
5
5
5
5
5
5
5
5
5
5
5
5
5
5
5
5
5
5
5
5
5
5
5
5
5
5
5
5
5
5
5
5
5
5
5
5
5
5
5
5
5
5
5
5
5
5
5
5
5
5
5
5
5
5
5
5
5
5
5
5
5
5
5
5
5
5
5
5
5
5
5
5
5
5
5
5
5
5
5
5
5
5
5
5
5
5
5
5
5
5
5
5
5
5
5
5
5
5
5
5
5
5
5
5
5
5
5
5
5
5
5
5
5
5
5
5
5
5
5
5
5
5
5
5
5
5
5
5
5
5
5
5
5
5
5
5
5
5
5
5
5
5
5
5
5
5
5
5
5
5
5
5
5
5
5
5
5
5
5
5
5
5
5
5
5
5
5
5
5
5
5
5
5
5
5
5
5
5
5
5
5
5
5
5
5
5
5
5
5
5
5
5
5
5
5
5
5
5
5
5
5
5
5
5
5
5
5
5
5
5
5
5
5
5
5
5
5
5
5
5
5
5
5
5
5
5
5
5
5
5
5
5
5
5
5
5
5
5
5
5
5
5
5
5
5
5
5
5
5
5
5
5
5
5
5
5
5
5
5
5
5
5
5
5
5
5
5
5
5
5
5
5
5
5
5
5
5
5
5
5
5
5
5
5
5
5
5
5
5
5
5
5
5
5
5
5
5
5
5
5
5
5
5
5
5
5
5
5
5
5
5
5
5
5
5
5
5
5
5
5
5
5
5
5
5
5
5
5
5
5
5
5
5
5
5
5
5
5
5
5
5
5
5
5
5
5
5
5
5
5
5
5
5
5
5
5
5
5
5
5
5
5
5
5
5
5
5
5
5
5
5
5
5
5
5
5
5
5
5
5
5
5
5
5
5
5
5
5
5
5
5
5
5
5
5
5
5
5
5
5
5
5
5
5
5
5
5
5
5
5
5
5
5
5
5
5
5
5
5
5
5
5
5
5
5
5
5
5
5
5
5
5
5
5
5
5
5
5
5
5
5
5
5
5
5
5
5
5
5
5
5
5
5
5
5
5
5
5
5
5
5
5
5
5
5
5
5
5
5
5
5
5
5
5
5
5
5
5
5
5
5
5
5
5
5
5
5
5
5
5
5
5
5
5
5
5
5
5
5
5
5
5
5
5
5
5
5
5
5
5
5
5
5
5
5
5
5
5
5
5
5
5
5
5
5
5
5
5
5
5
5
5
5
5
5
5
5
5
5
5
5
5
5
5
5
5
5
5
5
5
5
5
5
5
5
5
5
5
5
5
5
5
5
5
5
5
5
5
5
5
5
5
5
5
5
5
5
5
5
5
5
5
5
5
5
5
5
5
5
5
5
5
5
5
5
5
5
5
5
5
5
5
5
5
5
5
5
5
5
5
5
5
5
5
5
5
5
5
5
5
5
5
5
5
5
5
5
5
5
5
5
5
5
5
5
5
5
5
5
5
5
5
5
5
5
5
5
5
5
5
5
5
5
5
5
5
5
5
5
5
5
5
5
5
5
5
5
5
5
5
5
5
5
5
5
5
5
5
5
5
5
5
5
5
5
5
5
5
5
5
5
5
5
5
5
5
5
5
5
5
5
5
5
5
5
5
5
5
5
5
5
5
5
5
5
5
5
5
5
5
5
5
5
5
5
5
5
5
5
5
5
5
5
5
5
5
5
5
5
5
5
5
5
5
5
5
5
5
5
5
5
5
5
5
5
5
5
5
5
5
5
5
5
5
5
5
5
5
5
5
5
5
5
5
5
5
5
5
5
5
5
5
5
5
5
5
5
5
5
5
5
5
5
5
5
5
5
5
5
5
5
5
5
5
5
5
5
5
5
5
5
5
5
5
5
5
5
5
5
5
5
5
5
5
5
5
5
5
5
5
5
5
5
5
5
5
5
5
5
5
5
5
5
5
5
5
5
5
5
5
5
5
5
5
5
5
5
5
5
5
5
5
5
5
5
5
5
5
5
5
5
5
5
5
5
5
5
5
5
5
5
5
5
5
5
5
5
5
5
5
5
5
5
5
5
5
5
5
5
5
5
5
5
5
5
5
5
5
5
5
5
5
5
5
5
5
5
5
5
5
5
5
5
5
5
5
5
5
5
5
5
5
5
5
5
5
5
5
5
5
5
5
5
5
5
5
5
5
5
5
5
5
5
5
5
5
5
5
5
5
5
5
5
5
5
5
5
5
5
5
5
5
5
5
5
5
5
5
5
5
5
5
5
5
5
5
5
5
5
5
5
5
5
5
5
5
5
5
5
5
5
5
5
5
5
5
5
5
5
5
5
5
5
5
5
5
5
5
5
5
5
5
POINT_DATA 2538
VECTORS disp float
1.52271202339144e-11 3.555040247156817e-11 0.0
2.853353998562771e-11 -7.624506322903572e-11 0.0
0.003299999991840781 2.078576679202535e-11 0.0
0.003299999968102525 -8.668933472759005e-11 0.0
0.0011370935650816614 0.0004598396602159345 0.0
0.002387991408249308 0.0001965588928992434 0.0
0.0016296677779658875 8.045756493433e-5 0.0
2.9870584787047476e-12 6.34744515657139e-13 0.0
6.357545307561185e-12 6.688619189600641e-12 0.0
5.4244103743697874e-12 3.3825888896762163e-12 0.0
5.033873296015949e-12 3.1034916227424034e-12 0.0
4.3767250307374564e-12 2.1046004106532696e-12 0.0
3.944592019856206e-12 1.2783475019487724e-12 0.0
3.5253844780332885e-12 5.425602143730757e-13 0.0
3.2139883641441273e-12 -2.8568800800643445e-13 0.0
2.6942954291217987e-12 -1.2007273211278473e-12 0.0
2.924706519931137e-12 -2.101680823523202e-12 0.0
2.8400687902386506e-12 -3.1822095176722204e-12 0.0
2.947398961577033e-12 -4.355133043355715e-12 0.0
3.152325259149692e-12 -5.53761295985043e-12 0.0
3.2016295093978216e-12 -6.593151673309765e-12 0.0
3.5245162717409042e-12 -7.879759867844484e-12 0.0
3.5869975857926174e-12 -8.872307061463222e-12 0.0
3.856183947787016e-12 -1.0111054170384957e-11 0.0
4.041672059887229e-12 -1.1444599200484276e-11 0.0
4.251908408905927e-12 -1.2711637865899546e-11 0.0
4.543660535269459e-12 -1.4260631892192358e-11 0.0
4.923980827472671e-12 -1.601679561195403e-11 0.0
5.5355876797850526e-12 -1.8247844525012912e-11 0.0
5.657211956672076e-12 -2.062574272770222e-11 0.0
7.988094735297202e-12 -2.6699508442935132e-11 0.0
3.7739493353945775e-12 -2.3606300075528453e-11 0.0
4.267699873125441e-5 -5.16950668935629e-5 0.0
7.431384259666698e-5 -8.829564590542025e-5 0.0
0.00010487615123320591 -0.00012002356739845481 0.0
0.00013394955514021086 -0.00014871743020368169 0.0
0.0001619565646926424 -0.00017533714330327232 0.0
0.00018945783409258273 -0.00020063912635154006 0.0
0.0002169174013330117 -0.00022468842939625443 0.0
0.00024407842452742504 -0.00024771022030552984 0.0
0.00027119522725447447 -0.0002699327810470959 0.0
0.0002983498188327388 -0.00029134009620473115 0.0
0.00032555146848616136 -0.0003121358433162847 0.0
0.0003530321577701516 -0.0003323054008903178 0.0
0.0003805875317388999 -0.0003518518827808839 0.0
0.00040834862207020703 -0.000370937734247753 0.0
0.0004364929662793188 -0.0003894948502006714 0.0
0.00046472157391244266 -0.00040751677613967257 0.0
0.0004932420014560062 -0.0004251192823729847 0.0
0.0005220540011741243 -0.0004421961838033515 0.0
0.0005511280850638981 -0.000458856991299148 0.0
0.0005804837066628291 -0.0004750921181624185 0.0
0.0006101575245478745 -0.0004908997980960734 0.0
0.0006400849759900727 -0.0005062729834421704 0.0
0.0006704546012494363 -0.0005212732489625421 0.0
0.0007009583101770785 -0.0005358246783976303 0.0
0.0007319570125691067 -0.0005499905777362306 0.0
0.0007630632988216114 -0.0005637030534944653 0.0
0.0007945474167676546 -0.0005770415656381699 0.0
0.0008262645853807288 -0.0005899163711082436 0.0
0.0008584149110765098 -0.0006024281674185147 0.0
0.0008906521824674636 -0.0006145181102031529 0.0
0.0009233330098021818 -0.0006262281741227008 0.0
0.0009562339944223882 -0.0006374782761982515 0.0
0.000989450765562412 -0.0006483489263489011 0.0
0.0010228500292666625 -0.0006587795027821837 0.0
0.0010566431298917398 -0.0006688232075570884 0.0
0.0010905074148263628 -0.0006783919972860587 0.0
0.0011246909273411843 -0.0006875428495126435 0.0
0.0011590152039563763 -0.0006961676721361988 0.0
0.0011935659409354172 -0.0007042884434926816 0.0
0.0012283063100476173 -0.0007120254269410525 0.0
0.0012631829575984687 -0.0007192004512380759 0.0
0.0012983376402406802 -0.0007259770191696858 0.0
0.0013336875100419588 -0.0007322337772233198 0.0
0.0013691529591435773 -0.0007380950208095869 0.0
0.001404828177934211 -0.0007433864450124674 0.0
0.0014404885769170744 -0.00074825750599791 0.0
0.0014763693398085684 -0.0007526717993294451 0.0
0.0015122743823797458 -0.0007565706814430406 0.0
0.0015482665133403574 -0.000760073297302563 0.0
0.0015844172354037656 -0.0007630559417789498 0.0
0.0016203031516152193 -0.000765450376127523 0.0
0.0016565335975221764 -0.0007674641470288108 0.0
0.0016921889274224837 -0.0007688791619495544 0.0
0.0017282958863468647 -0.0007698448237993164 0.0
0.0017634007522754267 -0.0007702112233684413 0.0
0.00179906293017525 -0.0007701564381649624 0.0
0.001833390505194662 -0.0007693939148289501 0.0
0.0018673937987035531 -0.0007675655389620923 0.0
0.0019014455470016624 -0.0007653329955435352 0.0
0.0019354385550555578 -0.0007621473808162129 0.0
0.001968862489778982 -0.0007587198776768436 0.0
0.0020020712379000523 -0.0007543862837665554 0.0
0.002035540917786356 -0.0007494980052547164 0.0
0.0020683590581518966 -0.000743088311559372 0.0
0.0021018000369825668 -0.0007358655880180324 0.0
0.0021357481505171086 -0.0007278125255384653 0.0
0.0021689486669662786 -0.0007187194014999579 0.0
0.0022024705892841807 -0.0007089080518562003 0.0
0.002236416261751217 -0.000698206521180783 0.0
0.0022705452631924077 -0.0006867957782595049 0.0
0.0023044333142545506 -0.0006747271528227256 0.0
0.0023387020832041174 -0.0006618204268784418 0.0
0.0023726596505776842 -0.0006482906529146833 0.0
0.00240662817425761 -0.0006343329373612139 0.0
0.0024408201643237853 -0.0006196523034791913 0.0
0.0024747085449868095 -0.0006045134055893166 0.0
0.0025086178859990886 -0.0005888244141426832 0.0
0.00254236537851929 -0.0005726403947186897 0.0
0.002576186510469142 -0.0005559385713277458 0.0
0.002609901626941892 -0.0005386686229393106 0.0
0.0026434772855748155 -0.00052087452382872 0.0
0.0026767351953845787 -0.0005025825359632269 0.0
0.0027099301129573424 -0.00048378279544352543 0.0
0.002743076189706748 -0.0004643814969215985 0.0
0.002775981981984404 -0.00044443476707543714 0.0
0.0028088341099736023 -0.0004239764284586666 0.0
0.002841771151904468 -0.0004028093739219557 0.0
0.0028745192240866935 -0.0003809700695965964 0.0
0.0029071340862847975 -0.0003585091689689598 0.0
0.002939927410831794 -0.00033526590480294655 0.0
0.0029728979549840592 -0.00031109929559367016 0.0
0.003005848303031356 -0.0002859705380577453 0.0
0.0030388634493980432 -0.0002598560887469406 0.0
0.0030722089682655683 -0.00023248179946012374 0.0
0.0031063087050281135 -0.0002035039613846749 0.0
0.0031407283317168113 -0.000172709390636614 0.0
0.003175854497878925 -0.00013937411618326047 0.0
0.0032131893185006694 -0.00010220387899908651 0.0
0.003251602223582827 -5.93322305257811e-5 0.0
0.0032999999955396877 -2.3354300968439337e-11 0.0
0.003299999990739664 -2.5987554277734178e-11 0.0
0.0032999999939339586 -1.6374935117955994e-11 0.0
0.00329999999394667 -1.4253320792580051e-11 0.0
0.003299999994454724 -1.1685263021670414e-11 0.0
0.0032999999947032612 -9.898598923387483e-12 0.0
0.0032999999948066937 -8.592123159434902e-12 0.0
0.0032999999950057302 -7.438014824149202e-12 0.0
0.003299999995074513 -6.393624194806075e-12 0.0
0.0032999999952385323 -5.4101000810490104e-12 0.0
0.0032999999954336826 -4.6255445924573434e-12 0.0
0.003299999995538785 -3.624160650079872e-12 0.0
0.0032999999956642738 -2.8761432783712333e-12 0.0
0.0032999999957995813 -1.9829621832184634e-12 0.0
0.0032999999958787498 -1.1209270637092897e-12 0.0
0.0032999999959128254 -1.6791942136229325e-13 0.0
0.0032999999959740386 8.007612412785364e-13 0.0
0.003299999995616564 1.9395752714786548e-12 0.0
0.003299999995946117 2.873015521955552e-12 0.0
0.003299999995317156 4.099381109814245e-12 0.0
0.0032999999953485103 4.9210492574465585e-12 0.0
0.0032999999951478075 5.798942884268746e-12 0.0
0.0032999999953220497 6.020760733652131e-12 0.0
0.0032999999954245723 7.793922359548675e-12 0.0
0.003299999997620698 3.4686413208196675e-12 0.0
0.0030518564534068346 0.00014099036336419785 0.0
0.00284281998759564 0.00020438815357891828 0.0
0.002656371577324878 0.00021816639740304423 0.0
0.002495027874623787 0.0002084914363632993 0.0
0.0023869628508237247 9.70671200022486e-5 0.0
0.0023756982725732507 4.242047332792164e-5 0.0
0.0023381387600952606 1.6247461703184655e-5 0.0
0.002289063430792595 1.5203660194049956e-5 0.0
0.0022313061341095153 2.630949428396647e-5 0.0
0.002170678814208357 3.889636883341169e-5 0.0
0.002108231690658449 5.065627146795132e-5 0.0
0.00204485344898633 6.24736151452753e-5 0.0
0.0019792587091687157 7.205071379767214e-5 0.0
0.0019108803835909997 7.89624587638151e-5 0.0
0.0018361984421540463 8.316818090299364e-5 0.0
0.001748080206618999 8.538280059340458e-5 0.0
0.0015259673398674888 0.00011887610716246669 0.0
0.0014526793622013025 0.00013354238652795372 0.0
0.0013922545757758308 0.0001416403432756542 0.0
0.0013396762959656072 0.00014793933763516105 0.0
0.0012920952447340655 0.00015382811801394161 0.0
0.0012491759651887578 0.00016019136152475868 0.0
0.001210667170302783 0.00016821718570054453 0.0
0.0011779822841601732 0.00017911026673501454 0.0
0.001152670049559869 0.0001971790373072548 0.0
0.0011353147744758844 0.00022424113297943733 0.0
0.0011331556088169437 0.0002746655865074343 0.0
0.0011329679622010477 0.00034639288740572746 0.0
0.001014245331920992 0.00047349215908854697 0.0
0.0008387352410173829 0.00045482558532056655 0.0
0.0005906903551355727 0.0003729109120698111 0.0
0.00031475942759220336 0.00024209368733096732 0.0
0.0008640239824185458 -0.00057740292725962 0.0
0.0022978701497275993 -0.0006398863028882178 0.0
0.001100065417969159 -0.0006557184179892616 0.0
0.0020569355606478434 -0.0007136087181441442 0.0
0.0013501198728862183 -0.0007096680252733231 0.0
0.0018126870859170327 -0.0007390976074825878 0.0
0.0015650729638850653 -0.0007340283187245574 0.0
0.0025050470385306416 -0.0005593255924552482 0.0
0.000680448107749496 -0.0005041550479595988 0.0
0.002665274296738395 -0.0004774949953798993 0.0
0.0005305093192057739 -0.00042784174611870825 0.0
5.401852034023402e-5 -9.660457392656157e-6 0.0
0.003241925972762576 -7.563479734409621e-6 0.0
0.001761162353297031 0.00010378501265885602 0.0
0.0020149166275663004 8.651925351607585e-5 0.0
0.0014983730163745728 0.00011997012868949108 0.0
0.001296437094389194 0.00016366393492850916 0.0
0.00283390694259621 -0.00038270658786955514 0.0
0.00039357118958906185 -0.0003451451847613116 0.0
3.908191570377112e-5 -1.688599236998331e-5 0.0
0.0032583553735324048 -1.2758768484262868e-5 0.0
0.003218370339108077 2.8239190648754597e-6 0.0
7.162003870468977e-5 2.3891042739718033e-6 0.0
0.0029658972137192067 -0.00029240552125769714 0.0
0.0002791740306259745 -0.0002598222675283723 0.0
0.002194811726277114 5.973490859307225e-5 0.0
0.001164361284875924 0.00018500505296264015 0.0
2.997849818524073e-5 -1.783447386214136e-5 0.0
0.0032668291171852716 -1.4623658232134275e-5 0.0
0.0012444615044384006 -0.000689419087592797 0.0
0.0014562956771808318 -0.0007241493958396771 0.0
0.0019544313763019865 -0.0007290830828394735 0.0
0.001676391203002908 -0.0007378968824985673 0.0
0.0021591991492482844 -0.0006874673782017436 0.0
0.0023944346814957114 -0.0006072390081509696 0.0
0.0010059661924903566 -0.0006282186327877468 0.0
0.0007727109166222235 -0.0005459641798985407 0.0
0.0030612426695375014 -0.00021997619996371213 0.0
0.00019592692033083546 -0.00019246436231459848 0.0
0.0031958732092824365 1.9461883820978086e-5 0.0
9.224183983563708e-5 1.4273341039604396e-5 0.0
0.0032725193968576134 -1.7353658808612713e-5 0.0
2.8229294521248908e-5 -2.153893488463011e-5 0.0
0.0023110229215200047 4.103724577265159e-5 0.0
0.001097034435424996 0.0002161357174840882 0.0
0.0031528363704841464 3.568969500715795e-5 0.0
0.00013292369216088906 2.8791552182483612e-5 0.0
4.634499533024488e-5 -1.446013477302849e-5 0.0
0.0032498899543196543 -1.1101745864135676e-5 0.0
0.0018879480427921999 9.992091972026634e-5 0.0
0.001395980949581272 0.0001508756203799563 0.0
0.00010924916761547422 -0.00011104965328352881 0.0
0.0031725364801290248 -0.00012402165613850536 0.0
0.002225077663668673 -0.0006699667545338323 0.0
0.0017452161653094896 -0.0007407608868280386 0.0
0.0011766286050701794 -0.0006741227318761199 0.0
0.0009334732473022683 -0.0006063638308989402 0.0
0.0018862796279039667 -0.0007351366725646757 0.0
0.002567181594357095 -0.0005299933714521778 0.0
0.0006202623626367446 -0.0004742278961575693 0.0
0.0027350585666429525 -0.0004414522174057261 0.0
0.0004696462670673576 -0.00039139631952464206 0.0
0.0003332827023983012 -0.0003015434980771188 0.0
0.0028999685402786384 -0.0003385710356236479 0.0
0.0006964684882088988 0.000241802281677397 0.0
0.0027305907040825893 0.00013696509211481785 0.0
0.003272881583580614 -2.212569648970785e-5 0.0
2.4611177738788465e-5 -2.2142794932225547e-5 0.0
0.001069465785218853 0.0002972477300304819 0.0
0.00240867768817174 7.50622698073408e-5 0.0
0.0001561023496961589 4.577854255358156e-5 0.0
0.003148717756526778 4.225428762852322e-5 0.0
4.796682543237634e-5 -4.964718376029697e-5 0.0
0.0032436042593675255 -5.606221013595648e-5 0.0
0.0025647191003607306 0.00013757535770182516 0.0
0.0026065340591272792 0.00011892720672166142 0.0
0.002811655144928731 0.00010494149641841353 0.0
0.0026902070041106927 0.00011267005571329039 0.0
0.002530234925013823 0.00011071772111935216 0.0
0.002585482111892046 0.00011997874918129278 0.0
0.0027401744517210024 0.00011015364690371961 0.0
0.0026430623232852834 0.00012004937209744661 0.0
0.002789696833897032 0.00010281631479652862 0.0
0.0027009934615137665 0.00011068899500814087 0.0
0.0025637231706307118 0.00012546588243851392 0.0
0.0026176368729078064 0.00011388233279117551 0.0
0.002500011957808939 0.00012599647409174014 0.0
0.002544228370732969 0.00011220393042550046 0.0
0.002437858859267184 0.00012290069151464525 0.0
0.0024780052119304586 0.00010569538447395099 0.0
0.0017204228915582904 6.684208712409262e-5 0.0
0.001623054273214087 5.108847558726147e-5 0.0
0.0016969504098623244 4.350984171252084e-5 0.0
0.001617949433221418 3.213779616762489e-5 0.0
0.0016828642473597057 2.5726907363827673e-5 0.0
0.0016147766959602786 1.6979986069080438e-5 0.0
0.0016735738805750148 1.0881214516341246e-5 0.0
0.001611814861349205 3.1947368911454125e-6 0.0
0.0016666741287463716 -2.527045548758414e-6 0.0
0.0016092338446434251 -9.60870128314867e-6 0.0
0.0016613227396942935 -1.4959617724149471e-5 0.0
0.0016070455300505706 -2.169297621810254e-5 0.0
0.0016570411549036979 -2.7143924937403077e-5 0.0
0.0016065218550180972 -3.3512535412006946e-5 0.0
0.0016535636835841873 -3.8942291897323553e-5 0.0
0.0016047999351094036 -4.5181226375048955e-5 0.0
0.0016503532645494132 -5.0525493468556736e-5 0.0
0.0016016062782541112 -5.671473031576466e-5 0.0
0.0016471904883824469 -6.206114489771475e-5 0.0
0.001599621292860374 -6.814929733231383e-5 0.0
0.0016444404724012904 -7.360939306982073e-5 0.0
0.0015978662086766743 -7.962698584576569e-5 0.0
0.0016404169356021782 -8.513944495916574e-5 0.0
0.0015958608113336215 -9.121027188234643e-5 0.0
0.0016377127076263318 -9.67889461972878e-5 0.0
0.0015947137328057436 -0.00010261739077408221 0.0
0.0016352849026399113 -0.00010855275834254496 0.0
0.0015907751733165733 -0.00011371719744245321 0.0
0.001632393627599728 -0.00012043037618681004 0.0
0.0015785403352053446 -0.00012585907480545608 0.0
0.0016323557208021988 -0.00013270629434805446 0.0
0.0015867630134866041 -0.0001388471717433842 0.0
0.0016296579376333092 -0.00014508364206576777 0.0
0.001586439352930768 -0.00015151810442777283 0.0
0.0016276571000594382 -0.00015782069824906946 0.0
0.0015873163611540117 -0.0001643232475084095 0.0
0.001625477411532008 -0.0001707825155349931 0.0
0.0015861435949727054 -0.00017761797211541462 0.0
0.0015577107107409844 -2.420595274855391e-6 0.0
0.0016232592884966696 -0.0001841113659928687 0.0
0.0015539072447609524 -6.205095987582e-5 0.0
0.0015377005226447692 -0.00013587627240259438 0.0
0.0015818007110084916 -0.00019107591365994037 0.0
0.0016207288002003171 -0.00019778106805384902 0.0
0.0015774972362372125 -0.00020537007717378743 0.0
0.00153929055096409 -0.00019733599306102274 0.0
0.001533905780881193 -0.00021230548933431721 0.0
0.0016165560970115398 -0.0002126505238893363 0.0
0.0016603658540119543 -0.00020452507425846675 0.0
0.0016712001795675425 -0.00013817534411379826 0.0
0.00165644936404101 -0.0002198354428999582 0.0
0.0017029890664416192 -0.00021020562863025114 0.0
0.001697521543436245 -0.00022695831817994404 0.0
0.0014961316633677548 -0.00020386367767898393 0.0
0.001492314556248575 -0.00021850367605808738 0.0
0.0017455319502311722 -0.00021647833055804807 0.0
0.0014521320740533915 -0.00020958318314209023 0.0
0.0014507837073945546 -0.00022489490383947628 0.0
0.0017408503878027456 -0.00023344343050297678 0.0
0.0017873467635344704 -0.00022373795608949553 0.0
0.0014078314469933011 -0.00021534433350667902 0.0
0.0014054518233238725 -0.00023107358713975225 0.0
0.0017836667985133238 -0.00024060429113066282 0.0
0.0018314941821274465 -0.00023030538148001613 0.0
0.0013637275750565754 -0.00022102366162160363 0.0
0.001360932147232325 -0.0002376453171888796 0.0
0.0018276506432020694 -0.00024805702640192274 0.0
0.0018768012389002843 -0.0002367378529799564 0.0
0.0013200098323961152 -0.00022576411375425104 0.0
0.0013143334916080045 -0.00024284757248202248 0.0
0.0018735157417069006 -0.0002549460256645706 0.0
0.0019229723701973303 -0.00024297280344582562 0.0
0.0012720035839652746 -0.00023042811563637658 0.0
0.001267487714055085 -0.0002484140516131333 0.0
0.001222656988787158 -0.00023605837726322745 0.0
0.001227036885651596 -0.00021703707535299931 0.0
0.0018198298962750893 -0.0002655714834957899 0.0
0.0019194023329570278 -0.0002619115766024811 0.0
0.0019698830373169212 -0.0002490605558259943 0.0
0.0019742733003564232 -0.00022958394256850106 0.0
0.0016841055846110544 -7.945593564143834e-5 0.0
0.002023125151402499 -0.00023527108399986154 0.0
0.0020279447801642174 -0.0002150260793708669 0.0
0.0020784262667023837 -0.0002200152327669576 0.0
0.0012219655388590242 -0.00025542045562842395 0.0
0.0011751727754406435 -0.0002409500186452364 0.0
0.0012659877036924907 -0.0002677038310081898 0.0
0.0019647961044258174 -0.000269014481500254 0.0
0.0011751162785665443 -0.00026075727189738365 0.0
0.001127787506129006 -0.00024515515436351464 0.0
0.0017050884698427543 -3.15819957631565e-5 0.0
0.0011276641623114755 -0.00026448429213643456 0.0
0.0010803967063437543 -0.0002485912687267719 0.0
0.0010804983191863592 -0.0002683279658104924 0.0
0.0010338810086825594 -0.0002509634122133157 0.0
0.0010327728951659736 -0.00023172957142483404 0.0
0.0009834580776227218 -0.0002345695323369441 0.0
0.0009831199173119432 -0.00021426951298731417 0.0
0.0010284881252323789 -0.0002703519062762401 0.0
0.0009301462999990729 -0.00021724599217271494 0.0
0.0009294411169285166 -0.00019646259420784913 0.0
0.0010810863921857038 -0.00028916915811896517 0.0
0.0010368968964616111 -0.0002928319390663706 0.0
0.0008777096346739091 -0.00019777850330265274 0.0
0.0008752398257857008 -0.00017747741224885132 0.0
0.0020846805694787057 -0.00019947607027283968 0.0
0.0021372496860347957 -0.00020412369861635824 0.0
0.0010816664282873084 -0.00031025108171880695 0.0
0.0010380995538104482 -0.0003137310104052685 0.0
0.002144137680344202 -0.0001829064051188217 0.0
0.002199292754917167 -0.0001876448014933958 0.0
0.002189932537612472 -0.00021092579607626062 0.0
0.0022524472159164022 -0.00019312382030813396 0.0
0.0022439404070849485 -0.00021691591402819282 0.0
0.002306567458405424 -0.0001972367850465911 0.0
0.002301005263093964 -0.0002207490213983573 0.0
0.0023657908344702984 -0.00019855713218773434 0.0
0.002354709149214207 -0.00022262208639743558 0.0
0.0023713192797001708 -0.00017600843626936274 0.0
0.002420403407053805 -0.00020070553166611475 0.0
0.0024058082802760525 -0.00022467702196956102 0.0
0.001082839362739871 -0.00033171908420719933 0.0
0.0008207203776785134 -0.00017819974108628387 0.0
0.0008172012735869193 -0.000157518834292513 0.0
0.0023454581660573956 -0.0002472334643557294 0.0
0.0023943627036662365 -0.0002488542925178417 0.0
0.0024537217863148317 -0.00022588397395677915 0.0
0.002338206044786744 -0.0002722331494069309 0.0
0.001040359046405272 -0.00033529322794148797 0.0
0.0024421539822484656 -0.00024957887658288926 0.0
0.0025002478040440797 -0.00022596161587652835 0.0
0.0010839866644851918 -0.0003537824059319867 0.0
0.0010423649455266807 -0.000357474447978373 0.0
0.0009994069955381127 -0.0003382449175729037 0.0
0.002487934371956993 -0.00024922479258023114 0.0
0.0025454043650607466 -0.00022469384743812384 0.0
0.001085078285405659 -0.00037652150797444554 0.0
0.001126260524805247 -0.00037246052800803044 0.0
0.0010019414645728816 -0.0003605806660317718 0.0
0.0009593448840715444 -0.00034071068490628423 0.0
0.002530998362165394 -0.00024793289019310854 0.0
0.002589840835875123 -0.00022233108654241262 0.0
0.0026035953007688354 -0.00020002824210424276 0.0
0.002473363424487525 -0.0002735736251804036 0.0
0.0026483062868832346 -0.00019682304423652492 0.0
0.002663437989332985 -0.00017525643268604565 0.0
0.0007593565774240597 -0.00015804689568669686 0.0
0.0007588596047192191 -0.00013665668711430613 0.0
0.0008284611984379002 -0.00013736174747933045 0.0
0.0007563665264334709 -0.00011534313067263013 0.0
0.0008235614208082676 -0.00011270125330777419 0.0
0.00075328171006526 -9.265056245430863e-5 0.0
0.0008189879862185156 -8.864444738214053e-5 0.0
0.001127249319612862 -0.0003954567480125623 0.0
0.0011674406596336806 -0.0003909025131614702 0.0
0.0009621939036498638 -0.00036320648588828705 0.0
0.0009199626054067986 -0.0003426390466898997 0.0
0.002633511798332459 -0.00021904539350262194 0.0
0.0007573093604328006 -6.959726791739879e-5 0.0
0.0008198268328792535 -6.433640897515604e-5 0.0
0.001168464991775376 -0.00041396845612356905 0.0
0.001207715313450371 -0.00040923875888928776 0.0
0.001410785525187461 -0.0002462635007179043 0.0
0.0026916632914425333 -0.00019280810475079302 0.0
0.0017361296490900702 2.2220111813958958e-5 0.0
0.0018090282669074706 9.592969107768039e-5 0.0
0.001551187974339525 -9.680023301384659e-5 0.0
0.0022037941313383844 -0.0001659154036962681 0.0
0.0007523879220002034 -4.434231918951172e-5 0.0
0.0008257302876636061 -3.852073713408322e-5 0.0
0.0009232307371586626 -0.00036528451164801135 0.0
0.0008815719642003762 -0.00034418020311707576 0.0
0.0012093140860096783 -0.00043246752252202995 0.0
0.001248253564811496 -0.0004274507364415156 0.0
0.0026755661313280854 -0.0002147870032026835 0.0
0.000698694379220148 -0.00013718623757159323 0.0
0.000701251994363293 -0.00015858714283703448 0.0
0.0006791415513502237 -7.18499150901405e-5 0.0
0.002733660105892757 -0.00018797340879173993 0.0
0.000752717841368169 -1.954133710263308e-5 0.0
0.0008270229323784747 -1.1305772581885137e-5 0.0
0.0011706830604293658 -0.00043778754557053317 0.0
0.0008854308549928121 -0.0003671387867552111 0.0
0.0008439632628492265 -0.00034514336473704277 0.0
0.0021487584720336008 -0.00016162579026041802 0.0
0.002211024998696845 -0.00014390827667324586 0.0
0.0021526310765799775 -0.00013977253922425027 0.0
0.002218418715489576 -0.00012174533665501755 0.0
0.0012492990909098067 -0.00045061900096185893 0.0
0.0012885995937020436 -0.00044469695962674185 0.0
0.0013683394332781023 -0.000206108721632034 0.0
0.0007528919704680286 5.2945999309365e-6 0.0
0.0008258041111143049 1.5785266110942214e-5 0.0
0.002717862331240083 -0.00020939066498087687 0.0
0.002665343850069806 -0.00023445998533812662 0.0
0.0007373590383535541 3.2316198239678864e-5 0.0
0.0008221825721158679 4.414744234173998e-5 0.0
0.0027743137418728757 -0.00018280022125726354 0.0
0.0027835360561808465 -0.00016703637881476758 0.0
0.0007474581667931024 5.7937258090763094e-5 0.0
0.000925717696322263 -0.00039054947600769714 0.0
0.001288984233541269 -0.0004685293722767756 0.0
0.001328002916048516 -0.0004615833106089333 0.0
0.0013282508598293015 -0.00043794216540652005 0.0
0.001367593478484617 -0.00045423621221518987 0.0
0.0013683029121573237 -0.00043084658376070793 0.0
0.0014078275857730186 -0.0004464783771440869 0.0
0.0014088665468085062 -0.0004230152755399332 0.0
0.0014489756146311762 -0.0004381953579739566 0.0
0.0014504628280316834 -0.0004147935437626089 0.0
0.0014908873471364322 -0.0004292782998570807 0.0
0.0014893356713694894 -0.00045331966123609413 0.0
0.001531042331859341 -0.0004437495632976385 0.0
0.0015292301097354028 -0.00046820701417281044 0.0
0.0015707416355316825 -0.00045795849627956026 0.0
0.0015684071379226674 -0.00048288466482047465 0.0
0.0016102507147719243 -0.0004718882169884486 0.0
0.0014929611964155545 -0.00040600149009294574 0.0
0.0016127675225692361 -0.00044697716165854927 0.0
0.001652834964914972 -0.00046008050972301166 0.0
0.001649666216791428 -0.00048590132443787203 0.0
0.001692802541129412 -0.00047339090569935825 0.0
0.0006393501246176502 -0.00013680581695932516 0.0
0.0006418284156398676 -0.0001578287122429779 0.0
0.0008481455991853893 -0.0003681685888551377 0.0
0.0008074771398503517 -0.00034578080203633704 0.0
0.0016966372002557976 -0.0004476979596916417 0.0
0.0017366516007709823 -0.000459975390966457 0.0
0.0017321561072985868 -0.0004862913642029305 0.0
0.0017768445559879767 -0.0004719479504227858 0.0
0.0005814919806750005 -0.00013553969139366352 0.0
0.0005842075066992708 -0.0001558575143350397 0.0
0.0021568322142825275 -0.00011701349180906595 0.0
0.002226941425074781 -9.886933488499532e-5 0.0
0.002163180329048796 -9.411538978645e-5 0.0
0.002759943521286053 -0.0002028457607715749 0.0
0.002814404867846016 -0.0001766675992115365 0.0
0.0013281990374726096 -0.0004861707360792575 0.0
0.0008988425471809004 -6.314925596953318e-5 0.0
0.0016951617023357477 -0.0002423909646507086 0.0
0.0017716337011188387 -0.0004988495058416572 0.0
0.0018165398900293864 -0.0004836333665718847 0.0
0.0018211159810341629 -0.0004566643837348358 0.0
0.001861730058293235 -0.0004672324982532332 0.0
0.0017933784421912068 -0.0002058440637018645 0.0
0.0022392873881996625 -7.51699837867662e-5 0.0
0.0022984795380672426 -8.411688126450493e-5 0.0
0.000825358448698933 7.25167382739078e-5 0.0
0.0008115546892333588 -0.0003686146191640127 0.0
0.0007716372484887431 -0.00034574989337645464 0.0
0.002171396148147565 -7.026302458516878e-5 0.0
0.0018560233799317738 -0.000495087146500502 0.0
0.0019020437418052353 -0.00047827351602027857 0.0
0.0019078611708581727 -0.00045038037322175787 0.0
0.0019492149799987802 -0.00046075870321116505 0.0
0.0019560665178300425 -0.00043358736404344245 0.0
0.0019968339702409427 -0.000442496918935268 0.0
0.0019890619858404703 -0.0004701673638767066 0.0
0.0020362608437014215 -0.0004508009590554128 0.0
0.0007467951144203121 8.185121023723318e-5 0.0
0.0005255775364199348 -0.00013328937556001603 0.0
0.0005281723948654312 -0.0001525391402247764 0.0
0.0012904206049236464 -0.0004933470221950344 0.0
0.0027980844850740696 -0.00019787054497366225 0.0
0.0028529563514038394 -0.00017023208418798756 0.0
0.0020274773328322108 -0.0004788960279544326 0.0
0.0020738975506805887 -0.0004585083901108898 0.0
0.0008296858490304101 9.930093627714749e-5 0.0
0.0007762489232527263 -0.0003686715520635599 0.0
0.0007362700522169725 -0.00034491413641579233 0.0
0.0009006419908107825 2.6247325351134703e-5 0.0
0.0025830111317891704 9.457155098384754e-5 0.0
0.0013284937141867844 -0.0005114187345528517 0.0
0.0007478192359437758 0.00010350323466276898 0.0
0.0006858230546617896 -4.855164702859315e-6 0.0
0.002831199581019283 -0.00019713205326799075 0.0
0.0028904006778887555 -0.00016400404450835526 0.0
0.0029075311989612785 -0.00014352301155168433 0.0
0.0006669469985527528 6.525751405247537e-5 0.0
0.0027741046317256144 -0.00022382135294259575 0.0
0.0005193818246736827 -0.00011383422656939749 0.0
0.0008127394269033111 -0.0003904326037779634 0.0
0.002251322977700357 -5.0630775526038565e-5 0.0
0.0021810057184776855 -4.547974263595401e-5 0.0
0.0020049145800586357 -0.00041578062317925617 0.0
0.0007413780424255805 -0.00036842633021521654 0.0
0.0007014507099778981 -0.0003439347113570912 0.0
0.0004714939237677411 -0.00012993402445181414 0.0
0.0004738615089351876 -0.0001478216667303792 0.0
0.0008781191600131606 -0.00032255476070937073 0.0
0.0020640081253169565 -0.0004869187936381169 0.0
0.0021097708666625386 -0.0004652186728366146 0.0
0.0006962504781674475 -0.00032096941875082866 0.0
0.0006612481701663919 -0.00031926267338421683 0.0
0.002020887259362373 -0.0005060128920274903 0.0
0.001292172264274599 -0.0005188440801773453 0.0
0.0006672279930574804 -0.0003426564845636458 0.0
0.0006271242348291933 -0.00031727519923832473 0.0
0.0013683192596076832 -0.0004084675467955212 0.0
0.002945546045163736 -0.00013604650620459096 0.0
0.0029619478954402306 -0.00011845312793145337 0.0
0.0029290663077843762 -0.00015608222431750407 0.0
0.002098623329611577 -0.0004936250319766036 0.0
0.0021438885328177292 -0.0004707926573971463 0.0
0.0019626888768662946 -0.0004072389756591263 0.0
0.002012601399007254 -0.0003899462689700394 0.0
0.0013292424496114256 -0.0005372389553675886 0.0
0.0021557566403387057 -0.0004429468320898366 0.0
0.002189784092221051 -0.0004478449601680536 0.0
0.00041840898986179523 -0.00012472713232634868 0.0
0.00042306482753241695 -0.00014199306183122081 0.0
0.002177110089483628 -0.0004765822144518723 0.0
0.0022222160940964767 -0.00045259931601287806 0.0
0.0006343119943936301 -0.00034116940381898964 0.0
0.0005941052950406752 -0.0003150121860682702 0.0
0.0022636088909839974 -2.5245374287685257e-5 0.0
0.002192540886818019 -1.9723176635655623e-5 0.0
0.0005865291573885779 -0.00029225728159448994 0.0
0.0005533313561495445 -0.00028899418430260263 0.0
0.0005607579476891676 -0.0003121448054926789 0.0
0.0005201478706659584 -0.0002853809646117702 0.0
0.0029825967006198075 -0.0001281554699916028 0.0
0.0029658000335396123 -0.0001485786293036319 0.0
0.0008308549802902879 0.00012208290793855458 0.0
0.0007421441547549944 0.0001218273406667977 0.0
0.002099255630400031 -8.83779419924731e-5 0.0
0.0012939275082583265 -0.0005449006119838377 0.0
0.0022091294965357086 -0.00048263116809319065 0.0
0.002253415714042586 -0.00045743265210879537 0.0
0.002373900383424331 0.00011620466732638293 0.0
0.002202585549087667 -0.00042028071414183256 0.0
0.0015276954054835317 -0.0004933438626587422 0.0
0.0005116356833683 -0.00026338726661885966 0.0
0.00047937579836409877 -0.00025865472441843527 0.0
0.000488117793204654 -0.0002815594715012142 0.0
0.0004471676929946387 -0.00025382194893382013 0.0
0.0004384624124900062 -0.0002322954838913894 0.0
0.00040522337776082844 -0.00022653512083406024 0.0
0.00039625726320347904 -0.0002055617347281866 0.0
0.0003624772303031436 -0.0001986847212483184 0.0
0.0003535737684024069 -0.00017916613128902295 0.0
0.00032163402993468435 -0.00017188862534462702 0.0
0.0003122285350779842 -0.00015400041744662238 0.0
0.00032990196013190135 -0.00019085582792727462 0.0
0.00028542366192819935 -0.00015990017881670486 0.0
0.00036915263817192766 -0.00011869513818157694 0.0
0.000367433439239105 -0.00010334211554193935 0.0
0.0002976814432692406 -0.00018217893968697663 0.0
0.0002569682898815354 -0.000153618540275731 0.0
0.0009123968498271119 0.00011530746037479325 0.0
0.0009738679154732454 -0.00019192831526016052 0.0
0.0019695619126123983 -0.0003818774499096781 0.0
0.002019556757026758 -0.00036500033628758473 0.0
0.000583515131247503 -0.0001746630101597695 0.0
0.0013299965904298352 -0.0005637692125272972 0.0
0.001365583089936843 -0.0005556209211148804 0.0
0.002062952842758723 -0.0003721459411831395 0.0
0.0020703325467135167 -0.00034730286691514944 0.0
0.0030185803148165447 -0.00011979181535632969 0.0
0.002999520661583106 -0.00014149972524385188 0.0
0.0029476819695625194 -0.00017348347169080612 0.0
0.0021098824652728038 -4.0280139535490246e-5 0.0
0.0021206162014053296 -1.4694501487467198e-5 0.0
0.0012571429880437394 -0.0005259011871781998 0.0
0.001259147875426735 -0.0005520392685358129 0.0
0.0012229127323756788 -0.0005326979760195662 0.0
0.00045761849597825274 -0.0002775315280651123 0.0
0.002205034349176195 6.781812532931165e-6 0.0
0.0021327537026723407 1.2442135838870253e-5 0.0
0.00087771449352285 -0.00021936710741667456 0.0
0.0022395404384316637 -0.0004887488874641402 0.0
0.002283985822105099 -0.00046245963283457215 0.0
0.0022985320242862703 -0.0004325051724021009 0.0
0.0023289616833084698 -0.00043643193962038447 0.0
0.000854342813824359 0.00014417691133482906 0.0
0.0007482924229119421 0.00013901296088492728 0.0
0.0012055736325065469 -0.00038698240053752797 0.0
0.0021965864941356672 -0.0005146914993687455 0.0
0.0027460790663041044 9.613170259652994e-5 0.0
0.0023139666909805234 -0.0004686610514082583 0.0
0.0023593375377629227 -0.0004414848985975409 0.0
0.0023745563502520976 -0.00041020548245956884 0.0
0.0024054783421768857 -0.00041424113566220384 0.0
0.002421619613912098 -0.00038352991194754896 0.0
0.002452212042105635 -0.0003866786204703672 0.0
0.002435820036248501 -0.00041932178583354755 0.0
0.0024821670732033934 -0.00039078004121253005 0.0
0.00026674242482292075 -0.00017182047374516603 0.0
0.00022698287602578818 -0.00014295530886855002 0.0
0.00021234398586575666 -0.00012350125274348433 0.0
0.001366209027561627 -0.0005825864123695469 0.0
0.0014003512445721785 -0.0005750803119357669 0.0
0.0012254506957759303 -0.0005589768647400891 0.0
0.0011893443410651904 -0.0005390329020405502 0.0
0.002979319593862788 -0.0001683539268004984 0.0
0.003030619323798379 -0.0001350582622860971 0.0
0.0023366324339880755 0.0001307776011425411 0.0
0.002276166497717152 0.00012420209218310944 0.0
0.0006463571987035667 0.00011530809567798531 0.0
0.0006507719692540456 0.0001295345296870186 0.0
0.0003080834687501571 -0.00020360665795502562 0.0
0.0011264845691586294 -0.0003062208667868371 0.0
0.002081528659179898 -0.00013726182728974223 0.0
0.002929096087393414 -0.000202582070047873 0.0
0.0008862852523855197 -0.00010522773516896931 0.0
0.0020389052728422615 -3.5584324946227244e-5 0.0
0.0024646994922561966 -0.0004254637388438018 0.0
0.002510972252902786 -0.0003958953014016496 0.0
0.002501565507496945 8.543411579909698e-5 0.0
0.0026193916405457054 7.460392196375223e-5 0.0
0.0008476721152140549 0.00016081440420589094 0.0
0.0004757995421816267 -0.00016536462704735727 0.0
0.00031267383850509903 -9.582267162590241e-5 0.0
0.00031184261606737225 -8.182788978036798e-5 0.0
0.0004969174810897036 -0.00030587397354020187 0.0
0.0023466006381376646 -0.0004758015551825343 0.0
0.0019128435341619686 -0.00028127349327745026 0.0
0.0017284113745690112 -0.0005134699193648065 0.0
0.0010883789104983272 -0.0003989155772359047 0.0
0.00023676438116346699 -0.0001608870745794325 0.0
0.000198251226620269 -0.00013160861802809898 0.0
0.0006743459249191998 -0.0003674139613500732 0.0
0.0021143699851008248 -0.00035357595941614003 0.0
0.0021222043834036148 -0.0003289775240316534 0.0
0.0012599336687537743 -0.0005792685398102063 0.0
0.0025549869182716744 6.278055178422398e-5 0.0
0.0026556936774514545 5.462890498967154e-5 0.0
0.00259541802663559 4.091760294082517e-5 0.0
0.002692900335849236 3.437090907081546e-5 0.0
0.002751567544801351 4.6716513811899906e-5 0.0
0.0027878099294181328 2.8367456702625456e-5 0.0
0.002728260563339923 1.4255373162362028e-5 0.0
0.0028198915101194837 1.0450116611506702e-5 0.0
0.0027607748631814804 -4.90381076674978e-6 0.0
0.0028504382851269492 -6.16504393454295e-6 0.0
0.0027927080434831794 -2.297179035336404e-5 0.0
0.002878467767392843 -2.1226449429662607e-5 0.0
0.002822114354002134 -3.9486249747778245e-5 0.0
0.002904883220190092 -3.467274953441491e-5 0.0
0.002732966442512973 -4.346662358140718e-5 0.0
0.0028497056251853142 -5.383213604959975e-5 0.0
0.002927524100850855 -4.678651323959564e-5 0.0
0.0028482905199751917 3.833404332813518e-5 0.0
0.0006545908671972152 -0.00029667433935121236 0.0
0.0006423122095995186 -0.0003663253925756737 0.0
0.0006809026811187987 -0.0003928673094486676 0.0
0.002875678311529904 -6.616297420485209e-5 0.0
0.002949609955771341 -5.6745364611765964e-5 0.0
0.0028018747627941757 -7.434316376073445e-5 0.0
0.0017665085688098412 -0.0005265283751406166 0.0
0.001724047204758024 -0.0005410973323282644 0.0
0.0017613242320519893 -0.0005547202306325767 0.0
0.0017203429999004892 -0.0005693697216348845 0.0
0.0017564994233712425 -0.0005835673334872635 0.0
0.0017174063621024996 -0.0005982730816960265 0.0
0.0016812900192001 -0.0005835289736013652 0.0
0.0016793238996169193 -0.0006122327681085458 0.0
0.0016441358170565742 -0.0005968923777792418 0.0
0.0015375111559808013 4.613751425976416e-5 0.0
0.0017523999964127348 -0.0006132422330568302 0.0
0.0017910970509495314 -0.0005976863843418451 0.0
0.001486052501571901 -0.00023446278720465756 0.0
0.001451951096269377 -0.00039210901460937585 0.0
0.0014951266784658814 -0.00038344314172549334 0.0
0.0014535521890278542 -0.000370101688091817 0.0
0.0014973562484133433 -0.0003616048128982897 0.0
0.0014553041443607195 -0.00034880582547715516 0.0
0.0014996744524693785 -0.0003405171457533755 0.0
0.0015419340692933866 -0.0003526367070114232 0.0
0.0015447392782731628 -0.0003317748975192966 0.0
0.0015872285708893703 -0.0003432343158657745 0.0
0.0015903649166363605 -0.0003225915887904335 0.0
0.0016311935471080075 -0.00033333530711257233 0.0
0.0015477326362827758 -0.0003110473646048855 0.0
0.0014572132540235558 -0.00032819709123184935 0.0
0.0014127338025118556 -0.0003358807045053904 0.0
0.0016276129605322692 -0.0003548399519727077 0.0
0.0016739655907698566 -0.000342991492044877 0.0
0.0006502152716890505 -0.00039226972282591533 0.0
0.0015448576319467152 -0.0001581169024605814 0.0
0.0015570779262130113 -2.8558064269034003e-5 0.0
0.0017413030960385255 -0.00043466949934058477 0.0
0.003034675893611344 -0.00010290562025173932 0.0
0.003069105969139068 -9.429614175945889e-5 0.0
0.0016958181622833625 -5.5170725261076776e-5 0.0
0.0016793780104656629 -0.00010065908922790789 0.0
0.002389859671305206 -0.0003812037416097981 0.0
0.0020686674816494787 -0.00024104108251123265 0.0
0.0030114450562629194 -0.00016163894691807235 0.0
0.0030602468601462654 -0.00012842780430916042 0.0
0.001668586030114601 -0.0001642860369849418 0.0
0.0011922570575893638 -0.0005656059008180455 0.0
0.001156326533780309 -0.0005451319073984789 0.0
0.0017190610813305259 -6.945906526493375e-6 0.0
0.0016423322275481498 -0.0006255473312562642 0.0
0.0016070031661553682 -0.0006084977094676693 0.0
0.0011534675327420187 -0.0005189279554987772 0.0
0.0011201157896190376 -0.0005245147623012223 0.0
0.0011171090824505928 -0.0004986249481696827 0.0
0.0010835863220376644 -0.0005036312720305569 0.0
0.0010872816871348254 -0.0005298973995044098 0.0
0.001050879054030962 -0.0005084196716632839 0.0
0.001054924277817452 -0.0005350218257114063 0.0
0.0010185490268073086 -0.0005129916043905429 0.0
0.00046835504491672116 -0.00030268461193344516 0.0
0.003084275307762861 -8.02953182556875e-5 0.0
0.0022167455796759457 3.360464857255667e-5 0.0
0.0021427713158920954 3.896062774390403e-5 0.0
0.0009992003080722496 -0.000296596780459979 0.0
0.0008074066986412113 -0.00032388436730439966 0.0
0.002977513733262475 -3.130137776532188e-5 0.0
0.002937430064785203 -7.843640377833683e-6 0.0
0.0014002772404437542 -0.000601929952707766 0.0
0.001435243777295524 -0.0005935647689671655 0.0
0.002225844842594697 -0.0005220979702629869 0.0
0.00043249697415254524 -0.00021182314995261874 0.0
0.0018808559949160515 -0.00021934492277508609 0.0
0.002060999839358264 1.694402150576113e-5 0.0
0.002070335854103241 4.3274089063309075e-5 0.0
0.002438478146366316 -0.00035511383017767584 0.0
0.0025113259550540025 -0.0002030270517536971 0.0
0.002529143329203108 -0.00036262244918075433 0.0
0.002558652383595896 -0.0003659969344565286 0.0
0.0025387369945437228 -0.0004022594303295191 0.0
0.0025872062254662883 -0.0003708864570466056 0.0
0.0014606277321511638 -0.00019508740248312217 0.0
0.0005055632180664493 -0.0003311308351120703 0.0
0.0016319908506651096 -0.0003123563310596685 0.0
0.002669093118478046 -4.724368182591612e-6 0.0
0.0014074392183324427 -0.0005490698865242345 0.0
0.0006869828982935718 -0.0004188658730651455 0.0
0.0007177940509363648 -0.0004192713197940859 0.0
0.0021844270712999304 -0.0005483514095007743 0.0
0.001079944673091826 -0.0004782420229902637 0.0
0.0019758130727149663 -0.00035745022507961726 0.0
0.001926136676087455 -0.0003733172844587075 0.0
0.0030411456109394894 -0.00015554532185455537 0.0
0.003089864712967873 -0.0001206749024274134 0.0
0.0031070453175408444 -9.887475998369082e-5 0.0
0.0009497587452809433 0.0001662698404538479 0.0
0.00020809620738363658 -0.00014880142930984942 0.0
0.00017019941483217312 -0.00011853442472961728 0.0
0.00016440242401576674 -0.00010598284481588503 0.0
0.002241243152589821 0.0001360046034950969 0.0
0.0022970999065400816 0.00013744460523097704 0.0
0.0021833474904096963 0.00012992425009221821 0.0
0.0023351349458949067 -3.108134082314086e-5 0.0
0.002900697305489283 -7.539278075378377e-5 0.0
0.0029731894116154425 -6.382004623313707e-5 0.0
0.001159691808121835 -0.0005720789546768482 0.0
0.002283327799431281 -0.00012557114321767686 0.0
0.000547164320059582 0.00010418897879270791 0.0
0.0005460439931970426 0.00011443002270655742 0.0
0.0006570827315799517 0.0001416250641919179 0.0
0.0005422789979981488 0.00012186144584342986 0.0
0.0006988034996096529 0.00016000094435245988 0.0
0.0016052615138636933 -0.0005794913844107663 0.0
0.001013747765227953 -0.000486866830381421 0.0
0.0009822547053057633 -0.0004909360723318189 0.0
0.0009869467967115362 -0.0005174035346434865 0.0
0.0009510201771167404 -0.0004948826230164639 0.0
0.0026060393668356006 -0.00033643647008064944 0.0
0.002634563944932329 -0.00034041654457151463 0.0
0.002615840467410621 -0.0003768058155497089 0.0
0.002662204550818956 -0.0003453714169019217 0.0
0.0020768560242875934 -0.0003229651466890934 0.0
0.0021294464639940343 -0.00030518979198777683 0.0
0.0017867081786714276 -0.0006279088492314142 0.0
0.0018246951414206897 -0.0006115484669976013 0.0
0.0014144115342328008 -0.00031552738093740127 0.0
0.001369717758596133 -0.0003226838898032055 0.0
0.0013622712539344737 -0.0006109345164329948 0.0
0.0009558065020408072 -0.0005212429820786938 0.0
0.0009205546886718805 -0.0004985338497742448 0.0
0.0028971410268085244 -0.0002068128976149648 0.0
0.0028783240797902354 -0.0002382210144541333 0.0
0.0028477186650838135 -0.00024101180555984004 0.0
0.0028334955587112623 -0.00027120265627089257 0.0
0.0014348465010321073 -0.0006226559687734762 0.0
0.00024334936221689948 -0.00017866890115023973 0.0
0.0003469837277284001 -0.00016181386554934402 0.0
0.0003008018530969244 -0.00013638435071146752 0.0
0.0002549543195095033 -7.37927407828928e-5 0.0
0.0002510235315541145 -6.10335963083827e-5 0.0
0.00031163873850371753 -6.748851872028828e-5 0.0
0.0002484231646923127 -4.8308263344533936e-5 0.0
0.0003115201442431098 -5.247702712623888e-5 0.0
0.0002461394509155074 -3.534797407360227e-5 0.0
0.0003125597148220035 -3.691886248809447e-5 0.0
0.0029094883115360543 -0.00023505176223053076 0.0
0.0009448555962705244 -0.00046922785159157093 0.0
0.002405490459872531 -0.00035466857807504463 0.0
0.002154978425649417 -0.0005390524449754169 0.0
0.0021440419220238242 -0.0005741241584880443 0.0
0.00211513172397484 -0.0005643310671823643 0.0
0.0016061809266784445 -0.0006378419953741542 0.0
0.002274463903715387 2.4470112503416672e-5 0.0
0.0026436997909971794 -0.00038346622836005125 0.0
0.003136774917520733 -8.939492143531397e-5 0.0
0.003118738321128643 -0.00011185225018467028 0.0
0.00094216557350607 0.00017893951280751735 0.0
0.0022083918799317382 5.693670865395298e-5 0.0
0.0017003908920307283 -0.0004229944944304058 0.0
0.0017449180445797275 -0.0004102431659376119 0.0
0.001678907081876218 -0.0006420447050291867 0.0
0.0015711284490683467 -0.0006201107496058374 0.0
0.0007087760855095149 -0.00018279105930183836 0.0
0.0030191234127968677 -4.733661570516823e-5 0.0
0.00304115468638472 -5.2158810082925833e-5 0.0
0.0029943150447855316 -6.920937533608548e-5 0.0
0.003059785659816278 -5.624061211149145e-5 0.0
0.0025150887698662692 -0.00027168335477626175 0.0
0.0018914563448704862 -0.0005075545998269471 0.0
0.0019317380941865224 -0.0003495319478966127 0.0
0.0014085522076889311 -0.0004709422071218339 0.0
0.0020306065852927764 -0.00019487324318636642 0.0
0.0021665836808285825 -0.0003345062410645557 0.0
0.0021673150707412305 -0.0004164687581498804 0.0
0.002215149389739636 -0.0003941829429818087 0.0
0.0021983093407429307 0.0001373196579905025 0.0
0.002266781168558213 0.00013370266547727336 0.0
0.0007232359268545957 -0.0004455035262950795 0.0
0.0007526745098621549 -0.00044501633639845614 0.0
0.00024445919616770517 -2.209581630372709e-5 0.0
0.000311395029585371 -2.0963284748376227e-5 0.0
0.0003814233181275298 -3.664643044799832e-5 0.0
0.0003829206514905568 -1.769723611687747e-5 0.0
0.0003123087445426611 -5.235783551889633e-6 0.0
0.00038744485083679764 1.0491820991792373e-6 0.0
0.00031510864613827 9.79989653564296e-6 0.0
0.0003948245691706229 1.9419545012153892e-5 0.0
0.0003186355487074349 2.3885076043937348e-5 0.0
0.0001804400154669789 -0.00013563463248252106 0.0
0.0018823106046002402 -0.000364394044487092 0.0
0.00014356786786958006 -0.00010495446669675406 0.0
0.0006577326238698576 -0.0004187970374796828 0.0
0.003119395846491577 -7.08336371042524e-5 0.0
0.0015362340874415072 -0.00039668101724534493 0.0
0.001990601479413948 2.0662729510732004e-5 0.0
0.002003733154977294 4.877835115185915e-5 0.0
0.0004021028002090726 3.702708487321565e-5 0.0
0.00047845142289840436 -0.00032874838740295424 0.0
0.00044178572810459136 -0.00029965911439830525 0.0
0.0009920975209805137 -0.0005490718450536199 0.0
0.0022091162175609043 -0.0005589451312899065 0.0
0.0011949730653884718 -0.0005930712177856448 0.0
0.0026895595613984336 -0.0003507905936386932 0.0
0.0031531720571652054 -7.209749530109162e-5 0.0
0.0013683849878755748 -0.00034330500735911366 0.0
0.0013255943798191983 -0.00032938523189746403 0.0
0.0013244846030594296 -0.0003503341669848423 0.0
0.00103251363410323 0.00018073194466493707 0.0
0.0012841919161879847 -0.00033579298495275885 0.0
0.00026377480756579515 -8.791522653813112e-5 0.0
0.0018197949431682263 -0.0006426222034063987 0.0
0.0018578489364804308 -0.0006253363270629603 0.0
0.0018635645051022572 -0.0005943545173580899 0.0
0.0018962888976774865 -0.000607229978400982 0.0
0.0022509604288784507 -0.0003973436053078437 0.0
0.002264541199324876 -0.000371162326006418 0.0
0.0031324297171629457 -5.99981809883368e-5 0.0
0.0030963053258240537 -6.900689164983205e-5 0.0
0.0020948291482864954 7.328035440975175e-5 0.0
0.002018378894966635 7.912486021306834e-5 0.0
0.0006216773632710701 -0.000391864446525181 0.0
0.0009255616873303096 -0.0005250815649909288 0.0
0.0008909638551604173 -0.0005020717560090173 0.0
0.0016104149732410087 -0.00022880393495661178 0.0
0.0025985833731418614 -0.00041597976088513205 0.0
0.000323967347690353 3.694081056427042e-5 0.0
0.0008850706250006345 -0.0004754651394082473 0.0
0.0018899196854382098 -0.0006390246839396192 0.0
0.0019275688419961821 -0.0006198580682434723 0.0
0.0018868149440063335 -0.00034176952738638685 0.0
0.0018383537798656695 -0.00035515752886319807 0.0
0.001842446722244864 -0.00033323457250873466 0.0
0.001703715411916324 -0.00019615030884800755 0.0
0.0002616417290760651 -0.0001267114071200824 0.0
0.0001537593824673749 -0.00012154628202470634 0.0
0.0019033743730996484 -0.0005762588093680196 0.0
0.001960303249538482 -0.0002891190956093714 0.0
0.0015709868832083978 -0.0006497374125122767 0.0
0.0006413597042529233 -0.00011596919916144833 0.0
0.0011296961231678062 -0.00022730844186284299 0.0
0.00051427754651645 -0.0003585550558180167 0.0
0.0027084651297597066 -0.00031461900690343375 0.0
0.0006925767693460141 -0.0002990312508297206 0.0
0.0006484550014085432 -0.0002746567320639791 0.0
0.0006898620386280931 -0.0002774406480257278 0.0
0.0006440418969808502 -0.00025336940456914206 0.0
0.0006866937441905289 -0.0002561748372878085 0.0
0.0006022331927720843 -0.0002500459119452527 0.0
0.002104950084671978 -0.0005995123599828332 0.0
0.0020785208197430737 -0.0005888434780639029 0.0
0.00043802028790182484 8.674098624799274e-5 0.0
0.0016067209564929845 -0.0006675094468653671 0.0
0.0015660017667174545 -0.0005085001139804176 0.0
0.0015260570499715988 -0.0005190157760890012 0.0
0.000758613495668243 -0.00047179470106841956 0.0
0.0002044244701552831 -6.49327485023292e-5 0.0
0.0002172236758813861 -8.003043379758836e-5 0.0
0.0029209361814653326 -0.0001266076452281362 0.0
0.0029764183518373576 -0.00010318601285236056 0.0
0.0004538419739440341 -3.4033506918237005e-5 0.0
0.0007875413737402198 -0.0004702421571099407 0.0
0.0007836531825830611 -0.0004456909499168419 0.0
0.0007934340735344715 -0.0004974484268944826 0.0
0.0007302859141712699 -0.000472916583181776 0.0
0.0005601908197036856 0.00013487508866089962 0.0
0.0012203550122627277 -0.0005071949221995459 0.0
0.0018770167605642227 -0.0003885450314669984 0.0
0.002932156933343985 -0.00011139980983059791 0.0
0.0017828286279942924 -0.0006591123374769891 0.0
0.0011624690996821364 -0.000599980859502229 0.0
0.003163774492869861 -8.017478265801923e-5 0.0
0.003145484326803432 -0.00010331661938830261 0.0
0.0010460183943973693 0.00016746169081595177 0.0
0.0008969768818824935 -0.0005294652525376654 0.0
0.0020826948766088957 -0.0002985331977943296 0.0
0.002139715566269679 -0.00028104894099973446 0.0
0.00034075854605281774 -0.00014514140379962945 0.0
0.0004521819550233451 -0.0003258491667366281 0.0
0.0004166182756710054 -0.0002967433317224622 0.0
0.00040555487331272994 -0.00027155525080191275 0.0
0.0006296140345911278 -0.0004187398665631817 0.0
0.00011781266537557925 -9.039853395058177e-5 0.0
0.00010981779759714943 -7.81689164859502e-5 0.0
0.0019203834422951182 -0.0006524923948409694 0.0
0.0019569428342192867 -0.0006323181336811564 0.0
0.0019640115138302304 -0.0005982571054176714 0.0
0.0026538632726748426 -0.00030722785783126417 0.0
0.002624229585904555 -0.0003052998846555021 0.0
0.0026252778012633613 -0.000424536215428381 0.0
0.0005972152946231944 -0.0002293953234036582 0.0
0.0005563630113851006 -0.00022630489969994956 0.0
0.002185312457947463 -0.000286619017675066 0.0
0.0031034279375946367 -4.107663806404057e-5 0.0
0.003119972565441483 -4.3788461065134295e-5 0.0
0.003139471387040452 -5.230708554943804e-5 0.0
0.0030917169970058663 -0.0001474999077648252 0.0
0.00019028951561140192 -0.00015484018024202741 0.0
0.0020282969381655953 -5.7594546271835036e-5 0.0
0.001963326027364142 -5.3811451605156134e-5 0.0
0.0019532289685742633 -7.30076391599006e-5 0.0
0.0018920898951143542 -6.982777549655268e-5 0.0
0.0018860424276082013 -8.802924675471914e-5 0.0
0.0018964423452970988 -5.214029379119996e-5 0.0
0.0017039860346305764 -0.0003991086112279299 0.0
0.001371098779838832 -0.0003027660176901472 0.0
0.001416353478805159 -0.000295803679458273 0.0
0.0004270057385171302 -0.00032285713640202354 0.0
0.0003918456591929186 -0.00029285684810365553 0.0
0.002808702504553268 5.4858424500269506e-5 0.0
0.0029080083184942875 4.460625217325278e-5 0.0
0.002947609812884345 2.870420890033286e-5 0.0
0.0030062749740655042 3.319948343377707e-5 0.0
0.002980866626105478 4.6530119757939104e-5 0.0
0.0015375523326102674 -0.0006323166840781371 0.0
0.001537194827988669 -0.0006044414771554194 0.0
0.0015367499882585182 -0.000661345803068771 0.0
0.0019204297372294407 2.290277602266297e-5 0.0
0.001909836156330652 -2.90796315469763e-7 0.0
0.0004547042186893272 -5.4880847241781143e-5 0.0
0.00023816079688774398 2.267525003449758e-5 0.0
0.002067311504522872 -0.0006242200175649655 0.0
0.0005447044831726332 9.210612619846651e-5 0.0
0.0021056726099358838 -0.0003787372297247426 0.0
0.001954934702909993 -9.139944929328168e-5 0.0
0.0018803390218014326 -0.00010586860798461945 0.0
0.0019368200910783093 -0.00011131600275787526 0.0
0.001874328589339832 -0.00012342096319967888 0.0
0.0019276445325385615 -0.00012927726144891478 0.0
0.0018686009227609078 -0.0001410750609087598 0.0
0.0019202898243559502 -0.00014721649058963818 0.0
0.001863191385110734 -0.0001589989168967457 0.0
0.0019156587965492547 -0.00016533373058152316 0.0
0.0018180346813899027 -0.00011745419085482969 0.0
0.001811537397994198 -0.00015241434813519908 0.0
0.0021329452520309163 -0.0006106396065964795 0.0
0.003175370928011147 -4.735825603463201e-5 0.0
0.0011145777374923784 -0.00047364604085825296 0.0
0.0010759583583522573 -0.0004541657138788879 0.0
0.0029914276917335945 -0.00019305576592263331 0.0
0.0012872212424965522 -0.00031819552309764665 0.0
0.0018284292102898909 -8.319337528394014e-5 0.0
0.0007023033624420748 0.0001732744594968178 0.0
0.00019073170620373893 -4.2474832473685655e-5 0.0
0.0011290714534070386 0.00017984079682393915 0.0
0.0011332033889730052 0.00016466840089661026 0.0
0.002451472284734028 6.675650889410639e-5 0.0
0.0030205697489182554 -0.00018791353311991855 0.0
0.0029731320669062916 -0.0002272432119174852 0.0
0.0012819751569709027 -0.0003567868085629039 0.0
0.0012457036748651105 -0.00033895319083624884 0.0
0.0005413542817081108 -0.0003389419012183966 0.0
0.00012797028265182248 -0.00010628043661926489 0.0
0.00015454179396188285 -5.3897639823452496e-5 0.0
0.00016028733967794547 -6.367196766290069e-5 0.0
9.267880638880622e-5 -7.469482483401401e-5 0.0
0.0022264851164174935 -0.0003686184001373695 0.0
0.0022771371773987986 -0.0003462704678112941 0.0
0.002315838143657293 -0.0003480393571884888 0.0
0.0023282129058484822 -0.0003231971995115288 0.0
0.0018075077005051076 -0.0001693990926917482 0.0
0.0008314478324320568 0.0001922522424781026 0.0
0.0010422723487763955 0.00019122856392121912 0.0
0.0017945278954624596 -0.0003456385880381478 0.0
0.0017990257276801337 -0.0003238913040932533 0.0
0.0013735813076559376 -0.00028422806246557414 0.0
0.0011739363704832055 -0.0002810632514443447 0.0
0.0011977841162953296 -0.0006214029238569328 0.0
0.0024203944276769995 -0.0004547224388029376 0.0
0.002447991778240669 -0.00046297221009744625 0.0
0.002405811629009262 -0.0004926910553627374 0.0
0.002432639623903594 -0.0005030919740615349 0.0
0.0023920578322293258 -0.0005328991164577164 0.0
0.0023651618103686257 -0.0005222619484852906 0.0
0.002296934871498673 -0.0005092170893472396 0.0
0.002085189433741067 -0.0005545186233299802 0.0
0.002216415279215602 0.00011320420422691328 0.0
0.0016864629306432397 -0.0005273996621301171 0.0
0.00046957613160120723 1.0091587067738739e-5 0.0
0.003124364568359561 -0.00013314915878182362 0.0
0.00316991863619022 -9.438673207995658e-5 0.0
0.0024744179389449886 -0.0004724383377562065 0.0
0.002459684828774378 -0.0005134727892915087 0.0
0.0024999953996365475 -0.000482909204400407 0.0
0.001229195304753806 -0.0006141790071732931 0.0
0.0014881703135041547 -0.0005033331611661384 0.0
0.0014879116508994747 -0.0005285599718203273 0.0
0.0015247206759420534 -0.0005452064109896381 0.0
0.0010088158953129363 -0.0003873841959312685 0.0
0.0014501316957348828 -0.0005122566924618369 0.0
0.0018702216444437885 -0.0005649167971817374 0.0
0.0026743600873687942 -0.00027655116492797567 0.0
0.0027352821661358034 -0.0003185331119124873 0.0
0.0027159544989868137 -0.0003570106154608102 0.0
0.0027609270525795777 -0.00028006735139980005 0.0
0.0003821821674593549 -7.24588179413341e-5 0.0
0.0010912129972686392 -0.0005569898691144097 0.0
0.0010596991050087388 -0.0005625878552427342 0.0
0.0010949115335639977 -0.0005847380279624318 0.0
0.0010648768769990719 -0.0005907503600807232 0.0
0.0023668173403448064 -0.00032384135928162296 0.0
0.0006658065808994551 -0.0004463785260483225 0.0
0.0005956192285118659 -0.00039194511637649486 0.0
0.0030757343956602425 -6.030095515670502e-5 0.0
0.00018127170407603225 -2.1257837002818085e-5 0.0
0.00018002755413565533 -1.1240778108355047e-5 0.0
0.0020397332630482097 -0.0006085730039043801 0.0
0.002033993174289224 -0.0006469256523268795 0.0
0.0016588939185741291 -0.0004111052527789901 0.0
0.003045007263286537 1.943151032135493e-5 0.0
0.0006030327204911269 -0.00041861671662817804 0.0
0.002455553367979464 0.0001147828213296681 0.0
0.0028627743432750492 -0.0002115021773064998 0.0
0.002895799163764682 8.798596999727764e-5 0.0
0.002929191160739765 7.914266213785475e-5 0.0
0.0022891159935985754 -0.00032204802477607596 0.0
0.002455858285582046 -0.0003291052314043414 0.0
0.0024892038455979347 -0.0003287772423997559 0.0
0.0021884328567288672 0.00012281369598349988 0.0
0.002252588940127348 0.0001161933890267701 0.0
0.0023346883380210483 0.00012929690439845173 0.0
0.0018832058218799586 -0.0006718390263726153 0.0
0.0009290801588838058 -0.0005520442198298996 0.0
0.0014105450343218297 -0.0003783825680072897 0.0
0.0020302966210718923 -0.0003169939881484747 0.0
0.0017845638669342085 -0.0004204395158653088 0.0
0.0018150707599157198 -0.0006747335959117058 0.0
0.000821036448982672 -0.0004950492520557524 0.0
0.0010418156519319834 -0.0004576529607942792 0.0
0.00042886762666409663 -0.00016014070858921388 0.0
0.00308731799867274 2.2178916228117542e-5 0.0
0.0023577424902707 -0.0003803839400743558 0.0
0.0002928765807881003 -0.00012117859863955976 0.0
0.0008374591717442764 0.00020996254310408753 0.0
0.001803358940815897 -0.0005394702257453413 0.0
0.0023519096386000176 -0.0005629047445213004 0.0
0.002323641167920675 -0.0005517974605465777 0.0
0.0020838339700947938 -0.00043099962423404656 0.0
0.0021926270211207795 -0.0002634526549767786 0.0
0.0009571152251110791 -0.00031968355997925136 0.0
0.0014872396018193266 -0.0005589403180799313 0.0
0.002010648265709469 -0.0002756811411027708 0.0
0.0010375049856582038 -0.00043386930497011245 0.0
0.0010028192775638732 -0.0004366278101461152 0.0
0.0008268570638084399 -0.0005227301019769564 0.0
0.0005262036845784321 -5.313431459969538e-5 0.0
0.0005290694142624593 -3.0801363598285796e-5 0.0
0.00024381229483587386 3.19756252365487e-5 0.0
0.000335632258682177 4.9799730002620306e-5 0.0
0.002582028835076168 -0.00045705340174236097 0.0
0.00038667951869434747 -0.00016997696999315406 0.0
0.0005618971849067603 -0.00024697387718088744 0.0
0.0005160833402226515 -0.0002223804164427131 0.0
0.002729706281741513 -0.0002804919049080647 0.0
0.0013686238829776663 -0.0005039271953527004 0.0
0.0017483116852774108 -0.0003856105082010651 0.0
0.0021195852773204433 0.00011611359102003817 0.0
0.002098646902534474 0.00013226585581747427 0.0
0.002038331555000861 0.00012157551073569785 0.0
0.0020186340529507922 0.00013150774003554296 0.0
0.002073381870625532 0.00013473714360145585 0.0
0.0023515966744605482 -3.670685923003289e-6 0.0
0.0024198577919885586 -1.2647152428297277e-5 0.0
0.002440251972916591 1.327484939947572e-5 0.0
0.002502920084495676 3.0581999576276086e-6 0.0
0.002483577348460722 -2.273578643878354e-5 0.0
0.00014733394692788957 -4.420422796588052e-5 0.0
0.0023808902738008918 -0.0003000884209445369 0.0
0.00040765224376968434 9.410324311248159e-5 0.0
0.000432413834256937 0.00010789885281650137 0.0
0.001949211948843771 -0.0006657087940050544 0.0
0.00011656862007267262 -9.906046512167706e-6 0.0
0.0026143784642519373 -0.0001784604785949905 0.0
0.0026766226980155946 -0.00015431475831578068 0.0
0.0026318665144104544 -0.00015369029407920129 0.0
0.0027268307623147486 -0.0001506754327043834 0.0
0.0027402969089358764 -0.0001305644692679206 0.0
0.002791449247568087 -0.00012724006238859652 0.0
0.000733438978309405 -0.00027935746985912355 0.0
0.0007323246903237974 -0.0002586163385881606 0.0
0.0006831801521976069 -0.00023521513477780173 0.0
0.0007305064362817507 -0.00023818732710269877 0.0
0.0007799445334839524 -0.0002607359520193019 0.0
0.0007788257134158495 -0.00024021434919122513 0.0
0.0008276521686624061 -0.0002618449370103716 0.0
0.0009030167703193939 -0.0005560267844687144 0.0
0.0008269806853331686 -0.00024078606907172628 0.0
0.0008756601240546035 -0.0002622714986399196 0.0
0.00024076700369067485 2.210535047558403e-6 0.0
0.000524871257973016 -7.480679895639737e-5 0.0
0.0008743443475773256 -0.00028258306224250666 0.0
0.0006852257535754076 -0.00021699883394936774 0.0
0.0026429797348019664 -0.0002769310220430194 0.0
0.0025941132611647655 -0.00030478998067330355 0.0
0.0015044983812296268 -0.0006445903980492978 0.0
0.0015034228799915338 -0.0006727914433218454 0.0
0.001962524789166984 0.00012147552089133423 0.0
0.0010618411078574122 0.00014876801259117717 0.0
0.0011433210047525522 0.00014307031420748338 0.0
0.0012099070039796646 0.00015788138976089743 0.0
0.0012199801675270097 0.0001323501746394412 0.0
0.0011552338253669905 0.00011591164776160622 0.0
0.001230947940253191 9.900369584761111e-5 0.0
0.001168010976525574 8.479828581739831e-5 0.0
0.0012442257051269133 6.384694266602662e-5 0.0
0.0011806227201283726 5.369444660428694e-5 0.0
0.0012686024254188986 3.071537349109799e-5 0.0
0.0011914658303246487 2.5012324882757527e-5 0.0
0.00126504136591739 4.354560756213254e-6 0.0
0.0011981348734777112 -5.658802956708414e-7 0.0
0.001269230885435041 -1.9401064708944796e-5 0.0
0.0012078133379309246 -2.4890766258968146e-5 0.0
0.0012751477055614488 -4.171278643538791e-5 0.0
0.0012141243787302984 -4.6701658754697796e-5 0.0
0.0012773066800908848 -6.177489139549256e-5 0.0
0.0012190836220004832 -6.669569301662252e-5 0.0
0.0012797533852583122 -8.047267275468208e-5 0.0
0.0012227922805293806 -8.573399909081259e-5 0.0
0.0012811975598835353 -9.875795555782699e-5 0.0
0.0012243077018750912 -0.0001040948086139305 0.0
0.0012820341990353971 -0.00011612600316525374 0.0
0.00122561318061278 -0.00012255519927387363 0.0
0.0011675459808028824 -0.00010899579566661488 0.0
0.0011693924267222326 -0.00012824015035580144 0.0
0.0012869158572102613 -0.00013530345989612954 0.0
0.0011575995719328137 -5.145154711931161e-5 0.0
0.0013372054212188154 -0.00010915516156614036 0.0
0.0013416068919647024 -7.590642709366915e-5 0.0
0.001107964404994832 7.200486216840005e-5 0.0
0.0013357926234609182 -3.6022604756515395e-5 0.0
0.0011101739854891361 -0.00011376956662347638 0.0
0.0011133021736356035 -0.00013334603827020057 0.0
0.0011713578759965722 -0.00014763448058702938 0.0
0.0011163438036952541 -0.00015294330460691516 0.0
0.0011370726216114542 -6.3380406795793705e-6 0.0
0.001337947593879036 5.368042985106365e-6 0.0
0.001108038218801069 -9.393379506308696e-5 0.0
0.0013094675507201233 7.54786304453093e-5 0.0
0.0011735675563578915 -0.0001669048469036187 0.0
0.001119020879460845 -0.00017248896370209273 0.0
0.001061838985970598 -0.00015778046093346612 0.0
0.0010485243030475613 -9.864727168031836e-5 0.0
0.0010436597303630267 -7.692208309652203e-5 0.0
0.001228471291483635 -0.00016069677901139453 0.0
0.0012289216245083977 -0.00017961208335878068 0.0
0.0012822655731784501 -0.0001731931328995354 0.0
0.0012863576053505415 0.00014495482307720013 0.0
0.0012817594755195052 0.00016320183871114003 0.0
0.0010666627427520885 -0.00017788592784866587 0.0
0.0010082033993623755 -0.00016245030528257162 0.0
0.0010045934944152542 -0.00014274166866382545 0.0
0.0009478074929332755 -0.0001463252756958175 0.0
0.0017795309725202229 -0.0006907458680527212 0.0
0.0017476569121409003 -0.0006746350679402395 0.0
0.00300141086942937 -0.00022259356536743767 0.0
0.0019106105529481826 -0.0005466089319128314 0.0
0.001943994498602063 -0.0005575940831861135 0.0
0.0011062331477213717 -0.000448724839523216 0.0
0.0011451944585184933 -0.0004674388304667788 0.0
0.002681631382407783 8.219241845021492e-5 0.0
0.0019364039854101085 -0.00032634975008341755 0.0
0.001123037166264931 -0.00019164755468721942 0.0
0.0008519421612036244 -0.0004775608006811596 0.0
0.0008493152316659078 -0.0004524035567019132 0.0
0.0008795875167374207 -0.00045022532299532467 0.0
0.002145339212905753 -0.0002581886469762857 0.0
0.00198389139991303 -0.00011848803841512173 0.0
0.0013245944512218296 -0.0003718915742936008 0.0
0.0012830914900782125 -0.00037872617326047185 0.0
0.0018403762867458266 2.093562773240206e-6 0.0
0.0018348840979689881 -1.687059727465007e-5 0.0
0.0018938794434352946 -1.991490795149612e-5 0.0
0.0018242409642300773 -3.673338354173352e-5 0.0
0.0018503882606731015 2.2555872205388375e-5 0.0
0.0019716717743652797 -0.00015378393337413024 0.0
0.001967952801593967 -0.00017185658698310778 0.0
0.0019065024164765674 -0.00018346941571637565 0.0
0.0014189738563242212 -0.00027719773085917767 0.0
0.0014621865975051758 -0.0002884459362354938 0.0
0.0014653777374632612 -0.00027047979298673976 0.0
0.0015079299332019425 -0.00028065983753435036 0.0
0.0015111143104708244 -0.0002630009763876437 0.0
0.0015536068120948867 -0.0002726125453611991 0.0
0.001557059584585603 -0.00025531767517481875 0.0
0.001601376010212845 -0.00026421334090408395 0.0
0.001596762078601719 -0.00028240702148866657 0.0
0.0016456376826578976 -0.000270964946958253 0.0
0.0018490142974462013 -0.00031271650393218905 0.0
0.0018032857663660546 -0.0003034834292191139 0.0
0.001755263517003891 -0.00031468374257210256 0.0
0.0017588260976547105 -0.00029482806890716634 0.0
0.00033455841235984185 -0.0001293771512184504 0.0
0.0004033129122636567 -0.0003195349495545749 0.0
0.00036871369116110085 -0.00028865284119340706 0.0
0.00035767648419853215 -0.00026224905832269123 0.0
0.000333487172436577 -0.0002567295102625783 0.0
0.001662030647022957 -0.0003878461855513705 0.0
0.002239359249908262 -0.0002671579241910569 0.0
0.002227335065431226 -0.0002917636179886078 0.0
0.0008461855124640055 0.0001728741793248597 0.0
0.0017588095449277078 -0.00016287803278544773 0.0
0.0017608702038150017 -0.00014787081819157672 0.0
0.0018399841412876819 0.00011188563205784097 0.0
0.0031274227638559446 -7.89117326674719e-5 0.0
0.003169531888411658 -5.79254939581627e-5 0.0
0.0031983278625207566 -4.82632440317675e-5 0.0
0.00011068746329800604 -4.2133900823604483e-5 0.0
0.00011379469055762096 -4.895132353203405e-5 0.0
0.00016146422491107826 -7.177510403536407e-5 0.0
0.00012019272328540067 -5.7320660282908644e-5 0.0
0.00016483878740907286 -8.112545670413788e-5 0.0
0.00012467627573376348 -6.545208634488462e-5 0.0
7.671414229331026e-5 -3.939009957483281e-5 0.0
0.0016172829125922724 -0.0003990976338630701 0.0
0.0007802172637062172 -0.00022049203980007784 0.0
0.0004635935366537546 -0.00035298365782566814 0.0
0.0012808958143982886 -0.0001906066004201076 0.0
0.002962984487401041 -0.0002578178057746888 0.0
0.0029325567205808487 -0.0002680663921074609 0.0
0.002506545009520925 -0.00030294034155430504 0.0
0.0025513733754765717 -0.00029704105893868114 0.0
0.002564114227781581 -0.0002715912307343938 0.0
0.00015623259469605102 1.7191917056131742e-5 0.0
0.0011671846488203286 -0.0006285517185902679 0.0
0.0008004739133708473 -0.0005259088773614999 0.0
0.00010314852022721262 -9.021619461897754e-5 0.0
0.0001409884830259841 -0.0001285514632586792 0.0
0.0006363291864578867 -0.00021379808545268363 0.0
0.002004604907080275 0.00012607700567517002 0.0
0.002067305850039597 0.00012341419344919446 0.0
0.002417818208695855 -0.0003306395562049407 0.0
0.0025201711140279102 -0.00032960862636920103 0.0
0.0010995491828014125 -0.0006122798720180396 0.0
0.0012307169971146126 -0.0006415057964046804 0.0
0.0012623950987600396 -0.0006348881596433295 0.0
0.002760545039012923 -0.00032406516139856775 0.0
0.0027412702989266444 -0.0003638398572382087 0.0
0.002695848668624516 -0.00040376366166254145 0.0
0.002989032108449605 -8.958860733844842e-5 0.0
0.0029444584178306135 -9.696302249908072e-5 0.0
0.002886546014900107 -0.00011838040506176321 0.0
0.0028946361350593937 -0.00010377059811070366 0.0
0.0005436233151602174 -0.0002070735099873742 0.0
0.002802562007222286 -0.00010894902725398034 0.0
0.0027427464633840827 -0.0001115904262434303 0.0
0.0019531514874273057 -0.0005294729526498386 0.0
0.00034247379774260216 -0.0002804684193152075 0.0
0.000311580672562823 -0.0002534066288237537 0.0
0.000299988463288795 -0.00022881439325446088 0.0
0.0002785800286723413 -0.00022377225803720403 0.0
0.003207617369466764 -4.010794260061204e-5 0.0
0.0031364569432706137 -4.487345606676054e-5 0.0
0.0031774764202459178 -3.0978887530600676e-5 0.0
0.002606947380133335 -0.0004649731175415183 0.0
0.0013274991629140817 -0.00028982425541836755 0.0
0.0027838466313135045 -0.0003309158287667098 0.0
0.002766939708820734 -0.0003691753811117016 0.0
0.0028066041493301774 -0.00033725813450662345 0.0
0.0027932827971703894 -0.0003771840966635252 0.0
0.0028340564624582455 -0.0003387918609543296 0.0
0.00284778987017797 -0.0003037158552070258 0.0
0.002871118158374493 -0.00030784599749592267 0.0
0.0015388309648737054 -0.0006895898733196679 0.0
0.0015075198330599387 -0.0007035823529661455 0.0
0.0014661625641606702 -0.0006834687251983559 0.0
0.001072095187325669 -0.00019829325119549972 0.0
8.883320411905423e-5 -5.005647292564826e-5 0.0
0.00012863467011154544 -7.399998360815103e-5 0.0
9.328967429560005e-5 -5.7022387364870226e-5 0.0
0.001074216548873898 -0.0006234985401779714 0.0
0.001037988929567458 -0.000597731897434387 0.0
0.003084195243041888 -0.00017157681408238427 0.0
0.0002560488239174534 4.18224288022097e-5 0.0
0.0017124754117689676 -0.00030770727794987573 0.0
0.00171775974440027 -0.0002871784793208605 0.0
0.002982054322582247 1.430138338353615e-5 0.0
0.003076632303135753 7.90101472604649e-6 0.0
0.0027777932234877185 -0.00025080582580679626 0.0
0.0005718079617818459 -0.0003911724150579029 0.0
0.0005830969163197204 -0.0004208262837910829 0.0
0.0023580576347441906 -0.0003475170109945507 0.0
0.0023921815410107294 8.23767700917054e-5 0.0
0.0031495502119842137 -0.00012276734282783199 0.0
0.003193928260448692 -8.34938228592753e-5 0.0
0.003211374269840757 -6.161332437071053e-5 0.0
0.0023136670780449287 0.00010927441574040595 0.0
0.0026941310619719655 -0.0002498865637227344 0.0
0.0014713419738707062 -0.0006063775220218744 0.0
0.002776716914482588 -0.00014651998270006974 0.0
0.002603769864413403 -0.00028254773201777947 0.0
0.0010012666680658264 -0.0004117678822467609 0.0
0.0005859564660442337 -0.00036553834799451 0.0
0.003038264096297364 -7.891715375991394e-5 0.0
0.0025128144148928223 0.00012647687450534305 0.0
0.0010388849578147495 -0.0006242733732624925 0.0
0.0004834110310034622 -0.00018612163268614504 0.0
0.0017480299003352065 -0.00018113688745833502 0.0
0.0025551130412263283 -0.00045346288051981593 0.0
0.002543888800279031 -0.0004909258408796065 0.0
6.989740329763529e-5 -5.962357944782301e-5 0.0
0.0019829161545960377 -0.0006487961546783077 0.0
0.0019704525025578 -0.0006776632652877708 0.0
0.0012619873837588847 -0.000666601236560526 0.0
0.0012953721790037154 -0.0006562706846577562 0.0
0.001293691457956334 -0.0006274300046592305 0.0
0.0013272217329154837 -0.0006474620609522446 0.0
0.0012961579177972625 -0.0006804830554032838 0.0
0.0011061105462390173 -7.382985180529297e-5 0.0
0.0010409411248759376 -5.6555797031768455e-5 0.0
0.00045192762726218504 -7.416742472557201e-5 0.0
0.0009417803448284488 0.0002130369104697688 0.0
0.000939425049178885 0.00019828533169475007 0.0
0.0019794039990297715 9.980271468632588e-5 0.0
0.0024824769218855258 -0.000524487227303107 0.0
0.002445898888639708 -0.0005540449154249679 0.0
0.00028691112471353365 -0.00024813214304785267 0.0
0.0002548935035707636 -0.00021624233633030728 0.0
0.0031930517660206568 -3.0705726699004356e-5 0.0
0.0005296683765811237 -0.0002443490919416904 0.0
0.00047837961289607956 -0.0002219008436971464 0.0
0.0029699101789625692 9.232964480738346e-5 0.0
0.003043961394259058 -0.00018515074085369556 0.0
0.0030243047821468133 -0.00022221833703909606 0.0
0.0018013508295622819 -0.00018697412278284947 0.0
0.0020580919569995757 -0.000659244827854646 0.0
0.002017571655162226 -0.0006868872039912294 0.0
0.0009185481531698689 -0.0002812056785755686 0.0
0.0009229663318654988 -0.00026097031051326215 0.0
0.0013273151446439792 -0.0006192600775176007 0.0
0.0027928753956716853 -0.0002818684209147794 0.0
0.0016045469291399073 -0.0002466671930935628 0.0
0.0015639937600159144 -0.00023788996242248676 0.0
8.507175136686945e-5 -7.894864965956181e-5 0.0
0.000915762890370138 0.0003305054888449383 0.0
0.001466851730298058 -0.00025207985697083424 0.0
0.000985489306226341 -8.25926093946427e-5 0.0
0.0009930833557381192 -0.0001036045077331519 0.0
0.0005980874267712299 -7.301991093530114e-5 0.0
0.0020284580169017343 -0.00015853864371046002 0.0
0.0013316524887181744 -0.00018441992029172863 0.0
0.0013344093127477506 -0.00016759172459108516 0.0
0.0013824471835508975 -0.00017858433541728924 0.0
0.001384117800372779 -0.00016274969989069052 0.0
0.0014301797913102176 -0.00017167360189709196 0.0
0.0014324918133932995 -0.00015682847526007345 0.0
0.0013853997918506652 -0.0001475363703672278 0.0
0.0014342086558929233 -0.00014180369852775362 0.0
0.0013872652548309644 -0.00013286079036573865 0.0
0.0014367681456478167 -0.00012735090675757867 0.0
0.0014755576715092245 -0.00016537730256262757 0.0
0.00012505392707280513 -3.949852182508504e-6 0.0
0.0019595137961795715 -0.0001927135650827826 0.0
0.0013378370499948253 -0.0002718757589983982 0.0
0.0012955070855764739 0.00011272149190110814 0.0
0.0013860367586975017 8.105389055948999e-5 0.0
0.0013889876007854667 4.833735639963379e-5 0.0
0.0013636936335020943 0.00012345841148548984 0.0
0.0013262631360042203 4.308424068936052e-5 0.0
0.0014028961897162066 2.309281770364903e-5 0.0
0.0014748745741302615 2.324123957382538e-5 0.0
0.0014403064460643549 0.00010035629163721545 0.0
0.00020668335796950193 -9.57621307085427e-5 0.0
0.00021269081762133609 -0.00010807771887456505 0.0
0.0031926187690559747 1.5970497993285587e-5 0.0
0.0030878581727422695 3.5616193148009264e-5 0.0
0.003081266629539423 4.3118581399540134e-5 0.0
0.002382643576659523 -0.0005773373351484078 0.0
0.0023387423741536286 -0.0006051853259012027 0.0
0.0008438370795288223 -0.0004277609761278236 0.0
0.000875243577535221 -0.00042507403971525436 0.0
0.0008119504501361468 -0.000428945255447819 0.0
0.0009282918847143363 -9.110386772162544e-5 0.0
0.001455014394586403 5.004802039194627e-5 0.0
0.001485495516502697 -0.00013560681520361116 0.0
0.0014846587706019059 -0.00012100185475471166 0.0
0.0014384932981751346 -0.00011304568915177654 0.0
0.0014850357463988397 -0.00010779924416794864 0.0
0.0014424691585995396 -9.948783896333723e-5 0.0
0.0008706974979954171 -0.000534433284618998 0.0
0.0031834487419437184 2.575279002216268e-5 0.0
0.0013636639303782848 0.0001508970921735609 0.0
0.0019015020224052008 9.801947915785619e-5 0.0
0.001907774519494378 7.060593233067447e-5 0.0
0.0018310516766538235 6.180922164749726e-5 0.0
0.0009692571145199662 0.0001506429425466709 0.0
0.0012045679119310456 0.00017686629972079758 0.0
0.001137714614188007 0.00018781341157910643 0.0
0.0010973566366413196 0.00019596725307132297 0.0
0.0021348069800313303 7.085477552106848e-5 0.0
0.002650805014004848 -0.0004332919495211252 0.0
0.002631298713331321 -0.0004777525064932506 0.0
0.0008310492760597588 -0.0005498766205421336 0.0
0.0013604548517855862 -0.0006392153657621281 0.0
0.0013613537774145085 -0.0006668536876337246 0.0
0.0013927217616568832 -0.0006585349456881025 0.0
0.0013979000287736348 -0.0006897475352594397 0.0
0.002308682208274539 0.00010627890366834305 0.0
0.0022434507731670357 9.258341092004538e-5 0.0
0.0023315158072522153 8.783307523418826e-5 0.0
0.0024006082164819554 9.85974866119486e-5 0.0
0.001766364685809666 -0.0002761505708292903 0.0
0.0017298895891578686 -0.0002672857884612414 0.0
0.0014267075688434877 -0.0006764631298607231 0.0
0.0009606338385453196 -0.0001687513802669708 0.0
5.657830876045858e-5 -4.4556409850188576e-5 0.0
0.0013341879293726458 -1.3899775013411966e-5 0.0
0.0013973517709868822 -3.07754094651857e-5 0.0
0.0013992861705555395 -4.9213056384224775e-5 0.0
0.00145927851151723 -4.413411874663112e-5 0.0
0.0014571849796146971 -5.930001687240976e-5 0.0
0.0014577583452112304 -2.8355177436064795e-5 0.0
0.0014069793612178996 -6.474861931461882e-5 0.0
0.0014566801010845337 -7.341220350194421e-5 0.0
0.0015150186379142266 -3.919331233045154e-5 0.0
0.0021575965192851825 9.592671662673838e-5 0.0
0.0014110059968572475 -7.976393765524235e-5 0.0
0.0032307180359427597 -1.5687557536515784e-6 0.0
0.0012282310766067305 -0.00019798717652888564 0.0
0.001523756772002168 -0.0005722801471230707 0.0
0.0015639040565614984 -0.0005618798553444382 0.0
0.001399981277735932 -1.2439864148906411e-5 0.0
0.001465011973894785 -1.2178325123035811e-5 0.0
0.0018585381183616233 -0.00029310108447177087 0.0
0.0023338113775181434 -0.0005132583504325632 0.0
0.002293008595102917 -0.0005449117993942834 0.0
0.0022838711207289696 -0.000582267785321966 0.0
0.0022556969884641167 -0.0005753447232910352 0.0
0.0022490738839345574 -0.0006097698542051336 0.0
0.0022189674508365153 -0.0006050095361262203 0.0
0.0027031605829254484 -2.505687172996486e-5 0.0
0.0026463895657576897 -4.847279471745497e-5 0.0
0.0026732058758044785 -6.670756129236495e-5 0.0
0.0025900636973649276 -7.366675184466489e-5 0.0
0.0026141219918121242 -9.192910724423687e-5 0.0
0.002531605917209791 -0.00010035420077720653 0.0
0.0025570382805206867 -0.00011845822506448935 0.0
0.0025058581696382667 -8.13559867434176e-5 0.0
0.002449484995407826 -0.00010832557281689813 0.0
0.0026349167885457284 -0.00010928690890815193 0.0
0.002422438901368775 -8.968010074947268e-5 0.0
0.0025773556466751634 -0.00013574104407561093 0.0
0.002504049938275971 -0.00014496357116767014 0.0
0.0025210445297857986 -0.00016236040471926796 0.0
0.0024796192897243753 -6.329163108139325e-5 0.0
0.0026157800876351876 -2.8969385884277562e-5 0.0
0.0026537351478145405 -0.00012683897273610168 0.0
0.0027610548244374326 -6.305661058485205e-5 0.0
0.002705853745741541 -0.00010117700175974224 0.0
0.0017702873995890315 -1.4337471346290837e-5 0.0
0.0011805456420651826 0.00018256744452202508 0.0
0.00017543427380283677 -9.534864542990728e-5 0.0
0.00016433310453680194 -0.00014080962787034948 0.0
0.0001982282136778624 -0.00017367118884162896 0.0
0.001424850457209476 -0.0006492900008438057 0.0
0.0019090659860055777 -0.0003038845806407423 0.0
0.001832275006508516 -6.679000511610089e-5 0.0
0.0017706746454428707 -7.851086215016122e-5 0.0
0.0017814652384673653 -6.370255027496703e-5 0.0
0.00177199490003867 -9.383762701594022e-5 0.0
0.00182408195107794 -9.975243622109061e-5 0.0
0.0017671743886129414 -0.00010962359976335021 0.0
0.0017611720830646937 -0.0001245563581432929 0.0
0.0017179408027735608 -0.0001178466260212478 0.0
0.00021517111307443426 -0.00016623658654200423 0.0
0.002049640481530046 -1.0075448100308074e-5 0.0
0.0024978813076933296 4.7319841740414646e-5 0.0
0.0023956661771240132 5.068132825088814e-5 0.0
0.00013054899022473765 2.4468233345737454e-5 0.0
0.00027386906271812495 5.799100374335275e-5 0.0
0.00025411050730616105 4.8811849622742987e-5 0.0
0.002089510999403562 -6.608172897666632e-5 0.0
0.00027724056286344216 -0.00019553062053989775 0.0
0.00032119003563518925 -0.00023073933831143815 0.0
0.0003482604329431727 -0.00023919405468114937 0.0
0.00034444529115221527 -0.00021919428024875183 0.0
0.0003727221328620007 -0.0002219255644280925 0.0
0.001338095913614963 -9.321064911492407e-5 0.0
0.00015391128550241398 1.077419179222367e-5 0.0
0.00064224534257342 -0.00017872674676006498 0.0
0.0005276206439706609 -0.0001694173300231009 0.0
0.0014633329210534689 5.228912700048526e-6 0.0
0.00038324679901772764 0.0001318080109563105 0.0
0.002249176687147412 -0.0005329475719682785 0.0
0.001970497074448622 -3.161112187843156e-5 0.0
0.003108325420204762 -0.0001629551470685014 0.0
0.002479067010536644 -0.00012659172307450534 0.0
0.0023981553284877534 -0.00013459053127804225 0.0
0.0023112740744489673 -0.0005934601696617739 0.0
0.0032370211315560955 -4.9922538479790985e-6 0.0
0.0031745717412356668 -1.3381054070777843e-5 0.0
0.0031870426322908835 -1.7588369224991816e-5 0.0
0.003164103426410817 -7.546713686807361e-6 0.0
0.003115146046892957 -2.536000120568222e-5 0.0
0.0031559252080218146 -1.0245412173614442e-6 0.0
0.0030825238789830294 -7.624961023318861e-6 0.0
0.003097366257538326 -1.7243224555477505e-5 0.0
3.762252559218706e-5 -1.843886800828557e-5 0.0
0.003260165597638671 -1.3840233599417389e-5 0.0
0.0032161598079100775 -2.705441050384922e-5 0.0
0.0032429555106038756 -1.4824834930702105e-5 0.0
0.003220037484350203 -2.8939583226403606e-5 0.0
0.0019295406783610281 4.793445949038851e-5 0.0
0.0024216844824922167 -0.0005418960482690474 0.0
2.958772813674952e-5 -1.926721553903634e-5 0.0
0.0032691376674390637 -1.524846843697962e-5 0.0
0.0010754907145326489 0.0001257108931333914 0.0
0.0026334506597982 1.7088066893602612e-5 0.0
0.0009021412333359947 -2.4092792604712414e-6 0.0
0.0009755760788128086 5.951305397146546e-6 0.0
0.0009739731288268017 3.525604616274531e-5 0.0
0.0009751012574329645 -1.9741622599221364e-5 0.0
0.0010381095490344108 -1.4832634933793689e-5 0.0
0.0010550010217974205 1.001547331312905e-5 0.0
0.001049035033540825 4.068632824366204e-5 0.0
0.0009773039925678228 6.317322288329019e-5 0.0
0.0009146295673204281 8.837171240132037e-5 0.0
0.0009110726235744256 -3.3418908057871196e-5 0.0
0.0027304183879994976 -0.000400636051618226 0.0
0.0032286854747624262 5.9360015242145725e-6 0.0
0.0013293915593645311 -0.0005913779811573656 0.0
0.00044267482781485334 -0.0003554508470701294 0.0
0.0014623601084587654 -0.0005801024353555858 0.0
0.0011305368175389585 -0.0006065304526286655 0.0
0.0011329399460325489 -0.0006346838177126834 0.0
0.0015334894822261215 -0.0001148278640549855 0.0
0.0020922399209545766 -0.00011194928626375411 0.0
0.0028345576653064763 9.063423672461059e-5 0.0
0.0028760148633652184 7.574572403199334e-5 0.0
0.0027865378405388295 7.936755632948618e-5 0.0
0.00020727516149925942 -8.668103082076424e-5 0.0
0.0004135500683965709 -0.0003458866518700086 0.0
0.0010774360617342858 0.0002428537606766284 0.0
0.0009699986216270494 0.0002409797317697031 0.0
0.002365450954543448 5.171230805879628e-5 0.0
0.0012090912911382574 0.00017386277907447005 0.0
0.002959847361694408 -0.00019801015305044359 0.0
0.001449055482399953 -0.0004872227904347239 0.0
0.0022526204805140707 4.948222782650289e-5 0.0
0.002312129371542712 7.736904399751223e-5 0.0
0.0009982251007413213 0.00010622360026298481 0.0
0.000805956555733205 -0.0005550744709038543 0.0
0.00293726419300234 -0.0002371625973533033 0.0
0.0004884403017155487 -0.00035553393252362554 0.0
0.000517907085962979 -0.0003806235238381081 0.0
0.0005024211861380161 -0.00038812390640091394 0.0
0.0007654639741671897 -0.00017967091372241226 0.0
0.001806748149725572 -0.00013483396333128977 0.0
0.002030141424201198 -8.617891511079138e-5 0.0
0.0012279382885205408 -0.00014134216834462825 0.0
0.0012829805320674944 -0.00015519913909578262 0.0
0.00315787513475805 3.6346455070632775e-5 0.0
0.0029964381127965947 7.123111408248323e-5 0.0
0.00014797233929777852 3.570011443133912e-5 0.0
3.73876294071979e-5 -2.0148452203053754e-5 0.0
0.001479752761455807 -0.00015038376191793039 0.0
4.935687953035185e-5 -1.2252367220117091e-5 0.0
0.00011893253038368058 -2.540996602125308e-5 0.0
0.0014452348078200171 -0.000558020928319618 0.0
0.0020754408048023385 7.771380526709085e-5 0.0
0.0012482767106049449 0.00017012845233016266 0.0
0.002003361724643172 -0.0002949399537198135 0.0
0.0014942666663496434 -9.444128478895475e-5 0.0
0.002620556841667253 -0.00024104233288673504 0.0
0.0030680283266886097 -0.00015015188333218445 0.0
0.0009639777240978792 -0.0004149827957028391 0.0
0.0009680797685552799 -0.00043993997870956205 0.0
0.0009289203690771904 -0.00041521471725217965 0.0
0.0008884926741536107 -0.00039081354531009997 0.0
3.0375335714239014e-5 -2.140385601166467e-5 0.0
5.690324568589139e-5 -4.118456284358423e-5 0.0
6.367224204128714e-5 -4.2333901326929944e-5 0.0
0.0008294856584434171 -0.00028234385826874145 0.0
0.0007850778996263103 -0.0002841327480508573 0.0
0.003263032877725932 -1.4403426852625358e-5 0.0
0.0017456481550807003 -0.0007065022568645003 0.0
0.0017135012570466443 -0.0006895372594840792 0.0
0.0017117098026087482 -0.0007208887759981683 0.0
0.0016794155872415807 -0.0007036736335181559 0.0
0.001644539845200995 -0.0007163147271891214 0.0
0.0016427563372423007 -0.0006854023271221116 0.0
0.0017144013341017265 -0.0006583288687012529 0.0
0.002242956693316075 8.45785240122205e-5 0.0
0.0003810142898201158 -5.4394386517974705e-5 0.0
0.0004442219212720466 -9.242411530772177e-5 0.0
0.00038631707781082355 -9.132942195876259e-5 0.0
0.002057104549723108 -0.0002818581681876161 0.0
0.0006998960114770276 0.00019023180058480165 0.0
0.0016368792400838956 -0.0002908895584153282 0.0
5.0335819142226887e-5 -1.895982510280912e-5 0.0
0.0010080165754035887 -0.0005997490344023975 0.0
0.0009756700348693418 -0.0005978815432829762 0.0
0.0009815277257557143 -0.0005751344379987489 0.0
0.0011269887262186523 -0.000578469964627099 0.0
0.0009643310739202645 -0.00038740404524298416 0.0
0.0004302004295507771 -0.00017724451193798236 0.0
0.0002534226626375266 -0.00013407857235497652 0.0
0.0032462179940872006 -9.565593135730473e-6 0.0
0.003200070272532251 -1.9728209952135475e-5 0.0
0.0006379719023402157 -0.00044671163614725404 0.0
0.0007658849957521941 -0.0004989190147404593 0.0
0.000737487446884122 -0.0005013679795464851 0.0
0.0007017512589365894 -0.00047379429440492235 0.0
0.0007074779048541951 -0.0005015165692542371 0.0
0.0019521167576423701 9.391598103674054e-5 0.0
0.0013461317416583534 0.00015683969104993836 0.0
0.002095345177025054 -0.000635684038886854 0.0
0.002122251538556651 -0.0006483531470331138 0.0
0.0021575509229592262 -0.0006241318914250562 0.0
0.002081902153578739 -0.0006770009059116961 0.0
0.001041436832249689 -0.0004132889528208209 0.0
0.0018456775095171249 -0.0005239462394244991 0.0
0.001238713981852954 0.00017476937349116927 0.0
0.0013373866901497489 -5.780897787708547e-5 0.0
0.0032704486226744207 -1.642550480914108e-5 0.0
0.0032425263767590757 -3.369551760600265e-5 0.0
0.0032307308097820355 -3.573995029271122e-5 0.0
0.0006731328956682921 -0.0004744111597261104 0.0
0.0006457161697541972 -0.00047365567296459477 0.0
0.000969272185191098 -5.722829659965288e-5 0.0
0.000853129361073739 -0.0003949188686316146 0.0
0.0030509017000226657 -0.00011223020448311875 0.0
0.002486898340803804 0.0001017337464285337 0.0
0.001469405290280202 -0.00018032931230819148 0.0
0.0015140174445910527 -0.00017271864809787128 0.0
0.001949930284714818 0.00012558254233154204 0.0
0.002390478598403373 -0.0004480779963944364 0.0
0.0014091132556108491 -0.0004957470619373828 0.0
0.0014109066907160679 -0.0005216324885687989 0.0
0.00035827597859128924 6.50413871804513e-5 0.0
0.0007824876691362083 -0.0003968307026371823 0.0
0.0007467417439722436 -0.00039391763898706116 0.0
0.0007070420695746758 -0.000368313275380022 0.0
0.0007121607363968233 -0.0003934153303998185 0.0
0.0006007375251832734 -5.002293523742144e-5 0.0
0.0006037768776789851 -2.5993377795432806e-5 0.0
0.000673342708786618 -9.602142585851412e-5 0.0
0.0021115855165351506 -0.0006868435210480625 0.0
0.0020542810932022643 -0.0005159417211493282 0.0
0.0020086571392952924 -0.0005383639846431262 0.0
0.0020474476808498405 -0.0005512893365276477 0.0
0.0020023436992138914 -0.0005744910130184148 0.0
0.00202914155952986 -0.0005846487901035762 0.0
0.0020903925981127875 -0.0005230800057951715 0.0
0.002123941203403831 -0.0005275643060092724 0.0
2.5823127187899633e-5 -2.1248737298736215e-5 0.0
0.0032750309136484984 -1.7971185476805618e-5 0.0
0.002672244430369315 -0.00039088607572473335 0.0
0.001912573288110417 -0.0006845064011555398 0.0
0.003030507697397955 6.328858474365681e-5 0.0
0.001851952981628875 -0.0006573035894468431 0.0
0.0018452461335827363 -0.0006890764402394803 0.0
0.0024505300547951006 -0.0003004985917525395 0.0
0.00219769983097475 -0.00024068225610380362 0.0
0.002152175776208298 -0.00023533772643094243 0.0
0.0010237089928790426 -0.0005408039441176459 0.0
0.0006017503116789315 -0.0003391141406048688 0.0
0.002445583585476107 -0.00017360496119385376 0.0
0.002562795844994493 -0.00041585285888760186 0.0
0.0011267071649978307 -0.00032761355653572943 0.0
0.0011684140982564928 -0.00032293987943259587 0.0
0.0011666422726533442 -0.0003448253984386376 0.0
0.0011713614529123837 -0.0003018496212329895 0.0
0.001125326114809494 -0.0003497556587727998 0.0
0.0012091157676730683 -0.000320284176414828 0.0
0.0012146983814601087 -0.00030065027292760404 0.0
0.0012259562643333248 -0.00027909629912433993 0.0
0.0024334990486354143 0.00013316792070286644 0.0
0.0002746953078628559 6.395398993460055e-5 0.0
0.0023682122919476798 -0.00011661264494757412 0.0
0.002569210309114336 -0.0002503169647753915 0.0
0.0005125418361099817 0.000145269426701979 0.0
0.00046036200209875365 -1.195091966670112e-5 0.0
0.0006748458985193923 -4.660744064819435e-5 0.0
0.0005281884735173138 -0.0003095163821825327 0.0
0.0011265931981296693 -0.0002851232521694241 0.0
0.0008760670551320643 -0.00024061897380800104 0.0
0.0009365271602688614 -0.00024085959052081056 0.0
0.0009747079029329593 -0.0002629465892203869 0.0
0.001571272479061751 -0.0006792226105927483 0.0
0.0016081817147678204 -0.0006974845583124113 0.0
0.0016079188457483453 -0.0007312792406271391 0.0
0.0016430658084944886 -0.0006551035913294073 0.0
0.0025157951412604768 -0.0004429585110145167 0.0
0.0011745153465429659 -0.00018560987521768478 0.0
0.0023839868940460714 -0.0002735690102048543 0.0
0.0011234665671008776 -0.0005509886092407983 0.0
0.0017153803603021068 -0.0006278766025909356 0.0
0.0011955170367852859 -0.0006511479261245527 0.0
0.003021507391888932 -1.0401867967877099e-7 0.0
0.0015933850758925938 -0.0003013304808098756 0.0
0.00038247607045988654 -0.00015266887562823754 0.0
0.0012114586777448586 -0.0004559292549273557 0.0
0.0012509870310182243 -0.00047493130450970694 0.0
0.0011301749036222008 -0.0004181123234517116 0.0
0.0012268953120976262 -0.00058624901236645 0.0
0.0019198698455848554 -0.00039807193319799333 0.0
0.00187125130157336 -0.000413969327465973 0.0
0.0019134723555533854 -0.0004237386633797316 0.0
0.00234070726058659 -9.843593694877607e-5 0.0
0.0014486620837474977 -0.00046234790308692083 0.0
0.001046781356384923 -0.0003800398978685017 0.0
0.001856734083455056 -0.00017643862470506722 0.0
0.0018469306844308274 -0.00019463381716562392 0.0
0.00041536731305617125 -0.0002485898178569805 0.0
0.0008652740470757833 -0.0005077787741842636 0.0
0.0021696181812374347 -0.0005853009619643151 0.0
0.0018349992087687782 -5.173814765369938e-5 0.0
0.0016892854042898794 -0.0005000005028699859 0.0
0.0016471098213084036 -0.0005125947114053517 0.0
0.0016450830105001631 -0.0005402760307365245 0.0
0.0016055133607094697 -0.0005242645339045802 0.0
0.00160468537916805 -0.000552035731008553 0.0
0.0016837634267161908 -0.000555182149553889 0.0
0.001981169273175532 -5.996021568817038e-6 0.0
0.0013261955142483102 -0.00039371883086019194 0.0
0.0012868352887400176 -0.0004003891146835528 0.0
0.0018338687207881546 -0.0003793549338075499 0.0
0.0010895681952017996 -0.0004215328666790584 0.0
0.0018108249316296028 -0.0007055701263745548 0.0
0.001368193728693975 -0.00047870430732535987 0.0
0.001607659712281898 -0.0004976540806370682 0.0
0.0022747444247503256 -0.0006203764089330324 0.0
0.0014600043667936785 -0.00030782670967893273 0.0
0.003099787062605228 -6.0845693370421006e-5 0.0
0.0016147889255353094 -0.0004226379928479149 0.0
0.000731589956875365 -0.00030020868342226154 0.0
0.0014429855573332916 0.00014100141145230091 0.0
0.0022685855482645037 -0.0004962134593540882 0.0
0.0029648405625517147 6.68742761062287e-5 0.0
0.0004801121578546267 3.171743607107524e-5 0.0
0.0004992697080919933 5.211309494223187e-5 0.0
0.0005531814379407931 2.1024125297875056e-5 0.0
0.0005860293584975375 4.59689831145135e-5 0.0
0.0006412527853612421 2.886116529466067e-5 0.0
0.00231851796821651 -0.00014269881327145517 0.0
0.0013302696271874554 -0.000678784193789879 0.0
0.0015050319722360805 -0.0002998280493288657 0.0
9.695557929185556e-5 -2.691657681374481e-5 0.0
0.0011269299395973706 0.00019702952566718173 0.0
0.001046201859711964 0.00020691685757746398 0.0
0.00218798384030907 7.68831409828415e-5 0.0
0.001293913526453763 -0.0005717928025872807 0.0
0.0014734494683740539 -0.0006565004734260528 0.0
0.0012835028299449799 -0.000209607239734465 0.0
0.0017909595419747994 -0.0003696397042437582 0.0
0.0017443251919918373 -0.00035843609854525064 0.0
0.0017524546957696982 -0.00033482309190285944 0.0
0.0018494263378587086 4.216657539739915e-5 0.0
0.0012165243997756398 -0.0004812941508765224 0.0
0.0008274787329109834 -0.00022018375086638308 0.0
0.0012427994934095046 -0.00035996438244325843 0.0
0.00016913020647934868 -0.00010008402983633693 0.0
0.0017090429604445466 -0.00017105761604726942 0.0
0.000694122143733468 -0.00044576346728677965 0.0
0.001707145366443911 -0.0003755319926671756 0.0
0.0010309973435182695 -0.000568856284442995 0.0
0.0022954130011330273 -0.00024575424430275087 0.0
0.0015386582886606896 -0.0003742596365317549 0.0
0.0015650194594869409 -0.0005350992395992773 0.0
0.0028743812039117318 -0.0001867060795796502 0.0
0.0006137952007812984 -0.0004462683324399352 0.0
0.00313507177469205 -0.0001536776091985332 0.0
0.0012812534786873955 -0.00028769487813367717 0.0
0.0015331320531388121 -0.0004199040160696357 0.0
0.00028442628240406704 -0.00010624348265550137 0.0
0.00287855299204817 -0.00013374080756184943 0.0
0.0017968265136561181 -0.0005682985844570926 0.0
9.711762994336058e-5 -3.221712039738219e-5 0.0
0.0016516300503188342 -0.0002370543231214811 0.0
0.0016491334724634073 -0.0002528995707332218 0.0
0.003081858915857458 -3.782966927634272e-5 0.0
0.001779128061545835 -0.0007219195863947418 0.0
0.000569416740243696 -0.00033703408134516053 0.0
0.003181942674515512 -6.205454787212515e-5 0.0
0.001707773990501336 -0.0003259200707133661 0.0
0.0015823699966481775 -0.00036482657489299585 0.0
0.0019801078698979476 -0.0004994995180116964 0.0
0.0019388031809344445 -0.0004895003548543145 0.0
0.0018099541094591194 -0.0005111934300629408 0.0
0.001502262644803832 -0.0003199473154383727 0.0
0.0018519535496416644 -0.0007388140877582356 0.0
0.0019895011023686013 -0.0007249616884611272 0.0
0.00141999851471101 -0.000720008612370081 0.0
0.001528408201529582 -0.0007325916209661846 0.0
0.002191206015582151 -0.0006773299037583374 0.0
0.002182480613921756 -0.0006406644189633232 0.0
0.0011373265122497267 -0.0006615806218101483 0.0
0.0008998291310750861 -0.0005941359358147177 0.0
0.0019208274548311146 -0.0007333611751359282 0.0
0.0012110830622509053 -0.0006822947248506473 0.0
0.0013601112049079918 -0.00025513189997441554 0.0
0.0028204001183943107 -8.884818041854659e-5 0.0
0.0023004203603469225 -0.0003739750804124288 0.0
0.0022824919215147657 -0.0004014066405173414 0.0
0.001166367927319231 -0.000368476292393607 0.0
0.0019816216781702927 -0.0003346861183064334 0.0
0.001569172854362212 -0.0005885362332098336 0.0
0.0008169224496094726 -0.0004687019860580254 0.0
0.0006108690588445392 -0.0002722216686564904 0.0
0.0013681978770078004 -0.00036444191495828195 0.0
0.002882049906830589 2.201018898831849e-5 0.0
0.001122300984558645 2.0000144105890864e-5 0.0
0.0015506541709930512 -0.0002912822410317164 0.0
0.0018295876844330449 -0.00040519467715774724 0.0
0.00022307437982197004 -0.00018660278391748807 0.0
0.00023145080051753064 -0.00020817230417330843 0.0
0.001368224988918565 -0.0005297561286694614 0.0
0.0011502765701148956 -0.0004936839118737389 0.0
0.0016561959193422426 -0.00043524508677705555 0.0
0.0030570295154674952 5.3215098095807015e-5 0.0
0.001749799741461521 -0.000643406381166524 0.0
0.00323672429445005 -4.8431235470900344e-5 0.0
0.003213805279342529 -7.55549427425065e-5 0.0
0.0008991533075754667 -0.00015245074545740952 0.0
0.0014099086501174324 -0.00040045756443423037 0.0
0.0014885599321960519 -0.0004779087987145007 0.0
0.0031431842910806538 1.1155729675054805e-5 0.0
0.001540581906900802 2.7950254828513744e-5 0.0
0.002165519831907641 -0.0005059779982859251 0.0
0.002236214865942938 -0.0004243952519584893 0.0
0.0008831875897154645 -0.0005643078603882731 0.0
0.002054924583372539 -0.0003975477287479437 0.0
0.0014113014514998338 -0.0003567910042271784 0.0
0.002155811744862865 -0.00035954780912870115 0.0
0.00214502618535709 -0.00038532831563406147 0.0
0.0022065889214405283 -0.000339932368122922 0.0
0.0007397618480643093 -0.0005296549247930002 0.0
0.0025757041245978596 -6.261055485594599e-6 0.0
0.0018744263246204941 -0.0007070600808741877 0.0
0.0026680684930420477 -0.0004458447946514149 0.0
0.002432208151462551 -0.0002738554971532514 0.0
0.001570683565095666 -0.0002212320024747507 0.0
0.001998670503683246 -0.0006111149588875119 0.0
0.0012544486528393984 -0.0005001318381263673 0.0
0.001316749397217602 -0.00030728081332161166 0.0
0.0030460695139290857 -2.959230547425411e-5 0.0
0.000697114708817116 -0.00020012230037201714 0.0
0.002340899305001582 -0.00016023828542993185 0.0
0.001552788697114528 -0.00014565251172383236 0.0
0.0020258695983340308 -0.00034102056165517325 0.0
0.0029189110278658964 -8.459209758224536e-5 0.0
0.00025230000237097034 -0.00011067357659371273 0.0
0.0023438939467198363 -0.0004072236678154525 0.0
0.0017674291673412102 -3.147047216955753e-5 0.0
0.0017514432920597458 -4.684828108579268e-5 0.0
0.0019342334195866534 -0.0005881281442834204 0.0
0.0017807389813341787 -0.00044591819454779965 0.0
0.001830365000623366 -0.0005814923012899895 0.0
0.0023776688111504045 -0.0004838303060718393 0.0
0.002402117903915182 -3.95615483801506e-5 0.0
0.0015526685458525482 1.2136753569868795e-5 0.0
0.0021578401035192104 0.0001368671409171904 0.0
0.0028116168246793004 -0.00024612994523901167 0.0
0.0028265987650086906 -0.0002185355824000208 0.0
0.0015522646642946029 -8.51897825090196e-5 0.0
0.0010461235802068072 -0.00048246556357272805 0.0
0.002114419799562506 0.0001041704653135288 0.0
0.0015558660776283924 -1.6365556707562868e-5 0.0
0.0020448996280284897 -0.0004238403548631504 0.0
0.003187709273808734 -7.17117488177456e-5 0.0
0.0005409630519767296 -0.0003602296448091207 0.0
0.0019763852948451103 -0.00020985825207663124 0.0
0.0015575604368973386 -4.9921452297128894e-5 0.0
0.001552038601345926 -7.43316929384019e-5 0.0
0.0005493656070578419 -5.7709770769590875e-6 0.0
0.0028598268721331684 9.416284638506629e-5 0.0
0.0016708589003096015 -0.00015097590785712837 0.0
0.0029132891532689968 -0.00017928370919620493 0.0
0.0010076734366048525 -0.0004610434927460671 0.0
0.0024700821596880334 -0.0005681964062949101 0.0
0.0025374286975416807 -0.0005439563173108473 0.0
0.0009150726124039257 -0.00047280460695297655 0.0
0.0021203786372417455 -0.00043769044453325034 0.0
0.0013844410019547382 -0.0007151931217261933 0.0
0.002030200540455964 -0.00012815914271285147 0.0
0.000588794566967298 -0.0004600763945340306 0.0
0.001689532127721241 -6.707023055436982e-5 0.0
0.001753509003035656 -0.00019788031705747164 0.0
0.00172060131458469 -8.818132198773972e-5 0.0
0.0018666484286005104 -0.0004406228419712158 0.0
0.002267843103485756 -0.00042865596760687685 0.0
8.09312613496284e-5 -8.330338416758414e-5 0.0
0.00013919209913992964 -0.0001398312055143791 0.0
0.00016675901954137359 -0.00016520230950366514 0.0
0.0030316198670926734 -0.00024278116151797339 0.0
0.00022386665684684417 -0.00021653712521873552 0.0
0.0009368508874145275 -0.00044184090994499943 0.0
0.0004229014647304724 5.4172068187901576e-5 0.0
0.0027014236628572475 -0.00046166443887938593 0.0
0.0004990938739507043 -0.00040865073583118725 0.0
0.000559759226506141 -0.00044428641375633264 0.0
0.0029983043096457355 -0.00026705390532082125 0.0
0.002932352539317238 -0.0003174229941430971 0.0
0.0017374363930350183 -0.00024957995945933126 0.0
0.00126036729448473 -0.0006075512849016933 0.0
0.002390475533590372 -6.871756882720202e-5 0.0
0.002767434590814238 -0.00042164497803317093 0.0
0.0028006016821936846 -0.00040260742792342036 0.0
0.0004408081206454028 -0.0003756125246187448 0.0
0.0003068762256126702 -0.0002807399654910587 0.0
0.0028672648627289152 -0.0003602357007806202 0.0
0.002894306476425291 -0.000312312692630585 0.0
0.0019409742263351334 -0.0007006949598526834 0.0
0.0003637959528769347 -0.0003232830525868487 0.0
0.0023590084915686 -0.0006230076513316458 0.0
0.000613531679993157 -0.00036603690888901074 0.0
0.0026817459633112863 -0.0003104086913577342 0.0
0.0009373468621644432 -0.0005818941643196922 0.0
0.002492127805240597 -0.0004328040477874028 0.0
0.002562853379208128 -5.5067493790977664e-5 0.0
0.0009173813571215974 -0.0003215412803802939 0.0
0.0006196516644159096 -0.00029465646205634156 0.0
0.001186826415067513 -0.0005135983333970353 0.0
0.0015729174831795659 -0.00043365901106303637 0.0
0.002707640165526717 -0.00017187825675149077 0.0
0.0016785852706728294 -0.0006721732674891663 0.0
0.001713779120056789 -0.0001568595468682898 0.0
0.0017000347887610563 -4.3434560729346084e-5 0.0
0.0021751880712080713 -0.00031039684900440595 0.0
0.0025000892081700025 -0.00035947164554368707 0.0
0.0008986181379917904 5.491078774146457e-5 0.0
0.0020492783326171884 0.00010347162758822682 0.0
0.0009983944005668936 -0.00031741239201667215 0.0
0.0027229136414270113 -0.0002501692240996302 0.0
0.0006490870766073186 0.00010017745252882607 0.0
0.0005495402102443671 7.519311692815302e-5 0.0
0.0013901583593574369 -0.00010416189730060245 0.0
0.0028517544662207553 -0.00010671775626607296 0.0
0.0015275082515573424 7.01777992676285e-5 0.0
0.0016621329300452654 -0.0001906266305804097 0.0
0.0030165908967047382 -9.512322173118959e-5 0.0
0.0008415021392337876 -0.0003237254843086848 0.0
0.0010351833481345547 -0.00021043545162136273 0.0
0.0023391047087340084 -0.00029891771942422413 0.0
0.002576582804257262 -0.00033408811301361855 0.0
0.000731421727284676 -0.0003228280347783714 0.0
0.00043119678781746926 -0.0002746524088156304 0.0
0.0024697687378552936 -0.00035683451285454436 0.0
0.0010593360420795808 -0.00013857081276321702 0.0
0.0024648640511971413 -0.00020311618885040532 0.0
0.003244928407482981 -3.615728661970005e-5 0.0
0.0026917050863379784 -8.411712087571855e-5 0.0
0.001727265486034646 7.217501370125288e-6 0.0
0.0017823166345216476 4.2793216347951015e-6 0.0
0.002016133627285572 -0.0002552757764033112 0.0
0.002956513491619317 -1.9576074819769e-5 0.0
0.0029051083554923482 6.72152726504498e-6 0.0
0.00013481022701386421 -9.130173439814101e-5 0.0
0.00010089362576924305 -6.675888047089358e-5 0.0
0.0012939655249878319 -0.0005992656431083535 0.0
0.0020943166784368346 -0.00040470152593410875 0.0
0.0011770917310080387 -0.00022267994486104828 0.0
0.0011766640383279727 -0.000204354865765331 0.0
0.001166175788313634 -9.049262352956839e-5 0.0
0.0016444867094184286 -0.0005683813972890035 0.0
0.0019258673330479943 -0.000224944010509992 0.0
0.0005172503131838547 -9.408558246396647e-5 0.0
0.002268782801097249 -0.0001682558150547117 0.0
0.0017519365287038914 4.0474251149532377e-5 0.0
0.0013677948713305915 -0.0003861964612778773 0.0
5.571450540833392e-5 -6.264824578852775e-6 0.0
0.001575304737569849 -0.00040979446971771145 0.0
0.002998577785149914 -0.00011116167051770943 0.0
0.002557629946376463 -0.00020301104936011033 0.0
0.002428861510488248 -0.00015254667674920137 0.0
0.002868593581299723 -0.0001510148592258806 0.0
0.0020859518786889575 -0.00017941983914677244 0.0
0.001151162875448492 -3.096952060887624e-5 0.0
0.0003774734716209665 -0.00013618701558025395 0.0
0.001414606485118455 -0.00020036273328466917 0.0
0.0017774755863670829 -0.00025786411552546247 0.0
0.0004711311700166413 -0.00023713557870200857 0.0
0.001492418687995135 -0.0007292325622952974 0.0
0.002016679826060439 -0.00017835963511754482 0.0
0.0009754101525023346 -0.0004647946703472122 0.0
0.00218010523377657 9.441577881896612e-5 0.0
0.002750402897350892 -0.00016792213702123744 0.0
0.0010538172433173676 -0.00011855381301469257 0.0
0.0023967979729402613 0.00013296450728734403 0.0
0.0018383822934800046 -0.0002125080613948422 0.0
0.0015780317703437221 -0.0003867652346638632 0.0
0.0005807707575376187 -0.00011475975056060303 0.0
0.0010814282128175712 -0.00023006347165549385 0.0
0.0014200987966796255 0.00013174612124165755 0.0
0.000440574894445524 7.076342335924306e-5 0.0
0.002418272990329799 -0.000299390795235439 0.0
0.0006397457123583574 -0.00023297037102008105 0.0
0.0016219423031022394 -0.00037687959276015134 0.0
0.0027133356754238712 6.444633088114563e-5 0.0
0.002298048990134459 -0.00029680120024984103 0.0
0.001097084596876888 9.993477615353929e-5 0.0
0.0001978917920047484 -5.360388669062209e-5 0.0
0.0008263078464438045 -0.00019945008211088937 0.0
7.37135688107241e-5 5.982638709624863e-6 0.0
0.0001531304104617601 3.030626968644872e-6 0.0
0.0022865731160317993 -0.00027430101374003517 0.0
0.0018896672933485753 -3.659129963909209e-5 0.0
0.0010660887577342733 -0.0006491229141988746 0.0
0.0007475542719079185 -0.000420405453017966 0.0
0.002687757967867035 -0.00013412407874884895 0.0
0.00037523180860540395 -0.0003137585881011225 0.0
0.0022143151719264875 -0.00031615449829935894 0.0
0.0018364333362473832 -0.000552650756967514 0.0
0.002661110611647768 9.776752826983852e-5 0.0
0.0009572348281850621 -0.000548562047778588 0.0
0.002887993223146282 -0.00027130219898682654 0.0
0.0016648350125808976 -0.0001774946629559445 0.0
0.0005380868536927579 -0.0004106004618126089 0.0
0.0022190518173181273 -0.0006398735408410639 0.0
0.0005433116403008371 -0.0002672880878571891 0.0
0.003079849014344206 -0.00010523759677743031 0.0
0.00039025189488296595 -0.0001868467386278503 0.0
0.0022760402040935394 7.813894443682243e-7 0.0
0.0020896878721041448 -0.0001591705798160416 0.0
0.0017025711759041573 -1.9268356495148586e-5 0.0
7.601392149216723e-5 9.005936831812336e-6 0.0
0.001287659159474443 0.00016806691313615572 0.0
0.0008871491317793355 -0.00012938812844487973 0.0
0.0025656894446122814 -0.0004989201767926114 0.0
0.0026013846578236102 -0.0005172982392822355 0.0
0.0002449901925731768 -9.465912049339345e-6 0.0
0.0018902292627998804 -0.00020125706072712376 0.0
0.000779351299951535 -0.00042131947229074435 0.0
0.0013287713000256446 -0.00041583783470311615 0.0
8.48062815104613e-5 -6.340577223183686e-5 0.0
0.00018279435186514432 -3.15831965496982e-5 0.0
0.0018131433834747248 -0.0002843348742868819 0.0
0.0016661140906913004 -0.0003656700626051389 0.0
0.00011900645077327139 -1.7421315412546936e-5 0.0
0.0003228188156699381 -0.00011190694461436827 0.0
0.0002514605268651646 -0.000238635668365134 0.0
0.002701584254243442 -0.00027848424581083443 0.0
0.002131991694109978 -0.00041120317835565643 0.0
0.0003908167047540302 -0.000247721700917592 0.0
0.002527293683139996 -3.8917765964168015e-5 0.0
0.002320189667149783 -5.8093295123260995e-5 0.0
0.00017834253776540803 -0.00016449607901943987 0.0
0.001347701789184469 -0.00013867507865315435 0.0
2.2637516569255182e-5 -2.2255354636168352e-5 0.0
0.0032760508074369706 -2.2832156475479005e-5 0.0
0.00317813306888829 -4.163405875866282e-5 0.0
0.0009685738847243962 -0.0006195583902447959 0.0
0.0025331804350694517 2.623935690884614e-5 0.0
0.00213180735956897 -0.0004988959544878304 0.0
0.0004313424156837123 -0.00019435597800222817 0.0
0.0020223365597682873 -0.000719145198314651 0.0
0.00046406013336925154 -0.00011191706105528554 0.0
0.002839307826729244 -0.00012390251063970436 0.0
0.0012875375220991634 -0.00042195261474594215 0.0
0.0001264010966508749 -7.939675255002417e-5 0.0
0.0015068801449184253 -5.5120770364115504e-5 0.0
0.0015045896135902 -6.809496317327967e-5 0.0
0.0029853407850397853 5.5680596589189693e-5 0.0
0.0018256889003946673 -0.0004304128052366532 0.0
0.0002342288344142354 1.2319086323138284e-5 0.0
0.002855796973523823 -0.0003435900691227404 0.0
0.0030141734642918695 -7.359636098841623e-5 0.0
0.0023010624689853193 4.913321260704043e-5 0.0
0.002362441055158379 2.6006508049080346e-5 0.0
0.0013957532242653856 -0.0006302446787166414 0.0
0.0032033757244664227 -9.790887435455977e-5 0.0
0.0013883106462196182 -0.00011864894561804495 0.0
0.0003138886867706468 8.004251668393086e-5 0.0
0.0003827681410695514 -0.00026978223148749333 0.0
0.0009862665381964843 0.0001320796350629715 0.0
0.002863243165375072 -0.0002697245257050214 0.0
0.00016788559001741993 2.4364832445631618e-5 0.0
0.001713240356899047 -0.00014344369035387486 0.0
0.002570824003189873 -0.00017852862938983995 0.0
0.0020611473074634273 -0.00026318692415653884 0.0
0.003224051895981394 -3.0646136422226845e-5 0.0
7.663213331475987e-5 -3.50466647514918e-5 0.0
0.003029797523534051 -1.79640526770532e-5 0.0
0.0032347485024957177 -3.0418542143520997e-5 0.0
0.0015731750153632098 -0.0007072156396474517 0.0
0.0018662728476472002 -0.00027352595109423716 0.0
0.0011066614052577968 0.00018658131558585875 0.0
0.0007706200141634523 -0.00032271291117966905 0.0
0.0010191398265157667 -0.00018489285123403715 0.0
0.001338933507265151 -0.0001529479646788457 0.0
0.0006562674347261762 8.276504503824273e-5 0.0
0.0011825175136832846 -0.0004869015067142901 0.0
0.000590056139226241 -9.281474006839189e-5 0.0
0.0003988482603411911 8.585608311408225e-5 0.0
0.0015172096922856152 -0.0002462898762861983 0.0
0.0023129233795705856 -0.00040458116770507503 0.0
0.0027503561028516576 -0.0002512708299574414 0.0
0.001096299541216024 -3.479651095804526e-5 0.0
0.0007520366332635709 0.00015304753623743533 0.0
0.0017741107096659072 6.346761877335652e-5 0.0
0.0009458723491565362 -0.0001264837103806025 0.0
0.0026083506220449014 -0.00026251333339594776 0.0
0.0009382428973487078 0.00018826931721263018 0.0
0.0008462103452772802 0.00018281737432827364 0.0
0.0017887063877702752 -0.0003949889434784177 0.0
0.0018262664922848054 0.00010282909088081398 0.0
0.001275902809904374 -0.0006970560325600485 0.0
0.0024297099664042443 -0.0005937006674059797 0.0
0.0008750396591750521 -0.00030230306414489477 0.0
0.0022587980294660626 -0.000660112797379626 0.0
0.0007052921899404326 -0.00012019942054179214 0.0
0.0026543754460201818 -0.0002552124152821951 0.0
0.0012459109433716965 -0.00040556923050100255 0.0
0.0028276336379864852 -0.0001588572055486562 0.0
0.0007728167579567186 -0.00030253820444898924 0.0
0.0013374064938220151 0.00015994414307089172 0.0
0.001163469693719222 -7.108907431411076e-5 0.0
0.0014524439941580184 -0.000535852268730724 0.0
0.0015457217708935748 -0.00018387343296415637 0.0
0.0015025108218480973 -8.033701256455111e-5 0.0
0.0008969914189293218 -0.000417424968199816 0.0
0.0009079259287559317 -0.00044582434375444965 0.0
0.0005869818682899251 -0.00020980665004576363 0.0
0.0008496491436100461 0.00024293555057788057 0.0
0.0015047963488330715 -0.0006185092232820783 0.0
0.002862447175664527 6.035520118444e-5 0.0
0.0025474408989139717 -0.0003319803959492754 0.0
0.0017892074285429155 2.1427889071447522e-5 0.0
0.0008370119981082856 -0.0003035461245193667 0.0
0.0022452977671499237 -0.00024233300148782702 0.0
0.0018790921712981332 -0.0005359653557908498 0.0
0.001243822376025768 -0.00038223428898562185 0.0
0.0030490974221694844 -8.886189463348302e-5 0.0
0.0032041462150624034 -5.479567392614455e-5 0.0
0.0011270294670979685 -0.0002098160408755724 0.0
0.0021448286206918604 -0.0006622952411803102 0.0
0.002929719890830771 -0.0002955559270630848 0.0
0.00014763524097492794 -3.759926445306545e-5 0.0
0.0007773696511547278 -0.0002008735827564917 0.0
0.0009164188058285727 -0.0003013615003525115 0.0
0.002987695185562421 -0.0002545828114361047 0.0
0.0011768835723267315 -0.00045991793969007094 0.0
0.0020513420060820665 0.00010129832532584827 0.0
0.0003188746714872782 -0.0002742516837407149 0.0
0.0018848587398214542 -0.0003235910370887288 0.0
0.0027435315117833193 -0.00022475462846827793 0.0
0.0021793483526316845 -0.0003908019173968603 0.0
0.003101996331357113 -8.510010388227107e-5 0.0
0.002191971288743894 -0.0005991438992483692 0.0
5.6662755217708405e-5 -3.0005819131078273e-6 0.0
0.0014439088952704234 -0.0002377784320202038 0.0
5.875477402630418e-5 -3.57638102432747e-5 0.0
0.0010383666849454385 8.598711154157867e-5 0.0
0.0006864409829082145 -2.582336164529093e-5 0.0
5.0677027480430396e-5 -4.655407524782322e-5 0.0
0.0008370655628842504 -0.0005747524505040238 0.0
0.0007747523410115556 -0.000525134511701149 0.0
0.0013948312250531888 -9.128317756133076e-5 0.0
0.0014068615567192622 3.719897026019203e-6 0.0
0.0005685842544580332 -0.0004286385052810131 0.0
0.0009995815006787598 -0.00012325509355436842 0.0
0.0019266417893821733 -0.0002096547181341667 0.0
0.00057498770148506 -0.0002693259754935314 0.0
0.002137739981430508 0.00012772291775401719 0.0
0.0019255902453247532 -0.0005179950441690234 0.0
0.00042101553271856805 -0.00011210021161604125 0.0
0.0002475709279289167 -0.00019572134753102367 0.0
0.0016723168428269522 -0.00012563567563222275 0.0
0.00011629316415849495 -0.00010982851369874578 0.0
0.00314260071381862 -2.8732306931591487e-5 0.0
0.0011167961689527858 4.641452402702816e-5 0.0
0.0015274778203448157 -0.00022753064635904334 0.0
0.002821676397440835 -0.00030189129012232584 0.0
0.0030947437972969572 -0.00019272792538572645 0.0
0.0025837913009136497 -0.00015386373355757733 0.0
0.0014999891460188816 -0.0005904815985345279 0.0
0.0019596949880877276 -0.00030612711188610233 0.0
0.0027529700598205855 -0.00040589542934935124 0.0
0.001640421815099102 -0.0007426811876516292 0.0
0.002707255787133341 -0.00022862758487933484 0.0
0.002190850006080673 -0.0003654819181888281 0.0
0.001136725642699155 -0.0004406316885097587 0.0
0.0019428092934321076 0.00011278228403221026 0.0
0.0011995828445230312 -0.0003624379786561241 0.0
0.0010088666889069991 -0.0005760960964666369 0.0
0.0015041412122034298 -0.00018882832496282674 0.0
0.0025108196078896714 -0.0005249464995811565 0.0
0.0005811749952089354 -0.00019121648784430466 0.0
0.0004766756990172314 -0.0003791117762881088 0.0
0.002357438799647432 6.877482821073544e-5 0.0
0.0007339530324782458 -0.00022025851298602045 0.0
0.0018859499386478088 0.0001159733645764211 0.0
0.0010607617048959505 0.00036897346709312197 0.0
0.002449190728486399 0.00012432026281565845 0.0
0.0028238464290081186 -0.00014324325147177752 0.0
0.0015680421394201251 -3.946308898230392e-5 0.0
0.0025217350092859047 -0.0001805699699140353 0.0
0.001971911054046217 -0.0005659349988383983 0.0
0.0020836573297398748 -0.0007108441368044157 0.0
0.0009588917956458483 -0.00029871151639723867 0.0
0.0010150722568636234 0.00019715577847016059 0.0
0.0006370312229569296 -0.00019587807458539892 0.0
0.0007120270257695175 -0.0005240729265196175 0.0
0.0014168946473125867 -0.0002617634786405514 0.0
7.751544497978035e-5 -3.20706675121159e-5 0.0
0.000548423135658044 -0.0003926207632268803 0.0
0.0015577857613123267 -0.00010612974175831753 0.0
0.00019267428094289755 -0.00011965002314407094 0.0
0.00018755688719752328 -3.6272793548367295e-6 0.0
0.0017009802962612245 -0.0003566598869524412 0.0
0.0017147297439100886 -0.00013105363831380528 0.0
0.0030535030889917805 -0.00020656475430220515 0.0
0.0013406663663937865 -0.00012468285951548186 0.0
0.002331074473232433 -0.000377146747414014 0.0
0.0017312010546312185 -7.143913956218453e-5 0.0
0.00045232138171993213 8.243769688511602e-5 0.0
0.0005893961912406268 6.482490956838155e-5 0.0
0.0031519569360813084 -6.096696989356114e-5 0.0
0.001997844562174968 0.00010672862376554453 0.0
0.00047425615329792535 -0.00020066124821400467 0.0
0.001974269877462596 -0.00013617377170939147 0.0
0.0015038220200805353 -2.376189491026842e-5 0.0
0.0016975339265867194 -0.00018327318384724384 0.0
0.0005799475694785269 0.0001497624130665174 0.0
0.0017101615803695308 -0.0007474064640684375 0.0
0.0029934607409026516 -4.129902038425116e-5 0.0
0.0016749269792270798 -0.0002995369954113782 0.0
0.0016724083926309152 -9.008110567606457e-5 0.0
0.002124102175726935 -0.00022458680043822816 0.0
0.0014500687590297036 -8.663068914307708e-5 0.0
0.001683594079817237 -0.00027855393099561796 0.0
0.0008171354417127559 -0.00044960501980816856 0.0
0.0022398897666805373 -0.00034489838995050505 0.0
0.0013321253986391048 -0.00021199999947269483 0.0
0.0016702282229712775 -0.00011407841072707887 0.0
0.002630229215102543 -0.0005062487836656478 0.0
0.0014237089922303533 -0.00018503756750104297 0.0
0.001992042278786066 -0.00010164376439434615 0.0
0.0017393875578088326 -5.972818767036241e-5 0.0
0.0002602394539807066 -0.00023313643779520132 0.0
0.0025634701357304815 -0.00030884334383427615 0.0
0.0017263404239141994 -0.00010282152210532604 0.0
0.0009558798015898379 -0.0005732713536502243 0.0
0.001886169404264157 0.00011525301951605636 0.0
0.0023277862936626104 -0.0006406567110628481 0.0
0.0031655526854516415 4.603650563518388e-5 0.0
0.00015427816477934803 6.863193038179267e-5 0.0
0.001381358744936722 -0.00027006554731142106 0.0
0.0018380824947008883 -0.0007164209405106002 0.0
0.0011612927189726765 -0.0006488621806807774 0.0
0.0013186212208334308 -0.0007059931174463478 0.0
0.0002502960842962812 -0.00010055233098196621 0.0
0.0023742148212715307 -0.00035794553807592586 0.0
0.00096378457772104 -0.00027830326550730395 0.0
0.001374854412558789 -0.00019162811807642917 0.0
0.0010993736657288434 -5.409668116715277e-5 0.0
0.00136474748131339 -0.0006918844637700206 0.0
0.0023450442786682483 0.00013562767413953842 0.0
0.00302119074808553 6.337053108841857e-5 0.0
0.0019726581890013345 -0.0005415931226241764 0.0
0.0016685928733167128 -0.000322354910646483 0.0
0.0010700350293115649 -0.0004342684107737679 0.0
0.0017813974189897842 -0.000748732390856439 0.0
0.0024788573661007492 -0.0003023642535208835 0.0
0.00022120921803301053 -0.00012036731754506257 0.0
0.002946911089577138 -8.674655504443916e-5 0.0
0.0014384030534750237 -0.0007009205798975101 0.0
0.0014725190184660397 -0.0006313057966842553 0.0
0.0022307818529148267 -0.000569860013212144 0.0
0.003250500346803391 -4.239198878259698e-5 0.0
0.001228780483488752 -0.0006655523302001397 0.0
0.0010373397293031226 -3.66988338625253e-5 0.0
0.001087028203578341 -0.00021489940041546717 0.0
0.00210949069351556 -0.000249283410360457 0.0
0.0031604993396851405 -3.094592103553482e-5 0.0
0.00026922408038671045 -0.00020423970113456286 0.0
0.0016900992052136822 -0.0002602461068580047 0.0
0.00290441825962611 -0.0002779453327148128 0.0
0.003150306550436217 4.821039110019687e-6 0.0
0.0009195863992227805 -0.0001756107530742412 0.0
0.0014720329577836075 -0.0007081471705472032 0.0
0.003061108569056767 -7.737404266077017e-5 0.0
0.0005669701947991948 -0.00036929282905871243 0.0
0.003207493852659661 -2.1116655947023754e-5 0.0
0.0010366451341615147 -0.0006454132236430289 0.0
0.002251454223778377 -0.000319872368594895 0.0
0.0006193231823592664 6.9393529257403434e-6 0.0
0.0020427917040800724 -0.0001042485281241497 0.0
0.0031730978486317414 -0.00011024608989623554 0.0
0.002526639383801743 -0.00028009537158173197 0.0
0.0009115514739090195 -0.0005805039796147547 0.0
0.000651162403956343 -0.0004963904061630445 0.0
0.0008156662969810943 -0.00041075022904770754 0.0
0.0026969830446705533 -0.0004385560262463812 0.0
0.002474881898808068 -0.00018369305186146485 0.0
0.0005144090442603283 -0.0002083825308290693 0.0
0.00130731658554621 -0.0002589850606978284 0.0
0.0021046977824295703 -0.0002742325435425194 0.0
0.0012611399378819133 -0.00030189158188922657 0.0
0.0030912189168083412 2.8170749082721958e-5 0.0
0.0022564586521037194 -0.00014955202946015438 0.0
0.0013262820540173197 -0.0001980415630202992 0.0
0.0005275274946056807 -0.00018624481967595562 0.0
0.0024025473166474666 -0.00032034947571859206 0.0
0.0020004139859369835 -0.0006675056222523409 0.0
0.002824787091724726 -0.000368094133115149 0.0
0.001107972595267047 -0.0006367805554362276 0.0
0.0020898886843040737 9.509867791433581e-5 0.0
0.0012026770245748884 -0.0003397965197922984 0.0
0.0019057241308044655 -0.0007124904864805473 0.0
0.0027961652415027212 -0.000302067633012046 0.0
0.0024581046615423153 -4.644549774825784e-5 0.0
0.003091992428528957 3.5958353461195044e-7 0.0
0.0007605430329334689 0.00016355037895476502 0.0
0.003005611168100083 -1.0283147632336579e-5 0.0
0.0010552579362733828 -0.0003997219957010424 0.0
0.0027714347170099316 6.868507812249842e-5 0.0
0.0019334622107098117 -2.3847427977337726e-5 0.0
0.002273776785145406 -0.00010572859420226367 0.0
0.0009917019289062562 -0.0002516632857199 0.0
0.0023083028046473816 -0.00017902538179045572 0.0
0.0015425647433659445 -0.0007132975085031432 0.0
0.0008531861955582353 -0.0005437953600794011 0.0
0.0017526406743728238 -0.0001364502077716138 0.0
0.002446981319687355 3.318637151224956e-5 0.0
0.0014473072149553598 -0.0006639242258945058 0.0
5.540415281462872e-5 -3.10754754105061e-5 0.0
0.003176980350272062 -3.850898803429056e-5 0.0
0.002763564217103491 -9.294132795750087e-5 0.0
0.0013487085644212098 2.0818832535096275e-5 0.0
0.0032207883156930334 -4.8995534535044436e-5 0.0
0.0009062746070172007 0.00013473514912574588 0.0
0.0015074692891398223 -7.84162195642037e-6 0.0
0.003274437500124153 -2.770715053120675e-5 0.0
2.332343020962847e-5 -2.543701092785949e-5 0.0
8.240487880986678e-5 -5.730684735008183e-5 0.0
0.0009427768657138472 -0.00010931124551131187 0.0
0.001990653216344404 -0.0003146732744102771 0.0
0.0022731262817783154 7.622303978280504e-5 0.0
0.002515604210549173 -0.0004939089111397584 0.0
0.003187705512893922 -4.6059381137294055e-5 0.0
0.0002456342061939223 -0.00013798311380124653 0.0
0.0006866586993776637 1.3956587881540735e-5 0.0
0.002013820755738966 -0.0006347115896958077 0.0
0.002859649017265523 -9.278463044365081e-5 0.0
0.0008413684284881822 -0.00040988923746212964 0.0
0.00018821910514943974 3.219768843901192e-5 0.0
0.0020211874560461234 -0.00014351117865778003 0.0
0.0009859213928265162 -4.0946449880539076e-5 0.0
0.0023974288783889294 0.00012258657435998676 0.0
0.0015227163449889464 -0.00010357005072487299 0.0
0.0012502171676433492 -0.0003192188363830248 0.0
0.0029029745118525647 6.35169574851111e-5 0.0
0.0029565007332949854 -0.0002827057945684265 0.0
0.002417430781659204 -0.0005730072578755682 0.0
0.0007394804671260072 -0.00020398565627102158 0.0
0.003029782804726891 -7.556565319191526e-5 0.0
0.0005050468507111548 -0.00024602735231155884 0.0
0.003060454319388551 -3.5116794840905585e-5 0.0
0.002723378533234622 -0.00042939626326598114 0.0
0.001957802571233241 7.14833646946066e-5 0.0
0.0022467199072589514 -0.0006398493780175458 0.0
0.0023652524162995113 0.00010118466759720287 0.0
0.0015044833062604868 -0.00015803225936226827 0.0
0.0008444227446799931 -0.0005157894029064516 0.0
0.0011899538705110102 0.00017741154654055369 0.0
7.628228012966049e-5 -3.5970420847866096e-7 0.0
0.0031469168237695257 -4.602776858255176e-5 0.0
0.000343617639055342 -0.00029640350755104827 0.0
0.0024096204416924265 8.219225846092008e-5 0.0
0.0005939611553837335 -0.0004456245335400158 0.0
0.0022558232897244915 -0.00029974104817569283 0.0
0.0006748789691452573 4.67495242159961e-5 0.0
0.0002879876774359586 -0.00014965721272782 0.0
0.0004183924712180209 -0.0003653634918336837 0.0
0.0003756277215475272 -0.0002510119336006525 0.0
0.0010276780115706522 0.0002251987621044662 0.0
0.002564251751577501 1.0239324371232892e-5 0.0
4.3262982994384343e-5 -3.656835620772728e-5 0.0
0.002742852081496593 -8.240810283630997e-5 0.0
0.0024867667104052625 0.00010591049303633113 0.0
0.0020407010530705478 -0.0002995783528744768 0.0
0.0015234463729128507 -0.00012589949347891844 0.0
0.0008652947240316007 -8.204254055500298e-5 0.0
0.0015575185833651528 -0.00017070272883964522 0.0
0.0020592871291961927 -0.0005779014659409458 0.0
0.0010015408782501458 -0.00027891193756123667 0.0
0.000754213894978357 -0.0005238137018818849 0.0
0.002792335300038724 -0.00022768616678376765 0.0
0.002125239506550915 0.0001338842210447953 0.0
0.00034504629520916544 6.945566727483084e-5 0.0
0.000978215738800449 8.533348238735519e-5 0.0
0.0021959389228953297 -0.00022589743634484382 0.0
0.0020471569514043143 -0.0006907003648903703 0.0
0.0013029244746198376 -0.0002760347784233811 0.0
0.002594499054968209 -0.0004975688684588519 0.0
0.00020552033189069453 -0.0001907779174701233 0.0
0.0022661766592819285 -0.0005451896123300172 0.0
0.0010953790798500392 -1.5466367802001302e-5 0.0
0.0030792056733873344 -0.0001896813061866955 0.0
0.0010573005433221763 6.217582522841569e-5 0.0
0.0020088219147081582 -7.469074454416569e-5 0.0
0.0017147287490600167 -0.00034236310590327366 0.0
0.0015129298271388159 6.6303344571162085e-6 0.0
0.001786899350474032 -5.2405832959283305e-5 0.0
0.0019773495703988074 -0.0006995407131449559 0.0
0.002536839634090346 -0.0005177686020514784 0.0
0.0008090458614246269 -0.00030706148175822464 0.0
0.0018373221908265824 8.633681366214525e-5 0.0
0.0017914727006079047 3.661439047400814e-5 0.0
0.002529248931560407 -0.0004568410748020639 0.0
0.0015116848261557624 -0.00014509239929421698 0.0
0.0014698320864270443 6.630988934630961e-5 0.0
0.0008385439704774436 -0.0004897721679213082 0.0
0.003058087153949492 -0.000187204855322133 0.0
0.0021316160639368916 -0.0006996089303681703 0.0
0.0014504696675158907 -0.0006446796995302101 0.0
0.003177736623847171 1.4323531225629444e-5 0.0
0.0014297424322884677 -0.0005723751336334036 0.0
0.002425835683913232 7.940288793502237e-5 0.0
0.0008667639218086623 -0.0001602767883050748 0.0
0.0021378339229237526 5.893538204527305e-5 0.0
0.0006309830015649453 -1.2048363937868956e-5 0.0
0.0013750377808918822 -7.049649221098501e-5 0.0
0.00097773950147053 0.00029718630869007313 0.0
0.003233568729483631 -2.8938178718224074e-5 0.0
0.0019865324767402324 -0.0005215410961000625 0.0
SCALARS damage float 1
LOOKUP_TABLE damage
0.42655798382169025
0.17882816854636682
0.5863472604529604
0.1778236968453809
0.9732223484642091
0.9878819044152783
0.06048721335646201
0.6154365951405603
0.6116370846409077
0.6212445575168186
0.6493350817914296
0.6717887148297642
0.7008953594268219
0.7294001275095806
0.74585743712779
0.7564666787716503
0.7511715785088703
0.7428268386368788
0.7272425940971523
0.7069908971070387
0.6874926666185998
0.6759635620452574
0.6558182338630135
0.6352152330096177
0.621147964287151
0.6028809414454842
0.577345140592548
0.5536071697545734
0.5197879464814621
0.48456044987300534
0.43629616213056416
0.3779138673264153
0.15730494744849696
0.2715663808998809
0.29335036123113534
0.3270265991032522
0.34917143835163705
0.36518035273412486
0.38304731277424314
0.39524109271325236
0.4078345040680179
0.4202715717948711
0.42985288784378717
0.44061128189927873
0.45194187495400784
0.4592976958157579
0.4658020465626714
0.4753490464708865
0.48576413200172813
0.4980523970254747
0.5049885846252747
0.5141285437613671
0.5226667024066538
0.5352234659940954
0.5388861858027049
0.5530815913196291
0.5586328872180607
0.5710795377115299
0.5791893039048802
0.5937730156469065
0.5969769797993707
0.6120479749349262
0.6211699862220034
0.634040682646784
0.6428023780103076
0.6540188878124127
0.6591473383762735
0.6677026431000347
0.6806642590599653
0.6912929561215794
0.7111351871942933
0.7227729470025818
0.7339087060043596
0.7569958980166348
0.7685318475521827
0.7840288919969034
0.8029111748278446
0.8117254405286637
0.8322890516244456
0.8431537391253299
0.8577586352746048
0.873377001916718
0.8841978148523684
0.8875071591161846
0.908389505003023
0.9168029570481848
0.9421396146260249
0.9433248843835335
0.9621993541455577
0.968140488788519
0.969560304577062
0.9681319668731907
0.9611411945568179
0.9513737201512394
0.9403101919767621
0.925950851705398
0.9146504618997928
0.9006230992036857
0.8739704026992847
0.8540960123839594
0.8367703972574951
0.8265878200967112
0.8048818954824233
0.7988430346251171
0.7799986700232461
0.765198293276982
0.7543435347269086
0.7344572151840619
0.727688047385088
0.7145321295471152
0.7018460221203152
0.6847882432248144
0.6863770411576531
0.6641934287095336
0.6578017620606611
0.6414817200263991
0.6305988429319396
0.6207666340024449
0.6042058365667505
0.5923756276354082
0.5833257159479235
0.5687280747943007
0.5505531949551103
0.5309211382226457
0.5180685053958857
0.5002393795605818
0.48359089161059354
0.44097637526385886
0.4058914550262958
0.39081453802018057
0.25930309179209043
0.34279175413765145
0.4306228986848986
0.5229355966298481
0.5669830558065624
0.5902134763844084
0.6047660199248077
0.6146195996627695
0.6210274991638695
0.6260034250014719
0.634325770339342
0.640157610132217
0.6458396643047388
0.6513858512292677
0.6563781888604828
0.6582581927238464
0.6567617060513969
0.6518925078913859
0.6479310950292114
0.635884840445101
0.6319724118395302
0.6265189959148028
0.6232269773671575
0.6354552927772014
0.6587388723914652
0.7357386403617118
0.6521836088638394
0.9269672575442001
1.0060475095306864
0.9922524932564571
0.9884483355072738
0.9690276250710338
0.8703368701981842
0.7820514642335421
0.6856284486223626
0.6035883903714614
0.5179199745308902
0.4564674750390302
0.38212411391086554
0.3064561896192652
0.23093843546303866
0.1935187997691624
0.029007982063749157
0.10862646840320639
0.18884537361170764
0.2771509191429111
0.3704253171279722
0.47829510813086334
0.585275289127645
0.7049468394781274
0.8253768495193218
0.9317761397697459
1.005008659851629
0.9941793600587393
1.0013395012185664
0.9651459562319125
0.8602388423785363
0.6384292637964017
0.6045687030945017
0.8297490837888564
0.6815551483514425
0.9329199998939209
0.7746151395696199
0.9466254140889577
0.8631247619810694
0.747088400932178
0.5468579589176712
0.6890683780985356
0.5003913104298588
0.701938257900147
0.6530082437261121
0.4825941981173744
0.49613724403181164
0.0777524350191381
0.3298518640140286
0.6273537038885758
0.4570043593789871
0.6411003717741216
0.6340554613009138
0.6387540871715277
0.7379564709444452
0.5755851639912374
0.41029690414407094
0.7080925165976639
0.5875203309632664
0.5918113430117536
0.6075115213577387
0.7250427566054986
0.8227990876264675
0.9614578587230065
0.8926947415884935
0.89500619093344
0.7834995686271892
0.6519142584424727
0.5744556291296153
0.5209559453347022
0.36898026253128613
0.6170840805031916
0.7088336595185697
0.5660752566184225
0.504391720304917
0.8441403576198675
0.8217109985592622
0.6268645150137782
0.6347077915778545
0.6741570199857794
0.6489991403011981
0.41687272900691225
0.1916163676765278
0.3074256429757745
0.4486005016461803
0.8541234121168726
0.9225696223217875
0.6990419439095508
0.626102774482916
0.9630604430410813
0.7210401613695129
0.5283904266974677
0.6636702296674665
0.48058087227284
0.43389632972585507
0.5992710748088814
0.8281438760961569
0.8719565546220112
0.48678576569469006
0.42234465291812695
0.9880775157345171
0.9757048326076276
0.5668279590262625
0.6905197560196864
0.25223778232539595
0.38382026015990045
0.9805078202587699
0.8502196436564435
0.7250362653076186
0.7298126410046315
0.8105981959548865
0.7010742295718746
0.6619319091610589
0.6377906525394627
0.6150998638336345
0.5950657464499569
0.6071626416278979
0.5785981868095895
0.5866009303024523
0.5681041494799588
0.5768249260317372
0.5721370802760088
0.46538510250381054
0.21785526337075625
0.4057630667467166
0.25753641272420497
0.39662792561745697
0.311117630305736
0.3992262186988272
0.3485258880629031
0.4092756364917959
0.37248100130059836
0.4144418328536206
0.39552095698001666
0.43041275277505714
0.41135948836532454
0.43955787855462775
0.42715762905073706
0.4493632411124659
0.4369714022318654
0.4557774673763377
0.4478304383259
0.4631916819095295
0.4587524384421479
0.4706408016229523
0.4685445412758166
0.48065104561627714
0.4799948331651357
0.4898550563275804
0.4882275050467198
0.4978719546041641
0.4950190837015771
0.504925442440062
0.5059669965472687
0.5140929421260604
0.5160481136878933
0.5227618590230624
0.5243236739621419
0.531274048897158
0.5342133890924105
0.33128019629419136
0.5409521305019608
0.4329845225568741
0.5016864115660666
0.5437500159298625
0.5507950039117429
0.553612387332183
0.5466299020633026
0.5565019988309887
0.5607309052761613
0.5577893875787119
0.5123463586366939
0.5681653374200764
0.5649337032330476
0.5748835214710432
0.5492559060156738
0.5593497885348425
0.5714795848402675
0.5522679784604686
0.5622218052194373
0.5831347885372584
0.5800161341170105
0.5560110939015501
0.5658354435747776
0.592004099386445
0.5892117038261592
0.5588369311009885
0.5678969063352967
0.6017756540778156
0.5990939581236737
0.560451901586182
0.5701055508160607
0.6120045809199872
0.6093927002055296
0.561757235550105
0.5732554676300513
0.5636239980275445
0.5530015267876623
0.6147247318768791
0.6225931147211872
0.6193225024180278
0.6054002473398524
0.4756614767125213
0.6163345825463362
0.6014207903014089
0.6126110679919727
0.5754483104964655
0.566842956587463
0.5817457179813194
0.6333282241110255
0.575821044924877
0.5663738712853648
0.4606779286662429
0.5749740544672792
0.5659138011767832
0.574243630141196
0.5647998692327723
0.5567916256165363
0.5548883287934132
0.5489091990002941
0.5730876423398951
0.5500530571336608
0.5422567629310995
0.5830842116307792
0.5811810646302473
0.5428657032209623
0.536518648841741
0.59993049098202
0.6105919863955016
0.590650669402691
0.5871453588524587
0.5991490532502314
0.6110105356749579
0.6237504767280319
0.6225044340033535
0.6396709773488118
0.6357664465163995
0.653331276027871
0.6475725158782764
0.6668067924994819
0.6328778588215173
0.6587231718783867
0.6805585774068786
0.5976164654903342
0.5379547382122319
0.5324351087158603
0.687897195233297
0.7028766432703472
0.6932465850330156
0.7143016151368061
0.5940188956741166
0.716967853451314
0.7051692041426195
0.6047154362023751
0.6015624433537863
0.5913038600209809
0.7297674585586729
0.7171180506494047
0.6133523767105606
0.6173398865435862
0.5976119846124163
0.5867327466794054
0.7390322818635355
0.7268256175816742
0.6993584953147767
0.7515183698852077
0.7073434807509467
0.6840704995552727
0.5342668225353839
0.5311777806724307
0.5270272705362787
0.5304560088950061
0.5214144361179649
0.5269553856213788
0.5165739013492939
0.6262082432621233
0.6298720472585511
0.5923691275702287
0.5817827419088731
0.732997555655994
0.5277311640913434
0.5152131029696703
0.6387936456389586
0.642625006002146
0.5741268759454444
0.7133727160162774
0.4836084811280655
0.7522150766885585
0.47049451837830614
0.6003127517670511
0.5302851734695155
0.5171588430381235
0.5882933766331558
0.5782774135778397
0.6516596117436493
0.6563404717123036
0.7384514922774362
0.535778027364451
0.5372573500577
0.5389975720887907
0.7154101386330576
0.5395632893730512
0.5222875028206213
0.6470640758955175
0.5828187054939661
0.5726030321043041
0.5890116513162288
0.593930983096095
0.5821464412062473
0.5913925951477836
0.6654599456206813
0.6698327348414282
0.5481219669379103
0.5479158734877143
0.5389723509825273
0.7412042297816799
0.7579154289861765
0.5737861430313352
0.5584431936741288
0.7212401510322045
0.695447924441116
0.5931366105111987
0.594080858113698
0.6801136812855619
0.6840169863138784
0.6733353309524366
0.6878553892432905
0.6764808165384834
0.6911930731654337
0.6790940793593155
0.6934523126936147
0.6805031768351146
0.6947553415889626
0.7083816054703032
0.7099526972271096
0.7242293347120072
0.7256471273100614
0.7404666621359375
0.7417086927858895
0.6813470804833345
0.7257032160337159
0.7418404207604529
0.7589334294864374
0.7590821149101045
0.5378085469389082
0.538048365554456
0.577400572521015
0.5676992500821214
0.7408058795488661
0.7577667112277011
0.7773594330794712
0.7756982016524753
0.5405750416227967
0.5388493280146464
0.5803011392111573
0.5935984848682293
0.5836862855618475
0.7443497456648066
0.7243293727957653
0.6952942860412592
0.5005634066419131
0.5866016539720105
0.7965372597872021
0.7941769737661203
0.7725599808399919
0.791117946378736
0.5681048324918283
0.601931742579896
0.6107820246149349
0.5813409585119337
0.5719044138280381
0.562262713175388
0.591501930595484
0.812608929104311
0.8097127743612347
0.7860731612458737
0.8059598566446116
0.7809329769245621
0.7995624229197923
0.8250823902424447
0.817947744567669
0.60991516682473
0.5422364771194982
0.5386456216312503
0.6914988616056205
0.747655541229842
0.7293915068193676
0.8407667088452505
0.8364037180431685
0.5931394686362568
0.5674634608910026
0.5569597122183888
0.521187197767001
0.5678007368812977
0.706863711998147
0.6161138436627025
0.5621474038530684
0.7507373704803516
0.7289568547261022
0.6979594819163834
0.6165003542057547
0.760033291889833
0.548210467380647
0.5734238017644608
0.618202543902315
0.6088466326354998
0.7748388507882624
0.5601358349937301
0.5501506495471223
0.5438286161961784
0.5386776131661997
0.5728424747332952
0.8590651715008842
0.8509511233293829
0.5472874541754613
0.5412981968400576
0.8641989173133989
0.701695109622296
0.542966119016217
0.5345042346247227
0.6653201543625344
0.6988987443406665
0.6686198284187505
0.7289739068394451
0.8728575112448586
0.8641522169888902
0.757148192792406
0.7510291910870665
0.7175635948725362
0.8427395372580686
0.85372566458018
0.5461386799046565
0.5384415510213844
0.8721309137589299
0.8600138983571678
0.5354660104884378
0.5269502538803087
0.6386783181029977
0.6338892593419224
0.5269221856777095
0.5198228764620237
0.5182124857116789
0.5113298685360242
0.6986611994282671
0.7262880992301481
0.6022183740616776
0.620054128874093
0.5723051249611978
0.7122717511862003
0.8748009044419911
0.8624241796801676
0.5807527077931329
0.8327821507417434
0.7381672291001349
0.5138673992077123
0.5061651194839201
0.5035414288425742
0.4974822764715929
0.5013232122410516
0.49312709427958157
0.49958824229427684
0.4916902468188117
0.5024282186431321
0.4942783036250298
0.508071333068596
0.48269238125805053
0.4893127068182553
0.5471347852877658
0.557087373243978
0.4683879827305115
0.47682454033512406
0.5840045050327743
0.5409864733479247
0.7343380982984252
0.7285707390808506
0.5369934800760479
0.7280651749246231
0.7323246357815512
0.7445912998175997
0.7224195704476597
0.6984720302544928
0.7184731105302006
0.7298334862057118
0.600122422674158
0.6295291742202407
0.6960389307286885
0.705344000212871
0.6902837115440124
0.4932804584694681
0.6593345505483363
0.6626710140688473
0.5485050120351773
0.8743525322973056
0.8617761753213306
0.8508964632595984
0.8511432611307335
0.5934850311089102
0.6130438540682934
0.6333801329855365
0.8850263599170489
0.5774842528110361
0.8587092955169973
0.8483581984954063
0.8386273235637034
0.8371506568046305
0.8272145101187756
0.8265116488885575
0.8330797643709517
0.822665582381167
0.45975666985389624
0.46420484448882154
0.4888352752272409
0.7416536407616395
0.7485757335840072
0.6982304782531427
0.6833468200910173
0.7142752617778493
0.7058568615866152
0.5878610360409603
0.589004852779352
0.6361152940086628
0.6304685078373572
0.456050309873993
0.5928397589403323
0.5703455686221034
0.7192862516619034
0.5133630378029932
0.5871385665896124
0.8264042149998969
0.8168661206129284
0.5787521823173224
0.5719210648975269
0.588462903880963
0.534543176140798
0.559935461197814
0.5722046883399894
0.5005630185934924
0.8540474019469659
0.6377117745965897
0.797099780091891
0.6208416846477243
0.44599349090840795
0.4533616266459507
0.54529781717853
0.7382648532857843
0.715940509681794
0.7127592615967617
0.5832313471764172
0.5786198556836578
0.5886561176063004
0.5860079716915131
0.5793892173077578
0.5855525436772857
0.5937541456269746
0.5915307855227115
0.6025055240259339
0.603511690076349
0.6117833867021819
0.6118621767472741
0.6219689173891292
0.6196839009290839
0.6222332112424707
0.6277390046518492
0.6277260781892389
0.5825828153529024
0.5392011504425963
0.5375136841383267
0.5472936221978373
0.635725184029562
0.6332167943627347
0.6357323467010987
0.8171221557907947
0.8166612188105213
0.8366895338057916
0.8355423664495185
0.8549738703508855
0.8530690588843561
0.8330465915956579
0.8494431171368866
0.8287004039672914
0.17806990205982032
0.8724521009481765
0.8741457420320168
0.5703572042751581
0.6677797467811394
0.6679622604657243
0.6550165863012248
0.654404876352454
0.6421477158088196
0.6409939681400975
0.6529633701666088
0.6391101174982232
0.6514422002310634
0.6359095792115441
0.6479119510841422
0.6253628305925207
0.6292765494896605
0.6307268119446324
0.6631922061805582
0.6599857863476609
0.5395228445037301
0.5173894814552266
0.3851147828340763
0.7387136805292076
0.662058831103424
0.6573679370493525
0.46566472332601067
0.4903198211589589
0.8258943281254485
0.6283035800082816
0.6980198924162279
0.6914386173411713
0.5300939114120884
0.6909503227750171
0.6761858781597547
0.4611812406895741
0.8429241144589578
0.8217033049084669
0.6685295679751022
0.6626174954314561
0.6544703371403694
0.6496612504716522
0.6572047828262665
0.6444209741844258
0.6527438944969453
0.6394843672020416
0.49212526905874376
0.633681128373817
0.6849322047374684
0.6936468064551907
0.5792006522268038
0.5647953661679138
0.6217657303332864
0.606440684891489
0.7578797289403005
0.7633007692296401
0.8812488313667667
0.507600616708587
0.5865923488041265
0.6597612727536184
0.7072020078969734
0.8137946431696407
0.6822660004491303
0.8122401185718301
0.8060355767941746
0.8073698173483981
0.796470048241457
0.5419773131177518
0.5011047726617632
0.6328207582442041
0.60731239868994
0.7382856220362922
0.5498706900646896
0.5575152686286337
0.8922235269028119
0.6417010689372848
0.7122081080055105
0.7178824148425751
0.6766227842081535
0.6710294030499342
0.6770670158616174
0.5630789943559675
0.4294259429898895
0.4397175998793499
0.46976922595852616
0.6109069591477615
0.6194452628432092
0.6063086929656061
0.6358608274501627
0.6382935459889932
0.6366643225443479
0.6838536671650292
0.602809475463597
0.647505016307569
0.641728591403655
0.6190321736831164
0.6215647672289297
0.6229663428296951
0.8064227865535063
0.6323016635196107
0.6264757928730387
0.6338983142112763
0.6215571928368453
0.7979246606627673
0.7897717954529447
0.7864635996703377
0.7772421831253978
0.7002916617037207
0.6938836046400807
0.8908184251099642
0.8915976164853966
0.6180925901345078
0.6199001520345654
0.7482804657217349
0.6270698435561302
0.6150218371565496
0.7347915414035108
0.7266799297690639
0.7422422821491532
0.7296883237820124
0.7753528508708558
0.42597162185000736
0.5136981552804067
0.5214239667043334
0.5790964792683667
0.5930490650491729
0.5827541003199955
0.6085294064995284
0.5970848336011699
0.6243132824655633
0.613408449931283
0.7073435032705243
0.6142326537758804
0.809990954367319
0.8958650063063786
0.9037010367369248
0.9058410418779169
0.8361847510455588
0.6669801038758276
0.7696976865581082
0.6597611800394984
0.6443457636825806
0.55739957992495
0.6686605204204655
0.7231782546823042
0.7196584439559658
0.863589801043987
0.8154948195686301
0.5386352043296752
0.6314907891840936
0.6346266613370791
0.6348745329208484
0.6320652387323341
0.7608114338562014
0.8317515254181383
0.6967641686893389
0.7034882151957556
0.5891754675934059
0.7317465090458638
0.8198438141784596
0.8099691042536074
0.6646758492099939
0.6772218517065008
0.5603289592267668
0.5686909895354273
0.6422301792197241
0.6318292863226851
0.6018577736625645
0.6200826628754594
0.650182936244054
0.63866682738829
0.6667435976784061
0.6556169139225755
0.6798773689395704
0.4144307953111473
0.7026348644797334
0.427001983523479
0.541846660225642
0.628288637934556
0.6812581292678601
0.6552831273829153
0.7225132248032884
0.6678452964889261
0.49124835398610633
0.4827321411761742
0.6401964027250998
0.8878722921272904
0.6980396820671539
0.7602107583675803
0.6416658088939302
0.6308870736941738
0.6198284106800369
0.6301508617553745
0.5106112540445512
0.6199368068966737
0.5640590197202943
0.907413893349881
0.9077574122722193
0.892349832152581
0.9084339718659022
0.822093486622038
0.7995715025844857
0.6188661202295251
0.626348016471484
0.7187519403149853
0.7443693339938345
0.5316737901059151
0.6207659456093625
0.60879999670851
0.5720869786372549
0.7781354458280648
0.6848606235896841
0.603396925840806
0.923624824051172
0.9242090096476503
0.685278427178337
0.6886396043531521
0.6705197979024754
0.5553902803863818
0.5182122022219311
0.39642080604408625
0.8903380040617441
0.6475825155809644
0.8295155643669915
0.5391229567591799
0.558348580509315
0.49891346358853306
0.7701711111774716
0.545679192693254
0.5387086486587053
0.5447941285449147
0.5384699287774526
0.5431458383640947
0.5329708546303403
0.9151929822034467
0.9154185268880431
0.6502876477087814
0.8499808323521931
0.7549398039132288
0.7514354679039319
0.5701686742558001
0.5870582508317607
0.567583730042564
0.6693583016026426
0.6513228362463459
0.5918902998534885
0.5787410973733284
0.5761629843120343
0.5811543319101758
0.5627317678654764
0.6187576338045051
0.6808988989550256
0.7230937226892667
0.6559678790962435
0.9044092083108439
0.6926116417636277
0.635194310674222
0.6164251779633116
0.5270161234367692
0.6125463806986299
0.6790442775074301
0.6749309736672164
0.525052358807588
0.48086868775358343
0.47227347482351467
0.4760363952711624
0.5347406276805212
0.410823354785522
0.4500810882133328
0.9377274436948935
0.9336538945980125
0.9179395996873528
0.788076251423232
0.7911316881198297
0.7568223516461025
0.5335616665577154
0.5294479265462085
0.6890001369285874
0.6333138449915314
0.6314919222204364
0.620615026112065
0.6124963636673322
0.39281873870533035
0.5688782177626495
0.5540167275167638
0.5445956636735285
0.5291934088248562
0.5271651487540814
0.5356969470803136
0.7052577079169252
0.6083743653310442
0.6058662287147889
0.4708756359360675
0.4614513568288143
0.576079292443461
0.580641821563966
0.5895066386550768
0.5928875073420619
0.5884293021036174
0.8104676871613193
0.7973254102071545
0.824002987271446
0.6321341425477055
0.5877985173930506
0.5775587457682521
0.7028942078583322
0.9256811408199267
0.6555367575473211
0.7616726985550519
0.5424958490512559
0.5270790018600898
0.5401790792301674
0.5310736593679892
0.542449490948926
0.5378294167266621
0.5486718874332375
0.5461469042658998
0.5568766521412949
0.5199750421294582
0.5364710610627422
0.9092941926151055
0.6090286235684644
0.6467791363620974
0.6345913659850534
0.680604142712847
0.6125058442482204
0.5125062662076291
0.6685651485167855
0.6207002325279574
0.46488807437864366
0.492982910665769
0.5929659308312751
0.6504678968243718
0.6510735269004455
0.6295573027176192
0.6178906642446976
0.5101587631261367
0.3751282067927421
0.5972777512721703
0.5786384764775607
0.39439113693066696
0.7875614785502836
0.7764852032714505
0.7881158486737205
0.7655780084918403
0.54580347533877
0.6605254430682539
0.5209042933469431
0.6756179616737191
0.657975819372992
0.5988719626450287
0.5845758498330614
0.7068272094235327
0.8344841781730896
0.8235099974224592
0.8323280269347455
0.8189536809370701
0.8251254801094873
0.8410516192344205
0.8645086475845314
0.9041293558982102
0.6067674155078658
0.7963573662113463
0.6250656873622741
0.5745479753036611
0.5758000838481341
0.8127839873267534
0.8053008660438913
0.7996527946786595
0.7152665397555312
0.7340259223353488
0.7480415374483128
0.7630454044859217
0.6054653467970955
0.7313607567890036
0.8742459585753082
0.781372932263171
0.7564231625174164
0.7424874609358284
0.7615756062645102
0.5764678872410041
0.6655077132494008
0.6592630615289751
0.6717793074026837
0.6671348994685014
0.7776104851696394
0.5439587964244507
0.5249744618559783
0.6314151787659154
0.658549379506231
0.675943392293561
0.9246438072600075
0.9332651597901376
0.70810058187843
0.6024634289132633
0.5256181642971375
0.7728221642382536
0.7479116442948265
0.6333209108506566
0.6079047242150355
0.7523308010054324
0.7991240343611826
0.8024473338589986
0.7308240994323405
0.7554819703733959
0.6924611705567586
0.9386492753879812
0.623936372123361
0.6547147238319643
0.6881678941813354
0.7348002834409845
0.9199795756573351
0.5872597344566458
0.6292897721411971
0.5303044535446959
0.6009633916118546
0.8256170371370666
0.5351109882023309
0.7456246903345015
0.8365748270027402
0.8343206701704217
0.8514238431977222
0.8110301645931995
0.6686737329041088
0.5812227989026478
0.758909408789553
0.6457015655217948
0.6212213271457027
0.6166894678419963
0.592107089052941
0.5678628003764813
0.5812404950125415
0.699175468574412
0.6852756692898739
0.7624882477412275
0.5186493208891192
0.526314258015954
0.5224497449488689
0.7724980724327517
0.7109889046185286
0.6998425136699195
0.6372357647421365
0.6314203284300518
0.6597725013687558
0.6650773278218672
0.6766232958806485
0.6446559313142547
0.6365497047744728
0.631266184009314
0.6194512926990156
0.6326395205162271
0.6157629277025486
0.7549840501976177
0.6291884787580274
0.6387316722825159
0.9449690622130998
0.691826886191866
0.6771393670960125
0.6684812267449205
0.6607955393974804
0.6726612313721326
0.6611643869255006
0.6609500072536676
0.5487973834076563
0.5475951655924802
0.5417540219054622
0.5455435946070167
0.5518169245422859
0.5477895281433446
0.5551725959013684
0.616219975280104
0.5519911374362915
0.5586499525998546
0.6810199119553281
0.5589259200796747
0.5632274407176996
0.5411357080538086
0.7826627201623905
0.7931697198757716
0.8103469154553333
0.8234225847602961
0.6932440115874715
0.5426037888453796
0.5184162830780406
0.4577039834301198
0.48579082693460823
0.5083108957686244
0.44833969448685634
0.4621418036006642
0.3928310981098955
0.41998819702546003
0.36961175856322614
0.40629249871661305
0.3786376082809257
0.40768472560405644
0.39434828483429846
0.415811573554963
0.4139813717682898
0.42859534831943746
0.4304510570747113
0.4436412566009661
0.44799513442024846
0.4591954799388897
0.4648877089972763
0.4745532056567448
0.48051108508660867
0.4891665832746777
0.48277799874968924
0.496519943243696
0.4974234080956868
0.44395215377414354
0.47271009823481097
0.4394177672036455
0.47980127798819955
0.3960590017169823
0.49154303815185746
0.5037706254345056
0.5100275604329495
0.5161190680842204
0.43226303464221305
0.34874663759228447
0.4786555679088698
0.3599316241503659
0.5227767007890468
0.5277048525599229
0.5210050026517318
0.48883014983975653
0.47890583530667263
0.5173617243670232
0.5301817631414341
0.525656816577912
0.4314711740896649
0.3579804420165671
0.5317122197145042
0.5260543014939012
0.5165167998362936
0.5213251664156221
0.916061797155666
0.8994123706184962
0.6191814333966525
0.8700743100274321
0.8894046305398958
0.6402223436246747
0.6523776961117039
0.568299401802811
0.6778404574947386
0.5386207511369282
0.5963365731376938
0.59330195491666
0.5976957519884991
0.6557880838596304
0.5498336472414218
0.6408165456432746
0.6396988590577876
0.5553965580695206
0.5274841563744798
0.5596035821862997
0.5153158441125388
0.5931639786502737
0.5590061885799105
0.5674143710165992
0.5652041372325218
0.5960512693642733
0.6054609946632076
0.5936775719253892
0.6026173290639544
0.5904096850212233
0.5996292058137921
0.5874697408199299
0.5962266806363227
0.6088526112989857
0.6038135852517065
0.6536704107572169
0.6420740827552476
0.6451829735754065
0.630856500239275
0.5350551371460149
0.4606361570672917
0.4521223292230186
0.45269672745841844
0.44279512722044345
0.6918816835865373
0.6822679395011216
0.7027035353699216
0.5817294644893148
0.5371816053668271
0.5287496147197325
0.703367069396654
0.6455116413843471
0.6142111811559996
0.6029386967575944
0.6082892282854836
0.5892678991788239
0.5619327148898294
0.5698375795279362
0.5414104965079588
0.5458032398503309
0.5814952188789388
0.6934046438968848
0.5457085837175072
0.4821047832848713
0.5371132754300024
0.6195204532614451
0.6428202013010001
0.788734706208078
0.7892412857754131
0.7742707077798688
0.7175495411793682
0.6969145192338414
0.5845888528782096
0.3478025393516361
0.347880980219894
0.5368165581895806
0.6872183680398474
0.7143177682871829
0.7945269671449798
0.8072193923463198
0.6771063458185047
0.7150020235832805
0.7264221231417034
0.7404735603379111
0.7232851577868052
0.725215893587663
0.6384527321513586
0.6499561289478916
0.6575646245186614
0.64802086175655
0.5306882954609147
0.6507169194835299
0.6500319477509168
0.8719941640384345
0.44028102778639067
0.42900922023372995
0.43644894563867986
0.42260168019454575
0.5995490582618124
0.6278303413320834
0.6328004930727564
0.7427047240259473
0.5987949373225934
0.7165213480295306
0.7000083100030868
0.6931623615613667
0.6734580333252816
0.6730678182111569
0.689461058516821
0.6665139547904275
0.8358800018990747
0.8319016273438532
0.8095922571605354
0.541625908934176
0.5485515535642892
0.5193245994992728
0.5218317307659099
0.672711192049784
0.6598333002938902
0.5666239486689679
0.6933603441949785
0.6358145023304976
0.6211759559172236
0.596783527009286
0.6095454178785827
0.7640472780538983
0.516963652496282
0.5170148192506279
0.7984466507298785
0.8950646609897768
0.5362314116743268
0.5287606396809003
0.5671859267934846
0.7944838195378615
0.7712744293984504
0.7768294732336751
0.6729917160719131
0.7829815745199327
0.610129684787695
0.5229066864050987
0.6324951900428764
0.6699084918849624
0.6585559593692168
0.5274751028543591
0.5474157358388667
0.776427943557913
0.7696973465253936
0.3684200679088107
0.9411218840137595
0.9483387684201317
0.7267396999125879
0.7362259528898026
0.732627230121736
0.746754908688171
0.739718292998769
0.46662381720779467
0.4701623864669604
0.5674188600811175
0.7006559177336494
0.6218873396624363
0.7397192717029583
0.7830795167960547
0.7904731046550125
0.41627009953611943
0.4062901785171206
0.6256544034659672
0.5206839716597769
0.5159529005856339
0.74416697805476
0.6209605607464785
0.5899852628027427
0.5560645375840161
0.9322672146964286
0.9446830159041774
0.5670723026165285
0.5623867545331679
0.740817365948737
0.7472506244872853
0.583747927242678
0.5757048584234118
0.3167226040608368
0.9512269707528571
0.581169964424011
0.4929230555881408
0.4996872872520705
0.5497867127301737
0.5699316801826783
0.5323985992005249
0.521062233849034
0.5281115107529488
0.5179561668581981
0.5245330708987962
0.5134514312060785
0.5067294479329477
0.5013625470315838
0.4932886412614367
0.4899225058424216
0.5220498256607966
0.7025874423130388
0.5782596633064572
0.5892530506834598
0.41983264429560974
0.29260269884198725
0.28382571699085235
0.3757910292465533
0.33785030590889475
0.30310830976186653
0.2732534804240745
0.26140959213122067
0.536018203196712
0.5186455574768699
0.6212845748092066
0.5974769024909092
0.5976469225231963
0.8158245574302068
0.8306508819080248
0.5894078542818858
0.5937105530624628
0.5835844787620489
0.5020178596135615
0.22562801814278724
0.497668370284497
0.4852145407485084
0.476595926710503
0.47338463589169777
0.46272971823731956
0.6046500811921626
0.6167304597257155
0.28979495708401803
0.7743452174857949
0.7560274391702066
0.6773841433542219
0.5662934009763013
0.4971770166174889
0.48494142224775116
0.5650747075190068
0.6389281630274855
0.7377966827883475
0.7178749155701224
0.593308669780082
0.754591710012611
0.7635427915311496
0.7752242758767887
0.7854003179749487
0.5950845039861375
0.6219844345876259
0.600515273358376
0.582997519500518
0.617483129728408
0.6072140732987619
0.7918422597525914
0.5314667880849884
0.4378206392230099
0.3715084866609602
0.37900618274497855
0.40283739024139886
0.3967779492815521
0.4173300454380961
0.3721135941681397
0.42674581850832294
0.43625813389841067
0.3951394346477016
0.6619359346150058
0.443022494504007
0.6478640615490773
0.5423317301162841
0.7774166524085451
0.7830348511905235
0.352446830207924
0.3438331282275812
0.6400765318187672
0.8551214794822967
0.861277280650487
0.8600206149094293
0.8703581084437397
0.8685434592459563
0.8825691855081442
0.6157552855750427
0.6254464962863462
0.6311310679336657
0.6317592922610246
0.635133053665521
0.6306520848983675
0.6362960551202304
0.6275254288362622
0.6233687986451067
0.6406956768521276
0.6212870383453283
0.6453134285204983
0.6396692229993199
0.6492850591310749
0.6287064971198323
0.6211847252973557
0.6517805864003944
0.631304685722298
0.6442328292601867
0.4962477393095175
0.4332946775052261
0.5145135348843716
0.37139366657166456
0.3790990553091821
0.7844357438359301
0.6547095826150372
0.5138894762392654
0.4995596740954359
0.49888372711113166
0.5021190988379193
0.5154518423196974
0.5081528901549717
0.5151150951537501
0.5062114612967332
0.41081295985323985
0.6187093039411908
0.5971952102804176
0.6164428081789777
0.671582578168856
0.6496448540214705
0.6817769562567558
0.5793230583827035
0.4426845368478308
0.44542639726195243
0.45910417090055444
0.46882198380555906
0.48147077053298903
0.4568093143593923
0.7180663666566147
0.5370826968162445
0.5351112206592868
0.31033241924683336
0.6910176734660011
0.8779214947278356
0.5706623289522134
0.5326670856086904
0.6293701843383054
0.6207258454910979
0.8428642141670553
0.6507412277985518
0.636938480146322
0.6386239429684502
0.6309618291503137
0.6330277462501991
0.6237040515396457
0.6207369894425768
0.6279290624553991
0.6228925813197311
0.6255428260974581
0.6202464999648055
0.6407899535136273
0.613127389699768
0.6891208935839918
0.8111045456428565
0.565119716090934
0.5971290629956718
0.5441372669276234
0.5984013660115204
0.50482878549948
0.48532266877277347
0.5007262235058939
0.4805464945081558
0.4613633214712043
0.4593405597520505
0.4757382311369229
0.521999221429123
0.5679364537054392
0.497395344678219
0.7015093199522165
0.6328528769305601
0.7359903846821523
0.4724137154285673
0.7653641434912891
0.6847175144362727
0.6922358041139196
0.4819688382991336
0.5692319976003998
0.5915334114232254
0.5819385639960636
0.5737406973855308
0.554674092089851
0.4618997932887622
0.9174548074374285
0.8532026808872342
0.9238612420413735
0.405486685173634
0.700739220536068
0.7191693572925596
0.7656369098538656
0.8447691684866763
0.5549469381238815
0.5868307685102745
0.6792448635266769
0.4907839104185214
0.4975974150018322
0.4916063070011611
0.5370163957716231
0.5272569002415106
0.5589272263654848
0.5031188183561791
0.5117462893718895
0.662677049640856
0.6807288709944982
0.5814065348432091
0.6097473165516814
0.5093573421249953
0.6882215072297454
0.6536725517407539
0.7507185642460668
0.5711940441312653
0.3994782239954887
0.6599034249917596
0.462075113664978
0.7539372254379255
0.6465051752020384
0.6048287471628369
0.6121330300540924
0.5993703085037501
0.5872030731786411
0.5387770341327902
0.48682517807504916
0.5184563353905436
0.5580317881605983
0.5554070903190022
0.6175532052657562
0.9121999475118504
0.8937064281822895
0.9000115904842114
0.8864220433738604
0.8750025140606716
0.8690649775539162
0.881436776031406
0.8062071229541378
0.5870911821428394
0.557620453522221
0.5626058822979264
0.6578984487005286
0.7499211019063984
0.618000325162781
0.6503998358886631
0.6510196953768811
0.6412687710090391
0.6406813006522155
0.6780292696495226
0.5988219619084425
0.5234345032358102
0.5025492001562021
0.6520045022042733
0.6395938387137462
0.5357234008462154
0.5728968110799055
0.5648578967035124
0.553896603927767
0.5541655479273455
0.4511689386572935
0.254553129888563
0.9207148176985974
0.91453868785761
0.9014455981721552
0.9259701009755903
0.6186320343486108
0.8346898944380903
0.37507567804816905
0.41868216345098463
0.5898463390382888
0.5794283071446044
0.5926533384034913
0.545521308910115
0.5352725189531843
0.4825059811602427
0.5841671535950839
0.6951604425492879
0.9406381351044666
0.53236450996082
0.5289516468569188
0.6773824799950658
0.8423488193178776
0.7152264402030496
0.7274577839485407
0.6782885901573361
0.5708102213936206
0.5622085120566065
0.552888464290594
0.5551983931935256
0.5570434368593654
0.5644033651256884
0.536382576732786
0.912580480284127
0.8831044923351739
0.8886690967852114
0.902238079466449
0.9082627827261728
0.9175421700617478
0.8924252470323141
0.8963137976307447
0.47350798078526335
0.5442224725239099
0.7515540948913761
0.9475880040427371
0.6353549329694478
0.9233223954869058
0.9363372575224316
0.7732867938624312
0.6508645663762272
0.6386031011904233
0.6458265793626613
0.5274530623885566
0.6438534137456414
0.7938169063702379
0.6012303983730825
0.6027135304879515
0.6121676557402008
0.5933605966293262
0.6088495251453461
0.6048063410384789
0.5963654184105616
0.586241683450244
0.6284917654711073
0.6191191567150023
0.613331039061758
0.7506479248964448
0.6958424059854469
0.6083185819451878
0.5436005982986345
0.510724118426502
0.5836438892143857
0.5542135388050047
0.556961536158736
0.5658574596515994
0.8441620551278423
0.8632054426031925
0.8717276951916278
0.8571536519026631
0.8058621715205784
0.5348952660335118
0.7292781357722412
0.6701482064523142
0.8688569399611761
0.7045190395323978
0.6041695855745232
0.6222071517460593
0.5279135233497975
0.6619420447737483
0.6764738346383425
0.6327747126206027
0.7061147787579052
0.7395335509759655
0.7450842228622826
0.7623426937616157
0.6109586788532825
0.7064010537542387
0.6071138519207488
0.5554720943896605
0.5658915978347279
0.4869608127152456
0.6035931964214469
0.8977156114827931
0.518251113807657
0.77763414285002
0.7764083627349101
0.7940795235695487
0.7735794729102545
0.7899570510849908
0.8149471581431255
0.606525236254238
0.6520578438389661
0.6495821514898937
0.7084700707906241
0.629080757272708
0.9330704528911847
0.6992620763483284
0.7575398399013995
0.8544768256534304
0.6168267934569952
0.6246401308146071
0.7095090104814401
0.5510377970869632
0.15504195711908383
0.8704502442098582
0.593620450358094
0.6431546591987584
0.6540858817459865
0.6169081478858339
0.6267969041146981
0.596459632416639
0.6110622425270831
0.7553172758366726
0.6152045727675957
0.64689491167905
0.6991549097395925
0.6603250709592737
0.6602734294605141
0.7211783574558518
0.8066148229352359
0.5499490963370448
0.6938362941184077
0.6799329775272624
0.6617263369640102
0.6378842306597508
0.6714611545869728
0.5478778218411797
0.6271127895363962
0.4949528465492911
0.5374505048237297
0.5521785808516123
0.689060820307436
0.6550232800641637
0.6751535209479492
0.6669788654492115
0.7698353031769045
0.745823568012245
0.5273294870389023
0.48924798774929185
0.5942037963715935
0.6955229277412531
0.5482943007589186
0.6716641699100729
0.8561815808782868
0.6292195414077
0.5794731295625298
0.5912446290747488
0.6307545060427768
0.9289094502305362
0.5187316029658233
0.6312169831078285
0.6497053230418575
0.6656029849242476
0.8488372515143334
0.8294191450692993
0.8155385591798678
0.6277318012710452
0.9592384914709032
0.95401764870575
0.8059909677537122
0.8527207930208995
0.872862987716618
0.8925364684232941
0.6900861647519613
0.6153892619774377
0.9637357582369872
0.7147129755694621
0.5796387243932296
0.6436396178467543
0.8101410168801517
0.8303774794518678
0.6212311400575765
0.6925587529377019
0.7998374519391463
0.5849412935294049
0.532348023076735
0.6420506950973653
0.5893313958315366
0.4348510379209239
0.6122177814383668
0.7292527142086441
0.39692793733623455
0.3905889957386609
0.7229104703003102
0.6608386642214048
0.7248014062459149
0.6032518281071202
0.8872079939298001
0.5229374671819291
0.4657394480253302
0.528747838151487
0.6667328761808345
0.7217741717657445
0.6149038055601479
0.238992575320356
0.885482977637752
0.842657728523734
0.60925852048658
0.7680496034393671
0.6428927078564477
0.7545187782740486
0.7792125935539379
0.7474582303170034
0.5630807572064348
0.6170798756520072
0.9495438104968155
0.7136453070154863
0.7401873690731697
0.5645166939342017
0.9261181354034914
0.6863212280434934
0.609030289020711
0.626570053223678
0.5399872873198531
0.6204769597603894
0.5108789033310929
0.7067437099106523
0.6440547802581339
0.5362079028050911
0.8392186866748873
0.49025364350266926
0.4842493664873608
0.9072813154429998
0.7552596952465556
0.8747886568047094
0.8449554647363835
0.633029258930319
0.29560080300685226
0.6308430016794773
0.7555109718606211
0.7558212687316426
0.45752703068285555
0.6372791390362693
0.7307781450434508
0.3626540030625298
0.7925509625562718
0.6078098946119266
0.5094386773385773
0.5926186498600378
0.41849505441341417
0.44671688544047244
0.5938569194151322
0.6769489599903662
0.5213274449595966
0.7404917327521858
0.6247594020719208
0.7609132383147121
0.73300295750657
0.6089275293481997
0.8281277081037387
0.7892842431557561
0.5586330457982928
0.5177496693714326
0.4700225933144567
0.5597460803722535
0.4909949734639057
0.7681096122748772
0.8479555555837266
0.2845282329422827
0.3256355884233628
0.3525566966314347
0.5394282914213041
0.3824534344946149
0.607198222941931
0.6705880518615899
0.6756014638999184
0.48851821919040944
0.5104169998563981
0.5625861659411834
0.585932223824472
0.5947199513107593
0.7202286373191324
0.623773190131237
0.6542096271726527
0.637982253482059
0.46923384469462154
0.42378437517543593
0.6169031788304047
0.6352168699532001
0.9534472573290018
0.4442439061380491
0.8052254139885265
0.529447047847256
0.7814131408429315
0.6266473609161552
0.8162819714894166
0.6280024902015637
0.576353794898553
0.5333622990420613
0.6752954805986248
0.7105114188918836
0.688916375095229
0.8753678255754571
0.5285934979503575
0.4606070730958196
0.7100956431219442
0.8154813406670576
0.5474117273863829
0.7018316360272366
0.5849874745467245
0.7711686215280303
0.6351478636524696
0.6526486531560475
0.46670821444297556
0.6540757965450578
0.12541331441192918
0.5481477928559759
0.6423402488422889
0.5691727479361026
0.5482974904712125
0.7425428270125791
0.802684012465948
0.5533234258792559
0.4844022691762887
0.8156108063974791
0.5108322449742566
0.6720818688200096
0.572359204555257
0.638801716176636
0.467708029616018
0.516758992555333
0.6308192815127258
0.6138275673741015
0.5990596259984168
0.4598266737497136
0.4858895864138636
0.7278664520742725
0.7857437630424008
0.5558513788115278
0.5457079170789536
0.46900371554465703
0.8116306330161783
0.5969912009123108
0.552313661363406
0.6111991392129374
0.5275028188067561
0.6534562299724648
0.721696923553187
0.6950657941376566
0.6635726707545481
0.6912046463988597
0.62942472688744
0.6948314205076834
0.5878754910390399
0.4348180299109489
0.537291588647937
0.5451229716724395
0.6042935338294944
0.5096644732638497
0.8354038157867621
0.5777546758819092
0.6193324686813443
0.7708619217920145
0.6909738878565531
0.4996622731284797
0.5981664000894582
0.5773215682865259
0.6801450064191289
0.5423235645721063
0.5589770757950775
0.27338816934352755
0.6680977975353521
0.7628653030022545
0.5373158420836336
0.6782191525191895
0.5742565380908995
0.7315521048479381
0.5215877666530413
0.6015691687693911
0.5421547194942403
0.739028414839991
0.7079907270031807
0.7001897438543283
0.542714858919846
0.6669098421804659
0.5641747092132144
0.6567827149902179
0.45068190620196596
0.7246313563647856
0.8558374744165155
0.5699749758242061
0.6297521632203333
0.6895755345217213
0.5379627587350359
0.5032609665663591
0.8764147812736469
0.5206869625063059
0.6865333619679308
0.509573310064167
0.6514920171342167
0.5786025175950527
0.44978100750112016
0.7274704107262896
0.31694456921490455
0.519326639135286
0.7473377607751521
0.7022970569045155
0.6603693883606362
0.5747195686401236
0.5715658464537846
0.6624881711431436
0.4422279113370106
0.6373546315276427
0.6281206987850377
0.6761151300195432
0.6742801969906548
0.5486978237538052
0.3988799456698126
0.7793148111494779
0.8035912513052493
0.4761358881519787
0.6266770310186214
0.6214792887957601
0.36066663168770446
0.5010304816221328
0.33907789827506274
0.4117910850628898
0.6134731644397237
0.6390762513886469
0.6053708479878269
0.8829334300272548
0.5150226247527747
0.9468111148040412
0.5510928142805156
0.6624437847358347
0.6599016962875606
0.49335217051327457
0.41611687831833644
0.43326328390347174
0.588473576276772
0.7510135889001135
0.6929188540263685
0.6474593537184721
0.6360716901453713
0.6408044474956465
0.639694206810046
0.7645621443825916
0.40058703192069783
0.48109507404597496
0.62071776981239
0.46433127363028337
0.5687553786506215
0.710583082234929
0.7057463514124205
0.5202502260570973
0.6714871967312668
0.6434070379419038
0.6042926704954716
0.6029286606790668
0.6159331627425795
0.590551823138112
0.854060238392656
0.6258922157041927
0.4650737169390174
0.5597246755719744
0.5370589116529991
0.5096536332852497
0.6294923574905877
0.6660851700893978
0.5451617835476199
0.6486672134466221
0.580041685199835
0.8365867706928787
0.7712026727143264
0.45003049214926116
0.6110535384506849
0.5886740579895409
0.5136060389876942
0.7704847567771808
0.5654895598700326
0.604208932415636
0.7137742186763972
0.40249982604881207
0.7417912023258879
0.7747715628483607
0.5670747611437962
0.8461736409775181
0.5329168407650168
0.7712252072559098
0.646545542200806
0.696573521769321
0.5573598808710365
0.2647920013964027
0.4563091181326092
0.7399885514852041
0.5371061403658162
0.4484475368879127
0.5959951834025857
0.6025129775333272
0.5336722568053187
0.8639305736996015
0.7951312734998808
0.580489075306739
0.806444721256204
0.5404242015306675
0.56457392763313
0.6615281241199814
0.8541453160638472
0.6364539271853492
0.640540284452421
0.6049622804423972
0.5487008214556062
0.9083529328016753
0.6161162327739044
0.623959709099694
0.5431689706956414
0.571801984315009
0.5954013943332468
0.6567947808536139
0.6745479467830221
0.42756801295751695
0.6691680835528567
0.7594222961814217
0.796346784004605
0.6568107499935761
0.8919212398690434
0.7369487178134183
0.570866599731396
0.553429998173522
0.5204430117647559
0.5490608895074961
0.3221929784364152
0.595714491306906
0.5773530826239508
0.4537116628745312
0.3263483289434034
0.5146921079257017
0.5077616294289162
0.5864909388677269
0.5262815546942319
0.7133659311624337
0.8489105661399199
0.5499852624967406
0.41280502545568487
0.5046289015360725
0.3238553340408879
0.6357230490430089
0.44751362676177653
0.5680385646470536
0.7117634398697809
0.5011016606263108
0.6569355459259719
0.7797547495706417
0.6637473498843389
0.6833958461496142
0.8793078595210381
0.7586673225531486
0.7716722090972896
0.6422543535832311
0.6429318224874008
0.6233969457490629
0.6511554388935558
0.5394697776847913
0.7680288970014879
0.5352049007160821
0.4835938167104268
0.6156312570839523
0.5434852341246733
0.720446451489993
0.9849927485795928
0.9896342399155528
0.6753784253552442
0.4102189000063946
0.6632974478518857
0.9031520353173739
0.9206778710904481
0.575983737763875
0.5670842976426437
0.5368731413370437
0.5561687586793091
0.5874755287621141
0.6143040143818327
0.5083629652069236
0.47703790306721416
0.4765457596987794
0.6860416488539298
0.6728912941997911
0.5127246934153367
0.5601280815676357
0.48542949703508637
0.8205553497958464
0.48548398388094893
0.6600585562182427
0.636914808352012
0.616275763550433
0.6474075949171766
0.5222484449543293
0.5524488364671444
0.36744222548034233
0.5443544774567813
0.6368058238923978
0.9038724298969438
0.630104709494512
0.6274013272196585
0.4803291740215855
0.6235331113179762
0.4523146905499611
0.6120081464209174
0.5836774796007123
0.7637587618383352
0.5528855130984335
0.49729136754128594
0.6918597596494497
0.5346547595054828
0.550784194806262
0.4839471149889138
0.40341629070577384
0.7970555907858474
0.4989205734837104
0.6302900830761828
0.6460000174317063
0.8161393324214217
0.6436238753214855
0.5342782607487323
0.5911760529294873
0.9445215935266353
0.6960520003163829
0.7592544877669798
0.5461249750472542
0.8133317612726535
0.5708005484766596
0.5388146584302719
0.45835561691511634
0.775012622175104
0.6338638744554487
0.6223098632511119
0.8858410747889849
0.6428758359148633
0.6294966406462391
0.9398631430048243
0.7822955515054408
0.5014111733308476
0.6431245333998088
0.8094797408054949
0.7927767499941596
0.8823868712991589
0.46631165150174514
0.7098609290493214
0.46542887181782
0.5531217990901254
0.6403211679080767
0.6353473730558037
0.4261705438883767
0.5987646205879507
0.6650255476715616
0.6236303775640691
0.5355638059756821
0.8190773918006123
0.6330137914682271
0.5192994616474491
0.6346982850188416
0.6579452968199222
0.7411107347356828
0.5866385579301499
0.5585609112426958
0.5003556761500423
0.7748183095434392
0.6185573153593482
0.5363610294184926
0.5799222083516277
0.6964781280017255
0.6577596281072193
0.5271089149793698
0.5788601162861913
0.6587900303512869
0.6006380833460007
0.5966800665922605
0.6023818711158766
0.5411924427817362
0.5312438922289229
0.7802134944235535
0.9426416561182762
0.6520970399883682
0.6857797989006027
0.6790811553749839
0.6138815487808088
0.9546184295637253
0.7290216797753054
0.6315005529692278
0.6150412048628915
0.5998014012041828
0.6118706718249933
0.615924749066864
0.5721897281235162
0.5652765283659005
0.6022174058487936
0.5643279840352161
0.6254883096356043
0.8498413109904692
0.6004476686613041
0.5204199865848564
0.6131815626367284
0.793674953615032
0.5745672024085395
0.6194303632302428
0.6425809667356269
0.336993539398828
0.5982420206625146
0.581719069777338
0.3373604149824753
0.282134851058055
0.21987217347182783
0.47896395874066355
0.5089446408127254
0.677033148923749
0.6320801465774009
0.7796569715187267
0.6149862041987818
0.49135246225306245
0.5754232280346552
0.934449177594211
0.6467637819745196
0.5836090345316768
0.6896601116900765
0.5616849040028499
0.48076555044081815
0.7211968740303046
0.47340963217906673
0.6090929469148524
0.5765738969925537
0.5980951808953299
0.7977904423207796
0.5421281910881853
0.6372247125302049
0.5178172809336699
0.6305286400713941
0.6830935230402243
0.7643440701122625
0.863620017826138
0.8204507583576359
0.5166872813469058
0.5974697723659989
0.40700347745809834
0.7370878648553983
0.6231329718808176
0.436664073593858
0.5938871833331437
0.5208938513360347
0.7213400539456281
0.6054033478359062
0.5015268076498134
0.46234166852282604
0.4720473801286373
0.7562632207633534
0.6119755348409817
0.41382706971103633
0.6385998639638725
0.9658780832352976
0.6705065931240508
0.48933386946494856
0.5097766662137053
0.5284787713352822
0.9128851623350305
0.5746960214883757
0.5706932471770213
0.7670793042707246
0.68579543875623
0.663604183345444
0.550222528125595
0.6378689449911944
0.940898570821674
0.5865975946007416
0.7326713142462222
0.3743777993372404
0.872432914156802
0.4424043710035141
0.5434518336226175
0.49235166429758503
0.5586333921752292
0.6645939601149704
0.3050647736458922
0.5018224817376805
0.952990528934523
0.7581218694695292
0.5629008651561318
0.7439482214383196
0.5686956116890427
0.7902375717982428
0.5078676304463985
0.18646709130993275
0.5948420432627538
0.5983442167606572
0.9085377167880211
0.7923889033062698
0.6214177877835907
0.7545751074027495
0.9520291121359515
0.5313193016721618
0.7032975140756952
0.5709534599034776
0.43116762475905857
0.9447144421315135
0.6107442675717446
0.8724842470916226
CELL_DATA 4886
TENSORS stress float
-1.156149290485573e7 5.801308257131883e6 0.0
5.801308257131883e6 2.881882979949391e7 0.0
0.0 0.0 0.0

-1.952285730879209e7 9.598775263807695e6 0.0
9.598775263807695e6 9.54107329929334e6 0.0
0.0 0.0 0.0

-7.524138534653158e6 2.1270954306890637e7 0.0
2.1270954306890637e7 -4.930578958564681e6 0.0
0.0 0.0 0.0

-4.212978162026829e6 1.9885494517295104e7 0.0
1.9885494517295104e7 1.1723677651863014e7 0.0
0.0 0.0 0.0

-2.6877364457066306e6 2.2497895271459192e7 0.0
2.2497895271459192e7 -856855.3574466455 0.0
0.0 0.0 0.0

1.8519435686431874e6 3.126268152162531e6 0.0
3.126268152162531e6 -4.698084164796755e6 0.0
0.0 0.0 0.0

4.468150414643701e7 2.22014721434773e7 0.0
2.22014721434773e7 1.102214027475774e7 0.0
0.0 0.0 0.0

3.9068151836635973e6 3.2794184229686777e6 0.0
3.2794184229686777e6 -3.731484392265262e7 0.0
0.0 0.0 0.0

-1.1379347729402736e7 7.617246141786533e6 0.0
7.617246141786533e6 3.01715939599898e7 0.0
0.0 0.0 0.0

-8262.308123531751 1.7740619584885195e7 0.0
1.7740619584885195e7 1.6379530020824192e7 0.0
0.0 0.0 0.0

-1.3192564593337544e6 1.845419975643049e7 0.0
1.845419975643049e7 -6.897386111018581e6 0.0
0.0 0.0 0.0

-1.32737075634166e6 2.6672067382670242e7 0.0
2.6672067382670242e7 -440141.18465728447 0.0
0.0 0.0 0.0

2.410377194907466e6 8.762632798372261e6 0.0
8.762632798372261e6 -3.438396498655308e7 0.0
0.0 0.0 0.0

6.519784135977529e7 2.4975378480391655e7 0.0
2.4975378480391655e7 1.1931063309817303e7 0.0
0.0 0.0 0.0

-1.1911972312761764e6 1.8980771922817636e7 0.0
1.8980771922817636e7 -6.91284949671395e6 0.0
0.0 0.0 0.0

3.702689471389439e6 4.1533292637506756e6 0.0
4.1533292637506756e6 -1.4428515434199609e7 0.0
0.0 0.0 0.0

-2.1954302062983364e6 1.5598350587310398e7 0.0
1.5598350587310398e7 -1.826363231116623e7 0.0
0.0 0.0 0.0

871530.9404060878 1.2773280069601253e7 0.0
1.2773280069601253e7 -2.4285818509080566e7 0.0
0.0 0.0 0.0

-9.16676731739501e6 -3.9100210480553904e6 0.0
-3.9100210480553904e6 2.2482103344159435e7 0.0
0.0 0.0 0.0

-1.2149279803320188e6 2.1108142478587873e7 0.0
2.1108142478587873e7 -6.120386290605342e6 0.0
0.0 0.0 0.0

2.6237588905997993e6 1.0502474276175197e7 0.0
1.0502474276175197e7 -1.7628874243288986e7 0.0
0.0 0.0 0.0

-424333.6871982552 2.644068681685903e7 0.0
2.644068681685903e7 -470144.84100267 0.0
0.0 0.0 0.0

-9.621900879490282e6 6.031492814867532e6 0.0
6.031492814867532e6 1.5217992621716892e7 0.0
0.0 0.0 0.0

-1.1507961136379981e7 2.1226306465334937e7 0.0
2.1226306465334937e7 245490.47652923362 0.0
0.0 0.0 0.0

811396.1417174265 1.143172835092134e7 0.0
1.143172835092134e7 -3.120927266006822e7 0.0
0.0 0.0 0.0

1.6346680260129362e7 3.490288082533493e7 0.0
3.490288082533493e7 -1.039666713378508e7 0.0
0.0 0.0 0.0

2.9908079894257773e7 1.8934524114434775e7 0.0
1.8934524114434775e7 6.141000616295395e6 0.0
0.0 0.0 0.0

-1.1365490594695056e7 1.4802140445847984e7 0.0
1.4802140445847984e7 2.1623089414248727e7 0.0
0.0 0.0 0.0

3.876161139220666e6 4.213176359705925e6 0.0
4.213176359705925e6 -1.4682310872888206e7 0.0
0.0 0.0 0.0

-5.751932598890457e6 -2.4588824409849215e6 0.0
-2.4588824409849215e6 1.0176805493196048e7 0.0
0.0 0.0 0.0

-1.0794427170035727e7 7.579975509254117e6 0.0
7.579975509254117e6 1.3271963225348266e7 0.0
0.0 0.0 0.0

1.5383365822523679e6 8.209229180911635e6 0.0
8.209229180911635e6 -7.926266301897447e6 0.0
0.0 0.0 0.0

492630.89163635066 1.847142742911947e7 0.0
1.847142742911947e7 7.582481660820777e6 0.0
0.0 0.0 0.0

59060.10393258138 1.6722713299144708e7 0.0
1.6722713299144708e7 25681.63668701664 0.0
0.0 0.0 0.0

-3.8846147219899753e6 2.0596819067272436e7 0.0
2.0596819067272436e7 4.391888373603875e6 0.0
0.0 0.0 0.0

-1.0149799763113728e7 5.090085999239843e6 0.0
5.090085999239843e6 1.2001568299798055e7 0.0
0.0 0.0 0.0

245620.5365292253 1.1443490213401925e7 0.0
1.1443490213401925e7 -6.891279450038051e6 0.0
0.0 0.0 0.0

-3.4134853752712887e6 2.0375902709254663e7 0.0
2.0375902709254663e7 4.7594608009907175e6 0.0
0.0 0.0 0.0

-2.7001157552820332e6 1.4131334284900267e7 0.0
1.4131334284900267e7 -3.1716403092802987e7 0.0
0.0 0.0 0.0

-3.0384946876913877e6 2.418805320870591e7 0.0
2.418805320870591e7 1.749154830947026e6 0.0
0.0 0.0 0.0

1.6168890663120765e6 8.922040319982212e6 0.0
8.922040319982212e6 -3.752423102909812e7 0.0
0.0 0.0 0.0

-9.818302865832165e6 2.2737094972580384e7 0.0
2.2737094972580384e7 -6.29404474590313e6 0.0
0.0 0.0 0.0

-3.092603792444621e6 2.362505849885494e7 0.0
2.362505849885494e7 1.5788338974852806e6 0.0
0.0 0.0 0.0

-1.1342860890352491e7 2.710220413140249e6 0.0
2.710220413140249e6 2.1132950263159484e7 0.0
0.0 0.0 0.0

2.1857705881861867e6 1.0431911805179851e7 0.0
1.0431911805179851e7 -1.9249979485674948e7 0.0
0.0 0.0 0.0

-9.948236672500039e6 1.6021335253956016e7 0.0
1.6021335253956016e7 2.083908088056734e7 0.0
0.0 0.0 0.0

81654.1593782315 1.823498359495133e7 0.0
1.823498359495133e7 -1.0826297120321183e7 0.0
0.0 0.0 0.0

-354415.4339980809 1.1049552333790904e7 0.0
1.1049552333790904e7 -7.553936996507877e6 0.0
0.0 0.0 0.0

4.203427770420797e6 3.3891191695827316e6 0.0
3.3891191695827316e6 -3.110375899764027e7 0.0
0.0 0.0 0.0

3.4302676925804354e6 1.5399219889170514e7 0.0
1.5399219889170514e7 1.1434225899017336e7 0.0
0.0 0.0 0.0

-1.9653169305026245e6 2.341020199714232e7 0.0
2.341020199714232e7 -118397.16539580625 0.0
0.0 0.0 0.0

-1.443926749731151e7 7.187443814286982e6 0.0
7.187443814286982e6 8.46336783877087e6 0.0
0.0 0.0 0.0

4.250021213347431e6 3.4090037700628117e6 0.0
3.4090037700628117e6 -3.2167084656703603e7 0.0
0.0 0.0 0.0

-2.5657169233000046e6 2.192532008897385e7 0.0
2.192532008897385e7 897361.6651394783 0.0
0.0 0.0 0.0

3.336258063225261e6 1.580829072930458e7 0.0
1.580829072930458e7 1.398535786776195e7 0.0
0.0 0.0 0.0

-7.118754115874166e6 2.2077130253723826e7 0.0
2.2077130253723826e7 5.714474966593619e6 0.0
0.0 0.0 0.0

3.543438719971683e6 3.8322998334534587e6 0.0
3.8322998334534587e6 -4.074045804369341e7 0.0
0.0 0.0 0.0

-2.5768294896485847e6 2.4350035018623725e7 0.0
2.4350035018623725e7 1.8006593651948604e6 0.0
0.0 0.0 0.0

2.0947789497771012e6 1.721752014612408e7 0.0
1.721752014612408e7 2.8659109123506177e7 0.0
0.0 0.0 0.0

2.9747868584335074e6 9.557141652583541e6 0.0
9.557141652583541e6 -2.1107831054010183e7 0.0
0.0 0.0 0.0

-1.4198864531847222e6 1.4600177875178508e7 0.0
1.4600177875178508e7 -9.474751473266367e6 0.0
0.0 0.0 0.0

2.1166321194159426e7 2.0271469529525094e7 0.0
2.0271469529525094e7 -2.9272565652492205e6 0.0
0.0 0.0 0.0

-3.225716696859466e6 1.755760427130091e7 0.0
1.755760427130091e7 -1.0819043116328653e7 0.0
0.0 0.0 0.0

-7.53830549320518e6 -153725.18302293852 0.0
-153725.18302293852 1.0462166150367696e7 0.0
0.0 0.0 0.0

514068.43223905494 6.003515493134708e6 0.0
6.003515493134708e6 -2.554967187332249e6 0.0
0.0 0.0 0.0

3.9060668025793806e6 4.500870220434404e6 0.0
4.500870220434404e6 -3.0429510485423032e7 0.0
0.0 0.0 0.0

2.999714164337838e6 7.690950702125564e6 0.0
7.690950702125564e6 -3.417694477442613e7 0.0
0.0 0.0 0.0

-3.164605279414871e6 2.1563543898223553e7 0.0
2.1563543898223553e7 274809.48058659304 0.0
0.0 0.0 0.0

-290537.24926578626 1.727523777126097e7 0.0
1.727523777126097e7 2.3651913183277823e7 0.0
0.0 0.0 0.0

1.617558732620009e7 1.5939666010232503e7 0.0
1.5939666010232503e7 3.710508192263537e6 0.0
0.0 0.0 0.0

-1.2312328183605175e7 4.234384719928919e6 0.0
4.234384719928919e6 1.895621539066832e7 0.0
0.0 0.0 0.0

1.4837812542660963e6 1.1427715261494815e7 0.0
1.1427715261494815e7 -2.891934980159951e7 0.0
0.0 0.0 0.0

-2.5692584594154414e6 1.4834258653998103e7 0.0
1.4834258653998103e7 -2.9457440513281967e7 0.0
0.0 0.0 0.0

3.1289214971792996e6 1.67456365289395e7 0.0
1.67456365289395e7 4.064001821635779e7 0.0
0.0 0.0 0.0

-4.22123532317799e6 2.001358551606093e7 0.0
2.001358551606093e7 1.1085939335809348e7 0.0
0.0 0.0 0.0

-1.0074718471541043e7 1.6074307136471974e7 0.0
1.6074307136471974e7 2.0459991864952907e7 0.0
0.0 0.0 0.0

-4.551299735106433e6 1.2161921725028416e7 0.0
1.2161921725028416e7 9.419451227754684e6 0.0
0.0 0.0 0.0

-1.5527747715032017e6 1.5325502761933345e7 0.0
1.5325502761933345e7 -1.7923084790088203e7 0.0
0.0 0.0 0.0

-462414.6227368433 1.619174957839458e7 0.0
1.619174957839458e7 -1.01088365115045e7 0.0
0.0 0.0 0.0

1.2108957582727792e6 1.2813930702618279e7 0.0
1.2813930702618279e7 -1.5723616120787093e7 0.0
0.0 0.0 0.0

1.603081652104696e7 2.232779670490184e7 0.0
2.232779670490184e7 -5.282395658374784e6 0.0
0.0 0.0 0.0

-9.984411700349228e6 -3.3059473434941703e6 0.0
-3.3059473434941703e6 2.6778094297169942e7 0.0
0.0 0.0 0.0

1.0473487219989641e6 1.6527143368295971e7 0.0
1.6527143368295971e7 -2.428991885259745e6 0.0
0.0 0.0 0.0

-410942.16433056403 2.7508091946115825e7 0.0
2.7508091946115825e7 -1.162343233485734e6 0.0
0.0 0.0 0.0

-4.537995124487108e6 1.9952509792134684e7 0.0
1.9952509792134684e7 1.1787397713439487e7 0.0
0.0 0.0 0.0

4.275551800992873e6 3.8668194848658554e6 0.0
3.8668194848658554e6 -1.9810118440820493e7 0.0
0.0 0.0 0.0

1.173974035165857e6 7.429294830566113e6 0.0
7.429294830566113e6 -8.888685902261816e6 0.0
0.0 0.0 0.0

402971.6219477928 1.7453658982064743e7 0.0
1.7453658982064743e7 6.887178718084326e6 0.0
0.0 0.0 0.0

1.2389438609744173e7 3.6364353498536e7 0.0
3.6364353498536e7 -1.2686835345488524e7 0.0
0.0 0.0 0.0

-1.0485142014626447e7 7.014018234031971e6 0.0
7.014018234031971e6 3.649401976870326e7 0.0
0.0 0.0 0.0

935799.842049825 1.796836104928869e7 0.0
1.796836104928869e7 -6.901163507161256e6 0.0
0.0 0.0 0.0

-1.0946672977185016e6 1.651814565132911e7 0.0
1.651814565132911e7 -1.2213596228611523e7 0.0
0.0 0.0 0.0

-285134.32414082345 1.0067881732743798e7 0.0
1.0067881732743798e7 -6.645586016463784e6 0.0
0.0 0.0 0.0

-209253.286634034 5.148927417907119e6 0.0
5.148927417907119e6 -3.767317787551672e6 0.0
0.0 0.0 0.0

3.0625056473382795e6 1.8819025379902054e7 0.0
1.8819025379902054e7 -4.618268080193056e6 0.0
0.0 0.0 0.0

-2.301160291397933e6 1.5293764652685927e7 0.0
1.5293764652685927e7 -2.419640441178576e7 0.0
0.0 0.0 0.0

3.843643988473462e6 3.2763641054614997e6 0.0
3.2763641054614997e6 -3.706820004038915e7 0.0
0.0 0.0 0.0

-4.627772709174022e6 2.03638965657969e7 0.0
2.03638965657969e7 1.0030256221377969e7 0.0
0.0 0.0 0.0

2.875311717630215e6 8.455466022487521e6 0.0
8.455466022487521e6 -2.753336908647892e7 0.0
0.0 0.0 0.0

3.5448342500841785e6 3.8316005048471666e6 0.0
3.8316005048471666e6 -4.145103015551984e7 0.0
0.0 0.0 0.0

-3.74893179434999e6 1.8758871832901474e7 0.0
1.8758871832901474e7 1.2226028545668636e7 0.0
0.0 0.0 0.0

-4.577959849889701e6 1.6802126139440328e7 0.0
1.6802126139440328e7 -1.2355259886438444e7 0.0
0.0 0.0 0.0

-1.083610149627947e7 6.0010535201735385e6 0.0
6.0010535201735385e6 1.6966168539115064e7 0.0
0.0 0.0 0.0

-2.4295677964342134e6 2.3042521768667895e7 0.0
2.3042521768667895e7 1.1239211242783528e6 0.0
0.0 0.0 0.0

27214.252890249714 1.0219419195011916e7 0.0
1.0219419195011916e7 -4.939536224361952e6 0.0
0.0 0.0 0.0

-5.824583028423367e6 1.2374014166893177e7 0.0
1.2374014166893177e7 9.433865595631372e6 0.0
0.0 0.0 0.0

-9.693340794881782e6 -3.0758192179822656e6 0.0
-3.0758192179822656e6 2.722134198496501e7 0.0
0.0 0.0 0.0

1.5687109600017723e6 1.298281271658626e7 0.0
1.298281271658626e7 -1.4707360285293313e7 0.0
0.0 0.0 0.0

-897219.6830643117 2.6144947434144072e7 0.0
2.6144947434144072e7 -626188.3479246952 0.0
0.0 0.0 0.0

-7.890106369126152e6 5.933439736630555e6 0.0
5.933439736630555e6 1.2824051596128844e7 0.0
0.0 0.0 0.0

2.0966504905639607e6 7.871763785029519e6 0.0
7.871763785029519e6 -3.711877604645867e7 0.0
0.0 0.0 0.0

-1.9570913905287343e6 1.0809311430502359e7 0.0
1.0809311430502359e7 -3.5819888612485537e6 0.0
0.0 0.0 0.0

5.730954344547712e6 1.981320645374444e7 0.0
1.981320645374444e7 9.543390459249288e6 0.0
0.0 0.0 0.0

3.0806173706494607e7 1.9846751739980806e7 0.0
1.9846751739980806e7 5.78247165282678e6 0.0
0.0 0.0 0.0

3.832106911116629e6 6.042369041689875e6 0.0
6.042369041689875e6 -1.8226463697657824e7 0.0
0.0 0.0 0.0

-3.7600579562989483e6 1.533864502097705e7 0.0
1.533864502097705e7 -2.984177105916835e7 0.0
0.0 0.0 0.0

3.6850082619246924e6 6.031488071288471e6 0.0
6.031488071288471e6 -1.915628540734791e7 0.0
0.0 0.0 0.0

4.476274043440408e6 3.874032111663887e6 0.0
3.874032111663887e6 -2.0512774911537185e7 0.0
0.0 0.0 0.0

2.6172197216752537e7 1.3186785857464038e7 0.0
1.3186785857464038e7 548421.5258613843 0.0
0.0 0.0 0.0

-9.29043119804528e6 3.1275887906221516e7 0.0
3.1275887906221516e7 3.5985434755105865e6 0.0
0.0 0.0 0.0

-1.9017919106305353e6 1.4215046018424295e7 0.0
1.4215046018424295e7 -2.717685454832905e7 0.0
0.0 0.0 0.0

-8.516192865142316e6 2.0595092476420015e7 0.0
2.0595092476420015e7 -2.3809086078078696e6 0.0
0.0 0.0 0.0

4.614872034611758e6 3.739795274019247e6 0.0
3.739795274019247e6 -2.6219470198204663e7 0.0
0.0 0.0 0.0

-7.574898805848986e6 2.1926199567523632e7 0.0
2.1926199567523632e7 6.329314222147604e6 0.0
0.0 0.0 0.0

5.325290365070413e6 2.636734430762277e7 0.0
2.636734430762277e7 -4.62144999447803e6 0.0
0.0 0.0 0.0

-1.194371567555347e7 8.814295264977282e6 0.0
8.814295264977282e6 2.748197054032601e7 0.0
0.0 0.0 0.0

7.649300841745075e6 3.54993757011765e7 0.0
3.54993757011765e7 -7.929739397476522e6 0.0
0.0 0.0 0.0

-549019.3025547558 1.7481466556301553e7 0.0
1.7481466556301553e7 -766087.1119876967 0.0
0.0 0.0 0.0

4.1242620194048863e6 3.285308404724074e6 0.0
3.285308404724074e6 -3.2991088310037814e7 0.0
0.0 0.0 0.0

2.202732320281211e7 1.660444104638687e7 0.0
1.660444104638687e7 2.30419413924748e6 0.0
0.0 0.0 0.0

-3.573469944674858e6 1.8419835277809344e7 0.0
1.8419835277809344e7 1.2365211831475446e7 0.0
0.0 0.0 0.0

3.348206304595327e6 6.107716119552267e6 0.0
6.107716119552267e6 -3.007868377780175e7 0.0
0.0 0.0 0.0

-499910.0426278359 2.151366807788119e7 0.0
2.151366807788119e7 -5.451585539846986e6 0.0
0.0 0.0 0.0

746425.679060414 1.7425906034315497e7 0.0
1.7425906034315497e7 -7.5881503016780885e6 0.0
0.0 0.0 0.0

-2.774095992326695e6 1.6501144146611609e7 0.0
1.6501144146611609e7 -1.1118874386508338e7 0.0
0.0 0.0 0.0

-425701.8674815181 1.6847787476589676e7 0.0
1.6847787476589676e7 -9.033447864730813e6 0.0
0.0 0.0 0.0

7.944880592769047e6 2.0152786475164182e7 0.0
2.0152786475164182e7 9.648911394809654e6 0.0
0.0 0.0 0.0

1.7693184860120416e6 6.517483707379077e6 0.0
6.517483707379077e6 -5.127532641796345e7 0.0
0.0 0.0 0.0

-4.946828729313109e6 2.1005414457219165e7 0.0
2.1005414457219165e7 9.855845899435598e6 0.0
0.0 0.0 0.0

1.4233380838106524e6 4.492868112811908e6 0.0
4.492868112811908e6 -4.269903813101929e6 0.0
0.0 0.0 0.0

-1.1715948723880166e7 1.3383426085668975e7 0.0
1.3383426085668975e7 2.233875592673755e7 0.0
0.0 0.0 0.0

4.499009550770998e6 4.265762318372915e6 0.0
4.265762318372915e6 -1.8059361675938077e7 0.0
0.0 0.0 0.0

-9.278133928681629e6 -3.231005458242739e6 0.0
-3.231005458242739e6 3.2791474814314034e7 0.0
0.0 0.0 0.0

1.5489567016884582e6 1.3673982495043658e7 0.0
1.3673982495043658e7 -1.7720716470032275e7 0.0
0.0 0.0 0.0

1.282638452560642e6 2.86577423008122e6 0.0
2.86577423008122e6 -4.404077161363585e6 0.0
0.0 0.0 0.0

2.6955384298388865e6 1.6264835496459318e7 0.0
1.6264835496459318e7 1.348536795176289e7 0.0
0.0 0.0 0.0

-2.999608401177628e6 2.3922958189547144e7 0.0
2.3922958189547144e7 3.4630137863716315e6 0.0
0.0 0.0 0.0

-1.0061203306944288e7 -1.9777081874432114e6 0.0
-1.9777081874432114e6 3.11027313250681e7 0.0
0.0 0.0 0.0

-1.9120216213630284e6 1.795458757019727e7 0.0
1.795458757019727e7 6.994723764225718e6 0.0
0.0 0.0 0.0

3.3685609549430027e6 1.987608856358342e7 0.0
1.987608856358342e7 -5.423876729130865e6 0.0
0.0 0.0 0.0

-3.222562141990802e6 2.0901411824714538e7 0.0
2.0901411824714538e7 29814.99217103445 0.0
0.0 0.0 0.0

-3.144610430369032e6 1.915586899681908e7 0.0
1.915586899681908e7 -7.815926626958313e6 0.0
0.0 0.0 0.0

-2.7762417691466436e6 2.1065508044741556e7 0.0
2.1065508044741556e7 1.4091434137339054e6 0.0
0.0 0.0 0.0

-4.413767883428247e6 1.4978336334085174e7 0.0
1.4978336334085174e7 -1.666913667179888e7 0.0
0.0 0.0 0.0

1.3514291298492655e7 2.1655393834452596e7 0.0
2.1655393834452596e7 -5.985541969666225e6 0.0
0.0 0.0 0.0

-1.0824181939297519e6 1.5749216721763229e7 0.0
1.5749216721763229e7 -1.3127712780151283e7 0.0
0.0 0.0 0.0

-5.723252146134112e6 1.7894101763925146e7 0.0
1.7894101763925146e7 1.973568168607176e7 0.0
0.0 0.0 0.0

2.274030529365534e6 1.8904461432616632e7 0.0
1.8904461432616632e7 1.2371874099543259e7 0.0
0.0 0.0 0.0

2.6594480573458597e6 9.697363478005057e6 0.0
9.697363478005057e6 -2.0439718183087803e7 0.0
0.0 0.0 0.0

-6.59900740038421e6 1.1499971891571779e7 0.0
1.1499971891571779e7 8.453356349268425e6 0.0
0.0 0.0 0.0

-3.1141593598487745e6 2.7117490108721215e7 0.0
2.7117490108721215e7 1.6612610619951214e6 0.0
0.0 0.0 0.0

-6.690669527442432e6 1.754821480951657e7 0.0
1.754821480951657e7 1.433848976199051e7 0.0
0.0 0.0 0.0

1.2691615319348674e6 2.832012189710714e7 0.0
2.832012189710714e7 -1.065242837970318e6 0.0
0.0 0.0 0.0

1.136158585091102e6 1.3415869061918378e7 0.0
1.3415869061918378e7 -1.8836639833702832e7 0.0
0.0 0.0 0.0

-1.6972230499175753e7 2.366380668523826e7 0.0
2.366380668523826e7 -6.185187621201912e6 0.0
0.0 0.0 0.0

3.986737184840249e6 4.629063693360533e6 0.0
4.629063693360533e6 -3.656937329161545e7 0.0
0.0 0.0 0.0

7.722192721656438e6 2.8254027562700246e7 0.0
2.8254027562700246e7 -4.677929330800826e6 0.0
0.0 0.0 0.0

-1.6669198165478045e7 2.7796452185621615e7 0.0
2.7796452185621615e7 7.402031681723789e6 0.0
0.0 0.0 0.0

-397397.2160285935 1.749655889643086e7 0.0
1.749655889643086e7 1.514558942809121e7 0.0
0.0 0.0 0.0

-3.0926077430605702e7 2.760347335394202e7 0.0
2.760347335394202e7 7.877130572887527e6 0.0
0.0 0.0 0.0

4.302623296576347e6 3.305926630056528e6 0.0
3.305926630056528e6 -3.389503943018858e7 0.0
0.0 0.0 0.0

-6.309194888387504e6 1.743563114622563e7 0.0
1.743563114622563e7 1.5546536171024932e7 0.0
0.0 0.0 0.0

-8.615231053217914e6 5.84405503369806e6 0.0
5.84405503369806e6 1.028654785709466e7 0.0
0.0 0.0 0.0

4.248978271713793e6 3.552844014329529e6 0.0
3.552844014329529e6 -1.902765617602784e7 0.0
0.0 0.0 0.0

226972.16325669782 1.7464846842217498e7 0.0
1.7464846842217498e7 -9.020593506204367e6 0.0
0.0 0.0 0.0

-6.405835389428274e6 3.237368835618729e7 0.0
3.237368835618729e7 4.588461369826904e6 0.0
0.0 0.0 0.0

-1.2581971321404587e7 1.4756221321225619e7 0.0
1.4756221321225619e7 8.722362076720597e6 0.0
0.0 0.0 0.0

-2.9097618582790595e7 2.392763298741166e7 0.0
2.392763298741166e7 2.9474143037961535e6 0.0
0.0 0.0 0.0

3.146310536994339e7 1.8801590926842693e7 0.0
1.8801590926842693e7 1.0801178295695148e7 0.0
0.0 0.0 0.0

-5.336402580270171e6 1.4816569990996582e7 0.0
1.4816569990996582e7 -6.6025679298101276e7 0.0
0.0 0.0 0.0

-167547.49677194422 1.650092965412295e7 0.0
1.650092965412295e7 -1.1156235497154837e7 0.0
0.0 0.0 0.0

-5.534263585095387e6 1.7528639525942713e7 0.0
1.7528639525942713e7 1.960504957318402e7 0.0
0.0 0.0 0.0

-138538.35372166568 1.9861047259187438e7 0.0
1.9861047259187438e7 -8.350808847731231e6 0.0
0.0 0.0 0.0

-2.0712528361384107e6 2.2840913583242107e7 0.0
2.2840913583242107e7 -292565.1332536655 0.0
0.0 0.0 0.0

1.7535250360901435e6 1.5185028611495342e7 0.0
1.5185028611495342e7 7.817992766380987e6 0.0
0.0 0.0 0.0

858813.4014041849 2.7746470173579123e7 0.0
2.7746470173579123e7 -997366.9939729867 0.0
0.0 0.0 0.0

-9.5704975412298e6 5.907306753350259e6 0.0
5.907306753350259e6 1.336497216471805e7 0.0
0.0 0.0 0.0

4.233136951388839e7 2.7054873558184702e7 0.0
2.7054873558184702e7 1.5003635234465858e7 0.0
0.0 0.0 0.0

-264782.00089237955 2.2623943324538335e7 0.0
2.2623943324538335e7 -5.150108937867047e6 0.0
0.0 0.0 0.0

2.5684407009740374e6 1.4684007739909658e7 0.0
1.4684007739909658e7 1.0521055828249028e7 0.0
0.0 0.0 0.0

-9.162441863737194e6 2.1988985803052563e7 0.0
2.1988985803052563e7 2.2502227431252464e6 0.0
0.0 0.0 0.0

-1.4935179815625679e6 1.6464909664677486e7 0.0
1.6464909664677486e7 1.4153838981162079e7 0.0
0.0 0.0 0.0

-764279.4713727749 2.1468576012709666e7 0.0
2.1468576012709666e7 -5.085924758717172e6 0.0
0.0 0.0 0.0

3.3079554179866295e6 7.580344830224691e6 0.0
7.580344830224691e6 -2.686408793724829e7 0.0
0.0 0.0 0.0

-3.822302173862192e6 1.9735264145762578e7 0.0
1.9735264145762578e7 5.141068806148395e6 0.0
0.0 0.0 0.0

-5.0854520637041405e6 1.975518703124056e7 0.0
1.975518703124056e7 3.338266216583877e6 0.0
0.0 0.0 0.0

1.5677577976150042e6 7.503923384776944e6 0.0
7.503923384776944e6 -1.0552062016019516e7 0.0
0.0 0.0 0.0

-4.0064413838371234e6 2.0482327682822734e7 0.0
2.0482327682822734e7 1.0362506554272259e7 0.0
0.0 0.0 0.0

-9.833888776131714e6 4.504097904285099e6 0.0
4.504097904285099e6 4.005009186396833e7 0.0
0.0 0.0 0.0

-720133.2381384269 1.0369258837388946e7 0.0
1.0369258837388946e7 -2.8959813368038014e6 0.0
0.0 0.0 0.0

-9.450235715675632e6 2.14737241939697e7 0.0
2.14737241939697e7 -5.503069930843141e6 0.0
0.0 0.0 0.0

2.8814012690156557e7 2.3815617837453954e7 0.0
2.3815617837453954e7 1.1920119205265868e7 0.0
0.0 0.0 0.0

1.1666562678002222e6 1.3002082878338678e7 0.0
1.3002082878338678e7 -2.3752210566609025e7 0.0
0.0 0.0 0.0

3.9051483946319e6 6.10595085493209e6 0.0
6.10595085493209e6 -2.82107047502568e7 0.0
0.0 0.0 0.0

6.241477075304821e6 1.8567361027045947e7 0.0
1.8567361027045947e7 2.226870080600808e6 0.0
0.0 0.0 0.0

-5.156266076167871e6 9.719727017719653e6 0.0
9.719727017719653e6 1.498476277761768e7 0.0
0.0 0.0 0.0

-2.373063679941372e6 2.2074980016736165e7 0.0
2.2074980016736165e7 136804.72982089524 0.0
0.0 0.0 0.0

-1.6872380431310476e6 1.909462410002498e7 0.0
1.909462410002498e7 -6.44079505522227e6 0.0
0.0 0.0 0.0

-1.1721246960393446e6 1.927095642344043e7 0.0
1.927095642344043e7 -7.982741547978604e6 0.0
0.0 0.0 0.0

-782864.0904846129 1.6847574396343846e7 0.0
1.6847574396343846e7 -6.462043040141351e6 0.0
0.0 0.0 0.0

2.132562911689602e6 8.176246067468514e6 0.0
8.176246067468514e6 -9.543819081241269e6 0.0
0.0 0.0 0.0

2.368527217644308e7 2.1448421395244718e7 0.0
2.1448421395244718e7 8.626825169045351e6 0.0
0.0 0.0 0.0

1.6407197120458174e6 1.5689849871549757e7 0.0
1.5689849871549757e7 7.075498990096766e6 0.0
0.0 0.0 0.0

-3.2605419755301718e6 2.6716267444084585e7 0.0
2.6716267444084585e7 3.3315227083174586e6 0.0
0.0 0.0 0.0

-3.0988236489897035e7 1.8160415316638824e7 0.0
1.8160415316638824e7 8.530021061681591e6 0.0
0.0 0.0 0.0

4.3205750771428645e6 3.993976085492159e6 0.0
3.993976085492159e6 -1.7022534087420933e7 0.0
0.0 0.0 0.0

152345.8803799206 1.7120932712117884e7 0.0
1.7120932712117884e7 5.204935316907441e6 0.0
0.0 0.0 0.0

-3.141852666221654e6 1.434526598330976e7 0.0
1.434526598330976e7 -1.5902422145766022e7 0.0
0.0 0.0 0.0

135676.21849508584 1.532537836808342e7 0.0
1.532537836808342e7 -1.780751144620675e7 0.0
0.0 0.0 0.0

-9.445322496735018e6 -4.801038973403621e6 0.0
-4.801038973403621e6 2.1194284082123883e7 0.0
0.0 0.0 0.0

1.4604123020285312e6 1.234693491393228e7 0.0
1.234693491393228e7 -1.6803922814365614e7 0.0
0.0 0.0 0.0

-7.059492485568658e6 1.5812258378707632e7 0.0
1.5812258378707632e7 -3.793127269027586e7 0.0
0.0 0.0 0.0

1.712885387948717e6 1.1840645449788308e7 0.0
1.1840645449788308e7 -1.7706932451423533e7 0.0
0.0 0.0 0.0

839464.463565235 1.797467759734038e7 0.0
1.797467759734038e7 -8.423633014255863e6 0.0
0.0 0.0 0.0

2.3789163226246774e7 1.8822304307954773e7 0.0
1.8822304307954773e7 5.434560218048522e6 0.0
0.0 0.0 0.0

-1.0071371156434463e7 1.3212594293928064e7 0.0
1.3212594293928064e7 2.8413150171453033e7 0.0
0.0 0.0 0.0

-3.611974332166314e6 1.9946260550580297e7 0.0
1.9946260550580297e7 -8.352228271820377e6 0.0
0.0 0.0 0.0

89192.06564527517 1.5799497724764682e7 0.0
1.5799497724764682e7 335437.9120927429 0.0
0.0 0.0 0.0

-4.997657691497153e6 1.8584831629457247e7 0.0
1.8584831629457247e7 -1.0205504066383012e7 0.0
0.0 0.0 0.0

2.2572742046719972e7 2.231348459237871e7 0.0
2.231348459237871e7 9.891111130672753e6 0.0
0.0 0.0 0.0

-4.710699172754915e6 2.05195571306927e7 0.0
2.05195571306927e7 1.0958596538465107e7 0.0
0.0 0.0 0.0

1.3569130368406484e6 1.7443435901261166e7 0.0
1.7443435901261166e7 -3.566636284303975e6 0.0
0.0 0.0 0.0

-1.3173149534553927e6 2.422095968533815e7 0.0
2.422095968533815e7 -1.0287857653166399e6 0.0
0.0 0.0 0.0

-3.8293325984306145e6 1.9769844128855098e7 0.0
1.9769844128855098e7 5.88992471338345e6 0.0
0.0 0.0 0.0

-7.099792822408125e6 1.0183487264257402e6 0.0
1.0183487264257402e6 6.155245743506014e7 0.0
0.0 0.0 0.0

-177161.0534358574 1.772389756239692e7 0.0
1.772389756239692e7 -1.1930643406214584e7 0.0
0.0 0.0 0.0

-2.584478588707654e6 2.3890845189838756e7 0.0
2.3890845189838756e7 2.03915451129524e6 0.0
0.0 0.0 0.0

274509.2687256038 4.069076013333756e6 0.0
4.069076013333756e6 -1.1439409899048153e6 0.0
0.0 0.0 0.0

-1.0805292558922488e7 1.4953922687985552e7 0.0
1.4953922687985552e7 2.175453493582513e7 0.0
0.0 0.0 0.0

-3.3441566794851073e6 1.6426586306641465e7 0.0
1.6426586306641465e7 -8.468407707602266e6 0.0
0.0 0.0 0.0

4.175138137918465e6 4.0153293280942836e6 0.0
4.0153293280942836e6 -2.312909623934776e7 0.0
0.0 0.0 0.0

-2.2477584672439485e6 2.7479380230131958e7 0.0
2.7479380230131958e7 2.2369871986175687e6 0.0
0.0 0.0 0.0

1.9224080134634823e6 1.2551706656506715e7 0.0
1.2551706656506715e7 -1.5398829862135474e7 0.0
0.0 0.0 0.0

-7.268351898197831e6 1.6948754676892363e7 0.0
1.6948754676892363e7 1.699666769988709e7 0.0
0.0 0.0 0.0

2.8185525375598837e6 5.883643880839234e6 0.0
5.883643880839234e6 -4.740338380651052e7 0.0
0.0 0.0 0.0

-3.851216736575627e6 2.638844327174041e7 0.0
2.638844327174041e7 2.925894630549184e6 0.0
0.0 0.0 0.0

-5.950431787476124e6 1.5376742062750151e7 0.0
1.5376742062750151e7 -2.2930325651790623e7 0.0
0.0 0.0 0.0

3.673672040803631e6 3.176129146583952e6 0.0
3.176129146583952e6 -1.1662538250596456e7 0.0
0.0 0.0 0.0

-302791.19655783346 9.765441698132383e6 0.0
9.765441698132383e6 -4.005697586002962e6 0.0
0.0 0.0 0.0

-1.3743447331060326e7 2.7968827050241202e7 0.0
2.7968827050241202e7 6.514437017879922e6 0.0
0.0 0.0 0.0

3.523338351194088e6 1.4798081741397733e7 0.0
1.4798081741397733e7 1.2385211885370811e7 0.0
0.0 0.0 0.0

-7.015289127080221e6 3.0640139270949386e7 0.0
3.0640139270949386e7 3.280984389156075e6 0.0
0.0 0.0 0.0

-1.1453463614627983e7 4.1180676384368553e6 0.0
4.1180676384368553e6 2.186661292655351e7 0.0
0.0 0.0 0.0

1.554592099480033e6 8.587339418806316e6 0.0
8.587339418806316e6 -5.273103200731505e7 0.0
0.0 0.0 0.0

5.597268514751187e7 1.9029664807794154e7 0.0
1.9029664807794154e7 396508.26922939345 0.0
0.0 0.0 0.0

-2.3038862084523016e6 2.266852625992345e7 0.0
2.266852625992345e7 328461.1641756983 0.0
0.0 0.0 0.0

-4.907496460375279e6 2.3837454122569785e7 0.0
2.3837454122569785e7 6.123183216253048e6 0.0
0.0 0.0 0.0

-3.1660274444002686e6 2.136230324616182e7 0.0
2.136230324616182e7 3.954279960212364e6 0.0
0.0 0.0 0.0

3.7112648602261785e6 1.8157213371630676e7 0.0
1.8157213371630676e7 4.235830917598295e7 0.0
0.0 0.0 0.0

3.9770633094486278e6 4.209079415854845e6 0.0
4.209079415854845e6 -2.6914570280564316e7 0.0
0.0 0.0 0.0

409143.57169030607 1.1855305442480188e7 0.0
1.1855305442480188e7 -7.599811178154637e6 0.0
0.0 0.0 0.0

3.8146262414863044e6 2.6386554895931058e7 0.0
2.6386554895931058e7 -4.05246249220741e6 0.0
0.0 0.0 0.0

1.8694007304208316e6 9.932744533214618e6 0.0
9.932744533214618e6 -3.054849972740309e7 0.0
0.0 0.0 0.0

-1.7818260622949377e7 1.6654498929143487e7 0.0
1.6654498929143487e7 8.304325278054194e6 0.0
0.0 0.0 0.0

-5.119299828194682e6 1.992273360116066e7 0.0
1.992273360116066e7 2.2813010562555892e6 0.0
0.0 0.0 0.0

192257.17810885655 1.557840371476104e7 0.0
1.557840371476104e7 3.3460984177273503e6 0.0
0.0 0.0 0.0

2.134394622000265e6 1.2062564471511517e7 0.0
1.2062564471511517e7 -1.6357819565942984e7 0.0
0.0 0.0 0.0

448609.911088774 1.7698217986097272e7 0.0
1.7698217986097272e7 2.5494803984297905e7 0.0
0.0 0.0 0.0

7.497646225084619e6 2.6395285613615792e7 0.0
2.6395285613615792e7 -5.328827605553927e6 0.0
0.0 0.0 0.0

-3.771204216992576e7 2.1574124079837915e6 0.0
2.1574124079837915e6 7.908401579972016e6 0.0
0.0 0.0 0.0

3.0591402783401072e7 3.369200643215839e7 0.0
3.369200643215839e7 -1.1126123985798543e7 0.0
0.0 0.0 0.0

6.861205619601869e6 2.6728466555008937e7 0.0
2.6728466555008937e7 -5.9114657940246975e6 0.0
0.0 0.0 0.0

4.017437364163e6 4.0789439950064034e6 0.0
4.0789439950064034e6 -1.6417216620822689e7 0.0
0.0 0.0 0.0

-3.3347006531256177e6 2.3963994942868453e7 0.0
2.3963994942868453e7 2.293450657177455e6 0.0
0.0 0.0 0.0

2.9060975489789464e7 1.3388558086996933e7 0.0
1.3388558086996933e7 966547.081913054 0.0
0.0 0.0 0.0

-9.100657889365634e6 6.796424475886484e6 0.0
6.796424475886484e6 4.299870910829419e7 0.0
0.0 0.0 0.0

-205194.3842821773 1.791094606553853e7 0.0
1.791094606553853e7 -1.1524130188722339e7 0.0
0.0 0.0 0.0

1.7945997753705855e7 1.664865890381765e7 0.0
1.664865890381765e7 3.9823297933150847e6 0.0
0.0 0.0 0.0

711639.0228062072 1.79515721300601e7 0.0
1.79515721300601e7 -9.72151046063549e6 0.0
0.0 0.0 0.0

4.1855387881044038e6 4.558884463150481e6 0.0
4.558884463150481e6 -2.8781762417678334e7 0.0
0.0 0.0 0.0

-1.9656904596882237e6 2.2449000246696867e7 0.0
2.2449000246696867e7 -1.1341479658335154e6 0.0
0.0 0.0 0.0

-2.617710071707585e6 1.4549154224240288e7 0.0
1.4549154224240288e7 -1.464355774614915e7 0.0
0.0 0.0 0.0

-8236.351801489713 2.3783500152796693e7 0.0
2.3783500152796693e7 -4.0317974639547816e6 0.0
0.0 0.0 0.0

-7.937125369640237e6 9.298784804820888e6 0.0
9.298784804820888e6 4.4809217921381e7 0.0
0.0 0.0 0.0

-456648.7760969871 1.5784451931582708e7 0.0
1.5784451931582708e7 -8.903159411143534e6 0.0
0.0 0.0 0.0

2.6833712335492475e6 9.423222239843905e6 0.0
9.423222239843905e6 -2.194551199772516e7 0.0
0.0 0.0 0.0

2.0609065071484377e6 2.0129066277502023e7 0.0
2.0129066277502023e7 -6.213913786104883e6 0.0
0.0 0.0 0.0

-1.8964892190289297e6 1.5308206480289768e7 0.0
1.5308206480289768e7 -7.984942774467518e6 0.0
0.0 0.0 0.0

-9.647112625389392e6 2.03545044869743e6 0.0
2.03545044869743e6 4.011755621234495e7 0.0
0.0 0.0 0.0

-21232.56000192091 1.7962115364126697e7 0.0
1.7962115364126697e7 1.697638801799181e7 0.0
0.0 0.0 0.0

1.77756464918961e6 9.633794121682685e6 0.0
9.633794121682685e6 -3.2747134669856425e7 0.0
0.0 0.0 0.0

573734.5712032884 2.3594818230766706e7 0.0
2.3594818230766706e7 -3.9855581358467997e6 0.0
0.0 0.0 0.0

1.1833129476606045e6 1.9071227243067205e7 0.0
1.9071227243067205e7 1.2040069244312026e7 0.0
0.0 0.0 0.0

3.3876622017151965e6 8.534965384993913e6 0.0
8.534965384993913e6 -2.141944825112023e7 0.0
0.0 0.0 0.0

4.202772960156222e7 2.0723233281262163e7 0.0
2.0723233281262163e7 8.874542493484415e6 0.0
0.0 0.0 0.0

73600.72314199829 2.3133692503478672e7 0.0
2.3133692503478672e7 -4.139002107513971e6 0.0
0.0 0.0 0.0

-9.765408794171806e6 -4.213910764136356e6 0.0
-4.213910764136356e6 2.441178982717815e7 0.0
0.0 0.0 0.0

-1.058649972220591e7 2.2439736224049837e6 0.0
2.2439736224049837e6 3.7068374035738766e7 0.0
0.0 0.0 0.0

4.646723821137125e6 2.6228782616837323e6 0.0
2.6228782616837323e6 -2.4355593793864146e7 0.0
0.0 0.0 0.0

-3.7313423311705766e6 2.10058559601482e7 0.0
2.10058559601482e7 3.4678221113316077e6 0.0
0.0 0.0 0.0

-1.0345808424083195e6 1.6247718349116052e7 0.0
1.6247718349116052e7 -7.13673629185758e6 0.0
0.0 0.0 0.0

-169547.5308968788 1.9383861517377023e7 0.0
1.9383861517377023e7 -9.3438723752099e6 0.0
0.0 0.0 0.0

-9.444683077122884e6 -1.4494592013091105e6 0.0
-1.4494592013091105e6 1.8365272070485458e7 0.0
0.0 0.0 0.0

-853561.6740225747 1.9641838369812537e7 0.0
1.9641838369812537e7 -6.761124681805905e6 0.0
0.0 0.0 0.0

-9.791263361376025e6 1.9109503795530992e6 0.0
1.9109503795530992e6 3.9819299185847536e7 0.0
0.0 0.0 0.0

6.059123919972962e6 1.759802468496739e7 0.0
1.759802468496739e7 3.865821844643047e6 0.0
0.0 0.0 0.0

1.2283638443712406e6 1.138644061362326e7 0.0
1.138644061362326e7 -3.120975713244166e7 0.0
0.0 0.0 0.0

2.29685509977269e6 9.571812953367235e6 0.0
9.571812953367235e6 -3.2798419639891528e7 0.0
0.0 0.0 0.0

-1.1012339281201182e7 1.466888075563936e7 0.0
1.466888075563936e7 2.2697471694390345e7 0.0
0.0 0.0 0.0

-3.5976203495145706e6 1.7863011191388134e7 0.0
1.7863011191388134e7 3.963502256063042e6 0.0
0.0 0.0 0.0

1.0010631242898756e6 4.644135128806077e6 0.0
4.644135128806077e6 -2.9704542576887133e6 0.0
0.0 0.0 0.0

-636935.9559494592 1.6499108557451988e7 0.0
1.6499108557451988e7 -7.773868896589186e6 0.0
0.0 0.0 0.0

-3.616571700735453e6 2.2943369063942894e7 0.0
2.2943369063942894e7 6.007404225074534e6 0.0
0.0 0.0 0.0

3.4857048310651863e6 1.808887705007383e7 0.0
1.808887705007383e7 3.188507044163006e7 0.0
0.0 0.0 0.0

8.64819075600118e6 1.9763804586096965e7 0.0
1.9763804586096965e7 -3.324507590396645e6 0.0
0.0 0.0 0.0

-6.585927572281133e6 603270.5354174306 0.0
603270.5354174306 5.961336322437051e7 0.0
0.0 0.0 0.0

-9.980607167396797e6 8.861141343177512e6 0.0
8.861141343177512e6 3.5132980797547005e7 0.0
0.0 0.0 0.0

-1.0687000279918214e7 1.4078721183333304e7 0.0
1.4078721183333304e7 1.895063042998649e7 0.0
0.0 0.0 0.0

963375.7574717761 1.6034968785136396e7 0.0
1.6034968785136396e7 7.870031962799628e6 0.0
0.0 0.0 0.0

-9.053524023229633e6 2.7666998793911533e6 0.0
2.7666998793911533e6 1.3448460875396855e7 0.0
0.0 0.0 0.0

-9.077727750614585e6 1.9158316252674848e7 0.0
1.9158316252674848e7 -2.1033519964743135e6 0.0
0.0 0.0 0.0

4.374267265686825e6 4.972025047348666e6 0.0
4.972025047348666e6 -2.5664723722484235e7 0.0
0.0 0.0 0.0

-5.178226231334501e6 1.5396055306605393e7 0.0
1.5396055306605393e7 -3.2411956276734486e7 0.0
0.0 0.0 0.0

892294.2071530065 1.564660779602515e7 0.0
1.564660779602515e7 4.944751964699254e6 0.0
0.0 0.0 0.0

1.136253989551074e7 2.3907682714279633e7 0.0
2.3907682714279633e7 -6.8433191649254905e6 0.0
0.0 0.0 0.0

1.0116998584736781e6 1.8425793306134805e7 0.0
1.8425793306134805e7 -7.716263037471041e6 0.0
0.0 0.0 0.0

-1.6848034372751337e7 2.2968158014965374e7 0.0
2.2968158014965374e7 -4.471074912076491e6 0.0
0.0 0.0 0.0

-2.3231394652681537e6 2.3226560283913735e7 0.0
2.3226560283913735e7 -1.17562376421329e6 0.0
0.0 0.0 0.0

-781821.7161700842 6.523438725615398e6 0.0
6.523438725615398e6 -3.3759008489784235e6 0.0
0.0 0.0 0.0

-4.983905011947272e6 3.141150090205476e7 0.0
3.141150090205476e7 4.49322886725552e6 0.0
0.0 0.0 0.0

-3.400087391649345e6 1.8249155520407677e7 0.0
1.8249155520407677e7 2.9054315201344434e6 0.0
0.0 0.0 0.0

-1.1636044080848666e7 6.028325251522766e6 0.0
6.028325251522766e6 1.429480594492099e7 0.0
0.0 0.0 0.0

-3.8280706018431303e6 1.8145028413038075e7 0.0
1.8145028413038075e7 1.3122686699870836e6 0.0
0.0 0.0 0.0

-2.6481411579312338e6 2.606642524915033e6 0.0
2.606642524915033e6 1.255513439649814e6 0.0
0.0 0.0 0.0

689187.9338166644 9.41037432346168e6 0.0
9.41037432346168e6 -1.2474069745450342e7 0.0
0.0 0.0 0.0

1.3637615204585623e6 1.1881287399734631e7 0.0
1.1881287399734631e7 -2.7245937790217377e7 0.0
0.0 0.0 0.0

-6.838221324443699e6 1.9948317589020353e7 0.0
1.9948317589020353e7 -6.354361794598574e6 0.0
0.0 0.0 0.0

-5.498562247614427e6 1.7883552161974717e7 0.0
1.7883552161974717e7 1.8774453796742912e7 0.0
0.0 0.0 0.0

-777592.0131937036 1.6139703000096386e7 0.0
1.6139703000096386e7 -5.193902660422812e6 0.0
0.0 0.0 0.0

3.406204721821934e6 4.3039948377528805e6 0.0
4.3039948377528805e6 -1.1841824985504702e7 0.0
0.0 0.0 0.0

-1.892270242335482e6 2.105601887478368e7 0.0
2.105601887478368e7 -4.358870789712314e6 0.0
0.0 0.0 0.0

-1.6459505185707898e6 2.4039540337767854e7 0.0
2.4039540337767854e7 -1.9418916954688749e6 0.0
0.0 0.0 0.0

3.104314002836012e6 1.9745680587963488e7 0.0
1.9745680587963488e7 -5.626606512914442e6 0.0
0.0 0.0 0.0

-1.1792978178007772e7 8.922588962566633e6 0.0
8.922588962566633e6 1.5491651198970446e7 0.0
0.0 0.0 0.0

-1.2643566348011023e6 1.540421411586732e7 0.0
1.540421411586732e7 -1.6504466794525534e7 0.0
0.0 0.0 0.0

-5.0395419257435845e6 2.7544454064210314e7 0.0
2.7544454064210314e7 3.3526100440239008e6 0.0
0.0 0.0 0.0

-4.347881517037245e6 2.697079210041273e7 0.0
2.697079210041273e7 3.131132624211763e6 0.0
0.0 0.0 0.0

-1.3780546786239771e6 1.4078119137781737e7 0.0
1.4078119137781737e7 -2.517337127467279e7 0.0
0.0 0.0 0.0

-2.4269254071084796e6 1.529062130262327e7 0.0
1.529062130262327e7 -1.0169495815868065e7 0.0
0.0 0.0 0.0

342212.12441183405 1.6250289881342191e7 0.0
1.6250289881342191e7 4.147726205523433e6 0.0
0.0 0.0 0.0

2.718426553508524e6 8.977672149898963e6 0.0
8.977672149898963e6 -2.621499067101739e7 0.0
0.0 0.0 0.0

-1.124740794365348e7 9.943177291290594e6 0.0
9.943177291290594e6 2.897206956113523e7 0.0
0.0 0.0 0.0

-200291.23657403514 1.148900235596821e7 0.0
1.148900235596821e7 -5.460033397428478e7 0.0
0.0 0.0 0.0

5.581820031055304e6 2.916918262392803e7 0.0
2.916918262392803e7 -6.067852329201892e6 0.0
0.0 0.0 0.0

4.3428880591367595e6 1.6159538545059074e7 0.0
1.6159538545059074e7 2.0814793694800243e7 0.0
0.0 0.0 0.0

1.4884017524382798e6 1.714691146801905e7 0.0
1.714691146801905e7 2.846661823473614e7 0.0
0.0 0.0 0.0

1.6564622271482706e7 2.0488752238848332e7 0.0
2.0488752238848332e7 8.679997848026086e6 0.0
0.0 0.0 0.0

-458816.22014201176 1.6066066521044299e7 0.0
1.6066066521044299e7 2.516026777298902e6 0.0
0.0 0.0 0.0

-1.7528814709794857e6 2.075384881350128e7 0.0
2.075384881350128e7 -4.1575775454973443e6 0.0
0.0 0.0 0.0

-2.3099412993243095e7 2.3116114045355e7 0.0
2.3116114045355e7 -5.15132495424933e6 0.0
0.0 0.0 0.0

-353313.5452394145 1.5276727433400646e7 0.0
1.5276727433400646e7 755736.4513687658 0.0
0.0 0.0 0.0

-3.1027800360193057e6 1.9017125735806428e7 0.0
1.9017125735806428e7 4.6595023963431185e6 0.0
0.0 0.0 0.0

4.625656053159518e6 4.105175547654378e6 0.0
4.105175547654378e6 -2.1476006623827547e7 0.0
0.0 0.0 0.0

-9.706939628576173e6 2.0481920173149545e7 0.0
2.0481920173149545e7 -609329.604931884 0.0
0.0 0.0 0.0

-1.251987731084428e7 3.294985799971381e7 0.0
3.294985799971381e7 5.286331462138841e6 0.0
0.0 0.0 0.0

-1.0260728019107446e7 154415.37719531948 0.0
154415.37719531948 2.1340637107806258e7 0.0
0.0 0.0 0.0

7.169221789739978e6 2.478132201870133e7 0.0
2.478132201870133e7 -5.340406500523707e6 0.0
0.0 0.0 0.0

-5.475184695772357e6 9.326448451649418e6 0.0
9.326448451649418e6 6.462265244863522e7 0.0
0.0 0.0 0.0

-9.478326837041592e6 -4.356294555301322e6 0.0
-4.356294555301322e6 2.4007553211294994e7 0.0
0.0 0.0 0.0

-9.710885377240045e6 1.757119545146286e7 0.0
1.757119545146286e7 -4.1613561385372005e7 0.0
0.0 0.0 0.0

-112096.33367306227 1.7119704032886744e7 0.0
1.7119704032886744e7 -1.0120922790980987e7 0.0
0.0 0.0 0.0

-1.4292219653566158e6 2.4745212546505395e7 0.0
2.4745212546505395e7 -839790.5365811071 0.0
0.0 0.0 0.0

-6.89788459430087e6 1.7407719921877496e7 0.0
1.7407719921877496e7 -5.123014018060689e6 0.0
0.0 0.0 0.0

-428709.06738105183 9.245596800780008e6 0.0
9.245596800780008e6 -3.070251151718214e6 0.0
0.0 0.0 0.0

-2.3548797419664976e6 2.2235812504395884e7 0.0
2.2235812504395884e7 -2.220899815518501e6 0.0
0.0 0.0 0.0

-3.1139165080783702e6 2.6207155919316765e7 0.0
2.6207155919316765e7 2.8286644327464895e6 0.0
0.0 0.0 0.0

-1.2632178170363165e6 2.4848894272717968e7 0.0
2.4848894272717968e7 -1.1313145088847447e6 0.0
0.0 0.0 0.0

-1.8239372952884063e6 1.0730421576995678e7 0.0
1.0730421576995678e7 -6.002994880381435e7 0.0
0.0 0.0 0.0

-4.247970308972331e6 1.7068227781578947e7 0.0
1.7068227781578947e7 -1.2907298819325823e7 0.0
0.0 0.0 0.0

-8.444794790640472e6 1.4499267704232794e6 0.0
1.4499267704232794e6 4.781443061933762e7 0.0
0.0 0.0 0.0

9.250432814240906e6 2.0506482781787034e7 0.0
2.0506482781787034e7 4.808566000051606e7 0.0
0.0 0.0 0.0

-4.1570792481566384e7 2.174303982612739e6 0.0
2.174303982612739e6 7.9194166601513885e6 0.0
0.0 0.0 0.0

2.842533369072722e7 2.17513493321256e7 0.0
2.17513493321256e7 1.1008629766169637e6 0.0
0.0 0.0 0.0

777090.7240346586 1.3810853547346318e7 0.0
1.3810853547346318e7 -2.2923900411267854e7 0.0
0.0 0.0 0.0

2.3462032894300683e6 5.378903637918292e6 0.0
5.378903637918292e6 -7.758568747626474e6 0.0
0.0 0.0 0.0

3.925914568331958e7 2.06164773941995e7 0.0
2.06164773941995e7 -5.358514174059633e6 0.0
0.0 0.0 0.0

3.4632720802125745e6 1.128751835380871e7 0.0
1.128751835380871e7 -1.620946250074696e7 0.0
0.0 0.0 0.0

2.0867835995371003e7 2.032391326149732e7 0.0
2.032391326149732e7 8.736800621883126e6 0.0
0.0 0.0 0.0

-2.5810319661367666e6 2.3074187892992627e7 0.0
2.3074187892992627e7 -667047.2898217667 0.0
0.0 0.0 0.0

-4.447282701776661e6 2.3359073129604973e7 0.0
2.3359073129604973e7 6.234938473680494e6 0.0
0.0 0.0 0.0

-572367.8773324427 1.2239654156343302e7 0.0
1.2239654156343302e7 -8.201251227812055e6 0.0
0.0 0.0 0.0

-7.527789957222585e6 1.249848443975503e7 0.0
1.249848443975503e7 -1.7130898276364056e6 0.0
0.0 0.0 0.0

-3.7267483218042133e6 1.536952358565512e7 0.0
1.536952358565512e7 -1.5847296286266774e7 0.0
0.0 0.0 0.0

-1.9414488560004933e6 1.8253523530111216e7 0.0
1.8253523530111216e7 6.92457374547511e6 0.0
0.0 0.0 0.0

1.0925255657495013e6 1.790783718694882e7 0.0
1.790783718694882e7 8.674424358392067e6 0.0
0.0 0.0 0.0

-6.110758122527525e6 7.954559808946181e6 0.0
7.954559808946181e6 6.025230580676514e7 0.0
0.0 0.0 0.0

-2.9639285773166497e6 2.1765945000716813e7 0.0
2.1765945000716813e7 -388019.577497337 0.0
0.0 0.0 0.0

4.633413604942264e6 2.6156035003327895e6 0.0
2.6156035003327895e6 -2.4551100845814113e7 0.0
0.0 0.0 0.0

-4.24539622940801e6 1.9092206088451527e7 0.0
1.9092206088451527e7 1.314749887843341e7 0.0
0.0 0.0 0.0

487143.5079434081 1.791980018146429e7 0.0
1.791980018146429e7 9.942380828556124e6 0.0
0.0 0.0 0.0

7.86285318424266e6 2.1179851308487087e7 0.0
2.1179851308487087e7 -4.9804453405791875e6 0.0
0.0 0.0 0.0

-897907.2479181001 2.100171931628261e7 0.0
2.100171931628261e7 -6.6331727869554665e6 0.0
0.0 0.0 0.0

-3.81871701231971e6 2.8717067395640433e7 0.0
2.8717067395640433e7 2.20834668970883e6 0.0
0.0 0.0 0.0

-1.573739733307958e6 6.972265562017409e6 0.0
6.972265562017409e6 -2.2615194197565257e6 0.0
0.0 0.0 0.0

-9.949563045689058e6 2.7487467806301758e7 0.0
2.7487467806301758e7 5.473817229471329e6 0.0
0.0 0.0 0.0

-2.73890212204533e6 2.3697795379564103e7 0.0
2.3697795379564103e7 2.7293016420382774e6 0.0
0.0 0.0 0.0

-1.0227005238497123e7 1.5170178050952034e7 0.0
1.5170178050952034e7 1.8929724243950948e7 0.0
0.0 0.0 0.0

2.3087644091936372e7 1.991991042501878e7 0.0
1.991991042501878e7 -2.9642362521304945e6 0.0
0.0 0.0 0.0

430563.3501716056 1.6583812182708543e7 0.0
1.6583812182708543e7 -1.2480565313916491e7 0.0
0.0 0.0 0.0

-2.8020357103624223e6 2.2906783462438375e7 0.0
2.2906783462438375e7 -62209.521281898255 0.0
0.0 0.0 0.0

-276411.2512856149 1.1233718749328133e7 0.0
1.1233718749328133e7 -8.492685730528262e6 0.0
0.0 0.0 0.0

-2.009672847358713e6 1.807398004277863e7 0.0
1.807398004277863e7 1.091824141802735e7 0.0
0.0 0.0 0.0

-1.1049508383170152e7 1.2516311551719729e7 0.0
1.2516311551719729e7 1.157421706339878e6 0.0
0.0 0.0 0.0

-1.0607166848562783e7 1.99356027828353e7 0.0
1.99356027828353e7 -989593.7620514478 0.0
0.0 0.0 0.0

48106.48970661452 1.693703271072891e7 0.0
1.693703271072891e7 -1.007975078048053e7 0.0
0.0 0.0 0.0

6.26738535318787e6 1.4461608549065206e7 0.0
1.4461608549065206e7 4.282585512615986e6 0.0
0.0 0.0 0.0

17966.031724615954 1.6106687237420857e7 0.0
1.6106687237420857e7 -1.5464804304065356e7 0.0
0.0 0.0 0.0

-5.786894644127246e6 1.7755514809536655e7 0.0
1.7755514809536655e7 1.8655601936121583e7 0.0
0.0 0.0 0.0

-1.5381330491044901e7 1.8201178829565145e7 0.0
1.8201178829565145e7 4.375233470630722e6 0.0
0.0 0.0 0.0

-2.273602319804988e6 1.8069994952118922e7 0.0
1.8069994952118922e7 2.7390888268792126e6 0.0
0.0 0.0 0.0

-1.2633610915854748e7 5.196633521799637e6 0.0
5.196633521799637e6 1.9876899160336323e7 0.0
0.0 0.0 0.0

807304.5550155845 1.697433689954088e7 0.0
1.697433689954088e7 1.4328014252307834e7 0.0
0.0 0.0 0.0

8.922996927355776e6 2.6761483333447397e7 0.0
2.6761483333447397e7 -6.949978889482243e6 0.0
0.0 0.0 0.0

-3.2996802447704244e7 2.225832151460276e7 0.0
2.225832151460276e7 4.912740665745337e6 0.0
0.0 0.0 0.0

4.99191879982165e6 3.2343596410340033e7 0.0
3.2343596410340033e7 -3.2793806458338993e6 0.0
0.0 0.0 0.0

-1.1437965170432217e7 2.0878689960577134e7 0.0
2.0878689960577134e7 357810.04272179725 0.0
0.0 0.0 0.0

2.497377361670811e6 2.9763677211896025e7 0.0
2.9763677211896025e7 -1.5643265945508196e6 0.0
0.0 0.0 0.0

-1.1779470816710636e7 1.5618313919969974e6 0.0
1.5618313919969974e6 1.913581398875647e7 0.0
0.0 0.0 0.0

9.972636728827808e6 2.0374920325910717e7 0.0
2.0374920325910717e7 -3.714758340075959e6 0.0
0.0 0.0 0.0

-3.6268415554391304e6 2.7286761718651056e7 0.0
2.7286761718651056e7 3.623104936102917e6 0.0
0.0 0.0 0.0

-3.8778514612212162e6 1.881358444192955e7 0.0
1.881358444192955e7 751421.9953676204 0.0
0.0 0.0 0.0

163757.04888240714 1.5115635758566707e7 0.0
1.5115635758566707e7 -1.9269201197199002e7 0.0
0.0 0.0 0.0

-5.5781068222347535e6 2.5113751106585e7 0.0
2.5113751106585e7 5.555225261891547e6 0.0
0.0 0.0 0.0

-6.927174805151422e6 1.717339210915334e7 0.0
1.717339210915334e7 -1.5392186761476127e6 0.0
0.0 0.0 0.0

1.8434812317955836e6 2.927901041280781e7 0.0
2.927901041280781e7 -3.256267725502022e6 0.0
0.0 0.0 0.0

-1.2762913978185419e7 2.7945759779003173e7 0.0
2.7945759779003173e7 6.791196984608255e6 0.0
0.0 0.0 0.0

6.5700411342882095e6 2.0627345069032766e7 0.0
2.0627345069032766e7 -4.552574337976633e6 0.0
0.0 0.0 0.0

3.8803273188792523e6 5.642673222665396e6 0.0
5.642673222665396e6 -1.4697093051896723e7 0.0
0.0 0.0 0.0

-3.9346892769540576e6 1.5560423271524157e7 0.0
1.5560423271524157e7 -2.675558232715969e7 0.0
0.0 0.0 0.0

3.408672222635231e6 4.195901792706855e6 0.0
4.195901792706855e6 -1.2776673478286741e7 0.0
0.0 0.0 0.0

2.769765653555842e6 1.6647847497542873e7 0.0
1.6647847497542873e7 1.993566233447407e7 0.0
0.0 0.0 0.0

3.37379565978546e6 1.9058835358151957e7 0.0
1.9058835358151957e7 -4.300648620473528e6 0.0
0.0 0.0 0.0

5.044259513173366e6 2.5029189802409027e7 0.0
2.5029189802409027e7 -4.936394654265696e6 0.0
0.0 0.0 0.0

-1.0771555276680954e7 1.5521086764667744e7 0.0
1.5521086764667744e7 2.145124843816568e7 0.0
0.0 0.0 0.0

82678.43030684581 1.2784235855680998e7 0.0
1.2784235855680998e7 -7.376246041576198e6 0.0
0.0 0.0 0.0

-848517.650954199 7.488674025071756e6 0.0
7.488674025071756e6 5.0165181453564e6 0.0
0.0 0.0 0.0

979983.8758617844 1.0000345501791898e7 0.0
1.0000345501791898e7 -4.526987126213834e7 0.0
0.0 0.0 0.0

1.3219542634976814e6 1.4250360389693888e7 0.0
1.4250360389693888e7 4.427355370869392e6 0.0
0.0 0.0 0.0

-1.232509980321075e7 2.5310885913032845e7 0.0
2.5310885913032845e7 5.812390691314399e6 0.0
0.0 0.0 0.0

-711675.8524605343 1.5791284895236775e7 0.0
1.5791284895236775e7 -1.1149242100651706e7 0.0
0.0 0.0 0.0

1.7433374807158068e7 1.9229776942620095e7 0.0
1.9229776942620095e7 5.566848059043757e6 0.0
0.0 0.0 0.0

-1.1623073616853535e7 4.423713850345482e6 0.0
4.423713850345482e6 2.585345157607524e7 0.0
0.0 0.0 0.0

-2.7358801505543016e7 2.5381390514591884e7 0.0
2.5381390514591884e7 3.843130617675375e6 0.0
0.0 0.0 0.0

2.149122173263957e7 2.7227826322814252e7 0.0
2.7227826322814252e7 -1.1621543062573409e7 0.0
0.0 0.0 0.0

-4.532018530895459e6 2.3530489336023062e7 0.0
2.3530489336023062e7 6.977591769627819e6 0.0
0.0 0.0 0.0

-272191.61472069414 1.401753340279101e7 0.0
1.401753340279101e7 1.844725081687288e6 0.0
0.0 0.0 0.0

-9.500030016053354e6 1.4744994041942004e7 0.0
1.4744994041942004e7 2.5383655219070207e7 0.0
0.0 0.0 0.0

-1.0352141761580743e7 -2.9910383009357383e6 0.0
-2.9910383009357383e6 2.4951254909948833e7 0.0
0.0 0.0 0.0

18361.21304712072 1.6286024201542383e7 0.0
1.6286024201542383e7 -1.3539942090263085e7 0.0
0.0 0.0 0.0

-6.977344319542212e6 2.196403401007679e7 0.0
2.196403401007679e7 -8.263936021369878e6 0.0
0.0 0.0 0.0

-333789.9163580723 1.6582314701027084e7 0.0
1.6582314701027084e7 -9.154797541907571e6 0.0
0.0 0.0 0.0

-8.430020311957095e6 9.676224392741963e6 0.0
9.676224392741963e6 4.0946698645581655e7 0.0
0.0 0.0 0.0

1.1458525738413157e6 1.3017711421062201e7 0.0
1.3017711421062201e7 -2.26109172161968e7 0.0
0.0 0.0 0.0

-7.325951912860027e6 2.194332295704308e7 0.0
2.194332295704308e7 -8.278887864802647e6 0.0
0.0 0.0 0.0

206087.20193690248 1.477464323837177e7 0.0
1.477464323837177e7 -1.9170377836115737e7 0.0
0.0 0.0 0.0

1.768380967640876e7 1.9243088430466127e7 0.0
1.9243088430466127e7 8.2832652930865465e6 0.0
0.0 0.0 0.0

-9.7264268143689e6 7.902282960406377e6 0.0
7.902282960406377e6 3.772650042790183e7 0.0
0.0 0.0 0.0

896067.4466016713 1.73532329246895e7 0.0
1.73532329246895e7 -1.4961230626552135e6 0.0
0.0 0.0 0.0

-3.4939092408854524e6 1.839375952511477e7 0.0
1.839375952511477e7 1.5251822763779763e7 0.0
0.0 0.0 0.0

1.0970652280130046e6 2.413143186914156e7 0.0
2.413143186914156e7 -3.971201280570751e6 0.0
0.0 0.0 0.0

3.2418942596125696e6 9.187425399071582e6 0.0
9.187425399071582e6 -2.291343650124892e7 0.0
0.0 0.0 0.0

2.165133629538134e6 8.687723617815519e6 0.0
8.687723617815519e6 -1.019311172477623e7 0.0
0.0 0.0 0.0

1.020886503237946e6 1.0391978201969014e7 0.0
1.0391978201969014e7 -3.9356304917957515e7 0.0
0.0 0.0 0.0

-6.7960642793265935e6 2.026187922083294e7 0.0
2.026187922083294e7 -3.301410413290455e6 0.0
0.0 0.0 0.0

-1.1004677568264747e7 7.572450543939323e6 0.0
7.572450543939323e6 3.362786443906967e7 0.0
0.0 0.0 0.0

-5.691694384534388e6 2.0136017748411905e7 0.0
2.0136017748411905e7 -6.006257709767043e6 0.0
0.0 0.0 0.0

-115393.33520117076 1.5786264068625512e7 0.0
1.5786264068625512e7 -9.481819325515077e6 0.0
0.0 0.0 0.0

2.2353633403269816e6 8.251814307492814e6 0.0
8.251814307492814e6 -3.504794266303583e7 0.0
0.0 0.0 0.0

-1.0364347559245424e7 1.3631617894183394e7 0.0
1.3631617894183394e7 2.665681316193833e7 0.0
0.0 0.0 0.0

2.102564090855257e6 1.574234753970983e7 0.0
1.574234753970983e7 8.951756095554957e6 0.0
0.0 0.0 0.0

742303.7219377458 1.1727607358791437e7 0.0
1.1727607358791437e7 -2.9393862639467545e7 0.0
0.0 0.0 0.0

4.278689760057429e6 3.1813037320545353e6 0.0
3.1813037320545353e6 -2.722288442093581e7 0.0
0.0 0.0 0.0

-4.823983289680587e6 1.871961077956565e7 0.0
1.871961077956565e7 1.3072524393010957e7 0.0
0.0 0.0 0.0

-5.431528529479027e6 2.0886328673782963e7 0.0
2.0886328673782963e7 -7.6570642320663845e6 0.0
0.0 0.0 0.0

1.4013816042579748e6 1.2011022540074013e7 0.0
1.2011022540074013e7 -1.1722950302821679e7 0.0
0.0 0.0 0.0

-1.0518080323116949e7 1.0844216630122864e6 0.0
1.0844216630122864e6 3.125564306502436e7 0.0
0.0 0.0 0.0

-973436.6863900394 2.3987259637145004e6 0.0
2.3987259637145004e6 1.5324589020158825e6 0.0
0.0 0.0 0.0

-7.686315165208907e6 1.7079020045384396e7 0.0
1.7079020045384396e7 1.5681923634497974e7 0.0
0.0 0.0 0.0

1.8763671133687656e7 2.1109858316644114e7 0.0
2.1109858316644114e7 1.0497054727946457e7 0.0
0.0 0.0 0.0

1.3957441832264068e7 1.987075674994338e7 0.0
1.987075674994338e7 8.69049358835302e6 0.0
0.0 0.0 0.0

-1.0778343979477001e7 2.105048102241629e7 0.0
2.105048102241629e7 -7.090131389480345e6 0.0
0.0 0.0 0.0

-2.664244023727172e6 1.4022605212236365e7 0.0
1.4022605212236365e7 -1.0054605533514092e7 0.0
0.0 0.0 0.0

-5.9118738716929965e6 2.0995914418473113e7 0.0
2.0995914418473113e7 -6.945305956638871e6 0.0
0.0 0.0 0.0

-7.523234573710884e6 2.0290324889253985e7 0.0
2.0290324889253985e7 -5.543856903026771e6 0.0
0.0 0.0 0.0

1.0924523101229016e6 1.0898307832175152e7 0.0
1.0898307832175152e7 -3.51551476613882e7 0.0
0.0 0.0 0.0

-179189.17406504473 4.2274027582061365e6 0.0
4.2274027582061365e6 -2.807182160172085e6 0.0
0.0 0.0 0.0

-199936.1593496167 6.4427245194518445e6 0.0
6.4427245194518445e6 -1.4278841266838713e6 0.0
0.0 0.0 0.0

677990.2026768343 1.5103634213906903e7 0.0
1.5103634213906903e7 1.0295430400051604e6 0.0
0.0 0.0 0.0

1.2640148791649055e7 2.0291753439346176e7 0.0
2.0291753439346176e7 9.331331735260785e6 0.0
0.0 0.0 0.0

402933.90237156465 1.5344982897241687e7 0.0
1.5344982897241687e7 5.904571390287636e6 0.0
0.0 0.0 0.0

-5.783991561040398e6 1.7949984867242254e7 0.0
1.7949984867242254e7 1.3322852262903986e7 0.0
0.0 0.0 0.0

-2.2037786625126876e7 9.312357156891603e6 0.0
9.312357156891603e6 9.973286302330948e6 0.0
0.0 0.0 0.0

1.261850516681073e6 1.5796846447158104e7 0.0
1.5796846447158104e7 7.173878525545702e6 0.0
0.0 0.0 0.0

3.0982476778310025e6 6.069150819671361e6 0.0
6.069150819671361e6 -1.534979381529668e7 0.0
0.0 0.0 0.0

-1.2286367955095895e7 2.6628483479206815e7 0.0
2.6628483479206815e7 6.34555284520367e6 0.0
0.0 0.0 0.0

-1.002036445553926e7 -704527.4622644464 0.0
-704527.4622644464 3.316664792646914e7 0.0
0.0 0.0 0.0

-1.1203997037736168e6 1.752558153675125e7 0.0
1.752558153675125e7 -7.297068956120603e6 0.0
0.0 0.0 0.0

4.988851715843163e6 1.9103145262620326e7 0.0
1.9103145262620326e7 1.0789995015449572e7 0.0
0.0 0.0 0.0

-5.436923625626108e6 2.0716102205360506e7 0.0
2.0716102205360506e7 -7.550590836334886e6 0.0
0.0 0.0 0.0

-1.636032200642028e6 1.4557775408136081e7 0.0
1.4557775408136081e7 -2.293454429725391e7 0.0
0.0 0.0 0.0

1.4556583534169938e7 2.072704290819559e7 0.0
2.072704290819559e7 1.0310293127046417e7 0.0
0.0 0.0 0.0

-1.8116039573827344e6 1.586857732910364e7 0.0
1.586857732910364e7 -1.7160631878414527e7 0.0
0.0 0.0 0.0

663233.8959919838 1.657327562454158e7 0.0
1.657327562454158e7 8.656346909570742e6 0.0
0.0 0.0 0.0

1.9877428209609312e6 1.833549575704589e7 0.0
1.833549575704589e7 1.2264482013413846e7 0.0
0.0 0.0 0.0

-4.29813937665101e6 1.851897042353742e7 0.0
1.851897042353742e7 1.3780368250867235e7 0.0
0.0 0.0 0.0

-2.864062502566153e6 1.8297546043509204e7 0.0
1.8297546043509204e7 8.927819224609973e6 0.0
0.0 0.0 0.0

3.720664919488957e6 5.44610604328883e6 0.0
5.44610604328883e6 -2.637455469866485e7 0.0
0.0 0.0 0.0

-689482.4993574289 2.583762492543841e7 0.0
2.583762492543841e7 -1.2017325433518153e6 0.0
0.0 0.0 0.0

-4.579677929493692e6 1.7564015378929395e7 0.0
1.7564015378929395e7 -1.085047900967582e7 0.0
0.0 0.0 0.0

2.204491191567383e7 1.7767192224364158e7 0.0
1.7767192224364158e7 7.444295432695874e6 0.0
0.0 0.0 0.0

-7.4208679312811345e6 2.459035674031739e7 0.0
2.459035674031739e7 6.256703423604449e6 0.0
0.0 0.0 0.0

4.052350425378859e6 4.595560152191925e6 0.0
4.595560152191925e6 -3.021651140367567e7 0.0
0.0 0.0 0.0

-3.9418845074191624e6 1.6526800096938768e7 0.0
1.6526800096938768e7 5.156040039445164e6 0.0
0.0 0.0 0.0

1.0651571710772835e7 1.813782563897699e7 0.0
1.813782563897699e7 5.497016814012542e6 0.0
0.0 0.0 0.0

2.9084054034456033e7 1.5968802370091993e7 0.0
1.5968802370091993e7 4.49310660449005e6 0.0
0.0 0.0 0.0

-4.686525368575944e6 2.7286568081325866e7 0.0
2.7286568081325866e7 4.525151096369995e6 0.0
0.0 0.0 0.0

376027.8724706229 1.6784845792956427e7 0.0
1.6784845792956427e7 -1.4554387787699644e7 0.0
0.0 0.0 0.0

-1.0613636962611943e7 8.061670792373015e6 0.0
8.061670792373015e6 1.7001942238697633e7 0.0
0.0 0.0 0.0

-1.034697297261567e7 -680533.830291368 0.0
-680533.830291368 3.1647995981466558e7 0.0
0.0 0.0 0.0

1.1892569151612362e6 1.5671492992465181e7 0.0
1.5671492992465181e7 4.858331641769736e6 0.0
0.0 0.0 0.0

8.3126708719212245e6 1.6412895285692155e7 0.0
1.6412895285692155e7 9.039972475204218e6 0.0
0.0 0.0 0.0

-1.1481507909906592e7 2.1761300512128216e6 0.0
2.1761300512128216e6 2.454354659059143e7 0.0
0.0 0.0 0.0

-2.6513812771420856e6 1.1269623547018489e7 0.0
1.1269623547018489e7 -2.3626812124610497e6 0.0
0.0 0.0 0.0

-2.8405011101081194e6 1.770026543126007e7 0.0
1.770026543126007e7 -1.0916644237707656e7 0.0
0.0 0.0 0.0

-2.5444415513617285e6 1.4815146763786556e7 0.0
1.4815146763786556e7 -2.127070374426889e7 0.0
0.0 0.0 0.0

-1.3628260064905765e6 2.5333840354296543e7 0.0
2.5333840354296543e7 -867849.974987139 0.0
0.0 0.0 0.0

1.6145038801261536e6 2.4579280014926776e7 0.0
2.4579280014926776e7 -4.226264298023288e6 0.0
0.0 0.0 0.0

1.2695438991060196e6 3.1724657883434895e7 0.0
3.1724657883434895e7 -3.174628152252677e6 0.0
0.0 0.0 0.0

-1.2192469483258553e7 3.144046578497626e7 0.0
3.144046578497626e7 6.637235982538461e6 0.0
0.0 0.0 0.0

5.070820879877685e6 1.690927803233785e7 0.0
1.690927803233785e7 1.963615849095902e7 0.0
0.0 0.0 0.0

-5.030008273663087e6 1.5527692037362274e7 0.0
1.5527692037362274e7 -5.746641316667038e7 0.0
0.0 0.0 0.0

-1.0139831956639696e7 -2.3327850712149567e6 0.0
-2.3327850712149567e6 1.6397613468936626e7 0.0
0.0 0.0 0.0

-6.845028588835726e6 1.4404462462721469e7 0.0
1.4404462462721469e7 -2.4497132431932412e7 0.0
0.0 0.0 0.0

-3.0473026965750637e6 1.3327703139196346e7 0.0
1.3327703139196346e7 -1.1258096636401944e7 0.0
0.0 0.0 0.0

3.7460761603594394e6 1.7315815922098298e7 0.0
1.7315815922098298e7 1.9283493555442166e7 0.0
0.0 0.0 0.0

-6.330011658030763e6 1.5778408276125748e7 0.0
1.5778408276125748e7 -2.940968699622049e7 0.0
0.0 0.0 0.0

-4.836814871065592e6 1.4467634777149305e7 0.0
1.4467634777149305e7 -2.1000631174774565e7 0.0
0.0 0.0 0.0

1.2207278697648376e7 2.0110837598935023e7 0.0
2.0110837598935023e7 7.930167507275643e6 0.0
0.0 0.0 0.0

-4.32367226684369e6 1.8222668214659315e7 0.0
1.8222668214659315e7 -9.703544607083539e6 0.0
0.0 0.0 0.0

3.301483753812026e6 8.511221460391132e6 0.0
8.511221460391132e6 -2.559240426020445e7 0.0
0.0 0.0 0.0

726728.2491825069 1.5701065489163546e7 0.0
1.5701065489163546e7 2.5635694051084686e6 0.0
0.0 0.0 0.0

-7.203208657955868e6 2.143634042150483e7 0.0
2.143634042150483e7 -8.178920521608033e6 0.0
0.0 0.0 0.0

2.6152503101887484e6 1.5809169957108792e7 0.0
1.5809169957108792e7 1.2160510986410758e7 0.0
0.0 0.0 0.0

3.527957070211203e6 4.233933374952503e6 0.0
4.233933374952503e6 -1.3087643899150418e7 0.0
0.0 0.0 0.0

-2.9764526851935317e6 2.2748034205665328e7 0.0
2.2748034205665328e7 632279.0108449383 0.0
0.0 0.0 0.0

-3.6666703386087995e6 2.564998649590491e7 0.0
2.564998649590491e7 2.7226009592080186e6 0.0
0.0 0.0 0.0

-1.0712821198151445e7 1.369084163155154e7 0.0
1.369084163155154e7 2.5460453588009782e7 0.0
0.0 0.0 0.0

1.0171418526524394e6 1.6363175380737254e7 0.0
1.6363175380737254e7 7.056313671150113e6 0.0
0.0 0.0 0.0

2.383458703120253e6 1.869145842121314e7 0.0
1.869145842121314e7 1.3036992594322903e7 0.0
0.0 0.0 0.0

-3.6008937653915873e6 2.8431496758015834e7 0.0
2.8431496758015834e7 3.2035510238428637e6 0.0
0.0 0.0 0.0

-5.613285809753806e6 1.7907351424928118e7 0.0
1.7907351424928118e7 1.3956658219596976e7 0.0
0.0 0.0 0.0

-9.98802141090413e6 -3.9125442693175282e6 0.0
-3.9125442693175282e6 1.963748787853796e7 0.0
0.0 0.0 0.0

-3.3350601227153293e6 2.5614349025025617e7 0.0
2.5614349025025617e7 3.8395661813085545e6 0.0
0.0 0.0 0.0

-1.8309457851073188e6 2.2026211912096754e7 0.0
2.2026211912096754e7 -2.0177235275639363e6 0.0
0.0 0.0 0.0

-4.131594176450948e6 1.7845451568745576e7 0.0
1.7845451568745576e7 2.179407020349687e6 0.0
0.0 0.0 0.0

-940824.157298881 2.5568509134315353e7 0.0
2.5568509134315353e7 -1.2935523675316297e6 0.0
0.0 0.0 0.0

-948321.2293859562 2.5150951876122635e7 0.0
2.5150951876122635e7 -1.0185230872151529e6 0.0
0.0 0.0 0.0

-1.5458358118633046e6 1.693323273978767e7 0.0
1.693323273978767e7 -8.178077433589126e6 0.0
0.0 0.0 0.0

2.698145322904589e6 1.6795119237125386e7 0.0
1.6795119237125386e7 8.993818406005748e6 0.0
0.0 0.0 0.0

2.9403282614702526e6 8.432189870931868e6 0.0
8.432189870931868e6 -2.4162428124364924e7 0.0
0.0 0.0 0.0

-8.84514882485955e6 1.5483799563488794e7 0.0
1.5483799563488794e7 -3.459390689043136e7 0.0
0.0 0.0 0.0

-3.3923773233971703e6 1.9131830595904645e7 0.0
1.9131830595904645e7 2.787172813305339e6 0.0
0.0 0.0 0.0

-2.710102619968965e7 2.838949930733045e7 0.0
2.838949930733045e7 -7.906821806424559e6 0.0
0.0 0.0 0.0

-5.360911665197617e6 1.5186574022052044e7 0.0
1.5186574022052044e7 -2.010421681637103e7 0.0
0.0 0.0 0.0

-3.0553626344531287e7 2.76252321217812e7 0.0
2.76252321217812e7 -2.785110056177671e6 0.0
0.0 0.0 0.0

-4.142589212160228e6 1.979707693512102e7 0.0
1.979707693512102e7 1.0121226916089991e7 0.0
0.0 0.0 0.0

-9.388137559683701e6 -1.5650014611208676e6 0.0
-1.5650014611208676e6 3.685938651725306e7 0.0
0.0 0.0 0.0

562206.1041311151 2.4044351325518932e7 0.0
2.4044351325518932e7 -3.8816391005983963e6 0.0
0.0 0.0 0.0

-1.0878774141834067e7 2.260912992549967e7 0.0
2.260912992549967e7 -7.471528950509739e6 0.0
0.0 0.0 0.0

178728.21533339843 1.7245778796331912e7 0.0
1.7245778796331912e7 -1.335807641385338e7 0.0
0.0 0.0 0.0

-9.686089877474215e6 2.672310461193843e7 0.0
2.672310461193843e7 6.088030714440631e6 0.0
0.0 0.0 0.0

-1.1764904837112905e7 4.982174524539715e6 0.0
4.982174524539715e6 1.9737467670027174e7 0.0
0.0 0.0 0.0

2.526994157840401e6 9.229291193553716e6 0.0
9.229291193553716e6 -2.9838480492461517e7 0.0
0.0 0.0 0.0

-1.2790838331358813e7 2.6492868333138987e7 0.0
2.6492868333138987e7 6.173787902978524e6 0.0
0.0 0.0 0.0

746720.1321880379 1.6309358237105986e7 0.0
1.6309358237105986e7 4.1360455827724542e6 0.0
0.0 0.0 0.0

-1.1997940371041948e7 6.8054991742763845e6 0.0
6.8054991742763845e6 1.5429592648462065e7 0.0
0.0 0.0 0.0

-755266.7564424309 1.6017398557808798e7 0.0
1.6017398557808798e7 -9.827937955496307e6 0.0
0.0 0.0 0.0

555635.1298674673 2.2931580517466836e7 0.0
2.2931580517466836e7 -4.668435122423572e6 0.0
0.0 0.0 0.0

-2.323133690926272e7 9.762696793742862e6 0.0
9.762696793742862e6 9.42654256963514e6 0.0
0.0 0.0 0.0

-5.465274699497389e6 2.4655765637425482e7 0.0
2.4655765637425482e7 6.196053446331073e6 0.0
0.0 0.0 0.0

1756.7501802500337 1.649539584121369e7 0.0
1.649539584121369e7 -1.5427791589079931e7 0.0
0.0 0.0 0.0

2.8998091657723263e6 8.650851756575797e6 0.0
8.650851756575797e6 -2.1541918590173304e7 0.0
0.0 0.0 0.0

529872.0963135101 4.749795794102295e6 0.0
4.749795794102295e6 -4.575897342080839e6 0.0
0.0 0.0 0.0

1.068381386145817e6 1.4995722765225893e7 0.0
1.4995722765225893e7 -1.680076999860443e7 0.0
0.0 0.0 0.0

-1.628877319685368e7 2.2594715586404346e7 0.0
2.2594715586404346e7 -2.684458412609936e6 0.0
0.0 0.0 0.0

3.183824856663636e6 3.1438360586566165e7 0.0
3.1438360586566165e7 -2.524381149884737e6 0.0
0.0 0.0 0.0

-1.0112021939562699e6 1.7134244585289635e7 0.0
1.7134244585289635e7 2.339994224139865e7 0.0
0.0 0.0 0.0

1.6556870575606055e6 1.681099552886475e7 0.0
1.681099552886475e7 8.582272686961994e6 0.0
0.0 0.0 0.0

5.2654174108049385e6 1.52688545868818e7 0.0
1.52688545868818e7 1.8881457738160323e7 0.0
0.0 0.0 0.0

-3.1632442465410936e6 1.6702145899394045e7 0.0
1.6702145899394045e7 -1.0544147690957066e7 0.0
0.0 0.0 0.0

-1.0806215092743978e7 1.3286198925337914e7 0.0
1.3286198925337914e7 2.597365117169225e7 0.0
0.0 0.0 0.0

-1.9909257785679244e6 1.5002602738940492e7 0.0
1.5002602738940492e7 -1.1483019098328786e7 0.0
0.0 0.0 0.0

-2.2877707418487478e7 2.8929404247288074e7 0.0
2.8929404247288074e7 8.919869748091992e6 0.0
0.0 0.0 0.0

-1.089639162818005e7 2.36752219798402e6 0.0
2.36752219798402e6 2.9681511556306466e7 0.0
0.0 0.0 0.0

-9.43651859785404e6 -1.521381495666842e6 0.0
-1.521381495666842e6 3.748328856148863e7 0.0
0.0 0.0 0.0

967454.0614602612 1.1872273984263005e7 0.0
1.1872273984263005e7 -1.3249681826226257e7 0.0
0.0 0.0 0.0

-407166.5187253699 2.3139735109627126e6 0.0
2.3139735109627126e6 358017.3892675124 0.0
0.0 0.0 0.0

1.7967421065168586e6 9.029776865327e6 0.0
9.029776865327e6 -3.706598003897148e7 0.0
0.0 0.0 0.0

-1.0432187435326857e7 1.0730282015339427e7 0.0
1.0730282015339427e7 3.1279370697379768e7 0.0
0.0 0.0 0.0

1.316668560060626e6 1.1093912644010741e7 0.0
1.1093912644010741e7 -2.9178868370360285e7 0.0
0.0 0.0 0.0

-9.98564183236462e6 -1.8237799801887653e6 0.0
-1.8237799801887653e6 2.4177143814597204e7 0.0
0.0 0.0 0.0

-3.4890754641877115e6 2.3604968027982812e7 0.0
2.3604968027982812e7 2.960737124044068e6 0.0
0.0 0.0 0.0

1.0763289524769995e6 2.330900636813112e7 0.0
2.330900636813112e7 -4.594765274524739e6 0.0
0.0 0.0 0.0

-3.5722869816532815e6 2.6818625783244435e7 0.0
2.6818625783244435e7 2.235980665691969e6 0.0
0.0 0.0 0.0

1.092136901630313e6 3.072311725609145e7 0.0
3.072311725609145e7 -1.716880599060439e6 0.0
0.0 0.0 0.0

-287014.60912676936 2.802563588364825e7 0.0
2.802563588364825e7 -1.472349032727174e6 0.0
0.0 0.0 0.0

-1.041714311949786e7 -753478.5727084103 0.0
-753478.5727084103 3.03627598568237e7 0.0
0.0 0.0 0.0

3.665026025925042e6 4.901551821084517e6 0.0
4.901551821084517e6 -3.2331141480453096e7 0.0
0.0 0.0 0.0

332701.422419142 1.7681653422423616e7 0.0
1.7681653422423616e7 -1.0193293266626572e7 0.0
0.0 0.0 0.0

-628668.6370720363 1.9116521602593224e7 0.0
1.9116521602593224e7 -7.785202876752e6 0.0
0.0 0.0 0.0

2.468354572619276e6 1.0831413058916273e7 0.0
1.0831413058916273e7 -1.8042327910725698e7 0.0
0.0 0.0 0.0

-4.677409520970905e6 1.365456744484249e7 0.0
1.365456744484249e7 -1.6445952960378634e7 0.0
0.0 0.0 0.0

1.0127742917970885e6 1.4905882184713386e7 0.0
1.4905882184713386e7 3.3759143644770756e6 0.0
0.0 0.0 0.0

-4.1642999845738653e6 2.1189996789974395e7 0.0
2.1189996789974395e7 7.539115547908984e6 0.0
0.0 0.0 0.0

-7.935375546140981e6 2.5296168587935384e7 0.0
2.5296168587935384e7 5.821797278956177e6 0.0
0.0 0.0 0.0

-1.6907941955453139e6 1.4820497714588575e7 0.0
1.4820497714588575e7 -6.331790854013643e6 0.0
0.0 0.0 0.0

-1.1656276552927438e6 1.1430848544632435e7 0.0
1.1430848544632435e7 -2.735254207078835e6 0.0
0.0 0.0 0.0

4.255799922195485e6 3.689139068238725e6 0.0
3.689139068238725e6 -2.615601645092996e7 0.0
0.0 0.0 0.0

1.505064526872097e6 1.7340037870522074e7 0.0
1.7340037870522074e7 -5.800405996434435e6 0.0
0.0 0.0 0.0

2.797559584218391e6 8.971622507093394e6 0.0
8.971622507093394e6 -2.3051167887949772e7 0.0
0.0 0.0 0.0

-2.4291231906341584e6 7.40778536777536e6 0.0
7.40778536777536e6 -1.0070444792616807e6 0.0
0.0 0.0 0.0

-1.2805608913816886e6 1.0364758208379647e7 0.0
1.0364758208379647e7 -4.86608258153243e6 0.0
0.0 0.0 0.0

-1.1585356681236362e6 3.570849228169906e6 0.0
3.570849228169906e6 -960048.5530389915 0.0
0.0 0.0 0.0

-3.0237432186132325e6 2.171720918238778e7 0.0
2.171720918238778e7 3.0935841591625586e6 0.0
0.0 0.0 0.0

304344.3965934003 1.5444551803927144e7 0.0
1.5444551803927144e7 -1.7883118260686543e7 0.0
0.0 0.0 0.0

1.197699108151937e6 8.787660807299105e6 0.0
8.787660807299105e6 -4.2655089954704344e7 0.0
0.0 0.0 0.0

-4.9505136523301955e6 1.95504595850497e7 0.0
1.95504595850497e7 -4.814776471767838e6 0.0
0.0 0.0 0.0

-1.9145455394207157e7 2.5778863573699534e7 0.0
2.5778863573699534e7 -8.288017374502664e6 0.0
0.0 0.0 0.0

-1.662499288024991e7 2.5790581922533557e7 0.0
2.5790581922533557e7 5.941480300037505e6 0.0
0.0 0.0 0.0

-7.35890413102284e6 2.1815238117140602e7 0.0
2.1815238117140602e7 -7.9763042120295e6 0.0
0.0 0.0 0.0

-2.6867147387813814e6 1.425598432193073e7 0.0
1.425598432193073e7 -2.8209859984555524e7 0.0
0.0 0.0 0.0

-6.210968079746381e6 1.4784953599691665e7 0.0
1.4784953599691665e7 -2.0703227718511242e7 0.0
0.0 0.0 0.0

-1.4365351346411148e7 2.380494972798836e7 0.0
2.380494972798836e7 -7.510694777404331e6 0.0
0.0 0.0 0.0

-8.78849926513967e6 1.5745425886468092e7 0.0
1.5745425886468092e7 -2.9294998661636904e7 0.0
0.0 0.0 0.0

-8.703052238425694e6 1.7068454763173655e7 0.0
1.7068454763173655e7 1.8647668441630457e7 0.0
0.0 0.0 0.0

-1.0284282611767873e7 -1.3272882343468657e6 0.0
-1.3272882343468657e6 1.5533184706188723e7 0.0
0.0 0.0 0.0

-1.810694507627985e6 2.1711933929796524e7 0.0
2.1711933929796524e7 -3.34376658113076e6 0.0
0.0 0.0 0.0

-5.2531212585573625e6 1.9079670160410777e7 0.0
1.9079670160410777e7 1.161435465245745e7 0.0
0.0 0.0 0.0

-1.0507255098965487e7 -2.693098877445687e6 0.0
-2.693098877445687e6 2.0350684151596047e7 0.0
0.0 0.0 0.0

1.5116447337192716e6 1.276633142277897e7 0.0
1.276633142277897e7 -2.2250840302655466e7 0.0
0.0 0.0 0.0

-2.884631695373586e6 2.2329118309851382e7 0.0
2.2329118309851382e7 -229305.11320618156 0.0
0.0 0.0 0.0

281418.1147609127 1.5495988313664867e7 0.0
1.5495988313664867e7 -1.510515141531644e6 0.0
0.0 0.0 0.0

-4.246578629336985e6 2.3342885137865692e7 0.0
2.3342885137865692e7 5.510697416987598e6 0.0
0.0 0.0 0.0

-1.3233500979725104e7 2.418645307118129e7 0.0
2.418645307118129e7 -8.224681938285459e6 0.0
0.0 0.0 0.0

-6.977497736252669e6 1.5105423886940064e7 0.0
1.5105423886940064e7 -2.3258326379288536e7 0.0
0.0 0.0 0.0

2.431300193098857e6 1.873315715505351e7 0.0
1.873315715505351e7 1.398274938488866e7 0.0
0.0 0.0 0.0

-2.4110427050832216e7 2.5932092593353536e7 0.0
2.5932092593353536e7 5.646151307334781e6 0.0
0.0 0.0 0.0

-9.834356589748956e6 7.083617412744737e6 0.0
7.083617412744737e6 1.6161820791503912e7 0.0
0.0 0.0 0.0

-9.770764643811576e6 8.48209228755216e6 0.0
8.48209228755216e6 3.947694963055535e7 0.0
0.0 0.0 0.0

-1.4930591267551025e6 1.7085625341554597e7 0.0
1.7085625341554597e7 -8.011379543663404e6 0.0
0.0 0.0 0.0

798373.5036057279 2.7813829487534612e7 0.0
2.7813829487534612e7 -2.406549469046137e6 0.0
0.0 0.0 0.0

5.3092366961094625e6 1.5897500014056895e7 0.0
1.5897500014056895e7 1.769745587314073e7 0.0
0.0 0.0 0.0

1.7315446617256023e7 1.747489050441676e7 0.0
1.747489050441676e7 3.9814389809965063e6 0.0
0.0 0.0 0.0

-1.0071152808338355e7 2.2876015843919456e7 0.0
2.2876015843919456e7 -8.156932713841045e6 0.0
0.0 0.0 0.0

1.827987639417137e6 2.595719356658987e7 0.0
2.595719356658987e7 -3.7802293519723434e6 0.0
0.0 0.0 0.0

7.317508220404597e6 1.5703978287743606e7 0.0
1.5703978287743606e7 2.8558287499557547e7 0.0
0.0 0.0 0.0

3.1063419210524857e6 6.460265280634665e6 0.0
6.460265280634665e6 -4.1056124697289184e7 0.0
0.0 0.0 0.0

-5.310362019153571e6 2.3977378276667148e7 0.0
2.3977378276667148e7 6.716136053106673e6 0.0
0.0 0.0 0.0

419553.1977441472 1.4378256761135377e7 0.0
1.4378256761135377e7 -205726.84564987943 0.0
0.0 0.0 0.0

-9.892926262501607e6 1.6379508532966746e7 0.0
1.6379508532966746e7 -3.2976422457630266e7 0.0
0.0 0.0 0.0

-4.1311189612180786e6 1.963752353070553e7 0.0
1.963752353070553e7 -1.8188908076685076e6 0.0
0.0 0.0 0.0

4.1030096766116824e6 3.3084716752159223e6 0.0
3.3084716752159223e6 -3.5301368628132984e7 0.0
0.0 0.0 0.0

-1.2133514849031025e6 1.8154905703122936e7 0.0
1.8154905703122936e7 -8.066386195662801e6 0.0
0.0 0.0 0.0

1.6986138606311092e6 1.976779321134122e7 0.0
1.976779321134122e7 -7.1388460956884045e6 0.0
0.0 0.0 0.0

1.6232248733532224e7 1.9449909212573793e7 0.0
1.9449909212573793e7 -2.290030028279313e6 0.0
0.0 0.0 0.0

-1.0166830295193927e7 1.570903901805625e7 0.0
1.570903901805625e7 1.8989197996836286e7 0.0
0.0 0.0 0.0

-2.2070646547988425e6 1.4469371314564826e7 0.0
1.4469371314564826e7 -2.9112095671839574e6 0.0
0.0 0.0 0.0

-5.875089603411983e6 2.0721487987885322e7 0.0
2.0721487987885322e7 -7.878048966010543e6 0.0
0.0 0.0 0.0

-2.117371900335864e6 2.188990794148478e7 0.0
2.188990794148478e7 -2.8612783517607e6 0.0
0.0 0.0 0.0

-9.545965087182434e6 1.0313205987200096e6 0.0
1.0313205987200096e6 3.98203466571006e7 0.0
0.0 0.0 0.0

-1.49488691441235e6 1.5485705566267682e7 0.0
1.5485705566267682e7 -7.379964203537025e6 0.0
0.0 0.0 0.0

-9.157039582068443e6 2.5675144065159284e7 0.0
2.5675144065159284e7 6.119021251277382e6 0.0
0.0 0.0 0.0

1.621093393921149e6 8.037584785821664e6 0.0
8.037584785821664e6 -1.1175464905570073e7 0.0
0.0 0.0 0.0

6.147058063870983e6 1.843432627455046e7 0.0
1.843432627455046e7 1.1583317571162663e7 0.0
0.0 0.0 0.0

-3.645313803899945e7 2.6492107491207596e7 0.0
2.6492107491207596e7 6.630943068616401e6 0.0
0.0 0.0 0.0

1.7305781075866807e6 1.4336270388426468e7 0.0
1.4336270388426468e7 6.525670859804637e6 0.0
0.0 0.0 0.0

3.597799958524747e6 6.734057461760603e6 0.0
6.734057461760603e6 -1.4307720309166916e7 0.0
0.0 0.0 0.0

1.4341389203946292e6 1.82138610084672e7 0.0
1.82138610084672e7 1.6312399149990024e7 0.0
0.0 0.0 0.0

-236835.23983668233 2.136593003586251e7 0.0
2.136593003586251e7 -6.030773075024844e6 0.0
0.0 0.0 0.0

1.3304252474095786e7 2.59266891980185e7 0.0
2.59266891980185e7 -6.54748439681726e6 0.0
0.0 0.0 0.0

-2.9888722101343675e6 1.4046948369491931e7 0.0
1.4046948369491931e7 -9.962907787002983e6 0.0
0.0 0.0 0.0

-4.445164406803156e6 1.5006100651493449e7 0.0
1.5006100651493449e7 6.585179906612979e6 0.0
0.0 0.0 0.0

1.0241308408193835e6 8.099051003739153e6 0.0
8.099051003739153e6 -9.62160667661259e6 0.0
0.0 0.0 0.0

-3.1969419990555285e6 1.5712378111151587e7 0.0
1.5712378111151587e7 -2.014759660605828e7 0.0
0.0 0.0 0.0

-524044.43548720377 1.8396917541959193e7 0.0
1.8396917541959193e7 -8.434818948953165e6 0.0
0.0 0.0 0.0

1.0983252015671436e7 2.0463266985106576e7 0.0
2.0463266985106576e7 9.711548904598478e6 0.0
0.0 0.0 0.0

-5.397005435271563e6 2.0235564736537915e7 0.0
2.0235564736537915e7 -7.800504562053018e6 0.0
0.0 0.0 0.0

1.407380993977977e6 1.968179234517574e7 0.0
1.968179234517574e7 -6.813938232644344e6 0.0
0.0 0.0 0.0

-7.665578536112956e6 2.5436360376050454e6 0.0
2.5436360376050454e6 1.1450375784079937e7 0.0
0.0 0.0 0.0

-1.2493715021396892e6 6.058976524785438e6 0.0
6.058976524785438e6 2.4297788067325987e6 0.0
0.0 0.0 0.0

6.451873664590959e6 1.9214749898823395e7 0.0
1.9214749898823395e7 -2.861069805746378e6 0.0
0.0 0.0 0.0

1.3366650829767948e6 1.5057124390642028e7 0.0
1.5057124390642028e7 5.700784942382313e6 0.0
0.0 0.0 0.0

3.9681152656519234e7 1.7371982479502335e7 0.0
1.7371982479502335e7 8.004188988095344e6 0.0
0.0 0.0 0.0

-1.0609291216949722e7 -2.464291955806451e6 0.0
-2.464291955806451e6 2.308325686944402e7 0.0
0.0 0.0 0.0

-1.2585110340942344e7 2.255521218003952e7 0.0
2.255521218003952e7 -5.760038812691498e6 0.0
0.0 0.0 0.0

-1.2094708008818898e7 2.1736254318511926e7 0.0
2.1736254318511926e7 -1.6927844865692528e6 0.0
0.0 0.0 0.0

-2.5383059067689113e7 2.362724422862431e7 0.0
2.362724422862431e7 -7.2716807844279185e6 0.0
0.0 0.0 0.0

2.7865637332255755e7 5.666956899415765e6 0.0
5.666956899415765e6 -2.6373964589290433e6 0.0
0.0 0.0 0.0

-8.434309167125812e6 7.47348642910142e6 0.0
7.47348642910142e6 4.6461825719420426e7 0.0
0.0 0.0 0.0

-1.3794355009174692e6 1.081334647445864e7 0.0
1.081334647445864e7 -1.6520034935865393e6 0.0
0.0 0.0 0.0

-1.1717661060967535e7 2.2153210184722e7 0.0
2.2153210184722e7 -7.715654418448843e6 0.0
0.0 0.0 0.0

-4.152498988539532e6 2.3540359118634716e7 0.0
2.3540359118634716e7 6.538297507573623e6 0.0
0.0 0.0 0.0

-903639.5665596356 1.806541130675168e7 0.0
1.806541130675168e7 -9.508181998232512e6 0.0
0.0 0.0 0.0

1.2788369278345713e6 1.2535220472376816e7 0.0
1.2535220472376816e7 -1.4086778572689407e7 0.0
0.0 0.0 0.0

-42583.21160638356 1.5369899352315161e7 0.0
1.5369899352315161e7 -5.022842692287329e6 0.0
0.0 0.0 0.0

-5.682695798872437e6 1.4053036305404127e7 0.0
1.4053036305404127e7 -2.1717443114959188e7 0.0
0.0 0.0 0.0

-6.97922239926739e6 1.6486367545845838e7 0.0
1.6486367545845838e7 -4.7997320687754005e7 0.0
0.0 0.0 0.0

9.405283363894276e6 5.589508421134191e6 0.0
5.589508421134191e6 -2.0801461527576912e6 0.0
0.0 0.0 0.0

5.03010804547046e6 2.6552340868046995e7 0.0
2.6552340868046995e7 -4.918570367736399e6 0.0
0.0 0.0 0.0

-4.658857590094884e6 1.4430095018758876e7 0.0
1.4430095018758876e7 -1.5529526090102432e7 0.0
0.0 0.0 0.0

1.3059982938189274e7 1.5376178832944518e7 0.0
1.5376178832944518e7 3.9323702812830387e6 0.0
0.0 0.0 0.0

-152337.16013100347 1.5751637756167691e7 0.0
1.5751637756167691e7 -6.536256175517042e6 0.0
0.0 0.0 0.0

-1.6698504750576946e6 2.138421903625704e7 0.0
2.138421903625704e7 -3.1238075072041024e6 0.0
0.0 0.0 0.0

-3.1405728669141415e6 1.5266395298754849e7 0.0
1.5266395298754849e7 -1.3541735219041707e7 0.0
0.0 0.0 0.0

-1.74952910549678e7 1.6485068239421034e7 0.0
1.6485068239421034e7 6.353548328629689e6 0.0
0.0 0.0 0.0

-6.801104173355514e6 -3.023945994568572e6 0.0
-3.023945994568572e6 9.245975371558882e6 0.0
0.0 0.0 0.0

-8.151940936880832e6 1.651464157815084e7 0.0
1.651464157815084e7 1.8367813080039106e7 0.0
0.0 0.0 0.0

-618867.2335617921 1.4699545146329284e7 0.0
1.4699545146329284e7 1.7618929256386722e6 0.0
0.0 0.0 0.0

-4.961274696831156e6 1.629601377800856e7 0.0
1.629601377800856e7 -1.3014434681268422e7 0.0
0.0 0.0 0.0

-843396.7799045811 1.64176179884725e7 0.0
1.64176179884725e7 -6.864753194436117e6 0.0
0.0 0.0 0.0

-2.3446626114601763e6 1.1850685462762486e7 0.0
1.1850685462762486e7 -3.3843248839850402e6 0.0
0.0 0.0 0.0

1.893960040967152e7 1.932886564259014e7 0.0
1.932886564259014e7 -2.5835487126268772e6 0.0
0.0 0.0 0.0

-8.92668883552736e6 2.7920261078235473e7 0.0
2.7920261078235473e7 6.140226580980947e6 0.0
0.0 0.0 0.0

3.393612867186577e6 2.0454088026644744e7 0.0
2.0454088026644744e7 -5.4428761495276075e6 0.0
0.0 0.0 0.0

-3.177393069950109e6 1.8700749344603326e7 0.0
1.8700749344603326e7 -3.00385552370957e6 0.0
0.0 0.0 0.0

-2.7893451349033993e6 2.7146545408611298e7 0.0
2.7146545408611298e7 2.750299985425204e6 0.0
0.0 0.0 0.0

-7.393844765669535e6 1.758973362242484e7 0.0
1.758973362242484e7 1.5810578565256312e7 0.0
0.0 0.0 0.0

1.4379889681755956e6 7.444180051398084e6 0.0
7.444180051398084e6 -7.676276099829046e6 0.0
0.0 0.0 0.0

-948214.5354724869 6.877583885808244e6 0.0
6.877583885808244e6 -179525.66170407902 0.0
0.0 0.0 0.0

-7.84353795624886e6 1.4990275437980631e7 0.0
1.4990275437980631e7 -3.0849542589931794e7 0.0
0.0 0.0 0.0

-3.085277184794383e6 1.8519916795351353e7 0.0
1.8519916795351353e7 4.805652349358886e6 0.0
0.0 0.0 0.0

1.8157043061406342e6 5.209072552699568e6 0.0
5.209072552699568e6 -7.937644883872706e6 0.0
0.0 0.0 0.0

-4.368950083101242e7 2.740960476831783e7 0.0
2.740960476831783e7 -333612.95864709467 0.0
0.0 0.0 0.0

953329.993885139 8.312403252616731e6 0.0
8.312403252616731e6 -4.933782767153029e7 0.0
0.0 0.0 0.0

-995161.4317216614 9.289103832816076e6 0.0
9.289103832816076e6 -4.952243012554842e6 0.0
0.0 0.0 0.0

-6.82954382642239e6 1.5460236342595277e7 0.0
1.5460236342595277e7 -3.320286724040939e7 0.0
0.0 0.0 0.0

3.923747095395725e6 4.628072503613667e6 0.0
4.628072503613667e6 -3.1543460596501574e7 0.0
0.0 0.0 0.0

1.6708139120311722e7 2.8698742441539146e7 0.0
2.8698742441539146e7 -9.197287556375053e6 0.0
0.0 0.0 0.0

3.2789870285626277e6 9.173829493823595e6 0.0
9.173829493823595e6 -2.1602373788473148e7 0.0
0.0 0.0 0.0

-8.66566298748208e6 1.1677639429329865e7 0.0
1.1677639429329865e7 3.5913964949961916e7 0.0
0.0 0.0 0.0

-9.914192463718303e6 1.6056530275112951e7 0.0
1.6056530275112951e7 1.934221681456266e7 0.0
0.0 0.0 0.0

-4.216168818063773e6 2.048896379141476e7 0.0
2.048896379141476e7 9.728471385404151e6 0.0
0.0 0.0 0.0

-7.457104147742303e6 1.979583525702227e7 0.0
1.979583525702227e7 -5.476464170082832e6 0.0
0.0 0.0 0.0

-8.764145173303202e6 1.6663865704073692e7 0.0
1.6663865704073692e7 2.00221902477367e7 0.0
0.0 0.0 0.0

-3.397255645890171e6 2.166395188447778e7 0.0
2.166395188447778e7 1.8135800344826372e6 0.0
0.0 0.0 0.0

8.013581769397555e6 1.6820258533208918e7 0.0
1.6820258533208918e7 2.6711940265562695e7 0.0
0.0 0.0 0.0

-9.125770212771952e6 -1.1595801818437828e6 0.0
-1.1595801818437828e6 1.2902496526512478e7 0.0
0.0 0.0 0.0

271114.30263299076 1.771013632876329e7 0.0
1.771013632876329e7 -1.192828978666763e7 0.0
0.0 0.0 0.0

-1.5421481199212652e6 1.1531530487539368e7 0.0
1.1531530487539368e7 -5.52551147270473e7 0.0
0.0 0.0 0.0

-7.763891038385315e6 2.9147201877796464e7 0.0
2.9147201877796464e7 5.928469804745947e6 0.0
0.0 0.0 0.0

829086.8965102304 2.2635245135413785e7 0.0
2.2635245135413785e7 -5.450542931322613e6 0.0
0.0 0.0 0.0

1.9419658841124917e6 1.7771920348951757e7 0.0
1.7771920348951757e7 1.5997589313355577e6 0.0
0.0 0.0 0.0

-9.724596895569228e6 1.593268857920142e7 0.0
1.593268857920142e7 2.0559864546347715e7 0.0
0.0 0.0 0.0

-1.7830834254695967e7 2.946704383257342e7 0.0
2.946704383257342e7 7.324362458675805e6 0.0
0.0 0.0 0.0

85308.88244585879 1.9673075923423097e7 0.0
1.9673075923423097e7 -8.68271367491141e6 0.0
0.0 0.0 0.0

-2.9952381674290802e6 1.4686441720589163e7 0.0
1.4686441720589163e7 -2.5405394911454685e7 0.0
0.0 0.0 0.0

-1.344948561986221e7 3.095089094072458e7 0.0
3.095089094072458e7 5.8691973458144115e6 0.0
0.0 0.0 0.0

2.4572327992051836e7 2.621609089997449e7 0.0
2.621609089997449e7 -1.095925439346094e7 0.0
0.0 0.0 0.0

1.3361136169916904e6 1.690844107885674e7 0.0
1.690844107885674e7 2.8254502572751953e6 0.0
0.0 0.0 0.0

2.3834603925835034e6 1.071136635782087e7 0.0
1.071136635782087e7 -1.9439097865274776e7 0.0
0.0 0.0 0.0

-8.97695507539805e6 1.693347199800265e7 0.0
1.693347199800265e7 -3.629418923323567e7 0.0
0.0 0.0 0.0

1.015717706120506e7 2.6193096041912477e7 0.0
2.6193096041912477e7 -6.005910340798191e6 0.0
0.0 0.0 0.0

-233174.95415577432 1.628286593462949e7 0.0
1.628286593462949e7 -1.2344745379849806e7 0.0
0.0 0.0 0.0

-1.0396179622236503e6 2.4607510351206616e7 0.0
2.4607510351206616e7 -2.3010716032334366e6 0.0
0.0 0.0 0.0

-425246.1007459499 1.0705865003740061e7 0.0
1.0705865003740061e7 -4.629251835633028e7 0.0
0.0 0.0 0.0

527406.2507672538 1.6724864778470265e7 0.0
1.6724864778470265e7 6.015849873361452e6 0.0
0.0 0.0 0.0

-2.124910465490229e7 2.705703155315759e7 0.0
2.705703155315759e7 7.428426316113194e6 0.0
0.0 0.0 0.0

-2.862703843021998e6 2.204760620458886e7 0.0
2.204760620458886e7 2.370555251813152e6 0.0
0.0 0.0 0.0

1.7024524313092783e7 1.749665446418933e7 0.0
1.749665446418933e7 5.188722423778436e6 0.0
0.0 0.0 0.0

-3.3974158606996876e6 2.767140509998355e7 0.0
2.767140509998355e7 1.8394674464650806e6 0.0
0.0 0.0 0.0

1.747376370322115e6 1.6602537695346067e7 0.0
1.6602537695346067e7 9.520650369873699e6 0.0
0.0 0.0 0.0

-318256.13579304557 3.4626332269364474e6 0.0
3.4626332269364474e6 -2.137962431404912e6 0.0
0.0 0.0 0.0

5.449115234246869e6 2.7856381656858075e7 0.0
2.7856381656858075e7 -4.011461489731674e6 0.0
0.0 0.0 0.0

211456.36551339272 1.6014419076938841e7 0.0
1.6014419076938841e7 -1.6719840839073548e7 0.0
0.0 0.0 0.0

3.8257608745626435e6 3.8108926709414306e6 0.0
3.8108926709414306e6 -3.899675851577854e7 0.0
0.0 0.0 0.0

5526.183303410187 1.020610935922485e7 0.0
1.020610935922485e7 -6.58981548551229e6 0.0
0.0 0.0 0.0

1.9144821125970427e6 6.26811651620198e6 0.0
6.26811651620198e6 -8.063673831269197e6 0.0
0.0 0.0 0.0

1.2649040000496022e6 1.3248311287407935e7 0.0
1.3248311287407935e7 -1.3989070724758338e7 0.0
0.0 0.0 0.0

-1.8283686829402797e7 2.5523865225459572e7 0.0
2.5523865225459572e7 6.336792269730272e6 0.0
0.0 0.0 0.0

-2.2039341417728e6 1.8600105326427896e7 0.0
1.8600105326427896e7 2.584639487255037e6 0.0
0.0 0.0 0.0

2.6643778970206925e6 2.0726218205223978e7 0.0
2.0726218205223978e7 -5.869204401731657e6 0.0
0.0 0.0 0.0

3.999078116494948e6 5.6874823204444805e6 0.0
5.6874823204444805e6 -3.0921647282527305e7 0.0
0.0 0.0 0.0

-700679.7935656549 1.8022709419213694e7 0.0
1.8022709419213694e7 -8.177847953993837e6 0.0
0.0 0.0 0.0

-101342.30041045276 1.537559258017593e7 0.0
1.537559258017593e7 -1.2208074932339912e7 0.0
0.0 0.0 0.0

-9.079655132253755e6 2.131343863122439e7 0.0
2.131343863122439e7 -7.673154140387889e6 0.0
0.0 0.0 0.0

9.027546409460748e6 2.4415165807109613e7 0.0
2.4415165807109613e7 -6.008833898790861e6 0.0
0.0 0.0 0.0

-4.787864222064337e6 2.157430355308361e7 0.0
2.157430355308361e7 9.210696473449444e6 0.0
0.0 0.0 0.0

1.1918232287691014e6 1.735997191558198e7 0.0
1.735997191558198e7 1.0295747087626075e7 0.0
0.0 0.0 0.0

1.1202684440696947e6 1.636957050279116e7 0.0
1.636957050279116e7 6.059931682331096e7 0.0
0.0 0.0 0.0

-3.9632161326197307e6 3.0459083318022393e7 0.0
3.0459083318022393e7 3.6075242445195033e6 0.0
0.0 0.0 0.0

692687.3331686361 1.7915129869852025e7 0.0
1.7915129869852025e7 -8.51524531293467e6 0.0
0.0 0.0 0.0

2.958949689397456e6 9.718988715170538e6 0.0
9.718988715170538e6 -2.489647174046875e7 0.0
0.0 0.0 0.0

3.1040346977704316e6 9.004743271358013e6 0.0
9.004743271358013e6 -2.616446443841312e7 0.0
0.0 0.0 0.0

4.72946577859236e6 3.590507908833878e6 0.0
3.590507908833878e6 -2.2377991496372502e7 0.0
0.0 0.0 0.0

-3.8700202080188873e6 2.0996040344766412e7 0.0
2.0996040344766412e7 8.830937163523939e6 0.0
0.0 0.0 0.0

4.36521212972178e6 3.8214308850662815e6 0.0
3.8214308850662815e6 -2.236184270875057e7 0.0
0.0 0.0 0.0

-1.1225855463674678e7 1.0371951120269019e6 0.0
1.0371951120269019e6 2.8432820956872612e7 0.0
0.0 0.0 0.0

-4.732310853603613e6 1.910868986449651e7 0.0
1.910868986449651e7 1.3944505962050756e7 0.0
0.0 0.0 0.0

-1.6037708624686513e6 9.71020104674347e6 0.0
9.71020104674347e6 -3.796319234495611e6 0.0
0.0 0.0 0.0

197299.07404328533 2.3090978548409317e7 0.0
2.3090978548409317e7 -4.928525917541332e6 0.0
0.0 0.0 0.0

2.833138510372605e6 2.558902134645986e7 0.0
2.558902134645986e7 -3.416755615559615e6 0.0
0.0 0.0 0.0

890023.4538946729 1.4265321434345169e7 0.0
1.4265321434345169e7 2.1899996288643847e6 0.0
0.0 0.0 0.0

243187.06650758535 1.0762097635305053e7 0.0
1.0762097635305053e7 -3.99254175674677e7 0.0
0.0 0.0 0.0

4.228807113111082e6 4.27804930606049e6 0.0
4.27804930606049e6 -3.3755212491324306e7 0.0
0.0 0.0 0.0

-3.9407092196235985e7 3.175071369034293e7 0.0
3.175071369034293e7 -6.261293851057152e6 0.0
0.0 0.0 0.0

1.6729960132078065e7 2.086578659253595e7 0.0
2.086578659253595e7 8.623460133150123e6 0.0
0.0 0.0 0.0

1.966262303135413e6 2.525027087805573e7 0.0
2.525027087805573e7 -3.3255380888320007e6 0.0
0.0 0.0 0.0

-1.889503870168929e6 1.7415918093430396e7 0.0
1.7415918093430396e7 1.4760591763452072e7 0.0
0.0 0.0 0.0

633739.1284427157 1.5644434862641843e7 0.0
1.5644434862641843e7 2.5750091895831753e6 0.0
0.0 0.0 0.0

-1.125320434402252e7 6.06919496228467e6 0.0
6.06919496228467e6 3.3190932808603738e7 0.0
0.0 0.0 0.0

-9.844347048375411e6 2.6579405896558885e7 0.0
2.6579405896558885e7 5.837378055980953e6 0.0
0.0 0.0 0.0

-910589.1278099918 1.3132542815732634e7 0.0
1.3132542815732634e7 -7.920358424348511e6 0.0
0.0 0.0 0.0

-1.1282450935794003e7 -517141.8140663248 0.0
-517141.8140663248 2.1951925016889423e7 0.0
0.0 0.0 0.0

-2.76915053712067e6 1.1212399878052972e7 0.0
1.1212399878052972e7 7.47613336694712e7 0.0
0.0 0.0 0.0

219994.47008741507 1.8154795046691936e7 0.0
1.8154795046691936e7 -1.1203856729483305e7 0.0
0.0 0.0 0.0

2.6614517469718223e6 4.523829707137531e6 0.0
4.523829707137531e6 -8.43770018670935e6 0.0
0.0 0.0 0.0

-8.411309312900048e6 7.4577713373242505e6 0.0
7.4577713373242505e6 4.8352143538615644e7 0.0
0.0 0.0 0.0

4.51699531578809e6 3.667839978102031e6 0.0
3.667839978102031e6 -2.791768790288718e7 0.0
0.0 0.0 0.0

-5.266537774164513e6 1.9369146532981034e7 0.0
1.9369146532981034e7 -8.683348553784126e6 0.0
0.0 0.0 0.0

-1.5663771947455756e7 2.2977158805970788e7 0.0
2.2977158805970788e7 -7.639204070158632e6 0.0
0.0 0.0 0.0

-42798.40580371581 1.6572373074201243e7 0.0
1.6572373074201243e7 -1.4227404734954786e7 0.0
0.0 0.0 0.0

-3.6231220229271725e6 9.939217065227345e6 0.0
9.939217065227345e6 4.987022320618436e6 0.0
0.0 0.0 0.0

-3.8031115547153894e6 1.940409340138796e7 0.0
1.940409340138796e7 702128.9799767176 0.0
0.0 0.0 0.0

1.1997438813597e7 2.3560901444978952e7 0.0
2.3560901444978952e7 -6.195549142407297e6 0.0
0.0 0.0 0.0

-6.129401044668988e6 -4.087884542086319e6 0.0
-4.087884542086319e6 1.2213068802992309e7 0.0
0.0 0.0 0.0

7.498119180107269e6 1.7750222109931212e7 0.0
1.7750222109931212e7 4.405392021686474e6 0.0
0.0 0.0 0.0

1.0587766898993805e7 3.016138272220893e7 0.0
3.016138272220893e7 -8.457206589000132e6 0.0
0.0 0.0 0.0

4.62188658544904e6 3.7437712456965423e6 0.0
3.7437712456965423e6 -2.493460331081957e7 0.0
0.0 0.0 0.0

-4.511614228277793e6 1.65220961277401e7 0.0
1.65220961277401e7 3.2568512165970346e6 0.0
0.0 0.0 0.0

7.511868941853298e6 1.81301318941129e7 0.0
1.81301318941129e7 3.1171461480187807e7 0.0
0.0 0.0 0.0

4.556406095515966e7 6.288174901582293e6 0.0
6.288174901582293e6 -1.6270263145241681e6 0.0
0.0 0.0 0.0

-2.128862149070688e7 2.47180501088213e7 0.0
2.47180501088213e7 -6.038972227590069e6 0.0
0.0 0.0 0.0

-3.5628180639546462e6 2.1366894276682448e7 0.0
2.1366894276682448e7 2.603207889899362e6 0.0
0.0 0.0 0.0

556720.383786628 1.0911865659329843e7 0.0
1.0911865659329843e7 -3.507132800774568e7 0.0
0.0 0.0 0.0

-1.3930631582750654e7 2.523889862505679e7 0.0
2.523889862505679e7 5.983643435147979e6 0.0
0.0 0.0 0.0

6.054340846919112e6 1.8196940330886077e7 0.0
1.8196940330886077e7 6.32216497183691e6 0.0
0.0 0.0 0.0

-5.701191602911383e6 7.256616812876171e6 0.0
7.256616812876171e6 5.9396333391876034e7 0.0
0.0 0.0 0.0

-4.7599592826248575e6 2.021832463128446e7 0.0
2.021832463128446e7 9.7760591024968e6 0.0
0.0 0.0 0.0

1.9793128101922725e6 1.6032082593740499e7 0.0
1.6032082593740499e7 1.1911094184133975e7 0.0
0.0 0.0 0.0

-969625.325181582 1.6757849674299791e7 0.0
1.6757849674299791e7 -9.262831966666618e6 0.0
0.0 0.0 0.0

5.207620170837702e6 1.8897058304629043e7 0.0
1.8897058304629043e7 -2.5223987211919613e6 0.0
0.0 0.0 0.0

1.3322680305714956e6 1.8397411996261083e7 0.0
1.8397411996261083e7 -6.360780166006875e6 0.0
0.0 0.0 0.0

-2.6526729829036975e6 1.2876715787796361e7 0.0
1.2876715787796361e7 -3.093012662070959e6 0.0
0.0 0.0 0.0

-113083.24833799433 1.7344400731025353e7 0.0
1.7344400731025353e7 1.641824559767231e7 0.0
0.0 0.0 0.0

575095.2755600301 1.6355001046179118e7 0.0
1.6355001046179118e7 1.7719212290428225e6 0.0
0.0 0.0 0.0

136845.21163096174 1.592163273355926e7 0.0
1.592163273355926e7 -3.1375061597133493e6 0.0
0.0 0.0 0.0

-3.195821879013906e6 1.484036865728151e7 0.0
1.484036865728151e7 -2.2431843078403715e7 0.0
0.0 0.0 0.0

-3.15891402898485e6 2.3558915105994098e7 0.0
2.3558915105994098e7 4.13507741152313e6 0.0
0.0 0.0 0.0

-1.3807100338397667e7 2.1781084807642624e7 0.0
2.1781084807642624e7 -7.708018547949838e6 0.0
0.0 0.0 0.0

-8.093097295430225e6 2.718371383626941e7 0.0
2.718371383626941e7 5.181957413654819e6 0.0
0.0 0.0 0.0

-2.0295168591523995e6 1.7867731671015743e7 0.0
1.7867731671015743e7 1.0972512916895175e7 0.0
0.0 0.0 0.0

4.081125960962694e6 6.168638928503493e6 0.0
6.168638928503493e6 -2.5142194818434566e7 0.0
0.0 0.0 0.0

10660.260686686262 1.770462551914651e7 0.0
1.770462551914651e7 -1.1959142620964862e7 0.0
0.0 0.0 0.0

9.320072939023498e6 2.434753401974671e7 0.0
2.434753401974671e7 -5.9131658454362955e6 0.0
0.0 0.0 0.0

-1.1082616456801176e7 -142157.97485567012 0.0
-142157.97485567012 2.6003698650452264e7 0.0
0.0 0.0 0.0

-3.940388684165017e6 1.9508357037251737e7 0.0
1.9508357037251737e7 6.760588149321459e6 0.0
0.0 0.0 0.0

932944.4687568741 1.758553368159406e7 0.0
1.758553368159406e7 1.3426222885984732e6 0.0
0.0 0.0 0.0

5.489857876736568e6 1.9784796852888547e7 0.0
1.9784796852888547e7 -3.9570299345222013e6 0.0
0.0 0.0 0.0

-1.1830717403663384e7 5.755534551739328e6 0.0
5.755534551739328e6 2.487068033284537e7 0.0
0.0 0.0 0.0

3.494563163386763e6 1.588068244611074e7 0.0
1.588068244611074e7 1.5967948822765356e7 0.0
0.0 0.0 0.0

-6.841145431603333e6 1.9166064212627884e7 0.0
1.9166064212627884e7 -7.442037872604288e6 0.0
0.0 0.0 0.0

384086.96559143066 1.4608730481930075e7 0.0
1.4608730481930075e7 -2.1057052146568496e7 0.0
0.0 0.0 0.0

4.6267409085381e6 2.9402749328554153e7 0.0
2.9402749328554153e7 -3.13167051482875e6 0.0
0.0 0.0 0.0

-7.731876404634226e6 2.800586306812313e7 0.0
2.800586306812313e7 4.64043712781607e6 0.0
0.0 0.0 0.0

-1.1954116226412956e7 6.634472650196779e6 0.0
6.634472650196779e6 2.178001366886563e7 0.0
0.0 0.0 0.0

-5.610836124594712e6 2.0112155542855654e7 0.0
2.0112155542855654e7 -4.939553677618858e6 0.0
0.0 0.0 0.0

-5.865428278498622e6 2.8144249250004027e7 0.0
2.8144249250004027e7 3.684853323456772e6 0.0
0.0 0.0 0.0

-6.407809133925777e6 2.7477486568871442e7 0.0
2.7477486568871442e7 4.309898240344158e6 0.0
0.0 0.0 0.0

2.014143543320232e6 1.530924365401037e7 0.0
1.530924365401037e7 9.790622518300273e6 0.0
0.0 0.0 0.0

2.266208449360152e6 1.1933977083322532e7 0.0
1.1933977083322532e7 -1.769242272516403e7 0.0
0.0 0.0 0.0

3.9021891795957655e7 2.6007759048465673e7 0.0
2.6007759048465673e7 1.5006694238672258e7 0.0
0.0 0.0 0.0

-3.2902784020623673e7 1.6065041869442144e6 0.0
1.6065041869442144e6 8.447722736206029e6 0.0
0.0 0.0 0.0

-1.549093131402709e7 2.458153086194076e7 0.0
2.458153086194076e7 4.930024007102567e6 0.0
0.0 0.0 0.0

4.125150404403111e6 3.5459632940989654e6 0.0
3.5459632940989654e6 -2.786198286743019e7 0.0
0.0 0.0 0.0

-678481.694611222 1.753759191970305e7 0.0
1.753759191970305e7 -1.0523472514902258e7 0.0
0.0 0.0 0.0

-1.155966749128646e7 2.555530036308045e7 0.0
2.555530036308045e7 6.184347503962774e6 0.0
0.0 0.0 0.0

-1.1891368141029684e7 3.462906792182758e6 0.0
3.462906792182758e6 2.741007133997799e7 0.0
0.0 0.0 0.0

2.5272449589667097e6 9.535911080915991e6 0.0
9.535911080915991e6 -2.3476372555843614e7 0.0
0.0 0.0 0.0

-4.483667958779703e6 1.439763593031839e7 0.0
1.439763593031839e7 -1.8203053467988174e7 0.0
0.0 0.0 0.0

6.116901925133977e6 1.904472905542792e7 0.0
1.904472905542792e7 6.2463363317306e6 0.0
0.0 0.0 0.0

-2.9706201011654165e7 2.611589558029372e7 0.0
2.611589558029372e7 -3.466484377403808e6 0.0
0.0 0.0 0.0

-3.732292018346641e6 1.1178941451934882e7 0.0
1.1178941451934882e7 83633.46201368677 0.0
0.0 0.0 0.0

-8.839347514052462e6 2.466288940756317e7 0.0
2.466288940756317e7 6.112323112975983e6 0.0
0.0 0.0 0.0

-2.7640444707605476e6 2.4280230273265652e7 0.0
2.4280230273265652e7 2.8303898628529403e6 0.0
0.0 0.0 0.0

-8.53819013857925e6 4.850838570229559e6 0.0
4.850838570229559e6 1.6987988092449505e7 0.0
0.0 0.0 0.0

-7.550162464060594e6 -1.4727757833234903e6 0.0
-1.4727757833234903e6 1.300195221953423e7 0.0
0.0 0.0 0.0

1.5714700788424583e6 1.2256018045175381e7 0.0
1.2256018045175381e7 -1.8209928997350372e7 0.0
0.0 0.0 0.0

-1.1139694698359756e7 2.2036187993867653e6 0.0
2.2036187993867653e6 2.7577061104658514e7 0.0
0.0 0.0 0.0

577942.0992402527 1.500613511215769e7 0.0
1.500613511215769e7 -1.677934094377554e7 0.0
0.0 0.0 0.0

5.424294390588437e6 1.7848686012026194e7 0.0
1.7848686012026194e7 -1.202551659708278e6 0.0
0.0 0.0 0.0

1.128809603438361e6 8.61192952062031e6 0.0
8.61192952062031e6 -1.0248993877774341e7 0.0
0.0 0.0 0.0

-1.5985283630477691e7 2.450967798000642e7 0.0
2.450967798000642e7 5.024685143725593e6 0.0
0.0 0.0 0.0

-7.991222462515937e6 2.150253076131127e7 0.0
2.150253076131127e7 -7.682360946334647e6 0.0
0.0 0.0 0.0

415097.1636298735 1.4517643547548555e7 0.0
1.4517643547548555e7 1.3836579592995134e6 0.0
0.0 0.0 0.0

-451534.30474197894 1.5227676031405803e7 0.0
1.5227676031405803e7 -1.5051148631066924e6 0.0
0.0 0.0 0.0

2.0244088518271986e6 1.2507616019927653e7 0.0
1.2507616019927653e7 -1.6771425813081374e7 0.0
0.0 0.0 0.0

-4.181315713979575e6 1.4896057114835093e7 0.0
1.4896057114835093e7 -1.790269507267174e7 0.0
0.0 0.0 0.0

-1.087132185757747e7 -1.1853501550604303e6 0.0
-1.1853501550604303e6 1.937616347365187e7 0.0
0.0 0.0 0.0

-4.234974160472209e6 1.2290358067426074e7 0.0
1.2290358067426074e7 5.3115063322954625e6 0.0
0.0 0.0 0.0

177183.87712926092 1.941307149068247e7 0.0
1.941307149068247e7 -8.941324963936293e6 0.0
0.0 0.0 0.0

3.2360665298963683e6 6.972823598093291e6 0.0
6.972823598093291e6 -1.8202936627140068e7 0.0
0.0 0.0 0.0

-3.316028425539088e7 2.2640883715701465e7 0.0
2.2640883715701465e7 -1.4471391789281033e6 0.0
0.0 0.0 0.0

4.0418665585932396e6 1.8702538143505167e7 0.0
1.8702538143505167e7 -2.615914070288645e6 0.0
0.0 0.0 0.0

1.701378476734689e7 1.7257858783797637e7 0.0
1.7257858783797637e7 1.0461464703052174e6 0.0
0.0 0.0 0.0

-8.570036596193027e6 3.099036196336343e7 0.0
3.099036196336343e7 5.869728908860694e6 0.0
0.0 0.0 0.0

-1.0268320310220297e7 1.9100852030331965e6 0.0
1.9100852030331965e6 1.7315402024554424e7 0.0
0.0 0.0 0.0

-410188.5959381694 1.5888574983517088e7 0.0
1.5888574983517088e7 -1.12251144009946e7 0.0
0.0 0.0 0.0

-7.116861662908038e6 1.9977331526984632e7 0.0
1.9977331526984632e7 -4.492752460591912e6 0.0
0.0 0.0 0.0

-1.7603493499229334e7 2.7487370704343006e7 0.0
2.7487370704343006e7 6.921296356033664e6 0.0
0.0 0.0 0.0

-5.074423391961876e6 1.5664728981339563e7 0.0
1.5664728981339563e7 -2.7952443428651415e7 0.0
0.0 0.0 0.0

1.0252844923798044e6 1.6260057193035608e7 0.0
1.6260057193035608e7 6.637776178276883e6 0.0
0.0 0.0 0.0

-3.152030489161612e6 1.4789636697928887e7 0.0
1.4789636697928887e7 -1.9701760574196547e7 0.0
0.0 0.0 0.0

-1.2910045130743697e7 2.974618206735575e7 0.0
2.974618206735575e7 6.894352919617137e6 0.0
0.0 0.0 0.0

-586321.98068234 2.1500953428326957e7 0.0
2.1500953428326957e7 -6.239940970874558e6 0.0
0.0 0.0 0.0

-5.419409825990101e6 2.0186366095546134e7 0.0
2.0186366095546134e7 -479321.60195928253 0.0
0.0 0.0 0.0

2.6238809388307165e6 1.0345941493395144e7 0.0
1.0345941493395144e7 -2.5302543254775174e7 0.0
0.0 0.0 0.0

-1.1220917513194324e7 5.898261465988458e6 0.0
5.898261465988458e6 3.1282206223958243e7 0.0
0.0 0.0 0.0

-1.485164337460409e6 1.5934320959002197e7 0.0
1.5934320959002197e7 -7.64288184353115e6 0.0
0.0 0.0 0.0

5.568090574516755e6 1.8694176470704924e7 0.0
1.8694176470704924e7 -2.784141839050638e6 0.0
0.0 0.0 0.0

-4.207086239211978e6 1.5637827345027026e7 0.0
1.5637827345027026e7 -2.3679899626038816e7 0.0
0.0 0.0 0.0

-9.522891880242886e6 2.453469209711513e7 0.0
2.453469209711513e7 5.896243076971329e6 0.0
0.0 0.0 0.0

1.7873285195854593e7 2.83904535326452e7 0.0
2.83904535326452e7 -8.737040337737298e6 0.0
0.0 0.0 0.0

-4.681181859664983e6 1.9811390750123817e7 0.0
1.9811390750123817e7 -3.462747086833252e6 0.0
0.0 0.0 0.0

-9.807008343968937e6 2.561634972199916e7 0.0
2.561634972199916e7 5.987317607548686e6 0.0
0.0 0.0 0.0

-8.56152700464848e6 1.671736095762526e7 0.0
1.671736095762526e7 1.6908789064508036e7 0.0
0.0 0.0 0.0

2.0016698219081063e6 1.7835898460865967e7 0.0
1.7835898460865967e7 -5.377108465251995e6 0.0
0.0 0.0 0.0

-3.506303830671844e6 2.3669445780397836e7 0.0
2.3669445780397836e7 4.86216671312224e6 0.0
0.0 0.0 0.0

-3.939279415207561e6 1.4818566866477223e7 0.0
1.4818566866477223e7 -2.677154199147611e7 0.0
0.0 0.0 0.0

3.8692795478824433e6 5.069837572590385e6 0.0
5.069837572590385e6 -2.408382816451177e7 0.0
0.0 0.0 0.0

-4.20735502130787e6 1.5614837208076935e7 0.0
1.5614837208076935e7 -2.0953395621807702e7 0.0
0.0 0.0 0.0

-4.246929433479754e6 2.5847522956021752e7 0.0
2.5847522956021752e7 3.4836912530973637e6 0.0
0.0 0.0 0.0

-2.617036338591903e6 1.6335567474151803e7 0.0
1.6335567474151803e7 -8.72345442741096e6 0.0
0.0 0.0 0.0

2.1380762986036087e6 1.6120271861988006e7 0.0
1.6120271861988006e7 7.126921471691732e6 0.0
0.0 0.0 0.0

-1.0638952711455079e7 1.4934093141818076e7 0.0
1.4934093141818076e7 2.301551915430271e7 0.0
0.0 0.0 0.0

-1.5216265339935631e6 1.2471738125829298e7 0.0
1.2471738125829298e7 -2.4647412462038244e6 0.0
0.0 0.0 0.0

8.301887723135635e6 1.6140248114190608e7 0.0
1.6140248114190608e7 3.363064205906844e7 0.0
0.0 0.0 0.0

-1.095560625870088e7 1.0757800508566613e6 0.0
1.0757800508566613e6 3.0870782325697243e7 0.0
0.0 0.0 0.0

3.7296994439747445e6 4.43536897844657e6 0.0
4.43536897844657e6 -3.3541858527981468e7 0.0
0.0 0.0 0.0

-2.490013360343405e6 1.5624964249911677e7 0.0
1.5624964249911677e7 -2.1731334770474657e7 0.0
0.0 0.0 0.0

-8.301574736959903e6 2.564715020806971e7 0.0
2.564715020806971e7 5.794563041276735e6 0.0
0.0 0.0 0.0

2.1614961727502663e7 1.2472053983272012e7 0.0
1.2472053983272012e7 252627.7003722964 0.0
0.0 0.0 0.0

-1.2400375038087238e7 4.252509291207225e6 0.0
4.252509291207225e6 2.311299473878105e7 0.0
0.0 0.0 0.0

-1.7866274510867197e7 2.5990827712116987e7 0.0
2.5990827712116987e7 -7.755364905527491e6 0.0
0.0 0.0 0.0

-3.7881529583756924e6 1.901933946180301e7 0.0
1.901933946180301e7 6.95283650756628e6 0.0
0.0 0.0 0.0

-1.7404894511258215e7 2.9656439812057197e7 0.0
2.9656439812057197e7 7.628757098926431e6 0.0
0.0 0.0 0.0

3.5243267052638307e6 4.863025750582071e6 0.0
4.863025750582071e6 -3.463305582848984e7 0.0
0.0 0.0 0.0

2.772010675491685e6 2.4700460521453597e7 0.0
2.4700460521453597e7 -4.060527622991362e6 0.0
0.0 0.0 0.0

-7.294637967344435e6 1.1334698580480719e7 0.0
1.1334698580480719e7 4.357834610158914e7 0.0
0.0 0.0 0.0

-3.736135084761272e6 2.302188815598506e7 0.0
2.302188815598506e7 6.679628986421585e6 0.0
0.0 0.0 0.0

-1.257051715317591e6 1.5301142741433406e7 0.0
1.5301142741433406e7 -5.394377366953008e6 0.0
0.0 0.0 0.0

-4.659471753152927e6 2.4895627447974924e6 0.0
2.4895627447974924e6 7.436361574423383e6 0.0
0.0 0.0 0.0

2.775470426778917e6 1.7071424668588832e7 0.0
1.7071424668588832e7 1.1236381075597558e7 0.0
0.0 0.0 0.0

-4.559475683659352e6 1.9920436385400098e7 0.0
1.9920436385400098e7 8.472910407068498e6 0.0
0.0 0.0 0.0

1.7016965387900975e6 9.27321260816059e6 0.0
9.27321260816059e6 -9.227297976596072e6 0.0
0.0 0.0 0.0

-2.5392888931440767e6 1.8234931725262184e7 0.0
1.8234931725262184e7 666529.6693096522 0.0
0.0 0.0 0.0

4.482792775096639e6 1.8361224720206276e7 0.0
1.8361224720206276e7 -3.115821379650874e6 0.0
0.0 0.0 0.0

-2.3467965757669695e6 1.243796141034212e7 0.0
1.243796141034212e7 -58965.65558469447 0.0
0.0 0.0 0.0

-2.2226368302736506e6 1.457539913060177e7 0.0
1.457539913060177e7 -2.409879101081906e7 0.0
0.0 0.0 0.0

-5.27216426019791e6 1.556403662782093e7 0.0
1.556403662782093e7 5.650988857653026e6 0.0
0.0 0.0 0.0

-8.35699441694277e6 1.6916056017547004e7 0.0
1.6916056017547004e7 1.9966726021487236e7 0.0
0.0 0.0 0.0

-1.00574081061285e7 -1.252563406417337e6 0.0
-1.252563406417337e6 2.2187310779609215e7 0.0
0.0 0.0 0.0

-9.623104293820675e6 2.0230392573959403e7 0.0
2.0230392573959403e7 415207.5752570559 0.0
0.0 0.0 0.0

-6.362378322332231e6 2.422719942016607e7 0.0
2.422719942016607e7 6.350812566256637e6 0.0
0.0 0.0 0.0

6.80255993054708e6 2.4835696480292402e7 0.0
2.4835696480292402e7 -5.397447981081823e6 0.0
0.0 0.0 0.0

-1.2089461857224839e7 3.9422339658211772e6 0.0
3.9422339658211772e6 2.511710530214461e7 0.0
0.0 0.0 0.0

-3.0818676841312554e6 1.5261400622193743e7 0.0
1.5261400622193743e7 -2.5123885259473242e7 0.0
0.0 0.0 0.0

-4.3421421677651685e6 2.405029226890174e7 0.0
2.405029226890174e7 6.132745177084941e6 0.0
0.0 0.0 0.0

438416.6585489642 1.6550300452910839e7 0.0
1.6550300452910839e7 -7.171806022290324e6 0.0
0.0 0.0 0.0

-1.419998117777545e6 1.3647105070183767e7 0.0
1.3647105070183767e7 -6.823509051901393e6 0.0
0.0 0.0 0.0

-9.133126078241002e6 460068.61851892347 0.0
460068.61851892347 1.4867462895798523e7 0.0
0.0 0.0 0.0

-7.951623749139562e6 2.656873573986625e7 0.0
2.656873573986625e7 5.81874747961434e6 0.0
0.0 0.0 0.0

-2.5454728035786953e6 2.0115871165947374e7 0.0
2.0115871165947374e7 -367831.50142137514 0.0
0.0 0.0 0.0

2.2114596518455045e6 1.7894069655781005e7 0.0
1.7894069655781005e7 1.1190830592016304e7 0.0
0.0 0.0 0.0

-617335.4534705514 3.2362194798904024e6 0.0
3.2362194798904024e6 841113.0600792815 0.0
0.0 0.0 0.0

2.5959888874018216e6 1.7633074068475116e7 0.0
1.7633074068475116e7 3.4087121038322747e6 0.0
0.0 0.0 0.0

1.1649256293969415e6 8.498778940396737e6 0.0
8.498778940396737e6 -4.5520902079895295e7 0.0
0.0 0.0 0.0

2.9363059236575007e6 2.7880091874945976e7 0.0
2.7880091874945976e7 -3.9029484921286507e6 0.0
0.0 0.0 0.0

-5.144889142273541e6 2.086079134174475e7 0.0
2.086079134174475e7 9.330406436708929e6 0.0
0.0 0.0 0.0

-9.235744408793505e6 8.005323649630098e6 0.0
8.005323649630098e6 1.0548986874676626e7 0.0
0.0 0.0 0.0

-819614.2972147973 1.7672798237477146e7 0.0
1.7672798237477146e7 -2.7007003115316285e6 0.0
0.0 0.0 0.0

839950.5557719078 1.0300275382071342e7 0.0
1.0300275382071342e7 -4.224447890805255e7 0.0
0.0 0.0 0.0

-241412.13741022348 1.507350152795613e7 0.0
1.507350152795613e7 -1.9117802145842005e7 0.0
0.0 0.0 0.0

-8.075335632745683e6 2.905042357196918e7 0.0
2.905042357196918e7 4.381079029845122e6 0.0
0.0 0.0 0.0

-2.0488833375790315e6 1.6072153416562295e7 0.0
1.6072153416562295e7 -6.82961188277786e6 0.0
0.0 0.0 0.0

-3.5810860772151374e6 1.9540571953002702e7 0.0
1.9540571953002702e7 -9.16196696416068e6 0.0
0.0 0.0 0.0

-3.332671056230142e6 2.09523316149007e7 0.0
2.09523316149007e7 4.8750426624428565e6 0.0
0.0 0.0 0.0

398734.81107378844 1.5920986329914307e7 0.0
1.5920986329914307e7 -1.1341708761248348e7 0.0
0.0 0.0 0.0

4.684085202393219e6 1.885762177273659e7 0.0
1.885762177273659e7 5.216351804477515e6 0.0
0.0 0.0 0.0

-6.530563412954467e6 2.0528413032715026e7 0.0
2.0528413032715026e7 -8.196546362256001e6 0.0
0.0 0.0 0.0

-2.0298456280724593e6 1.849033834526341e7 0.0
1.849033834526341e7 4.68622128450335e6 0.0
0.0 0.0 0.0

-7.874216370847609e6 7.935916964011446e6 0.0
7.935916964011446e6 4.908890354552382e7 0.0
0.0 0.0 0.0

-414161.2967079864 1.3294993763657067e7 0.0
1.3294993763657067e7 -6.274473663773387e6 0.0
0.0 0.0 0.0

-5.205078498158406e6 1.3887430150497254e7 0.0
1.3887430150497254e7 -1.9085403548904374e7 0.0
0.0 0.0 0.0

107780.0691072559 1.7269921561528273e7 0.0
1.7269921561528273e7 -1.3070485660758099e7 0.0
0.0 0.0 0.0

-4.502240942238432e6 1.7830847644031517e7 0.0
1.7830847644031517e7 -1.1260853017845457e7 0.0
0.0 0.0 0.0

-4.031567446505284e6 1.9500205233623784e7 0.0
1.9500205233623784e7 8.757624774399163e6 0.0
0.0 0.0 0.0

291397.7059964474 1.5014044959558938e7 0.0
1.5014044959558938e7 971325.7828151729 0.0
0.0 0.0 0.0

-3.011749027041883e6 2.450079041445699e7 0.0
2.450079041445699e7 3.5976983582115117e6 0.0
0.0 0.0 0.0

-2.451824136320925e6 1.8822016307207122e7 0.0
1.8822016307207122e7 539334.9887059571 0.0
0.0 0.0 0.0

-8.78216803092556e6 1.6770239456271403e6 0.0
1.6770239456271403e6 4.834623105000311e7 0.0
0.0 0.0 0.0

-1.2893223176651523e7 7.6700253039353145e6 0.0
7.6700253039353145e6 1.976353410784684e7 0.0
0.0 0.0 0.0

856687.940683187 1.6928117808755793e7 0.0
1.6928117808755793e7 -6.455493930033852e6 0.0
0.0 0.0 0.0

-2.1516271810429282e7 2.424861525177729e7 0.0
2.424861525177729e7 4.321212401632538e6 0.0
0.0 0.0 0.0

-1.071286702711726e7 289339.5575263323 0.0
289339.5575263323 1.4953967866360657e7 0.0
0.0 0.0 0.0

-1.0117051515191577e7 6.105358580714506e6 0.0
6.105358580714506e6 3.9407841871842325e7 0.0
0.0 0.0 0.0

-2.0339377562393511e6 240815.53755171655 0.0
240815.53755171655 3.1235067955483748e6 0.0
0.0 0.0 0.0

-4.6325122257762365e6 4.1752572762188045e6 0.0
4.1752572762188045e6 545432.0587837994 0.0
0.0 0.0 0.0

2.0660568293147786e6 1.090225843981949e7 0.0
1.090225843981949e7 -1.8322931750145525e7 0.0
0.0 0.0 0.0

-3.1574212672628677e6 2.040619342150216e7 0.0
2.040619342150216e7 -854898.7538026839 0.0
0.0 0.0 0.0

-5.546029276596913e6 1.7883910440727185e7 0.0
1.7883910440727185e7 -1.0009261793026946e7 0.0
0.0 0.0 0.0

-4.1773846404553456e6 1.9300963635369956e7 0.0
1.9300963635369956e7 1.1606367312851926e7 0.0
0.0 0.0 0.0

-2.52112736873879e6 1.4906238121899482e7 0.0
1.4906238121899482e7 -1.8539003426648367e7 0.0
0.0 0.0 0.0

831030.8056811187 1.7370937677287903e7 0.0
1.7370937677287903e7 1.0219512105869228e7 0.0
0.0 0.0 0.0

-7.406458949221567e6 1.4648080029315826e7 0.0
1.4648080029315826e7 -2.75311101658626e7 0.0
0.0 0.0 0.0

-3.4199059200668777e6 1.8695311589585926e7 0.0
1.8695311589585926e7 2.8366992473033676e6 0.0
0.0 0.0 0.0

-599374.356056517 1.085646208018553e7 0.0
1.085646208018553e7 -4.998713893612997e7 0.0
0.0 0.0 0.0

1.093369340149518e6 1.0665459651453665e7 0.0
1.0665459651453665e7 -3.705357328599773e7 0.0
0.0 0.0 0.0

-2.5140251105753323e6 1.8846043919389065e7 0.0
1.8846043919389065e7 -8.632578658177556e6 0.0
0.0 0.0 0.0

-1.0644416272361737e7 2.259133877046156e7 0.0
2.259133877046156e7 -7.146481302026416e6 0.0
0.0 0.0 0.0

-1.055100636454014e7 2.4516749829562824e7 0.0
2.4516749829562824e7 5.989315953853749e6 0.0
0.0 0.0 0.0

-5.326066960138651e6 1.2821509931073794e7 0.0
1.2821509931073794e7 4.420415045238782e6 0.0
0.0 0.0 0.0

-2.6832381772294794e6 5.226470230282315e6 0.0
5.226470230282315e6 6.267051727450224e6 0.0
0.0 0.0 0.0

337545.4157099002 1.6132389181850523e7 0.0
1.6132389181850523e7 -5.790467775702302e6 0.0
0.0 0.0 0.0

6.541567720902817e6 1.9258032673708387e7 0.0
1.9258032673708387e7 -2.8051611899713976e6 0.0
0.0 0.0 0.0

-6.435061472359436e6 1.1901889025347656e7 0.0
1.1901889025347656e7 4.437488616943223e7 0.0
0.0 0.0 0.0

-1.848389765891911e6 1.81872697168668e7 0.0
1.81872697168668e7 8.905315974644043e6 0.0
0.0 0.0 0.0

-6.338736359694643e6 2.4293586532701164e7 0.0
2.4293586532701164e7 6.46800798759322e6 0.0
0.0 0.0 0.0

-2.9849578027471914e6 1.4770540078434328e7 0.0
1.4770540078434328e7 -1.1834926332223663e7 0.0
0.0 0.0 0.0

-9.83361162720295e6 9.236756337105598e6 0.0
9.236756337105598e6 3.6540642478586346e7 0.0
0.0 0.0 0.0

-2.0889957306673424e6 1.789700826036227e7 0.0
1.789700826036227e7 4.950423518878995e6 0.0
0.0 0.0 0.0

-114866.37477975618 1.721942085352625e7 0.0
1.721942085352625e7 -1.2891291883337058e7 0.0
0.0 0.0 0.0

-82252.86491561122 1.4158213797172733e7 0.0
1.4158213797172733e7 -2.2283753331161685e7 0.0
0.0 0.0 0.0

1.4658171883128285e6 9.668944296883795e6 0.0
9.668944296883795e6 -3.5551118024857655e7 0.0
0.0 0.0 0.0

1.8000955756818801e6 1.0349911934980096e7 0.0
1.0349911934980096e7 -2.8855504042986818e7 0.0
0.0 0.0 0.0

-7.279883139517603e6 1.665330111383574e7 0.0
1.665330111383574e7 -3.941625995087536e7 0.0
0.0 0.0 0.0

-3.276073541933677e6 2.4085679893575277e7 0.0
2.4085679893575277e7 4.223666921218275e6 0.0
0.0 0.0 0.0

-3.7522229823624613e6 1.9548544697748616e7 0.0
1.9548544697748616e7 -8.821145614491878e6 0.0
0.0 0.0 0.0

-714178.995533756 1.677866454600289e7 0.0
1.677866454600289e7 -1.1102442038167702e7 0.0
0.0 0.0 0.0

1.5302910933631193e7 1.920410563363288e7 0.0
1.920410563363288e7 -2.388811096843655e6 0.0
0.0 0.0 0.0

-9.163530684246602e6 4.143329759387253e6 0.0
4.143329759387253e6 4.317729872672985e7 0.0
0.0 0.0 0.0

-50895.67182721943 1.0697675364823043e7 0.0
1.0697675364823043e7 -4.284299143754477e7 0.0
0.0 0.0 0.0

2.1303730806667507e6 1.0596007745580489e7 0.0
1.0596007745580489e7 -2.8614859652384207e7 0.0
0.0 0.0 0.0

-6.54435023955911e6 7.944634740978374e6 0.0
7.944634740978374e6 5.4349676420957655e7 0.0
0.0 0.0 0.0

1.3667169650532557e7 1.951253614574009e7 0.0
1.951253614574009e7 8.353427618557267e6 0.0
0.0 0.0 0.0

-9.181447929305272e6 7.242658829062872e6 0.0
7.242658829062872e6 4.077013855252363e7 0.0
0.0 0.0 0.0

-4.630914680731682e6 588247.6349149283 0.0
588247.6349149283 4.693869632947e6 0.0
0.0 0.0 0.0

-3.4953205431970907e6 2.5071465973050784e7 0.0
2.5071465973050784e7 2.572496848521515e6 0.0
0.0 0.0 0.0

2.3777415438645612e6 1.0132105201500058e7 0.0
1.0132105201500058e7 -2.2373544347013343e7 0.0
0.0 0.0 0.0

-6.077966905068225e6 2.7077010687140625e7 0.0
2.7077010687140625e7 5.4054949530730825e6 0.0
0.0 0.0 0.0

-9.533263016960407e6 1.1738875739083333e7 0.0
1.1738875739083333e7 3.2586746046412103e7 0.0
0.0 0.0 0.0

-1.2617023325685006e7 5.636828413241953e6 0.0
5.636828413241953e6 1.835143715550591e7 0.0
0.0 0.0 0.0

3.8222151072175303e6 2.489019508376635e7 0.0
2.489019508376635e7 -4.372670699191618e6 0.0
0.0 0.0 0.0

-4.479867140608647e6 1.9820492337174356e7 0.0
1.9820492337174356e7 1.1308610363569982e7 0.0
0.0 0.0 0.0

80782.76303996774 2.181298281021241e7 0.0
2.181298281021241e7 -5.740549585383776e6 0.0
0.0 0.0 0.0

-6.085172518240988e6 2.2129700736412678e7 0.0
2.2129700736412678e7 6.827694878917377e6 0.0
0.0 0.0 0.0

-2.300945820628609e6 1.5743356790689576e7 0.0
1.5743356790689576e7 -1.977020585420749e7 0.0
0.0 0.0 0.0

2.5436823923125663e6 1.9466318740715478e7 0.0
1.9466318740715478e7 -6.411159963978561e6 0.0
0.0 0.0 0.0

4.450689085512298e6 1.6770952881892867e7 0.0
1.6770952881892867e7 3.2214226941287007e7 0.0
0.0 0.0 0.0

-5.862672379171895e6 3.744891485512963e6 0.0
3.744891485512963e6 1.4625771393709168e7 0.0
0.0 0.0 0.0

-3.4893176848551175e6 7.472718596764858e6 0.0
7.472718596764858e6 -3.802719662716491e6 0.0
0.0 0.0 0.0

-3.5243958190662703e6 1.6954663358616013e7 0.0
1.6954663358616013e7 -1.17479859026621e7 0.0
0.0 0.0 0.0

3.21989894551595e6 1.7343086726025753e7 0.0
1.7343086726025753e7 1.0732996845668912e7 0.0
0.0 0.0 0.0

4.007416945829371e6 2.842898587993833e7 0.0
2.842898587993833e7 -4.91506260554063e6 0.0
0.0 0.0 0.0

3.944986608215782e6 5.236065556899728e6 0.0
5.236065556899728e6 -1.4148646083459586e7 0.0
0.0 0.0 0.0

-4.049239976070789e6 2.7934455245089915e7 0.0
2.7934455245089915e7 3.9683472375219623e6 0.0
0.0 0.0 0.0

-3.513278478161962e7 1.2113846181599777e7 0.0
1.2113846181599777e7 9.308726931745011e6 0.0
0.0 0.0 0.0

62747.4490665379 1.7517959333335172e7 0.0
1.7517959333335172e7 -1.195749263010553e7 0.0
0.0 0.0 0.0

-9.396941240957951e6 1.339262247707792e7 0.0
1.339262247707792e7 2.8638805707155403e7 0.0
0.0 0.0 0.0

269380.9922388757 1.717181773671977e7 0.0
1.717181773671977e7 -6.252150559088555e6 0.0
0.0 0.0 0.0

-4.395785880361801e6 2.0273453785228383e7 0.0
2.0273453785228383e7 8.71887481557239e6 0.0
0.0 0.0 0.0

-2.977894622156765e6 1.9961212231870662e7 0.0
1.9961212231870662e7 -1.7773728601238679e6 0.0
0.0 0.0 0.0

497914.90593747003 1.7529486472530562e7 0.0
1.7529486472530562e7 -7.48748796434231e6 0.0
0.0 0.0 0.0

3.559895609525632e6 4.164786065010436e6 0.0
4.164786065010436e6 -3.610533429421792e7 0.0
0.0 0.0 0.0

-636319.883519887 1.401892834706923e7 0.0
1.401892834706923e7 -2.1210666403549514e6 0.0
0.0 0.0 0.0

7.075422553158689e6 2.0275518936166227e7 0.0
2.0275518936166227e7 -4.200447431915127e6 0.0
0.0 0.0 0.0

-862912.4151909291 1.6555046358547654e7 0.0
1.6555046358547654e7 -1.2657879198282164e7 0.0
0.0 0.0 0.0

3.130909289848126e6 1.8849128486932233e7 0.0
1.8849128486932233e7 8.531040861056382e6 0.0
0.0 0.0 0.0

425962.93052208424 1.0873665396208603e7 0.0
1.0873665396208603e7 -3.738033861469779e7 0.0
0.0 0.0 0.0

-1.2581334500848725e6 1.9381181044473823e7 0.0
1.9381181044473823e7 -7.323885773476768e6 0.0
0.0 0.0 0.0

2.2114924293633103e6 1.9194761073023602e7 0.0
1.9194761073023602e7 1.2752082396711836e7 0.0
0.0 0.0 0.0

1.7595993802710515e7 2.380667418829815e7 0.0
2.380667418829815e7 -6.309667015729859e6 0.0
0.0 0.0 0.0

1.311539073302731e6 1.0873292198832523e7 0.0
1.0873292198832523e7 -3.255891817865645e7 0.0
0.0 0.0 0.0

-2.920542784056094e7 1.0955152703858431e7 0.0
1.0955152703858431e7 9.427421223702064e6 0.0
0.0 0.0 0.0

393344.8737695059 1.6864402124637388e7 0.0
1.6864402124637388e7 1.2586338286762018e7 0.0
0.0 0.0 0.0

-5.475177473692657e6 2.7872938796350718e7 0.0
2.7872938796350718e7 4.943444721803517e6 0.0
0.0 0.0 0.0

-272565.7351261261 1.789592487206636e7 0.0
1.789592487206636e7 -9.273542686756924e6 0.0
0.0 0.0 0.0

-5.488109042340102e6 2.453136690512425e7 0.0
2.453136690512425e7 5.943600937847618e6 0.0
0.0 0.0 0.0

-7.023559583875772e6 1.1102506133298613e7 0.0
1.1102506133298613e7 4.756703311551016e7 0.0
0.0 0.0 0.0

1.504122512321597e6 1.3549754704133842e7 0.0
1.3549754704133842e7 -1.4818688631847369e7 0.0
0.0 0.0 0.0

2.3767636870247787e6 2.4912450577264797e7 0.0
2.4912450577264797e7 -4.412914756674496e6 0.0
0.0 0.0 0.0

-2.35873636340307e6 1.0669718438814392e7 0.0
1.0669718438814392e7 880281.9165706522 0.0
0.0 0.0 0.0

-2.668285295436646e7 1.0355794798094578e7 0.0
1.0355794798094578e7 9.308784366888607e6 0.0
0.0 0.0 0.0

-3.6866328185448926e6 1.3948336565641213e7 0.0
1.3948336565641213e7 -523016.7360111417 0.0
0.0 0.0 0.0

-1.1776159309186904e7 2.130724814962617e6 0.0
2.130724814962617e6 2.5315504030429687e7 0.0
0.0 0.0 0.0

-8.613932235206852e6 1.4170022955433408e7 0.0
1.4170022955433408e7 2.969978022084242e7 0.0
0.0 0.0 0.0

-4.73252895587593e6 2.6367315398793515e7 0.0
2.6367315398793515e7 3.6799288154633446e6 0.0
0.0 0.0 0.0

-4.908988797374731e6 2.854626270710649e7 0.0
2.854626270710649e7 4.324516036322951e6 0.0
0.0 0.0 0.0

-8.874188707900746e6 1.0219428847183872e7 0.0
1.0219428847183872e7 3.774997177696914e7 0.0
0.0 0.0 0.0

1.3912495335877482e6 1.2339462273962464e7 0.0
1.2339462273962464e7 -1.2332985959564423e7 0.0
0.0 0.0 0.0

4.362997426954601e6 1.8454720664164208e7 0.0
1.8454720664164208e7 -390474.4335481273 0.0
0.0 0.0 0.0

-2.337817585040552e6 1.3152240072087558e7 0.0
1.3152240072087558e7 -8.470962338451678e6 0.0
0.0 0.0 0.0

668934.8423509258 9.388292925510935e6 0.0
9.388292925510935e6 -6.684401004349741e6 0.0
0.0 0.0 0.0

-3.6261750456147785e6 2.6162138112374213e7 0.0
2.6162138112374213e7 3.945991708879961e6 0.0
0.0 0.0 0.0

-1.0012810760145726e7 1.6132583589543842e7 0.0
1.6132583589543842e7 2.1421837823668607e7 0.0
0.0 0.0 0.0

705218.2618100811 1.120066247608086e7 0.0
1.120066247608086e7 -3.3058127307591412e7 0.0
0.0 0.0 0.0

-1.859850016424781e7 2.3458063039088476e7 0.0
2.3458063039088476e7 3.356776336612326e6 0.0
0.0 0.0 0.0

97162.97839203826 2.248357258201848e7 0.0
2.248357258201848e7 -4.929044837075547e6 0.0
0.0 0.0 0.0

2.6385180400037877e6 5.501840707764259e6 0.0
5.501840707764259e6 -4.30044701946531e7 0.0
0.0 0.0 0.0

-3.467418312533116e6 1.783254852315446e7 0.0
1.783254852315446e7 1.5637087541507047e7 0.0
0.0 0.0 0.0

-2.9192116637002258e6 2.033813468961692e7 0.0
2.033813468961692e7 1.2152702182531073e6 0.0
0.0 0.0 0.0

149470.2826194223 1.7676994094660413e7 0.0
1.7676994094660413e7 -1.2169384727539672e7 0.0
0.0 0.0 0.0

-7.361495379445652e6 2.7518472117023572e7 0.0
2.7518472117023572e7 5.7246111968925465e6 0.0
0.0 0.0 0.0

-2.354310618587093e6 2.036024551663358e7 0.0
2.036024551663358e7 -1.1288242613129963e6 0.0
0.0 0.0 0.0

-5.507499165946826e6 2.692720529565338e7 0.0
2.692720529565338e7 3.961657599940533e6 0.0
0.0 0.0 0.0

-1.7763479705310925e6 7.299816517318909e6 0.0
7.299816517318909e6 1.1649399258871418e6 0.0
0.0 0.0 0.0

3.891245227484424e6 1.6426568636743402e7 0.0
1.6426568636743402e7 1.5197912284584042e7 0.0
0.0 0.0 0.0

-455912.7293137647 1.55695946508894e7 0.0
1.55695946508894e7 -1.7242101777062654e7 0.0
0.0 0.0 0.0

-2.5996682427288583e6 1.3514665142769247e7 0.0
1.3514665142769247e7 163886.30772261857 0.0
0.0 0.0 0.0

-95570.06376701221 1.6602415894994983e7 0.0
1.6602415894994983e7 -1.3957420569767978e7 0.0
0.0 0.0 0.0

2.9012241192973843e6 7.572506767089858e6 0.0
7.572506767089858e6 -1.726883496777683e7 0.0
0.0 0.0 0.0

8.489149358237129e6 1.9932573205339912e7 0.0
1.9932573205339912e7 8.704686503324611e6 0.0
0.0 0.0 0.0

-9.785168937262325e6 -1.3433823637755949e6 0.0
-1.3433823637755949e6 3.1899386505253144e7 0.0
0.0 0.0 0.0

4.441369931423251e6 1.6633537066378154e7 0.0
1.6633537066378154e7 1.7300129651048485e7 0.0
0.0 0.0 0.0

-3.760264955948701e6 2.4731648270641018e7 0.0
2.4731648270641018e7 3.260428528607648e6 0.0
0.0 0.0 0.0

-19044.872316616587 1.5309905434159981e7 0.0
1.5309905434159981e7 -1.9464880052309435e7 0.0
0.0 0.0 0.0

1.9074561360349762e6 2.4426566907188993e7 0.0
2.4426566907188993e7 -3.9935824502375484e6 0.0
0.0 0.0 0.0

-302819.12396111246 1.6948245924076278e7 0.0
1.6948245924076278e7 -2.151040776442913e6 0.0
0.0 0.0 0.0

3.0500772669255175e6 9.762421505881244e6 0.0
9.762421505881244e6 -2.178348387437289e7 0.0
0.0 0.0 0.0

-218793.21329199243 2.193143118892852e7 0.0
2.193143118892852e7 -5.92520346700164e6 0.0
0.0 0.0 0.0

-338771.39363342896 1.5862710517899508e7 0.0
1.5862710517899508e7 -1.611664333664821e7 0.0
0.0 0.0 0.0

-9.826765380017206e6 4.906677363177869e6 0.0
4.906677363177869e6 1.3308407192499949e7 0.0
0.0 0.0 0.0

2.0230547533724303e6 1.8378336195761863e7 0.0
1.8378336195761863e7 1.3038060936679004e7 0.0
0.0 0.0 0.0

-5.245751541580295e6 2.061653555675e7 0.0
2.061653555675e7 8.368193059084721e6 0.0
0.0 0.0 0.0

-3.985179898698317e6 2.530092000611149e7 0.0
2.530092000611149e7 3.342153662070481e6 0.0
0.0 0.0 0.0

-1.3302103409350216e6 1.7386721549659707e7 0.0
1.7386721549659707e7 9.040681826267432e6 0.0
0.0 0.0 0.0

-3.994144085231432e6 4.161651946068833e6 0.0
4.161651946068833e6 6.431103633450345e6 0.0
0.0 0.0 0.0

-1.1093754394191004e7 8.741024566938505e6 0.0
8.741024566938505e6 3.1356681452418804e7 0.0
0.0 0.0 0.0

-9882.096052452922 1.701578302336484e7 0.0
1.701578302336484e7 -1.2971569129360653e7 0.0
0.0 0.0 0.0

-1.589339269233143e6 1.3312745271151232e7 0.0
1.3312745271151232e7 -4.908253252031798e7 0.0
0.0 0.0 0.0

-3.462764432914002e6 5.527633580214831e6 0.0
5.527633580214831e6 5.07106859142715e6 0.0
0.0 0.0 0.0

-1.1113665670582501e7 59182.99575120108 0.0
59182.99575120108 1.8501249825985327e7 0.0
0.0 0.0 0.0

-5.400064715529475e6 1.5951425891445132e7 0.0
1.5951425891445132e7 6.807493246966984e6 0.0
0.0 0.0 0.0

-288618.87762025325 2.268492908220271e7 0.0
2.268492908220271e7 -4.344302890120686e6 0.0
0.0 0.0 0.0

-2.5266658744410444e6 1.4414834777792666e7 0.0
1.4414834777792666e7 -3.175104262874351e7 0.0
0.0 0.0 0.0

3.4844907675330667e6 7.253461683127959e6 0.0
7.253461683127959e6 -1.5015206373251582e7 0.0
0.0 0.0 0.0

-2.793973012652938e6 2.4844191456809234e7 0.0
2.4844191456809234e7 2.91939056527293e6 0.0
0.0 0.0 0.0

452859.9436805821 2.2212927473014873e7 0.0
2.2212927473014873e7 -5.476990817642637e6 0.0
0.0 0.0 0.0

-8.554154006713074e6 3.2445336380877014e7 0.0
3.2445336380877014e7 3.9611161436148626e6 0.0
0.0 0.0 0.0

-3.1495648689101655e6 2.5040807451155294e7 0.0
2.5040807451155294e7 3.73078131298816e6 0.0
0.0 0.0 0.0

-1.918466600500049e7 2.4916030132562004e7 0.0
2.4916030132562004e7 -4.797259741675154e6 0.0
0.0 0.0 0.0

-2.788259516890425e6 1.904423482063554e7 0.0
1.904423482063554e7 -1.3536250610152427e6 0.0
0.0 0.0 0.0

-1.8127421473737843e6 1.3207950144930353e7 0.0
1.3207950144930353e7 -4.519260817673421e7 0.0
0.0 0.0 0.0

-3.538049586679374e6 1.2895224960753497e7 0.0
1.2895224960753497e7 -777738.6866424833 0.0
0.0 0.0 0.0

-1.0467250704047242e7 1.0505917862799384e6 0.0
1.0505917862799384e6 3.658874420296251e7 0.0
0.0 0.0 0.0

-9.585743024323931e6 4.87701265276087e6 0.0
4.87701265276087e6 4.262729983911143e7 0.0
0.0 0.0 0.0

3.242953800999336e6 6.3393826500454005e6 0.0
6.3393826500454005e6 -3.1846708116589546e7 0.0
0.0 0.0 0.0

-4.727046982284572e6 2.176861281249039e7 0.0
2.176861281249039e7 8.31345705994487e6 0.0
0.0 0.0 0.0

-7.146175753217302e6 1.2214875673758373e7 0.0
1.2214875673758373e7 4.060021835092631e7 0.0
0.0 0.0 0.0

-209546.2943851482 1.6225947365566114e7 0.0
1.6225947365566114e7 -1.5014819029351441e7 0.0
0.0 0.0 0.0

-5.210402919441784e6 1.4200640210712438e7 0.0
1.4200640210712438e7 3.768587212620853e7 0.0
0.0 0.0 0.0

-654218.8446714522 2.2178662285751782e7 0.0
2.2178662285751782e7 -5.412188673597252e6 0.0
0.0 0.0 0.0

967683.1990976087 2.6312778676370934e7 0.0
2.6312778676370934e7 -2.931284804046138e6 0.0
0.0 0.0 0.0

-85637.22627707478 1.6824927169415247e7 0.0
1.6824927169415247e7 -3.678174083585877e6 0.0
0.0 0.0 0.0

-1.1435019745948397e7 2.79127303846642e6 0.0
2.79127303846642e6 1.843039543706999e7 0.0
0.0 0.0 0.0

-547149.2919655577 1.7104050341390003e7 0.0
1.7104050341390003e7 1.0935828940223573e7 0.0
0.0 0.0 0.0

-4.662691913395212e6 1.5429779113555485e7 0.0
1.5429779113555485e7 7.711792632568362e6 0.0
0.0 0.0 0.0

3.8474903310279455e6 4.781982684788586e6 0.0
4.781982684788586e6 -2.9109566996882763e7 0.0
0.0 0.0 0.0

2.607596780440971e6 1.9243788284922097e7 0.0
1.9243788284922097e7 -5.588815954300315e6 0.0
0.0 0.0 0.0

-1.2069508057213329e7 1.8887134273623288e7 0.0
1.8887134273623288e7 5.63161269320997e6 0.0
0.0 0.0 0.0

-1.8101678769571256e7 2.1502640146056786e7 0.0
2.1502640146056786e7 -4.920116764792874e6 0.0
0.0 0.0 0.0

-2.867046683946248e6 2.5157452692211986e7 0.0
2.5157452692211986e7 1.2115427657991843e6 0.0
0.0 0.0 0.0

549095.3862668751 1.1967034459892018e7 0.0
1.1967034459892018e7 -1.168637709168725e7 0.0
0.0 0.0 0.0

-4.471172657823523e6 1.8830661642238256e7 0.0
1.8830661642238256e7 -1.116378398587111e6 0.0
0.0 0.0 0.0

126181.11991245067 2.645458928471318e7 0.0
2.645458928471318e7 -1.1526836585416968e6 0.0
0.0 0.0 0.0

-4.3602576042732e6 1.7911818927722372e7 0.0
1.7911818927722372e7 1.6860501151078865e7 0.0
0.0 0.0 0.0

-2.0532437706255107e6 1.7714413368522175e7 0.0
1.7714413368522175e7 9.107693558692636e6 0.0
0.0 0.0 0.0

1.410343658177448e6 1.1585462037009334e7 0.0
1.1585462037009334e7 -1.1075282863196034e7 0.0
0.0 0.0 0.0

-2.4259605372176403e6 2.807938481281599e7 0.0
2.807938481281599e7 2.0274800836116946e6 0.0
0.0 0.0 0.0

-1.1188847546738582e7 -18108.822101570164 0.0
-18108.822101570164 2.7624567433659278e7 0.0
0.0 0.0 0.0

4.235505256299284e6 5.744434435049468e6 0.0
5.744434435049468e6 -2.3010369056161083e7 0.0
0.0 0.0 0.0

-1.0064327000484877e6 2.433995867312495e7 0.0
2.433995867312495e7 -1.448099648083245e6 0.0
0.0 0.0 0.0

-357018.6525719492 1.583460654450225e7 0.0
1.583460654450225e7 -1.7659449961834192e7 0.0
0.0 0.0 0.0

-2.9496863648263067e6 1.4585143748680078e6 0.0
1.4585143748680078e6 4.564319677798293e6 0.0
0.0 0.0 0.0

1.1788994882841576e6 9.130406879907927e6 0.0
9.130406879907927e6 -1.0905590767745739e7 0.0
0.0 0.0 0.0

-7.3764392278604545e6 2.17416250752405e7 0.0
2.17416250752405e7 -5.7689959199300185e6 0.0
0.0 0.0 0.0

2.678839332417682e6 1.0829093506210648e7 0.0
1.0829093506210648e7 -2.1180071768055327e7 0.0
0.0 0.0 0.0

7.867701446756275e6 2.035018290007797e7 0.0
2.035018290007797e7 9.583371189059198e6 0.0
0.0 0.0 0.0

-3.382582590750735e6 7.823387203131688e6 0.0
7.823387203131688e6 365576.9290285278 0.0
0.0 0.0 0.0

-4.784292418545897e6 4.440783361812436e6 0.0
4.440783361812436e6 3.4636913743711817e6 0.0
0.0 0.0 0.0

5.182386560219699e6 2.4927016389734562e7 0.0
2.4927016389734562e7 -4.741535284352498e6 0.0
0.0 0.0 0.0

-1.0881265155108567e7 304233.42760908906 0.0
304233.42760908906 2.7108186151750997e7 0.0
0.0 0.0 0.0

945831.6980088949 1.459835323270205e7 0.0
1.459835323270205e7 -1.2798470889825998e7 0.0
0.0 0.0 0.0

735791.0375266217 1.6501206905513952e7 0.0
1.6501206905513952e7 1.8009580574317917e6 0.0
0.0 0.0 0.0

1.1351303023229735e7 2.1337140490042552e7 0.0
2.1337140490042552e7 -4.38108129432817e6 0.0
0.0 0.0 0.0

923172.316918741 1.5402412241453677e7 0.0
1.5402412241453677e7 -1.559672934316324e7 0.0
0.0 0.0 0.0

6.000630185589625e6 1.7293163090187676e7 0.0
1.7293163090187676e7 2.314956372586947e7 0.0
0.0 0.0 0.0

-7.466902221256372e6 2.4534304900123913e7 0.0
2.4534304900123913e7 6.158401870140554e6 0.0
0.0 0.0 0.0

-9.987950840016633e6 789681.6361323918 0.0
789681.6361323918 3.405129533014714e7 0.0
0.0 0.0 0.0

-559019.1263020455 2.438587706725886e7 0.0
2.438587706725886e7 -1.9397579928440745e6 0.0
0.0 0.0 0.0

-1.1418429952599173e6 1.8066232772897318e7 0.0
1.8066232772897318e7 1.5570290387895344e7 0.0
0.0 0.0 0.0

2.1477683328088736e6 1.0431304593110899e7 0.0
1.0431304593110899e7 -1.7839051196722187e7 0.0
0.0 0.0 0.0

4.1055936295559704e6 4.902576218132708e6 0.0
4.902576218132708e6 -3.239419493688054e7 0.0
0.0 0.0 0.0

-2.781807644825447e6 2.016620533517049e7 0.0
2.016620533517049e7 -2.5046045115019674e6 0.0
0.0 0.0 0.0

-8.0050703215999855e6 9.831642061632035e6 0.0
9.831642061632035e6 1.3316132731511828e7 0.0
0.0 0.0 0.0

-9.984303292190894e6 1.50647010879377e7 0.0
1.50647010879377e7 2.525733255464482e7 0.0
0.0 0.0 0.0

-201225.76132847928 1.5018022225959452e7 0.0
1.5018022225959452e7 -2.068818141797773e7 0.0
0.0 0.0 0.0

-1.2822210628508572e6 1.2733563631312745e7 0.0
1.2733563631312745e7 -4.215696084332918e7 0.0
0.0 0.0 0.0

-250205.29244070384 2.4875071378336657e7 0.0
2.4875071378336657e7 -1.8850946802488782e6 0.0
0.0 0.0 0.0

-1.260309092625318e6 1.7435744785818662e7 0.0
1.7435744785818662e7 7.017840313109764e6 0.0
0.0 0.0 0.0

-3.2093435100317597e7 1.1256477812541287e7 0.0
1.1256477812541287e7 9.080993392448701e6 0.0
0.0 0.0 0.0

6.574426800959805e6 1.7696598465406243e7 0.0
1.7696598465406243e7 2.634396876233166e7 0.0
0.0 0.0 0.0

-2.9842499480696015e7 2.821368416984298e7 0.0
2.821368416984298e7 8.006892685081448e6 0.0
0.0 0.0 0.0

2.2746426065013725e6 1.0083736786098652e7 0.0
1.0083736786098652e7 -2.544566074649407e7 0.0
0.0 0.0 0.0

6.183784676252031e6 5.36539311907465e6 0.0
5.36539311907465e6 -1.206813920467345e6 0.0
0.0 0.0 0.0

-1.6391197263029948e7 -620478.1592470937 0.0
-620478.1592470937 7.084427302845365e6 0.0
0.0 0.0 0.0

-6.966516438810311e6 8.782739077298874e6 0.0
8.782739077298874e6 1.1268096904724691e7 0.0
0.0 0.0 0.0

-1.0548420270391358e7 2.018603022672126e6 0.0
2.018603022672126e6 3.231561137979389e7 0.0
0.0 0.0 0.0

-1.1743177135822304e7 2.373787577275123e6 0.0
2.373787577275123e6 2.664407335431909e7 0.0
0.0 0.0 0.0

108063.02675621491 1.6839646644760236e7 0.0
1.6839646644760236e7 -1.4370141033803487e7 0.0
0.0 0.0 0.0

-2.1392174563718857e6 1.3955547217406807e7 0.0
1.3955547217406807e7 -7.13072505585106e6 0.0
0.0 0.0 0.0

1.6642999544396072e6 1.4908664880597468e7 0.0
1.4908664880597468e7 5.547666663264422e6 0.0
0.0 0.0 0.0

750888.7541897327 1.6230786901684152e7 0.0
1.6230786901684152e7 -781167.2244976416 0.0
0.0 0.0 0.0

100775.85035740468 2.5351910124081444e7 0.0
2.5351910124081444e7 -1.7943644519003762e6 0.0
0.0 0.0 0.0

-1.1097033377019264e7 8.814102132485846e6 0.0
8.814102132485846e6 1.7863032136886086e7 0.0
0.0 0.0 0.0

259567.52419121098 1.5947583657876065e7 0.0
1.5947583657876065e7 -1.467974836018928e7 0.0
0.0 0.0 0.0

-3.5203728730254467e6 2.1945080734786622e7 0.0
2.1945080734786622e7 2.723444976049469e6 0.0
0.0 0.0 0.0

2.6287140295597445e6 8.346499483571145e6 0.0
8.346499483571145e6 -2.9642854973440435e7 0.0
0.0 0.0 0.0

-1.0816365182796465e7 1.2573872003342628e6 0.0
1.2573872003342628e6 2.8999884987845164e7 0.0
0.0 0.0 0.0

-418027.75036236894 2.3839077860020373e7 0.0
2.3839077860020373e7 -2.7502889671998476e6 0.0
0.0 0.0 0.0

-1.2627602212854594e6 1.7411743741923146e7 0.0
1.7411743741923146e7 4.946666954579106e6 0.0
0.0 0.0 0.0

-1.2854391853259394e6 1.7566292888388965e7 0.0
1.7566292888388965e7 2.897204125324304e6 0.0
0.0 0.0 0.0

-5.046510327590663e6 2.070672226408989e7 0.0
2.070672226408989e7 -8.90983735829526e6 0.0
0.0 0.0 0.0

4.517188955305291e6 1.5153265587277852e7 0.0
1.5153265587277852e7 1.6554674831350187e7 0.0
0.0 0.0 0.0

-5.115437325239733e6 1.9830303009942915e7 0.0
1.9830303009942915e7 -7.384252566938227e6 0.0
0.0 0.0 0.0

-9.156123328196729e6 1.2835440348443108e7 0.0
1.2835440348443108e7 3.0852752317483902e7 0.0
0.0 0.0 0.0

-1.0624154377375446e7 753662.4427018933 0.0
753662.4427018933 3.370389990467946e7 0.0
0.0 0.0 0.0

2.7837856526053743e6 1.004321383230594e7 0.0
1.004321383230594e7 -1.7201091253067084e7 0.0
0.0 0.0 0.0

3.3279191540567e6 5.622018328759549e6 0.0
5.622018328759549e6 -3.3310965188661005e7 0.0
0.0 0.0 0.0

666332.7770570312 1.6341140266321039e7 0.0
1.6341140266321039e7 -1.3610465283082876e7 0.0
0.0 0.0 0.0

4.546289807144682e6 1.9461988612032045e7 0.0
1.9461988612032045e7 7.583372737132509e6 0.0
0.0 0.0 0.0

3.07257693052793e6 6.615865976124022e6 0.0
6.615865976124022e6 -1.6041683210566595e7 0.0
0.0 0.0 0.0

-5.184440828841033e6 1.557653879665703e7 0.0
1.557653879665703e7 -2.4659724691883437e7 0.0
0.0 0.0 0.0

-850427.8966708053 1.2432686197533878e7 0.0
1.2432686197533878e7 -3.92954342056806e7 0.0
0.0 0.0 0.0

-5.076240091252355e6 1.5069020925753951e7 0.0
1.5069020925753951e7 4.469314424166497e6 0.0
0.0 0.0 0.0

-5.860049544024706e6 2.2032105665400695e7 0.0
2.2032105665400695e7 7.943450397338387e6 0.0
0.0 0.0 0.0

-6.980837201158484e6 2.0541463421646714e7 0.0
2.0541463421646714e7 -7.564631404621971e6 0.0
0.0 0.0 0.0

-9.244889249841845e6 1.9420031310078423e6 0.0
1.9420031310078423e6 4.216643386217357e7 0.0
0.0 0.0 0.0

-418875.1242325902 1.2284727896539075e7 0.0
1.2284727896539075e7 -3.6838636501770586e7 0.0
0.0 0.0 0.0

-8.878673799270703e6 1.219199993340738e7 0.0
1.219199993340738e7 3.3177309355793953e7 0.0
0.0 0.0 0.0

-1.4503509390419344e6 1.772371811429146e7 0.0
1.772371811429146e7 854677.4814284386 0.0
0.0 0.0 0.0

-773580.5612171424 2.508331513649582e7 0.0
2.508331513649582e7 -2.2147511754945186e6 0.0
0.0 0.0 0.0

-1.1680266736795899e7 2.415373469116239e7 0.0
2.415373469116239e7 5.426581993016688e6 0.0
0.0 0.0 0.0

-1.0702988006808497e7 1.4194055361096207e7 0.0
1.4194055361096207e7 2.5161204846808065e7 0.0
0.0 0.0 0.0

-3.688046266566127e6 1.3483818498003412e7 0.0
1.3483818498003412e7 -1.3966350471850663e7 0.0
0.0 0.0 0.0

2.9175476307880944e6 1.5897679596543863e7 0.0
1.5897679596543863e7 1.0496281613450618e7 0.0
0.0 0.0 0.0

3.05081039169815e6 6.885987388116692e6 0.0
6.885987388116692e6 -3.055193740627393e7 0.0
0.0 0.0 0.0

1.649112665630871e6 8.544961006851573e6 0.0
8.544961006851573e6 -1.1850989797747547e7 0.0
0.0 0.0 0.0

-1.035171787369024e7 9.907293235691309e6 0.0
9.907293235691309e6 3.2773280814691525e7 0.0
0.0 0.0 0.0

-3.9161876337807905e6 1.9141229840573687e7 0.0
1.9141229840573687e7 1.0381895992049132e7 0.0
0.0 0.0 0.0

-2.7956595451932196e7 2.434122116508208e7 0.0
2.434122116508208e7 3.3160846790418737e6 0.0
0.0 0.0 0.0

359510.7214479288 1.3706269961207982e7 0.0
1.3706269961207982e7 -2.27012503049326e7 0.0
0.0 0.0 0.0

2.173226053623548e6 9.608893271191915e6 0.0
9.608893271191915e6 -2.8616970317102645e7 0.0
0.0 0.0 0.0

-13768.936073401943 1.2258478592654256e7 0.0
1.2258478592654256e7 -3.456065450180748e7 0.0
0.0 0.0 0.0

2.83601268225529e6 4.450298174594917e6 0.0
4.450298174594917e6 -9.215489824240495e6 0.0
0.0 0.0 0.0

-130676.99766093446 1.8050168525283027e7 0.0
1.8050168525283027e7 -9.709896196376873e6 0.0
0.0 0.0 0.0

757258.2975482554 1.930384452740977e7 0.0
1.930384452740977e7 -8.371339267361365e6 0.0
0.0 0.0 0.0

-1.7788371633750033e7 3.120780033065749e7 0.0
3.120780033065749e7 7.098749310377736e6 0.0
0.0 0.0 0.0

1.7755064258919028e6 4.478557040913464e6 0.0
4.478557040913464e6 -5.665818178857553e6 0.0
0.0 0.0 0.0

-157260.0165085867 1.6143943985640237e7 0.0
1.6143943985640237e7 -1.6474112741932001e7 0.0
0.0 0.0 0.0

-9.346183750953667e6 1.636623082114935e7 0.0
1.636623082114935e7 2.1781207157752518e7 0.0
0.0 0.0 0.0

-1.0804149534680799e7 998088.7026816026 0.0
998088.7026816026 2.38677632187861e7 0.0
0.0 0.0 0.0

3.688058983547313e6 5.337742659430137e6 0.0
5.337742659430137e6 -2.7962625787597783e7 0.0
0.0 0.0 0.0

-1.1489404539579216e7 3.624222492961169e6 0.0
3.624222492961169e6 2.3645439437416214e7 0.0
0.0 0.0 0.0

-1.1188983332374007e7 3.8480409490707293e6 0.0
3.8480409490707293e6 2.8331031243907504e7 0.0
0.0 0.0 0.0

-8.83022819109379e6 8.459099448512916e6 0.0
8.459099448512916e6 1.4713008042226579e7 0.0
0.0 0.0 0.0

-4.736753471221392e6 2.035122055123171e7 0.0
2.035122055123171e7 1.0646298650993347e7 0.0
0.0 0.0 0.0

-2.0308589747629813e6 1.1320846653615432e7 0.0
1.1320846653615432e7 -288250.3612584127 0.0
0.0 0.0 0.0

1.670438852552481e7 5.801892150471877e6 0.0
5.801892150471877e6 -2.8938685458349213e6 0.0
0.0 0.0 0.0

-3.020306957102358e7 1.3664338797969818e6 0.0
1.3664338797969818e6 7.988416100798335e6 0.0
0.0 0.0 0.0

2.931959555368591e6 7.998103813015454e6 0.0
7.998103813015454e6 -1.259150865799645e7 0.0
0.0 0.0 0.0

2.882368445508683e6 9.200968323275669e6 0.0
9.200968323275669e6 -2.8000656644908056e7 0.0
0.0 0.0 0.0

3.3760843516927175e6 7.7979896486467775e6 0.0
7.7979896486467775e6 -2.881507614286636e7 0.0
0.0 0.0 0.0

437395.2052841182 1.6742462791743907e6 0.0
1.6742462791743907e6 1.3001627582148223e6 0.0
0.0 0.0 0.0

-2.068380340393374e6 -1.4111849921805356e6 0.0
-1.4111849921805356e6 3.043046011157844e6 0.0
0.0 0.0 0.0

-3.225673679837357e6 1.5540710222025039e7 0.0
1.5540710222025039e7 -2.2572122812892634e7 0.0
0.0 0.0 0.0

3.4672472648916338e6 5.603860731144136e6 0.0
5.603860731144136e6 -3.1332725733427197e7 0.0
0.0 0.0 0.0

-2.0299531183760848e7 2.2741351284577347e7 0.0
2.2741351284577347e7 -7.01436188493821e6 0.0
0.0 0.0 0.0

-6.567479974473515e6 1.8088518232999086e7 0.0
1.8088518232999086e7 1.4376347464614516e7 0.0
0.0 0.0 0.0

-335830.7503309997 2.326669413094985e7 0.0
2.326669413094985e7 -3.534579756427858e6 0.0
0.0 0.0 0.0

3.8511616818746063e6 1.4990152667461453e7 0.0
1.4990152667461453e7 1.4439905211792178e7 0.0
0.0 0.0 0.0

8.983685872215588e6 1.0644560988514781e7 0.0
1.0644560988514781e7 1.272208468119708e6 0.0
0.0 0.0 0.0

-9.742897665515348e6 2.2945543496389497e7 0.0
2.2945543496389497e7 -7.184534219676067e6 0.0
0.0 0.0 0.0

-1.0224551877651663e7 4.570124698727921e6 0.0
4.570124698727921e6 3.6518351838295855e7 0.0
0.0 0.0 0.0

-5.705459926304403e6 2.131255960577901e7 0.0
2.131255960577901e7 8.222095326634345e6 0.0
0.0 0.0 0.0

1.2131658747308063e6 1.9362707169654697e7 0.0
1.9362707169654697e7 -7.481196751466752e6 0.0
0.0 0.0 0.0

-8.939559475900598e6 1.6688130334797187e7 0.0
1.6688130334797187e7 2.094159651494246e7 0.0
0.0 0.0 0.0

-9.677499443471482e6 -2.8039096682973593e6 0.0
-2.8039096682973593e6 2.3350563754012138e7 0.0
0.0 0.0 0.0

-1.3539294467974775e6 2.4088853122802336e7 0.0
2.4088853122802336e7 -2.405735449284296e6 0.0
0.0 0.0 0.0

2.392519258238569e6 9.512413815019725e6 0.0
9.512413815019725e6 -2.6867466253254417e7 0.0
0.0 0.0 0.0

959665.3225084045 2.2552541337862156e7 0.0
2.2552541337862156e7 -5.320195189001639e6 0.0
0.0 0.0 0.0

3.810527566687772e6 6.457945000129207e6 0.0
6.457945000129207e6 -2.9870022726734012e7 0.0
0.0 0.0 0.0

3.9991743852392756e6 1.6883082268936586e7 0.0
1.6883082268936586e7 1.3434053826904977e7 0.0
0.0 0.0 0.0

-1.1341967600904638e6 1.8557860114059277e7 0.0
1.8557860114059277e7 -8.42298437349027e6 0.0
0.0 0.0 0.0

-1.0333441195787292e7 1.310944773252046e6 0.0
1.310944773252046e6 1.3425078731914684e7 0.0
0.0 0.0 0.0

-1.7908207142186225e6 1.3889782279070282e7 0.0
1.3889782279070282e7 -7.482879460102223e6 0.0
0.0 0.0 0.0

4.201292327422218e6 4.963121900354316e6 0.0
4.963121900354316e6 -3.0351130448496483e7 0.0
0.0 0.0 0.0

9.007517998274071e6 2.2560897981720228e7 0.0
2.2560897981720228e7 -4.99515181603325e6 0.0
0.0 0.0 0.0

2.7493267492943536e6 7.243198175075835e6 0.0
7.243198175075835e6 -1.5118358904096719e7 0.0
0.0 0.0 0.0

-1.2428394534032503e7 4.85673213995543e6 0.0
4.85673213995543e6 1.7431457860483184e7 0.0
0.0 0.0 0.0

-3.583402653821302e6 2.416103323902582e7 0.0
2.416103323902582e7 3.085843183244692e6 0.0
0.0 0.0 0.0

112893.73318306543 1.2251774620314922e7 0.0
1.2251774620314922e7 -3.2348682627455022e7 0.0
0.0 0.0 0.0

-3.7968191976382094e6 1.4197025287892971e7 0.0
1.4197025287892971e7 -1.265606410250527e7 0.0
0.0 0.0 0.0

2.8801087052322747e6 1.5166636676693555e7 0.0
1.5166636676693555e7 9.600362631706936e6 0.0
0.0 0.0 0.0

-2.654649892303491e6 1.1850357027906252e7 0.0
1.1850357027906252e7 1.131968314249246e6 0.0
0.0 0.0 0.0

-6.1525794097789e6 1.3762879538326547e7 0.0
1.3762879538326547e7 7.06252648883788e6 0.0
0.0 0.0 0.0

877571.3158971262 1.7370726387034383e7 0.0
1.7370726387034383e7 1.4163707068588557e7 0.0
0.0 0.0 0.0

-9.930657851296797e6 -1.197544416265598e6 0.0
-1.197544416265598e6 2.0416309664735645e7 0.0
0.0 0.0 0.0

992383.386064979 1.7982603322721597e7 0.0
1.7982603322721597e7 3.855446781069114e6 0.0
0.0 0.0 0.0

-4.886904389030165e6 1.9874613390686654e7 0.0
1.9874613390686654e7 1.0956750755694892e7 0.0
0.0 0.0 0.0

2.457587301848026e6 7.374211204987689e6 0.0
7.374211204987689e6 -1.3573666269436821e7 0.0
0.0 0.0 0.0

-1.2011235172521297e7 2.124392574505605e6 0.0
2.124392574505605e6 2.1651985936861128e7 0.0
0.0 0.0 0.0

-4.086979175826676e6 1.9392987231025837e7 0.0
1.9392987231025837e7 -6.278783876311105e6 0.0
0.0 0.0 0.0

-9.240767087608498e6 1.686007986848704e7 0.0
1.686007986848704e7 1.993272410012402e7 0.0
0.0 0.0 0.0

-1.244908581883424e6 1.788016023080942e7 0.0
1.788016023080942e7 1.2661731972438678e7 0.0
0.0 0.0 0.0

-1.1964124857113719e7 6.218628254917515e6 0.0
6.218628254917515e6 2.333812208447533e7 0.0
0.0 0.0 0.0

586118.7740622275 1.9031414894669216e7 0.0
1.9031414894669216e7 -9.022711608627245e6 0.0
0.0 0.0 0.0

-5.492638500458805e6 2.3846433979346626e7 0.0
2.3846433979346626e7 6.484681030120462e6 0.0
0.0 0.0 0.0

-1.0721402786614994e7 8.201411675874361e6 0.0
8.201411675874361e6 3.2518220788118597e7 0.0
0.0 0.0 0.0

-9.174444671300761e6 1.0808209611902192e7 0.0
1.0808209611902192e7 1.145699473581122e7 0.0
0.0 0.0 0.0

-1.0982891737983167e7 1.9764623654099356e6 0.0
1.9764623654099356e6 3.1618765572942294e7 0.0
0.0 0.0 0.0

430978.50302732084 1.5486369048918163e7 0.0
1.5486369048918163e7 -1.5730672379514983e7 0.0
0.0 0.0 0.0

-5.301127931321919e6 2.1499595975567117e7 0.0
2.1499595975567117e7 8.863444209366642e6 0.0
0.0 0.0 0.0

-1.6909454848152995e6 1.7926700256126326e7 0.0
1.7926700256126326e7 -1.086528810884256e6 0.0
0.0 0.0 0.0

3.3504536011532024e6 8.149371147392631e6 0.0
8.149371147392631e6 -1.6280235088816416e7 0.0
0.0 0.0 0.0

-1.0081784391973937e7 -1.819223174584174e6 0.0
-1.819223174584174e6 2.641246867207791e7 0.0
0.0 0.0 0.0

-6.092643151751446e6 1.4470233202974426e7 0.0
1.4470233202974426e7 3.466895084992042e7 0.0
0.0 0.0 0.0

-9.322147396632958e6 1.0985077459911563e7 0.0
1.0985077459911563e7 3.48718988951375e7 0.0
0.0 0.0 0.0

397954.04202173464 1.7011613289146047e7 0.0
1.7011613289146047e7 9.130763371876253e6 0.0
0.0 0.0 0.0

-1.2518053630231142e7 4.753569260624452e6 0.0
4.753569260624452e6 2.1385606405218523e7 0.0
0.0 0.0 0.0

-5.118817717353578e6 1.3203631457738487e7 0.0
1.3203631457738487e7 8.02989738453854e6 0.0
0.0 0.0 0.0

-1.3606221976097669e6 1.7688265879085384e7 0.0
1.7688265879085384e7 -5.460216137795712e6 0.0
0.0 0.0 0.0

526149.5979073532 1.4123170265279407e7 0.0
1.4123170265279407e7 -1.355250434896244e7 0.0
0.0 0.0 0.0

-4.618912423893621e6 1.9848264971130833e7 0.0
1.9848264971130833e7 1.208097118576981e7 0.0
0.0 0.0 0.0

-4.0505408655148987e6 2.6693909014582865e7 0.0
2.6693909014582865e7 4.189041161342905e6 0.0
0.0 0.0 0.0

-1.1548219499812596e7 1.148283626880423e7 0.0
1.148283626880423e7 2.6342907720606618e7 0.0
0.0 0.0 0.0

5.871151403245302e6 1.5401335045449406e7 0.0
1.5401335045449406e7 2.1485359167447936e7 0.0
0.0 0.0 0.0

60236.15790472133 1.7185170597690076e7 0.0
1.7185170597690076e7 -8.268034011449849e6 0.0
0.0 0.0 0.0

2.8560929449145757e6 1.0351691566746166e7 0.0
1.0351691566746166e7 -2.081037571191049e7 0.0
0.0 0.0 0.0

4.130540033589149e6 3.362152098129106e6 0.0
3.362152098129106e6 -3.257126591227281e7 0.0
0.0 0.0 0.0

-1.0363921119015334e7 -1.305777822939927e6 0.0
-1.305777822939927e6 2.95240246284243e7 0.0
0.0 0.0 0.0

-4.1131524153481424e6 1.983925856344402e7 0.0
1.983925856344402e7 1.1068818584235575e7 0.0
0.0 0.0 0.0

-4.426825159373246e6 1.4897354690875988e7 0.0
1.4897354690875988e7 1.4594405160653107e7 0.0
0.0 0.0 0.0

-1.9944439494437613e6 1.5158969842025891e7 0.0
1.5158969842025891e7 5.1647151088339545e7 0.0
0.0 0.0 0.0

383078.7691615708 1.3487597831064494e7 0.0
1.3487597831064494e7 -1.2569979460645864e7 0.0
0.0 0.0 0.0

4.676130671562026e6 1.5701764210772296e7 0.0
1.5701764210772296e7 1.5587102717475269e7 0.0
0.0 0.0 0.0

-1.084470001020366e7 -1.7317834817829982e6 0.0
-1.7317834817829982e6 2.132830475624819e7 0.0
0.0 0.0 0.0

-2.1384935066518012e7 131280.0109811179 0.0
131280.0109811179 9.01330720665849e6 0.0
0.0 0.0 0.0

2.7375884487584094e6 8.984596572893256e6 0.0
8.984596572893256e6 -2.4597120223232258e7 0.0
0.0 0.0 0.0

-1.195049634784786e7 2.5949407521182937e6 0.0
2.5949407521182937e6 1.876332762209882e7 0.0
0.0 0.0 0.0

2.081322189813016e6 1.0125266311716486e7 0.0
1.0125266311716486e7 -2.7150733899430208e7 0.0
0.0 0.0 0.0

-8.952619714189108e6 1.5265693371565709e7 0.0
1.5265693371565709e7 2.61247895555095e7 0.0
0.0 0.0 0.0

4.5570118755820235e6 3.8553663236653027e6 0.0
3.8553663236653027e6 -2.096885337867731e7 0.0
0.0 0.0 0.0

6.838436972221886e6 2.3370102492766097e7 0.0
2.3370102492766097e7 -5.044538646935426e6 0.0
0.0 0.0 0.0

-2.0686560539981453e6 1.298223449530224e7 0.0
1.298223449530224e7 -1.1652653385703037e6 0.0
0.0 0.0 0.0

1.2019889551813505e6 6.294983677835405e6 0.0
6.294983677835405e6 -4.432741512859194e6 0.0
0.0 0.0 0.0

2.3880349880931832e7 5.838881240894423e6 0.0
5.838881240894423e6 -2.787136631015796e6 0.0
0.0 0.0 0.0

-7.37939258957357e6 1.5654385310278837e7 0.0
1.5654385310278837e7 2.5942058652438737e7 0.0
0.0 0.0 0.0

-736728.1089268196 9.770989699785557e6 0.0
9.770989699785557e6 -5.867740096435394e6 0.0
0.0 0.0 0.0

-1.1646199961446568e7 3.2742873054608307e6 0.0
3.2742873054608307e6 2.957010251175337e7 0.0
0.0 0.0 0.0

2.0708779646092504e6 5.416742302164655e6 0.0
5.416742302164655e6 -9.02193194657208e6 0.0
0.0 0.0 0.0

-3.6094223449840387e6 1.8986627337248687e7 0.0
1.8986627337248687e7 -4.74813123830315e6 0.0
0.0 0.0 0.0

-5.364428185461863e6 1.822779165419192e7 0.0
1.822779165419192e7 1.4514055804285957e7 0.0
0.0 0.0 0.0

-1.1721350311528808e7 6.271311521075496e6 0.0
6.271311521075496e6 1.9289084381924722e7 0.0
0.0 0.0 0.0

3.0659696749301553e6 7.820365212222906e6 0.0
7.820365212222906e6 -2.5281593494416956e7 0.0
0.0 0.0 0.0

-4.008989356375209e6 1.4741656963473627e7 0.0
1.4741656963473627e7 -2.9876481264411483e7 0.0
0.0 0.0 0.0

-5.240408833273917e6 6.167673584018721e6 0.0
6.167673584018721e6 4.08020420883284e6 0.0
0.0 0.0 0.0

4.046180071456234e6 4.0630108366149217e6 0.0
4.0630108366149217e6 -1.9374055748579435e7 0.0
0.0 0.0 0.0

-353458.26068587275 1.6129822613234583e7 0.0
1.6129822613234583e7 -1.1644005279365595e7 0.0
0.0 0.0 0.0

1.3612664668543812e7 1.8675216655391693e7 0.0
1.8675216655391693e7 3.3638202279959056e6 0.0
0.0 0.0 0.0

3.8834750803237557e6 5.730345995571067e6 0.0
5.730345995571067e6 -3.29950185730478e7 0.0
0.0 0.0 0.0

-1.1655989851503175e7 -784563.667059343 0.0
-784563.667059343 4.938764804314895e6 0.0
0.0 0.0 0.0

-7.855834195584927e6 1.6873011514056716e7 0.0
1.6873011514056716e7 1.8644479480800238e7 0.0
0.0 0.0 0.0

-1.4811925817389472e6 8.182348489471796e6 0.0
8.182348489471796e6 185699.69331443624 0.0
0.0 0.0 0.0

-1.1858954009570098e7 5.58982840925948e6 0.0
5.58982840925948e6 2.0974829610176392e7 0.0
0.0 0.0 0.0

3.4709223001262397e6 6.055407978629114e6 0.0
6.055407978629114e6 -3.789916090939989e7 0.0
0.0 0.0 0.0

6.925777806802694e6 1.635377611886062e7 0.0
1.635377611886062e7 2.308592641661053e7 0.0
0.0 0.0 0.0

5.4998773396508545e6 2.034989522519846e7 0.0
2.034989522519846e7 1.0253057258292146e7 0.0
0.0 0.0 0.0

-3.746293939353858e6 1.5524502946077388e7 0.0
1.5524502946077388e7 -1.8457623498786464e7 0.0
0.0 0.0 0.0

138053.0026957579 1.2473106926264608e7 0.0
1.2473106926264608e7 -1.074050212004365e7 0.0
0.0 0.0 0.0

-4.759158835757268e6 1.886275524183031e7 0.0
1.886275524183031e7 1.35587223971799e7 0.0
0.0 0.0 0.0

6.827946296306153e6 1.7989794605217066e7 0.0
1.7989794605217066e7 -952569.5601746249 0.0
0.0 0.0 0.0

2.3610358435133947e6 1.0072861712661155e7 0.0
1.0072861712661155e7 -2.385691438220178e7 0.0
0.0 0.0 0.0

-492860.2541883252 2.55797367579265e7 0.0
2.55797367579265e7 -2.1524885930847893e6 0.0
0.0 0.0 0.0

-527731.7375775864 1.5473557226684127e7 0.0
1.5473557226684127e7 3.309529841616896e6 0.0
0.0 0.0 0.0

-5.818903731066164e7 4.292952465089195e6 0.0
4.292952465089195e6 6.047967773967829e6 0.0
0.0 0.0 0.0

4.298401071612541e7 6.529526165074561e6 0.0
6.529526165074561e6 -1.7971915770409312e6 0.0
0.0 0.0 0.0

2.0347987387712188e6 1.8339370083283056e7 0.0
1.8339370083283056e7 7.320613559418093e6 0.0
0.0 0.0 0.0

-5.986842897817994e6 6.583823200442879e6 0.0
6.583823200442879e6 2.4370008684511606e7 0.0
0.0 0.0 0.0

-265769.7194717438 1.756738912097287e7 0.0
1.756738912097287e7 1.2465572526503041e7 0.0
0.0 0.0 0.0

189551.5903406567 2.1611545132721588e7 0.0
2.1611545132721588e7 -6.397351877737104e6 0.0
0.0 0.0 0.0

3.643765417100875e6 1.7620093057641044e7 0.0
1.7620093057641044e7 1.2145885512285028e7 0.0
0.0 0.0 0.0

-1.138242293031825e7 5.3416883712195875e6 0.0
5.3416883712195875e6 1.8587534692497954e7 0.0
0.0 0.0 0.0

-4.1673791935891984e6 1.864109845346633e7 0.0
1.864109845346633e7 8.892296365613326e6 0.0
0.0 0.0 0.0

-3.7266906257516466e7 2.980084133875824e7 0.0
2.980084133875824e7 -3.752121030124982e6 0.0
0.0 0.0 0.0

3.962259291269481e6 4.4921688295716215e6 0.0
4.4921688295716215e6 -2.369569234766115e7 0.0
0.0 0.0 0.0

-2.0054587389954957e6 1.819883789190211e7 0.0
1.819883789190211e7 -2.891456933470571e6 0.0
0.0 0.0 0.0

6.370680831582724e6 1.5543757422756266e7 0.0
1.5543757422756266e7 2.4550621614230365e7 0.0
0.0 0.0 0.0

-5.381741330944166e6 1.4531787406969082e7 0.0
1.4531787406969082e7 -1.7939137936796397e7 0.0
0.0 0.0 0.0

4.066352455551978e6 1.5484677200413171e7 0.0
1.5484677200413171e7 1.3554508706716718e7 0.0
0.0 0.0 0.0

386922.8342510648 1.246724949415525e7 0.0
1.246724949415525e7 -3.0576670977968156e7 0.0
0.0 0.0 0.0

-1.0395896542248761e7 -269819.8711563994 0.0
-269819.8711563994 2.318048767847349e7 0.0
0.0 0.0 0.0

-1.523759539028354e7 2.6269436853180204e7 0.0
2.6269436853180204e7 6.649350165621379e6 0.0
0.0 0.0 0.0

2.700510441277231e6 7.728090377492998e6 0.0
7.728090377492998e6 -1.5766454420732202e7 0.0
0.0 0.0 0.0

-7.423849083677936e6 1.6062805224359993e7 0.0
1.6062805224359993e7 2.4623505553690214e7 0.0
0.0 0.0 0.0

-1.1628343119437587e7 2.92861200481915e6 0.0
2.92861200481915e6 1.5422021367271677e7 0.0
0.0 0.0 0.0

-4.427372311280874e6 2.6166606273280386e7 0.0
2.6166606273280386e7 4.7395412218064e6 0.0
0.0 0.0 0.0

-9.686144803996194e6 2.9525986045047827e7 0.0
2.9525986045047827e7 6.121093465089148e6 0.0
0.0 0.0 0.0

-9.89917683396107e6 -1.7416398806867136e6 0.0
-1.7416398806867136e6 6.571762011912284e6 0.0
0.0 0.0 0.0

-2.188537497179862e6 1.4805662171527581e7 0.0
1.4805662171527581e7 -9.177346427684195e6 0.0
0.0 0.0 0.0

39756.848457652144 2.1141642854620125e7 0.0
2.1141642854620125e7 -6.5826042678242475e6 0.0
0.0 0.0 0.0

-6.60556113352604e6 3.075610909661486e6 0.0
3.075610909661486e6 6.534972135794049e6 0.0
0.0 0.0 0.0

4.975831924834609e6 2.381582288185735e7 0.0
2.381582288185735e7 -4.995493128087377e6 0.0
0.0 0.0 0.0

-1.209313991182201e7 3.9194465175443576e6 0.0
3.9194465175443576e6 1.6573887702267807e7 0.0
0.0 0.0 0.0

3.8402775005889237e6 4.779651129587809e6 0.0
4.779651129587809e6 -2.7468684654737234e7 0.0
0.0 0.0 0.0

3.72990706024679e6 5.563814096390089e6 0.0
5.563814096390089e6 -2.47575040038689e7 0.0
0.0 0.0 0.0

1.0023229159970125e6 1.2243301708181331e7 0.0
1.2243301708181331e7 -1.3782284368818229e7 0.0
0.0 0.0 0.0

336693.37039315794 1.8965122153871614e7 0.0
1.8965122153871614e7 -9.639010002206532e6 0.0
0.0 0.0 0.0

3.5108749260564353e6 5.464891272272828e6 0.0
5.464891272272828e6 -4.00385932571248e7 0.0
0.0 0.0 0.0

-4.986106339439688e6 2.0206804023307778e7 0.0
2.0206804023307778e7 -9.391313953065727e6 0.0
0.0 0.0 0.0

998534.2526602633 1.3832319480212864e7 0.0
1.3832319480212864e7 -1.89020704056705e7 0.0
0.0 0.0 0.0

-1.043119032770806e7 1.5946238803561315e7 0.0
1.5946238803561315e7 2.0794520468258776e7 0.0
0.0 0.0 0.0

-3.881554287467638e6 1.9885642840052743e7 0.0
1.9885642840052743e7 -8.284402679863443e6 0.0
0.0 0.0 0.0

3.023347085054513e6 9.732649386126278e6 0.0
9.732649386126278e6 -2.3324387216390304e7 0.0
0.0 0.0 0.0

-2.6591537296449512e7 1.9921870926337425e7 0.0
1.9921870926337425e7 7.602118181827072e6 0.0
0.0 0.0 0.0

3.9342778620123435e6 4.103160615575086e6 0.0
4.103160615575086e6 -2.8614491450463206e7 0.0
0.0 0.0 0.0

4.241864180850849e6 5.626471899663004e6 0.0
5.626471899663004e6 -2.4591887564896744e7 0.0
0.0 0.0 0.0

296884.9499255195 1.745777895642584e7 0.0
1.745777895642584e7 -1.202386207257769e7 0.0
0.0 0.0 0.0

-1.6475498899625111e7 -1.3157864730870395e6 0.0
-1.3157864730870395e6 8.382427231859527e6 0.0
0.0 0.0 0.0

1.73281510737528e6 9.766645994000275e6 0.0
9.766645994000275e6 -9.915629245308496e6 0.0
0.0 0.0 0.0

-2.9828768316692663e6 1.614857797609109e7 0.0
1.614857797609109e7 1.8365037440754466e7 0.0
0.0 0.0 0.0

-3.651419730001705e6 2.5114801576724157e7 0.0
2.5114801576724157e7 4.5000748877963815e6 0.0
0.0 0.0 0.0

-5.186648282353908e6 2.6626207983337294e7 0.0
2.6626207983337294e7 5.049591727856599e6 0.0
0.0 0.0 0.0

-1.2427794294383463e7 6.2968293959861705e6 0.0
6.2968293959861705e6 1.6873710766961593e7 0.0
0.0 0.0 0.0

-5.465190501952937e6 1.2149089690483432e7 0.0
1.2149089690483432e7 4.892044340346235e7 0.0
0.0 0.0 0.0

-2.863705379997347e6 2.5404337007070392e7 0.0
2.5404337007070392e7 3.1114826161633697e6 0.0
0.0 0.0 0.0

-2.8719262811787133e6 1.844377674792072e7 0.0
1.844377674792072e7 -1.2210614906118512e6 0.0
0.0 0.0 0.0

57338.68341867626 1.685745413607436e7 0.0
1.685745413607436e7 -4.692394297341092e6 0.0
0.0 0.0 0.0

2.556650821316882e7 1.977649464771521e7 0.0
1.977649464771521e7 9.693097062427694e6 0.0
0.0 0.0 0.0

-1.1561511139903156e7 7.53177718589469e6 0.0
7.53177718589469e6 1.8670867905541077e7 0.0
0.0 0.0 0.0

4.477239539500847e6 4.286578171828102e6 0.0
4.286578171828102e6 -2.6740108022687703e7 0.0
0.0 0.0 0.0

140074.33933746023 1.6666744272228766e7 0.0
1.6666744272228766e7 -1.0793320550351866e7 0.0
0.0 0.0 0.0

-3.07416613651144e6 1.4051161777558863e7 0.0
1.4051161777558863e7 1.4978117122300647e6 0.0
0.0 0.0 0.0

-1.1750692799257651e7 1.686849275863272e7 0.0
1.686849275863272e7 5.825610324983587e6 0.0
0.0 0.0 0.0

-1.0327408368248906e7 -85530.12401315905 0.0
-85530.12401315905 2.8513208008297574e7 0.0
0.0 0.0 0.0

-6.041151609044836e7 3.79069067796836e7 0.0
3.79069067796836e7 -9.359099831919994e6 0.0
0.0 0.0 0.0

-7.8216813723200895e6 1.5338988190959252e7 0.0
1.5338988190959252e7 -2.6072271973913893e7 0.0
0.0 0.0 0.0

6.079065989457443e6 1.6087361609276542e7 0.0
1.6087361609276542e7 2.02635539919976e7 0.0
0.0 0.0 0.0

1.2755009790791608e6 1.2969267108671013e7 0.0
1.2969267108671013e7 -2.1217588089846864e7 0.0
0.0 0.0 0.0

-1.052114367330112e7 2.1785139116004568e7 0.0
2.1785139116004568e7 -1.2179540832400015e6 0.0
0.0 0.0 0.0

3.123469724602502e6 8.331667326965765e6 0.0
8.331667326965765e6 -1.4778871565692725e7 0.0
0.0 0.0 0.0

3.3975158670382015e6 8.58911459306916e6 0.0
8.58911459306916e6 -2.3978114355433654e7 0.0
0.0 0.0 0.0

-6.111780675815797e6 1.7682835243058376e7 0.0
1.7682835243058376e7 1.597416324269733e7 0.0
0.0 0.0 0.0

2.209602068023543e6 1.0609847730785875e7 0.0
1.0609847730785875e7 -2.272343756207766e7 0.0
0.0 0.0 0.0

-3.9225128375121504e6 2.564747279318818e7 0.0
2.564747279318818e7 4.613914003848311e6 0.0
0.0 0.0 0.0

-1.2261203860688305e7 5.010646959447756e6 0.0
5.010646959447756e6 2.5909915231661066e7 0.0
0.0 0.0 0.0

-9.462522745997792e6 -2.3797089839959806e6 0.0
-2.3797089839959806e6 2.147052157102657e7 0.0
0.0 0.0 0.0

3.262084338146817e6 7.2458879232677715e6 0.0
7.2458879232677715e6 -2.4758596968172368e7 0.0
0.0 0.0 0.0

-8.429679256368272e6 2.0467759070166204e7 0.0
2.0467759070166204e7 -6.942411680739891e6 0.0
0.0 0.0 0.0

2.0644310166210565e6 2.739426101055241e7 0.0
2.739426101055241e7 -3.2662209471576186e6 0.0
0.0 0.0 0.0

-9.119189249829505e6 1.6124202903254133e7 0.0
1.6124202903254133e7 1.960422488375339e7 0.0
0.0 0.0 0.0

3.561354333693059e6 5.981821933506221e6 0.0
5.981821933506221e6 -2.6937856749112897e7 0.0
0.0 0.0 0.0

3.539777527661618e6 6.009350125075696e6 0.0
6.009350125075696e6 -3.5263250463968106e7 0.0
0.0 0.0 0.0

-8.288643209697602e6 1.1001164767747588e7 0.0
1.1001164767747588e7 3.918104717584094e7 0.0
0.0 0.0 0.0

-1.1657493914990297e7 5.2262122859098725e6 0.0
5.2262122859098725e6 2.693696766028297e7 0.0
0.0 0.0 0.0

3.6091040854277466e6 2.3925343103545133e7 0.0
2.3925343103545133e7 -4.886908358021926e6 0.0
0.0 0.0 0.0

-2.181789884486306e6 1.9903888985812247e7 0.0
1.9903888985812247e7 -2.0827027269880408e6 0.0
0.0 0.0 0.0

-1.0922257184445022e7 3.408647451394731e6 0.0
3.408647451394731e6 3.0789704895299077e7 0.0
0.0 0.0 0.0

3.4608228119018143e6 5.014520366938941e6 0.0
5.014520366938941e6 -1.5604457108431228e7 0.0
0.0 0.0 0.0

-3.4691494543591943e6 2.001280207386333e7 0.0
2.001280207386333e7 597986.1022866019 0.0
0.0 0.0 0.0

-1.3145517543569554e7 2.1053865649060212e7 0.0
2.1053865649060212e7 -5.713505603766721e6 0.0
0.0 0.0 0.0

-9.724342807310507e6 8.861170861487417e6 0.0
8.861170861487417e6 1.18788825682036e7 0.0
0.0 0.0 0.0

4.1897518570508026e6 5.50779099104925e6 0.0
5.50779099104925e6 -2.6226313791913487e7 0.0
0.0 0.0 0.0

2.171532848184158e6 1.0636130475984216e7 0.0
1.0636130475984216e7 -2.1263146153460614e7 0.0
0.0 0.0 0.0

-9.982789710656114e6 -498521.3782946559 0.0
-498521.3782946559 1.3743115523140347e7 0.0
0.0 0.0 0.0

-1.211228346958956e7 7.606207258306416e6 0.0
7.606207258306416e6 2.242951152540327e7 0.0
0.0 0.0 0.0

444787.1965228319 1.2651463269549733e7 0.0
1.2651463269549733e7 -2.8614062629279774e7 0.0
0.0 0.0 0.0

4.361023951441555e6 5.098595895780891e6 0.0
5.098595895780891e6 -2.4068126818445295e7 0.0
0.0 0.0 0.0

-2.6196415376641406e6 1.9683286614708636e7 0.0
1.9683286614708636e7 -3.481629887550119e6 0.0
0.0 0.0 0.0

3.77559325772715e6 7.382475339442908e6 0.0
7.382475339442908e6 -2.4593101642914258e7 0.0
0.0 0.0 0.0

-9.59332435952536e6 1.1478513478188517e6 0.0
1.1478513478188517e6 1.5979996094498154e7 0.0
0.0 0.0 0.0

-1.1174548781856934e7 1.708649007086711e7 0.0
1.708649007086711e7 -3.724849872027616e7 0.0
0.0 0.0 0.0

9.409279570131721e6 1.7383555258439474e7 0.0
1.7383555258439474e7 3.1364267543709368e7 0.0
0.0 0.0 0.0

374915.46128279093 1.715090313685366e7 0.0
1.715090313685366e7 548792.6388184691 0.0
0.0 0.0 0.0

-2.348975617907472e7 571366.5446004528 0.0
571366.5446004528 8.418545518744785e6 0.0
0.0 0.0 0.0

-8.580756385796554e6 -1.3391323190249018e6 0.0
-1.3391323190249018e6 1.5162259180049883e7 0.0
0.0 0.0 0.0

4.432796561352989e6 1.7634860122248363e7 0.0
1.7634860122248363e7 1.4775985930777846e7 0.0
0.0 0.0 0.0

-3.9013922203282686e6 1.6296095953789897e7 0.0
1.6296095953789897e7 -1.3004639035728222e7 0.0
0.0 0.0 0.0

-4.664294784324352e6 1.2425937167047426e7 0.0
1.2425937167047426e7 5.383995445160598e7 0.0
0.0 0.0 0.0

3.420154656412754e6 6.636104475339272e6 0.0
6.636104475339272e6 -2.5855859847312815e7 0.0
0.0 0.0 0.0

-201925.61437714007 2.058327239388359e7 0.0
2.058327239388359e7 -7.589859566988612e6 0.0
0.0 0.0 0.0

-5.227589998894753e6 1.5098533689764291e7 0.0
1.5098533689764291e7 -2.865197160654946e7 0.0
0.0 0.0 0.0

-3.910611457191711e6 2.427561106710305e7 0.0
2.427561106710305e7 3.9500054814451435e6 0.0
0.0 0.0 0.0

-4.4374261964508295e6 1.9798712859734207e7 0.0
1.9798712859734207e7 7.194557009084616e6 0.0
0.0 0.0 0.0

-929227.1130938277 2.4028146385266878e7 0.0
2.4028146385266878e7 -3.046713149159737e6 0.0
0.0 0.0 0.0

-9.48935009375337e6 1.5973923443036461e7 0.0
1.5973923443036461e7 -3.900608846287424e7 0.0
0.0 0.0 0.0

2.5009485380386943e6 2.3882420673540115e7 0.0
2.3882420673540115e7 -4.788566014018236e6 0.0
0.0 0.0 0.0

-9.488870825824948e6 1.5332691811915025e7 0.0
1.5332691811915025e7 2.4306827917304393e7 0.0
0.0 0.0 0.0

2.356597359793313e6 8.774811044817898e6 0.0
8.774811044817898e6 -1.5486000153563742e7 0.0
0.0 0.0 0.0

3.5747853361780737e6 6.086979996194135e6 0.0
6.086979996194135e6 -2.5306128567974024e7 0.0
0.0 0.0 0.0

98206.69461331842 1.971328683112702e7 0.0
1.971328683112702e7 -8.74071258381081e6 0.0
0.0 0.0 0.0

-1.8906714962069427e6 1.4167157697871746e7 0.0
1.4167157697871746e7 -5.703953867132076e6 0.0
0.0 0.0 0.0

2.561923313910149e6 8.845567846421039e6 0.0
8.845567846421039e6 -2.8219004305737097e7 0.0
0.0 0.0 0.0

-3.6190645372439967e6 2.3247344811456308e7 0.0
2.3247344811456308e7 4.619666926731612e6 0.0
0.0 0.0 0.0

-2.656843145600412e6 1.5872747700964285e7 0.0
1.5872747700964285e7 -464870.44809539727 0.0
0.0 0.0 0.0

838742.3020873866 1.4031128073365567e7 0.0
1.4031128073365567e7 -1.1748156684018852e7 0.0
0.0 0.0 0.0

1.899451404158635e6 1.1238712980976628e7 0.0
1.1238712980976628e7 -2.7111529190172497e7 0.0
0.0 0.0 0.0

932283.7539379217 2.3430511347009305e7 0.0
2.3430511347009305e7 -4.784774032868545e6 0.0
0.0 0.0 0.0

318742.13806713466 1.5645713942665432e7 0.0
1.5645713942665432e7 -1.0872213202473272e7 0.0
0.0 0.0 0.0

-1.2221996802880461e6 1.3942585225241546e7 0.0
1.3942585225241546e7 -4.755709542698458e6 0.0
0.0 0.0 0.0

2.0839060412952434e7 5.608107832537766e6 0.0
5.608107832537766e6 -2.876317368102026e6 0.0
0.0 0.0 0.0

-4.0845208021090375e6 1.6969582979019582e7 0.0
1.6969582979019582e7 6.199933436745521e6 0.0
0.0 0.0 0.0

-8.423050509820372e6 8.064868917462222e6 0.0
8.064868917462222e6 1.3298550788893295e7 0.0
0.0 0.0 0.0

-1.0340784849331602e7 -567465.727089301 0.0
-567465.727089301 2.511662409834376e7 0.0
0.0 0.0 0.0

4.606424889586871e6 4.043958338662215e6 0.0
4.043958338662215e6 -2.2968891996669985e7 0.0
0.0 0.0 0.0

3.725347093492695e6 6.233871299716657e6 0.0
6.233871299716657e6 -1.7431286609293804e7 0.0
0.0 0.0 0.0

4.3520887625858355e6 5.2226845994326705e6 0.0
5.2226845994326705e6 -2.2437170460834224e7 0.0
0.0 0.0 0.0

-3.0597230786406617e6 1.5780024383044539e7 0.0
1.5780024383044539e7 -1.7599342279091112e7 0.0
0.0 0.0 0.0

1.6354109433357147e6 2.369511383634559e7 0.0
2.369511383634559e7 -4.755058852534007e6 0.0
0.0 0.0 0.0

-9.522630311633207e6 1.5624514270424996e7 0.0
1.5624514270424996e7 2.294164212796936e7 0.0
0.0 0.0 0.0

-4.716054326357124e6 1.741544698987279e7 0.0
1.741544698987279e7 5.431947139623613e6 0.0
0.0 0.0 0.0

3.7290875491049113e6 5.712763397410388e6 0.0
5.712763397410388e6 -2.3241921335141826e7 0.0
0.0 0.0 0.0

-1.1066825545813054e7 1.9806739875628594e6 0.0
1.9806739875628594e6 1.4579207275562335e7 0.0
0.0 0.0 0.0

-9.69864687792358e6 1.6508419000428384e7 0.0
1.6508419000428384e7 2.0649483378935292e7 0.0
0.0 0.0 0.0

361825.6371324081 1.718764869669227e7 0.0
1.718764869669227e7 -1.2926014166172696e7 0.0
0.0 0.0 0.0

817923.658586232 1.7509516456519898e7 0.0
1.7509516456519898e7 -5.623784426275301e6 0.0
0.0 0.0 0.0

-3.6288859247656465e6 2.408856920790727e7 0.0
2.408856920790727e7 5.066255518475292e6 0.0
0.0 0.0 0.0

1.5613408284412865e6 1.3699482435324358e7 0.0
1.3699482435324358e7 -1.8719557725865528e7 0.0
0.0 0.0 0.0

4.0819491586384736e6 6.279070602849748e6 0.0
6.279070602849748e6 -2.3585437995231904e7 0.0
0.0 0.0 0.0

3.603889803827091e6 6.210822783509943e6 0.0
6.210822783509943e6 -2.3750454482639633e7 0.0
0.0 0.0 0.0

2.0820017661580527e6 7.953016483422579e6 0.0
7.953016483422579e6 -1.2705871507191496e7 0.0
0.0 0.0 0.0

3.433859807569314e6 6.71009742054487e6 0.0
6.71009742054487e6 -2.4279231048626173e7 0.0
0.0 0.0 0.0

4.2729348570153e6 5.643638156561803e6 0.0
5.643638156561803e6 -1.9869613691749174e7 0.0
0.0 0.0 0.0

-6.603868773011895e6 2.846114020635006e7 0.0
2.846114020635006e7 5.359143477333388e6 0.0
0.0 0.0 0.0

3.6477783356523467e6 2.5055292636013966e7 0.0
2.5055292636013966e7 -4.656898661429392e6 0.0
0.0 0.0 0.0

-4.955429566444226e6 2.0652683300624426e7 0.0
2.0652683300624426e7 7.456528628627772e6 0.0
0.0 0.0 0.0

3.521726783710895e6 6.147526740799366e6 0.0
6.147526740799366e6 -2.0679276587470245e7 0.0
0.0 0.0 0.0

-2.0166100646893783e6 1.721260753917951e7 0.0
1.721260753917951e7 -6.213645277773018e6 0.0
0.0 0.0 0.0

-1.0023824060666228e6 1.4443717913409172e7 0.0
1.4443717913409172e7 -264536.36367815326 0.0
0.0 0.0 0.0

-1.4834272475543493e7 1.923593851747587e7 0.0
1.923593851747587e7 -4.944758756973348e7 0.0
0.0 0.0 0.0

1.4321388895947777e7 2.0478570666328885e7 0.0
2.0478570666328885e7 4.773798032405916e7 0.0
0.0 0.0 0.0

8.232001341980698e6 1.8305479169625696e7 0.0
1.8305479169625696e7 -1.0673299188288865e6 0.0
0.0 0.0 0.0

1.2793518314340072e7 1.9306981374029335e7 0.0
1.9306981374029335e7 -2.2129122906981e6 0.0
0.0 0.0 0.0

2.147558788367057e6 6.558570831697256e6 0.0
6.558570831697256e6 -4.426783333731917e7 0.0
0.0 0.0 0.0

805838.6992920879 1.5881037784300635e7 0.0
1.5881037784300635e7 -1.4609604407611672e7 0.0
0.0 0.0 0.0

-1.2018827842255426e6 1.7816182839032736e7 0.0
1.7816182839032736e7 1.0943916901830513e7 0.0
0.0 0.0 0.0

-1.195264964600085e7 4.689693035269826e6 0.0
4.689693035269826e6 2.7979085920505986e7 0.0
0.0 0.0 0.0

-8.786035374854162e6 1.476685283460054e7 0.0
1.476685283460054e7 2.7765444666188784e7 0.0
0.0 0.0 0.0

-2.8373819322660537e6 1.8924558843164876e7 0.0
1.8924558843164876e7 6.652662655656376e6 0.0
0.0 0.0 0.0

-918594.9870375296 1.3813485602665924e7 0.0
1.3813485602665924e7 -5.151343715711288e6 0.0
0.0 0.0 0.0

-9.604641870392917e6 2.3060866179143254e7 0.0
2.3060866179143254e7 -8.030743081143573e6 0.0
0.0 0.0 0.0

-4.474275000267589e6 1.944446785204864e7 0.0
1.944446785204864e7 1.2252143248458706e7 0.0
0.0 0.0 0.0

-7.778076176518134e6 1.2196660630505804e7 0.0
1.2196660630505804e7 1.0306260327645073e7 0.0
0.0 0.0 0.0

-3.720362220616591e6 1.986669214972598e7 0.0
1.986669214972598e7 4.3938486485001035e6 0.0
0.0 0.0 0.0

3.697167875617929e6 6.493279952489986e6 0.0
6.493279952489986e6 -3.1643051698213533e7 0.0
0.0 0.0 0.0

3.7036860209171474e6 7.102091027337793e6 0.0
7.102091027337793e6 -1.654275560532518e7 0.0
0.0 0.0 0.0

-277142.1244192398 1.7562606795076203e7 0.0
1.7562606795076203e7 -1.1444090139983848e7 0.0
0.0 0.0 0.0

1.9837540010643685e6 1.1218269798513664e7 0.0
1.1218269798513664e7 -2.0276118570503786e7 0.0
0.0 0.0 0.0

-1.0418024350797882e7 7.135166168901816e6 0.0
7.135166168901816e6 3.444052310435553e7 0.0
0.0 0.0 0.0

-5.165838812688949e6 3.0467993933044276e6 0.0
3.0467993933044276e6 4.971651853764305e6 0.0
0.0 0.0 0.0

-8.586239409226391e6 6.432936962823159e6 0.0
6.432936962823159e6 4.44122132450539e7 0.0
0.0 0.0 0.0

-532006.3322918746 1.6853146303964637e7 0.0
1.6853146303964637e7 -1.1075498031998945e7 0.0
0.0 0.0 0.0

-4.665072963363256e6 2.103258572884552e7 0.0
2.103258572884552e7 8.588430627080383e6 0.0
0.0 0.0 0.0

-8.368647433892387e6 1.053918253634913e7 0.0
1.053918253634913e7 1.4266661959286507e7 0.0
0.0 0.0 0.0

726507.8084757645 2.189553857625031e7 0.0
2.189553857625031e7 -6.086246181552913e6 0.0
0.0 0.0 0.0

-9.413224083461115e6 6.73627079413462e6 0.0
6.73627079413462e6 1.1454813198981987e7 0.0
0.0 0.0 0.0

-5.7132215277131945e6 1.881214452557086e7 0.0
1.881214452557086e7 1.3485096485079408e7 0.0
0.0 0.0 0.0

1.736409877256869e7 2.283123158279114e7 0.0
2.283123158279114e7 -7.782099626314888e6 0.0
0.0 0.0 0.0

-9.225690472411528e6 1.675452786163091e7 0.0
1.675452786163091e7 1.840068433654014e7 0.0
0.0 0.0 0.0

-2.714530086445249e6 4.021317388578179e6 0.0
4.021317388578179e6 4.0370643720055176e6 0.0
0.0 0.0 0.0

-2.6497124793098252e7 734995.0577403627 0.0
734995.0577403627 8.812558915799389e6 0.0
0.0 0.0 0.0

4.07287298931464e6 4.54135448274384e6 0.0
4.54135448274384e6 -2.502972475116981e7 0.0
0.0 0.0 0.0

-6.9990167355312295e6 2.5664559350338645e7 0.0
2.5664559350338645e7 6.18370549334775e6 0.0
0.0 0.0 0.0

-9.9470238002922e6 341358.14859230345 0.0
341358.14859230345 1.2186990729712646e7 0.0
0.0 0.0 0.0

-3.306477573067045e6 1.17966393272801e7 0.0
1.17966393272801e7 -1.0338462432432775e6 0.0
0.0 0.0 0.0

-1.1449552403431233e7 600093.7912962168 0.0
600093.7912962168 2.285379182022698e7 0.0
0.0 0.0 0.0

41191.70546308998 1.7174513097311374e7 0.0
1.7174513097311374e7 -1.3032498994233789e7 0.0
0.0 0.0 0.0

-1.112242798832749e7 -743610.5699541355 0.0
-743610.5699541355 2.4182853001903296e7 0.0
0.0 0.0 0.0

534859.5636931108 1.431915072798373e7 0.0
1.431915072798373e7 -1.424375275534122e7 0.0
0.0 0.0 0.0

-9.20168591919933e6 1.6277884323290648e7 0.0
1.6277884323290648e7 2.2052757658521604e7 0.0
0.0 0.0 0.0

-1.0184392243802935e7 9.597234841624789e6 0.0
9.597234841624789e6 1.283489739936528e7 0.0
0.0 0.0 0.0

-7.294117657910744e6 1.522044114379252e7 0.0
1.522044114379252e7 2.752555267276848e7 0.0
0.0 0.0 0.0

-1.0778471436143387e7 1.3509272226849126e7 0.0
1.3509272226849126e7 1.6757938441736829e7 0.0
0.0 0.0 0.0

-3.3821639346117033e6 2.066486574736332e7 0.0
2.066486574736332e7 664716.1715969327 0.0
0.0 0.0 0.0

3.52480711886405e6 7.158778258018291e6 0.0
7.158778258018291e6 -3.0292915070873108e7 0.0
0.0 0.0 0.0

-7.457093071093246e6 1.6414535226727573e7 0.0
1.6414535226727573e7 2.355692467747063e7 0.0
0.0 0.0 0.0

8.660157355230222e6 1.8399076041496657e7 0.0
1.8399076041496657e7 4.852976505627381e6 0.0
0.0 0.0 0.0

-1.852113794621862e7 9.187230256977323e6 0.0
9.187230256977323e6 1.0164705961157052e7 0.0
0.0 0.0 0.0

2.346531724527791e6 1.0508036326920189e7 0.0
1.0508036326920189e7 -2.6894735493059274e7 0.0
0.0 0.0 0.0

-7.068270374248919e6 1.1619234355049761e7 0.0
1.1619234355049761e7 1.269142070735115e7 0.0
0.0 0.0 0.0

2.8342141865099967e6 8.921824460668014e6 0.0
8.921824460668014e6 -1.391063776963702e7 0.0
0.0 0.0 0.0

-8.234758115308704e6 -157811.98643998653 0.0
-157811.98643998653 1.2895367773446128e7 0.0
0.0 0.0 0.0

-1.031763376107496e7 -2.400482015263132e6 0.0
-2.400482015263132e6 1.8616215839220155e7 0.0
0.0 0.0 0.0

1.316860056481162e6 1.276388498199067e7 0.0
1.276388498199067e7 -1.7160273246722803e7 0.0
0.0 0.0 0.0

-1.0848648384229034e7 4.475192583960042e6 0.0
4.475192583960042e6 1.7616289856405534e7 0.0
0.0 0.0 0.0

-5.2128623254064005e6 2.151334749460185e7 0.0
2.151334749460185e7 7.650138958792945e6 0.0
0.0 0.0 0.0

2.530036223475918e6 1.5314301329893908e7 0.0
1.5314301329893908e7 6.995528705012668e6 0.0
0.0 0.0 0.0

-19863.940832357737 7.248131691344557e6 0.0
7.248131691344557e6 -2.321917702106726e6 0.0
0.0 0.0 0.0

-53751.14860916464 1.736449264309987e7 0.0
1.736449264309987e7 -1.026732821818375e7 0.0
0.0 0.0 0.0

3.1245027321242373e6 7.334905926012091e6 0.0
7.334905926012091e6 -1.8846622488060314e7 0.0
0.0 0.0 0.0

-766583.5971823616 2.3432482172327753e7 0.0
2.3432482172327753e7 -3.794770061317098e6 0.0
0.0 0.0 0.0

-3.4825500228833985e6 1.4084540272074219e7 0.0
1.4084540272074219e7 -5.016403605953514e7 0.0
0.0 0.0 0.0

3.131927670119852e6 5.548048071497021e6 0.0
5.548048071497021e6 -1.4605387859667718e7 0.0
0.0 0.0 0.0

3.692184216222657e6 5.578227188424663e6 0.0
5.578227188424663e6 -2.021093666210092e7 0.0
0.0 0.0 0.0

-2.4874111260859966e6 1.5860932626631506e7 0.0
1.5860932626631506e7 -1.62038918615369e7 0.0
0.0 0.0 0.0

-703526.760194922 7.735189113620897e6 0.0
7.735189113620897e6 -1.1179468416599247e6 0.0
0.0 0.0 0.0

-1.1092498818501854e7 1.6677878069457643e7 0.0
1.6677878069457643e7 -4.512554630086306e7 0.0
0.0 0.0 0.0

2.0937649080615803e6 7.621815739007316e6 0.0
7.621815739007316e6 -8.848654907708105e6 0.0
0.0 0.0 0.0

3.19763513312128e6 7.865250070227074e6 0.0
7.865250070227074e6 -1.4125758633188054e7 0.0
0.0 0.0 0.0

-449550.6232160571 1.7052043794020798e7 0.0
1.7052043794020798e7 -2.25680737928232e6 0.0
0.0 0.0 0.0

-1.056456182595679e7 1.1616793417347398e7 0.0
1.1616793417347398e7 2.9165731175224632e7 0.0
0.0 0.0 0.0

-3.0862282621610146e6 2.4873323242949277e7 0.0
2.4873323242949277e7 1.8622428660905592e6 0.0
0.0 0.0 0.0

-1.172215507143916e7 6.716279755818264e6 0.0
6.716279755818264e6 8.910270049986659e6 0.0
0.0 0.0 0.0

1.808846648250699e6 1.1690505264390353e7 0.0
1.1690505264390353e7 -1.9195134338365737e7 0.0
0.0 0.0 0.0

-35591.24029166065 1.773548230607571e7 0.0
1.773548230607571e7 1.4148215362815008e7 0.0
0.0 0.0 0.0

-711504.2820766704 2.2843410376021713e7 0.0
2.2843410376021713e7 -4.593012266327638e6 0.0
0.0 0.0 0.0

-408353.67092917673 1.2628483692345629e7 0.0
1.2628483692345629e7 -8.987540169733236e6 0.0
0.0 0.0 0.0

234119.82681680913 2.2328789402026396e7 0.0
2.2328789402026396e7 -5.659354241367217e6 0.0
0.0 0.0 0.0

697578.7870279639 1.3013804080718027e7 0.0
1.3013804080718027e7 -9.900420960335935e6 0.0
0.0 0.0 0.0

-8.552381333108693e6 -2.7782193554921923e6 0.0
-2.7782193554921923e6 1.3174279812164275e7 0.0
0.0 0.0 0.0

-441531.12489033956 1.7038582892495256e7 0.0
1.7038582892495256e7 -1.1480995632360537e7 0.0
0.0 0.0 0.0

8.185827010245434e6 3.495037406899453e7 0.0
3.495037406899453e7 -7.421920642638061e6 0.0
0.0 0.0 0.0

3.4806794150909716e6 1.9709205724637143e7 0.0
1.9709205724637143e7 -4.795901007668612e6 0.0
0.0 0.0 0.0

555708.4625289738 1.6566546433070842e7 0.0
1.6566546433070842e7 -1.3795913356559914e7 0.0
0.0 0.0 0.0

-4.249708951456798e6 1.3463345700109046e7 0.0
1.3463345700109046e7 5.3750728669483e6 0.0
0.0 0.0 0.0

-3.523427203687033e6 1.6244262995642886e7 0.0
1.6244262995642886e7 -1.057904536455917e6 0.0
0.0 0.0 0.0

4.565671738586171e6 3.6694653014360173e6 0.0
3.6694653014360173e6 -2.412875414389454e7 0.0
0.0 0.0 0.0

3.2214008905765777e6 4.330409108699413e6 0.0
4.330409108699413e6 -1.0802025872353066e7 0.0
0.0 0.0 0.0

-2.972261658350245e6 8.697469112840004e6 0.0
8.697469112840004e6 -613350.4062977493 0.0
0.0 0.0 0.0

-6.957460073923622e6 1.953549174534024e7 0.0
1.953549174534024e7 -1.4760391011545365e6 0.0
0.0 0.0 0.0

3.3397332121024895e6 5.974494533069213e6 0.0
5.974494533069213e6 -1.7035591943556815e7 0.0
0.0 0.0 0.0

141507.75961238705 1.4580405012879685e7 0.0
1.4580405012879685e7 -1.2678418115966795e7 0.0
0.0 0.0 0.0

-1.1050084587469478e6 1.7810706073752265e7 0.0
1.7810706073752265e7 8.907310121727549e6 0.0
0.0 0.0 0.0

2.6358268773837984e6 1.0870582117249465e7 0.0
1.0870582117249465e7 -1.9720253778858457e7 0.0
0.0 0.0 0.0

-1.0365511208913904e7 3.4310802074435716e6 0.0
3.4310802074435716e6 1.6662656318842042e7 0.0
0.0 0.0 0.0

-2.2988034997892357e7 2.6084877629567247e7 0.0
2.6084877629567247e7 5.718759774721447e6 0.0
0.0 0.0 0.0

2.8406684512148863e6 1.0293926181754649e7 0.0
1.0293926181754649e7 -2.2218011805831496e7 0.0
0.0 0.0 0.0

-4.651100072446671e7 3.0686885292550125e6 0.0
3.0686885292550125e6 6.847959248339554e6 0.0
0.0 0.0 0.0

2.9800014820820205e6 7.109727719463883e6 0.0
7.109727719463883e6 -1.6676691418911215e7 0.0
0.0 0.0 0.0

-5.368658811380224e6 1.7871349239647448e7 0.0
1.7871349239647448e7 1.761395796850252e7 0.0
0.0 0.0 0.0

528236.0847501997 1.2840227125496935e7 0.0
1.2840227125496935e7 -2.7143266541182578e7 0.0
0.0 0.0 0.0

1.1784843413294945e6 1.3748350509378057e7 0.0
1.3748350509378057e7 -2.1169747921493225e7 0.0
0.0 0.0 0.0

-5.910213947418863e6 2.6604492128826524e6 0.0
2.6604492128826524e6 9.295843326049272e6 0.0
0.0 0.0 0.0

-1.2864202501815863e7 7.266817314342436e6 0.0
7.266817314342436e6 2.123955290286656e7 0.0
0.0 0.0 0.0

-2.898028828041788e6 1.386084568200548e7 0.0
1.386084568200548e7 -2.7818735129750995e6 0.0
0.0 0.0 0.0

-4.704226845910385e6 1.2771547664308498e7 0.0
1.2771547664308498e7 6.666065699903574e6 0.0
0.0 0.0 0.0

-1.2552880787620062e7 6.437598885278337e6 0.0
6.437598885278337e6 2.437263502738275e7 0.0
0.0 0.0 0.0

-1.840597375377964e6 1.3481014840815159e7 0.0
1.3481014840815159e7 -2.1920358393766438e6 0.0
0.0 0.0 0.0

-258651.51290004747 1.6341334211453196e7 0.0
1.6341334211453196e7 -1.2062230654696802e7 0.0
0.0 0.0 0.0

-127220.76859888528 1.7178378039467823e7 0.0
1.7178378039467823e7 -9.814183003543817e6 0.0
0.0 0.0 0.0

-516302.3681589435 1.7662060114656996e7 0.0
1.7662060114656996e7 -1.091090347847744e7 0.0
0.0 0.0 0.0

836360.896933456 1.3783056513704857e7 0.0
1.3783056513704857e7 -1.517508421971245e7 0.0
0.0 0.0 0.0

2.0479453920341777e6 8.460095499166198e6 0.0
8.460095499166198e6 -1.3350677686092645e7 0.0
0.0 0.0 0.0

-445144.89369741594 1.6501757641988505e7 0.0
1.6501757641988505e7 -5.451232175176528e6 0.0
0.0 0.0 0.0

-652106.0645677717 1.6652907256346485e7 0.0
1.6652907256346485e7 -1.0666624007978786e7 0.0
0.0 0.0 0.0

193315.65906331223 1.3174397441417262e7 0.0
1.3174397441417262e7 -8.15631413967656e6 0.0
0.0 0.0 0.0

-9.571466416645873e6 2.724658155457106e6 0.0
2.724658155457106e6 1.5504737772940453e7 0.0
0.0 0.0 0.0

1.0709180532698315e6 1.3294514364083843e7 0.0
1.3294514364083843e7 -1.6180270957073549e7 0.0
0.0 0.0 0.0

-1.2748068241803845e7 1.8074535846191455e7 0.0
1.8074535846191455e7 -4.249356141020047e7 0.0
0.0 0.0 0.0

-5.113449174212186e6 4.286831240492283e6 0.0
4.286831240492283e6 8.284355884187028e6 0.0
0.0 0.0 0.0

2.642524296263176e6 8.181643791796115e6 0.0
8.181643791796115e6 -1.6372827817578144e7 0.0
0.0 0.0 0.0

102683.0752353901 6.85601005756522e6 0.0
6.85601005756522e6 -5.337591205777428e6 0.0
0.0 0.0 0.0

-2.3389123625738192e6 1.3293495243746161e7 0.0
1.3293495243746161e7 -4.535000406258121e7 0.0
0.0 0.0 0.0

-5.513251227766709e6 1.3537583690445634e7 0.0
1.3537583690445634e7 9.471367362720756e6 0.0
0.0 0.0 0.0

3.747307793870502e6 6.644890531868027e6 0.0
6.644890531868027e6 -1.5935454575952185e7 0.0
0.0 0.0 0.0

-1.2786309249192638e7 6.651851026010024e6 0.0
6.651851026010024e6 1.8999654298476316e7 0.0
0.0 0.0 0.0

-9.727640415390417e6 763984.7513819797 0.0
763984.7513819797 3.669298726503898e7 0.0
0.0 0.0 0.0

436775.25890942954 1.6491543836095903e7 0.0
1.6491543836095903e7 -1.7054617679800256e6 0.0
0.0 0.0 0.0

1.017034089621112e6 1.5012597845564464e7 0.0
1.5012597845564464e7 3.473544216329852e6 0.0
0.0 0.0 0.0

-6.623294905492548e6 2.1699100285297293e7 0.0
2.1699100285297293e7 7.214385161278245e6 0.0
0.0 0.0 0.0

-4.192350880247578e6 1.8296627671054997e7 0.0
1.8296627671054997e7 3.2295788319355324e6 0.0
0.0 0.0 0.0

4.32599292845225e6 4.905335880395506e6 0.0
4.905335880395506e6 -2.7295768169491805e7 0.0
0.0 0.0 0.0

4.308052073965114e6 5.449277797252934e6 0.0
5.449277797252934e6 -2.7687450158755653e7 0.0
0.0 0.0 0.0

-1.1810346090946449e7 1.265664384555464e7 0.0
1.265664384555464e7 2.2412185726140004e7 0.0
0.0 0.0 0.0

-16629.970141237136 1.562403371085009e7 0.0
1.562403371085009e7 -1.2657213334583053e7 0.0
0.0 0.0 0.0

5.661983085414752e6 1.85801597200703e7 0.0
1.85801597200703e7 -354311.8281580827 0.0
0.0 0.0 0.0

-9.948219634361476e6 3.1764400474508354e6 0.0
3.1764400474508354e6 4.19422819446808e7 0.0
0.0 0.0 0.0

-4.397492879352184e6 1.6392947515069831e7 0.0
1.6392947515069831e7 7.482606327446746e6 0.0
0.0 0.0 0.0

-1.080922737393606e6 1.5422823117711889e7 0.0
1.5422823117711889e7 -8.6567075208594e6 0.0
0.0 0.0 0.0

-4.425528256510718e6 1.4481050264576104e7 0.0
1.4481050264576104e7 4.155343904121385e7 0.0
0.0 0.0 0.0

419990.20482692635 5.039931002894388e6 0.0
5.039931002894388e6 -1.6950931891618865e6 0.0
0.0 0.0 0.0

-1.4929573058806593e6 1.989482854546201e7 0.0
1.989482854546201e7 -6.503963782920996e6 0.0
0.0 0.0 0.0

2.3913470422110762e6 1.8412714616783403e7 0.0
1.8412714616783403e7 1.342565953502326e7 0.0
0.0 0.0 0.0

3.380519183255568e6 7.73564315994881e6 0.0
7.73564315994881e6 -1.5660261942402126e7 0.0
0.0 0.0 0.0

-2.963216475039691e6 1.2352833041428369e7 0.0
1.2352833041428369e7 -2.1046418951791637e6 0.0
0.0 0.0 0.0

-8.380587465907015e6 1.3636347198857367e7 0.0
1.3636347198857367e7 3.1915949815113276e7 0.0
0.0 0.0 0.0

3.199968647638224e6 8.510497051609641e6 0.0
8.510497051609641e6 -2.7696332030159988e7 0.0
0.0 0.0 0.0

697448.7578276135 1.6133957972223155e7 0.0
1.6133957972223155e7 -1.4793702494357456e7 0.0
0.0 0.0 0.0

-1.0232741234593181e7 -996970.0201775997 0.0
-996970.0201775997 2.9516326293912023e7 0.0
0.0 0.0 0.0

2.7680219774254654e6 9.757910514062446e6 0.0
9.757910514062446e6 -2.658323987491345e7 0.0
0.0 0.0 0.0

463318.8228684007 9.36338544720428e6 0.0
9.36338544720428e6 -5.931731748017872e6 0.0
0.0 0.0 0.0

3.606472177224146e6 8.027602554521763e6 0.0
8.027602554521763e6 -2.350227165002425e7 0.0
0.0 0.0 0.0

321499.82914320333 1.3177739890935712e7 0.0
1.3177739890935712e7 -1.1996039474141123e7 0.0
0.0 0.0 0.0

226291.08279783744 1.485991194358613e7 0.0
1.485991194358613e7 -1.3207804075264752e7 0.0
0.0 0.0 0.0

-1.2482571007093728e7 5.182102629527282e6 0.0
5.182102629527282e6 2.390152837310344e7 0.0
0.0 0.0 0.0

2.0827035104822097e6 1.7500784803645868e7 0.0
1.7500784803645868e7 3.308440925865195e6 0.0
0.0 0.0 0.0

-9.427286132539958e6 1.7391467862514902e6 0.0
1.7391467862514902e6 1.4346471401365343e7 0.0
0.0 0.0 0.0

1.4368869897092665e6 1.4167225624634452e7 0.0
1.4167225624634452e7 -1.777849041643159e7 0.0
0.0 0.0 0.0

-2.3968545231769355e6 5.190388447698955e6 0.0
5.190388447698955e6 3.0293394962727586e6 0.0
0.0 0.0 0.0

1.095288424252952e6 5.306819095226668e6 0.0
5.306819095226668e6 -6.344704888788753e6 0.0
0.0 0.0 0.0

86204.77453963319 1.4308055162317457e7 0.0
1.4308055162317457e7 -1.2181937206522666e7 0.0
0.0 0.0 0.0

4.0627340044011567e6 5.402204718964774e6 0.0
5.402204718964774e6 -1.617572127820641e7 0.0
0.0 0.0 0.0

-1.1710901019731428e7 988690.3396186465 0.0
988690.3396186465 2.079024157761665e7 0.0
0.0 0.0 0.0

3.576531056380812e6 3.6147609375310424e6 0.0
3.6147609375310424e6 -3.964230191466004e7 0.0
0.0 0.0 0.0

-1.1026759334154427e6 1.54553467581981e7 0.0
1.54553467581981e7 -3.6755860110540427e6 0.0
0.0 0.0 0.0

-1.2591453568160702e7 8.441201975275371e6 0.0
8.441201975275371e6 1.702554439486669e7 0.0
0.0 0.0 0.0

-7.305773859296983e6 2.0768918260222867e7 0.0
2.0768918260222867e7 5.147969903016359e6 0.0
0.0 0.0 0.0

1.3349629724292313e6 1.8351465566061035e7 0.0
1.8351465566061035e7 7.13593511202451e6 0.0
0.0 0.0 0.0

-8.933131884618115e6 1.6731701206403168e7 0.0
1.6731701206403168e7 2.1258195500464715e7 0.0
0.0 0.0 0.0

-6.939075633842311e6 1.724391933953504e7 0.0
1.724391933953504e7 1.7316648617675092e7 0.0
0.0 0.0 0.0

-9.869506557869064e6 -3.08688429538675e6 0.0
-3.08688429538675e6 2.9375394633916445e7 0.0
0.0 0.0 0.0

-3.262592633663977e6 1.240069595287494e7 0.0
1.240069595287494e7 2.5694373227625377e6 0.0
0.0 0.0 0.0

3.4162036961388993e6 1.830558947890366e7 0.0
1.830558947890366e7 1.258677788588651e7 0.0
0.0 0.0 0.0

-4.219307163178936e6 1.9636700146062747e7 0.0
1.9636700146062747e7 1.0105704183912678e7 0.0
0.0 0.0 0.0

-1.2785313641232625e7 6.234403763803902e6 0.0
6.234403763803902e6 2.0539941116121028e7 0.0
0.0 0.0 0.0

1.3043475827342737e6 1.2965454459562829e7 0.0
1.2965454459562829e7 -1.9943097255961366e7 0.0
0.0 0.0 0.0

2.835207615768886e6 6.771279849128746e6 0.0
6.771279849128746e6 -1.4432163710564606e7 0.0
0.0 0.0 0.0

670768.8139029946 1.540962732808546e7 0.0
1.540962732808546e7 -1.2326811211493846e7 0.0
0.0 0.0 0.0

-3.0528268560487092e6 1.1219148428935086e7 0.0
1.1219148428935086e7 2.344684831443282e6 0.0
0.0 0.0 0.0

3.299409048141852e6 5.292931276036078e6 0.0
5.292931276036078e6 -1.0826482425570438e7 0.0
0.0 0.0 0.0

-1.6653852066692903e6 2.036437615310854e7 0.0
2.036437615310854e7 -5.525358731624539e6 0.0
0.0 0.0 0.0

-1.0032916169854423e7 1.9791116021569795e6 0.0
1.9791116021569795e6 3.4963644333594926e7 0.0
0.0 0.0 0.0

-1.0399793710211882e7 42447.61594862431 0.0
42447.61594862431 3.0545815243751124e7 0.0
0.0 0.0 0.0

-1.1361460180194065e7 9.79438774385779e6 0.0
9.79438774385779e6 2.9404194093211584e7 0.0
0.0 0.0 0.0

-1.0208852769009687e6 1.8729413793215618e7 0.0
1.8729413793215618e7 -8.955220030578678e6 0.0
0.0 0.0 0.0

-1.3294716066031908e6 7.799154321306308e6 0.0
7.799154321306308e6 -3.1949893428575e6 0.0
0.0 0.0 0.0

1.0487605799683087e7 1.9754000639298342e7 0.0
1.9754000639298342e7 9.10342941472334e6 0.0
0.0 0.0 0.0

8.418634938143251e6 1.9208617066644568e7 0.0
1.9208617066644568e7 3.71347087028114e7 0.0
0.0 0.0 0.0

3.631220671270158e6 6.21701615477677e6 0.0
6.21701615477677e6 -1.354741632646936e7 0.0
0.0 0.0 0.0

-1.0781763103605472e7 2.9835643399192854e6 0.0
2.9835643399192854e6 1.835117415599668e7 0.0
0.0 0.0 0.0

-3.3959360664622444e6 1.3518531607597176e7 0.0
1.3518531607597176e7 2.7128528974493146e6 0.0
0.0 0.0 0.0

-5.7761569460155e6 1.859099857322513e7 0.0
1.859099857322513e7 1.3186238382811645e7 0.0
0.0 0.0 0.0

4.023459223532265e6 5.807393078479522e6 0.0
5.807393078479522e6 -2.960634985285854e7 0.0
0.0 0.0 0.0

3.9095780774710216e6 6.707574711854588e6 0.0
6.707574711854588e6 -2.56822902448555e7 0.0
0.0 0.0 0.0

-4.251121416314033e6 5.665228541674284e6 0.0
5.665228541674284e6 2.3593758782225563e6 0.0
0.0 0.0 0.0

-4.1847073170374935e6 1.7287846878739055e7 0.0
1.7287846878739055e7 7.257258209314708e6 0.0
0.0 0.0 0.0

-4.888199800869817e6 1.4858208285406621e7 0.0
1.4858208285406621e7 3.8435097882572226e7 0.0
0.0 0.0 0.0

439554.9908420318 1.6163417380349828e7 0.0
1.6163417380349828e7 -1.179411762087314e7 0.0
0.0 0.0 0.0

-3.0516266200207947e6 6.672098644186337e6 0.0
6.672098644186337e6 3.868049214976809e6 0.0
0.0 0.0 0.0

4.056107400273459e6 6.043438380244345e6 0.0
6.043438380244345e6 -2.6728771255469836e7 0.0
0.0 0.0 0.0

-4.648115254047757e6 1.912050426381781e7 0.0
1.912050426381781e7 8.100472410016319e6 0.0
0.0 0.0 0.0

2.836093738214501e6 7.975789052152619e6 0.0
7.975789052152619e6 -1.801113418896175e7 0.0
0.0 0.0 0.0

-8.778696169182902e6 7.099814463522664e6 0.0
7.099814463522664e6 683763.4039151501 0.0
0.0 0.0 0.0

419992.628125296 1.3772933144541306e7 0.0
1.3772933144541306e7 -1.3159392628928069e7 0.0
0.0 0.0 0.0

-2.424286880454396e6 3.723281185698604e6 0.0
3.723281185698604e6 72484.06729889312 0.0
0.0 0.0 0.0

-2.7424679267304e6 9.979561921355838e6 0.0
9.979561921355838e6 2.03419108001081e6 0.0
0.0 0.0 0.0

-2.2969380896522403e6 8.658561227766646e6 0.0
8.658561227766646e6 1.642584397050514e6 0.0
0.0 0.0 0.0

27543.214651193004 1.3974431632902794e7 0.0
1.3974431632902794e7 -1.1652480355486127e7 0.0
0.0 0.0 0.0

-3.2009212593869087e6 1.340334861925443e7 0.0
1.340334861925443e7 -1.8228702784295678e6 0.0
0.0 0.0 0.0

-1.2788815247467766e7 6.758285503346996e6 0.0
6.758285503346996e6 2.2811669138864808e7 0.0
0.0 0.0 0.0

-7.640421230610592e6 1.2586732055190299e7 0.0
1.2586732055190299e7 3.705972256943802e7 0.0
0.0 0.0 0.0

-1.017269141104932e7 9.883362410882615e6 0.0
9.883362410882615e6 3.3587500561331436e7 0.0
0.0 0.0 0.0

-8.072056422352325e6 1.3107698327614132e7 0.0
1.3107698327614132e7 3.433411049515224e7 0.0
0.0 0.0 0.0

-7.923161870514281e6 6.372352635828339e6 0.0
6.372352635828339e6 5.2347068396654926e7 0.0
0.0 0.0 0.0

-1.0734415980179808e6 1.782593051960317e7 0.0
1.782593051960317e7 6.894520397548117e6 0.0
0.0 0.0 0.0

-1.0270181453643704e7 4.1916322242308436e6 0.0
4.1916322242308436e6 3.946425781650437e7 0.0
0.0 0.0 0.0

-2.3982377677849093e6 1.9177256697998624e7 0.0
1.9177256697998624e7 -4.49173618616625e6 0.0
0.0 0.0 0.0

-903007.2002615626 1.6537489824105466e7 0.0
1.6537489824105466e7 -1.0029555270634139e7 0.0
0.0 0.0 0.0

-4.474641999653294e7 2.8381746616988584e7 0.0
2.8381746616988584e7 -6.130502216018405e6 0.0
0.0 0.0 0.0

3.260927137742931e6 7.392898041443721e6 0.0
7.392898041443721e6 -1.3448446437311476e7 0.0
0.0 0.0 0.0

2.457935553413327e6 1.146188358901586e7 0.0
1.146188358901586e7 -1.8854204596871838e7 0.0
0.0 0.0 0.0

-1.3939810049916906e6 2.051786749361161e7 0.0
2.051786749361161e7 -4.776910592714352e6 0.0
0.0 0.0 0.0

-3.1768576828174014e6 1.983712985227688e7 0.0
1.983712985227688e7 2.9135226324686026e6 0.0
0.0 0.0 0.0

3.7791948642945504e6 7.45219558897491e6 0.0
7.45219558897491e6 -2.3077024277795494e7 0.0
0.0 0.0 0.0

1.1443682012094295e7 2.0877848414410047e7 0.0
2.0877848414410047e7 -4.94592342406834e6 0.0
0.0 0.0 0.0

-4.149210808923664e6 1.0489800474713901e7 0.0
1.0489800474713901e7 1.2402037454689604e6 0.0
0.0 0.0 0.0

2.568947603792155e6 6.025820170373671e6 0.0
6.025820170373671e6 -4.0907190590518676e7 0.0
0.0 0.0 0.0

-3.8170084261989323e6 9.187010992258763e6 0.0
9.187010992258763e6 828931.8083173507 0.0
0.0 0.0 0.0

2.436934400925316e6 7.8689462650366975e6 0.0
7.8689462650366975e6 -1.4217424500315504e7 0.0
0.0 0.0 0.0

-8.597880659682784e6 1.6982139237029545e7 0.0
1.6982139237029545e7 2.048313191968178e7 0.0
0.0 0.0 0.0

-2.893490798843088e7 2.5121278712234393e7 0.0
2.5121278712234393e7 3.695800813266702e6 0.0
0.0 0.0 0.0

-1.0806422783243677e7 -1.7071899580021498e6 0.0
-1.7071899580021498e6 2.3770178096744422e7 0.0
0.0 0.0 0.0

223064.34197421605 1.6866910012664378e7 0.0
1.6866910012664378e7 -1.122700579657222e7 0.0
0.0 0.0 0.0

-1.2655302572646799e7 2.3255825053058963e7 0.0
2.3255825053058963e7 -2.6151794447494997e6 0.0
0.0 0.0 0.0

3.6086294417509837e6 5.689302412999785e6 0.0
5.689302412999785e6 -1.3094342748585515e7 0.0
0.0 0.0 0.0

-1.1993648526975375e7 7.130655663845556e6 0.0
7.130655663845556e6 2.032223023359999e7 0.0
0.0 0.0 0.0

570348.1355560743 1.485686000102024e7 0.0
1.485686000102024e7 -1.1322884064508382e7 0.0
0.0 0.0 0.0

-717603.4055160857 1.4185829878818868e7 0.0
1.4185829878818868e7 -5.985783976147718e6 0.0
0.0 0.0 0.0

-4.36697694571262e6 1.1726725738842517e7 0.0
1.1726725738842517e7 1.5454462250555167e6 0.0
0.0 0.0 0.0

-1.1608375086870877e7 8.21520407119609e6 0.0
8.21520407119609e6 2.9554528570793297e7 0.0
0.0 0.0 0.0

4.542553220511571e6 4.4137645716957385e6 0.0
4.4137645716957385e6 -2.5073057287178703e7 0.0
0.0 0.0 0.0

3.4360869801072935e6 5.51433501141978e6 0.0
5.51433501141978e6 -1.6131494731883902e7 0.0
0.0 0.0 0.0

-4.654383674203213e6 1.8851023633938707e7 0.0
1.8851023633938707e7 7.27926627069333e6 0.0
0.0 0.0 0.0

-8.059340411055669e6 1.8340089288115865e6 0.0
1.8340089288115865e6 9.001915042024402e6 0.0
0.0 0.0 0.0

238821.02232513065 1.2823813336396176e7 0.0
1.2823813336396176e7 -1.1412552754235797e7 0.0
0.0 0.0 0.0

3.882827660048222e6 6.756601564915125e6 0.0
6.756601564915125e6 -1.9616777099382956e7 0.0
0.0 0.0 0.0

-1.0785718330953816e7 3.1664013002373907e6 0.0
3.1664013002373907e6 3.2837040582297843e7 0.0
0.0 0.0 0.0

-1.085607151049129e6 1.7951820673644982e7 0.0
1.7951820673644982e7 4.790316479781752e6 0.0
0.0 0.0 0.0

-1.124873013723018e7 -133099.8652535374 0.0
-133099.8652535374 2.0157426271558367e7 0.0
0.0 0.0 0.0

2.2190225788429175e6 1.0968537401987916e7 0.0
1.0968537401987916e7 -2.5583022105034724e7 0.0
0.0 0.0 0.0

-138098.46755207703 1.5782644901886642e7 0.0
1.5782644901886642e7 -1.6453347193743099e7 0.0
0.0 0.0 0.0

-1.2131247017275294e7 9.649357543784773e6 0.0
9.649357543784773e6 1.6354338755138323e7 0.0
0.0 0.0 0.0

1.3848879425938353e6 1.3691346006731583e7 0.0
1.3691346006731583e7 -1.997555121352073e7 0.0
0.0 0.0 0.0

1.2004657831790997e6 1.4047284844590427e7 0.0
1.4047284844590427e7 -1.3823176498800116e7 0.0
0.0 0.0 0.0

120048.05055707751 3.2697805406926316e6 0.0
3.2697805406926316e6 -569433.1569704383 0.0
0.0 0.0 0.0

-1.0824788986850955e7 -1.0580065944916077e6 0.0
-1.0580065944916077e6 1.7466102463224072e7 0.0
0.0 0.0 0.0

385795.7839292912 1.1185899588912204e7 0.0
1.1185899588912204e7 -1.0342658935433013e7 0.0
0.0 0.0 0.0

777757.6046161153 1.0206395079105498e7 0.0
1.0206395079105498e7 -1.062412026531284e7 0.0
0.0 0.0 0.0

663513.6826263866 1.5124196640182808e7 0.0
1.5124196640182808e7 -1.182469578583458e7 0.0
0.0 0.0 0.0

-1.3329541753269294e6 1.8074555965166133e7 0.0
1.8074555965166133e7 2.675632253843907e6 0.0
0.0 0.0 0.0

1.674935392423408e6 9.056847453808725e6 0.0
9.056847453808725e6 -1.246128927805686e7 0.0
0.0 0.0 0.0

-709994.5135101769 1.2303229291265344e7 0.0
1.2303229291265344e7 -3.688764898618104e7 0.0
0.0 0.0 0.0

-7.457986488033246e6 3.285697458755787e6 0.0
3.285697458755787e6 8.302995351675395e6 0.0
0.0 0.0 0.0

-8.1520608188841e6 1.6402303572107844e7 0.0
1.6402303572107844e7 -3.2016708202886257e7 0.0
0.0 0.0 0.0

-9.680042782589106e7 1.1192590304817727e7 0.0
1.1192590304817727e7 1.8498494490001611e6 0.0
0.0 0.0 0.0

7.968346218118612e7 1.2155417027055053e7 0.0
1.2155417027055053e7 3.0533757410986573e6 0.0
0.0 0.0 0.0

-1.7631142022765242e6 1.2726825838816198e7 0.0
1.2726825838816198e7 -4.219005497007093e7 0.0
0.0 0.0 0.0

-9.140117723378256e6 1.4067425359402433e7 0.0
1.4067425359402433e7 1.7628270754402936e7 0.0
0.0 0.0 0.0

-3.7505363699815394e6 1.7621973281135824e7 0.0
1.7621973281135824e7 241671.73129069037 0.0
0.0 0.0 0.0

19556.564661257435 1.210108894967829e7 0.0
1.210108894967829e7 -1.0049684719060214e7 0.0
0.0 0.0 0.0

-54390.0960642437 6.090996241820337e6 0.0
6.090996241820337e6 -4.436383361724619e6 0.0
0.0 0.0 0.0

669062.0796155131 6.780762104073258e6 0.0
6.780762104073258e6 -3.438107305628488e6 0.0
0.0 0.0 0.0

-4.468408812413974e6 1.2905111606962474e7 0.0
1.2905111606962474e7 1.7639040170435891e6 0.0
0.0 0.0 0.0

-1.2094558666066397e6 1.2480408105683789e7 0.0
1.2480408105683789e7 -3.9388415266376466e7 0.0
0.0 0.0 0.0

1.3312457143941065e6 1.078594645970795e7 0.0
1.078594645970795e7 -9.705863579598151e6 0.0
0.0 0.0 0.0

-1.1598350887286363e7 1.3806023806988185e6 0.0
1.3806023806988185e6 2.613594299868916e7 0.0
0.0 0.0 0.0

6.3998765084558845e7 1.4659334639311118e7 0.0
1.4659334639311118e7 -407832.8459015526 0.0
0.0 0.0 0.0

944149.2044729283 1.1735833797804201e7 0.0
1.1735833797804201e7 -9.472807808835154e6 0.0
0.0 0.0 0.0

4.094339937862619e6 6.376842561949675e6 0.0
6.376842561949675e6 -2.212289830852322e7 0.0
0.0 0.0 0.0

3.9422305025703963e6 6.9058199588596495e6 0.0
6.9058199588596495e6 -2.2597236608606096e7 0.0
0.0 0.0 0.0

-8.29697726576063e6 1.7254351655571114e7 0.0
1.7254351655571114e7 1.9678736522479553e7 0.0
0.0 0.0 0.0

1.778972084313455e6 1.2993796188368978e7 0.0
1.2993796188368978e7 -1.5697319728290068e7 0.0
0.0 0.0 0.0

-2.4433910538477516e6 1.8567612009308e7 0.0
1.8567612009308e7 -9.237461740146192e6 0.0
0.0 0.0 0.0

4.190358110306289e6 1.940632655233167e7 0.0
1.940632655233167e7 -3.9024420887119756e6 0.0
0.0 0.0 0.0

-1.7528996063270574e6 1.1907929373842143e7 0.0
1.1907929373842143e7 -1.4123006470636113e6 0.0
0.0 0.0 0.0

1.757846002429589e6 5.779333224933451e6 0.0
5.779333224933451e6 -5.5241856552148145e6 0.0
0.0 0.0 0.0

-2.1150392672214685e6 8.249057344978095e6 0.0
8.249057344978095e6 -1.9218509052635315e6 0.0
0.0 0.0 0.0

-4.44484997749413e6 5.882315515360956e6 0.0
5.882315515360956e6 6.909737575455418e6 0.0
0.0 0.0 0.0

-4.083936100110974e6 1.4738948309395975e7 0.0
1.4738948309395975e7 -2.3518699752048165e7 0.0
0.0 0.0 0.0

2.608574438368988e6 1.0818780349742802e7 0.0
1.0818780349742802e7 -2.2583645773673363e7 0.0
0.0 0.0 0.0

2.7645019288316257e6 6.16887524506363e6 0.0
6.16887524506363e6 -1.3855299475208964e7 0.0
0.0 0.0 0.0

2.5566153253333527e6 8.600284508696951e6 0.0
8.600284508696951e6 -1.1701866356862212e7 0.0
0.0 0.0 0.0

-2.3280904772891575e6 1.4000111821773386e7 0.0
1.4000111821773386e7 -912575.7993510653 0.0
0.0 0.0 0.0

2.394796370011137e6 8.326293003501942e6 0.0
8.326293003501942e6 -1.4859369359509457e7 0.0
0.0 0.0 0.0

-611048.3593011741 7.317382649881072e6 0.0
7.317382649881072e6 -4.289938458072321e6 0.0
0.0 0.0 0.0

4.319590877489551e6 4.818177255165056e6 0.0
4.818177255165056e6 -1.6988546772925552e7 0.0
0.0 0.0 0.0

798024.6395226032 1.3685549902668064e7 0.0
1.3685549902668064e7 -1.1199116161688603e7 0.0
0.0 0.0 0.0

-7.111381121817663e6 5.040026268493416e6 0.0
5.040026268493416e6 7.106740257671066e6 0.0
0.0 0.0 0.0

-1.3929798252137578e6 1.9868907015820965e7 0.0
1.9868907015820965e7 -7.116983232022801e6 0.0
0.0 0.0 0.0

3.142291151546646e6 5.656035201198944e6 0.0
5.656035201198944e6 -3.56124094600818e7 0.0
0.0 0.0 0.0

512042.7591894595 1.452525106807299e7 0.0
1.452525106807299e7 -1.0812308762600422e7 0.0
0.0 0.0 0.0

3.4921660740179485e6 8.022047302706647e6 0.0
8.022047302706647e6 -1.774449999165882e7 0.0
0.0 0.0 0.0

-1.351584128622586e6 4.740892339580839e6 0.0
4.740892339580839e6 1.6337398380577732e6 0.0
0.0 0.0 0.0

3.7100867577691087e6 7.417068527134368e6 0.0
7.417068527134368e6 -1.8712386465108484e7 0.0
0.0 0.0 0.0

-3.690221926661213e6 1.8279175306631442e7 0.0
1.8279175306631442e7 4.908395829757443e6 0.0
0.0 0.0 0.0

-230069.12420126377 2.124536084293906e7 0.0
2.124536084293906e7 -6.743176564221894e6 0.0
0.0 0.0 0.0

-573948.5980298659 1.6293374345099812e7 0.0
1.6293374345099812e7 -1.6039720365311148e7 0.0
0.0 0.0 0.0

634984.4734839951 6.302890584823199e6 0.0
6.302890584823199e6 -6.324248472966554e6 0.0
0.0 0.0 0.0

-227442.70521668717 2.2018556553183395e7 0.0
2.2018556553183395e7 -5.164356348164367e6 0.0
0.0 0.0 0.0

-368310.55218604347 1.856960112138337e7 0.0
1.856960112138337e7 -8.747779234777644e6 0.0
0.0 0.0 0.0

-1.2140894047049552e7 5.372446351161443e6 0.0
5.372446351161443e6 1.6021434898349192e7 0.0
0.0 0.0 0.0

-4.1097761122642253e6 1.9373683723325033e7 0.0
1.9373683723325033e7 1.1842139053049074e7 0.0
0.0 0.0 0.0

-3.383963172922232e6 4.249047259414837e6 0.0
4.249047259414837e6 1.6490430086618331e6 0.0
0.0 0.0 0.0

-1.9988235608700486e6 9.4606933002432e6 0.0
9.4606933002432e6 549174.6782722526 0.0
0.0 0.0 0.0

-1.0160096751167035e7 6.253185650196472e6 0.0
6.253185650196472e6 3.697876107109206e7 0.0
0.0 0.0 0.0

-5.8619415409625415e6 1.2053672479091225e7 0.0
1.2053672479091225e7 5.635853809760777e6 0.0
0.0 0.0 0.0

1.9571334776604183e6 1.6946730548872877e7 0.0
1.6946730548872877e7 959198.8126682682 0.0
0.0 0.0 0.0

612599.8705121661 1.2658131074490797e7 0.0
1.2658131074490797e7 -9.177264425171701e6 0.0
0.0 0.0 0.0

-64731.96405218169 1.3665439656141331e7 0.0
1.3665439656141331e7 -1.1030554989936939e7 0.0
0.0 0.0 0.0

-554031.825942358 1.225054645836199e7 0.0
1.225054645836199e7 -3.460369936992151e7 0.0
0.0 0.0 0.0

2.769446433243675e6 5.997308950773391e6 0.0
5.997308950773391e6 -3.783984019714728e7 0.0
0.0 0.0 0.0

-1.2959532291307278e7 8.634790298296507e6 0.0
8.634790298296507e6 2.0409447566754065e7 0.0
0.0 0.0 0.0

-3.42384854288478e6 2.1136692409027673e7 0.0
2.1136692409027673e7 5.671580324246094e6 0.0
0.0 0.0 0.0

-1.1495754911522018e7 1.9809723775686724e6 0.0
1.9809723775686724e6 2.904297981695231e7 0.0
0.0 0.0 0.0

-28652.52545623714 1.7523059115034107e7 0.0
1.7523059115034107e7 -1.0696253225253094e7 0.0
0.0 0.0 0.0

-128325.34032936953 1.7100656126765292e7 0.0
1.7100656126765292e7 -1.2738485171612715e7 0.0
0.0 0.0 0.0

1.073900286027927e7 5.650982127391271e6 0.0
5.650982127391271e6 -2.1993951878791847e6 0.0
0.0 0.0 0.0

1.635058681395073e6 8.75892301937888e6 0.0
8.75892301937888e6 -8.643424182818534e6 0.0
0.0 0.0 0.0

-9.616209959691051e6 1.139570984266553e7 0.0
1.139570984266553e7 1.2811183399551779e7 0.0
0.0 0.0 0.0

-1.8632096393292584e6 1.6097155586916704e7 0.0
1.6097155586916704e7 -1.5224314347704776e7 0.0
0.0 0.0 0.0

748479.1032077628 1.3375591606559446e7 0.0
1.3375591606559446e7 -1.057871168386102e7 0.0
0.0 0.0 0.0

893498.5024448312 1.4339761278319594e7 0.0
1.4339761278319594e7 -1.2307812484410774e7 0.0
0.0 0.0 0.0

-1.0798194587135214e7 1.152690027239758e7 0.0
1.152690027239758e7 2.8838765272548128e7 0.0
0.0 0.0 0.0

-1.2798826654199906e7 8.094704233728313e6 0.0
8.094704233728313e6 1.8468209548698567e7 0.0
0.0 0.0 0.0

-171639.057959022 1.3334593530480701e7 0.0
1.3334593530480701e7 -1.0402972942119496e7 0.0
0.0 0.0 0.0

-1.2748239749378003e6 1.6164920880496958e7 0.0
1.6164920880496958e7 -8.344668154107016e6 0.0
0.0 0.0 0.0

-4.999631068218289e6 1.7963458337946467e7 0.0
1.7963458337946467e7 -6.548260715472002e6 0.0
0.0 0.0 0.0

-2.648327086465454e6 2.144334455495921e7 0.0
2.144334455495921e7 -1.9826640672132194e6 0.0
0.0 0.0 0.0

2.4823571234234087e6 1.0885702176120274e7 0.0
1.0885702176120274e7 -2.4050596715451814e7 0.0
0.0 0.0 0.0

-2.5263995772210136e6 2.519452044059028e7 0.0
2.519452044059028e7 2.339704916359147e6 0.0
0.0 0.0 0.0

-8.435403403770223e6 1.2397822485181587e7 0.0
1.2397822485181587e7 1.137378783371093e7 0.0
0.0 0.0 0.0

-5.378697643749136e6 2.098866381453829e7 0.0
2.098866381453829e7 -7.673315437741481e6 0.0
0.0 0.0 0.0

-31436.099747189262 1.5424980926890722e7 0.0
1.5424980926890722e7 -1.6177787715955875e6 0.0
0.0 0.0 0.0

-344554.3041618783 1.654420303197656e7 0.0
1.654420303197656e7 -1.5006864195981197e7 0.0
0.0 0.0 0.0

-1.5837090575613487e6 1.6544480756271211e7 0.0
1.6544480756271211e7 -8.72445851455353e6 0.0
0.0 0.0 0.0

-4.231465162728908e6 2.0557484638582643e7 0.0
2.0557484638582643e7 7.768140377342088e6 0.0
0.0 0.0 0.0

83506.61378452461 1.6424520983903378e7 0.0
1.6424520983903378e7 -1.0344534591320736e7 0.0
0.0 0.0 0.0

-287130.7684318349 1.3001230222447874e7 0.0
1.3001230222447874e7 -9.716775007079676e6 0.0
0.0 0.0 0.0

83465.71022400819 1.5563033005264342e7 0.0
1.5563033005264342e7 -1.787878637091073e7 0.0
0.0 0.0 0.0

-1.0707366646919618e6 1.089794925550556e7 0.0
1.089794925550556e7 -5.916481062288794e6 0.0
0.0 0.0 0.0

-3.585688859591041e6 1.9822691808186058e7 0.0
1.9822691808186058e7 1.5514787599721758e6 0.0
0.0 0.0 0.0

-2.4971676309360084e6 2.1000717239411343e7 0.0
2.1000717239411343e7 -2.962978604782319e6 0.0
0.0 0.0 0.0

-468650.0581036679 4.403754387246626e6 0.0
4.403754387246626e6 244949.50227718454 0.0
0.0 0.0 0.0

716683.8876407933 9.709098819720274e6 0.0
9.709098819720274e6 -9.92427346088411e6 0.0
0.0 0.0 0.0

-2.1420667463720813e6 2.22692281733369e7 0.0
2.22692281733369e7 -490784.0375003945 0.0
0.0 0.0 0.0

-4.41982157888495e6 1.7881253118577685e7 0.0
1.7881253118577685e7 4.2757161359258e6 0.0
0.0 0.0 0.0

-7.345153756604877e7 6.590193476630645e6 0.0
6.590193476630645e6 4.0606910110133514e6 0.0
0.0 0.0 0.0

1.0784971346261296e6 1.410966007077908e7 0.0
1.410966007077908e7 -2.0045214786364608e7 0.0
0.0 0.0 0.0

-5.079444382492395e6 1.6883714668731365e7 0.0
1.6883714668731365e7 6.635607309574932e6 0.0
0.0 0.0 0.0

-1.9503172595567098e6 1.9427841695233155e7 0.0
1.9427841695233155e7 -3.0810677758999546e6 0.0
0.0 0.0 0.0

-4.794298371805534e6 1.7747927400794096e7 0.0
1.7747927400794096e7 6.467209390071657e6 0.0
0.0 0.0 0.0

-1.4542953786132024e6 1.829737564043374e7 0.0
1.829737564043374e7 616534.4683646393 0.0
0.0 0.0 0.0

-418287.8648276492 1.7657261496650435e7 0.0
1.7657261496650435e7 -9.001724399035145e6 0.0
0.0 0.0 0.0

-7.240425354292642e6 1.3383113732616898e7 0.0
1.3383113732616898e7 9.761903001756508e6 0.0
0.0 0.0 0.0

-1.1797835057105388e7 5.104440618849799e6 0.0
5.104440618849799e6 2.269224887777336e7 0.0
0.0 0.0 0.0

-472775.41458914406 1.1443039012801005e7 0.0
1.1443039012801005e7 -4.894373874451852e6 0.0
0.0 0.0 0.0

2.917862151491561e6 5.795875772042037e6 0.0
5.795875772042037e6 -9.96627852782299e6 0.0
0.0 0.0 0.0

-1.6721195792052357e6 1.4522702150325181e7 0.0
1.4522702150325181e7 -6.510531021467238e6 0.0
0.0 0.0 0.0

-765560.8746484779 1.8207291823168978e7 0.0
1.8207291823168978e7 -9.92828858610994e6 0.0
0.0 0.0 0.0

-4.6326304940892365e6 1.7026978001828406e7 0.0
1.7026978001828406e7 4.347851081693366e6 0.0
0.0 0.0 0.0

-2.396862048970216e6 1.3339209909585873e7 0.0
1.3339209909585873e7 -4.0079545438788366e6 0.0
0.0 0.0 0.0

-6.255500546679099e6 1.2058194132643875e6 0.0
1.2058194132643875e6 9.93239949043616e6 0.0
0.0 0.0 0.0

2.4564026073504095e6 5.703541772113948e6 0.0
5.703541772113948e6 -1.150044133075829e7 0.0
0.0 0.0 0.0

-1.1361239700567484e7 4.975782525987662e6 0.0
4.975782525987662e6 2.911198472159193e7 0.0
0.0 0.0 0.0

-1.1152087597031862e7 1.257138198647872e6 0.0
1.257138198647872e6 1.596893923560489e7 0.0
0.0 0.0 0.0

-4.0305250354652256e6 1.7723283859562393e7 0.0
1.7723283859562393e7 1.8470596601540532e7 0.0
0.0 0.0 0.0

-1.441959282051125e6 1.689257525464042e7 0.0
1.689257525464042e7 -7.969999446191905e6 0.0
0.0 0.0 0.0

573269.07901815 9.156541264610337e6 0.0
9.156541264610337e6 -9.260504808412641e6 0.0
0.0 0.0 0.0

-1.099127294028559e7 4.793830110100581e6 0.0
4.793830110100581e6 3.126717952495431e7 0.0
0.0 0.0 0.0

-1.719708613824534e6 1.962921078511256e7 0.0
1.962921078511256e7 -3.7866020437608156e6 0.0
0.0 0.0 0.0

-3.93031664910704e6 1.2345315636552028e7 0.0
1.2345315636552028e7 351828.540982045 0.0
0.0 0.0 0.0

-1.2455902008020766e6 8.967724968040677e6 0.0
8.967724968040677e6 -820477.7990416232 0.0
0.0 0.0 0.0

-1.5057806343859856e6 1.185014142255784e7 0.0
1.185014142255784e7 -5.537545754416512e6 0.0
0.0 0.0 0.0

-1.6616158146715257e6 1.5148874436017703e7 0.0
1.5148874436017703e7 -2.2622290190016404e7 0.0
0.0 0.0 0.0

-3.896782024493648e6 1.781119029368751e7 0.0
1.781119029368751e7 6.042725061619244e6 0.0
0.0 0.0 0.0

448556.2360118767 1.7044366102225255e7 0.0
1.7044366102225255e7 -1.2761568056321923e7 0.0
0.0 0.0 0.0

-2.75136189987229e6 1.5382400802130483e7 0.0
1.5382400802130483e7 4.624618110823841e7 0.0
0.0 0.0 0.0

2.050157783131993e6 1.9582853314664263e7 0.0
1.9582853314664263e7 9.703629328990554e6 0.0
0.0 0.0 0.0

-1.1259293182982419e7 1.0746771846328484e7 0.0
1.0746771846328484e7 1.5289193868690982e7 0.0
0.0 0.0 0.0

2.4852622031907476e6 1.137278629580959e7 0.0
1.137278629580959e7 -2.0070393884368327e7 0.0
0.0 0.0 0.0

-1.596542537781756e6 1.3909463510370292e7 0.0
1.3909463510370292e7 -3.1274152476397827e6 0.0
0.0 0.0 0.0

46747.952954477165 1.9185115586159922e7 0.0
1.9185115586159922e7 -9.551541839385672e6 0.0
0.0 0.0 0.0

-3.1601689891201262e6 2.1930256238053877e7 0.0
2.1930256238053877e7 3.9804242938996386e6 0.0
0.0 0.0 0.0

-2.3590266497655157e6 2.0513668763293188e7 0.0
2.0513668763293188e7 -3.802652657999225e6 0.0
0.0 0.0 0.0

-156314.83805597853 1.6873569091566853e7 0.0
1.6873569091566853e7 -1.3966011396494012e7 0.0
0.0 0.0 0.0

-1.3045562936480523e6 1.2961399431975111e7 0.0
1.2961399431975111e7 -3.424519496746809e6 0.0
0.0 0.0 0.0

-4.47407090652977e6 1.8237630848522734e7 0.0
1.8237630848522734e7 5.314893857193392e6 0.0
0.0 0.0 0.0

-1.171923400387019e7 4.541806987200621e6 0.0
4.541806987200621e6 1.4686535810305087e7 0.0
0.0 0.0 0.0

2.8005369322474934e6 5.608920485065469e6 0.0
5.608920485065469e6 -1.308471448026598e7 0.0
0.0 0.0 0.0

-1.1769278286686025e6 1.4701854815654002e7 0.0
1.4701854815654002e7 -4.875376381149515e6 0.0
0.0 0.0 0.0

3.059320594592603e6 8.779099472412169e6 0.0
8.779099472412169e6 -1.5409100678172719e7 0.0
0.0 0.0 0.0

-3.2176556567758275e6 1.7728036005105656e7 0.0
1.7728036005105656e7 2.005472801889832e6 0.0
0.0 0.0 0.0

-490296.8214989052 8.516061746279908e6 0.0
8.516061746279908e6 -2.116196483992404e6 0.0
0.0 0.0 0.0

-1.5237290766301623e6 2.3573242287902504e7 0.0
2.3573242287902504e7 -2.6508901495767487e6 0.0
0.0 0.0 0.0

-4.942821811805128e7 3.0721301255683037e6 0.0
3.0721301255683037e6 7.226410775694072e6 0.0
0.0 0.0 0.0

120398.18190100114 8.0028763500275435e6 0.0
8.0028763500275435e6 -3.25039341176235e6 0.0
0.0 0.0 0.0

-1.891520495421214e6 1.4482267138407696e7 0.0
1.4482267138407696e7 -2.7281168974034265e7 0.0
0.0 0.0 0.0

395823.63276691036 1.832562147384063e7 0.0
1.832562147384063e7 -8.837941111931482e6 0.0
0.0 0.0 0.0

992109.1313697561 1.2115443690457813e7 0.0
1.2115443690457813e7 -1.0173578849851595e7 0.0
0.0 0.0 0.0

789954.2075276598 1.5701523978188738e7 0.0
1.5701523978188738e7 -1.5793070371527202e7 0.0
0.0 0.0 0.0

697489.6232435778 7.537283271338712e6 0.0
7.537283271338712e6 -4.291050509699309e6 0.0
0.0 0.0 0.0

3.6211831620146083e6 7.477441446487662e6 0.0
7.477441446487662e6 -1.720534062424976e7 0.0
0.0 0.0 0.0

-2.7581427970126364e6 2.1884830340780832e7 0.0
2.1884830340780832e7 -1.096401606969945e6 0.0
0.0 0.0 0.0

559232.6580148044 5.669774610642669e6 0.0
5.669774610642669e6 -5.32867976955055e6 0.0
0.0 0.0 0.0

1.2177934011644651e6 9.62107340438499e6 0.0
9.62107340438499e6 -1.15719624867183e7 0.0
0.0 0.0 0.0

-1.2876893702904088e6 2.454015744957352e7 0.0
2.454015744957352e7 -1.7917273624625136e6 0.0
0.0 0.0 0.0

2.3961949021069543e6 1.7769295881851815e7 0.0
1.7769295881851815e7 -206092.5240508957 0.0
0.0 0.0 0.0

19262.869869837537 2.049552852460674e7 0.0
2.049552852460674e7 -7.455835719051854e6 0.0
0.0 0.0 0.0

2.605115862458959e6 7.661003904123304e6 0.0
7.661003904123304e6 -4.436238804107647e7 0.0
0.0 0.0 0.0

-1.0365045222644543e7 1.5391312320172943e7 0.0
1.5391312320172943e7 2.2773447875637114e7 0.0
0.0 0.0 0.0

-2.632463438929163e6 2.128624758254411e7 0.0
2.128624758254411e7 723318.5161438701 0.0
0.0 0.0 0.0

2.878706513705875e6 8.470803583801402e6 0.0
8.470803583801402e6 -1.3258521572764779e7 0.0
0.0 0.0 0.0

1.1533968564494199e6 6.968365288423265e6 0.0
6.968365288423265e6 -5.284689020952429e6 0.0
0.0 0.0 0.0

483454.7256018217 8.614971616352616e6 0.0
8.614971616352616e6 -8.553777615338871e6 0.0
0.0 0.0 0.0

-3.4410370677974373e6 2.4588270162559457e7 0.0
2.4588270162559457e7 4.398524391379777e6 0.0
0.0 0.0 0.0

-9.197334861371037e6 -577857.2773033683 0.0
-577857.2773033683 1.6493208153782928e7 0.0
0.0 0.0 0.0

-1.1998060863619313e7 1.3357343998767138e7 0.0
1.3357343998767138e7 2.0890356405799508e7 0.0
0.0 0.0 0.0

-1.9606149893925134e6 2.075417645505526e7 0.0
2.075417645505526e7 -2.568883389397625e6 0.0
0.0 0.0 0.0

1.1339700237840991e6 1.3538637534666255e7 0.0
1.3538637534666255e7 -1.2794733191761283e7 0.0
0.0 0.0 0.0

-4.440444312262457e6 1.8404330234583378e7 0.0
1.8404330234583378e7 1.6229174884372307e7 0.0
0.0 0.0 0.0

-2.623763029481897e6 1.4278743755478391e7 0.0
1.4278743755478391e7 -3.7018556897236663e6 0.0
0.0 0.0 0.0

457267.28624177305 1.4193528784841318e7 0.0
1.4193528784841318e7 -1.0241815327156028e7 0.0
0.0 0.0 0.0

-169131.3728119824 1.3925733324127669e7 0.0
1.3925733324127669e7 -2.3646894838391934e7 0.0
0.0 0.0 0.0

371794.02266475465 2.1535096001985617e7 0.0
2.1535096001985617e7 -6.277307720634176e6 0.0
0.0 0.0 0.0

-208329.8291014135 1.2429498718727771e7 0.0
1.2429498718727771e7 -3.2606277656135216e7 0.0
0.0 0.0 0.0

-1.116919508340679e7 3.648700197152455e6 0.0
3.648700197152455e6 1.3908182252931971e7 0.0
0.0 0.0 0.0

3.465130798456411e6 1.9076155875941046e7 0.0
1.9076155875941046e7 1.8681871273979343e7 0.0
0.0 0.0 0.0

-3.9849160451444085e6 2.3809960525571376e7 0.0
2.3809960525571376e7 4.6948432703204155e6 0.0
0.0 0.0 0.0

-2.3681349148615412e6 1.4670316250086429e7 0.0
1.4670316250086429e7 -4.566368735570193e6 0.0
0.0 0.0 0.0

1.959198900378292e6 1.905998841643833e7 0.0
1.905998841643833e7 -5.880542129357903e6 0.0
0.0 0.0 0.0

-1.7208324497671365e6 2.0313300462709233e7 0.0
2.0313300462709233e7 -3.496538059375706e6 0.0
0.0 0.0 0.0

-4.7191157470504455e6 7.259249277006333e6 0.0
7.259249277006333e6 2.9628832364697615e6 0.0
0.0 0.0 0.0

-23981.46489221882 1.720523118368398e7 0.0
1.720523118368398e7 -1.2983353490009557e7 0.0
0.0 0.0 0.0

1.9085241464916281e6 1.2910114502385462e7 0.0
1.2910114502385462e7 -1.7161921327168908e7 0.0
0.0 0.0 0.0

1.6523859905844135e6 1.3390131401657326e7 0.0
1.3390131401657326e7 -1.6133564468306195e7 0.0
0.0 0.0 0.0

-729154.868966622 1.3507548113832574e7 0.0
1.3507548113832574e7 -8.67726431528009e6 0.0
0.0 0.0 0.0

9.605096200347181e6 2.2099257785203088e7 0.0
2.2099257785203088e7 -5.599480343475923e6 0.0
0.0 0.0 0.0

1.754047156202742e6 1.0227830182345217e7 0.0
1.0227830182345217e7 -1.062269186836467e7 0.0
0.0 0.0 0.0

2.7904893048166325e6 5.162162585763691e6 0.0
5.162162585763691e6 -1.246975869879899e7 0.0
0.0 0.0 0.0

2.119533325440543e6 1.2383756444022963e7 0.0
1.2383756444022963e7 -1.809704842938464e7 0.0
0.0 0.0 0.0

3.039899103632342e6 6.384103458744179e6 0.0
6.384103458744179e6 -3.392924504787101e7 0.0
0.0 0.0 0.0

-6.263143794148471e6 6.608954826332611e6 0.0
6.608954826332611e6 5.758485761496536e6 0.0
0.0 0.0 0.0

-3.824378549290581e6 1.940500376285873e7 0.0
1.940500376285873e7 2.2767978684433997e6 0.0
0.0 0.0 0.0

4.168172947622014e6 4.876868726262213e6 0.0
4.876868726262213e6 -2.0181350396790396e7 0.0
0.0 0.0 0.0

2.0344240678737964e6 6.304352627253164e6 0.0
6.304352627253164e6 -1.0771017719063647e7 0.0
0.0 0.0 0.0

-249612.06378223537 1.3678910239669703e7 0.0
1.3678910239669703e7 -7.094702989821284e6 0.0
0.0 0.0 0.0

-9.751503928829854e6 1.247766324101745e7 0.0
1.247766324101745e7 3.0395862034840416e7 0.0
0.0 0.0 0.0

-5.155157943465236e6 1.932152835239285e7 0.0
1.932152835239285e7 1.21257605760574e7 0.0
0.0 0.0 0.0

-4.289004036573161e6 8.29389756744888e6 0.0
8.29389756744888e6 1.8953871003108285e6 0.0
0.0 0.0 0.0

-7.961201782435638e6 1.746600234509604e7 0.0
1.746600234509604e7 1.747336745553175e7 0.0
0.0 0.0 0.0

3.875005923823041e6 6.09974436582505e6 0.0
6.09974436582505e6 -1.5241174716529349e7 0.0
0.0 0.0 0.0

2.242115007472438e6 1.188537308362143e7 0.0
1.188537308362143e7 -1.9204022858269442e7 0.0
0.0 0.0 0.0

-5.264460842524581e6 4.8072556583451435e7 0.0
4.8072556583451435e7 2.906027634501407e6 0.0
0.0 0.0 0.0

-5.405110352895571e6 1.1544931788028097e7 0.0
1.1544931788028097e7 4.204498320281561e6 0.0
0.0 0.0 0.0

-1.0408910154428016e7 2.504594273963767e6 0.0
2.504594273963767e6 1.281796934881758e7 0.0
0.0 0.0 0.0

23634.48311042413 1.6442024948080452e7 0.0
1.6442024948080452e7 -1.3705792215837704e7 0.0
0.0 0.0 0.0

1.4440430105206873e6 1.3891104242693387e7 0.0
1.3891104242693387e7 -1.5223575224996338e7 0.0
0.0 0.0 0.0

-296079.7363168006 1.9488954237738703e6 0.0
1.9488954237738703e6 3.4325150525865937e6 0.0
0.0 0.0 0.0

-1.546100639324228e6 640976.9615338261 0.0
640976.9615338261 5.314663617224303e6 0.0
0.0 0.0 0.0

-4.1794935453562774e6 2.4823647023310266e7 0.0
2.4823647023310266e7 4.0422445501260227e6 0.0
0.0 0.0 0.0

-4.971444766441746e6 1.6525733389156435e7 0.0
1.6525733389156435e7 5.512335979809558e6 0.0
0.0 0.0 0.0

-3.3528488355843658e6 2.453936214266532e7 0.0
2.453936214266532e7 2.431898125292264e6 0.0
0.0 0.0 0.0

3.2486522136900835e6 8.639238870779915e6 0.0
8.639238870779915e6 -1.6918580592190284e7 0.0
0.0 0.0 0.0

-4.23156169313404e6 1.8674794736237865e7 0.0
1.8674794736237865e7 4.234902498213464e6 0.0
0.0 0.0 0.0

-1.1120451983034424e7 2.0853719542069787e6 0.0
2.0853719542069787e6 2.4752044260124084e7 0.0
0.0 0.0 0.0

-5.974446844621007e7 4.375910047123902e6 0.0
4.375910047123902e6 6.513012853481788e6 0.0
0.0 0.0 0.0

-3.727964727841339e6 2.0149333112751078e7 0.0
2.0149333112751078e7 2.393692539928085e6 0.0
0.0 0.0 0.0

-7.114716174660409e6 1.7838390436964665e7 0.0
1.7838390436964665e7 1.6192127762506686e7 0.0
0.0 0.0 0.0

-887470.7740256427 2.168861121008609e7 0.0
2.168861121008609e7 -5.712191158965839e6 0.0
0.0 0.0 0.0

2.1080800719767865e6 5.788631460351516e6 0.0
5.788631460351516e6 -9.879606948523562e6 0.0
0.0 0.0 0.0

-5.742820282505278e6 1.3301058929306898e7 0.0
1.3301058929306898e7 5.755319610059412e6 0.0
0.0 0.0 0.0

-9.632969645101245e6 2.1694958097206924e7 0.0
2.1694958097206924e7 -5.873714479926635e6 0.0
0.0 0.0 0.0

-4.434480911158478e6 2.023876685704262e7 0.0
2.023876685704262e7 -6.511524331141062e6 0.0
0.0 0.0 0.0

3.346266780605223e6 6.8741652679520305e6 0.0
6.8741652679520305e6 -1.2749157414567772e7 0.0
0.0 0.0 0.0

-6.402018261979687e6 1.828907298456336e7 0.0
1.828907298456336e7 1.486234750131644e7 0.0
0.0 0.0 0.0

-495867.12510523153 1.5887834330618568e7 0.0
1.5887834330618568e7 -7.911222457103565e6 0.0
0.0 0.0 0.0

3.206144847426001e6 4.88222786651626e6 0.0
4.88222786651626e6 -3.6947042270347744e7 0.0
0.0 0.0 0.0

-1.0244192471648261e7 175102.49088046091 0.0
175102.49088046091 3.582132880821154e7 0.0
0.0 0.0 0.0

2.5314523413855443e6 9.073929962903492e6 0.0
9.073929962903492e6 -1.2380409122315375e7 0.0
0.0 0.0 0.0

3.940175268460728e6 6.830135912417475e6 0.0
6.830135912417475e6 -2.4096175297019944e7 0.0
0.0 0.0 0.0

-171530.98914478114 1.685468552861958e7 0.0
1.685468552861958e7 -6.975015408344955e6 0.0
0.0 0.0 0.0

1.4505526450791676e6 1.0689458738676492e7 0.0
1.0689458738676492e7 -3.1296963354205206e7 0.0
0.0 0.0 0.0

-185885.33884457755 2.609154879070811e7 0.0
2.609154879070811e7 -2.1551832495935014e6 0.0
0.0 0.0 0.0

-6.663684158011671e6 1.5797919655829674e7 0.0
1.5797919655829674e7 2.8287722696858704e7 0.0
0.0 0.0 0.0

-1.0592627687074974e7 -112619.25148732318 0.0
-112619.25148732318 3.2902358576384544e7 0.0
0.0 0.0 0.0

-693327.3088644061 1.664029403347244e7 0.0
1.664029403347244e7 -7.578083052761894e6 0.0
0.0 0.0 0.0

3.1046485351468604e6 7.4587795665694345e6 0.0
7.4587795665694345e6 -2.9005655796456955e7 0.0
0.0 0.0 0.0

-2.7462242095389026e6 1.6745517323073568e7 0.0
1.6745517323073568e7 -272620.4323797254 0.0
0.0 0.0 0.0

-3.9448132228832142e6 1.8661515877662648e7 0.0
1.8661515877662648e7 2.1941651167217954e6 0.0
0.0 0.0 0.0

-1.13228112817529e7 3.9504121474693585e6 0.0
3.9504121474693585e6 1.9331276748593885e7 0.0
0.0 0.0 0.0

815022.2855765026 2.1852788248265024e7 0.0
2.1852788248265024e7 -6.017853366411703e6 0.0
0.0 0.0 0.0

613599.2327556082 1.7184318581385463e7 0.0
1.7184318581385463e7 -4.070301184557582e6 0.0
0.0 0.0 0.0

-2.078104297497426e6 2.1229255311000183e7 0.0
2.1229255311000183e7 -1.6466237817110377e6 0.0
0.0 0.0 0.0

3.987649259255806e6 3.196967984848408e6 0.0
3.196967984848408e6 -3.497327284916988e7 0.0
0.0 0.0 0.0

-4.0222913773656837e6 1.906705711981477e7 0.0
1.906705711981477e7 3.192957526269878e6 0.0
0.0 0.0 0.0

1.025652208540536e6 1.2474384678559871e7 0.0
1.2474384678559871e7 -1.0851439959178582e7 0.0
0.0 0.0 0.0

-3.4203025288332133e6 9.959242815551141e6 0.0
9.959242815551141e6 -225028.29185545293 0.0
0.0 0.0 0.0

-783758.914633854 1.246313617674491e7 0.0
1.246313617674491e7 -4.606818787880527e6 0.0
0.0 0.0 0.0

-5.872453607600687e6 4.839401503107542e6 0.0
4.839401503107542e6 5.38048201284604e6 0.0
0.0 0.0 0.0

812325.0350567116 1.6478844737552918e7 0.0
1.6478844737552918e7 -4.972717666741668e6 0.0
0.0 0.0 0.0

-1.1618034613105359e7 6.471875416190273e6 0.0
6.471875416190273e6 2.761571005751718e7 0.0
0.0 0.0 0.0

380350.3184975097 1.3877039742764648e7 0.0
1.3877039742764648e7 -9.580881723386537e6 0.0
0.0 0.0 0.0

-3.07669909254639e6 5.347012268008021e6 0.0
5.347012268008021e6 697074.4501206314 0.0
0.0 0.0 0.0

-4.491123584873547e6 2.535384471749593e7 0.0
2.535384471749593e7 4.1560207150444863e6 0.0
0.0 0.0 0.0

-1.1039019896048773e6 2.0180647907516215e7 0.0
2.0180647907516215e7 -5.416830364772724e6 0.0
0.0 0.0 0.0

1.1850693281719778e6 1.4530551207795665e7 0.0
1.4530551207795665e7 -1.779897009479902e7 0.0
0.0 0.0 0.0

2.149602545326702e6 9.650460983993169e6 0.0
9.650460983993169e6 -1.1519976985878048e7 0.0
0.0 0.0 0.0

-3.1022925118217943e6 2.0500986302615654e7 0.0
2.0500986302615654e7 2.927018287553735e6 0.0
0.0 0.0 0.0

-7.834269655300474e6 1.7528485554265894e7 0.0
1.7528485554265894e7 1.862952808693682e7 0.0
0.0 0.0 0.0

2.6083284610846182e6 1.790463210318132e7 0.0
1.790463210318132e7 1.0805083341884485e7 0.0
0.0 0.0 0.0

2.728872471404031e6 7.67656875923375e6 0.0
7.67656875923375e6 -3.1064523507144846e7 0.0
0.0 0.0 0.0

-3.743421745274426e6 1.8599821227964655e7 0.0
1.8599821227964655e7 5.876998924200505e6 0.0
0.0 0.0 0.0

-3.3710846565673565e6 1.9452878917371906e7 0.0
1.9452878917371906e7 3.779210372712668e6 0.0
0.0 0.0 0.0

-1.1427076666956399e7 8.28206367886528e6 0.0
8.28206367886528e6 1.4339731876500264e7 0.0
0.0 0.0 0.0

224837.3298670469 2.661773943438953e7 0.0
2.661773943438953e7 -2.194586774710047e6 0.0
0.0 0.0 0.0

518226.18543943716 1.2275273863235801e7 0.0
1.2275273863235801e7 -8.43258652970069e6 0.0
0.0 0.0 0.0

-9.870516224516805e6 1.4749703421890646e7 0.0
1.4749703421890646e7 1.6365326921241455e7 0.0
0.0 0.0 0.0

2.1705386137300152e6 9.181157484794235e6 0.0
9.181157484794235e6 -1.0853997773356844e7 0.0
0.0 0.0 0.0

-2.6674012202575775e6 7.730091970845065e6 0.0
7.730091970845065e6 2.765439777485016e6 0.0
0.0 0.0 0.0

-2.942490250437785e6 2.076335046449386e7 0.0
2.076335046449386e7 2.0965091642452157e6 0.0
0.0 0.0 0.0

-2.9095068976954836e6 2.1438741809323393e7 0.0
2.1438741809323393e7 2.1881271932900115e6 0.0
0.0 0.0 0.0

300273.26991071925 1.3539433763463894e7 0.0
1.3539433763463894e7 -8.87952151601822e6 0.0
0.0 0.0 0.0

1.323465196592948e6 1.7848782950587705e7 0.0
1.7848782950587705e7 -5.158547144176255e6 0.0
0.0 0.0 0.0

7.678010230651069e6 2.2995361934180956e7 0.0
2.2995361934180956e7 -5.66285932940224e6 0.0
0.0 0.0 0.0

-5.036726786729585e6 2.016944643939964e7 0.0
2.016944643939964e7 6.934749036987974e6 0.0
0.0 0.0 0.0

-6.345903385599334e6 1.5134466109608846e7 0.0
1.5134466109608846e7 -2.9810167126217555e7 0.0
0.0 0.0 0.0

1.2908039007359655e6 1.0336186838133052e7 0.0
1.0336186838133052e7 -8.947441251837563e6 0.0
0.0 0.0 0.0

-1.109430734953827e7 2.47939481742469e6 0.0
2.47939481742469e6 2.2866979595601078e7 0.0
0.0 0.0 0.0

-1.7472344146878787e6 1.8526271445630807e7 0.0
1.8526271445630807e7 -1.3269078482248625e6 0.0
0.0 0.0 0.0

-4.268639222802142e6 1.909079235193505e7 0.0
1.909079235193505e7 -820411.6185157847 0.0
0.0 0.0 0.0

-3.557509588569893e6 1.9012811835916743e7 0.0
1.9012811835916743e7 4.753136436458807e6 0.0
0.0 0.0 0.0

-1.0663991023886526e7 463127.0854897938 0.0
463127.0854897938 2.56813321883168e7 0.0
0.0 0.0 0.0

-4.996051870130671e6 2.5884617533979468e7 0.0
2.5884617533979468e7 4.304400919563561e6 0.0
0.0 0.0 0.0

-3.5172152861994626e6 2.044466059264289e7 0.0
2.044466059264289e7 1.552628615005438e6 0.0
0.0 0.0 0.0

1.4212225350492315e6 1.663636993983401e7 0.0
1.663636993983401e7 -16215.056538318284 0.0
0.0 0.0 0.0

2.288368053328873e6 1.5010592805648582e7 0.0
1.5010592805648582e7 7.627893788338594e6 0.0
0.0 0.0 0.0

-3.9698927345260857e6 1.8112466755073242e7 0.0
1.8112466755073242e7 7.034113644556229e6 0.0
0.0 0.0 0.0

-6.579605968950146e6 1.6233384173025502e7 0.0
1.6233384173025502e7 1.1348348504595142e7 0.0
0.0 0.0 0.0

3.321966365324408e6 6.325214860958886e6 0.0
6.325214860958886e6 -1.2055305284964073e7 0.0
0.0 0.0 0.0

-1.8571873608730221e6 2.141083272960257e7 0.0
2.141083272960257e7 -2.3259256623201403e6 0.0
0.0 0.0 0.0

-1.004455683042457e7 1.2828437185567647e7 0.0
1.2828437185567647e7 1.8096590905875944e7 0.0
0.0 0.0 0.0

3.7805426288102716e6 4.620227851020687e6 0.0
4.620227851020687e6 -1.8656636959848393e7 0.0
0.0 0.0 0.0

-2.392380562714535e6 1.9876290874932714e7 0.0
1.9876290874932714e7 -4.17304187440471e6 0.0
0.0 0.0 0.0

-3.4479601376655446e6 1.8678817331838496e7 0.0
1.8678817331838496e7 3.84938357207307e6 0.0
0.0 0.0 0.0

-2.0192152724099657e6 4.97825249812634e6 0.0
4.97825249812634e6 -652778.657423038 0.0
0.0 0.0 0.0

1.6847359999420661e6 1.0339986486740286e7 0.0
1.0339986486740286e7 -1.4321537546781035e7 0.0
0.0 0.0 0.0

-2.4444124671201864e6 4.244205646499671e7 0.0
4.244205646499671e7 2.166919543475308e6 0.0
0.0 0.0 0.0

2.0713698001042157e6 7.024514651177065e6 0.0
7.024514651177065e6 -5.241946999932157e7 0.0
0.0 0.0 0.0

3.768517026829431e6 5.533300915205687e6 0.0
5.533300915205687e6 -2.1577824757345274e7 0.0
0.0 0.0 0.0

2.2338087012653034e6 1.1535031537320182e7 0.0
1.1535031537320182e7 -1.5958410044361085e7 0.0
0.0 0.0 0.0

-4.370739365047617e6 1.9663839652066782e7 0.0
1.9663839652066782e7 4.986653841273382e6 0.0
0.0 0.0 0.0

1.031963338849376e6 1.3405201472937996e7 0.0
1.3405201472937996e7 -2.132325409675213e7 0.0
0.0 0.0 0.0

1.23206307354664e6 9.852155447318843e6 0.0
9.852155447318843e6 -8.243117193436885e6 0.0
0.0 0.0 0.0

-2.6445417254761755e6 9.472404877192087e6 0.0
9.472404877192087e6 -1.6072755070150064e6 0.0
0.0 0.0 0.0

1.8989174354214808e6 1.696043179880667e7 0.0
1.696043179880667e7 1.369187250051225e7 0.0
0.0 0.0 0.0

-6.866824418368692e6 1.6072790218722176e7 0.0
1.6072790218722176e7 2.6515144546702497e7 0.0
0.0 0.0 0.0

8.022358507309971e6 1.3514290884446898e7 0.0
1.3514290884446898e7 6.040490188228386e6 0.0
0.0 0.0 0.0

-4.457929707897219e6 2.8104475415324844e7 0.0
2.8104475415324844e7 2.695007074422186e6 0.0
0.0 0.0 0.0

-1.2038136268388808e6 1.40097828051286e7 0.0
1.40097828051286e7 -7.609336408862741e6 0.0
0.0 0.0 0.0

-2.4672042457475573e7 2.2260472020011526e7 0.0
2.2260472020011526e7 603216.911044322 0.0
0.0 0.0 0.0

-254386.06275811605 1.5159403176415496e7 0.0
1.5159403176415496e7 -8.244477056829356e6 0.0
0.0 0.0 0.0

-3.342980086728098e6 1.9090062774708226e7 0.0
1.9090062774708226e7 2.8441397686218857e6 0.0
0.0 0.0 0.0

-81931.45390719292 1.2378429461515883e7 0.0
1.2378429461515883e7 -6.546237159272492e6 0.0
0.0 0.0 0.0

-524199.07062350865 1.4579577993934155e7 0.0
1.4579577993934155e7 -2.1659656736350942e7 0.0
0.0 0.0 0.0

3.620002229658503e6 5.300984056639075e6 0.0
5.300984056639075e6 -1.7799424285587847e7 0.0
0.0 0.0 0.0

2.442649962437069e6 9.94438347281331e6 0.0
9.94438347281331e6 -2.829228579803172e7 0.0
0.0 0.0 0.0

-2.2978378022234673e6 1.8186872904041413e7 0.0
1.8186872904041413e7 1.406037622460023e7 0.0
0.0 0.0 0.0

3.7443921658029584e6 7.154822516808937e6 0.0
7.154822516808937e6 -2.0153060323370796e7 0.0
0.0 0.0 0.0

-2.130124979670632e6 2.0010378944443725e7 0.0
2.0010378944443725e7 -4.754079553732263e6 0.0
0.0 0.0 0.0

-800078.1019349564 1.7373370090811778e7 0.0
1.7373370090811778e7 -1.0088730101152219e7 0.0
0.0 0.0 0.0

-2.0906927960188205e6 1.2356884688878337e7 0.0
1.2356884688878337e7 -4.350777619947541e6 0.0
0.0 0.0 0.0

-4.463220358207494e6 1.4006645632654345e7 0.0
1.4006645632654345e7 1.9233322552262703e6 0.0
0.0 0.0 0.0

-9.69122150404162e6 1.5330882547854071e7 0.0
1.5330882547854071e7 1.7117568355486184e7 0.0
0.0 0.0 0.0

2.777075843400037e6 9.36278965910487e6 0.0
9.36278965910487e6 -1.4536637591762843e7 0.0
0.0 0.0 0.0

-5.435031819095482e6 2.9933570057978734e7 0.0
2.9933570057978734e7 2.789278828248107e6 0.0
0.0 0.0 0.0

-5.700486230312454e6 2.6322285830475904e7 0.0
2.6322285830475904e7 4.5854348543042885e6 0.0
0.0 0.0 0.0

-9.44657010468914e6 1.6291955147778451e7 0.0
1.6291955147778451e7 1.803328994872115e7 0.0
0.0 0.0 0.0

-1.3419762107577622e6 1.392358652074517e7 0.0
1.392358652074517e7 -4.473253890588801e6 0.0
0.0 0.0 0.0

1.2118780066065257e6 1.4371982176828384e7 0.0
1.4371982176828384e7 -1.4229821935178515e7 0.0
0.0 0.0 0.0

3.8020862467408134e6 6.9682666053901e6 0.0
6.9682666053901e6 -1.8196014327021416e7 0.0
0.0 0.0 0.0

-4.2578710383900795e6 2.1120033083024073e7 0.0
2.1120033083024073e7 9.263326233598657e6 0.0
0.0 0.0 0.0

-1.275908785138664e7 7.123226661234024e6 0.0
7.123226661234024e6 1.7705599729574755e7 0.0
0.0 0.0 0.0

1.7694825003891143e6 2.3586197151229687e7 0.0
2.3586197151229687e7 -4.5834682061686935e6 0.0
0.0 0.0 0.0

-9.17588815692445e6 1.2555292514831366e6 0.0
1.2555292514831366e6 4.4732488849326976e7 0.0
0.0 0.0 0.0

-1.8041348145645845e6 1.743511910510329e7 0.0
1.743511910510329e7 -6.922940932490538e6 0.0
0.0 0.0 0.0

-9.613359960710581e6 -4.322694880074735e6 0.0
-4.322694880074735e6 2.229435636285711e7 0.0
0.0 0.0 0.0

-6.854344330820878e6 3.038641491379593e6 0.0
3.038641491379593e6 1.0484285412288934e7 0.0
0.0 0.0 0.0

3.281449240177711e6 5.722922229552278e6 0.0
5.722922229552278e6 -1.1533715682466961e7 0.0
0.0 0.0 0.0

-1.0689544711912375e7 1.2472589013705881e7 0.0
1.2472589013705881e7 2.7264481758751813e7 0.0
0.0 0.0 0.0

2.7800866821525265e6 1.0301705373482333e7 0.0
1.0301705373482333e7 -2.371057777275311e7 0.0
0.0 0.0 0.0

-1.9609369764563232e6 2.0123636546225414e7 0.0
2.0123636546225414e7 -2.793118704192954e6 0.0
0.0 0.0 0.0

-3.2982449877731744e6 2.014436127581754e7 0.0
2.014436127581754e7 3.8311221299251295e6 0.0
0.0 0.0 0.0

-1.8417528514088427e6 1.4834349242769614e7 0.0
1.4834349242769614e7 -2.8452462930645808e6 0.0
0.0 0.0 0.0

-3.470114606605627e6 2.048819418210602e7 0.0
2.048819418210602e7 5.775632714719395e6 0.0
0.0 0.0 0.0

1.2808876869020825e6 5.744249937071008e6 0.0
5.744249937071008e6 -7.150007532172095e6 0.0
0.0 0.0 0.0

-2.7759749190588864e6 1.7206457239158772e7 0.0
1.7206457239158772e7 -3.619012038619488e6 0.0
0.0 0.0 0.0

6.087338538796255e6 2.3581570767235775e7 0.0
2.3581570767235775e7 -5.359664973211188e6 0.0
0.0 0.0 0.0

1.046297507551501e6 9.203286810292492e6 0.0
9.203286810292492e6 -7.692284980426178e6 0.0
0.0 0.0 0.0

-117048.32425246993 1.4037878489463462e7 0.0
1.4037878489463462e7 -7.855316866629532e6 0.0
0.0 0.0 0.0

-3.7619672984018093e6 1.970797406588479e7 0.0
1.970797406588479e7 -4.986745041236599e6 0.0
0.0 0.0 0.0

-2.076219069136423e6 1.4428347521837119e7 0.0
1.4428347521837119e7 -1.91174128382718e6 0.0
0.0 0.0 0.0

7.708228337034329e6 1.971663674766356e7 0.0
1.971663674766356e7 -3.345728961122733e6 0.0
0.0 0.0 0.0

-1.098592149148216e6 4.568202537515538e6 0.0
4.568202537515538e6 -1.9238475289903937e6 0.0
0.0 0.0 0.0

3.853161028053513e6 4.8898225433758e6 0.0
4.8898225433758e6 -2.5797572387144104e7 0.0
0.0 0.0 0.0

-1.614033409397825e6 3.553604816096667e6 0.0
3.553604816096667e6 2.744370033729885e6 0.0
0.0 0.0 0.0

-1.8539061351883952e6 9.000154697661659e6 0.0
9.000154697661659e6 -2.8625230040950538e6 0.0
0.0 0.0 0.0

-2.121546937830933e6 1.5035635109730747e7 0.0
1.5035635109730747e7 -5.393920218436955e6 0.0
0.0 0.0 0.0

-6.352733509688513e6 4.418634669262814e6 0.0
4.418634669262814e6 9.961675476691484e6 0.0
0.0 0.0 0.0

2.5892407187815798e6 6.420015737739674e6 0.0
6.420015737739674e6 -8.95702965486882e6 0.0
0.0 0.0 0.0

139634.07163423812 1.7613380180806797e7 0.0
1.7613380180806797e7 -1.2014126115634073e7 0.0
0.0 0.0 0.0

-1.0928848328400338e6 8.547630668980222e6 0.0
8.547630668980222e6 -4.133640865744745e6 0.0
0.0 0.0 0.0

-2.3171098615903654e6 3.847076547575314e7 0.0
3.847076547575314e7 1.4526528960194555e6 0.0
0.0 0.0 0.0

7.852310358850469e6 1.946305917912569e7 0.0
1.946305917912569e7 8.616434056418153e6 0.0
0.0 0.0 0.0

-429121.87625313294 8.032117081605859e6 0.0
8.032117081605859e6 -5.088526038791004e6 0.0
0.0 0.0 0.0

-6.194227309214485e6 1.2650491620875552e7 0.0
1.2650491620875552e7 1.1026821225485435e7 0.0
0.0 0.0 0.0

1.989741082976115e6 4.383330849755876e6 0.0
4.383330849755876e6 -6.510798095736342e6 0.0
0.0 0.0 0.0

-1.191741553401863e7 6.85904849314735e6 0.0
6.85904849314735e6 2.5816201261091482e7 0.0
0.0 0.0 0.0

150727.23504851875 7.471916538379727e6 0.0
7.471916538379727e6 -6.099074252365567e6 0.0
0.0 0.0 0.0

-6.835221833921751e6 3.012040405537536e7 0.0
3.012040405537536e7 4.701714282027993e6 0.0
0.0 0.0 0.0

2.57351128023551e6 2.37871743022223e7 0.0
2.37871743022223e7 -4.625439013718847e6 0.0
0.0 0.0 0.0

4.03164990321175e6 6.32138255588331e6 0.0
6.32138255588331e6 -1.9041227030060675e7 0.0
0.0 0.0 0.0

-1.0210807465905822e6 1.7822843581630435e7 0.0
1.7822843581630435e7 -9.062176251098562e6 0.0
0.0 0.0 0.0

3.2357032116451077e6 7.188477700787767e6 0.0
7.188477700787767e6 -2.642873053141559e7 0.0
0.0 0.0 0.0

-2.553590494419077e6 1.5547775260281289e7 0.0
1.5547775260281289e7 -4.255444023740069e6 0.0
0.0 0.0 0.0

862482.0488271592 1.7725656900627077e7 0.0
1.7725656900627077e7 1.0280471009065919e7 0.0
0.0 0.0 0.0

4.687236796481196e6 2.3844601374184053e7 0.0
2.3844601374184053e7 -5.020382588448802e6 0.0
0.0 0.0 0.0

1.015097385293264e6 8.805338128756782e6 0.0
8.805338128756782e6 -6.85186576399301e6 0.0
0.0 0.0 0.0

2.5890490501857647e6 8.06639024705177e6 0.0
8.06639024705177e6 -1.1060382828605574e7 0.0
0.0 0.0 0.0

-499116.30585998634 1.0945394360118464e7 0.0
1.0945394360118464e7 -4.018323668954885e6 0.0
0.0 0.0 0.0

-6.818428406306883e6 2.671357479041811e7 0.0
2.671357479041811e7 4.807446542095741e6 0.0
0.0 0.0 0.0

-4.0425266832284005e6 1.3453729763876807e7 0.0
1.3453729763876807e7 567690.6931185098 0.0
0.0 0.0 0.0

3.839921863035814e6 2.7487968262015287e7 0.0
2.7487968262015287e7 -3.289468399307904e6 0.0
0.0 0.0 0.0

-1.6120575980191445e6 1.5210692405534226e7 0.0
1.5210692405534226e7 -3.732188339344282e6 0.0
0.0 0.0 0.0

3.48086146621163e6 1.7034118481490284e7 0.0
1.7034118481490284e7 1.7052279553531427e7 0.0
0.0 0.0 0.0

-3.234777616325019e6 1.9342938170797776e7 0.0
1.9342938170797776e7 -3.269728789999575e6 0.0
0.0 0.0 0.0

-2.249168478270048e6 2.1650716653675966e7 0.0
2.1650716653675966e7 -725475.3050135373 0.0
0.0 0.0 0.0

-618326.3942416245 1.701099563086871e7 0.0
1.701099563086871e7 -1.1745575322832359e7 0.0
0.0 0.0 0.0

-124025.05987477303 1.250746992505314e7 0.0
1.250746992505314e7 -3.066355085446017e7 0.0
0.0 0.0 0.0

-8.92550174557268e6 1.570905320265886e7 0.0
1.570905320265886e7 2.4917493225364532e7 0.0
0.0 0.0 0.0

847215.2280721148 1.065063197978141e7 0.0
1.065063197978141e7 -1.1302412700825073e7 0.0
0.0 0.0 0.0

-1.210664441695796e7 7.222263998320905e6 0.0
7.222263998320905e6 2.3916087192699652e7 0.0
0.0 0.0 0.0

2.4469740895863445e6 1.1339956155087698e7 0.0
1.1339956155087698e7 -2.150656528710384e7 0.0
0.0 0.0 0.0

-1.7352709051129785e6 1.1336585845494723e7 0.0
1.1336585845494723e7 -4.619305649803016e6 0.0
0.0 0.0 0.0

3.1614803703640974e6 4.358611017543365e6 0.0
4.358611017543365e6 -1.1517465556921996e7 0.0
0.0 0.0 0.0

-3.7735771606253926e6 1.6753454675684348e7 0.0
1.6753454675684348e7 110869.97950351401 0.0
0.0 0.0 0.0

-3.4684326420805138e6 2.106858679798576e7 0.0
2.106858679798576e7 1.6054629450469855e6 0.0
0.0 0.0 0.0

-592209.0790122587 2.4506555355951257e7 0.0
2.4506555355951257e7 -2.9204880388103207e6 0.0
0.0 0.0 0.0

-2.6847977724212245e6 1.6389025281825043e7 0.0
1.6389025281825043e7 -3.9312592664536024e6 0.0
0.0 0.0 0.0

2.574377364871855e6 5.805358218861911e6 0.0
5.805358218861911e6 -8.297082151867281e6 0.0
0.0 0.0 0.0

3.520712010512537e6 2.388652612011783e7 0.0
2.388652612011783e7 -4.812079617699715e6 0.0
0.0 0.0 0.0

-1.1846300883083124e7 8.426805857605219e6 0.0
8.426805857605219e6 1.9551183557216868e7 0.0
0.0 0.0 0.0

2.888364966386309e6 7.080240454634022e6 0.0
7.080240454634022e6 -3.2491183093363814e7 0.0
0.0 0.0 0.0

1.371168569752562e6 1.9382978306473494e7 0.0
1.9382978306473494e7 1.04001098970879e7 0.0
0.0 0.0 0.0

-3.5999132466208274e6 2.324488082170429e7 0.0
2.324488082170429e7 3.646284176537705e6 0.0
0.0 0.0 0.0

-2.0379608198722138e6 1.6003063289085422e7 0.0
1.6003063289085422e7 -9.508391473569145e6 0.0
0.0 0.0 0.0

-7.0141060135738235e6 1.6392100420269812e7 0.0
1.6392100420269812e7 2.5077128647672992e7 0.0
0.0 0.0 0.0

-3.6779480245546326e6 1.6778782452620335e7 0.0
1.6778782452620335e7 -1.225982666187063e7 0.0
0.0 0.0 0.0

-117505.50482921489 1.1691474095345419e7 0.0
1.1691474095345419e7 -9.302284591506086e6 0.0
0.0 0.0 0.0

578780.0549064255 1.7231800754389774e7 0.0
1.7231800754389774e7 1.2347315162509887e7 0.0
0.0 0.0 0.0

-1.7968382459240109e6 3.59499700711384e7 0.0
3.59499700711384e7 1.3959033164638644e6 0.0
0.0 0.0 0.0

-2.3397197226345586e6 1.9421135172140874e7 0.0
1.9421135172140874e7 -7.42067965113661e6 0.0
0.0 0.0 0.0

4.282027414948769e7 1.613536175579798e7 0.0
1.613536175579798e7 2.6537918726638723e6 0.0
0.0 0.0 0.0

-1.8397369752010107e6 1.2831203282424554e7 0.0
1.2831203282424554e7 -5.177162676564435e6 0.0
0.0 0.0 0.0

-3.555960547191537e6 1.710988036783465e7 0.0
1.710988036783465e7 -857882.253433095 0.0
0.0 0.0 0.0

1.0640011292274324e6 1.3117452571033657e7 0.0
1.3117452571033657e7 -1.4293342555207077e7 0.0
0.0 0.0 0.0

-275654.2363067386 2.496361197578546e7 0.0
2.496361197578546e7 -2.8810939877374964e6 0.0
0.0 0.0 0.0

3.532722024337679e6 5.9077411512738075e6 0.0
5.9077411512738075e6 -2.8485089984433636e7 0.0
0.0 0.0 0.0

264253.4052223973 7.955961953647542e6 0.0
7.955961953647542e6 -6.884874833211011e6 0.0
0.0 0.0 0.0

1.9171927608720046e6 1.058764452176789e7 0.0
1.058764452176789e7 -1.633994409611132e7 0.0
0.0 0.0 0.0

-5.008798118834967e6 1.941162655303064e7 0.0
1.941162655303064e7 1.2579356010941757e7 0.0
0.0 0.0 0.0

-2.840895313991781e6 1.799003178382465e7 0.0
1.799003178382465e7 -3.3201880409992225e6 0.0
0.0 0.0 0.0

-179306.33846451784 1.6319651315952564e7 0.0
1.6319651315952564e7 4.699972816812556e6 0.0
0.0 0.0 0.0

-954044.4437887857 1.195231873493605e7 0.0
1.195231873493605e7 -3.721451127892988e6 0.0
0.0 0.0 0.0

-1.9687261596800033e6 1.6900611655347213e7 0.0
1.6900611655347213e7 -3.1389261946477587e6 0.0
0.0 0.0 0.0

1.3504865290866499e6 1.6846283571506433e7 0.0
1.6846283571506433e7 -4.363766083348782e6 0.0
0.0 0.0 0.0

-1.1097954913759595e6 3.417756331628566e7 0.0
3.417756331628566e7 1.5991075854701311e6 0.0
0.0 0.0 0.0

-2.0737036307958972e6 1.7695223765829314e7 0.0
1.7695223765829314e7 -2.8563573400043845e6 0.0
0.0 0.0 0.0

-2.0235309011958279e6 6.262634336124226e6 0.0
6.262634336124226e6 2.095821570026865e6 0.0
0.0 0.0 0.0

2.0176518168263715e7 1.2037095441687271e7 0.0
1.2037095441687271e7 677809.7470854949 0.0
0.0 0.0 0.0

1.3606776146276165e6 9.11816116243506e6 0.0
9.11816116243506e6 -3.990191835924783e7 0.0
0.0 0.0 0.0

-2.7530999345694566e6 2.171098716731254e7 0.0
2.171098716731254e7 1.564461041981322e6 0.0
0.0 0.0 0.0

-3.9615126994279413e6 7.151637820695944e6 0.0
7.151637820695944e6 5.545659675862161e6 0.0
0.0 0.0 0.0

-1.2749627676887545e6 1.2376504100719206e7 0.0
1.2376504100719206e7 -6.234821714616788e6 0.0
0.0 0.0 0.0

276176.2922277963 1.07527064123754e7 0.0
1.07527064123754e7 -9.609738765581785e6 0.0
0.0 0.0 0.0

-962485.7341763899 3.2696292580299124e7 0.0
3.2696292580299124e7 1.1762410305862166e6 0.0
0.0 0.0 0.0

2.5353125786814187e6 9.53311412594441e6 0.0
9.53311412594441e6 -2.5018225066899225e7 0.0
0.0 0.0 0.0

-1.19852756310067e7 2.570831700826348e6 0.0
2.570831700826348e6 1.9846942661947727e7 0.0
0.0 0.0 0.0

-3.816780425705827e6 1.9069437066154398e7 0.0
1.9069437066154398e7 -9.497232508176357e6 0.0
0.0 0.0 0.0

-5.437790502809429e6 6.12694264129888e6 0.0
6.12694264129888e6 8.735255833067954e6 0.0
0.0 0.0 0.0

-1.6606494903681353e6 1.6691612699905336e7 0.0
1.6691612699905336e7 -7.293668512789408e6 0.0
0.0 0.0 0.0

-3.298527191875432e6 1.818592815864705e7 0.0
1.818592815864705e7 -1.4529573044384932e6 0.0
0.0 0.0 0.0

887724.5728546446 1.4221190206102362e7 0.0
1.4221190206102362e7 -1.767123653320875e7 0.0
0.0 0.0 0.0

-1.0495820993295945e6 3.148139124734969e7 0.0
3.148139124734969e7 1.0484454487488312e6 0.0
0.0 0.0 0.0

-4.716968680104496e6 1.9969965730924804e7 0.0
1.9969965730924804e7 1.1410847568100527e7 0.0
0.0 0.0 0.0

-2.144364204381349e6 1.8457733595896002e7 0.0
1.8457733595896002e7 -2.595197440895278e6 0.0
0.0 0.0 0.0

3.3643124561548736e6 6.55312747855551e6 0.0
6.55312747855551e6 -2.754007543904073e7 0.0
0.0 0.0 0.0

-3.1178951154853646e6 9.145929827605603e6 0.0
9.145929827605603e6 3.18755346757998e6 0.0
0.0 0.0 0.0

-792631.2758579543 3.0532566978366546e7 0.0
3.0532566978366546e7 1.151551836315816e6 0.0
0.0 0.0 0.0

2.2829679670482203e6 8.212474759195261e6 0.0
8.212474759195261e6 -4.174655568818308e7 0.0
0.0 0.0 0.0

-654724.518324673 2.972700176911526e7 0.0
2.972700176911526e7 1.0739788852320765e6 0.0
0.0 0.0 0.0

-709865.7356700989 2.8994767504386567e7 0.0
2.8994767504386567e7 882332.2783489663 0.0
0.0 0.0 0.0

-2.4773110853864597e6 2.3612067177555762e7 0.0
2.3612067177555762e7 -437402.20392589463 0.0
0.0 0.0 0.0

-2.3728935709515056e6 2.411761990624017e7 0.0
2.411761990624017e7 -258684.7788145385 0.0
0.0 0.0 0.0

-2.2927052186601227e6 2.4610367154028162e7 0.0
2.4610367154028162e7 -112794.56525852135 0.0
0.0 0.0 0.0

-2.2031226845055055e6 2.507523099498923e7 0.0
2.507523099498923e7 -39002.182197891874 0.0
0.0 0.0 0.0

-2.1442164270538767e6 2.5539709703782823e7 0.0
2.5539709703782823e7 85119.94442838349 0.0
0.0 0.0 0.0

-2.0791314542729023e6 2.6024313108421426e7 0.0
2.6024313108421426e7 113417.32875168242 0.0
0.0 0.0 0.0

-6.39956800724989e6 1.253989025234331e7 0.0
1.253989025234331e7 7.036480210416231e6 0.0
0.0 0.0 0.0

-1.957170966928849e6 2.6503318572772697e7 0.0
2.6503318572772697e7 220331.90859754395 0.0
0.0 0.0 0.0

-2.0113458299345835e6 2.7021173984497417e7 0.0
2.7021173984497417e7 260318.19260588242 0.0
0.0 0.0 0.0

-9.344914648521423e6 1.4590000152573422e7 0.0
1.4590000152573422e7 1.832580361491065e7 0.0
0.0 0.0 0.0

-815786.4582249395 2.8355400066703796e7 0.0
2.8355400066703796e7 864098.4472530041 0.0
0.0 0.0 0.0

-2.0790148120009203e6 2.7489315723892875e7 0.0
2.7489315723892875e7 315987.9179795722 0.0
0.0 0.0 0.0

-1.9789428426604632e6 2.8074241597432826e7 0.0
2.8074241597432826e7 431067.0818241305 0.0
0.0 0.0 0.0

-902453.6925884183 2.7805880859383702e7 0.0
2.7805880859383702e7 811527.9427615858 0.0
0.0 0.0 0.0

-1.3801628612084284e6 1.4319080215441344e7 0.0
1.4319080215441344e7 -4.020283477516503e6 0.0
0.0 0.0 0.0

-2.113128939788358e6 2.868413903442397e7 0.0
2.868413903442397e7 395355.6953823613 0.0
0.0 0.0 0.0

-1.1476110259252659e6 2.7252025822663497e7 0.0
2.7252025822663497e7 637307.9598545698 0.0
0.0 0.0 0.0

-1.0162366102111498e6 2.6745431408876196e7 0.0
2.6745431408876196e7 623399.7633757003 0.0
0.0 0.0 0.0

-1.2403592436920204e6 2.6297355612868257e7 0.0
2.6297355612868257e7 542458.4498675128 0.0
0.0 0.0 0.0

-1.42310535135391e6 2.5790700177526694e7 0.0
2.5790700177526694e7 477915.85199422785 0.0
0.0 0.0 0.0

-1.516797412251808e6 2.5344017337329682e7 0.0
2.5344017337329682e7 384057.44318378856 0.0
0.0 0.0 0.0

-1.7098163073863774e6 2.4866064939253215e7 0.0
2.4866064939253215e7 296328.6708431074 0.0
0.0 0.0 0.0

-1.7664311385529586e6 2.4408968409944717e7 0.0
2.4408968409944717e7 203515.4229340218 0.0
0.0 0.0 0.0

-1.860378853834742e6 2.3919274700373877e7 0.0
2.3919274700373877e7 53778.44292944262 0.0
0.0 0.0 0.0

-2.572580726928992e6 2.036492105301672e7 0.0
2.036492105301672e7 -3.174483567806485e6 0.0
0.0 0.0 0.0

-8.728863698455997e6 1.6182412054223275e7 0.0
1.6182412054223275e7 2.3705409343785822e7 0.0
0.0 0.0 0.0

-2.372224018097463e6 2.9320218758593585e7 0.0
2.9320218758593585e7 436710.32789834496 0.0
0.0 0.0 0.0

2.9963123209118163e6 7.846583417803039e6 0.0
7.846583417803039e6 -1.9392237019850202e7 0.0
0.0 0.0 0.0

-3.028339592508404e6 2.0127740860566664e7 0.0
2.0127740860566664e7 2.023921512247383e6 0.0
0.0 0.0 0.0

-2.793014949789228e6 3.0132923959916275e7 0.0
3.0132923959916275e7 525760.3150632469 0.0
0.0 0.0 0.0

-1.14286602532751e7 9.607271754090536e6 0.0
9.607271754090536e6 1.8734669052264124e7 0.0
0.0 0.0 0.0

-3.3721940232378896e6 3.1070132773582354e7 0.0
3.1070132773582354e7 429330.67065941496 0.0
0.0 0.0 0.0

-1.2094590115182292e7 8.071143386915575e6 0.0
8.071143386915575e6 2.0877761422660284e7 0.0
0.0 0.0 0.0

-4.1259744982566535e6 3.208522827039518e7 0.0
3.208522827039518e7 249729.03085746127 0.0
0.0 0.0 0.0

68920.9130084971 1.6608078700077591e7 0.0
1.6608078700077591e7 -1.378769740484159e7 0.0
0.0 0.0 0.0

2.604905630465662e6 1.0212415624382827e7 0.0
1.0212415624382827e7 -1.57423583670744e7 0.0
0.0 0.0 0.0

106112.62940884009 1.2657712944675604e7 0.0
1.2657712944675604e7 -2.8599874970137045e7 0.0
0.0 0.0 0.0

-2.3592231583593157e6 1.8196745339853775e7 0.0
1.8196745339853775e7 -1.7832456223452701e6 0.0
0.0 0.0 0.0

-1.0189131607968248e6 1.4346011347269827e7 0.0
1.4346011347269827e7 -8.332476890977861e6 0.0
0.0 0.0 0.0

-2.1578887154033026e6 1.9352765156169318e7 0.0
1.9352765156169318e7 -5.177796370742552e6 0.0
0.0 0.0 0.0

25304.106790157966 1.6770962682705807e7 0.0
1.6770962682705807e7 -1.3811478517353661e7 0.0
0.0 0.0 0.0

4.678038119543336e6 2.70396718724002e6 0.0
2.70396718724002e6 -2.326533635075114e7 0.0
0.0 0.0 0.0

-3.6803933131898013e6 1.1747642852843326e7 0.0
1.1747642852843326e7 3.843752621561217e6 0.0
0.0 0.0 0.0

-5.019881902578875e6 3.3358698108728435e7 0.0
3.3358698108728435e7 317804.6696306111 0.0
0.0 0.0 0.0

2.1450824529315736e6 1.0924566226134518e7 0.0
1.0924566226134518e7 -1.3393137807028474e7 0.0
0.0 0.0 0.0

-1.2183961967216207e7 8.63759474584276e6 0.0
8.63759474584276e6 2.3052150142643645e7 0.0
0.0 0.0 0.0

-1.8068276372103598e6 1.6073677613792395e7 0.0
1.6073677613792395e7 -3.442497049614639e6 0.0
0.0 0.0 0.0

-1.0216460867792123e6 2.5584172764851004e7 0.0
2.5584172764851004e7 -786836.9367204261 0.0
0.0 0.0 0.0

3.220775222275721e6 7.214206755208084e6 0.0
7.214206755208084e6 -2.0336930696607098e7 0.0
0.0 0.0 0.0

-1.003036596475376e7 3.037618026185735e7 0.0
3.037618026185735e7 4.884390437235165e6 0.0
0.0 0.0 0.0

-6.46503205042273e6 1.4188520637166705e7 0.0
1.4188520637166705e7 8.350581280437516e6 0.0
0.0 0.0 0.0

-1.4269256839317566e7 2.3411844376849182e7 0.0
2.3411844376849182e7 4.208889152522352e6 0.0
0.0 0.0 0.0

1.1058458822824913e6 1.6698981882571597e7 0.0
1.6698981882571597e7 1.051031050616311e7 0.0
0.0 0.0 0.0

-6.873924263967991e6 3.520265765411993e7 0.0
3.520265765411993e7 226499.29669128032 0.0
0.0 0.0 0.0

2.1392169327627933e6 1.0606171476444097e7 0.0
1.0606171476444097e7 -2.4187534793339036e7 0.0
0.0 0.0 0.0

-5.257219667165556e6 1.3997102758217033e7 0.0
1.3997102758217033e7 4.491137637539026e6 0.0
0.0 0.0 0.0

1.03532800045629e6 1.4882622171068588e7 0.0
1.4882622171068588e7 3.451093744625762e6 0.0
0.0 0.0 0.0

2.5679663476411095e6 8.622457794540986e6 0.0
8.622457794540986e6 -1.7037081822210558e7 0.0
0.0 0.0 0.0

289857.4151308752 1.74903298928954e7 0.0
1.74903298928954e7 3.1912278085448844e6 0.0
0.0 0.0 0.0

2.780570539222504e6 8.478776416858621e6 0.0
8.478776416858621e6 -1.847689341804001e7 0.0
0.0 0.0 0.0

-194005.98782498448 1.4619356799560353e7 0.0
1.4619356799560353e7 -2.568122302356911e6 0.0
0.0 0.0 0.0

-2.612392138519104e6 1.8660286525582176e7 0.0
1.8660286525582176e7 -724324.0726840146 0.0
0.0 0.0 0.0

-2.866414607776555e6 1.873697974065596e7 0.0
1.873697974065596e7 -3.0351407705730256e6 0.0
0.0 0.0 0.0

2.0445340996815795e6 8.92400513911299e6 0.0
8.92400513911299e6 -1.3987066869032156e7 0.0
0.0 0.0 0.0

1.8542658202379283e7 1.9804448149221443e7 0.0
1.9804448149221443e7 7.857901181911549e6 0.0
0.0 0.0 0.0

1.7584639661239134e6 1.1806684311587386e7 0.0
1.1806684311587386e7 -1.3102062037316898e7 0.0
0.0 0.0 0.0

-537085.9041397064 1.4546886343704924e7 0.0
1.4546886343704924e7 -6.781197241989004e6 0.0
0.0 0.0 0.0

-4.995110736776559e6 2.0075651097369134e7 0.0
2.0075651097369134e7 5.7901818979396e6 0.0
0.0 0.0 0.0

786000.4546884242 1.089926140110867e7 0.0
1.089926140110867e7 -7.989729002833002e6 0.0
0.0 0.0 0.0

-4.611231709674433e6 2.0543375660129275e7 0.0
2.0543375660129275e7 1.018136115477234e7 0.0
0.0 0.0 0.0

2.487541673589724e6 1.6478335346104175e7 0.0
1.6478335346104175e7 1.7830382719239615e7 0.0
0.0 0.0 0.0

-8.910567772178285e6 1.1065569743219223e7 0.0
1.1065569743219223e7 1.5375043179404503e7 0.0
0.0 0.0 0.0

-9.720711350406047e6 3.729438279702933e7 0.0
3.729438279702933e7 -377051.3836772903 0.0
0.0 0.0 0.0

-2.1958603657634147e6 1.6563063328908777e7 0.0
1.6563063328908777e7 3.203436615149102e7 0.0
0.0 0.0 0.0

-3.3729420205100253e6 1.4399876894779954e7 0.0
1.4399876894779954e7 -1.5406885375189958e6 0.0
0.0 0.0 0.0

7.50428563747675e6 1.749330864158041e7 0.0
1.749330864158041e7 1.6138256747561204e6 0.0
0.0 0.0 0.0

3.491662436012516e6 6.756056697507789e6 0.0
6.756056697507789e6 -2.2751835238252778e7 0.0
0.0 0.0 0.0

1.7087026648159046e6 1.0807302483798156e7 0.0
1.0807302483798156e7 -2.735057041471559e7 0.0
0.0 0.0 0.0

-5.832877400062284e6 1.6882741953486077e7 0.0
1.6882741953486077e7 9.972996711756747e6 0.0
0.0 0.0 0.0

-9.988682200291663e6 2.2775707792184222e7 0.0
2.2775707792184222e7 -6.429469786733439e6 0.0
0.0 0.0 0.0

-2.987321885063663e6 1.638206843065552e7 0.0
1.638206843065552e7 711969.6232520572 0.0
0.0 0.0 0.0

-221471.92951858323 1.4774072383596828e7 0.0
1.4774072383596828e7 -1.1190479586763712e7 0.0
0.0 0.0 0.0

-1.3529243140767017e7 2.9450804195109785e7 0.0
2.9450804195109785e7 6.434747786998096e6 0.0
0.0 0.0 0.0

1.8656373532211864e6 1.097148566660113e7 0.0
1.097148566660113e7 -1.687844921246695e7 0.0
0.0 0.0 0.0

-3.031489220180624e6 1.72395393461108e7 0.0
1.72395393461108e7 867461.1152307114 0.0
0.0 0.0 0.0

-3.553850471428548e6 8.2053224602491185e6 0.0
8.2053224602491185e6 4.390020228765361e6 0.0
0.0 0.0 0.0

-4.531081129261665e6 1.6699669706289716e7 0.0
1.6699669706289716e7 8.542481400121285e6 0.0
0.0 0.0 0.0

-1.0444469174026502e7 5.5354994035419926e7 0.0
5.5354994035419926e7 -697752.8782006833 0.0
0.0 0.0 0.0

-7.731879370435706e6 1.208062766919418e7 0.0
1.208062766919418e7 1.3877714350664884e7 0.0
0.0 0.0 0.0

-2.6937618021005327e6 6.442083901566983e6 0.0
6.442083901566983e6 -168265.1984662332 0.0
0.0 0.0 0.0

-2.3925754101665e6 1.967522936132345e7 0.0
1.967522936132345e7 -1.3040310818879516e6 0.0
0.0 0.0 0.0

-3.809015380351919e6 1.9742022477089975e7 0.0
1.9742022477089975e7 3.281429465122968e6 0.0
0.0 0.0 0.0

-859232.0899635612 1.7391967502304114e7 0.0
1.7391967502304114e7 -7.179866728027048e6 0.0
0.0 0.0 0.0

-3.0603211894312827e6 1.9231314214263476e7 0.0
1.9231314214263476e7 -1.9906820287975646e6 0.0
0.0 0.0 0.0

-8.032458217941881e6 1.340810185680078e6 0.0
1.340810185680078e6 1.0614574187155262e7 0.0
0.0 0.0 0.0

108472.54256326519 1.5757042726996794e7 0.0
1.5757042726996794e7 -4.105459726518711e6 0.0
0.0 0.0 0.0

-3.792696590931787e6 2.0416659760275923e7 0.0
2.0416659760275923e7 3.3740702049616775e6 0.0
0.0 0.0 0.0

1.2700392290671123e6 1.0081905584061323e7 0.0
1.0081905584061323e7 -1.2214303663301656e7 0.0
0.0 0.0 0.0

555039.8437317284 1.6146059532162353e7 0.0
1.6146059532162353e7 -3.3312970133876824e6 0.0
0.0 0.0 0.0

-1.6475645588673946e7 2.2355423491549596e7 0.0
2.2355423491549596e7 1.9223708680659095e6 0.0
0.0 0.0 0.0

-6.54256960603262e6 1.2967896267352749e7 0.0
1.2967896267352749e7 1.2276689602868298e7 0.0
0.0 0.0 0.0

204496.41723878402 1.6155589044494405e7 0.0
1.6155589044494405e7 -1.4778537754641615e7 0.0
0.0 0.0 0.0

-3.898681235268135e6 2.0813626955877174e7 0.0
2.0813626955877174e7 5.215953978861095e6 0.0
0.0 0.0 0.0

3.7826156987604843e6 3.0591647278495175e6 0.0
3.0591647278495175e6 -1.3215263884408936e7 0.0
0.0 0.0 0.0

-3.204733127290134e6 -781382.3416003328 0.0
-781382.3416003328 2.6953317955291793e6 0.0
0.0 0.0 0.0

-1.2586422077249892e6 141811.62319290882 0.0
141811.62319290882 1.1474540097094742e6 0.0
0.0 0.0 0.0

-8.482604828991415e6 -6.590546244740574e6 0.0
-6.590546244740574e6 2.1592469424797066e7 0.0
0.0 0.0 0.0

-266813.846044077 1.4074828062515862e6 0.0
1.4074828062515862e6 -812843.2920613228 0.0
0.0 0.0 0.0

-7.831366263002281e6 -6.887103518771438e6 0.0
-6.887103518771438e6 1.9053651471891e7 0.0
0.0 0.0 0.0

3.5963059000869486e6 3.221626343388312e6 0.0
3.221626343388312e6 -1.0643595402497193e7 0.0
0.0 0.0 0.0

-3.934669097294096e6 -4.0899660375600313e6 0.0
-4.0899660375600313e6 5.674605549552201e6 0.0
0.0 0.0 0.0

-5.6865304067286085e6 -6.892170458558655e6 0.0
-6.892170458558655e6 1.1113428268632077e7 0.0
0.0 0.0 0.0

586712.4052875899 2.299803133683567e6 0.0
2.299803133683567e6 -2.654016119902745e6 0.0
0.0 0.0 0.0

-6.965026664607882e6 -7.328985049548829e6 0.0
-7.328985049548829e6 1.6096740077584662e7 0.0
0.0 0.0 0.0

2.867813850282243e6 3.294172192541315e6 0.0
3.294172192541315e6 -7.968242507992954e6 0.0
0.0 0.0 0.0

1.906209527450343e6 3.1076953958655465e6 0.0
3.1076953958655465e6 -5.3934260945364665e6 0.0
0.0 0.0 0.0

-3.2481935683249775e6 -1.6191704971733836e6 0.0
-1.6191704971733836e6 3.4906287665952565e6 0.0
0.0 0.0 0.0

4.636865433922517e6 2.788967252068333e6 0.0
2.788967252068333e6 -2.1109144520980805e7 0.0
0.0 0.0 0.0

4.750115180154663e6 2.69109764267504e6 0.0
2.69109764267504e6 -2.2754851015293553e7 0.0
0.0 0.0 0.0

4.5686774298403505e6 2.8150222259756294e6 0.0
2.8150222259756294e6 -1.949054963767937e7 0.0
0.0 0.0 0.0

4.517019436654412e6 2.965323615707888e6 0.0
2.965323615707888e6 -1.694659862221584e7 0.0
0.0 0.0 0.0

-4.36630915957647e6 -2.6761451498614815e6 0.0
-2.6761451498614815e6 5.061336706746581e6 0.0
0.0 0.0 0.0

-7.194523715582378e6 -7.10098762453584e6 0.0
-7.10098762453584e6 1.74643421727951e7 0.0
0.0 0.0 0.0

4.703071665002648e6 2.7900905159049784e6 0.0
2.7900905159049784e6 -2.200920633967478e7 0.0
0.0 0.0 0.0

3.988121892702705e6 3.0082398526936527e6 0.0
3.0082398526936527e6 -1.5045106145174503e7 0.0
0.0 0.0 0.0

4.216137198957013e6 2.9740503546916423e6 0.0
2.9740503546916423e6 -1.5984804087467993e7 0.0
0.0 0.0 0.0

4.0650783939646846e6 3.0340071049149963e6 0.0
3.0340071049149963e6 -1.4254443378607128e7 0.0
0.0 0.0 0.0

925664.2210388491 1.4886298236013021e7 0.0
1.4886298236013021e7 -1.333309361028919e7 0.0
0.0 0.0 0.0

-1.0545293632156331e7 1.0612037981943566e7 0.0
1.0612037981943566e7 1.776763099393986e7 0.0
0.0 0.0 0.0

-1.2586162604353558e7 5.784077677230364e6 0.0
5.784077677230364e6 2.2112959786418986e7 0.0
0.0 0.0 0.0

-4.418744405119456e6 2.117258317657133e7 0.0
2.117258317657133e7 9.14441196190755e6 0.0
0.0 0.0 0.0

-367971.708527823 1.4798699098195994e7 0.0
1.4798699098195994e7 -2.0309512651319023e7 0.0
0.0 0.0 0.0

-4.359261953447856e6 1.743342707146519e7 0.0
1.743342707146519e7 3.230755184000437e6 0.0
0.0 0.0 0.0

-1.4205737034938196e7 4.0373002482690535e7 0.0
4.0373002482690535e7 -1.0291748833532259e6 0.0
0.0 0.0 0.0

-3.4762021895688935e6 1.5345928592955142e7 0.0
1.5345928592955142e7 -1.2877445723270606e6 0.0
0.0 0.0 0.0

-3.719291693684696e6 1.788462375365903e7 0.0
1.788462375365903e7 -1.1344507688570833e7 0.0
0.0 0.0 0.0

5.822037672264401e6 1.9616156544123128e7 0.0
1.9616156544123128e7 8.446082322614549e6 0.0
0.0 0.0 0.0

-3.018139177650861e6 1.8262102143458813e7 0.0
1.8262102143458813e7 7.13343693718466e6 0.0
0.0 0.0 0.0

-4.276026061766695e6 1.7567176724280957e7 0.0
1.7567176724280957e7 8.254653276178457e6 0.0
0.0 0.0 0.0

246375.71059750253 1.80393396526543e7 0.0
1.80393396526543e7 -1.1112905119487928e7 0.0
0.0 0.0 0.0

-4.9788997024201e6 1.6058647211574815e7 0.0
1.6058647211574815e7 9.895409115808176e6 0.0
0.0 0.0 0.0

-3.164884613025862e6 1.9717299869213484e7 0.0
1.9717299869213484e7 -1.0464048895443648e6 0.0
0.0 0.0 0.0

-2.6088644023156203e6 1.8238697560345106e7 0.0
1.8238697560345106e7 -4.091199921762547e6 0.0
0.0 0.0 0.0

-6.890851773936331e6 1.2918462079939866e7 0.0
1.2918462079939866e7 8.542455739314588e6 0.0
0.0 0.0 0.0

-585614.575664822 1.3852089938258458e7 0.0
1.3852089938258458e7 -9.367011067417488e6 0.0
0.0 0.0 0.0

-3.249776796738528e6 1.5993288056463767e7 0.0
1.5993288056463767e7 1.7500960392460064e6 0.0
0.0 0.0 0.0

1.6742774035065537e6 9.513738572083555e6 0.0
9.513738572083555e6 -1.3088700418883987e7 0.0
0.0 0.0 0.0

-2.622143470138882e6 -1.2056591279457158e6 0.0
-1.2056591279457158e6 5.209066341797049e6 0.0
0.0 0.0 0.0

-1.694352555142495e6 127889.1686197492 0.0
127889.1686197492 3.36403250108929e6 0.0
0.0 0.0 0.0

-7.232188158608093e6 -7.14485680051281e6 0.0
-7.14485680051281e6 1.6817617272193234e7 0.0
0.0 0.0 0.0

-3.0032989057065537e6 -1.8384124687656062e6 0.0
-1.8384124687656062e6 6.751666957961245e6 0.0
0.0 0.0 0.0

-3.086855430714126e6 -3.517393523983321e6 0.0
-3.517393523983321e6 7.742823195319174e6 0.0
0.0 0.0 0.0

4.619052562811042e6 2.7791169035836644e6 0.0
2.7791169035836644e6 -2.124457530001429e7 0.0
0.0 0.0 0.0

4.608647830027319e6 2.7172133278657594e6 0.0
2.7172133278657594e6 -2.190257844400241e7 0.0
0.0 0.0 0.0

-7.6670372678315705e6 -6.844150905952505e6 0.0
-6.844150905952505e6 1.8502305645140253e7 0.0
0.0 0.0 0.0

4.270338861497485e6 3.0263173944497886e6 0.0
3.0263173944497886e6 -1.6359783086419806e7 0.0
0.0 0.0 0.0

3.9977521317209676e6 3.155632100065944e6 0.0
3.155632100065944e6 -1.3423853877059687e7 0.0
0.0 0.0 0.0

4.1281650524071353e6 3.06570058866722e6 0.0
3.06570058866722e6 -1.5123242970829101e7 0.0
0.0 0.0 0.0

4.057063372081697e6 3.028219963687494e6 0.0
3.028219963687494e6 -1.4273819704446632e7 0.0
0.0 0.0 0.0

-4.103553272418986e6 1.4502056376109814e7 0.0
1.4502056376109814e7 771716.9142663432 0.0
0.0 0.0 0.0

-8.569450220644552e6 1.660508119035325e7 0.0
1.660508119035325e7 2.2518381122924127e7 0.0
0.0 0.0 0.0

-5.839051371882447e6 1.5659561654101564e7 0.0
1.5659561654101564e7 1.2392143072903644e7 0.0
0.0 0.0 0.0

4.1629676117445594e6 5.790187343814915e6 0.0
5.790187343814915e6 -1.8841456595935855e7 0.0
0.0 0.0 0.0

-1.7105174223820555e6 2.154134750239617e7 0.0
2.154134750239617e7 -4.251442620114845e6 0.0
0.0 0.0 0.0

-2.651488884990721e6 1.8233828953136347e7 0.0
1.8233828953136347e7 1.700541505525908e7 0.0
0.0 0.0 0.0

-1.2141257611594427e7 1.2655000063754328e7 0.0
1.2655000063754328e7 1.9179725419907607e7 0.0
0.0 0.0 0.0

2.302592780924366e6 9.21158732238666e6 0.0
9.21158732238666e6 -1.6106923693231858e7 0.0
0.0 0.0 0.0

1.8246383454316882e6 1.1335342601992987e7 0.0
1.1335342601992987e7 -1.7310905041288566e7 0.0
0.0 0.0 0.0

-2.5524791735396865e6 1.748382889506826e7 0.0
1.748382889506826e7 -4.40145995387995e6 0.0
0.0 0.0 0.0

-3.7496647311141947e6 1.805913344796584e7 0.0
1.805913344796584e7 1.897202552967462e7 0.0
0.0 0.0 0.0

-3.45937447043032e6 1.0487555289012684e7 0.0
1.0487555289012684e7 3.5591767831163756e6 0.0
0.0 0.0 0.0

-1.1352303715150314e6 1.7916679495311145e7 0.0
1.7916679495311145e7 -6.164529196900185e6 0.0
0.0 0.0 0.0

-2.4560645915845865e6 2.147098107351549e7 0.0
2.147098107351549e7 33839.7085534574 0.0
0.0 0.0 0.0

1.3502711456964305e6 1.2629357199384766e7 0.0
1.2629357199384766e7 -1.2945786003515664e7 0.0
0.0 0.0 0.0

-2.400407101825249e6 1.8947127347600207e7 0.0
1.8947127347600207e7 -1.535564291729045e6 0.0
0.0 0.0 0.0

1.319016719104642e6 3.3012603040287243e6 0.0
3.3012603040287243e6 2.130139070481827e6 0.0
0.0 0.0 0.0

-4.125332906549724e6 1.8221224231495973e7 0.0
1.8221224231495973e7 1.826911783922571e7 0.0
0.0 0.0 0.0

2.0438429632182177e6 9.762084208984768e6 0.0
9.762084208984768e6 -3.1954658766003996e7 0.0
0.0 0.0 0.0

1.9775030373601168e6 1.0651680977503428e7 0.0
1.0651680977503428e7 -2.5771318202174067e7 0.0
0.0 0.0 0.0

-999799.600365676 1.717661563747745e7 0.0
1.717661563747745e7 -6.5198022332260655e6 0.0
0.0 0.0 0.0

-8.671870491126548e6 2.147753918185226e7 0.0
2.147753918185226e7 4.790729719863882e6 0.0
0.0 0.0 0.0

2.9557538474014015e6 6.323564504938639e6 0.0
6.323564504938639e6 -1.0529954076399706e7 0.0
0.0 0.0 0.0

-2.912633867716532e6 1.548552640233446e7 0.0
1.548552640233446e7 558508.4849630747 0.0
0.0 0.0 0.0

-3.0919180116448333e6 1.848812450260307e7 0.0
1.848812450260307e7 -2.2441143509963863e6 0.0
0.0 0.0 0.0

-2.173271079021979e6 1.9198851235586878e7 0.0
1.9198851235586878e7 -2.320237606163334e6 0.0
0.0 0.0 0.0

-440420.2783329999 1.479819534414947e7 0.0
1.479819534414947e7 -2.203800236635687e7 0.0
0.0 0.0 0.0

2.0092347774871746e6 1.1115983052843431e7 0.0
1.1115983052843431e7 -2.1632823011178575e7 0.0
0.0 0.0 0.0

-4.811435013122363e6 1.1010342893570041e7 0.0
1.1010342893570041e7 2.7376870233485675e6 0.0
0.0 0.0 0.0

-5.68468893903193e6 1.6599101387701273e7 0.0
1.6599101387701273e7 8.96117594895338e6 0.0
0.0 0.0 0.0

836111.9898098726 1.3532491396221183e7 0.0
1.3532491396221183e7 -2.278483120174027e7 0.0
0.0 0.0 0.0

-1.522103847482701e6 1.9817290716785643e7 0.0
1.9817290716785643e7 -4.456272729644405e6 0.0
0.0 0.0 0.0

2.309847466499124e6 3.165758829676931e6 0.0
3.165758829676931e6 -6.312277479090605e6 0.0
0.0 0.0 0.0

2.6761851495951586e6 2.713219041277718e7 0.0
2.713219041277718e7 -2.8515460627656467e6 0.0
0.0 0.0 0.0

2.546349121587515e6 7.00902730628997e6 0.0
7.00902730628997e6 -9.731395564337598e6 0.0
0.0 0.0 0.0

-1.0919815485675526e6 1.3390570552149406e7 0.0
1.3390570552149406e7 -4.304500584484329e6 0.0
0.0 0.0 0.0

-5.214818554964656e6 1.894205860108408e7 0.0
1.894205860108408e7 1.089450274420954e7 0.0
0.0 0.0 0.0

-2.902288401335929e6 1.2975715317723729e7 0.0
1.2975715317723729e7 1.3308321651430684e6 0.0
0.0 0.0 0.0

-3.07283444244597e6 1.4801699179614227e7 0.0
1.4801699179614227e7 -2.496690139945604e6 0.0
0.0 0.0 0.0

-3.2754296960801757e6 1.895427919283336e7 0.0
1.895427919283336e7 -1.2021691440942006e6 0.0
0.0 0.0 0.0

-4.598404164945361e6 9.683235374787282e6 0.0
9.683235374787282e6 2.355024045880058e6 0.0
0.0 0.0 0.0

-6.968818010331623e6 131669.37571007828 0.0
131669.37571007828 1.0382103349321822e7 0.0
0.0 0.0 0.0

-4.8121099452917725e6 1.575075040372087e7 0.0
1.575075040372087e7 8.834571241161931e6 0.0
0.0 0.0 0.0

-3.8226564030372547e6 1.7435498661955953e7 0.0
1.7435498661955953e7 5.020081498696043e6 0.0
0.0 0.0 0.0

639930.6868236675 6.8669590343034975e6 0.0
6.8669590343034975e6 -6.9604079037723e6 0.0
0.0 0.0 0.0

-5.809695591270329e6 1.3945168336846048e7 0.0
1.3945168336846048e7 1.0632841448683003e7 0.0
0.0 0.0 0.0

-2.8452709234596374e6 1.9475379930070676e7 0.0
1.9475379930070676e7 -2.760719295203922e6 0.0
0.0 0.0 0.0

3.447574702313207e6 8.651913503820674e6 0.0
8.651913503820674e6 -2.250655251404187e7 0.0
0.0 0.0 0.0

-7.483755863165157e6 2.16923705784822e7 0.0
2.16923705784822e7 4.0921173264215807e6 0.0
0.0 0.0 0.0

-2.4590375043401206e6 1.6693839979313584e7 0.0
1.6693839979313584e7 -4.721540921627514e6 0.0
0.0 0.0 0.0

2.1133487378567364e6 3.2257200362659167e6 0.0
3.2257200362659167e6 -5.481288113373993e6 0.0
0.0 0.0 0.0

-4.323805534951573e6 2.2831091788180154e7 0.0
2.2831091788180154e7 6.393095821561184e6 0.0
0.0 0.0 0.0

-1.2276015822871696e7 7.575562429834325e6 0.0
7.575562429834325e6 1.6256063854426682e7 0.0
0.0 0.0 0.0

-2.929720199041703e6 1.6065616422096528e7 0.0
1.6065616422096528e7 -3.1163128063171627e6 0.0
0.0 0.0 0.0

-2.1595271528216177e6 2.057600091982336e7 0.0
2.057600091982336e7 -1.8591822963178009e6 0.0
0.0 0.0 0.0

-3.063171120572675e6 2.110941432656884e7 0.0
2.110941432656884e7 -582087.0716396398 0.0
0.0 0.0 0.0

-2.632190882601181e6 1.8973575786246657e7 0.0
1.8973575786246657e7 -3.790765079999912e6 0.0
0.0 0.0 0.0

-2.8216136601847736e6 1.910289886550941e7 0.0
1.910289886550941e7 271596.95503575564 0.0
0.0 0.0 0.0

3.083225876399041e6 3.24925867261275e6 0.0
3.24925867261275e6 -8.817154207960296e6 0.0
0.0 0.0 0.0

-1.3809092268374083e6 2.3063384325563475e7 0.0
2.3063384325563475e7 -3.427300013451187e6 0.0
0.0 0.0 0.0

-1.1921740377624001e7 1.7460301330355894e7 0.0
1.7460301330355894e7 -5.30000977413008e7 0.0
0.0 0.0 0.0

1.1598762048099248e7 1.770197324651974e7 0.0
1.770197324651974e7 5.2817110884495534e7 0.0
0.0 0.0 0.0

1.0455163967560204e6 1.3633345413080556e7 0.0
1.3633345413080556e7 -1.6517685650055557e7 0.0
0.0 0.0 0.0

-1.4841269678133233e6 1.8412357085159887e7 0.0
1.8412357085159887e7 -5.139906699922776e6 0.0
0.0 0.0 0.0

-2.7766735555356643e6 1.4693472792952634e7 0.0
1.4693472792952634e7 -1.715736396226311e7 0.0
0.0 0.0 0.0

-2.3074510252098767e6 1.587845940500671e7 0.0
1.587845940500671e7 -5.06031855056321e6 0.0
0.0 0.0 0.0

208460.12616820447 1.8245833152266394e7 0.0
1.8245833152266394e7 -1.1088007922293045e7 0.0
0.0 0.0 0.0

-1.4749612373557873e6 1.4857235226801509e7 0.0
1.4857235226801509e7 -7.258700970795479e6 0.0
0.0 0.0 0.0

-3.43517327544652e6 1.8698296796206485e7 0.0
1.8698296796206485e7 -395369.22762625595 0.0
0.0 0.0 0.0

2.218079895644229e6 8.657958238641169e6 0.0
8.657958238641169e6 -3.9200763163950436e7 0.0
0.0 0.0 0.0

-8.031160524788291e6 2.0390636218360182e7 0.0
2.0390636218360182e7 3.1744871368416552e6 0.0
0.0 0.0 0.0

-4.2248334008316975e6 1.89838538142963e7 0.0
1.89838538142963e7 5.249313360687673e6 0.0
0.0 0.0 0.0

-991781.9012354428 1.5052104521063318e7 0.0
1.5052104521063318e7 -5.696348355000628e6 0.0
0.0 0.0 0.0

1.8386765717132054e6 1.1657412493873313e7 0.0
1.1657412493873313e7 -2.0522649100337893e7 0.0
0.0 0.0 0.0

1.128362622188082e7 1.829033439377322e7 0.0
1.829033439377322e7 3.761208746941564e7 0.0
0.0 0.0 0.0

-848114.751598961 1.8735775589817487e7 0.0
1.8735775589817487e7 -7.698184932682548e6 0.0
0.0 0.0 0.0

-2.3287428136284728e7 4.5269323365805574e7 0.0
4.5269323365805574e7 -1.3354314675635519e6 0.0
0.0 0.0 0.0

1.2391437376116468e6 1.3121797137835594e7 0.0
1.3121797137835594e7 -1.7487606561938483e7 0.0
0.0 0.0 0.0

-1.926562615509401e6 1.8704700791400965e7 0.0
1.8704700791400965e7 -3.3681408621889353e6 0.0
0.0 0.0 0.0

2.9086775127058257e6 3.3099850578917773e6 0.0
3.3099850578917773e6 -8.15470467405357e6 0.0
0.0 0.0 0.0

3.188928577927299e6 7.780312122205185e6 0.0
7.780312122205185e6 -2.217838987061464e7 0.0
0.0 0.0 0.0

-2.498627427215015e6 2.0828464415371656e7 0.0
2.0828464415371656e7 -132163.40561264975 0.0
0.0 0.0 0.0

-4.845785782337742e6 1.5516290227974914e7 0.0
1.5516290227974914e7 -3.1181166680570558e7 0.0
0.0 0.0 0.0

-1.4072210396590095e6 1.5565161542476347e7 0.0
1.5565161542476347e7 -4.575461073830243e6 0.0
0.0 0.0 0.0

1.368276608560488e6 1.1206618275959458e7 0.0
1.1206618275959458e7 -1.0414329495623428e7 0.0
0.0 0.0 0.0

-3.820700786958576e6 1.404965343504187e7 0.0
1.404965343504187e7 4.0614359541199747e6 0.0
0.0 0.0 0.0

1.4955677540638363e6 1.264606015559642e7 0.0
1.264606015559642e7 -1.8513007180800065e7 0.0
0.0 0.0 0.0

-4.908487267128519e6 1.3457087081611125e7 0.0
1.3457087081611125e7 3.155129116736564e6 0.0
0.0 0.0 0.0

345296.0283201635 1.5714336912012983e7 0.0
1.5714336912012983e7 -1.5778234190931406e7 0.0
0.0 0.0 0.0

-1.7736661930375658e7 2.5510233821612e7 0.0
2.5510233821612e7 -6.07563176692728e6 0.0
0.0 0.0 0.0

-4.535660366769027e6 -5.310370927595353e6 0.0
-5.310370927595353e6 7.306489710531743e6 0.0
0.0 0.0 0.0

-4.604031601779934e6 1.3922070568189992e7 0.0
1.3922070568189992e7 6.6961730310999295e6 0.0
0.0 0.0 0.0

-2.601646675004857e6 1.9395540401682846e7 0.0
1.9395540401682846e7 -502850.1754091204 0.0
0.0 0.0 0.0

-9.414610894865982e6 97647.09081300868 0.0
97647.09081300868 3.858506897775679e7 0.0
0.0 0.0 0.0

-416434.6655684686 1.748537958461125e7 0.0
1.748537958461125e7 1.076845340198145e7 0.0
0.0 0.0 0.0

-1.9022083011650424e6 1.536298394470783e7 0.0
1.536298394470783e7 -6.176035870335837e6 0.0
0.0 0.0 0.0

-79184.27582123969 1.8181899812644325e7 0.0
1.8181899812644325e7 -1.0198125471071148e7 0.0
0.0 0.0 0.0

-1.0817036546915644e6 1.6414707697280569e7 0.0
1.6414707697280569e7 -8.877984171607437e6 0.0
0.0 0.0 0.0

-1.120138718454152e6 1.2742386450973667e7 0.0
1.2742386450973667e7 -7.115692465953196e6 0.0
0.0 0.0 0.0

-2.1112739237560267e6 1.7948731098011326e7 0.0
1.7948731098011326e7 -5.866233078213185e6 0.0
0.0 0.0 0.0

-5.294428344232071e6 1.6588369079254944e7 0.0
1.6588369079254944e7 1.191417019616209e7 0.0
0.0 0.0 0.0

-3.246787182303696e6 1.6862587780266464e7 0.0
1.6862587780266464e7 1.8460099714129488e6 0.0
0.0 0.0 0.0

-3.193428962219119e6 1.5713255292155335e7 0.0
1.5713255292155335e7 -2.2396622373062205e6 0.0
0.0 0.0 0.0

3.4311380573097244e6 7.575950104037561e6 0.0
7.575950104037561e6 -2.7997284290775213e7 0.0
0.0 0.0 0.0

-4.949962087140507e6 2.337231521049833e7 0.0
2.337231521049833e7 6.744114888498983e6 0.0
0.0 0.0 0.0

-3.2674253352065603e6 2.7283556004229574e6 0.0
2.7283556004229574e6 5.128411365233392e6 0.0
0.0 0.0 0.0

-5.133033448642217e6 1.6331440866184408e7 0.0
1.6331440866184408e7 1.0923237779614188e7 0.0
0.0 0.0 0.0

874378.838027026 1.1337041601577437e7 0.0
1.1337041601577437e7 -8.748091639042666e6 0.0
0.0 0.0 0.0

4.121537447409033e6 3.9362978744511902e6 0.0
3.9362978744511902e6 -1.7866337235888336e7 0.0
0.0 0.0 0.0

1.6623973704658104e6 1.2121833539888106e7 0.0
1.2121833539888106e7 -1.9577722550251044e7 0.0
0.0 0.0 0.0

-3.797410336111958e6 6.782708599368333e6 0.0
6.782708599368333e6 1.3321691321757496e6 0.0
0.0 0.0 0.0

-1.2290571411698135e7 1.2450019240835274e7 0.0
1.2450019240835274e7 2.2486402091905836e7 0.0
0.0 0.0 0.0

-2.2343852505101995e6 1.6973232798451442e7 0.0
1.6973232798451442e7 -5.483863171700893e6 0.0
0.0 0.0 0.0

-3.3395951648781584e6 -4.582324869833795e6 0.0
-4.582324869833795e6 8.903978680640277e6 0.0
0.0 0.0 0.0

-4.922610805375286e6 1.2275979182804577e7 0.0
1.2275979182804577e7 2.995430628397381e6 0.0
0.0 0.0 0.0

-248654.33797182376 1.8687932917446956e7 0.0
1.8687932917446956e7 -9.180961310474621e6 0.0
0.0 0.0 0.0

-1.3848371181254182e6 1.6139807476714933e7 0.0
1.6139807476714933e7 -1.6223408839523157e7 0.0
0.0 0.0 0.0

1.3043070235907426e6 1.130723925499622e7 0.0
1.130723925499622e7 -1.4016968607095033e7 0.0
0.0 0.0 0.0

-169696.66362820216 9.007828852357721e6 0.0
9.007828852357721e6 -6.60748187129795e6 0.0
0.0 0.0 0.0

-1.6055849335167964e6 1.6395297739301207e7 0.0
1.6395297739301207e7 -4.258741697583798e6 0.0
0.0 0.0 0.0

-5.3249208051282745e6 1.7510237567498486e7 0.0
1.7510237567498486e7 2.061998390424232e7 0.0
0.0 0.0 0.0

-2.8861766776388716e6 2.1268087619715203e7 0.0
2.1268087619715203e7 -1.3081224673223714e6 0.0
0.0 0.0 0.0

-8.258012796177377e6 1.71290028756349e7 0.0
1.71290028756349e7 1.7151183635566168e7 0.0
0.0 0.0 0.0

-4.1781085731375883e6 1.8873337729773816e7 0.0
1.8873337729773816e7 9.6920601249206e6 0.0
0.0 0.0 0.0

356179.6192796491 1.0220307216271807e7 0.0
1.0220307216271807e7 -8.833324516293842e6 0.0
0.0 0.0 0.0

-3.7972300386712095e6 1.2937674105908904e7 0.0
1.2937674105908904e7 4.0024764720094698e6 0.0
0.0 0.0 0.0

-1.462173411833058e6 1.7417808521886233e7 0.0
1.7417808521886233e7 1.1102543199949546e7 0.0
0.0 0.0 0.0

-1.6051063330821625e6 1.3269016413609968e7 0.0
1.3269016413609968e7 -6.003899888996061e6 0.0
0.0 0.0 0.0

720130.5508325566 1.3781718157610806e7 0.0
1.3781718157610806e7 -2.1229864854243107e7 0.0
0.0 0.0 0.0

-1.7594676457244484e6 1.7192675190960675e7 0.0
1.7192675190960675e7 -3.9463902518230807e6 0.0
0.0 0.0 0.0

801371.1005235398 1.4108128930699306e7 0.0
1.4108128930699306e7 -1.5560414239822695e7 0.0
0.0 0.0 0.0

-3.489875340155282e6 1.4577452702829676e7 0.0
1.4577452702829676e7 2.801244090233073e6 0.0
0.0 0.0 0.0

-5.796066241747523e6 1.4911151223111209e7 0.0
1.4911151223111209e7 -2.3170931990850892e7 0.0
0.0 0.0 0.0

-1.8640974055831146e6 1.7962079806911018e7 0.0
1.7962079806911018e7 -3.6580331876408607e6 0.0
0.0 0.0 0.0

4.195291223551517e6 1.76002345176923e7 0.0
1.76002345176923e7 -1.584370732406035e6 0.0
0.0 0.0 0.0

-9.77659019375299e6 2.0811441180579634e6 0.0
2.0811441180579634e6 3.767757290814311e7 0.0
0.0 0.0 0.0

-6.921027891140595e6 2.9792092240120362e7 0.0
2.9792092240120362e7 4.380982941063134e6 0.0
0.0 0.0 0.0

-3.6108563695015805e6 1.8818146949652538e7 0.0
1.8818146949652538e7 8.751778881967213e6 0.0
0.0 0.0 0.0

-1.0688202883900037e7 1.359064551285483e7 0.0
1.359064551285483e7 2.443025898404008e7 0.0
0.0 0.0 0.0

-4.061905138030577e6 2.1151850069629773e7 0.0
2.1151850069629773e7 8.287978910044527e6 0.0
0.0 0.0 0.0

-2.7918181022017105e6 1.4530564650765024e7 0.0
1.4530564650765024e7 367820.5860225512 0.0
0.0 0.0 0.0

-821242.39393394 1.537056204430879e7 0.0
1.537056204430879e7 -6.453305486315793e6 0.0
0.0 0.0 0.0

-1.3973908741196475e6 1.6683697925565472e7 0.0
1.6683697925565472e7 -5.033469490510192e6 0.0
0.0 0.0 0.0

-1.0240668190647289e6 9.681692909550749e6 0.0
9.681692909550749e6 -1.8628051330189074e6 0.0
0.0 0.0 0.0

-425622.72393432865 1.9215588585363984e7 0.0
1.9215588585363984e7 -8.234988137278591e6 0.0
0.0 0.0 0.0

3.240845866382095e6 6.475801303210794e6 0.0
6.475801303210794e6 -1.76478588753784e7 0.0
0.0 0.0 0.0

1.6780393430096926e6 6.411408038547365e6 0.0
6.411408038547365e6 -9.23081106596503e6 0.0
0.0 0.0 0.0

-4.672063763650942e6 1.8456159111336313e7 0.0
1.8456159111336313e7 1.179696299865223e7 0.0
0.0 0.0 0.0

-2.7162247888394534e6 2.082912454977406e7 0.0
2.082912454977406e7 -2.26854487523723e6 0.0
0.0 0.0 0.0

3.41601600640714e6 1.7943852460857745e7 0.0
1.7943852460857745e7 -3.3750040126145333e6 0.0
0.0 0.0 0.0

-1.081631566103711e7 2.3207673898368713e7 0.0
2.3207673898368713e7 4.977641503002373e6 0.0
0.0 0.0 0.0

2.4003792099354947e6 6.209220311575682e6 0.0
6.209220311575682e6 -1.2350103838164363e7 0.0
0.0 0.0 0.0

-2.131316985250742e6 1.3761544534357063e7 0.0
1.3761544534357063e7 -4.8814083807800645e6 0.0
0.0 0.0 0.0

3.410630360942388e7 1.4011807837467298e7 0.0
1.4011807837467298e7 1.3391814634471405e6 0.0
0.0 0.0 0.0

41641.26884033019 9.351592138045184e6 0.0
9.351592138045184e6 -7.575831105452424e6 0.0
0.0 0.0 0.0

3.406858893250024e6 6.634194064691687e6 0.0
6.634194064691687e6 -2.1221972271436617e7 0.0
0.0 0.0 0.0

-8.307171481958155e6 1.6884415060933135e7 0.0
1.6884415060933135e7 2.1511331344354153e7 0.0
0.0 0.0 0.0

727639.2467009826 1.4901698580031719e7 0.0
1.4901698580031719e7 -1.6545053161740134e7 0.0
0.0 0.0 0.0

-9.303571219880283e6 9.172636004505605e6 0.0
9.172636004505605e6 1.57504568347051e7 0.0
0.0 0.0 0.0

-1.0701204394769413e7 2.9096658444415666e7 0.0
2.9096658444415666e7 5.432527917160591e6 0.0
0.0 0.0 0.0

-8.0279081698170155e6 1.7095707912350092e7 0.0
1.7095707912350092e7 2.0676239749042425e7 0.0
0.0 0.0 0.0

-4.331559446391944e6 2.173896376876823e7 0.0
2.173896376876823e7 8.138631872521445e6 0.0
0.0 0.0 0.0

-1.4151441796888275e7 2.3594592335810386e7 0.0
2.3594592335810386e7 -5.462975832502973e6 0.0
0.0 0.0 0.0

-3.8042696505730012e6 1.5878474300420405e7 0.0
1.5878474300420405e7 -73455.84638367547 0.0
0.0 0.0 0.0

3.2206817541320242e7 6.052801122459416e6 0.0
6.052801122459416e6 -2.263908047881132e6 0.0
0.0 0.0 0.0

-612391.7732549536 1.6955735266915184e7 0.0
1.6955735266915184e7 -8.191761824109442e6 0.0
0.0 0.0 0.0

-1.1638551895230853e6 1.3780600784614122e7 0.0
1.3780600784614122e7 -396578.47085453005 0.0
0.0 0.0 0.0

-621200.1927303574 1.9729010823235717e7 0.0
1.9729010823235717e7 -7.244798314275645e6 0.0
0.0 0.0 0.0

-9.926793085687464e6 2.0328041137013678e7 0.0
2.0328041137013678e7 -4.088147416416455e6 0.0
0.0 0.0 0.0

223528.16291539161 8.691147549849715e6 0.0
8.691147549849715e6 -3.9933636149629094e6 0.0
0.0 0.0 0.0

-4.498199769300744e6 1.8845341938159317e7 0.0
1.8845341938159317e7 1.3117204516405003e7 0.0
0.0 0.0 0.0

-2.1813667086315914e6 1.4962686465571377e7 0.0
1.4962686465571377e7 -1.6326559316611992e7 0.0
0.0 0.0 0.0

-1.2187162329094194e7 3.2347662202250175e6 0.0
3.2347662202250175e6 2.2393099488459423e7 0.0
0.0 0.0 0.0

-2.9444962146857684e6 2.062962923766408e7 0.0
2.062962923766408e7 -1.5608202605083212e6 0.0
0.0 0.0 0.0

-2.5170833336469578e6 1.4958681086866137e7 0.0
1.4958681086866137e7 -673659.3734378923 0.0
0.0 0.0 0.0

-2.2991095379279796e6 2.103059405373623e7 0.0
2.103059405373623e7 -931578.7770135459 0.0
0.0 0.0 0.0

215384.5974333617 1.5307074765907934e7 0.0
1.5307074765907934e7 -1.0410126142523527e7 0.0
0.0 0.0 0.0

-4.78523659931954e6 7.545571419237875e6 0.0
7.545571419237875e6 7.172893936603841e6 0.0
0.0 0.0 0.0

-3.859613231171011e6 2.1416968387502994e7 0.0
2.1416968387502994e7 5.196184128122099e6 0.0
0.0 0.0 0.0

-5.341362480698488e6 1.8332096385120947e7 0.0
1.8332096385120947e7 1.4955688841305668e7 0.0
0.0 0.0 0.0

-4.453299438926557e6 1.806418901152237e7 0.0
1.806418901152237e7 1.0105881262958184e7 0.0
0.0 0.0 0.0

-619418.7090075309 1.29027238003293e7 0.0
1.29027238003293e7 -5.430058985967846e6 0.0
0.0 0.0 0.0

1.9878696120449863e6 1.1103490695955377e7 0.0
1.1103490695955377e7 -2.3034178385765404e7 0.0
0.0 0.0 0.0

-3.9412786777143558e6 1.7248962446041957e7 0.0
1.7248962446041957e7 1.2040048480013066e6 0.0
0.0 0.0 0.0

-150055.565693086 1.652205810711339e7 0.0
1.652205810711339e7 -1.2398802554906873e7 0.0
0.0 0.0 0.0

-181738.1534114019 1.5103923140947115e7 0.0
1.5103923140947115e7 -1.1697420446755124e7 0.0
0.0 0.0 0.0

-1.6915089453145284e6 2.0936792269532107e7 0.0
2.0936792269532107e7 -5.192980840409883e6 0.0
0.0 0.0 0.0

-1.2583771294091402e6 1.7170266668104645e7 0.0
1.7170266668104645e7 -8.406887421036929e6 0.0
0.0 0.0 0.0

1.9564905448329924e6 1.1384789672599679e7 0.0
1.1384789672599679e7 -1.878459595280092e7 0.0
0.0 0.0 0.0

1.6998607547394722e6 6.407577258040254e6 0.0
6.407577258040254e6 -6.227239175363503e6 0.0
0.0 0.0 0.0

-1.124610905351825e6 5.870336391473138e6 0.0
5.870336391473138e6 722414.4753552594 0.0
0.0 0.0 0.0

-601241.7795656585 2.6956810400661245e7 0.0
2.6956810400661245e7 -166110.72671227896 0.0
0.0 0.0 0.0

-4.0390010734708775e6 1.6388548736891322e7 0.0
1.6388548736891322e7 1.1034959323047136e6 0.0
0.0 0.0 0.0

-1.9251988416283003e6 1.8172019710141297e7 0.0
1.8172019710141297e7 -6.556779804180212e6 0.0
0.0 0.0 0.0

3.494339204899351e6 4.36215140885755e6 0.0
4.36215140885755e6 -1.170781959490884e7 0.0
0.0 0.0 0.0

-1.0364500908521146e7 4.363817526817893e6 0.0
4.363817526817893e6 3.7636647113239676e7 0.0
0.0 0.0 0.0

2.0394767263719141e6 9.351116191197813e6 0.0
9.351116191197813e6 -1.4601259169265062e7 0.0
0.0 0.0 0.0

2.8113813611172247e6 2.1414307944348555e7 0.0
2.1414307944348555e7 -5.707468650031114e6 0.0
0.0 0.0 0.0

-616743.8009253565 2.2199893722889487e7 0.0
2.2199893722889487e7 -4.659488388002039e6 0.0
0.0 0.0 0.0

-3.756339655420673e6 2.181313368293338e7 0.0
2.181313368293338e7 4.3648975251825e6 0.0
0.0 0.0 0.0

4.262631254315238e6 3.904577591388266e6 0.0
3.904577591388266e6 -2.4444050983338423e7 0.0
0.0 0.0 0.0

-1.710891860729266e6 1.8930558655570924e7 0.0
1.8930558655570924e7 -4.1082880312438654e6 0.0
0.0 0.0 0.0

-1.3858054056957434e6 1.9941197311180864e7 0.0
1.9941197311180864e7 -5.131539052456951e6 0.0
0.0 0.0 0.0

3.265154167686235e6 7.281643784244938e6 0.0
7.281643784244938e6 -2.3204277386506375e7 0.0
0.0 0.0 0.0

-2.0539909141649874e6 2.243628427224851e7 0.0
2.243628427224851e7 -2.64879259509549e6 0.0
0.0 0.0 0.0

1.1876055674193874e6 1.85327995734012e7 0.0
1.85327995734012e7 -7.635602810149564e6 0.0
0.0 0.0 0.0

-2.381444034437161e6 1.846483647827322e7 0.0
1.846483647827322e7 -4.831741844872173e6 0.0
0.0 0.0 0.0

219407.99184530415 1.4307458409901846e7 0.0
1.4307458409901846e7 -2.250593932455381e7 0.0
0.0 0.0 0.0

2.0110407558054328e6 6.893325090250863e6 0.0
6.893325090250863e6 -1.1469557021246059e7 0.0
0.0 0.0 0.0

902745.7783797923 1.1054327167476796e7 0.0
1.1054327167476796e7 -1.1969826637261782e7 0.0
0.0 0.0 0.0

-1.301204630138746e6 1.8909788797556363e7 0.0
1.8909788797556363e7 -7.104354760428345e6 0.0
0.0 0.0 0.0

643634.8197553004 1.849213008070578e7 0.0
1.849213008070578e7 -8.858239821837526e6 0.0
0.0 0.0 0.0

-1.5587150883632507e6 1.7606010927881468e7 0.0
1.7606010927881468e7 -7.496566788307192e6 0.0
0.0 0.0 0.0

2.9590327022122554e6 7.495226480832343e6 0.0
7.495226480832343e6 -1.1930455793535806e7 0.0
0.0 0.0 0.0

4.372664860253322e6 4.952430585675396e6 0.0
4.952430585675396e6 -2.0756492419022627e7 0.0
0.0 0.0 0.0

260754.00573611725 1.5088939504767025e7 0.0
1.5088939504767025e7 -1.3643266360830028e7 0.0
0.0 0.0 0.0

477040.0470809373 1.1585104860575737e7 0.0
1.1585104860575737e7 -1.1017291204568518e7 0.0
0.0 0.0 0.0

-3.7721882873727637e6 1.493902755563833e7 0.0
1.493902755563833e7 -284415.4509237454 0.0
0.0 0.0 0.0

-8.87429007114755e6 2.3553995774336394e7 0.0
2.3553995774336394e7 5.874651446693981e6 0.0
0.0 0.0 0.0

-2.79530412492067e6 1.3336968570900043e7 0.0
1.3336968570900043e7 6.122319127328437e7 0.0
0.0 0.0 0.0

-1.2363316416892849e7 3.644973571751825e6 0.0
3.644973571751825e6 2.066444925346804e7 0.0
0.0 0.0 0.0

-531891.7950612351 2.083527628225118e7 0.0
2.083527628225118e7 -7.091567038849586e6 0.0
0.0 0.0 0.0

-4.084804837669486e6 1.5479041768514128e7 0.0
1.5479041768514128e7 954473.6568553166 0.0
0.0 0.0 0.0

-1.1335571463316988e7 6.237208646929343e6 0.0
6.237208646929343e6 2.9741641069396272e7 0.0
0.0 0.0 0.0

4.217713111622535e6 4.995969492609016e6 0.0
4.995969492609016e6 -1.85956002472455e7 0.0
0.0 0.0 0.0

-3.485162828491602e6 1.6479672552999735e7 0.0
1.6479672552999735e7 2.936445581198483e6 0.0
0.0 0.0 0.0

675069.4095543334 1.4595724720573409e7 0.0
1.4595724720573409e7 -1.7885648211017057e7 0.0
0.0 0.0 0.0

-775170.6744110417 2.0307948437318657e7 0.0
2.0307948437318657e7 -6.345485189398928e6 0.0
0.0 0.0 0.0

-1.4768744917506261e6 1.9116746312398642e7 0.0
1.9116746312398642e7 -4.812167558960225e6 0.0
0.0 0.0 0.0

-5.563769336853324e6 1.4476259810096692e7 0.0
1.4476259810096692e7 5.758157801502649e6 0.0
0.0 0.0 0.0

-2.0372395353669485e6 1.5719634831896495e7 0.0
1.5719634831896495e7 -2.571573753327957e6 0.0
0.0 0.0 0.0

-7.108373222624951e6 8.637432818377333e6 0.0
8.637432818377333e6 7.780470356514846e6 0.0
0.0 0.0 0.0

-3.8184137664477855e7 2.1205601000806782e7 0.0
2.1205601000806782e7 7.150056917900762e6 0.0
0.0 0.0 0.0

2.0690101316669427e6 1.865171748542024e7 0.0
1.865171748542024e7 9.440705574159347e6 0.0
0.0 0.0 0.0

-4.1333748629862196e6 1.9757907490484122e7 0.0
1.9757907490484122e7 1.0093066916454831e7 0.0
0.0 0.0 0.0

-2.507629734645826e6 2.2483031452623982e7 0.0
2.2483031452623982e7 1.0026018705789784e6 0.0
0.0 0.0 0.0

2.4881915655771485e6 9.065963829233179e6 0.0
9.065963829233179e6 -1.7603225959716294e7 0.0
0.0 0.0 0.0

3.155151738988857e6 7.672966849222445e6 0.0
7.672966849222445e6 -2.090293814354436e7 0.0
0.0 0.0 0.0

3.1838924861118468e6 9.135270403649116e6 0.0
9.135270403649116e6 -2.4411649931686513e7 0.0
0.0 0.0 0.0

-4.801834742208697e6 1.4551574399180664e7 0.0
1.4551574399180664e7 3.2357733746223683e6 0.0
0.0 0.0 0.0

-1.2675197721501801e7 1.1611335090281958e7 0.0
1.1611335090281958e7 2.1043511115785703e7 0.0
0.0 0.0 0.0

-5.826246438204231e6 9.619813472101351e6 0.0
9.619813472101351e6 9.244982392998803e6 0.0
0.0 0.0 0.0

2.4796107060869364e6 1.827238455337849e7 0.0
1.827238455337849e7 -4.90792231151988e6 0.0
0.0 0.0 0.0

-1.6654441177595658e6 1.5214146918266788e7 0.0
1.5214146918266788e7 -1.5260057484709103e7 0.0
0.0 0.0 0.0

-4.0890764326588023e6 2.1695500489627633e7 0.0
2.1695500489627633e7 6.72397649046102e6 0.0
0.0 0.0 0.0

3.0600464307983443e6 2.6130582089702737e7 0.0
2.6130582089702737e7 -3.425263261183761e6 0.0
0.0 0.0 0.0

-7.359783619267482e6 2.365525666413222e7 0.0
2.365525666413222e7 6.432683604140702e6 0.0
0.0 0.0 0.0

-6.733279844842994e6 1.7511584518371973e7 0.0
1.7511584518371973e7 1.758296237538521e7 0.0
0.0 0.0 0.0

2.5172948927674145e6 6.7654603358177645e6 0.0
6.7654603358177645e6 -3.882215031572907e7 0.0
0.0 0.0 0.0

74865.95893754577 1.4649354655100318e7 0.0
1.4649354655100318e7 -9.265801232683092e6 0.0
0.0 0.0 0.0

3.358950088623569e6 3.3658263754657516e6 0.0
3.3658263754657516e6 -9.932751200713474e6 0.0
0.0 0.0 0.0

3.5780966088509075e6 7.948264892703601e6 0.0
7.948264892703601e6 -2.5086972837903835e7 0.0
0.0 0.0 0.0

-3.6362039557342744e6 2.2189415416040424e7 0.0
2.2189415416040424e7 3.5618989129868066e6 0.0
0.0 0.0 0.0

-1.1741763621943299e7 1.1906298741291014e7 0.0
1.1906298741291014e7 2.0539098636589587e7 0.0
0.0 0.0 0.0

-7.573634456914696e6 1.7199466635738924e7 0.0
1.7199466635738924e7 1.8913341626381002e7 0.0
0.0 0.0 0.0

-3.9730868284549164e6 2.0350506090697635e7 0.0
2.0350506090697635e7 9.590918243011182e6 0.0
0.0 0.0 0.0

2.5134086403377373e6 9.512942167951077e6 0.0
9.512942167951077e6 -1.3045779757241044e7 0.0
0.0 0.0 0.0

-4.256450640788857e6 2.0026675046162043e7 0.0
2.0026675046162043e7 -7.919107451467807e6 0.0
0.0 0.0 0.0

-388205.5082915878 2.6685459290508784e7 0.0
2.6685459290508784e7 -1.513419015086388e6 0.0
0.0 0.0 0.0

-3.936768682477407e6 2.310222312819781e7 0.0
2.310222312819781e7 5.0897386004428435e6 0.0
0.0 0.0 0.0

-7.525345788483241e6 1.729209058832925e7 0.0
1.729209058832925e7 1.97692588341923e7 0.0
0.0 0.0 0.0

-9.69567092368528e6 4.917957468738464e7 0.0
4.917957468738464e7 -1.2059638769140955e7 0.0
0.0 0.0 0.0

-4.4975536141800685e6 1.9434518579211686e7 0.0
1.9434518579211686e7 -9.858477549998844e6 0.0
0.0 0.0 0.0

-5.542110816911181e6 1.6288973317959469e7 0.0
1.6288973317959469e7 7.907648611908909e6 0.0
0.0 0.0 0.0

-8.908188961866178e6 1.5693922741030336e6 0.0
1.5693922741030336e6 1.0888654221355729e7 0.0
0.0 0.0 0.0

-1.2141255486232394e6 1.588673915039815e7 0.0
1.588673915039815e7 -5.363580386138346e6 0.0
0.0 0.0 0.0

-7.470657294500957e6 2.0611483012763504e7 0.0
2.0611483012763504e7 -4.519449861410442e6 0.0
0.0 0.0 0.0

-7.0030275535257105e6 2.8663254816103198e7 0.0
2.8663254816103198e7 4.097526318663584e6 0.0
0.0 0.0 0.0

-1.0292788517805364e6 1.8076484947698466e7 0.0
1.8076484947698466e7 -6.736290307301659e6 0.0
0.0 0.0 0.0

-1.9612515851074671e6 1.9486342718492657e7 0.0
1.9486342718492657e7 -5.792726001919122e6 0.0
0.0 0.0 0.0

-1.0406201220104992e7 1.332729637315833e6 0.0
1.332729637315833e6 1.8658077169911027e7 0.0
0.0 0.0 0.0

3.9474276105806595e6 5.889369151373573e6 0.0
5.889369151373573e6 -1.6720111991949257e7 0.0
0.0 0.0 0.0

-195471.06542516663 2.6008097518615417e7 0.0
2.6008097518615417e7 -1.1131383753958251e6 0.0
0.0 0.0 0.0

-6.010287795074325e6 1.789616654800684e7 0.0
1.789616654800684e7 1.631518665768021e7 0.0
0.0 0.0 0.0

-1.1371044456569066e7 2.183556458551996e7 0.0
2.183556458551996e7 -2.1697709807100557e6 0.0
0.0 0.0 0.0

-904666.550796084 5.622554435004583e6 0.0
5.622554435004583e6 -2.6190468889374896e6 0.0
0.0 0.0 0.0

-8.233325209816313e6 2.1745303406918008e7 0.0
2.1745303406918008e7 -7.160581209826218e6 0.0
0.0 0.0 0.0

-2.1544370829673014e6 1.8659047915793456e7 0.0
1.8659047915793456e7 -5.526032602290744e6 0.0
0.0 0.0 0.0

536181.5503594847 1.4606175686344419e7 0.0
1.4606175686344419e7 -1.4594336997284774e7 0.0
0.0 0.0 0.0

-1.5607448952174757e6 1.7454699523863662e7 0.0
1.7454699523863662e7 -4.721776422216192e6 0.0
0.0 0.0 0.0

2.0113747949293265e6 9.77653231820988e6 0.0
9.77653231820988e6 -1.5205335217334647e7 0.0
0.0 0.0 0.0

-2.7885854669764014e6 1.8370570060609486e7 0.0
1.8370570060609486e7 152080.79110531055 0.0
0.0 0.0 0.0

-8.67432595432054e6 3.4882608643404874e6 0.0
3.4882608643404874e6 1.015697690767049e7 0.0
0.0 0.0 0.0

-9.373889648745585e6 1.1550438279042726e7 0.0
1.1550438279042726e7 1.6507656779380955e7 0.0
0.0 0.0 0.0

-4.909401711558077e6 1.4356579720663391e7 0.0
1.4356579720663391e7 7.966515044703906e6 0.0
0.0 0.0 0.0

-4.0030138711388307e6 1.4941017263611693e7 0.0
1.4941017263611693e7 -1.432488344899911e7 0.0
0.0 0.0 0.0

-4.1710524859615173e6 1.4540024187021362e7 0.0
1.4540024187021362e7 5.343149534463416e6 0.0
0.0 0.0 0.0

-2.8235753415699206e7 2.5286648698010404e7 0.0
2.5286648698010404e7 372153.1095731314 0.0
0.0 0.0 0.0

-4.337484745259753e6 1.5994914662009403e7 0.0
1.5994914662009403e7 2.1451211112187766e6 0.0
0.0 0.0 0.0

-1.0897195693034215e6 1.7681830811974265e7 0.0
1.7681830811974265e7 -2.683907498396091e6 0.0
0.0 0.0 0.0

-4.344731718045761e7 2.029392920248494e7 0.0
2.029392920248494e7 5.368578629136037e6 0.0
0.0 0.0 0.0

1.7861473316502697e6 1.8511077211705312e7 0.0
1.8511077211705312e7 -6.416743046063068e6 0.0
0.0 0.0 0.0

-3.187254344272931e6 1.505902168051338e7 0.0
1.505902168051338e7 1.6374030138074257e6 0.0
0.0 0.0 0.0

1.765605510045962e6 1.064320076757032e7 0.0
1.064320076757032e7 -1.1311509223575506e7 0.0
0.0 0.0 0.0

-2.6260681540891402e6 2.2845527840058222e7 0.0
2.2845527840058222e7 1.7898213596126395e6 0.0
0.0 0.0 0.0

1.6599358281657612e6 1.1112051639553964e7 0.0
1.1112051639553964e7 -1.5454808213266175e7 0.0
0.0 0.0 0.0

1.5476685263082152e6 1.1874728025780277e7 0.0
1.1874728025780277e7 -1.6511938008469224e7 0.0
0.0 0.0 0.0

-5.528558617595613e6 7.755803546531178e6 0.0
7.755803546531178e6 4.595664659152884e6 0.0
0.0 0.0 0.0

-4.9503886148331035e6 1.8324824249849048e7 0.0
1.8324824249849048e7 8.391893344250094e6 0.0
0.0 0.0 0.0

3.752564734874339e6 7.442561832588998e6 0.0
7.442561832588998e6 -2.1636880657513134e7 0.0
0.0 0.0 0.0

-1.0845943003851391e7 5.015560880085806e6 0.0
5.015560880085806e6 1.6231427608878369e7 0.0
0.0 0.0 0.0

1.6238480643454185e6 1.1474399173286138e7 0.0
1.1474399173286138e7 -1.6004008550011057e7 0.0
0.0 0.0 0.0

-7.305855278847495e7 7.594866379473561e6 0.0
7.594866379473561e6 5.960488900945384e6 0.0
0.0 0.0 0.0

2.7506621480584536e6 6.654809082248549e6 0.0
6.654809082248549e6 -3.62420554400558e7 0.0
0.0 0.0 0.0

-5.174428109543002e6 1.7199363466129184e7 0.0
1.7199363466129184e7 7.682729941976018e6 0.0
0.0 0.0 0.0

-4.573174267658576e6 1.8577057274071157e7 0.0
1.8577057274071157e7 6.247278456675734e6 0.0
0.0 0.0 0.0

-4.631664338482727e6 2.2860381621812288e7 0.0
2.2860381621812288e7 7.678309100105485e6 0.0
0.0 0.0 0.0

-2.0886843777056169e6 1.6183805894682726e7 0.0
1.6183805894682726e7 -5.823446781390602e6 0.0
0.0 0.0 0.0

-5.533521671890156e6 1.8612900471572023e7 0.0
1.8612900471572023e7 1.522167847396208e7 0.0
0.0 0.0 0.0

801187.7031606194 1.3048749469709462e7 0.0
1.3048749469709462e7 -1.3506111481274249e7 0.0
0.0 0.0 0.0

2.6995643967813924e6 9.225796822388979e6 0.0
9.225796822388979e6 -2.0833771555379547e7 0.0
0.0 0.0 0.0

-2.819849544900546e6 2.2572029988650933e7 0.0
2.2572029988650933e7 2.468324639051232e6 0.0
0.0 0.0 0.0

-380848.6887461995 2.3313235140678596e7 0.0
2.3313235140678596e7 -4.422017309976861e6 0.0
0.0 0.0 0.0

3.029764103820594e6 8.548280805166861e6 0.0
8.548280805166861e6 -2.9334510261167437e7 0.0
0.0 0.0 0.0

-5.261472641222496e6 1.197161600963357e7 0.0
1.197161600963357e7 7.985586624333595e6 0.0
0.0 0.0 0.0

-6.169284980966349e6 2.350909621062622e7 0.0
2.350909621062622e7 6.886836755038604e6 0.0
0.0 0.0 0.0

-4.119456799351034e7 5.3111403343230255e7 0.0
5.3111403343230255e7 -3.338434412951514e6 0.0
0.0 0.0 0.0

-1.1872972025588604e7 8.000725211061336e6 0.0
8.000725211061336e6 2.6230982199933384e7 0.0
0.0 0.0 0.0

-2.987267105289245e6 1.4043199116775956e7 0.0
1.4043199116775956e7 -1.2836149519587057e7 0.0
0.0 0.0 0.0

-282213.51268898597 5.465358035206621e6 0.0
5.465358035206621e6 -572014.299297956 0.0
0.0 0.0 0.0

-8.746891077302903e6 -5.766700113623589e6 0.0
-5.766700113623589e6 2.5291363783742156e7 0.0
0.0 0.0 0.0

4.762722805765197e6 2.5780155045529786e6 0.0
2.5780155045529786e6 -2.5248207445772786e7 0.0
0.0 0.0 0.0

-5.841316395444031e6 2.0618425836235423e7 0.0
2.0618425836235423e7 2.0440564003598038e6 0.0
0.0 0.0 0.0

-697750.7899552705 1.5654084734270943e7 0.0
1.5654084734270943e7 -1.647080883447614e7 0.0
0.0 0.0 0.0

-9.480613540462611e6 1.4080007489281813e7 0.0
1.4080007489281813e7 2.681660272956993e7 0.0
0.0 0.0 0.0

-439716.4100699378 2.022490401748491e7 0.0
2.022490401748491e7 -7.931357767019953e6 0.0
0.0 0.0 0.0

1.6890783940101508e6 1.0740523659051085e7 0.0
1.0740523659051085e7 -1.4876242418240184e7 0.0
0.0 0.0 0.0

-5.64297052534513e6 1.4759769261337461e7 0.0
1.4759769261337461e7 3.505544239790707e7 0.0
0.0 0.0 0.0

-2.410254844976265e6 1.6228649496753931e7 0.0
1.6228649496753931e7 -1.4158274824331864e6 0.0
0.0 0.0 0.0

-4.275161900006097e6 1.6882642504044205e7 0.0
1.6882642504044205e7 2.4580166064183865e7 0.0
0.0 0.0 0.0

-516445.3149298597 1.5922818122410707e7 0.0
1.5922818122410707e7 -1.5410378852555048e7 0.0
0.0 0.0 0.0

5.7526345454282545e7 8.171741652182969e6 0.0
8.171741652182969e6 374892.27264048904 0.0
0.0 0.0 0.0

-927173.4128171275 2.0861237355688076e7 0.0
2.0861237355688076e7 -5.486196555802419e6 0.0
0.0 0.0 0.0

505277.4005497736 2.5842144938631486e7 0.0
2.5842144938631486e7 -1.765931156980784e6 0.0
0.0 0.0 0.0

1.4080802640200844e6 1.1627986108125342e7 0.0
1.1627986108125342e7 -1.4524762988971207e7 0.0
0.0 0.0 0.0

2.3511914585899822e6 1.0752257189978005e7 0.0
1.0752257189978005e7 -1.4879971082576875e7 0.0
0.0 0.0 0.0

-1.6949215590553207e6 1.5668741794879058e7 0.0
1.5668741794879058e7 -6.918473144690073e6 0.0
0.0 0.0 0.0

-1.2198111754338223e7 9.023078931719163e6 0.0
9.023078931719163e6 2.1544438714438446e7 0.0
0.0 0.0 0.0

-1.3102429638480172e6 1.4717984042570498e7 0.0
1.4717984042570498e7 -2.194850348362986e7 0.0
0.0 0.0 0.0

3.1812712374443393e6 3.293523953723056e6 0.0
3.293523953723056e6 -9.130398791003209e6 0.0
0.0 0.0 0.0

863726.6655062092 1.3703733869427891e7 0.0
1.3703733869427891e7 -1.4539607831872344e7 0.0
0.0 0.0 0.0

-2.311929755969757e7 2.8587703051581483e7 0.0
2.8587703051581483e7 8.186748334748862e6 0.0
0.0 0.0 0.0

-3.0182430506586237e6 1.065664515201479e7 0.0
1.065664515201479e7 -1.318895752625655e6 0.0
0.0 0.0 0.0

-3.7338335827484764e6 1.483957548847011e7 0.0
1.483957548847011e7 4.205073547546432e7 0.0
0.0 0.0 0.0

-4.147797452400688e6 1.8704813829010054e7 0.0
1.8704813829010054e7 1.2264262224248797e7 0.0
0.0 0.0 0.0

4.64543383775464e6 1.847081584883033e7 0.0
1.847081584883033e7 2.141011159378213e6 0.0
0.0 0.0 0.0

-5.210972356378831e6 2.3241759717008553e7 0.0
2.3241759717008553e7 7.250828711669713e6 0.0
0.0 0.0 0.0

-991083.5563258487 2.1388597569226194e7 0.0
2.1388597569226194e7 -4.525293787300354e6 0.0
0.0 0.0 0.0

-4.085154316065793e6 2.276847620065096e7 0.0
2.276847620065096e7 5.735040621917301e6 0.0
0.0 0.0 0.0

-1.201332476427842e7 9.301108344582258e6 0.0
9.301108344582258e6 2.01341113313037e7 0.0
0.0 0.0 0.0

-8.882615720153756e6 1.3528098165131303e7 0.0
1.3528098165131303e7 1.6852040758239307e7 0.0
0.0 0.0 0.0

-8.42870403622621e6 5.107740345697062e6 0.0
5.107740345697062e6 8.925620395578204e6 0.0
0.0 0.0 0.0

1.3207878537030328e7 1.1355238476713855e7 0.0
1.1355238476713855e7 910208.4168218998 0.0
0.0 0.0 0.0

-341898.8361615166 1.620681823597745e7 0.0
1.620681823597745e7 -1.4436652402953975e7 0.0
0.0 0.0 0.0

-1.3036951315995897e6 2.131206990199788e7 0.0
2.131206990199788e7 -3.946266390349695e6 0.0
0.0 0.0 0.0

-3.472631067924036e6 2.250875421863567e7 0.0
2.250875421863567e7 2.790304167752928e6 0.0
0.0 0.0 0.0

-8.542619437585846e6 -4.843586820463517e6 0.0
-4.843586820463517e6 1.6595573801363032e7 0.0
0.0 0.0 0.0

-3.7087840446871e6 2.3776830540623914e7 0.0
2.3776830540623914e7 3.791231654471398e6 0.0
0.0 0.0 0.0

-3.50545294571489e6 1.5558502256613353e7 0.0
1.5558502256613353e7 2.867182324530937e6 0.0
0.0 0.0 0.0

-4.296410554708232e6 2.4317701740069292e7 0.0
2.4317701740069292e7 4.716963766474265e6 0.0
0.0 0.0 0.0

4.613977044310778e6 1.7401478626196705e7 0.0
1.7401478626196705e7 664367.5540371211 0.0
0.0 0.0 0.0

-133106.07932006312 2.4309810383926965e7 0.0
2.4309810383926965e7 -2.6059274127928424e6 0.0
0.0 0.0 0.0

3.9387376769893337e6 5.039525973639127e6 0.0
5.039525973639127e6 -2.088218987702535e7 0.0
0.0 0.0 0.0

-1.2092985067800812e7 8.224735971442227e6 0.0
8.224735971442227e6 2.462396545076256e7 0.0
0.0 0.0 0.0

307857.73921389645 1.7486731511739686e7 0.0
1.7486731511739686e7 -9.114248495687855e6 0.0
0.0 0.0 0.0

-192923.39231097605 1.6567707386389265e7 0.0
1.6567707386389265e7 -1.3432328154687898e7 0.0
0.0 0.0 0.0

-2.2734370951106967e6 1.5342928024381386e7 0.0
1.5342928024381386e7 -1.652404920531395e6 0.0
0.0 0.0 0.0

-4.131382154832994e6 1.9249305923682246e7 0.0
1.9249305923682246e7 5.103650993724334e6 0.0
0.0 0.0 0.0

295094.87936415663 2.089000673494664e7 0.0
2.089000673494664e7 -7.076404037381925e6 0.0
0.0 0.0 0.0

-51282.38116780482 1.6164726450374031e7 0.0
1.6164726450374031e7 -7.949811024097834e6 0.0
0.0 0.0 0.0

-1.1501968006233936e7 1.146003396911224e7 0.0
1.146003396911224e7 1.6223413441404644e7 0.0
0.0 0.0 0.0

3.142677731781831e6 9.060616220508484e6 0.0
9.060616220508484e6 -1.7501492067594804e7 0.0
0.0 0.0 0.0

-614940.1400828683 1.6446841439559376e7 0.0
1.6446841439559376e7 -1.3870638037105272e7 0.0
0.0 0.0 0.0

765645.9145870255 1.8536390915549867e7 0.0
1.8536390915549867e7 1.1121250039971976e7 0.0
0.0 0.0 0.0

-2.327809311808808e6 1.7731857320926987e7 0.0
1.7731857320926987e7 -5.155058485592094e6 0.0
0.0 0.0 0.0

3.708600394356061e6 7.058891097052407e6 0.0
7.058891097052407e6 -2.8331049952311262e7 0.0
0.0 0.0 0.0

3.8676716959148627e6 5.356174972530085e6 0.0
5.356174972530085e6 -3.7011398307615526e7 0.0
0.0 0.0 0.0

-5.747331437546546e6 1.4934980384333244e7 0.0
1.4934980384333244e7 6.960523164517807e6 0.0
0.0 0.0 0.0

-3.2861251825797567e6 2.2808052964932747e7 0.0
2.2808052964932747e7 2.084324630646141e6 0.0
0.0 0.0 0.0

-1.090926440717315e7 1.3408701413974187e6 0.0
1.3408701413974187e6 2.2034812763904303e7 0.0
0.0 0.0 0.0

-7.702065537524744e6 1.3735362130725142e7 0.0
1.3735362130725142e7 1.0947357166975055e7 0.0
0.0 0.0 0.0

-4.857430265572628e6 1.8027471230492312e7 0.0
1.8027471230492312e7 7.469274196827883e6 0.0
0.0 0.0 0.0

2.9556365127161127e6 9.23933785222012e6 0.0
9.23933785222012e6 -1.6030522663506456e7 0.0
0.0 0.0 0.0

4.694720471055916e6 2.455814933904845e6 0.0
2.455814933904845e6 -2.601653537522485e7 0.0
0.0 0.0 0.0

-4.636228399236779e6 1.6981289127147485e7 0.0
1.6981289127147485e7 9.556629108846487e6 0.0
0.0 0.0 0.0

-904115.4424227588 1.6224841411308462e7 0.0
1.6224841411308462e7 5.2665315341257125e7 0.0
0.0 0.0 0.0

-3.788251689460677e6 1.8881108853486292e7 0.0
1.8881108853486292e7 6.719281510440882e6 0.0
0.0 0.0 0.0

-1.1992781676521595e6 2.183855396008959e7 0.0
2.183855396008959e7 -3.7730397602552166e6 0.0
0.0 0.0 0.0

1.40426937243547e6 1.2274352820359219e7 0.0
1.2274352820359219e7 -1.538046026864725e7 0.0
0.0 0.0 0.0

-1.705669964226092e6 2.3553418661812223e7 0.0
2.3553418661812223e7 -665504.0038166525 0.0
0.0 0.0 0.0

-2.990340388347879e6 2.2268525925609786e7 0.0
2.2268525925609786e7 3.1840242708332613e6 0.0
0.0 0.0 0.0

4.679082178039104e6 1.623857625322931e7 0.0
1.623857625322931e7 2.7063770252626143e7 0.0
0.0 0.0 0.0

3.2141825817506677e6 3.2998459738291935e6 0.0
3.2998459738291935e6 -9.61859363123186e6 0.0
0.0 0.0 0.0

1.7553852475207197e6 1.907208235796355e7 0.0
1.907208235796355e7 -7.053120471397102e6 0.0
0.0 0.0 0.0

3.863143038165807e6 4.1615313715487802e6 0.0
4.1615313715487802e6 -1.5481504522932786e7 0.0
0.0 0.0 0.0

-1.0025036038577748e7 9.88145906413264e6 0.0
9.88145906413264e6 1.680353120009439e7 0.0
0.0 0.0 0.0

-3.7840258486908604e6 2.12352689394605e7 0.0
2.12352689394605e7 4.400649209474212e6 0.0
0.0 0.0 0.0

-1.662064314614472e6 1.82016345459357e7 0.0
1.82016345459357e7 -4.420081967735799e6 0.0
0.0 0.0 0.0

2.4810588878908865e6 9.934632724320156e6 0.0
9.934632724320156e6 -1.3663326275506739e7 0.0
0.0 0.0 0.0

-72876.08302689297 1.655451887026273e7 0.0
1.655451887026273e7 -9.196040968376983e6 0.0
0.0 0.0 0.0

-1.3671911244423422e6 2.232719299000339e7 0.0
2.232719299000339e7 -2.990015282857302e6 0.0
0.0 0.0 0.0

-1.1314044804343544e7 3.161544654099855e6 0.0
3.161544654099855e6 2.5605199034582414e7 0.0
0.0 0.0 0.0

-8.152916381637044e6 1.5135302612764696e7 0.0
1.5135302612764696e7 1.7008794024997324e7 0.0
0.0 0.0 0.0

-1.127237644832338e7 6.731315980372281e6 0.0
6.731315980372281e6 1.7851340743539803e7 0.0
0.0 0.0 0.0

-4.414707033394242e6 1.5037396700672908e7 0.0
1.5037396700672908e7 2.0491322923959398e6 0.0
0.0 0.0 0.0

-3.503126933016268e6 2.2424953468800094e7 0.0
2.2424953468800094e7 6.277127819226736e6 0.0
0.0 0.0 0.0

-3.065696004513774e6 1.7711638003859393e7 0.0
1.7711638003859393e7 -2.534177463542399e6 0.0
0.0 0.0 0.0

-2.7375348478002585e6 2.3465016466903985e7 0.0
2.3465016466903985e7 139039.34103605698 0.0
0.0 0.0 0.0

-6.384772695069883e6 8.134877371513768e6 0.0
8.134877371513768e6 6.257614713546865e6 0.0
0.0 0.0 0.0

-8.552298282424368e6 1.2976415943584008e7 0.0
1.2976415943584008e7 1.5989804721977377e7 0.0
0.0 0.0 0.0

-3.118602529330468e6 2.3069056170125935e7 0.0
2.3069056170125935e7 1.4398803773301316e6 0.0
0.0 0.0 0.0

369008.5321982992 1.9985325352556e7 0.0
1.9985325352556e7 -8.176750051237263e6 0.0
0.0 0.0 0.0

8.941306164622933e6 2.022815358367638e7 0.0
2.022815358367638e7 1.0137325697357295e7 0.0
0.0 0.0 0.0

-3.8040341555585368e6 1.5085044353638168e7 0.0
1.5085044353638168e7 4.079461231273709e6 0.0
0.0 0.0 0.0

2.9410550144491806e6 2.2257540785785027e7 0.0
2.2257540785785027e7 -5.483762307759846e6 0.0
0.0 0.0 0.0

-4.268452152940165e6 1.6021265553779162e7 0.0
1.6021265553779162e7 6.374642068655989e6 0.0
0.0 0.0 0.0

-7.994121433920924e6 1.4676680641153006e7 0.0
1.4676680641153006e7 1.622680404266588e7 0.0
0.0 0.0 0.0

-5.153126015449064e6 9.117846627792036e6 0.0
9.117846627792036e6 7.735491107317984e6 0.0
0.0 0.0 0.0

-2.9466646892620963e6 2.3280130888566e7 0.0
2.3280130888566e7 742213.7954818761 0.0
0.0 0.0 0.0

4.1450941579621853e6 6.138459743468739e6 0.0
6.138459743468739e6 -2.0447885905255195e7 0.0
0.0 0.0 0.0

3.6355766136760702e6 7.840102306031312e6 0.0
7.840102306031312e6 -1.9279516037804794e7 0.0
0.0 0.0 0.0

-4.213697328371387e6 2.2420673970943984e7 0.0
2.2420673970943984e7 8.025245658959681e6 0.0
0.0 0.0 0.0

12623.255878214724 1.1148767975340726e7 0.0
1.1148767975340726e7 -6.341709451698334e6 0.0
0.0 0.0 0.0

2.428414664245071e6 1.036019938465234e7 0.0
1.036019938465234e7 -1.4263447800347162e7 0.0
0.0 0.0 0.0

-1.7732270823007608e6 2.517090480085e7 0.0
2.517090480085e7 -528858.9778085223 0.0
0.0 0.0 0.0

-1.5539515953020612e6 2.317169267604978e7 0.0
2.317169267604978e7 -1.4131991380573758e6 0.0
0.0 0.0 0.0

-1.897413100813921e6 1.882780096091068e7 0.0
1.882780096091068e7 -6.150001767940421e6 0.0
0.0 0.0 0.0

-814991.0590873528 1.538214499536262e7 0.0
1.538214499536262e7 -2.0086324291938536e7 0.0
0.0 0.0 0.0

-3.2127473055538675e6 2.544412321656569e7 0.0
2.544412321656569e7 1.94983330076908e6 0.0
0.0 0.0 0.0

-8.207778286285076e6 1.5583213726803185e7 0.0
1.5583213726803185e7 1.7502229010189984e7 0.0
0.0 0.0 0.0

2.458889770094578e6 6.841336597033984e6 0.0
6.841336597033984e6 -1.2914681649530597e7 0.0
0.0 0.0 0.0

-376881.4140073919 2.703970577979952e7 0.0
2.703970577979952e7 -606912.6704711238 0.0
0.0 0.0 0.0

-3.585100236479936e6 1.9125349183578562e7 0.0
1.9125349183578562e7 1.0379240483906081e7 0.0
0.0 0.0 0.0

-1.4546372457449557e6 2.2759686157729995e7 0.0
2.2759686157729995e7 -2.1375766926796767e6 0.0
0.0 0.0 0.0

-44933.360911668744 1.6930466898239657e7 0.0
1.6930466898239657e7 -1.2503709839905184e7 0.0
0.0 0.0 0.0

-2.1398820707955244e6 2.3766225306134444e7 0.0
2.3766225306134444e7 621178.6721695169 0.0
0.0 0.0 0.0

-4.424998480560567e6 1.9453400983269095e7 0.0
1.9453400983269095e7 1.2675956237146579e7 0.0
0.0 0.0 0.0

-2.1941885084117725e6 2.3748667504072834e7 0.0
2.3748667504072834e7 -973768.953532692 0.0
0.0 0.0 0.0

3.525133555612849e6 2.8641186312916137e7 0.0
2.8641186312916137e7 -2.4110881817764575e6 0.0
0.0 0.0 0.0

-1.1560191980488751e7 1.3397053502923707e7 0.0
1.3397053502923707e7 2.148813919826207e7 0.0
0.0 0.0 0.0

2.0925735971909817e6 1.1291039790197324e7 0.0
1.1291039790197324e7 -1.399667042250334e7 0.0
0.0 0.0 0.0

-1.2221825424378553e7 9.915249959252845e6 0.0
9.915249959252845e6 2.2145964506597206e7 0.0
0.0 0.0 0.0

-1.006606407420289e7 1.1876208564304322e7 0.0
1.1876208564304322e7 1.398760367985693e7 0.0
0.0 0.0 0.0

-576962.6785211954 -1.286680985896361e6 0.0
-1.286680985896361e6 1.1339964449414648e6 0.0
0.0 0.0 0.0

199094.2291265821 -1.6956867334703787e6 0.0
-1.6956867334703787e6 1.418143401532604e6 0.0
0.0 0.0 0.0

-1.1338304105715152e7 1.4122207546193598e7 0.0
1.4122207546193598e7 2.1884866571073215e7 0.0
0.0 0.0 0.0

7.888510547295893e6 1.9280101650722485e7 0.0
1.9280101650722485e7 7.604736217793105e6 0.0
0.0 0.0 0.0

-775882.122783326 2.3911073280637156e7 0.0
2.3911073280637156e7 -2.1552210899790213e6 0.0
0.0 0.0 0.0

-1.3263766615672752e6 1.9318857312034268e7 0.0
1.9318857312034268e7 -5.546337192461099e6 0.0
0.0 0.0 0.0

2.0302888981004423e6 1.1646077480845995e7 0.0
1.1646077480845995e7 -1.462687672843273e7 0.0
0.0 0.0 0.0

4.360729692292252e6 1.625611660279154e7 0.0
1.625611660279154e7 2.3570796114849743e7 0.0
0.0 0.0 0.0

-2.967550571561314e6 2.5882546326265384e7 0.0
2.5882546326265384e7 2.9110276204044055e6 0.0
0.0 0.0 0.0

-1.700838424817174e6 2.560039943940365e7 0.0
2.560039943940365e7 -465997.40575501276 0.0
0.0 0.0 0.0

-1.4022195662399915e6 2.6056506144232824e7 0.0
2.6056506144232824e7 -447131.9554719926 0.0
0.0 0.0 0.0

-5.99022965899126e6 1.7151594434006196e7 0.0
1.7151594434006196e7 1.091436350825214e7 0.0
0.0 0.0 0.0

-5.962924038171663e6 1.5291536058894865e7 0.0
1.5291536058894865e7 8.123332206780504e6 0.0
0.0 0.0 0.0

-7.140661936230762e6 1.033895913239633e7 0.0
1.033895913239633e7 8.027638420446835e6 0.0
0.0 0.0 0.0

-3.7992874870059076e6 2.0270722639615465e7 0.0
2.0270722639615465e7 8.377673383424714e6 0.0
0.0 0.0 0.0

-5.117391803053949e6 1.4698760859335959e7 0.0
1.4698760859335959e7 9.143529788152661e6 0.0
0.0 0.0 0.0

-1.1642045749139914e7 1.3202815763187721e7 0.0
1.3202815763187721e7 2.360060814277279e7 0.0
0.0 0.0 0.0

1.9981935705430303e6 1.2069027116561335e7 0.0
1.2069027116561335e7 -1.5093880486742716e7 0.0
0.0 0.0 0.0

-5.025664608064448e6 1.857623996057503e7 0.0
1.857623996057503e7 9.22712150119089e6 0.0
0.0 0.0 0.0

-1.185034542471127e7 1.1489725240144057e7 0.0
1.1489725240144057e7 2.453065497520957e7 0.0
0.0 0.0 0.0

2.0219454550957012e6 1.767832282403069e7 0.0
1.767832282403069e7 1.1605649571405487e7 0.0
0.0 0.0 0.0

-4.851497864764574e6 1.6077932687959475e7 0.0
1.6077932687959475e7 4.425098233053913e6 0.0
0.0 0.0 0.0

-2.061632004378669e6 2.4250809847973637e7 0.0
2.4250809847973637e7 749412.889428035 0.0
0.0 0.0 0.0

-2.2025420201068707e6 2.3245174617655534e7 0.0
2.3245174617655534e7 488371.06050795654 0.0
0.0 0.0 0.0

-4.203883481496004e6 2.0021388066454913e7 0.0
2.0021388066454913e7 1.1475672351581493e7 0.0
0.0 0.0 0.0

-866139.0669874037 1.6014841639717145e7 0.0
1.6014841639717145e7 -1.7066755499912925e7 0.0
0.0 0.0 0.0

-4.0427117432724764e6 2.041186093887357e7 0.0
2.041186093887357e7 6.245555971775562e6 0.0
0.0 0.0 0.0

-7.234297968789917e6 1.6088029714042896e7 0.0
1.6088029714042896e7 1.6210391532410013e7 0.0
0.0 0.0 0.0

-1.342332034253001e6 1.863031198842903e7 0.0
1.863031198842903e7 -5.840929700492933e6 0.0
0.0 0.0 0.0

1.0348430339829607e6 2.633526937153662e7 0.0
2.633526937153662e7 -1.7767661933943857e6 0.0
0.0 0.0 0.0

-4.1093465768981846e6 2.0644775466987316e7 0.0
2.0644775466987316e7 1.0339309165349983e7 0.0
0.0 0.0 0.0

-1.5684775512438817e6 1.8325076291710254e7 0.0
1.8325076291710254e7 -7.119307482274932e6 0.0
0.0 0.0 0.0

3.4039382964666877e6 8.328468424493525e6 0.0
8.328468424493525e6 -1.9868301406109873e7 0.0
0.0 0.0 0.0

-4.764294800489083e6 1.7227453708283816e7 0.0
1.7227453708283816e7 1.0514719501253087e7 0.0
0.0 0.0 0.0

1.3810527937953554e6 2.208375472209985e7 0.0
2.208375472209985e7 -5.795466807615035e6 0.0
0.0 0.0 0.0

2.7174683530257465e6 3.356124156891797e6 0.0
3.356124156891797e6 -7.315922113317244e6 0.0
0.0 0.0 0.0

2.8715190840453133e6 8.398020051534623e6 0.0
8.398020051534623e6 -2.5788043570438832e7 0.0
0.0 0.0 0.0

-522364.5314013972 1.7333882399622906e7 0.0
1.7333882399622906e7 -8.693017209403906e6 0.0
0.0 0.0 0.0

7.838061569068126e6 2.0097401476510458e7 0.0
2.0097401476510458e7 9.227970057339186e6 0.0
0.0 0.0 0.0

2.790995852432833e6 8.711178275628023e6 0.0
8.711178275628023e6 -2.0478125409457028e7 0.0
0.0 0.0 0.0

2.522240029384936e6 9.69789980649856e6 0.0
9.69789980649856e6 -1.995964676474212e7 0.0
0.0 0.0 0.0

587128.4624404326 1.68665669543046e7 0.0
1.68665669543046e7 4.46862398922346e6 0.0
0.0 0.0 0.0

-1.1689383217815878e7 4.7282599609393105e6 0.0
4.7282599609393105e6 2.428924096558655e7 0.0
0.0 0.0 0.0

-8.55256396542713e6 1.0560862234347492e7 0.0
1.0560862234347492e7 1.0810207575920705e7 0.0
0.0 0.0 0.0

-6.75803012728285e6 1.6364290445333472e7 0.0
1.6364290445333472e7 -3.5254000955122136e7 0.0
0.0 0.0 0.0

-6.971846890410393e6 1.4918751047869978e7 0.0
1.4918751047869978e7 1.0642242621533003e7 0.0
0.0 0.0 0.0

-1.2679380591826309e7 9.349134819453653e6 0.0
9.349134819453653e6 1.783924049588795e7 0.0
0.0 0.0 0.0

987406.9812711016 1.8955844630305752e7 0.0
1.8955844630305752e7 8.954044998773865e6 0.0
0.0 0.0 0.0

-8.785830573649287e6 -6.145471421005066e6 0.0
-6.145471421005066e6 2.4423798755393777e7 0.0
0.0 0.0 0.0

-5.284666528976598e6 1.7487935695314024e7 0.0
1.7487935695314024e7 8.68751866113763e6 0.0
0.0 0.0 0.0

-3.7140713513950733e6 2.249772314068408e7 0.0
2.249772314068408e7 6.914828599140934e6 0.0
0.0 0.0 0.0

51193.64016994368 1.5832629382891903e7 0.0
1.5832629382891903e7 -1.306407425440995e7 0.0
0.0 0.0 0.0

-5.858553615119679e6 -1.0964509080695393e6 0.0
-1.0964509080695393e6 6.902029745594295e6 0.0
0.0 0.0 0.0

-6.593125140269086e6 9.829777283598257e6 0.0
9.829777283598257e6 6.56531978076365e6 0.0
0.0 0.0 0.0

1.8722132445262969e6 7.286119507386503e6 0.0
7.286119507386503e6 -4.2119869560056604e7 0.0
0.0 0.0 0.0

2.567526657346717e6 2.6496893782297157e7 0.0
2.6496893782297157e7 -2.5751451962174494e6 0.0
0.0 0.0 0.0

-1.0490576117675245e7 1.0739162819096874e7 0.0
1.0739162819096874e7 3.0760199188014522e7 0.0
0.0 0.0 0.0

-4.020848920133503e6 1.6712767433536414e7 0.0
1.6712767433536414e7 -1.214650808324881e7 0.0
0.0 0.0 0.0

-1.2914625549646465e7 8.981145051452473e6 0.0
8.981145051452473e6 1.9143302843186036e7 0.0
0.0 0.0 0.0

-9.269825251966033e6 2.2657811007141963e7 0.0
2.2657811007141963e7 -4.929380389277449e6 0.0
0.0 0.0 0.0

-842720.5353232904 1.732658401614714e7 0.0
1.732658401614714e7 -4.1070077491436866e6 0.0
0.0 0.0 0.0

1.439961125500203e6 1.6469970327576559e7 0.0
1.6469970327576559e7 1.239606355122424e7 0.0
0.0 0.0 0.0

3.0305632970545795e6 7.784401925335557e6 0.0
7.784401925335557e6 -2.696945027464492e7 0.0
0.0 0.0 0.0

-4.510576071920799e6 1.5837247698226128e7 0.0
1.5837247698226128e7 -9.469843867453488e6 0.0
0.0 0.0 0.0

3.2165159228264336e6 2.996757461366601e7 0.0
2.996757461366601e7 -4.0268322062787684e6 0.0
0.0 0.0 0.0

-4.885697306598907e6 1.7467299923687022e7 0.0
1.7467299923687022e7 1.141545521140473e7 0.0
0.0 0.0 0.0

-9.164817789522588e6 -5.134007622565627e6 0.0
-5.134007622565627e6 2.7528350442907438e7 0.0
0.0 0.0 0.0

-2.6838972219737405e6 1.761225392820997e7 0.0
1.761225392820997e7 1.3275811491135662e7 0.0
0.0 0.0 0.0

-7.395114309203077e6 2.168331965894465e7 0.0
2.168331965894465e7 -6.932793471781441e6 0.0
0.0 0.0 0.0

-5.094690165942842e6 8.788363404935108e6 0.0
8.788363404935108e6 3.477677726555635e6 0.0
0.0 0.0 0.0

486278.2267106138 1.7144617106816422e7 0.0
1.7144617106816422e7 2.677364242666862e7 0.0
0.0 0.0 0.0

-9.710184619249605e6 1.4258225982390018e7 0.0
1.4258225982390018e7 1.5560584114774264e7 0.0
0.0 0.0 0.0

-1.0418974776696766e7 1.2375996360565467e7 0.0
1.2375996360565467e7 1.5045493831458867e7 0.0
0.0 0.0 0.0

-1.0998058111589089e7 8.892207659718141e6 0.0
8.892207659718141e6 3.0628674067439638e7 0.0
0.0 0.0 0.0

-3.0586047347979834e6 1.7730717612651717e7 0.0
1.7730717612651717e7 1.63399732827984e7 0.0
0.0 0.0 0.0

-7.460720134470663e6 2.5958596022054512e7 0.0
2.5958596022054512e7 5.287445572114406e6 0.0
0.0 0.0 0.0

-1.2876825692436849e6 2.7613068593370616e7 0.0
2.7613068593370616e7 -455082.5769155888 0.0
0.0 0.0 0.0

-4.669980278616808e6 1.9297172919693504e7 0.0
1.9297172919693504e7 8.933202989938859e6 0.0
0.0 0.0 0.0

2.4167333775184657e6 3.2208382348642247e6 0.0
3.2208382348642247e6 -6.401171677741745e6 0.0
0.0 0.0 0.0

2.5600606726926593e6 1.0608675074188149e7 0.0
1.0608675074188149e7 -1.6319709179709813e7 0.0
0.0 0.0 0.0

2.1419856282144133e6 1.0505435101278186e7 0.0
1.0505435101278186e7 -1.280348231333838e7 0.0
0.0 0.0 0.0

-6.139357749143943e6 1.5637824168018188e7 0.0
1.5637824168018188e7 9.241409840864072e6 0.0
0.0 0.0 0.0

-3.1188400921012913e6 3.5997930203958414e7 0.0
3.5997930203958414e7 -3.025186522953301e6 0.0
0.0 0.0 0.0

-7.600730281527201e6 6.917446366426707e6 0.0
6.917446366426707e6 7.511486987425579e6 0.0
0.0 0.0 0.0

237063.75497902615 2.4749733178222116e7 0.0
2.4749733178222116e7 -2.5408000205180477e6 0.0
0.0 0.0 0.0

1.5955779933157137e6 2.281020336398188e7 0.0
2.281020336398188e7 -5.19247277532077e6 0.0
0.0 0.0 0.0

-3.8985006404583147e6 9.627640415014321e6 0.0
9.627640415014321e6 4.7486862036793865e6 0.0
0.0 0.0 0.0

-321390.53550851974 1.5375710826600788e7 0.0
1.5375710826600788e7 978159.3346676554 0.0
0.0 0.0 0.0

1.3688637457340395e7 1.935394395913096e7 0.0
1.935394395913096e7 8.485769506017359e6 0.0
0.0 0.0 0.0

4.987759036948662e6 1.7742097115924623e7 0.0
1.7742097115924623e7 2.508499592392841e7 0.0
0.0 0.0 0.0

265558.0987622943 1.6778580138451446e7 0.0
1.6778580138451446e7 1.0816788665147254e7 0.0
0.0 0.0 0.0

-9.485898031721897e6 1.3748636913350444e7 0.0
1.3748636913350444e7 1.4659075084538499e7 0.0
0.0 0.0 0.0

-2.2420325147174536e6 3.3784827298465684e7 0.0
3.3784827298465684e7 -2.107762950317597e6 0.0
0.0 0.0 0.0

-1.369501977537091e7 2.3628835478314366e7 0.0
2.3628835478314366e7 -4.121343154431405e6 0.0
0.0 0.0 0.0

-1.0630316148443472e7 1.2962425902928753e7 0.0
1.2962425902928753e7 1.5962838077302426e7 0.0
0.0 0.0 0.0

1.287265733122021e6 1.147799934265399e7 0.0
1.147799934265399e7 -2.7473812405059356e7 0.0
0.0 0.0 0.0

4.589657860281354e6 2.280815891836601e6 0.0
2.280815891836601e6 -3.0238462509346873e7 0.0
0.0 0.0 0.0

913265.8787968084 1.5144114924086595e7 0.0
1.5144114924086595e7 -1.3729592945554543e7 0.0
0.0 0.0 0.0

2.2786282475312436e6 1.1140756499910152e7 0.0
1.1140756499910152e7 -1.5471477365885412e7 0.0
0.0 0.0 0.0

469407.08708222536 1.6350621659271915e7 0.0
1.6350621659271915e7 -1.216739114746798e7 0.0
0.0 0.0 0.0

-4.248469878137382e6 3.877384070301144e7 0.0
3.877384070301144e7 -5.047264394747425e6 0.0
0.0 0.0 0.0

-3.228787470808257e6 2.0781213372880325e7 0.0
2.0781213372880325e7 3.8323041983215585e6 0.0
0.0 0.0 0.0

-432004.0846063639 1.887403634737662e7 0.0
1.887403634737662e7 -9.914926250192255e6 0.0
0.0 0.0 0.0

-611420.0388258384 1.8267074777451288e7 0.0
1.8267074777451288e7 -1.0280910001830028e7 0.0
0.0 0.0 0.0

2.6839022145265266e6 9.800743223794654e6 0.0
9.800743223794654e6 -1.5148182865338247e7 0.0
0.0 0.0 0.0

-4.619890995322743e6 2.0182696272998657e7 0.0
2.0182696272998657e7 9.344184056306556e6 0.0
0.0 0.0 0.0

-1.1290950639007622e6 1.8058300123743046e7 0.0
1.8058300123743046e7 1.420408112573655e7 0.0
0.0 0.0 0.0

-5.940505987748774e6 2.0939955212382615e7 0.0
2.0939955212382615e7 7.12091000907179e6 0.0
0.0 0.0 0.0

-5.859904558435474e6 7.1167610209779255e6 0.0
7.1167610209779255e6 5.910733941468981e7 0.0
0.0 0.0 0.0

-7.928044552664133e6 -3.0734320210613576e6 0.0
-3.0734320210613576e6 1.5734801357570905e7 0.0
0.0 0.0 0.0

-1.5443699334440617e7 5.7091989967417635e7 0.0
5.7091989967417635e7 -1.748927106369865e7 0.0
0.0 0.0 0.0

2.239709715687615e6 1.6674916042636419e7 0.0
1.6674916042636419e7 1.551133811142109e7 0.0
0.0 0.0 0.0

-1.7052228963340553e6 3.2313669988612022e7 0.0
3.2313669988612022e7 -1.3112138233736989e6 0.0
0.0 0.0 0.0

10258.10557155963 1.6091852883464169e7 0.0
1.6091852883464169e7 -9.893811891002232e6 0.0
0.0 0.0 0.0

235676.60561339185 1.831375892505488e7 0.0
1.831375892505488e7 -9.85195652024079e6 0.0
0.0 0.0 0.0

-3.381725058591613e6 2.1690757537249234e7 0.0
2.1690757537249234e7 5.620664259500689e6 0.0
0.0 0.0 0.0

4.549384490053522e6 2.8329679409689847e6 0.0
2.8329679409689847e6 -1.7772764110957883e7 0.0
0.0 0.0 0.0

5.972762318266919e6 1.7522477277838428e7 0.0
1.7522477277838428e7 1.2172578605023832e6 0.0
0.0 0.0 0.0

2.4651037861838797e6 1.1062948084967088e7 0.0
1.1062948084967088e7 -1.687311810612629e7 0.0
0.0 0.0 0.0

2.0814390157016986e6 2.0888158907419898e7 0.0
2.0888158907419898e7 -6.283285554161792e6 0.0
0.0 0.0 0.0

3.684616023592662e6 7.273951283713709e6 0.0
7.273951283713709e6 -2.619055320855782e7 0.0
0.0 0.0 0.0

-4.0551885004742197e6 1.8388152481687322e7 0.0
1.8388152481687322e7 8.032126440824451e6 0.0
0.0 0.0 0.0

2.96764176347826e6 6.9390232862485405e6 0.0
6.9390232862485405e6 -1.1241377910786165e7 0.0
0.0 0.0 0.0

-1.6524264193589434e6 1.0154281194104793e7 0.0
1.0154281194104793e7 -533578.2465628509 0.0
0.0 0.0 0.0

-1.3041358502506396e7 2.087126213207369e7 0.0
2.087126213207369e7 -4.1124380576820327e6 0.0
0.0 0.0 0.0

3.1253635829514163e6 9.354670303682264e6 0.0
9.354670303682264e6 -1.9405448327185705e7 0.0
0.0 0.0 0.0

-2.8053262103945795e6 1.518793964801762e7 0.0
1.518793964801762e7 -3.396760273195346e6 0.0
0.0 0.0 0.0

-989372.1271027678 1.9342854107484974e7 0.0
1.9342854107484974e7 -8.404652450971356e6 0.0
0.0 0.0 0.0

-3.246232989392152e6 1.7534912615347747e7 0.0
1.7534912615347747e7 1.9966314374488033e7 0.0
0.0 0.0 0.0

295238.694915783 1.694848079207029e7 0.0
1.694848079207029e7 -2.127029889343455e6 0.0
0.0 0.0 0.0

-6.694827037776183e6 1.4585293410017887e7 0.0
1.4585293410017887e7 9.521745790739195e6 0.0
0.0 0.0 0.0

-1.229157681917007e7 6.218973493039261e6 0.0
6.218973493039261e6 2.6392307915484287e7 0.0
0.0 0.0 0.0

-2.659476616318225e6 1.780867640303124e7 0.0
1.780867640303124e7 2.0367451901582625e7 0.0
0.0 0.0 0.0

-8.685806042235762e6 1.5348037811089827e7 0.0
1.5348037811089827e7 1.5067022369199358e7 0.0
0.0 0.0 0.0

-1.1651502742408095e7 1.4788908323128338e6 0.0
1.4788908323128338e6 2.3587390644769847e7 0.0
0.0 0.0 0.0

-5.508197344725872e6 1.6866856179986678e7 0.0
1.6866856179986678e7 1.275826089572578e7 0.0
0.0 0.0 0.0

-5.528708003387051e6 1.8900567683067333e7 0.0
1.8900567683067333e7 1.388832579498566e7 0.0
0.0 0.0 0.0

-7.53478028915688e6 4.909736042334776e6 0.0
4.909736042334776e6 1.1936302897773743e7 0.0
0.0 0.0 0.0

-791340.0067083137 1.8811599059911307e7 0.0
1.8811599059911307e7 -9.357012812304998e6 0.0
0.0 0.0 0.0

-3.6427243423183123e6 2.161054106320789e7 0.0
2.161054106320789e7 3.5466663412761977e6 0.0
0.0 0.0 0.0

-8.68400601962219e6 1.5817248471446376e7 0.0
1.5817248471446376e7 1.5794094779789653e7 0.0
0.0 0.0 0.0

-1.0773735236329224e7 2.039010174257157e6 0.0
2.039010174257157e6 3.434135367612192e7 0.0
0.0 0.0 0.0

-2.91672423799666e6 1.8431475877254378e7 0.0
1.8431475877254378e7 1.0732083339197313e7 0.0
0.0 0.0 0.0

-9.766872804472215e6 1.220105333754206e7 0.0
1.220105333754206e7 1.7353947432517897e7 0.0
0.0 0.0 0.0

1.6838299406308234e6 1.1228612528555065e7 0.0
1.1228612528555065e7 -2.5983526036523327e7 0.0
0.0 0.0 0.0

-4.249970202687772e6 1.6989151440723047e7 0.0
1.6989151440723047e7 2.4712155331798427e7 0.0
0.0 0.0 0.0

-1.1088387358749215e7 1.4070575439704275e7 0.0
1.4070575439704275e7 2.0469776576134555e7 0.0
0.0 0.0 0.0

2.147036065972573e6 1.0077761866782632e7 0.0
1.0077761866782632e7 -1.2190121389916917e7 0.0
0.0 0.0 0.0

4.155986493297754e6 3.8556828944992195e6 0.0
3.8556828944992195e6 -2.443441272324788e7 0.0
0.0 0.0 0.0

592597.8258406837 1.7061184568260085e7 0.0
1.7061184568260085e7 2.0245543758514207e7 0.0
0.0 0.0 0.0

-1.58676485835791e6 1.7335410252586976e7 0.0
1.7335410252586976e7 2.2468790677008063e7 0.0
0.0 0.0 0.0

-663835.2391777877 1.564405348074883e7 0.0
1.564405348074883e7 -7.188628930908789e6 0.0
0.0 0.0 0.0

-4.030780818736324e6 2.130648975522654e7 0.0
2.130648975522654e7 9.353791387819635e6 0.0
0.0 0.0 0.0

-1.2047679642319053e6 2.948094569489632e7 0.0
2.948094569489632e7 -706137.2710758249 0.0
0.0 0.0 0.0

77655.80887498194 1.7363201157032344e7 0.0
1.7363201157032344e7 -1.1579606797357142e7 0.0
0.0 0.0 0.0

-8.980557422057638e6 -2.0889151750537779e6 0.0
-2.0889151750537779e6 1.693162328815131e7 0.0
0.0 0.0 0.0

1.1164017803645749e6 1.2966236473548913e7 0.0
1.2966236473548913e7 -2.2473996552459802e7 0.0
0.0 0.0 0.0

-4.38118803081689e6 1.9158749670039076e7 0.0
1.9158749670039076e7 1.1222782831595978e7 0.0
0.0 0.0 0.0

-1.1588318246705402e7 1.2742478967775512e7 0.0
1.2742478967775512e7 2.099759981751637e7 0.0
0.0 0.0 0.0

2.211673237157856e6 1.449265039626759e7 0.0
1.449265039626759e7 8.547366033963311e6 0.0
0.0 0.0 0.0

2.272020298768211e6 9.094538267813623e6 0.0
9.094538267813623e6 -3.0149294229432944e7 0.0
0.0 0.0 0.0

1.8802857464406136e6 1.1131901588122297e7 0.0
1.1131901588122297e7 -2.4434299158789292e7 0.0
0.0 0.0 0.0

4.168472313966253e6 3.11773192581676e7 0.0
3.11773192581676e7 -5.022089412534573e6 0.0
0.0 0.0 0.0

-3.05194941321322e6 2.1128597797694825e7 0.0
2.1128597797694825e7 2.984435503118323e6 0.0
0.0 0.0 0.0

-3.2657758798734383e6 2.2094391877714586e7 0.0
2.2094391877714586e7 4.802380033810056e6 0.0
0.0 0.0 0.0

-2.564892054512676e6 2.206576505609893e7 0.0
2.206576505609893e7 -1.7539223384975633e6 0.0
0.0 0.0 0.0

4.207733761435309e6 4.427866078376707e6 0.0
4.427866078376707e6 -1.491705930932339e7 0.0
0.0 0.0 0.0

-1.207670936062174e6 1.441378004579098e7 0.0
1.441378004579098e7 -6.613401940131012e6 0.0
0.0 0.0 0.0

-4.261774519177478e6 1.903569011016404e7 0.0
1.903569011016404e7 1.051476381443882e7 0.0
0.0 0.0 0.0

-63000.18572244467 1.930045513368642e7 0.0
1.930045513368642e7 -9.211856033773616e6 0.0
0.0 0.0 0.0

-1.1476507149817396e6 2.8762928604898922e7 0.0
2.8762928604898922e7 -532827.0634059504 0.0
0.0 0.0 0.0

-5.599677796673775e6 7.892161316277905e6 0.0
7.892161316277905e6 9.027102837874837e6 0.0
0.0 0.0 0.0

-1.2874369316251928e7 8.19634809020314e6 0.0
8.19634809020314e6 2.1917793929814614e7 0.0
0.0 0.0 0.0

-1.203577740502192e6 2.8179465008314144e7 0.0
2.8179465008314144e7 -389739.78629989753 0.0
0.0 0.0 0.0

-1.1490825717095686e6 1.9898440452122185e7 0.0
1.9898440452122185e7 -7.501095024368766e6 0.0
0.0 0.0 0.0

1.9725156021585297e6 1.0190976916791383e7 0.0
1.0190976916791383e7 -1.5775428514765913e7 0.0
0.0 0.0 0.0

-5.580923098071846e6 1.5363804843833482e7 0.0
1.5363804843833482e7 1.1343030285813967e7 0.0
0.0 0.0 0.0

2.399868772008788e6 8.469021608058857e6 0.0
8.469021608058857e6 -3.1524793710127052e7 0.0
0.0 0.0 0.0

-1.9095099389971206e6 2.5169433126410905e7 0.0
2.5169433126410905e7 923965.5403306691 0.0
0.0 0.0 0.0

-3.688099759379845e6 1.9326771877462786e7 0.0
1.9326771877462786e7 8.532936289610522e6 0.0
0.0 0.0 0.0

782264.8512278423 1.2155958914082492e7 0.0
1.2155958914082492e7 -2.765743591442616e7 0.0
0.0 0.0 0.0

-3.8597321443209397e6 2.255069910841184e7 0.0
2.255069910841184e7 5.115908438197847e6 0.0
0.0 0.0 0.0

-1.2686027478942132e7 7.995817621614867e6 0.0
7.995817621614867e6 2.3387874488339763e7 0.0
0.0 0.0 0.0

1.6845137770265928e6 9.923155221926747e6 0.0
9.923155221926747e6 -1.371027480410533e7 0.0
0.0 0.0 0.0

330725.88815683825 1.8177147522869933e7 0.0
1.8177147522869933e7 8.87527184210946e6 0.0
0.0 0.0 0.0

-3.4908034752396494e6 2.064581067565637e7 0.0
2.064581067565637e7 6.604504740343836e6 0.0
0.0 0.0 0.0

181437.40907686763 1.2918225558457246e7 0.0
1.2918225558457246e7 -2.7263598913609955e7 0.0
0.0 0.0 0.0

-5.512383387223262e6 4.260788368860619e7 0.0
4.260788368860619e7 -8.097571901638139e6 0.0
0.0 0.0 0.0

-1.0395868912024323e7 1.5278396407898206e7 0.0
1.5278396407898206e7 1.8631771495901667e7 0.0
0.0 0.0 0.0

-7.863441242408938e6 1.6314376955773665e7 0.0
1.6314376955773665e7 -4.226809170449968e7 0.0
0.0 0.0 0.0

-4.3560744515810255e6 8.691296638297834e6 0.0
8.691296638297834e6 6.006705489617944e6 0.0
0.0 0.0 0.0

-5.395114848516772e6 1.775099079637457e7 0.0
1.775099079637457e7 9.615402735245768e6 0.0
0.0 0.0 0.0

-7.052149133254692e6 1.6637366968609514e7 0.0
1.6637366968609514e7 2.3885189968730614e7 0.0
0.0 0.0 0.0

-6.065219024883043e6 1.4263939247918893e7 0.0
1.4263939247918893e7 1.1778443193363769e7 0.0
0.0 0.0 0.0

-3.22971458338009e6 1.515302954924058e7 0.0
1.515302954924058e7 4.591528853174172e7 0.0
0.0 0.0 0.0

-4.349533285976928e6 1.782762563109845e7 0.0
1.782762563109845e7 9.218862186830446e6 0.0
0.0 0.0 0.0

-560509.2727599367 1.5607982912419021e7 0.0
1.5607982912419021e7 -1.8908580545400515e7 0.0
0.0 0.0 0.0

190230.738025886 1.7792097799819704e7 0.0
1.7792097799819704e7 -1.2061544449490037e7 0.0
0.0 0.0 0.0

1.1708457738470295e8 2.094774109532806e7 0.0
2.094774109532806e7 1.0127478136559706e7 0.0
0.0 0.0 0.0

-9.198199866173122e6 -4.906462356013219e6 0.0
-4.906462356013219e6 2.8618522933346983e7 0.0
0.0 0.0 0.0

4.669042117231954e6 2.357271252482588e6 0.0
2.357271252482588e6 -2.7702146235046454e7 0.0
0.0 0.0 0.0

-6.740668439209257e6 1.5920511222285586e6 0.0
1.5920511222285586e6 7.945370975111041e6 0.0
0.0 0.0 0.0

-2.4042922529872614e6 2.1585661036688108e7 0.0
2.1585661036688108e7 -2.587319373607668e6 0.0
0.0 0.0 0.0

-8.866222109027794e6 -3.3586540327881104e6 0.0
-3.3586540327881104e6 3.723359305966494e7 0.0
0.0 0.0 0.0

-5.155286237770563e6 1.5075047427536635e7 0.0
1.5075047427536635e7 -2.5575253530783016e7 0.0
0.0 0.0 0.0

-1.2038967701930188e7 1.1060559730718741e7 0.0
1.1060559730718741e7 2.133487684168455e7 0.0
0.0 0.0 0.0

-8.752164232385483e6 1.6217045459709974e7 0.0
1.6217045459709974e7 1.6394023341671495e7 0.0
0.0 0.0 0.0

4.516983968840193e6 2.2263145538305696e6 0.0
2.2263145538305696e6 -3.1115158535983372e7 0.0
0.0 0.0 0.0

688291.0521455929 1.5637787115695741e7 0.0
1.5637787115695741e7 -1.2765727389125071e7 0.0
0.0 0.0 0.0

-1.342838076434648e6 3.034381810922618e7 0.0
3.034381810922618e7 -618033.4598481414 0.0
0.0 0.0 0.0

1.296885248974625e6 1.0497641335900322e7 0.0
1.0497641335900322e7 -1.2863951336413685e7 0.0
0.0 0.0 0.0

-2.173599363511539e6 1.879514091704953e7 0.0
1.879514091704953e7 -3.1225313353427257e6 0.0
0.0 0.0 0.0

-1.9974247543700077e6 7.666787403182942e6 0.0
7.666787403182942e6 8.514406952027369e7 0.0
0.0 0.0 0.0

-982935.6260135286 7.76719956154476e6 0.0
7.76719956154476e6 -7.349603871156865e7 0.0
0.0 0.0 0.0

-3.801101929461533e6 1.5346587272411423e7 0.0
1.5346587272411423e7 -6.0870423585012145e7 0.0
0.0 0.0 0.0

1.3418616273545716e6 1.4192098396935742e7 0.0
1.4192098396935742e7 -1.560905525126275e7 0.0
0.0 0.0 0.0

3.5002374505876545e6 6.621654565621514e6 0.0
6.621654565621514e6 -3.372975403571103e7 0.0
0.0 0.0 0.0

-2.01198194857434e7 2.440713257831711e7 0.0
2.440713257831711e7 4.06607094780414e6 0.0
0.0 0.0 0.0

-204321.6736500943 1.8808919229327902e7 0.0
1.8808919229327902e7 -1.0176923994997626e7 0.0
0.0 0.0 0.0

-9.1078305052475e6 -4.7341898621876985e6 0.0
-4.7341898621876985e6 2.963568969636119e7 0.0
0.0 0.0 0.0

-7.231777012216447e6 1.0068466790360468e7 0.0
1.0068466790360468e7 1.0762384893618539e7 0.0
0.0 0.0 0.0

-3.1169440576133514e6 2.246147470145769e7 0.0
2.246147470145769e7 3.9868808620863287e6 0.0
0.0 0.0 0.0

-4.815490570402175e6 1.9500233684276808e7 0.0
1.9500233684276808e7 9.689128191461839e6 0.0
0.0 0.0 0.0

-8.876802504694164e6 1.2856011705965983e7 0.0
1.2856011705965983e7 1.2535643391701398e7 0.0
0.0 0.0 0.0

-6.627246587902328e6 6.315015769403604e6 0.0
6.315015769403604e6 1.0913586174165627e7 0.0
0.0 0.0 0.0

4.715001874709678e6 1.755983209083239e7 0.0
1.755983209083239e7 3.1270054161678115e6 0.0
0.0 0.0 0.0

-1.3473646136542158e6 2.048132156628503e7 0.0
2.048132156628503e7 -6.612356419169786e6 0.0
0.0 0.0 0.0

-1.7729782019212542e6 6.022147496161143e6 0.0
6.022147496161143e6 -1.4451864204248996e6 0.0
0.0 0.0 0.0

-1.2713305535046307e6 2.330118444252043e7 0.0
2.330118444252043e7 -1.9487759953656876e6 0.0
0.0 0.0 0.0

-1.1872314594934914e7 1.4132829395262038e7 0.0
1.4132829395262038e7 2.0049780357687645e7 0.0
0.0 0.0 0.0

-5.359098793410614e6 1.5057965002373092e7 0.0
1.5057965002373092e7 1.0259333133622985e7 0.0
0.0 0.0 0.0

-9.05079370463877e6 -4.44662041963737e6 0.0
-4.44662041963737e6 3.0688408670418154e7 0.0
0.0 0.0 0.0

4.556813135746006e6 2.3124473074843623e6 0.0
2.3124473074843623e6 -2.9379326751587316e7 0.0
0.0 0.0 0.0

3.3457653777587283e6 6.857516478509603e6 0.0
6.857516478509603e6 -3.589283965603083e7 0.0
0.0 0.0 0.0

-1.2916629614960056e7 9.939978644529138e6 0.0
9.939978644529138e6 1.9763973644535832e7 0.0
0.0 0.0 0.0

1.0673487334687263e6 4.98432100407683e6 0.0
4.98432100407683e6 -6.313563836607864e7 0.0
0.0 0.0 0.0

-7.74037400052537e6 -1.443689416060942e6 0.0
-1.443689416060942e6 4.99067864212504e7 0.0
0.0 0.0 0.0

2.2298651987146772e6 9.647934437718756e6 0.0
9.647934437718756e6 -1.668232923117705e7 0.0
0.0 0.0 0.0

3.3863592200186737e6 8.456037368903479e6 0.0
8.456037368903479e6 -1.837426336220629e7 0.0
0.0 0.0 0.0

2.4571667032507546e6 2.801642723662825e7 0.0
2.801642723662825e7 -2.1729496666972702e6 0.0
0.0 0.0 0.0

-6.046632393880855e6 2.5864693151767828e7 0.0
2.5864693151767828e7 5.7208776607133e6 0.0
0.0 0.0 0.0

-3.7140219209392564e6 2.0215977369715586e7 0.0
2.0215977369715586e7 7.489988718978645e6 0.0
0.0 0.0 0.0

-1.0737462662036342e6 2.236952841261906e7 0.0
2.236952841261906e7 -3.50689648153483e6 0.0
0.0 0.0 0.0

-1.756845718669482e6 2.874157570074095e7 0.0
2.874157570074095e7 1.5664820955870817e6 0.0
0.0 0.0 0.0

-3.621805985230592e6 2.138107812445449e7 0.0
2.138107812445449e7 7.257060877048472e6 0.0
0.0 0.0 0.0

-586135.1516838041 1.71056051136598e7 0.0
1.71056051136598e7 9.138492844410932e6 0.0
0.0 0.0 0.0

2.661585935434062e6 2.919185914265068e6 0.0
2.919185914265068e6 -5.244095041860803e7 0.0
0.0 0.0 0.0

4.381191915151762e6 2.0578786558818473e6 0.0
2.0578786558818473e6 -3.4729494303564295e7 0.0
0.0 0.0 0.0

3.579668600896094e6 2.2143173791812444e6 0.0
2.2143173791812444e6 -4.496968123831576e7 0.0
0.0 0.0 0.0

-3.1722265005355165e6 2.2528618898386154e7 0.0
2.2528618898386154e7 1.3016608125598417e6 0.0
0.0 0.0 0.0

-5.91931157779709e6 9.29494257604336e6 0.0
9.29494257604336e6 5.0584814888448045e6 0.0
0.0 0.0 0.0

-8.638150478573715e6 -3.147863300187499e6 0.0
-3.147863300187499e6 3.8325232089950316e7 0.0
0.0 0.0 0.0

-1.27305382413129e7 1.0149587769705532e7 0.0
1.0149587769705532e7 1.85475686948261e7 0.0
0.0 0.0 0.0

4.440241292484233e6 3.9595287673605196e6 0.0
3.9595287673605196e6 -1.9382773535020918e7 0.0
0.0 0.0 0.0

-1.2307560048241206e7 2.4173226254291274e7 0.0
2.4173226254291274e7 5.40845522471349e6 0.0
0.0 0.0 0.0

-5.067303547468681e6 1.5592786920744397e7 0.0
1.5592786920744397e7 -2.209745699938948e7 0.0
0.0 0.0 0.0

-9.071196644472241e6 -5.957595342112758e6 0.0
-5.957595342112758e6 2.392906170623535e7 0.0
0.0 0.0 0.0

-1.1625066721876265e7 2.186957022212721e6 0.0
2.186957022212721e6 1.7016884919454835e7 0.0
0.0 0.0 0.0

-1.2239982154286938e7 7.499237443898431e6 0.0
7.499237443898431e6 2.6924921696261346e7 0.0
0.0 0.0 0.0

-5.331428169191959e6 1.821191768477267e7 0.0
1.821191768477267e7 1.6064978235483825e7 0.0
0.0 0.0 0.0

1.8342405932976995e6 1.159659443142676e7 0.0
1.159659443142676e7 -2.191287642517076e7 0.0
0.0 0.0 0.0

3.329921709875727e6 2.5620698177299798e6 0.0
2.5620698177299798e6 -4.960498958361083e7 0.0
0.0 0.0 0.0

4.610111914253941e6 2.481616358267734e6 0.0
2.481616358267734e6 -2.5298027828078646e7 0.0
0.0 0.0 0.0

7.651129843726821e6 2.973806626088077e7 0.0
2.973806626088077e7 -6.884074804868503e6 0.0
0.0 0.0 0.0

-8.039614673143415e6 -1.706154720452919e6 0.0
-1.706154720452919e6 4.784563066982953e7 0.0
0.0 0.0 0.0

3.1971227544345018e6 7.928493993839119e6 0.0
7.928493993839119e6 -3.0744692016145535e7 0.0
0.0 0.0 0.0

-6.638610273095269e6 1.4823264512732644e6 0.0
1.4823264512732644e6 6.467896582455702e7 0.0
0.0 0.0 0.0

2.3653804286380038e6 3.582557892856432e6 0.0
3.582557892856432e6 -5.667811148191476e7 0.0
0.0 0.0 0.0

-3.9409887397412024e6 2.249508324324668e7 0.0
2.249508324324668e7 7.524652564191215e6 0.0
0.0 0.0 0.0

-915356.3985579002 1.138736949441262e7 0.0
1.138736949441262e7 -6.359984359536004e6 0.0
0.0 0.0 0.0

-718509.5132106198 1.6394090328180535e7 0.0
1.6394090328180535e7 -1.0318658494195187e7 0.0
0.0 0.0 0.0

436351.6844715541 1.528545302044404e7 0.0
1.528545302044404e7 -1.680451731467052e7 0.0
0.0 0.0 0.0

-7.414146355299e6 -1.07110713537675e6 0.0
-1.07110713537675e6 5.252433466673154e7 0.0
0.0 0.0 0.0

3.3625993750644736e6 2.408784453401026e6 0.0
2.408784453401026e6 -4.708982627694033e7 0.0
0.0 0.0 0.0

-1.1141175100934472e7 1.5001602347087335e7 0.0
1.5001602347087335e7 2.0643738960337795e7 0.0
0.0 0.0 0.0

-1.2076504578660265e7 1.3482549283242311e7 0.0
1.3482549283242311e7 1.9609699600118678e7 0.0
0.0 0.0 0.0

-1.2631142167965865e7 9.068657314604351e6 0.0
9.068657314604351e6 2.38936680694724e7 0.0
0.0 0.0 0.0

-7.015559007547051e6 1.3417501571896005e7 0.0
1.3417501571896005e7 1.3423755876868835e7 0.0
0.0 0.0 0.0

1.432166985416539e6 1.74795904332497e7 0.0
1.74795904332497e7 2.7277730322649576e7 0.0
0.0 0.0 0.0

-612716.277376239 2.0938069520254664e7 0.0
2.0938069520254664e7 -5.891430290674732e6 0.0
0.0 0.0 0.0

-2.922162724456224e6 2.3808507026140116e7 0.0
2.3808507026140116e7 897219.1950561593 0.0
0.0 0.0 0.0

-1.0272344473599825e6 2.2029184551908407e7 0.0
2.2029184551908407e7 -4.86619190536538e6 0.0
0.0 0.0 0.0

2.8936603579391353e6 9.663326942311531e6 0.0
9.663326942311531e6 -1.6609608431104949e7 0.0
0.0 0.0 0.0

-3.8597275288889254e6 2.4593075826569486e7 0.0
2.4593075826569486e7 5.130366992497502e6 0.0
0.0 0.0 0.0

-1.235922291330536e6 1.7966642905108426e7 0.0
1.7966642905108426e7 -4.468237486627949e6 0.0
0.0 0.0 0.0

1.7812075444483813e6 1.3270466181415774e7 0.0
1.3270466181415774e7 -1.7483068088969227e7 0.0
0.0 0.0 0.0

-1.1203117794682244e7 1.3378491973479636e7 0.0
1.3378491973479636e7 2.50196707033077e7 0.0
0.0 0.0 0.0

-1.2798943716274932e7 1.0783772925778989e7 0.0
1.0783772925778989e7 2.040045582157277e7 0.0
0.0 0.0 0.0

2.685666662108374e6 8.906557811012689e6 0.0
8.906557811012689e6 -1.908189062243884e7 0.0
0.0 0.0 0.0

-9.041328945132507e6 -3.933392839440766e6 0.0
-3.933392839440766e6 3.387157704740882e7 0.0
0.0 0.0 0.0

4.449071710231775e6 2.21529636506002e6 0.0
2.21529636506002e6 -3.19868934786124e7 0.0
0.0 0.0 0.0

-2.0460182080539595e6 1.75651297677127e7 0.0
1.75651297677127e7 1.760934475692999e7 0.0
0.0 0.0 0.0

-8.135846310493911e6 -1.975204207844658e6 0.0
-1.975204207844658e6 4.5892464525370926e7 0.0
0.0 0.0 0.0

3.788773630427826e6 2.156357173189215e6 0.0
2.156357173189215e6 -4.167799822616879e7 0.0
0.0 0.0 0.0

4.368520366011057e6 2.2295625575608574e6 0.0
2.2295625575608574e6 -3.2843246751022037e7 0.0
0.0 0.0 0.0

-8.93662444377251e6 -3.7096741567871296e6 0.0
-3.7096741567871296e6 3.491849370625675e7 0.0
0.0 0.0 0.0

-6.370957511739181e6 1.5461527636142043e7 0.0
1.5461527636142043e7 3.0498331453106817e7 0.0
0.0 0.0 0.0

3.990646925072605e6 2.098305394722522e6 0.0
2.098305394722522e6 -4.03943001456043e7 0.0
0.0 0.0 0.0

-8.231995490606321e6 -2.312538497287066e6 0.0
-2.312538497287066e6 4.401692968479238e7 0.0
0.0 0.0 0.0

-5.509183830899781e6 1.8123194424002234e7 0.0
1.8123194424002234e7 1.780311893589529e7 0.0
0.0 0.0 0.0

-9.827096998663744e6 -1.8049675260734297e6 0.0
-1.8049675260734297e6 3.062902313604814e7 0.0
0.0 0.0 0.0

-8.91989694279851e6 -3.485938135744822e6 0.0
-3.485938135744822e6 3.612662796085993e7 0.0
0.0 0.0 0.0

4.500086562132446e6 2.1790453581154905e6 0.0
2.1790453581154905e6 -3.385498649810471e7 0.0
0.0 0.0 0.0

4.0621451853031106e6 2.131604609481472e6 0.0
2.131604609481472e6 -3.912047159251193e7 0.0
0.0 0.0 0.0

-8.390921868710788e6 -2.596552410463468e6 0.0
-2.596552410463468e6 4.240452469448127e7 0.0
0.0 0.0 0.0

-2.274763336196264e8 5.1627961805837296e7 0.0
5.1627961805837296e7 -2.5010040927378096e7 0.0
0.0 0.0 0.0

1.973296062338625e8 3.810568028267589e7 0.0
3.810568028267589e7 1.5636859753183581e7 0.0
0.0 0.0 0.0

-9.192167040155552e6 1.3298112287605224e7 0.0
1.3298112287605224e7 1.3634517282488171e7 0.0
0.0 0.0 0.0

4.0147729257377945e6 2.0758441450941234e6 0.0
2.0758441450941234e6 -3.7888531903492555e7 0.0
0.0 0.0 0.0

-8.603594290462175e6 -2.7542078684280436e6 0.0
-2.7542078684280436e6 4.109753036348113e7 0.0
0.0 0.0 0.0

246829.21473905456 1.5832137923437105e7 0.0
1.5832137923437105e7 -1.6279683068381283e6 0.0
0.0 0.0 0.0

-1.2599157729614073e7 1.1871125659043504e7 0.0
1.1871125659043504e7 1.9749124207109213e7 0.0
0.0 0.0 0.0

-2.935740723740734e6 2.280811790220719e7 0.0
2.280811790220719e7 3.2546584692075383e6 0.0
0.0 0.0 0.0

-1.2925569824807607e6 1.8032465619227294e7 0.0
1.8032465619227294e7 1.829464968440147e7 0.0
0.0 0.0 0.0

-8.661535712144317e6 -2.8962052925086487e6 0.0
-2.8962052925086487e6 3.973564835971637e7 0.0
0.0 0.0 0.0

4.210913465368509e6 1.9934895687188443e6 0.0
1.9934895687188443e6 -3.690842889422008e7 0.0
0.0 0.0 0.0

-1.443990527835312e6 2.1028060762051366e7 0.0
2.1028060762051366e7 -5.729778329701862e6 0.0
0.0 0.0 0.0

-5.6218315359602235e6 1.5790583223006958e7 0.0
1.5790583223006958e7 -4.3896946956057146e7 0.0
0.0 0.0 0.0

-2.056813221934231e6 2.3365098358766995e7 0.0
2.3365098358766995e7 -1.7145300209054335e6 0.0
0.0 0.0 0.0

1.1665876281448845e6 1.4674727165168101e7 0.0
1.4674727165168101e7 -1.4651185700293664e7 0.0
0.0 0.0 0.0

907820.1498011602 1.3778092488782672e7 0.0
1.3778092488782672e7 -2.0107868213019647e7 0.0
0.0 0.0 0.0

-612318.4710487982 1.7013177703652423e7 0.0
1.7013177703652423e7 5.213314845531613e6 0.0
0.0 0.0 0.0

134731.6872378369 2.0929412340223655e7 0.0
2.0929412340223655e7 -7.137757174790266e6 0.0
0.0 0.0 0.0

-101159.37229624717 1.9284890066487413e7 0.0
1.9284890066487413e7 -9.055559506264593e6 0.0
0.0 0.0 0.0

-3.6361281154203936e6 1.4685925996132787e7 0.0
1.4685925996132787e7 -3.407275355840691e7 0.0
0.0 0.0 0.0

-2.3942107562414845e6 2.3583508367678713e7 0.0
2.3583508367678713e7 1.2429774488874082e6 0.0
0.0 0.0 0.0

-4.250355552115565e6 1.98836719460049e7 0.0
1.98836719460049e7 8.11773074543732e6 0.0
0.0 0.0 0.0

-5.168934239513805e6 2.092606098017354e7 0.0
2.092606098017354e7 -8.407915459186397e6 0.0
0.0 0.0 0.0

641615.0499465708 1.4147274562445773e7 0.0
1.4147274562445773e7 -2.0106703873445462e7 0.0
0.0 0.0 0.0

-1.2271108371316804e7 1.0469900061156077e7 0.0
1.0469900061156077e7 1.7129784511505973e7 0.0
0.0 0.0 0.0

1.3882538063937433e6 1.622969681942783e7 0.0
1.622969681942783e7 8.753237243690947e6 0.0
0.0 0.0 0.0

-1.1627365282155322e7 1.211208682220009e7 0.0
1.211208682220009e7 1.7021998221516237e7 0.0
0.0 0.0 0.0

-2.180223223916307e6 1.6575378501732603e7 0.0
1.6575378501732603e7 -2.311818218311759e6 0.0
0.0 0.0 0.0

-2.568208044587302e6 2.3383385105683137e7 0.0
2.3383385105683137e7 1.9609023466531963e6 0.0
0.0 0.0 0.0

-903973.506622226 1.433541973176467e7 0.0
1.433541973176467e7 -2.4491782031044e7 0.0
0.0 0.0 0.0

-4.418709269804722e6 1.822835053419289e7 0.0
1.822835053419289e7 1.7152287011543952e7 0.0
0.0 0.0 0.0

-1.9208697453062288e6 2.940337844884834e7 0.0
2.940337844884834e7 1.9256782685849397e6 0.0
0.0 0.0 0.0

-3.0027672112792665e6 1.6902499233776644e7 0.0
1.6902499233776644e7 -2.829263094997081e6 0.0
0.0 0.0 0.0

-1.7177111300320164e6 2.201811818870013e7 0.0
2.201811818870013e7 -4.0509380965933762e6 0.0
0.0 0.0 0.0

1.0842644252084656e7 2.0127889578889877e7 0.0
2.0127889578889877e7 9.122188866889952e6 0.0
0.0 0.0 0.0

-2.7762083309086543e6 2.31163588551946e7 0.0
2.31163588551946e7 2.5694768124094596e6 0.0
0.0 0.0 0.0

-8.917069654406063e6 1.374920037511894e7 0.0
1.374920037511894e7 2.971607596829828e6 0.0
0.0 0.0 0.0

-2.2297425464712232e6 2.4976639188182622e7 0.0
2.4976639188182622e7 1.4601601223803305e6 0.0
0.0 0.0 0.0

4.591148809002694e6 2.757048371623213e6 0.0
2.757048371623213e6 -2.0308891836377107e7 0.0
0.0 0.0 0.0

4.61297618238591e6 2.8217966188324043e6 0.0
2.8217966188324043e6 -1.961811434887976e7 0.0
0.0 0.0 0.0

-1.527185104078417e6 2.1549744914397772e7 0.0
2.1549744914397772e7 -4.740897614946539e6 0.0
0.0 0.0 0.0

-738914.8873355538 1.773455432056743e7 0.0
1.773455432056743e7 2.305604145605172e7 0.0
0.0 0.0 0.0

-1.84457113766227e6 2.5619267730187073e7 0.0
2.5619267730187073e7 1.0730922436344486e6 0.0
0.0 0.0 0.0

-1.2759208708610002e7 9.28611533373953e6 0.0
9.28611533373953e6 2.2452783308601703e7 0.0
0.0 0.0 0.0

-1.7349447909449975e6 2.7666218799777348e7 0.0
2.7666218799777348e7 1.427115671518452e6 0.0
0.0 0.0 0.0

-3.5959427739878353e6 1.85986130394412e7 0.0
1.85986130394412e7 1.065604136533725e7 0.0
0.0 0.0 0.0

-383563.55589786684 1.5132690796152756e7 0.0
1.5132690796152756e7 3.9143575955684483e6 0.0
0.0 0.0 0.0

2.32228181767508e6 1.135424414992665e7 0.0
1.135424414992665e7 -2.2894101560175136e7 0.0
0.0 0.0 0.0

-3.6241679316422697e6 2.2732064214513715e7 0.0
2.2732064214513715e7 3.5511296664356785e6 0.0
0.0 0.0 0.0

-8.78430840027108e6 -4.638719104905881e6 0.0
-4.638719104905881e6 2.105335096721165e7 0.0
0.0 0.0 0.0

-6.601877983957944e6 1.4526369420276169e7 0.0
1.4526369420276169e7 3.1966083987759024e7 0.0
0.0 0.0 0.0

-3.0730006617961656e6 1.4312340727609485e7 0.0
1.4312340727609485e7 -3.847373735909921e7 0.0
0.0 0.0 0.0

-1.1887263420047699e7 1.0367550861021303e7 0.0
1.0367550861021303e7 2.5537571105795644e7 0.0
0.0 0.0 0.0

3.4121274407959143e6 2.1453447486818403e7 0.0
2.1453447486818403e7 -5.591355467545447e6 0.0
0.0 0.0 0.0

2.275944160965414e6 1.183219071619779e7 0.0
1.183219071619779e7 -2.046340755849105e7 0.0
0.0 0.0 0.0

-3.270836340323481e6 1.6592772019455142e7 0.0
1.6592772019455142e7 -1.9993919525560564e6 0.0
0.0 0.0 0.0

-1.900845368219386e6 2.2959758714733146e7 0.0
2.2959758714733146e7 -2.461854835919832e6 0.0
0.0 0.0 0.0

-315260.4329677946 1.5358169583151916e7 0.0
1.5358169583151916e7 -4.941938454852043e6 0.0
0.0 0.0 0.0

-1.2073739252832208e7 1.0148332737639813e7 0.0
1.0148332737639813e7 2.0776829464801215e7 0.0
0.0 0.0 0.0

-1.1620901463106845e7 1.2435809048885455e7 0.0
1.2435809048885455e7 2.481147052838132e7 0.0
0.0 0.0 0.0

-1.8025823292222149e6 2.249700595535606e7 0.0
2.249700595535606e7 -3.257762126356101e6 0.0
0.0 0.0 0.0

-8.194929195095998e6 1.2518130635355989e7 0.0
1.2518130635355989e7 1.4992357942225605e7 0.0
0.0 0.0 0.0

4.176504346898079e6 4.482182590275395e6 0.0
4.482182590275395e6 -3.165155964419684e7 0.0
0.0 0.0 0.0

-7.222558217727346e6 1.5251804482158419e7 0.0
1.5251804482158419e7 1.174092811158853e7 0.0
0.0 0.0 0.0

-914579.9391653738 1.5438596332542371e7 0.0
1.5438596332542371e7 -9.71270144679929e6 0.0
0.0 0.0 0.0

248622.20113841456 1.6066849384498192e7 0.0
1.6066849384498192e7 920718.2145528691 0.0
0.0 0.0 0.0

-2.596242956574054e6 1.8045044901786033e7 0.0
1.8045044901786033e7 -1.005219060018575e7 0.0
0.0 0.0 0.0

-1.8680086680264226e6 1.6449640952096395e7 0.0
1.6449640952096395e7 -6.5735085099842865e6 0.0
0.0 0.0 0.0

799525.4270401541 1.41859591319052e7 0.0
1.41859591319052e7 -1.897693722546846e7 0.0
0.0 0.0 0.0

3.09639514555619e6 7.831830976526314e6 0.0
7.831830976526314e6 -2.370628281123753e7 0.0
0.0 0.0 0.0

-645440.5930809397 1.5379782555683792e7 0.0
1.5379782555683792e7 -7.365797664521773e6 0.0
0.0 0.0 0.0

2.1767815725715505e6 1.0058529073170979e7 0.0
1.0058529073170979e7 -1.7236684578400124e7 0.0
0.0 0.0 0.0

4.157952922902086e6 4.160767968149924e6 0.0
4.160767968149924e6 -1.6055297632022075e7 0.0
0.0 0.0 0.0

-3.290879188036114e6 2.336078396511616e7 0.0
2.336078396511616e7 2.167437038401801e6 0.0
0.0 0.0 0.0

-819208.9774705283 1.180574634626712e7 0.0
1.180574634626712e7 -7.447739714490476e6 0.0
0.0 0.0 0.0

-4.83887475679583e6 1.8261699870109368e7 0.0
1.8261699870109368e7 1.5522395807549402e7 0.0
0.0 0.0 0.0

-4.0999081838764376e6 -6.181509347475523e6 0.0
-6.181509347475523e6 1.0848436961603273e7 0.0
0.0 0.0 0.0

2.565889291769347e6 1.7460015266190983e7 0.0
1.7460015266190983e7 1.1290253850605865e6 0.0
0.0 0.0 0.0

-3.5854133848774186e6 1.847593476120554e7 0.0
1.847593476120554e7 -1.038169338738194e7 0.0
0.0 0.0 0.0

2.9156572523198174e6 8.269357341734178e6 0.0
8.269357341734178e6 -1.996605614209988e7 0.0
0.0 0.0 0.0

-8.708084456768976e7 1.4223499618902111e7 0.0
1.4223499618902111e7 6.421724502244052e6 0.0
0.0 0.0 0.0

-6.995804047658078e6 1.754016630415893e7 0.0
1.754016630415893e7 1.867793008047005e7 0.0
0.0 0.0 0.0

453385.68903792277 1.6804377951009434e7 0.0
1.6804377951009434e7 -1.265122607273539e7 0.0
0.0 0.0 0.0

-1.2839091551020283e6 1.5157442987878367e7 0.0
1.5157442987878367e7 -7.969657041067957e6 0.0
0.0 0.0 0.0

1.777332078861544e6 1.2785013392375816e7 0.0
1.2785013392375816e7 -2.0929304641335666e7 0.0
0.0 0.0 0.0

151663.383344986 1.6794632872305706e7 0.0
1.6794632872305706e7 9.14848346339789e6 0.0
0.0 0.0 0.0

1.789355970357919e6 1.1678257832717959e7 0.0
1.1678257832717959e7 -2.5714957982234813e7 0.0
0.0 0.0 0.0

319963.48407488596 1.7084071575818196e7 0.0
1.7084071575818196e7 1.0645342485757638e7 0.0
0.0 0.0 0.0

283458.8243611017 1.5327178363898112e7 0.0
1.5327178363898112e7 -1.4011166990382608e7 0.0
0.0 0.0 0.0

3.601672860486339e6 8.052362599958317e6 0.0
8.052362599958317e6 -2.109548168168763e7 0.0
0.0 0.0 0.0

3.9355368510230407e6 2.8805052278494504e6 0.0
2.8805052278494504e6 -3.622497504476917e7 0.0
0.0 0.0 0.0

1.5248113655018765e6 2.286807947512734e7 0.0
2.286807947512734e7 -5.289095787115607e6 0.0
0.0 0.0 0.0

2.149897185383618e6 1.146835468589806e7 0.0
1.146835468589806e7 -2.431533592815176e7 0.0
0.0 0.0 0.0

-3.9939867759679058e6 2.4057740704341482e7 0.0
2.4057740704341482e7 5.712674346968335e6 0.0
0.0 0.0 0.0

-6.325539995151525e6 1.948851171317497e7 0.0
1.948851171317497e7 1.6083319258515993e6 0.0
0.0 0.0 0.0

2.5742388028387944e6 7.57947118370498e6 0.0
7.57947118370498e6 -1.042154891892358e7 0.0
0.0 0.0 0.0

-2.293208907986303e6 3.01165818052345e7 0.0
3.01165818052345e7 2.1997833564234786e6 0.0
0.0 0.0 0.0

3.2588266207622904e6 8.91844815038898e6 0.0
8.91844815038898e6 -1.889949406957637e7 0.0
0.0 0.0 0.0

-2.4924371208780874e6 1.6470343767970018e7 0.0
1.6470343767970018e7 3.1889856305092677e7 0.0
0.0 0.0 0.0

-599767.448851207 1.7144904071541373e7 0.0
1.7144904071541373e7 1.3153440572582483e6 0.0
0.0 0.0 0.0

-6.32611481216009e6 2.509924725301792e7 0.0
2.509924725301792e7 6.232133445137372e6 0.0
0.0 0.0 0.0

-1.0868246966025295e7 1.1370751792708611e7 0.0
1.1370751792708611e7 1.8436157568781864e7 0.0
0.0 0.0 0.0

1.5062109299914846e6 1.2527065436846403e7 0.0
1.2527065436846403e7 -2.1029743137336172e7 0.0
0.0 0.0 0.0

-2.271290350892619e6 1.0150863403034868e7 0.0
1.0150863403034868e7 -2.59758534690329e6 0.0
0.0 0.0 0.0

-1.2013048357431968e6 1.6942510521298606e7 0.0
1.6942510521298606e7 -5.794146591705517e6 0.0
0.0 0.0 0.0

9.248617549465915e6 1.8103971717286177e7 0.0
1.8103971717286177e7 1.159306282605559e6 0.0
0.0 0.0 0.0

493965.2533441279 1.6758675652597535e7 0.0
1.6758675652597535e7 -1.387587919915499e7 0.0
0.0 0.0 0.0

935439.4716145811 8.50666372512241e6 0.0
8.50666372512241e6 -5.894143244256898e6 0.0
0.0 0.0 0.0

1.118831499232931e6 1.3368235662737835e7 0.0
1.3368235662737835e7 -2.0050344992623158e7 0.0
0.0 0.0 0.0

-9.520530308891412e6 -3.800964486056042e6 0.0
-3.800964486056042e6 2.6657458567205068e7 0.0
0.0 0.0 0.0

-4.786718601746773e6 1.888698372192364e7 0.0
1.888698372192364e7 1.3888835462694572e7 0.0
0.0 0.0 0.0

-1.243060131227497e7 1.2547145016427925e7 0.0
1.2547145016427925e7 2.0350368739465173e7 0.0
0.0 0.0 0.0

-1.2916731328228334e7 2.3304205254710596e7 0.0
2.3304205254710596e7 -2.710054121453967e6 0.0
0.0 0.0 0.0

-3.303732196942798e6 1.4870542669111514e7 0.0
1.4870542669111514e7 -3.2801651014076114e7 0.0
0.0 0.0 0.0

-3.6448489307038886e6 2.1944091100548815e7 0.0
2.1944091100548815e7 7.12022231811302e6 0.0
0.0 0.0 0.0

-4.527350595044661e6 2.2830840092668764e7 0.0
2.2830840092668764e7 7.018345578488803e6 0.0
0.0 0.0 0.0

387595.3177504833 1.940964801400765e7 0.0
1.940964801400765e7 -8.91854090790653e6 0.0
0.0 0.0 0.0

-1.6478604527896047e6 1.3605693388767969e7 0.0
1.3605693388767969e7 -3.410187371260324e7 0.0
0.0 0.0 0.0

-4.420026832600277e6 1.7963348863100648e7 0.0
1.7963348863100648e7 1.570522164644163e7 0.0
0.0 0.0 0.0

-1.0455332583229963e7 4.171551301542574e6 0.0
4.171551301542574e6 3.5959699626858294e7 0.0
0.0 0.0 0.0

2.4651675812960733e6 3.232134215748739e6 0.0
3.232134215748739e6 -7.058213952785963e6 0.0
0.0 0.0 0.0

-571783.7672912348 1.5311734112817401e7 0.0
1.5311734112817401e7 -1.8437761364439066e7 0.0
0.0 0.0 0.0

113563.62878221646 2.0297541736934874e7 0.0
2.0297541736934874e7 -7.91272201920468e6 0.0
0.0 0.0 0.0

-2.288228273706119e6 1.739802874889529e7 0.0
1.739802874889529e7 -2.0363800400440663e6 0.0
0.0 0.0 0.0

-454654.49914370524 1.415330914137855e7 0.0
1.415330914137855e7 -1.0008931697077809e7 0.0
0.0 0.0 0.0

-6.081083505259527e6 1.5605915794315046e7 0.0
1.5605915794315046e7 -2.6218715606513493e7 0.0
0.0 0.0 0.0

-1.2378826045453269e7 1.1325032912380284e7 0.0
1.1325032912380284e7 2.3377861556553286e7 0.0
0.0 0.0 0.0

-1.1394044912741347e6 2.5403175706317514e7 0.0
2.5403175706317514e7 -165398.2156177007 0.0
0.0 0.0 0.0

-1.9000993851234753e7 2.2977898547839914e7 0.0
2.2977898547839914e7 1.944533774782097e6 0.0
0.0 0.0 0.0

2.821563561815775e6 1.7947900187819313e7 0.0
1.7947900187819313e7 1.3349691543416665e6 0.0
0.0 0.0 0.0

2.06138859008137e6 7.439330835549904e6 0.0
7.439330835549904e6 -1.2063396798302207e7 0.0
0.0 0.0 0.0

-2.509982190903451e6 1.7075694738221087e7 0.0
1.7075694738221087e7 -1.2257409221158493e6 0.0
0.0 0.0 0.0

-1.1548850313351166e7 8.804436851927638e6 0.0
8.804436851927638e6 2.8466593009368367e7 0.0
0.0 0.0 0.0

-4.800935820050642e6 2.5496882799799725e7 0.0
2.5496882799799725e7 5.188351846657599e6 0.0
0.0 0.0 0.0

-5.121125479738064e6 1.799249463640828e7 0.0
1.799249463640828e7 1.6533277387024896e7 0.0
0.0 0.0 0.0

-2.64708911968568e6 2.396720383111305e7 0.0
2.396720383111305e7 303537.2481753718 0.0
0.0 0.0 0.0

532842.7922051037 1.4864417373762803e7 0.0
1.4864417373762803e7 -1.4944235536478667e7 0.0
0.0 0.0 0.0

-1.1455263743030956e7 1.0713265776677445e7 0.0
1.0713265776677445e7 2.754561151145397e7 0.0
0.0 0.0 0.0

230264.94744180609 1.5559825802291524e7 0.0
1.5559825802291524e7 -1.6720154073682435e7 0.0
0.0 0.0 0.0

-4.575877766945458e6 1.9200232568546534e7 0.0
1.9200232568546534e7 -3.189053483660803e6 0.0
0.0 0.0 0.0

-1.1628170295422995e6 2.5784217246857505e7 0.0
2.5784217246857505e7 -214141.9245699339 0.0
0.0 0.0 0.0

3.7145125898277024e6 5.052467491750353e6 0.0
5.052467491750353e6 -1.6941992041869342e7 0.0
0.0 0.0 0.0

915450.5346390745 1.8898492958973285e7 0.0
1.8898492958973285e7 -8.234292588180371e6 0.0
0.0 0.0 0.0

-3.4934331174754193e6 2.18478968926793e7 0.0
2.18478968926793e7 6.374869984823516e6 0.0
0.0 0.0 0.0

-1.1619946951835137e7 1.043295372223826e7 0.0
1.043295372223826e7 1.936932001026679e7 0.0
0.0 0.0 0.0

-3.761553029748655e6 2.0258227468784153e7 0.0
2.0258227468784153e7 -7.599107450139162e6 0.0
0.0 0.0 0.0

-1.1856328724075954e7 1.3352953546191653e7 0.0
1.3352953546191653e7 2.2743574915144764e7 0.0
0.0 0.0 0.0

-2.2290487693115845e6 5.33569983857085e6 0.0
5.33569983857085e6 5.631080291035469e6 0.0
0.0 0.0 0.0

-3.496749320159957e6 2.127436270582085e7 0.0
2.127436270582085e7 6.442489177025411e6 0.0
0.0 0.0 0.0

-1.294117355406472e7 9.61470729233815e6 0.0
9.61470729233815e6 2.107978568072836e7 0.0
0.0 0.0 0.0

-5.465866782955859e6 1.7987171805243667e7 0.0
1.7987171805243667e7 1.0511033188569874e7 0.0
0.0 0.0 0.0

2.1155216123245796e6 1.7171349903205354e7 0.0
1.7171349903205354e7 2.2955192004204508e7 0.0
0.0 0.0 0.0

-847028.6803521104 1.3458657859677285e7 0.0
1.3458657859677285e7 -3.0266352846480936e7 0.0
0.0 0.0 0.0

-3.861503113882684e6 -5.784641467266188e6 0.0
-5.784641467266188e6 1.0076175103591274e7 0.0
0.0 0.0 0.0

4.670661637189213e6 2.2800099490250878e7 0.0
2.2800099490250878e7 -5.058565441941863e6 0.0
0.0 0.0 0.0

-1.1979803005441232e7 9.333464270902429e6 0.0
9.333464270902429e6 2.5104399972620938e7 0.0
0.0 0.0 0.0

629881.1666456424 1.2339010211548854e7 0.0
1.2339010211548854e7 -1.2250926556566145e7 0.0
0.0 0.0 0.0

-3.681827324024977e6 1.7955095451759662e7 0.0
1.7955095451759662e7 1.357294419168226e7 0.0
0.0 0.0 0.0

-1.0313678500022377e6 1.6164602185067905e7 0.0
1.6164602185067905e7 -6.128439711452669e6 0.0
0.0 0.0 0.0

-6.071899787472697e6 1.8477559868239693e7 0.0
1.8477559868239693e7 1.5188248217919441e7 0.0
0.0 0.0 0.0

216220.68755489122 1.038284775066029e7 0.0
1.038284775066029e7 -7.012893302269322e6 0.0
0.0 0.0 0.0

-5.715444285010023e6 2.095965349080462e7 0.0
2.095965349080462e7 6.309842476790475e6 0.0
0.0 0.0 0.0

-5.464200299560999e6 1.815248126761488e7 0.0
1.815248126761488e7 1.1323912499637056e7 0.0
0.0 0.0 0.0

595518.1951387054 1.8753136828933142e7 0.0
1.8753136828933142e7 -9.302873769856708e6 0.0
0.0 0.0 0.0

-3.859590663885831e6 2.198973049409994e7 0.0
2.198973049409994e7 5.13642105159515e6 0.0
0.0 0.0 0.0

-1.744925099872774e6 2.610154906984227e7 0.0
2.610154906984227e7 1.2094755547492262e6 0.0
0.0 0.0 0.0

-525529.8488656599 1.3519816177840587e7 0.0
1.3519816177840587e7 -2.6483881639028903e7 0.0
0.0 0.0 0.0

1.4385513600909512e6 3.0601601315839826e6 0.0
3.0601601315839826e6 -2.9869565274420357e6 0.0
0.0 0.0 0.0

-5.877562853055144e6 1.7217207323820964e6 0.0
1.7217207323820964e6 6.234590629999269e6 0.0
0.0 0.0 0.0

3.3453002418795396e6 4.165024884027365e6 0.0
4.165024884027365e6 -4.4906716298654e7 0.0
0.0 0.0 0.0

-979665.902310655 2.0234763521933693e7 0.0
2.0234763521933693e7 -5.850712651836548e6 0.0
0.0 0.0 0.0

-5.746939596326741e6 1.7915968987254575e7 0.0
1.7915968987254575e7 1.7141817805043936e7 0.0
0.0 0.0 0.0

-1.2696868233164728e7 1.1005022938047124e7 0.0
1.1005022938047124e7 1.9144549393531688e7 0.0
0.0 0.0 0.0

-2.7840127432012446e6 3.0920211986145504e7 0.0
3.0920211986145504e7 2.422598826463136e6 0.0
0.0 0.0 0.0

-1.2438821319587836e7 7.645707269835948e6 0.0
7.645707269835948e6 2.5005187090898342e7 0.0
0.0 0.0 0.0

2.708449113909584e7 5.191865804358025e7 0.0
5.191865804358025e7 -7.892831632744262e6 0.0
0.0 0.0 0.0

-408165.3942489857 1.836844240943325e7 0.0
1.836844240943325e7 -1.0504049739617655e7 0.0
0.0 0.0 0.0

1.5525218655951358e6 1.3722154210172743e7 0.0
1.3722154210172743e7 -1.6519431394772554e7 0.0
0.0 0.0 0.0

-4.686036348903936e6 1.853462881381973e7 0.0
1.853462881381973e7 1.4351142990675554e7 0.0
0.0 0.0 0.0

-1.2100999905383449e7 1.0041313563340252e7 0.0
1.0041313563340252e7 2.599283602261818e7 0.0
0.0 0.0 0.0

-419905.11474607117 1.977867384107843e7 0.0
1.977867384107843e7 -7.733079894646822e6 0.0
0.0 0.0 0.0

182881.7401594884 1.6412012760001566e7 0.0
1.6412012760001566e7 3.4152762860129657e6 0.0
0.0 0.0 0.0

4.2332183070083335e6 3.063887126122759e6 0.0
3.063887126122759e6 -2.894990457210767e7 0.0
0.0 0.0 0.0

-7.448947368134028e6 6.961163059892751e6 0.0
6.961163059892751e6 1.2262718158020772e7 0.0
0.0 0.0 0.0

-4.1180543722049324e6 3.3170567229602065e7 0.0
3.3170567229602065e7 3.3681968921471946e6 0.0
0.0 0.0 0.0

-6.726033505125281e6 1.7889954722515352e7 0.0
1.7889954722515352e7 1.8397720914425515e7 0.0
0.0 0.0 0.0

-1.0546154499471392e6 1.564064721129595e7 0.0
1.564064721129595e7 -1.543118313822662e7 0.0
0.0 0.0 0.0

4.554260352922762e6 1.7984638299952593e7 0.0
1.7984638299952593e7 5.479049864942171e6 0.0
0.0 0.0 0.0

-8.68413077677512e6 2.7113871565536703e6 0.0
2.7113871565536703e6 1.185795481141913e7 0.0
0.0 0.0 0.0

-5.312847857931195e6 1.0182790637429731e7 0.0
1.0182790637429731e7 3.8742559703300763e6 0.0
0.0 0.0 0.0

-1.1473474468488647e6 1.5450803256309375e7 0.0
1.5450803256309375e7 -1.1979488611555414e7 0.0
0.0 0.0 0.0

162651.7478742143 1.4992695713809207e7 0.0
1.4992695713809207e7 -9.899162049370538e6 0.0
0.0 0.0 0.0

-7.787313825520792e6 1.673309670505043e7 0.0
1.673309670505043e7 1.511722685950675e7 0.0
0.0 0.0 0.0

-775291.7032620264 1.5087293484993486e7 0.0
1.5087293484993486e7 -1.9625164068562116e7 0.0
0.0 0.0 0.0

2.185842978659858e6 1.1840796569647523e7 0.0
1.1840796569647523e7 -2.178999877317871e7 0.0
0.0 0.0 0.0

-3.8132503566218703e6 2.1994055528481193e7 0.0
2.1994055528481193e7 7.739210735567527e6 0.0
0.0 0.0 0.0

855993.5578091387 1.5289677715617443e7 0.0
1.5289677715617443e7 -1.6847202711381406e7 0.0
0.0 0.0 0.0

-1.2004187383930564e7 1.1828502923646156e7 0.0
1.1828502923646156e7 2.1821301830198392e7 0.0
0.0 0.0 0.0

3.626462932907068e6 5.252455446301861e6 0.0
5.252455446301861e6 -1.252297091133554e7 0.0
0.0 0.0 0.0

-2.490799102099273e7 2.785356909426581e7 0.0
2.785356909426581e7 -6.855453793927174e6 0.0
0.0 0.0 0.0

1.6613549517592671e6 6.948834154201985e6 0.0
6.948834154201985e6 -9.844052685481932e6 0.0
0.0 0.0 0.0

3.8627017781257145e6 3.1506620518867113e6 0.0
3.1506620518867113e6 -1.2394325329786777e7 0.0
0.0 0.0 0.0

-4.7601836685473155e6 2.2751457983451184e7 0.0
2.2751457983451184e7 7.487167496026453e6 0.0
0.0 0.0 0.0

1.561916128606668e6 1.5380441566170154e7 0.0
1.5380441566170154e7 5.206387600244848e6 0.0
0.0 0.0 0.0

3.046813667886756e6 1.8346455622755866e7 0.0
1.8346455622755866e7 -2.786432368628149e6 0.0
0.0 0.0 0.0

-7.48927471764697e6 1.6682774962213226e7 0.0
1.6682774962213226e7 2.236138943458159e7 0.0
0.0 0.0 0.0

-4.548277238343884e6 1.7125860535089813e7 0.0
1.7125860535089813e7 2.351096944208969e7 0.0
0.0 0.0 0.0

7.380723523350746e6 1.6302837864454988e7 0.0
1.6302837864454988e7 4.088580339649461e7 0.0
0.0 0.0 0.0

209751.36054600752 1.617814696074763e7 0.0
1.617814696074763e7 -3.223489800478831e6 0.0
0.0 0.0 0.0

-5.216863763565193e6 1.845408956074999e7 0.0
1.845408956074999e7 1.5129954877556609e7 0.0
0.0 0.0 0.0

-6.370056624790069e6 1.5945424364742845e7 0.0
1.5945424364742845e7 1.031372789091044e7 0.0
0.0 0.0 0.0

-1.3325646740409425e6 1.5466920745102745e7 0.0
1.5466920745102745e7 -1.4219978602683423e7 0.0
0.0 0.0 0.0

-4.015884154895892e6 2.2166796516986325e7 0.0
2.2166796516986325e7 5.8592360924441395e6 0.0
0.0 0.0 0.0

-1.2438906544161458e7 1.0095055340157164e7 0.0
1.0095055340157164e7 2.4325360764081087e7 0.0
0.0 0.0 0.0

8.106552938573008e6 2.1530735332105674e7 0.0
2.1530735332105674e7 -4.4521210617109705e6 0.0
0.0 0.0 0.0

-113144.04581243778 1.875547288649826e7 0.0
1.875547288649826e7 -9.573677345733836e6 0.0
0.0 0.0 0.0

3.2823691097687343e6 6.756980813550158e6 0.0
6.756980813550158e6 -1.9793558213761672e7 0.0
0.0 0.0 0.0

2.17138246424655e6 2.0066136010110565e7 0.0
2.0066136010110565e7 -6.405170275491193e6 0.0
0.0 0.0 0.0

-1.8311082610969886e6 2.303194532990958e7 0.0
2.303194532990958e7 -875825.9577994633 0.0
0.0 0.0 0.0

-4.686386506827648e6 1.5967422983318986e7 0.0
1.5967422983318986e7 -1.5621292447939102e7 0.0
0.0 0.0 0.0

6.995933038221359e6 1.834724446012512e7 0.0
1.834724446012512e7 2.3319785459327213e7 0.0
0.0 0.0 0.0

-9.655453888062371e6 -1.6574721607399872e6 0.0
-1.6574721607399872e6 3.5094468414128356e7 0.0
0.0 0.0 0.0

414554.7993319025 1.7945147927178506e7 0.0
1.7945147927178506e7 5.557544689321143e6 0.0
0.0 0.0 0.0

-9.594913810958644e6 -3.3547461094316663e6 0.0
-3.3547461094316663e6 2.8486768594017573e7 0.0
0.0 0.0 0.0

-963490.5902893168 2.3389385990397625e7 0.0
2.3389385990397625e7 -2.430331013636949e6 0.0
0.0 0.0 0.0

1.3874169507193873e6 2.2096753914411496e7 0.0
2.2096753914411496e7 -5.818455029948276e6 0.0
0.0 0.0 0.0

-3.4467718164497036e6 3.1903152785598066e7 0.0
3.1903152785598066e7 2.5478315338926413e6 0.0
0.0 0.0 0.0

5.230033782361882e6 1.7346401044038355e7 0.0
1.7346401044038355e7 7.805460845717685e6 0.0
0.0 0.0 0.0

-1.1826853061687453e7 9.07177219455101e6 0.0
9.07177219455101e6 2.6708443872075982e7 0.0
0.0 0.0 0.0

-1.129850634463262e6 2.3830065721649066e7 0.0
2.3830065721649066e7 -1.6189525359587353e6 0.0
0.0 0.0 0.0

-5.102559559476111e6 1.8784680009920757e7 0.0
1.8784680009920757e7 1.0117889590676907e7 0.0
0.0 0.0 0.0

-3.994177334066712e6 2.099688161351325e7 0.0
2.099688161351325e7 6.012943585526649e6 0.0
0.0 0.0 0.0

2.890256515206989e6 8.287187882810289e6 0.0
8.287187882810289e6 -3.284579686760173e7 0.0
0.0 0.0 0.0

-4.0195903658782216e6 2.192683388125742e7 0.0
2.192683388125742e7 8.419581921198817e6 0.0
0.0 0.0 0.0

1.1038054548841046e7 1.4831135929438116e7 0.0
1.4831135929438116e7 3.71049240537956e6 0.0
0.0 0.0 0.0

2.1118900257193875e6 1.2337494820476646e7 0.0
1.2337494820476646e7 -1.945046344910045e7 0.0
0.0 0.0 0.0

-8.382992381353788e6 1.7913518791874987e6 0.0
1.7913518791874987e6 5.023838052715326e7 0.0
0.0 0.0 0.0

-1.9949249630629541e6 2.470831517555034e7 0.0
2.470831517555034e7 863292.6483246285 0.0
0.0 0.0 0.0

1.5341904708197291e6 1.8213027440490413e7 0.0
1.8213027440490413e7 5.080845927758496e6 0.0
0.0 0.0 0.0

-7.454943026319502e7 6.42483242493387e7 0.0
6.42483242493387e7 -1.2517272967622008e7 0.0
0.0 0.0 0.0

3.796581618950039e6 4.31499011268954e6 0.0
4.31499011268954e6 -1.6299455333617883e7 0.0
0.0 0.0 0.0

-2.575657575923868e6 1.788637037764823e7 0.0
1.788637037764823e7 -974299.2688736427 0.0
0.0 0.0 0.0

-1.3836303657060947e7 2.3594695667709447e7 0.0
2.3594695667709447e7 3.928963204902895e6 0.0
0.0 0.0 0.0

-200689.61537858332 1.716327272764065e7 0.0
1.716327272764065e7 -1.2459120565343108e7 0.0
0.0 0.0 0.0

-327740.4299609517 1.8293648611690287e7 0.0
1.8293648611690287e7 -1.0925297093107035e7 0.0
0.0 0.0 0.0

7.294153468852428e6 1.8795071440954134e7 0.0
1.8795071440954134e7 -843250.2004735772 0.0
0.0 0.0 0.0

-3.094615152541722e6 2.7811344466556553e7 0.0
2.7811344466556553e7 3.0731404214747907e6 0.0
0.0 0.0 0.0

-2.5658697515151612e6 1.8484338192753218e7 0.0
1.8484338192753218e7 -9.415259268889682e6 0.0
0.0 0.0 0.0

3.8966834853623956e6 4.990980883466787e6 0.0
4.990980883466787e6 -3.46774839506563e7 0.0
0.0 0.0 0.0

-2.273903931687799e7 2.5418135306075178e7 0.0
2.5418135306075178e7 -4.419917806987602e6 0.0
0.0 0.0 0.0

-4.526120285962889e6 1.8284067459692568e7 0.0
1.8284067459692568e7 1.0978053153189544e7 0.0
0.0 0.0 0.0

1.2268971926475978e6 2.1376974284020282e7 0.0
2.1376974284020282e7 -6.357850267216265e6 0.0
0.0 0.0 0.0

-3.037018263840683e6 1.6521203135341056e7 0.0
1.6521203135341056e7 2.982195169937351e7 0.0
0.0 0.0 0.0

9.499250535958527e6 2.014728446064862e7 0.0
2.014728446064862e7 -4.039767474949857e6 0.0
0.0 0.0 0.0

-4.548919347434514e6 2.054191632399837e7 0.0
2.054191632399837e7 1.069787064415507e7 0.0
0.0 0.0 0.0

-474797.7353471811 1.5585062632893646e7 0.0
1.5585062632893646e7 -1.0845952060527692e7 0.0
0.0 0.0 0.0

3.832913045780804e6 1.079015101048306e7 0.0
1.079015101048306e7 3.9218588479206823e6 0.0
0.0 0.0 0.0

1.434777344814411e6 1.8866434527342886e7 0.0
1.8866434527342886e7 -7.104885697025387e6 0.0
0.0 0.0 0.0

-7.288590937587588e6 1.7467949240578946e7 0.0
1.7467949240578946e7 2.0050481151833955e7 0.0
0.0 0.0 0.0

-7.642562363826804e6 5.15120264612769e6 0.0
5.15120264612769e6 5.270678167329612e7 0.0
0.0 0.0 0.0

-7.654300849208653e6 118569.48091815785 0.0
118569.48091815785 5.552814610578661e7 0.0
0.0 0.0 0.0

-886285.2128919838 1.7128277028274786e7 0.0
1.7128277028274786e7 -9.697814543223517e6 0.0
0.0 0.0 0.0

246999.00878966553 1.7877377061996985e7 0.0
1.7877377061996985e7 -1.0792053984447384e7 0.0
0.0 0.0 0.0

-207157.4548436543 1.8256266383748807e7 0.0
1.8256266383748807e7 -1.1038198766708808e7 0.0
0.0 0.0 0.0

-9.17631914386907e6 2.0828610962962225e7 0.0
2.0828610962962225e7 -2.54613901916375e6 0.0
0.0 0.0 0.0

1.3212498530558351e7 1.849983980870616e7 0.0
1.849983980870616e7 6.9104062536567915e6 0.0
0.0 0.0 0.0

-7.272938474524302e6 1.7812857692571007e7 0.0
1.7812857692571007e7 1.763878300898099e7 0.0
0.0 0.0 0.0

-24013.50778710516 1.8184022078845512e7 0.0
1.8184022078845512e7 -1.104145106316923e7 0.0
0.0 0.0 0.0

-697550.7364435587 1.4924486512205549e7 0.0
1.4924486512205549e7 -9.696404161342543e6 0.0
0.0 0.0 0.0

-8.691513995957293e6 -4.595917815124248e6 0.0
-4.595917815124248e6 1.8194974149930738e7 0.0
0.0 0.0 0.0

811504.1404088382 1.2522147468513083e7 0.0
1.2522147468513083e7 -2.5980762067782696e7 0.0
0.0 0.0 0.0

-1.086292548296214e7 -929943.4112150079 0.0
-929943.4112150079 2.715704460391312e7 0.0
0.0 0.0 0.0

-8.247781381501792e6 -6.548396014332889e6 0.0
-6.548396014332889e6 2.038940871018582e7 0.0
0.0 0.0 0.0

-8.02521289107657e6 -6.81653548483119e6 0.0
-6.81653548483119e6 1.964870655265301e7 0.0
0.0 0.0 0.0

-4.593512748217812e6 1.0135781956604026e7 0.0
1.0135781956604026e7 6.319460365043509e6 0.0
0.0 0.0 0.0

773327.2421925319 1.4382997991931498e7 0.0
1.4382997991931498e7 -1.5906003474034054e7 0.0
0.0 0.0 0.0

1.3314300994618852e6 1.2366512338338537e7 0.0
1.2366512338338537e7 -2.573556631254865e7 0.0
0.0 0.0 0.0

-582697.1549971157 1.7395768268645726e7 0.0
1.7395768268645726e7 -4.057016161725923e6 0.0
0.0 0.0 0.0

939260.3606779389 1.9079977844385594e7 0.0
1.9079977844385594e7 -8.051890526913507e6 0.0
0.0 0.0 0.0

3.364583128647064e6 1.8219041107093215e7 0.0
1.8219041107093215e7 -628292.3322587619 0.0
0.0 0.0 0.0

-1.5019245301174335e6 2.1822468097839735e7 0.0
2.1822468097839735e7 -3.205334947418874e6 0.0
0.0 0.0 0.0

4.112693396044192e7 2.0903183082889926e7 0.0
2.0903183082889926e7 5.637521721830359e6 0.0
0.0 0.0 0.0

4.1715415032965923e6 1.4298436260696566e7 0.0
1.4298436260696566e7 8.98405163169846e6 0.0
0.0 0.0 0.0

2.5207603797803107e6 1.8582556508304127e7 0.0
1.8582556508304127e7 -4.470337098730803e6 0.0
0.0 0.0 0.0

2.0882263861202237e6 2.2218845168840025e7 0.0
2.2218845168840025e7 -5.627151027678601e6 0.0
0.0 0.0 0.0

-1.4901021373798994e6 2.452728658297518e7 0.0
2.452728658297518e7 -306607.7916544001 0.0
0.0 0.0 0.0

599259.6826900877 1.5959331604556449e7 0.0
1.5959331604556449e7 -1.5869048587762015e7 0.0
0.0 0.0 0.0

-1.4420850974647598e7 2.2889707084937237e7 0.0
2.2889707084937237e7 1.492754617289235e6 0.0
0.0 0.0 0.0

-5.345937701455892e6 2.3185684275372427e7 0.0
2.3185684275372427e7 7.161333207246849e6 0.0
0.0 0.0 0.0

4.46777089388744e6 2.7914786802752903e6 0.0
2.7914786802752903e6 -1.8236023432770416e7 0.0
0.0 0.0 0.0

-2.1880525566700385e6 2.284285004069303e7 0.0
2.284285004069303e7 -1.920915769667665e6 0.0
0.0 0.0 0.0

-5.931728931629568e6 3.440503118582973e7 0.0
3.440503118582973e7 3.5354227767083533e6 0.0
0.0 0.0 0.0

-1.6176946018955295e6 1.3102297395258721e7 0.0
1.3102297395258721e7 -5.641170740199561e6 0.0
0.0 0.0 0.0

2.0491851833637068e6 1.2325762041275864e7 0.0
1.2325762041275864e7 -2.071409455701786e7 0.0
0.0 0.0 0.0

1.6761623690900728e6 1.2059372419572938e7 0.0
1.2059372419572938e7 -2.4527450940519173e7 0.0
0.0 0.0 0.0

634302.1070465948 1.3132289267390557e7 0.0
1.3132289267390557e7 -2.565715981354054e7 0.0
0.0 0.0 0.0

6.576118607475904e6 3.018517839286286e7 0.0
3.018517839286286e7 -4.135117848288432e6 0.0
0.0 0.0 0.0

82588.3952201223 1.8019844362500317e7 0.0
1.8019844362500317e7 -1.0992902234875279e7 0.0
0.0 0.0 0.0

3.3894435795736797e6 1.7646368125477117e7 0.0
1.7646368125477117e7 2.3660350086506963e7 0.0
0.0 0.0 0.0

-2.0265417659145378e7 1.7780663156608246e7 0.0
1.7780663156608246e7 7.735255353031427e6 0.0
0.0 0.0 0.0

-5.51907802341525e7 2.8268740664271995e7 0.0
2.8268740664271995e7 -1.4874940555942617e6 0.0
0.0 0.0 0.0

3.089421018523678e6 6.106151992164327e6 0.0
6.106151992164327e6 -4.355400946243252e7 0.0
0.0 0.0 0.0

1.8211475221124846e6 1.8807234041155137e7 0.0
1.8807234041155137e7 -5.919969872441518e6 0.0
0.0 0.0 0.0

1.7170726898934664e6 2.0769341531982724e7 0.0
2.0769341531982724e7 -6.467404514602819e6 0.0
0.0 0.0 0.0

4.33238199977144e6 2.846265671531107e6 0.0
2.846265671531107e6 -1.7290772808992654e7 0.0
0.0 0.0 0.0

-1.2191232272480184e7 2.1717002394384127e7 0.0
2.1717002394384127e7 -3.895975057251099e6 0.0
0.0 0.0 0.0

-2.8183273451734083e6 1.757241374649208e7 0.0
1.757241374649208e7 1.688139707897965e7 0.0
0.0 0.0 0.0

4.287997819793986e6 1.713811453807635e7 0.0
1.713811453807635e7 1.2038461960561948e7 0.0
0.0 0.0 0.0

-6.257596378162183e6 -6.454569760061801e6 0.0
-6.454569760061801e6 1.5622707623173174e7 0.0
0.0 0.0 0.0

993995.1717420584 1.4497212118489157e7 0.0
1.4497212118489157e7 -1.8952290173804015e7 0.0
0.0 0.0 0.0

2.4500797580090007e6 9.5029358788264e6 0.0
9.5029358788264e6 -1.8182919438257523e7 0.0
0.0 0.0 0.0

828006.5457159427 8.095930289817299e6 0.0
8.095930289817299e6 -5.0449663411997e6 0.0
0.0 0.0 0.0

-7.0575535571861705e6 -6.132316880832777e6 0.0
-6.132316880832777e6 1.2620491270917738e7 0.0
0.0 0.0 0.0

2.4529249082282074e6 1.71164794095158e7 0.0
1.71164794095158e7 6.550873790473986e7 0.0
0.0 0.0 0.0

-1.06701684661754e7 3.23056550558857e6 0.0
3.23056550558857e6 3.507312030245361e7 0.0
0.0 0.0 0.0

669127.8989263091 2.5205836739457868e7 0.0
2.5205836739457868e7 -2.5019013347098324e6 0.0
0.0 0.0 0.0

-2.773026386437977e6 1.7565994818513993e7 0.0
1.7565994818513993e7 -143574.18601391662 0.0
0.0 0.0 0.0

-1.3242882043226259e6 1.5108652471207501e7 0.0
1.5108652471207501e7 -1.0627372286004063e7 0.0
0.0 0.0 0.0

568757.8759376053 2.0585771802173566e7 0.0
2.0585771802173566e7 -7.438725196079992e6 0.0
0.0 0.0 0.0

-4.1408426294274474e6 2.2285401554636188e7 0.0
2.2285401554636188e7 6.572338029557688e6 0.0
0.0 0.0 0.0

3.0404121327738175e6 3.4747361165116675e7 0.0
3.4747361165116675e7 -1.2830612932353087e6 0.0
0.0 0.0 0.0

3.082946903527262e6 4.456815234174676e6 0.0
4.456815234174676e6 -9.99599995829643e6 0.0
0.0 0.0 0.0

-8.991499231494304e6 -4.791675913752702e6 0.0
-4.791675913752702e6 1.773042188502478e7 0.0
0.0 0.0 0.0

-212131.15263623348 1.6471300670929532e7 0.0
1.6471300670929532e7 1.6552214010044443e6 0.0
0.0 0.0 0.0

-8.1873326826369185e6 2.3791515979131386e7 0.0
2.3791515979131386e7 6.2457802152353125e6 0.0
0.0 0.0 0.0

-3.7164782655983167e6 1.761035810457554e7 0.0
1.761035810457554e7 1.9214681283497665e7 0.0
0.0 0.0 0.0

-1.2132018603897389e7 1.0841160893026682e7 0.0
1.0841160893026682e7 2.264991288023038e7 0.0
0.0 0.0 0.0

1.6685152164607449e6 1.3250133748798184e7 0.0
1.3250133748798184e7 -1.9877786034022506e7 0.0
0.0 0.0 0.0

-1.391390537520875e8 2.2301437162602805e7 0.0
2.2301437162602805e7 -6.703090502035536e6 0.0
0.0 0.0 0.0

-1.2217804340570629e7 9.570880312037019e6 0.0
9.570880312037019e6 2.3648320082370423e7 0.0
0.0 0.0 0.0

-6.989272714187134e6 2.3733748790244427e7 0.0
2.3733748790244427e7 6.549814190581614e6 0.0
0.0 0.0 0.0

673834.2426442439 1.5601789117035506e7 0.0
1.5601789117035506e7 -1.6810435390351247e7 0.0
0.0 0.0 0.0

-316444.33090478275 1.374478009093642e7 0.0
1.374478009093642e7 -2.509279651922485e7 0.0
0.0 0.0 0.0

2.0072116749443586e6 3.3018551147997476e7 0.0
3.3018551147997476e7 -719182.2230278233 0.0
0.0 0.0 0.0

-705041.2448490253 1.440016687683907e7 0.0
1.440016687683907e7 -2.2958113966639727e7 0.0
0.0 0.0 0.0

176411.7204502141 1.7816485585263163e7 0.0
1.7816485585263163e7 -1.070256108521011e7 0.0
0.0 0.0 0.0

322986.04882630054 1.6793778315786276e7 0.0
1.6793778315786276e7 3.425409248334595e6 0.0
0.0 0.0 0.0

-40650.74530649135 2.790680132021326e7 0.0
2.790680132021326e7 2409.3458566503396 0.0
0.0 0.0 0.0

-9.570217187937846e6 2.3671932993203808e7 0.0
2.3671932993203808e7 5.705616224453906e6 0.0
0.0 0.0 0.0

1.2905318841363844e6 1.4114886972255409e7 0.0
1.4114886972255409e7 -1.888770643566493e7 0.0
0.0 0.0 0.0

35774.20444548223 1.778223076818912e7 0.0
1.778223076818912e7 -1.13212103804884e7 0.0
0.0 0.0 0.0

-3.3360756659733476e6 2.2264318715181988e7 0.0
2.2264318715181988e7 2.0136595443162823e6 0.0
0.0 0.0 0.0

-6.02796581139761e6 2.3498179638796292e7 0.0
2.3498179638796292e7 6.8582099367482755e6 0.0
0.0 0.0 0.0

-9.222233608599355e6 -5.043201986775043e6 0.0
-5.043201986775043e6 2.7772973598026846e7 0.0
0.0 0.0 0.0

-7.304165716570371e6 1.6466003075377863e7 0.0
1.6466003075377863e7 1.6807847976822313e7 0.0
0.0 0.0 0.0

-1.0242961378758159e6 1.4878256999919012e7 0.0
1.4878256999919012e7 -2.0884877903686382e7 0.0
0.0 0.0 0.0

1.360518218257259e7 1.7645003797964107e7 0.0
1.7645003797964107e7 520184.4376058425 0.0
0.0 0.0 0.0

627000.9083273634 1.4782354063668935e7 0.0
1.4782354063668935e7 -1.8963736344316438e7 0.0
0.0 0.0 0.0

-255401.443241772 1.6548358401201604e7 0.0
1.6548358401201604e7 -2.9455855188725786e6 0.0
0.0 0.0 0.0

-1.1579102921724718e7 7.650907035177005e6 0.0
7.650907035177005e6 2.8047695981270093e7 0.0
0.0 0.0 0.0

-5.35709657691954e6 1.947458275641373e7 0.0
1.947458275641373e7 -8.759120453346528e6 0.0
0.0 0.0 0.0

-769339.9378993802 1.4958535655449878e7 0.0
1.4958535655449878e7 -5.83922909445862e6 0.0
0.0 0.0 0.0

-28961.48055985337 1.740267208411345e7 0.0
1.740267208411345e7 -1.0874942297641225e7 0.0
0.0 0.0 0.0

-1.2475544088305974e7 3.776579671851698e7 0.0
3.776579671851698e7 5.209065244002297e6 0.0
0.0 0.0 0.0

-4.320036731207602e7 1.2900656365071185e7 0.0
1.2900656365071185e7 7.324074300722724e6 0.0
0.0 0.0 0.0

599471.2681935839 2.585131309957172e7 0.0
2.585131309957172e7 -2.88327709535351e6 0.0
0.0 0.0 0.0

-8.364720208549831e6 3.595131061869331e7 0.0
3.595131061869331e7 4.414226321273085e6 0.0
0.0 0.0 0.0

1.6528060964258179e7 4.444492585373448e7 0.0
4.444492585373448e7 -4.579929430101574e6 0.0
0.0 0.0 0.0

319351.34300123435 1.3421535741512556e7 0.0
1.3421535741512556e7 -2.4131144635386866e7 0.0
0.0 0.0 0.0

-6.518408108292621e6 1.5461151513155483e7 0.0
1.5461151513155483e7 -2.53120346801968e7 0.0
0.0 0.0 0.0

-4.361260511198511e6 2.1729785022159837e7 0.0
2.1729785022159837e7 8.698070260064777e6 0.0
0.0 0.0 0.0

-1.2644142400104849e7 1.0375440258097306e7 0.0
1.0375440258097306e7 2.293004279264787e7 0.0
0.0 0.0 0.0

-9.606002339410175e6 2.0881441378323283e7 0.0
2.0881441378323283e7 2.8288457773482753e6 0.0
0.0 0.0 0.0

-205027.01382315345 1.6656304965552444e7 0.0
1.6656304965552444e7 6.739442078423417e6 0.0
0.0 0.0 0.0

-388405.4408232989 1.6199033747542014e7 0.0
1.6199033747542014e7 -8.616654396259708e6 0.0
0.0 0.0 0.0

4.1679510196402827e6 3.6827515633144446e7 0.0
3.6827515633144446e7 -2.2281229461575e6 0.0
0.0 0.0 0.0

400822.0198259526 1.9941655641087044e7 0.0
1.9941655641087044e7 -8.111263573562456e6 0.0
0.0 0.0 0.0

1.7671899053834036e6 1.729756503928516e7 0.0
1.729756503928516e7 -3.99185865554498e6 0.0
0.0 0.0 0.0

4.487577160480961e6 2.217205410037841e6 0.0
2.217205410037841e6 -3.027751570581866e7 0.0
0.0 0.0 0.0

-4.347289493621748e6 2.231102574723049e7 0.0
2.231102574723049e7 7.230242641222581e6 0.0
0.0 0.0 0.0

-3.680452309558875e6 1.6979119797261152e7 0.0
1.6979119797261152e7 4.0073268411853276e6 0.0
0.0 0.0 0.0

1.7396728846683446e6 1.1429024164622793e7 0.0
1.1429024164622793e7 -1.2515728106927564e7 0.0
0.0 0.0 0.0

-149679.62392905168 1.3840558200653765e7 0.0
1.3840558200653765e7 -2.5255875632670805e7 0.0
0.0 0.0 0.0

-4.425880486315669e6 1.8584646196208227e7 0.0
1.8584646196208227e7 1.5323068425092105e7 0.0
0.0 0.0 0.0

-5.151646499367253e6 1.7391669633625474e7 0.0
1.7391669633625474e7 2.147898172460194e7 0.0
0.0 0.0 0.0

-848170.5177756825 1.5492111980081053e7 0.0
1.5492111980081053e7 -3.674656551169455e6 0.0
0.0 0.0 0.0

2.5255853831793894e6 2.1521523862705324e7 0.0
2.1521523862705324e7 -5.875128692887917e6 0.0
0.0 0.0 0.0

-3.9799650645872424e6 2.150083315439792e7 0.0
2.150083315439792e7 8.573052619623475e6 0.0
0.0 0.0 0.0

-8.903888774904406e6 1.6821749753041898e6 0.0
1.6821749753041898e6 4.470291649917463e7 0.0
0.0 0.0 0.0

-4.118380483828095e6 1.0991350258420283e7 0.0
1.0991350258420283e7 5.098850184818316e6 0.0
0.0 0.0 0.0

-4250.4825193351135 1.6425843386186808e7 0.0
1.6425843386186808e7 -4.820832869675993e6 0.0
0.0 0.0 0.0

-5.14951184885912e6 2.2559409996686827e7 0.0
2.2559409996686827e7 7.870603040376343e6 0.0
0.0 0.0 0.0

-4.808419326014145e6 1.865298925221101e7 0.0
1.865298925221101e7 1.2523649698460305e7 0.0
0.0 0.0 0.0

2.378178488966706e6 1.1553008797619034e7 0.0
1.1553008797619034e7 -1.7241616151222847e7 0.0
0.0 0.0 0.0

-2.3483806808119193e6 2.4058053214679267e7 0.0
2.4058053214679267e7 1.2943384319002482e6 0.0
0.0 0.0 0.0

417801.6048782965 2.907241281042598e7 0.0
2.907241281042598e7 -104321.78092605242 0.0
0.0 0.0 0.0

-3.4137071949793994e6 1.9722643429360602e7 0.0
1.9722643429360602e7 4.633189760766491e6 0.0
0.0 0.0 0.0

1.7699992484787088e6 1.3251287066040924e7 0.0
1.3251287066040924e7 -1.8623111208351184e7 0.0
0.0 0.0 0.0

-2.082079723131919e6 2.4239437912754018e7 0.0
2.4239437912754018e7 -759202.4814396887 0.0
0.0 0.0 0.0

622125.3076902642 2.120611680000267e7 0.0
2.120611680000267e7 -6.735905797078193e6 0.0
0.0 0.0 0.0

-1.5294027759461887e6 1.7697671562137775e7 0.0
1.7697671562137775e7 2.2130836476204783e7 0.0
0.0 0.0 0.0

-3.644056110665318e6 1.921909737996721e7 0.0
1.921909737996721e7 5.62122791475374e6 0.0
0.0 0.0 0.0

-4.405652542769241e6 2.38315811615858e7 0.0
2.38315811615858e7 5.367985612984808e6 0.0
0.0 0.0 0.0

-9.801142464408295e6 -1.086316100786874e6 0.0
-1.086316100786874e6 3.4854443177447915e7 0.0
0.0 0.0 0.0

151669.1457539623 2.842955597349576e7 0.0
2.842955597349576e7 639.5797511205819 0.0
0.0 0.0 0.0

4.511050793364083e6 2.2823524053899776e6 0.0
2.2823524053899776e6 -2.9489946656370416e7 0.0
0.0 0.0 0.0

-1.5589224841766765e6 2.2532891558032583e7 0.0
2.2532891558032583e7 -3.7573643056783336e6 0.0
0.0 0.0 0.0

-9.555826154937955e6 -3.1554654829391977e6 0.0
-3.1554654829391977e6 3.0544095225062825e7 0.0
0.0 0.0 0.0

-895641.1600903335 1.4419700849934055e7 0.0
1.4419700849934055e7 -4.071051309437923e6 0.0
0.0 0.0 0.0

-8.966143389437094e6 2.243950129137289e7 0.0
2.243950129137289e7 4.288942667039345e6 0.0
0.0 0.0 0.0

-1.3539819675094874e6 1.8274384627682883e7 0.0
1.8274384627682883e7 -2.966718093049736e6 0.0
0.0 0.0 0.0

-2.3840347383330227e6 1.8528385051184606e7 0.0
1.8528385051184606e7 -4.541087468110855e6 0.0
0.0 0.0 0.0

-953528.5233996515 1.6329761054303158e7 0.0
1.6329761054303158e7 -1.5315403846519632e7 0.0
0.0 0.0 0.0

-1.2006746235415561e7 1.2221859092943644e7 0.0
1.2221859092943644e7 2.370168085983273e7 0.0
0.0 0.0 0.0

4770.071488723159 1.723371735983403e7 0.0
1.723371735983403e7 8.793756266306404e6 0.0
0.0 0.0 0.0

3.5769252894270224e6 8.02821606462933e6 0.0
8.02821606462933e6 -2.213493944228881e7 0.0
0.0 0.0 0.0

1.0489503568794439e6 1.787263100149902e7 0.0
1.787263100149902e7 2.055076380402387e7 0.0
0.0 0.0 0.0

-7.99926523118349e6 1.715939573408675e7 0.0
1.715939573408675e7 -5.1012805924403064e7 0.0
0.0 0.0 0.0

-4.990264153556399e6 1.7690591118828256e7 0.0
1.7690591118828256e7 1.2227274953734456e7 0.0
0.0 0.0 0.0

-2.53622199142199e6 2.4439720509713087e7 0.0
2.4439720509713087e7 450382.7047049097 0.0
0.0 0.0 0.0

-3.7182481691131652e6 1.9124592106302727e7 0.0
1.9124592106302727e7 1.528416271571082e6 0.0
0.0 0.0 0.0

42078.69279162213 1.879773706735195e7 0.0
1.879773706735195e7 -9.838455025846127e6 0.0
0.0 0.0 0.0

1.2463773480131095e6 1.7946975075427037e7 0.0
1.7946975075427037e7 -6.917200254923041e6 0.0
0.0 0.0 0.0

-4.554039748424307e6 2.2289107563961066e7 0.0
2.2289107563961066e7 7.81800010546414e6 0.0
0.0 0.0 0.0

-5.215054991356727e6 1.8533439028245177e7 0.0
1.8533439028245177e7 1.5940468401620768e7 0.0
0.0 0.0 0.0

-5.060151284528219e6 1.745725837389343e7 0.0
1.745725837389343e7 2.157410324762868e7 0.0
0.0 0.0 0.0

-2.9916218040770437e6 1.5718056940912848e7 0.0
1.5718056940912848e7 -1.498827385843153e7 0.0
0.0 0.0 0.0

965567.701573506 1.3926546946942706e7 0.0
1.3926546946942706e7 -1.6836779728902932e7 0.0
0.0 0.0 0.0

-3.545513980089099e6 1.851050135421952e7 0.0
1.851050135421952e7 1.4370756680563547e7 0.0
0.0 0.0 0.0

2.1055452294739056e6 9.549588664425086e6 0.0
9.549588664425086e6 -3.0667318966584112e7 0.0
0.0 0.0 0.0

-1.969869664975728e6 1.7450731892999314e7 0.0
1.7450731892999314e7 -9.368456574688125e6 0.0
0.0 0.0 0.0

768017.0076238295 2.986501259972773e7 0.0
2.986501259972773e7 -100850.53722537408 0.0
0.0 0.0 0.0

480679.81340134237 1.7160673932592463e7 0.0
1.7160673932592463e7 1.730343888369424e7 0.0
0.0 0.0 0.0

1.8438837670724563e7 2.2564433390047163e7 0.0
2.2564433390047163e7 6.146276377029864e7 0.0
0.0 0.0 0.0

-1.7897663491002582e7 2.1239173439512692e7 0.0
2.1239173439512692e7 -5.965885331231034e7 0.0
0.0 0.0 0.0

-4.224500607549368e6 1.6924523343698796e7 0.0
1.6924523343698796e7 2.2007120100005073e6 0.0
0.0 0.0 0.0

-2.4409327580460876e7 3.095786112702865e7 0.0
3.095786112702865e7 8.117720360879485e6 0.0
0.0 0.0 0.0

-2.233655773211615e6 2.112528551004914e7 0.0
2.112528551004914e7 -3.5473179297817945e6 0.0
0.0 0.0 0.0

-2.855961342082562e6 1.8569363991659194e7 0.0
1.8569363991659194e7 1.2227219993509542e7 0.0
0.0 0.0 0.0

-238784.00713091623 1.7344556495017603e7 0.0
1.7344556495017603e7 1.9754461337289773e7 0.0
0.0 0.0 0.0

4.603787361463104e6 1.8455865827723105e7 0.0
1.8455865827723105e7 3.545132703570705e7 0.0
0.0 0.0 0.0

4.443454292556427e6 1.861494161044366e7 0.0
1.861494161044366e7 7.582761716270714e6 0.0
0.0 0.0 0.0

4.763069547512214e6 1.6413141085254434e7 0.0
1.6413141085254434e7 2.1025311185596816e7 0.0
0.0 0.0 0.0

1.9442634966892377e6 2.144171691687287e7 0.0
2.144171691687287e7 -6.00284658023334e6 0.0
0.0 0.0 0.0

-427520.3555202726 1.7238822921559703e7 0.0
1.7238822921559703e7 1.264233470184606e7 0.0
0.0 0.0 0.0

-3.5052576023710845e6 1.792225500533343e7 0.0
1.792225500533343e7 1.4717934886867361e7 0.0
0.0 0.0 0.0

1.5135993999406141e6 2.68598873369738e7 0.0
2.68598873369738e7 -1.7892087986321796e6 0.0
0.0 0.0 0.0

1.6817964430059881e6 1.832381730989315e7 0.0
1.832381730989315e7 1.1076645033809545e7 0.0
0.0 0.0 0.0

4.640760097548956e6 2.662328930354072e6 0.0
2.662328930354072e6 -2.320074363725272e7 0.0
0.0 0.0 0.0

-1.0730948748746078e7 1.409423698245598e7 0.0
1.409423698245598e7 1.7567507256956823e7 0.0
0.0 0.0 0.0

-9.21232102174596e6 -4.902904175227749e6 0.0
-4.902904175227749e6 2.8553209206468042e7 0.0
0.0 0.0 0.0

-6.368433840073126e6 1.81173697292398e7 0.0
1.81173697292398e7 1.7438061996223755e7 0.0
0.0 0.0 0.0

-712771.682296171 2.481968778494856e7 0.0
2.481968778494856e7 -1.327779358883619e6 0.0
0.0 0.0 0.0

4.32821950400298e6 1.8882900413964104e7 0.0
1.8882900413964104e7 1.3795067951464327e7 0.0
0.0 0.0 0.0

2.5249085204837755e6 1.6394581283510478e7 0.0
1.6394581283510478e7 1.579935175726721e7 0.0
0.0 0.0 0.0

-3.692214884818067e6 2.3543556730957877e7 0.0
2.3543556730957877e7 5.82418142051251e6 0.0
0.0 0.0 0.0

3.7640437700218754e6 4.32130927150955e6 0.0
4.32130927150955e6 -1.3268503437957e7 0.0
0.0 0.0 0.0

-1.6682290063340892e6 2.302930145964037e7 0.0
2.302930145964037e7 -2.9640951340371505e6 0.0
0.0 0.0 0.0

2.9995681855941294e6 9.938227335988376e6 0.0
9.938227335988376e6 -1.8409000606206883e7 0.0
0.0 0.0 0.0

-7.035901389506582e6 2.2874042815593403e7 0.0
2.2874042815593403e7 6.736267606608165e6 0.0
0.0 0.0 0.0

2.357397984078589e6 2.3012352695328876e7 0.0
2.3012352695328876e7 -5.1853858987845965e6 0.0
0.0 0.0 0.0

-8.061213184658268e6 1.9785085415771406e7 0.0
1.9785085415771406e7 742152.0341497445 0.0
0.0 0.0 0.0

3.861805756366769e6 2.171466507538059e6 0.0
2.171466507538059e6 -4.328657975625472e7 0.0
0.0 0.0 0.0

3.548146037595351e6 1.8344608095566437e7 0.0
1.8344608095566437e7 1.710285369393168e6 0.0
0.0 0.0 0.0

45499.70956761413 2.3735705378173962e7 0.0
2.3735705378173962e7 -3.3265757788985753e6 0.0
0.0 0.0 0.0

-410680.8818374879 2.087091256888123e7 0.0
2.087091256888123e7 -6.427647018855397e6 0.0
0.0 0.0 0.0

-1.4108447695485244e6 1.6162563284132507e7 0.0
1.6162563284132507e7 -1.0899997587057095e7 0.0
0.0 0.0 0.0

4.0265684419606067e6 4.568846636516036e6 0.0
4.568846636516036e6 -2.1666984503847502e7 0.0
0.0 0.0 0.0

-3.995109389950388e6 2.0269893360025954e7 0.0
2.0269893360025954e7 5.430755200682378e6 0.0
0.0 0.0 0.0

1.2325183483534735e6 1.1902175734484356e7 0.0
1.1902175734484356e7 -2.6062675463052318e7 0.0
0.0 0.0 0.0

-9.182082328816917e6 -4.264035378102041e6 0.0
-4.264035378102041e6 3.1785272078166336e7 0.0
0.0 0.0 0.0

-6.388510538249253e6 1.6979044532617077e7 0.0
1.6979044532617077e7 1.5381915667924583e7 0.0
0.0 0.0 0.0

-1.2727312304858997e7 2.2497682473065834e7 0.0
2.2497682473065834e7 3.7308608583015e6 0.0
0.0 0.0 0.0

2.068815165504504e6 5.57356802869548e6 0.0
5.57356802869548e6 -6.363948162498304e7 0.0
0.0 0.0 0.0

-6.99395754455463e6 1.4783123098365285e7 0.0
1.4783123098365285e7 2.960157309194047e7 0.0
0.0 0.0 0.0

-1.8719011465047635e6 1.8148669826213874e7 0.0
1.8148669826213874e7 1.7722778856288735e7 0.0
0.0 0.0 0.0

-4.01655760278455e6 1.6683361585248362e7 0.0
1.6683361585248362e7 2.583777949803393e7 0.0
0.0 0.0 0.0

-3.053146905987098e6 1.7998263837494023e7 0.0
1.7998263837494023e7 846263.1976823919 0.0
0.0 0.0 0.0

-6.08158886630798e6 1.739758074044751e7 0.0
1.739758074044751e7 1.177106566286923e7 0.0
0.0 0.0 0.0

-1.1744869699692265e6 1.6144120527161764e7 0.0
1.6144120527161764e7 -8.630390938307567e6 0.0
0.0 0.0 0.0

1.1619036159437941e6 1.3458406831638068e7 0.0
1.3458406831638068e7 -1.7734629320774883e7 0.0
0.0 0.0 0.0

2.04573314393349e6 9.123073892134635e6 0.0
9.123073892134635e6 -3.75155421664381e7 0.0
0.0 0.0 0.0

-9.270840050136445e6 -4.60306763348581e6 0.0
-4.60306763348581e6 2.9584322398521617e7 0.0
0.0 0.0 0.0

-8.911543982566288e6 -3.32954366430091e6 0.0
-3.32954366430091e6 3.714970875748804e7 0.0
0.0 0.0 0.0

-7.271368895307254e6 2.120677391030821e7 0.0
2.120677391030821e7 1.9346392032830166e6 0.0
0.0 0.0 0.0

103423.98779462185 1.8777291738531604e7 0.0
1.8777291738531604e7 -1.0141926789322874e7 0.0
0.0 0.0 0.0

-2.782702806293845e6 1.6708837257838007e7 0.0
1.6708837257838007e7 3.0073593274336763e7 0.0
0.0 0.0 0.0

-893262.5728183321 1.6122877161857141e7 0.0
1.6122877161857141e7 -6.223131838841774e6 0.0
0.0 0.0 0.0

2.5318267506742096e6 2.067662973000484e7 0.0
2.067662973000484e7 -5.947022499602423e6 0.0
0.0 0.0 0.0

-3.982961506315727e6 2.1572520841056064e7 0.0
2.1572520841056064e7 5.948788708763985e6 0.0
0.0 0.0 0.0

-8.646393602839323e6 -4.926855684662198e6 0.0
-4.926855684662198e6 1.9183922173550278e7 0.0
0.0 0.0 0.0

7.805947239168327e6 3.9813132611887135e7 0.0
3.9813132611887135e7 -3.4726042340247873e6 0.0
0.0 0.0 0.0

343892.0144487801 1.6963215828163583e7 0.0
1.6963215828163583e7 -8.373377939955644e6 0.0
0.0 0.0 0.0

-4.1744328814055175e6 1.5034512787625644e7 0.0
1.5034512787625644e7 -4.11342676070238e7 0.0
0.0 0.0 0.0

4.7083129957023e6 3.2456116606450872e6 0.0
3.2456116606450872e6 -2.7375554949089587e7 0.0
0.0 0.0 0.0

-175459.73877615272 1.6629518560751872e7 0.0
1.6629518560751872e7 -4.979592809998078e6 0.0
0.0 0.0 0.0

-8.317450289942493e6 1.6102117879355526e7 0.0
1.6102117879355526e7 1.7964821936058067e7 0.0
0.0 0.0 0.0

-2.1493026021213993e7 1.82785456330027e7 0.0
1.82785456330027e7 7.725436666575827e6 0.0
0.0 0.0 0.0

-3.4808566332550943e6 1.9311091446410894e7 0.0
1.9311091446410894e7 -7.173429007685317e6 0.0
0.0 0.0 0.0

3.8290787207701607e6 1.602469055899757e7 0.0
1.602469055899757e7 1.8127950065908756e7 0.0
0.0 0.0 0.0

-1.9427608427524227e6 1.583958813286644e7 0.0
1.583958813286644e7 -1.1750099820398558e7 0.0
0.0 0.0 0.0

-9.305924741241975e6 -2.484876878626314e6 0.0
-2.484876878626314e6 1.9321602253017575e7 0.0
0.0 0.0 0.0

-1.1416030141623984e6 1.7501544297481578e7 0.0
1.7501544297481578e7 -8.711696279300278e6 0.0
0.0 0.0 0.0

-549447.6984771997 1.713909794450068e7 0.0
1.713909794450068e7 2.9966812880550916e6 0.0
0.0 0.0 0.0

-1.940665260565078e6 1.8211789904143244e7 0.0
1.8211789904143244e7 1.2674915216010956e7 0.0
0.0 0.0 0.0

244676.17622549832 1.577977013413507e7 0.0
1.577977013413507e7 -1.4510712316573907e7 0.0
0.0 0.0 0.0

-3.180498592895994e6 1.7990479473336346e7 0.0
1.7990479473336346e7 1.9767843860930577e7 0.0
0.0 0.0 0.0

-137914.791965468 1.5598111370104242e7 0.0
1.5598111370104242e7 -164636.13766213393 0.0
0.0 0.0 0.0

193191.2694433732 1.8724974268397354e7 0.0
1.8724974268397354e7 -1.0343755760044402e7 0.0
0.0 0.0 0.0

3.097905981799415e6 1.7511813252488725e7 0.0
1.7511813252488725e7 -2.1862420486934725e6 0.0
0.0 0.0 0.0

1.7551586661152793e6 1.16151036246893e7 0.0
1.16151036246893e7 -2.3302005402736716e7 0.0
0.0 0.0 0.0

-6.639130982471451e6 1.810448344448592e7 0.0
1.810448344448592e7 1.6424627486670908e7 0.0
0.0 0.0 0.0

-383950.20777056925 1.4869698677372687e7 0.0
1.4869698677372687e7 -7.522935837211964e6 0.0
0.0 0.0 0.0

-4.0370123233806156e7 2.4351877360209502e7 0.0
2.4351877360209502e7 5.028210923617147e6 0.0
0.0 0.0 0.0

706679.9305507932 1.712420211769388e7 0.0
1.712420211769388e7 3.841378887250447e7 0.0
0.0 0.0 0.0

4.456799990431121e6 2.1908831334664007e6 0.0
2.1908831334664007e6 -3.1096148149030715e7 0.0
0.0 0.0 0.0

-9.008920756236715e6 -3.4270602472148263e6 0.0
-3.4270602472148263e6 3.58788040682818e7 0.0
0.0 0.0 0.0

-2.2750451650141124e6 1.3916607676836794e7 0.0
1.3916607676836794e7 -3.610339197152563e7 0.0
0.0 0.0 0.0

-644661.8578797868 1.461361611409769e7 0.0
1.461361611409769e7 -2.3280435181975354e7 0.0
0.0 0.0 0.0

-1.4248222432230562e6 1.80244677442316e7 0.0
1.80244677442316e7 -4.349157771736576e6 0.0
0.0 0.0 0.0

-1.2842379470125172e7 2.4327861829198826e7 0.0
2.4327861829198826e7 -7.6280376470466135e6 0.0
0.0 0.0 0.0

-7.402201694594919e6 1.7015556601353448e7 0.0
1.7015556601353448e7 2.1668055947405063e7 0.0
0.0 0.0 0.0

241747.6753003914 1.861038843964747e7 0.0
1.861038843964747e7 -1.0425422054626642e7 0.0
0.0 0.0 0.0

-8.110957822583249e6 -1.6769670559138476e6 0.0
-1.6769670559138476e6 4.828222547656079e7 0.0
0.0 0.0 0.0

-1.0158539368275195e7 1.5292205670305654e7 0.0
1.5292205670305654e7 2.0141432233905856e7 0.0
0.0 0.0 0.0

2.7028279461567476e6 3.916516255683923e6 0.0
3.916516255683923e6 -5.920678311235953e7 0.0
0.0 0.0 0.0

-2.5131697601364288e6 2.4916006870488912e7 0.0
2.4916006870488912e7 534195.0179770645 0.0
0.0 0.0 0.0

3.2473107822101265e6 2.5378311384069347e6 0.0
2.5378311384069347e6 -5.109219415274541e7 0.0
0.0 0.0 0.0

-2.1167725373434864e7 3.8795210230651386e7 0.0
3.8795210230651386e7 6.569547583057613e6 0.0
0.0 0.0 0.0

-7.958124580316205e6 -1.3412998154297501e6 0.0
-1.3412998154297501e6 5.061592604737548e7 0.0
0.0 0.0 0.0

1.9722041276490986e6 1.187116169116707e7 0.0
1.187116169116707e7 -2.3165808108009573e7 0.0
0.0 0.0 0.0

-9.914058629718544e6 2.2208658386955187e7 0.0
2.2208658386955187e7 4.671477665091276e6 0.0
0.0 0.0 0.0

-3.9839448867339686e7 2.432655484409481e7 0.0
2.432655484409481e7 666411.4278580341 0.0
0.0 0.0 0.0

2.9857428417900167e6 3.151435696307573e6 0.0
3.151435696307573e6 -5.49144497056839e7 0.0
0.0 0.0 0.0

-3.610549891147295e6 2.0765431894083444e7 0.0
2.0765431894083444e7 2.494392253877327e6 0.0
0.0 0.0 0.0

-4.398893443491493e6 1.9304313818080664e7 0.0
1.9304313818080664e7 1.1933004318074089e7 0.0
0.0 0.0 0.0

1.2128680270774864e7 1.5566230971516496e7 0.0
1.5566230971516496e7 6.391661152789426e6 0.0
0.0 0.0 0.0

64353.823670926504 1.4439371208102021e7 0.0
1.4439371208102021e7 -2.0756608642067295e7 0.0
0.0 0.0 0.0

-1.2160649486005874e6 1.520671792531875e7 0.0
1.520671792531875e7 -2.1363396276261274e7 0.0
0.0 0.0 0.0

-1.0626775609961876e6 2.0477332221530247e7 0.0
2.0477332221530247e7 -7.0644625945398705e6 0.0
0.0 0.0 0.0

-2.500347414848457e6 2.5351000286469545e7 0.0
2.5351000286469545e7 653471.7562110506 0.0
0.0 0.0 0.0

-1.1624024288810221e7 1.0147898172708897e7 0.0
1.0147898172708897e7 2.712662806911058e7 0.0
0.0 0.0 0.0

3.658290555299377e6 2.1980400318193026e6 0.0
2.1980400318193026e6 -4.6029159806635246e7 0.0
0.0 0.0 0.0

-9.526959739308428e6 2.841057892560765e7 0.0
2.841057892560765e7 4.875014897887779e6 0.0
0.0 0.0 0.0

4.245861188960031e6 5.461167239978617e6 0.0
5.461167239978617e6 -1.7603126893350244e7 0.0
0.0 0.0 0.0

-1.257873143764251e6 1.6358825066475905e7 0.0
1.6358825066475905e7 -1.4303954457756769e7 0.0
0.0 0.0 0.0

3.4881064378365744e6 2.444031987227963e6 0.0
2.444031987227963e6 -4.799438309632513e7 0.0
0.0 0.0 0.0

-1.4249890927694784e6 1.5636551791011948e7 0.0
1.5636551791011948e7 -1.9345301906147495e7 0.0
0.0 0.0 0.0

-1.1422100138268244e7 7.096898035351716e6 0.0
7.096898035351716e6 3.1084881841464244e7 0.0
0.0 0.0 0.0

-1.5322951701972e6 2.6192446030974374e6 0.0
2.6192446030974374e6 -193742.31102059153 0.0
0.0 0.0 0.0

-4.677150138667454e6 1.5580009565556493e7 0.0
1.5580009565556493e7 3.2652800859040907e6 0.0
0.0 0.0 0.0

1.5569917963240193e6 1.774220749461745e7 0.0
1.774220749461745e7 1.819227724864788e7 0.0
0.0 0.0 0.0

4.266623662886066e6 2.0240643041009824e6 0.0
2.0240643041009824e6 -3.424694124421103e7 0.0
0.0 0.0 0.0

-4.415096586391881e6 2.1674074391072866e7 0.0
2.1674074391072866e7 8.674409369834853e6 0.0
0.0 0.0 0.0

-9.819829507067094e6 -3.1046136087359716e6 0.0
-3.1046136087359716e6 2.834466504624653e7 0.0
0.0 0.0 0.0

-93702.41951869642 1.673150183248049e7 0.0
1.673150183248049e7 -337984.50372549106 0.0
0.0 0.0 0.0

1.6300348644121196e6 1.2076193178471569e7 0.0
1.2076193178471569e7 -2.215845398881728e7 0.0
0.0 0.0 0.0

-5.374992377138411e6 1.8316190441224813e7 0.0
1.8316190441224813e7 1.694716065582077e7 0.0
0.0 0.0 0.0

147489.13956462592 1.731484394968722e7 0.0
1.731484394968722e7 2.502055113703018e7 0.0
0.0 0.0 0.0

-656833.2655325213 1.6549225085279992e7 0.0
1.6549225085279992e7 -3.599920183858423e6 0.0
0.0 0.0 0.0

-542891.7298065401 2.0323172270512667e7 0.0
2.0323172270512667e7 -6.83535736902682e6 0.0
0.0 0.0 0.0

-3.7697626635250268e6 2.2387725874810092e7 0.0
2.2387725874810092e7 4.328996935371296e6 0.0
0.0 0.0 0.0

-512649.5907892799 1.7254949537109397e7 0.0
1.7254949537109397e7 -5.450146117319824e6 0.0
0.0 0.0 0.0

1.5195067794740811e7 5.725447075161507e6 0.0
5.725447075161507e6 -2.804963073221002e6 0.0
0.0 0.0 0.0

-8.350439441561297e6 -1.8494267994839237e6 0.0
-1.8494267994839237e6 4.602230465949063e7 0.0
0.0 0.0 0.0

4.492590560119281e6 1.9182481121959478e7 0.0
1.9182481121959478e7 9.436156627640188e6 0.0
0.0 0.0 0.0

-8.83870009481486e6 -3.0411608713697456e6 0.0
-3.0411608713697456e6 3.856907875499943e7 0.0
0.0 0.0 0.0

-841037.9721882071 1.7485337532947946e7 0.0
1.7485337532947946e7 -864238.3722172903 0.0
0.0 0.0 0.0

-8.89362549704662e6 8.583050052145833e6 0.0
8.583050052145833e6 2.4806597156383973e7 0.0
0.0 0.0 0.0

-4.0766822405240503e6 1.5575195088250618e7 0.0
1.5575195088250618e7 5.270175080123937e6 0.0
0.0 0.0 0.0

623494.0026048487 1.976281967110672e6 0.0
1.976281967110672e6 -1.207915405416206e6 0.0
0.0 0.0 0.0

593364.2628999937 2.4119450218807007e6 0.0
2.4119450218807007e6 -1.1238804724731706e6 0.0
0.0 0.0 0.0

192100.92390130414 1.8250697514376756e7 0.0
1.8250697514376756e7 -1.1167465148587892e7 0.0
0.0 0.0 0.0

-6.261570345571063e6 1.98459020778432e7 0.0
1.98459020778432e7 -3.0781496313589304e6 0.0
0.0 0.0 0.0

375083.47419534484 1.849788866375446e7 0.0
1.849788866375446e7 -1.0290280663177025e7 0.0
0.0 0.0 0.0

-1.2390398314374473e7 8.759415611003956e6 0.0
8.759415611003956e6 2.547124398465147e7 0.0
0.0 0.0 0.0

-1.6716598892879705e6 1.616475261221077e7 0.0
1.616475261221077e7 -1.3122436899251407e7 0.0
0.0 0.0 0.0

1.603268831928406e6 1.1669143302827746e7 0.0
1.1669143302827746e7 -2.4626378794275973e7 0.0
0.0 0.0 0.0

-4.237837178892437e6 2.118209527031387e7 0.0
2.118209527031387e7 9.440201067742046e6 0.0
0.0 0.0 0.0

1.6890522833178015e6 1.2069935497483933e7 0.0
1.2069935497483933e7 -2.084011362912637e7 0.0
0.0 0.0 0.0

-8.477376711507595e7 2.9462884055172946e7 0.0
2.9462884055172946e7 -1.5659375199554376e6 0.0
0.0 0.0 0.0

495457.0829540957 1.5309419187850306e7 0.0
1.5309419187850306e7 -1.5450430555686329e7 0.0
0.0 0.0 0.0

-3.22460500597519e6 2.9036226850402825e7 0.0
2.9036226850402825e7 1.35682592315119e6 0.0
0.0 0.0 0.0

-277979.31626095553 1.623940834335206e7 0.0
1.623940834335206e7 4.579338759380269e6 0.0
0.0 0.0 0.0

-6.990498222728136e6 1.7676115105874073e7 0.0
1.7676115105874073e7 1.9279642032670572e7 0.0
0.0 0.0 0.0

-3.4610590749718496e6 1.905556564603875e7 0.0
1.905556564603875e7 -9.971360034971355e6 0.0
0.0 0.0 0.0

8.385803963555409e6 3.1421846909588356e7 0.0
3.1421846909588356e7 -5.438192467171621e6 0.0
0.0 0.0 0.0

-9.141457019448157e6 -3.874200252924417e6 0.0
-3.874200252924417e6 3.376780555889156e7 0.0
0.0 0.0 0.0

4.382551555883797e6 2.175802354292875e6 0.0
2.175802354292875e6 -3.1969395775534417e7 0.0
0.0 0.0 0.0

-1.1109146023774343e6 2.0796239927996814e7 0.0
2.0796239927996814e7 -4.991913707725444e6 0.0
0.0 0.0 0.0

-7.6886972687885435e6 -4.834385286018135e6 0.0
-4.834385286018135e6 1.160553628627066e7 0.0
0.0 0.0 0.0

3.978671439489849e6 2.0735535383543812e6 0.0
2.0735535383543812e6 -4.069900818128236e7 0.0
0.0 0.0 0.0

-8.45890430587794e6 -2.2018678995660697e6 0.0
-2.2018678995660697e6 4.440761161325944e7 0.0
0.0 0.0 0.0

-9.168592808131745e6 -5.563898436466077e6 0.0
-5.563898436466077e6 2.53886695551198e7 0.0
0.0 0.0 0.0

-1.0805904865038923e6 1.5739518045043536e7 0.0
1.5739518045043536e7 -4.56402580178437e6 0.0
0.0 0.0 0.0

-9.094626978276106e6 -3.6182920157308774e6 0.0
-3.6182920157308774e6 3.488400415605373e7 0.0
0.0 0.0 0.0

4.32229869136611e6 2.209140306847349e6 0.0
2.209140306847349e6 -3.3069407292108696e7 0.0
0.0 0.0 0.0

4.0801310476003885e6 2.138265503485019e6 0.0
2.138265503485019e6 -3.918880462907753e7 0.0
0.0 0.0 0.0

-8.522610989418164e6 -2.527385192588327e6 0.0
-2.527385192588327e6 4.284530142786027e7 0.0
0.0 0.0 0.0

-3.9343855738973143e6 1.7851485452641845e7 0.0
1.7851485452641845e7 -1.1178684758746708e7 0.0
0.0 0.0 0.0

272380.16612640675 1.7774101245074037e7 0.0
1.7774101245074037e7 -1.2031648114252627e7 0.0
0.0 0.0 0.0

-3.278328141139354e6 2.2637770345053803e7 0.0
2.2637770345053803e7 4.723768951064156e6 0.0
0.0 0.0 0.0

4.125657931772506e6 2.0907785722630818e6 0.0
2.0907785722630818e6 -3.815839619675885e7 0.0
0.0 0.0 0.0

-8.605756361462688e6 -2.753595733377796e6 0.0
-2.753595733377796e6 4.113287362743846e7 0.0
0.0 0.0 0.0

-668617.5764890742 1.6148899064559912e7 0.0
1.6148899064559912e7 -3.751949318906491e6 0.0
0.0 0.0 0.0

1.9229912974620657e6 1.2795737513689216e7 0.0
1.2795737513689216e7 -1.9728671248049654e7 0.0
0.0 0.0 0.0

-1.5551209464073996e6 2.227055639757663e7 0.0
2.227055639757663e7 -2.4220884355664738e6 0.0
0.0 0.0 0.0

-3.5099111365355654e6 1.7877535703073524e7 0.0
1.7877535703073524e7 -640166.5138755973 0.0
0.0 0.0 0.0

-4.811082084592109e6 1.727359703150924e7 0.0
1.727359703150924e7 2.2502918419630967e7 0.0
0.0 0.0 0.0

-8.729677777186222e6 -2.85709567151005e6 0.0
-2.85709567151005e6 3.973602034394933e7 0.0
0.0 0.0 0.0

4.210553693240782e6 2.0289528749469544e6 0.0
2.0289528749469544e6 -3.6732760005162425e7 0.0
0.0 0.0 0.0

1.0280029860891302e6 2.4285509911285363e7 0.0
2.4285509911285363e7 -4.133511150224459e6 0.0
0.0 0.0 0.0

-1.0957503381793797e6 1.700995623979273e7 0.0
1.700995623979273e7 3.532580463507532e7 0.0
0.0 0.0 0.0

5.531832767175998e7 6.145306968968208e7 0.0
6.145306968968208e7 -1.805815993237514e7 0.0
0.0 0.0 0.0

-47555.86281728046 1.0221051075066613e7 0.0
1.0221051075066613e7 -7.368857365775601e6 0.0
0.0 0.0 0.0

-2.5404123441701215e6 2.4726814697007526e7 0.0
2.4726814697007526e7 1.8572066848714822e6 0.0
0.0 0.0 0.0

-7.497024189102497e6 381933.6845347546 0.0
381933.6845347546 8.43001551199246e6 0.0
0.0 0.0 0.0

-3.111478406426711e6 2.302433574305738e7 0.0
2.302433574305738e7 4.0061664887935086e6 0.0
0.0 0.0 0.0

3.5605532899672408e6 3.176363690068479e6 0.0
3.176363690068479e6 -1.144535012027797e7 0.0
0.0 0.0 0.0

6.225224203526538e6 2.2331976335480712e7 0.0
2.2331976335480712e7 -4.859627744743111e6 0.0
0.0 0.0 0.0

683058.3438620782 2.1193543073732562e7 0.0
2.1193543073732562e7 -6.716686288447358e6 0.0
0.0 0.0 0.0

-8.564128542226024e6 1.4922154339300966e7 0.0
1.4922154339300966e7 1.4193329938597813e7 0.0
0.0 0.0 0.0

-884165.454400761 1.8054907775743984e7 0.0
1.8054907775743984e7 -1.1225289410976847e6 0.0
0.0 0.0 0.0

-6.78514302841052e6 -305391.69762828224 0.0
-305391.69762828224 5.592013324234026e7 0.0
0.0 0.0 0.0

956645.8575266742 3.8842800433714436e6 0.0
3.8842800433714436e6 -2.367341708744395e6 0.0
0.0 0.0 0.0

-3.61068329393552e6 -650109.6048993452 0.0
-650109.6048993452 1.303542379361151e6 0.0
0.0 0.0 0.0

1.0486901575737125e6 -1.7419621234421632e6 0.0
-1.7419621234421632e6 -2.4161658045410495e6 0.0
0.0 0.0 0.0

1.1377075087409583e6 2.1411227843201328e7 0.0
2.1411227843201328e7 -6.411634914584213e6 0.0
0.0 0.0 0.0

-3.6615391837734096e6 1.4497963634209713e7 0.0
1.4497963634209713e7 -4.035715958554423e7 0.0
0.0 0.0 0.0

1.8865592739312071e6 1.7156409500028446e7 0.0
1.7156409500028446e7 2.157872178821023e7 0.0
0.0 0.0 0.0

-2.318222987546569e6 1.7205796577648465e7 0.0
1.7205796577648465e7 -9.631691687756862e6 0.0
0.0 0.0 0.0

4.704392291104541e6 2.8163298708927236e6 0.0
2.8163298708927236e6 -2.032998261401193e7 0.0
0.0 0.0 0.0

-1.3123830537204703e6 1.4809789323672488e7 0.0
1.4809789323672488e7 -3.72058946161952e6 0.0
0.0 0.0 0.0

49700.01817247458 1.7497304166828092e7 0.0
1.7497304166828092e7 -1.1605402090469327e7 0.0
0.0 0.0 0.0

-1.772616766827369e6 1.3803640987466946e7 0.0
1.3803640987466946e7 -2.9374005105898425e7 0.0
0.0 0.0 0.0

-1.1502472710827515e6 2.2855147295244288e7 0.0
2.2855147295244288e7 -2.7105368461927287e6 0.0
0.0 0.0 0.0

-6.195743899560252e6 1.7767832072571896e7 0.0
1.7767832072571896e7 1.825640967687553e7 0.0
0.0 0.0 0.0

-975134.7964477278 1.5236256898669686e7 0.0
1.5236256898669686e7 -3.061720259372726e6 0.0
0.0 0.0 0.0

-150272.93172271678 1.7022411844971687e7 0.0
1.7022411844971687e7 2.2573164201310324e6 0.0
0.0 0.0 0.0

-3.8713086818836955e6 1.4691176362047877e7 0.0
1.4691176362047877e7 -2.0486194993414894e7 0.0
0.0 0.0 0.0

-1.7178087774755117e7 2.4598256313523963e7 0.0
2.4598256313523963e7 -1.2721589809594182e6 0.0
0.0 0.0 0.0

7.148009957933089e6 3.393609819268999e7 0.0
3.393609819268999e7 -4.313417197104001e6 0.0
0.0 0.0 0.0

-348151.2068522357 1.402387572719885e6 0.0
1.402387572719885e6 888947.0831895547 0.0
0.0 0.0 0.0

-351453.8745110128 1.0097290831592293e6 0.0
1.0097290831592293e6 503697.1482918841 0.0
0.0 0.0 0.0

-5.949271208434774e6 1.8333819430032026e7 0.0
1.8333819430032026e7 1.64168416652984e7 0.0
0.0 0.0 0.0

-1.9880933103381176e6 2.007529770462218e7 0.0
2.007529770462218e7 -5.2312252542247195e6 0.0
0.0 0.0 0.0

-2.1977010712646404e6 2.5439986925450515e7 0.0
2.5439986925450515e7 1.6510761382135232e6 0.0
0.0 0.0 0.0

-2.9407993453373853e6 2.3365341266140696e7 0.0
2.3365341266140696e7 3.3450744729501456e6 0.0
0.0 0.0 0.0

7.785495834448777e6 1.856089785513819e7 0.0
1.856089785513819e7 6.9642596079254355e6 0.0
0.0 0.0 0.0

2.0483145634665992e6 1.8262314874981534e7 0.0
1.8262314874981534e7 -4.931990311968897e6 0.0
0.0 0.0 0.0

828711.3649758827 1.642148909237014e7 0.0
1.642148909237014e7 3.924533334414186e7 0.0
0.0 0.0 0.0

-3.519034266802859e7 2.4492551782407846e7 0.0
2.4492551782407846e7 -8.136887951305243e6 0.0
0.0 0.0 0.0

-9.750455562226519e7 3.2518545157793183e7 0.0
3.2518545157793183e7 6.654027747100461e6 0.0
0.0 0.0 0.0

-8.033137403595581e6 1.4157157280688958e7 0.0
1.4157157280688958e7 1.2109495561977308e7 0.0
0.0 0.0 0.0

-3.862554890805551e6 1.880152490925193e7 0.0
1.880152490925193e7 1.3601735574268337e7 0.0
0.0 0.0 0.0

3.7636959090102436e6 5.217595664011774e6 0.0
5.217595664011774e6 -1.8971723774822272e7 0.0
0.0 0.0 0.0

-9.302746209319264e6 1.5241456620373962e7 0.0
1.5241456620373962e7 1.8389709540696677e7 0.0
0.0 0.0 0.0

-4.156442220838006e6 -6.060541010172731e6 0.0
-6.060541010172731e6 8.529624357438674e6 0.0
0.0 0.0 0.0

5.560089054854907e6 1.9838204885406405e7 0.0
1.9838204885406405e7 1.0388383728090113e7 0.0
0.0 0.0 0.0

-966887.3785288688 1.398669730386591e7 0.0
1.398669730386591e7 -2.8548818581623185e7 0.0
0.0 0.0 0.0

4.509260723595397e6 4.655802864456852e6 0.0
4.655802864456852e6 -2.341160723261884e7 0.0
0.0 0.0 0.0

3.4407727863684753e6 1.772202658669565e7 0.0
1.772202658669565e7 4.699116573130736e6 0.0
0.0 0.0 0.0

-3.7182087946032025e6 3.648852647461125e6 0.0
3.648852647461125e6 7.322501172947605e7 0.0
0.0 0.0 0.0

-4.284668714795342e6 2.4511878890301112e7 0.0
2.4511878890301112e7 5.717406118193014e6 0.0
0.0 0.0 0.0

-1.442875268813217e7 2.1527328883811828e7 0.0
2.1527328883811828e7 1.1968561252797032e6 0.0
0.0 0.0 0.0

163186.25238254666 2.0268384745235372e7 0.0
2.0268384745235372e7 -7.8679575355581995e6 0.0
0.0 0.0 0.0

-8.655976031030001e6 -6.332303195592483e6 0.0
-6.332303195592483e6 2.2650201417084873e7 0.0
0.0 0.0 0.0

-323622.50436604 1.5884085685790198e7 0.0
1.5884085685790198e7 5.397412397815172e6 0.0
0.0 0.0 0.0

-9.166252973786144e6 -4.378935078273753e6 0.0
-4.378935078273753e6 3.075771323206617e7 0.0
0.0 0.0 0.0

3.4329877413604357e6 1.8571709056004893e7 0.0
1.8571709056004893e7 4.49130375393673e6 0.0
0.0 0.0 0.0

-3.0459323702854854e6 1.961028544260762e7 0.0
1.961028544260762e7 993630.0083804717 0.0
0.0 0.0 0.0

4.761776590036193e6 3.39589123844421e6 0.0
3.39589123844421e6 -2.5663447567434963e7 0.0
0.0 0.0 0.0

-3.8498545133661865e6 1.842117172239275e7 0.0
1.842117172239275e7 -1.0380030647503294e7 0.0
0.0 0.0 0.0

4.591596200203742e6 2.9332489742286224e6 0.0
2.9332489742286224e6 -1.8405492108333588e7 0.0
0.0 0.0 0.0

514571.98793002404 1.492675440013375e7 0.0
1.492675440013375e7 -1.791103033520498e7 0.0
0.0 0.0 0.0

-5.168641008163291e6 2.8837691658752747e7 0.0
2.8837691658752747e7 3.154214869248347e6 0.0
0.0 0.0 0.0

-324991.69520572684 1.3808665910866857e7 0.0
1.3808665910866857e7 -154534.1396741651 0.0
0.0 0.0 0.0

-925273.2635409888 1.9908371387273002e7 0.0
1.9908371387273002e7 -7.925619318769261e6 0.0
0.0 0.0 0.0

-3.953653338286454e6 2.7453068569680315e7 0.0
2.7453068569680315e7 2.4998476148399557e6 0.0
0.0 0.0 0.0

-3.397956101681126e6 2.2253951684446115e7 0.0
2.2253951684446115e7 5.562330356910795e6 0.0
0.0 0.0 0.0

-3.444980838079585e6 2.3058078280729335e7 0.0
2.3058078280729335e7 2.8527899541724143e6 0.0
0.0 0.0 0.0

-1.4212120434348036e6 2.718970669871942e7 0.0
2.718970669871942e7 -250212.55146098553 0.0
0.0 0.0 0.0

-252075.42651333334 1.9272714703175414e7 0.0
1.9272714703175414e7 -8.659936188950894e6 0.0
0.0 0.0 0.0

-3.7024581833735406e6 2.97201351779885e7 0.0
2.97201351779885e7 1.5788118847427762e6 0.0
0.0 0.0 0.0

-1.0767026303863574e7 1.0204537860883804e7 0.0
1.0204537860883804e7 1.4062980868377449e7 0.0
0.0 0.0 0.0

1.1892470752293216e6 1.2475985503416626e7 0.0
1.2475985503416626e7 -1.4251729571224805e7 0.0
0.0 0.0 0.0

-9.986917982902419e6 -3.2487099721927145e6 0.0
-3.2487099721927145e6 1.7682111976323716e7 0.0
0.0 0.0 0.0

-1.0590195633342545e7 2.324958268290369e7 0.0
2.324958268290369e7 4.905136944386606e6 0.0
0.0 0.0 0.0

-9.155834461110285e6 -609707.2141147002 0.0
-609707.2141147002 4.093831523314683e7 0.0
0.0 0.0 0.0

835757.5455576659 2.5111868566914573e7 0.0
2.5111868566914573e7 -3.555209251619296e6 0.0
0.0 0.0 0.0

940467.586631028 1.489244112433008e7 0.0
1.489244112433008e7 -1.7881548911355246e7 0.0
0.0 0.0 0.0

26599.722497260198 1.7751627031745195e7 0.0
1.7751627031745195e7 6.83423727909225e6 0.0
0.0 0.0 0.0

-850601.2124442465 1.464461451700828e7 0.0
1.464461451700828e7 -9.014282513418708e6 0.0
0.0 0.0 0.0

1.306431454334855e6 1.2773452714547617e7 0.0
1.2773452714547617e7 -2.437517448514506e7 0.0
0.0 0.0 0.0

3.567412699705229e6 4.195188245417357e6 0.0
4.195188245417357e6 -1.3568929714717725e7 0.0
0.0 0.0 0.0

1.7513071260671904e6 2.152329060810481e7 0.0
2.152329060810481e7 -6.131453483376857e6 0.0
0.0 0.0 0.0

-336101.8692111103 1.7550698765080344e7 0.0
1.7550698765080344e7 4.913510509241135e6 0.0
0.0 0.0 0.0

-3.2713727154666376e6 1.7390844514141183e7 0.0
1.7390844514141183e7 -1.72899930003217e6 0.0
0.0 0.0 0.0

3.7673882011584863e6 2.0769132210766114e6 0.0
2.0769132210766114e6 -4.407249391408248e7 0.0
0.0 0.0 0.0

-1.0925852502324475e7 2.4134992467483636e6 0.0
2.4134992467483636e6 1.929827761633473e7 0.0
0.0 0.0 0.0

3.2790562632330526e6 4.15448476785812e6 0.0
4.15448476785812e6 -4.397598036736156e7 0.0
0.0 0.0 0.0

-6.473402351745624e6 -6.965508909227729e6 0.0
-6.965508909227729e6 1.4164104253567932e7 0.0
0.0 0.0 0.0

-3.3429519976650896e6 1.9447344169934433e7 0.0
1.9447344169934433e7 -279223.0170542074 0.0
0.0 0.0 0.0

-467686.5934788351 1.7582024319945324e7 0.0
1.7582024319945324e7 2.811271165770904e6 0.0
0.0 0.0 0.0

-152166.8779486122 1.7355407265922654e7 0.0
1.7355407265922654e7 4.766462124340646e6 0.0
0.0 0.0 0.0

-7.42410367435093e6 1.3813384238067785e7 0.0
1.3813384238067785e7 1.4452587651045475e7 0.0
0.0 0.0 0.0

-9.20325513357988e6 -5.180799284153481e6 0.0
-5.180799284153481e6 2.599995726979807e7 0.0
0.0 0.0 0.0

2.3497349780641906e6 2.2975749309208397e7 0.0
2.2975749309208397e7 -5.1201134534572195e6 0.0
0.0 0.0 0.0

2.824541646444991e6 1.884532458410109e7 0.0
1.884532458410109e7 1.3271928431509718e7 0.0
0.0 0.0 0.0

3.0004412889367277e6 8.176785913420977e6 0.0
8.176785913420977e6 -2.1137900817385484e7 0.0
0.0 0.0 0.0

-9.568543302236987e6 -3.43547988616054e6 0.0
-3.43547988616054e6 2.8099521632355154e7 0.0
0.0 0.0 0.0

1.3507629971198884e6 1.8406155725388903e7 0.0
1.8406155725388903e7 1.0267281964710757e7 0.0
0.0 0.0 0.0

-5.955813658108048e6 1.516919955103152e7 0.0
1.516919955103152e7 3.277416737053589e7 0.0
0.0 0.0 0.0

3.418980647320034e6 1.9297596943586025e7 0.0
1.9297596943586025e7 1.0137295604054539e7 0.0
0.0 0.0 0.0

-2.8560532874698024e6 1.3994833625163477e7 0.0
1.3994833625163477e7 -3.802098010210891e7 0.0
0.0 0.0 0.0

-5.452020835002515e6 1.779433309027244e7 0.0
1.779433309027244e7 2.0254368521687195e7 0.0
0.0 0.0 0.0

-555989.911555728 1.708993653796261e7 0.0
1.708993653796261e7 1.4691532256106047e7 0.0
0.0 0.0 0.0

544490.1100473809 1.8866961434153438e7 0.0
1.8866961434153438e7 -9.823865586053815e6 0.0
0.0 0.0 0.0

-1.8655562057615877e6 1.8586797540794212e7 0.0
1.8586797540794212e7 -4.623516220650873e6 0.0
0.0 0.0 0.0

2.5608850911732763e6 7.856919365352339e6 0.0
7.856919365352339e6 -3.297337744442018e7 0.0
0.0 0.0 0.0

2.7125890772537533e6 7.153107954751902e6 0.0
7.153107954751902e6 -3.459132803044388e7 0.0
0.0 0.0 0.0

-18985.458638264332 1.4362370621180115e7 0.0
1.4362370621180115e7 -8.573242832460534e6 0.0
0.0 0.0 0.0

-9.82332156653109e6 1.5562917668001631e7 0.0
1.5562917668001631e7 2.3763616507793706e7 0.0
0.0 0.0 0.0

-110970.72409560159 1.7768028803021602e7 0.0
1.7768028803021602e7 -1.1956234109791338e7 0.0
0.0 0.0 0.0

-7.484655403968155e6 2.437482428439843e6 0.0
2.437482428439843e6 5.319611727845986e7 0.0
0.0 0.0 0.0

-449118.71875449084 1.3755089286758248e7 0.0
1.3755089286758248e7 -2.833562422024154e7 0.0
0.0 0.0 0.0

-849317.8155955654 1.3721558357109338e7 0.0
1.3721558357109338e7 4.8168777368581966e7 0.0
0.0 0.0 0.0

3.882187108699044e6 2.1745466359550534e6 0.0
2.1745466359550534e6 -4.229757522468214e7 0.0
0.0 0.0 0.0

-345776.398863703 2.0125302520551454e7 0.0
2.0125302520551454e7 -7.821629178852632e6 0.0
0.0 0.0 0.0

2.4523287366432515e6 1.9082575777939808e7 0.0
1.9082575777939808e7 1.0863602020439794e7 0.0
0.0 0.0 0.0

-4.212757016237242e6 1.5112371378549162e7 0.0
1.5112371378549162e7 -3.468849297287794e7 0.0
0.0 0.0 0.0

6.771757281835128e6 1.0293014187254364e7 0.0
1.0293014187254364e7 1.4501532419177033e6 0.0
0.0 0.0 0.0

-1.3406024561073785e6 1.785780616534904e7 0.0
1.785780616534904e7 -5.856197057771849e6 0.0
0.0 0.0 0.0

1.7563094845184681e6 1.8740090549985692e7 0.0
1.8740090549985692e7 1.1321923803719284e7 0.0
0.0 0.0 0.0

-4.1796205327164694e6 1.962020109828143e7 0.0
1.962020109828143e7 9.411762049950765e6 0.0
0.0 0.0 0.0

-4.407007918991618e6 1.8743873373197764e7 0.0
1.8743873373197764e7 1.4095819808589775e7 0.0
0.0 0.0 0.0

952493.7378528565 1.1442974426686771e7 0.0
1.1442974426686771e7 -1.2633741483598936e7 0.0
0.0 0.0 0.0

-1.1631154905438218e7 1.4248929550011173e7 0.0
1.4248929550011173e7 2.2051880884246297e7 0.0
0.0 0.0 0.0

-2.0975950720473155e6 1.3575984088991715e7 0.0
1.3575984088991715e7 -3.559822814079471e7 0.0
0.0 0.0 0.0

-1.742805758232926e6 1.772310774703085e7 0.0
1.772310774703085e7 -8.850311911460826e6 0.0
0.0 0.0 0.0

-5.756031581874632e6 2.023636319131928e7 0.0
2.023636319131928e7 5.561990919629244e6 0.0
0.0 0.0 0.0

647278.0492146304 1.0201489147146946e7 0.0
1.0201489147146946e7 -7.672106725539183e6 0.0
0.0 0.0 0.0

-6.353743171348669e6 5.19378475240144e6 0.0
5.19378475240144e6 7.019519857755002e7 0.0
0.0 0.0 0.0

-4.739315806603806e6 1.510680656377807e7 0.0
1.510680656377807e7 -4.30011958983595e7 0.0
0.0 0.0 0.0

-4.844062551426417e6 1.7277320747269392e7 0.0
1.7277320747269392e7 2.250378111121452e7 0.0
0.0 0.0 0.0

-2.4359114204911743e6 2.5819590116539344e7 0.0
2.5819590116539344e7 763397.0922670715 0.0
0.0 0.0 0.0

1.2902267414161317e7 1.9018400360455245e7 0.0
1.9018400360455245e7 6.091358854884803e6 0.0
0.0 0.0 0.0

-3.2713943191395756e6 1.6926003109891124e7 0.0
1.6926003109891124e7 2.8232210903020624e7 0.0
0.0 0.0 0.0

-5.7376963600444505e6 1.8067980530952454e7 0.0
1.8067980530952454e7 1.6413382279781673e7 0.0
0.0 0.0 0.0

775288.8380234437 1.334037634601222e7 0.0
1.334037634601222e7 -1.3925331385515897e7 0.0
0.0 0.0 0.0

-2.154457925305903e6 1.703314725866476e7 0.0
1.703314725866476e7 -1.0182798575817605e7 0.0
0.0 0.0 0.0

-6.724046240056742e6 1.654358264466189e7 0.0
1.654358264466189e7 1.2240547918192957e7 0.0
0.0 0.0 0.0

-6.967652002456889e6 1.5296347820399065e7 0.0
1.5296347820399065e7 1.473242711535834e7 0.0
0.0 0.0 0.0

4.245016694349982e6 3.4888310686722887e6 0.0
3.4888310686722887e6 -2.4026511843579106e7 0.0
0.0 0.0 0.0

-4.227039359707226e6 2.1776648123835508e7 0.0
2.1776648123835508e7 8.832997027907174e6 0.0
0.0 0.0 0.0

-1.139448291143133e6 1.4108551839909008e7 0.0
1.4108551839909008e7 -2.38549160372885e6 0.0
0.0 0.0 0.0

4.708049243533814e6 3.759322449194029e6 0.0
3.759322449194029e6 -1.769892530270215e7 0.0
0.0 0.0 0.0

-108294.53658162174 2.4364684991198655e7 0.0
2.4364684991198655e7 -3.548115277900093e6 0.0
0.0 0.0 0.0

3.1366915117653287e6 1.926984473938384e7 0.0
1.926984473938384e7 1.2005788206181165e7 0.0
0.0 0.0 0.0

-8.367549050869754e6 693916.6125759326 0.0
693916.6125759326 4.643531542183325e7 0.0
0.0 0.0 0.0

5.1103669173766505e6 2.018769149660714e7 0.0
2.018769149660714e7 9.012513805520616e6 0.0
0.0 0.0 0.0

3.335064866566576e6 1.9029941099461563e7 0.0
1.9029941099461563e7 6.9339160503738355e6 0.0
0.0 0.0 0.0

-113946.44293285394 1.6811830262109518e7 0.0
1.6811830262109518e7 -1.1882746991679097e7 0.0
0.0 0.0 0.0

4.154006330074206e6 3.3587102635367336e6 0.0
3.3587102635367336e6 -3.1221325800431106e7 0.0
0.0 0.0 0.0

1.5417858975401423e6 1.5836231643059075e7 0.0
1.5836231643059075e7 9.201189069360051e6 0.0
0.0 0.0 0.0

68824.22776316991 1.71821909803195e7 0.0
1.71821909803195e7 -1.090500722402099e7 0.0
0.0 0.0 0.0

243529.40300323395 1.7490871818952657e7 0.0
1.7490871818952657e7 7.951788276508907e6 0.0
0.0 0.0 0.0

-9.979785004969664e6 4.531155536883178e6 0.0
4.531155536883178e6 1.4797142078713588e7 0.0
0.0 0.0 0.0

-5.250190471744212e6 -6.762668025426943e6 0.0
-6.762668025426943e6 1.2870389941175113e7 0.0
0.0 0.0 0.0

-4.4646259070712915e6 1.9585768265459377e7 0.0
1.9585768265459377e7 3.4351249583026813e6 0.0
0.0 0.0 0.0

1.4495072553640539e6 1.325790145974008e7 0.0
1.325790145974008e7 -2.1096793142817978e7 0.0
0.0 0.0 0.0

-2.2724685758980955e6 1.5904785574466158e7 0.0
1.5904785574466158e7 -1.403826716945138e7 0.0
0.0 0.0 0.0

-6.695211820556868e6 1.7284500154730554e6 0.0
1.7284500154730554e6 6.816903791511199e7 0.0
0.0 0.0 0.0

-4.521507105995189e6 3.0482000032107808e7 0.0
3.0482000032107808e7 1.7376005039568844e6 0.0
0.0 0.0 0.0

1.085565515578819e6 5.557076665483308e6 0.0
5.557076665483308e6 -3.595509850483233e6 0.0
0.0 0.0 0.0

-911273.5142924634 1.7742327239909526e7 0.0
1.7742327239909526e7 881344.2531409657 0.0
0.0 0.0 0.0

972368.0225439803 1.8381815578473937e7 0.0
1.8381815578473937e7 1.0065324303939795e7 0.0
0.0 0.0 0.0

-1.011586954560214e7 1.5773103557085223e7 0.0
1.5773103557085223e7 2.1835082910565704e7 0.0
0.0 0.0 0.0

-1.1484869771074835e7 2.2806853095819093e7 0.0
2.2806853095819093e7 3.2692655221296684e6 0.0
0.0 0.0 0.0

2.1038719193708743e6 1.9118254140054487e7 0.0
1.9118254140054487e7 8.092874104641625e6 0.0
0.0 0.0 0.0

465805.84181180364 1.8869388902282447e7 0.0
1.8869388902282447e7 9.49199827504509e6 0.0
0.0 0.0 0.0

441588.0528893806 1.650587068254555e7 0.0
1.650587068254555e7 -1.4904832737155372e7 0.0
0.0 0.0 0.0

2.4675456614191006e6 5.334780451305346e6 0.0
5.334780451305346e6 -1.0795465000242362e7 0.0
0.0 0.0 0.0

-402495.16563934134 1.6838471924177285e7 0.0
1.6838471924177285e7 -1.3367726821445547e7 0.0
0.0 0.0 0.0

-605609.0291303177 1.8838730750805408e7 0.0
1.8838730750805408e7 -9.65910933951764e6 0.0
0.0 0.0 0.0

-3.284686096099009e6 2.1534655227798037e7 0.0
2.1534655227798037e7 4.82341181467349e6 0.0
0.0 0.0 0.0

567110.0354201812 1.966459982884985e7 0.0
1.966459982884985e7 -8.3598168045e6 0.0
0.0 0.0 0.0

191170.33541114535 1.9026555640770085e7 0.0
1.9026555640770085e7 -9.108145995550828e6 0.0
0.0 0.0 0.0

4.363603218144599e6 4.210544566813869e6 0.0
4.210544566813869e6 -2.824443897663894e7 0.0
0.0 0.0 0.0

1.4439762325968556e6 1.825414199167236e7 0.0
1.825414199167236e7 5.77371421757974e6 0.0
0.0 0.0 0.0

-788243.9959075721 1.9351674919308458e7 0.0
1.9351674919308458e7 -8.748125960646536e6 0.0
0.0 0.0 0.0

-1.2342160537681095e7 1.1915532630963001e7 0.0
1.1915532630963001e7 1.8519062258156825e7 0.0
0.0 0.0 0.0

-7.23717859806271e7 2.7095042488191064e7 0.0
2.7095042488191064e7 -3.659721198527977e6 0.0
0.0 0.0 0.0

2.513082661712794e7 2.704990323408489e7 0.0
2.704990323408489e7 8.376959983402057e7 0.0
0.0 0.0 0.0

-2.3071774237455122e7 2.4680553225828648e7 0.0
2.4680553225828648e7 -7.690607455266301e7 0.0
0.0 0.0 0.0

-6.543619122320466e6 1.760219698625087e7 0.0
1.760219698625087e7 1.9235356875170603e7 0.0
0.0 0.0 0.0

1.3591868174558496e6 1.3007368254602134e7 0.0
1.3007368254602134e7 -1.8694302062686764e7 0.0
0.0 0.0 0.0

-2.676140923697266e6 1.7981291546037424e7 0.0
1.7981291546037424e7 -1.020109512654994e7 0.0
0.0 0.0 0.0

329554.8813025631 3.054020759860855e7 0.0
3.054020759860855e7 -1.9764345686240816e6 0.0
0.0 0.0 0.0

-915052.3623376954 1.5431982034045039e7 0.0
1.5431982034045039e7 -1.755422903798631e7 0.0
0.0 0.0 0.0

-2.9091067941679955e6 1.8886153755238384e7 0.0
1.8886153755238384e7 -5.9943497652362585e6 0.0
0.0 0.0 0.0

-1.1461997730967209e7 1.3996245383933885e7 0.0
1.3996245383933885e7 1.923244510214917e7 0.0
0.0 0.0 0.0

-1.9880368718807923e6 2.1832732803196803e7 0.0
2.1832732803196803e7 -1.3839525620943403e6 0.0
0.0 0.0 0.0

-1.2667261654651714e6 1.4543386007726891e7 0.0
1.4543386007726891e7 -2.6375843009855762e7 0.0
0.0 0.0 0.0

-1.0108365579150642e6 1.7875877073988616e7 0.0
1.7875877073988616e7 -5.642920200290945e6 0.0
0.0 0.0 0.0

-4.856490917225419e6 1.9631683830750227e7 0.0
1.9631683830750227e7 1.0434363527990786e7 0.0
0.0 0.0 0.0

1.229366563506307e7 1.88337511430669e7 0.0
1.88337511430669e7 -1.9077408038292145e6 0.0
0.0 0.0 0.0

-43166.83358515543 1.684833139055338e7 0.0
1.684833139055338e7 5.8198653614448765e6 0.0
0.0 0.0 0.0

-6.360460999726725e6 1.771740131666382e7 0.0
1.771740131666382e7 1.7513791101110496e7 0.0
0.0 0.0 0.0

-1.7013670069712415e7 2.1583402800541952e7 0.0
2.1583402800541952e7 -780238.8402268644 0.0
0.0 0.0 0.0

-123393.53102208558 1.7090170050131965e7 0.0
1.7090170050131965e7 5.871721027167011e6 0.0
0.0 0.0 0.0

353912.1919421288 2.474543616135092e7 0.0
2.474543616135092e7 -3.416509259362478e6 0.0
0.0 0.0 0.0

5.340560746141084e6 2.2628970124728676e7 0.0
2.2628970124728676e7 -5.319501995914199e6 0.0
0.0 0.0 0.0

1.74868660378394e6 1.2475279068401974e7 0.0
1.2475279068401974e7 -1.4459172805122534e7 0.0
0.0 0.0 0.0

-7.111851843676919e6 1.6919040896675125e7 0.0
1.6919040896675125e7 2.271041918669629e7 0.0
0.0 0.0 0.0

-112814.76829778776 1.6153747676146593e7 0.0
1.6153747676146593e7 -1.5350699223798156e7 0.0
0.0 0.0 0.0

-3.771143303161401e6 1.6051885916147165e7 0.0
1.6051885916147165e7 4.026943796699102e6 0.0
0.0 0.0 0.0

-7.690043978589271e6 1.631243800615101e7 0.0
1.631243800615101e7 1.452962641740686e7 0.0
0.0 0.0 0.0

2.136471004695473e6 7.037262346780253e6 0.0
7.037262346780253e6 -8.273341096483986e6 0.0
0.0 0.0 0.0

123692.88492561318 1.6742945680779556e7 0.0
1.6742945680779556e7 7.556817277746054e6 0.0
0.0 0.0 0.0

2.1494905894387877e6 2.2209048280808836e7 0.0
2.2209048280808836e7 -5.615975399147278e6 0.0
0.0 0.0 0.0

612350.3288101535 1.0404357860640608e7 0.0
1.0404357860640608e7 -4.92785294815704e7 0.0
0.0 0.0 0.0

-1.2396742220182996e7 1.1235860029293573e7 0.0
1.1235860029293573e7 1.7859711885277845e7 0.0
0.0 0.0 0.0

1.257530841707862e7 3.232835113186584e7 0.0
3.232835113186584e7 -6.748008645718026e6 0.0
0.0 0.0 0.0

3.417597152198529e6 7.2831232305482505e6 0.0
7.2831232305482505e6 -3.217785116556177e7 0.0
0.0 0.0 0.0

-50091.28339148848 1.656291671563664e7 0.0
1.656291671563664e7 5.994970820301941e6 0.0
0.0 0.0 0.0

488665.0979579701 2.0556901629878964e7 0.0
2.0556901629878964e7 -7.392384723239092e6 0.0
0.0 0.0 0.0

1.03564743704913e7 2.1087557434721336e7 0.0
2.1087557434721336e7 1.2177122998365298e8 0.0
0.0 0.0 0.0

-1.106076743035004e7 2.0121316426304296e7 0.0
2.0121316426304296e7 -1.067082115261834e8 0.0
0.0 0.0 0.0

2.097467493323358e7 1.7608555431595035e7 0.0
1.7608555431595035e7 4.390473318287013e6 0.0
0.0 0.0 0.0

6.666282744494492e6 2.208237071129038e7 0.0
2.208237071129038e7 -5.320043332374211e6 0.0
0.0 0.0 0.0

707776.8078474738 9.721352337258723e6 0.0
9.721352337258723e6 -6.888552372722421e6 0.0
0.0 0.0 0.0

1.316783418018267e7 2.918252072792825e7 0.0
2.918252072792825e7 -7.017859684984244e6 0.0
0.0 0.0 0.0

-3.089527625115211e6 1.8270595331640005e7 0.0
1.8270595331640005e7 1.6238690870064192e7 0.0
0.0 0.0 0.0

1.0016331194367552e7 1.862123648844773e7 0.0
1.862123648844773e7 -1.5445645922918222e6 0.0
0.0 0.0 0.0

-4.1115962371441536e6 2.109361675366864e7 0.0
2.109361675366864e7 6.816192309291847e6 0.0
0.0 0.0 0.0

-6.380111860634306e6 1.4625746597775804e7 0.0
1.4625746597775804e7 1.2860802545564987e7 0.0
0.0 0.0 0.0

537909.8136757792 3.971077966982145e6 0.0
3.971077966982145e6 -4.0042993345837034e6 0.0
0.0 0.0 0.0

3.6108549165867884e6 1.9182683504535247e7 0.0
1.9182683504535247e7 1.2893290696195407e7 0.0
0.0 0.0 0.0

-1.2909541623784127e6 2.1640571013341963e7 0.0
2.1640571013341963e7 -4.963774692956361e6 0.0
0.0 0.0 0.0

-6.746180196090374e6 1.755678813439532e7 0.0
1.755678813439532e7 2.0232207057193305e7 0.0
0.0 0.0 0.0

-5.181258342130637e6 2.204058993523916e7 0.0
2.204058993523916e7 8.423199866560016e6 0.0
0.0 0.0 0.0

-3.601174878883822e6 2.0781100656742454e7 0.0
2.0781100656742454e7 7.382432436705908e6 0.0
0.0 0.0 0.0

-1.5378452816606252e6 1.5220857655664979e7 0.0
1.5220857655664979e7 -5.45813764202533e6 0.0
0.0 0.0 0.0

-4.550529588911603e6 1.715015354946911e7 0.0
1.715015354946911e7 2.353993637276372e7 0.0
0.0 0.0 0.0

-3.77386523251546e6 2.146368038631554e7 0.0
2.146368038631554e7 7.987609808080165e6 0.0
0.0 0.0 0.0

-4.738411596548769e6 1.1494344947671102e7 0.0
1.1494344947671102e7 6.581399117776916e6 0.0
0.0 0.0 0.0

-3.216362852371993e7 2.725695988622927e7 0.0
2.725695988622927e7 59950.86825213395 0.0
0.0 0.0 0.0

-8.620750146075048e6 3.337667048459362e6 0.0
3.337667048459362e6 4.633047977201407e7 0.0
0.0 0.0 0.0

-6.660964279947234e6 2.2332765717254065e7 0.0
2.2332765717254065e7 7.235040553450674e6 0.0
0.0 0.0 0.0

-6.44339847673356e6 2.6353357517847385e7 0.0
2.6353357517847385e7 5.7434295053832065e6 0.0
0.0 0.0 0.0

39733.79927411303 1.4068692154396957e7 0.0
1.4068692154396957e7 -2.3878824248307154e7 0.0
0.0 0.0 0.0

-2.5906838270627335e6 2.8325725247337863e7 0.0
2.8325725247337863e7 2.007429195024504e6 0.0
0.0 0.0 0.0

-5.792982960940933e6 3.141807697929654e7 0.0
3.141807697929654e7 1.7886462099184457e6 0.0
0.0 0.0 0.0

-7.091010436087427e6 3.2301735611533962e7 0.0
3.2301735611533962e7 2.134326201548199e6 0.0
0.0 0.0 0.0

-1.80574225068962e6 2.3473196304954745e7 0.0
2.3473196304954745e7 -2.179642605077179e6 0.0
0.0 0.0 0.0

-1.1648460071879782e7 1.1353068592805585e7 0.0
1.1353068592805585e7 2.593066687630308e7 0.0
0.0 0.0 0.0

4.614282300806174e6 2.4224494811301213e6 0.0
2.4224494811301213e6 -2.6437690472941086e7 0.0
0.0 0.0 0.0

-5.296053623820043e6 1.7661598035236727e7 0.0
1.7661598035236727e7 2.087637844884298e7 0.0
0.0 0.0 0.0

141621.03625662357 2.541350571922348e7 0.0
2.541350571922348e7 -2.829082342800191e6 0.0
0.0 0.0 0.0

600198.0373150408 1.4522110397812538e7 0.0
1.4522110397812538e7 -1.8972868189670436e7 0.0
0.0 0.0 0.0

-9.322520929389339e6 -1.928797756049687e6 0.0
-1.928797756049687e6 3.590788367887142e7 0.0
0.0 0.0 0.0

179745.9772972077 1.7388914788311664e7 0.0
1.7388914788311664e7 997876.4310290733 0.0
0.0 0.0 0.0

138482.98618858168 1.7600846515774906e7 0.0
1.7600846515774906e7 -1.011692283949392e7 0.0
0.0 0.0 0.0

-234443.13067239523 1.6440605037968688e7 0.0
1.6440605037968688e7 -1.2794484196347354e7 0.0
0.0 0.0 0.0

-2.4693077143622935e6 1.4461374186710676e7 0.0
1.4461374186710676e7 -1.2104315170256753e7 0.0
0.0 0.0 0.0

-7.736056361555899e6 -5.057557681749156e6 0.0
-5.057557681749156e6 1.3086108467631996e7 0.0
0.0 0.0 0.0

-173040.67609885405 1.54168821014482e7 0.0
1.54168821014482e7 -2.4466007152028456e6 0.0
0.0 0.0 0.0

1.4502580573880607e6 1.731970645614846e7 0.0
1.731970645614846e7 5.107409423696034e6 0.0
0.0 0.0 0.0

1.3717389428838808e7 1.750276380148964e7 0.0
1.750276380148964e7 3.7338762706863796e6 0.0
0.0 0.0 0.0

-8.08737084845794e6 3.391156526856565e7 0.0
3.391156526856565e7 2.712199577761118e6 0.0
0.0 0.0 0.0

-6.71024281701151e6 1.4942934573320335e7 0.0
1.4942934573320335e7 1.3880670633162983e7 0.0
0.0 0.0 0.0

-7.179181926550872e6 1.6607357041268075e7 0.0
1.6607357041268075e7 -4.813609467318507e7 0.0
0.0 0.0 0.0

3.8621826080967095e6 6.658571574081432e6 0.0
6.658571574081432e6 -2.716047987773465e7 0.0
0.0 0.0 0.0

-8.934255271498548e6 -6.207992984981427e6 0.0
-6.207992984981427e6 2.2830630587659486e7 0.0
0.0 0.0 0.0

-1.5752244950565923e7 2.5060356651088644e7 0.0
2.5060356651088644e7 -4.423804648411686e6 0.0
0.0 0.0 0.0

-1.609767049040453e7 2.214914845126629e7 0.0
2.214914845126629e7 -2.676859835378968e6 0.0
0.0 0.0 0.0

-1.3664145547471445e6 1.5744377998734457e7 0.0
1.5744377998734457e7 -7.078435001511212e6 0.0
0.0 0.0 0.0

-1.1895685156787804e6 2.5069564663160004e7 0.0
2.5069564663160004e7 -1.768320605734789e6 0.0
0.0 0.0 0.0

2.0338771502950788e6 6.346105683199744e6 0.0
6.346105683199744e6 -4.7047824140642636e7 0.0
0.0 0.0 0.0

5.386235341017512e6 1.9730778653049845e7 0.0
1.9730778653049845e7 -4.0349942913463353e6 0.0
0.0 0.0 0.0

3.1523875686660064e6 1.9561515947225217e7 0.0
1.9561515947225217e7 8.902310524071407e6 0.0
0.0 0.0 0.0

1.9383162587703e6 1.2817453373612927e7 0.0
1.2817453373612927e7 -1.8445919878669895e7 0.0
0.0 0.0 0.0

-2.704798551865047e6 2.0570130890435446e7 0.0
2.0570130890435446e7 591761.3822146129 0.0
0.0 0.0 0.0

1.7564359151938353e6 1.2060913066361003e7 0.0
1.2060913066361003e7 -1.3732039763167448e7 0.0
0.0 0.0 0.0

1.4791363493836261e6 1.2570667069630511e7 0.0
1.2570667069630511e7 -1.9815765178546537e7 0.0
0.0 0.0 0.0

-1.5537470698661474e6 1.5167354355959097e7 0.0
1.5167354355959097e7 -1.2871971707024759e7 0.0
0.0 0.0 0.0

-6.774031112449584e6 2.550684567132149e7 0.0
2.550684567132149e7 5.540201197017534e6 0.0
0.0 0.0 0.0

-1.1946922967158575e7 1.965498661095115e7 0.0
1.965498661095115e7 -5.5932223270736e7 0.0
0.0 0.0 0.0

1.0454706762416875e7 2.8741026224279087e7 0.0
2.8741026224279087e7 -5.5177634384726435e6 0.0
0.0 0.0 0.0

3.0856144546816787e6 2.2200266498406406e7 0.0
2.2200266498406406e7 -5.394322403696229e6 0.0
0.0 0.0 0.0

-2.698477434332e6 2.6587333165599868e7 0.0
2.6587333165599868e7 2.4956059266806534e6 0.0
0.0 0.0 0.0

-4.345854464877227e6 2.097570824436006e7 0.0
2.097570824436006e7 9.27398639770997e6 0.0
0.0 0.0 0.0

2.1509194642975293e6 5.350383217397971e6 0.0
5.350383217397971e6 -4.906292424440817e7 0.0
0.0 0.0 0.0

-4.612314861759636e6 1.939010238209346e7 0.0
1.939010238209346e7 1.2984070209970275e7 0.0
0.0 0.0 0.0

3.0379381118592825e6 5.2018505154225305e6 0.0
5.2018505154225305e6 -3.976545083271183e7 0.0
0.0 0.0 0.0

-930990.716178104 1.8343284223523848e7 0.0
1.8343284223523848e7 -7.418021264001522e6 0.0
0.0 0.0 0.0

-808404.8347441505 1.768728792706644e7 0.0
1.768728792706644e7 -7.7448703093548175e6 0.0
0.0 0.0 0.0

-588692.1383375924 1.4998902387284923e7 0.0
1.4998902387284923e7 -3.326144384195246e6 0.0
0.0 0.0 0.0

-4.296880372069787e6 1.8166025675050776e7 0.0
1.8166025675050776e7 1.4679195079620576e7 0.0
0.0 0.0 0.0

-2.455592128758222e6 2.265024548480969e7 0.0
2.265024548480969e7 -1.4385617024285384e6 0.0
0.0 0.0 0.0

-5.456763060416952e6 1.8278465481987134e7 0.0
1.8278465481987134e7 1.2062000742085468e7 0.0
0.0 0.0 0.0

-8.911474059351081e6 -5.380604132783804e6 0.0
-5.380604132783804e6 2.6687825546142988e7 0.0
0.0 0.0 0.0

3.3649108487813156e6 6.388847151194747e6 0.0
6.388847151194747e6 -2.872233543232886e7 0.0
0.0 0.0 0.0

2.980924251245194e6 8.394051503255028e6 0.0
8.394051503255028e6 -2.2735977234975092e7 0.0
0.0 0.0 0.0

-227059.21570593488 2.7207524787693646e7 0.0
2.7207524787693646e7 -1.0064377987006216e6 0.0
0.0 0.0 0.0

-1.8660330294286353e6 1.7945823542059913e7 0.0
1.7945823542059913e7 -8.633690552921737e6 0.0
0.0 0.0 0.0

727382.3678099466 1.3436756979917467e7 0.0
1.3436756979917467e7 -2.4151115089873623e7 0.0
0.0 0.0 0.0

711968.331063556 1.793276078637092e7 0.0
1.793276078637092e7 1.3675344486442972e7 0.0
0.0 0.0 0.0

-9.848549823195416e6 302903.1999019899 0.0
302903.1999019899 1.79070009648532e7 0.0
0.0 0.0 0.0

3.5627131181225553e6 2.0135702815374207e7 0.0
2.0135702815374207e7 1.015004230085194e7 0.0
0.0 0.0 0.0

-1.249915898155885e7 2.8066751137745485e7 0.0
2.8066751137745485e7 6.8897152957752e6 0.0
0.0 0.0 0.0

2.3008086975111254e6 1.7902422400556434e7 0.0
1.7902422400556434e7 5.50597238160453e6 0.0
0.0 0.0 0.0

1.089029281419944e6 1.6329696193824567e7 0.0
1.6329696193824567e7 1.0883193278120652e7 0.0
0.0 0.0 0.0

-4.847340283346828e6 2.491460824187775e7 0.0
2.491460824187775e7 5.5563829407985825e6 0.0
0.0 0.0 0.0

-4.916765543156172e6 1.873018314288219e7 0.0
1.873018314288219e7 1.4797881806892067e7 0.0
0.0 0.0 0.0

-3.6736473464279845e6 1.6321530724568423e7 0.0
1.6321530724568423e7 2.746458599910967e7 0.0
0.0 0.0 0.0

-1.5140824984434485e7 2.2769686272313755e7 0.0
2.2769686272313755e7 -1.057512172341914e6 0.0
0.0 0.0 0.0

-1.1270840976938054e7 2.1408830581245277e7 0.0
2.1408830581245277e7 2.630110450279917e6 0.0
0.0 0.0 0.0

-1.118819168048179e7 1.4279296064631298e7 0.0
1.4279296064631298e7 4.796220725962377e6 0.0
0.0 0.0 0.0

-6.4698421294587426e7 2.949034569671825e7 0.0
2.949034569671825e7 1.6621736545907743e6 0.0
0.0 0.0 0.0

8.0144716259448575e6 1.7790917030992974e7 0.0
1.7790917030992974e7 4.508922786368522e6 0.0
0.0 0.0 0.0

-821309.1385802925 1.4302614328003922e7 0.0
1.4302614328003922e7 -2.444460634797014e7 0.0
0.0 0.0 0.0

-4.210353866237288e6 2.0516089146841686e7 0.0
2.0516089146841686e7 6.995460435673911e6 0.0
0.0 0.0 0.0

-41372.426573723555 1.7292876634168517e7 0.0
1.7292876634168517e7 -1.293165418263805e7 0.0
0.0 0.0 0.0

3.2827185385551132e7 1.4193929028277803e7 0.0
1.4193929028277803e7 961455.7679910753 0.0
0.0 0.0 0.0

-4.582476349380307e6 -314132.6457562146 0.0
-314132.6457562146 7.232313312346408e6 0.0
0.0 0.0 0.0

3.7671830046167523e6 3.0899097192093413e6 0.0
3.0899097192093413e6 -1.2507338066162337e7 0.0
0.0 0.0 0.0

-442371.37972909445 1.7841907451697797e7 0.0
1.7841907451697797e7 -1.104959042541258e7 0.0
0.0 0.0 0.0

-518231.53043581685 1.6235617226810228e7 0.0
1.6235617226810228e7 -1.1658783499252812e6 0.0
0.0 0.0 0.0

-1.0213962766558288e7 3.189336519094304e6 0.0
3.189336519094304e6 3.561814594435644e7 0.0
0.0 0.0 0.0

4.1589156570875887e6 2.2927809724466674e7 0.0
2.2927809724466674e7 -5.2408158379100785e6 0.0
0.0 0.0 0.0

-1.2067487383820739e7 3.508788750296377e7 0.0
3.508788750296377e7 3.046043793526422e6 0.0
0.0 0.0 0.0

7.46930317810377e6 1.839102258180923e7 0.0
1.839102258180923e7 3.716576497819935e6 0.0
0.0 0.0 0.0

-7.937759230683613e6 -6.709044435964698e6 0.0
-6.709044435964698e6 2.0440158073348906e7 0.0
0.0 0.0 0.0

-1.842498591164417e7 2.3387264594007708e7 0.0
2.3387264594007708e7 2.148308312361165e6 0.0
0.0 0.0 0.0

495286.4625554804 1.5942633626321552e7 0.0
1.5942633626321552e7 5.258848736337329e6 0.0
0.0 0.0 0.0

-1.6792104071988273e7 3.675032110921219e7 0.0
3.675032110921219e7 3.6658690574662928e6 0.0
0.0 0.0 0.0

-9.158682083502319e6 1.5731628420810979e7 0.0
1.5731628420810979e7 1.9270302667105943e7 0.0
0.0 0.0 0.0

1.342744050945575e6 1.7211949951622054e7 0.0
1.7211949951622054e7 -2.210016808621322e6 0.0
0.0 0.0 0.0

-4.779386773170872e6 1.5349738249093365e7 0.0
1.5349738249093365e7 -1.9573246786354028e7 0.0
0.0 0.0 0.0

-1.7252711551496827e6 1.5836368241282728e7 0.0
1.5836368241282728e7 -9.428913766141627e6 0.0
0.0 0.0 0.0

4.780255827529781e6 1.9356273475183625e7 0.0
1.9356273475183625e7 -4.3450583752719e6 0.0
0.0 0.0 0.0

2.2946915226252764e7 3.5018548253630966e7 0.0
3.5018548253630966e7 -1.3229171241675368e7 0.0
0.0 0.0 0.0

-8.133311394602513e6 -4.411071647986794e6 0.0
-4.411071647986794e6 1.5251466048179073e7 0.0
0.0 0.0 0.0

138559.2335479483 2.9466365420120873e7 0.0
2.9466365420120873e7 -1.9805530565008011e6 0.0
0.0 0.0 0.0

1.2153670616030581e6 2.5618974537049238e7 0.0
2.5618974537049238e7 -2.518475840431259e6 0.0
0.0 0.0 0.0

-1.0416772593269339e7 -1.8220626086319021e6 0.0
-1.8220626086319021e6 2.852718509188595e7 0.0
0.0 0.0 0.0

4.582233786959227e6 2.4242271004900583e6 0.0
2.4242271004900583e6 -2.668854425942855e7 0.0
0.0 0.0 0.0

-4.11349820652346e6 2.300329960971845e7 0.0
2.300329960971845e7 7.294062601267642e6 0.0
0.0 0.0 0.0

2.546183874377162e6 1.991839899778009e7 0.0
1.991839899778009e7 1.1000539702295482e7 0.0
0.0 0.0 0.0

-3.8651582304666536e6 4.184692527249914e6 0.0
4.184692527249914e6 6.841641913275764e6 0.0
0.0 0.0 0.0

-1.0499868886888891e7 1.3960966499473764e7 0.0
1.3960966499473764e7 1.924061354068215e7 0.0
0.0 0.0 0.0

1.7636348301171176e6 1.9556700891525358e7 0.0
1.9556700891525358e7 1.1630025706431571e7 0.0
0.0 0.0 0.0

-584281.7267656261 1.5254559610718276e7 0.0
1.5254559610718276e7 -1.0290325910610927e7 0.0
0.0 0.0 0.0

-2.021926218312271e6 1.4916566207423186e7 0.0
1.4916566207423186e7 -1.3773273869160885e7 0.0
0.0 0.0 0.0

-455723.6375220021 2.390052886742599e7 0.0
2.390052886742599e7 -3.5762116840571724e6 0.0
0.0 0.0 0.0

-5.487184108525653e6 -1.3780593867245005e6 0.0
-1.3780593867245005e6 9.588709872780608e6 0.0
0.0 0.0 0.0

-3.41139629033997e6 1.736857436346969e7 0.0
1.736857436346969e7 2.95828120184918e6 0.0
0.0 0.0 0.0

-9.619329087986942e6 1.5977755338174304e7 0.0
1.5977755338174304e7 2.2695156372399896e7 0.0
0.0 0.0 0.0

1.0677084428172777e6 1.2860681968137898e7 0.0
1.2860681968137898e7 -1.1499941137165396e7 0.0
0.0 0.0 0.0

-207453.24549905676 1.996359080929049e7 0.0
1.996359080929049e7 -8.486590713398943e6 0.0
0.0 0.0 0.0

820952.7228898349 3.1859689716509733e7 0.0
3.1859689716509733e7 -488095.98926145077 0.0
0.0 0.0 0.0

259930.19270113856 1.3142761575943109e7 0.0
1.3142761575943109e7 -2.5680274200066317e7 0.0
0.0 0.0 0.0

-3.863607894393023e7 3.74769700818001e7 0.0
3.74769700818001e7 6.183194129026528e6 0.0
0.0 0.0 0.0

1.2503820285411195e6 2.6514170337188714e6 0.0
2.6514170337188714e6 -2.9267479596812306e6 0.0
0.0 0.0 0.0

1.0463756852552136e6 2.790780825548293e6 0.0
2.790780825548293e6 -3.713629096983915e6 0.0
0.0 0.0 0.0

2.798542210833113e6 1.768510340842304e7 0.0
1.768510340842304e7 1.8914809463568266e7 0.0
0.0 0.0 0.0

2.6368933016905743e6 1.9056764735004947e7 0.0
1.9056764735004947e7 1.3562476438065637e7 0.0
0.0 0.0 0.0

-450571.35002298234 1.7440049411314894e7 0.0
1.7440049411314894e7 6.973512157217395e6 0.0
0.0 0.0 0.0

-1.1016333355070405e7 1.208048836743922e7 0.0
1.208048836743922e7 1.9129510866857424e7 0.0
0.0 0.0 0.0

3.7172975814415896e6 5.077478863023219e6 0.0
5.077478863023219e6 -1.255324180689214e6 0.0
0.0 0.0 0.0

-2.7083763932853835e6 1.8896758028913226e7 0.0
1.8896758028913226e7 8.449015852407278e6 0.0
0.0 0.0 0.0

-1.4682388870935624e6 2.497570219156704e7 0.0
2.497570219156704e7 -224209.99554818482 0.0
0.0 0.0 0.0

-467232.22180905193 1.3843886793423593e7 0.0
1.3843886793423593e7 -2.6912499425455138e7 0.0
0.0 0.0 0.0

6.2224663026604e6 2.0078548121933755e7 0.0
2.0078548121933755e7 9.791955962867146e6 0.0
0.0 0.0 0.0

1.0648602260812987e7 1.8776497312979788e7 0.0
1.8776497312979788e7 6.4238554965759115e6 0.0
0.0 0.0 0.0

-2.3215805355245657e7 3.8177570605875e7 0.0
3.8177570605875e7 5.615349879143734e6 0.0
0.0 0.0 0.0

187508.04036800237 1.725798307764415e7 0.0
1.725798307764415e7 7.916212741439102e6 0.0
0.0 0.0 0.0

-8.370550434331212e6 7.418384438479002e6 0.0
7.418384438479002e6 9.055467227829523e6 0.0
0.0 0.0 0.0

-1.28025835529647e7 1.0510815610126879e7 0.0
1.0510815610126879e7 2.1658023245085657e7 0.0
0.0 0.0 0.0

-1.7671884750717764e6 2.4399760994696077e7 0.0
2.4399760994696077e7 -1.1015206875185366e6 0.0
0.0 0.0 0.0

3.397632189109985e6 1.8786651868683923e7 0.0
1.8786651868683923e7 1.335901534750749e7 0.0
0.0 0.0 0.0

-8.909647653007802e6 3.3345436090596123e6 0.0
3.3345436090596123e6 5.125128162273216e7 0.0
0.0 0.0 0.0

-1.3797191701997137e6 1.7481310582739227e7 0.0
1.7481310582739227e7 1.2779591564521812e7 0.0
0.0 0.0 0.0

-7.495916641181788e6 1.5893589405891819e7 0.0
1.5893589405891819e7 -2.8172919063825592e7 0.0
0.0 0.0 0.0

2.177737102871135e6 1.957043252027383e7 0.0
1.957043252027383e7 1.2374384376071792e7 0.0
0.0 0.0 0.0

-7.030638355789732e6 1.721054061420632e7 0.0
1.721054061420632e7 2.0878114779096544e7 0.0
0.0 0.0 0.0

-327846.2942624241 1.4453355978733545e7 0.0
1.4453355978733545e7 -1.063734762832284e7 0.0
0.0 0.0 0.0

1.7273028260257617e6 1.717626918639235e7 0.0
1.717626918639235e7 6.1400558819308996e7 0.0
0.0 0.0 0.0

4.226297124059916e6 2.1990922755167726e7 0.0
2.1990922755167726e7 -5.167402573781123e6 0.0
0.0 0.0 0.0

218834.15777093917 1.5904280822931493e7 0.0
1.5904280822931493e7 -1.5689979211542612e7 0.0
0.0 0.0 0.0

-274293.7263187831 1.195797259555171e7 0.0
1.195797259555171e7 -5.568511530689314e6 0.0
0.0 0.0 0.0

4.250427947404165e6 3.3664745700823227e6 0.0
3.3664745700823227e6 -3.3051251776763584e7 0.0
0.0 0.0 0.0

845399.6140976725 3.0609133311786372e7 0.0
3.0609133311786372e7 -114688.33222833794 0.0
0.0 0.0 0.0

-1.2551610636834979e7 1.1409687847070051e7 0.0
1.1409687847070051e7 2.219980594532001e7 0.0
0.0 0.0 0.0

1.6748887579560108e6 1.6399307523667261e7 0.0
1.6399307523667261e7 1.409410678236613e7 0.0
0.0 0.0 0.0

-8.288732632264897e6 2.2797770197387986e7 0.0
2.2797770197387986e7 5.591098558931332e6 0.0
0.0 0.0 0.0

-3.315419332219096e6 1.8966196243110236e7 0.0
1.8966196243110236e7 1.4827335551215312e6 0.0
0.0 0.0 0.0

-1.1174453668840459e7 1.470885446998945e7 0.0
1.470885446998945e7 1.9344795984913692e7 0.0
0.0 0.0 0.0

2.3538818834345117e6 9.92248830469217e6 0.0
9.92248830469217e6 -1.8732576050324548e7 0.0
0.0 0.0 0.0

-1.121675588399479e7 3.3429765161035642e7 0.0
3.3429765161035642e7 6.024953152030715e6 0.0
0.0 0.0 0.0

1.7379957830845382e7 1.1415370257303512e7 0.0
1.1415370257303512e7 156837.1369587332 0.0
0.0 0.0 0.0

-9.752772345861236e6 -2.2269858561034873e6 0.0
-2.2269858561034873e6 1.4330876080053354e7 0.0
0.0 0.0 0.0

-5.7383971051978925e6 2.5821217484160878e7 0.0
2.5821217484160878e7 5.241738773633776e6 0.0
0.0 0.0 0.0

-2.342555857619642e7 1.8832571950321116e7 0.0
1.8832571950321116e7 7.42624450291549e6 0.0
0.0 0.0 0.0

-2.6022150239353846e6 1.89156679998072e7 0.0
1.89156679998072e7 -8.28715676464595e6 0.0
0.0 0.0 0.0

-4.268783973040866e7 2.824062385726061e7 0.0
2.824062385726061e7 1.8337833056587856e6 0.0
0.0 0.0 0.0

-2.683931150704995e6 1.913834763882038e7 0.0
1.913834763882038e7 -4.778238873984639e6 0.0
0.0 0.0 0.0

-6.408130149198472e6 1.6586391458213791e7 0.0
1.6586391458213791e7 1.4874467343555424e7 0.0
0.0 0.0 0.0

-1.1782612246629056e7 1.1141480532243973e7 0.0
1.1141480532243973e7 1.999268992347293e7 0.0
0.0 0.0 0.0

-8.3155255084649185e6 1.4516041104912417e7 0.0
1.4516041104912417e7 1.3199030317207886e7 0.0
0.0 0.0 0.0

-4.737237895885432e6 2.0938358294982083e7 0.0
2.0938358294982083e7 1.0135983657293564e7 0.0
0.0 0.0 0.0

-9.78473012038239e6 -156913.60872028142 0.0
-156913.60872028142 3.5708818391049415e7 0.0
0.0 0.0 0.0

-310444.51195041783 1.5286546423024997e7 0.0
1.5286546423024997e7 -1.0850403743475582e6 0.0
0.0 0.0 0.0

1.755818152645206e6 1.1039969555933949e7 0.0
1.1039969555933949e7 -1.1968507056852095e7 0.0
0.0 0.0 0.0

1.0003655753189055e6 1.4589958827082248e7 0.0
1.4589958827082248e7 -1.6222038262773601e7 0.0
0.0 0.0 0.0

-8.838210602299685e6 -4.86985204254552e6 0.0
-4.86985204254552e6 2.3470311450676743e7 0.0
0.0 0.0 0.0

-990447.0865823405 1.5658891720248373e7 0.0
1.5658891720248373e7 380976.1164892558 0.0
0.0 0.0 0.0

-7.142071322528446e6 2.3001949661723915e7 0.0
2.3001949661723915e7 6.437664794378139e6 0.0
0.0 0.0 0.0

-37432.66999426484 1.791215743603243e7 0.0
1.791215743603243e7 1.982407374064126e7 0.0
0.0 0.0 0.0

-150950.6911466266 1.728905851362983e7 0.0
1.728905851362983e7 -1.1431365026168875e7 0.0
0.0 0.0 0.0

18148.221443101997 1.6700389444814505e7 0.0
1.6700389444814505e7 3.446782219299927e6 0.0
0.0 0.0 0.0

-69905.2483921923 2.8655136587714855e7 0.0
2.8655136587714855e7 -1.6000556215598905e6 0.0
0.0 0.0 0.0

469413.91143568885 1.7999430329481296e7 0.0
1.7999430329481296e7 -9.636661164825754e6 0.0
0.0 0.0 0.0

7.32474394779795e7 2.699531582813382e7 0.0
2.699531582813382e7 1.7177458066909611e6 0.0
0.0 0.0 0.0

2.58259444174077e6 1.7677926924263403e7 0.0
1.7677926924263403e7 -3.7895432666007364e6 0.0
0.0 0.0 0.0

-1.1457787879573517e6 1.5814686639014972e7 0.0
1.5814686639014972e7 -1.815380246114592e7 0.0
0.0 0.0 0.0

670015.5601254008 1.9532405847467434e7 0.0
1.9532405847467434e7 -8.151073645421072e6 0.0
0.0 0.0 0.0

-2.1925837750521913e7 2.4990950536107197e7 0.0
2.4990950536107197e7 759438.1033513229 0.0
0.0 0.0 0.0

-5.4104116309733605e6 2.220603889851159e7 0.0
2.220603889851159e7 7.613873825106688e6 0.0
0.0 0.0 0.0

1.1124283397890894e7 1.8553516805417817e7 0.0
1.8553516805417817e7 2.0792175803375605e6 0.0
0.0 0.0 0.0

-1.3757086397937983e6 1.354088064849597e7 0.0
1.354088064849597e7 -3.208705413857983e7 0.0
0.0 0.0 0.0

3.18112543825086e6 1.6940406625433654e7 0.0
1.6940406625433654e7 2.39446374119308e7 0.0
0.0 0.0 0.0

4.363766627280715e6 5.3043597883862285e6 0.0
5.3043597883862285e6 -2.1172604979569696e7 0.0
0.0 0.0 0.0

833514.0400296529 2.021935214787143e7 0.0
2.021935214787143e7 -7.6769328689529e6 0.0
0.0 0.0 0.0

3.346615192357255e6 4.437498875370365e6 0.0
4.437498875370365e6 -3.864572434522286e7 0.0
0.0 0.0 0.0

-251795.51731615514 1.9761986309331834e7 0.0
1.9761986309331834e7 -8.709040783983517e6 0.0
0.0 0.0 0.0

3.1940773421561117e6 2.302873635475467e7 0.0
2.302873635475467e7 -5.156610927965237e6 0.0
0.0 0.0 0.0

-3.010014015028631e6 1.8758991842078682e7 0.0
1.8758991842078682e7 1.0145974372986828e6 0.0
0.0 0.0 0.0

-1.1176469676899128e7 2.775537907975056e7 0.0
2.775537907975056e7 5.550257416233747e6 0.0
0.0 0.0 0.0

-7.328960146736592e6 1.726671654785099e7 0.0
1.726671654785099e7 2.0910541775824662e7 0.0
0.0 0.0 0.0

279931.23203980504 1.6284748652810272e7 0.0
1.6284748652810272e7 7.8701387502965955e6 0.0
0.0 0.0 0.0

-3.250333684920246e7 2.9963080379089173e7 0.0
2.9963080379089173e7 8.2462968610308785e6 0.0
0.0 0.0 0.0

1.0219201536591265e7 1.9084059416378208e7 0.0
1.9084059416378208e7 7.935734932346873e6 0.0
0.0 0.0 0.0

-5.841566885456722e6 1.0695022083804004e7 0.0
1.0695022083804004e7 5.408818516023348e6 0.0
0.0 0.0 0.0

-4.962119076902958e6 2.5294074451015353e7 0.0
2.5294074451015353e7 4.907279627504496e6 0.0
0.0 0.0 0.0

-3.182022711814676e6 1.956032116003466e7 0.0
1.956032116003466e7 -6.289160900384444e6 0.0
0.0 0.0 0.0

1.1502338392002787e6 1.3223341206443548e7 0.0
1.3223341206443548e7 -1.216302498633008e7 0.0
0.0 0.0 0.0

4.580974466861317e6 2.296735031814182e6 0.0
2.296735031814182e6 -2.8051663752692e7 0.0
0.0 0.0 0.0

-1.0483587226618596e6 1.5014848640067583e7 0.0
1.5014848640067583e7 -8.249597172075793e6 0.0
0.0 0.0 0.0

3.631298307928349e7 5.922042476384974e6 0.0
5.922042476384974e6 -2.204391500513887e6 0.0
0.0 0.0 0.0

-7.106746949772997e6 1.7050413184583526e7 0.0
1.7050413184583526e7 2.173590777103268e7 0.0
0.0 0.0 0.0

-6.5195703202459905e6 2.4950240501268018e7 0.0
2.4950240501268018e7 5.934974653808659e6 0.0
0.0 0.0 0.0

-9.205716035971392e6 -3.8681296247455864e6 0.0
-3.8681296247455864e6 3.224661634313153e7 0.0
0.0 0.0 0.0

-2.70276965111392e6 2.8501136646822948e7 0.0
2.8501136646822948e7 1.177670925202371e6 0.0
0.0 0.0 0.0

-1.7033232672407564e7 2.24889232480678e7 0.0
2.24889232480678e7 2.3927959116279623e6 0.0
0.0 0.0 0.0

134902.4752229117 1.6335609943138931e7 0.0
1.6335609943138931e7 -1.4756555945494859e7 0.0
0.0 0.0 0.0

2.640930444391828e6 1.7381445777366616e7 0.0
1.7381445777366616e7 1.6841720894749805e7 0.0
0.0 0.0 0.0

-361356.1892408845 1.6748864987095691e7 0.0
1.6748864987095691e7 3.732104708337132e6 0.0
0.0 0.0 0.0

-3.8788573255045246e6 1.9713585709809974e7 0.0
1.9713585709809974e7 7.536272204534009e6 0.0
0.0 0.0 0.0

702917.919357229 1.2692682642014408e7 0.0
1.2692682642014408e7 -1.2897368356364647e7 0.0
0.0 0.0 0.0

3.0381352129511014e6 9.50835452725743e6 0.0
9.50835452725743e6 -1.8034165139648512e7 0.0
0.0 0.0 0.0

-332455.50739896833 8.618499611287205e6 0.0
8.618499611287205e6 -5.840943711266068e6 0.0
0.0 0.0 0.0

-4.589301581948205e6 2.4834383102072652e7 0.0
2.4834383102072652e7 4.775376217632233e6 0.0
0.0 0.0 0.0

-878884.2241279604 1.5664296134971013e7 0.0
1.5664296134971013e7 -9.315012295265995e6 0.0
0.0 0.0 0.0

1.4254179921441946e7 1.1315712546216547e7 0.0
1.1315712546216547e7 -99304.15815589856 0.0
0.0 0.0 0.0

4.555803885548301e6 2.3650791522028535e6 0.0
2.3650791522028535e6 -2.8311250154106922e7 0.0
0.0 0.0 0.0

1.2473949354804102e6 1.689283959402937e7 0.0
1.689283959402937e7 1.7634773417989504e7 0.0
0.0 0.0 0.0

445833.6316744294 8.444176512368703e6 0.0
8.444176512368703e6 -7.524548975905844e6 0.0
0.0 0.0 0.0

389130.6535543124 2.4146832275988907e7 0.0
2.4146832275988907e7 -3.193852073817226e6 0.0
0.0 0.0 0.0

-560435.5621380047 1.7398806734595258e7 0.0
1.7398806734595258e7 8.988275368480233e6 0.0
0.0 0.0 0.0

-1.129925390701216e7 6.045187936447316e6 0.0
6.045187936447316e6 3.1842010425678205e7 0.0
0.0 0.0 0.0

-5.464714365326825e6 1.4339394510241214e6 0.0
1.4339394510241214e6 7.995520034165108e6 0.0
0.0 0.0 0.0

3.4127971990497913e6 2.3005027616422724e7 0.0
2.3005027616422724e7 -5.139836322794011e6 0.0
0.0 0.0 0.0

-4.4634523583117306e7 1.3230174598555991e7 0.0
1.3230174598555991e7 8.95710326445385e6 0.0
0.0 0.0 0.0

346498.56480038166 1.5166559562872717e7 0.0
1.5166559562872717e7 -1.7818794311702106e7 0.0
0.0 0.0 0.0

1.4571822012054427e6 1.2161793879864039e7 0.0
1.2161793879864039e7 3.539325984181075e6 0.0
0.0 0.0 0.0

-6.290100886740372e6 1.628000501208389e7 0.0
1.628000501208389e7 1.4239227199396912e7 0.0
0.0 0.0 0.0

-4.740868291573186e7 1.2666975049300166e7 0.0
1.2666975049300166e7 7.94936952310529e6 0.0
0.0 0.0 0.0

-1.1586580965828942e6 1.5280177953356639e7 0.0
1.5280177953356639e7 -1.880435829854379e7 0.0
0.0 0.0 0.0

71565.5773041402 1.9154156149952836e7 0.0
1.9154156149952836e7 -9.503221191843178e6 0.0
0.0 0.0 0.0

1.5700261280604315e6 5.291550878907611e6 0.0
5.291550878907611e6 -4.736036670342391e6 0.0
0.0 0.0 0.0

-7.295595646974503e6 2.108138378810091e7 0.0
2.108138378810091e7 -5.7982593542309655e6 0.0
0.0 0.0 0.0

3.3502108861474534e6 2.6209257581629165e7 0.0
2.6209257581629165e7 -4.096571799329372e6 0.0
0.0 0.0 0.0

-2.4302132244847114e6 2.632667003464408e7 0.0
2.632667003464408e7 865587.9517756696 0.0
0.0 0.0 0.0

-4.1155778922926276e6 1.9378539762251236e7 0.0
1.9378539762251236e7 4.14607923013088e6 0.0
0.0 0.0 0.0

-1.112190767538281e7 1.4128637797790146e7 0.0
1.4128637797790146e7 2.372894088072123e7 0.0
0.0 0.0 0.0

-4.435744641325608e6 1.9485003939376645e7 0.0
1.9485003939376645e7 1.2801452315340988e7 0.0
0.0 0.0 0.0

-2.5679028308634837e6 2.7855416625420433e7 0.0
2.7855416625420433e7 1.1130068193519833e6 0.0
0.0 0.0 0.0

1.3190917686992558e6 1.0906610089069972e7 0.0
1.0906610089069972e7 -1.3456555753618551e7 0.0
0.0 0.0 0.0

-2.6453743058904903e6 2.736197024891812e7 0.0
2.736197024891812e7 979791.9042615274 0.0
0.0 0.0 0.0

2.7486322402584506e6 1.9165658202527292e7 0.0
1.9165658202527292e7 1.2712927442289894e7 0.0
0.0 0.0 0.0

-1.213596266757447e7 1.1535392762601305e7 0.0
1.1535392762601305e7 2.308419842269373e7 0.0
0.0 0.0 0.0

4.0615142853659894e6 3.493048900263358e6 0.0
3.493048900263358e6 -2.9406965478215735e7 0.0
0.0 0.0 0.0

-8.364348561029344e6 2.266173092206747e7 0.0
2.266173092206747e7 5.885912044857702e6 0.0
0.0 0.0 0.0

-1.9576697514721015e6 2.2008409050909173e7 0.0
2.2008409050909173e7 -3.48078333642171e6 0.0
0.0 0.0 0.0

-952632.4210244094 2.1880131408284254e7 0.0
2.1880131408284254e7 -4.250745971919061e6 0.0
0.0 0.0 0.0

-6.06798169466519e7 3.8026215385748796e7 0.0
3.8026215385748796e7 -1.958870655194392e7 0.0
0.0 0.0 0.0

410806.67696582247 1.688214514602667e7 0.0
1.688214514602667e7 -1.3865663318670955e7 0.0
0.0 0.0 0.0

-1.5880070255680233e6 2.4063506691196326e7 0.0
2.4063506691196326e7 -491988.7610312122 0.0
0.0 0.0 0.0

-6.845458353577067e6 1.7180545465507615e7 0.0
1.7180545465507615e7 1.3845336393009307e7 0.0
0.0 0.0 0.0

-2.5597767258153852e7 2.0058613676038686e7 0.0
2.0058613676038686e7 7.927518368535124e6 0.0
0.0 0.0 0.0

645254.7094432882 1.6588645736711636e7 0.0
1.6588645736711636e7 151331.55847430817 0.0
0.0 0.0 0.0

358133.0128354458 1.8157101179170348e7 0.0
1.8157101179170348e7 1.3947768185832124e7 0.0
0.0 0.0 0.0

4.225530693229502e6 1.9855659133180308e6 0.0
1.9855659133180308e6 -3.5374008236426145e7 0.0
0.0 0.0 0.0

-1.6669756427508987e7 3.1841071957607474e7 0.0
3.1841071957607474e7 8.218071399059585e6 0.0
0.0 0.0 0.0

-9.361687319493547e6 -2.3131576411250946e6 0.0
-2.3131576411250946e6 3.3088869536538996e7 0.0
0.0 0.0 0.0

-9.514561867384844e6 -647900.4658092761 0.0
-647900.4658092761 3.8760718816313535e7 0.0
0.0 0.0 0.0

-4.507065266193489e6 640256.7863221093 0.0
640256.7863221093 7.4001688503033705e6 0.0
0.0 0.0 0.0

-1.131635782406463e7 1.2323481631275173e7 0.0
1.2323481631275173e7 2.6078828264291465e7 0.0
0.0 0.0 0.0

-208968.92555632582 1.6019449453574963e7 0.0
1.6019449453574963e7 1.0224285076209756e7 0.0
0.0 0.0 0.0

421759.43248410523 1.452044163167838e7 0.0
1.452044163167838e7 -2.0234715206701197e7 0.0
0.0 0.0 0.0

-3.435282239486123e7 3.867030987833786e7 0.0
3.867030987833786e7 7.998092291759698e6 0.0
0.0 0.0 0.0

-1.1840787155199137e7 1.2291592396197278e7 0.0
1.2291592396197278e7 2.3493664311753143e7 0.0
0.0 0.0 0.0

-1.4876848022841588e6 1.3235598064830095e7 0.0
1.3235598064830095e7 -3.3484835949365415e7 0.0
0.0 0.0 0.0

-1.6662781586599847e7 2.213260537070861e7 0.0
2.213260537070861e7 2.552270118003307e6 0.0
0.0 0.0 0.0

-8.997535585969478e6 -1.0045424801991452e6 0.0
-1.0045424801991452e6 3.982574415896396e7 0.0
0.0 0.0 0.0

65963.52519871574 1.60417527044402e7 0.0
1.60417527044402e7 -1.3337513101414135e7 0.0
0.0 0.0 0.0

-5.40838578873147e6 1.5723368842901569e7 0.0
1.5723368842901569e7 -3.701810471146634e7 0.0
0.0 0.0 0.0

-1.8527981170205355e6 1.843619047056401e7 0.0
1.843619047056401e7 -5.790637892500845e6 0.0
0.0 0.0 0.0

-1.5403836475066533e7 2.0650794685201626e7 0.0
2.0650794685201626e7 3.2108681003782367e6 0.0
0.0 0.0 0.0

3.55380779165259e7 2.206024949582934e7 0.0
2.206024949582934e7 6.887951618688355e6 0.0
0.0 0.0 0.0

-1.0888333519321545e6 1.3208190927354997e7 0.0
1.3208190927354997e7 -2.841878954558338e6 0.0
0.0 0.0 0.0

1.0973025794111304e6 1.4960956967663025e7 0.0
1.4960956967663025e7 -1.5000138377058467e7 0.0
0.0 0.0 0.0

-1.6960577938070106e6 1.4803702441816483e7 0.0
1.4803702441816483e7 -1.166179638438939e7 0.0
0.0 0.0 0.0

4.30293963010421e6 2.076056005655803e6 0.0
2.076056005655803e6 -3.564453982481531e7 0.0
0.0 0.0 0.0

-599919.5517264293 2.3386110879999533e7 0.0
2.3386110879999533e7 -2.9184600168702737e6 0.0
0.0 0.0 0.0

-1.9108749233691925e6 1.4931381557152538e7 0.0
1.4931381557152538e7 -2.030236965416489e7 0.0
0.0 0.0 0.0

431231.1134589864 1.825563230558203e7 0.0
1.825563230558203e7 -1.0040917208959699e7 0.0
0.0 0.0 0.0

-498781.5736615159 1.6534089993559455e7 0.0
1.6534089993559455e7 1.3708745248130409e6 0.0
0.0 0.0 0.0

-5.177632935830904e6 1.060578359142412e7 0.0
1.060578359142412e7 7.784930997331193e6 0.0
0.0 0.0 0.0

-4.287339772067713e6 1.944690630091027e7 0.0
1.944690630091027e7 7.123741348821875e6 0.0
0.0 0.0 0.0

-2.603589570578439e6 1.761264477512877e7 0.0
1.761264477512877e7 2.0917525578552283e7 0.0
0.0 0.0 0.0

4.691793396195589e6 2.687999488339597e6 0.0
2.687999488339597e6 -2.3616054601811282e7 0.0
0.0 0.0 0.0

-1.5529650268868936e7 1.152366552736345e7 0.0
1.152366552736345e7 5.4629903761093095e6 0.0
0.0 0.0 0.0

3.131983376774976e6 2.001997355449169e7 0.0
2.001997355449169e7 1.1707487803841898e7 0.0
0.0 0.0 0.0

-844919.3431908437 1.588376966494805e7 0.0
1.588376966494805e7 -1.440753068993402e7 0.0
0.0 0.0 0.0

5.632564287201156e7 8.908757710224004e6 0.0
8.908757710224004e6 -865731.9405852333 0.0
0.0 0.0 0.0

646002.8760126596 1.523325747367307e7 0.0
1.523325747367307e7 -1.7876316614898466e7 0.0
0.0 0.0 0.0

-1.2498317014909582e6 2.2525552827702153e7 0.0
2.2525552827702153e7 -4.197291565796854e6 0.0
0.0 0.0 0.0

-3.3584859219746706e6 2.016407378983295e7 0.0
2.016407378983295e7 -165298.99693459447 0.0
0.0 0.0 0.0

3.66511046131731e6 1.7229023368120886e7 0.0
1.7229023368120886e7 4.7789729195847414e7 0.0
0.0 0.0 0.0

-1.1363037919664133e7 1.1159106682801584e7 0.0
1.1159106682801584e7 2.737038624470911e7 0.0
0.0 0.0 0.0

-9.06783993207374e6 -4.332211245086114e6 0.0
-4.332211245086114e6 3.1885264076536972e7 0.0
0.0 0.0 0.0

-1.1305321879217753e7 4.557856735191456e6 0.0
4.557856735191456e6 3.2857140339154966e7 0.0
0.0 0.0 0.0

-2.829177577034371e6 2.5642041254918285e7 0.0
2.5642041254918285e7 1.34070877839832e6 0.0
0.0 0.0 0.0

2.339749144436839e6 1.068674447554825e7 0.0
1.068674447554825e7 -1.9575132277334884e7 0.0
0.0 0.0 0.0

-4.0122360228257026e6 2.052716590368277e7 0.0
2.052716590368277e7 9.626253627093712e6 0.0
0.0 0.0 0.0

292389.6509259688 1.7300519045884423e7 0.0
1.7300519045884423e7 -1.2968509033409996e7 0.0
0.0 0.0 0.0

-7.49812626195528e6 1.5557114057532692e7 0.0
1.5557114057532692e7 1.2745940491734628e7 0.0
0.0 0.0 0.0

-4.965774564167157e6 2.2507238192766596e7 0.0
2.2507238192766596e7 7.802852963343492e6 0.0
0.0 0.0 0.0

5.493356509366097e6 2.1587788526837103e7 0.0
2.1587788526837103e7 -4.917586378486549e6 0.0
0.0 0.0 0.0

-5.189518748947765e6 1.9004803137175035e7 0.0
1.9004803137175035e7 1.4123230563843915e7 0.0
0.0 0.0 0.0

-4.1903811286752797e6 1.9858517646502852e7 0.0
1.9858517646502852e7 1.0751015468092741e7 0.0
0.0 0.0 0.0

-2.569146374003508e6 1.5543536021368977e7 0.0
1.5543536021368977e7 -1.2744749771255793e7 0.0
0.0 0.0 0.0

-1.2434330647395816e7 1.2223867008350838e7 0.0
1.2223867008350838e7 2.1472486511995967e7 0.0
0.0 0.0 0.0

-2.5458346127193496e6 2.5672987223613307e7 0.0
2.5672987223613307e7 2.303847868080568e6 0.0
0.0 0.0 0.0

3.9761187922900226e6 4.847143829678e6 0.0
4.847143829678e6 -2.248832610844897e7 0.0
0.0 0.0 0.0

-8.537324486298833e6 1.8736004804660908e6 0.0
1.8736004804660908e6 5.033078022971385e7 0.0
0.0 0.0 0.0

-953646.2140417106 1.7801184980415646e7 0.0
1.7801184980415646e7 -6.954224035244025e6 0.0
0.0 0.0 0.0

-2.8338389726660415e6 2.6134926812375948e7 0.0
2.6134926812375948e7 1.45248304388962e6 0.0
0.0 0.0 0.0

1.8804376462643575e6 1.23392228707717e7 0.0
1.23392228707717e7 -2.2028037482379906e7 0.0
0.0 0.0 0.0

-1.194379920929873e6 2.3556019111864366e7 0.0
2.3556019111864366e7 -3.1920122163921315e6 0.0
0.0 0.0 0.0

2.5971672926504733e6 9.337641301004574e6 0.0
9.337641301004574e6 -1.958632328677297e7 0.0
0.0 0.0 0.0

-1.2088649129770737e7 1.0530613341350645e7 0.0
1.0530613341350645e7 2.411291517167798e7 0.0
0.0 0.0 0.0

-5.079401203158528e7 3.57795494672326e7 0.0
3.57795494672326e7 1.011702876718935e7 0.0
0.0 0.0 0.0

-1.1241320305466216e7 2.184473056748721e7 0.0
2.184473056748721e7 149439.51280134078 0.0
0.0 0.0 0.0

-4.1393236629651054e6 2.0506457973237187e7 0.0
2.0506457973237187e7 1.0614495775404597e7 0.0
0.0 0.0 0.0

-5.592459843146626e6 -6.993892268026034e6 0.0
-6.993892268026034e6 1.2727354462228723e7 0.0
0.0 0.0 0.0

-1.3546254557077698e7 2.0751437425220452e7 0.0
2.0751437425220452e7 -1.5447119858264457e6 0.0
0.0 0.0 0.0

-6.2653482982637435e6 2.29867698792836e7 0.0
2.29867698792836e7 6.979118629466383e6 0.0
0.0 0.0 0.0

4.301735151319586e6 3.304381298306144e6 0.0
3.304381298306144e6 -3.0052412677221887e7 0.0
0.0 0.0 0.0

-7.737585731738448e6 1.4217721093609765e7 0.0
1.4217721093609765e7 1.5400609339826293e7 0.0
0.0 0.0 0.0

-1.1212670946313007e7 1.2674268201864742e7 0.0
1.2674268201864742e7 1.968538226028707e7 0.0
0.0 0.0 0.0

1.8049744936551435e6 2.896980628535487e7 0.0
2.896980628535487e7 -1.2213614195905589e6 0.0
0.0 0.0 0.0

-1.111783537256328e7 -63405.07438742712 0.0
-63405.07438742712 1.6392395689911652e7 0.0
0.0 0.0 0.0

-1.2082671685751718e7 1.324121395446296e7 0.0
1.324121395446296e7 2.2136244394504298e7 0.0
0.0 0.0 0.0

-1.6452197752272189e6 2.6597706111188482e7 0.0
2.6597706111188482e7 1.2791571857413081e6 0.0
0.0 0.0 0.0

-9.196796829118252e6 -550163.6873551395 0.0
-550163.6873551395 4.145004290975955e7 0.0
0.0 0.0 0.0

-6.943272874258505e6 -4.432765242549342e6 0.0
-4.432765242549342e6 1.551622603547398e7 0.0
0.0 0.0 0.0

3.526116319290802e6 7.067765326290213e6 0.0
7.067765326290213e6 -2.1455221568661917e7 0.0
0.0 0.0 0.0

-4.0254225720204264e6 1.9747765902817376e7 0.0
1.9747765902817376e7 8.070392080299563e6 0.0
0.0 0.0 0.0

-1.1403751388043966e7 1.3036320829357661e7 0.0
1.3036320829357661e7 2.4061435872291762e7 0.0
0.0 0.0 0.0

-110432.93452394102 1.6857998229503494e7 0.0
1.6857998229503494e7 -1.2661423782562586e7 0.0
0.0 0.0 0.0

683645.9723902354 1.6137936116870454e7 0.0
1.6137936116870454e7 -1.334006279840085e7 0.0
0.0 0.0 0.0

2.4243743728949334e6 1.0441750015618777e7 0.0
1.0441750015618777e7 -2.0847121612533733e7 0.0
0.0 0.0 0.0

429713.99940362107 1.4845015041683685e7 0.0
1.4845015041683685e7 -1.9057780905193366e7 0.0
0.0 0.0 0.0

325570.331001156 1.6678963864278406e7 0.0
1.6678963864278406e7 6.620279720528797e6 0.0
0.0 0.0 0.0

-1.1341587279664094e7 1.4146762595579503e7 0.0
1.4146762595579503e7 2.2927872807188336e7 0.0
0.0 0.0 0.0

-1.0950717763323854e6 2.295241684647757e7 0.0
2.295241684647757e7 -4.0243483023263346e6 0.0
0.0 0.0 0.0

-4.897704348694072e6 2.4728541221059255e7 0.0
2.4728541221059255e7 5.42224125282627e6 0.0
0.0 0.0 0.0

-2.1366942161441725e6 2.592117023472168e7 0.0
2.592117023472168e7 1.7822822146009877e6 0.0
0.0 0.0 0.0

1.1197331036197472e7 2.18808481458642e7 0.0
2.18808481458642e7 5.833347268821488e7 0.0
0.0 0.0 0.0

-3.560347070596711e6 2.006923872936076e7 0.0
2.006923872936076e7 6.800120018878783e6 0.0
0.0 0.0 0.0

909038.0681611728 1.54227724445387e7 0.0
1.54227724445387e7 -1.4044783636453044e7 0.0
0.0 0.0 0.0

-237540.79557795543 1.5439784724654034e7 0.0
1.5439784724654034e7 -1.7812412328161187e7 0.0
0.0 0.0 0.0

1.0385659955681786e6 1.5203792867505182e7 0.0
1.5203792867505182e7 -1.5283233808450304e7 0.0
0.0 0.0 0.0

-442310.4204513001 2.535691469522329e7 0.0
2.535691469522329e7 -1.320563858197947e6 0.0
0.0 0.0 0.0

-4.243953833175495e6 1.9168234900062505e7 0.0
1.9168234900062505e7 6.229145923678517e6 0.0
0.0 0.0 0.0

-202889.89760158304 1.5852025144829595e7 0.0
1.5852025144829595e7 2.315129985966079e6 0.0
0.0 0.0 0.0

-467853.6607647259 1.618134513073822e7 0.0
1.618134513073822e7 -1.392523142887794e7 0.0
0.0 0.0 0.0

-6.247678193471519e6 1.116218457326645e7 0.0
1.116218457326645e7 6.847485718077172e6 0.0
0.0 0.0 0.0

1.845829413708827e6 3.320730550759182e7 0.0
3.320730550759182e7 -4.537790004547212e6 0.0
0.0 0.0 0.0

3.4216354559718817e6 3.9491855935371527e6 0.0
3.9491855935371527e6 -4.2232214829238765e7 0.0
0.0 0.0 0.0

7.58042153712281e7 2.9582867853476e7 0.0
2.9582867853476e7 1.6004947129713722e7 0.0
0.0 0.0 0.0

3.1653822786160465e7 3.2266452986282576e7 0.0
3.2266452986282576e7 -1.87536532286833e7 0.0
0.0 0.0 0.0

-2.41231136258634e6 1.7822208726644546e7 0.0
1.7822208726644546e7 1.4539958003503723e7 0.0
0.0 0.0 0.0

811247.9856180719 1.7147663741712157e7 0.0
1.7147663741712157e7 8.52263958772164e6 0.0
0.0 0.0 0.0

-2.119448647890105e7 2.2383488251773164e7 0.0
2.2383488251773164e7 1.2273892534319963e6 0.0
0.0 0.0 0.0

-5.084279358001175e7 2.5014451668519244e7 0.0
2.5014451668519244e7 3.5213355740561113e6 0.0
0.0 0.0 0.0

-7.15778758089571e6 1.1211614946533885e7 0.0
1.1211614946533885e7 1.1790110258561248e7 0.0
0.0 0.0 0.0

-1.6906609434468462e6 2.263264435333831e7 0.0
2.263264435333831e7 -1.5857712278132774e6 0.0
0.0 0.0 0.0

1.2084394680617116e6 1.446770696635059e7 0.0
1.446770696635059e7 -1.5929217506091423e7 0.0
0.0 0.0 0.0

2.924365699275844e6 7.172544500905286e6 0.0
7.172544500905286e6 -3.855918925649507e7 0.0
0.0 0.0 0.0

721194.8164638663 1.4653723582924768e7 0.0
1.4653723582924768e7 -1.6220217215987982e7 0.0
0.0 0.0 0.0

-992479.1523827668 1.3229398276991166e7 0.0
1.3229398276991166e7 -2.9977092313521504e7 0.0
0.0 0.0 0.0

-1.1704567586868202e7 1.2794840519435167e7 0.0
1.2794840519435167e7 1.7750308105096757e7 0.0
0.0 0.0 0.0

-1.0155962031047158e6 1.7391747472548746e7 0.0
1.7391747472548746e7 1.9017852440818712e7 0.0
0.0 0.0 0.0

-91457.05580914044 1.5627185559731089e7 0.0
1.5627185559731089e7 5.870608711586615e6 0.0
0.0 0.0 0.0

-1.0090129552131103e7 5.690075763369839e6 0.0
5.690075763369839e6 5.896887460621217e6 0.0
0.0 0.0 0.0

-1.1188054247620242e7 3.138224955530451e6 0.0
3.138224955530451e6 3.234250356966587e7 0.0
0.0 0.0 0.0

-3.4543728724333746e6 2.274372649632892e7 0.0
2.274372649632892e7 5.440220244085308e6 0.0
0.0 0.0 0.0

-2.224373753583297e6 1.782921422045166e7 0.0
1.782921422045166e7 2.123210602479714e7 0.0
0.0 0.0 0.0

-6.037136870763334e6 1.5962688886466809e7 0.0
1.5962688886466809e7 1.3368770712597813e7 0.0
0.0 0.0 0.0

-3.824151535600068e6 3.0299893071871987e6 0.0
3.0299893071871987e6 2.590394327297275e6 0.0
0.0 0.0 0.0

-6.523848563561674e6 1.1137049487795811e7 0.0
1.1137049487795811e7 5.226483980413245e7 0.0
0.0 0.0 0.0

-3.1971460825598426e6 1.8435861842308395e7 0.0
1.8435861842308395e7 1.7483511588756735e6 0.0
0.0 0.0 0.0

-985931.2624394423 2.23525558933872e7 0.0
2.23525558933872e7 -4.87354950652437e6 0.0
0.0 0.0 0.0

-2.235030837201055e6 1.7411380337443057e7 0.0
1.7411380337443057e7 2.1697408138307393e7 0.0
0.0 0.0 0.0

-5.726089785198513e6 1.1097840121909317e7 0.0
1.1097840121909317e7 9.11988981097167e6 0.0
0.0 0.0 0.0

3.733748931435799e6 2.2140056030569393e7 0.0
2.2140056030569393e7 -5.383638000134883e6 0.0
0.0 0.0 0.0

-6.932755172309238e6 3.778468416287283e6 0.0
3.778468416287283e6 5.7668852262974426e7 0.0
0.0 0.0 0.0

4.1146435991490665e6 2.0447687434608463e7 0.0
2.0447687434608463e7 -5.29275605481741e6 0.0
0.0 0.0 0.0

-2.533407958335017e6 2.612952451533448e7 0.0
2.612952451533448e7 2.453755145006061e6 0.0
0.0 0.0 0.0

-3.606478293598389e6 1.4538455308712564e7 0.0
1.4538455308712564e7 -1.8149022932076506e7 0.0
0.0 0.0 0.0

-4.999751437857568e6 1.848642772715923e7 0.0
1.848642772715923e7 1.4904852986600542e7 0.0
0.0 0.0 0.0

-1.208500485200144e7 1.110158233413498e7 0.0
1.110158233413498e7 2.4814632900273755e7 0.0
0.0 0.0 0.0

1.2462909440405115e6 2.4903083553084854e7 0.0
2.4903083553084854e7 -3.2248879246550505e6 0.0
0.0 0.0 0.0

2.9282253142146193e6 5.3972418830736e6 0.0
5.3972418830736e6 -9.238815444995118e6 0.0
0.0 0.0 0.0

-1.6614748007054294e6 3.1289519647865117e7 0.0
3.1289519647865117e7 -964689.2294228175 0.0
0.0 0.0 0.0

2.2343917596987695e6 1.8624987190905012e7 0.0
1.8624987190905012e7 6.08112932639385e6 0.0
0.0 0.0 0.0

-1.8024208934480373e6 2.089804596194882e7 0.0
2.089804596194882e7 -3.230053644689657e6 0.0
0.0 0.0 0.0

3.6895201779885106e6 5.346895068476691e6 0.0
5.346895068476691e6 -2.9905968681096528e7 0.0
0.0 0.0 0.0

-1.4348581154810616e6 1.848325376262359e7 0.0
1.848325376262359e7 -7.956110762599175e6 0.0
0.0 0.0 0.0

3.9189380418542535e6 1.9793254240604952e7 0.0
1.9793254240604952e7 1.1942404982385524e7 0.0
0.0 0.0 0.0

-2.239914232643421e6 2.451042201812506e7 0.0
2.451042201812506e7 1.423032357140746e6 0.0
0.0 0.0 0.0

2.0110171101762326e6 1.7773777891242247e7 0.0
1.7773777891242247e7 2.1171629741939813e7 0.0
0.0 0.0 0.0

-1.8232365950209745e6 2.252766888577077e6 0.0
2.252766888577077e6 3.787126648500469e6 0.0
0.0 0.0 0.0

-3.894620867317427e6 1.6835676025464274e7 0.0
1.6835676025464274e7 2.604713023425685e7 0.0
0.0 0.0 0.0

-6.344049263460557e6 2.1096265880969513e7 0.0
2.1096265880969513e7 4.249006116874218e6 0.0
0.0 0.0 0.0

4.305274135753512e6 2.1141747775650356e7 0.0
2.1141747775650356e7 -5.267168760435718e6 0.0
0.0 0.0 0.0

856643.2620250876 2.011968417487654e7 0.0
2.011968417487654e7 -7.508392211361931e6 0.0
0.0 0.0 0.0

3.8167871205001906e6 2.6035004395286325e7 0.0
2.6035004395286325e7 -4.059797981050594e6 0.0
0.0 0.0 0.0

110188.52208749973 1.461519487128379e7 0.0
1.461519487128379e7 3.954392347618033e6 0.0
0.0 0.0 0.0

-4.306139967647753e6 2.1149789470364835e7 0.0
2.1149789470364835e7 9.72715093456876e6 0.0
0.0 0.0 0.0

1.2411369487557132e6 2.6845585264165223e7 0.0
2.6845585264165223e7 -3.1033006545258653e6 0.0
0.0 0.0 0.0

-5.357381895859962e6 1.5302310433252636e7 0.0
1.5302310433252636e7 -3.6686930741756715e7 0.0
0.0 0.0 0.0

-7.643033252527135e6 8.861679090027232e6 0.0
8.861679090027232e6 8.99917479052334e6 0.0
0.0 0.0 0.0

-86613.13324342761 1.6432035201501742e7 0.0
1.6432035201501742e7 7.420635215722413e6 0.0
0.0 0.0 0.0

1.320583469693277e6 2.552932720027498e7 0.0
2.552932720027498e7 -3.7759008861418506e6 0.0
0.0 0.0 0.0

-650541.5338906334 1.6549601783492971e7 0.0
1.6549601783492971e7 -1.440767173146236e7 0.0
0.0 0.0 0.0

4.538650024320497e6 3.810543241594528e6 0.0
3.810543241594528e6 -2.1332536650532264e7 0.0
0.0 0.0 0.0

-7.876669815379318e6 -948924.5924352808 0.0
-948924.5924352808 5.3176943655253e7 0.0
0.0 0.0 0.0

1.6753080561524378e6 1.239813729776464e7 0.0
1.239813729776464e7 -2.3364110730981812e7 0.0
0.0 0.0 0.0

408778.5036184001 1.792396329541409e7 0.0
1.792396329541409e7 9.924751351038985e6 0.0
0.0 0.0 0.0

-1.0213794758609284e7 1.3494062119439246e7 0.0
1.3494062119439246e7 1.880371845190791e7 0.0
0.0 0.0 0.0

4.842399390933208e6 2.0899346449663397e7 0.0
2.0899346449663397e7 -4.870408099962164e6 0.0
0.0 0.0 0.0

3.4986225883146822e6 5.848049661264087e6 0.0
5.848049661264087e6 -1.825558765994469e7 0.0
0.0 0.0 0.0

2.36084661833058e6 1.812197534635626e7 0.0
1.812197534635626e7 -3.1643374012565333e6 0.0
0.0 0.0 0.0

4.0318997051971797e6 2.0272764998892207e7 0.0
2.0272764998892207e7 1.0903116674251856e7 0.0
0.0 0.0 0.0

5.832473023926644e6 3.2558917678378772e7 0.0
3.2558917678378772e7 -7.041550570928566e6 0.0
0.0 0.0 0.0

1.1119639593446064e6 1.982636880928229e7 0.0
1.982636880928229e7 -7.705233414276811e6 0.0
0.0 0.0 0.0

-1.1345028199314903e6 1.6461350484022345e7 0.0
1.6461350484022345e7 3.48754365400389e7 0.0
0.0 0.0 0.0

4.7033119546474945e6 2.4481294399321103e6 0.0
2.4481294399321103e6 -2.6920805090889625e7 0.0
0.0 0.0 0.0

-793262.7920221733 2.6244515336593162e7 0.0
2.6244515336593162e7 -1.471206813332174e6 0.0
0.0 0.0 0.0

3.430439772839055e6 1.735327605152302e7 0.0
1.735327605152302e7 2.771305103945946e6 0.0
0.0 0.0 0.0

-5.64755427275278e7 1.5670715275981687e7 0.0
1.5670715275981687e7 5.929350050567888e6 0.0
0.0 0.0 0.0

-5.834305355799679e6 2.2840769352755312e7 0.0
2.2840769352755312e7 7.428030943569906e6 0.0
0.0 0.0 0.0

-6.54619609807379e6 8.14114324769546e6 0.0
8.14114324769546e6 1.0197124876377443e7 0.0
0.0 0.0 0.0

447926.30611883756 1.4819805422439363e7 0.0
1.4819805422439363e7 -2.0302969740284376e7 0.0
0.0 0.0 0.0

-2.944445758817519e6 1.7884241215039458e7 0.0
1.7884241215039458e7 1.2822809134267282e7 0.0
0.0 0.0 0.0

-1.708253333199283e6 1.4683620725563608e7 0.0
1.4683620725563608e7 -2.6453119661548045e7 0.0
0.0 0.0 0.0

4.416231456946043e6 3.0098652870113775e6 0.0
3.0098652870113775e6 -3.467123419036468e7 0.0
0.0 0.0 0.0

4.187270922013342e7 1.605253171191579e7 0.0
1.605253171191579e7 2.6020656332312264e6 0.0
0.0 0.0 0.0

-1.0126484629717739e8 3.94509333543467e7 0.0
3.94509333543467e7 -1.1642067910603613e7 0.0
0.0 0.0 0.0

9.256531028628709e6 1.8627118791664783e7 0.0
1.8627118791664783e7 7.060401555990061e6 0.0
0.0 0.0 0.0

-754560.5965202104 2.039630970643796e7 0.0
2.039630970643796e7 -7.52774699249889e6 0.0
0.0 0.0 0.0

-4.288783592279823e6 1.9313612469575625e7 0.0
1.9313612469575625e7 1.231356737237003e7 0.0
0.0 0.0 0.0

4.34428903174042e6 3.8293566094248807e6 0.0
3.8293566094248807e6 -2.0947630695785895e7 0.0
0.0 0.0 0.0

-6.534756271910077e6 2.1208122693598326e7 0.0
2.1208122693598326e7 5.984620004606083e6 0.0
0.0 0.0 0.0

617151.6221537667 2.6883516733362276e7 0.0
2.6883516733362276e7 -1.196912141199627e6 0.0
0.0 0.0 0.0

-1.9592214746482503e6 1.5521232940423964e7 0.0
1.5521232940423964e7 -2.0649201345436912e7 0.0
0.0 0.0 0.0

-2.105288431602534e6 2.060261179875179e7 0.0
2.060261179875179e7 -4.399261206373593e6 0.0
0.0 0.0 0.0

2.151799063652311e6 5.355599680578055e6 0.0
5.355599680578055e6 -6.558147830328023e6 0.0
0.0 0.0 0.0

6.5655261273497995e6 1.9885792715227127e7 0.0
1.9885792715227127e7 1.1016201524876796e7 0.0
0.0 0.0 0.0

-8.544568845495712e6 2.0300411787039768e7 0.0
2.0300411787039768e7 -1.6206513223414822e6 0.0
0.0 0.0 0.0

238154.56257076003 1.7011076058842387e7 0.0
1.7011076058842387e7 -1.1524801260775156e7 0.0
0.0 0.0 0.0

-3.2961735381417493e6 2.1339826333547287e7 0.0
2.1339826333547287e7 930619.3271489702 0.0
0.0 0.0 0.0

1.401187611226067e6 1.2545745149320075e7 0.0
1.2545745149320075e7 -2.2344516666931324e7 0.0
0.0 0.0 0.0

-9.054946011482812e6 -376788.42340520374 0.0
-376788.42340520374 4.244601116151847e7 0.0
0.0 0.0 0.0

518114.1690443391 1.5101381804605095e7 0.0
1.5101381804605095e7 -1.5213002218214866e7 0.0
0.0 0.0 0.0

2.601687462949863e6 1.7175930372859847e7 0.0
1.7175930372859847e7 -870512.8479992725 0.0
0.0 0.0 0.0

-1.1178012624946112e7 1.8355378794510096e7 0.0
1.8355378794510096e7 -4.675167822534855e7 0.0
0.0 0.0 0.0

4.0116079377691913e6 6.425225978175549e6 0.0
6.425225978175549e6 -2.0823741319786407e7 0.0
0.0 0.0 0.0

615498.2880868008 1.6356529093802663e7 0.0
1.6356529093802663e7 -1.48718271594055e7 0.0
0.0 0.0 0.0

-4.783178458583977e6 2.2174096100195847e7 0.0
2.2174096100195847e7 8.2519049720376255e6 0.0
0.0 0.0 0.0

-1.9382067130621483e6 2.3882924773966983e7 0.0
2.3882924773966983e7 -1.5148362252992874e6 0.0
0.0 0.0 0.0

-3.8307998446968677e6 2.027042631359632e7 0.0
2.027042631359632e7 9.084208357297366e6 0.0
0.0 0.0 0.0

3.1880293932133894e6 1.8243982163498618e7 0.0
1.8243982163498618e7 6.650547330973566e6 0.0
0.0 0.0 0.0

-6.980894754729564e7 2.1047579180340704e7 0.0
2.1047579180340704e7 3.3680936640368327e6 0.0
0.0 0.0 0.0

312934.7993291225 2.1932371056778664e6 0.0
2.1932371056778664e6 -1.8374432597182621e6 0.0
0.0 0.0 0.0

-933166.4436623362 1.4638808871443968e7 0.0
1.4638808871443968e7 -1.708229146800573e6 0.0
0.0 0.0 0.0

8.82664252274566e6 1.7847830871629633e7 0.0
1.7847830871629633e7 1.0158742256181536e6 0.0
0.0 0.0 0.0

-1.629582921280691e6 2.81821141269021e7 0.0
2.81821141269021e7 1.5705665309156987e6 0.0
0.0 0.0 0.0

-1.0224498023268338e6 1.3447046806741498e7 0.0
1.3447046806741498e7 -3.1932886088656224e7 0.0
0.0 0.0 0.0

-1.836456029403631e6 1.838122393097768e7 0.0
1.838122393097768e7 -5.943187586130665e6 0.0
0.0 0.0 0.0

1.4385985564792622e6 2.0895097114011485e7 0.0
2.0895097114011485e7 -6.663177859046543e6 0.0
0.0 0.0 0.0

1.1426492700407123e6 1.39110219071465e7 0.0
1.39110219071465e7 -1.3221070356932694e7 0.0
0.0 0.0 0.0

1.514876105249959e6 2.0291357661757786e7 0.0
2.0291357661757786e7 -6.735522779433523e6 0.0
0.0 0.0 0.0

-182343.8865378038 1.7158898128828276e7 0.0
1.7158898128828276e7 7.128867056890677e6 0.0
0.0 0.0 0.0

-1.453535166254886e6 2.368637904291844e7 0.0
2.368637904291844e7 -1.2110036745047953e6 0.0
0.0 0.0 0.0

3.2387359565994795e6 8.918975002233183e6 0.0
8.918975002233183e6 -2.0354804952356808e7 0.0
0.0 0.0 0.0

4.3030300101413485e6 3.3060092167613637e6 0.0
3.3060092167613637e6 -3.036748711637208e7 0.0
0.0 0.0 0.0

-1.678307005046214e6 570958.4643475701 0.0
570958.4643475701 -682535.2303368484 0.0
0.0 0.0 0.0

-8.0087954269150505e6 352423.18987460743 0.0
352423.18987460743 1.1864017301223977e6 0.0
0.0 0.0 0.0

1.3624087726920769e6 1.8363008866064966e7 0.0
1.8363008866064966e7 1.2080800240222985e7 0.0
0.0 0.0 0.0

868931.962205403 1.6324720625875598e7 0.0
1.6324720625875598e7 8.861370798463264e6 0.0
0.0 0.0 0.0

-649555.5143907643 1.706616632786375e7 0.0
1.706616632786375e7 7.195802460288746e6 0.0
0.0 0.0 0.0

3.1599787854605177e6 5.125749634070017e6 0.0
5.125749634070017e6 -1.4020777516635405e7 0.0
0.0 0.0 0.0

1.8586804131804742e6 1.9271688748590138e7 0.0
1.9271688748590138e7 -6.59712258209633e6 0.0
0.0 0.0 0.0

2.4246433553942875e6 4.372510618908884e6 0.0
4.372510618908884e6 -7.4969057717491165e6 0.0
0.0 0.0 0.0

1.1376170272676428e6 2.0325939976069693e7 0.0
2.0325939976069693e7 -7.1941901313392725e6 0.0
0.0 0.0 0.0

-1.0546584860255083e7 1.4894058563157866e7 0.0
1.4894058563157866e7 2.3826945332850467e7 0.0
0.0 0.0 0.0

-527756.3139169685 2.2797034562963482e7 0.0
2.2797034562963482e7 -3.7711281998419138e6 0.0
0.0 0.0 0.0

1.8390048662202149e6 2.6053353389104478e7 0.0
2.6053353389104478e7 -2.5294137404656787e6 0.0
0.0 0.0 0.0

3.421833265883851e6 6.995114083502952e6 0.0
6.995114083502952e6 -2.1690550550793253e7 0.0
0.0 0.0 0.0

3.6399975007244498e6 5.919087344628521e6 0.0
5.919087344628521e6 -2.2128991782906473e7 0.0
0.0 0.0 0.0

1.0730290423118964e7 1.909333756788531e7 0.0
1.909333756788531e7 -1.7541934073321703e6 0.0
0.0 0.0 0.0

-866835.5524618337 1.794133017789499e7 0.0
1.794133017789499e7 1.892296802115215e7 0.0
0.0 0.0 0.0

252760.99444422126 1.5586051468717635e7 0.0
1.5586051468717635e7 -1.4280782311182596e7 0.0
0.0 0.0 0.0

-8.848814470392326e6 -4.133062531945348e6 0.0
-4.133062531945348e6 3.2933553880006824e7 0.0
0.0 0.0 0.0

-1.6896602623628865e6 2.7094295944366712e7 0.0
2.7094295944366712e7 1.314171031139518e6 0.0
0.0 0.0 0.0

-1.1685321896006603e7 1.3362362189702578e7 0.0
1.3362362189702578e7 2.2508983383335013e7 0.0
0.0 0.0 0.0

-6.643993137430867e6 -3.7224059970967257e6 0.0
-3.7224059970967257e6 9.993421375666918e6 0.0
0.0 0.0 0.0

-189280.11792801693 1.5428735227375966e7 0.0
1.5428735227375966e7 -8.957493399385795e6 0.0
0.0 0.0 0.0

4.407618970654214e6 3.3743486513750968e6 0.0
3.3743486513750968e6 -2.9286566771267727e7 0.0
0.0 0.0 0.0

-4.228161335615377e6 2.508279386273355e7 0.0
2.508279386273355e7 5.15109412617615e6 0.0
0.0 0.0 0.0

-1.5182752268018418e6 2.041837856147478e7 0.0
2.041837856147478e7 -4.1113584315855033e6 0.0
0.0 0.0 0.0

1.522872526237269e6 1.2132117404886395e7 0.0
1.2132117404886395e7 -2.354248927198919e7 0.0
0.0 0.0 0.0

1.145756006866132e7 1.738930643292991e7 0.0
1.738930643292991e7 3.0975944880598607e6 0.0
0.0 0.0 0.0

-4.806823424038756e6 2.4349565604671437e7 0.0
2.4349565604671437e7 6.047731026029413e6 0.0
0.0 0.0 0.0

-9.761299591887468e6 -3.056728033129721e6 0.0
-3.056728033129721e6 3.1275127714296196e7 0.0
0.0 0.0 0.0

-8.82228515400536e6 -6.298560342870061e6 0.0
-6.298560342870061e6 2.316676634236234e7 0.0
0.0 0.0 0.0

3.60927344164308e6 1.7496276819236662e7 0.0
1.7496276819236662e7 -582012.6284665863 0.0
0.0 0.0 0.0

-390846.3584071314 2.0276272313496165e7 0.0
2.0276272313496165e7 -7.33936495434557e6 0.0
0.0 0.0 0.0

-211364.71559321485 2.0746016626688913e7 0.0
2.0746016626688913e7 -6.9478358487461135e6 0.0
0.0 0.0 0.0

-8.093654565363284e6 5.490088679927272e6 0.0
5.490088679927272e6 4.7110234870043315e7 0.0
0.0 0.0 0.0

3.588335225455297e6 3.2001240528895664e6 0.0
3.2001240528895664e6 -1.086693631791478e7 0.0
0.0 0.0 0.0

-5.872052151740503e6 2.0207422288897276e7 0.0
2.0207422288897276e7 -1.819309086550846e6 0.0
0.0 0.0 0.0

-1.0061465656787025e7 2.0682352608420122e7 0.0
2.0682352608420122e7 -5.853164711335576e6 0.0
0.0 0.0 0.0

-2.4289539009438656e7 2.4853195515587736e7 0.0
2.4853195515587736e7 184645.1099775359 0.0
0.0 0.0 0.0

-470684.3098179495 2.730945249858541e7 0.0
2.730945249858541e7 21025.166189824376 0.0
0.0 0.0 0.0

348377.2152434649 1.5663288941261169e7 0.0
1.5663288941261169e7 409300.13109815377 0.0
0.0 0.0 0.0

-9.546982253771469e6 -2.3195247025859593e6 0.0
-2.3195247025859593e6 3.3214511548808493e7 0.0
0.0 0.0 0.0

8.943478301057078e6 1.8889414552231748e7 0.0
1.8889414552231748e7 -1.4627623908166313e6 0.0
0.0 0.0 0.0

-246225.40224680072 1.6907146170014292e7 0.0
1.6907146170014292e7 -9.445956020613605e6 0.0
0.0 0.0 0.0

-9.896828060573526e6 -2.5530482298783814e6 0.0
-2.5530482298783814e6 2.5461646999142423e7 0.0
0.0 0.0 0.0

-4.358670983764172e6 2.0649179025242e7 0.0
2.0649179025242e7 8.2336173941998705e6 0.0
0.0 0.0 0.0

-4.184142254261267e6 2.1797633867897887e7 0.0
2.1797633867897887e7 7.434079892225434e6 0.0
0.0 0.0 0.0

-3.104666130483904e6 1.635958675347004e6 0.0
1.635958675347004e6 2.754999035574183e6 0.0
0.0 0.0 0.0

3.8606405180744007e6 5.222820714271889e6 0.0
5.222820714271889e6 -2.296194630492378e7 0.0
0.0 0.0 0.0

1.7821624953914788e6 7.964524922647911e6 0.0
7.964524922647911e6 -3.965237428614478e7 0.0
0.0 0.0 0.0

4.0632708612859864e6 1.9662064413956884e7 0.0
1.9662064413956884e7 1.1242388254458955e7 0.0
0.0 0.0 0.0

2.8671414447189895e6 4.505527840695832e6 0.0
4.505527840695832e6 -9.851039385756575e6 0.0
0.0 0.0 0.0

1.371555872109344e7 2.5124629573385376e7 0.0
2.5124629573385376e7 -8.355940072041996e6 0.0
0.0 0.0 0.0

4.521226069994846e6 4.610894329755928e6 0.0
4.610894329755928e6 -2.1869210114158206e7 0.0
0.0 0.0 0.0

4.1196087080542594e6 5.080922138445452e6 0.0
5.080922138445452e6 -1.5423272313633434e7 0.0
0.0 0.0 0.0

3.962731504688575e6 4.925192987235875e6 0.0
4.925192987235875e6 -1.956523461385325e7 0.0
0.0 0.0 0.0

509693.6251709658 1.6514618437444342e7 0.0
1.6514618437444342e7 1.87205170702588e6 0.0
0.0 0.0 0.0

551072.4482955241 1.6177945818780765e7 0.0
1.6177945818780765e7 6.786358135340931e6 0.0
0.0 0.0 0.0

801883.3799418872 1.4008343143513985e7 0.0
1.4008343143513985e7 -2.133973477462894e7 0.0
0.0 0.0 0.0

1.2500784068612069e7 2.6210901725489482e7 0.0
2.6210901725489482e7 -6.973981223701562e6 0.0
0.0 0.0 0.0

-9.632024785040917e6 -4.0654641906839656e6 0.0
-4.0654641906839656e6 2.5158050085685793e7 0.0
0.0 0.0 0.0

-4.166852805478972e6 2.0867070513408948e7 0.0
2.0867070513408948e7 9.731386210546052e6 0.0
0.0 0.0 0.0

-2.448317274659595e6 2.6835902012174115e7 0.0
2.6835902012174115e7 917835.8086606532 0.0
0.0 0.0 0.0

-830879.6300535714 2.2902536975856133e7 0.0
2.2902536975856133e7 -3.1863446586006167e6 0.0
0.0 0.0 0.0

-7.0434946106414385e6 -4.946635156523594e6 0.0
-4.946635156523594e6 1.5740739751589626e7 0.0
0.0 0.0 0.0

-8.145627861831457e6 -1.5541870605370973e6 0.0
-1.5541870605370973e6 1.0865713131927948e7 0.0
0.0 0.0 0.0

554425.456707309 1.7891175037920702e7 0.0
1.7891175037920702e7 1.7733049475184046e7 0.0
0.0 0.0 0.0

-542959.6775772476 1.1743996234004968e6 0.0
1.1743996234004968e6 -53317.49631500244 0.0
0.0 0.0 0.0

3.865253299895114e6 2.1234296905701395e7 0.0
2.1234296905701395e7 -5.231599706846162e6 0.0
0.0 0.0 0.0

-599110.4611746515 1.9354246783762366e7 0.0
1.9354246783762366e7 -8.896825305577433e6 0.0
0.0 0.0 0.0

489379.9871365698 1.623320818051097e7 0.0
1.623320818051097e7 -1.5732739772914665e7 0.0
0.0 0.0 0.0

-2.7327944699758445e6 1.982932376076051e7 0.0
1.982932376076051e7 413584.6363544548 0.0
0.0 0.0 0.0

-4.564551255114138e6 1.9978974896108642e7 0.0
1.9978974896108642e7 8.644315592525668e6 0.0
0.0 0.0 0.0

-1.1233221321451237e7 1.328236909594746e7 0.0
1.328236909594746e7 2.0155106304083087e7 0.0
0.0 0.0 0.0

-1.764756472063881e7 3.367742119739572e7 0.0
3.367742119739572e7 6.132095717254831e6 0.0
0.0 0.0 0.0

3.0602310847228398e6 4.440703630752274e6 0.0
4.440703630752274e6 -1.004978716026995e7 0.0
0.0 0.0 0.0

661935.7990233423 1.5879194039184386e7 0.0
1.5879194039184386e7 -1.3133980170869114e7 0.0
0.0 0.0 0.0

3.5734047855792474e6 4.0248634488565926e6 0.0
4.0248634488565926e6 -4.218514337531471e7 0.0
0.0 0.0 0.0

1.0596410173619064e6 2.072306333293058e7 0.0
2.072306333293058e7 -6.937433431391643e6 0.0
0.0 0.0 0.0

-7.342457969183182e6 1.091883173669606e7 0.0
1.091883173669606e7 9.811205285667686e6 0.0
0.0 0.0 0.0

-6.083236863764698e6 1.4966085979166334e7 0.0
1.4966085979166334e7 -2.646743177095018e7 0.0
0.0 0.0 0.0

2.3892846713901147e7 1.819501340952439e7 0.0
1.819501340952439e7 4.907546291268388e6 0.0
0.0 0.0 0.0

-8.407734613212433e6 1.4893003072157442e6 0.0
1.4893003072157442e6 1.306173420836727e7 0.0
0.0 0.0 0.0

6.600321003208587e6 1.897008808917789e7 0.0
1.897008808917789e7 8.879685607422572e6 0.0
0.0 0.0 0.0

4.072134569664425e6 1.5327073155547075e7 0.0
1.5327073155547075e7 1.919504958130387e7 0.0
0.0 0.0 0.0

-5.215965852800699e6 1.5275975702021439e7 0.0
1.5275975702021439e7 -1.482656023849733e7 0.0
0.0 0.0 0.0

1.2524766966891498e6 2.843209380854544e7 0.0
2.843209380854544e7 -2.795274516777628e6 0.0
0.0 0.0 0.0

-1.5799773870129013e6 2.0430117301149797e7 0.0
2.0430117301149797e7 -6.1554810086749215e6 0.0
0.0 0.0 0.0

-7.152124784618354e6 1.5664676178120809e7 0.0
1.5664676178120809e7 1.5578873752617266e7 0.0
0.0 0.0 0.0

726676.7969585359 7.993641320367197e6 0.0
7.993641320367197e6 -5.556750419833957e7 0.0
0.0 0.0 0.0

-8.52808668960076e6 16197.958262881284 0.0
16197.958262881284 1.1157235883827202e7 0.0
0.0 0.0 0.0

-774121.5942447563 1.6764602920139002e7 0.0
1.6764602920139002e7 -6.49360149702591e6 0.0
0.0 0.0 0.0

5.819219004843073e6 1.897405703000124e7 0.0
1.897405703000124e7 8.309156924498993e6 0.0
0.0 0.0 0.0

-1.5158393699975088e6 1.2448119434444094e7 0.0
1.2448119434444094e7 6.191226795238927e6 0.0
0.0 0.0 0.0

-4.844581921098763e6 1.935034084987621e7 0.0
1.935034084987621e7 1.290699869530381e7 0.0
0.0 0.0 0.0

-3.3270810602954556e6 2.316580568443764e7 0.0
2.316580568443764e7 4.671233553747942e6 0.0
0.0 0.0 0.0

-1.5606867059221491e7 3.440745327576487e7 0.0
3.440745327576487e7 7.259359706569581e6 0.0
0.0 0.0 0.0

1.2425204663218926e6 7.385928958655903e6 0.0
7.385928958655903e6 -6.069776999256823e6 0.0
0.0 0.0 0.0

-3.816027938962425e6 2.2910592264910243e7 0.0
2.2910592264910243e7 4.289785203587468e6 0.0
0.0 0.0 0.0

-1.3090697639015496e6 1.9619867119850516e7 0.0
1.9619867119850516e7 -6.231890034453331e6 0.0
0.0 0.0 0.0

1.0323844176640017e7 1.950071720058458e7 0.0
1.950071720058458e7 9.96925011702734e6 0.0
0.0 0.0 0.0

-1.446197660479487e6 2.2062550366919547e7 0.0
2.2062550366919547e7 -4.522824063537644e6 0.0
0.0 0.0 0.0

2.391560113668294e6 4.441190229433094e6 0.0
4.441190229433094e6 -8.271182829364087e6 0.0
0.0 0.0 0.0

-248322.48574385373 1.718396634405773e7 0.0
1.718396634405773e7 -1.1793291215715611e7 0.0
0.0 0.0 0.0

-1.021630960988088e7 68980.6722761274 0.0
68980.6722761274 1.938788840800591e7 0.0
0.0 0.0 0.0

4.2498709516150765e6 5.780913326071391e6 0.0
5.780913326071391e6 -2.1508107039220575e7 0.0
0.0 0.0 0.0

3.3635614807907324e6 4.714356537820615e6 0.0
4.714356537820615e6 -4.562625738249304e7 0.0
0.0 0.0 0.0

864509.286092652 1.9001817796292458e7 0.0
1.9001817796292458e7 1.0903614664769014e7 0.0
0.0 0.0 0.0

353481.2182575483 1.7035705718252245e7 0.0
1.7035705718252245e7 -1.3899191789541937e7 0.0
0.0 0.0 0.0

-7.61624458049367e6 1.5917169580767337e7 0.0
1.5917169580767337e7 1.366635381068776e7 0.0
0.0 0.0 0.0

4.529411939995038e6 2.8538035001929733e6 0.0
2.8538035001929733e6 -1.8728585967857555e7 0.0
0.0 0.0 0.0

1.4737451815131688e6 1.4060460387352107e7 0.0
1.4060460387352107e7 -1.6778687395075016e7 0.0
0.0 0.0 0.0

105521.99882970285 1.5691195569335802e7 0.0
1.5691195569335802e7 -1.659756606194207e7 0.0
0.0 0.0 0.0

-6.883477996832112e6 1.68434159133131e7 0.0
1.68434159133131e7 1.3106821185709123e7 0.0
0.0 0.0 0.0

-3.151352858956873e6 6.730033825045259e6 0.0
6.730033825045259e6 4.349751746674169e6 0.0
0.0 0.0 0.0

-9.20599995551125e6 -3.378732829835738e6 0.0
-3.378732829835738e6 2.027882542327173e7 0.0
0.0 0.0 0.0

70297.93461519387 1.649685139008476e7 0.0
1.649685139008476e7 -1.446735783741283e7 0.0
0.0 0.0 0.0

-6.526699943838659e6 9.763869613613196e6 0.0
9.763869613613196e6 1.0608287297531772e7 0.0
0.0 0.0 0.0

9.494228760289561e6 1.82297408741413e7 0.0
1.82297408741413e7 9.397716864947548e6 0.0
0.0 0.0 0.0

-658158.4407984703 1.9845427302514724e7 0.0
1.9845427302514724e7 -8.337958265608128e6 0.0
0.0 0.0 0.0

2.529567373925219e6 4.418774392768016e6 0.0
4.418774392768016e6 -7.462082540724425e6 0.0
0.0 0.0 0.0

-1.0354438236689338e7 4.286940205539071e6 0.0
4.286940205539071e6 3.3626370065105036e7 0.0
0.0 0.0 0.0

-2.7369269074312598e6 2.471987783215696e7 0.0
2.471987783215696e7 1.0867802264149478e6 0.0
0.0 0.0 0.0

-7.9559785800623745e6 2.6375206728010666e7 0.0
2.6375206728010666e7 5.545798248789845e6 0.0
0.0 0.0 0.0

-1.0144170348238721e7 2.128235056741978e6 0.0
2.128235056741978e6 1.2140583305248037e7 0.0
0.0 0.0 0.0

-1.0385314085480632e7 -694396.6293392163 0.0
-694396.6293392163 2.6885486644979708e7 0.0
0.0 0.0 0.0

1.1770949323000629e6 1.2641028134649191e7 0.0
1.2641028134649191e7 -2.3708359943218395e7 0.0
0.0 0.0 0.0

-5.7346403612874765e6 1.7367238841687314e7 0.0
1.7367238841687314e7 1.3820091794383736e7 0.0
0.0 0.0 0.0

-1.067247866777853e7 5.536785243786022e6 0.0
5.536785243786022e6 3.402579714186499e7 0.0
0.0 0.0 0.0

-5.3775245073310636e7 1.65257175517151e7 0.0
1.65257175517151e7 7.269086272591542e6 0.0
0.0 0.0 0.0

1.400609719880838e6 1.1920469375118965e7 0.0
1.1920469375118965e7 -1.5063803119409317e7 0.0
0.0 0.0 0.0

586826.825160792 1.6379934054106755e7 0.0
1.6379934054106755e7 35644.62518784258 0.0
0.0 0.0 0.0

4.645347170278301e6 2.3541054879662697e6 0.0
2.3541054879662697e6 -2.860692688976096e7 0.0
0.0 0.0 0.0

274274.0916392254 1.792268629538238e7 0.0
1.792268629538238e7 1.3298657155449651e7 0.0
0.0 0.0 0.0

-1.1533816726467581e7 5.645214648810914e6 0.0
5.645214648810914e6 3.1163788235377442e7 0.0
0.0 0.0 0.0

1.3740352416668758e6 6.417173122780548e6 0.0
6.417173122780548e6 -7.603088002195914e6 0.0
0.0 0.0 0.0

-1.2296178676912086e6 1.9665509119989928e7 0.0
1.9665509119989928e7 -6.205878903097192e6 0.0
0.0 0.0 0.0

-3.0645118688607467e6 2.2179336513329998e7 0.0
2.2179336513329998e7 493784.04324402893 0.0
0.0 0.0 0.0

-4.026195031249677e6 1.9289097252539814e7 0.0
1.9289097252539814e7 8.342683040844707e6 0.0
0.0 0.0 0.0

-5.666294083363891e6 2.5683607605530426e7 0.0
2.5683607605530426e7 5.10111110494865e6 0.0
0.0 0.0 0.0

-3.5297399579622513e6 1.8326484830554973e7 0.0
1.8326484830554973e7 315753.8671848399 0.0
0.0 0.0 0.0

-9.490664628637316e6 -1.1977466658635433e6 0.0
-1.1977466658635433e6 3.781022281902197e7 0.0
0.0 0.0 0.0

1.245952745425031e6 1.731213207325601e7 0.0
1.731213207325601e7 1.571571787531671e7 0.0
0.0 0.0 0.0

876877.4931827532 1.5657844948465612e7 0.0
1.5657844948465612e7 -1.4346322469591249e7 0.0
0.0 0.0 0.0

-1.3617414518385733e7 2.4065700973289628e7 0.0
2.4065700973289628e7 -2.6198125526582636e6 0.0
0.0 0.0 0.0

-5.150188738579798e6 120625.722276965 0.0
120625.722276965 5.8315873114176225e6 0.0
0.0 0.0 0.0

-2.1196566195024564e6 2.6424676277759004e7 0.0
2.6424676277759004e7 1.9072194743495039e6 0.0
0.0 0.0 0.0

183958.06720300345 1.5824136994516587e7 0.0
1.5824136994516587e7 -1.5440754807196327e6 0.0
0.0 0.0 0.0

-1.0273083363903165e7 1.562235325727345e7 0.0
1.562235325727345e7 2.2200745676429722e7 0.0
0.0 0.0 0.0

2.836509455051719e6 1.0600514730376676e7 0.0
1.0600514730376676e7 -1.9530247769614674e7 0.0
0.0 0.0 0.0

-1.0738208940980576e7 1.4743472765941e7 0.0
1.4743472765941e7 2.0985664959649764e7 0.0
0.0 0.0 0.0

2.148478581916397e6 4.505868542426948e6 0.0
4.505868542426948e6 -7.189540447749563e6 0.0
0.0 0.0 0.0

3.933574940482773e6 6.910333880239757e6 0.0
6.910333880239757e6 -2.1332744984349195e7 0.0
0.0 0.0 0.0

-1.50532196796133e6 1.8467463617903523e7 0.0
1.8467463617903523e7 -6.892615777721637e6 0.0
0.0 0.0 0.0

-3.276826150144539e6 1.9519918669450633e7 0.0
1.9519918669450633e7 2.0381594831456437e6 0.0
0.0 0.0 0.0

-2.695360430400873e6 2.2292416919280227e7 0.0
2.2292416919280227e7 1.6791936966628707e6 0.0
0.0 0.0 0.0

1.4543967964303358e6 2.017440901146713e7 0.0
2.017440901146713e7 -6.963909466345526e6 0.0
0.0 0.0 0.0

4.339442019155749e6 5.154834147411936e6 0.0
5.154834147411936e6 -1.9446168862063818e7 0.0
0.0 0.0 0.0

1.6392094977686957e6 4.415814972178819e6 0.0
4.415814972178819e6 -5.464752157974613e6 0.0
0.0 0.0 0.0

3.4617067355340384e6 6.338825559370294e6 0.0
6.338825559370294e6 -2.266708566748416e7 0.0
0.0 0.0 0.0

2.0920929039852289e6 6.376796679870556e6 0.0
6.376796679870556e6 -7.847841900700617e6 0.0
0.0 0.0 0.0

1.3754441504139628e7 1.8036402361928582e7 0.0
1.8036402361928582e7 7.805654770217769e6 0.0
0.0 0.0 0.0

-2.8295971435591374e6 2.9033813676614758e7 0.0
2.9033813676614758e7 2.6890094577390472e6 0.0
0.0 0.0 0.0

-9.716249301731737e6 -3.111805705881372e6 0.0
-3.111805705881372e6 3.0025049649095155e7 0.0
0.0 0.0 0.0

2.7705459077468067e6 7.79109031177465e6 0.0
7.79109031177465e6 -3.6415303920055814e7 0.0
0.0 0.0 0.0

930842.6735717403 2.0784169554188084e7 0.0
2.0784169554188084e7 -7.033475098554893e6 0.0
0.0 0.0 0.0

-1.3523717932930377e6 1.8241618853572324e7 0.0
1.8241618853572324e7 -8.143038273235428e6 0.0
0.0 0.0 0.0

3.162635430137709e6 7.188198230523862e6 0.0
7.188198230523862e6 -2.802022811884479e7 0.0
0.0 0.0 0.0

-5.793496589573847e6 2.9157431590059772e7 0.0
2.9157431590059772e7 4.874788835462667e6 0.0
0.0 0.0 0.0

4.483884520380466e6 1.978507906416498e7 0.0
1.978507906416498e7 1.0726098712773446e7 0.0
0.0 0.0 0.0

-3.455171576846671e7 3.221464766910634e7 0.0
3.221464766910634e7 8.2636438339448795e6 0.0
0.0 0.0 0.0

-4.34522777074675e6 1.7797472046341468e7 0.0
1.7797472046341468e7 1.7704160674428966e7 0.0
0.0 0.0 0.0

2.799916815517026e6 9.74555888283228e6 0.0
9.74555888283228e6 -1.999336952231868e7 0.0
0.0 0.0 0.0

5.594289604031982e7 1.9812164383576922e7 0.0
1.9812164383576922e7 6.532514514664954e6 0.0
0.0 0.0 0.0

2.3694840499962172e6 1.8600390206447486e7 0.0
1.8600390206447486e7 1.456123346115427e7 0.0
0.0 0.0 0.0

-1.0922467003736464e7 1.082453900097135e6 0.0
1.082453900097135e6 2.036588038907988e7 0.0
0.0 0.0 0.0

624121.2216146144 1.6624965669075225e7 0.0
1.6624965669075225e7 7.173841113639128e6 0.0
0.0 0.0 0.0

-1.5180859589605993e6 1.5104810278982773e7 0.0
1.5104810278982773e7 -2.0012970434322197e7 0.0
0.0 0.0 0.0

5.403435980013104e6 2.077521766025232e7 0.0
2.077521766025232e7 -4.8866440542301e6 0.0
0.0 0.0 0.0

-3.936713323015754e6 1.9602274592978403e7 0.0
1.9602274592978403e7 6.665059111977658e6 0.0
0.0 0.0 0.0

-1.1326288115787769e7 4.1024489738487024e6 0.0
4.1024489738487024e6 3.0450885636232674e7 0.0
0.0 0.0 0.0

-5.277680860256616e6 2.959303243846594e7 0.0
2.959303243846594e7 3.8263300848470284e6 0.0
0.0 0.0 0.0

-6.716954439393793e6 2.040986548396649e7 0.0
2.040986548396649e7 4.353385097241095e6 0.0
0.0 0.0 0.0

-3.2376172556717503e6 2.197011467398868e7 0.0
2.197011467398868e7 1.1505837362421358e6 0.0
0.0 0.0 0.0

587855.1625553695 2.4601457516910538e7 0.0
2.4601457516910538e7 -3.1966134437191905e6 0.0
0.0 0.0 0.0

-2.7534347055285126e6 2.425293467774664e7 0.0
2.425293467774664e7 994007.2092944907 0.0
0.0 0.0 0.0

70713.58272542953 1.6620377171160933e7 0.0
1.6620377171160933e7 -13758.82710442298 0.0
0.0 0.0 0.0

-1.9417216927371565e6 1.8253997795267608e7 0.0
1.8253997795267608e7 1.5059047106534448e7 0.0
0.0 0.0 0.0

1.451825895538803e6 1.7568384560620885e7 0.0
1.7568384560620885e7 -420261.56525408855 0.0
0.0 0.0 0.0

-5.723099055593467e6 1.5680192591917377e7 0.0
1.5680192591917377e7 -3.2698628959587224e7 0.0
0.0 0.0 0.0

-36308.26316282991 1.6693812634491665e7 0.0
1.6693812634491665e7 1.6608429665074742e6 0.0
0.0 0.0 0.0

-3.515149008236695e6 1.9404399829398863e7 0.0
1.9404399829398863e7 861849.0694991273 0.0
0.0 0.0 0.0

537096.0607134714 1.4445823661961798e7 0.0
1.4445823661961798e7 1.2809347604186047e7 0.0
0.0 0.0 0.0

-50942.20496011339 1.8323427992784217e7 0.0
1.8323427992784217e7 -1.0429756368110396e7 0.0
0.0 0.0 0.0

1.098288739399788e6 1.3763411984679114e7 0.0
1.3763411984679114e7 -1.7729371716518108e7 0.0
0.0 0.0 0.0

4.411679583811644e6 4.6393747728525e6 0.0
4.6393747728525e6 -2.0203729031328745e7 0.0
0.0 0.0 0.0

1.773206186839112e6 1.838874170362967e7 0.0
1.838874170362967e7 1.2708601626233282e7 0.0
0.0 0.0 0.0

-2.4416364857587153e6 1.8520564949733865e7 0.0
1.8520564949733865e7 1.068013726134335e7 0.0
0.0 0.0 0.0

-1.0595638466476671e7 1.5234524202441523e7 0.0
1.5234524202441523e7 2.1018145876434542e7 0.0
0.0 0.0 0.0

-3.883050683967944e6 1.9071445196924508e7 0.0
1.9071445196924508e7 7.587639711788716e6 0.0
0.0 0.0 0.0

-2.618711598782665e6 1.857267236572408e7 0.0
1.857267236572408e7 -7.15434881733872e6 0.0
0.0 0.0 0.0

-1.0903592961330079e7 1.5307065350840451e7 0.0
1.5307065350840451e7 1.967176096631286e7 0.0
0.0 0.0 0.0

-1.10228572371702e7 1.499793659342251e7 0.0
1.499793659342251e7 2.2225587859370865e7 0.0
0.0 0.0 0.0

-1.171274537304978e7 1.327766203254828e7 0.0
1.327766203254828e7 1.8383190925062392e7 0.0
0.0 0.0 0.0

-8.767381878650527e6 -4.94900115326667e6 0.0
-4.94900115326667e6 1.930566619117421e7 0.0
0.0 0.0 0.0

-3.7212572413626835e6 2.085838842915763e7 0.0
2.085838842915763e7 8.229818529459022e6 0.0
0.0 0.0 0.0

-1.894067557916196e6 1.4467782525392102e7 0.0
1.4467782525392102e7 -2.8755367214508712e7 0.0
0.0 0.0 0.0

366023.0255884798 1.3973148484914023e7 0.0
1.3973148484914023e7 -2.1323540459165387e7 0.0
0.0 0.0 0.0

-2.2673734777148645e7 2.680381490645467e7 0.0
2.680381490645467e7 -4.40663631654886e6 0.0
0.0 0.0 0.0

-9.661095484513965e6 3.2909579253120665e6 0.0
3.2909579253120665e6 3.851988491187701e7 0.0
0.0 0.0 0.0

814933.1553598791 1.442517117189185e7 0.0
1.442517117189185e7 -2.0074352948395424e7 0.0
0.0 0.0 0.0

-1.9872240290356812e6 2.4735625329493403e7 0.0
2.4735625329493403e7 -623947.5081781185 0.0
0.0 0.0 0.0

1.3889799097370557e6 1.67889744756557e7 0.0
1.67889744756557e7 1.2163413704012033e7 0.0
0.0 0.0 0.0

-6.213025447453202e6 -7.052630759056544e6 0.0
-7.052630759056544e6 1.5094441882926378e7 0.0
0.0 0.0 0.0

-313402.25690020295 1.639487083249009e7 0.0
1.639487083249009e7 -1.787849696375855e6 0.0
0.0 0.0 0.0

-1.4095399000483814e6 1.7880038904706545e7 0.0
1.7880038904706545e7 -7.8876742200789405e6 0.0
0.0 0.0 0.0

-1.1546901330160104e7 5.141838416270344e6 0.0
5.141838416270344e6 1.3937446746283265e7 0.0
0.0 0.0 0.0

4.295290663189545e6 2.0370327476524187e6 0.0
2.0370327476524187e6 -3.582564470700214e7 0.0
0.0 0.0 0.0

384108.5748438877 9.546016259123554e6 0.0
9.546016259123554e6 -8.261205982245856e6 0.0
0.0 0.0 0.0

-1.168855110008553e7 417657.59496234293 0.0
417657.59496234293 2.4223377472180475e7 0.0
0.0 0.0 0.0

16103.082461114507 1.867968593307344e7 0.0
1.867968593307344e7 -1.0225889438975077e7 0.0
0.0 0.0 0.0

3.6821294055062486e6 1.6901046677433006e7 0.0
1.6901046677433006e7 2.135578036793004e7 0.0
0.0 0.0 0.0

297041.9310999494 9.105444515763978e6 0.0
9.105444515763978e6 -4.924663406467749e6 0.0
0.0 0.0 0.0

4.820152063651732e6 1.9616634472426746e7 0.0
1.9616634472426746e7 1.2051106942098176e7 0.0
0.0 0.0 0.0

-3.309922923904857e6 2.9701326945427492e7 0.0
2.9701326945427492e7 2.920514889175768e6 0.0
0.0 0.0 0.0

-1.1681556668781253e7 1.248709139757233e6 0.0
1.248709139757233e6 1.760897495571617e7 0.0
0.0 0.0 0.0

-1.3771638154869387e6 1.7763279113203935e7 0.0
1.7763279113203935e7 1.5727017164508032e7 0.0
0.0 0.0 0.0

2.2982983192390697e6 1.0036970039917909e7 0.0
1.0036970039917909e7 -2.0445823491389114e7 0.0
0.0 0.0 0.0

-1.7637038640298527e7 2.3649777814897813e7 0.0
2.3649777814897813e7 3.201442950053864e6 0.0
0.0 0.0 0.0

-6.375406616670782e6 -2.0095636037209167e6 0.0
-2.0095636037209167e6 7.826676538879083e6 0.0
0.0 0.0 0.0

-7.964958398848728e6 2.0239002350024708e7 0.0
2.0239002350024708e7 -5.788860662591222e6 0.0
0.0 0.0 0.0

2.4205849334423248e7 1.9437462158858012e7 0.0
1.9437462158858012e7 5.390033223916164e6 0.0
0.0 0.0 0.0

-1.7152877449424034e6 1.976791787514941e7 0.0
1.976791787514941e7 -6.034293840403303e6 0.0
0.0 0.0 0.0

2.7520426742481887e6 1.023419454403812e7 0.0
1.023419454403812e7 -1.900113116607198e7 0.0
0.0 0.0 0.0

-4.527176363228083e6 2.1065625896529313e7 0.0
2.1065625896529313e7 9.603740981879614e6 0.0
0.0 0.0 0.0

-8.971541288979106e6 -343185.902088466 0.0
-343185.902088466 4.337595576952823e7 0.0
0.0 0.0 0.0

-3.409341615173905e6 1.842046926020664e7 0.0
1.842046926020664e7 -1.066711589096831e7 0.0
0.0 0.0 0.0

-2.142042943138351e6 2.692036182731676e7 0.0
2.692036182731676e7 2.0099405527696572e6 0.0
0.0 0.0 0.0

-507317.7522301022 1.3215076610527549e7 0.0
1.3215076610527549e7 -2.819442383006063e7 0.0
0.0 0.0 0.0

283030.6083389083 1.6370964532257175e7 0.0
1.6370964532257175e7 -1.563155278763707e7 0.0
0.0 0.0 0.0

408650.99972419906 1.5854495582247572e7 0.0
1.5854495582247572e7 -1.67724585929393e7 0.0
0.0 0.0 0.0

-1.110114800607174e7 1.2028290893524477e7 0.0
1.2028290893524477e7 2.726324416273497e7 0.0
0.0 0.0 0.0

-4.0483803979867483e6 1.9950122523289606e7 0.0
1.9950122523289606e7 7.154153639296418e6 0.0
0.0 0.0 0.0

-6.988444417237923e6 1.0741401450373488e7 0.0
1.0741401450373488e7 8.082111534578773e7 0.0
0.0 0.0 0.0

3.787661781541843e6 1.097513421080456e7 0.0
1.097513421080456e7 -7.337662682950975e7 0.0
0.0 0.0 0.0

-1.241025601972316e7 2.3957804007640142e7 0.0
2.3957804007640142e7 -6.561898256682427e6 0.0
0.0 0.0 0.0

-3.135973078010548e6 1.787868351269264e7 0.0
1.787868351269264e7 1.1414464792918127e7 0.0
0.0 0.0 0.0

-1.9233806050783124e7 2.4283996828843836e7 0.0
2.4283996828843836e7 -991318.0471046781 0.0
0.0 0.0 0.0

-6.188694047991276e6 -2.941903516509367e6 0.0
-2.941903516509367e6 1.2399859824093213e7 0.0
0.0 0.0 0.0

-9.561384576659683e6 1.58651914447087e7 0.0
1.58651914447087e7 1.7612976836130742e7 0.0
0.0 0.0 0.0

-9.143251896371998e6 2.128201444853532e7 0.0
2.128201444853532e7 -4.538641183867718e6 0.0
0.0 0.0 0.0

-1.0808683611367635e7 1.590315629573257e6 0.0
1.590315629573257e6 2.6405665572155032e7 0.0
0.0 0.0 0.0

2.2908194150457516e7 1.7625623703066036e7 0.0
1.7625623703066036e7 4.944408841060766e6 0.0
0.0 0.0 0.0

-1.3965204655608842e6 1.774417907936868e7 0.0
1.774417907936868e7 1.862171846612994e7 0.0
0.0 0.0 0.0

-5.592686000025648e6 1.7125137355930094e7 0.0
1.7125137355930094e7 1.3450903130072586e7 0.0
0.0 0.0 0.0

-2.2104160214127194e7 3.2078945289193228e7 0.0
3.2078945289193228e7 9.98442937956097e6 0.0
0.0 0.0 0.0

2.55487267340059e6 1.831115781762569e7 0.0
1.831115781762569e7 3.7678548790874504e6 0.0
0.0 0.0 0.0

2.191381010079483e6 1.703543550254196e7 0.0
1.703543550254196e7 -1.9098809824968767e6 0.0
0.0 0.0 0.0

-4.534841285710513e6 2.2230340297615092e7 0.0
2.2230340297615092e7 8.318195832295183e6 0.0
0.0 0.0 0.0

-5.794853414145583e6 1.9622161574105177e7 0.0
1.9622161574105177e7 -365383.4613812838 0.0
0.0 0.0 0.0

-703472.2277721937 1.5772378463516286e7 0.0
1.5772378463516286e7 -2.1444814605464144e6 0.0
0.0 0.0 0.0

2.1341408027874855e6 1.7737395732158687e7 0.0
1.7737395732158687e7 -3.6244133619627845e6 0.0
0.0 0.0 0.0

1.5864105878578646e6 1.8480515805650733e7 0.0
1.8480515805650733e7 1.1293141482330728e7 0.0
0.0 0.0 0.0

1.8204366533015016e6 2.745210087940138e7 0.0
2.745210087940138e7 -1.8405046613532174e6 0.0
0.0 0.0 0.0

-4.209515022487327e6 2.063612779385018e7 0.0
2.063612779385018e7 9.059610274299722e6 0.0
0.0 0.0 0.0

-4.650864048803943e6 2.9334608687299263e7 0.0
2.9334608687299263e7 2.3364146626832057e6 0.0
0.0 0.0 0.0

-4.616341092258634e6 1.5143621115786588e7 0.0
1.5143621115786588e7 -3.606047316373907e7 0.0
0.0 0.0 0.0

-1.2130587982539183e7 1.7865201762168776e7 0.0
1.7865201762168776e7 -6.780162488963063e7 0.0
0.0 0.0 0.0

1.1109512732503239e7 1.8358820359695073e7 0.0
1.8358820359695073e7 7.214951954817167e7 0.0
0.0 0.0 0.0

3.9202548645147095e6 1.719246513654147e7 0.0
1.719246513654147e7 2.0691244985682577e7 0.0
0.0 0.0 0.0

1.9619388538251705e6 9.27941305218913e6 0.0
9.27941305218913e6 -3.2004940262286123e7 0.0
0.0 0.0 0.0

296653.4417426387 2.7169537940930814e7 0.0
2.7169537940930814e7 -2.217242876614548e6 0.0
0.0 0.0 0.0

-248219.06875703856 1.9745297911051396e7 0.0
1.9745297911051396e7 -8.183845908901162e6 0.0
0.0 0.0 0.0

-701016.8935565215 1.7249204947576467e7 0.0
1.7249204947576467e7 -5.613629401054808e6 0.0
0.0 0.0 0.0

157757.20816273196 1.9008668341564562e7 0.0
1.9008668341564562e7 -9.709501581224715e6 0.0
0.0 0.0 0.0

-2.909089127535924e7 3.359162541962329e7 0.0
3.359162541962329e7 1.0507018880564319e7 0.0
0.0 0.0 0.0

-2.9678974137095828e6 2.664547681249829e7 0.0
2.664547681249829e7 1.5848746148759075e6 0.0
0.0 0.0 0.0

-5.908187535660628e6 2.2790318644189656e7 0.0
2.2790318644189656e7 7.338341668032931e6 0.0
0.0 0.0 0.0

3.8571841920855604e6 3.4295165027349847e6 0.0
3.4295165027349847e6 -3.824381836288693e7 0.0
0.0 0.0 0.0

5.827960164219826e6 2.1378039654655643e7 0.0
2.1378039654655643e7 -5.170520710546706e6 0.0
0.0 0.0 0.0

-509960.3309989339 1.3683173929505492e7 0.0
1.3683173929505492e7 -2.657156275480903e7 0.0
0.0 0.0 0.0

4.792500090998789e6 2.182587179815599e7 0.0
2.182587179815599e7 -5.276936146956563e6 0.0
0.0 0.0 0.0

-395535.7894611568 1.515860289299877e7 0.0
1.515860289299877e7 -1.3078614578401088e6 0.0
0.0 0.0 0.0

-748381.6625578897 1.8313032974543937e7 0.0
1.8313032974543937e7 1.6421712806181194e7 0.0
0.0 0.0 0.0

-4.661726303590462e6 2.4275941562507197e7 0.0
2.4275941562507197e7 5.371426800446136e6 0.0
0.0 0.0 0.0

-1.0035964741693739e7 -3.8070060166315394e6 0.0
-3.8070060166315394e6 2.451828220836196e7 0.0
0.0 0.0 0.0

1.1354833331602987e7 1.7717973308075186e7 0.0
1.7717973308075186e7 452760.66732139466 0.0
0.0 0.0 0.0

-5.988636899696559e7 2.2136502266143262e7 0.0
2.2136502266143262e7 5.281633791912973e6 0.0
0.0 0.0 0.0

-1.1732484134677531e7 1.2184240554883458e7 0.0
1.2184240554883458e7 2.5029365787339624e7 0.0
0.0 0.0 0.0

-5.643615228212949e6 2.0288146817842454e7 0.0
2.0288146817842454e7 4.64166068320057e6 0.0
0.0 0.0 0.0

2.6146278920122553e6 1.801449965884334e7 0.0
1.801449965884334e7 -1.2539065609003885e6 0.0
0.0 0.0 0.0

4.663848097006438e6 3.5594504686038587e6 0.0
3.5594504686038587e6 -2.552631841179937e7 0.0
0.0 0.0 0.0

-3.273975900185925e6 1.8327036046368487e7 0.0
1.8327036046368487e7 9.05873460481171e6 0.0
0.0 0.0 0.0

-9.287266064497013e6 -1.3457174965231512e6 0.0
-1.3457174965231512e6 3.831464217025672e7 0.0
0.0 0.0 0.0

-1.2756030690956376e7 2.08517617016459e7 0.0
2.08517617016459e7 -7.288950073418862e7 0.0
0.0 0.0 0.0

1.1447593842569485e7 2.29181504049198e7 0.0
2.29181504049198e7 7.754067850468187e7 0.0
0.0 0.0 0.0

1.3443693424509382e6 1.2103149183387151e7 0.0
1.2103149183387151e7 -2.457942048608762e7 0.0
0.0 0.0 0.0

1.1956655263668504e6 4.546786314877297e6 0.0
4.546786314877297e6 -5.468708967894581e6 0.0
0.0 0.0 0.0

7.953481062447836e6 1.6855251707261417e7 0.0
1.6855251707261417e7 5.731887573566173e6 0.0
0.0 0.0 0.0

-9.187482469193771e6 339328.589243263 0.0
339328.589243263 4.356960340978908e7 0.0
0.0 0.0 0.0

1.1310443921881733e6 7.677551540295143e6 0.0
7.677551540295143e6 -6.973712406933825e6 0.0
0.0 0.0 0.0

2.557379804015167e6 2.6247860555134706e7 0.0
2.6247860555134706e7 -3.451814443317949e6 0.0
0.0 0.0 0.0

-133334.67920272844 1.6732250689701974e7 0.0
1.6732250689701974e7 -1.2550199350480286e7 0.0
0.0 0.0 0.0

2.5415008980167755e6 1.707858200877634e7 0.0
1.707858200877634e7 1.5107803280063596e7 0.0
0.0 0.0 0.0

-4.629151274652832e6 2.014094620195021e7 0.0
2.014094620195021e7 362469.2196372468 0.0
0.0 0.0 0.0

-2.285038564958691e7 2.2705409697928894e7 0.0
2.2705409697928894e7 -3.551436116838731e6 0.0
0.0 0.0 0.0

-3.2550511206261106e6 2.6347783388969295e7 0.0
2.6347783388969295e7 2.143862690083141e6 0.0
0.0 0.0 0.0

106826.45941337384 1.7122600359645933e7 0.0
1.7122600359645933e7 8.988434047508547e6 0.0
0.0 0.0 0.0

-2.6318468509577634e6 1.836395387555e7 0.0
1.836395387555e7 1.3255489377304468e7 0.0
0.0 0.0 0.0

1.1798398226903193e6 1.4434067367133774e7 0.0
1.4434067367133774e7 -1.7150673759736296e7 0.0
0.0 0.0 0.0

190597.67350911163 1.84872268464893e7 0.0
1.84872268464893e7 -1.0181551467326716e7 0.0
0.0 0.0 0.0

-9.749843574897498e6 1.7178663019027137e6 0.0
1.7178663019027137e6 4.18046453480886e7 0.0
0.0 0.0 0.0

-2.3841633213376272e7 3.4165144704712816e7 0.0
3.4165144704712816e7 7.202979752008986e6 0.0
0.0 0.0 0.0

-1.033860856621699e7 2.8122037581391074e7 0.0
2.8122037581391074e7 6.110512686973086e6 0.0
0.0 0.0 0.0

-2.3077563552448448e7 2.386782764963252e7 0.0
2.386782764963252e7 3.066651753817655e6 0.0
0.0 0.0 0.0

-75194.98470093566 1.717216466650118e7 0.0
1.717216466650118e7 3.1117609793551615e6 0.0
0.0 0.0 0.0

-6.784733367603517e6 2.072987903495258e7 0.0
2.072987903495258e7 -903596.1948739416 0.0
0.0 0.0 0.0

-1.2715565475043772e7 2.3264509299656402e7 0.0
2.3264509299656402e7 -2.3622915250163055e6 0.0
0.0 0.0 0.0

1.8295774825062305e6 6.996907392122743e6 0.0
6.996907392122743e6 -6.765191201393012e6 0.0
0.0 0.0 0.0

1.6507691616853536e6 1.7457220438077617e7 0.0
1.7457220438077617e7 1.5885359698086513e7 0.0
0.0 0.0 0.0

2.854801192686593e6 8.548782926498353e6 0.0
8.548782926498353e6 -3.127682868541869e7 0.0
0.0 0.0 0.0

-1.0727349534386367e7 1.3244160766347213e7 0.0
1.3244160766347213e7 2.628159404294606e7 0.0
0.0 0.0 0.0

-8.624466076234644e6 -42666.65504387941 0.0
-42666.65504387941 4.459966911474225e7 0.0
0.0 0.0 0.0

4.0477302601132374e6 3.5850171670750463e6 0.0
3.5850171670750463e6 -3.775217614045169e7 0.0
0.0 0.0 0.0

-2.6814019277485956e7 2.414793737236496e7 0.0
2.414793737236496e7 1.9334095610939004e6 0.0
0.0 0.0 0.0

-9.480931535614558e6 -2.236843144493871e6 0.0
-2.236843144493871e6 3.490447518486121e7 0.0
0.0 0.0 0.0

-9.715067431599095e6 -3.052777553376702e6 0.0
-3.052777553376702e6 3.0202387832816206e7 0.0
0.0 0.0 0.0

1.2566293753058575e6 6.744743318951297e6 0.0
6.744743318951297e6 -8.447490301753474e6 0.0
0.0 0.0 0.0

-1.0058040269845804e7 -1.8494041101351264e6 0.0
-1.8494041101351264e6 2.8970109539862756e7 0.0
0.0 0.0 0.0

3.441504847607436e6 3.476895168037092e7 0.0
3.476895168037092e7 -5.242099561338628e6 0.0
0.0 0.0 0.0

-5.074871019189831e6 1.7961204330807712e7 0.0
1.7961204330807712e7 1.2888613904689714e7 0.0
0.0 0.0 0.0

2.977485783938514e6 4.457471570236364e6 0.0
4.457471570236364e6 -4.62718020264643e7 0.0
0.0 0.0 0.0

3.892993736839762e6 4.207778086448166e6 0.0
4.207778086448166e6 -3.0000522180225704e7 0.0
0.0 0.0 0.0

-4.172741877156594e6 1.9756643444601867e7 0.0
1.9756643444601867e7 6.349515661464801e6 0.0
0.0 0.0 0.0

-4.325349914817031e6 2.9144702975158498e7 0.0
2.9144702975158498e7 3.6299193427170524e6 0.0
0.0 0.0 0.0

2.9957081075815815e6 1.0141659877493862e7 0.0
1.0141659877493862e7 2.222256916257151e6 0.0
0.0 0.0 0.0

7.316688094855679e6 1.945223654332859e7 0.0
1.945223654332859e7 1.0993529923113255e7 0.0
0.0 0.0 0.0

5.88764437509138e6 2.050762312254622e7 0.0
2.050762312254622e7 -4.385896026705669e6 0.0
0.0 0.0 0.0

-9.725142319540191e6 -2.0059979004550125e6 0.0
-2.0059979004550125e6 3.417876322953789e7 0.0
0.0 0.0 0.0

-1.444525832195401e7 2.0788846827262774e7 0.0
2.0788846827262774e7 3.5103110509428084e6 0.0
0.0 0.0 0.0

-3.1771448198093567e6 2.5852466213048752e7 0.0
2.5852466213048752e7 2.0158742141868854e6 0.0
0.0 0.0 0.0

-144638.56909281947 1.6824588398981467e7 0.0
1.6824588398981467e7 3.795419469068847e7 0.0
0.0 0.0 0.0

7.239425196132233e6 2.083690988185753e7 0.0
2.083690988185753e7 -4.322390995212106e6 0.0
0.0 0.0 0.0

-2.487709685224431e6 1.87469955533935e7 0.0
1.87469955533935e7 -6.982931193400384e6 0.0
0.0 0.0 0.0

-4.647630960306672e6 1.8896891697746705e7 0.0
1.8896891697746705e7 1.383938052861793e7 0.0
0.0 0.0 0.0

-2.124043513669684e6 1.8051837880316142e7 0.0
1.8051837880316142e7 -7.251026649495088e6 0.0
0.0 0.0 0.0

-5.689889775572805e7 3.095035276156189e7 0.0
3.095035276156189e7 -1.2562795294888914e6 0.0
0.0 0.0 0.0

-6.17080253005968e6 1.7677758589308888e7 0.0
1.7677758589308888e7 1.2458252374979213e7 0.0
0.0 0.0 0.0

-2.3427744985313835e6 1.9004346009619102e7 0.0
1.9004346009619102e7 -6.023934258157071e6 0.0
0.0 0.0 0.0

-4.675318446483879e6 1.945930711267288e7 0.0
1.945930711267288e7 1.3209247053062346e7 0.0
0.0 0.0 0.0

4.389745572378741e6 2.0201926656026956e7 0.0
2.0201926656026956e7 -4.83724021007373e6 0.0
0.0 0.0 0.0

4.333779671539407e6 3.569090886275143e6 0.0
3.569090886275143e6 -2.481411712141566e7 0.0
0.0 0.0 0.0

1.1157911433305233e6 1.9695507049349416e7 0.0
1.9695507049349416e7 -7.327402157469562e6 0.0
0.0 0.0 0.0

-2.300646469839889e7 3.4212975414683126e7 0.0
3.4212975414683126e7 7.139826502495231e6 0.0
0.0 0.0 0.0

-5.478416574391292e6 2.5300845068540253e7 0.0
2.5300845068540253e7 5.89798472416023e6 0.0
0.0 0.0 0.0

-9.283758357022442e6 -4.685885945233573e6 0.0
-4.685885945233573e6 1.8952752740042195e7 0.0
0.0 0.0 0.0

29914.368601898663 1.6866582447199643e7 0.0
1.6866582447199643e7 -1.3806317195519079e7 0.0
0.0 0.0 0.0

9.212757025736667e6 1.8399104417486615e7 0.0
1.8399104417486615e7 1.519515859512157e6 0.0
0.0 0.0 0.0

-5.303042648351571e7 2.6058970194171537e7 0.0
2.6058970194171537e7 5.369462296436485e6 0.0
0.0 0.0 0.0

2.0485630290912953e6 1.5918024905388296e7 0.0
1.5918024905388296e7 1.0759565133073373e7 0.0
0.0 0.0 0.0

2.344164767802283e6 8.4186708711271e6 0.0
8.4186708711271e6 -3.300819897595057e7 0.0
0.0 0.0 0.0

877705.7554953452 1.4247710301409654e7 0.0
1.4247710301409654e7 -1.7061427806386106e7 0.0
0.0 0.0 0.0

-2.985584410185741e6 1.8594092072066166e7 0.0
1.8594092072066166e7 1.0656379976245902e7 0.0
0.0 0.0 0.0

-6.199757464404095e6 2.9366629780117434e7 0.0
2.9366629780117434e7 3.4522808516002228e6 0.0
0.0 0.0 0.0

-890916.149710105 2.2381124914613243e7 0.0
2.2381124914613243e7 -3.9767159567420008e6 0.0
0.0 0.0 0.0

4.338027761368375e6 3.3255187554862862e6 0.0
3.3255187554862862e6 -2.9374870545158662e7 0.0
0.0 0.0 0.0

2.633347222981316e6 1.7054403296619643e7 0.0
1.7054403296619643e7 3.159010504066827e7 0.0
0.0 0.0 0.0

-464453.9445123195 1.4881840102342622e7 0.0
1.4881840102342622e7 -1.4996165829489538e6 0.0
0.0 0.0 0.0

-4.129344662272488e7 3.0082740300118666e7 0.0
3.0082740300118666e7 1.1458739311696164e7 0.0
0.0 0.0 0.0

-1.0795638666982016e7 -1.5474436257824567e6 0.0
-1.5474436257824567e6 2.5360643181986693e7 0.0
0.0 0.0 0.0

-1.0108753675110226e7 -1.7038743837857964e6 0.0
-1.7038743837857964e6 2.75828058633509e7 0.0
0.0 0.0 0.0

8.667959286469733e6 1.8385654385460585e7 0.0
1.8385654385460585e7 4.0756530906753084e6 0.0
0.0 0.0 0.0

-9.458237311840244e6 -2.3237284051114563e6 0.0
-2.3237284051114563e6 3.405607595845392e7 0.0
0.0 0.0 0.0

1.7771749016185368e6 1.6229493419627888e7 0.0
1.6229493419627888e7 1.0532174856786966e7 0.0
0.0 0.0 0.0

4.839646997458217e6 1.7295400456227977e7 0.0
1.7295400456227977e7 2.1867866431017675e7 0.0
0.0 0.0 0.0

-613767.5400116376 2.71587264443869e7 0.0
2.71587264443869e7 -750297.5143948329 0.0
0.0 0.0 0.0

-9.32563229238629e6 4.7373221192563325e6 0.0
4.7373221192563325e6 4.579855102034651e7 0.0
0.0 0.0 0.0

-986029.4309570566 1.3748233876921961e7 0.0
1.3748233876921961e7 -2.7068996103932854e7 0.0
0.0 0.0 0.0

821592.8116224413 7.449787945644813e6 0.0
7.449787945644813e6 -7.481534801793132e6 0.0
0.0 0.0 0.0

-2.7169272320797103e6 1.8251237013515096e7 0.0
1.8251237013515096e7 8.97936213396599e6 0.0
0.0 0.0 0.0

1.8888613641791064e6 1.7629080082594443e7 0.0
1.7629080082594443e7 2.1781372440819494e7 0.0
0.0 0.0 0.0

-1.0388015815445857e7 -833464.1103220523 0.0
-833464.1103220523 3.3005081874624394e7 0.0
0.0 0.0 0.0

-8.685216530209145e6 6.830717985029774e6 0.0
6.830717985029774e6 7.516360977942042e6 0.0
0.0 0.0 0.0

-3.443716040619492e6 1.893725912579199e7 0.0
1.893725912579199e7 904917.7908735806 0.0
0.0 0.0 0.0

-1.3859180076478585e6 9.773480867729755e6 0.0
9.773480867729755e6 1.1775503078919875e7 0.0
0.0 0.0 0.0

2.4125947059296393e6 1.7240217037408974e7 0.0
1.7240217037408974e7 -2.677363612924736e6 0.0
0.0 0.0 0.0

-1.0604381091295926e7 -1.9533958761759084e6 0.0
-1.9533958761759084e6 2.715557256971567e7 0.0
0.0 0.0 0.0

-8.520021608203687e6 4.713538047423595e6 0.0
4.713538047423595e6 4.892159521396807e7 0.0
0.0 0.0 0.0

1.9741116751215297e6 1.7768039057307623e7 0.0
1.7768039057307623e7 -1.755493225149202e6 0.0
0.0 0.0 0.0

319442.4970144178 1.7213253164363034e7 0.0
1.7213253164363034e7 -1.197489064020208e7 0.0
0.0 0.0 0.0

-8.521557448742375e6 4.560799419650009e6 0.0
4.560799419650009e6 4.846762773472833e7 0.0
0.0 0.0 0.0

4.4396584303755835e6 2.0208483635664094e7 0.0
2.0208483635664094e7 -4.825309620300171e6 0.0
0.0 0.0 0.0

1.4022531606684062e6 1.6731999493933061e7 0.0
1.6731999493933061e7 1.5788056902970923e7 0.0
0.0 0.0 0.0

-7.283896903133078e6 1.0235758219856823e7 0.0
1.0235758219856823e7 9.588142912525345e6 0.0
0.0 0.0 0.0

-6.620015159415803e6 9.271958065749729e6 0.0
9.271958065749729e6 9.172309484043133e6 0.0
0.0 0.0 0.0

-1.1879190727273352e7 6.305069889919258e6 0.0
6.305069889919258e6 5.340393877257007e6 0.0
0.0 0.0 0.0

