# vtk DataFile Version 2.0
phase field modeling fracture
ASCII
DATASET UNSTRUCTURED_GRID
POINTS 2538 float
0.0 0.0 0.0
10.0 0.0 0.0
0.0 10.0 0.0
10.0 10.0 0.0
0.0 4.9995 0.0
0.0 5.0005 0.0
5.0 5.0 0.0
0.9416964895726688 0.0 0.0
1.803581725054446 0.0 0.0
2.592419885431098 0.0 0.0
3.314401822861676 0.0 0.0
3.975193910351406 0.0 0.0
4.579982132660152 0.0 0.0
5.133512780936812 0.0 0.0
5.640130319506143 0.0 0.0
6.103810708661955 0.0 0.0
6.528192895506818 0.0 0.0
6.916607540127679 0.0 0.0
7.272102969376355 0.0 0.0
7.597469242948583 0.0 0.0
7.895259826292669 0.0 0.0
8.167811885738017 0.0 0.0
8.417264413845215 0.0 0.0
8.645575169389538 0.0 0.0
8.854535961159101 0.0 0.0
9.045786767735546 0.0 0.0
9.220828555767493 0.0 0.0
9.38103509633881 0.0 0.0
9.527663687265145 0.0 0.0
9.661865124984566 0.0 0.0
9.784692609918062 0.0 0.0
9.897110148790482 0.0 0.0
10.0 0.09999999999992584 0.0
10.0 0.199999999999856 0.0
10.0 0.2999999999997771 0.0
10.0 0.3999999999996677 0.0
10.0 0.4999999999995511 0.0
10.0 0.5999999999994683 0.0
10.0 0.6999999999993983 0.0
10.0 0.7999999999993286 0.0
10.0 0.8999999999992587 0.0
10.0 0.9999999999991888 0.0
10.0 1.099999999999119 0.0
10.0 1.199999999999033 0.0
10.0 1.299999999998852 0.0
10.0 1.399999999998576 0.0
10.0 1.499999999998284 0.0
10.0 1.599999999997992 0.0
10.0 1.6999999999977 0.0
10.0 1.799999999997408 0.0
10.0 1.899999999997116 0.0
10.0 1.999999999996825 0.0
10.0 2.099999999996533 0.0
10.0 2.199999999996241 0.0
10.0 2.299999999995949 0.0
10.0 2.399999999995657 0.0
10.0 2.499999999995365 0.0
10.0 2.599999999995073 0.0
10.0 2.699999999994782 0.0
10.0 2.79999999999449 0.0
10.0 2.899999999994198 0.0
10.0 2.999999999993906 0.0
10.0 3.099999999993614 0.0
10.0 3.199999999993322 0.0
10.0 3.299999999993029 0.0
10.0 3.399999999992738 0.0
10.0 3.499999999992446 0.0
10.0 3.599999999992154 0.0
10.0 3.699999999991863 0.0
10.0 3.799999999991571 0.0
10.0 3.899999999991278 0.0
10.0 3.999999999991022 0.0
10.0 4.099999999991035 0.0
10.0 4.199999999991187 0.0
10.0 4.299999999991338 0.0
10.0 4.399999999991491 0.0
10.0 4.499999999991642 0.0
10.0 4.599999999991795 0.0
10.0 4.699999999991947 0.0
10.0 4.799999999992099 0.0
10.0 4.89999999999225 0.0
10.0 4.999999999992403 0.0
10.0 5.099999999992555 0.0
10.0 5.199999999992706 0.0
10.0 5.299999999992858 0.0
10.0 5.39999999999301 0.0
10.0 5.499999999993161 0.0
10.0 5.599999999993313 0.0
10.0 5.699999999993466 0.0
10.0 5.799999999993618 0.0
10.0 5.899999999993771 0.0
10.0 5.999999999993922 0.0
10.0 6.099999999994074 0.0
10.0 6.199999999994227 0.0
10.0 6.299999999994378 0.0
10.0 6.39999999999453 0.0
10.0 6.499999999994682 0.0
10.0 6.599999999994833 0.0
10.0 6.699999999994986 0.0
10.0 6.799999999995138 0.0
10.0 6.899999999995289 0.0
10.0 6.999999999995442 0.0
10.0 7.099999999995594 0.0
10.0 7.199999999995747 0.0
10.0 7.299999999995897 0.0
10.0 7.39999999999605 0.0
10.0 7.499999999996202 0.0
10.0 7.599999999996353 0.0
10.0 7.699999999996505 0.0
10.0 7.799999999996658 0.0
10.0 7.899999999996808 0.0
10.0 7.999999999996962 0.0
10.0 8.099999999997113 0.0
10.0 8.199999999997265 0.0
10.0 8.299999999997418 0.0
10.0 8.399999999997569 0.0
10.0 8.499999999997721 0.0
10.0 8.599999999997873 0.0
10.0 8.699999999998024 0.0
10.0 8.799999999998176 0.0
10.0 8.899999999998329 0.0
10.0 8.99999999999848 0.0
10.0 9.099999999998634 0.0
10.0 9.199999999998786 0.0
10.0 9.299999999998937 0.0
10.0 9.399999999999089 0.0
10.0 9.499999999999241 0.0
10.0 9.599999999999392 0.0
10.0 9.699999999999545 0.0
10.0 9.799999999999697 0.0
10.0 9.899999999999848 0.0
9.897110148790565 10.0 0.0
9.784692609918244 10.0 0.0
9.66186512498486 10.0 0.0
9.527663687265571 10.0 0.0
9.381035096339392 10.0 0.0
9.220828555768257 10.0 0.0
9.045786767736512 10.0 0.0
8.854535961160305 10.0 0.0
8.645575169391027 10.0 0.0
8.417264413847017 10.0 0.0
8.167811885740178 10.0 0.0
7.895259826295246 10.0 0.0
7.597469242951631 10.0 0.0
7.272102969379938 10.0 0.0
6.916607540131873 10.0 0.0
6.528192895511704 10.0 0.0
6.103810708667616 10.0 0.0
5.640130319512691 10.0 0.0
5.13351278094435 10.0 0.0
4.579982132668816 10.0 0.0
3.975193910361222 10.0 0.0
3.314401822869852 10.0 0.0
2.592419885437257 10.0 0.0
1.803581725058137 10.0 0.0
0.9416964895740705 10.0 0.0
0.0 9.00010000000243 0.0
0.0 8.000200000005481 0.0
0.0 7.000300000005135 0.0
0.0 6.000400000002569 0.0
0.901790731451151 5.000409820926855 0.0
1.657200899774397 5.000334279910023 0.0
2.289991063707192 5.000271000893629 0.0
2.820065163538221 5.000217993483646 0.0
3.264096435579811 5.000173590356442 0.0
3.636051481595835 5.00013639485184 0.0
3.947629914072366 5.000105237008593 0.0
4.208632181002628 5.0000791367819 0.0
4.427267949625672 5.000057273205037 0.0
4.610414277633563 5.000038958572237 0.0
4.763831845154243 5.000023616815485 0.0
4.892346298799659 5.00001076537012 0.0
4.892346298799748 4.99998923462988 0.0
4.763831845154455 4.999976383184515 0.0
4.610414277633943 4.999961041427763 0.0
4.427267949626277 4.999942726794963 0.0
4.208632181003523 4.9999208632181 0.0
3.94762991407365 4.999894762991407 0.0
3.636051481597624 4.99986360514816 0.0
3.264096435582253 4.999826409643559 0.0
2.820065163541503 4.999782006516354 0.0
2.289991063711534 4.999728999106371 0.0
1.657200899778495 4.999665720089978 0.0
0.9017907314530094 4.999590179073145 0.0
0.0 3.999600000002013 0.0
0.0 2.999700000005187 0.0
0.0 1.99980000000512 0.0
0.0 0.9999000000025537 0.0
9.897889398521345 2.93573355845387 0.0
9.906568249974548 7.060009441434234 0.0
9.913122631074113 3.64016132281653 0.0
9.922462129543863 6.354535290629151 0.0
9.917693659967533 4.354211663134567 0.0
9.909873057440208 5.637584487339942 0.0
9.914183254994697 4.950672966925282 0.0
9.913885043715895 7.666887930262611 0.0
9.91009668007573 2.351889069770817 0.0
9.905135696074536 8.138152454502785 0.0
9.913397459621809 1.849999999997262 0.0
7.099302372137626 0.297750452375005 0.0
7.095143729410097 9.700359990366296 0.0
4.942912558701401 5.095838627899509 0.0
4.315009232304429 5.165022115481685 0.0
4.946182472483878 4.906763777264103 0.0
4.317967462990024 4.825955043772673 0.0
9.916390871492647 8.64999999999792 0.0
9.921504649680616 1.368376469890358 0.0
8.292538149791614 0.206877570318844 0.0
8.292538149793597 9.793122429681448 0.0
5.884594439766573 9.587645267048616 0.0
5.794826292691579 0.3794853783929359 0.0
9.913397459621425 9.049999999998557 0.0
9.908526577714177 0.9568239351922434 0.0
3.456851160380649 5.315740054130451 0.0
3.457889657868442 4.707121019609468 0.0
8.945214200703926 0.1503383337970344 0.0
8.950161364448409 9.8413906539257 0.0
9.913862335499305 4.055887885208452 0.0
9.916697353372683 4.650158482607802 0.0
9.919076340414442 6.049999999994006 0.0
9.906994308667635 5.25749687748192 0.0
9.917490342358025 6.655979201891897 0.0
9.915757520293784 7.343848891656911 0.0
9.910049507471042 3.363474386285078 0.0
9.914471988502868 2.647400064832979 0.0
9.91474124160965 9.337490423485129 0.0
9.916971008170838 0.6499999999994355 0.0
4.307157269264427 9.509674045029644 0.0
4.331527375865619 0.4401616696422582 0.0
9.45434939180249 9.878397030523757 0.0
9.457696120412969 0.1270877537061785 0.0
2.555070293622606 5.422044496190925 0.0
2.566232917480916 4.608001224030952 0.0
3.026511860837692 9.332320638257093 0.0
2.945561971800619 0.5895662714727601 0.0
7.7395404387124 0.2511088946967771 0.0
7.736379255744154 9.745848826372828 0.0
4.687135269408529 5.122111433928926 0.0
4.688420821504113 4.871895064967488 0.0
9.910554884115975 0.3448356354522978 0.0
9.911230082250466 9.65764729394159 0.0
9.921953841410854 6.851023993342036 0.0
9.912065178606017 5.448170483544033 0.0
9.911660025326261 3.861846960030188 0.0
9.914847467973438 3.14501593945607 0.0
9.913397459621425 5.849999999993703 0.0
9.913397459621425 7.849999999996735 0.0
9.906916878988277 2.15455769998631 0.0
9.913397459621425 8.349999999997479 0.0
9.909472363117661 1.640528221515488 0.0
9.913987325695956 1.152857110636247 0.0
9.913397459621425 8.849999999998241 0.0
0.9100099990995943 2.614215977520411 0.0
0.8395284981715456 7.451196254860987 0.0
9.723278867451556 9.898135916635193 0.0
9.723316350887044 0.09841820909386662 0.0
1.385819164827588 4.454539963646463 0.0
1.338343629665047 5.523111536005823 0.0
1.377179700550677 0.6809168304959698 0.0
1.418060461092743 9.285896715136046 0.0
9.91268220142518 0.1457914080939694 0.0
9.906737126737994 9.845745933882352 0.0
0.7108351382691361 6.537941170074089 0.0
1.527735020267026 6.915620208855231 0.0
1.630993885659103 7.838271825205868 0.0
2.232760943566823 7.370850737296832 0.0
2.243414218068206 6.688299277952821 0.0
2.779655053105118 7.021588754814074 0.0
2.80227799359795 7.632420170547022 0.0
3.282022065908813 7.305859666021318 0.0
3.327597298795347 7.857554136825748 0.0
3.743210251018715 7.549183328204379 0.0
3.716353232200752 7.062036086888612 0.0
4.111978858674101 7.27497101169417 0.0
4.104192177581432 6.879858986267289 0.0
4.436230765617037 7.045693351607117 0.0
4.430360014817357 6.703971783962796 0.0
4.732390145036301 6.849841042423394 0.0
5.056161327708878 5.095276573498806 0.0
5.111586796021131 4.999081142133581 0.0
5.169267363407189 5.09444870412406 0.0
5.223795108752053 4.996986220359468 0.0
5.281480803887719 5.092780870372803 0.0
5.335670761900611 4.994887492556936 0.0
5.393485214772442 5.090486192743301 0.0
5.447323082877892 4.992601527033996 0.0
5.505243219343024 5.087953380710069 0.0
5.558739102026105 4.990287787962959 0.0
5.616491581184779 5.085335255235766 0.0
5.669852346908056 4.9879269227514 0.0
5.727502713908907 5.082679981817038 0.0
5.780766004135139 4.988313988715834 0.0
5.838244881129535 5.080480568766611 0.0
5.891357695677371 4.986433849408193 0.0
5.948696036767613 5.077969900389505 0.0
6.001601341641615 4.981313698556656 0.0
6.058851024265095 5.074871552128682 0.0
6.111614020704875 4.978360695880202 0.0
6.168801161530775 5.072044953270978 0.0
6.221368818778567 4.975825765213497 0.0
6.278268309066882 5.066182320461055 0.0
6.330814273567539 4.972837984645718 0.0
6.387565032421376 5.062889771971895 0.0
6.437476667631405 4.971693683589553 0.0
6.496181111585419 5.060210690175857 0.0
6.539454812256072 4.964658165361536 0.0
6.604198202576491 5.056387520850258 0.0
6.648506025747331 4.939374587506267 0.0
6.714026758992516 5.05873885840664 0.0
6.764418045981209 4.959246676066148 0.0
6.8219334571197 5.055299567406268 0.0
6.873708540948134 4.960426349093742 0.0
6.930181428849307 5.053461390218819 0.0
6.981893615341967 4.96435459462232 0.0
7.037791764774784 5.051219747103022 0.0
7.090993561518408 4.96392420322464 0.0
5.504417457283294 4.900897920552702 0.0
7.145434864123609 5.048960634292441 0.0
6.054532384032612 4.883956083938546 0.0
6.738027949040956 4.850032323068674 0.0
7.198432914526514 4.956325226333323 0.0
7.252637187936749 5.046012229327236 0.0
7.30926729605109 4.948903216650376 0.0
7.248106275544042 4.860306312845646 0.0
7.363100274863074 4.849952416808486 0.0
7.365733472701664 5.039519554615095 0.0
7.308483293090149 5.137557220352172 0.0
6.768399513646964 5.145609705119954 0.0
7.422800035311104 5.132251445551834 0.0
7.358273518796229 5.235980394389298 0.0
7.480824155801127 5.227946127939927 0.0
7.302193400058628 4.761917474298247 0.0
7.413570879789824 4.754555110721153 0.0
7.414392998903179 5.334729114426734 0.0
7.352769630272076 4.660405502266205 0.0
7.467556835255426 4.658352623795039 0.0
7.536246869015014 5.328986926716081 0.0
7.478865844607288 5.432598185493195 0.0
7.406396991826072 4.556956233957538 0.0
7.523581002009154 4.552005631348623 0.0
7.597792398573263 5.429506106314967 0.0
7.540511043402902 5.53619421580439 0.0
7.46214474876342 4.452580994318881 0.0
7.5852185078634 4.446021810672608 0.0
7.663329342323453 5.533453399066901 0.0
7.603478967594521 5.643227430483237 0.0
7.513450346818673 4.347641323140766 0.0
7.640744971722214 4.333388343316237 0.0
7.727671715775243 5.642390483050116 0.0
7.667774597993788 5.753188858425915 0.0
7.570065256728661 4.230515669344811 0.0
7.702881065467917 4.218307808529532 0.0
7.638288257073729 4.107994211855027 0.0
7.493362356301017 4.120843902105771 0.0
7.779018500630071 5.521233457321821 0.0
7.794641287388929 5.752364621610818 0.0
7.73369774483611 5.865894287356292 0.0
7.600834531784728 5.867752110500446 0.0
6.233038857278689 5.15645045634683 0.0
7.669727996028819 5.985665563643058 0.0
7.528582452554481 5.987393423295551 0.0
7.598722674572824 6.11001923494443 0.0
7.778305000222867 4.104318908265786 0.0
7.704329019832056 3.987744174608892 0.0
7.838453459801382 4.213322728668484 0.0
7.864495721576461 5.862306066517277 0.0
7.846552353360407 3.98481756181946 0.0
7.769730409703277 3.86544808681145 0.0
5.785249360396857 5.177248808588045 0.0
7.908837087876153 3.861484036275285 0.0
7.834824606222196 3.740586825753288 0.0
7.97685993406276 3.736209527152902 0.0
7.89665098770825 3.615501862931453 0.0
7.753228010315262 3.617800245018972 0.0
7.826063013090472 3.483173292579822 0.0
7.66789744383048 3.48859328808356 0.0
8.042515855796823 3.595394268381807 0.0
7.75200750488492 3.341279823834038 0.0
7.582870318332553 3.346584916806707 0.0
8.120807847415062 3.732493963388337 0.0
8.189783970303546 3.61159165475499 0.0
7.657801000286734 3.200439907646711 0.0
7.486781956172036 3.201402473247712 0.0
7.452595103886905 6.11418616185016 0.0
7.527098033550077 6.243191052852112 0.0
8.260502906807751 3.728437634721859 0.0
8.327629317451398 3.608173631356984 0.0
7.372763970891452 6.247552889754036 0.0
7.456170570815929 6.384992468962936 0.0
7.621837793616884 6.376077080857113 0.0
7.548039512904141 6.520750676893614 0.0
7.717475944451644 6.514856553988943 0.0
7.636658166268699 6.661648164052906 0.0
7.807468267259438 6.664076174524672 0.0
7.718022764310774 6.817938967122142 0.0
7.887785766941087 6.807440365887151 0.0
7.545993589083432 6.815070675854734 0.0
7.809874785067209 6.967537287475282 0.0
7.975643812145337 6.948729406725126 0.0
8.396477808021062 3.725446935061211 0.0
7.565651643157136 3.044354774611752 0.0
7.384328725505071 3.043048915147076 0.0
8.056405351948353 6.802790889114673 0.0
8.14128318237188 6.940027831915737 0.0
8.064621760266059 7.086348792208953 0.0
8.225003598857908 6.805225152373254 0.0
8.463085452993242 3.606998510553562 0.0
8.230426869720718 7.079551841000411 0.0
8.155262284174286 7.224761758176069 0.0
8.530696760758996 3.721683301125054 0.0
8.596669886994064 3.604516769862316 0.0
8.528531058025589 3.490411531312337 0.0
8.320451770844851 7.218191678954744 0.0
8.245273958732774 7.363444652121271 0.0
8.66324687389452 3.717094013035765 0.0
8.600103125209296 3.831913857228569 0.0
8.662131102573216 3.488322280861316 0.0
8.594166125380536 3.374071873435548 0.0
8.411074336066186 7.353871649576861 0.0
8.339644223432472 7.505172120620427 0.0
8.165883718619623 7.513159193685373 0.0
8.483453820080417 7.2082285366806 0.0
8.261200365730348 7.657400951288149 0.0
8.081570576666843 7.670933304838066 0.0
7.471613195794025 2.872548423100142 0.0
7.268733678357991 2.881209199257603 0.0
7.184255506995786 3.084448584600423 0.0
7.065899603697895 2.883902449336828 0.0
6.960163891183182 3.081014635802978 0.0
6.847612128388715 2.885646860602812 0.0
6.739800729737967 3.078895733381448 0.0
8.729373804596847 3.827689165637365 0.0
8.668550856907444 3.938702277545298 0.0
8.72770789162863 3.371798381178293 0.0
8.659764090070603 3.257493349874974 0.0
8.436453928793245 7.648724489148887 0.0
6.619080287792762 2.90880017416788 0.0
6.511740956842646 3.09340654756684 0.0
8.793527829963288 3.935174834810256 0.0
8.736430500996828 4.042719556852617 0.0
7.631260330584174 4.565300771328012 0.0
8.359058396840432 7.801678182761817 0.0
5.339436215072359 5.184870243702279 0.0
4.994031736761993 5.193306795607908 0.0
6.383387675268097 4.87760645722207 0.0
7.29117392392962 6.382172868329505 0.0
6.378196825372041 2.907113079755629 0.0
6.269817199014261 3.12412150658573 0.0
8.793149127377946 3.255386294257182 0.0
8.725774239201558 3.141596687892195 0.0
8.857434600673502 4.041295940541356 0.0
8.802868937128341 4.1471119953668 0.0
8.532045262478793 7.7905977476835 0.0
7.364542641624493 2.699128473342751 0.0
7.571677611088925 2.695732556686516 0.0
6.723058333614999 2.672341359410618 0.0
8.456744924757372 7.94483904450548 0.0
6.140831279784704 2.921247401137864 0.0
6.02419219050745 3.14358702955763 0.0
8.916255604212301 3.934279868822481 0.0
8.859287250884009 3.140226640574265 0.0
8.791092798057303 3.025929352146465 0.0
7.210445465986021 6.245773134960393 0.0
7.120884161792869 6.385155584680196 0.0
7.036931702064287 6.240721609143972 0.0
6.943722280007011 6.3869279517155 0.0
8.920094519678617 4.144837222494242 0.0
8.864374107136287 4.250930406527029 0.0
7.347569838739255 4.463467417508182 0.0
5.90383431757064 2.935113219563906 0.0
5.783476009580765 3.156456199832474 0.0
8.626013191558314 7.935092223505354 0.0
8.687240186957197 7.796697889991163 0.0
5.642059327424706 2.903018174330269 0.0
5.52647853955939 3.162549070310043 0.0
8.555300051897738 8.086169516016518 0.0
8.405624441178524 8.083972416481254 0.0
5.374124307190728 2.945480555950917 0.0
8.935805220807357 3.249260758206028 0.0
8.981625171409894 4.247375537584228 0.0
8.924725364486765 4.352101286657735 0.0
8.807208588134106 4.356163101450244 0.0
8.868277832430604 4.45657124153171 0.0
8.75099635287701 4.460644845248524 0.0
8.812385950597063 4.560891222623518 0.0
8.693833206943118 4.564602972998703 0.0
8.756474732548273 4.665720853686476 0.0
8.63721608225855 4.669394550615355 0.0
8.700108119351134 4.770682016274914 0.0
8.81920502916846 4.767536120893284 0.0
8.76355311338807 4.871451945248518 0.0
8.881442328033694 4.868382238751069 0.0
8.826433523510634 4.97132552240372 0.0
8.943387824985514 4.967694248194483 0.0
8.888718468126953 5.071044784833541 0.0
8.580377663835254 4.774669738817985 0.0
8.770572242937233 5.073880380431421 0.0
8.832915096600454 5.174518948293615 0.0
8.952224483821848 5.170970838320107 0.0
8.897282771771884 5.275476392171722 0.0
7.463928467290875 2.513944501591933 0.0
7.675935950092034 2.509420347143072 0.0
8.924252417741767 3.024418701372628 0.0
8.857265893102921 2.911213535286156 0.0
8.776981063213334 5.27944309004916 0.0
8.840710910770163 5.380165700477552 0.0
8.960876896785969 5.375521424256389 0.0
8.904555918255223 5.482125846038813 0.0
7.567193097677677 2.32750151280277 0.0
7.780880844888839 2.323064027160363 0.0
6.851602118390116 6.234522818184622 0.0
6.758680682687229 6.389359516748128 0.0
6.66345977321418 6.231254850996584 0.0
8.715764716958308 8.079994249772627 0.0
8.65189989696114 8.227534663647639 0.0
9.042229096541828 4.348551764001607 0.0
6.436774206993324 3.316782326998922 0.0
7.590527613340588 5.22651784724799 0.0
9.024366884701616 5.476726561488805 0.0
8.968734351641839 5.583879050892151 0.0
8.845941080047659 5.586406316932274 0.0
8.909881305857882 5.690482454668167 0.0
7.348726871578975 5.44047403999932 0.0
6.567070253986433 6.398115757512583 0.0
6.697077150072261 6.553426749743366 0.0
5.252377383990728 3.187782967482479 0.0
8.988440431820699 2.908621158637298 0.0
8.922541972760119 2.796420836075996 0.0
6.466806010659505 6.229115583261771 0.0
9.033851153821296 5.686506775615425 0.0
8.978340519963718 5.795772485582058 0.0
8.85111463793018 5.798672910287243 0.0
8.922171984280597 5.907237880910408 0.0
8.795190680908043 5.911854068712683 0.0
8.864373398892472 6.019728357749566 0.0
8.991346995940626 6.014539153309398 0.0
8.93374019140187 6.12698887312768 0.0
5.095192648098848 2.952353430985476 0.0
7.672651464908932 2.141715359830917 0.0
7.886266921042761 2.136211284120189 0.0
9.098474286589756 4.245971410451114 0.0
8.813172564986438 8.216887361735234 0.0
8.74802978243154 8.366104673219047 0.0
9.059985162956899 6.120982589539211 0.0
9.00342813739303 6.233245043891739 0.0
4.961413514304496 3.214209167276753 0.0
9.05248113004685 2.794651022570942 0.0
8.986028039118027 2.681341972594222 0.0
5.671890458441996 3.377122473800023 0.0
4.755829262593116 7.184480462344647 0.0
9.158258644940048 4.34465968221255 0.0
4.799687186662534 2.961354824469195 0.0
6.030554747591715 2.726787502996874 0.0
8.938327180212585 8.34758372042188 0.0
8.847392320655468 8.503370672816716 0.0
8.67342124373679 8.518117686968314 0.0
5.234423106934083 2.694925204361751 0.0
8.964923046453565 8.185313058214797 0.0
7.456650986668838 2.134076476407834 0.0
9.111732084821366 2.897226832609386 0.0
6.368055837513985 6.402805870976705 0.0
6.265629899005033 6.226581076317183 0.0
8.736327196352686 6.026404178766982 0.0
9.117473097358854 2.67987006607594 0.0
9.052137415465204 2.565428515518978 0.0
7.781001557847192 1.955874236406257 0.0
7.992134447300669 1.949184538864554 0.0
8.593074792993455 3.143159483125708 0.0
9.1291360203536 6.226877897052981 0.0
9.072154326613617 6.338696745620542 0.0
8.916532550320525 2.566986282201109 0.0
8.984021113721658 2.449252898983242 0.0
9.178032243215632 6.120533546076094 0.0
9.213703592343162 4.244823670856978 0.0
9.11972142641474 2.449071238668887 0.0
9.052853896812186 2.33190758581705 0.0
8.635035926402708 4.462329956179506 0.0
8.773614475966344 8.657865377672689 0.0
8.596400917257634 8.67759750279447 0.0
8.942023339420883 8.644678093589654 0.0
9.19471670675691 6.33096438039349 0.0
9.138460613363325 6.443043552768813 0.0
8.66620319432524 5.916297234509582 0.0
8.606669825267202 6.032658196729024 0.0
9.27222540210304 4.341341907533128 0.0
9.013782808177437 6.451040569407859 0.0
9.08360982569773 6.55729980456602 0.0
7.885622149776354 1.768093045890686 0.0
8.095672144455353 1.768790621151345 0.0
9.208772072925791 6.549717411809656 0.0
9.154272208194383 6.662613503537815 0.0
9.187669783927937 2.334640996932141 0.0
9.122379015831417 2.215832190697178 0.0
6.164077036161143 6.404611236428829 0.0
6.062367614988677 6.224307160647549 0.0
8.987075041759633 2.211477580983978 0.0
9.056972755801603 2.093573581203428 0.0
9.194557288902232 2.096029761809264 0.0
9.131223008370409 1.972713028695079 0.0
8.87381302587057 8.795793668920256 0.0
9.039169086943392 8.781606667490083 0.0
4.662813350519927 3.228118291851354 0.0
4.474181267994617 2.945703616023359 0.0
6.562627723301209 6.075544382232434 0.0
9.326886053211574 4.243083624343211 0.0
9.280374192897945 6.656072830232892 0.0
9.224718905178564 6.766740750539347 0.0
4.703284910421452 6.528907865005451 0.0
8.955136474970331 6.565989985649191 0.0
8.998148826814893 4.865480736169776 0.0
8.99429836796776 1.965972383552685 0.0
9.065669391141741 1.847195105148808 0.0
9.207236162050343 1.853010386995843 0.0
9.143218073349985 1.725630086781897 0.0
8.998867447699345 1.719378449325465 0.0
9.082595782768397 1.592017827427701 0.0
8.92804562738841 1.585238202229766 0.0
9.01637794607019 1.453847302675876 0.0
8.854253119154375 1.446306868730686 0.0
8.941620273019874 1.320083886766936 0.0
8.775393064215876 1.308487027359826 0.0
9.102170347200483 1.324733726345249 0.0
9.013857060361985 1.178821526410403 0.0
7.991031819452564 1.587689878441685 0.0
7.767218744640202 1.595993197647291 0.0
9.191539171305216 1.194087248761656 0.0
9.123965901037613 1.057102462689568 0.0
4.853921953226772 3.470213116851758 0.0
7.496563223334782 3.470157221608763 0.0
8.536691379028115 5.921845852206257 0.0
8.475496498707471 6.037633662010236 0.0
7.978668526342969 2.307231488316941 0.0
9.384721922092124 4.337357165846226 0.0
9.331039180200886 4.435926256444196 0.0
8.546261775564837 6.150267290476958 0.0
8.411727261785726 6.155319300628062 0.0
8.972203609044218 8.930944433074036 0.0
9.133480321468399 8.90955269607895 0.0
9.197778815538276 8.768743880012563 0.0
6.162231825784922 6.05277753404107 0.0
5.962111081146334 6.046949845237622 0.0
9.268727788642101 4.146883230687689 0.0
9.380694211527906 4.144811697563401 0.0
9.323823335199954 4.049557759546529 0.0
9.283324894520613 1.736313094621396 0.0
5.858151623803662 6.22041808248046 0.0
5.759668475561988 6.038806123495502 0.0
7.836860473863919 3.191674397465999 0.0
9.348591928839294 6.75855034547469 0.0
9.293979592221298 6.870213350675044 0.0
9.170543172728557 6.879819332293818 0.0
9.240028263813034 6.983394994050525 0.0
4.347372565145963 3.312731475520695 0.0
4.114183445909965 2.96879678229065 0.0
8.616264880152233 4.042035981070631 0.0
9.403174760076901 6.650407069150438 0.0
4.173860112179449 7.723461240865885 0.0
9.365302975518428 6.973476802087294 0.0
9.312420275675276 7.088420778208979 0.0
9.184876614539778 7.0978133687822 0.0
9.25921281729617 7.204979813006656 0.0
9.12816413817609 7.21569648263899 0.0
9.203944409919862 7.322703303071253 0.0
9.334311975087337 7.311477957762272 0.0
9.280415785210538 7.428795599957155 0.0
9.274060219641907 1.066603180421249 0.0
9.211820491509728 0.9316562593680151 0.0
9.050684011148748 0.9017681241401576 0.0
9.441953732403995 4.432092590771756 0.0
9.394725873909666 4.526051349391942 0.0
9.43453556160865 4.048003950509361 0.0
9.378043599351757 3.952631412328806 0.0
9.289691247910705 8.890746792319852 0.0
9.228148443138926 9.030109127390128 0.0
4.440757888677695 6.389562448928118 0.0
4.689874463978985 6.239329075084555 0.0
4.291519540095677 2.622920583112654 0.0
3.886073352912894 2.632778677714434 0.0
9.344015622314338 1.202401041544343 0.0
8.193292196814806 3.849649660906171 0.0
6.960946604527747 6.07044529864598 0.0
9.347708267319902 8.756364147482309 0.0
6.826423138602714 3.261415861395883 0.0
6.06309517882478 5.884563187328262 0.0
9.4085057714426 7.414123963607981 0.0
9.356416821537886 7.532359471354527 0.0
5.042074134251055 6.938947182785697 0.0
5.063988238156824 7.311205832605263 0.0
3.946666851334923 3.30681624613374 0.0
8.189857914071878 1.939951128540477 0.0
7.880690277686857 1.38928908049477 0.0
7.63766396748483 1.399736360041063 0.0
9.345004233592562 1.857695941115052 0.0
9.440465164139875 7.085860901905448 0.0
7.918332480761888 5.744468010879592 0.0
9.08007135068879 5.372457017512481 0.0
8.78639561093144 3.718391405525285 0.0
9.356843485085705 0.9414458825132457 0.0
9.29705128845331 0.8103081541678832 0.0
9.251825423225316 2.451701826351773 0.0
8.483895366325516 6.270717564685176 0.0
8.346386886249478 6.275973306650227 0.0
9.493299170161215 4.138582531223591 0.0
5.321115649032961 7.117073603021904 0.0
5.354076009109965 7.436189411362466 0.0
5.597984079819928 7.254284331170681 0.0
5.644042313435943 7.564172740776336 0.0
5.383963016128051 7.753854027984002 0.0
5.681168258142109 7.880444993178456 0.0
5.935548099874979 7.687258900444162 0.0
5.979508404301389 7.994332725561488 0.0
6.21936843555201 7.802335560754011 0.0
6.267092590637372 8.104873033518185 0.0
6.498845418385807 7.917606504106031 0.0
6.544600005636809 8.209910620392591 0.0
6.77336078689533 8.027284686082275 0.0
6.814840179123049 8.311778392637773 0.0
6.721304148677048 7.737863326704131 0.0
7.031320924898797 8.1335673274533 0.0
7.077388928622946 8.403901803728003 0.0
5.417471987089176 8.090112295667405 0.0
8.845427688507666 2.446352368201366 0.0
9.318512319918124 2.339233739859646 0.0
9.380241452597096 2.451895615249572 0.0
7.283805558009199 8.237518806365102 0.0
7.329200330160381 8.497045124353782 0.0
7.233272584416691 7.991590926766813 0.0
9.142592248414191 5.471315142785471 0.0
9.196303265878848 5.36738298742727 0.0
9.25795832955665 5.465260877691205 0.0
9.310581303233182 5.36341558704714 0.0
9.371094700882272 5.459458038195667 0.0
9.422767107822985 5.360687090455724 0.0
9.36402660964156 5.264821436196721 0.0
9.474220736978928 5.262802348886269 0.0
9.41680330511366 5.169477108906666 0.0
5.168675939028436 4.895496152382537 0.0
9.482591449057548 5.454699312257291 0.0
9.431567605310825 5.552723344040521 0.0
7.531449703396948 4.741663470323411 0.0
8.517293123442691 4.672601123164268 0.0
8.459978676626639 4.778466809901586 0.0
8.396595115309985 4.67568709170855 0.0
8.338966609235166 4.782101664607259 0.0
8.275355646032752 4.678829956447008 0.0
8.217675280223542 4.785699596769931 0.0
8.28149024865807 4.888803783902183 0.0
8.16019781596952 4.892696417098926 0.0
8.22433278506531 4.995725219088695 0.0
8.102825704443651 4.999629142625341 0.0
8.166887930010795 5.098242831115916 0.0
8.034904900788316 4.896825406879729 0.0
8.15353539905931 4.682103688185489 0.0
8.211891449058882 4.574219757233394 0.0
8.290305306104333 5.094007100958221 0.0
8.225684228618732 5.201525567655179 0.0
9.444618942559746 2.343141375196729 0.0
6.929446520625337 4.868116916840016 0.0
5.737810725167649 4.893891407574175 0.0
8.720389971487277 5.38508368411851 0.0
8.805734920311323 8.951818172412821 0.0
8.905272694453211 9.083303226359831 0.0
6.006155038818204 5.171375272745409 0.0
6.431496448228514 5.152985998213245 0.0
9.052675024457304 7.106590131831544 0.0
7.740007013494393 6.09727525827826 0.0
9.375852260355511 9.013078430361404 0.0
9.32035844773103 9.14584923943073 0.0
6.989707597683965 5.146377438798643 0.0
9.488190206836386 3.951168069367155 0.0
9.432429152094464 3.855725756072153 0.0
5.568386402814275 5.185723849666124 0.0
9.525561551078322 5.166162126187324 0.0
9.465026391994275 5.072601962964018 0.0
9.320357339516937 3.857795423728873 0.0
9.375955927831914 3.759314274140895 0.0
9.261783786753899 3.761412578759438 0.0
9.31820665563318 3.661845422072752 0.0
9.431798673168924 3.660830894813109 0.0
9.374584413615914 3.563138564686839 0.0
9.48759661134647 3.562294297118573 0.0
9.431339678707085 3.464016717943268 0.0
9.417896212887529 1.746970678437863 0.0
8.731705369070733 9.110902182838881 0.0
5.652297951447118 6.21188565774667 0.0
5.569122518069258 6.024400786163834 0.0
8.257007204149394 3.505875091031567 0.0
8.717428603143034 2.925525757227976 0.0
6.882852832747376 8.57686572931064 0.0
6.337330066435714 8.416819098143066 0.0
9.50188906539997 4.521022403818629 0.0
9.453500859905136 4.617181635748691 0.0
9.46806769570129 6.749352117850711 0.0
8.836822104875719 1.72282859852854 0.0
7.481071063421426 5.64593758994851 0.0
5.668814988976305 5.86611128457842 0.0
5.487644760735084 5.847591822776978 0.0
8.993992818065195 7.228173913870249 0.0
7.98322414937693 7.229980191466666 0.0
9.22810751684646 7.54864871395298 0.0
9.304103360459063 7.654622011545798 0.0
9.432787371848761 7.633691049023619 0.0
9.382619818023882 7.759136995934441 0.0
7.239096822516492 4.679179578301165 0.0
9.47692479956498 1.861231395362419 0.0
8.041243110813022 5.095895152648969 0.0
6.190208781188077 7.509864122823853 0.0
9.283062812782122 4.549418667685757 0.0
9.503847665760087 2.450295046295932 0.0
9.443345385250678 2.557904120404248 0.0
9.52009568463353 6.644015937008899 0.0
9.203119005973903 3.662458522935253 0.0
8.406198651282708 5.92630414760378 0.0
8.467263597743843 5.811987729136874 0.0
9.461423029059445 9.128120577356565 0.0
9.408445330070542 9.26024300250086 0.0
9.266505293379728 9.277952925446408 0.0
4.14874709022218 3.631681332690154 0.0
9.437448107949258 0.8198473430736303 0.0
9.376993771693973 0.6910550697058979 0.0
9.22882356848217 0.6931820370818127 0.0
4.451823867195988 6.103664366188579 0.0
4.200031743909027 6.232039028149317 0.0
4.687154754667774 5.975132870483986 0.0
6.268889397098538 6.592235545990395 0.0
7.509366161722768 8.340075462391164 0.0
7.564775703413765 8.59800936579159 0.0
9.542148732924264 3.854614593058991 0.0
7.036231103929761 6.550562550831048 0.0
4.089373665437328 2.268193930262139 0.0
3.642558884866483 2.250386188148396 0.0
3.442182385618804 2.651948803899947 0.0
3.146832503011753 2.222630466765926 0.0
2.948870467975985 2.805088883766417 0.0
9.352005315330274 5.067356449300542 0.0
9.31729677031493 3.462944187594675 0.0
9.37428383619102 3.365546369736205 0.0
9.4883538239391 3.365384871181599 0.0
9.432147665178338 3.267287636377487 0.0
9.25034519267688 7.775848812012313 0.0
9.332091350002502 7.881724023243533 0.0
9.462101000264603 7.86490055671988 0.0
9.413353271651825 7.98561007219363 0.0
8.273592814723814 6.158623919352561 0.0
8.207135014732339 6.280394934566054 0.0
9.541483811580331 5.548224291759592 0.0
9.491365919893726 5.644847811894615 0.0
8.088095771120983 4.577581369371366 0.0
8.14760102783746 4.468303741922308 0.0
9.556217963323956 4.414867468889523 0.0
9.543667331547693 3.266908751519594 0.0
9.489307652535885 3.169908976697059 0.0
9.26285575842982 8.635341362685686 0.0
9.403220742003983 8.621447866627538 0.0
9.326013417886902 8.506778946171965 0.0
9.455477927154853 8.503896705359047 0.0
9.566646674069602 4.611465258087684 0.0
9.499341049870914 0.9352184973273918 0.0
8.683891958597638 1.444705608998412 0.0
8.599973456173778 1.287265568270043 0.0
7.760988189317371 1.175381292562583 0.0
7.50927661322749 1.171223823957793 0.0
7.380927152434357 1.411062577009695 0.0
7.242417847270241 1.170759311509981 0.0
7.107236746116019 1.421234419770886 0.0
6.960799033544566 1.169618322344823 0.0
6.817786081200392 1.434174581170586 0.0
9.48095050141868 8.738557748483624 0.0
9.319762046171894 3.263060331456388 0.0
8.920653400180534 7.117307656029475 0.0
9.452431221190624 6.544166520883111 0.0
9.571407933653493 6.540336592280795 0.0
9.507586285214174 6.443281357841339 0.0
9.575252974749443 5.070210512157044 0.0
5.755172844377253 6.370710487467459 0.0
9.541351959064952 7.969072511059531 0.0
9.354607289792183 9.3921968735401 0.0
9.495213435762107 9.37218405175897 0.0
3.77688136092967 3.643094492921176 0.0
5.460967180339239 6.159077196937325 0.0
8.656589552918996 5.283032675040985 0.0
8.599307076390474 5.387421722684671 0.0
9.584017606465821 5.263931993965828 0.0
9.51536593891754 4.977534386249715 0.0
7.788544970111893 2.70578432810479 0.0
7.381746833264364 8.755477463411431 0.0
7.615969996822885 8.852710176548548 0.0
7.783643411970649 8.691528137204457 0.0
7.845017394185501 8.938777577473743 0.0
8.570520580943368 7.342304222498308 0.0
9.103648004226827 5.781084627507008 0.0
8.338082930126799 5.815990105349368 0.0
8.930848895071895 4.561111316304916 0.0
7.381089602119859 5.983657236035151 0.0
8.42066837692862 6.393608568217351 0.0
8.888256157021065 6.459558428285236 0.0
8.826495664731354 6.575679897210801 0.0
4.22522220414496 5.921354747981145 0.0
3.943296448343383 6.075578573904587 0.0
9.563175937841836 2.554860696349795 0.0
9.505342423182917 2.656889632284623 0.0
6.660863480070611 1.168750929063519 0.0
6.518316961679488 1.436478598119306 0.0
6.683474168246802 1.694104067636375 0.0
6.376799057174731 1.707382100972048 0.0
6.205091481342603 1.443621641108414 0.0
6.058670988071357 1.728841803855816 0.0
5.877457486049096 1.454297236926778 0.0
5.724979192982589 1.756666409586195 0.0
5.529885788012015 1.462283739157555 0.0
9.514953777019835 0.7018468683209754 0.0
8.398665270372675 5.702731562702358 0.0
9.456442249775696 0.5772068858285652 0.0
9.565795671866349 2.345573662774494 0.0
8.830758563027459 9.247271599108435 0.0
8.523580738257648 4.88015211128435 0.0
5.580123316488715 5.701889892660689 0.0
5.398591029446707 5.685938459654249 0.0
5.367686360823392 1.778740548277203 0.0
9.546603444041448 1.754984055696778 0.0
9.489649223089446 1.641312329051244 0.0
9.617973952467912 3.363804764345866 0.0
9.584322830999731 6.729956156156573 0.0
9.597221861144487 3.948534024289882 0.0
9.49401963819799 8.089507968561776 0.0
9.207321074262563 9.416906871900888 0.0
8.27185428346661 4.464932191097996 0.0
8.207416067213774 4.35878753684812 0.0
8.332747746635944 4.354903699457511 0.0
3.990181919126853 3.930792395858886 0.0
8.267392138262498 4.254008221702929 0.0
7.997788712685495 1.196805377512679 0.0
9.600316638269724 5.639973985281733 0.0
9.550939606739425 5.737313319038155 0.0
9.44084303195315 5.74233753256161 0.0
9.50112296154558 5.834555019909565 0.0
8.897429225733994 6.685415510921676 0.0
8.762930941408914 6.695907295903629 0.0
8.654628175336732 9.278157371342388 0.0
8.544676900803436 9.133790942553834 0.0
5.294904777716057 5.855935872688884 0.0
5.216749389964556 5.66865685845661 0.0
9.508453581298625 2.239460033375932 0.0
9.599691370793206 3.169496930704394 0.0
9.546615051106684 3.073514534194011 0.0
7.484714626923596 5.028675123117963 0.0
9.588496050271255 7.850836295555126 0.0
5.153197381012662 1.471340286561097 0.0
9.433168304679345 3.071871997104804 0.0
9.610464706874994 5.829217654498672 0.0
9.561407772947403 5.926179534044419 0.0
8.273381980676042 5.705233340662362 0.0
8.330794188929296 5.594351887246082 0.0
8.207319603076424 5.596747949305344 0.0
7.251338559467102 5.233758892662348 0.0
8.708518799790543 1.130513882092466 0.0
9.590155250193266 0.5878623138195824 0.0
9.389919385420015 5.841079912164009 0.0
7.991397852194216 5.859910582924319 0.0
9.624951589233206 4.975554514425905 0.0
7.240016788025947 2.531866266726309 0.0
7.635666783493215 3.873554782053258 0.0
9.608476620993713 1.863530872936442 0.0
9.365330459496413 8.10677840682376 0.0
8.775076110585598 2.572737931759856 0.0
8.699389445914996 2.444602334375113 0.0
8.625078713232146 2.580891022578613 0.0
8.54447196848446 2.447624719286678 0.0
8.468898498943965 2.586757328881282 0.0
8.62282309213608 2.307826916202421 0.0
9.622102662978762 6.439307895185218 0.0
9.561995355724862 6.35103962032292 0.0
3.898245450818314 1.856155797593496 0.0
9.681759177700954 5.07069253017652 0.0
9.059254996454502 4.963357716933865 0.0
9.113144532326562 4.861710138088372 0.0
9.62140874877204 2.656009146517733 0.0
7.884510615470827 0.9666888912541309 0.0
8.14902661050739 1.005010215149227 0.0
8.491263206618079 8.527197931363634 0.0
8.408859203395778 8.697060715788105 0.0
6.54422152733529 1.954566069381189 0.0
9.563546573097593 2.755667904356369 0.0
9.453065492925557 2.761122255953964 0.0
9.676889098520615 2.755084315170127 0.0
9.678287124781653 2.556838324720633 0.0
2.60254317790297 2.278874965850319 0.0
9.211706272534968 4.050470567310489 0.0
8.526711683538949 5.698821878547752 0.0
8.296604023060945 8.533761944401608 0.0
9.649704314258118 5.543946557831669 0.0
9.651176136337964 3.85122804518279 0.0
9.44590154800397 9.498503704959054 0.0
9.580491248736612 9.476376347552954 0.0
4.3239388803087 3.921156392977062 0.0
9.65737873521736 3.075324100817917 0.0
8.128000846282253 6.160273991836929 0.0
8.06242981852327 6.292371360998262 0.0
8.500465019503922 1.442700595221201 0.0
9.615253212967009 1.649819368149096 0.0
9.561768620580791 1.538553925606111 0.0
9.435477757657937 1.527391516499924 0.0
9.627993450010088 2.242685831452484 0.0
9.5338252733548 0.4673994795805215 0.0
9.398055066504014 0.4589059948533885 0.0
9.669486082509058 5.920177035588319 0.0
9.621072177439727 6.016493814615133 0.0
9.506185962103057 6.018397021409126 0.0
9.196884440497488 7.898824858961557 0.0
9.112591143666748 7.789491461180181 0.0
9.664357762385308 7.950712034233033 0.0
8.46233617997115 2.308903464128035 0.0
8.547917980328803 2.169381684694277 0.0
8.139931430059324 6.410762600521521 0.0
7.672499127532963 9.099143622036436 0.0
7.91372855627271 9.178704612763656 0.0
8.463425076318451 9.290653726808348 0.0
9.643938029094286 9.335632419679458 0.0
9.647017668702574 0.7068996148634754 0.0
6.241662276606473 5.884018212993202 0.0
6.157742245066693 5.73500474100449 0.0
6.318815619949124 5.730068085823802 0.0
6.247706374231452 5.593094310939028 0.0
6.406948541886973 5.593272398468375 0.0
6.092564106310554 5.587409338401505 0.0
8.535507922245372 5.286142900439676 0.0
8.022959839404006 4.471630490587016 0.0
7.963561162854596 4.581393556789843 0.0
9.683487139413305 1.546750704925431 0.0
9.630761777960082 1.435922217091829 0.0
5.121714348989337 7.950140247572198 0.0
5.136464096196084 8.310254432483559 0.0
5.47349124035624 8.455234262268478 0.0
5.176273618280354 8.687190323573228 0.0
4.796664658962938 8.592678692862421 0.0
9.568705729418735 4.887269869750176 0.0
9.462711651199594 4.88832222094458 0.0
9.674903475028225 4.882285174433025 0.0
5.4996067353406 5.546583260717527 0.0
5.663632234555963 5.557613452957074 0.0
6.829408195405585 1.947174574944512 0.0
5.336529198289861 1.127585641139875 0.0
9.672387559812332 6.34138351957329 0.0
4.463988917379896 2.271060678869338 0.0
8.618048281355405 6.263841736419089 0.0
6.480949808711781 5.74815588680617 0.0
6.562207427719153 5.592185077216444 0.0
6.643040463857446 5.721233693378952 0.0
6.712825900331884 5.588664360236 0.0
6.79240375630333 5.711383948285569 0.0
6.86115931532141 5.584697050428064 0.0
6.939210100691576 5.704407337029545 0.0
7.007668476576536 5.580801046893123 0.0
7.084627386867475 5.702817970154801 0.0
6.633257976075473 5.460881327825488 0.0
6.931430743764456 5.461960451448691 0.0
9.682652370938209 6.533133024505995 0.0
8.761108695241376 9.450742747770144 0.0
9.146031326900015 3.764292700000154 0.0
9.089378801805193 3.661317181076136 0.0
9.514354521818781 8.994988681611192 0.0
8.157650730500988 4.262987189670279 0.0
6.329633198899328 5.4647789391701 0.0
2.340685767996258 2.811285337457589 0.0
7.379572471323651 0.9290892725587991 0.0
4.171878172186605 4.222320767259098 0.0
4.4876601621649 4.16473354200826 0.0
5.336389369563535 6.806464508860387 0.0
9.595468321212476 9.108133206829102 0.0
9.645038675267227 8.982113951305912 0.0
8.393140678816192 4.246338342095281 0.0
8.309440721624494 4.155300532283633 0.0
9.418269339704423 1.9925512363779 0.0
9.662781807969623 0.477809346089035 0.0
8.011297869803792 0.7518828483803571 0.0
8.250149975885678 0.7646904662196189 0.0
9.608674873602773 0.3618049194050078 0.0
8.692696069692623 6.582927327365709 0.0
8.628225948401226 6.705702462696891 0.0
8.701883181418305 6.822086652299242 0.0
8.559276855155542 6.829564723911442 0.0
7.069268463354993 5.459534423493629 0.0
2.654575201159115 3.323490466195074 0.0
3.610801136544596 4.044075244426243 0.0
8.263757217166944 5.48730323490738 0.0
8.138838162809126 5.491254533497952 0.0
7.90196833683664 4.477386962763833 0.0
7.987943097943191 3.978756490171551 0.0
9.704623491880403 3.945605151832784 0.0
9.461009573830147 7.301728818091931 0.0
9.532468631193666 7.399916015174975 0.0
9.582688928417856 7.292330983701011 0.0
9.652579613269625 7.387768793572397 0.0
9.699264016151023 7.282867433965265 0.0
9.633305589700536 7.188543855060478 0.0
9.505576100168666 6.961225778216469 0.0
9.43876966151099 6.342441564206569 0.0
4.908483672172518 6.098703904450545 0.0
9.135448256237908 5.269827196966999 0.0
5.905650502271389 2.025036080946255 0.0
9.709890722072377 9.452748507541063 0.0
9.663337613522643 9.572126259365891 0.0
9.603900123387826 7.495180532331903 0.0
9.720147629525837 7.483400774981126 0.0
9.674588415444239 7.588303295299578 0.0
9.653186673863587 4.039274180923234 0.0
9.053164539680804 4.764545162185531 0.0
9.164908495749003 4.763017269285045 0.0
9.226019227262443 4.858029410614327 0.0
8.809947621994619 3.4964384919072 0.0
9.10538997155458 4.665865142902959 0.0
9.331074106432244 5.748993480915537 0.0
9.055854333858068 7.918554535314415 0.0
9.446431573964945 8.209836764658437 0.0
9.573844810886287 8.191100251691205 0.0
9.309704769895653 8.244395007943949 0.0
7.240329561730736 1.676197957122907 0.0
9.543389817573933 3.660019800390455 0.0
9.598599341122098 3.563130123982772 0.0
9.652615161407017 3.658119804270645 0.0
9.706336063693934 3.564815526226687 0.0
8.632284427755456 6.946688912416058 0.0
9.682863230715835 2.349655023034811 0.0
9.571538455120994 2.142369886250143 0.0
8.090821900439733 9.017409120951333 0.0
6.812258669899192 0.9007667548831626 0.0
6.50135254578461 0.8974046495177885 0.0
9.598335906230732 6.246437748035812 0.0
9.719677442549804 6.253968775436637 0.0
8.593026822691716 5.180101360605356 0.0
5.537586126848265 8.836083861509138 0.0
9.688689404995035 2.143487155934306 0.0
2.821389253975936 6.507820864074362 0.0
9.176571289960709 8.507736431357309 0.0
2.918303740542162 8.256728920338826 0.0
3.428955230180972 8.401446814887457 0.0
8.490587404589881 6.715350139132777 0.0
8.86049054904785 7.243279881821806 0.0
8.93696309213556 7.356650230611625 0.0
3.951931175165697 5.78308550088855 0.0
3.65055612573298 5.91672400098539 0.0
3.668142216548471 6.247526235973777 0.0
9.717269848920886 5.821831227352286 0.0
9.708364917734201 3.164198601626433 0.0
8.45581975650687 4.569560863828342 0.0
8.204448312099833 6.040774355519757 0.0
8.65969449127868 5.485991799508151 0.0
9.707534571012967 5.634423933296901 0.0
9.62102991883279 2.849662850313935 0.0
9.144093558002634 3.560383427867003 0.0
8.29763273805118 1.77155302934031 0.0
5.280452715709455 9.01633391004168 0.0
8.984558945859158 6.99932633710603 0.0
8.4157550875812 1.275784953143711 0.0
2.068078118650995 3.355462780535101 0.0
9.205703884756806 5.568274778556933 0.0
9.745857863753141 7.178456670302003 0.0
9.681628895748586 7.081494416756802 0.0
8.875818787971069 6.240744812097083 0.0
7.993733797566922 6.414830952863579 0.0
8.462810157069566 3.377071044664789 0.0
9.29428363519789 4.759591981903337 0.0
7.933956818298286 5.97437536746848 0.0
9.028281726378319 3.558713145763133 0.0
9.083461773461467 3.455531762175701 0.0
9.73231939683535 2.849247643393067 0.0
6.70072305037728 2.192432536215492 0.0
6.423245125077639 2.212870246546939 0.0
4.931537051605536 1.135086496804522 0.0
4.746426561586179 1.500381091957315 0.0
9.707706579932626 7.836419656220658 0.0
8.590593344701457 1.595639668013959 0.0
8.708946574109854 2.1688179918246 0.0
8.634728854549891 2.028564483452208 0.0
9.230357659411311 8.129337203173913 0.0
9.102841374461482 4.452881308250647 0.0
8.472081531214734 5.388993924853032 0.0
4.925996806199801 5.844046944846857 0.0
4.702806345752284 5.745688656289065 0.0
4.884357002239844 5.633237011762874 0.0
4.709628434300812 5.536404116679045 0.0
4.530800966746534 5.627044171217377 0.0
6.040296145349247 6.603808099703576 0.0
6.162203578696918 6.795213950202512 0.0
5.923135943221574 6.824060069869489 0.0
6.046693245732212 7.010423490915212 0.0
6.297337598588478 6.979895528204233 0.0
7.760448385794147 0.7294020304851334 0.0
8.492228348169641 6.958778476405878 0.0
2.89219822877093 1.704113597264478 0.0
2.26178643438086 1.7814602252425 0.0
9.726968895980871 6.009547057102511 0.0
6.63195110828313 0.6072886418835157 0.0
7.984023036954866 7.515675826210831 0.0
7.893857204140559 7.681876703427663 0.0
7.778465117872411 7.537836322197895 0.0
7.998204230811618 7.844922503023499 0.0
7.798554315988981 7.858161805718108 0.0
7.917846202023782 8.03040048103727 0.0
8.547520504556728 2.721261126162116 0.0
8.39253850806587 2.732073315877738 0.0
8.306047241032278 2.59069854402512 0.0
8.233011054235162 2.739783364361515 0.0
8.318836035587811 2.879838477099622 0.0
8.159530874574331 2.888511553151382 0.0
8.245490421394788 3.024568439743106 0.0
9.759103003747676 3.077839427881478 0.0
8.083610090773394 3.033523757291178 0.0
8.174562583800352 3.166768504406541 0.0
6.046769434852523 1.155662270344939 0.0
6.968371001421964 2.176347877216873 0.0
8.324858098380334 3.152966249334499 0.0
8.145556596142626 2.609897633546475 0.0
8.970652052821418 7.804556541250797 0.0
9.033737629244714 7.681328986528639 0.0
9.62347010002576 4.796939565664328 0.0
9.72520380348743 4.790261082613535 0.0
4.882631186210167 5.455006233451049 0.0
4.618356368594037 3.933076284395493 0.0
4.748083507220199 4.151025177732873 0.0
4.641724290430313 4.358202249373887 0.0
4.87055838101999 4.337900676660481 0.0
4.974114446887331 4.149149057174687 0.0
5.081577844806959 4.3240148266423 0.0
5.179521650033781 4.148725180298481 0.0
5.276261408871418 4.316673822529601 0.0
5.369189110897883 4.148362797753505 0.0
5.463892033849439 4.338819369807593 0.0
5.550828466075906 4.146274465971151 0.0
5.646554822352869 4.303571429647391 0.0
5.728109623160046 4.138582010823754 0.0
5.821689108984419 4.291959598724587 0.0
5.906082534948073 4.141649907302701 0.0
5.99655838673762 4.288752711512514 0.0
6.077312859438928 4.141011188943332 0.0
6.164215275138099 4.281164574562373 0.0
6.241782344986693 4.140701084167517 0.0
6.324316420613108 4.277393447415522 0.0
6.40284165425941 4.140026953305852 0.0
6.483655157361099 4.273418937894759 0.0
6.561170698911611 4.136221843106807 0.0
6.63512300179586 4.269917278694155 0.0
6.720306110251473 4.133393659385058 0.0
6.63777078218551 3.99617001426095 0.0
6.802492763973074 3.994355399489989 0.0
6.798834760478153 4.276914787769972 0.0
6.15377608509923 4.000134206628027 0.0
6.548727135071258 4.400510710520637 0.0
6.251479300130713 4.421887359316258 0.0
5.275876048175579 3.979624500657822 0.0
5.910905077162284 4.431174408784691 0.0
6.717070288412452 3.851239795555301 0.0
6.883499045994213 3.852555480300214 0.0
6.96664848901999 3.994033961856844 0.0
7.048208567116626 3.854750001965969 0.0
5.810004974283072 3.982497501655442 0.0
5.586615391658107 4.471070246359201 0.0
6.547331954052155 3.853872077215347 0.0
5.179081233207816 4.485638492900557 0.0
7.126615227065496 3.995337770596979 0.0
7.209459742762513 3.856893463870469 0.0
7.130226097876905 3.713620439679428 0.0
6.63075064074106 3.699684148676045 0.0
6.446985573861992 3.697358756862005 0.0
7.043151422977365 4.131713936060725 0.0
7.198322215260019 4.129850614748363 0.0
7.119378405252723 4.26005098890218 0.0
4.797146270976422 4.525762781577414 0.0
4.608329098388589 4.573584257851931 0.0
7.294442092743627 3.720853338661503 0.0
7.215753312764997 3.571378507508807 0.0
7.049631633956289 3.568047985538775 0.0
7.133765707749521 3.414282375958479 0.0
9.755079417839903 5.539705890434435 0.0
9.698955703441971 5.450920012703194 0.0
9.717604099406742 9.09084770432896 0.0
9.276716006673976 5.847248422342224 0.0
9.339081208926798 5.941174203394446 0.0
9.031261921742963 3.750271483819014 0.0
9.08721978689863 3.853416037308712 0.0
4.801461566647803 7.510704110489921 0.0
8.206553504932042 5.818005960412773 0.0
7.362361315389098 3.863102442315545 0.0
9.492826845316191 2.963845037486267 0.0
9.376710375304633 2.97229517374228 0.0
9.3192743723601 3.070687802230453 0.0
7.915389082113898 6.293241865913004 0.0
6.735006382384437 5.832450056405368 0.0
8.456481836836168 4.35369289249905 0.0
8.517718268476031 4.246675068616396 0.0
5.583512022030555 5.411069060406398 0.0
5.73625200174779 5.422617752052123 0.0
5.81006929286229 5.548584937688919 0.0
5.903438861894402 5.420604003204523 0.0
5.43801870974416 5.402925156167655 0.0
7.022641548594327 5.825217331839047 0.0
7.165095795605366 5.826005223633447 0.0
7.223078558430726 5.690146755650336 0.0
7.841396000338385 4.586693006493787 0.0
7.904793170875705 4.690826189066096 0.0
7.785999820520073 4.696719777099973 0.0
7.846448506395101 4.798518978096564 0.0
7.728149182067156 4.803800941124008 0.0
7.788983823826226 4.904802634695232 0.0
7.672018889153144 4.910077510508749 0.0
7.731996012352178 5.014717724244488 0.0
7.852072803124419 5.00743796185411 0.0
7.779278698005006 5.118909346425974 0.0
8.088113864063853 5.605434545811022 0.0
8.016457362785575 5.494849890158723 0.0
8.072290383394757 5.385594956317259 0.0
7.95068657972964 5.38825563681957 0.0
8.309366678475389 1.438342408757099 0.0
9.748160780780179 1.447794693754379 0.0
9.696454228162398 1.337889922375316 0.0
9.568813761940916 1.329560834053294 0.0
9.638326779791626 1.226729570935787 0.0
8.472132467407484 5.182856496818138 0.0
8.066211547412054 6.53691730655352 0.0
8.217035586462373 6.522976700918602 0.0
3.544839338670893 3.324491119989469 0.0
6.999740002965287 5.347729916247808 0.0
6.874544698914502 5.347027470386579 0.0
4.880451234715014 5.193043717957879 0.0
9.104510033763066 9.313204713465637 0.0
9.0466357104558 9.45359399494339 0.0
9.146803165140184 9.569652364413551 0.0
8.134107047896672 0.5527712356100052 0.0
8.369770412730738 0.5571215815175228 0.0
8.47386979744655 0.7564607169846485 0.0
8.585193608569258 0.5749174254532757 0.0
8.683868132726584 0.75505070091701 0.0
8.787381435061018 0.5813987798627239 0.0
8.697570280442534 0.3771156480326233 0.0
8.530048434259976 5.077280516000916 0.0
7.995091351438729 2.90367515012593 0.0
9.731083608815164 1.662638626153251 0.0
7.260488865351954 4.255073962371814 0.0
9.760728358076392 8.990038509880067 0.0
9.716710396257366 8.884160310398862 0.0
8.794627466210242 7.369659405098349 0.0
8.868068657550866 7.515048014893154 0.0
8.702594597629135 7.510501129643432 0.0
5.132320689147051 0.7610757801158905 0.0
9.755852887652699 3.853180024615871 0.0
9.787424819067885 2.757921105725315 0.0
9.731193479931608 0.3736343090103709 0.0
9.796526908308536 0.489684029254899 0.0
8.226019692057042 2.453349105940535 0.0
4.560989821496479 5.428206018250252 0.0
4.348810639659689 5.517048281386008 0.0
8.785190163106925 7.119142251269924 0.0
9.015515413043023 7.464769766852701 0.0
9.754861440190705 3.659036930324926 0.0
9.7543610723378 4.033687839160082 0.0
9.707881226943384 4.127219992296752 0.0
9.52841017383273 8.309020665649431 0.0
9.65186044414544 8.289498614805698 0.0
9.714051275521857 8.173576484362068 0.0
8.209758892476394 8.715513071423135 0.0
8.097084883671858 8.548851201381087 0.0
8.177989947800599 8.367872862579052 0.0
7.974142434808908 8.36779470623567 0.0
8.409012054919861 2.142624252464372 0.0
7.707002321497132 8.039129945341395 0.0
7.574653123518228 7.83895791570255 0.0
9.229858094382692 5.951357214361815 0.0
9.75307989876696 1.229893222503321 0.0
9.715811155868643 1.128779429890018 0.0
9.597960915003707 1.117058287635912 0.0
9.672063923518955 1.020806103150243 0.0
8.99090422125785 9.593878510105375 0.0
8.133165456134304 9.257620998029804 0.0
7.976779931497633 9.420725324095141 0.0
9.77231778617502 7.927819487779705 0.0
7.957213679655531 4.364530256281665 0.0
9.609903116082736 8.403725680286847 0.0
9.724891358972584 8.388392708395173 0.0
9.687487059868507 8.495935345161797 0.0
9.810055520269009 8.494090598382963 0.0
9.755967487162335 8.599790818513082 0.0
9.645698986824481 8.606121319182705 0.0
9.721376049217765 8.699989876681524 0.0
9.773009257015609 4.884557953188837 0.0
9.830105798750992 4.796546393900876 0.0
9.775335108731761 4.686093304257503 0.0
7.455611517737074 3.730099283949135 0.0
8.906943567829634 0.4197477661467797 0.0
8.980613334153533 0.5814185917581446 0.0
9.081059111759728 0.4263421860552371 0.0
9.821654809259165 3.576985724143072 0.0
9.761309244784803 3.4792267780002 0.0
9.763329553045937 9.353068233045157 0.0
4.463051839136694 1.164440352584939 0.0
8.0213168204867 5.283436382300235 0.0
7.89385412333227 5.290429544753158 0.0
5.806940001023414 8.583716119232427 0.0
5.88977793877374 8.96065112858812 0.0
9.177759062826041 8.25539130897928 0.0
9.626582559276994 2.05283181283147 0.0
9.747673294325121 2.064954301745188 0.0
8.775905508647185 6.951821187702613 0.0
2.3581644273991 6.029034686663493 0.0
9.777798009058461 9.548066962498762 0.0
9.737129197219856 9.662299853506903 0.0
9.615080366030512 9.683349544763068 0.0
3.315839678697904 6.042943273456425 0.0
8.915083018115329 7.937748428923896 0.0
9.489832173860055 4.712364754630572 0.0
8.118313727862493 8.013944064029838 0.0
8.902248750797776 7.67372145952523 0.0
8.954075939212636 3.463080912810881 0.0
9.45247551997678 2.133243108303608 0.0
8.311151553157742 8.899233004613622 0.0
3.28672004268868 6.826745674539142 0.0
9.86008383798735 3.468233656255824 0.0
8.389990589860254 1.947086063498656 0.0
7.144231739553659 5.329544660076687 0.0
9.654500729007207 7.743301971143119 0.0
9.761920842881946 7.740144345898896 0.0
9.692820773976567 0.2651585113981998 0.0
9.690951720399688 6.100517071814821 0.0
9.775704281989471 6.077882312279847 0.0
9.823117117198079 4.115168542267924 0.0
9.764391943581737 4.214465954230587 0.0
9.659455011849253 4.218716850797838 0.0
9.713462125022623 4.30742830316693 0.0
9.849638067150842 4.208845651573708 0.0
6.376241713254513 3.858766051594979 0.0
6.274931849158213 3.701528298009006 0.0
7.097780104117746 1.926449727602711 0.0
2.457742027508782 3.810157622192786 0.0
2.963634206580268 3.740748099915693 0.0
5.065585416063965 5.544355730437482 0.0
9.783560252464587 7.566507987677117 0.0
9.825819294611026 7.470942204664841 0.0
9.799976114123012 1.01659516618323 0.0
9.745559590633832 0.9150866860898854 0.0
8.20473400632469 9.495828670767946 0.0
8.784586030320169 2.054461500762216 0.0
8.758471587067168 1.888286802854785 0.0
0.9188935087347281 8.510730800272478 0.0
9.674192026048217 9.20389587377276 0.0
9.796314981283475 9.185916994648775 0.0
7.206882433199502 5.452024361489832 0.0
9.773927048949279 6.334665846819535 0.0
9.830288393591173 6.225300227041885 0.0
8.25177349297509 3.282767705830209 0.0
8.099233469407428 3.304040153764131 0.0
9.607860512870598 4.315652630490023 0.0
9.403674738018715 8.367349042046314 0.0
7.611756786273919 5.018691202305147 0.0
7.549513964643336 4.923310232561835 0.0
9.80986724662116 0.2915868356190958 0.0
0.7757562810577034 3.504187313079081 0.0
7.659562100664981 4.698467529240196 0.0
6.539424975891206 3.541729955691742 0.0
6.717348880400739 3.55221857686142 0.0
6.836337579501807 2.417476958454302 0.0
7.096480496160066 5.959124656438389 0.0
7.189742782777612 4.377051328076039 0.0
7.051723187622053 4.38470822973091 0.0
7.125489805519186 4.497018383456762 0.0
6.994915621927777 4.501504591168814 0.0
7.056755276274058 4.607929817497045 0.0
6.932937068803914 4.613249390039674 0.0
6.86629288290367 4.50541343988659 0.0
6.80427099775847 4.617607827251794 0.0
6.739195362053689 4.511124964201849 0.0
6.677260697693361 4.624288827143181 0.0
6.996760608675822 4.711715831373894 0.0
6.316045249462968 0.6456945497683586 0.0
7.321834163850416 5.816449323512759 0.0
7.833101485370825 4.390058096386987 0.0
4.996572652976738 4.498711166259074 0.0
5.112334577457371 4.663858846723513 0.0
5.271923064784868 4.629759173373871 0.0
4.93773508827367 4.668006487116195 0.0
5.348137647919096 4.485934621930562 0.0
5.413454827497575 4.62999925573761 0.0
5.356581113747675 4.770594395332836 0.0
5.013422223730484 4.793321773780133 0.0
8.58674425943957 0.9312335381466886 0.0
8.776450596582496 0.9362399987293505 0.0
4.783496233934828 9.486061758876032 0.0
4.544176394620909 9.034071856445296 0.0
4.082330493623582 9.015765881393772 0.0
9.820867469965414 7.285959215547852 0.0
9.852697883440127 7.166089674802766 0.0
9.260999083164238 2.971390964911171 0.0
9.197701900169713 3.073162109379564 0.0
9.31960210441945 2.867465579641856 0.0
6.660951583415121 3.383363199709994 0.0
5.210469976037585 4.761678854423166 0.0
6.740780285297665 4.733615686805694 0.0
6.611362405615225 4.731958642073806 0.0
6.549091884465382 4.629620704100811 0.0
6.491761716522486 4.733409494449344 0.0
6.425259228542098 4.640546096196947 0.0
9.715556659367534 2.986725573570596 0.0
3.710524324925069 9.463213827486557 0.0
4.768537031214573 4.727001037865238 0.0
5.039413681704655 5.378508462165627 0.0
5.188746429211535 5.440476671296013 0.0
5.172214816037712 5.298914527247826 0.0
4.469063601436893 3.667917323494335 0.0
3.799121596584382 4.741629285988305 0.0
3.661085664896249 4.442847704416992 0.0
3.316563386321876 4.380147387454913 0.0
3.802087298647255 5.26743535640985 0.0
9.738116341343215 8.047178982429934 0.0
9.85106076399546 8.021725551312715 0.0
9.837581050304836 2.844176011307251 0.0
9.664579962075123 4.402853107737106 0.0
9.76433159763034 4.39807801415352 0.0
9.718924973226878 4.487825491046641 0.0
9.826405563645343 4.494594135148365 0.0
4.931068003413168 6.359330991212394 0.0
5.130175746947236 6.201075257041828 0.0
5.143884286052002 6.445382329515047 0.0
4.953395875296406 6.628748468717369 0.0
7.833019185167153 5.400347121613631 0.0
7.766636138801143 5.313240048256084 0.0
9.767038723422333 4.578090619166644 0.0
7.315369355237483 3.441501197259575 0.0
9.556068971301514 0.2347811136726856 0.0
5.733871280791703 4.444861510772459 0.0
5.828809543126846 4.569791247698539 0.0
5.986701526182213 4.562881783985375 0.0
5.912543327921148 4.692966271273211 0.0
6.052130330528581 4.682477327897978 0.0
5.773525984744635 4.697697018456535 0.0
6.121646311546238 4.572302645403103 0.0
6.182349700936326 4.67713231096357 0.0
5.846371383601797 4.808939734754761 0.0
5.117807918383606 5.974361363083184 0.0
6.256132501905665 4.575863546153224 0.0
6.324770064521816 9.645040261272253 0.0
7.345522892050965 4.12581088034536 0.0
9.338523512844539 4.854480276600515 0.0
9.286984287289403 4.959628690044808 0.0
5.676298026114105 4.589279806918992 0.0
5.631257891894775 4.722749088404111 0.0
7.970415275563177 5.621040275419208 0.0
9.565118337557308 7.081391220827488 0.0
9.626201005045262 6.980441083020495 0.0
9.733729506193331 6.979928568877979 0.0
9.684556253529976 6.887102896543928 0.0
9.780785815410074 6.890287441101827 0.0
9.740054813822885 6.794211367612523 0.0
6.462628988057306 7.629921412015864 0.0
6.692564520952154 7.473594130811262 0.0
6.927983108788191 7.570982428592125 0.0
6.899878641134941 7.329306734748538 0.0
7.117542472438434 7.416951094809493 0.0
7.089537168123128 7.186691566729968 0.0
7.296585396514727 7.275888419524222 0.0
6.879678873774065 7.097443005287856 0.0
7.063454637059129 6.967740076426161 0.0
7.329105042924355 7.496317641003757 0.0
6.867084781778411 6.878842928865059 0.0
7.494278796275744 7.351949197351029 0.0
7.462564159480594 7.150140034494138 0.0
7.644835001206406 7.21506678718646 0.0
6.682478929414216 7.008358327294905 0.0
6.449199855715812 7.365660640952548 0.0
7.548139855358765 7.57299228324251 0.0
7.008502809092701 7.844601794812628 0.0
7.371739019901781 7.707688433423657 0.0
5.665345294602155 5.290628720253272 0.0
3.987583013016546 4.486920698115711 0.0
8.893480480320447 0.7785000884179994 0.0
9.715485963651112 0.5955299613117169 0.0
9.761785841543585 0.7048670948649375 0.0
9.670304314877074 4.578896619304786 0.0
8.058509626083154 5.744161686650483 0.0
6.181795443628869 5.462040811515966 0.0
6.256771804808641 5.338464817889848 0.0
6.124070400983443 5.352376180901929 0.0
6.399679261813415 5.349186390888865 0.0
6.477776305607503 5.46505688468465 0.0
6.541624525938461 5.346017118512589 0.0
6.673064575428321 5.339051516933525 0.0
6.599301548842115 5.241958624987057 0.0
9.573774011620444 0.815274945835158 0.0
5.86493292693426 5.877588788523632 0.0
5.552663040119136 6.957487930464628 0.0
5.535080960199246 6.663033131707637 0.0
3.708603689392072 0.5979254716153909 0.0
3.31896983256719 1.188583855309964 0.0
3.895664898001925 1.128137111173669 0.0
6.363360407965353 6.032416442205533 0.0
9.445959758065749 1.070139246426051 0.0
9.50632172780449 1.214052376665338 0.0
9.441030033980638 1.325047485624912 0.0
9.295799464644857 1.341410624832976 0.0
9.184164107767781 1.461677744200096 0.0
6.407191016756832 4.407273313799791 0.0
5.544591888593027 0.7652641669375747 0.0
7.883090151006535 2.497506182548758 0.0
8.073420508370992 2.120510489750234 0.0
5.494822040671399 4.732314720081375 0.0
0.8986976806403217 1.464611451578306 0.0
9.536325549598013 6.83286654168725 0.0
5.972289519322897 5.727532110854501 0.0
9.82203607053145 9.443411729566549 0.0
7.263199949874008 7.064207941227515 0.0
7.233659553805083 6.853135694774254 0.0
9.793310082768443 7.072747972018893 0.0
6.734168931095253 9.67499220075154 0.0
6.941134861034159 9.382328333169653 0.0
7.285822522704258 9.443989747444657 0.0
6.576263515512108 9.333035011158342 0.0
7.160560566479093 9.127732577621245 0.0
6.218711947378506 9.298064908857533 0.0
6.432383355119106 8.980985203293491 0.0
6.795390278360442 9.046043538032663 0.0
8.54677014121837 0.1957422484480979 0.0
8.528696320820908 9.804850950580938 0.0
8.42644965647489 9.604735484095604 0.0
8.010239224104339 9.715048083583248 0.0
8.644359648763341 9.628432815860457 0.0
5.344212921686536 5.526744195650314 0.0
9.760936589662048 7.38409687515441 0.0
9.128187788393989 0.1445485608215519 0.0
9.133307661752394 9.854833215426817 0.0
4.867351616228264 3.944459575003425 0.0
5.905323253270366 7.385600364255367 0.0
5.909045412185362 3.361969954191194 0.0
5.80580919758911 3.569999290452344 0.0
5.578230704221431 3.587842862412673 0.0
6.013352753603037 3.550699073477782 0.0
5.936624955014758 3.721630401607248 0.0
5.735413275357409 3.78528948606432 0.0
5.512538847486775 3.794760621907932 0.0
5.360571639388366 3.618649018042938 0.0
5.134141179590394 3.459385929220745 0.0
6.167399567008798 3.367365990358096 0.0
9.766756262206602 8.291756450136036 0.0
5.486063578307141 9.64505925252771 0.0
9.497624614180321 4.328873442170357 0.0
9.811387324954623 1.570516917365688 0.0
9.389210081887331 4.69150887571586 0.0
9.704395728912932 3.754226393630331 0.0
9.808172776193384 3.748784464356272 0.0
6.549660911932182 4.839747932361234 0.0
6.757415124099031 6.077939876843736 0.0
3.805578542126494 8.040840085419626 0.0
4.232580149691158 8.198659880701744 0.0
4.559765382564095 7.87091698350757 0.0
8.3829075948167 0.9495097054886067 0.0
9.8571301061408 1.456307792614791 0.0
2.005900212453279 4.535525273813588 0.0
1.85904408608185 3.956445706785572 0.0
1.979307922430775 5.474327285927505 0.0
4.387923194305381 4.427191306527721 0.0
9.429258370703248 8.873693567695483 0.0
8.99196583083892 4.664567567015693 0.0
3.050357122593155 5.368999067452741 0.0
2.861107385476722 5.785089447130829 0.0
5.005058958272409 3.711196438448062 0.0
9.8972295764837 2.755337284632969 0.0
9.581048890980513 8.853909321617065 0.0
9.668838904423916 1.762418716497425 0.0
9.716576458425756 1.852218615166234 0.0
9.799043132681442 1.780583141193779 0.0
7.661868217848455 2.880323287492419 0.0
6.780136552904057 5.443858690999834 0.0
6.489544866845868 5.913957888434588 0.0
6.880149522020364 4.134257616716107 0.0
6.970134365280068 4.264072319341612 0.0
2.225481516813409 9.348422240784 0.0
1.843418032490818 8.641605249943353 0.0
2.198000805242772 0.6459947140825729 0.0
8.740020306282506 0.1903932731609072 0.0
6.86957996016679 4.720776242956433 0.0
7.430920333506809 0.2702852342693345 0.0
7.302066064947383 0.6134316505458445 0.0
9.305398039877746 4.64854361125207 0.0
4.078151380865065 5.203425462519088 0.0
4.080704120371218 4.778853303303787 0.0
8.052525541571825 5.965483159581719 0.0
6.367194027835946 4.754896037842673 0.0
8.604191121620719 7.648182513679963 0.0
9.546446695207845 9.234701521982952 0.0
9.018652854946867 3.351011585453845 0.0
9.143853648154607 3.350173119015413 0.0
9.067079866763024 3.245174561579149 0.0
8.991492136849105 3.135578770028028 0.0
9.29603967712795 0.1426516429033488 0.0
9.392428271030795 0.2506306237151588 0.0
9.223973843394301 0.2912279164401488 0.0
8.39375191941536 3.018777714002827 0.0
8.4836475746111 2.88135207267795 0.0
8.741089053946197 9.821127577434911 0.0
9.803966507713174 5.448064463539533 0.0
9.748132240148552 5.359371181503531 0.0
9.850258990973547 5.355211921626304 0.0
9.7965346514158 5.266762244994661 0.0
9.84142096963129 5.171050273734619 0.0
9.738843612428232 5.167483913244169 0.0
9.64168976006725 5.359875132194057 0.0
3.335917453809221 5.671837672982919 0.0
6.962669142802881 1.683222554707996 0.0
7.365210844496719 1.887492842536114 0.0
7.517378971174123 1.677983072937792 0.0
8.00383870208024 6.089394601875145 0.0
1.725435941000569 2.759295503019395 0.0
7.907977929549089 5.102827208603365 0.0
8.052861051278896 0.2683271125209605 0.0
9.80169732768395 3.385443381464333 0.0
9.831597648680848 3.28491948963525 0.0
9.736335895866404 3.316207814499244 0.0
9.597256128490281 3.756160701977744 0.0
8.865819925321706 3.366235906378775 0.0
8.489614436807788 1.757152185195495 0.0
8.88089641144391 1.078983279100314 0.0
7.430923851187758 9.724389499796425 0.0
7.584252919312249 9.509430586267927 0.0
9.744026095940516 2.247117754488748 0.0
9.729961521243718 2.659836747108116 0.0
9.790866569780063 2.558993767350471 0.0
9.736606445116795 2.455104424879619 0.0
9.846806182714698 2.452157456754448 0.0
4.518102112052724 5.141350889745285 0.0
4.519880229178207 4.85678334497067 0.0
9.7302407894617 6.434012603549242 0.0
9.787537474544765 6.523591663056312 0.0
9.744262337067932 6.617499601377625 0.0
9.8406238811518 6.41591236129004 0.0
8.914967252734657 3.579360039684312 0.0
9.154797282599406 5.670753066089419 0.0
4.228839454580575 4.612979739018002 0.0
6.095037541675208 4.42126627187728 0.0
9.304166983880842 9.864854494751789 0.0
9.406445527105628 9.759007358529582 0.0
9.256225114941945 9.700832989525724 0.0
9.796206564635622 2.351215649506205 0.0
9.849373673349081 2.25090453834006 0.0
6.332048155295931 3.511675163099286 0.0
9.069679774213784 3.022879178706259 0.0
9.070599961450037 9.055284879641471 0.0
1.808685691036764 6.331557276533421 0.0
7.120156826652838 4.698481230214924 0.0
7.052894345811342 4.799848851879358 0.0
4.739957520484086 5.369107149361242 0.0
9.389197839958292 7.197139943834638 0.0
9.046688232613976 4.560364044038737 0.0
9.162685461967492 4.562194096410666 0.0
4.227377821420887 1.564128177298305 0.0
9.201090975245227 2.794301402811909 0.0
9.251941624303948 2.677556975242327 0.0
9.186758273070138 2.563916005021366 0.0
9.317609833868786 2.560335260954038 0.0
6.57599191748324 2.437689779955877 0.0
6.305556560534859 2.459112595979303 0.0
6.981058048792093 2.642476994448363 0.0
9.886113463139504 6.510498309609482 0.0
9.250462794607717 6.221362629571698 0.0
9.305373999084068 6.108271307139882 0.0
9.390477915810829 6.228015172491477 0.0
9.44452571968143 6.114582165110393 0.0
9.502105740270528 6.197677857389309 0.0
9.31559697209813 6.331647407124485 0.0
9.370938253597153 6.437386206819511 0.0
9.594764406124872 0.1099001288712305 0.0
9.602872681151728 9.894988341116305 0.0
9.622661196143387 8.076680696281343 0.0
9.769069277144705 5.9102532189237 0.0
2.615076109785583 8.807551523115547 0.0
9.658920005405456 5.730890135691177 0.0
9.76063135061807 5.720703211793342 0.0
8.63963723169499 7.177334225227945 0.0
7.841904391869763 6.41346852896409 0.0
7.764520718520185 6.297267738834625 0.0
9.546492996136271 3.465225175657335 0.0
9.25600964352143 2.219157062786616 0.0
7.625057159226293 7.012987957636062 0.0
9.529121062829038 7.730283486008674 0.0
8.329887090625894 3.845190321147069 0.0
8.265841850823831 3.95687001944245 0.0
8.402006523775544 3.947660780406651 0.0
8.128436391670505 3.968543393650448 0.0
8.46705122470662 3.835767362024195 0.0
8.218867047074696 4.063481375518748 0.0
8.089763413611255 4.08062363292928 0.0
7.939578083855268 4.111915744184436 0.0
3.74991304509639 6.615676756107112 0.0
2.627714335615619 1.170993030860914 0.0
7.046129971268607 6.759930788612616 0.0
8.534603732661887 7.486325780553722 0.0
1.569381386467569 2.042794535871475 0.0
6.228703743210918 1.986421863690014 0.0
6.467030855792859 2.67190498312861 0.0
9.272246093269825 1.975478263632296 0.0
8.05269609263041 3.854522845257449 0.0
8.008595521536957 3.177870309354594 0.0
7.929796740504207 3.350600835935766 0.0
8.048703574664067 3.449582532910417 0.0
9.72947480375618 4.973926800124758 0.0
9.784850360535604 5.072865219810449 0.0
9.896036387646596 5.069261557893528 0.0
9.633140953203334 5.168645132864771 0.0
9.558102991128836 7.602453108835212 0.0
7.278758746505716 3.994295887299482 0.0
8.306681733482405 6.936428510427854 0.0
9.487163072013963 3.757777670075558 0.0
9.532950522284125 5.359403698944497 0.0
9.816036650072329 3.927268437107025 0.0
6.173882586235392 8.734645960664665 0.0
7.972518459433741 5.003005338485466 0.0
8.398453459336153 1.601072016988848 0.0
8.97460527296194 4.040886705742754 0.0
9.037941657530773 4.143578781749325 0.0
8.849604200183613 3.828506169652706 0.0
9.545296177100065 4.042698359132156 0.0
8.595941796785514 5.806754902023664 0.0
8.65588412428292 5.694192853853139 0.0
8.723710665131787 5.801528918332044 0.0
6.861288985046249 6.673713222735126 0.0
8.87477249219366 4.664500928777609 0.0
8.72385765226959 3.608276264790996 0.0
7.145228858696953 5.573648565429618 0.0
7.282945121585866 5.558559688509987 0.0
9.224761401603633 1.602363370249125 0.0
9.609115686587552 2.986868833620756 0.0
9.633989947851914 6.628120633848649 0.0
6.046214325132457 5.45615093027661 0.0
9.017014346798927 5.271996636983457 0.0
9.070824864071271 5.168510834798647 0.0
9.189021391555556 5.166867900487267 0.0
9.123328759137758 5.064718588163964 0.0
9.240587446378079 5.06459430516883 0.0
9.250848280531756 5.267364371053135 0.0
5.773050603406019 5.7192906317521 0.0
8.576466432793914 4.3559007860436 0.0
8.634627802680399 4.253467736542067 0.0
8.461790117175607 5.591735227444779 0.0
8.907610717370224 3.713397213891439 0.0
9.80665594564509 5.628066492225966 0.0
8.985935132601089 4.455263493464225 0.0
9.00640209566022 5.067597672073404 0.0
9.833659276096986 6.976519563917422 0.0
8.0283368553477 4.687271895436317 0.0
8.326580191759327 9.127498457128247 0.0
8.650637373791266 5.07513089931925 0.0
8.701067313435203 2.700069743477523 0.0
4.825307249916392 4.884175191874744 0.0
9.418335984190309 6.858444798015129 0.0
3.91434687300816 8.542956908935874 0.0
5.569239724399552 2.064135034637056 0.0
5.234271567762738 2.128974435011933 0.0
5.757920427527626 2.312422707096966 0.0
5.43365689737979 2.427455772745759 0.0
5.673210219624612 2.602111218343444 0.0
7.214258468265766 6.652783071431555 0.0
9.823626269633962 4.30685540664529 0.0
7.96996639420014 4.794005510174826 0.0
7.616003332725032 0.502676560965646 0.0
3.050634530589821 4.659174799474146 0.0
2.870894249800723 4.246924313393336 0.0
5.285393339952368 6.079037173753393 0.0
9.439954241218905 4.23581687956071 0.0
9.67709722097145 4.710772408106511 0.0
7.40767785509217 4.259947873553335 0.0
8.396202587439676 5.486075637998701 0.0
8.323689688705493 5.372061002264632 0.0
8.191312386254125 5.384662546230823 0.0
5.304380054816289 5.369675374029755 0.0
9.093848379546637 4.047647920840374 0.0
7.916313220758624 3.045043876114836 0.0
8.435854831444637 4.144861908356168 0.0
9.060262453079693 0.7340576053322918 0.0
7.053195520344596 5.238809779682351 0.0
9.621762679347093 2.45205452967588 0.0
8.410730269104743 5.287995309529392 0.0
9.655094569234972 3.472720279371932 0.0
7.982140513923982 6.667914768024983 0.0
8.402690325256646 4.883576657130221 0.0
9.17488654147479 4.962006474835693 0.0
9.013188196102961 8.49700148123058 0.0
9.795977244531603 2.156818021002043 0.0
9.893813711206834 9.545820400859157 0.0
7.965349232662289 4.250048884270795 0.0
8.644264557989125 4.874751532150782 0.0
8.215430976121077 1.26077208565765 0.0
8.379717637669398 8.37324652769609 0.0
9.320026533461409 5.559861899725609 0.0
7.885778178744864 0.4977439426642278 0.0
7.547066983926719 5.125166613071239 0.0
7.657542898944819 5.122996245335209 0.0
7.423918840193691 9.000935553397358 0.0
9.854133000712425 5.541931969512857 0.0
9.328508174398952 2.101486405523264 0.0
9.300749600926641 9.530012105354274 0.0
8.130307182491519 5.277079344947874 0.0
8.346752967392757 4.987627363826086 0.0
9.118404185029991 6.007087846617186 0.0
9.048232213728614 5.89431792713258 0.0
9.088340967655858 5.576242562571367 0.0
8.094762487139027 4.789727191449318 0.0
9.915265904493378 5.749591413470928 0.0
9.92169805280126 6.154216704502091 0.0
9.918022441582268 4.549125436287157 0.0
9.919332362905616 4.849536560132457 0.0
9.914800786693318 6.750595509794719 0.0
9.811792900437824 6.703950687575952 0.0
9.900643083988882 3.749855087409844 0.0
9.912423171222734 3.043228996968949 0.0
9.91892875832665 5.949999999993851 0.0
9.913300070218703 3.960831593817277 0.0
7.709347001661226 4.444236534782706 0.0
7.479443107717332 8.071637285053104 0.0
8.839057072155848 6.807845119358974 0.0
8.972330068019902 6.78765448182788 0.0
8.542093772125282 3.941452413628317 0.0
8.279144752968262 5.930387616620717 0.0
9.393455876855919 4.973162505621418 0.0
9.507123333872533 2.855087674515822 0.0
8.77504684283825 2.317347145885344 0.0
8.394133129040345 4.464046960801843 0.0
5.725509852450801 8.210843960481027 0.0
5.62632390239664 3.967637659758752 0.0
7.910815814627989 4.900765971697654 0.0
8.595808444085467 5.590040244353608 0.0
9.705160502006024 0.8106158419444889 0.0
9.82021247904746 0.808810893177099 0.0
9.218352146075844 4.447736986422823 0.0
9.20781892622228 3.858281726888132 0.0
8.713609974387523 5.178241668554946 0.0
3.55755059259364 8.921522400238844 0.0
9.59122926011489 5.452844834281716 0.0
9.70565100407009 9.77887811062354 0.0
9.826938454219809 9.74303055702321 0.0
7.238962096855633 3.278078153406256 0.0
8.575609105166194 4.567807831727537 0.0
8.936449841121737 4.765835458965493 0.0
5.59323463391086 9.248527978398117 0.0
5.280809113285124 4.886132326418428 0.0
9.328132730893216 6.544753806716806 0.0
9.026944889277736 6.67247283515637 0.0
9.81946239021469 3.007926663525007 0.0
8.677633568960493 6.144049349297466 0.0
8.33427489656924 4.571212803519522 0.0
8.55734024448315 6.382535186588269 0.0
8.692399379422756 6.372347713955898 0.0
8.495817478252626 6.503308565233578 0.0
9.905494734661673 2.544078755559835 0.0
6.177101405266569 7.228490244483556 0.0
9.825373011845263 5.807482724503027 0.0
9.808678508609606 8.118683092442964 0.0
8.397717712407108 7.08010313863416 0.0
7.428555529689225 4.935946611338556 0.0
9.575504958128711 6.125633853639113 0.0
9.154066996197898 4.146562596982661 0.0
8.074381802159323 4.337569667261167 0.0
7.018337246891919 8.843475095716133 0.0
7.970627172560641 2.658650028065857 0.0
7.382546388883145 6.723381543491632 0.0
6.822972334933889 4.884555620881615 0.0
8.343732976791593 6.041576709398377 0.0
7.743680217306919 8.423336160305476 0.0
8.505717922983454 1.115022897794028 0.0
9.113973198216474 6.992972408167606 0.0
5.818882632841168 5.300437503812764 0.0
5.951991891717714 5.279516346785062 0.0
9.450183479138845 5.92934813870612 0.0
8.783346541536119 5.48419035750989 0.0
9.38074895894124 5.65076274999803 0.0
9.513658728876734 7.193620441323493 0.0
6.396040948797887 6.776064256962667 0.0
5.389661780244388 4.89715084345563 0.0
4.473247649068957 5.85935163892416 0.0
9.249586607512612 8.37680799459232 0.0
9.103796366487646 8.379197231055114 0.0
6.274057301184156 4.87985402946409 0.0
9.259628836118232 3.561431822636308 0.0
4.037922477011971 5.489409780163391 0.0
5.62712958624254 4.893925433488392 0.0
8.806426003347967 6.133410188141932 0.0
9.53304466499349 9.59279975429444 0.0
9.542890959420024 1.966631379116419 0.0
7.459736176874619 5.863847835420528 0.0
5.937613117200432 4.89232797168023 0.0
6.171611131472617 4.879541833448487 0.0
6.100695199816815 2.291172318314745 0.0
2.315194906726768 8.081958163666464 0.0
6.878489987598286 5.148099521847569 0.0
9.105264414399338 8.639184652727645 0.0
9.20047261316883 3.457820810661327 0.0
9.895329010385955 7.55944047105717 0.0
9.912742873006831 7.76210330502246 0.0
9.37761459375249 3.168397068877758 0.0
8.946121261512507 6.345629828835438 0.0
9.918632496443566 4.449809517365367 0.0
6.848211525651934 5.945010613369067 0.0
9.915721525903255 2.047407395915179 0.0
6.117255841708726 5.163321965161054 0.0
7.276595248786602 5.347247322210079 0.0
6.32682869954104 5.23674259421017 0.0
8.785886448438022 5.692775375342819 0.0
9.099994401883361 6.776698531382792 0.0
9.913397459621638 0.2499999999998165 0.0
9.910352525643928 0.4481571029410266 0.0
9.907850422008579 0.5479735220323012 0.0
9.911983631350465 9.24778487019403 0.0
9.917634740384067 0.7514684821956668 0.0
9.195214232985496 3.254172408378337 0.0
5.000896927376288 1.846006038077654 0.0
9.917172478547403 8.250155740683276 0.0
9.908120476950126 1.742986232208194 0.0
9.914524635720774 1.949567899316728 0.0
9.907358878377153 9.145625165175748 0.0
9.917695944922635 8.949999999998397 0.0
7.648387553139914 5.325741673607362 0.0
9.605343588986079 4.130627398479715 0.0
6.648113233057817 6.774798386229164 0.0
9.910347203087213 8.446729917003672 0.0
9.913623694530468 8.548470085896316 0.0
9.9201245863254 1.536225488581779 0.0
9.906538426683255 1.059019360781604 0.0
9.912867352010919 8.74999999999809 0.0
9.799662981388353 8.79550485462418 0.0
9.831828680383174 5.99966894118311 0.0
9.91414179906643 1.263025320602998 0.0
9.920690092699912 7.240982963665807 0.0
9.385889285950551 2.235126904097426 0.0
9.28133998925606 8.00415195851526 0.0
9.817074723108401 3.172398890123306 0.0
9.482030285089927 7.512954023388035 0.0
6.682432918504054 7.233889573028878 0.0
8.528699633246763 3.260502457553277 0.0
8.91699963742029 2.327016692708648 0.0
9.267676068834481 3.954520684561369 0.0
8.70811637467455 4.974101624783084 0.0
8.18184214270768 7.816666208279135 0.0
9.690393137288163 5.264344933127836 0.0
6.937111790104696 5.245184991960528 0.0
5.895846026722989 5.174232967273284 0.0
8.281683356622615 6.400073017261236 0.0
9.150883172924027 7.444273543454419 0.0
5.430406600793122 3.390815886517273 0.0
5.049583827974758 5.697634876048387 0.0
8.3966710383105 3.495813899905868 0.0
9.007538428392454 8.046563579784266 0.0
4.645155158868719 2.637132843684674 0.0
4.887444326771336 2.30020425915506 0.0
6.483736782775559 4.522536327482678 0.0
7.843169154548308 8.2116075844056 0.0
5.06295551628385 4.901632590583318 0.0
7.201400991012747 5.138239336380897 0.0
8.519791031104612 8.848807089071627 0.0
8.658623737989732 3.031313729049854 0.0
7.585566208322493 3.629882964874684 0.0
8.411818469596405 6.834326722716643 0.0
9.172363528634236 7.669230647622864 0.0
8.85455683341768 2.682483055215344 0.0
9.359398739738925 1.631421337140716 0.0
9.071793864444992 7.337030604117359 0.0
6.968394563521436 3.712808894519514 0.0
7.899236117684646 7.094583340182754 0.0
9.54362864504834 9.781852543872333 0.0
7.151298729743687 7.644795130415299 0.0
5.452218361466201 5.186873761308322 0.0
5.517642289161902 5.293540933999446 0.0
7.802500357665464 5.978295671754199 0.0
6.594850839687122 8.491429270558893 0.0
6.029132431949566 8.294997405201931 0.0
9.31286590869111 0.5672913838331921 0.0
9.25238720319541 0.4415953739444106 0.0
9.550589523211062 4.228044955453704 0.0
8.748611832783206 6.250900951984038 0.0
7.566980108995873 3.995148257893202 0.0
7.426142759241261 3.996743578498081 0.0
6.478912513785404 4.000296412419969 0.0
9.30435638148753 5.168210982711592 0.0
7.542154188520517 5.752525075248498 0.0
7.219033852073297 2.139582470800704 0.0
7.370913620388047 6.545121498197235 0.0
5.226731036024996 5.187572666585561 0.0
8.515591031124366 4.462223215179979 0.0
6.762864307079274 0.3078036604979366 0.0
8.587432696997471 4.977010533175154 0.0
8.703948448756302 8.815629076400704 0.0
8.081003990931544 7.370949680119862 0.0
7.424404567669909 6.949730915714445 0.0
8.578903262311433 8.377992954045473 0.0
7.301258690263783 6.106184350645308 0.0
5.991600556904204 3.99820087171043 0.0
8.203048538477193 1.601044215405025 0.0
7.289972483120081 4.572350254111052 0.0
7.714697186439165 5.420586967696794 0.0
8.918853780709807 1.841796898567452 0.0
9.919941345877513 4.749808449067644 0.0
7.245589454939737 5.94251251443003 0.0
9.258480524497795 3.358952871140391 0.0
3.705877615124628 5.574038727593425 0.0
8.287096858129765 7.962370605242409 0.0
6.799629860952143 3.705385600481528 0.0
4.146753450763018 6.544154457143895 0.0
7.413973555029582 5.545687501585183 0.0
8.466524978378082 4.980481756569235 0.0
7.336312153537934 2.337983522449311 0.0
7.695505222753409 3.747498713679684 0.0
4.898236813123799 4.795853653580084 0.0
4.59779105899602 1.896916774247134 0.0
8.560170375862322 7.072369101894893 0.0
8.386150468360862 2.449771437140704 0.0
8.41200018115259 5.084601315536367 0.0
5.102189912301071 7.621598618277815 0.0
8.336320418935243 6.71651223072348 0.0
5.081745734883095 3.977838926197614 0.0
7.63590698378166 0.9500570055008507 0.0
7.743369677149255 3.051233984704873 0.0
5.357527459690566 0.3809996753407537 0.0
5.967373112873382 0.7731113464301924 0.0
8.169449265206127 6.666271947462212 0.0
5.95122726745053 5.55758205410881 0.0
9.922289489207834 3.53923011719877 0.0
9.39154684476555 2.659037023454942 0.0
7.701415639167884 7.690060291860976 0.0
9.819179654793023 1.329863870021845 0.0
8.358229579054417 6.506108206863729 0.0
9.269720555169467 5.657096143475924 0.0
4.473187658045934 7.435037860084884 0.0
9.65807158077373 3.255496360750368 0.0
9.605155446454205 8.713645566904637 0.0
7.097383547728313 5.141197376985936 0.0
9.812212483832656 1.89920712759492 0.0
9.83875570675407 6.81603549325055 0.0
8.926246869879279 2.079976511571457 0.0
9.166785856141402 9.169070814302419 0.0
8.763479010228052 1.587152667342957 0.0
5.957377924852992 6.404530806530254 0.0
7.14506854375872 6.10342416684208 0.0
5.672595070581394 5.164323323112049 0.0
4.899782787268781 0.3801727265981219 0.0
4.447133848117348 4.673614099606824 0.0
7.044865074789195 3.253639989243549 0.0
9.818461337102992 7.819456450952447 0.0
9.925334577033155 7.954012377173311 0.0
6.352907898232792 1.173665225954276 0.0
7.351721385581032 5.660361289755705 0.0
9.337367583861807 2.76534436379692 0.0
8.693118347802024 4.360254099729149 0.0
9.476812970101324 0.3524826622168163 0.0
7.109868985890334 0.9024224571333925 0.0
7.899106846231403 5.511805431542581 0.0
8.352799544476607 5.187887629361129 0.0
6.957483547582747 0.6176251309213842 0.0
8.099559500483094 1.412323841044818 0.0
9.913030944540278 0.8542404645334569 0.0
9.143075088381442 8.022165366829135 0.0
8.819861450593166 6.356592599428041 0.0
9.319444417409162 1.49938505915629 0.0
6.490262520326714 7.118204362551877 0.0
6.490874470087819 6.582907761235813 0.0
9.82506653058937 0.6146757679104559 0.0
6.803129818897624 4.419048038171804 0.0
9.840901379354312 0.08198751964190581 0.0
9.839740374244226 9.918356239418472 0.0
8.551927134544655 9.449788917425456 0.0
9.92097857388158 3.249999999993177 0.0
5.797087413057367 7.077351493358238 0.0
9.255412859987286 6.433984412022419 0.0
8.668174522249984 1.740767926084485 0.0
9.920991430240607 6.25262219124529 0.0
7.57275248448898 1.94367954756322 0.0
8.052865444445507 8.19900054463639 0.0
8.748697149245206 4.25201068974208 0.0
9.158270227735827 0.5542256343091421 0.0
5.997487767477439 4.787924707603557 0.0
6.119759900601896 4.78043793682227 0.0
4.353034750397793 8.619182743639561 0.0
8.721093521611476 5.588932824583312 0.0
5.717101151444983 1.123034066822819 0.0
9.825602081347064 8.68753399402474 0.0
8.005502510832988 8.7824052910506 0.0
5.548184234622668 6.408009287230429 0.0
5.77830300433981 6.598697187164234 0.0
9.613093825495433 4.50282172481406 0.0
9.928981132641653 9.74928475696928 0.0
6.613628176297015 4.515513362596662 0.0
1.822126723816303 1.297795131355289 0.0
9.514164594137375 1.43081427463862 0.0
4.735494753432723 3.698541604583975 0.0
9.52844959749262 8.615213629960298 0.0
4.660704511759056 0.7947595073298008 0.0
6.82340845160293 5.239926830264399 0.0
7.885938077030673 7.380147032865134 0.0
7.884599891021201 6.09005968568029 0.0
8.846834820720167 9.653276456345532 0.0
8.457777199486827 0.3851010632068662 0.0
6.66485224572131 8.771510767670392 0.0
9.091499342133352 9.708315832477556 0.0
9.824286725109655 4.976315293637262 0.0
7.848197684391786 5.632217046637356 0.0
3.88430598115417 4.225391362015386 0.0
8.776890759183289 2.809688928468134 0.0
7.393884285023409 3.59397875231041 0.0
6.927568893329758 4.396788356869783 0.0
4.96854327720728 2.662368428358774 0.0
9.1480130720193 3.951479613991279 0.0
7.071049729490975 2.38092990636632 0.0
3.40193058782919 1.686321186206593 0.0
7.612042194200681 4.815904436723407 0.0
9.043395868401339 6.888481825015849 0.0
9.098933057562759 8.152197681006806 0.0
6.058682303253315 3.857501492181965 0.0
3.707092669281355 2.986685502034343 0.0
5.113272509841263 5.189455016444592 0.0
6.960565857079232 3.416349532571279 0.0
8.755151527375476 7.649255597361291 0.0
3.393680865444538 3.679982303262531 0.0
3.117424600120088 3.35605258976247 0.0
8.530814041264104 5.488376426140491 0.0
4.820719767306654 5.106646490188182 0.0
9.918899263509473 4.144927088739744 0.0
9.918194630017027 7.447268230913605 0.0
8.461970084137805 3.144844565847669 0.0
9.924415919486059 6.949999999995354 0.0
7.184050152099684 2.72771667662237 0.0
8.834356715215904 7.801565642745232 0.0
8.689015446783005 4.145232831954543 0.0
8.490778532265319 8.234414357968106 0.0
8.63666290918932 2.83060276219705 0.0
4.61028976098935 4.741894230894578 0.0
6.314735925012879 4.003132559161639 0.0
9.20786580425652 4.67001723737971 0.0
7.141401229301469 4.873205425098625 0.0
6.235177809922153 4.774126344778935 0.0
9.12491895896937 3.145675090615719 0.0
9.255747684068178 3.162525801823036 0.0
8.312852272796098 2.290855459722148 0.0
1.449266720542303 3.363629101350872 0.0
9.525687840398492 4.800807314407045 0.0
4.829905263804087 8.14474456977717 0.0
9.09338914689732 7.563794106183232 0.0
5.389401689694107 5.283808684471545 0.0
8.530979415204587 3.029374286908943 0.0
7.901489077080633 6.535344047486632 0.0
9.218572924671975 5.760893551533255 0.0
8.562382833959296 4.143913974026883 0.0
8.62959127904665 8.974877485888243 0.0
9.408442441596518 9.62276529745719 0.0
7.5034765601713 3.869833107932387 0.0
9.842813436634783 6.600620949014236 0.0
9.826116984327193 8.911617279149695 0.0
7.529907780698261 0.7369111006685982 0.0
7.832164962480427 2.905293639437395 0.0
8.39517908433056 3.267417602291069 0.0
9.823014010107707 9.085319632577246 0.0
9.022314123618541 3.944559746338292 0.0
4.243701230676532 5.332574856090426 0.0
9.816740542566388 1.127839952679595 0.0
8.166775715766304 5.693916696568397 0.0
8.865374421689054 8.068986769641638 0.0
8.761145809863661 6.470583506581853 0.0
8.998345275919851 9.209303502026401 0.0
9.698477487436316 6.706902829754045 0.0
6.439032098063426 0.3109134377713525 0.0
7.562681994382136 4.643158005207056 0.0
9.03999088074715 0.2799354672273258 0.0
5.180741540467516 3.805018725608906 0.0
6.243990330956698 2.718077286244967 0.0
9.79416634023361 0.1815240178579244 0.0
9.926540005061975 2.847049370876555 0.0
9.826476210374608 2.670192168078066 0.0
6.365816673179121 4.536333049275508 0.0
5.546353765219417 4.618331215552614 0.0
9.820703096450293 2.000649418331399 0.0
6.884388790679166 3.561583980715254 0.0
7.431303395649604 5.747824222777201 0.0
8.849816832721245 2.19318290395604 0.0
4.185147517585975 5.697469360586313 0.0
9.165905238119013 5.873664931582344 0.0
7.70479478158537 1.788324620089049 0.0
9.627376046933474 0.9196091445437269 0.0
6.657687963328663 5.144792385996769 0.0
9.83245016645186 0.3925568446109945 0.0
7.483092985762584 9.253837199159435 0.0
5.445348362202234 3.977855663863651 0.0
7.476680532833337 4.837183287808616 0.0
9.572749890969304 8.505160319814301 0.0
9.915853314998252 9.437014513917465 0.0
7.679469018350979 7.390484878021194 0.0
9.418139053434402 4.790576000488359 0.0
8.096967733471567 5.865447162201908 0.0
9.829153508938724 8.378494945652118 0.0
9.926595955569645 5.157718300415699 0.0
8.774484245600224 7.939747459426853 0.0
8.629764448155779 6.481031318922794 0.0
8.961169458302376 3.839036702328818 0.0
4.617199205561317 5.256318959792646 0.0
8.480815774219478 4.031210317621497 0.0
9.708341592512763 3.401018043990571 0.0
7.183974816647467 4.77882314543966 0.0
9.821437962294304 7.659391965474772 0.0
8.150320284869602 2.286501016204562 0.0
9.828114434347311 1.684891358832554 0.0
5.349187766238684 6.538177907133678 0.0
8.076053471314525 2.76180604769483 0.0
4.907713691134565 5.29818629967416 0.0
0.6874399366049438 4.328593906714074 0.0
0.6980011780697519 5.702671170050627 0.0
8.263861466707834 8.182284285231713 0.0
5.838783785156478 4.913981390426639 0.0
7.807619472656604 7.235706382002089 0.0
9.388504256318683 6.022122644748753 0.0
9.929839894767033 6.436189192303577 0.0
8.3205848711706 3.39107920408397 0.0
3.240770542267401 4.019899919523968 0.0
8.059047070496568 2.468855909103855 0.0
9.932479519490421 2.449625056415224 0.0
7.737639000139152 4.580708137963557 0.0
8.26141077223695 0.3940397126348397 0.0
9.69568953371801 1.959951226402445 0.0
6.469120930453264 4.892267070266994 0.0
9.167223997255698 0.8102256463122337 0.0
6.236889648241256 0.9291076084031108 0.0
8.306379082772498 5.268830342852036 0.0
6.716089118890225 5.239344620507032 0.0
9.82511981852641 9.282822358664017 0.0
6.68375719572285 4.404998642130821 0.0
8.913754712375674 6.908138360584365 0.0
6.173250048857013 5.251634416326969 0.0
4.235907497612446 1.924052997345291 0.0
5.151007663981651 2.438629730660893 0.0
8.924254300637541 9.3764975797567 0.0
4.438612423541503 5.287968640901957 0.0
8.571203234299599 1.897009944569934 0.0
6.878800676380218 5.821332862798138 0.0
5.710626178601224 4.792560699857408 0.0
7.149510071621283 5.216310009157644 0.0
2.099966541549645 2.334742113488256 0.0
9.93396330620579 5.350566393301629 0.0
7.143046479323961 8.646955109387985 0.0
7.965747313080266 5.193641450105844 0.0
6.3314394693073 5.135050228240639 0.0
7.665821333021348 6.222698255001823 0.0
6.305321657053551 4.659816230868476 0.0
7.833020917089713 5.208837056143474 0.0
9.41455902676429 2.869725681199307 0.0
8.567151507735133 6.598605357295113 0.0
7.405527786978573 4.377085529441429 0.0
6.552969697053132 5.137148974085434 0.0
9.93630620742063 8.042778076596578 0.0
7.166743296019233 4.593171678848165 0.0
6.595561806063966 5.839366735225723 0.0
6.066152182102007 5.262519562574559 0.0
9.834694151277489 0.9093455747994099 0.0
8.98259191950674 7.579732466796592 0.0
6.465071238839505 5.25485771955322 0.0
9.759759896588413 3.236659507608532 0.0
4.775529448101694 5.224235675150505 0.0
9.935991245222917 7.153416415978829 0.0
0.6530736820718381 9.352299998916202 0.0
0.6449439415299687 0.6468300344151556 0.0
7.804690364869245 4.495816547678174 0.0
9.84503784553893 5.70620404704573 0.0
9.83525329400959 3.826992990746767 0.0
9.922964894244684 4.265000406933376 0.0
8.333767638401964 1.121219971446645 0.0
8.876012546033895 7.019147158538482 0.0
8.172413577824324 3.413096916572049 0.0
7.232233017296214 4.478957103028363 0.0
6.214597295185415 3.852860083673202 0.0
9.85013791746415 4.400709747289421 0.0
3.941627380932058 6.342995010255737 0.0
3.097271569675528 8.77391871286929 0.0
9.292917152323044 6.010976049411984 0.0
8.104342196673183 5.184165973282902 0.0
8.994300084006271 3.652611812846807 0.0
9.937157897030163 5.549999999993244 0.0
8.721368888525245 7.274540720770752 0.0
8.920003648712827 0.9516585309368178 0.0
7.910527456030004 8.536826514867816 0.0
9.846441288756814 4.60515911863952 0.0
9.584942233925151 4.712073182517884 0.0
9.642357858573972 6.805672051759494 0.0
9.797024725252207 9.838837222258014 0.0
9.842451438022124 4.018973836958878 0.0
6.112723137676118 3.704473949316424 0.0
7.574641969193845 3.765362276156904 0.0
7.826594968121701 6.200366572362263 0.0
7.762805366733504 9.34009502796868 0.0
9.56854033867856 1.012566255816665 0.0
7.71256563655353 5.219373702836014 0.0
9.68039392238282 8.786964504862018 0.0
5.910362452777086 9.277662068919813 0.0
7.418090653922814 3.326443419100716 0.0
9.857704179097952 4.697553149694669 0.0
8.452469674653342 8.996585816905599 0.0
9.522351366699843 2.057525484575908 0.0
7.802315574700843 9.548878971475935 0.0
9.938875656926385 3.449999999992592 0.0
8.425189037911712 6.608575180629274 0.0
5.925965231566842 2.523669697740033 0.0
6.654918072256329 5.95749128982984 0.0
9.826748589235729 9.631118448471485 0.0
8.6684585637523 7.39633999085442 0.0
9.844673843931567 3.090088625379724 0.0
9.93613850661301 2.250382721159617 0.0
9.218291993658738 2.892108990205171 0.0
9.83502846611296 8.212781989607324 0.0
7.754136409732265 7.104288507262783 0.0
8.510570542791681 2.036933285735889 0.0
7.757745059307245 4.315798612475442 0.0
7.989231770559189 6.201656630465583 0.0
8.068934521422738 4.198631572122605 0.0
4.957478134450373 9.038766150325067 0.0
7.208661142641733 6.501402463831379 0.0
7.299506095906239 4.363561999234681 0.0
8.250303873550486 2.105322217421675 0.0
8.678637541413377 7.053471135702286 0.0
9.761528395137384 6.163503990672834 0.0
9.84494857233395 8.59999999999775 0.0
9.83825138794677 3.672838954969637 0.0
5.121008544047756 5.808127183024784 0.0
8.343911550360986 4.043535893276861 0.0
9.85324441775315 5.899999999993774 0.0
9.51114465213134 8.41035540646284 0.0
6.505812179224195 6.93390566262983 0.0
6.15572847138365 9.023097246950844 0.0
3.352081892333425 3.024853379890529 0.0
6.433163283162099 8.675072413910678 0.0
8.825744236698243 3.624446391299867 0.0
4.883007294861279 7.819620905924936 0.0
5.876659170760434 5.638247433601083 0.0
6.859400040348503 6.510797998354633 0.0
7.946400945409184 3.500317276373196 0.0
7.496830255505493 6.653194511698024 0.0
9.852183479755313 4.891525833556942 0.0
9.77998778436291 2.922486526124376 0.0
6.774672660492365 5.324728659740495 0.0
5.717254072187427 6.824125962512845 0.0
9.713440940838062 4.63793103997539 0.0
8.859858662536796 0.2721395536350836 0.0
8.37556017530946 9.436653414116012 0.0
7.395237381047616 7.885576562773319 0.0
5.4709157802033 4.511152089197594 0.0
9.489749416979361 9.691840729914848 0.0
4.599216022837964 3.46438688931078 0.0
5.572287492757569 4.807021644849729 0.0
9.926499336309957 9.92730688390086 0.0
9.926499336310107 0.07269311609890093 0.0
9.338127766332573 0.3585313952168247 0.0
6.810761948165162 3.414693294319008 0.0
8.166274345037138 5.943611545564389 0.0
5.2892644736731 6.301081312912763 0.0
9.731911074791544 7.649313380659622 0.0
8.90251102352767 9.50983415326544 0.0
8.997881406541017 1.033666784655452 0.0
5.835124768755703 2.738139962594905 0.0
9.665357480775825 6.185331297099201 0.0
7.656532192558493 8.217157287499347 0.0
9.170463887605525 2.975444721032631 0.0
4.208158615905443 0.8648302238584886 0.0
6.97015686031129 5.933674629077266 0.0
6.181941366523793 3.565885175921835 0.0
3.30313590337911 6.393402837735046 0.0
6.447482061767014 4.816169316820496 0.0
8.185341428749446 4.169172087371246 0.0
4.552595724340015 8.298301336212145 0.0
9.84850676569699 8.999999999998423 0.0
9.846941514449377 7.393642828194986 0.0
7.924592433490734 2.788309934035703 0.0
8.154308714226714 8.853640122009672 0.0
8.876629743004642 1.96110242719995 0.0
7.228849192966834 8.90811350348676 0.0
9.852301635085423 8.296637825215246 0.0
5.219795195341889 5.547413133147649 0.0
9.861497117995457 6.901363010201344 0.0
2.953911258021604 6.136007283255669 0.0
6.93158841067062 4.77708273647784 0.0
9.67540418457871 2.912802891506324 0.0
4.194055958522277 4.437353127730132 0.0
6.133959559341536 0.406856611599261 0.0
8.29952795189331 9.309744645643846 0.0
9.843692337952948 1.209647690818311 0.0
5.164986286280336 6.671544079402435 0.0
9.838533350075606 2.081705440779448 0.0
8.301244777513975 6.604088853319459 0.0
5.471494771710784 2.714598185146428 0.0
8.86534684892311 1.208599471795828 0.0
9.940610684232212 1.451558535868664 0.0
9.40896208432968 1.428353940655538 0.0
2.329177605337097 4.238803555614174 0.0
5.980761651517799 7.182207186682233 0.0
9.66541573964336 0.1719254072074424 0.0
7.220979380229172 7.806128737674462 0.0
1.251721227904697 6.151932667911503 0.0
8.104967286191181 6.057912607875576 0.0
6.650768762224724 4.817922869198292 0.0
6.634976350437587 3.213339182992986 0.0
7.034320437500567 4.898219100342838 0.0
9.502772020064167 6.283064492634301 0.0
8.13187938667684 3.518506862055515 0.0
9.855471943454193 2.599999999994991 0.0
9.056747742708522 8.263936599935574 0.0
4.352645795441222 5.724453640019 0.0
3.744263984699181 1.488951698361357 0.0
5.175860134287045 3.6375726667098 0.0
7.736434712114619 6.400417475661193 0.0
9.857658576695343 6.316607183405179 0.0
7.876525261950537 4.304285002335559 0.0
9.856114384785611 7.914602773442983 0.0
9.848334119947063 0.7059644476295188 0.0
9.59694321995579 6.895814046141667 0.0
5.906465212962551 3.869023950643881 0.0
9.840676994268005 9.364956386459765 0.0
5.355015287544095 3.83518170601625 0.0
6.374090407153147 5.855743754257685 0.0
8.227401290513832 5.297819733684674 0.0
5.451235131977493 4.825706629991923 0.0
6.022070213762754 5.355923882747634 0.0
9.845674433677614 6.108401449483281 0.0
9.835067400944396 7.739582406783081 0.0
8.602026805792988 2.941372356914139 0.0
5.059869081004962 5.269480960018243 0.0
5.284714507903736 5.26496663762182 0.0
9.627110479149561 7.660076105040499 0.0
6.820001127809743 4.792514421153957 0.0
5.120512795059439 4.806607659110254 0.0
9.56933817216883 2.911464407429096 0.0
9.74091654291531 9.267545397628387 0.0
9.93006767325302 6.576784040838644 0.0
9.642486276936268 4.650227701598451 0.0
5.185183328569137 9.410919109238325 0.0
9.37052946854105 4.605636695802024 0.0
1.677077220416309 5.871167715901136 0.0
7.345783833404538 3.184020711886284 0.0
5.419239942654976 5.982692039856376 0.0
6.133318300188262 2.551919945731369 0.0
6.187291396343277 4.499077117404439 0.0
1.231465237822878 3.921479198315213 0.0
8.969849937139944 9.699215363213542 0.0
9.218303154263054 6.037447959776716 0.0
CELLS 4886 19544
3 1113 1356 1450
3 1402 231 1659
3 272 269 1414
3 396 394 1777
3 1451 945 1452
3 194 81 1801
3 1847 1501 2104
3 2024 2121 2479
3 1115 1113 1450
3 1124 1413 1844
3 1061 1955 2409
3 307 305 1645
3 1592 1369 1593
3 238 1501 1847
3 1955 1883 2409
3 1808 243 1910
3 1885 978 2362
3 1440 793 2092
3 189 1488 1608
3 353 350 1864
3 2007 2231 2232
3 307 1645 2493
3 1096 1760 2496
3 2178 874 2179
3 621 625 1595
3 1493 1480 1938
3 1655 1268 2137
3 1341 1410 2212
3 243 1808 2360
3 1902 1446 2516
3 1760 1096 1763
3 856 790 2180
3 2008 2046 2105
3 789 1809 2067
3 694 1543 1575
3 1127 1762 1953
3 1748 807 2228
3 1543 1308 1575
3 820 1872 2170
3 1417 954 1998
3 1369 1592 2386
3 272 1414 1787
3 329 333 1998
3 1544 1095 1545
3 2231 1490 2232
3 1342 1683 1790
3 374 377 1797
3 807 1678 2228
3 1665 198 2128
3 141 142 1620
3 325 322 1952
3 231 1402 1654
3 198 1665 2010
3 1890 1307 2387
3 208 1438 1619
3 2016 1970 2156
3 1436 212 2020
3 954 1417 2333
3 1736 1894 2244
3 1491 1750 2143
3 1677 1064 2146
3 1474 1258 1475
3 1500 233 1930
3 1446 2415 2516
3 1700 973 1800
3 2128 2270 2316
3 1316 1315 1593
3 1307 2341 2387
3 2258 1324 2328
3 1083 1507 1508
3 693 1095 1544
3 621 1595 1596
3 667 1571 1872
3 1932 1766 2061
3 393 391 2240
3 1342 1790 2400
3 252 1707 2234
3 931 978 1885
3 1430 1116 1704
3 1411 1109 1714
3 1478 1227 2440
3 1990 195 2297
3 1792 1167 1985
3 1682 444 1975
3 394 397 1777
3 1711 2028 2162
3 1574 856 2180
3 2008 1851 2046
3 736 1493 1938
3 1069 1060 1662
3 1458 455 1754
3 862 691 1705
3 1161 1642 2286
3 1699 1700 1800
3 447 516 1637
3 955 1482 1483
3 2024 206 2121
3 391 1773 2240
3 1072 1412 1893
3 212 1436 2350
3 1566 1365 1568
3 259 1441 1672
3 872 870 1764
3 330 328 1889
3 1539 1161 2286
3 1897 1898 2275
3 1434 1990 2297
3 1109 1411 1730
3 319 307 2493
3 1762 1761 1953
3 1369 1316 1593
3 1540 834 1832
3 1505 652 2442
3 1732 1655 2137
3 921 1712 2295
3 1872 1388 2170
3 1712 921 2125
3 2028 244 2162
3 1506 1570 1680
3 1569 368 1964
3 1571 667 2375
3 1587 2178 2179
3 196 1723 1737
3 524 2016 2156
3 1528 1250 1733
3 1115 1450 1973
3 1938 1480 1971
3 1809 1396 2067
3 1641 249 2299
3 1223 1258 1474
3 1365 1566 2120
3 1981 962 2316
3 1538 353 1864
3 455 1458 1756
3 152 233 1500
3 1116 1430 1703
3 817 652 1505
3 1347 2003 2004
3 1607 1958 2085
3 194 1801 2195
3 1410 1341 2351
3 223 1415 1710
3 197 1511 2346
3 2198 787 2225
3 81 82 1801
3 1438 208 1620
3 1444 522 1823
3 1511 197 1950
3 726 718 1567
3 1637 516 1739
3 1708 2337 2341
3 1280 1649 2124
3 2337 1395 2341
3 1327 1709 2315
3 1225 1227 1478
3 691 624 1705
3 476 2224 2305
3 830 832 2204
3 1750 1491 2403
3 1366 1897 2275
3 2345 1583 2352
3 2054 405 2110
3 1984 2172 2230
3 1846 2198 2225
3 1177 2042 2418
3 2121 1367 2479
3 1527 1531 1541
3 916 1039 1834
3 1413 1124 2467
3 1622 1503 1868
3 249 1641 2019
3 1805 405 2054
3 1761 1007 1953
3 1415 223 2395
3 960 1756 2203
3 368 1569 2135
3 1402 1659 2473
3 941 1433 2471
3 1267 1477 1501
3 260 2002 2265
3 1704 558 2077
3 2224 1886 2305
3 2053 1386 2199
3 1452 945 1952
3 1717 1611 1718
3 1682 1975 2230
3 1760 1762 2496
3 1481 203 2104
3 1264 1266 1670
3 142 236 1620
3 2133 1182 2179
3 1791 1602 2183
3 350 346 1864
3 1412 1072 2393
3 1281 1575 2255
3 1565 1948 2155
3 849 1449 1513
3 1958 396 2085
3 1339 1069 1662
3 834 1540 1917
3 269 267 1414
3 1268 1267 1501
3 1440 2092 2468
3 1399 1981 2316
3 1635 1636 2041
3 1454 252 2234
3 1451 1305 1890
3 1375 1883 1955
3 362 366 1786
3 1484 2410 2528
3 1449 849 1640
3 1267 1474 1477
3 200 1611 1717
3 1054 1581 1582
3 1350 1977 2253
3 190 1390 2118
3 788 1956 2193
3 1709 1327 1888
3 2233 2298 2413
3 1488 189 2355
3 478 1685 1714
3 230 1525 1690
3 1687 478 1688
3 427 429 1756
3 1570 1065 2476
3 1880 1133 1988
3 1649 656 2124
3 1537 209 1614
3 1134 1769 1986
3 1220 1268 1655
3 396 1777 2085
3 1167 1755 1985
3 2229 1744 2296
3 1575 1281 2287
3 127 240 1882
3 377 647 1797
3 954 329 1998
3 220 1697 1698
3 1342 1341 2212
3 1441 264 1672
3 1512 188 2433
3 763 2345 2352
3 1685 1411 1714
3 1805 1188 1951
3 1347 2004 2157
3 1054 1582 1667
3 1333 1617 1674
3 2217 73 2361
3 1539 1036 1917
3 1039 1292 1834
3 208 141 1620
3 1965 1964 2038
3 693 1544 1969
3 1453 239 2279
3 203 1481 2049
3 945 1451 1889
3 680 1459 2134
3 354 2147 2196
3 1405 1932 2061
3 1723 1722 1737
3 1748 1175 1927
3 1532 1528 1733
3 2057 1824 2154
3 1406 1659 1702
3 1948 1186 2155
3 210 1598 2114
3 1685 478 1687
3 1324 1325 2328
3 1526 1250 1527
3 165 166 1509
3 1493 736 2523
3 1526 1527 1541
3 1390 190 2417
3 522 1444 1998
3 1680 1570 1732
3 1017 1442 2525
3 374 1797 2430
3 1507 1083 2197
3 1756 960 2221
3 2270 1400 2316
3 2205 1452 2282
3 1074 1187 1888
3 2158 1245 2200
3 1442 1017 1684
3 864 1116 1703
3 1750 1751 2143
3 1456 516 1492
3 1677 2146 2149
3 2022 1339 2388
3 1602 258 2183
3 678 1594 1595
3 1245 1670 2200
3 972 830 2204
3 2143 983 2342
3 1268 1501 2226
3 1266 1461 1670
3 1487 222 2465
3 1382 2022 2388
3 58 59 1661
3 2147 1543 2196
3 1484 1485 2410
3 628 2053 2199
3 1906 1549 2259
3 364 362 1786
3 1339 2022 2247
3 1636 525 2041
3 625 678 1595
3 678 1593 1594
3 2212 1410 2222
3 1837 1865 2215
3 1699 1800 1801
3 866 864 1703
3 893 1472 1982
3 1735 1736 2244
3 1633 1255 1922
3 126 127 1882
3 681 867 1656
3 1351 1401 2363
3 11 228 1588
3 1127 1953 2454
3 265 266 267
3 1722 1122 1737
3 1389 1691 2069
3 1613 1610 1616
3 1227 1256 2440
3 429 455 1756
3 1535 1177 2418
3 322 324 1952
3 973 1700 1802
3 1964 368 2038
3 1176 1865 1866
3 1096 872 1764
3 1176 1866 1875
3 193 1839 1892
3 156 157 1441
3 615 617 1596
3 686 1520 2480
3 1409 2097 2305
3 2410 1151 2528
3 1427 2217 2361
3 440 1911 2314
3 1744 1743 2296
3 516 1456 1739
3 1939 589 2164
3 690 931 2150
3 1062 1579 1580
3 1054 1580 1581
3 955 1483 1716
3 1064 1677 2248
3 1956 1616 2193
3 1776 1893 2026
3 1398 1115 1973
3 2002 1453 2265
3 1541 1531 1542
3 216 2191 2536
3 1736 1326 1894
3 1065 994 1066
3 1598 2115 2175
3 2314 1911 2358
3 1433 941 2042
3 2115 1209 2175
3 717 1550 1551
3 188 1941 2433
3 267 1132 1414
3 771 1569 2064
3 1157 1545 1546
3 1231 1250 1526
3 1933 240 2181
3 222 1487 2025
3 1525 230 1765
3 1430 1704 2077
3 757 1744 2495
3 264 263 265
3 883 773 1917
3 739 2205 2282
3 1667 1582 2434
3 1744 757 2474
3 239 1453 2002
3 1441 259 2356
3 2005 1443 2012
3 254 1766 1932
3 1509 166 1679
3 1477 1475 1481
3 793 1440 2165
3 1385 1523 2377
3 1481 1475 2523
3 156 1441 2356
3 1066 1220 1655
3 945 325 1952
3 2094 2087 2134
3 1747 1175 1748
3 253 262 263
3 1327 1074 1888
3 718 715 1567
3 2046 1043 2105
3 240 1933 2399
3 1305 1307 1890
3 224 58 1661
3 1195 1566 2285
3 1590 1393 1749
3 1255 1230 1922
3 353 1538 2073
3 358 1999 2325
3 882 1802 2036
3 1024 1020 1604
3 333 522 1998
3 1401 1351 2414
3 1475 1258 1476
3 2310 786 2364
3 328 945 1889
3 807 1748 1927
3 825 724 1912
3 1742 263 2491
3 267 266 1132
3 2077 2102 2203
3 1431 1432 1860
3 1212 1957 2312
3 2097 476 2305
3 1132 1402 2473
3 717 713 1550
3 1746 693 1969
3 1372 1124 1844
3 1256 1541 2269
3 1977 1350 2274
3 2332 1978 2443
3 874 2133 2179
3 1983 1534 2171
3 1157 1544 1545
3 1230 1228 1922
3 1580 1579 1581
3 1565 806 1948
3 1416 1363 2413
3 1287 1995 2398
3 265 263 266
3 1534 1529 2171
3 1604 1834 2428
3 1255 1633 2509
3 1344 1643 1644
3 1332 1388 1571
3 1423 217 2217
3 2191 1057 2451
3 458 447 1637
3 1250 1233 1733
3 472 2212 2222
3 1175 1747 1840
3 1652 256 1653
3 1073 1347 1572
3 200 145 1609
3 683 640 1585
3 1116 862 1705
3 1221 1223 1474
3 1778 801 1803
3 1503 1622 2471
3 1475 1493 2523
3 464 680 2134
3 14 210 2114
3 579 1880 1988
3 1434 1435 1990
3 1447 2310 2364
3 275 274 276
3 2294 1871 2419
3 814 1068 1684
3 1172 1439 2273
3 273 272 274
3 1363 1416 2406
3 1220 1219 1221
3 1060 1656 1662
3 1099 1792 1985
3 2048 1198 2168
3 1241 1245 2323
3 699 723 1753
3 1640 1862 2070
3 910 1018 1584
3 1586 1067 1587
3 1656 867 1662
3 1067 686 2480
3 654 2242 2294
3 1593 1315 1594
3 1880 553 1974
3 236 1717 1718
3 617 621 1596
3 1723 196 2313
3 402 1877 2116
3 273 274 275
3 2202 1869 2252
3 1510 1358 1767
3 193 1892 2373
3 1188 1805 2054
3 1220 1221 1267
3 1066 1218 1219
3 1517 1097 1518
3 1677 1676 1858
3 686 277 1520
3 268 267 269
3 697 857 1592
3 220 1698 1699
3 1802 1700 2036
3 1612 1537 1614
3 929 817 994
3 228 12 2136
3 2110 2116 2482
3 1659 1658 1702
3 1611 1613 2280
3 1344 991 1643
3 683 1585 1604
3 1638 1358 2404
3 1485 1034 2410
3 2214 833 2424
3 271 272 273
3 1482 955 1962
3 1066 1219 1220
3 931 1885 2150
3 1613 1891 2280
3 1189 1589 2204
3 1566 1195 2120
3 726 1567 2490
3 1122 1722 1874
3 1494 319 2493
3 1671 259 1672
3 1267 1221 1474
3 603 528 1591
3 1664 2128 2316
3 1817 1924 2174
3 1626 1660 2111
3 1474 1475 1477
3 1023 1062 1580
3 1957 1599 2312
3 1764 1939 2164
3 1358 1950 2404
3 200 1609 1610
3 1431 1082 1432
3 1778 1803 2521
3 1830 1832 2075
3 1930 233 2369
3 1329 1482 1650
3 757 1959 2522
3 1239 1247 1597
3 758 1978 2332
3 1569 1290 2064
3 216 1694 2191
3 1453 1420 2265
3 1549 1906 2129
3 24 215 1674
3 19 235 1676
3 1621 1057 2191
3 1691 1389 2262
3 1617 1333 2192
3 929 994 1065
3 1769 1672 1986
3 1893 1412 2026
3 1609 1537 1612
3 271 269 272
3 1373 1438 1620
3 217 1423 2381
3 517 330 1889
3 1322 1055 1667
3 1974 553 2499
3 228 2136 2187
3 1589 1189 1788
3 1999 1577 2325
3 2110 405 2116
3 189 1608 1842
3 1055 1050 1667
3 739 1455 2205
3 1865 1176 2215
3 319 1494 2522
3 2474 757 2522
3 1484 227 1485
3 10 11 1588
3 723 809 1753
3 27 230 1689
3 1550 806 1565
3 1179 1180 1217
3 207 1617 2192
3 1433 1217 1502
3 1562 1556 1606
3 1379 2017 2018
3 1245 2158 2323
3 675 1097 1517
3 884 501 1599
3 1020 683 1604
3 1603 1095 1848
3 1001 2057 2154
3 1604 1585 1834
3 1610 1612 1616
3 1764 870 1939
3 2242 1871 2294
3 1669 1264 1670
3 1658 213 1702
3 1995 1646 2398
3 631 539 1600
3 1491 2143 2342
3 1801 1800 2195
3 1200 1199 1693
3 1535 940 1861
3 1534 758 2332
3 914 2258 2328
3 1588 228 2457
3 216 138 1694
3 151 152 1500
3 1133 1880 1974
3 1677 1858 2248
3 1294 1622 1868
3 875 1010 1767
3 1379 2018 2416
3 1279 2202 2252
3 182 256 1652
3 1592 857 2386
3 672 681 1656
3 615 1596 1824
3 1093 1487 1623
3 1823 522 2100
3 1245 1242 1669
3 1582 1581 1583
3 758 1534 2306
3 1975 1984 2230
3 1358 1510 1950
3 1663 1336 1665
3 2102 960 2203
3 366 1087 1786
3 1740 1490 2231
3 21 207 1709
3 145 146 1609
3 2339 765 2384
3 603 1591 1668
3 2081 199 2149
3 1540 1832 1879
3 1721 1723 1947
3 1754 455 1793
3 1751 1753 2119
3 882 1701 1807
3 1540 1539 1917
3 242 1695 1697
3 1521 354 2091
3 1363 2233 2413
3 1584 1018 1925
3 703 1067 1586
3 1177 1178 1179
3 795 916 1834
3 277 276 607
3 1571 1388 1872
3 22 23 1617
3 1097 823 1177
3 25 26 1624
3 419 418 1790
3 1728 1906 2259
3 440 1455 2261
3 1877 1318 2116
3 1488 1156 1608
3 1439 2130 2273
3 1889 1451 1890
3 1614 209 2389
3 1472 893 2094
3 675 821 823
3 23 24 1674
3 1788 1190 2183
3 917 941 1622
3 1763 1096 1764
3 1068 1442 1684
3 1034 1485 2173
3 2172 1533 2230
3 138 139 1694
3 1065 1570 2197
3 607 674 675
3 1536 1248 2268
3 229 135 1734
3 1437 1925 1926
3 680 510 1646
3 147 209 1537
3 26 27 1689
3 1627 705 2163
3 206 1651 2121
3 2409 1785 2462
3 1492 682 2447
3 1223 1225 1258
3 889 1772 2374
3 253 263 264
3 275 276 277
3 1455 739 2261
3 2022 1382 2176
3 150 227 1484
3 639 1019 1591
3 1449 1640 2070
3 1082 833 2214
3 1503 1502 1504
3 144 200 1717
3 1643 991 1713
3 1190 1791 2183
3 1538 1804 2073
3 1256 2269 2440
3 18 19 1676
3 521 531 2000
3 790 849 2180
3 1075 1329 1650
3 1087 1782 1785
3 1066 994 1218
3 270 269 271
3 682 1492 2494
3 185 252 1454
3 253 158 262
3 1629 1632 1633
3 200 1610 1611
3 1477 1481 2104
3 1623 1487 2465
3 1518 1097 1535
3 1414 1132 2460
3 1179 1217 1433
3 177 1506 1680
3 1392 1017 2525
3 1832 834 2075
3 675 823 1097
3 1459 2094 2134
3 1782 1087 1795
3 1838 1730 2372
3 1639 149 2528
3 1617 23 1674
3 2265 1420 2489
3 180 232 1859
3 1527 1250 1528
3 20 21 1709
3 1083 1508 2311
3 903 866 1703
3 1455 440 2314
3 1187 1858 1888
3 1659 1406 2473
3 1446 1902 2166
3 421 1951 2106
3 1598 210 2115
3 154 259 1671
3 1288 1835 2080
3 1832 1831 1879
3 1258 1225 1478
3 1024 1604 2117
3 1263 1429 1739
3 706 705 1627
3 1583 1581 2352
3 407 1805 1951
3 856 1574 2527
3 1701 882 2036
3 1624 26 1689
3 717 1551 1552
3 1385 2377 2391
3 2302 1745 2354
3 1572 1347 2157
3 1036 883 1917
3 1689 1690 1691
3 1664 1665 2128
3 1476 1479 1480
3 1751 2119 2143
3 815 814 1684
3 1790 889 2400
3 1606 1607 2085
3 265 267 268
3 418 889 1790
3 1522 1521 2091
3 135 136 1734
3 1726 1445 1729
3 647 1796 1797
3 1346 1453 2279
3 1293 1827 2117
3 1242 1244 1669
3 1853 1852 1854
3 889 2374 2400
3 1039 1038 1290
3 1524 628 2199
3 1331 1332 1571
3 1291 1290 1569
3 1475 1476 1493
3 1850 1852 1853
3 1490 1740 2456
3 1689 230 1690
3 1256 1526 1541
3 1704 1705 2167
3 1465 1470 1675
3 956 1073 1572
3 1613 1616 1956
3 916 917 1038
3 2014 1522 2091
3 1221 1222 1223
3 1999 763 2352
3 234 10 1588
3 1697 220 2335
3 1527 1528 1529
3 2298 1600 2413
3 1436 2020 2254
3 1642 1161 1678
3 1523 1385 2436
3 1730 1838 2426
3 795 796 916
3 713 711 1550
3 1456 1263 1739
3 999 1336 1663
3 1785 1784 2462
3 409 415 1783
3 607 675 1517
3 1229 1231 1526
3 1958 1855 2078
3 1589 1588 1590
3 1933 261 2380
3 762 1965 2038
3 1756 1458 2203
3 1776 597 1893
3 1794 1072 1893
3 188 1512 2266
3 1774 2339 2384
3 188 1908 1941
3 1010 1510 1767
3 2189 2285 2307
3 773 834 1917
3 1245 1669 1670
3 1248 1597 2268
3 146 1537 1609
3 818 910 1584
3 1641 1313 1651
3 1217 1745 2302
3 1065 1066 1655
3 1597 1247 2047
3 1360 2177 2376
3 1612 1615 1616
3 2126 867 2186
3 1019 683 1020
3 1747 892 1840
3 1092 1093 1623
3 261 1933 2181
3 400 424 1666
3 1516 1903 2377
3 1100 1392 1605
3 247 1738 1881
3 268 1134 1986
3 1177 823 1178
3 884 1599 1957
3 263 262 2491
3 806 1627 1948
3 1227 1229 1256
3 191 1729 2504
3 1636 1635 2502
3 1480 1479 1601
3 1721 1947 2498
3 1924 1146 2174
3 229 1734 1735
3 175 204 1725
3 1179 1178 1180
3 354 1521 2147
3 665 697 1592
3 640 646 1585
3 627 545 1636
3 1882 240 2399
3 1556 1555 1606
3 1373 1620 2394
3 1871 1071 2419
3 548 1628 1629
3 455 436 1793
3 974 1831 1841
3 1844 1413 2392
3 1612 1614 1615
3 209 1639 1937
3 1329 1330 1331
3 1823 2100 2142
3 1097 1177 1535
3 1021 1020 1022
3 825 1912 2455
3 913 1122 1874
3 400 1666 2113
3 1256 1229 1526
3 1419 1418 2450
3 1552 1551 1553
3 1850 1099 1852
3 1629 1631 1632
3 801 685 2029
3 1618 1619 1621
3 265 268 1986
3 1715 2165 2330
3 1531 1529 1534
3 1022 1024 1576
3 658 693 1746
3 703 686 1067
3 1062 1576 1577
3 1023 1022 1062
3 236 1718 2394
3 1688 502 1740
3 1501 1477 2104
3 213 165 1509
3 646 795 1585
3 196 1737 1738
3 379 679 1795
3 639 640 683
3 924 875 1767
3 1752 699 1753
3 207 2192 2315
3 627 1636 1660
3 1217 1180 1745
3 730 728 1833
3 528 561 1591
3 1444 1417 1998
3 252 186 1602
3 1729 1445 2504
3 460 502 1688
3 1418 946 1778
3 1203 1200 1693
3 548 470 1628
3 849 668 1640
3 646 785 795
3 607 276 674
3 14 15 210
3 147 148 209
3 478 460 1688
3 1709 207 2315
3 1157 1546 1608
3 1155 1731 1899
3 1524 1934 2390
3 1775 921 1876
3 1433 1502 1503
3 470 458 1628
3 1223 1224 1225
3 1291 1569 1964
3 871 1056 1826
3 1781 1783 1915
3 1587 1067 2300
3 916 1038 1039
3 1388 1387 1389
3 1611 1610 1613
3 1075 1328 1329
3 1039 1290 1291
3 1538 1265 1804
3 1184 1185 2163
3 597 598 1794
3 1450 1356 2421
3 1835 576 2080
3 1629 1628 1631
3 1331 1330 1332
3 561 639 1591
3 1476 1480 1493
3 705 703 1586
3 639 683 1019
3 1951 1188 2106
3 436 446 1793
3 1472 1297 2142
3 1332 1387 1388
3 1345 984 1720
3 1329 1328 1330
3 1050 1048 1667
3 150 151 227
3 11 12 228
3 557 541 2256
3 1831 974 1879
3 134 229 1766
3 1357 1358 1638
3 1336 1641 2299
3 1650 1482 1962
3 1591 1019 2512
3 1506 1507 1570
3 1803 801 2029
3 1178 823 1972
3 1552 1553 1554
3 1290 1038 1294
3 1028 1313 1641
3 1237 1239 1597
3 993 1017 1100
3 893 2087 2094
3 149 1484 2528
3 1768 1142 1949
3 9 234 1673
3 1554 1553 1555
3 668 632 1640
3 711 806 1550
3 1628 458 1637
3 1098 1829 1830
3 1482 1331 1483
3 531 1818 2000
3 435 419 1790
3 1156 1157 1608
3 1182 1184 2179
3 510 512 1646
3 1231 1233 1250
3 946 841 1778
3 1483 1331 1571
3 1459 680 2458
3 1166 1040 1210
3 892 1657 1820
3 1042 1445 1726
3 1019 1020 1021
3 749 805 1810
3 234 1588 1589
3 1695 242 1892
3 556 1853 2483
3 1018 1572 1573
3 1529 1528 1530
3 1606 1558 1607
3 1761 1759 2308
3 1396 1032 1921
3 1018 956 1572
3 689 1150 1416
3 1827 1293 2515
3 149 150 1484
3 1647 656 1648
3 1543 694 2196
3 399 409 1783
3 545 525 1636
3 268 269 270
3 715 713 717
3 1100 1017 1392
3 1657 892 1747
3 207 22 1617
3 1666 884 2249
3 1671 1672 1769
3 1554 1555 1556
3 146 147 1537
3 1081 1444 1822
3 711 709 806
3 1443 2005 2322
3 660 658 1746
3 1166 1458 1754
3 916 796 917
3 1056 1728 1826
3 1068 1069 1275
3 184 185 1454
3 158 159 262
3 2007 1687 2231
3 805 1708 1810
3 1672 264 1986
3 1561 1562 1563
3 978 1075 1650
3 1590 1588 2457
3 215 25 1624
3 1551 1550 1565
3 1073 1346 1347
3 857 818 1584
3 1648 656 1649
3 675 674 821
3 561 594 639
3 1731 529 1899
3 2303 1454 2535
3 981 903 1040
3 1630 1629 1633
3 993 877 1017
3 724 718 726
3 512 603 1646
3 1676 235 1858
3 814 1060 1068
3 715 717 1567
3 1796 647 1870
3 1715 1171 2165
3 678 1592 1593
3 644 613 1824
3 1690 1525 2145
3 1297 1822 1823
3 271 656 1647
3 1704 1116 1705
3 1225 1226 1227
3 1275 1069 1338
3 910 956 1018
3 1824 1596 2154
3 1403 1100 1605
3 1221 1219 1222
3 1068 1060 1069
3 1901 245 1949
3 1081 1055 1321
3 1751 563 1752
3 1021 1022 1023
3 672 638 681
3 1095 657 1848
3 1235 1237 1248
3 1561 1556 1562
3 1265 1259 1804
3 524 1819 2016
3 978 1650 2362
3 1492 516 2494
3 229 1735 2061
3 185 186 252
3 157 158 253
3 152 153 233
3 9 10 234
3 1527 1529 1531
3 1808 1344 2360
3 1062 1577 1579
3 1509 1679 1977
3 424 454 1666
3 637 638 672
3 981 1040 1166
3 1555 1558 1606
3 751 749 1810
3 1166 1210 1458
3 1651 1313 2121
3 15 16 2260
3 1633 1632 2509
3 2167 1705 2276
3 551 602 2045
3 697 818 857
3 364 1786 1883
3 832 1189 2204
3 1476 1478 1479
3 678 665 1592
3 213 1509 2096
3 1015 888 1124
3 1062 1022 1576
3 679 1782 1795
3 680 1646 1995
3 1101 1100 1403
3 1109 433 1714
3 1248 1237 1597
3 733 730 1833
3 1702 213 2096
3 499 498 1828
3 1418 1778 2521
3 637 600 638
3 1048 1046 1054
3 1577 1576 1578
3 814 766 1060
3 1279 2252 2292
3 474 470 548
3 199 18 1676
3 157 253 1441
3 1048 1054 1667
3 471 472 2290
3 625 665 678
3 795 785 796
3 1264 1265 1266
3 1437 1926 2350
3 1362 2048 2168
3 1394 2337 2371
3 454 884 1666
3 1022 1020 1024
3 751 1810 1923
3 1046 1023 1580
3 1807 1701 1931
3 1618 208 1619
3 566 588 689
3 1828 498 1829
3 501 509 1599
3 1118 780 1775
3 878 817 929
3 1510 1511 1950
3 1618 1621 1694
3 1052 1081 1822
3 1416 1150 1715
3 1239 1241 1247
3 1396 1921 2067
3 1751 1752 1753
3 1264 1259 1265
3 539 566 1600
3 1762 1127 2496
3 1673 1788 2183
3 1555 1557 1558
3 1052 1050 1055
3 725 724 825
3 1142 1770 1771
3 681 853 867
3 454 501 884
3 1346 1420 1453
3 932 1147 1770
3 1546 1545 1547
3 533 582 1818
3 1266 1337 1460
3 1872 820 2318
3 1117 1119 1713
3 1081 1321 1417
3 1253 1259 1264
3 1569 771 2135
3 1052 1055 1081
3 1181 1178 1972
3 709 706 1627
3 1073 1076 1346
3 1098 1828 1829
3 1382 1380 2176
3 1442 1275 1443
3 919 999 1663
3 1789 828 1855
3 877 815 1684
3 509 539 631
3 992 877 993
3 1266 1265 1337
3 2268 1498 2340
3 1130 1032 1396
3 1095 1603 2508
3 886 826 887
3 531 533 1818
3 1131 1400 1881
3 447 437 516
3 2460 1132 2473
3 940 1535 2418
3 768 1873 2037
3 1813 1869 1954
3 1627 2163 2488
3 1497 1495 1645
3 1198 1409 2168
3 724 726 1912
3 1869 987 1954
3 763 1999 2338
3 1010 1170 1374
3 984 976 1720
3 1470 1743 1744
3 689 588 1150
3 1901 1949 2359
3 1640 632 1862
3 274 272 1787
3 563 564 1752
3 994 817 1505
3 737 1807 1931
3 1770 1147 1771
3 1233 1235 1733
3 2450 1418 2521
3 414 410 1821
3 908 1099 1850
3 1227 1228 1229
3 1692 1203 1693
3 1625 216 2194
3 512 528 603
3 1377 1357 1638
3 1465 1464 1470
3 1360 1359 2177
3 1686 2007 2095
3 1336 1028 1641
3 1857 751 1923
3 1758 572 1759
3 553 541 557
3 1171 1715 1811
3 956 1003 1073
3 1467 1465 1675
3 719 718 724
3 1509 1977 2096
3 1734 1625 1736
3 1503 1504 1868
3 592 597 1776
3 180 181 232
3 162 163 231
3 2308 1759 2370
3 1357 1114 1358
3 875 946 1010
3 509 631 1599
3 17 18 199
3 144 145 200
3 1099 906 1792
3 1469 1467 1494
3 605 589 1939
3 1208 1205 1211
3 354 344 2091
3 692 782 804
3 1010 946 1170
3 1463 1462 1464
3 716 715 718
3 714 713 715
3 271 273 656
3 139 1618 1694
3 549 277 686
3 673 672 766
3 1378 1377 1379
3 2007 868 2095
3 999 1028 1336
3 1208 1211 1447
3 601 545 627
3 1119 1643 1713
3 1332 1333 1387
3 910 912 956
3 520 521 2000
3 828 1789 1819
3 277 607 1520
3 1338 1339 2247
3 818 819 910
3 767 766 814
3 712 711 713
3 1494 1467 1675
3 639 594 640
3 2044 557 2256
3 235 20 1709
3 1620 236 2394
3 804 919 962
3 1862 702 2070
3 681 852 853
3 1559 1556 1561
3 1622 941 2471
3 2165 1440 2330
3 612 644 692
3 697 698 818
3 1903 1516 1994
3 371 379 1795
3 428 426 2138
3 1290 1294 2064
3 1384 1904 2432
3 566 689 1600
3 471 452 472
3 1092 1091 1093
3 1002 1131 1719
3 1090 1089 1091
3 875 841 946
3 1758 1760 1763
3 1562 1606 2085
3 1833 1830 2075
3 178 179 214
3 164 165 213
3 769 923 1815
3 692 644 782
3 804 782 919
3 182 183 256
3 160 161 257
3 1329 1331 1482
3 962 1663 1664
3 1177 1179 2042
3 403 405 1805
3 1461 1460 1462
3 140 208 1618
3 1859 232 1860
3 274 1787 2099
3 1381 2126 2186
3 1558 1560 1789
3 430 428 682
3 452 435 1683
3 1487 1156 1488
3 1470 1464 1743
3 597 1794 1893
3 1244 1253 1669
3 962 919 1663
3 258 8 1673
3 1087 1785 1786
3 970 1042 1726
3 199 1677 2149
3 1664 1663 1665
3 1229 1230 1231
3 991 827 1713
3 792 1603 1848
3 1822 1444 1823
3 665 666 697
3 19 20 235
3 142 143 236
3 728 1098 1833
3 532 530 1898
3 1015 1124 1372
3 1546 1547 1548
3 1851 1850 1853
3 1877 393 2240
3 923 1105 1815
3 1090 1091 1092
3 687 686 703
3 1683 435 1790
3 887 826 1961
3 684 663 1089
3 426 1934 2138
3 464 510 680
3 853 854 855
3 568 572 1758
3 1376 1357 1377
3 1205 1203 1692
3 1607 1789 1855
3 710 709 711
3 780 781 1775
3 1434 1103 1435
3 876 815 877
3 766 672 1656
3 1393 1590 2457
3 684 1089 1090
3 530 890 1898
3 926 1920 1943
3 696 414 1821
3 1563 1562 1777
3 1054 1046 1580
3 1398 1973 1974
3 137 216 1625
3 1210 1040 1430
3 1750 563 1751
3 2010 1665 2299
3 1510 1374 1511
3 1777 1562 2085
3 1707 252 1791
3 1932 1404 1933
3 459 438 1814
3 139 140 1618
3 1093 1156 1487
3 231 163 1658
3 699 722 723
3 1545 1095 2508
3 598 612 1794
3 579 554 1880
3 1941 1908 2401
3 1231 1232 1233
3 1831 1829 1841
3 1037 1383 1799
3 177 178 1506
3 636 600 637
3 1036 1539 2286
3 1356 1114 1357
3 1523 1516 2377
3 704 703 705
3 403 402 405
3 648 792 1848
3 723 756 808
3 1388 1389 2170
3 933 932 1770
3 223 1710 1711
3 1779 399 1783
3 1223 1222 1224
3 1028 1029 1313
3 257 161 1654
3 418 412 421
3 734 882 1807
3 693 657 1095
3 1368 1370 1436
3 136 137 1625
3 688 652 817
3 1075 1327 1328
3 540 479 1813
3 398 395 402
3 548 1629 1630
3 574 591 699
3 1469 1494 1495
3 1041 1598 2175
3 167 168 202
3 175 176 204
3 2045 2046 2201
3 186 187 1602
3 886 887 888
3 1253 1254 1259
3 8 9 1673
3 792 655 810
3 843 1145 1960
3 1180 1349 1745
3 1165 1345 1512
3 708 706 709
3 136 1625 1734
3 21 22 207
3 140 141 208
3 625 626 665
3 1093 1094 1156
3 1585 795 1834
3 1117 1713 1806
3 599 579 600
3 810 871 1826
3 1047 1046 1048
3 1292 1291 1293
3 161 162 1654
3 199 1676 1677
3 1260 1282 1804
3 1005 1142 1768
3 1233 1234 1235
3 792 810 922
3 1122 1719 1737
3 976 985 1720
3 1278 1279 2292
3 2390 1934 2531
3 1436 1437 2350
3 270 271 1647
3 1199 966 1846
3 1683 1342 2212
3 656 273 2124
3 699 591 722
3 1977 1139 2096
3 1738 1719 1881
3 1722 985 1874
3 1797 1448 1798
3 162 231 1654
3 632 604 1862
3 252 1602 1791
3 1051 1050 1052
3 1045 1023 1046
3 648 655 792
3 993 1100 1101
3 1321 1055 1322
3 806 709 1627
3 904 903 981
3 1220 1267 1268
3 648 605 655
3 1737 1719 1738
3 385 399 1779
3 506 499 1828
3 1132 266 1402
3 1170 1418 1419
3 1323 2302 2354
3 24 25 215
3 137 138 216
3 721 965 1919
3 1787 1414 2460
3 778 1117 1806
3 723 722 756
3 407 403 1805
3 564 574 1752
3 1049 1048 1050
3 842 841 875
3 1608 1546 1842
3 809 808 899
3 1517 1519 1520
3 1530 1532 1533
3 889 421 1772
3 913 1002 1122
3 1314 1316 1367
3 1017 877 1684
3 841 802 1778
3 1235 1236 1237
3 751 1857 1900
3 1114 924 1767
3 1344 1644 2360
3 1895 1394 2371
3 1518 1535 1861
3 1758 1759 1760
3 1122 1002 1719
3 546 563 1750
3 1056 1726 1727
3 663 660 1746
3 621 622 625
3 1720 985 1721
3 1857 1843 1900
3 808 756 913
3 1056 970 1726
3 27 28 230
3 134 135 229
3 908 906 1099
3 163 164 1658
3 1727 1726 1729
3 7 8 258
3 154 155 259
3 1101 1403 1404
3 808 913 1874
3 1260 1269 1282
3 1389 1387 2262
3 1297 1053 1822
3 1555 1553 1557
3 1463 1464 1465
3 230 28 1765
3 1237 1238 1239
3 554 553 1880
3 775 778 1806
3 985 899 1874
3 1270 1524 2199
3 489 1820 1936
3 692 1072 1794
3 1472 2142 2272
3 1845 496 1929
3 438 431 1814
3 613 615 1824
3 1241 1242 1245
3 1783 415 1915
3 1192 2081 2149
3 178 214 1506
3 1816 988 1817
3 1760 1759 1761
3 1103 1092 1623
3 1512 1345 1661
3 1876 921 2295
3 1165 984 1345
3 978 1074 1075
3 1239 1240 1241
3 542 541 553
3 813 988 1816
3 1148 984 1165
3 871 970 1056
3 472 452 1683
3 1207 1796 1870
3 1167 1166 1754
3 1296 1053 1297
3 966 964 1846
3 976 899 985
3 982 976 984
3 702 1815 2015
3 900 899 976
3 1143 995 1206
3 1576 1024 1827
3 1235 1248 1733
3 1558 1557 1560
3 943 995 1143
3 1920 1144 1943
3 1471 2115 2477
3 29 30 255
3 132 133 254
3 1630 1633 1634
3 1225 1224 1226
3 1925 1573 1926
3 1211 1205 1692
3 725 825 826
3 1113 924 1114
3 600 579 1988
3 717 1552 1567
3 1820 1657 1936
3 674 276 2099
3 395 393 1877
3 572 543 1897
3 1575 1308 2255
3 999 1000 1028
3 1118 1775 1876
3 1797 1798 2430
3 526 546 559
3 867 853 2186
3 1142 1771 1949
3 1068 1275 1442
3 679 385 1779
3 1607 1558 1789
3 580 568 1758
3 1244 1252 1253
3 1760 1761 1762
3 398 402 403
3 1476 1258 1478
3 418 421 889
3 1771 1147 1839
3 164 213 1658
3 1720 1721 2267
3 1668 1591 2512
3 1042 1128 1445
3 1098 1830 1833
3 1102 1092 1103
3 2249 884 2466
3 1104 1103 1434
3 410 416 1821
3 514 513 541
3 580 1758 1763
3 637 673 1741
3 1913 936 1914
3 1394 1395 2337
3 919 920 999
3 577 554 579
3 2111 1660 2263
3 231 1658 1659
3 612 613 644
3 568 543 572
3 770 775 1806
3 1445 1128 1446
3 1546 1548 1842
3 448 460 478
3 810 870 871
3 1789 1560 1819
3 1154 1082 1431
3 873 973 1802
3 379 385 679
3 837 850 921
3 1461 1462 1463
3 1346 1076 1420
3 1088 1344 1808
3 2125 1143 2353
3 931 977 978
3 882 772 1802
3 29 255 1765
3 849 1513 2180
3 1713 827 1806
3 1130 1396 1397
3 681 638 852
3 1417 1321 1873
3 1654 1402 2530
3 502 526 1740
3 1124 888 2177
3 1266 1460 1461
3 515 1175 1840
3 1253 1264 1669
3 479 466 1813
3 1727 1729 1757
3 379 380 385
3 1971 1480 2514
3 1637 1739 2459
3 1207 1205 1208
3 529 519 1899
3 1129 1845 1929
3 224 1661 2267
3 192 1856 2361
3 732 734 1807
3 1184 2163 2435
3 1119 1120 1353
3 415 414 431
3 719 724 725
3 559 546 1750
3 871 872 970
3 1038 917 1622
3 574 699 1752
3 166 167 1679
3 1117 1118 1119
3 1409 1196 2035
3 617 619 621
3 1172 1173 1439
3 1191 1005 1768
3 664 663 684
3 494 493 1841
3 890 529 1731
3 840 802 841
3 493 974 1841
3 385 386 399
3 679 1779 1780
3 371 376 379
3 416 433 1109
3 670 769 1815
3 902 866 903
3 1780 1779 1781
3 480 515 1840
3 970 971 1042
3 433 448 1714
3 28 29 1765
3 1005 949 1142
3 778 780 1117
3 959 1037 1799
3 1073 1003 1076
3 535 532 1898
3 1119 1118 1120
3 658 657 693
3 1378 1379 1380
3 1397 1396 1809
3 1610 1609 1612
3 1819 1560 2016
3 1837 952 1865
3 1719 1131 1881
3 1131 1399 1400
3 1352 1138 2058
3 399 406 409
3 548 1630 2041
3 1275 1338 2251
3 582 1816 1818
3 1835 1836 2144
3 993 1101 1980
3 1699 1698 1700
3 2407 364 2505
3 1189 1190 1788
3 1117 780 1118
3 1830 1829 1831
3 637 672 673
3 692 804 1072
3 1204 1203 1205
3 1374 1170 2139
3 612 692 1794
3 1642 1408 2286
3 723 808 809
3 450 459 1812
3 409 410 414
3 802 801 1778
3 1853 1854 2483
3 1042 1127 1128
3 1199 1846 2225
3 1147 990 1273
3 1383 1384 2432
3 432 431 438
3 1353 1120 1390
3 1093 1091 1094
3 2020 250 2254
3 148 149 1639
3 606 605 648
3 1970 2016 2422
3 2201 2046 2327
3 475 471 513
3 412 407 1951
3 1991 246 2139
3 727 695 728
3 1673 234 1788
3 1554 1556 1559
3 1089 663 1746
3 1846 964 2056
3 923 991 1088
3 409 406 410
3 729 728 730
3 1424 1427 1856
3 1473 1911 2407
3 1376 1377 1378
3 1010 1374 1510
3 853 852 854
3 366 369 1087
3 772 873 1802
3 1219 1218 1626
3 1766 229 2061
3 1088 991 1344
3 922 810 1826
3 518 506 695
3 405 402 2116
3 962 1664 2316
3 913 942 1002
3 932 990 1147
3 629 813 1816
3 876 877 992
3 399 386 406
3 932 845 990
3 1002 1123 1131
3 843 996 1145
3 781 837 1775
3 262 2304 2491
3 431 696 1814
3 1273 1695 1892
3 731 730 732
3 737 732 1807
3 439 438 450
3 1829 498 1841
3 800 685 801
3 767 814 815
3 1060 766 1656
3 673 766 767
3 1403 1605 1882
3 716 718 719
3 1338 1069 1339
3 847 752 1843
3 864 862 1116
3 2302 443 2519
3 923 827 991
3 526 559 1740
3 1911 1473 2358
3 1085 1310 1867
3 809 899 900
3 1227 1226 1228
3 729 730 731
3 1436 1370 1437
3 731 732 737
3 769 827 923
3 456 452 471
3 1433 1503 2471
3 1435 1103 1623
3 385 380 386
3 1141 1787 2460
3 1354 1088 1808
3 657 649 1848
3 415 431 432
3 484 892 1820
3 727 728 729
3 855 854 1450
3 1721 1722 1723
3 1643 1353 1644
3 1145 1916 1960
3 1421 1191 1422
3 466 1812 1813
3 943 944 995
3 1356 1357 1376
3 714 715 716
3 1156 1094 1157
3 598 611 612
3 631 1600 2298
3 590 589 605
3 965 969 1919
3 416 1109 1821
3 242 1697 2335
3 1548 1547 1549
3 550 573 584
3 584 604 632
3 409 414 415
3 712 713 714
3 642 670 702
3 818 698 819
3 1006 1005 1191
3 1624 1689 1691
3 169 170 237
3 173 174 238
3 956 912 1003
3 937 936 1913
3 1317 1025 1875
3 515 540 550
3 973 1799 1800
3 973 959 1799
3 518 695 727
3 910 819 912
3 584 573 604
3 1170 946 1418
3 173 238 1847
3 550 540 573
3 982 984 1148
3 900 976 982
3 441 435 452
3 448 478 1714
3 1849 1648 2173
3 1631 1628 1637
3 1830 1831 1832
3 1383 1216 1384
3 734 772 882
3 949 933 1770
3 1332 1330 1333
3 574 575 591
3 1105 1088 1354
3 702 670 1815
3 498 494 1841
3 827 770 1806
3 873 959 973
3 1390 1391 1415
3 450 438 459
3 950 949 1005
3 351 362 364
3 1313 1029 1314
3 432 438 439
3 837 838 850
3 1273 1274 1695
3 850 851 943
3 911 952 1837
3 1259 1260 1804
3 566 587 588
3 1037 1216 1383
3 1337 1265 1538
3 1087 369 1795
3 810 655 870
3 1559 1561 1566
3 1147 1273 1839
3 732 733 734
3 1662 867 2126
3 890 1731 2241
3 1854 1852 2397
3 515 479 540
3 451 450 466
3 697 666 698
3 1367 1316 1368
3 662 660 663
3 365 355 694
3 1358 1114 1767
3 379 376 380
3 1796 1448 1797
3 179 180 1859
3 790 668 849
3 569 568 580
3 690 860 931
3 466 450 1812
3 431 414 696
3 1973 1133 1974
3 651 649 657
3 467 466 479
3 1288 1289 1835
3 264 265 1986
3 1302 1303 1304
3 592 596 597
3 1873 1321 2037
3 544 543 568
3 275 277 549
3 209 1937 2389
3 539 565 566
3 1485 227 1486
3 2384 2190 2408
3 1781 1779 1783
3 480 479 515
3 689 1416 2413
3 1108 1161 1539
3 1867 1310 1895
3 1300 1301 1302
3 1695 1696 1697
3 633 632 668
3 1304 1451 1452
3 988 911 1837
3 168 169 1724
3 969 1012 1172
3 582 629 1816
3 1843 752 1900
3 629 812 813
3 710 711 712
3 1782 1780 1784
3 536 535 543
3 1089 1746 1969
3 1108 1107 1161
3 1514 1426 1856
3 486 484 1820
3 369 371 1795
3 1817 988 1924
3 493 609 974
3 1422 1191 2023
3 1426 1424 1856
3 842 875 924
3 922 1826 2259
3 989 1361 1886
3 928 1070 1288
3 669 668 790
3 1113 1114 1356
3 1027 847 1843
3 728 695 1098
3 734 735 772
3 975 1107 1108
3 955 859 1962
3 813 911 988
3 1208 1448 1796
3 1101 1405 1980
3 602 676 2045
3 586 581 589
3 546 547 563
3 493 491 609
3 628 1524 2390
3 348 344 354
3 1298 1299 1300
3 509 538 539
3 974 609 975
3 813 891 911
3 871 870 872
3 1355 1354 1423
3 489 486 1820
3 778 779 780
3 1025 1176 1875
3 772 773 873
3 803 1743 2347
3 167 202 1679
3 873 883 959
3 1483 1571 2375
3 427 1756 2221
3 540 1813 1954
3 1202 1200 1203
3 959 1035 1037
3 837 921 1775
3 1304 1305 1451
3 1799 1383 2195
3 604 642 1862
3 1470 1744 2474
3 1854 2397 2453
3 1282 1269 1386
3 1573 1572 2157
3 472 2222 2290
3 1307 1708 2341
3 769 770 827
3 1037 1215 1216
3 791 790 856
3 1053 1052 1822
3 1056 1727 1728
3 1341 1138 1352
3 1300 1299 1301
3 1814 696 1838
3 1198 1196 1409
3 492 491 493
3 439 450 451
3 1171 858 2132
3 1259 1254 1260
3 665 626 666
3 970 872 971
3 258 1602 2357
3 1296 1297 1472
3 490 489 491
3 516 437 2494
3 1298 1027 1299
3 846 845 932
3 501 508 509
3 460 461 502
3 448 449 460
3 482 480 1840
3 1229 1228 1230
3 604 641 642
3 1424 1423 1427
3 502 503 526
3 1028 1000 1029
3 935 933 949
3 1084 1085 1867
3 2028 1711 2353
3 1513 1426 1514
3 892 482 1840
3 852 638 1988
3 402 395 1877
3 738 737 845
3 413 412 418
3 1119 1353 1643
3 526 527 546
3 280 279 281
3 1731 1155 2123
3 1042 971 1127
3 1208 1447 1448
3 433 434 448
3 262 159 2304
3 184 1454 2303
3 1051 1052 1053
3 1816 1817 1818
3 1081 1417 1444
3 781 836 837
3 911 951 952
3 1090 1092 1102
3 202 168 1724
3 1085 1309 1310
3 408 407 412
3 1337 1538 1864
3 1515 1514 1516
3 530 529 890
3 1517 1518 1519
3 549 686 687
3 923 1088 1105
3 404 403 407
3 1835 1289 1836
3 1314 1367 2121
3 1380 1379 2416
3 670 671 769
3 899 808 1874
3 1040 903 1703
3 1596 1595 2154
3 1496 1495 1497
3 636 637 1741
3 1377 1638 2288
3 1288 1070 1289
3 1072 804 1981
3 1129 1334 1845
3 1865 1084 1866
3 792 922 1603
3 1253 1252 1254
3 981 1167 1792
3 1302 1301 1303
3 1641 1651 2019
3 952 953 1084
3 1813 1812 1869
3 732 730 733
3 975 1106 1107
3 1142 949 1770
3 981 1166 1167
3 840 841 842
3 451 466 467
3 1273 990 1274
3 1049 1050 1051
3 1473 2407 2505
3 968 966 1199
3 642 643 670
3 1310 1309 1311
3 422 419 435
3 1063 833 1082
3 919 782 920
3 911 891 951
3 1084 953 1085
3 1763 1764 2164
3 1498 1497 1682
3 515 550 1175
3 1079 937 1913
3 642 702 1862
3 845 737 1931
3 1394 1311 1395
3 1395 1521 1522
3 467 479 480
3 1755 1754 1793
3 1231 1230 1232
3 1557 1553 2030
3 1624 1691 2262
3 584 632 633
3 1094 1091 1969
3 708 709 710
3 1948 1627 2488
3 952 951 953
3 1102 1103 1104
3 1047 1048 1049
3 1310 1311 1394
3 1852 1099 1985
3 143 144 1717
3 813 812 891
3 1944 1044 1945
3 1105 1354 1355
3 1300 1302 1455
3 1914 936 1940
3 1415 1391 1710
3 1299 1027 1843
3 952 1084 1865
3 1695 1274 1696
3 776 774 1928
3 282 281 283
3 2003 1347 2279
3 1206 995 1499
3 1164 1685 1686
3 1551 1565 2030
3 969 1172 1919
3 633 668 669
3 734 733 735
3 1373 1372 1438
3 599 600 636
3 1431 1860 2487
3 1579 1577 1999
3 484 482 892
3 917 940 941
3 2144 1836 2169
3 1866 1084 1867
3 1110 1747 1748
3 998 1171 1811
3 1390 1120 1391
3 644 1824 2057
3 1362 1961 2048
3 944 1283 1825
3 1086 1027 1298
3 679 1780 1782
3 974 975 1879
3 507 506 518
3 1121 1079 1401
3 775 777 778
3 1965 762 2349
3 1045 1046 1047
3 1772 421 2106
3 16 17 2081
3 416 417 433
3 921 850 2125
3 1607 1855 1958
3 649 648 1848
3 1241 1240 1242
3 2012 1443 2251
3 926 928 1920
3 1487 1488 2025
3 1006 1191 1421
3 1355 1423 1424
3 1133 852 1988
3 591 592 1776
3 1299 1843 1857
3 1085 1308 1309
3 490 491 492
3 958 694 1575
3 1384 1216 1385
3 741 915 1878
3 1233 1232 1234
3 669 790 791
3 481 480 482
3 687 703 704
3 492 493 494
3 1634 1633 1922
3 1697 1696 1698
3 1721 985 1722
3 1839 1273 1892
3 772 735 773
3 488 486 489
3 950 1005 1006
3 1513 1514 1515
3 454 500 501
3 873 773 883
3 284 283 285
3 2185 1505 2442
3 959 883 1035
3 543 535 1897
3 1904 1384 2093
3 800 801 802
3 1037 1035 1215
3 1293 1964 1965
3 1239 1238 1240
3 943 1143 2125
3 1782 1784 1785
3 913 756 942
3 488 490 1884
3 1590 1749 2501
3 1235 1234 1236
3 791 856 1408
3 702 2015 2070
3 1108 1539 1540
3 1021 1023 1045
3 695 506 1828
3 1530 1528 1532
3 488 489 490
3 1621 1619 2161
3 704 705 706
3 1304 1303 1305
3 558 1704 2167
3 625 622 626
3 542 553 554
3 604 573 641
3 664 684 685
3 564 571 574
3 1108 1540 1879
3 1856 1427 2361
3 880 1025 1129
3 1395 1311 1521
3 1466 1465 1467
3 915 495 1884
3 1515 1516 1523
3 1237 1236 1238
3 606 648 649
3 999 920 1000
3 676 829 1043
3 2100 794 2142
3 227 151 1500
3 577 579 599
3 153 154 1671
3 1175 550 1927
3 1014 888 1015
3 286 285 287
3 1649 1280 2427
3 1725 204 2137
3 975 609 1106
3 1129 1317 1334
3 1109 1730 2426
3 1468 1467 1469
3 1131 1123 1399
3 1215 2235 2378
3 1976 1149 1989
3 397 395 398
3 746 743 1878
3 1041 1343 1598
3 975 1108 1879
3 741 495 915
3 1167 1754 1755
3 288 287 289
3 743 741 1878
3 1274 990 1931
3 1506 214 1507
3 857 1584 2277
3 2341 1522 2387
3 846 932 933
3 1107 1106 1110
3 584 633 1927
3 290 289 291
3 722 591 1776
3 1544 1094 1969
3 1135 270 1647
3 935 949 950
3 1920 1288 2080
3 754 1896 2108
3 1693 1199 2225
3 292 291 293
3 394 393 395
3 745 743 746
3 1002 942 1123
3 731 737 738
3 294 293 295
3 1018 1573 1925
3 296 295 297
3 298 297 299
3 321 322 325
3 317 320 321
3 314 315 317
3 312 313 314
3 310 311 312
3 308 309 310
3 1898 890 2275
3 306 307 308
3 304 305 306
3 1401 1079 1913
3 300 299 301
3 302 303 304
3 300 301 302
3 302 301 303
3 491 489 1936
3 298 299 300
3 304 303 305
3 306 305 307
3 308 307 309
3 310 309 311
3 312 311 313
3 314 313 315
3 317 315 320
3 321 320 322
3 1301 1299 1857
3 514 541 542
3 296 297 298
3 850 838 851
3 1310 1394 1895
3 294 295 296
3 590 605 606
3 292 293 294
3 651 657 658
3 290 291 292
3 1207 1208 1796
3 835 1976 1989
3 621 619 622
3 746 1878 1896
3 481 482 483
3 1026 847 1027
3 1335 1207 1870
3 1661 59 2266
3 727 729 1155
3 288 289 290
3 1058 776 1928
3 662 663 664
3 495 488 1884
3 1959 319 2522
3 943 851 944
3 1293 1291 1964
3 534 532 535
3 640 645 646
3 2280 1014 2385
3 286 287 288
3 591 575 592
3 521 519 529
3 13 14 2114
3 780 779 781
3 918 908 1850
3 837 836 838
3 209 148 1639
3 754 748 1896
3 745 746 747
3 769 671 770
3 929 1065 2197
3 1278 1058 1279
3 483 482 484
3 1564 1557 2030
3 633 807 1927
3 392 391 393
3 1057 1621 2161
3 569 580 581
3 284 285 286
3 876 992 1894
3 497 494 498
3 1630 1635 2041
3 982 1148 1918
3 612 611 613
3 700 634 1044
3 822 674 2099
3 880 1129 1929
3 432 439 654
3 1039 1291 1292
3 1164 1686 1989
3 1129 1025 1317
3 738 845 846
3 582 583 629
3 278 6 279
3 544 568 569
3 1701 1274 1931
3 747 749 751
3 1085 953 1308
3 928 930 1070
3 747 748 749
3 1421 1422 2415
3 902 903 904
3 1309 1308 1543
3 642 641 643
3 904 981 1792
3 646 784 785
3 536 543 544
3 1204 1205 1207
3 365 694 958
3 71 72 217
3 88 89 1901
3 87 88 193
3 101 102 189
3 85 86 242
3 99 100 241
3 74 75 192
3 91 92 219
3 94 95 191
3 83 84 220
3 97 98 221
3 77 78 218
3 80 81 194
3 89 90 245
3 62 63 244
3 60 61 188
3 64 65 223
3 67 68 190
3 90 91 1909
3 98 99 1905
3 61 62 1908
3 69 70 243
3 68 69 1907
3 70 71 1910
3 410 411 416
3 586 589 590
3 685 684 2029
3 390 389 391
3 1715 1150 1811
3 1924 1837 2215
3 282 283 284
3 496 497 1929
3 233 1671 1769
3 627 2185 2442
3 1567 1552 2062
3 629 630 812
3 424 453 454
3 583 562 1942
3 749 750 805
3 744 743 745
3 1897 535 1898
3 467 480 481
3 504 759 880
3 670 643 671
3 89 245 1901
3 193 88 1901
3 221 98 1905
3 245 90 1909
3 91 219 1909
3 62 244 1908
3 188 61 1908
3 99 241 1905
3 190 68 1907
3 71 217 1910
3 69 243 1907
3 243 70 1910
3 505 499 506
3 475 513 514
3 1945 1044 2071
3 1712 2125 2353
3 339 343 440
3 989 1360 1361
3 764 869 1152
3 778 777 779
3 1686 1685 1687
3 742 741 743
3 979 989 1886
3 729 731 1887
3 926 927 928
3 1305 1306 1307
3 1838 1278 2292
3 747 746 748
3 181 182 1652
3 1886 1361 2305
3 1595 1594 2486
3 597 596 598
3 928 1288 1920
3 1970 824 2156
3 1425 1424 1426
3 497 504 1929
3 748 746 1896
3 745 747 1900
3 998 858 1171
3 563 547 564
3 1155 729 1887
3 634 583 1942
3 1439 1173 1440
3 1026 1027 1086
3 79 80 1904
3 1533 1532 1536
3 1449 1426 1513
3 1106 609 1936
3 1318 1013 1319
3 1098 695 1828
3 492 494 496
3 750 748 754
3 731 738 1887
3 2415 1422 2516
3 533 562 582
3 988 1837 1924
3 1216 1215 1863
3 534 535 536
3 747 751 1900
3 1753 809 2119
3 1183 824 1970
3 740 495 741
3 80 194 1904
3 893 383 2087
3 655 605 1939
3 1884 2034 2082
3 1301 1857 1923
3 1307 1306 1708
3 752 745 1900
3 750 754 755
3 76 77 1903
3 2090 2347 2365
3 255 30 2159
3 132 254 2160
3 448 434 449
3 753 848 926
3 1075 1074 1327
3 487 488 495
3 377 381 647
3 483 484 485
3 755 754 2148
3 1584 1925 2277
3 1186 1183 1970
3 951 891 1281
3 485 484 486
3 546 527 547
3 133 134 1766
3 1786 1785 2409
3 280 281 282
3 460 449 461
3 744 745 752
3 77 218 1903
3 983 1918 2342
3 1708 1306 1810
3 1389 2069 2170
3 487 486 488
3 641 573 1954
3 507 518 519
3 502 461 503
3 519 518 1899
3 1202 1203 1204
3 821 897 1972
3 92 93 1902
3 521 529 530
3 749 748 750
3 2176 1380 2416
3 885 826 886
3 485 486 487
3 371 372 376
3 1289 1070 1871
3 1110 1657 1747
3 753 926 1943
3 700 1044 1944
3 880 881 1025
3 496 1845 2034
3 1072 1981 2393
3 462 464 2134
3 1949 1771 2359
3 1044 634 1942
3 550 584 1927
3 1390 1415 2118
3 526 503 527
3 990 845 1931
3 1009 1213 1214
3 740 742 1144
3 219 92 1902
3 727 1155 1899
3 369 370 371
3 623 690 2150
3 1279 1058 1928
3 1408 2235 2286
3 487 495 740
3 979 1886 2086
3 1305 1303 1306
3 421 412 1951
3 843 844 996
3 633 669 807
3 518 727 1899
3 826 825 1961
3 1657 1106 1936
3 1172 1012 1173
3 740 741 742
3 433 417 434
3 505 506 507
3 1333 1674 2437
3 742 743 744
3 469 458 470
3 1381 1380 1382
3 1293 1965 2515
3 1554 1559 2062
3 553 557 2499
3 1774 389 2339
3 497 498 499
3 483 485 576
3 740 1144 1935
3 773 735 834
3 366 367 369
3 1120 1118 1876
3 1515 1523 1574
3 1319 1013 2039
3 1303 1301 1923
3 457 447 458
3 561 593 594
3 1355 1424 1425
3 609 491 1936
3 204 1732 2137
3 791 1408 1642
3 995 944 1825
3 456 471 475
3 1692 1693 2239
3 580 1763 2164
3 1292 1293 2117
3 441 452 456
3 388 384 389
3 823 821 1972
3 504 880 1929
3 176 177 1680
3 1070 1071 1871
3 15 2260 2477
3 362 363 366
3 2178 2300 2449
3 1035 883 1036
3 2285 1563 2307
3 978 977 1074
3 1090 1102 2029
3 1810 1306 1923
3 496 494 497
3 1306 1303 1923
3 432 654 1915
3 934 933 935
3 356 355 365
3 398 403 404
3 635 701 843
3 1110 1106 1657
3 574 571 575
3 1025 881 1176
3 386 380 786
3 415 432 1915
3 343 347 1911
3 1070 930 1071
3 1688 1740 2231
3 1385 1216 1863
3 1696 1274 1701
3 1645 305 2317
3 880 759 881
3 926 848 927
3 1427 1423 2217
3 1339 1662 2388
3 770 774 775
3 1263 1257 1428
3 1337 1864 2412
3 349 348 355
3 2267 1721 2498
3 753 752 847
3 1375 1086 1473
3 900 982 983
3 332 335 739
3 429 428 430
3 744 752 753
3 1171 2132 2165
3 1425 1426 1449
3 987 641 1954
3 1883 1786 2409
3 427 426 428
3 928 927 930
3 1815 1105 2015
3 1206 1499 1941
3 410 406 411
3 573 540 1954
3 497 499 504
3 528 560 561
3 1933 1404 2399
3 1091 1089 1969
3 1804 1282 2073
3 504 505 759
3 963 924 1113
3 1711 1710 1712
3 881 759 1146
3 968 1199 1200
3 351 352 362
3 848 847 1026
3 521 530 531
3 1884 490 2034
3 1277 957 1966
3 1349 1350 2329
3 676 1043 2045
3 997 1159 1286
3 517 1889 1890
3 781 835 836
3 944 948 1283
3 722 1776 2026
3 507 519 520
3 2040 1352 2058
3 1276 957 1277
3 446 437 447
3 931 860 977
3 361 359 765
3 1248 1536 2534
3 512 523 528
3 408 412 413
3 1368 1369 1370
3 451 2169 2223
3 192 75 1994
3 942 756 2026
3 345 344 348
3 764 1152 1963
3 413 418 419
3 1286 1773 1774
3 770 671 774
3 275 549 2124
3 1497 1645 2461
3 1982 1472 2272
3 422 435 441
3 281 279 736
3 1134 270 1135
3 582 562 583
3 1421 2415 2454
3 485 487 1935
3 2300 1067 2480
3 1578 1576 1827
3 930 927 1061
3 1026 1086 1375
3 922 2259 2379
3 1391 1120 1876
3 1495 1494 2493
3 404 407 408
3 879 2178 2449
3 1700 1698 2036
3 607 1517 1520
3 753 847 848
3 416 411 417
3 1144 742 1943
3 775 776 777
3 754 2108 2148
3 1006 1421 1953
3 585 581 586
3 531 530 532
3 235 1709 1888
3 520 519 521
3 1180 1181 1349
3 1146 759 1967
3 708 710 1921
3 1350 2253 2329
3 436 430 437
3 504 499 505
3 643 641 987
3 336 330 517
3 811 1059 1149
3 1164 1411 1685
3 846 933 934
3 635 843 1960
3 983 982 1918
3 971 872 1096
3 1149 1163 1164
3 169 237 1724
3 1314 1315 1316
3 629 583 630
3 891 812 1916
3 462 463 464
3 487 740 1935
3 798 2084 2189
3 1814 1838 2292
3 1284 1489 1491
3 340 336 2014
3 1670 1461 2200
3 920 782 2057
3 890 2241 2275
3 510 511 512
3 278 279 280
3 839 802 840
3 1858 235 1888
3 1698 1696 2036
3 104 105 222
3 57 58 224
3 1185 1183 1186
3 588 587 623
3 638 600 1988
3 1282 1386 2245
3 811 776 1058
3 816 815 876
3 2034 1845 2082
3 761 636 1741
3 566 565 587
3 174 175 1725
3 347 350 351
3 1469 1495 1496
3 1059 1058 1278
3 811 1149 1976
3 576 485 1935
3 659 658 660
3 859 1153 1962
3 76 1903 1994
3 1821 1109 2426
3 1294 1038 1622
3 733 1833 2075
3 992 993 1980
3 1566 1561 2285
3 525 474 2041
3 464 465 510
3 343 346 347
3 360 893 1982
3 650 649 651
3 896 608 936
3 950 1006 1007
3 1508 1859 1860
3 539 538 565
3 440 343 1911
3 341 340 344
3 221 1905 1906
3 1297 1823 2142
3 759 505 1967
3 1295 1053 1296
3 473 470 474
3 1463 1465 1466
3 1143 1206 2028
3 799 685 800
3 1210 2077 2203
3 509 508 538
3 492 496 2034
3 1553 1551 2030
3 1260 1261 1269
3 1430 1040 1703
3 586 590 1940
3 838 836 868
3 1705 624 2276
3 1749 972 2501
3 742 744 1943
3 804 962 1981
3 1367 1368 2254
3 531 532 533
3 337 336 340
3 1157 1094 1544
3 536 544 1158
3 812 630 1960
3 781 779 835
3 56 57 1947
3 630 583 634
3 1405 1404 1932
3 1281 891 1916
3 339 342 343
3 1411 1163 1730
3 322 323 324
3 344 340 2091
3 1735 1734 1736
3 75 76 1994
3 430 682 2494
3 1907 243 2360
3 589 581 2164
3 694 355 2196
3 744 753 1943
3 775 774 776
3 1210 1430 2077
3 335 338 339
3 1102 1803 2029
3 1078 937 1079
3 870 655 1939
3 505 507 1967
3 357 360 1982
3 1896 1878 2101
3 326 325 328
3 934 935 957
3 585 608 895
3 333 330 336
3 1270 1272 1524
3 688 817 878
3 507 520 1967
3 1428 1257 2074
3 1818 1817 2000
3 896 937 1077
3 934 957 1111
3 329 328 330
3 1499 995 1825
3 944 851 948
3 387 445 462
3 1678 1161 2228
3 777 776 811
3 313 311 757
3 324 331 332
3 848 1026 1955
3 1312 998 1811
3 1321 1322 2037
3 1080 1079 1121
3 1105 1355 2015
3 1645 2317 2461
3 1559 1568 2062
3 332 334 335
3 501 500 508
3 321 325 326
3 394 395 397
3 322 320 323
3 1529 1530 2171
3 1137 797 1138
3 811 1058 1059
3 661 660 662
3 569 581 585
3 183 4 2303
3 5 160 2304
3 1340 1138 1341
3 1660 1626 2185
3 1743 1464 2347
3 1026 1375 1955
3 1149 1059 1163
3 1736 1625 2194
3 1322 1667 2434
3 311 309 1959
3 309 307 319
3 894 700 1944
3 533 534 562
3 1276 1277 1366
3 2190 1706 2408
3 533 532 534
3 1214 1213 1410
3 1164 1163 1411
3 843 701 844
3 1009 1214 2055
3 234 1589 1788
3 2000 1817 2174
3 317 321 2050
3 328 325 945
3 392 393 394
3 588 623 2089
3 1162 958 1681
3 1078 1080 1136
3 927 848 1955
3 1496 1497 1498
3 390 391 392
3 1061 927 1955
3 1283 948 1284
3 635 634 700
3 1244 1251 1252
3 218 78 2093
3 756 722 2026
3 1071 1784 2419
3 1218 1505 2185
3 1284 948 1285
3 1489 1285 1490
3 918 1850 1851
3 684 1090 2029
3 1759 572 2537
3 1691 1690 2446
3 1979 1158 2071
3 606 649 650
3 2045 1043 2046
3 103 104 2025
3 630 634 635
3 360 383 893
3 406 386 2043
3 1909 219 2023
3 1111 957 1276
3 1925 1437 2277
3 1536 2268 2340
3 854 852 1133
3 233 153 1671
3 651 658 659
3 2099 1787 2368
3 1033 1032 1130
3 1015 1372 1373
3 1412 942 2026
3 253 264 1441
3 1531 1534 2332
3 701 700 894
3 106 107 1990
3 2048 1961 2455
3 276 274 2099
3 738 846 1968
3 1325 925 1326
3 896 936 937
3 585 586 608
3 1450 854 1973
3 1361 1360 1362
3 1045 1668 2512
3 303 301 444
3 996 844 997
3 79 1904 2093
3 1989 1686 2095
3 1928 774 2033
3 1942 562 1979
3 287 285 316
3 935 950 1966
3 1466 1467 1468
3 1242 1243 1244
3 1887 738 1968
3 2115 210 2477
3 878 929 1083
3 1326 1736 2194
3 886 888 1014
3 895 608 896
3 289 287 1978
3 821 822 897
3 936 608 1940
3 613 614 615
3 51 52 1996
3 417 411 1160
3 1149 1164 1989
3 386 786 2043
3 285 283 1971
3 1309 1543 2147
3 375 373 2053
3 371 370 372
3 779 777 1976
3 1286 1159 1773
3 2177 887 2376
3 1560 1557 1564
3 1403 1882 2399
3 1727 1757 2246
3 279 6 2049
3 1619 1438 2438
3 291 289 758
3 1781 1915 2294
3 425 401 426
3 349 355 356
3 66 67 2118
3 474 548 2041
3 1686 1687 2007
3 1262 1456 1457
3 1123 942 1412
3 1916 812 1960
3 1355 1425 2015
3 735 733 2075
3 1861 879 2449
3 1284 1285 1489
3 490 492 2034
3 366 363 367
3 980 578 2051
3 906 904 1792
3 534 536 1979
3 842 924 963
3 2051 578 2083
3 1077 937 1078
3 1102 1104 1803
3 894 1944 1946
3 398 404 2060
3 1007 1006 1953
3 369 367 370
3 348 354 2196
3 1078 1079 1080
3 1378 1380 1381
3 1568 1365 2439
3 608 586 1940
3 598 610 611
3 760 636 761
3 869 1137 1351
3 671 643 2033
3 1661 1345 2267
3 938 914 1057
3 783 761 914
3 576 1835 2144
3 388 389 390
3 297 295 318
3 454 453 500
3 1906 1728 2246
3 1439 1440 2468
3 1159 1013 1318
3 764 797 869
3 236 143 1717
3 782 644 2057
3 592 595 596
3 1542 2332 2443
3 1521 1311 2147
3 345 348 349
3 1304 1452 2205
3 1644 1907 2360
3 2146 1125 2149
3 997 844 1013
3 628 375 2053
3 299 297 1984
3 957 935 1966
3 664 685 799
3 301 299 1975
3 362 352 363
3 777 811 1976
3 1942 1979 2071
3 1001 920 2057
3 312 314 768
3 1552 1554 2062
3 615 616 617
3 357 1982 2076
3 800 802 839
3 774 671 2033
3 1749 1169 2105
3 365 958 1162
3 617 618 619
3 283 281 1938
3 1351 1772 2414
3 1525 1765 2489
3 846 934 1968
3 635 700 701
3 555 554 577
3 536 1158 1979
3 1101 1404 1405
3 630 635 1960
3 1811 1150 2089
3 2113 1666 2249
3 172 173 1847
3 107 108 195
3 54 55 196
3 1191 1768 2023
3 1455 1302 2205
3 115 116 2017
3 1387 1333 2437
3 659 661 764
3 1080 1121 1188
3 50 51 2011
3 411 406 2043
3 295 293 1983
3 643 987 2033
3 707 706 708
3 129 130 261
3 32 33 260
3 2159 260 2265
3 449 434 567
3 1314 1029 1315
3 917 796 940
3 378 375 628
3 108 109 1991
3 2370 1759 2537
3 341 344 345
3 997 1013 1159
3 544 569 1993
3 950 1007 1966
3 477 474 525
3 351 350 352
3 1696 1701 2036
3 334 331 803
3 1137 1138 1340
3 562 534 1979
3 109 110 246
3 52 53 247
3 1368 1316 1369
3 659 660 661
3 33 34 2002
3 123 124 2005
3 835 779 1976
3 851 838 1992
3 1530 1533 2172
3 1668 1045 2348
3 1162 1681 1706
3 342 338 468
3 298 300 358
3 765 359 2065
3 725 826 885
3 35 36 2003
3 46 47 2019
3 38 39 2006
3 336 517 2014
3 934 1111 1968
3 116 117 2018
3 650 651 1963
3 223 1711 2162
3 640 594 645
3 1333 1330 2192
3 104 222 2025
3 1603 922 2379
3 963 1113 1115
3 2084 1193 2189
3 564 570 571
3 36 37 2004
3 57 224 1947
3 1542 1601 2269
3 122 123 2012
3 1000 920 1001
3 127 128 240
3 34 35 239
3 383 387 2087
3 1161 1107 2228
3 1781 2294 2419
3 1201 1200 1202
3 124 125 225
3 37 38 226
3 1340 1341 1342
3 869 797 1137
3 839 840 1008
3 1158 544 1993
3 1326 925 1894
3 352 350 353
3 326 329 954
3 1864 2344 2412
3 836 835 2095
3 1051 1053 1295
3 1031 720 1032
3 503 461 787
3 1407 1112 2044
3 661 662 2058
3 838 868 1992
3 112 113 197
3 49 50 198
3 1359 980 1413
3 121 122 211
3 40 41 212
3 48 49 2010
3 113 114 2009
3 1741 673 2131
3 41 42 2020
3 120 121 2013
3 1409 2035 2097
3 1511 1374 2506
3 114 115 248
3 47 48 249
3 42 43 250
3 119 120 251
3 171 6 201
3 6 172 203
3 585 895 1993
3 43 44 2024
3 118 119 2021
3 905 904 906
3 764 661 797
3 337 340 341
3 1413 980 2051
3 117 118 205
3 44 45 206
3 347 346 350
3 1420 1076 1525
3 324 323 331
3 434 417 2031
3 965 967 969
3 716 719 788
3 1260 1254 1261
3 2053 373 2103
3 2069 2068 2170
3 326 328 329
3 1706 996 2408
3 273 275 2124
3 969 1011 1012
3 590 606 2001
3 1718 1611 2280
3 1914 1940 2001
3 915 1884 2082
3 329 330 333
3 620 859 955
3 2168 1409 2305
3 296 298 1997
3 915 2082 2101
3 339 338 342
3 1218 994 1505
3 333 336 337
3 266 263 1742
3 1873 768 2127
3 244 63 2162
3 64 223 2162
3 343 342 346
3 914 761 2258
3 310 312 1987
3 799 800 2055
3 302 304 763
3 1559 1566 1568
3 1598 1343 2114
3 592 575 595
3 341 345 794
3 189 1842 2220
3 767 815 816
3 1003 912 1004
3 839 1008 1009
3 1263 1428 1429
3 564 547 570
3 1845 1334 2082
3 332 331 334
3 901 866 902
3 651 659 1963
3 1009 1112 1213
3 335 334 338
3 569 585 1993
3 1665 1336 2299
3 1945 2071 2153
3 863 862 864
3 907 906 908
3 1849 1486 1930
3 1935 1144 2080
3 967 966 968
3 809 900 2119
3 865 864 866
3 835 1989 2095
3 190 1907 2417
3 333 337 522
3 1110 1748 2228
3 1193 1194 1195
3 94 191 2166
3 473 1854 2453
3 1769 1134 2369
3 948 851 1992
3 237 170 2216
3 420 419 422
3 1448 1447 2364
3 483 576 2144
3 721 1919 2032
3 885 886 1891
3 613 611 614
3 886 1014 1891
3 1160 411 2043
3 1918 1283 2342
3 1651 206 2485
3 1242 1240 1243
3 598 596 610
3 1295 1296 1459
3 1185 1186 1948
3 1425 1449 2070
3 294 296 762
3 1285 948 1992
3 925 876 1894
3 712 714 789
3 603 1668 2398
3 1940 590 2001
3 721 570 964
3 834 735 2075
3 1144 1920 2080
3 2263 1635 2511
3 1204 1207 1335
3 2235 1408 2378
3 965 964 966
3 1990 1435 2218
3 397 398 2060
3 1138 797 2058
3 1787 1141 2368
3 2068 820 2170
3 360 359 361
3 387 462 2087
3 1524 1272 1934
3 819 698 820
3 1197 1196 1198
3 1662 2126 2388
3 78 79 2093
3 1150 588 2089
3 1269 1261 1270
3 1878 915 2101
3 451 467 2169
3 2262 1387 2437
3 1009 1008 1112
3 757 311 1959
3 897 898 1139
3 1854 473 2483
3 2015 1425 2070
3 2082 1334 2101
3 963 1115 1174
3 1047 1049 1287
3 1194 423 1196
3 321 326 2050
3 417 1160 2031
3 854 1133 1973
3 1201 1212 1348
3 705 1586 2163
3 309 319 1959
3 1353 1390 2417
3 427 428 429
3 357 356 359
3 606 650 2001
3 549 1280 2124
3 1213 1112 1407
3 256 2303 2535
3 356 365 2065
3 662 664 2040
3 701 894 2039
3 1325 1371 2451
3 666 626 667
3 1902 93 2166
3 1236 1234 1246
3 800 839 2055
3 1869 1812 2252
3 1197 1364 1365
3 576 1935 2080
3 404 408 798
3 1678 807 2529
3 1560 1564 2016
3 1319 2039 2122
3 425 426 427
3 349 356 357
3 308 310 327
3 1716 622 2484
3 1801 82 2289
3 1768 1949 2420
3 2006 1926 2507
3 351 364 2407
3 420 423 1193
3 659 764 1963
3 292 294 2038
3 840 842 2027
3 736 279 2049
3 372 373 374
3 461 449 2052
3 2189 1195 2285
3 1174 1115 1398
3 367 363 961
3 909 908 918
3 1738 247 2402
3 1007 1761 2308
3 288 290 2135
3 422 441 2035
3 623 624 690
3 537 525 545
3 1953 1421 2454
3 1887 1968 2123
3 861 691 862
3 654 439 2223
3 1136 1080 2054
3 1312 1811 2089
3 575 571 2032
3 383 361 384
3 968 1200 1201
3 797 661 2058
3 1423 1354 2381
3 1180 1178 1181
3 1513 1515 2180
3 72 73 2217
3 462 445 463
3 12 13 2136
3 457 458 469
3 542 554 555
3 599 636 760
3 254 133 1766
3 1130 1397 1937
3 404 798 2060
3 1044 1942 2071
3 690 691 860
3 357 359 360
3 1008 2027 2152
3 1232 1230 1255
3 372 370 373
3 850 943 2125
3 1457 1456 1492
3 1952 324 2282
3 155 2 2356
3 0 7 2357
3 2017 1379 2288
3 918 1851 2008
3 195 1991 2517
3 2090 803 2347
3 1244 1243 1251
3 290 292 368
3 1432 1082 2214
3 1008 840 2027
3 1743 803 2296
3 1013 844 2039
3 365 1162 2065
3 1594 1315 2184
3 387 384 388
3 1508 1860 2311
3 547 527 2056
3 2005 225 2322
3 314 317 2127
3 1853 556 2327
3 201 6 278
3 1907 1644 2417
3 1896 2101 2108
3 646 645 784
3 538 508 558
3 374 375 377
3 1630 1634 1635
3 1579 1999 2352
3 1647 1648 1849
3 1313 1314 2121
3 1179 1433 2042
3 844 701 2039
3 1252 1251 2098
3 816 876 925
3 1922 1228 2281
3 392 394 396
3 1915 654 2294
3 1652 1653 2487
3 429 430 436
3 456 475 476
3 1605 1392 2510
3 126 1882 2284
3 1784 1780 2419
3 500 453 960
3 377 378 381
3 2178 1587 2300
3 1222 1219 1626
3 413 419 420
3 381 382 400
3 2169 1836 2223
3 1906 1905 2129
3 616 614 793
3 1170 1419 2139
3 101 189 2220
3 241 100 2220
3 1968 1111 2123
3 567 434 2031
3 615 614 616
3 1032 720 1921
3 682 428 2138
3 469 470 473
3 339 440 2261
3 1501 238 2226
3 1154 1431 1653
3 446 447 457
3 1251 1243 1257
3 2229 315 2495
3 1201 1202 1212
3 785 784 879
3 464 463 465
3 66 2118 2395
3 324 332 2282
3 286 288 771
3 17 199 2081
3 571 570 721
3 611 610 2092
3 617 616 618
3 1542 1531 2332
3 400 401 424
3 1325 1326 1371
3 1140 1406 1702
3 1323 443 2302
3 1926 1573 2507
3 436 437 446
3 1262 1457 2098
3 67 190 2118
3 1518 1861 2449
3 989 1359 1360
3 1063 1082 1154
3 1757 96 2526
3 969 967 1011
3 868 836 2095
3 1215 1035 2235
3 96 1757 2309
3 261 2160 2380
3 1381 1382 2126
3 1468 1469 2182
3 1334 1317 2108
3 861 863 1064
3 1270 1261 1271
3 360 361 383
3 287 316 1978
3 1856 192 2367
3 1905 241 2129
3 1615 1809 2425
3 528 523 560
3 979 980 989
3 662 2040 2058
3 721 964 965
3 170 171 2216
3 664 799 2040
3 512 511 523
3 1201 1348 2107
3 620 618 858
3 758 289 1978
3 859 858 998
3 424 425 453
3 1616 1615 2193
3 444 301 1975
3 561 560 593
3 965 966 967
3 1798 376 2430
3 340 2014 2091
3 510 465 511
3 107 195 1990
3 1080 1188 2054
3 1153 998 1312
3 1226 1224 1249
3 1012 1011 1363
3 902 904 905
3 842 963 2027
3 268 270 1134
3 865 901 1125
3 2077 558 2102
3 282 284 442
3 1977 1679 2253
3 1496 1498 2047
3 284 286 2063
3 281 736 1938
3 2132 793 2165
3 1674 215 2437
3 2078 1855 2411
3 839 1009 2055
3 1182 824 1183
3 1168 947 1169
3 1289 1871 2242
3 316 285 1971
3 1270 1271 1272
3 1755 1793 2264
3 51 1996 2011
3 383 384 387
3 1146 1924 2215
3 1279 1928 2202
3 619 618 620
3 1194 1196 1197
3 555 578 979
3 1937 1639 2528
3 1262 1257 1263
3 389 384 2339
3 2251 1338 2464
3 1155 1887 2123
3 1151 1937 2528
3 465 463 828
3 1318 1319 2116
3 1687 1688 2231
3 326 954 2050
3 297 318 1984
3 1308 953 2255
3 1846 2056 2198
3 320 315 2229
3 1254 1252 2059
3 760 761 783
3 951 1281 2255
3 1459 1296 2094
3 2288 1638 2470
3 1975 299 1984
3 52 247 1996
3 468 338 2090
3 2140 1511 2506
3 1125 1126 1192
3 593 824 1182
3 720 708 1921
3 704 706 707
3 623 587 624
3 2044 1112 2152
3 1393 1169 1749
3 900 983 2119
3 783 914 938
3 255 2265 2489
3 2039 894 2122
3 317 2050 2127
3 1866 1867 2513
3 374 373 375
3 429 436 455
3 387 388 445
3 1193 423 1194
3 555 577 578
3 1074 977 1187
3 449 567 2052
3 1197 1198 1364
3 2154 1595 2486
3 1486 1849 2173
3 318 295 1983
3 939 1016 1844
3 131 132 2160
3 30 31 2159
3 881 1146 2215
3 1294 1868 2238
3 1300 1455 2314
3 1365 1364 1912
3 783 938 939
3 2061 1735 2441
3 551 545 601
3 2194 216 2536
3 1251 1257 1262
3 888 887 2177
3 1364 1198 2048
3 1498 1682 2340
3 1589 1590 2501
3 60 188 2266
3 1401 1913 2324
3 195 108 1991
3 420 422 423
3 1675 1470 2474
3 258 1673 2183
3 2161 1619 2438
3 1296 1472 2094
3 1808 1910 2381
3 334 803 2090
3 1490 1285 2232
3 523 511 524
3 1240 1238 2074
3 1184 1183 1185
3 39 40 2151
3 473 474 477
3 1461 1463 2200
3 2072 353 2073
3 861 862 863
3 1206 1941 2401
3 958 1575 2287
3 614 611 2092
3 110 111 2140
3 1136 2054 2110
3 645 594 2133
3 260 33 2002
3 673 767 2131
3 989 980 1359
3 1741 2131 2258
3 1317 1875 2148
3 894 1946 2122
3 863 864 865
3 787 461 2052
3 857 2277 2386
3 109 246 1991
3 2017 116 2018
3 1182 1183 1184
3 377 375 378
3 816 925 1324
3 865 866 901
3 1262 1263 1456
3 359 356 2065
3 2129 241 2472
3 283 1938 1971
3 1458 1210 2203
3 1076 1003 2145
3 196 1738 2402
3 1033 1130 1151
3 1188 1121 2106
3 1140 1702 2096
3 549 687 1280
3 1694 1621 2191
3 861 1064 2112
3 1548 1549 2129
3 1784 1071 2462
3 714 716 2066
3 1961 825 2455
3 1447 1211 2250
3 979 578 980
3 905 907 1209
3 381 378 382
3 457 469 552
3 595 575 2032
3 408 413 2084
3 481 483 2144
3 1745 1349 2293
3 1980 1405 2441
3 198 50 2011
3 248 115 2017
3 912 819 2068
3 620 858 859
3 707 708 720
3 821 674 822
3 514 542 2086
3 400 382 401
3 123 2005 2012
3 1772 1351 2374
3 34 239 2002
3 768 314 2127
3 2003 36 2004
3 280 282 2079
3 124 225 2005
3 596 595 2130
3 593 560 824
3 1504 1502 2519
3 239 35 2003
3 1311 1309 2147
3 1318 1877 2240
3 1860 1432 2311
3 1416 1715 2330
3 859 998 1153
3 352 353 2072
3 312 768 1987
3 2027 1174 2152
3 226 38 2006
3 1827 1024 2117
3 1710 1391 2295
3 690 624 691
3 37 226 2004
3 1153 1312 1885
3 853 855 2186
3 1892 242 2373
3 1967 520 2174
3 939 938 1016
3 47 249 2019
3 388 390 2078
3 1991 2139 2517
3 905 906 907
3 571 721 2032
3 1196 423 2035
3 1324 925 1325
3 1151 1130 1937
3 363 352 2072
3 345 349 2076
3 1031 1032 1033
3 214 179 1859
3 211 122 2012
3 602 601 652
3 117 205 2018
3 710 712 2067
3 1602 187 2357
3 520 2000 2174
3 85 242 2335
3 220 84 2335
3 381 400 2113
3 1586 1587 2435
3 424 401 425
3 963 1174 2027
3 860 691 861
3 610 596 2130
3 1958 2078 2431
3 570 547 2056
3 237 2216 2354
3 1211 1692 2219
3 298 358 1997
3 909 947 1041
3 441 456 2097
3 1135 1647 1849
3 1601 1542 2443
3 197 113 2009
3 49 198 2010
3 1911 347 2407
3 1729 191 2309
3 212 41 2020
3 121 211 2013
3 222 105 2218
3 1125 901 1126
3 114 248 2009
3 249 48 2010
3 42 250 2020
3 251 120 2013
3 233 1769 2369
3 1870 647 2113
3 794 345 2076
3 250 43 2024
3 119 251 2021
3 901 902 2141
3 964 570 2056
3 739 335 2261
3 2108 1317 2148
3 577 599 2083
3 205 118 2021
3 44 206 2024
3 1247 1241 2323
3 1894 992 2244
3 6 203 2049
3 1642 1678 2529
3 1417 1873 2333
3 1422 2023 2516
3 341 794 2100
3 73 74 2361
3 1234 1232 2088
3 1261 1254 2059
3 896 1077 2257
3 1921 710 2067
3 125 126 2284
3 220 1699 2289
3 159 5 2304
3 4 184 2303
3 2059 1252 2098
3 1003 1004 2145
3 2328 1325 2451
3 1486 227 1500
3 63 64 2162
3 2081 1192 2260
3 508 500 2102
3 667 1872 2318
3 338 334 2090
3 423 422 2035
3 1192 1126 1471
3 907 908 909
3 1330 1328 2192
3 1972 897 2500
3 2443 316 2514
3 242 86 2373
3 87 193 2373
3 420 1193 2084
3 1473 1086 2358
3 1987 768 2037
3 522 337 2100
3 627 1660 2185
3 1793 446 2264
3 1405 2061 2441
3 1502 1217 2302
3 171 201 2216
3 1158 1993 2153
3 1197 1365 2120
3 1712 1710 2295
3 1121 1401 2414
3 93 94 2166
3 653 652 688
3 622 1716 2452
3 1345 1720 2267
3 477 537 556
3 128 129 2181
3 2331 1295 2458
3 784 645 874
3 1269 1270 2199
3 189 102 2355
3 1041 1168 1343
3 246 110 2140
3 477 525 537
3 755 1895 2371
3 1947 1723 2313
3 1134 1135 2369
3 223 65 2395
3 968 1201 2107
3 1577 1578 2325
3 210 15 2477
3 961 363 2072
3 1581 1579 2352
3 349 357 2076
3 337 341 2100
3 305 303 2317
3 370 367 2103
3 762 296 1997
3 581 580 2164
3 1278 1838 2372
3 1548 2129 2472
3 594 593 2133
3 2021 251 2022
3 2047 1247 2182
3 967 968 2107
3 1169 947 2008
3 481 2144 2169
3 793 614 2092
3 1910 217 2381
3 1251 1262 2098
3 716 788 2066
3 2101 1334 2108
3 2006 39 2151
3 1603 2379 2508
3 1926 2006 2151
3 96 97 2526
3 750 755 2371
3 789 714 2066
3 909 918 947
3 1993 895 2153
3 106 1990 2218
3 1243 1240 2074
3 832 986 1189
3 1283 1284 2342
3 2297 195 2517
3 1043 829 2326
3 767 816 2131
3 602 653 676
3 1004 912 2068
3 2086 1886 2224
3 1124 2177 2467
3 426 401 2531
3 707 720 1030
3 1000 1001 2184
3 1315 1029 2184
3 467 481 2169
3 541 513 2256
3 647 381 2113
3 225 2284 2510
3 2 156 2356
3 187 0 2357
3 40 212 2151
3 2245 1386 2383
3 676 677 829
3 1004 2068 2069
3 1860 232 2487
3 1031 1033 1034
3 829 830 972
3 996 997 2408
3 1195 1194 2120
3 987 1869 2202
3 1410 1213 2222
3 819 820 2068
3 1485 1486 2173
3 1564 2030 2155
3 807 669 2529
3 129 261 2181
3 1525 1076 2145
3 578 577 2083
3 327 310 1987
3 1083 929 2197
3 2131 1324 2258
3 798 408 2084
3 1838 696 2426
3 1486 1500 1930
3 1946 1944 2291
3 2257 1077 2291
3 1512 1661 2266
3 445 388 2078
3 1192 1471 2260
3 2118 1415 2395
3 1466 1468 2158
3 830 677 831
3 211 2012 2251
3 652 601 2442
3 537 545 551
3 558 508 2102
3 198 2011 2128
3 1718 2280 2385
3 500 960 2102
3 1168 1169 1393
3 1127 971 2496
3 95 96 2309
3 2030 1565 2155
3 1919 1172 2273
3 977 860 2112
3 240 128 2181
3 294 762 2038
3 1800 1799 2195
3 712 789 2067
3 972 1749 2326
3 472 1683 2212
3 874 645 2133
3 551 2045 2201
3 2105 1043 2326
3 1957 1212 2301
3 1514 1856 2367
3 565 538 2167
3 373 370 2103
3 355 348 2196
3 1934 1272 2138
3 1934 426 2531
3 1881 1400 2481
3 2046 1851 2327
3 367 961 2103
3 1963 1152 2206
3 201 278 443
3 3 131 2444
3 31 1 2445
3 2035 441 2097
3 503 787 2198
3 1135 1849 1930
3 1534 1983 2306
3 2089 623 2150
3 687 704 2109
3 869 1351 2363
3 1302 1304 2205
3 955 1716 2484
3 1030 720 1031
3 1159 1318 2240
3 1228 1226 2281
3 947 918 2008
3 413 420 2084
3 785 879 2532
3 1041 947 1168
3 1468 2182 2323
3 1246 1234 2088
3 1730 1163 2372
3 542 555 2086
3 1599 631 2312
3 1146 1967 2174
3 1078 1136 2343
3 1515 1574 2180
3 2336 885 2469
3 1257 1243 2074
3 1347 1346 2279
3 2001 650 2206
3 1480 1601 2514
3 1029 1000 2184
3 1956 788 2336
3 1271 1261 2059
3 130 3 2444
3 1 32 2445
3 1570 1507 2197
3 1232 1255 2088
3 791 1642 2529
3 1601 1479 2269
3 1361 1362 2168
3 1634 1922 2281
3 765 2065 2190
3 2071 1158 2153
3 1699 1801 2289
3 832 831 833
3 1864 346 2344
3 456 476 2097
3 1855 828 2411
3 2065 1162 2190
3 1125 1192 2149
3 599 760 2083
3 361 765 2339
3 1731 2123 2241
3 1349 1181 1350
3 1443 1275 2251
3 1819 524 2429
3 1021 1045 2512
3 858 618 2132
3 1999 358 2338
3 368 292 2038
3 290 368 2135
3 803 331 2296
3 1112 1008 2152
3 56 1947 2313
3 555 979 2086
3 1469 1496 2182
3 1011 967 2107
3 248 2017 2288
3 1809 789 2425
3 960 453 2221
3 538 558 2167
3 1858 1187 2248
3 2246 1757 2526
3 902 905 2141
3 1851 1853 2327
3 1224 1222 2111
3 771 288 2135
3 1945 2153 2257
3 1420 1525 2489
3 1399 1123 2393
3 103 2025 2355
3 897 822 898
3 1861 940 2532
3 865 1125 2146
3 1675 2474 2522
3 1573 2157 2507
3 1632 1631 2382
3 551 601 602
3 527 503 2198
3 1708 805 2337
3 1059 1278 2372
3 2056 527 2198
3 860 861 2112
3 1668 2348 2398
3 255 2159 2265
3 1541 1542 2269
3 1428 2074 2227
3 1582 1583 2321
3 389 1774 2503
3 2004 226 2157
3 1777 397 2405
3 1368 1436 2254
3 1061 2409 2462
3 1071 930 2462
3 1126 901 2141
3 1194 1197 2120
3 1452 1952 2282
3 2116 1319 2482
3 105 106 2218
3 1981 1399 2393
3 2119 983 2143
3 444 1682 2461
3 2173 1648 2463
3 616 793 2132
3 1791 1190 2334
3 1826 1728 2259
3 602 652 653
3 1834 1292 2428
3 556 2201 2327
3 1014 1015 2385
3 1995 1287 2331
3 1193 1195 2189
3 816 1324 2131
3 879 1861 2532
3 593 1182 2133
3 1402 266 1742
3 2216 1323 2354
3 1660 1636 2502
3 620 955 2484
3 1162 1706 2190
3 1870 2113 2249
3 204 1680 1732
3 1909 2023 2420
3 217 72 2217
3 376 372 2430
3 905 1209 2141
3 1378 1381 2283
3 1236 1246 2227
3 286 771 2063
3 1635 2263 2502
3 100 101 2220
3 1139 898 1140
3 2114 1343 2136
3 442 284 2063
3 1772 2106 2414
3 1985 1755 2533
3 2192 1328 2315
3 1064 863 2146
3 1631 1637 2459
3 736 2049 2523
3 221 1906 2246
3 318 1983 2171
3 1496 2047 2182
3 1374 2139 2506
3 196 55 2313
3 2087 462 2134
3 676 653 677
3 2304 257 2491
3 1401 2324 2363
3 829 677 830
3 654 2223 2242
3 1187 977 2112
3 1463 1466 2200
3 2023 219 2516
3 1176 881 2215
3 513 471 2290
3 1812 459 2252
3 1386 1269 2199
3 291 758 2306
3 618 616 2132
3 278 280 2210
3 83 220 2289
3 82 83 2289
3 938 1057 2161
3 1189 986 1190
3 788 719 2336
3 1914 2001 2206
3 232 181 1652
3 1567 2062 2490
3 313 757 2495
3 622 619 2484
3 688 878 1320
3 1222 1626 2111
3 282 442 2079
3 1169 2008 2105
3 1966 1007 2308
3 2040 799 2237
3 1744 2229 2495
3 986 833 1063
3 2284 1605 2510
3 887 1961 2376
3 215 1624 2262
3 830 831 832
3 476 475 2224
3 439 451 2223
3 1932 1933 2380
3 2227 1246 2366
3 1212 1202 2301
3 1107 1110 2228
3 249 2010 2299
3 1983 293 2306
3 2055 1214 2237
3 1438 1372 2478
3 824 560 2156
3 2320 1866 2513
3 1351 1137 2374
3 868 2007 2232
3 2063 771 2064
3 1507 214 1508
3 1728 1727 2246
3 1045 1047 2348
3 1139 1140 2096
3 1648 1649 2463
3 1502 2302 2519
3 704 707 2109
3 2343 1136 2396
3 650 1963 2206
3 2153 895 2257
3 396 1958 2431
3 1379 1377 2288
3 2115 1471 2319
3 2033 987 2202
3 2239 1693 2518
3 2025 1488 2355
3 1209 2115 2319
3 523 524 2156
3 783 939 2243
3 376 1798 2497
3 2066 788 2193
3 1984 318 2172
3 425 427 2221
3 203 172 1847
3 446 457 2264
3 1312 2089 2150
3 2138 1272 2211
3 897 1139 2274
3 828 1819 2429
3 1249 1224 2111
3 666 667 2318
3 1371 1326 2194
3 2433 1499 2475
3 1272 1271 2211
3 1367 2254 2479
3 1386 2053 2383
3 2074 1238 2227
3 755 2148 2320
3 2117 1604 2428
3 475 514 2224
3 228 2187 2457
3 1868 1504 2520
3 1626 1218 2185
3 2123 1111 2241
3 1287 1049 2331
3 1280 687 2109
3 459 1814 2292
3 54 196 2402
3 863 865 2146
3 204 176 1680
3 514 2086 2224
3 1646 603 2398
3 112 197 2346
3 358 300 2338
3 1140 898 1141
3 1204 1335 2301
3 1016 2161 2438
3 909 1041 2175
3 1681 2448 2492
3 2252 459 2292
3 1992 868 2232
3 1035 1036 2235
3 1051 1295 2331
3 1836 1289 2242
3 1508 214 1859
3 247 53 2402
3 1016 938 2161
3 1408 856 2378
3 1466 2158 2200
3 725 885 2336
3 855 1450 2421
3 2023 1768 2420
3 1238 1236 2227
3 1679 202 2253
3 2107 1348 2233
3 1653 1431 2487
3 1946 2291 2343
3 2253 202 2329
3 1885 1312 2150
3 378 628 2390
3 2195 1383 2432
3 1520 1519 2480
3 1532 1733 2534
3 308 327 2278
3 953 951 2255
3 1213 1407 2222
3 1561 1563 2285
3 302 763 2338
3 1928 2033 2202
3 763 304 2345
3 832 833 986
3 1352 2040 2237
3 247 1881 2481
3 560 523 2156
3 335 339 2261
3 346 342 2344
3 201 443 1323
3 2301 1335 2466
3 323 320 2229
3 1136 2110 2396
3 1139 1977 2274
3 1809 1615 2423
3 1707 1791 2334
3 46 2019 2485
3 2064 1294 2238
3 1950 197 2404
3 2021 2022 2176
3 1949 245 2420
3 2044 2152 2207
3 1063 1154 1707
3 1012 1363 2406
3 280 2079 2210
3 2237 1214 2351
3 820 698 2318
3 1140 1141 1406
3 205 2021 2176
3 2043 786 2310
3 2145 1004 2446
3 707 1030 2109
3 1406 2460 2473
3 2137 1268 2226
3 16 2081 2260
3 567 2031 2219
3 2112 1064 2248
3 206 45 2485
3 2347 1462 2365
3 1650 1962 2362
3 453 425 2221
3 1209 907 2175
3 1111 1276 2241
3 2448 1145 2492
3 2051 2083 2243
3 59 60 2266
3 1402 1742 2530
3 831 677 2209
3 624 587 2276
3 238 174 1725
3 1011 2107 2233
3 468 2365 2412
3 2337 805 2371
3 254 1932 2380
3 1174 1398 2207
3 2140 111 2346
3 1381 2186 2283
3 1987 2037 2188
3 1740 559 2456
3 1773 391 2503
3 1335 1870 2249
3 1945 2257 2291
3 828 463 2411
3 1246 2088 2208
3 2060 798 2307
3 1773 1159 2240
3 1187 2112 2248
3 1352 2237 2351
3 2037 1322 2188
3 1941 1499 2433
3 2322 225 2510
3 1031 1034 2236
3 327 2188 2321
3 595 2032 2273
3 1464 1462 2347
3 1285 1992 2232
3 799 2055 2237
3 443 278 2210
3 784 874 2178
3 392 396 2431
3 191 95 2309
3 879 784 2178
3 524 511 2429
3 2128 2011 2270
3 895 896 2257
3 2206 1152 2324
3 318 2171 2172
3 2259 1549 2379
3 1214 1410 2351
3 306 308 2278
3 2022 251 2247
3 1757 1729 2309
3 1283 1918 2524
3 996 1706 2492
3 557 2044 2207
3 1798 1448 2364
3 1447 2250 2310
3 559 1750 2403
3 1363 1011 2233
3 1343 1168 2187
3 1407 2044 2256
3 1462 1460 2365
3 1995 2331 2458
3 327 1987 2188
3 2160 254 2380
3 1681 958 2287
3 2031 1160 2250
3 1600 689 2413
3 2219 1692 2239
3 1494 1675 2522
3 1281 1916 2448
3 907 909 2175
3 565 2167 2276
3 2241 1276 2275
3 1978 316 2443
3 2151 212 2350
3 203 1847 2104
3 2049 1481 2523
3 1961 1362 2376
3 2187 1393 2457
3 940 796 2532
3 2293 1349 2329
3 572 1897 2537
3 332 739 2282
3 2052 567 2239
3 1437 1370 2277
3 567 2219 2239
3 667 626 2452
3 1914 2206 2324
3 2243 939 2392
3 2136 1343 2187
3 257 1654 2530
3 1376 1378 2283
3 2076 1982 2272
3 2083 760 2243
3 1944 1945 2291
3 1771 1839 2359
3 1404 1403 2399
3 1875 1866 2320
3 1460 1337 2412
3 760 783 2243
3 1276 1366 2275
3 1428 2227 2366
3 1882 1605 2284
3 1739 1429 2459
3 2321 2188 2434
3 1328 1327 2315
3 798 2189 2307
3 2152 1174 2207
3 2182 1247 2323
3 1516 1514 2367
3 293 291 2306
3 556 537 2201
3 1298 1300 2314
3 1400 1399 2316
3 1649 2236 2463
3 833 831 2424
3 2127 2050 2333
3 1057 914 2328
3 1839 193 2359
3 761 1741 2258
3 1186 1970 2422
3 1429 2366 2382
3 2211 1271 2271
3 1733 1248 2534
3 13 2114 2136
3 2078 390 2431
3 1533 1536 2340
3 1690 2145 2446
3 1277 2308 2370
3 1168 1393 2187
3 1597 2047 2268
3 587 565 2276
3 1908 244 2401
3 225 125 2284
3 610 2130 2468
3 1749 2105 2326
3 1913 1914 2324
3 2366 2208 2382
3 1391 1876 2295
3 457 552 2264
3 653 688 2209
3 1601 2443 2514
3 682 2138 2211
3 992 1980 2244
3 55 56 2313
3 1645 1495 2493
3 473 477 2483
3 202 1724 2329
3 465 828 2429
3 1277 1966 2308
3 1416 2330 2406
3 1912 1364 2455
3 1716 1483 2375
3 2019 1651 2485
3 1725 2137 2226
3 201 1323 2216
3 878 1083 2213
3 2072 2073 2245
3 1563 1777 2405
3 244 2028 2401
3 2016 1564 2422
3 1682 1497 2461
3 1962 1153 2362
3 1298 2314 2358
3 1384 1385 2391
3 688 1320 2209
3 1587 2179 2435
3 786 380 2497
3 1395 1522 2341
3 2032 1919 2273
3 251 2013 2247
3 2219 2031 2250
3 2397 552 2453
3 1765 255 2489
3 2475 1825 2524
3 1202 1204 2301
3 445 2078 2411
3 323 2229 2296
3 1286 2384 2408
3 537 551 2201
3 1724 237 2293
3 84 85 2335
3 1471 1126 2319
3 1635 1634 2511
3 300 302 2338
3 698 666 2318
3 1030 1031 2236
3 2098 1457 2271
3 696 1821 2426
3 1457 1492 2447
3 1956 2336 2469
3 331 323 2296
3 1284 1491 2342
3 2011 1996 2270
3 256 183 2303
3 160 257 2304
3 2204 1589 2501
3 1891 1014 2280
3 719 725 2336
3 1354 1808 2381
3 437 430 2494
3 2377 218 2391
3 2211 2271 2447
3 1407 2256 2290
3 2365 1460 2412
3 2047 1498 2268
3 1825 1283 2524
3 1499 1825 2475
3 1226 1249 2281
3 2051 2243 2392
3 2250 1160 2310
3 111 112 2346
3 304 306 2345
3 1341 1352 2351
3 2166 191 2504
3 2223 1836 2242
3 1996 247 2481
3 1049 1051 2331
3 1086 1298 2358
3 2130 595 2273
3 1249 2111 2263
3 680 1995 2458
3 1511 2140 2346
3 102 103 2355
3 469 473 2453
3 961 2072 2245
3 2073 1282 2245
3 1442 1443 2525
3 74 192 2361
3 2163 1586 2435
3 1519 1518 2449
3 897 2274 2500
3 303 444 2317
3 1615 1614 2423
3 197 2009 2404
3 1634 2281 2511
3 1780 1781 2419
3 1435 1623 2465
3 1286 1774 2384
3 384 361 2339
3 193 1901 2359
3 1165 2433 2475
3 2277 1370 2386
3 677 653 2209
3 1994 1516 2367
3 1479 1478 2440
3 1165 1512 2433
3 1644 1353 2417
3 1711 1712 2353
3 2193 1615 2425
3 1613 1956 2469
3 1440 1173 2330
3 2269 1479 2440
3 222 2218 2465
3 391 389 2503
3 306 2278 2345
3 468 2090 2365
3 221 2246 2526
3 1445 1446 2504
3 939 1844 2392
3 86 87 2373
3 1429 1428 2366
3 2053 2103 2383
3 1348 1212 2312
3 805 750 2371
3 997 1286 2408
3 1152 869 2363
3 2063 2064 2238
3 192 1994 2367
3 1160 2043 2310
3 1926 2151 2350
3 2059 2098 2271
3 1897 1366 2537
3 215 2262 2437
3 1655 1732 2476
3 2415 1128 2454
3 1320 2213 2214
3 7 258 2357
3 259 155 2356
3 2171 1530 2172
3 347 351 2407
3 1077 1078 2343
3 239 2003 2279
3 1446 1128 2415
3 1034 1033 2410
3 601 627 2442
3 1154 1653 2234
3 397 2060 2405
3 2142 794 2272
3 442 2063 2238
3 1863 1215 2378
3 794 2076 2272
3 1883 1375 2505
3 1320 878 2213
3 342 468 2344
3 1903 218 2377
3 380 376 2497
3 1549 1547 2379
3 1148 1165 2475
3 2157 226 2507
3 829 972 2326
3 884 1957 2466
3 2291 1077 2343
3 65 66 2395
3 787 2052 2518
3 2298 1348 2312
3 1946 2343 2396
3 1653 256 2535
3 1842 1548 2472
3 1957 2301 2466
3 1366 1277 2370
3 2213 1432 2214
3 961 2245 2383
3 218 2093 2391
3 1376 2283 2421
3 1873 2127 2333
3 1019 1021 2512
3 1128 1127 2454
3 1104 1434 2450
3 2130 1439 2468
3 2396 2110 2482
3 2186 855 2283
3 1724 2293 2329
3 1163 1059 2372
3 1614 2389 2423
3 53 54 2402
3 1063 1707 2334
3 2283 855 2421
3 1385 1863 2436
3 364 1883 2505
3 517 1890 2387
3 1145 996 2492
3 1047 1287 2348
3 2148 1875 2320
3 205 2176 2416
3 1372 1844 2478
3 1211 2219 2250
3 1141 898 2368
3 245 1909 2420
3 2278 327 2321
3 2389 1397 2423
3 2256 513 2290
3 559 2403 2456
3 1137 1340 2374
3 2093 1384 2391
3 1918 1148 2524
3 1030 2236 2427
3 1867 1895 2513
3 2014 517 2387
3 2271 1457 2447
3 1143 2028 2353
3 1904 194 2432
3 1148 2475 2524
3 1574 1523 2436
3 2213 1083 2311
3 1997 358 2325
3 2139 246 2506
3 1370 1369 2386
3 1271 2059 2271
3 1034 2173 2463
3 1123 1412 2393
3 1578 1827 2515
3 2209 1320 2424
3 2079 1504 2210
3 1361 2168 2305
3 1491 1489 2403
3 238 1725 2226
3 1190 986 2334
3 1547 1545 2508
3 1891 1613 2469
3 1153 1885 2362
3 2208 1632 2382
3 2287 1281 2448
3 1356 1376 2421
3 1965 2349 2515
3 2155 1186 2422
3 1522 2014 2387
3 2158 1468 2323
3 2050 954 2333
3 1397 1809 2423
3 1362 1360 2376
3 1852 1985 2397
3 2069 1691 2446
3 789 2066 2425
3 1895 755 2513
3 1707 1154 2234
3 372 374 2430
3 2225 787 2518
3 2028 1206 2401
3 986 1063 2334
3 1912 726 2439
3 1340 1342 2400
3 1916 1145 2448
3 2236 1649 2427
3 2374 1340 2400
3 2222 1407 2290
3 2324 1152 2363
3 241 2220 2472
3 765 2190 2384
3 2375 667 2452
3 2330 1173 2406
3 1181 1972 2500
3 2126 1382 2388
3 1173 1012 2406
3 315 313 2495
3 1015 1373 2385
3 97 221 2526
3 1937 1397 2389
3 930 1061 2462
3 971 1096 2496
3 45 46 2485
3 669 791 2529
3 1104 2450 2521
3 382 378 2390
3 2191 1371 2536
3 2235 1036 2286
3 831 2209 2424
3 762 1997 2349
3 2379 1547 2508
3 2177 1359 2467
3 2403 1489 2456
3 796 785 2532
3 219 1902 2516
3 1519 2300 2480
3 1065 1655 2476
3 1375 1473 2505
3 1489 1490 2456
3 390 392 2431
3 2247 2013 2464
3 1135 1930 2369
3 2278 1583 2345
3 626 622 2452
3 631 2298 2312
3 2233 1348 2298
3 1398 1974 2499
3 1706 1681 2492
3 261 130 2444
3 32 260 2445
3 822 2099 2368
3 1365 1912 2439
3 941 940 2418
3 1446 2166 2504
3 2106 1121 2414
3 2300 1519 2449
3 1803 1104 2521
3 1732 1570 2476
3 1413 2051 2392
3 2122 1946 2396
3 2238 1868 2520
3 477 556 2483
3 2397 1985 2533
3 463 445 2411
3 2163 1185 2488
3 1126 2141 2319
3 1755 2264 2533
3 972 2204 2501
3 2230 1533 2340
3 1774 1773 2503
3 1997 2325 2349
3 1004 2069 2446
3 2159 31 2445
3 131 2160 2444
3 1371 2191 2451
3 1001 2154 2486
3 1682 2230 2340
3 2103 961 2383
3 1033 1151 2410
3 382 2390 2531
3 1504 2079 2520
3 1583 2278 2321
3 511 465 2429
3 250 2024 2479
3 2208 2088 2509
3 619 620 2484
3 1246 2208 2366
3 2141 1209 2319
3 1359 1413 2467
3 1295 1459 2458
3 2218 1435 2465
3 2281 1249 2511
3 2293 237 2354
3 2207 1398 2499
3 1564 2155 2422
3 552 469 2453
3 1947 224 2498
3 2062 1568 2490
3 2018 205 2416
3 260 2159 2445
3 2160 261 2444
3 2092 610 2468
3 194 2195 2432
3 1432 2213 2311
3 211 2251 2464
3 2378 856 2527
3 1536 1532 2534
3 2364 786 2497
3 2438 1438 2478
3 1185 1948 2488
3 2042 941 2418
3 1582 2321 2434
3 885 1891 2469
3 1364 2048 2455
3 1693 2225 2518
3 401 382 2531
3 1338 2247 2464
3 442 2238 2520
3 1292 2117 2428
3 2274 1350 2500
3 2066 2193 2425
3 2179 1184 2435
3 898 822 2368
3 2436 1863 2527
3 1844 1016 2478
3 2184 1001 2486
3 557 2207 2499
3 2013 211 2464
3 2254 250 2479
3 1350 1181 2500
3 2009 248 2470
3 246 2140 2506
3 1574 2436 2527
3 2139 1419 2517
3 316 1971 2514
3 1319 2122 2482
3 226 2006 2507
3 1400 2270 2481
3 1681 2287 2448
3 2325 1578 2349
3 232 1652 2487
3 1320 2214 2424
3 1632 2208 2509
3 248 2288 2470
3 1406 1141 2460
3 2188 1322 2434
3 2244 1980 2441
3 2088 1255 2509
3 1280 2109 2427
3 2060 2307 2405
3 2236 1034 2463
3 1745 2293 2354
3 2122 2396 2482
3 2109 1030 2427
3 2307 1563 2405
3 1429 2382 2459
3 224 2267 2498
3 682 2211 2447
3 2079 442 2520
3 2348 1287 2398
3 2220 1842 2472
3 1335 2249 2466
3 1249 2263 2511
3 443 2210 2519
3 2385 1373 2394
3 1594 2184 2486
3 2052 2239 2518
3 1568 2439 2490
3 2349 1578 2515
3 2344 468 2412
3 2270 1996 2481
3 1735 2244 2441
3 2260 1471 2477
3 2210 1504 2519
3 1434 2297 2450
3 2297 1419 2450
3 2263 1660 2502
3 2404 2009 2470
3 1718 2385 2394
3 1371 2194 2536
3 2317 444 2461
3 1443 2322 2525
3 1716 2375 2452
3 1863 2378 2527
3 2439 726 2490
3 1057 2328 2451
3 1638 2404 2470
3 1454 2234 2535
3 755 2320 2513
3 2234 1653 2535
3 2264 552 2533
3 1419 2297 2517
3 1392 2322 2510
3 552 2397 2533
3 1798 2364 2497
3 2322 1392 2525
3 2382 1631 2459
3 1016 2438 2478
3 1366 2370 2537
3 1742 2491 2530
3 2491 257 2530
CELL_TYPES 4886
5
5
5
5
5
5
5
5
5
5
5
5
5
5
5
5
5
5
5
5
5
5
5
5
5
5
5
5
5
5
5
5
5
5
5
5
5
5
5
5
5
5
5
5
5
5
5
5
5
5
5
5
5
5
5
5
5
5
5
5
5
5
5
5
5
5
5
5
5
5
5
5
5
5
5
5
5
5
5
5
5
5
5
5
5
5
5
5
5
5
5
5
5
5
5
5
5
5
5
5
5
5
5
5
5
5
5
5
5
5
5
5
5
5
5
5
5
5
5
5
5
5
5
5
5
5
5
5
5
5
5
5
5
5
5
5
5
5
5
5
5
5
5
5
5
5
5
5
5
5
5
5
5
5
5
5
5
5
5
5
5
5
5
5
5
5
5
5
5
5
5
5
5
5
5
5
5
5
5
5
5
5
5
5
5
5
5
5
5
5
5
5
5
5
5
5
5
5
5
5
5
5
5
5
5
5
5
5
5
5
5
5
5
5
5
5
5
5
5
5
5
5
5
5
5
5
5
5
5
5
5
5
5
5
5
5
5
5
5
5
5
5
5
5
5
5
5
5
5
5
5
5
5
5
5
5
5
5
5
5
5
5
5
5
5
5
5
5
5
5
5
5
5
5
5
5
5
5
5
5
5
5
5
5
5
5
5
5
5
5
5
5
5
5
5
5
5
5
5
5
5
5
5
5
5
5
5
5
5
5
5
5
5
5
5
5
5
5
5
5
5
5
5
5
5
5
5
5
5
5
5
5
5
5
5
5
5
5
5
5
5
5
5
5
5
5
5
5
5
5
5
5
5
5
5
5
5
5
5
5
5
5
5
5
5
5
5
5
5
5
5
5
5
5
5
5
5
5
5
5
5
5
5
5
5
5
5
5
5
5
5
5
5
5
5
5
5
5
5
5
5
5
5
5
5
5
5
5
5
5
5
5
5
5
5
5
5
5
5
5
5
5
5
5
5
5
5
5
5
5
5
5
5
5
5
5
5
5
5
5
5
5
5
5
5
5
5
5
5
5
5
5
5
5
5
5
5
5
5
5
5
5
5
5
5
5
5
5
5
5
5
5
5
5
5
5
5
5
5
5
5
5
5
5
5
5
5
5
5
5
5
5
5
5
5
5
5
5
5
5
5
5
5
5
5
5
5
5
5
5
5
5
5
5
5
5
5
5
5
5
5
5
5
5
5
5
5
5
5
5
5
5
5
5
5
5
5
5
5
5
5
5
5
5
5
5
5
5
5
5
5
5
5
5
5
5
5
5
5
5
5
5
5
5
5
5
5
5
5
5
5
5
5
5
5
5
5
5
5
5
5
5
5
5
5
5
5
5
5
5
5
5
5
5
5
5
5
5
5
5
5
5
5
5
5
5
5
5
5
5
5
5
5
5
5
5
5
5
5
5
5
5
5
5
5
5
5
5
5
5
5
5
5
5
5
5
5
5
5
5
5
5
5
5
5
5
5
5
5
5
5
5
5
5
5
5
5
5
5
5
5
5
5
5
5
5
5
5
5
5
5
5
5
5
5
5
5
5
5
5
5
5
5
5
5
5
5
5
5
5
5
5
5
5
5
5
5
5
5
5
5
5
5
5
5
5
5
5
5
5
5
5
5
5
5
5
5
5
5
5
5
5
5
5
5
5
5
5
5
5
5
5
5
5
5
5
5
5
5
5
5
5
5
5
5
5
5
5
5
5
5
5
5
5
5
5
5
5
5
5
5
5
5
5
5
5
5
5
5
5
5
5
5
5
5
5
5
5
5
5
5
5
5
5
5
5
5
5
5
5
5
5
5
5
5
5
5
5
5
5
5
5
5
5
5
5
5
5
5
5
5
5
5
5
5
5
5
5
5
5
5
5
5
5
5
5
5
5
5
5
5
5
5
5
5
5
5
5
5
5
5
5
5
5
5
5
5
5
5
5
5
5
5
5
5
5
5
5
5
5
5
5
5
5
5
5
5
5
5
5
5
5
5
5
5
5
5
5
5
5
5
5
5
5
5
5
5
5
5
5
5
5
5
5
5
5
5
5
5
5
5
5
5
5
5
5
5
5
5
5
5
5
5
5
5
5
5
5
5
5
5
5
5
5
5
5
5
5
5
5
5
5
5
5
5
5
5
5
5
5
5
5
5
5
5
5
5
5
5
5
5
5
5
5
5
5
5
5
5
5
5
5
5
5
5
5
5
5
5
5
5
5
5
5
5
5
5
5
5
5
5
5
5
5
5
5
5
5
5
5
5
5
5
5
5
5
5
5
5
5
5
5
5
5
5
5
5
5
5
5
5
5
5
5
5
5
5
5
5
5
5
5
5
5
5
5
5
5
5
5
5
5
5
5
5
5
5
5
5
5
5
5
5
5
5
5
5
5
5
5
5
5
5
5
5
5
5
5
5
5
5
5
5
5
5
5
5
5
5
5
5
5
5
5
5
5
5
5
5
5
5
5
5
5
5
5
5
5
5
5
5
5
5
5
5
5
5
5
5
5
5
5
5
5
5
5
5
5
5
5
5
5
5
5
5
5
5
5
5
5
5
5
5
5
5
5
5
5
5
5
5
5
5
5
5
5
5
5
5
5
5
5
5
5
5
5
5
5
5
5
5
5
5
5
5
5
5
5
5
5
5
5
5
5
5
5
5
5
5
5
5
5
5
5
5
5
5
5
5
5
5
5
5
5
5
5
5
5
5
5
5
5
5
5
5
5
5
5
5
5
5
5
5
5
5
5
5
5
5
5
5
5
5
5
5
5
5
5
5
5
5
5
5
5
5
5
5
5
5
5
5
5
5
5
5
5
5
5
5
5
5
5
5
5
5
5
5
5
5
5
5
5
5
5
5
5
5
5
5
5
5
5
5
5
5
5
5
5
5
5
5
5
5
5
5
5
5
5
5
5
5
5
5
5
5
5
5
5
5
5
5
5
5
5
5
5
5
5
5
5
5
5
5
5
5
5
5
5
5
5
5
5
5
5
5
5
5
5
5
5
5
5
5
5
5
5
5
5
5
5
5
5
5
5
5
5
5
5
5
5
5
5
5
5
5
5
5
5
5
5
5
5
5
5
5
5
5
5
5
5
5
5
5
5
5
5
5
5
5
5
5
5
5
5
5
5
5
5
5
5
5
5
5
5
5
5
5
5
5
5
5
5
5
5
5
5
5
5
5
5
5
5
5
5
5
5
5
5
5
5
5
5
5
5
5
5
5
5
5
5
5
5
5
5
5
5
5
5
5
5
5
5
5
5
5
5
5
5
5
5
5
5
5
5
5
5
5
5
5
5
5
5
5
5
5
5
5
5
5
5
5
5
5
5
5
5
5
5
5
5
5
5
5
5
5
5
5
5
5
5
5
5
5
5
5
5
5
5
5
5
5
5
5
5
5
5
5
5
5
5
5
5
5
5
5
5
5
5
5
5
5
5
5
5
5
5
5
5
5
5
5
5
5
5
5
5
5
5
5
5
5
5
5
5
5
5
5
5
5
5
5
5
5
5
5
5
5
5
5
5
5
5
5
5
5
5
5
5
5
5
5
5
5
5
5
5
5
5
5
5
5
5
5
5
5
5
5
5
5
5
5
5
5
5
5
5
5
5
5
5
5
5
5
5
5
5
5
5
5
5
5
5
5
5
5
5
5
5
5
5
5
5
5
5
5
5
5
5
5
5
5
5
5
5
5
5
5
5
5
5
5
5
5
5
5
5
5
5
5
5
5
5
5
5
5
5
5
5
5
5
5
5
5
5
5
5
5
5
5
5
5
5
5
5
5
5
5
5
5
5
5
5
5
5
5
5
5
5
5
5
5
5
5
5
5
5
5
5
5
5
5
5
5
5
5
5
5
5
5
5
5
5
5
5
5
5
5
5
5
5
5
5
5
5
5
5
5
5
5
5
5
5
5
5
5
5
5
5
5
5
5
5
5
5
5
5
5
5
5
5
5
5
5
5
5
5
5
5
5
5
5
5
5
5
5
5
5
5
5
5
5
5
5
5
5
5
5
5
5
5
5
5
5
5
5
5
5
5
5
5
5
5
5
5
5
5
5
5
5
5
5
5
5
5
5
5
5
5
5
5
5
5
5
5
5
5
5
5
5
5
5
5
5
5
5
5
5
5
5
5
5
5
5
5
5
5
5
5
5
5
5
5
5
5
5
5
5
5
5
5
5
5
5
5
5
5
5
5
5
5
5
5
5
5
5
5
5
5
5
5
5
5
5
5
5
5
5
5
5
5
5
5
5
5
5
5
5
5
5
5
5
5
5
5
5
5
5
5
5
5
5
5
5
5
5
5
5
5
5
5
5
5
5
5
5
5
5
5
5
5
5
5
5
5
5
5
5
5
5
5
5
5
5
5
5
5
5
5
5
5
5
5
5
5
5
5
5
5
5
5
5
5
5
5
5
5
5
5
5
5
5
5
5
5
5
5
5
5
5
5
5
5
5
5
5
5
5
5
5
5
5
5
5
5
5
5
5
5
5
5
5
5
5
5
5
5
5
5
5
5
5
5
5
5
5
5
5
5
5
5
5
5
5
5
5
5
5
5
5
5
5
5
5
5
5
5
5
5
5
5
5
5
5
5
5
5
5
5
5
5
5
5
5
5
5
5
5
5
5
5
5
5
5
5
5
5
5
5
5
5
5
5
5
5
5
5
5
5
5
5
5
5
5
5
5
5
5
5
5
5
5
5
5
5
5
5
5
5
5
5
5
5
5
5
5
5
5
5
5
5
5
5
5
5
5
5
5
5
5
5
5
5
5
5
5
5
5
5
5
5
5
5
5
5
5
5
5
5
5
5
5
5
5
5
5
5
5
5
5
5
5
5
5
5
5
5
5
5
5
5
5
5
5
5
5
5
5
5
5
5
5
5
5
5
5
5
5
5
5
5
5
5
5
5
5
5
5
5
5
5
5
5
5
5
5
5
5
5
5
5
5
5
5
5
5
5
5
5
5
5
5
5
5
5
5
5
5
5
5
5
5
5
5
5
5
5
5
5
5
5
5
5
5
5
5
5
5
5
5
5
5
5
5
5
5
5
5
5
5
5
5
5
5
5
5
5
5
5
5
5
5
5
5
5
5
5
5
5
5
5
5
5
5
5
5
5
5
5
5
5
5
5
5
5
5
5
5
5
5
5
5
5
5
5
5
5
5
5
5
5
5
5
5
5
5
5
5
5
5
5
5
5
5
5
5
5
5
5
5
5
5
5
5
5
5
5
5
5
5
5
5
5
5
5
5
5
5
5
5
5
5
5
5
5
5
5
5
5
5
5
5
5
5
5
5
5
5
5
5
5
5
5
5
5
5
5
5
5
5
5
5
5
5
5
5
5
5
5
5
5
5
5
5
5
5
5
5
5
5
5
5
5
5
5
5
5
5
5
5
5
5
5
5
5
5
5
5
5
5
5
5
5
5
5
5
5
5
5
5
5
5
5
5
5
5
5
5
5
5
5
5
5
5
5
5
5
5
5
5
5
5
5
5
5
5
5
5
5
5
5
5
5
5
5
5
5
5
5
5
5
5
5
5
5
5
5
5
5
5
5
5
5
5
5
5
5
5
5
5
5
5
5
5
5
5
5
5
5
5
5
5
5
5
5
5
5
5
5
5
5
5
5
5
5
5
5
5
5
5
5
5
5
5
5
5
5
5
5
5
5
5
5
5
5
5
5
5
5
5
5
5
5
5
5
5
5
5
5
5
5
5
5
5
5
5
5
5
5
5
5
5
5
5
5
5
5
5
5
5
5
5
5
5
5
5
5
5
5
5
5
5
5
5
5
5
5
5
5
5
5
5
5
5
5
5
5
5
5
5
5
5
5
5
5
5
5
5
5
5
5
5
5
5
5
5
5
5
5
5
5
5
5
5
5
5
5
5
5
5
5
5
5
5
5
5
5
5
5
5
5
5
5
5
5
5
5
5
5
5
5
5
5
5
5
5
5
5
5
5
5
5
5
5
5
5
5
5
5
5
5
5
5
5
5
5
5
5
5
5
5
5
5
5
5
5
5
5
5
5
5
5
5
5
5
5
5
5
5
5
5
5
5
5
5
5
5
5
5
5
5
5
5
5
5
5
5
5
5
5
5
5
5
5
5
5
5
5
5
5
5
5
5
5
5
5
5
5
5
5
5
5
5
5
5
5
5
5
5
5
5
5
5
5
5
5
5
5
5
5
5
5
5
5
5
5
5
5
5
5
5
5
5
5
5
5
5
5
5
5
5
5
5
5
5
5
5
5
5
5
5
5
5
5
5
5
5
5
5
5
5
5
5
5
5
5
5
5
5
5
5
5
5
5
5
5
5
5
5
5
5
5
5
5
5
5
5
5
5
5
5
5
5
5
5
5
5
5
5
5
5
5
5
5
5
5
5
5
5
5
5
5
5
5
5
5
5
5
5
5
5
5
5
5
5
5
5
5
5
5
5
5
5
5
5
5
5
5
5
5
5
5
5
5
5
5
5
5
5
5
5
5
5
5
5
5
5
5
5
5
5
5
5
5
5
5
5
5
5
5
5
5
5
5
5
5
5
5
5
5
5
5
5
5
5
5
5
5
5
5
5
5
5
5
5
5
5
5
5
5
5
5
5
5
5
5
5
5
5
5
5
5
5
5
5
5
5
5
5
5
5
5
5
5
5
5
5
5
5
5
5
5
5
5
5
5
5
5
5
5
5
5
5
5
5
5
5
5
5
5
5
5
5
5
5
5
5
5
5
5
5
5
5
5
5
5
5
5
5
5
5
5
5
5
5
5
5
5
5
5
5
5
5
5
5
5
5
5
5
5
5
5
5
5
5
5
5
5
5
5
5
5
5
5
5
5
5
5
5
5
5
5
5
5
5
5
5
5
5
5
5
5
5
5
5
5
5
5
5
5
5
5
5
5
5
5
5
5
5
5
5
5
5
5
5
5
5
5
5
5
5
5
5
5
5
5
5
5
5
5
5
5
5
5
5
5
5
5
5
5
5
5
5
5
5
5
5
5
5
5
5
5
5
5
5
5
5
5
5
5
5
5
5
5
5
5
5
5
5
5
5
5
5
5
5
5
5
5
5
5
5
5
5
5
5
5
5
5
5
5
5
5
5
5
5
5
5
5
5
5
5
5
5
5
5
5
5
5
5
5
5
5
5
5
5
5
5
5
5
5
5
5
5
5
5
5
5
5
5
5
5
5
5
5
5
5
5
5
5
5
5
5
5
5
5
5
5
5
5
5
5
5
5
5
5
5
5
5
5
5
5
5
5
5
5
5
5
5
5
5
5
5
5
5
5
5
5
5
5
5
5
5
5
5
5
5
5
5
5
5
5
5
5
5
5
5
5
5
5
5
5
5
5
5
5
5
5
5
5
5
5
5
5
5
5
5
5
5
5
5
5
5
5
5
5
5
5
5
5
5
5
5
5
5
5
5
5
5
5
5
5
5
5
5
5
5
5
5
5
5
5
5
5
5
5
5
5
5
5
5
5
5
5
5
5
5
5
5
5
5
5
5
5
5
5
5
5
5
5
5
5
5
5
5
5
5
5
5
5
5
5
5
5
5
5
5
5
5
5
5
5
5
5
5
5
5
5
5
5
5
5
5
5
5
5
5
5
5
5
5
5
5
5
5
5
5
5
5
5
5
5
5
5
5
5
5
5
5
5
5
5
5
5
5
5
5
5
5
5
5
5
5
5
5
5
5
5
5
5
5
5
5
5
5
5
5
5
5
5
5
5
5
5
5
5
5
5
5
5
5
5
5
5
5
5
5
5
5
5
5
5
5
5
5
5
5
5
5
5
5
5
5
5
5
5
5
5
5
5
5
5
5
5
5
5
5
5
5
5
5
5
5
5
5
5
5
5
5
5
5
5
5
5
5
5
5
5
5
5
5
5
5
5
5
5
5
5
5
5
5
5
5
5
5
5
5
5
5
5
5
5
5
5
5
5
5
5
5
5
5
5
5
5
5
5
5
5
5
5
5
5
5
5
5
5
5
5
5
5
5
5
5
5
5
5
5
5
5
5
5
5
5
5
5
5
5
5
5
5
5
5
5
5
5
5
5
5
5
5
5
5
5
5
5
5
5
5
5
5
5
5
5
5
5
5
5
5
5
5
5
5
5
5
5
5
5
5
5
5
5
5
5
5
5
5
5
5
5
5
5
5
5
5
5
5
5
5
5
5
5
5
5
5
5
5
5
5
5
5
5
5
5
5
5
5
5
5
5
5
5
5
5
5
5
5
5
5
5
5
5
5
5
5
5
5
5
5
5
5
5
5
5
5
5
5
5
5
5
5
5
5
5
5
5
5
5
5
5
5
5
5
5
5
5
5
5
5
5
5
5
5
5
5
5
5
5
5
5
5
5
5
5
5
5
5
5
5
5
5
5
5
5
5
5
5
5
5
5
5
5
5
5
5
5
5
5
5
5
5
5
5
5
5
5
5
5
5
5
5
5
5
5
5
5
5
5
5
5
5
5
5
5
5
5
5
5
5
5
5
5
5
5
5
5
5
5
5
5
5
5
5
5
5
5
5
5
5
5
5
5
5
5
5
5
5
5
5
5
5
5
5
5
5
5
5
5
5
5
5
5
5
5
5
5
5
5
5
5
5
5
5
5
5
5
5
5
5
5
5
5
5
5
5
5
5
5
5
5
5
5
5
5
5
5
5
5
5
5
5
5
5
5
5
5
5
5
5
5
5
5
5
5
5
5
5
5
5
5
5
5
5
5
5
5
5
5
5
5
5
5
5
5
5
5
5
5
5
5
5
5
5
5
5
5
5
5
5
5
5
5
5
5
5
5
5
5
5
5
5
5
5
5
5
5
5
5
5
5
5
5
5
5
5
5
5
5
5
5
5
5
5
5
5
5
5
5
5
5
5
5
5
5
5
5
5
5
5
5
5
5
5
5
5
5
5
5
5
5
5
5
5
5
5
5
5
5
5
5
5
5
5
5
5
5
5
5
5
5
5
5
5
5
5
5
5
5
5
5
5
5
5
5
5
5
5
5
5
5
5
5
5
5
5
5
5
5
5
5
5
5
5
5
5
5
5
5
5
5
5
5
5
5
5
5
5
5
5
5
5
5
5
5
5
5
5
5
5
5
5
5
5
5
5
5
5
5
5
5
5
5
5
5
5
5
5
5
5
5
5
5
5
5
5
5
5
5
5
5
5
5
5
5
5
5
5
5
5
5
5
5
5
5
5
5
5
5
5
5
5
5
5
5
5
5
5
5
5
5
5
5
5
5
5
5
5
5
5
5
5
5
5
5
5
5
5
5
5
5
5
5
5
5
5
5
5
5
5
5
5
5
5
5
5
5
5
5
5
5
5
5
5
5
5
5
5
5
5
5
5
5
5
5
5
5
5
5
5
5
5
5
5
5
5
5
5
5
5
5
5
5
5
5
5
5
5
5
5
5
5
5
5
5
5
5
5
5
5
5
5
5
5
5
5
5
5
5
5
5
5
5
5
5
5
5
5
5
5
5
5
5
5
5
5
5
5
5
5
5
5
5
5
5
5
5
5
5
5
5
5
5
5
5
5
5
5
5
5
5
5
5
5
5
5
5
5
5
5
5
5
5
5
5
5
5
5
5
5
5
5
5
5
5
5
5
5
5
5
5
5
5
5
5
5
5
5
5
5
5
5
5
5
5
5
5
5
5
5
5
5
5
5
5
5
5
5
5
5
5
5
5
5
5
5
5
5
5
5
5
5
5
5
5
5
5
5
5
5
5
5
5
5
5
5
5
5
5
5
5
5
5
5
5
5
5
5
5
5
5
5
5
5
5
5
5
5
5
5
5
5
5
5
5
5
5
5
5
5
5
5
5
5
5
5
5
5
5
5
5
5
5
5
5
5
5
5
5
5
5
5
5
5
5
5
5
5
5
5
5
5
5
5
5
5
5
5
5
5
5
5
5
5
5
5
5
5
5
5
5
5
5
5
5
5
5
5
5
5
5
5
5
5
5
5
5
5
5
5
5
5
5
5
5
5
5
5
5
5
5
5
5
5
5
5
5
5
5
5
5
5
5
5
5
5
5
5
5
5
5
5
5
5
5
5
5
5
5
5
5
5
5
5
5
5
5
5
5
5
5
5
5
5
5
5
5
5
5
5
5
5
5
5
5
5
5
5
5
5
5
5
5
5
5
5
5
5
5
5
5
5
5
5
5
5
5
5
5
5
5
5
5
5
5
5
5
5
5
5
5
5
5
5
5
5
5
5
5
5
5
5
5
5
5
5
5
5
5
5
5
5
5
5
5
5
5
5
5
5
5
5
5
5
5
5
5
5
5
5
5
5
5
5
5
5
5
5
5
5
5
5
5
5
5
5
5
5
5
5
5
5
5
5
5
5
5
5
5
5
5
5
5
5
5
5
5
5
5
5
5
5
5
5
5
5
5
5
5
5
5
5
5
5
5
5
5
5
5
5
5
5
5
5
5
5
5
5
5
5
5
5
5
5
5
5
5
5
5
5
5
5
5
5
5
5
5
5
5
5
5
5
5
5
5
5
5
5
5
5
5
5
5
5
5
5
5
5
5
5
5
5
5
5
5
5
5
5
5
5
5
5
5
5
5
5
5
5
5
5
5
5
5
5
5
5
5
5
5
5
5
5
5
5
5
5
5
5
5
5
5
5
5
5
5
5
5
5
5
5
5
5
5
5
5
5
5
5
5
5
5
5
5
5
5
5
5
5
5
5
5
5
5
5
5
5
5
5
5
5
5
5
5
5
5
5
5
5
5
5
5
5
5
5
5
5
5
5
5
5
5
5
5
5
5
5
5
5
5
5
5
5
5
5
5
5
5
5
5
5
5
5
5
5
5
5
5
5
5
5
5
5
5
5
5
5
5
5
5
5
5
5
5
5
5
5
5
5
5
5
5
5
5
5
5
5
5
5
5
5
5
5
5
5
5
5
5
5
5
5
5
5
5
5
5
5
5
5
5
5
5
5
5
5
5
5
5
5
5
5
5
5
5
5
5
5
5
5
5
5
5
5
5
5
5
5
5
5
5
5
5
5
5
5
5
5
5
5
5
5
5
5
5
5
5
5
5
5
5
5
POINT_DATA 2538
VECTORS disp float
1.7658970738363238e-11 4.4280213941579124e-11 0.0
3.6297944685615516e-11 -9.905345499112868e-11 0.0
0.004099999986332377 3.5523417941181745e-11 0.0
0.004099999962199504 -1.0428578777299475e-10 0.0
0.0013264780080906344 0.000549965828453977 0.0
0.0029576535272001596 0.00032825286096679267 0.0
0.0020167073155930478 0.00012112667505156222 0.0
4.649937621201577e-12 3.7128912710699044e-12 0.0
8.580130189065055e-12 1.0285013033244406e-11 0.0
7.78030493036302e-12 6.247689283081018e-12 0.0
7.57853564464023e-12 5.77452683927404e-12 0.0
7.038664386457768e-12 4.252594547759273e-12 0.0
6.5500295159337154e-12 3.000710775775419e-12 0.0
6.101305958397122e-12 1.7058655620939033e-12 0.0
5.747804998945262e-12 3.3926443670998536e-13 0.0
5.028013247934981e-12 -1.160827421697922e-12 0.0
5.2994214016930384e-12 -2.498873753399282e-12 0.0
5.0812859279862554e-12 -4.053350953336815e-12 0.0
5.096236667286285e-12 -5.718417130103172e-12 0.0
5.26502641284488e-12 -7.38764520613151e-12 0.0
5.2296349747670916e-12 -8.96204288834626e-12 0.0
5.552181851239008e-12 -1.084817192260448e-11 0.0
5.569867556165772e-12 -1.2432660931892319e-11 0.0
5.900430670900876e-12 -1.4301339286654883e-11 0.0
6.0334869525373085e-12 -1.6415633696609797e-11 0.0
6.3106509485539806e-12 -1.841082205297964e-11 0.0
6.624107335468033e-12 -2.08067883500889e-11 0.0
7.02932137247019e-12 -2.3494788151760412e-11 0.0
7.748315965029034e-12 -2.6759885275974673e-11 0.0
7.811020452875554e-12 -3.0241403609886e-11 0.0
1.0620695157005459e-11 -3.8215579264632086e-11 0.0
4.671772025163081e-12 -3.497535944385742e-11 0.0
5.105992441158659e-5 -6.779589541550445e-5 0.0
8.833409281035418e-5 -0.00011688094735746562 0.0
0.00012447801211642315 -0.00015963712596725555 0.0
0.00015907759658208507 -0.00019847844432950432 0.0
0.00019259782553143873 -0.00023457976269724648 0.0
0.00022572297211781025 -0.00026885077939042384 0.0
0.00025899454032990535 -0.0003014345159804886 0.0
0.0002920967154256805 -0.00033259327500555696 0.0
0.00032531570782751173 -0.000362607070552475 0.0
0.00035873119853868673 -0.0003914811369271067 0.0
0.00039236096055713033 -0.00041945995585568736 0.0
0.00042645432471857163 -0.00044655436652030726 0.0
0.0004607527946669037 -0.00047276371349974525 0.0
0.0004954277104040893 -0.0004982846299444685 0.0
0.0005306831585887877 -0.0005230719304651511 0.0
0.0005661350830885171 -0.0005470954540821103 0.0
0.0006020296663931862 -0.000570496154235451 0.0
0.0006383554639140912 -0.0005931624953751856 0.0
0.0006750842543942361 -0.0006152208399370465 0.0
0.0007122336879581108 -0.0006366663268286555 0.0
0.000749849461403247 -0.0006575014874388977 0.0
0.0007878379636702254 -0.0006777110477225244 0.0
0.0008264255626461151 -0.0006973902630768684 0.0
0.0008652471915487818 -0.0007164217531884345 0.0
0.0009047143524341028 -0.0007349070201791304 0.0
0.0009443838223934008 -0.0007527483143583363 0.0
0.0009845495294163282 -0.0007700533511295859 0.0
0.0010250523545439624 -0.0007867048508047817 0.0
0.0010661206800238465 -0.0008028424016743679 0.0
0.001107363360356057 -0.0008183637443549894 0.0
0.0011491644162024152 -0.000833347434128111 0.0
0.0011912745656768805 -0.0008476826467985979 0.0
0.0012337949994555809 -0.0008614557425061317 0.0
0.0012765802393698638 -0.0008746061926909683 0.0
0.0013198799678163658 -0.0008872011597402549 0.0
0.001363320190482093 -0.0008991304682062294 0.0
0.0014071478899958221 -0.000910468438491191 0.0
0.0014512213388962133 -0.0009211231521025645 0.0
0.0014956067965800348 -0.0009311229917453536 0.0
0.0015402318967970238 -0.0009405509717616926 0.0
0.0015850643317438457 -0.0009492490312410633 0.0
0.001630188731789222 -0.0009573749646989906 0.0
0.001675534030234808 -0.0009647925214136785 0.0
0.0017210026324909786 -0.0009716215728028897 0.0
0.0017666911510723121 -0.000977684540509445 0.0
0.0018123639526452543 -0.000983137875927058 0.0
0.0018582384358140946 -0.0009879376401558384 0.0
0.001904127985755156 -0.000991998064380979 0.0
0.0019500561653326418 -0.000995459941937078 0.0
0.0019961318411630025 -0.0009981785139075887 0.0
0.002041797827740403 -0.001000058304228389 0.0
0.0020878952937651405 -0.0010013712664616455 0.0
0.0021329497243623412 -0.0010018211409917252 0.0
0.0021785123372658477 -0.0010016197370995234 0.0
0.0022219392774747732 -0.0010002465907793378 0.0
0.0022670082055045973 -0.0009982707040387402 0.0
0.002310436334873884 -0.0009954230533783487 0.0
0.0023536888636654213 -0.0009911374945115758 0.0
0.0023969694416434272 -0.000986014452828304 0.0
0.002440321370516445 -0.0009792691800542775 0.0
0.0024836354309390324 -0.0009715920495272542 0.0
0.0025272084002264067 -0.0009625156846455616 0.0
0.0025711176017537904 -0.0009525344448729651 0.0
0.0026151480123365765 -0.0009412721528819539 0.0
0.0026595408482656697 -0.0009291324626555841 0.0
0.0027039717758773145 -0.0009163150450947703 0.0
0.002748139811223016 -0.0009026626113274789 0.0
0.0027922686360722 -0.0008884406001694537 0.0
0.0028363542625508735 -0.0008734944095042329 0.0
0.0028802914330001376 -0.0008578353590405579 0.0
0.002923826393060061 -0.0008416273287361001 0.0
0.002967378703111228 -0.0008246938150501685 0.0
0.003010417976206219 -0.0008071431239761225 0.0
0.003053161737561653 -0.0007891053811253077 0.0
0.003095773901926216 -0.0007703202138473377 0.0
0.0031378293222918967 -0.0007510369823478223 0.0
0.0031796642386580742 -0.0007311478970035816 0.0
0.00322110025199741 -0.000710655412796293 0.0
0.003262295568623881 -0.0006895596232350996 0.0
0.0033031359875840384 -0.0006677749806302436 0.0
0.0033436565652709294 -0.0006453370524961298 0.0
0.0033836431224839804 -0.0006223253917309337 0.0
0.003423394375465868 -0.0005986801887369381 0.0
0.0034628795565943755 -0.0005743145993141055 0.0
0.0035019317103387264 -0.000549258029806236 0.0
0.0035407414247873264 -0.0005235412266780862 0.0
0.003579419660788438 -0.0004969673840744426 0.0
0.0036176917316818173 -0.0004695700514613768 0.0
0.0036556520536225267 -0.00044140097721240057 0.0
0.0036936255819043627 -0.0004122870034458332 0.0
0.003731583264343244 -0.00038207583357100557 0.0
0.0037693080898594427 -0.00035070215108920695 0.0
0.0038069010968737444 -0.00031811869458676207 0.0
0.003844682209772051 -0.00028405240547458557 0.0
0.003883109470484648 -0.00024811335223843525 0.0
0.003921673321020874 -0.00021005672259688288 0.0
0.003960823765485542 -0.00016900828933912902 0.0
0.004002364183098695 -0.0001235882480104105 0.0
0.00404499678658611 -7.147853961888717e-5 0.0
0.004099999994736501 -3.315592068221986e-11 0.0
0.004099999988499031 -3.669531780656991e-11 0.0
0.004099999991801384 -2.5809952907734463e-11 0.0
0.004099999991797863 -2.290460798370989e-11 0.0
0.004099999992338244 -1.951084314782247e-11 0.0
0.0040999999927210885 -1.693833132866253e-11 0.0
0.004099999992875105 -1.4943197424266274e-11 0.0
0.004099999993148245 -1.3144669183279188e-11 0.0
0.004099999993241933 -1.1475102836034646e-11 0.0
0.004099999993410674 -9.850936949884356e-12 0.0
0.004099999993712305 -8.535709166435727e-12 0.0
0.004099999993712928 -6.821969233164526e-12 0.0
0.004099999993871597 -5.538648637250187e-12 0.0
0.004099999993981633 -4.043137318743043e-12 0.0
0.004099999994021656 -2.613565208807411e-12 0.0
0.004099999993996432 -1.1010487652999607e-12 0.0
0.004099999994016886 3.8533540914461003e-13 0.0
0.004099999993455518 2.0600794654789766e-12 0.0
0.004099999993835362 3.4114089124313594e-12 0.0
0.0040999999929185954 5.131668048818897e-12 0.0
0.004099999992905377 6.2666432100336005e-12 0.0
0.0040999999925651785 7.513541804478528e-12 0.0
0.004099999992839785 7.863858922254145e-12 0.0
0.00409999999267374 1.0873638253836459e-11 0.0
0.004099999996137815 4.892381768735911e-12 0.0
0.0037965732553874323 0.00021663893974404163 0.0
0.003532340555869806 0.000315057880928749 0.0
0.003292506477394983 0.00035018672145797745 0.0
0.0030880621053597846 0.00034555292696788787 0.0
0.0029508357809814815 0.00020245816688478402 0.0
0.002929602657922083 0.00013673044244938228 0.0
0.002882278599703363 0.00010938587503293954 0.0
0.0028263082338232668 0.00010135745734560052 0.0
0.002761494014700822 0.00010422997675704628 0.0
0.002691886371103835 0.00010994596336426796 0.0
0.002618497839810962 0.00011626827853213035 0.0
0.002542466443315196 0.00012410941532057094 0.0
0.002462246692142809 0.00013048222035100872 0.0
0.0023770439024632262 0.00013455305077330078 0.0
0.0022826178145638407 0.00013555258913840388 0.0
0.002169806634089812 0.00013485540003405807 0.0
0.0018718329651102525 0.00016115436342395062 0.0
0.0017699133933454932 0.00017367450772075657 0.0
0.0016860075486159593 0.0001786836286153139 0.0
0.0016130755597708083 0.00018204208523862428 0.0
0.0015471848420455735 0.00018528802427129697 0.0
0.0014877599184960814 0.00018937778493500286 0.0
0.0014345788838581526 0.00019572465762706927 0.0
0.001389445767177345 0.00020614314720221276 0.0
0.0013543161741507886 0.00022590111699705346 0.0
0.0013304876355939648 0.0002597915436100927 0.0
0.0013223693997667057 0.00031766932784291836 0.0
0.0013222918919559173 0.0004084300599254392 0.0
0.0011730606010198097 0.0005616081207751396 0.0
0.0009498142372794274 0.000527605408879071 0.0
0.0006614861518724982 0.00043342069424073685 0.0
0.0003502840135757707 0.00028303183123140624 0.0
0.0010744569908337318 -0.0007688702866683948 0.0
0.0029146033576270894 -0.0008029892674940245 0.0
0.0013764403904670604 -0.0008682308673768496 0.0
0.002600641673465565 -0.000906651269755079 0.0
0.0016972017988451597 -0.0009339763794489692 0.0
0.00228544774043357 -0.0009551352809070825 0.0
0.0019720695289694246 -0.000960267451701959 0.0
0.0031741614808650912 -0.0006987564995953664 0.0
0.0008401519556733998 -0.0006742566738113363 0.0
0.0033687726495653905 -0.0005959400722145353 0.0
0.000649919460641591 -0.0005741078374387102 0.0
6.726374460760554e-5 -1.2654068456573151e-5 0.0
0.004031040693072183 -1.1972039669926005e-5 0.0
0.002191586116856265 0.00015396787512612648 0.0
0.002512608674480641 0.00014815242975702017 0.0
0.0018414368901677395 0.0001672483930107223 0.0
0.0015602234616122594 0.00019970550428841284 0.0
0.0035694369032406833 -0.0004763000895441287 0.0
0.0004776196635288785 -0.00046436715525624534 0.0
4.654967140908919e-5 -2.296277644867459e-5 0.0
0.004051715714114515 -2.035610983074657e-5 0.0
0.0040014932869618484 2.8554056616012654e-6 0.0
9.037532691145606e-5 3.3334060380655686e-6 0.0
0.003722951168753322 -0.00036345277693772905 0.0
0.0003356180855525359 -0.00035038219688424794 0.0
0.0027342269130665965 0.00013427479026600656 0.0
0.0013814700640998546 0.00021426716352500552 0.0
3.481024516794348e-5 -2.498631497066209e-5 0.0
0.004061628803133079 -2.312574193966916e-5 0.0
0.0015616846930090506 -0.0009096309933065729 0.0
0.0018331210064208882 -0.0009504101136893365 0.0
0.002466135501631399 -0.0009342805482415169 0.0
0.0021138248174953607 -0.0009614865704826625 0.0
0.0027352856695707826 -0.0008673233221185004 0.0
0.0030368632019578757 -0.0007597717178150511 0.0
0.0012559251151461298 -0.0008337402871659611 0.0
0.0009576678251926254 -0.00072864442836146 0.0
0.0038319053745218407 -0.00027313235011322946 0.0
0.00023370699905395981 -0.00025968756932457564 0.0
0.003974341677797779 2.5301739008629702e-5 0.0
0.00011320859816445456 2.0704284911773163e-5 0.0
0.0040679507631405185 -2.602522561682042e-5 0.0
3.226445491690505e-5 -3.0498238978095344e-5 0.0
0.0028681191523014455 0.0001310537953489446 0.0
0.0012880450262362571 0.0002501331487045201 0.0
0.003923749115709676 4.727648586815814e-5 0.0
0.00015807386080008069 4.12358397376615e-5 0.0
5.6373154056266615e-5 -1.9193636641722824e-5 0.0
0.00404130650890305 -1.7557431473230718e-5 0.0
0.002352916488491741 0.0001567148485736602 0.0
0.0016978892692009835 0.00019394255019754145 0.0
0.00012934989108190944 -0.0001501621952560261 0.0
0.003957052237736485 -0.00015447848684244233 0.0
0.0028212896032941207 -0.000842291102373972 0.0
0.0022007077830362813 -0.0009621968545225901 0.0
0.0014746175829599582 -0.0008909019651328666 0.0
0.0011630889803128954 -0.0008062033150010668 0.0
0.0023785744252779045 -0.000945842628009495 0.0
0.0032502922770463747 -0.0006616705547220555 0.0
0.0007636900570378998 -0.0006350989609584185 0.0
0.0034523997036272147 -0.0005501888945729275 0.0
0.00057319164172783 -0.0005258914655886728 0.0
0.0004025495503945346 -0.00040620269919504603 0.0
0.0036466301000342483 -0.00042115529540457964 0.0
0.000790601181359888 0.0002974104334097933 0.0
0.003401401317975676 0.00023040271376601894 0.0
0.004068826852395169 -3.058344828113684e-5 0.0
2.808099499199675e-5 -3.108148690375179e-5 0.0
0.0012414457539078906 0.0003455894401932245 0.0
0.0029779726270709756 0.00017808050482400527 0.0
0.000180376244102184 6.59434094421569e-5 0.0
0.003918852743539508 6.276355446697838e-5 0.0
5.643680394874834e-5 -6.740403909049626e-5 0.0
0.0040362795587488755 -7.081662190983188e-5 0.0
0.003182454035566078 0.00025363267230292725 0.0
0.0032538587168831896 0.0002049401915747299 0.0
0.003508562533725744 0.00016477387315056005 0.0
0.003363762050987983 0.0001728218305351938 0.0
0.003167587660438237 0.00018751366835286127 0.0
0.0032395532246710314 0.00017975212487186847 0.0
0.003426920661629885 0.00015627599917169971 0.0
0.0033102159678239096 0.00016750913870541706 0.0
0.0034868033334892407 0.00013926983636033933 0.0
0.0033791971938096584 0.0001490197847084021 0.0
0.003213600111026461 0.00017260541236434324 0.0
0.0032770128645406584 0.00015289909238914276 0.0
0.0031344041377460185 0.00017147271484479904 0.0
0.003185738975226914 0.00015020065973392327 0.0
0.003055779221222173 0.0001658670905670301 0.0
0.0031021096166068424 0.00014079226591857553 0.0
0.002140101388294872 0.00010419076400930568 0.0
0.002012209569298551 8.318349048574244e-5 0.0
0.0021124935550452745 7.305541440271033e-5 0.0
0.0020085151078050112 5.7940879588857626e-5 0.0
0.002096276918098505 4.9232580169199804e-5 0.0
0.0020066659237145622 3.758856554609069e-5 0.0
0.0020857922242450986 2.89780138047223e-5 0.0
0.0020047122372802493 1.882856498774368e-5 0.0
0.002078136933241734 1.0610982041680407e-5 0.0
0.0020030041214785994 1.3972683370710423e-6 0.0
0.00207231394103688 -6.379850236154616e-6 0.0
0.002001659496563242 -1.4974831715240685e-5 0.0
0.0020678015254001355 -2.2881506415406517e-5 0.0
0.0020023644601223608 -3.090577284582015e-5 0.0
0.0020642621361108534 -3.87587400492769e-5 0.0
0.002001376109793461 -4.653609648077622e-5 0.0
0.0020610351207672223 -5.425738949518532e-5 0.0
0.001998423643295523 -6.187885691006155e-5 0.0
0.0020578498867900234 -6.95675700010316e-5 0.0
0.0019969795957548472 -7.700338893721639e-5 0.0
0.0020551764587292457 -8.479714659547775e-5 0.0
0.001995796754956031 -9.211038819609498e-5 0.0
0.002050863780829781 -9.992210422294546e-5 0.0
0.00199427875131987 -0.00010729695788842732 0.0
0.0020482711891026116 -0.00011517497708668896 0.0
0.0019938345934394693 -0.0001222267461847109 0.0
0.0020460345943694993 -0.000130532332269606 0.0
0.0019897756559421713 -0.0001366810499164652 0.0
0.002043231004140265 -0.00014599641058300655 0.0
0.0019752683732927 -0.0001523556644166715 0.0
0.0020440815764552955 -0.0001619815386720949 0.0
0.001986778883856133 -0.00016937814505205577 0.0
0.0020415481433032887 -0.00017804378329570585 0.0
0.0019873761903314246 -0.00018587705604370923 0.0
0.0020399199168985773 -0.0001945839824286652 0.0
0.00198947999769338 -0.00020256182618868222 0.0
0.0020380733256981187 -0.00021141199524068245 0.0
0.0019889937238143727 -0.0002198583074236371 0.0
0.0019339933424296566 1.1278047018457454e-5 0.0
0.0020361963389671197 -0.00022872612678556502 0.0
0.0019373224042502038 -6.837226045885742e-5 0.0
0.0019243389232363405 -0.00016487183051169644 0.0
0.00198450771085228 -0.00023735447931360655 0.0
0.0020339389985195603 -0.0002465042772334522 0.0
0.001980104506452858 -0.00025596736444347357 0.0
0.0019314672262465357 -0.0002450952542058526 0.0
0.0019257791230512416 -0.0002646270194540639 0.0
0.0020296785183754333 -0.00026585698103094585 0.0
0.0020841683558632976 -0.00025570544402460924 0.0
0.002093619261118214 -0.0001695877990533723 0.0
0.002080208320547754 -0.00027562839301157075 0.0
0.002137982761470681 -0.00026355372512854665 0.0
0.002132122074506481 -0.0002853246593595489 0.0
0.0018776484278471052 -0.0002532293030560723 0.0
0.0018739149883887916 -0.0002724062871425426 0.0
0.0021916338838783036 -0.0002721661250950963 0.0
0.0018227157508735983 -0.0002603705250468615 0.0
0.0018221260651862645 -0.0002805150945233058 0.0
0.0021867343046548184 -0.0002942113198402023 0.0
0.0022443258741892498 -0.00028205612586863576 0.0
0.0017674069159409663 -0.0002676465175791947 0.0
0.001765523146145202 -0.0002884172576831366 0.0
0.002240652340677598 -0.0003039846435228118 0.0
0.002299796851855258 -0.00029108472147161405 0.0
0.0017123240714840258 -0.00027491940224991566 0.0
0.0017099326905189109 -0.00029695946544241027 0.0
0.002295963543789869 -0.000314173159624843 0.0
0.0023566182861690724 -0.00029997791352063765 0.0
0.0016576452537101836 -0.0002810516510821098 0.0
0.001651597597038445 -0.00030379539886623734 0.0
0.0023535169888195457 -0.0003236822961050656 0.0
0.0024144287958321456 -0.0003086639788166479 0.0
0.0015975357341097482 -0.00028719424986858595 0.0
0.0015929094239145057 -0.0003112725974021798 0.0
0.0015357480342104463 -0.00029479624538997917 0.0
0.0015400579961064953 -0.00026929591934696164 0.0
0.0022871850028260295 -0.00033696291337395335 0.0
0.0024110325295568133 -0.00033332467808893924 0.0
0.0024730863447663324 -0.00031719665898494355 0.0
0.002477487539983084 -0.0002919009731587776 0.0
0.002106474440732554 -9.302997686398608e-5 0.0
0.002538430655532469 -0.000299967608280988 0.0
0.002543347785631413 -0.0002737368262034337 0.0
0.002606157278879392 -0.000280961248456538 0.0
0.0015358966653134538 -0.0003208456873594717 0.0
0.001476199824258694 -0.0003015822099914873 0.0
0.0015919657271225636 -0.0003371667981721302 0.0
0.0024678950957081887 -0.00034317470586246675 0.0
0.0014770489394236132 -0.0003283475908053237 0.0
0.0014166851341023694 -0.0003076077175438385 0.0
0.0021307190020093156 -2.955817754357378e-5 0.0
0.0014172959858954797 -0.000333851022912483 0.0
0.001357059990999018 -0.0003127694005114085 0.0
0.0013578328155824319 -0.00033968689155094804 0.0
0.001298422503379687 -0.00031664114505393365 0.0
0.001296337346993458 -0.00029039340217967114 0.0
0.001234256639428538 -0.0002950013673562833 0.0
0.0012330625627403427 -0.000267276893791374 0.0
0.0012921103361277708 -0.00034329752969549044 0.0
0.0011664613656217249 -0.00027220828700775997 0.0
0.0011647582093553032 -0.00024381746622952576 0.0
0.0013590559290995359 -0.0003681890302395233 0.0
0.0013031430997963204 -0.0003740142660358514 0.0
0.001099758803862782 -0.0002465334518000528 0.0
0.0010958589054739668 -0.00021889745353145172 0.0
0.0026128637437693087 -0.0002544228085628673 0.0
0.002678109037657875 -0.00026128442311003494 0.0
0.0013601007741527696 -0.00039707484907509796 0.0
0.0013048467185770322 -0.000402736123985999 0.0
0.0026855753604589005 -0.00023394463546419093 0.0
0.0027538810419063817 -0.00024102530016976433 0.0
0.0027435871741907794 -0.0002709980178008321 0.0
0.0028197515261871135 -0.00024908848331225503 0.0
0.002810702661728142 -0.0002797850564252579 0.0
0.0028868483955855366 -0.0002554924172015791 0.0
0.0028816199162418326 -0.00028594914170310023 0.0
0.002960188989557867 -0.00025850353798577663 0.0
0.0029483719363995703 -0.0002896056328075407 0.0
0.002965430967160886 -0.00022931965370218382 0.0
0.0030280752937950207 -0.00026262761700512313 0.0
0.0030121404612734924 -0.0002935828060819908 0.0
0.0013617370803013123 -0.00042651703101392934 0.0
0.001027449488895322 -0.00022092786558667742 0.0
0.001022267601500758 -0.00019291005275535918 0.0
0.0029390615940692593 -0.00032148767669552104 0.0
0.003000403441996678 -0.00032496175762721153 0.0
0.003072277619530951 -0.00029662067311610977 0.0
0.0029325182502772393 -0.0003540502461588659 0.0
0.0013077440256006364 -0.00043237100309525704 0.0
0.0030607343574971667 -0.00032750020495126255 0.0
0.003130955047474062 -0.000298400816289965 0.0
0.0013631918610426742 -0.0004568036269044603 0.0
0.0013101846751019405 -0.00046286831933211236 0.0
0.0012556097261214002 -0.0004374505733276183 0.0
0.0031188494301673327 -0.0003288261187482076 0.0
0.0031881306468171996 -0.00029863217202587 0.0
0.0013644395193892515 -0.0004880259186827476 0.0
0.0014169092653723188 -0.0004815151840297104 0.0
0.0012586224736866897 -0.0004682022008051296 0.0
0.001204537808804749 -0.0004419398054564057 0.0
0.0031738864783488756 -0.00032913826804501124 0.0
0.0032447017218073253 -0.00029772480565586876 0.0
0.003258164510182902 -0.0002681765401140678 0.0
0.003104320750525527 -0.0003606777730019969 0.0
0.003314820779664253 -0.0002662021777414151 0.0
0.003330196825404358 -0.0002373865903615366 0.0
0.0009498035732494838 -0.00019481146668203772 0.0
0.0009484928100057846 -0.0001659547104955412 0.0
0.0010354144095323658 -0.00016564519498356393 0.0
0.0009445326939453066 -0.0001376596102532382 0.0
0.0010279813041290731 -0.00013313529160051136 0.0
0.0009397411937211792 -0.00010810283619407055 0.0
0.0010209169380680147 -0.00010203428121258465 0.0
0.0014180070037882147 -0.0005130454784175642 0.0
0.0014692233146800858 -0.0005059240628140472 0.0
0.0012078522463534953 -0.0004729399909896636 0.0
0.0011542633686841778 -0.0004457571909849914 0.0
0.003300432116731119 -0.00029573493319369823 0.0
0.0009436894005473025 -7.862751699633237e-5 0.0
0.0010205119340474266 -7.118218439439463e-5 0.0
0.0014703455299921175 -0.000537490628063853 0.0
0.0015203798272022148 -0.0005301879164736491 0.0
0.0017732001456444376 -0.00030854257418643497 0.0
0.00336984812596205 -0.00026324111934046215 0.0
0.0021670306043008337 4.3482241036048856e-5 0.0
0.002254802553919269 0.00014048618790776478 0.0
0.001937684369828682 -0.0001140263885083877 0.0
0.0027583835099761335 -0.0002130275214320587 0.0
0.0009364791275836825 -4.7170480545333496e-5 0.0
0.0010261789619851012 -3.904383571894921e-5 0.0
0.00115802213484482 -0.0004769832323798017 0.0
0.0011051965149040431 -0.00044908955147857034 0.0
0.0015222151537641945 -0.0005619080792353194 0.0
0.0015718627276660772 -0.0005542608662068361 0.0
0.003354058969738563 -0.00029241915714131405 0.0
0.0008732302073384202 -0.00016793755562938145 0.0
0.0008768542244960056 -0.00019695960118236788 0.0
0.0008471385922645009 -8.264115485813258e-5 0.0
0.003423061173259196 -0.00025908889078654157 0.0
0.0009357332963894514 -1.6889157261547958e-5 0.0
0.0010261195690479084 -5.938065486465872e-6 0.0
0.001472886013919122 -0.0005700420533495841 0.0
0.0011096292009112618 -0.00048073447610837784 0.0
0.0010570825820722753 -0.0004516575376790098 0.0
0.002690359226780369 -0.0002065313776693096 0.0
0.002766363724262949 -0.0001847756670044605 0.0
0.002694304945080892 -0.00017840923948330356 0.0
0.002774606269389491 -0.00015639275419687473 0.0
0.0015729870513348768 -0.0005858640254790032 0.0
0.0016231129851918213 -0.0005770146213913782 0.0
0.0017170042728828488 -0.00025519975165539744 0.0
0.0009347645684443147 1.2860420110004365e-5 0.0
0.0010230278114598786 2.635966719081818e-5 0.0
0.0034076460358094195 -0.00028731507550864367 0.0
0.003345396866629296 -0.0003183016956746386 0.0
0.0009144178596494513 4.458309017054061e-5 0.0
0.001016803826659579 5.973190812491487e-5 0.0
0.0034742982590829966 -0.00025413556578095237 0.0
0.003482588121617178 -0.0002328731326329965 0.0
0.0009249183108308963 7.496225532938924e-5 0.0
0.0011606356726810486 -0.000511781579081123 0.0
0.001623383471672856 -0.0006094861396761493 0.0
0.0016731741080741127 -0.0005992865000847412 0.0
0.001673629145008634 -0.0005671093218163342 0.0
0.001723645578012719 -0.0005886090573542255 0.0
0.0017245979209004432 -0.0005568249243513712 0.0
0.0017748765800208002 -0.0005774576594728147 0.0
0.0017761397908151468 -0.000545648659708563 0.0
0.0018271947137004324 -0.000565694132890461 0.0
0.001828904463421882 -0.0005340546529931509 0.0
0.0018803848278283975 -0.0005531929608017287 0.0
0.001878610053294718 -0.0005856511982025045 0.0
0.0019315687858106386 -0.0005723085230344213 0.0
0.0019294873862788278 -0.000605274075833255 0.0
0.001982220834534748 -0.0005910594307040882 0.0
0.001979503073267855 -0.0006245849018314215 0.0
0.0020326761211104617 -0.0006094037702880958 0.0
0.0018826963265321064 -0.0005218255456014142 0.0
0.0020354296158453388 -0.000576025763525655 0.0
0.002086569728424617 -0.0005933185159952867 0.0
0.0020830535071879454 -0.0006278120640315491 0.0
0.002137614452914068 -0.0006108525607910881 0.0
0.0007988063496191023 -0.00016888494271532318 0.0
0.000802048852612254 -0.00019760373383506238 0.0
0.00106184395569829 -0.0004834002702611612 0.0
0.0010103426955721472 -0.0004538116500697651 0.0
0.002141732506816055 -0.0005766680629605146 0.0
0.0021927511211275097 -0.0005929122644365626 0.0
0.002187884984717635 -0.0006277912697999104 0.0
0.0022439882317825803 -0.0006087171179371253 0.0
0.0007260404993117332 -0.0001687991727388881 0.0
0.0007293362022244291 -0.0001967455801114797 0.0
0.002698733382584025 -0.0001491909479320305 0.0
0.002784280562945194 -0.00012722480039459012 0.0
0.00270585604258243 -0.00011992271142994684 0.0
0.0034605075892122803 -0.000280315891432372 0.0
0.003524510524026736 -0.0002475980573289807 0.0
0.001673194631424712 -0.0006327431061700541 0.0
0.001117633013953395 -6.877135764551441e-5 0.0
0.002130069823143718 -0.0003054435419945795 0.0
0.0022383010811426038 -0.0006441965105578957 0.0
0.002294555181668315 -0.0006240770725008206 0.0
0.002299176974078583 -0.0005886211642370891 0.0
0.0023507545440850154 -0.0006026145447222489 0.0
0.002250907982804473 -0.00025885912523183354 0.0
0.0027986446998669056 -9.717230142365018e-5 0.0
0.0028714672348852024 -0.00010975386370412845 0.0
0.0010183362850216997 9.315604065448416e-5 0.0
0.0010148992797104808 -0.0004852838667456339 0.0
0.0009643897449078192 -0.0004550704765484725 0.0
0.0027152821087923764 -8.954715992106995e-5 0.0
0.002344771790851955 -0.0006390086207715511 0.0
0.0024018994161327466 -0.0006170879074280584 0.0
0.002407798896880009 -0.0005807488204464099 0.0
0.0024601399775946876 -0.0005944448312650259 0.0
0.002467207864741703 -0.0005590905378255339 0.0
0.002518730997824464 -0.0005709392818006576 0.0
0.002510494666665742 -0.0006066390889914193 0.0
0.0025685279594703757 -0.0005817875929724093 0.0
0.000921725513758131 0.00010328664534020892 0.0
0.0006555585643661708 -0.00016748935974116502 0.0
0.0006584841569854017 -0.00019415934736528745 0.0
0.0016249103231637716 -0.0006432619305166123 0.0
0.003508425905514183 -0.0002747587317724552 0.0
0.003572543188018459 -0.0002401928040351369 0.0
0.0025589185395813343 -0.0006176148428843795 0.0
0.0026161758715789935 -0.0005916049768694498 0.0
0.0010204988777874372 0.00012483924762574805 0.0
0.0009695586734990757 -0.00048663402290078164 0.0
0.0009190194232744829 -0.00045523602462956914 0.0
0.0011132905669700179 3.986661461889468e-5 0.0
0.003230638738253453 0.000125230310928635 0.0
0.0016732638496786659 -0.0006670683005267903 0.0
0.0009198459969480883 0.00012907122678894247 0.0
0.0008532409618460518 -1.7273819790340084e-7 0.0
0.0035506055321279997 -0.0002738777627316651 0.0
0.003618917508643674 -0.00023247878704627445 0.0
0.0036362304068364207 -0.00020603350384357802 0.0
0.0008260508644763941 8.282967906144564e-5 0.0
0.0034831333020404363 -0.00030692804693024543 0.0
0.0006480526585955561 -0.0001410435563011912 0.0
0.001015706242865229 -0.0005153704565317656 0.0
0.0028126256446800776 -6.616407353436731e-5 0.0
0.0027263925078474653 -5.8109993833959704e-5 0.0
0.0025272167077136317 -0.000536210255557621 0.0
0.0009247374487679143 -0.0004875650327806001 0.0
0.0008742992471238306 -0.00045521528664087106 0.0
0.0005872364090688682 -0.00016476921521443166 0.0
0.0005896894865470539 -0.0001897371037188145 0.0
0.0011011666855428575 -0.00041921705245422493 0.0
0.002605179466070567 -0.0006274270736639625 0.0
0.0026618459412048375 -0.0005999957027658165 0.0
0.0008684529064986292 -0.0004235576620024095 0.0
0.0008235462124567644 -0.00042259354651040927 0.0
0.0025516847698430784 -0.0006517876464031684 0.0
0.0016267660446041571 -0.0006779185804695555 0.0
0.0008303125900369994 -0.0004547754512134723 0.0
0.0007797350556307452 -0.00042122544027948546 0.0
0.0017245617033309819 -0.0005264595067537193 0.0
0.003682863772567809 -0.00019671935988282307 0.0
0.00370005554116522 -0.00017309392069866935 0.0
0.0036662246552076165 -0.0002220694520474867 0.0
0.002649310320445793 -0.0006353817571751786 0.0
0.002705733849676184 -0.0006068783841694131 0.0
0.0024738927535834687 -0.0005246351967334493 0.0
0.0025351486486512747 -0.0005024697930549148 0.0
0.0016738434158313745 -0.0007021230100333654 0.0
0.002718734680806879 -0.0005720519236846817 0.0
0.0027629103445266116 -0.0005784496033940867 0.0
0.0005200700889850754 -0.00015958359301304975 0.0
0.0005252713249705587 -0.00018376267409625074 0.0
0.0027491881009448506 -0.0006140260929387083 0.0
0.002805526545318754 -0.0005846715119686199 0.0
0.0007879800591344057 -0.00045399043097591417 0.0
0.0007373242202753068 -0.0004194292659554048 0.0
0.0028269734419690625 -3.414520160891087e-5 0.0
0.002739821656746156 -2.5603256152917676e-5 0.0
0.0007285512980500644 -0.00038816314324128983 0.0
0.0006859757314874552 -0.00038504386606993756 0.0
0.0006944868024267439 -0.0004167984479970673 0.0
0.000643409597633789 -0.0003814352181271643 0.0
0.003727945201944511 -0.00018633186250599382 0.0
0.00371087780036977 -0.0002115844091903224 0.0
0.0010180628569777658 0.00015160906566103892 0.0
0.0009088674166527455 0.00015072029388420692 0.0
0.002627093537684105 -0.00011136879639304783 0.0
0.001628560165107578 -0.0007132834801681791 0.0
0.0027915281317176834 -0.0006214671679595139 0.0
0.002846802906874905 -0.00059086739617322 0.0
0.0029743130694839266 0.0001559430278037333 0.0
0.0027766396347020067 -0.000543762920991919 0.0
0.0019276234335617282 -0.0006391857424085877 0.0
0.0006334796729890586 -0.0003512208662597658 0.0
0.0005921768239437202 -0.0003460803257095909 0.0
0.0006023197021801 -0.00037746139328357573 0.0
0.0005509449113601705 -0.00034076468356958003 0.0
0.0005408144337996911 -0.000311160893125419 0.0
0.0004983359360800874 -0.00030465612285563207 0.0
0.00048788756805313236 -0.00027568965092919143 0.0
0.00044481936793018675 -0.00026771138312679555 0.0
0.0004344313776638501 -0.00024057426079115705 0.0
0.0003938021793566097 -0.0002319757429331306 0.0
0.00038274811354631225 -0.00020695568848720186 0.0
0.0004033819119263829 -0.0002582833130365057 0.0
0.0003480133434252105 -0.00021688741888882125 0.0
0.000457679670950688 -0.0001532199927076994 0.0
0.00045632253941788867 -0.00013170362324543494 0.0
0.0003625076379458603 -0.00024757688341872994 0.0
0.00031191296018774064 -0.00020940143613755403 0.0
0.0011186914773561164 0.0001447227945094524 0.0
0.0012203351254034642 -0.0002370286463422918 0.0
0.002480868761951615 -0.0004913864173477606 0.0
0.0025421591639281844 -0.00046980128401537393 0.0
0.0007282425603529245 -0.00022301375035158427 0.0
0.0016743672192652188 -0.0007380723197847645 0.0
0.0017200175210209442 -0.000726294852209659 0.0
0.0025968228091249796 -0.0004797326790833643 0.0
0.0026042713703304404 -0.00044724777729252316 0.0
0.0037713513375995074 -0.0001748091001251895 0.0
0.0037516101655976036 -0.0002011347373714117 0.0
0.0036925037305800697 -0.000240742718321216 0.0
0.0026390088821956017 -4.984754756020827e-5 0.0
0.0026514698827556703 -1.7371256355381154e-5 0.0
0.0015818595506146575 -0.0006882962160653295 0.0
0.0015839039950171533 -0.0007237615602894609 0.0
0.0015379106988668296 -0.0006983417318317479 0.0
0.0005632168478997883 -0.0003730816499953171 0.0
0.0027545886224549193 7.933541262016991e-6 0.0
0.002665646466883638 1.7051346967780838e-5 0.0
0.0011004006662040666 -0.0002761878779521464 0.0
0.0028318021323615558 -0.0006287767406791561 0.0
0.002887239634363678 -0.0005970093048362061 0.0
0.002902815494590848 -0.000560604782410698 0.0
0.002943007283861897 -0.0005655502438204581 0.0
0.0010413260207864376 0.0001770163780463962 0.0
0.0009108320862007375 0.0001706277449811559 0.0
0.0015177489004202164 -0.0004998084728546564 0.0
0.0027778637631579463 -0.0006602613114445562 0.0
0.003432047385024552 0.00012747959303721195 0.0
0.0029268008825905877 -0.0006041883226740561 0.0
0.002982960002198732 -0.0005714196406067081 0.0
0.0029991504534299888 -0.0005338333743934744 0.0
0.0030396234227321075 -0.0005385798043436197 0.0
0.0030566576990070054 -0.0005015246117683117 0.0
0.0030966087530452935 -0.0005053218950478663 0.0
0.0030791084907116737 -0.0005440937517713018 0.0
0.0031354473836514053 -0.0005097549581527468 0.0
0.00032343348288236965 -0.00023441244196536817 0.0
0.00027418942089040216 -0.00019576953376087297 0.0
0.00025659613148709123 -0.00016894759240602836 0.0
0.0017203843220245185 -0.0007627262218462006 0.0
0.0017641827930094302 -0.0007518844745883125 0.0
0.0015405713029014796 -0.0007339743708751032 0.0
0.0014947555995656467 -0.0007077732807714281 0.0
0.003730745789232107 -0.0002321116064520175 0.0
0.003788969101463742 -0.0001910226899079223 0.0
0.002931344042033854 0.00017811703479571147 0.0
0.002853638414874977 0.00016804366229685334 0.0
0.0007910181026446763 0.00014324538311653002 0.0
0.0007904006751203508 0.00016036425921016443 0.0
0.0003747206900145462 -0.0002767798097737989 0.0
0.001416849822983485 -0.00039078013482473923 0.0
0.002606525829699058 -0.00017397694012385968 0.0
0.003673327060580157 -0.0002738701547548435 0.0
0.0011053316885680819 -0.00012262454469600062 0.0
0.0025515941331525145 -4.2074138808272565e-5 0.0
0.0031164430494688444 -0.0005504631924652552 0.0
0.0031725874229015915 -0.0005149235326905859 0.0
0.0031282228868901893 0.0001124107020444587 0.0
0.003272890357471618 9.764445577494567e-5 0.0
0.0010261217733184616 0.00019493070040494618 0.0
0.0005915724424181098 -0.00021446378823324175 0.0
0.0003870804654726445 -0.00012340997029074965 0.0
0.00038701737323983446 -0.00010392684307620266 0.0
0.0006124661194968314 -0.0004105522046936597 0.0
0.0029695287913366272 -0.0006120286588268524 0.0
0.002403978472450435 -0.0003585645526041423 0.0
0.0021837743566146214 -0.0006637752926143865 0.0
0.001368399077261709 -0.0005187247683952522 0.0
0.00028576687107210097 -0.0002202387863109988 0.0
0.00023826526902360164 -0.00018096747435549022 0.0
0.0008384498773239612 -0.0004886488949666529 0.0
0.00265969700505122 -0.00045610499471330205 0.0
0.0026676287138685893 -0.00042398905697535737 0.0
0.0015843152966077212 -0.0007606441043442008 0.0
0.0031916587487510507 8.114487520505515e-5 0.0
0.0033154706268859373 7.028674853265604e-5 0.0
0.0032394682076417602 5.125939731600298e-5 0.0
0.0033595121121331633 4.2697892430552934e-5 0.0
0.003433041003430671 5.9839010627328886e-5 0.0
0.003476186114431275 3.4929653700360936e-5 0.0
0.0034016752525137966 1.5408637440758996e-5 0.0
0.0035145649875777483 1.0654218949328123e-5 0.0
0.0034407803716549846 -1.0473957073188504e-5 0.0
0.003551474111310388 -1.1864699518256417e-5 0.0
0.0034796724043036215 -3.4825494103528674e-5 0.0
0.003585739831141249 -3.2366286876759044e-5 0.0
0.0035160022091597644 -5.7247259667715596e-5 0.0
0.003618463112429934 -5.08871073310935e-5 0.0
0.0034055733833018636 -6.229731811751058e-5 0.0
0.0035505944549669385 -7.68815736044123e-5 0.0
0.0036469402209067677 -6.775974322947375e-5 0.0
0.003551358761387702 4.8826390337095115e-5 0.0
0.0008158269583207865 -0.00039142285825113037 0.0
0.0007971882005144697 -0.0004883091442617046 0.0
0.0008458034730373416 -0.0005233572402070443 0.0
0.003583594317517965 -9.41762811977879e-5 0.0
0.00367507617168678 -8.205623036266616e-5 0.0
0.0034921531039949667 -0.00010435469509141102 0.0
0.00223250121851845 -0.0006806255972192721 0.0
0.0021786263400967094 -0.0007003160155516511 0.0
0.002226325415893168 -0.0007176398787880154 0.0
0.0021740275308566094 -0.0007376507060514407 0.0
0.0022202432988914426 -0.0007554266764299047 0.0
0.002170079006050176 -0.0007757535005739481 0.0
0.0021239029602297807 -0.0007572355052861615 0.0
0.0021209975008730023 -0.000795290390063808 0.0
0.0020760771994177305 -0.0007758946225506948 0.0
0.001899568710742827 7.545684902004955e-5 0.0
0.0022146797211355733 -0.0007942374637368512 0.0
0.00226425524464721 -0.0007727506221816002 0.0
0.0018671270152490346 -0.00029334299187895103 0.0
0.0018304910328921786 -0.0005034461874080595 0.0
0.001884995583660436 -0.0004914965192219712 0.0
0.0018320962543009367 -0.0004738226513600994 0.0
0.0018872571165471162 -0.00046220852125452503 0.0
0.0018337749569584325 -0.0004452305520151735 0.0
0.001889522080437547 -0.00043400880852984626 0.0
0.0019432342633944897 -0.0004501235074323493 0.0
0.0019459832096536 -0.0004223435899740405 0.0
0.001999930336821107 -0.0004376262827982185 0.0
0.0020029816671493796 -0.00041024684055052536 0.0
0.0020547775130436517 -0.00042461793199337686 0.0
0.0019488588211495645 -0.00039482874062865656 0.0
0.001835540294674358 -0.0004176385978053929 0.0
0.0017796321359717347 -0.0004280933444854745 0.0
0.002051228043249298 -0.0004531240239336134 0.0
0.002108940916655736 -0.0004375747938404563 0.0
0.000806219300099692 -0.0005235556941757376 0.0
0.0019353621421719588 -0.00019396720426213932 0.0
0.0019370921612934077 -2.381495238309869e-5 0.0
0.0021976749454284774 -0.0005593629451210461 0.0
0.003788392015129692 -0.00015280756600879867 0.0
0.003829671326913418 -0.0001408526514387309 0.0
0.0021201298680453757 -6.107775537275925e-5 0.0
0.0021016735939275184 -0.00012080636907173294 0.0
0.003015013754883474 -0.0004982177505581486 0.0
0.002595230109884091 -0.0003081435183245733 0.0
0.0037691158116481996 -0.00022120469501402156 0.0
0.003824293112917746 -0.00018030198006369202 0.0
0.002091965642330217 -0.0002034720047197043 0.0
0.0014978297689994314 -0.000743779737830536 0.0
0.0014522442970999528 -0.0007168965978637512 0.0
0.0021473454669543343 3.7531990735641462e-6 0.0
0.002073275178166022 -0.0008140390314309362 0.0
0.0020282699617383305 -0.0007922906896117193 0.0
0.0014492488725512918 -0.0006813159811185607 0.0
0.0014063178470925075 -0.0006897913463596329 0.0
0.001403139674394267 -0.0006545735985686512 0.0
0.0013600110038502213 -0.0006623029932893389 0.0
0.0013640105833472613 -0.0006979952574473879 0.0
0.0013178924778761984 -0.0006697338263951918 0.0
0.0013222817847934549 -0.0007058561532848603 0.0
0.0012762180440357707 -0.0006768827545857656 0.0
0.0005757908782845946 -0.00040712731302689956 0.0
0.003846473560212968 -0.00012154515768831498 0.0
0.0027689681111848843 4.244022738914429e-5 0.0
0.0026777146868542084 5.09221041983435e-5 0.0
0.0012553662087573675 -0.0003799942526506631 0.0
0.0010108120568171155 -0.0004234142062355736 0.0
0.003708259252655999 -4.6390191068666614e-5 0.0
0.003658682144047898 -1.3832241615337086e-5 0.0
0.0017636686634969596 -0.0007880572128373624 0.0
0.0018085572472175252 -0.000776056352585865 0.0
0.002816566822224722 -0.0006688003591002206 0.0
0.0005341547312909391 -0.0002826781165280629 0.0
0.002360763309427739 -0.000277400003698153 0.0
0.00257734181186398 2.4930186156521855e-5 0.0
0.0025882864362487237 5.864401403596847e-5 0.0
0.003074214396885923 -0.0004664365720102417 0.0
0.0031418804687842984 -0.00026838967636911085 0.0
0.0031922520586604207 -0.00047582008531914027 0.0
0.0032300717933991096 -0.0004789729522359691 0.0
0.0032081886468972596 -0.0005211502882717764 0.0
0.003266439682315414 -0.0004834578955733539 0.0
0.001832274427803107 -0.00024139772132818739 0.0
0.0006223700746804696 -0.00044473205391259036 0.0
0.0020547736980506322 -0.00039686998323622274 0.0
0.0033273846407038538 -1.0500529362670084e-5 0.0
0.001773616916932823 -0.0007165894919198642 0.0
0.0008524997610967141 -0.0005586763095315131 0.0
0.0008922658858499609 -0.0005582515595046601 0.0
0.0027642532722119886 -0.0007007646111494303 0.0
0.001356013455806369 -0.0006277179292668897 0.0
0.002487088741474422 -0.0004593269271195402 0.0
0.002426109293696727 -0.00047963849007324913 0.0
0.0038043895033530116 -0.00021079113104727288 0.0
0.0038592430500211227 -0.00016791604419020965 0.0
0.0038770528997783167 -0.00014298617520768983 0.0
0.0011506992551077837 0.000201809520453156 0.0
0.0002499616873899358 -0.00020431440731671818 0.0
0.00020343387263616633 -0.00016362856598851249 0.0
0.00019670368923845348 -0.00014630553605841175 0.0
0.0028134459820185692 0.00018737408285227124 0.0
0.0028852875379409824 0.00019162760132421797 0.0
0.0027382047265318964 0.00017744302215145512 0.0
0.002914819007380094 -4.2881487096570366e-5 0.0
0.0036156986988321862 -0.00010756008427552083 0.0
0.0037052708642673986 -9.278854539043459e-5 0.0
0.0014558318313599233 -0.0007533871115132364 0.0
0.0028544997946456053 -0.00016252818621506426 0.0
0.0006683356501167269 0.0001310925258651622 0.0
0.0006607359709627637 0.00014425453375877385 0.0
0.0007908100359821416 0.0001749782233165374 0.0
0.0006491490696193686 0.0001545468515981583 0.0
0.0008322243689451014 0.00019679277669219282 0.0
0.0020264341765471035 -0.0007535869720404084 0.0
0.0012708545366131034 -0.0006413586627297838 0.0
0.0012302671906527036 -0.000647840202709747 0.0
0.0012354236420378314 -0.0006838185708268939 0.0
0.0011899601357948258 -0.000654167078340682 0.0
0.003286752967628895 -0.000443346787965038 0.0
0.0033229863237788163 -0.00044677954194036147 0.0
0.0033026607444596205 -0.0004886863942053405 0.0
0.0033578631826986635 -0.0004509117414802762 0.0
0.0026106720264336015 -0.00041539751087706507 0.0
0.0026748882599614762 -0.0003928981834792415 0.0
0.002258121581671786 -0.0008119205765690876 0.0
0.0023066089248162044 -0.0007893077322787863 0.0
0.001781098897976267 -0.00040080691780386885 0.0
0.001724906734419619 -0.00041059486877275726 0.0
0.0017148368848277965 -0.0008010349230587586 0.0
0.0011951945555007774 -0.0006899671076782066 0.0
0.0011506032183066842 -0.0006600725038018093 0.0
0.0036345957955268913 -0.0002814248571197847 0.0
0.0036148720922165173 -0.00031705350138332497 0.0
0.0035776303600478687 -0.00032278434489716487 0.0
0.0035629719364429235 -0.0003567801238165378 0.0
0.0018075887198300638 -0.0008151592122524758 0.0
0.0002933399017476169 -0.000244211070252233 0.0
0.00042692181623849837 -0.00021616213860413928 0.0
0.0003691572522290675 -0.0001822809905338196 0.0
0.00031519460432029187 -9.487143371195305e-5 0.0
0.0003113783595336995 -7.7415081508926e-5 0.0
0.0003877757572947604 -8.4428983403475e-5 0.0
0.0003092713396883719 -6.044883951621613e-5 0.0
0.00038868712208697207 -6.459386357702992e-5 0.0
0.00030757138612562857 -4.3663789591445414e-5 0.0
0.00039102222437953794 -4.4639569337598704e-5 0.0
0.0036524926344581143 -0.00031043524601955024 0.0
0.001182896174086712 -0.0006192839482037411 0.0
0.0030310892173553193 -0.00046489076912257073 0.0
0.0027251715600050182 -0.0006899983114373309 0.0
0.0027127731711573456 -0.0007324694053612544 0.0
0.0026744519138850367 -0.0007211366639587887 0.0
0.002026676843202826 -0.0008314219651436274 0.0
0.0028402820051681285 2.96236676710941e-5 0.0
0.0033377020717941346 -0.0004944236242721205 0.0
0.003911894723203637 -0.00012851308913779677 0.0
0.0038931014802355895 -0.00015405355958082352 0.0
0.001133941546057881 0.00021393828836990778 0.0
0.002759616423069043 7.349242329308999e-5 0.0
0.002145614316511138 -0.0005438216411786064 0.0
0.0022011880545223265 -0.000526994263971353 0.0
0.0021198165316404015 -0.0008347281771457184 0.0
0.0019820904632312955 -0.0008086869176757125 0.0
0.0008866299903169599 -0.00023006993148590535 0.0
0.003760882031331097 -6.963796405921917e-5 0.0
0.00378892931064509 -7.72941396816516e-5 0.0
0.003732460298453673 -0.00010139663891189311 0.0
0.003812770228338193 -8.404289743181759e-5 0.0
0.003158056888720429 -0.0003602748006809062 0.0
0.0023897869626721955 -0.0006550382797787151 0.0
0.0024316209782278635 -0.00044838315670017617 0.0
0.0017757481890096263 -0.000610632303030795 0.0
0.0025456858286567632 -0.0002476469952576 0.0
0.0027234499052377417 -0.0004319475753044069 0.0
0.002731223949743508 -0.0005384553787933809 0.0
0.0027900307181024293 -0.0005104760232688218 0.0
0.0027621203661935697 0.00019608360186961727 0.0
0.00284965105024464 0.00019483470281202034 0.0
0.0008981466675941956 -0.0005938557311239074 0.0
0.0009361885777926856 -0.0005922889994196028 0.0
0.000306535155184288 -2.6931559144418934e-5 0.0
0.0003904558006522431 -2.473279968633695e-5 0.0
0.00047723577594595143 -4.3246440940222234e-5 0.0
0.0004797419810918155 -1.98160556225451e-5 0.0
0.0003921722340218717 -5.387533874339379e-6 0.0
0.0004856468098588927 3.0649660183316677e-6 0.0
0.0003957221882061663 1.314713659995714e-5 0.0
0.0004944733479290448 2.551762410184124e-5 0.0
0.00039940283396605044 3.083484667920305e-5 0.0
0.00021566929790232283 -0.00018669694961217725 0.0
0.0023708515409844606 -0.00046742722876159904 0.0
0.00017061248261419101 -0.00014538074176756747 0.0
0.0008147140206394217 -0.000559460644045513 0.0
0.0038883507089612526 -0.00010805537375382266 0.0
0.0019373211660342184 -0.0005090397539758788 0.0
0.0024901671590115988 3.221400003211504e-5 0.0
0.0025053493374092126 6.832014455835755e-5 0.0
0.0005022761266918948 4.739093727129142e-5 0.0
0.0005875175223729495 -0.00044219235277758123 0.0
0.0005416982996931506 -0.00040374453657440474 0.0
0.0012409544938535451 -0.0007267775038171106 0.0
0.0027970477649437784 -0.0007129669073805198 0.0
0.0015005885096137112 -0.0007809174036350232 0.0
0.0033921720305271352 -0.0004552024676869522 0.0
0.003929394534130262 -0.00010757441995647562 0.0
0.0017237684445692372 -0.00043835059099349395 0.0
0.0016693333686560864 -0.0004199121666452327 0.0
0.0016683582884314935 -0.000448227147625995 0.0
0.0012443767080395855 0.0002168273375242877 0.0
0.0016170810345916234 -0.00042895832207820445 0.0
0.00032521805011225083 -0.00011442747255633406 0.0
0.002299487674209997 -0.0008292141376203792 0.0
0.002347789140892095 -0.000805228497842732 0.0
0.0023557819047537224 -0.0007659495136511889 0.0
0.0023962521467948534 -0.0007805791959814121 0.0
0.0028363386152366944 -0.0005152730994498185 0.0
0.0028506028937748365 -0.00048171599300161303 0.0
0.003903298393405746 -9.238733064473289e-5 0.0
0.0038599356517685685 -0.00010516580987208162 0.0
0.0026189670757914606 9.751639455466392e-5 0.0
0.002523602575519494 0.00010767091959777968 0.0
0.0007693794970828752 -0.000523895676109752 0.0
0.0011560672176051064 -0.0006960976253793896 0.0
0.0011123236273342387 -0.0006658032247869452 0.0
0.0020230072003360393 -0.00028691130396750236 0.0
0.0032837921690376374 -0.0005334238374456332 0.0
0.00040440153953972765 4.7736949645847194e-5 0.0
0.0011057379714242714 -0.0006296817812995067 0.0
0.0023871117548581247 -0.000820687852410807 0.0
0.002434783848264211 -0.0007946769915999754 0.0
0.0023751212358454244 -0.00043767047084803924 0.0
0.0023154134792752862 -0.0004548274884525075 0.0
0.0023192701950126697 -0.000425989927674916 0.0
0.0021380602243377023 -0.00024526979429577 0.0
0.00031954213196836026 -0.00017065409541240317 0.0
0.00018286315819029435 -0.00016759939048373597 0.0
0.002405701951267791 -0.0007418619435725197 0.0
0.002463478703193207 -0.00036940731278369064 0.0
0.0019813747565979815 -0.0008481952163816195 0.0
0.0008010817500908341 -0.00014077136393458243 0.0
0.001418199027949761 -0.00028344748159292834 0.0
0.0006322743500378654 -0.00048160111076002237 0.0
0.003412655991627877 -0.00041383884517052735 0.0
0.0008644667092165278 -0.0003931449240131358 0.0
0.0008086978398444527 -0.00036090159393432523 0.0
0.0008616138503354919 -0.00036308693113964373 0.0
0.0008036751057300331 -0.0003312277954736106 0.0
0.0008580753864620098 -0.00033341903706491337 0.0
0.0007502951805785433 -0.0003283720560099688 0.0
0.0026626439943018263 -0.000763987913428876 0.0
0.002627751569250962 -0.0007514696505002815 0.0
0.0005334915232504478 0.00011170589353228262 0.0
0.0020267393222732142 -0.0008708249231718669 0.0
0.0019765443055965825 -0.0006590666052099259 0.0
0.001925494891846806 -0.0006738368154912167 0.0
0.0009427030362372617 -0.0006285740255732422 0.0
0.0002514595385531594 -8.448272345560469e-5 0.0
0.00026628595919413677 -0.00010545136747957158 0.0
0.003649702345880014 -0.00018297961484425998 0.0
0.003715487165854103 -0.00015163934267022912 0.0
0.0005675241703433341 -3.889305989560642e-5 0.0
0.0009801364695665197 -0.0006255984457020496 0.0
0.0009761394708186952 -0.0005922313462686087 0.0
0.0009865878769899073 -0.000662424664295549 0.0
0.0009060418115380911 -0.0006308981729440869 0.0
0.000662606996653398 0.0001723027420345554 0.0
0.0015351614106165789 -0.000663682376368891 0.0
0.002365662106150149 -0.0004992069058973002 0.0
0.003660972056241282 -0.0001615092729735805 0.0
0.0022521488710858977 -0.0008524825616178915 0.0
0.0014586021204305764 -0.0007911144813156586 0.0
0.003943484185418496 -0.0001142363457662293 0.0
0.003924255285171369 -0.0001404218829118618 0.0
0.0012681311126197126 0.00020497966039896538 0.0
0.0011190161582561432 -0.0007029110815606859 0.0
0.0026162361695639172 -0.0003834103988439973 0.0
0.0026859263040877658 -0.0003614512843039621 0.0
0.0004198851530259216 -0.00019257168612766287 0.0
0.0005537942747676773 -0.00043882333276382655 0.0
0.000509438576139016 -0.00040034860751786037 0.0
0.0004964584483875092 -0.00036658454868092165 0.0
0.000778377327649603 -0.0005601594212231681 0.0
0.00013916014133261764 -0.00012557816259965758 0.0
0.00012957504933751093 -0.00010894417946026801 0.0
0.0024245832296185235 -0.0008359459593374533 0.0
0.002471420072278491 -0.0008086932695880474 0.0
0.002480960320748955 -0.0007664594869231547 0.0
0.003343626901385672 -0.00040804256180989115 0.0
0.003305866805102134 -0.00040650006421836897 0.0
0.0033173347443851754 -0.0005411010195638461 0.0
0.0007445026546306139 -0.0002995196922643684 0.0
0.0006923815322132305 -0.00029701161913224766 0.0
0.0027430219111543724 -0.0003695428635958878 0.0
0.003865159893866885 -6.204188343676116e-5 0.0
0.0038861178603038747 -6.672650696157661e-5 0.0
0.003911207496641481 -8.076601938077562e-5 0.0
0.0038642192118000136 -0.0001942990043757677 0.0
0.00022742361812872218 -0.00021209824842876815 0.0
0.0025389603514985033 -7.029137365526699e-5 0.0
0.002458425470491478 -6.402008674871246e-5 0.0
0.00244618263897698 -8.881001806527752e-5 0.0
0.002369812112588289 -8.356866328778942e-5 0.0
0.002362567808090109 -0.00010722737669622064 0.0
0.0023749665230317083 -6.046811086507677e-5 0.0
0.0021491959929359435 -0.0005121046443313795 0.0
0.0017259891262546663 -0.00038385552709924164 0.0
0.0017827827995094885 -0.00037444848827486503 0.0
0.0005215324773247287 -0.000435146455006549 0.0
0.00047777905250094403 -0.00039547941115112303 0.0
0.00350409664817499 7.117160245748065e-5 0.0
0.0036250737545418265 5.762776851403248e-5 0.0
0.003672559782079311 3.624409685737078e-5 0.0
0.00374442632995167 4.261561157842904e-5 0.0
0.003714206045441146 6.04600830629119e-5 0.0
0.0019388900344182742 -0.0008257868347435314 0.0
0.0019388805209865378 -0.000788498270192428 0.0
0.0019373415462868196 -0.0008645262979631404 0.0
0.0024028246550346424 3.7922233950286377e-5 0.0
0.0023905879740377597 7.640486059449452e-6 0.0
0.0005681381843715963 -6.499161760834682e-5 0.0
0.00029841671878740695 2.966671313148559e-5 0.0
0.002614130029538568 -0.0007952210052881826 0.0
0.0006699337346897999 0.00011577295676207576 0.0
0.00265069544629542 -0.0004888859924539349 0.0
0.0024486188831087173 -0.00011270728490743727 0.0
0.002355804747234511 -0.00013033150557249665 0.0
0.0024264347572930107 -0.00013822034232405692 0.0
0.0023487182738762815 -0.00015302775277834126 0.0
0.002415444036551537 -0.0001613559916136762 0.0
0.0023421007144490942 -0.00017584188796431743 0.0
0.0024068175212775176 -0.0001844754683344229 0.0
0.0023359946822826454 -0.00019897531153605216 0.0
0.0024016957654558594 -0.00020784785780924282 0.0
0.0022779187234314427 -0.00014453734027236958 0.0
0.002271074602620438 -0.0001898025166628123 0.0
0.002699724758047569 -0.0007768369341735926 0.0
0.003954331547345755 -7.371733037997995e-5 0.0
0.0014005002937420746 -0.0006205034191247376 0.0
0.0013514943702370018 -0.0005948644553568175 0.0
0.003748016653727643 -0.0002563879035407363 0.0
0.0016205215007596668 -0.00040510894872442855 0.0
0.0022900697941887044 -0.00010002878150756392 0.0
0.0008251442087243332 0.00021577125422852226 0.0
0.00023662405366215087 -5.397445031018005e-5 0.0
0.0013618707781729049 0.000217716884011054 0.0
0.0013753852946688369 0.00020440837582620398 0.0
0.003063557353335885 8.639692452716296e-5 0.0
0.0037825525224584908 -0.0002469290032799113 0.0
0.003728594754359715 -0.00029435778766711716 0.0
0.0016145930332472672 -0.00045745843571981304 0.0
0.001568392970893651 -0.0004336908013455073 0.0
0.0006681847295802872 -0.0004542717756639841 0.0
0.00015145790607129872 -0.0001466839773089117 0.0
0.00018881355794606657 -7.100701916808137e-5 0.0
0.00019497617469184313 -8.484119774681652e-5 0.0
0.00010878184882181274 -0.00010399639405325326 0.0
0.0028018069940313225 -0.0004775507716981956 0.0
0.0028637207776900505 -0.0004495744076054602 0.0
0.0029134105425688756 -0.00045300348940088863 0.0
0.002925946141481079 -0.0004207327790708286 0.0
0.0022667767885174144 -0.0002117529675239705 0.0
0.0009824726791173401 0.00023151216012839786 0.0
0.0012471466953955963 0.00022519855872393641 0.0
0.002260110541038737 -0.00044189885556605597 0.0
0.0022645251962153264 -0.0004132873537445534 0.0
0.001728367946505301 -0.0003590315735575819 0.0
0.001476292776065518 -0.0003558802785766629 0.0
0.0015034129198564696 -0.0008191602384965121 0.0
0.0030624013608798037 -0.0005855932686677293 0.0
0.0030979856898205814 -0.0005940858556824791 0.0
0.0030463453675034237 -0.0006297625151349195 0.0
0.0030808912193704407 -0.0006404438307694662 0.0
0.003030950853583015 -0.0006763043518441667 0.0
0.0029961889735937134 -0.0006653617834808033 0.0
0.0029079440406295 -0.0006523128174790993 0.0
0.002634769733424376 -0.0007096011433161977 0.0
0.002776257248437248 0.0001523091122853169 0.0
0.0021305013449449527 -0.0006826930676456338 0.0
0.0005871638489985435 1.4894809853619512e-5 0.0
0.0039017669891778504 -0.00017381392863228203 0.0
0.003952551510376077 -0.00012643187323631074 0.0
0.003131910049680681 -0.0006036896667738106 0.0
0.003115443066691716 -0.0006507018590327131 0.0
0.003164594517821658 -0.0006140642039363934 0.0
0.001544007349304888 -0.0008085911703328339 0.0
0.0018771605908469882 -0.0006532601948633255 0.0
0.001876685354482905 -0.0006873604904402235 0.0
0.0019236251096629627 -0.000709161961593182 0.0
0.0012669936903104669 -0.0005049597991062507 0.0
0.0018285487046712167 -0.0006659584928628481 0.0
0.0023642900423757962 -0.0007286028638481144 0.0
0.0033653083628155376 -0.00037155561877332 0.0
0.0034461713714836104 -0.000416411195522577 0.0
0.0034250849032229436 -0.0004600740503085453 0.0
0.0034743956799285457 -0.00037210565764753557 0.0
0.0004765810432112252 -8.924307075951175e-5 0.0
0.0013682537929716877 -0.0007347264468948911 0.0
0.0013275470029542973 -0.0007431992392089443 0.0
0.00137214489361874 -0.000772283045489165 0.0
0.0013332741509785332 -0.0007812841400274758 0.0
0.0029755004590875747 -0.0004228863176536855 0.0
0.0008238783947547369 -0.0005966519838614391 0.0
0.0007357148617509342 -0.0005247499992518097 0.0
0.0038333069998791676 -9.099317068506667e-5 0.0
0.00022706883824772904 -2.6563122405205637e-5 0.0
0.0002264005424443697 -1.3972978787600951e-5 0.0
0.0025775630226624337 -0.0007765686860572735 0.0
0.0025708863995539976 -0.0008242633017355451 0.0
0.0020928108499604276 -0.0005279979110955423 0.0
0.003791120540632347 2.4194324162959556e-5 0.0
0.0007440326626195249 -0.000560641112167602 0.0
0.0030810476896118094 0.00018518489713068224 0.0
0.0035927086035984048 -0.00028917191554520265 0.0
0.0036147323660018784 0.00012013000790838483 0.0
0.0036544768547686754 0.0001051169978991762 0.0
0.002876158334475311 -0.0004181154217171788 0.0
0.003092241232403501 -0.00043362649083051523 0.0
0.0031357575219247828 -0.00043436595243464426 0.0
0.0027487902998886214 0.00018825103100771087 0.0
0.002830403121684144 0.00018483050021081304 0.0
0.0029349174060857384 0.0001919681536321594 0.0
0.0023771666085922764 -0.0008627209099024755 0.0
0.0011595745383827295 -0.0007326568341844167 0.0
0.0017778113595615609 -0.0004852958240795053 0.0
0.002552285140882563 -0.0004068618649759281 0.0
0.0022515080418662376 -0.0005406561398067746 0.0
0.0022921046810656636 -0.0008707837985980135 0.0
0.001022355165144765 -0.0006583508301732896 0.0
0.0013076689996966468 -0.0006005871529602566 0.0
0.0005318966854545122 -0.00020931033796110505 0.0
0.0038426664925249763 2.8183800946849074e-5 0.0
0.002972845312471749 -0.000496385988103286 0.0
0.0003599831534583322 -0.00016075910327147027 0.0
0.0009777174974252357 0.0002564233424915995 0.0
0.0022795591187842177 -0.0006971288190445338 0.0
0.002981132988822341 -0.0007124936731525872 0.0
0.0029445645510289887 -0.0007010591750932655 0.0
0.002626989361369879 -0.0005564935581562193 0.0
0.0027503761746525985 -0.0003394026479410916 0.0
0.0012018818311636168 -0.00041292629473612394 0.0
0.0018755469469246672 -0.0007283886128783983 0.0
0.002525266440107433 -0.00035248414179022585 0.0
0.0013027294355138263 -0.0005680889194718689 0.0
0.001258234450177617 -0.0005728670776400698 0.0
0.0010287073407749972 -0.0006958025333903276 0.0
0.0006572111379144009 -6.153812750248208e-5 0.0
0.0006608323323320021 -3.3781347860079704e-5 0.0
0.00030367836701292015 4.23401438497671e-5 0.0
0.0004162313112441912 6.468647245557805e-5 0.0
0.003265503333867725 -0.0005800704458277658 0.0
0.00047741877542612735 -0.00022562152152712583 0.0
0.000698731092689881 -0.0003258819739273554 0.0
0.0006409581855795672 -0.0002933723474843658 0.0
0.003435586560798448 -0.0003743579363199059 0.0
0.0017245739335054867 -0.0006561177603772032 0.0
0.0022043098346674686 -0.0004943825396525058 0.0
0.002654665115239987 0.0001574102965740688 0.0
0.0026315254047923507 0.0001827030208936233 0.0
0.002552827038706463 0.00016724513791792957 0.0
0.0025295010017207936 0.00018528939854131239 0.0
0.0026008963581083144 0.00019186896862619083 0.0
0.0029348729109845598 -7.950844215643303e-6 0.0
0.00301892763567356 -2.0308443862508556e-5 0.0
0.0030449005651877626 1.358609463780624e-5 0.0
0.003122015413447479 -1.2591897580599398e-7 0.0
0.0030974114787022076 -3.3925157508278526e-5 0.0
0.00018090485692871295 -5.758890670691992e-5 0.0
0.0029900147726031313 -0.0003920396000742505 0.0
0.0004851043573270096 0.00012386832626579133 0.0
0.0005076893340332115 0.0001431816965520318 0.0
0.002460710480846202 -0.0008513070418933679 0.0
0.00014650685579049852 -1.269099773612645e-5 0.0
0.0032684814637160184 -0.00023951167136081284 0.0
0.0033436593490239665 -0.00020938246210773276 0.0
0.003287280108488916 -0.00020690090857600768 0.0
0.0034067237744553995 -0.00020664607556631273 0.0
0.0034207121577463817 -0.00017944475381066012 0.0
0.0034849642759535843 -0.0001769994876802543 0.0
0.000917259136601013 -0.00036406339459459016 0.0
0.0009162132253085792 -0.00033509285625511683 0.0
0.0008539825809977658 -0.0003041527829371763 0.0
0.0009141420733219442 -0.0003065777949364034 0.0
0.0009768120112273427 -0.0003363821633678052 0.0
0.0009754977019461506 -0.0003077872173215764 0.0
0.0010374559108451524 -0.000336395591806947 0.0
0.0011257551622485262 -0.0007388179494918013 0.0
0.0010365647097980127 -0.00030713131613828356 0.0
0.001098405289305294 -0.00033559897490367536 0.0
0.0003030147571624973 3.2194659579154117e-6 0.0
0.0006554013656026897 -8.919342329138463e-5 0.0
0.001096742000360393 -0.0003638237078787017 0.0
0.0008568013546609878 -0.00027853429689982454 0.0
0.003325291820932783 -0.0003721463879416155 0.0
0.0032673416659746474 -0.00040609704118777195 0.0
0.0018963624830292468 -0.0008429601433578191 0.0
0.0018944836742887034 -0.0008806010726351058 0.0
0.002455907958418418 0.000169960398674401 0.0
0.0012935566526154783 0.00018576712819412913 0.0
0.0013939844912959705 0.00018162230540589216 0.0
0.001471223237476533 0.00019981856070646972 0.0
0.0014895558058473284 0.00017177582056720618 0.0
0.0014131440862010956 0.00015061666322934908 0.0
0.001507490652084119 0.00013295637302647938 0.0
0.0014323085457333502 0.00011430298987172215 0.0
0.0015274744546523954 9.128069907141852e-5 0.0
0.0014508153818706526 7.759212185671694e-5 0.0
0.0015612438982519732 5.132251431123595e-5 0.0
0.0014671778985425807 4.303798715777195e-5 0.0
0.0015603543571259763 1.8422755579125004e-5 0.0
0.001478444852469427 1.1617817866994794e-5 0.0
0.001568935878299557 -1.1494795572716428e-5 0.0
0.001493580925607426 -1.8724540527801408e-5 0.0
0.0015796454090607473 -3.992278755376132e-5 0.0
0.0015044489985154125 -4.631065493959965e-5 0.0
0.0015853897066189651 -6.568627823266932e-5 0.0
0.0015134480775151969 -7.185263784069552e-5 0.0
0.0015912287975516234 -8.984525503204423e-5 0.0
0.0015207396192129295 -9.637507148267001e-5 0.0
0.0015956526215903447 -0.0001135840233516137 0.0
0.001525125915130028 -0.00012017599275953744 0.0
0.0015990423148814943 -0.0001362164357639281 0.0
0.0015291258829392103 -0.00014424721469095893 0.0
0.0014548873753066785 -0.00012633743946867084 0.0
0.0014594939640844176 -0.00015146880087540252 0.0
0.0016075748350608192 -0.00016133824719731494 0.0
0.0014350893110580806 -5.2441017072394945e-5 0.0
0.0016675105609292116 -0.0001275989445836807 0.0
0.0016683006799697205 -8.43371929935952e-5 0.0
0.0013607240381261591 9.772776263335444e-5 0.0
0.0016547320385805653 -3.266743295543958e-5 0.0
0.0013839820483574244 -0.00013249128412753846 0.0
0.0013900306835942248 -0.00015810112537264305 0.0
0.0014640983322601717 -0.00017696981148847 0.0
0.001395817910675337 -0.0001839442933541616 0.0
0.0014041871573971282 3.856299702398265e-6 0.0
0.0016509127550519106 2.0379850582477586e-5 0.0
0.0013790230316628072 -0.00010677881671472001 0.0
0.0016064423258990552 0.00010712214785881477 0.0
0.001468800532922811 -0.00020246178427636656 0.0
0.0014009523597160707 -0.00020989715248322083 0.0
0.0013281173218901113 -0.00019048941848981738 0.0
0.0013057319693088958 -0.00011298979665033789 0.0
0.001297370704780409 -8.513656549368387e-5 0.0
0.001537039615399846 -0.00019440280761440971 0.0
0.001539434859243347 -0.00021944224559987546 0.0
0.0016058422621820741 -0.0002111842913187551 0.0
0.0015685519366284558 0.0001884308560963036 0.0
0.0015564238996606992 0.00020681484077921016 0.0
0.001335784835978133 -0.0002172955682790905 0.0
0.0012614407421949502 -0.00019702002720715058 0.0
0.0012553641768273689 -0.0001708383714304486 0.0
0.0011848203268865615 -0.00017604729296200432 0.0
0.0022465210050696977 -0.0008939027250540639 0.0
0.0022067833983133154 -0.0008746533103101805 0.0
0.003761971454056509 -0.0002854890147142984 0.0
0.002414702934054261 -0.000704544809638382 0.0
0.002456378623629368 -0.0007173601141136094 0.0
0.0013903600224810136 -0.0005866063324542602 0.0
0.0014398087554415378 -0.0006112351833892832 0.0
0.0033507652478753183 0.00010819620858135818 0.0
0.002436008512509228 -0.00041794036998867663 0.0
0.0014075224043031526 -0.0002354817657162128 0.0
0.0010629606331496253 -0.0006335814113384255 0.0
0.0010605334464907899 -0.0005992820595298287 0.0
0.0010995965501947207 -0.0005953134103344437 0.0
0.002691321191589171 -0.00033167916491262574 0.0
0.0024851412061582165 -0.00014821302668007334 0.0
0.001668795296079606 -0.00047742124391157226 0.0
0.00161620193152229 -0.00048725774648325157 0.0
0.0023030607130124264 1.3025066814612231e-5 0.0
0.002296782833504342 -1.2311549345207401e-5 0.0
0.002371190992277511 -1.7882584846238803e-5 0.0
0.002283792958011169 -3.86587665828984e-5 0.0
0.0023146863772866948 4.010044923439222e-5 0.0
0.0024709591989630977 -0.00019367655174170343 0.0
0.0024669908278652205 -0.00021697383487472816 0.0
0.0023910243260308966 -0.00023119163415730528 0.0
0.0017852275496657306 -0.00034965293157636227 0.0
0.0018401799928219158 -0.00036466534613776577 0.0
0.0018432848600848765 -0.00034083635849475587 0.0
0.0018973393883735046 -0.0003544572557947038 0.0
0.001900387431207032 -0.0003311224999916335 0.0
0.0019543122536570764 -0.00034402272105008616 0.0
0.0019576593068239066 -0.0003212693758947741 0.0
0.0020138001004471055 -0.00033326449670286097 0.0
0.002009022988795352 -0.0003571741649711182 0.0
0.0020696802560839214 -0.00034245065302686083 0.0
0.0023262886722284336 -0.0003990780408436403 0.0
0.0022686877631002207 -0.00038648332879056115 0.0
0.0022093046906941573 -0.0004007770795668479 0.0
0.002212661921765483 -0.0003747009798784328 0.0
0.00041287238063930507 -0.00017021925133921397 0.0
0.0004912360637246496 -0.0004308435651963674 0.0
0.00044829804393079685 -0.0003900065485530259 0.0
0.0004353972903256931 -0.00035497512418207667 0.0
0.00040467874640304566 -0.0003477691668673738 0.0
0.002095895821396157 -0.0004970456364635865 0.0
0.0028087306912144613 -0.00034513915563103026 0.0
0.0027957941701652555 -0.0003770847975715555 0.0
0.0010166532303781536 0.00020753598029772232 0.0
0.002205390302757214 -0.00020272171863877606 0.0
0.002207239334555583 -0.00018328678973826467 0.0
0.0022946170348286813 0.0001639166193255015 0.0
0.003899064296499424 -0.000118334196290275 0.0
0.003947816359880859 -8.87101138365015e-5 0.0
0.003981550629788998 -7.39660306913003e-5 0.0
0.00013412916775516138 -5.617150741591749e-5 0.0
0.000137117575879135 -6.600423873732091e-5 0.0
0.00019556875394263545 -9.668590774489748e-5 0.0
0.00014424459153973025 -7.803109461280029e-5 0.0
0.00019896201066669372 -0.00011027939970287661 0.0
0.00014912789258833239 -8.978406264598945e-5 0.0
9.093950428211306e-5 -5.421296171734708e-5 0.0
0.0020398607229173108 -0.0005120191597593909 0.0
0.000977211021510868 -0.00028028292361203513 0.0
0.0005671798189855409 -0.00047495065177430637 0.0
0.0016057233677936173 -0.00023421915018065014 0.0
0.003718186405235274 -0.0003276195966610064 0.0
0.003682508401147015 -0.0003424183779411522 0.0
0.0031533595275805254 -0.0004015118243301055 0.0
0.003210684135007135 -0.00039565552236525556 0.0
0.0032219432714237495 -0.0003627712591566046 0.0
0.00019520627715624664 2.3280864714216908e-5 0.0
0.0014638246451376745 -0.0008296148384291293 0.0
0.000994464888684251 -0.0007008306450547495 0.0
0.00012154599631522042 -0.00012444716772345253 0.0
0.00016726294741710034 -0.00017559075806128209 0.0
0.0007947099681003785 -0.00027590116500432645 0.0
0.0025101281775542117 0.00018523221066902462 0.0
0.002591137627706353 0.00018542506998428128 0.0
0.0030428469528122623 -0.00043405176321423456 0.0
0.0031760608584296356 -0.0004360793521224809 0.0
0.0013772194627293425 -0.0008094702277703129 0.0
0.0015452464225030038 -0.0008454363951597265 0.0
0.0015861587630815498 -0.0008357040947689319 0.0
0.0034775853978321588 -0.0004204898345270222 0.0
0.0034564364352616017 -0.0004653922437100707 0.0
0.003403057726888202 -0.0005127968447298386 0.0
0.0037290636865924217 -0.0001319354503782328 0.0
0.0036739055642162543 -0.000140734195282889 0.0
0.003604304954540245 -0.00016921382816507336 0.0
0.0036120073609416663 -0.00014833622886341633 0.0
0.0006767231302539452 -0.0002704235420607315 0.0
0.003496346409781065 -0.00015185272901464426 0.0
0.0034214816866767915 -0.00015360887151789492 0.0
0.0024675543036188825 -0.000682139391291573 0.0
0.0004151101226525142 -0.0003790665040387285 0.0
0.0003768874390257412 -0.0003432356710969831 0.0
0.0003631888127442977 -0.0003108014940449377 0.0
0.0003361745780460108 -0.0003039868944005152 0.0
0.003992362347918977 -6.23867792014099e-5 0.0
0.00390673302182072 -6.902703768348302e-5 0.0
0.003955527873772827 -4.811372401648653e-5 0.0
0.003296710898423782 -0.000587018844100758 0.0
0.001670479982845809 -0.0003666445529655394 0.0
0.003506526117020213 -0.00042582985171661723 0.0
0.003488001111192134 -0.0004687892608235762 0.0
0.003534550024977089 -0.0004304363541498211 0.0
0.0035203596653780086 -0.00047477716452873093 0.0
0.0035678056635068817 -0.0004292045424599398 0.0
0.0035825470150222865 -0.0003901981959246851 0.0
0.003610883151628571 -0.0003920384924671865 0.0
0.0019394637265289123 -0.0009020269432126642 0.0
0.0018991327204370867 -0.0009215058416544417 0.0
0.0018465842671719379 -0.0008957863109274725 0.0
0.001344032840981762 -0.00024466661353053583 0.0
0.00010509923645205515 -6.93497940286543e-5 0.0
0.0001534223703722541 -0.00010213435144016516 0.0
0.00011008804590623928 -7.936450034708338e-5 0.0
0.0013441893037913436 -0.0008253903823562024 0.0
0.0012983768081836257 -0.0007915160937316345 0.0
0.0038568726873291367 -0.0002197714483308406 0.0
0.0003160870398514021 5.602422597688453e-5 0.0
0.0021553911733772873 -0.00039125726269851826 0.0
0.00216088475234291 -0.0003643026969301553 0.0
0.0037140791920391757 1.680740920478956e-5 0.0
0.0038294671042961594 8.670816190789801e-6 0.0
0.0034919932156191134 -0.0003383078873207233 0.0
0.0007049954290957373 -0.00052430668141187 0.0
0.000718156547187262 -0.0005640508383893799 0.0
0.002967866218872977 -0.00045379845803152254 0.0
0.002987972828146904 0.00017054692914519453 0.0
0.003930652442541455 -0.00015827174108402374 0.0
0.0039800341979836385 -0.0001102654749964117 0.0
0.003998622507759857 -8.550931443952968e-5 0.0
0.002905989917156906 0.000181255932832042 0.0
0.0033858972316226665 -0.000339005318402984 0.0
0.0018545422253393833 -0.0007925088839541006 0.0
0.0034696022787420104 -0.00020348131830039368 0.0
0.0032758309736219578 -0.00037862036138315574 0.0
0.0012568463965413365 -0.0005387513890854024 0.0
0.0007244870533048277 -0.0004891359879929387 0.0
0.0037891948185234748 -0.00011815864633193023 0.0
0.0031528189945116258 0.00018336683337110186 0.0
0.001298579801419467 -0.0008274473375315316 0.0
0.0006005367492953033 -0.00024357689687040665 0.0
0.002192811796948145 -0.00022626691154735358 0.0
0.003231926098251443 -0.000577829841208765 0.0
0.0032197812601999333 -0.0006202159454434462 0.0
8.156193486677174e-5 -8.305466010458102e-5 0.0
0.002504288176889415 -0.0008282385866168566 0.0
0.002487855426691507 -0.0008658850348125563 0.0
0.0015848544400458376 -0.0008784384887254561 0.0
0.0016280487720769102 -0.0008636600277008513 0.0
0.0016265437812272726 -0.0008248808639424235 0.0
0.0016691576838323136 -0.0008510238901887119 0.0
0.0016284901222894386 -0.0008962238362814947 0.0
0.0013742228524935643 -8.099264854188759e-5 0.0
0.0012918356656970817 -5.938698692689149e-5 0.0
0.0005641593501390387 -8.98865789661715e-5 0.0
0.0011073924775946633 0.00025313756077890824 0.0
0.0011143341794584924 0.00023395364968442628 0.0
0.0024756035018781127 0.00013732590691256888 0.0
0.0031445848995561377 -0.0006616588472301735 0.0
0.003099867786146434 -0.0006970055153877318 0.0
0.00034578201798871836 -0.000335803669307503 0.0
0.0003065034975020526 -0.000293605286974854 0.0
0.0039746090439544916 -4.809168491571926e-5 0.0
0.0006574827140444274 -0.00032371749412274874 0.0
0.0005926149269339151 -0.0002945799916647209 0.0
0.0036969311064900786 0.00014776584324846902 0.0
0.003810233599883837 -0.00024042949714891113 0.0
0.003789008687722953 -0.0002815902256153694 0.0
0.0022599156597110453 -0.00023446295790318083 0.0
0.00260277513748434 -0.0008389969594837093 0.0
0.0025495601084606205 -0.0008757325692341955 0.0
0.0011529081925004184 -0.00036068930143472633 0.0
0.0011583657497301436 -0.0003325849877966813 0.0
0.0016698643718619287 -0.0008130661665076942 0.0
0.0035140986010615037 -0.0003718137388307516 0.0
0.002016748389469686 -0.0003102555088589748 0.0
0.001965297614781458 -0.0002984219146037658 0.0
0.00010007565924476947 -0.00010841912202472112 0.0
0.0010446585600107875 0.000389051328715076 0.0
0.0018440935979876698 -0.00031647089552188024 0.0
0.001226107263962533 -9.268419212860924e-5 0.0
0.0012375210125571685 -0.0001196612046284728 0.0
0.0007465985546183398 -8.550770134123802e-5 0.0
0.002541554159746653 -0.00020062767561161002 0.0
0.001668999048656045 -0.00022631978183194063 0.0
0.0016708606905840293 -0.00020416255278179053 0.0
0.0017323905903856916 -0.00021902056954708874 0.0
0.0017329587341451522 -0.00019823716229345424 0.0
0.0017918763156385916 -0.00021039490485854994 0.0
0.0017933506086112245 -0.00019097642053975806 0.0
0.0017329650593171794 -0.00017830050237944154 0.0
0.0017939544478279925 -0.00017133285349192002 0.0
0.0017336561545067066 -0.00015909813422335147 0.0
0.001795585811442139 -0.00015247059336849123 0.0
0.0018485198540506948 -0.00020263681505122978 0.0
0.00015767565457084295 -5.09305028395827e-6 0.0
0.0024573697776556257 -0.00024385141352941447 0.0
0.0016827380059891116 -0.0003425461175053864 0.0
0.0015851533058710602 0.00015143329245248015 0.0
0.0017012076862143286 0.00011626158906884156 0.0
0.0017087569586235626 7.564824342832965e-5 0.0
0.0016686737813636872 0.0001667525278681396 0.0
0.0016310607402729872 6.77216190436619e-5 0.0
0.0017299070369979196 4.37303961091016e-5 0.0
0.0018217133879336958 4.4864053951831544e-5 0.0
0.0017681153918014964 0.0001416964995276131 0.0
0.00025135066851543513 -0.00012902652459884008 0.0
0.00025808357926418354 -0.00014664856557963693 0.0
0.0039702250627460835 2.0649520114411384e-5 0.0
0.003843923289690038 4.6285477880141805e-5 0.0
0.00383649975731525 5.6236586639135884e-5 0.0
0.0030208120446732433 -0.0007270672995865314 0.0
0.0029658401665757783 -0.0007611788129013512 0.0
0.0010543866447965163 -0.0005656712981348254 0.0
0.0010948836325810106 -0.000560930470998648 0.0
0.0010133027457629143 -0.0005683531870113329 0.0
0.0011562331735606457 -0.00010400987858172568 0.0
0.001792194421504428 7.909836341161389e-5 0.0
0.0018581789175339048 -0.00016385440042372153 0.0
0.001855561289989035 -0.00014478366902695517 0.0
0.0017960723225113188 -0.00013380334739246998 0.0
0.0018545573444073552 -0.0001275434484537978 0.0
0.0017994148103985354 -0.00011614169455235404 0.0
0.0010848866271128395 -0.0007104308029027847 0.0
0.00395981444595406 3.360724024150667e-5 0.0
0.0016626224688950084 0.00019709520377445144 0.0
0.0023760972789032705 0.00013824376446207846 0.0
0.002384300131865908 0.00010129541179103358 0.0
0.0022865548240575953 9.327304510612e-5 0.0
0.0011802256199999427 0.00018579437052484613 0.0
0.0014360534680492862 0.0002076466564393752 0.0
0.0013578764153292025 0.00021998722017087027 0.0
0.001303764840206021 0.00022740334773778252 0.0
0.002661699336501555 0.00013978135563436582 0.0
0.0033492382007173313 -0.0005488118401641336 0.0
0.003327202354434686 -0.0005991215666487833 0.0
0.0010329692895585717 -0.0007324747921932952 0.0
0.001711968318026606 -0.0008391376815431174 0.0
0.0017125597556791057 -0.0008762143593772784 0.0
0.0017529506721198837 -0.0008642882912622613 0.0
0.0017589571777890216 -0.0009059721660339557 0.0
0.0028908840936699865 0.00014191484041717504 0.0
0.002807042446984229 0.0001227497775549489 0.0
0.0029166706867281736 0.00011581314404628052 0.0
0.0030045189509676777 0.0001308347331425516 0.0
0.002221033621202373 -0.000350267870554807 0.0
0.002174944048416821 -0.0003383193052356537 0.0
0.0017961510886753634 -0.0008874528605744496 0.0
0.0012023721756642051 -0.00020590378155236589 0.0
6.550356413408442e-5 -6.261570621785142e-5 0.0
0.0016491888978609006 -4.226424134737543e-6 0.0
0.0017316529923518005 -2.599256420537582e-5 0.0
0.0017371163765357474 -5.0021875857379774e-5 0.0
0.0018128798385115942 -4.377907738642179e-5 0.0
0.0018125581372954137 -6.367916532410675e-5 0.0
0.0018083955494765766 -2.3002236437799204e-5 0.0
0.001749360534175011 -7.034071282111092e-5 0.0
0.001813981753244737 -8.218036208756432e-5 0.0
0.001883956365573295 -3.767180111243814e-5 0.0
0.002699649388829284 0.00012812380137175482 0.0
0.0017567318590073473 -9.00067631143325e-5 0.0
0.004016690068207999 -3.198160733850527e-6 0.0
0.0015401415046742322 -0.00024387067904895637 0.0
0.0019221030313162826 -0.0007456218451002423 0.0
0.0019736300009496636 -0.0007308375252746685 0.0
0.0017319483001677976 -2.155118183792629e-6 0.0
0.0018150043478517574 -1.7222401195488286e-6 0.0
0.0023370261034676913 -0.0003734252450097929 0.0
0.0029555970204425356 -0.0006560765259262711 0.0
0.002904981729166068 -0.0006941652276279402 0.0
0.002894870704857928 -0.0007379479719162611 0.0
0.0028582348082705628 -0.0007309846747841609 0.0
0.0028509626303595157 -0.0007714111597930289 0.0
0.002811816142793137 -0.0007671894587786396 0.0
0.0033688356494949324 -3.766985956995543e-5 0.0
0.0032984336292814767 -6.856037904060857e-5 0.0
0.003331984636214419 -9.275228668154727e-5 0.0
0.0032294095775063313 -0.00010097439076408155 0.0
0.003259961529629719 -0.0001250172358964088 0.0
0.003158492127691088 -0.00013465089597017183 0.0
0.003190967130906495 -0.00015856331384103247 0.0
0.003125915632748072 -0.00010979383689520159 0.0
0.003057789502779141 -0.0001434991672914584 0.0
0.0032868163638601696 -0.00014808386665671826 0.0
0.0030237143614435555 -0.00011914639134147737 0.0
0.003217438951259713 -0.0001815740387182802 0.0
0.003127300705582218 -0.00019192650239530784 0.0
0.0031497890388919605 -0.00021506619083288943 0.0
0.0030930421596192005 -8.622982997560103e-5 0.0
0.003260651740747881 -4.275400269783901e-5 0.0
0.0033117445214740863 -0.0001717251981960695 0.0
0.003440800947577731 -8.865338586904247e-5 0.0
0.00337445412820373 -0.00013879510295121303 0.0
0.0022141801143339196 -7.369759380773145e-6 0.0
0.0014161110480500328 0.00021752274189693215 0.0
0.00021133913756284515 -0.0001304494145854929 0.0
0.00019559592771242501 -0.00019284841748945365 0.0
0.00023685542767721266 -0.0002365351749916309 0.0
0.0017943043566575711 -0.0008510977237684041 0.0
0.0024006035420670044 -0.00038812658689184315 0.0
0.0022945529339510828 -7.856465725784963e-5 0.0
0.0022168578467023827 -9.302038355546582e-5 0.0
0.002230097720217785 -7.367156387537123e-5 0.0
0.0022190484278666635 -0.00011314309722026543 0.0
0.002285007744854817 -0.00012158272363082177 0.0
0.0022135263337063134 -0.00013367765693992202 0.0
0.002206563122949147 -0.00015302787829338284 0.0
0.0021516040313883365 -0.0001437498363840856 0.0
0.0002582276569555957 -0.00022758379276062446 0.0
0.002564142188695528 -9.47220878451836e-6 0.0
0.003119115700036287 5.9718753121317256e-5 0.0
0.002992395281218235 6.417598658167635e-5 0.0
0.00015820846556133968 3.5169342671287364e-5 0.0
0.0003291062355736368 7.91855913160991e-5 0.0
0.0003092919480194217 6.606888510163877e-5 0.0
0.0026145945129104112 -8.251187200232953e-5 0.0
0.000335687021019411 -0.0002665140263309957 0.0
0.00039016104014160644 -0.000313231660890516 0.0
0.000424453520307026 -0.000324125410378962 0.0
0.0004205645429714546 -0.0002969961784402666 0.0
0.00045676915117750394 -0.00029965649146936155 0.0
0.0016664285836540489 -0.00010682900744119297 0.0
0.00019349347197179307 1.4352836924959734e-5 0.0
0.0008025746313759296 -0.00022656865646359563 0.0
0.0006574006502040432 -0.00021789102508129116 0.0
0.0018099278651602813 2.1140505349059637e-5 0.0
0.0004350318146132378 0.00017426021305518233 0.0
0.0028476727146705574 -0.0006813139463181313 0.0
0.0024669488899296253 -3.5231531466509855e-5 0.0
0.003884575662905925 -0.00020658539934335923 0.0
0.0030952145000446843 -0.00016757760208630702 0.0
0.0029960375448170613 -0.00017630966121426266 0.0
0.0029303803303362924 -0.0007494968664628955 0.0
0.004024704341863107 -8.12152120754718e-6 0.0
0.003949675728843245 -2.0802055920950723e-5 0.0
0.003965449659356672 -2.716488145819426e-5 0.0
0.003936404972254575 -1.2331075351159493e-5 0.0
0.003877863859313284 -3.837200508112938e-5 0.0
0.003926073746524675 -3.093234729465188e-6 0.0
0.003836823587489685 -1.2870780224835739e-5 0.0
0.0038553938727823845 -2.650188883836878e-5 0.0
4.434704114003229e-5 -2.5370606377818596e-5 0.0
0.004053929511263581 -2.208416911252712e-5 0.0
0.004002217464638682 -4.27065118643188e-5 0.0
0.004033455910174912 -2.3553454843215615e-5 0.0
0.004006948695641503 -4.567632298470627e-5 0.0
0.0024130795261516694 7.01531175761175e-5 0.0
0.0030688290163726653 -0.0006848320814698198 0.0
3.4126459537436226e-5 -2.7148749367661404e-5 0.0
0.004064197020053245 -2.386484037553261e-5 0.0
0.0013148943102966246 0.0001599528992763065 0.0
0.0032845545499493953 1.8908337447801113e-5 0.0
0.0011171363762821288 5.767128071990319e-6 0.0
0.0012058966908499935 1.6811195778025463e-5 0.0
0.0012015805122568863 5.1724667047268815e-5 0.0
0.0012075074212651588 -1.4309713066300015e-5 0.0
0.0012840268105948568 -7.614622980455207e-6 0.0
0.0013022019789066526 2.2841515186660196e-5 0.0
0.0012921612997579645 5.945960807461893e-5 0.0
0.0012033272670386578 8.464408160799856e-5 0.0
0.0011250318504122303 0.0001131452158010125 0.0
0.0011303431827058964 -3.17435675999206e-5 0.0
0.003445029420511379 -0.0005063214334331828 0.0
0.004013816085482138 7.297536325188501e-6 0.0
0.0016730818919709397 -0.0007754067068394798 0.0
0.0005401382512201441 -0.0004783465365577719 0.0
0.0018434318168233628 -0.0007573824140379066 0.0
0.0014173102257762085 -0.0008008266237404597 0.0
0.0014195107563906206 -0.0008388707295188582 0.0
0.0019169624904537784 -0.00013736938734381857 0.0
0.002619029198134194 -0.0001415391432266109 0.0
0.0035399167442154104 0.00012017864122853053 0.0
0.003588756814102152 9.952112357026887e-5 0.0
0.0034794726379958965 0.0001043986904009022 0.0
0.00025291828237713836 -0.00011568097883417496 0.0
0.0005031691805583185 -0.0004656173990411046 0.0
0.0012571537895498107 0.00028535837899055296 0.0
0.0011280140131327229 0.00028808194525960446 0.0
0.002926638618412435 0.00014820903186044224 0.0
0.0014622410369971423 0.00021435749881046505 0.0
0.003710323449450255 -0.00026558138566127833 0.0
0.001827317154830424 -0.0006320681750920056 0.0
0.0028024344887874384 0.00013108169577713888 0.0
0.0028904671545127688 0.00016034968118420874 0.0
0.0012241230759419308 0.00013555985662014352 0.0
0.0010002843517357464 -0.000740156298527442 0.0
0.003686281259849495 -0.0003093913579118298 0.0
0.000599081549996809 -0.0004780441178343991 0.0
0.000635890121769627 -0.0005112117539008036 0.0
0.0006155503372705511 -0.0005214460303926906 0.0
0.0009580146066176705 -0.0002242134346030713 0.0
0.002264352394531536 -0.00016695258506932377 0.0
0.0025417642033841417 -0.0001072580706342092 0.0
0.0015342718377271782 -0.00016889421733371182 0.0
0.0016049005227745017 -0.0001874633993488236 0.0
0.003930398387082019 5.023696804710753e-5 0.0
0.0037348173233434116 0.00010490635992763208 0.0
0.00017321616331917444 5.1483797497081036e-5 0.0
4.377074566956338e-5 -2.7956521341967868e-5 0.0
0.001852397090099748 -0.0001830860809849116 0.0
6.0732604031840225e-5 -1.6125783430433064e-5 0.0
0.000147414692788861 -3.2700658878366575e-5 0.0
0.0018218172253429323 -0.0007279787603721512 0.0
0.0025878065092098963 0.00014242005469886155 0.0
0.0014951696044105366 0.00020330636315690154 0.0
0.00251738662943197 -0.0003775948025181089 0.0
0.0018647137134748522 -0.00011019237468979684 0.0
0.0032886527138857157 -0.00032485792854201233 0.0
0.003836163955549828 -0.00020109113067868318 0.0
0.0012090255840127425 -0.0005442718411230354 0.0
0.0012136169330135178 -0.0005784311670530064 0.0
0.001164090369477459 -0.0005456556282762368 0.0
0.0011129340915158215 -0.0005133267120241551 0.0
3.4873634725446495e-5 -3.025786813571254e-5 0.0
6.598430370962136e-5 -5.7950775760153014e-5 0.0
7.420247948802916e-5 -5.9399914800111366e-5 0.0
0.0010396659045621393 -0.0003648634767419217 0.0
0.0009830671968599212 -0.0003688431358584562 0.0
0.004057280161137283 -2.2936343998178425e-5 0.0
0.002202845045599691 -0.0009167083588412402 0.0
0.0021626098797538395 -0.0008960042435551144 0.0
0.0021591398992952364 -0.0009375847664034789 0.0
0.002118654427126426 -0.0009162000870303455 0.0
0.0020738812252988357 -0.0009341797308106538 0.0
0.002072392701124238 -0.0008933893255232842 0.0
0.0021648499664420726 -0.0008548215177686525 0.0
0.002807777537921268 0.00016065497116121195 0.0
0.00047596354611803744 -6.572123304944986e-5 0.0
0.0005539331876154536 -0.00011426877756790501 0.0
0.0004808775913869149 -0.00011448153682797654 0.0
0.00258335464130918 -0.0003612056837117945 0.0
0.0008098071501471501 0.00024004370130461703 0.0
0.0020597944437645245 -0.0003685934185614737 0.0
6.0535370845164516e-5 -2.5496273316973913e-5 0.0
0.0012596446011988497 -0.0007951124648740437 0.0
0.0012179566180001069 -0.0007935111993219633 0.0
0.0012263725149142383 -0.0007624805008263147 0.0
0.0014136038308638899 -0.0007629146705203485 0.0
0.0012101216622162712 -0.0005062769878816411 0.0
0.0005328410508865249 -0.00023365858074952373 0.0
0.0003085385517188164 -0.00018175185312110275 0.0
0.004036597285621874 -1.5087517055554505e-5 0.0
0.003981747515540257 -3.068063114153674e-5 0.0
0.0007878748841558167 -0.0005977734127644033 0.0
0.0009509160197249546 -0.0006651808664165905 0.0
0.0009140802443048305 -0.0006692415256977147 0.0
0.0008691004248816729 -0.0006328421635304891 0.0
0.0008752441458745651 -0.0006701490740908914 0.0
0.0024339597156589564 0.00015306822711079276 0.0
0.0016283905311237972 0.00019599884861898762 0.0
0.0026510883159724455 -0.0008085844872812386 0.0
0.002686597583857194 -0.0008230346206531765 0.0
0.002732408983130108 -0.0007922851585059883 0.0
0.002634020641206317 -0.0008599903481776624 0.0
0.0013082085344154968 -0.0005397087330642862 0.0
0.002332700335706966 -0.000676548687146325 0.0
0.001491017586587059 0.00021201569721675817 0.0
0.0016601921831210242 -6.082865170036849e-5 0.0
0.004065599200749629 -2.5294416551818092e-5 0.0
0.00403319016697882 -5.036762200678768e-5 0.0
0.004019377536921563 -5.480604691259907e-5 0.0
0.0008320584609936032 -0.000634355492672095 0.0
0.0007966324008665789 -0.0006338973965718897 0.0
0.001203739724472562 -6.0724229095595654e-5 0.0
0.0010674470052012713 -0.0005201646613598445 0.0
0.003810147376222359 -0.00016385978370791218 0.0
0.0031010370038849103 0.0001940256550301406 0.0
0.0018420939412694352 -0.0002221358385334945 0.0
0.0018976749528983024 -0.00021265981361200679 0.0
0.0024394541734676736 0.0001810743440506768 0.0
0.0030236306747315187 -0.0005786609925889479 0.0
0.0017763156989754135 -0.0006442824543793495 0.0
0.0017783684765485047 -0.0006793611564859968 0.0
0.0004395381500607123 8.478219494677651e-5 0.0
0.0009765794479113857 -0.0005252464412478489 0.0
0.0009306537037790815 -0.0005225099426194064 0.0
0.0008805377056662966 -0.0004886881419187321 0.0
0.0008861029107957547 -0.0005230297883858458 0.0
0.0007496165129358453 -5.6420298407061314e-5 0.0
0.0007530216166263429 -2.6832771192825267e-5 0.0
0.0008405927179701006 -0.00011380842005553943 0.0
0.0026729256569731044 -0.0008704042357247073 0.0
0.0025940215264533655 -0.0006634484599316535 0.0
0.002537169843548471 -0.000691746115261463 0.0
0.0025862910402706745 -0.000706433999883738 0.0
0.002529543411672299 -0.0007359553591550264 0.0
0.002563425611931876 -0.0007473655377400186 0.0
0.002640131465651535 -0.0006714086200378153 0.0
0.0026838247476636025 -0.0006763882364710588 0.0
2.944569177337219e-5 -3.002696508651108e-5 0.0
0.00407096256340272 -2.613427393507718e-5 0.0
0.0033733815312780523 -0.0005005909587586137 0.0
0.0024135180684349295 -0.0008773987525204155 0.0
0.0037772485837935916 8.651808174306762e-5 0.0
0.002339049250906859 -0.0008460966468320602 0.0
0.0023289840510301685 -0.0008873291702550968 0.0
0.0030797772122338 -0.000395537290341262 0.0
0.0027550547953673478 -0.0003098050343645261 0.0
0.0026983252508145494 -0.00030205597783760935 0.0
0.0012819472550935427 -0.0007146044267335245 0.0
0.0007460983927222646 -0.0004523910309677209 0.0
0.0030570851512411626 -0.00022787807375661216 0.0
0.003239306982183663 -0.0005353717263418912 0.0
0.001417397064833525 -0.0004200420477437257 0.0
0.001470225908736874 -0.00041296046187018715 0.0
0.0014682001719513692 -0.0004428839465411833 0.0
0.0014735856833307743 -0.0003841690681122778 0.0
0.0014157562590025666 -0.0004504012311237777 0.0
0.0015217444611456403 -0.0004087678739205515 0.0
0.0015283747952922473 -0.00038203315684592844 0.0
0.0015419254561488105 -0.00035275116195882786 0.0
0.0030557602717497523 0.00018792164184758083 0.0
0.00032499547809704634 8.783921684108622e-5 0.0
0.0029583325495662117 -0.0001526342921975722 0.0
0.0032238525612139145 -0.00033445621210879424 0.0
0.0005921335050839479 0.00019147321759735824 0.0
0.0005758966382514976 -1.1803113442659389e-5 0.0
0.0008410851448517994 -5.106361669401677e-5 0.0
0.0006526205119605263 -0.0004144311229690454 0.0
0.0014165550195194808 -0.00036196929796349564 0.0
0.001098723456424817 -0.0003055867009501797 0.0
0.0011751843006311993 -0.00030451750770729415 0.0
0.0012239215680054881 -0.0003341501126350494 0.0
0.001981155435586105 -0.0008873810385370221 0.0
0.002027932554503463 -0.0009104967965719107 0.0
0.0020268204041587684 -0.000955200823882233 0.0
0.002073553671880874 -0.0008532430381553674 0.0
0.00318222255078168 -0.0005683408972542815 0.0
0.0014716573547568427 -0.00022733164135916353 0.0
0.002990316303662525 -0.0003571757491069107 0.0
0.0014098825654313063 -0.0007257093634111274 0.0
0.002166950870031197 -0.000814730468963354 0.0
0.0014996569333956165 -0.000859372074760972 0.0
0.003762059188844681 -2.748711485721015e-6 0.0
0.0020057653929442445 -0.000382124233166775 0.0
0.0004729237818363912 -0.0002010587431585759 0.0
0.0015246618202239648 -0.0005939273783079678 0.0
0.001574838172434532 -0.0006189993414446561 0.0
0.0014214714185603258 -0.0005440456198305606 0.0
0.0015417667386282117 -0.000770882979562342 0.0
0.002419804633251146 -0.0005121666202104565 0.0
0.0023599114654540843 -0.0005326688376057971 0.0
0.002413331520650856 -0.0005458591172459513 0.0
0.0029238011985769133 -0.00012885941396884184 0.0
0.0018268598856695717 -0.0005983836179881901 0.0
0.0013155745873708851 -0.00049381390209071 0.0
0.002328654960429768 -0.00022147091994123878 0.0
0.0023172482079044142 -0.0002449285982587408 0.0
0.0005102602176917353 -0.0003348256022258361 0.0
0.0010789658114219935 -0.0006743452612312878 0.0
0.0027467921668522387 -0.0007453740456479301 0.0
0.0022976899099638425 -5.877072072921886e-5 0.0
0.0021337234254294765 -0.0006462597917137876 0.0
0.002080128602662095 -0.0006634764344369443 0.0
0.00207766980681934 -0.0007004420157529531 0.0
0.0020270465520278967 -0.0006796542214900481 0.0
0.002025924434545262 -0.0007168641553921691 0.0
0.0021271889419047676 -0.0007196081929988659 0.0
0.0024794950518792127 -2.17394092675252e-6 0.0
0.001670999539838763 -0.0005070175567866951 0.0
0.0016210258311667137 -0.0005166791301585605 0.0
0.0023111778881866963 -0.0004867074766458719 0.0
0.0013695665670472638 -0.0005497585386863665 0.0
0.002285078790410149 -0.000911201796625382 0.0
0.0017242617608756018 -0.0006218529660833845 0.0
0.0020296673873063083 -0.0006439618944195088 0.0
0.002884392607362073 -0.0007822799196788396 0.0
0.0018382913671220226 -0.00039045130429389536 0.0
0.0038633070758139084 -9.278169306637043e-5 0.0
0.002037407573511241 -0.0005434613098266472 0.0
0.0009143948870563266 -0.00039325121463064557 0.0
0.001763915564347057 0.00018713150196512276 0.0
0.002870269746574929 -0.0006374205902437122 0.0
0.003696497442609157 8.773165414525438e-5 0.0
0.0005993531744941028 4.1095369531986965e-5 0.0
0.0006212473175587407 6.613653121675577e-5 0.0
0.0006897483059276364 2.893978156711574e-5 0.0
0.0007287027739077324 5.9074296876841914e-5 0.0
0.0007973242991067552 3.926730438244121e-5 0.0
0.002898501552181887 -0.00018521138055310884 0.0
0.0016723907889939853 -0.0008930334751655202 0.0
0.0018946326843178709 -0.00037985371046539836 0.0
0.00011904090938611117 -3.516338623048944e-5 0.0
0.0013307704825666028 0.0002270143018116572 0.0
0.0012362092759129375 0.00024085466461096783 0.0
0.002735753239202197 0.0001011471401216959 0.0
0.0016280261890765143 -0.0007497333623832981 0.0
0.001856408397171628 -0.0008595869243920515 0.0
0.0016105485058704884 -0.00025945069083164676 0.0
0.0022569461236986305 -0.00047354067337680906 0.0
0.002197952121409166 -0.00045840944077825 0.0
0.002206884905665306 -0.0004273055024860727 0.0
0.0023119375326310274 6.635020887729855e-5 0.0
0.0015307390257889284 -0.0006284452394780403 0.0
0.0010369743440866493 -0.00027853916207270537 0.0
0.001564944724117092 -0.0004623181744401576 0.0
0.00020301479274304062 -0.00013765390495536103 0.0
0.002143296116927356 -0.00021273806973929807 0.0
0.0008605116220534814 -0.0005950555340018109 0.0
0.0021521256426784104 -0.00048083165054523506 0.0
0.0012903736687154817 -0.0007525438803800703 0.0
0.002876661407263752 -0.00031840385681844723 0.0
0.0019397946530706155 -0.00047900936077168577 0.0
0.0019752461757543446 -0.0006948466482608989 0.0
0.003603239095126783 -0.00026029043077231993 0.0
0.0007566387032151766 -0.0005976811894160788 0.0
0.0039150827894257065 -0.00019197420052045788 0.0
0.001612036302273971 -0.0003639938347057304 0.0
0.0019338681914060605 -0.0005402218644522737 0.0
0.00035020713701173535 -0.00013964150644175914 0.0
0.003597195970156089 -0.00019104347252209668 0.0
0.0022716214141258947 -0.0007346302371040741 0.0
0.00011829179263995089 -4.259338566889603e-5 0.0
0.0020752160057186738 -0.0002980721473622183 0.0
0.0020730257189361064 -0.0003187818825514942 0.0
0.0038379714639617474 -5.6659690199279403e-5 0.0
0.00224436065961447 -0.0009349614123156054 0.0
0.0007044884927201711 -0.0004507075639413713 0.0
0.003963041188455401 -9.229532490046348e-5 0.0
0.0021504677200051034 -0.00041522181914272155 0.0
0.0019946444437283347 -0.0004663535586356823 0.0
0.002500541494599395 -0.0006440471789172764 0.0
0.0024484690581278445 -0.0006315526767677614 0.0
0.002287202332403653 -0.000660203637470494 0.0
0.0018920169773055558 -0.00040658738399732436 0.0
0.0023348548845586203 -0.0009525198610305189 0.0
0.002511973506680351 -0.0009265264632384407 0.0
0.0017866649191520952 -0.0009458920616793067 0.0
0.0019252616553787206 -0.0009595117194636506 0.0
0.0027773521851666774 -0.0008531426039392561 0.0
0.00276532487564263 -0.0008109418093739853 0.0
0.0014242935346364361 -0.0008750841842270836 0.0
0.0011200862293235185 -0.0007905665123732016 0.0
0.0024225746924961193 -0.000941858113441866 0.0
0.0015188550257184841 -0.0009009519775855701 0.0
0.001709940332239217 -0.0003201880273199813 0.0
0.0035164209978231957 -0.00012449234960689207 0.0
0.0028971721881192675 -0.0004863640636880987 0.0
0.002877716221930885 -0.0005212163958473841 0.0
0.0014679233731575952 -0.00047524063530070374 0.0
0.002492849995972194 -0.0004294441211165595 0.0
0.001980068912422099 -0.0007664838633772973 0.0
0.0010181376124342358 -0.0006225969021600754 0.0
0.00076060139211051 -0.0003591174031921721 0.0
0.0017239475863478093 -0.00046686728327737794 0.0
0.0035917522684131052 2.6741651781790974e-5 0.0
0.0013832256573126575 3.5881749589611e-5 0.0
0.001951585339117707 -0.0003686667197498883 0.0
0.0023072367798823495 -0.0005207782175087217 0.0
0.00026748953164704864 -0.0002542820451648346 0.0
0.00027735045546257216 -0.00028219153904090327 0.0
0.0017237573787179364 -0.0006911797681942709 0.0
0.0014457585999557542 -0.0006469671669302035 0.0
0.002090175343635227 -0.000560170582652072 0.0
0.0038080732217973465 6.99310574875925e-5 0.0
0.0022106295040422485 -0.0008336850104960446 0.0
0.004027757949506576 -6.617528893521534e-5 0.0
0.004002811585847604 -9.757204981157612e-5 0.0
0.001124491204505879 -0.00018478789590100993 0.0
0.0017772932438535197 -0.0005151130575433364 0.0
0.0018776988587173896 -0.0006188848700654868 0.0
0.003910342021139298 1.3628024218505682e-5 0.0
0.001906482958552889 5.17558120330287e-5 0.0
0.002736574032964934 -0.0006499205873243874 0.0
0.0028205100770847254 -0.0005495081558834714 0.0
0.0010997978770289612 -0.0007506032826499766 0.0
0.002588546959697231 -0.000512870972023521 0.0
0.0017783547756039927 -0.00045620103310225015 0.0
0.00271198971609409 -0.00046451995021247385 0.0
0.0027005241954861222 -0.0004979642778330315 0.0
0.002773978264879907 -0.00043972661670366707 0.0
0.0009157406466702225 -0.00070738819847485 0.0
0.0032117035960405197 -1.2669099758094838e-5 0.0
0.002364472129440413 -0.0009089242242837883 0.0
0.0033709341568174604 -0.0005610855164434085 0.0
0.0030515878353672295 -0.00035928709595350926 0.0
0.00197261962903661 -0.00027664458063403997 0.0
0.002524645705689233 -0.0007807796377694645 0.0
0.0015788745005212432 -0.0006532738222246553 0.0
0.0016575337618035418 -0.00039016886823876136 0.0
0.003792914321706687 -4.418535949474557e-5 0.0
0.0008719541204076484 -0.0002545299097643442 0.0
0.002926963176975041 -0.00020828329015065347 0.0
0.0019443205864978891 -0.0001778125887765118 0.0
0.002548406271090707 -0.00043837200760199214 0.0
0.0036397254674314867 -0.00012140190497029179 0.0
0.00030868687823435397 -0.00014793681255490586 0.0
0.002958772816995809 -0.000529894641245853 0.0
0.0022111908409559815 -3.0505496644681123e-5 0.0
0.002191255066828113 -5.082798988959366e-5 0.0
0.002443856348601766 -0.0007552821914301005 0.0
0.0022478535327009213 -0.0005743318402731838 0.0
0.0023141386962473123 -0.000750746717255915 0.0
0.0030099360956036773 -0.000620554427799676 0.0
0.002997201011315055 -5.472931245491228e-5 0.0
0.0019250219020433364 3.0841112008890334e-5 0.0
0.002708957180003478 0.00019155022808524578 0.0
0.0035336152215814888 -0.0003310925551279732 0.0
0.00354857327345549 -0.00029914963811045284 0.0
0.0019378113138096037 -9.88199244108602e-5 0.0
0.0013125309583932245 -0.0006344254293364447 0.0
0.002647650247907673 0.00017025787348704175 0.0
0.001933726200201733 -7.464428048531067e-6 0.0
0.0025777342693299723 -0.000547016536388681 0.0
0.003971323300978405 -0.0001008407696704248 0.0
0.0006666369934488935 -0.0004832330827430136 0.0
0.0024791118393050105 -0.0002663023245760018 0.0
0.0019405604245629432 -5.233079485471343e-5 0.0
0.0019363315470165697 -8.454644644152286e-5 0.0
0.0006857280967728422 -3.1525723810850914e-6 0.0
0.0035705523813036864 0.00013606415553263273 0.0
0.0020939944605205944 -0.00018621489872004137 0.0
0.0036507152320599274 -0.0002497756704005231 0.0
0.0012638054837134827 -0.0006062022237650134 0.0
0.0031307765439822915 -0.0007111008860887754 0.0
0.003213953361155816 -0.0006793424315234643 0.0
0.0011444684024850837 -0.0006251025350695301 0.0
0.002673431035525295 -0.0005652176809003019 0.0
0.00174113380090448 -0.0009404433030511335 0.0
0.00254279748613088 -0.0001614149143775172 0.0
0.000723672450615801 -0.0006165722916151804 0.0
0.0021127191748456045 -7.677110954952731e-5 0.0
0.002200588852903227 -0.00024806980106829564 0.0
0.0021535385522809297 -0.00010501499009015673 0.0
0.002355598473837418 -0.000567718006454242 0.0
0.0028622221303477987 -0.0005554024654528558 0.0
9.562164021429585e-5 -0.00011274088923797081 0.0
0.00016520332170014796 -0.00018892492739761024 0.0
0.00019840797787439994 -0.00022315165754644025 0.0
0.0037982354751264157 -0.0003016516372460209 0.0
0.0002677206192659855 -0.00029208514863048664 0.0
0.0011734802214407372 -0.0005820013478040086 0.0
0.0005257596366294129 6.905976008495711e-5 0.0
0.003412290247385774 -0.0005753697605187068 0.0
0.0006103040304922365 -0.0005487472935516227 0.0
0.0006869017111698402 -0.0005957949887825711 0.0
0.003760133170970845 -0.00033214074899065956 0.0
0.0036842582105279698 -0.0003944707540152899 0.0
0.0021833787407755947 -0.0003152331090655615 0.0
0.0015842128908024086 -0.00079886524775878 0.0
0.0029837034329483958 -9.1820594234126e-5 0.0
0.003490867697478599 -0.0005254710506615632 0.0
0.0035301914573624645 -0.0005013960529247786 0.0
0.0005368210678880348 -0.0005049258616278376 0.0
0.00036985677005492136 -0.0003784329623978322 0.0
0.003608481280579634 -0.0004483241989003324 0.0
0.0036389165227242314 -0.00039402434566623146 0.0
0.0024493142780887107 -0.000897270666343441 0.0
0.0004405047726686584 -0.00043525722159584935 0.0
0.0029922176126866784 -0.0007798595095032192 0.0
0.0007600636808552672 -0.0004889114370749994 0.0
0.0033789863487000598 -0.00041056661086725393 0.0
0.0011690763003790968 -0.0007729343706560409 0.0
0.0031517052000561065 -0.0005578748107731429 0.0
0.003195328155850328 -7.657955474517227e-5 0.0
0.0011512560892490893 -0.00041661452212624013 0.0
0.0007710350386520495 -0.00039008427538211193 0.0
0.001492118263774695 -0.0006732172285885159 0.0
0.0019845904987838277 -0.0005584223047828638 0.0
0.0033860649557489954 -0.00023511452339600197 0.0
0.0021185616867149264 -0.0008745735483000378 0.0
0.0021484472443332983 -0.00019437268289543709 0.0
0.002124897501919667 -4.545151709031542e-5 0.0
0.0027322735282874094 -0.0004005157582957479 0.0
0.00315464495954104 -0.00047242193044136474 0.0
0.0011087089782537006 7.358077772526105e-5 0.0
0.002564386118745662 0.00014070760045272623 0.0
0.0012544025274558949 -0.00040872751612191225 0.0
0.0034227284364610616 -0.00033931138696973226 0.0
0.0007987475264547027 0.0001248672222823883 0.0
0.0006801962711629039 9.457659133932569e-5 0.0
0.0017337003475184686 -0.00012163370838264705 0.0
0.003558108779547669 -0.0001506154943708073 0.0
0.001883233569619623 0.00010633979558375828 0.0
0.002085513802057477 -0.00023763295031434836 0.0
0.0037646418546317894 -0.00014148645478914265 0.0
0.0010543950103668218 -0.0004220282352680965 0.0
0.001298378447971821 -0.00026140735246824286 0.0
0.002936708144755423 -0.00038911648158213426 0.0
0.0032491798071053106 -0.0004413489838272823 0.0
0.0009135259389513953 -0.00042475780432612887 0.0
0.0005293161444328142 -0.00037005653906355633 0.0
0.003115191988967816 -0.0004691322355083582 0.0
0.0013232449671923133 -0.00016507169578994433 0.0
0.0030836898453501264 -0.0002670008895227458 0.0
0.004036301115352271 -5.236151702206253e-5 0.0
0.0033556535798573406 -0.00011585983992897193 0.0
0.002156913979170807 2.306464176868122e-5 0.0
0.0022286759619165697 1.7650853999785526e-5 0.0
0.0025308788899644544 -0.00032592450680478917 0.0
0.003682101482327682 -2.9967960791646536e-5 0.0
0.003619345203506748 5.9918868564197446e-6 0.0
0.00016016799993846576 -0.00012669609754037013 0.0
0.00011896848952803911 -9.308087545823959e-5 0.0
0.0016275159680824343 -0.0007868756691869137 0.0
0.0026383527423885804 -0.000522575344330232 0.0
0.0014775826716146368 -0.00027696387477972085 0.0
0.0014758183182147513 -0.0002523747713580377 0.0
0.0014508369986328136 -0.00010236135054652572 0.0
0.0020768222884563104 -0.0007379233649805881 0.0
0.0024170727968402116 -0.0002852332012756851 0.0
0.000645664730667336 -0.00011460797155832467 0.0
0.0028385589433887488 -0.00021723383915683188 0.0
0.0021857023572182414 6.78981097142451e-5 0.0
0.001723726652803714 -0.0004962902427168854 0.0
7.001416928708494e-5 -8.227750410035435e-6 0.0
0.001987089118947502 -0.0005264274223048904 0.0
0.0037447886385413697 -0.00016383960502149491 0.0
0.0032002560400440187 -0.00027013134214979906 0.0
0.0030349297934932538 -0.00020013336148303512 0.0
0.0035881744359374866 -0.00021489141026116368 0.0
0.0026135280054180483 -0.00022849330177999192 0.0
0.0014245159351343735 -2.666099944033928e-5 0.0
0.0004673768152136043 -0.0001777159464490484 0.0
0.0017747690564955182 -0.000247942013555833 0.0
0.0022338823517283586 -0.00032644934686388644 0.0
0.0005826000790406003 -0.0003163823433271561 0.0
0.0018792757504473162 -0.0009561259665577066 0.0
0.002527712399582116 -0.00022606740154584924 0.0
0.0012222942002546036 -0.0006122866993540133 0.0
0.0027299674772176506 0.0001651277980609373 0.0
0.0034401885302343662 -0.0002321234504742485 0.0
0.0013143910589112292 -0.0001388263575069191 0.0
0.0030080872831001956 0.0001831247196052198 0.0
0.002307463688070859 -0.000268025165821025 0.0
0.0019899010532354842 -0.000495627845956219 0.0
0.0007251797381874926 -0.00014060902545591245 0.0
0.0013575686901640606 -0.0002875692870322465 0.0
0.0017386072234922326 0.0001781992830548872 0.0
0.0005440808788661116 9.019816964841593e-5 0.0
0.0030378177356326754 -0.00039257271652832186 0.0
0.0007986904073117036 -0.0003027299157438265 0.0
0.0020449690344274654 -0.00048241870608281876 0.0
0.0033877078087256236 8.395485822781427e-5 0.0
0.0028846883281837153 -0.00038521364645317693 0.0
0.0013446046153865398 0.0001303217565277055 0.0
0.00024441411859782447 -6.890741424774262e-5 0.0
0.001035088143350971 -0.0002499346696216368 0.0
9.249459190453549e-5 8.452224556947154e-6 0.0
0.00019314455619316357 3.949693454649537e-6 0.0
0.0028681260260727585 -0.00035546275067231426 0.0
0.002366204265061735 -3.991511736061806e-5 0.0
0.001332798262657053 -0.0008602898599388847 0.0
0.0009306179177954752 -0.0005588226550435058 0.0
0.0033550716225346673 -0.00018246144228348105 0.0
0.00045551244157082346 -0.000423071130158238 0.0
0.0027815936271508622 -0.00040876005967508224 0.0
0.00232164748057761 -0.0007136827669518722 0.0
0.003327699784239792 0.0001297346394509215 0.0
0.0011960367874095437 -0.0007271057270958908 0.0
0.003629143766544054 -0.0003512740396406854 0.0
0.0020880781278947917 -0.00022058926359228202 0.0
0.0006605027267158005 -0.0005510633491303895 0.0
0.002812889541702136 -0.0008080070388333281 0.0
0.0006740398010721511 -0.00035523994902986634 0.0
0.0038447356690921035 -0.00015327963896577486 0.0
0.0004811337746789106 -0.0002495001260448406 0.0
0.002841892532795088 -1.216805257574668e-6 0.0
0.0026173442913881304 -0.00020238320844799255 0.0
0.002126671027345043 -1.2843175023507852e-5 0.0
9.450650937231377e-5 1.2969742078480557e-5 0.0
0.0015568539048505707 0.0002085968900613997 0.0
0.001108078307105585 -0.0001542603048774864 0.0
0.0032471999557781195 -0.0006275296759400967 0.0
0.0032919515147221625 -0.0006449834572947199 0.0
0.0003079685832362197 -1.1234254513072738e-5 0.0
0.0023715591281418084 -0.0002540415357990146 0.0
0.0009715858630826182 -0.0005589982356852415 0.0
0.0016743331516696702 -0.0005370336367799682 0.0
9.928170201241153e-5 -8.871765985284828e-5 0.0
0.00022785332972396864 -3.979769845966558e-5 0.0
0.0022799051670089956 -0.00036145420656667407 0.0
0.002100113596895733 -0.00046761888515317173 0.0
0.0001486866540535393 -2.2251219372103986e-5 0.0
0.00039894495425477143 -0.00014577062753522998 0.0
0.000301516649567134 -0.0003218693703468535 0.0
0.003400052041993005 -0.00037319165840445014 0.0
0.002686136228667961 -0.00053133544715176 0.0
0.00047870114451811703 -0.00033453899050411433 0.0
0.0031513190943100893 -5.537569930714448e-5 0.0
0.0028971833556004183 -7.699656887907326e-5 0.0
0.00021250533255367303 -0.0002235312038138687 0.0
0.001684451557796503 -0.00016630477495205564 0.0
2.601653303588353e-5 -3.0892906828439835e-5 0.0
0.004072652016763169 -3.022701535751098e-5 0.0
0.003957365678719545 -6.502304712666489e-5 0.0
0.001207945709083415 -0.0008230868400902487 0.0
0.0031610116556169752 3.104675260835298e-5 0.0
0.0026921565611700646 -0.0006414820283239283 0.0
0.0005335121108905329 -0.0002579693720728209 0.0
0.0025552837824403788 -0.0009166336936791307 0.0
0.0005783564872478884 -0.00014012942728351086 0.0
0.0035452344341663864 -0.00017467511535295896 0.0
0.0016218864043547427 -0.0005460406744530072 0.0
0.00015021657190663476 -0.00011009693678354175 0.0
0.0018757631021080385 -5.868482638390672e-5 0.0
0.0018745893312240624 -7.575001946047145e-5 0.0
0.003720376525103383 7.270293806033631e-5 0.0
0.002303660010401128 -0.0005540361107352343 0.0
0.00029458436410461 1.6062675914445585e-5 0.0
0.0035941747355244815 -0.0004319108041510001 0.0
0.0037580999262704505 -0.00010890679141331661 0.0
0.0028744326249563095 6.220416605335127e-5 0.0
0.002949134706253792 3.075020628723973e-5 0.0
0.001757384969746535 -0.0008262448383998381 0.0
0.003991444468847743 -0.00012147482593125952 0.0
0.0017332441485202014 -0.00014052733475861557 0.0
0.0003645313247475091 0.00011175041301910521 0.0
0.000467247345514562 -0.0003646964978256397 0.0
0.0012054597332811733 0.0001653814696608942 0.0
0.003599053774059909 -0.00035226253980141586 0.0
0.00020790855002367716 3.355378367086739e-5 0.0
0.0021470294886011426 -0.00017695805217906473 0.0
0.0032136368462558234 -0.00023794792207794613 0.0
0.002587210903896876 -0.0003368848849487231 0.0
0.004011708977649613 -4.8210552966129585e-5 0.0
9.146112068702972e-5 -4.770897300896455e-5 0.0
0.00377237341014609 -2.761118233429782e-5 0.0
0.004024103722556799 -4.7344859337866944e-5 0.0
0.001983007269535405 -0.0009244445021067288 0.0
0.0023455369776161816 -0.00034787949251562057 0.0
0.0013280948831080025 0.00022171231563600919 0.0
0.000963758268472833 -0.00042311648846007243 0.0
0.0012767163209419698 -0.00022703777286534751 0.0
0.0016750241458389694 -0.00018494659948260875 0.0
0.0008107865315608061 0.00010377991412186399 0.0
0.0014871634778239906 -0.0006369111955704309 0.0
0.0007367544223342956 -0.00011129490446325334 0.0
0.00048022765080213094 0.00011230283960361791 0.0
0.0019070536429396314 -0.00030912516075221925 0.0
0.002917837143533456 -0.0005259842603174211 0.0
0.003457618786105596 -0.0003399703663449342 0.0
0.0013574659812115952 -3.177677616771964e-5 0.0
0.0009083716489922633 0.0001865511929366198 0.0
0.002211953924280433 9.791893019559157e-5 0.0
0.0011809135244387281 -0.0001498377090633099 0.0
0.003277609205492136 -0.0003528306064148558 0.0
0.001121468780663459 0.00022278441541818869 0.0
0.001008565375076657 0.00021863184522423324 0.0
0.0022554521087646026 -0.0005070196569074295 0.0
0.0022742044213005844 0.0001569118542547139 0.0
0.001602024853962614 -0.0009190652587794883 0.0
0.00308096496345752 -0.0007422793390814607 0.0
0.001097494881117284 -0.00039119002668798226 0.0
0.002864768965817321 -0.0008286579630405857 0.0
0.0008810528154294395 -0.00014505939824581196 0.0
0.0033357702520779805 -0.00034500251747610565 0.0
0.0015689922786496164 -0.000524445946678909 0.0
0.003537398868032812 -0.00022383714744694455 0.0
0.0009670650913720373 -0.0003949464329864704 0.0
0.0016233567678643308 0.00020305120474860348 0.0
0.0014449370567548323 -7.743225615834703e-5 0.0
0.0018312924165325402 -0.0006978390698222067 0.0
0.0019385395923962232 -0.00022757570729171195 0.0
0.0018735176108890443 -9.181016337804932e-5 0.0
0.0011230518519703121 -0.0005497189054350993 0.0
0.0011361972854067026 -0.0005883690856807568 0.0
0.0007319615422232997 -0.00027232745180308127 0.0
0.000979100651296749 0.0002963190946392022 0.0
0.001897185139407999 -0.000808059063048703 0.0
0.003570558231952065 7.878372684627018e-5 0.0
0.003211616209693179 -0.0004391185100409122 0.0
0.0022362759687884837 4.0844454404074146e-5 0.0
0.0010489999381490976 -0.0003941315788830699 0.0
0.002814181588197511 -0.0003128854568419661 0.0
0.002375069577833211 -0.0006916425070573668 0.0
0.0015663498989450337 -0.0004926533719139664 0.0
0.0038041418921090186 -0.00013330082366965927 0.0
0.003989096552080795 -8.057570015933171e-5 0.0
0.0014138015467282264 -0.00025987158514771897 0.0
0.0027165555219173998 -0.0008387719339019063 0.0
0.003680379046638176 -0.0003717441902009492 0.0
0.00018222741026238052 -4.8485196778163684e-5 0.0
0.0009733946344722431 -0.00025315114856180594 0.0
0.0011501856258000023 -0.0003886736593254373 0.0
0.003747269406150205 -0.0003207154889554209 0.0
0.0014804591940599469 -0.0006001706833812908 0.0
0.002563966914447442 0.00016468660085494717 0.0
0.00038531322806496023 -0.00037051322277295454 0.0
0.0023715985619240216 -0.00041374443270159327 0.0
0.0034442328189964126 -0.00030805865829400497 0.0
0.002744222691617549 -0.0005055244341268961 0.0
0.00386877377469784 -0.00012773910960464264 0.0
0.002776444729043706 -0.0007612497291474349 0.0
7.157572893196483e-5 -3.983386128654775e-6 0.0
0.0018143381761799057 -0.00029746669883928936 0.0
6.866790842746595e-5 -5.001390436845735e-5 0.0
0.001275093654112854 0.00011262835178449392 0.0
0.0008547279670847038 -2.544210460209977e-5 0.0
5.895515105646805e-5 -6.457448500566757e-5 0.0
0.0010396809482288844 -0.0007659807461106541 0.0
0.0009612270271653706 -0.0007004509279229639 0.0
0.0017378519854859443 -0.000104875238542552 0.0
0.0017380083308338526 1.879947430344019e-5 0.0
0.0006990406981102293 -0.0005747801566896771 0.0
0.001247417718448149 -0.0001452197079676473 0.0
0.0024172670024840202 -0.00026538462166190584 0.0
0.0007146605315811749 -0.0003566569704976492 0.0
0.00268392481764618 0.0001904961175287954 0.0
0.002432911364488682 -0.0006681384970228159 0.0
0.0005238919273189676 -0.0001418771996581293 0.0
0.0002980061525552615 -0.0002667743208860924 0.0
0.002094240727219384 -0.00015330002026252623 0.0
0.00013757121394158948 -0.00014983918755215485 0.0
0.003912114271939173 -4.3808697685427224e-5 0.0
0.0013738833674691714 6.754289840489831e-5 0.0
0.001918745781122498 -0.0002845340548232249 0.0
0.003550777147869828 -0.0003908992011488686 0.0
0.0038698005282200945 -0.00023923678680008587 0.0
0.0032271114000188583 -0.0002056058192702981 0.0
0.001891447898916455 -0.0007705596249921162 0.0
0.002463751828530889 -0.000391691040752098 0.0
0.003472725330867404 -0.0005098653088825223 0.0
0.002067980517757639 -0.0009691412982883289 0.0
0.0033983629093324672 -0.0003122459351023874 0.0
0.0027564782542619038 -0.00047281599284888396 0.0
0.0014294793324542113 -0.0005747559604118812 0.0
0.0024266728487957055 0.00017147946421181568 0.0
0.0015101094053870624 -0.00046638340174329316 0.0
0.0012616085148363177 -0.0007629933118337938 0.0
0.001886561549802382 -0.0002336172971432936 0.0
0.003180024781661112 -0.0006602325830639613 0.0
0.00072498453467168 -0.0002463628097742734 0.0
0.0005828010198348848 -0.0005096302858441312 0.0
0.002946650923203472 8.912351368948625e-5 0.0
0.0009186080133680015 -0.000281403275525379 0.0
0.0023560893022528985 0.00016581890391141493 0.0
0.0012283599719805595 0.0004372772606368798 0.0
0.00302948403113623 0.0002402714968609036 0.0
0.003529231190697981 -0.00020153526850424802 0.0
0.001952875419776513 -3.849191939110993e-5 0.0
0.0031523838774755717 -0.00023902910095562762 0.0
0.0024911912337877364 -0.0007265517959964093 0.0
0.0026362691402232793 -0.000901108440710604 0.0
0.0012041884456921407 -0.0003838779681270861 0.0
0.0012077030855095125 0.0002306246350815359 0.0
0.0007958478618651173 -0.0002507178662309143 0.0
0.0008801030731215879 -0.0007004426156487966 0.0
0.001781789390340716 -0.0003291217420528726 0.0
9.308179736131476e-5 -4.32736227102942e-5 0.0
0.0006747062642636693 -0.0005267892946048652 0.0
0.0019470370170333014 -0.00012632601397594197 0.0
0.00023179697739580387 -0.00016441911587181517 0.0
0.0002362653018397363 -4.386980583149445e-6 0.0
0.0021435066633782624 -0.0004558210967026483 0.0
0.002148232660525788 -0.00016088490102770498 0.0
0.003822521568636301 -0.0002607439467129021 0.0
0.0016738815397224001 -0.00014790642906455217 0.0
0.002937413654798498 -0.0004914074240273286 0.0
0.0021663142385963934 -8.31254774961838e-5 0.0
0.0005546919629796022 0.00010527590096855062 0.0
0.0007309238837177859 8.184302873619968e-5 0.0
0.003926996780433958 -9.369890431093439e-5 0.0
0.002496248521446233 0.00016781739944599007 0.0
0.0005882436744641139 -0.00026470784508039844 0.0
0.0024736407838100187 -0.00017094384699625943 0.0
0.0018670651930819365 -1.7113499305787227e-5 0.0
0.002129545318822746 -0.00022846817629221494 0.0
0.0006783240587380862 0.00019245498743174824 0.0
0.002156289753705702 -0.0009726216440725297 0.0
0.003728488067964619 -6.0565898582686016e-5 0.0
0.0021079380101022703 -0.00038023223119067906 0.0
0.0020921466335231563 -0.00010684367054885396 0.0
0.0026629604354050382 -0.00028762253274214317 0.0
0.0018073704151488708 -9.942080400930139e-5 0.0
0.0021176500005775016 -0.00035270225179577177 0.0
0.0010191855051445281 -0.0005964812996855718 0.0
0.002816359680185788 -0.00044689160397163945 0.0
0.001671889697766329 -0.00026281685678707664 0.0
0.002090860445391154 -0.00013821515877967863 0.0
0.0033269481992159746 -0.0006304381191651509 0.0
0.0017849352915852211 -0.00022786471317593802 0.0
0.002494869459894729 -0.00012656447299345082 0.0
0.002176296429066846 -6.775810124162958e-5 0.0
0.000312677674278008 -0.00031544936407624434 0.0
0.003228532841005771 -0.0004108274500489751 0.0
0.002161511483672582 -0.0001242635351272377 0.0
0.0011933519390220904 -0.0007606915910834475 0.0
0.002354504741223904 0.00017091092049050958 0.0
0.0029528367465695288 -0.0008018062558943244 0.0
0.003936797572346761 7.63383572919492e-5 0.0
0.00017592142968552452 9.16854608894347e-5 0.0
0.0017374876963669244 -0.00034011375526330243 0.0
0.002318464289340657 -0.0009235163364879166 0.0
0.001455603406566313 -0.0008572353642827199 0.0
0.0016567754354114136 -0.0009299161148464786 0.0
0.000306894407823097 -0.0001333509909504059 0.0
0.0029906553738798178 -0.0004679738582973551 0.0
0.00121028806164415 -0.00035555888894169707 0.0
0.001724000097290541 -0.0002361276326879957 0.0
0.0013635228594797261 -5.598304341073001e-5 0.0
0.0017163736947296533 -0.0009097237705590713 0.0
0.0029464334785216833 0.0001922266378106768 0.0
0.0037655860714654434 8.463730746103223e-5 0.0
0.0024921471144058864 -0.0006967662766207503 0.0
0.002101189481548012 -0.0004102721672565614 0.0
0.001344352246150345 -0.0005677360176546493 0.0
0.00224558894872316 -0.0009703084113460072 0.0
0.003117079865333083 -0.0003994362966523543 0.0
0.00026814265429749706 -0.00016391008247050985 0.0
0.003675331410526762 -0.00012567005368490294 0.0
0.0018106505246702753 -0.0009198493949432838 0.0
0.0018556507048447409 -0.0008259333744860568 0.0
0.0028257307502127377 -0.0007253091734822777 0.0
0.004043736168132033 -5.62568142625493e-5 0.0
0.0015421121145675666 -0.0008779160534648057 0.0
0.0012853003924940126 -3.458351311462509e-5 0.0
0.0013638159070985352 -0.0002669920026022806 0.0
0.0026463160997698284 -0.0003194985480469176 0.0
0.0039345495244057825 -4.765442910223055e-5 0.0
0.00032510663080953175 -0.0002781803986218899 0.0
0.0021247616679867676 -0.00032875069336299467 0.0
0.003649284383002993 -0.0003563863367945257 0.0
0.003919039759780844 4.981098923774061e-6 0.0
0.0011513760748003826 -0.0002156679659749268 0.0
0.0018536091455958559 -0.0009285874187563664 0.0
0.003817454376780925 -0.0001167105689682775 0.0
0.0006998012776607319 -0.0004948001104571434 0.0
0.003991002112029542 -3.302681006992608e-5 0.0
0.0012949035137872881 -0.0008561273984354737 0.0
0.002828446404202257 -0.00041436196735554595 0.0
0.000771375392906872 1.2991765468809017e-5 0.0
0.0025577898583904212 -0.00013078090335409445 0.0
0.003957349614415455 -0.00014080303769598604 0.0
0.0031747968459584514 -0.00037214862192272273 0.0
0.0011358004391075404 -0.0007717742456735748 0.0
0.0008026200292556095 -0.0006643340298620659 0.0
0.0010187484269877293 -0.0005432483573752254 0.0
0.003405977096595075 -0.0005505648402231416 0.0
0.0030943044099880274 -0.00024180107881788 0.0
0.0006393470152785222 -0.00027365616612010796 0.0
0.001643647656332466 -0.0003253557392605767 0.0
0.002641940864031541 -0.00035195727890328135 0.0
0.0015871116817425398 -0.00038328791322187177 0.0
0.003847608760557281 3.6303181792386484e-5 0.0
0.0028224972190217224 -0.00019287757120471378 0.0
0.0016634235487965965 -0.0002442797861247874 0.0
0.0006568253195833043 -0.00024166394972187277 0.0
0.0030210549281327243 -0.0004196859575821058 0.0
0.0025271354695025512 -0.0008515087341594461 0.0
0.003557948041971432 -0.0004616410398044774 0.0
0.0013872646333609774 -0.0008424128377639887 0.0
0.0026145024277117526 0.0001281436356723064 0.0
0.0015138671929270638 -0.0004354349203162515 0.0
0.0024039061809692595 -0.0009146754992873168 0.0
0.003519713694849454 -0.00039347242347119926 0.0
0.003066213638378979 -6.434760858319837e-5 0.0
0.003848223625904839 -1.660302678942021e-6 0.0
0.0009121448156215601 0.00019845041700133112 0.0
0.003742507040764049 -1.692069514219207e-5 0.0
0.0013261058143653134 -0.0005206870161434242 0.0
0.003459680349119503 8.989119737297149e-5 0.0
0.002420670622036883 -2.4117679176938254e-5 0.0
0.002841979292113948 -0.00013690819066423176 0.0
0.001245161139857141 -0.0003183129839002286 0.0
0.002887858622111204 -0.00023192412699021676 0.0
0.0019437536042163478 -0.000933430142679452 0.0
0.0010618599363510146 -0.0007236352295423365 0.0
0.002196343891363245 -0.00016836936868403084 0.0
0.003054622761894425 4.039473228836946e-5 0.0
0.0018228097363907482 -0.0008701323281067372 0.0
6.50210770507074e-5 -4.321701400923819e-5 0.0
0.003955726459418448 -6.0026752852474586e-5 0.0
0.0034458264980355494 -0.00012890896806194048 0.0
0.0016621189602196182 4.007333423470464e-5 0.0
0.004008506148227844 -7.103299156986976e-5 0.0
0.001107436421182943 0.00016703051491056436 0.0
0.001869205626428849 4.023648397079165e-6 0.0
0.004070917892063669 -3.495996868866969e-5 0.0
2.728655931011992e-5 -3.45110415064491e-5 0.0
9.651784274904432e-5 -8.02398948945753e-5 0.0
0.0011756890378022927 -0.00012743544474040758 0.0
0.0025028241728560618 -0.00040329477007030186 0.0
0.0028421816275663956 9.965016175251544e-5 0.0
0.003184650541448493 -0.000625408574157594 0.0
0.003968947727827664 -7.161035589870675e-5 0.0
0.00029830680224801555 -0.0001878303222847931 0.0
0.0008535040939317705 2.2213113983783443e-5 0.0
0.002544429411081641 -0.000809529949692984 0.0
0.0035661530504749084 -0.00013109753180993056 0.0
0.0010518377096955557 -0.0005411746565893568 0.0
0.00023094669483802573 4.4731794397612134e-5 0.0
0.0025320651679313663 -0.00018111982124581157 0.0
0.0012226751771241826 -4.0316853336695236e-5 0.0
0.003012144610686185 0.0001879122731898355 0.0
0.0019020518995361765 -0.0001225113134663568 0.0
0.0015737475552464175 -0.0004068436331403989 0.0
0.003620449733664634 8.307841282996514e-5 0.0
0.0037115615494733665 -0.0003545861050284453 0.0
0.0030647100198963016 -0.0007200283060172735 0.0
0.0009255700057552096 -0.00025855892569313606 0.0
0.0037779019128116927 -0.00011249797458670415 0.0
0.0006257963698365453 -0.00032722912322826056 0.0
0.003811093781836057 -5.228872164226466e-5 0.0
0.0034377260447925884 -0.0005381936918410584 0.0
0.0024479427097678003 0.00010022238497593701 0.0
0.002848727431563835 -0.0008063075997376416 0.0
0.002967083231952704 0.00017738490528463116 0.0
0.0018843569208950744 -0.00019337106307501718 0.0
0.0010517069696212768 -0.0006858650360436736 0.0
0.0014334256536732543 0.00021489384384907524 0.0
9.643467072380274e-5 -5.732072101829413e-7 0.0
0.003919664029270419 -7.107372217790282e-5 0.0
0.00041589835600995003 -0.0003998637337023769 0.0
0.00301340157829714 0.0001078608222442272 0.0
0.000731028591357657 -0.000597156025281693 0.0
0.002832028800219956 -0.00038810119389503774 0.0
0.000837271339428555 6.0860332554846396e-5 0.0
0.0003519013153490162 -0.000202119292514079 0.0
0.0005085224770494255 -0.0004912042903088738 0.0
0.00045901319552722384 -0.00033947438158348165 0.0
0.0012040898382072605 0.0002645312918262451 0.0
0.0031984101034014134 9.57679434054384e-6 0.0
4.986259121576611e-5 -5.130775087529074e-5 0.0
0.0034192290104386 -0.00011435662980258125 0.0
0.003086011164001435 0.0002112388388530358 0.0
0.0025640929663749016 -0.0003841850476340547 0.0
0.0019053080891776306 -0.0001516765951685118 0.0
0.0010777206577584214 -9.306269047144514e-5 0.0
0.0019523748651584794 -0.00021052288444543387 0.0
0.0026021943719629678 -0.0007383632436234783 0.0
0.0012581472256205058 -0.00035557005752698495 0.0
0.0009347224395312896 -0.000699151739406361 0.0
0.0035068164604119406 -0.00031106637368466506 0.0
0.002668299526226433 0.00019327196938669802 0.0
0.00041882515875299805 9.185139865542791e-5 0.0
0.0012022038428066532 0.00011069740880634063 0.0
0.0027519328556089464 -0.0002905632671484503 0.0
0.002588362123690378 -0.0008790752573592657 0.0
0.001638905245618488 -0.0003482134775506262 0.0
0.003282735164028474 -0.0006238496298898572 0.0
0.0002455465597482116 -0.00025850309765604166 0.0
0.0028702733762525395 -0.0006952595573479825 0.0
0.001354174745217751 -7.827983392736735e-6 0.0
0.0038518120677375803 -0.00023898485632886643 0.0
0.0013002546779080765 8.500648839172143e-5 0.0
0.0025151650659637073 -9.203009227175217e-5 0.0
0.0021600400015288 -0.0004369845654241867 0.0
0.00187388318155537 2.3263227002720614e-5 0.0
0.0022366637213896996 -5.879890398784441e-5 0.0
0.002496588923125965 -0.0008941533685268775 0.0
0.0032121936302598074 -0.0006504378447888517 0.0
0.001013260140866742 -0.00039995758257509547 0.0
0.002293005656577593 0.00012550471606759551 0.0
0.0022377074805203837 6.135785088413094e-5 0.0
0.003199783198955472 -0.0005831634296496046 0.0
0.001892263451537253 -0.000176567739218463 0.0
0.0018091633597038534 0.00010003008743989283 0.0
0.0010451834762174395 -0.0006506323629587184 0.0
0.0038269860587035742 -0.00024022615977374885 0.0
0.0026990947287114935 -0.0008839106696788702 0.0
0.0018272157169936275 -0.0008443137590237226 0.0
0.003952142930249759 1.8190577278923635e-5 0.0
0.0018018321475153152 -0.0007476261850791184 0.0
0.0030102254565642994 0.00017936558486508547 0.0
0.001084436529363932 -0.00019577644235347125 0.0
0.002671938033721867 7.728486186139776e-5 0.0
0.0007861896076436239 -9.597018878093233e-6 0.0
0.0017097486035550062 -7.757051850726278e-5 0.0
0.0011254749496241708 0.00034911127041182746 0.0
0.004022741569727179 -4.5276701170309915e-5 0.0
0.0025092646282942376 -0.0006715648678330019 0.0
SCALARS damage float 1
LOOKUP_TABLE damage
0.3214496677748517
0.09107835616281924
0.37811918361426305
0.11973759093590657
0.9659075348480793
0.9742902922816968
0.021649462864524578
0.48833017687975916
0.48069480008552234
0.4837044521212941
0.505960456568516
0.5252452089979622
0.552464510653797
0.5791464843648685
0.5966139241108441
0.6117087637339101
0.609033873547198
0.6044637830232864
0.5917624748323863
0.57201623909387
0.552609152618982
0.5395468603650978
0.5175425932070065
0.49288049494391295
0.47628534608658396
0.4532552343569161
0.42302512862121655
0.3956323889624515
0.3581069550069929
0.3203858343589269
0.2745226041172325
0.22236914874866023
0.0766855635424516
0.14494132158116815
0.16097265635523172
0.18523029422113407
0.20216183921713785
0.21510353373526017
0.2298356874986812
0.24071135158921356
0.2519958858519466
0.2633117143826423
0.2723408612402655
0.2828110716746681
0.2935223407663664
0.3009415281792024
0.30877971811310584
0.3180305166259084
0.3285227015613981
0.34073360790811724
0.3480373926527702
0.357716095330047
0.36714909180668287
0.3801721508982723
0.3851090372381358
0.40060825501853187
0.40744534290450557
0.4216732787129974
0.4311387697445485
0.4478656165834599
0.452587859016134
0.4707685002133359
0.4822698228637985
0.4982344131401768
0.5094076059961167
0.5261109230791154
0.5354081487285107
0.5492049936055351
0.5664855211807273
0.5861845662652608
0.6079906431373008
0.6251045108802493
0.643565012904201
0.6707302995373327
0.6881159298361358
0.7109351361150249
0.7374560596506351
0.7540026098275158
0.7822814404489422
0.8022962657905632
0.8243087331106671
0.8498095919875828
0.8697374881630999
0.8781153208993043
0.9055408013375215
0.9152956172357112
0.9398850840257492
0.9390964566969326
0.9451391269604069
0.9365211327866687
0.9223061676682371
0.9004738236556887
0.8789790469001579
0.8546702321852602
0.8347983778726115
0.8083635838510664
0.7949997955936736
0.7735405438649823
0.747747146260337
0.7305154746524837
0.7119019045817707
0.7016093918911356
0.6788004834496876
0.6726837133339267
0.6572244752915128
0.6439121914931638
0.6336589852631784
0.6141376153740257
0.6076316577715069
0.5957180163286447
0.583547701435306
0.5678681619743771
0.5676853907220691
0.5471931675567071
0.5406339054540652
0.5257260582217056
0.5155442729059407
0.5057939094992222
0.4901994707132835
0.4791497485645211
0.470028379867273
0.4560981580955808
0.4392643091321457
0.42190202817044287
0.40932317890161773
0.39228449038222435
0.3769150090607041
0.33875793230241336
0.3078294286832653
0.29202055580008013
0.18384176476254066
0.2412134201680033
0.3094209324708924
0.38516627894014044
0.42899004895313947
0.4540434103642931
0.473346163835341
0.4872996291275283
0.4970002029307814
0.5043901948222494
0.5148646512718857
0.5219717174404154
0.5287526508607078
0.5353037602861878
0.541388093303897
0.5433830001958437
0.5408868420731543
0.534399706697746
0.528654704100351
0.5104412795910108
0.5028425827231826
0.4918745584131886
0.4828615538743045
0.4908771770533684
0.5039479736832526
0.5826475297380443
0.4463680454548869
0.8093504745867245
0.9962872811462542
0.992423941092221
0.9824661297135695
0.9262841661404455
0.7915113055396815
0.6936707955736753
0.5837447816529798
0.4933123344129082
0.4029976507452943
0.34285575287007936
0.27099750774445214
0.20282520580860072
0.1365976312636151
0.10584706211208686
0.013168389483853347
0.05255730923791059
0.09913004176657012
0.15980096294273843
0.23290533222391274
0.32742023865938136
0.43626205001048246
0.5732265835948492
0.7229016333787519
0.8892034221029005
1.0098548931138787
0.9995498004419683
1.0035339482917776
0.9457745862616382
0.8225846394581254
0.558655919988514
0.46355219282551235
0.7091757704778764
0.5639899642742829
0.8288417788550994
0.6965395349110585
0.9373892972997276
0.8295589476568953
0.6275491737331138
0.39617931038745285
0.5716511325612041
0.3460929786801565
0.5704749858394376
0.5370948322731909
0.3630326472179941
0.3886497247963799
0.03518157328875089
0.1956175384665988
0.5112448403499935
0.3007804330078279
0.5076506425257618
0.5144241987695823
0.5181482849936163
0.5914134457133963
0.46078644209359265
0.2571000416757576
0.6301602714382077
0.43319620301647016
0.44680672597275345
0.4822085405507194
0.6311126284752464
0.7654070359665224
0.8944964014698096
0.8817407956544254
0.7767646975434066
0.6630485936338834
0.5218932549816196
0.42761250024620046
0.40968914445169297
0.22119638778505782
0.4826715465814026
0.5562047093777575
0.43278696980469356
0.3465526407481839
0.786122691961596
0.70174508398788
0.4809287818480175
0.4919121139513468
0.5442866294721592
0.5326732932084767
0.31048951651042106
0.0967723011910301
0.17394496127644335
0.3428124428835281
0.7336383019340716
0.9187303304234103
0.5944550866753037
0.4894144061883669
0.9279744750473441
0.6019524909429842
0.37584421863489614
0.5463023924172101
0.32543580742818423
0.27886168310981746
0.48415475059329083
0.7405900827621628
0.7417213133914179
0.35502837151972
0.26453300931449614
0.9702538133240194
0.9479062928971485
0.4377844451446402
0.5276283966434372
0.13466996139399265
0.27991511262546276
0.9382480528573359
0.7071772475228704
0.5544058654875971
0.5698238418113087
0.6669902039635263
0.5461540492921371
0.5026716580461196
0.48376331303445624
0.4625537707537939
0.4471763973436878
0.45756965594437726
0.4359538531803758
0.44465652176491627
0.4311627700316867
0.4403949924015835
0.4404255438771389
0.26287359248129205
0.10073724098824012
0.2287688843707777
0.12836396929881427
0.22060739289405415
0.1637841676866836
0.22639260300793396
0.19065885181824227
0.23573718327673454
0.20932389515759547
0.24122680053707815
0.22717014196097962
0.2553333268382536
0.24087290386379673
0.2640159970911718
0.25444189605026546
0.27299662995874424
0.2636822621133205
0.28002871319462347
0.27378326313810675
0.28756470799168343
0.28392456773457286
0.29477456138133185
0.2926081925486415
0.3041037247853096
0.3032703420384993
0.3127856928961258
0.311096161008133
0.3204015147245052
0.31793484032760344
0.32805404858428494
0.3288031949603289
0.33726317193570104
0.33835793287372395
0.3457603149489263
0.3471212253708507
0.3545587807167673
0.35694806826221176
0.18164115507934905
0.3640463336910698
0.2616496988849491
0.32446798985372477
0.3666375523245742
0.3740826476869738
0.3770248487130125
0.3696993485131562
0.3802633691589802
0.3845658716160202
0.3818201741096111
0.3363514067743438
0.39276138228603336
0.3898416493562712
0.40042842063549405
0.37292447820605334
0.38387341694945454
0.3975563965407596
0.3767927545847818
0.3878066166748181
0.40971671329511145
0.40724859486909637
0.3817574268159592
0.3926876892232864
0.4197506113520303
0.4177281904656849
0.38624514616460526
0.39686521895651317
0.43080663188995877
0.4289904124058966
0.38963140538221425
0.40125943149571514
0.4425009556880957
0.4407746381564058
0.3934285093852809
0.40686408146266967
0.3983638060421374
0.38640875043284456
0.4444709592496602
0.4547614219706686
0.4525450561457337
0.4381147398174604
0.2999078880277783
0.45090974641881604
0.4360525497928483
0.4491255336816695
0.41184761494658384
0.404034746503238
0.4175220408641436
0.4675714848126263
0.41491104915059585
0.4066591246736557
0.2819438498120488
0.41703669716407155
0.4090979516393792
0.41885675536605715
0.41079120041561185
0.40156462422805134
0.40271407723085756
0.3960998212977607
0.4201974770091045
0.3999229991303616
0.3918189013446674
0.4295048893604293
0.42963365533970654
0.3951165631744208
0.38920326813121164
0.43675914749873695
0.4494676785420499
0.4391321767469998
0.43778084585009625
0.43831182789559764
0.452290030265252
0.46461641365538686
0.4660752110204884
0.48293969325337066
0.4816169858113317
0.49908808728796816
0.4957275834844364
0.51471265383091
0.481516205288959
0.5092662283961502
0.5306477271150035
0.4483951210292464
0.3931474778359221
0.38819489311754424
0.5365984947961904
0.5534010313631801
0.5449739141572695
0.5644395704837704
0.4465913253218631
0.5689175367061133
0.5577555393419715
0.457792187920305
0.4562167021288258
0.4453878215024111
0.5823528136344747
0.5698712776966749
0.4688029040586524
0.4712847760061253
0.4537216354539895
0.4424208494170686
0.5915929763439118
0.5796009426095827
0.5542890190903517
0.6054491325446864
0.5617827631688157
0.5411281149886232
0.3925461332515503
0.3897244710032861
0.38279359218658393
0.38958353631382037
0.37882639585906835
0.387201727298923
0.37495549499483777
0.4828831176910212
0.4852910488448987
0.4495998902377133
0.438734068791041
0.5853493441954367
0.3887744976823955
0.3753141652837306
0.4974202303262895
0.5000724138297843
0.40224076553566057
0.5680196578678979
0.29656637148433296
0.6867500390927527
0.2948404525467908
0.4419655151645649
0.3913521758377711
0.3769420122217591
0.44655269669410785
0.43610467227133154
0.512512870133724
0.5164166376155369
0.5912173866115727
0.39663772150497345
0.39747900882439796
0.40155021749758507
0.570442429665223
0.3994258365686797
0.3815389743777629
0.5088096477331014
0.44163759634387184
0.43109659182450605
0.4284687670047606
0.4353222340388736
0.4215916058496165
0.4332189134112846
0.52921176261752
0.5328706894123907
0.37466118094315964
0.40605232437914296
0.39597625880222986
0.5945532384567244
0.6118432875770702
0.42659133166175556
0.41004012973975645
0.5759119038527524
0.5530835180222747
0.4394773973232203
0.45360153492803457
0.5474260803902387
0.5506227340360021
0.5353688030447271
0.5534873085544948
0.537126640256616
0.55546563825411
0.5379568683384063
0.5558767825945563
0.5371397732555122
0.5548295939858197
0.5750545892509714
0.5740436914194187
0.5958156408330713
0.5943007370429549
0.6176015574851923
0.6154439982948605
0.5353875914702956
0.5907802801984849
0.6114786964710005
0.6382802596198234
0.6338077813983441
0.4003996264925003
0.3999799585337591
0.43667987313819895
0.4265221066574517
0.6060286055237167
0.6276757174842876
0.65779017581556
0.6509933096872819
0.40473400813783134
0.40224780384236253
0.4198504096723046
0.4353914067291605
0.42321349583171647
0.5982231559374751
0.5786480846717189
0.5668083510858848
0.35816055705710126
0.41290764422667436
0.6835323916884615
0.6758564215748711
0.6429011765840398
0.6678017786176446
0.3952423181653762
0.4441477693245535
0.4551070229665513
0.42545018963542125
0.4311646639104721
0.4213466067649926
0.43071902082449826
0.7018571884257541
0.6938432660968289
0.6580399519205357
0.6853253484153387
0.6493105931018085
0.6748567725526289
0.7123822439736908
0.7003379218261724
0.44918322768154906
0.4073634005758108
0.40319348363950663
0.5633562396697088
0.6019838380265483
0.583553434515756
0.7346514218856941
0.7244303076605216
0.4296412499345408
0.4268538546595332
0.4162330302065357
0.37789403511068465
0.4348277800405006
0.5835334979071403
0.4489176995182913
0.42107296873465383
0.6066507031383626
0.5822996327139094
0.5550245933510136
0.4590618063170596
0.6190143410640223
0.4141031718629989
0.43317253911585624
0.4615725026377127
0.4489298292597452
0.6402895274527978
0.41922628863948885
0.40941562462494024
0.40953931535050764
0.4036270142111561
0.4297054529618113
0.7581795753932348
0.7419354331975585
0.4067534592023031
0.4008291203101396
0.7700758782927045
0.578229015142552
0.40207549006014587
0.39383483098281497
0.5212940279826964
0.5550333713835389
0.5304279187778314
0.582182249332226
0.7739538009369565
0.7569144976375821
0.6166711290833977
0.6083600706616202
0.5994153994243456
0.7268331533924852
0.7391005113166457
0.4123890290773568
0.4033373674646292
0.7660650003321303
0.7469596738409222
0.3940735661940838
0.3858718576838635
0.4852565935611852
0.47612365197837236
0.38657829122896187
0.379132268094476
0.3764764071683491
0.36991756676288856
0.5539190444006008
0.5796324745130765
0.42982194617922725
0.446237888673327
0.40920780142340785
0.5939323578125596
0.7712542449247359
0.7521536339839713
0.45051868863158
0.7103516909593656
0.6179171837633622
0.3734941700038464
0.365114398523541
0.361226927130856
0.3555809928245083
0.36080180139588935
0.3515875589839266
0.3592082112733784
0.35019221940642314
0.36206436303571776
0.3525850614637055
0.3678985991187645
0.34003360840842317
0.34646195392367973
0.4133685037828445
0.424721879445362
0.324568484626503
0.3325461182405893
0.4160620354413572
0.3876837428394787
0.5866650071842492
0.5793882873167818
0.39985290038686894
0.6159508917266745
0.6205377871531145
0.6001167705255576
0.5720062192633986
0.5524309416765293
0.5726631689912206
0.5895079982752062
0.4359818613383658
0.46690762935233787
0.57270018167434
0.5870585728156251
0.5671613293795975
0.3502494662894626
0.5082008427400365
0.5069061523954629
0.4008973605521521
0.7732995009383118
0.7545222303546174
0.734862828611231
0.7385874054416326
0.41486398654158185
0.43438361859410757
0.4874761792774285
0.7898420560339401
0.4347800985658171
0.754516120572011
0.7393646778719093
0.7207588505479677
0.7230896088944575
0.7043362712480445
0.7072809719051637
0.721707979017648
0.7066617775748903
0.3146561870404737
0.3182336290491641
0.3436637861094859
0.6371104615259097
0.6449714834965942
0.5798728763303452
0.5603543086596706
0.5754306066178789
0.5610617265233103
0.4520874378428758
0.45992491806346314
0.4615217365082578
0.4532548656794652
0.31137003606618546
0.4390459147163884
0.40763547481357293
0.5862413975624855
0.3682434638500256
0.4190226479770978
0.7165625369257428
0.7033916209883959
0.4502475602521728
0.4412960911413119
0.40775672422049336
0.3987357252684626
0.4273455776440725
0.44076203503639605
0.3567575573644536
0.7512204592626283
0.4710875285873968
0.6896292732537326
0.47890346293804203
0.29993382385352524
0.3062497771098341
0.40375256316656893
0.5922170225863468
0.5646266743450435
0.5999719247299489
0.4560893305763124
0.4498100290532842
0.46120104179668114
0.4580212536403034
0.44943419066546436
0.4571960687633504
0.4661851613351175
0.4637231246637764
0.47452209289237407
0.47660769589709934
0.48295374391109575
0.48474585658772207
0.49242719939101603
0.4919076746002409
0.489799667622977
0.4973329949565694
0.4995156223225408
0.4524962242656487
0.3991057508727301
0.3952974987281755
0.40503211045392845
0.5047301493458649
0.5043921050477174
0.5025550803516801
0.7175917774002721
0.7227468505020225
0.7520394982394637
0.7564143248430946
0.7863936443773406
0.7895020532000556
0.7583017833473532
0.7893072344884725
0.7567258953185716
0.08877115203144963
0.8206415591013438
0.8169833891970424
0.39612494098815426
0.5190886254542284
0.5165242449978105
0.5014557259776556
0.4981590595967852
0.4842693287032694
0.4805562169675305
0.49402171597655625
0.4761075365851433
0.4898930795192822
0.4705918656282404
0.4840368025628437
0.4588937444685528
0.4675759061466763
0.47152011178590897
0.5033451974776469
0.4976254848232152
0.39626358415338675
0.33990634586521784
0.22218372933348657
0.5996463792910707
0.523246681420449
0.5179963127964029
0.28868138874776417
0.31390651189283586
0.6996463797775823
0.4648097658983603
0.560388499368653
0.5473226415817365
0.3539120703546079
0.5722687936026417
0.5530915132988269
0.27934943744730334
0.7840484880169932
0.7502833518236737
0.5416827969252045
0.5356339147656742
0.5241900839693129
0.5192517527062482
0.5295577479166156
0.5134048642153839
0.524084020742966
0.5075276774966264
0.3471825156028893
0.5004320940715878
0.5459713639475584
0.5502584578529235
0.429873174025021
0.42331770219913367
0.495765389782609
0.4806218875737
0.6621957946709958
0.668578787835443
0.7863940112022476
0.3682811988121678
0.41629517266636873
0.4975939674016753
0.5592469582358212
0.683191456514461
0.535873082586331
0.6917332447603217
0.6883704299470519
0.6947863991997856
0.6807748685127163
0.3656748474119247
0.35571804554501724
0.46566014005745165
0.4779361474005688
0.6283011735001048
0.4067681927935879
0.41548396276517213
0.8023975627340413
0.5085140822536154
0.5589966732446792
0.5659956188500213
0.5400973120471693
0.5281252315776903
0.529569094383486
0.3807430056855335
0.28311315789814445
0.2919506059483563
0.321312405433509
0.47628979543344774
0.4774494350668363
0.47977968354896516
0.4861873054652326
0.5063099522002448
0.5073678234899154
0.5645436453246298
0.44696881812551054
0.4760923713300446
0.471022651639116
0.44587911669490676
0.45944873558165245
0.456881377682987
0.7229198824078239
0.49850890944534043
0.4919506115182891
0.5010656033960934
0.48641248402624937
0.675941579752082
0.670422776059902
0.6707814524467548
0.6589337041764618
0.5450600448870792
0.5386063496588558
0.8507985248691763
0.8449827015852638
0.45546913709255915
0.4596122633593426
0.6506747256689992
0.4931585031523706
0.478969384029213
0.6004517919158675
0.5980797415089162
0.6125026951760295
0.6048620267194876
0.6883799605621193
0.28020315218264413
0.3746367120175536
0.3826117476564866
0.4478221935076251
0.46258402103667473
0.45156573085696916
0.47810692954530154
0.46590282986430304
0.4932890747536808
0.48089631110169073
0.579482722855021
0.47772683239585895
0.6765861530756976
0.8064875306016192
0.8189878471905702
0.8223738595011144
0.7772127053163407
0.5304360764007091
0.653403973588822
0.5121561187194112
0.503540512731714
0.37929718201344714
0.5416315190237838
0.580252923468997
0.5730158432033786
0.8177432832084869
0.7440061832997065
0.39834653138511744
0.5044728346918044
0.5071807370209507
0.5046273029133795
0.504217200534206
0.6148202829944651
0.7297141305927229
0.5399350273613751
0.5736276328913409
0.42381568822751786
0.5843785552326681
0.6957643914331908
0.6804194132121004
0.5258254682015923
0.5334966133249082
0.41736539403837997
0.42708661312471874
0.5085677715033757
0.49646654175673377
0.46784093347212463
0.4828665162391893
0.5104860365053068
0.49661105695631524
0.5216869737905612
0.5076452845091124
0.5295419692255682
0.26786279248841344
0.5469925748140771
0.27820036860347186
0.3973016465169124
0.495882932152321
0.5323833289866279
0.48484971430765283
0.5690023660389578
0.514010384159244
0.344171812403061
0.33652219611219697
0.5090875153710667
0.7960374762525613
0.5832801571816886
0.642238789261156
0.49946224873597506
0.4742088252295714
0.4618186039922518
0.4759559841697426
0.3366379509124038
0.4644897722321904
0.4307230875015903
0.8765575481641215
0.8690761293620652
0.838467206234539
0.860920927972734
0.6939671809262035
0.6653960242450222
0.4893234217078058
0.4958954006743636
0.5944585719364611
0.625542795534791
0.3871446880444982
0.4854202208887011
0.47173153051085026
0.39675866418476236
0.6634651834695793
0.5297280917399599
0.46558561055973174
0.8868503014311581
0.8764686469083368
0.5255471971630483
0.5300149247695344
0.5080470752764472
0.3799326018303949
0.37794156135107604
0.2502422270159493
0.8278498793480383
0.4832240772044198
0.7694410249902532
0.4022192460762555
0.3971580773044733
0.3512128800166422
0.6488748859386542
0.40536149345693967
0.3988747325072169
0.4045318431555503
0.3989264528146714
0.40299112315098373
0.39378129647521165
0.8351036195888236
0.8374841390513817
0.4841385708838672
0.8030628078922325
0.6412325577663195
0.639767924178001
0.4278426085933599
0.4553727247420612
0.433157386638546
0.5312620963562159
0.5167572647343253
0.456214216087034
0.4378199720322366
0.43554401123753916
0.4397170340410286
0.41873616386768303
0.4625252355285108
0.5533816699337701
0.5730124200307803
0.5205613459271002
0.8796405582414368
0.5767443894170304
0.4886347007371117
0.4759825270394894
0.34524081751039665
0.4756991824064205
0.5206417195129431
0.517128008438427
0.38771737839950404
0.33259885134775113
0.3248853444049048
0.3303577059697602
0.3885595761601931
0.2618992646754287
0.2985628925711958
0.8965208795347578
0.8821064133180236
0.8595347615981213
0.6620189347224102
0.6619038829113532
0.6402281205178175
0.39493088389600095
0.39101642201967596
0.5339493242859964
0.5080698757977461
0.505546233701058
0.49354944267946693
0.4809174676729689
0.24761759103204659
0.4010826683861148
0.3832295231984582
0.3744143254090171
0.3566872280644019
0.3562849965553877
0.36189715666999406
0.5553335747017257
0.4448529539740914
0.4401435906563147
0.3212645636681468
0.31303111214025614
0.4429745113868263
0.44745920652160004
0.45973514410846267
0.46119134651550575
0.4528672362224401
0.7392303975807283
0.7161951685084533
0.7626040136140377
0.45412314396373477
0.4077789479645089
0.44396674577605705
0.5509084568185011
0.8484266762029057
0.4864939552046811
0.6221948392355482
0.3738109974376115
0.3567483585634225
0.37176534637416775
0.3608792023469131
0.37403110168443987
0.36728984981371965
0.3801310034167127
0.3755962386889766
0.3881419193053556
0.3477692509844902
0.3641751629094433
0.8230505881210101
0.48125486351115665
0.513390514284313
0.4989097842736073
0.5486752188382896
0.454028003133245
0.33909888051750764
0.5071778400096134
0.4914828151571766
0.2935866400499635
0.31185100384322173
0.466625829502815
0.520372085170734
0.5253481265591293
0.4774525721988227
0.46398464605936024
0.3657565952846211
0.23063458841900583
0.464450060265346
0.44311360402714167
0.24599220798978544
0.6516738675144941
0.6370009289420198
0.6498111587185084
0.6231919199659386
0.37329514572081185
0.49258754833451956
0.3545601126557681
0.5144043452266938
0.4932455807135033
0.4326113660746384
0.4260998857394321
0.5967321774834666
0.7281238576926449
0.7163262397817973
0.7270552143750191
0.710194241234624
0.7167435440097588
0.7369761594027465
0.7659059995819457
0.8213669842896721
0.48372806365943366
0.6941090884228892
0.48047730295621005
0.4453150062175334
0.43892691432556324
0.7027023263251568
0.6916759993589731
0.6868858568905145
0.6060821812461439
0.6153250868756728
0.637995955553889
0.6602679153485187
0.463815288963972
0.6139341768429156
0.8034795168962284
0.6478207273259607
0.6352931706697891
0.6238395053983684
0.6361377364176909
0.4450668203498329
0.5404327663798918
0.5324827571014807
0.5489028796208795
0.5419821293234217
0.6359127186226631
0.39786900745209414
0.37905275175243824
0.5029561477799024
0.5267734269359724
0.5411186679307037
0.8526461200117035
0.8589351844733103
0.5617411077704948
0.4740450217299673
0.3781265292243859
0.619517709096453
0.6118645206517147
0.4772092088415749
0.4580460288988153
0.6082127848180586
0.6620247660178094
0.6673907581352744
0.6101687220896913
0.6286263969180421
0.5441916383935761
0.9078833575888545
0.48887902286767454
0.5037920259400687
0.52992478624847
0.5915344999941979
0.901060873776935
0.44696532415228984
0.49368435269837824
0.3939841525713303
0.4705576924256005
0.6968431061612494
0.39811056748383084
0.5855647004595023
0.7459813526937478
0.7246131591168478
0.7473409496531468
0.6883799143553959
0.5115773136201541
0.4353075695001393
0.6574703757704551
0.48195779486404655
0.4832443263336838
0.4791178143508322
0.45130313112964165
0.433075508091824
0.44436433865971364
0.5433330394450959
0.5249553937168826
0.6465247026870816
0.38065912520799416
0.3874012612295774
0.3840325388990137
0.6452284581704067
0.5876633199017702
0.5464034419304797
0.517341503869197
0.5034782971255121
0.5455827165611223
0.546062174431699
0.5502999121067276
0.5025684980614232
0.496331254210519
0.4988179285152036
0.4864746270840018
0.49336077926658006
0.4855821300041747
0.6097971692810518
0.47075439449603307
0.48546179814979007
0.8971669888790941
0.5579245199511237
0.5340853429007869
0.5271413964828476
0.5187435706233042
0.5320190189551679
0.5220528063584399
0.522787166317312
0.4080605827528742
0.4064201220037391
0.4017241734873998
0.4042144283904468
0.4096411610782568
0.4051673763282054
0.41135700811298254
0.4797027895859635
0.4073712569879257
0.4128899488755898
0.5396968303908728
0.4248409186002516
0.4184711605320399
0.4012204449179746
0.6461232030211143
0.6609314387776825
0.738929718944899
0.7603755684277328
0.5888485154738149
0.36285732069276727
0.33972630429152123
0.2787432635461304
0.312296080675736
0.3431852309606896
0.29581293083893934
0.31376748731751963
0.2570414985497494
0.28198608321193863
0.23635451601790594
0.2703255367653919
0.24129936907211033
0.26857184431268677
0.25090284788688355
0.27179699483626363
0.26366657171194124
0.2798412558269825
0.2753259477675385
0.28997787352770693
0.28836322116337837
0.30109525035182355
0.30142624069120044
0.3129530845341749
0.3141138043986415
0.3247901055361173
0.32380844124815944
0.3349849188975315
0.3282594983649517
0.2959000031709756
0.30428230400501727
0.2773151182491545
0.3335401065439725
0.24546332733480195
0.33511911355374346
0.3449733144452324
0.3465893743985741
0.35557922957076477
0.2913085048349269
0.21304502298012445
0.3251007425939534
0.22615997910084815
0.35823724030412757
0.3663311569108652
0.36373402944026373
0.33720469265787023
0.33096526437344087
0.34986020324716793
0.3621481176718674
0.3548653222937389
0.25457253837393923
0.2019273515253284
0.373615900610563
0.37174332583067615
0.36326765156394936
0.3712607767477588
0.9027482957678075
0.8780665575310441
0.4956754596762923
0.7909391770477691
0.818869083704209
0.5035903874428009
0.518249192699011
0.4340595529578408
0.5170487281863294
0.37689030604949947
0.4577341508030834
0.4543379508823528
0.4593589584817521
0.4962664573796539
0.38341113748554134
0.490469814543728
0.4911824716840281
0.37036714035366747
0.3454062291397462
0.37975245909386296
0.33594831158368305
0.40718712158615117
0.39239649246756836
0.4002273091372792
0.3960027506827247
0.4275063004312445
0.43723224432525265
0.4230861951046076
0.4326112783377879
0.41833051086137135
0.4281191842242252
0.4141165761550704
0.4234897813176266
0.4380492561164965
0.4317898886069064
0.48861140104422773
0.474824598310065
0.47856899169146916
0.46206391181755063
0.39898980658761973
0.3094118830305494
0.3022120764446606
0.3053609435651394
0.29441115421386216
0.5392789111235313
0.5280517426176875
0.5506327192576562
0.4063369075628644
0.3632964475454402
0.354842489979021
0.6749379974099166
0.5047013314620038
0.48152393880098376
0.469387105757256
0.4755987030888706
0.453198809055049
0.42414678625728
0.42951839938166286
0.4000250993705557
0.40202643469488664
0.4399685797763305
0.5441659552585395
0.40265218077751574
0.3312628465340804
0.36667333261116747
0.4983899048443862
0.5206484528325277
0.6473639439745957
0.6494409212338453
0.6289873663330294
0.5638820714586381
0.5843347876517785
0.4419700921192498
0.20744214980187753
0.20751510328736855
0.3981832008349577
0.5927857432760781
0.6215266188470319
0.6555846051160678
0.6747797890640258
0.5566355772328375
0.6115658785480683
0.6253856159313232
0.6206403666236866
0.6041518268520605
0.6072388709613996
0.5053025789888103
0.5162957083109165
0.5213485360582021
0.512996074196034
0.3928770171596889
0.5142932335364145
0.5123569900753114
0.787611839566206
0.28948155011567345
0.27988637771631025
0.28900983162966837
0.2745149826146884
0.4702705325781813
0.5017437468596689
0.5096345853363028
0.6254270024387787
0.43475398520169883
0.5965745370644745
0.58042920914254
0.5729812409504192
0.5540084433632585
0.5522083530635692
0.5678150835301964
0.5448151473021433
0.7834350223758876
0.7774555751472009
0.7431658754201966
0.38301669794415233
0.40247206120763496
0.372603506304706
0.37218576921701935
0.5501189134739407
0.533347962563861
0.44374197797919634
0.5327384726526119
0.46793784118836984
0.4510271368755491
0.4689595171739116
0.4837438850161218
0.6326645779315696
0.3696845679181209
0.3676552513826561
0.6605917995508795
0.807386786054928
0.4121132688783411
0.396927556455337
0.4251431932425061
0.6642606591193453
0.6309783173792334
0.6890383250030037
0.5328425238962922
0.6442704983941364
0.4704536937688898
0.3784719511920149
0.5011860856147226
0.5158260311375767
0.5327876504909284
0.3903911002057738
0.37321518317249347
0.6621048463092413
0.6525967263013488
0.22275168251909858
0.8840170679259189
0.8920650887902942
0.631567186891844
0.6429512890527915
0.6329892523807409
0.655192943593653
0.6503088200511744
0.31627903291556114
0.3244853741998861
0.4347919864904681
0.5444264481292309
0.4545560050279746
0.633462169401665
0.6672100565138802
0.672693289150922
0.2662435752954966
0.25825295682261373
0.5017431183069131
0.38133831719400085
0.37705968137439205
0.5732847242781999
0.49285558828995096
0.4686763527287443
0.3833907449633548
0.8522308544631869
0.8684287035950226
0.4203338968789762
0.4143284137071358
0.6417689066911443
0.6227645464987095
0.40953423403399575
0.40091840489827923
0.18248219706557808
0.9226792405339613
0.40860213382464144
0.346098017837386
0.3499907131771316
0.4138251528983307
0.40520247649343677
0.35953931912762555
0.3482920070589051
0.3534310173969127
0.34303668764959194
0.3483248528038246
0.3371741348421228
0.3317979762768468
0.3259422179875561
0.3198288445436248
0.31490582921417837
0.3446515104374372
0.5651729192293353
0.41072257281885727
0.4224224039640018
0.2629049852444216
0.1734932721794422
0.16501866485362954
0.21624513411967683
0.20811415496741215
0.17588239707142245
0.1488955542853536
0.14171284169922346
0.39641065771483425
0.3764824125969693
0.4912015468368882
0.461257440794435
0.45811842609586045
0.6995279563653053
0.7131840998649343
0.44998540871589526
0.45451132448399306
0.44369533657734717
0.3559550797129013
0.1217571743681265
0.3210991671031162
0.3097834151194762
0.30298743025568586
0.2985868932746058
0.2909488932458153
0.46630504016719165
0.47779860909259914
0.15029012732709546
0.6882212947016623
0.613777956565381
0.5104456860761802
0.38621711472951903
0.3413017609381642
0.3267049560241918
0.40621187455787144
0.5507776208631154
0.619269681630548
0.5997973551106695
0.4513009688255378
0.6641380913230283
0.678859428068153
0.6921052642033325
0.7099154530880084
0.47104427745181615
0.5003547969377923
0.4757571930305758
0.4561187836602521
0.4469328904039131
0.4355804074148953
0.7161358983041551
0.379291635683954
0.28289186522821147
0.22884111637424775
0.22801291506640903
0.24542843879340165
0.23681181207357024
0.2528932050680945
0.21802806901146723
0.263141180000122
0.26747072897012986
0.23173437764945032
0.545263265637786
0.27582421881137564
0.5309048977929949
0.374454664203011
0.684564653214642
0.6887390744844981
0.20895378801659634
0.19734201555247607
0.47287535776300066
0.7543365195888893
0.7607899873702108
0.755253098206644
0.7704652522311243
0.7614610098962911
0.7824415610193982
0.48484499809593923
0.48968631440304305
0.49440820652883666
0.49068232790584476
0.49419040003762643
0.48564469976034025
0.49216393071890996
0.48235719469778443
0.4744754572225292
0.49966162809737985
0.4717929057089123
0.5016798747052559
0.4931525790345283
0.5037732329825954
0.48314018880281573
0.4873567719301954
0.5110139634597101
0.4977450730924811
0.5056864779891208
0.31273957134762553
0.27928431222806466
0.36992308949674996
0.22798736800818795
0.23429868146421357
0.702361629645727
0.4900091761865514
0.3387769169516001
0.32395885662595786
0.3218193419674314
0.3279217361803917
0.3430558544169926
0.33437312090831356
0.34115733200781284
0.33087576388790657
0.2649498573475602
0.45147060004557543
0.4698816523617791
0.49107669992425895
0.5211039406380054
0.4926124530205957
0.5199061015585884
0.41499324814314903
0.2967791348415277
0.29950560729326386
0.3135543374256838
0.32495600289107446
0.3388607062574096
0.2911564249514908
0.56919705269081
0.3988078212829988
0.3988640540092585
0.17436803220467642
0.5838401965897043
0.7827560336667588
0.3982784154062546
0.4140346110808786
0.48158193802458626
0.4696790021502178
0.7317827579330429
0.5342901681628768
0.5163050548084701
0.5176451083265537
0.5093718976416197
0.5103864033698925
0.49975936651809855
0.4978587974503741
0.5057098130757502
0.4857483639817584
0.5043387704414966
0.4973080036668191
0.5218459961298894
0.48849592842375644
0.5222073821622015
0.69739948689935
0.41478691407119817
0.47008816357924726
0.37337597798054056
0.47036620163430337
0.36418528159315217
0.34527762740556456
0.35794831056495385
0.3398510549526239
0.3208543091389156
0.3197822540551379
0.3347537002904328
0.37318964968799934
0.4097621163449154
0.3568878703907354
0.5831013008282465
0.508815626157375
0.6302851888017026
0.31989146898484655
0.6695491926889621
0.5669030178338893
0.5761785884883471
0.30606755047586603
0.4065258158613724
0.4448081567252378
0.44064057568274806
0.43546969498940163
0.41786448202330784
0.30828936236710924
0.8469761641115533
0.7311827458316277
0.8720655213369932
0.24334637182900848
0.5692490802932016
0.5946498858442268
0.6949750852455777
0.7693051003505242
0.3910059542685272
0.4420687279397685
0.5528853153603878
0.3415569749991716
0.3479321430350268
0.3400052323816118
0.3947824807438169
0.3546498383208059
0.39337950686214773
0.3370482723226799
0.34155073009058723
0.5092742456674084
0.5166900425367781
0.45395168371440026
0.46881113948315567
0.3324986035961488
0.5577930516396625
0.5238038301426313
0.6464567106769923
0.47118523600257517
0.25371914797653355
0.49794990698453306
0.287913764287824
0.6069634833363199
0.5121005141991095
0.46558909068301163
0.4746806584168938
0.4602418799645366
0.44690624012701585
0.3844983952293867
0.3317714815156845
0.36649384044043243
0.4148803648680027
0.41353142039509855
0.4950298019998012
0.9027115454499494
0.8745238948915626
0.8899270860703481
0.866536647065865
0.8516169241121869
0.8360678833143314
0.8485586109954506
0.7308647177908758
0.4548023623175018
0.42472216570070886
0.4305900764283944
0.4965601763548337
0.6062285122410621
0.4480281924531487
0.5184466415106619
0.5221020243287686
0.5092739920658599
0.5092832735714714
0.5572074974742592
0.45798616377984425
0.38625975317394307
0.3602911920423961
0.5358447805778928
0.5187911272088784
0.3878022920849685
0.42941117388227773
0.41933602020775695
0.4080467928370013
0.40640777171590925
0.34229982283901433
0.13898164666278004
0.8358604840835329
0.8222927820650369
0.8075389960709183
0.8332991024886001
0.47879793803050646
0.7379727457599582
0.22872149322484053
0.2614636167540311
0.45878286391521605
0.44428172764729945
0.4599352591812654
0.3975186203373728
0.38527994541938204
0.3391021416091312
0.44399589999912736
0.5483592178075454
0.8460573394048883
0.3553396212574799
0.3510569198623027
0.584300824448468
0.7353906722046114
0.5914538422275365
0.610566218786287
0.5131954589865476
0.43032441056264037
0.4215919112086948
0.41190614952051374
0.4137999875784387
0.4203855668068754
0.42691228252043434
0.3991429168337624
0.8062313261128717
0.7940159510430939
0.8080158219425024
0.8234430301604819
0.8405540383335228
0.8497126102792697
0.803208510066755
0.8063130646146285
0.31449371927269903
0.40656506102047524
0.6340398999365301
0.9094733611021273
0.47884407125114153
0.8959766752741732
0.9164288486178137
0.6299866260872448
0.4924506601543636
0.4783729497443055
0.5156716092244911
0.3853767580852066
0.4952658474847592
0.6810497036048416
0.4498577858320859
0.4493810379719839
0.4615721619174097
0.4374079206865875
0.4601143954881053
0.44960068084121496
0.43828786514732043
0.4252521281148542
0.48011827876780866
0.4707008226493974
0.46098158933384414
0.603593412902612
0.5387453084011179
0.46909040641413163
0.40595045278965
0.36801645483803186
0.427640840250057
0.4075981956814712
0.40742237070907056
0.4151689614302967
0.7949554595706265
0.8278436038352194
0.846890765280419
0.8116434769736618
0.6945184508528216
0.36998028635924013
0.5812247712891125
0.5464390199321769
0.8209812958673862
0.5994978421557846
0.47782443668899505
0.45390116699095473
0.39129210174080004
0.52645789065327
0.5443283528409791
0.4922748941992291
0.592461379791146
0.5938171177918588
0.6021076960416305
0.6245373642786997
0.4574579081440815
0.5750864669107684
0.46379107892283505
0.384586480533239
0.39457138756019283
0.3442547771422398
0.46552697424785633
0.809235763006329
0.34135776963669173
0.6632502392645018
0.6666534722987935
0.6961736102533317
0.6673883202195061
0.6948422974020954
0.7259777252334358
0.43233172704560896
0.5057047613937675
0.5047829568714899
0.5549279390627905
0.48950515063842287
0.9209033906040716
0.5702477516843143
0.6408515510957442
0.7409694652349859
0.45171659257135727
0.4964101659888002
0.5668969304294896
0.4103741088158099
0.07075755177088316
0.7711911438484041
0.4493343702910749
0.49245825180535696
0.4965816798580991
0.4703262053145934
0.4737024099495178
0.4489769544087614
0.45702235987804907
0.6699179143659618
0.4477435339033144
0.5176184173772512
0.5475270937090658
0.5006038779984773
0.5389426191160449
0.6086016876141618
0.734461160562839
0.3800381346799995
0.5372721027935314
0.5205397589136916
0.49823704297683236
0.45970934039978884
0.5397790717480098
0.4027630899495539
0.4763656164859741
0.3477651837460514
0.36221701431319103
0.4078057605209127
0.5333065873962707
0.5268710275278553
0.5217253929146463
0.5126888183455026
0.6661701389657895
0.6026157301843086
0.37768393382340804
0.37745277520271503
0.43205124300879744
0.5527938765164947
0.41330401309706705
0.533332148955747
0.7819651971891973
0.49739441158576275
0.4048034576145035
0.41772083449035197
0.5052805811030466
0.922283068899226
0.3757541361861577
0.4877895646074516
0.4846609716771598
0.5084453737977457
0.7498511545182666
0.7219086593703317
0.7101165466847591
0.4635440527657906
0.9374283137794247
0.8713242448493975
0.7415466484503984
0.8120308880611142
0.7525635823470682
0.787447623525069
0.5782501920410986
0.47645403989603685
0.9133163657721698
0.6148745593002324
0.41027471887051037
0.5096316639297097
0.6772544429541838
0.7037605193445997
0.47357971440880314
0.5350672097381647
0.7168342079433035
0.44528957596607965
0.3927782325773194
0.4893299274027347
0.461436171015382
0.29633606119025774
0.4428818059159654
0.5821694693996817
0.250872329733187
0.24282494750384348
0.6057111788334129
0.5304009284498404
0.5858680778399288
0.45788312299843076
0.8516902919050501
0.38549049538738084
0.34456074878484555
0.38036049232331487
0.5205211827052516
0.5956422361383517
0.4878351891500484
0.12298254371076243
0.7883715733652639
0.7215238147387709
0.4707495016185711
0.6309577488562282
0.4876090179612708
0.6127428891561174
0.6441768575124568
0.6035933863665074
0.4146091445667992
0.4843275982980908
0.9222756197611667
0.5963890394493193
0.5935890873692313
0.38862053366650123
0.8637622788120952
0.5584538738442384
0.4477068215964229
0.5022244659974456
0.3999979895316923
0.4677426574480103
0.3330539958750156
0.5523103734675203
0.5121031849604156
0.3982570916563924
0.7178735239577974
0.31064617345063283
0.3059316538110998
0.8499112705835622
0.6205050001501163
0.811096681341751
0.7416690203623123
0.4861157696804362
0.15754745602411674
0.49569897288032355
0.6257106381401877
0.6184533253556352
0.2829811948124281
0.5039694225722158
0.6543176230603218
0.2044479667285383
0.664226261963626
0.46354015328674325
0.3628878374894206
0.42544606956100245
0.24859501285882515
0.27354986925662633
0.4532205724740593
0.5169456957965427
0.34529192540528725
0.5983218859412984
0.4890697120584906
0.642106291198331
0.6142932538506453
0.472030113356088
0.7097127509031464
0.7167039394679389
0.3941800198808015
0.3644544550311706
0.2938455228097457
0.38568481714353714
0.3150302618341883
0.633944445730193
0.7290041608703784
0.15722418794129023
0.18748037741965376
0.2082461300447852
0.4268649934240983
0.23258002970838865
0.4693253565734511
0.5112018087209621
0.5578609262834507
0.3338177519123587
0.35623175792665834
0.44835930913198235
0.47103569113262206
0.42197666523735966
0.6127333156743757
0.47325493921614786
0.5372703719302708
0.5214350650005809
0.3136876849470879
0.26948208948316993
0.5011894092209014
0.5158301789118294
0.9044754181988117
0.28865601196200436
0.6831917232023508
0.3863512467284685
0.6582330461267633
0.4918659921738679
0.7065437541635895
0.48761093335295214
0.43209702210691603
0.3932842056816872
0.5481679920103711
0.5714583569333387
0.5462592251651165
0.8433658383729091
0.35353308760557056
0.2832236401490971
0.5581449752405631
0.6917385122033712
0.39763712971207127
0.5939610171609387
0.4372613154112708
0.6339118903547661
0.4658500916204411
0.48869520713704684
0.29654941971243864
0.5183141671060798
0.06396803735261357
0.3719501634372173
0.5084172046816827
0.4269155003737482
0.39207152495294223
0.5961291957111867
0.6776465561093796
0.4126414228211206
0.3401371264342319
0.688047816570373
0.3547231078743962
0.5243469789642192
0.43056629888343634
0.5008866905085103
0.28334205616347485
0.3295648906939066
0.4658507625105605
0.48808073846900224
0.4727882863761108
0.309653284493057
0.33446517707575524
0.621258634960325
0.653954427435129
0.3921044692908015
0.3810932017662222
0.3130805635766415
0.7262963359145779
0.42800436867045005
0.4184907011516342
0.45522323290895983
0.33554462475649505
0.5049477294437072
0.5873859468659135
0.5491084142659988
0.5253408733416242
0.5457013973705139
0.4797018542042136
0.5524847158581621
0.4247391378033475
0.2903626831060603
0.40207199812452427
0.369797863491626
0.4327268808838162
0.3696373831719701
0.7853575800704766
0.4125640832317402
0.48328513794179606
0.6953604128074082
0.5491730762738544
0.34570780223451897
0.45633118654149124
0.4056611336784102
0.5282094143740684
0.40690237918791994
0.40065094334391366
0.13440987896944925
0.5029846266863347
0.6183348367109973
0.39826451577718786
0.5233385847275996
0.44323001756046543
0.5830683100841239
0.36259008929910935
0.47105628956606704
0.3971915095776403
0.5895122028595102
0.5642623079603012
0.5484007358297077
0.36603496306965017
0.5444590345802511
0.4231477061177576
0.5169477034784937
0.29792523177373814
0.57592672097471
0.7752174158136732
0.4320340899312679
0.4965905704603002
0.564645076532968
0.36188310717361405
0.35159038359810474
0.7648197198379836
0.38061673180556005
0.5392055228175213
0.37032377324696003
0.5047751509517204
0.4159973895478706
0.2705521731535263
0.5755828730429752
0.17975407336369795
0.3726641761860508
0.6290748782065912
0.5855421918741013
0.5229299306869468
0.40483516183804086
0.4308615379611001
0.5201933777114167
0.28886139236790503
0.5066936382895065
0.4590315775232456
0.5180510720516449
0.5432695513421412
0.41453528921210736
0.24679194529078044
0.6489927487257353
0.6763212203869294
0.3321687752819946
0.4874049785533412
0.4679383819682384
0.21762886269308196
0.32831999082130164
0.19570672549329088
0.29333741168552796
0.48768236559939
0.5058670479157433
0.4776636743940031
0.7843840459856779
0.3765699137201698
0.8542576957462765
0.4177246738255667
0.5251098260529797
0.5189705135614926
0.3438784976609015
0.2488840150844883
0.2632974697340696
0.4491107775561877
0.6118825946669971
0.5455688056649868
0.5276488818316517
0.5055238248110092
0.5131468819089282
0.5080197122878434
0.6747893738435085
0.299032331875465
0.3087166657554714
0.47914966342143195
0.3178466190710046
0.3950469485139395
0.5859789570578792
0.5500428246524925
0.34521703717875896
0.5270132042063043
0.4807669504727289
0.4778839476907224
0.4653988951970396
0.4906235508389971
0.4623709464074075
0.8144320331028132
0.45723352935836725
0.30422802823408196
0.41863000374854054
0.38157242441158495
0.3366595748574933
0.46660201241190175
0.5348456686803765
0.4100411869728258
0.4832341649089865
0.40591036944478787
0.7122848897491222
0.6366670983574296
0.306345570054741
0.4322937981858362
0.4201741341013989
0.36462221207941964
0.6263282620309217
0.3959110455140104
0.432285044096342
0.563317982301017
0.31455653772088515
0.6523978765455535
0.6541097978522757
0.4231948650699541
0.7243382922001395
0.3936535016631716
0.62865693418615
0.5030134339942126
0.5545420501410809
0.4159350941647889
0.14079131419083096
0.3040119371131079
0.6292111427369427
0.3595273211684711
0.2759468929288671
0.45679146265886567
0.4644958215103231
0.39572840009147203
0.7547400345377554
0.7149491658794577
0.44550491636337036
0.6786004841986883
0.35151442871454186
0.42188304115208913
0.5056714095504465
0.7670365878804467
0.4893043656767354
0.5068620940092767
0.4624550775891922
0.38723451728659486
0.8058651034020065
0.4975109747815379
0.49410166080997975
0.4001142391430825
0.42624901625200146
0.47597107590849747
0.5218402919580397
0.5968687446329176
0.276261135785907
0.5061799539437517
0.6165817661481525
0.6647826377346736
0.5165866822334559
0.7981840742609343
0.5990079078132572
0.397572567344312
0.4055626261717817
0.36713347258228923
0.4101291724028646
0.18532225307477596
0.4525072235764577
0.43261087436284085
0.2850501119521094
0.19017743673864115
0.3634405191758995
0.35608628997287617
0.41752929410697087
0.3866509071689575
0.5968858732588243
0.7551850032138759
0.4168517491831402
0.26639668452316884
0.328186921056137
0.1884877246050592
0.5132860977928724
0.3078977138921382
0.3927247815192383
0.5898140458622259
0.39071886316811244
0.5131387565832283
0.6904479729943309
0.5012997680304508
0.5637860603475108
0.8630269600344634
0.6139391746090639
0.6332420989167835
0.5047683990653219
0.5669011741861383
0.4740521257426376
0.5222095378198351
0.3622715721811332
0.6501951649406715
0.3976954243953021
0.33093804846845987
0.49255003717652407
0.4020318106261349
0.6406435313788852
0.9734397540620279
0.9817736992063796
0.53606576010753
0.24129039983569303
0.5176209348449423
0.8368874508501077
0.8088691578357597
0.4284293876350188
0.4024359140322742
0.3985858302787821
0.40613617450685524
0.4170975522905703
0.47967449437877246
0.35937220875677683
0.3010208884056243
0.3297581011138698
0.5466578923227066
0.5128014441237366
0.33738172081751194
0.4419724749304574
0.3152142434643919
0.6886404097611502
0.3087906831942811
0.4939109984563813
0.477815937265972
0.483972144797945
0.5716747490574845
0.384412326109554
0.3859462711406186
0.2106578172823597
0.3689093149593408
0.48541413004648387
0.8990675950255075
0.5040126861348937
0.4584516042647482
0.30397697274471847
0.4620006308876116
0.2812117474002498
0.44083908250090126
0.44402806953044516
0.6222324386339728
0.3809618678500464
0.3208592659728224
0.5743330803840465
0.35886683077687637
0.3840627708551491
0.30651145564500054
0.2537011600556726
0.662898832639364
0.32358699748656494
0.4965865780708861
0.5773917376320108
0.6923821922053763
0.45837005712376855
0.4308370025008031
0.4223934405846104
0.929717019123674
0.5848008655903387
0.6748594806591945
0.4099567077659966
0.679058356440391
0.42178372808791487
0.3644726962227201
0.3110736622079878
0.69490629121708
0.48893702091860963
0.4700362373409394
0.8083077532848829
0.47687595510426867
0.49135789530797713
0.9359356561172669
0.6391830097374128
0.35813657089875744
0.511398064251961
0.7436728428030952
0.7126671380479571
0.7879119360445561
0.33825250735894363
0.6118495216657722
0.3224327390053377
0.3934513140032484
0.47885306641492165
0.5120999064588094
0.2793811822370515
0.42607220009803387
0.543444245669686
0.5003945759363486
0.3856059839519646
0.7594837155276731
0.5025946487748011
0.3736006082190355
0.5125179235549521
0.5315487738333701
0.5951455654814946
0.4433229576709152
0.3941800900514088
0.37904142580830996
0.6290468963100293
0.4820752156096746
0.3842413563332968
0.4400579639628375
0.5782845814798194
0.5108943902952273
0.38922789872990987
0.41222166928076254
0.49879163330447757
0.4405949918422796
0.4632749332081659
0.4458289490115731
0.3691283636331347
0.3942274099954955
0.6385829912842134
0.8769318272341898
0.5335664589102479
0.567297778206511
0.5603642541726866
0.46142256216759947
0.9180125313959792
0.6071192483594984
0.48690097750267086
0.49056995400743547
0.42747802839482657
0.48670567391900976
0.4746592410768568
0.437353217445011
0.38942387131385386
0.4456990716484322
0.4125791274444018
0.4715988693146871
0.8055550752676445
0.46043901498801776
0.34601339987575036
0.48568788252401074
0.7181533237251614
0.4301853108960554
0.4938917346217761
0.5068987574181691
0.20355971488767594
0.45473180025396587
0.4084482958096399
0.1887862232879595
0.19607735698078832
0.11328068150292969
0.3260434393048691
0.3606905364884498
0.5166317792487406
0.5095655927502265
0.6650228800116643
0.48734784682340904
0.34739349012578236
0.4314200901269682
0.8663581204085146
0.512931525263704
0.4436233350254172
0.5315096593281341
0.3966236595054249
0.3375118502588728
0.5726000647909513
0.2974065055624279
0.4520813135041155
0.4377547329186364
0.48009211100649274
0.67944803987603
0.4004756898111558
0.5072592778043601
0.37804479171811134
0.5052808614180373
0.5645911454297187
0.6304491370044439
0.7484304121815931
0.6847548014492653
0.339051444355223
0.4581091098338652
0.24962503332461528
0.5960383205684289
0.49692997126084665
0.28417041004846455
0.4693619925588475
0.36969361621306945
0.5711593430305881
0.45325853278752504
0.3600079078264969
0.30610261387452525
0.32670465090603995
0.6123439105526595
0.4834384840690433
0.2589401275017852
0.50255359068151
0.9051283997233381
0.5102238695922912
0.31309513947201084
0.36733125067916383
0.351078341349398
0.8361946234779528
0.42397959268170105
0.4247418446351875
0.6290302327097913
0.5555478233614557
0.4981857929106878
0.39441783879727244
0.4793107999433483
0.8555017718730916
0.4221822002510553
0.6140394928559151
0.22855791157176591
0.7767055207700312
0.3013451539331013
0.425844600741922
0.34638810928568137
0.39066822778691845
0.5020812451398758
0.1652607737870444
0.32373175566353274
0.8886300786729544
0.6385508160061938
0.42074968066961776
0.6336474084664045
0.38323197387678803
0.6789785844084824
0.33039229920536245
0.09771700641538875
0.45566553746947913
0.47387192460319555
0.7910242569678638
0.7136030012384306
0.49411536675298073
0.6526503068179399
0.9075886395404581
0.3840421677759846
0.5740675618896945
0.4309101738054922
0.2680889305421651
0.8984834597050202
0.485105252384202
0.7855141663924547
CELL_DATA 4886
TENSORS stress float
-9.541535234200839e6 8.27804188135941e6 0.0
8.27804188135941e6 3.7731732218195915e7 0.0
0.0 0.0 0.0

-2.1009240488734506e7 1.3313939280939024e7 0.0
1.3313939280939024e7 7.578736428037524e6 0.0
0.0 0.0 0.0

-1.0590278564382486e7 2.4712085112675704e7 0.0
2.4712085112675704e7 -9.810176824358817e6 0.0
0.0 0.0 0.0

-3.468550010851426e6 2.3657545852226645e7 0.0
2.3657545852226645e7 1.407071683020599e7 0.0
0.0 0.0 0.0

-1.69763605447043e6 2.7663718928995546e7 0.0
2.7663718928995546e7 -1.299884284259072e6 0.0
0.0 0.0 0.0

1.5258307231723603e6 2.7057559073028457e6 0.0
2.7057559073028457e6 -4.11531974461278e6 0.0
0.0 0.0 0.0

6.539614925173971e7 3.0533128496323813e7 0.0
3.0533128496323813e7 1.6953690623563312e7 0.0
0.0 0.0 0.0

2.0864483224213757e6 2.972622207453986e6 0.0
2.972622207453986e6 -5.056330360866083e7 0.0
0.0 0.0 0.0

-9.173567220096337e6 1.0136611923428927e7 0.0
1.0136611923428927e7 3.915827018004677e7 0.0
0.0 0.0 0.0

2.0753756595241139e6 2.0379801831971135e7 0.0
2.0379801831971135e7 2.3687746954367146e7 0.0
0.0 0.0 0.0

-690712.8753214271 2.2331766482375197e7 0.0
2.2331766482375197e7 -8.417092706063174e6 0.0
0.0 0.0 0.0

55842.9737483518 3.368392300012601e7 0.0
3.368392300012601e7 -1.2540553290981718e6 0.0
0.0 0.0 0.0

849945.7666082643 9.850060194989935e6 0.0
9.850060194989935e6 -4.624917761220044e7 0.0
0.0 0.0 0.0

9.333241729890333e7 3.388050992757121e7 0.0
3.388050992757121e7 1.8611337414856248e7 0.0
0.0 0.0 0.0

-364974.41303963726 2.3047416396867704e7 0.0
2.3047416396867704e7 -8.392811871411713e6 0.0
0.0 0.0 0.0

3.2780631444805516e6 3.959547039321654e6 0.0
3.959547039321654e6 -1.8014794217791386e7 0.0
0.0 0.0 0.0

-3.921989480234573e6 1.876660888247561e7 0.0
1.876660888247561e7 -2.375863540436983e7 0.0
0.0 0.0 0.0

-233778.0342867989 1.488667786359693e7 0.0
1.488667786359693e7 -3.1668524237896375e7 0.0
0.0 0.0 0.0

-9.018168658700373e6 -1.2820725558627127e6 0.0
-1.2820725558627127e6 3.0022014700990513e7 0.0
0.0 0.0 0.0

339823.1127189612 2.592222350005714e7 0.0
2.592222350005714e7 -7.656639884325121e6 0.0
0.0 0.0 0.0

2.10364404869547e6 1.1966844334151613e7 0.0
1.1966844334151613e7 -2.252864681678146e7 0.0
0.0 0.0 0.0

1.4579266669062367e6 3.3301221191458046e7 0.0
3.3301221191458046e7 -1.2147868817883246e6 0.0
0.0 0.0 0.0

-1.0633793937962936e7 9.032667585579928e6 0.0
9.032667585579928e6 2.0090590901311498e7 0.0
0.0 0.0 0.0

-1.5686677611259492e7 2.5508935983206477e7 0.0
2.5508935983206477e7 -599017.0178251825 0.0
0.0 0.0 0.0

-792942.7914607264 1.312585828407672e7 0.0
1.312585828407672e7 -4.1546921165761255e7 0.0
0.0 0.0 0.0

2.7273063526445825e7 4.646723702594356e7 0.0
4.646723702594356e7 -9.896865509840975e6 0.0
0.0 0.0 0.0

4.387045249665893e7 2.4033688780457307e7 0.0
2.4033688780457307e7 9.554755313150782e6 0.0
0.0 0.0 0.0

-8.397321579643508e6 1.7551510521113228e7 0.0
1.7551510521113228e7 2.7584734964027368e7 0.0
0.0 0.0 0.0

3.380507617402955e6 3.9693129070440596e6 0.0
3.9693129070440596e6 -1.8435372802897092e7 0.0
0.0 0.0 0.0

-8.197154698362489e6 -2.9235934156748e6 0.0
-2.9235934156748e6 1.6354941359352514e7 0.0
0.0 0.0 0.0

-1.1343303590994468e7 1.0734779625718774e7 0.0
1.0734779625718774e7 1.802609196482204e7 0.0
0.0 0.0 0.0

1.3453255086301328e6 9.200692696632499e6 0.0
9.200692696632499e6 -9.224689744728085e6 0.0
0.0 0.0 0.0

2.3641427940579574e6 2.250408877559677e7 0.0
2.250408877559677e7 9.606201126125805e6 0.0
0.0 0.0 0.0

-71820.03136377646 1.9996310099282745e7 0.0
1.9996310099282745e7 276615.47587199515 0.0
0.0 0.0 0.0

-2.962657259695976e6 2.476552795631506e7 0.0
2.476552795631506e7 5.399095555703418e6 0.0
0.0 0.0 0.0

-1.1516192315568987e7 7.583401563229892e6 0.0
7.583401563229892e6 1.6940542304736994e7 0.0
0.0 0.0 0.0

17799.858791162726 1.3251397965606963e7 0.0
1.3251397965606963e7 -7.995645917482928e6 0.0
0.0 0.0 0.0

-2.36837480341659e6 2.4440508827470314e7 0.0
2.4440508827470314e7 5.964634859815557e6 0.0
0.0 0.0 0.0

-5.21884754432608e6 1.6371887192715118e7 0.0
1.6371887192715118e7 -4.332680910522201e7 0.0
0.0 0.0 0.0

-2.568100248545301e6 2.9847878831081804e7 0.0
2.9847878831081804e7 1.7003051091290559e6 0.0
0.0 0.0 0.0

-147087.59787363932 9.983833058382694e6 0.0
9.983833058382694e6 -5.0455782845720954e7 0.0
0.0 0.0 0.0

-1.3308346044160703e7 2.6449156486561257e7 0.0
2.6449156486561257e7 -1.0945589539786074e7 0.0
0.0 0.0 0.0

-2.503838819979738e6 2.9072244013570078e7 0.0
2.9072244013570078e7 1.5619913223567898e6 0.0
0.0 0.0 0.0

-1.0868774876615584e7 5.575145994478443e6 0.0
5.575145994478443e6 2.726915870748359e7 0.0
0.0 0.0 0.0

1.531974154462697e6 1.185029114014339e7 0.0
1.185029114014339e7 -2.467343614832881e7 0.0
0.0 0.0 0.0

-6.899405539211091e6 1.8707965120236684e7 0.0
1.8707965120236684e7 2.6021542897949703e7 0.0
0.0 0.0 0.0

966479.2945137788 2.2055596147185292e7 0.0
2.2055596147185292e7 -1.3238181958458655e7 0.0
0.0 0.0 0.0

-768566.9220399396 1.273940973578936e7 0.0
1.273940973578936e7 -8.856225027090333e6 0.0
0.0 0.0 0.0

2.580603718028795e6 3.0211614965042905e6 0.0
3.0211614965042905e6 -4.1805039629383825e7 0.0
0.0 0.0 0.0

5.449952983386086e6 1.796364658043554e7 0.0
1.796364658043554e7 1.8166509946143374e7 0.0
0.0 0.0 0.0

-753862.5514823674 2.888952360166512e7 0.0
2.888952360166512e7 -436738.0099900185 0.0
0.0 0.0 0.0

-1.5192259434968162e7 1.1143413861173145e7 0.0
1.1143413861173145e7 6.858252141925434e6 0.0
0.0 0.0 0.0

2.6166052084642593e6 3.0697593332659113e6 0.0
3.0697593332659113e6 -4.339248698540624e7 0.0
0.0 0.0 0.0

-1.550547914387479e6 2.676357218311862e7 0.0
2.676357218311862e7 1.0194218798835768e6 0.0
0.0 0.0 0.0

5.9022056322704805e6 1.8089533003267568e7 0.0
1.8089533003267568e7 2.1917415817898083e7 0.0
0.0 0.0 0.0

-8.379983206298755e6 2.660022101958887e7 0.0
2.660022101958887e7 6.11474410653889e6 0.0
0.0 0.0 0.0

1.7144306508095674e6 3.714406078513244e6 0.0
3.714406078513244e6 -5.550463235138048e7 0.0
0.0 0.0 0.0

-1.8740836840194208e6 3.0089479196054336e7 0.0
3.0089479196054336e7 1.768867332389113e6 0.0
0.0 0.0 0.0

5.787362737661822e6 1.9641699675963063e7 0.0
1.9641699675963063e7 4.221514229432116e7 0.0
0.0 0.0 0.0

2.2253539314142503e6 1.0782628416244434e7 0.0
1.0782628416244434e7 -2.730487960115961e7 0.0
0.0 0.0 0.0

-2.65119056485082e6 1.803230806733062e7 0.0
1.803230806733062e7 -1.1964221730825294e7 0.0
0.0 0.0 0.0

3.2258601238568645e7 2.6582439124107957e7 0.0
2.6582439124107957e7 1.5295632105648275e6 0.0
0.0 0.0 0.0

-4.484692488979635e6 2.0986665165952913e7 0.0
2.0986665165952913e7 -1.432964616016725e7 0.0
0.0 0.0 0.0

-9.384992491941947e6 147639.44581122624 0.0
147639.44581122624 1.707390456112427e7 0.0
0.0 0.0 0.0

-48160.17332991166 6.615423687844837e6 0.0
6.615423687844837e6 -1.2635350393314566e6 0.0
0.0 0.0 0.0

2.3673860683503468e6 4.415324531481951e6 0.0
4.415324531481951e6 -4.075262577996941e7 0.0
0.0 0.0 0.0

1.4875599231699929e6 8.535431825768521e6 0.0
8.535431825768521e6 -4.593102154157778e7 0.0
0.0 0.0 0.0

-2.282740879986324e6 2.6308921853368875e7 0.0
2.6308921853368875e7 233729.40518957912 0.0
0.0 0.0 0.0

2.6613950416019764e6 1.9530162913893886e7 0.0
1.9530162913893886e7 3.4676484875834055e7 0.0
0.0 0.0 0.0

2.3263879889304165e7 1.879467398907068e7 0.0
1.879467398907068e7 4.859708594457205e6 0.0
0.0 0.0 0.0

-1.175022295980399e7 7.365626437178668e6 0.0
7.365626437178668e6 2.4727222822385594e7 0.0
0.0 0.0 0.0

102015.32638924196 1.3204211904287586e7 0.0
1.3204211904287586e7 -3.843493016488569e7 0.0
0.0 0.0 0.0

-4.797367753858407e6 1.7475007152628135e7 0.0
1.7475007152628135e7 -3.9835679028339e7 0.0
0.0 0.0 0.0

7.80107928054248e6 1.9274635746097006e7 0.0
1.9274635746097006e7 5.7107200095030166e7 0.0
0.0 0.0 0.0

-3.264271047568823e6 2.3795535637472074e7 0.0
2.3795535637472074e7 1.3422704138981078e7 0.0
0.0 0.0 0.0

-7.12753236396751e6 1.897078285800555e7 0.0
1.897078285800555e7 2.5561903167247295e7 0.0
0.0 0.0 0.0

-1.6253130925423885e6 1.4510688713941159e7 0.0
1.4510688713941159e7 1.0789562225496639e7 0.0
0.0 0.0 0.0

-3.0219454145582533e6 1.846691098897899e7 0.0
1.846691098897899e7 -2.3338486930089813e7 0.0
0.0 0.0 0.0

-865438.1810158435 1.9849579220031247e7 0.0
1.9849579220031247e7 -1.2147068418266678e7 0.0
0.0 0.0 0.0

864166.0238508917 1.4900742936498228e7 0.0
1.4900742936498228e7 -1.983491931262647e7 0.0
0.0 0.0 0.0

2.568917525687659e7 2.8178865766906712e7 0.0
2.8178865766906712e7 -3.6075473032576554e6 0.0
0.0 0.0 0.0

-8.939948399660245e6 -881374.7365181103 0.0
-881374.7365181103 3.521944482202752e7 0.0
0.0 0.0 0.0

1.6777976609947248e6 2.0550093462786343e7 0.0
2.0550093462786343e7 -2.0580373573673326e6 0.0
0.0 0.0 0.0

1.5774276855614292e6 3.491152014907297e7 0.0
3.491152014907297e7 -2.0977092359901154e6 0.0
0.0 0.0 0.0

-3.6290124899584213e6 2.374973159892393e7 0.0
2.374973159892393e7 1.418077059952218e7 0.0
0.0 0.0 0.0

3.2776052113888413e6 3.4073629171451963e6 0.0
3.4073629171451963e6 -2.570371823114527e7 0.0
0.0 0.0 0.0

806351.8774219104 8.233878653813554e6 0.0
8.233878653813554e6 -1.0428542704711946e7 0.0
0.0 0.0 0.0

2.1590180500632795e6 2.1348089450328313e7 0.0
2.1348089450328313e7 8.791453701507237e6 0.0
0.0 0.0 0.0

2.2724115063549258e7 4.80228813525521e7 0.0
4.80228813525521e7 -1.2327366296559907e7 0.0
0.0 0.0 0.0

-7.838175382835731e6 9.18160344125016e6 0.0
9.18160344125016e6 4.7646191244604155e7 0.0
0.0 0.0 0.0

1.709905775213221e6 2.2187108355964594e7 0.0
2.2187108355964594e7 -7.443883983427567e6 0.0
0.0 0.0 0.0

-2.0840201074489788e6 2.0265876714647673e7 0.0
2.0265876714647673e7 -1.5053075996359212e7 0.0
0.0 0.0 0.0

-697602.9692133213 1.161641568034693e7 0.0
1.161641568034693e7 -7.455933343343623e6 0.0
0.0 0.0 0.0

-1.2081933298138874e6 5.522201860791762e6 0.0
5.522201860791762e6 -2.830483340141624e6 0.0
0.0 0.0 0.0

5.935248242056725e6 2.309853257613838e7 0.0
2.309853257613838e7 -4.270779722917734e6 0.0
0.0 0.0 0.0

-4.283861067149456e6 1.822642825274314e7 0.0
1.822642825274314e7 -3.2209126325370487e7 0.0
0.0 0.0 0.0

2.0361608205912001e6 2.9718670038352283e6 0.0
2.9718670038352283e6 -5.0351264045127414e7 0.0
0.0 0.0 0.0

-3.7904777708948674e6 2.4310287700515665e7 0.0
2.4310287700515665e7 1.2117989412761018e7 0.0
0.0 0.0 0.0

1.6582497853293568e6 9.388755438803123e6 0.0
9.388755438803123e6 -3.628086228394384e7 0.0
0.0 0.0 0.0

1.6983465457964987e6 3.702504126810801e6 0.0
3.702504126810801e6 -5.626166452471973e7 0.0
0.0 0.0 0.0

-2.946117965580469e6 2.240037208040189e7 0.0
2.240037208040189e7 1.523419715163845e7 0.0
0.0 0.0 0.0

-5.680185800637439e6 1.9387718807406142e7 0.0
1.9387718807406142e7 -1.9265818219408e7 0.0
0.0 0.0 0.0

-1.1035220425038079e7 9.353173732792046e6 0.0
9.353173732792046e6 2.2015832454684377e7 0.0
0.0 0.0 0.0

-1.4422121709188344e6 2.8288759997823466e7 0.0
2.8288759997823466e7 1.1499655693072944e6 0.0
0.0 0.0 0.0

-303090.2882543169 1.1819514215594236e7 0.0
1.1819514215594236e7 -5.269053254480245e6 0.0
0.0 0.0 0.0

-5.224202251391657e6 1.481789731446929e7 0.0
1.481789731446929e7 1.3338853430903543e7 0.0
0.0 0.0 0.0

-8.718666097162522e6 -709279.3155817942 0.0
-709279.3155817942 3.5549851086163186e7 0.0
0.0 0.0 0.0

1.3586899225167353e6 1.5154616597173154e7 0.0
1.5154616597173154e7 -1.8480366623977378e7 0.0
0.0 0.0 0.0

786959.8154397213 3.2923180020672653e7 0.0
3.2923180020672653e7 -1.4341791814551025e6 0.0
0.0 0.0 0.0

-9.7689851104397e6 8.416890458120573e6 0.0
8.416890458120573e6 1.8274305819790564e7 0.0
0.0 0.0 0.0

322059.5117361825 8.657278393985838e6 0.0
8.657278393985838e6 -4.982352629509285e7 0.0
0.0 0.0 0.0

-2.5098959345071134e6 1.2732172483499512e7 0.0
1.2732172483499512e7 -3.238583310197188e6 0.0
0.0 0.0 0.0

1.0662594960441321e7 2.3899293577193055e7 0.0
2.3899293577193055e7 1.2849642910672553e7 0.0
0.0 0.0 0.0

4.452408277294818e7 2.4917639611031774e7 0.0
2.4917639611031774e7 9.153934193409754e6 0.0
0.0 0.0 0.0

3.0892868111752747e6 6.2734178354763035e6 0.0
6.2734178354763035e6 -2.3428712908548605e7 0.0
0.0 0.0 0.0

-6.331406705125215e6 1.8084603612511095e7 0.0
1.8084603612511095e7 -4.066613762515232e7 0.0
0.0 0.0 0.0

2.835472450439792e6 6.207754764426232e6 0.0
6.207754764426232e6 -2.467859730707753e7 0.0
0.0 0.0 0.0

3.490886909252614e6 3.4466717827026807e6 0.0
3.4466717827026807e6 -2.6688706547058627e7 0.0
0.0 0.0 0.0

3.6944287251868546e7 1.5649675509863582e7 0.0
1.5649675509863582e7 1.941660170595467e6 0.0
0.0 0.0 0.0

-1.1445063764815077e7 3.979898958761625e7 0.0
3.979898958761625e7 3.375307348961279e6 0.0
0.0 0.0 0.0

-4.0111909228175795e6 1.6660804058932487e7 0.0
1.6660804058932487e7 -3.659999815695805e7 0.0
0.0 0.0 0.0

-1.232361031665799e7 2.480112850588209e7 0.0
2.480112850588209e7 -3.561090779007855e6 0.0
0.0 0.0 0.0

3.271617447459113e6 3.391090959567693e6 0.0
3.391090959567693e6 -3.492001227805733e7 0.0
0.0 0.0 0.0

-8.729742892690286e6 2.6383664553933296e7 0.0
2.6383664553933296e7 6.855181743412586e6 0.0
0.0 0.0 0.0

1.0698821955553219e7 3.345737878100405e7 0.0
3.345737878100405e7 -5.277436683473281e6 0.0
0.0 0.0 0.0

-9.558540004800014e6 1.1431656529497214e7 0.0
1.1431656529497214e7 3.617075170855054e7 0.0
0.0 0.0 0.0

1.5691748763454985e7 4.668636442424503e7 0.0
4.668636442424503e7 -7.737943460428692e6 0.0
0.0 0.0 0.0

-879927.8578763716 2.1036647237993088e7 0.0
2.1036647237993088e7 -803912.2305605252 0.0
0.0 0.0 0.0

2.4419237393207327e6 2.939799869705206e6 0.0
2.939799869705206e6 -4.451680649327855e7 0.0
0.0 0.0 0.0

3.2968302141019132e7 2.1208674449044745e7 0.0
2.1208674449044745e7 7.326622774924187e6 0.0
0.0 0.0 0.0

-2.361986168471773e6 2.1843943726399165e7 0.0
2.1843943726399165e7 1.5548788064146303e7 0.0
0.0 0.0 0.0

1.8610166585722808e6 6.419956988916693e6 0.0
6.419956988916693e6 -4.0002282283197716e7 0.0
0.0 0.0 0.0

1.3269855669539766e6 2.6455035647749856e7 0.0
2.6455035647749856e7 -6.782192143840439e6 0.0
0.0 0.0 0.0

1.7510807790602506e6 2.1385323318488933e7 0.0
2.1385323318488933e7 -8.424330255555548e6 0.0
0.0 0.0 0.0

-3.939455826453127e6 1.9686395389396634e7 0.0
1.9686395389396634e7 -1.4738509880667886e7 0.0
0.0 0.0 0.0

-929967.5326015688 2.0795698012822438e7 0.0
2.0795698012822438e7 -1.0592989321797375e7 0.0
0.0 0.0 0.0

1.3831178950201325e7 2.4542495187581405e7 0.0
2.4542495187581405e7 1.2855528070043579e7 0.0
0.0 0.0 0.0

-106784.49599727988 6.983812312685652e6 0.0
6.983812312685652e6 -6.983707410374002e7 0.0
0.0 0.0 0.0

-4.83175513598288e6 2.513485858495791e7 0.0
2.513485858495791e7 1.1592452425027959e7 0.0
0.0 0.0 0.0

1.0448170229726103e6 4.565833300447719e6 0.0
4.565833300447719e6 -3.5040124523518058e6 0.0
0.0 0.0 0.0

-8.826826912779575e6 1.6104114840532606e7 0.0
1.6104114840532606e7 2.8296362599066984e7 0.0
0.0 0.0 0.0

3.707594073792831e6 3.957555890491236e6 0.0
3.957555890491236e6 -2.3235442052198417e7 0.0
0.0 0.0 0.0

-7.888162958918106e6 -1.3626407081891722e6 0.0
-1.3626407081891722e6 4.235351314761932e7 0.0
0.0 0.0 0.0

1.2598277664086903e6 1.6062929054721523e7 0.0
1.6062929054721523e7 -2.2512774908955317e7 0.0
0.0 0.0 0.0

748616.4533790441 2.3649895777061284e6 0.0
2.3649895777061284e6 -3.5349957055753176e6 0.0
0.0 0.0 0.0

4.771337701452363e6 1.8912721710183736e7 0.0
1.8912721710183736e7 2.1021223761085108e7 0.0
0.0 0.0 0.0

-2.557683367128906e6 2.9333328742998876e7 0.0
2.9333328742998876e7 3.874913594309168e6 0.0
0.0 0.0 0.0

-8.713849600359125e6 50545.219959294496 0.0
50545.219959294496 4.045449116754463e7 0.0
0.0 0.0 0.0

-1.4207359110588222e6 2.152842116510475e7 0.0
2.152842116510475e7 9.328268518577985e6 0.0
0.0 0.0 0.0

6.357778606267728e6 2.4533766590698965e7 0.0
2.4533766590698965e7 -5.338505940553008e6 0.0
0.0 0.0 0.0

-2.323909457078988e6 2.542435072794667e7 0.0
2.542435072794667e7 8283.343092494644 0.0
0.0 0.0 0.0

-5.418247303771337e6 2.273551984527896e7 0.0
2.273551984527896e7 -1.1076971390650816e7 0.0
0.0 0.0 0.0

-1.775084092681241e6 2.556727482957881e7 0.0
2.556727482957881e7 1.765468358648561e6 0.0
0.0 0.0 0.0

-6.623423132492692e6 1.801917179941229e7 0.0
1.801917179941229e7 -2.2159154164009348e7 0.0
0.0 0.0 0.0

2.154586522914356e7 2.7455357729111772e7 0.0
2.7455357729111772e7 -3.801580885391796e6 0.0
0.0 0.0 0.0

-2.023863223720347e6 1.9134456853190973e7 0.0
1.9134456853190973e7 -1.6393079099127896e7 0.0
0.0 0.0 0.0

-3.283316088964261e6 2.0502796997133054e7 0.0
2.0502796997133054e7 2.561218395834129e7 0.0
0.0 0.0 0.0

5.652994289853339e6 2.2546887067382246e7 0.0
2.2546887067382246e7 1.5116952920279982e7 0.0
0.0 0.0 0.0

1.8924983262448907e6 1.0919263065416932e7 0.0
1.0919263065416932e7 -2.6374588014968626e7 0.0
0.0 0.0 0.0

-6.643475171823031e6 1.4039876466406807e7 0.0
1.4039876466406807e7 1.2334603084553666e7 0.0
0.0 0.0 0.0

-3.1002566285153083e6 3.408614482669325e7 0.0
3.408614482669325e7 1.250640012613545e6 0.0
0.0 0.0 0.0

-4.933428462425105e6 2.090383886836126e7 0.0
2.090383886836126e7 1.7884874368813317e7 0.0
0.0 0.0 0.0

4.272492105128495e6 3.6184835030645326e7 0.0
3.6184835030645326e7 -1.820967766389717e6 0.0
0.0 0.0 0.0

703618.5360298837 1.5696688158318596e7 0.0
1.5696688158318596e7 -2.3990618190161336e7 0.0
0.0 0.0 0.0

-2.50236260143807e7 2.857346403497359e7 0.0
2.857346403497359e7 -1.0491036838525584e7 0.0
0.0 0.0 0.0

2.38797312904891e6 4.726606090059252e6 0.0
4.726606090059252e6 -4.954277355249546e7 0.0
0.0 0.0 0.0

1.4302070654820843e7 3.630062625681643e7 0.0
3.630062625681643e7 -5.061230686505629e6 0.0
0.0 0.0 0.0

-2.034907964913022e7 3.3963419406931564e7 0.0
3.3963419406931564e7 6.659568502797843e6 0.0
0.0 0.0 0.0

1.748666697965487e6 2.0184074661636394e7 0.0
2.0184074661636394e7 2.161234933787952e7 0.0
0.0 0.0 0.0

-3.8288140701070845e7 3.4307727724420235e7 0.0
3.4307727724420235e7 5.972851212282136e6 0.0
0.0 0.0 0.0

2.6499875092137307e6 3.0013191165843243e6 0.0
3.0013191165843243e6 -4.5903218818377554e7 0.0
0.0 0.0 0.0

-4.450555788991194e6 2.0662685226675164e7 0.0
2.0662685226675164e7 1.9269128054551803e7 0.0
0.0 0.0 0.0

-1.0568091912290648e7 8.183861917545097e6 0.0
8.183861917545097e6 1.5377143842152808e7 0.0
0.0 0.0 0.0

3.3363092430321835e6 3.010599518594896e6 0.0
3.010599518594896e6 -2.452465851867741e7 0.0
0.0 0.0 0.0

869025.6877070405 2.1307907406597868e7 0.0
2.1307907406597868e7 -1.0391968079957705e7 0.0
0.0 0.0 0.0

-7.230421147383948e6 4.138540253519116e7 0.0
4.138540253519116e7 4.748966731573677e6 0.0
0.0 0.0 0.0

-1.3986202564745236e7 1.8603816157808587e7 0.0
1.8603816157808587e7 5.359762011432408e6 0.0
0.0 0.0 0.0

-3.847015121078607e7 2.9039607086396046e7 0.0
2.9039607086396046e7 -468541.8753038384 0.0
0.0 0.0 0.0

4.717865798191137e7 2.4946003242877904e7 0.0
2.4946003242877904e7 1.7848809257003937e7 0.0
0.0 0.0 0.0

-8.410344926499072e6 1.697437794038639e7 0.0
1.697437794038639e7 -8.932243713913713e7 0.0
0.0 0.0 0.0

-284196.1438261694 2.014981003467794e7 0.0
2.014981003467794e7 -1.343599284373701e7 0.0
0.0 0.0 0.0

-2.910822589000568e6 1.9946695119554583e7 0.0
1.9946695119554583e7 2.5751469461685363e7 0.0
0.0 0.0 0.0

1.4216217996049281e6 2.4230621410063047e7 0.0
2.4230621410063047e7 -1.0108052693464149e7 0.0
0.0 0.0 0.0

-882708.70918255 2.8102182828058716e7 0.0
2.8102182828058716e7 -580953.1504206329 0.0
0.0 0.0 0.0

3.401901483812865e6 1.772261322293817e7 0.0
1.772261322293817e7 1.2112930964668648e7 0.0
0.0 0.0 0.0

3.6221733705536267e6 3.531815428359698e7 0.0
3.531815428359698e7 -1.7791066128602778e6 0.0
0.0 0.0 0.0

-1.0736402149204709e7 9.027807815697474e6 0.0
9.027807815697474e6 1.839144814517539e7 0.0
0.0 0.0 0.0

6.2708941265494816e7 3.7895640834088646e7 0.0
3.7895640834088646e7 2.6392454889927547e7 0.0
0.0 0.0 0.0

2.1303569507314702e6 2.800545010693458e7 0.0
2.800545010693458e7 -6.517745539600462e6 0.0
0.0 0.0 0.0

4.5458689207243305e6 1.6870399495164137e7 0.0
1.6870399495164137e7 1.683027755912565e7 0.0
0.0 0.0 0.0

-1.2239166542473752e7 2.6536923132896528e7 0.0
2.6536923132896528e7 1.9079985259904917e6 0.0
0.0 0.0 0.0

949757.3242640719 1.8949312177012987e7 0.0
1.8949312177012987e7 1.8191401436243184e7 0.0
0.0 0.0 0.0

925310.0319002061 2.6399657352135263e7 0.0
2.6399657352135263e7 -6.328806675318461e6 0.0
0.0 0.0 0.0

2.074914084080167e6 8.310058653529704e6 0.0
8.310058653529704e6 -3.548448963843267e7 0.0
0.0 0.0 0.0

-2.7556556806355533e6 2.3612502540837515e7 0.0
2.3612502540837515e7 6.491812840573611e6 0.0
0.0 0.0 0.0

-6.701939164131239e6 2.3808198474919755e7 0.0
2.3808198474919755e7 4.016900595145707e6 0.0
0.0 0.0 0.0

1.2260330973133752e6 8.271610284576079e6 0.0
8.271610284576079e6 -1.2740785465064233e7 0.0
0.0 0.0 0.0

-3.502467933305488e6 2.442327089208325e7 0.0
2.442327089208325e7 1.2295127709312594e7 0.0
0.0 0.0 0.0

-7.36354260572302e6 6.433562089535305e6 0.0
6.433562089535305e6 5.152652569769103e7 0.0
0.0 0.0 0.0

-1.085724954581494e6 1.2139699053454498e7 0.0
1.2139699053454498e7 -2.297550776866009e6 0.0
0.0 0.0 0.0

-1.2073002396708693e7 2.4805006036238287e7 0.0
2.4805006036238287e7 -1.0252495204133594e7 0.0
0.0 0.0 0.0

4.363445964966743e7 3.1130956014920745e7 0.0
3.1130956014920745e7 1.9151233357407764e7 0.0
0.0 0.0 0.0

195834.44361789897 1.5229364877441645e7 0.0
1.5229364877441645e7 -3.0925323034697186e7 0.0
0.0 0.0 0.0

2.602801590516001e6 6.481092199195548e6 0.0
6.481092199195548e6 -3.7538550851030454e7 0.0
0.0 0.0 0.0

1.0245922122113466e7 2.2860536409585834e7 0.0
2.2860536409585834e7 4.715267108416262e6 0.0
0.0 0.0 0.0

-2.9731497087143473e6 1.2277909445312394e7 0.0
1.2277909445312394e7 1.608256755079312e7 0.0
0.0 0.0 0.0

-1.3027463018299593e6 2.7011826722140927e7 0.0
2.7011826722140927e7 53826.76413501502 0.0
0.0 0.0 0.0

-949699.2054659897 2.3191089593641896e7 0.0
2.3191089593641896e7 -7.893736759472942e6 0.0
0.0 0.0 0.0

-187573.11488608038 2.344625120276607e7 0.0
2.344625120276607e7 -9.83463740907209e6 0.0
0.0 0.0 0.0

-1.1728472320641459e6 2.0237992907165345e7 0.0
2.0237992907165345e7 -8.413929934377622e6 0.0
0.0 0.0 0.0

1.924272022731796e6 9.107716572950935e6 0.0
9.107716572950935e6 -1.1487057392826436e7 0.0
0.0 0.0 0.0

3.643632049287687e7 2.817664657028911e7 0.0
2.817664657028911e7 1.6390671718498182e7 0.0
0.0 0.0 0.0

2.910440590315832e6 1.8597345193542425e7 0.0
1.8597345193542425e7 1.0816002316707797e7 0.0
0.0 0.0 0.0

-3.4577713152420316e6 3.3257854373383682e7 0.0
3.3257854373383682e7 3.356788608921763e6 0.0
0.0 0.0 0.0

-3.923709505454413e7 2.346992611466311e7 0.0
2.346992611466311e7 6.056336166067457e6 0.0
0.0 0.0 0.0

3.6358473330428265e6 3.647584293335722e6 0.0
3.647584293335722e6 -2.1721400708109852e7 0.0
0.0 0.0 0.0

758842.2713755784 2.054243243099532e7 0.0
2.054243243099532e7 7.387867664395122e6 0.0
0.0 0.0 0.0

-4.979671862346414e6 1.7223273511296783e7 0.0
1.7223273511296783e7 -2.1185230969050284e7 0.0
0.0 0.0 0.0

-298864.6756679481 1.8255614663937077e7 0.0
1.8255614663937077e7 -2.257591762462226e7 0.0
0.0 0.0 0.0

-9.216328132607417e6 -2.0068604556565555e6 0.0
-2.0068604556565555e6 2.8975751034681287e7 0.0
0.0 0.0 0.0

1.0436863579935282e6 1.4301582908770215e7 0.0
1.4301582908770215e7 -2.1311676425357588e7 0.0
0.0 0.0 0.0

-1.104499982846874e7 1.794588305351957e7 0.0
1.794588305351957e7 -5.3326822104351625e7 0.0
0.0 0.0 0.0

1.2353423481492028e6 1.366060556326447e7 0.0
1.366060556326447e7 -2.2540431973599125e7 0.0
0.0 0.0 0.0

2.19776328787775e6 2.1985941359535802e7 0.0
2.1985941359535802e7 -9.55398346125933e6 0.0
0.0 0.0 0.0

3.435813826511059e7 2.313714213172766e7 0.0
2.313714213172766e7 8.001484495573204e6 0.0
0.0 0.0 0.0

-6.8551270117820725e6 1.5587596428195959e7 0.0
1.5587596428195959e7 3.730370887185665e7 0.0
0.0 0.0 0.0

-5.714728360227533e6 2.3822649642167915e7 0.0
2.3822649642167915e7 -1.1723297495121207e7 0.0
0.0 0.0 0.0

375792.8918587534 1.897909347323666e7 0.0
1.897909347323666e7 925384.1465775454 0.0
0.0 0.0 0.0

-6.617773027198467e6 2.1668800534046933e7 0.0
2.1668800534046933e7 -1.5019204545373103e7 0.0
0.0 0.0 0.0

3.441731655478335e7 2.8317446049757417e7 0.0
2.8317446049757417e7 1.5253101188872373e7 0.0
0.0 0.0 0.0

-4.229479233445493e6 2.4502381302274574e7 0.0
2.4502381302274574e7 1.3036893094573276e7 0.0
0.0 0.0 0.0

2.126119102123671e6 2.1701523835555483e7 0.0
2.1701523835555483e7 -3.245912988167282e6 0.0
0.0 0.0 0.0

265740.5683911223 3.0089374735534504e7 0.0
3.0089374735534504e7 -1.6682065010343345e6 0.0
0.0 0.0 0.0

-2.666106749158356e6 2.3584020105682716e7 0.0
2.3584020105682716e7 7.38884178563675e6 0.0
0.0 0.0 0.0

-4.985385181025952e6 2.0280023853278516e6 0.0
2.0280023853278516e6 7.711591848601347e7 0.0
0.0 0.0 0.0

634279.9760475289 2.1384997198086485e7 0.0
2.1384997198086485e7 -1.4662348333826516e7 0.0
0.0 0.0 0.0

-1.800971035798911e6 2.941763444004837e7 0.0
2.941763444004837e7 2.1480531254227273e6 0.0
0.0 0.0 0.0

-659518.8161793876 3.953826266333581e6 0.0
3.953826266333581e6 1.1820191695743368e6 0.0
0.0 0.0 0.0

-7.771160517375048e6 1.75876227976676e7 0.0
1.75876227976676e7 2.736076324760744e7 0.0
0.0 0.0 0.0

-4.0116499923972273e6 1.8779892860384136e7 0.0
1.8779892860384136e7 -1.4140845351107439e7 0.0
0.0 0.0 0.0

2.965084321995219e6 3.6344282092981036e6 0.0
3.6344282092981036e6 -3.0384091472145736e7 0.0
0.0 0.0 0.0

-1.7801349202884014e6 3.45894660544503e7 0.0
3.45894660544503e7 2.0157503530550594e6 0.0
0.0 0.0 0.0

1.664033911214104e6 1.4597754046241185e7 0.0
1.4597754046241185e7 -1.9443919121920187e7 0.0
0.0 0.0 0.0

-5.159915733682651e6 2.0100446745861918e7 0.0
2.0100446745861918e7 2.104905731863074e7 0.0
0.0 0.0 0.0

1.1097080516281463e6 6.262483612432453e6 0.0
6.262483612432453e6 -6.463389753324997e7 0.0
0.0 0.0 0.0

-4.234122543331899e6 3.2858610562511463e7 0.0
3.2858610562511463e7 2.8514128952486105e6 0.0
0.0 0.0 0.0

-8.645147721266989e6 1.816531456919814e7 0.0
1.816531456919814e7 -3.1507419465342212e7 0.0
0.0 0.0 0.0

3.4460851671197824e6 2.6149230319581665e6 0.0
2.6149230319581665e6 -1.419109614408862e7 0.0
0.0 0.0 0.0

-702035.5961652229 1.1313920925790194e7 0.0
1.1313920925790194e7 -3.8676529255497684e6 0.0
0.0 0.0 0.0

-1.716918834821109e7 3.4079031504116915e7 0.0
3.4079031504116915e7 5.841208086078022e6 0.0
0.0 0.0 0.0

5.971514902832388e6 1.691135300732062e7 0.0
1.691135300732062e7 1.9828927925022576e7 0.0
0.0 0.0 0.0

-8.436202067232756e6 3.899634562393519e7 0.0
3.899634562393519e7 3.0701722211531717e6 0.0
0.0 0.0 0.0

-1.073840778093681e7 7.110661803077693e6 0.0
7.110661803077693e6 2.819272423112413e7 0.0
0.0 0.0 0.0

-223515.25595689192 9.482558956708336e6 0.0
9.482558956708336e6 -7.208484777300203e7 0.0
0.0 0.0 0.0

8.14974174635758e7 2.738937006047998e7 0.0
2.738937006047998e7 7.216067349430505e6 0.0
0.0 0.0 0.0

-1.2177881183179982e6 2.7822863218976796e7 0.0
2.7822863218976796e7 219533.18988446821 0.0
0.0 0.0 0.0

-5.469187551831966e6 2.8924691568725247e7 0.0
2.8924691568725247e7 6.8264324627419785e6 0.0
0.0 0.0 0.0

-2.244928591192573e6 2.5805722945297115e7 0.0
2.5805722945297115e7 4.810529040006824e6 0.0
0.0 0.0 0.0

8.173739921154005e6 2.067406223613442e7 0.0
2.067406223613442e7 5.8127768658656605e7 0.0
0.0 0.0 0.0

2.542459494948663e6 3.9364173511742433e6 0.0
3.9364173511742433e6 -3.572711318334111e7 0.0
0.0 0.0 0.0

195300.00629282137 1.3740169647899427e7 0.0
1.3740169647899427e7 -9.011747772871008e6 0.0
0.0 0.0 0.0

8.585430409204688e6 3.3349929369916186e7 0.0
3.3349929369916186e7 -4.805501679480027e6 0.0
0.0 0.0 0.0

436446.9189198781 1.1266272689740006e7 0.0
1.1266272689740006e7 -4.048480492545491e7 0.0
0.0 0.0 0.0

-2.1010690839222074e7 2.0971375070630908e7 0.0
2.0971375070630908e7 4.951466180281998e6 0.0
0.0 0.0 0.0

-6.635117852242252e6 2.412745639952987e7 0.0
2.412745639952987e7 2.7213255029421463e6 0.0
0.0 0.0 0.0

522218.19375871506 1.9470541508450497e7 0.0
1.9470541508450497e7 4.360377854339087e6 0.0
0.0 0.0 0.0

1.7911934834316233e6 1.3966518881009078e7 0.0
1.3966518881009078e7 -2.076492478595575e7 0.0
0.0 0.0 0.0

3.4372492687160354e6 1.9859832775285438e7 0.0
1.9859832775285438e7 3.7201488595558345e7 0.0
0.0 0.0 0.0

1.3846297305029098e7 3.357841600232332e7 0.0
3.357841600232332e7 -5.6957166343853045e6 0.0
0.0 0.0 0.0

-4.523785420661558e7 4.1286573733930443e6 0.0
4.1286573733930443e6 6.2301980220736675e6 0.0
0.0 0.0 0.0

4.7432838383091405e7 4.5315040969091594e7 0.0
4.5315040969091594e7 -9.439306814978657e6 0.0
0.0 0.0 0.0

1.3176900951585166e7 3.3864747722333066e7 0.0
3.3864747722333066e7 -6.155329662199433e6 0.0
0.0 0.0 0.0

3.3102528459072877e6 3.724619488372013e6 0.0
3.724619488372013e6 -2.0926934864411023e7 0.0
0.0 0.0 0.0

-2.9668437971692933e6 2.9485969788994867e7 0.0
2.9485969788994867e7 2.3728366244226787e6 0.0
0.0 0.0 0.0

4.1290422202490434e7 1.6097662098548787e7 0.0
1.6097662098548787e7 2.447177073461648e6 0.0
0.0 0.0 0.0

-6.234893290226061e6 8.611337843930697e6 0.0
8.611337843930697e6 5.569336391845989e7 0.0
0.0 0.0 0.0

631961.0746095367 2.1630652813888796e7 0.0
2.1630652813888796e7 -1.41692552119612e7 0.0
0.0 0.0 0.0

2.600852042277057e7 1.9832734552547134e7 0.0
1.9832734552547134e7 5.3012310511321835e6 0.0
0.0 0.0 0.0

1.5873126624436332e6 2.2014300737522043e7 0.0
2.2014300737522043e7 -1.1289561524089314e7 0.0
0.0 0.0 0.0

2.750586759942541e6 4.500108813260249e6 0.0
4.500108813260249e6 -3.847045080343322e7 0.0
0.0 0.0 0.0

-716965.1421858922 2.760216638574943e7 0.0
2.760216638574943e7 -1.5601603527311413e6 0.0
0.0 0.0 0.0

-4.359151024938316e6 1.7582113021039777e7 0.0
1.7582113021039777e7 -1.917550395545527e7 0.0
0.0 0.0 0.0

2.5943952413056744e6 2.9617575256691318e7 0.0
2.9617575256691318e7 -5.272138669671893e6 0.0
0.0 0.0 0.0

-4.729287614996899e6 1.1374818677632121e7 0.0
1.1374818677632121e7 5.774823567662518e7 0.0
0.0 0.0 0.0

-1.0393257043725094e6 1.946677263342593e7 0.0
1.946677263342593e7 -1.0666222524243927e7 0.0
0.0 0.0 0.0

1.828840587582754e6 1.0576967702613242e7 0.0
1.0576967702613242e7 -2.8393844297821935e7 0.0
0.0 0.0 0.0

4.727318345321637e6 2.4739790891976327e7 0.0
2.4739790891976327e7 -6.580481228984073e6 0.0
0.0 0.0 0.0

-3.040375781079935e6 1.90204441672988e7 0.0
1.90204441672988e7 -9.930302102609094e6 0.0
0.0 0.0 0.0

-7.433794239815839e6 3.8288279849757785e6 0.0
3.8288279849757785e6 5.153240862269645e7 0.0
0.0 0.0 0.0

2.8207862180421595e6 2.037011073916132e7 0.0
2.037011073916132e7 2.2624952188701537e7 0.0
0.0 0.0 0.0

198530.93539404497 1.0878225310790146e7 0.0
1.0878225310790146e7 -4.369525825397417e7 0.0
0.0 0.0 0.0

3.381416815287154e6 2.9342191215115763e7 0.0
2.9342191215115763e7 -5.123272276027761e6 0.0
0.0 0.0 0.0

3.850041547465964e6 2.284620486135114e7 0.0
2.284620486135114e7 1.4540729082136508e7 0.0
0.0 0.0 0.0

2.5670292658746764e6 9.480051812352497e6 0.0
9.480051812352497e6 -2.779485073720836e7 0.0
0.0 0.0 0.0

6.1246824972810484e7 2.7281159607232872e7 0.0
2.7281159607232872e7 1.399427008457046e7 0.0
0.0 0.0 0.0

2.539066616510813e6 2.8694991187111203e7 0.0
2.8694991187111203e7 -5.313784992712282e6 0.0
0.0 0.0 0.0

-8.999298981911646e6 -1.6098205763965342e6 0.0
-1.6098205763965342e6 3.2223205775966957e7 0.0
0.0 0.0 0.0

-8.542217517578475e6 4.1401115147853526e6 0.0
4.1401115147853526e6 4.797573692180488e7 0.0
0.0 0.0 0.0

3.3029905074557737e6 1.8812540237367924e6 0.0
1.8812540237367924e6 -3.2312102198229697e7 0.0
0.0 0.0 0.0

-2.8536186116799014e6 2.535823770709789e7 0.0
2.535823770709789e7 4.212768917236291e6 0.0
0.0 0.0 0.0

-1.644082972847297e6 1.9440383402845237e7 0.0
1.9440383402845237e7 -9.33231730883394e6 0.0
0.0 0.0 0.0

1.3924272300009215e6 2.361218223674777e7 0.0
2.361218223674777e7 -1.1354014035679888e7 0.0
0.0 0.0 0.0

-9.842053156959018e6 878445.8664909934 0.0
878445.8664909934 2.4862494429906778e7 0.0
0.0 0.0 0.0

221886.70992108807 2.3927111319844875e7 0.0
2.3927111319844875e7 -8.262743853280434e6 0.0
0.0 0.0 0.0

-7.737565280727077e6 3.697862458472049e6 0.0
3.697862458472049e6 5.133739951480877e7 0.0
0.0 0.0 0.0

9.88970009791862e6 2.158581404836345e7 0.0
2.158581404836345e7 6.405737581063239e6 0.0
0.0 0.0 0.0

-311170.3121950496 1.3134444807687426e7 0.0
1.3134444807687426e7 -4.1679379042274125e7 0.0
0.0 0.0 0.0

817186.7703377493 1.0877087244527156e7 0.0
1.0877087244527156e7 -4.394043186626078e7 0.0
0.0 0.0 0.0

-7.898715784016568e6 1.7201092936203945e7 0.0
1.7201092936203945e7 2.8843957938126348e7 0.0
0.0 0.0 0.0

-2.43038070329581e6 2.127027739074117e7 0.0
2.127027739074117e7 5.288490277060978e6 0.0
0.0 0.0 0.0

496130.7727920092 4.822293294338548e6 0.0
4.822293294338548e6 -1.7265394743166475e6 0.0
0.0 0.0 0.0

-1.3244618762697603e6 2.0470268140247483e7 0.0
2.0470268140247483e7 -9.080354623345468e6 0.0
0.0 0.0 0.0

-3.348618538002312e6 2.7793631382549256e7 0.0
2.7793631382549256e7 6.965119526000173e6 0.0
0.0 0.0 0.0

7.269192862203182e6 2.055033992832379e7 0.0
2.055033992832379e7 4.636131299797024e7 0.0
0.0 0.0 0.0

1.4325159475171177e7 2.4393800440707527e7 0.0
2.4393800440707527e7 -1.958429955074883e6 0.0
0.0 0.0 0.0

-4.51193626614856e6 1.6285386916052413e6 0.0
1.6285386916052413e6 7.475967840317744e7 0.0
0.0 0.0 0.0

-7.201445333013272e6 1.119251112429421e7 0.0
1.119251112429421e7 4.5673548402203076e7 0.0
0.0 0.0 0.0

-8.21233957684944e6 1.7141178873806823e7 0.0
1.7141178873806823e7 2.3687089878516875e7 0.0
0.0 0.0 0.0

2.3071827313700756e6 1.942954255829922e7 0.0
1.942954255829922e7 1.161913512049738e7 0.0
0.0 0.0 0.0

-1.0620197462383341e7 4.688695282937548e6 0.0
4.688695282937548e6 1.8617706251238856e7 0.0
0.0 0.0 0.0

-1.1091802208133373e7 2.197241429600237e7 0.0
2.197241429600237e7 -7.63590383236281e6 0.0
0.0 0.0 0.0

3.1356721435505114e6 4.969097020608795e6 0.0
4.969097020608795e6 -3.403718813453108e7 0.0
0.0 0.0 0.0

-8.344976513023261e6 1.7822834507880326e7 0.0
1.7822834507880326e7 -4.499087234872426e7 0.0
0.0 0.0 0.0

1.9777953516949327e6 1.851826888302557e7 0.0
1.851826888302557e7 7.467225166071992e6 0.0
0.0 0.0 0.0

1.9163602987453207e7 3.007326107550655e7 0.0
3.007326107550655e7 -5.756195086340826e6 0.0
0.0 0.0 0.0

2.1064915398566406e6 2.2648094889926724e7 0.0
2.2648094889926724e7 -8.515259418225322e6 0.0
0.0 0.0 0.0

-2.481485697124963e7 2.764783666409234e7 0.0
2.764783666409234e7 -8.048367578590412e6 0.0
0.0 0.0 0.0

-1.203140636034818e6 2.869934277618666e7 0.0
2.869934277618666e7 -1.8037648003788653e6 0.0
0.0 0.0 0.0

-1.8648723044913474e6 7.320298607994396e6 0.0
7.320298607994396e6 -2.373303334103749e6 0.0
0.0 0.0 0.0

-5.532582921367019e6 3.9986644047858916e7 0.0
3.9986644047858916e7 4.602564333468784e6 0.0
0.0 0.0 0.0

-2.312797729155934e6 2.180560395893482e7 0.0
2.180560395893482e7 3.935088116742661e6 0.0
0.0 0.0 0.0

-1.1966058941853495e7 9.335537658590464e6 0.0
9.335537658590464e6 1.8888776073059455e7 0.0
0.0 0.0 0.0

-2.8781601028143433e6 2.1782731292698774e7 0.0
2.1782731292698774e7 1.9490896974631916e6 0.0
0.0 0.0 0.0

-5.782559262186263e6 1.7290067603121218e6 0.0
1.7290067603121218e6 6.112568402164865e6 0.0
0.0 0.0 0.0

608581.1119559975 1.0529794969852181e7 0.0
1.0529794969852181e7 -1.9503182479096018e7 0.0
0.0 0.0 0.0

67932.21046655811 1.3791328644804388e7 0.0
1.3791328644804388e7 -3.60136331050074e7 0.0
0.0 0.0 0.0

-1.1006506739554437e7 2.3694957892169815e7 0.0
2.3694957892169815e7 -9.320907049497312e6 0.0
0.0 0.0 0.0

-3.224988777590677e6 2.0610682181125924e7 0.0
2.0610682181125924e7 2.4073340505085856e7 0.0
0.0 0.0 0.0

-1.2184352785845643e6 1.9312620066103525e7 0.0
1.9312620066103525e7 -6.751742325178271e6 0.0
0.0 0.0 0.0

3.182870089481254e6 4.157008297136174e6 0.0
4.157008297136174e6 -1.4405589960472412e7 0.0
0.0 0.0 0.0

-706331.063699706 2.583468859541762e7 0.0
2.583468859541762e7 -5.44037699753286e6 0.0
0.0 0.0 0.0

-151203.03358919057 2.9885979581295148e7 0.0
2.9885979581295148e7 -2.8673852741089705e6 0.0
0.0 0.0 0.0

6.396472870267017e6 2.424098899810449e7 0.0
2.424098899810449e7 -5.785866781444339e6 0.0
0.0 0.0 0.0

-1.126013545159639e7 1.2465708735099953e7 0.0
1.2465708735099953e7 2.022609260510578e7 0.0
0.0 0.0 0.0

-2.532778512706536e6 1.858797087347125e7 0.0
1.858797087347125e7 -2.121394843138421e7 0.0
0.0 0.0 0.0

-6.089021381400337e6 3.442226766262286e7 0.0
3.442226766262286e7 3.2250207950495305e6 0.0
0.0 0.0 0.0

-5.071310661012328e6 3.364788997155655e7 0.0
3.364788997155655e7 3.0277932153860843e6 0.0
0.0 0.0 0.0

-3.2121667778246673e6 1.6554269969368795e7 0.0
1.6554269969368795e7 -3.358951756318915e7 0.0
0.0 0.0 0.0

-3.9258280838665925e6 1.884138886802784e7 0.0
1.884138886802784e7 -1.2801427315737447e7 0.0
0.0 0.0 0.0

1.0815983501402624e6 1.9338585559061863e7 0.0
1.9338585559061863e7 6.156092324106895e6 0.0
0.0 0.0 0.0

1.5895041396821197e6 1.0041831348115811e7 0.0
1.0041831348115811e7 -3.4391544848366246e7 0.0
0.0 0.0 0.0

-8.695029257344577e6 1.2499525202240888e7 0.0
1.2499525202240888e7 3.760080900558099e7 0.0
0.0 0.0 0.0

-2.217667692659363e6 1.2949221655156089e7 0.0
1.2949221655156089e7 -7.48929123166609e7 0.0
0.0 0.0 0.0

1.1439275881448235e7 3.7424189019127384e7 0.0
3.7424189019127384e7 -6.611504596598088e6 0.0
0.0 0.0 0.0

7.371237413470473e6 1.8402407586890414e7 0.0
1.8402407586890414e7 3.246731048450937e7 0.0
0.0 0.0 0.0

4.998655209848805e6 1.9452264024690397e7 0.0
1.9452264024690397e7 4.189725590747293e7 0.0
0.0 0.0 0.0

2.5626258059413556e7 2.52846169933623e7 0.0
2.52846169933623e7 1.2316917539033866e7 0.0
0.0 0.0 0.0

-238762.71979338257 2.0045647055368762e7 0.0
2.0045647055368762e7 3.2872074078214555e6 0.0
0.0 0.0 0.0

-626900.5100974878 2.5385861539677035e7 0.0
2.5385861539677035e7 -5.174613930175355e6 0.0
0.0 0.0 0.0

-3.2037818912999567e7 2.8198641531340983e7 0.0
2.8198641531340983e7 -9.319896055451464e6 0.0
0.0 0.0 0.0

-224400.9961575691 1.909435001039861e7 0.0
1.909435001039861e7 1.1939222111667332e6 0.0
0.0 0.0 0.0

-3.899517868198733e6 2.2955438920095496e7 0.0
2.2955438920095496e7 5.964577770474585e6 0.0
0.0 0.0 0.0

3.579465912890291e6 3.7696981614220585e6 0.0
3.7696981614220585e6 -2.8116780012950562e7 0.0
0.0 0.0 0.0

-1.259099922979353e7 2.3636751844033293e7 0.0
2.3636751844033293e7 -5.840767615723332e6 0.0
0.0 0.0 0.0

-1.5199707198779617e7 4.202774293995625e7 0.0
4.202774293995625e7 5.366818083431379e6 0.0
0.0 0.0 0.0

-1.0002389547763074e7 2.7451253645857438e6 0.0
2.7451253645857438e6 2.794124585542868e7 0.0
0.0 0.0 0.0

1.3447777369759774e7 3.106169871187678e7 0.0
3.106169871187678e7 -5.3280821417050995e6 0.0
0.0 0.0 0.0

-2.833508542368572e6 1.0942929460323239e7 0.0
1.0942929460323239e7 8.12303980577182e7 0.0
0.0 0.0 0.0

-8.968345426450334e6 -1.6190132544554719e6 0.0
-1.6190132544554719e6 3.204427928749476e7 0.0
0.0 0.0 0.0

-1.425185866428496e7 2.0254777265474144e7 0.0
2.0254777265474144e7 -5.835541301580629e7 0.0
0.0 0.0 0.0

-358867.8029320496 2.1033909537766945e7 0.0
2.1033909537766945e7 -1.1950544096624745e7 0.0
0.0 0.0 0.0

39211.20836723817 3.0835991567898724e7 0.0
3.0835991567898724e7 -1.5218649886480893e6 0.0
0.0 0.0 0.0

-8.029165584370904e6 1.9996001381628994e7 0.0
1.9996001381628994e7 -1.0694529425316464e7 0.0
0.0 0.0 0.0

-881976.8307292802 1.0732213534919323e7 0.0
1.0732213534919323e7 -2.3919405408370215e6 0.0
0.0 0.0 0.0

-1.2101340721712774e6 2.736663314820529e7 0.0
2.736663314820529e7 -2.9886477051584376e6 0.0
0.0 0.0 0.0

-3.15715418591961e6 3.257238316464205e7 0.0
3.257238316464205e7 2.7922290574762947e6 0.0
0.0 0.0 0.0

339157.5592928637 3.102374074824154e7 0.0
3.102374074824154e7 -1.947160402610252e6 0.0
0.0 0.0 0.0

-4.207591333163064e6 1.199935811751531e7 0.0
1.199935811751531e7 -8.139557043059973e7 0.0
0.0 0.0 0.0

-5.843866533141726e6 1.9970705396104906e7 0.0
1.9970705396104906e7 -2.0359133095847763e7 0.0
0.0 0.0 0.0

-6.26865339448826e6 2.8606678073850735e6 0.0
2.8606678073850735e6 6.0898941649381876e7 0.0
0.0 0.0 0.0

1.4215825838251658e7 2.3339376883195482e7 0.0
2.3339376883195482e7 6.5281806017951526e7 0.0
0.0 0.0 0.0

-5.087177126846118e7 4.034746213566881e6 0.0
4.034746213566881e6 6.062055980038762e6 0.0
0.0 0.0 0.0

4.281411564443715e7 2.935263703030269e7 0.0
2.935263703030269e7 7.85858526627334e6 0.0
0.0 0.0 0.0

-231289.28904023953 1.6278800262789173e7 0.0
1.6278800262789173e7 -2.9830730937447567e7 0.0
0.0 0.0 0.0

2.1830485619192906e6 5.626994409366844e6 0.0
5.626994409366844e6 -8.755157975143135e6 0.0
0.0 0.0 0.0

5.800634011031898e7 2.783893126846123e7 0.0
2.783893126846123e7 -1.0122137256896533e6 0.0
0.0 0.0 0.0

2.8513004256043267e6 1.2079569183995385e7 0.0
1.2079569183995385e7 -2.524485134544565e7 0.0
0.0 0.0 0.0

3.190865343285137e7 2.551227877337565e7 0.0
2.551227877337565e7 1.3172144526198924e7 0.0
0.0 0.0 0.0

-1.5847050916215517e6 2.8452479766694445e7 0.0
2.8452479766694445e7 -1.1480616170527576e6 0.0
0.0 0.0 0.0

-4.662795802881686e6 2.830233754611794e7 0.0
2.830233754611794e7 7.059372723253988e6 0.0
0.0 0.0 0.0

-928864.7252828223 1.4228453904592607e7 0.0
1.4228453904592607e7 -9.775790000897218e6 0.0
0.0 0.0 0.0

-6.710369456665168e6 1.4776547907303602e7 0.0
1.4776547907303602e7 -5.6579478439513445e6 0.0
0.0 0.0 0.0

-5.7140171874448275e6 1.8665140650824e7 0.0
1.8665140650824e7 -2.075803587846266e7 0.0
0.0 0.0 0.0

-1.9131895506449216e6 2.1981806458601132e7 0.0
2.1981806458601132e7 9.09007363152995e6 0.0
0.0 0.0 0.0

3.479438151572808e6 2.179303112841325e7 0.0
2.179303112841325e7 1.089232308869734e7 0.0
0.0 0.0 0.0

-3.323385947110269e6 9.470907550246697e6 0.0
9.470907550246697e6 7.635794228484066e7 0.0
0.0 0.0 0.0

-2.0470970143225272e6 2.662550554012052e7 0.0
2.662550554012052e7 -601098.9276678446 0.0
0.0 0.0 0.0

3.258934051731674e6 1.8540845775367324e6 0.0
1.8540845775367324e6 -3.252943408095867e7 0.0
0.0 0.0 0.0

-3.1387181513915528e6 2.2718846188973956e7 0.0
2.2718846188973956e7 1.6076268376940832e7 0.0
0.0 0.0 0.0

2.2592492308772253e6 2.1765272898109753e7 0.0
2.1765272898109753e7 1.253298264058914e7 0.0
0.0 0.0 0.0

1.3304305051102573e7 2.6362030769962225e7 0.0
2.6362030769962225e7 -4.0195668899801923e6 0.0
0.0 0.0 0.0

834751.583391028 2.579136882302904e7 0.0
2.579136882302904e7 -8.234638238956288e6 0.0
0.0 0.0 0.0

-4.1818425874103843e6 3.636758207692821e7 0.0
3.636758207692821e7 1.839473184760565e6 0.0
0.0 0.0 0.0

-2.9216877283345545e6 7.991932271699936e6 0.0
7.991932271699936e6 -636458.773574248 0.0
0.0 0.0 0.0

-1.2396158371152205e7 3.379279353583123e7 0.0
3.379279353583123e7 5.339471801441815e6 0.0
0.0 0.0 0.0

-2.070474794309602e6 2.9082772210071247e7 0.0
2.9082772210071247e7 3.03519939692226e6 0.0
0.0 0.0 0.0

-7.742264066732101e6 1.8256348872644197e7 0.0
1.8256348872644197e7 2.3665755206569128e7 0.0
0.0 0.0 0.0

3.5288180168011166e7 2.557904576258476e7 0.0
2.557904576258476e7 1.0147865098038372e6 0.0
0.0 0.0 0.0

832181.893985155 1.985892056118354e7 0.0
1.985892056118354e7 -1.5445869375410307e7 0.0
0.0 0.0 0.0

-1.9105632456719333e6 2.8179384295987096e7 0.0
2.8179384295987096e7 -372130.207424999 0.0
0.0 0.0 0.0

-690867.4998021428 1.2947450764381548e7 0.0
1.2947450764381548e7 -1.0151254895864185e7 0.0
0.0 0.0 0.0

-1.13799796704428e6 2.1550186643273074e7 0.0
2.1550186643273074e7 1.434098232909284e7 0.0
0.0 0.0 0.0

-1.0704302114634199e7 1.5828852473438777e7 0.0
1.5828852473438777e7 -2.5497369070095373e6 0.0
0.0 0.0 0.0

-1.2777508607614886e7 2.2811067071172986e7 0.0
2.2811067071172986e7 -6.070330631504012e6 0.0
0.0 0.0 0.0

307554.41845153226 2.0699388529077757e7 0.0
2.0699388529077757e7 -1.1905274278873984e7 0.0
0.0 0.0 0.0

1.0993373716313891e7 1.6352581181597732e7 0.0
1.6352581181597732e7 4.669666191604171e6 0.0
0.0 0.0 0.0

-17761.216108773835 1.9255283149643693e7 0.0
1.9255283149643693e7 -1.9315222894832656e7 0.0
0.0 0.0 0.0

-3.203073408059544e6 2.0380737561149973e7 0.0
2.0380737561149973e7 2.4016311881084614e7 0.0
0.0 0.0 0.0

-1.705793757062549e7 2.1813428174824923e7 0.0
2.1813428174824923e7 -405116.8561054459 0.0
0.0 0.0 0.0

-2.826368527345977e6 2.1763277303478487e7 0.0
2.1763277303478487e7 3.7691311208996587e6 0.0
0.0 0.0 0.0

-1.176838182756879e7 8.368239435446814e6 0.0
8.368239435446814e6 2.580796852095454e7 0.0
0.0 0.0 0.0

2.9572289378069052e6 1.9526840797972556e7 0.0
1.9526840797972556e7 2.1108039178125e7 0.0
0.0 0.0 0.0

1.6186014997021332e7 3.4003763013416335e7 0.0
3.4003763013416335e7 -6.822067593597396e6 0.0
0.0 0.0 0.0

-4.185331449851799e7 2.81651948828788e7 0.0
2.81651948828788e7 836381.1780712698 0.0
0.0 0.0 0.0

1.0598738403287198e7 4.225773458023545e7 0.0
4.225773458023545e7 -3.531770401575059e6 0.0
0.0 0.0 0.0

-1.4704035518853934e7 2.529826118144825e7 0.0
2.529826118144825e7 -257712.8572862493 0.0
0.0 0.0 0.0

6.311331086586743e6 3.8364485478540644e7 0.0
3.8364485478540644e7 -2.210931023610368e6 0.0
0.0 0.0 0.0

-1.14283986983853e7 4.434349124196441e6 0.0
4.434349124196441e6 2.529457729042954e7 0.0
0.0 0.0 0.0

1.6454198531239735e7 2.5178997496666893e7 0.0
2.5178997496666893e7 -2.162340620599578e6 0.0
0.0 0.0 0.0

-4.069018637794965e6 3.4040006466154404e7 0.0
3.4040006466154404e7 3.639777057382651e6 0.0
0.0 0.0 0.0

-5.291313732946374e6 2.271006970762179e7 0.0
2.271006970762179e7 1.0459748481042886e6 0.0
0.0 0.0 0.0

-472878.6087035863 1.798717222071906e7 0.0
1.798717222071906e7 -2.4635572885274027e7 0.0
0.0 0.0 0.0

-6.574727596040452e6 3.0639113010171372e7 0.0
3.0639113010171372e7 5.935094582879705e6 0.0
0.0 0.0 0.0

-7.912809560602835e6 1.9662501833204083e7 0.0
1.9662501833204083e7 -6.776655871924961e6 0.0
0.0 0.0 0.0

5.4922294148303615e6 3.761584210092871e7 0.0
3.761584210092871e7 -4.1480120992829097e6 0.0
0.0 0.0 0.0

-1.5739129283880344e7 3.420772615180299e7 0.0
3.420772615180299e7 6.418847752768205e6 0.0
0.0 0.0 0.0

1.1368776598240409e7 2.549316680883093e7 0.0
2.549316680883093e7 -3.572819424363027e6 0.0
0.0 0.0 0.0

3.3731065504267793e6 5.779764415225923e6 0.0
5.779764415225923e6 -1.8514098500565916e7 0.0
0.0 0.0 0.0

-6.457832858887828e6 1.844519134483267e7 0.0
1.844519134483267e7 -3.6321669491487935e7 0.0
0.0 0.0 0.0

3.1130376010381123e6 4.0465953454998657e6 0.0
4.0465953454998657e6 -1.5751705920792647e7 0.0
0.0 0.0 0.0

5.571499758277723e6 1.8860563610985555e7 0.0
1.8860563610985555e7 3.0739333790751047e7 0.0
0.0 0.0 0.0

5.947281145932152e6 2.35494012358749e7 0.0
2.35494012358749e7 -3.747917689629841e6 0.0
0.0 0.0 0.0

1.038252669840846e7 3.1388739133708544e7 0.0
3.1388739133708544e7 -5.366988725001342e6 0.0
0.0 0.0 0.0

-7.678696267575493e6 1.8212815283790354e7 0.0
1.8212815283790354e7 2.7362347185491353e7 0.0
0.0 0.0 0.0

-94137.28226789506 1.4923371395781402e7 0.0
1.4923371395781402e7 -8.723069921216512e6 0.0
0.0 0.0 0.0

496756.74566418247 9.552109230649877e6 0.0
9.552109230649877e6 4.271617675296029e6 0.0
0.0 0.0 0.0

-854394.2749553137 1.1272414773075633e7 0.0
1.1272414773075633e7 -6.177955809573668e7 0.0
0.0 0.0 0.0

2.417418913129838e6 1.6768960493267657e7 0.0
1.6768960493267657e7 7.17494870845163e6 0.0
0.0 0.0 0.0

-1.5060556550399646e7 3.0546436448706787e7 0.0
3.0546436448706787e7 5.230895666384213e6 0.0
0.0 0.0 0.0

-1.44327263209937e6 1.933291424788529e7 0.0
1.933291424788529e7 -1.368066565102588e7 0.0
0.0 0.0 0.0

2.7046378799242336e7 2.4548498716036186e7 0.0
2.4548498716036186e7 1.1471921376737878e7 0.0
0.0 0.0 0.0

-1.027940995907454e7 7.117887778655204e6 0.0
7.117887778655204e6 3.3490379650920033e7 0.0
0.0 0.0 0.0

-3.4238884349323906e7 3.1786465433015037e7 0.0
3.1786465433015037e7 1.2022959505685382e6 0.0
0.0 0.0 0.0

3.396585826777671e7 3.571605498426554e7 0.0
3.571605498426554e7 -9.326987554809116e6 0.0
0.0 0.0 0.0

-4.952590191415417e6 2.8398516143419795e7 0.0
2.8398516143419795e7 7.82146404902947e6 0.0
0.0 0.0 0.0

9907.674149448401 1.7548517170244895e7 0.0
1.7548517170244895e7 2.710298761219507e6 0.0
0.0 0.0 0.0

-6.154473259572994e6 1.7179315050130792e7 0.0
1.7179315050130792e7 3.414230508867772e7 0.0
0.0 0.0 0.0

-9.42369704898892e6 -449758.65818540775 0.0
-449758.65818540775 3.3026714884283938e7 0.0
0.0 0.0 0.0

278413.1157972086 1.9446292765988953e7 0.0
1.9446292765988953e7 -1.6851607515188646e7 0.0
0.0 0.0 0.0

-1.0809473483012537e7 2.6107478357459784e7 0.0
2.6107478357459784e7 -1.226928639910006e7 0.0
0.0 0.0 0.0

-24599.451384847052 1.984436044807126e7 0.0
1.984436044807126e7 -1.1135860263730474e7 0.0
0.0 0.0 0.0

-5.230846571987409e6 1.1828299568607686e7 0.0
1.1828299568607686e7 5.313853653527257e7 0.0
0.0 0.0 0.0

328184.08483747765 1.5206816637313874e7 0.0
1.5206816637313874e7 -2.9231530544746246e7 0.0
0.0 0.0 0.0

-1.0614906056054818e7 2.591053550113e7 0.0
2.591053550113e7 -1.2488531384423615e7 0.0
0.0 0.0 0.0

-560282.4162899544 1.7512608014436852e7 0.0
1.7512608014436852e7 -2.4540670032078918e7 0.0
0.0 0.0 0.0

2.7784893162315987e7 2.4112743836174823e7 0.0
2.4112743836174823e7 1.3556779825911937e7 0.0
0.0 0.0 0.0

-6.9275894944717735e6 1.008792044941564e7 0.0
1.008792044941564e7 4.891491036082035e7 0.0
0.0 0.0 0.0

1.4583633051439868e6 2.15835345585507e7 0.0
2.15835345585507e7 -894952.6801008934 0.0
0.0 0.0 0.0

-1.720011061977799e6 2.1483665579215165e7 0.0
2.1483665579215165e7 1.9647118215844866e7 0.0
0.0 0.0 0.0

4.252389748005628e6 3.011837046977817e7 0.0
3.011837046977817e7 -5.080556366653229e6 0.0
0.0 0.0 0.0

2.3665226805807874e6 1.0330921124342835e7 0.0
1.0330921124342835e7 -2.988069144927716e7 0.0
0.0 0.0 0.0

1.9061781392362379e6 9.725395148755154e6 0.0
9.725395148755154e6 -1.2428823152118543e7 0.0
0.0 0.0 0.0

-799876.5972631294 1.181099107809798e7 0.0
1.181099107809798e7 -5.344005934068109e7 0.0
0.0 0.0 0.0

-1.05403971832546e7 2.4260292963494714e7 0.0
2.4260292963494714e7 -4.784090834895497e6 0.0
0.0 0.0 0.0

-8.363910148514157e6 9.87696334432953e6 0.0
9.87696334432953e6 4.411825033708069e7 0.0
0.0 0.0 0.0

-9.286777696160726e6 2.4022143875165533e7 0.0
2.4022143875165533e7 -8.74052695118864e6 0.0
0.0 0.0 0.0

39739.85667135706 1.8782618268024288e7 0.0
1.8782618268024288e7 -1.1555662005170485e7 0.0
0.0 0.0 0.0

577590.2231782656 9.146779098641044e6 0.0
9.146779098641044e6 -4.688103328669062e7 0.0
0.0 0.0 0.0

-7.132263248233752e6 1.6018637815249054e7 0.0
1.6018637815249054e7 3.489647108050697e7 0.0
0.0 0.0 0.0

3.6673368727299515e6 1.8531268967784792e7 0.0
1.8531268967784792e7 1.3817378022612326e7 0.0
0.0 0.0 0.0

-771051.9077353738 1.3525045822428575e7 0.0
1.3525045822428575e7 -3.893734819520533e7 0.0
0.0 0.0 0.0

2.7752577532412168e6 2.6179831616995856e6 0.0
2.6179831616995856e6 -3.630555262313199e7 0.0
0.0 0.0 0.0

-3.431423227651649e6 2.2176678851007145e7 0.0
2.2176678851007145e7 1.610277742662407e7 0.0
0.0 0.0 0.0

-8.741850374569224e6 2.465020854108736e7 0.0
2.465020854108736e7 -1.1862690616053794e7 0.0
0.0 0.0 0.0

1.153995324211508e6 1.3879036971204238e7 0.0
1.3879036971204238e7 -1.4511728838957403e7 0.0
0.0 0.0 0.0

-8.937701817799587e6 3.325724038766778e6 0.0
3.325724038766778e6 4.050268591291673e7 0.0
0.0 0.0 0.0

-3.6790199814757262e6 1.2785177283958013e6 0.0
1.2785177283958013e6 6.779827556475336e6 0.0
0.0 0.0 0.0

-5.682960112049069e6 2.0379366927352674e7 0.0
2.0379366927352674e7 1.953091724344837e7 0.0
0.0 0.0 0.0

2.951760063834262e7 2.686411345471848e7 0.0
2.686411345471848e7 1.730159727106415e7 0.0
0.0 0.0 0.0

2.2502199496438723e7 2.459694930644561e7 0.0
2.459694930644561e7 1.3162169242752245e7 0.0
0.0 0.0 0.0

-1.6650136634259101e7 2.506926755395728e7 0.0
2.506926755395728e7 -1.0896750991149835e7 0.0
0.0 0.0 0.0

-4.214562459052489e6 1.7182919296720404e7 0.0
1.7182919296720404e7 -1.307923851091687e7 0.0
0.0 0.0 0.0

-9.6703252931901e6 2.5155862382586278e7 0.0
2.5155862382586278e7 -1.0135069343311936e7 0.0
0.0 0.0 0.0

-9.916235984183535e6 2.3485220930028927e7 0.0
2.3485220930028927e7 -1.0641641259182911e7 0.0
0.0 0.0 0.0

-603333.9554521479 1.2480399905076377e7 0.0
1.2480399905076377e7 -4.736971231390782e7 0.0
0.0 0.0 0.0

-1.3292460398883594e6 4.248759029071398e6 0.0
4.248759029071398e6 -1.318747629756376e6 0.0
0.0 0.0 0.0

-986620.6277635593 7.231120805691742e6 0.0
7.231120805691742e6 563768.3861907432 0.0
0.0 0.0 0.0

1.2755330495954468e6 1.7961732856008615e7 0.0
1.7961732856008615e7 1.9484434548917345e6 0.0
0.0 0.0 0.0

2.0005497066466045e7 2.475332219925224e7 0.0
2.475332219925224e7 1.2377220754045576e7 0.0
0.0 0.0 0.0

1.4131394019076584e6 1.8811332405536786e7 0.0
1.8811332405536786e7 8.793679352918653e6 0.0
0.0 0.0 0.0

-4.215433995567036e6 2.134483270678927e7 0.0
2.134483270678927e7 1.6683120827389736e7 0.0
0.0 0.0 0.0

-2.5268581644287184e7 1.2923720568604205e7 0.0
1.2923720568604205e7 8.265026309285741e6 0.0
0.0 0.0 0.0

2.742351051920345e6 1.858344916513187e7 0.0
1.858344916513187e7 1.0788642035089951e7 0.0
0.0 0.0 0.0

2.4916417601426514e6 6.34934499244171e6 0.0
6.34934499244171e6 -1.938056094820961e7 0.0
0.0 0.0 0.0

-1.4991937808693241e7 3.2402874409576014e7 0.0
3.2402874409576014e7 6.029098885842095e6 0.0
0.0 0.0 0.0

-8.415622145336585e6 1.2984924391532943e6 0.0
1.2984924391532943e6 4.2835372555840224e7 0.0
0.0 0.0 0.0

-1.7904631918899806e6 2.103215421879314e7 0.0
2.103215421879314e7 -9.663687006320426e6 0.0
0.0 0.0 0.0

9.305508284802068e6 2.2333858049067978e7 0.0
2.2333858049067978e7 1.2003729516069328e7 0.0
0.0 0.0 0.0

-8.239125207327783e6 2.4364789396865178e7 0.0
2.4364789396865178e7 -1.18849950472709e7 0.0
0.0 0.0 0.0

-3.398888520560638e6 1.722060124947173e7 0.0
1.722060124947173e7 -3.0482641811393782e7 0.0
0.0 0.0 0.0

2.3473221490318965e7 2.5821377010992058e7 0.0
2.5821377010992058e7 1.5862572782450344e7 0.0
0.0 0.0 0.0

-3.303128248707431e6 1.918271390986772e7 0.0
1.918271390986772e7 -2.2060077959554285e7 0.0
0.0 0.0 0.0

1.9342638557752497e6 1.960911138226855e7 0.0
1.960911138226855e7 1.2634693994890984e7 0.0
0.0 0.0 0.0

4.834703315531674e6 2.178437927224573e7 0.0
2.178437927224573e7 1.543253553236319e7 0.0
0.0 0.0 0.0

-3.160042713728941e6 2.1954784655715447e7 0.0
2.1954784655715447e7 1.709557845747755e7 0.0
0.0 0.0 0.0

-2.5506633629123415e6 2.194635186661569e7 0.0
2.194635186661569e7 1.1477495098104034e7 0.0
0.0 0.0 0.0

2.394032792602282e6 5.522646404898416e6 0.0
5.522646404898416e6 -3.4865065866722174e7 0.0
0.0 0.0 0.0

1.1499638752069278e6 3.2445198781239867e7 0.0
3.2445198781239867e7 -2.0967074270964256e6 0.0
0.0 0.0 0.0

-6.380554074276583e6 2.082980224391338e7 0.0
2.082980224391338e7 -1.6308655132330092e7 0.0
0.0 0.0 0.0

3.368279867806765e7 2.270646595973608e7 0.0
2.270646595973608e7 1.3517498566556208e7 0.0
0.0 0.0 0.0

-8.914992386382245e6 2.9671529727705687e7 0.0
2.9671529727705687e7 6.441669072298111e6 0.0
0.0 0.0 0.0

2.551808265673084e6 4.532755809632228e6 0.0
4.532755809632228e6 -4.0390700557082355e7 0.0
0.0 0.0 0.0

-2.7099452230632305e6 1.9572944328482147e7 0.0
1.9572944328482147e7 6.937863500394143e6 0.0
0.0 0.0 0.0

1.7086072723327518e7 2.2293731063163616e7 0.0
2.2293731063163616e7 9.335181890199356e6 0.0
0.0 0.0 0.0

4.3224860449256e7 2.1025075001710005e7 0.0
2.1025075001710005e7 1.094777659815231e7 0.0
0.0 0.0 0.0

-5.67059392261677e6 3.383719592256193e7 0.0
3.383719592256193e7 4.610280291693104e6 0.0
0.0 0.0 0.0

441207.789516679 2.019900171268127e7 0.0
2.019900171268127e7 -1.8051784569752663e7 0.0
0.0 0.0 0.0

-1.0594819583020257e7 1.1642702946438245e7 0.0
1.1642702946438245e7 2.173939208807417e7 0.0
0.0 0.0 0.0

-8.892116379987879e6 1.4571657326000335e6 0.0
1.4571657326000335e6 4.1154222135176376e7 0.0
0.0 0.0 0.0

2.150819025526319e6 1.8691535764540803e7 0.0
1.8691535764540803e7 7.463303708251088e6 0.0
0.0 0.0 0.0

1.3419134774120996e7 1.876513443202959e7 0.0
1.876513443202959e7 1.0187365450823404e7 0.0
0.0 0.0 0.0

-1.0284449386646315e7 4.792569288053387e6 0.0
4.792569288053387e6 3.2096917736170493e7 0.0
0.0 0.0 0.0

-3.1080924245292125e6 1.341335799827817e7 0.0
1.341335799827817e7 -1.58507095347691e6 0.0
0.0 0.0 0.0

-4.1838844405222563e6 2.1025923715272643e7 0.0
2.1025923715272643e7 -1.4892094666984167e7 0.0
0.0 0.0 0.0

-4.550058775213597e6 1.7601678678034827e7 0.0
1.7601678678034827e7 -2.835413498237116e7 0.0
0.0 0.0 0.0

130370.06851846422 3.172570833376725e7 0.0
3.172570833376725e7 -1.6777512530788134e6 0.0
0.0 0.0 0.0

5.174054728203882e6 3.0745726016821872e7 0.0
3.0745726016821872e7 -5.3076938338955715e6 0.0
0.0 0.0 0.0

4.982634014325371e6 4.1163388413844936e7 0.0
4.1163388413844936e7 -3.805393568665294e6 0.0
0.0 0.0 0.0

-1.4996574876148617e7 3.939091208935396e7 0.0
3.939091208935396e7 6.495886166500883e6 0.0
0.0 0.0 0.0

8.179216251741234e6 1.9508955424861632e7 0.0
1.9508955424861632e7 3.0728250274497658e7 0.0
0.0 0.0 0.0

-8.270423890676407e6 1.7827154423104484e7 0.0
1.7827154423104484e7 -7.841630281343412e7 0.0
0.0 0.0 0.0

-1.0505525086573884e7 195742.86191565404 0.0
195742.86191565404 2.3393383705526475e7 0.0
0.0 0.0 0.0

-1.0018020663208697e7 1.6511130551974403e7 0.0
1.6511130551974403e7 -3.430628801819589e7 0.0
0.0 0.0 0.0

-4.547761743413881e6 1.6184781796943927e7 0.0
1.6184781796943927e7 -1.5045636973664764e7 0.0
0.0 0.0 0.0

6.518933699499687e6 1.990922113459539e7 0.0
1.990922113459539e7 2.9640733611368924e7 0.0
0.0 0.0 0.0

-9.6454702339156e6 1.8453257776324835e7 0.0
1.8453257776324835e7 -4.0778445463762216e7 0.0
0.0 0.0 0.0

-7.391353683801677e6 1.693694492307925e7 0.0
1.693694492307925e7 -2.8776188099940363e7 0.0
0.0 0.0 0.0

1.9508600917837113e7 2.4426569790256042e7 0.0
2.4426569790256042e7 1.0798687838176195e7 0.0
0.0 0.0 0.0

-5.742000849658275e6 2.13595087958343e7 0.0
2.13595087958343e7 -1.4549650287141573e7 0.0
0.0 0.0 0.0

2.212626239422485e6 9.492793171200695e6 0.0
9.492793171200695e6 -3.366645891225977e7 0.0
0.0 0.0 0.0

1.3746402582719862e6 1.8808627165838324e7 0.0
1.8808627165838324e7 4.109977152166105e6 0.0
0.0 0.0 0.0

-9.878024915066928e6 2.5126218866569545e7 0.0
2.5126218866569545e7 -1.2481371582501072e7 0.0
0.0 0.0 0.0

4.909994026206927e6 1.820961033428411e7 0.0
1.820961033428411e7 1.880947448018855e7 0.0
0.0 0.0 0.0

3.183436292606714e6 4.049170448969535e6 0.0
4.049170448969535e6 -1.6201487438656468e7 0.0
0.0 0.0 0.0

-2.161072054525526e6 2.791389809458975e7 0.0
2.791389809458975e7 527134.125393238 0.0
0.0 0.0 0.0

-3.8788062758295755e6 3.182091938800601e7 0.0
3.182091938800601e7 2.675852804496843e6 0.0
0.0 0.0 0.0

-7.574774873190027e6 1.6253187066369599e7 0.0
1.6253187066369599e7 3.367765570534644e7 0.0
0.0 0.0 0.0

1.990277242906141e6 2.0164611644570682e7 0.0
2.0164611644570682e7 9.49911313660331e6 0.0
0.0 0.0 0.0

4.550170436013206e6 2.205810971925322e7 0.0
2.205810971925322e7 1.6312181750326082e7 0.0
0.0 0.0 0.0

-3.9805668579448266e6 3.578064365956203e7 0.0
3.578064365956203e7 3.0393489090117496e6 0.0
0.0 0.0 0.0

-3.956232521921713e6 2.1196051185791083e7 0.0
2.1196051185791083e7 1.7331245895379e7 0.0
0.0 0.0 0.0

-9.86249306033638e6 -1.1702432562216467e6 0.0
-1.1702432562216467e6 2.6981042845209137e7 0.0
0.0 0.0 0.0

-3.419398774573314e6 3.1639339836071115e7 0.0
3.1639339836071115e7 4.079318415328617e6 0.0
0.0 0.0 0.0

-553858.787444714 2.7072826953092854e7 0.0
2.7072826953092854e7 -2.597662791223782e6 0.0
0.0 0.0 0.0

-3.0965859372533523e6 2.1340524196332473e7 0.0
2.1340524196332473e7 3.07625226742646e6 0.0
0.0 0.0 0.0

856857.6637005847 3.2089308024140682e7 0.0
3.2089308024140682e7 -2.206370280208124e6 0.0
0.0 0.0 0.0

793974.7525363893 3.1419863916711316e7 0.0
3.1419863916711316e7 -1.7867079863730825e6 0.0
0.0 0.0 0.0

-2.196104356723901e6 2.0345439293660346e7 0.0
2.0345439293660346e7 -1.0704518089306742e7 0.0
0.0 0.0 0.0

3.878171177491601e6 2.0353508722841807e7 0.0
2.0353508722841807e7 1.2927237802976163e7 0.0
0.0 0.0 0.0

1.90458661349033e6 9.325105787858238e6 0.0
9.325105787858238e6 -3.154183523211294e7 0.0
0.0 0.0 0.0

-1.3173815287355699e7 1.7376970092222255e7 0.0
1.7376970092222255e7 -4.914373738161739e7 0.0
0.0 0.0 0.0

-4.713736921257559e6 2.308932048776524e7 0.0
2.308932048776524e7 3.558714459400034e6 0.0
0.0 0.0 0.0

-3.803523725635388e7 3.4621488314644895e7 0.0
3.4621488314644895e7 -1.4272841279604534e7 0.0
0.0 0.0 0.0

-7.739972087142184e6 1.80719058256345e7 0.0
1.80719058256345e7 -2.7320483092657827e7 0.0
0.0 0.0 0.0

-4.252548603993818e7 3.394920046538227e7 0.0
3.394920046538227e7 -7.857098435498751e6 0.0
0.0 0.0 0.0

-3.649868187057839e6 2.3643770435397778e7 0.0
2.3643770435397778e7 1.2176592286913734e7 0.0
0.0 0.0 0.0

-7.721401191186754e6 171387.8270164269 0.0
171387.8270164269 4.750793725578174e7 0.0
0.0 0.0 0.0

3.4855732397960173e6 2.996729334903962e7 0.0
2.996729334903962e7 -5.033010266004295e6 0.0
0.0 0.0 0.0

-1.6892490311546136e7 2.7166753437246162e7 0.0
2.7166753437246162e7 -1.1441427660003109e7 0.0
0.0 0.0 0.0

375642.9865558576 2.0846948990532234e7 0.0
2.0846948990532234e7 -1.6374019089544347e7 0.0
0.0 0.0 0.0

-1.211131423026666e7 3.245892700053566e7 0.0
3.245892700053566e7 5.825313547068461e6 0.0
0.0 0.0 0.0

-1.12849710025011e7 8.165725321934407e6 0.0
8.165725321934407e6 2.5477262593106978e7 0.0
0.0 0.0 0.0

1.157630558659559e6 1.0438080065048808e7 0.0
1.0438080065048808e7 -3.9660244717049845e7 0.0
0.0 0.0 0.0

-1.5769640061554834e7 3.209919385705118e7 0.0
3.209919385705118e7 5.556380035573317e6 0.0
0.0 0.0 0.0

1.5402959815180677e6 1.953566644581081e7 0.0
1.953566644581081e7 6.200328160558494e6 0.0
0.0 0.0 0.0

-1.1895660064047182e7 1.0285268091824215e7 0.0
1.0285268091824215e7 2.006918203302956e7 0.0
0.0 0.0 0.0

-661902.0597616918 1.908708602366912e7 0.0
1.908708602366912e7 -1.2049097621984756e7 0.0
0.0 0.0 0.0

3.2832771753880493e6 2.8429247978668403e7 0.0
2.8429247978668403e7 -5.854304872906569e6 0.0
0.0 0.0 0.0

-2.7074659675697945e7 1.3454280667558322e7 0.0
1.3454280667558322e7 7.942208902446479e6 0.0
0.0 0.0 0.0

-6.473029330888319e6 2.9908840333036825e7 0.0
2.9908840333036825e7 6.692851581415575e6 0.0
0.0 0.0 0.0

-343205.11752693914 1.987351635003629e7 0.0
1.987351635003629e7 -1.9275517266036823e7 0.0
0.0 0.0 0.0

2.0327950516199768e6 9.594247629701255e6 0.0
9.594247629701255e6 -2.7899734654814467e7 0.0
0.0 0.0 0.0

-189527.98405445018 4.976467408640657e6 0.0
4.976467408640657e6 -4.0628360955061414e6 0.0
0.0 0.0 0.0

925824.1381693995 1.7783291832402173e7 0.0
1.7783291832402173e7 -2.1207672861557025e7 0.0
0.0 0.0 0.0

-2.3271448004970577e7 2.7087464573392734e7 0.0
2.7087464573392734e7 -5.148004427818837e6 0.0
0.0 0.0 0.0

7.585424804665089e6 4.087889345481741e7 0.0
4.087889345481741e7 -2.9959671037795106e6 0.0
0.0 0.0 0.0

1.8428848125854563e6 1.9251406869814325e7 0.0
1.9251406869814325e7 3.424507701852608e7 0.0
0.0 0.0 0.0

3.0666906739801187e6 2.0539592341907743e7 0.0
2.0539592341907743e7 1.1678246420859171e7 0.0
0.0 0.0 0.0

8.498963025632713e6 1.740060811874841e7 0.0
1.740060811874841e7 2.9997243862535927e7 0.0
0.0 0.0 0.0

-4.1280152145463796e6 2.008901137067321e7 0.0
2.008901137067321e7 -1.3760051058377156e7 0.0
0.0 0.0 0.0

-7.692997068079002e6 1.5817660963216819e7 0.0
1.5817660963216819e7 3.460662142967416e7 0.0
0.0 0.0 0.0

-3.317908397500284e6 1.8439378855028797e7 0.0
1.8439378855028797e7 -1.4727503004283149e7 0.0
0.0 0.0 0.0

-2.7548430480185274e7 3.581936043208999e7 0.0
3.581936043208999e7 7.537527843292022e6 0.0
0.0 0.0 0.0

-9.334661533154339e6 4.745783824456906e6 0.0
4.745783824456906e6 3.843284268564737e7 0.0
0.0 0.0 0.0

-7.655230272560857e6 138830.8895867889 0.0
138830.8895867889 4.817644498850847e7 0.0
0.0 0.0 0.0

583264.0745783951 1.3694881100428855e7 0.0
1.3694881100428855e7 -1.652059293200911e7 0.0
0.0 0.0 0.0

1.195472912548945e6 3.7346189383899937e6 0.0
3.7346189383899937e6 -253375.4196547991 0.0
0.0 0.0 0.0

57673.961765725166 1.0100322453189649e7 0.0
1.0100322453189649e7 -4.9839211556996256e7 0.0
0.0 0.0 0.0

-7.414356565875523e6 1.3176768856161589e7 0.0
1.3176768856161589e7 4.152553918009913e7 0.0
0.0 0.0 0.0

-93508.38157458231 1.272813535453288e7 0.0
1.272813535453288e7 -3.858691163671889e7 0.0
0.0 0.0 0.0

-9.34588401733673e6 755718.713348971 0.0
755718.713348971 3.1747775584087364e7 0.0
0.0 0.0 0.0

-3.150815087893932e6 2.8930686432792343e7 0.0
2.8930686432792343e7 3.2386226320231464e6 0.0
0.0 0.0 0.0

4.1495981568375793e6 2.8965358680049054e7 0.0
2.8965358680049054e7 -5.718710447758592e6 0.0
0.0 0.0 0.0

-3.8226958267201986e6 3.357237328829785e7 0.0
3.357237328829785e7 1.984094026590156e6 0.0
0.0 0.0 0.0

4.393335018645163e6 3.9706328501902424e7 0.0
3.9706328501902424e7 -2.2915575385077894e6 0.0
0.0 0.0 0.0

1.7759702316582818e6 3.570696679443877e7 0.0
3.570696679443877e7 -2.4836376319730403e6 0.0
0.0 0.0 0.0

-8.928339944480732e6 1.3964825699545452e6 0.0
1.3964825699545452e6 3.953967131815392e7 0.0
0.0 0.0 0.0

2.061781778212579e6 4.9260394074819e6 0.0
4.9260394074819e6 -4.334446360542842e7 0.0
0.0 0.0 0.0

724119.6513099275 2.1679141837346148e7 0.0
2.1679141837346148e7 -1.1902102684761345e7 0.0
0.0 0.0 0.0

359973.48668286717 2.3225141126140136e7 0.0
2.3225141126140136e7 -9.487068745595282e6 0.0
0.0 0.0 0.0

1.9292171895197527e6 1.2381341280779956e7 0.0
1.2381341280779956e7 -2.309003502867055e7 0.0
0.0 0.0 0.0

-6.828815064373673e6 1.6143400046794e7 0.0
1.6143400046794e7 -2.23799174327575e7 0.0
0.0 0.0 0.0

1.6476059810840888e6 1.7821028166382283e7 0.0
1.7821028166382283e7 5.492019893652891e6 0.0
0.0 0.0 0.0

-3.4995633806250948e6 2.5414188584844634e7 0.0
2.5414188584844634e7 9.048343111923905e6 0.0
0.0 0.0 0.0

-9.635472509974914e6 3.0730787300692234e7 0.0
3.0730787300692234e7 5.990230308663941e6 0.0
0.0 0.0 0.0

-2.521249365509663e6 1.8465310133497816e7 0.0
1.8465310133497816e7 -8.019769041866045e6 0.0
0.0 0.0 0.0

-1.4394552610862604e6 1.347941351639427e7 0.0
1.347941351639427e7 -2.2073849000725197e6 0.0
0.0 0.0 0.0

2.8438707556410115e6 3.253488980470634e6 0.0
3.253488980470634e6 -3.472096941844262e7 0.0
0.0 0.0 0.0

2.772712087290304e6 2.1379694764182404e7 0.0
2.1379694764182404e7 -6.064231441581167e6 0.0
0.0 0.0 0.0

1.8465918492344115e6 1.0004293557919115e7 0.0
1.0004293557919115e7 -2.997054578016401e7 0.0
0.0 0.0 0.0

-3.8997778403143208e6 8.731076695558628e6 0.0
8.731076695558628e6 1.2749547882751694e6 0.0
0.0 0.0 0.0

-1.8339145425824428e6 1.2093705421956971e7 0.0
1.2093705421956971e7 -4.974258147811548e6 0.0
0.0 0.0 0.0

-3.453641263663783e6 3.0608944334274046e6 0.0
3.0608944334274046e6 1.9699685005495988e6 0.0
0.0 0.0 0.0

-2.1282762262195274e6 2.633839330533096e7 0.0
2.633839330533096e7 3.722465028624389e6 0.0
0.0 0.0 0.0

-253995.67313805036 1.8407964021772765e7 0.0
1.8407964021772765e7 -2.2705514414622337e7 0.0
0.0 0.0 0.0

-786632.8587830514 9.74159078497607e6 0.0
9.74159078497607e6 -5.765612329355283e7 0.0
0.0 0.0 0.0

-8.073380550158238e6 2.331523607134958e7 0.0
2.331523607134958e7 -6.864393390946177e6 0.0
0.0 0.0 0.0

-2.804405356520329e7 3.1161547613217227e7 0.0
3.1161547613217227e7 -1.3729732423336003e7 0.0
0.0 0.0 0.0

-2.024352049364306e7 3.125060727317128e7 0.0
3.125060727317128e7 4.840716542711629e6 0.0
0.0 0.0 0.0

-1.1681846851697456e7 2.6070372914751396e7 0.0
2.6070372914751396e7 -1.1803932213868033e7 0.0
0.0 0.0 0.0

-5.090794080078526e6 1.6595439417872563e7 0.0
1.6595439417872563e7 -3.842861103178533e7 0.0
0.0 0.0 0.0

-8.545862199154915e6 1.7427562612860203e7 0.0
1.7427562612860203e7 -2.8486208295759615e7 0.0
0.0 0.0 0.0

-2.180146610418696e7 2.866275178135226e7 0.0
2.866275178135226e7 -1.1902790125519399e7 0.0
0.0 0.0 0.0

-1.2383562143429805e7 1.8160759319960605e7 0.0
1.8160759319960605e7 -4.1278541671933845e7 0.0
0.0 0.0 0.0

-6.009076483459696e6 2.0087622437357627e7 0.0
2.0087622437357627e7 2.3067379090624016e7 0.0
0.0 0.0 0.0

-1.0810395479035972e7 998874.2544606769 0.0
998874.2544606769 2.160077325855679e7 0.0
0.0 0.0 0.0

-537501.4091161712 2.6694192716995057e7 0.0
2.6694192716995057e7 -4.223480662197839e6 0.0
0.0 0.0 0.0

-3.9531892120422507e6 2.2686243890970048e7 0.0
2.2686243890970048e7 1.4324408379543578e7 0.0
0.0 0.0 0.0

-1.0180494492450643e7 56844.19325551236 0.0
56844.19325551236 2.7639641003891446e7 0.0
0.0 0.0 0.0

671180.4528061952 1.4914329059578082e7 0.0
1.4914329059578082e7 -2.8819551018927857e7 0.0
0.0 0.0 0.0

-1.9748932984533056e6 2.739325157978507e7 0.0
2.739325157978507e7 -484757.9995157286 0.0
0.0 0.0 0.0

546716.787001378 1.8525633185972676e7 0.0
1.8525633185972676e7 -1.6329381069238498e6 0.0
0.0 0.0 0.0

-4.338480439774344e6 2.834285129530399e7 0.0
2.834285129530399e7 6.259855532269197e6 0.0
0.0 0.0 0.0

-2.0026268416064683e7 2.8959002593312725e7 0.0
2.8959002593312725e7 -1.2997138100726794e7 0.0
0.0 0.0 0.0

-9.681466462805578e6 1.7684342380010728e7 0.0
1.7684342380010728e7 -3.2271555300520185e7 0.0
0.0 0.0 0.0

4.826382963788474e6 2.161126855044672e7 0.0
2.161126855044672e7 1.753893362262697e7 0.0
0.0 0.0 0.0

-3.1061538632337946e7 3.1689194348233227e7 0.0
3.1689194348233227e7 3.581307994331699e6 0.0
0.0 0.0 0.0

-1.0408124965021411e7 1.0485201279300634e7 0.0
1.0485201279300634e7 2.102334539565018e7 0.0
0.0 0.0 0.0

-6.781310762599308e6 1.0550742323736597e7 0.0
1.0550742323736597e7 5.1547880376365155e7 0.0
0.0 0.0 0.0

-2.439727633008835e6 2.0421716990485378e7 0.0
2.0421716990485378e7 -1.0650800455605073e7 0.0
0.0 0.0 0.0

3.677688041013005e6 3.542862586071649e7 0.0
3.542862586071649e7 -3.4598121605209922e6 0.0
0.0 0.0 0.0

8.454548617576793e6 1.837142232869038e7 0.0
1.837142232869038e7 2.818182902415577e7 0.0
0.0 0.0 0.0

2.580011209344511e7 2.1149137071283832e7 0.0
2.1149137071283832e7 5.642287493805656e6 0.0
0.0 0.0 0.0

-1.5519781653456984e7 2.735401119216605e7 0.0
2.735401119216605e7 -1.242192629794654e7 0.0
0.0 0.0 0.0

5.443750880826388e6 3.277316329071096e7 0.0
3.277316329071096e7 -4.841261139060231e6 0.0
0.0 0.0 0.0

1.1509936088145178e7 1.815393600744548e7 0.0
1.815393600744548e7 4.349298729985728e7 0.0
0.0 0.0 0.0

1.4828498488881998e6 7.019972089538507e6 0.0
7.019972089538507e6 -5.573376610923092e7 0.0
0.0 0.0 0.0

-6.14711107032302e6 2.8958600563054148e7 0.0
2.8958600563054148e7 7.351966609355927e6 0.0
0.0 0.0 0.0

824496.1725220293 1.716564474209299e7 0.0
1.716564474209299e7 330415.03941547044 0.0
0.0 0.0 0.0

-1.3985276984557081e7 1.8805157260601316e7 0.0
1.8805157260601316e7 -4.661759163473873e7 0.0
0.0 0.0 0.0

-6.534323779700281e6 2.3606386962880675e7 0.0
2.3606386962880675e7 -2.5292374666641904e6 0.0
0.0 0.0 0.0

2.375278661441881e6 3.04582639137927e6 0.0
3.04582639137927e6 -4.784351533603911e7 0.0
0.0 0.0 0.0

-631794.4112576842 2.1935641901669707e7 0.0
2.1935641901669707e7 -9.892895939099899e6 0.0
0.0 0.0 0.0

4.231609361695934e6 2.4287559281357042e7 0.0
2.4287559281357042e7 -8.005108811366056e6 0.0
0.0 0.0 0.0

2.5039950076171443e7 2.4836138049791183e7 0.0
2.4836138049791183e7 1.5086148536462933e6 0.0
0.0 0.0 0.0

-7.307583634218503e6 1.867764169848808e7 0.0
1.867764169848808e7 2.3672428719318293e7 0.0
0.0 0.0 0.0

-2.299186840203767e6 1.6216296923132202e7 0.0
1.6216296923132202e7 -7.937125124116295e6 0.0
0.0 0.0 0.0

-9.663514581437113e6 2.4572680781499006e7 0.0
2.4572680781499006e7 -1.1857244436319757e7 0.0
0.0 0.0 0.0

-913891.2154401438 2.691412756001164e7 0.0
2.691412756001164e7 -3.7174329609406404e6 0.0
0.0 0.0 0.0

-7.487469057983723e6 2.791955708102252e6 0.0
2.791955708102252e6 5.108273824360661e7 0.0
0.0 0.0 0.0

-2.0936439268045053e6 1.86217031495269e7 0.0
1.86217031495269e7 -9.613767373835633e6 0.0
0.0 0.0 0.0

-1.106798035506238e7 3.1143342520002045e7 0.0
3.1143342520002045e7 6.067350524495815e6 0.0
0.0 0.0 0.0

1.2429469557347223e6 8.91543032028698e6 0.0
8.91543032028698e6 -1.365229001312122e7 0.0
0.0 0.0 0.0

1.0849513149315368e7 2.1398705820726782e7 0.0
2.1398705820726782e7 1.3096948207309153e7 0.0
0.0 0.0 0.0

-4.756332302981908e7 3.339705465845689e7 0.0
3.339705465845689e7 3.7153860416250676e6 0.0
0.0 0.0 0.0

3.1459212039544657e6 1.6724518044908531e7 0.0
1.6724518044908531e7 1.0431615038455233e7 0.0
0.0 0.0 0.0

3.1241210986528657e6 7.195448621083628e6 0.0
7.195448621083628e6 -1.8054503282524273e7 0.0
0.0 0.0 0.0

4.626285760571402e6 2.0711732433673143e7 0.0
2.0711732433673143e7 2.0505689578507397e7 0.0
0.0 0.0 0.0

1.7143394857890387e6 2.6265400436012283e7 0.0
2.6265400436012283e7 -7.452555121077885e6 0.0
0.0 0.0 0.0

2.2057313164860774e7 3.3225935684831537e7 0.0
3.3225935684831537e7 -6.0348171664716145e6 0.0
0.0 0.0 0.0

-3.9337628236998594e6 1.728447460065027e7 0.0
1.728447460065027e7 -1.3112543091511806e7 0.0
0.0 0.0 0.0

-3.2291633895000727e6 1.77429137189013e7 0.0
1.77429137189013e7 8.978066199789137e6 0.0
0.0 0.0 0.0

655796.0093274475 9.041628012542974e6 0.0
9.041628012542974e6 -1.1480442494169349e7 0.0
0.0 0.0 0.0

-5.239316486031019e6 1.8924678261819445e7 0.0
1.8924678261819445e7 -2.6675275309027776e7 0.0
0.0 0.0 0.0

257349.21582585853 2.2267914843312576e7 0.0
2.2267914843312576e7 -1.0266121742008235e7 0.0
0.0 0.0 0.0

1.829714767437997e7 2.507639745978835e7 0.0
2.507639745978835e7 1.4024769367683852e7 0.0
0.0 0.0 0.0

-7.736134475745572e6 2.3697552557086043e7 0.0
2.3697552557086043e7 -1.233210336476754e7 0.0
0.0 0.0 0.0

3.66190263909244e6 2.4117220247181717e7 0.0
2.4117220247181717e7 -7.386117734040426e6 0.0
0.0 0.0 0.0

-8.120939058469006e6 4.0868750301176417e6 0.0
4.0868750301176417e6 1.1410839295461372e7 0.0
0.0 0.0 0.0

-154997.06850656937 7.693583732849906e6 0.0
7.693583732849906e6 -1.1998622849921407e6 0.0
0.0 0.0 0.0

1.0970379757513313e7 2.36196156424403e7 0.0
2.36196156424403e7 -1.5012427035140921e6 0.0
0.0 0.0 0.0

2.6485290014646556e6 1.7707158793987725e7 0.0
1.7707158793987725e7 8.831556125502653e6 0.0
0.0 0.0 0.0

5.8793033124969706e7 2.41035441222039e7 0.0
2.41035441222039e7 1.595191581371398e7 0.0
0.0 0.0 0.0

-9.89276183260518e6 218420.31971681194 0.0
218420.31971681194 3.0832108382409982e7 0.0
0.0 0.0 0.0

-1.911976477508861e7 2.7124011719025087e7 0.0
2.7124011719025087e7 -9.106890079869095e6 0.0
0.0 0.0 0.0

-1.5304558035255613e7 2.502345501408859e7 0.0
2.502345501408859e7 -6.66498023976581e6 0.0
0.0 0.0 0.0

-3.576642194032269e7 2.873640845159275e7 0.0
2.873640845159275e7 -1.3444223874989845e7 0.0
0.0 0.0 0.0

3.922666720762762e7 6.1125086363278255e6 0.0
6.1125086363278255e6 -1.624744512589462e6 0.0
0.0 0.0 0.0

-5.494180355520196e6 9.382409234770624e6 0.0
9.382409234770624e6 5.971753275795797e7 0.0
0.0 0.0 0.0

-1.7234390718456898e6 1.2798377863142515e7 0.0
1.2798377863142515e7 -597909.5441848299 0.0
0.0 0.0 0.0

-1.820039094564063e7 2.6417864881393697e7 0.0
2.6417864881393697e7 -1.238153491448082e7 0.0
0.0 0.0 0.0

-4.391296876087759e6 2.8508860371714048e7 0.0
2.8508860371714048e7 7.411536819939781e6 0.0
0.0 0.0 0.0

-249975.15807911847 2.182834916753521e7 0.0
2.182834916753521e7 -1.170289588656116e7 0.0
0.0 0.0 0.0

963465.3696561772 1.4548638698832048e7 0.0
1.4548638698832048e7 -1.7674168803115536e7 0.0
0.0 0.0 0.0

-115620.21851304593 1.849175990347243e7 0.0
1.849175990347243e7 -6.410521447828975e6 0.0
0.0 0.0 0.0

-8.385557620143546e6 1.6233290247535888e7 0.0
1.6233290247535888e7 -3.0175453130182702e7 0.0
0.0 0.0 0.0

-1.0739316201098578e7 1.8999904093750704e7 0.0
1.8999904093750704e7 -6.6656458690601274e7 0.0
0.0 0.0 0.0

1.4404350451254217e7 5.8475688205818795e6 0.0
5.8475688205818795e6 -2.3190422443656763e6 0.0
0.0 0.0 0.0

1.0444692949804837e7 3.3588182842392e7 0.0
3.3588182842392e7 -5.485946414546022e6 0.0
0.0 0.0 0.0

-6.265010708592485e6 1.735406603110775e7 0.0
1.735406603110775e7 -2.08833698175964e7 0.0
0.0 0.0 0.0

1.948031025025979e7 1.7950469929483697e7 0.0
1.7950469929483697e7 4.656422094049691e6 0.0
0.0 0.0 0.0

-560842.3867542967 1.9550363599658065e7 0.0
1.9550363599658065e7 -7.564390392917797e6 0.0
0.0 0.0 0.0

-428558.16458008194 2.6220728621958848e7 0.0
2.6220728621958848e7 -3.9301189239856605e6 0.0
0.0 0.0 0.0

-4.82229266721677e6 1.865024866155341e7 0.0
1.865024866155341e7 -1.7532111650456972e7 0.0
0.0 0.0 0.0

-2.0361417569270723e7 2.0609975768474657e7 0.0
2.0609975768474657e7 2.4526497654425967e6 0.0
0.0 0.0 0.0

-8.834471886102304e6 -3.119642657962782e6 0.0
-3.119642657962782e6 1.6766187304113556e7 0.0
0.0 0.0 0.0

-5.813451969834839e6 1.959737553767034e7 0.0
1.959737553767034e7 2.2726901839150283e7 0.0
0.0 0.0 0.0

-435550.4672661768 1.8365557905178856e7 0.0
1.8365557905178856e7 2.3599909366805805e6 0.0
0.0 0.0 0.0

-6.697407361104712e6 1.9045698140452083e7 0.0
1.9045698140452083e7 -1.8606232471882943e7 0.0
0.0 0.0 0.0

-621039.7792730839 1.9632489535037704e7 0.0
1.9632489535037704e7 -8.169503683047645e6 0.0
0.0 0.0 0.0

-2.737282980273186e6 1.4034163279231856e7 0.0
1.4034163279231856e7 -3.0977021691275104e6 0.0
0.0 0.0 0.0

2.9139208190860827e7 2.442865469634883e7 0.0
2.442865469634883e7 691973.2016258426 0.0
0.0 0.0 0.0

-1.1155659318710562e7 3.42711000651973e7 0.0
3.42711000651973e7 6.014252676143764e6 0.0
0.0 0.0 0.0

7.089316395137297e6 2.5122421227929022e7 0.0
2.5122421227929022e7 -5.525170064678511e6 0.0
0.0 0.0 0.0

-5.259217308033944e6 2.2351477517952878e7 0.0
2.2351477517952878e7 -4.1368392724162927e6 0.0
0.0 0.0 0.0

-2.722175918601225e6 3.398659059557218e7 0.0
3.398659059557218e7 2.6328781869357396e6 0.0
0.0 0.0 0.0

-5.3672107514623245e6 2.0900729281066738e7 0.0
2.0900729281066738e7 1.9574027110952616e7 0.0
0.0 0.0 0.0

1.1968465051690857e6 8.291981542238793e6 0.0
8.291981542238793e6 -8.781770996839272e6 0.0
0.0 0.0 0.0

-1.9605721386963937e6 7.919052078964199e6 0.0
7.919052078964199e6 2.5649542659379807e6 0.0
0.0 0.0 0.0

-1.1686207747380428e7 1.6914604958943553e7 0.0
1.6914604958943553e7 -4.373497422262845e7 0.0
0.0 0.0 0.0

-3.39111753254839e6 2.2340030504390277e7 0.0
2.2340030504390277e7 6.286235218689606e6 0.0
0.0 0.0 0.0

1.5177805642979369e6 5.437642695140126e6 0.0
5.437642695140126e6 -8.909502689514648e6 0.0
0.0 0.0 0.0

-5.7555937146579295e7 3.459748286751866e7 0.0
3.459748286751866e7 -6.593723295033328e6 0.0
0.0 0.0 0.0

-1.1024879681438953e6 9.112793712202087e6 0.0
9.112793712202087e6 -6.690994594398417e7 0.0
0.0 0.0 0.0

-1.6571788122691102e6 1.072679524360057e7 0.0
1.072679524360057e7 -4.987762047316413e6 0.0
0.0 0.0 0.0

-1.0597736339881156e7 1.7627844665303256e7 0.0
1.7627844665303256e7 -4.665530812531638e7 0.0
0.0 0.0 0.0

2.3584753832034413e6 4.584541851409947e6 0.0
4.584541851409947e6 -4.232211543282241e7 0.0
0.0 0.0 0.0

2.7097964973678358e7 3.750529168367752e7 0.0
3.750529168367752e7 -8.491846968536232e6 0.0
0.0 0.0 0.0

2.4991150247378517e6 1.0305434214345418e7 0.0
1.0305434214345418e7 -2.8039924313265957e7 0.0
0.0 0.0 0.0

-5.213819383578464e6 1.394056267387552e7 0.0
1.394056267387552e7 4.771658919693627e7 0.0
0.0 0.0 0.0

-7.036921443873128e6 1.8887690614052672e7 0.0
1.8887690614052672e7 2.4090512427498363e7 0.0
0.0 0.0 0.0

-3.878506538275638e6 2.4463655667717043e7 0.0
2.4463655667717043e7 1.1504266916106718e7 0.0
0.0 0.0 0.0

-9.209349148207618e6 2.2790253079441845e7 0.0
2.2790253079441845e7 -1.0363508870517729e7 0.0
0.0 0.0 0.0

-6.035514065915845e6 1.957051569980151e7 0.0
1.957051569980151e7 2.4784344431775168e7 0.0
0.0 0.0 0.0

-2.5686164934317935e6 2.6343071997995157e7 0.0
2.6343071997995157e7 2.1026204685214004e6 0.0
0.0 0.0 0.0

1.2340495154486824e7 1.958048534375218e7 0.0
1.958048534375218e7 4.113498544142013e7 0.0
0.0 0.0 0.0

-1.0534924037379134e7 232857.88106091096 0.0
232857.88106091096 1.8682108911752526e7 0.0
0.0 0.0 0.0

968108.539881005 2.1361365236854903e7 0.0
2.1361365236854903e7 -1.4637920049175672e7 0.0
0.0 0.0 0.0

-3.98512501534893e6 1.2992937585326716e7 0.0
1.2992937585326716e7 -7.511192732672109e7 0.0
0.0 0.0 0.0

-9.73925094531766e6 3.6147500731523015e7 0.0
3.6147500731523015e7 5.8331334213670865e6 0.0
0.0 0.0 0.0

3.883192658729577e6 2.801555117196853e7 0.0
2.801555117196853e7 -6.651304148526941e6 0.0
0.0 0.0 0.0

3.4692876192249283e6 2.1966106223583847e7 0.0
2.1966106223583847e7 2.9320537007469097e6 0.0
0.0 0.0 0.0

-6.934590922249142e6 1.881832901025284e7 0.0
1.881832901025284e7 2.5567395103237633e7 0.0
0.0 0.0 0.0

-2.179235494479186e7 3.640913866194684e7 0.0
3.640913866194684e7 6.790615121023882e6 0.0
0.0 0.0 0.0

1.670249589572691e6 2.400654064488746e7 0.0
2.400654064488746e7 -1.0418454760150963e7 0.0
0.0 0.0 0.0

-5.289465267452798e6 1.7246335563372586e7 0.0
1.7246335563372586e7 -3.44709423960929e7 0.0
0.0 0.0 0.0

-1.6704673213168535e7 3.8876103597691774e7 0.0
3.8876103597691774e7 5.760745636116388e6 0.0
0.0 0.0 0.0

3.7765816344231755e7 3.465082255187609e7 0.0
3.465082255187609e7 -9.192300023884581e6 0.0
0.0 0.0 0.0

2.6872236780048353e6 2.0907239252578065e7 0.0
2.0907239252578065e7 4.218944084622619e6 0.0
0.0 0.0 0.0

1.7936905261779912e6 1.2244873314955804e7 0.0
1.2244873314955804e7 -2.493322570843999e7 0.0
0.0 0.0 0.0

-1.3143487038373677e7 1.957509907246113e7 0.0
1.957509907246113e7 -5.093231885981679e7 0.0
0.0 0.0 0.0

1.76487780163454e7 3.3437123611445673e7 0.0
3.3437123611445673e7 -5.958309136390505e6 0.0
0.0 0.0 0.0

-655289.636727225 1.9882081084570028e7 0.0
1.9882081084570028e7 -1.5152856749515498e7 0.0
0.0 0.0 0.0

797246.8489917915 3.0726151040139947e7 0.0
3.0726151040139947e7 -3.350997897955919e6 0.0
0.0 0.0 0.0

-2.6964004887634963e6 1.2020575951868001e7 0.0
1.2020575951868001e7 -6.29012847983334e7 0.0
0.0 0.0 0.0

1.4093533354305767e6 2.000693953336006e7 0.0
2.000693953336006e7 8.691180625206536e6 0.0
0.0 0.0 0.0

-2.605344970357141e7 3.3050173822628845e7 0.0
3.3050173822628845e7 6.089554613927007e6 0.0
0.0 0.0 0.0

-1.9571296871882e6 2.683327146126627e7 0.0
2.683327146126627e7 2.809205338695303e6 0.0
0.0 0.0 0.0

2.621733472513926e7 2.193589115544041e7 0.0
2.193589115544041e7 1.018339834462706e7 0.0
0.0 0.0 0.0

-3.608741880836877e6 3.485822918935265e7 0.0
3.485822918935265e7 1.4159455940503946e6 0.0
0.0 0.0 0.0

3.6518443685078993e6 1.9826623596858e7 0.0
1.9826623596858e7 1.4000862015509553e7 0.0
0.0 0.0 0.0

-1.7806772312562976e6 3.097779858779699e6 0.0
3.097779858779699e6 -209382.58622287464 0.0
0.0 0.0 0.0

1.0922687235524977e7 3.5663147296964705e7 0.0
3.5663147296964705e7 -4.675322784785633e6 0.0
0.0 0.0 0.0

-226286.7608207632 1.920042173868794e7 0.0
1.920042173868794e7 -2.108435593541412e7 0.0
0.0 0.0 0.0

2.0884512765508816e6 3.7219792370311385e6 0.0
3.7219792370311385e6 -5.293172377968727e7 0.0
0.0 0.0 0.0

-372703.3082200512 1.1759402349365838e7 0.0
1.1759402349365838e7 -7.493821559308084e6 0.0
0.0 0.0 0.0

1.6732268315580664e6 6.791766881541024e6 0.0
6.791766881541024e6 -9.13840624455396e6 0.0
0.0 0.0 0.0

1.0684508875372428e6 1.548157487418266e7 0.0
1.548157487418266e7 -1.7509711569444735e7 0.0
0.0 0.0 0.0

-2.2757242465698376e7 3.1094079444600675e7 0.0
3.1094079444600675e7 5.058668418867475e6 0.0
0.0 0.0 0.0

-3.126999098085562e6 2.2437480459977776e7 0.0
2.2437480459977776e7 3.461569454238541e6 0.0
0.0 0.0 0.0

5.784040225853696e6 2.555604651480152e7 0.0
2.555604651480152e7 -6.191040101641141e6 0.0
0.0 0.0 0.0

2.5710630915471017e6 5.996944945400739e6 0.0
5.996944945400739e6 -4.142935367859687e7 0.0
0.0 0.0 0.0

-61808.27455312759 2.1769041314702336e7 0.0
2.1769041314702336e7 -9.932147506666847e6 0.0
0.0 0.0 0.0

-65154.42456858512 1.824581812078579e7 0.0
1.824581812078579e7 -1.5131708743487354e7 0.0
0.0 0.0 0.0

-1.4384913382119663e7 2.5355957473964296e7 0.0
2.5355957473964296e7 -1.1842948582952598e7 0.0
0.0 0.0 0.0

1.5679871788427101e7 3.081449594008374e7 0.0
3.081449594008374e7 -5.811758551290454e6 0.0
0.0 0.0 0.0

-4.784884204685835e6 2.584050195593648e7 0.0
2.584050195593648e7 1.072900292428643e7 0.0
0.0 0.0 0.0

3.2638106925826278e6 2.080265062372985e7 0.0
2.080265062372985e7 1.3766697816652978e7 0.0
0.0 0.0 0.0

4.758371317900248e6 1.8563703300035216e7 0.0
1.8563703300035216e7 7.788421896471131e7 0.0
0.0 0.0 0.0

-4.238010395213405e6 3.8722188972665355e7 0.0
3.8722188972665355e7 3.5573986530305427e6 0.0
0.0 0.0 0.0

1.3130352639814615e6 2.204419009367325e7 0.0
2.204419009367325e7 -9.62543201942537e6 0.0
0.0 0.0 0.0

1.968187422891019e6 1.1034847074919399e7 0.0
1.1034847074919399e7 -3.263042400664689e7 0.0
0.0 0.0 0.0

2.0034260644085407e6 1.0133266110791432e7 0.0
1.0133266110791432e7 -3.444212894778374e7 0.0
0.0 0.0 0.0

3.5893738301985245e6 3.114796432390231e6 0.0
3.114796432390231e6 -2.9457084564536825e7 0.0
0.0 0.0 0.0

-3.1545805556270424e6 2.5089492792214394e7 0.0
2.5089492792214394e7 1.0687948952059742e7 0.0
0.0 0.0 0.0

3.228669577814134e6 3.383117040879891e6 0.0
3.383117040879891e6 -2.932916994360176e7 0.0
0.0 0.0 0.0

-9.704880877225189e6 3.3799550589642744e6 0.0
3.3799550589642744e6 3.714453521775525e7 0.0
0.0 0.0 0.0

-3.48828199410157e6 2.2705675583180744e7 0.0
2.2705675583180744e7 1.6949094986559447e7 0.0
0.0 0.0 0.0

-2.3122624719071295e6 1.1351100260716384e7 0.0
1.1351100260716384e7 -3.3939608156892527e6 0.0
0.0 0.0 0.0

2.920720190695538e6 2.863931003469781e7 0.0
2.863931003469781e7 -6.22019468140678e6 0.0
0.0 0.0 0.0

6.926274636882335e6 3.224199373197454e7 0.0
3.224199373197454e7 -4.349128651726346e6 0.0
0.0 0.0 0.0

1.6459847935183644e6 1.692491769917569e7 0.0
1.692491769917569e7 3.813328903131034e6 0.0
0.0 0.0 0.0

-1.8074683856791798e6 1.2171305121899191e7 0.0
1.2171305121899191e7 -5.400256518229627e7 0.0
0.0 0.0 0.0

2.6512639349754527e6 4.262625137522345e6 0.0
4.262625137522345e6 -4.560596172637173e7 0.0
0.0 0.0 0.0

-5.286858493270166e7 3.937487407716749e7 0.0
3.937487407716749e7 -1.3315659313395623e7 0.0
0.0 0.0 0.0

2.5908595231767148e7 2.578407376380841e7 0.0
2.578407376380841e7 1.2477014620507278e7 0.0
0.0 0.0 0.0

5.588406470713357e6 3.1737324253097694e7 0.0
3.1737324253097694e7 -4.330646862645399e6 0.0
0.0 0.0 0.0

108164.88953753002 2.01044265150969e7 0.0
2.01044265150969e7 2.04388686838402e7 0.0
0.0 0.0 0.0

1.3105156035451912e6 1.860330656518134e7 0.0
1.860330656518134e7 4.035905646500744e6 0.0
0.0 0.0 0.0

-8.893754553033115e6 8.342230224534006e6 0.0
8.342230224534006e6 4.338737438576627e7 0.0
0.0 0.0 0.0

-1.2073609835089553e7 3.2417339145162135e7 0.0
3.2417339145162135e7 5.743234710868079e6 0.0
0.0 0.0 0.0

-1.2160709633399814e6 1.5371836367624596e7 0.0
1.5371836367624596e7 -9.429600685794013e6 0.0
0.0 0.0 0.0

-1.0559993615441734e7 2.2231667700471394e6 0.0
2.2231667700471394e6 2.9229291126248576e7 0.0
0.0 0.0 0.0

316792.22998723015 1.3098031155702867e7 0.0
1.3098031155702867e7 9.30118363399221e7 0.0
0.0 0.0 0.0

1.003189510123563e6 2.2030320821333513e7 0.0
2.2030320821333513e7 -1.3492187261043657e7 0.0
0.0 0.0 0.0

2.5081428164407606e6 4.458904263371366e6 0.0
4.458904263371366e6 -9.683808403945157e6 0.0
0.0 0.0 0.0

-5.631949454081662e6 9.208158417110758e6 0.0
9.208158417110758e6 6.203210368524235e7 0.0
0.0 0.0 0.0

3.0782564946021456e6 3.336691540503898e6 0.0
3.336691540503898e6 -3.733603044029994e7 0.0
0.0 0.0 0.0

-6.926520931704737e6 2.2567307006958928e7 0.0
2.2567307006958928e7 -1.3278683440609463e7 0.0
0.0 0.0 0.0

-2.3559447699280195e7 2.754116434259674e7 0.0
2.754116434259674e7 -1.3019970909191232e7 0.0
0.0 0.0 0.0

132650.94339270983 1.98998180394023e7 0.0
1.98998180394023e7 -1.75898440166182e7 0.0
0.0 0.0 0.0

-2.6957188468905836e6 1.2227918721945945e7 0.0
1.2227918721945945e7 2.383834872404539e6 0.0
0.0 0.0 0.0

-5.660880365923879e6 2.3361899331904806e7 0.0
2.3361899331904806e7 856836.0061683573 0.0
0.0 0.0 0.0

1.9742975663267776e7 2.9833235874010704e7 0.0
2.9833235874010704e7 -5.413701108227018e6 0.0
0.0 0.0 0.0

-8.758779270488724e6 -3.196693341326841e6 0.0
-3.196693341326841e6 1.903527330763428e7 0.0
0.0 0.0 0.0

1.2070598183350068e7 2.1726248108789477e7 0.0
2.1726248108789477e7 7.388124287163941e6 0.0
0.0 0.0 0.0

1.9096017711828932e7 3.890564152178775e7 0.0
3.890564152178775e7 -8.090484886341638e6 0.0
0.0 0.0 0.0

3.3658761651037466e6 3.375447093338219e6 0.0
3.375447093338219e6 -3.3032002649801828e7 0.0
0.0 0.0 0.0

-3.402824490390473e6 1.9668709898049526e7 0.0
1.9668709898049526e7 4.620380262277971e6 0.0
0.0 0.0 0.0

1.1665256398770273e7 2.0879933260495417e7 0.0
2.0879933260495417e7 4.6213585697389334e7 0.0
0.0 0.0 0.0

6.423354549492291e7 7.557554281997753e6 0.0
7.557554281997753e6 -637066.6623513959 0.0
0.0 0.0 0.0

-3.0521523365954664e7 2.987730997593381e7 0.0
2.987730997593381e7 -1.2245553850913726e7 0.0
0.0 0.0 0.0

-2.72669346690596e6 2.5895628368960634e7 0.0
2.5895628368960634e7 3.1115360223409534e6 0.0
0.0 0.0 0.0

-1.287481865045404e6 1.242225955847999e7 0.0
1.242225955847999e7 -4.710399632535869e7 0.0
0.0 0.0 0.0

-1.6983776990523018e7 3.0523906170216434e7 0.0
3.0523906170216434e7 5.330585695940982e6 0.0
0.0 0.0 0.0

1.0400017898312833e7 2.21572800681843e7 0.0
2.21572800681843e7 9.290684336505542e6 0.0
0.0 0.0 0.0

-3.054928939541012e6 8.79062898609702e6 0.0
8.79062898609702e6 7.489363791216639e7 0.0
0.0 0.0 0.0

-4.665093672621304e6 2.424502706852977e7 0.0
2.424502706852977e7 1.1646771467122719e7 0.0
0.0 0.0 0.0

3.8822979873537803e6 1.865074772861163e7 0.0
1.865074772861163e7 1.8382402719087057e7 0.0
0.0 0.0 0.0

-736118.4210257689 2.0071254277038105e7 0.0
2.0071254277038105e7 -1.135220594647795e7 0.0
0.0 0.0 0.0

8.624679745633837e6 2.338183567366275e7 0.0
2.338183567366275e7 -1.1853806228252347e6 0.0
0.0 0.0 0.0

2.584776184982997e6 2.270230661167358e7 0.0
2.270230661167358e7 -6.671152727056912e6 0.0
0.0 0.0 0.0

-2.8547400285153664e6 1.5312107980178716e7 0.0
1.5312107980178716e7 -2.8553745748594548e6 0.0
0.0 0.0 0.0

2.1781394419492437e6 1.9752045072325595e7 0.0
1.9752045072325595e7 2.382861915395049e7 0.0
0.0 0.0 0.0

1.1118990632363204e6 1.9636156259986613e7 0.0
1.9636156259986613e7 2.852699438032359e6 0.0
0.0 0.0 0.0

224002.5667653333 1.91410458148829e7 0.0
1.91410458148829e7 -3.8820027651848765e6 0.0
0.0 0.0 0.0

-5.446263869145112e6 1.7548982808327243e7 0.0
1.7548982808327243e7 -3.0241800194521517e7 0.0
0.0 0.0 0.0

-2.7602995984639917e6 2.8773523306650516e7 0.0
2.8773523306650516e7 4.717973199268195e6 0.0
0.0 0.0 0.0

-2.0792610531673864e7 2.6054069088930838e7 0.0
2.6054069088930838e7 -1.2071592025409102e7 0.0
0.0 0.0 0.0

-1.0044474256967051e7 3.346276795812297e7 0.0
3.346276795812297e7 5.1829273866236685e6 0.0
0.0 0.0 0.0

-702655.0570153408 2.111902513701483e7 0.0
2.111902513701483e7 1.4592072865292883e7 0.0
0.0 0.0 0.0

2.93216083056082e6 6.497428528633458e6 0.0
6.497428528633458e6 -3.320571824900473e7 0.0
0.0 0.0 0.0

834598.8832237376 2.1400307497100443e7 0.0
2.1400307497100443e7 -1.4555323508630466e7 0.0
0.0 0.0 0.0

1.645116534355956e7 3.0516091758981485e7 0.0
3.0516091758981485e7 -5.341600788276035e6 0.0
0.0 0.0 0.0

-9.88851014974366e6 2.378590720002823e6 0.0
2.378590720002823e6 3.417963221847862e7 0.0
0.0 0.0 0.0

-4.44969267770746e6 2.3517853395092715e7 0.0
2.3517853395092715e7 8.32402140381052e6 0.0
0.0 0.0 0.0

1.847565998266002e6 2.1772146652639713e7 0.0
2.1772146652639713e7 2.433770082457481e6 0.0
0.0 0.0 0.0

9.391668500477107e6 2.447062498975979e7 0.0
2.447062498975979e7 -3.0558392937705573e6 0.0
0.0 0.0 0.0

-1.0451193019934816e7 8.626412399683138e6 0.0
8.626412399683138e6 3.202214058521257e7 0.0
0.0 0.0 0.0

6.193539707709988e6 1.8120882441567007e7 0.0
1.8120882441567007e7 2.515568278658098e7 0.0
0.0 0.0 0.0

-8.625842234494884e6 2.2151128255928215e7 0.0
2.2151128255928215e7 -1.2795826542776773e7 0.0
0.0 0.0 0.0

-556492.3130012155 1.7335387463339824e7 0.0
1.7335387463339824e7 -2.7234223227534313e7 0.0
0.0 0.0 0.0

9.7113029226622e6 3.793747351808096e7 0.0
3.793747351808096e7 -3.7387354646074953e6 0.0
0.0 0.0 0.0

-9.68528161992012e6 3.475373878706846e7 0.0
3.475373878706846e7 4.5728668388799885e6 0.0
0.0 0.0 0.0

-1.088083552552278e7 9.837082186476095e6 0.0
9.837082186476095e6 2.777024349861906e7 0.0
0.0 0.0 0.0

-9.09035191302628e6 2.4041149295054838e7 0.0
2.4041149295054838e7 -7.074369344406154e6 0.0
0.0 0.0 0.0

-7.237867357300458e6 3.521739605682814e7 0.0
3.521739605682814e7 3.542466018325566e6 0.0
0.0 0.0 0.0

-7.941937739917092e6 3.410607737437756e7 0.0
3.410607737437756e7 4.296488013036709e6 0.0
0.0 0.0 0.0

3.8792178334142775e6 1.7743305344919972e7 0.0
1.7743305344919972e7 1.529502303547279e7 0.0
0.0 0.0 0.0

1.8569535165866874e6 1.3807806259144813e7 0.0
1.3807806259144813e7 -2.2555203245602846e7 0.0
0.0 0.0 0.0

5.830978114278132e7 3.534112595231525e7 0.0
3.534112595231525e7 2.5143041069353353e7 0.0
0.0 0.0 0.0

-3.950488863685658e7 3.476906184159681e6 0.0
3.476906184159681e6 6.864029922522109e6 0.0
0.0 0.0 0.0

-1.8873565001501527e7 2.968274484641534e7 0.0
2.968274484641534e7 3.9669209922121996e6 0.0
0.0 0.0 0.0

2.6068113111575786e6 3.1061381095130574e6 0.0
3.1061381095130574e6 -3.7150871909806035e7 0.0
0.0 0.0 0.0

-133080.82195547316 2.111702205269232e7 0.0
2.111702205269232e7 -1.297181495441355e7 0.0
0.0 0.0 0.0

-1.3992103272512438e7 3.094823643999945e7 0.0
3.094823643999945e7 5.860993762744799e6 0.0
0.0 0.0 0.0

-1.0264227707593542e7 5.965491647374791e6 0.0
5.965491647374791e6 3.58452950339933e7 0.0
0.0 0.0 0.0

1.5712102225816324e6 1.0729584604220655e7 0.0
1.0729584604220655e7 -3.0526350389662728e7 0.0
0.0 0.0 0.0

-6.780804017021307e6 1.7030447719776675e7 0.0
1.7030447719776675e7 -2.466085224038606e7 0.0
0.0 0.0 0.0

1.0584488240425944e7 2.321867282525858e7 0.0
2.321867282525858e7 9.551183078817438e6 0.0
0.0 0.0 0.0

-4.070309503401106e7 3.232458395050251e7 0.0
3.232458395050251e7 -1.0214249905073518e7 0.0
0.0 0.0 0.0

-4.02611192307505e6 1.3511827155209148e7 0.0
1.3511827155209148e7 1.7930224531701806e6 0.0
0.0 0.0 0.0

-1.0564863381768946e7 2.9821775564496424e7 0.0
2.9821775564496424e7 6.175502377851836e6 0.0
0.0 0.0 0.0

-2.198170669505082e6 2.989543035888982e7 0.0
2.989543035888982e7 3.0631625808872045e6 0.0
0.0 0.0 0.0

-7.603964417757775e6 6.66840729014301e6 0.0
6.66840729014301e6 1.9583013559552357e7 0.0
0.0 0.0 0.0

-9.117145082113937e6 -555243.9196823689 0.0
-555243.9196823689 2.0126026574545413e7 0.0
0.0 0.0 0.0

1.1034606717990898e6 1.4197646800612515e7 0.0
1.4197646800612515e7 -2.31881378481121e7 0.0
0.0 0.0 0.0

-9.797825015440756e6 4.676851924664826e6 0.0
4.676851924664826e6 3.562145631409557e7 0.0
0.0 0.0 0.0

458987.6775278179 1.7776609795096993e7 0.0
1.7776609795096993e7 -2.1157631283992987e7 0.0
0.0 0.0 0.0

8.835326552620048e6 2.2048672421933312e7 0.0
2.2048672421933312e7 273998.098972776 0.0
0.0 0.0 0.0

751761.8336571474 9.657707627398705e6 0.0
9.657707627398705e6 -1.2395296302634452e7 0.0
0.0 0.0 0.0

-2.0055672331049096e7 2.96681610771051e7 0.0
2.96681610771051e7 3.9587331822236916e6 0.0
0.0 0.0 0.0

-1.2726708093576353e7 2.550641977638425e7 0.0
2.550641977638425e7 -1.2024966517536622e7 0.0
0.0 0.0 0.0

579165.646876153 1.8319408603549663e7 0.0
1.8319408603549663e7 1.9305531911502474e6 0.0
0.0 0.0 0.0

-456568.8296592316 1.8376020119904377e7 0.0
1.8376020119904377e7 -1.521896905983523e6 0.0
0.0 0.0 0.0

1.699426900645081e6 1.4542785640088107e7 0.0
1.4542785640088107e7 -2.1299700544970855e7 0.0
0.0 0.0 0.0

-6.115416118231717e6 1.7810371905186385e7 0.0
1.7810371905186385e7 -2.4138053532628495e7 0.0
0.0 0.0 0.0

-1.0641344194820303e7 1.5112301894284629e6 0.0
1.5112301894284629e6 2.6128942245861575e7 0.0
0.0 0.0 0.0

-3.7664638827696596e6 1.474494949854085e7 0.0
1.474494949854085e7 8.0875807204693565e6 0.0
0.0 0.0 0.0

1.7182719771841043e6 2.3671731069004092e7 0.0
2.3671731069004092e7 -1.061112128550116e7 0.0
0.0 0.0 0.0

2.4810132421934344e6 7.42668165687886e6 0.0
7.42668165687886e6 -2.332344048804878e7 0.0
0.0 0.0 0.0

-4.3271368913260445e7 2.8496245668309096e7 0.0
2.8496245668309096e7 -5.809665861194384e6 0.0
0.0 0.0 0.0

6.780544366988679e6 2.3132106961174052e7 0.0
2.3132106961174052e7 -1.4945618069843766e6 0.0
0.0 0.0 0.0

2.5787547299648326e7 2.1703485594261702e7 0.0
2.1703485594261702e7 5.040021601027759e6 0.0
0.0 0.0 0.0

-1.0559751948055156e7 3.887230817540282e7 0.0
3.887230817540282e7 5.843229865798341e6 0.0
0.0 0.0 0.0

-1.0714881769455845e7 4.617805767981747e6 0.0
4.617805767981747e6 2.3038481438577034e7 0.0
0.0 0.0 0.0

-300037.47391747497 1.891409992221692e7 0.0
1.891409992221692e7 -1.3861919731421582e7 0.0
0.0 0.0 0.0

-1.0980868258924287e7 2.3859633938333992e7 0.0
2.3859633938333992e7 -6.50441429856674e6 0.0
0.0 0.0 0.0

-2.157274402183764e7 3.3388613323897526e7 0.0
3.3388613323897526e7 5.745525521324037e6 0.0
0.0 0.0 0.0

-7.970757375790736e6 1.847302529374198e7 0.0
1.847302529374198e7 -3.832668741580324e7 0.0
0.0 0.0 0.0

2.13940237063545e6 1.9374312473226532e7 0.0
1.9374312473226532e7 9.843431831539623e6 0.0
0.0 0.0 0.0

-5.27129464747538e6 1.7603006214058705e7 0.0
1.7603006214058705e7 -2.635903495198885e7 0.0
0.0 0.0 0.0

-1.6065732455291761e7 3.6641126207951725e7 0.0
3.6641126207951725e7 6.435194263878285e6 0.0
0.0 0.0 0.0

1.4388813914229306e6 2.6469011805227585e7 0.0
2.6469011805227585e7 -7.756445238652248e6 0.0
0.0 0.0 0.0

-7.933350348105458e6 2.4345294622274827e7 0.0
2.4345294622274827e7 -813889.465367642 0.0
0.0 0.0 0.0

1.60144928412457e6 1.1834409074040897e7 0.0
1.1834409074040897e7 -3.317855186501189e7 0.0
0.0 0.0 0.0

-9.14222316916455e6 8.383168409320304e6 0.0
8.383168409320304e6 4.074771998452649e7 0.0
0.0 0.0 0.0

-1.442865633403245e6 1.900956664272965e7 0.0
1.900956664272965e7 -9.17260094262373e6 0.0
0.0 0.0 0.0

9.456494084293913e6 2.3025011511721864e7 0.0
2.3025011511721864e7 -1.6342519639087575e6 0.0
0.0 0.0 0.0

-6.65305176018399e6 1.8645907015796546e7 0.0
1.8645907015796546e7 -3.1958547053756528e7 0.0
0.0 0.0 0.0

-1.1559989532685261e7 2.958509255199529e7 0.0
2.958509255199529e7 5.790039975714331e6 0.0
0.0 0.0 0.0

2.960658467023067e7 3.670297615451549e7 0.0
3.670297615451549e7 -7.25803820944342e6 0.0
0.0 0.0 0.0

-7.581948698366088e6 2.3744667839343343e7 0.0
2.3744667839343343e7 -4.875301786861245e6 0.0
0.0 0.0 0.0

-1.2085880382880922e7 3.0959570035487834e7 0.0
3.0959570035487834e7 5.740891010564983e6 0.0
0.0 0.0 0.0

-6.276351239839565e6 1.992624251570167e7 0.0
1.992624251570167e7 2.103649107496724e7 0.0
0.0 0.0 0.0

3.783647703440766e6 2.1955119292064793e7 0.0
2.1955119292064793e7 -5.401576213184442e6 0.0
0.0 0.0 0.0

-3.3670655770313325e6 2.8838376183338664e7 0.0
2.8838376183338664e7 5.534806422761982e6 0.0
0.0 0.0 0.0

-6.5727529473556e6 1.7299081504332688e7 0.0
1.7299081504332688e7 -3.670575488206191e7 0.0
0.0 0.0 0.0

2.6545468149094097e6 5.00755342886108e6 0.0
5.00755342886108e6 -3.167240397684463e7 0.0
0.0 0.0 0.0

-6.561684303082066e6 1.871776535296548e7 0.0
1.871776535296548e7 -2.804584361358813e7 0.0
0.0 0.0 0.0

-4.813561981895354e6 3.1985800217690587e7 0.0
3.1985800217690587e7 3.5518929261567164e6 0.0
0.0 0.0 0.0

-3.4023207147524776e6 1.9713466258187104e7 0.0
1.9713466258187104e7 -1.1341069063745447e7 0.0
0.0 0.0 0.0

3.101399941712825e6 1.978444220883722e7 0.0
1.978444220883722e7 1.0338000344338588e7 0.0
0.0 0.0 0.0

-7.416398102190092e6 1.743911219221115e7 0.0
1.743911219221115e7 3.0223846287606016e7 0.0
0.0 0.0 0.0

-1.670509644884163e6 1.4778037336936973e7 0.0
1.4778037336936973e7 -1.992051443959761e6 0.0
0.0 0.0 0.0

1.3002041360715996e7 1.869680257421562e7 0.0
1.869680257421562e7 4.989004723782264e7 0.0
0.0 0.0 0.0

-9.348348962201787e6 3.2687971768316715e6 0.0
3.2687971768316715e6 4.03054910473335e7 0.0
0.0 0.0 0.0

2.0631204013116509e6 4.360451599164175e6 0.0
4.360451599164175e6 -4.51667134781563e7 0.0
0.0 0.0 0.0

-4.403951708508142e6 1.8731134979157303e7 0.0
1.8731134979157303e7 -2.8756730337504786e7 0.0
0.0 0.0 0.0

-1.0321322444113962e7 3.1112982281074926e7 0.0
3.1112982281074926e7 5.799991867060648e6 0.0
0.0 0.0 0.0

3.0869580231042497e7 1.4543735473496482e7 0.0
1.4543735473496482e7 1.1946971051557828e6 0.0
0.0 0.0 0.0

-1.1110888146860313e7 7.069530035874204e6 0.0
7.069530035874204e6 3.0191678147826187e7 0.0
0.0 0.0 0.0

-2.610388565980994e7 3.1211593118016794e7 0.0
3.1211593118016794e7 -1.3120616895146722e7 0.0
0.0 0.0 0.0

-3.7996312833556207e6 2.2915506713405196e7 0.0
2.2915506713405196e7 8.69387122517475e6 0.0
0.0 0.0 0.0

-2.136130246533435e7 3.645476002247097e7 0.0
3.645476002247097e7 6.832998451935083e6 0.0
0.0 0.0 0.0

1.8248214099157024e6 4.9078433923674375e6 0.0
4.9078433923674375e6 -4.65760627167489e7 0.0
0.0 0.0 0.0

6.813674212658942e6 3.0971247251981806e7 0.0
3.0971247251981806e7 -4.984236655484804e6 0.0
0.0 0.0 0.0

-3.8221346418618783e6 1.3416938071373852e7 0.0
1.3416938071373852e7 5.692827362182276e7 0.0
0.0 0.0 0.0

-3.6174843591855476e6 2.7831396399942845e7 0.0
2.7831396399942845e7 7.6904060251986105e6 0.0
0.0 0.0 0.0

-1.6729817182009972e6 1.8390185352435995e7 0.0
1.8390185352435995e7 -6.890019418771247e6 0.0
0.0 0.0 0.0

-7.656870964579458e6 2.1749478709164583e6 0.0
2.1749478709164583e6 1.336181385052906e7 0.0
0.0 0.0 0.0

4.926503598712612e6 2.0004945018998798e7 0.0
2.0004945018998798e7 1.643257524165696e7 0.0
0.0 0.0 0.0

-4.736730563369234e6 2.3965781333549798e7 0.0
2.3965781333549798e7 1.020279737485072e7 0.0
0.0 0.0 0.0

1.4662693221210097e6 1.0477340069013203e7 0.0
1.0477340069013203e7 -1.112890313246779e7 0.0
0.0 0.0 0.0

-3.609136777777621e6 2.19467801144242e7 0.0
2.19467801144242e7 1.0163582712475974e6 0.0
0.0 0.0 0.0

7.723187070345694e6 2.262919595347467e7 0.0
2.262919595347467e7 -2.224127138765395e6 0.0
0.0 0.0 0.0

-2.385037735405993e6 1.4873380152589612e7 0.0
1.4873380152589612e7 1.22965736830525e6 0.0
0.0 0.0 0.0

-4.254725856765346e6 1.719871731842548e7 0.0
1.719871731842548e7 -3.2347406646955997e7 0.0
0.0 0.0 0.0

-4.051117544587658e6 1.8443207592036705e7 0.0
1.8443207592036705e7 7.786156907303931e6 0.0
0.0 0.0 0.0

-5.59902225872476e6 1.9734812125083145e7 0.0
1.9734812125083145e7 2.477929990127715e7 0.0
0.0 0.0 0.0

-9.74899218260818e6 1.3398691491437228e6 0.0
1.3398691491437228e6 2.9278681044685952e7 0.0
0.0 0.0 0.0

-1.2707470470311614e7 2.4436563162515495e7 0.0
2.4436563162515495e7 -10372.84541461803 0.0
0.0 0.0 0.0

-7.393135624259973e6 2.931231064552862e7 0.0
2.931231064552862e7 6.81783762621907e6 0.0
0.0 0.0 0.0

1.2636883674176602e7 3.1300017759707164e7 0.0
3.1300017759707164e7 -5.678600835961811e6 0.0
0.0 0.0 0.0

-1.0642291775771625e7 6.591351115604508e6 0.0
6.591351115604508e6 3.292511451794743e7 0.0
0.0 0.0 0.0

-5.343272559850743e6 1.8141259720868908e7 0.0
1.8141259720868908e7 -3.37519667087528e7 0.0
0.0 0.0 0.0

-4.774401559314333e6 2.9183224605491187e7 0.0
2.9183224605491187e7 6.820898996700102e6 0.0
0.0 0.0 0.0

686224.5661632037 2.0424958990345974e7 0.0
2.0424958990345974e7 -8.082270449897075e6 0.0
0.0 0.0 0.0

-1.6712018959876918e6 1.6070563204466343e7 0.0
1.6070563204466343e7 -7.983751276594776e6 0.0
0.0 0.0 0.0

-1.0116419373863509e7 2.0808708359348038e6 0.0
2.0808708359348038e6 2.09724525695154e7 0.0
0.0 0.0 0.0

-9.952814425251592e6 3.2369341918180775e7 0.0
3.2369341918180775e7 5.780681751095192e6 0.0
0.0 0.0 0.0

-1.5989094011127746e6 2.4414360461171973e7 0.0
2.4414360461171973e7 -297472.7684693452 0.0
0.0 0.0 0.0

3.8817375928894356e6 2.143616082624244e7 0.0
2.143616082624244e7 1.4920329261537157e7 0.0
0.0 0.0 0.0

-2.4349794071965506e6 2.4805986958634015e6 0.0
2.4805986958634015e6 5.3605853928818945e6 0.0
0.0 0.0 0.0

4.773723595474332e6 2.167373194408043e7 0.0
2.167373194408043e7 5.159167326864913e6 0.0
0.0 0.0 0.0

-862586.6473953798 9.357476266867992e6 0.0
9.357476266867992e6 -6.1677227680769235e7 0.0
0.0 0.0 0.0

7.227194956541222e6 3.5533345740213685e7 0.0
3.5533345740213685e7 -4.78617996934663e6 0.0
0.0 0.0 0.0

-5.207102863162817e6 2.50075484252224e7 0.0
2.50075484252224e7 1.0930427571599804e7 0.0
0.0 0.0 0.0

-1.048155883145994e7 1.0671262284769781e7 0.0
1.0671262284769781e7 1.5527385541584678e7 0.0
0.0 0.0 0.0

-1.4558671551711508e6 2.1237035372606892e7 0.0
2.1237035372606892e7 -3.4749726606527073e6 0.0
0.0 0.0 0.0

-1.0380507629041374e6 1.1665662732791401e7 0.0
1.1665662732791401e7 -5.7500459122918546e7 0.0
0.0 0.0 0.0

-1.0642545981224906e6 1.7949066584023494e7 0.0
1.7949066584023494e7 -2.450797176278725e7 0.0
0.0 0.0 0.0

-1.0286041805624077e7 3.637368381289206e7 0.0
3.637368381289206e7 4.1936929882223867e6 0.0
0.0 0.0 0.0

-2.649163319755236e6 1.9423903575612217e7 0.0
1.9423903575612217e7 -8.830545503328674e6 0.0
0.0 0.0 0.0

-5.3805775145218065e6 2.3295502252419908e7 0.0
2.3295502252419908e7 -1.2691546674580608e7 0.0
0.0 0.0 0.0

-2.3707757236373196e6 2.5207265071516734e7 0.0
2.5207265071516734e7 5.987332017223663e6 0.0
0.0 0.0 0.0

631595.2938637203 1.8967588451999944e7 0.0
1.8967588451999944e7 -1.3985598768384403e7 0.0
0.0 0.0 0.0

8.261651106588369e6 2.3017340616506398e7 0.0
2.3017340616506398e7 7.932956281743263e6 0.0
0.0 0.0 0.0

-8.598236162546784e6 2.394215428073224e7 0.0
2.394215428073224e7 -1.263801362868568e7 0.0
0.0 0.0 0.0

-2.4766031441738657e6 2.230253335536103e7 0.0
2.230253335536103e7 6.182652734827302e6 0.0
0.0 0.0 0.0

-4.750148566655964e6 9.75272168545541e6 0.0
9.75272168545541e6 6.287492732304498e7 0.0
0.0 0.0 0.0

-561023.7765874872 1.5612881956515482e7 0.0
1.5612881956515482e7 -7.259312676504859e6 0.0
0.0 0.0 0.0

-7.634686162132999e6 1.6232860909252342e7 0.0
1.6232860909252342e7 -2.6264882703861237e7 0.0
0.0 0.0 0.0

677634.2708260827 2.08358606305148e7 0.0
2.08358606305148e7 -1.6024564934428507e7 0.0
0.0 0.0 0.0

-5.933370818108586e6 2.087139223147079e7 0.0
2.087139223147079e7 -1.636889097414703e7 0.0
0.0 0.0 0.0

-3.7643537667949847e6 2.338542122769238e7 0.0
2.338542122769238e7 1.066570499441663e7 0.0
0.0 0.0 0.0

594060.9266543629 1.8054035530818123e7 0.0
1.8054035530818123e7 1.9802031209795815e6 0.0
0.0 0.0 0.0

-2.726937070088291e6 3.0118338450498313e7 0.0
3.0118338450498313e7 3.946940987881034e6 0.0
0.0 0.0 0.0

-3.8170450281074336e6 2.266612716220502e7 0.0
2.266612716220502e7 768843.5971564695 0.0
0.0 0.0 0.0

-6.586482367268227e6 3.0750255287851016e6 0.0
3.0750255287851016e6 6.1441561827291474e7 0.0
0.0 0.0 0.0

-1.1620815691009166e7 1.096432098511368e7 0.0
1.096432098511368e7 2.5509265773089994e7 0.0
0.0 0.0 0.0

1.5727694031134946e6 2.088364493518939e7 0.0
2.088364493518939e7 -7.014494711487777e6 0.0
0.0 0.0 0.0

-2.6283795742143013e7 2.954492839328793e7 0.0
2.954492839328793e7 2.563339703524664e6 0.0
0.0 0.0 0.0

-1.1263417649433682e7 2.846735759030349e6 0.0
2.846735759030349e6 2.045546630743852e7 0.0
0.0 0.0 0.0

-7.508086019837432e6 8.099973588949771e6 0.0
8.099973588949771e6 5.115551162225156e7 0.0
0.0 0.0 0.0

-2.798477899603498e6 1.7345214292094025e6 0.0
1.7345214292094025e6 5.961679131604402e6 0.0
0.0 0.0 0.0

-4.491874628382426e6 5.511330774834991e6 0.0
5.511330774834991e6 -420710.805340874 0.0
0.0 0.0 0.0

1.4998959125758512e6 1.2455209691653354e7 0.0
1.2455209691653354e7 -2.3387111643514648e7 0.0
0.0 0.0 0.0

-2.277016719352942e6 2.4816464874712862e7 0.0
2.4816464874712862e7 -1.0222315856912528e6 0.0
0.0 0.0 0.0

-6.972695092623245e6 2.057368210685196e7 0.0
2.057368210685196e7 -1.6096391317446118e7 0.0
0.0 0.0 0.0

-3.3404645125204595e6 2.2981607256175674e7 0.0
2.2981607256175674e7 1.4092658967251217e7 0.0
0.0 0.0 0.0

-4.392758127467646e6 1.7825170847012743e7 0.0
1.7825170847012743e7 -2.4462074628668834e7 0.0
0.0 0.0 0.0

2.3885098471266087e6 2.1004163713852994e7 0.0
2.1004163713852994e7 1.3415081039363658e7 0.0
0.0 0.0 0.0

-1.0921812391533883e7 1.665789946703867e7 0.0
1.665789946703867e7 -3.885090164240246e7 0.0
0.0 0.0 0.0

-4.255730487137722e6 2.2579763315218057e7 0.0
2.2579763315218057e7 3.762417229966609e6 0.0
0.0 0.0 0.0

-2.894448357857179e6 1.2178670223150907e7 0.0
1.2178670223150907e7 -6.803056752755295e7 0.0
0.0 0.0 0.0

-653730.0735562481 1.2178732024293987e7 0.0
1.2178732024293987e7 -5.0145765277217075e7 0.0
0.0 0.0 0.0

-4.278661091966881e6 2.2384790134007774e7 0.0
2.2384790134007774e7 -1.2082412904746432e7 0.0
0.0 0.0 0.0

-1.6521345917306662e7 2.6805835255807966e7 0.0
2.6805835255807966e7 -1.1907450884882286e7 0.0
0.0 0.0 0.0

-1.2702532904358601e7 2.963445419951834e7 0.0
2.963445419951834e7 5.773545594232937e6 0.0
0.0 0.0 0.0

-4.733678326934736e6 1.5409789389707595e7 0.0
1.5409789389707595e7 6.881227703044407e6 0.0
0.0 0.0 0.0

-2.3955696736170496e6 7.048334643274838e6 0.0
7.048334643274838e6 8.225667945678233e6 0.0
0.0 0.0 0.0

328430.9502237579 2.0024975728331253e7 0.0
2.0024975728331253e7 -6.434532862560884e6 0.0
0.0 0.0 0.0

1.0690123889367715e7 2.386668841716201e7 0.0
2.386668841716201e7 -1.3401385135032479e6 0.0
0.0 0.0 0.0

-2.748459682780698e6 1.4056959303541789e7 0.0
1.4056959303541789e7 5.783778481949111e7 0.0
0.0 0.0 0.0

-1.3792682652042126e6 2.180019316890285e7 0.0
2.180019316890285e7 1.170389754086196e7 0.0
0.0 0.0 0.0

-7.535139819118339e6 2.9343152788280208e7 0.0
2.9343152788280208e7 6.885311019252243e6 0.0
0.0 0.0 0.0

-4.342565483329156e6 1.8113250436079055e7 0.0
1.8113250436079055e7 -1.5405573080688005e7 0.0
0.0 0.0 0.0

-6.816764290305929e6 1.1459401448250297e7 0.0
1.1459401448250297e7 4.7981961146939605e7 0.0
0.0 0.0 0.0

-2.1100512185026566e6 2.1534438291579813e7 0.0
2.1534438291579813e7 6.644439674563074e6 0.0
0.0 0.0 0.0

456322.9459796753 2.0699135144814968e7 0.0
2.0699135144814968e7 -1.5906559552079529e7 0.0
0.0 0.0 0.0

-1.217169193846941e6 1.6710974840434529e7 0.0
1.6710974840434529e7 -2.8983455317901276e7 0.0
0.0 0.0 0.0

-264860.1759265717 1.0892225427846171e7 0.0
1.0892225427846171e7 -4.759503784344867e7 0.0
0.0 0.0 0.0

458962.19301446714 1.1790720992863072e7 0.0
1.1790720992863072e7 -3.8087517080935925e7 0.0
0.0 0.0 0.0

-1.1151445915129777e7 1.9339524223976832e7 0.0
1.9339524223976832e7 -5.4899669734519295e7 0.0
0.0 0.0 0.0

-3.083094252029647e6 2.9475855132823486e7 0.0
2.9475855132823486e7 4.737315759924192e6 0.0
0.0 0.0 0.0

-5.852581643885819e6 2.3113273953234848e7 0.0
2.3113273953234848e7 -1.2785219576738423e7 0.0
0.0 0.0 0.0

-1.3744978682854376e6 2.058502232617174e7 0.0
2.058502232617174e7 -1.3381457619667232e7 0.0
0.0 0.0 0.0

2.379986927916784e7 2.399550040945487e7 0.0
2.399550040945487e7 333266.55037850887 0.0
0.0 0.0 0.0

-6.670300117464375e6 5.957235464545108e6 0.0
5.957235464545108e6 5.530630486579541e7 0.0
0.0 0.0 0.0

-2.2164845715302397e6 1.204987290182321e7 0.0
1.204987290182321e7 -5.810355754983304e7 0.0
0.0 0.0 0.0

829404.443041861 1.2151158541615909e7 0.0
1.2151158541615909e7 -3.7937782188672595e7 0.0
0.0 0.0 0.0

-3.4632050469061993e6 9.701855023380136e6 0.0
9.701855023380136e6 6.905219169140488e7 0.0
0.0 0.0 0.0

2.1897087251449935e7 2.434844486736943e7 0.0
2.434844486736943e7 1.3971166555556346e7 0.0
0.0 0.0 0.0

-6.35909992997979e6 9.302244243778542e6 0.0
9.302244243778542e6 5.2619996949991606e7 0.0
0.0 0.0 0.0

-7.078288919259312e6 -1.0013165391100344e6 0.0
-1.0013165391100344e6 9.511148491357137e6 0.0
0.0 0.0 0.0

-3.4870911805421207e6 3.10274670211202e7 0.0
3.10274670211202e7 2.5654556241629827e6 0.0
0.0 0.0 0.0

1.5268691336695421e6 1.148457931114877e7 0.0
1.148457931114877e7 -2.8963333656023715e7 0.0
0.0 0.0 0.0

-7.577282527402692e6 3.329972573941113e7 0.0
3.329972573941113e7 5.504194552794278e6 0.0
0.0 0.0 0.0

-6.38559446606477e6 1.4099730246823268e7 0.0
1.4099730246823268e7 4.274672360367399e7 0.0
0.0 0.0 0.0

-1.1974566105167655e7 8.946115850302702e6 0.0
8.946115850302702e6 2.3650060516166955e7 0.0
0.0 0.0 0.0

8.374467640998753e6 3.1277231001011413e7 0.0
3.1277231001011413e7 -5.168001734652309e6 0.0
0.0 0.0 0.0

-3.991799627323636e6 2.370030665063854e7 0.0
2.370030665063854e7 1.361615740912143e7 0.0
0.0 0.0 0.0

2.3308571463901303e6 2.688452282156981e7 0.0
2.688452282156981e7 -7.091646968196966e6 0.0
0.0 0.0 0.0

-6.828492526979183e6 2.6598737775170688e7 0.0
2.6598737775170688e7 7.465179875439536e6 0.0
0.0 0.0 0.0

-4.052857664928676e6 1.8967238236105297e7 0.0
1.8967238236105297e7 -2.5982387867708605e7 0.0
0.0 0.0 0.0

5.278478685935338e6 2.3964275921955537e7 0.0
2.3964275921955537e7 -6.874542212421715e6 0.0
0.0 0.0 0.0

8.739616473166106e6 1.925298866321438e7 0.0
1.925298866321438e7 4.75696636950495e7 0.0
0.0 0.0 0.0

-5.395614885040566e6 5.792247405306214e6 0.0
5.792247405306214e6 1.7220142344834443e7 0.0
0.0 0.0 0.0

-2.1217157891685637e6 8.926688266757144e6 0.0
8.926688266757144e6 -7.662985489669111e6 0.0
0.0 0.0 0.0

-4.668603923042149e6 2.030579424564926e7 0.0
2.030579424564926e7 -1.5562012823239744e7 0.0
0.0 0.0 0.0

4.611603944760991e6 2.062452979690025e7 0.0
2.062452979690025e7 1.5372013335513862e7 0.0
0.0 0.0 0.0

8.99141775403018e6 3.632471501246e7 0.0
3.632471501246e7 -5.66932716503796e6 0.0
0.0 0.0 0.0

3.5098546464568013e6 5.30376744026282e6 0.0
5.30376744026282e6 -1.7728626640099294e7 0.0
0.0 0.0 0.0

-4.694159779431293e6 3.490385259785142e7 0.0
3.490385259785142e7 3.972360471126358e6 0.0
0.0 0.0 0.0

-4.306183271075121e7 1.6200037464959288e7 0.0
1.6200037464959288e7 7.483882748288704e6 0.0
0.0 0.0 0.0

795968.2465351038 2.119899351795804e7 0.0
2.119899351795804e7 -1.4482520733991137e7 0.0
0.0 0.0 0.0

-6.002449940079635e6 1.58184498699563e7 0.0
1.58184498699563e7 3.856581219488771e7 0.0
0.0 0.0 0.0

308652.7143681096 2.1302100914194386e7 0.0
2.1302100914194386e7 -6.788111035471956e6 0.0
0.0 0.0 0.0

-4.274629685219476e6 2.4285556489324164e7 0.0
2.4285556489324164e7 1.0340705589747597e7 0.0
0.0 0.0 0.0

-2.147608818344011e6 2.426753198034902e7 0.0
2.426753198034902e7 -2.097159403943582e6 0.0
0.0 0.0 0.0

813436.6838015611 2.16428021906764e7 0.0
2.16428021906764e7 -8.29555226890476e6 0.0
0.0 0.0 0.0

1.7672817552393042e6 4.0333502626348427e6 0.0
4.0333502626348427e6 -4.8766713285195306e7 0.0
0.0 0.0 0.0

-844738.8302135171 1.7708545707309037e7 0.0
1.7708545707309037e7 -2.8157965270697917e6 0.0
0.0 0.0 0.0

1.1871215907140216e7 2.513633953399586e7 0.0
2.513633953399586e7 -3.371377265494203e6 0.0
0.0 0.0 0.0

-1.5805329908386273e6 2.0140938123922817e7 0.0
2.0140938123922817e7 -1.5535493442367755e7 0.0
0.0 0.0 0.0

6.561017656092679e6 2.2854292360537756e7 0.0
2.2854292360537756e7 1.1111078950002903e7 0.0
0.0 0.0 0.0

-1.5230182752523217e6 1.2336606465512134e7 0.0
1.2336606465512134e7 -5.039838972934016e7 0.0
0.0 0.0 0.0

-305845.3907010574 2.359701636204233e7 0.0
2.359701636204233e7 -8.96019511930187e6 0.0
0.0 0.0 0.0

4.876498847167529e6 2.272183142131878e7 0.0
2.272183142131878e7 1.5287622628523052e7 0.0
0.0 0.0 0.0

2.837079557002171e7 3.0264584071939915e7 0.0
3.0264584071939915e7 -4.355490777941603e6 0.0
0.0 0.0 0.0

-271451.00305283256 1.2488000566215346e7 0.0
1.2488000566215346e7 -4.370113684094805e7 0.0
0.0 0.0 0.0

-3.5084331826857045e7 1.482429627956547e7 0.0
1.482429627956547e7 7.814623034334542e6 0.0
0.0 0.0 0.0

2.379825267010941e6 1.9511956011381205e7 0.0
1.9511956011381205e7 1.838729659542709e7 0.0
0.0 0.0 0.0

-6.768518006332151e6 3.4555297396598615e7 0.0
3.4555297396598615e7 5.002194029926285e6 0.0
0.0 0.0 0.0

399581.3258792185 2.158895928861656e7 0.0
2.158895928861656e7 -1.133211531015233e7 0.0
0.0 0.0 0.0

-6.338932923809659e6 2.979918156482376e7 0.0
2.979918156482376e7 6.440446066629123e6 0.0
0.0 0.0 0.0

-3.6808385020464584e6 1.3076159969300313e7 0.0
1.3076159969300313e7 6.173259849451558e7 0.0
0.0 0.0 0.0

1.3385049415284898e6 1.5880502174549973e7 0.0
1.5880502174549973e7 -1.8619707297486812e7 0.0
0.0 0.0 0.0

6.374048448095715e6 3.1204256440519348e7 0.0
3.1204256440519348e7 -5.370930058359384e6 0.0
0.0 0.0 0.0

-2.6886012199015347e6 1.2822112753086654e7 0.0
1.2822112753086654e7 2.923349785945505e6 0.0
0.0 0.0 0.0

-3.1935957577256776e7 1.409569333332077e7 0.0
1.409569333332077e7 7.5989709624130055e6 0.0
0.0 0.0 0.0

-3.4104609729295503e6 1.671665801874815e7 0.0
1.671665801874815e7 360696.9107721248 0.0
0.0 0.0 0.0

-1.0538059613107368e7 4.8022798899971945e6 0.0
4.8022798899971945e6 3.3187384638528716e7 0.0
0.0 0.0 0.0

-5.158089551609224e6 1.6442733287056401e7 0.0
1.6442733287056401e7 3.9438854024148814e7 0.0
0.0 0.0 0.0

-5.606792303531267e6 3.2687085774903998e7 0.0
3.2687085774903998e7 3.716544139591111e6 0.0
0.0 0.0 0.0

-5.939864807430243e6 3.57052383126704e7 0.0
3.57052383126704e7 4.308177166427294e6 0.0
0.0 0.0 0.0

-5.699110747395173e6 1.2460538916213132e7 0.0
1.2460538916213132e7 4.923490321162835e7 0.0
0.0 0.0 0.0

1.150535584092591e6 1.43076696189988e7 0.0
1.43076696189988e7 -1.5320991522434713e7 0.0
0.0 0.0 0.0

7.247192659141585e6 2.2803358214166053e7 0.0
2.2803358214166053e7 1.2724801830204062e6 0.0
0.0 0.0 0.0

-3.591801382405764e6 1.6200834381920055e7 0.0
1.6200834381920055e7 -1.128300020534499e7 0.0
0.0 0.0 0.0

1.110608562272721e6 1.017593495842417e7 0.0
1.017593495842417e7 -1.309702136534273e7 0.0
0.0 0.0 0.0

-4.0127756700078184e6 3.2376061809586387e7 0.0
3.2376061809586387e7 4.1281115722818496e6 0.0
0.0 0.0 0.0

-6.881279354150932e6 1.8754951717974294e7 0.0
1.8754951717974294e7 2.744876076437758e7 0.0
0.0 0.0 0.0

-1.0159005884007998e6 1.2813622581733368e7 0.0
1.2813622581733368e7 -4.420299856368797e7 0.0
0.0 0.0 0.0

-2.29466625011254e7 2.8415793635846127e7 0.0
2.8415793635846127e7 1.9481645202098126e6 0.0
0.0 0.0 0.0

2.487574791747121e6 2.780196464557533e7 0.0
2.780196464557533e7 -6.187398070693111e6 0.0
0.0 0.0 0.0

707425.7552314401 5.719223204058417e6 0.0
5.719223204058417e6 -5.834610994730359e7 0.0
0.0 0.0 0.0

-1.5496270039057648e6 2.0703577799987864e7 0.0
2.0703577799987864e7 2.0632784896061994e7 0.0
0.0 0.0 0.0

-1.930748630055583e6 2.46091197990806e7 0.0
2.46091197990806e7 1.5992387470221648e6 0.0
0.0 0.0 0.0

626012.4363674344 2.139377509158436e7 0.0
2.139377509158436e7 -1.4760267635645969e7 0.0
0.0 0.0 0.0

-9.25698161134191e6 3.3786101439772435e7 0.0
3.3786101439772435e7 5.697692704559825e6 0.0
0.0 0.0 0.0

-1.393085001277296e6 2.4770002395738002e7 0.0
2.4770002395738002e7 -1.2789455967293514e6 0.0
0.0 0.0 0.0

-6.70639839801049e6 3.3423941366838217e7 0.0
3.3423941366838217e7 3.9628034141000365e6 0.0
0.0 0.0 0.0

-2.9127582351116156e6 8.61446466994115e6 0.0
8.61446466994115e6 4.560825892765391e6 0.0
0.0 0.0 0.0

6.444365099599599e6 1.903580972229193e7 0.0
1.903580972229193e7 2.3847577308091026e7 0.0
0.0 0.0 0.0

-1.190043542784636e6 1.8650623802701198e7 0.0
1.8650623802701198e7 -2.191392490373946e7 0.0
0.0 0.0 0.0

-2.425838766406901e6 1.6159837606102364e7 0.0
1.6159837606102364e7 1.2948384434702094e6 0.0
0.0 0.0 0.0

-5616.519329969771 1.999548113765155e7 0.0
1.999548113765155e7 -1.722863145644771e7 0.0
0.0 0.0 0.0

2.2109720396289593e6 8.209357125326313e6 0.0
8.209357125326313e6 -2.2032049138701044e7 0.0
0.0 0.0 0.0

1.442176260507178e7 2.3927811419371106e7 0.0
2.3927811419371106e7 1.101896273118832e7 0.0
0.0 0.0 0.0

-8.333026068400018e6 744721.1354165107 0.0
744721.1354165107 4.133541138040478e7 0.0
0.0 0.0 0.0

7.260920304660935e6 1.9217978934062876e7 0.0
1.9217978934062876e7 2.714356081383344e7 0.0
0.0 0.0 0.0

-3.83501638535658e6 3.046886122742282e7 0.0
3.046886122742282e7 3.430156037497549e6 0.0
0.0 0.0 0.0

-907865.5429741973 1.827714159386154e7 0.0
1.827714159386154e7 -2.4993481453183014e7 0.0
0.0 0.0 0.0

5.49955485594927e6 3.0559345175080407e7 0.0
3.0559345175080407e7 -5.025030088041991e6 0.0
0.0 0.0 0.0

-833943.0739684827 2.0245731844105046e7 0.0
2.0245731844105046e7 -2.7447422873792644e6 0.0
0.0 0.0 0.0

2.266388264637241e6 1.1058425858747993e7 0.0
1.1058425858747993e7 -2.8281997520292237e7 0.0
0.0 0.0 0.0

2.113410546792203e6 2.705759976704926e7 0.0
2.705759976704926e7 -7.357653935538193e6 0.0
0.0 0.0 0.0

-820897.2852430241 1.904028605208873e7 0.0
1.904028605208873e7 -2.0282264855614416e7 0.0
0.0 0.0 0.0

-1.1211241604747295e7 7.413791243268472e6 0.0
7.413791243268472e6 1.828176844977412e7 0.0
0.0 0.0 0.0

4.768487481102982e6 2.115812107450959e7 0.0
2.115812107450959e7 1.8003953488502473e7 0.0
0.0 0.0 0.0

-5.559011735015845e6 2.477887608332088e7 0.0
2.477887608332088e7 9.818601513259362e6 0.0
0.0 0.0 0.0

-4.304110302424917e6 3.124126615707337e7 0.0
3.124126615707337e7 3.4493943799219616e6 0.0
0.0 0.0 0.0

-194693.87797757005 2.0644143512690797e7 0.0
2.0644143512690797e7 1.2343786594533907e7 0.0
0.0 0.0 0.0

-6.977563458189776e6 4.260163732376535e6 0.0
4.260163732376535e6 1.243384415462181e7 0.0
0.0 0.0 0.0

-8.445781581769133e6 1.1174420504039187e7 0.0
1.1174420504039187e7 4.130911533937654e7 0.0
0.0 0.0 0.0

401444.93190166913 2.053615923953442e7 0.0
2.053615923953442e7 -1.5860727205341537e7 0.0
0.0 0.0 0.0

-3.9484702797009125e6 1.5223688080433015e7 0.0
1.5223688080433015e7 -6.746344391760612e7 0.0
0.0 0.0 0.0

-5.757045009151194e6 6.119320810747034e6 0.0
6.119320810747034e6 1.070232281469229e7 0.0
0.0 0.0 0.0

-1.0949470766039794e7 2.835538275174076e6 0.0
2.835538275174076e6 2.4780355837952636e7 0.0
0.0 0.0 0.0

-4.098182529323924e6 1.886112026713635e7 0.0
1.886112026713635e7 9.166094462172417e6 0.0
0.0 0.0 0.0

1.9023897895923797e6 2.805898577402865e7 0.0
2.805898577402865e7 -5.537671165178316e6 0.0
0.0 0.0 0.0

-4.853387026940372e6 1.686561431611124e7 0.0
1.686561431611124e7 -4.312895217632835e7 0.0
0.0 0.0 0.0

2.9745661566582955e6 7.831266417985106e6 0.0
7.831266417985106e6 -1.9022678270508707e7 0.0
0.0 0.0 0.0

-2.4019018556066724e6 3.0681006818040874e7 0.0
3.0681006818040874e7 3.092690568781172e6 0.0
0.0 0.0 0.0

3.014853268321885e6 2.7441911337272983e7 0.0
2.7441911337272983e7 -6.744429206741643e6 0.0
0.0 0.0 0.0

-1.0198008957492935e7 4.134022385692927e7 0.0
4.134022385692927e7 3.8608473355513024e6 0.0
0.0 0.0 0.0

-3.058465913364888e6 3.0857293397076853e7 0.0
3.0857293397076853e7 4.021535339539363e6 0.0
0.0 0.0 0.0

-2.7622172876262613e7 3.0019076255480014e7 0.0
3.0019076255480014e7 -1.077606897272311e7 0.0
0.0 0.0 0.0

-4.581883595753196e6 2.2895365157528885e7 0.0
2.2895365157528885e7 -1.8385426984642614e6 0.0
0.0 0.0 0.0

-4.229295204186358e6 1.5135472983041743e7 0.0
1.5135472983041743e7 -6.2030613862013504e7 0.0
0.0 0.0 0.0

-3.5051633654258656e6 1.5468184791844005e7 0.0
1.5468184791844005e7 242424.3773321181 0.0
0.0 0.0 0.0

-8.544731593261797e6 2.9163240773728197e6 0.0
2.9163240773728197e6 4.726296693714237e7 0.0
0.0 0.0 0.0

-7.0355095061755255e6 6.670303269248809e6 0.0
6.670303269248809e6 5.494654654273814e7 0.0
0.0 0.0 0.0

1.7019333432376385e6 6.7382151752046e6 0.0
6.7382151752046e6 -4.248196968813205e7 0.0
0.0 0.0 0.0

-4.882078797853012e6 2.6069259356746707e7 0.0
2.6069259356746707e7 9.488739213689074e6 0.0
0.0 0.0 0.0

-3.4990893783624433e6 1.44379489565297e7 0.0
1.44379489565297e7 5.320215284553859e7 0.0
0.0 0.0 0.0

-414350.7729146555 1.9507651556624528e7 0.0
1.9507651556624528e7 -1.8712860711703528e7 0.0
0.0 0.0 0.0

-1.2961952534994036e6 1.6467835951867267e7 0.0
1.6467835951867267e7 5.074479257308431e7 0.0
0.0 0.0 0.0

1.455590062231943e6 2.739557817238594e7 0.0
2.739557817238594e7 -6.829014069553182e6 0.0
0.0 0.0 0.0

4.027609551364295e6 3.324498154419166e7 0.0
3.324498154419166e7 -4.0295526767199943e6 0.0
0.0 0.0 0.0

-466200.5095256532 2.009145325951108e7 0.0
2.009145325951108e7 -4.808465016530718e6 0.0
0.0 0.0 0.0

-1.1178010766896052e7 5.8019720573498e6 0.0
5.8019720573498e6 2.4005611896958053e7 0.0
0.0 0.0 0.0

1.0830213697972181e6 2.004160578297909e7 0.0
2.004160578297909e7 1.5364345372805871e7 0.0
0.0 0.0 0.0

-3.2991975032985634e6 1.8192518936044715e7 0.0
1.8192518936044715e7 1.034516954585455e7 0.0
0.0 0.0 0.0

2.3704017185870465e6 4.721540027297251e6 0.0
4.721540027297251e6 -3.8779981629976064e7 0.0
0.0 0.0 0.0

4.9674946288809385e6 2.373852795479511e7 0.0
2.373852795479511e7 -5.56876327544583e6 0.0
0.0 0.0 0.0

-1.5206067086863782e7 2.236859704099948e7 0.0
2.236859704099948e7 462736.6272989316 0.0
0.0 0.0 0.0

-2.5403829671298277e7 2.5757072442503836e7 0.0
2.5757072442503836e7 -8.319522224968018e6 0.0
0.0 0.0 0.0

-2.4038601323535815e6 3.128862549698331e7 0.0
3.128862549698331e7 901541.3595915986 0.0
0.0 0.0 0.0

191365.49615082424 1.3814134511460077e7 0.0
1.3814134511460077e7 -1.4434124320722083e7 0.0
0.0 0.0 0.0

-6.7866775991681535e6 2.259775599991825e7 0.0
2.259775599991825e7 -1.6193543124260022e6 0.0
0.0 0.0 0.0

2.4755520696304645e6 3.3395923810308598e7 0.0
3.3395923810308598e7 -2.0224029352858495e6 0.0
0.0 0.0 0.0

-2.3536328101386456e6 2.0778155504320033e7 0.0
2.0778155504320033e7 2.173384031199036e7 0.0
0.0 0.0 0.0

-1.1453353937756666e6 2.11272448153397e7 0.0
2.11272448153397e7 1.2129105545473255e7 0.0
0.0 0.0 0.0

1.1531578046154538e6 1.3334753934223007e7 0.0
1.3334753934223007e7 -1.3656835562214198e7 0.0
0.0 0.0 0.0

-2.0721797722463568e6 3.549982108683154e7 0.0
3.549982108683154e7 1.6906211976413173e6 0.0
0.0 0.0 0.0

-9.79325116607679e6 2.343987200131073e6 0.0
2.343987200131073e6 3.613361230276586e7 0.0
0.0 0.0 0.0

3.182150257814139e6 5.916693286585365e6 0.0
5.916693286585365e6 -3.022611933085275e7 0.0
0.0 0.0 0.0

785787.7302547176 3.029139880908765e7 0.0
3.029139880908765e7 -2.212959536129453e6 0.0
0.0 0.0 0.0

-1.2005663296130132e6 1.900965077342742e7 0.0
1.900965077342742e7 -2.2478884808579832e7 0.0
0.0 0.0 0.0

-5.512938245325854e6 -166020.00687505785 0.0
-166020.00687505785 9.755534862233058e6 0.0
0.0 0.0 0.0

779162.9027511105 1.0276982894074658e7 0.0
1.0276982894074658e7 -1.3326256100306468e7 0.0
0.0 0.0 0.0

-1.1039606300096406e7 2.5454728203205276e7 0.0
2.5454728203205276e7 -1.0471381835410181e7 0.0
0.0 0.0 0.0

1.9821069967964478e6 1.2416930900147967e7 0.0
1.2416930900147967e7 -2.737019304349109e7 0.0
0.0 0.0 0.0

1.3837472232304279e7 2.4661338474472716e7 0.0
2.4661338474472716e7 1.2999064657117603e7 0.0
0.0 0.0 0.0

-4.831284014135998e6 9.447460434279347e6 0.0
9.447460434279347e6 3.2248700696586138e6 0.0
0.0 0.0 0.0

-8.039455622677519e6 4.618957738150708e6 0.0
4.618957738150708e6 8.460563802359203e6 0.0
0.0 0.0 0.0

1.0355814345209407e7 3.137300200022451e7 0.0
3.137300200022451e7 -5.32246471774059e6 0.0
0.0 0.0 0.0

-9.717095277803631e6 2.7691331598076546e6 0.0
2.7691331598076546e6 3.514818885050616e7 0.0
0.0 0.0 0.0

952476.3232096666 1.7237624186165437e7 0.0
1.7237624186165437e7 -1.5913615372474294e7 0.0
0.0 0.0 0.0

1.5823713702110425e6 2.049583074379063e7 0.0
2.049583074379063e7 2.8580741592996577e6 0.0
0.0 0.0 0.0

1.8758214432808265e7 2.6504027055213947e7 0.0
2.6504027055213947e7 -2.7628275972638335e6 0.0
0.0 0.0 0.0

919167.3591334866 1.830943452934407e7 0.0
1.830943452934407e7 -1.9580885471796867e7 0.0
0.0 0.0 0.0

9.50898252243362e6 1.9944065890997358e7 0.0
1.9944065890997358e7 3.582438813792335e7 0.0
0.0 0.0 0.0

-8.833253865501255e6 2.9670646377940558e7 0.0
2.9670646377940558e7 6.431780019532673e6 0.0
0.0 0.0 0.0

-8.237937123722216e6 2.883363722271317e6 0.0
2.883363722271317e6 4.394547735236717e7 0.0
0.0 0.0 0.0

1.525560964086474e6 3.039094216576374e7 0.0
3.039094216576374e7 -2.804726765560481e6 0.0
0.0 0.0 0.0

887998.5524211926 2.0884544177340068e7 0.0
2.0884544177340068e7 2.13922368154551e7 0.0
0.0 0.0 0.0

1.5685203208426759e6 1.1851626235995106e7 0.0
1.1851626235995106e7 -2.2743388241626326e7 0.0
0.0 0.0 0.0

2.582644595955001e6 5.013783693434959e6 0.0
5.013783693434959e6 -4.355820230339657e7 0.0
0.0 0.0 0.0

-1.932777676527804e6 2.456946357652071e7 0.0
2.456946357652071e7 -3.02806462345503e6 0.0
0.0 0.0 0.0

-8.350542834723127e6 1.2723080908877896e7 0.0
1.2723080908877896e7 1.802680636706739e7 0.0
0.0 0.0 0.0

-6.707653646017661e6 1.7430797767118827e7 0.0
1.7430797767118827e7 3.296640748255152e7 0.0
0.0 0.0 0.0

-1.2998723577550454e6 1.7895313713675857e7 0.0
1.7895313713675857e7 -2.6794000366383255e7 0.0
0.0 0.0 0.0

-3.565829768224919e6 1.4604528144764092e7 0.0
1.4604528144764092e7 -5.7665930864607945e7 0.0
0.0 0.0 0.0

2.0037783096126649e6 3.1096191202516112e7 0.0
3.1096191202516112e7 -2.781741050590856e6 0.0
0.0 0.0 0.0

-569056.7915932038 2.0825055324325837e7 0.0
2.0825055324325837e7 9.597763690169107e6 0.0
0.0 0.0 0.0

-3.9393493620425746e7 1.5165765878307497e7 0.0
1.5165765878307497e7 7.206814581011545e6 0.0
0.0 0.0 0.0

1.0373348228652958e7 2.0386709669569813e7 0.0
2.0386709669569813e7 4.022239670576737e7 0.0
0.0 0.0 0.0

-3.598350366595131e7 3.561127031932868e7 0.0
3.561127031932868e7 6.369974859328447e6 0.0
0.0 0.0 0.0

1.2109956197673492e6 1.1444514903165821e7 0.0
1.1444514903165821e7 -3.324662060095303e7 0.0
0.0 0.0 0.0

8.529779218208713e6 5.854199768172739e6 0.0
5.854199768172739e6 -1.5268812556148185e6 0.0
0.0 0.0 0.0

-1.919118099535895e7 1.3575960216603524e6 0.0
1.3575960216603524e6 6.4203449973335955e6 0.0
0.0 0.0 0.0

-8.1466228257798925e6 1.143227921691887e7 0.0
1.143227921691887e7 1.6131857923463315e7 0.0
0.0 0.0 0.0

-8.809260516257862e6 4.226423347727937e6 0.0
4.226423347727937e6 4.177467852473515e7 0.0
0.0 0.0 0.0

-1.0272858238036484e7 4.882214030725091e6 0.0
4.882214030725091e6 3.488656168219323e7 0.0
0.0 0.0 0.0

28216.27603164222 2.032283865037821e7 0.0
2.032283865037821e7 -1.778621745314124e7 0.0
0.0 0.0 0.0

-2.8021245672968985e6 1.7377416761510924e7 0.0
1.7377416761510924e7 -9.340415252360372e6 0.0
0.0 0.0 0.0

2.634377921867872e6 1.7703114893592957e7 0.0
1.7703114893592957e7 8.78125981461412e6 0.0
0.0 0.0 0.0

1.2328850651820025e6 2.0238286065325037e7 0.0
2.0238286065325037e7 -217495.5749738511 0.0
0.0 0.0 0.0

2.542004901464098e6 3.179799523098744e7 0.0
3.179799523098744e7 -2.6998382873390494e6 0.0
0.0 0.0 0.0

-1.0556649323511897e7 1.2392632894466493e7 0.0
1.2392632894466493e7 2.260990771533158e7 0.0
0.0 0.0 0.0

431752.76743276976 1.9010536096556097e7 0.0
1.9010536096556097e7 -1.8329603016656205e7 0.0
0.0 0.0 0.0

-2.7814544884917573e6 2.6666889344043095e7 0.0
2.6666889344043095e7 3.1811238423443693e6 0.0
0.0 0.0 0.0

1.2416695561810583e6 9.251032952391367e6 0.0
9.251032952391367e6 -3.922818107709661e7 0.0
0.0 0.0 0.0

-9.399769121141044e6 3.647994819786963e6 0.0
3.647994819786963e6 3.754174097060951e7 0.0
0.0 0.0 0.0

1.7549328075169711e6 2.9642032325824305e7 0.0
2.9642032325824305e7 -3.738407779721657e6 0.0
0.0 0.0 0.0

-994127.7191391322 2.0891548990071964e7 0.0
2.0891548990071964e7 6.82006584777726e6 0.0
0.0 0.0 0.0

-1.4714629813350146e6 2.1097268667060554e7 0.0
2.1097268667060554e7 4.08104266956405e6 0.0
0.0 0.0 0.0

-7.472921262501196e6 2.4577496394613367e7 0.0
2.4577496394613367e7 -1.2785954080390548e7 0.0
0.0 0.0 0.0

7.452965011831742e6 1.724903263141309e7 0.0
1.724903263141309e7 2.64615224564748e7 0.0
0.0 0.0 0.0

-8.571876672430715e6 2.354450743706242e7 0.0
2.354450743706242e7 -1.0753343373851124e7 0.0
0.0 0.0 0.0

-5.757303373319019e6 1.5243930464412237e7 0.0
1.5243930464412237e7 4.138761813015439e7 0.0
0.0 0.0 0.0

-8.84163416542646e6 2.797553810151346e6 0.0
2.797553810151346e6 4.375144972404556e7 0.0
0.0 0.0 0.0

2.2664673008184154e6 1.1375022502033522e7 0.0
1.1375022502033522e7 -2.1953899917226113e7 0.0
0.0 0.0 0.0

1.6939432399347387e6 5.846050326313051e6 0.0
5.846050326313051e6 -4.4617230758360736e7 0.0
0.0 0.0 0.0

971922.7597325873 1.9541188800991323e7 0.0
1.9541188800991323e7 -1.691620302380889e7 0.0
0.0 0.0 0.0

8.525546598277852e6 2.361191070144952e7 0.0
2.361191070144952e7 1.0722558990168454e7 0.0
0.0 0.0 0.0

2.432217379556534e6 7.015910836091552e6 0.0
7.015910836091552e6 -2.0335009195073776e7 0.0
0.0 0.0 0.0

-7.983317669209741e6 1.844068379790838e7 0.0
1.844068379790838e7 -3.366246762646936e7 0.0
0.0 0.0 0.0

-3.021034327335831e6 1.4283129077891687e7 0.0
1.4283129077891687e7 -5.357218662877828e7 0.0
0.0 0.0 0.0

-3.991261031853258e6 1.792360502288097e7 0.0
1.792360502288097e7 6.406111265516555e6 0.0
0.0 0.0 0.0

-6.40644819559326e6 2.6463251125762902e7 0.0
2.6463251125762902e7 8.986066513899887e6 0.0
0.0 0.0 0.0

-1.1314692414197784e7 2.4399198724895716e7 0.0
2.4399198724895716e7 -1.1301515717643341e7 0.0
0.0 0.0 0.0

-7.034503692057695e6 3.6021247576918765e6 0.0
3.6021247576918765e6 5.398407200782336e7 0.0
0.0 0.0 0.0

-2.4631364725764096e6 1.4145014452093096e7 0.0
1.4145014452093096e7 -5.0031898810561426e7 0.0
0.0 0.0 0.0

-5.461974470827296e6 1.4548132868148018e7 0.0
1.4548132868148018e7 4.4322150143776484e7 0.0
0.0 0.0 0.0

-2.1169564030904816e6 2.1284514861005478e7 0.0
2.1284514861005478e7 1.3218156393157206e6 0.0
0.0 0.0 0.0

1.190581827419582e6 3.1419155700299352e7 0.0
3.1419155700299352e7 -3.29283288255495e6 0.0
0.0 0.0 0.0

-1.4117654714913888e7 2.912744860101416e7 0.0
2.912744860101416e7 4.980574786370419e6 0.0
0.0 0.0 0.0

-7.58395222712492e6 1.6642362262946341e7 0.0
1.6642362262946341e7 3.2588602964976307e7 0.0
0.0 0.0 0.0

-5.46767007016881e6 1.6128782123312859e7 0.0
1.6128782123312859e7 -1.8836232238382455e7 0.0
0.0 0.0 0.0

4.891727496199783e6 1.8602975809053794e7 0.0
1.8602975809053794e7 1.6266184423212077e7 0.0
0.0 0.0 0.0

1.5737978734510895e6 7.419751500916579e6 0.0
7.419751500916579e6 -4.059790011193772e7 0.0
0.0 0.0 0.0

1.2289410257227384e6 9.534832373788362e6 0.0
9.534832373788362e6 -1.4602678744027145e7 0.0
0.0 0.0 0.0

-7.547214319308676e6 1.2293300038786309e7 0.0
1.2293300038786309e7 4.2693859070462525e7 0.0
0.0 0.0 0.0

-3.2573499247295056e6 2.28662294709357e7 0.0
2.28662294709357e7 1.2744198303064253e7 0.0
0.0 0.0 0.0

-3.529773151709953e7 2.9779493548034783e7 0.0
2.9779493548034783e7 529697.0179571789 0.0
0.0 0.0 0.0

-674413.4114505854 1.610110664820556e7 0.0
1.610110664820556e7 -2.947484473774903e7 0.0
0.0 0.0 0.0

862245.4303019904 1.0850448864291737e7 0.0
1.0850448864291737e7 -3.772705946885084e7 0.0
0.0 0.0 0.0

-1.9040759066995643e6 1.4153574712511277e7 0.0
1.4153574712511277e7 -4.6730229753157824e7 0.0
0.0 0.0 0.0

2.6926145799088236e6 4.386543267317536e6 0.0
4.386543267317536e6 -1.065816923639242e7 0.0
0.0 0.0 0.0

623218.6535204318 2.179458243796624e7 0.0
2.179458243796624e7 -1.1896781311315645e7 0.0
0.0 0.0 0.0

2.3699360566404215e6 2.3602002670538306e7 0.0
2.3602002670538306e7 -9.605010462736182e6 0.0
0.0 0.0 0.0

-2.174826138659402e7 3.9215095968568325e7 0.0
3.9215095968568325e7 6.883951089474109e6 0.0
0.0 0.0 0.0

1.4976994193121404e6 4.492264431524925e6 0.0
4.492264431524925e6 -5.707822471957622e6 0.0
0.0 0.0 0.0

-756743.7112362282 1.941365108360434e7 0.0
1.941365108360434e7 -2.077104257339178e7 0.0
0.0 0.0 0.0

-6.147744874554671e6 1.886636422685687e7 0.0
1.886636422685687e7 2.7666168763532914e7 0.0
0.0 0.0 0.0

-1.0068621874044878e7 3.6557920217020735e6 0.0
3.6557920217020735e6 3.1044927165603213e7 0.0
0.0 0.0 0.0

2.2724665063955393e6 5.4082732048549885e6 0.0
5.4082732048549885e6 -3.713253042693258e7 0.0
0.0 0.0 0.0

-1.0540626627117248e7 6.465007145058152e6 0.0
6.465007145058152e6 3.048444777895296e7 0.0
0.0 0.0 0.0

-9.64362836984352e6 6.373670000867509e6 0.0
6.373670000867509e6 3.660335780662868e7 0.0
0.0 0.0 0.0

-9.573031233752618e6 1.1644443871647794e7 0.0
1.1644443871647794e7 1.958623746843881e7 0.0
0.0 0.0 0.0

-4.420550359874103e6 2.434271317701622e7 0.0
2.434271317701622e7 1.2663086696019746e7 0.0
0.0 0.0 0.0

-2.2848218210233264e6 1.3520600269486131e7 0.0
1.3520600269486131e7 1.1711219142045577e6 0.0
0.0 0.0 0.0

2.3613294423148796e7 6.12093273544492e6 0.0
6.12093273544492e6 -2.1753438988696076e6 0.0
0.0 0.0 0.0

-3.5470768776708715e7 3.3289623961193524e6 0.0
3.3289623961193524e6 6.522201539028963e6 0.0
0.0 0.0 0.0

2.5588286820378797e6 8.826439681652438e6 0.0
8.826439681652438e6 -1.5704593744670961e7 0.0
0.0 0.0 0.0

1.66306106081249e6 1.039606026797356e7 0.0
1.039606026797356e7 -3.7040052338471875e7 0.0
0.0 0.0 0.0

2.0936925070807375e6 8.634529514391687e6 0.0
8.634529514391687e6 -3.8297358087749474e7 0.0
0.0 0.0 0.0

586068.5569083978 2.17364085699055e6 0.0
2.17364085699055e6 1.8950531698258582e6 0.0
0.0 0.0 0.0

-4.459747404045237e6 -893927.1949781879 0.0
-893927.1949781879 3.867863974405845e6 0.0
0.0 0.0 0.0

-5.3985346033636e6 1.8593104790582087e7 0.0
1.8593104790582087e7 -3.01434491430889e7 0.0
0.0 0.0 0.0

1.9200002354022395e6 5.796298693071265e6 0.0
5.796298693071265e6 -4.1812935836548604e7 0.0
0.0 0.0 0.0

-2.9240558750109613e7 2.7237830472788926e7 0.0
2.7237830472788926e7 -1.2006772310566008e7 0.0
0.0 0.0 0.0

-4.807974019460937e6 2.1493788975321874e7 0.0
2.1493788975321874e7 1.7782352514323235e7 0.0
0.0 0.0 0.0

1.8765792469685858e6 2.8859206312937424e7 0.0
2.8859206312937424e7 -4.618628688794583e6 0.0
0.0 0.0 0.0

6.485497479303106e6 1.7091733052170843e7 0.0
1.7091733052170843e7 2.3142013560146507e7 0.0
0.0 0.0 0.0

1.3856054948303265e7 1.1832871157745015e7 0.0
1.1832871157745015e7 1.4807553680073153e6 0.0
0.0 0.0 0.0

-1.4212278363462478e7 2.6977982953898307e7 0.0
2.6977982953898307e7 -1.1681503673636712e7 0.0
0.0 0.0 0.0

-7.963838273346145e6 6.719678967669062e6 0.0
6.719678967669062e6 4.7057812115064e7 0.0
0.0 0.0 0.0

-6.131974542191803e6 2.559805663967246e7 0.0
2.559805663967246e7 9.4459460534799e6 0.0
0.0 0.0 0.0

3.0605355076152603e6 2.3741472592516534e7 0.0
2.3741472592516534e7 -8.28973895763543e6 0.0
0.0 0.0 0.0

-5.898707628008705e6 1.9324118033261098e7 0.0
1.9324118033261098e7 2.6240389660264757e7 0.0
0.0 0.0 0.0

-9.292905888073375e6 -170963.72208469806 0.0
-170963.72208469806 3.096335548229775e7 0.0
0.0 0.0 0.0

347234.4662611394 2.99874283899121e7 0.0
2.99874283899121e7 -3.4340315857458184e6 0.0
0.0 0.0 0.0

1.2178715947545748e6 1.0723290879417816e7 0.0
1.0723290879417816e7 -3.525474181549931e7 0.0
0.0 0.0 0.0

3.8634897144859624e6 2.7918989314725667e7 0.0
2.7918989314725667e7 -6.497576098993463e6 0.0
0.0 0.0 0.0

2.4507020765634812e6 6.947221777321803e6 0.0
6.947221777321803e6 -3.9846167968039885e7 0.0
0.0 0.0 0.0

6.388071902650157e6 1.943659124532026e7 0.0
1.943659124532026e7 1.9548906431091443e7 0.0
0.0 0.0 0.0

-410116.18553197244 2.2473106728523336e7 0.0
2.2473106728523336e7 -1.0361286236976484e7 0.0
0.0 0.0 0.0

-1.1373225077998538e7 3.4532747334935833e6 0.0
3.4532747334935833e6 1.8576689689591803e7 0.0
0.0 0.0 0.0

-3.0113770744237127e6 1.7186550528526075e7 0.0
1.7186550528526075e7 -9.640077988976065e6 0.0
0.0 0.0 0.0

2.7670333749885913e6 5.055409540618435e6 0.0
5.055409540618435e6 -4.067794606111654e7 0.0
0.0 0.0 0.0

1.5668936665328661e7 2.8040687240131598e7 0.0
2.8040687240131598e7 -4.231109855971599e6 0.0
0.0 0.0 0.0

2.160082470429809e6 7.836541078108847e6 0.0
7.836541078108847e6 -1.907773608219688e7 0.0
0.0 0.0 0.0

-1.2043944267344285e7 8.135399590646556e6 0.0
8.135399590646556e6 2.2587276239319503e7 0.0
0.0 0.0 0.0

-3.4350590299970843e6 2.969229874823258e7 0.0
2.969229874823258e7 3.3055042976913867e6 0.0
0.0 0.0 0.0

-1.6701019201632217e6 1.418772199032447e7 0.0
1.418772199032447e7 -4.354863815320209e7 0.0
0.0 0.0 0.0

-5.0397019003054835e6 1.7268985892662693e7 0.0
1.7268985892662693e7 -1.6799006255120452e7 0.0
0.0 0.0 0.0

4.554896967223569e6 1.776455841119306e7 0.0
1.776455841119306e7 1.5182990245958775e7 0.0
0.0 0.0 0.0

-2.712351003394133e6 1.4231237894158397e7 0.0
1.4231237894158397e7 2.9167492391073173e6 0.0
0.0 0.0 0.0

-5.23502788954873e6 1.6408985192223348e7 0.0
1.6408985192223348e7 9.987615181992432e6 0.0
0.0 0.0 0.0

2.8169060064740973e6 2.018264370117476e7 0.0
2.018264370117476e7 2.0766553487175208e7 0.0
0.0 0.0 0.0

-9.92633160759612e6 1.337674052311589e6 0.0
1.337674052311589e6 2.7054685473608688e7 0.0
0.0 0.0 0.0

2.3757553546825056e6 2.2092042684747227e7 0.0
2.2092042684747227e7 5.366383571637887e6 0.0
0.0 0.0 0.0

-3.858521474960818e6 2.367619104492159e7 0.0
2.367619104492159e7 1.3318040744838592e7 0.0
0.0 0.0 0.0

1.96769799076714e6 8.035355992051396e6 0.0
8.035355992051396e6 -1.694999704867523e7 0.0
0.0 0.0 0.0

-1.1151509353570173e7 4.935907893827207e6 0.0
4.935907893827207e6 2.8445163745809797e7 0.0
0.0 0.0 0.0

-7.002215485357264e6 2.3059789972033296e7 0.0
2.3059789972033296e7 -8.973045818148725e6 0.0
0.0 0.0 0.0

-6.3093967809357885e6 1.9750714642485682e7 0.0
1.9750714642485682e7 2.485943612347723e7 0.0
0.0 0.0 0.0

145136.1622958146 2.103662901759087e7 0.0
2.103662901759087e7 1.7228423891329236e7 0.0
0.0 0.0 0.0

-1.0715569051338272e7 9.233619792716933e6 0.0
9.233619792716933e6 2.9884973178281054e7 0.0
0.0 0.0 0.0

2.349662647205659e6 2.3235278941433173e7 0.0
2.3235278941433173e7 -1.058176001374936e7 0.0
0.0 0.0 0.0

-6.211485262530294e6 2.884496837900448e7 0.0
2.884496837900448e7 7.135515687339438e6 0.0
0.0 0.0 0.0

-8.219494023998294e6 1.057496719575308e7 0.0
1.057496719575308e7 4.222017297319184e7 0.0
0.0 0.0 0.0

-9.27751953399957e6 1.3691175148143888e7 0.0
1.3691175148143888e7 1.6124437233265689e7 0.0
0.0 0.0 0.0

-9.219659326581627e6 4.199470297866092e6 0.0
4.199470297866092e6 4.1212188546556115e7 0.0
0.0 0.0 0.0

460067.64635783713 1.8406890129784275e7 0.0
1.8406890129784275e7 -1.9735225099282257e7 0.0
0.0 0.0 0.0

-5.5181347353507485e6 2.578084079566635e7 0.0
2.578084079566635e7 1.0248582685540501e7 0.0
0.0 0.0 0.0

-2.8010793361641443e6 2.147660762874792e7 0.0
2.147660762874792e7 -1.3558093747339877e6 0.0
0.0 0.0 0.0

2.795923691573346e6 8.957395376060426e6 0.0
8.957395376060426e6 -2.0750285969642952e7 0.0
0.0 0.0 0.0

-9.134475308700256e6 662655.8051789568 0.0
662655.8051789568 3.44174722327386e7 0.0
0.0 0.0 0.0

-2.220404322696438e6 1.6769114931837363e7 0.0
1.6769114931837363e7 4.700189313421864e7 0.0
0.0 0.0 0.0

-6.188887560862966e6 1.330140402675598e7 0.0
1.330140402675598e7 4.566621940708968e7 0.0
0.0 0.0 0.0

2.235869920418894e6 2.065240627311214e7 0.0
2.065240627311214e7 1.1828424651088074e7 0.0
0.0 0.0 0.0

-1.1455889195769753e7 7.736327040595833e6 0.0
7.736327040595833e6 2.7874253739465892e7 0.0
0.0 0.0 0.0

-4.233852980714762e6 1.5699689975712944e7 0.0
1.5699689975712944e7 1.1288638781446798e7 0.0
0.0 0.0 0.0

-900092.1742605886 2.1318513026140403e7 0.0
2.1318513026140403e7 -6.44117335473292e6 0.0
0.0 0.0 0.0

376702.9410327999 1.6604006849078387e7 0.0
1.6604006849078387e7 -1.6918874352974534e7 0.0
0.0 0.0 0.0

-3.936254914949349e6 2.368254411102923e7 0.0
2.368254411102923e7 1.4532017586566145e7 0.0
0.0 0.0 0.0

-4.722040491638067e6 3.3078607204066094e7 0.0
3.3078607204066094e7 4.327399404333785e6 0.0
0.0 0.0 0.0

-8.765399532391595e6 1.4122384681133594e7 0.0
1.4122384681133594e7 3.481579953911291e7 0.0
0.0 0.0 0.0

9.367715110396296e6 1.7604496244927086e7 0.0
1.7604496244927086e7 3.383021078475395e7 0.0
0.0 0.0 0.0

-47823.88988057198 2.1224995218031142e7 0.0
2.1224995218031142e7 -9.444103484556116e6 0.0
0.0 0.0 0.0

2.1643523311430123e6 1.1801777975482898e7 0.0
1.1801777975482898e7 -2.688381569569069e7 0.0
0.0 0.0 0.0

2.4575108714343533e6 2.9876676887052413e6 0.0
2.9876676887052413e6 -4.383320480667001e7 0.0
0.0 0.0 0.0

-8.972269272632971e6 894032.152310076 0.0
894032.152310076 3.845837613158646e7 0.0
0.0 0.0 0.0

-3.4383290863016658e6 2.3626319960354965e7 0.0
2.3626319960354965e7 1.3283549866489653e7 0.0
0.0 0.0 0.0

-1.272434367273029e6 1.7305870145260084e7 0.0
1.7305870145260084e7 1.6910589783189487e7 0.0
0.0 0.0 0.0

1.864145199939929e6 1.7283346614455767e7 0.0
1.7283346614455767e7 6.756795498460624e7 0.0
0.0 0.0 0.0

142657.68958674744 1.5774610553698594e7 0.0
1.5774610553698594e7 -1.561374052794042e7 0.0
0.0 0.0 0.0

7.46146769979887e6 1.8159879023291886e7 0.0
1.8159879023291886e7 2.487155949205117e7 0.0
0.0 0.0 0.0

-1.0303295589718707e7 1.0395417622070988e6 0.0
1.0395417622070988e6 2.8612808078988813e7 0.0
0.0 0.0 0.0

-2.3769188792247087e7 1.930029892416147e6 0.0
1.930029892416147e6 7.972361928188095e6 0.0
0.0 0.0 0.0

1.6964745187197682e6 1.003353587554633e7 0.0
1.003353587554633e7 -3.2118090167443577e7 0.0
0.0 0.0 0.0

-1.1635482956064101e7 5.665913218187286e6 0.0
5.665913218187286e6 2.4635457982284475e7 0.0
0.0 0.0 0.0

879459.0247703455 1.1504307505205715e7 0.0
1.1504307505205715e7 -3.5644165709935844e7 0.0
0.0 0.0 0.0

-5.550243541976418e6 1.7488057890512694e7 0.0
1.7488057890512694e7 3.460212510304909e7 0.0
0.0 0.0 0.0

3.510942018350221e6 3.4114106742282365e6 0.0
3.4114106742282365e6 -2.7416314041384533e7 0.0
0.0 0.0 0.0

1.2765264127147589e7 2.9071025579573084e7 0.0
2.9071025579573084e7 -4.8955642691003075e6 0.0
0.0 0.0 0.0

-2.0888187727832159e6 1.5475176692495607e7 0.0
1.5475176692495607e7 -332468.1094372393 0.0
0.0 0.0 0.0

896916.9859183603 6.922385631266788e6 0.0
6.922385631266788e6 -4.1457710756322416e6 0.0
0.0 0.0 0.0

3.36185415972459e7 6.28477105794869e6 0.0
6.28477105794869e6 -1.7198280902324263e6 0.0
0.0 0.0 0.0

-3.9201584017514605e6 1.795129795025597e7 0.0
1.795129795025597e7 3.562472948410402e7 0.0
0.0 0.0 0.0

-1.246092249002241e6 1.1279758840755714e7 0.0
1.1279758840755714e7 -6.331277823169011e6 0.0
0.0 0.0 0.0

-9.887618217510333e6 5.616651481406637e6 0.0
5.616651481406637e6 3.867949104641489e7 0.0
0.0 0.0 0.0

1.8151896472659558e6 5.676127485279276e6 0.0
5.676127485279276e6 -1.0449983972110618e7 0.0
0.0 0.0 0.0

-6.129407957132775e6 2.2625034579339918e7 0.0
2.2625034579339918e7 -6.661015975371596e6 0.0
0.0 0.0 0.0

-3.7750210367729925e6 2.1593542993717603e7 0.0
2.1593542993717603e7 1.7864384059983373e7 0.0
0.0 0.0 0.0

-1.1192792993560769e7 9.669291506923111e6 0.0
9.669291506923111e6 2.4609888870733604e7 0.0
0.0 0.0 0.0

1.925021606157193e6 8.552629028525926e6 0.0
8.552629028525926e6 -3.3144837684191573e7 0.0
0.0 0.0 0.0

-6.838652721450295e6 1.711669242914093e7 0.0
1.711669242914093e7 -4.1094538872342594e7 0.0
0.0 0.0 0.0

-7.953217181370538e6 7.244736033724887e6 0.0
7.244736033724887e6 8.837391762484841e6 0.0
0.0 0.0 0.0

3.0792632141409237e6 3.664408717986316e6 0.0
3.664408717986316e6 -2.503560661017878e7 0.0
0.0 0.0 0.0

-167581.86657285038 1.9239238044140644e7 0.0
1.9239238044140644e7 -1.4401140685178304e7 0.0
0.0 0.0 0.0

2.122774847294433e7 2.3447398127823833e7 0.0
2.3447398127823833e7 7.896731167637938e6 0.0
0.0 0.0 0.0

2.3827429263392687e6 6.07844043879932e6 0.0
6.07844043879932e6 -4.437592416287748e7 0.0
0.0 0.0 0.0

-1.333210096290362e7 249481.37285828334 0.0
249481.37285828334 6.628086403804568e6 0.0
0.0 0.0 0.0

-5.463519380074537e6 1.9926805198612485e7 0.0
1.9926805198612485e7 2.2997963973600883e7 0.0
0.0 0.0 0.0

-2.3245491956974166e6 9.685360841175778e6 0.0
9.685360841175778e6 2.7506395031600976e6 0.0
0.0 0.0 0.0

-1.1071709086350804e7 8.789038142855026e6 0.0
8.789038142855026e6 2.685303048445765e7 0.0
0.0 0.0 0.0

1.888169357054107e6 6.522702611260296e6 0.0
6.522702611260296e6 -5.1286607923768654e7 0.0
0.0 0.0 0.0

1.0839290023148121e7 1.8971796525975622e7 0.0
1.8971796525975622e7 3.6130967330415726e7 0.0
0.0 0.0 0.0

1.0420529100626176e7 2.4443873505922467e7 0.0
2.4443873505922467e7 1.3013762602082815e7 0.0
0.0 0.0 0.0

-5.85059627363131e6 1.8724157798595082e7 0.0
1.8724157798595082e7 -2.447258749522816e7 0.0
0.0 0.0 0.0

-191725.70947585488 1.4466003965374608e7 0.0
1.4466003965374608e7 -1.3178821081759343e7 0.0
0.0 0.0 0.0

-3.444816754986692e6 2.2371444411098126e7 0.0
2.2371444411098126e7 1.655001963462053e7 0.0
0.0 0.0 0.0

1.0985686061023485e7 2.2190249968841154e7 0.0
2.2190249968841154e7 826831.4171691546 0.0
0.0 0.0 0.0

1.410857707877798e6 1.1421861049470546e7 0.0
1.1421861049470546e7 -3.102859687629835e7 0.0
0.0 0.0 0.0

1.6258080698090761e6 3.214340506479097e7 0.0
3.214340506479097e7 -3.242116885058192e6 0.0
0.0 0.0 0.0

-18804.225807057228 1.9252422243127808e7 0.0
1.9252422243127808e7 4.3721696523409905e6 0.0
0.0 0.0 0.0

-7.226752288939147e7 6.520832562747353e6 0.0
6.520832562747353e6 3.7115252692465484e6 0.0
0.0 0.0 0.0

6.0153967646896884e7 7.662681606669636e6 0.0
7.662681606669636e6 -393868.5654403828 0.0
0.0 0.0 0.0

4.718448933798122e6 2.231738274245158e7 0.0
2.231738274245158e7 9.560631094141837e6 0.0
0.0 0.0 0.0

-4.7285928044008035e6 8.648289980464676e6 0.0
8.648289980464676e6 2.866220283853668e7 0.0
0.0 0.0 0.0

1.2810063689137055e6 2.062687928388737e7 0.0
2.062687928388737e7 1.74790112958532e7 0.0
0.0 0.0 0.0

2.7182390463598818e6 2.6616901986330982e7 0.0
2.6616901986330982e7 -7.79163219200043e6 0.0
0.0 0.0 0.0

5.254741773763577e6 2.062605015378524e7 0.0
2.062605015378524e7 1.7515806588497397e7 0.0
0.0 0.0 0.0

-1.119377313613062e7 8.64168104341631e6 0.0
8.64168104341631e6 2.3845716539634056e7 0.0
0.0 0.0 0.0

-2.781108242759408e6 2.2071815695436385e7 0.0
2.2071815695436385e7 1.1267372572690627e7 0.0
0.0 0.0 0.0

-4.929461244645602e7 3.696215462602341e7 0.0
3.696215462602341e7 -1.0324501746411633e7 0.0
0.0 0.0 0.0

2.7178404653832912e6 4.249477142333963e6 0.0
4.249477142333963e6 -3.1145642753960155e7 0.0
0.0 0.0 0.0

-3.5147770100168986e6 2.174562675732289e7 0.0
2.174562675732289e7 -3.910558646561899e6 0.0
0.0 0.0 0.0

1.0155404291406356e7 1.7836605861354515e7 0.0
1.7836605861354515e7 3.817694464448807e7 0.0
0.0 0.0 0.0

-7.318475576347525e6 1.7308514500504073e7 0.0
1.7308514500504073e7 -2.439491863509047e7 0.0
0.0 0.0 0.0

6.487703933024719e6 1.795349419684241e7 0.0
1.795349419684241e7 2.16256805828635e7 0.0
0.0 0.0 0.0

-1.2634041663501486e6 1.4489946971284483e7 0.0
1.4489946971284483e7 -4.0942448964521565e7 0.0
0.0 0.0 0.0

-9.864190137616424e6 2.3835092462963397e6 0.0
2.3835092462963397e6 3.0318345214129668e7 0.0
0.0 0.0 0.0

-1.8629461519430585e7 3.1937170846766e7 0.0
3.1937170846766e7 5.94580820697623e6 0.0
0.0 0.0 0.0

2.086906568718845e6 8.431784101876093e6 0.0
8.431784101876093e6 -1.9974787065105252e7 0.0
0.0 0.0 0.0

-4.0939744584696516e6 1.8358443846368548e7 0.0
1.8358443846368548e7 3.363369066076742e7 0.0
0.0 0.0 0.0

-1.190521173889993e7 5.921326431908892e6 0.0
5.921326431908892e6 2.048011924242591e7 0.0
0.0 0.0 0.0

-5.259012108853249e6 3.219535816279171e7 0.0
3.219535816279171e7 4.977534194216646e6 0.0
0.0 0.0 0.0

-1.2253062031571994e7 3.651925393833985e7 0.0
3.651925393833985e7 5.881252760574993e6 0.0
0.0 0.0 0.0

-1.2902910022945922e7 104473.19542145115 0.0
104473.19542145115 6.8448866472009765e6 0.0
0.0 0.0 0.0

-3.276249028218882e6 1.8319316493227936e7 0.0
1.8319316493227936e7 -1.1764967885501798e7 0.0
0.0 0.0 0.0

2.092228600004238e6 2.5973256346851777e7 0.0
2.5973256346851777e7 -8.04896790162984e6 0.0
0.0 0.0 0.0

-9.715980458841536e6 3.15442134198054e6 0.0
3.15442134198054e6 1.1797850111752985e7 0.0
0.0 0.0 0.0

1.0157024980486803e7 2.965589519039319e7 0.0
2.965589519039319e7 -5.311071281471863e6 0.0
0.0 0.0 0.0

-1.204756480427755e7 7.077220419467832e6 0.0
7.077220419467832e6 2.162635868221915e7 0.0
0.0 0.0 0.0

2.417547248128947e6 4.682787372482361e6 0.0
4.682787372482361e6 -3.64665026101903e7 0.0
0.0 0.0 0.0

2.5055819993904103e6 5.656253093314585e6 0.0
5.656253093314585e6 -3.256980627948432e7 0.0
0.0 0.0 0.0

638454.7165658129 1.4168507067206899e7 0.0
1.4168507067206899e7 -1.7242185622811764e7 0.0
0.0 0.0 0.0

1.9205534282573643e6 2.3099319528432675e7 0.0
2.3099319528432675e7 -1.1509322802097902e7 0.0
0.0 0.0 0.0

1.8886588669630103e6 5.797561261211079e6 0.0
5.797561261211079e6 -5.440276524321151e7 0.0
0.0 0.0 0.0

-7.001738568793895e6 2.3880918615461703e7 0.0
2.3880918615461703e7 -1.3367469026975045e7 0.0
0.0 0.0 0.0

585488.2787856609 1.6243322017423563e7 0.0
1.6243322017423563e7 -2.4070563631772395e7 0.0
0.0 0.0 0.0

-7.373298376531815e6 1.8749330638766963e7 0.0
1.8749330638766963e7 2.62303118543804e7 0.0
0.0 0.0 0.0

-6.3694045213123225e6 2.3539698805968005e7 0.0
2.3539698805968005e7 -1.2099688699914183e7 0.0
0.0 0.0 0.0

2.1389900303978454e6 1.103336446522573e7 0.0
1.103336446522573e7 -3.0420480140105296e7 0.0
0.0 0.0 0.0

-3.3344718786493167e7 2.517649176458113e7 0.0
2.517649176458113e7 4.2163324428167865e6 0.0
0.0 0.0 0.0

2.412872607460154e6 3.83429296180409e6 0.0
3.83429296180409e6 -3.813254197451061e7 0.0
0.0 0.0 0.0

3.0938815378301144e6 5.793018716449995e6 0.0
5.793018716449995e6 -3.246485880304013e7 0.0
0.0 0.0 0.0

980113.7846440272 2.1034104423512075e7 0.0
2.1034104423512075e7 -1.4798962110887373e7 0.0
0.0 0.0 0.0

-1.7393462535620157e7 376689.74552660174 0.0
376689.74552660174 8.044948571159545e6 0.0
0.0 0.0 0.0

1.4701343117565247e6 1.1065433334028255e7 0.0
1.1065433334028255e7 -1.2099439560935233e7 0.0
0.0 0.0 0.0

-74557.73979579005 1.8643347824112315e7 0.0
1.8643347824112315e7 2.153479062925101e7 0.0
0.0 0.0 0.0

-3.899920631987349e6 3.0847454959764283e7 0.0
3.0847454959764283e7 4.89056456701471e6 0.0
0.0 0.0 0.0

-6.342151254120074e6 3.2762686013205256e7 0.0
3.2762686013205256e7 5.217282733923966e6 0.0
0.0 0.0 0.0

-1.2005311610587798e7 9.750136126845649e6 0.0
9.750136126845649e6 2.1796788118597627e7 0.0
0.0 0.0 0.0

-1.7104649074976072e6 1.424994580611435e7 0.0
1.424994580611435e7 6.328500561179331e7 0.0
0.0 0.0 0.0

-2.610020706869432e6 3.1456909292716794e7 0.0
3.1456909292716794e7 3.2567958491929723e6 0.0
0.0 0.0 0.0

-4.456019207831335e6 2.212240433956899e7 0.0
2.212240433956899e7 -1.5999655866557977e6 0.0
0.0 0.0 0.0

-90752.53390936065 2.099367592349763e7 0.0
2.099367592349763e7 -4.968180744556585e6 0.0
0.0 0.0 0.0

3.880644169458946e7 2.533340733451859e7 0.0
2.533340733451859e7 1.5261417447927589e7 0.0
0.0 0.0 0.0

-1.0970691980290547e7 1.103591464787912e7 0.0
1.103591464787912e7 2.367441732537335e7 0.0
0.0 0.0 0.0

3.136132532517627e6 4.1127055098635633e6 0.0
4.1127055098635633e6 -3.562507702765341e7 0.0
0.0 0.0 0.0

524163.2045357032 1.9950338605973136e7 0.0
1.9950338605973136e7 -1.3274880423068875e7 0.0
0.0 0.0 0.0

-2.653083654644788e6 1.6804483002732966e7 0.0
1.6804483002732966e7 2.86959081547058e6 0.0
0.0 0.0 0.0

-1.3281164588457532e7 2.0368006617759734e7 0.0
2.0368006617759734e7 1.3103323693007044e6 0.0
0.0 0.0 0.0

-9.087154257515216e6 2.2619692351018293e6 0.0
2.2619692351018293e6 3.688763600215723e7 0.0
0.0 0.0 0.0

-7.883720909769607e7 4.794796488729477e7 0.0
4.794796488729477e7 -1.7082081958609153e7 0.0
0.0 0.0 0.0

-1.0958270618742706e7 1.781122953984947e7 0.0
1.781122953984947e7 -3.652756969528729e7 0.0
0.0 0.0 0.0

9.613388213272478e6 1.8609432224393923e7 0.0
1.8609432224393923e7 3.2044628329692945e7 0.0
0.0 0.0 0.0

612152.8512204662 1.5134400410391122e7 0.0
1.5134400410391122e7 -2.7275716416980695e7 0.0
0.0 0.0 0.0

-1.4458673339905143e7 2.5184110347100522e7 0.0
2.5184110347100522e7 -6.39648969492675e6 0.0
0.0 0.0 0.0

2.6474325682033366e6 9.209088761797065e6 0.0
9.209088761797065e6 -1.8703489360830933e7 0.0
0.0 0.0 0.0

2.4277217031740583e6 9.579388010532903e6 0.0
9.579388010532903e6 -3.1407254673026e7 0.0
0.0 0.0 0.0

-4.2710846952623585e6 2.095546963172879e7 0.0
2.095546963172879e7 1.9676245812058065e7 0.0
0.0 0.0 0.0

1.3556370020930227e6 1.2098912249497714e7 0.0
1.2098912249497714e7 -2.942824685688421e7 0.0
0.0 0.0 0.0

-4.430694051056949e6 3.1532845594376683e7 0.0
3.1532845594376683e7 4.9361400467271e6 0.0
0.0 0.0 0.0

-1.0603305852991968e7 7.644952072171261e6 0.0
7.644952072171261e6 3.388414779872116e7 0.0
0.0 0.0 0.0

-9.398795637226466e6 150336.67888486804 0.0
150336.67888486804 2.8561689582507264e7 0.0
0.0 0.0 0.0

2.1247097501845844e6 7.812654862869863e6 0.0
7.812654862869863e6 -3.245647049481384e7 0.0
0.0 0.0 0.0

-1.3340448110940853e7 2.433216060761512e7 0.0
2.433216060761512e7 -1.0409169557112841e7 0.0
0.0 0.0 0.0

5.803621285383777e6 3.4818311623829335e7 0.0
3.4818311623829335e7 -4.25042595092755e6 0.0
0.0 0.0 0.0

-6.5211386290129665e6 1.910280170589639e7 0.0
1.910280170589639e7 2.4264631949097157e7 0.0
0.0 0.0 0.0

2.236907375616649e6 6.21995138436767e6 0.0
6.21995138436767e6 -3.5615989231931455e7 0.0
0.0 0.0 0.0

1.9801056419080272e6 6.447135036363404e6 0.0
6.447135036363404e6 -4.757033931480564e7 0.0
0.0 0.0 0.0

-4.845697497310083e6 1.3146863474935453e7 0.0
1.3146863474935453e7 5.1670431531722076e7 0.0
0.0 0.0 0.0

-1.0088266154385578e7 7.877124049798362e6 0.0
7.877124049798362e6 3.475436159153317e7 0.0
0.0 0.0 0.0

8.173690785218914e6 2.980688231980083e7 0.0
2.980688231980083e7 -5.537672720242523e6 0.0
0.0 0.0 0.0

-1.2872979694766253e6 2.420027822765939e7 0.0
2.420027822765939e7 -2.4119256969964793e6 0.0
0.0 0.0 0.0

-9.167569936545353e6 5.787455156337719e6 0.0
5.787455156337719e6 3.9773979327517234e7 0.0
0.0 0.0 0.0

2.8313429884826206e6 4.973306093350716e6 0.0
4.973306093350716e6 -1.9679191945735723e7 0.0
0.0 0.0 0.0

-2.548907394477023e6 2.4221090268861312e7 0.0
2.4221090268861312e7 843902.4040265366 0.0
0.0 0.0 0.0

-1.9321252370655347e7 2.5147243293484185e7 0.0
2.5147243293484185e7 -8.886161326594552e6 0.0
0.0 0.0 0.0

-1.0472872133064998e7 1.1804812903939683e7 0.0
1.1804812903939683e7 1.6632609950940622e7 0.0
0.0 0.0 0.0

2.9466887924736254e6 5.668208053115273e6 0.0
5.668208053115273e6 -3.478866264685428e7 0.0
0.0 0.0 0.0

1.4215151026375517e6 1.2126828621345274e7 0.0
1.2126828621345274e7 -2.7412225881117318e7 0.0
0.0 0.0 0.0

-1.100210038314332e7 1.5498628918593226e6 0.0
1.5498628918593226e6 1.9458333956516452e7 0.0
0.0 0.0 0.0

-1.0746017886919491e7 1.0775830243905937e7 0.0
1.0775830243905937e7 2.8557566738066703e7 0.0
0.0 0.0 0.0

-1.1075249516689088e6 1.474730524989462e7 0.0
1.474730524989462e7 -3.813074469052632e7 0.0
0.0 0.0 0.0

3.210835188482877e6 5.098153998333437e6 0.0
5.098153998333437e6 -3.1745504368513413e7 0.0
0.0 0.0 0.0

-1.841505189356449e6 2.395614676681844e7 0.0
2.395614676681844e7 -4.193074557108176e6 0.0
0.0 0.0 0.0

2.720006051233379e6 8.04583344541117e6 0.0
8.04583344541117e6 -3.234784568498611e7 0.0
0.0 0.0 0.0

-1.038578571708547e7 3.3602432692309427e6 0.0
3.3602432692309427e6 2.19320870713568e7 0.0
0.0 0.0 0.0

-1.5822697643085055e7 1.952887109697087e7 0.0
1.952887109697087e7 -5.2742328745956086e7 0.0
0.0 0.0 0.0

1.4111065316477584e7 2.0273559899289463e7 0.0
2.0273559899289463e7 4.703688684517523e7 0.0
0.0 0.0 0.0

845481.3470593092 2.1311719098387793e7 0.0
2.1311719098387793e7 1.3359152992710918e6 0.0
0.0 0.0 0.0

-2.703253374037721e7 2.530032930984782e6 0.0
2.530032930984782e6 7.2015867083279975e6 0.0
0.0 0.0 0.0

-9.67787571937057e6 219004.36277618643 0.0
219004.36277618643 2.1816508867922097e7 0.0
0.0 0.0 0.0

6.385386775606248e6 2.0377078326906722e7 0.0
2.0377078326906722e7 2.1284619545357335e7 0.0
0.0 0.0 0.0

-5.795039060101899e6 1.9513149673591744e7 0.0
1.9513149673591744e7 -1.9316794187551297e7 0.0
0.0 0.0 0.0

-972486.1950027719 1.4495288456049163e7 0.0
1.4495288456049163e7 6.91475879457081e7 0.0
0.0 0.0 0.0

2.1910432723110374e6 7.044182986040503e6 0.0
7.044182986040503e6 -3.403960384457015e7 0.0
0.0 0.0 0.0

1.816311907109688e6 2.5232096556403864e7 0.0
2.5232096556403864e7 -9.235596436372794e6 0.0
0.0 0.0 0.0

-8.300115273844922e6 1.748960389550344e7 0.0
1.748960389550344e7 -3.975369573666274e7 0.0
0.0 0.0 0.0

-3.9995172433136795e6 2.97665322605692e7 0.0
2.97665322605692e7 4.309239083983492e6 0.0
0.0 0.0 0.0

-4.585015962076556e6 2.382181818571175e7 0.0
2.382181818571175e7 8.667838482839948e6 0.0
0.0 0.0 0.0

1.0602935793017398e6 2.9928668350573048e7 0.0
2.9928668350573048e7 -4.191164680282923e6 0.0
0.0 0.0 0.0

-1.420137961252942e7 1.7839223610735286e7 0.0
1.7839223610735286e7 -5.5408369780853465e7 0.0
0.0 0.0 0.0

6.52701212516409e6 2.974884566481086e7 0.0
2.974884566481086e7 -5.676776881848624e6 0.0
0.0 0.0 0.0

-6.153763210042814e6 1.776449850464592e7 0.0
1.776449850464592e7 3.248885034553416e7 0.0
0.0 0.0 0.0

1.780832078446542e6 9.763558381209431e6 0.0
9.763558381209431e6 -1.9590953464922857e7 0.0
0.0 0.0 0.0

2.347064284099875e6 6.335378744789078e6 0.0
6.335378744789078e6 -3.330566775709297e7 0.0
0.0 0.0 0.0

1.9622238702495173e6 2.4071634108430803e7 0.0
2.4071634108430803e7 -1.0502079511193706e7 0.0
0.0 0.0 0.0

-2.0545446335852148e6 1.6777628508965895e7 0.0
1.6777628508965895e7 -6.5216760158839375e6 0.0
0.0 0.0 0.0

1.2882275822479557e6 9.884239711841322e6 0.0
9.884239711841322e6 -3.719408528733659e7 0.0
0.0 0.0 0.0

-3.350499759292581e6 2.830822607487379e7 0.0
2.830822607487379e7 5.2723524558669515e6 0.0
0.0 0.0 0.0

-2.1892412682062094e6 1.9003809435830135e7 0.0
1.9003809435830135e7 92808.46893872158 0.0
0.0 0.0 0.0

760472.4601472076 1.648551365610027e7 0.0
1.648551365610027e7 -1.4538285732235061e7 0.0
0.0 0.0 0.0

689520.2036008909 1.2977744134573225e7 0.0
1.2977744134573225e7 -3.577388325299194e7 0.0
0.0 0.0 0.0

4.100140731411202e6 2.9121310464923408e7 0.0
2.9121310464923408e7 -5.9624948511605505e6 0.0
0.0 0.0 0.0

487990.96591632627 1.860210958126464e7 0.0
1.860210958126464e7 -1.337286879533793e7 0.0
0.0 0.0 0.0

-2.1105166387402867e6 1.7408100484692473e7 0.0
1.7408100484692473e7 -6.105326347353754e6 0.0
0.0 0.0 0.0

2.9544380719259042e7 5.825547401313781e6 0.0
5.825547401313781e6 -2.1191810361310374e6 0.0
0.0 0.0 0.0

-2.7320868812576407e6 2.006454385134796e7 0.0
2.006454385134796e7 8.190548817560814e6 0.0
0.0 0.0 0.0

-9.64488797356344e6 1.0891720136555407e7 0.0
1.0891720136555407e7 1.842105865634003e7 0.0
0.0 0.0 0.0

-9.535481294059685e6 2.0034574805632015e6 0.0
2.0034574805632015e6 3.27210477900395e7 0.0
0.0 0.0 0.0

3.451416104701616e6 3.703946335382185e6 0.0
3.703946335382185e6 -3.0258890538662825e7 0.0
0.0 0.0 0.0

2.994084369113746e6 6.487570084942526e6 0.0
6.487570084942526e6 -2.2363487185111303e7 0.0
0.0 0.0 0.0

3.3030597033321764e6 5.232659098868211e6 0.0
5.232659098868211e6 -2.9456187508788116e7 0.0
0.0 0.0 0.0

-4.9756528228019755e6 1.9127251173759352e7 0.0
1.9127251173759352e7 -2.3033305672705483e7 0.0
0.0 0.0 0.0

5.199932920937353e6 2.9491991085170273e7 0.0
2.9491991085170273e7 -5.811157866655843e6 0.0
0.0 0.0 0.0

-6.231657953040432e6 1.8067401418308597e7 0.0
1.8067401418308597e7 3.0374780939666215e7 0.0
0.0 0.0 0.0

-3.4217944094208474e6 2.0645178429551072e7 0.0
2.0645178429551072e7 7.173555527116628e6 0.0
0.0 0.0 0.0

2.595666169265015e6 5.822216460345587e6 0.0
5.822216460345587e6 -3.0426474723022215e7 0.0
0.0 0.0 0.0

-1.1723775686812371e7 4.667284882166734e6 0.0
4.667284882166734e6 1.9603959524783425e7 0.0
0.0 0.0 0.0

-6.654165403722713e6 1.9252198385186266e7 0.0
1.9252198385186266e7 2.6102264976184603e7 0.0
0.0 0.0 0.0

859138.7673172308 2.0676802745673057e7 0.0
2.0676802745673057e7 -1.594543915964989e7 0.0
0.0 0.0 0.0

1.301199424453758e6 2.1708304690747216e7 0.0
2.1708304690747216e7 -5.844502479180042e6 0.0
0.0 0.0 0.0

-3.6810773664055862e6 2.9397079880542133e7 0.0
2.9397079880542133e7 5.699909708895989e6 0.0
0.0 0.0 0.0

1.1666161543934075e6 1.6103355997736314e7 0.0
1.6103355997736314e7 -2.3876814228535943e7 0.0
0.0 0.0 0.0

3.024645704017883e6 6.612935785977543e6 0.0
6.612935785977543e6 -3.100367140377645e7 0.0
0.0 0.0 0.0

2.472801554456705e6 6.473709067268337e6 0.0
6.473709067268337e6 -3.111069091270993e7 0.0
0.0 0.0 0.0

1.6299502334444486e6 8.777223034800373e6 0.0
8.777223034800373e6 -1.5778299602913357e7 0.0
0.0 0.0 0.0

2.2957120892181788e6 7.120012863612835e6 0.0
7.120012863612835e6 -3.182104715543265e7 0.0
0.0 0.0 0.0

3.412311047238551e6 5.746421679572118e6 0.0
5.746421679572118e6 -2.5795222995765027e7 0.0
0.0 0.0 0.0

-8.286817758627493e6 3.526990024085772e7 0.0
3.526990024085772e7 5.358547724699526e6 0.0
0.0 0.0 0.0

8.30309305636853e6 3.140766546102568e7 0.0
3.140766546102568e7 -5.39890370335926e6 0.0
0.0 0.0 0.0

-5.2233612171731815e6 2.4812197256796222e7 0.0
2.4812197256796222e7 8.686139105725557e6 0.0
0.0 0.0 0.0

2.568586070990799e6 6.368753115217877e6 0.0
6.368753115217877e6 -2.679791906828732e7 0.0
0.0 0.0 0.0

-1.7325022125125583e6 2.070890894837666e7 0.0
2.070890894837666e7 -7.40687850921901e6 0.0
0.0 0.0 0.0

-1.3354927255949422e6 1.8115700840643164e7 0.0
1.8115700840643164e7 -268016.44633419765 0.0
0.0 0.0 0.0

-2.0822631034751184e7 2.1947923633816194e7 0.0
2.1947923633816194e7 -6.94087853658155e7 0.0
0.0 0.0 0.0

1.97958727582091e7 2.354051496683391e7 0.0
2.354051496683391e7 6.598626045143793e7 0.0
0.0 0.0 0.0

1.319333852019469e7 2.2562417539980564e7 0.0
2.2562417539980564e7 961639.603075312 0.0
0.0 0.0 0.0

1.997374790868467e7 2.432838914250482e7 0.0
2.432838914250482e7 879593.8142789034 0.0
0.0 0.0 0.0

207935.54329757765 7.010240533788368e6 0.0
7.010240533788368e6 -5.998533148657662e7 0.0
0.0 0.0 0.0

957497.3232617807 1.8940326139812946e7 0.0
1.8940326139812946e7 -1.8250904553433064e7 0.0
0.0 0.0 0.0

-131488.4314432582 2.114960943484856e7 0.0
2.114960943484856e7 1.4731605588604167e7 0.0
0.0 0.0 0.0

-1.0138957734586924e7 7.189938945633443e6 0.0
7.189938945633443e6 3.663589109237021e7 0.0
0.0 0.0 0.0

-5.353277194004055e6 1.700643604679052e7 0.0
1.700643604679052e7 3.6872779404944025e7 0.0
0.0 0.0 0.0

-3.0966694610619224e6 2.282388745439997e7 0.0
2.282388745439997e7 8.499343500282435e6 0.0
0.0 0.0 0.0

-1.0101004229957976e6 1.631390883307494e7 0.0
1.631390883307494e7 -5.77887832468966e6 0.0
0.0 0.0 0.0

-1.4489497411781924e7 2.7369990570909496e7 0.0
2.7369990570909496e7 -1.2391756649760202e7 0.0
0.0 0.0 0.0

-3.3474127459478294e6 2.307424970738504e7 0.0
2.307424970738504e7 1.490940664022221e7 0.0
0.0 0.0 0.0

-7.542348032834622e6 1.4838160900027733e7 0.0
1.4838160900027733e7 1.4488807454104748e7 0.0
0.0 0.0 0.0

-2.625376618198185e6 2.378113002971172e7 0.0
2.378113002971172e7 5.527416718854737e6 0.0
0.0 0.0 0.0

2.2721217769662905e6 7.018308927373994e6 0.0
7.018308927373994e6 -4.238605289804618e7 0.0
0.0 0.0 0.0

3.103894273661284e6 7.608090179054288e6 0.0
7.608090179054288e6 -2.110643290172553e7 0.0
0.0 0.0 0.0

351439.6098419819 2.1138724944216575e7 0.0
2.1138724944216575e7 -1.4107886806076204e7 0.0
0.0 0.0 0.0

1.328137554185532e6 1.2866112695864858e7 0.0
1.2866112695864858e7 -2.602883625868457e7 0.0
0.0 0.0 0.0

-7.953658952404752e6 9.437166605415855e6 0.0
9.437166605415855e6 4.468397324657903e7 0.0
0.0 0.0 0.0

-8.428410031341165e6 2.528348667499158e6 0.0
2.528348667499158e6 1.0212121474042535e7 0.0
0.0 0.0 0.0

-5.78357561893639e6 8.370543638289365e6 0.0
8.370543638289365e6 5.692250624461193e7 0.0
0.0 0.0 0.0

-171296.27712770645 2.0202068356953725e7 0.0
2.0202068356953725e7 -1.3668569961357368e7 0.0
0.0 0.0 0.0

-4.691734365867063e6 2.517690616349055e7 0.0
2.517690616349055e7 9.960368038548809e6 0.0
0.0 0.0 0.0

-8.439852632074306e6 1.3577056352116808e7 0.0
1.3577056352116808e7 1.8979554825546704e7 0.0
0.0 0.0 0.0

3.6120007143792054e6 2.7002272160610616e7 0.0
2.7002272160610616e7 -7.320325235233086e6 0.0
0.0 0.0 0.0

-1.0910237240617465e7 9.430957184776528e6 0.0
9.430957184776528e6 1.638007686414356e7 0.0
0.0 0.0 0.0

-4.219501516766264e6 2.235304264067297e7 0.0
2.235304264067297e7 1.652619161794819e7 0.0
0.0 0.0 0.0

2.7262480817187294e7 2.9528331944501083e7 0.0
2.9528331944501083e7 -5.486423756742574e6 0.0
0.0 0.0 0.0

-6.560626552724673e6 1.9849367349039342e7 0.0
1.9849367349039342e7 2.2827068568309855e7 0.0
0.0 0.0 0.0

-5.436868139664679e6 3.774160810292891e6 0.0
3.774160810292891e6 9.75440071896326e6 0.0
0.0 0.0 0.0

-3.0929649826563284e7 2.5936123932222896e6 0.0
2.5936123932222896e6 7.463420312081693e6 0.0
0.0 0.0 0.0

2.7882929851542823e6 4.337682225172613e6 0.0
4.337682225172613e6 -3.305567382296794e7 0.0
0.0 0.0 0.0

-8.449437886529056e6 3.1177603368913077e7 0.0
3.1177603368913077e7 6.365482551033999e6 0.0
0.0 0.0 0.0

-1.125957297433756e7 1.9989192620766996e6 0.0
1.9989192620766996e6 1.7158285157634974e7 0.0
0.0 0.0 0.0

-3.5494755337816165e6 1.4156087956942888e7 0.0
1.4156087956942888e7 136394.03092174628 0.0
0.0 0.0 0.0

-1.0562786205084883e7 3.3092805524110477e6 0.0
3.3092805524110477e6 3.0140400434332624e7 0.0
0.0 0.0 0.0

367394.0056361584 2.0670937949333996e7 0.0
2.0670937949333996e7 -1.6008830254811956e7 0.0
0.0 0.0 0.0

-1.011811389686708e7 1.8440147822868838e6 0.0
1.8440147822868838e6 3.1914184109445535e7 0.0
0.0 0.0 0.0

412962.7782406807 1.6870529491634823e7 0.0
1.6870529491634823e7 -1.781108900657632e7 0.0
0.0 0.0 0.0

-5.98183398298531e6 1.8755472186922815e7 0.0
1.8755472186922815e7 2.885218153459865e7 0.0
0.0 0.0 0.0

-1.0395805560450517e7 1.275914747213734e7 0.0
1.275914747213734e7 1.771934550016132e7 0.0
0.0 0.0 0.0

-3.7347441309563834e6 1.7526768913200818e7 0.0
1.7526768913200818e7 3.784326056602565e7 0.0
0.0 0.0 0.0

-8.830142623912808e6 1.6710481927853035e7 0.0
1.6710481927853035e7 2.1375126256293584e7 0.0
0.0 0.0 0.0

-2.482604825012516e6 2.5066394714538433e7 0.0
2.5066394714538433e7 819707.6999112581 0.0
0.0 0.0 0.0

2.163691598731719e6 7.839867573663287e6 0.0
7.839867573663287e6 -4.040491849900868e7 0.0
0.0 0.0 0.0

-4.227928020672848e6 1.8724908569741353e7 0.0
1.8724908569741353e7 3.1886914793195575e7 0.0
0.0 0.0 0.0

1.4071418817514934e7 2.2572158013148237e7 0.0
2.2572158013148237e7 8.449978262830237e6 0.0
0.0 0.0 0.0

-2.052747394675128e7 1.2844270262922388e7 0.0
1.2844270262922388e7 8.635615598540382e6 0.0
0.0 0.0 0.0

1.1856491350883935e6 1.2046611699326206e7 0.0
1.2046611699326206e7 -3.5449223875156395e7 0.0
0.0 0.0 0.0

-6.731369963431691e6 1.4351580300806392e7 0.0
1.4351580300806392e7 1.7208228433361962e7 0.0
0.0 0.0 0.0

2.409255279849616e6 9.974264980283642e6 0.0
9.974264980283642e6 -1.7520244075399373e7 0.0
0.0 0.0 0.0

-9.604191298713814e6 795375.8139654334 0.0
795375.8139654334 1.930092543392751e7 0.0
0.0 0.0 0.0

-1.0298354593558125e7 304054.49391590623 0.0
304054.49391590623 2.550690904298863e7 0.0
0.0 0.0 0.0

925846.3090593163 1.484402667393126e7 0.0
1.484402667393126e7 -2.176991657396112e7 0.0
0.0 0.0 0.0

-1.1052253326794624e7 7.647349522446558e6 0.0
7.647349522446558e6 2.292795624039346e7 0.0
0.0 0.0 0.0

-5.585545377826501e6 2.5808203287940994e7 0.0
2.5808203287940994e7 8.657477446316302e6 0.0
0.0 0.0 0.0

6.804468140771313e6 1.7297637176621445e7 0.0
1.7297637176621445e7 7.615610274880921e6 0.0
0.0 0.0 0.0

-617595.8956104629 8.246716926479668e6 0.0
8.246716926479668e6 -1.0101079107554641e6 0.0
0.0 0.0 0.0

504090.7873504488 2.0879057287684433e7 0.0
2.0879057287684433e7 -1.259895303666164e7 0.0
0.0 0.0 0.0

2.3309780264957976e6 7.886527873553379e6 0.0
7.886527873553379e6 -2.4215503657861155e7 0.0
0.0 0.0 0.0

1.32113827751788e6 2.911228348555068e7 0.0
2.911228348555068e7 -5.031223605544016e6 0.0
0.0 0.0 0.0

-6.409774486392977e6 1.6061508637057275e7 0.0
1.6061508637057275e7 -6.87112564319717e7 0.0
0.0 0.0 0.0

2.5880657115768306e6 5.699417940144467e6 0.0
5.699417940144467e6 -1.8356908200124092e7 0.0
0.0 0.0 0.0

2.750095152608307e6 5.637880884269684e6 0.0
5.637880884269684e6 -2.6156464444677822e7 0.0
0.0 0.0 0.0

-4.1927411365530933e6 1.9259288437342938e7 0.0
1.9259288437342938e7 -2.0878277816677183e7 0.0
0.0 0.0 0.0

-1.4521917303673513e6 8.965779422038864e6 0.0
8.965779422038864e6 836615.565699847 0.0
0.0 0.0 0.0

-1.6307693309254672e7 1.86186714522804e7 0.0
1.86186714522804e7 -6.37476413218058e7 0.0
0.0 0.0 0.0

1.9254448551840312e6 8.431430099654058e6 0.0
8.431430099654058e6 -1.0478898250940792e7 0.0
0.0 0.0 0.0

2.7445695809579007e6 8.6331256893515e6 0.0
8.6331256893515e6 -1.7806788715150423e7 0.0
0.0 0.0 0.0

-706017.8245565206 2.049718867028165e7 0.0
2.049718867028165e7 -2.7922964391980194e6 0.0
0.0 0.0 0.0

-7.536697177278126e6 1.4099969078137502e7 0.0
1.4099969078137502e7 3.882834168136675e7 0.0
0.0 0.0 0.0

-2.742513275441145e6 3.0826157597189393e7 0.0
3.0826157597189393e7 1.7325763749131479e6 0.0
0.0 0.0 0.0

-1.1376096774629729e7 1.0108113574071646e7 0.0
1.0108113574071646e7 8.257197435998033e6 0.0
0.0 0.0 0.0

1.2513588592972085e6 1.3473636152231777e7 0.0
1.3473636152231777e7 -2.4543867999633405e7 0.0
0.0 0.0 0.0

1.77113243426154e6 2.0629054829062603e7 0.0
2.0629054829062603e7 2.0102875694430597e7 0.0
0.0 0.0 0.0

1.4066019999866725e6 2.8301771920235336e7 0.0
2.8301771920235336e7 -5.929203779810638e6 0.0
0.0 0.0 0.0

-743849.8857250996 1.4692083637631452e7 0.0
1.4692083637631452e7 -1.085060811970889e7 0.0
0.0 0.0 0.0

2.9085131182244024e6 2.7598001705472905e7 0.0
2.7598001705472905e7 -6.991928483727489e6 0.0
0.0 0.0 0.0

537527.6394609525 1.5166715620667908e7 0.0
1.5166715620667908e7 -1.2090099854006656e7 0.0
0.0 0.0 0.0

-9.866125081433337e6 -1.2393755098957152e6 0.0
-1.2393755098957152e6 1.9788548480730858e7 0.0
0.0 0.0 0.0

-6318.93870958779 2.0442602647922073e7 0.0
2.0442602647922073e7 -1.4194537177972535e7 0.0
0.0 0.0 0.0

1.5690146079367109e7 4.614104597205843e7 0.0
4.614104597205843e7 -7.359960131573539e6 0.0
0.0 0.0 0.0

6.820475524323363e6 2.419046551008119e7 0.0
2.419046551008119e7 -4.428083942701748e6 0.0
0.0 0.0 0.0

869346.3390484909 1.9847328518867075e7 0.0
1.9847328518867075e7 -1.7132662253637627e7 0.0
0.0 0.0 0.0

-3.4616222827230035e6 1.6040951281012846e7 0.0
1.6040951281012846e7 7.832868299605131e6 0.0
0.0 0.0 0.0

-2.9817971283153356e6 1.949317252283039e7 0.0
1.949317252283039e7 -717016.5132674881 0.0
0.0 0.0 0.0

3.316943240396101e6 3.2374112935490496e6 0.0
3.2374112935490496e6 -3.1934410278553326e7 0.0
0.0 0.0 0.0

3.0431411844029985e6 4.213107436224687e6 0.0
4.213107436224687e6 -1.2921656120544216e7 0.0
0.0 0.0 0.0

-4.0815093489132514e6 1.0454507614003334e7 0.0
1.0454507614003334e7 1.520792496279537e6 0.0
0.0 0.0 0.0

-1.0075215831251925e7 2.3443556468035508e7 0.0
2.3443556468035508e7 -2.1953903683293397e6 0.0
0.0 0.0 0.0

2.6267752336385986e6 6.168912340040826e6 0.0
6.168912340040826e6 -2.168289554022441e7 0.0
0.0 0.0 0.0

44065.592396328226 1.7200563107629035e7 0.0
1.7200563107629035e7 -1.5756372374378407e7 0.0
0.0 0.0 0.0

-390555.69632968726 2.1293260352703292e7 0.0
2.1293260352703292e7 1.1992594083657296e7 0.0
0.0 0.0 0.0

2.0371554050048236e6 1.2453481391632762e7 0.0
1.2453481391632762e7 -2.5366717402665295e7 0.0
0.0 0.0 0.0

-1.0877576458304327e7 6.347396302340867e6 0.0
6.347396302340867e6 2.2019134173549324e7 0.0
0.0 0.0 0.0

-2.8079529317877874e7 3.186685803855492e7 0.0
3.186685803855492e7 3.984292277355291e6 0.0
0.0 0.0 0.0

2.0465775380768906e6 1.1739537682935629e7 0.0
1.1739537682935629e7 -2.8852081588606182e7 0.0
0.0 0.0 0.0

-5.68137685745568e7 5.084920190725719e6 0.0
5.084920190725719e6 4.822036310418621e6 0.0
0.0 0.0 0.0

2.3060287107577836e6 7.622560245983216e6 0.0
7.622560245983216e6 -2.1221687944972917e7 0.0
0.0 0.0 0.0

-3.286700564505738e6 2.0789413087207958e7 0.0
2.0789413087207958e7 2.2250681348283254e7 0.0
0.0 0.0 0.0

-905039.3435593806 1.5006724511412002e7 0.0
1.5006724511412002e7 -3.5964870447798274e7 0.0
0.0 0.0 0.0

409512.05865102634 1.618206703212818e7 0.0
1.618206703212818e7 -2.7313848979512177e7 0.0
0.0 0.0 0.0

-8.689795903017873e6 3.05936236956808e6 0.0
3.05936236956808e6 1.5409943679477582e7 0.0
0.0 0.0 0.0

-1.14491412892943e7 1.0375298086959798e7 0.0
1.0375298086959798e7 2.753412693431307e7 0.0
0.0 0.0 0.0

-2.908643788735809e6 1.6534516327012468e7 0.0
1.6534516327012468e7 -2.5879422208027523e6 0.0
0.0 0.0 0.0

-3.998278727213978e6 1.5239203539696006e7 0.0
1.5239203539696006e7 9.670388843464512e6 0.0
0.0 0.0 0.0

-1.0852880289640907e7 9.199757175121212e6 0.0
9.199757175121212e6 3.1886641087197907e7 0.0
0.0 0.0 0.0

-1.8501871683394955e6 1.603521408772189e7 0.0
1.603521408772189e7 -1.7757365691802339e6 0.0
0.0 0.0 0.0

952.5353942774236 1.9521599401230913e7 0.0
1.9521599401230913e7 -1.4939621488370989e7 0.0
0.0 0.0 0.0

362122.517097963 2.063105723715931e7 0.0
2.063105723715931e7 -1.2006547656388829e7 0.0
0.0 0.0 0.0

120194.7275104085 2.1282972249662027e7 0.0
2.1282972249662027e7 -1.3462220545468688e7 0.0
0.0 0.0 0.0

623189.1795793539 1.6167716815330574e7 0.0
1.6167716815330574e7 -1.907508231782612e7 0.0
0.0 0.0 0.0

1.5629364844217142e6 9.402084964184694e6 0.0
9.402084964184694e6 -1.6661195392027732e7 0.0
0.0 0.0 0.0

-938542.1393513612 2.056063029638878e7 0.0
2.056063029638878e7 -6.102475072285669e6 0.0
0.0 0.0 0.0

-381591.8393798452 1.9929629444426294e7 0.0
1.9929629444426294e7 -1.314305407622489e7 0.0
0.0 0.0 0.0

41361.102013540454 1.5399166778572064e7 0.0
1.5399166778572064e7 -9.773840306621846e6 0.0
0.0 0.0 0.0

-1.0453451194128906e7 5.124997335150143e6 0.0
5.124997335150143e6 2.1036634821432024e7 0.0
0.0 0.0 0.0

760969.7208959917 1.5529188547778988e7 0.0
1.5529188547778988e7 -2.043105544621473e7 0.0
0.0 0.0 0.0

-1.801451941593792e7 2.061009772099777e7 0.0
2.061009772099777e7 -6.004839836462076e7 0.0
0.0 0.0 0.0

-8.064312582567423e6 4.949310770903488e6 0.0
4.949310770903488e6 1.4351745485613579e7 0.0
0.0 0.0 0.0

2.0122811516719814e6 8.993827998382606e6 0.0
8.993827998382606e6 -2.080743773401322e7 0.0
0.0 0.0 0.0

-543590.9089189786 7.664724178099473e6 0.0
7.664724178099473e6 -5.343909343968058e6 0.0
0.0 0.0 0.0

-4.984779923751624e6 1.5142617192371702e7 0.0
1.5142617192371702e7 -6.210652235929586e7 0.0
0.0 0.0 0.0

-4.46272072442159e6 1.6087473052754652e7 0.0
1.6087473052754652e7 1.29429205871284e7 0.0
0.0 0.0 0.0

3.163440970044777e6 7.0289786614907915e6 0.0
7.0289786614907915e6 -2.0271986182618827e7 0.0
0.0 0.0 0.0

-1.1839659490068143e7 1.0005228880979836e7 0.0
1.0005228880979836e7 2.454111096250918e7 0.0
0.0 0.0 0.0

-7.798471489136916e6 2.6632283304976425e6 0.0
2.6632283304976425e6 4.724858435898837e7 0.0
0.0 0.0 0.0

454474.7503663651 1.9701650635647662e7 0.0
1.9701650635647662e7 -2.0346538259849371e6 0.0
0.0 0.0 0.0

1.9679690052422532e6 1.7765445165968906e7 0.0
1.7765445165968906e7 5.503016591609147e6 0.0
0.0 0.0 0.0

-7.451298472672525e6 2.609027719163943e7 0.0
2.609027719163943e7 8.078380786666835e6 0.0
0.0 0.0 0.0

-3.0707868817892754e6 2.1843329146425683e7 0.0
2.1843329146425683e7 4.30452011669181e6 0.0
0.0 0.0 0.0

2.9993790105672553e6 4.910638633225293e6 0.0
4.910638633225293e6 -3.636519642088016e7 0.0
0.0 0.0 0.0

3.0197196730164234e6 5.620629408988721e6 0.0
5.620629408988721e6 -3.6873020140335955e7 0.0
0.0 0.0 0.0

-9.310058385274507e6 1.554337736855021e7 0.0
1.554337736855021e7 2.8225681120434504e7 0.0
0.0 0.0 0.0

84909.05343960226 1.8574915385550212e7 0.0
1.8574915385550212e7 -1.5716565027026637e7 0.0
0.0 0.0 0.0

9.243428373396464e6 2.2963573208604157e7 0.0
2.2963573208604157e7 1.5870853823659683e6 0.0
0.0 0.0 0.0

-7.690590350346722e6 4.910387076044625e6 0.0
4.910387076044625e6 5.394802227518489e7 0.0
0.0 0.0 0.0

-2.9709512084566336e6 1.933172845744484e7 0.0
1.933172845744484e7 9.888783795610873e6 0.0
0.0 0.0 0.0

-1.1113067531230757e6 1.832403698713236e7 0.0
1.832403698713236e7 -1.0474759768185783e7 0.0
0.0 0.0 0.0

-457529.9201413132 1.6703133573933821e7 0.0
1.6703133573933821e7 5.54429022433315e7 0.0
0.0 0.0 0.0

-290658.70814702986 5.329276250946761e6 0.0
5.329276250946761e6 180857.74317299944 0.0
0.0 0.0 0.0

-459477.94437462604 2.428658148253463e7 0.0
2.428658148253463e7 -7.9986809056061655e6 0.0
0.0 0.0 0.0

5.356538686977042e6 2.1444909868879076e7 0.0
2.1444909868879076e7 1.7213099070123218e7 0.0
0.0 0.0 0.0

2.8438974216673393e6 8.432237067697462e6 0.0
8.432237067697462e6 -1.9907387473241016e7 0.0
0.0 0.0 0.0

-3.186158597462013e6 1.4743873855989192e7 0.0
1.4743873855989192e7 -1.4267002920583868e6 0.0
0.0 0.0 0.0

-4.895405295800779e6 1.592297453255449e7 0.0
1.592297453255449e7 4.231183260238301e7 0.0
0.0 0.0 0.0

2.0010098785545658e6 9.52173139590496e6 0.0
9.52173139590496e6 -3.662849419088632e7 0.0
0.0 0.0 0.0

846504.5871455232 1.92774258496309e7 0.0
1.92774258496309e7 -1.8474362018699467e7 0.0
0.0 0.0 0.0

-8.903600678657304e6 1.2571884566169993e6 0.0
1.2571884566169993e6 3.827435483539701e7 0.0
0.0 0.0 0.0

1.6491642169964332e6 1.1100889827671947e7 0.0
1.1100889827671947e7 -3.5020652699220136e7 0.0
0.0 0.0 0.0

148668.25845070276 1.0719204620063795e7 0.0
1.0719204620063795e7 -6.570366113870242e6 0.0
0.0 0.0 0.0

2.6450738808437493e6 8.857877262980677e6 0.0
8.857877262980677e6 -3.0777717359634086e7 0.0
0.0 0.0 0.0

51219.24379288405 1.5369730327239841e7 0.0
1.5369730327239841e7 -1.4852211171399858e7 0.0
0.0 0.0 0.0

182751.34556763992 1.756946415262272e7 0.0
1.756946415262272e7 -1.6440892624892583e7 0.0
0.0 0.0 0.0

-1.100379411078592e7 7.941282622228395e6 0.0
7.941282622228395e6 3.1164429247315943e7 0.0
0.0 0.0 0.0

3.8714181359910956e6 2.154148959940798e7 0.0
2.154148959940798e7 4.948353281494004e6 0.0
0.0 0.0 0.0

-1.0599615683940899e7 3.814030801129496e6 0.0
3.814030801129496e6 1.9962378750773694e7 0.0
0.0 0.0 0.0

1.1794903160019908e6 1.6708053554017017e7 0.0
1.6708053554017017e7 -2.2561956677720428e7 0.0
0.0 0.0 0.0

-4.48810810876813e6 5.589603241583843e6 0.0
5.589603241583843e6 8.201160195268599e6 0.0
0.0 0.0 0.0

635551.7906582411 5.623922507582882e6 0.0
5.623922507582882e6 -6.618577637276816e6 0.0
0.0 0.0 0.0

-60246.23811027408 1.6837683667826325e7 0.0
1.6837683667826325e7 -1.5098509835354337e7 0.0
0.0 0.0 0.0

3.4348875352179864e6 5.43020327302199e6 0.0
5.43020327302199e6 -2.05777041401786e7 0.0
0.0 0.0 0.0

-1.1061588093110226e7 3.801270675758908e6 0.0
3.801270675758908e6 2.756273670141371e7 0.0
0.0 0.0 0.0

1.699814976927802e6 3.4126409237996563e6 0.0
3.4126409237996563e6 -5.3962624384998985e7 0.0
0.0 0.0 0.0

-1.355595659870108e6 1.867785360187034e7 0.0
1.867785360187034e7 -4.518651699723804e6 0.0
0.0 0.0 0.0

-1.1661405641298354e7 1.2000000877070108e7 0.0
1.2000000877070108e7 2.186398054960008e7 0.0
0.0 0.0 0.0

-8.526682248666108e6 2.5067471844660975e7 0.0
2.5067471844660975e7 5.692424959952181e6 0.0
0.0 0.0 0.0

3.4762307474301504e6 2.2301658862586815e7 0.0
2.2301658862586815e7 9.254809636693407e6 0.0
0.0 0.0 0.0

-5.816345694380403e6 1.9289936991708905e7 0.0
1.9289936991708905e7 2.7431448941643886e7 0.0
0.0 0.0 0.0

-4.825796806965491e6 2.0405543007761132e7 0.0
2.0405543007761132e7 2.1364656424484864e7 0.0
0.0 0.0 0.0

-8.662297085054131e6 -857337.6620875346 0.0
-857337.6620875346 3.824536621171729e7 0.0
0.0 0.0 0.0

-3.0502908190598125e6 1.4903106643026546e7 0.0
1.4903106643026546e7 4.606996927968906e6 0.0
0.0 0.0 0.0

5.3212790268072225e6 2.1531427714479562e7 0.0
2.1531427714479562e7 1.675373500581258e7 0.0
0.0 0.0 0.0

-3.978565582280918e6 2.355264284530223e7 0.0
2.355264284530223e7 1.227719055136459e7 0.0
0.0 0.0 0.0

-1.1639330129717793e7 9.39506588875377e6 0.0
9.39506588875377e6 2.663951887636149e7 0.0
0.0 0.0 0.0

759037.4730067328 1.511886274247131e7 0.0
1.511886274247131e7 -2.551520301759807e7 0.0
0.0 0.0 0.0

2.2922313546958053e6 7.252310314883158e6 0.0
7.252310314883158e6 -1.812513321715314e7 0.0
0.0 0.0 0.0

808232.5366986673 1.8295867011077683e7 0.0
1.8295867011077683e7 -1.5277452949014883e7 0.0
0.0 0.0 0.0

-3.1580881616255073e6 1.353753401729956e7 0.0
1.353753401729956e7 4.689290072625632e6 0.0
0.0 0.0 0.0

3.1450859144543083e6 5.43698756325015e6 0.0
5.43698756325015e6 -1.3067785342029944e7 0.0
0.0 0.0 0.0

-578647.1640459013 2.4896958781177126e7 0.0
2.4896958781177126e7 -6.8423608029866535e6 0.0
0.0 0.0 0.0

-8.154005772270495e6 4.0948613400301756e6 0.0
4.0948613400301756e6 4.509652948602701e7 0.0
0.0 0.0 0.0

-8.949779824768126e6 2.284290056815739e6 0.0
2.284290056815739e6 3.952530995848377e7 0.0
0.0 0.0 0.0

-8.675867162052406e6 1.2296328838796519e7 0.0
1.2296328838796519e7 3.881341649562833e7 0.0
0.0 0.0 0.0

-156041.30244829925 2.27200904032486e7 0.0
2.27200904032486e7 -1.1027972756086316e7 0.0
0.0 0.0 0.0

-2.3648860780123277e6 8.998905248489728e6 0.0
8.998905248489728e6 -2.2039857499674545e6 0.0
0.0 0.0 0.0

1.7495106319700863e7 2.427397626568465e7 0.0
2.427397626568465e7 1.4025566581282372e7 0.0
0.0 0.0 0.0

1.3006030252575118e7 2.1987821003871746e7 0.0
2.1987821003871746e7 5.322831940965064e7 0.0
0.0 0.0 0.0

3.193199642068357e6 6.553071678290928e6 0.0
6.553071678290928e6 -1.700660198495521e7 0.0
0.0 0.0 0.0

-1.0913227230678268e7 5.898767951293809e6 0.0
5.898767951293809e6 2.402483951493076e7 0.0
0.0 0.0 0.0

-2.9182549865450813e6 1.6179926995747503e7 0.0
1.6179926995747503e7 4.496049933146437e6 0.0
0.0 0.0 0.0

-4.263354002796078e6 2.2100047487907894e7 0.0
2.2100047487907894e7 1.6299001215145275e7 0.0
0.0 0.0 0.0

2.6565883714548424e6 6.103443418520542e6 0.0
6.103443418520542e6 -3.9562106989596605e7 0.0
0.0 0.0 0.0

2.7596785003476962e6 7.199949465722858e6 0.0
7.199949465722858e6 -3.392443654576066e7 0.0
0.0 0.0 0.0

-6.879712570791659e6 6.510857429467207e6 0.0
6.510857429467207e6 6.752171550032897e6 0.0
0.0 0.0 0.0

-2.759827303046006e6 2.0420197996743627e7 0.0
2.0420197996743627e7 9.47097394772655e6 0.0
0.0 0.0 0.0

-837576.6190491058 1.7095501426759712e7 0.0
1.7095501426759712e7 5.1483314745196044e7 0.0
0.0 0.0 0.0

720527.4064003602 1.928749576651709e7 0.0
1.928749576651709e7 -1.457691879945668e7 0.0
0.0 0.0 0.0

-4.675516067186678e6 7.801387937502756e6 0.0
7.801387937502756e6 8.711577271507725e6 0.0
0.0 0.0 0.0

2.822935965980388e6 6.366769808190254e6 0.0
6.366769808190254e6 -3.546091055684194e7 0.0
0.0 0.0 0.0

-3.4189252923301267e6 2.2720753229633693e7 0.0
2.2720753229633693e7 1.0194899383940766e7 0.0
0.0 0.0 0.0

2.119357093522357e6 8.719920025492737e6 0.0
8.719920025492737e6 -2.3027868162568603e7 0.0
0.0 0.0 0.0

-9.22776229093081e6 9.048125072810292e6 0.0
9.048125072810292e6 634463.1409934484 0.0
0.0 0.0 0.0

211066.76939299423 1.615190259222856e7 0.0
1.615190259222856e7 -1.6389544894190067e7 0.0
0.0 0.0 0.0

-5.2558619470906705e6 3.409811571642579e6 0.0
3.409811571642579e6 3.9040486090762913e6 0.0
0.0 0.0 0.0

-3.2078120233268957e6 1.2064053991314288e7 0.0
1.2064053991314288e7 4.732834965688436e6 0.0
0.0 0.0 0.0

-3.123344551906431e6 1.0418448782995293e7 0.0
1.0418448782995293e7 4.719631831094754e6 0.0
0.0 0.0 0.0

-163733.5637419885 1.6406487724202696e7 0.0
1.6406487724202696e7 -1.4392975317167113e7 0.0
0.0 0.0 0.0

-3.1911271290526646e6 1.6023857007566033e7 0.0
1.6023857007566033e7 -1.234977152279654e6 0.0
0.0 0.0 0.0

-1.1205603970075168e7 9.712734265982946e6 0.0
9.712734265982946e6 2.969992555913645e7 0.0
0.0 0.0 0.0

-4.065142759464342e6 1.4843712709275905e7 0.0
1.4843712709275905e7 4.887389293808896e7 0.0
0.0 0.0 0.0

-7.156807514310883e6 1.2226172826565621e7 0.0
1.2226172826565621e7 4.439061050544403e7 0.0
0.0 0.0 0.0

-4.548020782648893e6 1.5402519034280129e7 0.0
1.5402519034280129e7 4.542283083496989e7 0.0
0.0 0.0 0.0

-5.32315342656558e6 7.909701334299384e6 0.0
7.909701334299384e6 6.673257335948628e7 0.0
0.0 0.0 0.0

-743311.5365521712 2.141975155864593e7 0.0
2.141975155864593e7 9.284325517587578e6 0.0
0.0 0.0 0.0

-7.9765021736750305e6 6.119856024275445e6 0.0
6.119856024275445e6 5.098741908402186e7 0.0
0.0 0.0 0.0

-1.7130996409642198e6 2.330652982899096e7 0.0
2.330652982899096e7 -5.403223663796626e6 0.0
0.0 0.0 0.0

-1.7617779422720724e6 2.0404423353361305e7 0.0
2.0404423353361305e7 -1.2073755553942297e7 0.0
0.0 0.0 0.0

-5.863402443159634e7 3.689241780426505e7 0.0
3.689241780426505e7 -1.203142380271161e7 0.0
0.0 0.0 0.0

2.8376468668874e6 8.046000655637471e6 0.0
8.046000655637471e6 -1.6869125164167814e7 0.0
0.0 0.0 0.0

1.9625707967581768e6 1.3209619424884252e7 0.0
1.3209619424884252e7 -2.4140859404426225e7 0.0
0.0 0.0 0.0

-207127.84243269474 2.5110112317257185e7 0.0
2.5110112317257185e7 -5.849792520629673e6 0.0
0.0 0.0 0.0

-2.1088272813025163e6 2.3852860754796986e7 0.0
2.3852860754796986e7 3.741662865837659e6 0.0
0.0 0.0 0.0

2.815626282984743e6 8.112248688855455e6 0.0
8.112248688855455e6 -3.0214986226643514e7 0.0
0.0 0.0 0.0

1.8301416494684745e7 2.6249631229704347e7 0.0
2.6249631229704347e7 -3.127701404424741e6 0.0
0.0 0.0 0.0

-4.571322942034296e6 1.2785804400068922e7 0.0
1.2785804400068922e7 3.5407480176939387e6 0.0
0.0 0.0 0.0

677591.9234254546 6.369046296930491e6 0.0
6.369046296930491e6 -5.529118085335069e7 0.0
0.0 0.0 0.0

-4.74646975613271e6 1.120989935561042e7 0.0
1.120989935561042e7 3.4229836640205886e6 0.0
0.0 0.0 0.0

1.9062252222120538e6 8.647597716106959e6 0.0
8.647597716106959e6 -1.7846279416957226e7 0.0
0.0 0.0 0.0

-5.631779557690285e6 1.9675753390166204e7 0.0
1.9675753390166204e7 2.602611960535194e7 0.0
0.0 0.0 0.0

-3.82914739308729e7 3.1474925435129788e7 0.0
3.1474925435129788e7 546763.9567958359 0.0
0.0 0.0 0.0

-9.916988788620524e6 905664.6749441202 0.0
905664.6749441202 3.143340364399956e7 0.0
0.0 0.0 0.0

664906.8327162415 2.02137809926702e7 0.0
2.02137809926702e7 -1.3840009141009098e7 0.0
0.0 0.0 0.0

-1.7043471280636795e7 2.698576145011297e7 0.0
2.698576145011297e7 -7.585473929198191e6 0.0
0.0 0.0 0.0

3.237825188203072e6 5.908450399909524e6 0.0
5.908450399909524e6 -1.6323175060306814e7 0.0
0.0 0.0 0.0

-1.10837056171987e7 1.0528750728455663e7 0.0
1.0528750728455663e7 2.5759540608518545e7 0.0
0.0 0.0 0.0

609479.4554558201 1.7560087737703517e7 0.0
1.7560087737703517e7 -1.3967725522985304e7 0.0
0.0 0.0 0.0

-787394.286845081 1.6759130178839933e7 0.0
1.6759130178839933e7 -6.913108543061646e6 0.0
0.0 0.0 0.0

-4.345315886243575e6 1.421642612546176e7 0.0
1.421642612546176e7 3.557615726149626e6 0.0
0.0 0.0 0.0

-9.227511765946588e6 1.0735435867326705e7 0.0
1.0735435867326705e7 3.882404117809663e7 0.0
0.0 0.0 0.0

3.308389500671424e6 4.243230943777919e6 0.0
4.243230943777919e6 -3.323974003577835e7 0.0
0.0 0.0 0.0

2.7636323151461445e6 5.58423630550206e6 0.0
5.58423630550206e6 -2.047309827759327e7 0.0
0.0 0.0 0.0

-3.394057630508623e6 2.238774392718259e7 0.0
2.238774392718259e7 9.23977660561561e6 0.0
0.0 0.0 0.0

-1.0479755168117765e7 2.2192192487735357e6 0.0
2.2192192487735357e6 1.423730242598235e7 0.0
0.0 0.0 0.0

-64174.22422091849 1.491275739435497e7 0.0
1.491275739435497e7 -1.4072954556833731e7 0.0
0.0 0.0 0.0

3.075305683828486e6 7.178089716080497e6 0.0
7.178089716080497e6 -2.5388353157671172e7 0.0
0.0 0.0 0.0

-8.901063511061732e6 5.441026939818691e6 0.0
5.441026939818691e6 4.250272884431691e7 0.0
0.0 0.0 0.0

-1.1549076917045675e6 2.161365099000728e7 0.0
2.161365099000728e7 6.499469324285397e6 0.0
0.0 0.0 0.0

-1.0815123020612322e7 2.6450186598064434e6 0.0
2.6450186598064434e6 2.6860506312025934e7 0.0
0.0 0.0 0.0

1.1476854755320586e6 1.2628849665394837e7 0.0
1.2628849665394837e7 -3.356348363639504e7 0.0
0.0 0.0 0.0

-491355.271215328 1.8882530527779374e7 0.0
1.8882530527779374e7 -2.0699284462157954e7 0.0
0.0 0.0 0.0

-1.1131255196492486e7 1.3186647168069234e7 0.0
1.3186647168069234e7 2.110324727822571e7 0.0
0.0 0.0 0.0

812948.661105847 1.6101856433372539e7 0.0
1.6101856433372539e7 -2.5614854110727143e7 0.0
0.0 0.0 0.0

1.1078374946313957e6 1.6520133507710198e7 0.0
1.6520133507710198e7 -1.7275259686573483e7 0.0
0.0 0.0 0.0

-1.09597335656557e6 2.710122572217652e6 0.0
2.710122572217652e6 2.282904239847233e6 0.0
0.0 0.0 0.0

-1.0879453200693281e7 1.6259333721138635e6 0.0
1.6259333721138635e6 2.39499985655928e7 0.0
0.0 0.0 0.0

397.02663225727156 1.2833860445934076e7 0.0
1.2833860445934076e7 -1.2632241891084887e7 0.0
0.0 0.0 0.0

386596.16229996644 1.1606665963774653e7 0.0
1.1606665963774653e7 -1.2979347075882532e7 0.0
0.0 0.0 0.0

758233.2686770577 1.7923062002693526e7 0.0
1.7923062002693526e7 -1.462214478623027e7 0.0
0.0 0.0 0.0

-1.8401043222387463e6 2.178916333504743e7 0.0
2.178916333504743e7 3.695058183391706e6 0.0
0.0 0.0 0.0

1.2274047319488423e6 1.0154261969701806e7 0.0
1.0154261969701806e7 -1.5452730414608654e7 0.0
0.0 0.0 0.0

-2.858168545031026e6 1.4090044759961016e7 0.0
1.4090044759961016e7 -4.999376360282784e7 0.0
0.0 0.0 0.0

-1.0234125897793308e7 4.1043428408743795e6 0.0
4.1043428408743795e6 1.3615260108140972e7 0.0
0.0 0.0 0.0

-1.1954555486227138e7 1.9036986164763417e7 0.0
1.9036986164763417e7 -4.483777475649976e7 0.0
0.0 0.0 0.0

-1.2356772756442723e8 1.5053591308170345e7 0.0
1.5053591308170345e7 -1.582240097395949e6 0.0
0.0 0.0 0.0

1.1102837771099094e8 1.5977030539678242e7 0.0
1.5977030539678242e7 5.502892812550776e6 0.0
0.0 0.0 0.0

-4.253044225612126e6 1.4508441335668612e7 0.0
1.4508441335668612e7 -5.7600728736322306e7 0.0
0.0 0.0 0.0

-7.337392074387869e6 1.719666122577209e7 0.0
1.719666122577209e7 2.2138350830383614e7 0.0
0.0 0.0 0.0

-2.9233457964522457e6 2.116525466064801e7 0.0
2.116525466064801e7 705629.1965832254 0.0
0.0 0.0 0.0

-338844.970350076 1.3998439121986678e7 0.0
1.3998439121986678e7 -1.2257877470341282e7 0.0
0.0 0.0 0.0

-859754.1196587116 6.72648863479065e6 0.0
6.72648863479065e6 -3.9521820415594294e6 0.0
0.0 0.0 0.0

245070.01825872716 7.581585904785786e6 0.0
7.581585904785786e6 -2.7018744436916253e6 0.0
0.0 0.0 0.0

-4.094624172626366e6 1.5548975283593312e7 0.0
1.5548975283593312e7 3.5188109077193807e6 0.0
0.0 0.0 0.0

-3.533255692303341e6 1.426067226396878e7 0.0
1.426067226396878e7 -5.358650779252966e7 0.0
0.0 0.0 0.0

1.0786185956934183e6 1.2333523560261706e7 0.0
1.2333523560261706e7 -1.1827672083670735e7 0.0
0.0 0.0 0.0

-1.0269158984706337e7 3.8884406932441513e6 0.0
3.8884406932441513e6 3.424369838419299e7 0.0
0.0 0.0 0.0

9.123948248685749e7 1.971670572515795e7 0.0
1.971670572515795e7 144111.57922615483 0.0
0.0 0.0 0.0

715709.872454084 1.3536859522087207e7 0.0
1.3536859522087207e7 -1.1520296846271524e7 0.0
0.0 0.0 0.0

3.1348040198288e6 6.720730225712019e6 0.0
6.720730225712019e6 -2.891486255217434e7 0.0
0.0 0.0 0.0

2.975918670403527e6 7.402366722465665e6 0.0
7.402366722465665e6 -2.9571863162291776e7 0.0
0.0 0.0 0.0

-5.468657895091571e6 2.0080643562373973e7 0.0
2.0080643562373973e7 2.4629471805016078e7 0.0
0.0 0.0 0.0

1.5385266553207207e6 1.5166315317908352e7 0.0
1.5166315317908352e7 -1.9836834205487806e7 0.0
0.0 0.0 0.0

-3.733056185590361e6 2.2198844901518922e7 0.0
2.2198844901518922e7 -1.247728360029327e7 0.0
0.0 0.0 0.0

7.39914413990026e6 2.3939283057009786e7 0.0
2.3939283057009786e7 -3.068212534934432e6 0.0
0.0 0.0 0.0

-1.9486229423769542e6 1.415861909837322e7 0.0
1.415861909837322e7 -469969.6531473474 0.0
0.0 0.0 0.0

1.5589240477790227e6 6.205233276712896e6 0.0
6.205233276712896e6 -5.624108792064886e6 0.0
0.0 0.0 0.0

-3.25291416304125e6 9.709656902969893e6 0.0
9.709656902969893e6 -342737.1903856369 0.0
0.0 0.0 0.0

-6.859099068934651e6 6.799905065435165e6 0.0
6.799905065435165e6 1.2756126839635316e7 0.0
0.0 0.0 0.0

-6.587299095698854e6 1.729578238486188e7 0.0
1.729578238486188e7 -3.2115066265601356e7 0.0
0.0 0.0 0.0

1.8035051483244114e6 1.2416739677846687e7 0.0
1.2416739677846687e7 -2.93340338355809e7 0.0
0.0 0.0 0.0

2.2737817587080384e6 6.517735784920659e6 0.0
6.517735784920659e6 -1.7292211321433287e7 0.0
0.0 0.0 0.0

2.227622867931667e6 9.594533848460417e6 0.0
9.594533848460417e6 -1.4510544362223122e7 0.0
0.0 0.0 0.0

-2.174325101236282e6 1.6715448377448095e7 0.0
1.6715448377448095e7 -179887.51313122053 0.0
0.0 0.0 0.0

1.8379206614215942e6 9.213256383097347e6 0.0
9.213256383097347e6 -1.8732461787010267e7 0.0
0.0 0.0 0.0

-1.4673363783189887e6 8.299038392570312e6 0.0
8.299038392570312e6 -3.840699834539863e6 0.0
0.0 0.0 0.0

3.6243898844526717e6 4.680287913769844e6 0.0
4.680287913769844e6 -2.173606509570042e7 0.0
0.0 0.0 0.0

690322.4405114483 1.6037360773538442e7 0.0
1.6037360773538442e7 -1.3804505543747477e7 0.0
0.0 0.0 0.0

-1.0075465267663334e7 6.091316244798513e6 0.0
6.091316244798513e6 1.2425174397704434e7 0.0
0.0 0.0 0.0

-290312.56954023195 2.4255041201801054e7 0.0
2.4255041201801054e7 -8.777987540613854e6 0.0
0.0 0.0 0.0

1.4219858832516652e6 5.9041274300449e6 0.0
5.9041274300449e6 -4.783947304128235e7 0.0
0.0 0.0 0.0

502548.648941095 1.71295007720018e7 0.0
1.71295007720018e7 -1.3289554297126617e7 0.0
0.0 0.0 0.0

2.8541541116607646e6 8.791606819984332e6 0.0
8.791606819984332e6 -2.2764491945477337e7 0.0
0.0 0.0 0.0

-3.117671680586033e6 4.907597734392473e6 0.0
4.907597734392473e6 6.211435806488859e6 0.0
0.0 0.0 0.0

2.988782642857044e6 8.01800836965152e6 0.0
8.01800836965152e6 -2.4110153413735144e7 0.0
0.0 0.0 0.0

-2.446650987064348e6 2.173406334367834e7 0.0
2.173406334367834e7 6.406435499940816e6 0.0
0.0 0.0 0.0

1.9641956480034566e6 2.612369614659452e7 0.0
2.612369614659452e7 -8.268864038745677e6 0.0
0.0 0.0 0.0

-1.3556971257477794e6 1.967851211064803e7 0.0
1.967851211064803e7 -2.0206406601929855e7 0.0
0.0 0.0 0.0

122729.90467076655 6.9317991673495015e6 0.0
6.9317991673495015e6 -6.728709963972639e6 0.0
0.0 0.0 0.0

1.8740215261615287e6 2.7152165860933397e7 0.0
2.7152165860933397e7 -6.46555020419254e6 0.0
0.0 0.0 0.0

509142.3501023967 2.2496620217562724e7 0.0
2.2496620217562724e7 -1.069350206539902e7 0.0
0.0 0.0 0.0

-1.206600234913439e7 8.751350513409648e6 0.0
8.751350513409648e6 2.085919233514525e7 0.0
0.0 0.0 0.0

-3.4315789879142335e6 2.3158091829957917e7 0.0
2.3158091829957917e7 1.4463272155161928e7 0.0
0.0 0.0 0.0

-6.402800831530381e6 4.257755920631277e6 0.0
4.257755920631277e6 6.221340166674526e6 0.0
0.0 0.0 0.0

-2.61009212191449e6 1.1330256191728456e7 0.0
1.1330256191728456e7 2.8638669512938773e6 0.0
0.0 0.0 0.0

-7.660721346027352e6 8.455983654607981e6 0.0
8.455983654607981e6 4.7848354470764756e7 0.0
0.0 0.0 0.0

-5.495144052007485e6 1.455371615220626e7 0.0
1.455371615220626e7 8.651062981244106e6 0.0
0.0 0.0 0.0

3.42231850922636e6 2.1017941311864387e7 0.0
2.1017941311864387e7 2.181856890189175e6 0.0
0.0 0.0 0.0

428933.41521138186 1.4715378926664965e7 0.0
1.4715378926664965e7 -1.113503406057603e7 0.0
0.0 0.0 0.0

-295141.85076022055 1.6001895788649783e7 0.0
1.6001895788649783e7 -1.3573611583261762e7 0.0
0.0 0.0 0.0

-2.5806358746961e6 1.4072828575386843e7 0.0
1.4072828575386843e7 -4.669460372647294e7 0.0
0.0 0.0 0.0

961513.7220446356 6.337053372550792e6 0.0
6.337053372550792e6 -5.09998624908152e7 0.0
0.0 0.0 0.0

-1.1381473059693536e7 1.1861066464013409e7 0.0
1.1861066464013409e7 2.6366316205637477e7 0.0
0.0 0.0 0.0

-2.5329928312067203e6 2.5405452695424393e7 0.0
2.5405452695424393e7 6.939607380288188e6 0.0
0.0 0.0 0.0

-9.872625810984021e6 4.312163961652121e6 0.0
4.312163961652121e6 3.795496692218911e7 0.0
0.0 0.0 0.0

580627.370247067 2.108663641597269e7 0.0
2.108663641597269e7 -1.3152423157856151e7 0.0
0.0 0.0 0.0

393533.3337924164 2.052946946245679e7 0.0
2.052946946245679e7 -1.5746655677105421e7 0.0
0.0 0.0 0.0

1.5183873310067879e7 6.014055013773483e6 0.0
6.014055013773483e6 -2.122332378991656e6 0.0
0.0 0.0 0.0

1.4279978598003662e6 9.862691073245276e6 0.0
9.862691073245276e6 -1.0262815838375345e7 0.0
0.0 0.0 0.0

-9.276304728041705e6 1.441800109735653e7 0.0
1.441800109735653e7 1.7507796670135327e7 0.0
0.0 0.0 0.0

-3.29566888287378e6 1.9596698454564262e7 0.0
1.9596698454564262e7 -1.9358991618419904e7 0.0
0.0 0.0 0.0

613304.1284315754 1.5631485847559491e7 0.0
1.5631485847559491e7 -1.2986449098193016e7 0.0
0.0 0.0 0.0

861947.341351999 1.68935298885471e7 0.0
1.68935298885471e7 -1.52744036406021e7 0.0
0.0 0.0 0.0

-7.941904880605815e6 1.399476001054336e7 0.0
1.399476001054336e7 3.758116285538459e7 0.0
0.0 0.0 0.0

-1.1666105538711628e7 1.1562481440669332e7 0.0
1.1562481440669332e7 2.3713451755844742e7 0.0
0.0 0.0 0.0

-442190.42666993383 1.5576588602926198e7 0.0
1.5576588602926198e7 -1.2741028167979214e7 0.0
0.0 0.0 0.0

-1.1834522750838953e6 1.9304274706264514e7 0.0
1.9304274706264514e7 -1.0098542415485613e7 0.0
0.0 0.0 0.0

-6.193785325689724e6 2.060029426075728e7 0.0
2.060029426075728e7 -1.16267564182745e7 0.0
0.0 0.0 0.0

-1.6484735907505015e6 2.627434813832213e7 0.0
2.627434813832213e7 -2.549532082761716e6 0.0
0.0 0.0 0.0

1.5598799468602147e6 1.2513743394976707e7 0.0
1.2513743394976707e7 -3.139172219296114e7 0.0
0.0 0.0 0.0

-1.9810419032242186e6 3.123839630602886e7 0.0
3.123839630602886e7 2.3481109059316e6 0.0
0.0 0.0 0.0

-7.939949688606725e6 1.5213858621552227e7 0.0
1.5213858621552227e7 1.5704674530143233e7 0.0
0.0 0.0 0.0

-8.752115261513948e6 2.509454028552366e7 0.0
2.509454028552366e7 -1.1089304061054146e7 0.0
0.0 0.0 0.0

55170.02635760431 1.8446592383605663e7 0.0
1.8446592383605663e7 -1.7944233838048277e6 0.0
0.0 0.0 0.0

-873267.3237956399 2.0005277984637666e7 0.0
2.0005277984637666e7 -1.870982190549914e7 0.0
0.0 0.0 0.0

-2.425248364040418e6 1.9795904730615146e7 0.0
1.9795904730615146e7 -1.1486673691701094e7 0.0
0.0 0.0 0.0

-3.3598786935641356e6 2.457828442604694e7 0.0
2.457828442604694e7 9.482218164804835e6 0.0
0.0 0.0 0.0

410193.299836155 1.9631848034253586e7 0.0
1.9631848034253586e7 -1.2684702589728521e7 0.0
0.0 0.0 0.0

-593248.7921972349 1.5152323084809754e7 0.0
1.5152323084809754e7 -1.1830258737421913e7 0.0
0.0 0.0 0.0

-594106.7594637433 1.8596735085463583e7 0.0
1.8596735085463583e7 -2.2733779491927695e7 0.0
0.0 0.0 0.0

-1.5611179825949506e6 1.2670848454622347e7 0.0
1.2670848454622347e7 -6.484234105520089e6 0.0
0.0 0.0 0.0

-2.626087473534095e6 2.3906648619881716e7 0.0
2.3906648619881716e7 2.0134885632963995e6 0.0
0.0 0.0 0.0

-1.511369463011323e6 2.5708052318888623e7 0.0
2.5708052318888623e7 -3.701858946121622e6 0.0
0.0 0.0 0.0

-1.8514927662735472e6 4.37851415003811e6 0.0
4.37851415003811e6 3.9046139295081273e6 0.0
0.0 0.0 0.0

334584.2696232917 1.1022692278348183e7 0.0
1.1022692278348183e7 -1.2008259176424611e7 0.0
0.0 0.0 0.0

-983794.0702010456 2.732097501079774e7 0.0
2.732097501079774e7 -736175.870674192 0.0
0.0 0.0 0.0

-3.2087503084392385e6 2.126812846864468e7 0.0
2.126812846864468e7 5.66322577297548e6 0.0
0.0 0.0 0.0

-9.264643243884571e7 9.316302246674402e6 0.0
9.316302246674402e6 1.316649885408368e6 0.0
0.0 0.0 0.0

447660.38638255745 1.6653100764235383e7 0.0
1.6653100764235383e7 -2.5719994713491816e7 0.0
0.0 0.0 0.0

-3.7342079302927908e6 1.996767138586331e7 0.0
1.996767138586331e7 8.775925668713316e6 0.0
0.0 0.0 0.0

-1.1427591210081626e6 2.3597118919266194e7 0.0
2.3597118919266194e7 -3.596760880301869e6 0.0
0.0 0.0 0.0

-3.471730939626698e6 2.102645505886997e7 0.0
2.102645505886997e7 8.41959367591328e6 0.0
0.0 0.0 0.0

-2.332283010066058e6 2.2036308665348206e7 0.0
2.2036308665348206e7 951470.2095938326 0.0
0.0 0.0 0.0

160378.41836976958 2.127869083102884e7 0.0
2.127869083102884e7 -1.0963957799724372e7 0.0
0.0 0.0 0.0

-6.505511480261895e6 1.6069429101686172e7 0.0
1.6069429101686172e7 1.3549672707132736e7 0.0
0.0 0.0 0.0

-1.0801127434591465e7 8.132188016678519e6 0.0
8.132188016678519e6 2.9097996372940432e7 0.0
0.0 0.0 0.0

-727354.0419807886 1.3349504921507755e7 0.0
1.3349504921507755e7 -5.230549092999714e6 0.0
0.0 0.0 0.0

2.7763722942970656e6 6.100530519418262e6 0.0
6.100530519418262e6 -1.1908971263370553e7 0.0
0.0 0.0 0.0

-1.8196428982341643e6 1.7201772639920466e7 0.0
1.7201772639920466e7 -7.618195125797489e6 0.0
0.0 0.0 0.0

-10427.272844097111 2.2014046224502113e7 0.0
2.2014046224502113e7 -1.2233828827535814e7 0.0
0.0 0.0 0.0

-3.4062332871500924e6 2.0219311348178014e7 0.0
2.0219311348178014e7 5.886328640511848e6 0.0
0.0 0.0 0.0

-2.582976783497369e6 1.5827364529635485e7 0.0
1.5827364529635485e7 -4.1610605716195186e6 0.0
0.0 0.0 0.0

-8.541660322041264e6 1.175643353344851e6 0.0
1.175643353344851e6 1.6043664582751356e7 0.0
0.0 0.0 0.0

2.149193364923029e6 5.990868382238634e6 0.0
5.990868382238634e6 -1.3994796286006533e7 0.0
0.0 0.0 0.0

-9.598938793620061e6 7.496635226223116e6 0.0
7.496635226223116e6 3.7587409459953964e7 0.0
0.0 0.0 0.0

-1.1516540217230564e7 3.9915058173794984e6 0.0
3.9915058173794984e6 2.138008257683009e7 0.0
0.0 0.0 0.0

-1.6118810534857921e6 2.0180011711988334e7 0.0
2.0180011711988334e7 2.4761030359349437e7 0.0
0.0 0.0 0.0

-1.2128012260732267e6 2.0271001420953657e7 0.0
2.0271001420953657e7 -9.658553837997152e6 0.0
0.0 0.0 0.0

178743.88052463206 1.0367705439266339e7 0.0
1.0367705439266339e7 -1.106430391426652e7 0.0
0.0 0.0 0.0

-9.070193252845595e6 7.186464472303138e6 0.0
7.186464472303138e6 4.045504855295386e7 0.0
0.0 0.0 0.0

-856303.9937988268 2.3880286172562037e7 0.0
2.3880286172562037e7 -4.508071027772337e6 0.0
0.0 0.0 0.0

-3.876196400173129e6 1.4877353358362013e7 0.0
1.4877353358362013e7 1.8477681247969104e6 0.0
0.0 0.0 0.0

-1.878462762448525e6 1.0580077837122316e7 0.0
1.0580077837122316e7 997439.3297889953 0.0
0.0 0.0 0.0

-1.9170349910244665e6 1.3882120280556064e7 0.0
1.3882120280556064e7 -6.093018878216829e6 0.0
0.0 0.0 0.0

-3.376056298089795e6 1.806259648166824e7 0.0
1.806259648166824e7 -2.9836699632142853e7 0.0
0.0 0.0 0.0

-2.558954753524756e6 2.1103724746425413e7 0.0
2.1103724746425413e7 7.878995804711762e6 0.0
0.0 0.0 0.0

939570.6594423577 2.047348802174311e7 0.0
2.047348802174311e7 -1.5762535161563598e7 0.0
0.0 0.0 0.0

1.5257566132683866e6 1.7651977176808693e7 0.0
1.7651977176808693e7 6.118064988104934e7 0.0
0.0 0.0 0.0

5.162224374154584e6 2.3600991861245885e7 0.0
2.3600991861245885e7 1.230671014611085e7 0.0
0.0 0.0 0.0

-1.0324835356922887e7 1.4151660286540894e7 0.0
1.4151660286540894e7 2.004766882806254e7 0.0
0.0 0.0 0.0

1.8862905613212194e6 1.3103483585115347e7 0.0
1.3103483585115347e7 -2.5831993994246885e7 0.0
0.0 0.0 0.0

-1.6039797536892402e6 1.6526588307405476e7 0.0
1.6526588307405476e7 -3.0814090013438175e6 0.0
0.0 0.0 0.0

1.6354520679693855e6 2.3358193490138605e7 0.0
2.3358193490138605e7 -1.1513528190367943e7 0.0
0.0 0.0 0.0

-2.3495585365000563e6 2.6567486279142797e7 0.0
2.6567486279142797e7 4.765893904053229e6 0.0
0.0 0.0 0.0

-1.4013619144939235e6 2.5079496016686022e7 0.0
2.5079496016686022e7 -4.699839636619473e6 0.0
0.0 0.0 0.0

-403980.64729334787 2.0427931272848513e7 0.0
2.0427931272848513e7 -1.7221183820000138e7 0.0
0.0 0.0 0.0

-1.4259343209921604e6 1.5331601716269597e7 0.0
1.5331601716269597e7 -3.367391241275049e6 0.0
0.0 0.0 0.0

-3.2236387099143756e6 2.166612005741331e7 0.0
2.166612005741331e7 6.908794962614221e6 0.0
0.0 0.0 0.0

-1.2075648054977445e7 7.731466416780869e6 0.0
7.731466416780869e6 1.948233204075479e7 0.0
0.0 0.0 0.0

2.4008989065955905e6 5.828216176450728e6 0.0
5.828216176450728e6 -1.6206101366808787e7 0.0
0.0 0.0 0.0

-1.1685109638246936e6 1.7456534570505477e7 0.0
1.7456534570505477e7 -5.469831996876222e6 0.0
0.0 0.0 0.0

2.568400779169983e6 9.767665936277678e6 0.0
9.767665936277678e6 -1.955956882332626e7 0.0
0.0 0.0 0.0

-2.262219837553976e6 2.1218107653703257e7 0.0
2.1218107653703257e7 2.904051548480554e6 0.0
0.0 0.0 0.0

-1.049827346536204e6 9.886621632528655e6 0.0
9.886621632528655e6 -858618.90324385 0.0
0.0 0.0 0.0

82846.61404996272 2.926456074185279e7 0.0
2.926456074185279e7 -3.6900059759588903e6 0.0
0.0 0.0 0.0

-6.1240933852779835e7 4.984244637257778e6 0.0
4.984244637257778e6 5.19480095671038e6 0.0
0.0 0.0 0.0

-335270.55352778675 9.151824192075675e6 0.0
9.151824192075675e6 -2.541567036957397e6 0.0
0.0 0.0 0.0

-3.9345213038708093e6 1.7035691314773116e7 0.0
1.7035691314773116e7 -3.67290027028497e7 0.0
0.0 0.0 0.0

1.3216634986232924e6 2.238072139121979e7 0.0
2.238072139121979e7 -1.008915292282585e7 0.0
0.0 0.0 0.0

770487.4032809511 1.4013666423019819e7 0.0
1.4013666423019819e7 -1.2455312078549404e7 0.0
0.0 0.0 0.0

774536.3857144369 1.8713336053612217e7 0.0
1.8713336053612217e7 -1.9827413631388474e7 0.0
0.0 0.0 0.0

337548.2454643068 8.500726586172331e6 0.0
8.500726586172331e6 -4.057501516365753e6 0.0
0.0 0.0 0.0

2.999163135186053e6 8.09271620409964e6 0.0
8.09271620409964e6 -2.2009009909978285e7 0.0
0.0 0.0 0.0

-1.7849050208786614e6 2.6831671006042928e7 0.0
2.6831671006042928e7 -1.5069268684800232e6 0.0
0.0 0.0 0.0

-40062.44420431252 6.153952518389144e6 0.0
6.153952518389144e6 -5.256874794465418e6 0.0
0.0 0.0 0.0

800794.7078005644 1.0867840230308147e7 0.0
1.0867840230308147e7 -1.4247320947185637e7 0.0
0.0 0.0 0.0

344571.20549028064 3.0590909018930584e7 0.0
3.0590909018930584e7 -2.7245896880750926e6 0.0
0.0 0.0 0.0

4.0153247535702502e6 2.2038512631315332e7 0.0
2.2038512631315332e7 966123.5167418733 0.0
0.0 0.0 0.0

1.8567288208155218e6 2.5101498625038423e7 0.0
2.5101498625038423e7 -9.058443421982659e6 0.0
0.0 0.0 0.0

968604.1142679043 8.458494056469664e6 0.0
8.458494056469664e6 -6.039762410194994e7 0.0
0.0 0.0 0.0

-7.128282958190452e6 1.784288140946093e7 0.0
1.784288140946093e7 2.9096702479737576e7 0.0
0.0 0.0 0.0

-1.6234161408337308e6 2.590792531478896e7 0.0
2.590792531478896e7 889368.806426625 0.0
0.0 0.0 0.0

2.4744563292908054e6 9.412612011801323e6 0.0
9.412612011801323e6 -1.6627519315594856e7 0.0
0.0 0.0 0.0

874844.9060588554 7.747412849696458e6 0.0
7.747412849696458e6 -5.454455989036073e6 0.0
0.0 0.0 0.0

66041.70678480621 9.725395538249547e6 0.0
9.725395538249547e6 -1.0057514290443389e7 0.0
0.0 0.0 0.0

-3.4539063710324094e6 3.0149594595450882e7 0.0
3.0149594595450882e7 4.856213167492007e6 0.0
0.0 0.0 0.0

-9.964851366847092e6 1.5644040290152112e6 0.0
1.5644040290152112e6 2.2993294278526273e7 0.0
0.0 0.0 0.0

-9.283911984214384e6 1.6263671313810231e7 0.0
1.6263671313810231e7 2.6601979426565304e7 0.0
0.0 0.0 0.0

-896649.2569433005 2.535172901624812e7 0.0
2.535172901624812e7 -3.1228201271532797e6 0.0
0.0 0.0 0.0

986212.5540866172 1.5851848025415067e7 0.0
1.5851848025415067e7 -1.5917979514991518e7 0.0
0.0 0.0 0.0

-2.5570124909639433e6 2.150741431655896e7 0.0
2.150741431655896e7 2.0510979932891257e7 0.0
0.0 0.0 0.0

-2.650846998479565e6 1.7010904310044378e7 0.0
1.7010904310044378e7 -3.8650786184461433e6 0.0
0.0 0.0 0.0

401340.2727546822 1.6694969630400334e7 0.0
1.6694969630400334e7 -1.2538032873076187e7 0.0
0.0 0.0 0.0

-1.4738761263436582e6 1.6393716298408838e7 0.0
1.6393716298408838e7 -3.0978520211827233e7 0.0
0.0 0.0 0.0

2.735577953122881e6 2.651742595648897e7 0.0
2.651742595648897e7 -7.632754740880942e6 0.0
0.0 0.0 0.0

-2.0813509030887187e6 1.4342103158575619e7 0.0
1.4342103158575619e7 -4.378472608469191e7 0.0
0.0 0.0 0.0

-1.191581708215901e7 6.492776755354517e6 0.0
6.492776755354517e6 1.8501748452863146e7 0.0
0.0 0.0 0.0

5.552504904947973e6 2.1471833223842654e7 0.0
2.1471833223842654e7 2.4370246938911777e7 0.0
0.0 0.0 0.0

-4.028510400825334e6 2.9052994379461147e7 0.0
2.9052994379461147e7 5.252713186528281e6 0.0
0.0 0.0 0.0

-2.4055245291378964e6 1.746566874129714e7 0.0
1.746566874129714e7 -5.053523890165108e6 0.0
0.0 0.0 0.0

4.3818680781989815e6 2.334057278120144e7 0.0
2.334057278120144e7 -6.041719853654489e6 0.0
0.0 0.0 0.0

-706426.5625361948 2.4782063179783154e7 0.0
2.4782063179783154e7 -4.225369865791478e6 0.0
0.0 0.0 0.0

-6.68264220544318e6 8.828236795866223e6 0.0
8.828236795866223e6 7.013268497164564e6 0.0
0.0 0.0 0.0

11020.701469752006 2.0858458574293654e7 0.0
2.0858458574293654e7 -1.5832552938549375e7 0.0
0.0 0.0 0.0

1.5983211899492992e6 1.5062294620482773e7 0.0
1.5062294620482773e7 -2.18035801095545e7 0.0
0.0 0.0 0.0

1.425520474214171e6 1.5677702555959454e7 0.0
1.5677702555959454e7 -2.0404890176384285e7 0.0
0.0 0.0 0.0

-1.0019706258141045e6 1.5828644201945174e7 0.0
1.5828644201945174e7 -1.0453905352619408e7 0.0
0.0 0.0 0.0

1.5988456745762086e7 2.770375691264219e7 0.0
2.770375691264219e7 -4.679187315759709e6 0.0
0.0 0.0 0.0

1.470598110375979e6 1.1628182600113086e7 0.0
1.1628182600113086e7 -1.3057766233519517e7 0.0
0.0 0.0 0.0

2.4542234689647024e6 5.273018990980346e6 0.0
5.273018990980346e6 -1.5306402239742845e7 0.0
0.0 0.0 0.0

1.717798387356636e6 1.4392535183691124e7 0.0
1.4392535183691124e7 -2.3088800686149057e7 0.0
0.0 0.0 0.0

1.4082244330138452e6 6.812931660466793e6 0.0
6.812931660466793e6 -4.542763576115426e7 0.0
0.0 0.0 0.0

-8.926029626728218e6 7.976840252011949e6 0.0
7.976840252011949e6 1.0771404659254903e7 0.0
0.0 0.0 0.0

-2.8148607443021773e6 2.3323039771905094e7 0.0
2.3323039771905094e7 2.966451050127116e6 0.0
0.0 0.0 0.0

3.248111039075719e6 4.733489129442698e6 0.0
4.733489129442698e6 -2.615937311700362e7 0.0
0.0 0.0 0.0

1.7242490726853004e6 6.777122200311312e6 0.0
6.777122200311312e6 -1.298180820591498e7 0.0
0.0 0.0 0.0

-368742.30557765765 1.6075644294004643e7 0.0
1.6075644294004643e7 -8.366156059500179e6 0.0
0.0 0.0 0.0

-6.584636361713326e6 1.4853093571642188e7 0.0
1.4853093571642188e7 3.9920593193099156e7 0.0
0.0 0.0 0.0

-3.9152355673613604e6 2.298511948855067e7 0.0
2.298511948855067e7 1.4831307184140628e7 0.0
0.0 0.0 0.0

-5.611985465243075e6 1.0163628794279797e7 0.0
1.0163628794279797e7 5.2041222780372e6 0.0
0.0 0.0 0.0

-5.568442055684249e6 2.0656811037925426e7 0.0
2.0656811037925426e7 2.1552075827786304e7 0.0
0.0 0.0 0.0

3.3353837009195015e6 6.35162945847939e6 0.0
6.35162945847939e6 -1.9306082820586704e7 0.0
0.0 0.0 0.0

1.7284381173117142e6 1.3753914306423869e7 0.0
1.3753914306423869e7 -2.460304002845936e7 0.0
0.0 0.0 0.0

-941896.9976625559 6.423781090671702e7 0.0
6.423781090671702e7 5.623134909528352e6 0.0
0.0 0.0 0.0

-5.245698494131582e6 1.402231993354622e7 0.0
1.402231993354622e7 6.9945998358252775e6 0.0
0.0 0.0 0.0

-1.1502520873510936e7 4.886873625056798e6 0.0
4.886873625056798e6 1.7641695508203674e7 0.0
0.0 0.0 0.0

331222.8217491107 1.9657213858019814e7 0.0
1.9657213858019814e7 -1.7042078006326295e7 0.0
0.0 0.0 0.0

1.3040194356268058e6 1.6324561291035803e7 0.0
1.6324561291035803e7 -1.9156396850888792e7 0.0
0.0 0.0 0.0

-68064.04604753759 3.088851311012118e6 0.0
3.088851311012118e6 3.618489203105315e6 0.0
0.0 0.0 0.0

-3.023391763347699e6 1.652931680248082e6 0.0
1.652931680248082e6 6.535923744942081e6 0.0
0.0 0.0 0.0

-4.526697848526901e6 3.049382038584729e7 0.0
3.049382038584729e7 4.334378055687351e6 0.0
0.0 0.0 0.0

-3.6812308852319107e6 1.9569490509280756e7 0.0
1.9569490509280756e7 7.424347575008305e6 0.0
0.0 0.0 0.0

-3.145005510956699e6 3.028548807265116e7 0.0
3.028548807265116e7 2.4608144174013566e6 0.0
0.0 0.0 0.0

2.681265407012836e6 9.579112512185676e6 0.0
9.579112512185676e6 -2.1614018553571746e7 0.0
0.0 0.0 0.0

-3.065045924773354e6 2.2261774703909643e7 0.0
2.2261774703909643e7 5.497240470354331e6 0.0
0.0 0.0 0.0

-1.0159532588402208e7 4.766865130768904e6 0.0
4.766865130768904e6 3.2011353829809494e7 0.0
0.0 0.0 0.0

-7.509879008000448e7 6.5545164062046185e6 0.0
6.5545164062046185e6 4.316958749976799e6 0.0
0.0 0.0 0.0

-2.761166673789717e6 2.4285199076238092e7 0.0
2.4285199076238092e7 3.0096396540193534e6 0.0
0.0 0.0 0.0

-5.056363381674455e6 2.1161292472519003e7 0.0
2.1161292472519003e7 1.9936069339319855e7 0.0
0.0 0.0 0.0

978919.3533329009 2.672716973536768e7 0.0
2.672716973536768e7 -7.164350740746733e6 0.0
0.0 0.0 0.0

1.8195911628891234e6 6.1225663109310735e6 0.0
6.1225663109310735e6 -1.1729323987192506e7 0.0
0.0 0.0 0.0

-4.989748983757742e6 1.5899252016949818e7 0.0
1.5899252016949818e7 8.44648020568167e6 0.0
0.0 0.0 0.0

-1.5005856545170037e7 2.6034062265557125e7 0.0
2.6034062265557125e7 -8.903838975793675e6 0.0
0.0 0.0 0.0

-7.437919227191066e6 2.422833659421371e7 0.0
2.422833659421371e7 -9.281421491589535e6 0.0
0.0 0.0 0.0

2.969035921739503e6 7.405229504268813e6 0.0
7.405229504268813e6 -1.5900247347214958e7 0.0
0.0 0.0 0.0

-4.637732238911581e6 2.1730860833540387e7 0.0
2.1730860833540387e7 1.825364554595739e7 0.0
0.0 0.0 0.0

-352229.0356378155 1.892607316951509e7 0.0
1.892607316951509e7 -9.50964269113358e6 0.0
0.0 0.0 0.0

1.3912229485308174e6 4.945225489734713e6 0.0
4.945225489734713e6 -4.981796521631424e7 0.0
0.0 0.0 0.0

-8.441341681191413e6 2.0466170562831452e6 0.0
2.0466170562831452e6 4.633165869092114e7 0.0
0.0 0.0 0.0

2.1727555498297317e6 1.0174502090594608e7 0.0
1.0174502090594608e7 -1.5440271062403178e7 0.0
0.0 0.0 0.0

2.8851818325616904e6 7.33025652158586e6 0.0
7.33025652158586e6 -3.168722206050161e7 0.0
0.0 0.0 0.0

-517782.10785730975 2.0912921833071467e7 0.0
2.0912921833071467e7 -7.8827784232546855e6 0.0
0.0 0.0 0.0

-39529.31071916409 1.2212185713679703e7 0.0
1.2212185713679703e7 -4.155644380679101e7 0.0
0.0 0.0 0.0

2.088039721913006e6 3.289120736659722e7 0.0
3.289120736659722e7 -3.2615989190610955e6 0.0
0.0 0.0 0.0

-3.1526361085727103e6 1.7914071486927506e7 0.0
1.7914071486927506e7 3.837363569430627e7 0.0
0.0 0.0 0.0

-8.935964085252868e6 1.9336057454131334e6 0.0
1.9336057454131334e6 4.272878621356968e7 0.0
0.0 0.0 0.0

-417211.5867898506 1.992177365487821e7 0.0
1.992177365487821e7 -9.103096889474241e6 0.0
0.0 0.0 0.0

1.746737395399129e6 8.1263109862423595e6 0.0
8.1263109862423595e6 -3.837936793070655e7 0.0
0.0 0.0 0.0

-2.14648824721991e6 2.0082757158724666e7 0.0
2.0082757158724666e7 206754.12974708842 0.0
0.0 0.0 0.0

-2.9119675503466213e6 2.2367030289055884e7 0.0
2.2367030289055884e7 2.949759839494819e6 0.0
0.0 0.0 0.0

-1.1131745801719604e7 7.092710301631824e6 0.0
7.092710301631824e6 2.493851709448476e7 0.0
0.0 0.0 0.0

3.503144785940547e6 2.6961221484231688e7 0.0
2.6961221484231688e7 -7.244830625310993e6 0.0
0.0 0.0 0.0

878715.1805636771 2.1391929555699192e7 0.0
2.1391929555699192e7 -4.0235690783936237e6 0.0
0.0 0.0 0.0

-984934.7539745732 2.5953167892711252e7 0.0
2.5953167892711252e7 -2.031878508580878e6 0.0
0.0 0.0 0.0

2.2055903015483357e6 2.8080054173295894e6 0.0
2.8080054173295894e6 -4.726266153195012e7 0.0
0.0 0.0 0.0

-2.9455259717482673e6 2.2821208523339946e7 0.0
2.2821208523339946e7 4.1516952407186506e6 0.0
0.0 0.0 0.0

814634.4306931663 1.4471099871242294e7 0.0
1.4471099871242294e7 -1.3353240870763509e7 0.0
0.0 0.0 0.0

-4.1141029720836207e6 1.2043789271760438e7 0.0
1.2043789271760438e7 1.7107138673038525e6 0.0
0.0 0.0 0.0

-973923.597143114 1.4646447306240227e7 0.0
1.4646447306240227e7 -4.931356998828193e6 0.0
0.0 0.0 0.0

-9.09437770715727e6 5.3544600974279875e6 0.0
5.3544600974279875e6 1.0620806270028926e7 0.0
0.0 0.0 0.0

1.237915920838798e6 2.0439450637781646e7 0.0
2.0439450637781646e7 -5.234098383307555e6 0.0
0.0 0.0 0.0

-9.816735171411693e6 9.11788289332388e6 0.0
9.11788289332388e6 3.562350531110825e7 0.0
0.0 0.0 0.0

289922.8672037618 1.6283961640190503e7 0.0
1.6283961640190503e7 -1.1668662203201095e7 0.0
0.0 0.0 0.0

-5.550451948480852e6 5.965819687668038e6 0.0
5.965819687668038e6 4.51059537006571e6 0.0
0.0 0.0 0.0

-5.095440519729646e6 3.118854961338442e7 0.0
3.118854961338442e7 4.399245421142164e6 0.0
0.0 0.0 0.0

47238.4857291854 2.4654970320122484e7 0.0
2.4654970320122484e7 -6.579411791999876e6 0.0
0.0 0.0 0.0

891474.7945969915 1.7180864167293467e7 0.0
1.7180864167293467e7 -2.2589712156560794e7 0.0
0.0 0.0 0.0

1.8300973188496912e6 1.0901480409502637e7 0.0
1.0901480409502637e7 -1.4267895248560155e7 0.0
0.0 0.0 0.0

-2.0763783154697241e6 2.4726214066908717e7 0.0
2.4726214066908717e7 3.6742841753324224e6 0.0
0.0 0.0 0.0

-5.238326819636776e6 2.0527237607428942e7 0.0
2.0527237607428942e7 2.310567646165871e7 0.0
0.0 0.0 0.0

6.492946781444535e6 2.0574078577817213e7 0.0
2.0574078577817213e7 1.1856966942127995e7 0.0
0.0 0.0 0.0

1.2466458151139393e6 8.420505084079763e6 0.0
8.420505084079763e6 -4.127147857047814e7 0.0
0.0 0.0 0.0

-2.451721820535618e6 2.209502823656108e7 0.0
2.209502823656108e7 7.573026589915287e6 0.0
0.0 0.0 0.0

-2.249229668553848e6 2.3293587517872244e7 0.0
2.3293587517872244e7 4.865730091261883e6 0.0
0.0 0.0 0.0

-1.1378676407948531e7 1.1734729872446826e7 0.0
1.1734729872446826e7 1.914319732679752e7 0.0
0.0 0.0 0.0

2.7352250671596103e6 3.3666198988750726e7 0.0
3.3666198988750726e7 -3.278947167678794e6 0.0
0.0 0.0 0.0

315341.905909603 1.4243786835594064e7 0.0
1.4243786835594064e7 -1.014137834127107e7 0.0
0.0 0.0 0.0

-7.805869427184421e6 1.789237368441693e7 0.0
1.789237368441693e7 2.0798405605346736e7 0.0
0.0 0.0 0.0

1.8756786729032397e6 1.0329942202141253e7 0.0
1.0329942202141253e7 -1.3356646129646122e7 0.0
0.0 0.0 0.0

-3.8009068856971506e6 9.256865073480751e6 0.0
9.256865073480751e6 6.690723829313543e6 0.0
0.0 0.0 0.0

-1.936674002718003e6 2.512342191049228e7 0.0
2.512342191049228e7 2.6288704031076836e6 0.0
0.0 0.0 0.0

-1.9525492007458596e6 2.6021040621894605e7 0.0
2.6021040621894605e7 2.6658591287774155e6 0.0
0.0 0.0 0.0

178611.83297101827 1.5853807358974513e7 0.0
1.5853807358974513e7 -1.0738965518157454e7 0.0
0.0 0.0 0.0

2.2675298414646224e6 2.212933267985756e7 0.0
2.212933267985756e7 -5.139685005240774e6 0.0
0.0 0.0 0.0

1.3521410258186307e7 2.8780247610660892e7 0.0
2.8780247610660892e7 -5.377109137259655e6 0.0
0.0 0.0 0.0

-5.66418859790034e6 2.4299946395644456e7 0.0
2.4299946395644456e7 8.243009331575794e6 0.0
0.0 0.0 0.0

-9.76637701997213e6 1.7313753275136936e7 0.0
1.7313753275136936e7 -4.1799988528781325e7 0.0
0.0 0.0 0.0

1.0520465827949885e6 1.1792001968623234e7 0.0
1.1792001968623234e7 -1.0809835516453804e7 0.0
0.0 0.0 0.0

-1.0387300630788006e7 5.2850431704085255e6 0.0
5.2850431704085255e6 2.9633870785094008e7 0.0
0.0 0.0 0.0

-2.9868582394549777e6 2.227553817574824e7 0.0
2.227553817574824e7 -1.707268632703538e6 0.0
0.0 0.0 0.0

-6.260715605402977e6 2.2956749487602048e7 0.0
2.2956749487602048e7 -1.1691492825109675e6 0.0
0.0 0.0 0.0

-2.3630684546703496e6 2.2671027140644446e7 0.0
2.2671027140644446e7 6.120729936955534e6 0.0
0.0 0.0 0.0

-9.676465797267608e6 3.05763520845203e6 0.0
3.05763520845203e6 3.3418919185490612e7 0.0
0.0 0.0 0.0

-5.891883035705798e6 3.187323547304668e7 0.0
3.187323547304668e7 4.480880864431487e6 0.0
0.0 0.0 0.0

-2.591119576468071e6 2.4733440642047495e7 0.0
2.4733440642047495e7 1.9546118496195576e6 0.0
0.0 0.0 0.0

2.4118600524068074e6 2.068472035161436e7 0.0
2.068472035161436e7 877183.8277748887 0.0
0.0 0.0 0.0

3.6093726777066966e6 1.7695738395693142e7 0.0
1.7695738395693142e7 1.2031242484483175e7 0.0
0.0 0.0 0.0

-2.5943805626963913e6 2.1446476398529083e7 0.0
2.1446476398529083e7 9.071616769055696e6 0.0
0.0 0.0 0.0

-5.109324569327471e6 1.927002018654239e7 0.0
1.927002018654239e7 1.4824624689775232e7 0.0
0.0 0.0 0.0

3.01066925131307e6 6.728512616730496e6 0.0
6.728512616730496e6 -1.4914869930056335e7 0.0
0.0 0.0 0.0

-673951.147398612 2.6223177084726453e7 0.0
2.6223177084726453e7 -2.9013907148267534e6 0.0
0.0 0.0 0.0

-8.419610735064065e6 1.6063110047735535e7 0.0
1.6063110047735535e7 2.2729045297950782e7 0.0
0.0 0.0 0.0

2.8916207058574213e6 4.393603326338112e6 0.0
4.393603326338112e6 -2.3985922394584272e7 0.0
0.0 0.0 0.0

-1.5635265902014875e6 2.4231375080712106e7 0.0
2.4231375080712106e7 -5.077989397946741e6 0.0
0.0 0.0 0.0

-2.2841513247978976e6 2.2297724295152213e7 0.0
2.2297724295152213e7 5.048594949866215e6 0.0
0.0 0.0 0.0

-4.227658283829167e6 5.325963539859479e6 0.0
5.325963539859479e6 2.4043202349614333e6 0.0
0.0 0.0 0.0

1.2032856596226608e6 1.1748454476911493e7 0.0
1.1748454476911493e7 -1.798549061398855e7 0.0
0.0 0.0 0.0

1.358315088347977e6 5.647542067615257e7 0.0
5.647542067615257e7 4.0942970594782955e6 0.0
0.0 0.0 0.0

227557.6472255066 7.57020921316882e6 0.0
7.57020921316882e6 -7.124653673175077e7 0.0
0.0 0.0 0.0

2.7356690265705846e6 5.573801328100065e6 0.0
5.573801328100065e6 -2.8091956107151635e7 0.0
0.0 0.0 0.0

1.8607797478089621e6 1.3283301105179003e7 0.0
1.3283301105179003e7 -2.0237519813440885e7 0.0
0.0 0.0 0.0

-5.40649483433293e6 2.372917350481092e7 0.0
2.372917350481092e7 6.110279123779016e6 0.0
0.0 0.0 0.0

336660.18336991593 1.5701818478342569e7 0.0
1.5701818478342569e7 -2.7441261467840992e7 0.0
0.0 0.0 0.0

1.0077031344875032e6 1.1220546230753556e7 0.0
1.1220546230753556e7 -9.815871427218134e6 0.0
0.0 0.0 0.0

-3.5110580333659523e6 1.1288167388497617e7 0.0
1.1288167388497617e7 -135723.46109341516 0.0
0.0 0.0 0.0

3.9476190328199095e6 1.9715960249017596e7 0.0
1.9715960249017596e7 2.068632102567417e7 0.0
0.0 0.0 0.0

-3.4607253749097884e6 1.8166025668210626e7 0.0
1.8166025668210626e7 3.5939513933024526e7 0.0
0.0 0.0 0.0

1.3117227909915172e7 1.525957073655441e7 0.0
1.525957073655441e7 6.617457413918301e6 0.0
0.0 0.0 0.0

-5.243455422161438e6 3.535575207828934e7 0.0
3.535575207828934e7 2.40896487701804e6 0.0
0.0 0.0 0.0

-1.4266497340648358e6 1.6506329211231392e7 0.0
1.6506329211231392e7 -9.048052968196275e6 0.0
0.0 0.0 0.0

-3.1570180713932715e7 2.722219529524641e7 0.0
2.722219529524641e7 -1.9555097253945759e6 0.0
0.0 0.0 0.0

-210834.86080419272 1.7968755314097207e7 0.0
1.7968755314097207e7 -9.918770268636873e6 0.0
0.0 0.0 0.0

-2.2689273418484963e6 2.2899246054640573e7 0.0
2.2899246054640573e7 3.753612645588105e6 0.0
0.0 0.0 0.0

-282148.53418495227 1.4440563256955411e7 0.0
1.4440563256955411e7 -7.589414351276448e6 0.0
0.0 0.0 0.0

-1.7723042429750348e6 1.728525824900047e7 0.0
1.728525824900047e7 -2.822271961526161e7 0.0
0.0 0.0 0.0

2.83800107227532e6 5.290488891549515e6 0.0
5.290488891549515e6 -2.276985089595166e7 0.0
0.0 0.0 0.0

1.1772963703937344e6 1.1333552047036145e7 0.0
1.1333552047036145e7 -3.745327585101681e7 0.0
0.0 0.0 0.0

-608081.5621051546 2.1282833217240535e7 0.0
2.1282833217240535e7 1.8551070338680364e7 0.0
0.0 0.0 0.0

2.9093510485153496e6 7.687632384487802e6 0.0
7.687632384487802e6 -2.6125587230407856e7 0.0
0.0 0.0 0.0

-1.2269649807570311e6 2.442184844574705e7 0.0
2.442184844574705e7 -5.834185387246654e6 0.0
0.0 0.0 0.0

-350204.14785344945 2.0895093571393896e7 0.0
2.0895093571393896e7 -1.2414680413244091e7 0.0
0.0 0.0 0.0

-2.4281680830095587e6 1.4593054073896779e7 0.0
1.4593054073896779e7 -4.499883178600397e6 0.0
0.0 0.0 0.0

-3.8293282324194564e6 1.6794641044400986e7 0.0
1.6794641044400986e7 3.45581940760105e6 0.0
0.0 0.0 0.0

-7.437724898528451e6 1.8457932877518322e7 0.0
1.8457932877518322e7 2.158995803799617e7 0.0
0.0 0.0 0.0

2.338685140458309e6 1.0521156094294788e7 0.0
1.0521156094294788e7 -1.8368103234472945e7 0.0
0.0 0.0 0.0

-6.402200658125345e6 3.806045835182273e7 0.0
3.806045835182273e7 2.510537086791204e6 0.0
0.0 0.0 0.0

-6.911510180722848e6 3.2432530490188073e7 0.0
3.2432530490188073e7 4.712714163735196e6 0.0
0.0 0.0 0.0

-6.8533356160363015e6 1.9397801378632046e7 0.0
1.9397801378632046e7 2.24245879995303e7 0.0
0.0 0.0 0.0

-1.7624509352940386e6 1.7497208541297507e7 0.0
1.7497208541297507e7 -5.874836076577024e6 0.0
0.0 0.0 0.0

1.1633359316926012e6 1.694916412214744e7 0.0
1.694916412214744e7 -1.7821584258393325e7 0.0
0.0 0.0 0.0

3.100615896053085e6 7.437920272195082e6 0.0
7.437920272195082e6 -2.339865221223003e7 0.0
0.0 0.0 0.0

-4.0754825940704904e6 2.5233344781842873e7 0.0
2.5233344781842873e7 1.080726544948929e7 0.0
0.0 0.0 0.0

-1.1939369994258538e7 1.062164748772615e7 0.0
1.062164748772615e7 2.2748921437556576e7 0.0
0.0 0.0 0.0

5.238376036575455e6 2.9370750187601123e7 0.0
2.9370750187601123e7 -5.619423699804448e6 0.0
0.0 0.0 0.0

-7.066020042865355e6 2.706019053102334e6 0.0
2.706019053102334e6 5.721611504828436e7 0.0
0.0 0.0 0.0

-1.4740482583882348e6 2.099554558881319e7 0.0
2.099554558881319e7 -8.33439740299138e6 0.0
0.0 0.0 0.0

-9.133339967280963e6 -1.582449922455034e6 0.0
-1.582449922455034e6 3.0005201721235927e7 0.0
0.0 0.0 0.0

-9.348323402599141e6 4.202928697779361e6 0.0
4.202928697779361e6 1.655017358475133e7 0.0
0.0 0.0 0.0

3.0518866216543326e6 5.987857739405443e6 0.0
5.987857739405443e6 -1.411159641853801e7 0.0
0.0 0.0 0.0

-7.638413474995516e6 1.498906142092441e7 0.0
1.498906142092441e7 3.637285788778768e7 0.0
0.0 0.0 0.0

1.8824532375042923e6 1.1765166190891296e7 0.0
1.1765166190891296e7 -3.093492998949358e7 0.0
0.0 0.0 0.0

-1.017517582392254e6 2.451223979101347e7 0.0
2.451223979101347e7 -3.3236006810708796e6 0.0
0.0 0.0 0.0

-2.221866295147959e6 2.4196952122559845e7 0.0
2.4196952122559845e7 4.83456120336944e6 0.0
0.0 0.0 0.0

-1.7205236521431275e6 1.7691294534368016e7 0.0
1.7691294534368016e7 -2.8165133476320035e6 0.0
0.0 0.0 0.0

-2.4327104481353266e6 2.4546985830698214e7 0.0
2.4546985830698214e7 7.169749543629352e6 0.0
0.0 0.0 0.0

897767.3552538003 6.167553587562574e6 0.0
6.167553587562574e6 -7.872056872323399e6 0.0
0.0 0.0 0.0

-2.381633307944232e6 2.0716319605070725e7 0.0
2.0716319605070725e7 -4.084659400577362e6 0.0
0.0 0.0 0.0

1.1434824892700536e7 2.950024405918433e7 0.0
2.950024405918433e7 -5.552316633851971e6 0.0
0.0 0.0 0.0

808638.5984469759 1.045531661179877e7 0.0
1.045531661179877e7 -8.986420996627035e6 0.0
0.0 0.0 0.0

-200576.82831309736 1.6520112620257773e7 0.0
1.6520112620257773e7 -9.382184440717183e6 0.0
0.0 0.0 0.0

-6.363018755944149e6 2.360222655523688e7 0.0
2.360222655523688e7 -6.992086561658864e6 0.0
0.0 0.0 0.0

-1.9409092477827417e6 1.7213980655262288e7 0.0
1.7213980655262288e7 -1.5464988088828453e6 0.0
0.0 0.0 0.0

1.2606060751601072e7 2.447028124563768e7 0.0
2.447028124563768e7 -1.713649978312673e6 0.0
0.0 0.0 0.0

-2.933421564284637e6 4.606675613727304e6 0.0
4.606675613727304e6 198958.81310693128 0.0
0.0 0.0 0.0

2.5238249705904666e6 4.80071442126672e6 0.0
4.80071442126672e6 -3.408750293121747e7 0.0
0.0 0.0 0.0

-3.956198616165825e6 3.0390196427805442e6 0.0
3.0390196427805442e6 8.170566882078285e6 0.0
0.0 0.0 0.0

-2.7501067782453485e6 1.0552467997123636e7 0.0
1.0552467997123636e7 -1.9089379860584172e6 0.0
0.0 0.0 0.0

-2.160930554906713e6 1.7897493173081122e7 0.0
1.7897493173081122e7 -6.17783660346419e6 0.0
0.0 0.0 0.0

-9.059589482524961e6 5.753638922306523e6 0.0
5.753638922306523e6 1.600766290053992e7 0.0
0.0 0.0 0.0

2.460197896167085e6 6.915307357480512e6 0.0
6.915307357480512e6 -1.056923281390181e7 0.0
0.0 0.0 0.0

480159.14406828955 2.138432489121535e7 0.0
2.138432489121535e7 -1.4499898721756883e7 0.0
0.0 0.0 0.0

-1.904944884402258e6 9.869970712471098e6 0.0
9.869970712471098e6 -3.7099511160704982e6 0.0
0.0 0.0 0.0

631995.1920281831 5.078720831585394e7 0.0
5.078720831585394e7 2.470022864376343e6 0.0
0.0 0.0 0.0

1.3627708698106393e7 2.3717165854475074e7 0.0
2.3717165854475074e7 1.2136344407431044e7 0.0
0.0 0.0 0.0

-1.102916792259136e6 9.146653226391988e6 0.0
9.146653226391988e6 -5.102113576370301e6 0.0
0.0 0.0 0.0

-5.428899948855214e6 1.5192633085717272e7 0.0
1.5192633085717272e7 1.5086733315320924e7 0.0
0.0 0.0 0.0

1.7575043406846481e6 4.377600411403407e6 0.0
4.377600411403407e6 -6.756505627760824e6 0.0
0.0 0.0 0.0

-1.0274281462619621e7 9.663859575927297e6 0.0
9.663859575927297e6 3.3153120951070093e7 0.0
0.0 0.0 0.0

-406108.0375597859 8.400431105812127e6 0.0
8.400431105812127e6 -6.511942829989887e6 0.0
0.0 0.0 0.0

-8.49657003168049e6 3.783324790362598e7 0.0
3.783324790362598e7 4.579011617375632e6 0.0
0.0 0.0 0.0

6.459621699380927e6 2.9674892070370864e7 0.0
2.9674892070370864e7 -5.5407969479801925e6 0.0
0.0 0.0 0.0

3.249902222905811e6 6.616731144820455e6 0.0
6.616731144820455e6 -2.4615976906550404e7 0.0
0.0 0.0 0.0

-499308.58614033554 2.14898396834804e7 0.0
2.14898396834804e7 -1.113198862902699e7 0.0
0.0 0.0 0.0

2.0027884729420878e6 7.758718968704954e6 0.0
7.758718968704954e6 -3.479151002887599e7 0.0
0.0 0.0 0.0

-2.447297518343449e6 1.858665565536966e7 0.0
1.858665565536966e7 -4.733030002554462e6 0.0
0.0 0.0 0.0

3.1422093288706336e6 2.1359964589799084e7 0.0
2.1359964589799084e7 1.3205270840117486e7 0.0
0.0 0.0 0.0

9.487595304048661e6 2.9813502835259333e7 0.0
2.9813502835259333e7 -5.534367898848761e6 0.0
0.0 0.0 0.0

769163.0177802402 9.96616422913524e6 0.0
9.96616422913524e6 -7.801801781704784e6 0.0
0.0 0.0 0.0

2.300380872885675e6 8.942200039391065e6 0.0
8.942200039391065e6 -1.3612025577652453e7 0.0
0.0 0.0 0.0

-790911.1964302484 1.2795478004333237e7 0.0
1.2795478004333237e7 -3.9432898290685853e6 0.0
0.0 0.0 0.0

-8.460438388703318e6 3.2904805778518427e7 0.0
3.2904805778518427e7 4.864662964193767e6 0.0
0.0 0.0 0.0

-3.7063197338111633e6 1.6161230436358942e7 0.0
1.6161230436358942e7 1.8680641308876881e6 0.0
0.0 0.0 0.0

8.489079093029074e6 3.507572683278366e7 0.0
3.507572683278366e7 -4.0700727788079595e6 0.0
0.0 0.0 0.0

-1.4953230665401998e6 1.8141684678596232e7 0.0
1.8141684678596232e7 -4.010470482132246e6 0.0
0.0 0.0 0.0

6.086035867283857e6 1.9636636633103296e7 0.0
1.9636636633103296e7 2.6271156074336033e7 0.0
0.0 0.0 0.0

-5.442588467684377e6 2.3203100493490618e7 0.0
2.3203100493490618e7 -4.519431405630671e6 0.0
0.0 0.0 0.0

-1.1482832974687878e6 2.6485641560062524e7 0.0
2.6485641560062524e7 -955022.3242921971 0.0
0.0 0.0 0.0

-1.0670965852642911e6 2.0765182477936286e7 0.0
2.0765182477936286e7 -1.4187520395335717e7 0.0
0.0 0.0 0.0

-1.8826418581007384e6 1.4485261948393144e7 0.0
1.4485261948393144e7 -4.097381909142616e7 0.0
0.0 0.0 0.0

-5.564163452510757e6 1.794701176589301e7 0.0
1.794701176589301e7 3.2770636400993697e7 0.0
0.0 0.0 0.0

448958.0081732683 1.214983384998081e7 0.0
1.214983384998081e7 -1.3903552591589052e7 0.0
0.0 0.0 0.0

-1.060207125376991e7 1.0216159119967327e7 0.0
1.0216159119967327e7 3.0640402222022343e7 0.0
0.0 0.0 0.0

1.7399650823986325e6 1.3074282029332584e7 0.0
1.3074282029332584e7 -2.780539171803006e7 0.0
0.0 0.0 0.0

-2.209996629906657e6 1.3310324761519311e7 0.0
1.3310324761519311e7 -4.748235774408246e6 0.0
0.0 0.0 0.0

2.904200345161937e6 4.212211824167347e6 0.0
4.212211824167347e6 -1.3987666389432598e7 0.0
0.0 0.0 0.0

-3.027765777413577e6 2.0094167884555764e7 0.0
2.0094167884555764e7 672233.651512864 0.0
0.0 0.0 0.0

-2.5835585684588645e6 2.555462651840541e7 0.0
2.555462651840541e7 1.9311629046045863e6 0.0
0.0 0.0 0.0

1.5751505946861836e6 3.060722498512822e7 0.0
3.060722498512822e7 -4.0713927878372488e6 0.0
0.0 0.0 0.0

-2.434726158142126e6 1.966595591827253e7 0.0
1.966595591827253e7 -4.401104633415497e6 0.0
0.0 0.0 0.0

2.4499447628478985e6 6.140033925784823e6 0.0
6.140033925784823e6 -9.592868309461871e6 0.0
0.0 0.0 0.0

7.836269702169631e6 2.983819935340796e7 0.0
2.983819935340796e7 -5.568411703256741e6 0.0
0.0 0.0 0.0

-1.086250941815462e7 1.1925756559695737e7 0.0
1.1925756559695737e7 2.4605977858299084e7 0.0
0.0 0.0 0.0

1.326563005875729e6 7.672473459592478e6 0.0
7.672473459592478e6 -4.333456132848967e7 0.0
0.0 0.0 0.0

4.1694947294554343e6 2.335286687025757e7 0.0
2.335286687025757e7 1.2814048448762324e7 0.0
0.0 0.0 0.0

-3.2663988891388094e6 2.8382943507864792e7 0.0
2.8382943507864792e7 4.1102836031008074e6 0.0
0.0 0.0 0.0

-2.9052030130134216e6 1.92071886785536e7 0.0
1.92071886785536e7 -1.2465613735745892e7 0.0
0.0 0.0 0.0

-3.703514633115532e6 1.8486258358766522e7 0.0
1.8486258358766522e7 3.3833488608469166e7 0.0
0.0 0.0 0.0

-5.083548165580585e6 2.002259436310769e7 0.0
2.002259436310769e7 -1.6945160692264583e7 0.0
0.0 0.0 0.0

-501138.16739196423 1.3497670284661977e7 0.0
1.3497670284661977e7 -1.1253046658824973e7 0.0
0.0 0.0 0.0

2.2749519977503195e6 2.0183599203019872e7 0.0
2.0183599203019872e7 1.7851140201386392e7 0.0
0.0 0.0 0.0

719735.3737676605 4.718251711379293e7 0.0
4.718251711379293e7 1.964480003635879e6 0.0
0.0 0.0 0.0

-4.1139510611276207e6 2.321590297421734e7 0.0
2.321590297421734e7 -1.0334572488732474e7 0.0
0.0 0.0 0.0

6.072177414135298e7 2.03584165114571e7 0.0
2.03584165114571e7 5.125240421445554e6 0.0
0.0 0.0 0.0

-2.138593028639188e6 1.512487228019296e7 0.0
1.512487228019296e7 -5.691737274548666e6 0.0
0.0 0.0 0.0

-2.89529299533772e6 2.0561862893719222e7 0.0
2.0561862893719222e7 -589572.1861704024 0.0
0.0 0.0 0.0

784887.7368075913 1.529695601357077e7 0.0
1.529695601357077e7 -1.7941554409443405e7 0.0
0.0 0.0 0.0

2.0657087792203932e6 3.126927326706646e7 0.0
3.126927326706646e7 -4.057661636729946e6 0.0
0.0 0.0 0.0

2.1284267768727094e6 6.149860067189241e6 0.0
6.149860067189241e6 -3.7794513999546014e7 0.0
0.0 0.0 0.0

-219286.81052970653 8.967676444839194e6 0.0
8.967676444839194e6 -7.648004531912813e6 0.0
0.0 0.0 0.0

1.3834099216093142e6 1.2049793611730373e7 0.0
1.2049793611730373e7 -2.072969368726242e7 0.0
0.0 0.0 0.0

-3.8037675450786566e6 2.307780431091423e7 0.0
2.307780431091423e7 1.5293336656083418e7 0.0
0.0 0.0 0.0

-2.315420572807412e6 2.1726040010030232e7 0.0
2.1726040010030232e7 -3.790749542481277e6 0.0
0.0 0.0 0.0

404784.7371283609 2.0275191901116036e7 0.0
2.0275191901116036e7 6.052875873147812e6 0.0
0.0 0.0 0.0

-1.1712289341542507e6 1.4060104278979449e7 0.0
1.4060104278979449e7 -3.649430729071918e6 0.0
0.0 0.0 0.0

-1.58575191464411e6 2.030583140411073e7 0.0
2.030583140411073e7 -3.410595160641824e6 0.0
0.0 0.0 0.0

2.2488006924070427e6 2.0882533974802587e7 0.0
2.0882533974802587e7 -4.3290661718661385e6 0.0
0.0 0.0 0.0

1.2377376942671877e6 4.461486381459622e7 0.0
4.461486381459622e7 1.8929742605480738e6 0.0
0.0 0.0 0.0

-1.555548877447038e6 2.13266545526177e7 0.0
2.13266545526177e7 -3.1324775561967357e6 0.0
0.0 0.0 0.0

-3.5265468286807365e6 7.200300782199302e6 0.0
7.200300782199302e6 6.409437192157813e6 0.0
0.0 0.0 0.0

2.854172891134246e7 1.3921757479595412e7 0.0
1.3921757479595412e7 1.7776400300345626e6 0.0
0.0 0.0 0.0

-537729.8241422027 1.0171758487539778e7 0.0
1.0171758487539778e7 -5.381810360673522e7 0.0
0.0 0.0 0.0

-1.777413127314191e6 2.6427273740764905e7 0.0
2.6427273740764905e7 1.866202515514915e6 0.0
0.0 0.0 0.0

-5.617782591046044e6 8.485238670522297e6 0.0
8.485238670522297e6 1.0718363685718805e7 0.0
0.0 0.0 0.0

-1.6303370273280032e6 1.4486792067526136e7 0.0
1.4486792067526136e7 -7.101712317830377e6 0.0
0.0 0.0 0.0

-115432.85929224454 1.230676760588576e7 0.0
1.230676760588576e7 -1.1636827810688933e7 0.0
0.0 0.0 0.0

1.1240618021212062e6 4.246221414329383e7 0.0
4.246221414329383e7 1.1280266722364908e6 0.0
0.0 0.0 0.0

1.491303044837078e6 1.0738814746858174e7 0.0
1.0738814746858174e7 -3.2677513727851022e7 0.0
0.0 0.0 0.0

-1.1411966246662842e7 5.525123245863649e6 0.0
5.525123245863649e6 2.6110737970277164e7 0.0
0.0 0.0 0.0

-5.609398607934227e6 2.2509575930940907e7 0.0
2.2509575930940907e7 -1.360476538554088e7 0.0
0.0 0.0 0.0

-7.8407000481414795e6 7.543183280269246e6 0.0
7.543183280269246e6 1.4600455448513417e7 0.0
0.0 0.0 0.0

-1.4815055144692422e6 2.001098597816282e7 0.0
2.001098597816282e7 -8.761012906945894e6 0.0
0.0 0.0 0.0

-2.5972518504142803e6 2.1938226088958576e7 0.0
2.1938226088958576e7 -1.482356453109926e6 0.0
0.0 0.0 0.0

603054.0941749811 1.674212686457955e7 0.0
1.674212686457955e7 -2.238961573575478e7 0.0
0.0 0.0 0.0

731088.4370374128 4.0674608045582525e7 0.0
4.0674608045582525e7 800643.6302677133 0.0
0.0 0.0 0.0

-3.75431391131272e6 2.3777928692700263e7 0.0
2.3777928692700263e7 1.3784105552971136e7 0.0
0.0 0.0 0.0

-1.4975711310185904e6 2.2311626377745364e7 0.0
2.2311626377745364e7 -2.8836094182901196e6 0.0
0.0 0.0 0.0

2.0347489981442261e6 6.958361297111103e6 0.0
6.958361297111103e6 -3.640285673730856e7 0.0
0.0 0.0 0.0

-3.8009517861537575e6 1.1095862403457368e7 0.0
1.1095862403457368e7 6.634671309729538e6 0.0
0.0 0.0 0.0

926063.6822995935 3.927590572258782e7 0.0
3.927590572258782e7 826790.7348347506 0.0
0.0 0.0 0.0

612619.2004427426 9.148061766658116e6 0.0
9.148061766658116e6 -5.672301617792304e7 0.0
0.0 0.0 0.0

974562.5334721797 3.810700908329938e7 0.0
3.810700908329938e7 675077.2610231566 0.0
0.0 0.0 0.0

827682.1951903813 3.703297917186673e7 0.0
3.703297917186673e7 411795.2450884384 0.0
0.0 0.0 0.0

-1.4889352979813158e6 2.919912358353408e7 0.0
2.919912358353408e7 -931009.0365278057 0.0
0.0 0.0 0.0

-1.3913572783160277e6 2.990569045153563e7 0.0
2.990569045153563e7 -769914.6761062758 0.0
0.0 0.0 0.0

-1.34008657015716e6 3.060526456986153e7 0.0
3.060526456986153e7 -659786.7725737353 0.0
0.0 0.0 0.0

-1.2758208405685986e6 3.126945804098378e7 0.0
3.126945804098378e7 -630081.2779057795 0.0
0.0 0.0 0.0

-1.2404813234637429e6 3.1941182985479407e7 0.0
3.1941182985479407e7 -537934.8663543179 0.0
0.0 0.0 0.0

-1.2141638215545164e6 3.2648346965725884e7 0.0
3.2648346965725884e7 -577337.7149138673 0.0
0.0 0.0 0.0

-5.933541186362907e6 1.5065505409817299e7 0.0
1.5065505409817299e7 1.0308437135198314e7 0.0
0.0 0.0 0.0

-1.0725891735367915e6 3.334779705926562e7 0.0
3.334779705926562e7 -473658.60508522735 0.0
0.0 0.0 0.0

-1.175287497462096e6 3.409535625833314e7 0.0
3.409535625833314e7 -451471.0510867622 0.0
0.0 0.0 0.0

-7.264020774554559e6 1.7679941688022178e7 0.0
1.7679941688022178e7 2.286408845295642e7 0.0
0.0 0.0 0.0

657912.5402074769 3.607644445928935e7 0.0
3.607644445928935e7 379323.35167043505 0.0
0.0 0.0 0.0

-1.3112881617806028e6 3.478998036696077e7 0.0
3.478998036696077e7 -405159.26939023164 0.0
0.0 0.0 0.0

-1.190448376188542e6 3.56561274164322e7 0.0
3.56561274164322e7 -265992.3330115584 0.0
0.0 0.0 0.0

542807.7137132315 3.5245117707310766e7 0.0
3.5245117707310766e7 307379.43824752024 0.0
0.0 0.0 0.0

-1.3827961008958924e6 1.7003411754260037e7 0.0
1.7003411754260037e7 -4.309487729637067e6 0.0
0.0 0.0 0.0

-1.4014418949332242e6 3.657060041407922e7 0.0
3.657060041407922e7 -313316.8033812731 0.0
0.0 0.0 0.0

196319.2930514862 3.4417644326017745e7 0.0
3.4417644326017745e7 91599.90652175351 0.0
0.0 0.0 0.0

386907.79187070334 3.367176266779198e7 0.0
3.367176266779198e7 98483.20369650767 0.0
0.0 0.0 0.0

111398.79960585893 3.3027891981239915e7 0.0
3.3027891981239915e7 26572.214184166856 0.0
0.0 0.0 0.0

-140676.05838625404 3.228066790480563e7 0.0
3.228066790480563e7 -6348.768069252241 0.0
0.0 0.0 0.0

-236535.04991645424 3.1631275142228357e7 0.0
3.1631275142228357e7 -65318.52078295685 0.0
0.0 0.0 0.0

-484379.66806294787 3.094754438687457e7 0.0
3.094754438687457e7 -118194.2314440549 0.0
0.0 0.0 0.0

-525966.7068194894 3.0289659698832136e7 0.0
3.0289659698832136e7 -162782.42270169 0.0
0.0 0.0 0.0

-628886.9629719944 2.9601791098926976e7 0.0
2.9601791098926976e7 -289496.1406120679 0.0
0.0 0.0 0.0

-1.6816474752789163e6 2.4857134651612498e7 0.0
2.4857134651612498e7 -3.892358553090919e6 0.0
0.0 0.0 0.0

-5.415373650352595e6 1.845726126212228e7 0.0
1.845726126212228e7 3.0938860639908373e7 0.0
0.0 0.0 0.0

-1.7174385045708108e6 3.751833973595679e7 0.0
3.751833973595679e7 -247388.06247377838 0.0
0.0 0.0 0.0

2.1962870793868527e6 8.54792009848796e6 0.0
8.54792009848796e6 -2.4950283265257075e7 0.0
0.0 0.0 0.0

-2.0148587836463805e6 2.429078349410546e7 0.0
2.429078349410546e7 2.6070114923530137e6 0.0
0.0 0.0 0.0

-2.2016210658223745e6 3.868621190712444e7 0.0
3.868621190712444e7 -96674.55573934666 0.0
0.0 0.0 0.0

-1.0420201445624258e7 1.312602572879762e7 0.0
1.312602572879762e7 2.3520440878706887e7 0.0
0.0 0.0 0.0

-2.890301071674931e6 4.003130531464876e7 0.0
4.003130531464876e7 -168039.36881277594 0.0
0.0 0.0 0.0

-1.0886641544544935e7 1.1432072769309863e7 0.0
1.1432072769309863e7 2.6453509793042183e7 0.0
0.0 0.0 0.0

-3.768722428628575e6 4.152060632182663e7 0.0
4.152060632182663e7 -299292.96167341946 0.0
0.0 0.0 0.0

433850.5088355392 1.9884180730338674e7 0.0
1.9884180730338674e7 -1.7124685023716543e7 0.0
0.0 0.0 0.0

2.1508636958348183e6 1.1585019038038293e7 0.0
1.1585019038038293e7 -1.9987068837357007e7 0.0
0.0 0.0 0.0

-1.494419415057635e6 1.4696735175998976e7 0.0
1.4696735175998976e7 -3.801250983953102e7 0.0
0.0 0.0 0.0

-1.7085145722534684e6 2.195533584197474e7 0.0
2.195533584197474e7 -1.8424843977066209e6 0.0
0.0 0.0 0.0

-1.206705128033e6 1.6921412894804087e7 0.0
1.6921412894804087e7 -1.0016865376349142e7 0.0
0.0 0.0 0.0

-1.415322829512334e6 2.354944843495114e7 0.0
2.354944843495114e7 -6.288734229401306e6 0.0
0.0 0.0 0.0

409331.5712758852 2.0104226181375865e7 0.0
2.0104226181375865e7 -1.7119513078522198e7 0.0
0.0 0.0 0.0

3.386977579437716e6 1.963490599898171e6 0.0
1.963490599898171e6 -3.076307301049719e7 0.0
0.0 0.0 0.0

-3.5008938450832507e6 1.4162770137865594e7 0.0
1.4162770137865594e7 6.420717325998751e6 0.0
0.0 0.0 0.0

-4.733897849750867e6 4.337896436280332e7 0.0
4.337896436280332e7 -40867.6643853772 0.0
0.0 0.0 0.0

1.8084114689078974e6 1.2502832964909492e7 0.0
1.2502832964909492e7 -1.678755144187115e7 0.0
0.0 0.0 0.0

-1.0541540856594779e7 1.1721728199473538e7 0.0
1.1721728199473538e7 2.933726692796202e7 0.0
0.0 0.0 0.0

-1.5601276620636461e6 1.9246094662779756e7 0.0
1.9246094662779756e7 -3.7143099532145914e6 0.0
0.0 0.0 0.0

619943.0522005229 3.2046949087398466e7 0.0
3.2046949087398466e7 -1.5583143510936848e6 0.0
0.0 0.0 0.0

2.3370422499949858e6 7.740378336008292e6 0.0
7.740378336008292e6 -2.6273731086898066e7 0.0
0.0 0.0 0.0

-1.2532727539521609e7 3.817206325372388e7 0.0
3.817206325372388e7 4.776005160329183e6 0.0
0.0 0.0 0.0

-5.439927381487573e6 1.688569672617522e7 0.0
1.688569672617522e7 1.154344910497402e7 0.0
0.0 0.0 0.0

-1.7329263636636272e7 2.8285851218413286e7 0.0
2.8285851218413286e7 3.388780194909218e6 0.0
0.0 0.0 0.0

2.6986053875844576e6 1.963541997555108e7 0.0
1.963541997555108e7 1.5477684629835363e7 0.0
0.0 0.0 0.0

-6.909502813772471e6 4.5985671754997104e7 0.0
4.5985671754997104e7 91627.26952461433 0.0
0.0 0.0 0.0

1.1804745797698908e6 1.2105531081375826e7 0.0
1.2105531081375826e7 -3.1468155523947895e7 0.0
0.0 0.0 0.0

-4.379985828495694e6 1.6713081769168423e7 0.0
1.6713081769168423e7 6.67890196969546e6 0.0
0.0 0.0 0.0

1.4627030841128286e6 1.8674472794006873e7 0.0
1.8674472794006873e7 4.875677412220709e6 0.0
0.0 0.0 0.0

1.923031605789925e6 9.547122855998585e6 0.0
9.547122855998585e6 -2.1696881909679223e7 0.0
0.0 0.0 0.0

1.1643965101432367e6 2.1595516022095468e7 0.0
2.1595516022095468e7 4.407406942936731e6 0.0
0.0 0.0 0.0

2.0632493595829513e6 9.355415124421636e6 0.0
9.355415124421636e6 -2.3671339755040664e7 0.0
0.0 0.0 0.0

-135807.2415192345 1.7528895735683035e7 0.0
1.7528895735683035e7 -3.0000258669240517e6 0.0
0.0 0.0 0.0

-1.8314624631626552e6 2.2525691822184477e7 0.0
2.2525691822184477e7 -581676.499233591 0.0
0.0 0.0 0.0

-2.2210538379456876e6 2.2697566195036042e7 0.0
2.2697566195036042e7 -3.517407740374073e6 0.0
0.0 0.0 0.0

1.5375221291262526e6 9.974845177747434e6 0.0
9.974845177747434e6 -1.7535848048006967e7 0.0
0.0 0.0 0.0

2.7349520264264222e7 2.4144280866633683e7 0.0
2.4144280866633683e7 1.0531493373763561e7 0.0
0.0 0.0 0.0

1.4641100180408508e6 1.3618004970990462e7 0.0
1.3618004970990462e7 -1.6385332847497765e7 0.0
0.0 0.0 0.0

-571828.4794762107 1.720085583624569e7 0.0
1.720085583624569e7 -7.97729296250253e6 0.0
0.0 0.0 0.0

-5.571408973175194e6 2.4208903512680992e7 0.0
2.4208903512680992e7 6.880730178841684e6 0.0
0.0 0.0 0.0

562730.5968685523 1.2523347993829193e7 0.0
1.2523347993829193e7 -9.502304089085285e6 0.0
0.0 0.0 0.0

-3.8788951292279754e6 2.4517434681485057e7 0.0
2.4517434681485057e7 1.2196064859697422e7 0.0
0.0 0.0 0.0

5.104473808237244e6 1.8736516585273188e7 0.0
1.8736516585273188e7 2.7553351406456567e7 0.0
0.0 0.0 0.0

-8.556565498122111e6 1.4252407607396673e7 0.0
1.4252407607396673e7 2.002804214291544e7 0.0
0.0 0.0 0.0

-1.0179133764918298e7 4.8968074568071865e7 0.0
4.8968074568071865e7 -361157.332232432 0.0
0.0 0.0 0.0

1.6675892645930313e6 1.885796917077441e7 0.0
1.885796917077441e7 4.502255065835336e7 0.0
0.0 0.0 0.0

-3.154246690256301e6 1.7234887596399676e7 0.0
1.7234887596399676e7 -1.0406880097294118e6 0.0
0.0 0.0 0.0

1.181208920392238e7 2.1587789026290677e7 0.0
2.1587789026290677e7 4.0035995789038753e6 0.0
0.0 0.0 0.0

2.4498418901891503e6 7.178038118880293e6 0.0
7.178038118880293e6 -2.9676806712587945e7 0.0
0.0 0.0 0.0

465685.5970186684 1.2368766934232716e7 0.0
1.2368766934232716e7 -3.594163399696704e7 0.0
0.0 0.0 0.0

-4.392006150376503e6 1.9988060406407468e7 0.0
1.9988060406407468e7 1.2990017811998732e7 0.0
0.0 0.0 0.0

-1.5258345767626457e7 2.6833787312881168e7 0.0
2.6833787312881168e7 -1.120216021832541e7 0.0
0.0 0.0 0.0

-2.315423651822029e6 1.9606657606195327e7 0.0
1.9606657606195327e7 1.4906516527820982e6 0.0
0.0 0.0 0.0

-306527.7017590422 1.745201648790459e7 0.0
1.745201648790459e7 -1.3800174293839106e7 0.0
0.0 0.0 0.0

-1.6686617866113525e7 3.647419801468426e7 0.0
3.647419801468426e7 6.172304751931055e6 0.0
0.0 0.0 0.0

1.3432372273264723e6 1.2540202379985087e7 0.0
1.2540202379985087e7 -2.144967908315879e7 0.0
0.0 0.0 0.0

-2.2473295672775125e6 2.0661074697806444e7 0.0
2.0661074697806444e7 1.5540851983554424e6 0.0
0.0 0.0 0.0

-4.604667205139924e6 9.909609258213043e6 0.0
9.909609258213043e6 8.669626991432147e6 0.0
0.0 0.0 0.0

-3.0487639298988977e6 1.968603290178746e7 0.0
1.968603290178746e7 1.1178755056259641e7 0.0
0.0 0.0 0.0

-4.995278612440609e6 7.481969382498945e7 0.0
7.481969382498945e7 3.015331804123751e6 0.0
0.0 0.0 0.0

-7.1687877793212e6 1.4975459117884606e7 0.0
1.4975459117884606e7 1.8400943182852793e7 0.0
0.0 0.0 0.0

-4.577012981906454e6 7.518942337830258e6 0.0
7.518942337830258e6 2.8550935804014616e6 0.0
0.0 0.0 0.0

-1.5202285422473592e6 2.3871374376999047e7 0.0
2.3871374376999047e7 -1.412650748770375e6 0.0
0.0 0.0 0.0

-2.7740073061888134e6 2.369659920225432e7 0.0
2.369659920225432e7 4.16001934666623e6 0.0
0.0 0.0 0.0

-430821.55564882234 2.0923008732368343e7 0.0
2.0923008732368343e7 -8.62717582418485e6 0.0
0.0 0.0 0.0

-2.307460594361647e6 2.331420982739181e7 0.0
2.331420982739181e7 -2.2738007255351553e6 0.0
0.0 0.0 0.0

-9.901767180321716e6 2.1980470216136295e6 0.0
2.1980470216136295e6 1.6775068742292048e7 0.0
0.0 0.0 0.0

-96864.4728664658 1.9652345109798312e7 0.0
1.9652345109798312e7 -4.482186713271547e6 0.0
0.0 0.0 0.0

-2.826154566630601e6 2.4575905284666244e7 0.0
2.4575905284666244e7 4.186992109527222e6 0.0
0.0 0.0 0.0

840786.1857844936 1.1432211429588635e7 0.0
1.1432211429588635e7 -1.5127862665526023e7 0.0
0.0 0.0 0.0

743107.2764973643 2.012033234222988e7 0.0
2.012033234222988e7 -3.33825733647278e6 0.0
0.0 0.0 0.0

-2.0477050808118656e7 2.7100133177042697e7 0.0
2.7100133177042697e7 814056.9986465229 0.0
0.0 0.0 0.0

-5.68281049139938e6 1.5676912986606712e7 0.0
1.5676912986606712e7 1.6474057536918353e7 0.0
0.0 0.0 0.0

399482.1920887651 1.928720125020204e7 0.0
1.928720125020204e7 -1.844224715023586e7 0.0
0.0 0.0 0.0

-3.040469066968964e6 2.500495104825812e7 0.0
2.500495104825812e7 6.38267427203432e6 0.0
0.0 0.0 0.0

3.458333185072697e6 2.5330404491527835e6 0.0
2.5330404491527835e6 -1.6358619003207944e7 0.0
0.0 0.0 0.0

-4.875265273028165e6 -3.747727660023574e6 0.0
-3.747727660023574e6 7.108538151639041e6 0.0
0.0 0.0 0.0

-3.2855855480245994e6 -2.4962253112367503e6 0.0
-2.4962253112367503e6 4.709625656384556e6 0.0
0.0 0.0 0.0

-8.571348842329785e6 -3.6589999854611563e6 0.0
-3.6589999854611563e6 2.9844655956130173e7 0.0
0.0 0.0 0.0

-2.2850004919835078e6 -502145.56295977044 0.0
-502145.56295977044 2.0607924927703587e6 0.0
0.0 0.0 0.0

-8.524799683723683e6 -4.0569842875944166e6 0.0
-4.0569842875944166e6 2.7334941425264865e7 0.0
0.0 0.0 0.0

3.4587863413789403e6 2.7152390784809263e6 0.0
2.7152390784809263e6 -1.2620466875995785e7 0.0
0.0 0.0 0.0

-6.228408200307793e6 -5.79724318287564e6 0.0
-5.79724318287564e6 1.3485738593958326e7 0.0
0.0 0.0 0.0

-8.197899569508022e6 -5.556598637711161e6 0.0
-5.556598637711161e6 2.0065214111102905e7 0.0
0.0 0.0 0.0

-354830.3269339171 1.4555146209283692e6 0.0
1.4555146209283692e6 -1.0061981582399465e6 0.0
0.0 0.0 0.0

-8.549401065376213e6 -4.574107679931322e6 0.0
-4.574107679931322e6 2.474004721489825e7 0.0
0.0 0.0 0.0

2.7791993242507773e6 2.843577085254285e6 0.0
2.843577085254285e6 -8.765768660293857e6 0.0
0.0 0.0 0.0

1.625368251536279e6 2.662716776299202e6 0.0
2.662716776299202e6 -4.949533465558787e6 0.0
0.0 0.0 0.0

-4.858034154996123e6 -4.664337894482669e6 0.0
-4.664337894482669e6 8.788673119995294e6 0.0
0.0 0.0 0.0

3.535159257064214e6 2.0421351583462297e6 0.0
2.0421351583462297e6 -2.760987756392654e7 0.0
0.0 0.0 0.0

3.5438529829488564e6 1.954672263508074e6 0.0
1.954672263508074e6 -2.9979529466439858e7 0.0
0.0 0.0 0.0

3.613426892027937e6 2.0720039990245337e6 0.0
2.0720039990245337e6 -2.5216872302148428e7 0.0
0.0 0.0 0.0

3.8618153436723454e6 2.3227014863198674e6 0.0
2.3227014863198674e6 -2.1517395966874495e7 0.0
0.0 0.0 0.0

-6.204673059707441e6 -5.349289432541347e6 0.0
-5.349289432541347e6 1.1629143630087627e7 0.0
0.0 0.0 0.0

-8.383861026065053e6 -4.267732369335421e6 0.0
-4.267732369335421e6 2.5928864008165002e7 0.0
0.0 0.0 0.0

3.540090639877381e6 2.0496362211884072e6 0.0
2.0496362211884072e6 -2.8905352354382023e7 0.0
0.0 0.0 0.0

3.4946295739026126e6 2.441893282314499e6 0.0
2.441893282314499e6 -1.8951290413432043e7 0.0
0.0 0.0 0.0

3.652838911468085e6 2.3952872147834613e6 0.0
2.3952872147834613e6 -2.0213575549361415e7 0.0
0.0 0.0 0.0

3.6648190039231237e6 2.469814691051268e6 0.0
2.469814691051268e6 -1.7756514331567597e7 0.0
0.0 0.0 0.0

966452.4312980743 1.7616994354427535e7 0.0
1.7616994354427535e7 -1.6613255085777776e7 0.0
0.0 0.0 0.0

-9.636748370006768e6 1.407406253610437e7 0.0
1.407406253610437e7 2.2408387515221164e7 0.0
0.0 0.0 0.0

-1.1296479870385457e7 8.759007624339003e6 0.0
8.759007624339003e6 2.8790041407599874e7 0.0
0.0 0.0 0.0

-3.8896842863711277e6 2.5319566154375657e7 0.0
2.5319566154375657e7 1.0851691923529819e7 0.0
0.0 0.0 0.0

-1.4154323757576877e6 1.7577701986453764e7 0.0
1.7577701986453764e7 -2.625140249751505e7 0.0
0.0 0.0 0.0

-3.228166209908516e6 2.0773254388023306e7 0.0
2.0773254388023306e7 4.426653794178937e6 0.0
0.0 0.0 0.0

-1.5383961919817397e7 5.3310351296214126e7 0.0
5.3310351296214126e7 -803672.0029096892 0.0
0.0 0.0 0.0

-3.078967228100491e6 1.8388740297860462e7 0.0
1.8388740297860462e7 -867756.3186921371 0.0
0.0 0.0 0.0

-5.247752824156313e6 2.1240679162786532e7 0.0
2.1240679162786532e7 -1.5727497925386198e7 0.0
0.0 0.0 0.0

1.0645417094713429e7 2.3816084509960514e7 0.0
2.3816084509960514e7 1.209828928486564e7 0.0
0.0 0.0 0.0

-2.8805500693663424e6 2.199100756271933e7 0.0
2.199100756271933e7 9.200942691438515e6 0.0
0.0 0.0 0.0

-2.821929494403804e6 2.074622204881854e7 0.0
2.074622204881854e7 1.0676597933307953e7 0.0
0.0 0.0 0.0

913269.482880325 2.193903081520612e7 0.0
2.193903081520612e7 -1.3280514957157994e7 0.0
0.0 0.0 0.0

-3.482263581813e6 1.892746667953267e7 0.0
1.892746667953267e7 1.3005104776609017e7 0.0
0.0 0.0 0.0

-2.3278419589460334e6 2.391325431702404e7 0.0
2.391325431702404e7 -1.1568176101871824e6 0.0
0.0 0.0 0.0

-2.0870761337054376e6 2.2059097343147453e7 0.0
2.2059097343147453e7 -4.788774176478247e6 0.0
0.0 0.0 0.0

-6.262395303209915e6 1.5554419323088693e7 0.0
1.5554419323088693e7 1.2093080944252439e7 0.0
0.0 0.0 0.0

-820721.86530759 1.6257808365108047e7 0.0
1.6257808365108047e7 -1.1377967459775878e7 0.0
0.0 0.0 0.0

-2.4918349096250795e6 1.9100148311255764e7 0.0
1.9100148311255764e7 2.8413069188478924e6 0.0
0.0 0.0 0.0

1.209485995582766e6 1.071456104261135e7 0.0
1.071456104261135e7 -1.6315085839620337e7 0.0
0.0 0.0 0.0

-4.206856400583917e6 -4.2422508627879955e6 0.0
-4.2422508627879955e6 1.0214854538110254e7 0.0
0.0 0.0 0.0

-3.3554247407511044e6 -2.8188957035442386e6 0.0
-2.8188957035442386e6 8.277534145302457e6 0.0
0.0 0.0 0.0

-8.682615316927385e6 -4.488665799416275e6 0.0
-4.488665799416275e6 2.452400066496268e7 0.0
0.0 0.0 0.0

-4.989549654758713e6 -4.657593644294571e6 0.0
-4.657593644294571e6 1.2035875628574248e7 0.0
0.0 0.0 0.0

-5.899507558117512e6 -5.613425755724144e6 0.0
-5.613425755724144e6 1.3535415198450826e7 0.0
0.0 0.0 0.0

3.474745960231345e6 2.00471456333141e6 0.0
2.00471456333141e6 -2.7800532569596678e7 0.0
0.0 0.0 0.0

3.4147432697059754e6 1.9532093811625657e6 0.0
1.9532093811625657e6 -2.8771033836535443e7 0.0
0.0 0.0 0.0

-8.56184954945207e6 -4.166393003268442e6 0.0
-4.166393003268442e6 2.612882184993635e7 0.0
0.0 0.0 0.0

3.5972076698243385e6 2.3763034671685756e6 0.0
2.3763034671685756e6 -2.076652143235534e7 0.0
0.0 0.0 0.0

3.6198363839079477e6 2.5934984804345337e6 0.0
2.5934984804345337e6 -1.6681995382873919e7 0.0
0.0 0.0 0.0

3.5930801858072616e6 2.47739677706766e6 0.0
2.47739677706766e6 -1.9053048039149534e7 0.0
0.0 0.0 0.0

3.6266808085819874e6 2.442674635487367e6 0.0
2.442674635487367e6 -1.784494593564031e7 0.0
0.0 0.0 0.0

-3.5431028378751935e6 1.7374644522689782e7 0.0
1.7374644522689782e7 1.9026912980126883e6 0.0
0.0 0.0 0.0

-5.34358639302294e6 1.892908541394441e7 0.0
1.892908541394441e7 2.913537782234798e7 0.0
0.0 0.0 0.0

-4.337324507907349e6 1.856096435580888e7 0.0
1.856096435580888e7 1.6142645730685908e7 0.0
0.0 0.0 0.0

3.3864257206503414e6 5.9294396426597545e6 0.0
5.9294396426597545e6 -2.4314598611753974e7 0.0
0.0 0.0 0.0

-388858.18637053855 2.649226342558405e7 0.0
2.649226342558405e7 -5.359655795796669e6 0.0
0.0 0.0 0.0

-567195.5446538655 2.0968653814497147e7 0.0
2.0968653814497147e7 2.276862037666904e7 0.0
0.0 0.0 0.0

-9.79844958094766e6 1.584693381064331e7 0.0
1.584693381064331e7 2.430171209114704e7 0.0
0.0 0.0 0.0

1.7153983437462887e6 1.0304229970903806e7 0.0
1.0304229970903806e7 -2.0429433141918257e7 0.0
0.0 0.0 0.0

1.319594431421074e6 1.3009154991582192e7 0.0
1.3009154991582192e7 -2.2025802380147528e7 0.0
0.0 0.0 0.0

-2.166411743587026e6 2.107280375026538e7 0.0
2.107280375026538e7 -5.107994312619932e6 0.0
0.0 0.0 0.0

-1.4385652045343108e6 2.060990198285882e7 0.0
2.060990198285882e7 2.539640642494976e7 0.0
0.0 0.0 0.0

-3.686974066779461e6 1.271647632773042e7 0.0
1.271647632773042e7 6.543399338544922e6 0.0
0.0 0.0 0.0

-616003.4341118317 2.1613268550784495e7 0.0
2.1613268550784495e7 -7.361542629062915e6 0.0
0.0 0.0 0.0

-1.4138887755039223e6 2.6195466381606635e7 0.0
2.6195466381606635e7 3195.880368752638 0.0
0.0 0.0 0.0

1.1022234125337629e6 1.4674018858675882e7 0.0
1.4674018858675882e7 -1.6150097132860806e7 0.0
0.0 0.0 0.0

-1.6350834695042241e6 2.2921100449556522e7 0.0
2.2921100449556522e7 -1.6204376292677948e6 0.0
0.0 0.0 0.0

2.8756055301323123e6 4.513149013565669e6 0.0
4.513149013565669e6 1.042514171411884e6 0.0
0.0 0.0 0.0

-1.908399028776724e6 2.0923553668594826e7 0.0
2.0923553668594826e7 2.39425690471291e7 0.0
0.0 0.0 0.0

569629.4378052205 1.1104249494954105e7 0.0
1.1104249494954105e7 -4.26389845247993e7 0.0
0.0 0.0 0.0

886638.2827482317 1.21687333150795e7 0.0
1.21687333150795e7 -3.36914691127129e7 0.0
0.0 0.0 0.0

-635990.0111540498 2.063445589429735e7 0.0
2.063445589429735e7 -7.766124881388583e6 0.0
0.0 0.0 0.0

-1.0264197680681739e7 2.5916477816133905e7 0.0
2.5916477816133905e7 5.054163606242555e6 0.0
0.0 0.0 0.0

2.7637997208689507e6 6.767620695425817e6 0.0
6.767620695425817e6 -1.2778987157672659e7 0.0
0.0 0.0 0.0

-2.3789657427929463e6 1.851871227067722e7 0.0
1.851871227067722e7 1.4372330461142329e6 0.0
0.0 0.0 0.0

-2.431281414609342e6 2.234773528866024e7 0.0
2.234773528866024e7 -2.5044733974294816e6 0.0
0.0 0.0 0.0

-1.3989331019566043e6 2.3276007482553463e7 0.0
2.3276007482553463e7 -2.622648255145125e6 0.0
0.0 0.0 0.0

-1.7346973704421464e6 1.7600450785201095e7 0.0
1.7600450785201095e7 -2.8763810446955618e7 0.0
0.0 0.0 0.0

1.2576120367830228e6 1.274788430642895e7 0.0
1.274788430642895e7 -2.7893861738782544e7 0.0
0.0 0.0 0.0

-4.929141121080086e6 1.343721568264658e7 0.0
1.343721568264658e7 5.317688890537458e6 0.0
0.0 0.0 0.0

-4.290226348661264e6 1.9626764172919404e7 0.0
1.9626764172919404e7 1.178360638818843e7 0.0
0.0 0.0 0.0

-55600.95238681324 1.5880316788511656e7 0.0
1.5880316788511656e7 -2.95220874160342e7 0.0
0.0 0.0 0.0

-595835.6600611457 2.413583871308821e7 0.0
2.413583871308821e7 -5.3777917998340465e6 0.0
0.0 0.0 0.0

2.1245395866970406e6 2.7157371171035557e6 0.0
2.7157371171035557e6 -6.286393236184494e6 0.0
0.0 0.0 0.0

6.698250148907317e6 3.448726549651818e7 0.0
3.448726549651818e7 -3.7313963960245014e6 0.0
0.0 0.0 0.0

2.3756107493445585e6 7.648389745137929e6 0.0
7.648389745137929e6 -1.1695656639694152e7 0.0
0.0 0.0 0.0

-1.1968044720625137e6 1.5822607228272876e7 0.0
1.5822607228272876e7 -4.603180465213726e6 0.0
0.0 0.0 0.0

-3.8864624775189664e6 2.2508766998361334e7 0.0
2.2508766998361334e7 1.3563799195315195e7 0.0
0.0 0.0 0.0

-2.7069265692677246e6 1.5549905183315307e7 0.0
1.5549905183315307e7 2.892936951290581e6 0.0
0.0 0.0 0.0

-2.904210726931261e6 1.7703884182565894e7 0.0
1.7703884182565894e7 -2.349213717679228e6 0.0
0.0 0.0 0.0

-2.5005839550632033e6 2.2923060326359037e7 0.0
2.2923060326359037e7 -1.2670814689674121e6 0.0
0.0 0.0 0.0

-5.293391823397162e6 1.1896472194116361e7 0.0
1.1896472194116361e7 5.295833788633583e6 0.0
0.0 0.0 0.0

-9.219489393944046e6 156887.17267455446 0.0
156887.17267455446 1.6076654507114198e7 0.0
0.0 0.0 0.0

-3.3645886314126016e6 1.8558707386376154e7 0.0
1.8558707386376154e7 1.1710883353543203e7 0.0
0.0 0.0 0.0

-2.563182238255043e6 2.06809483063143e7 0.0
2.06809483063143e7 6.654466250981293e6 0.0
0.0 0.0 0.0

178268.61019742722 7.607737493868878e6 0.0
7.607737493868878e6 -7.7265469620444095e6 0.0
0.0 0.0 0.0

-4.643423926156496e6 1.6556195727867508e7 0.0
1.6556195727867508e7 1.4329347336965227e7 0.0
0.0 0.0 0.0

-2.0921433690688568e6 2.3661310476044852e7 0.0
2.3661310476044852e7 -3.265122625146648e6 0.0
0.0 0.0 0.0

2.5773968842062205e6 9.641165884118278e6 0.0
9.641165884118278e6 -2.934961709466585e7 0.0
0.0 0.0 0.0

-9.36067589757817e6 2.620299485182266e7 0.0
2.620299485182266e7 4.264317910060689e6 0.0
0.0 0.0 0.0

-2.216026388036203e6 2.0047117461758334e7 0.0
2.0047117461758334e7 -5.446921583552843e6 0.0
0.0 0.0 0.0

1.872482846913498e6 2.7962324994594767e6 0.0
2.7962324994594767e6 -5.28421200076071e6 0.0
0.0 0.0 0.0

-4.304121392062405e6 2.760509701296309e7 0.0
2.760509701296309e7 7.34907356345099e6 0.0
0.0 0.0 0.0

-1.176600683274449e7 1.1128402950544665e7 0.0
1.1128402950544665e7 2.096888062008169e7 0.0
0.0 0.0 0.0

-2.649148459794949e6 1.92645040203499e7 0.0
1.92645040203499e7 -3.317228436566624e6 0.0
0.0 0.0 0.0

-1.1574564573757593e6 2.5087946723971143e7 0.0
2.5087946723971143e7 -2.211368886112917e6 0.0
0.0 0.0 0.0

-2.1506129299690793e6 2.5744156492712572e7 0.0
2.5744156492712572e7 -768662.9102101527 0.0
0.0 0.0 0.0

-1.9798904943170361e6 2.3023142219581418e7 0.0
2.3023142219581418e7 -4.493434037458817e6 0.0
0.0 0.0 0.0

-1.9294655144589804e6 2.3050601270526577e7 0.0
2.3050601270526577e7 605389.6342298597 0.0
0.0 0.0 0.0

3.0081714150263756e6 2.7868733468500483e6 0.0
2.7868733468500483e6 -1.0004219410711864e7 0.0
0.0 0.0 0.0

322264.39291346143 2.8576964743675146e7 0.0
2.8576964743675146e7 -4.570528884896563e6 0.0
0.0 0.0 0.0

-1.736621744655199e7 1.9536967690880902e7 0.0
1.9536967690880902e7 -7.41822276317448e7 0.0
0.0 0.0 0.0

1.699416028136717e7 2.037572684818243e7 0.0
2.037572684818243e7 7.17540060493134e7 0.0
0.0 0.0 0.0

774555.7428459283 1.597193820161366e7 0.0
1.597193820161366e7 -2.087429659676775e7 0.0
0.0 0.0 0.0

-870735.7671088208 2.227801590763249e7 0.0
2.227801590763249e7 -6.08929284007618e6 0.0
0.0 0.0 0.0

-4.679406469659764e6 1.7619679080976255e7 0.0
1.7619679080976255e7 -2.2744500569301087e7 0.0
0.0 0.0 0.0

-2.2095180193002196e6 1.8989649516604602e7 0.0
1.8989649516604602e7 -5.811957340164415e6 0.0
0.0 0.0 0.0

1.13058469529285e6 2.2097330840965435e7 0.0
2.2097330840965435e7 -1.351160600026606e7 0.0
0.0 0.0 0.0

-1.5969206459693443e6 1.7610133845894072e7 0.0
1.7610133845894072e7 -8.624907904798446e6 0.0
0.0 0.0 0.0

-2.604098257950865e6 2.2545933505136587e7 0.0
2.2545933505136587e7 -232756.2855508041 0.0
0.0 0.0 0.0

570868.7415703125 9.709282072877215e6 0.0
9.709282072877215e6 -5.310381402996439e7 0.0
0.0 0.0 0.0

-9.936061573313875e6 2.4654661637200043e7 0.0
2.4654661637200043e7 3.4305003170396676e6 0.0
0.0 0.0 0.0

-3.048301110580462e6 2.2618761768732786e7 0.0
2.2618761768732786e7 6.71424979717525e6 0.0
0.0 0.0 0.0

-960291.6772850733 1.7883014553341758e7 0.0
1.7883014553341758e7 -6.570767907308833e6 0.0
0.0 0.0 0.0

1.191113046742469e6 1.343238897038947e7 0.0
1.343238897038947e7 -2.6357154865925275e7 0.0
0.0 0.0 0.0

1.6409009648576476e7 2.1270477841331724e7 0.0
2.1270477841331724e7 5.46966988110953e7 0.0
0.0 0.0 0.0

-7616.817613072693 2.273003902897535e7 0.0
2.273003902897535e7 -9.355508191992724e6 0.0
0.0 0.0 0.0

-2.61000881863021e7 6.019352524113309e7 0.0
6.019352524113309e7 -508229.3651331486 0.0
0.0 0.0 0.0

878813.6291276589 1.5313902411689281e7 0.0
1.5313902411689281e7 -2.219546332175091e7 0.0
0.0 0.0 0.0

-1.2591212842230888e6 2.2646929151412025e7 0.0
2.2646929151412025e7 -3.876995476780138e6 0.0
0.0 0.0 0.0

2.81898958567883e6 2.8485608932355763e6 0.0
2.8485608932355763e6 -9.207958538291449e6 0.0
0.0 0.0 0.0

2.237359370499963e6 8.477064298529431e6 0.0
8.477064298529431e6 -2.881540802397649e7 0.0
0.0 0.0 0.0

-1.495365502253673e6 2.534210178600395e7 0.0
2.534210178600395e7 -117397.60078267311 0.0
0.0 0.0 0.0

-7.826696937174018e6 1.8195845204368494e7 0.0
1.8195845204368494e7 -4.292499017836861e7 0.0
0.0 0.0 0.0

-1.2821085863792475e6 1.857094321877239e7 0.0
1.857094321877239e7 -5.137299617827027e6 0.0
0.0 0.0 0.0

1.1100269848007392e6 1.2856301049136266e7 0.0
1.2856301049136266e7 -1.2775086910560891e7 0.0
0.0 0.0 0.0

-3.0614419600003357e6 1.6751937543103993e7 0.0
1.6751937543103993e7 6.048107835541325e6 0.0
0.0 0.0 0.0

1.0530282649679724e6 1.4703818532910246e7 0.0
1.4703818532910246e7 -2.3586672456124276e7 0.0
0.0 0.0 0.0

-4.244567263470059e6 1.6152110860585582e7 0.0
1.6152110860585582e7 5.127980431814845e6 0.0
0.0 0.0 0.0

376230.60551856086 1.8708668939483624e7 0.0
1.8708668939483624e7 -1.9785136076943856e7 0.0
0.0 0.0 0.0

-2.540055259320016e7 3.038434885331631e7 0.0
3.038434885331631e7 -1.1443217515620187e7 0.0
0.0 0.0 0.0

-7.24767348372234e6 -5.9200777072312115e6 0.0
-5.9200777072312115e6 1.5978427718239393e7 0.0
0.0 0.0 0.0

-3.5859972678053454e6 1.6513379327572342e7 0.0
1.6513379327572342e7 9.389511313494548e6 0.0
0.0 0.0 0.0

-1.7312458268080126e6 2.347460090692367e7 0.0
2.347460090692367e7 -391865.3764552763 0.0
0.0 0.0 0.0

-7.476106432837591e6 1.8484728925481108e6 0.0
1.8484728925481108e6 4.954512638033238e7 0.0
0.0 0.0 0.0

866825.9656691146 2.068332992603518e7 0.0
2.068332992603518e7 1.496805673123815e7 0.0
0.0 0.0 0.0

-1.930047087287075e6 1.8295355667366322e7 0.0
1.8295355667366322e7 -7.229523456620087e6 0.0
0.0 0.0 0.0

750441.4718767572 2.1977097624710545e7 0.0
2.1977097624710545e7 -1.2506354850321881e7 0.0
0.0 0.0 0.0

-932254.123429683 1.962101724961958e7 0.0
1.962101724961958e7 -1.0826988943403576e7 0.0
0.0 0.0 0.0

-1.4527810963379282e6 1.4911115649906248e7 0.0
1.4911115649906248e7 -8.32746596921016e6 0.0
0.0 0.0 0.0

-1.6764980250234848e6 2.1682504180728313e7 0.0
2.1682504180728313e7 -7.022233992635742e6 0.0
0.0 0.0 0.0

-3.732995127041978e6 1.9610637766922373e7 0.0
1.9610637766922373e7 1.5373511545833958e7 0.0
0.0 0.0 0.0

-2.3782119727616166e6 2.0155855275114283e7 0.0
2.0155855275114283e7 2.827992910965809e6 0.0
0.0 0.0 0.0

-2.8649042020750297e6 1.8837375902560327e7 0.0
1.8837375902560327e7 -2.1450991870012856e6 0.0
0.0 0.0 0.0

2.199369757720193e6 8.329857197941262e6 0.0
8.329857197941262e6 -3.706798102236589e7 0.0
0.0 0.0 0.0

-5.365015554367425e6 2.8234989286198743e7 0.0
2.8234989286198743e7 7.572347811767908e6 0.0
0.0 0.0 0.0

-6.445325236443825e6 2.076578535408843e6 0.0
2.076578535408843e6 1.0653255497380432e7 0.0
0.0 0.0 0.0

-3.6045869824002637e6 1.9276574741579875e7 0.0
1.9276574741579875e7 1.4229446971857639e7 0.0
0.0 0.0 0.0

641354.5259339917 1.3047720156583143e7 0.0
1.3047720156583143e7 -1.0544318996044803e7 0.0
0.0 0.0 0.0

3.309894572246654e6 3.5200649840034e6 0.0
3.5200649840034e6 -2.2900721316443823e7 0.0
0.0 0.0 0.0

1.1132135005262913e6 1.403120461861047e7 0.0
1.403120461861047e7 -2.5044505789243385e7 0.0
0.0 0.0 0.0

-5.766477903875369e6 8.117678711971033e6 0.0
8.117678711971033e6 4.948791605150772e6 0.0
0.0 0.0 0.0

-9.635570683881579e6 1.5245190992251396e7 0.0
1.5245190992251396e7 2.9172646824110895e7 0.0
0.0 0.0 0.0

-1.9796363234818613e6 2.0400272978698418e7 0.0
2.0400272978698418e7 -6.449122377261594e6 0.0
0.0 0.0 0.0

-6.631717728731718e6 -5.676564246845426e6 0.0
-5.676564246845426e6 1.5482522156553423e7 0.0
0.0 0.0 0.0

-4.588462609498895e6 1.484740370262714e7 0.0
1.484740370262714e7 5.247457061759496e6 0.0
0.0 0.0 0.0

709398.5952082542 2.2651391277444474e7 0.0
2.2651391277444474e7 -1.1242654858414788e7 0.0
0.0 0.0 0.0

-2.631353483717859e6 1.9555544085137147e7 0.0
1.9555544085137147e7 -2.0637619936094973e7 0.0
0.0 0.0 0.0

874266.5748694362 1.2972323814794138e7 0.0
1.2972323814794138e7 -1.756769913399465e7 0.0
0.0 0.0 0.0

-654350.3242168471 1.0287490399131007e7 0.0
1.0287490399131007e7 -7.365996480650418e6 0.0
0.0 0.0 0.0

-1.3511602399210308e6 1.9644599659607578e7 0.0
1.9644599659607578e7 -4.796469100704959e6 0.0
0.0 0.0 0.0

-2.612340413385054e6 1.9795561240685403e7 0.0
1.9795561240685403e7 2.753068757810927e7 0.0
0.0 0.0 0.0

-1.9469498658478968e6 2.600222394872808e7 0.0
2.600222394872808e7 -1.6909368100918403e6 0.0
0.0 0.0 0.0

-5.912944505338479e6 2.033343050882415e7 0.0
2.033343050882415e7 2.126457074809151e7 0.0
0.0 0.0 0.0

-2.826725971155283e6 2.2360236670655943e7 0.0
2.2360236670655943e7 1.2205093131079327e7 0.0
0.0 0.0 0.0

-21037.958050891757 1.1676691578902846e7 0.0
1.1676691578902846e7 -1.0560392674157655e7 0.0
0.0 0.0 0.0

-3.2869168833680027e6 1.5500269051085385e7 0.0
1.5500269051085385e7 6.247856236198039e6 0.0
0.0 0.0 0.0

31187.601787548512 2.0471639611307897e7 0.0
2.0471639611307897e7 1.5157466085832505e7 0.0
0.0 0.0 0.0

-1.878493375123266e6 1.562513616684771e7 0.0
1.562513616684771e7 -6.857391897354745e6 0.0
0.0 0.0 0.0

-44408.868583908305 1.619718251090614e7 0.0
1.619718251090614e7 -2.7346454171929456e7 0.0
0.0 0.0 0.0

-1.3675130733842691e6 2.067829576520266e7 0.0
2.067829576520266e7 -4.466397414832153e6 0.0
0.0 0.0 0.0

620902.0372165712 1.6592357438117268e7 0.0
1.6592357438117268e7 -1.957859198257849e7 0.0
0.0 0.0 0.0

-2.8005157537490698e6 1.7396690086222056e7 0.0
1.7396690086222056e7 4.381831957922812e6 0.0
0.0 0.0 0.0

-8.726532697489692e6 1.741513622389119e7 0.0
1.741513622389119e7 -3.1978354934745003e7 0.0
0.0 0.0 0.0

-1.3332088653610724e6 2.1677971772759076e7 0.0
2.1677971772759076e7 -4.1675579282286614e6 0.0
0.0 0.0 0.0

6.920162142294734e6 2.177402221949722e7 0.0
2.177402221949722e7 -389791.35941028036 0.0
0.0 0.0 0.0

-7.705217101583224e6 4.0276686982948505e6 0.0
4.0276686982948505e6 4.8454916597262256e7 0.0
0.0 0.0 0.0

-8.47399984947104e6 3.7537738455984004e7 0.0
3.7537738455984004e7 4.309114258950635e6 0.0
0.0 0.0 0.0

-3.1922777618626957e6 2.2567821568752978e7 0.0
2.2567821568752978e7 1.0974467920575613e7 0.0
0.0 0.0 0.0

-7.558949434112281e6 1.6095959688990125e7 0.0
1.6095959688990125e7 3.215855488319061e7 0.0
0.0 0.0 0.0

-3.4161313755737855e6 2.5308597400953818e7 0.0
2.5308597400953818e7 9.899072854483616e6 0.0
0.0 0.0 0.0

-2.4243746068350803e6 1.7372264518729575e7 0.0
1.7372264518729575e7 1.3632532634064162e6 0.0
0.0 0.0 0.0

-759291.3758871472 1.827435704068783e7 0.0
1.827435704068783e7 -7.582738836588204e6 0.0
0.0 0.0 0.0

-1.1193684471830903e6 2.0005492019309264e7 0.0
2.0005492019309264e7 -5.817418002926108e6 0.0
0.0 0.0 0.0

-1.5092635146631235e6 1.1373897234604007e7 0.0
1.1373897234604007e7 -690445.8220852935 0.0
0.0 0.0 0.0

669419.2785941516 2.336048026164714e7 0.0
2.336048026164714e7 -1.0077267894175136e7 0.0
0.0 0.0 0.0

2.4955637234972147e6 6.800128215142344e6 0.0
6.800128215142344e6 -2.2530950256879378e7 0.0
0.0 0.0 0.0

1.3538445756432358e6 6.927415769573205e6 0.0
6.927415769573205e6 -1.0804783869088477e7 0.0
0.0 0.0 0.0

-3.2353363665926736e6 2.185331837140372e7 0.0
2.185331837140372e7 1.479740923979041e7 0.0
0.0 0.0 0.0

-1.7855785898807417e6 2.544960541348634e7 0.0
2.544960541348634e7 -2.8145425496521285e6 0.0
0.0 0.0 0.0

5.967343588302057e6 2.213339140201937e7 0.0
2.213339140201937e7 -2.686396489316421e6 0.0
0.0 0.0 0.0

-1.296620988307343e7 2.796369274014373e7 0.0
2.796369274014373e7 4.732232459159943e6 0.0
0.0 0.0 0.0

2.0286215895337528e6 6.620139968635423e6 0.0
6.620139968635423e6 -1.5189784127716444e7 0.0
0.0 0.0 0.0

-2.307123618565982e6 1.6308554697655464e7 0.0
1.6308554697655464e7 -5.382549391929758e6 0.0
0.0 0.0 0.0

4.873322660028044e7 1.733221311469627e7 0.0
1.733221311469627e7 3.022484070621494e6 0.0
0.0 0.0 0.0

-381832.9599026991 1.0667724665421681e7 0.0
1.0667724665421681e7 -8.715588151129954e6 0.0
0.0 0.0 0.0

2.434952045225378e6 6.990426073475501e6 0.0
6.990426073475501e6 -2.755118969597814e7 0.0
0.0 0.0 0.0

-5.238922509657811e6 1.9324350247831855e7 0.0
1.9324350247831855e7 2.7526286749500208e7 0.0
0.0 0.0 0.0

637849.4201708809 1.763430683313006e7 0.0
1.763430683313006e7 -2.085694625888162e7 0.0
0.0 0.0 0.0

-9.563594762900727e6 1.2575450787708422e7 0.0
1.2575450787708422e7 2.048465350392515e7 0.0
0.0 0.0 0.0

-1.3506904807423346e7 3.606850509505146e7 0.0
3.606850509505146e7 5.210330161762283e6 0.0
0.0 0.0 0.0

-5.103425784783186e6 1.9690753991547707e7 0.0
1.9690753991547707e7 2.6081714805757374e7 0.0
0.0 0.0 0.0

-3.99029071792425e6 2.609002287104952e7 0.0
2.609002287104952e7 9.567660662357943e6 0.0
0.0 0.0 0.0

-2.1323127682240736e7 2.8124818775724668e7 0.0
2.8124818775724668e7 -1.0764938121043429e7 0.0
0.0 0.0 0.0

-3.172741836383573e6 1.902561194785214e7 0.0
1.902561194785214e7 584796.3156709292 0.0
0.0 0.0 0.0

4.526078994926898e7 6.760040121869788e6 0.0
6.760040121869788e6 -910278.5866694897 0.0
0.0 0.0 0.0

-251905.6894412553 2.0343653669639908e7 0.0
2.0343653669639908e7 -9.903479763074048e6 0.0
0.0 0.0 0.0

-1.5285990741459085e6 1.7397678424280588e7 0.0
1.7397678424280588e7 -572042.5139635928 0.0
0.0 0.0 0.0

599021.6131459814 2.404821661037007e7 0.0
2.404821661037007e7 -8.866662461569462e6 0.0
0.0 0.0 0.0

-1.4664626251576828e7 2.429327455204151e7 0.0
2.429327455204151e7 -6.151503382060018e6 0.0
0.0 0.0 0.0

-153004.44559507538 9.961014920291536e6 0.0
9.961014920291536e6 -3.756707166142819e6 0.0
0.0 0.0 0.0

-3.392483638550585e6 2.237531976927525e7 0.0
2.237531976927525e7 1.6007327362848664e7 0.0
0.0 0.0 0.0

-3.8583794133072044e6 1.803761537113998e7 0.0
1.803761537113998e7 -2.1336724923060745e7 0.0
0.0 0.0 0.0

-1.1128693922343595e7 6.050959187152747e6 0.0
6.050959187152747e6 2.9305755846312203e7 0.0
0.0 0.0 0.0

-2.048363746130764e6 2.5153938454106607e7 0.0
2.5153938454106607e7 -1.9080455695991318e6 0.0
0.0 0.0 0.0

-2.199343051850677e6 1.7884489321387958e7 0.0
1.7884489321387958e7 -33180.786422692356 0.0
0.0 0.0 0.0

-1.2622832813035245e6 2.5653956698026568e7 0.0
2.5653956698026568e7 -1.123290554379401e6 0.0
0.0 0.0 0.0

314509.55407980084 1.815751735334811e7 0.0
1.815751735334811e7 -1.2765232250938294e7 0.0
0.0 0.0 0.0

-6.44529551850721e6 9.135449381288983e6 0.0
9.135449381288983e6 1.2547647469950538e7 0.0
0.0 0.0 0.0

-3.1365859051405005e6 2.5808262150034677e7 0.0
2.5808262150034677e7 6.253696846700718e6 0.0
0.0 0.0 0.0

-3.779341263312471e6 2.1738160855706736e7 0.0
2.1738160855706736e7 1.8288336365771864e7 0.0
0.0 0.0 0.0

-2.9843193939251304e6 2.1358226660310213e7 0.0
2.1358226660310213e7 1.2863783903417535e7 0.0
0.0 0.0 0.0

-789324.6506169054 1.514697556391798e7 0.0
1.514697556391798e7 -6.091671160986814e6 0.0
0.0 0.0 0.0

1.1287124582562372e6 1.2735474746028442e7 0.0
1.2735474746028442e7 -2.9838980689612694e7 0.0
0.0 0.0 0.0

-3.0219546535397335e6 2.065962962742184e7 0.0
2.065962962742184e7 1.9621458187035169e6 0.0
0.0 0.0 0.0

175673.84375307988 1.9760208165252607e7 0.0
1.9760208165252607e7 -1.5376160801048312e7 0.0
0.0 0.0 0.0

-212678.22091172077 1.7880459673460517e7 0.0
1.7880459673460517e7 -1.4472747865811992e7 0.0
0.0 0.0 0.0

-433401.7331552736 2.569679633291267e7 0.0
2.569679633291267e7 -6.487450227776382e6 0.0
0.0 0.0 0.0

-966016.6321764388 2.062095825163033e7 0.0
2.062095825163033e7 -1.026987135216587e7 0.0
0.0 0.0 0.0

1.4039434414719343e6 1.30737308975346e7 0.0
1.30737308975346e7 -2.4006794840439048e7 0.0
0.0 0.0 0.0

1.511524861926585e6 6.985891877288986e6 0.0
6.985891877288986e6 -6.726529155114545e6 0.0
0.0 0.0 0.0

-2.455352024385559e6 6.586870482228165e6 0.0
6.586870482228165e6 4.354442800145134e6 0.0
0.0 0.0 0.0

1.1604206240303975e6 3.4035766319214e7 0.0
3.4035766319214e7 -854510.7006605327 0.0
0.0 0.0 0.0

-3.1948565461695623e6 1.961057389310201e7 0.0
1.961057389310201e7 1.9737719020444856e6 0.0
0.0 0.0 0.0

-1.4434043497203288e6 2.1969356781756938e7 0.0
2.1969356781756938e7 -7.929697274818352e6 0.0
0.0 0.0 0.0

3.2798438690343034e6 4.207513753591414e6 0.0
4.207513753591414e6 -1.4316790955016594e7 0.0
0.0 0.0 0.0

-8.06350418425066e6 6.437907273624447e6 0.0
6.437907273624447e6 4.878155274324972e7 0.0
0.0 0.0 0.0

1.5158800163764274e6 1.0504101383622639e7 0.0
1.0504101383622639e7 -1.8376820742046665e7 0.0
0.0 0.0 0.0

6.579364530306093e6 2.6365363321437053e7 0.0
2.6365363321437053e7 -6.205658693143237e6 0.0
0.0 0.0 0.0

1.300165315819251e6 2.7381136265768364e7 0.0
2.7381136265768364e7 -5.901591263491385e6 0.0
0.0 0.0 0.0

-3.1008928366457187e6 2.6383396058553755e7 0.0
2.6383396058553755e7 5.183984036393568e6 0.0
0.0 0.0 0.0

2.945336413152905e6 3.5571659933810853e6 0.0
3.5571659933810853e6 -3.235318677452068e7 0.0
0.0 0.0 0.0

-997427.1739686795 2.295506578079946e7 0.0
2.295506578079946e7 -4.829461498937983e6 0.0
0.0 0.0 0.0

-376593.2598098449 2.431716383268152e7 0.0
2.431716383268152e7 -6.2489634577548085e6 0.0
0.0 0.0 0.0

2.214043901754152e6 7.843564634364536e6 0.0
7.843564634364536e6 -3.028623563942319e7 0.0
0.0 0.0 0.0

-778526.0462358941 2.766916953379892e7 0.0
2.766916953379892e7 -3.5110274720024355e6 0.0
0.0 0.0 0.0

3.020777609691167e6 2.268642082487187e7 0.0
2.268642082487187e7 -8.51025162261541e6 0.0
0.0 0.0 0.0

-1.8393447451393462e6 2.236303320423544e7 0.0
2.236303320423544e7 -5.749040870432614e6 0.0
0.0 0.0 0.0

-911326.6837448366 1.6937228827621303e7 0.0
1.6937228827621303e7 -2.9322646466615718e7 0.0
0.0 0.0 0.0

1.6698528391302153e6 7.494320669371115e6 0.0
7.494320669371115e6 -1.3986221570927605e7 0.0
0.0 0.0 0.0

503025.99784803577 1.2654014853257943e7 0.0
1.2654014853257943e7 -1.4803374098891143e7 0.0
0.0 0.0 0.0

-537138.5366004598 2.2936571725852802e7 0.0
2.2936571725852802e7 -8.698433532934714e6 0.0
0.0 0.0 0.0

2.228280429296872e6 2.2562471242968135e7 0.0
2.2562471242968135e7 -1.0215697468635442e7 0.0
0.0 0.0 0.0

-1.1682119170099788e6 2.1221903104273476e7 0.0
2.1221903104273476e7 -9.102171209046e6 0.0
0.0 0.0 0.0

2.6289186193440184e6 8.202626298539627e6 0.0
8.202626298539627e6 -1.4785335451935023e7 0.0
0.0 0.0 0.0

3.397972365077805e6 4.850117075015434e6 0.0
4.850117075015434e6 -2.7075634809687734e7 0.0
0.0 0.0 0.0

266994.533176261 1.78738168807209e7 0.0
1.78738168807209e7 -1.7015438084063284e7 0.0
0.0 0.0 0.0

104460.29522052128 1.3331406089795576e7 0.0
1.3331406089795576e7 -1.3540667337900128e7 0.0
0.0 0.0 0.0

-3.2959706558397305e6 1.789669424837435e7 0.0
1.789669424837435e7 478888.0686944502 0.0
0.0 0.0 0.0

-1.059524367289571e7 2.8341705431008983e7 0.0
2.8341705431008983e7 5.912496653318577e6 0.0
0.0 0.0 0.0

940152.2934437543 1.5399777704716673e7 0.0
1.5399777704716673e7 7.76108400750753e7 0.0
0.0 0.0 0.0

-1.1530063867853181e7 6.635792101283363e6 0.0
6.635792101283363e6 2.700879903690364e7 0.0
0.0 0.0 0.0

1.3628195529194972e6 2.5567831869802587e7 0.0
2.5567831869802587e7 -8.725764496401373e6 0.0
0.0 0.0 0.0

-3.35808420641178e6 1.8520612624708675e7 0.0
1.8520612624708675e7 1.945737745712745e6 0.0
0.0 0.0 0.0

-9.369942118586434e6 8.745347608201478e6 0.0
8.745347608201478e6 3.842985311881202e7 0.0
0.0 0.0 0.0

3.414472031034286e6 4.898234850749666e6 0.0
4.898234850749666e6 -2.3982563313170224e7 0.0
0.0 0.0 0.0

-2.520684593204611e6 1.9634784656561624e7 0.0
1.9634784656561624e7 4.219499839873211e6 0.0
0.0 0.0 0.0

396131.8960064007 1.723912833238594e7 0.0
1.723912833238594e7 -2.2665370902654316e7 0.0
0.0 0.0 0.0

548974.9269040003 2.4817366726654813e7 0.0
2.4817366726654813e7 -7.79746544420439e6 0.0
0.0 0.0 0.0

-698986.4461152854 2.321010886865128e7 0.0
2.321010886865128e7 -5.7399414261159375e6 0.0
0.0 0.0 0.0

-4.50915337599071e6 1.721722805428585e7 0.0
1.721722805428585e7 8.15660434385307e6 0.0
0.0 0.0 0.0

-1.7815868024624449e6 1.881013624569366e7 0.0
1.881013624569366e7 -2.562541940955887e6 0.0
0.0 0.0 0.0

-8.68731486374113e6 1.0878421871808477e7 0.0
1.0878421871808477e7 1.2495674774163015e7 0.0
0.0 0.0 0.0

-4.875061807656254e7 2.7224343272813056e7 0.0
2.7224343272813056e7 3.6808404340904057e6 0.0
0.0 0.0 0.0

5.131485660911974e6 2.261097525448981e7 0.0
2.261097525448981e7 1.1857049135966064e7 0.0
0.0 0.0 0.0

-3.0065174572374206e6 2.348598144152064e7 0.0
2.348598144152064e7 1.2435520354842663e7 0.0
0.0 0.0 0.0

-1.5031909209914776e6 2.7524924311740316e7 0.0
2.7524924311740316e7 1.066978649148653e6 0.0
0.0 0.0 0.0

1.8358043203779534e6 1.0106784129828887e7 0.0
1.0106784129828887e7 -2.2464394878192663e7 0.0
0.0 0.0 0.0

2.2665893881961238e6 8.327551414026499e6 0.0
8.327551414026499e6 -2.7046257911851358e7 0.0
0.0 0.0 0.0

2.202516490344206e6 1.0281184148192292e7 0.0
1.0281184148192292e7 -3.1980885779422835e7 0.0
0.0 0.0 0.0

-3.9185693374169646e6 1.7377879651666187e7 0.0
1.7377879651666187e7 4.977728984976824e6 0.0
0.0 0.0 0.0

-1.034153478585573e7 1.463085955338625e7 0.0
1.463085955338625e7 2.699978677056735e7 0.0
0.0 0.0 0.0

-6.490841448458371e6 1.1835000935403835e7 0.0
1.1835000935403835e7 1.3964914756071633e7 0.0
0.0 0.0 0.0

4.783522216110939e6 2.2467525732756212e7 0.0
2.2467525732756212e7 -4.735757606734788e6 0.0
0.0 0.0 0.0

-3.1083267062139707e6 1.842671681918783e7 0.0
1.842671681918783e7 -1.966169342620409e7 0.0
0.0 0.0 0.0

-3.5498922928083064e6 2.610284523225111e7 0.0
2.610284523225111e7 7.9988818346652705e6 0.0
0.0 0.0 0.0

7.386928339896091e6 3.2965962259965368e7 0.0
3.2965962259965368e7 -4.27507614902967e6 0.0
0.0 0.0 0.0

-8.702817108313344e6 2.8471073279697813e7 0.0
2.8471073279697813e7 6.753586160681801e6 0.0
0.0 0.0 0.0

-4.611290400364536e6 2.0665710171893086e7 0.0
2.0665710171893086e7 2.1598534845289677e7 0.0
0.0 0.0 0.0

718327.8858085014 7.286439777039649e6 0.0
7.286439777039649e6 -5.2299971975705035e7 0.0
0.0 0.0 0.0

60847.501779316925 1.729349094755073e7 0.0
1.729349094755073e7 -1.1260064282491056e7 0.0
0.0 0.0 0.0

3.2202440067318087e6 2.85903387073403e6 0.0
2.85903387073403e6 -1.1734392007378409e7 0.0
0.0 0.0 0.0

2.518417054772027e6 8.775318118930165e6 0.0
8.775318118930165e6 -3.3001361215909403e7 0.0
0.0 0.0 0.0

-3.0161700687265983e6 2.693980544539961e7 0.0
2.693980544539961e7 4.1636795352212125e6 0.0
0.0 0.0 0.0

-9.640843986502714e6 1.5099814945655817e7 0.0
1.5099814945655817e7 2.5686529986541852e7 0.0
0.0 0.0 0.0

-5.119782136631779e6 2.020294344394491e7 0.0
2.020294344394491e7 2.329256808630854e7 0.0
0.0 0.0 0.0

-3.0611116907144957e6 2.4260312071559206e7 0.0
2.4260312071559206e7 1.1672500560152646e7 0.0
0.0 0.0 0.0

2.1364164816416763e6 1.0722346232562654e7 0.0
1.0722346232562654e7 -1.6341193508406831e7 0.0
0.0 0.0 0.0

-7.196047853482127e6 2.3746200088611916e7 0.0
2.3746200088611916e7 -1.1576849166363755e7 0.0
0.0 0.0 0.0

1.6430202663788912e6 3.372239883832914e7 0.0
3.372239883832914e7 -2.532930172798582e6 0.0
0.0 0.0 0.0

-3.8283078120483444e6 2.808187115986571e7 0.0
2.808187115986571e7 5.837327210944761e6 0.0
0.0 0.0 0.0

-4.84253371118157e6 2.006384318860219e7 0.0
2.006384318860219e7 2.4635342864530496e7 0.0
0.0 0.0 0.0

-6.093561877944356e6 6.573088773961654e7 0.0
6.573088773961654e7 -1.1809128929712547e7 0.0
0.0 0.0 0.0

-6.202451371111398e6 2.291609652676911e7 0.0
2.291609652676911e7 -1.3962785469604619e7 0.0
0.0 0.0 0.0

-4.186660326326206e6 1.925131314137212e7 0.0
1.925131314137212e7 1.0503977737855043e7 0.0
0.0 0.0 0.0

-1.079385656664947e7 2.6905328255018396e6 0.0
2.6905328255018396e6 1.584083382453333e7 0.0
0.0 0.0 0.0

-1.0660573263039717e6 1.8967209891229004e7 0.0
1.8967209891229004e7 -6.187500476442577e6 0.0
0.0 0.0 0.0

-1.169822309888982e7 2.465024027568212e7 0.0
2.465024027568212e7 -6.620007565945053e6 0.0
0.0 0.0 0.0

-8.772330460842766e6 3.588774254962162e7 0.0
3.588774254962162e7 3.964936274666072e6 0.0
0.0 0.0 0.0

-453469.1446734583 2.182883924643241e7 0.0
2.182883924643241e7 -8.122347912488923e6 0.0
0.0 0.0 0.0

-1.1589280022814153e6 2.3733307915382165e7 0.0
2.3733307915382165e7 -7.100511394940175e6 0.0
0.0 0.0 0.0

-1.0586665280036042e7 4.082178426926883e6 0.0
4.082178426926883e6 2.4739774230423823e7 0.0
0.0 0.0 0.0

3.2850575972173866e6 6.06049524321173e6 0.0
6.06049524321173e6 -2.1359763254626993e7 0.0
0.0 0.0 0.0

1.9955410879269273e6 3.273745369835996e7 0.0
3.273745369835996e7 -1.9431047244671166e6 0.0
0.0 0.0 0.0

-4.17608549576014e6 2.1181663993136305e7 0.0
2.1181663993136305e7 1.999657296371658e7 0.0
0.0 0.0 0.0

-1.652833025384805e7 2.623410621284512e7 0.0
2.623410621284512e7 -3.713470338835569e6 0.0
0.0 0.0 0.0

-2.293933551349506e6 6.121437397199079e6 0.0
6.121437397199079e6 -1.0669128148489692e6 0.0
0.0 0.0 0.0

-1.3056171614411484e7 2.6078061638869915e7 0.0
2.6078061638869915e7 -1.0702640074888207e7 0.0
0.0 0.0 0.0

-1.5662555182129717e6 2.2625330836228546e7 0.0
2.2625330836228546e7 -6.652016642098478e6 0.0
0.0 0.0 0.0

451048.55093910825 1.7239687034069814e7 0.0
1.7239687034069814e7 -1.8281365239810355e7 0.0
0.0 0.0 0.0

-1.1431279918406077e6 2.101414741812994e7 0.0
2.101414741812994e7 -5.477172599300497e6 0.0
0.0 0.0 0.0

1.4761664541618098e6 1.103034177459395e7 0.0
1.103034177459395e7 -1.9195611093986746e7 0.0
0.0 0.0 0.0

-1.9714206826343164e6 2.2116145991487503e7 0.0
2.2116145991487503e7 520716.02917249536 0.0
0.0 0.0 0.0

-1.087786630769502e7 4.959183330952609e6 0.0
4.959183330952609e6 1.524266487860259e7 0.0
0.0 0.0 0.0

-8.563065433841761e6 1.4840969454516334e7 0.0
1.4840969454516334e7 2.1103556400242537e7 0.0
0.0 0.0 0.0

-3.711989150202558e6 1.697478879403089e7 0.0
1.697478879403089e7 1.0865998533665355e7 0.0
0.0 0.0 0.0

-5.7697233065135125e6 1.815106917242486e7 0.0
1.815106917242486e7 -1.8879448780755024e7 0.0
0.0 0.0 0.0

-3.1594267664052565e6 1.7257723194032393e7 0.0
1.7257723194032393e7 7.532923195761591e6 0.0
0.0 0.0 0.0

-3.798396746693574e7 3.1334586036418226e7 0.0
3.1334586036418226e7 -5.373479923040833e6 0.0
0.0 0.0 0.0

-3.3947659450510116e6 1.9095616452582646e7 0.0
1.9095616452582646e7 3.334232333534168e6 0.0
0.0 0.0 0.0

-2.0942435045548773e6 2.1129019471386112e7 0.0
2.1129019471386112e7 -3.5503838990318733e6 0.0
0.0 0.0 0.0

-5.4973276873897836e7 2.6337826030503087e7 0.0
2.6337826030503087e7 1.7790561355610527e6 0.0
0.0 0.0 0.0

3.8239837566044168e6 2.2722195888163988e7 0.0
2.2722195888163988e7 -6.81291857548923e6 0.0
0.0 0.0 0.0

-2.577959780169357e6 1.7987098414689347e7 0.0
1.7987098414689347e7 2.8542510728391e6 0.0
0.0 0.0 0.0

1.4711007232557517e6 1.2144608554807698e7 0.0
1.2144608554807698e7 -1.3982064261345891e7 0.0
0.0 0.0 0.0

-1.7189925394636956e6 2.797099217016723e7 0.0
2.797099217016723e7 1.995044742709461e6 0.0
0.0 0.0 0.0

1.1825745819182778e6 1.2724763018498026e7 0.0
1.2724763018498026e7 -1.9513570566929717e7 0.0
0.0 0.0 0.0

1.0966432710195612e6 1.369816451712724e7 0.0
1.369816451712724e7 -2.092058071660337e7 0.0
0.0 0.0 0.0

-7.466318326293501e6 9.527944685316177e6 0.0
9.527944685316177e6 8.966271635662243e6 0.0
0.0 0.0 0.0

-3.6068830029137344e6 2.1721059328131802e7 0.0
2.1721059328131802e7 1.0709590844939576e7 0.0
0.0 0.0 0.0

2.868284038026046e6 8.090948795357045e6 0.0
8.090948795357045e6 -2.819589424100357e7 0.0
0.0 0.0 0.0

-1.134648350123594e7 8.124982384088452e6 0.0
8.124982384088452e6 2.126618876322361e7 0.0
0.0 0.0 0.0

1.1568839881727658e6 1.3187519010781175e7 0.0
1.3187519010781175e7 -2.024599736661089e7 0.0
0.0 0.0 0.0

-9.261683124082486e7 1.0475131304684246e7 0.0
1.0475131304684246e7 3.5695309099445418e6 0.0
0.0 0.0 0.0

1.0307067553989533e6 7.158801613420305e6 0.0
7.158801613420305e6 -4.8651840265005395e7 0.0
0.0 0.0 0.0

-3.796582784161505e6 2.0339302597058613e7 0.0
2.0339302597058613e7 1.0044302125055052e7 0.0
0.0 0.0 0.0

-3.3139957585985917e6 2.2056873371179994e7 0.0
2.2056873371179994e7 8.031143379244028e6 0.0
0.0 0.0 0.0

-4.9690312123019025e6 2.7490675760066967e7 0.0
2.7490675760066967e7 8.707366237877294e6 0.0
0.0 0.0 0.0

-1.9781864109713421e6 1.93670355833067e7 0.0
1.93670355833067e7 -6.826625071242191e6 0.0
0.0 0.0 0.0

-3.925719689878382e6 2.2056418910307482e7 0.0
2.2056418910307482e7 1.8592577156308692e7 0.0
0.0 0.0 0.0

522549.92631490435 1.5210185089161688e7 0.0
1.5210185089161688e7 -1.685113871161925e7 0.0
0.0 0.0 0.0

1.8896817490895838e6 1.0308709137719037e7 0.0
1.0308709137719037e7 -2.6909863194192354e7 0.0
0.0 0.0 0.0

-1.9728433363432824e6 2.7546053167593144e7 0.0
2.7546053167593144e7 2.8567103643459473e6 0.0
0.0 0.0 0.0

1.9675305675285894e6 2.895658399802714e7 0.0
2.895658399802714e7 -5.742665767261982e6 0.0
0.0 0.0 0.0

1.7270714224909265e6 9.584037707687015e6 0.0
9.584037707687015e6 -3.897705527124115e7 0.0
0.0 0.0 0.0

-4.799709704132558e6 1.4347682069184542e7 0.0
1.4347682069184542e7 1.1560808528897367e7 0.0
0.0 0.0 0.0

-7.156611624483744e6 2.8301253574912477e7 0.0
2.8301253574912477e7 7.454618510003396e6 0.0
0.0 0.0 0.0

-4.776731765694913e7 7.069699298715807e7 0.0
7.069699298715807e7 -2.324765087238658e6 0.0
0.0 0.0 0.0

-9.975994692411559e6 1.0755442288238464e7 0.0
1.0755442288238464e7 3.376358919962009e7 0.0
0.0 0.0 0.0

-4.729004548708014e6 1.7002131900391355e7 0.0
1.7002131900391355e7 -1.695937851160353e7 0.0
0.0 0.0 0.0

-1.3042690558308726e6 5.9252846479137875e6 0.0
5.9252846479137875e6 2.198384639246275e6 0.0
0.0 0.0 0.0

-8.202193216551738e6 -3.153581064598143e6 0.0
-3.153581064598143e6 3.36148277366568e7 0.0
0.0 0.0 0.0

3.377525215867514e6 1.8405538795975167e6 0.0
1.8405538795975167e6 -3.3596815977859855e7 0.0
0.0 0.0 0.0

-7.853967351193241e6 2.492947138725114e7 0.0
2.492947138725114e7 2.223716834796757e6 0.0
0.0 0.0 0.0

-1.5676770564843714e6 1.883370588518012e7 0.0
1.883370588518012e7 -2.0937346090817202e7 0.0
0.0 0.0 0.0

-6.105609499719627e6 1.6511675010698814e7 0.0
1.6511675010698814e7 3.6166492470902376e7 0.0
0.0 0.0 0.0

1.295682086312417e6 2.4743411791577812e7 0.0
2.4743411791577812e7 -9.698044323518781e6 0.0
0.0 0.0 0.0

1.2090244948445521e6 1.2252795746723445e7 0.0
1.2252795746723445e7 -1.8735237882719606e7 0.0
0.0 0.0 0.0

-1.7608196952029578e6 1.6975127238195945e7 0.0
1.6975127238195945e7 4.729651687391319e7 0.0
0.0 0.0 0.0

-1.9891906026199043e6 1.9456543041256487e7 0.0
1.9456543041256487e7 -1.1536788933756375e6 0.0
0.0 0.0 0.0

-1.1162044951368198e6 1.9074872188297346e7 0.0
1.9074872188297346e7 3.461477203287603e7 0.0
0.0 0.0 0.0

-1.1406852329410566e6 1.91868144664448e7 0.0
1.91868144664448e7 -1.9378432722816724e7 0.0
0.0 0.0 0.0

8.030723302442305e7 1.0176819464187441e7 0.0
1.0176819464187441e7 2.222790969186008e6 0.0
0.0 0.0 0.0

501496.9694850454 2.5564766001454927e7 0.0
2.5564766001454927e7 -6.775690014420922e6 0.0
0.0 0.0 0.0

3.1691738218030417e6 3.252287781819017e7 0.0
3.252287781819017e7 -2.6915088042831346e6 0.0
0.0 0.0 0.0

1.0050531514873877e6 1.3389041887389392e7 0.0
1.3389041887389392e7 -1.8243542696567357e7 0.0
0.0 0.0 0.0

1.956394634465728e6 1.2280720452824865e7 0.0
1.2280720452824865e7 -1.8801101605251446e7 0.0
0.0 0.0 0.0

-1.6936846084420455e6 1.86747060008038e7 0.0
1.86747060008038e7 -8.215377014635042e6 0.0
0.0 0.0 0.0

-1.0683105930402365e7 1.227761158605521e7 0.0
1.227761158605521e7 2.7263539597956408e7 0.0
0.0 0.0 0.0

-2.893867966495906e6 1.7474636165230263e7 0.0
1.7474636165230263e7 -2.8917299814115904e7 0.0
0.0 0.0 0.0

3.067106566090953e6 2.7991159027146865e6 0.0
2.7991159027146865e6 -1.0571187078485763e7 0.0
0.0 0.0 0.0

667981.0382380849 1.6066469579740219e7 0.0
1.6066469579740219e7 -1.8223029650463022e7 0.0
0.0 0.0 0.0

-2.841087342458293e7 3.5508228325510204e7 0.0
3.5508228325510204e7 7.082616343749942e6 0.0
0.0 0.0 0.0

-3.5661966253018305e6 1.276935974056781e7 0.0
1.276935974056781e7 3834.3395909280516 0.0
0.0 0.0 0.0

424473.8405063972 1.7099054782297406e7 0.0
1.7099054782297406e7 5.600872265744834e7 0.0
0.0 0.0 0.0

-3.170714715366842e6 2.227338964761212e7 0.0
2.227338964761212e7 1.5097836559970949e7 0.0
0.0 0.0 0.0

7.837524305138356e6 2.271975938400163e7 0.0
2.271975938400163e7 4.296158331262827e6 0.0
0.0 0.0 0.0

-5.8623445175143955e6 2.796574005144479e7 0.0
2.796574005144479e7 8.047459894115312e6 0.0
0.0 0.0 0.0

526803.3628978941 2.626713456032291e7 0.0
2.626713456032291e7 -5.639921572464204e6 0.0
0.0 0.0 0.0

-3.9020831696154834e6 2.7574337983177263e7 0.0
2.7574337983177263e7 6.618487043196439e6 0.0
0.0 0.0 0.0

-1.064327506144591e7 1.2724516181576129e7 0.0
1.2724516181576129e7 2.5338876530232847e7 0.0
0.0 0.0 0.0

-7.386597484349079e6 1.6667847771605443e7 0.0
1.6667847771605443e7 2.134629909162974e7 0.0
0.0 0.0 0.0

-1.087482956041466e7 6.873012039367288e6 0.0
6.873012039367288e6 1.4080290710144594e7 0.0
0.0 0.0 0.0

1.9431635768542763e7 1.2661066853433862e7 0.0
1.2661066853433862e7 1.1349887563005006e6 0.0
0.0 0.0 0.0

-682812.127743707 1.95548943695165e7 0.0
1.95548943695165e7 -1.7957109661186855e7 0.0
0.0 0.0 0.0

49730.71470226953 2.6151909559167463e7 0.0
2.6151909559167463e7 -4.932765724738232e6 0.0
0.0 0.0 0.0

-2.8574820444389842e6 2.7430242491229914e7 0.0
2.7430242491229914e7 3.1873144961390584e6 0.0
0.0 0.0 0.0

-9.351608766413437e6 -2.250489719155834e6 0.0
-2.250489719155834e6 2.448925253663777e7 0.0
0.0 0.0 0.0

-3.5430979633290134e6 2.9093244931844503e7 0.0
2.9093244931844503e7 4.209146150174695e6 0.0
0.0 0.0 0.0

-2.6566219266371457e6 1.85415727471375e7 0.0
1.85415727471375e7 4.288394563608026e6 0.0
0.0 0.0 0.0

-4.624331100813067e6 2.973138551946863e7 0.0
2.973138551946863e7 5.185835105750791e6 0.0
0.0 0.0 0.0

7.492945330102817e6 2.1520979423345625e7 0.0
2.1520979423345625e7 2.3570380063827215e6 0.0
0.0 0.0 0.0

2.2526229085771367e6 3.03101985361933e7 0.0
3.03101985361933e7 -3.595052581940281e6 0.0
0.0 0.0 0.0

2.938566232731173e6 4.9409291897698175e6 0.0
4.9409291897698175e6 -2.71439220974586e7 0.0
0.0 0.0 0.0

-1.0336579194152294e7 1.1157271033109304e7 0.0
1.1157271033109304e7 3.150785328358971e7 0.0
0.0 0.0 0.0

478598.902188445 2.148856207779923e7 0.0
2.148856207779923e7 -1.0501869846980147e7 0.0
0.0 0.0 0.0

-241242.99103689287 2.00204529194825e7 0.0
2.00204529194825e7 -1.6523497214686308e7 0.0
0.0 0.0 0.0

-1.993077061048652e6 1.835132421449798e7 0.0
1.835132421449798e7 -1.3394090709768434e6 0.0
0.0 0.0 0.0

-4.602561148407321e6 2.324988388749474e7 0.0
2.324988388749474e7 6.402851004487088e6 0.0
0.0 0.0 0.0

2.420503390293093e6 2.564566597455744e7 0.0
2.564566597455744e7 -8.536566281347333e6 0.0
0.0 0.0 0.0

-246757.0144222672 1.9944945273399405e7 0.0
1.9944945273399405e7 -9.24536801553451e6 0.0
0.0 0.0 0.0

-1.0128210794840954e7 1.4835218444605522e7 0.0
1.4835218444605522e7 2.095853384737941e7 0.0
0.0 0.0 0.0

2.5600525354421996e6 1.0115794817256726e7 0.0
1.0115794817256726e7 -2.239786420709345e7 0.0
0.0 0.0 0.0

-1.3706365836874903e6 2.007059633359192e7 0.0
2.007059633359192e7 -1.725957605738654e7 0.0
0.0 0.0 0.0

2.9023396680360558e6 2.232143977204993e7 0.0
2.232143977204993e7 1.3752316987431986e7 0.0
0.0 0.0 0.0

-1.9282905904357731e6 2.1396411777590837e7 0.0
2.1396411777590837e7 -6.091817637678072e6 0.0
0.0 0.0 0.0

2.440595447183814e6 7.699004042419411e6 0.0
7.699004042419411e6 -3.7663547178031e7 0.0
0.0 0.0 0.0

2.31657335360883e6 5.648644870618167e6 0.0
5.648644870618167e6 -5.008024208528993e7 0.0
0.0 0.0 0.0

-4.575002557645548e6 1.7697450507674713e7 0.0
1.7697450507674713e7 9.582004760137536e6 0.0
0.0 0.0 0.0

-2.6485272987735723e6 2.7893890395275794e7 0.0
2.7893890395275794e7 2.2898238763772566e6 0.0
0.0 0.0 0.0

-1.0405175332305565e7 4.085016385951249e6 0.0
4.085016385951249e6 2.8702648386334505e7 0.0
0.0 0.0 0.0

-6.764746031299515e6 1.6548524820561785e7 0.0
1.6548524820561785e7 1.4929234061109275e7 0.0
0.0 0.0 0.0

-3.515168424586529e6 2.135828839035183e7 0.0
2.135828839035183e7 9.62435407417256e6 0.0
0.0 0.0 0.0

2.4496857499685213e6 1.0343482487881375e7 0.0
1.0343482487881375e7 -2.0398276096795894e7 0.0
0.0 0.0 0.0

3.2586724132404085e6 1.7147564626048447e6 0.0
1.7147564626048447e6 -3.470498663453345e7 0.0
0.0 0.0 0.0

-3.1227118917005714e6 2.0023425644390617e7 0.0
2.0023425644390617e7 1.2404727343796767e7 0.0
0.0 0.0 0.0

3.534147413037911e6 1.8607860327485614e7 0.0
1.8607860327485614e7 6.890634044003683e7 0.0
0.0 0.0 0.0

-2.494857311401492e6 2.2417726391288467e7 0.0
2.2417726391288467e7 8.587101924700959e6 0.0
0.0 0.0 0.0

330872.58529568487 2.6866051745895352e7 0.0
2.6866051745895352e7 -4.761247603967949e6 0.0
0.0 0.0 0.0

1.027873828218556e6 1.4217126022964763e7 0.0
1.4217126022964763e7 -1.939296667346775e7 0.0
0.0 0.0 0.0

-346412.9651709148 2.9129427155655198e7 0.0
2.9129427155655198e7 -1.1323474082817866e6 0.0
0.0 0.0 0.0

-2.1749300371609954e6 2.7080388459452078e7 0.0
2.7080388459452078e7 3.762899837648931e6 0.0
0.0 0.0 0.0

8.477139987897422e6 1.863163616697005e7 0.0
1.863163616697005e7 4.1173691505013704e7 0.0
0.0 0.0 0.0

3.0956456147323544e6 2.8147716759316428e6 0.0
2.8147716759316428e6 -1.1197241728686625e7 0.0
0.0 0.0 0.0

4.0475245327359955e6 2.3401737895908423e7 0.0
2.3401737895908423e7 -7.761010543805903e6 0.0
0.0 0.0 0.0

3.3381577591376416e6 3.9204826318829814e6 0.0
3.9204826318829814e6 -1.9497444590804286e7 0.0
0.0 0.0 0.0

-9.646810048923811e6 1.3379004735189866e7 0.0
1.3379004735189866e7 2.1465410743097283e7 0.0
0.0 0.0 0.0

-2.9800397447705306e6 2.5604243701833136e7 0.0
2.5604243701833136e7 5.319270205948213e6 0.0
0.0 0.0 0.0

-1.0971522411176376e6 2.19956208316227e7 0.0
2.19956208316227e7 -5.154347313832249e6 0.0
0.0 0.0 0.0

2.092705666138908e6 1.1252656425431162e7 0.0
1.1252656425431162e7 -1.7173822539948888e7 0.0
0.0 0.0 0.0

-49949.41946524987 2.0313613244397763e7 0.0
2.0313613244397763e7 -1.0778620327568062e7 0.0
0.0 0.0 0.0

154911.5257004171 2.7509875176510133e7 0.0
2.7509875176510133e7 -3.854386180018798e6 0.0
0.0 0.0 0.0

-1.015276376779883e7 5.889452678789393e6 0.0
5.889452678789393e6 3.300446424379555e7 0.0
0.0 0.0 0.0

-6.276589443361508e6 1.8224947097761773e7 0.0
1.8224947097761773e7 2.1356780570697777e7 0.0
0.0 0.0 0.0

-1.1072004922519164e7 1.0201645122977154e7 0.0
1.0201645122977154e7 2.2818309571479216e7 0.0
0.0 0.0 0.0

-3.597286746308633e6 1.797476779045267e7 0.0
1.797476779045267e7 3.3983861203051815e6 0.0
0.0 0.0 0.0

-3.04069876639034e6 2.7078552009524185e7 0.0
2.7078552009524185e7 7.400601033066677e6 0.0
0.0 0.0 0.0

-2.516761983577833e6 2.135363444725448e7 0.0
2.135363444725448e7 -2.773081893565517e6 0.0
0.0 0.0 0.0

-1.8776423476040585e6 2.8946361335932106e7 0.0
2.8946361335932106e7 -198307.75524824322 0.0
0.0 0.0 0.0

-8.158462957046518e6 1.0144002784116546e7 0.0
1.0144002784116546e7 1.0831662689878887e7 0.0
0.0 0.0 0.0

-7.387108550372742e6 1.6098579923519243e7 0.0
1.6098579923519243e7 2.047943944653318e7 0.0
0.0 0.0 0.0

-2.4323644295498575e6 2.830621442148442e7 0.0
2.830621442148442e7 1.47021900698958e6 0.0
0.0 0.0 0.0

2.2026076630894374e6 2.4442181621956374e7 0.0
2.4442181621956374e7 -9.688920897079121e6 0.0
0.0 0.0 0.0

1.4939444724728543e7 2.4416672683975723e7 0.0
2.4416672683975723e7 1.2619072198387355e7 0.0
0.0 0.0 0.0

-2.862314336619039e6 1.7933727997059427e7 0.0
1.7933727997059427e7 5.856516147265322e6 0.0
0.0 0.0 0.0

6.684671628269292e6 2.7576832401083466e7 0.0
2.7576832401083466e7 -6.154914294324545e6 0.0
0.0 0.0 0.0

-2.9481463230355373e6 1.8924226890774623e7 0.0
1.8924226890774623e7 8.546062534359898e6 0.0
0.0 0.0 0.0

-6.333321463945406e6 1.775131135634376e7 0.0
1.775131135634376e7 2.056550980949463e7 0.0
0.0 0.0 0.0

-5.969220271476791e6 1.112855332384128e7 0.0
1.112855332384128e7 1.2347256371676967e7 0.0
0.0 0.0 0.0

-2.185630148623253e6 2.864586146473123e7 0.0
2.864586146473123e7 573735.1870653792 0.0
0.0 0.0 0.0

3.260306366793817e6 6.3776910127153825e6 0.0
6.3776910127153825e6 -2.6594627131284535e7 0.0
0.0 0.0 0.0

2.9087462631114908e6 8.569695688856687e6 0.0
8.569695688856687e6 -2.487396739522216e7 0.0
0.0 0.0 0.0

-4.256505998965517e6 2.692801200443355e7 0.0
2.692801200443355e7 9.257309790552389e6 0.0
0.0 0.0 0.0

-226586.54705662793 1.2921816841397146e7 0.0
1.2921816841397146e7 -7.147922572774707e6 0.0
0.0 0.0 0.0

2.03762674721626e6 1.1785432475799229e7 0.0
1.1785432475799229e7 -1.7977603203905486e7 0.0
0.0 0.0 0.0

-571668.3264280261 3.1449724947946656e7 0.0
3.1449724947946656e7 -1.2443010926993196e6 0.0
0.0 0.0 0.0

-101794.56265447696 2.862735950374977e7 0.0
2.862735950374977e7 -2.0091500712801972e6 0.0
0.0 0.0 0.0

-1.2464962163279913e6 2.2851221691931784e7 0.0
2.2851221691931784e7 -7.485712240631953e6 0.0
0.0 0.0 0.0

-2.0837168703952618e6 1.8405916765276823e7 0.0
1.8405916765276823e7 -2.6038227731063783e7 0.0
0.0 0.0 0.0

-3.058296812330842e6 3.1611301223015044e7 0.0
3.1611301223015044e7 1.7699078536992036e6 0.0
0.0 0.0 0.0

-6.1541104610518515e6 1.86689233064257e7 0.0
1.86689233064257e7 2.1911025740287147e7 0.0
0.0 0.0 0.0

2.0343253793561123e6 7.38357079117337e6 0.0
7.38357079117337e6 -1.601727272026563e7 0.0
0.0 0.0 0.0

1.6182371460120487e6 3.423151603719263e7 0.0
3.423151603719263e7 -1.3938505212306941e6 0.0
0.0 0.0 0.0

-3.154620889498897e6 2.2921603118948046e7 0.0
2.2921603118948046e7 1.2832778046581514e7 0.0
0.0 0.0 0.0

51591.4562688641 2.8086662312003933e7 0.0
2.8086662312003933e7 -2.8520064263572027e6 0.0
0.0 0.0 0.0

217191.9468264412 2.049490411495228e7 0.0
2.049490411495228e7 -1.521292631211547e7 0.0
0.0 0.0 0.0

-1.0635464725198024e6 2.9340065560522314e7 0.0
2.9340065560522314e7 430383.48327387305 0.0
0.0 0.0 0.0

-3.4024984158572797e6 2.30935899049368e7 0.0
2.30935899049368e7 1.5342125666335521e7 0.0
0.0 0.0 0.0

-1.050606192607222e6 2.9427784823584996e7 0.0
2.9427784823584996e7 -1.6121192313743911e6 0.0
0.0 0.0 0.0

7.954079867378184e6 3.675414876177662e7 0.0
3.675414876177662e7 -3.131217537701552e6 0.0
0.0 0.0 0.0

-8.948143059475591e6 1.6324964930747202e7 0.0
1.6324964930747202e7 2.6907856072618343e7 0.0
0.0 0.0 0.0

1.7536317459569536e6 1.2970993529905083e7 0.0
1.2970993529905083e7 -1.7588043995757878e7 0.0
0.0 0.0 0.0

-1.0392771255136428e7 1.306943514452875e7 0.0
1.306943514452875e7 2.8029997156622104e7 0.0
0.0 0.0 0.0

-9.256981926970322e6 1.5025663639479348e7 0.0
1.5025663639479348e7 1.8657136533344835e7 0.0
0.0 0.0 0.0

-552135.4835983088 -1.1903266089961969e6 0.0
-1.1903266089961969e6 1.2636494293458948e6 0.0
0.0 0.0 0.0

-777930.3800945546 -2.2839126154103517e6 0.0
-2.2839126154103517e6 2.439732572742499e6 0.0
0.0 0.0 0.0

-8.522062033970386e6 1.6883105696462654e7 0.0
1.6883105696462654e7 2.7434129458074342e7 0.0
0.0 0.0 0.0

1.3418430273720762e7 2.3537786673325695e7 0.0
2.3537786673325695e7 1.1666375732281983e7 0.0
0.0 0.0 0.0

1.1593794012109495e6 2.971100736573433e7 0.0
2.971100736573433e7 -3.0251965006623077e6 0.0
0.0 0.0 0.0

-475237.26287122816 2.348085205071831e7 0.0
2.348085205071831e7 -6.705446210912154e6 0.0
0.0 0.0 0.0

1.6931190224094056e6 1.3425049231367115e7 0.0
1.3425049231367115e7 -1.8427708240809068e7 0.0
0.0 0.0 0.0

7.744209618127384e6 1.851492861906858e7 0.0
1.851492861906858e7 3.651581959863472e7 0.0
0.0 0.0 0.0

-2.8300061098506134e6 3.2164141018565003e7 0.0
3.2164141018565003e7 2.938459986939703e6 0.0
0.0 0.0 0.0

-500765.6326627019 3.2078863473435666e7 0.0
3.2078863473435666e7 -1.225957309314005e6 0.0
0.0 0.0 0.0

-102018.49351342797 3.2736214571264956e7 0.0
3.2736214571264956e7 -1.2355850714010159e6 0.0
0.0 0.0 0.0

-4.502464441241463e6 2.032703382245179e7 0.0
2.032703382245179e7 1.4084360085270096e7 0.0
0.0 0.0 0.0

-4.708110351311716e6 1.810048238616526e7 0.0
1.810048238616526e7 1.0993557869992405e7 0.0
0.0 0.0 0.0

-7.792511512723412e6 1.278262693885811e7 0.0
1.278262693885811e7 1.2290941536652181e7 0.0
0.0 0.0 0.0

-2.788143539976946e6 2.4183298285583735e7 0.0
2.4183298285583735e7 1.034030826195813e7 0.0
0.0 0.0 0.0

-3.7975105459556347e6 1.73572178373709e7 0.0
1.73572178373709e7 1.2291748598159835e7 0.0
0.0 0.0 0.0

-8.796867299191054e6 1.5861784389284186e7 0.0
1.5861784389284186e7 3.0097914024874877e7 0.0
0.0 0.0 0.0

1.6965179277456366e6 1.3974170020917282e7 0.0
1.3974170020917282e7 -1.9041281752071094e7 0.0
0.0 0.0 0.0

-3.693244881511557e6 2.203544702199805e7 0.0
2.203544702199805e7 1.1696959973903768e7 0.0
0.0 0.0 0.0

-9.387313398536948e6 1.425244325627769e7 0.0
1.425244325627769e7 3.1342950403864495e7 0.0
0.0 0.0 0.0

4.472725676908006e6 2.092294539566564e7 0.0
2.092294539566564e7 1.580262653315005e7 0.0
0.0 0.0 0.0

-3.6637389676059713e6 1.9087465611923646e7 0.0
1.9087465611923646e7 6.144461521095151e6 0.0
0.0 0.0 0.0

-995115.7583342276 3.0022209849730816e7 0.0
3.0022209849730816e7 526084.7486821988 0.0
0.0 0.0 0.0

-1.1130617148242302e6 2.8614141541310847e7 0.0
2.8614141541310847e7 333491.1775591215 0.0
0.0 0.0 0.0

-3.3682542744685747e6 2.38037694900973e7 0.0
2.38037694900973e7 1.3811266562966067e7 0.0
0.0 0.0 0.0

-1.9018643082187222e6 1.9309242185815446e7 0.0
1.9309242185815446e7 -2.1718678550485592e7 0.0
0.0 0.0 0.0

-3.084026929599896e6 2.44392521032096e7 0.0
2.44392521032096e7 7.713782885279379e6 0.0
0.0 0.0 0.0

-5.366294547080099e6 1.9197752354724772e7 0.0
1.9197752354724772e7 2.0372028300505716e7 0.0
0.0 0.0 0.0

-676791.5226155387 2.2553967331887443e7 0.0
2.2553967331887443e7 -7.016495775202646e6 0.0
0.0 0.0 0.0

3.9700613935333616e6 3.325826959288009e7 0.0
3.325826959288009e7 -2.691918323376988e6 0.0
0.0 0.0 0.0

-3.5037658257622775e6 2.4619098342922244e7 0.0
2.4619098342922244e7 1.2354863071663134e7 0.0
0.0 0.0 0.0

-978156.9304682941 2.2185009827287506e7 0.0
2.2185009827287506e7 -8.662986393483585e6 0.0
0.0 0.0 0.0

2.658711541049782e6 9.19820532721349e6 0.0
9.19820532721349e6 -2.5672365549649592e7 0.0
0.0 0.0 0.0

-3.2325770525435265e6 2.0336232873312853e7 0.0
2.0336232873312853e7 1.3539959096734744e7 0.0
0.0 0.0 0.0

4.404471179327741e6 2.72907462170725e7 0.0
2.72907462170725e7 -6.868499339902816e6 0.0
0.0 0.0 0.0

2.5977636710303137e6 2.9164957422941467e6 0.0
2.9164957422941467e6 -7.929071207434678e6 0.0
0.0 0.0 0.0

1.7309921559389178e6 9.295987043462098e6 0.0
9.295987043462098e6 -3.3812824640036784e7 0.0
0.0 0.0 0.0

-52925.68919815589 2.0845661071473576e7 0.0
2.0845661071473576e7 -1.0568885382188702e7 0.0
0.0 0.0 0.0

1.3745503867051218e7 2.446629685845852e7 0.0
2.446629685845852e7 1.3326095540832967e7 0.0
0.0 0.0 0.0

1.9770504673072826e6 9.65770548960489e6 0.0
9.65770548960489e6 -2.6405839236360036e7 0.0
0.0 0.0 0.0

1.7963228166511338e6 1.0919973703910628e7 0.0
1.0919973703910628e7 -2.5656179925862946e7 0.0
0.0 0.0 0.0

1.875772742236352e6 2.0794536293800443e7 0.0
2.0794536293800443e7 5.970674847579391e6 0.0
0.0 0.0 0.0

-1.0522433079743225e7 7.588991671462241e6 0.0
7.588991671462241e6 3.126849185723757e7 0.0
0.0 0.0 0.0

-8.999659115712611e6 1.3268872922595358e7 0.0
1.3268872922595358e7 1.5330269379712116e7 0.0
0.0 0.0 0.0

-1.0319932060310183e7 1.901773545986619e7 0.0
1.901773545986619e7 -4.912694278365335e7 0.0
0.0 0.0 0.0

-5.740023012437475e6 1.7771753362608965e7 0.0
1.7771753362608965e7 1.4270448301800622e7 0.0
0.0 0.0 0.0

-1.1355049254265063e7 1.2847356492010716e7 0.0
1.2847356492010716e7 2.2837256048561692e7 0.0
0.0 0.0 0.0

3.3906819859993467e6 2.2944695616032075e7 0.0
2.2944695616032075e7 1.129010132244814e7 0.0
0.0 0.0 0.0

-8.380835274596006e6 -3.4015583496477315e6 0.0
-3.4015583496477315e6 3.2587131565676298e7 0.0
0.0 0.0 0.0

-3.882358509572324e6 2.0691437281777725e7 0.0
2.0691437281777725e7 1.1248565772315968e7 0.0
0.0 0.0 0.0

-3.430330474441295e6 2.712793313801523e7 0.0
2.712793313801523e7 8.095850434198454e6 0.0
0.0 0.0 0.0

210173.90072613582 1.885279274540607e7 0.0
1.885279274540607e7 -1.6245793908592332e7 0.0
0.0 0.0 0.0

-7.8248315717173405e6 -2.508519082720741e6 0.0
-2.508519082720741e6 1.2945907858787555e7 0.0
0.0 0.0 0.0

-7.434934530619553e6 1.2118339205022842e7 0.0
1.2118339205022842e7 1.0654166462818932e7 0.0
0.0 0.0 0.0

-85253.4273910746 7.899134859761292e6 0.0
7.899134859761292e6 -5.6906236662412e7 0.0
0.0 0.0 0.0

6.431963878757315e6 3.353806774286943e7 0.0
3.353806774286943e7 -3.4718313759793895e6 0.0
0.0 0.0 0.0

-7.64911077087326e6 1.3169969869211491e7 0.0
1.3169969869211491e7 4.008132963197985e7 0.0
0.0 0.0 0.0

-5.557843599391691e6 1.9755046658352934e7 0.0
1.9755046658352934e7 -1.650324182951985e7 0.0
0.0 0.0 0.0

-1.1452559600356298e7 1.2379109910866061e7 0.0
1.2379109910866061e7 2.458975277754718e7 0.0
0.0 0.0 0.0

-1.3881518465549704e7 2.6560850061310194e7 0.0
2.6560850061310194e7 -9.726476706930112e6 0.0
0.0 0.0 0.0

-1.4096258171397205e6 2.079696226177708e7 0.0
2.079696226177708e7 -5.37832046267924e6 0.0
0.0 0.0 0.0

3.5639887792985872e6 1.9027088258734442e7 0.0
1.9027088258734442e7 1.8643118908306267e7 0.0
0.0 0.0 0.0

1.795775022327533e6 8.522270077384925e6 0.0
8.522270077384925e6 -3.5497197346979536e7 0.0
0.0 0.0 0.0

-5.144488101682658e6 1.7886415327832833e7 0.0
1.7886415327832833e7 -1.644574082581219e7 0.0
0.0 0.0 0.0

7.795336327264597e6 3.860602164348714e7 0.0
3.860602164348714e7 -4.761803561067596e6 0.0
0.0 0.0 0.0

-3.3470680618166598e6 2.0641000094836995e7 0.0
2.0641000094836995e7 1.4584874578722628e7 0.0
0.0 0.0 0.0

-8.292897450119201e6 -2.7466720319332923e6 0.0
-2.7466720319332923e6 3.607859376401405e7 0.0
0.0 0.0 0.0

-1.1117511731712455e6 2.0654026783841327e7 0.0
2.0654026783841327e7 1.7685631967557434e7 0.0
0.0 0.0 0.0

-1.1610471218811765e7 2.558032355138821e7 0.0
2.558032355138821e7 -1.1402149767661156e7 0.0
0.0 0.0 0.0

-6.270619375858707e6 1.083316128840693e7 0.0
1.083316128840693e7 7.116842800220339e6 0.0
0.0 0.0 0.0

3.7138866232719384e6 1.9356519985029414e7 0.0
1.9356519985029414e7 3.926860116889599e7 0.0
0.0 0.0 0.0

-7.923200992132189e6 1.7402599836068064e7 0.0
1.7402599836068064e7 2.0006756117325928e7 0.0
0.0 0.0 0.0

-9.170350651202895e6 1.5606001873666558e7 0.0
1.5606001873666558e7 1.9693890614302184e7 0.0
0.0 0.0 0.0

-8.500405446229164e6 1.134322295124847e7 0.0
1.134322295124847e7 3.978634341266993e7 0.0
0.0 0.0 0.0

-979757.2429385548 2.0397284104746863e7 0.0
2.0397284104746863e7 2.2018200948539518e7 0.0
0.0 0.0 0.0

-9.244963553755304e6 3.1703752059750292e7 0.0
3.1703752059750292e7 5.380273500622386e6 0.0
0.0 0.0 0.0

50570.94739106466 3.503587845958342e7 0.0
3.503587845958342e7 -1.314520687246664e6 0.0
0.0 0.0 0.0

-3.462553294007077e6 2.2954076183764935e7 0.0
2.2954076183764935e7 1.1133633838915262e7 0.0
0.0 0.0 0.0

2.2620979974586433e6 2.775526629599437e6 0.0
2.775526629599437e6 -6.630580621417923e6 0.0
0.0 0.0 0.0

2.106664063535209e6 1.2088509692074979e7 0.0
1.2088509692074979e7 -2.0756633680467762e7 0.0
0.0 0.0 0.0

1.8013898513587024e6 1.1969926345287498e7 0.0
1.1969926345287498e7 -1.5999991806642946e7 0.0
0.0 0.0 0.0

-4.826355103870449e6 1.8508772550915144e7 0.0
1.8508772550915144e7 1.2343949964136446e7 0.0
0.0 0.0 0.0

-854469.4408346289 4.729460593520967e7 0.0
4.729460593520967e7 -3.309946054326934e6 0.0
0.0 0.0 0.0

-9.888403789618293e6 8.731146413319305e6 0.0
8.731146413319305e6 1.257767531968772e7 0.0
0.0 0.0 0.0

2.83211446302862e6 3.0946137408865713e7 0.0
3.0946137408865713e7 -3.5428522419986017e6 0.0
0.0 0.0 0.0

4.86894480430517e6 2.8287732063043702e7 0.0
2.8287732063043702e7 -6.238419699677617e6 0.0
0.0 0.0 0.0

-4.385050055600241e6 1.1710122087807791e7 0.0
1.1710122087807791e7 8.466570567802677e6 0.0
0.0 0.0 0.0

-278004.4079770737 1.9266683724673342e7 0.0
1.9266683724673342e7 1.2881684622457472e6 0.0
0.0 0.0 0.0

2.0736510014330827e7 2.3315585277686737e7 0.0
2.3315585277686737e7 1.0544152028523369e7 0.0
0.0 0.0 0.0

8.377005797008405e6 2.028002017070691e7 0.0
2.028002017070691e7 3.793871835136579e7 0.0
0.0 0.0 0.0

2.031335508486277e6 1.9591619337682527e7 0.0
1.9591619337682527e7 1.5634678887001822e7 0.0
0.0 0.0 0.0

-8.002457431138383e6 1.6864138600133754e7 0.0
1.6864138600133754e7 1.9126807155403066e7 0.0
0.0 0.0 0.0

-136061.03837383736 4.412310691293131e7 0.0
4.412310691293131e7 -2.601944707370598e6 0.0
0.0 0.0 0.0

-2.0154681284736082e7 2.8011727294859413e7 0.0
2.8011727294859413e7 -9.324355442251759e6 0.0
0.0 0.0 0.0

-9.008638787592921e6 1.6192529386739915e7 0.0
1.6192529386739915e7 2.058814894909565e7 0.0
0.0 0.0 0.0

-7315.556022427976 1.3223177038350467e7 0.0
1.3223177038350467e7 -3.615238811179851e7 0.0
0.0 0.0 0.0

2.9364435220498927e6 1.5795233084899744e6 0.0
1.5795233084899744e6 -4.0789388164029285e7 0.0
0.0 0.0 0.0

987573.0880941395 1.795443789168386e7 0.0
1.795443789168386e7 -1.713311192168067e7 0.0
0.0 0.0 0.0

1.8890619594109748e6 1.2776997362904336e7 0.0
1.2776997362904336e7 -1.9587950218720973e7 0.0
0.0 0.0 0.0

808106.5171974758 1.9543768255480137e7 0.0
1.9543768255480137e7 -1.505316829084199e7 0.0
0.0 0.0 0.0

-1.6736903386300742e6 5.127786691514832e7 0.0
5.127786691514832e7 -5.31256646158451e6 0.0
0.0 0.0 0.0

-2.237638595089416e6 2.503833960921274e7 0.0
2.503833960921274e7 4.746219488785742e6 0.0
0.0 0.0 0.0

775718.2466799673 2.290810286559662e7 0.0
2.290810286559662e7 -1.2126088115621742e7 0.0
0.0 0.0 0.0

239385.57515072636 2.2099085938904412e7 0.0
2.2099085938904412e7 -1.2665907727947233e7 0.0
0.0 0.0 0.0

2.235912370992777e6 1.1065874052664386e7 0.0
1.1065874052664386e7 -1.9190801610324204e7 0.0
0.0 0.0 0.0

-3.6579349504512106e6 2.4076014567033622e7 0.0
2.4076014567033622e7 1.1392115239365095e7 0.0
0.0 0.0 0.0

500833.681286145 2.107091396215986e7 0.0
2.107091396215986e7 1.94832337086949e7 0.0
0.0 0.0 0.0

-6.679866595064711e6 2.5202203411412004e7 0.0
2.5202203411412004e7 8.195113003521601e6 0.0
0.0 0.0 0.0

-2.936034516654089e6 8.679891141185101e6 0.0
8.679891141185101e6 7.456928031722139e7 0.0
0.0 0.0 0.0

-9.004872273526525e6 -1.350707149767818e6 0.0
-1.350707149767818e6 2.295879243309866e7 0.0
0.0 0.0 0.0

-1.0897808834139017e7 7.673502278052111e7 0.0
7.673502278052111e7 -1.6800535709302202e7 0.0
0.0 0.0 0.0

4.4832064596044645e6 1.9208002045260854e7 0.0
1.9208002045260854e7 2.3826967680012204e7 0.0
0.0 0.0 0.0

223950.93501162273 4.199092188646196e7 0.0
4.199092188646196e7 -1.886708491399748e6 0.0
0.0 0.0 0.0

260834.17647274584 1.9199911140959613e7 0.0
1.9199911140959613e7 -1.2091635958953433e7 0.0
0.0 0.0 0.0

1.503043435280194e6 2.225310015794943e7 0.0
2.225310015794943e7 -1.1610629105809886e7 0.0
0.0 0.0 0.0

-2.625659530560142e6 2.6149385234210335e7 0.0
2.6149385234210335e7 6.781476029743973e6 0.0
0.0 0.0 0.0

3.796161384086853e6 2.1444851057449677e6 0.0
2.1444851057449677e6 -2.2719768516764376e7 0.0
0.0 0.0 0.0

9.54122048324984e6 2.162648328823947e7 0.0
2.162648328823947e7 3.253739211452031e6 0.0
0.0 0.0 0.0

2.0234479427546486e6 1.2679686830040706e7 0.0
1.2679686830040706e7 -2.1476500418571997e7 0.0
0.0 0.0 0.0

5.043542777426754e6 2.572027541284655e7 0.0
2.572027541284655e7 -6.953459709515043e6 0.0
0.0 0.0 0.0

2.5239296379442755e6 7.929298990236651e6 0.0
7.929298990236651e6 -3.459315021604237e7 0.0
0.0 0.0 0.0

-2.6726560319358017e6 2.1764254052984282e7 0.0
2.1764254052984282e7 1.0257452875091834e7 0.0
0.0 0.0 0.0

2.703981372586027e6 7.523466464426711e6 0.0
7.523466464426711e6 -1.381802020108851e7 0.0
0.0 0.0 0.0

-2.1054046126348195e6 1.208299681387383e7 0.0
1.208299681387383e7 1.1140747938009556e6 0.0
0.0 0.0 0.0

-1.8563021178143643e7 2.500684652335044e7 0.0
2.500684652335044e7 -6.374460017073976e6 0.0
0.0 0.0 0.0

2.461701474229388e6 1.0508675608217359e7 0.0
1.0508675608217359e7 -2.49892321612324e7 0.0
0.0 0.0 0.0

-2.674956886854175e6 1.8156534816402644e7 0.0
1.8156534816402644e7 -3.5764615649695126e6 0.0
0.0 0.0 0.0

127283.21765906457 2.3540457586333588e7 0.0
2.3540457586333588e7 -1.0350465077726875e7 0.0
0.0 0.0 0.0

-716088.7168798577 1.9778212685075957e7 0.0
1.9778212685075957e7 2.7769394937179107e7 0.0
0.0 0.0 0.0

420956.2150041489 2.1121830422569197e7 0.0
2.1121830422569197e7 -1.8351752419975274e6 0.0
0.0 0.0 0.0

-5.587046134572389e6 1.734302738318072e7 0.0
1.734302738318072e7 1.2944087300623981e7 0.0
0.0 0.0 0.0

-1.0426043029601919e7 8.835863798739307e6 0.0
8.835863798739307e6 3.45929097737529e7 0.0
0.0 0.0 0.0

-179934.16147529706 2.015359268891883e7 0.0
2.015359268891883e7 2.82909364256113e7 0.0
0.0 0.0 0.0

-6.841706506629212e6 1.8483624272455804e7 0.0
1.8483624272455804e7 1.927635813490055e7 0.0
0.0 0.0 0.0

-1.0610997088652106e7 4.211676717951932e6 0.0
4.211676717951932e6 3.0977341267519023e7 0.0
0.0 0.0 0.0

-3.9203415434595384e6 1.996686535889752e7 0.0
1.996686535889752e7 1.6322835919074167e7 0.0
0.0 0.0 0.0

-4.0733711163361324e6 2.2461675081716552e7 0.0
2.2461675081716552e7 1.693736613019395e7 0.0
0.0 0.0 0.0

-9.79940105284242e6 6.9429756474596225e6 0.0
6.9429756474596225e6 1.76579852345384e7 0.0
0.0 0.0 0.0

199731.62074443605 2.282700688306527e7 0.0
2.282700688306527e7 -1.1514651118860299e7 0.0
0.0 0.0 0.0

-2.8806244297186313e6 2.6160194060059253e7 0.0
2.6160194060059253e7 4.22396708076252e6 0.0
0.0 0.0 0.0

-6.6771649228003295e6 1.896603684677076e7 0.0
1.896603684677076e7 2.0016555957144294e7 0.0
0.0 0.0 0.0

-8.845290712367944e6 4.0988450531803984e6 0.0
4.0988450531803984e6 4.458044872166113e7 0.0
0.0 0.0 0.0

-1.9781980997394295e6 2.200743384579813e7 0.0
2.200743384579813e7 1.3669104472687196e7 0.0
0.0 0.0 0.0

-8.525654056141362e6 1.5480068843613643e7 0.0
1.5480068843613643e7 2.1948135632837024e7 0.0
0.0 0.0 0.0

563773.7435482778 1.2908661587569093e7 0.0
1.2908661587569093e7 -3.3994621759312086e7 0.0
0.0 0.0 0.0

-1.145493491890259e6 1.901606444308859e7 0.0
1.901606444308859e7 3.454014856633772e7 0.0
0.0 0.0 0.0

-8.491116090262521e6 1.700946009463212e7 0.0
1.700946009463212e7 2.552586789979658e7 0.0
0.0 0.0 0.0

1.8119246203553742e6 1.1430159662226656e7 0.0
1.1430159662226656e7 -1.5175060680859128e7 0.0
0.0 0.0 0.0

2.840383895698147e6 3.4373906071638325e6 0.0
3.4373906071638325e6 -3.2244631073137168e7 0.0
0.0 0.0 0.0

3.154221211560215e6 1.9301839222889513e7 0.0
1.9301839222889513e7 3.037485484965901e7 0.0
0.0 0.0 0.0

1.170455070995504e6 1.9438822127451144e7 0.0
1.9438822127451144e7 3.257359802254527e7 0.0
0.0 0.0 0.0

-566676.5916626728 1.861642323275948e7 0.0
1.861642323275948e7 -8.556613296255082e6 0.0
0.0 0.0 0.0

-3.6289995529314075e6 2.546753337420208e7 0.0
2.546753337420208e7 1.1075804371522509e7 0.0
0.0 0.0 0.0

291178.34253073635 3.784224451800253e7 0.0
3.784224451800253e7 -1.5461190880496216e6 0.0
0.0 0.0 0.0

678662.2331573842 2.105086985335083e7 0.0
2.105086985335083e7 -1.3936867607786188e7 0.0
0.0 0.0 0.0

-9.66473155352268e6 -153220.51321806083 0.0
-153220.51321806083 2.402994908706353e7 0.0
0.0 0.0 0.0

166841.87761751935 1.5157654055014692e7 0.0
1.5157654055014692e7 -2.9162913220854603e7 0.0
0.0 0.0 0.0

-3.109492519676351e6 2.2730054462000266e7 0.0
2.2730054462000266e7 1.3902478213201864e7 0.0
0.0 0.0 0.0

-9.234255889846658e6 1.5765991427017521e7 0.0
1.5765991427017521e7 2.6279023731656548e7 0.0
0.0 0.0 0.0

3.934987201677995e6 1.6773348776671981e7 0.0
1.6773348776671981e7 1.363488798153655e7 0.0
0.0 0.0 0.0

861223.5073907711 1.020276205440264e7 0.0
1.020276205440264e7 -3.990028797462235e7 0.0
0.0 0.0 0.0

901958.1635609698 1.2780246968495095e7 0.0
1.2780246968495095e7 -3.1807162237604145e7 0.0
0.0 0.0 0.0

9.517957124488385e6 4.039097092903821e7 0.0
4.039097092903821e7 -5.5031727126831245e6 0.0
0.0 0.0 0.0

-2.0804731015763253e6 2.5552346042882916e7 0.0
2.5552346042882916e7 3.6658931694785426e6 0.0
0.0 0.0 0.0

-2.549411412702745e6 2.6735850008732155e7 0.0
2.6735850008732155e7 5.731670021261586e6 0.0
0.0 0.0 0.0

-1.5132096730750094e6 2.710795413925429e7 0.0
2.710795413925429e7 -2.358389401817768e6 0.0
0.0 0.0 0.0

3.666407634951284e6 4.223031946077508e6 0.0
4.223031946077508e6 -1.8822525727936625e7 0.0
0.0 0.0 0.0

-2.260660229996248e6 1.7933255695053846e7 0.0
1.7933255695053846e7 -8.264036889138902e6 0.0
0.0 0.0 0.0

-2.958618793787799e6 2.2563871791564703e7 0.0
2.2563871791564703e7 1.3135563863134127e7 0.0
0.0 0.0 0.0

1.270130856517178e6 2.3492699342620496e7 0.0
2.3492699342620496e7 -1.1161712698882481e7 0.0
0.0 0.0 0.0

273441.89925794344 3.6769926342066154e7 0.0
3.6769926342066154e7 -1.3859185655094502e6 0.0
0.0 0.0 0.0

-7.166727694398668e6 9.85047643936534e6 0.0
9.85047643936534e6 1.432336667849419e7 0.0
0.0 0.0 0.0

-1.1180168649489684e7 1.1258424461251505e7 0.0
1.1258424461251505e7 2.843299768160369e7 0.0
0.0 0.0 0.0

165980.6387209696 3.590172932787111e7 0.0
3.590172932787111e7 -1.2227263105435204e6 0.0
0.0 0.0 0.0

75197.7994455169 2.4290345500398584e7 0.0
2.4290345500398584e7 -9.25986189610722e6 0.0
0.0 0.0 0.0

1.4368135001831753e6 1.1548115020093856e7 0.0
1.1548115020093856e7 -1.9969528578540564e7 0.0
0.0 0.0 0.0

-4.1382608983224155e6 1.81768863022998e7 0.0
1.81768863022998e7 1.4929316145479165e7 0.0
0.0 0.0 0.0

899942.6991248876 9.420335326354325e6 0.0
9.420335326354325e6 -4.189317271757692e7 0.0
0.0 0.0 0.0

-896520.390221279 3.1332530730870944e7 0.0
3.1332530730870944e7 624516.7681693475 0.0
0.0 0.0 0.0

-3.7377877646448314e6 2.3256327605336767e7 0.0
2.3256327605336767e7 1.0554810612848893e7 0.0
0.0 0.0 0.0

-595896.0932283495 1.4082834386679703e7 0.0
1.4082834386679703e7 -3.645387787148398e7 0.0
0.0 0.0 0.0

-3.4914381349274945e6 2.733519598671443e7 0.0
2.733519598671443e7 5.956341793091243e6 0.0
0.0 0.0 0.0

-1.086684646827939e7 1.0866579308512086e7 0.0
1.0866579308512086e7 3.051369356100698e7 0.0
0.0 0.0 0.0

1.2074782835893566e6 1.12243539362721e7 0.0
1.12243539362721e7 -1.7161112040371872e7 0.0
0.0 0.0 0.0

2.221358189169815e6 2.2156131727919407e7 0.0
2.2156131727919407e7 1.111211306718651e7 0.0
0.0 0.0 0.0

-2.524689285291507e6 2.4727177262261253e7 0.0
2.4727177262261253e7 8.149297810269747e6 0.0
0.0 0.0 0.0

-1.296837115361642e6 1.5055205720814979e7 0.0
1.5055205720814979e7 -3.6037264070896685e7 0.0
0.0 0.0 0.0

-2.3508359337050943e6 5.678220524335157e7 0.0
5.678220524335157e7 -8.332689619224485e6 0.0
0.0 0.0 0.0

-7.7161688867964875e6 1.8263629578354392e7 0.0
1.8263629578354392e7 2.323012342813617e7 0.0
0.0 0.0 0.0

-1.2231230397196341e7 1.8514951955414157e7 0.0
1.8514951955414157e7 -5.937423462921183e7 0.0
0.0 0.0 0.0

-5.293496743168245e6 1.0548221885244066e7 0.0
1.0548221885244066e7 1.053575823171203e7 0.0
0.0 0.0 0.0

-3.977765283517006e6 2.102679180811104e7 0.0
2.102679180811104e7 1.2344769861961843e7 0.0
0.0 0.0 0.0

-3.841104477206856e6 1.8758840385264445e7 0.0
1.8758840385264445e7 3.1962015946415093e7 0.0
0.0 0.0 0.0

-4.82807988726004e6 1.6990408528695896e7 0.0
1.6990408528695896e7 1.5649117791051028e7 0.0
0.0 0.0 0.0

740132.2494849116 1.735724522755344e7 0.0
1.735724522755344e7 6.073521883573177e7 0.0
0.0 0.0 0.0

-2.881820302367598e6 2.1056612861546967e7 0.0
2.1056612861546967e7 1.181974068234906e7 0.0
0.0 0.0 0.0

-1.6211180616822606e6 1.8710483567166068e7 0.0
1.8710483567166068e7 -2.4294017445117183e7 0.0
0.0 0.0 0.0

791788.8698943881 2.1506251652871344e7 0.0
2.1506251652871344e7 -1.4699631147779856e7 0.0
0.0 0.0 0.0

1.632168676053537e8 2.8875026034391444e7 0.0
2.8875026034391444e7 1.5381600514670819e7 0.0
0.0 0.0 0.0

-8.196061292159436e6 -2.635980307814522e6 0.0
-2.635980307814522e6 3.7319352300747395e7 0.0
0.0 0.0 0.0

3.140874975662928e6 1.6197577448257324e6 0.0
1.6197577448257324e6 -3.712071773048516e7 0.0
0.0 0.0 0.0

-9.347312815029021e6 1.2515238469359712e6 0.0
1.2515238469359712e6 1.3219823633890565e7 0.0
0.0 0.0 0.0

-1.321849117976036e6 2.6498424237898882e7 0.0
2.6498424237898882e7 -3.343247840536167e6 0.0
0.0 0.0 0.0

-7.354200766016083e6 -1.8218029001788418e6 0.0
-1.8218029001788418e6 4.790687878599776e7 0.0
0.0 0.0 0.0

-7.956481022849787e6 1.758010153254e7 0.0
1.758010153254e7 -3.532215282558587e7 0.0
0.0 0.0 0.0

-1.0049858734893462e7 1.4215320115585662e7 0.0
1.4215320115585662e7 2.6831688879817992e7 0.0
0.0 0.0 0.0

-6.55731465701938e6 1.9406361352480914e7 0.0
1.9406361352480914e7 2.059860296687185e7 0.0
0.0 0.0 0.0

2.8221090570187997e6 1.5278222833873127e6 0.0
1.5278222833873127e6 -4.204434106623715e7 0.0
0.0 0.0 0.0

869057.2471779864 1.8602066717610277e7 0.0
1.8602066717610277e7 -1.5851637591120908e7 0.0
0.0 0.0 0.0

266307.23304839164 3.910597668900399e7 0.0
3.910597668900399e7 -1.3179967611689644e6 0.0
0.0 0.0 0.0

858606.6246607853 1.194735139728747e7 0.0
1.194735139728747e7 -1.6010200272704659e7 0.0
0.0 0.0 0.0

-3.7889362165794536e6 2.2551615076569997e7 0.0
2.2551615076569997e7 -4.236366077655968e6 0.0
0.0 0.0 0.0

393571.07885187864 8.929959294829205e6 0.0
8.929959294829205e6 1.0433748810667044e8 0.0
0.0 0.0 0.0

-2.9361208165370896e6 8.526229358050734e6 0.0
8.526229358050734e6 -9.905094012895037e7 0.0
0.0 0.0 0.0

-6.747415281445425e6 1.7477647136276674e7 0.0
1.7477647136276674e7 -8.347316824726544e7 0.0
0.0 0.0 0.0

1.2203016426175572e6 1.6718944644710079e7 0.0
1.6718944644710079e7 -1.9660872540087566e7 0.0
0.0 0.0 0.0

2.0056625365972351e6 7.1964926637454815e6 0.0
7.1964926637454815e6 -4.533778459906727e7 0.0
0.0 0.0 0.0

-2.61018651814681e7 2.978750644160173e7 0.0
2.978750644160173e7 2.180390459187703e6 0.0
0.0 0.0 0.0

1.0996546449165451e6 2.2835957181391202e7 0.0
2.2835957181391202e7 -1.2387762567653716e7 0.0
0.0 0.0 0.0

-8.038999125199387e6 -2.5768939594968334e6 0.0
-2.5768939594968334e6 3.8573268676952295e7 0.0
0.0 0.0 0.0

-7.733918703703823e6 1.2704773498243688e7 0.0
1.2704773498243688e7 1.5823799247493742e7 0.0
0.0 0.0 0.0

-2.4106255080716796e6 2.7287561248404626e7 0.0
2.7287561248404626e7 4.706731354632224e6 0.0
0.0 0.0 0.0

-3.647805452126732e6 2.3202653803193685e7 0.0
2.3202653803193685e7 1.1989602336028112e7 0.0
0.0 0.0 0.0

-8.065825738360444e6 1.5793545021657135e7 0.0
1.5793545021657135e7 1.694050628454221e7 0.0
0.0 0.0 0.0

-8.75084244117659e6 8.327732911385908e6 0.0
8.327732911385908e6 1.6478779564093094e7 0.0
0.0 0.0 0.0

7.845889702185174e6 2.159147275360622e7 0.0
2.159147275360622e7 5.251163859123411e6 0.0
0.0 0.0 0.0

-34678.26158272894 2.5077099439277276e7 0.0
2.5077099439277276e7 -8.2103363336456735e6 0.0
0.0 0.0 0.0

-3.5024198889968107e6 6.777071521669741e6 0.0
6.777071521669741e6 856174.298456566 0.0
0.0 0.0 0.0

345498.08158838446 2.8830914513364997e7 0.0
2.8830914513364997e7 -2.6879523531730627e6 0.0
0.0 0.0 0.0

-9.073691704464145e6 1.708812692102821e7 0.0
1.708812692102821e7 2.5380384565908056e7 0.0
0.0 0.0 0.0

-3.963698171906419e6 1.7779375001017768e7 0.0
1.7779375001017768e7 1.3641995641401332e7 0.0
0.0 0.0 0.0

-7.90150116133582e6 -2.4522042941166223e6 0.0
-2.4522042941166223e6 3.982112877388733e7 0.0
0.0 0.0 0.0

2.9314473620119933e6 1.5969893487982077e6 0.0
1.5969893487982077e6 -3.953968635880407e7 0.0
0.0 0.0 0.0

1.7970489456551801e6 7.492655486206347e6 0.0
7.492655486206347e6 -4.840885253254025e7 0.0
0.0 0.0 0.0

-1.1136746260581328e7 1.3208275639172407e7 0.0
1.3208275639172407e7 2.5397984951279894e7 0.0
0.0 0.0 0.0

-822169.127041813 5.137000566681194e6 0.0
5.137000566681194e6 -8.575900795775993e7 0.0
0.0 0.0 0.0

-5.892967562210105e6 -343075.8779139993 0.0
-343075.8779139993 6.339902273597553e7 0.0
0.0 0.0 0.0

1.639055882019111e6 1.0850284069118002e7 0.0
1.0850284069118002e7 -2.1209415671110496e7 0.0
0.0 0.0 0.0

2.728668000654596e6 9.348301078031465e6 0.0
9.348301078031465e6 -2.3614404182525765e7 0.0
0.0 0.0 0.0

6.279954897920454e6 3.579665556323998e7 0.0
3.579665556323998e7 -3.004482945518564e6 0.0
0.0 0.0 0.0

-7.290215713094439e6 3.1596322110622518e7 0.0
3.1596322110622518e7 5.976405072971481e6 0.0
0.0 0.0 0.0

-2.675663546047848e6 2.4126783764439948e7 0.0
2.4126783764439948e7 9.305635822256856e6 0.0
0.0 0.0 0.0

606902.0502329185 2.758695929494608e7 0.0
2.758695929494608e7 -4.505011114624064e6 0.0
0.0 0.0 0.0

-963620.7361658002 3.653745753294737e7 0.0
3.653745753294737e7 1.1744388473210018e6 0.0
0.0 0.0 0.0

-2.9038753233551877e6 2.565417047655817e7 0.0
2.565417047655817e7 8.761858053428272e6 0.0
0.0 0.0 0.0

738637.8442742634 2.020796547771452e7 0.0
2.020796547771452e7 1.2778981526496522e7 0.0
0.0 0.0 0.0

753795.0830963552 2.6695785501829037e6 0.0
2.6695785501829037e6 -7.197649821063271e7 0.0
0.0 0.0 0.0

2.608614401181301e6 1.4143792956192142e6 0.0
1.4143792956192142e6 -4.7264462913707264e7 0.0
0.0 0.0 0.0

1.6327974626391456e6 1.754272813866261e6 0.0
1.754272813866261e6 -6.182767881139072e7 0.0
0.0 0.0 0.0

-2.416319203328886e6 2.7565122169166304e7 0.0
2.7565122169166304e7 1.3698957019339504e6 0.0
0.0 0.0 0.0

-6.924359103380811e6 1.1489970886913009e7 0.0
1.1489970886913009e7 8.935225801863533e6 0.0
0.0 0.0 0.0

-7.085474285820462e6 -1.6694596267568097e6 0.0
-1.6694596267568097e6 4.930796397053016e7 0.0
0.0 0.0 0.0

-1.1079766279928083e7 1.3574380397965701e7 0.0
1.3574380397965701e7 2.3700841721555963e7 0.0
0.0 0.0 0.0

3.53060067328546e6 3.553797738149199e6 0.0
3.553797738149199e6 -2.507490768479699e7 0.0
0.0 0.0 0.0

-1.50793376389258e7 2.9214058653231006e7 0.0
2.9214058653231006e7 4.860570307487068e6 0.0
0.0 0.0 0.0

-7.605003724606125e6 1.8591609765158206e7 0.0
1.8591609765158206e7 -2.9970085860186964e7 0.0
0.0 0.0 0.0

-8.455730170042168e6 -3.2907606994850505e6 0.0
-3.2907606994850505e6 3.1988423515381113e7 0.0
0.0 0.0 0.0

-1.1621192070180241e7 5.188327452317719e6 0.0
5.188327452317719e6 2.2424784420230903e7 0.0
0.0 0.0 0.0

-1.0122367231589338e7 1.0092707226294361e7 0.0
1.0092707226294361e7 3.533910643767398e7 0.0
0.0 0.0 0.0

-3.64615233982677e6 2.1481178982234493e7 0.0
2.1481178982234493e7 1.9767616401374627e7 0.0
0.0 0.0 0.0

1.082040263745658e6 1.3364297651926294e7 0.0
1.3364297651926294e7 -2.826622981072957e7 0.0
0.0 0.0 0.0

1.4476415206240006e6 2.216767022720842e6 0.0
2.216767022720842e6 -6.810774093021902e7 0.0
0.0 0.0 0.0

3.1877830475666746e6 1.720858139426966e6 0.0
1.720858139426966e6 -3.36268908657431e7 0.0
0.0 0.0 0.0

1.4725924544803118e7 3.826317824753337e7 0.0
3.826317824753337e7 -6.987820393699528e6 0.0
0.0 0.0 0.0

-6.211879063546531e6 -558058.0745896706 0.0
-558058.0745896706 6.088380124443702e7 0.0
0.0 0.0 0.0

1.8265825046240836e6 8.810483216813639e6 0.0
8.810483216813639e6 -4.101086963597758e7 0.0
0.0 0.0 0.0

-4.649993187809985e6 2.4600265201261747e6 0.0
2.4600265201261747e6 8.0701868558892e7 0.0
0.0 0.0 0.0

537049.6436449252 3.4898545700169965e6 0.0
3.4898545700169965e6 -7.752152183147505e7 0.0
0.0 0.0 0.0

-3.8176125661239424e6 2.707520127907814e7 0.0
2.707520127907814e7 8.739545669355212e6 0.0
0.0 0.0 0.0

-1.3393299804990531e6 1.3230206362206995e7 0.0
1.3230206362206995e7 -7.247378599934553e6 0.0
0.0 0.0 0.0

-546373.5991271688 1.9577338124912873e7 0.0
1.9577338124912873e7 -1.2704923402280388e7 0.0
0.0 0.0 0.0

300647.52169507556 1.8149134503011715e7 0.0
1.8149134503011715e7 -2.118014468239248e7 0.0
0.0 0.0 0.0

-5.482031321152654e6 -2743.3737015187444 0.0
-2743.3737015187444 6.648796882761823e7 0.0
0.0 0.0 0.0

1.4176771158555262e6 2.010390720700758e6 0.0
2.010390720700758e6 -6.474217004541469e7 0.0
0.0 0.0 0.0

-8.174192522979574e6 1.7849396323432475e7 0.0
1.7849396323432475e7 2.6076735199802395e7 0.0
0.0 0.0 0.0

-9.492993708434872e6 1.6529379944561558e7 0.0
1.6529379944561558e7 2.4808614132870533e7 0.0
0.0 0.0 0.0

-1.0559818792168219e7 1.1877969698916664e7 0.0
1.1877969698916664e7 3.122993292901295e7 0.0
0.0 0.0 0.0

-5.992790624110398e6 1.6248335665591966e7 0.0
1.6248335665591966e7 1.768437558333437e7 0.0
0.0 0.0 0.0

4.784109975674471e6 1.9823478241878e7 0.0
1.9823478241878e7 3.993403062523466e7 0.0
0.0 0.0 0.0

969945.2395293186 2.5674366719151407e7 0.0
2.5674366719151407e7 -7.268103283025769e6 0.0
0.0 0.0 0.0

-2.233649446058743e6 2.9370728068267114e7 0.0
2.9370728068267114e7 695443.5833274069 0.0
0.0 0.0 0.0

761530.8336715475 2.7163828456584636e7 0.0
2.7163828456584636e7 -6.145832433280208e6 0.0
0.0 0.0 0.0

2.3814771250216104e6 1.0883241723436331e7 0.0
1.0883241723436331e7 -2.1173762006720066e7 0.0
0.0 0.0 0.0

-4.1374206530204127e6 3.0057368315782253e7 0.0
3.0057368315782253e7 5.673798057945541e6 0.0
0.0 0.0 0.0

-2.1920104661699235e6 2.155373049866504e7 0.0
2.155373049866504e7 -5.952237982485565e6 0.0
0.0 0.0 0.0

1.485562528364404e6 1.5536426127709363e7 0.0
1.5536426127709363e7 -2.2215190169354886e7 0.0
0.0 0.0 0.0

-8.274717054755168e6 1.5933492175499367e7 0.0
1.5933492175499367e7 3.2226877491056267e7 0.0
0.0 0.0 0.0

-1.073801574352832e7 1.394738503813839e7 0.0
1.394738503813839e7 2.620905378570466e7 0.0
0.0 0.0 0.0

1.9589560301047945e6 9.89973227693238e6 0.0
9.89973227693238e6 -2.4480927070039023e7 0.0
0.0 0.0 0.0

-7.671514697703145e6 -2.1767916440189355e6 0.0
-2.1767916440189355e6 4.372186712103401e7 0.0
0.0 0.0 0.0

2.7141108903431986e6 1.5315196396935827e6 0.0
1.5315196396935827e6 -4.330245585673658e7 0.0
0.0 0.0 0.0

214479.88818312995 1.9971990787495352e7 0.0
1.9971990787495352e7 2.4724118982976675e7 0.0
0.0 0.0 0.0

-6.338553376766194e6 -760613.9550736364 0.0
-760613.9550736364 5.852077373658322e7 0.0
0.0 0.0 0.0

1.8308087635199353e6 1.6263980091081744e6 0.0
1.6263980091081744e6 -5.719889012024333e7 0.0
0.0 0.0 0.0

2.614531639138855e6 1.577067550429795e6 0.0
1.577067550429795e6 -4.454832278784934e7 0.0
0.0 0.0 0.0

-7.520377822259232e6 -2.0164487921788173e6 0.0
-2.0164487921788173e6 4.5034292641295165e7 0.0
0.0 0.0 0.0

-2.7556431387897097e6 1.7623768635865156e7 0.0
1.7623768635865156e7 4.1236407405180916e7 0.0
0.0 0.0 0.0

2.063881064232111e6 1.5389377550718922e6 0.0
1.5389377550718922e6 -5.5338473537917286e7 0.0
0.0 0.0 0.0

-6.491070458302207e6 -1.046291733483464e6 0.0
-1.046291733483464e6 5.628062639557881e7 0.0
0.0 0.0 0.0

-3.2102577567917313e6 2.1041972665266193e7 0.0
2.1041972665266193e7 2.2484417955943502e7 0.0
0.0 0.0 0.0

-8.475969420035323e6 319261.1471255192 0.0
319261.1471255192 3.979290977297616e7 0.0
0.0 0.0 0.0

-7.441782996421833e6 -1.8771251824156705e6 0.0
-1.8771251824156705e6 4.649864394654465e7 0.0
0.0 0.0 0.0

2.757089765952265e6 1.5351384637352936e6 0.0
1.5351384637352936e6 -4.597427337705544e7 0.0
0.0 0.0 0.0

2.1483908098364808e6 1.5615185226126844e6 0.0
1.5615185226126844e6 -5.354430408633799e7 0.0
0.0 0.0 0.0

-6.698956375112783e6 -1.2929233408479842e6 0.0
-1.2929233408479842e6 5.432846158519456e7 0.0
0.0 0.0 0.0

-2.949518941856839e8 6.539699303165839e7 0.0
6.539699303165839e7 -3.5140589674390875e7 0.0
0.0 0.0 0.0

2.7727744447077674e8 5.625689768770861e7 0.0
5.625689768770861e7 2.716885012398596e7 0.0
0.0 0.0 0.0

-8.054125958262292e6 1.633483516874405e7 0.0
1.633483516874405e7 1.8083403462045144e7 0.0
0.0 0.0 0.0

2.0872917202022485e6 1.46250028105298e6 0.0
1.46250028105298e6 -5.179250644292482e7 0.0
0.0 0.0 0.0

-6.971757323845159e6 -1.409919327536732e6 0.0
-1.409919327536732e6 5.270313802885409e7 0.0
0.0 0.0 0.0

309564.9298589584 1.9783103419827837e7 0.0
1.9783103419827837e7 -1.4169827720265423e6 0.0
0.0 0.0 0.0

-1.0359489327559225e7 1.502422603409899e7 0.0
1.502422603409899e7 2.519713805190275e7 0.0
0.0 0.0 0.0

-2.2069213684937526e6 2.781446763447595e7 0.0
2.781446763447595e7 3.7828058125215354e6 0.0
0.0 0.0 0.0

971491.3042160776 2.0547797088642586e7 0.0
2.0547797088642586e7 2.5556246382879075e7 0.0
0.0 0.0 0.0

-7.07350332135519e6 -1.4864771701452723e6 0.0
-1.4864771701452723e6 5.102563421080291e7 0.0
0.0 0.0 0.0

2.331753222635869e6 1.34386851522889e6 0.0
1.34386851522889e6 -5.034230692277951e7 0.0
0.0 0.0 0.0

-51593.849190409295 2.581589993652562e7 0.0
2.581589993652562e7 -7.18745714199857e6 0.0
0.0 0.0 0.0

-9.057078544087764e6 1.821268259290411e7 0.0
1.821268259290411e7 -6.0838724605484046e7 0.0
0.0 0.0 0.0

-791451.5383029757 2.8924152843934238e7 0.0
2.8924152843934238e7 -2.488670958544858e6 0.0
0.0 0.0 0.0

1.1432449172820346e6 1.734396382540306e7 0.0
1.734396382540306e7 -1.837317383104732e7 0.0
0.0 0.0 0.0

341547.5159006864 1.6181824360196218e7 0.0
1.6181824360196218e7 -2.573636500046579e7 0.0
0.0 0.0 0.0

-86555.35079616401 2.034681456374032e7 0.0
2.034681456374032e7 7.3263462862681355e6 0.0
0.0 0.0 0.0

2.4682852591533796e6 2.569737590213021e7 0.0
2.569737590213021e7 -8.618736370748483e6 0.0
0.0 0.0 0.0

1.203064059383262e6 2.3473842425842974e7 0.0
2.3473842425842974e7 -1.103833586879376e7 0.0
0.0 0.0 0.0

-6.428983852378951e6 1.700134305254927e7 0.0
1.700134305254927e7 -4.691210617677179e7 0.0
0.0 0.0 0.0

-1.446651415294678e6 2.903446287904482e7 0.0
2.903446287904482e7 1.2120892258254713e6 0.0
0.0 0.0 0.0

-3.1412779217811925e6 2.3662625725739e7 0.0
2.3662625725739e7 1.0062794474186467e7 0.0
0.0 0.0 0.0

-8.074549487560572e6 2.4930075120246224e7 0.0
2.4930075120246224e7 -1.2126142477308864e7 0.0
0.0 0.0 0.0

27294.71805860661 1.6669245207880981e7 0.0
1.6669245207880981e7 -2.574824219396048e7 0.0
0.0 0.0 0.0

-1.0867344009424245e7 1.3935368572358707e7 0.0
1.3935368572358707e7 2.1951937380843453e7 0.0
0.0 0.0 0.0

2.8106592278404697e6 1.918666417799368e7 0.0
1.918666417799368e7 1.3113254246100672e7 0.0
0.0 0.0 0.0

-9.885001359192472e6 1.5428711985353976e7 0.0
1.5428711985353976e7 2.1772257362904735e7 0.0
0.0 0.0 0.0

-1.7876941857916715e6 1.9895495980770886e7 0.0
1.9895495980770886e7 -2.3207634331918973e6 0.0
0.0 0.0 0.0

-1.7122221558910972e6 2.8708932488665495e7 0.0
2.8708932488665495e7 2.1362774746358306e6 0.0
0.0 0.0 0.0

-2.4919117901848676e6 1.692682139506632e7 0.0
1.692682139506632e7 -3.24105314626448e7 0.0
0.0 0.0 0.0

-2.323367431860036e6 2.1122936184959035e7 0.0
2.1122936184959035e7 2.2068738249546602e7 0.0
0.0 0.0 0.0

-1.1585914319947027e6 3.750093120596184e7 0.0
3.750093120596184e7 1.6230654568663226e6 0.0
0.0 0.0 0.0

-2.584316266113149e6 2.032782115410052e7 0.0
2.032782115410052e7 -3.0495739671979537e6 0.0
0.0 0.0 0.0

-287201.58404655894 2.713909885522423e7 0.0
2.713909885522423e7 -5.199555793875707e6 0.0
0.0 0.0 0.0

1.8002938826174583e7 2.468053888309848e7 0.0
2.468053888309848e7 1.2899507681182053e7 0.0
0.0 0.0 0.0

-2.0036184690477068e6 2.829126269669239e7 0.0
2.829126269669239e7 2.915222527694948e6 0.0
0.0 0.0 0.0

-9.168619947601195e6 1.682021916512881e7 0.0
1.682021916512881e7 -1.1041475246112498e6 0.0
0.0 0.0 0.0

-1.426529963919026e6 3.100143130726079e7 0.0
3.100143130726079e7 1.3034204439415513e6 0.0
0.0 0.0 0.0

3.5160533309221305e6 1.971789449714118e6 0.0
1.971789449714118e6 -2.645705795828787e7 0.0
0.0 0.0 0.0

3.6017821820432637e6 2.0432348366200852e6 0.0
2.0432348366200852e6 -2.543347744457105e7 0.0
0.0 0.0 0.0

-89462.19925725786 2.6504809201473832e7 0.0
2.6504809201473832e7 -6.006102155679673e6 0.0
0.0 0.0 0.0

2.0226027187509015e6 1.994984744379423e7 0.0
1.994984744379423e7 3.3302201322758876e7 0.0
0.0 0.0 0.0

-853381.3826341454 3.197883630117876e7 0.0
3.197883630117876e7 747981.2249757298 0.0
0.0 0.0 0.0

-1.0780728821596084e7 1.2256264410564242e7 0.0
1.2256264410564242e7 2.9197482526642516e7 0.0
0.0 0.0 0.0

-877384.6704856344 3.49514885452424e7 0.0
3.49514885452424e7 1.0092647539449022e6 0.0
0.0 0.0 0.0

-2.746773165130061e6 2.2209968881229315e7 0.0
2.2209968881229315e7 1.3317657079424795e7 0.0
0.0 0.0 0.0

208627.10357706947 1.8788896696733844e7 0.0
1.8788896696733844e7 5.267903048929326e6 0.0
0.0 0.0 0.0

1.4909190706281215e6 1.3103304853491595e7 0.0
1.3103304853491595e7 -2.974734777239659e7 0.0
0.0 0.0 0.0

-3.1418481598343505e6 2.7678726567092143e7 0.0
2.7678726567092143e7 4.076703596540622e6 0.0
0.0 0.0 0.0

-8.934692077038316e6 -2.011760100533209e6 0.0
-2.011760100533209e6 2.890197384570247e7 0.0
0.0 0.0 0.0

-2.866982522860868e6 1.6844357111441746e7 0.0
1.6844357111441746e7 4.3574807542188466e7 0.0
0.0 0.0 0.0

-5.751714466726575e6 1.6573153397239784e7 0.0
1.6573153397239784e7 -5.2809064075187154e7 0.0
0.0 0.0 0.0

-9.579638824578362e6 1.3111400459768388e7 0.0
1.3111400459768388e7 3.2823206713333346e7 0.0
0.0 0.0 0.0

7.049086606849752e6 2.6527936491575673e7 0.0
2.6527936491575673e7 -5.9552846666556345e6 0.0
0.0 0.0 0.0

1.6696592701727785e6 1.370041125195657e7 0.0
1.370041125195657e7 -2.6340193145247273e7 0.0
0.0 0.0 0.0

-2.8019690846533542e6 1.993227401507667e7 0.0
1.993227401507667e7 -1.9570171909078336e6 0.0
0.0 0.0 0.0

-540977.3791236104 2.8389928594505966e7 0.0
2.8389928594505966e7 -3.3547507625399604e6 0.0
0.0 0.0 0.0

-849837.6499644733 1.915940412390469e7 0.0
1.915940412390469e7 -5.713290265241567e6 0.0
0.0 0.0 0.0

-1.0386967445945242e7 1.3462392649861151e7 0.0
1.3462392649861151e7 2.6126589864332516e7 0.0
0.0 0.0 0.0

-8.913617685752057e6 1.5097202943180395e7 0.0
1.5097202943180395e7 3.1806037662233654e7 0.0
0.0 0.0 0.0

-392182.01587125193 2.7776502877415378e7 0.0
2.7776502877415378e7 -4.284563092417812e6 0.0
0.0 0.0 0.0

-7.343314341794277e6 1.5549010400135264e7 0.0
1.5549010400135264e7 1.948898047214108e7 0.0
0.0 0.0 0.0

2.6478307233147398e6 4.462656701411681e6 0.0
4.462656701411681e6 -4.2594301120219976e7 0.0
0.0 0.0 0.0

-5.865981720454192e6 1.818764533710117e7 0.0
1.818764533710117e7 1.5522417515616551e7 0.0
0.0 0.0 0.0

-1.8491426701810865e6 1.9010198690907262e7 0.0
1.9010198690907262e7 -1.1915038621774258e7 0.0
0.0 0.0 0.0

659770.0547145572 2.0024980118891157e7 0.0
2.0024980118891157e7 1.655452764045872e6 0.0
0.0 0.0 0.0

-3.8056411398340026e6 2.1587321344978232e7 0.0
2.1587321344978232e7 -1.3391531277437693e7 0.0
0.0 0.0 0.0

-1.7295657802262283e6 1.9702953215986293e7 0.0
1.9702953215986293e7 -7.81433282650037e6 0.0
0.0 0.0 0.0

373184.6850324236 1.6706334478197288e7 0.0
1.6706334478197288e7 -2.416957080782381e7 0.0
0.0 0.0 0.0

2.047632793907201e6 8.551788254110826e6 0.0
8.551788254110826e6 -3.0945896274723776e7 0.0
0.0 0.0 0.0

-1.4080787076093885e6 1.9074244275687534e7 0.0
1.9074244275687534e7 -8.816259455052473e6 0.0
0.0 0.0 0.0

1.589560313004638e6 1.1371593982877845e7 0.0
1.1371593982877845e7 -2.1950708188806135e7 0.0
0.0 0.0 0.0

3.5418173571801893e6 3.860546686956816e6 0.0
3.860546686956816e6 -2.034174111762216e7 0.0
0.0 0.0 0.0

-2.7652622790777986e6 2.865363639163398e7 0.0
2.865363639163398e7 2.3189632206625612e6 0.0
0.0 0.0 0.0

-1.2112116342820604e6 1.3730149037146665e7 0.0
1.3730149037146665e7 -8.707642901354393e6 0.0
0.0 0.0 0.0

-3.2967643192249704e6 2.153782711386994e7 0.0
2.153782711386994e7 1.9236939266222056e7 0.0
0.0 0.0 0.0

-7.787393293144789e6 -5.505688635527007e6 0.0
-5.505688635527007e6 1.8747758172503002e7 0.0
0.0 0.0 0.0

4.46392799224355e6 2.1576170171707418e7 0.0
2.1576170171707418e7 2.5833563802199224e6 0.0
0.0 0.0 0.0

-5.1557216138127595e6 2.1884257251772292e7 0.0
2.1884257251772292e7 -1.4684886011467224e7 0.0
0.0 0.0 0.0

2.108445514259154e6 9.092778894317573e6 0.0
9.092778894317573e6 -2.5712956982372414e7 0.0
0.0 0.0 0.0

-1.114674514337266e8 1.8846530039961953e7 0.0
1.8846530039961953e7 4.1458563737089112e6 0.0
0.0 0.0 0.0

-4.608617963770712e6 2.0497648320848323e7 0.0
2.0497648320848323e7 2.3086182262915205e7 0.0
0.0 0.0 0.0

906102.2727974774 2.0152034444160573e7 0.0
2.0152034444160573e7 -1.5644434785124986e7 0.0
0.0 0.0 0.0

-1.3651873758127182e6 1.798670737153236e7 0.0
1.798670737153236e7 -9.567434073420938e6 0.0
0.0 0.0 0.0

1.1227798315476049e6 1.4931618535544842e7 0.0
1.4931618535544842e7 -2.695855168249222e7 0.0
0.0 0.0 0.0

1.6367742088269633e6 1.978440097896156e7 0.0
1.978440097896156e7 1.3087383496275023e7 0.0
0.0 0.0 0.0

668249.724079337 1.3530493940872157e7 0.0
1.3530493940872157e7 -3.377153658523369e7 0.0
0.0 0.0 0.0

1.745314412464263e6 2.0144224882639404e7 0.0
2.0144224882639404e7 1.522792150677302e7 0.0
0.0 0.0 0.0

334154.7756020101 1.8186116268501665e7 0.0
1.8186116268501665e7 -1.7495249752669737e7 0.0
0.0 0.0 0.0

2.7894114123837426e6 8.840932195839694e6 0.0
8.840932195839694e6 -2.736699520385258e7 0.0
0.0 0.0 0.0

2.0809811257809699e6 2.423957324644766e6 0.0
2.423957324644766e6 -4.917126324284122e7 0.0
0.0 0.0 0.0

4.977484254842842e6 2.8335837871167805e7 0.0
2.8335837871167805e7 -6.330326052417374e6 0.0
0.0 0.0 0.0

1.1853439794535171e6 1.325683296787865e7 0.0
1.325683296787865e7 -3.175760875062599e7 0.0
0.0 0.0 0.0

-4.252952851804604e6 2.926606470602874e7 0.0
2.926606470602874e7 6.401570540020879e6 0.0
0.0 0.0 0.0

-8.426241332624428e6 2.3527525990016315e7 0.0
2.3527525990016315e7 1.7826862356107924e6 0.0
0.0 0.0 0.0

2.3450683040086823e6 8.341004680956861e6 0.0
8.341004680956861e6 -1.2693371180010544e7 0.0
0.0 0.0 0.0

-1.593664910554099e6 3.851936599293889e7 0.0
3.851936599293889e7 1.9755014058413277e6 0.0
0.0 0.0 0.0

2.595654110723843e6 9.942859682556542e6 0.0
9.942859682556542e6 -2.4317446069781024e7 0.0
0.0 0.0 0.0

1.3219783429523632e6 1.8655201110861838e7 0.0
1.8655201110861838e7 4.475328629463106e7 0.0
0.0 0.0 0.0

-842668.8627995292 2.0550014967405308e7 0.0
2.0550014967405308e7 2.0049965612663499e6 0.0
0.0 0.0 0.0

-7.593666461970855e6 3.0448194463942237e7 0.0
3.0448194463942237e7 6.551878511283901e6 0.0
0.0 0.0 0.0

-9.503257456533229e6 1.4748958365750065e7 0.0
1.4748958365750065e7 2.313944047424511e7 0.0
0.0 0.0 0.0

862876.6136345528 1.4559285354409032e7 0.0
1.4559285354409032e7 -2.70189359212816e7 0.0
0.0 0.0 0.0

-2.955812996119047e6 1.2016911295694463e7 0.0
1.2016911295694463e7 -1.7281620848717238e6 0.0
0.0 0.0 0.0

-885111.4178548299 2.0335525764747642e7 0.0
2.0335525764747642e7 -6.813937374124952e6 0.0
0.0 0.0 0.0

1.4481338245527565e7 2.2404510642474256e7 0.0
2.2404510642474256e7 3.8678298495054147e6 0.0
0.0 0.0 0.0

808210.4527078234 2.0110732378475055e7 0.0
2.0110732378475055e7 -1.720926284159498e7 0.0
0.0 0.0 0.0

686668.3881997168 9.638806014356067e6 0.0
9.638806014356067e6 -6.455442470832153e6 0.0
0.0 0.0 0.0

574055.4561091363 1.5646219175182778e7 0.0
1.5646219175182778e7 -2.5652406184989095e7 0.0
0.0 0.0 0.0

-8.675663282711798e6 -1.3410675926243954e6 0.0
-1.3410675926243954e6 3.4969358078557804e7 0.0
0.0 0.0 0.0

-3.5380992021458326e6 2.2420169705886386e7 0.0
2.2420169705886386e7 1.6890674464442477e7 0.0
0.0 0.0 0.0

-9.932804051782848e6 1.5607253297960345e7 0.0
1.5607253297960345e7 2.5919740018917885e7 0.0
0.0 0.0 0.0

-1.8068087761556424e7 2.6990600483045038e7 0.0
2.6990600483045038e7 -7.8490053058878e6 0.0
0.0 0.0 0.0

-5.906468574567727e6 1.740153561100472e7 0.0
1.740153561100472e7 -4.483145274082065e7 0.0
0.0 0.0 0.0

-3.1322778036829745e6 2.6397291359734267e7 0.0
2.6397291359734267e7 8.47135265002399e6 0.0
0.0 0.0 0.0

-4.641426407706852e6 2.7544026718004216e7 0.0
2.7544026718004216e7 8.0323347948909905e6 0.0
0.0 0.0 0.0

2.249743516711229e6 2.368548295897168e7 0.0
2.368548295897168e7 -1.0582711351274312e7 0.0
0.0 0.0 0.0

-3.887111886561461e6 1.5808160081121486e7 0.0
1.5808160081121486e7 -4.6354924001081415e7 0.0
0.0 0.0 0.0

-2.681101305723006e6 2.1053369943727136e7 0.0
2.1053369943727136e7 1.995423810786876e7 0.0
0.0 0.0 0.0

-8.132068411797224e6 6.222144051835001e6 0.0
6.222144051835001e6 4.6712614560256906e7 0.0
0.0 0.0 0.0

2.317921939504899e6 2.79069252113977e6 0.0
2.79069252113977e6 -7.425471868413092e6 0.0
0.0 0.0 0.0

-1.5297758075384106e6 1.831082937573901e7 0.0
1.831082937573901e7 -2.3659764454250257e7 0.0
0.0 0.0 0.0

2.2210797576501565e6 2.484735357131617e7 0.0
2.484735357131617e7 -9.511967029060284e6 0.0
0.0 0.0 0.0

-1.7627459564404998e6 2.0938263627179906e7 0.0
2.0938263627179906e7 -2.0713014713474736e6 0.0
0.0 0.0 0.0

-644311.1571219922 1.6643442601050174e7 0.0
1.6643442601050174e7 -1.2234314910028657e7 0.0
0.0 0.0 0.0

-9.138741297251612e6 1.8329080688528076e7 0.0
1.8329080688528076e7 -3.620464779264706e7 0.0
0.0 0.0 0.0

-9.882215664460259e6 1.4109175182217153e7 0.0
1.4109175182217153e7 3.049748851666989e7 0.0
0.0 0.0 0.0

404047.2824085372 3.1767602616313007e7 0.0
3.1767602616313007e7 -754735.5852592924 0.0
0.0 0.0 0.0

-2.5700068156875074e7 2.755332699601147e7 0.0
2.755332699601147e7 -3.1077805755731706e6 0.0
0.0 0.0 0.0

4.884313937734733e6 2.2159127606482722e7 0.0
2.2159127606482722e7 2.8627744346023356e6 0.0
0.0 0.0 0.0

1.666016310193832e6 8.156989664006943e6 0.0
8.156989664006943e6 -1.4868473688841047e7 0.0
0.0 0.0 0.0

-1.9606012238030075e6 2.0519803291677993e7 0.0
2.0519803291677993e7 -1.013211522928132e6 0.0
0.0 0.0 0.0

-9.286869431804616e6 1.1396002038488558e7 0.0
1.1396002038488558e7 3.689941222612498e7 0.0
0.0 0.0 0.0

-5.690505043910503e6 3.1212211737114765e7 0.0
3.1212211737114765e7 5.544472495588355e6 0.0
0.0 0.0 0.0

-3.2822404340556106e6 2.1096079499556873e7 0.0
2.1096079499556873e7 2.0659694787876453e7 0.0
0.0 0.0 0.0

-1.8247992232265775e6 2.9649214821283538e7 0.0
2.9649214821283538e7 -59757.53977468843 0.0
0.0 0.0 0.0

483849.79385885503 1.7578752266157817e7 0.0
1.7578752266157817e7 -1.8740379008283306e7 0.0
0.0 0.0 0.0

-8.73023452180521e6 1.32940858146625e7 0.0
1.32940858146625e7 3.647024215800641e7 0.0
0.0 0.0 0.0

52592.160307643004 1.852041549502844e7 0.0
1.852041549502844e7 -2.105259759984529e7 0.0
0.0 0.0 0.0

-7.275953096060632e6 2.2949650122116704e7 0.0
2.2949650122116704e7 -4.472178685405951e6 0.0
0.0 0.0 0.0

374815.5858310837 3.2354692852360748e7 0.0
3.2354692852360748e7 -874356.5709047904 0.0
0.0 0.0 0.0

3.0148560486405306e6 4.979732711225601e6 0.0
4.979732711225601e6 -2.1577575347139508e7 0.0
0.0 0.0 0.0

2.3020614510308397e6 2.3169405536723528e7 0.0
2.3169405536723528e7 -9.288237787690535e6 0.0
0.0 0.0 0.0

-2.845002031374183e6 2.6312344696640376e7 0.0
2.6312344696640376e7 7.642553690194596e6 0.0
0.0 0.0 0.0

-1.0205882833860947e7 1.3847644685004089e7 0.0
1.3847644685004089e7 2.4262380906770393e7 0.0
0.0 0.0 0.0

-6.251105709403097e6 2.422965249996426e7 0.0
2.422965249996426e7 -1.0769768442639755e7 0.0
0.0 0.0 0.0

-8.974399376167731e6 1.6043517366395224e7 0.0
1.6043517366395224e7 2.9615788477894142e7 0.0
0.0 0.0 0.0

-2.5680025944859735e6 6.658125108867474e6 0.0
6.658125108867474e6 5.857452354280601e6 0.0
0.0 0.0 0.0

-2.6816801241883473e6 2.554899871638547e7 0.0
2.554899871638547e7 7.835316035692843e6 0.0
0.0 0.0 0.0

-1.1063615846958006e7 1.2727237235278467e7 0.0
1.2727237235278467e7 2.7240701406662695e7 0.0
0.0 0.0 0.0

-4.028843376205554e6 2.132126328422164e7 0.0
2.132126328422164e7 1.339274020242278e7 0.0
0.0 0.0 0.0

5.057380400818706e6 1.946968987534494e7 0.0
1.946968987534494e7 3.477439537817908e7 0.0
0.0 0.0 0.0

-2.755778435461182e6 1.5718234222892469e7 0.0
1.5718234222892469e7 -4.069602758263883e7 0.0
0.0 0.0 0.0

-7.354673897353305e6 -5.889414096818107e6 0.0
-5.889414096818107e6 1.7158345163233183e7 0.0
0.0 0.0 0.0

9.550757985710459e6 2.8246054577397555e7 0.0
2.8246054577397555e7 -5.29820958216483e6 0.0
0.0 0.0 0.0

-9.945167130076772e6 1.2154518239248455e7 0.0
1.2154518239248455e7 3.2192977837747823e7 0.0
0.0 0.0 0.0

294699.66320872214 1.4288980321880683e7 0.0
1.4288980321880683e7 -1.519390633184521e7 0.0
0.0 0.0 0.0

-2.328766908916725e6 2.1213141632013235e7 0.0
2.1213141632013235e7 1.7337410204902522e7 0.0
0.0 0.0 0.0

-851312.9308847797 1.931286308601421e7 0.0
1.931286308601421e7 -7.198404817672785e6 0.0
0.0 0.0 0.0

-4.360469366032043e6 2.1924683990579274e7 0.0
2.1924683990579274e7 1.8571967220950752e7 0.0
0.0 0.0 0.0

-112166.66597105004 1.1925699633508682e7 0.0
1.1925699633508682e7 -8.2060217154030325e6 0.0
0.0 0.0 0.0

-6.386129411626999e6 2.523247278553458e7 0.0
2.523247278553458e7 7.1798338297899235e6 0.0
0.0 0.0 0.0

-3.9952247668541893e6 2.1535471551594388e7 0.0
2.1535471551594388e7 1.4304047219868718e7 0.0
0.0 0.0 0.0

1.8264383057312514e6 2.292016400036423e7 0.0
2.292016400036423e7 -1.0806922934372067e7 0.0
0.0 0.0 0.0

-3.3031450012280163e6 2.6580928213425864e7 0.0
2.6580928213425864e7 6.081934402012186e6 0.0
0.0 0.0 0.0

-780012.5414141641 3.2678574412667196e7 0.0
3.2678574412667196e7 865929.6858304021 0.0
0.0 0.0 0.0

-2.2112602189207077e6 1.5799849729150658e7 0.0
1.5799849729150658e7 -3.531002638758729e7 0.0
0.0 0.0 0.0

961251.271868798 2.6272794477216112e6 0.0
2.6272794477216112e6 -1.6124974458186487e6 0.0
0.0 0.0 0.0

-8.670077101441436e6 757961.6478737795 0.0
757961.6478737795 1.1143846454381531e7 0.0
0.0 0.0 0.0

1.5036139935368337e6 4.1332525318692783e6 0.0
4.1332525318692783e6 -6.106943691727376e7 0.0
0.0 0.0 0.0

233693.43087534 2.4722846608289875e7 0.0
2.4722846608289875e7 -7.173859269657793e6 0.0
0.0 0.0 0.0

-3.7941413117940305e6 2.102610893628278e7 0.0
2.102610893628278e7 2.1211303934216574e7 0.0
0.0 0.0 0.0

-1.073478610406896e7 1.4310187881576765e7 0.0
1.4310187881576765e7 2.4462220410852723e7 0.0
0.0 0.0 0.0

-2.1821837240379937e6 3.9658996685629435e7 0.0
3.9658996685629435e7 2.2695298467698684e6 0.0
0.0 0.0 0.0

-1.050904986372364e7 1.037428492018783e7 0.0
1.037428492018783e7 3.2758222345367912e7 0.0
0.0 0.0 0.0

4.352644377556165e7 7.031016079402137e7 0.0
7.031016079402137e7 -4.793999803681813e6 0.0
0.0 0.0 0.0

552786.5994710876 2.2234000149093993e7 0.0
2.2234000149093993e7 -1.2904051188825864e7 0.0
0.0 0.0 0.0

1.3415034473092807e6 1.6112766619790502e7 0.0
1.6112766619790502e7 -2.0908117404471923e7 0.0
0.0 0.0 0.0

-3.3768838476549257e6 2.1960963925682418e7 0.0
2.1960963925682418e7 1.764915123039988e7 0.0
0.0 0.0 0.0

-9.641921763347637e6 1.271235988160948e7 0.0
1.271235988160948e7 3.421905879870096e7 0.0
0.0 0.0 0.0

909176.2150337384 2.4116003063318036e7 0.0
2.4116003063318036e7 -9.463125850388464e6 0.0
0.0 0.0 0.0

1.0274798555321265e6 2.0328157944060963e7 0.0
2.0328157944060963e7 4.633006429846003e6 0.0
0.0 0.0 0.0

2.636694736182809e6 2.5021192063139365e6 0.0
2.5021192063139365e6 -3.875926054124636e7 0.0
0.0 0.0 0.0

-9.202670206940476e6 9.444965193211492e6 0.0
9.444965193211492e6 1.7601865994370103e7 0.0
0.0 0.0 0.0

-3.6871271379892863e6 4.284396914879774e7 0.0
4.284396914879774e7 3.565550177681933e6 0.0
0.0 0.0 0.0

-4.32341752291937e6 2.0842066818837136e7 0.0
2.0842066818837136e7 2.294684168837056e7 0.0
0.0 0.0 0.0

-2.1039385199309904e6 1.8899230603471085e7 0.0
1.8899230603471085e7 -1.9596930238515183e7 0.0
0.0 0.0 0.0

8.027248827308242e6 2.1940586705483265e7 0.0
2.1940586705483265e7 8.003023255240579e6 0.0
0.0 0.0 0.0

-1.0446148208174668e7 4.690434150746639e6 0.0
4.690434150746639e6 1.752871153440113e7 0.0
0.0 0.0 0.0

-5.766778700396059e6 1.2520728003109023e7 0.0
1.2520728003109023e7 7.074377139324426e6 0.0
0.0 0.0 0.0

-2.2210485481780577e6 1.888592028863825e7 0.0
1.888592028863825e7 -1.4981494972316163e7 0.0
0.0 0.0 0.0

201753.6805293928 1.7738043648843136e7 0.0
1.7738043648843136e7 -1.2091633655321823e7 0.0
0.0 0.0 0.0

-5.841884510350337e6 1.9970520554973755e7 0.0
1.9970520554973755e7 1.904952082749776e7 0.0
0.0 0.0 0.0

-1.9562398176685264e6 1.8005515471649062e7 0.0
1.8005515471649062e7 -2.5411959305533584e7 0.0
0.0 0.0 0.0

1.455592229183277e6 1.3718886363084994e7 0.0
1.3718886363084994e7 -2.8182593726928547e7 0.0
0.0 0.0 0.0

-3.451706034247309e6 2.6421434437150277e7 0.0
2.6421434437150277e7 9.136075736237563e6 0.0
0.0 0.0 0.0

674256.4642653484 1.8176910694590442e7 0.0
1.8176910694590442e7 -2.126117867221779e7 0.0
0.0 0.0 0.0

-9.727536664220134e6 1.4868560179282647e7 0.0
1.4868560179282647e7 2.7489733458761524e7 0.0
0.0 0.0 0.0

3.360270938165758e6 5.377807160286045e6 0.0
5.377807160286045e6 -1.5452183435680345e7 0.0
0.0 0.0 0.0

-3.491089845936522e7 3.374371183634018e7 0.0
3.374371183634018e7 -1.3230328244689599e7 0.0
0.0 0.0 0.0

1.3336537695768191e6 7.595168180152427e6 0.0
7.595168180152427e6 -1.1717858228716604e7 0.0
0.0 0.0 0.0

3.6191578560411166e6 2.619442185602949e6 0.0
2.619442185602949e6 -1.516611955904771e7 0.0
0.0 0.0 0.0

-4.993896804115975e6 2.7386071815178104e7 0.0
2.7386071815178104e7 8.511106919739913e6 0.0
0.0 0.0 0.0

2.249366020398608e6 1.9122179023503345e7 0.0
1.9122179023503345e7 7.497887275100103e6 0.0
0.0 0.0 0.0

5.19061676287167e6 2.2698371051414333e7 0.0
2.2698371051414333e7 -1.867434056288536e6 0.0
0.0 0.0 0.0

-4.350264878072035e6 1.9034591643171325e7 0.0
1.9034591643171325e7 3.0019363674708948e7 0.0
0.0 0.0 0.0

-1.5408811868131198e6 1.9329041076820716e7 0.0
1.9329041076820716e7 3.2796924245179206e7 0.0
0.0 0.0 0.0

1.247382025225138e7 1.897273806589484e7 0.0
1.897273806589484e7 5.847150094243144e7 0.0
0.0 0.0 0.0

170751.53598373826 1.9334575969923053e7 0.0
1.9334575969923053e7 -4.08028149052683e6 0.0
0.0 0.0 0.0

-3.699764048807759e6 2.186142139103013e7 0.0
2.186142139103013e7 1.8453341427815404e7 0.0
0.0 0.0 0.0

-4.98196371997553e6 1.890061528977137e7 0.0
1.890061528977137e7 1.3626013384250939e7 0.0
0.0 0.0 0.0

-2.5452832906546956e6 1.877982210454328e7 0.0
1.877982210454328e7 -1.8058134213485666e7 0.0
0.0 0.0 0.0

-3.591676344519228e6 2.6771673777664624e7 0.0
2.6771673777664624e7 6.899587919715459e6 0.0
0.0 0.0 0.0

-1.0105826703603733e7 1.2845832295754595e7 0.0
1.2845832295754595e7 3.1878343683343392e7 0.0
0.0 0.0 0.0

1.4141992805075655e7 2.660783082255559e7 0.0
2.660783082255559e7 -3.6315063595205983e6 0.0
0.0 0.0 0.0

930361.2508994159 2.2753611978143595e7 0.0
2.2753611978143595e7 -1.1716715923724793e7 0.0
0.0 0.0 0.0

2.4015945004280377e6 7.1449212799603e6 0.0
7.1449212799603e6 -2.553946856454335e7 0.0
0.0 0.0 0.0

5.191416073057635e6 2.4625025756667037e7 0.0
2.4625025756667037e7 -7.021413174253985e6 0.0
0.0 0.0 0.0

-524323.5257110585 2.840389470846066e7 0.0
2.840389470846066e7 -1.3255954177010776e6 0.0
0.0 0.0 0.0

-7.771029567311818e6 1.9382477576823387e7 0.0
1.9382477576823387e7 -2.590343883272273e7 0.0
0.0 0.0 0.0

9.345874264142478e6 2.0921129402836934e7 0.0
2.0921129402836934e7 3.115292342345154e7 0.0
0.0 0.0 0.0

-7.975479990520947e6 114396.40506560024 0.0
114396.40506560024 4.533769913402673e7 0.0
0.0 0.0 0.0

1.7903471397499507e6 2.2001654907389995e7 0.0
2.2001654907389995e7 7.20680881007923e6 0.0
0.0 0.0 0.0

-8.472440028208539e6 -1.0004065683408921e6 0.0
-1.0004065683408921e6 3.72065319479447e7 0.0
0.0 0.0 0.0

849555.0542656002 2.898022320693654e7 0.0
2.898022320693654e7 -3.297298483490009e6 0.0
0.0 0.0 0.0

4.654426293703405e6 2.7275079881045103e7 0.0
2.7275079881045103e7 -6.8570236857751e6 0.0
0.0 0.0 0.0

-2.9669738369643628e6 4.1044662974172585e7 0.0
4.1044662974172585e7 2.4584341228322154e6 0.0
0.0 0.0 0.0

9.756918677622098e6 1.9965261622520413e7 0.0
1.9965261622520413e7 8.51072296651778e6 0.0
0.0 0.0 0.0

-9.671752284194145e6 1.1774126817115488e7 0.0
1.1774126817115488e7 3.446212647647e7 0.0
0.0 0.0 0.0

580125.2983024457 2.9567196599759817e7 0.0
2.9567196599759817e7 -2.353850756382515e6 0.0
0.0 0.0 0.0

-3.7637873811352244e6 2.2293440015139595e7 0.0
2.2293440015139595e7 1.2711730427459328e7 0.0
0.0 0.0 0.0

-3.1894728728179606e6 2.5216288394550674e7 0.0
2.5216288394550674e7 7.321662944518657e6 0.0
0.0 0.0 0.0

1.4318526974646654e6 9.26577267818094e6 0.0
9.26577267818094e6 -4.3986094176051356e7 0.0
0.0 0.0 0.0

-3.7891187647554353e6 2.629838152006386e7 0.0
2.629838152006386e7 9.871451244973592e6 0.0
0.0 0.0 0.0

1.6673721407310206e7 1.701256871778715e7 0.0
1.701256871778715e7 4.448970240132454e6 0.0
0.0 0.0 0.0

1.6056367673589028e6 1.4337411605118228e7 0.0
1.4337411605118228e7 -2.4930582529779885e7 0.0
0.0 0.0 0.0

-6.180933879672211e6 3.1326317094706986e6 0.0
3.1326317094706986e6 6.38111199227356e7 0.0
0.0 0.0 0.0

-956711.0031996277 3.067421106909519e7 0.0
3.067421106909519e7 607282.6877430852 0.0
0.0 0.0 0.0

3.436045291557309e6 2.2276181344094247e7 0.0
2.2276181344094247e7 6.967918704275137e6 0.0
0.0 0.0 0.0

-9.28686930767018e7 8.61073805389383e7 0.0
8.61073805389383e7 -1.164149007218194e7 0.0
0.0 0.0 0.0

3.12132210654011e6 4.052026363443061e6 0.0
4.052026363443061e6 -2.0657383484688025e7 0.0
0.0 0.0 0.0

-1.9031317625622419e6 2.1542619089790843e7 0.0
2.1542619089790843e7 -804187.4140741879 0.0
0.0 0.0 0.0

-1.7524360809007317e7 2.8491968640738346e7 0.0
2.8491968640738346e7 3.068785303296581e6 0.0
0.0 0.0 0.0

-351479.7718659928 2.0881703236029092e7 0.0
2.0881703236029092e7 -1.5113702438890122e7 0.0
0.0 0.0 0.0

685995.0948494477 2.214679489558845e7 0.0
2.214679489558845e7 -1.3381381567617182e7 0.0
0.0 0.0 0.0

1.1676923916442404e7 2.329780111868776e7 0.0
2.329780111868776e7 1.2760835322324913e6 0.0
0.0 0.0 0.0

-3.192497555786511e6 3.492423104398844e7 0.0
3.492423104398844e7 2.9595893116707467e6 0.0
0.0 0.0 0.0

-4.0900059881337443e6 2.1955509927435398e7 0.0
2.1955509927435398e7 -1.2997532069026608e7 0.0
0.0 0.0 0.0

2.322100348961193e6 5.172278763338403e6 0.0
5.172278763338403e6 -4.680475470583694e7 0.0
0.0 0.0 0.0

-3.2566516923130207e7 3.0845962637175865e7 0.0
3.0845962637175865e7 -8.752332934266623e6 0.0
0.0 0.0 0.0

-3.077420826729959e6 2.1624499213443287e7 0.0
2.1624499213443287e7 1.3869476175381726e7 0.0
0.0 0.0 0.0

4.260400753085449e6 2.6303611130947217e7 0.0
2.6303611130947217e7 -7.41647122988599e6 0.0
0.0 0.0 0.0

631706.9822626598 1.877786845653105e7 0.0
1.877786845653105e7 4.203877456259383e7 0.0
0.0 0.0 0.0

1.530889165898997e7 2.5145515840320732e7 0.0
2.5145515840320732e7 -2.3481166881950246e6 0.0
0.0 0.0 0.0

-3.8976393034200137e6 2.4504770583703395e7 0.0
2.4504770583703395e7 1.276175099945424e7 0.0
0.0 0.0 0.0

-437843.49587704986 1.8516153634828355e7 0.0
1.8516153634828355e7 -1.3367713457202382e7 0.0
0.0 0.0 0.0

7.850878343619386e6 1.2223514816458177e7 0.0
1.2223514816458177e7 4.24288797870937e6 0.0
0.0 0.0 0.0

3.055208047742769e6 2.3205813345564075e7 0.0
2.3205813345564075e7 -7.679704116187997e6 0.0
0.0 0.0 0.0

-4.546398167211499e6 2.0096878489928667e7 0.0
2.0096878489928667e7 2.5735360388268843e7 0.0
0.0 0.0 0.0

-4.967771407454465e6 6.69301476007076e6 0.0
6.69301476007076e6 6.680488709307488e7 0.0
0.0 0.0 0.0

-5.620239710615229e6 1.174558162369042e6 0.0
1.174558162369042e6 7.004031266592808e7 0.0
0.0 0.0 0.0

-545621.4081154871 2.055976641083392e7 0.0
2.055976641083392e7 -1.1917853563071717e7 0.0
0.0 0.0 0.0

763461.2077960912 2.1805169420478754e7 0.0
2.1805169420478754e7 -1.2783665615124863e7 0.0
0.0 0.0 0.0

843522.8018481862 2.209757038360797e7 0.0
2.209757038360797e7 -1.346320944595322e7 0.0
0.0 0.0 0.0

-1.3670186994946256e7 2.4969267979959387e7 0.0
2.4969267979959387e7 -3.939346770530343e6 0.0
0.0 0.0 0.0

2.112400624592301e7 2.2841807326656256e7 0.0
2.2841807326656256e7 1.1502097256197425e7 0.0
0.0 0.0 0.0

-4.95638551372429e6 2.0972445101246167e7 0.0
2.0972445101246167e7 2.1728987601075403e7 0.0
0.0 0.0 0.0

1.0552970397457965e6 2.2025744621369407e7 0.0
2.2025744621369407e7 -1.3367136257194646e7 0.0
0.0 0.0 0.0

-794149.5856109369 1.7655884061556835e7 0.0
1.7655884061556835e7 -1.182946109507258e7 0.0
0.0 0.0 0.0

-9.36805148218968e6 -2.18114916014431e6 0.0
-2.18114916014431e6 2.518655684324356e7 0.0
0.0 0.0 0.0

-432783.7499636151 1.4564340624995187e7 0.0
1.4564340624995187e7 -3.407480912184312e7 0.0
0.0 0.0 0.0

-9.577030937673114e6 1.44854760051039e6 0.0
1.44854760051039e6 3.55807554047356e7 0.0
0.0 0.0 0.0

-8.552243812763974e6 -3.7553398119446593e6 0.0
-3.7553398119446593e6 2.8266148248894695e7 0.0
0.0 0.0 0.0

-8.559680550596168e6 -4.0440516030370705e6 0.0
-4.0440516030370705e6 2.7437934224172805e7 0.0
0.0 0.0 0.0

-4.870660617262479e6 1.2307448449051326e7 0.0
1.2307448449051326e7 1.0197839274189565e7 0.0
0.0 0.0 0.0

624038.0736957183 1.6952489653421808e7 0.0
1.6952489653421808e7 -2.0028603585029747e7 0.0
0.0 0.0 0.0

146880.5152444467 1.4414285115863997e7 0.0
1.4414285115863997e7 -3.383658633132482e7 0.0
0.0 0.0 0.0

-1.4051549909907698e6 2.0759015715086736e7 0.0
2.0759015715086736e7 -5.413883745122915e6 0.0
0.0 0.0 0.0

2.958449307350225e6 2.3334214444402393e7 0.0
2.3334214444402393e7 -9.19920779808655e6 0.0
0.0 0.0 0.0

5.638054743951859e6 2.252639121403492e7 0.0
2.252639121403492e7 771355.5947763828 0.0
0.0 0.0 0.0

-129600.08085025381 2.6829183525919735e7 0.0
2.6829183525919735e7 -4.073530286664515e6 0.0
0.0 0.0 0.0

5.9877443064337686e7 2.766338942302656e7 0.0
2.766338942302656e7 8.982043903957445e6 0.0
0.0 0.0 0.0

8.737195622811215e6 1.6192168598967044e7 0.0
1.6192168598967044e7 9.697940031657942e6 0.0
0.0 0.0 0.0

4.5022921876308005e6 2.295765624665634e7 0.0
2.295765624665634e7 -4.06321769159438e6 0.0
0.0 0.0 0.0

5.469586821732292e6 2.7494740852044743e7 0.0
2.7494740852044743e7 -6.513141828638259e6 0.0
0.0 0.0 0.0

-78988.16306165635 3.0495791545539223e7 0.0
3.0495791545539223e7 -809366.2857953695 0.0
0.0 0.0 0.0

553152.5562812593 1.9067374983057022e7 0.0
1.9067374983057022e7 -1.9903482699890085e7 0.0
0.0 0.0 0.0

-1.9393003928955335e7 2.7632004717294186e7 0.0
2.7632004717294186e7 280945.2932838872 0.0
0.0 0.0 0.0

-5.860730010827215e6 2.7937372714368496e7 0.0
2.7937372714368496e7 7.993714616837426e6 0.0
0.0 0.0 0.0

3.6015745577376746e6 2.0317506141217009e6 0.0
2.0317506141217009e6 -2.3422737912047643e7 0.0
0.0 0.0 0.0

-971502.829528057 2.8200603326215032e7 0.0
2.8200603326215032e7 -2.6690672318687825e6 0.0
0.0 0.0 0.0

-5.874381254611084e6 4.449996465775291e7 0.0
4.449996465775291e7 3.851427961324122e6 0.0
0.0 0.0 0.0

-2.5364942383604757e6 1.6353714752481522e7 0.0
1.6353714752481522e7 -7.522248292794339e6 0.0
0.0 0.0 0.0

1.4291274995203074e6 1.4337106425587976e7 0.0
1.4337106425587976e7 -2.666880528664584e7 0.0
0.0 0.0 0.0

644314.1266555171 1.4016433834822807e7 0.0
1.4016433834822807e7 -3.205924148669957e7 0.0
0.0 0.0 0.0

-670648.1968668215 1.5388293045154458e7 0.0
1.5388293045154458e7 -3.380093371250037e7 0.0
0.0 0.0 0.0

1.2770574800727515e7 3.910555972312603e7 0.0
3.910555972312603e7 -4.570093384587569e6 0.0
0.0 0.0 0.0

1.123785961142337e6 2.1845507164368164e7 0.0
2.1845507164368164e7 -1.3203149228791926e7 0.0
0.0 0.0 0.0

6.426267396437283e6 2.007583564726934e7 0.0
2.007583564726934e7 3.5635901194389075e7 0.0
0.0 0.0 0.0

-2.449969223471096e7 2.2304525140408155e7 0.0
2.2304525140408155e7 4.1017621115788613e6 0.0
0.0 0.0 0.0

-7.266332684360227e7 3.6115283106801115e7 0.0
3.6115283106801115e7 -7.4741494738646075e6 0.0
0.0 0.0 0.0

1.440955995934356e6 6.576608956043434e6 0.0
6.576608956043434e6 -5.9306971119585805e7 0.0
0.0 0.0 0.0

3.5761623601628225e6 2.3188180819091313e7 0.0
2.3188180819091313e7 -6.0184385977640245e6 0.0
0.0 0.0 0.0

4.800959147808553e6 2.5505841337123618e7 0.0
2.5505841337123618e7 -7.306509033335941e6 0.0
0.0 0.0 0.0

3.572377814716547e6 2.1389508056522463e6 0.0
2.1389508056522463e6 -2.2097095483951274e7 0.0
0.0 0.0 0.0

-1.815264548621249e7 2.601584807955499e7 0.0
2.601584807955499e7 -6.297201614701776e6 0.0
0.0 0.0 0.0

-593137.927131026 2.0099257044877287e7 0.0
2.0099257044877287e7 2.326153232416493e7 0.0
0.0 0.0 0.0

8.906949992037028e6 1.945701671434964e7 0.0
1.945701671434964e7 1.365727395459082e7 0.0
0.0 0.0 0.0

-8.218481525917036e6 -4.475037111999949e6 0.0
-4.475037111999949e6 2.357907677681581e7 0.0
0.0 0.0 0.0

507098.48254354764 1.7152826020398293e7 0.0
1.7152826020398293e7 -2.4176795697866697e7 0.0
0.0 0.0 0.0

1.799665485039887e6 1.0664588804009395e7 0.0
1.0664588804009395e7 -2.324148728137984e7 0.0
0.0 0.0 0.0

523845.31930928817 9.165438517976686e6 0.0
9.165438517976686e6 -5.227229487910979e6 0.0
0.0 0.0 0.0

-9.092873530462936e6 -4.346869917821161e6 0.0
-4.346869917821161e6 2.0481739981883787e7 0.0
0.0 0.0 0.0

6.534222337191012e6 1.9651007628408924e7 0.0
1.9651007628408924e7 8.447722183666289e7 0.0
0.0 0.0 0.0

-8.572524378183186e6 5.304231928008361e6 0.0
5.304231928008361e6 4.5507985268128164e7 0.0
0.0 0.0 0.0

3.5164494810399925e6 3.162048932386458e7 0.0
3.162048932386458e7 -3.507806679807856e6 0.0
0.0 0.0 0.0

-2.0649887010761152e6 2.1107650192209344e7 0.0
2.1107650192209344e7 265279.0201673368 0.0
0.0 0.0 0.0

-2.5226306773741115e6 1.8562838176832087e7 0.0
1.8562838176832087e7 -1.3318840192109779e7 0.0
0.0 0.0 0.0

2.720004140796389e6 2.5251229610490914e7 0.0
2.5251229610490914e7 -8.838201529101795e6 0.0
0.0 0.0 0.0

-3.849150121339089e6 2.688185915409786e7 0.0
2.688185915409786e7 7.693888803293602e6 0.0
0.0 0.0 0.0

7.727303221124129e6 4.567869216308565e7 0.0
4.567869216308565e7 -1.1074293026949558e6 0.0
0.0 0.0 0.0

2.9134371534748124e6 4.340207649196829e6 0.0
4.340207649196829e6 -1.192247439824141e7 0.0
0.0 0.0 0.0

-9.47109503025519e6 -2.1576792688509296e6 0.0
-2.1576792688509296e6 2.5487699597261325e7 0.0
0.0 0.0 0.0

-140781.7134367962 1.9742532786428433e7 0.0
1.9742532786428433e7 2.5791882466584276e6 0.0
0.0 0.0 0.0

-9.630292252131402e6 2.8681705120024554e7 0.0
2.8681705120024554e7 6.444224575217931e6 0.0
0.0 0.0 0.0

-1.2370275404748153e6 1.99510403948292e7 0.0
1.99510403948292e7 2.6263805937191933e7 0.0
0.0 0.0 0.0

-1.004349286657747e7 1.3847591656681437e7 0.0
1.3847591656681437e7 2.870762868758793e7 0.0
0.0 0.0 0.0

1.1389207084839288e6 1.5526727917880032e7 0.0
1.5526727917880032e7 -2.547829322908927e7 0.0
0.0 0.0 0.0

-1.79518164312386e8 2.953968316761506e7 0.0
2.953968316761506e7 -1.3213653410297751e7 0.0
0.0 0.0 0.0

-1.0287826277239328e7 1.2570038481879484e7 0.0
1.2570038481879484e7 3.0115189491075665e7 0.0
0.0 0.0 0.0

-8.088416309943859e6 2.8614452584944002e7 0.0
2.8614452584944002e7 6.969881765746734e6 0.0
0.0 0.0 0.0

450748.5622695638 1.85982302666375e7 0.0
1.85982302666375e7 -2.120135259085198e7 0.0
0.0 0.0 0.0

-1.7734512464457974e6 1.6146831444537086e7 0.0
1.6146831444537086e7 -3.3094690487719897e7 0.0
0.0 0.0 0.0

5.890730822149645e6 4.315632342934713e7 0.0
4.315632342934713e7 -783713.1829234664 0.0
0.0 0.0 0.0

-2.1317642679403946e6 1.7037251643264912e7 0.0
1.7037251643264912e7 -3.0141222086928308e7 0.0
0.0 0.0 0.0

1.106245795215929e6 2.163804789593672e7 0.0
2.163804789593672e7 -1.2752664660308853e7 0.0
0.0 0.0 0.0

847630.4266198378 2.0165123773339473e7 0.0
2.0165123773339473e7 5.041359338365927e6 0.0
0.0 0.0 0.0

2.0495862364512975e6 3.548007889133576e7 0.0
3.548007889133576e7 -623267.7251119452 0.0
0.0 0.0 0.0

-1.1446399398242401e7 2.853344448004851e7 0.0
2.853344448004851e7 5.625888841157534e6 0.0
0.0 0.0 0.0

856291.4613498813 1.6645016180747341e7 0.0
1.6645016180747341e7 -2.409698593897839e7 0.0
0.0 0.0 0.0

788949.7437099703 2.1445208978660006e7 0.0
2.1445208978660006e7 -1.3922064815120162e7 0.0
0.0 0.0 0.0

-2.599407957105728e6 2.7150738251276705e7 0.0
2.7150738251276705e7 2.27505992615802e6 0.0
0.0 0.0 0.0

-6.832063573941461e6 2.832792085989595e7 0.0
2.832792085989595e7 7.479382020104776e6 0.0
0.0 0.0 0.0

-8.208202543348841e6 -2.796041684095433e6 0.0
-2.796041684095433e6 3.628640811593714e7 0.0
0.0 0.0 0.0

-5.304194486249863e6 1.9615358607332602e7 0.0
1.9615358607332602e7 2.094726001651983e7 0.0
0.0 0.0 0.0

-2.4138942731297966e6 1.771506562315534e7 0.0
1.771506562315534e7 -2.7277343649779256e7 0.0
0.0 0.0 0.0

2.083665619903449e7 2.1989864408640455e7 0.0
2.1989864408640455e7 3.794710059824719e6 0.0
0.0 0.0 0.0

29494.76440040022 1.752660802333575e7 0.0
1.752660802333575e7 -2.4207111062099576e7 0.0
0.0 0.0 0.0

-488900.03974255524 2.0659692613204215e7 0.0
2.0659692613204215e7 -3.003561575626931e6 0.0
0.0 0.0 0.0

-9.552053844505819e6 1.0275665018572088e7 0.0
1.0275665018572088e7 3.6281031714159176e7 0.0
0.0 0.0 0.0

-7.28282272818679e6 2.2740969815082334e7 0.0
2.2740969815082334e7 -1.345905071424383e7 0.0
0.0 0.0 0.0

-1.5951771084597013e6 1.8639032113794602e7 0.0
1.8639032113794602e7 -7.045959523136844e6 0.0
0.0 0.0 0.0

-54341.35306857899 2.1289104037758764e7 0.0
2.1289104037758764e7 -1.2897765001097282e7 0.0
0.0 0.0 0.0

-1.3552605130324401e7 4.899224838849871e7 0.0
4.899224838849871e7 6.076418850854922e6 0.0
0.0 0.0 0.0

-5.394191440097223e7 1.7160086536190744e7 0.0
1.7160086536190744e7 4.770164838680178e6 0.0
0.0 0.0 0.0

3.423709114551661e6 3.2575047027073704e7 0.0
3.2575047027073704e7 -4.020907065145696e6 0.0
0.0 0.0 0.0

-8.701393279760694e6 4.657793529817662e7 0.0
4.657793529817662e7 5.042598120219305e6 0.0
0.0 0.0 0.0

2.8165211255091064e7 5.991379610992649e7 0.0
5.991379610992649e7 -2.6081111517634653e6 0.0
0.0 0.0 0.0

-877437.1709789038 1.5727068132550517e7 0.0
1.5727068132550517e7 -3.1532807168622e7 0.0
0.0 0.0 0.0

-9.448696653409638e6 1.8062359652864173e7 0.0
1.8062359652864173e7 -3.516344671850061e7 0.0
0.0 0.0 0.0

-4.314284945953896e6 2.6001772913717926e7 0.0
2.6001772913717926e7 1.0057269387770329e7 0.0
0.0 0.0 0.0

-1.0406982432347514e7 1.3237768959484573e7 0.0
1.3237768959484573e7 2.9868442599837825e7 0.0
0.0 0.0 0.0

-1.1852421662654094e7 2.5258102059815817e7 0.0
2.5258102059815817e7 2.7918673537082197e6 0.0
0.0 0.0 0.0

1.1248196986544146e6 2.043764869357445e7 0.0
2.043764869357445e7 8.64981863521324e6 0.0
0.0 0.0 0.0

-169746.24681325862 1.9339519508767363e7 0.0
1.9339519508767363e7 -1.0424692393167038e7 0.0
0.0 0.0 0.0

9.877754028433543e6 4.875330079024908e7 0.0
4.875330079024908e7 -1.7021434855735372e6 0.0
0.0 0.0 0.0

2.537740096611099e6 2.438673213733844e7 0.0
2.438673213733844e7 -9.59690264109377e6 0.0
0.0 0.0 0.0

3.132936592641147e6 2.139431884371395e7 0.0
2.139431884371395e7 -3.6752497763144234e6 0.0
0.0 0.0 0.0

2.80422493154514e6 1.4980154011194329e6 0.0
1.4980154011194329e6 -4.0761334154645614e7 0.0
0.0 0.0 0.0

-4.1841576299579213e6 2.687271488619955e7 0.0
2.687271488619955e7 8.410403269401727e6 0.0
0.0 0.0 0.0

-2.5461863257170087e6 2.0179930606945712e7 0.0
2.0179930606945712e7 5.466197966498112e6 0.0
0.0 0.0 0.0

1.4443685298329042e6 1.3143332945350425e7 0.0
1.3143332945350425e7 -1.5597802728934962e7 0.0
0.0 0.0 0.0

-1.6034254338395707e6 1.6301173874030422e7 0.0
1.6301173874030422e7 -3.3354485484610774e7 0.0
0.0 0.0 0.0

-2.7876657943118885e6 2.1878997191919062e7 0.0
2.1878997191919062e7 1.911266052306182e7 0.0
0.0 0.0 0.0

-2.337846013841735e6 1.956537988572554e7 0.0
1.956537988572554e7 2.9100536031274617e7 0.0
0.0 0.0 0.0

-1.0558759004990482e6 1.8594349473426607e7 0.0
1.8594349473426607e7 -4.571757359125943e6 0.0
0.0 0.0 0.0

5.88687860810688e6 2.6577482765400488e7 0.0
2.6577482765400488e7 -6.521267402757861e6 0.0
0.0 0.0 0.0

-3.525804462465499e6 2.5744978067308586e7 0.0
2.5744978067308586e7 1.0208174914520176e7 0.0
0.0 0.0 0.0

-6.676890623766556e6 3.2516864245849624e6 0.0
3.2516864245849624e6 5.703370788993366e7 0.0
0.0 0.0 0.0

-4.079667644230281e6 1.3305825205839071e7 0.0
1.3305825205839071e7 8.281972497465844e6 0.0
0.0 0.0 0.0

-105319.56832960178 1.9696675185289357e7 0.0
1.9696675185289357e7 -6.232525416892711e6 0.0
0.0 0.0 0.0

-5.620469090869036e6 2.7074723881219983e7 0.0
2.7074723881219983e7 8.869647001678165e6 0.0
0.0 0.0 0.0

-3.3897881312043676e6 2.209597339193305e7 0.0
2.209597339193305e7 1.5603905150276601e7 0.0
0.0 0.0 0.0

1.9591939462902509e6 1.3313559250088787e7 0.0
1.3313559250088787e7 -2.1962848324004058e7 0.0
0.0 0.0 0.0

-1.4403423664318058e6 2.9701023080717523e7 0.0
2.9701023080717523e7 1.219062516749104e6 0.0
0.0 0.0 0.0

2.7921459520359063e6 3.726230164025909e7 0.0
3.726230164025909e7 -706357.304168648 0.0
0.0 0.0 0.0

-2.2863758324961727e6 2.3593338779594827e7 0.0
2.3593338779594827e7 5.878499685842086e6 0.0
0.0 0.0 0.0

1.384174494844487e6 1.5519808982879579e7 0.0
1.5519808982879579e7 -2.3761001073232606e7 0.0
0.0 0.0 0.0

-924833.5919445448 3.011658699500459e7 0.0
3.011658699500459e7 -1.4049671470787292e6 0.0
0.0 0.0 0.0

3.3001993794608857e6 2.6072414319544066e7 0.0
2.6072414319544066e7 -8.024372093737395e6 0.0
0.0 0.0 0.0

1.1094083710791264e6 1.9941769174555328e7 0.0
1.9941769174555328e7 3.159616912719777e7 0.0
0.0 0.0 0.0

-2.4157077631023545e6 2.290438014303164e7 0.0
2.290438014303164e7 7.169955229709128e6 0.0
0.0 0.0 0.0

-4.656625805383693e6 2.8999438137946635e7 0.0
2.8999438137946635e7 5.998251209774051e6 0.0
0.0 0.0 0.0

-8.123559865579827e6 840146.7944604835 0.0
840146.7944604835 4.494065064181358e7 0.0
0.0 0.0 0.0

2.3322499160796874e6 3.629183447836287e7 0.0
3.629183447836287e7 -613872.4026715592 0.0
0.0 0.0 0.0

2.8640594989889674e6 1.554842606074789e6 0.0
1.554842606074789e6 -3.9626626066178165e7 0.0
0.0 0.0 0.0

11872.185544621898 2.7842688856261037e7 0.0
2.7842688856261037e7 -4.915001966774334e6 0.0
0.0 0.0 0.0

-8.188541291241679e6 -1.1500148086849698e6 0.0
-1.1500148086849698e6 3.969821755443965e7 0.0
0.0 0.0 0.0

-1.667246621175889e6 1.8058684343364235e7 0.0
1.8058684343364235e7 -5.007846275243809e6 0.0
0.0 0.0 0.0

-1.1196520311689874e7 2.7083458803880833e7 0.0
2.7083458803880833e7 4.187570996099728e6 0.0
0.0 0.0 0.0

-2.4375547384652095e6 2.19383599971051e7 0.0
2.19383599971051e7 -3.93166215188426e6 0.0
0.0 0.0 0.0

-4.277034704276319e6 2.20855874531427e7 0.0
2.20855874531427e7 -6.278055776108901e6 0.0
0.0 0.0 0.0

-1.918470142103956e6 1.980923359431668e7 0.0
1.980923359431668e7 -1.9270049049735695e7 0.0
0.0 0.0 0.0

-9.266846342204146e6 1.4920328385219654e7 0.0
1.4920328385219654e7 3.1024944742721245e7 0.0
0.0 0.0 0.0

1.8404068857037018e6 2.0940473092765123e7 0.0
2.0940473092765123e7 1.1143547285602067e7 0.0
0.0 0.0 0.0

2.685253679963274e6 8.834115790153673e6 0.0
8.834115790153673e6 -2.8864422991817676e7 0.0
0.0 0.0 0.0

3.5175397293437878e6 2.0273113853416014e7 0.0
2.0273113853416014e7 3.0067089679262802e7 0.0
0.0 0.0 0.0

-1.2116444115614746e7 1.95749826138768e7 0.0
1.95749826138768e7 -7.094715520664051e7 0.0
0.0 0.0 0.0

-3.444735600371603e6 2.0927402151383687e7 0.0
2.0927402151383687e7 1.5512555292794324e7 0.0
0.0 0.0 0.0

-1.740073750629872e6 3.031812892098453e7 0.0
3.031812892098453e7 57830.91298931488 0.0
0.0 0.0 0.0

-2.7428758601134727e6 2.298825479625617e7 0.0
2.298825479625617e7 2.0532846943682504e6 0.0
0.0 0.0 0.0

1.1577088432316645e6 2.2815366305315822e7 0.0
2.2815366305315822e7 -1.2002717609562296e7 0.0
0.0 0.0 0.0

2.799328062908816e6 2.2016672412789278e7 0.0
2.2016672412789278e7 -7.479021190392727e6 0.0
0.0 0.0 0.0

-4.518021157343052e6 2.679639740309588e7 0.0
2.679639740309588e7 9.044014219791964e6 0.0
0.0 0.0 0.0

-3.4597927992865946e6 2.1829350580454543e7 0.0
2.1829350580454543e7 1.9686949172234587e7 0.0
0.0 0.0 0.0

-2.2767154259856883e6 1.9757732445418738e7 0.0
1.9757732445418738e7 2.936462589420546e7 0.0
0.0 0.0 0.0

-4.780264537664635e6 1.916910667660782e7 0.0
1.916910667660782e7 -1.9347835704510264e7 0.0
0.0 0.0 0.0

720103.8409770336 1.6355958502830606e7 0.0
1.6355958502830606e7 -2.129183431766235e7 0.0
0.0 0.0 0.0

-2.02940382606956e6 2.1816760236663107e7 0.0
2.1816760236663107e7 1.821169517923595e7 0.0
0.0 0.0 0.0

640417.191679582 1.0810343416252285e7 0.0
1.0810343416252285e7 -4.0817187237028494e7 0.0
0.0 0.0 0.0

-3.127262440700776e6 2.083093728555515e7 0.0
2.083093728555515e7 -1.2542798768643523e7 0.0
0.0 0.0 0.0

3.4016287872414174e6 3.842778333338393e7 0.0
3.842778333338393e7 -622815.956066669 0.0
0.0 0.0 0.0

2.8046915591997877e6 1.952211335019333e7 0.0
1.952211335019333e7 2.5697208915365618e7 0.0
0.0 0.0 0.0

2.4410790240265332e7 2.5766703434876304e7 0.0
2.5766703434876304e7 8.136926381098717e7 0.0
0.0 0.0 0.0

-2.484394582582142e7 2.440946346882491e7 0.0
2.440946346882491e7 -8.281311747400136e7 0.0
0.0 0.0 0.0

-3.20971283752349e6 2.0208887364871144e7 0.0
2.0208887364871144e7 3.2474948023708817e6 0.0
0.0 0.0 0.0

-2.9607187872880146e7 3.8956089499949634e7 0.0
3.8956089499949634e7 7.573616621246351e6 0.0
0.0 0.0 0.0

-1.150014698967663e6 2.5900255753366575e7 0.0
2.5900255753366575e7 -4.450479063026547e6 0.0
0.0 0.0 0.0

-1.6686001412693858e6 2.202356348862277e7 0.0
2.202356348862277e7 1.5629745813037427e7 0.0
0.0 0.0 0.0

2.2806991263224874e6 1.9592426418916903e7 0.0
1.9592426418916903e7 2.9080251077675752e7 0.0
0.0 0.0 0.0

8.811063206902111e6 2.1030141734455775e7 0.0
2.1030141734455775e7 5.065605124497898e7 0.0
0.0 0.0 0.0

8.2982158825264e6 2.2589894346101493e7 0.0
2.2589894346101493e7 1.0375362994681649e7 0.0
0.0 0.0 0.0

7.9983947032319065e6 1.876030417606162e7 0.0
1.876030417606162e7 3.277405628317177e7 0.0
0.0 0.0 0.0

5.338215829206908e6 2.6397157379345916e7 0.0
2.6397157379345916e7 -6.803729491284568e6 0.0
0.0 0.0 0.0

1.4912312929712487e6 1.9996739356575653e7 0.0
1.9996739356575653e7 1.7944414497734882e7 0.0
0.0 0.0 0.0

-1.863990841717627e6 2.0986174319704317e7 0.0
2.0986174319704317e7 1.9065700180996858e7 0.0
0.0 0.0 0.0

4.735338226160118e6 3.4030891042210564e7 0.0
3.4030891042210564e7 -2.6657166959826066e6 0.0
0.0 0.0 0.0

3.686205384917627e6 2.203852847295097e7 0.0
2.203852847295097e7 1.4058032885260073e7 0.0
0.0 0.0 0.0

3.3619208699878193e6 1.878294304460772e6 0.0
1.878294304460772e6 -3.0575208762167796e7 0.0
0.0 0.0 0.0

-8.515564106757792e6 1.723961748525032e7 0.0
1.723961748525032e7 2.2188247523466222e7 0.0
0.0 0.0 0.0

-8.089477076271715e6 -2.745843212189219e6 0.0
-2.745843212189219e6 3.726693043251169e7 0.0
0.0 0.0 0.0

-4.208127259049756e6 2.124734318496977e7 0.0
2.124734318496977e7 2.154096118747748e7 0.0
0.0 0.0 0.0

1.2104307772908998e6 3.098742824209024e7 0.0
3.098742824209024e7 -2.116243484444164e6 0.0
0.0 0.0 0.0

6.41129634880809e6 2.1670560787243582e7 0.0
2.1670560787243582e7 1.8798025270622864e7 0.0
0.0 0.0 0.0

4.987388945878909e6 1.871268056944941e7 0.0
1.871268056944941e7 2.433591407280351e7 0.0
0.0 0.0 0.0

-3.6866966284496156e6 2.8591987048130013e7 0.0
2.8591987048130013e7 6.651744076066494e6 0.0
0.0 0.0 0.0

3.393710455221287e6 4.132132958053128e6 0.0
4.132132958053128e6 -1.6542573241034348e7 0.0
0.0 0.0 0.0

-155979.95456307032 2.850814795955647e7 0.0
2.850814795955647e7 -4.0034803058359027e6 0.0
0.0 0.0 0.0

2.423613138319429e6 1.1240712337089922e7 0.0
1.1240712337089922e7 -2.3619234141850382e7 0.0
0.0 0.0 0.0

-8.140149805278645e6 2.7493674973278087e7 0.0
2.7493674973278087e7 7.243332944123432e6 0.0
0.0 0.0 0.0

6.241518954068933e6 2.853125213047586e7 0.0
2.853125213047586e7 -6.030419328906469e6 0.0
0.0 0.0 0.0

-1.070177329675787e7 2.3871907335716937e7 0.0
2.3871907335716937e7 571114.9095967044 0.0
0.0 0.0 0.0

1.9392708026309237e6 1.6687784721639436e6 0.0
1.6687784721639436e6 -5.9445809853090905e7 0.0
0.0 0.0 0.0

6.075725735859381e6 2.258796449350242e7 0.0
2.258796449350242e7 3.5174556363268616e6 0.0
0.0 0.0 0.0

2.4992193751137834e6 2.951435431096236e7 0.0
2.951435431096236e7 -4.403488430869967e6 0.0
0.0 0.0 0.0

1.2793190507980692e6 2.5590738655523844e7 0.0
2.5590738655523844e7 -7.921598795832468e6 0.0
0.0 0.0 0.0

-2.5556740165705313e6 1.9922606507946413e7 0.0
1.9922606507946413e7 -1.3408472285596596e7 0.0
0.0 0.0 0.0

2.9464317864107974e6 4.338170659358538e6 0.0
4.338170659358538e6 -2.8296764612551577e7 0.0
0.0 0.0 0.0

-3.007376878555971e6 2.427278884260528e7 0.0
2.427278884260528e7 6.733156023610804e6 0.0
0.0 0.0 0.0

47195.503788733855 1.3765842619784694e7 0.0
1.3765842619784694e7 -3.4138051387075305e7 0.0
0.0 0.0 0.0

-7.998719298582979e6 -2.3861225596008776e6 0.0
-2.3861225596008776e6 4.116966942006251e7 0.0
0.0 0.0 0.0

-4.572152525747619e6 2.016770290659793e7 0.0
2.016770290659793e7 1.923811405305376e7 0.0
0.0 0.0 0.0

-1.547729266697124e7 2.719316342425424e7 0.0
2.719316342425424e7 3.1986450047795605e6 0.0
0.0 0.0 0.0

553525.1193928458 5.9467540873229625e6 0.0
5.9467540873229625e6 -8.64368623881456e7 0.0
0.0 0.0 0.0

-3.3581355410171393e6 1.7115122862000994e7 0.0
1.7115122862000994e7 4.0548946973491706e7 0.0
0.0 0.0 0.0

266869.47162538674 2.0779853178711455e7 0.0
2.0779853178711455e7 2.423542154450502e7 0.0
0.0 0.0 0.0

-686828.0311262496 1.889255922747341e7 0.0
1.889255922747341e7 3.659519293037046e7 0.0
0.0 0.0 0.0

-2.1938097896714723e6 2.161540896639834e7 0.0
2.161540896639834e7 1.433690766079327e6 0.0
0.0 0.0 0.0

-4.551080934483626e6 2.0636269260471717e7 0.0
2.0636269260471717e7 1.505946420291584e7 0.0
0.0 0.0 0.0

-2.162952580301793e6 2.0016495075682744e7 0.0
2.0016495075682744e7 -1.0370784072106298e7 0.0
0.0 0.0 0.0

824037.4884970179 1.575006773508424e7 0.0
1.575006773508424e7 -2.2513221258853797e7 0.0
0.0 0.0 0.0

408440.0950206239 1.0287545291517485e7 0.0
1.0287545291517485e7 -5.0643314917714104e7 0.0
0.0 0.0 0.0

-8.055126032069951e6 -2.5745195774001805e6 0.0
-2.5745195774001805e6 3.846073686857753e7 0.0
0.0 0.0 0.0

-7.326050145749424e6 -1.8342238301149362e6 0.0
-1.8342238301149362e6 4.779415487467174e7 0.0
0.0 0.0 0.0

-9.78311904128377e6 2.5628238592509627e7 0.0
2.5628238592509627e7 1.845103265469476e6 0.0
0.0 0.0 0.0

1.2400206167602083e6 2.2796551388138246e7 0.0
2.2796551388138246e7 -1.2328225911956815e7 0.0
0.0 0.0 0.0

751387.8260273859 1.8828987125718083e7 0.0
1.8828987125718083e7 4.211365150012445e7 0.0
0.0 0.0 0.0

-1.6701108379428918e6 2.0086230599745493e7 0.0
2.0086230599745493e7 -7.259472214615761e6 0.0
0.0 0.0 0.0

5.943476890247073e6 2.5405101583353218e7 0.0
2.5405101583353218e7 -6.461157725165098e6 0.0
0.0 0.0 0.0

-3.343925287403333e6 2.5976505102164622e7 0.0
2.5976505102164622e7 7.124499886827282e6 0.0
0.0 0.0 0.0

-9.094693053922415e6 -2.3701303233626145e6 0.0
-2.3701303233626145e6 2.649575058750074e7 0.0
0.0 0.0 0.0

1.5532406631736452e7 5.320228079363372e7 0.0
5.320228079363372e7 -2.3677804597631367e6 0.0
0.0 0.0 0.0

837912.7519703032 2.0834546373166416e7 0.0
2.0834546373166416e7 -9.559963917797374e6 0.0
0.0 0.0 0.0

-7.167693462867996e6 1.7385480906614505e7 0.0
1.7385480906614505e7 -5.6718918420605734e7 0.0
0.0 0.0 0.0

3.281572195078818e6 2.779041041521706e6 0.0
2.779041041521706e6 -3.662386878719025e7 0.0
0.0 0.0 0.0

-524540.787275257 1.9872985747252226e7 0.0
1.9872985747252226e7 -6.530466717712615e6 0.0
0.0 0.0 0.0

-6.101086485750072e6 1.9176849121266376e7 0.0
1.9176849121266376e7 2.2330682045753095e7 0.0
0.0 0.0 0.0

-2.6403545790722657e7 2.3014456161858775e7 0.0
2.3014456161858775e7 4.498295881788896e6 0.0
0.0 0.0 0.0

-6.116344789061306e6 2.2935431904581513e7 0.0
2.2935431904581513e7 -1.025828061189396e7 0.0
0.0 0.0 0.0

6.733305172128866e6 1.823056733033971e7 0.0
1.823056733033971e7 2.85102706540221e7 0.0
0.0 0.0 0.0

-3.3429920897468296e6 1.947762564965126e7 0.0
1.947762564965126e7 -1.4724628597529173e7 0.0
0.0 0.0 0.0

-9.653010926868508e6 -84006.35582540945 0.0
-84006.35582540945 2.6098122116375983e7 0.0
0.0 0.0 0.0

-746099.8978642821 2.1057640141085777e7 0.0
2.1057640141085777e7 -1.067780645281573e7 0.0
0.0 0.0 0.0

-403545.44503280474 2.05299772101874e7 0.0
2.05299772101874e7 4.32887850699692e6 0.0
0.0 0.0 0.0

-687618.2772912746 2.1517329504566535e7 0.0
2.1517329504566535e7 1.6737534536255933e7 0.0
0.0 0.0 0.0

377475.59489249345 1.8782977986918386e7 0.0
1.8782977986918386e7 -1.8131646453274474e7 0.0
0.0 0.0 0.0

-784424.5998427328 2.042149175458607e7 0.0
2.042149175458607e7 2.6933757745996244e7 0.0
0.0 0.0 0.0

-82577.14488478011 1.9499158985610463e7 0.0
1.9499158985610463e7 213682.97768869757 0.0
0.0 0.0 0.0

1.3283686420891182e6 2.27549055466734e7 0.0
2.27549055466734e7 -1.2492382017608637e7 0.0
0.0 0.0 0.0

5.206010288794918e6 2.1690939193129208e7 0.0
2.1690939193129208e7 -1.2988645682288404e6 0.0
0.0 0.0 0.0

883023.9609982986 1.339327204211603e7 0.0
1.339327204211603e7 -3.020072593088633e7 0.0
0.0 0.0 0.0

-4.630965106450078e6 2.141185989126252e7 0.0
2.141185989126252e7 2.015997383828935e7 0.0
0.0 0.0 0.0

-380218.608452037 1.760276284166708e7 0.0
1.760276284166708e7 -8.963597711560493e6 0.0
0.0 0.0 0.0

-5.244192185956424e7 3.100814389986515e7 0.0
3.100814389986515e7 503285.4196316004 0.0
0.0 0.0 0.0

4.91853915271225e6 1.9488024444743436e7 0.0
1.9488024444743436e7 5.309882534539731e7 0.0
0.0 0.0 0.0

2.743813702967787e6 1.4835469254454104e6 0.0
1.4835469254454104e6 -4.194406115775079e7 0.0
0.0 0.0 0.0

-7.461382794826252e6 -1.8593903087003124e6 0.0
-1.8593903087003124e6 4.62291782416052e7 0.0
0.0 0.0 0.0

-4.716395974719213e6 1.6144079740537236e7 0.0
1.6144079740537236e7 -4.9325502472532585e7 0.0
0.0 0.0 0.0

-2.1089687376794666e6 1.734748298021529e7 0.0
1.734748298021529e7 -3.0610818583295014e7 0.0
0.0 0.0 0.0

-2.7595582895796252e6 2.1492008501666076e7 0.0
2.1492008501666076e7 -5.923852672676483e6 0.0
0.0 0.0 0.0

-1.9053444304568194e7 2.887231832080104e7 0.0
2.887231832080104e7 -1.2455571371827282e7 0.0
0.0 0.0 0.0

-4.377982423365822e6 1.9429747448849503e7 0.0
1.9429747448849503e7 2.866904874222391e7 0.0
0.0 0.0 0.0

1.3226463810420865e6 2.263632101056938e7 0.0
2.263632101056938e7 -1.2490808895203426e7 0.0
0.0 0.0 0.0

-6.235604107188478e6 -556582.6539938098 0.0
-556582.6539938098 6.131125794737674e7 0.0
0.0 0.0 0.0

-7.499037881127581e6 1.821731071934114e7 0.0
1.821731071934114e7 2.5048515385521755e7 0.0
0.0 0.0 0.0

998897.2364302129 3.9276580946906446e6 0.0
3.9276580946906446e6 -8.046709203529269e7 0.0
0.0 0.0 0.0

-1.7850929188783143e6 3.099562636517461e7 0.0
3.099562636517461e7 102193.78813951742 0.0
0.0 0.0 0.0

1.409608809743069e6 2.2248881144296434e6 0.0
2.2248881144296434e6 -6.969324158930473e7 0.0
0.0 0.0 0.0

-2.3987688380301125e7 5.0475304224879675e7 0.0
5.0475304224879675e7 7.790581650752803e6 0.0
0.0 0.0 0.0

-6.069006124777876e6 -265146.34515910887 0.0
-265146.34515910887 6.411624905662123e7 0.0
0.0 0.0 0.0

1.0891590612725206e6 1.3766254232477976e7 0.0
1.3766254232477976e7 -3.0118995379309647e7 0.0
0.0 0.0 0.0

-1.1778658332394427e7 2.6798986884517502e7 0.0
2.6798986884517502e7 4.65117474894991e6 0.0
0.0 0.0 0.0

-4.9895209609421074e7 3.1808376156280424e7 0.0
3.1808376156280424e7 -2.9558782500646356e6 0.0
0.0 0.0 0.0

1.2019969068874829e6 2.985766062827009e6 0.0
2.985766062827009e6 -7.47934720252759e7 0.0
0.0 0.0 0.0

-2.6892651637281496e6 2.509530324271708e7 0.0
2.509530324271708e7 3.0616714828973413e6 0.0
0.0 0.0 0.0

-3.1709537449525185e6 2.290363325533252e7 0.0
2.290363325533252e7 1.4638436617335225e7 0.0
0.0 0.0 0.0

1.8147359384397514e7 1.7972295695221443e7 0.0
1.7972295695221443e7 7.374526472771045e6 0.0
0.0 0.0 0.0

-863857.4207196347 1.7074566120348085e7 0.0
1.7074566120348085e7 -2.677983510994776e7 0.0
0.0 0.0 0.0

-2.713370208232768e6 1.8163063898295227e7 0.0
1.8163063898295227e7 -2.7931754048984464e7 0.0
0.0 0.0 0.0

397648.983059776 2.507710948298046e7 0.0
2.507710948298046e7 -8.751176854302283e6 0.0
0.0 0.0 0.0

-1.8375917419775832e6 3.162302431998071e7 0.0
3.162302431998071e7 191215.50376562995 0.0
0.0 0.0 0.0

-9.21572592256895e6 1.2790321570657691e7 0.0
1.2790321570657691e7 3.507370258680558e7 0.0
0.0 0.0 0.0

1.7426700462613627e6 1.7527710698161998e6 0.0
1.7527710698161998e6 -6.292677065407334e7 0.0
0.0 0.0 0.0

-1.2045806884929562e7 3.525452983300832e7 0.0
3.525452983300832e7 4.688620772053041e6 0.0
0.0 0.0 0.0

3.5325169727870487e6 5.493388604947611e6 0.0
5.493388604947611e6 -2.260421236719785e7 0.0
0.0 0.0 0.0

-2.381441704233317e6 1.9950062528497353e7 0.0
1.9950062528497353e7 -1.794760811813859e7 0.0
0.0 0.0 0.0

1.6095813634539843e6 2.0850358525260368e6 0.0
2.0850358525260368e6 -6.5606628656442314e7 0.0
0.0 0.0 0.0

-2.8782819390183184e6 1.8789200286061615e7 0.0
1.8789200286061615e7 -2.5111709578279678e7 0.0
0.0 0.0 0.0

-9.090534039795795e6 9.520273816447254e6 0.0
9.520273816447254e6 4.082950850059402e7 0.0
0.0 0.0 0.0

-4.607088915879918e6 1.505562583281045e6 0.0
1.505562583281045e6 3.792201474760049e6 0.0
0.0 0.0 0.0

-3.645793863582776e6 1.8558465881371923e7 0.0
1.8558465881371923e7 4.801947105190844e6 0.0
0.0 0.0 0.0

3.9165640968833193e6 2.0288199323210698e7 0.0
2.0288199323210698e7 2.685757575019303e7 0.0
0.0 0.0 0.0

2.4602491827456877e6 1.3321241501360075e6 0.0
1.3321241501360075e6 -4.6402950753132485e7 0.0
0.0 0.0 0.0

-4.1678656462276424e6 2.596999560119672e7 0.0
2.596999560119672e7 1.014961501012839e7 0.0
0.0 0.0 0.0

-8.619618824006312e6 -892028.8933195613 0.0
-892028.8933195613 3.692048379822054e7 0.0
0.0 0.0 0.0

4830.458542392276 2.085342380428437e7 0.0
2.085342380428437e7 122188.97636501165 0.0
0.0 0.0 0.0

870398.9631411266 1.3984148560780803e7 0.0
1.3984148560780803e7 -2.8597824495889727e7 0.0
0.0 0.0 0.0

-3.345481275678654e6 2.1433717091487475e7 0.0
2.1433717091487475e7 2.1106647724633478e7 0.0
0.0 0.0 0.0

3.2573016367891897e6 1.959685302907332e7 0.0
1.959685302907332e7 3.687981617416577e7 0.0
0.0 0.0 0.0

-981914.783638452 1.9862485720322166e7 0.0
1.9862485720322166e7 -4.5930900456652995e6 0.0
0.0 0.0 0.0

911659.7398373452 2.4849259027321156e7 0.0
2.4849259027321156e7 -8.383872575839947e6 0.0
0.0 0.0 0.0

-3.2639229880716763e6 2.715606331658755e7 0.0
2.715606331658755e7 5.053180103731721e6 0.0
0.0 0.0 0.0

-1.208852615714191e6 2.0584649286745403e7 0.0
2.0584649286745403e7 -7.303148460844853e6 0.0
0.0 0.0 0.0

2.1762918239114676e7 5.82576245296815e6 0.0
5.82576245296815e6 -2.465633761984879e6 0.0
0.0 0.0 0.0

-6.500763444400325e6 -665448.8045748214 0.0
-665448.8045748214 5.861484279268365e7 0.0
0.0 0.0 0.0

8.769401444549281e6 2.323723249987861e7 0.0
2.323723249987861e7 1.2289437571542516e7 0.0
0.0 0.0 0.0

-7.19637423371812e6 -1.6130352928153465e6 0.0
-1.6130352928153465e6 4.9514393225227654e7 0.0
0.0 0.0 0.0

-1.4985684903738513e6 2.0941568500309475e7 0.0
2.0941568500309475e7 -1.0011411160673145e6 0.0
0.0 0.0 0.0

-7.32454816859391e6 1.0476226314851377e7 0.0
1.0476226314851377e7 3.080370650741944e7 0.0
0.0 0.0 0.0

-2.9211922376168924e6 1.8450560940926705e7 0.0
1.8450560940926705e7 7.239241147534234e6 0.0
0.0 0.0 0.0

-312503.5523145665 758049.7638396922 0.0
758049.7638396922 1.32535133876388e6 0.0
0.0 0.0 0.0

-272152.472430127 1.56778833236506e6 0.0
1.56778833236506e6 1.3074249442147696e6 0.0
0.0 0.0 0.0

1.0667793007593947e6 2.212286098590305e7 0.0
2.212286098590305e7 -1.3534238777692406e7 0.0
0.0 0.0 0.0

-9.554042204032416e6 2.3778895573074166e7 0.0
2.3778895573074166e7 -4.416572148717339e6 0.0
0.0 0.0 0.0

1.3717716800409933e6 2.2535203218739156e7 0.0
2.2535203218739156e7 -1.2196608218262628e7 0.0
0.0 0.0 0.0

-1.0208846299888836e7 1.1454714993363611e7 0.0
1.1454714993363611e7 3.344522944915043e7 0.0
0.0 0.0 0.0

-2.9776226610516966e6 1.980326756380448e7 0.0
1.980326756380448e7 -1.6448625058270307e7 0.0
0.0 0.0 0.0

599369.4878346529 1.3468299685993288e7 0.0
1.3468299685993288e7 -3.208584392569967e7 0.0
0.0 0.0 0.0

-3.906033380859124e6 2.5311249682326313e7 0.0
2.5311249682326313e7 1.10791606053969e7 0.0
0.0 0.0 0.0

1.045602088110419e6 1.3969741976370595e7 0.0
1.3969741976370595e7 -2.677012807994679e7 0.0
0.0 0.0 0.0

-1.0909274480213276e8 3.7974154876094766e7 0.0
3.7974154876094766e7 -7.690410815115951e6 0.0
0.0 0.0 0.0

514239.96425709315 1.8170248706707984e7 0.0
1.8170248706707984e7 -1.9384647986596107e7 0.0
0.0 0.0 0.0

-3.1680366869501877e6 3.69900160305748e7 0.0
3.69900160305748e7 835550.6903997741 0.0
0.0 0.0 0.0

608604.206677815 2.0075233027758095e7 0.0
2.0075233027758095e7 5.984368500354609e6 0.0
0.0 0.0 0.0

-4.374427907826493e6 2.0453014219082244e7 0.0
2.0453014219082244e7 2.436947311348942e7 0.0
0.0 0.0 0.0

-5.0207143032915415e6 2.267100444369169e7 0.0
2.267100444369169e7 -1.3645163109256059e7 0.0
0.0 0.0 0.0

1.5618472491774319e7 4.096449945469092e7 0.0
4.096449945469092e7 -5.636299492562393e6 0.0
0.0 0.0 0.0

-7.678885766383769e6 -2.1657815815591076e6 0.0
-2.1657815815591076e6 4.36240504212586e7 0.0
0.0 0.0 0.0

2.641180158370327e6 1.4904564063826308e6 0.0
1.4904564063826308e6 -4.3182539860329114e7 0.0
0.0 0.0 0.0

206815.44975598808 2.5466881267847322e7 0.0
2.5466881267847322e7 -6.129514692650695e6 0.0
0.0 0.0 0.0

-9.223770683859885e6 -3.319301011315524e6 0.0
-3.319301011315524e6 1.9597049366596524e7 0.0
0.0 0.0 0.0

2.0845707945647389e6 1.5400913949937315e6 0.0
1.5400913949937315e6 -5.5503710278610624e7 0.0
0.0 0.0 0.0

-6.636454202308908e6 -980705.1924304097 0.0
-980705.1924304097 5.665265668584301e7 0.0
0.0 0.0 0.0

-8.387131509598104e6 -3.0531153727339925e6 0.0
-3.0531153727339925e6 3.3519048995003626e7 0.0
0.0 0.0 0.0

-1.8202663032942526e6 1.9669667096823804e7 0.0
1.9669667096823804e7 -5.367052057869499e6 0.0
0.0 0.0 0.0

-7.567859204539277e6 -1.9867263498491524e6 0.0
-1.9867263498491524e6 4.4966997010914676e7 0.0
0.0 0.0 0.0

2.5542807458029054e6 1.544529744897879e6 0.0
1.544529744897879e6 -4.4754392099259794e7 0.0
0.0 0.0 0.0

2.2077390535739176e6 1.5996076798475457e6 0.0
1.5996076798475457e6 -5.343826525457628e7 0.0
0.0 0.0 0.0

-6.761464130985122e6 -1.2650234870240511e6 0.0
-1.2650234870240511e6 5.4759747920274064e7 0.0
0.0 0.0 0.0

-5.466025312282054e6 2.107941211286557e7 0.0
2.107941211286557e7 -1.5240203178359646e7 0.0
0.0 0.0 0.0

966642.9859041804 2.1465906766915e7 0.0
2.1465906766915e7 -1.4718391945779726e7 0.0
0.0 0.0 0.0

-2.7132531740661683e6 2.7468717477659326e7 0.0
2.7468717477659326e7 5.54784454805425e6 0.0
0.0 0.0 0.0

2.237131297977641e6 1.5044144899106717e6 0.0
1.5044144899106717e6 -5.198351217048176e7 0.0
0.0 0.0 0.0

-6.902700150046881e6 -1.4514158537206526e6 0.0
-1.4514158537206526e6 5.269209930049043e7 0.0
0.0 0.0 0.0

-1.181604155674161e6 2.0181889738011207e7 0.0
2.0181889738011207e7 -4.17226597775162e6 0.0
0.0 0.0 0.0

1.4199491500272267e6 1.4937854269596757e7 0.0
1.4937854269596757e7 -2.528680630279804e7 0.0
0.0 0.0 0.0

-153032.11585388333 2.7421331326758724e7 0.0
2.7421331326758724e7 -3.129823045916667e6 0.0
0.0 0.0 0.0

-2.7590697759285537e6 2.1527044247681055e7 0.0
2.1527044247681055e7 -428248.8089829798 0.0
0.0 0.0 0.0

-1.932889146251453e6 1.951827043777262e7 0.0
1.951827043777262e7 3.103850757190735e7 0.0
0.0 0.0 0.0

-7.0559000241175e6 -1.4946833796774868e6 0.0
-1.4946833796774868e6 5.0974354321777195e7 0.0
0.0 0.0 0.0

2.3521073314564936e6 1.4249370138644725e6 0.0
1.4249370138644725e6 -4.99763805365405e7 0.0
0.0 0.0 0.0

4.237467442511952e6 3.0326551593015444e7 0.0
3.0326551593015444e7 -5.285963765736308e6 0.0
0.0 0.0 0.0

2.9491744876728263e6 1.9268047562740773e7 0.0
1.9268047562740773e7 4.910364283385872e7 0.0
0.0 0.0 0.0

8.197665505698721e7 8.476651132579875e7 0.0
8.476651132579875e7 -1.3169347101960458e7 0.0
0.0 0.0 0.0

-404607.7115074317 1.1752909314146973e7 0.0
1.1752909314146973e7 -8.516439489500083e6 0.0
0.0 0.0 0.0

-1.9332729868852794e6 3.058584465044618e7 0.0
3.058584465044618e7 1.811424737547074e6 0.0
0.0 0.0 0.0

-9.491442621685259e6 193426.43617612915 0.0
193426.43617612915 1.4117754042614862e7 0.0
0.0 0.0 0.0

-2.545852356133121e6 2.805059483621202e7 0.0
2.805059483621202e7 4.655254336058734e6 0.0
0.0 0.0 0.0

3.3485178705006912e6 2.6476507384873866e6 0.0
2.6476507384873866e6 -1.383055806822595e7 0.0
0.0 0.0 0.0

1.1685555122595415e7 2.7630637312958457e7 0.0
2.7630637312958457e7 -4.656070199267069e6 0.0
0.0 0.0 0.0

3.118785874286901e6 2.60707014320581e7 0.0
2.60707014320581e7 -8.018361479295732e6 0.0
0.0 0.0 0.0

-6.938866802716965e6 1.800614535551465e7 0.0
1.800614535551465e7 1.8408072740470484e7 0.0
0.0 0.0 0.0

-1.607534653866573e6 2.1720791513923895e7 0.0
2.1720791513923895e7 -1.368246114840447e6 0.0
0.0 0.0 0.0

-4.759344952425975e6 751721.38553313 0.0
751721.38553313 7.045030298653035e7 0.0
0.0 0.0 0.0

331829.44417513703 3.761134108112531e6 0.0
3.761134108112531e6 -709282.3642305819 0.0
0.0 0.0 0.0

-5.0772279841168e6 -1.002394378710809e6 0.0
-1.002394378710809e6 1.9371908408987343e6 0.0
0.0 0.0 0.0

773590.9806636671 -1.6812023937469658e6 0.0
-1.6812023937469658e6 -2.0966140391714291e6 0.0
0.0 0.0 0.0

3.8666862190658306e6 2.6377358972901754e7 0.0
2.6377358972901754e7 -7.526735829942475e6 0.0
0.0 0.0 0.0

-6.601288279375771e6 1.6635164134507613e7 0.0
1.6635164134507613e7 -5.564097383827035e7 0.0
0.0 0.0 0.0

4.70545802744643e6 1.9446140026197255e7 0.0
1.9446140026197255e7 3.266274135363604e7 0.0
0.0 0.0 0.0

-3.252116157092832e6 2.0651826374293715e7 0.0
2.0651826374293715e7 -1.2648630474210124e7 0.0
0.0 0.0 0.0

3.6823077042120863e6 2.0616595403588088e6 0.0
2.0616595403588088e6 -2.644149910385988e7 0.0
0.0 0.0 0.0

-1.8890465924103106e6 1.85437206317433e7 0.0
1.85437206317433e7 -4.710582569952821e6 0.0
0.0 0.0 0.0

230240.1791626811 2.1323148337950855e7 0.0
2.1323148337950855e7 -1.3899414637660265e7 0.0
0.0 0.0 0.0

-3.946164990961397e6 1.607675786342501e7 0.0
1.607675786342501e7 -3.9790681852126114e7 0.0
0.0 0.0 0.0

527744.4385305794 2.8236915310118355e7 0.0
2.8236915310118355e7 -3.578306355763787e6 0.0
0.0 0.0 0.0

-3.9551351751642665e6 2.069746162968861e7 0.0
2.069746162968861e7 2.2765006463271864e7 0.0
0.0 0.0 0.0

-1.4993997482340806e6 1.911386241511195e7 0.0
1.911386241511195e7 -3.675511800376572e6 0.0
0.0 0.0 0.0

331233.0327874911 2.1114034905530624e7 0.0
2.1114034905530624e7 3.185012433596835e6 0.0
0.0 0.0 0.0

-6.182006943697898e6 1.736573182205797e7 0.0
1.736573182205797e7 -2.7743954666157536e7 0.0
0.0 0.0 0.0

-2.477636927167719e7 2.9647558915729567e7 0.0
2.9647558915729567e7 -6.848104558173478e6 0.0
0.0 0.0 0.0

1.4001204402293358e7 4.4608434679177865e7 0.0
4.4608434679177865e7 -4.271063418016151e6 0.0
0.0 0.0 0.0

-2.6340774921112326e6 -405095.00948191585 0.0
-405095.00948191585 5.519909887714165e6 0.0
0.0 0.0 0.0

-1.9127882853271374e6 -1.3270491234293683e6 0.0
-1.3270491234293683e6 4.975325561573552e6 0.0
0.0 0.0 0.0

-4.086664148129397e6 2.1639397806344334e7 0.0
2.1639397806344334e7 2.0162061451013323e7 0.0
0.0 0.0 0.0

-1.0294195885076298e6 2.4507841218128543e7 0.0
2.4507841218128543e7 -6.471258889822503e6 0.0
0.0 0.0 0.0

-1.4497427910984063e6 3.1659627393025473e7 0.0
3.1659627393025473e7 1.4800704609894175e6 0.0
0.0 0.0 0.0

-2.3345474885136248e6 2.8572130606069174e7 0.0
2.8572130606069174e7 3.814104474092664e6 0.0
0.0 0.0 0.0

1.3157558873662941e7 2.2607131379564855e7 0.0
2.2607131379564855e7 1.0409498394339243e7 0.0
0.0 0.0 0.0

3.5146150432219235e6 2.2616213335496746e7 0.0
2.2616213335496746e7 -4.767602397237042e6 0.0
0.0 0.0 0.0

5.287147224214075e6 1.881730841926025e7 0.0
1.881730841926025e7 5.474483404516522e7 0.0
0.0 0.0 0.0

-4.774020143513977e7 3.0510765777700484e7 0.0
3.0510765777700484e7 -1.5612157674869291e7 0.0
0.0 0.0 0.0

-1.2438798869395773e8 4.244985997847794e7 0.0
4.244985997847794e7 3.2233438035274446e6 0.0
0.0 0.0 0.0

-6.889843176137945e6 1.7058004184184864e7 0.0
1.7058004184184864e7 1.620830001440652e7 0.0
0.0 0.0 0.0

-2.6687529025300127e6 2.2300558068573393e7 0.0
2.2300558068573393e7 1.7006833735598203e7 0.0
0.0 0.0 0.0

2.8824341619416615e6 5.166419473935379e6 0.0
5.166419473935379e6 -2.4451708816558223e7 0.0
0.0 0.0 0.0

-7.005313434061704e6 1.8235191506692708e7 0.0
1.8235191506692708e7 2.296765829515923e7 0.0
0.0 0.0 0.0

-7.242468692762281e6 -5.780883869911123e6 0.0
-5.780883869911123e6 1.778973893738919e7 0.0
0.0 0.0 0.0

1.0436039555333976e7 2.398682814561648e7 0.0
2.398682814561648e7 1.3006982533120036e7 0.0
0.0 0.0 0.0

-2.771964346173441e6 1.6420037906560399e7 0.0
1.6420037906560399e7 -3.813356941516779e7 0.0
0.0 0.0 0.0

3.373770051112376e6 4.511653229425724e6 0.0
4.511653229425724e6 -3.0864988092602767e7 0.0
0.0 0.0 0.0

6.229774682940398e6 2.169360704861965e7 0.0
2.169360704861965e7 6.844312098679941e6 0.0
0.0 0.0 0.0

-1.4562600556697473e6 4.715136677114625e6 0.0
4.715136677114625e6 9.04032046401363e7 0.0
0.0 0.0 0.0

-4.7877135675283745e6 2.9857623044261068e7 0.0
2.9857623044261068e7 6.321646126328171e6 0.0
0.0 0.0 0.0

-1.8090043140403375e7 2.6082781777730346e7 0.0
2.6082781777730346e7 302870.8199758567 0.0
0.0 0.0 0.0

2.0186900605551684e6 2.4804339212469544e7 0.0
2.4804339212469544e7 -9.452800736415466e6 0.0
0.0 0.0 0.0

-8.536335344477119e6 -3.6220620649825605e6 0.0
-3.6220620649825605e6 3.0479892476291966e7 0.0
0.0 0.0 0.0

583274.5325671656 1.9633690584640656e7 0.0
1.9633690584640656e7 7.075564014586833e6 0.0
0.0 0.0 0.0

-7.86665410234678e6 -2.4752926738602202e6 0.0
-2.4752926738602202e6 3.9920004596900195e7 0.0
0.0 0.0 0.0

6.267848221975293e6 2.2711836622477602e7 0.0
2.2711836622477602e7 6.753577656411404e6 0.0
0.0 0.0 0.0

-2.086308593004217e6 2.3647856122062434e7 0.0
2.3647856122062434e7 1.375510618164245e6 0.0
0.0 0.0 0.0

3.4358509199434128e6 2.9276350086325402e6 0.0
2.9276350086325402e6 -3.4177279610446945e7 0.0
0.0 0.0 0.0

-5.450177267390201e6 2.17307494687887e7 0.0
2.17307494687887e7 -1.4596684082638578e7 0.0
0.0 0.0 0.0

3.682631970386858e6 2.199910826408691e6 0.0
2.199910826408691e6 -2.3730544569661252e7 0.0
0.0 0.0 0.0

212594.79985178262 1.7679755424856026e7 0.0
1.7679755424856026e7 -2.2698310556214143e7 0.0
0.0 0.0 0.0

-6.161392288554529e6 3.635780037667247e7 0.0
3.635780037667247e7 2.9287739651478603e6 0.0
0.0 0.0 0.0

-316058.4487094903 1.7357195414565064e7 0.0
1.7357195414565064e7 -206536.73399513477 0.0
0.0 0.0 0.0

426276.50745119294 2.430363627308132e7 0.0
2.430363627308132e7 -9.758812437058413e6 0.0
0.0 0.0 0.0

-4.465409850261011e6 3.4453299785917506e7 0.0
3.4453299785917506e7 2.236364494551202e6 0.0
0.0 0.0 0.0

-2.7947287014662535e6 2.690427696316421e7 0.0
2.690427696316421e7 6.605761899989629e6 0.0
0.0 0.0 0.0

-2.9520503859186666e6 2.818299693164233e7 0.0
2.818299693164233e7 3.1899675163345784e6 0.0
0.0 0.0 0.0

-138123.23195981872 3.441965591920357e7 0.0
3.441965591920357e7 -1.0407854178396738e6 0.0
0.0 0.0 0.0

936773.9337053336 2.343681897754638e7 0.0
2.343681897754638e7 -1.05920539115224e7 0.0
0.0 0.0 0.0

-3.8146286817400404e6 3.796935566517187e7 0.0
3.796935566517187e7 1.11346279805339e6 0.0
0.0 0.0 0.0

-1.0371593810615927e7 1.3523956728828233e7 0.0
1.3523956728828233e7 1.8905301395234853e7 0.0
0.0 0.0 0.0

877380.7178907581 1.4487623770931534e7 0.0
1.4487623770931534e7 -1.7871641605532195e7 0.0
0.0 0.0 0.0

-1.0216237355653325e7 -615550.5254767187 0.0
-615550.5254767187 2.4991053235150605e7 0.0
0.0 0.0 0.0

-1.3105987009914627e7 2.80667758413064e7 0.0
2.80667758413064e7 4.567902500340649e6 0.0
0.0 0.0 0.0

-7.288979958754167e6 956600.3859512651 0.0
956600.3859512651 5.254303575506768e7 0.0
0.0 0.0 0.0

3.9014140590328947e6 3.1502606598450113e7 0.0
3.1502606598450113e7 -4.716035702722382e6 0.0
0.0 0.0 0.0

604444.6446064459 1.7659602380288407e7 0.0
1.7659602380288407e7 -2.269132156989686e7 0.0
0.0 0.0 0.0

1.3660127163525878e6 2.174515875393581e7 0.0
2.174515875393581e7 8.643443752965046e6 0.0
0.0 0.0 0.0

-994114.924659058 1.729757005806604e7 0.0
1.729757005806604e7 -1.0922682438890843e7 0.0
0.0 0.0 0.0

246059.5035294015 1.4940048791698057e7 0.0
1.4940048791698057e7 -3.187831423782938e7 0.0
0.0 0.0 0.0

3.2118606886031693e6 4.014475286870458e6 0.0
4.014475286870458e6 -1.6826228817832764e7 0.0
0.0 0.0 0.0

4.79123912224661e6 2.6546204797189977e7 0.0
2.6546204797189977e7 -7.033459411345378e6 0.0
0.0 0.0 0.0

-44116.46615314251 2.109689543648547e7 0.0
2.109689543648547e7 6.826044868975667e6 0.0
0.0 0.0 0.0

-2.6821382930993917e6 2.09376284906931e7 0.0
2.09376284906931e7 -1.7236290308057768e6 0.0
0.0 0.0 0.0

1.849258160623122e6 1.5778516395396742e6 0.0
1.5778516395396742e6 -6.020936167841293e7 0.0
0.0 0.0 0.0

-1.0829800377509968e7 5.340548585318777e6 0.0
5.340548585318777e6 2.5303552874373864e7 0.0
0.0 0.0 0.0

1.4453977466517538e6 4.130642791474737e6 0.0
4.130642791474737e6 -6.0032278776711464e7 0.0
0.0 0.0 0.0

-8.639320263976967e6 -4.73917545945599e6 0.0
-4.73917545945599e6 2.3043039042367086e7 0.0
0.0 0.0 0.0

-2.476965521991368e6 2.353144085662976e7 0.0
2.353144085662976e7 -168352.83339151507 0.0
0.0 0.0 0.0

-537219.4098119279 2.116641054070221e7 0.0
2.116641054070221e7 3.994471705970886e6 0.0
0.0 0.0 0.0

743501.8479783542 2.1391644012705464e7 0.0
2.1391644012705464e7 6.159988856545561e6 0.0
0.0 0.0 0.0

-6.207973061039353e6 1.6754774935629522e7 0.0
1.6754774935629522e7 1.8768579565889914e7 0.0
0.0 0.0 0.0

-8.31281781840463e6 -2.786117116490198e6 0.0
-2.786117116490198e6 3.428878327839139e7 0.0
0.0 0.0 0.0

6.010128287883622e6 2.853451583518773e7 0.0
2.853451583518773e7 -6.018971221980851e6 0.0
0.0 0.0 0.0

6.384314937042838e6 2.2109347061399307e7 0.0
2.2109347061399307e7 1.622627862991517e7 0.0
0.0 0.0 0.0

2.1111366311759073e6 8.968525265621686e6 0.0
8.968525265621686e6 -2.7380001310116373e7 0.0
0.0 0.0 0.0

-8.481663782177875e6 -1.145146334249144e6 0.0
-1.145146334249144e6 3.65886953842652e7 0.0
0.0 0.0 0.0

4.166730664838703e6 2.227913392023821e7 0.0
2.227913392023821e7 1.273360746683093e7 0.0
0.0 0.0 0.0

-2.2251430335294157e6 1.7368416834828917e7 0.0
1.7368416834828917e7 4.4249804365867056e7 0.0
0.0 0.0 0.0

7.274092128287282e6 2.3335870737411622e7 0.0
2.3335870737411622e7 1.2690965631383654e7 0.0
0.0 0.0 0.0

-5.538762754160875e6 1.6096365614848642e7 0.0
1.6096365614848642e7 -5.2136043043149196e7 0.0
0.0 0.0 0.0

-2.895501690700967e6 2.0314827260449953e7 0.0
2.0314827260449953e7 2.6692629700953666e7 0.0
0.0 0.0 0.0

1.428541647471398e6 1.9653269889185604e7 0.0
1.9653269889185604e7 2.1001890753346518e7 0.0
0.0 0.0 0.0

1.9254977600490488e6 2.3038390710537106e7 0.0
2.3038390710537106e7 -1.1631849285868675e7 0.0
0.0 0.0 0.0

-3.296665180528691e6 2.227261554639904e7 0.0
2.227261554639904e7 -6.282973340605098e6 0.0
0.0 0.0 0.0

990881.5205777716 8.65232146217087e6 0.0
8.65232146217087e6 -4.398871015871016e7 0.0
0.0 0.0 0.0

1.0722519530600682e6 7.777951043731558e6 0.0
7.777951043731558e6 -4.6277296072552584e7 0.0
0.0 0.0 0.0

-68955.68197236396 1.6925801455147207e7 0.0
1.6925801455147207e7 -1.0338815519124147e7 0.0
0.0 0.0 0.0

-6.529479277576005e6 1.7908517582122434e7 0.0
1.7908517582122434e7 3.0832959957099795e7 0.0
0.0 0.0 0.0

711817.3126520012 2.1447648327187233e7 0.0
2.1447648327187233e7 -1.463987209971413e7 0.0
0.0 0.0 0.0

-5.2212827521218695e6 3.7547376538986773e6 0.0
3.7547376538986773e6 6.72939220777883e7 0.0
0.0 0.0 0.0

-3.0630675401354358e6 1.5805390635437565e7 0.0
1.5805390635437565e7 -4.42510343176762e7 0.0
0.0 0.0 0.0

1.3944174078970887e6 1.6045494913473355e7 0.0
1.6045494913473355e7 5.70303438143222e7 0.0
0.0 0.0 0.0

1.9733372061369382e6 1.6744320493727603e6 0.0
1.6744320493727603e6 -5.776288772628535e7 0.0
0.0 0.0 0.0

1.2020194943911335e6 2.457387306129282e7 0.0
2.457387306129282e7 -9.559274379693612e6 0.0
0.0 0.0 0.0

5.945778673677281e6 2.303419356989634e7 0.0
2.303419356989634e7 1.3288476106369672e7 0.0
0.0 0.0 0.0

-7.144394890990383e6 1.759179265521572e7 0.0
1.759179265521572e7 -4.775854146655704e7 0.0
0.0 0.0 0.0

1.167335009531595e7 1.1355970741950218e7 0.0
1.1355970741950218e7 1.2937116869933354e6 0.0
0.0 0.0 0.0

-2.1857341779899336e6 2.1420108904706843e7 0.0
2.1420108904706843e7 -7.816447354499016e6 0.0
0.0 0.0 0.0

4.966548047955465e6 2.2574182623615246e7 0.0
2.2574182623615246e7 1.38616222141403e7 0.0
0.0 0.0 0.0

-3.041258520379884e6 2.3342629087347697e7 0.0
2.3342629087347697e7 1.1699511444521513e7 0.0
0.0 0.0 0.0

-3.019237475803991e6 2.2189898679434735e7 0.0
2.2189898679434735e7 1.743743385428643e7 0.0
0.0 0.0 0.0

555735.8542340351 1.3142972414258532e7 0.0
1.3142972414258532e7 -1.5691596479459507e7 0.0
0.0 0.0 0.0

-8.692000966321852e6 1.696336036747122e7 0.0
1.696336036747122e7 2.8469789591897503e7 0.0
0.0 0.0 0.0

-4.5616018691747375e6 1.5641547696276201e7 0.0
1.5641547696276201e7 -4.858388788668718e7 0.0
0.0 0.0 0.0

-2.653636140034752e6 2.1261703517834514e7 0.0
2.1261703517834514e7 -1.1745436194541125e7 0.0
0.0 0.0 0.0

-6.852653414420011e6 2.4418752453666877e7 0.0
2.4418752453666877e7 6.496468205015876e6 0.0
0.0 0.0 0.0

406501.86443374306 1.1705880306830311e7 0.0
1.1705880306830311e7 -8.97557805759087e6 0.0
0.0 0.0 0.0

-4.277634112568263e6 6.305551394314008e6 0.0
6.305551394314008e6 8.772090858582938e7 0.0
0.0 0.0 0.0

-8.009559395502096e6 1.7277757837086074e7 0.0
1.7277757837086074e7 -5.9635524780028135e7 0.0
0.0 0.0 0.0

-1.9517686431011315e6 1.9381218428947676e7 0.0
1.9381218428947676e7 3.086927293023267e7 0.0
0.0 0.0 0.0

-1.821846688973981e6 3.2294169058976904e7 0.0
3.2294169058976904e7 263505.90508066106 0.0
0.0 0.0 0.0

1.9732795809127986e7 2.2786755763105743e7 0.0
2.2786755763105743e7 7.858184388895474e6 0.0
0.0 0.0 0.0

98751.19063303061 1.900369088575253e7 0.0
1.900369088575253e7 3.948929532481211e7 0.0
0.0 0.0 0.0

-3.950218214010218e6 2.1345546778672088e7 0.0
2.1345546778672088e7 2.00960148825229e7 0.0
0.0 0.0 0.0

508960.1585963862 1.5581512373778775e7 0.0
1.5581512373778775e7 -1.7419979290730078e7 0.0
0.0 0.0 0.0

-3.2515545149125727e6 2.0320921726301204e7 0.0
2.0320921726301204e7 -1.3550592809173731e7 0.0
0.0 0.0 0.0

-5.15105913013189e6 1.9650918151146386e7 0.0
1.9650918151146386e7 1.5814992420976713e7 0.0
0.0 0.0 0.0

-5.387912473308616e6 1.8316672277955852e7 0.0
1.8316672277955852e7 1.88373214765285e7 0.0
0.0 0.0 0.0

2.9333555216228515e6 2.9462608342394885e6 0.0
2.9462608342394885e6 -3.1698099689536225e7 0.0
0.0 0.0 0.0

-4.1067452780241645e6 2.6074718591867227e7 0.0
2.6074718591867227e7 1.0309162269668283e7 0.0
0.0 0.0 0.0

-1.7790569562952858e6 1.7693322726804577e7 0.0
1.7693322726804577e7 -3.0773616892731865e6 0.0
0.0 0.0 0.0

3.9795306543595046e6 3.3132599338263134e6 0.0
3.3132599338263134e6 -2.2695531417632848e7 0.0
0.0 0.0 0.0

2.401334670836745e6 3.0413904843820564e7 0.0
3.0413904843820564e7 -4.77895039216213e6 0.0
0.0 0.0 0.0

6.983787897666125e6 2.310100401486743e7 0.0
2.310100401486743e7 1.4376253875059886e7 0.0
0.0 0.0 0.0

-6.272360471621759e6 2.1258206961821103e6 0.0
2.1258206961821103e6 5.914137008155358e7 0.0
0.0 0.0 0.0

9.663808449998904e6 2.4489983512727454e7 0.0
2.4489983512727454e7 1.2295615735104524e7 0.0
0.0 0.0 0.0

6.512142479257366e6 2.3106198624332793e7 0.0
2.3106198624332793e7 9.61875506929548e6 0.0
0.0 0.0 0.0

-17515.079436450265 2.04277193355443e7 0.0
2.04277193355443e7 -1.437570525308005e7 0.0
0.0 0.0 0.0

2.5059371115497295e6 2.9790743151279455e6 0.0
2.9790743151279455e6 -4.205941708195213e7 0.0
0.0 0.0 0.0

3.3132403119829707e6 1.8496292265609406e7 0.0
1.8496292265609406e7 1.3934306070246471e7 0.0
0.0 0.0 0.0

506498.2787733339 2.0893132085062698e7 0.0
2.0893132085062698e7 -1.3010754239917077e7 0.0
0.0 0.0 0.0

1.5277035579400775e6 2.139605966627751e7 0.0
2.139605966627751e7 1.0036814214318039e7 0.0
0.0 0.0 0.0

-1.1038204990735427e7 7.315184817776326e6 0.0
7.315184817776326e6 2.0003944228887435e7 0.0
0.0 0.0 0.0

-7.833114698623822e6 -5.070157211871106e6 0.0
-5.070157211871106e6 2.1929446043184888e7 0.0
0.0 0.0 0.0

-5.426433061692631e6 2.3693468755455367e7 0.0
2.3693468755455367e7 4.317413663546317e6 0.0
0.0 0.0 0.0

730907.8283805288 1.5539858570829192e7 0.0
1.5539858570829192e7 -2.7199291253444713e7 0.0
0.0 0.0 0.0

-3.8371823095316654e6 1.9449470202379692e7 0.0
1.9449470202379692e7 -1.7861933190184217e7 0.0
0.0 0.0 0.0

-4.605132701198041e6 2.675415966467527e6 0.0
2.675415966467527e6 8.497139066884695e7 0.0
0.0 0.0 0.0

-4.887726731557349e6 3.904747705632685e7 0.0
3.904747705632685e7 1.3140609794257227e6 0.0
0.0 0.0 0.0

706251.5968944603 5.99440945996148e6 0.0
5.99440945996148e6 -2.7992690581388506e6 0.0
0.0 0.0 0.0

-1.3888206714832091e6 2.1371835501895297e7 0.0
2.1371835501895297e7 1.3782013048501522e6 0.0
0.0 0.0 0.0

3.4603723586325548e6 2.2256722517245714e7 0.0
2.2256722517245714e7 1.2571096834461128e7 0.0
0.0 0.0 0.0

-6.959986542267051e6 1.833225084927569e7 0.0
1.833225084927569e7 2.7582530243788257e7 0.0
0.0 0.0 0.0

-1.4878902471547235e7 2.7534869606347e7 0.0
2.7534869606347e7 2.6803763395466926e6 0.0
0.0 0.0 0.0

4.861029038668731e6 2.3132842884963132e7 0.0
2.3132842884963132e7 1.0607783431197755e7 0.0
0.0 0.0 0.0

2.696091104585848e6 2.2871057918963898e7 0.0
2.2871057918963898e7 1.1794486546132252e7 0.0
0.0 0.0 0.0

571759.2842952702 1.9815033668555472e7 0.0
1.9815033668555472e7 -1.8549772246272404e7 0.0
0.0 0.0 0.0

2.177025606038632e6 5.509598751340671e6 0.0
5.509598751340671e6 -1.2968523997597136e7 0.0
0.0 0.0 0.0

-844414.5820088768 2.0458187232250895e7 0.0
2.0458187232250895e7 -1.6425167033494668e7 0.0
0.0 0.0 0.0

483783.2987344521 2.28648887290947e7 0.0
2.28648887290947e7 -1.1865442850325104e7 0.0
0.0 0.0 0.0

-2.4439520653156694e6 2.598337026830919e7 0.0
2.598337026830919e7 5.844265540940287e6 0.0
0.0 0.0 0.0

2.323849510060028e6 2.4037935829017233e7 0.0
2.4037935829017233e7 -9.747454291732205e6 0.0
0.0 0.0 0.0

1.6120372838403475e6 2.3164923625474945e7 0.0
2.3164923625474945e7 -1.0695201842374364e7 0.0
0.0 0.0 0.0

2.9417552170024123e6 4.050478612337496e6 0.0
4.050478612337496e6 -3.776491964106078e7 0.0
0.0 0.0 0.0

3.4212292913619373e6 2.231001655396117e7 0.0
2.231001655396117e7 7.638829731715895e6 0.0
0.0 0.0 0.0

438345.92203945154 2.3551511117847025e7 0.0
2.3551511117847025e7 -1.0750701628366427e7 0.0
0.0 0.0 0.0

-1.0267305206203638e7 1.522203114675995e7 0.0
1.522203114675995e7 2.3530507354079485e7 0.0
0.0 0.0 0.0

-9.288691937679039e7 3.427954290122215e7 0.0
3.427954290122215e7 -9.472809378849886e6 0.0
0.0 0.0 0.0

3.1709251525999263e7 3.077430657018641e7 0.0
3.077430657018641e7 1.0569771590756199e8 0.0
0.0 0.0 0.0

-3.130206798861084e7 2.8874282417542882e7 0.0
2.8874282417542882e7 -1.0434043154799134e8 0.0
0.0 0.0 0.0

-4.0468747019326985e6 2.0341009641436797e7 0.0
2.0341009641436797e7 2.4265376403923586e7 0.0
0.0 0.0 0.0

921322.9533322128 1.5169623471333962e7 0.0
1.5169623471333962e7 -2.3820778411996603e7 0.0
0.0 0.0 0.0

-4.066918073971551e6 2.137434151125933e7 0.0
2.137434151125933e7 -1.3893495293029344e7 0.0
0.0 0.0 0.0

3.0746082925234195e6 3.949991227157105e7 0.0
3.949991227157105e7 -2.719731770526712e6 0.0
0.0 0.0 0.0

-2.020740844429735e6 1.8536630248207208e7 0.0
1.8536630248207208e7 -2.254717897490734e7 0.0
0.0 0.0 0.0

-5.184799778631691e6 2.2463345104516756e7 0.0
2.2463345104516756e7 -8.418797148554817e6 0.0
0.0 0.0 0.0

-8.898092716659764e6 1.7137365524583757e7 0.0
1.7137365524583757e7 2.4153502006834928e7 0.0
0.0 0.0 0.0

-800748.1139094395 2.6764192830135304e7 0.0
2.6764192830135304e7 -1.7959691288465564e6 0.0
0.0 0.0 0.0

-3.0278125111870877e6 1.7196286204307288e7 0.0
1.7196286204307288e7 -3.5106797416549206e7 0.0
0.0 0.0 0.0

-2.139024348202309e6 2.130865278724566e7 0.0
2.130865278724566e7 -7.681226307066053e6 0.0
0.0 0.0 0.0

-3.73105398537571e6 2.3383731371549543e7 0.0
2.3383731371549543e7 1.2810671289320286e7 0.0
0.0 0.0 0.0

1.932115585295431e7 2.3340983413112327e7 0.0
2.3340983413112327e7 562744.0111276451 0.0
0.0 0.0 0.0

1.245952920518265e6 2.0717060730049394e7 0.0
2.0717060730049394e7 7.483158478249772e6 0.0
0.0 0.0 0.0

-4.283035910218236e6 2.084617544671416e7 0.0
2.084617544671416e7 2.1552687494936e7 0.0
0.0 0.0 0.0

-2.205709448063961e7 2.619038065508683e7 0.0
2.619038065508683e7 -2.3118954745535115e6 0.0
0.0 0.0 0.0

772849.0156690609 2.1059322565067366e7 0.0
2.1059322565067366e7 7.479039598536652e6 0.0
0.0 0.0 0.0

3.130952588591582e6 3.0968876773763306e7 0.0
3.0968876773763306e7 -4.599404167360602e6 0.0
0.0 0.0 0.0

1.0153744794453228e7 2.814455095156433e7 0.0
2.814455095156433e7 -5.451762129081685e6 0.0
0.0 0.0 0.0

1.4943990742818695e6 1.4494601680727322e7 0.0
1.4494601680727322e7 -1.815448620211751e7 0.0
0.0 0.0 0.0

-4.003449881628912e6 1.9104677405362327e7 0.0
1.9104677405362327e7 3.013786381948275e7 0.0
0.0 0.0 0.0

-217305.2847668063 1.9365953192783754e7 0.0
1.9365953192783754e7 -1.915094667147278e7 0.0
0.0 0.0 0.0

-2.709566315758453e6 1.9066000257099103e7 0.0
1.9066000257099103e7 5.623444634963414e6 0.0
0.0 0.0 0.0

-5.870543182974701e6 1.94856813082405e7 0.0
1.94856813082405e7 1.8487907866738405e7 0.0
0.0 0.0 0.0

1.9783739372360562e6 7.719545030133253e6 0.0
7.719545030133253e6 -9.59221081136539e6 0.0
0.0 0.0 0.0

1.333097607032646e6 1.9831690309397854e7 0.0
1.9831690309397854e7 1.0787725301795036e7 0.0
0.0 0.0 0.0

5.813420545883836e6 2.7426813136028126e7 0.0
2.7426813136028126e7 -6.426080946712789e6 0.0
0.0 0.0 0.0

-1.280559983822666e6 1.1728775264354527e7 0.0
1.1728775264354527e7 -6.733306196650152e7 0.0
0.0 0.0 0.0

-1.0620315187874941e7 1.4607701051046088e7 0.0
1.4607701051046088e7 2.277060324392155e7 0.0
0.0 0.0 0.0

2.2000120471207954e7 4.2376574789101146e7 0.0
4.2376574789101146e7 -6.575254932339207e6 0.0
0.0 0.0 0.0

1.9929678254217748e6 8.015120824366475e6 0.0
8.015120824366475e6 -4.3099634803561985e7 0.0
0.0 0.0 0.0

763696.6042375062 1.9723597501996934e7 0.0
1.9723597501996934e7 8.560834720308678e6 0.0
0.0 0.0 0.0

2.907120847178411e6 2.5202134732205436e7 0.0
2.5202134732205436e7 -8.761717503282942e6 0.0
0.0 0.0 0.0

1.4531333653161637e7 2.4518524334545698e7 0.0
2.4518524334545698e7 1.4731627076168087e8 0.0
0.0 0.0 0.0

-1.5305557689083617e7 2.3817076549661618e7 0.0
2.3817076549661618e7 -1.4018326003092766e8 0.0
0.0 0.0 0.0

2.995291827759723e7 2.1184971282943442e7 0.0
2.1184971282943442e7 6.231290332646147e6 0.0
0.0 0.0 0.0

1.1882753255311068e7 2.7458443909751408e7 0.0
2.7458443909751408e7 -4.967053424092095e6 0.0
0.0 0.0 0.0

436260.99619267136 1.1102457641156688e7 0.0
1.1102457641156688e7 -7.927715960296608e6 0.0
0.0 0.0 0.0

2.221656314070605e7 3.786717134016793e7 0.0
3.786717134016793e7 -6.720774148435053e6 0.0
0.0 0.0 0.0

-1.1985087643570248e6 2.1187590428972773e7 0.0
2.1187590428972773e7 2.129165495705463e7 0.0
0.0 0.0 0.0

1.5891147800971568e7 2.300166364687936e7 0.0
2.300166364687936e7 672015.6191818397 0.0
0.0 0.0 0.0

-3.375978529301936e6 2.5310515786232844e7 0.0
2.5310515786232844e7 8.237790591521713e6 0.0
0.0 0.0 0.0

-5.041804528037536e6 1.74505489761357e7 0.0
1.74505489761357e7 1.6870901440621365e7 0.0
0.0 0.0 0.0

-246372.42554087134 3.948909205134003e6 0.0
3.948909205134003e6 -3.069970474027227e6 0.0
0.0 0.0 0.0

7.58542418610814e6 2.2709665731535476e7 0.0
2.2709665731535476e7 1.5132299221200401e7 0.0
0.0 0.0 0.0

294144.84081720933 2.66289591863928e7 0.0
2.66289591863928e7 -6.311433145337127e6 0.0
0.0 0.0 0.0

-4.0524634808395132e6 2.0091251399422105e7 0.0
2.0091251399422105e7 2.5814698215886336e7 0.0
0.0 0.0 0.0

-5.504665612268811e6 2.6441656928752493e7 0.0
2.6441656928752493e7 9.659330960735125e6 0.0
0.0 0.0 0.0

-2.7010026176114227e6 2.4872279240122244e7 0.0
2.4872279240122244e7 9.043478972145196e6 0.0
0.0 0.0 0.0

-2.418091505032417e6 1.9027076045849692e7 0.0
1.9027076045849692e7 -6.686695574373296e6 0.0
0.0 0.0 0.0

-1.5727563215022404e6 1.9195776918951344e7 0.0
1.9195776918951344e7 3.263287826691556e7 0.0
0.0 0.0 0.0

-3.17765713739037e6 2.5729086852260668e7 0.0
2.5729086852260668e7 9.571469094634864e6 0.0
0.0 0.0 0.0

-4.454047837853761e6 1.3841060704812985e7 0.0
1.3841060704812985e7 9.947957861735176e6 0.0
0.0 0.0 0.0

-4.240705584868514e7 3.381035435414732e7 0.0
3.381035435414732e7 -5.622868155390017e6 0.0
0.0 0.0 0.0

-6.161579376570404e6 5.00100571372617e6 0.0
5.00100571372617e6 5.904607076090053e7 0.0
0.0 0.0 0.0

-7.529430123634504e6 2.6843727018741366e7 0.0
2.6843727018741366e7 7.978860527164463e6 0.0
0.0 0.0 0.0

-7.961533719863381e6 3.2174884074052144e7 0.0
3.2174884074052144e7 5.856901676302649e6 0.0
0.0 0.0 0.0

-1.2570925483710151e6 1.6614284153497338e7 0.0
1.6614284153497338e7 -3.133494362915164e7 0.0
0.0 0.0 0.0

-2.403496220358788e6 3.578588073812664e7 0.0
3.578588073812664e7 1.6255893931408874e6 0.0
0.0 0.0 0.0

-6.469525574500709e6 4.0358359162085176e7 0.0
4.0358359162085176e7 1.3842945876985756e6 0.0
0.0 0.0 0.0

-8.130473310949621e6 4.161509754779455e7 0.0
4.161509754779455e7 1.8623784164138483e6 0.0
0.0 0.0 0.0

-379955.8507363397 2.9100142539014764e7 0.0
2.9100142539014764e7 -3.08715519670709e6 0.0
0.0 0.0 0.0

-9.08889877256423e6 1.4026543102306498e7 0.0
1.4026543102306498e7 3.3416999019593336e7 0.0
0.0 0.0 0.0

3.1159453396034166e6 1.6403774158108116e6 0.0
1.6403774158108116e6 -3.5229072912152454e7 0.0
0.0 0.0 0.0

-2.612630002043316e6 2.005110976181058e7 0.0
2.005110976181058e7 2.7966031540648293e7 0.0
0.0 0.0 0.0

2.7179123328248095e6 3.1925348946031746e7 0.0
3.1925348946031746e7 -3.986974635558234e6 0.0
0.0 0.0 0.0

145898.02273007482 1.7155753504907507e7 0.0
1.7155753504907507e7 -2.416141797846107e7 0.0
0.0 0.0 0.0

-7.691860818992032e6 -166651.65023573706 0.0
-166651.65023573706 4.629906867735644e7 0.0
0.0 0.0 0.0

337372.2901386366 2.0920898422642764e7 0.0
2.0920898422642764e7 1.6352046630042414e6 0.0
0.0 0.0 0.0

897735.3989521018 2.140903760366792e7 0.0
2.140903760366792e7 -1.1904897703106709e7 0.0
0.0 0.0 0.0

-437619.6491302708 1.9953001234126553e7 0.0
1.9953001234126553e7 -1.5687765939651443e7 0.0
0.0 0.0 0.0

-4.085573022385505e6 1.761923019030028e7 0.0
1.761923019030028e7 -1.5676328949352378e7 0.0
0.0 0.0 0.0

-9.39252601771997e6 -2.963310966128839e6 0.0
-2.963310966128839e6 2.0765659388395123e7 0.0
0.0 0.0 0.0

-448380.3595648684 1.929069869921737e7 0.0
1.929069869921737e7 -2.597242589089703e6 0.0
0.0 0.0 0.0

3.301591737046544e6 2.1266580892492864e7 0.0
2.1266580892492864e7 6.86532404543439e6 0.0
0.0 0.0 0.0

2.1202014404348183e7 2.1733138910735887e7 0.0
2.1733138910735887e7 7.841608888930406e6 0.0
0.0 0.0 0.0

-9.1457307724256e6 4.3837826263228334e7 0.0
4.3837826263228334e7 2.7181798067410076e6 0.0
0.0 0.0 0.0

-5.263047527076224e6 1.7876892872991357e7 0.0
1.7876892872991357e7 1.7981097843015864e7 0.0
0.0 0.0 0.0

-1.106834519946404e7 1.906512898058697e7 0.0
1.906512898058697e7 -6.67797833754361e7 0.0
0.0 0.0 0.0

2.6194043597902507e6 7.152813613618038e6 0.0
7.152813613618038e6 -3.602958237107747e7 0.0
0.0 0.0 0.0

-8.513857912822954e6 -3.4495135799696045e6 0.0
-3.4495135799696045e6 3.083013796109661e7 0.0
0.0 0.0 0.0

-2.249276122611048e7 2.960936810764858e7 0.0
2.960936810764858e7 -9.674301061483197e6 0.0
0.0 0.0 0.0

-2.2078859460407425e7 2.670998434230681e7 0.0
2.670998434230681e7 -4.83406620457653e6 0.0
0.0 0.0 0.0

-2.3679287170068305e6 1.9587839526104406e7 0.0
1.9587839526104406e7 -8.541847326501647e6 0.0
0.0 0.0 0.0

494429.99562892155 3.1361435231547963e7 0.0
3.1361435231547963e7 -2.7722613704683627e6 0.0
0.0 0.0 0.0

68627.29899287969 6.7434746190749705e6 0.0
6.7434746190749705e6 -6.386528603377607e7 0.0
0.0 0.0 0.0

9.646699061624896e6 2.4259149265720274e7 0.0
2.4259149265720274e7 -3.291791378746177e6 0.0
0.0 0.0 0.0

6.677673610063804e6 2.364088796738782e7 0.0
2.364088796738782e7 1.1833013668072032e7 0.0
0.0 0.0 0.0

1.5450768882238427e6 1.4958697466440983e7 0.0
1.4958697466440983e7 -2.353709055109757e7 0.0
0.0 0.0 0.0

-1.713544245111555e6 2.4962401122187447e7 0.0
2.4962401122187447e7 805177.0750913634 0.0
0.0 0.0 0.0

1.4600784462999208e6 1.394782078502141e7 0.0
1.394782078502141e7 -1.72211606330425e7 0.0
0.0 0.0 0.0

929634.6164174397 1.4606664463564372e7 0.0
1.4606664463564372e7 -2.5355839612246666e7 0.0
0.0 0.0 0.0

-2.8939546135729617e6 1.8497567318145767e7 0.0
1.8497567318145767e7 -1.6356575880072039e7 0.0
0.0 0.0 0.0

-8.25191216457629e6 3.112680226740293e7 0.0
3.112680226740293e7 5.77122120575316e6 0.0
0.0 0.0 0.0

-1.707772563428286e7 2.28035223091767e7 0.0
2.28035223091767e7 -7.73909690799815e7 0.0
0.0 0.0 0.0

1.8336203102855325e7 3.710849390947339e7 0.0
3.710849390947339e7 -5.5692080280503575e6 0.0
0.0 0.0 0.0

7.171367226686187e6 2.7410770053391393e7 0.0
2.7410770053391393e7 -5.913740676158846e6 0.0
0.0 0.0 0.0

-2.4691900914493706e6 3.3213597148600485e7 0.0
3.3213597148600485e7 2.3874657286018375e6 0.0
0.0 0.0 0.0

-3.756424587956647e6 2.5097745962395053e7 0.0
2.5097745962395053e7 1.1149194755062617e7 0.0
0.0 0.0 0.0

189488.47039453685 5.543031940371435e6 0.0
5.543031940371435e6 -6.682796151762234e7 0.0
0.0 0.0 0.0

-3.7045201006319737e6 2.3062298688428666e7 0.0
2.3062298688428666e7 1.5706324701831207e7 0.0
0.0 0.0 0.0

1.186262407805197e6 5.346711851747342e6 0.0
5.346711851747342e6 -5.382457129078063e7 0.0
0.0 0.0 0.0

-237595.6863856553 2.219751835864578e7 0.0
2.219751835864578e7 -8.984615122787984e6 0.0
0.0 0.0 0.0

-294563.90804239875 2.1314736019187678e7 0.0
2.1314736019187678e7 -9.373047436508201e6 0.0
0.0 0.0 0.0

-1.1495823954227956e6 1.8771892645906355e7 0.0
1.8771892645906355e7 -3.870274544123383e6 0.0
0.0 0.0 0.0

-2.801987920988651e6 2.144390736482523e7 0.0
2.144390736482523e7 1.844219828625464e7 0.0
0.0 0.0 0.0

-1.36652282226161e6 2.79045907665119e7 0.0
2.79045907665119e7 -2.063418302385707e6 0.0
0.0 0.0 0.0

-3.9436212895653006e6 2.165158730533891e7 0.0
2.165158730533891e7 1.5098415463685814e7 0.0
0.0 0.0 0.0

-8.196960389032492e6 -2.903314275717109e6 0.0
-2.903314275717109e6 3.5111246439105906e7 0.0
0.0 0.0 0.0

1.9750278163142763e6 6.785186102997666e6 0.0
6.785186102997666e6 -3.804635506702653e7 0.0
0.0 0.0 0.0

2.017314538338866e6 9.259174967625834e6 0.0
9.259174967625834e6 -2.9564500218400385e7 0.0
0.0 0.0 0.0

1.9381476857914694e6 3.453131016655734e7 0.0
3.453131016655734e7 -1.8640999060061295e6 0.0
0.0 0.0 0.0

-3.169573232103287e6 2.1375555448581386e7 0.0
2.1375555448581386e7 -1.1722759125962526e7 0.0
0.0 0.0 0.0

-429586.8184553385 1.5794428864476563e7 0.0
1.5794428864476563e7 -3.163276171425435e7 0.0
0.0 0.0 0.0

3.7158456373530347e6 2.0458639839113455e7 0.0
2.0458639839113455e7 1.6550244984270295e7 0.0
0.0 0.0 0.0

-1.0220258353569556e7 2.733209123064974e6 0.0
2.733209123064974e6 2.413142297552626e7 0.0
0.0 0.0 0.0

7.519478614504477e6 2.425344446973024e7 0.0
2.425344446973024e7 1.300205280081824e7 0.0
0.0 0.0 0.0

-1.5260992566558547e7 3.441570350626524e7 0.0
3.441570350626524e7 6.523379450945999e6 0.0
0.0 0.0 0.0

4.763633875160597e6 2.1888388163006768e7 0.0
2.1888388163006768e7 7.572948281612702e6 0.0
0.0 0.0 0.0

3.0083487524383543e6 1.8985849293363675e7 0.0
1.8985849293363675e7 1.619009716537847e7 0.0
0.0 0.0 0.0

-5.682847131452659e6 3.0370389788163733e7 0.0
3.0370389788163733e7 6.032891722938387e6 0.0
0.0 0.0 0.0

-3.43376303835575e6 2.2189351321162246e7 0.0
2.2189351321162246e7 1.8130260935364954e7 0.0
0.0 0.0 0.0

-204417.65226533636 1.8577990043360718e7 0.0
1.8577990043360718e7 3.8946307466932036e7 0.0
0.0 0.0 0.0

-2.11774650605285e7 2.7351511230369445e7 0.0
2.7351511230369445e7 -2.8199520627510822e6 0.0
0.0 0.0 0.0

-1.3762922839253945e7 2.5952504754281934e7 0.0
2.5952504754281934e7 2.37098535797905e6 0.0
0.0 0.0 0.0

-1.2221112118727045e7 1.7701921012973126e7 0.0
1.7701921012973126e7 381249.841877169 0.0
0.0 0.0 0.0

-8.429937250894196e7 3.7539892178098656e7 0.0
3.7539892178098656e7 -4.193132729590878e6 0.0
0.0 0.0 0.0

1.2867762360127741e7 2.1775976196538188e7 0.0
2.1775976196538188e7 7.556065682471691e6 0.0
0.0 0.0 0.0

-2.451462218163957e6 1.689428374313516e7 0.0
1.689428374313516e7 -3.2370629521735772e7 0.0
0.0 0.0 0.0

-3.306305914161625e6 2.4554432063532203e7 0.0
2.4554432063532203e7 8.594994692777483e6 0.0
0.0 0.0 0.0

552436.1226692181 2.0819384993185747e7 0.0
2.0819384993185747e7 -1.590305681316977e7 0.0
0.0 0.0 0.0

4.6558183426680975e7 1.7324087974912796e7 0.0
1.7324087974912796e7 2.745165009696603e6 0.0
0.0 0.0 0.0

-6.965109368632734e6 -1.9903945423921375e6 0.0
-1.9903945423921375e6 1.264209961922021e7 0.0
0.0 0.0 0.0

3.490745717397169e6 2.5372948789293393e6 0.0
2.5372948789293393e6 -1.5417291090862703e7 0.0
0.0 0.0 0.0

267141.9660548251 2.1508544367041238e7 0.0
2.1508544367041238e7 -1.3618854010013394e7 0.0
0.0 0.0 0.0

-728025.5801006751 2.0291942696603082e7 0.0
2.0291942696603082e7 -1.030998705238379e6 0.0
0.0 0.0 0.0

-8.173728913243173e6 5.294930111265088e6 0.0
5.294930111265088e6 4.5922641439680606e7 0.0
0.0 0.0 0.0

8.5682805976313e6 2.8521279214258518e7 0.0
2.8521279214258518e7 -5.70351905558964e6 0.0
0.0 0.0 0.0

-1.4019183373052834e7 4.541212517715284e7 0.0
4.541212517715284e7 3.190841334996703e6 0.0
0.0 0.0 0.0

1.213339690217307e7 2.2644569356205694e7 0.0
2.2644569356205694e7 6.759422646947323e6 0.0
0.0 0.0 0.0

-8.419103073544445e6 -3.864687376706493e6 0.0
-3.864687376706493e6 2.8792370005283676e7 0.0
0.0 0.0 0.0

-2.4728124917737246e7 2.791680660531568e7 0.0
2.791680660531568e7 -2.7890624636995373e6 0.0
0.0 0.0 0.0

1.1123624052256318e6 1.980156383003408e7 0.0
1.980156383003408e7 6.9600539567332845e6 0.0
0.0 0.0 0.0

-1.9578884168871704e7 4.76376068429076e7 0.0
4.76376068429076e7 4.026100872984466e6 0.0
0.0 0.0 0.0

-6.710752065851048e6 1.877137346614739e7 0.0
1.877137346614739e7 2.38666686609212e7 0.0
0.0 0.0 0.0

2.3417545163443293e6 2.1330403261927515e7 0.0
2.1330403261927515e7 -1.5824760245684525e6 0.0
0.0 0.0 0.0

-7.098257434125041e6 1.8410440317340545e7 0.0
1.8410440317340545e7 -2.627393332421001e7 0.0
0.0 0.0 0.0

-2.9527499378832225e6 1.9603495725288272e7 0.0
1.9603495725288272e7 -1.1608508832348552e7 0.0
0.0 0.0 0.0

8.519435166652298e6 2.3860475962884635e7 0.0
2.3860475962884635e7 -3.863756174639902e6 0.0
0.0 0.0 0.0

3.7948576836671166e7 4.66243095560762e7 0.0
4.66243095560762e7 -1.1528605265677188e7 0.0
0.0 0.0 0.0

-9.473479324860554e6 -2.1842647815357996e6 0.0
-2.1842647815357996e6 2.2441829850775007e7 0.0
0.0 0.0 0.0

2.6125713819394577e6 3.785596688340971e7 0.0
3.785596688340971e7 -2.933603070079282e6 0.0
0.0 0.0 0.0

4.36557720845051e6 3.2243565278703827e7 0.0
3.2243565278703827e7 -3.505592149304647e6 0.0
0.0 0.0 0.0

-9.120921684219088e6 438466.26719890354 0.0
438466.26719890354 3.728849441356241e7 0.0
0.0 0.0 0.0

3.064224064726753e6 1.6843396912216593e6 0.0
1.6843396912216593e6 -3.566806427615159e7 0.0
0.0 0.0 0.0

-4.255977274405656e6 2.7724802624676194e7 0.0
2.7724802624676194e7 8.328174812295247e6 0.0
0.0 0.0 0.0

6.0538117901283e6 2.390496798395041e7 0.0
2.390496798395041e7 1.346537907206781e7 0.0
0.0 0.0 0.0

-4.677375013964787e6 6.272666440263026e6 0.0
6.272666440263026e6 6.783442186427876e6 0.0
0.0 0.0 0.0

-8.233391917767664e6 1.7119513573154356e7 0.0
1.7119513573154356e7 2.4055284807263825e7 0.0
0.0 0.0 0.0

4.907092213498043e6 2.345058163878264e7 0.0
2.345058163878264e7 1.3966803389818328e7 0.0
0.0 0.0 0.0

-626726.5556066134 1.8076895043648854e7 0.0
1.8076895043648854e7 -1.2629757026567252e7 0.0
0.0 0.0 0.0

-3.5817991603426374e6 1.813059021044585e7 0.0
1.813059021044585e7 -1.777520569578018e7 0.0
0.0 0.0 0.0

1.8526407797194866e6 2.9758876750500645e7 0.0
2.9758876750500645e7 -4.786417302724991e6 0.0
0.0 0.0 0.0

-7.877453380610068e6 -2.532437255983359e6 0.0
-2.532437255983359e6 1.5484904529499397e7 0.0
0.0 0.0 0.0

-2.3738101196965305e6 2.0710290558418844e7 0.0
2.0710290558418844e7 4.118200380829602e6 0.0
0.0 0.0 0.0

-6.336296605933068e6 1.836470721594194e7 0.0
1.836470721594194e7 2.9164411708779816e7 0.0
0.0 0.0 0.0

873022.3107325528 1.4965367481153876e7 0.0
1.4965367481153876e7 -1.4219567966746124e7 0.0
0.0 0.0 0.0

1.5923211643709857e6 2.439864951117774e7 0.0
2.439864951117774e7 -1.0302022693592176e7 0.0
0.0 0.0 0.0

3.8860142581367004e6 4.142275636713568e7 0.0
4.142275636713568e7 -806909.113680864 0.0
0.0 0.0 0.0

-1.0816268261282109e6 1.5357884127267888e7 0.0
1.5357884127267888e7 -3.376308762396443e7 0.0
0.0 0.0 0.0

-4.560045183874088e7 4.864529375988601e7 0.0
4.864529375988601e7 6.298391718733422e6 0.0
0.0 0.0 0.0

747558.9286244645 2.0380010467888706e6 0.0
2.0380010467888706e6 -1.4897755568760163e6 0.0
0.0 0.0 0.0

403767.60136271024 2.2662543088633306e6 0.0
2.2662543088633306e6 -2.5047941860940387e6 0.0
0.0 0.0 0.0

5.354279755575997e6 2.0256253167758804e7 0.0
2.0256253167758804e7 2.8446152204594847e7 0.0
0.0 0.0 0.0

5.321083473436052e6 2.2177154664398476e7 0.0
2.2177154664398476e7 1.6269480089087505e7 0.0
0.0 0.0 0.0

156677.91412518406 2.0910715360481907e7 0.0
2.0910715360481907e7 9.605602688083583e6 0.0
0.0 0.0 0.0

-9.280772985789388e6 1.5349981317398038e7 0.0
1.5349981317398038e7 2.389250938066781e7 0.0
0.0 0.0 0.0

7.092294482253737e6 5.721964219553257e6 0.0
5.721964219553257e6 -1.478516117330317e6 0.0
0.0 0.0 0.0

-2.3857558206114024e6 2.2732147661749613e7 0.0
2.2732147661749613e7 1.0704135834742332e7 0.0
0.0 0.0 0.0

-44321.472924837784 3.1158634148690168e7 0.0
3.1158634148690168e7 -789762.1248818809 0.0
0.0 0.0 0.0

-2.077800989426257e6 1.6276124355647337e7 0.0
1.6276124355647337e7 -3.575824920422099e7 0.0
0.0 0.0 0.0

1.1209903576035334e7 2.3887445861982178e7 0.0
2.3887445861982178e7 1.1684759878050271e7 0.0
0.0 0.0 0.0

1.7172464319157764e7 2.31580192478185e7 0.0
2.31580192478185e7 1.0914908002374168e7 0.0
0.0 0.0 0.0

-2.7081092934206806e7 4.9593567475072026e7 0.0
4.9593567475072026e7 6.434708891712414e6 0.0
0.0 0.0 0.0

2.0010853453371553e6 2.107997462110642e7 0.0
2.107997462110642e7 9.98048959426133e6 0.0
0.0 0.0 0.0

-1.0218768254806856e7 9.673170216234377e6 0.0
9.673170216234377e6 1.4141717612085983e7 0.0
0.0 0.0 0.0

-1.0658300566649908e7 1.3533019760369489e7 0.0
1.3533019760369489e7 2.800840890188633e7 0.0
0.0 0.0 0.0

-417067.2828574799 3.037740906873158e7 0.0
3.037740906873158e7 -1.8713477989728162e6 0.0
0.0 0.0 0.0

7.65173933750572e6 2.1696255891590953e7 0.0
2.1696255891590953e7 1.562170310774499e7 0.0
0.0 0.0 0.0

-6.686382584390514e6 4.71615097689094e6 0.0
4.71615097689094e6 6.5136852203760386e7 0.0
0.0 0.0 0.0

422145.9136493504 2.0343385573618494e7 0.0
2.0343385573618494e7 1.7576273124008533e7 0.0
0.0 0.0 0.0

-1.0915099725720264e7 1.8499377918202247e7 0.0
1.8499377918202247e7 -3.933514956891539e7 0.0
0.0 0.0 0.0

5.362782361501929e6 2.323822501678886e7 0.0
2.323822501678886e7 1.447929579347436e7 0.0
0.0 0.0 0.0

-4.1204637449129187e6 1.9604642512541555e7 0.0
1.9604642512541555e7 2.7093403836379793e7 0.0
0.0 0.0 0.0

-468531.0492267008 1.702938866607155e7 0.0
1.702938866607155e7 -1.3063931565022172e7 0.0
0.0 0.0 0.0

6.221088231848009e6 1.962077064794407e7 0.0
1.962077064794407e7 7.907334013527352e7 0.0
0.0 0.0 0.0

8.747702153038396e6 2.7137025861057412e7 0.0
2.7137025861057412e7 -5.328552755584248e6 0.0
0.0 0.0 0.0

223891.2059503058 1.8972514888740595e7 0.0
1.8972514888740595e7 -1.9652833002005354e7 0.0
0.0 0.0 0.0

-498509.5111646666 1.395381024364519e7 0.0
1.395381024364519e7 -6.241101959044771e6 0.0
0.0 0.0 0.0

2.5871390365260616e6 3.033423005178603e6 0.0
3.033423005178603e6 -4.469345947552684e7 0.0
0.0 0.0 0.0

3.647355404632869e6 3.952264455434663e7 0.0
3.952264455434663e7 -531006.1783509064 0.0
0.0 0.0 0.0

-1.0134291063385813e7 1.4314835382925542e7 0.0
1.4314835382925542e7 2.8745578819926485e7 0.0
0.0 0.0 0.0

3.863895650135088e6 1.8830506847950622e7 0.0
1.8830506847950622e7 2.1379205590891134e7 0.0
0.0 0.0 0.0

-9.896701343084967e6 2.7479267487738546e7 0.0
2.7479267487738546e7 5.713257044128472e6 0.0
0.0 0.0 0.0

-2.334021106116367e6 2.281220473358291e7 0.0
2.281220473358291e7 2.11096719223616e6 0.0
0.0 0.0 0.0

-8.3905497224388e6 1.7682957450041693e7 0.0
1.7682957450041693e7 2.4324196509636726e7 0.0
0.0 0.0 0.0

1.6998791075986074e6 1.119870568572092e7 0.0
1.119870568572092e7 -2.3983133999363594e7 0.0
0.0 0.0 0.0

-1.3182880323070362e7 4.255286975775692e7 0.0
4.255286975775692e7 6.224718828062388e6 0.0
0.0 0.0 0.0

2.4940051415363826e7 1.2986883154028127e7 0.0
1.2986883154028127e7 780667.0095635643 0.0
0.0 0.0 0.0

-1.0569123902096378e7 -160308.11078526668 0.0
-160308.11078526668 2.072966902062668e7 0.0
0.0 0.0 0.0

-7.070237230688108e6 3.159229644462675e7 0.0
3.159229644462675e7 5.466847568835463e6 0.0
0.0 0.0 0.0

-2.912709575927285e7 2.3713869684461724e7 0.0
2.3713869684461724e7 4.0422104365176745e6 0.0
0.0 0.0 0.0

-4.131257323112376e6 2.2625909378448553e7 0.0
2.2625909378448553e7 -1.13361262774937e7 0.0
0.0 0.0 0.0

-5.711638091355742e7 3.520130494508273e7 0.0
3.520130494508273e7 -3.215703695534447e6 0.0
0.0 0.0 0.0

-4.663728801227962e6 2.292167438256422e7 0.0
2.292167438256422e7 -6.596006639093209e6 0.0
0.0 0.0 0.0

-4.6780560904811565e6 1.9719610513468478e7 0.0
1.9719610513468478e7 1.8767749686563503e7 0.0
0.0 0.0 0.0

-9.98150047237706e6 1.4467111064479306e7 0.0
1.4467111064479306e7 2.5014754543406885e7 0.0
0.0 0.0 0.0

-6.940851786005129e6 1.751015947971652e7 0.0
1.751015947971652e7 1.738426082092105e7 0.0
0.0 0.0 0.0

-4.481111200236227e6 2.5034307289770186e7 0.0
2.5034307289770186e7 1.1957542456103863e7 0.0
0.0 0.0 0.0

-8.006492778673191e6 1.775383199132215e6 0.0
1.775383199132215e6 4.604854905786695e7 0.0
0.0 0.0 0.0

-444818.6652153948 1.9177428766792282e7 0.0
1.9177428766792282e7 -1.1919012347378172e6 0.0
0.0 0.0 0.0

1.456018229652308e6 1.2645288867019944e7 0.0
1.2645288867019944e7 -1.485813263810566e7 0.0
0.0 0.0 0.0

833019.1939484635 1.7227769843661442e7 0.0
1.7227769843661442e7 -2.046844709932594e7 0.0
0.0 0.0 0.0

-8.59548570172729e6 -2.1481732301464668e6 0.0
-2.1481732301464668e6 3.1404625677886546e7 0.0
0.0 0.0 0.0

-1.220859047325756e6 1.9598221429061845e7 0.0
1.9598221429061845e7 659098.8546777257 0.0
0.0 0.0 0.0

-8.260955382921327e6 2.7675167197097752e7 0.0
2.7675167197097752e7 6.804492558605066e6 0.0
0.0 0.0 0.0

2.3665420020900564e6 2.0306710862856407e7 0.0
2.0306710862856407e7 2.8582670942621764e7 0.0
0.0 0.0 0.0

396024.81823429745 2.0774878804466676e7 0.0
2.0774878804466676e7 -1.41132985743537e7 0.0
0.0 0.0 0.0

477604.5854021299 1.9947289174277466e7 0.0
1.9947289174277466e7 5.03951575056489e6 0.0
0.0 0.0 0.0

2.172955654288264e6 3.665677247926274e7 0.0
3.665677247926274e7 -2.580461445140402e6 0.0
0.0 0.0 0.0

1.6597278440638748e6 2.1938669710746385e7 0.0
2.1938669710746385e7 -1.1249908176513271e7 0.0
0.0 0.0 0.0

1.0559258706390221e8 3.777924045836109e7 0.0
3.777924045836109e7 2.7296521734922677e6 0.0
0.0 0.0 0.0

4.550923378739563e6 2.183212871597892e7 0.0
2.183212871597892e7 -3.3115499276544875e6 0.0
0.0 0.0 0.0

-2.4047353148388816e6 1.9038607775738657e7 0.0
1.9038607775738657e7 -2.3333550511101827e7 0.0
0.0 0.0 0.0

2.7716727445267867e6 2.3864855651674155e7 0.0
2.3864855651674155e7 -9.476307115548398e6 0.0
0.0 0.0 0.0

-2.9479369524373822e7 3.015967199742561e7 0.0
3.015967199742561e7 -4.483575394204934e6 0.0
0.0 0.0 0.0

-5.907522232107788e6 2.6640331607382894e7 0.0
2.6640331607382894e7 8.471366290536415e6 0.0
0.0 0.0 0.0

1.7457010995870028e7 2.3097325604055036e7 0.0
2.3097325604055036e7 5.704862634245606e6 0.0
0.0 0.0 0.0

-3.4632400163983125e6 1.57203017462955e7 0.0
1.57203017462955e7 -4.332845741665846e7 0.0
0.0 0.0 0.0

6.336827177060499e6 1.925330117054289e7 0.0
1.925330117054289e7 3.651875526624971e7 0.0
0.0 0.0 0.0

3.3960167510862704e6 5.3242034426027015e6 0.0
5.3242034426027015e6 -2.7653755294325978e7 0.0
0.0 0.0 0.0

2.9544908351881434e6 2.479235580806818e7 0.0
2.479235580806818e7 -8.962633904076735e6 0.0
0.0 0.0 0.0

1.4911550749397874e6 4.393565262979724e6 0.0
4.393565262979724e6 -5.230157186841858e7 0.0
0.0 0.0 0.0

1.3322298382643857e6 2.4120738522998836e7 0.0
2.4120738522998836e7 -1.0606449779451018e7 0.0
0.0 0.0 0.0

7.239871336650619e6 2.8633013614090685e7 0.0
2.8633013614090685e7 -5.868358927479433e6 0.0
0.0 0.0 0.0

-2.0760249983876785e6 2.2586263114590663e7 0.0
2.2586263114590663e7 1.5524046240044483e6 0.0
0.0 0.0 0.0

-1.4151053994151529e7 3.4001019555734485e7 0.0
3.4001019555734485e7 5.245123229126018e6 0.0
0.0 0.0 0.0

-4.424644739135433e6 1.9758798342304986e7 0.0
1.9758798342304986e7 2.724269999076931e7 0.0
0.0 0.0 0.0

1.5744033845642447e6 1.9856091855620995e7 0.0
1.9856091855620995e7 1.0818473527354546e7 0.0
0.0 0.0 0.0

-3.951620323970427e7 3.793931155606292e7 0.0
3.793931155606292e7 7.253990987092603e6 0.0
0.0 0.0 0.0

1.698892266681275e7 2.3372287336745344e7 0.0
2.3372287336745344e7 1.1967748318123395e7 0.0
0.0 0.0 0.0

-6.084392597386576e6 1.309720748685126e7 0.0
1.309720748685126e7 8.819512672348939e6 0.0
0.0 0.0 0.0

-5.791380615432438e6 3.098909949424767e7 0.0
3.098909949424767e7 5.241427811261417e6 0.0
0.0 0.0 0.0

-5.483328730020511e6 2.3404176253148e7 0.0
2.3404176253148e7 -8.80665831100996e6 0.0
0.0 0.0 0.0

981794.4988797968 1.5440025501740787e7 0.0
1.5440025501740787e7 -1.5083914493667305e7 0.0
0.0 0.0 0.0

2.991612733460866e6 1.5207711892590004e6 0.0
1.5207711892590004e6 -3.754936204111626e7 0.0
0.0 0.0 0.0

-2.0807551189644588e6 1.8586829727310244e7 0.0
1.8586829727310244e7 -1.014698194107658e7 0.0
0.0 0.0 0.0

5.106579385509284e7 6.746539596880781e6 0.0
6.746539596880781e6 -1.1127513407860063e6 0.0
0.0 0.0 0.0

-4.0789022095196936e6 1.9333918894268483e7 0.0
1.9333918894268483e7 2.8559778443155654e7 0.0
0.0 0.0 0.0

-7.753125457366465e6 3.0306970325413477e7 0.0
3.0306970325413477e7 6.261136731957618e6 0.0
0.0 0.0 0.0

-7.826846209801523e6 -2.0581124443596737e6 0.0
-2.0581124443596737e6 4.175521753907345e7 0.0
0.0 0.0 0.0

-2.4226586960590323e6 3.620066161292829e7 0.0
3.620066161292829e7 622716.0178605135 0.0
0.0 0.0 0.0

-2.2577915649472445e7 2.6527753223273296e7 0.0
2.6527753223273296e7 -2.703974880461528e6 0.0
0.0 0.0 0.0

326097.70697718486 1.9535706177409027e7 0.0
1.9535706177409027e7 -1.8386006957557727e7 0.0
0.0 0.0 0.0

5.066209015032992e6 1.9996773313177336e7 0.0
1.9996773313177336e7 2.54476197803355e7 0.0
0.0 0.0 0.0

170435.4138209673 2.0766971740234356e7 0.0
2.0766971740234356e7 4.846181568445396e6 0.0
0.0 0.0 0.0

-2.7333468096574317e6 2.346402150787669e7 0.0
2.346402150787669e7 9.438683160347743e6 0.0
0.0 0.0 0.0

397516.8599743629 1.4752316959506804e7 0.0
1.4752316959506804e7 -1.6035969653773889e7 0.0
0.0 0.0 0.0

2.4528596716529857e6 1.0688072425443063e7 0.0
1.0688072425443063e7 -2.311109351725104e7 0.0
0.0 0.0 0.0

-901532.2844693498 9.833535785506196e6 0.0
9.833535785506196e6 -6.241573564914733e6 0.0
0.0 0.0 0.0

-5.17032819104889e6 3.0399330005881857e7 0.0
3.0399330005881857e7 5.170529180734815e6 0.0
0.0 0.0 0.0

-854827.0446157991 1.8633260493425578e7 0.0
1.8633260493425578e7 -1.1351443881055178e7 0.0
0.0 0.0 0.0

2.0497658098610617e7 1.2746410565161414e7 0.0
1.2746410565161414e7 534303.2052076366 0.0
0.0 0.0 0.0

2.9551025034251995e6 1.654487153230921e6 0.0
1.654487153230921e6 -3.800011213491219e7 0.0
0.0 0.0 0.0

3.692453515806211e6 1.9205535353051122e7 0.0
1.9205535353051122e7 2.672282443127525e7 0.0
0.0 0.0 0.0

36084.34722988354 9.52072228054004e6 0.0
9.52072228054004e6 -8.620980325309532e6 0.0
0.0 0.0 0.0

3.0944472815269497e6 3.0099079723223124e7 0.0
3.0099079723223124e7 -4.259796264985699e6 0.0
0.0 0.0 0.0

361470.9136284301 2.0730019211741827e7 0.0
2.0730019211741827e7 1.240074824404378e7 0.0
0.0 0.0 0.0

-9.073118590825215e6 8.389791312267253e6 0.0
8.389791312267253e6 4.1267339038935274e7 0.0
0.0 0.0 0.0

-7.865859253494731e6 748595.5424504919 0.0
748595.5424504919 1.3961901522747392e7 0.0
0.0 0.0 0.0

7.77585720338628e6 2.8519816314106006e7 0.0
2.8519816314106006e7 -5.721969927700698e6 0.0
0.0 0.0 0.0

-5.549731853092026e7 1.748382803126671e7 0.0
1.748382803126671e7 6.762332378998231e6 0.0
0.0 0.0 0.0

6221.877490234561 1.8015732530133203e7 0.0
1.8015732530133203e7 -2.2572377294577952e7 0.0
0.0 0.0 0.0

5.5494215006868215e6 1.356195766027674e7 0.0
1.356195766027674e7 3.623264924779683e6 0.0
0.0 0.0 0.0

-4.644811929294364e6 1.935842349267072e7 0.0
1.935842349267072e7 1.812286671529481e7 0.0
0.0 0.0 0.0

-5.980962589755571e7 1.6814950915441886e7 0.0
1.6814950915441886e7 5.437588204437736e6 0.0
0.0 0.0 0.0

-2.481258445285728e6 1.8326359737883776e7 0.0
1.8326359737883776e7 -2.440803425231277e7 0.0
0.0 0.0 0.0

1.4022444417591235e6 2.3311918846841246e7 0.0
2.3311918846841246e7 -1.1441852355080621e7 0.0
0.0 0.0 0.0

1.2993226185054688e6 5.593467463814236e6 0.0
5.593467463814236e6 -4.376493352014041e6 0.0
0.0 0.0 0.0

-1.1656393402724653e7 2.5271074651122544e7 0.0
2.5271074651122544e7 -8.599472440611947e6 0.0
0.0 0.0 0.0

7.724372835863974e6 3.3192390141803075e7 0.0
3.3192390141803075e7 -4.966430883195358e6 0.0
0.0 0.0 0.0

-1.869286977740929e6 3.302073093541455e7 0.0
3.302073093541455e7 348223.94791804417 0.0
0.0 0.0 0.0

-3.0327028854370075e6 2.316672097323565e7 0.0
2.316672097323565e7 5.291034608844701e6 0.0
0.0 0.0 0.0

-8.089828331071863e6 1.664247871954618e7 0.0
1.664247871954618e7 3.0418843904364824e7 0.0
0.0 0.0 0.0

-3.5817068429246573e6 2.3222263484147787e7 0.0
2.3222263484147787e7 1.5517440834146187e7 0.0
0.0 0.0 0.0

-2.2570998866874105e6 3.522971492056893e7 0.0
3.522971492056893e7 536974.4227636168 0.0
0.0 0.0 0.0

881600.6294667348 1.2465529771534298e7 0.0
1.2465529771534298e7 -1.6816294791157477e7 0.0
0.0 0.0 0.0

-2.2616247078225752e6 3.452335127616131e7 0.0
3.452335127616131e7 402254.31594096276 0.0
0.0 0.0 0.0

5.964907826823035e6 2.238495316152009e7 0.0
2.238495316152009e7 1.4525364655212961e7 0.0
0.0 0.0 0.0

-9.762489249481723e6 1.4459174250599846e7 0.0
1.4459174250599846e7 2.9319199699186932e7 0.0
0.0 0.0 0.0

2.464093732848784e6 3.077402444995966e6 0.0
3.077402444995966e6 -3.93399729439927e7 0.0
0.0 0.0 0.0

-9.810384008402659e6 2.7267912317372445e7 0.0
2.7267912317372445e7 6.132200852623922e6 0.0
0.0 0.0 0.0

-653772.622553288 2.7110854161448963e7 0.0
2.7110854161448963e7 -4.470385262638687e6 0.0
0.0 0.0 0.0

739984.1468651367 2.693967116883071e7 0.0
2.693967116883071e7 -5.356145433706603e6 0.0
0.0 0.0 0.0

-7.94547407958153e7 4.82481803301315e7 0.0
4.82481803301315e7 -2.9869005182435e7 0.0
0.0 0.0 0.0

699556.0206445716 2.028763911179745e7 0.0
2.028763911179745e7 -1.716012629390425e7 0.0
0.0 0.0 0.0

-187363.33925545815 2.9840514266829036e7 0.0
2.9840514266829036e7 -978129.2245145296 0.0
0.0 0.0 0.0

-5.093953636672902e6 2.0457111690628067e7 0.0
2.0457111690628067e7 1.7479579678805385e7 0.0
0.0 0.0 0.0

-3.262269677616035e7 2.543158586357177e7 0.0
2.543158586357177e7 4.574450595764294e6 0.0
0.0 0.0 0.0

1.0274342729095528e6 1.989625700521854e7 0.0
1.989625700521854e7 555196.5799042163 0.0
0.0 0.0 0.0

3.869802574734767e6 2.0360947509034015e7 0.0
2.0360947509034015e7 1.64730645381125e7 0.0
0.0 0.0 0.0

2.377322918855639e6 1.292681874041465e6 0.0
1.292681874041465e6 -4.804395820458914e7 0.0
0.0 0.0 0.0

-2.0173988551794965e7 3.9855183691429555e7 0.0
3.9855183691429555e7 7.894069408128869e6 0.0
0.0 0.0 0.0

-7.845614322659489e6 -426740.4009915372 0.0
-426740.4009915372 4.2796343856914036e7 0.0
0.0 0.0 0.0

-7.683134522396918e6 952404.0662768095 0.0
952404.0662768095 4.986521434286757e7 0.0
0.0 0.0 0.0

-6.793801020419577e6 -1.0275007938007917e6 0.0
-1.0275007938007917e6 1.2985069884286892e7 0.0
0.0 0.0 0.0

-8.526953318514483e6 1.490579928719908e7 0.0
1.490579928719908e7 3.378844335306054e7 0.0
0.0 0.0 0.0

3.7359473259138837e6 1.8235599187839694e7 0.0
1.8235599187839694e7 1.166261811036583e7 0.0
0.0 0.0 0.0

-258977.09117502067 1.717823121942512e7 0.0
1.717823121942512e7 -2.595588179452685e7 0.0
0.0 0.0 0.0

-4.0457321344919726e7 5.051376606674732e7 0.0
5.051376606674732e7 9.222740617710501e6 0.0
0.0 0.0 0.0

-9.263209210946437e6 1.5078031319962747e7 0.0
1.5078031319962747e7 2.9877044169444732e7 0.0
0.0 0.0 0.0

-3.7177100043584146e6 1.5278434941842904e7 0.0
1.5278434941842904e7 -4.546912427404553e7 0.0
0.0 0.0 0.0

-2.162820657362192e7 2.6149847386725407e7 0.0
2.6149847386725407e7 -2.3692278546500737e6 0.0
0.0 0.0 0.0

-7.203760218612615e6 591077.2306442619 0.0
591077.2306442619 5.112131424271348e7 0.0
0.0 0.0 0.0

270832.70365072694 1.912451168586399e7 0.0
1.912451168586399e7 -1.6606405065024126e7 0.0
0.0 0.0 0.0

-8.685792614800993e6 1.8280734158715792e7 0.0
1.8280734158715792e7 -5.123446671690534e7 0.0
0.0 0.0 0.0

-3.513257529043217e6 2.1948736797364306e7 0.0
2.1948736797364306e7 -8.01266232710584e6 0.0
0.0 0.0 0.0

-1.887904612535311e7 2.4253908956893347e7 0.0
2.4253908956893347e7 -1.7510690194955487e6 0.0
0.0 0.0 0.0

5.181028464608954e7 2.8469252880400896e7 0.0
2.8469252880400896e7 1.1128487257408228e7 0.0
0.0 0.0 0.0

-1.6710945848842666e6 1.6630301051381027e7 0.0
1.6630301051381027e7 -3.824576516792236e6 0.0
0.0 0.0 0.0

1.0985336759416284e6 1.7720107533386655e7 0.0
1.7720107533386655e7 -1.8825523355960768e7 0.0
0.0 0.0 0.0

-3.09917897246495e6 1.813981801988942e7 0.0
1.813981801988942e7 -1.4865079012866791e7 0.0
0.0 0.0 0.0

2.4661088553453702e6 1.4649975747522702e6 0.0
1.4649975747522702e6 -4.849261878479967e7 0.0
0.0 0.0 0.0

1.4125190919159672e6 2.8999802423344955e7 0.0
2.8999802423344955e7 -3.905983697418154e6 0.0
0.0 0.0 0.0

-3.6422077619314e6 1.7782864439049862e7 0.0
1.7782864439049862e7 -2.6794019127313673e7 0.0
0.0 0.0 0.0

1.2917758328245217e6 2.228104909369555e7 0.0
2.228104909369555e7 -1.1788612432872748e7 0.0
0.0 0.0 0.0

-375763.01253415213 2.0589831185249217e7 0.0
2.0589831185249217e7 1.9999541787010334e6 0.0
0.0 0.0 0.0

-5.27936842721426e6 1.2863539212043382e7 0.0
1.2863539212043382e7 1.1820039548271988e7 0.0
0.0 0.0 0.0

-3.1170439402827616e6 2.3156491456614457e7 0.0
2.3156491456614457e7 8.964136986252235e6 0.0
0.0 0.0 0.0

-31275.591686576605 1.978260206959394e7 0.0
1.978260206959394e7 2.9490711126935314e7 0.0
0.0 0.0 0.0

3.402919277325347e6 1.9393799789582344e6 0.0
1.9393799789582344e6 -3.1254225956139505e7 0.0
0.0 0.0 0.0

-1.5941733174742304e7 1.5344444067086788e7 0.0
1.5344444067086788e7 2.830746455042461e6 0.0
0.0 0.0 0.0

6.892690307040895e6 2.3839580866958123e7 0.0
2.3839580866958123e7 1.3792700052763047e7 0.0
0.0 0.0 0.0

-1.6493020382204857e6 1.920674966081514e7 0.0
1.920674966081514e7 -1.8068352381092906e7 0.0
0.0 0.0 0.0

7.975430154864067e7 1.1442427469795667e7 0.0
1.1442427469795667e7 -78779.00859725103 0.0
0.0 0.0 0.0

227291.97199912276 1.8116140079284687e7 0.0
1.8116140079284687e7 -2.2680391481269646e7 0.0
0.0 0.0 0.0

505030.1849044685 2.7850987798427925e7 0.0
2.7850987798427925e7 -5.437294562520896e6 0.0
0.0 0.0 0.0

-2.474642048355493e6 2.445955291933096e7 0.0
2.445955291933096e7 -149826.7088560554 0.0
0.0 0.0 0.0

8.180663475934355e6 1.969775570653809e7 0.0
1.969775570653809e7 6.500080193637784e7 0.0
0.0 0.0 0.0

-8.712024884020293e6 1.3737170554152042e7 0.0
1.3737170554152042e7 3.551566604857908e7 0.0
0.0 0.0 0.0

-7.74534519045613e6 -2.533638734940549e6 0.0
-2.533638734940549e6 4.131699920437366e7 0.0
0.0 0.0 0.0

-9.191575028927125e6 6.802608282796124e6 0.0
6.802608282796124e6 4.2832304481734894e7 0.0
0.0 0.0 0.0

-2.471805925872934e6 3.1975400580509793e7 0.0
3.1975400580509793e7 997575.9760196224 0.0
0.0 0.0 0.0

1.7085670720498227e6 1.2191101360755397e7 0.0
1.2191101360755397e7 -2.5107346668902416e7 0.0
0.0 0.0 0.0

-3.178659932665264e6 2.4449342198426485e7 0.0
2.4449342198426485e7 1.1581213870178793e7 0.0
0.0 0.0 0.0

770095.9386121156 2.0838094741836492e7 0.0
2.0838094741836492e7 -1.5951202299185948e7 0.0
0.0 0.0 0.0

-5.981160487747317e6 1.8583844817641225e7 0.0
1.8583844817641225e7 1.6632978447129503e7 0.0
0.0 0.0 0.0

-5.238207083050726e6 2.703684129444748e7 0.0
2.703684129444748e7 8.830735614174254e6 0.0
0.0 0.0 0.0

1.0421438065696735e7 2.6635897104443494e7 0.0
2.6635897104443494e7 -4.715010590035167e6 0.0
0.0 0.0 0.0

-3.826203944384029e6 2.2570330037097212e7 0.0
2.2570330037097212e7 1.717292382675202e7 0.0
0.0 0.0 0.0

-3.1256177494786177e6 2.3603017865679268e7 0.0
2.3603017865679268e7 1.313014489822907e7 0.0
0.0 0.0 0.0

-4.1279449684838145e6 1.9075636419134855e7 0.0
1.9075636419134855e7 -1.623060844518164e7 0.0
0.0 0.0 0.0

-9.871539616371457e6 1.5159709425693035e7 0.0
1.5159709425693035e7 2.7603190214254312e7 0.0
0.0 0.0 0.0

-2.0941999591320455e6 3.19202469494197e7 0.0
3.19202469494197e7 2.2422226874128366e6 0.0
0.0 0.0 0.0

2.8642552331446316e6 4.71406151398776e6 0.0
4.71406151398776e6 -2.9394930886383776e7 0.0
0.0 0.0 0.0

-6.335757491628852e6 3.21414961061481e6 0.0
3.21414961061481e6 6.392565296106877e7 0.0
0.0 0.0 0.0

-1.9265351441404042e6 2.1223571116882388e7 0.0
2.1223571116882388e7 -9.42898997312754e6 0.0
0.0 0.0 0.0

-2.540138638652405e6 3.267852809369597e7 0.0
3.267852809369597e7 1.0852548128969204e6 0.0
0.0 0.0 0.0

1.1059190107159894e6 1.4358962971706653e7 0.0
1.4358962971706653e7 -2.850601010740326e7 0.0
0.0 0.0 0.0

637494.5961112902 2.9266553237045396e7 0.0
2.9266553237045396e7 -4.316033617346441e6 0.0
0.0 0.0 0.0

1.8724342485112287e6 1.045300678909654e7 0.0
1.045300678909654e7 -2.5158487646750897e7 0.0
0.0 0.0 0.0

-9.895233298407653e6 1.3417837785908565e7 0.0
1.3417837785908565e7 3.07709309897317e7 0.0
0.0 0.0 0.0

-6.245455058441518e7 4.690546947172498e7 0.0
4.690546947172498e7 1.0664932036856778e7 0.0
0.0 0.0 0.0

-1.5292127527148928e7 2.644651239651132e7 0.0
2.644651239651132e7 -780530.8846253888 0.0
0.0 0.0 0.0

-3.5850507295398405e6 2.4439308745209984e7 0.0
2.4439308745209984e7 1.2632215382915625e7 0.0
0.0 0.0 0.0

-8.4209306829806e6 -5.432993011290376e6 0.0
-5.432993011290376e6 2.0329691395422008e7 0.0
0.0 0.0 0.0

-1.824130489534824e7 2.506461336475441e7 0.0
2.506461336475441e7 -2.9226131146888663e6 0.0
0.0 0.0 0.0

-7.071620056615749e6 2.763904228091185e7 0.0
2.763904228091185e7 7.56893181330947e6 0.0
0.0 0.0 0.0

2.720000650103096e6 2.902444895804631e6 0.0
2.902444895804631e6 -4.03191719688671e7 0.0
0.0 0.0 0.0

-6.311077334115762e6 1.7246372827185396e7 0.0
1.7246372827185396e7 1.973603950717782e7 0.0
0.0 0.0 0.0

-9.11242102621462e6 1.5884988710732874e7 0.0
1.5884988710732874e7 2.4552946124664087e7 0.0
0.0 0.0 0.0

5.144631362698035e6 3.718530062689765e7 0.0
3.718530062689765e7 -1.924851513200041e6 0.0
0.0 0.0 0.0

-1.1254423860192535e7 2.6445791194650866e6 0.0
2.6445791194650866e6 2.2405158968817e7 0.0
0.0 0.0 0.0

-9.31214083259482e6 1.607056083168395e7 0.0
1.607056083168395e7 2.8468565960324492e7 0.0
0.0 0.0 0.0

-662248.4935052897 3.3397075698439684e7 0.0
3.3397075698439684e7 905205.7251694803 0.0
0.0 0.0 0.0

-7.254926086906355e6 962899.9443788186 0.0
962899.9443788186 5.310474379529578e7 0.0
0.0 0.0 0.0

-8.5905683434115e6 -3.166147150404801e6 0.0
-3.166147150404801e6 2.247164999934581e7 0.0
0.0 0.0 0.0

2.5889268383515533e6 7.573399934212651e6 0.0
7.573399934212651e6 -2.785944365787559e7 0.0
0.0 0.0 0.0

-2.9323525982410884e6 2.353512231971286e7 0.0
2.353512231971286e7 1.0091611986202978e7 0.0
0.0 0.0 0.0

-8.446084088973295e6 1.5647891024183698e7 0.0
1.5647891024183698e7 3.158885237758239e7 0.0
0.0 0.0 0.0

339568.9188444214 2.021917926714577e7 0.0
2.021917926714577e7 -1.5681441936367653e7 0.0
0.0 0.0 0.0

958538.0002484825 1.9263499390448596e7 0.0
1.9263499390448596e7 -1.6588253675101954e7 0.0
0.0 0.0 0.0

1.7091727112059705e6 1.1873900392430136e7 0.0
1.1873900392430136e7 -2.6864974954022463e7 0.0
0.0 0.0 0.0

-71562.51892605517 1.7599855851716973e7 0.0
1.7599855851716973e7 -2.4290687496358424e7 0.0
0.0 0.0 0.0

1.2707531309364915e6 2.0591224842239887e7 0.0
2.0591224842239887e7 8.547445153645305e6 0.0
0.0 0.0 0.0

-8.272892132194415e6 1.6735540557455728e7 0.0
1.6735540557455728e7 2.9964277292229686e7 0.0
0.0 0.0 0.0

799050.727071265 2.8450546522660103e7 0.0
2.8450546522660103e7 -5.256780977478653e6 0.0
0.0 0.0 0.0

-5.6024145744843865e6 3.0152910115499694e7 0.0
3.0152910115499694e7 5.909994184075273e6 0.0
0.0 0.0 0.0

-1.4289717200297802e6 3.2352264913999036e7 0.0
3.2352264913999036e7 1.586531033943147e6 0.0
0.0 0.0 0.0

1.6341404249892421e7 2.4790383580249254e7 0.0
2.4790383580249254e7 7.674187723092009e7 0.0
0.0 0.0 0.0

-2.4463698278384767e6 2.3967271318379894e7 0.0
2.3967271318379894e7 8.478776606638419e6 0.0
0.0 0.0 0.0

1.022633275676542e6 1.8321562247964326e7 0.0
1.8321562247964326e7 -1.7544615641120307e7 0.0
0.0 0.0 0.0

-847580.236244564 1.844056861530112e7 0.0
1.844056861530112e7 -2.2623109085382514e7 0.0
0.0 0.0 0.0

1.0485912645610375e6 1.804269203227306e7 0.0
1.804269203227306e7 -1.918369426366146e7 0.0
0.0 0.0 0.0

1.6070253145281135e6 3.17603412783534e7 0.0
3.17603412783534e7 -2.1662739972387487e6 0.0
0.0 0.0 0.0

-3.0493698549678125e6 2.2826474218895283e7 0.0
2.2826474218895283e7 7.876727472323959e6 0.0
0.0 0.0 0.0

255554.76581444417 1.97300896740744e7 0.0
1.97300896740744e7 3.208435259608807e6 0.0
0.0 0.0 0.0

-980359.6983632483 1.9626700475478854e7 0.0
1.9626700475478854e7 -1.730994759764885e7 0.0
0.0 0.0 0.0

-6.319176456636567e6 1.3616894914008765e7 0.0
1.3616894914008765e7 1.047816813055937e7 0.0
0.0 0.0 0.0

6.209460988785959e6 4.333565800623642e7 0.0
4.333565800623642e7 -5.0506374437835235e6 0.0
0.0 0.0 0.0

1.5654231148969382e6 3.865340457029754e6 0.0
3.865340457029754e6 -5.7634277921077296e7 0.0
0.0 0.0 0.0

1.0993251598896447e8 4.216463022095446e7 0.0
4.216463022095446e7 2.6968643054511942e7 0.0
0.0 0.0 0.0

4.820559618300902e7 4.395370623104188e7 0.0
4.395370623104188e7 -1.702537353790805e7 0.0
0.0 0.0 0.0

-713842.9522877159 2.070990500957946e7 0.0
2.070990500957946e7 1.9605467736115705e7 0.0
0.0 0.0 0.0

2.0785899054666418e6 2.097650500619428e7 0.0
2.097650500619428e7 1.0997838896426952e7 0.0
0.0 0.0 0.0

-2.732823636514782e7 2.6966034803718463e7 0.0
2.6966034803718463e7 -865642.0159678059 0.0
0.0 0.0 0.0

-6.4747894182504766e7 3.2074911396659788e7 0.0
3.2074911396659788e7 -1.014212808756996e6 0.0
0.0 0.0 0.0

-6.989479181795014e6 1.37504487922116e7 0.0
1.37504487922116e7 1.612389370174282e7 0.0
0.0 0.0 0.0

-321225.4746998407 2.7891635808855858e7 0.0
2.7891635808855858e7 -2.1487061196720996e6 0.0
0.0 0.0 0.0

1.095200598011285e6 1.708015586202282e7 0.0
1.708015586202282e7 -2.0079733140219387e7 0.0
0.0 0.0 0.0

1.316524085899353e6 7.891261524714682e6 0.0
7.891261524714682e6 -5.221016467267601e7 0.0
0.0 0.0 0.0

602174.089686621 1.7307333745669916e7 0.0
1.7307333745669916e7 -2.0434879716235504e7 0.0
0.0 0.0 0.0

-2.937722861035509e6 1.5390082083675267e7 0.0
1.5390082083675267e7 -4.027981487678479e7 0.0
0.0 0.0 0.0

-9.622771576674696e6 1.6016643644204814e7 0.0
1.6016643644204814e7 2.2535941475605868e7 0.0
0.0 0.0 0.0

1.4039474612169638e6 1.9670293067589503e7 0.0
1.9670293067589503e7 2.760042873823974e7 0.0
0.0 0.0 0.0

854781.4333435495 1.9235501791929312e7 0.0
1.9235501791929312e7 7.992741596324182e6 0.0
0.0 0.0 0.0

-1.193394416810231e7 8.901150255546113e6 0.0
8.901150255546113e6 5.552880724784595e6 0.0
0.0 0.0 0.0

-9.263647130676176e6 5.3536607992850905e6 0.0
5.3536607992850905e6 4.2174948110256895e7 0.0
0.0 0.0 0.0

-3.012722813136583e6 2.7574615210401613e7 0.0
2.7574615210401613e7 6.365744851718566e6 0.0
0.0 0.0 0.0

326518.0456815064 2.0099353788351096e7 0.0
2.0099353788351096e7 2.993354591554363e7 0.0
0.0 0.0 0.0

-4.470027284413843e6 1.8957696448932715e7 0.0
1.8957696448932715e7 1.720122522083105e7 0.0
0.0 0.0 0.0

-7.162551129749538e6 2.318872674665522e6 0.0
2.318872674665522e6 7.62510809997784e6 0.0
0.0 0.0 0.0

-3.269325016036514e6 1.2963060639312664e7 0.0
1.2963060639312664e7 6.725956855764543e7 0.0
0.0 0.0 0.0

-2.2071130859466344e6 2.2103291341603965e7 0.0
2.2103291341603965e7 2.457473510270456e6 0.0
0.0 0.0 0.0

926184.1491927323 2.7632860718520816e7 0.0
2.7632860718520816e7 -6.212873967864465e6 0.0
0.0 0.0 0.0

438871.77719436213 1.953412806403027e7 0.0
1.953412806403027e7 3.100884961576452e7 0.0
0.0 0.0 0.0

-5.686441947883326e6 1.3481711719231175e7 0.0
1.3481711719231175e7 1.338041672524628e7 0.0
0.0 0.0 0.0

7.773862759091275e6 2.7449996376308884e7 0.0
2.7449996376308884e7 -5.792285987152057e6 0.0
0.0 0.0 0.0

-4.445318644071359e6 5.13721828580197e6 0.0
5.13721828580197e6 7.246132990510717e7 0.0
0.0 0.0 0.0

7.711331162701142e6 2.525656262413189e7 0.0
2.525656262413189e7 -5.283372411330771e6 0.0
0.0 0.0 0.0

-2.1480115442116726e6 3.2572547973330647e7 0.0
3.2572547973330647e7 2.3874784866017615e6 0.0
0.0 0.0 0.0

-5.741032837776634e6 1.7323727462097358e7 0.0
1.7323727462097358e7 -2.433130308411787e7 0.0
0.0 0.0 0.0

-3.572375735558264e6 2.1886029302164666e7 0.0
2.1886029302164666e7 1.8215832089625962e7 0.0
0.0 0.0 0.0

-9.491498968565907e6 1.378223377395036e7 0.0
1.378223377395036e7 3.2576657062534202e7 0.0
0.0 0.0 0.0

4.461915627727412e6 3.1224164080283515e7 0.0
3.1224164080283515e7 -4.275774077814081e6 0.0
0.0 0.0 0.0

2.8154225634545325e6 5.576761427561152e6 0.0
5.576761427561152e6 -1.0816534193085708e7 0.0
0.0 0.0 0.0

-21186.412271629903 4.047589092599512e7 0.0
4.047589092599512e7 -1.679832594864717e6 0.0
0.0 0.0 0.0

4.732029830980084e6 2.266653989150134e7 0.0
2.266653989150134e7 8.3317973772399e6 0.0
0.0 0.0 0.0

-672502.6932385796 2.5553967360839676e7 0.0
2.5553967360839676e7 -3.9909255715869213e6 0.0
0.0 0.0 0.0

2.2085675101522338e6 5.446838463524202e6 0.0
5.446838463524202e6 -3.981789705461742e7 0.0
0.0 0.0 0.0

-2.728689109727106e6 2.2030153433386527e7 0.0
2.2030153433386527e7 -1.0941702159526816e7 0.0
0.0 0.0 0.0

7.777679321570301e6 2.3319294303075343e7 0.0
2.3319294303075343e7 1.363278115399271e7 0.0
0.0 0.0 0.0

-1.3595960842644596e6 3.0350126033753447e7 0.0
3.0350126033753447e7 1.3213019919803184e6 0.0
0.0 0.0 0.0

4.705798183389722e6 2.0159405710310526e7 0.0
2.0159405710310526e7 3.14598995384744e7 0.0
0.0 0.0 0.0

-4.692003041444189e6 1.16035236901169e6 0.0
1.16035236901169e6 9.376539022122148e6 0.0
0.0 0.0 0.0

-671646.6062323339 1.887175187870823e7 0.0
1.887175187870823e7 3.6569318338752925e7 0.0
0.0 0.0 0.0

-7.81812512540102e6 2.54714063799227e7 0.0
2.54714063799227e7 4.685861488791006e6 0.0
0.0 0.0 0.0

8.268746601807721e6 2.6132999819489777e7 0.0
2.6132999819489777e7 -5.269662223741837e6 0.0
0.0 0.0 0.0

3.299455883798237e6 2.4636996313870836e7 0.0
2.4636996313870836e7 -8.715323712335935e6 0.0
0.0 0.0 0.0

8.435937147008615e6 3.2925420628327996e7 0.0
3.2925420628327996e7 -4.903844107470546e6 0.0
0.0 0.0 0.0

783742.6218537244 1.8130278700324576e7 0.0
1.8130278700324576e7 5.8384763086384125e6 0.0
0.0 0.0 0.0

-4.0411295532270307e6 2.528096595946905e7 0.0
2.528096595946905e7 1.1474935504317265e7 0.0
0.0 0.0 0.0

4.502270388874467e6 3.401598495343874e7 0.0
3.401598495343874e7 -4.190328765997031e6 0.0
0.0 0.0 0.0

-8.747840206377972e6 1.7528424638599675e7 0.0
1.7528424638599675e7 -5.115630895643192e7 0.0
0.0 0.0 0.0

-8.788289007936932e6 1.1412529140544055e7 0.0
1.1412529140544055e7 1.3879648398678526e7 0.0
0.0 0.0 0.0

1.2275469959477354e6 2.01412423289177e7 0.0
2.01412423289177e7 9.714654438019207e6 0.0
0.0 0.0 0.0

4.661880068610254e6 3.2110629263572596e7 0.0
3.2110629263572596e7 -4.922912756506734e6 0.0
0.0 0.0 0.0

-1.3518123509079395e6 2.0090832926446456e7 0.0
2.0090832926446456e7 -1.793201151647587e7 0.0
0.0 0.0 0.0

3.4942389700169433e6 3.357607290782471e6 0.0
3.357607290782471e6 -2.7878487074082695e7 0.0
0.0 0.0 0.0

-5.9176039349521585e6 101266.56173870839 0.0
101266.56173870839 6.719125008100903e7 0.0
0.0 0.0 0.0

747048.5123473406 1.4437251004850842e7 0.0
1.4437251004850842e7 -3.0411359120731276e7 0.0
0.0 0.0 0.0

2.6429917889726544e6 2.174892219938575e7 0.0
2.174892219938575e7 1.2357594414884364e7 0.0
0.0 0.0 0.0

-8.265865475057494e6 1.664758022848249e7 0.0
1.664758022848249e7 2.3487280027006846e7 0.0
0.0 0.0 0.0

9.315572095280355e6 2.5700750135504488e7 0.0
2.5700750135504488e7 -4.579925601618761e6 0.0
0.0 0.0 0.0

2.680250711953289e6 5.980512621220026e6 0.0
5.980512621220026e6 -2.344202555602194e7 0.0
0.0 0.0 0.0

4.002299482101773e6 2.24316478822617e7 0.0
2.24316478822617e7 -2.478843805234858e6 0.0
0.0 0.0 0.0

8.264751611471371e6 2.4228678786863774e7 0.0
2.4228678786863774e7 1.3215889853527933e7 0.0
0.0 0.0 0.0

1.2227632874511138e7 4.238771894918561e7 0.0
4.238771894918561e7 -7.420059450970861e6 0.0
0.0 0.0 0.0

3.168914194875184e6 2.4317467606892038e7 0.0
2.4317467606892038e7 -8.79957749635955e6 0.0
0.0 0.0 0.0

2.8892904627669193e6 1.879113649538855e7 0.0
1.879113649538855e7 4.870649943657174e7 0.0
0.0 0.0 0.0

3.2072220948576313e6 1.7042748749827596e6 0.0
1.7042748749827596e6 -3.600836735304328e7 0.0
0.0 0.0 0.0

1.0106989192534252e6 3.308876069001541e7 0.0
3.308876069001541e7 -2.4844396231850907e6 0.0
0.0 0.0 0.0

5.876247994471484e6 2.1381911853929773e7 0.0
2.1381911853929773e7 4.605104521325322e6 0.0
0.0 0.0 0.0

-7.123170578461951e7 2.0594807353489198e7 0.0
2.0594807353489198e7 2.908374414342463e6 0.0
0.0 0.0 0.0

-6.461901123892543e6 2.747453542384237e7 0.0
2.747453542384237e7 8.237897031701104e6 0.0
0.0 0.0 0.0

-7.940789306709248e6 1.0506526593190396e7 0.0
1.0506526593190396e7 1.5429513373212868e7 0.0
0.0 0.0 0.0

-313760.05483121146 1.7612642135499336e7 0.0
1.7612642135499336e7 -2.61050909130397e7 0.0
0.0 0.0 0.0

-1.7072540222733803e6 2.1126580384463564e7 0.0
2.1126580384463564e7 1.6683907342651462e7 0.0
0.0 0.0 0.0

-3.6430167744401833e6 1.739498203385638e7 0.0
1.739498203385638e7 -3.537413584934242e7 0.0
0.0 0.0 0.0

2.7350223485006914e6 2.654161115602601e6 0.0
2.654161115602601e6 -4.708422912025748e7 0.0
0.0 0.0 0.0

5.998700378603058e7 2.0615848901361335e7 0.0
2.0615848901361335e7 4.736485164567068e6 0.0
0.0 0.0 0.0

-1.2963611281474674e8 4.9785728272542e7 0.0
4.9785728272542e7 -2.047061185349068e7 0.0
0.0 0.0 0.0

1.4943479607498419e7 2.206595731317953e7 0.0
2.206595731317953e7 8.340944586620383e6 0.0
0.0 0.0 0.0

855953.0760381771 2.4970528601712573e7 0.0
2.4970528601712573e7 -9.272455648548732e6 0.0
0.0 0.0 0.0

-3.294713911830521e6 2.296038542310224e7 0.0
2.296038542310224e7 1.4903166723539183e7 0.0
0.0 0.0 0.0

3.2818555333438907e6 3.3554814422638845e6 0.0
3.3554814422638845e6 -2.7310247607326888e7 0.0
0.0 0.0 0.0

-7.680687698841052e6 2.557396717262863e7 0.0
2.557396717262863e7 6.685641235497119e6 0.0
0.0 0.0 0.0

3.2297750366232223e6 3.402118952615919e7 0.0
3.402118952615919e7 -2.0543932141718154e6 0.0
0.0 0.0 0.0

-3.6436855753504476e6 1.8622906045798533e7 0.0
1.8622906045798533e7 -2.7062489193912104e7 0.0
0.0 0.0 0.0

-1.052742709364432e6 2.5212000984264635e7 0.0
2.5212000984264635e7 -5.444196161541805e6 0.0
0.0 0.0 0.0

2.0014711673951321e6 5.588497389094668e6 0.0
5.588497389094668e6 -7.001562120996226e6 0.0
0.0 0.0 0.0

1.162567526221581e7 2.382840231214848e7 0.0
2.382840231214848e7 1.3101506303283399e7 0.0
0.0 0.0 0.0

-1.2409024690452063e7 2.4332563568337336e7 0.0
2.4332563568337336e7 -2.523715255806218e6 0.0
0.0 0.0 0.0

735456.9633183852 2.041163014927777e7 0.0
2.041163014927777e7 -1.4216965993349269e7 0.0
0.0 0.0 0.0

-2.4179898877308583e6 2.5956704471304264e7 0.0
2.5956704471304264e7 1.0569064775421857e6 0.0
0.0 0.0 0.0

621199.2529482376 1.459091876660682e7 0.0
1.459091876660682e7 -2.8858682990024857e7 0.0
0.0 0.0 0.0

-7.183270830427658e6 1.132405389568578e6 0.0
1.132405389568578e6 5.436582879627091e7 0.0
0.0 0.0 0.0

504542.5636695931 1.789276191377705e7 0.0
1.789276191377705e7 -1.9091557367589187e7 0.0
0.0 0.0 0.0

4.335672219697135e6 2.131822284815106e7 0.0
2.131822284815106e7 168616.58867694484 0.0
0.0 0.0 0.0

-1.6226429944502622e7 2.1114535076307278e7 0.0
2.1114535076307278e7 -6.545481633869134e7 0.0
0.0 0.0 0.0

3.114528679730408e6 6.7652010493709175e6 0.0
6.7652010493709175e6 -2.710138056575309e7 0.0
0.0 0.0 0.0

759795.3467315026 1.9584234757505525e7 0.0
1.9584234757505525e7 -1.8548424153596785e7 0.0
0.0 0.0 0.0

-4.883950226215787e6 2.661992680133696e7 0.0
2.661992680133696e7 9.511102993189286e6 0.0
0.0 0.0 0.0

-632341.5454132886 2.9645168227648843e7 0.0
2.9645168227648843e7 -2.315366321732359e6 0.0
0.0 0.0 0.0

-2.8453712230024235e6 2.4164602363155477e7 0.0
2.4164602363155477e7 1.116912582240591e7 0.0
0.0 0.0 0.0

6.276066258011024e6 2.220326748693907e7 0.0
2.220326748693907e7 9.068721827044522e6 0.0
0.0 0.0 0.0

-8.890450600964029e7 2.729758813787532e7 0.0
2.729758813787532e7 -891209.0155951828 0.0
0.0 0.0 0.0

-867846.3754844033 1.1536580601016006e6 0.0
1.1536580601016006e6 142453.87175693555 0.0
0.0 0.0 0.0

-1.4437895735928058e6 1.837926348061787e7 0.0
1.837926348061787e7 -2.0124696256472613e6 0.0
0.0 0.0 0.0

1.3880235868310414e7 2.203485885096968e7 0.0
2.203485885096968e7 3.6631922819106015e6 0.0
0.0 0.0 0.0

-749560.8804253177 3.5721587920296356e7 0.0
3.5721587920296356e7 1.190548046730294e6 0.0
0.0 0.0 0.0

-3.0355478795559593e6 1.5658297495250313e7 0.0
1.5658297495250313e7 -4.319315551356201e7 0.0
0.0 0.0 0.0

-3.1414656085057976e6 2.2021711657156557e7 0.0
2.2021711657156557e7 -8.056400996492203e6 0.0
0.0 0.0 0.0

4.131062275900967e6 2.5701022010207325e7 0.0
2.5701022010207325e7 -7.613333021350352e6 0.0
0.0 0.0 0.0

1.038203180254695e6 1.633092181971354e7 0.0
1.633092181971354e7 -1.6488943458852232e7 0.0
0.0 0.0 0.0

4.0295138290266125e6 2.489632475437451e7 0.0
2.489632475437451e7 -7.491701727836644e6 0.0
0.0 0.0 0.0

620413.516462659 2.0507853808761675e7 0.0
2.0507853808761675e7 1.0049345147744564e7 0.0
0.0 0.0 0.0

64451.46789737127 2.934376179114544e7 0.0
2.934376179114544e7 -1.8312044682903946e6 0.0
0.0 0.0 0.0

2.477862803536687e6 9.944352467218718e6 0.0
9.944352467218718e6 -2.634126567702221e7 0.0
0.0 0.0 0.0

2.6964410805365667e6 2.888589977623348e6 0.0
2.888589977623348e6 -4.083788567873269e7 0.0
0.0 0.0 0.0

-1.5914292106055047e6 854586.9182309987 0.0
854586.9182309987 -700668.7185758762 0.0
0.0 0.0 0.0

-9.890771411325e6 554862.5518356448 0.0
554862.5518356448 2.619665254473888e6 0.0
0.0 0.0 0.0

3.7357499459947e6 2.190514985529944e7 0.0
2.190514985529944e7 1.5078088513239259e7 0.0
0.0 0.0 0.0

2.4979709805931086e6 1.9142602478288714e7 0.0
1.9142602478288714e7 1.3063793214040965e7 0.0
0.0 0.0 0.0

271086.22645396413 2.0306620958953977e7 0.0
2.0306620958953977e7 1.0065942741456438e7 0.0
0.0 0.0 0.0

2.7143916044893414e6 5.189980388344353e6 0.0
5.189980388344353e6 -1.7506218249936983e7 0.0
0.0 0.0 0.0

3.9394471458556736e6 2.370361482681958e7 0.0
2.370361482681958e7 -6.971842518455043e6 0.0
0.0 0.0 0.0

2.2813321803638414e6 4.300894889972305e6 0.0
4.300894889972305e6 -8.328912467490324e6 0.0
0.0 0.0 0.0

3.4570231325990944e6 2.4955768928124346e7 0.0
2.4955768928124346e7 -8.237223509523382e6 0.0
0.0 0.0 0.0

-7.3420573016543e6 1.7319999330717284e7 0.0
1.7319999330717284e7 3.0717996031582683e7 0.0
0.0 0.0 0.0

1.4901570411311237e6 2.8204840720455613e7 0.0
2.8204840720455613e7 -4.883779206580185e6 0.0
0.0 0.0 0.0

5.314685587547775e6 3.2886502933428075e7 0.0
3.2886502933428075e7 -3.476573414256109e6 0.0
0.0 0.0 0.0

2.4697487420032676e6 7.484272227592674e6 0.0
7.484272227592674e6 -2.8192744453243136e7 0.0
0.0 0.0 0.0

2.586617854853876e6 6.084954217138348e6 0.0
6.084954217138348e6 -2.8836853177330732e7 0.0
0.0 0.0 0.0

1.6819648236376356e7 2.3832832351057876e7 0.0
2.3832832351057876e7 902918.7240930935 0.0
0.0 0.0 0.0

1.4283278489527153e6 2.036947935479549e7 0.0
2.036947935479549e7 2.690377108100178e7 0.0
0.0 0.0 0.0

342897.22440526076 1.8523064548736937e7 0.0
1.8523064548736937e7 -1.784767634114876e7 0.0
0.0 0.0 0.0

-7.559581003085773e6 -2.329963406032067e6 0.0
-2.329963406032067e6 4.2607981967230424e7 0.0
0.0 0.0 0.0

-768907.7544254345 3.4114979731804915e7 0.0
3.4114979731804915e7 902252.4156973376 0.0
0.0 0.0 0.0

-8.972819420642646e6 1.6190203782904074e7 0.0
1.6190203782904074e7 2.859069918933437e7 0.0
0.0 0.0 0.0

-8.815178758857815e6 -3.1443058233209243e6 0.0
-3.1443058233209243e6 1.835101180382891e7 0.0
0.0 0.0 0.0

-100566.948496975 1.832126982270237e7 0.0
1.832126982270237e7 -1.0853248686907347e7 0.0
0.0 0.0 0.0

2.8687591806658823e6 2.975375186603019e6 0.0
2.975375186603019e6 -3.93211400049597e7 0.0
0.0 0.0 0.0

-4.79742516043425e6 3.068893354218066e7 0.0
3.068893354218066e7 5.6068204173791595e6 0.0
0.0 0.0 0.0

-439092.85898448667 2.4926058101220183e7 0.0
2.4926058101220183e7 -5.040152510150816e6 0.0
0.0 0.0 0.0

630991.7894834336 1.4063277260979723e7 0.0
1.4063277260979723e7 -3.054284155223327e7 0.0
0.0 0.0 0.0

1.7751716610447403e7 2.149752884371074e7 0.0
2.149752884371074e7 6.55990405598084e6 0.0
0.0 0.0 0.0

-5.528477011812013e6 2.9551142581923287e7 0.0
2.9551142581923287e7 6.662297551938197e6 0.0
0.0 0.0 0.0

-8.516718635447284e6 -1.0481176910278846e6 0.0
-1.0481176910278846e6 4.0616767176680505e7 0.0
0.0 0.0 0.0

-8.565418373164928e6 -3.4833040243048347e6 0.0
-3.4833040243048347e6 3.1297401859909397e7 0.0
0.0 0.0 0.0

5.87374263289461e6 2.170291661720426e7 0.0
2.170291661720426e7 673528.9746886722 0.0
0.0 0.0 0.0

1.1442434460828449e6 2.478435624493544e7 0.0
2.478435624493544e7 -8.993194734213796e6 0.0
0.0 0.0 0.0

1.5622573401318835e6 2.5424607711398218e7 0.0
2.5424607711398218e7 -8.519545754315406e6 0.0
0.0 0.0 0.0

-5.349231049864296e6 7.251713101695534e6 0.0
7.251713101695534e6 6.0166200168211065e7 0.0
0.0 0.0 0.0

3.4128958427453656e6 2.658282691463921e6 0.0
2.658282691463921e6 -1.3051018349311575e7 0.0
0.0 0.0 0.0

-8.996091975895764e6 2.4284939902345806e7 0.0
2.4284939902345806e7 -2.68312768339995e6 0.0
0.0 0.0 0.0

-1.5326653962602044e7 2.463720372413035e7 0.0
2.463720372413035e7 -8.795176435063532e6 0.0
0.0 0.0 0.0

-3.2351937498984497e7 2.9981148892286275e7 0.0
2.9981148892286275e7 -5.176890589724544e6 0.0
0.0 0.0 0.0

1.3729711551638152e6 3.45943272566128e7 0.0
3.45943272566128e7 -626656.5731383569 0.0
0.0 0.0 0.0

660762.8001107625 1.867565234834913e7 0.0
1.867565234834913e7 984899.0375885661 0.0
0.0 0.0 0.0

-8.108320618469903e6 -424608.7303214288 0.0
-424608.7303214288 4.301154397040758e7 0.0
0.0 0.0 0.0

1.4204080654771851e7 2.349154332209179e7 0.0
2.349154332209179e7 868429.1802982097 0.0
0.0 0.0 0.0

159884.35061029904 2.0277014242095385e7 0.0
2.0277014242095385e7 -1.151947567403273e7 0.0
0.0 0.0 0.0

-9.080770558834447e6 -41348.97858991938 0.0
-41348.97858991938 3.3383638442964934e7 0.0
0.0 0.0 0.0

-3.540957400988853e6 2.468631741047103e7 0.0
2.468631741047103e7 9.970796378716523e6 0.0
0.0 0.0 0.0

-3.7467957071695286e6 2.6199025271677766e7 0.0
2.6199025271677766e7 8.792042152026696e6 0.0
0.0 0.0 0.0

-5.925258761435683e6 194564.6407347779 0.0
194564.6407347779 7.13451128499668e6 0.0
0.0 0.0 0.0

2.730756449949717e6 5.199289206964535e6 0.0
5.199289206964535e6 -3.003384323094193e7 0.0
0.0 0.0 0.0

-91361.28646779805 8.765413856697364e6 0.0
8.765413856697364e6 -5.3433185752394e7 0.0
0.0 0.0 0.0

8.306681900207344e6 2.364326950275649e7 0.0
2.364326950275649e7 1.3580871755225644e7 0.0
0.0 0.0 0.0

2.665533548648701e6 4.416048758003919e6 0.0
4.416048758003919e6 -1.1630385605870796e7 0.0
0.0 0.0 0.0

2.246778356384161e7 3.2270422228650987e7 0.0
3.2270422228650987e7 -7.469502417202127e6 0.0
0.0 0.0 0.0

3.477222281965431e6 4.445925566501069e6 0.0
4.445925566501069e6 -2.867907740967852e7 0.0
0.0 0.0 0.0

3.555711813548713e6 5.020293427449349e6 0.0
5.020293427449349e6 -1.9545830802149385e7 0.0
0.0 0.0 0.0

3.034368092805408e6 4.765428066753843e6 0.0
4.765428066753843e6 -2.5306666188204482e7 0.0
0.0 0.0 0.0

990508.5452370169 1.974738694627775e7 0.0
1.974738694627775e7 2.9186008096305383e6 0.0
0.0 0.0 0.0

1.690341421649174e6 1.9164723709306225e7 0.0
1.9164723709306225e7 9.890839890439972e6 0.0
0.0 0.0 0.0

-54076.60377612151 1.6533364993007937e7 0.0
1.6533364993007937e7 -2.756912144942154e7 0.0
0.0 0.0 0.0

2.135880949680484e7 3.3335115554184265e7 0.0
3.3335115554184265e7 -6.109178372377001e6 0.0
0.0 0.0 0.0

-8.918263348845037e6 -1.4500954190917609e6 0.0
-1.4500954190917609e6 3.3261744768123865e7 0.0
0.0 0.0 0.0

-3.499159649261888e6 2.4884086318635322e7 0.0
2.4884086318635322e7 1.1681948704417236e7 0.0
0.0 0.0 0.0

-1.9481386037494806e6 3.375604368735879e7 0.0
3.375604368735879e7 366297.0267337506 0.0
0.0 0.0 0.0

1.028766007670419e6 2.8321922985806327e7 0.0
2.8321922985806327e7 -4.1730842896092334e6 0.0
0.0 0.0 0.0

-8.519917259341883e6 -2.80652117924182e6 0.0
-2.80652117924182e6 2.405674688303407e7 0.0
0.0 0.0 0.0

-9.995362053099224e6 -721577.6768445291 0.0
-721577.6768445291 1.7077758856286034e7 0.0
0.0 0.0 0.0

2.756593120071669e6 2.04579800715628e7 0.0
2.04579800715628e7 2.5771138539517157e7 0.0
0.0 0.0 0.0

-2.5974767435061815e6 -768683.4554635138 0.0
-768683.4554635138 3.1725304581487165e6 0.0
0.0 0.0 0.0

8.043101863239002e6 2.6123935307035036e7 0.0
2.6123935307035036e7 -5.312948886178207e6 0.0
0.0 0.0 0.0

715150.1844145413 2.354942876287761e7 0.0
2.354942876287761e7 -1.0907923742710967e7 0.0
0.0 0.0 0.0

396507.7700218037 1.9446675208860748e7 0.0
1.9446675208860748e7 -1.9694863147075757e7 0.0
0.0 0.0 0.0

-1.7784257293389575e6 2.3997818797414713e7 0.0
2.3997818797414713e7 690221.65025091 0.0
0.0 0.0 0.0

-3.5441953018101873e6 2.3838942506544348e7 0.0
2.3838942506544348e7 1.0624958443936199e7 0.0
0.0 0.0 0.0

-8.87350456947129e6 1.6372552937873848e7 0.0
1.6372552937873848e7 2.5120090050747618e7 0.0
0.0 0.0 0.0

-2.1268549693184935e7 4.292949813824691e7 0.0
4.292949813824691e7 6.242155180877843e6 0.0
0.0 0.0 0.0

2.89788696093395e6 4.337961048415885e6 0.0
4.337961048415885e6 -1.186883452627809e7 0.0
0.0 0.0 0.0

889583.036249171 1.892384416666284e7 0.0
1.892384416666284e7 -1.6323515235235294e7 0.0
0.0 0.0 0.0

1.7975150341074653e6 3.999253640680964e6 0.0
3.999253640680964e6 -5.739159549234404e7 0.0
0.0 0.0 0.0

3.8167156812245916e6 2.5431942778207302e7 0.0
2.5431942778207302e7 -8.057032093651811e6 0.0
0.0 0.0 0.0

-7.21430511413867e6 1.3556876891721131e7 0.0
1.3556876891721131e7 1.4334499678098697e7 0.0
0.0 0.0 0.0

-9.2416353105757e6 1.724366320050818e7 0.0
1.724366320050818e7 -3.695926856462779e7 0.0
0.0 0.0 0.0

3.50365310734532e7 2.2448449371899165e7 0.0
2.2448449371899165e7 7.375519910546228e6 0.0
0.0 0.0 0.0

-9.893539270241424e6 2.7749068895757142e6 0.0
2.7749068895757142e6 1.920766101879299e7 0.0
0.0 0.0 0.0

1.1402338266032068e7 2.2244624737487175e7 0.0
2.2244624737487175e7 9.998300548153326e6 0.0
0.0 0.0 0.0

6.693991536364062e6 1.7549199398535457e7 0.0
1.7549199398535457e7 2.6606302967197437e7 0.0
0.0 0.0 0.0

-7.315213166902921e6 1.7362964251861416e7 0.0
1.7362964251861416e7 -2.336627429111372e7 0.0
0.0 0.0 0.0

4.451960587103201e6 3.636589999754298e7 0.0
3.636589999754298e7 -3.8200154841531618e6 0.0
0.0 0.0 0.0

-391311.2480290984 2.5013430454900768e7 0.0
2.5013430454900768e7 -7.632138869462962e6 0.0
0.0 0.0 0.0

-5.421919394539178e6 1.8741606193776667e7 0.0
1.8741606193776667e7 1.9697892638646238e7 0.0
0.0 0.0 0.0

-1.274888573519338e6 8.736909675975813e6 0.0
8.736909675975813e6 -7.550724310255526e7 0.0
0.0 0.0 0.0

-1.0409814139465617e7 626603.9912001018 0.0
626603.9912001018 1.6398921447827611e7 0.0
0.0 0.0 0.0

-1.4506311899167993e6 2.001374207454332e7 0.0
2.001374207454332e7 -8.61028026316543e6 0.0
0.0 0.0 0.0

1.0494620822345607e7 2.3019045494041916e7 0.0
2.3019045494041916e7 1.1436551439813582e7 0.0
0.0 0.0 0.0

2.239110298542262e6 1.4337399182756145e7 0.0
1.4337399182756145e7 6.750337957027716e6 0.0
0.0 0.0 0.0

-3.6846161954975827e6 2.301205590700459e7 0.0
2.301205590700459e7 1.565309228083829e7 0.0
0.0 0.0 0.0

-2.9533593429766227e6 2.817887440587379e7 0.0
2.817887440587379e7 5.400550354601335e6 0.0
0.0 0.0 0.0

-1.8341283829128817e7 4.382559106500651e7 0.0
4.382559106500651e7 7.567876566194727e6 0.0
0.0 0.0 0.0

991507.0781238237 8.252304934067305e6 0.0
8.252304934067305e6 -6.626776405610094e6 0.0
0.0 0.0 0.0

-3.473068000737489e6 2.785837131099223e7 0.0
2.785837131099223e7 4.927756897876725e6 0.0
0.0 0.0 0.0

-347581.3768740948 2.389973096860259e7 0.0
2.389973096860259e7 -7.584740152922468e6 0.0
0.0 0.0 0.0

1.6237153864164975e7 2.323821814365501e7 0.0
2.323821814365501e7 1.1769106861974906e7 0.0
0.0 0.0 0.0

137502.95333985658 2.7205832720186573e7 0.0
2.7205832720186573e7 -5.790268397958471e6 0.0
0.0 0.0 0.0

2.2227917171483757e6 4.398251794156447e6 0.0
4.398251794156447e6 -9.333877345129842e6 0.0
0.0 0.0 0.0

290603.4708898775 2.0643079471272185e7 0.0
2.0643079471272185e7 -1.4596701153034385e7 0.0
0.0 0.0 0.0

-1.0331704478346884e7 2.6190101203591903e6 0.0
2.6190101203591903e6 2.5642696711670935e7 0.0
0.0 0.0 0.0

3.2914935212038383e6 5.947325940635596e6 0.0
5.947325940635596e6 -2.8110997787620693e7 0.0
0.0 0.0 0.0

1.6401054293265417e6 4.858696352292681e6 0.0
4.858696352292681e6 -6.2214747591202416e7 0.0
0.0 0.0 0.0

3.331699010570797e6 2.2874647189466532e7 0.0
2.2874647189466532e7 1.3325985548702706e7 0.0
0.0 0.0 0.0

680584.0431824 2.054318595705478e7 0.0
2.054318595705478e7 -1.7143886653865732e7 0.0
0.0 0.0 0.0

-5.928596037439629e6 1.902722120920105e7 0.0
1.902722120920105e7 1.7598625053863775e7 0.0
0.0 0.0 0.0

3.6567957941427752e6 2.1273115656496203e6 0.0
2.1273115656496203e6 -2.4092895360389058e7 0.0
0.0 0.0 0.0

1.2832118316536453e6 1.6550257899929568e7 0.0
1.6550257899929568e7 -2.124312089706434e7 0.0
0.0 0.0 0.0

-123827.42519013956 1.8728198733061332e7 0.0
1.8728198733061332e7 -2.088063177103282e7 0.0
0.0 0.0 0.0

-5.22137573799983e6 2.002714490700645e7 0.0
2.002714490700645e7 1.6738827925412048e7 0.0
0.0 0.0 0.0

-359679.4667611022 9.343618766777698e6 0.0
9.343618766777698e6 4.273137745667258e6 0.0
0.0 0.0 0.0

-9.40047830623043e6 -874384.6584419179 0.0
-874384.6584419179 2.754752913537252e7 0.0
0.0 0.0 0.0

235984.14068530314 1.9760601927903898e7 0.0
1.9760601927903898e7 -1.7975065813418735e7 0.0
0.0 0.0 0.0

-7.030211944750173e6 1.2280222514268424e7 0.0
1.2280222514268424e7 1.5318992599011665e7 0.0
0.0 0.0 0.0

1.4971725225282129e7 2.1297642237781435e7 0.0
2.1297642237781435e7 1.073318966500508e7 0.0
0.0 0.0 0.0

818489.5730399247 2.4217006364784088e7 0.0
2.4217006364784088e7 -1.0220459158913115e7 0.0
0.0 0.0 0.0

2.401868002278064e6 4.383324491146724e6 0.0
4.383324491146724e6 -8.11184290817466e6 0.0
0.0 0.0 0.0

-8.3234088575488515e6 6.531110428075262e6 0.0
6.531110428075262e6 4.3505750351532534e7 0.0
0.0 0.0 0.0

-2.1312211036842503e6 3.066823802747445e7 0.0
3.066823802747445e7 814180.4839353692 0.0
0.0 0.0 0.0

-9.748042412185807e6 3.2227239616245437e7 0.0
3.2227239616245437e7 5.5912487328488985e6 0.0
0.0 0.0 0.0

-1.1561798399491303e7 3.985537978181387e6 0.0
3.985537978181387e6 1.6810592868042625e7 0.0
0.0 0.0 0.0

-9.351698997475754e6 1.7681673790131754e6 0.0
1.7681673790131754e6 3.497829969924119e7 0.0
0.0 0.0 0.0

226949.66418297775 1.4719886615105962e7 0.0
1.4719886615105962e7 -3.0804023431579877e7 0.0
0.0 0.0 0.0

-4.072607019596464e6 2.058757981543531e7 0.0
2.058757981543531e7 1.7345690200391956e7 0.0
0.0 0.0 0.0

-8.430741356479617e6 7.81875976831128e6 0.0
7.81875976831128e6 4.406046950755508e7 0.0
0.0 0.0 0.0

-6.827063960094684e7 2.1441127941302564e7 0.0
2.1441127941302564e7 4.23642445326012e6 0.0
0.0 0.0 0.0

995999.0377278319 1.3758606801582338e7 0.0
1.3758606801582338e7 -1.896302022993337e7 0.0
0.0 0.0 0.0

962722.2419575866 1.9687512373161197e7 0.0
1.9687512373161197e7 448588.7666142599 0.0
0.0 0.0 0.0

3.060141082322959e6 1.6269282847280966e6 0.0
1.6269282847280966e6 -3.8440388384123564e7 0.0
0.0 0.0 0.0

4.4883973217488425e6 2.024219916758786e7 0.0
2.024219916758786e7 1.5731800983902054e7 0.0
0.0 0.0 0.0

-9.441571523758799e6 8.056127546379849e6 0.0
8.056127546379849e6 4.071202345518892e7 0.0
0.0 0.0 0.0

1.0423256489914567e6 6.969259599606867e6 0.0
6.969259599606867e6 -8.623835395964816e6 0.0
0.0 0.0 0.0

-267993.45477598906 2.394445072016135e7 0.0
2.394445072016135e7 -7.580489698181169e6 0.0
0.0 0.0 0.0

-2.2099995407648957e6 2.7139122492507998e7 0.0
2.7139122492507998e7 420510.8996155327 0.0
0.0 0.0 0.0

-2.809224842087479e6 2.2916573656605754e7 0.0
2.2916573656605754e7 1.049025766452578e7 0.0
0.0 0.0 0.0

-6.760818984627317e6 3.1466425027031757e7 0.0
3.1466425027031757e7 5.373645294628967e6 0.0
0.0 0.0 0.0

-2.658930649043073e6 2.2062287656237815e7 0.0
2.2062287656237815e7 704268.1509847328 0.0
0.0 0.0 0.0

-7.717168104545258e6 433678.81872932933 0.0
433678.81872932933 4.8658588772851445e7 0.0
0.0 0.0 0.0

3.3657592893128125e6 1.9930806076666687e7 0.0
1.9930806076666687e7 2.3424715282155745e7 0.0
0.0 0.0 0.0

1.0186532679791693e6 1.8639263018464427e7 0.0
1.8639263018464427e7 -1.792878662636932e7 0.0
0.0 0.0 0.0

-1.9113098577087894e7 2.8133244748442564e7 0.0
2.8133244748442564e7 -7.679076179359606e6 0.0
0.0 0.0 0.0

-7.319392348043201e6 -1.5969294003038553e6 0.0
-1.5969294003038553e6 1.0902845422890948e7 0.0
0.0 0.0 0.0

-1.4646462485114345e6 3.307140699134704e7 0.0
3.307140699134704e7 1.700492291566398e6 0.0
0.0 0.0 0.0

322882.48312779865 1.88927577509843e7 0.0
1.88927577509843e7 -1.7547035067221501e6 0.0
0.0 0.0 0.0

-7.068390018687392e6 1.816578769127973e7 0.0
1.816578769127973e7 2.8839490233449332e7 0.0
0.0 0.0 0.0

2.2691030587166846e6 1.2104639822013307e7 0.0
1.2104639822013307e7 -2.508216746762898e7 0.0
0.0 0.0 0.0

-7.980870964594735e6 1.7591149646187697e7 0.0
1.7591149646187697e7 2.6156230990295567e7 0.0
0.0 0.0 0.0

1.9132390690772086e6 4.506540892341341e6 0.0
4.506540892341341e6 -7.824627631705029e6 0.0
0.0 0.0 0.0

3.049696810095705e6 7.403378448501813e6 0.0
7.403378448501813e6 -2.7757146844821267e7 0.0
0.0 0.0 0.0

-2.923540608584009e6 2.201000966039834e7 0.0
2.201000966039834e7 -9.501319176378027e6 0.0
0.0 0.0 0.0

-2.2499328165244237e6 2.3487535217030335e7 0.0
2.3487535217030335e7 2.6884013414987484e6 0.0
0.0 0.0 0.0

-1.7497129977539713e6 2.721441766085518e7 0.0
2.721441766085518e7 1.932290433215691e6 0.0
0.0 0.0 0.0

4.196143511547959e6 2.4725316087940425e7 0.0
2.4725316087940425e7 -7.873433579573702e6 0.0
0.0 0.0 0.0

3.4856138304349e6 5.106411076172749e6 0.0
5.106411076172749e6 -2.5178072535297364e7 0.0
0.0 0.0 0.0

1.32725115914199e6 4.426445084160449e6 0.0
4.426445084160449e6 -5.230531137061105e6 0.0
0.0 0.0 0.0

2.3833670991746765e6 6.627804355806555e6 0.0
6.627804355806555e6 -2.955479849750264e7 0.0
0.0 0.0 0.0

1.9156032083989326e6 6.911755768911065e6 0.0
6.911755768911065e6 -8.930729581066879e6 0.0
0.0 0.0 0.0

2.027480496798498e7 2.133246443117548e7 0.0
2.133246443117548e7 9.282121530061467e6 0.0
0.0 0.0 0.0

-2.709622153504243e6 3.679849126711861e7 0.0
3.679849126711861e7 2.479800008960644e6 0.0
0.0 0.0 0.0

-8.38343474171509e6 -1.011370647123584e6 0.0
-1.011370647123584e6 3.896476489446424e7 0.0
0.0 0.0 0.0

1.1924842708542198e6 8.648858318853714e6 0.0
8.648858318853714e6 -4.915182480069133e7 0.0
0.0 0.0 0.0

3.3540849997302634e6 2.5540010956912905e7 0.0
2.5540010956912905e7 -8.224663400042991e6 0.0
0.0 0.0 0.0

-2.317604589976161e6 2.18291038126076e7 0.0
2.18291038126076e7 -1.0976751421493892e7 0.0
0.0 0.0 0.0

1.8348914184248708e6 7.772950213749872e6 0.0
7.772950213749872e6 -3.7037644351404026e7 0.0
0.0 0.0 0.0

-7.099419254761396e6 3.650842085288379e7 0.0
3.650842085288379e7 4.892537065794219e6 0.0
0.0 0.0 0.0

8.72309321645794e6 2.3408816452507533e7 0.0
2.3408816452507533e7 1.2322460463380672e7 0.0
0.0 0.0 0.0

-4.140098314384905e7 4.12339112073317e7 0.0
4.12339112073317e7 7.41010715648341e6 0.0
0.0 0.0 0.0

-2.103911938942929e6 2.0435193433087792e7 0.0
2.0435193433087792e7 2.3296791188266747e7 0.0
0.0 0.0 0.0

2.0962602538096644e6 1.1008952568746222e7 0.0
1.1008952568746222e7 -2.577905983584189e7 0.0
0.0 0.0 0.0

7.94763088460722e7 2.5983013651969768e7 0.0
2.5983013651969768e7 1.0581574442467993e7 0.0
0.0 0.0 0.0

5.953652346254433e6 2.1392425069906507e7 0.0
2.1392425069906507e7 1.7771583984687466e7 0.0
0.0 0.0 0.0

-1.072075313757456e7 3.804859784981605e6 0.0
3.804859784981605e6 2.6541778055602208e7 0.0
0.0 0.0 0.0

1.9215853777092616e6 1.9721282419028386e7 0.0
1.9721282419028386e7 1.0402648913434999e7 0.0
0.0 0.0 0.0

-3.0582338615679825e6 1.8060896560785778e7 0.0
1.8060896560785778e7 -2.620402530487367e7 0.0
0.0 0.0 0.0

9.663055270490527e6 2.571389865391723e7 0.0
2.571389865391723e7 -4.504106335715607e6 0.0
0.0 0.0 0.0

-2.792391402878125e6 2.3376750218475915e7 0.0
2.3376750218475915e7 8.402414359885838e6 0.0
0.0 0.0 0.0

-9.423761530955035e6 6.477037220960213e6 0.0
6.477037220960213e6 3.981894427384595e7 0.0
0.0 0.0 0.0

-6.389353257165896e6 3.726792114623489e7 0.0
3.726792114623489e7 3.6607036724508037e6 0.0
0.0 0.0 0.0

-8.2565253963133115e6 2.4609137154025003e7 0.0
2.4609137154025003e7 4.934801588913182e6 0.0
0.0 0.0 0.0

-2.413837596818738e6 2.680541041669442e7 0.0
2.680541041669442e7 1.2597489593923602e6 0.0
0.0 0.0 0.0

3.459565458894225e6 3.0758078155401208e7 0.0
3.0758078155401208e7 -4.27786613681143e6 0.0
0.0 0.0 0.0

-2.112640900106212e6 3.0002867110370144e7 0.0
3.0002867110370144e7 752585.8675011498 0.0
0.0 0.0 0.0

170187.28945310542 1.996804742519226e7 0.0
1.996804742519226e7 312877.5134624564 0.0
0.0 0.0 0.0

-145574.4049410373 2.120563191665372e7 0.0
2.120563191665372e7 2.0206051925708376e7 0.0
0.0 0.0 0.0

2.4970418210447724e6 2.1803955346540283e7 0.0
2.1803955346540283e7 555316.4538658457 0.0
0.0 0.0 0.0

-9.12404896168718e6 1.820282081124861e7 0.0
1.820282081124861e7 -4.538771285949311e7 0.0
0.0 0.0 0.0

71207.59730687435 1.9965279554082334e7 0.0
1.9965279554082334e7 2.5518689015215095e6 0.0
0.0 0.0 0.0

-2.5875618083585147e6 2.343140833041706e7 0.0
2.343140833041706e7 1.2567108521162558e6 0.0
0.0 0.0 0.0

4.545854247583816e6 1.6706009659072995e7 0.0
1.6706009659072995e7 1.4172488371939644e7 0.0
0.0 0.0 0.0

826731.1469453741 2.2156102074054807e7 0.0
2.2156102074054807e7 -1.278130136628367e7 0.0
0.0 0.0 0.0

783946.4692037245 1.6149687807215452e7 0.0
1.6149687807215452e7 -2.250022771803598e7 0.0
0.0 0.0 0.0

3.471008238897687e6 4.442057844932437e6 0.0
4.442057844932437e6 -2.629319158112646e7 0.0
0.0 0.0 0.0

4.938113935917541e6 2.1065756225886013e7 0.0
2.1065756225886013e7 1.4582354374134429e7 0.0
0.0 0.0 0.0

-1.6915588123327624e6 2.212329361199819e7 0.0
2.212329361199819e7 1.3741293189832758e7 0.0
0.0 0.0 0.0

-7.66029800758349e6 1.7973356454831116e7 0.0
1.7973356454831116e7 2.624343056974411e7 0.0
0.0 0.0 0.0

-2.6126448485536315e6 2.263458283548341e7 0.0
2.263458283548341e7 9.600184140154805e6 0.0
0.0 0.0 0.0

-4.413168030017395e6 2.2169178618181843e7 0.0
2.2169178618181843e7 -9.8436172296023e6 0.0
0.0 0.0 0.0

-7.942851051847264e6 1.8186615618032943e7 0.0
1.8186615618032943e7 2.4692141904476874e7 0.0
0.0 0.0 0.0

-7.926699009116435e6 1.761647219611842e7 0.0
1.761647219611842e7 2.8731437785494436e7 0.0
0.0 0.0 0.0

-9.342136245946597e6 1.6454435955599492e7 0.0
1.6454435955599492e7 2.3234445524998963e7 0.0
0.0 0.0 0.0

-9.108855782418152e6 -2.255042359799314e6 0.0
-2.255042359799314e6 2.7157762950539682e7 0.0
0.0 0.0 0.0

-2.887599074321334e6 2.4943175450733297e7 0.0
2.4943175450733297e7 1.0038322987429773e7 0.0
0.0 0.0 0.0

-3.9447144305037484e6 1.7039405440386303e7 0.0
1.7039405440386303e7 -3.8624233319004364e7 0.0
0.0 0.0 0.0

-505911.166821979 1.6460606779429112e7 0.0
1.6460606779429112e7 -2.7503366650055133e7 0.0
0.0 0.0 0.0

-3.1777185085182015e7 3.2280853857672315e7 0.0
3.2280853857672315e7 -1.0301912115135059e7 0.0
0.0 0.0 0.0

-7.410197589902345e6 5.285001737611829e6 0.0
5.285001737611829e6 4.957301312858962e7 0.0
0.0 0.0 0.0

107612.21991914138 1.7065850362147354e7 0.0
1.7065850362147354e7 -2.578867346803577e7 0.0
0.0 0.0 0.0

-845312.1016003969 3.0823379660201047e7 0.0
3.0823379660201047e7 -1.3171138058212202e6 0.0
0.0 0.0 0.0

3.219502365504605e6 1.9628943632578094e7 0.0
1.9628943632578094e7 1.8145349541255612e7 0.0
0.0 0.0 0.0

-8.60376897282612e6 -4.737903451461996e6 0.0
-4.737903451461996e6 2.3229948871209238e7 0.0
0.0 0.0 0.0

-329836.1600556124 1.970027445025849e7 0.0
1.970027445025849e7 -2.0845141446275113e6 0.0
0.0 0.0 0.0

-958104.9927007197 2.1560045906831283e7 0.0
2.1560045906831283e7 -9.644452867772555e6 0.0
0.0 0.0 0.0

-1.2220601146763721e7 8.131404394451582e6 0.0
8.131404394451582e6 1.831267146133803e7 0.0
0.0 0.0 0.0

2.465103921782192e6 1.3958229148619762e6 0.0
1.3958229148619762e6 -4.88350698649935e7 0.0
0.0 0.0 0.0

5823.110977403354 1.089423538160664e7 0.0
1.089423538160664e7 -9.721005432811296e6 0.0
0.0 0.0 0.0

-1.0582514237627348e7 2.9608121389952456e6 0.0
2.9608121389952456e6 3.199099043765373e7 0.0
0.0 0.0 0.0

1.346146486163184e6 2.267853582916476e7 0.0
2.267853582916476e7 -1.2343907900220362e7 0.0
0.0 0.0 0.0

6.573894629501708e6 1.9292098165988505e7 0.0
1.9292098165988505e7 3.308931976933368e7 0.0
0.0 0.0 0.0

-40521.16820214456 1.043115200629335e7 0.0
1.043115200629335e7 -5.139853129688619e6 0.0
0.0 0.0 0.0

9.207838348806607e6 2.338112827161113e7 0.0
2.338112827161113e7 1.4024034029692583e7 0.0
0.0 0.0 0.0

-3.382998486551163e6 3.770692555330446e7 0.0
3.770692555330446e7 2.743371795755418e6 0.0
0.0 0.0 0.0

-1.1544896058865089e7 4.0729728432453275e6 0.0
4.0729728432453275e6 2.3470542030278288e7 0.0
0.0 0.0 0.0

575751.648553499 2.03569627959655e7 0.0
2.03569627959655e7 2.2155007371499144e7 0.0
0.0 0.0 0.0

1.5364045446945745e6 1.1349853240214568e7 0.0
1.1349853240214568e7 -2.6308062533619646e7 0.0
0.0 0.0 0.0

-2.294050675566172e7 2.861515473786341e7 0.0
2.861515473786341e7 1.6936251162005207e6 0.0
0.0 0.0 0.0

-8.2934077943472415e6 -2.8060433620137284e6 0.0
-2.8060433620137284e6 1.4797185823267575e7 0.0
0.0 0.0 0.0

-1.2436791211054392e7 2.409087917302656e7 0.0
2.409087917302656e7 -8.540336478892483e6 0.0
0.0 0.0 0.0

3.546190387909525e7 2.4022353534287993e7 0.0
2.4022353534287993e7 8.08376086442105e6 0.0
0.0 0.0 0.0

-815100.8100913034 2.408092664062325e7 0.0
2.408092664062325e7 -7.438775912373145e6 0.0
0.0 0.0 0.0

2.138746687557825e6 1.1627071575885007e7 0.0
1.1627071575885007e7 -2.4396262505757093e7 0.0
0.0 0.0 0.0

-4.077448592485775e6 2.5184603626566008e7 0.0
2.5184603626566008e7 1.1367792301795995e7 0.0
0.0 0.0 0.0

-6.986237454878807e6 1.0802552436328446e6 0.0
1.0802552436328446e6 5.54099347029452e7 0.0
0.0 0.0 0.0

-4.852463016513983e6 2.191089949699727e7 0.0
2.191089949699727e7 -1.4436026549438134e7 0.0
0.0 0.0 0.0

-1.5354469358951375e6 3.3789797042854e7 0.0
3.3789797042854e7 1.786306401590027e6 0.0
0.0 0.0 0.0

-2.2755952537650485e6 1.5445578306004561e7 0.0
1.5445578306004561e7 -3.771028695569254e7 0.0
0.0 0.0 0.0

84478.19988611806 1.966494839565798e7 0.0
1.966494839565798e7 -1.955136797408192e7 0.0
0.0 0.0 0.0

80886.24352195673 1.8954529853518594e7 0.0
1.8954529853518594e7 -2.1144647361530464e7 0.0
0.0 0.0 0.0

-8.1877094160765335e6 1.454001573370292e7 0.0
1.454001573370292e7 3.550546277111763e7 0.0
0.0 0.0 0.0

-2.9645656564093265e6 2.37941615517508e7 0.0
2.37941615517508e7 8.90522053172709e6 0.0
0.0 0.0 0.0

-5.419558271861695e6 1.2464664471055593e7 0.0
1.2464664471055593e7 1.0112758843110634e8 0.0
0.0 0.0 0.0

3.0012980772566497e6 1.2524000840182442e7 0.0
1.2524000840182442e7 -9.918728010076554e7 0.0
0.0 0.0 0.0

-1.801973734187927e7 2.8142341949138038e7 0.0
2.8142341949138038e7 -1.1370823946672687e7 0.0
0.0 0.0 0.0

-2.220365078879675e6 2.129057286683069e7 0.0
2.129057286683069e7 1.4731666611628473e7 0.0
0.0 0.0 0.0

-2.694604005755555e7 2.9307063377030168e7 0.0
2.9307063377030168e7 -3.7283698162060482e6 0.0
0.0 0.0 0.0

-8.537175098409984e6 -2.863177838363544e6 0.0
-2.863177838363544e6 1.9108029973277234e7 0.0
0.0 0.0 0.0

-7.121837957830475e6 1.8988751486333195e7 0.0
1.8988751486333195e7 2.2052426064476747e7 0.0
0.0 0.0 0.0

-1.4041424925130095e7 2.551284760251926e7 0.0
2.551284760251926e7 -6.818537215951782e6 0.0
0.0 0.0 0.0

-9.681926315524682e6 4.177727294846116e6 0.0
4.177727294846116e6 3.42576175486142e7 0.0
0.0 0.0 0.0

3.3237871004082438e7 2.163644980258256e7 0.0
2.163644980258256e7 7.323999222789679e6 0.0
0.0 0.0 0.0

915915.6617673459 2.0095376313897666e7 0.0
2.0095376313897666e7 2.6507028179127082e7 0.0
0.0 0.0 0.0

-3.974277489335196e6 2.02869289174835e7 0.0
2.02869289174835e7 1.704625158117278e7 0.0
0.0 0.0 0.0

-2.6369272430831555e7 4.03610004343782e7 0.0
4.03610004343782e7 9.57637270201533e6 0.0
0.0 0.0 0.0

4.762251953552986e6 2.2433341525706206e7 0.0
2.2433341525706206e7 5.679247803826126e6 0.0
0.0 0.0 0.0

3.4940590154163386e6 2.118984256502918e7 0.0
2.118984256502918e7 -1.2073367570040459e6 0.0
0.0 0.0 0.0

-4.713789307431215e6 2.665833556271855e7 0.0
2.665833556271855e7 9.55625276879469e6 0.0
0.0 0.0 0.0

-8.433394231319893e6 2.3581349593693018e7 0.0
2.3581349593693018e7 -623949.2059187724 0.0
0.0 0.0 0.0

-1.1218356080361675e6 1.974540217846279e7 0.0
1.974540217846279e7 -2.3808894739425806e6 0.0
0.0 0.0 0.0

3.4093155504990164e6 2.2037222320996556e7 0.0
2.2037222320996556e7 -3.2025480930802277e6 0.0
0.0 0.0 0.0

4.319919528928541e6 2.223353948864255e7 0.0
2.223353948864255e7 1.4039295212065948e7 0.0
0.0 0.0 0.0

5.264918029586323e6 3.492979049559972e7 0.0
3.492979049559972e7 -2.6785639143541018e6 0.0
0.0 0.0 0.0

-3.4415238396185306e6 2.4671840884949423e7 0.0
2.4671840884949423e7 1.0913563529315555e7 0.0
0.0 0.0 0.0

-5.33052915717282e6 3.72296544662611e7 0.0
3.72296544662611e7 1.9755790345971435e6 0.0
0.0 0.0 0.0

-7.714416956618739e6 1.7466091928655095e7 0.0
1.7466091928655095e7 -4.9879885167371295e7 0.0
0.0 0.0 0.0

-1.720156069278925e7 2.0304776281395e7 0.0
2.0304776281395e7 -9.284336583747907e7 0.0
0.0 0.0 0.0

1.6118784697861668e7 2.125334281624433e7 0.0
2.125334281624433e7 9.293500539830825e7 0.0
0.0 0.0 0.0

6.829190577542869e6 1.9674893344219618e7 0.0
1.9674893344219618e7 3.1796754708504707e7 0.0
0.0 0.0 0.0

432225.12776645273 1.0445260439290812e7 0.0
1.0445260439290812e7 -4.258989464652256e7 0.0
0.0 0.0 0.0

2.8828976754846396e6 3.448210398789676e7 0.0
3.448210398789676e7 -3.2782405051366226e6 0.0
0.0 0.0 0.0

1.1733649131526593e6 2.4075527771043252e7 0.0
2.4075527771043252e7 -9.998205718595449e6 0.0
0.0 0.0 0.0

-1.1481210339528313e6 2.0708651500909068e7 0.0
2.0708651500909068e7 -7.36794257816851e6 0.0
0.0 0.0 0.0

1.440958535216943e6 2.3149957630287655e7 0.0
2.3149957630287655e7 -1.1603727357238187e7 0.0
0.0 0.0 0.0

-3.4599870366816565e7 4.316848854222852e7 0.0
4.316848854222852e7 1.0505364881003631e7 0.0
0.0 0.0 0.0

-2.8106498090420254e6 3.3410602534543768e7 0.0
3.3410602534543768e7 1.2092546735837786e6 0.0
0.0 0.0 0.0

-6.683063278420301e6 2.7379443415547784e7 0.0
2.7379443415547784e7 8.084390051472994e6 0.0
0.0 0.0 0.0

2.0541419466200247e6 3.1922765546498587e6 0.0
3.1922765546498587e6 -5.2044561945615575e7 0.0
0.0 0.0 0.0

1.0511148991763525e7 2.6516663612433366e7 0.0
2.6516663612433366e7 -4.86663266198929e6 0.0
0.0 0.0 0.0

-2.116439750928417e6 1.6035774965693561e7 0.0
1.6035774965693561e7 -3.525331103257805e7 0.0
0.0 0.0 0.0

9.188450153429337e6 2.7059323796663042e7 0.0
2.7059323796663042e7 -5.356353689276233e6 0.0
0.0 0.0 0.0

-619573.5491159454 1.8987619016612496e7 0.0
1.8987619016612496e7 -1.3381655266728615e6 0.0
0.0 0.0 0.0

1.395438769074413e6 2.1042923969194654e7 0.0
2.1042923969194654e7 2.3026944724315047e7 0.0
0.0 0.0 0.0

-5.222380011827478e6 2.957845262807156e7 0.0
2.957845262807156e7 5.913082598204475e6 0.0
0.0 0.0 0.0

-9.191539194265634e6 -1.2297079660202367e6 0.0
-1.2297079660202367e6 3.2494485289904315e7 0.0
0.0 0.0 0.0

1.7498747028827537e7 2.1971060581443075e7 0.0
2.1971060581443075e7 3.3358006967038806e6 0.0
0.0 0.0 0.0

-7.66676691816605e7 2.8445878524636924e7 0.0
2.8445878524636924e7 1.1815817632631175e6 0.0
0.0 0.0 0.0

-8.873399026819754e6 1.4794128309799615e7 0.0
1.4794128309799615e7 3.302652794230076e7 0.0
0.0 0.0 0.0

-6.638502582873136e6 2.4529005596959222e7 0.0
2.4529005596959222e7 5.392088640257837e6 0.0
0.0 0.0 0.0

4.386000226576548e6 2.229518993175782e7 0.0
2.229518993175782e7 -159329.84667673148 0.0
0.0 0.0 0.0

3.356127179139057e6 3.0935372894959664e6 0.0
3.0935372894959664e6 -3.388834652651355e7 0.0
0.0 0.0 0.0

-2.7238533341093473e6 2.1979610543829665e7 0.0
2.1979610543829665e7 1.155865891097929e7 0.0
0.0 0.0 0.0

-7.591453274388298e6 312041.15474992234 0.0
312041.15474992234 4.925969056265991e7 0.0
0.0 0.0 0.0

-1.7783505854992166e7 2.4381723580995403e7 0.0
2.4381723580995403e7 -9.884893126948217e7 0.0
0.0 0.0 0.0

1.624170712181261e7 2.600604482847469e7 0.0
2.600604482847469e7 9.776421829873557e7 0.0
0.0 0.0 0.0

300725.98338932917 1.4028671852511054e7 0.0
1.4028671852511054e7 -3.2054269098568775e7 0.0
0.0 0.0 0.0

689873.198977785 4.640204432481293e6 0.0
4.640204432481293e6 -5.340099819197539e6 0.0
0.0 0.0 0.0

1.3108271051829869e7 1.9586671558336973e7 0.0
1.9586671558336973e7 6.363315761767019e6 0.0
0.0 0.0 0.0

-7.166050716862828e6 1.7779649780193144e6 0.0
1.7779649780193144e6 5.575141575684748e7 0.0
0.0 0.0 0.0

842128.2657667901 8.562371334193781e6 0.0
8.562371334193781e6 -7.946008165165291e6 0.0
0.0 0.0 0.0

6.607936565401843e6 3.315527496838432e7 0.0
3.315527496838432e7 -4.339457091582322e6 0.0
0.0 0.0 0.0

242277.43502550293 2.0029675872133832e7 0.0
2.0029675872133832e7 -1.5567577490968453e7 0.0
0.0 0.0 0.0

4.835819168455641e6 1.9790513368821044e7 0.0
1.9790513368821044e7 2.2800741014753252e7 0.0
0.0 0.0 0.0

-6.696747184809854e6 2.4271939909980495e7 0.0
2.4271939909980495e7 374484.41620295076 0.0
0.0 0.0 0.0

-3.1845100018674415e7 2.724966536322474e7 0.0
2.724966536322474e7 -7.028017899652133e6 0.0
0.0 0.0 0.0

-3.279706544183615e6 3.29046463409375e7 0.0
3.29046463409375e7 1.9226446514693466e6 0.0
0.0 0.0 0.0

1.282408878456533e6 2.0341797133702237e7 0.0
2.0341797133702237e7 1.2739461849272074e7 0.0
0.0 0.0 0.0

-1.1881452743913662e6 2.1627112509859625e7 0.0
2.1627112509859625e7 1.717878886497412e7 0.0
0.0 0.0 0.0

1.0206622493615244e6 1.705657569862479e7 0.0
1.705657569862479e7 -2.1691346347977985e7 0.0
0.0 0.0 0.0

1.5084525192867094e6 2.2449339774814826e7 0.0
2.2449339774814826e7 -1.2156302766251098e7 0.0
0.0 0.0 0.0

-7.676406146075342e6 3.380975448904552e6 0.0
3.380975448904552e6 5.3698859846575975e7 0.0
0.0 0.0 0.0

-2.851570667963361e7 4.363023370317677e7 0.0
4.363023370317677e7 7.350309849301344e6 0.0
0.0 0.0 0.0

-1.3054584120766314e7 3.443202632873897e7 0.0
3.443202632873897e7 5.820507827143607e6 0.0
0.0 0.0 0.0

-3.1293997512489323e7 2.964497063826048e7 0.0
2.964497063826048e7 -1.860334864032033e6 0.0
0.0 0.0 0.0

180153.06503744866 2.0643234295893595e7 0.0
2.0643234295893595e7 4.506633019608302e6 0.0
0.0 0.0 0.0

-9.85065218462206e6 2.4998758811083045e7 0.0
2.4998758811083045e7 -1.4511584267214753e6 0.0
0.0 0.0 0.0

-1.854555401035055e7 2.7298826718957167e7 0.0
2.7298826718957167e7 -7.522373839871943e6 0.0
0.0 0.0 0.0

1.6377881581707662e6 7.703915530653889e6 0.0
7.703915530653889e6 -7.561025033238134e6 0.0
0.0 0.0 0.0

3.9192113330826205e6 2.006339264582122e7 0.0
2.006339264582122e7 2.3631090674018357e7 0.0
0.0 0.0 0.0

1.4514986193376537e6 9.58227030181552e6 0.0
9.58227030181552e6 -4.173812511056918e7 0.0
0.0 0.0 0.0

-7.7361349761735555e6 1.5760055713088335e7 0.0
1.5760055713088335e7 3.420410795249461e7 0.0
0.0 0.0 0.0

-6.664439673664819e6 1.402206387656171e6 0.0
1.402206387656171e6 5.691077149916345e7 0.0
0.0 0.0 0.0

2.3304486450549588e6 3.4265573659272e6 0.0
3.4265573659272e6 -5.127927505956208e7 0.0
0.0 0.0 0.0

-3.55808424604201e7 2.983994059802053e7 0.0
2.983994059802053e7 -3.1544288782654516e6 0.0
0.0 0.0 0.0

-7.92756444260302e6 -432671.12027807045 0.0
-432671.12027807045 4.5012388323139176e7 0.0
0.0 0.0 0.0

-8.522690409082897e6 -939262.2104374052 0.0
-939262.2104374052 3.927092996021687e7 0.0
0.0 0.0 0.0

901441.7404434839 7.406764449748026e6 0.0
7.406764449748026e6 -9.768039959125647e6 0.0
0.0 0.0 0.0

-8.825872146262016e6 442023.4287654086 0.0
442023.4287654086 3.759742024839178e7 0.0
0.0 0.0 0.0

9.095622924079338e6 4.558064674912133e7 0.0
4.558064674912133e7 -5.218739429865178e6 0.0
0.0 0.0 0.0

-3.5348319230486862e6 2.125403253686496e7 0.0
2.125403253686496e7 1.6214413308621617e7 0.0
0.0 0.0 0.0

1.109517938489329e6 4.495089452437538e6 0.0
4.495089452437538e6 -6.316333163163221e7 0.0
0.0 0.0 0.0

2.3229206715085264e6 4.0100199980825214e6 0.0
4.0100199980825214e6 -4.014045557842219e7 0.0
0.0 0.0 0.0

-3.06874313368048e6 2.358698719974328e7 0.0
2.358698719974328e7 7.943976778553627e6 0.0
0.0 0.0 0.0

-5.02218772184608e6 3.67209222068341e7 0.0
3.67209222068341e7 3.5008397157841604e6 0.0
0.0 0.0 0.0

6.262312650045363e6 1.1256403830201603e7 0.0
1.1256403830201603e7 2.1766256072265166e6 0.0
0.0 0.0 0.0

1.2333766516917855e7 2.297684690719342e7 0.0
2.297684690719342e7 1.2678089481594931e7 0.0
0.0 0.0 0.0

1.061626657005168e7 2.5229578255640563e7 0.0
2.5229578255640563e7 -3.649203398588286e6 0.0
0.0 0.0 0.0

-8.125711780190138e6 -192159.97574561194 0.0
-192159.97574561194 4.4162509609954156e7 0.0
0.0 0.0 0.0

-1.888967104140245e7 2.4503793134169888e7 0.0
2.4503793134169888e7 -1.7306836254899707e6 0.0
0.0 0.0 0.0

-3.1387159714814876e6 3.2195251732617207e7 0.0
3.2195251732617207e7 1.7950091729264085e6 0.0
0.0 0.0 0.0

4.078714594971435e6 1.9153187591594353e7 0.0
1.9153187591594353e7 5.2598090583055794e7 0.0
0.0 0.0 0.0

1.2666050776660325e7 2.5720590712924797e7 0.0
2.5720590712924797e7 -3.6310426654373473e6 0.0
0.0 0.0 0.0

-4.519270906009118e6 2.2274822023535922e7 0.0
2.2274822023535922e7 -9.770235643421767e6 0.0
0.0 0.0 0.0

-3.4365457319640405e6 2.2424564845533647e7 0.0
2.2424564845533647e7 1.683709756512651e7 0.0
0.0 0.0 0.0

-3.4268878034845563e6 2.1595063336399946e7 0.0
2.1595063336399946e7 -9.79976931765333e6 0.0
0.0 0.0 0.0

-7.313436967218691e7 3.92678869316985e7 0.0
3.92678869316985e7 -7.360265587933484e6 0.0
0.0 0.0 0.0

-4.573797481709044e6 2.0976023780287575e7 0.0
2.0976023780287575e7 1.5790776745147273e7 0.0
0.0 0.0 0.0

-4.0672611144295633e6 2.2743248281036135e7 0.0
2.2743248281036135e7 -8.299972608794967e6 0.0
0.0 0.0 0.0

-3.6600398222305784e6 2.316265430108465e7 0.0
2.316265430108465e7 1.5983673385342494e7 0.0
0.0 0.0 0.0

8.426900556693792e6 2.4828333504009373e7 0.0
2.4828333504009373e7 -4.536395514574001e6 0.0
0.0 0.0 0.0

2.9774088599370625e6 3.075338154686096e6 0.0
3.075338154686096e6 -3.289423644325999e7 0.0
0.0 0.0 0.0

3.468737377252122e6 2.4079424110690575e7 0.0
2.4079424110690575e7 -8.282166279404318e6 0.0
0.0 0.0 0.0

-2.7250699685531877e7 4.363241616714659e7 0.0
4.363241616714659e7 7.109516642949302e6 0.0
0.0 0.0 0.0

-6.572166680789173e6 3.0823912243786987e7 0.0
3.0823912243786987e7 6.2857059652917255e6 0.0
0.0 0.0 0.0

-9.471570409450885e6 -1.9960551786339332e6 0.0
-1.9960551786339332e6 2.6408882129177906e7 0.0
0.0 0.0 0.0

416814.8347083209 2.025535165235067e7 0.0
2.025535165235067e7 -1.7078971676397726e7 0.0
0.0 0.0 0.0

1.451153940669429e7 2.2764473313154932e7 0.0
2.2764473313154932e7 4.578507182852684e6 0.0
0.0 0.0 0.0

-6.6192473602998525e7 3.3582904581874095e7 0.0
3.3582904581874095e7 1.9083546617428288e6 0.0
0.0 0.0 0.0

4.0926202727855314e6 1.8494800839230176e7 0.0
1.8494800839230176e7 1.6403401121545546e7 0.0
0.0 0.0 0.0

773777.3727455642 9.359596357170694e6 0.0
9.359596357170694e6 -4.4046165599278785e7 0.0
0.0 0.0 0.0

656456.4012429379 1.6770638626935875e7 0.0
1.6770638626935875e7 -2.1584028060207866e7 0.0
0.0 0.0 0.0

-2.411147667981617e6 2.2281137673378736e7 0.0
2.2281137673378736e7 1.345163222149892e7 0.0
0.0 0.0 0.0

-7.544086417531204e6 3.702675235532437e7 0.0
3.702675235532437e7 3.247974577245053e6 0.0
0.0 0.0 0.0

910231.6066706744 2.76176673280061e7 0.0
2.76176673280061e7 -5.0938223293034285e6 0.0
0.0 0.0 0.0

2.7704420687209927e6 2.900754840936142e6 0.0
2.900754840936142e6 -3.938242413392484e7 0.0
0.0 0.0 0.0

6.685742001745588e6 1.9460660386497177e7 0.0
1.9460660386497177e7 4.614486310352677e7 0.0
0.0 0.0 0.0

-703101.4041457855 1.8701170165029146e7 0.0
1.8701170165029146e7 -1.8890261467377208e6 0.0
0.0 0.0 0.0

-5.178040097953859e7 3.91081589990825e7 0.0
3.91081589990825e7 1.0555786151636098e7 0.0
0.0 0.0 0.0

-9.773661733800024e6 960521.247256532 0.0
960521.247256532 3.35379865855776e7 0.0
0.0 0.0 0.0

-9.017849564120973e6 673296.1523453484 0.0
673296.1523453484 3.5865889222033046e7 0.0
0.0 0.0 0.0

1.3899616740186544e7 2.267289598024675e7 0.0
2.267289598024675e7 7.285774749243415e6 0.0
0.0 0.0 0.0

-7.878404479943268e6 -535465.071768181 0.0
-535465.071768181 4.392021070443847e7 0.0
0.0 0.0 0.0

3.4488464784785947e6 1.9030153836388614e7 0.0
1.9030153836388614e7 1.596520979690402e7 0.0
0.0 0.0 0.0

8.084085756325848e6 1.9818011897819772e7 0.0
1.9818011897819772e7 3.376342901561727e7 0.0
0.0 0.0 0.0

1.2016827211537408e6 3.438240166368255e7 0.0
3.438240166368255e7 -1.6017312650118265e6 0.0
0.0 0.0 0.0

-6.852942592299268e6 6.414577327429178e6 0.0
6.414577327429178e6 5.873240891577157e7 0.0
0.0 0.0 0.0

-2.841005825019419e6 1.6079443538681583e7 0.0
1.6079443538681583e7 -3.62855482438056e7 0.0
0.0 0.0 0.0

431086.87462099176 8.296306215439008e6 0.0
8.296306215439008e6 -8.501359743825618e6 0.0
0.0 0.0 0.0

-1.9935498054984473e6 2.1811996694209054e7 0.0
2.1811996694209054e7 1.1665583961913498e7 0.0
0.0 0.0 0.0

4.591032839392738e6 1.9959258311337546e7 0.0
1.9959258311337546e7 3.2850508263451133e7 0.0
0.0 0.0 0.0

-8.828222417945106e6 1.1834422462321098e6 0.0
1.1834422462321098e6 4.273995653370764e7 0.0
0.0 0.0 0.0

-7.253564044641532e6 8.914968641124232e6 0.0
8.914968641124232e6 6.724934541556197e6 0.0
0.0 0.0 0.0

-2.4991647858517785e6 2.2784307228583705e7 0.0
2.2784307228583705e7 1.3132079463924018e6 0.0
0.0 0.0 0.0

1.3823629745422327e6 1.2154913862265965e7 0.0
1.2154913862265965e7 1.150689961509195e7 0.0
0.0 0.0 0.0

4.0330970534345135e6 2.1385255565971997e7 0.0
2.1385255565971997e7 -2.0035065230508002e6 0.0
0.0 0.0 0.0

-9.42503999369607e6 503611.51804906083 0.0
503611.51804906083 3.5595735091867015e7 0.0
0.0 0.0 0.0

-6.032075034712926e6 6.329585140509126e6 0.0
6.329585140509126e6 6.24557793442465e7 0.0
0.0 0.0 0.0

3.2895580179310185e6 2.201753904701343e7 0.0
2.201753904701343e7 -888145.454145802 0.0
0.0 0.0 0.0

918429.6629561344 2.0698466523426812e7 0.0
2.0698466523426812e7 -1.4760243154677343e7 0.0
0.0 0.0 0.0

-5.887176776256092e6 6.16144467183006e6 0.0
6.16144467183006e6 6.186559574107211e7 0.0
0.0 0.0 0.0

8.110185178434083e6 2.494119239214276e7 0.0
2.494119239214276e7 -4.395290281416088e6 0.0
0.0 0.0 0.0

3.748404525503749e6 1.913217631240334e7 0.0
1.913217631240334e7 2.4021787478645302e7 0.0
0.0 0.0 0.0

-7.909522188981127e6 1.2884469096210992e7 0.0
1.2884469096210992e7 1.3901470056310726e7 0.0
0.0 0.0 0.0

-5.915195666682975e6 1.2571498657990316e7 0.0
1.2571498657990316e7 7.187135864041777e6 0.0
0.0 0.0 0.0

-1.2581335562413398e7 9.06592960652995e6 0.0
9.06592960652995e6 5.555684356940919e6 0.0
0.0 0.0 0.0

