# vtk DataFile Version 2.0
phase field modeling fracture
ASCII
DATASET UNSTRUCTURED_GRID
POINTS 2538 float
0.0 0.0 0.0
10.0 0.0 0.0
0.0 10.0 0.0
10.0 10.0 0.0
0.0 4.9995 0.0
0.0 5.0005 0.0
5.0 5.0 0.0
0.9416964895726688 0.0 0.0
1.803581725054446 0.0 0.0
2.592419885431098 0.0 0.0
3.314401822861676 0.0 0.0
3.975193910351406 0.0 0.0
4.579982132660152 0.0 0.0
5.133512780936812 0.0 0.0
5.640130319506143 0.0 0.0
6.103810708661955 0.0 0.0
6.528192895506818 0.0 0.0
6.916607540127679 0.0 0.0
7.272102969376355 0.0 0.0
7.597469242948583 0.0 0.0
7.895259826292669 0.0 0.0
8.167811885738017 0.0 0.0
8.417264413845215 0.0 0.0
8.645575169389538 0.0 0.0
8.854535961159101 0.0 0.0
9.045786767735546 0.0 0.0
9.220828555767493 0.0 0.0
9.38103509633881 0.0 0.0
9.527663687265145 0.0 0.0
9.661865124984566 0.0 0.0
9.784692609918062 0.0 0.0
9.897110148790482 0.0 0.0
10.0 0.09999999999992584 0.0
10.0 0.199999999999856 0.0
10.0 0.2999999999997771 0.0
10.0 0.3999999999996677 0.0
10.0 0.4999999999995511 0.0
10.0 0.5999999999994683 0.0
10.0 0.6999999999993983 0.0
10.0 0.7999999999993286 0.0
10.0 0.8999999999992587 0.0
10.0 0.9999999999991888 0.0
10.0 1.099999999999119 0.0
10.0 1.199999999999033 0.0
10.0 1.299999999998852 0.0
10.0 1.399999999998576 0.0
10.0 1.499999999998284 0.0
10.0 1.599999999997992 0.0
10.0 1.6999999999977 0.0
10.0 1.799999999997408 0.0
10.0 1.899999999997116 0.0
10.0 1.999999999996825 0.0
10.0 2.099999999996533 0.0
10.0 2.199999999996241 0.0
10.0 2.299999999995949 0.0
10.0 2.399999999995657 0.0
10.0 2.499999999995365 0.0
10.0 2.599999999995073 0.0
10.0 2.699999999994782 0.0
10.0 2.79999999999449 0.0
10.0 2.899999999994198 0.0
10.0 2.999999999993906 0.0
10.0 3.099999999993614 0.0
10.0 3.199999999993322 0.0
10.0 3.299999999993029 0.0
10.0 3.399999999992738 0.0
10.0 3.499999999992446 0.0
10.0 3.599999999992154 0.0
10.0 3.699999999991863 0.0
10.0 3.799999999991571 0.0
10.0 3.899999999991278 0.0
10.0 3.999999999991022 0.0
10.0 4.099999999991035 0.0
10.0 4.199999999991187 0.0
10.0 4.299999999991338 0.0
10.0 4.399999999991491 0.0
10.0 4.499999999991642 0.0
10.0 4.599999999991795 0.0
10.0 4.699999999991947 0.0
10.0 4.799999999992099 0.0
10.0 4.89999999999225 0.0
10.0 4.999999999992403 0.0
10.0 5.099999999992555 0.0
10.0 5.199999999992706 0.0
10.0 5.299999999992858 0.0
10.0 5.39999999999301 0.0
10.0 5.499999999993161 0.0
10.0 5.599999999993313 0.0
10.0 5.699999999993466 0.0
10.0 5.799999999993618 0.0
10.0 5.899999999993771 0.0
10.0 5.999999999993922 0.0
10.0 6.099999999994074 0.0
10.0 6.199999999994227 0.0
10.0 6.299999999994378 0.0
10.0 6.39999999999453 0.0
10.0 6.499999999994682 0.0
10.0 6.599999999994833 0.0
10.0 6.699999999994986 0.0
10.0 6.799999999995138 0.0
10.0 6.899999999995289 0.0
10.0 6.999999999995442 0.0
10.0 7.099999999995594 0.0
10.0 7.199999999995747 0.0
10.0 7.299999999995897 0.0
10.0 7.39999999999605 0.0
10.0 7.499999999996202 0.0
10.0 7.599999999996353 0.0
10.0 7.699999999996505 0.0
10.0 7.799999999996658 0.0
10.0 7.899999999996808 0.0
10.0 7.999999999996962 0.0
10.0 8.099999999997113 0.0
10.0 8.199999999997265 0.0
10.0 8.299999999997418 0.0
10.0 8.399999999997569 0.0
10.0 8.499999999997721 0.0
10.0 8.599999999997873 0.0
10.0 8.699999999998024 0.0
10.0 8.799999999998176 0.0
10.0 8.899999999998329 0.0
10.0 8.99999999999848 0.0
10.0 9.099999999998634 0.0
10.0 9.199999999998786 0.0
10.0 9.299999999998937 0.0
10.0 9.399999999999089 0.0
10.0 9.499999999999241 0.0
10.0 9.599999999999392 0.0
10.0 9.699999999999545 0.0
10.0 9.799999999999697 0.0
10.0 9.899999999999848 0.0
9.897110148790565 10.0 0.0
9.784692609918244 10.0 0.0
9.66186512498486 10.0 0.0
9.527663687265571 10.0 0.0
9.381035096339392 10.0 0.0
9.220828555768257 10.0 0.0
9.045786767736512 10.0 0.0
8.854535961160305 10.0 0.0
8.645575169391027 10.0 0.0
8.417264413847017 10.0 0.0
8.167811885740178 10.0 0.0
7.895259826295246 10.0 0.0
7.597469242951631 10.0 0.0
7.272102969379938 10.0 0.0
6.916607540131873 10.0 0.0
6.528192895511704 10.0 0.0
6.103810708667616 10.0 0.0
5.640130319512691 10.0 0.0
5.13351278094435 10.0 0.0
4.579982132668816 10.0 0.0
3.975193910361222 10.0 0.0
3.314401822869852 10.0 0.0
2.592419885437257 10.0 0.0
1.803581725058137 10.0 0.0
0.9416964895740705 10.0 0.0
0.0 9.00010000000243 0.0
0.0 8.000200000005481 0.0
0.0 7.000300000005135 0.0
0.0 6.000400000002569 0.0
0.901790731451151 5.000409820926855 0.0
1.657200899774397 5.000334279910023 0.0
2.289991063707192 5.000271000893629 0.0
2.820065163538221 5.000217993483646 0.0
3.264096435579811 5.000173590356442 0.0
3.636051481595835 5.00013639485184 0.0
3.947629914072366 5.000105237008593 0.0
4.208632181002628 5.0000791367819 0.0
4.427267949625672 5.000057273205037 0.0
4.610414277633563 5.000038958572237 0.0
4.763831845154243 5.000023616815485 0.0
4.892346298799659 5.00001076537012 0.0
4.892346298799748 4.99998923462988 0.0
4.763831845154455 4.999976383184515 0.0
4.610414277633943 4.999961041427763 0.0
4.427267949626277 4.999942726794963 0.0
4.208632181003523 4.9999208632181 0.0
3.94762991407365 4.999894762991407 0.0
3.636051481597624 4.99986360514816 0.0
3.264096435582253 4.999826409643559 0.0
2.820065163541503 4.999782006516354 0.0
2.289991063711534 4.999728999106371 0.0
1.657200899778495 4.999665720089978 0.0
0.9017907314530094 4.999590179073145 0.0
0.0 3.999600000002013 0.0
0.0 2.999700000005187 0.0
0.0 1.99980000000512 0.0
0.0 0.9999000000025537 0.0
9.897889398521345 2.93573355845387 0.0
9.906568249974548 7.060009441434234 0.0
9.913122631074113 3.64016132281653 0.0
9.922462129543863 6.354535290629151 0.0
9.917693659967533 4.354211663134567 0.0
9.909873057440208 5.637584487339942 0.0
9.914183254994697 4.950672966925282 0.0
9.913885043715895 7.666887930262611 0.0
9.91009668007573 2.351889069770817 0.0
9.905135696074536 8.138152454502785 0.0
9.913397459621809 1.849999999997262 0.0
7.099302372137626 0.297750452375005 0.0
7.095143729410097 9.700359990366296 0.0
4.942912558701401 5.095838627899509 0.0
4.315009232304429 5.165022115481685 0.0
4.946182472483878 4.906763777264103 0.0
4.317967462990024 4.825955043772673 0.0
9.916390871492647 8.64999999999792 0.0
9.921504649680616 1.368376469890358 0.0
8.292538149791614 0.206877570318844 0.0
8.292538149793597 9.793122429681448 0.0
5.884594439766573 9.587645267048616 0.0
5.794826292691579 0.3794853783929359 0.0
9.913397459621425 9.049999999998557 0.0
9.908526577714177 0.9568239351922434 0.0
3.456851160380649 5.315740054130451 0.0
3.457889657868442 4.707121019609468 0.0
8.945214200703926 0.1503383337970344 0.0
8.950161364448409 9.8413906539257 0.0
9.913862335499305 4.055887885208452 0.0
9.916697353372683 4.650158482607802 0.0
9.919076340414442 6.049999999994006 0.0
9.906994308667635 5.25749687748192 0.0
9.917490342358025 6.655979201891897 0.0
9.915757520293784 7.343848891656911 0.0
9.910049507471042 3.363474386285078 0.0
9.914471988502868 2.647400064832979 0.0
9.91474124160965 9.337490423485129 0.0
9.916971008170838 0.6499999999994355 0.0
4.307157269264427 9.509674045029644 0.0
4.331527375865619 0.4401616696422582 0.0
9.45434939180249 9.878397030523757 0.0
9.457696120412969 0.1270877537061785 0.0
2.555070293622606 5.422044496190925 0.0
2.566232917480916 4.608001224030952 0.0
3.026511860837692 9.332320638257093 0.0
2.945561971800619 0.5895662714727601 0.0
7.7395404387124 0.2511088946967771 0.0
7.736379255744154 9.745848826372828 0.0
4.687135269408529 5.122111433928926 0.0
4.688420821504113 4.871895064967488 0.0
9.910554884115975 0.3448356354522978 0.0
9.911230082250466 9.65764729394159 0.0
9.921953841410854 6.851023993342036 0.0
9.912065178606017 5.448170483544033 0.0
9.911660025326261 3.861846960030188 0.0
9.914847467973438 3.14501593945607 0.0
9.913397459621425 5.849999999993703 0.0
9.913397459621425 7.849999999996735 0.0
9.906916878988277 2.15455769998631 0.0
9.913397459621425 8.349999999997479 0.0
9.909472363117661 1.640528221515488 0.0
9.913987325695956 1.152857110636247 0.0
9.913397459621425 8.849999999998241 0.0
0.9100099990995943 2.614215977520411 0.0
0.8395284981715456 7.451196254860987 0.0
9.723278867451556 9.898135916635193 0.0
9.723316350887044 0.09841820909386662 0.0
1.385819164827588 4.454539963646463 0.0
1.338343629665047 5.523111536005823 0.0
1.377179700550677 0.6809168304959698 0.0
1.418060461092743 9.285896715136046 0.0
9.91268220142518 0.1457914080939694 0.0
9.906737126737994 9.845745933882352 0.0
0.7108351382691361 6.537941170074089 0.0
1.527735020267026 6.915620208855231 0.0
1.630993885659103 7.838271825205868 0.0
2.232760943566823 7.370850737296832 0.0
2.243414218068206 6.688299277952821 0.0
2.779655053105118 7.021588754814074 0.0
2.80227799359795 7.632420170547022 0.0
3.282022065908813 7.305859666021318 0.0
3.327597298795347 7.857554136825748 0.0
3.743210251018715 7.549183328204379 0.0
3.716353232200752 7.062036086888612 0.0
4.111978858674101 7.27497101169417 0.0
4.104192177581432 6.879858986267289 0.0
4.436230765617037 7.045693351607117 0.0
4.430360014817357 6.703971783962796 0.0
4.732390145036301 6.849841042423394 0.0
5.056161327708878 5.095276573498806 0.0
5.111586796021131 4.999081142133581 0.0
5.169267363407189 5.09444870412406 0.0
5.223795108752053 4.996986220359468 0.0
5.281480803887719 5.092780870372803 0.0
5.335670761900611 4.994887492556936 0.0
5.393485214772442 5.090486192743301 0.0
5.447323082877892 4.992601527033996 0.0
5.505243219343024 5.087953380710069 0.0
5.558739102026105 4.990287787962959 0.0
5.616491581184779 5.085335255235766 0.0
5.669852346908056 4.9879269227514 0.0
5.727502713908907 5.082679981817038 0.0
5.780766004135139 4.988313988715834 0.0
5.838244881129535 5.080480568766611 0.0
5.891357695677371 4.986433849408193 0.0
5.948696036767613 5.077969900389505 0.0
6.001601341641615 4.981313698556656 0.0
6.058851024265095 5.074871552128682 0.0
6.111614020704875 4.978360695880202 0.0
6.168801161530775 5.072044953270978 0.0
6.221368818778567 4.975825765213497 0.0
6.278268309066882 5.066182320461055 0.0
6.330814273567539 4.972837984645718 0.0
6.387565032421376 5.062889771971895 0.0
6.437476667631405 4.971693683589553 0.0
6.496181111585419 5.060210690175857 0.0
6.539454812256072 4.964658165361536 0.0
6.604198202576491 5.056387520850258 0.0
6.648506025747331 4.939374587506267 0.0
6.714026758992516 5.05873885840664 0.0
6.764418045981209 4.959246676066148 0.0
6.8219334571197 5.055299567406268 0.0
6.873708540948134 4.960426349093742 0.0
6.930181428849307 5.053461390218819 0.0
6.981893615341967 4.96435459462232 0.0
7.037791764774784 5.051219747103022 0.0
7.090993561518408 4.96392420322464 0.0
5.504417457283294 4.900897920552702 0.0
7.145434864123609 5.048960634292441 0.0
6.054532384032612 4.883956083938546 0.0
6.738027949040956 4.850032323068674 0.0
7.198432914526514 4.956325226333323 0.0
7.252637187936749 5.046012229327236 0.0
7.30926729605109 4.948903216650376 0.0
7.248106275544042 4.860306312845646 0.0
7.363100274863074 4.849952416808486 0.0
7.365733472701664 5.039519554615095 0.0
7.308483293090149 5.137557220352172 0.0
6.768399513646964 5.145609705119954 0.0
7.422800035311104 5.132251445551834 0.0
7.358273518796229 5.235980394389298 0.0
7.480824155801127 5.227946127939927 0.0
7.302193400058628 4.761917474298247 0.0
7.413570879789824 4.754555110721153 0.0
7.414392998903179 5.334729114426734 0.0
7.352769630272076 4.660405502266205 0.0
7.467556835255426 4.658352623795039 0.0
7.536246869015014 5.328986926716081 0.0
7.478865844607288 5.432598185493195 0.0
7.406396991826072 4.556956233957538 0.0
7.523581002009154 4.552005631348623 0.0
7.597792398573263 5.429506106314967 0.0
7.540511043402902 5.53619421580439 0.0
7.46214474876342 4.452580994318881 0.0
7.5852185078634 4.446021810672608 0.0
7.663329342323453 5.533453399066901 0.0
7.603478967594521 5.643227430483237 0.0
7.513450346818673 4.347641323140766 0.0
7.640744971722214 4.333388343316237 0.0
7.727671715775243 5.642390483050116 0.0
7.667774597993788 5.753188858425915 0.0
7.570065256728661 4.230515669344811 0.0
7.702881065467917 4.218307808529532 0.0
7.638288257073729 4.107994211855027 0.0
7.493362356301017 4.120843902105771 0.0
7.779018500630071 5.521233457321821 0.0
7.794641287388929 5.752364621610818 0.0
7.73369774483611 5.865894287356292 0.0
7.600834531784728 5.867752110500446 0.0
6.233038857278689 5.15645045634683 0.0
7.669727996028819 5.985665563643058 0.0
7.528582452554481 5.987393423295551 0.0
7.598722674572824 6.11001923494443 0.0
7.778305000222867 4.104318908265786 0.0
7.704329019832056 3.987744174608892 0.0
7.838453459801382 4.213322728668484 0.0
7.864495721576461 5.862306066517277 0.0
7.846552353360407 3.98481756181946 0.0
7.769730409703277 3.86544808681145 0.0
5.785249360396857 5.177248808588045 0.0
7.908837087876153 3.861484036275285 0.0
7.834824606222196 3.740586825753288 0.0
7.97685993406276 3.736209527152902 0.0
7.89665098770825 3.615501862931453 0.0
7.753228010315262 3.617800245018972 0.0
7.826063013090472 3.483173292579822 0.0
7.66789744383048 3.48859328808356 0.0
8.042515855796823 3.595394268381807 0.0
7.75200750488492 3.341279823834038 0.0
7.582870318332553 3.346584916806707 0.0
8.120807847415062 3.732493963388337 0.0
8.189783970303546 3.61159165475499 0.0
7.657801000286734 3.200439907646711 0.0
7.486781956172036 3.201402473247712 0.0
7.452595103886905 6.11418616185016 0.0
7.527098033550077 6.243191052852112 0.0
8.260502906807751 3.728437634721859 0.0
8.327629317451398 3.608173631356984 0.0
7.372763970891452 6.247552889754036 0.0
7.456170570815929 6.384992468962936 0.0
7.621837793616884 6.376077080857113 0.0
7.548039512904141 6.520750676893614 0.0
7.717475944451644 6.514856553988943 0.0
7.636658166268699 6.661648164052906 0.0
7.807468267259438 6.664076174524672 0.0
7.718022764310774 6.817938967122142 0.0
7.887785766941087 6.807440365887151 0.0
7.545993589083432 6.815070675854734 0.0
7.809874785067209 6.967537287475282 0.0
7.975643812145337 6.948729406725126 0.0
8.396477808021062 3.725446935061211 0.0
7.565651643157136 3.044354774611752 0.0
7.384328725505071 3.043048915147076 0.0
8.056405351948353 6.802790889114673 0.0
8.14128318237188 6.940027831915737 0.0
8.064621760266059 7.086348792208953 0.0
8.225003598857908 6.805225152373254 0.0
8.463085452993242 3.606998510553562 0.0
8.230426869720718 7.079551841000411 0.0
8.155262284174286 7.224761758176069 0.0
8.530696760758996 3.721683301125054 0.0
8.596669886994064 3.604516769862316 0.0
8.528531058025589 3.490411531312337 0.0
8.320451770844851 7.218191678954744 0.0
8.245273958732774 7.363444652121271 0.0
8.66324687389452 3.717094013035765 0.0
8.600103125209296 3.831913857228569 0.0
8.662131102573216 3.488322280861316 0.0
8.594166125380536 3.374071873435548 0.0
8.411074336066186 7.353871649576861 0.0
8.339644223432472 7.505172120620427 0.0
8.165883718619623 7.513159193685373 0.0
8.483453820080417 7.2082285366806 0.0
8.261200365730348 7.657400951288149 0.0
8.081570576666843 7.670933304838066 0.0
7.471613195794025 2.872548423100142 0.0
7.268733678357991 2.881209199257603 0.0
7.184255506995786 3.084448584600423 0.0
7.065899603697895 2.883902449336828 0.0
6.960163891183182 3.081014635802978 0.0
6.847612128388715 2.885646860602812 0.0
6.739800729737967 3.078895733381448 0.0
8.729373804596847 3.827689165637365 0.0
8.668550856907444 3.938702277545298 0.0
8.72770789162863 3.371798381178293 0.0
8.659764090070603 3.257493349874974 0.0
8.436453928793245 7.648724489148887 0.0
6.619080287792762 2.90880017416788 0.0
6.511740956842646 3.09340654756684 0.0
8.793527829963288 3.935174834810256 0.0
8.736430500996828 4.042719556852617 0.0
7.631260330584174 4.565300771328012 0.0
8.359058396840432 7.801678182761817 0.0
5.339436215072359 5.184870243702279 0.0
4.994031736761993 5.193306795607908 0.0
6.383387675268097 4.87760645722207 0.0
7.29117392392962 6.382172868329505 0.0
6.378196825372041 2.907113079755629 0.0
6.269817199014261 3.12412150658573 0.0
8.793149127377946 3.255386294257182 0.0
8.725774239201558 3.141596687892195 0.0
8.857434600673502 4.041295940541356 0.0
8.802868937128341 4.1471119953668 0.0
8.532045262478793 7.7905977476835 0.0
7.364542641624493 2.699128473342751 0.0
7.571677611088925 2.695732556686516 0.0
6.723058333614999 2.672341359410618 0.0
8.456744924757372 7.94483904450548 0.0
6.140831279784704 2.921247401137864 0.0
6.02419219050745 3.14358702955763 0.0
8.916255604212301 3.934279868822481 0.0
8.859287250884009 3.140226640574265 0.0
8.791092798057303 3.025929352146465 0.0
7.210445465986021 6.245773134960393 0.0
7.120884161792869 6.385155584680196 0.0
7.036931702064287 6.240721609143972 0.0
6.943722280007011 6.3869279517155 0.0
8.920094519678617 4.144837222494242 0.0
8.864374107136287 4.250930406527029 0.0
7.347569838739255 4.463467417508182 0.0
5.90383431757064 2.935113219563906 0.0
5.783476009580765 3.156456199832474 0.0
8.626013191558314 7.935092223505354 0.0
8.687240186957197 7.796697889991163 0.0
5.642059327424706 2.903018174330269 0.0
5.52647853955939 3.162549070310043 0.0
8.555300051897738 8.086169516016518 0.0
8.405624441178524 8.083972416481254 0.0
5.374124307190728 2.945480555950917 0.0
8.935805220807357 3.249260758206028 0.0
8.981625171409894 4.247375537584228 0.0
8.924725364486765 4.352101286657735 0.0
8.807208588134106 4.356163101450244 0.0
8.868277832430604 4.45657124153171 0.0
8.75099635287701 4.460644845248524 0.0
8.812385950597063 4.560891222623518 0.0
8.693833206943118 4.564602972998703 0.0
8.756474732548273 4.665720853686476 0.0
8.63721608225855 4.669394550615355 0.0
8.700108119351134 4.770682016274914 0.0
8.81920502916846 4.767536120893284 0.0
8.76355311338807 4.871451945248518 0.0
8.881442328033694 4.868382238751069 0.0
8.826433523510634 4.97132552240372 0.0
8.943387824985514 4.967694248194483 0.0
8.888718468126953 5.071044784833541 0.0
8.580377663835254 4.774669738817985 0.0
8.770572242937233 5.073880380431421 0.0
8.832915096600454 5.174518948293615 0.0
8.952224483821848 5.170970838320107 0.0
8.897282771771884 5.275476392171722 0.0
7.463928467290875 2.513944501591933 0.0
7.675935950092034 2.509420347143072 0.0
8.924252417741767 3.024418701372628 0.0
8.857265893102921 2.911213535286156 0.0
8.776981063213334 5.27944309004916 0.0
8.840710910770163 5.380165700477552 0.0
8.960876896785969 5.375521424256389 0.0
8.904555918255223 5.482125846038813 0.0
7.567193097677677 2.32750151280277 0.0
7.780880844888839 2.323064027160363 0.0
6.851602118390116 6.234522818184622 0.0
6.758680682687229 6.389359516748128 0.0
6.66345977321418 6.231254850996584 0.0
8.715764716958308 8.079994249772627 0.0
8.65189989696114 8.227534663647639 0.0
9.042229096541828 4.348551764001607 0.0
6.436774206993324 3.316782326998922 0.0
7.590527613340588 5.22651784724799 0.0
9.024366884701616 5.476726561488805 0.0
8.968734351641839 5.583879050892151 0.0
8.845941080047659 5.586406316932274 0.0
8.909881305857882 5.690482454668167 0.0
7.348726871578975 5.44047403999932 0.0
6.567070253986433 6.398115757512583 0.0
6.697077150072261 6.553426749743366 0.0
5.252377383990728 3.187782967482479 0.0
8.988440431820699 2.908621158637298 0.0
8.922541972760119 2.796420836075996 0.0
6.466806010659505 6.229115583261771 0.0
9.033851153821296 5.686506775615425 0.0
8.978340519963718 5.795772485582058 0.0
8.85111463793018 5.798672910287243 0.0
8.922171984280597 5.907237880910408 0.0
8.795190680908043 5.911854068712683 0.0
8.864373398892472 6.019728357749566 0.0
8.991346995940626 6.014539153309398 0.0
8.93374019140187 6.12698887312768 0.0
5.095192648098848 2.952353430985476 0.0
7.672651464908932 2.141715359830917 0.0
7.886266921042761 2.136211284120189 0.0
9.098474286589756 4.245971410451114 0.0
8.813172564986438 8.216887361735234 0.0
8.74802978243154 8.366104673219047 0.0
9.059985162956899 6.120982589539211 0.0
9.00342813739303 6.233245043891739 0.0
4.961413514304496 3.214209167276753 0.0
9.05248113004685 2.794651022570942 0.0
8.986028039118027 2.681341972594222 0.0
5.671890458441996 3.377122473800023 0.0
4.755829262593116 7.184480462344647 0.0
9.158258644940048 4.34465968221255 0.0
4.799687186662534 2.961354824469195 0.0
6.030554747591715 2.726787502996874 0.0
8.938327180212585 8.34758372042188 0.0
8.847392320655468 8.503370672816716 0.0
8.67342124373679 8.518117686968314 0.0
5.234423106934083 2.694925204361751 0.0
8.964923046453565 8.185313058214797 0.0
7.456650986668838 2.134076476407834 0.0
9.111732084821366 2.897226832609386 0.0
6.368055837513985 6.402805870976705 0.0
6.265629899005033 6.226581076317183 0.0
8.736327196352686 6.026404178766982 0.0
9.117473097358854 2.67987006607594 0.0
9.052137415465204 2.565428515518978 0.0
7.781001557847192 1.955874236406257 0.0
7.992134447300669 1.949184538864554 0.0
8.593074792993455 3.143159483125708 0.0
9.1291360203536 6.226877897052981 0.0
9.072154326613617 6.338696745620542 0.0
8.916532550320525 2.566986282201109 0.0
8.984021113721658 2.449252898983242 0.0
9.178032243215632 6.120533546076094 0.0
9.213703592343162 4.244823670856978 0.0
9.11972142641474 2.449071238668887 0.0
9.052853896812186 2.33190758581705 0.0
8.635035926402708 4.462329956179506 0.0
8.773614475966344 8.657865377672689 0.0
8.596400917257634 8.67759750279447 0.0
8.942023339420883 8.644678093589654 0.0
9.19471670675691 6.33096438039349 0.0
9.138460613363325 6.443043552768813 0.0
8.66620319432524 5.916297234509582 0.0
8.606669825267202 6.032658196729024 0.0
9.27222540210304 4.341341907533128 0.0
9.013782808177437 6.451040569407859 0.0
9.08360982569773 6.55729980456602 0.0
7.885622149776354 1.768093045890686 0.0
8.095672144455353 1.768790621151345 0.0
9.208772072925791 6.549717411809656 0.0
9.154272208194383 6.662613503537815 0.0
9.187669783927937 2.334640996932141 0.0
9.122379015831417 2.215832190697178 0.0
6.164077036161143 6.404611236428829 0.0
6.062367614988677 6.224307160647549 0.0
8.987075041759633 2.211477580983978 0.0
9.056972755801603 2.093573581203428 0.0
9.194557288902232 2.096029761809264 0.0
9.131223008370409 1.972713028695079 0.0
8.87381302587057 8.795793668920256 0.0
9.039169086943392 8.781606667490083 0.0
4.662813350519927 3.228118291851354 0.0
4.474181267994617 2.945703616023359 0.0
6.562627723301209 6.075544382232434 0.0
9.326886053211574 4.243083624343211 0.0
9.280374192897945 6.656072830232892 0.0
9.224718905178564 6.766740750539347 0.0
4.703284910421452 6.528907865005451 0.0
8.955136474970331 6.565989985649191 0.0
8.998148826814893 4.865480736169776 0.0
8.99429836796776 1.965972383552685 0.0
9.065669391141741 1.847195105148808 0.0
9.207236162050343 1.853010386995843 0.0
9.143218073349985 1.725630086781897 0.0
8.998867447699345 1.719378449325465 0.0
9.082595782768397 1.592017827427701 0.0
8.92804562738841 1.585238202229766 0.0
9.01637794607019 1.453847302675876 0.0
8.854253119154375 1.446306868730686 0.0
8.941620273019874 1.320083886766936 0.0
8.775393064215876 1.308487027359826 0.0
9.102170347200483 1.324733726345249 0.0
9.013857060361985 1.178821526410403 0.0
7.991031819452564 1.587689878441685 0.0
7.767218744640202 1.595993197647291 0.0
9.191539171305216 1.194087248761656 0.0
9.123965901037613 1.057102462689568 0.0
4.853921953226772 3.470213116851758 0.0
7.496563223334782 3.470157221608763 0.0
8.536691379028115 5.921845852206257 0.0
8.475496498707471 6.037633662010236 0.0
7.978668526342969 2.307231488316941 0.0
9.384721922092124 4.337357165846226 0.0
9.331039180200886 4.435926256444196 0.0
8.546261775564837 6.150267290476958 0.0
8.411727261785726 6.155319300628062 0.0
8.972203609044218 8.930944433074036 0.0
9.133480321468399 8.90955269607895 0.0
9.197778815538276 8.768743880012563 0.0
6.162231825784922 6.05277753404107 0.0
5.962111081146334 6.046949845237622 0.0
9.268727788642101 4.146883230687689 0.0
9.380694211527906 4.144811697563401 0.0
9.323823335199954 4.049557759546529 0.0
9.283324894520613 1.736313094621396 0.0
5.858151623803662 6.22041808248046 0.0
5.759668475561988 6.038806123495502 0.0
7.836860473863919 3.191674397465999 0.0
9.348591928839294 6.75855034547469 0.0
9.293979592221298 6.870213350675044 0.0
9.170543172728557 6.879819332293818 0.0
9.240028263813034 6.983394994050525 0.0
4.347372565145963 3.312731475520695 0.0
4.114183445909965 2.96879678229065 0.0
8.616264880152233 4.042035981070631 0.0
9.403174760076901 6.650407069150438 0.0
4.173860112179449 7.723461240865885 0.0
9.365302975518428 6.973476802087294 0.0
9.312420275675276 7.088420778208979 0.0
9.184876614539778 7.0978133687822 0.0
9.25921281729617 7.204979813006656 0.0
9.12816413817609 7.21569648263899 0.0
9.203944409919862 7.322703303071253 0.0
9.334311975087337 7.311477957762272 0.0
9.280415785210538 7.428795599957155 0.0
9.274060219641907 1.066603180421249 0.0
9.211820491509728 0.9316562593680151 0.0
9.050684011148748 0.9017681241401576 0.0
9.441953732403995 4.432092590771756 0.0
9.394725873909666 4.526051349391942 0.0
9.43453556160865 4.048003950509361 0.0
9.378043599351757 3.952631412328806 0.0
9.289691247910705 8.890746792319852 0.0
9.228148443138926 9.030109127390128 0.0
4.440757888677695 6.389562448928118 0.0
4.689874463978985 6.239329075084555 0.0
4.291519540095677 2.622920583112654 0.0
3.886073352912894 2.632778677714434 0.0
9.344015622314338 1.202401041544343 0.0
8.193292196814806 3.849649660906171 0.0
6.960946604527747 6.07044529864598 0.0
9.347708267319902 8.756364147482309 0.0
6.826423138602714 3.261415861395883 0.0
6.06309517882478 5.884563187328262 0.0
9.4085057714426 7.414123963607981 0.0
9.356416821537886 7.532359471354527 0.0
5.042074134251055 6.938947182785697 0.0
5.063988238156824 7.311205832605263 0.0
3.946666851334923 3.30681624613374 0.0
8.189857914071878 1.939951128540477 0.0
7.880690277686857 1.38928908049477 0.0
7.63766396748483 1.399736360041063 0.0
9.345004233592562 1.857695941115052 0.0
9.440465164139875 7.085860901905448 0.0
7.918332480761888 5.744468010879592 0.0
9.08007135068879 5.372457017512481 0.0
8.78639561093144 3.718391405525285 0.0
9.356843485085705 0.9414458825132457 0.0
9.29705128845331 0.8103081541678832 0.0
9.251825423225316 2.451701826351773 0.0
8.483895366325516 6.270717564685176 0.0
8.346386886249478 6.275973306650227 0.0
9.493299170161215 4.138582531223591 0.0
5.321115649032961 7.117073603021904 0.0
5.354076009109965 7.436189411362466 0.0
5.597984079819928 7.254284331170681 0.0
5.644042313435943 7.564172740776336 0.0
5.383963016128051 7.753854027984002 0.0
5.681168258142109 7.880444993178456 0.0
5.935548099874979 7.687258900444162 0.0
5.979508404301389 7.994332725561488 0.0
6.21936843555201 7.802335560754011 0.0
6.267092590637372 8.104873033518185 0.0
6.498845418385807 7.917606504106031 0.0
6.544600005636809 8.209910620392591 0.0
6.77336078689533 8.027284686082275 0.0
6.814840179123049 8.311778392637773 0.0
6.721304148677048 7.737863326704131 0.0
7.031320924898797 8.1335673274533 0.0
7.077388928622946 8.403901803728003 0.0
5.417471987089176 8.090112295667405 0.0
8.845427688507666 2.446352368201366 0.0
9.318512319918124 2.339233739859646 0.0
9.380241452597096 2.451895615249572 0.0
7.283805558009199 8.237518806365102 0.0
7.329200330160381 8.497045124353782 0.0
7.233272584416691 7.991590926766813 0.0
9.142592248414191 5.471315142785471 0.0
9.196303265878848 5.36738298742727 0.0
9.25795832955665 5.465260877691205 0.0
9.310581303233182 5.36341558704714 0.0
9.371094700882272 5.459458038195667 0.0
9.422767107822985 5.360687090455724 0.0
9.36402660964156 5.264821436196721 0.0
9.474220736978928 5.262802348886269 0.0
9.41680330511366 5.169477108906666 0.0
5.168675939028436 4.895496152382537 0.0
9.482591449057548 5.454699312257291 0.0
9.431567605310825 5.552723344040521 0.0
7.531449703396948 4.741663470323411 0.0
8.517293123442691 4.672601123164268 0.0
8.459978676626639 4.778466809901586 0.0
8.396595115309985 4.67568709170855 0.0
8.338966609235166 4.782101664607259 0.0
8.275355646032752 4.678829956447008 0.0
8.217675280223542 4.785699596769931 0.0
8.28149024865807 4.888803783902183 0.0
8.16019781596952 4.892696417098926 0.0
8.22433278506531 4.995725219088695 0.0
8.102825704443651 4.999629142625341 0.0
8.166887930010795 5.098242831115916 0.0
8.034904900788316 4.896825406879729 0.0
8.15353539905931 4.682103688185489 0.0
8.211891449058882 4.574219757233394 0.0
8.290305306104333 5.094007100958221 0.0
8.225684228618732 5.201525567655179 0.0
9.444618942559746 2.343141375196729 0.0
6.929446520625337 4.868116916840016 0.0
5.737810725167649 4.893891407574175 0.0
8.720389971487277 5.38508368411851 0.0
8.805734920311323 8.951818172412821 0.0
8.905272694453211 9.083303226359831 0.0
6.006155038818204 5.171375272745409 0.0
6.431496448228514 5.152985998213245 0.0
9.052675024457304 7.106590131831544 0.0
7.740007013494393 6.09727525827826 0.0
9.375852260355511 9.013078430361404 0.0
9.32035844773103 9.14584923943073 0.0
6.989707597683965 5.146377438798643 0.0
9.488190206836386 3.951168069367155 0.0
9.432429152094464 3.855725756072153 0.0
5.568386402814275 5.185723849666124 0.0
9.525561551078322 5.166162126187324 0.0
9.465026391994275 5.072601962964018 0.0
9.320357339516937 3.857795423728873 0.0
9.375955927831914 3.759314274140895 0.0
9.261783786753899 3.761412578759438 0.0
9.31820665563318 3.661845422072752 0.0
9.431798673168924 3.660830894813109 0.0
9.374584413615914 3.563138564686839 0.0
9.48759661134647 3.562294297118573 0.0
9.431339678707085 3.464016717943268 0.0
9.417896212887529 1.746970678437863 0.0
8.731705369070733 9.110902182838881 0.0
5.652297951447118 6.21188565774667 0.0
5.569122518069258 6.024400786163834 0.0
8.257007204149394 3.505875091031567 0.0
8.717428603143034 2.925525757227976 0.0
6.882852832747376 8.57686572931064 0.0
6.337330066435714 8.416819098143066 0.0
9.50188906539997 4.521022403818629 0.0
9.453500859905136 4.617181635748691 0.0
9.46806769570129 6.749352117850711 0.0
8.836822104875719 1.72282859852854 0.0
7.481071063421426 5.64593758994851 0.0
5.668814988976305 5.86611128457842 0.0
5.487644760735084 5.847591822776978 0.0
8.993992818065195 7.228173913870249 0.0
7.98322414937693 7.229980191466666 0.0
9.22810751684646 7.54864871395298 0.0
9.304103360459063 7.654622011545798 0.0
9.432787371848761 7.633691049023619 0.0
9.382619818023882 7.759136995934441 0.0
7.239096822516492 4.679179578301165 0.0
9.47692479956498 1.861231395362419 0.0
8.041243110813022 5.095895152648969 0.0
6.190208781188077 7.509864122823853 0.0
9.283062812782122 4.549418667685757 0.0
9.503847665760087 2.450295046295932 0.0
9.443345385250678 2.557904120404248 0.0
9.52009568463353 6.644015937008899 0.0
9.203119005973903 3.662458522935253 0.0
8.406198651282708 5.92630414760378 0.0
8.467263597743843 5.811987729136874 0.0
9.461423029059445 9.128120577356565 0.0
9.408445330070542 9.26024300250086 0.0
9.266505293379728 9.277952925446408 0.0
4.14874709022218 3.631681332690154 0.0
9.437448107949258 0.8198473430736303 0.0
9.376993771693973 0.6910550697058979 0.0
9.22882356848217 0.6931820370818127 0.0
4.451823867195988 6.103664366188579 0.0
4.200031743909027 6.232039028149317 0.0
4.687154754667774 5.975132870483986 0.0
6.268889397098538 6.592235545990395 0.0
7.509366161722768 8.340075462391164 0.0
7.564775703413765 8.59800936579159 0.0
9.542148732924264 3.854614593058991 0.0
7.036231103929761 6.550562550831048 0.0
4.089373665437328 2.268193930262139 0.0
3.642558884866483 2.250386188148396 0.0
3.442182385618804 2.651948803899947 0.0
3.146832503011753 2.222630466765926 0.0
2.948870467975985 2.805088883766417 0.0
9.352005315330274 5.067356449300542 0.0
9.31729677031493 3.462944187594675 0.0
9.37428383619102 3.365546369736205 0.0
9.4883538239391 3.365384871181599 0.0
9.432147665178338 3.267287636377487 0.0
9.25034519267688 7.775848812012313 0.0
9.332091350002502 7.881724023243533 0.0
9.462101000264603 7.86490055671988 0.0
9.413353271651825 7.98561007219363 0.0
8.273592814723814 6.158623919352561 0.0
8.207135014732339 6.280394934566054 0.0
9.541483811580331 5.548224291759592 0.0
9.491365919893726 5.644847811894615 0.0
8.088095771120983 4.577581369371366 0.0
8.14760102783746 4.468303741922308 0.0
9.556217963323956 4.414867468889523 0.0
9.543667331547693 3.266908751519594 0.0
9.489307652535885 3.169908976697059 0.0
9.26285575842982 8.635341362685686 0.0
9.403220742003983 8.621447866627538 0.0
9.326013417886902 8.506778946171965 0.0
9.455477927154853 8.503896705359047 0.0
9.566646674069602 4.611465258087684 0.0
9.499341049870914 0.9352184973273918 0.0
8.683891958597638 1.444705608998412 0.0
8.599973456173778 1.287265568270043 0.0
7.760988189317371 1.175381292562583 0.0
7.50927661322749 1.171223823957793 0.0
7.380927152434357 1.411062577009695 0.0
7.242417847270241 1.170759311509981 0.0
7.107236746116019 1.421234419770886 0.0
6.960799033544566 1.169618322344823 0.0
6.817786081200392 1.434174581170586 0.0
9.48095050141868 8.738557748483624 0.0
9.319762046171894 3.263060331456388 0.0
8.920653400180534 7.117307656029475 0.0
9.452431221190624 6.544166520883111 0.0
9.571407933653493 6.540336592280795 0.0
9.507586285214174 6.443281357841339 0.0
9.575252974749443 5.070210512157044 0.0
5.755172844377253 6.370710487467459 0.0
9.541351959064952 7.969072511059531 0.0
9.354607289792183 9.3921968735401 0.0
9.495213435762107 9.37218405175897 0.0
3.77688136092967 3.643094492921176 0.0
5.460967180339239 6.159077196937325 0.0
8.656589552918996 5.283032675040985 0.0
8.599307076390474 5.387421722684671 0.0
9.584017606465821 5.263931993965828 0.0
9.51536593891754 4.977534386249715 0.0
7.788544970111893 2.70578432810479 0.0
7.381746833264364 8.755477463411431 0.0
7.615969996822885 8.852710176548548 0.0
7.783643411970649 8.691528137204457 0.0
7.845017394185501 8.938777577473743 0.0
8.570520580943368 7.342304222498308 0.0
9.103648004226827 5.781084627507008 0.0
8.338082930126799 5.815990105349368 0.0
8.930848895071895 4.561111316304916 0.0
7.381089602119859 5.983657236035151 0.0
8.42066837692862 6.393608568217351 0.0
8.888256157021065 6.459558428285236 0.0
8.826495664731354 6.575679897210801 0.0
4.22522220414496 5.921354747981145 0.0
3.943296448343383 6.075578573904587 0.0
9.563175937841836 2.554860696349795 0.0
9.505342423182917 2.656889632284623 0.0
6.660863480070611 1.168750929063519 0.0
6.518316961679488 1.436478598119306 0.0
6.683474168246802 1.694104067636375 0.0
6.376799057174731 1.707382100972048 0.0
6.205091481342603 1.443621641108414 0.0
6.058670988071357 1.728841803855816 0.0
5.877457486049096 1.454297236926778 0.0
5.724979192982589 1.756666409586195 0.0
5.529885788012015 1.462283739157555 0.0
9.514953777019835 0.7018468683209754 0.0
8.398665270372675 5.702731562702358 0.0
9.456442249775696 0.5772068858285652 0.0
9.565795671866349 2.345573662774494 0.0
8.830758563027459 9.247271599108435 0.0
8.523580738257648 4.88015211128435 0.0
5.580123316488715 5.701889892660689 0.0
5.398591029446707 5.685938459654249 0.0
5.367686360823392 1.778740548277203 0.0
9.546603444041448 1.754984055696778 0.0
9.489649223089446 1.641312329051244 0.0
9.617973952467912 3.363804764345866 0.0
9.584322830999731 6.729956156156573 0.0
9.597221861144487 3.948534024289882 0.0
9.49401963819799 8.089507968561776 0.0
9.207321074262563 9.416906871900888 0.0
8.27185428346661 4.464932191097996 0.0
8.207416067213774 4.35878753684812 0.0
8.332747746635944 4.354903699457511 0.0
3.990181919126853 3.930792395858886 0.0
8.267392138262498 4.254008221702929 0.0
7.997788712685495 1.196805377512679 0.0
9.600316638269724 5.639973985281733 0.0
9.550939606739425 5.737313319038155 0.0
9.44084303195315 5.74233753256161 0.0
9.50112296154558 5.834555019909565 0.0
8.897429225733994 6.685415510921676 0.0
8.762930941408914 6.695907295903629 0.0
8.654628175336732 9.278157371342388 0.0
8.544676900803436 9.133790942553834 0.0
5.294904777716057 5.855935872688884 0.0
5.216749389964556 5.66865685845661 0.0
9.508453581298625 2.239460033375932 0.0
9.599691370793206 3.169496930704394 0.0
9.546615051106684 3.073514534194011 0.0
7.484714626923596 5.028675123117963 0.0
9.588496050271255 7.850836295555126 0.0
5.153197381012662 1.471340286561097 0.0
9.433168304679345 3.071871997104804 0.0
9.610464706874994 5.829217654498672 0.0
9.561407772947403 5.926179534044419 0.0
8.273381980676042 5.705233340662362 0.0
8.330794188929296 5.594351887246082 0.0
8.207319603076424 5.596747949305344 0.0
7.251338559467102 5.233758892662348 0.0
8.708518799790543 1.130513882092466 0.0
9.590155250193266 0.5878623138195824 0.0
9.389919385420015 5.841079912164009 0.0
7.991397852194216 5.859910582924319 0.0
9.624951589233206 4.975554514425905 0.0
7.240016788025947 2.531866266726309 0.0
7.635666783493215 3.873554782053258 0.0
9.608476620993713 1.863530872936442 0.0
9.365330459496413 8.10677840682376 0.0
8.775076110585598 2.572737931759856 0.0
8.699389445914996 2.444602334375113 0.0
8.625078713232146 2.580891022578613 0.0
8.54447196848446 2.447624719286678 0.0
8.468898498943965 2.586757328881282 0.0
8.62282309213608 2.307826916202421 0.0
9.622102662978762 6.439307895185218 0.0
9.561995355724862 6.35103962032292 0.0
3.898245450818314 1.856155797593496 0.0
9.681759177700954 5.07069253017652 0.0
9.059254996454502 4.963357716933865 0.0
9.113144532326562 4.861710138088372 0.0
9.62140874877204 2.656009146517733 0.0
7.884510615470827 0.9666888912541309 0.0
8.14902661050739 1.005010215149227 0.0
8.491263206618079 8.527197931363634 0.0
8.408859203395778 8.697060715788105 0.0
6.54422152733529 1.954566069381189 0.0
9.563546573097593 2.755667904356369 0.0
9.453065492925557 2.761122255953964 0.0
9.676889098520615 2.755084315170127 0.0
9.678287124781653 2.556838324720633 0.0
2.60254317790297 2.278874965850319 0.0
9.211706272534968 4.050470567310489 0.0
8.526711683538949 5.698821878547752 0.0
8.296604023060945 8.533761944401608 0.0
9.649704314258118 5.543946557831669 0.0
9.651176136337964 3.85122804518279 0.0
9.44590154800397 9.498503704959054 0.0
9.580491248736612 9.476376347552954 0.0
4.3239388803087 3.921156392977062 0.0
9.65737873521736 3.075324100817917 0.0
8.128000846282253 6.160273991836929 0.0
8.06242981852327 6.292371360998262 0.0
8.500465019503922 1.442700595221201 0.0
9.615253212967009 1.649819368149096 0.0
9.561768620580791 1.538553925606111 0.0
9.435477757657937 1.527391516499924 0.0
9.627993450010088 2.242685831452484 0.0
9.5338252733548 0.4673994795805215 0.0
9.398055066504014 0.4589059948533885 0.0
9.669486082509058 5.920177035588319 0.0
9.621072177439727 6.016493814615133 0.0
9.506185962103057 6.018397021409126 0.0
9.196884440497488 7.898824858961557 0.0
9.112591143666748 7.789491461180181 0.0
9.664357762385308 7.950712034233033 0.0
8.46233617997115 2.308903464128035 0.0
8.547917980328803 2.169381684694277 0.0
8.139931430059324 6.410762600521521 0.0
7.672499127532963 9.099143622036436 0.0
7.91372855627271 9.178704612763656 0.0
8.463425076318451 9.290653726808348 0.0
9.643938029094286 9.335632419679458 0.0
9.647017668702574 0.7068996148634754 0.0
6.241662276606473 5.884018212993202 0.0
6.157742245066693 5.73500474100449 0.0
6.318815619949124 5.730068085823802 0.0
6.247706374231452 5.593094310939028 0.0
6.406948541886973 5.593272398468375 0.0
6.092564106310554 5.587409338401505 0.0
8.535507922245372 5.286142900439676 0.0
8.022959839404006 4.471630490587016 0.0
7.963561162854596 4.581393556789843 0.0
9.683487139413305 1.546750704925431 0.0
9.630761777960082 1.435922217091829 0.0
5.121714348989337 7.950140247572198 0.0
5.136464096196084 8.310254432483559 0.0
5.47349124035624 8.455234262268478 0.0
5.176273618280354 8.687190323573228 0.0
4.796664658962938 8.592678692862421 0.0
9.568705729418735 4.887269869750176 0.0
9.462711651199594 4.88832222094458 0.0
9.674903475028225 4.882285174433025 0.0
5.4996067353406 5.546583260717527 0.0
5.663632234555963 5.557613452957074 0.0
6.829408195405585 1.947174574944512 0.0
5.336529198289861 1.127585641139875 0.0
9.672387559812332 6.34138351957329 0.0
4.463988917379896 2.271060678869338 0.0
8.618048281355405 6.263841736419089 0.0
6.480949808711781 5.74815588680617 0.0
6.562207427719153 5.592185077216444 0.0
6.643040463857446 5.721233693378952 0.0
6.712825900331884 5.588664360236 0.0
6.79240375630333 5.711383948285569 0.0
6.86115931532141 5.584697050428064 0.0
6.939210100691576 5.704407337029545 0.0
7.007668476576536 5.580801046893123 0.0
7.084627386867475 5.702817970154801 0.0
6.633257976075473 5.460881327825488 0.0
6.931430743764456 5.461960451448691 0.0
9.682652370938209 6.533133024505995 0.0
8.761108695241376 9.450742747770144 0.0
9.146031326900015 3.764292700000154 0.0
9.089378801805193 3.661317181076136 0.0
9.514354521818781 8.994988681611192 0.0
8.157650730500988 4.262987189670279 0.0
6.329633198899328 5.4647789391701 0.0
2.340685767996258 2.811285337457589 0.0
7.379572471323651 0.9290892725587991 0.0
4.171878172186605 4.222320767259098 0.0
4.4876601621649 4.16473354200826 0.0
5.336389369563535 6.806464508860387 0.0
9.595468321212476 9.108133206829102 0.0
9.645038675267227 8.982113951305912 0.0
8.393140678816192 4.246338342095281 0.0
8.309440721624494 4.155300532283633 0.0
9.418269339704423 1.9925512363779 0.0
9.662781807969623 0.477809346089035 0.0
8.011297869803792 0.7518828483803571 0.0
8.250149975885678 0.7646904662196189 0.0
9.608674873602773 0.3618049194050078 0.0
8.692696069692623 6.582927327365709 0.0
8.628225948401226 6.705702462696891 0.0
8.701883181418305 6.822086652299242 0.0
8.559276855155542 6.829564723911442 0.0
7.069268463354993 5.459534423493629 0.0
2.654575201159115 3.323490466195074 0.0
3.610801136544596 4.044075244426243 0.0
8.263757217166944 5.48730323490738 0.0
8.138838162809126 5.491254533497952 0.0
7.90196833683664 4.477386962763833 0.0
7.987943097943191 3.978756490171551 0.0
9.704623491880403 3.945605151832784 0.0
9.461009573830147 7.301728818091931 0.0
9.532468631193666 7.399916015174975 0.0
9.582688928417856 7.292330983701011 0.0
9.652579613269625 7.387768793572397 0.0
9.699264016151023 7.282867433965265 0.0
9.633305589700536 7.188543855060478 0.0
9.505576100168666 6.961225778216469 0.0
9.43876966151099 6.342441564206569 0.0
4.908483672172518 6.098703904450545 0.0
9.135448256237908 5.269827196966999 0.0
5.905650502271389 2.025036080946255 0.0
9.709890722072377 9.452748507541063 0.0
9.663337613522643 9.572126259365891 0.0
9.603900123387826 7.495180532331903 0.0
9.720147629525837 7.483400774981126 0.0
9.674588415444239 7.588303295299578 0.0
9.653186673863587 4.039274180923234 0.0
9.053164539680804 4.764545162185531 0.0
9.164908495749003 4.763017269285045 0.0
9.226019227262443 4.858029410614327 0.0
8.809947621994619 3.4964384919072 0.0
9.10538997155458 4.665865142902959 0.0
9.331074106432244 5.748993480915537 0.0
9.055854333858068 7.918554535314415 0.0
9.446431573964945 8.209836764658437 0.0
9.573844810886287 8.191100251691205 0.0
9.309704769895653 8.244395007943949 0.0
7.240329561730736 1.676197957122907 0.0
9.543389817573933 3.660019800390455 0.0
9.598599341122098 3.563130123982772 0.0
9.652615161407017 3.658119804270645 0.0
9.706336063693934 3.564815526226687 0.0
8.632284427755456 6.946688912416058 0.0
9.682863230715835 2.349655023034811 0.0
9.571538455120994 2.142369886250143 0.0
8.090821900439733 9.017409120951333 0.0
6.812258669899192 0.9007667548831626 0.0
6.50135254578461 0.8974046495177885 0.0
9.598335906230732 6.246437748035812 0.0
9.719677442549804 6.253968775436637 0.0
8.593026822691716 5.180101360605356 0.0
5.537586126848265 8.836083861509138 0.0
9.688689404995035 2.143487155934306 0.0
2.821389253975936 6.507820864074362 0.0
9.176571289960709 8.507736431357309 0.0
2.918303740542162 8.256728920338826 0.0
3.428955230180972 8.401446814887457 0.0
8.490587404589881 6.715350139132777 0.0
8.86049054904785 7.243279881821806 0.0
8.93696309213556 7.356650230611625 0.0
3.951931175165697 5.78308550088855 0.0
3.65055612573298 5.91672400098539 0.0
3.668142216548471 6.247526235973777 0.0
9.717269848920886 5.821831227352286 0.0
9.708364917734201 3.164198601626433 0.0
8.45581975650687 4.569560863828342 0.0
8.204448312099833 6.040774355519757 0.0
8.65969449127868 5.485991799508151 0.0
9.707534571012967 5.634423933296901 0.0
9.62102991883279 2.849662850313935 0.0
9.144093558002634 3.560383427867003 0.0
8.29763273805118 1.77155302934031 0.0
5.280452715709455 9.01633391004168 0.0
8.984558945859158 6.99932633710603 0.0
8.4157550875812 1.275784953143711 0.0
2.068078118650995 3.355462780535101 0.0
9.205703884756806 5.568274778556933 0.0
9.745857863753141 7.178456670302003 0.0
9.681628895748586 7.081494416756802 0.0
8.875818787971069 6.240744812097083 0.0
7.993733797566922 6.414830952863579 0.0
8.462810157069566 3.377071044664789 0.0
9.29428363519789 4.759591981903337 0.0
7.933956818298286 5.97437536746848 0.0
9.028281726378319 3.558713145763133 0.0
9.083461773461467 3.455531762175701 0.0
9.73231939683535 2.849247643393067 0.0
6.70072305037728 2.192432536215492 0.0
6.423245125077639 2.212870246546939 0.0
4.931537051605536 1.135086496804522 0.0
4.746426561586179 1.500381091957315 0.0
9.707706579932626 7.836419656220658 0.0
8.590593344701457 1.595639668013959 0.0
8.708946574109854 2.1688179918246 0.0
8.634728854549891 2.028564483452208 0.0
9.230357659411311 8.129337203173913 0.0
9.102841374461482 4.452881308250647 0.0
8.472081531214734 5.388993924853032 0.0
4.925996806199801 5.844046944846857 0.0
4.702806345752284 5.745688656289065 0.0
4.884357002239844 5.633237011762874 0.0
4.709628434300812 5.536404116679045 0.0
4.530800966746534 5.627044171217377 0.0
6.040296145349247 6.603808099703576 0.0
6.162203578696918 6.795213950202512 0.0
5.923135943221574 6.824060069869489 0.0
6.046693245732212 7.010423490915212 0.0
6.297337598588478 6.979895528204233 0.0
7.760448385794147 0.7294020304851334 0.0
8.492228348169641 6.958778476405878 0.0
2.89219822877093 1.704113597264478 0.0
2.26178643438086 1.7814602252425 0.0
9.726968895980871 6.009547057102511 0.0
6.63195110828313 0.6072886418835157 0.0
7.984023036954866 7.515675826210831 0.0
7.893857204140559 7.681876703427663 0.0
7.778465117872411 7.537836322197895 0.0
7.998204230811618 7.844922503023499 0.0
7.798554315988981 7.858161805718108 0.0
7.917846202023782 8.03040048103727 0.0
8.547520504556728 2.721261126162116 0.0
8.39253850806587 2.732073315877738 0.0
8.306047241032278 2.59069854402512 0.0
8.233011054235162 2.739783364361515 0.0
8.318836035587811 2.879838477099622 0.0
8.159530874574331 2.888511553151382 0.0
8.245490421394788 3.024568439743106 0.0
9.759103003747676 3.077839427881478 0.0
8.083610090773394 3.033523757291178 0.0
8.174562583800352 3.166768504406541 0.0
6.046769434852523 1.155662270344939 0.0
6.968371001421964 2.176347877216873 0.0
8.324858098380334 3.152966249334499 0.0
8.145556596142626 2.609897633546475 0.0
8.970652052821418 7.804556541250797 0.0
9.033737629244714 7.681328986528639 0.0
9.62347010002576 4.796939565664328 0.0
9.72520380348743 4.790261082613535 0.0
4.882631186210167 5.455006233451049 0.0
4.618356368594037 3.933076284395493 0.0
4.748083507220199 4.151025177732873 0.0
4.641724290430313 4.358202249373887 0.0
4.87055838101999 4.337900676660481 0.0
4.974114446887331 4.149149057174687 0.0
5.081577844806959 4.3240148266423 0.0
5.179521650033781 4.148725180298481 0.0
5.276261408871418 4.316673822529601 0.0
5.369189110897883 4.148362797753505 0.0
5.463892033849439 4.338819369807593 0.0
5.550828466075906 4.146274465971151 0.0
5.646554822352869 4.303571429647391 0.0
5.728109623160046 4.138582010823754 0.0
5.821689108984419 4.291959598724587 0.0
5.906082534948073 4.141649907302701 0.0
5.99655838673762 4.288752711512514 0.0
6.077312859438928 4.141011188943332 0.0
6.164215275138099 4.281164574562373 0.0
6.241782344986693 4.140701084167517 0.0
6.324316420613108 4.277393447415522 0.0
6.40284165425941 4.140026953305852 0.0
6.483655157361099 4.273418937894759 0.0
6.561170698911611 4.136221843106807 0.0
6.63512300179586 4.269917278694155 0.0
6.720306110251473 4.133393659385058 0.0
6.63777078218551 3.99617001426095 0.0
6.802492763973074 3.994355399489989 0.0
6.798834760478153 4.276914787769972 0.0
6.15377608509923 4.000134206628027 0.0
6.548727135071258 4.400510710520637 0.0
6.251479300130713 4.421887359316258 0.0
5.275876048175579 3.979624500657822 0.0
5.910905077162284 4.431174408784691 0.0
6.717070288412452 3.851239795555301 0.0
6.883499045994213 3.852555480300214 0.0
6.96664848901999 3.994033961856844 0.0
7.048208567116626 3.854750001965969 0.0
5.810004974283072 3.982497501655442 0.0
5.586615391658107 4.471070246359201 0.0
6.547331954052155 3.853872077215347 0.0
5.179081233207816 4.485638492900557 0.0
7.126615227065496 3.995337770596979 0.0
7.209459742762513 3.856893463870469 0.0
7.130226097876905 3.713620439679428 0.0
6.63075064074106 3.699684148676045 0.0
6.446985573861992 3.697358756862005 0.0
7.043151422977365 4.131713936060725 0.0
7.198322215260019 4.129850614748363 0.0
7.119378405252723 4.26005098890218 0.0
4.797146270976422 4.525762781577414 0.0
4.608329098388589 4.573584257851931 0.0
7.294442092743627 3.720853338661503 0.0
7.215753312764997 3.571378507508807 0.0
7.049631633956289 3.568047985538775 0.0
7.133765707749521 3.414282375958479 0.0
9.755079417839903 5.539705890434435 0.0
9.698955703441971 5.450920012703194 0.0
9.717604099406742 9.09084770432896 0.0
9.276716006673976 5.847248422342224 0.0
9.339081208926798 5.941174203394446 0.0
9.031261921742963 3.750271483819014 0.0
9.08721978689863 3.853416037308712 0.0
4.801461566647803 7.510704110489921 0.0
8.206553504932042 5.818005960412773 0.0
7.362361315389098 3.863102442315545 0.0
9.492826845316191 2.963845037486267 0.0
9.376710375304633 2.97229517374228 0.0
9.3192743723601 3.070687802230453 0.0
7.915389082113898 6.293241865913004 0.0
6.735006382384437 5.832450056405368 0.0
8.456481836836168 4.35369289249905 0.0
8.517718268476031 4.246675068616396 0.0
5.583512022030555 5.411069060406398 0.0
5.73625200174779 5.422617752052123 0.0
5.81006929286229 5.548584937688919 0.0
5.903438861894402 5.420604003204523 0.0
5.43801870974416 5.402925156167655 0.0
7.022641548594327 5.825217331839047 0.0
7.165095795605366 5.826005223633447 0.0
7.223078558430726 5.690146755650336 0.0
7.841396000338385 4.586693006493787 0.0
7.904793170875705 4.690826189066096 0.0
7.785999820520073 4.696719777099973 0.0
7.846448506395101 4.798518978096564 0.0
7.728149182067156 4.803800941124008 0.0
7.788983823826226 4.904802634695232 0.0
7.672018889153144 4.910077510508749 0.0
7.731996012352178 5.014717724244488 0.0
7.852072803124419 5.00743796185411 0.0
7.779278698005006 5.118909346425974 0.0
8.088113864063853 5.605434545811022 0.0
8.016457362785575 5.494849890158723 0.0
8.072290383394757 5.385594956317259 0.0
7.95068657972964 5.38825563681957 0.0
8.309366678475389 1.438342408757099 0.0
9.748160780780179 1.447794693754379 0.0
9.696454228162398 1.337889922375316 0.0
9.568813761940916 1.329560834053294 0.0
9.638326779791626 1.226729570935787 0.0
8.472132467407484 5.182856496818138 0.0
8.066211547412054 6.53691730655352 0.0
8.217035586462373 6.522976700918602 0.0
3.544839338670893 3.324491119989469 0.0
6.999740002965287 5.347729916247808 0.0
6.874544698914502 5.347027470386579 0.0
4.880451234715014 5.193043717957879 0.0
9.104510033763066 9.313204713465637 0.0
9.0466357104558 9.45359399494339 0.0
9.146803165140184 9.569652364413551 0.0
8.134107047896672 0.5527712356100052 0.0
8.369770412730738 0.5571215815175228 0.0
8.47386979744655 0.7564607169846485 0.0
8.585193608569258 0.5749174254532757 0.0
8.683868132726584 0.75505070091701 0.0
8.787381435061018 0.5813987798627239 0.0
8.697570280442534 0.3771156480326233 0.0
8.530048434259976 5.077280516000916 0.0
7.995091351438729 2.90367515012593 0.0
9.731083608815164 1.662638626153251 0.0
7.260488865351954 4.255073962371814 0.0
9.760728358076392 8.990038509880067 0.0
9.716710396257366 8.884160310398862 0.0
8.794627466210242 7.369659405098349 0.0
8.868068657550866 7.515048014893154 0.0
8.702594597629135 7.510501129643432 0.0
5.132320689147051 0.7610757801158905 0.0
9.755852887652699 3.853180024615871 0.0
9.787424819067885 2.757921105725315 0.0
9.731193479931608 0.3736343090103709 0.0
9.796526908308536 0.489684029254899 0.0
8.226019692057042 2.453349105940535 0.0
4.560989821496479 5.428206018250252 0.0
4.348810639659689 5.517048281386008 0.0
8.785190163106925 7.119142251269924 0.0
9.015515413043023 7.464769766852701 0.0
9.754861440190705 3.659036930324926 0.0
9.7543610723378 4.033687839160082 0.0
9.707881226943384 4.127219992296752 0.0
9.52841017383273 8.309020665649431 0.0
9.65186044414544 8.289498614805698 0.0
9.714051275521857 8.173576484362068 0.0
8.209758892476394 8.715513071423135 0.0
8.097084883671858 8.548851201381087 0.0
8.177989947800599 8.367872862579052 0.0
7.974142434808908 8.36779470623567 0.0
8.409012054919861 2.142624252464372 0.0
7.707002321497132 8.039129945341395 0.0
7.574653123518228 7.83895791570255 0.0
9.229858094382692 5.951357214361815 0.0
9.75307989876696 1.229893222503321 0.0
9.715811155868643 1.128779429890018 0.0
9.597960915003707 1.117058287635912 0.0
9.672063923518955 1.020806103150243 0.0
8.99090422125785 9.593878510105375 0.0
8.133165456134304 9.257620998029804 0.0
7.976779931497633 9.420725324095141 0.0
9.77231778617502 7.927819487779705 0.0
7.957213679655531 4.364530256281665 0.0
9.609903116082736 8.403725680286847 0.0
9.724891358972584 8.388392708395173 0.0
9.687487059868507 8.495935345161797 0.0
9.810055520269009 8.494090598382963 0.0
9.755967487162335 8.599790818513082 0.0
9.645698986824481 8.606121319182705 0.0
9.721376049217765 8.699989876681524 0.0
9.773009257015609 4.884557953188837 0.0
9.830105798750992 4.796546393900876 0.0
9.775335108731761 4.686093304257503 0.0
7.455611517737074 3.730099283949135 0.0
8.906943567829634 0.4197477661467797 0.0
8.980613334153533 0.5814185917581446 0.0
9.081059111759728 0.4263421860552371 0.0
9.821654809259165 3.576985724143072 0.0
9.761309244784803 3.4792267780002 0.0
9.763329553045937 9.353068233045157 0.0
4.463051839136694 1.164440352584939 0.0
8.0213168204867 5.283436382300235 0.0
7.89385412333227 5.290429544753158 0.0
5.806940001023414 8.583716119232427 0.0
5.88977793877374 8.96065112858812 0.0
9.177759062826041 8.25539130897928 0.0
9.626582559276994 2.05283181283147 0.0
9.747673294325121 2.064954301745188 0.0
8.775905508647185 6.951821187702613 0.0
2.3581644273991 6.029034686663493 0.0
9.777798009058461 9.548066962498762 0.0
9.737129197219856 9.662299853506903 0.0
9.615080366030512 9.683349544763068 0.0
3.315839678697904 6.042943273456425 0.0
8.915083018115329 7.937748428923896 0.0
9.489832173860055 4.712364754630572 0.0
8.118313727862493 8.013944064029838 0.0
8.902248750797776 7.67372145952523 0.0
8.954075939212636 3.463080912810881 0.0
9.45247551997678 2.133243108303608 0.0
8.311151553157742 8.899233004613622 0.0
3.28672004268868 6.826745674539142 0.0
9.86008383798735 3.468233656255824 0.0
8.389990589860254 1.947086063498656 0.0
7.144231739553659 5.329544660076687 0.0
9.654500729007207 7.743301971143119 0.0
9.761920842881946 7.740144345898896 0.0
9.692820773976567 0.2651585113981998 0.0
9.690951720399688 6.100517071814821 0.0
9.775704281989471 6.077882312279847 0.0
9.823117117198079 4.115168542267924 0.0
9.764391943581737 4.214465954230587 0.0
9.659455011849253 4.218716850797838 0.0
9.713462125022623 4.30742830316693 0.0
9.849638067150842 4.208845651573708 0.0
6.376241713254513 3.858766051594979 0.0
6.274931849158213 3.701528298009006 0.0
7.097780104117746 1.926449727602711 0.0
2.457742027508782 3.810157622192786 0.0
2.963634206580268 3.740748099915693 0.0
5.065585416063965 5.544355730437482 0.0
9.783560252464587 7.566507987677117 0.0
9.825819294611026 7.470942204664841 0.0
9.799976114123012 1.01659516618323 0.0
9.745559590633832 0.9150866860898854 0.0
8.20473400632469 9.495828670767946 0.0
8.784586030320169 2.054461500762216 0.0
8.758471587067168 1.888286802854785 0.0
0.9188935087347281 8.510730800272478 0.0
9.674192026048217 9.20389587377276 0.0
9.796314981283475 9.185916994648775 0.0
7.206882433199502 5.452024361489832 0.0
9.773927048949279 6.334665846819535 0.0
9.830288393591173 6.225300227041885 0.0
8.25177349297509 3.282767705830209 0.0
8.099233469407428 3.304040153764131 0.0
9.607860512870598 4.315652630490023 0.0
9.403674738018715 8.367349042046314 0.0
7.611756786273919 5.018691202305147 0.0
7.549513964643336 4.923310232561835 0.0
9.80986724662116 0.2915868356190958 0.0
0.7757562810577034 3.504187313079081 0.0
7.659562100664981 4.698467529240196 0.0
6.539424975891206 3.541729955691742 0.0
6.717348880400739 3.55221857686142 0.0
6.836337579501807 2.417476958454302 0.0
7.096480496160066 5.959124656438389 0.0
7.189742782777612 4.377051328076039 0.0
7.051723187622053 4.38470822973091 0.0
7.125489805519186 4.497018383456762 0.0
6.994915621927777 4.501504591168814 0.0
7.056755276274058 4.607929817497045 0.0
6.932937068803914 4.613249390039674 0.0
6.86629288290367 4.50541343988659 0.0
6.80427099775847 4.617607827251794 0.0
6.739195362053689 4.511124964201849 0.0
6.677260697693361 4.624288827143181 0.0
6.996760608675822 4.711715831373894 0.0
6.316045249462968 0.6456945497683586 0.0
7.321834163850416 5.816449323512759 0.0
7.833101485370825 4.390058096386987 0.0
4.996572652976738 4.498711166259074 0.0
5.112334577457371 4.663858846723513 0.0
5.271923064784868 4.629759173373871 0.0
4.93773508827367 4.668006487116195 0.0
5.348137647919096 4.485934621930562 0.0
5.413454827497575 4.62999925573761 0.0
5.356581113747675 4.770594395332836 0.0
5.013422223730484 4.793321773780133 0.0
8.58674425943957 0.9312335381466886 0.0
8.776450596582496 0.9362399987293505 0.0
4.783496233934828 9.486061758876032 0.0
4.544176394620909 9.034071856445296 0.0
4.082330493623582 9.015765881393772 0.0
9.820867469965414 7.285959215547852 0.0
9.852697883440127 7.166089674802766 0.0
9.260999083164238 2.971390964911171 0.0
9.197701900169713 3.073162109379564 0.0
9.31960210441945 2.867465579641856 0.0
6.660951583415121 3.383363199709994 0.0
5.210469976037585 4.761678854423166 0.0
6.740780285297665 4.733615686805694 0.0
6.611362405615225 4.731958642073806 0.0
6.549091884465382 4.629620704100811 0.0
6.491761716522486 4.733409494449344 0.0
6.425259228542098 4.640546096196947 0.0
9.715556659367534 2.986725573570596 0.0
3.710524324925069 9.463213827486557 0.0
4.768537031214573 4.727001037865238 0.0
5.039413681704655 5.378508462165627 0.0
5.188746429211535 5.440476671296013 0.0
5.172214816037712 5.298914527247826 0.0
4.469063601436893 3.667917323494335 0.0
3.799121596584382 4.741629285988305 0.0
3.661085664896249 4.442847704416992 0.0
3.316563386321876 4.380147387454913 0.0
3.802087298647255 5.26743535640985 0.0
9.738116341343215 8.047178982429934 0.0
9.85106076399546 8.021725551312715 0.0
9.837581050304836 2.844176011307251 0.0
9.664579962075123 4.402853107737106 0.0
9.76433159763034 4.39807801415352 0.0
9.718924973226878 4.487825491046641 0.0
9.826405563645343 4.494594135148365 0.0
4.931068003413168 6.359330991212394 0.0
5.130175746947236 6.201075257041828 0.0
5.143884286052002 6.445382329515047 0.0
4.953395875296406 6.628748468717369 0.0
7.833019185167153 5.400347121613631 0.0
7.766636138801143 5.313240048256084 0.0
9.767038723422333 4.578090619166644 0.0
7.315369355237483 3.441501197259575 0.0
9.556068971301514 0.2347811136726856 0.0
5.733871280791703 4.444861510772459 0.0
5.828809543126846 4.569791247698539 0.0
5.986701526182213 4.562881783985375 0.0
5.912543327921148 4.692966271273211 0.0
6.052130330528581 4.682477327897978 0.0
5.773525984744635 4.697697018456535 0.0
6.121646311546238 4.572302645403103 0.0
6.182349700936326 4.67713231096357 0.0
5.846371383601797 4.808939734754761 0.0
5.117807918383606 5.974361363083184 0.0
6.256132501905665 4.575863546153224 0.0
6.324770064521816 9.645040261272253 0.0
7.345522892050965 4.12581088034536 0.0
9.338523512844539 4.854480276600515 0.0
9.286984287289403 4.959628690044808 0.0
5.676298026114105 4.589279806918992 0.0
5.631257891894775 4.722749088404111 0.0
7.970415275563177 5.621040275419208 0.0
9.565118337557308 7.081391220827488 0.0
9.626201005045262 6.980441083020495 0.0
9.733729506193331 6.979928568877979 0.0
9.684556253529976 6.887102896543928 0.0
9.780785815410074 6.890287441101827 0.0
9.740054813822885 6.794211367612523 0.0
6.462628988057306 7.629921412015864 0.0
6.692564520952154 7.473594130811262 0.0
6.927983108788191 7.570982428592125 0.0
6.899878641134941 7.329306734748538 0.0
7.117542472438434 7.416951094809493 0.0
7.089537168123128 7.186691566729968 0.0
7.296585396514727 7.275888419524222 0.0
6.879678873774065 7.097443005287856 0.0
7.063454637059129 6.967740076426161 0.0
7.329105042924355 7.496317641003757 0.0
6.867084781778411 6.878842928865059 0.0
7.494278796275744 7.351949197351029 0.0
7.462564159480594 7.150140034494138 0.0
7.644835001206406 7.21506678718646 0.0
6.682478929414216 7.008358327294905 0.0
6.449199855715812 7.365660640952548 0.0
7.548139855358765 7.57299228324251 0.0
7.008502809092701 7.844601794812628 0.0
7.371739019901781 7.707688433423657 0.0
5.665345294602155 5.290628720253272 0.0
3.987583013016546 4.486920698115711 0.0
8.893480480320447 0.7785000884179994 0.0
9.715485963651112 0.5955299613117169 0.0
9.761785841543585 0.7048670948649375 0.0
9.670304314877074 4.578896619304786 0.0
8.058509626083154 5.744161686650483 0.0
6.181795443628869 5.462040811515966 0.0
6.256771804808641 5.338464817889848 0.0
6.124070400983443 5.352376180901929 0.0
6.399679261813415 5.349186390888865 0.0
6.477776305607503 5.46505688468465 0.0
6.541624525938461 5.346017118512589 0.0
6.673064575428321 5.339051516933525 0.0
6.599301548842115 5.241958624987057 0.0
9.573774011620444 0.815274945835158 0.0
5.86493292693426 5.877588788523632 0.0
5.552663040119136 6.957487930464628 0.0
5.535080960199246 6.663033131707637 0.0
3.708603689392072 0.5979254716153909 0.0
3.31896983256719 1.188583855309964 0.0
3.895664898001925 1.128137111173669 0.0
6.363360407965353 6.032416442205533 0.0
9.445959758065749 1.070139246426051 0.0
9.50632172780449 1.214052376665338 0.0
9.441030033980638 1.325047485624912 0.0
9.295799464644857 1.341410624832976 0.0
9.184164107767781 1.461677744200096 0.0
6.407191016756832 4.407273313799791 0.0
5.544591888593027 0.7652641669375747 0.0
7.883090151006535 2.497506182548758 0.0
8.073420508370992 2.120510489750234 0.0
5.494822040671399 4.732314720081375 0.0
0.8986976806403217 1.464611451578306 0.0
9.536325549598013 6.83286654168725 0.0
5.972289519322897 5.727532110854501 0.0
9.82203607053145 9.443411729566549 0.0
7.263199949874008 7.064207941227515 0.0
7.233659553805083 6.853135694774254 0.0
9.793310082768443 7.072747972018893 0.0
6.734168931095253 9.67499220075154 0.0
6.941134861034159 9.382328333169653 0.0
7.285822522704258 9.443989747444657 0.0
6.576263515512108 9.333035011158342 0.0
7.160560566479093 9.127732577621245 0.0
6.218711947378506 9.298064908857533 0.0
6.432383355119106 8.980985203293491 0.0
6.795390278360442 9.046043538032663 0.0
8.54677014121837 0.1957422484480979 0.0
8.528696320820908 9.804850950580938 0.0
8.42644965647489 9.604735484095604 0.0
8.010239224104339 9.715048083583248 0.0
8.644359648763341 9.628432815860457 0.0
5.344212921686536 5.526744195650314 0.0
9.760936589662048 7.38409687515441 0.0
9.128187788393989 0.1445485608215519 0.0
9.133307661752394 9.854833215426817 0.0
4.867351616228264 3.944459575003425 0.0
5.905323253270366 7.385600364255367 0.0
5.909045412185362 3.361969954191194 0.0
5.80580919758911 3.569999290452344 0.0
5.578230704221431 3.587842862412673 0.0
6.013352753603037 3.550699073477782 0.0
5.936624955014758 3.721630401607248 0.0
5.735413275357409 3.78528948606432 0.0
5.512538847486775 3.794760621907932 0.0
5.360571639388366 3.618649018042938 0.0
5.134141179590394 3.459385929220745 0.0
6.167399567008798 3.367365990358096 0.0
9.766756262206602 8.291756450136036 0.0
5.486063578307141 9.64505925252771 0.0
9.497624614180321 4.328873442170357 0.0
9.811387324954623 1.570516917365688 0.0
9.389210081887331 4.69150887571586 0.0
9.704395728912932 3.754226393630331 0.0
9.808172776193384 3.748784464356272 0.0
6.549660911932182 4.839747932361234 0.0
6.757415124099031 6.077939876843736 0.0
3.805578542126494 8.040840085419626 0.0
4.232580149691158 8.198659880701744 0.0
4.559765382564095 7.87091698350757 0.0
8.3829075948167 0.9495097054886067 0.0
9.8571301061408 1.456307792614791 0.0
2.005900212453279 4.535525273813588 0.0
1.85904408608185 3.956445706785572 0.0
1.979307922430775 5.474327285927505 0.0
4.387923194305381 4.427191306527721 0.0
9.429258370703248 8.873693567695483 0.0
8.99196583083892 4.664567567015693 0.0
3.050357122593155 5.368999067452741 0.0
2.861107385476722 5.785089447130829 0.0
5.005058958272409 3.711196438448062 0.0
9.8972295764837 2.755337284632969 0.0
9.581048890980513 8.853909321617065 0.0
9.668838904423916 1.762418716497425 0.0
9.716576458425756 1.852218615166234 0.0
9.799043132681442 1.780583141193779 0.0
7.661868217848455 2.880323287492419 0.0
6.780136552904057 5.443858690999834 0.0
6.489544866845868 5.913957888434588 0.0
6.880149522020364 4.134257616716107 0.0
6.970134365280068 4.264072319341612 0.0
2.225481516813409 9.348422240784 0.0
1.843418032490818 8.641605249943353 0.0
2.198000805242772 0.6459947140825729 0.0
8.740020306282506 0.1903932731609072 0.0
6.86957996016679 4.720776242956433 0.0
7.430920333506809 0.2702852342693345 0.0
7.302066064947383 0.6134316505458445 0.0
9.305398039877746 4.64854361125207 0.0
4.078151380865065 5.203425462519088 0.0
4.080704120371218 4.778853303303787 0.0
8.052525541571825 5.965483159581719 0.0
6.367194027835946 4.754896037842673 0.0
8.604191121620719 7.648182513679963 0.0
9.546446695207845 9.234701521982952 0.0
9.018652854946867 3.351011585453845 0.0
9.143853648154607 3.350173119015413 0.0
9.067079866763024 3.245174561579149 0.0
8.991492136849105 3.135578770028028 0.0
9.29603967712795 0.1426516429033488 0.0
9.392428271030795 0.2506306237151588 0.0
9.223973843394301 0.2912279164401488 0.0
8.39375191941536 3.018777714002827 0.0
8.4836475746111 2.88135207267795 0.0
8.741089053946197 9.821127577434911 0.0
9.803966507713174 5.448064463539533 0.0
9.748132240148552 5.359371181503531 0.0
9.850258990973547 5.355211921626304 0.0
9.7965346514158 5.266762244994661 0.0
9.84142096963129 5.171050273734619 0.0
9.738843612428232 5.167483913244169 0.0
9.64168976006725 5.359875132194057 0.0
3.335917453809221 5.671837672982919 0.0
6.962669142802881 1.683222554707996 0.0
7.365210844496719 1.887492842536114 0.0
7.517378971174123 1.677983072937792 0.0
8.00383870208024 6.089394601875145 0.0
1.725435941000569 2.759295503019395 0.0
7.907977929549089 5.102827208603365 0.0
8.052861051278896 0.2683271125209605 0.0
9.80169732768395 3.385443381464333 0.0
9.831597648680848 3.28491948963525 0.0
9.736335895866404 3.316207814499244 0.0
9.597256128490281 3.756160701977744 0.0
8.865819925321706 3.366235906378775 0.0
8.489614436807788 1.757152185195495 0.0
8.88089641144391 1.078983279100314 0.0
7.430923851187758 9.724389499796425 0.0
7.584252919312249 9.509430586267927 0.0
9.744026095940516 2.247117754488748 0.0
9.729961521243718 2.659836747108116 0.0
9.790866569780063 2.558993767350471 0.0
9.736606445116795 2.455104424879619 0.0
9.846806182714698 2.452157456754448 0.0
4.518102112052724 5.141350889745285 0.0
4.519880229178207 4.85678334497067 0.0
9.7302407894617 6.434012603549242 0.0
9.787537474544765 6.523591663056312 0.0
9.744262337067932 6.617499601377625 0.0
9.8406238811518 6.41591236129004 0.0
8.914967252734657 3.579360039684312 0.0
9.154797282599406 5.670753066089419 0.0
4.228839454580575 4.612979739018002 0.0
6.095037541675208 4.42126627187728 0.0
9.304166983880842 9.864854494751789 0.0
9.406445527105628 9.759007358529582 0.0
9.256225114941945 9.700832989525724 0.0
9.796206564635622 2.351215649506205 0.0
9.849373673349081 2.25090453834006 0.0
6.332048155295931 3.511675163099286 0.0
9.069679774213784 3.022879178706259 0.0
9.070599961450037 9.055284879641471 0.0
1.808685691036764 6.331557276533421 0.0
7.120156826652838 4.698481230214924 0.0
7.052894345811342 4.799848851879358 0.0
4.739957520484086 5.369107149361242 0.0
9.389197839958292 7.197139943834638 0.0
9.046688232613976 4.560364044038737 0.0
9.162685461967492 4.562194096410666 0.0
4.227377821420887 1.564128177298305 0.0
9.201090975245227 2.794301402811909 0.0
9.251941624303948 2.677556975242327 0.0
9.186758273070138 2.563916005021366 0.0
9.317609833868786 2.560335260954038 0.0
6.57599191748324 2.437689779955877 0.0
6.305556560534859 2.459112595979303 0.0
6.981058048792093 2.642476994448363 0.0
9.886113463139504 6.510498309609482 0.0
9.250462794607717 6.221362629571698 0.0
9.305373999084068 6.108271307139882 0.0
9.390477915810829 6.228015172491477 0.0
9.44452571968143 6.114582165110393 0.0
9.502105740270528 6.197677857389309 0.0
9.31559697209813 6.331647407124485 0.0
9.370938253597153 6.437386206819511 0.0
9.594764406124872 0.1099001288712305 0.0
9.602872681151728 9.894988341116305 0.0
9.622661196143387 8.076680696281343 0.0
9.769069277144705 5.9102532189237 0.0
2.615076109785583 8.807551523115547 0.0
9.658920005405456 5.730890135691177 0.0
9.76063135061807 5.720703211793342 0.0
8.63963723169499 7.177334225227945 0.0
7.841904391869763 6.41346852896409 0.0
7.764520718520185 6.297267738834625 0.0
9.546492996136271 3.465225175657335 0.0
9.25600964352143 2.219157062786616 0.0
7.625057159226293 7.012987957636062 0.0
9.529121062829038 7.730283486008674 0.0
8.329887090625894 3.845190321147069 0.0
8.265841850823831 3.95687001944245 0.0
8.402006523775544 3.947660780406651 0.0
8.128436391670505 3.968543393650448 0.0
8.46705122470662 3.835767362024195 0.0
8.218867047074696 4.063481375518748 0.0
8.089763413611255 4.08062363292928 0.0
7.939578083855268 4.111915744184436 0.0
3.74991304509639 6.615676756107112 0.0
2.627714335615619 1.170993030860914 0.0
7.046129971268607 6.759930788612616 0.0
8.534603732661887 7.486325780553722 0.0
1.569381386467569 2.042794535871475 0.0
6.228703743210918 1.986421863690014 0.0
6.467030855792859 2.67190498312861 0.0
9.272246093269825 1.975478263632296 0.0
8.05269609263041 3.854522845257449 0.0
8.008595521536957 3.177870309354594 0.0
7.929796740504207 3.350600835935766 0.0
8.048703574664067 3.449582532910417 0.0
9.72947480375618 4.973926800124758 0.0
9.784850360535604 5.072865219810449 0.0
9.896036387646596 5.069261557893528 0.0
9.633140953203334 5.168645132864771 0.0
9.558102991128836 7.602453108835212 0.0
7.278758746505716 3.994295887299482 0.0
8.306681733482405 6.936428510427854 0.0
9.487163072013963 3.757777670075558 0.0
9.532950522284125 5.359403698944497 0.0
9.816036650072329 3.927268437107025 0.0
6.173882586235392 8.734645960664665 0.0
7.972518459433741 5.003005338485466 0.0
8.398453459336153 1.601072016988848 0.0
8.97460527296194 4.040886705742754 0.0
9.037941657530773 4.143578781749325 0.0
8.849604200183613 3.828506169652706 0.0
9.545296177100065 4.042698359132156 0.0
8.595941796785514 5.806754902023664 0.0
8.65588412428292 5.694192853853139 0.0
8.723710665131787 5.801528918332044 0.0
6.861288985046249 6.673713222735126 0.0
8.87477249219366 4.664500928777609 0.0
8.72385765226959 3.608276264790996 0.0
7.145228858696953 5.573648565429618 0.0
7.282945121585866 5.558559688509987 0.0
9.224761401603633 1.602363370249125 0.0
9.609115686587552 2.986868833620756 0.0
9.633989947851914 6.628120633848649 0.0
6.046214325132457 5.45615093027661 0.0
9.017014346798927 5.271996636983457 0.0
9.070824864071271 5.168510834798647 0.0
9.189021391555556 5.166867900487267 0.0
9.123328759137758 5.064718588163964 0.0
9.240587446378079 5.06459430516883 0.0
9.250848280531756 5.267364371053135 0.0
5.773050603406019 5.7192906317521 0.0
8.576466432793914 4.3559007860436 0.0
8.634627802680399 4.253467736542067 0.0
8.461790117175607 5.591735227444779 0.0
8.907610717370224 3.713397213891439 0.0
9.80665594564509 5.628066492225966 0.0
8.985935132601089 4.455263493464225 0.0
9.00640209566022 5.067597672073404 0.0
9.833659276096986 6.976519563917422 0.0
8.0283368553477 4.687271895436317 0.0
8.326580191759327 9.127498457128247 0.0
8.650637373791266 5.07513089931925 0.0
8.701067313435203 2.700069743477523 0.0
4.825307249916392 4.884175191874744 0.0
9.418335984190309 6.858444798015129 0.0
3.91434687300816 8.542956908935874 0.0
5.569239724399552 2.064135034637056 0.0
5.234271567762738 2.128974435011933 0.0
5.757920427527626 2.312422707096966 0.0
5.43365689737979 2.427455772745759 0.0
5.673210219624612 2.602111218343444 0.0
7.214258468265766 6.652783071431555 0.0
9.823626269633962 4.30685540664529 0.0
7.96996639420014 4.794005510174826 0.0
7.616003332725032 0.502676560965646 0.0
3.050634530589821 4.659174799474146 0.0
2.870894249800723 4.246924313393336 0.0
5.285393339952368 6.079037173753393 0.0
9.439954241218905 4.23581687956071 0.0
9.67709722097145 4.710772408106511 0.0
7.40767785509217 4.259947873553335 0.0
8.396202587439676 5.486075637998701 0.0
8.323689688705493 5.372061002264632 0.0
8.191312386254125 5.384662546230823 0.0
5.304380054816289 5.369675374029755 0.0
9.093848379546637 4.047647920840374 0.0
7.916313220758624 3.045043876114836 0.0
8.435854831444637 4.144861908356168 0.0
9.060262453079693 0.7340576053322918 0.0
7.053195520344596 5.238809779682351 0.0
9.621762679347093 2.45205452967588 0.0
8.410730269104743 5.287995309529392 0.0
9.655094569234972 3.472720279371932 0.0
7.982140513923982 6.667914768024983 0.0
8.402690325256646 4.883576657130221 0.0
9.17488654147479 4.962006474835693 0.0
9.013188196102961 8.49700148123058 0.0
9.795977244531603 2.156818021002043 0.0
9.893813711206834 9.545820400859157 0.0
7.965349232662289 4.250048884270795 0.0
8.644264557989125 4.874751532150782 0.0
8.215430976121077 1.26077208565765 0.0
8.379717637669398 8.37324652769609 0.0
9.320026533461409 5.559861899725609 0.0
7.885778178744864 0.4977439426642278 0.0
7.547066983926719 5.125166613071239 0.0
7.657542898944819 5.122996245335209 0.0
7.423918840193691 9.000935553397358 0.0
9.854133000712425 5.541931969512857 0.0
9.328508174398952 2.101486405523264 0.0
9.300749600926641 9.530012105354274 0.0
8.130307182491519 5.277079344947874 0.0
8.346752967392757 4.987627363826086 0.0
9.118404185029991 6.007087846617186 0.0
9.048232213728614 5.89431792713258 0.0
9.088340967655858 5.576242562571367 0.0
8.094762487139027 4.789727191449318 0.0
9.915265904493378 5.749591413470928 0.0
9.92169805280126 6.154216704502091 0.0
9.918022441582268 4.549125436287157 0.0
9.919332362905616 4.849536560132457 0.0
9.914800786693318 6.750595509794719 0.0
9.811792900437824 6.703950687575952 0.0
9.900643083988882 3.749855087409844 0.0
9.912423171222734 3.043228996968949 0.0
9.91892875832665 5.949999999993851 0.0
9.913300070218703 3.960831593817277 0.0
7.709347001661226 4.444236534782706 0.0
7.479443107717332 8.071637285053104 0.0
8.839057072155848 6.807845119358974 0.0
8.972330068019902 6.78765448182788 0.0
8.542093772125282 3.941452413628317 0.0
8.279144752968262 5.930387616620717 0.0
9.393455876855919 4.973162505621418 0.0
9.507123333872533 2.855087674515822 0.0
8.77504684283825 2.317347145885344 0.0
8.394133129040345 4.464046960801843 0.0
5.725509852450801 8.210843960481027 0.0
5.62632390239664 3.967637659758752 0.0
7.910815814627989 4.900765971697654 0.0
8.595808444085467 5.590040244353608 0.0
9.705160502006024 0.8106158419444889 0.0
9.82021247904746 0.808810893177099 0.0
9.218352146075844 4.447736986422823 0.0
9.20781892622228 3.858281726888132 0.0
8.713609974387523 5.178241668554946 0.0
3.55755059259364 8.921522400238844 0.0
9.59122926011489 5.452844834281716 0.0
9.70565100407009 9.77887811062354 0.0
9.826938454219809 9.74303055702321 0.0
7.238962096855633 3.278078153406256 0.0
8.575609105166194 4.567807831727537 0.0
8.936449841121737 4.765835458965493 0.0
5.59323463391086 9.248527978398117 0.0
5.280809113285124 4.886132326418428 0.0
9.328132730893216 6.544753806716806 0.0
9.026944889277736 6.67247283515637 0.0
9.81946239021469 3.007926663525007 0.0
8.677633568960493 6.144049349297466 0.0
8.33427489656924 4.571212803519522 0.0
8.55734024448315 6.382535186588269 0.0
8.692399379422756 6.372347713955898 0.0
8.495817478252626 6.503308565233578 0.0
9.905494734661673 2.544078755559835 0.0
6.177101405266569 7.228490244483556 0.0
9.825373011845263 5.807482724503027 0.0
9.808678508609606 8.118683092442964 0.0
8.397717712407108 7.08010313863416 0.0
7.428555529689225 4.935946611338556 0.0
9.575504958128711 6.125633853639113 0.0
9.154066996197898 4.146562596982661 0.0
8.074381802159323 4.337569667261167 0.0
7.018337246891919 8.843475095716133 0.0
7.970627172560641 2.658650028065857 0.0
7.382546388883145 6.723381543491632 0.0
6.822972334933889 4.884555620881615 0.0
8.343732976791593 6.041576709398377 0.0
7.743680217306919 8.423336160305476 0.0
8.505717922983454 1.115022897794028 0.0
9.113973198216474 6.992972408167606 0.0
5.818882632841168 5.300437503812764 0.0
5.951991891717714 5.279516346785062 0.0
9.450183479138845 5.92934813870612 0.0
8.783346541536119 5.48419035750989 0.0
9.38074895894124 5.65076274999803 0.0
9.513658728876734 7.193620441323493 0.0
6.396040948797887 6.776064256962667 0.0
5.389661780244388 4.89715084345563 0.0
4.473247649068957 5.85935163892416 0.0
9.249586607512612 8.37680799459232 0.0
9.103796366487646 8.379197231055114 0.0
6.274057301184156 4.87985402946409 0.0
9.259628836118232 3.561431822636308 0.0
4.037922477011971 5.489409780163391 0.0
5.62712958624254 4.893925433488392 0.0
8.806426003347967 6.133410188141932 0.0
9.53304466499349 9.59279975429444 0.0
9.542890959420024 1.966631379116419 0.0
7.459736176874619 5.863847835420528 0.0
5.937613117200432 4.89232797168023 0.0
6.171611131472617 4.879541833448487 0.0
6.100695199816815 2.291172318314745 0.0
2.315194906726768 8.081958163666464 0.0
6.878489987598286 5.148099521847569 0.0
9.105264414399338 8.639184652727645 0.0
9.20047261316883 3.457820810661327 0.0
9.895329010385955 7.55944047105717 0.0
9.912742873006831 7.76210330502246 0.0
9.37761459375249 3.168397068877758 0.0
8.946121261512507 6.345629828835438 0.0
9.918632496443566 4.449809517365367 0.0
6.848211525651934 5.945010613369067 0.0
9.915721525903255 2.047407395915179 0.0
6.117255841708726 5.163321965161054 0.0
7.276595248786602 5.347247322210079 0.0
6.32682869954104 5.23674259421017 0.0
8.785886448438022 5.692775375342819 0.0
9.099994401883361 6.776698531382792 0.0
9.913397459621638 0.2499999999998165 0.0
9.910352525643928 0.4481571029410266 0.0
9.907850422008579 0.5479735220323012 0.0
9.911983631350465 9.24778487019403 0.0
9.917634740384067 0.7514684821956668 0.0
9.195214232985496 3.254172408378337 0.0
5.000896927376288 1.846006038077654 0.0
9.917172478547403 8.250155740683276 0.0
9.908120476950126 1.742986232208194 0.0
9.914524635720774 1.949567899316728 0.0
9.907358878377153 9.145625165175748 0.0
9.917695944922635 8.949999999998397 0.0
7.648387553139914 5.325741673607362 0.0
9.605343588986079 4.130627398479715 0.0
6.648113233057817 6.774798386229164 0.0
9.910347203087213 8.446729917003672 0.0
9.913623694530468 8.548470085896316 0.0
9.9201245863254 1.536225488581779 0.0
9.906538426683255 1.059019360781604 0.0
9.912867352010919 8.74999999999809 0.0
9.799662981388353 8.79550485462418 0.0
9.831828680383174 5.99966894118311 0.0
9.91414179906643 1.263025320602998 0.0
9.920690092699912 7.240982963665807 0.0
9.385889285950551 2.235126904097426 0.0
9.28133998925606 8.00415195851526 0.0
9.817074723108401 3.172398890123306 0.0
9.482030285089927 7.512954023388035 0.0
6.682432918504054 7.233889573028878 0.0
8.528699633246763 3.260502457553277 0.0
8.91699963742029 2.327016692708648 0.0
9.267676068834481 3.954520684561369 0.0
8.70811637467455 4.974101624783084 0.0
8.18184214270768 7.816666208279135 0.0
9.690393137288163 5.264344933127836 0.0
6.937111790104696 5.245184991960528 0.0
5.895846026722989 5.174232967273284 0.0
8.281683356622615 6.400073017261236 0.0
9.150883172924027 7.444273543454419 0.0
5.430406600793122 3.390815886517273 0.0
5.049583827974758 5.697634876048387 0.0
8.3966710383105 3.495813899905868 0.0
9.007538428392454 8.046563579784266 0.0
4.645155158868719 2.637132843684674 0.0
4.887444326771336 2.30020425915506 0.0
6.483736782775559 4.522536327482678 0.0
7.843169154548308 8.2116075844056 0.0
5.06295551628385 4.901632590583318 0.0
7.201400991012747 5.138239336380897 0.0
8.519791031104612 8.848807089071627 0.0
8.658623737989732 3.031313729049854 0.0
7.585566208322493 3.629882964874684 0.0
8.411818469596405 6.834326722716643 0.0
9.172363528634236 7.669230647622864 0.0
8.85455683341768 2.682483055215344 0.0
9.359398739738925 1.631421337140716 0.0
9.071793864444992 7.337030604117359 0.0
6.968394563521436 3.712808894519514 0.0
7.899236117684646 7.094583340182754 0.0
9.54362864504834 9.781852543872333 0.0
7.151298729743687 7.644795130415299 0.0
5.452218361466201 5.186873761308322 0.0
5.517642289161902 5.293540933999446 0.0
7.802500357665464 5.978295671754199 0.0
6.594850839687122 8.491429270558893 0.0
6.029132431949566 8.294997405201931 0.0
9.31286590869111 0.5672913838331921 0.0
9.25238720319541 0.4415953739444106 0.0
9.550589523211062 4.228044955453704 0.0
8.748611832783206 6.250900951984038 0.0
7.566980108995873 3.995148257893202 0.0
7.426142759241261 3.996743578498081 0.0
6.478912513785404 4.000296412419969 0.0
9.30435638148753 5.168210982711592 0.0
7.542154188520517 5.752525075248498 0.0
7.219033852073297 2.139582470800704 0.0
7.370913620388047 6.545121498197235 0.0
5.226731036024996 5.187572666585561 0.0
8.515591031124366 4.462223215179979 0.0
6.762864307079274 0.3078036604979366 0.0
8.587432696997471 4.977010533175154 0.0
8.703948448756302 8.815629076400704 0.0
8.081003990931544 7.370949680119862 0.0
7.424404567669909 6.949730915714445 0.0
8.578903262311433 8.377992954045473 0.0
7.301258690263783 6.106184350645308 0.0
5.991600556904204 3.99820087171043 0.0
8.203048538477193 1.601044215405025 0.0
7.289972483120081 4.572350254111052 0.0
7.714697186439165 5.420586967696794 0.0
8.918853780709807 1.841796898567452 0.0
9.919941345877513 4.749808449067644 0.0
7.245589454939737 5.94251251443003 0.0
9.258480524497795 3.358952871140391 0.0
3.705877615124628 5.574038727593425 0.0
8.287096858129765 7.962370605242409 0.0
6.799629860952143 3.705385600481528 0.0
4.146753450763018 6.544154457143895 0.0
7.413973555029582 5.545687501585183 0.0
8.466524978378082 4.980481756569235 0.0
7.336312153537934 2.337983522449311 0.0
7.695505222753409 3.747498713679684 0.0
4.898236813123799 4.795853653580084 0.0
4.59779105899602 1.896916774247134 0.0
8.560170375862322 7.072369101894893 0.0
8.386150468360862 2.449771437140704 0.0
8.41200018115259 5.084601315536367 0.0
5.102189912301071 7.621598618277815 0.0
8.336320418935243 6.71651223072348 0.0
5.081745734883095 3.977838926197614 0.0
7.63590698378166 0.9500570055008507 0.0
7.743369677149255 3.051233984704873 0.0
5.357527459690566 0.3809996753407537 0.0
5.967373112873382 0.7731113464301924 0.0
8.169449265206127 6.666271947462212 0.0
5.95122726745053 5.55758205410881 0.0
9.922289489207834 3.53923011719877 0.0
9.39154684476555 2.659037023454942 0.0
7.701415639167884 7.690060291860976 0.0
9.819179654793023 1.329863870021845 0.0
8.358229579054417 6.506108206863729 0.0
9.269720555169467 5.657096143475924 0.0
4.473187658045934 7.435037860084884 0.0
9.65807158077373 3.255496360750368 0.0
9.605155446454205 8.713645566904637 0.0
7.097383547728313 5.141197376985936 0.0
9.812212483832656 1.89920712759492 0.0
9.83875570675407 6.81603549325055 0.0
8.926246869879279 2.079976511571457 0.0
9.166785856141402 9.169070814302419 0.0
8.763479010228052 1.587152667342957 0.0
5.957377924852992 6.404530806530254 0.0
7.14506854375872 6.10342416684208 0.0
5.672595070581394 5.164323323112049 0.0
4.899782787268781 0.3801727265981219 0.0
4.447133848117348 4.673614099606824 0.0
7.044865074789195 3.253639989243549 0.0
9.818461337102992 7.819456450952447 0.0
9.925334577033155 7.954012377173311 0.0
6.352907898232792 1.173665225954276 0.0
7.351721385581032 5.660361289755705 0.0
9.337367583861807 2.76534436379692 0.0
8.693118347802024 4.360254099729149 0.0
9.476812970101324 0.3524826622168163 0.0
7.109868985890334 0.9024224571333925 0.0
7.899106846231403 5.511805431542581 0.0
8.352799544476607 5.187887629361129 0.0
6.957483547582747 0.6176251309213842 0.0
8.099559500483094 1.412323841044818 0.0
9.913030944540278 0.8542404645334569 0.0
9.143075088381442 8.022165366829135 0.0
8.819861450593166 6.356592599428041 0.0
9.319444417409162 1.49938505915629 0.0
6.490262520326714 7.118204362551877 0.0
6.490874470087819 6.582907761235813 0.0
9.82506653058937 0.6146757679104559 0.0
6.803129818897624 4.419048038171804 0.0
9.840901379354312 0.08198751964190581 0.0
9.839740374244226 9.918356239418472 0.0
8.551927134544655 9.449788917425456 0.0
9.92097857388158 3.249999999993177 0.0
5.797087413057367 7.077351493358238 0.0
9.255412859987286 6.433984412022419 0.0
8.668174522249984 1.740767926084485 0.0
9.920991430240607 6.25262219124529 0.0
7.57275248448898 1.94367954756322 0.0
8.052865444445507 8.19900054463639 0.0
8.748697149245206 4.25201068974208 0.0
9.158270227735827 0.5542256343091421 0.0
5.997487767477439 4.787924707603557 0.0
6.119759900601896 4.78043793682227 0.0
4.353034750397793 8.619182743639561 0.0
8.721093521611476 5.588932824583312 0.0
5.717101151444983 1.123034066822819 0.0
9.825602081347064 8.68753399402474 0.0
8.005502510832988 8.7824052910506 0.0
5.548184234622668 6.408009287230429 0.0
5.77830300433981 6.598697187164234 0.0
9.613093825495433 4.50282172481406 0.0
9.928981132641653 9.74928475696928 0.0
6.613628176297015 4.515513362596662 0.0
1.822126723816303 1.297795131355289 0.0
9.514164594137375 1.43081427463862 0.0
4.735494753432723 3.698541604583975 0.0
9.52844959749262 8.615213629960298 0.0
4.660704511759056 0.7947595073298008 0.0
6.82340845160293 5.239926830264399 0.0
7.885938077030673 7.380147032865134 0.0
7.884599891021201 6.09005968568029 0.0
8.846834820720167 9.653276456345532 0.0
8.457777199486827 0.3851010632068662 0.0
6.66485224572131 8.771510767670392 0.0
9.091499342133352 9.708315832477556 0.0
9.824286725109655 4.976315293637262 0.0
7.848197684391786 5.632217046637356 0.0
3.88430598115417 4.225391362015386 0.0
8.776890759183289 2.809688928468134 0.0
7.393884285023409 3.59397875231041 0.0
6.927568893329758 4.396788356869783 0.0
4.96854327720728 2.662368428358774 0.0
9.1480130720193 3.951479613991279 0.0
7.071049729490975 2.38092990636632 0.0
3.40193058782919 1.686321186206593 0.0
7.612042194200681 4.815904436723407 0.0
9.043395868401339 6.888481825015849 0.0
9.098933057562759 8.152197681006806 0.0
6.058682303253315 3.857501492181965 0.0
3.707092669281355 2.986685502034343 0.0
5.113272509841263 5.189455016444592 0.0
6.960565857079232 3.416349532571279 0.0
8.755151527375476 7.649255597361291 0.0
3.393680865444538 3.679982303262531 0.0
3.117424600120088 3.35605258976247 0.0
8.530814041264104 5.488376426140491 0.0
4.820719767306654 5.106646490188182 0.0
9.918899263509473 4.144927088739744 0.0
9.918194630017027 7.447268230913605 0.0
8.461970084137805 3.144844565847669 0.0
9.924415919486059 6.949999999995354 0.0
7.184050152099684 2.72771667662237 0.0
8.834356715215904 7.801565642745232 0.0
8.689015446783005 4.145232831954543 0.0
8.490778532265319 8.234414357968106 0.0
8.63666290918932 2.83060276219705 0.0
4.61028976098935 4.741894230894578 0.0
6.314735925012879 4.003132559161639 0.0
9.20786580425652 4.67001723737971 0.0
7.141401229301469 4.873205425098625 0.0
6.235177809922153 4.774126344778935 0.0
9.12491895896937 3.145675090615719 0.0
9.255747684068178 3.162525801823036 0.0
8.312852272796098 2.290855459722148 0.0
1.449266720542303 3.363629101350872 0.0
9.525687840398492 4.800807314407045 0.0
4.829905263804087 8.14474456977717 0.0
9.09338914689732 7.563794106183232 0.0
5.389401689694107 5.283808684471545 0.0
8.530979415204587 3.029374286908943 0.0
7.901489077080633 6.535344047486632 0.0
9.218572924671975 5.760893551533255 0.0
8.562382833959296 4.143913974026883 0.0
8.62959127904665 8.974877485888243 0.0
9.408442441596518 9.62276529745719 0.0
7.5034765601713 3.869833107932387 0.0
9.842813436634783 6.600620949014236 0.0
9.826116984327193 8.911617279149695 0.0
7.529907780698261 0.7369111006685982 0.0
7.832164962480427 2.905293639437395 0.0
8.39517908433056 3.267417602291069 0.0
9.823014010107707 9.085319632577246 0.0
9.022314123618541 3.944559746338292 0.0
4.243701230676532 5.332574856090426 0.0
9.816740542566388 1.127839952679595 0.0
8.166775715766304 5.693916696568397 0.0
8.865374421689054 8.068986769641638 0.0
8.761145809863661 6.470583506581853 0.0
8.998345275919851 9.209303502026401 0.0
9.698477487436316 6.706902829754045 0.0
6.439032098063426 0.3109134377713525 0.0
7.562681994382136 4.643158005207056 0.0
9.03999088074715 0.2799354672273258 0.0
5.180741540467516 3.805018725608906 0.0
6.243990330956698 2.718077286244967 0.0
9.79416634023361 0.1815240178579244 0.0
9.926540005061975 2.847049370876555 0.0
9.826476210374608 2.670192168078066 0.0
6.365816673179121 4.536333049275508 0.0
5.546353765219417 4.618331215552614 0.0
9.820703096450293 2.000649418331399 0.0
6.884388790679166 3.561583980715254 0.0
7.431303395649604 5.747824222777201 0.0
8.849816832721245 2.19318290395604 0.0
4.185147517585975 5.697469360586313 0.0
9.165905238119013 5.873664931582344 0.0
7.70479478158537 1.788324620089049 0.0
9.627376046933474 0.9196091445437269 0.0
6.657687963328663 5.144792385996769 0.0
9.83245016645186 0.3925568446109945 0.0
7.483092985762584 9.253837199159435 0.0
5.445348362202234 3.977855663863651 0.0
7.476680532833337 4.837183287808616 0.0
9.572749890969304 8.505160319814301 0.0
9.915853314998252 9.437014513917465 0.0
7.679469018350979 7.390484878021194 0.0
9.418139053434402 4.790576000488359 0.0
8.096967733471567 5.865447162201908 0.0
9.829153508938724 8.378494945652118 0.0
9.926595955569645 5.157718300415699 0.0
8.774484245600224 7.939747459426853 0.0
8.629764448155779 6.481031318922794 0.0
8.961169458302376 3.839036702328818 0.0
4.617199205561317 5.256318959792646 0.0
8.480815774219478 4.031210317621497 0.0
9.708341592512763 3.401018043990571 0.0
7.183974816647467 4.77882314543966 0.0
9.821437962294304 7.659391965474772 0.0
8.150320284869602 2.286501016204562 0.0
9.828114434347311 1.684891358832554 0.0
5.349187766238684 6.538177907133678 0.0
8.076053471314525 2.76180604769483 0.0
4.907713691134565 5.29818629967416 0.0
0.6874399366049438 4.328593906714074 0.0
0.6980011780697519 5.702671170050627 0.0
8.263861466707834 8.182284285231713 0.0
5.838783785156478 4.913981390426639 0.0
7.807619472656604 7.235706382002089 0.0
9.388504256318683 6.022122644748753 0.0
9.929839894767033 6.436189192303577 0.0
8.3205848711706 3.39107920408397 0.0
3.240770542267401 4.019899919523968 0.0
8.059047070496568 2.468855909103855 0.0
9.932479519490421 2.449625056415224 0.0
7.737639000139152 4.580708137963557 0.0
8.26141077223695 0.3940397126348397 0.0
9.69568953371801 1.959951226402445 0.0
6.469120930453264 4.892267070266994 0.0
9.167223997255698 0.8102256463122337 0.0
6.236889648241256 0.9291076084031108 0.0
8.306379082772498 5.268830342852036 0.0
6.716089118890225 5.239344620507032 0.0
9.82511981852641 9.282822358664017 0.0
6.68375719572285 4.404998642130821 0.0
8.913754712375674 6.908138360584365 0.0
6.173250048857013 5.251634416326969 0.0
4.235907497612446 1.924052997345291 0.0
5.151007663981651 2.438629730660893 0.0
8.924254300637541 9.3764975797567 0.0
4.438612423541503 5.287968640901957 0.0
8.571203234299599 1.897009944569934 0.0
6.878800676380218 5.821332862798138 0.0
5.710626178601224 4.792560699857408 0.0
7.149510071621283 5.216310009157644 0.0
2.099966541549645 2.334742113488256 0.0
9.93396330620579 5.350566393301629 0.0
7.143046479323961 8.646955109387985 0.0
7.965747313080266 5.193641450105844 0.0
6.3314394693073 5.135050228240639 0.0
7.665821333021348 6.222698255001823 0.0
6.305321657053551 4.659816230868476 0.0
7.833020917089713 5.208837056143474 0.0
9.41455902676429 2.869725681199307 0.0
8.567151507735133 6.598605357295113 0.0
7.405527786978573 4.377085529441429 0.0
6.552969697053132 5.137148974085434 0.0
9.93630620742063 8.042778076596578 0.0
7.166743296019233 4.593171678848165 0.0
6.595561806063966 5.839366735225723 0.0
6.066152182102007 5.262519562574559 0.0
9.834694151277489 0.9093455747994099 0.0
8.98259191950674 7.579732466796592 0.0
6.465071238839505 5.25485771955322 0.0
9.759759896588413 3.236659507608532 0.0
4.775529448101694 5.224235675150505 0.0
9.935991245222917 7.153416415978829 0.0
0.6530736820718381 9.352299998916202 0.0
0.6449439415299687 0.6468300344151556 0.0
7.804690364869245 4.495816547678174 0.0
9.84503784553893 5.70620404704573 0.0
9.83525329400959 3.826992990746767 0.0
9.922964894244684 4.265000406933376 0.0
8.333767638401964 1.121219971446645 0.0
8.876012546033895 7.019147158538482 0.0
8.172413577824324 3.413096916572049 0.0
7.232233017296214 4.478957103028363 0.0
6.214597295185415 3.852860083673202 0.0
9.85013791746415 4.400709747289421 0.0
3.941627380932058 6.342995010255737 0.0
3.097271569675528 8.77391871286929 0.0
9.292917152323044 6.010976049411984 0.0
8.104342196673183 5.184165973282902 0.0
8.994300084006271 3.652611812846807 0.0
9.937157897030163 5.549999999993244 0.0
8.721368888525245 7.274540720770752 0.0
8.920003648712827 0.9516585309368178 0.0
7.910527456030004 8.536826514867816 0.0
9.846441288756814 4.60515911863952 0.0
9.584942233925151 4.712073182517884 0.0
9.642357858573972 6.805672051759494 0.0
9.797024725252207 9.838837222258014 0.0
9.842451438022124 4.018973836958878 0.0
6.112723137676118 3.704473949316424 0.0
7.574641969193845 3.765362276156904 0.0
7.826594968121701 6.200366572362263 0.0
7.762805366733504 9.34009502796868 0.0
9.56854033867856 1.012566255816665 0.0
7.71256563655353 5.219373702836014 0.0
9.68039392238282 8.786964504862018 0.0
5.910362452777086 9.277662068919813 0.0
7.418090653922814 3.326443419100716 0.0
9.857704179097952 4.697553149694669 0.0
8.452469674653342 8.996585816905599 0.0
9.522351366699843 2.057525484575908 0.0
7.802315574700843 9.548878971475935 0.0
9.938875656926385 3.449999999992592 0.0
8.425189037911712 6.608575180629274 0.0
5.925965231566842 2.523669697740033 0.0
6.654918072256329 5.95749128982984 0.0
9.826748589235729 9.631118448471485 0.0
8.6684585637523 7.39633999085442 0.0
9.844673843931567 3.090088625379724 0.0
9.93613850661301 2.250382721159617 0.0
9.218291993658738 2.892108990205171 0.0
9.83502846611296 8.212781989607324 0.0
7.754136409732265 7.104288507262783 0.0
8.510570542791681 2.036933285735889 0.0
7.757745059307245 4.315798612475442 0.0
7.989231770559189 6.201656630465583 0.0
8.068934521422738 4.198631572122605 0.0
4.957478134450373 9.038766150325067 0.0
7.208661142641733 6.501402463831379 0.0
7.299506095906239 4.363561999234681 0.0
8.250303873550486 2.105322217421675 0.0
8.678637541413377 7.053471135702286 0.0
9.761528395137384 6.163503990672834 0.0
9.84494857233395 8.59999999999775 0.0
9.83825138794677 3.672838954969637 0.0
5.121008544047756 5.808127183024784 0.0
8.343911550360986 4.043535893276861 0.0
9.85324441775315 5.899999999993774 0.0
9.51114465213134 8.41035540646284 0.0
6.505812179224195 6.93390566262983 0.0
6.15572847138365 9.023097246950844 0.0
3.352081892333425 3.024853379890529 0.0
6.433163283162099 8.675072413910678 0.0
8.825744236698243 3.624446391299867 0.0
4.883007294861279 7.819620905924936 0.0
5.876659170760434 5.638247433601083 0.0
6.859400040348503 6.510797998354633 0.0
7.946400945409184 3.500317276373196 0.0
7.496830255505493 6.653194511698024 0.0
9.852183479755313 4.891525833556942 0.0
9.77998778436291 2.922486526124376 0.0
6.774672660492365 5.324728659740495 0.0
5.717254072187427 6.824125962512845 0.0
9.713440940838062 4.63793103997539 0.0
8.859858662536796 0.2721395536350836 0.0
8.37556017530946 9.436653414116012 0.0
7.395237381047616 7.885576562773319 0.0
5.4709157802033 4.511152089197594 0.0
9.489749416979361 9.691840729914848 0.0
4.599216022837964 3.46438688931078 0.0
5.572287492757569 4.807021644849729 0.0
9.926499336309957 9.92730688390086 0.0
9.926499336310107 0.07269311609890093 0.0
9.338127766332573 0.3585313952168247 0.0
6.810761948165162 3.414693294319008 0.0
8.166274345037138 5.943611545564389 0.0
5.2892644736731 6.301081312912763 0.0
9.731911074791544 7.649313380659622 0.0
8.90251102352767 9.50983415326544 0.0
8.997881406541017 1.033666784655452 0.0
5.835124768755703 2.738139962594905 0.0
9.665357480775825 6.185331297099201 0.0
7.656532192558493 8.217157287499347 0.0
9.170463887605525 2.975444721032631 0.0
4.208158615905443 0.8648302238584886 0.0
6.97015686031129 5.933674629077266 0.0
6.181941366523793 3.565885175921835 0.0
3.30313590337911 6.393402837735046 0.0
6.447482061767014 4.816169316820496 0.0
8.185341428749446 4.169172087371246 0.0
4.552595724340015 8.298301336212145 0.0
9.84850676569699 8.999999999998423 0.0
9.846941514449377 7.393642828194986 0.0
7.924592433490734 2.788309934035703 0.0
8.154308714226714 8.853640122009672 0.0
8.876629743004642 1.96110242719995 0.0
7.228849192966834 8.90811350348676 0.0
9.852301635085423 8.296637825215246 0.0
5.219795195341889 5.547413133147649 0.0
9.861497117995457 6.901363010201344 0.0
2.953911258021604 6.136007283255669 0.0
6.93158841067062 4.77708273647784 0.0
9.67540418457871 2.912802891506324 0.0
4.194055958522277 4.437353127730132 0.0
6.133959559341536 0.406856611599261 0.0
8.29952795189331 9.309744645643846 0.0
9.843692337952948 1.209647690818311 0.0
5.164986286280336 6.671544079402435 0.0
9.838533350075606 2.081705440779448 0.0
8.301244777513975 6.604088853319459 0.0
5.471494771710784 2.714598185146428 0.0
8.86534684892311 1.208599471795828 0.0
9.940610684232212 1.451558535868664 0.0
9.40896208432968 1.428353940655538 0.0
2.329177605337097 4.238803555614174 0.0
5.980761651517799 7.182207186682233 0.0
9.66541573964336 0.1719254072074424 0.0
7.220979380229172 7.806128737674462 0.0
1.251721227904697 6.151932667911503 0.0
8.104967286191181 6.057912607875576 0.0
6.650768762224724 4.817922869198292 0.0
6.634976350437587 3.213339182992986 0.0
7.034320437500567 4.898219100342838 0.0
9.502772020064167 6.283064492634301 0.0
8.13187938667684 3.518506862055515 0.0
9.855471943454193 2.599999999994991 0.0
9.056747742708522 8.263936599935574 0.0
4.352645795441222 5.724453640019 0.0
3.744263984699181 1.488951698361357 0.0
5.175860134287045 3.6375726667098 0.0
7.736434712114619 6.400417475661193 0.0
9.857658576695343 6.316607183405179 0.0
7.876525261950537 4.304285002335559 0.0
9.856114384785611 7.914602773442983 0.0
9.848334119947063 0.7059644476295188 0.0
9.59694321995579 6.895814046141667 0.0
5.906465212962551 3.869023950643881 0.0
9.840676994268005 9.364956386459765 0.0
5.355015287544095 3.83518170601625 0.0
6.374090407153147 5.855743754257685 0.0
8.227401290513832 5.297819733684674 0.0
5.451235131977493 4.825706629991923 0.0
6.022070213762754 5.355923882747634 0.0
9.845674433677614 6.108401449483281 0.0
9.835067400944396 7.739582406783081 0.0
8.602026805792988 2.941372356914139 0.0
5.059869081004962 5.269480960018243 0.0
5.284714507903736 5.26496663762182 0.0
9.627110479149561 7.660076105040499 0.0
6.820001127809743 4.792514421153957 0.0
5.120512795059439 4.806607659110254 0.0
9.56933817216883 2.911464407429096 0.0
9.74091654291531 9.267545397628387 0.0
9.93006767325302 6.576784040838644 0.0
9.642486276936268 4.650227701598451 0.0
5.185183328569137 9.410919109238325 0.0
9.37052946854105 4.605636695802024 0.0
1.677077220416309 5.871167715901136 0.0
7.345783833404538 3.184020711886284 0.0
5.419239942654976 5.982692039856376 0.0
6.133318300188262 2.551919945731369 0.0
6.187291396343277 4.499077117404439 0.0
1.231465237822878 3.921479198315213 0.0
8.969849937139944 9.699215363213542 0.0
9.218303154263054 6.037447959776716 0.0
CELLS 4886 19544
3 1113 1356 1450
3 1402 231 1659
3 272 269 1414
3 396 394 1777
3 1451 945 1452
3 194 81 1801
3 1847 1501 2104
3 2024 2121 2479
3 1115 1113 1450
3 1124 1413 1844
3 1061 1955 2409
3 307 305 1645
3 1592 1369 1593
3 238 1501 1847
3 1955 1883 2409
3 1808 243 1910
3 1885 978 2362
3 1440 793 2092
3 189 1488 1608
3 353 350 1864
3 2007 2231 2232
3 307 1645 2493
3 1096 1760 2496
3 2178 874 2179
3 621 625 1595
3 1493 1480 1938
3 1655 1268 2137
3 1341 1410 2212
3 243 1808 2360
3 1902 1446 2516
3 1760 1096 1763
3 856 790 2180
3 2008 2046 2105
3 789 1809 2067
3 694 1543 1575
3 1127 1762 1953
3 1748 807 2228
3 1543 1308 1575
3 820 1872 2170
3 1417 954 1998
3 1369 1592 2386
3 272 1414 1787
3 329 333 1998
3 1544 1095 1545
3 2231 1490 2232
3 1342 1683 1790
3 374 377 1797
3 807 1678 2228
3 1665 198 2128
3 141 142 1620
3 325 322 1952
3 231 1402 1654
3 198 1665 2010
3 1890 1307 2387
3 208 1438 1619
3 2016 1970 2156
3 1436 212 2020
3 954 1417 2333
3 1736 1894 2244
3 1491 1750 2143
3 1677 1064 2146
3 1474 1258 1475
3 1500 233 1930
3 1446 2415 2516
3 1700 973 1800
3 2128 2270 2316
3 1316 1315 1593
3 1307 2341 2387
3 2258 1324 2328
3 1083 1507 1508
3 693 1095 1544
3 621 1595 1596
3 667 1571 1872
3 1932 1766 2061
3 393 391 2240
3 1342 1790 2400
3 252 1707 2234
3 931 978 1885
3 1430 1116 1704
3 1411 1109 1714
3 1478 1227 2440
3 1990 195 2297
3 1792 1167 1985
3 1682 444 1975
3 394 397 1777
3 1711 2028 2162
3 1574 856 2180
3 2008 1851 2046
3 736 1493 1938
3 1069 1060 1662
3 1458 455 1754
3 862 691 1705
3 1161 1642 2286
3 1699 1700 1800
3 447 516 1637
3 955 1482 1483
3 2024 206 2121
3 391 1773 2240
3 1072 1412 1893
3 212 1436 2350
3 1566 1365 1568
3 259 1441 1672
3 872 870 1764
3 330 328 1889
3 1539 1161 2286
3 1897 1898 2275
3 1434 1990 2297
3 1109 1411 1730
3 319 307 2493
3 1762 1761 1953
3 1369 1316 1593
3 1540 834 1832
3 1505 652 2442
3 1732 1655 2137
3 921 1712 2295
3 1872 1388 2170
3 1712 921 2125
3 2028 244 2162
3 1506 1570 1680
3 1569 368 1964
3 1571 667 2375
3 1587 2178 2179
3 196 1723 1737
3 524 2016 2156
3 1528 1250 1733
3 1115 1450 1973
3 1938 1480 1971
3 1809 1396 2067
3 1641 249 2299
3 1223 1258 1474
3 1365 1566 2120
3 1981 962 2316
3 1538 353 1864
3 455 1458 1756
3 152 233 1500
3 1116 1430 1703
3 817 652 1505
3 1347 2003 2004
3 1607 1958 2085
3 194 1801 2195
3 1410 1341 2351
3 223 1415 1710
3 197 1511 2346
3 2198 787 2225
3 81 82 1801
3 1438 208 1620
3 1444 522 1823
3 1511 197 1950
3 726 718 1567
3 1637 516 1739
3 1708 2337 2341
3 1280 1649 2124
3 2337 1395 2341
3 1327 1709 2315
3 1225 1227 1478
3 691 624 1705
3 476 2224 2305
3 830 832 2204
3 1750 1491 2403
3 1366 1897 2275
3 2345 1583 2352
3 2054 405 2110
3 1984 2172 2230
3 1846 2198 2225
3 1177 2042 2418
3 2121 1367 2479
3 1527 1531 1541
3 916 1039 1834
3 1413 1124 2467
3 1622 1503 1868
3 249 1641 2019
3 1805 405 2054
3 1761 1007 1953
3 1415 223 2395
3 960 1756 2203
3 368 1569 2135
3 1402 1659 2473
3 941 1433 2471
3 1267 1477 1501
3 260 2002 2265
3 1704 558 2077
3 2224 1886 2305
3 2053 1386 2199
3 1452 945 1952
3 1717 1611 1718
3 1682 1975 2230
3 1760 1762 2496
3 1481 203 2104
3 1264 1266 1670
3 142 236 1620
3 2133 1182 2179
3 1791 1602 2183
3 350 346 1864
3 1412 1072 2393
3 1281 1575 2255
3 1565 1948 2155
3 849 1449 1513
3 1958 396 2085
3 1339 1069 1662
3 834 1540 1917
3 269 267 1414
3 1268 1267 1501
3 1440 2092 2468
3 1399 1981 2316
3 1635 1636 2041
3 1454 252 2234
3 1451 1305 1890
3 1375 1883 1955
3 362 366 1786
3 1484 2410 2528
3 1449 849 1640
3 1267 1474 1477
3 200 1611 1717
3 1054 1581 1582
3 1350 1977 2253
3 190 1390 2118
3 788 1956 2193
3 1709 1327 1888
3 2233 2298 2413
3 1488 189 2355
3 478 1685 1714
3 230 1525 1690
3 1687 478 1688
3 427 429 1756
3 1570 1065 2476
3 1880 1133 1988
3 1649 656 2124
3 1537 209 1614
3 1134 1769 1986
3 1220 1268 1655
3 396 1777 2085
3 1167 1755 1985
3 2229 1744 2296
3 1575 1281 2287
3 127 240 1882
3 377 647 1797
3 954 329 1998
3 220 1697 1698
3 1342 1341 2212
3 1441 264 1672
3 1512 188 2433
3 763 2345 2352
3 1685 1411 1714
3 1805 1188 1951
3 1347 2004 2157
3 1054 1582 1667
3 1333 1617 1674
3 2217 73 2361
3 1539 1036 1917
3 1039 1292 1834
3 208 141 1620
3 1965 1964 2038
3 693 1544 1969
3 1453 239 2279
3 203 1481 2049
3 945 1451 1889
3 680 1459 2134
3 354 2147 2196
3 1405 1932 2061
3 1723 1722 1737
3 1748 1175 1927
3 1532 1528 1733
3 2057 1824 2154
3 1406 1659 1702
3 1948 1186 2155
3 210 1598 2114
3 1685 478 1687
3 1324 1325 2328
3 1526 1250 1527
3 165 166 1509
3 1493 736 2523
3 1526 1527 1541
3 1390 190 2417
3 522 1444 1998
3 1680 1570 1732
3 1017 1442 2525
3 374 1797 2430
3 1507 1083 2197
3 1756 960 2221
3 2270 1400 2316
3 2205 1452 2282
3 1074 1187 1888
3 2158 1245 2200
3 1442 1017 1684
3 864 1116 1703
3 1750 1751 2143
3 1456 516 1492
3 1677 2146 2149
3 2022 1339 2388
3 1602 258 2183
3 678 1594 1595
3 1245 1670 2200
3 972 830 2204
3 2143 983 2342
3 1268 1501 2226
3 1266 1461 1670
3 1487 222 2465
3 1382 2022 2388
3 58 59 1661
3 2147 1543 2196
3 1484 1485 2410
3 628 2053 2199
3 1906 1549 2259
3 364 362 1786
3 1339 2022 2247
3 1636 525 2041
3 625 678 1595
3 678 1593 1594
3 2212 1410 2222
3 1837 1865 2215
3 1699 1800 1801
3 866 864 1703
3 893 1472 1982
3 1735 1736 2244
3 1633 1255 1922
3 126 127 1882
3 681 867 1656
3 1351 1401 2363
3 11 228 1588
3 1127 1953 2454
3 265 266 267
3 1722 1122 1737
3 1389 1691 2069
3 1613 1610 1616
3 1227 1256 2440
3 429 455 1756
3 1535 1177 2418
3 322 324 1952
3 973 1700 1802
3 1964 368 2038
3 1176 1865 1866
3 1096 872 1764
3 1176 1866 1875
3 193 1839 1892
3 156 157 1441
3 615 617 1596
3 686 1520 2480
3 1409 2097 2305
3 2410 1151 2528
3 1427 2217 2361
3 440 1911 2314
3 1744 1743 2296
3 516 1456 1739
3 1939 589 2164
3 690 931 2150
3 1062 1579 1580
3 1054 1580 1581
3 955 1483 1716
3 1064 1677 2248
3 1956 1616 2193
3 1776 1893 2026
3 1398 1115 1973
3 2002 1453 2265
3 1541 1531 1542
3 216 2191 2536
3 1736 1326 1894
3 1065 994 1066
3 1598 2115 2175
3 2314 1911 2358
3 1433 941 2042
3 2115 1209 2175
3 717 1550 1551
3 188 1941 2433
3 267 1132 1414
3 771 1569 2064
3 1157 1545 1546
3 1231 1250 1526
3 1933 240 2181
3 222 1487 2025
3 1525 230 1765
3 1430 1704 2077
3 757 1744 2495
3 264 263 265
3 883 773 1917
3 739 2205 2282
3 1667 1582 2434
3 1744 757 2474
3 239 1453 2002
3 1441 259 2356
3 2005 1443 2012
3 254 1766 1932
3 1509 166 1679
3 1477 1475 1481
3 793 1440 2165
3 1385 1523 2377
3 1481 1475 2523
3 156 1441 2356
3 1066 1220 1655
3 945 325 1952
3 2094 2087 2134
3 1747 1175 1748
3 253 262 263
3 1327 1074 1888
3 718 715 1567
3 2046 1043 2105
3 240 1933 2399
3 1305 1307 1890
3 224 58 1661
3 1195 1566 2285
3 1590 1393 1749
3 1255 1230 1922
3 353 1538 2073
3 358 1999 2325
3 882 1802 2036
3 1024 1020 1604
3 333 522 1998
3 1401 1351 2414
3 1475 1258 1476
3 2310 786 2364
3 328 945 1889
3 807 1748 1927
3 825 724 1912
3 1742 263 2491
3 267 266 1132
3 2077 2102 2203
3 1431 1432 1860
3 1212 1957 2312
3 2097 476 2305
3 1132 1402 2473
3 717 713 1550
3 1746 693 1969
3 1372 1124 1844
3 1256 1541 2269
3 1977 1350 2274
3 2332 1978 2443
3 874 2133 2179
3 1983 1534 2171
3 1157 1544 1545
3 1230 1228 1922
3 1580 1579 1581
3 1565 806 1948
3 1416 1363 2413
3 1287 1995 2398
3 265 263 266
3 1534 1529 2171
3 1604 1834 2428
3 1255 1633 2509
3 1344 1643 1644
3 1332 1388 1571
3 1423 217 2217
3 2191 1057 2451
3 458 447 1637
3 1250 1233 1733
3 472 2212 2222
3 1175 1747 1840
3 1652 256 1653
3 1073 1347 1572
3 200 145 1609
3 683 640 1585
3 1116 862 1705
3 1221 1223 1474
3 1778 801 1803
3 1503 1622 2471
3 1475 1493 2523
3 464 680 2134
3 14 210 2114
3 579 1880 1988
3 1434 1435 1990
3 1447 2310 2364
3 275 274 276
3 2294 1871 2419
3 814 1068 1684
3 1172 1439 2273
3 273 272 274
3 1363 1416 2406
3 1220 1219 1221
3 1060 1656 1662
3 1099 1792 1985
3 2048 1198 2168
3 1241 1245 2323
3 699 723 1753
3 1640 1862 2070
3 910 1018 1584
3 1586 1067 1587
3 1656 867 1662
3 1067 686 2480
3 654 2242 2294
3 1593 1315 1594
3 1880 553 1974
3 236 1717 1718
3 617 621 1596
3 1723 196 2313
3 402 1877 2116
3 273 274 275
3 2202 1869 2252
3 1510 1358 1767
3 193 1892 2373
3 1188 1805 2054
3 1220 1221 1267
3 1066 1218 1219
3 1517 1097 1518
3 1677 1676 1858
3 686 277 1520
3 268 267 269
3 697 857 1592
3 220 1698 1699
3 1802 1700 2036
3 1612 1537 1614
3 929 817 994
3 228 12 2136
3 2110 2116 2482
3 1659 1658 1702
3 1611 1613 2280
3 1344 991 1643
3 683 1585 1604
3 1638 1358 2404
3 1485 1034 2410
3 2214 833 2424
3 271 272 273
3 1482 955 1962
3 1066 1219 1220
3 931 1885 2150
3 1613 1891 2280
3 1189 1589 2204
3 1566 1195 2120
3 726 1567 2490
3 1122 1722 1874
3 1494 319 2493
3 1671 259 1672
3 1267 1221 1474
3 603 528 1591
3 1664 2128 2316
3 1817 1924 2174
3 1626 1660 2111
3 1474 1475 1477
3 1023 1062 1580
3 1957 1599 2312
3 1764 1939 2164
3 1358 1950 2404
3 200 1609 1610
3 1431 1082 1432
3 1778 1803 2521
3 1830 1832 2075
3 1930 233 2369
3 1329 1482 1650
3 757 1959 2522
3 1239 1247 1597
3 758 1978 2332
3 1569 1290 2064
3 216 1694 2191
3 1453 1420 2265
3 1549 1906 2129
3 24 215 1674
3 19 235 1676
3 1621 1057 2191
3 1691 1389 2262
3 1617 1333 2192
3 929 994 1065
3 1769 1672 1986
3 1893 1412 2026
3 1609 1537 1612
3 271 269 272
3 1373 1438 1620
3 217 1423 2381
3 517 330 1889
3 1322 1055 1667
3 1974 553 2499
3 228 2136 2187
3 1589 1189 1788
3 1999 1577 2325
3 2110 405 2116
3 189 1608 1842
3 1055 1050 1667
3 739 1455 2205
3 1865 1176 2215
3 319 1494 2522
3 2474 757 2522
3 1484 227 1485
3 10 11 1588
3 723 809 1753
3 27 230 1689
3 1550 806 1565
3 1179 1180 1217
3 207 1617 2192
3 1433 1217 1502
3 1562 1556 1606
3 1379 2017 2018
3 1245 2158 2323
3 675 1097 1517
3 884 501 1599
3 1020 683 1604
3 1603 1095 1848
3 1001 2057 2154
3 1604 1585 1834
3 1610 1612 1616
3 1764 870 1939
3 2242 1871 2294
3 1669 1264 1670
3 1658 213 1702
3 1995 1646 2398
3 631 539 1600
3 1491 2143 2342
3 1801 1800 2195
3 1200 1199 1693
3 1535 940 1861
3 1534 758 2332
3 914 2258 2328
3 1588 228 2457
3 216 138 1694
3 151 152 1500
3 1133 1880 1974
3 1677 1858 2248
3 1294 1622 1868
3 875 1010 1767
3 1379 2018 2416
3 1279 2202 2252
3 182 256 1652
3 1592 857 2386
3 672 681 1656
3 615 1596 1824
3 1093 1487 1623
3 1823 522 2100
3 1245 1242 1669
3 1582 1581 1583
3 758 1534 2306
3 1975 1984 2230
3 1358 1510 1950
3 1663 1336 1665
3 2102 960 2203
3 366 1087 1786
3 1740 1490 2231
3 21 207 1709
3 145 146 1609
3 2339 765 2384
3 603 1591 1668
3 2081 199 2149
3 1540 1832 1879
3 1721 1723 1947
3 1754 455 1793
3 1751 1753 2119
3 882 1701 1807
3 1540 1539 1917
3 242 1695 1697
3 1521 354 2091
3 1363 2233 2413
3 1584 1018 1925
3 703 1067 1586
3 1177 1178 1179
3 795 916 1834
3 277 276 607
3 1571 1388 1872
3 22 23 1617
3 1097 823 1177
3 25 26 1624
3 419 418 1790
3 1728 1906 2259
3 440 1455 2261
3 1877 1318 2116
3 1488 1156 1608
3 1439 2130 2273
3 1889 1451 1890
3 1614 209 2389
3 1472 893 2094
3 675 821 823
3 23 24 1674
3 1788 1190 2183
3 917 941 1622
3 1763 1096 1764
3 1068 1442 1684
3 1034 1485 2173
3 2172 1533 2230
3 138 139 1694
3 1065 1570 2197
3 607 674 675
3 1536 1248 2268
3 229 135 1734
3 1437 1925 1926
3 680 510 1646
3 147 209 1537
3 26 27 1689
3 1627 705 2163
3 206 1651 2121
3 2409 1785 2462
3 1492 682 2447
3 1223 1225 1258
3 889 1772 2374
3 253 263 264
3 275 276 277
3 1455 739 2261
3 2022 1382 2176
3 150 227 1484
3 639 1019 1591
3 1449 1640 2070
3 1082 833 2214
3 1503 1502 1504
3 144 200 1717
3 1643 991 1713
3 1190 1791 2183
3 1538 1804 2073
3 1256 2269 2440
3 18 19 1676
3 521 531 2000
3 790 849 2180
3 1075 1329 1650
3 1087 1782 1785
3 1066 994 1218
3 270 269 271
3 682 1492 2494
3 185 252 1454
3 253 158 262
3 1629 1632 1633
3 200 1610 1611
3 1477 1481 2104
3 1623 1487 2465
3 1518 1097 1535
3 1414 1132 2460
3 1179 1217 1433
3 177 1506 1680
3 1392 1017 2525
3 1832 834 2075
3 675 823 1097
3 1459 2094 2134
3 1782 1087 1795
3 1838 1730 2372
3 1639 149 2528
3 1617 23 1674
3 2265 1420 2489
3 180 232 1859
3 1527 1250 1528
3 20 21 1709
3 1083 1508 2311
3 903 866 1703
3 1455 440 2314
3 1187 1858 1888
3 1659 1406 2473
3 1446 1902 2166
3 421 1951 2106
3 1598 210 2115
3 154 259 1671
3 1288 1835 2080
3 1832 1831 1879
3 1258 1225 1478
3 1024 1604 2117
3 1263 1429 1739
3 706 705 1627
3 1583 1581 2352
3 407 1805 1951
3 856 1574 2527
3 1701 882 2036
3 1624 26 1689
3 717 1551 1552
3 1385 2377 2391
3 2302 1745 2354
3 1572 1347 2157
3 1036 883 1917
3 1689 1690 1691
3 1664 1665 2128
3 1476 1479 1480
3 1751 2119 2143
3 815 814 1684
3 1790 889 2400
3 1606 1607 2085
3 265 267 268
3 418 889 1790
3 1522 1521 2091
3 135 136 1734
3 1726 1445 1729
3 647 1796 1797
3 1346 1453 2279
3 1293 1827 2117
3 1242 1244 1669
3 1853 1852 1854
3 889 2374 2400
3 1039 1038 1290
3 1524 628 2199
3 1331 1332 1571
3 1291 1290 1569
3 1475 1476 1493
3 1850 1852 1853
3 1490 1740 2456
3 1689 230 1690
3 1256 1526 1541
3 1704 1705 2167
3 1465 1470 1675
3 956 1073 1572
3 1613 1616 1956
3 916 917 1038
3 2014 1522 2091
3 1221 1222 1223
3 1999 763 2352
3 234 10 1588
3 1697 220 2335
3 1527 1528 1529
3 2298 1600 2413
3 1436 2020 2254
3 1642 1161 1678
3 1523 1385 2436
3 1730 1838 2426
3 795 796 916
3 713 711 1550
3 1456 1263 1739
3 999 1336 1663
3 1785 1784 2462
3 409 415 1783
3 607 675 1517
3 1229 1231 1526
3 1958 1855 2078
3 1589 1588 1590
3 1933 261 2380
3 762 1965 2038
3 1756 1458 2203
3 1776 597 1893
3 1794 1072 1893
3 188 1512 2266
3 1774 2339 2384
3 188 1908 1941
3 1010 1510 1767
3 2189 2285 2307
3 773 834 1917
3 1245 1669 1670
3 1248 1597 2268
3 146 1537 1609
3 818 910 1584
3 1641 1313 1651
3 1217 1745 2302
3 1065 1066 1655
3 1597 1247 2047
3 1360 2177 2376
3 1612 1615 1616
3 2126 867 2186
3 1019 683 1020
3 1747 892 1840
3 1092 1093 1623
3 261 1933 2181
3 400 424 1666
3 1516 1903 2377
3 1100 1392 1605
3 247 1738 1881
3 268 1134 1986
3 1177 823 1178
3 884 1599 1957
3 263 262 2491
3 806 1627 1948
3 1227 1229 1256
3 191 1729 2504
3 1636 1635 2502
3 1480 1479 1601
3 1721 1947 2498
3 1924 1146 2174
3 229 1734 1735
3 175 204 1725
3 1179 1178 1180
3 354 1521 2147
3 665 697 1592
3 640 646 1585
3 627 545 1636
3 1882 240 2399
3 1556 1555 1606
3 1373 1620 2394
3 1871 1071 2419
3 548 1628 1629
3 455 436 1793
3 974 1831 1841
3 1844 1413 2392
3 1612 1614 1615
3 209 1639 1937
3 1329 1330 1331
3 1823 2100 2142
3 1097 1177 1535
3 1021 1020 1022
3 825 1912 2455
3 913 1122 1874
3 400 1666 2113
3 1256 1229 1526
3 1419 1418 2450
3 1552 1551 1553
3 1850 1099 1852
3 1629 1631 1632
3 801 685 2029
3 1618 1619 1621
3 265 268 1986
3 1715 2165 2330
3 1531 1529 1534
3 1022 1024 1576
3 658 693 1746
3 703 686 1067
3 1062 1576 1577
3 1023 1022 1062
3 236 1718 2394
3 1688 502 1740
3 1501 1477 2104
3 213 165 1509
3 646 795 1585
3 196 1737 1738
3 379 679 1795
3 639 640 683
3 924 875 1767
3 1752 699 1753
3 207 2192 2315
3 627 1636 1660
3 1217 1180 1745
3 730 728 1833
3 528 561 1591
3 1444 1417 1998
3 252 186 1602
3 1729 1445 2504
3 460 502 1688
3 1418 946 1778
3 1203 1200 1693
3 548 470 1628
3 849 668 1640
3 646 785 795
3 607 276 674
3 14 15 210
3 147 148 209
3 478 460 1688
3 1709 207 2315
3 1157 1546 1608
3 1155 1731 1899
3 1524 1934 2390
3 1775 921 1876
3 1433 1502 1503
3 470 458 1628
3 1223 1224 1225
3 1291 1569 1964
3 871 1056 1826
3 1781 1783 1915
3 1587 1067 2300
3 916 1038 1039
3 1388 1387 1389
3 1611 1610 1613
3 1075 1328 1329
3 1039 1290 1291
3 1538 1265 1804
3 1184 1185 2163
3 597 598 1794
3 1450 1356 2421
3 1835 576 2080
3 1629 1628 1631
3 1331 1330 1332
3 561 639 1591
3 1476 1480 1493
3 705 703 1586
3 639 683 1019
3 1951 1188 2106
3 436 446 1793
3 1472 1297 2142
3 1332 1387 1388
3 1345 984 1720
3 1329 1328 1330
3 1050 1048 1667
3 150 151 227
3 11 12 228
3 557 541 2256
3 1831 974 1879
3 134 229 1766
3 1357 1358 1638
3 1336 1641 2299
3 1650 1482 1962
3 1591 1019 2512
3 1506 1507 1570
3 1803 801 2029
3 1178 823 1972
3 1552 1553 1554
3 1290 1038 1294
3 1028 1313 1641
3 1237 1239 1597
3 993 1017 1100
3 893 2087 2094
3 149 1484 2528
3 1768 1142 1949
3 9 234 1673
3 1554 1553 1555
3 668 632 1640
3 711 806 1550
3 1628 458 1637
3 1098 1829 1830
3 1482 1331 1483
3 531 1818 2000
3 435 419 1790
3 1156 1157 1608
3 1182 1184 2179
3 510 512 1646
3 1231 1233 1250
3 946 841 1778
3 1483 1331 1571
3 1459 680 2458
3 1166 1040 1210
3 892 1657 1820
3 1042 1445 1726
3 1019 1020 1021
3 749 805 1810
3 234 1588 1589
3 1695 242 1892
3 556 1853 2483
3 1018 1572 1573
3 1529 1528 1530
3 1606 1558 1607
3 1761 1759 2308
3 1396 1032 1921
3 1018 956 1572
3 689 1150 1416
3 1827 1293 2515
3 149 150 1484
3 1647 656 1648
3 1543 694 2196
3 399 409 1783
3 545 525 1636
3 268 269 270
3 715 713 717
3 1100 1017 1392
3 1657 892 1747
3 207 22 1617
3 1666 884 2249
3 1671 1672 1769
3 1554 1555 1556
3 146 147 1537
3 1081 1444 1822
3 711 709 806
3 1443 2005 2322
3 660 658 1746
3 1166 1458 1754
3 916 796 917
3 1056 1728 1826
3 1068 1069 1275
3 184 185 1454
3 158 159 262
3 2007 1687 2231
3 805 1708 1810
3 1672 264 1986
3 1561 1562 1563
3 978 1075 1650
3 1590 1588 2457
3 215 25 1624
3 1551 1550 1565
3 1073 1346 1347
3 857 818 1584
3 1648 656 1649
3 675 674 821
3 561 594 639
3 1731 529 1899
3 2303 1454 2535
3 981 903 1040
3 1630 1629 1633
3 993 877 1017
3 724 718 726
3 512 603 1646
3 1676 235 1858
3 814 1060 1068
3 715 717 1567
3 1796 647 1870
3 1715 1171 2165
3 678 1592 1593
3 644 613 1824
3 1690 1525 2145
3 1297 1822 1823
3 271 656 1647
3 1704 1116 1705
3 1225 1226 1227
3 1275 1069 1338
3 910 956 1018
3 1824 1596 2154
3 1403 1100 1605
3 1221 1219 1222
3 1068 1060 1069
3 1901 245 1949
3 1081 1055 1321
3 1751 563 1752
3 1021 1022 1023
3 672 638 681
3 1095 657 1848
3 1235 1237 1248
3 1561 1556 1562
3 1265 1259 1804
3 524 1819 2016
3 978 1650 2362
3 1492 516 2494
3 229 1735 2061
3 185 186 252
3 157 158 253
3 152 153 233
3 9 10 234
3 1527 1529 1531
3 1808 1344 2360
3 1062 1577 1579
3 1509 1679 1977
3 424 454 1666
3 637 638 672
3 981 1040 1166
3 1555 1558 1606
3 751 749 1810
3 1166 1210 1458
3 1651 1313 2121
3 15 16 2260
3 1633 1632 2509
3 2167 1705 2276
3 551 602 2045
3 697 818 857
3 364 1786 1883
3 832 1189 2204
3 1476 1478 1479
3 678 665 1592
3 213 1509 2096
3 1015 888 1124
3 1062 1022 1576
3 679 1782 1795
3 680 1646 1995
3 1101 1100 1403
3 1109 433 1714
3 1248 1237 1597
3 733 730 1833
3 1702 213 2096
3 499 498 1828
3 1418 1778 2521
3 637 600 638
3 1048 1046 1054
3 1577 1576 1578
3 814 766 1060
3 1279 2252 2292
3 474 470 548
3 199 18 1676
3 157 253 1441
3 1048 1054 1667
3 471 472 2290
3 625 665 678
3 795 785 796
3 1264 1265 1266
3 1437 1926 2350
3 1362 2048 2168
3 1394 2337 2371
3 454 884 1666
3 1022 1020 1024
3 751 1810 1923
3 1046 1023 1580
3 1807 1701 1931
3 1618 208 1619
3 566 588 689
3 1828 498 1829
3 501 509 1599
3 1118 780 1775
3 878 817 929
3 1510 1511 1950
3 1618 1621 1694
3 1052 1081 1822
3 1416 1150 1715
3 1239 1241 1247
3 1396 1921 2067
3 1751 1752 1753
3 1264 1259 1265
3 539 566 1600
3 1762 1127 2496
3 1673 1788 2183
3 1555 1557 1558
3 1052 1050 1055
3 725 724 825
3 1142 1770 1771
3 681 853 867
3 454 501 884
3 1346 1420 1453
3 932 1147 1770
3 1546 1545 1547
3 533 582 1818
3 1266 1337 1460
3 1872 820 2318
3 1117 1119 1713
3 1081 1321 1417
3 1253 1259 1264
3 1569 771 2135
3 1052 1055 1081
3 1181 1178 1972
3 709 706 1627
3 1073 1076 1346
3 1098 1828 1829
3 1382 1380 2176
3 1442 1275 1443
3 919 999 1663
3 1789 828 1855
3 877 815 1684
3 509 539 631
3 992 877 993
3 1266 1265 1337
3 2268 1498 2340
3 1130 1032 1396
3 1095 1603 2508
3 886 826 887
3 531 533 1818
3 1131 1400 1881
3 447 437 516
3 2460 1132 2473
3 940 1535 2418
3 768 1873 2037
3 1813 1869 1954
3 1627 2163 2488
3 1497 1495 1645
3 1198 1409 2168
3 724 726 1912
3 1869 987 1954
3 763 1999 2338
3 1010 1170 1374
3 984 976 1720
3 1470 1743 1744
3 689 588 1150
3 1901 1949 2359
3 1640 632 1862
3 274 272 1787
3 563 564 1752
3 994 817 1505
3 737 1807 1931
3 1770 1147 1771
3 1233 1235 1733
3 2450 1418 2521
3 414 410 1821
3 908 1099 1850
3 1227 1228 1229
3 1692 1203 1693
3 1625 216 2194
3 512 528 603
3 1377 1357 1638
3 1465 1464 1470
3 1360 1359 2177
3 1686 2007 2095
3 1336 1028 1641
3 1857 751 1923
3 1758 572 1759
3 553 541 557
3 1171 1715 1811
3 956 1003 1073
3 1467 1465 1675
3 719 718 724
3 1509 1977 2096
3 1734 1625 1736
3 1503 1504 1868
3 592 597 1776
3 180 181 232
3 162 163 231
3 2308 1759 2370
3 1357 1114 1358
3 875 946 1010
3 509 631 1599
3 17 18 199
3 144 145 200
3 1099 906 1792
3 1469 1467 1494
3 605 589 1939
3 1208 1205 1211
3 354 344 2091
3 692 782 804
3 1010 946 1170
3 1463 1462 1464
3 716 715 718
3 714 713 715
3 271 273 656
3 139 1618 1694
3 549 277 686
3 673 672 766
3 1378 1377 1379
3 2007 868 2095
3 999 1028 1336
3 1208 1211 1447
3 601 545 627
3 1119 1643 1713
3 1332 1333 1387
3 910 912 956
3 520 521 2000
3 828 1789 1819
3 277 607 1520
3 1338 1339 2247
3 818 819 910
3 767 766 814
3 712 711 713
3 1494 1467 1675
3 639 594 640
3 2044 557 2256
3 235 20 1709
3 1620 236 2394
3 804 919 962
3 1862 702 2070
3 681 852 853
3 1559 1556 1561
3 1622 941 2471
3 2165 1440 2330
3 612 644 692
3 697 698 818
3 1903 1516 1994
3 371 379 1795
3 428 426 2138
3 1290 1294 2064
3 1384 1904 2432
3 566 689 1600
3 471 452 472
3 1092 1091 1093
3 1002 1131 1719
3 1090 1089 1091
3 875 841 946
3 1758 1760 1763
3 1562 1606 2085
3 1833 1830 2075
3 178 179 214
3 164 165 213
3 769 923 1815
3 692 644 782
3 804 782 919
3 182 183 256
3 160 161 257
3 1329 1331 1482
3 962 1663 1664
3 1177 1179 2042
3 403 405 1805
3 1461 1460 1462
3 140 208 1618
3 1859 232 1860
3 274 1787 2099
3 1381 2126 2186
3 1558 1560 1789
3 430 428 682
3 452 435 1683
3 1487 1156 1488
3 1470 1464 1743
3 597 1794 1893
3 1244 1253 1669
3 962 919 1663
3 258 8 1673
3 1087 1785 1786
3 970 1042 1726
3 199 1677 2149
3 1664 1663 1665
3 1229 1230 1231
3 991 827 1713
3 792 1603 1848
3 1822 1444 1823
3 665 666 697
3 19 20 235
3 142 143 236
3 728 1098 1833
3 532 530 1898
3 1015 1124 1372
3 1546 1547 1548
3 1851 1850 1853
3 1877 393 2240
3 923 1105 1815
3 1090 1091 1092
3 687 686 703
3 1683 435 1790
3 887 826 1961
3 684 663 1089
3 426 1934 2138
3 464 510 680
3 853 854 855
3 568 572 1758
3 1376 1357 1377
3 1205 1203 1692
3 1607 1789 1855
3 710 709 711
3 780 781 1775
3 1434 1103 1435
3 876 815 877
3 766 672 1656
3 1393 1590 2457
3 684 1089 1090
3 530 890 1898
3 926 1920 1943
3 696 414 1821
3 1563 1562 1777
3 1054 1046 1580
3 1398 1973 1974
3 137 216 1625
3 1210 1040 1430
3 1750 563 1751
3 2010 1665 2299
3 1510 1374 1511
3 1777 1562 2085
3 1707 252 1791
3 1932 1404 1933
3 459 438 1814
3 139 140 1618
3 1093 1156 1487
3 231 163 1658
3 699 722 723
3 1545 1095 2508
3 598 612 1794
3 579 554 1880
3 1941 1908 2401
3 1231 1232 1233
3 1831 1829 1841
3 1037 1383 1799
3 177 178 1506
3 636 600 637
3 1036 1539 2286
3 1356 1114 1357
3 1523 1516 2377
3 704 703 705
3 403 402 405
3 648 792 1848
3 723 756 808
3 1388 1389 2170
3 933 932 1770
3 223 1710 1711
3 1779 399 1783
3 1223 1222 1224
3 1028 1029 1313
3 257 161 1654
3 418 412 421
3 734 882 1807
3 693 657 1095
3 1368 1370 1436
3 136 137 1625
3 688 652 817
3 1075 1327 1328
3 540 479 1813
3 398 395 402
3 548 1629 1630
3 574 591 699
3 1469 1494 1495
3 1041 1598 2175
3 167 168 202
3 175 176 204
3 2045 2046 2201
3 186 187 1602
3 886 887 888
3 1253 1254 1259
3 8 9 1673
3 792 655 810
3 843 1145 1960
3 1180 1349 1745
3 1165 1345 1512
3 708 706 709
3 136 1625 1734
3 21 22 207
3 140 141 208
3 625 626 665
3 1093 1094 1156
3 1585 795 1834
3 1117 1713 1806
3 599 579 600
3 810 871 1826
3 1047 1046 1048
3 1292 1291 1293
3 161 162 1654
3 199 1676 1677
3 1260 1282 1804
3 1005 1142 1768
3 1233 1234 1235
3 792 810 922
3 1122 1719 1737
3 976 985 1720
3 1278 1279 2292
3 2390 1934 2531
3 1436 1437 2350
3 270 271 1647
3 1199 966 1846
3 1683 1342 2212
3 656 273 2124
3 699 591 722
3 1977 1139 2096
3 1738 1719 1881
3 1722 985 1874
3 1797 1448 1798
3 162 231 1654
3 632 604 1862
3 252 1602 1791
3 1051 1050 1052
3 1045 1023 1046
3 648 655 792
3 993 1100 1101
3 1321 1055 1322
3 806 709 1627
3 904 903 981
3 1220 1267 1268
3 648 605 655
3 1737 1719 1738
3 385 399 1779
3 506 499 1828
3 1132 266 1402
3 1170 1418 1419
3 1323 2302 2354
3 24 25 215
3 137 138 216
3 721 965 1919
3 1787 1414 2460
3 778 1117 1806
3 723 722 756
3 407 403 1805
3 564 574 1752
3 1049 1048 1050
3 842 841 875
3 1608 1546 1842
3 809 808 899
3 1517 1519 1520
3 1530 1532 1533
3 889 421 1772
3 913 1002 1122
3 1314 1316 1367
3 1017 877 1684
3 841 802 1778
3 1235 1236 1237
3 751 1857 1900
3 1114 924 1767
3 1344 1644 2360
3 1895 1394 2371
3 1518 1535 1861
3 1758 1759 1760
3 1122 1002 1719
3 546 563 1750
3 1056 1726 1727
3 663 660 1746
3 621 622 625
3 1720 985 1721
3 1857 1843 1900
3 808 756 913
3 1056 970 1726
3 27 28 230
3 134 135 229
3 908 906 1099
3 163 164 1658
3 1727 1726 1729
3 7 8 258
3 154 155 259
3 1101 1403 1404
3 808 913 1874
3 1260 1269 1282
3 1389 1387 2262
3 1297 1053 1822
3 1555 1553 1557
3 1463 1464 1465
3 230 28 1765
3 1237 1238 1239
3 554 553 1880
3 775 778 1806
3 985 899 1874
3 1270 1524 2199
3 489 1820 1936
3 692 1072 1794
3 1472 2142 2272
3 1845 496 1929
3 438 431 1814
3 613 615 1824
3 1241 1242 1245
3 1783 415 1915
3 1192 2081 2149
3 178 214 1506
3 1816 988 1817
3 1760 1759 1761
3 1103 1092 1623
3 1512 1345 1661
3 1876 921 2295
3 1165 984 1345
3 978 1074 1075
3 1239 1240 1241
3 542 541 553
3 813 988 1816
3 1148 984 1165
3 871 970 1056
3 472 452 1683
3 1207 1796 1870
3 1167 1166 1754
3 1296 1053 1297
3 966 964 1846
3 976 899 985
3 982 976 984
3 702 1815 2015
3 900 899 976
3 1143 995 1206
3 1576 1024 1827
3 1235 1248 1733
3 1558 1557 1560
3 943 995 1143
3 1920 1144 1943
3 1471 2115 2477
3 29 30 255
3 132 133 254
3 1630 1633 1634
3 1225 1224 1226
3 1925 1573 1926
3 1211 1205 1692
3 725 825 826
3 1113 924 1114
3 600 579 1988
3 717 1552 1567
3 1820 1657 1936
3 674 276 2099
3 395 393 1877
3 572 543 1897
3 1575 1308 2255
3 999 1000 1028
3 1118 1775 1876
3 1797 1798 2430
3 526 546 559
3 867 853 2186
3 1142 1771 1949
3 1068 1275 1442
3 679 385 1779
3 1607 1558 1789
3 580 568 1758
3 1244 1252 1253
3 1760 1761 1762
3 398 402 403
3 1476 1258 1478
3 418 421 889
3 1771 1147 1839
3 164 213 1658
3 1720 1721 2267
3 1668 1591 2512
3 1042 1128 1445
3 1098 1830 1833
3 1102 1092 1103
3 2249 884 2466
3 1104 1103 1434
3 410 416 1821
3 514 513 541
3 580 1758 1763
3 637 673 1741
3 1913 936 1914
3 1394 1395 2337
3 919 920 999
3 577 554 579
3 2111 1660 2263
3 231 1658 1659
3 612 613 644
3 568 543 572
3 770 775 1806
3 1445 1128 1446
3 1546 1548 1842
3 448 460 478
3 810 870 871
3 1789 1560 1819
3 1154 1082 1431
3 873 973 1802
3 379 385 679
3 837 850 921
3 1461 1462 1463
3 1346 1076 1420
3 1088 1344 1808
3 2125 1143 2353
3 931 977 978
3 882 772 1802
3 29 255 1765
3 849 1513 2180
3 1713 827 1806
3 1130 1396 1397
3 681 638 852
3 1417 1321 1873
3 1654 1402 2530
3 502 526 1740
3 1124 888 2177
3 1266 1460 1461
3 515 1175 1840
3 1253 1264 1669
3 479 466 1813
3 1727 1729 1757
3 379 380 385
3 1971 1480 2514
3 1637 1739 2459
3 1207 1205 1208
3 529 519 1899
3 1129 1845 1929
3 224 1661 2267
3 192 1856 2361
3 732 734 1807
3 1184 2163 2435
3 1119 1120 1353
3 415 414 431
3 719 724 725
3 559 546 1750
3 871 872 970
3 1038 917 1622
3 574 699 1752
3 166 167 1679
3 1117 1118 1119
3 1409 1196 2035
3 617 619 621
3 1172 1173 1439
3 1191 1005 1768
3 664 663 684
3 494 493 1841
3 890 529 1731
3 840 802 841
3 493 974 1841
3 385 386 399
3 679 1779 1780
3 371 376 379
3 416 433 1109
3 670 769 1815
3 902 866 903
3 1780 1779 1781
3 480 515 1840
3 970 971 1042
3 433 448 1714
3 28 29 1765
3 1005 949 1142
3 778 780 1117
3 959 1037 1799
3 1073 1003 1076
3 535 532 1898
3 1119 1118 1120
3 658 657 693
3 1378 1379 1380
3 1397 1396 1809
3 1610 1609 1612
3 1819 1560 2016
3 1837 952 1865
3 1719 1131 1881
3 1131 1399 1400
3 1352 1138 2058
3 399 406 409
3 548 1630 2041
3 1275 1338 2251
3 582 1816 1818
3 1835 1836 2144
3 993 1101 1980
3 1699 1698 1700
3 2407 364 2505
3 1189 1190 1788
3 1117 780 1118
3 1830 1829 1831
3 637 672 673
3 692 804 1072
3 1204 1203 1205
3 1374 1170 2139
3 612 692 1794
3 1642 1408 2286
3 723 808 809
3 450 459 1812
3 409 410 414
3 802 801 1778
3 1853 1854 2483
3 1042 1127 1128
3 1199 1846 2225
3 1147 990 1273
3 1383 1384 2432
3 432 431 438
3 1353 1120 1390
3 1093 1091 1094
3 2020 250 2254
3 148 149 1639
3 606 605 648
3 1970 2016 2422
3 2201 2046 2327
3 475 471 513
3 412 407 1951
3 1991 246 2139
3 727 695 728
3 1673 234 1788
3 1554 1556 1559
3 1089 663 1746
3 1846 964 2056
3 923 991 1088
3 409 406 410
3 729 728 730
3 1424 1427 1856
3 1473 1911 2407
3 1376 1377 1378
3 1010 1374 1510
3 853 852 854
3 366 369 1087
3 772 873 1802
3 1219 1218 1626
3 1766 229 2061
3 1088 991 1344
3 922 810 1826
3 518 506 695
3 405 402 2116
3 962 1664 2316
3 913 942 1002
3 932 990 1147
3 629 813 1816
3 876 877 992
3 399 386 406
3 932 845 990
3 1002 1123 1131
3 843 996 1145
3 781 837 1775
3 262 2304 2491
3 431 696 1814
3 1273 1695 1892
3 731 730 732
3 737 732 1807
3 439 438 450
3 1829 498 1841
3 800 685 801
3 767 814 815
3 1060 766 1656
3 673 766 767
3 1403 1605 1882
3 716 718 719
3 1338 1069 1339
3 847 752 1843
3 864 862 1116
3 2302 443 2519
3 923 827 991
3 526 559 1740
3 1911 1473 2358
3 1085 1310 1867
3 809 899 900
3 1227 1226 1228
3 729 730 731
3 1436 1370 1437
3 731 732 737
3 769 827 923
3 456 452 471
3 1433 1503 2471
3 1435 1103 1623
3 385 380 386
3 1141 1787 2460
3 1354 1088 1808
3 657 649 1848
3 415 431 432
3 484 892 1820
3 727 728 729
3 855 854 1450
3 1721 1722 1723
3 1643 1353 1644
3 1145 1916 1960
3 1421 1191 1422
3 466 1812 1813
3 943 944 995
3 1356 1357 1376
3 714 715 716
3 1156 1094 1157
3 598 611 612
3 631 1600 2298
3 590 589 605
3 965 969 1919
3 416 1109 1821
3 242 1697 2335
3 1548 1547 1549
3 550 573 584
3 584 604 632
3 409 414 415
3 712 713 714
3 642 670 702
3 818 698 819
3 1006 1005 1191
3 1624 1689 1691
3 169 170 237
3 173 174 238
3 956 912 1003
3 937 936 1913
3 1317 1025 1875
3 515 540 550
3 973 1799 1800
3 973 959 1799
3 518 695 727
3 910 819 912
3 584 573 604
3 1170 946 1418
3 173 238 1847
3 550 540 573
3 982 984 1148
3 900 976 982
3 441 435 452
3 448 478 1714
3 1849 1648 2173
3 1631 1628 1637
3 1830 1831 1832
3 1383 1216 1384
3 734 772 882
3 949 933 1770
3 1332 1330 1333
3 574 575 591
3 1105 1088 1354
3 702 670 1815
3 498 494 1841
3 827 770 1806
3 873 959 973
3 1390 1391 1415
3 450 438 459
3 950 949 1005
3 351 362 364
3 1313 1029 1314
3 432 438 439
3 837 838 850
3 1273 1274 1695
3 850 851 943
3 911 952 1837
3 1259 1260 1804
3 566 587 588
3 1037 1216 1383
3 1337 1265 1538
3 1087 369 1795
3 810 655 870
3 1559 1561 1566
3 1147 1273 1839
3 732 733 734
3 1662 867 2126
3 890 1731 2241
3 1854 1852 2397
3 515 479 540
3 451 450 466
3 697 666 698
3 1367 1316 1368
3 662 660 663
3 365 355 694
3 1358 1114 1767
3 379 376 380
3 1796 1448 1797
3 179 180 1859
3 790 668 849
3 569 568 580
3 690 860 931
3 466 450 1812
3 431 414 696
3 1973 1133 1974
3 651 649 657
3 467 466 479
3 1288 1289 1835
3 264 265 1986
3 1302 1303 1304
3 592 596 597
3 1873 1321 2037
3 544 543 568
3 275 277 549
3 209 1937 2389
3 539 565 566
3 1485 227 1486
3 2384 2190 2408
3 1781 1779 1783
3 480 479 515
3 689 1416 2413
3 1108 1161 1539
3 1867 1310 1895
3 1300 1301 1302
3 1695 1696 1697
3 633 632 668
3 1304 1451 1452
3 988 911 1837
3 168 169 1724
3 969 1012 1172
3 582 629 1816
3 1843 752 1900
3 629 812 813
3 710 711 712
3 1782 1780 1784
3 536 535 543
3 1089 1746 1969
3 1108 1107 1161
3 1514 1426 1856
3 486 484 1820
3 369 371 1795
3 1817 988 1924
3 493 609 974
3 1422 1191 2023
3 1426 1424 1856
3 842 875 924
3 922 1826 2259
3 989 1361 1886
3 928 1070 1288
3 669 668 790
3 1113 1114 1356
3 1027 847 1843
3 728 695 1098
3 734 735 772
3 975 1107 1108
3 955 859 1962
3 813 911 988
3 1208 1448 1796
3 1101 1405 1980
3 602 676 2045
3 586 581 589
3 546 547 563
3 493 491 609
3 628 1524 2390
3 348 344 354
3 1298 1299 1300
3 509 538 539
3 974 609 975
3 813 891 911
3 871 870 872
3 1355 1354 1423
3 489 486 1820
3 778 779 780
3 1025 1176 1875
3 772 773 873
3 803 1743 2347
3 167 202 1679
3 873 883 959
3 1483 1571 2375
3 427 1756 2221
3 540 1813 1954
3 1202 1200 1203
3 959 1035 1037
3 837 921 1775
3 1304 1305 1451
3 1799 1383 2195
3 604 642 1862
3 1470 1744 2474
3 1854 2397 2453
3 1282 1269 1386
3 1573 1572 2157
3 472 2222 2290
3 1307 1708 2341
3 769 770 827
3 1037 1215 1216
3 791 790 856
3 1053 1052 1822
3 1056 1727 1728
3 1341 1138 1352
3 1300 1299 1301
3 1814 696 1838
3 1198 1196 1409
3 492 491 493
3 439 450 451
3 1171 858 2132
3 1259 1254 1260
3 665 626 666
3 970 872 971
3 258 1602 2357
3 1296 1297 1472
3 490 489 491
3 516 437 2494
3 1298 1027 1299
3 846 845 932
3 501 508 509
3 460 461 502
3 448 449 460
3 482 480 1840
3 1229 1228 1230
3 604 641 642
3 1424 1423 1427
3 502 503 526
3 1028 1000 1029
3 935 933 949
3 1084 1085 1867
3 2028 1711 2353
3 1513 1426 1514
3 892 482 1840
3 852 638 1988
3 402 395 1877
3 738 737 845
3 413 412 418
3 1119 1353 1643
3 526 527 546
3 280 279 281
3 1731 1155 2123
3 1042 971 1127
3 1208 1447 1448
3 433 434 448
3 262 159 2304
3 184 1454 2303
3 1051 1052 1053
3 1816 1817 1818
3 1081 1417 1444
3 781 836 837
3 911 951 952
3 1090 1092 1102
3 202 168 1724
3 1085 1309 1310
3 408 407 412
3 1337 1538 1864
3 1515 1514 1516
3 530 529 890
3 1517 1518 1519
3 549 686 687
3 923 1088 1105
3 404 403 407
3 1835 1289 1836
3 1314 1367 2121
3 1380 1379 2416
3 670 671 769
3 899 808 1874
3 1040 903 1703
3 1596 1595 2154
3 1496 1495 1497
3 636 637 1741
3 1377 1638 2288
3 1288 1070 1289
3 1072 804 1981
3 1129 1334 1845
3 1865 1084 1866
3 792 922 1603
3 1253 1252 1254
3 981 1167 1792
3 1302 1301 1303
3 1641 1651 2019
3 952 953 1084
3 1813 1812 1869
3 732 730 733
3 975 1106 1107
3 1142 949 1770
3 981 1166 1167
3 840 841 842
3 451 466 467
3 1273 990 1274
3 1049 1050 1051
3 1473 2407 2505
3 968 966 1199
3 642 643 670
3 1310 1309 1311
3 422 419 435
3 1063 833 1082
3 919 782 920
3 911 891 951
3 1084 953 1085
3 1763 1764 2164
3 1498 1497 1682
3 515 550 1175
3 1079 937 1913
3 642 702 1862
3 845 737 1931
3 1394 1311 1395
3 1395 1521 1522
3 467 479 480
3 1755 1754 1793
3 1231 1230 1232
3 1557 1553 2030
3 1624 1691 2262
3 584 632 633
3 1094 1091 1969
3 708 709 710
3 1948 1627 2488
3 952 951 953
3 1102 1103 1104
3 1047 1048 1049
3 1310 1311 1394
3 1852 1099 1985
3 143 144 1717
3 813 812 891
3 1944 1044 1945
3 1105 1354 1355
3 1300 1302 1455
3 1914 936 1940
3 1415 1391 1710
3 1299 1027 1843
3 952 1084 1865
3 1695 1274 1696
3 776 774 1928
3 282 281 283
3 2003 1347 2279
3 1206 995 1499
3 1164 1685 1686
3 1551 1565 2030
3 969 1172 1919
3 633 668 669
3 734 733 735
3 1373 1372 1438
3 599 600 636
3 1431 1860 2487
3 1579 1577 1999
3 484 482 892
3 917 940 941
3 2144 1836 2169
3 1866 1084 1867
3 1110 1747 1748
3 998 1171 1811
3 1390 1120 1391
3 644 1824 2057
3 1362 1961 2048
3 944 1283 1825
3 1086 1027 1298
3 679 1780 1782
3 974 975 1879
3 507 506 518
3 1121 1079 1401
3 775 777 778
3 1965 762 2349
3 1045 1046 1047
3 1772 421 2106
3 16 17 2081
3 416 417 433
3 921 850 2125
3 1607 1855 1958
3 649 648 1848
3 1241 1240 1242
3 2012 1443 2251
3 926 928 1920
3 1487 1488 2025
3 1006 1191 1421
3 1355 1423 1424
3 1133 852 1988
3 591 592 1776
3 1299 1843 1857
3 1085 1308 1309
3 490 491 492
3 958 694 1575
3 1384 1216 1385
3 741 915 1878
3 1233 1232 1234
3 669 790 791
3 481 480 482
3 687 703 704
3 492 493 494
3 1634 1633 1922
3 1697 1696 1698
3 1721 985 1722
3 1839 1273 1892
3 772 735 773
3 488 486 489
3 950 1005 1006
3 1513 1514 1515
3 454 500 501
3 873 773 883
3 284 283 285
3 2185 1505 2442
3 959 883 1035
3 543 535 1897
3 1904 1384 2093
3 800 801 802
3 1037 1035 1215
3 1293 1964 1965
3 1239 1238 1240
3 943 1143 2125
3 1782 1784 1785
3 913 756 942
3 488 490 1884
3 1590 1749 2501
3 1235 1234 1236
3 791 856 1408
3 702 2015 2070
3 1108 1539 1540
3 1021 1023 1045
3 695 506 1828
3 1530 1528 1532
3 488 489 490
3 1621 1619 2161
3 704 705 706
3 1304 1303 1305
3 558 1704 2167
3 625 622 626
3 542 553 554
3 604 573 641
3 664 684 685
3 564 571 574
3 1108 1540 1879
3 1856 1427 2361
3 880 1025 1129
3 1395 1311 1521
3 1466 1465 1467
3 915 495 1884
3 1515 1516 1523
3 1237 1236 1238
3 606 648 649
3 999 920 1000
3 676 829 1043
3 2100 794 2142
3 227 151 1500
3 577 579 599
3 153 154 1671
3 1175 550 1927
3 1014 888 1015
3 286 285 287
3 1649 1280 2427
3 1725 204 2137
3 975 609 1106
3 1129 1317 1334
3 1109 1730 2426
3 1468 1467 1469
3 1131 1123 1399
3 1215 2235 2378
3 1976 1149 1989
3 397 395 398
3 746 743 1878
3 1041 1343 1598
3 975 1108 1879
3 741 495 915
3 1167 1754 1755
3 288 287 289
3 743 741 1878
3 1274 990 1931
3 1506 214 1507
3 857 1584 2277
3 2341 1522 2387
3 846 932 933
3 1107 1106 1110
3 584 633 1927
3 290 289 291
3 722 591 1776
3 1544 1094 1969
3 1135 270 1647
3 935 949 950
3 1920 1288 2080
3 754 1896 2108
3 1693 1199 2225
3 292 291 293
3 394 393 395
3 745 743 746
3 1002 942 1123
3 731 737 738
3 294 293 295
3 1018 1573 1925
3 296 295 297
3 298 297 299
3 321 322 325
3 317 320 321
3 314 315 317
3 312 313 314
3 310 311 312
3 308 309 310
3 1898 890 2275
3 306 307 308
3 304 305 306
3 1401 1079 1913
3 300 299 301
3 302 303 304
3 300 301 302
3 302 301 303
3 491 489 1936
3 298 299 300
3 304 303 305
3 306 305 307
3 308 307 309
3 310 309 311
3 312 311 313
3 314 313 315
3 317 315 320
3 321 320 322
3 1301 1299 1857
3 514 541 542
3 296 297 298
3 850 838 851
3 1310 1394 1895
3 294 295 296
3 590 605 606
3 292 293 294
3 651 657 658
3 290 291 292
3 1207 1208 1796
3 835 1976 1989
3 621 619 622
3 746 1878 1896
3 481 482 483
3 1026 847 1027
3 1335 1207 1870
3 1661 59 2266
3 727 729 1155
3 288 289 290
3 1058 776 1928
3 662 663 664
3 495 488 1884
3 1959 319 2522
3 943 851 944
3 1293 1291 1964
3 534 532 535
3 640 645 646
3 2280 1014 2385
3 286 287 288
3 591 575 592
3 521 519 529
3 13 14 2114
3 780 779 781
3 918 908 1850
3 837 836 838
3 209 148 1639
3 754 748 1896
3 745 746 747
3 769 671 770
3 929 1065 2197
3 1278 1058 1279
3 483 482 484
3 1564 1557 2030
3 633 807 1927
3 392 391 393
3 1057 1621 2161
3 569 580 581
3 284 285 286
3 876 992 1894
3 497 494 498
3 1630 1635 2041
3 982 1148 1918
3 612 611 613
3 700 634 1044
3 822 674 2099
3 880 1129 1929
3 432 439 654
3 1039 1291 1292
3 1164 1686 1989
3 1129 1025 1317
3 738 845 846
3 582 583 629
3 278 6 279
3 544 568 569
3 1701 1274 1931
3 747 749 751
3 1085 953 1308
3 928 930 1070
3 747 748 749
3 1421 1422 2415
3 902 903 904
3 1309 1308 1543
3 642 641 643
3 904 981 1792
3 646 784 785
3 536 543 544
3 1204 1205 1207
3 365 694 958
3 71 72 217
3 88 89 1901
3 87 88 193
3 101 102 189
3 85 86 242
3 99 100 241
3 74 75 192
3 91 92 219
3 94 95 191
3 83 84 220
3 97 98 221
3 77 78 218
3 80 81 194
3 89 90 245
3 62 63 244
3 60 61 188
3 64 65 223
3 67 68 190
3 90 91 1909
3 98 99 1905
3 61 62 1908
3 69 70 243
3 68 69 1907
3 70 71 1910
3 410 411 416
3 586 589 590
3 685 684 2029
3 390 389 391
3 1715 1150 1811
3 1924 1837 2215
3 282 283 284
3 496 497 1929
3 233 1671 1769
3 627 2185 2442
3 1567 1552 2062
3 629 630 812
3 424 453 454
3 583 562 1942
3 749 750 805
3 744 743 745
3 1897 535 1898
3 467 480 481
3 504 759 880
3 670 643 671
3 89 245 1901
3 193 88 1901
3 221 98 1905
3 245 90 1909
3 91 219 1909
3 62 244 1908
3 188 61 1908
3 99 241 1905
3 190 68 1907
3 71 217 1910
3 69 243 1907
3 243 70 1910
3 505 499 506
3 475 513 514
3 1945 1044 2071
3 1712 2125 2353
3 339 343 440
3 989 1360 1361
3 764 869 1152
3 778 777 779
3 1686 1685 1687
3 742 741 743
3 979 989 1886
3 729 731 1887
3 926 927 928
3 1305 1306 1307
3 1838 1278 2292
3 747 746 748
3 181 182 1652
3 1886 1361 2305
3 1595 1594 2486
3 597 596 598
3 928 1288 1920
3 1970 824 2156
3 1425 1424 1426
3 497 504 1929
3 748 746 1896
3 745 747 1900
3 998 858 1171
3 563 547 564
3 1155 729 1887
3 634 583 1942
3 1439 1173 1440
3 1026 1027 1086
3 79 80 1904
3 1533 1532 1536
3 1449 1426 1513
3 1106 609 1936
3 1318 1013 1319
3 1098 695 1828
3 492 494 496
3 750 748 754
3 731 738 1887
3 2415 1422 2516
3 533 562 582
3 988 1837 1924
3 1216 1215 1863
3 534 535 536
3 747 751 1900
3 1753 809 2119
3 1183 824 1970
3 740 495 741
3 80 194 1904
3 893 383 2087
3 655 605 1939
3 1884 2034 2082
3 1301 1857 1923
3 1307 1306 1708
3 752 745 1900
3 750 754 755
3 76 77 1903
3 2090 2347 2365
3 255 30 2159
3 132 254 2160
3 448 434 449
3 753 848 926
3 1075 1074 1327
3 487 488 495
3 377 381 647
3 483 484 485
3 755 754 2148
3 1584 1925 2277
3 1186 1183 1970
3 951 891 1281
3 485 484 486
3 546 527 547
3 133 134 1766
3 1786 1785 2409
3 280 281 282
3 460 449 461
3 744 745 752
3 77 218 1903
3 983 1918 2342
3 1708 1306 1810
3 1389 2069 2170
3 487 486 488
3 641 573 1954
3 507 518 519
3 502 461 503
3 519 518 1899
3 1202 1203 1204
3 821 897 1972
3 92 93 1902
3 521 529 530
3 749 748 750
3 2176 1380 2416
3 885 826 886
3 485 486 487
3 371 372 376
3 1289 1070 1871
3 1110 1657 1747
3 753 926 1943
3 700 1044 1944
3 880 881 1025
3 496 1845 2034
3 1072 1981 2393
3 462 464 2134
3 1949 1771 2359
3 1044 634 1942
3 550 584 1927
3 1390 1415 2118
3 526 503 527
3 990 845 1931
3 1009 1213 1214
3 740 742 1144
3 219 92 1902
3 727 1155 1899
3 369 370 371
3 623 690 2150
3 1279 1058 1928
3 1408 2235 2286
3 487 495 740
3 979 1886 2086
3 1305 1303 1306
3 421 412 1951
3 843 844 996
3 633 669 807
3 518 727 1899
3 826 825 1961
3 1657 1106 1936
3 1172 1012 1173
3 740 741 742
3 433 417 434
3 505 506 507
3 1333 1674 2437
3 742 743 744
3 469 458 470
3 1381 1380 1382
3 1293 1965 2515
3 1554 1559 2062
3 553 557 2499
3 1774 389 2339
3 497 498 499
3 483 485 576
3 740 1144 1935
3 773 735 834
3 366 367 369
3 1120 1118 1876
3 1515 1523 1574
3 1319 1013 2039
3 1303 1301 1923
3 457 447 458
3 561 593 594
3 1355 1424 1425
3 609 491 1936
3 204 1732 2137
3 791 1408 1642
3 995 944 1825
3 456 471 475
3 1692 1693 2239
3 580 1763 2164
3 1292 1293 2117
3 441 452 456
3 388 384 389
3 823 821 1972
3 504 880 1929
3 176 177 1680
3 1070 1071 1871
3 15 2260 2477
3 362 363 366
3 2178 2300 2449
3 1035 883 1036
3 2285 1563 2307
3 978 977 1074
3 1090 1102 2029
3 1810 1306 1923
3 496 494 497
3 1306 1303 1923
3 432 654 1915
3 934 933 935
3 356 355 365
3 398 403 404
3 635 701 843
3 1110 1106 1657
3 574 571 575
3 1025 881 1176
3 386 380 786
3 415 432 1915
3 343 347 1911
3 1070 930 1071
3 1688 1740 2231
3 1385 1216 1863
3 1696 1274 1701
3 1645 305 2317
3 880 759 881
3 926 848 927
3 1427 1423 2217
3 1339 1662 2388
3 770 774 775
3 1263 1257 1428
3 1337 1864 2412
3 349 348 355
3 2267 1721 2498
3 753 752 847
3 1375 1086 1473
3 900 982 983
3 332 335 739
3 429 428 430
3 744 752 753
3 1171 2132 2165
3 1425 1426 1449
3 987 641 1954
3 1883 1786 2409
3 427 426 428
3 928 927 930
3 1815 1105 2015
3 1206 1499 1941
3 410 406 411
3 573 540 1954
3 497 499 504
3 528 560 561
3 1933 1404 2399
3 1091 1089 1969
3 1804 1282 2073
3 504 505 759
3 963 924 1113
3 1711 1710 1712
3 881 759 1146
3 968 1199 1200
3 351 352 362
3 848 847 1026
3 521 530 531
3 1884 490 2034
3 1277 957 1966
3 1349 1350 2329
3 676 1043 2045
3 997 1159 1286
3 517 1889 1890
3 781 835 836
3 944 948 1283
3 722 1776 2026
3 507 519 520
3 2040 1352 2058
3 1276 957 1277
3 446 437 447
3 931 860 977
3 361 359 765
3 1248 1536 2534
3 512 523 528
3 408 412 413
3 1368 1369 1370
3 451 2169 2223
3 192 75 1994
3 942 756 2026
3 345 344 348
3 764 1152 1963
3 413 418 419
3 1286 1773 1774
3 770 671 774
3 275 549 2124
3 1497 1645 2461
3 1982 1472 2272
3 422 435 441
3 281 279 736
3 1134 270 1135
3 582 562 583
3 1421 2415 2454
3 485 487 1935
3 2300 1067 2480
3 1578 1576 1827
3 930 927 1061
3 1026 1086 1375
3 922 2259 2379
3 1391 1120 1876
3 1495 1494 2493
3 404 407 408
3 879 2178 2449
3 1700 1698 2036
3 607 1517 1520
3 753 847 848
3 416 411 417
3 1144 742 1943
3 775 776 777
3 754 2108 2148
3 1006 1421 1953
3 585 581 586
3 531 530 532
3 235 1709 1888
3 520 519 521
3 1180 1181 1349
3 1146 759 1967
3 708 710 1921
3 1350 2253 2329
3 436 430 437
3 504 499 505
3 643 641 987
3 336 330 517
3 811 1059 1149
3 1164 1411 1685
3 846 933 934
3 635 843 1960
3 983 982 1918
3 971 872 1096
3 1149 1163 1164
3 169 237 1724
3 1314 1315 1316
3 629 583 630
3 891 812 1916
3 462 463 464
3 487 740 1935
3 798 2084 2189
3 1814 1838 2292
3 1284 1489 1491
3 340 336 2014
3 1670 1461 2200
3 920 782 2057
3 890 2241 2275
3 510 511 512
3 278 279 280
3 839 802 840
3 1858 235 1888
3 1698 1696 2036
3 104 105 222
3 57 58 224
3 1185 1183 1186
3 588 587 623
3 638 600 1988
3 1282 1386 2245
3 811 776 1058
3 816 815 876
3 2034 1845 2082
3 761 636 1741
3 566 565 587
3 174 175 1725
3 347 350 351
3 1469 1495 1496
3 1059 1058 1278
3 811 1149 1976
3 576 485 1935
3 659 658 660
3 859 1153 1962
3 76 1903 1994
3 1821 1109 2426
3 1294 1038 1622
3 733 1833 2075
3 992 993 1980
3 1566 1561 2285
3 525 474 2041
3 464 465 510
3 343 346 347
3 360 893 1982
3 650 649 651
3 896 608 936
3 950 1006 1007
3 1508 1859 1860
3 539 538 565
3 440 343 1911
3 341 340 344
3 221 1905 1906
3 1297 1823 2142
3 759 505 1967
3 1295 1053 1296
3 473 470 474
3 1463 1465 1466
3 1143 1206 2028
3 799 685 800
3 1210 2077 2203
3 509 508 538
3 492 496 2034
3 1553 1551 2030
3 1260 1261 1269
3 1430 1040 1703
3 586 590 1940
3 838 836 868
3 1705 624 2276
3 1749 972 2501
3 742 744 1943
3 804 962 1981
3 1367 1368 2254
3 531 532 533
3 337 336 340
3 1157 1094 1544
3 536 544 1158
3 812 630 1960
3 781 779 835
3 56 57 1947
3 630 583 634
3 1405 1404 1932
3 1281 891 1916
3 339 342 343
3 1411 1163 1730
3 322 323 324
3 344 340 2091
3 1735 1734 1736
3 75 76 1994
3 430 682 2494
3 1907 243 2360
3 589 581 2164
3 694 355 2196
3 744 753 1943
3 775 774 776
3 1210 1430 2077
3 335 338 339
3 1102 1803 2029
3 1078 937 1079
3 870 655 1939
3 505 507 1967
3 357 360 1982
3 1896 1878 2101
3 326 325 328
3 934 935 957
3 585 608 895
3 333 330 336
3 1270 1272 1524
3 688 817 878
3 507 520 1967
3 1428 1257 2074
3 1818 1817 2000
3 896 937 1077
3 934 957 1111
3 329 328 330
3 1499 995 1825
3 944 851 948
3 387 445 462
3 1678 1161 2228
3 777 776 811
3 313 311 757
3 324 331 332
3 848 1026 1955
3 1312 998 1811
3 1321 1322 2037
3 1080 1079 1121
3 1105 1355 2015
3 1645 2317 2461
3 1559 1568 2062
3 332 334 335
3 501 500 508
3 321 325 326
3 394 395 397
3 322 320 323
3 1529 1530 2171
3 1137 797 1138
3 811 1058 1059
3 661 660 662
3 569 581 585
3 183 4 2303
3 5 160 2304
3 1340 1138 1341
3 1660 1626 2185
3 1743 1464 2347
3 1026 1375 1955
3 1149 1059 1163
3 1736 1625 2194
3 1322 1667 2434
3 311 309 1959
3 309 307 319
3 894 700 1944
3 533 534 562
3 1276 1277 1366
3 2190 1706 2408
3 533 532 534
3 1214 1213 1410
3 1164 1163 1411
3 843 701 844
3 1009 1214 2055
3 234 1589 1788
3 2000 1817 2174
3 317 321 2050
3 328 325 945
3 392 393 394
3 588 623 2089
3 1162 958 1681
3 1078 1080 1136
3 927 848 1955
3 1496 1497 1498
3 390 391 392
3 1061 927 1955
3 1283 948 1284
3 635 634 700
3 1244 1251 1252
3 218 78 2093
3 756 722 2026
3 1071 1784 2419
3 1218 1505 2185
3 1284 948 1285
3 1489 1285 1490
3 918 1850 1851
3 684 1090 2029
3 1759 572 2537
3 1691 1690 2446
3 1979 1158 2071
3 606 649 650
3 2045 1043 2046
3 103 104 2025
3 630 634 635
3 360 383 893
3 406 386 2043
3 1909 219 2023
3 1111 957 1276
3 1925 1437 2277
3 1536 2268 2340
3 854 852 1133
3 233 153 1671
3 651 658 659
3 2099 1787 2368
3 1033 1032 1130
3 1015 1372 1373
3 1412 942 2026
3 253 264 1441
3 1531 1534 2332
3 701 700 894
3 106 107 1990
3 2048 1961 2455
3 276 274 2099
3 738 846 1968
3 1325 925 1326
3 896 936 937
3 585 586 608
3 1450 854 1973
3 1361 1360 1362
3 1045 1668 2512
3 303 301 444
3 996 844 997
3 79 1904 2093
3 1989 1686 2095
3 1928 774 2033
3 1942 562 1979
3 287 285 316
3 935 950 1966
3 1466 1467 1468
3 1242 1243 1244
3 1887 738 1968
3 2115 210 2477
3 878 929 1083
3 1326 1736 2194
3 886 888 1014
3 895 608 896
3 289 287 1978
3 821 822 897
3 936 608 1940
3 613 614 615
3 51 52 1996
3 417 411 1160
3 1149 1164 1989
3 386 786 2043
3 285 283 1971
3 1309 1543 2147
3 375 373 2053
3 371 370 372
3 779 777 1976
3 1286 1159 1773
3 2177 887 2376
3 1560 1557 1564
3 1403 1882 2399
3 1727 1757 2246
3 279 6 2049
3 1619 1438 2438
3 291 289 758
3 1781 1915 2294
3 425 401 426
3 349 355 356
3 66 67 2118
3 474 548 2041
3 1686 1687 2007
3 1262 1456 1457
3 1123 942 1412
3 1916 812 1960
3 1355 1425 2015
3 735 733 2075
3 1861 879 2449
3 1284 1285 1489
3 490 492 2034
3 366 363 367
3 980 578 2051
3 906 904 1792
3 534 536 1979
3 842 924 963
3 2051 578 2083
3 1077 937 1078
3 1102 1104 1803
3 894 1944 1946
3 398 404 2060
3 1007 1006 1953
3 369 367 370
3 348 354 2196
3 1078 1079 1080
3 1378 1380 1381
3 1568 1365 2439
3 608 586 1940
3 598 610 611
3 760 636 761
3 869 1137 1351
3 671 643 2033
3 1661 1345 2267
3 938 914 1057
3 783 761 914
3 576 1835 2144
3 388 389 390
3 297 295 318
3 454 453 500
3 1906 1728 2246
3 1439 1440 2468
3 1159 1013 1318
3 764 797 869
3 236 143 1717
3 782 644 2057
3 592 595 596
3 1542 2332 2443
3 1521 1311 2147
3 345 348 349
3 1304 1452 2205
3 1644 1907 2360
3 2146 1125 2149
3 997 844 1013
3 628 375 2053
3 299 297 1984
3 957 935 1966
3 664 685 799
3 301 299 1975
3 362 352 363
3 777 811 1976
3 1942 1979 2071
3 1001 920 2057
3 312 314 768
3 1552 1554 2062
3 615 616 617
3 357 1982 2076
3 800 802 839
3 774 671 2033
3 1749 1169 2105
3 365 958 1162
3 617 618 619
3 283 281 1938
3 1351 1772 2414
3 1525 1765 2489
3 846 934 1968
3 635 700 701
3 555 554 577
3 536 1158 1979
3 1101 1404 1405
3 630 635 1960
3 1811 1150 2089
3 2113 1666 2249
3 172 173 1847
3 107 108 195
3 54 55 196
3 1191 1768 2023
3 1455 1302 2205
3 115 116 2017
3 1387 1333 2437
3 659 661 764
3 1080 1121 1188
3 50 51 2011
3 411 406 2043
3 295 293 1983
3 643 987 2033
3 707 706 708
3 129 130 261
3 32 33 260
3 2159 260 2265
3 449 434 567
3 1314 1029 1315
3 917 796 940
3 378 375 628
3 108 109 1991
3 2370 1759 2537
3 341 344 345
3 997 1013 1159
3 544 569 1993
3 950 1007 1966
3 477 474 525
3 351 350 352
3 1696 1701 2036
3 334 331 803
3 1137 1138 1340
3 562 534 1979
3 109 110 246
3 52 53 247
3 1368 1316 1369
3 659 660 661
3 33 34 2002
3 123 124 2005
3 835 779 1976
3 851 838 1992
3 1530 1533 2172
3 1668 1045 2348
3 1162 1681 1706
3 342 338 468
3 298 300 358
3 765 359 2065
3 725 826 885
3 35 36 2003
3 46 47 2019
3 38 39 2006
3 336 517 2014
3 934 1111 1968
3 116 117 2018
3 650 651 1963
3 223 1711 2162
3 640 594 645
3 1333 1330 2192
3 104 222 2025
3 1603 922 2379
3 963 1113 1115
3 2084 1193 2189
3 564 570 571
3 36 37 2004
3 57 224 1947
3 1542 1601 2269
3 122 123 2012
3 1000 920 1001
3 127 128 240
3 34 35 239
3 383 387 2087
3 1161 1107 2228
3 1781 2294 2419
3 1201 1200 1202
3 124 125 225
3 37 38 226
3 1340 1341 1342
3 869 797 1137
3 839 840 1008
3 1158 544 1993
3 1326 925 1894
3 352 350 353
3 326 329 954
3 1864 2344 2412
3 836 835 2095
3 1051 1053 1295
3 1031 720 1032
3 503 461 787
3 1407 1112 2044
3 661 662 2058
3 838 868 1992
3 112 113 197
3 49 50 198
3 1359 980 1413
3 121 122 211
3 40 41 212
3 48 49 2010
3 113 114 2009
3 1741 673 2131
3 41 42 2020
3 120 121 2013
3 1409 2035 2097
3 1511 1374 2506
3 114 115 248
3 47 48 249
3 42 43 250
3 119 120 251
3 171 6 201
3 6 172 203
3 585 895 1993
3 43 44 2024
3 118 119 2021
3 905 904 906
3 764 661 797
3 337 340 341
3 1413 980 2051
3 117 118 205
3 44 45 206
3 347 346 350
3 1420 1076 1525
3 324 323 331
3 434 417 2031
3 965 967 969
3 716 719 788
3 1260 1254 1261
3 2053 373 2103
3 2069 2068 2170
3 326 328 329
3 1706 996 2408
3 273 275 2124
3 969 1011 1012
3 590 606 2001
3 1718 1611 2280
3 1914 1940 2001
3 915 1884 2082
3 329 330 333
3 620 859 955
3 2168 1409 2305
3 296 298 1997
3 915 2082 2101
3 339 338 342
3 1218 994 1505
3 333 336 337
3 266 263 1742
3 1873 768 2127
3 244 63 2162
3 64 223 2162
3 343 342 346
3 914 761 2258
3 310 312 1987
3 799 800 2055
3 302 304 763
3 1559 1566 1568
3 1598 1343 2114
3 592 575 595
3 341 345 794
3 189 1842 2220
3 767 815 816
3 1003 912 1004
3 839 1008 1009
3 1263 1428 1429
3 564 547 570
3 1845 1334 2082
3 332 331 334
3 901 866 902
3 651 659 1963
3 1009 1112 1213
3 335 334 338
3 569 585 1993
3 1665 1336 2299
3 1945 2071 2153
3 863 862 864
3 907 906 908
3 1849 1486 1930
3 1935 1144 2080
3 967 966 968
3 809 900 2119
3 865 864 866
3 835 1989 2095
3 190 1907 2417
3 333 337 522
3 1110 1748 2228
3 1193 1194 1195
3 94 191 2166
3 473 1854 2453
3 1769 1134 2369
3 948 851 1992
3 237 170 2216
3 420 419 422
3 1448 1447 2364
3 483 576 2144
3 721 1919 2032
3 885 886 1891
3 613 611 614
3 886 1014 1891
3 1160 411 2043
3 1918 1283 2342
3 1651 206 2485
3 1242 1240 1243
3 598 596 610
3 1295 1296 1459
3 1185 1186 1948
3 1425 1449 2070
3 294 296 762
3 1285 948 1992
3 925 876 1894
3 712 714 789
3 603 1668 2398
3 1940 590 2001
3 721 570 964
3 834 735 2075
3 1144 1920 2080
3 2263 1635 2511
3 1204 1207 1335
3 2235 1408 2378
3 965 964 966
3 1990 1435 2218
3 397 398 2060
3 1138 797 2058
3 1787 1141 2368
3 2068 820 2170
3 360 359 361
3 387 462 2087
3 1524 1272 1934
3 819 698 820
3 1197 1196 1198
3 1662 2126 2388
3 78 79 2093
3 1150 588 2089
3 1269 1261 1270
3 1878 915 2101
3 451 467 2169
3 2262 1387 2437
3 1009 1008 1112
3 757 311 1959
3 897 898 1139
3 1854 473 2483
3 2015 1425 2070
3 2082 1334 2101
3 963 1115 1174
3 1047 1049 1287
3 1194 423 1196
3 321 326 2050
3 417 1160 2031
3 854 1133 1973
3 1201 1212 1348
3 705 1586 2163
3 309 319 1959
3 1353 1390 2417
3 427 428 429
3 357 356 359
3 606 650 2001
3 549 1280 2124
3 1213 1112 1407
3 256 2303 2535
3 356 365 2065
3 662 664 2040
3 701 894 2039
3 1325 1371 2451
3 666 626 667
3 1902 93 2166
3 1236 1234 1246
3 800 839 2055
3 1869 1812 2252
3 1197 1364 1365
3 576 1935 2080
3 404 408 798
3 1678 807 2529
3 1560 1564 2016
3 1319 2039 2122
3 425 426 427
3 349 356 357
3 308 310 327
3 1716 622 2484
3 1801 82 2289
3 1768 1949 2420
3 2006 1926 2507
3 351 364 2407
3 420 423 1193
3 659 764 1963
3 292 294 2038
3 840 842 2027
3 736 279 2049
3 372 373 374
3 461 449 2052
3 2189 1195 2285
3 1174 1115 1398
3 367 363 961
3 909 908 918
3 1738 247 2402
3 1007 1761 2308
3 288 290 2135
3 422 441 2035
3 623 624 690
3 537 525 545
3 1953 1421 2454
3 1887 1968 2123
3 861 691 862
3 654 439 2223
3 1136 1080 2054
3 1312 1811 2089
3 575 571 2032
3 383 361 384
3 968 1200 1201
3 797 661 2058
3 1423 1354 2381
3 1180 1178 1181
3 1513 1515 2180
3 72 73 2217
3 462 445 463
3 12 13 2136
3 457 458 469
3 542 554 555
3 599 636 760
3 254 133 1766
3 1130 1397 1937
3 404 798 2060
3 1044 1942 2071
3 690 691 860
3 357 359 360
3 1008 2027 2152
3 1232 1230 1255
3 372 370 373
3 850 943 2125
3 1457 1456 1492
3 1952 324 2282
3 155 2 2356
3 0 7 2357
3 2017 1379 2288
3 918 1851 2008
3 195 1991 2517
3 2090 803 2347
3 1244 1243 1251
3 290 292 368
3 1432 1082 2214
3 1008 840 2027
3 1743 803 2296
3 1013 844 2039
3 365 1162 2065
3 1594 1315 2184
3 387 384 388
3 1508 1860 2311
3 547 527 2056
3 2005 225 2322
3 314 317 2127
3 1853 556 2327
3 201 6 278
3 1907 1644 2417
3 1896 2101 2108
3 646 645 784
3 538 508 558
3 374 375 377
3 1630 1634 1635
3 1579 1999 2352
3 1647 1648 1849
3 1313 1314 2121
3 1179 1433 2042
3 844 701 2039
3 1252 1251 2098
3 816 876 925
3 1922 1228 2281
3 392 394 396
3 1915 654 2294
3 1652 1653 2487
3 429 430 436
3 456 475 476
3 1605 1392 2510
3 126 1882 2284
3 1784 1780 2419
3 500 453 960
3 377 378 381
3 2178 1587 2300
3 1222 1219 1626
3 413 419 420
3 381 382 400
3 2169 1836 2223
3 1906 1905 2129
3 616 614 793
3 1170 1419 2139
3 101 189 2220
3 241 100 2220
3 1968 1111 2123
3 567 434 2031
3 615 614 616
3 1032 720 1921
3 682 428 2138
3 469 470 473
3 339 440 2261
3 1501 238 2226
3 1154 1431 1653
3 446 447 457
3 1251 1243 1257
3 2229 315 2495
3 1201 1202 1212
3 785 784 879
3 464 463 465
3 66 2118 2395
3 324 332 2282
3 286 288 771
3 17 199 2081
3 571 570 721
3 611 610 2092
3 617 616 618
3 1542 1531 2332
3 400 401 424
3 1325 1326 1371
3 1140 1406 1702
3 1323 443 2302
3 1926 1573 2507
3 436 437 446
3 1262 1457 2098
3 67 190 2118
3 1518 1861 2449
3 989 1359 1360
3 1063 1082 1154
3 1757 96 2526
3 969 967 1011
3 868 836 2095
3 1215 1035 2235
3 96 1757 2309
3 261 2160 2380
3 1381 1382 2126
3 1468 1469 2182
3 1334 1317 2108
3 861 863 1064
3 1270 1261 1271
3 360 361 383
3 287 316 1978
3 1856 192 2367
3 1905 241 2129
3 1615 1809 2425
3 528 523 560
3 979 980 989
3 662 2040 2058
3 721 964 965
3 170 171 2216
3 664 799 2040
3 512 511 523
3 1201 1348 2107
3 620 618 858
3 758 289 1978
3 859 858 998
3 424 425 453
3 1616 1615 2193
3 444 301 1975
3 561 560 593
3 965 966 967
3 1798 376 2430
3 340 2014 2091
3 510 465 511
3 107 195 1990
3 1080 1188 2054
3 1153 998 1312
3 1226 1224 1249
3 1012 1011 1363
3 902 904 905
3 842 963 2027
3 268 270 1134
3 865 901 1125
3 2077 558 2102
3 282 284 442
3 1977 1679 2253
3 1496 1498 2047
3 284 286 2063
3 281 736 1938
3 2132 793 2165
3 1674 215 2437
3 2078 1855 2411
3 839 1009 2055
3 1182 824 1183
3 1168 947 1169
3 1289 1871 2242
3 316 285 1971
3 1270 1271 1272
3 1755 1793 2264
3 51 1996 2011
3 383 384 387
3 1146 1924 2215
3 1279 1928 2202
3 619 618 620
3 1194 1196 1197
3 555 578 979
3 1937 1639 2528
3 1262 1257 1263
3 389 384 2339
3 2251 1338 2464
3 1155 1887 2123
3 1151 1937 2528
3 465 463 828
3 1318 1319 2116
3 1687 1688 2231
3 326 954 2050
3 297 318 1984
3 1308 953 2255
3 1846 2056 2198
3 320 315 2229
3 1254 1252 2059
3 760 761 783
3 951 1281 2255
3 1459 1296 2094
3 2288 1638 2470
3 1975 299 1984
3 52 247 1996
3 468 338 2090
3 2140 1511 2506
3 1125 1126 1192
3 593 824 1182
3 720 708 1921
3 704 706 707
3 623 587 624
3 2044 1112 2152
3 1393 1169 1749
3 900 983 2119
3 783 914 938
3 255 2265 2489
3 2039 894 2122
3 317 2050 2127
3 1866 1867 2513
3 374 373 375
3 429 436 455
3 387 388 445
3 1193 423 1194
3 555 577 578
3 1074 977 1187
3 449 567 2052
3 1197 1198 1364
3 2154 1595 2486
3 1486 1849 2173
3 318 295 1983
3 939 1016 1844
3 131 132 2160
3 30 31 2159
3 881 1146 2215
3 1294 1868 2238
3 1300 1455 2314
3 1365 1364 1912
3 783 938 939
3 2061 1735 2441
3 551 545 601
3 2194 216 2536
3 1251 1257 1262
3 888 887 2177
3 1364 1198 2048
3 1498 1682 2340
3 1589 1590 2501
3 60 188 2266
3 1401 1913 2324
3 195 108 1991
3 420 422 423
3 1675 1470 2474
3 258 1673 2183
3 2161 1619 2438
3 1296 1472 2094
3 1808 1910 2381
3 334 803 2090
3 1490 1285 2232
3 523 511 524
3 1240 1238 2074
3 1184 1183 1185
3 39 40 2151
3 473 474 477
3 1461 1463 2200
3 2072 353 2073
3 861 862 863
3 1206 1941 2401
3 958 1575 2287
3 614 611 2092
3 110 111 2140
3 1136 2054 2110
3 645 594 2133
3 260 33 2002
3 673 767 2131
3 989 980 1359
3 1741 2131 2258
3 1317 1875 2148
3 894 1946 2122
3 863 864 865
3 787 461 2052
3 857 2277 2386
3 109 246 1991
3 2017 116 2018
3 1182 1183 1184
3 377 375 378
3 816 925 1324
3 865 866 901
3 1262 1263 1456
3 359 356 2065
3 2129 241 2472
3 283 1938 1971
3 1458 1210 2203
3 1076 1003 2145
3 196 1738 2402
3 1033 1130 1151
3 1188 1121 2106
3 1140 1702 2096
3 549 687 1280
3 1694 1621 2191
3 861 1064 2112
3 1548 1549 2129
3 1784 1071 2462
3 714 716 2066
3 1961 825 2455
3 1447 1211 2250
3 979 578 980
3 905 907 1209
3 381 378 382
3 457 469 552
3 595 575 2032
3 408 413 2084
3 481 483 2144
3 1745 1349 2293
3 1980 1405 2441
3 198 50 2011
3 248 115 2017
3 912 819 2068
3 620 858 859
3 707 708 720
3 821 674 822
3 514 542 2086
3 400 382 401
3 123 2005 2012
3 1772 1351 2374
3 34 239 2002
3 768 314 2127
3 2003 36 2004
3 280 282 2079
3 124 225 2005
3 596 595 2130
3 593 560 824
3 1504 1502 2519
3 239 35 2003
3 1311 1309 2147
3 1318 1877 2240
3 1860 1432 2311
3 1416 1715 2330
3 859 998 1153
3 352 353 2072
3 312 768 1987
3 2027 1174 2152
3 226 38 2006
3 1827 1024 2117
3 1710 1391 2295
3 690 624 691
3 37 226 2004
3 1153 1312 1885
3 853 855 2186
3 1892 242 2373
3 1967 520 2174
3 939 938 1016
3 47 249 2019
3 388 390 2078
3 1991 2139 2517
3 905 906 907
3 571 721 2032
3 1196 423 2035
3 1324 925 1325
3 1151 1130 1937
3 363 352 2072
3 345 349 2076
3 1031 1032 1033
3 214 179 1859
3 211 122 2012
3 602 601 652
3 117 205 2018
3 710 712 2067
3 1602 187 2357
3 520 2000 2174
3 85 242 2335
3 220 84 2335
3 381 400 2113
3 1586 1587 2435
3 424 401 425
3 963 1174 2027
3 860 691 861
3 610 596 2130
3 1958 2078 2431
3 570 547 2056
3 237 2216 2354
3 1211 1692 2219
3 298 358 1997
3 909 947 1041
3 441 456 2097
3 1135 1647 1849
3 1601 1542 2443
3 197 113 2009
3 49 198 2010
3 1911 347 2407
3 1729 191 2309
3 212 41 2020
3 121 211 2013
3 222 105 2218
3 1125 901 1126
3 114 248 2009
3 249 48 2010
3 42 250 2020
3 251 120 2013
3 233 1769 2369
3 1870 647 2113
3 794 345 2076
3 250 43 2024
3 119 251 2021
3 901 902 2141
3 964 570 2056
3 739 335 2261
3 2108 1317 2148
3 577 599 2083
3 205 118 2021
3 44 206 2024
3 1247 1241 2323
3 1894 992 2244
3 6 203 2049
3 1642 1678 2529
3 1417 1873 2333
3 1422 2023 2516
3 341 794 2100
3 73 74 2361
3 1234 1232 2088
3 1261 1254 2059
3 896 1077 2257
3 1921 710 2067
3 125 126 2284
3 220 1699 2289
3 159 5 2304
3 4 184 2303
3 2059 1252 2098
3 1003 1004 2145
3 2328 1325 2451
3 1486 227 1500
3 63 64 2162
3 2081 1192 2260
3 508 500 2102
3 667 1872 2318
3 338 334 2090
3 423 422 2035
3 1192 1126 1471
3 907 908 909
3 1330 1328 2192
3 1972 897 2500
3 2443 316 2514
3 242 86 2373
3 87 193 2373
3 420 1193 2084
3 1473 1086 2358
3 1987 768 2037
3 522 337 2100
3 627 1660 2185
3 1793 446 2264
3 1405 2061 2441
3 1502 1217 2302
3 171 201 2216
3 1158 1993 2153
3 1197 1365 2120
3 1712 1710 2295
3 1121 1401 2414
3 93 94 2166
3 653 652 688
3 622 1716 2452
3 1345 1720 2267
3 477 537 556
3 128 129 2181
3 2331 1295 2458
3 784 645 874
3 1269 1270 2199
3 189 102 2355
3 1041 1168 1343
3 246 110 2140
3 477 525 537
3 755 1895 2371
3 1947 1723 2313
3 1134 1135 2369
3 223 65 2395
3 968 1201 2107
3 1577 1578 2325
3 210 15 2477
3 961 363 2072
3 1581 1579 2352
3 349 357 2076
3 337 341 2100
3 305 303 2317
3 370 367 2103
3 762 296 1997
3 581 580 2164
3 1278 1838 2372
3 1548 2129 2472
3 594 593 2133
3 2021 251 2022
3 2047 1247 2182
3 967 968 2107
3 1169 947 2008
3 481 2144 2169
3 793 614 2092
3 1910 217 2381
3 1251 1262 2098
3 716 788 2066
3 2101 1334 2108
3 2006 39 2151
3 1603 2379 2508
3 1926 2006 2151
3 96 97 2526
3 750 755 2371
3 789 714 2066
3 909 918 947
3 1993 895 2153
3 106 1990 2218
3 1243 1240 2074
3 832 986 1189
3 1283 1284 2342
3 2297 195 2517
3 1043 829 2326
3 767 816 2131
3 602 653 676
3 1004 912 2068
3 2086 1886 2224
3 1124 2177 2467
3 426 401 2531
3 707 720 1030
3 1000 1001 2184
3 1315 1029 2184
3 467 481 2169
3 541 513 2256
3 647 381 2113
3 225 2284 2510
3 2 156 2356
3 187 0 2357
3 40 212 2151
3 2245 1386 2383
3 676 677 829
3 1004 2068 2069
3 1860 232 2487
3 1031 1033 1034
3 829 830 972
3 996 997 2408
3 1195 1194 2120
3 987 1869 2202
3 1410 1213 2222
3 819 820 2068
3 1485 1486 2173
3 1564 2030 2155
3 807 669 2529
3 129 261 2181
3 1525 1076 2145
3 578 577 2083
3 327 310 1987
3 1083 929 2197
3 2131 1324 2258
3 798 408 2084
3 1838 696 2426
3 1486 1500 1930
3 1946 1944 2291
3 2257 1077 2291
3 1512 1661 2266
3 445 388 2078
3 1192 1471 2260
3 2118 1415 2395
3 1466 1468 2158
3 830 677 831
3 211 2012 2251
3 652 601 2442
3 537 545 551
3 558 508 2102
3 198 2011 2128
3 1718 2280 2385
3 500 960 2102
3 1168 1169 1393
3 1127 971 2496
3 95 96 2309
3 2030 1565 2155
3 1919 1172 2273
3 977 860 2112
3 240 128 2181
3 294 762 2038
3 1800 1799 2195
3 712 789 2067
3 972 1749 2326
3 472 1683 2212
3 874 645 2133
3 551 2045 2201
3 2105 1043 2326
3 1957 1212 2301
3 1514 1856 2367
3 565 538 2167
3 373 370 2103
3 355 348 2196
3 1934 1272 2138
3 1934 426 2531
3 1881 1400 2481
3 2046 1851 2327
3 367 961 2103
3 1963 1152 2206
3 201 278 443
3 3 131 2444
3 31 1 2445
3 2035 441 2097
3 503 787 2198
3 1135 1849 1930
3 1534 1983 2306
3 2089 623 2150
3 687 704 2109
3 869 1351 2363
3 1302 1304 2205
3 955 1716 2484
3 1030 720 1031
3 1159 1318 2240
3 1228 1226 2281
3 947 918 2008
3 413 420 2084
3 785 879 2532
3 1041 947 1168
3 1468 2182 2323
3 1246 1234 2088
3 1730 1163 2372
3 542 555 2086
3 1599 631 2312
3 1146 1967 2174
3 1078 1136 2343
3 1515 1574 2180
3 2336 885 2469
3 1257 1243 2074
3 1347 1346 2279
3 2001 650 2206
3 1480 1601 2514
3 1029 1000 2184
3 1956 788 2336
3 1271 1261 2059
3 130 3 2444
3 1 32 2445
3 1570 1507 2197
3 1232 1255 2088
3 791 1642 2529
3 1601 1479 2269
3 1361 1362 2168
3 1634 1922 2281
3 765 2065 2190
3 2071 1158 2153
3 1699 1801 2289
3 832 831 833
3 1864 346 2344
3 456 476 2097
3 1855 828 2411
3 2065 1162 2190
3 1125 1192 2149
3 599 760 2083
3 361 765 2339
3 1731 2123 2241
3 1349 1181 1350
3 1443 1275 2251
3 1819 524 2429
3 1021 1045 2512
3 858 618 2132
3 1999 358 2338
3 368 292 2038
3 290 368 2135
3 803 331 2296
3 1112 1008 2152
3 56 1947 2313
3 555 979 2086
3 1469 1496 2182
3 1011 967 2107
3 248 2017 2288
3 1809 789 2425
3 960 453 2221
3 538 558 2167
3 1858 1187 2248
3 2246 1757 2526
3 902 905 2141
3 1851 1853 2327
3 1224 1222 2111
3 771 288 2135
3 1945 2153 2257
3 1420 1525 2489
3 1399 1123 2393
3 103 2025 2355
3 897 822 898
3 1861 940 2532
3 865 1125 2146
3 1675 2474 2522
3 1573 2157 2507
3 1632 1631 2382
3 551 601 602
3 527 503 2198
3 1708 805 2337
3 1059 1278 2372
3 2056 527 2198
3 860 861 2112
3 1668 2348 2398
3 255 2159 2265
3 1541 1542 2269
3 1428 2074 2227
3 1582 1583 2321
3 389 1774 2503
3 2004 226 2157
3 1777 397 2405
3 1368 1436 2254
3 1061 2409 2462
3 1071 930 2462
3 1126 901 2141
3 1194 1197 2120
3 1452 1952 2282
3 2116 1319 2482
3 105 106 2218
3 1981 1399 2393
3 2119 983 2143
3 444 1682 2461
3 2173 1648 2463
3 616 793 2132
3 1791 1190 2334
3 1826 1728 2259
3 602 652 653
3 1834 1292 2428
3 556 2201 2327
3 1014 1015 2385
3 1995 1287 2331
3 1193 1195 2189
3 816 1324 2131
3 879 1861 2532
3 593 1182 2133
3 1402 266 1742
3 2216 1323 2354
3 1660 1636 2502
3 620 955 2484
3 1162 1706 2190
3 1870 2113 2249
3 204 1680 1732
3 1909 2023 2420
3 217 72 2217
3 376 372 2430
3 905 1209 2141
3 1378 1381 2283
3 1236 1246 2227
3 286 771 2063
3 1635 2263 2502
3 100 101 2220
3 1139 898 1140
3 2114 1343 2136
3 442 284 2063
3 1772 2106 2414
3 1985 1755 2533
3 2192 1328 2315
3 1064 863 2146
3 1631 1637 2459
3 736 2049 2523
3 221 1906 2246
3 318 1983 2171
3 1496 2047 2182
3 1374 2139 2506
3 196 55 2313
3 2087 462 2134
3 676 653 677
3 2304 257 2491
3 1401 2324 2363
3 829 677 830
3 654 2223 2242
3 1187 977 2112
3 1463 1466 2200
3 2023 219 2516
3 1176 881 2215
3 513 471 2290
3 1812 459 2252
3 1386 1269 2199
3 291 758 2306
3 618 616 2132
3 278 280 2210
3 83 220 2289
3 82 83 2289
3 938 1057 2161
3 1189 986 1190
3 788 719 2336
3 1914 2001 2206
3 232 181 1652
3 1567 2062 2490
3 313 757 2495
3 622 619 2484
3 688 878 1320
3 1222 1626 2111
3 282 442 2079
3 1169 2008 2105
3 1966 1007 2308
3 2040 799 2237
3 1744 2229 2495
3 986 833 1063
3 2284 1605 2510
3 887 1961 2376
3 215 1624 2262
3 830 831 832
3 476 475 2224
3 439 451 2223
3 1932 1933 2380
3 2227 1246 2366
3 1212 1202 2301
3 1107 1110 2228
3 249 2010 2299
3 1983 293 2306
3 2055 1214 2237
3 1438 1372 2478
3 824 560 2156
3 2320 1866 2513
3 1351 1137 2374
3 868 2007 2232
3 2063 771 2064
3 1507 214 1508
3 1728 1727 2246
3 1045 1047 2348
3 1139 1140 2096
3 1648 1649 2463
3 1502 2302 2519
3 704 707 2109
3 2343 1136 2396
3 650 1963 2206
3 2153 895 2257
3 396 1958 2431
3 1379 1377 2288
3 2115 1471 2319
3 2033 987 2202
3 2239 1693 2518
3 2025 1488 2355
3 1209 2115 2319
3 523 524 2156
3 783 939 2243
3 376 1798 2497
3 2066 788 2193
3 1984 318 2172
3 425 427 2221
3 203 172 1847
3 446 457 2264
3 1312 2089 2150
3 2138 1272 2211
3 897 1139 2274
3 828 1819 2429
3 1249 1224 2111
3 666 667 2318
3 1371 1326 2194
3 2433 1499 2475
3 1272 1271 2211
3 1367 2254 2479
3 1386 2053 2383
3 2074 1238 2227
3 755 2148 2320
3 2117 1604 2428
3 475 514 2224
3 228 2187 2457
3 1868 1504 2520
3 1626 1218 2185
3 2123 1111 2241
3 1287 1049 2331
3 1280 687 2109
3 459 1814 2292
3 54 196 2402
3 863 865 2146
3 204 176 1680
3 514 2086 2224
3 1646 603 2398
3 112 197 2346
3 358 300 2338
3 1140 898 1141
3 1204 1335 2301
3 1016 2161 2438
3 909 1041 2175
3 1681 2448 2492
3 2252 459 2292
3 1992 868 2232
3 1035 1036 2235
3 1051 1295 2331
3 1836 1289 2242
3 1508 214 1859
3 247 53 2402
3 1016 938 2161
3 1408 856 2378
3 1466 2158 2200
3 725 885 2336
3 855 1450 2421
3 2023 1768 2420
3 1238 1236 2227
3 1679 202 2253
3 2107 1348 2233
3 1653 1431 2487
3 1946 2291 2343
3 2253 202 2329
3 1885 1312 2150
3 378 628 2390
3 2195 1383 2432
3 1520 1519 2480
3 1532 1733 2534
3 308 327 2278
3 953 951 2255
3 1213 1407 2222
3 1561 1563 2285
3 302 763 2338
3 1928 2033 2202
3 763 304 2345
3 832 833 986
3 1352 2040 2237
3 247 1881 2481
3 560 523 2156
3 335 339 2261
3 346 342 2344
3 201 443 1323
3 2301 1335 2466
3 323 320 2229
3 1136 2110 2396
3 1139 1977 2274
3 1809 1615 2423
3 1707 1791 2334
3 46 2019 2485
3 2064 1294 2238
3 1950 197 2404
3 2021 2022 2176
3 1949 245 2420
3 2044 2152 2207
3 1063 1154 1707
3 1012 1363 2406
3 280 2079 2210
3 2237 1214 2351
3 820 698 2318
3 1140 1141 1406
3 205 2021 2176
3 2043 786 2310
3 2145 1004 2446
3 707 1030 2109
3 1406 2460 2473
3 2137 1268 2226
3 16 2081 2260
3 567 2031 2219
3 2112 1064 2248
3 206 45 2485
3 2347 1462 2365
3 1650 1962 2362
3 453 425 2221
3 1209 907 2175
3 1111 1276 2241
3 2448 1145 2492
3 2051 2083 2243
3 59 60 2266
3 1402 1742 2530
3 831 677 2209
3 624 587 2276
3 238 174 1725
3 1011 2107 2233
3 468 2365 2412
3 2337 805 2371
3 254 1932 2380
3 1174 1398 2207
3 2140 111 2346
3 1381 2186 2283
3 1987 2037 2188
3 1740 559 2456
3 1773 391 2503
3 1335 1870 2249
3 1945 2257 2291
3 828 463 2411
3 1246 2088 2208
3 2060 798 2307
3 1773 1159 2240
3 1187 2112 2248
3 1352 2237 2351
3 2037 1322 2188
3 1941 1499 2433
3 2322 225 2510
3 1031 1034 2236
3 327 2188 2321
3 595 2032 2273
3 1464 1462 2347
3 1285 1992 2232
3 799 2055 2237
3 443 278 2210
3 784 874 2178
3 392 396 2431
3 191 95 2309
3 879 784 2178
3 524 511 2429
3 2128 2011 2270
3 895 896 2257
3 2206 1152 2324
3 318 2171 2172
3 2259 1549 2379
3 1214 1410 2351
3 306 308 2278
3 2022 251 2247
3 1757 1729 2309
3 1283 1918 2524
3 996 1706 2492
3 557 2044 2207
3 1798 1448 2364
3 1447 2250 2310
3 559 1750 2403
3 1363 1011 2233
3 1343 1168 2187
3 1407 2044 2256
3 1462 1460 2365
3 1995 2331 2458
3 327 1987 2188
3 2160 254 2380
3 1681 958 2287
3 2031 1160 2250
3 1600 689 2413
3 2219 1692 2239
3 1494 1675 2522
3 1281 1916 2448
3 907 909 2175
3 565 2167 2276
3 2241 1276 2275
3 1978 316 2443
3 2151 212 2350
3 203 1847 2104
3 2049 1481 2523
3 1961 1362 2376
3 2187 1393 2457
3 940 796 2532
3 2293 1349 2329
3 572 1897 2537
3 332 739 2282
3 2052 567 2239
3 1437 1370 2277
3 567 2219 2239
3 667 626 2452
3 1914 2206 2324
3 2243 939 2392
3 2136 1343 2187
3 257 1654 2530
3 1376 1378 2283
3 2076 1982 2272
3 2083 760 2243
3 1944 1945 2291
3 1771 1839 2359
3 1404 1403 2399
3 1875 1866 2320
3 1460 1337 2412
3 760 783 2243
3 1276 1366 2275
3 1428 2227 2366
3 1882 1605 2284
3 1739 1429 2459
3 2321 2188 2434
3 1328 1327 2315
3 798 2189 2307
3 2152 1174 2207
3 2182 1247 2323
3 1516 1514 2367
3 293 291 2306
3 556 537 2201
3 1298 1300 2314
3 1400 1399 2316
3 1649 2236 2463
3 833 831 2424
3 2127 2050 2333
3 1057 914 2328
3 1839 193 2359
3 761 1741 2258
3 1186 1970 2422
3 1429 2366 2382
3 2211 1271 2271
3 1733 1248 2534
3 13 2114 2136
3 2078 390 2431
3 1533 1536 2340
3 1690 2145 2446
3 1277 2308 2370
3 1168 1393 2187
3 1597 2047 2268
3 587 565 2276
3 1908 244 2401
3 225 125 2284
3 610 2130 2468
3 1749 2105 2326
3 1913 1914 2324
3 2366 2208 2382
3 1391 1876 2295
3 457 552 2264
3 653 688 2209
3 1601 2443 2514
3 682 2138 2211
3 992 1980 2244
3 55 56 2313
3 1645 1495 2493
3 473 477 2483
3 202 1724 2329
3 465 828 2429
3 1277 1966 2308
3 1416 2330 2406
3 1912 1364 2455
3 1716 1483 2375
3 2019 1651 2485
3 1725 2137 2226
3 201 1323 2216
3 878 1083 2213
3 2072 2073 2245
3 1563 1777 2405
3 244 2028 2401
3 2016 1564 2422
3 1682 1497 2461
3 1962 1153 2362
3 1298 2314 2358
3 1384 1385 2391
3 688 1320 2209
3 1587 2179 2435
3 786 380 2497
3 1395 1522 2341
3 2032 1919 2273
3 251 2013 2247
3 2219 2031 2250
3 2397 552 2453
3 1765 255 2489
3 2475 1825 2524
3 1202 1204 2301
3 445 2078 2411
3 323 2229 2296
3 1286 2384 2408
3 537 551 2201
3 1724 237 2293
3 84 85 2335
3 1471 1126 2319
3 1635 1634 2511
3 300 302 2338
3 698 666 2318
3 1030 1031 2236
3 2098 1457 2271
3 696 1821 2426
3 1457 1492 2447
3 1956 2336 2469
3 331 323 2296
3 1284 1491 2342
3 2011 1996 2270
3 256 183 2303
3 160 257 2304
3 2204 1589 2501
3 1891 1014 2280
3 719 725 2336
3 1354 1808 2381
3 437 430 2494
3 2377 218 2391
3 2211 2271 2447
3 1407 2256 2290
3 2365 1460 2412
3 2047 1498 2268
3 1825 1283 2524
3 1499 1825 2475
3 1226 1249 2281
3 2051 2243 2392
3 2250 1160 2310
3 111 112 2346
3 304 306 2345
3 1341 1352 2351
3 2166 191 2504
3 2223 1836 2242
3 1996 247 2481
3 1049 1051 2331
3 1086 1298 2358
3 2130 595 2273
3 1249 2111 2263
3 680 1995 2458
3 1511 2140 2346
3 102 103 2355
3 469 473 2453
3 961 2072 2245
3 2073 1282 2245
3 1442 1443 2525
3 74 192 2361
3 2163 1586 2435
3 1519 1518 2449
3 897 2274 2500
3 303 444 2317
3 1615 1614 2423
3 197 2009 2404
3 1634 2281 2511
3 1780 1781 2419
3 1435 1623 2465
3 1286 1774 2384
3 384 361 2339
3 193 1901 2359
3 1165 2433 2475
3 2277 1370 2386
3 677 653 2209
3 1994 1516 2367
3 1479 1478 2440
3 1165 1512 2433
3 1644 1353 2417
3 1711 1712 2353
3 2193 1615 2425
3 1613 1956 2469
3 1440 1173 2330
3 2269 1479 2440
3 222 2218 2465
3 391 389 2503
3 306 2278 2345
3 468 2090 2365
3 221 2246 2526
3 1445 1446 2504
3 939 1844 2392
3 86 87 2373
3 1429 1428 2366
3 2053 2103 2383
3 1348 1212 2312
3 805 750 2371
3 997 1286 2408
3 1152 869 2363
3 2063 2064 2238
3 192 1994 2367
3 1160 2043 2310
3 1926 2151 2350
3 2059 2098 2271
3 1897 1366 2537
3 215 2262 2437
3 1655 1732 2476
3 2415 1128 2454
3 1320 2213 2214
3 7 258 2357
3 259 155 2356
3 2171 1530 2172
3 347 351 2407
3 1077 1078 2343
3 239 2003 2279
3 1446 1128 2415
3 1034 1033 2410
3 601 627 2442
3 1154 1653 2234
3 397 2060 2405
3 2142 794 2272
3 442 2063 2238
3 1863 1215 2378
3 794 2076 2272
3 1883 1375 2505
3 1320 878 2213
3 342 468 2344
3 1903 218 2377
3 380 376 2497
3 1549 1547 2379
3 1148 1165 2475
3 2157 226 2507
3 829 972 2326
3 884 1957 2466
3 2291 1077 2343
3 65 66 2395
3 787 2052 2518
3 2298 1348 2312
3 1946 2343 2396
3 1653 256 2535
3 1842 1548 2472
3 1957 2301 2466
3 1366 1277 2370
3 2213 1432 2214
3 961 2245 2383
3 218 2093 2391
3 1376 2283 2421
3 1873 2127 2333
3 1019 1021 2512
3 1128 1127 2454
3 1104 1434 2450
3 2130 1439 2468
3 2396 2110 2482
3 2186 855 2283
3 1724 2293 2329
3 1163 1059 2372
3 1614 2389 2423
3 53 54 2402
3 1063 1707 2334
3 2283 855 2421
3 1385 1863 2436
3 364 1883 2505
3 517 1890 2387
3 1145 996 2492
3 1047 1287 2348
3 2148 1875 2320
3 205 2176 2416
3 1372 1844 2478
3 1211 2219 2250
3 1141 898 2368
3 245 1909 2420
3 2278 327 2321
3 2389 1397 2423
3 2256 513 2290
3 559 2403 2456
3 1137 1340 2374
3 2093 1384 2391
3 1918 1148 2524
3 1030 2236 2427
3 1867 1895 2513
3 2014 517 2387
3 2271 1457 2447
3 1143 2028 2353
3 1904 194 2432
3 1148 2475 2524
3 1574 1523 2436
3 2213 1083 2311
3 1997 358 2325
3 2139 246 2506
3 1370 1369 2386
3 1271 2059 2271
3 1034 2173 2463
3 1123 1412 2393
3 1578 1827 2515
3 2209 1320 2424
3 2079 1504 2210
3 1361 2168 2305
3 1491 1489 2403
3 238 1725 2226
3 1190 986 2334
3 1547 1545 2508
3 1891 1613 2469
3 1153 1885 2362
3 2208 1632 2382
3 2287 1281 2448
3 1356 1376 2421
3 1965 2349 2515
3 2155 1186 2422
3 1522 2014 2387
3 2158 1468 2323
3 2050 954 2333
3 1397 1809 2423
3 1362 1360 2376
3 1852 1985 2397
3 2069 1691 2446
3 789 2066 2425
3 1895 755 2513
3 1707 1154 2234
3 372 374 2430
3 2225 787 2518
3 2028 1206 2401
3 986 1063 2334
3 1912 726 2439
3 1340 1342 2400
3 1916 1145 2448
3 2236 1649 2427
3 2374 1340 2400
3 2222 1407 2290
3 2324 1152 2363
3 241 2220 2472
3 765 2190 2384
3 2375 667 2452
3 2330 1173 2406
3 1181 1972 2500
3 2126 1382 2388
3 1173 1012 2406
3 315 313 2495
3 1015 1373 2385
3 97 221 2526
3 1937 1397 2389
3 930 1061 2462
3 971 1096 2496
3 45 46 2485
3 669 791 2529
3 1104 2450 2521
3 382 378 2390
3 2191 1371 2536
3 2235 1036 2286
3 831 2209 2424
3 762 1997 2349
3 2379 1547 2508
3 2177 1359 2467
3 2403 1489 2456
3 796 785 2532
3 219 1902 2516
3 1519 2300 2480
3 1065 1655 2476
3 1375 1473 2505
3 1489 1490 2456
3 390 392 2431
3 2247 2013 2464
3 1135 1930 2369
3 2278 1583 2345
3 626 622 2452
3 631 2298 2312
3 2233 1348 2298
3 1398 1974 2499
3 1706 1681 2492
3 261 130 2444
3 32 260 2445
3 822 2099 2368
3 1365 1912 2439
3 941 940 2418
3 1446 2166 2504
3 2106 1121 2414
3 2300 1519 2449
3 1803 1104 2521
3 1732 1570 2476
3 1413 2051 2392
3 2122 1946 2396
3 2238 1868 2520
3 477 556 2483
3 2397 1985 2533
3 463 445 2411
3 2163 1185 2488
3 1126 2141 2319
3 1755 2264 2533
3 972 2204 2501
3 2230 1533 2340
3 1774 1773 2503
3 1997 2325 2349
3 1004 2069 2446
3 2159 31 2445
3 131 2160 2444
3 1371 2191 2451
3 1001 2154 2486
3 1682 2230 2340
3 2103 961 2383
3 1033 1151 2410
3 382 2390 2531
3 1504 2079 2520
3 1583 2278 2321
3 511 465 2429
3 250 2024 2479
3 2208 2088 2509
3 619 620 2484
3 1246 2208 2366
3 2141 1209 2319
3 1359 1413 2467
3 1295 1459 2458
3 2218 1435 2465
3 2281 1249 2511
3 2293 237 2354
3 2207 1398 2499
3 1564 2155 2422
3 552 469 2453
3 1947 224 2498
3 2062 1568 2490
3 2018 205 2416
3 260 2159 2445
3 2160 261 2444
3 2092 610 2468
3 194 2195 2432
3 1432 2213 2311
3 211 2251 2464
3 2378 856 2527
3 1536 1532 2534
3 2364 786 2497
3 2438 1438 2478
3 1185 1948 2488
3 2042 941 2418
3 1582 2321 2434
3 885 1891 2469
3 1364 2048 2455
3 1693 2225 2518
3 401 382 2531
3 1338 2247 2464
3 442 2238 2520
3 1292 2117 2428
3 2274 1350 2500
3 2066 2193 2425
3 2179 1184 2435
3 898 822 2368
3 2436 1863 2527
3 1844 1016 2478
3 2184 1001 2486
3 557 2207 2499
3 2013 211 2464
3 2254 250 2479
3 1350 1181 2500
3 2009 248 2470
3 246 2140 2506
3 1574 2436 2527
3 2139 1419 2517
3 316 1971 2514
3 1319 2122 2482
3 226 2006 2507
3 1400 2270 2481
3 1681 2287 2448
3 2325 1578 2349
3 232 1652 2487
3 1320 2214 2424
3 1632 2208 2509
3 248 2288 2470
3 1406 1141 2460
3 2188 1322 2434
3 2244 1980 2441
3 2088 1255 2509
3 1280 2109 2427
3 2060 2307 2405
3 2236 1034 2463
3 1745 2293 2354
3 2122 2396 2482
3 2109 1030 2427
3 2307 1563 2405
3 1429 2382 2459
3 224 2267 2498
3 682 2211 2447
3 2079 442 2520
3 2348 1287 2398
3 2220 1842 2472
3 1335 2249 2466
3 1249 2263 2511
3 443 2210 2519
3 2385 1373 2394
3 1594 2184 2486
3 2052 2239 2518
3 1568 2439 2490
3 2349 1578 2515
3 2344 468 2412
3 2270 1996 2481
3 1735 2244 2441
3 2260 1471 2477
3 2210 1504 2519
3 1434 2297 2450
3 2297 1419 2450
3 2263 1660 2502
3 2404 2009 2470
3 1718 2385 2394
3 1371 2194 2536
3 2317 444 2461
3 1443 2322 2525
3 1716 2375 2452
3 1863 2378 2527
3 2439 726 2490
3 1057 2328 2451
3 1638 2404 2470
3 1454 2234 2535
3 755 2320 2513
3 2234 1653 2535
3 2264 552 2533
3 1419 2297 2517
3 1392 2322 2510
3 552 2397 2533
3 1798 2364 2497
3 2322 1392 2525
3 2382 1631 2459
3 1016 2438 2478
3 1366 2370 2537
3 1742 2491 2530
3 2491 257 2530
CELL_TYPES 4886
5
5
5
5
5
5
5
5
5
5
5
5
5
5
5
5
5
5
5
5
5
5
5
5
5
5
5
5
5
5
5
5
5
5
5
5
5
5
5
5
5
5
5
5
5
5
5
5
5
5
5
5
5
5
5
5
5
5
5
5
5
5
5
5
5
5
5
5
5
5
5
5
5
5
5
5
5
5
5
5
5
5
5
5
5
5
5
5
5
5
5
5
5
5
5
5
5
5
5
5
5
5
5
5
5
5
5
5
5
5
5
5
5
5
5
5
5
5
5
5
5
5
5
5
5
5
5
5
5
5
5
5
5
5
5
5
5
5
5
5
5
5
5
5
5
5
5
5
5
5
5
5
5
5
5
5
5
5
5
5
5
5
5
5
5
5
5
5
5
5
5
5
5
5
5
5
5
5
5
5
5
5
5
5
5
5
5
5
5
5
5
5
5
5
5
5
5
5
5
5
5
5
5
5
5
5
5
5
5
5
5
5
5
5
5
5
5
5
5
5
5
5
5
5
5
5
5
5
5
5
5
5
5
5
5
5
5
5
5
5
5
5
5
5
5
5
5
5
5
5
5
5
5
5
5
5
5
5
5
5
5
5
5
5
5
5
5
5
5
5
5
5
5
5
5
5
5
5
5
5
5
5
5
5
5
5
5
5
5
5
5
5
5
5
5
5
5
5
5
5
5
5
5
5
5
5
5
5
5
5
5
5
5
5
5
5
5
5
5
5
5
5
5
5
5
5
5
5
5
5
5
5
5
5
5
5
5
5
5
5
5
5
5
5
5
5
5
5
5
5
5
5
5
5
5
5
5
5
5
5
5
5
5
5
5
5
5
5
5
5
5
5
5
5
5
5
5
5
5
5
5
5
5
5
5
5
5
5
5
5
5
5
5
5
5
5
5
5
5
5
5
5
5
5
5
5
5
5
5
5
5
5
5
5
5
5
5
5
5
5
5
5
5
5
5
5
5
5
5
5
5
5
5
5
5
5
5
5
5
5
5
5
5
5
5
5
5
5
5
5
5
5
5
5
5
5
5
5
5
5
5
5
5
5
5
5
5
5
5
5
5
5
5
5
5
5
5
5
5
5
5
5
5
5
5
5
5
5
5
5
5
5
5
5
5
5
5
5
5
5
5
5
5
5
5
5
5
5
5
5
5
5
5
5
5
5
5
5
5
5
5
5
5
5
5
5
5
5
5
5
5
5
5
5
5
5
5
5
5
5
5
5
5
5
5
5
5
5
5
5
5
5
5
5
5
5
5
5
5
5
5
5
5
5
5
5
5
5
5
5
5
5
5
5
5
5
5
5
5
5
5
5
5
5
5
5
5
5
5
5
5
5
5
5
5
5
5
5
5
5
5
5
5
5
5
5
5
5
5
5
5
5
5
5
5
5
5
5
5
5
5
5
5
5
5
5
5
5
5
5
5
5
5
5
5
5
5
5
5
5
5
5
5
5
5
5
5
5
5
5
5
5
5
5
5
5
5
5
5
5
5
5
5
5
5
5
5
5
5
5
5
5
5
5
5
5
5
5
5
5
5
5
5
5
5
5
5
5
5
5
5
5
5
5
5
5
5
5
5
5
5
5
5
5
5
5
5
5
5
5
5
5
5
5
5
5
5
5
5
5
5
5
5
5
5
5
5
5
5
5
5
5
5
5
5
5
5
5
5
5
5
5
5
5
5
5
5
5
5
5
5
5
5
5
5
5
5
5
5
5
5
5
5
5
5
5
5
5
5
5
5
5
5
5
5
5
5
5
5
5
5
5
5
5
5
5
5
5
5
5
5
5
5
5
5
5
5
5
5
5
5
5
5
5
5
5
5
5
5
5
5
5
5
5
5
5
5
5
5
5
5
5
5
5
5
5
5
5
5
5
5
5
5
5
5
5
5
5
5
5
5
5
5
5
5
5
5
5
5
5
5
5
5
5
5
5
5
5
5
5
5
5
5
5
5
5
5
5
5
5
5
5
5
5
5
5
5
5
5
5
5
5
5
5
5
5
5
5
5
5
5
5
5
5
5
5
5
5
5
5
5
5
5
5
5
5
5
5
5
5
5
5
5
5
5
5
5
5
5
5
5
5
5
5
5
5
5
5
5
5
5
5
5
5
5
5
5
5
5
5
5
5
5
5
5
5
5
5
5
5
5
5
5
5
5
5
5
5
5
5
5
5
5
5
5
5
5
5
5
5
5
5
5
5
5
5
5
5
5
5
5
5
5
5
5
5
5
5
5
5
5
5
5
5
5
5
5
5
5
5
5
5
5
5
5
5
5
5
5
5
5
5
5
5
5
5
5
5
5
5
5
5
5
5
5
5
5
5
5
5
5
5
5
5
5
5
5
5
5
5
5
5
5
5
5
5
5
5
5
5
5
5
5
5
5
5
5
5
5
5
5
5
5
5
5
5
5
5
5
5
5
5
5
5
5
5
5
5
5
5
5
5
5
5
5
5
5
5
5
5
5
5
5
5
5
5
5
5
5
5
5
5
5
5
5
5
5
5
5
5
5
5
5
5
5
5
5
5
5
5
5
5
5
5
5
5
5
5
5
5
5
5
5
5
5
5
5
5
5
5
5
5
5
5
5
5
5
5
5
5
5
5
5
5
5
5
5
5
5
5
5
5
5
5
5
5
5
5
5
5
5
5
5
5
5
5
5
5
5
5
5
5
5
5
5
5
5
5
5
5
5
5
5
5
5
5
5
5
5
5
5
5
5
5
5
5
5
5
5
5
5
5
5
5
5
5
5
5
5
5
5
5
5
5
5
5
5
5
5
5
5
5
5
5
5
5
5
5
5
5
5
5
5
5
5
5
5
5
5
5
5
5
5
5
5
5
5
5
5
5
5
5
5
5
5
5
5
5
5
5
5
5
5
5
5
5
5
5
5
5
5
5
5
5
5
5
5
5
5
5
5
5
5
5
5
5
5
5
5
5
5
5
5
5
5
5
5
5
5
5
5
5
5
5
5
5
5
5
5
5
5
5
5
5
5
5
5
5
5
5
5
5
5
5
5
5
5
5
5
5
5
5
5
5
5
5
5
5
5
5
5
5
5
5
5
5
5
5
5
5
5
5
5
5
5
5
5
5
5
5
5
5
5
5
5
5
5
5
5
5
5
5
5
5
5
5
5
5
5
5
5
5
5
5
5
5
5
5
5
5
5
5
5
5
5
5
5
5
5
5
5
5
5
5
5
5
5
5
5
5
5
5
5
5
5
5
5
5
5
5
5
5
5
5
5
5
5
5
5
5
5
5
5
5
5
5
5
5
5
5
5
5
5
5
5
5
5
5
5
5
5
5
5
5
5
5
5
5
5
5
5
5
5
5
5
5
5
5
5
5
5
5
5
5
5
5
5
5
5
5
5
5
5
5
5
5
5
5
5
5
5
5
5
5
5
5
5
5
5
5
5
5
5
5
5
5
5
5
5
5
5
5
5
5
5
5
5
5
5
5
5
5
5
5
5
5
5
5
5
5
5
5
5
5
5
5
5
5
5
5
5
5
5
5
5
5
5
5
5
5
5
5
5
5
5
5
5
5
5
5
5
5
5
5
5
5
5
5
5
5
5
5
5
5
5
5
5
5
5
5
5
5
5
5
5
5
5
5
5
5
5
5
5
5
5
5
5
5
5
5
5
5
5
5
5
5
5
5
5
5
5
5
5
5
5
5
5
5
5
5
5
5
5
5
5
5
5
5
5
5
5
5
5
5
5
5
5
5
5
5
5
5
5
5
5
5
5
5
5
5
5
5
5
5
5
5
5
5
5
5
5
5
5
5
5
5
5
5
5
5
5
5
5
5
5
5
5
5
5
5
5
5
5
5
5
5
5
5
5
5
5
5
5
5
5
5
5
5
5
5
5
5
5
5
5
5
5
5
5
5
5
5
5
5
5
5
5
5
5
5
5
5
5
5
5
5
5
5
5
5
5
5
5
5
5
5
5
5
5
5
5
5
5
5
5
5
5
5
5
5
5
5
5
5
5
5
5
5
5
5
5
5
5
5
5
5
5
5
5
5
5
5
5
5
5
5
5
5
5
5
5
5
5
5
5
5
5
5
5
5
5
5
5
5
5
5
5
5
5
5
5
5
5
5
5
5
5
5
5
5
5
5
5
5
5
5
5
5
5
5
5
5
5
5
5
5
5
5
5
5
5
5
5
5
5
5
5
5
5
5
5
5
5
5
5
5
5
5
5
5
5
5
5
5
5
5
5
5
5
5
5
5
5
5
5
5
5
5
5
5
5
5
5
5
5
5
5
5
5
5
5
5
5
5
5
5
5
5
5
5
5
5
5
5
5
5
5
5
5
5
5
5
5
5
5
5
5
5
5
5
5
5
5
5
5
5
5
5
5
5
5
5
5
5
5
5
5
5
5
5
5
5
5
5
5
5
5
5
5
5
5
5
5
5
5
5
5
5
5
5
5
5
5
5
5
5
5
5
5
5
5
5
5
5
5
5
5
5
5
5
5
5
5
5
5
5
5
5
5
5
5
5
5
5
5
5
5
5
5
5
5
5
5
5
5
5
5
5
5
5
5
5
5
5
5
5
5
5
5
5
5
5
5
5
5
5
5
5
5
5
5
5
5
5
5
5
5
5
5
5
5
5
5
5
5
5
5
5
5
5
5
5
5
5
5
5
5
5
5
5
5
5
5
5
5
5
5
5
5
5
5
5
5
5
5
5
5
5
5
5
5
5
5
5
5
5
5
5
5
5
5
5
5
5
5
5
5
5
5
5
5
5
5
5
5
5
5
5
5
5
5
5
5
5
5
5
5
5
5
5
5
5
5
5
5
5
5
5
5
5
5
5
5
5
5
5
5
5
5
5
5
5
5
5
5
5
5
5
5
5
5
5
5
5
5
5
5
5
5
5
5
5
5
5
5
5
5
5
5
5
5
5
5
5
5
5
5
5
5
5
5
5
5
5
5
5
5
5
5
5
5
5
5
5
5
5
5
5
5
5
5
5
5
5
5
5
5
5
5
5
5
5
5
5
5
5
5
5
5
5
5
5
5
5
5
5
5
5
5
5
5
5
5
5
5
5
5
5
5
5
5
5
5
5
5
5
5
5
5
5
5
5
5
5
5
5
5
5
5
5
5
5
5
5
5
5
5
5
5
5
5
5
5
5
5
5
5
5
5
5
5
5
5
5
5
5
5
5
5
5
5
5
5
5
5
5
5
5
5
5
5
5
5
5
5
5
5
5
5
5
5
5
5
5
5
5
5
5
5
5
5
5
5
5
5
5
5
5
5
5
5
5
5
5
5
5
5
5
5
5
5
5
5
5
5
5
5
5
5
5
5
5
5
5
5
5
5
5
5
5
5
5
5
5
5
5
5
5
5
5
5
5
5
5
5
5
5
5
5
5
5
5
5
5
5
5
5
5
5
5
5
5
5
5
5
5
5
5
5
5
5
5
5
5
5
5
5
5
5
5
5
5
5
5
5
5
5
5
5
5
5
5
5
5
5
5
5
5
5
5
5
5
5
5
5
5
5
5
5
5
5
5
5
5
5
5
5
5
5
5
5
5
5
5
5
5
5
5
5
5
5
5
5
5
5
5
5
5
5
5
5
5
5
5
5
5
5
5
5
5
5
5
5
5
5
5
5
5
5
5
5
5
5
5
5
5
5
5
5
5
5
5
5
5
5
5
5
5
5
5
5
5
5
5
5
5
5
5
5
5
5
5
5
5
5
5
5
5
5
5
5
5
5
5
5
5
5
5
5
5
5
5
5
5
5
5
5
5
5
5
5
5
5
5
5
5
5
5
5
5
5
5
5
5
5
5
5
5
5
5
5
5
5
5
5
5
5
5
5
5
5
5
5
5
5
5
5
5
5
5
5
5
5
5
5
5
5
5
5
5
5
5
5
5
5
5
5
5
5
5
5
5
5
5
5
5
5
5
5
5
5
5
5
5
5
5
5
5
5
5
5
5
5
5
5
5
5
5
5
5
5
5
5
5
5
5
5
5
5
5
5
5
5
5
5
5
5
5
5
5
5
5
5
5
5
5
5
5
5
5
5
5
5
5
5
5
5
5
5
5
5
5
5
5
5
5
5
5
5
5
5
5
5
5
5
5
5
5
5
5
5
5
5
5
5
5
5
5
5
5
5
5
5
5
5
5
5
5
5
5
5
5
5
5
5
5
5
5
5
5
5
5
5
5
5
5
5
5
5
5
5
5
5
5
5
5
5
5
5
5
5
5
5
5
5
5
5
5
5
5
5
5
5
5
5
5
5
5
5
5
5
5
5
5
5
5
5
5
5
5
5
5
5
5
5
5
5
5
5
5
5
5
5
5
5
5
5
5
5
5
5
5
5
5
5
5
5
5
5
5
5
5
5
5
5
5
5
5
5
5
5
5
5
5
5
5
5
5
5
5
5
5
5
5
5
5
5
5
5
5
5
5
5
5
5
5
5
5
5
5
5
5
5
5
5
5
5
5
5
5
5
5
5
5
5
5
5
5
5
5
5
5
5
5
5
5
5
5
5
5
5
5
5
5
5
5
5
5
5
5
5
5
5
5
5
5
5
5
5
5
5
5
5
5
5
5
5
5
5
5
5
5
5
5
5
5
5
5
5
5
5
5
5
5
5
5
5
5
5
5
5
5
5
5
5
5
5
5
5
5
5
5
5
5
5
5
5
5
5
5
5
5
5
5
5
5
5
5
5
5
5
5
5
5
5
5
5
5
5
5
5
5
5
5
5
5
5
5
5
5
5
5
5
5
5
5
5
5
5
5
5
5
5
5
5
5
5
5
5
5
5
5
5
5
5
5
5
5
5
5
5
5
5
5
5
5
5
5
5
5
5
5
5
5
5
5
5
5
5
5
5
5
5
5
5
5
5
5
5
5
5
5
5
5
5
5
5
5
5
5
5
5
5
5
5
5
5
5
5
5
5
5
5
5
5
5
5
5
5
5
5
5
5
5
5
5
5
5
5
5
5
5
5
5
5
5
5
5
5
5
5
5
5
5
5
5
5
5
5
5
5
5
5
5
5
5
5
5
5
5
5
5
5
5
5
5
5
5
5
5
5
5
5
5
5
5
5
5
5
5
5
5
5
5
5
5
5
5
5
5
5
5
5
5
5
5
5
5
5
5
5
5
5
5
5
5
5
5
5
5
5
5
5
5
5
5
5
5
5
5
5
5
5
5
5
5
5
5
5
5
5
5
5
5
5
5
5
5
5
5
5
5
5
5
5
5
5
5
5
5
5
5
5
5
5
5
5
5
5
5
5
5
5
5
5
5
5
5
5
5
5
5
5
5
5
5
5
5
5
5
5
5
5
5
5
5
5
5
5
5
5
5
5
5
5
5
5
5
5
5
5
5
5
5
5
5
5
5
5
5
5
5
5
5
5
5
5
5
5
5
5
5
5
5
5
5
5
5
5
5
5
5
5
5
5
5
5
5
5
5
5
5
5
5
5
5
5
5
5
5
5
5
5
5
5
5
5
5
5
5
5
5
5
5
5
5
5
5
5
5
5
5
5
5
5
5
5
5
5
5
5
5
5
5
5
5
5
5
5
5
5
5
5
5
5
5
5
5
5
5
5
5
5
5
5
5
5
5
5
5
5
5
5
5
5
5
5
5
5
5
5
5
5
5
5
5
5
5
5
5
5
5
5
5
5
5
5
5
5
5
5
5
5
5
5
5
5
5
5
5
5
5
5
5
5
5
5
5
5
5
5
5
5
5
5
5
5
5
5
5
5
5
5
5
5
5
5
5
5
5
5
5
5
5
5
5
5
5
5
5
5
5
5
5
5
5
5
5
5
5
5
5
5
5
5
5
5
5
5
5
5
5
5
5
5
5
5
5
5
5
5
5
5
5
5
5
5
5
5
5
5
5
5
5
5
5
5
5
5
5
5
5
5
5
5
5
5
5
5
5
5
5
5
5
5
5
5
5
5
5
5
5
5
5
5
5
5
5
5
5
5
5
5
5
5
5
5
5
5
5
5
5
5
5
5
5
5
5
5
5
5
5
5
5
5
5
5
5
5
5
5
5
5
5
5
5
5
5
5
5
5
5
5
5
5
5
5
5
5
5
5
5
5
5
5
5
5
5
5
5
5
5
5
5
5
5
5
5
5
5
5
5
5
5
5
5
5
5
5
5
5
5
5
5
5
5
5
5
5
5
5
5
5
5
5
5
5
5
5
5
5
5
5
5
5
5
5
5
5
5
5
5
5
5
5
5
5
5
5
5
5
5
5
5
5
5
5
5
5
5
5
5
5
5
5
5
5
5
5
5
5
5
5
5
5
5
5
5
5
5
5
5
5
5
5
5
5
5
5
5
5
5
5
5
5
5
5
5
5
5
5
5
5
5
5
5
5
5
5
5
5
5
5
5
5
5
5
5
5
5
5
5
5
5
5
5
5
5
5
5
5
5
5
5
5
5
5
5
5
5
5
5
5
5
5
5
5
5
5
5
5
5
5
5
5
5
5
5
5
5
5
5
5
5
5
5
5
5
5
5
5
5
5
5
5
5
5
5
5
5
5
5
5
5
5
5
5
5
5
5
5
5
5
5
5
5
5
5
5
5
5
5
5
5
5
5
5
5
5
5
5
5
5
5
5
5
5
5
5
5
5
5
5
5
5
5
5
5
5
5
5
5
5
5
5
5
5
5
5
5
5
5
5
5
5
5
5
5
5
5
5
5
5
5
5
5
5
5
5
5
5
5
5
5
5
5
5
5
5
5
5
5
5
5
5
5
5
5
5
5
5
5
5
5
5
5
5
5
5
5
5
5
5
5
5
5
5
5
5
5
5
5
5
5
5
5
5
5
5
5
5
5
5
5
5
5
5
5
5
5
5
5
5
5
5
5
5
5
5
5
5
5
5
5
5
5
5
5
5
5
5
5
5
5
5
5
5
5
5
5
5
5
5
5
5
5
5
5
5
5
5
5
5
5
5
5
5
5
5
5
5
5
5
5
5
5
5
5
5
5
5
5
5
5
5
5
5
5
5
5
5
5
5
5
5
5
5
5
5
5
5
5
5
5
5
5
5
5
5
5
5
5
5
5
5
5
5
5
5
5
5
5
5
5
5
5
5
5
5
5
5
5
5
5
5
5
5
5
5
5
5
5
5
5
5
5
5
5
5
5
5
5
5
5
5
5
5
5
5
5
5
5
5
5
5
5
5
5
5
5
5
5
5
5
5
5
5
5
5
5
5
5
5
5
5
5
5
5
5
5
5
5
5
5
5
5
5
5
5
5
5
5
5
5
5
5
5
5
5
5
5
5
5
5
5
5
5
5
5
5
5
5
5
5
5
5
5
5
5
5
5
5
5
5
5
5
5
5
5
5
5
5
5
5
5
5
5
5
5
5
5
5
5
5
5
5
5
5
5
5
5
5
5
5
5
5
5
5
5
5
5
5
5
5
5
5
5
5
5
5
5
5
5
5
5
5
5
5
5
5
5
5
5
5
5
5
5
5
5
5
5
5
5
5
5
5
5
5
5
5
5
5
5
5
5
5
5
5
5
5
5
5
5
5
5
5
5
5
5
5
5
5
5
5
5
5
5
5
5
5
5
5
5
5
5
5
5
5
5
5
5
5
5
5
5
5
5
5
5
5
5
5
5
5
5
5
5
5
5
5
5
5
5
5
5
5
5
5
5
5
5
5
5
5
5
5
5
5
5
5
5
5
5
5
5
5
5
5
5
5
5
5
5
5
5
5
5
5
5
5
5
5
5
5
5
5
5
5
5
5
5
5
5
5
5
5
5
5
5
5
5
5
5
5
5
5
5
5
5
5
5
5
5
5
5
5
5
5
5
5
5
5
5
5
5
5
5
5
5
5
5
5
5
5
5
5
5
5
5
5
5
5
5
5
5
5
5
5
5
5
5
5
5
5
5
5
5
5
5
5
5
5
5
5
5
5
5
5
5
5
5
5
5
5
5
5
5
5
5
5
5
5
5
5
5
5
5
5
5
5
5
5
5
5
5
5
5
5
5
5
5
5
5
5
5
5
5
5
5
5
5
5
5
5
5
5
5
5
5
5
5
5
5
5
5
5
5
5
5
5
5
5
5
5
5
5
5
5
5
5
5
5
5
5
5
5
5
5
5
5
5
5
5
5
5
5
5
5
5
5
5
5
5
5
5
5
5
5
5
5
5
5
5
5
5
5
5
5
5
5
5
5
5
5
5
5
5
5
5
5
5
5
5
5
5
5
5
5
5
5
5
5
5
5
5
5
5
5
5
5
5
5
5
5
5
5
5
5
5
5
5
5
5
5
5
5
5
5
5
5
5
5
5
5
5
5
5
5
5
5
5
5
5
5
5
5
5
5
5
5
5
5
5
5
5
5
5
5
5
5
5
5
5
5
5
5
5
5
5
5
5
5
5
5
5
5
5
5
5
5
5
5
5
5
5
5
5
5
5
5
5
5
5
5
5
5
5
5
5
5
5
5
5
5
5
5
5
5
5
5
5
5
5
5
5
5
5
5
5
5
5
5
5
5
5
5
5
5
5
5
5
5
5
5
5
5
5
5
5
5
5
5
5
5
5
5
5
5
5
5
5
5
5
5
5
5
5
5
5
5
5
5
5
5
5
5
5
5
5
5
5
5
5
5
5
5
5
5
5
5
5
5
5
5
5
5
5
5
5
5
5
5
5
5
5
5
5
5
5
5
5
5
5
5
5
5
5
5
5
5
5
5
5
5
5
5
5
5
5
5
5
5
5
5
5
5
5
5
5
5
5
5
5
5
5
5
5
5
5
5
5
5
5
5
5
5
5
5
5
5
5
5
5
5
5
5
5
5
5
5
5
5
5
5
5
5
5
5
5
5
5
5
5
5
5
5
5
5
5
5
5
5
5
5
5
5
5
5
5
5
5
5
5
5
5
5
5
5
5
5
5
5
5
5
5
5
5
5
5
5
5
5
5
5
5
5
5
5
5
5
5
5
5
5
5
5
5
5
5
5
5
5
5
5
5
5
5
5
5
5
5
5
5
5
5
5
5
5
5
5
5
5
5
5
5
5
5
5
5
5
5
5
5
5
5
5
POINT_DATA 2538
VECTORS disp float
1.2928249338847665e-11 2.0482685397816895e-11 0.0
4.910774670248803e-12 -1.2297702084031872e-11 0.0
0.0015999999998991714 2.92342203096048e-12 0.0
0.0015999999770872273 -5.1319567387982597e-11 0.0
0.0007268774151917893 0.00035011817236914723 0.0
0.0012334855479243093 -3.229167296511097e-6 0.0
0.0009062830309296342 -4.356910319698556e-5 0.0
-1.5516915215410085e-12 -3.7213178556263865e-12 0.0
1.7633037009973382e-12 1.0502012273654904e-12 0.0
9.946550854753494e-13 -1.0423196440353966e-12 0.0
9.687093150540228e-13 -7.902956116268267e-13 0.0
4.711259276237743e-13 -7.457467631275218e-13 0.0
5.313724578523963e-13 -1.0638568668777709e-12 0.0
3.869212971542721e-13 -1.1316985362635545e-12 0.0
3.23449358779335e-13 -1.449673114388531e-12 0.0
1.755525958562363e-13 -1.743143897195259e-12 0.0
3.3929979547810744e-13 -2.13774860605412e-12 0.0
3.2868601066517346e-13 -2.4528167397537644e-12 0.0
4.0962533993501513e-13 -2.7454549138273884e-12 0.0
4.824457266254178e-13 -2.9991459690012938e-12 0.0
4.757622186298533e-13 -3.0877240386053835e-12 0.0
6.239410445107166e-13 -3.3298644398866635e-12 0.0
6.024033783569777e-13 -3.327506279440897e-12 0.0
6.332261310385573e-13 -3.499185294086486e-12 0.0
7.459429900888831e-13 -3.5960110577889006e-12 0.0
7.101499789970825e-13 -3.674105542103077e-12 0.0
7.608662831172738e-13 -3.826025436496408e-12 0.0
8.399249446078385e-13 -3.992930087574433e-12 0.0
8.956468762827151e-13 -4.1882440231858675e-12 0.0
8.437961165854732e-13 -4.466250077275529e-12 0.0
1.2980387277252298e-12 -5.1024816611182825e-12 0.0
3.3502679469479056e-13 -4.149585224354051e-12 0.0
2.2169246209294513e-5 -1.1196949151621874e-5 0.0
3.9460636175117805e-5 -2.007888386987851e-5 0.0
5.660327428801446e-5 -2.8014197493437443e-5 0.0
7.298318854968374e-5 -3.549052665876052e-5 0.0
8.856312927558508e-5 -4.257972308856672e-5 0.0
0.00010371952844984153 -4.95528955970502e-5 0.0
0.00011876072611027799 -5.6199310133507595e-5 0.0
0.00013337264163133512 -6.268150374478329e-5 0.0
0.00014774848099658608 -6.906321099349486e-5 0.0
0.00016196803696758486 -7.523228105260159e-5 0.0
0.0001759500100564823 -8.131746430796878e-5 0.0
0.00018988231336118826 -8.725132597370446e-5 0.0
0.00020373383208506998 -9.300960094829983e-5 0.0
0.00021745819288579278 -9.863838081065139e-5 0.0
0.00023119920459505552 -0.00010416363920553715 0.0
0.00024478404385572494 -0.00010954272560711186 0.0
0.00025839700907483604 -0.00011484013521648154 0.0
0.0002720746326961596 -0.00011997586563458211 0.0
0.00028569255605553537 -0.00012502010352995446 0.0
0.00029931034483589644 -0.0001299990770055992 0.0
0.00031298587400816966 -0.00013488770894397773 0.0
0.00032659815016296273 -0.00013971448431693097 0.0
0.0003403178894126484 -0.00014441745412936376 0.0
0.000353936194078377 -0.00014901506801611776 0.0
0.0003677226993770163 -0.0001535027973459012 0.0
0.00038139669601080806 -0.0001578505873468845 0.0
0.00039513462622294893 -0.000162135468503236 0.0
0.0004088318732793471 -0.00016618028671635767 0.0
0.00042276226110012544 -0.00017013593390379354 0.0
0.0004364517116517409 -0.0001739595376265842 0.0
0.00045033823809545947 -0.00017758147213055251 0.0
0.00046425163182708723 -0.0001809181049517243 0.0
0.00047818095292406694 -0.00018400373626320963 0.0
0.0004919221208571777 -0.00018671731054339288 0.0
0.0005059046794633376 -0.00018933209456518414 0.0
0.0005197367094870735 -0.00019187558589051535 0.0
0.0005333875004666023 -0.00019467099573789736 0.0
0.0005478019737414718 -0.000197528431306629 0.0
0.0005624312994953724 -0.0002006700566498897 0.0
0.0005778297720164067 -0.00020398793837574444 0.0
0.0005938733422973373 -0.0002075080382863774 0.0
0.0006100834833603979 -0.0002116001472553997 0.0
0.0006263532890037687 -0.00021550105589509784 0.0
0.0006412432963150083 -0.00021999341380143548 0.0
0.000656724044430726 -0.0002235417159132674 0.0
0.0006715356360576108 -0.00022735301960098887 0.0
0.0006865177595999433 -0.00023103485458236082 0.0
0.0007024458600843498 -0.0002338344829866998 0.0
0.000717656259376129 -0.00023730033952149316 0.0
0.0007345605950422584 -0.00023977235975300765 0.0
0.0007500477140306841 -0.00024286239783790256 0.0
0.0007656294890106626 -0.00024597970392721227 0.0
0.0007796794105529119 -0.00024942315243020726 0.0
0.0007944533345042009 -0.00025206624160152943 0.0
0.0008078693980762076 -0.00025482168313233544 0.0
0.0008222844015553705 -0.0002569904370835099 0.0
0.0008365309429256871 -0.00025881577950360486 0.0
0.0008512144882579019 -0.0002601538411907604 0.0
0.0008664262668514268 -0.00026139946192677173 0.0
0.0008822174436142982 -0.0002623380329699928 0.0
0.0008985201084985771 -0.00026320195840401074 0.0
0.0009153663674698427 -0.0002638769253122987 0.0
0.0009330330855391431 -0.0002645152871362702 0.0
0.0009509905797618401 -0.00026490770547434294 0.0
0.0009694551149753836 -0.0002653518121038685 0.0
0.0009881771536395436 -0.0002658146081795443 0.0
0.0010058895200620018 -0.00026614191851634904 0.0
0.0010228242759363878 -0.00026639771977271515 0.0
0.001039682189642865 -0.00026635556553936254 0.0
0.0010568751167721884 -0.00026596661565922414 0.0
0.0010736295922710594 -0.00026501444435854827 0.0
0.001090758667806629 -0.0002633264703489713 0.0
0.0011073100532293081 -0.0002612243980577117 0.0
0.0011232733199155777 -0.0002585477034932548 0.0
0.0011391673735406558 -0.0002553362793889527 0.0
0.0011533141694598987 -0.00025293216675143507 0.0
0.0011674971155143995 -0.00025049763176944906 0.0
0.0011814271790666613 -0.0002476469143724018 0.0
0.0011958106286971597 -0.0002445851285564214 0.0
0.0012093147564780403 -0.00024087585019901366 0.0
0.0012244828093364594 -0.00023746996421068718 0.0
0.0012393272397002082 -0.00023438367945725457 0.0
0.0012550189053910613 -0.0002319714151114354 0.0
0.0012705757176250348 -0.00022875081952206396 0.0
0.0012847504653349128 -0.00022457182911953398 0.0
0.0012989338209215032 -0.0002195902525709206 0.0
0.0013142248855386339 -0.0002128819478098039 0.0
0.001329647495948905 -0.0002049188919204912 0.0
0.0013451983552476173 -0.0001966953281472193 0.0
0.0013614246216868576 -0.00018793265810681322 0.0
0.0013784435578650812 -0.00017775238249875556 0.0
0.0013955706574411287 -0.00016623737422301793 0.0
0.0014134187218400698 -0.00015354681504439868 0.0
0.0014324086795399198 -0.00013970015096589135 0.0
0.0014533342793683198 -0.0001243139135944812 0.0
0.001475899956509553 -0.00010720420831875161 0.0
0.0015004468775721964 -8.796915839103042e-5 0.0
0.001528880852166243 -6.558603014195765e-5 0.0
0.0015601854737705553 -3.876196548737832e-5 0.0
0.0015999999996917037 -2.7835465474845375e-12 0.0
0.0015999999961358788 -6.3574283038082334e-12 0.0
0.0015999999987069352 -9.476821942674387e-13 0.0
0.001599999998002487 -1.0836498622163064e-12 0.0
0.0015999999984441767 -3.0117987471302837e-13 0.0
0.0015999999984598573 1.2911158281058833e-13 0.0
0.001599999998474761 3.200146589234696e-13 0.0
0.0015999999986290214 4.703324316592367e-13 0.0
0.0015999999986496692 5.978910733761819e-13 0.0
0.0015999999987462322 6.536782115657258e-13 0.0
0.0015999999988105128 7.079189019542618e-13 0.0
0.0015999999988855619 8.339644472097382e-13 0.0
0.001599999998885546 9.50603480330795e-13 0.0
0.0015999999989021667 1.098119694131884e-12 0.0
0.0015999999988927243 1.2396004737664198e-12 0.0
0.0015999999988873263 1.3929326536189214e-12 0.0
0.0015999999988714423 1.524546320798213e-12 0.0
0.001599999998848398 1.706083000569207e-12 0.0
0.0015999999989165323 1.82067366729151e-12 0.0
0.0015999999988939202 1.8900599259996523e-12 0.0
0.0015999999989646158 1.8715679003411254e-12 0.0
0.0015999999989938858 1.7447987266480258e-12 0.0
0.0015999999992125347 1.6153261287296612e-12 0.0
0.0015999999995109442 1.7940081404161013e-12 0.0
0.0015999999996571185 1.315038281614793e-12 0.0
0.0015029091043002394 2.8352856665649756e-5 0.0
0.0014202732134215039 3.637470781954286e-5 0.0
0.0013428811202639977 2.4828786800343692e-5 0.0
0.0012708624048079057 8.287538355536535e-6 0.0
0.0012197842740187036 -4.474853644986197e-5 0.0
0.001208610053082979 -7.078839773329575e-5 0.0
0.0012026438191594818 -0.00010154333707798632 0.0
0.0011900452421287023 -0.00012049832229389246 0.0
0.0011732248166237311 -0.00013195854902855222 0.0
0.0011522547287687352 -0.00013701640694556351 0.0
0.0011277113297293278 -0.00013753988295158142 0.0
0.0011009523636217459 -0.00013123584989200158 0.0
0.0010716333554744457 -0.00012108369283604173 0.0
0.0010405293169770521 -0.00010778264682460876 0.0
0.0010059618045868994 -9.179124083085378e-5 0.0
0.0009651448302722155 -7.319413219594598e-5 0.0
0.0008712108459875073 -4.35373402857376e-6 0.0
0.0008451522820048639 1.827856769485784e-5 0.0
0.0008225611185591535 3.630527712775269e-5 0.0
0.0008019235636420571 5.3614155594740216e-5 0.0
0.0007822572687365751 7.076018684750864e-5 0.0
0.0007644366276260473 8.858811407025252e-5 0.0
0.0007479700175648875 0.00010793666230877386 0.0
0.0007337122779241135 0.00012724278472037168 0.0
0.0007237021874943187 0.00015233508424420357 0.0
0.0007155437646452545 0.000179081713286364 0.0
0.0007171565020211186 0.00022188429705977602 0.0
0.000715386538855625 0.000270345225385112 0.0
0.0006499411982968854 0.00034977881408005665 0.0
0.0005556142517584929 0.00034121367273802353 0.0
0.0004354029897218498 0.0002952028720135613 0.0
0.00027099581171030504 0.00020078705145089694 0.0
0.00042551921313557523 -0.00016442332507685464 0.0
0.001067943267000244 -0.00024978259112928353 0.0
0.000523810552991764 -0.00018646464633514557 0.0
0.000942835460160362 -0.00025280707467306484 0.0
0.000631622470818744 -0.0002105771430247736 0.0
0.0008265260297416633 -0.0002456768243713482 0.0
0.0007248236936862209 -0.00022804168572779324 0.0
0.0011649571232830178 -0.00023824828658648253 0.0
0.0003450000765943302 -0.00014128421837110092 0.0
0.001232583150511955 -0.00021829972897175176 0.0
0.0002762985342832445 -0.00011716753615898773 0.0
2.8971671709497006e-5 -7.336971095818751e-6 0.0
0.00156158153058624 8.659425111239491e-7 0.0
0.0009519243002041466 -4.488248005390247e-5 0.0
0.001069686738975522 -0.00011185888458044494 0.0
0.0008411051638467262 -1.2434245156489717e-5 0.0
0.0007635082315599713 7.042223181595017e-5 0.0
0.0013106010427607231 -0.00019395443876817604 0.0
0.0002105564922905393 -9.188752795321222e-5 0.0
2.413108784876901e-5 -6.393072930999962e-6 0.0
0.0015726348293906135 -1.0131849097916642e-6 0.0
0.0015458998814138515 3.1813835251495903e-6 0.0
3.315457987253435e-5 -3.987148979383445e-6 0.0
0.0013755615238936639 -0.00015744187418464167 0.0
0.00015249045333667657 -6.67343621135928e-5 0.0
0.0011489595687984373 -0.0001203992646012206 0.0
0.0007047578513135942 0.00012246520928093027 0.0
1.9183481718143103e-5 -4.971064796364157e-6 0.0
0.001577428587038301 -1.5222453154912776e-6 0.0
0.0005846223199882192 -0.0001987170816032105 0.0
0.0006768803717957581 -0.00022079653815222612 0.0
0.0008901163011140016 -0.0002508771273004258 0.0
0.0007712136581474359 -0.0002366208328081104 0.0
0.0009981536408112791 -0.00025298329535979985 0.0
0.0011164404651221635 -0.0002466641870050333 0.0
0.00048575745481920993 -0.00017890401014645572 0.0
0.0003858165316156239 -0.00015435263666726745 0.0
0.0014279215574746387 -0.00012288088359814467 0.0
0.00010798026950020872 -4.727755698761678e-5 0.0
0.0015358256525060453 4.450550831266819e-6 0.0
4.636129750438384e-5 9.50447692214951e-7 0.0
0.0015812894198302474 -2.729381922321453e-6 0.0
1.772397350872096e-5 -4.8193704392649926e-6 0.0
0.0011981592435732968 -0.00010149367880702886 0.0
0.0006808688198409322 0.00016634371132358494 0.0
0.0015192737107719424 3.5686199686786598e-6 0.0
7.65909067135713e-5 5.164127081716103e-6 0.0
2.7108949322461402e-5 -7.256401101678985e-6 0.0
0.0015672709100870161 -2.5659955239475174e-7 0.0
0.0010117832784196782 -8.533426564882163e-5 0.0
0.0008045698675675212 3.481116110418535e-5 0.0
6.013980610673447e-5 -2.5006171257658646e-5 0.0
0.0015000368400174527 -6.966834818101646e-5 0.0
0.0010316539821118571 -0.00025362383218639057 0.0
0.0007991167165676445 -0.00024264778162907946 0.0
0.0005549663760559125 -0.00019243008898427597 0.0
0.0004551368920579461 -0.00017277007860929335 0.0
0.0008582915766956602 -0.00024862713857620576 0.0
0.001191124660460483 -0.00023248081309600217 0.0
0.00031778414124301744 -0.0001318980207849409 0.0
0.0012648574018809232 -0.00021067707359751634 0.0
0.00024745201326801673 -0.00010596755516972158 0.0
0.00018030553372146624 -7.899985674375491e-5 0.0
0.0013421939821116082 -0.0001766624531074316 0.0
0.00047571165880311257 0.0001882533155924481 0.0
0.0013600419134873628 -4.249770531596886e-6 0.0
0.001580941204336218 -6.082052185444607e-6 0.0
1.4816655000508865e-5 -4.407737234284379e-6 0.0
0.0006725965144813572 0.00023850522418115418 0.0
0.001228507351197753 -5.309167775844661e-5 0.0
0.00010398535053074973 1.480005405648932e-5 0.0
0.0015300072940054546 4.466353318972814e-6 0.0
2.6270066192595863e-5 -1.0008933738829484e-5 0.0
0.0015549872419993863 -2.858127173359177e-5 0.0
0.0012953989759117795 -1.7818018954238733e-5 0.0
0.0012997160175384122 -2.8125205702088957e-5 0.0
0.001377069639029976 -1.0179086570772522e-5 0.0
0.0013150309192255143 -2.3694485250148928e-5 0.0
0.001254453910793855 -4.696379275107724e-5 0.0
0.0012585886936151234 -3.632704455443235e-5 0.0
0.001321692629548964 -1.6988893289516634e-5 0.0
0.0012670472563031164 -2.2697744560283853e-5 0.0
0.00133254863080587 -8.544808144018988e-6 0.0
0.0012811077457643184 -9.974799818792805e-6 0.0
0.0012210112975920488 -2.396149316568909e-5 0.0
0.0012334477742167844 -9.118660648253717e-6 0.0
0.0011825671805764835 -2.0229848138415218e-5 0.0
0.0011922936700397404 -6.477472400607979e-6 0.0
0.0011475404808504804 -1.5059824064571797e-5 0.0
0.0011568107971155956 -2.2226539775142296e-6 0.0
0.0009359558290086067 -4.328942785205133e-5 0.0
0.0008940353653124588 -5.254496641207199e-5 0.0
0.0009184413618332773 -4.6693960137280406e-5 0.0
0.0008821749737657243 -5.632246209659755e-5 0.0
0.000904336086519631 -5.096520450974308e-5 0.0
0.0008721729988561582 -5.913659600910621e-5 0.0
0.0008916950947314862 -5.3397938498391336e-5 0.0
0.0008623085864127157 -6.093933342918096e-5 0.0
0.0008800189035688151 -5.525188271758278e-5 0.0
0.0008526984556837641 -6.258635419501202e-5 0.0
0.0008692827324379791 -5.699360629539357e-5 0.0
0.0008436637001976199 -6.379434569405725e-5 0.0
0.0008594476824396682 -5.867547812391821e-5 0.0
0.0008357573080368698 -6.450337361357476e-5 0.0
0.0008503514974529137 -5.953379933229816e-5 0.0
0.0008276010206310521 -6.513386609931782e-5 0.0
0.000841810339097752 -6.050465363316413e-5 0.0
0.0008192595203792736 -6.604886627800757e-5 0.0
0.0008337810220194655 -6.160667867287642e-5 0.0
0.0008120308346845197 -6.645857124102805e-5 0.0
0.0008264230310769474 -6.23496616693336e-5 0.0
0.0008052868826015362 -6.690542351344966e-5 0.0
0.0008189374496618909 -6.318317925190166e-5 0.0
0.0007986985425666308 -6.759655759722202e-5 0.0
0.0008122789042876248 -6.42758055336493e-5 0.0
0.0007929467944984576 -6.84517489076048e-5 0.0
0.0008060070031729226 -6.54275676820319e-5 0.0
0.0007864676080853588 -6.968147733657885e-5 0.0
0.000799837695731456 -6.687866044241204e-5 0.0
0.0007765968690333847 -7.184645398665074e-5 0.0
0.0007950116225684916 -6.83967344927221e-5 0.0
0.0007749547444398188 -7.243329675611422e-5 0.0
0.0007896013736334973 -7.012375556094547e-5 0.0
0.0007704512018105708 -7.406722578312632e-5 0.0
0.0007846702515524714 -7.215391787368418e-5 0.0
0.00076673097215666 -7.582105087041169e-5 0.0
0.0007799084771961175 -7.435025078152737e-5 0.0
0.0007624115055843042 -7.791676189303598e-5 0.0
0.000833098551201297 -6.623734775137295e-5 0.0
0.0007753636621724725 -7.678804934777277e-5 0.0
0.0007967183698459687 -7.036424594533415e-5 0.0
0.000756598976998956 -7.564695784786591e-5 0.0
0.0007571119582324461 -8.04628153229137e-5 0.0
0.0007709342796015193 -7.952124014559286e-5 0.0
0.0007519696340626883 -8.32891723261046e-5 0.0
0.0007385943788690712 -8.38641431996492e-5 0.0
0.0007330106720917608 -8.672151734934498e-5 0.0
0.0007658959291508638 -8.26779223668677e-5 0.0
0.0007850972353299122 -7.868669806068102e-5 0.0
0.0008081638810985973 -6.612923583051481e-5 0.0
0.0007802335042448918 -8.21469123837603e-5 0.0
0.0008007075269050657 -7.759877144562531e-5 0.0
0.0007951102048268952 -8.171571739935628e-5 0.0
0.000719737010798319 -8.712089484120769e-5 0.0
0.000714984872360019 -8.972299975748907e-5 0.0
0.0008162324561932232 -7.680440179350169e-5 0.0
0.0007006171946654162 -9.00650428278778e-5 0.0
0.0006968543895766923 -9.25731993948339e-5 0.0
0.0008110798414763623 -8.119773015053988e-5 0.0
0.0008313495285809676 -7.647394139282705e-5 0.0
0.0006812903615156954 -9.28099682766834e-5 0.0
0.000677184604164566 -9.529096764242431e-5 0.0
0.0008267793666307119 -8.106045915585455e-5 0.0
0.0008476157912023794 -7.605070384266969e-5 0.0
0.0006619585599941023 -9.526410790247973e-5 0.0
0.0006576327220872096 -9.788361359484698e-5 0.0
0.0008429564159623783 -8.113268452270562e-5 0.0
0.0008644865575259685 -7.571879100483739e-5 0.0
0.0006427621813156905 -9.744463398022754e-5 0.0
0.0006373142088637323 -0.00010008367562210393 0.0
0.0008600892610339043 -8.115026396099012e-5 0.0
0.0008818824174664014 -7.547369273526752e-5 0.0
0.0006217054374609792 -9.941822201911149e-5 0.0
0.0006167627979304453 -0.00010205563164971257 0.0
0.0005997410923966908 -0.00010124282536619033 0.0
0.0006048987030918167 -9.873259850285692e-5 0.0
0.0008370798910154778 -8.63860144814425e-5 0.0
0.0008773859948385358 -8.139931325411695e-5 0.0
0.000899891451562955 -7.536208288002283e-5 0.0
0.0009050064249066977 -6.907974007130073e-5 0.0
0.0008381032491474272 -5.8676703935134445e-5 0.0
0.0009240854691215736 -6.871148669261801e-5 0.0
0.0009296549189334996 -6.208102465490154e-5 0.0
0.0009497963655720154 -6.138489804145626e-5 0.0
0.0005964191325888112 -0.00010400655714853032 0.0
0.0005786048705942776 -0.00010268644555881497 0.0
0.0006132232859231278 -0.00010510670105675787 0.0
0.0008947538521233172 -8.19265603419357e-5 0.0
0.0005757156342105489 -0.00010550815229589376 0.0
0.0005574933643901487 -0.00010379125572675 0.0
0.0008728754442681739 -5.3069044592291356e-5 0.0
0.0005549185495175512 -0.00010644098119201668 0.0
0.000536374197672656 -0.0001043861991235147 0.0
0.0005340975385865653 -0.00010706653533677188 0.0
0.00051560061754848 -0.00010450778775750472 0.0
0.000517349081056185 -0.00010210984581172168 0.0
0.00049468064328737 -0.00010197223936324815 0.0
0.000496746049411265 -9.953646491371366e-5 0.0
0.0005111442348492384 -0.00010709563051394312 0.0
0.00047191995153115504 -9.894224457399371e-5 0.0
0.0004737302834535633 -9.662215707849962e-5 0.0
0.0005321416288827622 -0.00011015147940083692 0.0
0.0005125876554171876 -0.00011052930186708956 0.0
0.00044920066821306975 -9.544594162346463e-5 0.0
0.0004498343444599482 -9.313350877085553e-5 0.0
0.000956058692267671 -5.4657479796069196e-5 0.0
0.0009774588742990625 -5.378464810543455e-5 0.0
0.0005303561588826558 -0.00011357069921272517 0.0
0.0005112876190912128 -0.00011387720589690354 0.0
0.00098403226661202 -4.689044272108682e-5 0.0
0.0010069111484467073 -4.601408815828134e-5 0.0
0.000999174987873853 -5.391846914214127e-5 0.0
0.0010294889922127398 -4.580161966470032e-5 0.0
0.001022354866740891 -5.4190970587467996e-5 0.0
0.0010535133315294981 -4.553430003795592e-5 0.0
0.0010480496291953134 -5.4097471860780443e-5 0.0
0.0010810141017926916 -4.4605925450469564e-5 0.0
0.0010731455345011872 -5.378910049773536e-5 0.0
0.0010860173431978622 -3.678243527140657e-5 0.0
0.0011069420906359467 -4.4490427791350035e-5 0.0
0.0010977379695998701 -5.415451175657444e-5 0.0
0.0005290256085595428 -0.00011728036740652369 0.0
0.00042355431309343023 -9.13944440107131e-5 0.0
0.000423313484522493 -8.882789930059015e-5 0.0
0.0010662346609016094 -6.409845655382329e-5 0.0
0.0010900767914211243 -6.482464901733586e-5 0.0
0.0011216456411080964 -5.472467363334906e-5 0.0
0.001060601022761652 -7.521438625337641e-5 0.0
0.0005106019061221419 -0.00011755949872832297 0.0
0.0011142751581665361 -6.587025934594728e-5 0.0
0.0011456287763403025 -5.545069548083425e-5 0.0
0.0005278645785360947 -0.00012130757474270965 0.0
0.0005099568238049036 -0.00012160587063681207 0.0
0.0004927095496273275 -0.000117518464136398 0.0
0.0011383832058138648 -6.724022481668315e-5 0.0
0.0011695677641484342 -5.633938384659977e-5 0.0
0.0005268405568746062 -0.0001257204954036176 0.0
0.0005441785528657282 -0.0001251403768859719 0.0
0.0004924315424636022 -0.00012157414716325986 0.0
0.00047504406574028647 -0.000117187147298766 0.0
0.001161554864006155 -6.88942398342995e-5 0.0
0.0011936582909009806 -5.740788067707768e-5 0.0
0.0012010688126389587 -4.61391669075019e-5 0.0
0.0011303698943334994 -8.048558611245161e-5 0.0
0.001225299796949191 -4.667686567855775e-5 0.0
0.0012331292743026547 -3.691593736392962e-5 0.0
0.00039488782004633966 -8.651076018421267e-5 0.0
0.0003956378676148273 -8.37793014057695e-5 0.0
0.00043020899636690886 -8.667836086126223e-5 0.0
0.00039529788213139367 -8.050272009816725e-5 0.0
0.0004291616045789993 -8.29034370761573e-5 0.0
0.0003942019073736375 -7.63220368998783e-5 0.0
0.0004277867433676306 -7.826676676742837e-5 0.0
0.0005430974420421018 -0.00012982451343132446 0.0
0.0005598673586848892 -0.00012897727870536183 0.0
0.0004750303626695419 -0.00012126391090669558 0.0
0.0004575399555093596 -0.00011657091756516174 0.0
0.0012174945957039236 -5.872341279211026e-5 0.0
0.0003963030291454109 -7.127034589093373e-5 0.0
0.00042863166214127644 -7.27668401624239e-5 0.0
0.00055885610202322 -0.00013392502598351505 0.0
0.0005752285739500378 -0.000132930414223755 0.0
0.000676644562077031 -9.765044715923855e-5 0.0
0.0012490419014038266 -4.733633128223474e-5 0.0
0.0009172826828255512 -4.4193729571823373e-5 0.0
0.0009634261165317624 -3.7348940281912616e-5 0.0
0.0007781819741591827 -7.160390316515544e-5 0.0
0.0010123138149878519 -3.927493704664056e-5 0.0
0.00039317805649819907 -6.407327151706047e-5 0.0
0.0004317992741181363 -6.555818899873055e-5 0.0
0.0004578151700193208 -0.00012068048758335519 0.0
0.0004403342936540106 -0.00011574834805969209 0.0
0.0005745468931217024 -0.00013816709759300206 0.0
0.000590946610924681 -0.00013703961678307458 0.0
0.001240493299246817 -5.9816676253876876e-5 0.0
0.00036578168069938133 -8.093801069605362e-5 0.0
0.0003663411082910971 -8.372872694148987e-5 0.0
0.00035594043858840714 -6.811855632439698e-5 0.0
0.001272146416541079 -4.788458871966135e-5 0.0
0.0003923648819748202 -5.524522040492837e-5 0.0
0.00043180461869987105 -5.563695455112803e-5 0.0
0.0005584860049120707 -0.0001392391053567454 0.0
0.000440962939491477 -0.00011994446856099605 0.0
0.00042336340827947377 -0.00011469079820558895 0.0
0.0009897868613038768 -4.055130383891476e-5 0.0
0.001019016189675198 -3.284459404934716e-5 0.0
0.0009954105250372302 -3.452497333376024e-5 0.0
0.0010257685228588556 -2.6752000682687675e-5 0.0
0.0005901609137696948 -0.00014248848591503715 0.0
0.0006068726789852552 -0.00014110965448528982 0.0
0.0006669908455482129 -9.308037876864681e-5 0.0
0.00039089156159912656 -4.442941024543266e-5 0.0
0.0004297289556976734 -4.327259634746966e-5 0.0
0.0012637596337156656 -6.080804917555103e-5 0.0
0.0012352454100758433 -7.287146499415868e-5 0.0
0.0003801160713118048 -2.941526588951366e-5 0.0
0.00042580417386944 -2.74070979522436e-5 0.0
0.0012946551987340744 -4.859518824415382e-5 0.0
0.0012992235686568598 -3.99209544296387e-5 0.0
0.0003834019196658624 -1.4162844507161063e-5 0.0
0.0004577738927063502 -0.000125476030870185 0.0
0.0006059243978488745 -0.00014694091892712642 0.0
0.0006225867205255318 -0.00014527751322789112 0.0
0.0006238084062696967 -0.00013941863514804786 0.0
0.0006394779045701219 -0.00014341010847360438 0.0
0.000640890199720782 -0.00013755100142772488 0.0
0.0006566463763427254 -0.00014135201836257017 0.0
0.0006581903494972355 -0.00013541067242957375 0.0
0.0006741822917867764 -0.00013908900346626163 0.0
0.0006758903632710445 -0.000133098301363589 0.0
0.0006919970347641693 -0.0001366057835778707 0.0
0.0006904593800670514 -0.00014300156678878197 0.0
0.0007081261702596453 -0.00014037154886209044 0.0
0.0007067032858312279 -0.00014712967666876585 0.0
0.0007241656237797426 -0.00014434337935677436 0.0
0.0007227498342239933 -0.00015148717767186556 0.0
0.0007401363453768781 -0.00014851565735492505 0.0
0.0006939158038636582 -0.00013057215567453527 0.0
0.0007416102294160014 -0.00014129066673239667 0.0
0.0007575216145317619 -0.00014524090634359524 0.0
0.0007559561282919859 -0.00015298630617681773 0.0
0.0007732517551234033 -0.00014951738911665282 0.0
0.00033632245376114813 -7.757879215945967e-5 0.0
0.000337150639363468 -8.026698557015941e-5 0.0
0.00042424000987400324 -0.00011888212397361953 0.0
0.00040679548686620165 -0.00011342152037298985 0.0
0.0007751346391117896 -0.00014170920721367944 0.0
0.0007906584255227004 -0.0001456786333794498 0.0
0.0007886530169774618 -0.00015392690095316922 0.0
0.0008062415582592755 -0.0001498152378542158 0.0
0.00030755723651749805 -7.37475072567528e-5 0.0
0.00030876636475289014 -7.63071297088555e-5 0.0
0.0010014238553227672 -2.8679053018037593e-5 0.0
0.0010330141031903578 -2.0968531850180846e-5 0.0
0.0010081756617182475 -2.3093852882278047e-5 0.0
0.001286775404215934 -6.125089492598152e-5 0.0
0.0013165236299308583 -4.8839192220914856e-5 0.0
0.0006216716940970789 -0.00015151254430286146 0.0
0.00047007936523682314 -7.564968391460513e-5 0.0
0.0007913643649422491 -8.54608051981171e-5 0.0
0.0008040866290843149 -0.0001584987759086911 0.0
0.0008217349315815364 -0.000154129795979823 0.0
0.00082375776261057 -0.00014525724851865111 0.0
0.0008396963202796097 -0.00014923284654454238 0.0
0.0008374270685189002 -7.161941838103799e-5 0.0
0.0010416358782597134 -1.500841606203502e-5 0.0
0.0010645826002143655 -1.4370853398858694e-5 0.0
0.0004255716947968992 -9.121590140304049e-6 0.0
0.00040771200358101804 -0.00011762982665740363 0.0
0.0003904260424649242 -0.00011193933034478565 0.0
0.0010156720987814167 -1.7438242387944448e-5 0.0
0.0008373816166855417 -0.00015865758646291684 0.0
0.0008558878374251406 -0.00015369348381774248 0.0
0.0008583979725467987 -0.00014400254747155754 0.0
0.0008753373458015143 -0.00014832602528077251 0.0
0.0008784458931682487 -0.0001386168047518269 0.0
0.0008955853196277022 -0.0001425059259951237 0.0
0.0008923257494219283 -0.00015272425887900232 0.0
0.0009129751954351504 -0.00014663873945711133 0.0
0.0003814035526419864 2.5995642356900515e-6 0.0
0.00027973493983150246 -6.952226982411005e-5 0.0
0.0002810941298517784 -7.185254828755386e-5 0.0
0.0006055370616310512 -0.00015314781749427972 0.0
0.0013072427047394776 -6.26264645150638e-5 0.0
0.0013372205512180433 -4.8895221400121156e-5 0.0
0.000909590745880586 -0.00015732342728638023 0.0
0.0009305468569816613 -0.0001510859714698355 0.0
0.0004268228281657773 1.0266490155129493e-5 0.0
0.00039165330946220483 -0.00011621009463795263 0.0
0.00037416727108684607 -0.00011021358270334723 0.0
0.00047038152782932286 -4.1910360929653146e-5 0.0
0.0012035524944053692 3.2711161020105922e-6 0.0
0.0006209349062410907 -0.00015802541935059484 0.0
0.0003816431406849308 1.9107009974755934e-5 0.0
0.0003555746342747012 -4.554348885141433e-5 0.0
0.0013243009070918754 -6.655330094123501e-5 0.0
0.0013567787972686288 -4.902555728566504e-5 0.0
0.0013668233612181562 -3.725509782424441e-5 0.0
0.0003387608027188203 -4.001791312287198e-6 0.0
0.0012935580406890565 -7.96250833965051e-5 0.0
0.0002762550437760165 -6.656880696764031e-5 0.0
0.0004074610243115277 -0.0001217409764967773 0.0
0.0010497588018678308 -9.249002205935742e-6 0.0
0.0010235702534293774 -1.1809105139382176e-5 0.0
0.0008994126801492783 -0.00013265097024341125 0.0
0.00037567879809865694 -0.00011469307127158398 0.0
0.00035806912143003 -0.00010836904129354406 0.0
0.00025275383153023696 -6.487723485320394e-5 0.0
0.0002541909750828267 -6.691075681046617e-5 0.0
0.0004399519290352292 -0.00011200617284891216 0.0
0.0009271285945134501 -0.0001622218937040623 0.0
0.0009483370208870958 -0.00015577667068205874 0.0
0.000356480203109379 -0.00010418196908561851 0.0
0.0003401329693324399 -0.0001020094285391889 0.0
0.0009075935729549648 -0.00016766151318062884 0.0
0.0006054140215012182 -0.00015961489616568382 0.0
0.00034216362609696484 -0.00010637323632459511 0.0
0.0003241197528625051 -9.971150572839554e-5 0.0
0.0006421316526616282 -0.00013210879783105041 0.0
0.0013868851114414399 -3.6218640328139454e-5 0.0
0.001396431701503078 -2.7765981746979077e-5 0.0
0.0013762206759805457 -4.772581871687441e-5 0.0
0.0009448387654575492 -0.00016722288331054295 0.0
0.0009663319542636239 -0.00016068408812627385 0.0
0.0008818643888060942 -0.00012922326923318602 0.0
0.000903505514702368 -0.00012312188455892238 0.0
0.0006205244755398565 -0.00016475104437150008 0.0
0.0009701282903897084 -0.00014893729942131188 0.0
0.0009885329660953525 -0.0001539829832385145 0.0
0.0002262751817088897 -5.9667240693263724e-5 0.0
0.00022895304357537267 -6.177834011489621e-5 0.0
0.0009849712003316103 -0.000166397834084063 0.0
0.0010068165999046078 -0.0001595381115554127 0.0
0.00032677934356296825 -0.00010432703438535976 0.0
0.00030853217605743196 -9.733749050043695e-5 0.0
0.001057397673278439 -3.923966756578419e-6 0.0
0.0010315714679515805 -6.250400405229673e-6 0.0
0.0003056200568624976 -9.308923863679888e-5 0.0
0.00028981041663543567 -9.034543361697718e-5 0.0
0.0002927159173798557 -9.473480574023497e-5 0.0
0.00027390836633915634 -8.742001625726283e-5 0.0
0.0014060444001641314 -3.447047681084204e-5 0.0
0.0013945530383772347 -4.659500329653805e-5 0.0
0.00042808862319545756 2.8992151828515966e-5 0.0
0.00038020465737735067 3.5415883498240644e-5 0.0
0.0009845471093491989 -2.5494341053038065e-5 0.0
0.0006054458833971025 -0.00016622821446134992 0.0
0.0010035109097013852 -0.00017260159853463162 0.0
0.0010247252986115795 -0.00016537141074418447 0.0
0.0011151446687649503 -9.750132769874967e-6 0.0
0.0009927288440998796 -0.0001417522090095649 0.0
0.0007055673912871202 -0.00015425629699757993 0.0
0.0002704040976358064 -8.336115946285479e-5 0.0
0.0002548154245763659 -8.011171497338503e-5 0.0
0.0002584628335534418 -8.447235157429653e-5 0.0
0.00023908491779499406 -7.679038556122859e-5 0.0
0.00023534596499372293 -7.287781871675978e-5 0.0
0.00021893245611371532 -6.910100414193404e-5 0.0
0.0002149499146595806 -6.546327757014433e-5 0.0
0.00019807623914375357 -6.124467297443131e-5 0.0
0.00019400922254518059 -5.8110380674713e-5 0.0
0.00017788865899973875 -5.383378463541574e-5 0.0
0.0001733973870510236 -5.107954292203599e-5 0.0
0.00018166433267019939 -5.6936576999070104e-5 0.0
0.00015946649167777703 -4.848333745355834e-5 0.0
0.00020151102142430463 -5.436088863049787e-5 0.0
0.00019987770157846513 -5.2636851734056306e-5 0.0
0.00016520051481965436 -5.245686902841255e-5 0.0
0.00014464893276167908 -4.453788647934162e-5 0.0
0.0004737807200400255 1.7736525021197752e-5 0.0
0.0004951036999805323 -9.689166832984537e-5 0.0
0.0008857899939160732 -0.00012020454821585038 0.0
0.0009077100577801852 -0.00011392962804244395 0.0
0.0003080610188375522 -7.825138670456981e-5 0.0
0.0006202719183477525 -0.00017164877149315923 0.0
0.0006355047022283453 -0.0001700967945666058 0.0
0.0009260696989346839 -0.00011659061934776672 0.0
0.0009306907181067296 -0.00010707098766043989 0.0
0.0014248505392737668 -3.23966309476591e-5 0.0
0.0014115570873345987 -4.5616120165179915e-5 0.0
0.0013817748525579948 -6.330231351136213e-5 0.0
0.0009985736235002245 -1.5054188255002548e-5 0.0
0.0010073263347691764 -9.507516395314368e-6 0.0
0.0005905214843793378 -0.00016095610489334373 0.0
0.0005907023201353282 -0.0001673769349650598 0.0
0.0005761665551760773 -0.00016207361083663682 0.0
0.00024362282799677795 -8.154242403626755e-5 0.0
0.0010390761396223134 -1.445443158087519e-6 0.0
0.0010157955135548372 -4.529742787412563e-6 0.0
0.00044728240606973634 -9.785733375710887e-5 0.0
0.0010211663618742983 -0.00017880165222461747 0.0
0.0010423967844142654 -0.00017134145122829394 0.0
0.0010465430966348978 -0.00015789371944313724 0.0
0.001064097502451081 -0.00016358972816956383 0.0
0.00044451129689771364 4.869622174351184e-5 0.0
0.00038841544263327126 5.2097082327915806e-5 0.0
0.0005758213338299372 -0.00012810548474727245 0.0
0.0010007293425569504 -0.00018584503698170513 0.0
0.0012930192171235878 3.8908219397850887e-7 0.0
0.001059902139204262 -0.00017783211174449446 0.0
0.001081787576863381 -0.00016987926167892685 0.0
0.00108635194445538 -0.00015523710270212403 0.0
0.0011042464871147365 -0.00016133544645605333 0.0
0.0011096396988805087 -0.00014604970354888274 0.0
0.0011270532214746757 -0.00015186941810679913 0.0
0.001121557651356451 -0.00016786915721535292 0.0
0.0011438711935009172 -0.00015804874968171023 0.0
0.00014918049908025 -4.77199032771148e-5 0.0
0.00012885398141249262 -3.9786557710954596e-5 0.0
0.00012166586621292674 -3.615454194761666e-5 0.0
0.0006354409884615051 -0.0001773357239821995 0.0
0.0006501267934911495 -0.00017605977272427956 0.0
0.000576603775268947 -0.00016829798126850594 0.0
0.0005623725045184136 -0.0001629401503025249 0.0
0.0013970802114330058 -6.346961231162973e-5 0.0
0.0014273071363146757 -4.484739962084643e-5 0.0
0.0011104549608094432 -2.499159492864338e-5 0.0
0.0010813449491832044 -1.8430395464732055e-5 0.0
0.0003303745573163177 3.689728348671318e-5 0.0
0.0003397815894710627 5.0750668515989514e-5 0.0
0.00016994525412734283 -5.648806822904325e-5 0.0
0.0005497765435405912 -0.00011290708389704042 0.0
0.000967127966394843 -3.767403979276938e-5 0.0
0.0013686538310528147 -8.254162103872727e-5 0.0
0.00046130334326877244 -8.38524249737574e-5 0.0
0.0009753762233036419 -1.9207755754736086e-5 0.0
0.0011377806375481002 -0.00017468440391120682 0.0
0.0011595861403585273 -0.0001644963405004303 0.0
0.0011622528359617695 5.098876930655009e-6 0.0
0.0012167994701211531 8.37440292737464e-6 0.0
0.00044933362279101256 6.97161917038012e-5 0.0
0.000255138201046981 -6.88053518776497e-5 0.0
0.00017207303863141904 -4.6391947051975e-5 0.0
0.00017046098848663786 -4.481054616399718e-5 0.0
0.00026212838002501036 -8.945355483931852e-5 0.0
0.0010789026587155154 -0.0001850163606913323 0.0
0.0008719474578886088 -8.766231369634188e-5 0.0
0.0007871523065368246 -0.00016258851785147705 0.0
0.000526917839587942 -0.00013024911196459445 0.0
0.00013335068692753944 -4.311613733224784e-5 0.0
0.00011340343809996525 -3.519794216530014e-5 0.0
0.000344740843748137 -0.00011132268445560155 0.0
0.0009498683106072686 -0.00010951856511536372 0.0
0.0009548935805084725 -9.970401735745451e-5 0.0
0.0005905320070342653 -0.00017384403887859125 0.0
0.0011840886479989668 8.885716418558531e-6 0.0
0.001232090929627332 1.0503927519087811e-5 0.0
0.0012015705077651534 1.0188401160220194e-5 0.0
0.0012490177333324 1.1077802249966395e-5 0.0
0.0012802765361278985 1.1445888711524358e-5 0.0
0.0012976200070651226 1.1380127500773798e-5 0.0
0.001265997343956136 1.0500474978901853e-5 0.0
0.0013137596881376422 1.0367592260699899e-5 0.0
0.0012823441165003787 8.95367067153268e-6 0.0
0.0013297807095648741 8.70989088230653e-6 0.0
0.0012989739275160448 6.5762499045645885e-6 0.0
0.0013450158407822175 6.5314631838684045e-6 0.0
0.0013147395475099687 3.6744463780277e-6 0.0
0.0013597985876958032 3.973735724413644e-6 0.0
0.001268008727881518 3.010694892822808e-6 0.0
0.0013299905029888137 3.9199907429112103e-7 0.0
0.0013729332948904287 9.95979462453478e-7 0.0
0.0013309161500417764 1.155716060613823e-5 0.0
0.0003378191746070996 -9.801547228861416e-5 0.0
0.00032983111184558856 -0.00010950601116473197 0.0
0.00034709319336434887 -0.00011666423513279161 0.0
0.0013448028799537166 -3.0845341869495553e-6 0.0
0.001386072900475985 -2.0590276102100287e-6 0.0
0.0013047922217457022 -4.201941068729358e-6 0.0
0.0008021773943761134 -0.00016753102055391578 0.0
0.0007855716402447707 -0.00017151328966456833 0.0
0.0008004023181713133 -0.000176831697415853 0.0
0.0007843721671923857 -0.0001807894372910964 0.0
0.0007988870087894238 -0.00018646615469459753 0.0
0.0007835723845032235 -0.00019040858943417645 0.0
0.0007689475177638064 -0.00018461473006647612 0.0
0.0007684882930781322 -0.00019408162005927004 0.0
0.0007541313087867656 -0.00018815538112293732 0.0
0.0008468258480575915 -5.583382348765756e-5 0.0
0.0007977604670258656 -0.00019648503490357546 0.0
0.0008129754984004251 -0.00019233363384265449 0.0
0.0007093170120631899 -9.279774692266194e-5 0.0
0.000677760054495615 -0.00012745646181989786 0.0
0.0006960512768989631 -0.00012486982997066929 0.0
0.0006798554286461797 -0.00012213660636639734 0.0
0.0006984088792292354 -0.00011949636255988107 0.0
0.000682201602733475 -0.00011714358465699607 0.0
0.0007010020180483161 -0.0001144586663450705 0.0
0.0007172023873587089 -0.00011663191330954651 0.0
0.0007200254173582532 -0.00011153630133597697 0.0
0.0007362107924546458 -0.00011352306881627994 0.0
0.0007392389451652432 -0.00010833997319880404 0.0
0.0007546435618066631 -0.00011014922421668075 0.0
0.0007232234991893348 -0.00010659984223363518 0.0
0.0006848117532753154 -0.00011247477163311024 0.0
0.0006658801383386174 -0.00011499003513852868 0.0
0.0007515654630802109 -0.00011582207422656892 0.0
0.0007708863027415517 -0.00011186081323766244 0.0
0.00033286915286943945 -0.00011514554001611597 0.0
0.0007517861620914382 -7.77379354848951e-5 0.0
0.0008173851571197961 -6.890015308946718e-5 0.0
0.0007929576492538037 -0.00013786441896315114 0.0
0.0014355383865135244 -2.434497083296931e-5 0.0
0.0014542565047571648 -2.191929933505919e-5 0.0
0.0008554712166644206 -5.585750191706438e-5 0.0
0.000826231167451233 -6.0797360219738025e-5 0.0
0.0010913349582342892 -0.00014055098274144627 0.0
0.000942178976268385 -6.875105024902896e-5 0.0
0.0014130807607840884 -6.27624960177028e-5 0.0
0.0014427089468352064 -4.403648193816281e-5 0.0
0.0007988022027112184 -7.042188824990438e-5 0.0
0.0005629622281716878 -0.000168995253320467 0.0
0.0005490716708681431 -0.00016361355648560858 0.0
0.0008934959839112417 -4.881506435817018e-5 0.0
0.0007537615604997169 -0.00019742040429030836 0.0
0.0007390559713105529 -0.00019097576445395857 0.0
0.000548561442079999 -0.0001576555026707916 0.0
0.0005352003049226548 -0.0001582322643784017 0.0
0.0005346433867138194 -0.00015239494230961635 0.0
0.0005210427848152502 -0.00015281680853834804 0.0
0.0005219452447301961 -0.00015866903051938258 0.0
0.000507595258793101 -0.00015311413723463147 0.0
0.0005086759854541923 -0.00015899820763555722 0.0
0.0004940402459328823 -0.000153308463617561 0.0
0.0002483093398214399 -8.692223026832844e-5 0.0
0.0014643244489892027 -1.649249423086385e-5 0.0
0.0010453835724311682 1.4886236933904512e-6 0.0
0.0010219730413141232 -1.2059811471997849e-6 0.0
0.00049573396667536 -0.00011070316426226861 0.0
0.0004077551866935927 -0.00010977203781702418 0.0
0.0014007549080383938 3.6249264593035433e-6 0.0
0.0013776507771674324 7.913672460538299e-6 0.0
0.0006499936921329111 -0.00018339877546120185 0.0
0.0006651212980640302 -0.0001820286739648774 0.0
0.001017831446972315 -0.00019228132094355224 0.0
0.00023289074446131996 -6.967711799938349e-5 0.0
0.0008693585415493354 -7.058136565007507e-5 0.0
0.000994295225179181 -8.315589601528915e-6 0.0
0.0010015621325133721 -5.175622300847713e-6 0.0
0.0011160251280225616 -0.00013059675106757559 0.0
0.0011523941590222899 -4.528890783822873e-5 0.0
0.0011666787998375974 -0.00014717372114206458 0.0
0.0011826622604206903 -0.0001529599829272107 0.0
0.0011746114633706041 -0.00017124512308712628 0.0
0.0011977268441360426 -0.00015916779349848026 0.0
0.0007074739665997872 -8.754363900126177e-5 0.0
0.0002657329433944153 -9.488637732324849e-5 0.0
0.0007568885700234023 -0.00010483808726365433 0.0
0.0012358557190295806 8.55491522074695e-6 0.0
0.0006534746416201838 -0.00016890325945063587 0.0
0.0003492919218853395 -0.0001224330140037075 0.0
0.0003634315370719931 -0.00012375883632233822 0.0
0.0009981668382106487 -0.00019912058209343344 0.0
0.000520227452311858 -0.00014716636008831857 0.0
0.0008898630438573439 -0.00011157442043213289 0.0
0.0008684851775115971 -0.00011750656937300832 0.0
0.0014283062084707687 -6.285528765956463e-5 0.0
0.0014588674106616282 -4.298348049542231e-5 0.0
0.0014723759225436113 -2.819326516402847e-5 0.0
0.0005057906260491864 6.804329869991907e-5 0.0
0.00011789344574864607 -3.842313528684268e-5 0.0
9.804347490910085e-5 -3.0422654154146413e-5 0.0
9.558734631011179e-5 -2.8511249989103943e-5 0.0
0.0010820332085536338 -3.684833337522672e-5 0.0
0.0011101081643467936 -4.3129424198874e-5 0.0
0.0010546019222185054 -2.850576405663038e-5 0.0
0.001084921778729667 -2.1451271391094132e-6 0.0
0.0013593509224602645 -6.406645822833862e-6 0.0
0.0014002412952114538 -4.910804688025412e-6 0.0
0.0005498360162014399 -0.0001695443403050929 0.0
0.0010525694455341202 -2.488088176201078e-5 0.0
0.0002804712441342049 3.474620233488328e-5 0.0
0.00028826217609423523 4.482172555648609e-5 0.0
0.0003550548490430607 6.394885907573192e-5 0.0
0.0002984531628826478 5.270937821888315e-5 0.0
0.0003962110287054687 8.284602163392325e-5 0.0
0.0007380287347744351 -0.00018165606786332725 0.0
0.0004926298964893116 -0.0001475425624969477 0.0
0.00047914126156314857 -0.0001476045571184445 0.0
0.0004805425582703798 -0.00015343246930363044 0.0
0.0004656041795210394 -0.00014759115889968202 0.0
0.0012059253575747379 -0.0001404503929059498 0.0
0.0012204944522473896 -0.00014609428930313398 0.0
0.001211645503524904 -0.00016511143967606236 0.0
0.0012336293348112197 -0.0001513633877623409 0.0
0.0009354344012439356 -9.7834406660019e-5 0.0
0.0009601852727044128 -9.033289451264485e-5 0.0
0.0008119174011109992 -0.0002026713393023397 0.0
0.0008269031932139463 -0.00019834699513320947 0.0
0.0006685889100766514 -0.0001106372712043189 0.0
0.0006494700982168026 -0.00011298695972940668 0.0
0.0006336544981193224 -0.00018448431954679522 0.0
0.00046705939480222545 -0.0001534594895971033 0.0
0.00045224821075593265 -0.0001475462923929784 0.0
0.0013535768840992808 -8.203030361611112e-5 0.0
0.0013408638581058519 -0.00010200037970969957 0.0
0.0013267574786387116 -0.0001009595469681209 0.0
0.001317004430783641 -0.00011945479255623567 0.0
0.0006651115169796309 -0.00019019045736985707 0.0
0.00013605779057186262 -4.644673178940711e-5 0.0
0.00019094710135419184 -5.572020360881591e-5 0.0
0.0001676599306395408 -4.828031673052319e-5 0.0
0.00014131929242179567 -3.801586205439845e-5 0.0
0.0001377329190208015 -3.610938546554003e-5 0.0
0.00016882650560424308 -4.277032304673264e-5 0.0
0.00013448604707781394 -3.372683063479203e-5 0.0
0.00016675064209065085 -3.9926699601860056e-5 0.0
0.00013097721887281153 -3.060091782461098e-5 0.0
0.00016483791521741488 -3.608607963245967e-5 0.0
0.0013554044004329253 -0.00010311221699234155 0.0
0.00046356330079972595 -0.00014195378464480638 0.0
0.001097223754646406 -0.00012617738627846158 0.0
0.0009805799477714222 -0.000192079076774111 0.0
0.000978642146191742 -0.00020569427687445668 0.0
0.0009613856971032988 -0.00019878612082481107 0.0
0.0007391697270801781 -0.0002001714833736664 0.0
0.0010650330254815977 2.981858516937585e-6 0.0
0.001224215411098795 -0.000170628842938645 0.0
0.0014897501214351046 -2.5872582170537756e-5 0.0
0.0014748771968462688 -4.119809553908029e-5 0.0
0.0005134498631660218 8.97475105963149e-5 0.0
0.001044002147652166 1.6032475729060923e-6 0.0
0.000777211152094709 -0.0001343314201328043 0.0
0.0007951108292214931 -0.0001304179283976473 0.0
0.0007687584271038023 -0.00020387941755801314 0.0
0.0007241956085264135 -0.00019361169659976542 0.0
0.0003690101495512635 -8.688992220520432e-5 0.0
0.0014260804564313746 -1.297515918322388e-6 0.0
0.001439629472533269 -3.559793836444097e-6 0.0
0.0014130554584977895 -7.6172169879392736e-6 0.0
0.0014511551771766277 -5.8302515755905294e-6 0.0
0.0011531672246517808 -8.259383392651073e-5 0.0
0.0008517771333834268 -0.0001637659623756635 0.0
0.0008723911225876121 -0.00010943819364836312 0.0
0.0006559721972439348 -0.00014771801395617148 0.0
0.0009345724504503883 -5.5908599048052795e-5 0.0
0.0009747349246678784 -0.0001020147193713186 0.0
0.0009744153968161886 -0.00013762114880045063 0.0
0.0009975422027950524 -0.0001300316966651826 0.0
0.0010860381691358031 -5.894168563745525e-5 0.0
0.001117293663320134 -6.140112340688001e-5 0.0
0.0003653168780718279 -0.00012970562702604288 0.0
0.0003787160148990265 -0.00013064534098648965 0.0
0.0001274124638938073 -2.6558498872105337e-5 0.0
0.0001614548456109986 -3.075895969035853e-5 0.0
0.00019993520425605905 -4.071573751938228e-5 0.0
0.00019784021239481692 -3.4031936093559614e-5 0.0
0.00015897300404051212 -2.4308937249414575e-5 0.0
0.00019715970783646747 -2.588752867989291e-5 0.0
0.00015756761044821024 -1.6801092855020985e-5 0.0
0.00019805733501347737 -1.6391514504798838e-5 0.0
0.0001570024888840763 -8.658951749811728e-6 0.0
0.00010270693297599052 -3.375140347733869e-5 0.0
0.0008514551856239302 -0.00011500701586990574 0.0
8.321500082320795e-5 -2.5803214298029334e-5 0.0
0.000335803127688578 -0.00012119719320234622 0.0
0.0014844100573662329 -1.3919476166143858e-5 0.0
0.000712167479242718 -0.00012783300252660641 0.0
0.0009758864378813101 -1.359838212987509e-5 0.0
0.0009860798663825932 -9.893768622293513e-6 0.0
0.00019950496323321618 -5.979443716069817e-6 0.0
0.0002526872816246374 -9.277904807540627e-5 0.0
0.00023536480769027697 -8.455900165571642e-5 0.0
0.0004820301257667662 -0.00016049447370086397 0.0
0.001012995446990304 -0.00020625709914515747 0.0
0.0005635204480763125 -0.00017490775334627075 0.0
0.0012459611724497056 -0.00015636194461013083 0.0
0.00150213832185386 -1.6386759307436014e-5 0.0
0.0006469390540198244 -0.00011732856709473415 0.0
0.0006305560809375977 -0.00011510907284393652 0.0
0.000628135550697202 -0.00011944632850494922 0.0
0.0005664396403374896 8.659587252054631e-5 0.0
0.0006127275966680289 -0.00011699599073058351 0.0
0.0001471236933258246 -4.028612685272987e-5 0.0
0.0008258885668224337 -0.00020917582370140556 0.0
0.0008410149151736031 -0.00020465603717371875 0.0
0.0008423186442740597 -0.00019372677696263298 0.0
0.0008565363249325833 -0.00019981799865636686 0.0
0.0010163296864018625 -0.00013422459645798845 0.0
0.0010217424424616738 -0.00012182128077091594 0.0
0.0014932510216879163 -1.0357611370459106e-5 0.0
0.0014723480623707718 -1.2565322947221822e-5 0.0
0.0010122449704630901 -4.228479335042838e-6 0.0
0.0009952765485419207 -1.020937461398346e-5 0.0
0.0003195786501035474 -0.00011371819779247908 0.0
0.00045377964058197616 -0.00015355713381361784 0.0
0.00043916417755180553 -0.00014753076505460055 0.0
0.0007601575366562238 -8.6258695595666e-5 0.0
0.0012037946894360896 -0.00018343549938771656 0.0
0.00015838660692462736 -5.870911391283276e-7 0.0
0.0004372260563044079 -0.00014152073268771395 0.0
0.0008552033703936627 -0.00021130276345142677 0.0
0.0008709086913571133 -0.00020621273491225271 0.0
0.0008549387530716816 -0.00010761501069643563 0.0
0.0008347042197661035 -0.00011265829916302705 0.0
0.0008380828069570893 -0.0001057802239433643 0.0
0.0008042075360500784 -7.444650000272218e-5 0.0
0.0001476405356568381 -4.276716752084338e-5 0.0
8.778346389934667e-5 -2.918568179014035e-5 0.0
0.0008583822716885318 -0.00018880526288483836 0.0
0.0008901815906420035 -8.862462006426028e-5 0.0
0.0007246603288411614 -0.0002025305742857348 0.0
0.00033743719243495957 -7.477631062268226e-5 0.0
0.0005609067160388568 -0.00010140603027390213 0.0
0.00026940268503534146 -0.00010110827591479593 0.0
0.0012564325734315193 -0.0001368251470276315 0.0
0.0003556315745691561 -0.00010052076108306695 0.0
0.000335778269517128 -9.441230932789613e-5 0.0
0.0003552912432140521 -9.716950343447117e-5 0.0
0.00033457876278824975 -9.124649208998282e-5 0.0
0.00035478566857090414 -9.412206109294168e-5 0.0
0.00031464135301241167 -8.812932353481032e-5 0.0
0.0009595681663268422 -0.00021223931117497028 0.0
0.0009439303279963785 -0.00020545045714023946 0.0
0.00022535288754181829 2.820566892256596e-5 0.0
0.0007400357423831677 -0.00020916080572371513 0.0
0.0007214767358659531 -0.00015900283723808652 0.0
0.0007045531722855424 -0.0001617126494834515 0.0
0.00038080600079399706 -0.0001368658917654104 0.0
0.00011518503436146519 -3.137322449450673e-5 0.0
0.00012323118140117212 -3.4141896932838084e-5 0.0
0.001374140165624415 -2.8980373701433548e-5 0.0
0.0014045003710947827 -2.1186374826820667e-5 0.0
0.00023683610550132443 -4.439800391129918e-5 0.0
0.00039388019896121414 -0.00013742959609956983 0.0
0.0003927248926897585 -0.00013185614823940474 0.0
0.0003959453550712943 -0.00014386379113936554 0.0
0.00036797433678656925 -0.0001361854463115693 0.0
0.00032627290335905554 6.433369867415298e-5 0.0
0.00057586762480602 -0.0001559350756991681 0.0
0.0008479361957994617 -0.00012294523216794907 0.0
0.0013798906109668526 -2.2172351859953917e-5 0.0
0.0008112352423080302 -0.00021340744339169953 0.0
0.0005503534715633857 -0.00017531535184021858 0.0
0.0015057475206650011 -2.352114433159328e-5 0.0
0.0014902475143743802 -3.9852537657045076e-5 0.0
0.0005625926139223469 6.262015020724238e-5 0.0
0.0004411015592180078 -0.00015392551300714123 0.0
0.0009403909445172915 -8.866006336570466e-5 0.0
0.0009673514398495698 -8.086163316655674e-5 0.0
0.00018786327831962519 -5.3586154533085714e-5 0.0
0.00023998378149899698 -9.051748690979815e-5 0.0
0.00022299742413223712 -8.225740960358129e-5 0.0
0.00021799219806675185 -7.656507104004917e-5 0.0
0.0003227767781223132 -0.00011997162089342566 0.0
6.859951696591787e-5 -2.129670370537418e-5 0.0
6.50312984939995e-5 -1.9093097774268362e-5 0.0
0.0008694880058439561 -0.0002182812556327404 0.0
0.000885302271403947 -0.000212923849787953 0.0
0.0008863951790589759 -0.00020022371335015208 0.0
0.0012298925118999398 -0.0001269018225205857 0.0
0.0012142644442855834 -0.00012173254438288795 0.0
0.0012156066933453587 -0.00018958231517640935 0.0
0.00031301286694978306 -8.51888029297499e-5 0.0
0.00029329074472939727 -8.190797588604037e-5 0.0
0.0009871424156557551 -8.219573808756345e-5 0.0
0.001476653499591199 -2.4567654757235526e-6 0.0
0.001487011541526104 -4.205479891349194e-6 0.0
0.0014982864842836678 -8.07818463907083e-6 0.0
0.00145385720078158 -6.59039635387091e-5 0.0
0.0001070361775321624 -3.8003611955208385e-5 0.0
0.0009659943192260833 -2.3959773579637643e-5 0.0
0.0009449864588522579 -2.841057708924844e-5 0.0
0.0009353632268063286 -3.2817024015064617e-5 0.0
0.0009150419378171618 -3.7369596803565755e-5 0.0
0.0009064635481782743 -4.096218699857866e-5 0.0
0.0009230868174372769 -3.4009633151750876e-5 0.0
0.000779472943857079 -0.00012730786304483057 0.0
0.0006522231819110317 -0.00010898881195579258 0.0
0.0006716223147612242 -0.00010661036355109146 0.0
0.00022768374261631315 -8.834473842489227e-5 0.0
0.0002107304804874369 -7.97915187189894e-5 0.0
0.0013118987876474955 1.1201854889004652e-5 0.0
0.0013651905305798102 1.133531496583623e-5 0.0
0.0013853059683812583 1.0701629430841305e-5 0.0
0.0014202543851651508 1.0331839976248845e-5 0.0
0.0014082719774425297 1.0237109799057577e-5 0.0
0.0007099950147392481 -0.0001962739965711886 0.0
0.0007094787614768159 -0.00018785791936456488 0.0
0.0007102194209192322 -0.00020456341979775515 0.0
0.0009597443731266833 -2.020647502891891e-5 0.0
0.0009482658725008561 -2.4524655768349708e-5 0.0
0.00023967014225375908 -5.078126364932533e-5 0.0
0.00011490352511318275 -3.747998040591411e-6 0.0
0.0009412994934396081 -0.00021869648282768904 0.0
0.0002748362805328819 2.4576145768255637e-5 0.0
0.0009449186125706919 -0.00011953664038603218 0.0
0.0009302779674379066 -3.604905591770423e-5 0.0
0.0008984375766031307 -4.439632590843375e-5 0.0
0.0009176369858727983 -4.110238355371637e-5 0.0
0.0008906106326403985 -4.8012946545110806e-5 0.0
0.0009090509696047239 -4.539090962118311e-5 0.0
0.000883159974088975 -5.2001823110199614e-5 0.0
0.0009013901638269374 -4.987799441800543e-5 0.0
0.0008761410607903398 -5.6277119337306784e-5 0.0
0.0008950341348938185 -5.444754216873286e-5 0.0
0.0008714253715585742 -5.1270816451917435e-5 0.0
0.0008579365211269343 -5.833143584225498e-5 0.0
0.0009763915243694356 -0.00021953836137675168 0.0
0.0015188923538425071 -7.3113784857311815e-6 0.0
0.0005343716073947164 -0.00014678380329576933 0.0
0.0005193466535580008 -0.00014186273864034854 0.0
0.0013988030706703787 -8.379955155219147e-5 0.0
0.0006157978872865878 -0.00011356491467000537 0.0
0.0008877123537172412 -4.513715233927111e-5 0.0
0.0004253181282525119 0.00010555869014133147 0.0
0.000104708929982089 -2.730636739502745e-5 0.0
0.0006276833396850499 8.098690469274146e-5 0.0
0.0006152349403773357 5.4070138787148246e-5 0.0
0.0011378703663340946 6.971760897158076e-6 0.0
0.0014132891310484352 -8.473914458222586e-5 0.0
0.0013857649039921206 -0.00010665784531304206 0.0
0.0006099117536181557 -0.00012127208182608527 0.0
0.0005964271332733878 -0.000118051659480086 0.0
0.00028275674711679324 -9.860338247431526e-5 0.0
7.310558851664953e-5 -2.461066364521928e-5 0.0
8.89572913753403e-5 -2.433826772370305e-5 0.0
9.301180936895195e-5 -2.577590075964066e-5 0.0
5.4070617485035525e-5 -1.6845568253006474e-5 0.0
0.0010024412158984124 -0.00011843499610234206 0.0
0.001027502822617287 -0.00010992469774895504 0.0
0.001047433596667303 -0.00011314063358079775 0.0
0.0010534119440734784 -0.00010053735801682576 0.0
0.0008517116221438308 -6.21979868833056e-5 0.0
0.0004886943245401323 0.00012152242930817223 0.0
0.000590806745493622 0.00010942790479432813 0.0
0.0008181607917148372 -0.00011045401990495453 0.0
0.0008217820084158188 -0.00010389205491895448 0.0
0.0006555618154707112 -0.00010547842628207791 0.0
0.0005725875108771398 -0.00010857402699014453 0.0
0.0005641210632030903 -0.00018058252439143356 0.0
0.0011169300237336263 -0.00018400523040218447 0.0
0.0011323070523526768 -0.00019140806076014592 0.0
0.001113064695486815 -0.00019987542791999148 0.0
0.0011280223873649322 -0.00020770517435096417 0.0
0.0011095895388452124 -0.00021575375932574817 0.0
0.0010942284754757335 -0.00020804217912273438 0.0
0.0010553983881841946 -0.00019450867867237516 0.0
0.0009437789878602566 -0.0001918828340803899 0.0
0.0010554482280371869 -1.1475427940916318e-5 0.0
0.0007706054557031121 -0.0001664111823789775 0.0
0.000238975788195122 -2.617703221112414e-5 0.0
0.0014729117833688604 -6.140014370386713e-5 0.0
0.001504726596626176 -3.836704598429428e-5 0.0
0.0011465594178495962 -0.00019904978910478623 0.0
0.0011425990222832247 -0.00021561929347282111 0.0
0.0011603146261851794 -0.0002070017231552832 0.0
0.0005772203399853662 -0.00018026191106633744 0.0
0.0006886935535982599 -0.00015685218342606077 0.0
0.0006882067442238136 -0.0001640958131664896 0.0
0.0007038298831132765 -0.00016948041566716343 0.0
0.0004939837319955957 -0.00012678862678000303 0.0
0.0006723537563020221 -0.00015910603642000113 0.0
0.0008442038967010879 -0.00018345650459768774 0.0
0.001240390456916353 -0.00010719307655701866 0.0
0.0012685476713888485 -0.0001410831090868965 0.0
0.0012576966642764273 -0.00016189990481281047 0.0
0.0012832787024454765 -0.00011926045894462752 0.0
0.00020471662118094167 -4.957820162453629e-5 0.0
0.0005229459787304765 -0.00016458808485050302 0.0
0.0005100012309558915 -0.00016500961004411823 0.0
0.0005237706673439724 -0.00017047391083566495 0.0
0.0005113480084770971 -0.00017117276187674947 0.0
0.0010735309446429425 -0.00010319121056944818 0.0
0.00033903676070984583 -0.00012770076110388298 0.0
0.0003073545741494039 -0.00011251116752533839 0.0
0.0014609317558244427 -8.181765421850683e-6 0.0
9.524454588090512e-5 -2.1486381116744267e-5 0.0
9.198927606080856e-5 -1.8009686810371457e-5 0.0
0.0009249606743506819 -0.00020998628202600032 0.0
0.0009253736759680801 -0.0002247719053529847 0.0
0.000761181176028864 -0.00013098540706889933 0.0
0.0014410494426746142 8.975565564670167e-6 0.0
0.0003103953126231984 -0.00011874182856160307 0.0
0.0012149681800601743 -5.602933070620728e-5 0.0
0.0013372833392674222 -8.15822344209262e-5 0.0
0.0013911390724774216 -4.815640234145639e-6 0.0
0.001398450362513513 2.1955436518478567e-7 0.0
0.0010337340667080333 -9.841765118314934e-5 0.0
0.001123386199187502 -0.0001158270077667589 0.0
0.0011420244727108546 -0.00011983110606509753 0.0
0.0011044733634765344 -8.008087705229492e-5 0.0
0.0011343439045638387 -8.016093682507009e-5 0.0
0.0011466110563638175 -6.006678753811936e-5 0.0
0.0008538939439363593 -0.0002233463266052825 0.0
0.00045460049833803196 -0.00015983667761844164 0.0
0.0006615577327561929 -0.00012461806770625922 0.0
0.0009161360738072707 -9.642671075639905e-5 0.0
0.0008102733179904932 -0.00013347325864707674 0.0
0.0008251119543701058 -0.00022055859487386096 0.0
0.00040832188626456684 -0.00014411424941356972 0.0
0.0005051729257678981 -0.00014192601867636849 0.0
0.00023192521402782374 -6.401579859119547e-5 0.0
0.0014669089622257518 8.252256318541687e-6 0.0
0.0010730344197568326 -0.0001360667351238531 0.0
0.00016341887728356513 -4.620818421164996e-5 0.0
0.0005164128329603789 0.0001477892462870563 0.0
0.0008168379094297389 -0.00017267452911144996 0.0
0.001090928400353618 -0.0002236652968789878 0.0
0.001074595093795084 -0.0002158385433175122 0.0
0.0009345133947104861 -0.00014022603326711695 0.0
0.0009930734367672351 -7.29711008424384e-5 0.0
0.00047541274239679896 -0.0001136053079567346 0.0
0.0006876666527127558 -0.0001729737831286494 0.0
0.0009127418597051545 -8.254716372996956e-5 0.0
0.0005041648072816533 -0.0001368224137278165 0.0
0.0004894449238643617 -0.00013663140805846453 0.0
0.00041029113637797057 -0.00015065508150129099 0.0
0.00027612073921782094 -5.4725051903726057e-5 0.0
0.0002754120620131485 -4.762579156334499e-5 0.0
0.00011765576254435485 1.865511876096166e-6 0.0
0.00016459864214563152 7.3511207073682896e-6 0.0
0.0011965726860979388 -0.00020147970056362077 0.0
0.00021081351526245636 -6.0719012471192975e-5 0.0
0.0002952870515369751 -8.487800172541581e-5 0.0
0.0002738103784525654 -7.831093895845599e-5 0.0
0.0012684975196616461 -0.00011683067758537796 0.0
0.0006380515598655614 -0.00015632528796715258 0.0
0.0007975009944292835 -0.00012301891133881696 0.0
0.0010281122606828185 -1.7181512182046822e-5 0.0
0.0010348698915635618 -3.756296803513158e-5 0.0
0.0010122298221346433 -2.7307784225730844e-5 0.0
0.0010206949453933079 -4.870368308789778e-5 0.0
0.0010436005104159966 -5.8804985942704996e-5 0.0
0.001093251918568693 2.6235109684392102e-6 0.0
0.0011210343931046703 3.396661282789122e-6 0.0
0.0011305571878768902 6.786203379569824e-6 0.0
0.0011577621454913782 7.129914646925499e-6 0.0
0.0011484180743772834 3.4318936307892197e-6 0.0
8.37615197025484e-5 -2.2604706559135593e-5 0.0
0.0010807176977307557 -9.07813016185136e-5 0.0
0.00023060129670327044 3.5359576973139904e-5 0.0
0.0002622943882966043 4.643037843645503e-5 0.0
0.0008837423536628179 -0.000225404635079602 0.0
5.957286193000339e-5 -1.2622121009652836e-5 0.0
0.0012067955420669773 -3.6765351016349563e-5 0.0
0.0012398481142023095 -2.851395289793452e-5 0.0
0.0012160646457133062 -2.7383255995076454e-5 0.0
0.0012669129639571739 -2.8623858478573738e-5 0.0
0.0012735034274692061 -2.1073819042489602e-5 0.0
0.001301403630228655 -2.1461849880547347e-5 0.0
0.0003757069172131849 -9.971104170088326e-5 0.0
0.000376253055736112 -9.686914016024952e-5 0.0
0.0003541279719257632 -9.132704358543504e-5 0.0
0.0003764961116834653 -9.421605229356868e-5 0.0
0.00039848462789082554 -9.935901998692383e-5 0.0
0.0003992065459262688 -9.674363320001456e-5 0.0
0.00042064075574391196 -0.00010143308300403076 0.0
0.0004430773776987413 -0.00016025641633272495 0.0
0.0004217879061181198 -9.874165776402654e-5 0.0
0.0004427967847099589 -0.00010309338833602437 0.0
0.00012007265040386389 -1.6054632487641318e-5 0.0
0.00027710762548277675 -6.0113698744314354e-5 0.0
0.00044075437799362486 -0.00010587749518622337 0.0
0.00035600678368564044 -8.933773025739854e-5 0.0
0.0012236861933367328 -0.00010313280272324828 0.0
0.0011980199562768162 -0.000117335996070582 0.0
0.0006957134916018227 -0.00019870600929197818 0.0
0.0006956749483651894 -0.00020657723911559776 0.0
0.0009983626225118485 -3.470461084495383e-5 0.0
0.0005650178484540598 3.91300055084555e-5 0.0
0.0006140827715615905 2.8376464640559244e-5 0.0
0.0006618955995054422 4.128681636476866e-5 0.0
0.0006611123808300518 1.3668533069434652e-5 0.0
0.0006181504609477805 3.0909563870431843e-6 0.0
0.0006645434590941871 -1.4619689082296134e-5 0.0
0.0006246193193967078 -2.136345328576831e-5 0.0
0.0006704158541250804 -3.9230832077123784e-5 0.0
0.0006312213396227555 -4.190492773532088e-5 0.0
0.0006817607036415994 -5.765330455813257e-5 0.0
0.000635719213009627 -5.6984874163126714e-5 0.0
0.0006754386091417444 -6.746893750735304e-5 0.0
0.000636767793565537 -6.715286093086991e-5 0.0
0.0006730915451775282 -7.439666647068132e-5 0.0
0.0006384185696301563 -7.47381268680948e-5 0.0
0.000670916219342361 -7.914685853492293e-5 0.0
0.000637571800334309 -7.971307779849982e-5 0.0
0.0006666300196350298 -8.21316660777508e-5 0.0
0.0006357373650943856 -8.305586717828847e-5 0.0
0.0006625168727571662 -8.425361576061876e-5 0.0
0.0006330541851871747 -8.549600984193563e-5 0.0
0.000657857974852273 -8.586417079191047e-5 0.0
0.0006291928689112425 -8.741178948178273e-5 0.0
0.0006532032242068069 -8.72831432056949e-5 0.0
0.0006251724516176596 -8.917577571975843e-5 0.0
0.0006006168122435802 -8.849736809713467e-5 0.0
0.00059736291619112 -9.049237237670868e-5 0.0
0.0006499990141838558 -8.876076393454378e-5 0.0
0.0006068832523786579 -7.991327182233254e-5 0.0
0.0006807913391880267 -8.49845976297916e-5 0.0
0.0006941508679266331 -8.249867264980693e-5 0.0
0.0005881586616715358 -2.653191346104567e-5 0.0
0.0007044020904372066 -7.79706418193406e-5 0.0
0.0005717524178275262 -8.911202755799756e-5 0.0
0.0005696723807659418 -9.133984500993923e-5 0.0
0.000594117785858632 -9.235693466544225e-5 0.0
0.0005674680901958954 -9.338296280416378e-5 0.0
0.0006018143013702993 -6.716886762658057e-5 0.0
0.00071723968386247 -6.878828589388527e-5 0.0
0.0005741904232883039 -8.65372479457044e-5 0.0
0.0007125439782891073 -3.504682333381414e-5 0.0
0.0005911089098585154 -9.421821505562278e-5 0.0
0.0005651651333798182 -9.539424227250066e-5 0.0
0.0005410714973319096 -9.394921863962903e-5 0.0
0.0005436304753312293 -8.6537684953968e-5 0.0
0.0005440210269737773 -8.286648991832317e-5 0.0
0.0006172256864567585 -9.255267353224208e-5 0.0
0.0006132038295645931 -9.443718100058696e-5 0.0
0.0006380584327157053 -9.232043425615008e-5 0.0
0.0007082218328928324 2.2504617718196455e-5 0.0
0.000717236255348682 4.728302394952898e-5 0.0
0.0005401989019881926 -9.607860481195145e-5 0.0
0.0005150279375770733 -9.40480156893435e-5 0.0
0.0005159211373471337 -9.179878567610927e-5 0.0
0.0004879949031123012 -9.122575316886214e-5 0.0
0.0008109417042878422 -0.00022469096740681795 0.0
0.0007972613169379192 -0.00021729456203488774 0.0
0.0013993593203050748 -0.00010828379143607598 0.0
0.0008604877152163539 -0.00017830863414102912 0.0
0.000875203793967931 -0.00018368943243120533 0.0
0.0005318986058507831 -0.0001411175476687037 0.0
0.0005469077713225212 -0.0001457812600409493 0.0
0.0012503973779904674 7.252486749635322e-6 0.0
0.0008762627845529504 -0.00010158307783990135 0.0
0.0005636875214242588 -9.741468620149841e-5 0.0
0.00042249483264388633 -0.0001410113248746913 0.0
0.00042198288039170306 -0.00013549872860200532 0.0
0.0004354632881496955 -0.00013600918070708358 0.0
0.0009727602567686229 -7.222847733121766e-5 0.0
0.0009332996988913928 -3.928433968891197e-5 0.0
0.0006264249589609381 -0.00012407519117633637 0.0
0.0006086299381383119 -0.00012593190122571666 0.0
0.0009316335900346728 -3.2091529661228696e-5 0.0
0.0009206526746375087 -3.56538339880178e-5 0.0
0.0009357971137342531 -2.9600121858401375e-5 0.0
0.0009075201874689685 -3.9691328949830804e-5 0.0
0.0009436331623512997 -2.8314478324687415e-5 0.0
0.000919804226893575 -4.8226344756580084e-5 0.0
0.0009141493609472832 -5.296411877927179e-5 0.0
0.000887155244797082 -5.952696446350644e-5 0.0
0.0006751389227090546 -0.0001029286075494052 0.0
0.0006912385298061107 -0.00010392205385049188 0.0
0.0006949883736368482 -0.00010021781432357586 0.0
0.0007107641165769413 -0.0001009673196003553 0.0
0.0007145477069102808 -9.726524891020173e-5 0.0
0.0007302229921983488 -9.782773938480047e-5 0.0
0.0007341928463006914 -9.401327574134673e-5 0.0
0.000750555051535138 -9.429439686059737e-5 0.0
0.0007461974628994275 -9.861788363389077e-5 0.0
0.0007672457267172473 -9.427102110538202e-5 0.0
0.0008426542009755254 -9.930037672792605e-5 0.0
0.0008255944389844775 -9.784210932658537e-5 0.0
0.0008054788130607733 -0.00010233952967823661 0.0
0.0008090523280342126 -9.670961021618818e-5 0.0
0.00018454892589149524 -5.164969431436049e-5 0.0
0.00021600952592518575 -8.624549561714991e-5 0.0
0.0001991057153507178 -7.743090427364636e-5 0.0
0.000194053852312262 -7.117733485378141e-5 0.0
0.0001816903136495006 -6.840241172463931e-5 0.0
0.0007634126040075508 -0.00012441356329338966 0.0
0.0010139779115816698 -7.35565185272717e-5 0.0
0.0010059530246989362 -8.387703392889693e-5 0.0
0.00046171208852335496 8.879178756821709e-5 0.0
0.0008344870454040708 -6.403681075579256e-5 0.0
0.000839728911506274 -6.105916572903709e-5 0.0
0.000977309731073916 -4.9407279537632736e-5 0.0
0.0014869554131410761 -1.7773199616763393e-5 0.0
0.001513817619435677 -1.0726643767720008e-5 0.0
0.001531654170262136 -8.29432277277099e-6 0.0
6.513671269574654e-5 -1.785255122609134e-5 0.0
6.770096016674949e-5 -1.8519620992360734e-5 0.0
9.428736464910037e-5 -2.621916347355174e-5 0.0
7.182331495691239e-5 -1.9661196511472913e-5 0.0
9.65036159018999e-5 -2.7053234400200743e-5 0.0
7.453987823779344e-5 -2.0633663671374476e-5 0.0
4.724087712183419e-5 -1.265559227131291e-5 0.0
0.0007449906784837784 -0.00012786855998890426 0.0
0.0004011313690996665 -9.450873728937983e-5 0.0
0.0002451068581186242 -9.697936987209878e-5 0.0
0.0006334159086091049 -9.419789181033641e-5 0.0
0.001377337329579796 -0.00012837958269865137 0.0
0.001362222271462809 -0.00013047251311016782 0.0
0.0011498872161767094 -0.00010416339444712072 0.0
0.0011742510035686344 -0.00010581077485659976 0.0
0.001180143016404454 -8.815451335863172e-5 0.0
7.397362858133093e-5 -1.2517895044690632e-6 0.0
0.0005515540736745646 -0.00018117487038392396 0.0
0.0003984966577186682 -0.00015067563641378462 0.0
5.875409953121509e-5 -2.0158482480968405e-5 0.0
7.892785700364608e-5 -2.9911344880415695e-5 0.0
0.0003325348466506037 -8.603121783973006e-5 0.0
0.0010324601615040395 -7.042725778973184e-5 0.0
0.0010588244690798688 -8.012625300312427e-5 0.0
0.001101868938017174 -0.00011221632572065701 0.0
0.001159436835710835 -0.0001247062968809912 0.0
0.0005248470464183561 -0.00017645445253595027 0.0
0.0005775456262090595 -0.00018574711602717885 0.0
0.0005909632404282627 -0.00018564172769403763 0.0
0.0012796885163948526 -0.00014638047753092506 0.0
0.0012685779585961848 -0.00016763767222215 0.0
0.0012469346304942752 -0.00018525031625302087 0.0
0.0014113628483120642 -1.5687377460221656e-5 0.0
0.0013860631848422258 -1.6274365855950787e-5 0.0
0.0013543816417006108 -2.2461603549908402e-5 0.0
0.001357951152319872 -1.6443747744840206e-5 0.0
0.0002876876469484819 -7.869301009322004e-5 0.0
0.0013065834340064968 -1.490792418521547e-5 0.0
0.001274179500639983 -1.450098547936136e-5 0.0
0.0008781660076197775 -0.00017361478128423256 0.0
0.0001857304336045836 -7.423148774973978e-5 0.0
0.0001702099046291387 -6.646295082211381e-5 0.0
0.0001648275055431101 -6.0390726790593626e-5 0.0
0.00015346654315976426 -5.7990882069454043e-5 0.0
0.0015384257947485983 -6.131515416010146e-6 0.0
0.001496968826314385 -5.33298307407391e-6 0.0
0.001521983449072179 -2.5645776779169545e-6 0.0
0.0012075334653253583 -0.00020715805575131116 0.0
0.000635883553497593 -0.00010754439133748664 0.0
0.001289262009460442 -0.00015231499506701 0.0
0.001279425472796785 -0.000172966904802218 0.0
0.0012990802425388091 -0.00015837579825582766 0.0
0.001291466227127387 -0.0001818866667333977 0.0
0.001311952801420083 -0.0001635560402035447 0.0
0.0013203143911387227 -0.00014181727477558084 0.0
0.001331302933079138 -0.00014841589694144334 0.0
0.0007118489237946049 -0.00021280279056229293 0.0
0.0006981613324619382 -0.0002157537244288947 0.0
0.0006802123316664933 -0.00020812641495569954 0.0
0.0005396273579060099 -9.832181914188535e-5 0.0
5.4346075400725354e-5 -1.4719753017605093e-5 0.0
7.66681748174493e-5 -2.151943582256501e-5 0.0
5.673367203338063e-5 -1.559841595306307e-5 0.0
0.0005141356186296545 -0.00017868139449793452 0.0
0.0005000329681510469 -0.0001723317193287993 0.0
0.0014458473297562563 -8.52715158825593e-5 0.0
0.00012592106454052443 7.379812575515451e-6 0.0
0.0007892985857410805 -0.00010155408143207992 0.0
0.0007937482517929858 -9.592783890322017e-5 0.0
0.0014036312585247656 9.472411169213233e-6 0.0
0.0014586836218960818 7.4541572801407055e-6 0.0
0.0012937677858255092 -0.00010090505337794071 0.0
0.00029615560819384114 -0.00011118819434732219 0.0
0.0003010600931152713 -0.00011823129429670143 0.0
0.0010699520201725085 -0.00011634811653164274 0.0
0.0012214556874882115 -7.60254172146561e-5 0.0
0.0014874891798856767 -5.9336243912751076e-5 0.0
0.0015202425758942787 -3.564803841544786e-5 0.0
0.0015363621587384149 -1.9270609327067233e-5 0.0
0.0011637996114814305 -7.853922096644019e-5 0.0
0.0012509484455846987 -8.919626901459184e-5 0.0
0.0006810053778553822 -0.00018668912152086583 0.0
0.001294265142435049 -2.9043060354597283e-5 0.0
0.001202510171775502 -0.00010191309785834825 0.0
0.000489676226879106 -0.00013148902200688393 0.0
0.0003033545975076645 -0.00010641560210887983 0.0
0.0014392199463805048 -1.3813398312137557e-5 0.0
0.0012160199145933809 -3.9896328514678784e-5 0.0
0.0004996709299654316 -0.0001782865184679053 0.0
0.0002586511679011889 -7.154045536550637e-5 0.0
0.0008253401327020391 -6.853051555523741e-5 0.0
0.0011844492824245113 -0.00019791168803939694 0.0
0.0011799536292780115 -0.0002136567590598692 0.0
4.0719015937589276e-5 -1.2749946984254333e-5 0.0
0.0008991147397497129 -0.00022123642397556612 0.0
0.0008949453061746678 -0.00023168785161169035 0.0
0.0005915117712784997 -0.0001930910318749629 0.0
0.0006057566381597718 -0.00019222614000880835 0.0
0.0006043315665715439 -0.00018545484557755168 0.0
0.0006190242906708325 -0.00019171712871953578 0.0
0.0006071945131061586 -0.00019854395726312668 0.0
0.0005765166846031886 -8.340820438240436e-5 0.0
0.0005448031057479221 -7.860688083203115e-5 0.0
0.00024008731620729876 -5.508684069407944e-5 0.0
0.0005663754111089645 0.0001504659954648145 0.0
0.0005453051267800463 0.00012594936099409853 0.0
0.0009915942969210157 -1.7630103648833872e-5 0.0
0.0011543571171103277 -0.00022267352603794492 0.0
0.001138563910116383 -0.00023105371070877625 0.0
0.00015710141911812826 -6.406635354590717e-5 0.0
0.0001407182158197023 -5.5079958989278286e-5 0.0
0.0015315212419635953 -3.1666904537797172e-6 0.0
0.0002797494452323541 -8.205127275819865e-5 0.0
0.0002553504727869291 -7.503260115856817e-5 0.0
0.0014568937432253178 5.164362016654758e-6 0.0
0.0014244596380960889 -8.688215392030232e-5 0.0
0.0014100622389278178 -0.00011338407088343085 0.0
0.0008448815954951872 -6.658904242767695e-5 0.0
0.0009394378778914158 -0.0002317879964526614 0.0
0.0009198481533717102 -0.00023908128444045037 0.0
0.00046097691542251485 -0.00010689512765858452 0.0
0.00046460684283048493 -0.00010415263106559322 0.0
0.000618588554408918 -0.00018512929084428653 0.0
0.001297585743383175 -0.00012300597253752193 0.0
0.0007545922904046381 -9.030289689805385e-5 0.0
0.00073993544164548 -9.018483313840247e-5 0.0
4.7959024298970584e-5 -1.703625544040501e-5 0.0
0.000595539978379287 0.0002512601179204667 0.0
0.0006984526396865729 -9.672841901153421e-5 0.0
0.0005135893268316 -8.25662643685717e-5 0.0
0.0005151645965304294 -8.632157574479186e-5 0.0
0.0003143888784952527 -6.407404764786098e-5 0.0
0.0009412415660526262 -4.605800933734336e-5 0.0
0.0006565884148282192 -9.181323368732612e-5 0.0
0.0006620032758725595 -8.993263656991504e-5 0.0
0.0006794750597509753 -8.912272433456877e-5 0.0
0.0006844659409459609 -8.733512451476099e-5 0.0
0.0007012212003151402 -8.608505602549396e-5 0.0
0.0007065499500337248 -8.421213317897054e-5 0.0
0.0006895805736249398 -8.56980260303683e-5 0.0
0.0007120525594372264 -8.26680534566446e-5 0.0
0.0006950904420399398 -8.441674638022214e-5 0.0
0.0007181263978962589 -8.140927271773951e-5 0.0
0.0007217191172446092 -8.28153864863663e-5 0.0
6.183924895841224e-5 -1.1100677637779879e-5 0.0
0.0009061995675099482 -5.899574591345115e-5 0.0
0.0006426200984244095 -0.00010422339665815365 0.0
0.0007076567651979565 -7.51372969102746e-6 0.0
0.0007625390071361232 -3.480462304421671e-5 0.0
0.0007582941185949538 -5.330283966501147e-5 0.0
0.0007546382353220279 -2.424980244406089e-6 0.0
0.0007184565737684847 -5.3911550755067996e-5 0.0
0.0007597312441246015 -6.37319588370265e-5 0.0
0.0008021019253637617 -6.382787373585537e-5 0.0
0.0008011884021726795 -2.381648684322719e-5 0.0
0.00011877825473052347 -3.364387116324432e-5 0.0
0.00012208787658042242 -3.512750681395285e-5 0.0
0.0015320184698171455 4.845606588933562e-6 0.0
0.0014708069767404718 7.79624886673139e-6 0.0
0.0014705062802840368 6.416123516406014e-6 0.0
0.0011085083809307466 -0.00023320369536350267 0.0
0.0010872532295267067 -0.00023992307795614145 0.0
0.00042024389080035464 -0.00013020925941324417 0.0
0.0004342555290179826 -0.00013074158607710704 0.0
0.000405896073256347 -0.00012938465323184478 0.0
0.00048356172404170856 -8.264340132523886e-5 0.0
0.0007998718040869827 -5.380756552146102e-5 0.0
0.0007354774260634057 -7.912666595802542e-5 0.0
0.0007405359913045134 -7.802409957513865e-5 0.0
0.0007242166122454806 -8.044381935059264e-5 0.0
0.0007460093245103123 -7.728675525603326e-5 0.0
0.0007312347688740162 -7.951863751329716e-5 0.0
0.00042936871202823977 -0.00015449290903691684 0.0
0.001531744438805332 4.056606012877658e-6 0.0
0.0007665139493925109 2.68795597422321e-5 0.0
0.000978315206856185 -2.5189562307489632e-5 0.0
0.0009719791344126808 -1.925074939674435e-5 0.0
0.0009565935189449859 -2.7447406520220955e-5 0.0
0.0005109301193651878 4.718142801767489e-5 0.0
0.0007208637282342554 0.00010468384916255738 0.0
0.0006662030553207847 0.00011269100916555411 0.0
0.0006512086574400498 0.00012867685475310083 0.0
0.0011222988253112318 -0.00012136241901376862 0.0
0.0012269108609633537 -0.00019591702910002167 0.0
0.001218500769545987 -0.00021564964920249994 0.0
0.000411590974127925 -0.00015712670217618953 0.0
0.0006332848236916793 -0.00019135215313585428 0.0
0.0006347789310330948 -0.00019868183169498838 0.0
0.0006478494614245428 -0.00019806420604233529 0.0
0.0006511787037049001 -0.00020677339737644023 0.0
0.0010857764283855342 -5.127778092352717e-6 0.0
0.0010594364840473443 -1.9912641354579695e-6 0.0
0.0010908851204468192 1.470902376955675e-6 0.0
0.0011205794340577494 -2.3758254824280016e-7 0.0
0.0008144020866217333 -9.133039049675343e-5 0.0
0.0008012138534374499 -9.029556011682029e-5 0.0
0.0006626681929488272 -0.0002044644194847613 0.0
0.0004916292906639863 -9.404738312483932e-5 0.0
3.40972006852213e-5 -9.843926102149328e-6 0.0
0.0007100974642429747 -7.377188053267535e-5 0.0
0.0007382066008936116 -7.6489262271848e-5 0.0
0.0007321314610666122 -7.847799263693272e-5 0.0
0.0007634705682182348 -7.595854091594227e-5 0.0
0.0007555193614368479 -7.67759359795351e-5 0.0
0.0007699289459823462 -7.4631183146918e-5 0.0
0.0007296435305451644 -7.931605560122704e-5 0.0
0.0007488434740069326 -7.729254896685698e-5 0.0
0.000792098220892395 -7.270122337102409e-5 0.0
0.0010328519860127677 -6.082022426395108e-6 0.0
0.0007252057737788288 -8.00994273159744e-5 0.0
0.0015538715322650257 2.2601441361283646e-6 0.0
0.0006090627484095647 -9.64395336204011e-5 0.0
0.0007034692475327445 -0.0001777000034704062 0.0
0.0007205587066221601 -0.00017526399089638924 0.0
0.0007462590438831698 -7.346099147058715e-5 0.0
0.000781005618801591 -7.218771837146856e-5 0.0
0.0008486960057117562 -9.311095942154538e-5 0.0
0.0010761645177983946 -0.0002004869081876464 0.0
0.0010571860227251869 -0.00020952319512032957 0.0
0.0010558169358362351 -0.00022424838505972827 0.0
0.0010399331892780143 -0.00021824901325211577 0.0
0.001039526825982701 -0.00023184596156825295 0.0
0.0010230369893099592 -0.00022656173638437835 0.0
0.0012527702905890108 6.0676303073863276e-6 0.0
0.001224402869215851 1.631511025927325e-6 0.0
0.0012377052103989396 -2.011421636790221e-6 0.0
0.0011965374413381218 -4.283854057004299e-6 0.0
0.001207969687181508 -8.515640059365591e-6 0.0
0.0011675079412679053 -1.1616606504382373e-5 0.0
0.001179077133437833 -1.6154038424929567e-5 0.0
0.0011561970626620115 -7.404590343070286e-6 0.0
0.0011285054448528056 -1.5228505233670144e-5 0.0
0.0012181471635787625 -1.3104008241610241e-5 0.0
0.0011175865226898596 -1.127540279127488e-5 0.0
0.0011885542614842267 -2.1147425229395088e-5 0.0
0.0011518750392027909 -2.458957658729882e-5 0.0
0.0011592745378302858 -3.0072428120128547e-5 0.0
0.0011449383752629408 -3.9706982276791235e-6 0.0
0.0012096108400019643 4.76697442953865e-6 0.0
0.0012275475857321467 -1.8396534981629595e-5 0.0
0.001282779438936352 -1.12545989122503e-6 0.0
0.0012545278953311708 -1.0867228260954523e-5 0.0
0.0009035352215960918 -4.313708692601194e-5 0.0
0.0006815601637601657 9.646532404862182e-5 0.0
0.00010229804959249976 -2.926887495187153e-5 0.0
9.246738480182745e-5 -3.362149055440351e-5 0.0
0.00011043836562793041 -4.262525514293191e-5 0.0
0.0006612366753899815 -0.00019708500373166277 0.0
0.0008675704195883556 -9.491793138364822e-5 0.0
0.000895778396135661 -4.2371171604034684e-5 0.0
0.0008693117098273585 -4.991307029427589e-5 0.0
0.0008800721521410172 -4.719565224990783e-5 0.0
0.0008631840826395622 -5.1628481300590705e-5 0.0
0.0008799057275105307 -4.7957426020864204e-5 0.0
0.0008552460299026812 -5.416660537735818e-5 0.0
0.0008475638801449543 -5.6930242955635664e-5 0.0
0.0008336478287346349 -5.9421312254813944e-5 0.0
0.00012080403028487251 -4.192561494405656e-5 0.0
0.0009852305868050396 -1.3663304136506137e-5 0.0
0.0011568682391243368 8.766380319747819e-6 0.0
0.001113212222693902 6.815905868011164e-6 0.0
6.902241665563075e-5 3.896389273016444e-6 0.0
0.00015043241016118294 1.6141157667268723e-5 0.0
0.0001316206152970685 1.2707848042861416e-5 0.0
0.0009857368115398055 -2.1433310541052677e-5 0.0
0.00015386284051372272 -5.2309487847748963e-5 0.0
0.0001759963728945428 -6.230374523025064e-5 0.0
0.00018978058717649307 -6.611560628827716e-5 0.0
0.00018834218880368976 -6.234939978409835e-5 0.0
0.00020268334437555314 -6.546320812333803e-5 0.0
0.000686534380652637 -8.383664973159477e-5 0.0
7.303999085941706e-5 -5.125832879297635e-6 0.0
0.00033670957340678926 -8.257808047912785e-5 0.0
0.00028067881148713484 -7.352131744817096e-5 0.0
0.0007878783955807613 -6.875184784898204e-5 0.0
0.00028879147551631745 8.907162602110224e-5 0.0
0.0010319302895464217 -0.00019955788254345455 0.0
0.0009544014498141745 -2.4066108917984484e-5 0.0
0.0014593194621606849 -8.432113464380065e-5 0.0
0.0011410578843285904 -1.954683136336002e-5 0.0
0.0011026603762186702 -2.3596579933058036e-5 0.0
0.0010715867611451723 -0.00023193517980864907 0.0
0.0015581102412655968 1.5068876413773048e-6 0.0
0.0015186131024529977 2.1655048505483783e-6 0.0
0.001527023403043994 8.292348809619111e-7 0.0
0.0015116472634967794 3.4874226452481427e-6 0.0
0.0014824789674207721 1.5581378861498418e-6 0.0
0.0015065497521075985 4.628566766152621e-6 0.0
0.0014616357889962821 5.594191118010181e-6 0.0
0.0014709749242135149 3.7236977631125098e-6 0.0
2.3710100381533955e-5 -6.207988916284474e-6 0.0
0.001573531403953827 -1.1993864435144628e-6 0.0
0.001545701451453295 -2.960651701496749e-6 0.0
0.0015628772619904869 -8.140600029043044e-7 0.0
0.0015475801381831908 -3.4085057765038396e-6 0.0
0.0009697893638766424 -1.658035628214795e-5 0.0
0.001125750003387737 -0.0002231854695414423 0.0
1.8955647220162884e-5 -4.97816552289424e-6 0.0
0.001578860205075869 -1.6538701895529676e-6 0.0
0.0005699125736915901 1.627366164932011e-5 0.0
0.0012188279121872923 9.971319735701143e-6 0.0
0.00047219192789175026 -5.5664814552560555e-5 0.0
0.000512476450219941 -5.5566509575712176e-5 0.0
0.000511129594267971 -4.110216143183011e-5 0.0
0.0005119198849376761 -6.559428305838719e-5 0.0
0.0005465316226491986 -6.640003722110718e-5 0.0
0.0005569144927331179 -5.7568640556186234e-5 0.0
0.0005538652679393424 -4.21208709328406e-5 0.0
0.0005121061539301297 -2.4594952350980634e-5 0.0
0.0004751796495366395 -3.4988223935466154e-6 0.0
0.00047721278897953055 -6.768303848793748e-5 0.0
0.001262151120167173 -0.00018639369761590534 0.0
0.0015532065412728056 3.19013741769158e-6 0.0
0.0006196462204633972 -0.0001786361064776623 0.0
0.0002348709967047393 -9.639448472597817e-5 0.0
0.0006769400594957582 -0.00017874909441040592 0.0
0.0005375081686104745 -0.00017580560298268187 0.0
0.0005376738043565777 -0.00018187463636714217 0.0
0.0007630345668703988 -7.43211655768333e-5 0.0
0.0009767962573980328 -3.106571537244554e-5 0.0
0.0013442362546398933 -2.92700658042498e-7 0.0
0.0013577591964614188 6.185028299894566e-6 0.0
0.0013064748484613053 7.4269255443492845e-6 0.0
0.00011865291100596178 -3.325293630085975e-5 0.0
0.00022063686702397233 -9.283426766430527e-5 0.0
0.0006747270075141714 0.00019244028108468043 0.0
0.0006054297409001338 0.0001894792135049554 0.0
0.0012185944064044916 -8.15706962181001e-5 0.0
0.0006758290812086962 6.772667106815404e-5 0.0
0.0013833288741830266 -8.29215724969741e-5 0.0
0.0006725032150018183 -0.00015216838031507297 0.0
0.001174181580277855 -0.00011430514016906873 0.0
0.001189404036943252 -9.149426352127762e-5 0.0
0.0005232557133153523 4.929245577665277e-6 0.0
0.0004004200118906702 -0.0001575879458232123 0.0
0.0013677895208137484 -0.00010824017951189918 0.0
0.0002570672529599355 -9.892724586270106e-5 0.0
0.000270808145158786 -0.00010597568676375889 0.0
0.0002633181056008897 -0.00010677687069963077 0.0
0.0003966946632340784 -8.932105744837691e-5 0.0
0.0008614137266279478 -5.520962811997944e-5 0.0
0.0009589921456359421 -2.950229014996403e-5 0.0
0.0006215923205395089 -9.08097072394443e-5 0.0
0.0006428689764203961 -9.05450996702214e-5 0.0
0.001527945568476896 2.3502564102575927e-6 0.0
0.0014553183262256879 -1.3750366512620104e-6 0.0
9.133478839588688e-5 6.672004361162083e-6 0.0
2.373396461611425e-5 -6.2167649962426055e-6 0.0
0.0007281103075562524 -8.0874060114134e-5 0.0
2.778381052959335e-5 -7.362574563854543e-6 0.0
6.540571891390623e-5 -1.701346621806753e-5 0.0
0.0006696335959453677 -0.0001719901683929973 0.0
0.0010967306307097797 -0.00011977878975696041 0.0
0.0007403328384316262 8.734240172987989e-5 0.0
0.000907269335796036 -8.93306729878337e-5 0.0
0.0007556850546050883 -7.59126725236577e-5 0.0
0.0012106878860197307 -7.216651456045196e-5 0.0
0.0014421055577210128 -6.333192779235758e-5 0.0
0.0004735055585445214 -0.00013126064458878812 0.0
0.00047443891633972457 -0.00013646855675546304 0.0
0.0004582409087493224 -0.00013037986289171036 0.0
0.0004413476372094571 -0.00012443571432891573 0.0
1.9292074857597942e-5 -5.158270874887991e-6 0.0
3.491755321133225e-5 -9.708942990421408e-6 0.0
3.938190308460427e-5 -1.0728945828917912e-5 0.0
0.00042019778951688305 -0.00010432121174106818 0.0
0.00039955930036245394 -0.00010279094779463307 0.0
0.0015751430532905796 -1.3167503728940257e-6 0.0
0.0007975241701054091 -0.00022881991339222685 0.0
0.0007839727525005944 -0.0002208224009283244 0.0
0.000784610526503966 -0.00023238054699348845 0.0
0.0007705035669436 -0.00022397680696579347 0.0
0.0007571439725934773 -0.00022636507465787525 0.0
0.0007551660732469563 -0.000216045829426752 0.0
0.0007834419042871192 -0.00021038931919876254 0.0
0.0011549990215302536 -9.977387312516525e-5 0.0
0.00020209819992514903 -4.5638691989604147e-5 0.0
0.00023756788464403722 -5.780207482100557e-5 0.0
0.0002084816781617303 -5.2915212455296205e-5 0.0
0.0009314484074987252 -8.330542026172875e-5 0.0
0.0004486880638111634 0.00013192132556332487 0.0
0.0007611813925209927 -9.939171574757853e-5 0.0
3.0383317507784255e-5 -8.091006169514151e-6 0.0
0.00048746684527118403 -0.0001722485875642895 0.0
0.00047368316550284756 -0.00017138295757903078 0.0
0.00047687474547066037 -0.00016618909490029229 0.0
0.0005367676719628882 -0.00016998224642169829 0.0
0.0004747795379721454 -0.00012584152335817685 0.0
0.00023243681445964898 -6.575382550402758e-5 0.0
0.00014328632173072684 -4.232319093656557e-5 0.0
0.0015646840925161252 2.696989350156005e-7 0.0
0.0015356601779508818 -2.4250898493682817e-7 0.0
0.0003262252909837542 -0.00012658032375534626 0.0
0.00038355563522672224 -0.0001433879766762701 0.0
0.00037076193473834467 -0.00014300521994033597 0.0
0.00035502757105705435 -0.0001353538197575857 0.0
0.0003572607484513243 -0.00014185284700097758 0.0
0.0010409683932290656 -0.00010047167629067835 0.0
0.0007854151407363063 5.23942603706808e-5 0.0
0.000957824474614141 -0.000225900598728741 0.0
0.0009740972379420099 -0.00023363053520370863 0.0
0.0009915719093513463 -0.0002276287912393281 0.0
0.0009540093348793105 -0.0002409880944673881 0.0
0.0005066147726190355 -0.00013256775563237196 0.0
0.0008334753714752434 -0.00016837817969805278 0.0
0.0007150365331119168 8.055527517178844e-5 0.0
0.000698099544590819 -8.088338603244316e-5 0.0
0.0015797740357369663 -2.09711657375684e-6 0.0
0.0015604204765988217 -6.170541949027683e-6 0.0
0.0015526643268513405 -5.459176705758359e-6 0.0
0.00034200630789835634 -0.0001343341895936523 0.0
0.00032949357011739577 -0.00013296874604141307 0.0
0.0005071872747981463 -7.666164433906316e-5 0.0
0.0004254515843583695 -0.00012406225486246566 0.0
0.0014419219800663949 -3.069235650495621e-5 0.0
0.0012589780807746957 -5.3663935316926277e-5 0.0
0.0007148838408327243 -8.506994065878343e-5 0.0
0.0007350348927784705 -8.151146105866015e-5 0.0
0.0010083677980648447 -5.6691204593656575e-5 0.0
0.0010998990561923896 -0.00017699149981941604 0.0
0.0006553916579100344 -0.000154336888059881 0.0
0.0006554755116363044 -0.00016139857850465056 0.0
0.00017965633156878807 1.7330608135276547e-5 0.0
0.000393533730541615 -0.0001218109010627609 0.0
0.0003773362599645371 -0.00011975901722080054 0.0
0.0003598720703622253 -0.00011307075844988096 0.0
0.00036150213207545163 -0.0001181695035841978 0.0
0.00031439829923020634 -5.803152844687731e-5 0.0
0.0003140578961874398 -4.9945345367509165e-5 0.0
0.00035344726412036957 -7.31223125328219e-5 0.0
0.0009714391226854923 -0.0002477494689381266 0.0
0.0009242506220941083 -0.0001735052946982914 0.0
0.0009036201633728261 -0.00017962842022932764 0.0
0.0009236546213209671 -0.00018741193121892913 0.0
0.0009031643352851912 -0.00019351482005658995 0.0
0.0009172560930217774 -0.00019947907388046356 0.0
0.0009432637735761064 -0.00017910435440719565 0.0
0.0009619081271663199 -0.0001840577975053518 0.0
1.591304228869117e-5 -4.484638645256194e-6 0.0
0.0015830709773179653 -3.2936865949611814e-6 0.0
0.0012369030552655752 -0.00017669386747713305 0.0
0.0008677132419908585 -0.0002301382203296604 0.0
0.0014614355317924123 1.208743460594074e-6 0.0
0.000839833399929176 -0.00021604371731592385 0.0
0.0008384174880590449 -0.000227701890001318 0.0
0.0011182222640041494 -9.59317798769857e-5 0.0
0.0009983445314984997 -6.424860143808916e-5 0.0
0.000978983653973375 -6.371065974558736e-5 0.0
0.0004955965541411732 -0.00015947035829135217 0.0
0.00031148127108650807 -0.00010212053852629911 0.0
0.0011214669933962435 -3.454129916492419e-5 0.0
0.0011874238049171153 -0.00018083459012644486 0.0
0.0005478640080331075 -0.00011663752583168167 0.0
0.0005657580594349892 -0.00011566730668339685 0.0
0.0005630264491385911 -0.00011973839075038558 0.0
0.0005691310205359303 -0.00011198042043148568 0.0
0.0005454451689534917 -0.00012072622516914824 0.0
0.0005830286676037947 -0.0001149147337269751 0.0
0.0005874759921455989 -0.00011137825468098794 0.0
0.0005948261340905016 -0.00010761443699524583 0.0
0.001170611035570224 -4.052916619202509e-5 0.0
0.00016484293852257262 1.8631018078549883e-5 0.0
0.0010908993628060354 -1.9585673357365993e-5 0.0
0.0011826504369324628 -7.338787228377628e-5 0.0
0.00033940859455114803 8.966221379182515e-5 0.0
0.00023732141810349505 -3.622429140648669e-5 0.0
0.00035275361202537887 -6.083482239293997e-5 0.0
0.00027714383603260056 -9.216197905979262e-5 0.0
0.0005520337635607437 -0.00010950994015933104 0.0
0.0004446931399070609 -0.00010030257767698963 0.0
0.000472597218763111 -0.00010189141427232683 0.0
0.0004878280504984744 -0.0001054594715905432 0.0
0.0007255294434341378 -0.0002111110117936063 0.0
0.0007414952699401022 -0.00021812773523534752 0.0
0.0007428696503340411 -0.00022934826564714533 0.0
0.0007545788755322491 -0.00020680214205367835 0.0
0.0011657160756922194 -0.00018938293963633178 0.0
0.0005878311990605892 -9.61529014129524e-5 0.0
0.0010833057692468987 -7.658754773841527e-5 0.0
0.0005359564364150579 -0.00016411860707901758 0.0
0.0007832367073185308 -0.0002003187894896676 0.0
0.0005627391517039848 -0.00018669121756810687 0.0
0.0014255818467231935 7.6547988626604e-6 0.0
0.000742601455943761 -0.00010315090954752521 0.0
0.00020879763866079028 -5.872450841087886e-5 0.0
0.0005742514718554675 -0.00014361477119410228 0.0
0.0005897584923211552 -0.00014835891932271232 0.0
0.0005430238445570042 -0.00013464283124254848 0.0
0.0005767141577178916 -0.0001744327032387716 0.0
0.0008646707895074558 -0.00012596999059997545 0.0
0.0008445696390586008 -0.0001313620278437685 0.0
0.0008611877396551099 -0.00013479250927265408 0.0
0.0010807417955303563 -1.5928035351887705e-5 0.0
0.0006731162067861059 -0.00014544339649445937 0.0
0.0005105105987402483 -0.00012601173319885388 0.0
0.000869199563257406 -6.0741132186035236e-5 0.0
0.0008610682123950675 -6.579497522472219e-5 0.0
0.00022343414222017116 -7.334110678037487e-5 0.0
0.0004276375177574114 -0.000148202097759088 0.0
0.0009942132822758232 -0.00021298580778336926 0.0
0.0009033725987292447 -4.001776693946027e-5 0.0
0.000771701243964397 -0.0001577560625656902 0.0
0.0007548235699630746 -0.00016117035106761045 0.0
0.0007540674229346181 -0.00016985499799148374 0.0
0.0007378550245001779 -0.00016424124085510973 0.0
0.000737595304549612 -0.00017289938827832368 0.0
0.0007696872262558234 -0.0001753486729331054 0.0
0.000965378807577056 -1.8372552651519162e-5 0.0
0.0006255333437333585 -0.000128956483046525 0.0
0.0006086748986433519 -0.0001307238244514425 0.0
0.0008313857617663315 -0.00012031946284878339 0.0
0.0005262850910302122 -0.00013495705807457182 0.0
0.0008245828655195555 -0.00023226328075116702 0.0
0.0006387319198324384 -0.0001496994918106523 0.0
0.0007388189008372639 -0.00015615918063645136 0.0
0.0010541134796656147 -0.00023907353999441715 0.0
0.000688040439511334 -0.00010801906480042841 0.0
0.0014749966951881862 -9.651471134081546e-6 0.0
0.0007430939516316486 -0.00013439201383940466 0.0
0.00037386038301699686 -0.00010268353670580317 0.0
0.0008210002413176605 1.550260168281653e-5 0.0
0.0010381703204035508 -0.000185475090557671 0.0
0.0014089480559276511 5.329535430202778e-6 0.0
0.00024148405797445248 -1.440335847274747e-5 0.0
0.0002494475787706591 -2.4851336327280216e-6 0.0
0.00028186092004748523 -2.5189228579010733e-5 0.0
0.0002965244347261724 -1.2017183108633218e-5 0.0
0.0003283358494325733 -2.579534049237243e-5 0.0
0.0010657675808346777 -2.8270554294640415e-5 0.0
0.0006217165871660621 -0.0002001899807068778 0.0
0.000707215930195514 -0.00010516541577110406 0.0
5.5104266830218836e-5 -1.474964683474383e-5 0.0
0.0006897865059643611 0.0001411198397463794 0.0
0.0006296544882647006 0.0001448833574154873 0.0
0.0010391784913667769 -9.169073219690347e-7 0.0
0.000604904680235375 -0.00017292735686175815 0.0
0.0006826883120020285 -0.00020094839986776637 0.0
0.0006305374725647061 -9.639339868735853e-5 0.0
0.0008151087700523663 -0.00011776977479371916 0.0
0.0007975325833045164 -0.00011504692601635631 0.0
0.000802504478208352 -0.00010806827019424187 0.0
0.0009520110044687541 -2.639225990535774e-5 0.0
0.0005752332911789425 -0.00014968181757582066 0.0
0.0004235800340211508 -9.630273956746601e-5 0.0
0.0005933498425114877 -0.00012227814980495007 0.0
9.863456713051782e-5 -2.8705880329997617e-5 0.0
0.0008127420392576336 -6.896969744812087e-5 0.0
0.0003520208554488567 -0.0001286816395891728 0.0
0.0007818608126357344 -0.0001205055832057678 0.0
0.0004979571277513435 -0.00016571952698989803 0.0
0.0010425056657334963 -6.398696345692937e-5 0.0
0.0007144068342257289 -0.00012206349418342545 0.0
0.0007209609429090697 -0.00016700815711248308 0.0
0.0013461949634345817 -6.403692056284693e-5 0.0
0.00031504871491087134 -0.0001253582988874718 0.0
0.001474443440284431 -8.472055477267695e-5 0.0
0.000616940396150892 -0.00010810549916721895 0.0
0.0007098447242707056 -0.00013395003402735155 0.0
0.0001586364858938009 -4.416337493371002e-5 0.0
0.0013508123027383395 -2.9467636083831505e-5 0.0
0.0008146828392161553 -0.00018235531874630475 0.0
5.65026612114187e-5 -1.524704446221749e-5 0.0
0.0007750101763961011 -8.615356089546228e-5 0.0
0.0007713279803363047 -8.989177388532809e-5 0.0
0.0014631340185750413 -6.110913274586797e-7 0.0
0.0008120924390677147 -0.0002370458059578535 0.0
0.0002962014774168608 -9.987047811993014e-5 0.0
0.0015198079306008847 -1.3842174534536226e-5 0.0
0.0007856742083511094 -0.0001065789594328809 0.0
0.0007327216470445619 -0.00011909272506021303 0.0
0.0008889702740581098 -0.00016346581681786956 0.0
0.0008711357345554865 -0.00015851926049959288 0.0
0.0008191788113685103 -0.0001632564484311245 0.0
0.0007039374402652816 -0.00010969843822092215 0.0
0.0008432048706073247 -0.0002478764466442927 0.0
0.0009075443465393502 -0.0002518123012223712 0.0
0.0006617523278992226 -0.00021761068926653038 0.0
0.0007079855227214833 -0.00022656795223049907 0.0
0.001014543395232789 -0.00025267842625943963 0.0
0.0010068253206687821 -0.00023708994049088803 0.0
0.0005387640906565352 -0.00018828651866220197 0.0
0.00044076537808415944 -0.00016921588247287815 0.0
0.0008740666828920732 -0.0002501865446551086 0.0
0.0005697602996689462 -0.00019558482403247691 0.0
0.0006543501384400308 -0.00010076343411081976 0.0
0.0013154101541900472 -8.678932417398458e-6 0.0
0.001040774092231557 -0.00012611715539696987 0.0
0.0010337309173211549 -0.000139418564257766 0.0
0.0005610166190007932 -0.0001243778394806684 0.0
0.0008940819825076951 -0.00010358164348272244 0.0
0.0007229832227643465 -0.00018372635299574385 0.0
0.0004070765502248219 -0.00013797934792416034 0.0
0.0003179491565463287 -9.16934559498499e-5 0.0
0.0006450858085263445 -0.00012194786360958649 0.0
0.001347921271705391 1.0862350468885965e-5 0.0
0.0005954984328012419 -5.6107969228594495e-5 0.0
0.0007266178067766274 -0.00010201572840008462 0.0
0.0008284543346158307 -0.00012856055990244 0.0
0.00012415062542345687 -4.670999383600425e-5 0.0
0.00012782351881883257 -5.2209957246132595e-5 0.0
0.0006371766989118204 -0.00016319770393074013 0.0
0.0005480165098743066 -0.00015184955451543172 0.0
0.0007593688336783379 -0.00013794272588841234 0.0
0.0014621999173570275 4.381295768592258e-6 0.0
0.0007973227152892673 -0.00020667970014803208 0.0
0.0015537972546341159 -1.570796570160714e-5 0.0
0.0015329645126668195 -3.515721467214256e-5 0.0
0.00046369282496736415 -9.077624374465712e-5 0.0
0.00065987244396382 -0.00012986733546869106 0.0
0.000689415059602508 -0.00014972110733507397 0.0
0.0014994339306703278 6.241149560812914e-6 0.0
0.0008406064137517385 -6.115915746135983e-5 0.0
0.0009822847473402692 -0.00017869586175547778 0.0
0.001011072192851524 -0.0001467987654782788 0.0
0.0004341600161583915 -0.00016180834877892351 0.0
0.0009216248946652193 -0.00012630968661134857 0.0
0.0006634852136216743 -0.0001196461317724533 0.0
0.0009686317381369805 -0.00011236585875766829 0.0
0.0009630438031053383 -0.00012304314480257242 0.0
0.000993238458367637 -0.00010477935145880682 0.0
0.00037140342507044203 -0.00014941141182333404 0.0
0.0011908036534852425 7.432422054379214e-6 0.0
0.0008516979583065669 -0.00023643761200075887 0.0
0.0012343634857440887 -0.0002038409820789367 0.0
0.001108199087752925 -7.83755861216183e-5 0.0
0.000745827323464993 -8.661324835240885e-5 0.0
0.0009040705988383629 -0.0002076552173608511 0.0
0.0005902232877369225 -0.0001545758972412444 0.0
0.0006292909459658966 -0.0001109426039323392 0.0
0.001440837425603966 2.5398438306143778e-6 0.0
0.00036255053742651627 -8.814181961670976e-5 0.0
0.0010737057032305381 -3.2702810844009435e-5 0.0
0.0007591214586594026 -7.566243270411177e-5 0.0
0.0009120777452051834 -0.00010514934732198325 0.0
0.0013703862335896085 -1.0064508373012548e-5 0.0
0.00014262941822233544 -4.050447302593551e-5 0.0
0.0010686243982601473 -0.00014973376761191846 0.0
0.0008927484037373633 -4.550751753501931e-5 0.0
0.0008792033004400582 -4.895702949300422e-5 0.0
0.0008722250801753487 -0.00019460721489267187 0.0
0.0008081280238746613 -0.00014151021693161456 0.0
0.0008284082511281585 -0.00018796616198849211 0.0
0.0010969717590885177 -0.00019245786587727433 0.0
0.00111222989214517 -1.49157752742182e-6 0.0
0.0008389224651247865 -6.408727383067737e-5 0.0
0.0010613498936658042 -4.920104414749513e-5 0.0
0.001309755577036631 -0.00010099170918847744 0.0
0.0013197788687794062 -8.267555982517591e-5 0.0
0.0007841912639555133 -7.103162297509091e-5 0.0
0.0005062605957699907 -0.0001473617991730357 0.0
0.0010920520276188359 -9.854224827389736e-5 0.0
0.0008239696684714896 -6.792368402530763e-5 0.0
0.0009167562336463861 -0.00013634121090375112 0.0
0.0015205929753530647 -2.178033338560919e-5 0.0
0.0002821345251049918 -0.00010293008144860141 0.0
0.0009095638945597971 -6.302709809244857e-5 0.0
0.0008050101755913594 -6.99868319669189e-5 0.0
0.0007894995276560573 -7.070489374958436e-5 0.0
0.00028315950359194175 -3.860525541783844e-5 0.0
0.0013850512725648017 -8.060888703459797e-6 0.0
0.0008037935753709631 -6.805188440186038e-5 0.0
0.0013651304381739828 -6.327417321322153e-5 0.0
0.000490748474751761 -0.00014187060937256317 0.0
0.001150138805898818 -0.0002385268265993384 0.0
0.0011785293354139865 -0.0002354174552755699 0.0
0.0004504838425059017 -0.00014183942374659052 0.0
0.0009521122068915669 -0.00014452376901777093 0.0
0.0006469340205721708 -0.00021410336691822523 0.0
0.0009488732055092969 -3.852019622646885e-5 0.0
0.0003033539812293376 -0.00012719346373380846 0.0
0.0008465904638925292 -5.7436882682890054e-5 0.0
0.0008234365392351307 -7.193918481564231e-5 0.0
0.0008471070197725121 -5.576251559825788e-5 0.0
0.0008420140374696824 -0.00014027119645929775 0.0
0.0010289415408317782 -0.00015235415109523604 0.0
4.437533199341141e-5 -1.799088824315752e-5 0.0
7.680884905281018e-5 -3.273515620100363e-5 0.0
9.201886613582403e-5 -3.970682606093634e-5 0.0
0.0014112173956465786 -0.00013416056764036232 0.0
0.00012310994846654143 -5.4132922484845716e-5 0.0
0.000460850495864759 -0.0001359947055990891 0.0
0.0002092910946748141 4.137594619488612e-6 0.0
0.0012487356360405078 -0.0002158249894309192 0.0
0.00026148592887940107 -0.00011128296237264725 0.0
0.0002899282670235713 -0.00012227687617435604 0.0
0.0013931275303598314 -0.00014531053545259204 0.0
0.0013579640273405288 -0.00016865285851892084 0.0
0.0008069305213984024 -8.542702842436519e-5 0.0
0.0005903543813502043 -0.00018003003974649377 0.0
0.0011050985299515454 -7.532510621994706e-6 0.0
0.0012799129889149508 -0.0002054374741095185 0.0
0.0012946652987480937 -0.00020040884095588922 0.0
0.00023359583973643286 -0.00010100411090997311 0.0
0.00016685248236722483 -7.291815968307614e-5 0.0
0.0013267984183679875 -0.00018512387783341976 0.0
0.001341556951448453 -0.00015574610930588336 0.0
0.0008819293166914971 -0.00023848845652388496 0.0
0.00019572500971353973 -8.54472249866527e-5 0.0
0.0010991289320531016 -0.00024950130138797996 0.0
0.0003163410060460518 -0.00010797183765277127 0.0
0.001243842408296162 -0.0001320156853612025 0.0
0.000457437655821767 -0.00016701816520534062 0.0
0.0011527486438960713 -0.00018166929359704864 0.0
0.0011839311837928445 -6.418100278177241e-7 0.0
0.0004576217634885823 -0.00011298035506033131 0.0
0.0003213342693969556 -9.558827717101106e-5 0.0
0.0005620398444712863 -0.00015699921867296123 0.0
0.0007257029031844866 -0.00013754688777285724 0.0
0.0012571692586351843 -3.7334831953062775e-5 0.0
0.0007691962798944583 -0.00021347045563117732 0.0
0.0008187162321098125 -6.600206436857084e-5 0.0
0.0008637854342788967 -5.43932332528188e-5 0.0
0.0009802928783718735 -9.194009382417964e-5 0.0
0.0011508812042942808 -0.00014149465597560574 0.0
0.0004677213849624225 -2.5312016458692615e-5 0.0
0.0010073401995622947 -1.4356070314076904e-5 0.0
0.0004937311469279596 -0.00011397750611467747 0.0
0.0012660936383194002 -9.34157379136162e-5 0.0
0.0003287377880498315 2.3413742180967157e-5 0.0
0.00027532851149633056 1.0672156100339003e-5 0.0
0.0007064432602188115 -8.245744951931421e-5 0.0
0.0013338395682951734 -1.5740824897769244e-5 0.0
0.0008496400495942944 -4.603025734907153e-5 0.0
0.0007891056249892516 -7.572526579720357e-5 0.0
0.001426769370597327 -1.9866712904035327e-5 0.0
0.0004233097992580865 -0.0001110092444086564 0.0
0.000521111955894744 -9.958918255351782e-5 0.0
0.0010593869752300823 -8.852694185888948e-5 0.0
0.001190141423754612 -0.00013516281068005605 0.0
0.00037279452113715515 -0.00010626342093472606 0.0
0.00023067022339606034 -7.902519425687729e-5 0.0
0.0011338010964204426 -0.0001358700885983481 0.0
0.0005429207545804923 -9.181817552627351e-5 0.0
0.0011288307558768558 -4.51788731676464e-5 0.0
0.0015614879139483704 -7.999440232688244e-6 0.0
0.0012471807430802645 -6.243166250688474e-6 0.0
0.0009052966945266447 -4.6411745318791554e-5 0.0
0.0009176395018520663 -3.922077287790835e-5 0.0
0.0009179559830822457 -7.554659351286221e-5 0.0
0.0013884615372018053 6.010139413250018e-6 0.0
0.0013598534631560127 9.633274324983049e-6 0.0
7.921102540346691e-5 -2.343234171622111e-5 0.0
6.062754910850037e-5 -1.7193650941612058e-5 0.0
0.0006045824273806266 -0.00017943194333216309 0.0
0.0009392616095474641 -0.00012982263573886772 0.0
0.0005823260869482181 -0.0001002835728335802 0.0
0.0005852816069065028 -9.816212637935993e-5 0.0
0.0006038658578337251 -8.631363471364716e-5 0.0
0.0007540073736272326 -0.00017887719250845165 0.0
0.0008862832205911338 -6.997486946895562e-5 0.0
0.0002743914566746363 -6.33620931559332e-5 0.0
0.0010402583924996683 -3.742423171883669e-5 0.0
0.0009313012117728953 -4.0076370638540726e-5 0.0
0.0006433295131499787 -0.00012687700871296203 0.0
2.842187680471637e-5 -6.5646201620764e-6 0.0
0.0007275360986046588 -0.0001310307768454831 0.0
0.0014161300516897144 -2.649153523462052e-5 0.0
0.001176466105055145 -4.6038515495100025e-5 0.0
0.0011152714624046974 -2.818932517956486e-5 0.0
0.0013458322485017204 -3.812415616216749e-5 0.0
0.0009603530947286201 -4.864479028508244e-5 0.0
0.0006065775426012115 -7.510155333107971e-5 0.0
0.00020615489348928118 -5.677847501851384e-5 0.0
0.0006874127947049779 -9.040899159656473e-5 0.0
0.0008214742371781088 -8.593934797356525e-5 0.0
0.000251369362533392 -7.636528429880281e-5 0.0
0.0006930264418992494 -0.00022371600209483418 0.0
0.0009322536273715859 -5.19654010906142e-5 0.0
0.00047687171673784135 -0.00014185275865768838 0.0
0.0011240854074640965 -0.00010175681932778583 0.0
0.0012806977795210227 -3.79214556503415e-5 0.0
0.0005433481160419607 -8.935979979380553e-5 0.0
0.0011424097458172006 -3.1299708398501276e-5 0.0
0.0008538297962283292 -7.090292230868086e-5 0.0
0.0007297052861047692 -0.0001248681842807096 0.0
0.0003070031843912172 -7.089385782970888e-5 0.0
0.0005392149130405876 -0.00010206063523352657 0.0
0.0007955200515019122 2.7334888172133614e-6 0.0
0.00021939626192909054 1.5248515030197818e-5 0.0
0.001100462281256334 -9.259586833081994e-5 0.0
0.00033339107468024126 -8.84442211154507e-5 0.0
0.0007479441462510974 -0.00012178794160092358 0.0
0.001262971576394467 1.0287560853606963e-5 0.0
0.0010392024549731862 -8.66175148944972e-5 0.0
0.0005818856502020446 -6.071929303203538e-6 0.0
0.00011025270215370473 -2.953914161249994e-5 0.0
0.00042462137676239843 -9.395249709695505e-5 0.0
3.407526309308886e-5 -2.18817233272749e-6 0.0
7.421779816968086e-5 -9.540033433897242e-6 0.0
0.0010354406846572915 -7.606334921979851e-5 0.0
0.0009269312133552993 -3.2448574171379555e-5 0.0
0.0005102475448026089 -0.00018438056171950627 0.0
0.00037700398556757297 -0.00012517090284767344 0.0
0.0012454593619879554 -2.1238352084466805e-5 0.0
0.00020188516007100155 -8.355817149807764e-5 0.0
0.0009981179346039506 -9.44944631559326e-5 0.0
0.0008302259647648022 -0.00017807654477954113 0.0
0.0012457334668426437 1.298995159445595e-6 0.0
0.0004670098598202424 -0.00015958193001872057 0.0
0.0013417794686286387 -0.00012510106262092764 0.0
0.0007935844131543871 -7.300374422704276e-5 0.0
0.0002800639521499324 -0.00011365567561325486 0.0
0.0010261494210697666 -0.00024083570664839882 0.0
0.0002856397280882229 -8.629233443131244e-5 0.0
0.0014574447978986079 -2.9147272127688087e-5 0.0
0.00021235041164519537 -6.276004495925704e-5 0.0
0.001064236019277371 7.240063110496634e-7 0.0
0.0009659002685962904 -4.2854803284153516e-5 0.0
0.0008801164590910523 -5.2315210105550894e-5 0.0
3.617043873289854e-5 -5.805148605702739e-7 0.0
0.0007376145871046666 6.316402098266117e-5 0.0
0.0004598505663210274 -8.75393180753272e-5 0.0
0.0011898173977300398 -0.00021898986890670283 0.0
0.0012058594964414718 -0.00023047045486331374 0.0
0.0001249250309390119 -2.180645869461974e-5 0.0
0.0008767788860558077 -6.510216589598448e-5 0.0
0.00039141569388640704 -0.00012661581835006353 0.0
0.0006252271864976831 -0.0001340964227925043 0.0
5.059232914250997e-5 -1.4778847792950871e-5 0.0
9.846215465551891e-5 -2.4341082409373626e-5 0.0
0.0008318127360342961 -9.200948308744093e-5 0.0
0.0007662287700452835 -0.00011820142076160148 0.0
6.312255659564282e-5 -1.5245659215898823e-5 0.0
0.0001781059415504821 -4.892843467596847e-5 0.0
0.00013784798109938126 -6.053669680302655e-5 0.0
0.001254506590721434 -0.00011229025036445535 0.0
0.0009569608395323843 -0.0001336621517155602 0.0
0.00021116306910730202 -7.110187956650262e-5 0.0
0.0011676873058693805 1.8491169687489024e-6 0.0
0.001076487797144708 -7.855940121589448e-6 0.0
9.914407542679044e-5 -3.969366074383325e-5 0.0
0.0006760246501878812 -8.662469626727112e-5 0.0
1.3200977644725069e-5 -4.103751169903446e-6 0.0
0.001582527504224367 -8.11125855283036e-6 0.0
0.0015215050761769194 -5.819985935933809e-6 0.0
0.0004699923629202395 -0.00017647997360148397 0.0
0.0011718541159428959 9.166131440318678e-6 0.0
0.0009628348674660925 -0.00017222389174644992 0.0
0.0002327230945413905 -6.762194281118037e-5 0.0
0.0009244713511996362 -0.0002521082031713455 0.0
0.00024851469575185687 -6.213967127902791e-5 0.0
0.0013279633842398022 -2.2203047659802497e-5 0.0
0.0006076499726290312 -0.00013568563531080705 0.0
7.514791914273629e-5 -2.1489453023973126e-5 0.0
0.0007801164688047591 -7.377389468155464e-5 0.0
0.0007725792564065355 -7.41719015466188e-5 0.0
0.0014149028403753591 8.208996055523568e-6 0.0
0.0008260801759733767 -0.00013669877598266995 0.0
0.00011439433908249605 -9.905218210982164e-6 0.0
0.001322119271291452 -0.00017060839109852576 0.0
0.0014250624027841627 -1.0257334534321767e-5 0.0
0.001075962068962527 4.7032787623075155e-6 0.0
0.0010987661074247689 5.88165155395848e-6 0.0
0.0006483023749602216 -0.00019073258381114314 0.0
0.0015224945690988445 -5.58350994100164e-5 0.0
0.0007004508729926255 -8.346263319959583e-5 0.0
0.00021039306807330021 2.8715733125213066e-5 0.0
0.00020660664557518903 -7.454111602826796e-5 0.0
0.0005175947876181434 2.759901878216387e-5 0.0
0.0013305839234696742 -0.00012124195084601094 0.0
8.098340831227572e-5 2.1794513736767367e-6 0.0
0.0008227282506287478 -6.379352223349858e-5 0.0
0.0011839404712648228 -3.600970411882684e-5 0.0
0.0009356461330962316 -7.661645498537902e-5 0.0
0.0015495083632001056 -3.854057725622761e-6 0.0
4.6801005333188516e-5 -1.2540886905336533e-5 0.0
0.001430637013176404 5.104336954600032e-6 0.0
0.0015558577121952742 -4.139522452287153e-6 0.0
0.0007271730913832512 -0.00021950906255575385 0.0
0.0008543882249067661 -8.694948379541306e-5 0.0
0.0006267917786052864 9.920004958762056e-5 0.0
0.000390955757443112 -0.00010803776224460452 0.0
0.0005171161878587754 -9.6595431293472e-5 0.0
0.000667943188013784 -8.840233523994626e-5 0.0
0.00033212630377318323 9.181867756449025e-6 0.0
0.0005611808652617131 -0.00015068966567201216 0.0
0.00031108142155199893 -6.780358986022286e-5 0.0
0.00021380899248674208 3.0726300302249095e-5 0.0
0.0007197156412881916 -9.373829602123617e-5 0.0
0.0010509624056341989 -0.00014453941766317128 0.0
0.0012802484622251573 -9.807756806809933e-5 0.0
0.0005766392987132905 -7.461736479808275e-5 0.0
0.00040020668170629093 6.886745645754206e-5 0.0
0.0009462812958759069 -3.481697800759861e-5 0.0
0.0004891644342570793 -8.870337975535908e-5 0.0
0.0012044755698197077 -8.709467510800699e-5 0.0
0.0005261007993955985 0.00010768106447965855 0.0
0.0004785455545271642 0.00010409040877982389 0.0
0.000812876125016416 -0.00012555195747616737 0.0
0.0009839518263826323 -6.93537735848735e-5 0.0
0.0005987006803213874 -0.00020238223200572526 0.0
0.0011331645506070652 -0.00024435772845335043 0.0
0.0004397739129480072 -0.00010877684566080591 0.0
0.001048668653434796 -0.0002535271048988426 0.0
0.0003694144648985679 -7.8889711303054e-5 0.0
0.0012294942185921203 -8.770808697259385e-5 0.0
0.0005912915685029172 -0.00013204138850855595 0.0
0.0013234608728705745 -3.9018801047204715e-5 0.0
0.0003929250214188269 -0.00010496958772727655 0.0
0.000763289780544641 4.6286931972244485e-5 0.0
0.0006064055298338744 -8.350361909709434e-5 0.0
0.000672938899400513 -0.0001657942016123837 0.0
0.0007446029190510168 -8.132126786242922e-5 0.0
0.0007657267107964829 -7.459533556441081e-5 0.0
0.00044414814117515924 -0.00012985897850729573 0.0
0.0004480731924668838 -0.00013598724077825807 0.0
0.0003087537224375747 -8.22455416321826e-5 0.0
0.000545062326372847 0.00019017024898490553 0.0
0.0006955286338008136 -0.00019122541517714546 0.0
0.0013431471698140882 1.0410059488505764e-5 0.0
0.0011742395616797811 -0.00012990432481546404 0.0
0.0009289595095237466 -3.6744758666376005e-5 0.0
0.00042239087063337266 -0.00010765342089433164 0.0
0.0010196318471207262 -6.36146090687707e-5 0.0
0.0008471743370998709 -0.00017347805216175345 0.0
0.0005920250257676757 -0.00012693887935736286 0.0
0.0014447996055098151 -1.87634223310265e-5 0.0
0.001533603789325841 -1.242066822743879e-5 0.0
0.0005624529452696498 -9.931838567902486e-5 0.0
0.000988163956640632 -0.00024157384459105462 0.0
0.00135833742305249 -0.00015064619441132771 0.0
8.254605016398772e-5 -2.1953706751381094e-5 0.0
0.00040109747315103967 -9.213948543865038e-5 0.0
0.00045852716187747174 -0.00010980378482890037 0.0
0.0013890547355812524 -0.00013134509184303144 0.0
0.0005599773166268833 -0.00014434819716999442 0.0
0.0010716478859705766 -0.00010054184792902586 0.0
0.00017344222327489545 -7.171311055104679e-5 0.0
0.0008558331797157466 -0.00010184045752587892 0.0
0.0012776410509460403 -7.616370112502521e-5 0.0
0.000979565683346257 -0.00012660408628162117 0.0
0.0014727018900932308 -1.924578199965988e-5 0.0
0.0010079479661971908 -0.000221140203413256 0.0
2.7702867649454098e-5 -5.427150175229933e-6 0.0
0.0006916324901787075 -9.500505967414725e-5 0.0
3.669552182166408e-5 -9.7651306000359e-6 0.0
0.0005469386556488852 -1.2761887804787845e-5 0.0
0.000357480389993632 -5.434690894568221e-5 0.0
2.9150668817818206e-5 -9.369523583198964e-6 0.0
0.00041377856728998594 -0.0001630252969212997 0.0
0.0003870392619540587 -0.0001496991244927783 0.0
0.0007133408054463507 -8.161256183926531e-5 0.0
0.00075572204845656 -6.971850716012986e-5 0.0
0.0002942172099283106 -0.00011921812676542082 0.0
0.0005160172257143505 -8.928434750153348e-5 0.0
0.0008895770476434926 -6.550349416975316e-5 0.0
0.00030084391220407293 -8.884790632866534e-5 0.0
0.0010796840400599914 -7.547792310732561e-5 0.0
0.0008660891408157276 -0.00016845072026580498 0.0
0.00022704984947278966 -5.8546610987413744e-5 0.0
0.0001375711692260964 -5.00882195349655e-5 0.0
0.0008132037613988666 -6.424575657486254e-5 0.0
6.491960146401949e-5 -2.482668399831241e-5 0.0
0.001499966151766635 -3.095844859577192e-7 0.0
0.0005931888111437083 -4.260092188137739e-5 0.0
0.0007272917667945165 -8.97812306356592e-5 0.0
0.0013086571207967875 -0.0001379453600641586 0.0
0.001447928840885502 -0.00010860604493325252 0.0
0.0011913052465959222 -2.7098826045200195e-5 0.0
0.0006932508313053681 -0.00018273044486970854 0.0
0.0008879368102336831 -9.430072671732834e-5 0.0
0.0012725067136683554 -0.0001924375230912572 0.0
0.0007572160551979094 -0.0002356159439417682 0.0
0.0012580625292070817 -7.405055696373641e-5 0.0
0.000985078659869808 -0.00011568732444790133 0.0
0.0005446118826228633 -0.00013961803004042107 0.0
0.0010219024715403175 -7.953888322164279e-5 0.0
0.0005752082595292588 -0.0001230543258998453 0.0
0.0004884435559037046 -0.00016695104762864157 0.0
0.0007266487511419296 -8.439057746983884e-5 0.0
0.001166365516662497 -0.00022491704946234442 0.0
0.000306501496746919 -7.983628394141262e-5 0.0
0.00025104602176627357 -0.0001034272091550629 0.0
0.0010989559203130486 4.889790667341202e-6 0.0
0.0003791333468479064 -9.23209101945017e-5 0.0
0.0009837298528141882 -3.952522914324562e-5 0.0
0.0006735502890454259 0.0002777943234516556 0.0
0.0012499294885604177 -2.3441282408367983e-5 0.0
0.0013205135754052908 -3.0317114757873768e-5 0.0
0.0008156144959838974 -6.841761923138468e-5 0.0
0.001158781851176471 -3.652431562965623e-5 0.0
0.0008880784737462831 -0.00018822277041474907 0.0
0.0009575747510496122 -0.00025421898040470106 0.0
0.00047773324132647095 -0.00011034299918750108 0.0
0.000588506076007323 0.00012422204123472132 0.0
0.00033356430425996196 -8.410930322488566e-5 0.0
0.0003590294737463815 -0.0001469920461306724 0.0
0.000676595720750803 -0.00010014635167825601 0.0
4.676847799119518e-5 -1.257268997061833e-5 0.0
0.0002851461745543126 -0.00011024733653834445 0.0
0.000776628682785459 -7.180805192678796e-5 0.0
0.00011094356027967609 -3.33180365164406e-5 0.0
9.38953594187545e-5 -1.5280140003705768e-5 0.0
0.0007805894193483965 -0.0001151837291707216 0.0
0.000827548625220934 -6.163260879928435e-5 0.0
0.0014261189850838045 -0.00010780217160188507 0.0
0.0006773680040653739 -8.599439934424267e-5 0.0
0.0010578432205367973 -0.0001310765826481801 0.0
0.0008590866204517213 -5.3280512711109095e-5 0.0
0.00022861114844602477 2.3898691515514844e-5 0.0
0.00029691537506045527 6.579494211237029e-7 0.0
0.0015034742936498949 -1.1121574516480223e-5 0.0
0.0010474992583693193 -9.252117075672433e-5 0.0
0.00025383555373331804 -7.223500594582364e-5 0.0
0.0009251085072337966 -4.386748105617257e-5 0.0
0.0007948353950069272 -7.203095931763705e-5 0.0
0.0008049653181991557 -7.208690850773264e-5 0.0
0.0003588642003728205 8.682137131225827e-5 0.0
0.0007857439163447983 -0.00024249113649189397 0.0
0.0014105334841479939 1.0005474198095053e-6 0.0
0.0007753165759629812 -0.00010044816016536113 0.0
0.0008285623885454972 -6.051192574736993e-5 0.0
0.0009684563126961818 -6.101567113206847e-5 0.0
0.0007399907776524081 -7.84133664873637e-5 0.0
0.0007813011669419675 -9.482461209190841e-5 0.0
0.00040765299827147123 -0.00013388655834438356 0.0
0.0010090901886770163 -0.00010779581906783745 0.0
0.0006506116602488647 -9.511831122199832e-5 0.0
0.0008169856397656306 -6.295459835896999e-5 0.0
0.0012177095098936884 -0.00022797906015159994 0.0
0.000694936211533593 -8.799335244969669e-5 0.0
0.0009408305770390085 -3.520749810622057e-5 0.0
0.0008681522783304005 -5.147723220975606e-5 0.0
0.00014297285896271018 -5.9379151074623936e-5 0.0
0.0011814780235865998 -0.00011604952663686244 0.0
0.0008427782152748776 -5.6755451261441986e-5 0.0
0.0004657632473883873 -0.00016531923830846043 0.0
0.000996606827509794 -6.349873693573026e-5 0.0
0.0010838376204676957 -0.00025337407205047307 0.0
0.0015431700650859663 5.596426284158464e-6 0.0
0.00011768621817996658 3.6042834267179765e-5 0.0
0.0006607671208711536 -0.0001027209715672346 0.0
0.000836439596037964 -0.00023804056143863228 0.0
0.0005486457381279938 -0.00018550198849830315 0.0
0.0006184726489438571 -0.0002073054506413424 0.0
0.0001412197854694326 -3.959494281669482e-5 0.0
0.0010798467848632356 -0.00012444299746357853 0.0
0.00048158374756541696 -0.00010744589406791162 0.0
0.0006730507553877958 -9.099561679853875e-5 0.0
0.0005759262863004701 -7.938457439829891e-5 0.0
0.00063729791050217 -0.00020562402323367137 0.0
0.0011362464491793155 -4.723389286426833e-5 0.0
0.00145008969131044 1.172439563357527e-6 0.0
0.0008872737738214152 -0.00017902372300913818 0.0
0.0007704832891500875 -0.00010650444047573452 0.0
0.0005176503362906198 -0.00013748655202762124 0.0
0.0008140666300063544 -0.00024772345912801267 0.0
0.0011342552167599338 -0.00010035678547299215 0.0
0.0001264483182046798 -3.710344332095573e-5 0.0
0.0013867499530502282 -1.21311785785133e-5 0.0
0.0006684934257596283 -0.00021219397006603884 0.0
0.0006818486527284722 -0.00019386530403908665 0.0
0.0010259226180865217 -0.0002132106918295549 0.0
0.0015627262642962253 -1.5976208939352088e-5 0.0
0.000577200588377644 -0.00019147708592542775 0.0
0.0005447101628086222 -7.332891846118392e-5 0.0
0.0005438336460555957 -0.00010011344921963775 0.0
0.0009583817059487647 -7.010427602241992e-5 0.0
0.0015114324389750972 -1.745760647514399e-6 0.0
0.00014915394921692404 -5.332399589934779e-5 0.0
0.0007864693958105028 -9.003146256532866e-5 0.0
0.0013490214279304998 -0.00013265671661707087 0.0
0.0015035500053816322 5.372888016656956e-6 0.0
0.00047122411030568035 -9.406844081936244e-5 0.0
0.0006834280814769907 -0.00021557480462672073 0.0
0.0014522943589728872 -1.4419575166732134e-5 0.0
0.0002942636172766801 -0.00010625210432090075 0.0
0.0015405645585803457 -9.409725007837637e-7 0.0
0.0004981088639700776 -0.00018327542166629628 0.0
0.0010155563276774298 -9.653808181364339e-5 0.0
0.00031884067363358227 -3.625223111783068e-5 0.0
0.0009593981987768406 -3.2366635055148294e-5 0.0
0.0015025155693349605 -5.5210248045660104e-5 0.0
0.0011601468070476335 -8.997640184160848e-5 0.0
0.0004462002871093493 -0.00016621454324559465 0.0
0.0003317560945239381 -0.0001381738524456617 0.0
0.0004081281819939968 -0.00012580476301890772 0.0
0.0012462078034341754 -0.00020292905468129597 0.0
0.001135126895057646 -3.778978139557949e-5 0.0
0.00027335804853527993 -7.65455051494866e-5 0.0
0.0006318087990968834 -0.00010277990917903996 0.0
0.0009529046525973372 -7.923640088290933e-5 0.0
0.000606776106997308 -0.00011095389517244204 0.0
0.0014703917083348842 8.282793318943238e-6 0.0
0.001037559115002882 -3.251033530837466e-5 0.0
0.0006511849421223577 -9.36419766454345e-5 0.0
0.0002803481318675098 -7.525144885913457e-5 0.0
0.0010926150052385545 -0.00010400747033994846 0.0
0.0009095156237026987 -0.00023003972453390824 0.0
0.0013066297505311161 -0.0001816382144069803 0.0
0.0005274740507858711 -0.00018211423028273544 0.0
0.0010152853752234063 -9.355735595434528e-6 0.0
0.000578452794116302 -0.00011858473456816893 0.0
0.0008660648199835101 -0.00024072673717423872 0.0
0.0012971241722258007 -0.00013588159383408992 0.0
0.0011361864639473798 -1.122253228094963e-6 0.0
0.001467641541566532 6.308870664407315e-6 0.0
0.00041728654928614706 8.28129131643495e-5 0.0
0.0014164716145768305 6.6303098512406075e-6 0.0
0.0005130499104517522 -0.00012999654585393302 0.0
0.0012949110494971166 9.584308522745402e-6 0.0
0.0009452043088528772 -2.5818089455539712e-5 0.0
0.0010513407046629777 -2.042796903723362e-5 0.0
0.0004965978587997956 -0.00010416500637861816 0.0
0.0010565973752031043 -3.949040236986219e-5 0.0
0.0007141339874653231 -0.00022005560955905452 0.0
0.00042145665957217917 -0.00015626317160664514 0.0
0.0008402501590289418 -5.960156240533592e-5 0.0
0.0011341072837999628 7.835064200490554e-6 0.0
0.0006713819037384589 -0.00020194329353760124 0.0
3.467904050783758e-5 -9.142415220625162e-6 0.0
0.0015213069246593207 -5.021885950154023e-6 0.0
0.0012848110457732746 -9.038369657407739e-6 0.0
0.0007271331673669302 -6.362350460875952e-5 0.0
0.0015446444079534498 -1.1638100437277408e-5 0.0
0.00047191825203815927 3.555298932555659e-5 0.0
0.0008050295075577909 -6.978876893373051e-5 0.0
0.0015801132735662438 -1.3629051446326116e-5 0.0
1.2990539673913537e-5 -4.552349501132335e-6 0.0
4.9870060097440284e-5 -1.4047307602796412e-5 0.0
0.0004892476091532893 -8.605807114055975e-5 0.0
0.0008997517245775197 -9.642701665142932e-5 0.0
0.001067808394989227 1.963249377288998e-6 0.0
0.0011677843858288114 -0.00021294879949875317 0.0
0.0015261005614383243 -7.253458585440186e-6 0.0
0.00013906230648216613 -4.1595582631908564e-5 0.0
0.00035428553375795035 -3.63344560145593e-5 0.0
0.0009137899899490887 -0.0002181873956231165 0.0
0.001337396791430849 -1.0935355258022001e-5 0.0
0.000419697022295805 -0.00012659124802511234 0.0
9.384336925319195e-5 5.054606001387544e-6 0.0
0.0009417478616562804 -4.275367126685253e-5 0.0
0.0005168657312013866 -7.278240717899866e-5 0.0
0.0011791677976949538 -6.0133128597103325e-5 0.0
0.0007633913955290731 -7.436033976783142e-5 0.0
0.0006002846239967331 -0.00011427772958116178 0.0
0.001368034860748526 9.209337140704832e-6 0.0
0.001371823080552907 -0.0001466789685076101 0.0
0.0011260751363956292 -0.00023523387023120058 0.0
0.00038268002311257147 -9.079881105465484e-5 0.0
0.0014343506345284593 -1.2066132700817441e-5 0.0
0.0002676977386492378 -8.038110813237236e-5 0.0
0.0014499117347958716 7.811892991923483e-7 0.0
0.0012586914393844495 -0.00020132330678248445 0.0
0.0009811416337172157 -1.4978109832039396e-5 0.0
0.001040750042594071 -0.00024390104723117116 0.0
0.001190160355824621 -7.497689847818143e-5 0.0
0.0007356729431919511 -8.022630972482917e-5 0.0
0.0004182213015647318 -0.00014951686249106496 0.0
0.0006748126371278678 8.15310052031602e-5 0.0
3.628774503621504e-5 -5.9450779183315e-6 0.0
0.0015031750579644002 -6.384404644891046e-6 0.0
0.00018587955339178643 -7.808642172514002e-5 0.0
0.0011217566432718655 4.121099914188552e-6 0.0
0.0003058536484068402 -0.00012426226093985537 0.0
0.0010188795584401779 -8.754031626122701e-5 0.0
0.00034478018738942927 -1.6887184245138565e-5 0.0
0.00016100807481162223 -4.785160331489476e-5 0.0
0.00022263494431797124 -9.767150768317804e-5 0.0
0.00020340977594094753 -7.047862334446368e-5 0.0
0.0006354268831437884 0.00017174819601903818 0.0
0.0011860021469960271 8.514419310026437e-6 0.0
2.581612470995109e-5 -7.61907271039188e-6 0.0
0.0012736057418606774 -5.92524526002902e-6 0.0
0.001266483705558312 -3.612954434620215e-5 0.0
0.0009224141177080024 -8.998515973563145e-5 0.0
0.0007546033575454626 -7.580232587510318e-5 0.0
0.0004518205796576438 -7.865252678344582e-5 0.0
0.0007530014855570895 -7.860352386382663e-5 0.0
0.0009323732264610606 -0.00019922749727695904 0.0
0.0004983364800555692 -0.00010813189834495754 0.0
0.0003778954222047107 -0.00014869552074247666 0.0
0.0013027386617863246 -8.533949995033051e-5 0.0
0.0010649670858787312 -6.516745941256338e-5 0.0
0.0001791673537423393 2.115208844878129e-5 0.0
0.0005120223001285729 -9.517482829058002e-6 0.0
0.0009996388046590594 -5.894662306058998e-5 0.0
0.0009359921218851627 -0.00024313723969228586 0.0
0.0006275349756085005 -0.00010573225755360181 0.0
0.0012025247733684066 -0.0002210420157304876 0.0
0.00011371195156716809 -4.7041871229200646e-5 0.0
0.001042513421670966 -0.00020664824203157686 0.0
0.0005779079423014661 -6.876777035024689e-5 0.0
0.0014405871394941453 -0.00010030350914243505 0.0
0.0005584231201445332 -2.9783846397296847e-5 0.0
0.0009544307846733305 -2.8918158596700236e-5 0.0
0.0007870408153496352 -0.00011091983795627746 0.0
0.0008152625185619125 -6.713100092504528e-5 0.0
0.0008876977197738974 -4.552362628233757e-5 0.0
0.0008998682739035232 -0.00024084529732134327 0.0
0.0011775225515363553 -0.00022430330688166092 0.0
0.0004093465833978997 -0.000107180648881977 0.0
0.0009644314651293636 -2.965127184960615e-5 0.0
0.0009375781794026119 -3.516346622375011e-5 0.0
0.001173174879720537 -0.00019758212057317562 0.0
0.000742800315360327 -7.839477181385599e-5 0.0
0.0008134097293996602 -4.616937748525773e-5 0.0
0.00041624553673976525 -0.00014340366883138666 0.0
0.0014311656145075287 -9.202852713045397e-5 0.0
0.000983775316516615 -0.0002546843872943111 0.0
0.0006723451677602604 -0.00019684266144439315 0.0
0.0015217790985950826 5.329675733125681e-6 0.0
0.000662834377655141 -0.00017586593555264117 0.0
0.001240130941485822 -6.333385617321805e-5 0.0
0.00044719395355290246 -9.086871691420272e-5 0.0
0.0010225690348101611 -1.2977815802092423e-6 0.0
0.0003270140564361314 -4.580022704424631e-5 0.0
0.0007119707764661387 -8.115853558167921e-5 0.0
0.0006223286551611547 0.00023425459571409018 0.0
0.0015555687779079737 -3.949486077268622e-6 0.0
0.0008926575522819282 -0.00017203031265851696 0.0
SCALARS damage float 1
LOOKUP_TABLE damage
0.7520720490521917
0.8083763212349102
0.9491659226630127
0.46186645651507363
0.9966102117379632
0.9989370880652342
0.46348604936365706
0.9143470289239832
0.91009331451904
0.9185683701493461
0.9282159554691737
0.9339349815245191
0.9407016766106908
0.9472160905506264
0.9486188308541363
0.9466573028663621
0.943016237356147
0.9395299903099338
0.9356330844803397
0.9312607778411602
0.9272697818861523
0.9254454502354008
0.9215888637867701
0.9180678001828074
0.9155018947764609
0.912503409306195
0.9080244531035353
0.9038879528503138
0.8984339062406043
0.8929453912195706
0.8843547251338539
0.8727643853720918
0.7955217325072177
0.8536348882095552
0.8598167940191197
0.8677332003863442
0.8743878725663269
0.8789182975549948
0.8824701340277102
0.8845541407407439
0.8874490283236545
0.8908908024157097
0.8928830066765933
0.8934836613782541
0.8983839484649272
0.8993057610043553
0.8868105261594159
0.8911935932020744
0.8946068801104149
0.8996562452632557
0.9017018187945692
0.9060337275835451
0.9079123609912535
0.9156060958955342
0.9136036945603135
0.9193006888664098
0.9197811435633704
0.9239565304499325
0.9270960238388484
0.9325412501813839
0.932222256087793
0.9376859912247688
0.9402610618737866
0.9448549099197748
0.9473682669821286
0.9460681730905184
0.9373975891389204
0.9280575894344507
0.9260267204115892
0.9081545384415957
0.9232617657894424
0.9248663514185191
0.9203206429759327
0.9431085114641771
0.9506894151023337
0.9575830691317161
0.9645238058382749
0.9646420298572085
0.9726089335880078
0.9715234556779602
0.9725431650918013
0.9746778954994623
0.9753045801948322
0.9715509758097112
0.9770701046018297
0.9797159560035729
0.989211716634113
0.9906182139411738
0.9938983563488909
0.9933045445540883
0.9932337104957087
0.9937054178146794
0.9937772581908993
0.9939836807800753
0.9932546930977023
0.994465514348535
0.9935760964064138
0.994634813160855
0.9958034182439987
0.9962127181459932
0.9960733889245575
0.99569212874877
0.9955235443196373
0.9941794461444391
0.9942645427561633
0.994566777347052
0.9944084103826123
0.9955587456316836
0.9952205782087206
0.9952451503585379
0.9940033550531475
0.9909511644970068
0.994184323661279
0.9904820977113178
0.981714889730415
0.9662782149973821
0.9566476151701389
0.9494332046657853
0.9399228952046603
0.9338266004399967
0.9279902752867561
0.9157127155205204
0.8960771704524028
0.8677696104767568
0.8508944302841085
0.8312046717398861
0.8080398779089063
0.7583074856215108
0.7126288805100199
0.7036307428765023
0.5342328591102548
0.6865338003294859
0.7628249216916008
0.824553428845981
0.8475105887019095
0.8612736057534567
0.8691350723127591
0.8754006359554699
0.8800460604615328
0.8839796668511156
0.8881910433572963
0.8909655452340124
0.8921038654264041
0.8925108851095036
0.8921551490319893
0.8910218752994314
0.889611114614358
0.8877359764091707
0.8872984872977803
0.8914459788867669
0.8950151891367287
0.9042273659705846
0.9140421418889416
0.9261704513975767
0.9431949872077476
0.9608802294137955
0.967047778987333
0.994925914283997
0.9964865986563808
0.9984443273293738
0.9973410471836589
0.9997931984863161
0.99314628502818
0.9823747536345652
0.9632364431594367
0.9325856091912451
0.8926341252542968
0.8515301538653902
0.8042733274637882
0.74012390000947
0.6652382282267166
0.6047898281806837
0.36364661305390583
0.5409091630019851
0.6506222314101315
0.7278284587516901
0.7905920349497022
0.8530087935394539
0.8931685352233479
0.9318492076398924
0.9660950015657704
0.9804370263153042
0.9941034548717643
0.995206762925003
0.9985561438603039
0.9930614699337752
0.9469514971159838
0.8023775847654048
0.9327017427741732
0.994354024735482
0.9363320935513396
0.9917643212056971
0.9536636854648961
0.990307275511016
0.9751332080807255
0.9964648476779046
0.9138219189341472
0.9888099271198137
0.8954841501204672
0.926377682393277
0.8893442487924959
0.8058866499955908
0.8369062495116086
0.47952234134626964
0.785096070609943
0.9504306389005696
0.8945283529703367
0.9158335635533618
0.8903777695451136
0.8878109398801093
0.9403678080686366
0.9162456254673008
0.8846174534692889
0.9429561299578381
0.9039709492530267
0.9079192015655121
0.8776960087475801
0.9169829178324085
0.971943357674881
0.9916646296071245
0.9745723771698209
0.9938049557651868
0.9944818590855008
0.9450668227028027
0.9232878812364665
0.8521221504204061
0.8750038019567189
0.9052808558284335
0.9436828218811922
0.8514963551541761
0.8930420298900675
0.9866968493412321
0.9704634831515252
0.9314012811459841
0.9115241820122301
0.9215521516037525
0.8916475202274333
0.7544938002598257
0.688624829377217
0.8568851272187912
0.7552171622776497
0.9952791265267692
0.9841560061274612
0.9146830257424009
0.9391918556219645
0.9904904401911018
0.9954299484019643
0.9071003473322266
0.9777724536145576
0.8901751114716029
0.8884654988590316
0.936019097100475
0.9628949119572189
0.9909768113096662
0.815501340149354
0.8780164224496813
0.9943927700703372
0.9980386783266284
0.879080063824723
0.9598593638074019
0.836259610803639
0.7013412194487965
0.998392255076584
0.9916386153632701
0.979885432788904
0.9827035982576758
0.9838051760231009
0.9800036607809308
0.9691287319841496
0.9638625775459033
0.9525572600206517
0.9461384878026743
0.9572871390911791
0.9382184235108709
0.9477631401442458
0.9294899889615942
0.9388817134903444
0.9204470425142577
0.9497366180656015
0.7677253196934699
0.9044446092922374
0.800949475084251
0.916397434608194
0.8477067883642714
0.9229867757469842
0.8787449036246666
0.9291662199810293
0.8942437929254261
0.9322637272668756
0.907152186371408
0.9348163400191365
0.9122244855834231
0.9350652455992665
0.9187864270554962
0.9365504112944671
0.9190228881467374
0.9334990788116454
0.9199739116500799
0.9324426132413847
0.9226701437176208
0.9337357558328171
0.9257254449181194
0.9353932303469622
0.9278203203349056
0.9359622469993227
0.9292261111334995
0.9373034707122938
0.9286708332432735
0.9356063293635192
0.9310291093294356
0.9360485217517083
0.9340292685448321
0.9375452244412791
0.9344014800559693
0.9381062034471077
0.9362465775385831
0.8345477095388464
0.9396347464057665
0.9028320481221493
0.9249273915065631
0.9376918952471073
0.9408802036589772
0.9388823665625956
0.9356004693607968
0.9369830886247091
0.9418666527498302
0.9428645684686336
0.9377173470460451
0.9438214475934175
0.9439830090991497
0.9448264160363058
0.9331892432535075
0.9347406707851627
0.9446142050359013
0.930355526612946
0.9321305708823296
0.9459209573987665
0.9456955484188478
0.9273730886476049
0.9301875677023814
0.9470496643567112
0.9466181621852295
0.923998544117055
0.9265366570079334
0.9481004100951401
0.9477785564272163
0.9204838466007793
0.9226024672068447
0.9494135036510982
0.9489243645827377
0.9160171396226964
0.9199973487349097
0.9125509112862834
0.907821493033922
0.949702306333676
0.9506977936758697
0.9498966857807997
0.9476943873689716
0.9384083716191648
0.9489718652846962
0.9457564317748636
0.946814443184871
0.9171992593873224
0.9108443219628372
0.9226005353908399
0.9517107105568635
0.9140839654347224
0.9074229827128423
0.942043159209246
0.9111389340674527
0.9049472564906725
0.9094496107210626
0.9025254837370839
0.8978532821353639
0.8950029563735182
0.8906314446213273
0.9075035315793692
0.8901991520389937
0.8848713013303141
0.9136679736222687
0.9120991545677768
0.8843193593795369
0.8789128978499039
0.9438374652050581
0.9442389093474767
0.9168251992538327
0.9145391189876888
0.941515515322597
0.9417769845407
0.9455875748190811
0.9414542673931454
0.9470272825403273
0.9419207232549002
0.9479189436351846
0.9421423105782705
0.9491624458274417
0.9360088918634448
0.9413049623556278
0.9501391263928869
0.9194571575615987
0.878831740423265
0.8733395674136339
0.9557328657568832
0.9579599105056984
0.9519201566798403
0.962999635137865
0.9175114161518196
0.9607167129443402
0.9542434998217026
0.9222362929476744
0.9205608616736813
0.916036246307614
0.9635332808366427
0.9571136909740311
0.925312281342255
0.9271966767689542
0.9185913870990786
0.9135522468811655
0.9660281334322259
0.9601895062884185
0.9451653260656824
0.9699884045123919
0.9481722702172972
0.933856526679097
0.8741528433389779
0.8699832182863502
0.8679357906452116
0.866248892814825
0.8606302226578255
0.8607847231527495
0.8549284207964353
0.9298540222648615
0.9316394441719759
0.9161972833567513
0.9112409672722931
0.9630998545133178
0.8573491630036054
0.8498920620326212
0.9337129949549638
0.9358810665637626
0.9326020834390737
0.949756080405313
0.9267468403423882
0.947503318687004
0.9177772320274289
0.9384569583699538
0.8557836670043045
0.8485387961329006
0.9141154112184845
0.9096669237026411
0.9376798808768549
0.9396517518335922
0.9646030896633678
0.8727325696913397
0.8771152645260039
0.8638866459553338
0.9507019865480517
0.8585809637659065
0.8486536706019358
0.9354592551793284
0.9118858431353792
0.9075990471166847
0.9390652700648604
0.9374949016691654
0.9381829152031086
0.9365990454657875
0.9412226005549185
0.9430735261667086
0.9204366239489312
0.8611469172503464
0.8561453711465387
0.9658655911656094
0.973580990874703
0.8763565908018646
0.8701471288052881
0.9545663627746448
0.9373019320638819
0.8924474178277924
0.9164054033772836
0.9446579496931703
0.9461655172662803
0.9446169392034149
0.9473914002447195
0.9459952043069951
0.9485393583066346
0.9472956680295219
0.9495774830095325
0.9484622368564778
0.950474122981852
0.9514607636774874
0.9524262645957648
0.9534021103587244
0.9546318447817643
0.9557392866611107
0.9568824537330608
0.949501814377996
0.9556592012812682
0.9576796860941769
0.9590446032370946
0.9595357533101965
0.8750248050187389
0.8791953542380999
0.9100981472678853
0.9064868882570251
0.958231221940032
0.9596979071785219
0.961065806767501
0.9611119986264351
0.8777034581977855
0.8812902317645332
0.9382421226910683
0.9372205802351802
0.9394999614674777
0.967937854179117
0.9570595739706281
0.9476249766693078
0.8429648126531972
0.9460866274585356
0.9625521065664332
0.9625173422956156
0.9613728871395345
0.9629603891516942
0.944161288518092
0.9389960666760043
0.935834799009397
0.8891621671177034
0.9088585457222088
0.905199430206964
0.9425678198489326
0.9640671247565358
0.9647234607729255
0.9635383654719407
0.9656655320502923
0.9640970567060178
0.9661533606958969
0.9676636867451134
0.9681364852769568
0.9092039928352179
0.8808496479180867
0.8827775996269794
0.9462254498031172
0.9696146181437356
0.9607407175178985
0.9691969473774572
0.9702551771177589
0.9071029690898151
0.9079981366680419
0.9041507063897946
0.8466764747826317
0.9141199339152772
0.9488274152038061
0.9235465895836807
0.869132702794628
0.9712978912182539
0.9630668131199795
0.9440404002678461
0.907402070696104
0.9736317261209803
0.8790951855434515
0.910060267398908
0.9416828807412326
0.9459213847606993
0.9646274867377183
0.9064695683121959
0.9027309571017075
0.8835416165286621
0.8851422814943931
0.906814685933153
0.9711501253022647
0.9719139249743315
0.900398043867733
0.8993520301104526
0.9706947583746823
0.9471709112280775
0.9009662330770901
0.8980865448403352
0.9445719642793302
0.9473632446525507
0.9269135561703734
0.9637205943456567
0.9728243634454443
0.9738996241275182
0.962588064974988
0.9631448695583602
0.9495917113965583
0.9729387805324202
0.9751413949881548
0.8861229662163203
0.8875256666529774
0.9771905847133197
0.9780522183531993
0.8995543060372048
0.896743390751936
0.9438874091928425
0.9497474636242809
0.8956396670577124
0.8945440956466154
0.8954981166366077
0.8936891194172149
0.9493955599803309
0.9625460503332552
0.9244912757126028
0.9350081620907968
0.9417805578606437
0.9469222357647585
0.9805254160468552
0.9809746122628608
0.9299206681061668
0.9740264158706163
0.9544349517826529
0.8929530574052728
0.8920062447668727
0.8931075113382498
0.8907266256687024
0.8896527335490751
0.8888928021174944
0.888801194881616
0.8881480595257124
0.8887149667588791
0.8878770736976612
0.8891100959129171
0.8868144148226202
0.887522209849291
0.8881313455470121
0.8873136068934078
0.8843049756942939
0.8855206108477731
0.9095511753307503
0.8854108859189097
0.9611672329503034
0.9618504334900034
0.8839538796766188
0.948204808009334
0.9504234696601086
0.9637479389998843
0.9624422461960811
0.9509961447714516
0.9584173165351655
0.9594485556239175
0.9511863678497968
0.9570136950479088
0.9442372518124403
0.9422776884222248
0.9411062324735181
0.8911703309383636
0.9506261217057738
0.9591142986476275
0.8894733452831273
0.9832179939644557
0.9836014779425899
0.981426118327688
0.9839946902960324
0.9335835763041282
0.9410953656161555
0.9337181936633219
0.9824554931361993
0.9304982479522381
0.9860003458233924
0.9866852285099167
0.984446402498845
0.9876179309618422
0.9856100818137541
0.9883998009476263
0.9906351026757586
0.9909908294413515
0.8830889483713451
0.8833587203893801
0.8868956043323107
0.9474979775494827
0.9516808173800092
0.9384902136205122
0.9368374569130903
0.9517505046308714
0.9518479918282642
0.9511877031709596
0.9392225514271871
0.940878395400195
0.9449755669703434
0.88235312571818
0.9189972802067266
0.9390451488610405
0.9526017277391747
0.857039488887959
0.9547549382271058
0.9932441052304678
0.9921804287202027
0.9100446966902558
0.9055601864506504
0.9406095508315954
0.8872182920370483
0.8901981732676344
0.8908172221074754
0.8938032855436935
0.9886511484189068
0.9526283130825346
0.9627522400045089
0.9276251358765796
0.8806771828285649
0.8818152072813742
0.9029181304001946
0.9643811628039924
0.9629518290174687
0.9388574171570208
0.9049465716839662
0.9012298124929029
0.9030352962095332
0.8992539155923941
0.8997145440591344
0.8954002765794299
0.8977555169352046
0.8932575102017205
0.8976702088057079
0.892640538266211
0.8975701257944161
0.892700498824455
0.8980341615892693
0.8931187213275938
0.9035657136277856
0.8977137665767969
0.8938120396026984
0.8958735281354302
0.8971434282414398
0.901591310200773
0.9049410463024616
0.8986335658789192
0.8945839622779185
0.9024169634296042
0.9643209134374708
0.9648310609914859
0.9664380648382415
0.967407051888322
0.9688601099117375
0.9702226174918958
0.9685901549065241
0.9712195574421539
0.9689361040460132
0.6397437578243993
0.971880766829027
0.9705665732421579
0.9362830099952957
0.9473436366983642
0.9485677697576239
0.9462160812690984
0.947509816003385
0.9449364984932727
0.94627654634328
0.9486390821346187
0.9475531119284397
0.9498854288105577
0.9486400895278363
0.950561547237708
0.9465613035730212
0.943434617363197
0.941718552044085
0.9517120551271738
0.9522968418165391
0.9037060445472512
0.9298898644317454
0.8729808493498435
0.9585162229214234
0.9297221062081296
0.9291086352080057
0.9412783302837706
0.9390491983469273
0.982170512012859
0.9503968820428227
0.944231525575876
0.9448060500474991
0.9396019452867972
0.9350203762378579
0.9324842989166815
0.942488515384165
0.9709852591804112
0.9684320534775289
0.934291389640427
0.931937771508274
0.9329749072802008
0.9314162985739436
0.9314835564821288
0.9301584508372507
0.932223811069075
0.930186404879561
0.8930676008083692
0.9127601263298503
0.9481449212074462
0.956189569994239
0.9101734999696509
0.9043393939209233
0.8896403569052308
0.8892429460414758
0.9499030322841193
0.9531763952220725
0.9848500240243098
0.8892260615899165
0.9459590336597055
0.9642733012947947
0.9630707034399508
0.9833211868396616
0.9433610373885716
0.9894252484091411
0.9892624794191063
0.9922049955816444
0.9889844650056225
0.9283756430420201
0.8956071199297012
0.94932069470062
0.9040681605882506
0.9518540916639604
0.907260354482118
0.9084936478900889
0.9840578240350922
0.9313461844216621
0.9596793057355993
0.959195632162642
0.9343630825694754
0.9346636747125302
0.9414036503935671
0.9320757234287531
0.877731575038309
0.8792493427023362
0.8843889767447097
0.9553285343853841
0.9649764438616427
0.9427659520794112
0.9369035197094084
0.8992734795551839
0.8960728080823439
0.9327300711381264
0.9343519572439325
0.9397841532378067
0.9402392725633095
0.9427306097668603
0.9314861694260589
0.9450408308810503
0.9658670291516521
0.928151726889558
0.926905335485258
0.9296899860682841
0.9260525705737809
0.9860348230424774
0.9848768859514448
0.9876691701952609
0.9822589565820962
0.9608021453261066
0.9607176685944012
0.973563600771841
0.9725696389242201
0.9397336364001583
0.9382880903998023
0.9454666861522802
0.9282838108328609
0.9249198575691921
0.9597366233964878
0.9582241231539352
0.9645361275208658
0.9637142320152077
0.955841379690332
0.8771801014962988
0.8892844185494654
0.8900706250811539
0.8944516296003651
0.8959749867261685
0.8908804762518602
0.8975925880370694
0.8919920763209794
0.8996012112464472
0.8943320725399043
0.95275900060941
0.9233529895464349
0.9796028267769339
0.9811114005094395
0.9832720966032792
0.980273765568136
0.9702747937077896
0.9393217848125985
0.9856505330720147
0.9340785850746746
0.9206080789971136
0.9303199338322398
0.9381219741342541
0.9570937106231029
0.9572909834456539
0.9732398119516864
0.9671392088900298
0.881438032425531
0.8916267138956699
0.8937522104013819
0.897516637363524
0.895036469615581
0.973399821044837
0.9659505068277958
0.9577678082567562
0.9496954909347411
0.9432788310244624
0.9648395193663085
0.9720322350041772
0.9729338568146166
0.9523503347167193
0.9584179939167627
0.9113481574893516
0.9126171577710173
0.9030196563670507
0.898716321111428
0.8892554887899625
0.8942337879903355
0.9049122297339421
0.9012800898271325
0.912603503550542
0.9102362916404876
0.9206755689659925
0.8758388736749203
0.95777511708916
0.8777478550908403
0.9062653589542179
0.909427871283139
0.9505513209169532
0.9681501060803066
0.9690644289871676
0.9194425210830961
0.8943646690890649
0.8918134249611794
0.9325676878358089
0.9862585991206204
0.9356836731534796
0.9798998723795519
0.9220409578706205
0.9398278523164953
0.9362406584404679
0.9376509756811144
0.9113736254886685
0.9338847185951507
0.8932984149701599
0.9755801266787303
0.9746867212312498
0.9724107218984633
0.9743031505276148
0.9747738523393193
0.9734078832402469
0.9014097222614007
0.9051867766273006
0.9535172993142378
0.9590220699713621
0.9027331209189365
0.927841739307968
0.9240901723775841
0.9429671369997075
0.9899874023444797
0.9276681366616375
0.9215102742215991
0.9772906659894527
0.9764100012702011
0.9567984310981024
0.956479775943001
0.9553014611461268
0.9430828676168883
0.8903351567187477
0.8733465691732621
0.9720323210124818
0.9535001592282473
0.9686701405273535
0.8711519046143423
0.9039939267349668
0.8956017212577336
0.9769937823191749
0.8983659024700743
0.895453088822125
0.8965936232438644
0.8935349706246486
0.8939452172445975
0.892893025406246
0.9827489491962335
0.9802908612128385
0.9353797327119644
0.9719714157400854
0.9570733435121642
0.9556227929730868
0.9148851132546318
0.8983719021556317
0.8962504990986151
0.9247006011628304
0.9148549002587085
0.8844214547950472
0.9163792661804626
0.9139186702289733
0.919138009719752
0.9141941582811898
0.9328377843172495
0.9417927567289426
0.9589878871502879
0.9143676156775462
0.9767032530578031
0.9344001759315712
0.9224696208453251
0.9087755747574173
0.9178757826370497
0.9271699347855296
0.9583038961215028
0.9576545510360118
0.8896095014473688
0.8920162886559463
0.8893134765789468
0.889553227083258
0.9053269318681949
0.875058458827396
0.8812381189151997
0.980081619802896
0.9785304463104721
0.9742695954537043
0.9828160768907469
0.983377677550411
0.9885691591889118
0.8910666818101401
0.8913590154778808
0.959988500759737
0.8914998065478528
0.893553116206732
0.8974669738965775
0.9018562809535625
0.8726850395062579
0.9501581410406568
0.9495953986723898
0.946667973952349
0.946324463691166
0.9426115170115725
0.9487036610336185
0.9558432862924675
0.936356478530822
0.9378780034053018
0.8897648996726076
0.8867246691524758
0.90226207872186
0.8987141350621162
0.8925366425000435
0.8960793225095343
0.9049806583200539
0.9649984544345265
0.9633038943776784
0.9672459388008928
0.9666022365800219
0.9630415805334137
0.8813387760052398
0.9302437297979906
0.9837491503093551
0.9367760380903086
0.965912885734411
0.9432842045839965
0.9407492262566309
0.9413679853234523
0.9405237303381315
0.9408016355624017
0.940727032253882
0.9403599578626357
0.9406712625471074
0.9405694914329851
0.9405260630656618
0.9402167512693645
0.9853510919215297
0.8942733869933182
0.9331364075123136
0.9306985286633256
0.9384208403061643
0.932740996196948
0.9438207647494312
0.9600253690393475
0.9031942960359138
0.8981909212077422
0.9066926950069311
0.911144633579743
0.9246599017813791
0.9298603773115439
0.9358844995238742
0.9318410682264968
0.8966056122054893
0.8690985061891071
0.9031342105877819
0.9001406525196399
0.8712631969004048
0.9716477756867499
0.9717881824919836
0.9736806036243699
0.9708274516318514
0.9411553850258737
0.9630711875438234
0.904228899724561
0.9549152716123077
0.9538022256605391
0.9350529085394366
0.9173047182083203
0.9342193047248512
0.9927470006711568
0.9953521134116788
0.994591391422531
0.9968761212078708
0.9955340183505244
0.9933511854985603
0.9879421385517305
0.9771462415923523
0.9294865671684779
0.9630800927292927
0.8976433855772004
0.8791074877497146
0.8853290831244202
0.99672759820511
0.997716741349162
0.9970242821125763
0.9393145369844877
0.9532786957746656
0.9545911687927429
0.9568639105286495
0.9214542832556628
0.9525893239122778
0.970323343218478
0.9809431088742758
0.9750975805132737
0.9780038215067964
0.9731607243653319
0.8861322400458772
0.93368293971022
0.9350199473988776
0.9359464933614662
0.938897006204473
0.9737639235099942
0.9088075137145879
0.901901433136222
0.8982870653223458
0.9092698705675871
0.9128300823416783
0.980399948541911
0.9848411303931335
0.9553888928142239
0.8915855073590268
0.9028585049361282
0.9795718838405811
0.9664184881131909
0.95657146511939
0.9414165268682403
0.9690029910726599
0.9804283763843776
0.983563602582242
0.9346253043320193
0.949382623866869
0.967335634776471
0.981783435555448
0.9309886459766689
0.9446386344627836
0.9591840046314182
0.9587604176077038
0.9795273531975613
0.9199081104771151
0.9282821452362169
0.8884090733246054
0.8927215212637613
0.9797980310499879
0.8911549288322447
0.9714004067052238
0.9658699923209756
0.9938925609699613
0.9919223220782567
0.9689739093840998
0.9560249468108669
0.9108155334484503
0.9555566904988327
0.9533367723432554
0.9269533124674649
0.924412301269557
0.9242068317071824
0.8757432506693421
0.8780508266823656
0.9344353783511528
0.9353149595150885
0.9919766338649156
0.8893024758007448
0.892025157967029
0.8906160809103492
0.9765795631098959
0.9496295137913915
0.9559962184164698
0.9392523868815769
0.9460304108827206
0.9388161199933223
0.9334047691266596
0.9393185932597842
0.9347626358330605
0.9280505161443586
0.9232601643107771
0.916857907809261
0.9232456275046004
0.905085798503485
0.970733743037432
0.9405047619718285
0.9488327906876738
0.9825326743138042
0.9195914293452845
0.9326993824363745
0.9248429644738927
0.9244187536060277
0.9237127350596773
0.9170655141954005
0.9147600839030892
0.896727788801962
0.8945563746095109
0.8910154460467663
0.8917531626613938
0.8949894307927725
0.8914819041137677
0.8959202848128753
0.9303852496585092
0.8929645824960957
0.8974537649732626
0.9158897553162042
0.8755812526410203
0.9005248655512994
0.8880860383876878
0.9810850007189705
0.9835437391323366
0.9664427690628065
0.969343650868304
0.9394664264576283
0.9104706325511364
0.8954211154461679
0.8895003248004804
0.8680017416549873
0.8638244709537038
0.8119595063158757
0.8151432016298035
0.7635429086159294
0.7829317838525327
0.756493463669563
0.7776622051479655
0.7716133402524787
0.7874793698415167
0.7931983477952427
0.8017054367108319
0.8144889719827777
0.815667191441036
0.8302004198112922
0.8314241205400213
0.8458414755301332
0.8457101079104504
0.8594271222304906
0.8582571943236544
0.871349663115191
0.8697529358402806
0.8568609672303684
0.8678510893403707
0.8840266495138535
0.8210640685189491
0.8756260841892425
0.851705499737634
0.8235063283067848
0.8119554296733061
0.8570915765670846
0.8671369249134937
0.8777233974124892
0.876396212275516
0.8028973760086273
0.761146474922545
0.8459873532033179
0.7435683408595631
0.8863205920929313
0.8845015398992823
0.8751458903764268
0.8487519865534986
0.8378796365795323
0.8887928373271495
0.8965720839858834
0.9001349998171857
0.8654224701579191
0.8442000045037701
0.8830016721504269
0.8753922939540505
0.8677680000296244
0.8685689959539886
0.9808495190222376
0.9776164272552258
0.9166795722525936
0.9700534533344383
0.9717577652663834
0.933161069682972
0.9351373169867256
0.9113038910597198
0.9565646339514599
0.8919155740316095
0.9200884797837533
0.9182050441016171
0.9190257330419047
0.9543296130930023
0.9401492610285299
0.9393992508003152
0.9378597137175035
0.9552522015573811
0.9553703448874493
0.9598655817113321
0.953202732220526
0.9556490296877187
0.9398753110844924
0.9411005502535982
0.9420141734957043
0.9369436286390153
0.9410396701263445
0.9392545402126892
0.942691529163674
0.9412403999259276
0.9440321810472708
0.942826592743274
0.9454458554437318
0.9465162185300378
0.9471747886192905
0.9540124304744352
0.9524518120039793
0.9522411375281363
0.9510219337592255
0.8897582420158294
0.8877672345138385
0.885586758578466
0.8840732028316677
0.8824901440482376
0.9542818085347385
0.9573779120136329
0.9617317409467324
0.9389189040951678
0.9405127777995455
0.9401018803564095
0.8894427820067519
0.9239034328936245
0.9006247121874875
0.8948675552252313
0.9066422851706929
0.903339268151843
0.8974140166941037
0.9006832149422891
0.8947376010021437
0.8967065118894375
0.9039355823324757
0.9534034916778623
0.8885613272307736
0.8919927416577539
0.9055950609302252
0.9243662834028847
0.9343055996407587
0.9816124326443543
0.9826924123237641
0.9798752187166763
0.9371034786640982
0.9319693833340189
0.923337217233254
0.8618033077164788
0.8632513812823492
0.8875626970603624
0.8935930559309182
0.8982723076962446
0.9776841110935556
0.9863670849020846
0.9367475928757091
0.9281356570686297
0.9346504764155745
0.972069483567123
0.9748803563754826
0.9809670091014331
0.9066030332941512
0.9080473145490198
0.9135318195197119
0.9071459698962289
0.8897590224579274
0.9091292760115637
0.9119564266331096
0.9705544564848645
0.8838846616843594
0.8809790264560509
0.8807665852585851
0.879578058729603
0.8881023135747331
0.8952330486535206
0.8916939309531426
0.9910164321409276
0.9320306310746924
0.968905606354346
0.9747995528709207
0.967108695485772
0.9707254583251256
0.963345992596752
0.9602954727173798
0.9549370759343767
0.9697277962180416
0.9721571645816306
0.9671121295371825
0.8905500737540268
0.8981255767096072
0.8923082332425591
0.893739110356682
0.9388172664713048
0.9378031766991859
0.8756801175943146
0.9411881431698819
0.9510652969345841
0.9499548537857456
0.8889653146494988
0.887737732242444
0.9730196023750509
0.9007999639820062
0.9010882402560874
0.9761532720908347
0.9855478424618365
0.8477221408981458
0.8551895895314073
0.8868491768935011
0.9617535359110159
0.9777424155501985
0.9569245028513385
0.9223441208625178
0.9815012363402428
0.9230731119346315
0.9000718546471731
0.904601628957533
0.9746648655639457
0.9374240503429564
0.8884932998769565
0.9418181667797303
0.9929830080529923
0.9954515824194142
0.8651159872184812
0.9817382939598619
0.9849202132329602
0.9242588031813155
0.9334104201020934
0.9363919442430264
0.9405025121970062
0.9317339954791026
0.8355609898869808
0.8301108928377643
0.8806988196618918
0.9568897854016873
0.9438667907347599
0.9476198471028299
0.9975273335682939
0.996204765023663
0.8802708665984385
0.877377413039406
0.8911637991950081
0.8923732964938728
0.8905025875531937
0.9752779042875367
0.9123566533681927
0.9067899429435823
0.9424325255291481
0.9857721465596113
0.9879550626823397
0.9025679991592455
0.8994872571175526
0.9422644520703455
0.9694743458432822
0.944105613792331
0.9415075398240256
0.8528031265226724
0.993349930485991
0.9372485584769116
0.8444773041354082
0.8530186786124163
0.8701472083666913
0.9396661044115264
0.9095300102947304
0.9043442699021123
0.9140301537220292
0.9105032806636879
0.9188717974505562
0.9154555106356717
0.906410350918522
0.9097097129314414
0.8984239907811008
0.9051683447588642
0.9246655743145007
0.9219801022190313
0.943031165206637
0.9308893433136226
0.8071198182796819
0.684219605940833
0.6913441205277178
0.8044519048213317
0.7362471527959477
0.7297120357294234
0.7314679582267344
0.6833047786773215
0.8928493418091008
0.890966898180337
0.8983084051853775
0.9053080794073675
0.9130267198920021
0.9946615990434727
0.993951038329611
0.9164249119524617
0.9172416558448907
0.9150122772504977
0.850892941939885
0.645049854254381
0.916793795411963
0.9109965665894976
0.8985843512313008
0.9079093680638148
0.8914721290971188
0.9268218389074642
0.9157780192770506
0.8057654670815821
0.9527333450530016
0.9647036156707266
0.9546442432392659
0.922896875330892
0.8725890273862926
0.8817735181689387
0.9050243551925184
0.9097621393697003
0.9879744918141518
0.9890371738425674
0.9274888659963305
0.9460821803846801
0.9519636644194719
0.9588088975491362
0.9624785978527644
0.9224497535977035
0.9251930540565276
0.9181094452890909
0.9148374525471166
0.9498136626887067
0.9485151270692596
0.9649006928162681
0.8777742615509387
0.8792038435645725
0.7853815325515963
0.8128403738062226
0.8342102180643974
0.8484484248238405
0.8635733263832363
0.8293860524190323
0.8562739812433097
0.8790708017464112
0.8690135041272343
0.9364784242463516
0.8698461901833687
0.8867074163459467
0.9031742085644466
0.9593275706950699
0.961390845886885
0.7863648827674425
0.8046555715419493
0.9525970520692848
0.9906126933314062
0.9901901714938616
0.9913470094006325
0.9899203271241499
0.9912374566572262
0.989624794340245
0.9038424366494298
0.9100055417461818
0.9095494108992779
0.9162392159226949
0.9152543540128869
0.9208871122187353
0.9205665719169802
0.9217223756165592
0.9259530583518493
0.9160515674042342
0.9271634922896033
0.9224685211238188
0.9266913417901478
0.9290488356603698
0.9240247021881616
0.9110041826421696
0.9186634071678854
0.9041434522086172
0.9121625479068702
0.9485621504258169
0.8573010155434875
0.8908461135401498
0.8689049196708761
0.8707701834026135
0.9616807238113861
0.9545454361730923
0.9475783652459268
0.9444650903988719
0.9468836801497915
0.9418549678907668
0.9413081399007526
0.940731836713105
0.9406706476426667
0.9397565776463404
0.8751111031628532
0.9606823042695888
0.9103513769529523
0.9177131030211394
0.9306734360436438
0.9345847076735204
0.9430375968857535
0.9461019005441217
0.8805975603626846
0.8810286149306333
0.8843857754232683
0.8850735899259052
0.8869409838281247
0.8647089585476637
0.9324568966119534
0.8822265467868339
0.8850647766446236
0.7718252171825343
0.8972989671416309
0.9866924015234158
0.9549708206730467
0.8469432487582446
0.9256367486188491
0.929943056963813
0.9929075632951881
0.8879177575760288
0.8863120045164802
0.8875185277104993
0.8855213717407023
0.8871665124258014
0.8860009309493778
0.8850473006917449
0.8855622261493941
0.9129079727382154
0.8874725330436812
0.8893093024526743
0.891389545074469
0.8874333941065012
0.9699611374676969
0.9965263788716183
0.9034299289768124
0.8687910716304732
0.8922610245778023
0.9036867750222588
0.8377550558376423
0.825246861651804
0.8339526064748468
0.8260870702573707
0.8152370449026136
0.8117680846156206
0.8176980163566547
0.8496136777889324
0.8872975403377215
0.8369437391971284
0.9789510667003213
0.8889561286081749
0.9455263840707708
0.8893262832724289
0.9553732910303734
0.9347060608632367
0.9395452339292228
0.918552252722948
0.93983933819897
0.9376126972900299
0.9230756164264093
0.917416468505125
0.8950242323840814
0.8886875938176549
0.9837727641076426
0.9796802167391507
0.9957151023447933
0.8680460141111451
0.9456415548626403
0.9516390529575244
0.9683621631102005
0.9715290917999141
0.8889958043763039
0.9277426979531668
0.9429671021784491
0.894653114244781
0.894989862128215
0.8915312080006803
0.8789276592478328
0.9407656317215878
0.9422363932540619
0.8795027903495338
0.8925864938099564
0.948438952965245
0.9614830181891892
0.8764808308700766
0.9109507736005301
0.92018666100243
0.9239708995850413
0.9123141558695703
0.9536648359690757
0.8804022404667892
0.8266106208191257
0.9551029228314657
0.9053511515953654
0.9723925316568724
0.9190965629196559
0.9203742992556607
0.9223921500835557
0.9182710865553293
0.9140585172700435
0.8988871558726912
0.8877828569903609
0.8932276756875093
0.8986280768585989
0.8983307050812683
0.883006239395604
0.982382126656693
0.9782083912797108
0.9793048049150489
0.9765550474135244
0.9729844182089783
0.9737776312977143
0.9746001686028214
0.9544707400435583
0.8866311607512916
0.8811915112536711
0.8856173516011726
0.9550677075818634
0.961045347561149
0.9483611328064914
0.9171780007399236
0.9379359479265296
0.9388074835132365
0.9349050229903046
0.9337501935849386
0.9185710461347288
0.8890687224552567
0.8887040542008766
0.890709159887289
0.8892027130320787
0.9070965793650978
0.9182803706299131
0.917284024301599
0.9125184930049998
0.9143651961046834
0.7992593120415844
0.7364091186214171
0.9855208045464806
0.9874319993562559
0.987416673128899
0.9885703513100913
0.9265527236560339
0.9658398501337584
0.8256271126933908
0.8341315843012799
0.8651887450202245
0.8718956402495578
0.8808837849803233
0.9111239107899025
0.9077005575927884
0.8341140253139242
0.9134536458606726
0.9499804888118597
0.9914236013400161
0.926716576277199
0.9310710943811403
0.9066437104549453
0.9897105610603519
0.9507362146818502
0.951470112864307
0.9428656247624457
0.9101316992398766
0.90746033309851
0.9044894456676247
0.9061918756432877
0.8698155892814817
0.8696444227229853
0.8664605187943711
0.9910142045145376
0.9725211564870252
0.9715628992376126
0.9736964173902679
0.9723762494467133
0.975033034851101
0.9743359191651347
0.9778767550634573
0.8877049813503052
0.8457130025776634
0.9838936681881602
0.9838113199690518
0.9489141250328686
0.9783727316995147
0.983332925721331
0.9755171305173038
0.9523723495825398
0.9507233958224462
0.9327568688857136
0.8983266555886666
0.9339125338754417
0.9917973863651502
0.9219502476015975
0.9235609990639354
0.9266036456743925
0.9205151614667993
0.9244513448494392
0.9261518106381433
0.9237433691492178
0.9207688732100295
0.9672267449383589
0.9230110940143097
0.9301287785680517
0.9706724851754434
0.9628620586018555
0.8895649589478354
0.8622894115108352
0.8951549912970158
0.9152548167458076
0.8939555226188657
0.895648655803679
0.9024885193234788
0.9713342903687235
0.9736808129203864
0.9739460701206533
0.9728473228896687
0.9951784261031181
0.8938698820838967
0.9656977478873121
0.9316676720170761
0.9727368529450103
0.9214241879488618
0.8865417806429349
0.9475903649934129
0.8892289078861835
0.9396741249135258
0.9430243710986188
0.9314509235741403
0.9375093684178258
0.9606081287046057
0.9603488918909725
0.9620620773212232
0.9315690965280061
0.9506537441714794
0.9226903770291837
0.9417699861548356
0.9432719349574773
0.8888488654779848
0.9243733634488459
0.9856462709543656
0.9498528017755741
0.9610903267298027
0.9607824126060199
0.9631142973822642
0.9601707411145747
0.9628206327157043
0.9655991365758474
0.9627227439860098
0.94127563569533
0.9395596392419522
0.9577025678951732
0.9304113650600844
0.9847106445341038
0.9486443482758429
0.9582885429807815
0.9926122648378081
0.941982444209512
0.8998278877833972
0.9545097775637492
0.899216333144274
0.6959442656650019
0.9852505172480245
0.9275095487218884
0.9083252604996076
0.9191906300138568
0.8942800226614471
0.9049202486819129
0.8865982727048701
0.9333128034270888
0.9429407474683322
0.944126482027403
0.9124198200981413
0.9421998218506301
0.937974083776486
0.9363959980599981
0.9441042085498762
0.9662283705190796
0.9118832647623468
0.9562230777145243
0.9548945665844143
0.953407147790328
0.9554259908217376
0.9412066444722207
0.8890964378792521
0.933975887725887
0.8880813310659457
0.9410157478009401
0.9100881967447353
0.9549842267694203
0.9364293671811991
0.9543838164343712
0.949649457113778
0.9589672924444651
0.9691108386742455
0.9047245861595694
0.8113721888284559
0.9267258121506647
0.9514524818441965
0.8920980622372262
0.9232022563469333
0.9678503599860633
0.9105330705027596
0.9449065067297685
0.9459762667566856
0.8894544838197465
0.9863513320170343
0.8970944196694937
0.9167819408656795
0.9517263840138327
0.9507737981002576
0.9688282167185609
0.9667215302515425
0.9640146044119805
0.9450468338806404
0.9912179868922556
0.9923792529026841
0.9667188461526444
0.9754085856650094
0.9951756591833206
0.9909638819111977
0.9263283158604797
0.9359610402112313
0.9905831451816564
0.9213321780781197
0.9296611802107462
0.9041402849249291
0.9749665972831225
0.9762947000387532
0.9292837607270422
0.9583946829107155
0.964527482303788
0.9169924863067085
0.8943941882970469
0.9413746472419854
0.8911447720686942
0.7969590069003921
0.9454147175267472
0.9589225410128984
0.8741231019944027
0.87539902486896
0.9503315543624543
0.9352378670279161
0.9564779101327164
0.9256577910964014
0.974333797005974
0.8569058106061419
0.8021836523131585
0.8724619917005346
0.9459848587718728
0.952413379539388
0.8894402392978284
0.7184771044989214
0.9794152682812551
0.9760068011859634
0.930727005914345
0.9651535209916826
0.9432837568037058
0.9664527307386884
0.9683033085055027
0.9669769745452305
0.919449905178057
0.9125163930193515
0.9863482285452462
0.9846047902306646
0.9674707935729105
0.9403089600278277
0.9770271017030021
0.9441021547237557
0.9340275496479248
0.88740244878002
0.8849890202256919
0.93376890916035
0.9292658647442472
0.9604647095417284
0.9016314829531472
0.8920346013371812
0.9818230270352987
0.9483635653603706
0.9466439775433486
0.9734434890083576
0.9599508304649881
0.9701109035243657
0.9916656131788361
0.9304623004748562
0.7934637209527744
0.9507998230608099
0.9694653180556321
0.9708002741357546
0.9139870303015613
0.929448911344907
0.9103103318611401
0.8586308941498384
0.9666993016183842
0.9071484763609959
0.8985012946668374
0.9450983291049437
0.8985052053014896
0.9087033776270083
0.8829760345229903
0.9673363008496759
0.9382267888598471
0.9657367600436585
0.9264071275065293
0.9960378694108402
0.9958497077575927
0.9222588391989807
0.9710967496335708
0.9622965201212548
0.9391068739498083
0.9021572716692293
0.9386166034314081
0.9431208094399911
0.9421487661940441
0.9617599594994758
0.978368296064719
0.8508740145435721
0.8622070365251985
0.8703852289410622
0.8738576041924385
0.8783154964219411
0.9210646325947601
0.9272461117779679
0.9876438692078199
0.8912566725556427
0.9006752770756644
0.8980553905713797
0.9268295614101171
0.9472654137370788
0.9376189466094824
0.9303636048860174
0.9686540275155942
0.9587209491923915
0.8890512388184519
0.887245769302909
0.9444787402614109
0.9447048315225741
0.9863226813720851
0.8903414613156772
0.9943875550508506
0.9003113092195756
0.9800396011819765
0.9344582777795705
0.9944736649221713
0.9168710892556038
0.9082532419624015
0.8964678071580695
0.9385001352540762
0.9535862773902992
0.9339060589310991
0.9748822544395304
0.9398580337024136
0.9416602582757799
0.9631801285542969
0.9883786967214649
0.865330737306071
0.9449152327992122
0.9131816552876466
0.9771352503448366
0.9320233611389164
0.928045303851384
0.8825977795691785
0.9090569467415799
0.4870874524350882
0.9417504828444059
0.9135103970698067
0.9055609054915075
0.8926457877807568
0.9681593699574997
0.9863555485423156
0.9014673660654428
0.8902855736775634
0.9860624617482356
0.8673538733541893
0.942583840051119
0.8773220269484743
0.911322683847529
0.9377031057821629
0.9468643811610509
0.9513735303297793
0.8894563142545437
0.8892337006894552
0.8827595174982434
0.8869513323210199
0.9411666330774178
0.967453329293377
0.9053917384829776
0.9000564509350047
0.8454519101764114
0.9660329783282485
0.9470511646892485
0.8767616719047722
0.9372408134894172
0.9208412140300877
0.9429717138905416
0.9314649995219525
0.9525643962229857
0.9279749792738455
0.9439220307030769
0.9304623678232836
0.9394995315346703
0.9414412007569652
0.8101463259173359
0.888707868201746
0.9248874575101219
0.948416317130337
0.8910952572965744
0.9746239159277538
0.9411968278941111
0.924713189694582
0.9342150274676291
0.9338509765737087
0.8583115895217375
0.9573164965747443
0.9450167840046675
0.951642490394366
0.8741173581270011
0.9017385414397816
0.7966296543895827
0.9333351015597012
0.9726422240880996
0.8904739029400576
0.9524319502167288
0.9035942874896433
0.9672432574981804
0.8604513409150047
0.9000687966025964
0.883649653157877
0.9442871278411126
0.9263695486760277
0.9608279356916695
0.9540694897074571
0.9358445182296066
0.9091984452133973
0.9185687829131807
0.886597960905453
0.9647940143234186
0.9677785337091772
0.9232948929778322
0.9303576451684077
0.9561227372007304
0.9402173980157966
0.8960209751436007
0.9926501949289199
0.89374941664162
0.9458426110787505
0.8892728196922551
0.9428300514778422
0.9393427062133654
0.9414282341132041
0.9452607089275937
0.8061831471100495
0.8637969657533071
0.9945869246855565
0.9918494695370289
0.9085470880155367
0.9439446032332355
0.9114655920948832
0.9429002362375208
0.880172892861356
0.9055839107994271
0.9511386825242749
0.9534682053639654
0.9159624075151354
0.8903048870877887
0.8821535965115178
0.9797154967827055
0.9698210828406005
0.8875934600015106
0.9185345101556225
0.9361778396141838
0.8671018211819039
0.8955904652927626
0.858774995259988
0.7571862248292888
0.8926539013066495
0.9433773590652532
0.9098746282971203
0.9757546170957746
0.889202778954565
0.9914560669058173
0.8829473284210341
0.9146773958847847
0.9413656982883055
0.8884761054350296
0.8814884405596134
0.8905094033011609
0.9139811868724369
0.9602468743066095
0.9228386015622279
0.9567382785802724
0.9007147231564434
0.9282654385583521
0.92824066314049
0.9527332176299118
0.7141382104216994
0.8915943403186664
0.9154802831016835
0.8868019796493578
0.9108426043857982
0.959329264390019
0.9366972960478822
0.939320173093639
0.9340709154042023
0.9527704660894047
0.8858309131057266
0.9073858906661005
0.8861229423231246
0.8768081317326195
0.9727824791902844
0.9511931523693391
0.8831029090171805
0.9030926596738512
0.8839730133100562
0.8998477668665414
0.9200516203843098
0.9385793654846385
0.8714946829977019
0.9402807029975315
0.9402998848237661
0.9791041079834266
0.9765051926106443
0.8163958027578804
0.9448187629862853
0.9264912661916205
0.8623036146184442
0.9786554042865586
0.9274293617376318
0.9457959472116052
0.9573373756002512
0.6999875999851941
0.9292436393930684
0.9941847204225224
0.9032866830503645
0.9946716241468836
0.8694131975277261
0.9784289484608231
0.9376778441178694
0.9381340899290416
0.9008950382375618
0.7721074153409287
0.8339692832163064
0.9527579538288515
0.934503164037733
0.8995174758256345
0.9174047786613146
0.9197474038811498
0.8884247547488449
0.9798381639344589
0.9629069035468072
0.9082542759662269
0.9867316637542545
0.9414809584952366
0.9025583109341245
0.9528062168513532
0.9680925145252894
0.9356921383761446
0.9148464600782176
0.9021793422283744
0.8980854374336008
0.9896944348050422
0.934224530033682
0.9055747074039032
0.8848898823350932
0.9055057246764994
0.9179024998808741
0.9375636889027028
0.88250979806557
0.8819736110276766
0.9559323634487101
0.973455568644884
0.9707579044139203
0.928204772191316
0.9877221434897742
0.9355596095985207
0.9337897957596659
0.8993919949100676
0.8535729763314989
0.8636009126690829
0.8532784798929939
0.9306052120078223
0.9223200078994475
0.8755885481512714
0.7611761788604332
0.8999479209566632
0.8603810561965819
0.9452379791807857
0.8940061369080597
0.924085766841615
0.96779409202567
0.884622699011516
0.8761291125733282
0.9388346295977722
0.8554066607594686
0.888835776522757
0.8008898630195171
0.938705096771376
0.9634629625948322
0.8296670272745121
0.9271672887952652
0.9592882712081104
0.9553193670701534
0.9800852536167283
0.9724077397277676
0.9737060361302433
0.9690812383145877
0.9337136579412885
0.8491274448812779
0.9313752177543565
0.9366574811231545
0.9320762703415741
0.9973126929856169
0.8862972304843894
0.8885542060089161
0.9185878748730789
0.8886230208580729
0.9346076058231128
0.9969125934603079
0.9983302674886927
0.9236083071519995
0.8945535338990704
0.9346432833391837
0.9722771967200249
0.9929746231331478
0.9080129504904945
0.9167768214363282
0.8847805719475323
0.9177583161987645
0.935131793483725
0.9087942569719203
0.8983628445987115
0.9203331157835666
0.8852684985178453
0.9169438039234806
0.9541097108136078
0.9400048092132558
0.8812013336288367
0.8842260556907142
0.9775207241103733
0.9434473371835506
0.9353920479359072
0.9163115920459962
0.9038263788465455
0.8554996674533153
0.8896763371198069
0.9398074618202683
0.8461743562946478
0.9417927359113478
0.9446615731313627
0.9766562551800729
0.8909990890887536
0.9499515038644345
0.9393623392110293
0.9479265411958293
0.8877385643654445
0.948680903312948
0.9153666739072948
0.970032819296511
0.9179989168475947
0.9382115896572103
0.9904549628457052
0.9218895350098321
0.9417984961596428
0.9452548622871164
0.8789189180065019
0.984419673768189
0.9402970125736442
0.9331027284605595
0.8526085457935317
0.9945953778685153
0.9558356539410015
0.7975219261392306
0.9346485221474861
0.9871259494139064
0.9295958794337289
0.9443633693729486
0.8926803020819173
0.9783676317980852
0.9051314144652871
0.9179291378441855
0.8267196477969027
0.958697710573005
0.9701569910939277
0.9448640536735491
0.9717168151749729
0.9508436581212137
0.9303379329029978
0.9904828060875389
0.9788114111817383
0.8883896526958791
0.9026719857797738
0.9691536120414262
0.962412651641727
0.9880155196503803
0.8132257536818593
0.9120418389677071
0.8230037922243802
0.8988155284724382
0.9517158652292306
0.8910212967295071
0.8787520299425032
0.9473234765970989
0.9452215781506896
0.8867750365212205
0.8794206954199155
0.9714899048603973
0.9070758459419793
0.9008081237952461
0.8895269154396608
0.9421659845203648
0.9675765189383672
0.8799247332973855
0.9398151921311455
0.8251018371080289
0.9792940882660932
0.93312104299049
0.9105982772518202
0.9128681149968074
0.9831592107020622
0.9358637966640404
0.890280622303503
0.9249240882158155
0.9547891879478265
0.9283736043845511
0.8992543366668012
0.9357298182414016
0.9128404170436138
0.8870435233680575
0.9752459466437001
0.9847828175915896
0.9603397486846763
0.9399726947299852
0.9451607321595157
0.9288444234306766
0.9865574454757863
0.9666493925956111
0.9254969707950892
0.8851849632952257
0.9390939191553995
0.886923755286047
0.9254831243410793
0.9088132736212472
0.9569861091690479
0.93536677879724
0.9005618348741721
0.9379339918535335
0.9742057550652313
0.9281456052475954
0.941040830956197
0.9163923917994946
0.9627807310394422
0.9028732556672119
0.8927910863733781
0.9071175272341812
0.7520682889459839
0.898540735336029
0.9198040555792215
0.8215995515954893
0.5931176352546212
0.8224587172416996
0.8856052133034858
0.857133263792284
0.9571460767977227
0.926687472180753
0.9962552951104591
0.8958107810295489
0.8875134091047141
0.8744491254624844
0.9825451876202809
0.9043346441946396
0.914057340565342
0.9347608584965542
0.9397852744437266
0.8312886565345986
0.9723994923912752
0.9156097571774873
0.92993324442989
0.9122946447923719
0.9250728736277478
0.9945740797065136
0.8861126045996074
0.9029763092386812
0.8929198400040336
0.8894959671084441
0.9824635403616071
0.9672972851760089
0.9930408665626796
0.9677204590543209
0.9272861299662913
0.9243584495578551
0.8645060256856887
0.9361459322552547
0.8960617686512339
0.8842894418072641
0.9125420525077791
0.9020387619824421
0.9656988804104095
0.8960216359134959
0.8885629484161863
0.8916098651742919
0.8880564536267863
0.9598711538376521
0.9109162121159888
0.8742462529572705
0.9074806772417694
0.9979626331881097
0.9569280412720041
0.9196595442053613
0.8497287596066752
0.9327280734737275
0.977173985278226
0.9076610817924028
0.9206490704358583
0.9750265355166575
0.9350762679017043
0.9481319737646997
0.8710666046798815
0.9489806356881861
0.9879964966387055
0.9262933372530734
0.9939194995581061
0.8712139268233541
0.9889372264582561
0.8088819208656788
0.8634141512951058
0.831515111435452
0.9474554014411865
0.9530787646021359
0.7999212352952397
0.9480214878940949
0.988550810759314
0.9966611731100092
0.9027663384686285
0.9615480739977667
0.9321746294206401
0.994912708841638
0.9255429178896977
0.5970054362543498
0.9215208435223954
0.8981524349193765
0.9927581747220169
0.9622188463319719
0.8938514169285107
0.9540155464751776
0.997249841169464
0.875080719709326
0.9517884954985618
0.8732303913327573
0.8539458038054402
0.988915241156222
0.8868072383883705
0.9706713653571916
CELL_DATA 4886
TENSORS stress float
-9.592259426494244e6 1.0291116685969259e6 0.0
1.0291116685969259e6 1.1760093647672055e7 0.0
0.0 0.0 0.0

-9.26378650977081e6 666538.664919555 0.0
666538.664919555 4.811365711018084e6 0.0
0.0 0.0 0.0

-7.832934499285635e6 9.491179518919688e6 0.0
9.491179518919688e6 4.86344871725085e6 0.0
0.0 0.0 0.0

-5.138137362699632e6 1.1233689010732332e7 0.0
1.1233689010732332e7 4.396293965822062e6 0.0
0.0 0.0 0.0

-5.408206162975722e6 1.0999171657618126e7 0.0
1.0999171657618126e7 2.0941022726166255e6 0.0
0.0 0.0 0.0

3.315584983107737e6 2.7697343014731472e6 0.0
2.7697343014731472e6 -4.876005374332821e6 0.0
0.0 0.0 0.0

1.035152898886029e7 1.1243737938180303e7 0.0
1.1243737938180303e7 1.8332208323283934e6 0.0
0.0 0.0 0.0

3.5844979999036775e6 6.105846213230203e6 0.0
6.105846213230203e6 -1.050039945628576e7 0.0
0.0 0.0 0.0

-9.370863929813877e6 2.024110127234698e6 0.0
2.024110127234698e6 1.252944790367769e7 0.0
0.0 0.0 0.0

-1.800403503470131e6 1.0957598911163926e7 0.0
1.0957598911163926e7 3.3123089353371365e6 0.0
0.0 0.0 0.0

-3.5038575217466257e6 1.0179697191715235e7 0.0
1.0179697191715235e7 -796893.5548696287 0.0
0.0 0.0 0.0

-8.146225026129089e6 1.3248076346768009e7 0.0
1.3248076346768009e7 4.797727641947234e6 0.0
0.0 0.0 0.0

2.6553597092906963e6 8.112876407434294e6 0.0
8.112876407434294e6 -1.0035173179160306e7 0.0
0.0 0.0 0.0

1.87388891449077e7 1.3415187526720542e7 0.0
1.3415187526720542e7 1.1908564170890274e6 0.0
0.0 0.0 0.0

-3.73812601435641e6 1.0445851772077302e7 0.0
1.0445851772077302e7 -893989.7661536257 0.0
0.0 0.0 0.0

2.5434170314631173e6 5.246940891417012e6 0.0
5.246940891417012e6 -5.343075025713788e6 0.0
0.0 0.0 0.0

220017.68302956596 9.9551083705405e6 0.0
9.9551083705405e6 -7.468342083779665e6 0.0
0.0 0.0 0.0

925823.6998040187 9.477572397283541e6 0.0
9.477572397283541e6 -8.13789713626617e6 0.0
0.0 0.0 0.0

-1.8228325938305857e6 1.5147514033426277e6 0.0
1.5147514033426277e6 2.193629380840254e6 0.0
0.0 0.0 0.0

-4.794555046608446e6 1.1709812616235925e7 0.0
1.1709812616235925e7 -235625.5847705542 0.0
0.0 0.0 0.0

554576.5593892089 7.96855895211732e6 0.0
7.96855895211732e6 -5.551387562048781e6 0.0
0.0 0.0 0.0

-7.637099848171583e6 1.3277743550576651e7 0.0
1.3277743550576651e7 4.194679909206951e6 0.0
0.0 0.0 0.0

-1.9330318216233498e6 5.532181208710296e6 0.0
5.532181208710296e6 765167.5705206019 0.0
0.0 0.0 0.0

-4.763296631720962e6 1.1126812819527287e7 0.0
1.1126812819527287e7 1.2348856099640187e6 0.0
0.0 0.0 0.0

1.5796455684891227e6 9.051939860400923e6 0.0
9.051939860400923e6 -9.61399600222361e6 0.0
0.0 0.0 0.0

-2.4588601998764263e6 2.021291453879641e7 0.0
2.021291453879641e7 -4.944882126526654e6 0.0
0.0 0.0 0.0

5.875070389896875e6 1.1453442906083947e7 0.0
1.1453442906083947e7 2.6600854621560904e6 0.0
0.0 0.0 0.0

-6.63409550437645e6 6.075358993515921e6 0.0
6.075358993515921e6 7.606500904231522e6 0.0
0.0 0.0 0.0

1.9888360496840442e6 5.03210150854686e6 0.0
5.03210150854686e6 -4.780533839608848e6 0.0
0.0 0.0 0.0

-651858.4613439046 2.1989440761572574e6 0.0
2.1989440761572574e6 -917662.9985327385 0.0
0.0 0.0 0.0

-2.2402508628167054e6 5.893832389862102e6 0.0
5.893832389862102e6 306371.1562205389 0.0
0.0 0.0 0.0

744894.5454235987 6.87192548238608e6 0.0
6.87192548238608e6 -4.766559626611029e6 0.0
0.0 0.0 0.0

-1.0110185689580527e6 9.006070191080887e6 0.0
9.006070191080887e6 1.245987958902877e6 0.0
0.0 0.0 0.0

-542312.3193210664 1.1203285680775953e7 0.0
1.1203285680775953e7 -775002.7243955954 0.0
0.0 0.0 0.0

-5.30653153732619e6 9.511939156604422e6 0.0
9.511939156604422e6 2.8727792729989807e6 0.0
0.0 0.0 0.0

-1.7391982521253827e6 4.966630394764912e6 0.0
4.966630394764912e6 -225504.47035447235 0.0
0.0 0.0 0.0

-805064.5650351465 7.53113729374534e6 0.0
7.53113729374534e6 -3.04559321373464e6 0.0
0.0 0.0 0.0

-4.842122657786364e6 9.51959537012276e6 0.0
9.51959537012276e6 2.739658633056717e6 0.0
0.0 0.0 0.0

441474.66979569895 9.942855432154637e6 0.0
9.942855432154637e6 -8.970488701494556e6 0.0
0.0 0.0 0.0

-6.50008272104495e6 1.1411125879303275e7 0.0
1.1411125879303275e7 3.7855463024506513e6 0.0
0.0 0.0 0.0

2.415841959581208e6 8.205208539295452e6 0.0
8.205208539295452e6 -1.0809743553775214e7 0.0
0.0 0.0 0.0

-8.073780471560463e6 9.645125422247607e6 0.0
9.645125422247607e6 5.243418036591956e6 0.0
0.0 0.0 0.0

-6.178799043769876e6 1.114400451178917e7 0.0
1.114400451178917e7 3.492263286864402e6 0.0
0.0 0.0 0.0

-2.178789088861023e6 4.0857184217816927e6 0.0
4.0857184217816927e6 1.9360843418683028e6 0.0
0.0 0.0 0.0

384671.1271484399 8.046585551004853e6 0.0
8.046585551004853e6 -6.055710029144771e6 0.0
0.0 0.0 0.0

-6.150443187356433e6 7.433258755255936e6 0.0
7.433258755255936e6 7.82039576983249e6 0.0
0.0 0.0 0.0

-1.9001898819853798e6 1.1305519872361887e7 0.0
1.1305519872361887e7 -3.18080837284077e6 0.0
0.0 0.0 0.0

-637890.6469619803 7.34839632176634e6 0.0
7.34839632176634e6 -3.397770241870873e6 0.0
0.0 0.0 0.0

3.168952855388209e6 6.013144306326228e6 0.0
6.013144306326228e6 -9.321754887579923e6 0.0
0.0 0.0 0.0

188362.7273566692 1.0021322787059983e7 0.0
1.0021322787059983e7 627875.9414268935 0.0
0.0 0.0 0.0

-5.67437954839803e6 1.1429280490770867e7 0.0
1.1429280490770867e7 2.813952434748269e6 0.0
0.0 0.0 0.0

-5.160185291410432e6 -311171.5712312402 0.0
-311171.5712312402 4.785149577138972e6 0.0
0.0 0.0 0.0

3.2475283469722443e6 5.973955508416242e6 0.0
5.973955508416242e6 -9.439117930649519e6 0.0
0.0 0.0 0.0

-4.859165143906045e6 1.0583914783760667e7 0.0
1.0583914783760667e7 2.288080645565047e6 0.0
0.0 0.0 0.0

-483807.82619341323 1.0506948903696239e7 0.0
1.0506948903696239e7 1.4852278862034602e6 0.0
0.0 0.0 0.0

-4.628275332343504e6 1.1362832451941118e7 0.0
1.1362832451941118e7 2.858625565221789e6 0.0
0.0 0.0 0.0

3.6898434138956107e6 6.361347810415118e6 0.0
6.361347810415118e6 -1.1222663043564849e7 0.0
0.0 0.0 0.0

-6.361579474141477e6 1.15258996761146e7 0.0
1.15258996761146e7 4.1088885303583653e6 0.0
0.0 0.0 0.0

-3.9133396667508874e6 1.2354712921244152e7 0.0
1.2354712921244152e7 7.403479963888552e6 0.0
0.0 0.0 0.0

1.0528899528010977e6 7.833604203761701e6 0.0
7.833604203761701e6 -6.588756558455797e6 0.0
0.0 0.0 0.0

423039.24012778257 8.755211749907423e6 0.0
8.755211749907423e6 -6.003559562559032e6 0.0
0.0 0.0 0.0

6.849487470181869e6 1.1049541887386879e7 0.0
1.1049541887386879e7 -9.277230109868683e6 0.0
0.0 0.0 0.0

-1.5278874759051662e6 1.0088533258554911e7 0.0
1.0088533258554911e7 -627690.3454596717 0.0
0.0 0.0 0.0

-786509.8337306757 3.1392759497076888e6 0.0
3.1392759497076888e6 -632454.4012631258 0.0
0.0 0.0 0.0

1.0933405338810578e6 4.867255827390667e6 0.0
4.867255827390667e6 -3.6887804797213096e6 0.0
0.0 0.0 0.0

2.8222391975058303e6 6.289819444456735e6 0.0
6.289819444456735e6 -9.19238190846208e6 0.0
0.0 0.0 0.0

2.914716711494189e6 7.640954268275875e6 0.0
7.640954268275875e6 -1.0059027376224743e7 0.0
0.0 0.0 0.0

-5.001537764714656e6 1.0351767318250194e7 0.0
1.0351767318250194e7 1.8492956960937534e6 0.0
0.0 0.0 0.0

-4.514244384042045e6 1.1259932969151562e7 0.0
1.1259932969151562e7 6.281687273681125e6 0.0
0.0 0.0 0.0

2.996911871812759e6 1.068314053573221e7 0.0
1.068314053573221e7 3.771766324397781e6 0.0
0.0 0.0 0.0

-2.6443770369916717e6 4.368873304161745e6 0.0
4.368873304161745e6 1.5149077066058763e6 0.0
0.0 0.0 0.0

1.7635991520333434e6 8.941478910723168e6 0.0
8.941478910723168e6 -9.071213503886053e6 0.0
0.0 0.0 0.0

303918.7434664159 9.968153158787616e6 0.0
9.968153158787616e6 -8.88970541871783e6 0.0
0.0 0.0 0.0

-5.227141118283615e6 1.2862051175744968e7 0.0
1.2862051175744968e7 1.1606744854563499e7 0.0
0.0 0.0 0.0

-5.77597971299267e6 1.0706363813162038e7 0.0
1.0706363813162038e7 5.023183768815588e6 0.0
0.0 0.0 0.0

-6.306495300795001e6 7.187981420624902e6 0.0
7.187981420624902e6 6.936526159989826e6 0.0
0.0 0.0 0.0

-8.550668078050638e6 4.1328757561833737e6 0.0
4.1328757561833737e6 9.42322942419229e6 0.0
0.0 0.0 0.0

438916.9112063935 9.85993772551521e6 0.0
9.85993772551521e6 -7.350806633597483e6 0.0
0.0 0.0 0.0

678157.0613833533 1.0285336375960803e7 0.0
1.0285336375960803e7 -5.858739732594257e6 0.0
0.0 0.0 0.0

-519874.8808959726 8.572442298226083e6 0.0
8.572442298226083e6 -4.878760003795372e6 0.0
0.0 0.0 0.0

1.5884547574836556e6 1.4616015517851407e7 0.0
1.4616015517851407e7 -5.860413230970862e6 0.0
0.0 0.0 0.0

-4.049717504649711e6 -301995.4794879316 0.0
-301995.4794879316 4.36241907820978e6 0.0
0.0 0.0 0.0

1.621763109045632e6 9.461708786953805e6 0.0
9.461708786953805e6 -3.869652018575387e6 0.0
0.0 0.0 0.0

-8.867017478048343e6 1.4274682425226688e7 0.0
1.4274682425226688e7 4.481336481037218e6 0.0
0.0 0.0 0.0

-4.930398488688552e6 1.1223006979140764e7 0.0
1.1223006979140764e7 4.398323752615565e6 0.0
0.0 0.0 0.0

1.189195978448283e6 5.677337224729249e6 0.0
5.677337224729249e6 -5.627636678463354e6 0.0
0.0 0.0 0.0

1.0654998431041634e6 6.557107116665548e6 0.0
6.557107116665548e6 -5.097032168203169e6 0.0
0.0 0.0 0.0

-342807.64209852606 8.416425158393802e6 0.0
8.416425158393802e6 1.017541263426058e6 0.0
0.0 0.0 0.0

-7.933556907706253e6 2.2494623460096322e7 0.0
2.2494623460096322e7 -8.53550362419358e6 0.0
0.0 0.0 0.0

-1.1743842280270256e7 1.1957152978946758e6 0.0
1.1957152978946758e6 1.5471814302842617e7 0.0
0.0 0.0 0.0

1.084899889843043e6 1.1040701561533922e7 0.0
1.1040701561533922e7 -5.098747734211339e6 0.0
0.0 0.0 0.0

588289.4615281834 1.0207297752552088e7 0.0
1.0207297752552088e7 -6.462726136706674e6 0.0
0.0 0.0 0.0

-298032.4420213918 6.867597455114505e6 0.0
6.867597455114505e6 -3.797302445704756e6 0.0
0.0 0.0 0.0

1.3367809111957005e6 3.970874911239519e6 0.0
3.970874911239519e6 -4.891842954639835e6 0.0
0.0 0.0 0.0

530024.0382513267 1.205582267577489e7 0.0
1.205582267577489e7 -4.442355302879853e6 0.0
0.0 0.0 0.0

295568.31808457524 9.9730835180513e6 0.0
9.9730835180513e6 -8.24618395463429e6 0.0
0.0 0.0 0.0

3.413657345013601e6 6.040927324946574e6 0.0
6.040927324946574e6 -1.0364013933678273e7 0.0
0.0 0.0 0.0

-5.850968235898169e6 1.0584458450348845e7 0.0
1.0584458450348845e7 4.640719056630453e6 0.0
0.0 0.0 0.0

1.7320874738721545e6 7.694811161343353e6 0.0
7.694811161343353e6 -8.585601182035023e6 0.0
0.0 0.0 0.0

3.8946156311305035e6 6.49096480243925e6 0.0
6.49096480243925e6 -1.140473666771231e7 0.0
0.0 0.0 0.0

-2.736617348454429e6 1.137125340582881e7 0.0
1.137125340582881e7 2.691961702073915e6 0.0
0.0 0.0 0.0

-3.375747489543615e6 7.488078720613017e6 0.0
7.488078720613017e6 -208548.5704124571 0.0
0.0 0.0 0.0

-2.0965720926651028e6 5.8254643755450295e6 0.0
5.8254643755450295e6 847372.2588303133 0.0
0.0 0.0 0.0

-5.513382173855289e6 1.107568033024461e7 0.0
1.107568033024461e7 2.9964074887174168e6 0.0
0.0 0.0 0.0

-124374.60287329915 6.8970318060573535e6 0.0
6.8970318060573535e6 -2.998955887665217e6 0.0
0.0 0.0 0.0

-2.4833633604119844e6 6.4313657150723925e6 0.0
6.4313657150723925e6 815314.4326388536 0.0
0.0 0.0 0.0

-4.169413116664542e6 98021.65173121436 0.0
98021.65173121436 5.317368356792875e6 0.0
0.0 0.0 0.0

-535206.7044275284 8.413365501265455e6 0.0
8.413365501265455e6 -4.5515340156834675e6 0.0
0.0 0.0 0.0

-7.4184019146758355e6 1.3087928591544705e7 0.0
1.3087928591544705e7 4.2510246187818665e6 0.0
0.0 0.0 0.0

-1.512631664331882e6 5.13789153028517e6 0.0
5.13789153028517e6 190486.51368043362 0.0
0.0 0.0 0.0

2.6323575504299277e6 7.870265537407299e6 0.0
7.870265537407299e6 -1.083047916420683e7 0.0
0.0 0.0 0.0

-825518.9583575521 6.458030388107546e6 0.0
6.458030388107546e6 -2.663639279998891e6 0.0
0.0 0.0 0.0

84094.98202713067 9.700855907076657e6 0.0
9.700855907076657e6 3.4561837438168237e6 0.0
0.0 0.0 0.0

8.000765917595252e6 1.2475042021633541e7 0.0
1.2475042021633541e7 2.5346716392525295e6 0.0
0.0 0.0 0.0

972697.2495439418 6.235913233957607e6 0.0
6.235913233957607e6 -5.442332089078802e6 0.0
0.0 0.0 0.0

-138488.1775922128 1.0068033231417064e7 0.0
1.0068033231417064e7 -8.777658191398442e6 0.0
0.0 0.0 0.0

1.1207987969467065e6 6.421846782490725e6 0.0
6.421846782490725e6 -5.829082355081857e6 0.0
0.0 0.0 0.0

1.4115863437040846e6 5.612060393057066e6 0.0
5.612060393057066e6 -5.854253218031942e6 0.0
0.0 0.0 0.0

8.959363083940066e6 9.782771547662545e6 0.0
9.782771547662545e6 264543.13604354253 0.0
0.0 0.0 0.0

-1.3618270953677088e7 1.2615612004476951e7 0.0
1.2615612004476951e7 9.266770135158705e6 0.0
0.0 0.0 0.0

569344.1563278586 9.815449937354391e6 0.0
9.815449937354391e6 -8.588440317728283e6 0.0
0.0 0.0 0.0

-4.084576144086757e6 1.1023959518870577e7 0.0
1.1023959518870577e7 414246.4613596911 0.0
0.0 0.0 0.0

2.6946516547603374e6 5.968522960685499e6 0.0
5.968522960685499e6 -7.99675517877593e6 0.0
0.0 0.0 0.0

-5.537252854507716e6 1.1365077381534299e7 0.0
1.1365077381534299e7 3.2754404479980343e6 0.0
0.0 0.0 0.0

-4.545799669168383e6 1.5982738025628647e7 0.0
1.5982738025628647e7 -344998.7663580796 0.0
0.0 0.0 0.0

-1.012258976587749e7 2.3500987783049014e6 0.0
2.3500987783049014e6 1.2002995294039434e7 0.0
0.0 0.0 0.0

-9.803521813986117e6 2.119882396828047e7 0.0
2.119882396828047e7 -1.9176421152820182e6 0.0
0.0 0.0 0.0

-643993.570248045 1.1273129175049474e7 0.0
1.1273129175049474e7 -856937.226782071 0.0
0.0 0.0 0.0

3.228882530041157e6 5.922271206984673e6 0.0
5.922271206984673e6 -9.574932376252163e6 0.0
0.0 0.0 0.0

7.887184088199493e6 8.916475156575315e6 0.0
8.916475156575315e6 -4.416283088267839e6 0.0
0.0 0.0 0.0

-2.8795962156705037e6 1.1153334643879721e7 0.0
1.1153334643879721e7 2.707015200949759e6 0.0
0.0 0.0 0.0

2.4118417388561396e6 6.91278798680449e6 0.0
6.91278798680449e6 -9.178532195576075e6 0.0
0.0 0.0 0.0

-4.442475158154321e6 1.1940857808979511e7 0.0
1.1940857808979511e7 150374.68010903243 0.0
0.0 0.0 0.0

431295.7078543315 1.1151219068864036e7 0.0
1.1151219068864036e7 -5.034164230559271e6 0.0
0.0 0.0 0.0

-1.5811495472614882e6 9.623323441886991e6 0.0
9.623323441886991e6 -1.706494595251807e6 0.0
0.0 0.0 0.0

887025.2931402391 1.029974095392027e7 0.0
1.029974095392027e7 -5.840768208446596e6 0.0
0.0 0.0 0.0

69876.05727142468 9.351179510443283e6 0.0
9.351179510443283e6 3.7763507135978597e6 0.0
0.0 0.0 0.0

3.512642866143048e6 7.889346239087153e6 0.0
7.889346239087153e6 -1.3169641176556163e7 0.0
0.0 0.0 0.0

-4.743582829130031e6 1.1647129927203257e7 0.0
1.1647129927203257e7 3.959612115606607e6 0.0
0.0 0.0 0.0

2.208269993055509e6 4.0309315895956485e6 0.0
4.0309315895956485e6 -4.679105436871214e6 0.0
0.0 0.0 0.0

-6.090327628077099e6 5.362027466341476e6 0.0
5.362027466341476e6 8.151501652062425e6 0.0
0.0 0.0 0.0

1.0053093312347371e6 5.540431687126558e6 0.0
5.540431687126558e6 -4.879932643583029e6 0.0
0.0 0.0 0.0

-6.412275238232847e6 -1.1944804477157008e6 0.0
-1.1944804477157008e6 8.110059816905186e6 0.0
0.0 0.0 0.0

-65392.46080788155 9.471677797517784e6 0.0
9.471677797517784e6 -5.694750009581499e6 0.0
0.0 0.0 0.0

3.073370387985149e6 2.6167925832992285e6 0.0
2.6167925832992285e6 -5.258065053375281e6 0.0
0.0 0.0 0.0

-346272.77549958136 1.050211306434757e7 0.0
1.050211306434757e7 1.519090995951207e6 0.0
0.0 0.0 0.0

-6.3038394228819385e6 1.1239010340906644e7 0.0
1.1239010340906644e7 4.303447031279669e6 0.0
0.0 0.0 0.0

-6.987745269126054e6 -1.3391153960338484e6 0.0
-1.3391153960338484e6 8.244945171593073e6 0.0
0.0 0.0 0.0

-1.6241567570523017e6 1.1235969838318026e7 0.0
1.1235969838318026e7 848143.978391713 0.0
0.0 0.0 0.0

720439.1514160354 1.2458863419738764e7 0.0
1.2458863419738764e7 -4.4739975665206835e6 0.0
0.0 0.0 0.0

-4.64497660941275e6 1.0083394097970277e7 0.0
1.0083394097970277e7 1.4623841513706637e6 0.0
0.0 0.0 0.0

-3.4033608109553303e6 1.2207109650546812e7 0.0
1.2207109650546812e7 1.1706362837169722e6 0.0
0.0 0.0 0.0

-4.496162184121454e6 1.0081880807600526e7 0.0
1.0081880807600526e7 1.9806261147648338e6 0.0
0.0 0.0 0.0

-938839.055795901 9.193317531840473e6 0.0
9.193317531840473e6 -7.089827041056046e6 0.0
0.0 0.0 0.0

3.1125576697357153e6 1.3783365705557633e7 0.0
1.3783365705557633e7 -8.549610209312372e6 0.0
0.0 0.0 0.0

463721.00987780886 1.0157264517888317e7 0.0
1.0157264517888317e7 -6.537230174593529e6 0.0
0.0 0.0 0.0

-3.9694254648205773e6 1.0082669794497509e7 0.0
1.0082669794497509e7 5.177777287783426e6 0.0
0.0 0.0 0.0

-4.146290268934578e6 9.728787599095121e6 0.0
9.728787599095121e6 5.266969501963921e6 0.0
0.0 0.0 0.0

817362.4982379838 7.953748043754322e6 0.0
7.953748043754322e6 -6.3946409692221405e6 0.0
0.0 0.0 0.0

-2.5947066719166576e6 6.045765630821024e6 0.0
6.045765630821024e6 424222.7587860472 0.0
0.0 0.0 0.0

-8.432130123839801e6 1.2722896164542213e7 0.0
1.2722896164542213e7 5.622240480756231e6 0.0
0.0 0.0 0.0

-5.94505228371e6 9.122428466907015e6 0.0
9.122428466907015e6 4.761507259016722e6 0.0
0.0 0.0 0.0

-8.325368306587968e6 1.4959700754654909e7 0.0
1.4959700754654909e7 4.677703112384794e6 0.0
0.0 0.0 0.0

-178739.66161410697 9.518209611304535e6 0.0
9.518209611304535e6 -6.165069556937731e6 0.0
0.0 0.0 0.0

-9.178746328930438e6 1.119689387554941e7 0.0
1.119689387554941e7 698228.5040272591 0.0
0.0 0.0 0.0

3.4853808801413965e6 6.509086492917458e6 0.0
6.509086492917458e6 -1.0309857843171062e7 0.0
0.0 0.0 0.0

-4.495151484845532e6 1.6869642596562736e7 0.0
1.6869642596562736e7 -90089.35312972055 0.0
0.0 0.0 0.0

-1.1134858163249392e7 9.382569144351259e6 0.0
9.382569144351259e6 8.331843434735212e6 0.0
0.0 0.0 0.0

-2.0376235951201466e6 1.0806029230959622e7 0.0
1.0806029230959622e7 2.8757487688913993e6 0.0
0.0 0.0 0.0

-1.520799610051987e7 8.887013404575884e6 0.0
8.887013404575884e6 8.963561181465356e6 0.0
0.0 0.0 0.0

3.3138570500135664e6 5.901511300307712e6 0.0
5.901511300307712e6 -9.73465631658134e6 0.0
0.0 0.0 0.0

-5.667689797359637e6 9.154315962490011e6 0.0
9.154315962490011e6 5.80693185078359e6 0.0
0.0 0.0 0.0

-1.5906411654594082e6 4.738583563456129e6 0.0
4.738583563456129e6 -374397.7794302314 0.0
0.0 0.0 0.0

893905.8950931793 5.309458175230911e6 0.0
5.309458175230911e6 -5.1960093682581615e6 0.0
0.0 0.0 0.0

155494.09426047583 1.1329360251542231e7 0.0
1.1329360251542231e7 -5.236443412272823e6 0.0
0.0 0.0 0.0

-1.3944522128651384e7 1.2738830516900295e7 0.0
1.2738830516900295e7 1.0178467145501759e7 0.0
0.0 0.0 0.0

-8.984254861992752e6 755569.032565378 0.0
755569.032565378 7.090116171666535e6 0.0
0.0 0.0 0.0

-1.277701031263033e7 1.0094770865251461e7 0.0
1.0094770865251461e7 4.115703912629829e6 0.0
0.0 0.0 0.0

6.924724368171788e6 9.232435480287692e6 0.0
9.232435480287692e6 1.4708358620543252e6 0.0
0.0 0.0 0.0

1.1206723267019866e6 1.1162944042263765e7 0.0
1.1162944042263765e7 -1.4943958110483907e7 0.0
0.0 0.0 0.0

504191.4232294385 1.0651947409969253e7 0.0
1.0651947409969253e7 -5.9063588336791685e6 0.0
0.0 0.0 0.0

-3.8682728893060414e6 9.958269434992362e6 0.0
9.958269434992362e6 5.279896905641598e6 0.0
0.0 0.0 0.0

-2.8368330303036403e6 1.1994265595957933e7 0.0
1.1994265595957933e7 -2.0750735934603533e6 0.0
0.0 0.0 0.0

-5.385331954028879e6 1.1207211833464889e7 0.0
1.1207211833464889e7 2.4673164234712394e6 0.0
0.0 0.0 0.0

-136988.53755181603 1.0080914332697013e7 0.0
1.0080914332697013e7 -72022.46400236952 0.0
0.0 0.0 0.0

-8.221472697174443e6 1.4423173464087097e7 0.0
1.4423173464087097e7 4.628694075382192e6 0.0
0.0 0.0 0.0

-1.7693955648662085e6 5.387786413704716e6 0.0
5.387786413704716e6 225547.22456834163 0.0
0.0 0.0 0.0

1.0256538458800344e7 1.190474706245925e7 0.0
1.190474706245925e7 -4.27605883356202e6 0.0
0.0 0.0 0.0

-5.450427350202065e6 1.28426625478447e7 0.0
1.28426625478447e7 111922.9592602842 0.0
0.0 0.0 0.0

-179723.0319057433 9.837951368867787e6 0.0
9.837951368867787e6 372531.0447949493 0.0
0.0 0.0 0.0

-4.315372781562873e6 1.0992403169772357e7 0.0
1.0992403169772357e7 1.6707605860312749e6 0.0
0.0 0.0 0.0

-8.364325521826119e6 7.6856863165893415e6 0.0
7.6856863165893415e6 1.0196055542445123e7 0.0
0.0 0.0 0.0

-4.685279557215369e6 1.1627618541274821e7 0.0
1.1627618541274821e7 314372.8417470304 0.0
0.0 0.0 0.0

2.037493536609137e6 7.318514472330604e6 0.0
7.318514472330604e6 -8.268539955007052e6 0.0
0.0 0.0 0.0

-4.827748471105273e6 9.134276895810084e6 0.0
9.134276895810084e6 2.481209591006667e6 0.0
0.0 0.0 0.0

-2.6849017578149987e6 1.172297418108129e7 0.0
1.172297418108129e7 1.070754032527291e6 0.0
0.0 0.0 0.0

1.277719566412578e6 7.136312401106654e6 0.0
7.136312401106654e6 -5.238862548964554e6 0.0
0.0 0.0 0.0

-4.983442609518147e6 1.1462999274286058e7 0.0
1.1462999274286058e7 3.9846458041788344e6 0.0
0.0 0.0 0.0

-1.0896517029930688e7 -514294.2093672752 0.0
-514294.2093672752 1.7916761325337544e7 0.0
0.0 0.0 0.0

-297843.3179702222 6.372470910939998e6 0.0
6.372470910939998e6 -2.5509878453075397e6 0.0
0.0 0.0 0.0

-7.1209727830215525e6 8.681539944169803e6 0.0
8.681539944169803e6 5.056333039507053e6 0.0
0.0 0.0 0.0

6.05247588217377e6 1.2540490327346653e7 0.0
1.2540490327346653e7 2.4555226689669685e6 0.0
0.0 0.0 0.0

947581.4790106467 9.429719687539265e6 0.0
9.429719687539265e6 -7.872709733879839e6 0.0
0.0 0.0 0.0

2.536094027494458e6 6.747732316141577e6 0.0
6.747732316141577e6 -8.699001445926026e6 0.0
0.0 0.0 0.0

3.3328143445425807e6 9.455202746698696e6 0.0
9.455202746698696e6 -3.180898713636362e6 0.0
0.0 0.0 0.0

-6.742762789455606e6 3.7653234045573864e6 0.0
3.7653234045573864e6 9.771197441281011e6 0.0
0.0 0.0 0.0

-4.922089519305858e6 1.0776168906548671e7 0.0
1.0776168906548671e7 2.173133087201382e6 0.0
0.0 0.0 0.0

-3.8742014021545574e6 1.0447432093633309e7 0.0
1.0447432093633309e7 -584771.3565748761 0.0
0.0 0.0 0.0

-3.8742021717058048e6 1.083503900332965e7 0.0
1.083503900332965e7 -1.2033036331107237e6 0.0
0.0 0.0 0.0

-446110.4609059332 1.058801969879916e7 0.0
1.058801969879916e7 -1.6902063121711987e6 0.0
0.0 0.0 0.0

321070.02518642205 7.280217375271028e6 0.0
7.280217375271028e6 -5.057148433690295e6 0.0
0.0 0.0 0.0

6.489151032040227e6 1.0501301467968076e7 0.0
1.0501301467968076e7 -2.724491927460697e6 0.0
0.0 0.0 0.0

-158582.11278360378 1.0216526424982889e7 0.0
1.0216526424982889e7 -271176.35843904596 0.0
0.0 0.0 0.0

-8.094332179403766e6 1.2383544193669586e7 0.0
1.2383544193669586e7 5.62791153505107e6 0.0
0.0 0.0 0.0

-1.7970573477899026e7 3.3044818793938067e6 0.0
3.3044818793938067e6 1.0813176749766465e7 0.0
0.0 0.0 0.0

919777.2354823379 5.29509586059268e6 0.0
5.29509586059268e6 -5.064450657937053e6 0.0
0.0 0.0 0.0

-457338.7268567845 1.1089705588509979e7 0.0
1.1089705588509979e7 -222680.54808341895 0.0
0.0 0.0 0.0

-399255.27108314144 8.9808421915551e6 0.0
8.9808421915551e6 -6.807265289889262e6 0.0
0.0 0.0 0.0

-12123.451967969537 1.0449572772641297e7 0.0
1.0449572772641297e7 -6.603226924125928e6 0.0
0.0 0.0 0.0

-2.3889575950896647e6 1.1553855479781716e6 0.0
1.1553855479781716e6 1.653513422590131e6 0.0
0.0 0.0 0.0

-270081.04457659647 8.557881258233737e6 0.0
8.557881258233737e6 -5.257250026801578e6 0.0
0.0 0.0 0.0

-819462.9184012201 1.0690424773812776e7 0.0
1.0690424773812776e7 -8.680158689363439e6 0.0
0.0 0.0 0.0

-40105.33602090832 8.482829368409848e6 0.0
8.482829368409848e6 -5.586964206671059e6 0.0
0.0 0.0 0.0

-163460.51790062757 1.1673916383076081e7 0.0
1.1673916383076081e7 -4.803622122260017e6 0.0
0.0 0.0 0.0

4.918565978104728e6 1.1321254103676235e7 0.0
1.1321254103676235e7 3.4253497606467055e6 0.0
0.0 0.0 0.0

-9.37065982334188e6 4.881462911067633e6 0.0
4.881462911067633e6 1.2836086958264679e7 0.0
0.0 0.0 0.0

-3.6266637109556245e6 1.2094327524676638e7 0.0
1.2094327524676638e7 1.170700485515187e6 0.0
0.0 0.0 0.0

-349974.8747045275 1.0386679160192342e7 0.0
1.0386679160192342e7 -1.393588195768308e6 0.0
0.0 0.0 0.0

-4.306151627690577e6 8.981732377779568e6 0.0
8.981732377779568e6 1.105554535163702e6 0.0
0.0 0.0 0.0

4.233316581208906e6 1.2192463448108686e7 0.0
1.2192463448108686e7 3.7103178546640747e6 0.0
0.0 0.0 0.0

-4.6263412850780925e6 1.1577458224015083e7 0.0
1.1577458224015083e7 4.096765947106372e6 0.0
0.0 0.0 0.0

1.8010750360862198e6 1.0025458364646021e7 0.0
1.0025458364646021e7 -4.615014000212779e6 0.0
0.0 0.0 0.0

-6.321134125261495e6 1.1992427307442099e7 0.0
1.1992427307442099e7 2.978864013906935e6 0.0
0.0 0.0 0.0

-5.021689570189263e6 9.29685314866468e6 0.0
9.29685314866468e6 3.094049936065726e6 0.0
0.0 0.0 0.0

-1.2602395686915513e7 -4.48622667747486e6 0.0
-4.48622667747486e6 3.2628486964886434e7 0.0
0.0 0.0 0.0

-2.0964697624861584e6 1.1252797309768727e7 0.0
1.1252797309768727e7 -3.8647570865853904e6 0.0
0.0 0.0 0.0

-6.106059244434821e6 1.134340599601058e7 0.0
1.134340599601058e7 3.925502223460149e6 0.0
0.0 0.0 0.0

2.543269086565327e6 2.4263601474326267e6 0.0
2.4263601474326267e6 -4.0867428789821407e6 0.0
0.0 0.0 0.0

-5.776447266552381e6 6.369383692813692e6 0.0
6.369383692813692e6 7.978965112345638e6 0.0
0.0 0.0 0.0

-2.6585525304250754e6 7.130840502371201e6 0.0
7.130840502371201e6 1.8681717695492627e6 0.0
0.0 0.0 0.0

1.6930528311572853e6 5.746146117830625e6 0.0
5.746146117830625e6 -6.858286821513109e6 0.0
0.0 0.0 0.0

-8.697916492474988e6 1.290169849603771e7 0.0
1.290169849603771e7 6.121363792075672e6 0.0
0.0 0.0 0.0

-163938.5065966118 8.473092394047601e6 0.0
8.473092394047601e6 -4.816723565165518e6 0.0
0.0 0.0 0.0

-5.713176761997774e6 8.919362126972366e6 0.0
8.919362126972366e6 6.0864848104898445e6 0.0
0.0 0.0 0.0

3.857821058524862e6 7.677766140153343e6 0.0
7.677766140153343e6 -1.2057005523576166e7 0.0
0.0 0.0 0.0

-7.802268217313426e6 1.2164868812315932e7 0.0
1.2164868812315932e7 5.4943015230415445e6 0.0
0.0 0.0 0.0

-1.4907124534285765e6 9.670120609097345e6 0.0
9.670120609097345e6 -7.389650083337567e6 0.0
0.0 0.0 0.0

3.911615898787162e6 5.833860352947499e6 0.0
5.833860352947499e6 -6.432046747579968e6 0.0
0.0 0.0 0.0

-73189.93568796804 6.519795803995053e6 0.0
6.519795803995053e6 -2.9785434539464666e6 0.0
0.0 0.0 0.0

-1.2694299762200356e7 9.68496588046921e6 0.0
9.68496588046921e6 8.00065909221066e6 0.0
0.0 0.0 0.0

-127535.6915886114 9.959115072246859e6 0.0
9.959115072246859e6 728361.0388679223 0.0
0.0 0.0 0.0

-1.198580678287899e7 1.2981796141413262e7 0.0
1.2981796141413262e7 8.482672721411627e6 0.0
0.0 0.0 0.0

-2.441854220709418e6 4.206395661912209e6 0.0
4.206395661912209e6 2.243336798806533e6 0.0
0.0 0.0 0.0

3.5659079042930054e6 8.948278851062e6 0.0
8.948278851062e6 -1.2415756107622862e7 0.0
0.0 0.0 0.0

1.5230348932826962e7 8.837608751544619e6 0.0
8.837608751544619e6 -9.844974065708624e6 0.0
0.0 0.0 0.0

-5.2731985228604e6 1.101643513803569e7 0.0
1.101643513803569e7 2.540730497238992e6 0.0
0.0 0.0 0.0

-6.495968787350737e6 1.1543671000097174e7 0.0
1.1543671000097174e7 4.792318681461635e6 0.0
0.0 0.0 0.0

-5.10894244836993e6 9.97839721001998e6 0.0
9.97839721001998e6 3.0647352868335573e6 0.0
0.0 0.0 0.0

-4.189835272729002e6 1.3656361216348609e7 0.0
1.3656361216348609e7 1.4941449659959642e7 0.0
0.0 0.0 0.0

2.34860310453454e6 6.072142434624854e6 0.0
6.072142434624854e6 -8.161049650885045e6 0.0
0.0 0.0 0.0

-992697.6413901434 7.657824343572092e6 0.0
7.657824343572092e6 -2.9997932428337224e6 0.0
0.0 0.0 0.0

-6.58108996655944e6 1.597832550064903e7 0.0
1.597832550064903e7 348499.7985163736 0.0
0.0 0.0 0.0

1.8079457834441634e6 8.411752828001445e6 0.0
8.411752828001445e6 -9.564369309075465e6 0.0
0.0 0.0 0.0

-1.1115135060686104e7 1.247217759054672e6 0.0
1.247217759054672e6 8.067912280319808e6 0.0
0.0 0.0 0.0

-3.05434514294635e6 1.137034585800199e7 0.0
1.137034585800199e7 884272.3896517581 0.0
0.0 0.0 0.0

-756289.9560156375 7.547693225604987e6 0.0
7.547693225604987e6 -1.353433445384585e6 0.0
0.0 0.0 0.0

94217.7403820008 8.446540892853271e6 0.0
8.446540892853271e6 -5.128079254566604e6 0.0
0.0 0.0 0.0

-3.5879078720021797e6 1.2077938727858495e7 0.0
1.2077938727858495e7 7.103881763793251e6 0.0
0.0 0.0 0.0

-3.2993246915177945e6 1.627811123383749e7 0.0
1.627811123383749e7 -1.693970169348827e6 0.0
0.0 0.0 0.0

-1.3383833069258705e7 -4.98534520155566e6 0.0
-4.98534520155566e6 7.905548384225673e6 0.0
0.0 0.0 0.0

3.191297645629627e6 1.926765688790521e7 0.0
1.926765688790521e7 -8.91473029401268e6 0.0
0.0 0.0 0.0

-5.217745053020243e6 1.7001892409528047e7 0.0
1.7001892409528047e7 -2.779796178523289e6 0.0
0.0 0.0 0.0

833243.7675145892 5.284552700975963e6 0.0
5.284552700975963e6 -4.5387031484591365e6 0.0
0.0 0.0 0.0

-6.424532419590892e6 1.1256029174084041e7 0.0
1.1256029174084041e7 3.880580328574497e6 0.0
0.0 0.0 0.0

8.044232293015157e6 9.917892256920012e6 0.0
9.917892256920012e6 -38185.612685412634 0.0
0.0 0.0 0.0

-1.2603459500796357e7 1.0854192947451198e6 0.0
1.0854192947451198e6 1.943835260440758e7 0.0
0.0 0.0 0.0

-2.424201350131437e6 1.1136114256354509e7 0.0
1.1136114256354509e7 -3.4025536097918004e6 0.0
0.0 0.0 0.0

2.4216954471802823e6 1.0883668274642188e7 0.0
1.0883668274642188e7 3.541505251048143e6 0.0
0.0 0.0 0.0

267128.9655263657 1.1412075951249037e7 0.0
1.1412075951249037e7 -5.120204815721761e6 0.0
0.0 0.0 0.0

2.899926528528122e6 6.293481573929502e6 0.0
6.293481573929502e6 -8.788721477121118e6 0.0
0.0 0.0 0.0

-5.2148055031622145e6 1.1146226603945816e7 0.0
1.1146226603945816e7 1.9723937846048756e6 0.0
0.0 0.0 0.0

-101140.10608692793 9.156797686582098e6 0.0
9.156797686582098e6 -6.8019562854361385e6 0.0
0.0 0.0 0.0

-6.022559065051274e6 1.3272325411187066e7 0.0
1.3272325411187066e7 1.268669158847066e6 0.0
0.0 0.0 0.0

-1.1458408284814622e7 3.70353310733652e6 0.0
3.70353310733652e6 2.131444631911033e7 0.0
0.0 0.0 0.0

881354.4228918268 9.781504882867394e6 0.0
9.781504882867394e6 -5.745836459720874e6 0.0
0.0 0.0 0.0

983043.4890545844 7.881798654614745e6 0.0
7.881798654614745e6 -6.963590846956087e6 0.0
0.0 0.0 0.0

-574213.2915337114 1.2805810201357856e7 0.0
1.2805810201357856e7 -3.9922309254189394e6 0.0
0.0 0.0 0.0

-135697.84065004624 8.790651141112078e6 0.0
8.790651141112078e6 -5.841225336116642e6 0.0
0.0 0.0 0.0

-9.90651795624818e6 -2.845235783538511e6 0.0
-2.845235783538511e6 1.6510482193411037e7 0.0
0.0 0.0 0.0

-6.383174508693544e6 1.173583506920862e7 0.0
1.173583506920862e7 1.0418423937905008e7 0.0
0.0 0.0 0.0

2.165367553046076e6 8.413007025808938e6 0.0
8.413007025808938e6 -9.998478097062938e6 0.0
0.0 0.0 0.0

-5.318538454920928e6 1.3113438661170248e7 0.0
1.3113438661170248e7 1.0284639971974727e6 0.0
0.0 0.0 0.0

-3.541431680372132e6 9.767530479936598e6 0.0
9.767530479936598e6 5.297020962885916e6 0.0
0.0 0.0 0.0

1.3148828391498327e6 7.441813033058938e6 0.0
7.441813033058938e6 -6.647613586589943e6 0.0
0.0 0.0 0.0

9.830761272426734e6 1.1540379164550973e7 0.0
1.1540379164550973e7 2.052300315243667e6 0.0
0.0 0.0 0.0

-5.18514490405591e6 1.2741121653809529e7 0.0
1.2741121653809529e7 1.0219192889477948e6 0.0
0.0 0.0 0.0

-2.9093219948611306e6 1.1318549356229322e6 0.0
1.1318549356229322e6 2.7632530366590354e6 0.0
0.0 0.0 0.0

-1.0668748899106225e7 -2.406116014007498e6 0.0
-2.406116014007498e6 1.4206757353890106e7 0.0
0.0 0.0 0.0

2.2395716999800303e6 5.457199808742496e6 0.0
5.457199808742496e6 -7.417764916267522e6 0.0
0.0 0.0 0.0

-5.307762068787874e6 9.699932787899436e6 0.0
9.699932787899436e6 2.715812637927601e6 0.0
0.0 0.0 0.0

-1.0366445607605702e6 1.0618476667114798e7 0.0
1.0618476667114798e7 -1.7499323703636932e6 0.0
0.0 0.0 0.0

-2.971678518355784e6 1.191775280053873e7 0.0
1.191775280053873e7 -2.71938964324704e6 0.0
0.0 0.0 0.0

-852038.5443677314 2.672163627340347e6 0.0
2.672163627340347e6 718898.6007164428 0.0
0.0 0.0 0.0

-3.7150117758874306e6 1.087622825591668e7 0.0
1.087622825591668e7 -652130.124035655 0.0
0.0 0.0 0.0

-1.0722431320046037e7 -3.492424470580184e6 0.0
-3.492424470580184e6 1.501201245981313e7 0.0
0.0 0.0 0.0

3.3470109248552728e6 8.798329372682614e6 0.0
8.798329372682614e6 -1.5201889355270406e6 0.0
0.0 0.0 0.0

1.8337357534696674e6 8.983725946932126e6 0.0
8.983725946932126e6 -9.52634165423738e6 0.0
0.0 0.0 0.0

2.475920614602746e6 8.321835703397161e6 0.0
8.321835703397161e6 -9.892162226174051e6 0.0
0.0 0.0 0.0

-6.297200019100699e6 5.990471120283332e6 0.0
5.990471120283332e6 8.698498031507673e6 0.0
0.0 0.0 0.0

-3.4858372957050717e6 8.31491751625086e6 0.0
8.31491751625086e6 1.330540417407337e6 0.0
0.0 0.0 0.0

2.1146411551325386e6 3.6715738476399085e6 0.0
3.6715738476399085e6 -4.421505722137118e6 0.0
0.0 0.0 0.0

879407.4448695697 9.805235477102928e6 0.0
9.805235477102928e6 -5.708357681727186e6 0.0
0.0 0.0 0.0

-6.326613073259387e6 1.0989429830945987e7 0.0
1.0989429830945987e7 4.66610045331515e6 0.0
0.0 0.0 0.0

-2.3714496180311963e6 1.3392205118148185e7 0.0
1.3392205118148185e7 8.398009102312222e6 0.0
0.0 0.0 0.0

1.8578676907775742e6 1.2568594113551885e7 0.0
1.2568594113551885e7 -4.786964884136595e6 0.0
0.0 0.0 0.0

-1.1009117549835173e7 -5.644628648388123e6 0.0
-5.644628648388123e6 3.0916675286471434e7 0.0
0.0 0.0 0.0

-1.0357383831219666e7 2.77127384194922e6 0.0
2.77127384194922e6 1.5937274538016591e7 0.0
0.0 0.0 0.0

-4.724120919133849e6 7.015504916209409e6 0.0
7.015504916209409e6 4.645176220749453e6 0.0
0.0 0.0 0.0

-1.4420477801130842e6 8.33659088358973e6 0.0
8.33659088358973e6 561196.9671407372 0.0
0.0 0.0 0.0

-1.4736368342649206e6 4.23009106915065e6 0.0
4.23009106915065e6 211278.71474342485 0.0
0.0 0.0 0.0

-8.082080072135026e6 6.667472098309682e6 0.0
6.667472098309682e6 4.389523007832174e6 0.0
0.0 0.0 0.0

2.498242142368194e6 6.256656546432962e6 0.0
6.256656546432962e6 -7.860512509936354e6 0.0
0.0 0.0 0.0

-496584.2813107963 1.0289524800427422e7 0.0
1.0289524800427422e7 -8.536744490575712e6 0.0
0.0 0.0 0.0

-196003.49933119823 1.0486962515946941e7 0.0
1.0486962515946941e7 -515784.74842155277 0.0
0.0 0.0 0.0

-898899.1943565696 1.593865593415788e7 0.0
1.593865593415788e7 -6.743084939623819e6 0.0
0.0 0.0 0.0

609257.4013803492 1.161281538421246e7 0.0
1.161281538421246e7 -4.900442637590773e6 0.0
0.0 0.0 0.0

-8.860160527516078e6 1.1437841541604655e7 0.0
1.1437841541604655e7 1.4497254313884918e6 0.0
0.0 0.0 0.0

-5.79807656744995e6 1.1403732218673555e7 0.0
1.1403732218673555e7 2.411303855123842e6 0.0
0.0 0.0 0.0

306850.75213059527 4.953396932965645e6 0.0
4.953396932965645e6 -3.794260922192817e6 0.0
0.0 0.0 0.0

-1.273953029719389e7 1.3244612900454208e7 0.0
1.3244612900454208e7 9.012707013235096e6 0.0
0.0 0.0 0.0

-3.4878403959343703e6 8.567565030525496e6 0.0
8.567565030525496e6 1.1717775914160819e6 0.0
0.0 0.0 0.0

-2.2252021657153647e6 5.736608322497919e6 0.0
5.736608322497919e6 382739.86176642054 0.0
0.0 0.0 0.0

-3.674174869402011e6 8.604235397313083e6 0.0
8.604235397313083e6 562927.999866849 0.0
0.0 0.0 0.0

130106.25670986122 1.4869461735615707e6 0.0
1.4869461735615707e6 -3.0264855597532312e6 0.0
0.0 0.0 0.0

-1.8616384772028225e6 4.0874112546462305e6 0.0
4.0874112546462305e6 -2.163022227012749e6 0.0
0.0 0.0 0.0

1.5670508093149615e6 9.071941054271186e6 0.0
9.071941054271186e6 -8.696973264003461e6 0.0
0.0 0.0 0.0

-4.2487606225144025e6 1.223626076203168e7 0.0
1.223626076203168e7 1.1271275834403282e6 0.0
0.0 0.0 0.0

-3.71437914474703e6 1.0375140392693298e7 0.0
1.0375140392693298e7 4.883513478556087e6 0.0
0.0 0.0 0.0

-749700.1142062995 1.0627855713608578e7 0.0
1.0627855713608578e7 -1.7361616477699843e6 0.0
0.0 0.0 0.0

3.749109900562725e6 5.636321636512465e6 0.0
5.636321636512465e6 -6.463232668082662e6 0.0
0.0 0.0 0.0

-4.815420862236715e6 1.1021946231297456e7 0.0
1.1021946231297456e7 490622.0619512545 0.0
0.0 0.0 0.0

-6.378009209726886e6 1.2052526372540615e7 0.0
1.2052526372540615e7 2.6817115240285406e6 0.0
0.0 0.0 0.0

-585342.9055225055 1.2793670903283708e7 0.0
1.2793670903283708e7 -3.977957694705141e6 0.0
0.0 0.0 0.0

-2.6616668720510574e6 6.357404745848719e6 0.0
6.357404745848719e6 995171.792569576 0.0
0.0 0.0 0.0

473207.7233386454 9.986458449475553e6 0.0
9.986458449475553e6 -7.145734413322768e6 0.0
0.0 0.0 0.0

-8.71721297901471e6 1.2379800749634897e7 0.0
1.2379800749634897e7 6.298853565995807e6 0.0
0.0 0.0 0.0

-8.197210730435329e6 1.2330770747988636e7 0.0
1.2330770747988636e7 5.805979157989584e6 0.0
0.0 0.0 0.0

621569.2020256468 9.751351764815994e6 0.0
9.751351764815994e6 -8.395299033456186e6 0.0
0.0 0.0 0.0

-110466.50286614127 9.05313500530166e6 0.0
9.05313500530166e6 -6.327500494170253e6 0.0
0.0 0.0 0.0

-372425.4276454445 1.0814643697723411e7 0.0
1.0814643697723411e7 -461466.0697750981 0.0
0.0 0.0 0.0

1.5092170654698582e6 7.880317226272458e6 0.0
7.880317226272458e6 -8.262711843284636e6 0.0
0.0 0.0 0.0

-9.225746309511252e6 2.8980496373552335e6 0.0
2.8980496373552335e6 1.2782193893223766e7 0.0
0.0 0.0 0.0

2.811585529595266e6 1.0085457415416496e7 0.0
1.0085457415416496e7 -1.2084215792012729e7 0.0
0.0 0.0 0.0

-7.218438174024816e6 1.787487350988894e7 0.0
1.787487350988894e7 -1.3694298924698825e6 0.0
0.0 0.0 0.0

-639977.5303592323 1.1221506471002651e7 0.0
1.1221506471002651e7 3.034118842896484e6 0.0
0.0 0.0 0.0

-3.656034802377979e6 1.2276725187455792e7 0.0
1.2276725187455792e7 7.410481690908121e6 0.0
0.0 0.0 0.0

1.301828635813529e6 1.0345630029726302e7 0.0
1.0345630029726302e7 4.344216542669992e6 0.0
0.0 0.0 0.0

-411798.90005533944 8.0763606503858995e6 0.0
8.0763606503858995e6 -1.8034656802724386e6 0.0
0.0 0.0 0.0

-4.516965535315943e6 1.0923122630897412e7 0.0
1.0923122630897412e7 622296.109923135 0.0
0.0 0.0 0.0

-1.0558857557928266e7 9.690901978548506e6 0.0
9.690901978548506e6 1.7105335696348078e6 0.0
0.0 0.0 0.0

317163.16710298136 7.800485826228763e6 0.0
7.800485826228763e6 -2.5916344263722757e6 0.0
0.0 0.0 0.0

-1.84043238899139e6 1.1652129210003423e7 0.0
1.1652129210003423e7 810517.2170163487 0.0
0.0 0.0 0.0

1.8254036966847158e6 5.747769379514515e6 0.0
5.747769379514515e6 -6.397831410995482e6 0.0
0.0 0.0 0.0

-9.073024208330646e6 6.811080622567689e6 0.0
6.811080622567689e6 5.076885680251007e6 0.0
0.0 0.0 0.0

-1.51124098573476e7 1.197476286384888e7 0.0
1.197476286384888e7 1.0911111757378433e7 0.0
0.0 0.0 0.0

-1.781246418569913e6 3.2238553294079094e6 0.0
3.2238553294079094e6 1.9826030307560808e6 0.0
0.0 0.0 0.0

-3.7535027734680534e6 1.6111203606244821e7 0.0
1.6111203606244821e7 -3.121794623997881e6 0.0
0.0 0.0 0.0

-1.3470070737015981e7 4.1301961563984416e6 0.0
4.1301961563984416e6 3.445795216627706e7 0.0
0.0 0.0 0.0

-2.7426782309418214e6 1.0179760441410012e6 0.0
1.0179760441410012e6 3.214803960870643e6 0.0
0.0 0.0 0.0

-1.7379630001706637e6 1.109084091815807e7 0.0
1.109084091815807e7 -9.293934683638657e6 0.0
0.0 0.0 0.0

834162.2676384486 1.0691114465385376e7 0.0
1.0691114465385376e7 -5.853983694337634e6 0.0
0.0 0.0 0.0

-6.762098264582884e6 1.22654149008416e7 0.0
1.22654149008416e7 3.283991637439608e6 0.0
0.0 0.0 0.0

-6.345877701477322e6 6.229606095690854e6 0.0
6.229606095690854e6 2.137740054085367e6 0.0
0.0 0.0 0.0

-48242.32880384184 6.001281787653677e6 0.0
6.001281787653677e6 -2.9997472113196803e6 0.0
0.0 0.0 0.0

-5.3002494839296015e6 1.1144309127335966e7 0.0
1.1144309127335966e7 1.6671615325602896e6 0.0
0.0 0.0 0.0

-7.755563101696692e6 1.221783305167825e7 0.0
1.221783305167825e7 5.238925021119034e6 0.0
0.0 0.0 0.0

-6.6416903245524205e6 1.2341947267386507e7 0.0
1.2341947267386507e7 3.400725550618723e6 0.0
0.0 0.0 0.0

2.1984649311582604e6 9.830435754586503e6 0.0
9.830435754586503e6 -1.4371323461588008e7 0.0
0.0 0.0 0.0

-1.874148278740829e6 7.565176195666656e6 0.0
7.565176195666656e6 -552621.1569602579 0.0
0.0 0.0 0.0

-1.1158786823763017e7 -4.838367651459554e6 0.0
-4.838367651459554e6 2.0689165432064377e7 0.0
0.0 0.0 0.0

353735.33213254996 1.582683844017416e7 0.0
1.582683844017416e7 1.699903918532946e7 0.0
0.0 0.0 0.0

-1.967485179091072e7 -4.481237996453864e6 0.0
-4.481237996453864e6 8.663938274815358e6 0.0
0.0 0.0 0.0

7.901323970675595e6 1.1726225682247426e7 0.0
1.1726225682247426e7 -9.202361522560451e6 0.0
0.0 0.0 0.0

923852.2738873786 9.767711151208874e6 0.0
9.767711151208874e6 -7.755076286544725e6 0.0
0.0 0.0 0.0

2.2699838262891523e6 5.609876577098903e6 0.0
5.609876577098903e6 -4.746887980226024e6 0.0
0.0 0.0 0.0

1.0982091689669264e7 1.1696625181410722e7 0.0
1.1696625181410722e7 -1.0333310166116163e7 0.0
0.0 0.0 0.0

603337.6383217748 5.709620418097281e6 0.0
5.709620418097281e6 -1.6121223446060796e6 0.0
0.0 0.0 0.0

2.840874936537559e6 1.029222158157941e7 0.0
1.029222158157941e7 3.628066119146823e6 0.0
0.0 0.0 0.0

-5.733828975010752e6 1.1226589437157601e7 0.0
1.1226589437157601e7 2.4591838652992826e6 0.0
0.0 0.0 0.0

-6.341509260754045e6 1.1324444314280603e7 0.0
1.1324444314280603e7 4.716688317676656e6 0.0
0.0 0.0 0.0

-1.2673460936352008e6 7.670382187021833e6 0.0
7.670382187021833e6 -3.0195215445595197e6 0.0
0.0 0.0 0.0

-5.277944528406063e6 4.159615406071145e6 0.0
4.159615406071145e6 1.9754857256485044e6 0.0
0.0 0.0 0.0

-667960.2226069197 9.325782893202413e6 0.0
9.325782893202413e6 -7.070377785009087e6 0.0
0.0 0.0 0.0

-1.4348385730035433e6 1.1435335541025396e7 0.0
1.1435335541025396e7 862854.9814374505 0.0
0.0 0.0 0.0

-1.0894998686603606e6 8.561856196730647e6 0.0
8.561856196730647e6 2.2474331797988703e6 0.0
0.0 0.0 0.0

-1.339964328082246e7 3.4419735903109293e6 0.0
3.4419735903109293e6 3.189442099267564e7 0.0
0.0 0.0 0.0

-5.020434240347734e6 1.0565497841732055e7 0.0
1.0565497841732055e7 1.7540509792666265e6 0.0
0.0 0.0 0.0

2.478954703267471e6 5.6129163112283405e6 0.0
5.6129163112283405e6 -7.362050628526447e6 0.0
0.0 0.0 0.0

-3.373409222443946e6 1.1317299450217564e7 0.0
1.1317299450217564e7 3.3928920392968394e6 0.0
0.0 0.0 0.0

-2.719288255661993e6 8.712568128935335e6 0.0
8.712568128935335e6 2.9153220237758877e6 0.0
0.0 0.0 0.0

1.437935549081869e6 1.3411827928409139e7 0.0
1.3411827928409139e7 -5.610740873198253e6 0.0
0.0 0.0 0.0

-4.686970401016695e6 1.1911375314545134e7 0.0
1.1911375314545134e7 -658793.4590178226 0.0
0.0 0.0 0.0

-9.985021947125696e6 1.3170656580058198e7 0.0
1.3170656580058198e7 6.916362851888495e6 0.0
0.0 0.0 0.0

-264107.58289685694 4.656061783869504e6 0.0
4.656061783869504e6 -3.234608783228571e6 0.0
0.0 0.0 0.0

-9.456668150170576e6 1.1421721612593038e7 0.0
1.1421721612593038e7 6.993973021711206e6 0.0
0.0 0.0 0.0

-6.041857172360014e6 1.1177784074650226e7 0.0
1.1177784074650226e7 3.933138820988279e6 0.0
0.0 0.0 0.0

-5.012431843927888e6 7.460814008660622e6 0.0
7.460814008660622e6 4.495185557951682e6 0.0
0.0 0.0 0.0

4.95130295466929e6 1.2955214285329523e7 0.0
1.2955214285329523e7 -7.656604967211595e6 0.0
0.0 0.0 0.0

-1.64669761915802e6 1.0259347745611062e7 0.0
1.0259347745611062e7 -3.537738803959133e6 0.0
0.0 0.0 0.0

-5.65537688042291e6 1.1047485860856295e7 0.0
1.1047485860856295e7 2.532457728437565e6 0.0
0.0 0.0 0.0

-935082.1078896734 7.390390555505151e6 0.0
7.390390555505151e6 -3.3598638915423146e6 0.0
0.0 0.0 0.0

-1.5966660931480336e6 1.1175961632195234e7 0.0
1.1175961632195234e7 1.6502388579459912e6 0.0
0.0 0.0 0.0

-5.212436743634962e6 1.177547639915571e6 0.0
1.177547639915571e6 3.3849964451932716e6 0.0
0.0 0.0 0.0

-6.9190577247810345e6 5.970154930905919e6 0.0
5.970154930905919e6 5.532158379128243e6 0.0
0.0 0.0 0.0

384133.6874405239 1.0928342021349894e7 0.0
1.0928342021349894e7 -5.557081503132282e6 0.0
0.0 0.0 0.0

-2.3059392644969053e6 9.127868025105953e6 0.0
9.127868025105953e6 5.1607080338645335e6 0.0
0.0 0.0 0.0

-548974.2067663989 1.0832575288451606e7 0.0
1.0832575288451606e7 -5.780137320443484e6 0.0
0.0 0.0 0.0

-3.888306023942787e6 1.007837309441384e7 0.0
1.007837309441384e7 4.751309963319123e6 0.0
0.0 0.0 0.0

-1.0128818317134682e7 2.935770681378607e6 0.0
2.935770681378607e6 6.658198119662387e6 0.0
0.0 0.0 0.0

-1.6544186704772124e6 1.1417752214580165e7 0.0
1.1417752214580165e7 190914.1968130502 0.0
0.0 0.0 0.0

-3.056326370569926e6 4.33485763636217e6 0.0
4.33485763636217e6 2.0951043242030193e6 0.0
0.0 0.0 0.0

-1.5586849006310618e6 1.0707014558089016e7 0.0
1.0707014558089016e7 2.356529343579801e6 0.0
0.0 0.0 0.0

-4.367587408502381e6 1.7303653393102072e7 0.0
1.7303653393102072e7 -4.333258529150184e6 0.0
0.0 0.0 0.0

-1.8976954857750967e7 5.38212283639379e6 0.0
5.38212283639379e6 9.020071201195009e6 0.0
0.0 0.0 0.0

-8.535871315468837e6 1.8075493035975635e7 0.0
1.8075493035975635e7 3.3849762312907525e6 0.0
0.0 0.0 0.0

-5.485059185858459e6 1.0569124800656056e7 0.0
1.0569124800656056e7 1.1727010155498353e6 0.0
0.0 0.0 0.0

-8.709808007661773e6 1.5958319743153973e7 0.0
1.5958319743153973e7 4.385738365125171e6 0.0
0.0 0.0 0.0

-2.3505767895358894e6 3.690878540335803e6 0.0
3.690878540335803e6 1.2510373610167454e6 0.0
0.0 0.0 0.0

1.5537719154759091e6 1.3327906827575581e7 0.0
1.3327906827575581e7 -5.47242700328768e6 0.0
0.0 0.0 0.0

-8.570133257488206e6 1.2491411886377126e7 0.0
1.2491411886377126e7 6.046132056838324e6 0.0
0.0 0.0 0.0

-2.310140261226583e6 1.1428994581406241e7 0.0
1.1428994581406241e7 217471.45348934946 0.0
0.0 0.0 0.0

225579.3675833242 1.0305547609628983e7 0.0
1.0305547609628983e7 -6.987506503130557e6 0.0
0.0 0.0 0.0

-6.991160006015098e6 1.1681599191331465e7 0.0
1.1681599191331465e7 5.19065563502717e6 0.0
0.0 0.0 0.0

-5.510711329704365e6 5.586895364085924e6 0.0
5.586895364085924e6 5.116509634410216e6 0.0
0.0 0.0 0.0

-9.011644273134302e6 1.6578043265951116e7 0.0
1.6578043265951116e7 2.5181528163923915e6 0.0
0.0 0.0 0.0

-1.0184961947625522e7 1.0675534754390262e7 0.0
1.0675534754390262e7 7.456216916571384e6 0.0
0.0 0.0 0.0

1.1064804136873255e6 1.3179903484888747e7 0.0
1.3179903484888747e7 -5.5383054782867255e6 0.0
0.0 0.0 0.0

403212.4159193686 5.97458255205174e6 0.0
5.97458255205174e6 -4.52228604761566e6 0.0
0.0 0.0 0.0

-308429.1853710315 1.002544486691654e7 0.0
1.002544486691654e7 -8.361681978545792e6 0.0
0.0 0.0 0.0

3.4065877091254257e6 5.453848069261332e6 0.0
5.453848069261332e6 -6.240846313639266e6 0.0
0.0 0.0 0.0

-1.9025780059556633e6 1.148206398093469e7 0.0
1.148206398093469e7 3.534828008996794e6 0.0
0.0 0.0 0.0

1.6032193963838317e6 1.1587081314489681e7 0.0
1.1587081314489681e7 -4.845223667701045e6 0.0
0.0 0.0 0.0

-4.986223187702201e6 1.5832224040423544e7 0.0
1.5832224040423544e7 -1.7552204168088369e6 0.0
0.0 0.0 0.0

-6.709448543481443e6 6.564832453418466e6 0.0
6.564832453418466e6 7.840090232673919e6 0.0
0.0 0.0 0.0

-1.302959033049106e6 7.929765359156145e6 0.0
7.929765359156145e6 -2.636817631374536e6 0.0
0.0 0.0 0.0

-1.1382216284243825e6 3.4878462491581896e6 0.0
3.4878462491581896e6 4.61328021150015e6 0.0
0.0 0.0 0.0

2.5839465706455335e6 8.983717528163563e6 0.0
8.983717528163563e6 -1.1471707449590981e7 0.0
0.0 0.0 0.0

-122007.4767323567 9.773282426816389e6 0.0
9.773282426816389e6 -794449.370015743 0.0
0.0 0.0 0.0

-9.453062706831457e6 1.0218387187910078e7 0.0
1.0218387187910078e7 5.449889450513212e6 0.0
0.0 0.0 0.0

678644.1780791106 1.0019026201348174e7 0.0
1.0019026201348174e7 -6.187408233162369e6 0.0
0.0 0.0 0.0

5.706487031986618e6 9.80020113081137e6 0.0
9.80020113081137e6 -3.3612018619650262e6 0.0
0.0 0.0 0.0

-4.294511009835815e6 2.0917243699196877e6 0.0
2.0917243699196877e6 5.931175291235406e6 0.0
0.0 0.0 0.0

-1.3397953804328639e7 7.773772698445874e6 0.0
7.773772698445874e6 4.317305586915347e6 0.0
0.0 0.0 0.0

1.0827951928955186e6 1.797155540963272e7 0.0
1.797155540963272e7 -1.4209115259412637e7 0.0
0.0 0.0 0.0

-6.474255418085525e6 1.1506079813695787e7 0.0
1.1506079813695787e7 4.807242198331622e6 0.0
0.0 0.0 0.0

-977031.1139464051 6.458210012340579e6 0.0
6.458210012340579e6 -2.0565659544520474e6 0.0
0.0 0.0 0.0

-9.322614508033648e6 6.181073014810746e6 0.0
6.181073014810746e6 1.0326412857998762e7 0.0
0.0 0.0 0.0

-4.477020235830914e6 971442.760623355 0.0
971442.760623355 3.794286759177193e6 0.0
0.0 0.0 0.0

-1.7715669080171632e6 1.0327497448653461e7 0.0
1.0327497448653461e7 -4.07880193740864e6 0.0
0.0 0.0 0.0

-6.38327966071086e6 1.2362623504528025e7 0.0
1.2362623504528025e7 3.0079536882842034e6 0.0
0.0 0.0 0.0

-2.5419683914928846e6 9.429403056615544e6 0.0
9.429403056615544e6 -2.0247552362541656e6 0.0
0.0 0.0 0.0

-1.080191968031529e7 3.7754778300152044e6 0.0
3.7754778300152044e6 1.923841986362297e7 0.0
0.0 0.0 0.0

579624.3014265033 9.529456562040552e6 0.0
9.529456562040552e6 -7.60762776197602e6 0.0
0.0 0.0 0.0

-6.588594986302026e6 1.1703933760201365e7 0.0
1.1703933760201365e7 3.558580912620363e6 0.0
0.0 0.0 0.0

369176.16051650885 1.0149368320551554e7 0.0
1.0149368320551554e7 -6.906053977766594e6 0.0
0.0 0.0 0.0

3.951055897076152e6 9.176604703133715e6 0.0
9.176604703133715e6 1.259878742254559e6 0.0
0.0 0.0 0.0

-1.0634405576825675e7 2.2308713796089273e6 0.0
2.2308713796089273e6 1.69265824320044e7 0.0
0.0 0.0 0.0

1.5259670620665592e6 9.413067739610778e6 0.0
9.413067739610778e6 -3.9382409314885573e6 0.0
0.0 0.0 0.0

-2.61406453440754e6 1.0927042140887318e7 0.0
1.0927042140887318e7 3.0860236834280277e6 0.0
0.0 0.0 0.0

-5.219114821337284e6 1.3789416248031665e7 0.0
1.3789416248031665e7 1.0322655199812939e6 0.0
0.0 0.0 0.0

1.4813434726821468e6 7.83013922983553e6 0.0
7.83013922983553e6 -7.130120034626736e6 0.0
0.0 0.0 0.0

156336.70528529747 7.158904190756686e6 0.0
7.158904190756686e6 -4.7274468406444285e6 0.0
0.0 0.0 0.0

2.257253230238912e6 8.876619627947701e6 0.0
8.876619627947701e6 -1.0620620391538778e7 0.0
0.0 0.0 0.0

-3.176305480561039e6 1.177462819532567e7 0.0
1.177462819532567e7 326148.24971326743 0.0
0.0 0.0 0.0

-1.1509812241155721e7 1.6316911684309836e6 0.0
1.6316911684309836e6 1.4566630893785823e7 0.0
0.0 0.0 0.0

-3.5194358854527744e6 1.1772047336819664e7 0.0
1.1772047336819664e7 603890.8957705763 0.0
0.0 0.0 0.0

-2.249396191381844e6 9.095279828568516e6 0.0
9.095279828568516e6 -2.262169977953184e6 0.0
0.0 0.0 0.0

2.532423770929689e6 7.947223254124207e6 0.0
7.947223254124207e6 -1.053436952336717e7 0.0
0.0 0.0 0.0

-8.658800118490774e6 5.067369161030963e6 0.0
5.067369161030963e6 1.1923824416918537e7 0.0
0.0 0.0 0.0

-140397.23949054081 1.0194599068965936e7 0.0
1.0194599068965936e7 177631.52043337002 0.0
0.0 0.0 0.0

1.3864658364121774e6 9.085355487706855e6 0.0
9.085355487706855e6 -9.29746375749067e6 0.0
0.0 0.0 0.0

2.5081003830588423e6 5.891168078100438e6 0.0
5.891168078100438e6 -8.120085775701679e6 0.0
0.0 0.0 0.0

-5.637250073019493e6 1.0121863377489949e7 0.0
1.0121863377489949e7 5.2101492301508235e6 0.0
0.0 0.0 0.0

-5.955536086193662e6 1.2085933934946664e7 0.0
1.2085933934946664e7 3.7286990072809746e6 0.0
0.0 0.0 0.0

-820660.6198556614 7.49749075370062e6 0.0
7.49749075370062e6 -3.725249304567804e6 0.0
0.0 0.0 0.0

-6.990411465685293e6 -242066.9889544216 0.0
-242066.9889544216 8.979800189580379e6 0.0
0.0 0.0 0.0

1.054944641278498e6 1.4025206538269168e6 0.0
1.4025206538269168e6 -2.924819454346791e6 0.0
0.0 0.0 0.0

-6.006026347791353e6 8.849896824641135e6 0.0
8.849896824641135e6 4.988970197036689e6 0.0
0.0 0.0 0.0

4.277108855295053e6 1.0591035559751622e7 0.0
1.0591035559751622e7 1.256534066473066e6 0.0
0.0 0.0 0.0

2.182486626456508e6 9.434871026505051e6 0.0
9.434871026505051e6 2.47475989568011e6 0.0
0.0 0.0 0.0

-6.765266769893463e6 1.1726260599731315e7 0.0
1.1726260599731315e7 2.2721878317024475e6 0.0
0.0 0.0 0.0

-445674.1935509655 8.38861098121204e6 0.0
8.38861098121204e6 -5.993348986871548e6 0.0
0.0 0.0 0.0

-4.298380447962571e6 1.2406047596299626e7 0.0
1.2406047596299626e7 986654.1619869769 0.0
0.0 0.0 0.0

-7.278860982404623e6 8.791975271216627e6 0.0
8.791975271216627e6 4.078365125939536e6 0.0
0.0 0.0 0.0

2.002640265319929e6 8.940048772475757e6 0.0
8.940048772475757e6 -1.0124827343444228e7 0.0
0.0 0.0 0.0

2.177473726953526e6 2.4199398283958286e6 0.0
2.4199398283958286e6 -5.327929159384662e6 0.0
0.0 0.0 0.0

442002.82399222674 4.677222542574185e6 0.0
4.677222542574185e6 -3.31728400406949e6 0.0
0.0 0.0 0.0

-189695.85035470346 1.026867564885952e7 0.0
1.026867564885952e7 -1.2630396005964878e6 0.0
0.0 0.0 0.0

337211.67125968216 9.890506472409839e6 0.0
9.890506472409839e6 4.9643907834851025e6 0.0
0.0 0.0 0.0

-1.547810203094396e6 7.585783616785547e6 0.0
7.585783616785547e6 -328535.8034943745 0.0
0.0 0.0 0.0

-5.700244184310449e6 9.170585293756554e6 0.0
9.170585293756554e6 4.4575087696131095e6 0.0
0.0 0.0 0.0

-1.2244192954093028e7 -63352.347037496984 0.0
-63352.347037496984 6.8460921620779475e6 0.0
0.0 0.0 0.0

-222193.97195517694 1.042015370641455e7 0.0
1.042015370641455e7 -69303.66267825614 0.0
0.0 0.0 0.0

283456.4478333271 6.2929093781632725e6 0.0
6.2929093781632725e6 -4.994527870034795e6 0.0
0.0 0.0 0.0

-9.039883827386715e6 1.0463652876458842e7 0.0
1.0463652876458842e7 6.907471602827541e6 0.0
0.0 0.0 0.0

-7.9862841235357085e6 -1.0395627303055503e6 0.0
-1.0395627303055503e6 1.0578532672659652e7 0.0
0.0 0.0 0.0

-888922.4173601836 1.0878680721343582e7 0.0
1.0878680721343582e7 -1.2317079219778373e6 0.0
0.0 0.0 0.0

-4.643315363899214e6 1.0371585662433205e7 0.0
1.0371585662433205e7 7.867917944174837e6 0.0
0.0 0.0 0.0

-6.1086272083117785e6 1.1391495209628334e7 0.0
1.1391495209628334e7 3.658972534388403e6 0.0
0.0 0.0 0.0

451278.802983284 9.850000363237917e6 0.0
9.850000363237917e6 -8.038833733218415e6 0.0
0.0 0.0 0.0

2.5352224995555524e6 1.0525210263175437e7 0.0
1.0525210263175437e7 3.1584679189505256e6 0.0
0.0 0.0 0.0

290991.1836716719 1.007065474283337e7 0.0
1.007065474283337e7 -7.271557162101326e6 0.0
0.0 0.0 0.0

-474024.6099228916 1.0727127182344489e7 0.0
1.0727127182344489e7 418514.3764708948 0.0
0.0 0.0 0.0

-4.207066422772856e6 9.540910426524881e6 0.0
9.540910426524881e6 4.865810735794127e6 0.0
0.0 0.0 0.0

-3.381101942465998e6 1.1255008089345511e7 0.0
1.1255008089345511e7 3.4546249114426263e6 0.0
0.0 0.0 0.0

-2.0610792643774687e6 1.1409984422732584e7 0.0
1.1409984422732584e7 1.5139414190020934e6 0.0
0.0 0.0 0.0

2.0639911504377425e6 6.404418312462378e6 0.0
6.404418312462378e6 -8.091815666601107e6 0.0
0.0 0.0 0.0

-7.606964013711525e6 1.3174081965307124e7 0.0
1.3174081965307124e7 3.6527238760155793e6 0.0
0.0 0.0 0.0

-1.9507381879210449e6 8.116985412087351e6 0.0
8.116985412087351e6 810642.55984755 0.0
0.0 0.0 0.0

6.41624499457028e6 8.570907073288655e6 0.0
8.570907073288655e6 -564289.2185643269 0.0
0.0 0.0 0.0

-7.3411649517503865e6 1.1332383804608569e7 0.0
1.1332383804608569e7 4.800421628319161e6 0.0
0.0 0.0 0.0

2.974969114253183e6 6.3932852852870505e6 0.0
6.3932852852870505e6 -9.190928382103093e6 0.0
0.0 0.0 0.0

-3.151263502737812e6 7.688717311850094e6 0.0
7.688717311850094e6 1.1579166810159397e6 0.0
0.0 0.0 0.0

4.193851941340496e6 8.537485892257836e6 0.0
8.537485892257836e6 -1.1040979845683253e6 0.0
0.0 0.0 0.0

9.202345730373846e6 8.415761698943866e6 0.0
8.415761698943866e6 -4.175348411933322e6 0.0
0.0 0.0 0.0

-8.75412963031615e6 1.2209206308681881e7 0.0
1.2209206308681881e7 6.173022787072297e6 0.0
0.0 0.0 0.0

-142226.7595478336 1.100688005884768e7 0.0
1.100688005884768e7 -5.518207978832131e6 0.0
0.0 0.0 0.0

-2.363495936419186e6 6.28615639609684e6 0.0
6.28615639609684e6 1.0899873052906657e6 0.0
0.0 0.0 0.0

-7.642041561876902e6 -1.8375335868540474e6 0.0
-1.8375335868540474e6 8.840030891393801e6 0.0
0.0 0.0 0.0

-192547.15415012045 1.0269656859512744e7 0.0
1.0269656859512744e7 -725782.5896579258 0.0
0.0 0.0 0.0

-1.8122136687683333e6 8.345478626032418e6 0.0
8.345478626032418e6 7.899337975070886e6 0.0
0.0 0.0 0.0

-4.016335437241317e6 1.2719757988149521e6 0.0
1.2719757988149521e6 5.5106210937181935e6 0.0
0.0 0.0 0.0

-1.157698863343118e6 6.288018891952282e6 0.0
6.288018891952282e6 -2.270856756559567e6 0.0
0.0 0.0 0.0

-2.5066038704567677e6 9.818395885126142e6 0.0
9.818395885126142e6 242518.21342668543 0.0
0.0 0.0 0.0

167459.014348845 9.743910592684358e6 0.0
9.743910592684358e6 -7.7469404492500415e6 0.0
0.0 0.0 0.0

-7.090107750291735e6 1.260169558649109e7 0.0
1.260169558649109e7 3.905960198224216e6 0.0
0.0 0.0 0.0

-6.142625754611252e6 1.4524882514345089e7 0.0
1.4524882514345089e7 319022.3768103344 0.0
0.0 0.0 0.0

-1.0865759353897775e7 1.766649516672898e7 0.0
1.766649516672898e7 3.392471206528551e6 0.0
0.0 0.0 0.0

-1.5322339371053983e7 1.1204650243638081e7 0.0
1.1204650243638081e7 1.0342286483642686e7 0.0
0.0 0.0 0.0

99259.80248382699 1.1393687036916973e7 0.0
1.1393687036916973e7 2.7623690919177607e6 0.0
0.0 0.0 0.0

894860.1114514656 1.1220745228947202e7 0.0
1.1220745228947202e7 -1.3047185540284788e7 0.0
0.0 0.0 0.0

-1.433706632225903e6 2.241641616950123e6 0.0
2.241641616950123e6 -140724.7852769798 0.0
0.0 0.0 0.0

-1.629299667641747e6 9.675722719121132e6 0.0
9.675722719121132e6 -7.060535547900878e6 0.0
0.0 0.0 0.0

-893073.8903594022 8.006426801752498e6 0.0
8.006426801752498e6 -5.888734712878524e6 0.0
0.0 0.0 0.0

-840139.0194161562 1.1589520303073278e7 0.0
1.1589520303073278e7 3.545537342307288e6 0.0
0.0 0.0 0.0

-1.1877801466707347e6 1.0173418454757636e7 0.0
1.0173418454757636e7 -8.16549278054709e6 0.0
0.0 0.0 0.0

-938956.7650888416 9.472294831995014e6 0.0
9.472294831995014e6 -7.122492636415739e6 0.0
0.0 0.0 0.0

474632.5335952162 1.0946907988077613e7 0.0
1.0946907988077613e7 5.158554507164162e6 0.0
0.0 0.0 0.0

-2.724337070543674e6 8.66186874076127e6 0.0
8.66186874076127e6 1.6832229787840352e6 0.0
0.0 0.0 0.0

1.904341278758688e6 7.662500414985317e6 0.0
7.662500414985317e6 -7.956945783385449e6 0.0
0.0 0.0 0.0

-243335.72703531146 1.0323896609659964e7 0.0
1.0323896609659964e7 -1.0959906685276171e6 0.0
0.0 0.0 0.0

-5.9856193351448225e6 1.0626190257647367e7 0.0
1.0626190257647367e7 3.805334174510777e6 0.0
0.0 0.0 0.0

-470731.5804232299 1.0355921499728238e7 0.0
1.0355921499728238e7 1.1569821625118707e6 0.0
0.0 0.0 0.0

3.161398680968789e6 5.362120934920473e6 0.0
5.362120934920473e6 -5.783263528261551e6 0.0
0.0 0.0 0.0

-5.5955883184827985e6 1.0858919309565647e7 0.0
1.0858919309565647e7 2.592299982944472e6 0.0
0.0 0.0 0.0

-7.418087065563908e6 1.1963970337879175e7 0.0
1.1963970337879175e7 4.991134923992226e6 0.0
0.0 0.0 0.0

-8.750292860590933e6 4.767719706390576e6 0.0
4.767719706390576e6 1.1015513000311863e7 0.0
0.0 0.0 0.0

-1.1682011793609709e6 7.843455540142789e6 0.0
7.843455540142789e6 736410.2418408883 0.0
0.0 0.0 0.0

-3.1243022957018614e6 1.0072386384290213e7 0.0
1.0072386384290213e7 5.7806224016742315e6 0.0
0.0 0.0 0.0

-1.0109057528497998e7 1.2692293962269468e7 0.0
1.2692293962269468e7 6.905744593189858e6 0.0
0.0 0.0 0.0

-5.635104149172419e6 9.35454324375448e6 0.0
9.35454324375448e6 5.448019016924083e6 0.0
0.0 0.0 0.0

-2.148540869862537e6 1.5220968087553848e6 0.0
1.5220968087553848e6 1.0569649959018528e6 0.0
0.0 0.0 0.0

-7.331682254395548e6 1.1917897414460963e7 0.0
1.1917897414460963e7 5.242115652749062e6 0.0
0.0 0.0 0.0

-5.049708366123606e6 1.1103101529897023e7 0.0
1.1103101529897023e7 1.5066354462055378e6 0.0
0.0 0.0 0.0

-3.691530201965829e6 8.32500448463355e6 0.0
8.32500448463355e6 645784.8705415763 0.0
0.0 0.0 0.0

-7.218235661093701e6 1.289882476064333e7 0.0
1.289882476064333e7 3.752221859342199e6 0.0
0.0 0.0 0.0

-6.903803040437941e6 1.2569027245436335e7 0.0
1.2569027245436335e7 3.336117471589258e6 0.0
0.0 0.0 0.0

-721634.8726024966 1.0506124639601829e7 0.0
1.0506124639601829e7 -1.5743015553081587e6 0.0
0.0 0.0 0.0

429660.13462875085 8.879729781191504e6 0.0
8.879729781191504e6 1.4322009507695104e6 0.0
0.0 0.0 0.0

1.3440952306444738e6 7.547090976795717e6 0.0
7.547090976795717e6 -7.597314665273356e6 0.0
0.0 0.0 0.0

-1.667747989131827e6 1.0451423911342584e7 0.0
1.0451423911342584e7 -7.907383741411679e6 0.0
0.0 0.0 0.0

-1.8594511962126289e6 1.17136230819685e7 0.0
1.17136230819685e7 544010.7477204143 0.0
0.0 0.0 0.0

-1.7560433810514316e7 1.3745019894222323e7 0.0
1.3745019894222323e7 2.8385099121874785e6 0.0
0.0 0.0 0.0

-1.4014594417524114e6 9.458353112120135e6 0.0
9.458353112120135e6 -7.179931353674435e6 0.0
0.0 0.0 0.0

-1.5917166175272316e7 1.3083093377633622e7 0.0
1.3083093377633622e7 1.910784559187607e6 0.0
0.0 0.0 0.0

-4.044771947054932e6 1.1459542901486909e7 0.0
1.1459542901486909e7 3.08201362573703e6 0.0
0.0 0.0 0.0

-6.413800312109675e6 -4.756351776394596e6 0.0
-4.756351776394596e6 9.302839715445273e6 0.0
0.0 0.0 0.0

-6.230412751948424e6 1.3617547493076812e7 0.0
1.3617547493076812e7 1.1793549156353502e6 0.0
0.0 0.0 0.0

-7.728863749964078e6 1.2686161901466593e7 0.0
1.2686161901466593e7 1.7729539841835978e6 0.0
0.0 0.0 0.0

-212072.9071126592 1.1197751400358584e7 0.0
1.1197751400358584e7 -5.35509466666029e6 0.0
0.0 0.0 0.0

-9.631920882048823e6 1.0888719357332679e7 0.0
1.0888719357332679e7 6.219759576983394e6 0.0
0.0 0.0 0.0

-2.3247342725632205e6 4.814112087791893e6 0.0
4.814112087791893e6 1.5690406129830717e6 0.0
0.0 0.0 0.0

2.2445853213775577e6 8.077032852140368e6 0.0
8.077032852140368e6 -9.200004993111094e6 0.0
0.0 0.0 0.0

-1.044485912635661e7 1.0055311156974852e7 0.0
1.0055311156974852e7 6.36174834325061e6 0.0
0.0 0.0 0.0

-225459.74723058252 1.065372101860142e7 0.0
1.065372101860142e7 -718415.5128236498 0.0
0.0 0.0 0.0

-2.3592806030034423e6 5.925131343195441e6 0.0
5.925131343195441e6 697644.5072283456 0.0
0.0 0.0 0.0

-2.556478415305709e6 9.157754809692068e6 0.0
9.157754809692068e6 -2.320113481333636e6 0.0
0.0 0.0 0.0

-4.652098730997278e6 1.30746125487387e7 0.0
1.30746125487387e7 474235.11269774265 0.0
0.0 0.0 0.0

-1.0115315699647058e7 -927012.3309594297 0.0
-927012.3309594297 8.02327846192199e6 0.0
0.0 0.0 0.0

-7.032695877792956e6 1.164052025599366e7 0.0
1.164052025599366e7 5.073738628856037e6 0.0
0.0 0.0 0.0

258571.648919811 1.080456973197021e7 0.0
1.080456973197021e7 -6.159347177632786e6 0.0
0.0 0.0 0.0

989122.0740331681 7.526536065707035e6 0.0
7.526536065707035e6 -6.746276598403609e6 0.0
0.0 0.0 0.0

2.0257180751655924e6 4.1265944472661135e6 0.0
4.1265944472661135e6 -4.847126504257289e6 0.0
0.0 0.0 0.0

-247752.3337702509 1.0120752732467517e7 0.0
1.0120752732467517e7 -5.537293846896134e6 0.0
0.0 0.0 0.0

-7.023315169040995e6 1.0780778015124777e7 0.0
1.0780778015124777e7 1.0406534868512321e6 0.0
0.0 0.0 0.0

-8.483138721793119e6 1.7431979570266757e7 0.0
1.7431979570266757e7 4.114953987492309e6 0.0
0.0 0.0 0.0

-4.35178999383666e6 1.1314307500067191e7 0.0
1.1314307500067191e7 6.366145997786371e6 0.0
0.0 0.0 0.0

-1.3223874161759568e6 8.216852925540253e6 0.0
8.216852925540253e6 1.3930692452242076e6 0.0
0.0 0.0 0.0

-33040.8050557652 1.0682409657257007e7 0.0
1.0682409657257007e7 1.6916363419190664e6 0.0
0.0 0.0 0.0

-498277.3908699897 9.781227576707317e6 0.0
9.781227576707317e6 -1.6609246067031012e6 0.0
0.0 0.0 0.0

-9.747288606420346e6 4.722994088914691e6 0.0
4.722994088914691e6 1.1472422427759964e7 0.0
0.0 0.0 0.0

21792.26792902639 8.966988000761203e6 0.0
8.966988000761203e6 -6.452013843072185e6 0.0
0.0 0.0 0.0

-1.6659273893584318e7 8.141430704160208e6 0.0
8.141430704160208e6 9.116067330753233e6 0.0
0.0 0.0 0.0

-6.787686568035539e6 572989.7094058751 0.0
572989.7094058751 8.759301971056288e6 0.0
0.0 0.0 0.0

-6.884709890254891e6 -4.37852305068142e6 0.0
-4.37852305068142e6 1.2751013203117767e7 0.0
0.0 0.0 0.0

-926363.9871329207 7.320562529962277e6 0.0
7.320562529962277e6 -4.1661416166103585e6 0.0
0.0 0.0 0.0

-1.2439900074527678e6 800153.581086407 0.0
800153.581086407 1.0157619875142826e6 0.0
0.0 0.0 0.0

2.5775261048230594e6 8.322059752125333e6 0.0
8.322059752125333e6 -1.0705332552602742e7 0.0
0.0 0.0 0.0

-1.1173266139602195e7 3.813718643907016e6 0.0
3.813718643907016e6 1.3908841371058157e7 0.0
0.0 0.0 0.0

1.5073786182830567e6 8.848109117972571e6 0.0
8.848109117972571e6 -9.22907131038318e6 0.0
0.0 0.0 0.0

-1.952612129786206e6 1.8303868904791295e6 0.0
1.8303868904791295e6 2.260299236818673e6 0.0
0.0 0.0 0.0

-6.345730517984419e6 1.1009529068698699e7 0.0
1.1009529068698699e7 3.9374287569473954e6 0.0
0.0 0.0 0.0

-4.582187082453411e6 1.3501415159444913e7 0.0
1.3501415159444913e7 327322.7482442872 0.0
0.0 0.0 0.0

-8.104775142376404e6 1.2427608317207588e7 0.0
1.2427608317207588e7 5.572373043098424e6 0.0
0.0 0.0 0.0

-1.0777319807842294e7 1.662825701961149e7 0.0
1.662825701961149e7 4.875318008066567e6 0.0
0.0 0.0 0.0

-9.21550565848437e6 1.466294481538714e7 0.0
1.466294481538714e7 4.21903905285986e6 0.0
0.0 0.0 0.0

-6.634862680955838e6 -1.2436316282648458e6 0.0
-1.2436316282648458e6 8.573363036596812e6 0.0
0.0 0.0 0.0

2.860249033831014e6 6.528198372981464e6 0.0
6.528198372981464e6 -9.653137952767264e6 0.0
0.0 0.0 0.0

548804.1952184169 1.1246112110650236e7 0.0
1.1246112110650236e7 -5.448923983405276e6 0.0
0.0 0.0 0.0

-3.3858129097354575e6 1.0751809495891675e7 0.0
1.0751809495891675e7 -1.1517500902585394e6 0.0
0.0 0.0 0.0

492884.82956009917 8.192912800963903e6 0.0
8.192912800963903e6 -5.618153434265153e6 0.0
0.0 0.0 0.0

-1.281547708651008e6 8.763326558768028e6 0.0
8.763326558768028e6 -6.477405641580286e6 0.0
0.0 0.0 0.0

-305700.79197594343 9.914497577066978e6 0.0
9.914497577066978e6 -1.0190026491849695e6 0.0
0.0 0.0 0.0

-6.00808773265681e6 1.0432630355354208e7 0.0
1.0432630355354208e7 4.350589292598618e6 0.0
0.0 0.0 0.0

-7.307137810031517e6 1.1520200712242872e7 0.0
1.1520200712242872e7 5.350428985866055e6 0.0
0.0 0.0 0.0

-645529.958070837 8.14275134961865e6 0.0
8.14275134961865e6 -5.41120876024409e6 0.0
0.0 0.0 0.0

-699629.9311499496 6.798333471690399e6 0.0
6.798333471690399e6 -2.234204377893879e6 0.0
0.0 0.0 0.0

2.364338679655803e6 5.944423197557924e6 0.0
5.944423197557924e6 -7.886028783029453e6 0.0
0.0 0.0 0.0

1.0117091302381086e6 1.0847015694396421e7 0.0
1.0847015694396421e7 -4.733268468138008e6 0.0
0.0 0.0 0.0

1.1767610555726592e6 7.743186779068808e6 0.0
7.743186779068808e6 -7.268713320853656e6 0.0
0.0 0.0 0.0

-535697.0069825904 4.595949930333845e6 0.0
4.595949930333845e6 -2.6034834823596627e6 0.0
0.0 0.0 0.0

-543032.366948849 6.608546181508385e6 0.0
6.608546181508385e6 -3.1357478506001537e6 0.0
0.0 0.0 0.0

1.5305803087888728e6 1.4197123121257827e6 0.0
1.4197123121257827e6 -4.62393547930444e6 0.0
0.0 0.0 0.0

-5.120093928053504e6 1.0188550119316002e7 0.0
1.0188550119316002e7 2.9135749899088386e6 0.0
0.0 0.0 0.0

273269.7131167124 1.041671064662615e7 0.0
1.041671064662615e7 -6.518346529004479e6 0.0
0.0 0.0 0.0

2.6427943238229044e6 8.397812578554466e6 0.0
8.397812578554466e6 -1.1665584331374453e7 0.0
0.0 0.0 0.0

-2.994559180268555e6 1.1684429027646704e7 0.0
1.1684429027646704e7 372006.46652467526 0.0
0.0 0.0 0.0

-1.311525461073523e7 1.2762518022758132e7 0.0
1.2762518022758132e7 2.6369644889217652e6 0.0
0.0 0.0 0.0

-1.1763013915114362e7 9.207321428060275e6 0.0
9.207321428060275e6 6.044078941138168e6 0.0
0.0 0.0 0.0

-6.005596889421805e6 1.2728226317119235e7 0.0
1.2728226317119235e7 2.2979648488879534e6 0.0
0.0 0.0 0.0

333697.87205463834 9.873467123183774e6 0.0
9.873467123183774e6 -8.475957874164911e6 0.0
0.0 0.0 0.0

-2.0911056358283847e6 9.317629847193478e6 0.0
9.317629847193478e6 -6.970352209430288e6 0.0
0.0 0.0 0.0

-1.0116718090389919e7 1.2744726104152061e7 0.0
1.2744726104152061e7 2.2998702352071167e6 0.0
0.0 0.0 0.0

-2.2707278148113685e6 1.0087451821326632e7 0.0
1.0087451821326632e7 -7.569092909196738e6 0.0
0.0 0.0 0.0

-5.707662804082731e6 8.938718867548756e6 0.0
8.938718867548756e6 6.087863408470415e6 0.0
0.0 0.0 0.0

-1.1108948584909588e6 3.058705222956915e6 0.0
3.058705222956915e6 -233210.52477870934 0.0
0.0 0.0 0.0

-4.973951451591734e6 1.1123695977295062e7 0.0
1.1123695977295062e7 944337.2345122737 0.0
0.0 0.0 0.0

-5.814291853515085e6 1.003604040059949e7 0.0
1.003604040059949e7 4.626397504266986e6 0.0
0.0 0.0 0.0

-2.3743882474436136e6 1.9810822800380092e6 0.0
1.9810822800380092e6 1.3813764335662564e6 0.0
0.0 0.0 0.0

892365.5708537968 9.361970976149108e6 0.0
9.361970976149108e6 -7.361889228926294e6 0.0
0.0 0.0 0.0

-5.347228419210581e6 1.0777850840333292e7 0.0
1.0777850840333292e7 2.122674568064965e6 0.0
0.0 0.0 0.0

-326244.7246398158 1.0364721522663416e7 0.0
1.0364721522663416e7 -1.544001631239968e6 0.0
0.0 0.0 0.0

-6.349044244783831e6 1.1112259426042868e7 0.0
1.1112259426042868e7 4.544429813377974e6 0.0
0.0 0.0 0.0

-1.091610212755727e7 1.2139689704673067e7 0.0
1.2139689704673067e7 4.237132889157734e6 0.0
0.0 0.0 0.0

-2.152892957724201e6 9.589044277300261e6 0.0
9.589044277300261e6 -7.176310218691542e6 0.0
0.0 0.0 0.0

-4.8548995264640525e6 1.0225609309023088e7 0.0
1.0225609309023088e7 6.942810599721573e6 0.0
0.0 0.0 0.0

-1.087557058323506e7 9.329830034181973e6 0.0
9.329830034181973e6 5.297173613284351e6 0.0
0.0 0.0 0.0

-2.0808919378035876e6 6.0059527042606e6 0.0
6.0059527042606e6 937659.3498988147 0.0
0.0 0.0 0.0

-1.3069009717335545e7 2.5970097635588343e6 0.0
2.5970097635588343e6 1.7639699692881033e7 0.0
0.0 0.0 0.0

-1.6741405361103078e6 1.0940640850054462e7 0.0
1.0940640850054462e7 -1.105831621378068e6 0.0
0.0 0.0 0.0

-8.731385129199924e6 1.5257386042646391e7 0.0
1.5257386042646391e7 3.1694099607969243e6 0.0
0.0 0.0 0.0

485366.8125732306 1.068958916856025e7 0.0
1.068958916856025e7 1.6178894411184913e6 0.0
0.0 0.0 0.0

2.1234648991912934e6 1.1087534860708343e7 0.0
1.1087534860708343e7 3.5355726359348837e6 0.0
0.0 0.0 0.0

-8.089755412351061e6 1.246321809386917e7 0.0
1.246321809386917e7 3.1679722226766907e6 0.0
0.0 0.0 0.0

-6.67149363141529e6 1.4973520847005205e7 0.0
1.4973520847005205e7 1.1638421583354254e6 0.0
0.0 0.0 0.0

456006.19870179053 1.121458879905923e7 0.0
1.121458879905923e7 3.9128786952991663e6 0.0
0.0 0.0 0.0

3.4782750831825538e6 7.430287338608904e6 0.0
7.430287338608904e6 -1.120853828617866e7 0.0
0.0 0.0 0.0

-6.725635572023796e6 1.1585541445604851e7 0.0
1.1585541445604851e7 4.786078108044577e6 0.0
0.0 0.0 0.0

-230873.1844849229 9.958242798875472e6 0.0
9.958242798875472e6 -1.488122276277457e6 0.0
0.0 0.0 0.0

-2.3841681185387447e6 1.0403004516863834e7 0.0
1.0403004516863834e7 -7.947227390782225e6 0.0
0.0 0.0 0.0

-2.0949320299129328e6 1.1842041921170149e7 0.0
1.1842041921170149e7 44518.238846063614 0.0
0.0 0.0 0.0

3.5300670648437096e6 5.99025978601105e6 0.0
5.99025978601105e6 -9.973209773405502e6 0.0
0.0 0.0 0.0

-3.406819288228114e6 1.0150558867959233e7 0.0
1.0150558867959233e7 -1.3243076261622314e6 0.0
0.0 0.0 0.0

-1.1165605902857857e6 1.2532642017334789e7 0.0
1.2532642017334789e7 -3.6087748234439646e6 0.0
0.0 0.0 0.0

5.657126187654998e6 1.1102106745210173e7 0.0
1.1102106745210173e7 -8.104580545113897e6 0.0
0.0 0.0 0.0

-5.620565785853859e6 7.378321054189035e6 0.0
7.378321054189035e6 6.07837183572043e6 0.0
0.0 0.0 0.0

-3.1158795204043128e6 5.24284466872384e6 0.0
5.24284466872384e6 3.35799648796186e6 0.0
0.0 0.0 0.0

-5.594077839002038e6 1.2473488828688731e7 0.0
1.2473488828688731e7 3.2395496980893565e6 0.0
0.0 0.0 0.0

-5.036793638668755e6 1.115517961256828e7 0.0
1.115517961256828e7 1.3285505385928862e6 0.0
0.0 0.0 0.0

-9.197946667559966e6 -2.9791868198969346e6 0.0
-2.9791868198969346e6 1.5051382701191153e7 0.0
0.0 0.0 0.0

-933853.8302561138 1.0158848831601841e7 0.0
1.0158848831601841e7 -2.1365891214859067e6 0.0
0.0 0.0 0.0

-7.598915490333719e6 1.1036425679263664e7 0.0
1.1036425679263664e7 5.667548298512705e6 0.0
0.0 0.0 0.0

330437.32916988153 7.093354761397358e6 0.0
7.093354761397358e6 -4.820484850196932e6 0.0
0.0 0.0 0.0

-3.9118177728566714e6 9.101280346016249e6 0.0
9.101280346016249e6 9.062867241315674e6 0.0
0.0 0.0 0.0

-1.6526722907219442e7 1.0459252612443505e7 0.0
1.0459252612443505e7 6.235889512942791e6 0.0
0.0 0.0 0.0

-111991.48954392405 9.733662929052282e6 0.0
9.733662929052282e6 -418100.0279438107 0.0
0.0 0.0 0.0

415621.57258174894 6.367206888370396e6 0.0
6.367206888370396e6 -4.878170246581087e6 0.0
0.0 0.0 0.0

-7.012768128729768e6 9.159902406062847e6 0.0
9.159902406062847e6 1.1801762755760608e7 0.0
0.0 0.0 0.0

-4.1132983893664554e6 1.2150419941555321e7 0.0
1.2150419941555321e7 -277692.01248569693 0.0
0.0 0.0 0.0

-130385.29685770953 1.6239191632935505e7 0.0
1.6239191632935505e7 -4.1309604027432054e6 0.0
0.0 0.0 0.0

-1.796044373534379e6 7.90726193351527e6 0.0
7.90726193351527e6 -5.986814727654927e6 0.0
0.0 0.0 0.0

-2.835037015532717e6 7.096286999791059e6 0.0
7.096286999791059e6 985046.1583404356 0.0
0.0 0.0 0.0

701573.3557096543 6.87255707458054e6 0.0
6.87255707458054e6 -4.924831236124252e6 0.0
0.0 0.0 0.0

-193716.88760404708 9.83032778422452e6 0.0
9.83032778422452e6 -7.663692630486978e6 0.0
0.0 0.0 0.0

-3.066387889862763e6 1.0362437186484335e7 0.0
1.0362437186484335e7 -1.533992805117059e6 0.0
0.0 0.0 0.0

1.1398594480716167e6 1.0455366401512422e7 0.0
1.0455366401512422e7 4.150813381897813e6 0.0
0.0 0.0 0.0

-5.777293729185047e6 1.0476744502462098e7 0.0
1.0476744502462098e7 3.1547735466505643e6 0.0
0.0 0.0 0.0

-719004.1358025824 1.2626926688021246e7 0.0
1.2626926688021246e7 -4.234464193968976e6 0.0
0.0 0.0 0.0

-4.023408935461156e6 -1.3722495566585264e6 0.0
-1.3722495566585264e6 8.501422082082644e6 0.0
0.0 0.0 0.0

-2.7710328186009293e6 2.104366971516444e6 0.0
2.104366971516444e6 3.439511156449722e6 0.0
0.0 0.0 0.0

1.619543696049541e6 1.2243845736393651e7 0.0
1.2243845736393651e7 -4.790196457248879e6 0.0
0.0 0.0 0.0

-104036.6133674857 1.011855080173942e7 0.0
1.011855080173942e7 -514896.8447543253 0.0
0.0 0.0 0.0

1.039598630633338e7 8.160321577140428e6 0.0
8.160321577140428e6 -3.0960821315813474e6 0.0
0.0 0.0 0.0

-2.214679572767275e6 1.9145767382720194e6 0.0
1.9145767382720194e6 2.4323339188750414e6 0.0
0.0 0.0 0.0

-7.089465463210541e6 1.1894038484634489e7 0.0
1.1894038484634489e7 1.0963351198595096e6 0.0
0.0 0.0 0.0

-8.916004192348555e6 6.582232788297487e6 0.0
6.582232788297487e6 6.684725045989826e6 0.0
0.0 0.0 0.0

-1.3870622790711056e7 1.1687697207876584e7 0.0
1.1687697207876584e7 3.9969348079732126e6 0.0
0.0 0.0 0.0

9.220869971475858e6 6.294533677359103e6 0.0
6.294533677359103e6 -3.0583671557306927e6 0.0
0.0 0.0 0.0

-1.2729685681689877e7 1.2393632144039003e6 0.0
1.2393632144039003e6 2.14525008498545e7 0.0
0.0 0.0 0.0

-632374.023614819 6.158197250711455e6 0.0
6.158197250711455e6 -2.0831727484146813e6 0.0
0.0 0.0 0.0

-9.170938971833546e6 1.2134260309392696e7 0.0
1.2134260309392696e7 4.76065885934186e6 0.0
0.0 0.0 0.0

-6.477426112851415e6 1.1420590021063022e7 0.0
1.1420590021063022e7 4.907447971201303e6 0.0
0.0 0.0 0.0

-3.222500356110942e6 1.0307684499667281e7 0.0
1.0307684499667281e7 -2.0277448995827103e6 0.0
0.0 0.0 0.0

-578948.0221474624 7.968825366179306e6 0.0
7.968825366179306e6 -4.214622177277968e6 0.0
0.0 0.0 0.0

-366325.9548227856 1.0216216592797974e7 0.0
1.0216216592797974e7 -1.9205411674831694e6 0.0
0.0 0.0 0.0

-1.3474371307048518e6 9.382493252665557e6 0.0
9.382493252665557e6 -6.8417788658847315e6 0.0
0.0 0.0 0.0

-298513.63123336714 1.1225986959642114e7 0.0
1.1225986959642114e7 -1.0525532093547054e7 0.0
0.0 0.0 0.0

1.47551027798023e6 4.0550558528659893e6 0.0
4.0550558528659893e6 9178.177951256977 0.0
0.0 0.0 0.0

-6.0550547488812525e6 1.6501096609145425e7 0.0
1.6501096609145425e7 -1.1539033573654694e6 0.0
0.0 0.0 0.0

-1.9881430704548992e6 8.710182830001654e6 0.0
8.710182830001654e6 -6.627143930630759e6 0.0
0.0 0.0 0.0

240504.24953756086 1.0292033028974006e7 0.0
1.0292033028974006e7 4.285586010432262e6 0.0
0.0 0.0 0.0

1.1064854894474032e6 9.475641180478135e6 0.0
9.475641180478135e6 -5.163210233989538e6 0.0
0.0 0.0 0.0

-4.672391421561696e6 1.1063433861054212e7 0.0
1.1063433861054212e7 1.05599660898139e6 0.0
0.0 0.0 0.0

-553269.0064251085 9.171368314244792e6 0.0
9.171368314244792e6 -6.783109141890436e6 0.0
0.0 0.0 0.0

-1.1807682117405778e7 1.7053722952972373e6 0.0
1.7053722952972373e6 5.7595571013532495e6 0.0
0.0 0.0 0.0

-450723.01747766323 2.2768408085663086e6 0.0
2.2768408085663086e6 -941128.3497312275 0.0
0.0 0.0 0.0

-5.6986727065364085e6 8.691541600865824e6 0.0
8.691541600865824e6 6.451689541008322e6 0.0
0.0 0.0 0.0

-445268.9021470045 7.206339034038061e6 0.0
7.206339034038061e6 -2.0552622711368243e6 0.0
0.0 0.0 0.0

-2.659647145370558e6 7.807712624044759e6 0.0
7.807712624044759e6 -1.8080449229836636e6 0.0
0.0 0.0 0.0

-2.5297343170027407e6 9.293013669653712e6 0.0
9.293013669653712e6 -1.4981029035795857e6 0.0
0.0 0.0 0.0

-1.116690089957628e6 6.892795364802594e6 0.0
6.892795364802594e6 -2.361177190496551e6 0.0
0.0 0.0 0.0

4.986646512412693e6 1.2127367791355794e7 0.0
1.2127367791355794e7 -6.379574529279327e6 0.0
0.0 0.0 0.0

-1.040489018344304e7 1.133919424667113e7 0.0
1.133919424667113e7 7.289202499205036e6 0.0
0.0 0.0 0.0

-1.118549058425099e6 1.3309183909079581e7 0.0
1.3309183909079581e7 -3.9003845269235256e6 0.0
0.0 0.0 0.0

-1.9656374009358033e6 1.173214978118486e7 0.0
1.173214978118486e7 45666.381511340966 0.0
0.0 0.0 0.0

-8.410103846914101e6 1.2581578036027953e7 0.0
1.2581578036027953e7 5.81921646373811e6 0.0
0.0 0.0 0.0

-5.817740415701224e6 9.370667352565901e6 0.0
9.370667352565901e6 5.253244138345977e6 0.0
0.0 0.0 0.0

1.198835607680508e6 6.636933735837349e6 0.0
6.636933735837349e6 -4.778194863129888e6 0.0
0.0 0.0 0.0

-126528.6229711643 4.6778877197785685e6 0.0
4.6778877197785685e6 -2.7752569570232145e6 0.0
0.0 0.0 0.0

-1.5611551466279668e6 1.0147282117206298e7 0.0
1.0147282117206298e7 -7.545013120759325e6 0.0
0.0 0.0 0.0

-2.2286411747077554e6 1.1375393950310983e7 0.0
1.1375393950310983e7 776774.0015153383 0.0
0.0 0.0 0.0

1.9856437368047351e6 5.598464407422061e6 0.0
5.598464407422061e6 -4.60620433883573e6 0.0
0.0 0.0 0.0

-2.229505891448803e7 1.4360944175395306e7 0.0
1.4360944175395306e7 9.405227623672368e6 0.0
0.0 0.0 0.0

2.97289395053594e6 8.499829635066323e6 0.0
8.499829635066323e6 -1.2775616044054948e7 0.0
0.0 0.0 0.0

-215988.98803543043 6.312114732833448e6 0.0
6.312114732833448e6 -3.464070646525329e6 0.0
0.0 0.0 0.0

-1.0656875990419108e6 1.0398637764443716e7 0.0
1.0398637764443716e7 -8.14589340238904e6 0.0
0.0 0.0 0.0

2.952322347421623e6 6.395774029392032e6 0.0
6.395774029392032e6 -9.49515970280492e6 0.0
0.0 0.0 0.0

108884.84683680511 1.7817606923637982e7 0.0
1.7817606923637982e7 -6.0612238369330345e6 0.0
0.0 0.0 0.0

1.3198891758711804e6 7.737325103752227e6 0.0
7.737325103752227e6 -6.757404919959305e6 0.0
0.0 0.0 0.0

-1.2170518603805888e7 5.2340323394216e6 0.0
5.2340323394216e6 1.6068369398299124e7 0.0
0.0 0.0 0.0

-5.43768923848187e6 7.562456094606697e6 0.0
7.562456094606697e6 6.301582649835499e6 0.0
0.0 0.0 0.0

-4.551727917695516e6 1.1497091198938945e7 0.0
1.1497091198938945e7 3.4898739180395203e6 0.0
0.0 0.0 0.0

-5.8989794224155815e6 7.833941589827967e6 0.0
7.833941589827967e6 4.582897724684022e6 0.0
0.0 0.0 0.0

-5.596921084833069e6 8.641927502465794e6 0.0
8.641927502465794e6 6.97623475414462e6 0.0
0.0 0.0 0.0

-5.25342620001164e6 1.0164088221688308e7 0.0
1.0164088221688308e7 2.4656074755328e6 0.0
0.0 0.0 0.0

1.0231299445653699e6 1.151235666306725e7 0.0
1.151235666306725e7 3.4104332138034347e6 0.0
0.0 0.0 0.0

-1.0582232276303049e6 3.557346554876762e6 0.0
3.557346554876762e6 -499219.5719306608 0.0
0.0 0.0 0.0

-1.551415678023555e6 1.115448223962273e7 0.0
1.115448223962273e7 -3.7236756097876066e6 0.0
0.0 0.0 0.0

2.16649782005547e6 9.848062907156657e6 0.0
9.848062907156657e6 -1.3302115281446382e7 0.0
0.0 0.0 0.0

-1.1608118740070522e7 1.1489772009427816e7 0.0
1.1489772009427816e7 8.273255428499603e6 0.0
0.0 0.0 0.0

-4.918511845008084e6 1.3533745021914855e7 0.0
1.3533745021914855e7 -792344.5573538054 0.0
0.0 0.0 0.0

1.8393506908094774e6 9.084169148074418e6 0.0
9.084169148074418e6 -2.5657431430059006e6 0.0
0.0 0.0 0.0

-5.367617353109427e6 7.5163636797621995e6 0.0
7.5163636797621995e6 6.856406454069173e6 0.0
0.0 0.0 0.0

-1.3189000983945873e7 9.739472795941949e6 0.0
9.739472795941949e6 9.753099044915367e6 0.0
0.0 0.0 0.0

-2.356410538362772e6 1.2077669987395285e7 0.0
1.2077669987395285e7 -2.5854886269046427e6 0.0
0.0 0.0 0.0

105780.70649589878 9.845384783425713e6 0.0
9.845384783425713e6 -8.081038842202659e6 0.0
0.0 0.0 0.0

-1.3958411605908435e7 1.1281395680767937e7 0.0
1.1281395680767937e7 1.0243729750090633e7 0.0
0.0 0.0 0.0

5.710972570433623e6 1.5893864986234812e7 0.0
1.5893864986234812e7 -1.112945400685354e7 0.0
0.0 0.0 0.0

1.5056760159315602e6 8.540264269476479e6 0.0
8.540264269476479e6 -1.5287344343640613e6 0.0
0.0 0.0 0.0

462293.6117073386 8.147859823661937e6 0.0
8.147859823661937e6 -6.134048956030699e6 0.0
0.0 0.0 0.0

-1.8159451081669019e6 1.0724913598029261e7 0.0
1.0724913598029261e7 -8.651183621777736e6 0.0
0.0 0.0 0.0

-1.7359960674483809e6 1.6360781134150336e7 0.0
1.6360781134150336e7 -2.961808509989556e6 0.0
0.0 0.0 0.0

662841.819285572 1.0449466183832204e7 0.0
1.0449466183832204e7 -6.236713757612186e6 0.0
0.0 0.0 0.0

-6.73394508803323e6 1.267421847200222e7 0.0
1.267421847200222e7 2.583048566264426e6 0.0
0.0 0.0 0.0

2.0564581078098533e6 9.25587977402032e6 0.0
9.25587977402032e6 -1.1864659247363804e7 0.0
0.0 0.0 0.0

-349744.2404357463 1.087681341507035e7 0.0
1.087681341507035e7 -214479.29852838346 0.0
0.0 0.0 0.0

-1.1363053576743051e7 8.77689665516932e6 0.0
8.77689665516932e6 7.723979441406981e6 0.0
0.0 0.0 0.0

-5.140439320881273e6 1.041464120575915e7 0.0
1.041464120575915e7 2.8126167153410623e6 0.0
0.0 0.0 0.0

5.924846380174862e6 8.472333884385187e6 0.0
8.472333884385187e6 -1.855266234899743e6 0.0
0.0 0.0 0.0

-9.184494104920248e6 1.2892863735223826e7 0.0
1.2892863735223826e7 6.032932604041109e6 0.0
0.0 0.0 0.0

-1.9702523659051731e6 9.316751145932006e6 0.0
9.316751145932006e6 942372.4861268054 0.0
0.0 0.0 0.0

2.9813297146205567e6 2.1128720205063787e6 0.0
2.1128720205063787e6 -4.631325968919315e6 0.0
0.0 0.0 0.0

-5.472296343550273e6 1.6348689980180059e7 0.0
1.6348689980180059e7 858153.9503703052 0.0
0.0 0.0 0.0

303243.54685873445 1.0607675421831194e7 0.0
1.0607675421831194e7 -6.355145806081206e6 0.0
0.0 0.0 0.0

3.7783818116078405e6 6.333812116296813e6 0.0
6.333812116296813e6 -1.0828140915614504e7 0.0
0.0 0.0 0.0

-240164.4524520801 6.951871303469176e6 0.0
6.951871303469176e6 -3.2925836669886117e6 0.0
0.0 0.0 0.0

1.9630006329195565e6 6.378825589101883e6 0.0
6.378825589101883e6 -4.99118062736249e6 0.0
0.0 0.0 0.0

-856504.9982812831 8.304846670430156e6 0.0
8.304846670430156e6 -4.249134420185035e6 0.0
0.0 0.0 0.0

-9.098094669062786e6 9.211650279707707e6 0.0
9.211650279707707e6 6.061716650758257e6 0.0
0.0 0.0 0.0

-1.3646788841760652e6 1.1673689980313774e7 0.0
1.1673689980313774e7 189465.9838449128 0.0
0.0 0.0 0.0

-631391.0388963297 1.3151266020972652e7 0.0
1.3151266020972652e7 -3.6589964778163e6 0.0
0.0 0.0 0.0

3.015168518791683e6 6.7516793714968115e6 0.0
6.7516793714968115e6 -9.258394349600682e6 0.0
0.0 0.0 0.0

-3.113023194842444e6 1.0098334994428482e7 0.0
1.0098334994428482e7 -1.4897160462602922e6 0.0
0.0 0.0 0.0

-2.028451704797737e6 9.051060001741627e6 0.0
9.051060001741627e6 -3.3351128585002664e6 0.0
0.0 0.0 0.0

-7.080223799402989e6 1.2291586180548903e7 0.0
1.2291586180548903e7 3.4895391180260116e6 0.0
0.0 0.0 0.0

-672780.4647274876 1.5597105021902572e7 0.0
1.5597105021902572e7 -4.075925651316956e6 0.0
0.0 0.0 0.0

-5.215803071854272e6 1.16343016147679e7 0.0
1.16343016147679e7 4.235002528894802e6 0.0
0.0 0.0 0.0

-3.100599924175661e6 9.299170657513157e6 0.0
9.299170657513157e6 2.680142824754892e6 0.0
0.0 0.0 0.0

-8.794337208552299e6 1.2154891894556804e7 0.0
1.2154891894556804e7 2.9594481201571066e7 0.0
0.0 0.0 0.0

-1.1698690666142726e7 1.325530805627401e7 0.0
1.325530805627401e7 8.072964876134754e6 0.0
0.0 0.0 0.0

787177.3697978714 1.1222553770227274e7 0.0
1.1222553770227274e7 -5.216564041031282e6 0.0
0.0 0.0 0.0

1.6955677547400068e6 8.128541906336719e6 0.0
8.128541906336719e6 -7.8307197135055605e6 0.0
0.0 0.0 0.0

1.9273843201093543e6 7.882179428995821e6 0.0
7.882179428995821e6 -8.174453104339765e6 0.0
0.0 0.0 0.0

1.9922485667989845e6 5.674164142776677e6 0.0
5.674164142776677e6 -6.7626124304305315e6 0.0
0.0 0.0 0.0

-5.838504983695773e6 1.0563006576257726e7 0.0
1.0563006576257726e7 4.783485185239008e6 0.0
0.0 0.0 0.0

1.6336195234506591e6 5.63309622612357e6 0.0
5.63309622612357e6 -6.637934647795076e6 0.0
0.0 0.0 0.0

-7.00720344618262e6 4909.447729894348 0.0
4909.447729894348 8.210560586403073e6 0.0
0.0 0.0 0.0

-4.035442504447261e6 1.1273975535848495e7 0.0
1.1273975535848495e7 4.039657169878193e6 0.0
0.0 0.0 0.0

-563610.3548213828 6.049432640322097e6 0.0
6.049432640322097e6 -2.9733944257281413e6 0.0
0.0 0.0 0.0

-5.548537051584831e6 1.3344136279170576e7 0.0
1.3344136279170576e7 95724.42147848383 0.0
0.0 0.0 0.0

-5.682328171429175e6 1.4676131491061553e7 0.0
1.4676131491061553e7 1.280799036769616e6 0.0
0.0 0.0 0.0

-171570.44213473177 9.847219773561021e6 0.0
9.847219773561021e6 -1.1605507855955297e6 0.0
0.0 0.0 0.0

1.9612282887771837e6 9.100660453570627e6 0.0
9.100660453570627e6 -1.0959207354237564e7 0.0
0.0 0.0 0.0

3.433429085698999e6 6.2364660412136745e6 0.0
6.2364660412136745e6 -9.711834965380613e6 0.0
0.0 0.0 0.0

-2.1989780759476837e7 1.527447005423727e7 0.0
1.527447005423727e7 3.5076144111782014e6 0.0
0.0 0.0 0.0

2.0247890136659166e6 1.158286009843885e7 0.0
1.158286009843885e7 4.828275948885892e6 0.0
0.0 0.0 0.0

-5.7767211469685845e6 1.4324957745669417e7 0.0
1.4324957745669417e7 1.6306377750495053e6 0.0
0.0 0.0 0.0

-1.999544716355217e6 1.0628956442777013e7 0.0
1.0628956442777013e7 2.726921392804047e6 0.0
0.0 0.0 0.0

-212505.86938990487 1.0579789325027624e7 0.0
1.0579789325027624e7 -900735.4777641845 0.0
0.0 0.0 0.0

-1.0883061018035708e7 952845.4535263428 0.0
952845.4535263428 1.3816255427023541e7 0.0
0.0 0.0 0.0

-8.480592499896951e6 1.1061585708884414e7 0.0
1.1061585708884414e7 6.411536255466695e6 0.0
0.0 0.0 0.0

-1.6022569347510962e6 7.9692277002960825e6 0.0
7.9692277002960825e6 -2.6913780572593883e6 0.0
0.0 0.0 0.0

-2.4708531162813758e6 2.039940155354963e6 0.0
2.039940155354963e6 1.9282754332877505e6 0.0
0.0 0.0 0.0

-1.1379078439621007e7 7.07162577020307e6 0.0
7.07162577020307e6 4.309059556554164e7 0.0
0.0 0.0 0.0

-769685.9122391609 1.1648690051033394e7 0.0
1.1648690051033394e7 -4.392075976596211e6 0.0
0.0 0.0 0.0

3.4299208246254846e6 4.016258900227894e6 0.0
4.016258900227894e6 -5.15629698295778e6 0.0
0.0 0.0 0.0

-1.3716723980791898e7 1.7783926870015948e6 0.0
1.7783926870015948e6 2.3080277717310887e7 0.0
0.0 0.0 0.0

2.945066415374141e6 6.002703796509546e6 0.0
6.002703796509546e6 -8.494648346837692e6 0.0
0.0 0.0 0.0

-3.8539380537622552e6 8.869341089259237e6 0.0
8.869341089259237e6 2.754161874841542e6 0.0
0.0 0.0 0.0

-1.1621078099356726e7 1.178841905418407e7 0.0
1.178841905418407e7 5.387679190985696e6 0.0
0.0 0.0 0.0

-617114.067668135 1.104784195861246e7 0.0
1.104784195861246e7 -5.584238404154369e6 0.0
0.0 0.0 0.0

-2.7235793455185546e6 2.229678203922235e6 0.0
2.229678203922235e6 2.794727128125312e6 0.0
0.0 0.0 0.0

-1.9748862408784204e6 1.1826326930141916e7 0.0
1.1826326930141916e7 269230.1199000415 0.0
0.0 0.0 0.0

1.278235329277491e6 1.503173360710657e7 0.0
1.503173360710657e7 -5.439915805257292e6 0.0
0.0 0.0 0.0

-354277.76136907 2.632846922492882e6 0.0
2.632846922492882e6 -825078.1785255137 0.0
0.0 0.0 0.0

3.699645342421848e6 9.13250977825747e6 0.0
9.13250977825747e6 -1.7545699134811843e6 0.0
0.0 0.0 0.0

-5.931828343926548e6 1.9398954910220206e7 0.0
1.9398954910220206e7 -5.1784226095667295e6 0.0
0.0 0.0 0.0

2.3740538878357136e6 5.822002431332591e6 0.0
5.822002431332591e6 -7.705574455096737e6 0.0
0.0 0.0 0.0

-3.3602413643473284e6 7.622944912226519e6 0.0
7.622944912226519e6 466198.5732876642 0.0
0.0 0.0 0.0

793960.0848369333 1.3084108800494267e7 0.0
1.3084108800494267e7 6.569698748865376e6 0.0
0.0 0.0 0.0

1.5225515226915352e7 6.644937232880674e6 0.0
6.644937232880674e6 -4.394964369407678e6 0.0
0.0 0.0 0.0

-1.485595041166707e7 1.2021491464859074e7 0.0
1.2021491464859074e7 6.784929249666916e6 0.0
0.0 0.0 0.0

-5.270062625634372e6 9.915957434333269e6 0.0
9.915957434333269e6 2.5607920887049576e6 0.0
0.0 0.0 0.0

1.8005552064070078e6 8.997081768680735e6 0.0
8.997081768680735e6 -1.0202391532277664e7 0.0
0.0 0.0 0.0

-7.984114320884668e6 1.0149209670418875e7 0.0
1.0149209670418875e7 5.516746956312437e6 0.0
0.0 0.0 0.0

2.521702948709662e6 8.669014978581294e6 0.0
8.669014978581294e6 219840.5256707552 0.0
0.0 0.0 0.0

-1.2208503181930032e7 1.6198912195884585e6 0.0
1.6198912195884585e6 3.024719437396472e7 0.0
0.0 0.0 0.0

-3.690990812081644e6 1.1717228475698194e7 0.0
1.1717228475698194e7 3.073618107830634e6 0.0
0.0 0.0 0.0

-474956.1810084666 1.0373184148465551e7 0.0
1.0373184148465551e7 1.1506424093526653e6 0.0
0.0 0.0 0.0

-2.869932666182893e6 9.493737283070106e6 0.0
9.493737283070106e6 -1.9983689001068992e6 0.0
0.0 0.0 0.0

2.6133666386134215e6 1.1079697785539662e7 0.0
1.1079697785539662e7 -5.063249520742536e6 0.0
0.0 0.0 0.0

967310.7246483655 1.13563476369281e7 0.0
1.13563476369281e7 -4.873740752330619e6 0.0
0.0 0.0 0.0

-1.441490048339267e6 7.301853845898855e6 0.0
7.301853845898855e6 -2.0053779912554426e6 0.0
0.0 0.0 0.0

-2.281536025720687e6 1.07812226550069e7 0.0
1.07812226550069e7 3.201010357928127e6 0.0
0.0 0.0 0.0

-238351.23440634215 1.0706824256783236e7 0.0
1.0706824256783236e7 -1.046461751315152e6 0.0
0.0 0.0 0.0

-253353.7301796042 1.0366872253777921e7 0.0
1.0366872253777921e7 -1.678437034733532e6 0.0
0.0 0.0 0.0

-40428.65702666342 9.732116446906932e6 0.0
9.732116446906932e6 -7.7558062312204875e6 0.0
0.0 0.0 0.0

-6.2117710876780525e6 1.1060761032433622e7 0.0
1.1060761032433622e7 4.352397508757204e6 0.0
0.0 0.0 0.0

-8.462251634621594e6 1.114742335574422e7 0.0
1.114742335574422e7 2.503066613285606e6 0.0
0.0 0.0 0.0

-8.862448122649798e6 1.1587695070301598e7 0.0
1.1587695070301598e7 6.6804593733048495e6 0.0
0.0 0.0 0.0

-1.7876003777983747e6 1.1021324523682212e7 0.0
1.1021324523682212e7 1.6401109347369783e6 0.0
0.0 0.0 0.0

2.2355031233366528e6 6.635810110227392e6 0.0
6.635810110227392e6 -7.700669267679904e6 0.0
0.0 0.0 0.0

-1.4310529010668811e6 1.1535335082461227e7 0.0
1.1535335082461227e7 -4.552350710672343e6 0.0
0.0 0.0 0.0

-2.366401404192382e6 1.61812808385593e7 0.0
1.61812808385593e7 -4.979343629762345e6 0.0
0.0 0.0 0.0

-5.599037812865119e6 76202.58353851516 0.0
76202.58353851516 6.36867648766326e6 0.0
0.0 0.0 0.0

-2.4478675487294775e6 1.1669702543009687e7 0.0
1.1669702543009687e7 1.6193331539459554e6 0.0
0.0 0.0 0.0

1.2906164538362077e6 9.064097254578073e6 0.0
9.064097254578073e6 -2.7084323526793933e6 0.0
0.0 0.0 0.0

1.8870882590104952e6 1.2244230227341661e7 0.0
1.2244230227341661e7 -4.944346726724131e6 0.0
0.0 0.0 0.0

-4.054393741672579e6 2.9146177835234846e6 0.0
2.9146177835234846e6 5.310773310957976e6 0.0
0.0 0.0 0.0

-825371.1030830528 1.0722889869478319e7 0.0
1.0722889869478319e7 1.8385723196548005e6 0.0
0.0 0.0 0.0

-6.346915581643974e6 8.02638098429955e6 0.0
8.02638098429955e6 2.4518323355649086e6 0.0
0.0 0.0 0.0

744988.1194666564 1.0028861197288962e7 0.0
1.0028861197288962e7 -7.415202786763283e6 0.0
0.0 0.0 0.0

-7.007614744310531e6 1.6610730986770147e7 0.0
1.6610730986770147e7 2.5151274491226687e6 0.0
0.0 0.0 0.0

-9.521437487598525e6 1.1756161431165297e7 0.0
1.1756161431165297e7 7.139081402198387e6 0.0
0.0 0.0 0.0

-2.986425743272027e6 4.776841061621262e6 0.0
4.776841061621262e6 2.667087078010815e6 0.0
0.0 0.0 0.0

-3.12907629419211e6 1.2103475486956986e7 0.0
1.2103475486956986e7 385561.9272446791 0.0
0.0 0.0 0.0

-9.480967873832578e6 1.2264533875562292e7 0.0
1.2264533875562292e7 6.981085999811033e6 0.0
0.0 0.0 0.0

-8.844049061332617e6 1.1988699469797289e7 0.0
1.1988699469797289e7 6.566285677357394e6 0.0
0.0 0.0 0.0

-272851.42857452936 1.010231640075737e7 0.0
1.010231640075737e7 371165.9178563752 0.0
0.0 0.0 0.0

313627.2291446717 8.615023023238976e6 0.0
8.615023023238976e6 -5.552563355473048e6 0.0
0.0 0.0 0.0

9.201963445137076e6 1.1979549324582452e7 0.0
1.1979549324582452e7 -189219.58745773463 0.0
0.0 0.0 0.0

-1.512828463310334e7 -4.1540196874009348e6 0.0
-4.1540196874009348e6 6.55653616369564e6 0.0
0.0 0.0 0.0

-9.665991738589955e6 9.544962475073483e6 0.0
9.544962475073483e6 4.584142325225039e6 0.0
0.0 0.0 0.0

2.5769899983227793e6 5.960413345556333e6 0.0
5.960413345556333e6 -8.389417925781596e6 0.0
0.0 0.0 0.0

-2.8851105103565375e6 1.0202803134043064e7 0.0
1.0202803134043064e7 -2.543852824347957e6 0.0
0.0 0.0 0.0

-7.926136489927834e6 1.0585087442665877e7 0.0
1.0585087442665877e7 5.970806398896694e6 0.0
0.0 0.0 0.0

-8.121757118175793e6 532192.52649932 0.0
532192.52649932 9.292172616189135e6 0.0
0.0 0.0 0.0

1.048639333784598e6 8.025308722319022e6 0.0
8.025308722319022e6 -7.442959208081291e6 0.0
0.0 0.0 0.0

-935832.6636735008 9.273066605829619e6 0.0
9.273066605829619e6 -6.929185592202654e6 0.0
0.0 0.0 0.0

2.4117480697952723e6 9.338246606109759e6 0.0
9.338246606109759e6 -373566.8938880438 0.0
0.0 0.0 0.0

-1.818731724356303e7 1.292258375861451e7 0.0
1.292258375861451e7 8.190662922694269e6 0.0
0.0 0.0 0.0

-1.5140671609760805e6 5.743360475424844e6 0.0
5.743360475424844e6 -1.6611111132099396e6 0.0
0.0 0.0 0.0

-6.785490599000708e6 1.1197130984371368e7 0.0
1.1197130984371368e7 5.016286521701953e6 0.0
0.0 0.0 0.0

-6.372851522626659e6 1.1480204999509899e7 0.0
1.1480204999509899e7 4.319266803502163e6 0.0
0.0 0.0 0.0

-8.685425917571519e6 -1.0544532664266946e6 0.0
-1.0544532664266946e6 1.4997543116243517e7 0.0
0.0 0.0 0.0

-571687.2343767649 3.474532941679274e6 0.0
3.474532941679274e6 -505691.3751303218 0.0
0.0 0.0 0.0

-108209.41171476874 8.76833315332791e6 0.0
8.76833315332791e6 -5.792183184337652e6 0.0
0.0 0.0 0.0

-5.5988381315413425e6 1.0960679359351655e6 0.0
1.0960679359351655e6 7.912542134215863e6 0.0
0.0 0.0 0.0

-663350.2286253665 1.0186861373966714e7 0.0
1.0186861373966714e7 -5.621474658180895e6 0.0
0.0 0.0 0.0

2.8294759042489473e6 1.0372304702740882e7 0.0
1.0372304702740882e7 -3.9367273646063916e6 0.0
0.0 0.0 0.0

260693.4111894546 7.027224386116986e6 0.0
7.027224386116986e6 -4.524912843359351e6 0.0
0.0 0.0 0.0

-7.439308595898667e6 9.809701298452383e6 0.0
9.809701298452383e6 4.245632677767095e6 0.0
0.0 0.0 0.0

-7.492947292332844e6 1.2082803001205124e7 0.0
1.2082803001205124e7 4.338238485491676e6 0.0
0.0 0.0 0.0

-692750.9812711566 6.720554739491905e6 0.0
6.720554739491905e6 -2.3091697249287018e6 0.0
0.0 0.0 0.0

-508691.72502276837 1.0092154038576405e7 0.0
1.0092154038576405e7 -1.6956391165415791e6 0.0
0.0 0.0 0.0

56375.31478854362 8.73698948864277e6 0.0
8.73698948864277e6 -5.23191245678745e6 0.0
0.0 0.0 0.0

-1.0624277485881513e6 9.258741437634485e6 0.0
9.258741437634485e6 -6.970197211355788e6 0.0
0.0 0.0 0.0

-2.2433393925163867e6 2.6786234996876586e6 0.0
2.6786234996876586e6 1.17459174916722e6 0.0
0.0 0.0 0.0

-1.889085027401132e6 5.973903619312985e6 0.0
5.973903619312985e6 -140110.47910818848 0.0
0.0 0.0 0.0

-1.8962779826871692e6 1.2176686650943363e7 0.0
1.2176686650943363e7 -3.1836547395179537e6 0.0
0.0 0.0 0.0

705679.0624314165 6.663918679155486e6 0.0
6.663918679155486e6 -5.597317477690738e6 0.0
0.0 0.0 0.0

-1.5019449698020134e7 8.858412315083094e6 0.0
8.858412315083094e6 3.906020658282005e6 0.0
0.0 0.0 0.0

2.3399839329522713e6 1.093223810264099e7 0.0
1.093223810264099e7 -4.8980106279201675e6 0.0
0.0 0.0 0.0

6.53393642020735e6 9.401910448593697e6 0.0
9.401910448593697e6 -4.610949127154469e6 0.0
0.0 0.0 0.0

-1.3437788544153266e7 1.1818694284981715e7 0.0
1.1818694284981715e7 9.428611607416218e6 0.0
0.0 0.0 0.0

-1.4806421263342607e6 4.557091546062116e6 0.0
4.557091546062116e6 637381.6993290584 0.0
0.0 0.0 0.0

-2.371111813500927e6 9.163628766513547e6 0.0
9.163628766513547e6 -2.851184745780368e6 0.0
0.0 0.0 0.0

-3.8873974650757075e6 1.1467628747472737e7 0.0
1.1467628747472737e7 433432.9202295926 0.0
0.0 0.0 0.0

-1.368825739777666e7 8.849231726421047e6 0.0
8.849231726421047e6 7.53895560333432e6 0.0
0.0 0.0 0.0

-770294.3385779215 1.0047964537354747e7 0.0
1.0047964537354747e7 -8.322586190299213e6 0.0
0.0 0.0 0.0

-243056.5646342727 1.0573829079310711e7 0.0
1.0573829079310711e7 -238507.4494400727 0.0
0.0 0.0 0.0

-144342.56915454427 9.584571233812604e6 0.0
9.584571233812604e6 -7.419727873139194e6 0.0
0.0 0.0 0.0

-1.4021008936227523e7 1.0076202997330606e7 0.0
1.0076202997330606e7 9.226293068005305e6 0.0
0.0 0.0 0.0

-4.830270123872629e6 1.2294634596850462e7 0.0
1.2294634596850462e7 -516850.0129047127 0.0
0.0 0.0 0.0

-2.8250941373210647e6 1.1478345312501412e7 0.0
1.1478345312501412e7 384087.9255560355 0.0
0.0 0.0 0.0

1.629168090472557e6 8.413082468010202e6 0.0
8.413082468010202e6 -8.006278058403533e6 0.0
0.0 0.0 0.0

-9.91525772716753e6 724549.8496539461 0.0
724549.8496539461 1.2602018152975366e7 0.0
0.0 0.0 0.0

-2.599592407105194e6 9.058366868923618e6 0.0
9.058366868923618e6 -1.883352235477035e6 0.0
0.0 0.0 0.0

1.9066491067482652e6 1.1616465863618098e7 0.0
1.1616465863618098e7 -4.356422430097448e6 0.0
0.0 0.0 0.0

-554069.6493995059 9.877847630468268e6 0.0
9.877847630468268e6 -7.983856493533804e6 0.0
0.0 0.0 0.0

-7.877733150028475e6 1.1025547921377217e7 0.0
1.1025547921377217e7 4.718123774074335e6 0.0
0.0 0.0 0.0

-3.1415466155308336e6 1.8993782324147638e7 0.0
1.8993782324147638e7 -7.899343804741364e6 0.0
0.0 0.0 0.0

-2.4441176383443717e6 1.192595140123494e7 0.0
1.192595140123494e7 148006.39054732 0.0
0.0 0.0 0.0

-8.776813248769112e6 1.0928918983458133e7 0.0
1.0928918983458133e7 5.427615013123181e6 0.0
0.0 0.0 0.0

-6.07638953130698e6 8.527392469985757e6 0.0
8.527392469985757e6 5.252155298986968e6 0.0
0.0 0.0 0.0

932349.9978590759 1.1276708502308756e7 0.0
1.1276708502308756e7 -4.717632185776072e6 0.0
0.0 0.0 0.0

-6.38677628591078e6 1.1169224339889856e7 0.0
1.1169224339889856e7 4.5346097886708975e6 0.0
0.0 0.0 0.0

-217800.23894788092 9.882976272293638e6 0.0
9.882976272293638e6 -8.059712076389998e6 0.0
0.0 0.0 0.0

1.7210547060082522e6 6.17648911415706e6 0.0
6.17648911415706e6 -7.239519204442388e6 0.0
0.0 0.0 0.0

-606165.5673723158 9.749117521883536e6 0.0
9.749117521883536e6 -7.67677586374823e6 0.0
0.0 0.0 0.0

-7.494656889595304e6 1.1895421368233321e7 0.0
1.1895421368233321e7 5.285041501831954e6 0.0
0.0 0.0 0.0

-598464.7508552179 1.0067768465545226e7 0.0
1.0067768465545226e7 -1.994882424922033e6 0.0
0.0 0.0 0.0

142372.5787412182 8.102144833060435e6 0.0
8.102144833060435e6 474575.1960601195 0.0
0.0 0.0 0.0

-7.812686210497143e6 6.255063070638471e6 0.0
6.255063070638471e6 8.878898527033575e6 0.0
0.0 0.0 0.0

-1.0794090944541525e6 7.221155032648274e6 0.0
7.221155032648274e6 -1.8956530747326121e6 0.0
0.0 0.0 0.0

524958.909539928 1.1573916808276964e7 0.0
1.1573916808276964e7 5.461870838702498e6 0.0
0.0 0.0 0.0

-8.764340614604969e6 -725644.1543310017 0.0
-725644.1543310017 1.0107778342356773e7 0.0
0.0 0.0 0.0

3.011968151772897e6 6.37696756244227e6 0.0
6.37696756244227e6 -9.809770754649395e6 0.0
0.0 0.0 0.0

182686.57911652746 9.99354784364227e6 0.0
9.99354784364227e6 -7.894234624710344e6 0.0
0.0 0.0 0.0

-8.340833237562798e6 1.1183320989743344e7 0.0
1.1183320989743344e7 5.6214150652616015e6 0.0
0.0 0.0 0.0

4.966586304016322e6 9.445697604173398e6 0.0
9.445697604173398e6 670913.4422902113 0.0
0.0 0.0 0.0

-4.319083993019199e6 2.4756753900369457e6 0.0
2.4756753900369457e6 4.783627689407081e6 0.0
0.0 0.0 0.0

-1.3622872132720744e7 1.1812310249444507e7 0.0
1.1812310249444507e7 4.799872723805943e6 0.0
0.0 0.0 0.0

-2.898030413424826e6 1.1379559268293023e7 0.0
1.1379559268293023e7 1.5779300219638022e6 0.0
0.0 0.0 0.0

-1.5421016445944132e7 9.330700326379588e6 0.0
9.330700326379588e6 9.219776688547393e6 0.0
0.0 0.0 0.0

3.051072301469224e6 6.564636860975575e6 0.0
6.564636860975575e6 -1.0203820782196777e7 0.0
0.0 0.0 0.0

-4.700638932187177e6 1.4655225250422183e7 0.0
1.4655225250422183e7 491542.3238288001 0.0
0.0 0.0 0.0

-1.2872723628786977e7 5.485502392105599e6 0.0
5.485502392105599e6 2.011837792807959e7 0.0
0.0 0.0 0.0

-6.363199269207682e6 1.1203181300397798e7 0.0
1.1203181300397798e7 4.823638972132275e6 0.0
0.0 0.0 0.0

-744909.882331144 1.017161957027138e7 0.0
1.017161957027138e7 -2.0416537876700072e6 0.0
0.0 0.0 0.0

-271332.92417292495 2.6331825664709043e6 0.0
2.6331825664709043e6 -1.1705945161608988e6 0.0
0.0 0.0 0.0

-1.4564214033664654e6 1.033048409629712e7 0.0
1.033048409629712e7 1.4703185761379534e6 0.0
0.0 0.0 0.0

-3.116166052386392e6 1.1685327682199344e7 0.0
1.1685327682199344e7 2.394579676454018e6 0.0
0.0 0.0 0.0

-63643.2428364465 7.14264363624771e6 0.0
7.14264363624771e6 -4.350820826514165e6 0.0
0.0 0.0 0.0

-1.6731283579304235e6 1.1507840891111614e7 0.0
1.1507840891111614e7 -26299.3235028857 0.0
0.0 0.0 0.0

1.777082556688032e6 1.1311527780515565e7 0.0
1.1311527780515565e7 -4.344230122960354e6 0.0
0.0 0.0 0.0

-1.2396933129715808e6 6.530830606586499e6 0.0
6.530830606586499e6 -1.335648120766545e6 0.0
0.0 0.0 0.0

345245.15866884403 9.796937350115074e6 0.0
9.796937350115074e6 -8.120625459879442e6 0.0
0.0 0.0 0.0

-3.3908040119849937e6 7.217470165299656e6 0.0
7.217470165299656e6 815843.0806514011 0.0
0.0 0.0 0.0

-5.483656115999972e6 8.757676776989413e6 0.0
8.757676776989413e6 7.01294968166725e6 0.0
0.0 0.0 0.0

-1.9469548354395232e6 2.6210651947007934e6 0.0
2.6210651947007934e6 2.2211869383038036e6 0.0
0.0 0.0 0.0

-4.495299700916804e6 1.1067844311456574e7 0.0
1.1067844311456574e7 1.0830818401918143e6 0.0
0.0 0.0 0.0

-6.371846205670437e6 1.1576108966735795e7 0.0
1.1576108966735795e7 4.778091651615849e6 0.0
0.0 0.0 0.0

-2.344844488200496e6 1.5604692901325718e7 0.0
1.5604692901325718e7 -2.337082492435586e6 0.0
0.0 0.0 0.0

-6.678849398358123e6 1.3867299617217993e6 0.0
1.3867299617217993e6 7.444236195088971e6 0.0
0.0 0.0 0.0

23033.437454769854 9.912126224406824e6 0.0
9.912126224406824e6 -8.300264164437229e6 0.0
0.0 0.0 0.0

-6.674288433390488e6 1.1509756793293055e7 0.0
1.1509756793293055e7 4.978660964606246e6 0.0
0.0 0.0 0.0

1.049729476519173e6 1.0282414245448498e7 0.0
1.0282414245448498e7 -5.187377596913062e6 0.0
0.0 0.0 0.0

-1.7712942343211519e6 8.119519539538268e6 0.0
8.119519539538268e6 -2.35548156848543e6 0.0
0.0 0.0 0.0

-1.2042421652546097e6 4.1201114756366326e6 0.0
4.1201114756366326e6 167289.78316460934 0.0
0.0 0.0 0.0

-9.039813582443211e6 1.1205403281467257e7 0.0
1.1205403281467257e7 6.189414697245378e6 0.0
0.0 0.0 0.0

-3.9743049334824877e6 1.0008622371877644e7 0.0
1.0008622371877644e7 1.0249979022866504e6 0.0
0.0 0.0 0.0

-1.2084875477461352e6 9.882248818288894e6 0.0
9.882248818288894e6 3.536225524399443e6 0.0
0.0 0.0 0.0

1.9350137864278601e6 1.500309336021974e6 0.0
1.500309336021974e6 -3.275134875751849e6 0.0
0.0 0.0 0.0

1.8899864541700548e6 8.692312984250227e6 0.0
8.692312984250227e6 -1.414271968289257e6 0.0
0.0 0.0 0.0

2.8284549917122656e6 8.40483156321433e6 0.0
8.40483156321433e6 -1.2113492375901703e7 0.0
0.0 0.0 0.0

-7.818578223551241e6 1.6397826275956469e7 0.0
1.6397826275956469e7 1.0038140161680565e6 0.0
0.0 0.0 0.0

-4.325658664223019e6 1.1734374434770338e7 0.0
1.1734374434770338e7 3.466788304458902e6 0.0
0.0 0.0 0.0

-2.1936780926233255e6 5.374546589688872e6 0.0
5.374546589688872e6 5858.177659366629 0.0
0.0 0.0 0.0

-837160.4112567087 1.1351824853200488e7 0.0
1.1351824853200488e7 -889373.1942763359 0.0
0.0 0.0 0.0

2.337867503926117e6 8.955857948146006e6 0.0
8.955857948146006e6 -1.1076931031242458e7 0.0
0.0 0.0 0.0

318518.8516773726 1.0260314785370467e7 0.0
1.0260314785370467e7 -7.176203271478667e6 0.0
0.0 0.0 0.0

-1.2003852720788013e7 1.206419679934211e7 0.0
1.206419679934211e7 8.203780909562134e6 0.0
0.0 0.0 0.0

-621651.3798915652 1.0175052112814618e7 0.0
1.0175052112814618e7 -2.0721712935389308e6 0.0
0.0 0.0 0.0

-3.5897127179512517e6 1.1525348909925066e7 0.0
1.1525348909925066e7 1.08634693082145e6 0.0
0.0 0.0 0.0

-5.140267579627448e6 9.78938506340387e6 0.0
9.78938506340387e6 3.215767289158783e6 0.0
0.0 0.0 0.0

-1.7464624769227486e6 9.331702137691047e6 0.0
9.331702137691047e6 -2.8896142149868766e6 0.0
0.0 0.0 0.0

2.241849136410641e6 9.292253020663168e6 0.0
9.292253020663168e6 -1.0569115882379184e6 0.0
0.0 0.0 0.0

-5.222108051852099e6 9.737066158199891e6 0.0
9.737066158199891e6 3.4770720078345807e6 0.0
0.0 0.0 0.0

-1.3783403619079348e6 1.1573730409111496e7 0.0
1.1573730409111496e7 490384.5101132785 0.0
0.0 0.0 0.0

-1.2430421349362515e7 2.736083775285831e6 0.0
2.736083775285831e6 2.4558856545254316e7 0.0
0.0 0.0 0.0

-1.479964547364356e6 8.071718581026932e6 0.0
8.071718581026932e6 -2.289416169356449e6 0.0
0.0 0.0 0.0

-1.283574948751152e6 9.087702342469322e6 0.0
9.087702342469322e6 -6.643077613454634e6 0.0
0.0 0.0 0.0

-1.0301359965967581e6 1.132352719531166e7 0.0
1.132352719531166e7 -4.9981494227033835e6 0.0
0.0 0.0 0.0

-3.265672915554329e6 8.763506312909506e6 0.0
8.763506312909506e6 -196544.22481117258 0.0
0.0 0.0 0.0

-3.4755097669117497e6 1.1462902623449218e7 0.0
1.1462902623449218e7 2.3622852215717733e6 0.0
0.0 0.0 0.0

-419823.36955971486 9.996467740244068e6 0.0
9.996467740244068e6 -1.3994112568182677e6 0.0
0.0 0.0 0.0

-6.588452004889006e6 1.1510720329694161e7 0.0
1.1510720329694161e7 4.586379249842999e6 0.0
0.0 0.0 0.0

-1.438317865002072e6 1.1800500404688684e7 0.0
1.1800500404688684e7 -34077.30268091365 0.0
0.0 0.0 0.0

-1.184885975155694e7 -4.363215902956587e6 0.0
-4.363215902956587e6 2.2840553886678845e7 0.0
0.0 0.0 0.0

-3.690294111248928e6 4.856101723743475e6 0.0
4.856101723743475e6 2.660431481007275e6 0.0
0.0 0.0 0.0

1.028589912362149e6 1.0554941610311916e7 0.0
1.0554941610311916e7 -4.9563966281829765e6 0.0
0.0 0.0 0.0

-1.2111384184657075e7 8.385633656066062e6 0.0
8.385633656066062e6 4.8637400978067275e6 0.0
0.0 0.0 0.0

-1.2936397489905816e6 3.9815102353527565e6 0.0
3.9815102353527565e6 -187187.72528150294 0.0
0.0 0.0 0.0

-1.2500240965075191e7 439185.77097710856 0.0
439185.77097710856 1.7027106439734142e7 0.0
0.0 0.0 0.0

-1.60700814913907e6 -2.0915522809809146e6 0.0
-2.0915522809809146e6 1.2310971436291821e6 0.0
0.0 0.0 0.0

-3.293616112041513e6 1.7531388232793442e6 0.0
1.7531388232793442e6 2.320495713395188e6 0.0
0.0 0.0 0.0

255026.36986760283 8.131387184473548e6 0.0
8.131387184473548e6 -5.824149099566608e6 0.0
0.0 0.0 0.0

-4.357571952002094e6 1.006097412055162e7 0.0
1.006097412055162e7 1.0179483198762997e6 0.0
0.0 0.0 0.0

-4.848761425955729e6 7.941189793695432e6 0.0
7.941189793695432e6 784393.2882704404 0.0
0.0 0.0 0.0

-4.099986899045269e6 1.1343928155610941e7 0.0
1.1343928155610941e7 3.385094733709636e6 0.0
0.0 0.0 0.0

73483.05922575342 9.660778531367011e6 0.0
9.660778531367011e6 -7.3573254792840285e6 0.0
0.0 0.0 0.0

-2.3434385670915926e6 8.907750024778955e6 0.0
8.907750024778955e6 3.1911763183330726e6 0.0
0.0 0.0 0.0

-1.6020538482770547e6 9.87707707423272e6 0.0
9.87707707423272e6 -7.242101651095612e6 0.0
0.0 0.0 0.0

-2.243890026080057e6 1.1424090246799747e7 0.0
1.1424090246799747e7 467867.7423969313 0.0
0.0 0.0 0.0

2.21624296581083e6 9.486339657568889e6 0.0
9.486339657568889e6 -1.233029140040651e7 0.0
0.0 0.0 0.0

2.137785442897137e6 8.913800067199523e6 0.0
8.913800067199523e6 -1.0314146373546854e7 0.0
0.0 0.0 0.0

-3.276968595654619e6 1.1747431443240758e7 0.0
1.1747431443240758e7 1.104125382596096e6 0.0
0.0 0.0 0.0

-9.936017926439999e6 1.1517881687989162e7 0.0
1.1517881687989162e7 5.720572256737785e6 0.0
0.0 0.0 0.0

-6.746178920307631e6 1.0816837870472152e7 0.0
1.0816837870472152e7 5.011035963176994e6 0.0
0.0 0.0 0.0

-2.39541053451309e6 6.099069854843926e6 0.0
6.099069854843926e6 -293201.4699750525 0.0
0.0 0.0 0.0

-3.8844047179056704e6 2.391153436402681e6 0.0
2.391153436402681e6 3.9686914706715774e6 0.0
0.0 0.0 0.0

1.2877773197753613e6 9.691101562117537e6 0.0
9.691101562117537e6 -4.907844135939183e6 0.0
0.0 0.0 0.0

2.94979542618421e6 1.1372984072659442e7 0.0
1.1372984072659442e7 -5.289734928051383e6 0.0
0.0 0.0 0.0

-1.1054751065926956e7 6.420263511701211e6 0.0
6.420263511701211e6 2.1472484919651546e7 0.0
0.0 0.0 0.0

-1.4656453214620827e6 1.1344158325126518e7 0.0
1.1344158325126518e7 1.1711697510640863e6 0.0
0.0 0.0 0.0

-6.973354967472518e6 1.1532000426533436e7 0.0
1.1532000426533436e7 4.750105523740783e6 0.0
0.0 0.0 0.0

-942427.5212980369 8.62493078540171e6 0.0
8.62493078540171e6 -6.39261135052421e6 0.0
0.0 0.0 0.0

-1.1976574625036024e7 3.0473781940504746e6 0.0
3.0473781940504746e6 1.6053918884551693e7 0.0
0.0 0.0 0.0

-1.6752602917224187e6 1.1289963934492469e7 0.0
1.1289963934492469e7 544138.7322278073 0.0
0.0 0.0 0.0

-1.741589044631841e6 1.1129881639272852e7 0.0
1.1129881639272852e7 -4.352769173414089e6 0.0
0.0 0.0 0.0

600054.6837292532 9.919841173790785e6 0.0
9.919841173790785e6 -7.821808996575427e6 0.0
0.0 0.0 0.0

2.247069710706822e6 8.511211047120256e6 0.0
8.511211047120256e6 -1.0547252795615587e7 0.0
0.0 0.0 0.0

1.5863766475896714e6 8.539206242273157e6 0.0
8.539206242273157e6 -9.123712166125322e6 0.0
0.0 0.0 0.0

-983787.1667417861 1.0852582966598468e7 0.0
1.0852582966598468e7 -9.38450762571513e6 0.0
0.0 0.0 0.0

-6.486321202092221e6 1.1326770925312573e7 0.0
1.1326770925312573e7 4.566347623972099e6 0.0
0.0 0.0 0.0

-4.473657119658673e6 1.1432038664650563e7 0.0
1.1432038664650563e7 2.16599130544497e6 0.0
0.0 0.0 0.0

672300.2491779509 1.047449518734162e7 0.0
1.047449518734162e7 -6.1831194893940985e6 0.0
0.0 0.0 0.0

4.432518066158755e6 1.2001949359953696e7 0.0
1.2001949359953696e7 -5.865721397497783e6 0.0
0.0 0.0 0.0

-1.1125092944306292e7 -1.05549719365958e6 0.0
-1.05549719365958e6 1.9789835954518296e7 0.0
0.0 0.0 0.0

2.0113701951127807e6 9.145110721502416e6 0.0
9.145110721502416e6 -1.1354423341655608e7 0.0
0.0 0.0 0.0

2.0026980062046144e6 8.644229671220336e6 0.0
8.644229671220336e6 -8.962085934511315e6 0.0
0.0 0.0 0.0

-1.2093925176002705e7 2.664843634710012e6 0.0
2.664843634710012e6 2.7951283442303605e7 0.0
0.0 0.0 0.0

4.03704678073728e6 9.74297582800936e6 0.0
9.74297582800936e6 139245.6206700611 0.0
0.0 0.0 0.0

-1.0680348221072499e7 1.7118155213174038e6 0.0
1.7118155213174038e6 1.8669260464802697e7 0.0
0.0 0.0 0.0

-149007.13150253356 1.2792234801878445e6 0.0
1.2792234801878445e6 -2.0374399759197223e6 0.0
0.0 0.0 0.0

-7.018158501076273e6 1.1746988160459487e7 0.0
1.1746988160459487e7 4.599424140665799e6 0.0
0.0 0.0 0.0

826150.9232831998 8.220606064843265e6 0.0
8.220606064843265e6 -7.128364304030774e6 0.0
0.0 0.0 0.0

-8.917551091996934e6 1.1832072987489097e7 0.0
1.1832072987489097e7 6.319759899373931e6 0.0
0.0 0.0 0.0

-1.0048657142822966e7 4.558396223947808e6 0.0
4.558396223947808e6 1.4929583482596502e7 0.0
0.0 0.0 0.0

-2.774959808897274e6 4.891892326277295e6 0.0
4.891892326277295e6 1.591555690626842e6 0.0
0.0 0.0 0.0

-4.202601493879768e6 1.5025442474015268e7 0.0
1.5025442474015268e7 -154766.15640767338 0.0
0.0 0.0 0.0

-3.6682084529492175e6 1.1658589652229814e7 0.0
1.1658589652229814e7 3.3753235336920293e6 0.0
0.0 0.0 0.0

-4.1329123998471783e6 1.2494084857520895e7 0.0
1.2494084857520895e7 -213423.4047366921 0.0
0.0 0.0 0.0

-5.110970534514163e6 1.143084906946702e7 0.0
1.143084906946702e7 3.4224519282618333e6 0.0
0.0 0.0 0.0

202325.560730943 9.974157231318727e6 0.0
9.974157231318727e6 -7.63097274112041e6 0.0
0.0 0.0 0.0

-210975.46732389857 1.2350569128468258e7 0.0
1.2350569128468258e7 -3.9823752163781147e6 0.0
0.0 0.0 0.0

-2.608649997781991e6 1.2656712015327152e7 0.0
1.2656712015327152e7 6.541206923154893e6 0.0
0.0 0.0 0.0

-5.070852348015431e6 -2.1823736436595004e6 0.0
-2.1823736436595004e6 7.681824748532499e6 0.0
0.0 0.0 0.0

-3.8824178450286454e6 2.8124096955880215e6 0.0
2.8124096955880215e6 1.1446897918449745e6 0.0
0.0 0.0 0.0

-352405.0174277457 9.300443971067488e6 0.0
9.300443971067488e6 -1.1746831895288709e6 0.0
0.0 0.0 0.0

577529.5635335756 9.993122799094228e6 0.0
9.993122799094228e6 1.9250985690698316e6 0.0
0.0 0.0 0.0

-7.784268385197883e6 1.7088246235609666e7 0.0
1.7088246235609666e7 -224224.43585437117 0.0
0.0 0.0 0.0

711808.8253426526 6.168217540855227e6 0.0
6.168217540855227e6 -4.548100364348009e6 0.0
0.0 0.0 0.0

-9.277824052210432e6 1.2507968531315854e7 0.0
1.2507968531315854e7 6.568124763797745e6 0.0
0.0 0.0 0.0

-1.678725826721869e7 -511578.13600289426 0.0
-511578.13600289426 1.0482926568710519e7 0.0
0.0 0.0 0.0

-929872.732177426 1.1480278129692214e7 0.0
1.1480278129692214e7 -4.988731934466138e6 0.0
0.0 0.0 0.0

-1.050908099462568e7 5.6994508943011975e6 0.0
5.6994508943011975e6 1.2384375936211515e7 0.0
0.0 0.0 0.0

1.2125766177074076e6 1.0218662461372873e7 0.0
1.0218662461372873e7 -5.277793561157592e6 0.0
0.0 0.0 0.0

-4.0730996511180038e6 1.1513209897216424e7 0.0
1.1513209897216424e7 2.8252556250920007e6 0.0
0.0 0.0 0.0

-4.0954466030886667e6 1.0026437126043947e7 0.0
1.0026437126043947e7 616358.9731615793 0.0
0.0 0.0 0.0

1.0781781987127413e6 1.0778515858850911e7 0.0
1.0778515858850911e7 -5.353032519374533e6 0.0
0.0 0.0 0.0

3.221626130494249e6 6.366369252201102e6 0.0
6.366369252201102e6 -1.0341406427485261e7 0.0
0.0 0.0 0.0

-1.1509117077808357e6 6.853964848775699e6 0.0
6.853964848775699e6 -3.836372616501738e6 0.0
0.0 0.0 0.0

1.934861977099081e6 1.2612032584620584e7 0.0
1.2612032584620584e7 -4.775264889973355e6 0.0
0.0 0.0 0.0

458312.6943437024 1.0558341471394785e7 0.0
1.0558341471394785e7 -6.349656100211283e6 0.0
0.0 0.0 0.0

-55696.27794231672 8.786404619176464e6 0.0
8.786404619176464e6 2.1524201485117804e6 0.0
0.0 0.0 0.0

1.8845923816154907e6 9.082363776031233e6 0.0
9.082363776031233e6 -1.0574861337364579e7 0.0
0.0 0.0 0.0

-3.8996932879278106e6 1.0735498771084428e7 0.0
1.0735498771084428e7 -989366.1253230621 0.0
0.0 0.0 0.0

-3.672970238770523e6 1.0520722051622676e7 0.0
1.0520722051622676e7 6.355122943742216e6 0.0
0.0 0.0 0.0

-166987.571918251 1.6037370344066005e7 0.0
1.6037370344066005e7 -7.00697879810149e6 0.0
0.0 0.0 0.0

1.9657200889223507e6 8.824772248564733e6 0.0
8.824772248564733e6 -9.681896656126294e6 0.0
0.0 0.0 0.0

-1.321507413959937e7 -985445.4256118143 0.0
-985445.4256118143 9.228534474174887e6 0.0
0.0 0.0 0.0

-1.2532736076773393e6 1.0697187720571158e7 0.0
1.0697187720571158e7 1.7182033161093818e6 0.0
0.0 0.0 0.0

-9.541697508138487e6 1.2036229835681895e7 0.0
1.2036229835681895e7 6.741754427011447e6 0.0
0.0 0.0 0.0

-2.694503676012677e6 1.020353998782378e7 0.0
1.020353998782378e7 -1.906394288209202e6 0.0
0.0 0.0 0.0

-6.672738041104129e6 1.16159865330022e7 0.0
1.16159865330022e7 4.953371661838298e6 0.0
0.0 0.0 0.0

-1.3916093834187118e7 5.457625721964471e6 0.0
5.457625721964471e6 2.229515750114183e7 0.0
0.0 0.0 0.0

-519928.4186816651 8.866956397194048e6 0.0
8.866956397194048e6 -4.530961293077024e6 0.0
0.0 0.0 0.0

-6.0032607425828185e6 1.5084415342991663e7 0.0
1.5084415342991663e7 -160565.6640129455 0.0
0.0 0.0 0.0

-1.0446497919664741e6 5.599230464614568e6 0.0
5.599230464614568e6 -1.4435423183948009e6 0.0
0.0 0.0 0.0

-1.502969246348895e7 -123884.11348590735 0.0
-123884.11348590735 7.817796892366092e6 0.0
0.0 0.0 0.0

-2.0164073239422443e6 7.096633048890757e6 0.0
7.096633048890757e6 -1.210499934063108e6 0.0
0.0 0.0 0.0

-5.809602116846083e6 596012.7612796231 0.0
596012.7612796231 6.719398943041712e6 0.0
0.0 0.0 0.0

-9.165750962768074e6 6.356159904621025e6 0.0
6.356159904621025e6 1.3347177295637377e7 0.0
0.0 0.0 0.0

-7.868278198132608e6 1.206146546352754e7 0.0
1.206146546352754e7 5.612860969970598e6 0.0
0.0 0.0 0.0

-1.0339746024456868e7 1.2395800801667346e7 0.0
1.2395800801667346e7 7.27961834061873e6 0.0
0.0 0.0 0.0

-1.0446429468847372e7 3.99843605773751e6 0.0
3.99843605773751e6 1.7313972352261446e7 0.0
0.0 0.0 0.0

-787201.7703427875 7.518243312581065e6 0.0
7.518243312581065e6 -3.7684512753255586e6 0.0
0.0 0.0 0.0

2.6974060167749915e6 1.0149468516747229e7 0.0
1.0149468516747229e7 -4.260380563193688e6 0.0
0.0 0.0 0.0

-676272.3879354291 7.523547367373944e6 0.0
7.523547367373944e6 -5.389405431971533e6 0.0
0.0 0.0 0.0

-1.7210727495310153e6 3.9748777549135294e6 0.0
3.9748777549135294e6 1.868807251564152e6 0.0
0.0 0.0 0.0

-7.8108498584906105e6 1.2104964758788876e7 0.0
1.2104964758788876e7 5.527465716830881e6 0.0
0.0 0.0 0.0

-6.615870665231417e6 7.369648472932529e6 0.0
7.369648472932529e6 7.426163042119043e6 0.0
0.0 0.0 0.0

1.6950760863832314e6 9.019616022427605e6 0.0
9.019616022427605e6 -9.975620761721162e6 0.0
0.0 0.0 0.0

-9.866968655629713e6 9.226784451521067e6 0.0
9.226784451521067e6 3.4285294493486863e6 0.0
0.0 0.0 0.0

-4.640028460642773e6 1.2648261326285917e7 0.0
1.2648261326285917e7 399827.32297016704 0.0
0.0 0.0 0.0

3.4170154566973373e6 7.180943334937076e6 0.0
7.180943334937076e6 -1.1729144667744916e7 0.0
0.0 0.0 0.0

-2.581646718388264e6 1.0749395133225152e7 0.0
1.0749395133225152e7 3.288973000792438e6 0.0
0.0 0.0 0.0

-4.177111129883255e6 9.797187697041893e6 0.0
9.797187697041893e6 1.5725559412149466e6 0.0
0.0 0.0 0.0

-509674.22778728977 1.1432075045499416e7 0.0
1.1432075045499416e7 -4.895040399708202e6 0.0
0.0 0.0 0.0

-9.615415181755772e6 1.1589687977984594e7 0.0
1.1589687977984594e7 6.771434784168538e6 0.0
0.0 0.0 0.0

-4.1041278833296774e6 1.0230786795456171e7 0.0
1.0230786795456171e7 965035.3184621376 0.0
0.0 0.0 0.0

-8.282939320916636e6 1.211155402898376e7 0.0
1.211155402898376e7 6.015957988108894e6 0.0
0.0 0.0 0.0

-409957.79710384936 4.416083000183791e6 0.0
4.416083000183791e6 -2.191087606101698e6 0.0
0.0 0.0 0.0

-78698.82823657 1.0726346663089959e7 0.0
1.0726346663089959e7 1.8651376241950032e6 0.0
0.0 0.0 0.0

257171.0180390207 1.04132190824275e7 0.0
1.04132190824275e7 -6.900018421869512e6 0.0
0.0 0.0 0.0

-1.5625832925526232e6 6.983421233222117e6 0.0
6.983421233222117e6 -1.0527719662263892e6 0.0
0.0 0.0 0.0

-369919.3395161296 1.1029083699541653e7 0.0
1.1029083699541653e7 -5.80157776217017e6 0.0
0.0 0.0 0.0

552616.1891570131 6.7227683002324e6 0.0
6.7227683002324e6 -5.407668019507572e6 0.0
0.0 0.0 0.0

-1.1278415038365133e6 1.058634658709167e7 0.0
1.058634658709167e7 5.98142916845943e6 0.0
0.0 0.0 0.0

-5.842634771513892e6 -1.3829933614285965e6 0.0
-1.3829933614285965e6 8.324360020409911e6 0.0
0.0 0.0 0.0

-7746.501311047468 1.1027744919811724e7 0.0
1.1027744919811724e7 2.3132887448808327e6 0.0
0.0 0.0 0.0

-6.836532583042471e6 1.1528071552382907e7 0.0
1.1528071552382907e7 4.592686725101408e6 0.0
0.0 0.0 0.0

561267.2800496225 1.0255633642762346e7 0.0
1.0255633642762346e7 -7.1630883248591265e6 0.0
0.0 0.0 0.0

-5.005398502394245e6 1.4214335225459144e7 0.0
1.4214335225459144e7 814432.872920566 0.0
0.0 0.0 0.0

-693448.208102478 1.1283798188759832e7 0.0
1.1283798188759832e7 -813400.7109511704 0.0
0.0 0.0 0.0

1.2358947223535357e6 8.024568728714468e6 0.0
8.024568728714468e6 -6.817177270712974e6 0.0
0.0 0.0 0.0

-4.911973512571599e6 1.2681249161861679e7 0.0
1.2681249161861679e7 -510487.59624225926 0.0
0.0 0.0 0.0

94018.31227637874 1.0616230524047391e7 0.0
1.0616230524047391e7 -6.579624247860832e6 0.0
0.0 0.0 0.0

-1.8765129322336272e6 5.076793566657323e6 0.0
5.076793566657323e6 199727.50020177965 0.0
0.0 0.0 0.0

-4.7887736819829885e6 1.2086216431554383e7 0.0
1.2086216431554383e7 4.414631263366675e6 0.0
0.0 0.0 0.0

-3.7487217103092046e6 1.171877952059141e7 0.0
1.171877952059141e7 2.8544201259906422e6 0.0
0.0 0.0 0.0

-7.1380659567920845e6 1.17379511776383e7 0.0
1.17379511776383e7 4.939062822089829e6 0.0
0.0 0.0 0.0

-1.3960931789570935e6 1.0965473641996583e7 0.0
1.0965473641996583e7 999495.8600346289 0.0
0.0 0.0 0.0

-95612.75817622879 2.954797848973444e6 0.0
2.954797848973444e6 -1.2985890350835626e6 0.0
0.0 0.0 0.0

-1.1093543933076333e7 2.4382338624798018e6 0.0
2.4382338624798018e6 1.3752203641641364e7 0.0
0.0 0.0 0.0

-637485.1003087105 1.1235253397147663e7 0.0
1.1235253397147663e7 -5.403506218678165e6 0.0
0.0 0.0 0.0

1.842301743521688e6 1.029776636880424e7 0.0
1.029776636880424e7 -1.147659586835583e7 0.0
0.0 0.0 0.0

-305456.48172193684 3.5712303452322274e6 0.0
3.5712303452322274e6 -1.4674335270072499e6 0.0
0.0 0.0 0.0

-2.092049744275774e6 3.115845053447739e6 0.0
3.115845053447739e6 950982.5760286632 0.0
0.0 0.0 0.0

-3.7316911599528953e6 7.492909657793971e6 0.0
7.492909657793971e6 1.329789166780502e6 0.0
0.0 0.0 0.0

-5.081868222728583e6 1.2429396795957234e7 0.0
1.2429396795957234e7 891516.6236880664 0.0
0.0 0.0 0.0

403034.4711002568 9.953573147259299e6 0.0
9.953573147259299e6 -9.15506739724147e6 0.0
0.0 0.0 0.0

495551.49366979394 6.450335774938295e6 0.0
6.450335774938295e6 -4.984258334175267e6 0.0
0.0 0.0 0.0

-6.76267205927049e6 1.1727994679482514e7 0.0
1.1727994679482514e7 4.609098606018303e6 0.0
0.0 0.0 0.0

-4.1206977541493764e6 1.2878751098050896e7 0.0
1.2878751098050896e7 -222896.83304369333 0.0
0.0 0.0 0.0

-1.5366453725236753e7 1.240618360265978e7 0.0
1.240618360265978e7 9.706462696253814e6 0.0
0.0 0.0 0.0

-6.928456905814357e6 1.174497892174311e7 0.0
1.174497892174311e7 4.899017518423431e6 0.0
0.0 0.0 0.0

-1.5368900673243687e7 1.0433212675242264e7 0.0
1.0433212675242264e7 7.676964741866433e6 0.0
0.0 0.0 0.0

-1.6502754990046327e6 1.1872247073046962e7 0.0
1.1872247073046962e7 -87313.13486380695 0.0
0.0 0.0 0.0

1.4006425216784133e6 1.0123713517850876e7 0.0
1.0123713517850876e7 -1.0957351171264859e7 0.0
0.0 0.0 0.0

-1.7234482550967187e6 6.663878397911801e6 0.0
6.663878397911801e6 -1.5280974096487795e6 0.0
0.0 0.0 0.0

-9.572078523603342e6 -2.5811761922563286e6 0.0
-2.5811761922563286e6 1.3314705930807099e7 0.0
0.0 0.0 0.0

-1.2442175741368696e7 -1.0093493889461927e6 0.0
-1.0093493889461927e6 1.8733328709591873e7 0.0
0.0 0.0 0.0

2.5754438385203686e6 7.043199589966871e6 0.0
7.043199589966871e6 -9.680082048476463e6 0.0
0.0 0.0 0.0

-5.224335358786734e6 1.1544714436976902e7 0.0
1.1544714436976902e7 3.8171892053034697e6 0.0
0.0 0.0 0.0

-1.0747895716629084e7 6.233995779949736e6 0.0
6.233995779949736e6 1.9555959735316806e7 0.0
0.0 0.0 0.0

-121209.31017827243 1.0822999699526135e7 0.0
1.0822999699526135e7 -6.1910850800850345e6 0.0
0.0 0.0 0.0

-1.108883622361811e7 8.309440746985196e6 0.0
8.309440746985196e6 1.645695290663156e7 0.0
0.0 0.0 0.0

-5.324823422765777e6 1.2436378644663984e7 0.0
1.2436378644663984e7 76454.20213441853 0.0
0.0 0.0 0.0

-7.6127486012344025e6 1.4611690220440641e7 0.0
1.4611690220440641e7 2.3603871283736746e6 0.0
0.0 0.0 0.0

-614183.969944377 1.1119277116262417e7 0.0
1.1119277116262417e7 -1.0208538519977358e6 0.0
0.0 0.0 0.0

-2.090070340833042e6 4.117201942728995e6 0.0
4.117201942728995e6 1.1852956401480385e6 0.0
0.0 0.0 0.0

-1.24852501221073e6 1.0791837616768576e7 0.0
1.0791837616768576e7 1.3297644496053923e6 0.0
0.0 0.0 0.0

-3.1928384052178613e6 7.396417586459793e6 0.0
7.396417586459793e6 1.4419117192393348e6 0.0
0.0 0.0 0.0

2.5644402537605525e6 6.373233486999505e6 0.0
6.373233486999505e6 -8.89290894097947e6 0.0
0.0 0.0 0.0

824730.3695005781 1.202960825758036e7 0.0
1.202960825758036e7 -4.537667730548308e6 0.0
0.0 0.0 0.0

-1.0586237182865063e7 3.6824108024908933e6 0.0
3.6824108024908933e6 7.295266572092465e6 0.0
0.0 0.0 0.0

-8.845102914423788e6 9.902014922066255e6 0.0
9.902014922066255e6 1.37734612377672e6 0.0
0.0 0.0 0.0

-7.031691153525971e6 1.196840245616637e7 0.0
1.196840245616637e7 4.302636875215141e6 0.0
0.0 0.0 0.0

-1.1067316634763621e6 7.567807315302907e6 0.0
7.567807315302907e6 -3.7626722389795245e6 0.0
0.0 0.0 0.0

-2.421833175602061e6 1.1574144970276473e7 0.0
1.1574144970276473e7 238501.89345956105 0.0
0.0 0.0 0.0

-7.521247000397566e6 1.3693771084897773e7 0.0
1.3693771084897773e7 3.951615950579252e6 0.0
0.0 0.0 0.0

-3.0749300725386036e6 1.0672926249218715e7 0.0
1.0672926249218715e7 3.9359579089207174e6 0.0
0.0 0.0 0.0

-1.7158678851517034e6 1.1059381452094365e7 0.0
1.1059381452094365e7 1.2599326897394552e6 0.0
0.0 0.0 0.0

-758362.5083293957 7.524746941737633e6 0.0
7.524746941737633e6 -3.7136702497159215e6 0.0
0.0 0.0 0.0

-9.15977175991536e6 1.2977533486304564e7 0.0
1.2977533486304564e7 6.491844174908692e6 0.0
0.0 0.0 0.0

-6.395950917638683e6 -213311.150291072 0.0
-213311.150291072 7.291946685284304e6 0.0
0.0 0.0 0.0

1.983279537060725e6 6.358690416209858e6 0.0
6.358690416209858e6 -6.951476359470447e6 0.0
0.0 0.0 0.0

-6.430760935936308e6 1.22179919016218e7 0.0
1.22179919016218e7 3.019150795988342e6 0.0
0.0 0.0 0.0

473105.13631552784 1.0414589733483123e7 0.0
1.0414589733483123e7 -6.902841666490083e6 0.0
0.0 0.0 0.0

-30261.182864515926 1.3412123867555407e6 0.0
1.3412123867555407e6 -2.0389790522030664e6 0.0
0.0 0.0 0.0

-112601.24901760882 7.008365216430002e6 0.0
7.008365216430002e6 -4.427739315528143e6 0.0
0.0 0.0 0.0

-7.913152318938394e6 1.0566871676520275e7 0.0
1.0566871676520275e7 5.471270295446816e6 0.0
0.0 0.0 0.0

988266.4846205711 8.45975963302751e6 0.0
8.45975963302751e6 -6.722610906419967e6 0.0
0.0 0.0 0.0

12188.469704632647 1.0198541505279168e7 0.0
1.0198541505279168e7 4.44405186909632e6 0.0
0.0 0.0 0.0

-939436.2646021876 4.434149018154361e6 0.0
4.434149018154361e6 -2.170907643653907e6 0.0
0.0 0.0 0.0

-445487.9304547943 2.888821098849639e6 0.0
2.888821098849639e6 -2.4423036489831447e6 0.0
0.0 0.0 0.0

-3.453731712879138e6 1.5311094781154703e7 0.0
1.5311094781154703e7 -1.0117290130278547e6 0.0
0.0 0.0 0.0

-5.152166940206004e6 398898.93992304546 0.0
398898.93992304546 7.023984858083607e6 0.0
0.0 0.0 0.0

-1.0956415363944895e6 8.912682546191918e6 0.0
8.912682546191918e6 -3.5985017826266238e6 0.0
0.0 0.0 0.0

1.3033504340705294e6 8.436382170651395e6 0.0
8.436382170651395e6 -2.0020721055712134e6 0.0
0.0 0.0 0.0

773187.2666584824 1.4248117608980639e7 0.0
1.4248117608980639e7 -5.844288303921023e6 0.0
0.0 0.0 0.0

-499326.3504940253 1.0225006603399608e7 0.0
1.0225006603399608e7 -5.07155153683912e6 0.0
0.0 0.0 0.0

324305.1108488885 1.2005330508172141e7 0.0
1.2005330508172141e7 3.6047456818536283e6 0.0
0.0 0.0 0.0

-6.542531322272878e6 1.1427019522712858e7 0.0
1.1427019522712858e7 4.893481871416265e6 0.0
0.0 0.0 0.0

-8.495311591189548e6 -873369.8284008692 0.0
-873369.8284008692 1.0980401968372952e7 0.0
0.0 0.0 0.0

-6.248291640113614e6 1.2530494509012844e7 0.0
1.2530494509012844e7 2.793434992708347e6 0.0
0.0 0.0 0.0

-1.9627858986393183e6 1.0814479783904996e7 0.0
1.0814479783904996e7 2.9308494778330885e6 0.0
0.0 0.0 0.0

287638.6365713463 7.855497694982703e6 0.0
7.855497694982703e6 -5.690159049861863e6 0.0
0.0 0.0 0.0

3.2501744431120646e6 6.51008505798553e6 0.0
6.51008505798553e6 -9.56087332026414e6 0.0
0.0 0.0 0.0

-4.222046290811504e6 1.022389751025426e7 0.0
1.022389751025426e7 572670.0076503691 0.0
0.0 0.0 0.0

-2.555134855779634e6 6.335569978075028e6 0.0
6.335569978075028e6 1.0197802211562949e6 0.0
0.0 0.0 0.0

-7.304180243400846e6 6.324776007874605e6 0.0
6.324776007874605e6 1.0687134775332905e7 0.0
0.0 0.0 0.0

666290.0344553893 1.0115552784588112e7 0.0
1.0115552784588112e7 -7.468228870447954e6 0.0
0.0 0.0 0.0

1.3808060038756463e6 9.792779887747291e6 0.0
9.792779887747291e6 -1.069969218009189e7 0.0
0.0 0.0 0.0

-6.4546668966078395e6 1.2900822525045788e7 0.0
1.2900822525045788e7 2.955852799714706e6 0.0
0.0 0.0 0.0

-1.2670003419605226e6 1.1099025798078358e7 0.0
1.1099025798078358e7 605153.1934652688 0.0
0.0 0.0 0.0

-1.789089999523578e7 128202.73941434632 0.0
128202.73941434632 9.193746313497141e6 0.0
0.0 0.0 0.0

454181.5080790969 1.2516239502603857e7 0.0
1.2516239502603857e7 4.461594425502357e6 0.0
0.0 0.0 0.0

-1.776366313925932e7 7.361569644351887e6 0.0
7.361569644351887e6 6.8246274410685e6 0.0
0.0 0.0 0.0

1.2553411899354928e6 8.341351578638482e6 0.0
8.341351578638482e6 -8.153394209055547e6 0.0
0.0 0.0 0.0

3.1783944963900805e6 3.762046360688178e6 0.0
3.762046360688178e6 340540.0841288833 0.0
0.0 0.0 0.0

-3.734067344520243e6 -2.419398549676333e6 0.0
-2.419398549676333e6 3.397873265581603e6 0.0
0.0 0.0 0.0

-2.0841600010046533e6 5.576930683788441e6 0.0
5.576930683788441e6 614526.7216307977 0.0
0.0 0.0 0.0

-8.161998725654824e6 -167180.2866157335 0.0
-167180.2866157335 1.0968411097786902e7 0.0
0.0 0.0 0.0

-7.044254510410157e6 563315.9953796015 0.0
563315.9953796015 7.855158079249689e6 0.0
0.0 0.0 0.0

41930.05348051782 1.0989785905436777e7 0.0
1.0989785905436777e7 -5.7547202664146e6 0.0
0.0 0.0 0.0

-1.6247033231685888e6 7.484758012577602e6 0.0
7.484758012577602e6 -5.415677895682206e6 0.0
0.0 0.0 0.0

-190545.42114438786 9.862724232357416e6 0.0
9.862724232357416e6 -635151.4215221052 0.0
0.0 0.0 0.0

1.5554693816065846e6 8.79826321862603e6 0.0
8.79826321862603e6 -3.166690269076479e6 0.0
0.0 0.0 0.0

-6.713964291797956e6 1.3262358527580617e7 0.0
1.3262358527580617e7 3.1552237501702323e6 0.0
0.0 0.0 0.0

-2.554343573739094e6 6.286519506308743e6 0.0
6.286519506308743e6 1.3804989241712429e6 0.0
0.0 0.0 0.0

-1.2795701404963608e6 1.0434436235025296e7 0.0
1.0434436235025296e7 -4.767783530897013e6 0.0
0.0 0.0 0.0

-5.567720400950212e6 1.020633537855037e7 0.0
1.020633537855037e7 2.935207349698655e6 0.0
0.0 0.0 0.0

1.9409836570343757e6 7.726945849920405e6 0.0
7.726945849920405e6 -9.238900440517612e6 0.0
0.0 0.0 0.0

-6.089371847969776e6 385768.5267412265 0.0
385768.5267412265 7.959391537518673e6 0.0
0.0 0.0 0.0

-5.797050819776439e6 1.2546437149690744e7 0.0
1.2546437149690744e7 2.1239417251654146e6 0.0
0.0 0.0 0.0

-1.2304511995918332e6 1.117967770381927e7 0.0
1.117967770381927e7 249479.30476819118 0.0
0.0 0.0 0.0

-1.1841454795174252e6 1.1324752809402654e7 0.0
1.1324752809402654e7 -34929.19000051066 0.0
0.0 0.0 0.0

-4.8255049709258955e6 1.1772485588385245e7 0.0
1.1772485588385245e7 2.339605927152561e6 0.0
0.0 0.0 0.0

-198795.92781033204 1.048625929723598e7 0.0
1.048625929723598e7 1.298068672778377e6 0.0
0.0 0.0 0.0

-4.0797268795778216e6 1.2353991877007222e7 0.0
1.2353991877007222e7 1.7890101221902582e6 0.0
0.0 0.0 0.0

-1.0950938340194581e7 5.550085018554696e6 0.0
5.550085018554696e6 1.3586207525228105e7 0.0
0.0 0.0 0.0

-8.546146173347302e6 -2.213100899754238e6 0.0
-2.213100899754238e6 1.1300993808107482e7 0.0
0.0 0.0 0.0

634882.6997759773 7.70870898751403e6 0.0
7.70870898751403e6 -5.456596244005444e6 0.0
0.0 0.0 0.0

2.7885802271246375e6 6.820622886593604e6 0.0
6.820622886593604e6 -9.974002155510299e6 0.0
0.0 0.0 0.0

-1.1038647174203328e6 1.0456060676567936e7 0.0
1.0456060676567936e7 -4.1843912614057185e6 0.0
0.0 0.0 0.0

1.1565735759397512e6 9.437996062749252e6 0.0
9.437996062749252e6 927918.5366799389 0.0
0.0 0.0 0.0

355757.8101791516 6.388770057693959e6 0.0
6.388770057693959e6 -5.081291263244421e6 0.0
0.0 0.0 0.0

-890830.6021401968 9.86857885270111e6 0.0
9.86857885270111e6 -7.893913629459873e6 0.0
0.0 0.0 0.0

1.4009392135530603e6 9.600053078666287e6 0.0
9.600053078666287e6 -1.0361850324133186e7 0.0
0.0 0.0 0.0

-3.042151637308392e6 6.970513036666008e6 0.0
6.970513036666008e6 314127.26670140296 0.0
0.0 0.0 0.0

-5.072832113899615e6 1.1711431664637651e7 0.0
1.1711431664637651e7 3.841823948252377e6 0.0
0.0 0.0 0.0

-5.494355949347688e6 1.2492870013598876e7 0.0
1.2492870013598876e7 2.503133855936176e6 0.0
0.0 0.0 0.0

-1.0406055156846907e7 -2.733808284199076e6 0.0
-2.733808284199076e6 1.8410060273327444e7 0.0
0.0 0.0 0.0

1.4850097759931376e6 9.501799529723953e6 0.0
9.501799529723953e6 -1.010043218172478e7 0.0
0.0 0.0 0.0

-1.1243510632610437e7 5.260830444191097e6 0.0
5.260830444191097e6 1.462876788451815e7 0.0
0.0 0.0 0.0

-1.176930265544406e6 1.1455726615862781e7 0.0
1.1455726615862781e7 -238394.81819047764 0.0
0.0 0.0 0.0

-7.006124328683274e6 1.302578893171834e7 0.0
1.302578893171834e7 2.7852059174729576e6 0.0
0.0 0.0 0.0

-8.381561023369156e6 1.0415648943927938e7 0.0
1.0415648943927938e7 4.405924277065126e6 0.0
0.0 0.0 0.0

-7.2452661956267785e6 5.441986411320773e6 0.0
5.441986411320773e6 1.0882979448929764e7 0.0
0.0 0.0 0.0

-987641.8670311203 8.432769618841685e6 0.0
8.432769618841685e6 -6.2047945805968745e6 0.0
0.0 0.0 0.0

9986.925817179697 1.0276967726170866e7 0.0
1.0276967726170866e7 583469.1121955656 0.0
0.0 0.0 0.0

2.280237122003214e6 7.158765013110741e6 0.0
7.158765013110741e6 -9.371012879615603e6 0.0
0.0 0.0 0.0

142337.77232258 7.047451717191639e6 0.0
7.047451717191639e6 -4.705831107971506e6 0.0
0.0 0.0 0.0

-1.0190033657096893e7 3.265010513628588e6 0.0
3.265010513628588e6 1.4808418112003302e7 0.0
0.0 0.0 0.0

-3.4918437555879382e6 1.1383934512881668e7 0.0
1.1383934512881668e7 2.676440959349921e6 0.0
0.0 0.0 0.0

-1.3280337965766523e7 8.338379235845813e6 0.0
8.338379235845813e6 3.8502534120150916e6 0.0
0.0 0.0 0.0

621213.9986562668 9.809214238353066e6 0.0
9.809214238353066e6 -7.804031136712946e6 0.0
0.0 0.0 0.0

1.6506778197073252e6 8.218681019594006e6 0.0
8.218681019594006e6 -9.029917826079791e6 0.0
0.0 0.0 0.0

1.513673046528163e6 9.419347584161025e6 0.0
9.419347584161025e6 -9.846336000695702e6 0.0
0.0 0.0 0.0

3.457972086926291e6 4.0347217521968526e6 0.0
4.0347217521968526e6 -6.144631088422034e6 0.0
0.0 0.0 0.0

-2.54019780749835e6 1.04686966052485e7 0.0
1.04686966052485e7 -2.1225925789847737e6 0.0
0.0 0.0 0.0

-803227.25763141 1.2327347212512525e7 0.0
1.2327347212512525e7 -3.9870724064123263e6 0.0
0.0 0.0 0.0

-1.5106229413345974e7 1.0795463657357976e7 0.0
1.0795463657357976e7 1.0997217522487633e7 0.0
0.0 0.0 0.0

1.299031416106326e6 4.308217890200683e6 0.0
4.308217890200683e6 -3.5827353990339553e6 0.0
0.0 0.0 0.0

386804.08014687616 1.060714591380708e7 0.0
1.060714591380708e7 -6.544089908511554e6 0.0
0.0 0.0 0.0

-5.81702615282012e6 7.827815533181499e6 0.0
7.827815533181499e6 8.074546852145007e6 0.0
0.0 0.0 0.0

-2.442797549883906e6 2.591395263007926e6 0.0
2.591395263007926e6 2.6097018063033186e6 0.0
0.0 0.0 0.0

2.3149026014976148e6 6.50320778077424e6 0.0
6.50320778077424e6 -8.538986230793178e6 0.0
0.0 0.0 0.0

-2.874207080189753e6 3.166545795941388e6 0.0
3.166545795941388e6 2.835325692631009e6 0.0
0.0 0.0 0.0

-6.380379025666188e6 1.209248643126133e6 0.0
1.209248643126133e6 8.656635505005997e6 0.0
0.0 0.0 0.0

-2.279516211552607e6 6.173569244131608e6 0.0
6.173569244131608e6 939845.1885057203 0.0
0.0 0.0 0.0

-4.222016885331045e6 1.1671496239855453e7 0.0
1.1671496239855453e7 3.696358171312767e6 0.0
0.0 0.0 0.0

-950208.5170659085 6.055481464930093e6 0.0
6.055481464930093e6 -1.6024168168322574e6 0.0
0.0 0.0 0.0

7.232318632133275e6 5.568290887941404e6 0.0
5.568290887941404e6 -1.4385780506008198e6 0.0
0.0 0.0 0.0

-9.429058031791424e6 -4.311408315758073e6 0.0
-4.311408315758073e6 6.157981450942725e6 0.0
0.0 0.0 0.0

233287.55409001117 6.925445603589857e6 0.0
6.925445603589857e6 -4.968752546656659e6 0.0
0.0 0.0 0.0

2.128102209860647e6 8.010372883286199e6 0.0
8.010372883286199e6 -8.709971824624095e6 0.0
0.0 0.0 0.0

2.421334451665276e6 7.451371728868072e6 0.0
7.451371728868072e6 -8.819245673515793e6 0.0
0.0 0.0 0.0

608584.7151456345 1.2637072299133497e6 0.0
1.2637072299133497e6 471954.9490801031 0.0
0.0 0.0 0.0

-2.4046599379022014e6 -417659.8435629876 0.0
-417659.8435629876 1.8440351548512345e6 0.0
0.0 0.0 0.0

-105154.03508046223 9.884589316048669e6 0.0
9.884589316048669e6 -7.980460974311236e6 0.0
0.0 0.0 0.0

2.6332682184352917e6 6.766973486628795e6 0.0
6.766973486628795e6 -9.545877856376093e6 0.0
0.0 0.0 0.0

-1.1713169741392786e7 1.1738381118929554e7 0.0
1.1738381118929554e7 3.5394053233736698e6 0.0
0.0 0.0 0.0

-5.861150812596254e6 9.652975516683476e6 0.0
9.652975516683476e6 4.912792160947468e6 0.0
0.0 0.0 0.0

-5.46120552793535e6 1.2476917635845762e7 0.0
1.2476917635845762e7 1.4801714650525348e6 0.0
0.0 0.0 0.0

-263046.88274418557 1.022591994514536e7 0.0
1.022591994514536e7 1.0288293362567326e6 0.0
0.0 0.0 0.0

1.6294666846608664e6 6.993541248534716e6 0.0
6.993541248534716e6 3.3347576817584615e6 0.0
0.0 0.0 0.0

-8.710729031965628e6 1.1006266979001977e7 0.0
1.1006266979001977e7 4.739514550699761e6 0.0
0.0 0.0 0.0

-1.0259911896157555e7 251707.18609803313 0.0
251707.18609803313 1.5319175474061955e7 0.0
0.0 0.0 0.0

-4.459644725617888e6 1.1727692913661316e7 0.0
1.1727692913661316e7 3.3688273899068115e6 0.0
0.0 0.0 0.0

-377938.2996019155 1.235828577845893e7 0.0
1.235828577845893e7 -4.255701195146104e6 0.0
0.0 0.0 0.0

-5.738673696880823e6 8.387921900938125e6 0.0
8.387921900938125e6 7.516960895212082e6 0.0
0.0 0.0 0.0

-2.0813786174400537e6 1.7859648405799014e6 0.0
1.7859648405799014e6 2.604516777202124e6 0.0
0.0 0.0 0.0

-6.54363121788455e6 1.234943943101879e7 0.0
1.234943943101879e7 2.5022095526932273e6 0.0
0.0 0.0 0.0

1.4871352348882314e6 8.130580034433217e6 0.0
8.130580034433217e6 -8.528287906889724e6 0.0
0.0 0.0 0.0

-3.9997196651041824e6 1.3277747813494127e7 0.0
1.3277747813494127e7 -393472.59130357916 0.0
0.0 0.0 0.0

2.742787075673796e6 7.007314624848023e6 0.0
7.007314624848023e6 -9.135085812934853e6 0.0
0.0 0.0 0.0

-960645.9694331572 1.059653644455503e7 0.0
1.059653644455503e7 2.903739708886039e6 0.0
0.0 0.0 0.0

-3.4981759999969252e6 1.0458579515262181e7 0.0
1.0458579515262181e7 -1.4597368476910794e6 0.0
0.0 0.0 0.0

-1.5034896984173828e6 4.353783750987163e6 0.0
4.353783750987163e6 -231926.18552124378 0.0
0.0 0.0 0.0

-38560.4233658507 8.064263796864347e6 0.0
8.064263796864347e6 -5.440637700164818e6 0.0
0.0 0.0 0.0

3.0215626048129173e6 6.493801487353826e6 0.0
6.493801487353826e6 -9.125952850257216e6 0.0
0.0 0.0 0.0

-977514.1065541266 1.4957558888980873e7 0.0
1.4957558888980873e7 -4.732488970939321e6 0.0
0.0 0.0 0.0

294169.1421472372 6.466159667039983e6 0.0
6.466159667039983e6 -5.036762991430695e6 0.0
0.0 0.0 0.0

-2.4573844463639036e6 4.822448531259756e6 0.0
4.822448531259756e6 1.033561441508455e6 0.0
0.0 0.0 0.0

-6.584075509432681e6 1.1287159770599643e7 0.0
1.1287159770599643e7 4.267321185581478e6 0.0
0.0 0.0 0.0

1.4470572676476217e6 9.31577848395646e6 0.0
9.31577848395646e6 -9.515571859974917e6 0.0
0.0 0.0 0.0

-1.905324102383139e6 8.304380272718156e6 0.0
8.304380272718156e6 -6.351080326314696e6 0.0
0.0 0.0 0.0

66569.47775438527 9.906002682115711e6 0.0
9.906002682115711e6 221898.2591454333 0.0
0.0 0.0 0.0

-1.2751458378975198e6 6.058648891608539e6 0.0
6.058648891608539e6 -1.169587149104064e6 0.0
0.0 0.0 0.0

-3.064769440187999e6 6.632464652460877e6 0.0
6.632464652460877e6 642727.7537712778 0.0
0.0 0.0 0.0

-1.1138027122713488e6 1.0892034134539004e7 0.0
1.0892034134539004e7 2.39170029614121e6 0.0
0.0 0.0 0.0

-1.5255595096842558e6 2.6771289981042068e6 0.0
2.6771289981042068e6 1.6227667195277172e6 0.0
0.0 0.0 0.0

837951.2557238021 8.980374985370524e6 0.0
8.980374985370524e6 -1.1951039095302143e6 0.0
0.0 0.0 0.0

-5.800711487570621e6 1.0548243927627075e7 0.0
1.0548243927627075e7 4.672592954583822e6 0.0
0.0 0.0 0.0

383391.299486127 6.954949770225862e6 0.0
6.954949770225862e6 -4.922879413236706e6 0.0
0.0 0.0 0.0

-2.9926993859263076e6 2.783818640918801e6 0.0
2.783818640918801e6 2.327924032293432e6 0.0
0.0 0.0 0.0

-2.942182448731092e6 1.1979098702922491e7 0.0
1.1979098702922491e7 779853.5794492285 0.0
0.0 0.0 0.0

-6.017840348494021e6 8.492117463614058e6 0.0
8.492117463614058e6 6.583458044929728e6 0.0
0.0 0.0 0.0

-1.4418977795782178e6 1.1017712376257192e7 0.0
1.1017712376257192e7 1.910135337752828e6 0.0
0.0 0.0 0.0

-3.469700368085672e6 3.7878353244414493e6 0.0
3.7878353244414493e6 3.8208783503342764e6 0.0
0.0 0.0 0.0

-1.5753169433397925e6 1.2229032609019604e7 0.0
1.2229032609019604e7 -3.88431389710644e6 0.0
0.0 0.0 0.0

-6.298680802811217e6 1.1589542440530678e7 0.0
1.1589542440530678e7 4.723087396248154e6 0.0
0.0 0.0 0.0

-1.0060535984649658e7 2.3250998475347576e6 0.0
2.3250998475347576e6 1.414682689597141e7 0.0
0.0 0.0 0.0

-2.885202934407921e6 6.451332382503798e6 0.0
6.451332382503798e6 848331.4870725939 0.0
0.0 0.0 0.0

-9.462693822946444e6 -975172.4813623066 0.0
-975172.4813623066 1.1497871065917296e7 0.0
0.0 0.0 0.0

-957264.1501732189 1.0322171202304654e7 0.0
1.0322171202304654e7 -5.22543242845349e6 0.0
0.0 0.0 0.0

-4.891329706236361e6 1.1724545820249256e7 0.0
1.1724545820249256e7 3.869423633398447e6 0.0
0.0 0.0 0.0

-1.2517799547487432e6 1.1597844323300578e7 0.0
1.1597844323300578e7 -301758.0589351083 0.0
0.0 0.0 0.0

834270.5857916558 6.832060963562375e6 0.0
6.832060963562375e6 -5.235423584391508e6 0.0
0.0 0.0 0.0

-2.729233544226399e6 1.0268412077335371e6 0.0
1.0268412077335371e6 4.0559007054361403e6 0.0
0.0 0.0 0.0

-1.0944309628933445e7 8.194704257794806e6 0.0
8.194704257794806e6 1.480774801879267e7 0.0
0.0 0.0 0.0

-1.0394194880859308e7 4.357687073763641e6 0.0
4.357687073763641e6 1.6023305660731243e7 0.0
0.0 0.0 0.0

-2.8288636565940008e6 8.600768128842993e6 0.0
8.600768128842993e6 2.4826190620753355e6 0.0
0.0 0.0 0.0

-3.9290839807449803e6 3.208846807701688e6 0.0
3.208846807701688e6 3.0282034260074575e6 0.0
0.0 0.0 0.0

-2.4869876239404804e6 6.524797010182617e6 0.0
6.524797010182617e6 738409.8738227529 0.0
0.0 0.0 0.0

-3.0451977572805327e6 9.701094113106111e6 0.0
9.701094113106111e6 -837700.9412270655 0.0
0.0 0.0 0.0

-1.3755108955915591e6 8.68861830719746e6 0.0
8.68861830719746e6 -3.953127372013712e6 0.0
0.0 0.0 0.0

-4.219803316442639e6 1.1569630316197341e7 0.0
1.1569630316197341e7 3.926805394983477e6 0.0
0.0 0.0 0.0

-8.200578518484685e6 1.2200745816601057e7 0.0
1.2200745816601057e7 5.82506464592861e6 0.0
0.0 0.0 0.0

-9.688700474112622e6 3.5580960771215456e6 0.0
3.5580960771215456e6 1.167372736718699e7 0.0
0.0 0.0 0.0

87589.17522875487 1.095978304058305e7 0.0
1.095978304058305e7 2.1253118839282435e6 0.0
0.0 0.0 0.0

1.0227724872935463e6 1.0524720850584771e7 0.0
1.0524720850584771e7 -5.614696686930689e6 0.0
0.0 0.0 0.0

1.0002363311944972e6 8.2259169171861e6 0.0
8.2259169171861e6 -6.548350787796431e6 0.0
0.0 0.0 0.0

3.225791454497098e6 5.994354447061262e6 0.0
5.994354447061262e6 -9.655697429302141e6 0.0
0.0 0.0 0.0

-5.789460442633768e6 -1.0261419103152547e6 0.0
-1.0261419103152547e6 7.695456176033141e6 0.0
0.0 0.0 0.0

-4.560804810875761e6 1.1411613071964422e7 0.0
1.1411613071964422e7 3.736095163498083e6 0.0
0.0 0.0 0.0

-8.703982583181992e6 6.414710028161683e6 0.0
6.414710028161683e6 1.279088020247532e7 0.0
0.0 0.0 0.0

-1.155256233668821e7 1.1004999125014482e7 0.0
1.1004999125014482e7 2.429911589608124e7 0.0
0.0 0.0 0.0

-1.4877538396141783e6 7.999023487403315e6 0.0
7.999023487403315e6 -3.665393644887722e6 0.0
0.0 0.0 0.0

405231.0182747607 1.0433285491424033e7 0.0
1.0433285491424033e7 1.3507703428795575e6 0.0
0.0 0.0 0.0

-2.154496164674996e6 2.2312450894985837e6 0.0
2.2312450894985837e6 1.6745502918111468e6 0.0
0.0 0.0 0.0

-8.885875092600089e6 -2.657140810988413e6 0.0
-2.657140810988413e6 3.510487482833879e6 0.0
0.0 0.0 0.0

1.2896531522067366e6 7.828292551343765e6 0.0
7.828292551343765e6 -7.7691163356239125e6 0.0
0.0 0.0 0.0

-2.344691245307799e6 4.004781044993131e6 0.0
4.004781044993131e6 1.2145112276566117e6 0.0
0.0 0.0 0.0

1.436929429299001e6 8.392348519125946e6 0.0
8.392348519125946e6 -8.651349938508835e6 0.0
0.0 0.0 0.0

-8.0567995180595005e6 6.760534923190897e6 0.0
6.760534923190897e6 1.1199022552902536e7 0.0
0.0 0.0 0.0

1.6547560453606178e6 5.696128897853674e6 0.0
5.696128897853674e6 -6.108630380383523e6 0.0
0.0 0.0 0.0

-2.6877631020000246e6 1.527807094560709e7 0.0
1.527807094560709e7 -3.42934168662538e6 0.0
0.0 0.0 0.0

-1.297789491744441e6 7.0823263498997465e6 0.0
7.0823263498997465e6 -1.4785515592377505e6 0.0
0.0 0.0 0.0

1.4058781669628348e6 5.837756559526155e6 0.0
5.837756559526155e6 -3.925436656643494e6 0.0
0.0 0.0 0.0

9.85722577009534e6 5.864338346274831e6 0.0
5.864338346274831e6 -2.3660284585604654e6 0.0
0.0 0.0 0.0

-8.884595938474605e6 7.897477965322067e6 0.0
7.897477965322067e6 9.73622150665185e6 0.0
0.0 0.0 0.0

-351042.2215438044 6.71567517091619e6 0.0
6.71567517091619e6 -3.567179016631745e6 0.0
0.0 0.0 0.0

-9.579037763471369e6 36067.88560799206 0.0
36067.88560799206 1.1025947120208757e7 0.0
0.0 0.0 0.0

2.474050676112251e6 5.138564835700298e6 0.0
5.138564835700298e6 -5.948247485233173e6 0.0
0.0 0.0 0.0

-2.3232672889093077e6 1.1844199667787729e7 0.0
1.1844199667787729e7 269480.06964734127 0.0
0.0 0.0 0.0

-5.605497419420186e6 9.976839973197049e6 0.0
9.976839973197049e6 5.479405498516732e6 0.0
0.0 0.0 0.0

-2.339782775590562e6 5.237022396704366e6 0.0
5.237022396704366e6 1.569169764765692e6 0.0
0.0 0.0 0.0

1.5513141655387147e6 7.322978394956626e6 0.0
7.322978394956626e6 -7.917123612269921e6 0.0
0.0 0.0 0.0

-73917.25944592804 1.001850768280529e7 0.0
1.001850768280529e7 -8.47456583421976e6 0.0
0.0 0.0 0.0

-865035.6459170887 3.7396955553627047e6 0.0
3.7396955553627047e6 -1.716142677119196e6 0.0
0.0 0.0 0.0

926382.3233119883 5.669285998877438e6 0.0
5.669285998877438e6 -5.4434185090075005e6 0.0
0.0 0.0 0.0

-2.328369841096893e6 9.443571527570933e6 0.0
9.443571527570933e6 -3.029262673325778e6 0.0
0.0 0.0 0.0

5.181366444895103e6 9.733053214941185e6 0.0
9.733053214941185e6 -4.061947857133311e6 0.0
0.0 0.0 0.0

3.276446076651449e6 6.820934263565496e6 0.0
6.820934263565496e6 -9.737161597456628e6 0.0
0.0 0.0 0.0

-2.4300531427662154e6 -1.0670165950875287e6 0.0
-1.0670165950875287e6 686969.6760318562 0.0
0.0 0.0 0.0

-5.510661625541166e6 8.987910782715635e6 0.0
8.987910782715635e6 6.433345937522585e6 0.0
0.0 0.0 0.0

-487613.8726024889 4.846144031782618e6 0.0
4.846144031782618e6 -2.222133216980586e6 0.0
0.0 0.0 0.0

-2.6300353733109925e6 4.801922574448117e6 0.0
4.801922574448117e6 2.1559826099197445e6 0.0
0.0 0.0 0.0

3.417250993565208e6 7.095778169483926e6 0.0
7.095778169483926e6 -1.0662956420002215e7 0.0
0.0 0.0 0.0

751180.0894054758 1.1201859611291548e7 0.0
1.1201859611291548e7 2.5039336881140512e6 0.0
0.0 0.0 0.0

-1.4097883201990773e6 1.0006553694863833e7 0.0
1.0006553694863833e7 5.124255749541855e6 0.0
0.0 0.0 0.0

-510379.11391548533 9.59217576538681e6 0.0
9.59217576538681e6 -7.394017246346873e6 0.0
0.0 0.0 0.0

-1.3253560373400003e6 7.819635861386436e6 0.0
7.819635861386436e6 -3.449333042767084e6 0.0
0.0 0.0 0.0

-5.521991855906601e6 1.0461574481400289e7 0.0
1.0461574481400289e7 5.310418829790004e6 0.0
0.0 0.0 0.0

3.1323981489501046e6 1.0580147003595812e7 0.0
1.0580147003595812e7 -4.1194513605845054e6 0.0
0.0 0.0 0.0

1.0411269894408723e6 8.280293251831921e6 0.0
8.280293251831921e6 -7.619679135219886e6 0.0
0.0 0.0 0.0

-7.389157975857049e6 1.3378826391959025e7 0.0
1.3378826391959025e7 2.9876845786519027e6 0.0
0.0 0.0 0.0

-354622.2341682051 7.6402278309989385e6 0.0
7.6402278309989385e6 -1.2115558765826654e6 0.0
0.0 0.0 0.0

-2.370391415432225e7 -4.355335165885254e6 0.0
-4.355335165885254e6 1.0393675975246476e7 0.0
0.0 0.0 0.0

1.6644170224097855e7 6.606022916196864e6 0.0
6.606022916196864e6 -4.475169085017523e6 0.0
0.0 0.0 0.0

-8502.874991331657 8.674265178445205e6 0.0
8.674265178445205e6 1.1658352543697688e6 0.0
0.0 0.0 0.0

-8.108423175434675e6 -670097.8711053644 0.0
-670097.8711053644 1.6452525665115781e7 0.0
0.0 0.0 0.0

-1.1334755524459234e6 1.094174119343224e7 0.0
1.094174119343224e7 1.7968675852547954e6 0.0
0.0 0.0 0.0

-4.419109066981353e6 1.2909460056969566e7 0.0
1.2909460056969566e7 -1.2156320033084992e6 0.0
0.0 0.0 0.0

680984.2670045011 1.0875867189743849e7 0.0
1.0875867189743849e7 2.2699482062856522e6 0.0
0.0 0.0 0.0

-2.04602927084544e6 5.207151148159488e6 0.0
5.207151148159488e6 1.204574011302703e6 0.0
0.0 0.0 0.0

-4.992878410147881e6 9.130348886760382e6 0.0
9.130348886760382e6 3.4785771896111476e6 0.0
0.0 0.0 0.0

-2.1457950914263286e7 1.1602038358355533e7 0.0
1.1602038358355533e7 6.679625373459816e6 0.0
0.0 0.0 0.0

1.6998441911531803e6 5.952024609908619e6 0.0
5.952024609908619e6 -7.085265026437758e6 0.0
0.0 0.0 0.0

-1.4527822358331482e6 1.1691060278864503e7 0.0
1.1691060278864503e7 -185762.76655527786 0.0
0.0 0.0 0.0

158196.6489566574 1.1095200702291619e7 0.0
1.1095200702291619e7 2.733842991900003e6 0.0
0.0 0.0 0.0

-2.0375388011183972e6 8.972637666571867e6 0.0
8.972637666571867e6 -6.791795946168164e6 0.0
0.0 0.0 0.0

322912.8885948549 1.0175163132117745e7 0.0
1.0175163132117745e7 1.0763764671070052e6 0.0
0.0 0.0 0.0

1.4722345028833584e6 9.337255669184512e6 0.0
9.337255669184512e6 -9.333844792558517e6 0.0
0.0 0.0 0.0

-2.0955692063038682e6 2.6944587438074313e6 0.0
2.6944587438074313e6 2.2524700959829227e6 0.0
0.0 0.0 0.0

-9.07455629391994e6 9.812293516530994e6 0.0
9.812293516530994e6 6.713469174834756e6 0.0
0.0 0.0 0.0

348879.28125364217 6.527180878744703e6 0.0
6.527180878744703e6 -5.105586340587511e6 0.0
0.0 0.0 0.0

-8.271109940486161e6 8.017467915248735e6 0.0
8.017467915248735e6 8.88272484003245e6 0.0
0.0 0.0 0.0

-1.7669038492487276e6 4.813180109916444e6 0.0
4.813180109916444e6 147645.3697615827 0.0
0.0 0.0 0.0

-7.866823518396219e6 1.1971737351327274e7 0.0
1.1971737351327274e7 5.635928593581735e6 0.0
0.0 0.0 0.0

-1.275366608330037e7 1.0898842066092106e7 0.0
1.0898842066092106e7 8.52861862974428e6 0.0
0.0 0.0 0.0

-1.3938093162638715e6 -1.6254920742630712e6 0.0
-1.6254920742630712e6 1.6377746564157256e6 0.0
0.0 0.0 0.0

-668640.4490958357 8.406556935538787e6 0.0
8.406556935538787e6 -6.012070130232534e6 0.0
0.0 0.0 0.0

-3.5944030830935114e6 1.2317289328512806e7 0.0
1.2317289328512806e7 -844929.1815876135 0.0
0.0 0.0 0.0

-906542.1193673916 2.9077800189101826e6 0.0
2.9077800189101826e6 -1.6062659914029606e6 0.0
0.0 0.0 0.0

-3.858072739671567e6 1.5308787041448457e7 0.0
1.5308787041448457e7 -2.3670533686430743e6 0.0
0.0 0.0 0.0

-2.1045856153487335e6 4.757767843334586e6 0.0
4.757767843334586e6 578363.1243736959 0.0
0.0 0.0 0.0

2.3386202460284727e6 6.271398088660878e6 0.0
6.271398088660878e6 -8.39113143160895e6 0.0
0.0 0.0 0.0

1.8033919003636148e6 6.339261573205223e6 0.0
6.339261573205223e6 -7.559334545371538e6 0.0
0.0 0.0 0.0

-935354.7735734463 7.535380167869027e6 0.0
7.535380167869027e6 -4.264961701532692e6 0.0
0.0 0.0 0.0

-1.8981501366646318e6 1.2040118241788143e7 0.0
1.2040118241788143e7 -3.613879544253888e6 0.0
0.0 0.0 0.0

3.5879241063240594e6 6.982198658586471e6 0.0
6.982198658586471e6 -1.1039681513897527e7 0.0
0.0 0.0 0.0

-4.512470704909493e6 1.0916459876110988e7 0.0
1.0916459876110988e7 2.32579073378011e6 0.0
0.0 0.0 0.0

-141271.96359784063 9.737908617503265e6 0.0
9.737908617503265e6 -6.27836573856169e6 0.0
0.0 0.0 0.0

-6.362211015762019e6 7.096745274216377e6 0.0
7.096745274216377e6 7.134614972427798e6 0.0
0.0 0.0 0.0

-4.607509334511651e6 1.2091661664563682e7 0.0
1.2091661664563682e7 2.28604748058821e6 0.0
0.0 0.0 0.0

1.460573222987738e6 8.091855261664475e6 0.0
8.091855261664475e6 -7.324742118796801e6 0.0
0.0 0.0 0.0

-1.5671436629645828e7 3.3043691360101006e6 0.0
3.3043691360101006e6 9.497818077234458e6 0.0
0.0 0.0 0.0

2.5943430753954006e6 6.139616816910639e6 0.0
6.139616816910639e6 -8.709706925398344e6 0.0
0.0 0.0 0.0

2.2422287007646e6 6.394087191921479e6 0.0
6.394087191921479e6 -7.498799894158665e6 0.0
0.0 0.0 0.0

-1.7975391738631101e6 1.0830506411488498e7 0.0
1.0830506411488498e7 -3.548882331535316e6 0.0
0.0 0.0 0.0

-6.216293093703011e6 -1.6677636075038859e6 0.0
-1.6677636075038859e6 2.272044048150967e6 0.0
0.0 0.0 0.0

-216548.10149698402 7.197639645001014e6 0.0
7.197639645001014e6 -4.1344523888533683e6 0.0
0.0 0.0 0.0

-8.604726610004462e6 6.854881035272859e6 0.0
6.854881035272859e6 1.4819383755235128e7 0.0
0.0 0.0 0.0

-7.091948613923499e6 1.170568334741959e7 0.0
1.170568334741959e7 5.1005720228255205e6 0.0
0.0 0.0 0.0

-8.308563570330022e6 1.2002846575243974e7 0.0
1.2002846575243974e7 5.937130200720631e6 0.0
0.0 0.0 0.0

-2.4943007435897915e6 5.368882483611345e6 0.0
5.368882483611345e6 954908.4091511455 0.0
0.0 0.0 0.0

-1.1099349923050148e7 6.871785646468061e6 0.0
6.871785646468061e6 2.4234118620429546e7 0.0
0.0 0.0 0.0

-7.076098804856226e6 1.197367496028487e7 0.0
1.197367496028487e7 4.997966226722836e6 0.0
0.0 0.0 0.0

-1.7832235404199401e6 1.1634734886836596e7 0.0
1.1634734886836596e7 -63918.46887050854 0.0
0.0 0.0 0.0

1.17635173793294e6 9.67948871681132e6 0.0
9.67948871681132e6 -4.92722687941382e6 0.0
0.0 0.0 0.0

4.479550900177832e6 1.0037302113365106e7 0.0
1.0037302113365106e7 2.9036347903533215e6 0.0
0.0 0.0 0.0

-2.4127957780872197e6 5.726287493056306e6 0.0
5.726287493056306e6 1.4667316417233152e6 0.0
0.0 0.0 0.0

2.7635968364960775e6 6.1165825569955185e6 0.0
6.1165825569955185e6 -8.150513823917671e6 0.0
0.0 0.0 0.0

-2.0617072535769416e6 9.712447509273622e6 0.0
9.712447509273622e6 -2.6034617472033077e6 0.0
0.0 0.0 0.0

-1.8507949027609073e6 6.954935192562801e6 0.0
6.954935192562801e6 -621248.641537142 0.0
0.0 0.0 0.0

-9.362085366563162e6 2.9480704862927636e6 0.0
2.9480704862927636e6 5.937071337933245e6 0.0
0.0 0.0 0.0

-5.272788581681902e6 484660.22881511 0.0
484660.22881511 7.354674261905205e6 0.0
0.0 0.0 0.0

-3.02030760381125e7 1.935390433171538e7 0.0
1.935390433171538e7 1.9249081691592727e6 0.0
0.0 0.0 0.0

-2.18016438263361e6 9.81554299419328e6 0.0
9.81554299419328e6 -7.267214484010561e6 0.0
0.0 0.0 0.0

632798.9076432541 1.0946785025640706e7 0.0
1.0946785025640706e7 2.109330229869138e6 0.0
0.0 0.0 0.0

324276.6202576291 9.470769147938486e6 0.0
9.470769147938486e6 -7.058558439158869e6 0.0
0.0 0.0 0.0

-1.012830836116786e7 7.924606375174429e6 0.0
7.924606375174429e6 6.454888960546427e6 0.0
0.0 0.0 0.0

490742.6936515779 6.5843846692469595e6 0.0
6.5843846692469595e6 -5.0154701163688665e6 0.0
0.0 0.0 0.0

1.7065480617282381e6 7.611451061723611e6 0.0
7.611451061723611e6 -7.429730180379419e6 0.0
0.0 0.0 0.0

-5.588254715496676e6 9.734585483487437e6 0.0
9.734585483487437e6 5.8083386272214465e6 0.0
0.0 0.0 0.0

817890.9154881751 8.467251756363027e6 0.0
8.467251756363027e6 -7.291476858118516e6 0.0
0.0 0.0 0.0

-7.468069563654976e6 1.1834396320071075e7 0.0
1.1834396320071075e7 5.388037963983227e6 0.0
0.0 0.0 0.0

-7.90329211475971e6 1.349048331738833e6 0.0
1.349048331738833e6 8.835757879404372e6 0.0
0.0 0.0 0.0

-1.6186694719484122e6 2.2325881679915898e6 0.0
2.2325881679915898e6 1.9441350563658387e6 0.0
0.0 0.0 0.0

1.5615807817322048e6 7.0471199136862615e6 0.0
7.0471199136862615e6 -7.692643169558441e6 0.0
0.0 0.0 0.0

-5.356024504942245e6 1.2006689558261087e7 0.0
1.2006689558261087e7 1.6175088457776182e6 0.0
0.0 0.0 0.0

-8.000749035448931e6 1.5753673375181964e7 0.0
1.5753673375181964e7 1.8195005240408578e6 0.0
0.0 0.0 0.0

-5.763897267882902e6 8.080015165484706e6 0.0
8.080015165484706e6 6.866389900785754e6 0.0
0.0 0.0 0.0

2.0576067749449033e6 6.642062670438746e6 0.0
6.642062670438746e6 -8.293955366577822e6 0.0
0.0 0.0 0.0

3.2312846225330676e6 7.00103635251792e6 0.0
7.00103635251792e6 -1.0122130760276616e7 0.0
0.0 0.0 0.0

-1.282873953265509e7 5.008671726602882e6 0.0
5.008671726602882e6 1.796727402751477e7 0.0
0.0 0.0 0.0

-5.346033770935783e6 1.7079378978972642e6 0.0
1.7079378978972642e6 7.968490406310161e6 0.0
0.0 0.0 0.0

-4.616595703631908e6 1.5014356859845718e7 0.0
1.5014356859845718e7 -1.534806396004757e6 0.0
0.0 0.0 0.0

-3.9230696616425887e6 1.0200356732625483e7 0.0
1.0200356732625483e7 582997.0038758602 0.0
0.0 0.0 0.0

-7.743330409642131e6 524727.5958374898 0.0
524727.5958374898 1.0599615309238315e7 0.0
0.0 0.0 0.0

273686.23306279676 5.742626757441972e6 0.0
5.742626757441972e6 -4.856004763396292e6 0.0
0.0 0.0 0.0

-4.345307351823632e6 9.585138603051301e6 0.0
9.585138603051301e6 1.0740280447419959e6 0.0
0.0 0.0 0.0

-6.958513289419118e6 1.0731130624967303e7 0.0
1.0731130624967303e7 1.3003562416857472e6 0.0
0.0 0.0 0.0

-2.395058582362812e6 5.899385369042798e6 0.0
5.899385369042798e6 438287.2552028004 0.0
0.0 0.0 0.0

2.466368045499134e6 6.478118626323173e6 0.0
6.478118626323173e6 -8.040202011042371e6 0.0
0.0 0.0 0.0

575238.3960749912 8.366490272842525e6 0.0
8.366490272842525e6 -6.747968072221555e6 0.0
0.0 0.0 0.0

-1.1329621514473136e6 3.884822072949916e6 0.0
3.884822072949916e6 -406681.5694401609 0.0
0.0 0.0 0.0

-3.4924769097546125e6 4.5738129217797415e6 0.0
4.5738129217797415e6 3.4765561813654923e6 0.0
0.0 0.0 0.0

1.3634709205211452e6 9.348725169215359e6 0.0
9.348725169215359e6 -8.957727127439842e6 0.0
0.0 0.0 0.0

2.219956062208859e6 6.183688574022903e6 0.0
6.183688574022903e6 -7.318064616635537e6 0.0
0.0 0.0 0.0

-4.042870652884973e6 1.0181945804890867e7 0.0
1.0181945804890867e7 187722.7888587059 0.0
0.0 0.0 0.0

2.0034373864425067e6 7.102245540273593e6 0.0
7.102245540273593e6 -7.570641110479655e6 0.0
0.0 0.0 0.0

-1.326091391949742e6 4.4419529318031715e6 0.0
4.4419529318031715e6 326017.7358167671 0.0
0.0 0.0 0.0

-2.5003227960135345e6 1.0727882569027748e7 0.0
1.0727882569027748e7 -8.334409573392393e6 0.0
0.0 0.0 0.0

1.4798908467440193e6 1.1835855795992268e7 0.0
1.1835855795992268e7 4.932971497348207e6 0.0
0.0 0.0 0.0

1.0055738289094174e6 8.942875264366074e6 0.0
8.942875264366074e6 -2.975324810097277e6 0.0
0.0 0.0 0.0

-6.156146558797724e6 -3.4743000384133235e6 0.0
-3.4743000384133235e6 4.73491755698677e6 0.0
0.0 0.0 0.0

-882189.1161585901 3.685201322504607e6 0.0
3.685201322504607e6 -59455.72063774546 0.0
0.0 0.0 0.0

1.4331095344974056e6 1.174721058431563e7 0.0
1.174721058431563e7 4.777029217515226e6 0.0
0.0 0.0 0.0

-412383.98270566575 7.53960165052976e6 0.0
7.53960165052976e6 -1.374613162620035e6 0.0
0.0 0.0 0.0

-1.1327885665434564e7 7.773849361532009e6 0.0
7.773849361532009e6 2.7330217338137686e7 0.0
0.0 0.0 0.0

1.8031093985299258e6 6.838129258501134e6 0.0
6.838129258501134e6 -8.013330956976038e6 0.0
0.0 0.0 0.0

-3.8760458932659123e6 1.2308233451101035e7 0.0
1.2308233451101035e7 -1.791665029079741e6 0.0
0.0 0.0 0.0

-666236.6658300182 1.006713509642513e7 0.0
1.006713509642513e7 -7.967888044364184e6 0.0
0.0 0.0 0.0

-6.693859942293628e6 1.1339057717732936e7 0.0
1.1339057717732936e7 4.576818737642932e6 0.0
0.0 0.0 0.0

-3.544853979538055e6 1.1462601760616306e7 0.0
1.1462601760616306e7 2.0951508506213846e6 0.0
0.0 0.0 0.0

-6.456908991083955e6 1.2594983050913494e7 0.0
1.2594983050913494e7 2.0699657059721863e6 0.0
0.0 0.0 0.0

-1.5810550932248787e6 1.073127255113403e7 0.0
1.073127255113403e7 -8.332206637366939e6 0.0
0.0 0.0 0.0

-5.107790934765405e6 1.4661819158544946e7 0.0
1.4661819158544946e7 -869626.1850775711 0.0
0.0 0.0 0.0

-8.527362623941984e6 6.688054884648061e6 0.0
6.688054884648061e6 9.647673141018447e6 0.0
0.0 0.0 0.0

218293.82321481546 6.634843650303016e6 0.0
6.634843650303016e6 -5.090625397539712e6 0.0
0.0 0.0 0.0

1.7960799693015972e6 6.579158345776575e6 0.0
6.579158345776575e6 -7.787599364527157e6 0.0
0.0 0.0 0.0

-2.889494719271636e6 1.225729245915561e7 0.0
1.225729245915561e7 -2.8669347245489964e6 0.0
0.0 0.0 0.0

-1.911333575527045e6 8.260840095612234e6 0.0
8.260840095612234e6 -2.026714222231657e6 0.0
0.0 0.0 0.0

1.7340098165625231e6 7.877647821676311e6 0.0
7.877647821676311e6 -8.851850354057519e6 0.0
0.0 0.0 0.0

-6.334896216444921e6 1.0882371952316204e7 0.0
1.0882371952316204e7 4.404029029224435e6 0.0
0.0 0.0 0.0

-2.2968881298823515e6 8.218063048570511e6 0.0
8.218063048570511e6 -551313.0531636417 0.0
0.0 0.0 0.0

-1.2969828810416383e6 8.276694083808493e6 0.0
8.276694083808493e6 -3.246635746999319e6 0.0
0.0 0.0 0.0

1.7009610314711719e6 8.815990040308023e6 0.0
8.815990040308023e6 -8.59386597884318e6 0.0
0.0 0.0 0.0

-5.539883575990181e6 1.374780578532113e7 0.0
1.374780578532113e7 -58433.92116231378 0.0
0.0 0.0 0.0

-1.8414481951305252e6 9.038803707030222e6 0.0
9.038803707030222e6 -2.707092274519232e6 0.0
0.0 0.0 0.0

103342.30900053214 7.690545124812009e6 0.0
7.690545124812009e6 -4.653832615561044e6 0.0
0.0 0.0 0.0

6.29907025898556e6 5.884955975215108e6 0.0
5.884955975215108e6 -1.9283886342773251e6 0.0
0.0 0.0 0.0

-3.5180965127057945e6 7.940509551075696e6 0.0
7.940509551075696e6 1.6366810738174077e6 0.0
0.0 0.0 0.0

-2.0635931592803907e6 5.786022293043158e6 0.0
5.786022293043158e6 605047.2294880062 0.0
0.0 0.0 0.0

-2.221758500310571e6 1.6206684477598711e6 0.0
1.6206684477598711e6 2.8851029798424155e6 0.0
0.0 0.0 0.0

2.0885042224974362e6 5.836545048593147e6 0.0
5.836545048593147e6 -6.907457542532667e6 0.0
0.0 0.0 0.0

937064.8565705798 6.295224555443729e6 0.0
6.295224555443729e6 -5.21473517274218e6 0.0
0.0 0.0 0.0

1.8784010429980042e6 6.169213092070077e6 0.0
6.169213092070077e6 -6.71560314965689e6 0.0
0.0 0.0 0.0

-208717.91156800836 9.684345621521024e6 0.0
9.684345621521024e6 -7.366735207380114e6 0.0
0.0 0.0 0.0

-5.367824417405141e6 1.4221416418466823e7 0.0
1.4221416418466823e7 -397036.81404842506 0.0
0.0 0.0 0.0

-7.548251203743373e6 7.0234698392629465e6 0.0
7.0234698392629465e6 8.49513188297502e6 0.0
0.0 0.0 0.0

-4.088707573807237e6 8.032624125024063e6 0.0
8.032624125024063e6 1.533959952952375e6 0.0
0.0 0.0 0.0

1.536350624288883e6 6.362295651630088e6 0.0
6.362295651630088e6 -7.027645712168625e6 0.0
0.0 0.0 0.0

-1.659286170388148e6 4.642658706131521e6 0.0
4.642658706131521e6 -14481.237709079054 0.0
0.0 0.0 0.0

-6.20824412527398e6 7.89117099530711e6 0.0
7.89117099530711e6 6.7860379485030975e6 0.0
0.0 0.0 0.0

-1.2085917651304293e6 1.099278560280895e7 0.0
1.099278560280895e7 -4.1770503984983945e6 0.0
0.0 0.0 0.0

1.3931550556846228e6 1.0452463171973152e7 0.0
1.0452463171973152e7 -5.086957272915921e6 0.0
0.0 0.0 0.0

-6.616262699804613e6 1.1378215504029274e7 0.0
1.1378215504029274e7 4.810285424359568e6 0.0
0.0 0.0 0.0

240338.47034012154 9.628282740493484e6 0.0
9.628282740493484e6 -6.117691135209293e6 0.0
0.0 0.0 0.0

1.9846213904456994e6 6.585593468173333e6 0.0
6.585593468173333e6 -7.157605629296861e6 0.0
0.0 0.0 0.0

1.6116787878262028e6 6.5558830114796925e6 0.0
6.5558830114796925e6 -7.262822953811863e6 0.0
0.0 0.0 0.0

344303.9178803123 7.078360650123586e6 0.0
7.078360650123586e6 -4.847450450314729e6 0.0
0.0 0.0 0.0

1.572957981547146e6 6.788348282622003e6 0.0
6.788348282622003e6 -7.480235836578135e6 0.0
0.0 0.0 0.0

1.4324834740895878e6 6.254372576661971e6 0.0
6.254372576661971e6 -5.820397357196437e6 0.0
0.0 0.0 0.0

-1.0483033525853865e7 1.1767165563162139e7 0.0
1.1767165563162139e7 7.397354203892749e6 0.0
0.0 0.0 0.0

-5.4813072970379535e6 1.5492372003038611e7 0.0
1.5492372003038611e7 -883567.8330772382 0.0
0.0 0.0 0.0

-4.218878344532431e6 1.1474332570125517e7 0.0
1.1474332570125517e7 2.6088016078927056e6 0.0
0.0 0.0 0.0

1.0583410723334062e6 6.474902347064026e6 0.0
6.474902347064026e6 -6.173285202300797e6 0.0
0.0 0.0 0.0

-3.0862341366549362e6 9.473376873441068e6 0.0
9.473376873441068e6 -1.2020087074872588e6 0.0
0.0 0.0 0.0

-319543.64347141504 7.320766062356891e6 0.0
7.320766062356891e6 -2.9386259024280375e6 0.0
0.0 0.0 0.0

-2.9529052056704187e6 1.158060669094188e7 0.0
1.158060669094188e7 -9.843019817712288e6 0.0
0.0 0.0 0.0

3.93675284858699e6 1.4392321739024535e7 0.0
1.4392321739024535e7 1.3122523450128408e7 0.0
0.0 0.0 0.0

3.203589914615519e6 1.1022349670594133e7 0.0
1.1022349670594133e7 -4.498206874405849e6 0.0
0.0 0.0 0.0

4.858069427981354e6 1.1074429706328886e7 0.0
1.1074429706328886e7 -7.333468401688128e6 0.0
0.0 0.0 0.0

3.256069430565985e6 7.62966177595893e6 0.0
7.62966177595893e6 -1.1976907149093477e7 0.0
0.0 0.0 0.0

-781412.4074750395 1.0340033191007143e7 0.0
1.0340033191007143e7 -4.642610841180548e6 0.0
0.0 0.0 0.0

-1.2781479514997206e6 1.1100405099762827e7 0.0
1.1100405099762827e7 1.466883454695082e6 0.0
0.0 0.0 0.0

-9.066302990689086e6 760995.9626429102 0.0
760995.9626429102 1.0522560726458352e7 0.0
0.0 0.0 0.0

-8.732684722682333e6 6.544677371808237e6 0.0
6.544677371808237e6 1.2193177836846158e7 0.0
0.0 0.0 0.0

-1.863270810196308e6 1.1572908572599092e7 0.0
1.1572908572599092e7 1.119832894394759e6 0.0
0.0 0.0 0.0

-1.6507252085573552e6 8.207916619624746e6 0.0
8.207916619624746e6 -1.953148798520291e6 0.0
0.0 0.0 0.0

-8.2706692886252105e6 1.1932434620859213e7 0.0
1.1932434620859213e7 4.09276251987021e6 0.0
0.0 0.0 0.0

-5.65759734239634e6 1.0604929018776832e7 0.0
1.0604929018776832e7 5.161153636169559e6 0.0
0.0 0.0 0.0

-2.9786675404713424e6 6.551232957276805e6 0.0
6.551232957276805e6 912091.7808153841 0.0
0.0 0.0 0.0

-4.799348494027008e6 9.151899252047136e6 0.0
9.151899252047136e6 2.5438563914346574e6 0.0
0.0 0.0 0.0

2.989357008466954e6 7.086761513376077e6 0.0
7.086761513376077e6 -9.47852342549695e6 0.0
0.0 0.0 0.0

866114.8748955207 6.542103125322123e6 0.0
6.542103125322123e6 -5.128716947507473e6 0.0
0.0 0.0 0.0

-2.1578209327186416e6 1.0909949829723405e7 0.0
1.0909949829723405e7 -3.260175728851407e6 0.0
0.0 0.0 0.0

377422.14552534744 8.540642725283809e6 0.0
8.540642725283809e6 -6.467263174776903e6 0.0
0.0 0.0 0.0

-1.0246320337748416e7 1.8260464080070222e6 0.0
1.8260464080070222e6 1.4832343439221315e7 0.0
0.0 0.0 0.0

-619344.0804898558 2.3608898500313964e6 0.0
2.3608898500313964e6 -2.0637238772536574e6 0.0
0.0 0.0 0.0

-1.116561099294012e7 996730.067922152 0.0
996730.067922152 2.103271465174335e7 0.0
0.0 0.0 0.0

-2.6124503087901664e6 9.817963448138915e6 0.0
9.817963448138915e6 -2.753064463761256e6 0.0
0.0 0.0 0.0

-4.67762754906773e6 1.1549864168898087e7 0.0
1.1549864168898087e7 3.3434402784930267e6 0.0
0.0 0.0 0.0

-2.7394492345517045e6 6.723579879432344e6 0.0
6.723579879432344e6 1.229242645927164e6 0.0
0.0 0.0 0.0

-4.299293474351782e6 1.3294785797402173e7 0.0
1.3294785797402173e7 -1.392352715240509e6 0.0
0.0 0.0 0.0

-1.9035620584047309e6 5.288376935736857e6 0.0
5.288376935736857e6 -43976.90421915264 0.0
0.0 0.0 0.0

-5.696402798745343e6 1.0254494332810868e7 0.0
1.0254494332810868e7 4.983522847645065e6 0.0
0.0 0.0 0.0

3.956536219441525e6 1.4134923826876257e7 0.0
1.4134923826876257e7 -9.78283037123629e6 0.0
0.0 0.0 0.0

-5.929047219248256e6 8.604881311545273e6 0.0
8.604881311545273e6 5.874866081540032e6 0.0
0.0 0.0 0.0

320611.54187165934 2.5238492813990815e6 0.0
2.5238492813990815e6 -1.851515505395383e6 0.0
0.0 0.0 0.0

-1.188125253136288e7 -3.503236695337345e6 0.0
-3.503236695337345e6 4.914582863094558e6 0.0
0.0 0.0 0.0

1.9599256608570982e6 6.04545592537127e6 0.0
6.04545592537127e6 -7.542892064243116e6 0.0
0.0 0.0 0.0

-7.937342063862912e6 1.1432700795351893e7 0.0
1.1432700795351893e7 5.780529195286209e6 0.0
0.0 0.0 0.0

-1.4485778515216738e6 3.8242827736338302e6 0.0
3.8242827736338302e6 -486004.75048254116 0.0
0.0 0.0 0.0

-1.4632828746528039e6 6.203704702288074e6 0.0
6.203704702288074e6 -1.824448790192729e6 0.0
0.0 0.0 0.0

-2.7149348188645625e6 1.8357104427043763e6 0.0
1.8357104427043763e6 2.5360335638203053e6 0.0
0.0 0.0 0.0

-782893.7693462081 1.1182442962865844e7 0.0
1.1182442962865844e7 -4.853521369730512e6 0.0
0.0 0.0 0.0

-3.607069087419929e6 1.495164338598614e6 0.0
1.495164338598614e6 3.2303507783095683e6 0.0
0.0 0.0 0.0

-1.305915262588634e6 8.977237873980286e6 0.0
8.977237873980286e6 -4.284691482687701e6 0.0
0.0 0.0 0.0

-6.810215297043093e6 7.6636792700486295e6 0.0
7.6636792700486295e6 7.657850089664532e6 0.0
0.0 0.0 0.0

-2.6062771768147433e6 6.335856799395796e6 0.0
6.335856799395796e6 679330.7018236981 0.0
0.0 0.0 0.0

-9.531236804342933e6 7.8367680814524535e6 0.0
7.8367680814524535e6 1.0810967510316033e7 0.0
0.0 0.0 0.0

-4.0292150888773953e6 7.021875537993418e6 0.0
7.021875537993418e6 2.8085598883858123e6 0.0
0.0 0.0 0.0

-4.648024893527355e6 9.85747891438478e6 0.0
9.85747891438478e6 1.5071002275805238e6 0.0
0.0 0.0 0.0

2.7048197132110265e6 7.279658392168e6 0.0
7.279658392168e6 -9.238640114645658e6 0.0
0.0 0.0 0.0

-7.531228884823764e6 8.214212031181785e6 0.0
8.214212031181785e6 8.184275365771014e6 0.0
0.0 0.0 0.0

3.5546201462902166e6 9.310499247381821e6 0.0
9.310499247381821e6 -1.8392679608629197e6 0.0
0.0 0.0 0.0

-7.295226425379893e6 -439065.5366981119 0.0
-439065.5366981119 6.863792186703887e6 0.0
0.0 0.0 0.0

1.785114975655865e6 8.521132434536627e6 0.0
8.521132434536627e6 -8.461516990423752e6 0.0
0.0 0.0 0.0

-2.852104979313042e6 6.822360586707473e6 0.0
6.822360586707473e6 1.325046687616465e6 0.0
0.0 0.0 0.0

293001.9060814425 6.576878541915289e6 0.0
6.576878541915289e6 -4.834508307153486e6 0.0
0.0 0.0 0.0

-893836.5846144294 3.6662292541342983e6 0.0
3.6662292541342983e6 -263921.0513423508 0.0
0.0 0.0 0.0

-1.9657293621337677e6 2.1393128336542407e6 0.0
2.1393128336542407e6 810853.7004304152 0.0
0.0 0.0 0.0

-386451.5969509892 8.855399371643014e6 0.0
8.855399371643014e6 -5.385402288309123e6 0.0
0.0 0.0 0.0

-1.8301848487191666e6 5.304701287737262e6 0.0
5.304701287737262e6 826522.5479264202 0.0
0.0 0.0 0.0

-4.86757769682679e6 1.1512997763559254e7 0.0
1.1512997763559254e7 3.2499049945715633e6 0.0
0.0 0.0 0.0

-5.877250051149323e6 7.783919843562385e6 0.0
7.783919843562385e6 6.6951755731640905e6 0.0
0.0 0.0 0.0

463872.42403429863 5.218747731743786e6 0.0
5.218747731743786e6 -3.4154036092502256e6 0.0
0.0 0.0 0.0

-2.3584199071987807e6 1.0070912624948412e7 0.0
1.0070912624948412e7 -2.3534281243797815e6 0.0
0.0 0.0 0.0

895587.5777192893 6.884473774711906e6 0.0
6.884473774711906e6 -5.838750290519366e6 0.0
0.0 0.0 0.0

-6.021621693275921e6 1.2579943622318747e7 0.0
1.2579943622318747e7 1.3626646987952488e6 0.0
0.0 0.0 0.0

1.0364265708762212e6 1.0536059116715237e7 0.0
1.0536059116715237e7 -1.1850726496915022e7 0.0
0.0 0.0 0.0

672377.8619241714 6.375447798718398e6 0.0
6.375447798718398e6 -5.0761155556846475e6 0.0
0.0 0.0 0.0

1.0847862371163992e6 6.276219732122559e6 0.0
6.276219732122559e6 -5.97557867668524e6 0.0
0.0 0.0 0.0

56090.72366959462 9.853801197078425e6 0.0
9.853801197078425e6 -7.214832557398532e6 0.0
0.0 0.0 0.0

-26691.721305317828 4.926779666286643e6 0.0
4.926779666286643e6 -2.831474935810236e6 0.0
0.0 0.0 0.0

-1.7965114206204703e6 1.110901908431465e7 0.0
1.110901908431465e7 -9.093717264348881e6 0.0
0.0 0.0 0.0

1.237926726219445e6 6.997590767891043e6 0.0
6.997590767891043e6 -5.237670468557719e6 0.0
0.0 0.0 0.0

378728.96518472023 6.489090897305605e6 0.0
6.489090897305605e6 -5.001170286136424e6 0.0
0.0 0.0 0.0

-693292.8843013373 1.1061578486839503e7 0.0
1.1061578486839503e7 -1.1632448127536615e6 0.0
0.0 0.0 0.0

-1.0700191243543908e7 4.1640952649866147e6 0.0
4.1640952649866147e6 1.3000571770228447e7 0.0
0.0 0.0 0.0

-6.833062930221068e6 1.1738391299510075e7 0.0
1.1738391299510075e7 4.350587862477072e6 0.0
0.0 0.0 0.0

-5.691891874654142e6 268147.3025646935 0.0
268147.3025646935 3.691947549469148e6 0.0
0.0 0.0 0.0

149087.1101916458 8.636481910542704e6 0.0
8.636481910542704e6 -6.103186458446152e6 0.0
0.0 0.0 0.0

-1.333092271533281e6 1.0948562872798925e7 0.0
1.0948562872798925e7 2.384509453039572e6 0.0
0.0 0.0 0.0

-5.676014455865691e6 1.2549375960427873e7 0.0
1.2549375960427873e7 722188.7461444982 0.0
0.0 0.0 0.0

-1.4295465324831055e6 7.812600017025584e6 0.0
7.812600017025584e6 -3.0385881130491253e6 0.0
0.0 0.0 0.0

-4.97090432087022e6 1.311764721085311e7 0.0
1.311764721085311e7 -595060.7774275024 0.0
0.0 0.0 0.0

-1.273627443508949e6 8.064025271014115e6 0.0
8.064025271014115e6 -3.070866032286403e6 0.0
0.0 0.0 0.0

-675312.508923543 3.21893322220622e6 0.0
3.21893322220622e6 -691423.7035564898 0.0
0.0 0.0 0.0

-2.5335371608810998e6 1.0172852057087328e7 0.0
1.0172852057087328e7 -2.9643752038375847e6 0.0
0.0 0.0 0.0

-7.320780789027803e6 2.0042218085148193e7 0.0
2.0042218085148193e7 -527919.9896738285 0.0
0.0 0.0 0.0

111484.52078465745 1.2690947235569391e7 0.0
1.2690947235569391e7 -4.602705701749545e6 0.0
0.0 0.0 0.0

-1.0074890060369878e6 1.0679474134997707e7 0.0
1.0679474134997707e7 -4.409317746655847e6 0.0
0.0 0.0 0.0

-2.18571329733432e6 6.424216336233248e6 0.0
6.424216336233248e6 170214.9482009468 0.0
0.0 0.0 0.0

-2.6900734778051223e6 8.2903432945401035e6 0.0
8.2903432945401035e6 -648233.3917523478 0.0
0.0 0.0 0.0

2.205918289785204e6 5.811962542864087e6 0.0
5.811962542864087e6 -7.354263309036768e6 0.0
0.0 0.0 0.0

3.871840996596677e6 4.606297928350607e6 0.0
4.606297928350607e6 -7.228493389997257e6 0.0
0.0 0.0 0.0

-923911.0575138174 4.875499635610367e6 0.0
4.875499635610367e6 -2.2401614361050287e6 0.0
0.0 0.0 0.0

-3.326452498683316e6 1.1491727479101522e7 0.0
1.1491727479101522e7 374438.64597005956 0.0
0.0 0.0 0.0

322935.4504696701 6.171501370672687e6 0.0
6.171501370672687e6 -5.113626765999563e6 0.0
0.0 0.0 0.0

-1.7659492095301612e6 8.642444589981494e6 0.0
8.642444589981494e6 -3.5591545306725614e6 0.0
0.0 0.0 0.0

-1.1322016906487949e6 1.1209868834125109e7 0.0
1.1209868834125109e7 959073.4292114542 0.0
0.0 0.0 0.0

739852.4851612779 8.371991215392623e6 0.0
8.371991215392623e6 -6.199357391542839e6 0.0
0.0 0.0 0.0

-1.693217008877408e6 5.13581682446103e6 0.0
5.13581682446103e6 679714.991121688 0.0
0.0 0.0 0.0

-1.441193959817601e7 7.698350766710575e6 0.0
7.698350766710575e6 6.126869954604465e6 0.0
0.0 0.0 0.0

1.22390302386908e6 8.288796091881277e6 0.0
8.288796091881277e6 -7.008222549534066e6 0.0
0.0 0.0 0.0

-1.779755658913033e7 -4.799443875722145e6 0.0
-4.799443875722145e6 9.02983749918889e6 0.0
0.0 0.0 0.0

436817.6421784677 6.533527600047374e6 0.0
6.533527600047374e6 -5.1927722453514645e6 0.0
0.0 0.0 0.0

-3.7227562958732015e6 1.0520036890818432e7 0.0
1.0520036890818432e7 4.513237867734902e6 0.0
0.0 0.0 0.0

1.2880046980651445e6 9.386968060276555e6 0.0
9.386968060276555e6 -8.680769308448013e6 0.0
0.0 0.0 0.0

746218.3574566985 9.760903967832863e6 0.0
9.760903967832863e6 -7.175833718224768e6 0.0
0.0 0.0 0.0

-591614.1294053174 3.177282939217502e6 0.0
3.177282939217502e6 -764529.6767641364 0.0
0.0 0.0 0.0

-4.303515331880763e6 3.9028109868268776e6 0.0
3.9028109868268776e6 3.784606570248031e6 0.0
0.0 0.0 0.0

-1.7744263938026447e6 7.672671443355744e6 0.0
7.672671443355744e6 -1.670894645104574e6 0.0
0.0 0.0 0.0

-2.181835377917629e6 6.22026486001115e6 0.0
6.22026486001115e6 312535.7216347542 0.0
0.0 0.0 0.0

-6.993724910259653e6 2.0474028090812755e6 0.0
2.0474028090812755e6 7.695122442012978e6 0.0
0.0 0.0 0.0

-1.4435425987295723e6 7.602205674781475e6 0.0
7.602205674781475e6 -1.5764362302505528e6 0.0
0.0 0.0 0.0

-2.2477336345058023e6 9.802492518927278e6 0.0
9.802492518927278e6 -3.2416530802507843e6 0.0
0.0 0.0 0.0

-2.43300897553854e6 9.812195580840986e6 0.0
9.812195580840986e6 -2.151348316474864e6 0.0
0.0 0.0 0.0

-2.73976845811607e6 1.0529958896040544e7 0.0
1.0529958896040544e7 -2.80291054111775e6 0.0
0.0 0.0 0.0

-949437.1505613362 8.962648233197484e6 0.0
8.962648233197484e6 -4.652912972533504e6 0.0
0.0 0.0 0.0

157613.84955495177 6.825996151764525e6 0.0
6.825996151764525e6 -4.7784544870335795e6 0.0
0.0 0.0 0.0

934449.4227397819 9.494514223370256e6 0.0
9.494514223370256e6 -5.141817509186902e6 0.0
0.0 0.0 0.0

-2.6893530804264266e6 9.55613257449199e6 0.0
9.55613257449199e6 -2.5667264496548963e6 0.0
0.0 0.0 0.0

-1.3977536593599836e6 8.068178127783254e6 0.0
8.068178127783254e6 -2.6553555175080393e6 0.0
0.0 0.0 0.0

-1.430387588205359e6 4.8403769717763895e6 0.0
4.8403769717763895e6 476423.6056813799 0.0
0.0 0.0 0.0

-664109.8106847709 8.934162119175378e6 0.0
8.934162119175378e6 -5.037529253731547e6 0.0
0.0 0.0 0.0

-2.6905353722784556e6 1.1138113341733335e7 0.0
1.1138113341733335e7 -8.968450983351415e6 0.0
0.0 0.0 0.0

-518453.19123838027 3.455063790840763e6 0.0
3.455063790840763e6 -835499.8818007665 0.0
0.0 0.0 0.0

427701.02093142015 6.698601828438407e6 0.0
6.698601828438407e6 -5.232838879912745e6 0.0
0.0 0.0 0.0

903185.9886504058 6.014130439390258e6 0.0
6.014130439390258e6 -4.200301533919143e6 0.0
0.0 0.0 0.0

1.1901311649110774e6 1.019105887772676e7 0.0
1.019105887772676e7 -1.1063291654230407e7 0.0
0.0 0.0 0.0

-2.837090072933705e6 6.836776777810925e6 0.0
6.836776777810925e6 1.2386530970808738e6 0.0
0.0 0.0 0.0

606360.3847652571 6.328833602000084e6 0.0
6.328833602000084e6 -4.86200849565125e6 0.0
0.0 0.0 0.0

-3.1684665610664077e6 4.9067705779697895e6 0.0
4.9067705779697895e6 2.037005538425017e6 0.0
0.0 0.0 0.0

-8.11166718509224e6 -2.106858983884672e6 0.0
-2.106858983884672e6 1.2736384347071737e7 0.0
0.0 0.0 0.0

-370526.9636640545 1.1006887717399858e7 0.0
1.1006887717399858e7 -1.0490999693730387e6 0.0
0.0 0.0 0.0

-117354.49071947974 1.01909373675948e7 0.0
1.01909373675948e7 -913772.0379921513 0.0
0.0 0.0 0.0

-4.759622358684745e6 1.1706017972585926e7 0.0
1.1706017972585926e7 3.268030262033741e6 0.0
0.0 0.0 0.0

-4.0386291990373116e6 8.419468828848768e6 0.0
8.419468828848768e6 1.1930769358141075e6 0.0
0.0 0.0 0.0

2.72602453550156e6 6.370493049900153e6 0.0
6.370493049900153e6 -8.330813339806528e6 0.0
0.0 0.0 0.0

2.7690505204763967e6 6.566106864114095e6 0.0
6.566106864114095e6 -8.504591388190713e6 0.0
0.0 0.0 0.0

-5.000055597724354e6 5.554411693493561e6 0.0
5.554411693493561e6 5.976542284264353e6 0.0
0.0 0.0 0.0

-1.9301185889445916e6 9.436409295635698e6 0.0
9.436409295635698e6 -3.5287782357199527e6 0.0
0.0 0.0 0.0

3.1489445303451773e6 1.0239143835063795e7 0.0
1.0239143835063795e7 -4.536551012989403e6 0.0
0.0 0.0 0.0

-1.226955497766374e7 -2.493595215846475e6 0.0
-2.493595215846475e6 1.7955743546203524e7 0.0
0.0 0.0 0.0

-3.5258319907989157e6 7.80885133077448e6 0.0
7.80885133077448e6 1.785816698013016e6 0.0
0.0 0.0 0.0

-2.3880634432470887e6 8.917491434179755e6 0.0
8.917491434179755e6 -2.2371633452128945e6 0.0
0.0 0.0 0.0

-1.161092483156865e7 8.91055159278353e6 0.0
8.91055159278353e6 1.8615241830498725e7 0.0
0.0 0.0 0.0

1.6784307043797723e6 3.5692488440239537e6 0.0
3.5692488440239537e6 -3.8703246915329006e6 0.0
0.0 0.0 0.0

-4.154983112356162e6 1.0857507386131007e7 0.0
1.0857507386131007e7 -568776.0665903293 0.0
0.0 0.0 0.0

-4.788279464090077e6 9.758032160144445e6 0.0
9.758032160144445e6 6.12162333739036e6 0.0
0.0 0.0 0.0

652232.810636014 6.60379923342229e6 0.0
6.60379923342229e6 -5.083320664714091e6 0.0
0.0 0.0 0.0

-1.4164153109960316e6 6.753986777116315e6 0.0
6.753986777116315e6 -1.9519671564145104e6 0.0
0.0 0.0 0.0

-9.66033462258342e6 6.3177771316441e6 0.0
6.3177771316441e6 1.4666334789249718e7 0.0
0.0 0.0 0.0

2.1369743436178374e6 7.709002871204951e6 0.0
7.709002871204951e6 -8.588348962756101e6 0.0
0.0 0.0 0.0

-676318.3877937386 1.0567862498061974e7 0.0
1.0567862498061974e7 -4.861537910942696e6 0.0
0.0 0.0 0.0

-5.500251525923678e6 -317619.5295237814 0.0
-317619.5295237814 7.307036140467059e6 0.0
0.0 0.0 0.0

1.866664438497406e6 8.177899853372142e6 0.0
8.177899853372142e6 -8.319493623599359e6 0.0
0.0 0.0 0.0

264942.96673437813 6.735859500726702e6 0.0
6.735859500726702e6 -3.5705961991277286e6 0.0
0.0 0.0 0.0

1.7537281931494768e6 7.327893795842107e6 0.0
7.327893795842107e6 -7.242618761276254e6 0.0
0.0 0.0 0.0

-1.4662069039201976e6 7.87934873493259e6 0.0
7.87934873493259e6 -3.553383670542046e6 0.0
0.0 0.0 0.0

-1.6349033253700412e6 9.04446507263617e6 0.0
9.04446507263617e6 -3.7949169444452925e6 0.0
0.0 0.0 0.0

-5.462579437450737e6 2.2718034126487123e6 0.0
2.2718034126487123e6 6.422116808337084e6 0.0
0.0 0.0 0.0

1.812221092620554e6 8.969913648267983e6 0.0
8.969913648267983e6 -1.531973730299436e6 0.0
0.0 0.0 0.0

-1.4521758970549116e6 4.306430612334246e6 0.0
4.306430612334246e6 257407.2201108319 0.0
0.0 0.0 0.0

2766.1522773357574 9.768473581991907e6 0.0
9.768473581991907e6 -5.807655127062168e6 0.0
0.0 0.0 0.0

44514.28145980567 3.366655800747213e6 0.0
3.366655800747213e6 -2.052728558897509e6 0.0
0.0 0.0 0.0

1.539476015479797e6 5.7987143693697825e6 0.0
5.7987143693697825e6 -4.43826077447066e6 0.0
0.0 0.0 0.0

-1.7960060718895225e6 8.380000050186523e6 0.0
8.380000050186523e6 -3.3947082286857944e6 0.0
0.0 0.0 0.0

533699.7967985608 5.826186422131312e6 0.0
5.826186422131312e6 -4.603303532932121e6 0.0
0.0 0.0 0.0

-2.6086091291311565e6 2.9740101018062825e6 0.0
2.9740101018062825e6 1.7704614347393473e6 0.0
0.0 0.0 0.0

3.597894805036538e6 6.243265622993846e6 0.0
6.243265622993846e6 -1.0938599805959988e7 0.0
0.0 0.0 0.0

-592602.0836980761 1.0141120053518444e7 0.0
1.0141120053518444e7 -1.9753401893346934e6 0.0
0.0 0.0 0.0

-2.9130162254462736e6 5.820124198893688e6 0.0
5.820124198893688e6 1.361997128988604e6 0.0
0.0 0.0 0.0

-4.780406878494367e6 1.1306504632492365e7 0.0
1.1306504632492365e7 2.353933363586588e6 0.0
0.0 0.0 0.0

212753.6329793384 8.94893604088805e6 0.0
8.94893604088805e6 1.0596020277324012e6 0.0
0.0 0.0 0.0

-6.279978597048229e6 8.28453264214693e6 0.0
8.28453264214693e6 7.0617561954872385e6 0.0
0.0 0.0 0.0

-5.57147441800653e6 9.462921184545388e6 0.0
9.462921184545388e6 6.076792752306491e6 0.0
0.0 0.0 0.0

-4.845034054534828e6 -744868.2094905174 0.0
-744868.2094905174 5.456735878402794e6 0.0
0.0 0.0 0.0

-1.5815994513496063e6 6.109798124219627e6 0.0
6.109798124219627e6 -753819.6930699735 0.0
0.0 0.0 0.0

-377703.1797520742 1.1291700200085554e7 0.0
1.1291700200085554e7 4.488403337984829e6 0.0
0.0 0.0 0.0

-3.088619330756561e6 1.1666395167265082e7 0.0
1.1666395167265082e7 2.6803127249762625e6 0.0
0.0 0.0 0.0

-3.732304265556432e6 4.047436957474155e6 0.0
4.047436957474155e6 2.7528841665414525e6 0.0
0.0 0.0 0.0

69808.5202078456 9.38288720728142e6 0.0
9.38288720728142e6 -6.523175503408261e6 0.0
0.0 0.0 0.0

390487.85317726014 6.692994754179886e6 0.0
6.692994754179886e6 -4.981593087102475e6 0.0
0.0 0.0 0.0

-1.4086985710770711e6 9.318840616684048e6 0.0
9.318840616684048e6 -3.3552752886871034e6 0.0
0.0 0.0 0.0

-1.3329094975045584e6 5.651466647803811e6 0.0
5.651466647803811e6 -1.027274944063876e6 0.0
0.0 0.0 0.0

3.5113330844160453e6 6.061943917675239e6 0.0
6.061943917675239e6 -6.369280070188541e6 0.0
0.0 0.0 0.0

-4.316899011019e6 1.0934814157931013e7 0.0
1.0934814157931013e7 -58053.116784628015 0.0
0.0 0.0 0.0

-9.036764089461634e6 -685546.9135350281 0.0
-685546.9135350281 1.2643243401011903e7 0.0
0.0 0.0 0.0

-6.106488764500255e6 -156525.47834495263 0.0
-156525.47834495263 8.288865390073247e6 0.0
0.0 0.0 0.0

-1.0792776501342554e7 2.9445016110685705e6 0.0
2.9445016110685705e6 1.3021777593517344e7 0.0
0.0 0.0 0.0

-3.5744239434872153e6 1.0700295121046213e7 0.0
1.0700295121046213e7 -1.7647231077197548e6 0.0
0.0 0.0 0.0

-186807.5264838253 5.179633032125721e6 0.0
5.179633032125721e6 -3.315389364986162e6 0.0
0.0 0.0 0.0

2.4751392796242665e6 9.795935465065995e6 0.0
9.795935465065995e6 1.8317604067583235e6 0.0
0.0 0.0 0.0

877577.025106349 1.438322992805792e7 0.0
1.438322992805792e7 9.521538849859772e6 0.0
0.0 0.0 0.0

336881.8713799934 6.565218815094158e6 0.0
6.565218815094158e6 -4.772195165946615e6 0.0
0.0 0.0 0.0

-1.6418860136150487e6 4.538959588461153e6 0.0
4.538959588461153e6 945411.2782150693 0.0
0.0 0.0 0.0

-1.8484011122670467e6 6.553338120932582e6 0.0
6.553338120932582e6 -473202.73231236497 0.0
0.0 0.0 0.0

-5.811140849361894e6 9.935061909630379e6 0.0
9.935061909630379e6 4.788262257502763e6 0.0
0.0 0.0 0.0

2.7850156841539764e6 6.786414328165905e6 0.0
6.786414328165905e6 -9.040913671956377e6 0.0
0.0 0.0 0.0

2.2223053228847426e6 6.871702108447176e6 0.0
6.871702108447176e6 -7.900681681431471e6 0.0
0.0 0.0 0.0

-565545.5878618571 3.5551228429797497e6 0.0
3.5551228429797497e6 -2.3342160075224643e6 0.0
0.0 0.0 0.0

-3.8858196335704178e6 8.210721185061804e6 0.0
8.210721185061804e6 2.150548170067068e6 0.0
0.0 0.0 0.0

-9.721915318611847e6 9.286088988483692e6 0.0
9.286088988483692e6 1.770714815553889e7 0.0
0.0 0.0 0.0

-1.676735374631878e6 9.703595974314598e6 0.0
9.703595974314598e6 -3.1017301919062454e6 0.0
0.0 0.0 0.0

-529065.9415382206 4.074317356260873e6 0.0
4.074317356260873e6 -1.5787011058412136e6 0.0
0.0 0.0 0.0

2.465532947935298e6 6.7016247893030755e6 0.0
6.7016247893030755e6 -8.196019738221375e6 0.0
0.0 0.0 0.0

-5.388380652131401e6 9.214018427509895e6 0.0
9.214018427509895e6 3.3557542960414924e6 0.0
0.0 0.0 0.0

693951.5651316608 6.968346593013746e6 0.0
6.968346593013746e6 -5.690910107125778e6 0.0
0.0 0.0 0.0

-2.7030953560077455e6 1.9941444275686885e6 0.0
1.9941444275686885e6 623828.4917123001 0.0
0.0 0.0 0.0

-1.472801645234725e6 8.248516813109181e6 0.0
8.248516813109181e6 -3.834440088837084e6 0.0
0.0 0.0 0.0

408755.7817220951 2.0423905109479066e6 0.0
2.0423905109479066e6 -4.1229677078646147e6 0.0
0.0 0.0 0.0

-1.0775794812695095e6 5.185209028664601e6 0.0
5.185209028664601e6 -1.3243886705964862e6 0.0
0.0 0.0 0.0

-765456.8196939786 4.746394142444493e6 0.0
4.746394142444493e6 -1.698724423338521e6 0.0
0.0 0.0 0.0

-1.7606393462176174e6 8.211265703716062e6 0.0
8.211265703716062e6 -3.2910683732581283e6 0.0
0.0 0.0 0.0

-1.7225441108947448e6 7.186341219318997e6 0.0
7.186341219318997e6 -1.623201550606688e6 0.0
0.0 0.0 0.0

-5.14847839844138e6 2.9125041484367526e6 0.0
2.9125041484367526e6 5.669233149251789e6 0.0
0.0 0.0 0.0

-1.0173369445934944e7 6.145622495098605e6 0.0
6.145622495098605e6 1.7359028530556057e7 0.0
0.0 0.0 0.0

-1.1400885312574461e7 3.3162304120370755e6 0.0
3.3162304120370755e6 1.47766803142036e7 0.0
0.0 0.0 0.0

-1.004066124172036e7 6.293069457955977e6 0.0
6.293069457955977e6 1.5971615138702493e7 0.0
0.0 0.0 0.0

-1.4040542789129948e7 578350.6190498961 0.0
578350.6190498961 2.527874558524494e7 0.0
0.0 0.0 0.0

-1.0425366574974615e6 1.1306823407465864e7 0.0
1.1306823407465864e7 573630.593014486 0.0
0.0 0.0 0.0

-1.2052505283880489e7 -1.2722681549218236e6 0.0
-1.2722681549218236e6 1.6523033104898535e7 0.0
0.0 0.0 0.0

-3.8501518000578163e6 1.0126010673393384e7 0.0
1.0126010673393384e7 -238384.56750136416 0.0
0.0 0.0 0.0

730808.5383949485 1.0047487622022094e7 0.0
1.0047487622022094e7 -6.143480962088408e6 0.0
0.0 0.0 0.0

-2.094778266706882e7 1.3676067786308477e7 0.0
1.3676067786308477e7 1.447996859345518e6 0.0
0.0 0.0 0.0

313296.81542000524 6.664408983901074e6 0.0
6.664408983901074e6 -5.026357613621674e6 0.0
0.0 0.0 0.0

523085.7297617274 8.528694579160647e6 0.0
8.528694579160647e6 -5.958919521886218e6 0.0
0.0 0.0 0.0

-4.397662576958759e6 1.0843543056960208e7 0.0
1.0843543056960208e7 198267.28606896312 0.0
0.0 0.0 0.0

-4.1760187438312424e6 9.322597883911159e6 0.0
9.322597883911159e6 1.8561104341352084e6 0.0
0.0 0.0 0.0

1.7541953312241407e6 7.054206384268944e6 0.0
7.054206384268944e6 -7.050898899435838e6 0.0
0.0 0.0 0.0

3.3635795349581023e6 1.2931758682025837e7 0.0
1.2931758682025837e7 -7.225017846387464e6 0.0
0.0 0.0 0.0

-1.5493606242072931e6 5.318795073799148e6 0.0
5.318795073799148e6 -1.5208700854792255e6 0.0
0.0 0.0 0.0

3.198577315957492e6 7.237809522253666e6 0.0
7.237809522253666e6 -1.1434943664312467e7 0.0
0.0 0.0 0.0

-1.262144397834842e6 4.8475930504290415e6 0.0
4.8475930504290415e6 -1.8299826857131033e6 0.0
0.0 0.0 0.0

226960.15607786202 6.606016279715752e6 0.0
6.606016279715752e6 -4.922870733027453e6 0.0
0.0 0.0 0.0

-5.812737027664006e6 8.637808713913718e6 0.0
8.637808713913718e6 6.505361873597696e6 0.0
0.0 0.0 0.0

-1.3040414668446222e7 9.420943607468773e6 0.0
9.420943607468773e6 3.1207071259271875e6 0.0
0.0 0.0 0.0

-3.0768922863395466e6 1.3669274107327187e6 0.0
1.3669274107327187e6 2.4814223885250036e6 0.0
0.0 0.0 0.0

-1.9616207722555702e6 1.0067599423255045e7 0.0
1.0067599423255045e7 -2.820904465695176e6 0.0
0.0 0.0 0.0

-9.53440367829685e6 7.516842376172352e6 0.0
7.516842376172352e6 6.880830005961558e6 0.0
0.0 0.0 0.0

880472.7425491542 6.681603219229743e6 0.0
6.681603219229743e6 -4.799854473426143e6 0.0
0.0 0.0 0.0

-2.7335153275774936e6 5.299237100027187e6 0.0
5.299237100027187e6 2.1169551835568203e6 0.0
0.0 0.0 0.0

-1.5872304631646671e6 8.65455789080837e6 0.0
8.65455789080837e6 -2.9649316433408977e6 0.0
0.0 0.0 0.0

-1.7878603746496623e6 8.372608076568211e6 0.0
8.372608076568211e6 -1.9641389716784945e6 0.0
0.0 0.0 0.0

-1.8085535566358943e6 5.788948389190191e6 0.0
5.788948389190191e6 -1.2306040152116702e6 0.0
0.0 0.0 0.0

-1.0484267642384812e7 2.1747984145387625e6 0.0
2.1747984145387625e6 1.276130881245577e7 0.0
0.0 0.0 0.0

2.4841390541811557e6 6.063353129791562e6 0.0
6.063353129791562e6 -7.7062388551452225e6 0.0
0.0 0.0 0.0

297156.2340237128 5.992113882940207e6 0.0
5.992113882940207e6 -4.8868238239984885e6 0.0
0.0 0.0 0.0

-5.156988672547491e6 8.970803870116545e6 0.0
8.970803870116545e6 2.9235218074651067e6 0.0
0.0 0.0 0.0

-1.2206369897683274e6 3.305300683283014e6 0.0
3.305300683283014e6 -1.0381370940568834e6 0.0
0.0 0.0 0.0

-1.407131052693083e6 7.856245286346117e6 0.0
7.856245286346117e6 -3.4967951696438594e6 0.0
0.0 0.0 0.0

1.2741849047939247e6 6.667355695640807e6 0.0
6.667355695640807e6 -5.846186741386152e6 0.0
0.0 0.0 0.0

-9.355995388089519e6 -241701.8424497255 0.0
-241701.8424497255 1.224625510410935e7 0.0
0.0 0.0 0.0

-993308.5607189287 1.1440006173036821e7 0.0
1.1440006173036821e7 216686.00272351422 0.0
0.0 0.0 0.0

-2.252022495363899e6 3.037401913532041e6 0.0
3.037401913532041e6 1.444202540152262e6 0.0
0.0 0.0 0.0

1.5440426362199313e6 8.66641973236317e6 0.0
8.66641973236317e6 -8.149152932654203e6 0.0
0.0 0.0 0.0

-88962.53455305914 1.0631943712789757e7 0.0
1.0631943712789757e7 -6.422177525265322e6 0.0
0.0 0.0 0.0

-2.919792399241688e6 6.343620205250871e6 0.0
6.343620205250871e6 1.3296363968399928e6 0.0
0.0 0.0 0.0

504720.71353388624 9.711719791224975e6 0.0
9.711719791224975e6 -6.652712405348969e6 0.0
0.0 0.0 0.0

-775091.2047009311 8.871236201100918e6 0.0
8.871236201100918e6 -4.1103324960245136e6 0.0
0.0 0.0 0.0

2.7892251426386964e6 1.4932172635554175e6 0.0
1.4932172635554175e6 -4.9765775918685645e6 0.0
0.0 0.0 0.0

-1.8796035111359227e6 2.6484277865420273e6 0.0
2.6484277865420273e6 430423.36252404307 0.0
0.0 0.0 0.0

-922926.7440615953 7.421004360244614e6 0.0
7.421004360244614e6 -3.7028892534990446e6 0.0
0.0 0.0 0.0

-567686.7027178573 7.174235830895926e6 0.0
7.174235830895926e6 -4.0621403328832434e6 0.0
0.0 0.0 0.0

-1.4505446300127553e6 8.910869926960189e6 0.0
8.910869926960189e6 -3.1378961952175833e6 0.0
0.0 0.0 0.0

-1.0272262234146326e6 1.1539716386348594e7 0.0
1.1539716386348594e7 -79511.81228157572 0.0
0.0 0.0 0.0

-41819.424750631675 6.975202745327114e6 0.0
6.975202745327114e6 -4.640435755854896e6 0.0
0.0 0.0 0.0

1.386655185313406e6 9.56354531188464e6 0.0
9.56354531188464e6 -1.0189512211410118e7 0.0
0.0 0.0 0.0

-1.1467058555328236e6 3.3867911857099165e6 0.0
3.3867911857099165e6 -1.0924795839141947e6 0.0
0.0 0.0 0.0

-1.7396113417066676e6 1.041795578729411e7 0.0
1.041795578729411e7 -8.166619594713138e6 0.0
0.0 0.0 0.0

-4.1717141382714994e7 798264.1119027919 0.0
798264.1119027919 1.1160133186623571e7 0.0
0.0 0.0 0.0

2.8408684107609227e7 8.666824659430742e6 0.0
8.666824659430742e6 -3.457562616735218e6 0.0
0.0 0.0 0.0

1.2276369037661138e6 9.843551818859959e6 0.0
9.843551818859959e6 -1.077908704936665e7 0.0
0.0 0.0 0.0

-4.1073263400900466e6 7.4637357778247725e6 0.0
7.4637357778247725e6 3.390299032039758e6 0.0
0.0 0.0 0.0

-3.3105519875374343e6 8.560810827192985e6 0.0
8.560810827192985e6 82611.39221123746 0.0
0.0 0.0 0.0

-1.2369533229446243e6 7.696131749346653e6 0.0
7.696131749346653e6 -3.3937893533576946e6 0.0
0.0 0.0 0.0

908623.5119537967 5.290207560218887e6 0.0
5.290207560218887e6 -4.227966485000043e6 0.0
0.0 0.0 0.0

1.0081538188960997e6 5.599487308072928e6 0.0
5.599487308072928e6 -3.7941440565579357e6 0.0
0.0 0.0 0.0

-2.0710647000990042e6 6.243317748258988e6 0.0
6.243317748258988e6 -947701.5314043417 0.0
0.0 0.0 0.0

1.3317959438535348e6 9.692637964711204e6 0.0
9.692637964711204e6 -1.0488750405636465e7 0.0
0.0 0.0 0.0

-576487.7172988723 7.402995622443766e6 0.0
7.402995622443766e6 -3.6973159701057756e6 0.0
0.0 0.0 0.0

-6.246615454907921e6 634025.7693327392 0.0
634025.7693327392 7.137269470734084e6 0.0
0.0 0.0 0.0

1.805146256171763e7 9.477764621498752e6 0.0
9.477764621498752e6 -4.303738933066246e6 0.0
0.0 0.0 0.0

-904711.0949205564 7.6504586496867435e6 0.0
7.6504586496867435e6 -3.33795923287427e6 0.0
0.0 0.0 0.0

1.772759539436012e6 6.546039051342524e6 0.0
6.546039051342524e6 -6.725404618815095e6 0.0
0.0 0.0 0.0

1.7593849981107e6 6.799700687485371e6 0.0
6.799700687485371e6 -6.859450466121034e6 0.0
0.0 0.0 0.0

-5.638552584218245e6 9.052703310462698e6 0.0
9.052703310462698e6 6.150915097127251e6 0.0
0.0 0.0 0.0

-229626.34750552406 8.799513524843147e6 0.0
8.799513524843147e6 -4.838783802571161e6 0.0
0.0 0.0 0.0

-2.1180878548797863e6 1.1149258879104413e7 0.0
1.1149258879104413e7 -18134.228868804174 0.0
0.0 0.0 0.0

1.5490288039302267e6 1.20111220654297e7 0.0
1.20111220654297e7 -4.978596088310378e6 0.0
0.0 0.0 0.0

-941769.5380397264 6.6293989287992325e6 0.0
6.6293989287992325e6 -1.7756871711917967e6 0.0
0.0 0.0 0.0

1.5692477970666008e6 6.028082309356983e6 0.0
6.028082309356983e6 -3.9995936189975925e6 0.0
0.0 0.0 0.0

-648122.7530925459 4.904204118716323e6 0.0
4.904204118716323e6 -2.7521557998521207e6 0.0
0.0 0.0 0.0

-627176.2731491853 3.8299140156837176e6 0.0
3.8299140156837176e6 -961732.355221373 0.0
0.0 0.0 0.0

-430183.80781766935 9.687950817077579e6 0.0
9.687950817077579e6 -7.622550460350534e6 0.0
0.0 0.0 0.0

1.2027733330824277e6 8.534435413243666e6 0.0
8.534435413243666e6 -7.190410370353285e6 0.0
0.0 0.0 0.0

687239.0258224178 6.948018318213592e6 0.0
6.948018318213592e6 -5.228332655074482e6 0.0
0.0 0.0 0.0

164870.2094032669 7.072733063021471e6 0.0
7.072733063021471e6 -4.857318224134263e6 0.0
0.0 0.0 0.0

-1.6389740970743136e6 7.488995051477918e6 0.0
7.488995051477918e6 -1.1714470178555457e6 0.0
0.0 0.0 0.0

178501.8076438259 6.482137107047499e6 0.0
6.482137107047499e6 -4.984835955157697e6 0.0
0.0 0.0 0.0

355158.28987405705 5.605150923987423e6 0.0
5.605150923987423e6 -3.762649657194129e6 0.0
0.0 0.0 0.0

836727.532704039 5.686727047642715e6 0.0
5.686727047642715e6 -4.939954610396286e6 0.0
0.0 0.0 0.0

-1.3363139999475922e6 8.124489475072031e6 0.0
8.124489475072031e6 -3.1684435705478406e6 0.0
0.0 0.0 0.0

-1.2096649458811646e6 3.686234908537107e6 0.0
3.686234908537107e6 -1.1861276550796677e6 0.0
0.0 0.0 0.0

-4.25253377257483e6 1.0984154838062517e7 0.0
1.0984154838062517e7 -819883.4592713108 0.0
0.0 0.0 0.0

3.0255089752777396e6 6.928479728951271e6 0.0
6.928479728951271e6 -1.0502897893097112e7 0.0
0.0 0.0 0.0

-1.6345429866968833e6 8.482069375449723e6 0.0
8.482069375449723e6 -2.880228023085546e6 0.0
0.0 0.0 0.0

1.0413906464991425e6 7.061712816659444e6 0.0
7.061712816659444e6 -5.555345013682557e6 0.0
0.0 0.0 0.0

543337.8789350562 3.061328195451767e6 0.0
3.061328195451767e6 -2.575516197704121e6 0.0
0.0 0.0 0.0

1.1646795156622345e6 6.926770906524094e6 0.0
6.926770906524094e6 -5.726749048824938e6 0.0
0.0 0.0 0.0

-3.8548912292842045e6 8.471370450393597e6 0.0
8.471370450393597e6 1.7972820353648725e6 0.0
0.0 0.0 0.0

-4.412516482491472e6 1.2500876354988702e7 0.0
1.2500876354988702e7 -1.1459727485247501e6 0.0
0.0 0.0 0.0

442709.5292089996 1.0538814769932168e7 0.0
1.0538814769932168e7 -6.698098564608655e6 0.0
0.0 0.0 0.0

1.246080008867597e6 6.277281322659524e6 0.0
6.277281322659524e6 -4.370561133484241e6 0.0
0.0 0.0 0.0

-4.575762564050192e6 1.2280678387657776e7 0.0
1.2280678387657776e7 336779.31704318523 0.0
0.0 0.0 0.0

-2.958780308751087e6 1.0576268550933816e7 0.0
1.0576268550933816e7 -1.6233367914308002e6 0.0
0.0 0.0 0.0

-2.195987578839547e6 5.458455129800419e6 0.0
5.458455129800419e6 579887.2170525116 0.0
0.0 0.0 0.0

-3.2040248136034138e6 1.155726536553508e7 0.0
1.155726536553508e7 3.0472590757254595e6 0.0
0.0 0.0 0.0

-99051.12192401523 2.5147324262302443e6 0.0
2.5147324262302443e6 -3.2629509392907703e6 0.0
0.0 0.0 0.0

-806558.2445501331 5.17961458985429e6 0.0
5.17961458985429e6 -1.783927670178505e6 0.0
0.0 0.0 0.0

-1.0372728891382506e7 1.088070326696173e6 0.0
1.088070326696173e6 1.5485631678161351e7 0.0
0.0 0.0 0.0

-2.421276814680679e6 5.874525510363253e6 0.0
5.874525510363253e6 -154698.03959974833 0.0
0.0 0.0 0.0

1.92533778046251e6 9.088185464394303e6 0.0
9.088185464394303e6 -2.5436801099402765e6 0.0
0.0 0.0 0.0

-1.190249583169646e6 7.940227473603939e6 0.0
7.940227473603939e6 -3.011345748701822e6 0.0
0.0 0.0 0.0

-1.7070098503443098e6 8.178135058362141e6 0.0
8.178135058362141e6 -3.201818754956527e6 0.0
0.0 0.0 0.0

1.3072896085311132e6 9.451562033434805e6 0.0
9.451562033434805e6 -9.907339826090405e6 0.0
0.0 0.0 0.0

3.0070923671743376e6 7.137173381331285e6 0.0
7.137173381331285e6 -1.0838555329144776e7 0.0
0.0 0.0 0.0

-4.268319776320397e6 4.660442142581409e6 0.0
4.660442142581409e6 3.4697576280632433e6 0.0
0.0 0.0 0.0

-5.421950541863665e6 9.977591822693773e6 0.0
9.977591822693773e6 3.6352093231891873e6 0.0
0.0 0.0 0.0

-8.490635147457223e6 -113776.67897237431 0.0
-113776.67897237431 9.757172270293774e6 0.0
0.0 0.0 0.0

-2.283143101031295e6 1.0398725546714226e7 0.0
1.0398725546714226e7 -2.600146160675584e6 0.0
0.0 0.0 0.0

-1.8473770271924273e6 1.0919692279955208e7 0.0
1.0919692279955208e7 -4.049712128837613e6 0.0
0.0 0.0 0.0

4.60094644880289e6 4.485949820349595e6 0.0
4.485949820349595e6 315036.0250021983 0.0
0.0 0.0 0.0

245402.80448025512 7.076438117850983e6 0.0
7.076438117850983e6 -4.649249511515948e6 0.0
0.0 0.0 0.0

-3.0796715283827535e6 6.784919484323146e6 0.0
6.784919484323146e6 1.1526276854648364e6 0.0
0.0 0.0 0.0

316372.95988486847 1.0047925637816528e7 0.0
1.0047925637816528e7 -7.024000951107228e6 0.0
0.0 0.0 0.0

-1.3322283891033395e6 8.112583790866165e6 0.0
8.112583790866165e6 -3.113832298904691e6 0.0
0.0 0.0 0.0

-1.2070141431775647e6 8.533501578069748e6 0.0
8.533501578069748e6 -3.405450509037274e6 0.0
0.0 0.0 0.0

-9.282886382716876e6 3.7811311971438704e6 0.0
3.7811311971438704e6 1.2995837748527545e7 0.0
0.0 0.0 0.0

-3.2023223334626197e6 5.3961936036106665e6 0.0
5.3961936036106665e6 2.0106290529203983e6 0.0
0.0 0.0 0.0

-1.6189502583523607e6 8.124205630074678e6 0.0
8.124205630074678e6 -3.1528670651263315e6 0.0
0.0 0.0 0.0

-2.668541705109003e6 9.212754074434383e6 0.0
9.212754074434383e6 -1.9740841980953075e6 0.0
0.0 0.0 0.0

-3.878059069708864e6 7.41218548792596e6 0.0
7.41218548792596e6 3.348044264387323e6 0.0
0.0 0.0 0.0

-4.861222608957128e6 1.0692474629154602e7 0.0
1.0692474629154602e7 1.2819053286619096e6 0.0
0.0 0.0 0.0

1.408452883147927e6 8.617113617291382e6 0.0
8.617113617291382e6 -7.679463871777064e6 0.0
0.0 0.0 0.0

-6.929094374533454e6 1.1961378245638939e7 0.0
1.1961378245638939e7 4.651163958941093e6 0.0
0.0 0.0 0.0

-3.2606578451970485e6 6.883336430739732e6 0.0
6.883336430739732e6 1.265561168066879e6 0.0
0.0 0.0 0.0

-4.792711092371679e6 1.2740107702538861e7 0.0
1.2740107702538861e7 1.5078828472674072e6 0.0
0.0 0.0 0.0

-384111.61961692525 1.0352511828273604e7 0.0
1.0352511828273604e7 -1.5636414343482514e6 0.0
0.0 0.0 0.0

403300.5753963762 1.0749011791648338e7 0.0
1.0749011791648338e7 -6.370408337712077e6 0.0
0.0 0.0 0.0

-1.3860692598064796e6 1.0583231913488602e7 0.0
1.0583231913488602e7 -1.5034231028463286e6 0.0
0.0 0.0 0.0

-5.790887836503429e6 1.0095156365485692e7 0.0
1.0095156365485692e7 4.140257535696108e6 0.0
0.0 0.0 0.0

-2.149651683280708e6 9.428187914788624e6 0.0
9.428187914788624e6 -2.415565317380217e6 0.0
0.0 0.0 0.0

-1.533964645846616e6 7.9998191984326e6 0.0
7.9998191984326e6 -3.092701719954939e6 0.0
0.0 0.0 0.0

428240.49778049206 1.0424443690441106e7 0.0
1.0424443690441106e7 -6.758120818840958e6 0.0
0.0 0.0 0.0

-579471.1414013747 7.080622634730219e6 0.0
7.080622634730219e6 -3.277257255987718e6 0.0
0.0 0.0 0.0

-4.316932533903954e6 9.371434539041774e6 0.0
9.371434539041774e6 1.3829939449391786e6 0.0
0.0 0.0 0.0

-4.645615829284033e6 1.0666292261875145e7 0.0
1.0666292261875145e7 792347.2250782084 0.0
0.0 0.0 0.0

1.455023202763938e6 2.4008707434818167e6 0.0
2.4008707434818167e6 -3.2538248304952984e6 0.0
0.0 0.0 0.0

-262734.36298478325 7.017068177877843e6 0.0
7.017068177877843e6 -4.114801781244312e6 0.0
0.0 0.0 0.0

-5.036407059985209e6 1.0985022292645242e7 0.0
1.0985022292645242e7 2.067981934774812e6 0.0
0.0 0.0 0.0

-4.066227980246661e6 8.192155840251375e6 0.0
8.192155840251375e6 1.3455415443555906e6 0.0
0.0 0.0 0.0

-3.0788305848292768e7 -2.7082638005596926e6 0.0
-2.7082638005596926e6 1.0600586674708363e7 0.0
0.0 0.0 0.0

537359.9959121579 9.89726637677305e6 0.0
9.89726637677305e6 -6.817207799069078e6 0.0
0.0 0.0 0.0

-4.0847501801576316e6 7.897700519318599e6 0.0
7.897700519318599e6 1.6878173097635931e6 0.0
0.0 0.0 0.0

-3.7199462707503797e6 1.01599521777769e7 0.0
1.01599521777769e7 185677.78706613067 0.0
0.0 0.0 0.0

-4.4447090213888325e6 8.30314471379527e6 0.0
8.30314471379527e6 2.0411228504210287e6 0.0
0.0 0.0 0.0

-1.0594973938866633e6 1.1673449428642778e7 0.0
1.1673449428642778e7 -295812.6712319264 0.0
0.0 0.0 0.0

-2.7888185728211054e6 9.98511336955828e6 0.0
9.98511336955828e6 -1.8264330642644195e6 0.0
0.0 0.0 0.0

-3.343898862633392e6 6.925652860493537e6 0.0
6.925652860493537e6 1.202652713319609e6 0.0
0.0 0.0 0.0

-2.8967794800408576e6 3.9859182238810305e6 0.0
3.9859182238810305e6 2.713965889896833e6 0.0
0.0 0.0 0.0

-774056.3882980805 7.336285612913876e6 0.0
7.336285612913876e6 -2.697426377500913e6 0.0
0.0 0.0 0.0

3.3400209311039e6 6.348543576597032e6 0.0
6.348543576597032e6 -5.712612902651192e6 0.0
0.0 0.0 0.0

-2.0785365996764868e6 8.42951717559557e6 0.0
8.42951717559557e6 -2.043701263295923e6 0.0
0.0 0.0 0.0

-3.157135789415106e6 1.060345739163784e7 0.0
1.060345739163784e7 -2.3007466652766704e6 0.0
0.0 0.0 0.0

-3.7277215510112345e6 7.810664816635825e6 0.0
7.810664816635825e6 975697.6722232497 0.0
0.0 0.0 0.0

-1.5685743265689746e6 7.721468125219207e6 0.0
7.721468125219207e6 -2.0338538743596973e6 0.0
0.0 0.0 0.0

-563136.4833160152 3.087628752875527e6 0.0
3.087628752875527e6 -723708.7826242697 0.0
0.0 0.0 0.0

3.126040972011447e6 6.1117983832971575e6 0.0
6.1117983832971575e6 -6.415266871083783e6 0.0
0.0 0.0 0.0

-7.507866192868819e6 1.3328408264920218e6 0.0
1.3328408264920218e6 1.02437358423761e7 0.0
0.0 0.0 0.0

-1.517231335424971e6 3.911243507809241e6 0.0
3.911243507809241e6 96596.34887453436 0.0
0.0 0.0 0.0

-3.095691936292782e6 1.0323248809257768e7 0.0
1.0323248809257768e7 4.4897794061935255e6 0.0
0.0 0.0 0.0

-2.9567809642580473e6 9.507485143883111e6 0.0
9.507485143883111e6 -1.6900614662828753e6 0.0
0.0 0.0 0.0

-36059.255983392475 6.919301561345952e6 0.0
6.919301561345952e6 -4.280201028618476e6 0.0
0.0 0.0 0.0

-8.653171485034794e6 787482.4095696459 0.0
787482.4095696459 1.1960635392077362e7 0.0
0.0 0.0 0.0

-3.81164375791196e6 1.036171871254407e7 0.0
1.036171871254407e7 128257.66913687577 0.0
0.0 0.0 0.0

-1.759269249613763e6 6.202440148325062e6 0.0
6.202440148325062e6 -1.3847717727790624e6 0.0
0.0 0.0 0.0

-439545.4129515343 5.195277422128578e6 0.0
5.195277422128578e6 -2.3088663778142245e6 0.0
0.0 0.0 0.0

-1.0265842492771785e6 7.375230715365452e6 0.0
7.375230715365452e6 -2.739003644444379e6 0.0
0.0 0.0 0.0

435202.59449194325 9.961841152563496e6 0.0
9.961841152563496e6 -8.017880614702955e6 0.0
0.0 0.0 0.0

-3.8619780684995097e6 8.335122849462313e6 0.0
8.335122849462313e6 1.990355748033501e6 0.0
0.0 0.0 0.0

-1.3418718574114353e6 1.0802746780365795e7 0.0
1.0802746780365795e7 -3.9205030254370575e6 0.0
0.0 0.0 0.0

-9.843759181067932e6 1.0866307683548778e7 0.0
1.0866307683548778e7 2.206104841735289e7 0.0
0.0 0.0 0.0

-1.290103625520791e6 9.370948707061589e6 0.0
9.370948707061589e6 3.0894805328330896e6 0.0
0.0 0.0 0.0

-3.0279093946593385e6 6.735148270226092e6 0.0
6.735148270226092e6 1.3640760071317994e6 0.0
0.0 0.0 0.0

730757.6513459557 8.628424225253357e6 0.0
8.628424225253357e6 -6.324861799798322e6 0.0
0.0 0.0 0.0

-1.6128579418248017e6 7.990903842740422e6 0.0
7.990903842740422e6 -1.6238085071468775e6 0.0
0.0 0.0 0.0

-2.5078788432653537e6 1.204810590025796e7 0.0
1.204810590025796e7 -3.1763805349900685e6 0.0
0.0 0.0 0.0

-5.417162645133139e6 1.027067812305196e7 0.0
1.027067812305196e7 3.393530243067582e6 0.0
0.0 0.0 0.0

-4.493428656971304e6 1.0615379614401221e7 0.0
1.0615379614401221e7 485364.34197101626 0.0
0.0 0.0 0.0

263362.2319228789 1.0940695020747649e7 0.0
1.0940695020747649e7 -6.007983059340552e6 0.0
0.0 0.0 0.0

-1.269441424485174e6 7.66012660631105e6 0.0
7.66012660631105e6 -1.9515074427629209e6 0.0
0.0 0.0 0.0

-4.420753076704338e6 8.427566373405127e6 0.0
8.427566373405127e6 1.8789120658937714e6 0.0
0.0 0.0 0.0

-2.0105772074133395e6 5.407336200702301e6 0.0
5.407336200702301e6 194585.23499259027 0.0
0.0 0.0 0.0

2.4257204536264404e6 6.596183348985539e6 0.0
6.596183348985539e6 -5.811613396608058e6 0.0
0.0 0.0 0.0

-1.9574938849374752e6 8.508226361351224e6 0.0
8.508226361351224e6 -1.647132357778594e6 0.0
0.0 0.0 0.0

601710.7357565705 6.800891120290854e6 0.0
6.800891120290854e6 -5.0701871113213105e6 0.0
0.0 0.0 0.0

-3.1297904732731404e6 8.507545999055576e6 0.0
8.507545999055576e6 692411.1111571947 0.0
0.0 0.0 0.0

-6329.999051752617 5.430697089480401e6 0.0
5.430697089480401e6 -2.941513342634273e6 0.0
0.0 0.0 0.0

-6.154421006397696e6 1.2063433531935634e7 0.0
1.2063433531935634e7 2.1526979552296447e6 0.0
0.0 0.0 0.0

-2.3108417358579226e7 -4.417502640860707e6 0.0
-4.417502640860707e6 1.0433898393750278e7 0.0
0.0 0.0 0.0

369959.70951216854 5.791485666948614e6 0.0
5.791485666948614e6 -3.484955317177917e6 0.0
0.0 0.0 0.0

548407.476633939 9.847521713441022e6 0.0
9.847521713441022e6 -8.607134249763332e6 0.0
0.0 0.0 0.0

-79437.93578582513 1.174290645530281e7 0.0
1.174290645530281e7 -4.853681951694037e6 0.0
0.0 0.0 0.0

-1.0027031433782957e6 7.763890589223602e6 0.0
7.763890589223602e6 -3.371452801812872e6 0.0
0.0 0.0 0.0

-404430.90478964895 1.0424119402316123e7 0.0
1.0424119402316123e7 -5.274644334719622e6 0.0
0.0 0.0 0.0

761517.8247747913 6.227977537917408e6 0.0
6.227977537917408e6 -3.876530945809519e6 0.0
0.0 0.0 0.0

1.0234277990864329e6 6.788601378931254e6 0.0
6.788601378931254e6 -5.40229017971355e6 0.0
0.0 0.0 0.0

-5.070366396658512e6 1.074467677827808e7 0.0
1.074467677827808e7 1.6862859481867955e6 0.0
0.0 0.0 0.0

1.3491909993652722e6 5.507138423523093e6 0.0
5.507138423523093e6 -4.380100731892092e6 0.0
0.0 0.0 0.0

-312083.86196682765 7.088677490453741e6 0.0
7.088677490453741e6 -4.39541184982098e6 0.0
0.0 0.0 0.0

-6.777722349579539e6 1.2324455822156651e7 0.0
1.2324455822156651e7 2.860160752247828e6 0.0
0.0 0.0 0.0

2.113222098417692e6 9.553025762881164e6 0.0
9.553025762881164e6 -3.4893741686104448e6 0.0
0.0 0.0 0.0

-3.128120646057826e6 1.2135231607024414e7 0.0
1.2135231607024414e7 -1.5033070297494354e6 0.0
0.0 0.0 0.0

3.4526142195606357e6 8.102294814599515e6 0.0
8.102294814599515e6 -1.1681856060458295e7 0.0
0.0 0.0 0.0

-6.368325580632679e6 6.498085038379864e6 0.0
6.498085038379864e6 8.96174609051251e6 0.0
0.0 0.0 0.0

-4.56111376397549e6 1.0300017260307845e7 0.0
1.0300017260307845e7 1.911166132099032e6 0.0
0.0 0.0 0.0

218121.14446261828 6.640991683395456e6 0.0
6.640991683395456e6 -4.86667782169494e6 0.0
0.0 0.0 0.0

883220.7593746518 6.5352141024660785e6 0.0
6.5352141024660785e6 -3.9683971056752643e6 0.0
0.0 0.0 0.0

281077.45909136813 6.776871080554513e6 0.0
6.776871080554513e6 -4.440877966270837e6 0.0
0.0 0.0 0.0

-6.761098566726481e6 1.1544133508916145e7 0.0
1.1544133508916145e7 4.838910476180942e6 0.0
0.0 0.0 0.0

-997368.367076231 3.8103928541165497e6 0.0
3.8103928541165497e6 117310.1493941517 0.0
0.0 0.0 0.0

-5.486962790049987e6 5.580286902338579e6 0.0
5.580286902338579e6 6.050282926818432e6 0.0
0.0 0.0 0.0

-4.383330806348803e6 1.0622881800570859e7 0.0
1.0622881800570859e7 851867.4480791972 0.0
0.0 0.0 0.0

-960935.6643402786 8.174251486135183e6 0.0
8.174251486135183e6 -3.728202256307988e6 0.0
0.0 0.0 0.0

-3.1163874282672713e6 1.0837767304267019e7 0.0
1.0837767304267019e7 3.6749062927126624e6 0.0
0.0 0.0 0.0

-1.9020454279529178e6 8.0505200811265e6 0.0
8.0505200811265e6 -1.7041080862819157e6 0.0
0.0 0.0 0.0

-1.6160774020760288e6 8.43012066529257e6 0.0
8.43012066529257e6 -2.83131834317526e6 0.0
0.0 0.0 0.0

731212.7653582962 9.812107421483472e6 0.0
9.812107421483472e6 -8.116946722468009e6 0.0
0.0 0.0 0.0

-3.5898055075791436e6 1.2688532769215912e7 0.0
1.2688532769215912e7 -872404.9956589446 0.0
0.0 0.0 0.0

1.3478879668552782e6 9.44673883717481e6 0.0
9.44673883717481e6 -9.692565081723537e6 0.0
0.0 0.0 0.0

-1.889042348139436e6 5.096761626574682e6 0.0
5.096761626574682e6 36362.215556994895 0.0
0.0 0.0 0.0

-1.404255689271737e6 1.4283826637399836e7 0.0
1.4283826637399836e7 1.4564515814048434e7 0.0
0.0 0.0 0.0

-6.553278157286672e6 1.1176122624845969e7 0.0
1.1176122624845969e7 4.580922778773121e6 0.0
0.0 0.0 0.0

-2.064016118238877e6 8.337780825251866e6 0.0
8.337780825251866e6 -1.7128065469694706e6 0.0
0.0 0.0 0.0

-180786.15901454934 1.2379830314929463e7 0.0
1.2379830314929463e7 -4.416372667083235e6 0.0
0.0 0.0 0.0

-4.161871862192202e6 1.0610511680664025e7 0.0
1.0610511680664025e7 467679.59092107485 0.0
0.0 0.0 0.0

-993257.9735974307 4.1638695038402257e6 0.0
4.1638695038402257e6 -1.6901411365088064e6 0.0
0.0 0.0 0.0

94073.62118987809 1.1136286984854965e7 0.0
1.1136286984854965e7 -5.6368937081672065e6 0.0
0.0 0.0 0.0

38073.79115614272 9.02011137764336e6 0.0
9.02011137764336e6 -5.389046963017918e6 0.0
0.0 0.0 0.0

-248104.25182511332 9.095759223250203e6 0.0
9.095759223250203e6 -4.991657737326797e6 0.0
0.0 0.0 0.0

-1.7347275598527659e6 8.125906192294682e6 0.0
8.125906192294682e6 -2.7353177217727825e6 0.0
0.0 0.0 0.0

1.573309931615331e6 1.4139346698964994e7 0.0
1.4139346698964994e7 -5.714001405759769e6 0.0
0.0 0.0 0.0

-337985.58405540325 7.287889834442827e6 0.0
7.287889834442827e6 -4.0837877705283607e6 0.0
0.0 0.0 0.0

3.610969761617875e6 6.395016218165851e6 0.0
6.395016218165851e6 -6.2258285583163025e6 0.0
0.0 0.0 0.0

272975.39226833824 8.89042723583096e6 0.0
8.89042723583096e6 -5.701026479575341e6 0.0
0.0 0.0 0.0

2.7667030323817325e6 7.139303079453585e6 0.0
7.139303079453585e6 -1.0199933928404236e7 0.0
0.0 0.0 0.0

-1.2659992224969438e6 4.005129361806557e6 0.0
4.005129361806557e6 -1.211943628228239e6 0.0
0.0 0.0 0.0

-4.30262177670085e6 9.008917085952437e6 0.0
9.008917085952437e6 1.4152625162515084e6 0.0
0.0 0.0 0.0

1.1758888874477723e6 6.047396063863574e6 0.0
6.047396063863574e6 -5.75623396906617e6 0.0
0.0 0.0 0.0

2.7008166467389544e6 6.609710549966189e6 0.0
6.609710549966189e6 -6.122895164540786e6 0.0
0.0 0.0 0.0

-1.6048434416972576e6 8.226915023525165e6 0.0
8.226915023525165e6 -2.31194244547382e6 0.0
0.0 0.0 0.0

-9.666692100494422e6 4.67229847426774e6 0.0
4.67229847426774e6 1.3763736663883941e7 0.0
0.0 0.0 0.0

-5.689995880164604e6 1.040632951100415e7 0.0
1.040632951100415e7 4.762346165262973e6 0.0
0.0 0.0 0.0

-1.17998527390841e6 4.549963765339262e6 0.0
4.549963765339262e6 -1.7037174403142422e6 0.0
0.0 0.0 0.0

-5.703620935765606e6 9.379405938048264e6 0.0
9.379405938048264e6 5.68098751495331e6 0.0
0.0 0.0 0.0

454147.48935319716 6.127644838415639e6 0.0
6.127644838415639e6 -4.679556768014861e6 0.0
0.0 0.0 0.0

462091.15621966776 8.772736871332888e6 0.0
8.772736871332888e6 -6.094176021574821e6 0.0
0.0 0.0 0.0

-1.6605407823664453e7 2.1855150681076635e7 0.0
2.1855150681076635e7 1.1178610161992311e7 0.0
0.0 0.0 0.0

-2.0975707698575873e6 5.632312919755084e6 0.0
5.632312919755084e6 -628554.352692865 0.0
0.0 0.0 0.0

-1.6923095072978153e6 4.512025151570382e6 0.0
4.512025151570382e6 -162010.78097695456 0.0
0.0 0.0 0.0

-1.6455718812469295e6 1.0559548148045946e7 0.0
1.0559548148045946e7 -4.301573697485106e6 0.0
0.0 0.0 0.0

-510043.1848658513 9.170076935903579e6 0.0
9.170076935903579e6 -4.659329914843753e6 0.0
0.0 0.0 0.0

-991483.6183607706 940955.936062568 0.0
940955.936062568 1.1790211968042012e6 0.0
0.0 0.0 0.0

-972562.9059186298 -1.5960323211799131e6 0.0
-1.5960323211799131e6 3.6973394192438894e6 0.0
0.0 0.0 0.0

-6.891462476937234e6 1.1547182457432715e7 0.0
1.1547182457432715e7 4.847712114810063e6 0.0
0.0 0.0 0.0

-3.733388182902e6 7.625329990773975e6 0.0
7.625329990773975e6 1.1558520832226456e6 0.0
0.0 0.0 0.0

-6.686469593076636e6 1.151641884110894e7 0.0
1.151641884110894e7 4.253950462273926e6 0.0
0.0 0.0 0.0

878866.8090685178 7.149032913991909e6 0.0
7.149032913991909e6 -5.396113356673997e6 0.0
0.0 0.0 0.0

-4.370777061712071e6 8.549690484270245e6 0.0
8.549690484270245e6 1.706646184312323e6 0.0
0.0 0.0 0.0

-2.8774656385362637e6 2.328081839469522e6 0.0
2.328081839469522e6 3.137921452388395e6 0.0
0.0 0.0 0.0

-2.734654748985965e7 -3.7964848264495744e6 0.0
-3.7964848264495744e6 1.223186652905082e7 0.0
0.0 0.0 0.0

-4.679655931589542e6 9.369162860795619e6 0.0
9.369162860795619e6 1.8248306788860632e6 0.0
0.0 0.0 0.0

-5.57202004061293e6 9.793878171026677e6 0.0
9.793878171026677e6 5.437202100762072e6 0.0
0.0 0.0 0.0

-5.062432816221294e6 1.2048679271561354e7 0.0
1.2048679271561354e7 -44983.50050360942 0.0
0.0 0.0 0.0

2.4642099876980637e6 5.952240775654129e6 0.0
5.952240775654129e6 -5.872959056375135e6 0.0
0.0 0.0 0.0

-2.704810626213517e6 6.350969905804494e6 0.0
6.350969905804494e6 165680.22005876713 0.0
0.0 0.0 0.0

-5.468040742599706e6 1.2015319247279288e7 0.0
1.2015319247279288e7 903616.2837818507 0.0
0.0 0.0 0.0

-3.3611227511223257e6 1.2371839432635885e7 0.0
1.2371839432635885e7 595319.863326571 0.0
0.0 0.0 0.0

385637.70226503396 7.041891910056993e6 0.0
7.041891910056993e6 -5.080460930858289e6 0.0
0.0 0.0 0.0

-5.719791562819561e6 1.0067722501523508e7 0.0
1.0067722501523508e7 5.193931749437204e6 0.0
0.0 0.0 0.0

-2.336903308884658e6 9.145051071922865e6 0.0
9.145051071922865e6 -1.866519889628183e6 0.0
0.0 0.0 0.0

3.187607862604675e6 6.679799322150973e6 0.0
6.679799322150973e6 -1.0600616858569808e7 0.0
0.0 0.0 0.0

-8.65940419404633e6 -3.1051430390603384e6 0.0
-3.1051430390603384e6 1.1272310436716698e7 0.0
0.0 0.0 0.0

54884.61527638929 6.893972426082769e6 0.0
6.893972426082769e6 -4.669801230718829e6 0.0
0.0 0.0 0.0

1.9974154642890291e6 6.839971090028506e6 0.0
6.839971090028506e6 -7.364967943412815e6 0.0
0.0 0.0 0.0

1.0715254532557868e6 1.0033048267176984e7 0.0
1.0033048267176984e7 -5.469522463502514e6 0.0
0.0 0.0 0.0

1.7584353426472591e6 8.736724963732416e6 0.0
8.736724963732416e6 -9.733708741474463e6 0.0
0.0 0.0 0.0

-7.7690785295207985e6 1.3854156000579217e7 0.0
1.3854156000579217e7 3.1082717977744094e6 0.0
0.0 0.0 0.0

-8.084198268782679e6 8.519178885393778e6 0.0
8.519178885393778e6 1.1796268532953827e7 0.0
0.0 0.0 0.0

-7.329567312115898e6 -1.8891276195513888e6 0.0
-1.8891276195513888e6 9.906761804195965e6 0.0
0.0 0.0 0.0

-2.623393698880701e6 9.44242980117635e6 0.0
9.44242980117635e6 -1.596539514127531e6 0.0
0.0 0.0 0.0

2.1384909392812885e6 7.360760587568163e6 0.0
7.360760587568163e6 -9.018353406657651e6 0.0
0.0 0.0 0.0

-2.625310797733917e6 8.557352707823133e6 0.0
8.557352707823133e6 -229461.60202598548 0.0
0.0 0.0 0.0

-3.9853612147096703e6 8.66856001337115e6 0.0
8.66856001337115e6 1.040875227802885e6 0.0
0.0 0.0 0.0

-1.9523900352537087e6 4.607495037757536e6 0.0
4.607495037757536e6 1.372406441932341e6 0.0
0.0 0.0 0.0

-3.467733906717502e6 1.3051593356109805e7 0.0
1.3051593356109805e7 -1.019907388481507e6 0.0
0.0 0.0 0.0

1.4190516863421656e6 9.806430601934116e6 0.0
9.806430601934116e6 -4.7445621294862395e6 0.0
0.0 0.0 0.0

-4.509455568973659e6 1.0705887892429661e7 0.0
1.0705887892429661e7 1.2335533054383004e6 0.0
0.0 0.0 0.0

3.303295336326442e6 5.961638330970303e6 0.0
5.961638330970303e6 -1.0031577949243303e7 0.0
0.0 0.0 0.0

-4.3593315997191295e6 8.78345491290988e6 0.0
8.78345491290988e6 1.516345195526256e6 0.0
0.0 0.0 0.0

-1.087154907004749e6 7.785067088491082e6 0.0
7.785067088491082e6 -3.3969897847425235e6 0.0
0.0 0.0 0.0

-1.253523805894504e6 5.283657431440241e6 0.0
5.283657431440241e6 -1.9327164885426187e6 0.0
0.0 0.0 0.0

-1.117353225698715e6 7.658851181356431e6 0.0
7.658851181356431e6 -2.319906807781911e6 0.0
0.0 0.0 0.0

-831725.3206387116 3.2527708301886036e6 0.0
3.2527708301886036e6 -1.7719229978002326e6 0.0
0.0 0.0 0.0

1.4136625146498787e6 9.881964032830747e6 0.0
9.881964032830747e6 -4.64657089743903e6 0.0
0.0 0.0 0.0

-6.504867043832634e6 1.8747225661711586e6 0.0
1.8747225661711586e6 9.61741512981052e6 0.0
0.0 0.0 0.0

-1.5699684524859549e6 8.375345547224149e6 0.0
8.375345547224149e6 -2.777699703630759e6 0.0
0.0 0.0 0.0

-272271.5487178406 3.406546036628174e6 0.0
3.406546036628174e6 -3.127885296642169e6 0.0
0.0 0.0 0.0

-7.172321078361384e6 1.1683200637727898e7 0.0
1.1683200637727898e7 5.155779853529848e6 0.0
0.0 0.0 0.0

-4.0286684357847683e6 1.0880575174002014e7 0.0
1.0880575174002014e7 -155344.2711407314 0.0
0.0 0.0 0.0

7621.9982945472 9.979252606519507e6 0.0
9.979252606519507e6 -5.897569996509099e6 0.0
0.0 0.0 0.0

-118103.68289344292 7.112690281946276e6 0.0
7.112690281946276e6 -4.42050363515684e6 0.0
0.0 0.0 0.0

-4.469001041386644e6 9.62316342107145e6 0.0
9.62316342107145e6 2.199885503547822e6 0.0
0.0 0.0 0.0

-5.3506931449246695e6 9.445366754901074e6 0.0
9.445366754901074e6 5.592806620614808e6 0.0
0.0 0.0 0.0

-6.6360624788786685e6 8.870271713753983e6 0.0
8.870271713753983e6 8.752594234667934e6 0.0
0.0 0.0 0.0

2.1943014952073316e6 7.490981969840998e6 0.0
7.490981969840998e6 -9.563383985869708e6 0.0
0.0 0.0 0.0

-4.1835136356407157e6 8.705068674822517e6 0.0
8.705068674822517e6 2.3046874160043085e6 0.0
0.0 0.0 0.0

-4.1435976021206463e6 9.063262689888697e6 0.0
9.063262689888697e6 1.932009374299986e6 0.0
0.0 0.0 0.0

-2.4965300854864847e6 6.208531860973867e6 0.0
6.208531860973867e6 625503.12762428 0.0
0.0 0.0 0.0

-7.952101435079673e6 1.4229932514087332e7 0.0
1.4229932514087332e7 3.2989001121609104e6 0.0
0.0 0.0 0.0

-1.107964965928151e6 7.772515186675746e6 0.0
7.772515186675746e6 -2.9846444536737907e6 0.0
0.0 0.0 0.0

-4.743975198357666e6 7.504923047064121e6 0.0
7.504923047064121e6 3.42586329444513e6 0.0
0.0 0.0 0.0

9112.911272452911 7.14569037305293e6 0.0
7.14569037305293e6 -4.551648233852806e6 0.0
0.0 0.0 0.0

-774519.4388260376 4.485475137112666e6 0.0
4.485475137112666e6 -1.6282992143106833e6 0.0
0.0 0.0 0.0

-4.479393524498495e6 9.850918991264846e6 0.0
9.850918991264846e6 2.077539983924187e6 0.0
0.0 0.0 0.0

-4.8298754425214045e6 1.0132506071373945e7 0.0
1.0132506071373945e7 2.39737441901714e6 0.0
0.0 0.0 0.0

-1.4759876992278346e6 8.248066978590772e6 0.0
8.248066978590772e6 -2.70763820216399e6 0.0
0.0 0.0 0.0

1.4758084436060262e6 1.0661986547505163e7 0.0
1.0661986547505163e7 -4.931134619108916e6 0.0
0.0 0.0 0.0

-260857.92544064182 1.4721002069017056e7 0.0
1.4721002069017056e7 -4.368347386888449e6 0.0
0.0 0.0 0.0

-3.1753569513677955e6 1.1699340188438423e7 0.0
1.1699340188438423e7 2.1496962051259466e6 0.0
0.0 0.0 0.0

-1.0719150132823354e6 1.0168380103339123e7 0.0
1.0168380103339123e7 -7.777520333083381e6 0.0
0.0 0.0 0.0

-462906.31834948354 7.259987022252703e6 0.0
7.259987022252703e6 -3.737972212200514e6 0.0
0.0 0.0 0.0

-2.3965181338140587e6 3.408460397665221e6 0.0
3.408460397665221e6 2.37787295766553e6 0.0
0.0 0.0 0.0

-1.223202399480668e6 1.1763391577525318e7 0.0
1.1763391577525318e7 -355721.0531778944 0.0
0.0 0.0 0.0

-2.4361746389312455e6 1.1548854225963183e7 0.0
1.1548854225963183e7 210633.39281595952 0.0
0.0 0.0 0.0

-4.180261334517382e6 8.819260472089063e6 0.0
8.819260472089063e6 2.1078994238802996e6 0.0
0.0 0.0 0.0

-2.5018324733454674e6 1.5987225710829191e6 0.0
1.5987225710829191e6 3.484788867830719e6 0.0
0.0 0.0 0.0

-7.499022985154016e6 1.1820430998039534e7 0.0
1.1820430998039534e7 5.41925011503792e6 0.0
0.0 0.0 0.0

-4.63021288250254e6 9.631834790293911e6 0.0
9.631834790293911e6 1.6600841626380864e6 0.0
0.0 0.0 0.0

1.824053556066723e6 8.918492545261608e6 0.0
8.918492545261608e6 -2.899075217041389e6 0.0
0.0 0.0 0.0

-64519.6129646598 9.856693309209649e6 0.0
9.856693309209649e6 -215065.3424939312 0.0
0.0 0.0 0.0

-4.220102634317255e6 8.604273181099933e6 0.0
8.604273181099933e6 2.5020994653807636e6 0.0
0.0 0.0 0.0

-4.6429650100423945e6 8.330926551409651e6 0.0
8.330926551409651e6 2.763337963398478e6 0.0
0.0 0.0 0.0

766401.2332270187 7.189511474653156e6 0.0
7.189511474653156e6 -5.078741444625435e6 0.0
0.0 0.0 0.0

-4.666730345807418e6 1.0899863800617084e7 0.0
1.0899863800617084e7 1.1517300276134065e6 0.0
0.0 0.0 0.0

-3.581316495200075e6 7.00828647407355e6 0.0
7.00828647407355e6 2.713041804557782e6 0.0
0.0 0.0 0.0

736971.5520583207 5.8194656033518035e6 0.0
5.8194656033518035e6 -5.419054165705419e6 0.0
0.0 0.0 0.0

-4.174877602037859e6 1.0383229474440744e7 0.0
1.0383229474440744e7 120111.76958097494 0.0
0.0 0.0 0.0

-3.80462530976603e6 8.683820991763802e6 0.0
8.683820991763802e6 1.6422590359290652e6 0.0
0.0 0.0 0.0

72276.84365279693 2.950110986574059e6 0.0
2.950110986574059e6 -4.1229748023250164e6 0.0
0.0 0.0 0.0

-329238.57283668383 6.876903645021068e6 0.0
6.876903645021068e6 -4.732043350785349e6 0.0
0.0 0.0 0.0

-1.3852585137856435e7 1.98580785539835e7 0.0
1.98580785539835e7 9.89978870649178e6 0.0
0.0 0.0 0.0

3.949079546796222e6 8.3082498902524775e6 0.0
8.3082498902524775e6 -1.3039886480787491e7 0.0
0.0 0.0 0.0

1.2564989390925555e6 6.266488035149049e6 0.0
6.266488035149049e6 -6.405501012347795e6 0.0
0.0 0.0 0.0

174748.01518029463 8.115322173054806e6 0.0
8.115322173054806e6 -5.044924042674535e6 0.0
0.0 0.0 0.0

-2.4842610911448663e6 1.1694676409076046e7 0.0
1.1694676409076046e7 1.2987189675056324e6 0.0
0.0 0.0 0.0

349879.0141717857 9.681961978524623e6 0.0
9.681961978524623e6 -7.191398508147933e6 0.0
0.0 0.0 0.0

-210185.18760182615 7.140623600824788e6 0.0
7.140623600824788e6 -3.976160284763862e6 0.0
0.0 0.0 0.0

-987145.0532336109 5.273443312767588e6 0.0
5.273443312767588e6 -2.4014140452591465e6 0.0
0.0 0.0 0.0

-727523.5189339464 1.082910554147846e7 0.0
1.082910554147846e7 1.976545135153071e6 0.0
0.0 0.0 0.0

-7.6411171633249875e6 8.524091689195236e6 0.0
8.524091689195236e6 1.0644583013553865e7 0.0
0.0 0.0 0.0

-577175.7395506357 8.236793581258623e6 0.0
8.236793581258623e6 6.7508392291517295e6 0.0
0.0 0.0 0.0

-9.296378864551466e6 1.2612834271694582e7 0.0
1.2612834271694582e7 6.574688048006251e6 0.0
0.0 0.0 0.0

-1.9136329840828031e6 8.280299774407503e6 0.0
8.280299774407503e6 -2.3848717490983093e6 0.0
0.0 0.0 0.0

-1.140223930074695e7 8.843962868397992e6 0.0
8.843962868397992e6 3.0794146211388116e6 0.0
0.0 0.0 0.0

-2.0368183496024692e6 8.862884182797996e6 0.0
8.862884182797996e6 -2.151710029673122e6 0.0
0.0 0.0 0.0

-3.881723101207199e6 8.946130248423818e6 0.0
8.946130248423818e6 1.452664129828959e6 0.0
0.0 0.0 0.0

-1.1558857613117234e6 7.776678987300281e6 0.0
7.776678987300281e6 -2.6331601887106597e6 0.0
0.0 0.0 0.0

557308.6666653063 1.0001011801494794e7 0.0
1.0001011801494794e7 -7.80424212675383e6 0.0
0.0 0.0 0.0

357532.8855230331 5.848746453052952e6 0.0
5.848746453052952e6 -5.189700565389492e6 0.0
0.0 0.0 0.0

2.035019851587113e6 8.342352712866067e6 0.0
8.342352712866067e6 -8.834523260109628e6 0.0
0.0 0.0 0.0

-2.036567153866719e6 1.0933355921456333e7 0.0
1.0933355921456333e7 2.5021233489311817e6 0.0
0.0 0.0 0.0

1.3130831864404166e6 6.836187162844732e6 0.0
6.836187162844732e6 -6.056125061326579e6 0.0
0.0 0.0 0.0

-4.285057501225842e6 1.0563654840021575e7 0.0
1.0563654840021575e7 72429.41514967196 0.0
0.0 0.0 0.0

-2.943107641487511e6 9.939670811687756e6 0.0
9.939670811687756e6 -2.317983655470937e6 0.0
0.0 0.0 0.0

-1.2226311666480158e6 7.36934191200466e6 0.0
7.36934191200466e6 -2.3882725164316134e6 0.0
0.0 0.0 0.0

-2.356613749804148e6 6.678043993458328e6 0.0
6.678043993458328e6 -649927.8574766984 0.0
0.0 0.0 0.0

-5.12834320387944e6 7.622038346198742e6 0.0
7.622038346198742e6 4.085238337107362e6 0.0
0.0 0.0 0.0

378487.1229416854 6.774051079107479e6 0.0
6.774051079107479e6 -4.867302497726805e6 0.0
0.0 0.0 0.0

-1.14715174028021e7 1.3166020249712748e7 0.0
1.3166020249712748e7 7.959301921071493e6 0.0
0.0 0.0 0.0

-7.915105284561528e6 1.1892677353691757e7 0.0
1.1892677353691757e7 5.786914456666503e6 0.0
0.0 0.0 0.0

-5.998677726859106e6 8.222385467547742e6 0.0
8.222385467547742e6 5.696292723395117e6 0.0
0.0 0.0 0.0

-1.4061949303830506e6 7.102898540575535e6 0.0
7.102898540575535e6 -4.6873164163928935e6 0.0
0.0 0.0 0.0

-779575.9789892128 9.219457566550268e6 0.0
9.219457566550268e6 -4.240830924295775e6 0.0
0.0 0.0 0.0

1.1250015274441084e6 6.722411439544831e6 0.0
6.722411439544831e6 -5.526649155654886e6 0.0
0.0 0.0 0.0

-5.1119883425522875e6 1.1501668593339678e7 0.0
1.1501668593339678e7 3.8613863865039423e6 0.0
0.0 0.0 0.0

-2.909744869122739e6 5.337461081592735e6 0.0
5.337461081592735e6 1.480758887827344e6 0.0
0.0 0.0 0.0

-4.340694827173735e6 1.3901558309026103e7 0.0
1.3901558309026103e7 102718.01201567426 0.0
0.0 0.0 0.0

-1.120217114836475e7 -4.6285117184417695e6 0.0
-4.6285117184417695e6 1.9265589634805188e7 0.0
0.0 0.0 0.0

-3.18122006760763e6 9.64413893339421e6 0.0
9.64413893339421e6 -1.2876066402512863e6 0.0
0.0 0.0 0.0

-2.5607547336086757e6 1.2546773509325667e6 0.0
1.2546773509325667e6 2.117395598723258e6 0.0
0.0 0.0 0.0

-879622.9355721818 3.8143341171681816e6 0.0
3.8143341171681816e6 -437020.49881521414 0.0
0.0 0.0 0.0

2.55509304284982e6 6.767709275644231e6 0.0
6.767709275644231e6 -5.526870792709549e6 0.0
0.0 0.0 0.0

-1.0185756982144143e7 4.401087984107276e6 0.0
4.401087984107276e6 1.2087829631832533e7 0.0
0.0 0.0 0.0

1.4482809168956312e6 8.354783160463776e6 0.0
8.354783160463776e6 -7.5061492702862555e6 0.0
0.0 0.0 0.0

-4.049997273538843e6 1.0402709498223027e7 0.0
1.0402709498223027e7 532557.0168235933 0.0
0.0 0.0 0.0

-4.5218655245389035e6 9.407975873246e6 0.0
9.407975873246e6 2.3422688692602096e6 0.0
0.0 0.0 0.0

-1.9441083970983229e6 8.312570119981241e6 0.0
8.312570119981241e6 -1.3065880427114682e6 0.0
0.0 0.0 0.0

-5.169257689248629e6 9.673855801293518e6 0.0
9.673855801293518e6 3.3272988124969206e6 0.0
0.0 0.0 0.0

1.4184497511457447e6 5.344239591955325e6 0.0
5.344239591955325e6 -4.8671950792832635e6 0.0
0.0 0.0 0.0

-2.9847033955319086e6 9.185453056837535e6 0.0
9.185453056837535e6 -755793.7223273378 0.0
0.0 0.0 0.0

-1.6996887094208803e6 1.4949821818459716e7 0.0
1.4949821818459716e7 -2.9244880819179523e6 0.0
0.0 0.0 0.0

17212.258234273642 7.002086715679051e6 0.0
7.002086715679051e6 -4.1353527704364266e6 0.0
0.0 0.0 0.0

-1.6856255394861512e6 8.374055749327725e6 0.0
8.374055749327725e6 -2.3528101318943608e6 0.0
0.0 0.0 0.0

-2.4846889441877725e6 1.2086663179676933e7 0.0
1.2086663179676933e7 157304.27550396265 0.0
0.0 0.0 0.0

-1.7763896546971095e6 7.948690152869558e6 0.0
7.948690152869558e6 -1.2565371700172164e6 0.0
0.0 0.0 0.0

2.8497287156771333e6 1.1903274579321193e7 0.0
1.1903274579321193e7 -6.010648178823942e6 0.0
0.0 0.0 0.0

1.0422707542044043e6 2.9016212730789213e6 0.0
2.9016212730789213e6 -4.814355785364817e6 0.0
0.0 0.0 0.0

2.0553316554144644e6 6.1657569942892175e6 0.0
6.1657569942892175e6 -7.870402609777077e6 0.0
0.0 0.0 0.0

953146.7324563938 1.9327846355862336e6 0.0
1.9327846355862336e6 -2.3269304380547768e6 0.0
0.0 0.0 0.0

-590099.2272302546 5.438052105827302e6 0.0
5.438052105827302e6 -2.8764622673317064e6 0.0
0.0 0.0 0.0

-2.2254082029147334e6 8.561141668247474e6 0.0
8.561141668247474e6 -1.718724174625083e6 0.0
0.0 0.0 0.0

-944574.007660575 3.878061500607252e6 0.0
3.878061500607252e6 -387429.3416536487 0.0
0.0 0.0 0.0

2.8968955157433553e6 6.311707748454758e6 0.0
6.311707748454758e6 -5.340136256604558e6 0.0
0.0 0.0 0.0

-100751.90848276904 1.1349746704246836e7 0.0
1.1349746704246836e7 -5.227438895065745e6 0.0
0.0 0.0 0.0

-113623.33197991003 5.761271511976524e6 0.0
5.761271511976524e6 -3.361924833398322e6 0.0
0.0 0.0 0.0

-1.3726844742643435e7 1.8442582268669236e7 0.0
1.8442582268669236e7 9.669845577630673e6 0.0
0.0 0.0 0.0

1.233055536125979e6 9.143754010293223e6 0.0
9.143754010293223e6 2.257754189299865e6 0.0
0.0 0.0 0.0

333928.8361798767 6.140444372248231e6 0.0
6.140444372248231e6 -3.659876641267834e6 0.0
0.0 0.0 0.0

-2.8599377574153757e6 6.830408387301677e6 0.0
6.830408387301677e6 1.3210596484552727e6 0.0
0.0 0.0 0.0

2.67622461813254e6 3.560531356996805e6 0.0
3.560531356996805e6 -5.043401385257927e6 0.0
0.0 0.0 0.0

-4.879124816864064e6 2.6996234525034027e6 0.0
2.6996234525034027e6 6.975214837102394e6 0.0
0.0 0.0 0.0

772364.051448209 6.539295280333021e6 0.0
6.539295280333021e6 -3.9677128262069724e6 0.0
0.0 0.0 0.0

-1.2357982605319219e7 1.2205774815740455e7 0.0
1.2205774815740455e7 8.292706612970484e6 0.0
0.0 0.0 0.0

-4.0179600009948127e6 1.4296107311419312e7 0.0
1.4296107311419312e7 -304386.39702468563 0.0
0.0 0.0 0.0

1.2349092747533622e6 6.516186577034685e6 0.0
6.516186577034685e6 -5.598030498477738e6 0.0
0.0 0.0 0.0

-3.210506216573388e6 1.0086083000322789e7 0.0
1.0086083000322789e7 -1.8181426331114892e6 0.0
0.0 0.0 0.0

1.798678759923501e6 7.0990963598361695e6 0.0
7.0990963598361695e6 -8.254553680952799e6 0.0
0.0 0.0 0.0

-2.3810760894792792e6 8.639091733593466e6 0.0
8.639091733593466e6 -1.3978810999398502e6 0.0
0.0 0.0 0.0

-2.7785884177049445e6 8.71185247217627e6 0.0
8.71185247217627e6 2.9370464075346477e6 0.0
0.0 0.0 0.0

-2.6691957346519534e6 1.4897213275631458e7 0.0
1.4897213275631458e7 -1.7305441755170173e6 0.0
0.0 0.0 0.0

413119.14175636484 6.965925467540679e6 0.0
6.965925467540679e6 -4.0807915402227095e6 0.0
0.0 0.0 0.0

301446.9467153924 7.241820835560557e6 0.0
7.241820835560557e6 -5.094829994361302e6 0.0
0.0 0.0 0.0

-417761.6302628484 6.924491313526754e6 0.0
6.924491313526754e6 -2.693763875671447e6 0.0
0.0 0.0 0.0

-8.390995404833203e6 1.180373160297942e7 0.0
1.180373160297942e7 6.196318078348841e6 0.0
0.0 0.0 0.0

-2.0295643319052865e6 6.646639343677267e6 0.0
6.646639343677267e6 -1.0991282623366588e6 0.0
0.0 0.0 0.0

-6.124073556046214e6 1.5870831940535652e7 0.0
1.5870831940535652e7 1.8286690423446745e6 0.0
0.0 0.0 0.0

-2.107954808313062e6 8.58781922170937e6 0.0
8.58781922170937e6 -1.3325037473591818e6 0.0
0.0 0.0 0.0

-671396.6252955075 1.1246433922341047e7 0.0
1.1246433922341047e7 2.884669810379904e6 0.0
0.0 0.0 0.0

-1.983078173037952e6 1.1949001872121528e7 0.0
1.1949001872121528e7 -43570.97703672841 0.0
0.0 0.0 0.0

-4.731969235786791e6 1.0729349449471282e7 0.0
1.0729349449471282e7 1.7009151919460334e6 0.0
0.0 0.0 0.0

471419.48825712455 1.0778922924585555e7 0.0
1.0778922924585555e7 -6.03960459099874e6 0.0
0.0 0.0 0.0

1.2274332665854176e6 9.375236313809985e6 0.0
9.375236313809985e6 -9.401357066151557e6 0.0
0.0 0.0 0.0

-7.013261562831699e6 7.095828498379108e6 0.0
7.095828498379108e6 1.026831670286982e7 0.0
0.0 0.0 0.0

-691837.610434908 7.293392334586923e6 0.0
7.293392334586923e6 -4.06747646550704e6 0.0
0.0 0.0 0.0

-4.105987669950898e6 3.5216702958555985e6 0.0
3.5216702958555985e6 4.866092961952588e6 0.0
0.0 0.0 0.0

967365.1770279757 8.714961157155812e6 0.0
8.714961157155812e6 -6.881485436784587e6 0.0
0.0 0.0 0.0

-849696.7695417304 6.98433937900868e6 0.0
6.98433937900868e6 -2.7693566285308767e6 0.0
0.0 0.0 0.0

4.709621189977455e6 5.26561417342725e6 0.0
5.26561417342725e6 -6.649621195231903e6 0.0
0.0 0.0 0.0

-2.960836242705794e6 8.210393785083748e6 0.0
8.210393785083748e6 -235909.9046880065 0.0
0.0 0.0 0.0

-4.940036331570426e6 9.895273730928497e6 0.0
9.895273730928497e6 2.0222192387950057e6 0.0
0.0 0.0 0.0

-6.690129562930174e6 1.2979007981341483e7 0.0
1.2979007981341483e7 2.145193508338088e6 0.0
0.0 0.0 0.0

-2.6801371968089417e6 8.918186449103871e6 0.0
8.918186449103871e6 -1.075420683418753e6 0.0
0.0 0.0 0.0

2.8023531186312614e6 5.658653582003087e6 0.0
5.658653582003087e6 -4.894457091919677e6 0.0
0.0 0.0 0.0

-3.4470971388915745e6 1.4638580026893547e7 0.0
1.4638580026893547e7 -957229.3492502548 0.0
0.0 0.0 0.0

-2.730969869488912e6 5.729578581974255e6 0.0
5.729578581974255e6 2.0296374414652558e6 0.0
0.0 0.0 0.0

2.4998486904984713e6 7.360995109081933e6 0.0
7.360995109081933e6 -9.883046624568699e6 0.0
0.0 0.0 0.0

-2.13196783071853e6 9.430241118829738e6 0.0
9.430241118829738e6 3.68621753767912e6 0.0
0.0 0.0 0.0

-6.263537523568112e6 1.082971482431872e7 0.0
1.082971482431872e7 3.9943602475692867e6 0.0
0.0 0.0 0.0

-1.2401755202996512e6 1.0001867198769791e7 0.0
1.0001867198769791e7 -2.0115549925069353e6 0.0
0.0 0.0 0.0

-7.019140303064264e6 8.557346637911733e6 0.0
8.557346637911733e6 9.685922994915796e6 0.0
0.0 0.0 0.0

-237825.64876028395 8.506503543214342e6 0.0
8.506503543214342e6 -792751.9103407591 0.0
0.0 0.0 0.0

-1.1148600112252857e6 7.516679237255612e6 0.0
7.516679237255612e6 -3.3546264688254646e6 0.0
0.0 0.0 0.0

-897240.4838483557 1.0844908434960306e7 0.0
1.0844908434960306e7 1.685003690070868e6 0.0
0.0 0.0 0.0

-1.341525964721701e7 1.7060680827172715e7 0.0
1.7060680827172715e7 9.529738410843046e6 0.0
0.0 0.0 0.0

-2.356559971325053e6 1.1917061317131171e7 0.0
1.1917061317131171e7 403814.79528010194 0.0
0.0 0.0 0.0

1.4424484049431957e7 1.1265020252998015e7 0.0
1.1265020252998015e7 -641242.4620577283 0.0
0.0 0.0 0.0

-1.393066277469128e6 7.704630366522006e6 0.0
7.704630366522006e6 -2.377631195277863e6 0.0
0.0 0.0 0.0

-3.029008260258609e6 8.627081621244118e6 0.0
8.627081621244118e6 -320397.35357420717 0.0
0.0 0.0 0.0

-684786.664853302 8.425693057647001e6 0.0
8.425693057647001e6 -4.253807238262339e6 0.0
0.0 0.0 0.0

-6.962688562790639e6 1.337562090883673e7 0.0
1.337562090883673e7 2.267004254501309e6 0.0
0.0 0.0 0.0

2.298939492487466e6 6.728808997837319e6 0.0
6.728808997837319e6 -8.74923694361106e6 0.0
0.0 0.0 0.0

358435.93822827586 6.329084206165708e6 0.0
6.329084206165708e6 -4.2754232896609055e6 0.0
0.0 0.0 0.0

47467.227070653345 7.560110844600197e6 0.0
7.560110844600197e6 -5.240165222706418e6 0.0
0.0 0.0 0.0

-5.271142508625201e6 1.0777484844113084e7 0.0
1.0777484844113084e7 4.708047651156783e6 0.0
0.0 0.0 0.0

-3.2981329957237164e6 9.454159021750947e6 0.0
9.454159021750947e6 -435539.7866664098 0.0
0.0 0.0 0.0

-855765.4003722569 8.01528470699637e6 0.0
8.01528470699637e6 -573546.0658747084 0.0
0.0 0.0 0.0

-905716.0507737675 7.314573811049075e6 0.0
7.314573811049075e6 -2.317602211287204e6 0.0
0.0 0.0 0.0

-2.714208785035234e6 9.150568745794887e6 0.0
9.150568745794887e6 -719476.5120739486 0.0
0.0 0.0 0.0

1.5025885473929138e6 1.0145420869246705e7 0.0
1.0145420869246705e7 -4.477913042707814e6 0.0
0.0 0.0 0.0

-1.2578197876788165e7 1.627213592210617e7 0.0
1.627213592210617e7 9.149199811553668e6 0.0
0.0 0.0 0.0

-3.0136812761432603e6 9.416558220519092e6 0.0
9.416558220519092e6 -396349.91088378313 0.0
0.0 0.0 0.0

-222063.1927253054 4.0478219558152216e6 0.0
4.0478219558152216e6 -2.1630272272062427e6 0.0
0.0 0.0 0.0

6.427948160623667e6 9.016673666399585e6 0.0
9.016673666399585e6 1.356657172171569e6 0.0
0.0 0.0 0.0

2.549226854301224e6 8.444481241208324e6 0.0
8.444481241208324e6 -1.1209879372879952e7 0.0
0.0 0.0 0.0

-4.840301724928014e6 1.0381259332904622e7 0.0
1.0381259332904622e7 2.3766067084812475e6 0.0
0.0 0.0 0.0

-799817.1209133789 4.199861606733345e6 0.0
4.199861606733345e6 -1.055445678004924e6 0.0
0.0 0.0 0.0

-1.2248126285779998e6 7.652829713895898e6 0.0
7.652829713895898e6 -2.6775940841821562e6 0.0
0.0 0.0 0.0

-778370.5400578377 7.254772172045596e6 0.0
7.254772172045596e6 -3.697512760536786e6 0.0
0.0 0.0 0.0

-1.200168810981994e7 1.5677157662892422e7 0.0
1.5677157662892422e7 8.006675753348435e6 0.0
0.0 0.0 0.0

1.2735884994120123e6 8.090453653415908e6 0.0
8.090453653415908e6 -7.950791719766911e6 0.0
0.0 0.0 0.0

-2.5812950890510436e6 3.7396250243454464e6 0.0
3.7396250243454464e6 1.636053462632368e6 0.0
0.0 0.0 0.0

-4.293953376557173e6 1.057867420072911e7 0.0
1.057867420072911e7 1.4896775968162555e6 0.0
0.0 0.0 0.0

-1.0091289901928823e6 4.206453656802082e6 0.0
4.206453656802082e6 -435323.7347985097 0.0
0.0 0.0 0.0

-2.885249830547601e6 9.359113772492345e6 0.0
9.359113772492345e6 -1.6021636112800217e6 0.0
0.0 0.0 0.0

-3.356736872318513e6 9.200436665642887e6 0.0
9.200436665642887e6 -20109.934162758756 0.0
0.0 0.0 0.0

-359061.3718054518 9.847324628711276e6 0.0
9.847324628711276e6 -5.851617950649683e6 0.0
0.0 0.0 0.0

-1.1703800110491423e7 1.5189399430715853e7 0.0
1.5189399430715853e7 7.863247273315124e6 0.0
0.0 0.0 0.0

-5.477870409190021e6 1.0933202317889167e7 0.0
1.0933202317889167e7 4.630534135947294e6 0.0
0.0 0.0 0.0

-3.308466607907733e6 9.683716486072108e6 0.0
9.683716486072108e6 -83497.26428598061 0.0
0.0 0.0 0.0

2.036684090733366e6 6.902871652699008e6 0.0
6.902871652699008e6 -8.513481762241706e6 0.0
0.0 0.0 0.0

-1.0802159657548456e6 4.870322134588403e6 0.0
4.870322134588403e6 -1.228642024505362e6 0.0
0.0 0.0 0.0

-1.1046362817130933e7 1.4701311001968745e7 0.0
1.4701311001968745e7 7.525071193683239e6 0.0
0.0 0.0 0.0

3.080516648677082e6 8.12228054991416e6 0.0
8.12228054991416e6 -1.122907399476936e7 0.0
0.0 0.0 0.0

-1.00791877547651e7 1.4604136934076449e7 0.0
1.4604136934076449e7 6.7673276027468825e6 0.0
0.0 0.0 0.0

-9.534619549153911e6 1.4266099832908992e7 0.0
1.4266099832908992e7 6.279630670939371e6 0.0
0.0 0.0 0.0

-6.04422602197488e6 1.1431081680678895e7 0.0
1.1431081680678895e7 2.8476113737709266e6 0.0
0.0 0.0 0.0

-6.335799177363787e6 1.1643524832708625e7 0.0
1.1643524832708625e7 3.1959997237778823e6 0.0
0.0 0.0 0.0

-6.656255002115067e6 1.1914910373181809e7 0.0
1.1914910373181809e7 3.483919425423965e6 0.0
0.0 0.0 0.0

-6.955178354800124e6 1.2153890067354845e7 0.0
1.2153890067354845e7 3.847098824758864e6 0.0
0.0 0.0 0.0

-7.260046762166457e6 1.2340601325248582e7 0.0
1.2340601325248582e7 4.146733455868334e6 0.0
0.0 0.0 0.0

-7.589159962335827e6 1.2625868959110279e7 0.0
1.2625868959110279e7 4.32288706208553e6 0.0
0.0 0.0 0.0

-2.734055967643732e6 6.202552074489746e6 0.0
6.202552074489746e6 280531.46797346347 0.0
0.0 0.0 0.0

-8.072526733576015e6 1.2761738019114893e7 0.0
1.2761738019114893e7 4.96261780507502e6 0.0
0.0 0.0 0.0

-8.564970730826786e6 1.303701410615074e7 0.0
1.303701410615074e7 5.242760467318885e6 0.0
0.0 0.0 0.0

-4.513273241358768e6 7.5603823512392165e6 0.0
7.5603823512392165e6 4.169189042329374e6 0.0
0.0 0.0 0.0

-9.187497777385402e6 1.3898898331587771e7 0.0
1.3898898331587771e7 6.125402447853626e6 0.0
0.0 0.0 0.0

-9.027107717854386e6 1.3326539391988408e7 0.0
1.3326539391988408e7 5.398758515046237e6 0.0
0.0 0.0 0.0

-9.366335066517007e6 1.3611821212912153e7 0.0
1.3611821212912153e7 5.664431361691698e6 0.0
0.0 0.0 0.0

-8.6728504538274e6 1.3536746967838567e7 0.0
1.3536746967838567e7 5.727593124988688e6 0.0
0.0 0.0 0.0

-1.794942023252099e6 8.284866992063907e6 0.0
8.284866992063907e6 -1.6415171840921885e6 0.0
0.0 0.0 0.0

-9.885091830913521e6 1.4043902446834115e7 0.0
1.4043902446834115e7 5.932380090788668e6 0.0
0.0 0.0 0.0

-8.555194806328576e6 1.3238830717323007e7 0.0
1.3238830717323007e7 5.4969653077955255e6 0.0
0.0 0.0 0.0

-8.187795644100584e6 1.3014397845685376e7 0.0
1.3014397845685376e7 5.203679694571862e6 0.0
0.0 0.0 0.0

-7.548101040298378e6 1.2909687480621293e7 0.0
1.2909687480621293e7 4.729731443183085e6 0.0
0.0 0.0 0.0

-7.289758810525373e6 1.2538696869759586e7 0.0
1.2538696869759586e7 4.4553163204588825e6 0.0
0.0 0.0 0.0

-6.92525414906089e6 1.2329509698152367e7 0.0
1.2329509698152367e7 4.140646724369675e6 0.0
0.0 0.0 0.0

-6.621748606059184e6 1.212582879531915e7 0.0
1.212582879531915e7 3.8572679579832675e6 0.0
0.0 0.0 0.0

-6.3119290372283235e6 1.1857929321168697e7 0.0
1.1857929321168697e7 3.5489295988450833e6 0.0
0.0 0.0 0.0

-5.978462261378841e6 1.1633802242932951e7 0.0
1.1633802242932951e7 3.186965972103319e6 0.0
0.0 0.0 0.0

-4.348494922741824e6 1.041856936163518e7 0.0
1.041856936163518e7 536532.151973764 0.0
0.0 0.0 0.0

-6.308084211382521e6 7.632454202748801e6 0.0
7.632454202748801e6 9.372205930470979e6 0.0
0.0 0.0 0.0

-1.0511219063068457e7 1.4302088548922058e7 0.0
1.4302088548922058e7 6.295168190345651e6 0.0
0.0 0.0 0.0

905163.0354730652 7.105824725505341e6 0.0
7.105824725505341e6 -6.010751864393416e6 0.0
0.0 0.0 0.0

-4.1477347901615184e6 9.599381263697188e6 0.0
9.599381263697188e6 1.7321950822758535e6 0.0
0.0 0.0 0.0

-1.1331261169297911e7 1.4454950862290697e7 0.0
1.4454950862290697e7 7.1397204734362e6 0.0
0.0 0.0 0.0

-2.776004478943456e6 6.184776635389703e6 0.0
6.184776635389703e6 1.8849262449459769e6 0.0
0.0 0.0 0.0

-1.2346743030164445e7 1.4867617817096932e7 0.0
1.4867617817096932e7 7.354234706946822e6 0.0
0.0 0.0 0.0

-3.044960501106154e6 5.331262177650829e6 0.0
5.331262177650829e6 2.590858223514043e6 0.0
0.0 0.0 0.0

-1.3322380005873159e7 1.5416052352946497e7 0.0
1.5416052352946497e7 7.610142800512481e6 0.0
0.0 0.0 0.0

-1.520392564883326e6 1.0774987427501997e7 0.0
1.0774987427501997e7 -4.507434465288774e6 0.0
0.0 0.0 0.0

440817.51451437315 7.439597444270164e6 0.0
7.439597444270164e6 -5.053203147199639e6 0.0
0.0 0.0 0.0

1.1722146651384798e6 9.41500966116346e6 0.0
9.41500966116346e6 -9.060662597719513e6 0.0
0.0 0.0 0.0

-3.180703111500721e6 9.452586977964835e6 0.0
9.452586977964835e6 -41293.29972113902 0.0
0.0 0.0 0.0

-2.0300375377874454e6 8.440437409179972e6 0.0
8.440437409179972e6 -2.443798962719254e6 0.0
0.0 0.0 0.0

-3.954888300785395e6 1.0315709697745139e7 0.0
1.0315709697745139e7 -338341.1874457133 0.0
0.0 0.0 0.0

-1.3762842715136022e6 1.0988859823288526e7 0.0
1.0988859823288526e7 -4.741813951208754e6 0.0
0.0 0.0 0.0

2.240907627739043e6 5.507825897821901e6 0.0
5.507825897821901e6 -6.891696831928411e6 0.0
0.0 0.0 0.0

-1.6201216231901385e6 5.7880336790926615e6 0.0
5.7880336790926615e6 -596781.9687619715 0.0
0.0 0.0 0.0

-1.4219086863729503e7 1.566628790983191e7 0.0
1.566628790983191e7 8.201087102488714e6 0.0
0.0 0.0 0.0

-140307.78307841974 7.100440965800468e6 0.0
7.100440965800468e6 -4.37717997879656e6 0.0
0.0 0.0 0.0

-4.0227647216051817e6 4.429970823620851e6 0.0
4.429970823620851e6 4.48349558107339e6 0.0
0.0 0.0 0.0

-2.41021306502121e6 8.878277611643566e6 0.0
8.878277611643566e6 -1.0330129891216508e6 0.0
0.0 0.0 0.0

-7.452792036683088e6 1.2792330031908438e7 0.0
1.2792330031908438e7 3.781493748499147e6 0.0
0.0 0.0 0.0

1.0176452815232081e6 6.902062665458228e6 0.0
6.902062665458228e6 -6.21608449649756e6 0.0
0.0 0.0 0.0

-1.2520445082786322e7 1.1794898807497913e7 0.0
1.1794898807497913e7 9.212780409861729e6 0.0
0.0 0.0 0.0

-3.4119220418535382e6 6.949431302933623e6 0.0
6.949431302933623e6 1.0988520208481392e6 0.0
0.0 0.0 0.0

-8.514679333647998e6 9.87723581498144e6 0.0
9.87723581498144e6 3.6441343253844962e6 0.0
0.0 0.0 0.0

-510910.2856664128 1.0692057019515157e7 0.0
1.0692057019515157e7 949181.0665303923 0.0
0.0 0.0 0.0

-1.5578037144378684e7 1.6597406018039541e7 0.0
1.6597406018039541e7 8.804772951581132e6 0.0
0.0 0.0 0.0

1.0243383001850573e6 8.533551814126715e6 0.0
8.533551814126715e6 -7.786091971509819e6 0.0
0.0 0.0 0.0

-2.7024963432377493e6 6.548916101867159e6 0.0
6.548916101867159e6 -3462.923919167137 0.0
0.0 0.0 0.0

-378674.9301956223 6.879727747118071e6 0.0
6.879727747118071e6 -1.262249683794934e6 0.0
0.0 0.0 0.0

492019.3467332041 6.966368229699947e6 0.0
6.966368229699947e6 -5.446602809683823e6 0.0
0.0 0.0 0.0

495952.47242250363 8.77023862774902e6 0.0
8.77023862774902e6 -1.5637290754556376e6 0.0
0.0 0.0 0.0

750649.2410952195 7.230117727989713e6 0.0
7.230117727989713e6 -5.824502776793789e6 0.0
0.0 0.0 0.0

-420897.77118328906 1.0025092890552165e7 0.0
1.0025092890552165e7 -1.8162430336941413e6 0.0
0.0 0.0 0.0

-3.371756603726183e6 9.451055910139162e6 0.0
9.451055910139162e6 357248.0826410721 0.0
0.0 0.0 0.0

-3.6106409190274333e6 9.718062667433582e6 0.0
9.718062667433582e6 -117579.84173844405 0.0
0.0 0.0 0.0

1456.8044949397445 6.616987880171783e6 0.0
6.616987880171783e6 -4.816078499841747e6 0.0
0.0 0.0 0.0

2.4918708123820517e6 1.105001170388717e7 0.0
1.105001170388717e7 4.767490901417459e6 0.0
0.0 0.0 0.0

-414061.6447496695 7.412768721908087e6 0.0
7.412768721908087e6 -4.0720182774320864e6 0.0
0.0 0.0 0.0

-1.889414653851661e6 8.531923659565222e6 0.0
8.531923659565222e6 -2.0009845087949052e6 0.0
0.0 0.0 0.0

-3.6445842059034584e6 1.1446918628184697e7 0.0
1.1446918628184697e7 1.8576839546300864e6 0.0
0.0 0.0 0.0

-655790.7959504158 7.400388046239043e6 0.0
7.400388046239043e6 -3.412079093103903e6 0.0
0.0 0.0 0.0

-5.581120596030495e6 1.0966595948917659e7 0.0
1.0966595948917659e7 4.551220492859306e6 0.0
0.0 0.0 0.0

-1.762275461808825e6 1.119814995095035e7 0.0
1.119814995095035e7 2.9170029633430885e6 0.0
0.0 0.0 0.0

-2.9516361612453978e6 6.969246477100314e6 0.0
6.969246477100314e6 1.4824940614109202e6 0.0
0.0 0.0 0.0

-1.7202939643475596e7 1.7752737739356402e7 0.0
1.7752737739356402e7 8.594492092122745e6 0.0
0.0 0.0 0.0

-7.481363460686661e6 1.1138285771265438e7 0.0
1.1138285771265438e7 1.1137774069747284e7 0.0
0.0 0.0 0.0

-2.0400585657391562e6 7.580176169101995e6 0.0
7.580176169101995e6 -1.2954682289888975e6 0.0
0.0 0.0 0.0

3.9186339738370827e6 9.492027092001885e6 0.0
9.492027092001885e6 -3.026493398725116e6 0.0
0.0 0.0 0.0

1.4514575774176684e6 6.705548432159774e6 0.0
6.705548432159774e6 -6.984304007966795e6 0.0
0.0 0.0 0.0

1.361632377121543e6 8.7068642840982e6 0.0
8.7068642840982e6 -8.745836841637947e6 0.0
0.0 0.0 0.0

-4.685875230140695e6 8.44007883012717e6 0.0
8.44007883012717e6 2.7130760016289554e6 0.0
0.0 0.0 0.0

-1.0092929832855076e7 1.0675462526763504e7 0.0
1.0675462526763504e7 6.104684130969573e6 0.0
0.0 0.0 0.0

-2.545277188929698e6 8.139204735988935e6 0.0
8.139204735988935e6 -145013.14659757016 0.0
0.0 0.0 0.0

-2.0545595245796307e6 8.567374311524807e6 0.0
8.567374311524807e6 -2.9855587679562233e6 0.0
0.0 0.0 0.0

-1.213827044671023e7 1.0276806147332918e7 0.0
1.0276806147332918e7 9.5554332489792e6 0.0
0.0 0.0 0.0

41477.9562285135 7.916497376556496e6 0.0
7.916497376556496e6 -5.369416403386763e6 0.0
0.0 0.0 0.0

-2.8858441278175744e6 8.482907341292838e6 0.0
8.482907341292838e6 186094.78274087468 0.0
0.0 0.0 0.0

-1.0074948567082151e6 4.549090249132211e6 0.0
4.549090249132211e6 -1.1254993453544802e6 0.0
0.0 0.0 0.0

-3.8875538429433997e6 8.107327878320033e6 0.0
8.107327878320033e6 2.2705064434910305e6 0.0
0.0 0.0 0.0

-2.0141680849231802e7 2.2637999793242082e7 0.0
2.2637999793242082e7 3.978910253493366e6 0.0
0.0 0.0 0.0

-3.121472643485505e6 7.117926111657174e6 0.0
7.117926111657174e6 1.6292874415958468e6 0.0
0.0 0.0 0.0

-438583.59998727293 3.974927796255693e6 0.0
3.974927796255693e6 -2.874161672486714e6 0.0
0.0 0.0 0.0

-3.798570278967768e6 9.989676137556378e6 0.0
9.989676137556378e6 642390.3746028743 0.0
0.0 0.0 0.0

-4.5899659122213535e6 9.089346366973082e6 0.0
9.089346366973082e6 1.9436457724658463e6 0.0
0.0 0.0 0.0

-2.9083548043115446e6 9.747990429729003e6 0.0
9.747990429729003e6 -1.3071179126948654e6 0.0
0.0 0.0 0.0

-3.8123789762607026e6 9.753611655612076e6 0.0
9.753611655612076e6 281779.273707608 0.0
0.0 0.0 0.0

-942423.4109977871 3.529103337366687e6 0.0
3.529103337366687e6 -527119.2391571569 0.0
0.0 0.0 0.0

1.2607040946883128e6 9.095119328050783e6 0.0
9.095119328050783e6 -4.42378678664224e6 0.0
0.0 0.0 0.0

-4.981209896119924e6 9.435206120201647e6 0.0
9.435206120201647e6 2.3527816210667994e6 0.0
0.0 0.0 0.0

-433202.4370876495 7.095450134851299e6 0.0
7.095450134851299e6 -4.370615161903199e6 0.0
0.0 0.0 0.0

1.45497674550815e6 9.26363649504308e6 0.0
9.26363649504308e6 -4.129318620658341e6 0.0
0.0 0.0 0.0

-8.01083007368461e6 9.608343442413356e6 0.0
9.608343442413356e6 2.1723993938141437e6 0.0
0.0 0.0 0.0

-3.1638646780290017e6 7.185580627730954e6 0.0
7.185580627730954e6 1.698927827499924e6 0.0
0.0 0.0 0.0

-1.1807274791645631e6 1.0664419129460143e7 0.0
1.0664419129460143e7 -4.984902775040199e6 0.0
0.0 0.0 0.0

-5.54413127423289e6 9.71584395541335e6 0.0
9.71584395541335e6 3.2916219614794254e6 0.0
0.0 0.0 0.0

3.2256686505104806e6 5.877345481738555e6 0.0
5.877345481738555e6 -6.072499226108041e6 0.0
0.0 0.0 0.0

694380.7734331612 761724.7609448663 0.0
761724.7609448663 -2.4678091422816673e6 0.0
0.0 0.0 0.0

1.5102599487583672e6 717205.3709209957 0.0
717205.3709209957 -3.1976068555681612e6 0.0
0.0 0.0 0.0

-1.7571596312289853e6 34058.43984459504 0.0
34058.43984459504 1.3771947119779573e6 0.0
0.0 0.0 0.0

2.680064093421382e6 919931.4128833187 0.0
919931.4128833187 -4.706863833573794e6 0.0
0.0 0.0 0.0

-614613.686619608 398753.4284136865 0.0
398753.4284136865 -100075.63928081722 0.0
0.0 0.0 0.0

4.522611496360761e6 4.575893163560958e6 0.0
4.575893163560958e6 -7.627932363758539e6 0.0
0.0 0.0 0.0

116074.44737050706 1.2355848751501858e6 0.0
1.2355848751501858e6 -1.693028533825098e6 0.0
0.0 0.0 0.0

-284823.04126834834 1.9857687717740922e6 0.0
1.9857687717740922e6 -870283.5885236571 0.0
0.0 0.0 0.0

3.6233540946237273e6 1.4295900779139886e6 0.0
1.4295900779139886e6 -5.799890777607062e6 0.0
0.0 0.0 0.0

-378948.9204021021 1.4915497420325775e6 0.0
1.4915497420325775e6 -768305.349728472 0.0
0.0 0.0 0.0

3.297786596046002e6 3.765021593840189e6 0.0
3.765021593840189e6 -6.3743339839363955e6 0.0
0.0 0.0 0.0

1.9516975928614312e6 3.581379982325449e6 0.0
3.581379982325449e6 -4.3585311851689e6 0.0
0.0 0.0 0.0

520704.21051582205 909791.8550083395 0.0
909791.8550083395 -2.335030208855908e6 0.0
0.0 0.0 0.0

1.5801579188019624e6 4.999351696847081e6 0.0
4.999351696847081e6 -6.199218266719699e6 0.0
0.0 0.0 0.0

2.073778820753187e6 5.197578145667812e6 0.0
5.197578145667812e6 -7.025073799375446e6 0.0
0.0 0.0 0.0

1.0099770382024127e6 4.736021869632416e6 0.0
4.736021869632416e6 -5.124155448923012e6 0.0
0.0 0.0 0.0

1.7200477663263208e6 4.7156079160068175e6 0.0
4.7156079160068175e6 -5.074805364879155e6 0.0
0.0 0.0 0.0

72921.83852069569 1.0625984486294854e6 0.0
1.0625984486294854e6 -1.855265534878552e6 0.0
0.0 0.0 0.0

-389600.92552402033 754216.5827938792 0.0
754216.5827938792 -628482.7903882338 0.0
0.0 0.0 0.0

1.8514281813938115e6 5.14010072650064e6 0.0
5.14010072650064e6 -6.688440553543157e6 0.0
0.0 0.0 0.0

2.6142698664143467e6 5.1219956630562e6 0.0
5.1219956630562e6 -5.498969726604853e6 0.0
0.0 0.0 0.0

2.1192109539929684e6 5.042211832978415e6 0.0
5.042211832978415e6 -5.079107851280171e6 0.0
0.0 0.0 0.0

2.978964218296044e6 5.542469142096772e6 0.0
5.542469142096772e6 -5.742074186243983e6 0.0
0.0 0.0 0.0

-1.0942237381770138e6 9.257997831705112e6 0.0
9.257997831705112e6 -3.8342303774340744e6 0.0
0.0 0.0 0.0

-2.9141135376914823e6 6.676279191230829e6 0.0
6.676279191230829e6 1.7789614253265408e6 0.0
0.0 0.0 0.0

-4.282786256783775e6 3.0575346310697366e6 0.0
3.0575346310697366e6 4.281702998596692e6 0.0
0.0 0.0 0.0

-5.71945183385595e6 1.1002493254636794e7 0.0
1.1002493254636794e7 4.565170202919269e6 0.0
0.0 0.0 0.0

442385.9581990978 1.013058975485972e7 0.0
1.013058975485972e7 -7.483407273716443e6 0.0
0.0 0.0 0.0

-3.7105882568950336e6 8.038829439521081e6 0.0
8.038829439521081e6 814999.9809333023 0.0
0.0 0.0 0.0

-1.8827961011613276e7 1.9145329151311766e7 0.0
1.9145329151311766e7 8.805336845539834e6 0.0
0.0 0.0 0.0

-2.362444821427697e6 7.9462823721549e6 0.0
7.9462823721549e6 -975008.700533845 0.0
0.0 0.0 0.0

-1.648538865166987e6 9.111454699801097e6 0.0
9.111454699801097e6 156078.60170209338 0.0
0.0 0.0 0.0

1.0853634171379784e6 9.483329112840846e6 0.0
9.483329112840846e6 1.6921506644556257e6 0.0
0.0 0.0 0.0

-2.2822076549435398e6 1.1267243302065045e7 0.0
1.1267243302065045e7 1.2681546326995436e6 0.0
0.0 0.0 0.0

-4.246538092390736e6 8.50218794486334e6 0.0
8.50218794486334e6 2.644874213108249e6 0.0
0.0 0.0 0.0

-368235.6105244302 1.1588004869234098e7 0.0
1.1588004869234098e7 -4.825968580383103e6 0.0
0.0 0.0 0.0

-3.893453055512052e6 8.052532919882881e6 0.0
8.052532919882881e6 2.3639923287287774e6 0.0
0.0 0.0 0.0

-4.0163642146324725e6 9.802914630349617e6 0.0
9.802914630349617e6 640207.479180011 0.0
0.0 0.0 0.0

-3.4283214165882883e6 9.66172423754075e6 0.0
9.66172423754075e6 -478412.2919367725 0.0
0.0 0.0 0.0

-3.077106743281947e6 6.491535149299969e6 0.0
6.491535149299969e6 763756.3318604452 0.0
0.0 0.0 0.0

-1.822666740138759e6 8.308962889282069e6 0.0
8.308962889282069e6 -2.7916994458366707e6 0.0
0.0 0.0 0.0

-2.489793961419482e6 7.760687550155516e6 0.0
7.760687550155516e6 -22008.026904910454 0.0
0.0 0.0 0.0

-178638.5387129311 6.85599685911761e6 0.0
6.85599685911761e6 -4.591164027582809e6 0.0
0.0 0.0 0.0

454015.5389534299 880000.4855664929 0.0
880000.4855664929 -1.8760403798042154e6 0.0
0.0 0.0 0.0

932083.3526615604 905699.9572181511 0.0
905699.9572181511 -2.3312719641643586e6 0.0
0.0 0.0 0.0

204645.37965716305 1.1130883938482993e6 0.0
1.1130883938482993e6 -196928.23928214452 0.0
0.0 0.0 0.0

141389.35681336524 1.1185349370300411e6 0.0
1.1185349370300411e6 -1.4939233772095724e6 0.0
0.0 0.0 0.0

-99385.9534249155 1.1333677902442904e6 0.0
1.1333677902442904e6 -1.367957915129659e6 0.0
0.0 0.0 0.0

1.783261952142682e6 5.133187459219435e6 0.0
5.133187459219435e6 -6.095978341226021e6 0.0
0.0 0.0 0.0

1.9728419933379292e6 5.214862525262664e6 0.0
5.214862525262664e6 -6.394009764945537e6 0.0
0.0 0.0 0.0

-225792.21978616447 632733.9669502609 0.0
632733.9669502609 361055.2490660104 0.0
0.0 0.0 0.0

1.6579588209752445e6 4.6967723697475e6 0.0
4.6967723697475e6 -4.576067445490015e6 0.0
0.0 0.0 0.0

2.8044231776488917e6 5.689346849460172e6 0.0
5.689346849460172e6 -5.651685450766568e6 0.0
0.0 0.0 0.0

2.21853592888677e6 4.968299741382582e6 0.0
4.968299741382582e6 -5.195107982938984e6 0.0
0.0 0.0 0.0

2.4031011783212153e6 5.3107525955426665e6 0.0
5.3107525955426665e6 -5.387883869393162e6 0.0
0.0 0.0 0.0

-2.332151244156727e6 7.072962695198493e6 0.0
7.072962695198493e6 -786222.026892847 0.0
0.0 0.0 0.0

-5.889620587824459e6 8.193386620424866e6 0.0
8.193386620424866e6 8.399374254011359e6 0.0
0.0 0.0 0.0

-4.171840679199384e6 8.265406493880111e6 0.0
8.265406493880111e6 2.8062388998205047e6 0.0
0.0 0.0 0.0

1.2439316725767632e6 6.3157653654210735e6 0.0
6.3157653654210735e6 -5.454433244967864e6 0.0
0.0 0.0 0.0

-4.97818557554975e6 1.1241306365286347e7 0.0
1.1241306365286347e7 693344.8666830007 0.0
0.0 0.0 0.0

-2.5945784913212005e6 1.0688392680935128e7 0.0
1.0688392680935128e7 3.5629401782854768e6 0.0
0.0 0.0 0.0

-4.714076813643501e6 6.3401615051843375e6 0.0
6.3401615051843375e6 3.784229636762562e6 0.0
0.0 0.0 0.0

273339.70928460406 6.903059879902596e6 0.0
6.903059879902596e6 -5.2278672644840125e6 0.0
0.0 0.0 0.0

47236.79813476442 8.177885833441559e6 0.0
8.177885833441559e6 -5.47365103030924e6 0.0
0.0 0.0 0.0

-3.1314265598973613e6 9.394421311932966e6 0.0
9.394421311932966e6 -784131.4636599188 0.0
0.0 0.0 0.0

-3.406840880037829e6 1.0367027871695777e7 0.0
1.0367027871695777e7 4.543081664916693e6 0.0
0.0 0.0 0.0

-1.3620497676251284e6 5.327651343309899e6 0.0
5.327651343309899e6 -895445.6955922841 0.0
0.0 0.0 0.0

-3.1280696988498736e6 9.876962915578611e6 0.0
9.876962915578611e6 -919059.5498395234 0.0
0.0 0.0 0.0

-4.622068440910681e6 1.0530907309778972e7 0.0
1.0530907309778972e7 1.8374897744447445e6 0.0
0.0 0.0 0.0

-719994.1274270192 7.733676521977546e6 0.0
7.733676521977546e6 -3.849877555699481e6 0.0
0.0 0.0 0.0

-3.4847787691210606e6 9.72525939888601e6 0.0
9.72525939888601e6 301267.31702326913 0.0
0.0 0.0 0.0

269949.2953760007 1.6808815925763818e6 0.0
1.6808815925763818e6 2.6048727138249436e6 0.0
0.0 0.0 0.0

-3.1865838251380837e6 1.0519986002238223e7 0.0
1.0519986002238223e7 4.231680089397541e6 0.0
0.0 0.0 0.0

2.20541527493952e6 8.31488998669637e6 0.0
8.31488998669637e6 -9.759576170394879e6 0.0
0.0 0.0 0.0

1.2234446361825266e6 8.603813810935996e6 0.0
8.603813810935996e6 -8.298814750932228e6 0.0
0.0 0.0 0.0

-2.8128339758043024e6 9.596738924382022e6 0.0
9.596738924382022e6 -1.2176706215135588e6 0.0
0.0 0.0 0.0

-5.4133143557763295e6 1.1156864435170725e7 0.0
1.1156864435170725e7 2.5253226970982775e6 0.0
0.0 0.0 0.0

2.3373506118314676e6 6.754144913870875e6 0.0
6.754144913870875e6 -5.409630324293302e6 0.0
0.0 0.0 0.0

-2.2194409547067382e6 7.782403552422362e6 0.0
7.782403552422362e6 -452454.8327590166 0.0
0.0 0.0 0.0

-3.4893634208294065e6 9.487021741901878e6 0.0
9.487021741901878e6 -60978.569779057754 0.0
0.0 0.0 0.0

-3.602708336853975e6 9.954557889992334e6 0.0
9.954557889992334e6 244135.59967923653 0.0
0.0 0.0 0.0

716099.8166724402 9.989670056225527e6 0.0
9.989670056225527e6 -7.79322483122831e6 0.0
0.0 0.0 0.0

541847.9679427138 8.607450762420097e6 0.0
8.607450762420097e6 -6.952764064764863e6 0.0
0.0 0.0 0.0

-1.8011927388772443e6 5.455595797071831e6 0.0
5.455595797071831e6 -1.080275338701092e6 0.0
0.0 0.0 0.0

-4.390856189799159e6 8.130454817574116e6 0.0
8.130454817574116e6 2.276983319059604e6 0.0
0.0 0.0 0.0

624386.1220710073 9.720821739350798e6 0.0
9.720821739350798e6 -7.689463604237308e6 0.0
0.0 0.0 0.0

-3.924069569507971e6 1.0565988281193e7 0.0
1.0565988281193e7 47959.13909965963 0.0
0.0 0.0 0.0

3.1503533027693313e6 3.1339160542676128e6 0.0
3.1339160542676128e6 -5.986607078751439e6 0.0
0.0 0.0 0.0

-6.9292365697386e6 1.530588192650506e7 0.0
1.530588192650506e7 2.527011971508087e6 0.0
0.0 0.0 0.0

1.6768648487498318e6 7.168312061288973e6 0.0
7.168312061288973e6 -5.357117059354679e6 0.0
0.0 0.0 0.0

-1.4612933753748566e6 7.970401567659205e6 0.0
7.970401567659205e6 -1.9643587332694891e6 0.0
0.0 0.0 0.0

-5.807520656614246e6 9.71951473473962e6 0.0
9.71951473473962e6 4.2820881870069e6 0.0
0.0 0.0 0.0

-1.5437274163364987e6 6.513506987285745e6 0.0
6.513506987285745e6 -904518.7925752753 0.0
0.0 0.0 0.0

-2.1056607201261586e6 8.017628357541533e6 0.0
8.017628357541533e6 -1.3497197275558994e6 0.0
0.0 0.0 0.0

-3.725164493157403e6 9.489453984668747e6 0.0
9.489453984668747e6 341295.44989916356 0.0
0.0 0.0 0.0

-1.5006533154536132e6 4.985289754352475e6 0.0
4.985289754352475e6 -1.3924958777098826e6 0.0
0.0 0.0 0.0

-941217.9235510386 3.052440831614384e6 0.0
3.052440831614384e6 -733676.7251884732 0.0
0.0 0.0 0.0

-3.535135652973205e6 7.704530367781481e6 0.0
7.704530367781481e6 1.9239144028778784e6 0.0
0.0 0.0 0.0

-3.5095087633459345e6 8.092575390333344e6 0.0
8.092575390333344e6 1.4796960683783796e6 0.0
0.0 0.0 0.0

665823.3359473362 6.0361056984652e6 0.0
6.0361056984652e6 -4.414565690581575e6 0.0
0.0 0.0 0.0

-3.209901642191232e6 7.245326159747722e6 0.0
7.245326159747722e6 1.6702936243478258e6 0.0
0.0 0.0 0.0

-3.922099609492024e6 9.98125721143096e6 0.0
9.98125721143096e6 231677.80524550402 0.0
0.0 0.0 0.0

1.5362355285210847e6 7.562621258473638e6 0.0
7.562621258473638e6 -6.958725493870927e6 0.0
0.0 0.0 0.0

-4.177125074131989e6 1.1209808767300699e7 0.0
1.1209808767300699e7 2.156618191237933e6 0.0
0.0 0.0 0.0

-2.8285339027239373e6 9.123769221077096e6 0.0
9.123769221077096e6 -1.0943644601304538e6 0.0
0.0 0.0 0.0

1.986992328877637e6 3.6278730403468506e6 0.0
3.6278730403468506e6 -3.54120560746126e6 0.0
0.0 0.0 0.0

-6.263882190761482e6 1.1083868019938584e7 0.0
1.1083868019938584e7 4.577857571816154e6 0.0
0.0 0.0 0.0

-2.5359651414782368e6 5.936082575483765e6 0.0
5.936082575483765e6 969008.5496371562 0.0
0.0 0.0 0.0

-2.5524313828348685e6 8.674529157321507e6 0.0
8.674529157321507e6 -1.0616640492298172e6 0.0
0.0 0.0 0.0

-4.236080678737516e6 1.0434906381008446e7 0.0
1.0434906381008446e7 907573.8871736119 0.0
0.0 0.0 0.0

-4.695564049268183e6 1.0313609775245596e7 0.0
1.0313609775245596e7 1.4250769478510986e6 0.0
0.0 0.0 0.0

-3.729336465553104e6 9.930315078430768e6 0.0
9.930315078430768e6 -172428.44980096025 0.0
0.0 0.0 0.0

-3.5923972519622897e6 9.425791388653066e6 0.0
9.425791388653066e6 804451.0274593784 0.0
0.0 0.0 0.0

3.5138306695916373e6 4.0713158861649376e6 0.0
4.0713158861649376e6 -6.5684581745613525e6 0.0
0.0 0.0 0.0

-5.879962061984867e6 1.2047916385907933e7 0.0
1.2047916385907933e7 1.568044949608755e6 0.0
0.0 0.0 0.0

-1.361697780478823e6 1.165453041388006e7 0.0
1.165453041388006e7 -9.867487801213618e6 0.0
0.0 0.0 0.0

539975.1726169549 1.2981804873314548e7 0.0
1.2981804873314548e7 1.5846221090272974e7 0.0
0.0 0.0 0.0

-662043.8791096401 9.214455138183262e6 0.0
9.214455138183262e6 -5.172463408817169e6 0.0
0.0 0.0 0.0

-3.346365933450288e6 9.977526148837328e6 0.0
9.977526148837328e6 -551869.0326129135 0.0
0.0 0.0 0.0

-69281.86157193733 9.369503206613405e6 0.0
9.369503206613405e6 -7.045584883248833e6 0.0
0.0 0.0 0.0

-2.5259991699522664e6 8.849557975509088e6 0.0
8.849557975509088e6 -1.4119494479327032e6 0.0
0.0 0.0 0.0

-1.609122939545272e6 1.1455394027787019e7 0.0
1.1455394027787019e7 -3.545782861874995e6 0.0
0.0 0.0 0.0

-2.2147952393086525e6 8.592726747582227e6 0.0
8.592726747582227e6 -2.0825643415323496e6 0.0
0.0 0.0 0.0

-3.594852706318175e6 9.188519826857157e6 0.0
9.188519826857157e6 388781.0232403432 0.0
0.0 0.0 0.0

2.8733796013923436e6 8.191626147098553e6 0.0
8.191626147098553e6 -1.0830388769468805e7 0.0
0.0 0.0 0.0

-4.326144168123214e6 1.1244433818355467e7 0.0
1.1244433818355467e7 1.6244150522113312e6 0.0
0.0 0.0 0.0

-4.681770913669329e6 8.752080047857257e6 0.0
8.752080047857257e6 2.2480414331709184e6 0.0
0.0 0.0 0.0

-2.085081480097061e6 8.675191604229e6 0.0
8.675191604229e6 -1.67134493747205e6 0.0
0.0 0.0 0.0

316834.9954881952 8.7908693180785e6 0.0
8.7908693180785e6 -6.58077758554601e6 0.0
0.0 0.0 0.0

2.068019933696069e6 1.2400836371373484e7 0.0
1.2400836371373484e7 6.8933962795303855e6 0.0
0.0 0.0 0.0

-3.44815124403168e6 1.0429650834543876e7 0.0
1.0429650834543876e7 -1.2062377519167305e6 0.0
0.0 0.0 0.0

-2.1479910378105324e7 2.056987748791639e7 0.0
2.056987748791639e7 9.1852501651664e6 0.0
0.0 0.0 0.0

-409678.0372294695 9.118847157678977e6 0.0
9.118847157678977e6 -5.5324631138034845e6 0.0
0.0 0.0 0.0

-3.4271306168726655e6 9.889951082805498e6 0.0
9.889951082805498e6 -127463.94174874481 0.0
0.0 0.0 0.0

3.5950223076733565e6 3.969715830085279e6 0.0
3.969715830085279e6 -5.4863387058900315e6 0.0
0.0 0.0 0.0

1.2101920139164627e6 7.177438776638825e6 0.0
7.177438776638825e6 -6.919841845678843e6 0.0
0.0 0.0 0.0

-4.2794572885780055e6 1.0289281381252296e7 0.0
1.0289281381252296e7 1.446235304871245e6 0.0
0.0 0.0 0.0

-516819.4670931683 1.0166517010743383e7 0.0
1.0166517010743383e7 -8.703347519733148e6 0.0
0.0 0.0 0.0

-2.254748634476596e6 8.801872990543624e6 0.0
8.801872990543624e6 -1.3511379717541144e6 0.0
0.0 0.0 0.0

-679102.6496020146 7.514017209421336e6 0.0
7.514017209421336e6 -3.7117191610884597e6 0.0
0.0 0.0 0.0

-2.165053362678526e6 6.673445082126578e6 0.0
6.673445082126578e6 -5624.471942773904 0.0
0.0 0.0 0.0

-120530.11707882234 9.029994592000145e6 0.0
9.029994592000145e6 -5.918905277740936e6 0.0
0.0 0.0 0.0

-2.3887275768303103e6 6.357249718249221e6 0.0
6.357249718249221e6 -477416.5882946153 0.0
0.0 0.0 0.0

-846972.4560194433 1.0522730651611283e7 0.0
1.0522730651611283e7 -5.4140427884202385e6 0.0
0.0 0.0 0.0

-1.3970905905749151e7 1.0054479494482772e7 0.0
1.0054479494482772e7 6.851784641217028e6 0.0
0.0 0.0 0.0

-138391.4704136271 1.4100708466886582e6 0.0
1.4100708466886582e6 -1.391451257697863e6 0.0
0.0 0.0 0.0

-2.501711687587877e6 6.671443912283162e6 0.0
6.671443912283162e6 633742.1544914311 0.0
0.0 0.0 0.0

-3.6799847989460626e6 9.731900419133287e6 0.0
9.731900419133287e6 730546.2714197533 0.0
0.0 0.0 0.0

-7.888322068788232e6 -3.058202776066998e6 0.0
-3.058202776066998e6 1.3843583657272685e7 0.0
0.0 0.0 0.0

-1.0016402086681789e6 1.100748109139533e7 0.0
1.100748109139533e7 1.2805653995938622e6 0.0
0.0 0.0 0.0

-2.3783533645116063e6 8.731126202916976e6 0.0
8.731126202916976e6 -1.7453961019191858e6 0.0
0.0 0.0 0.0

-2.4664324984524953e6 1.0772815554645723e7 0.0
1.0772815554645723e7 -2.4638092399553596e6 0.0
0.0 0.0 0.0

-2.739646719426444e6 9.331432238388486e6 0.0
9.331432238388486e6 -1.9866584110172922e6 0.0
0.0 0.0 0.0

-1.4395987038105181e6 7.808258094960708e6 0.0
7.808258094960708e6 -2.680522359729635e6 0.0
0.0 0.0 0.0

-3.3759696441960386e6 9.751288168573089e6 0.0
9.751288168573089e6 -906614.0169489678 0.0
0.0 0.0 0.0

-4.511764779735441e6 8.63666882048594e6 0.0
8.63666882048594e6 3.210013242050592e6 0.0
0.0 0.0 0.0

-2.803845084478855e6 8.128156984610082e6 0.0
8.128156984610082e6 306791.6126811289 0.0
0.0 0.0 0.0

-2.4376614773336533e6 8.349993251955953e6 0.0
8.349993251955953e6 -1.0326384451580981e6 0.0
0.0 0.0 0.0

2.177825476915478e6 7.26397783879265e6 0.0
7.26397783879265e6 -8.663282201874133e6 0.0
0.0 0.0 0.0

-6.160572989982968e6 1.1498829353670418e7 0.0
1.1498829353670418e7 4.665542996216085e6 0.0
0.0 0.0 0.0

13632.0342063274 2.096016842444682e6 0.0
2.096016842444682e6 -1.6419268529983966e6 0.0
0.0 0.0 0.0

-4.210758634408681e6 8.375358752466871e6 0.0
8.375358752466871e6 2.780202968303512e6 0.0
0.0 0.0 0.0

-809638.1614918511 7.502958738124456e6 0.0
7.502958738124456e6 -3.3450229476551814e6 0.0
0.0 0.0 0.0

1.057111953055526e6 5.441312199610908e6 0.0
5.441312199610908e6 -5.134104373220352e6 0.0
0.0 0.0 0.0

101958.18653239356 8.887279098194132e6 0.0
8.887279098194132e6 -6.27122016468348e6 0.0
0.0 0.0 0.0

-711295.325342336 4.0987193442837144e6 0.0
4.0987193442837144e6 -2.1974296414038846e6 0.0
0.0 0.0 0.0

-6.930360325004606e6 4.514058816241741e6 0.0
4.514058816241741e6 8.109424451669608e6 0.0
0.0 0.0 0.0

-2.9690968669925346e6 9.305728503151884e6 0.0
9.305728503151884e6 -1.137181205581718e6 0.0
0.0 0.0 0.0

-227518.08626678056 1.3954467429227585e6 0.0
1.3954467429227585e6 -1.1128919493278314e6 0.0
0.0 0.0 0.0

-2.0890051231224316e6 5.918181852014138e6 0.0
5.918181852014138e6 -782675.8104838447 0.0
0.0 0.0 0.0

-2.7901386311782864e6 1.0857269198345006e7 0.0
1.0857269198345006e7 -1.9055736156154964e6 0.0
0.0 0.0 0.0

427672.9568072511 1.0269126806885663e7 0.0
1.0269126806885663e7 -7.035100937933863e6 0.0
0.0 0.0 0.0

-656821.0505230133 7.189799109337872e6 0.0
7.189799109337872e6 -4.474230765259136e6 0.0
0.0 0.0 0.0

-50981.210475055734 6.522087851290736e6 0.0
6.522087851290736e6 -4.0235888850824106e6 0.0
0.0 0.0 0.0

-2.549742342324408e6 9.085053129656512e6 0.0
9.085053129656512e6 -1.04991606546153e6 0.0
0.0 0.0 0.0

-4.0740192379509676e6 9.87102207072516e6 0.0
9.87102207072516e6 5.830296427794797e6 0.0
0.0 0.0 0.0

-4.77243944924471e6 1.0491883959103122e7 0.0
1.0491883959103122e7 1.3513536125037558e6 0.0
0.0 0.0 0.0

-5.745676364974008e6 9.139331619787741e6 0.0
9.139331619787741e6 5.559750007813895e6 0.0
0.0 0.0 0.0

-5.213918571406802e6 9.471020318045802e6 0.0
9.471020318045802e6 3.912266675660409e6 0.0
0.0 0.0 0.0

-438862.559147472 7.069412870669115e6 0.0
7.069412870669115e6 -3.7686532066939864e6 0.0
0.0 0.0 0.0

-1.8822113668697907e6 6.235784611965544e6 0.0
6.235784611965544e6 -311152.346419689 0.0
0.0 0.0 0.0

-1.544202720333632e6 1.088817820332037e7 0.0
1.088817820332037e7 1.5185967392882053e6 0.0
0.0 0.0 0.0

-1.5774898416070011e6 7.95443458537642e6 0.0
7.95443458537642e6 -2.3502934957136507e6 0.0
0.0 0.0 0.0

398036.51122740936 9.824824820951397e6 0.0
9.824824820951397e6 -7.279438832420018e6 0.0
0.0 0.0 0.0

-2.8463512806787514e6 9.354705249047643e6 0.0
9.354705249047643e6 -738092.4581783128 0.0
0.0 0.0 0.0

-950990.460961889 9.279116134295413e6 0.0
9.279116134295413e6 -4.821526274285411e6 0.0
0.0 0.0 0.0

-2.158453938061799e6 6.990585002520305e6 0.0
6.990585002520305e6 -176863.44611337542 0.0
0.0 0.0 0.0

-1.247050126729528e6 9.707302720362538e6 0.0
9.707302720362538e6 -7.305867912124292e6 0.0
0.0 0.0 0.0

-3.1384369851010274e6 9.622070858585222e6 0.0
9.622070858585222e6 -432725.53951679333 0.0
0.0 0.0 0.0

2.53348198899156e6 1.0225400940717332e7 0.0
1.0225400940717332e7 -3.9167170030198316e6 0.0
0.0 0.0 0.0

-8.930890726628626e6 -1.6896976221296326e6 0.0
-1.6896976221296326e6 1.4264797268925127e7 0.0
0.0 0.0 0.0

-1.164377071756887e7 1.2294966729974817e7 0.0
1.2294966729974817e7 8.509908563172186e6 0.0
0.0 0.0 0.0

-2.9085964949145103e6 1.1365475934432248e7 0.0
1.1365475934432248e7 1.9200333478598269e6 0.0
0.0 0.0 0.0

-7.927263410322695e6 5.034589404552789e6 0.0
5.034589404552789e6 9.961304140423825e6 0.0
0.0 0.0 0.0

-5.98330183622403e6 1.0659822494913725e7 0.0
1.0659822494913725e7 4.524340605710501e6 0.0
0.0 0.0 0.0

-1.8934047540804525e6 7.3979631978672845e6 0.0
7.3979631978672845e6 -758205.2676976465 0.0
0.0 0.0 0.0

-2.1829053365603127e6 8.831758073179627e6 0.0
8.831758073179627e6 -1.7068254315519496e6 0.0
0.0 0.0 0.0

-2.6556231383166043e6 9.258554678061796e6 0.0
9.258554678061796e6 -1.0748874289769763e6 0.0
0.0 0.0 0.0

-368123.4317438915 5.738909307420249e6 0.0
5.738909307420249e6 -2.4432897749882787e6 0.0
0.0 0.0 0.0

-3.1934842979872916e6 1.096117022131084e7 0.0
1.096117022131084e7 -1.3752601519350768e6 0.0
0.0 0.0 0.0

445818.6540273898 6.376101471736907e6 0.0
6.376101471736907e6 -5.3911314199523255e6 0.0
0.0 0.0 0.0

1.5521312648196823e6 6.081060323998328e6 0.0
6.081060323998328e6 -5.556110557814846e6 0.0
0.0 0.0 0.0

-5.43364070814299e6 9.577657613234963e6 0.0
9.577657613234963e6 4.502359712480759e6 0.0
0.0 0.0 0.0

-4.529298666714555e6 1.0471330174789563e7 0.0
1.0471330174789563e7 871960.7142503404 0.0
0.0 0.0 0.0

1.6396882147413997e6 1.0982931224057076e7 0.0
1.0982931224057076e7 -4.29747821804949e6 0.0
0.0 0.0 0.0

-7.181040488397534e6 1.0678956929189077e7 0.0
1.0678956929189077e7 3.5475730831251736e6 0.0
0.0 0.0 0.0

2.2158678127802312e6 6.98435941038034e6 0.0
6.98435941038034e6 -5.897867635247097e6 0.0
0.0 0.0 0.0

-1.734577650238475e6 8.024835869981241e6 0.0
8.024835869981241e6 -2.0376294569449946e6 0.0
0.0 0.0 0.0

8.938053480849117e6 1.025825739340452e7 0.0
1.025825739340452e7 -540708.5735885785 0.0
0.0 0.0 0.0

38164.02928930987 6.90781311074444e6 0.0
6.90781311074444e6 -4.0809860456216834e6 0.0
0.0 0.0 0.0

1.1183908768456546e6 6.674363961421748e6 0.0
6.674363961421748e6 -6.364927805888183e6 0.0
0.0 0.0 0.0

-5.475228040792538e6 8.665592641922697e6 0.0
8.665592641922697e6 7.62781302177264e6 0.0
0.0 0.0 0.0

-778507.7204889911 1.0047176583513627e7 0.0
1.0047176583513627e7 -5.377575690342357e6 0.0
0.0 0.0 0.0

-2.471212982023133e6 6.509748629390212e6 0.0
6.509748629390212e6 1.138104764140057e6 0.0
0.0 0.0 0.0

-1.2107919959016988e7 1.101981561413032e7 0.0
1.101981561413032e7 8.62321414312456e6 0.0
0.0 0.0 0.0

-5.361324218953049e6 9.04448650682653e6 0.0
9.04448650682653e6 7.091294458646783e6 0.0
0.0 0.0 0.0

-5.926439076729411e6 1.1033942220848955e7 0.0
1.1033942220848955e7 4.579944595743317e6 0.0
0.0 0.0 0.0

-1.2517129798713733e7 1.1109226953719571e7 0.0
1.1109226953719571e7 7.518753293357902e6 0.0
0.0 0.0 0.0

-2.644310327047674e6 7.868144077355232e6 0.0
7.868144077355232e6 -566305.4071867305 0.0
0.0 0.0 0.0

1.2663159636560258e7 6.295443055938437e6 0.0
6.295443055938437e6 -3.297941955425727e6 0.0
0.0 0.0 0.0

-2.7581982784463246e6 9.590883976995528e6 0.0
9.590883976995528e6 -1.6891782085777046e6 0.0
0.0 0.0 0.0

-969078.7298099747 6.643487586648009e6 0.0
6.643487586648009e6 -3.1711992918678e6 0.0
0.0 0.0 0.0

-3.6426482381885746e6 1.1058098194210162e7 0.0
1.1058098194210162e7 -842881.7714011562 0.0
0.0 0.0 0.0

-4.873842141194666e6 1.1070625639351634e7 0.0
1.1070625639351634e7 696928.5139317685 0.0
0.0 0.0 0.0

266337.8327536795 6.274628386743771e6 0.0
6.274628386743771e6 -3.425876010220283e6 0.0
0.0 0.0 0.0

-4.225589765924913e6 1.115699640909407e7 0.0
1.115699640909407e7 3.814924266020202e6 0.0
0.0 0.0 0.0

212773.25640321244 9.51920504265357e6 0.0
9.51920504265357e6 -7.108516610788041e6 0.0
0.0 0.0 0.0

-4.1506383724587536e6 2.3142064310800177e6 0.0
2.3142064310800177e6 3.5720690368088e6 0.0
0.0 0.0 0.0

-4.433256750149038e6 1.0257549508612452e7 0.0
1.0257549508612452e7 941621.4733590989 0.0
0.0 0.0 0.0

-1.9687971882542004e6 7.862880799946306e6 0.0
7.862880799946306e6 -860458.8844947175 0.0
0.0 0.0 0.0

-4.39511855068148e6 1.0494147177060785e7 0.0
1.0494147177060785e7 1.3141465982353578e6 0.0
0.0 0.0 0.0

-1.937935639717917e6 8.836169853318123e6 0.0
8.836169853318123e6 -2.596961571661418e6 0.0
0.0 0.0 0.0

-1.1001160084295836e6 4.454212161345006e6 0.0
4.454212161345006e6 -555894.7918117513 0.0
0.0 0.0 0.0

-5.792952253719356e6 1.0026100727380348e7 0.0
1.0026100727380348e7 3.5878075239661774e6 0.0
0.0 0.0 0.0

-5.49978916621368e6 1.0340472769839477e7 0.0
1.0340472769839477e7 5.604930470071131e6 0.0
0.0 0.0 0.0

-4.9182355871050265e6 9.086484035050185e6 0.0
9.086484035050185e6 3.55914170719691e6 0.0
0.0 0.0 0.0

-1.3263354722311047e6 7.910518791765368e6 0.0
7.910518791765368e6 -2.2926850482665226e6 0.0
0.0 0.0 0.0

794742.2121718712 8.703467963223422e6 0.0
8.703467963223422e6 -7.45676510322619e6 0.0
0.0 0.0 0.0

-3.2931903636924024e6 8.220822443109431e6 0.0
8.220822443109431e6 188292.17672945443 0.0
0.0 0.0 0.0

-2.1476740242832284e6 1.0096085567160364e7 0.0
1.0096085567160364e7 -3.4483752224855823e6 0.0
0.0 0.0 0.0

-2.0978362821435872e6 8.769080588377168e6 0.0
8.769080588377168e6 -3.1180646971185366e6 0.0
0.0 0.0 0.0

-4.741719496380317e6 1.1190004499070585e7 0.0
1.1190004499070585e7 208157.13193916716 0.0
0.0 0.0 0.0

-3.0365919747998654e6 9.65445755119368e6 0.0
9.65445755119368e6 -1.689395952205083e6 0.0
0.0 0.0 0.0

180049.16998441005 8.420586741613997e6 0.0
8.420586741613997e6 -5.934170289183365e6 0.0
0.0 0.0 0.0

1.499795231370148e6 5.860750250408166e6 0.0
5.860750250408166e6 -4.1666662282534614e6 0.0
0.0 0.0 0.0

317238.3753645461 3.8558037232564087e6 0.0
3.8558037232564087e6 -2.7351225416422207e6 0.0
0.0 0.0 0.0

-8.375418347867171e6 1.355497173221178e7 0.0
1.355497173221178e7 4.795692371140279e6 0.0
0.0 0.0 0.0

-2.9652567632890833e6 7.847578031672335e6 0.0
7.847578031672335e6 -133072.20382586354 0.0
0.0 0.0 0.0

-3.479232260884428e6 9.92897789613839e6 0.0
9.92897789613839e6 -984303.3899169473 0.0
0.0 0.0 0.0

3.3296201915740245e6 5.671618295901285e6 0.0
5.671618295901285e6 -5.743604013988712e6 0.0
0.0 0.0 0.0

-1.1079601714656716e7 -1.488773032763813e6 0.0
-1.488773032763813e6 1.4938737777505048e7 0.0
0.0 0.0 0.0

-41959.57465736801 6.6219346689037625e6 0.0
6.6219346689037625e6 -4.8949048145062905e6 0.0
0.0 0.0 0.0

-2.5037930917472877e6 1.378691671338256e7 0.0
1.378691671338256e7 -3.0544328458734932e6 0.0
0.0 0.0 0.0

-4.856291565219862e6 1.2124022172375223e7 0.0
1.2124022172375223e7 666149.179197418 0.0
0.0 0.0 0.0

-5.815849144577393e6 1.0124603508271245e7 0.0
1.0124603508271245e7 3.47026052115922e6 0.0
0.0 0.0 0.0

2.1813975581789208e6 5.904113851694983e6 0.0
5.904113851694983e6 -7.376356021487828e6 0.0
0.0 0.0 0.0

-3.5303673989847526e6 1.0080198501182789e7 0.0
1.0080198501182789e7 -187206.22140979068 0.0
0.0 0.0 0.0

-4.118295538758557e6 1.0674997488427624e7 0.0
1.0674997488427624e7 -77367.08283971273 0.0
0.0 0.0 0.0

1.3559844520943891e6 6.990330736634581e6 0.0
6.990330736634581e6 -7.164201514399527e6 0.0
0.0 0.0 0.0

-5.379463965750408e6 1.1361553646793805e7 0.0
1.1361553646793805e7 1.580086581063726e6 0.0
0.0 0.0 0.0

-431222.0883688682 1.1960992283845698e7 0.0
1.1960992283845698e7 -4.466482054460698e6 0.0
0.0 0.0 0.0

-3.553932559317307e6 9.850314250437854e6 0.0
9.850314250437854e6 -541811.4075222982 0.0
0.0 0.0 0.0

840506.3853257983 9.899765566389374e6 0.0
9.899765566389374e6 -7.787546069959499e6 0.0
0.0 0.0 0.0

1.5194615060086672e6 6.993795089488982e6 0.0
6.993795089488982e6 -5.771423575490851e6 0.0
0.0 0.0 0.0

-787009.3461406548 7.316279469451253e6 0.0
7.316279469451253e6 -4.076209016973527e6 0.0
0.0 0.0 0.0

-3.658036016839381e6 1.049979426398156e7 0.0
1.049979426398156e7 -809063.189568202 0.0
0.0 0.0 0.0

-942452.3965336923 1.2027871135021098e7 0.0
1.2027871135021098e7 -4.491290637855936e6 0.0
0.0 0.0 0.0

-3.2623269959523007e6 9.792914632258406e6 0.0
9.792914632258406e6 -1.3452465764429437e6 0.0
0.0 0.0 0.0

341348.8623160571 7.218503323687291e6 0.0
7.218503323687291e6 -5.1361873955295235e6 0.0
0.0 0.0 0.0

1.5903491651208028e6 6.044891327607997e6 0.0
6.044891327607997e6 -6.084226453348735e6 0.0
0.0 0.0 0.0

-1.59566273381429e6 9.363794312765615e6 0.0
9.363794312765615e6 -3.9863887105622464e6 0.0
0.0 0.0 0.0

-1.0253858242021007e6 7.539755345366232e6 0.0
7.539755345366232e6 -3.730769889212101e6 0.0
0.0 0.0 0.0

-2.3262910477895793e6 7.495259204166401e6 0.0
7.495259204166401e6 -889387.5821282953 0.0
0.0 0.0 0.0

-7.061579065162254e6 1.110154986135961e7 0.0
1.110154986135961e7 4.0851066227419777e6 0.0
0.0 0.0 0.0

-1.082253741687069e7 8.954557512572553e6 0.0
8.954557512572553e6 3.2643229744343784e7 0.0
0.0 0.0 0.0

-2.9933408760429407e6 3.577277864414237e6 0.0
3.577277864414237e6 2.1503745640291837e6 0.0
0.0 0.0 0.0

-4.366134857407096e6 1.2119058319900062e7 0.0
1.2119058319900062e7 -1.125704093717296e6 0.0
0.0 0.0 0.0

-2.6361334657343384e6 7.472844675131876e6 0.0
7.472844675131876e6 -462769.7063680479 0.0
0.0 0.0 0.0

-8.378358339169513e6 1.6858441298407475e6 0.0
1.6858441298407475e6 1.1624008834863152e7 0.0
0.0 0.0 0.0

994806.6450203941 5.950802953593031e6 0.0
5.950802953593031e6 -5.204901163229654e6 0.0
0.0 0.0 0.0

-2.7821329923360064e6 7.801641293528018e6 0.0
7.801641293528018e6 485728.58943471825 0.0
0.0 0.0 0.0

-406012.78221455915 1.0078828374490816e7 0.0
1.0078828374490816e7 -6.046978849481281e6 0.0
0.0 0.0 0.0

-3.9866992363430485e6 1.1232212573639588e7 0.0
1.1232212573639588e7 -370783.79073611833 0.0
0.0 0.0 0.0

-3.6147154880406503e6 1.0258736752275009e7 0.0
1.0258736752275009e7 -265535.5995596562 0.0
0.0 0.0 0.0

-3.0483689319310533e6 6.781892000348959e6 0.0
6.781892000348959e6 496760.7597907658 0.0
0.0 0.0 0.0

-2.261654530076429e6 8.619467974503474e6 0.0
8.619467974503474e6 -994166.6901892353 0.0
0.0 0.0 0.0

-1.9893537600820544e6 5.010257138995796e6 0.0
5.010257138995796e6 -343177.31159435987 0.0
0.0 0.0 0.0

-2.1546961946113937e7 6.3587611329287635e6 0.0
6.3587611329287635e6 1.0770100864959974e7 0.0
0.0 0.0 0.0

-1.3090524131023758e6 8.7535376207302e6 0.0
8.7535376207302e6 2.809795587826002e6 0.0
0.0 0.0 0.0

-5.753535676916982e6 1.0116566608153142e7 0.0
1.0116566608153142e7 4.594485153284857e6 0.0
0.0 0.0 0.0

-5.177643667245417e6 1.0828079297821967e7 0.0
1.0828079297821967e7 2.6800566968474365e6 0.0
0.0 0.0 0.0

520382.5099595585 7.280007204643533e6 0.0
7.280007204643533e6 -5.601281488816546e6 0.0
0.0 0.0 0.0

1.072288042832435e6 7.088895085904347e6 0.0
7.088895085904347e6 -6.418868273826029e6 0.0
0.0 0.0 0.0

1.693014074079271e6 7.87742432688808e6 0.0
7.87742432688808e6 -7.623713667240641e6 0.0
0.0 0.0 0.0

-2.6877852124095364e6 6.798349300517764e6 0.0
6.798349300517764e6 -180150.8542222462 0.0
0.0 0.0 0.0

-5.413859724470444e6 5.114644314191183e6 0.0
5.114644314191183e6 5.395115826407622e6 0.0
0.0 0.0 0.0

-1.8617715213730054e6 5.432801715797175e6 0.0
5.432801715797175e6 267430.40536383085 0.0
0.0 0.0 0.0

700401.7593616741 1.1561216716497956e7 0.0
1.1561216716497956e7 -4.428860131494734e6 0.0
0.0 0.0 0.0

402748.96905620815 9.712899126334362e6 0.0
9.712899126334362e6 -6.998794643860734e6 0.0
0.0 0.0 0.0

-6.145418368017207e6 1.0473927559250621e7 0.0
1.0473927559250621e7 4.302388662656028e6 0.0
0.0 0.0 0.0

-6.408265242234229e6 1.5434176725202147e7 0.0
1.5434176725202147e7 1.2063869585462078e6 0.0
0.0 0.0 0.0

-6.71570868701638e6 1.1406835350519022e7 0.0
1.1406835350519022e7 4.314113000212834e6 0.0
0.0 0.0 0.0

-5.361041484517686e6 9.707912761403143e6 0.0
9.707912761403143e6 6.173645662226377e6 0.0
0.0 0.0 0.0

2.9707342054800317e6 7.441712014060233e6 0.0
7.441712014060233e6 -1.11100481022161e7 0.0
0.0 0.0 0.0

-1.871319548203106e6 8.661178184756948e6 0.0
8.661178184756948e6 -2.4976118192681107e6 0.0
0.0 0.0 0.0

3.769751321929801e6 5.037786325957408e6 0.0
5.037786325957408e6 -6.060861825172269e6 0.0
0.0 0.0 0.0

1.9561577486847e6 7.381789334082694e6 0.0
7.381789334082694e6 -7.758011573135731e6 0.0
0.0 0.0 0.0

-5.833098285535198e6 1.030132558700329e7 0.0
1.030132558700329e7 3.363659858444776e6 0.0
0.0 0.0 0.0

-3.8625808348673927e6 6.310398047058678e6 0.0
6.310398047058678e6 3.7401013825696805e6 0.0
0.0 0.0 0.0

-5.428649840181703e6 9.333460928503955e6 0.0
9.333460928503955e6 6.630179622920554e6 0.0
0.0 0.0 0.0

-5.811820054755174e6 1.0392568894381583e7 0.0
1.0392568894381583e7 4.735139042181679e6 0.0
0.0 0.0 0.0

49152.79283421533 6.744989462263059e6 0.0
6.744989462263059e6 -4.610599744063089e6 0.0
0.0 0.0 0.0

-4.413246952038217e6 1.2495130028770657e7 0.0
1.2495130028770657e7 2.2384478360536303e6 0.0
0.0 0.0 0.0

-8.077210633198372e6 1.3720303050415209e7 0.0
1.3720303050415209e7 3.9082285018674345e6 0.0
0.0 0.0 0.0

-6.302442268827225e6 1.0896012124287374e7 0.0
1.0896012124287374e7 4.335253743103847e6 0.0
0.0 0.0 0.0

-5.055334943633327e6 9.362711146631371e6 0.0
9.362711146631371e6 6.620471224740895e6 0.0
0.0 0.0 0.0

-2.0703558294643495e7 2.8324482298964098e7 0.0
2.8324482298964098e7 -3.544346633316055e6 0.0
0.0 0.0 0.0

-3.651748384400291e6 1.005343290831515e7 0.0
1.005343290831515e7 1.919002622311893e6 0.0
0.0 0.0 0.0

-4.088970357806103e6 7.797604985822482e6 0.0
7.797604985822482e6 1.8150346429816606e6 0.0
0.0 0.0 0.0

-1.3086983546804143e6 3.6774724307194185e6 0.0
3.6774724307194185e6 -659087.280418641 0.0
0.0 0.0 0.0

-2.370815563693398e6 8.972136573437791e6 0.0
8.972136573437791e6 -1.374279782101943e6 0.0
0.0 0.0 0.0

-3.727756612520946e6 1.1866378807051172e7 0.0
1.1866378807051172e7 530485.4740745388 0.0
0.0 0.0 0.0

-1.0412842761933716e7 1.2078917905271724e7 0.0
1.2078917905271724e7 7.750787522045104e6 0.0
0.0 0.0 0.0

-3.23319214466737e6 1.0035105965948675e7 0.0
1.0035105965948675e7 -946407.4406990012 0.0
0.0 0.0 0.0

-4.0654666336438265e6 1.0452261448177747e7 0.0
1.0452261448177747e7 -379374.81714986695 0.0
0.0 0.0 0.0

-1.391036619997763e6 3.710324386144266e6 0.0
3.710324386144266e6 984448.824934726 0.0
0.0 0.0 0.0

742694.1148727981 6.044685088728623e6 0.0
6.044685088728623e6 -4.8657427895414205e6 0.0
0.0 0.0 0.0

-7.131331107500296e6 1.3363776400613481e7 0.0
1.3363776400613481e7 3.8458641211156715e6 0.0
0.0 0.0 0.0

-5.504370109539041e6 1.010911309457337e7 0.0
1.010911309457337e7 5.90089620606827e6 0.0
0.0 0.0 0.0

-4.858244403032084e6 1.1043654402748512e7 0.0
1.1043654402748512e7 587539.06108741 0.0
0.0 0.0 0.0

465103.7777781596 3.9108099754422843e6 0.0
3.9108099754422843e6 -4.393676826045187e6 0.0
0.0 0.0 0.0

-5.759123555986146e6 1.2582855954587955e7 0.0
1.2582855954587955e7 1.374698505890498e6 0.0
0.0 0.0 0.0

-3.6637131946850177e6 1.0030189474387383e7 0.0
1.0030189474387383e7 -620890.7496100245 0.0
0.0 0.0 0.0

-1.2635887754714615e6 9.33378096271089e6 0.0
9.33378096271089e6 -4.409478907997743e6 0.0
0.0 0.0 0.0

-2.9561862019864204e6 9.532010587928567e6 0.0
9.532010587928567e6 -775183.2883367422 0.0
0.0 0.0 0.0

-7208.349126961548 6.864722552777948e6 0.0
6.864722552777948e6 -5.001415972154304e6 0.0
0.0 0.0 0.0

-3.239602061692091e6 9.146190976907773e6 0.0
9.146190976907773e6 414632.7361280052 0.0
0.0 0.0 0.0

-1.3941558350931748e6 3.9685518636721084e6 0.0
3.9685518636721084e6 -603509.5959917351 0.0
0.0 0.0 0.0

-3.1656477939701695e6 7.082389840551802e6 0.0
7.082389840551802e6 1.8193982470710543e6 0.0
0.0 0.0 0.0

-2.850501149891218e6 6.962589613563949e6 0.0
6.962589613563949e6 1.121597828615332e6 0.0
0.0 0.0 0.0

-1.2141998269296237e6 8.913452033995535e6 0.0
8.913452033995535e6 -6.735714466693348e6 0.0
0.0 0.0 0.0

-2.488073862595569e6 6.853474302617787e6 0.0
6.853474302617787e6 476563.5243044293 0.0
0.0 0.0 0.0

-1.8948636969179243e7 1.0224742780584885e7 0.0
1.0224742780584885e7 8.838420862253755e6 0.0
0.0 0.0 0.0

-2.99837235764086e6 7.511998455891092e6 0.0
7.511998455891092e6 -7399.192925257026 0.0
0.0 0.0 0.0

-1.0082578797860144e6 1.1528145850573637e7 0.0
1.1528145850573637e7 -536811.6467248591 0.0
0.0 0.0 0.0

-2.20941915897225e7 4.597247236217758e6 0.0
4.597247236217758e6 8.80399913583013e6 0.0
0.0 0.0 0.0

182371.74137543328 1.1848810099093875e7 0.0
1.1848810099093875e7 -4.541062599071203e6 0.0
0.0 0.0 0.0

-2.1684182186247017e6 7.371044220367558e6 0.0
7.371044220367558e6 -325777.5861185686 0.0
0.0 0.0 0.0

-438637.7544804504 7.290970051555649e6 0.0
7.290970051555649e6 -4.052106910547795e6 0.0
0.0 0.0 0.0

-5.440662352327191e6 1.0899780107512219e7 0.0
1.0899780107512219e7 3.1043723970773276e6 0.0
0.0 0.0 0.0

-231751.69540221104 7.496788040581238e6 0.0
7.496788040581238e6 -4.972875837429402e6 0.0
0.0 0.0 0.0

-193476.72692498425 8.2304055130943535e6 0.0
8.2304055130943535e6 -5.2194849078208795e6 0.0
0.0 0.0 0.0

-1.3150167291579528e6 4.323794392993347e6 0.0
4.323794392993347e6 -1.2248464567898666e6 0.0
0.0 0.0 0.0

-5.092654363914201e6 8.865459483009862e6 0.0
8.865459483009862e6 3.0226481244550664e6 0.0
0.0 0.0 0.0

1.5290191264543687e6 6.960263642317077e6 0.0
6.960263642317077e6 -6.570150043498278e6 0.0
0.0 0.0 0.0

-2.0654628741436077e6 5.527467180414309e6 0.0
5.527467180414309e6 783321.3058413686 0.0
0.0 0.0 0.0

-213335.07732117805 7.883357546600361e6 0.0
7.883357546600361e6 -5.108729683753776e6 0.0
0.0 0.0 0.0

-3.305901269565711e7 -1.1834577056457736e6 0.0
-1.1834577056457736e6 1.3900658875270303e7 0.0
0.0 0.0 0.0

2.8841819881900456e6 7.349168180641532e6 0.0
7.349168180641532e6 -1.0647783028614769e7 0.0
0.0 0.0 0.0

-4.423976554638723e6 8.191149851611362e6 0.0
8.191149851611362e6 2.174374239770893e6 0.0
0.0 0.0 0.0

-4.799635752107739e6 8.700883356355518e6 0.0
8.700883356355518e6 2.380149211358085e6 0.0
0.0 0.0 0.0

-6.175282707866434e6 1.151833426208942e7 0.0
1.151833426208942e7 4.621319483150335e6 0.0
0.0 0.0 0.0

-2.6724906093973713e6 9.025668503363555e6 0.0
9.025668503363555e6 -1.4461720735932002e6 0.0
0.0 0.0 0.0

-4.503866238739606e6 1.0850861505063083e7 0.0
1.0850861505063083e7 4.525329588745064e6 0.0
0.0 0.0 0.0

-1.1359325086425794e6 7.911195173173532e6 0.0
7.911195173173532e6 -4.1100083127983394e6 0.0
0.0 0.0 0.0

839450.94859546 7.726170281038668e6 0.0
7.726170281038668e6 -6.460932499649912e6 0.0
0.0 0.0 0.0

-5.4299506879138015e6 1.0669755464894643e7 0.0
1.0669755464894643e7 3.177283538421477e6 0.0
0.0 0.0 0.0

-5.853528881598216e6 1.2929001730667958e7 0.0
1.2929001730667958e7 760943.5352360243 0.0
0.0 0.0 0.0

2.3771050672371555e6 7.76878496442983e6 0.0
7.76878496442983e6 -9.028310172213998e6 0.0
0.0 0.0 0.0

-2.1665717506508194e6 6.062543074851703e6 0.0
6.062543074851703e6 463811.68471373 0.0
0.0 0.0 0.0

-6.489665082682532e6 1.156677300631739e7 0.0
1.156677300631739e7 4.383595462687245e6 0.0
0.0 0.0 0.0

-2.8250662759912975e7 2.450082224222104e7 0.0
2.450082224222104e7 7.366187310103491e6 0.0
0.0 0.0 0.0

-5.569082196846053e6 2.6088045114624873e6 0.0
2.6088045114624873e6 8.52438330559087e6 0.0
0.0 0.0 0.0

-441146.3545375215 8.65001819033918e6 0.0
8.65001819033918e6 -6.3262806179694375e6 0.0
0.0 0.0 0.0

804101.4421808599 3.961968290174078e6 0.0
3.961968290174078e6 -3.251788670207989e6 0.0
0.0 0.0 0.0

-3.793920587806134e6 56011.88909412395 0.0
56011.88909412395 4.215212952570802e6 0.0
0.0 0.0 0.0

2.5504660778370784e6 5.594920394178448e6 0.0
5.594920394178448e6 -7.804622489381804e6 0.0
0.0 0.0 0.0

-3.2135278194228117e6 1.1358679088263862e7 0.0
1.1358679088263862e7 1.0534429784195393e6 0.0
0.0 0.0 0.0

374418.1275552977 1.0346652936763287e7 0.0
1.0346652936763287e7 -6.931275185060538e6 0.0
0.0 0.0 0.0

-9.898265059214767e6 5.863823770194467e6 0.0
5.863823770194467e6 1.1209451221583858e7 0.0
0.0 0.0 0.0

-3.863822289747156e6 1.1980122825311063e7 0.0
1.1980122825311063e7 -1.6696543184753144e6 0.0
0.0 0.0 0.0

-272291.2878390141 7.163643150590678e6 0.0
7.163643150590678e6 -4.831610099559961e6 0.0
0.0 0.0 0.0

-9.2213910082772e6 8.687685817099702e6 0.0
8.687685817099702e6 1.5600357244332662e7 0.0
0.0 0.0 0.0

-2.42631025341785e6 8.599148439313818e6 0.0
8.599148439313818e6 -624740.552493534 0.0
0.0 0.0 0.0

-6.710808544518156e6 9.875154603130512e6 0.0
9.875154603130512e6 7.809277723219373e6 0.0
0.0 0.0 0.0

300086.5797948898 1.051561422132765e7 0.0
1.051561422132765e7 -6.651199725066152e6 0.0
0.0 0.0 0.0

2.129236180164683e7 7.207420483545745e6 0.0
7.207420483545745e6 -4.1351951694580438e6 0.0
0.0 0.0 0.0

-4.365116288266219e6 1.1348350926701626e7 0.0
1.1348350926701626e7 40166.824696919415 0.0
0.0 0.0 0.0

-6.948278994457729e6 1.3641592272444429e7 0.0
1.3641592272444429e7 3.4217139786303802e6 0.0
0.0 0.0 0.0

-581014.685635817 7.464881209318751e6 0.0
7.464881209318751e6 -4.596977193740278e6 0.0
0.0 0.0 0.0

184766.8555902103 7.38167229542831e6 0.0
7.38167229542831e6 -4.796422320069909e6 0.0
0.0 0.0 0.0

-2.503853259011203e6 8.894770627793225e6 0.0
8.894770627793225e6 -1.800508795622115e6 0.0
0.0 0.0 0.0

-3.4861009008623883e6 5.328626420928707e6 0.0
5.328626420928707e6 3.2786054274391634e6 0.0
0.0 0.0 0.0

516186.14989409875 9.898198038992552e6 0.0
9.898198038992552e6 -7.918343974107297e6 0.0
0.0 0.0 0.0

3.826384527547286e6 4.270722123521765e6 0.0
4.270722123521765e6 -6.030350877148049e6 0.0
0.0 0.0 0.0

-1.0728698635361777e6 8.688371473897433e6 0.0
8.688371473897433e6 -4.449496409061756e6 0.0
0.0 0.0 0.0

-1.3724179247608442e7 8.89630618274478e6 0.0
8.89630618274478e6 9.940919799288794e6 0.0
0.0 0.0 0.0

-1.237264068028829e6 5.726244389115083e6 0.0
5.726244389115083e6 -2.111349347846642e6 0.0
0.0 0.0 0.0

-9.55909048471973e6 9.719867371612482e6 0.0
9.719867371612482e6 1.9806933787045285e7 0.0
0.0 0.0 0.0

-3.6510960461627506e6 1.1187237431005454e7 0.0
1.1187237431005454e7 3.1764085423120405e6 0.0
0.0 0.0 0.0

2.7628372136693206e6 9.452687778348835e6 0.0
9.452687778348835e6 -3.103249563100461e6 0.0
0.0 0.0 0.0

-6.342809237742047e6 1.157103970319561e7 0.0
1.157103970319561e7 4.570107981253117e6 0.0
0.0 0.0 0.0

-4.607244418863336e6 1.1459593603857696e7 0.0
1.1459593603857696e7 589143.332523383 0.0
0.0 0.0 0.0

-6.279128075176432e6 1.0857625339874301e7 0.0
1.0857625339874301e7 4.400611369535777e6 0.0
0.0 0.0 0.0

-3.127543422487283e6 5.760369424724338e6 0.0
5.760369424724338e6 2.5008340365866236e6 0.0
0.0 0.0 0.0

-3.8384501936788186e6 7.438202372650123e6 0.0
7.438202372650123e6 2.793388433446856e6 0.0
0.0 0.0 0.0

-1.5775553645019655e6 4.0997743679402927e6 0.0
4.0997743679402927e6 -726255.0825044173 0.0
0.0 0.0 0.0

1.7131165407499243e6 8.06151523869035e6 0.0
8.06151523869035e6 2.0606417043924534e6 0.0
0.0 0.0 0.0

155570.56875994802 1.072579079744608e7 0.0
1.072579079744608e7 -6.3199175713178795e6 0.0
0.0 0.0 0.0

-4.563583345663599e6 1.1201301548141671e7 0.0
1.1201301548141671e7 800908.0090491173 0.0
0.0 0.0 0.0

-5.818392093262421e6 1.0479673802572101e7 0.0
1.0479673802572101e7 3.2626781731462497e6 0.0
0.0 0.0 0.0

-832620.8154105233 1.7134221890891858e6 0.0
1.7134221890891858e6 -462965.3363281519 0.0
0.0 0.0 0.0

-6.4812697325495e6 1.111229762485784e7 0.0
1.111229762485784e7 4.296353546261451e6 0.0
0.0 0.0 0.0

-2.46603537063716e6 7.404788052840516e6 0.0
7.404788052840516e6 131356.80257866648 0.0
0.0 0.0 0.0

-6.710873875913685e6 1.140872063585819e7 0.0
1.140872063585819e7 4.764617339939314e6 0.0
0.0 0.0 0.0

3.0028380871270727e6 9.429686369290514e6 0.0
9.429686369290514e6 -3.0923644617323447e6 0.0
0.0 0.0 0.0

-6.145841320950503e6 1.2807821983374491e7 0.0
1.2807821983374491e7 2.405486651708441e6 0.0
0.0 0.0 0.0

1.2306531789311995e6 6.064922769443675e6 0.0
6.064922769443675e6 -6.133051129568474e6 0.0
0.0 0.0 0.0

-4.726917432377132e6 3.4214213307910156e6 0.0
3.4214213307910156e6 6.320451364534121e6 0.0
0.0 0.0 0.0

858952.9654795672 1.0964439439826667e7 0.0
1.0964439439826667e7 -5.532872722148613e6 0.0
0.0 0.0 0.0

-20975.096621599514 1.0937830506684367e7 0.0
1.0937830506684367e7 -5.985123406051433e6 0.0
0.0 0.0 0.0

-2.105698713351351e6 8.281103730950652e6 0.0
8.281103730950652e6 -940125.8422880106 0.0
0.0 0.0 0.0

-2.923824609575907e6 1.1402143361306366e7 0.0
1.1402143361306366e7 1.1997298568131104e6 0.0
0.0 0.0 0.0

-3.0625079599510133e6 1.2503148459388992e7 0.0
1.2503148459388992e7 -1.5162523777439164e6 0.0
0.0 0.0 0.0

977003.7520922052 1.0051964696839958e7 0.0
1.0051964696839958e7 -5.447252454006122e6 0.0
0.0 0.0 0.0

-3.272647100251153e6 6.720104668736675e6 0.0
6.720104668736675e6 1.7528297401719617e6 0.0
0.0 0.0 0.0

876144.3234899137 7.398272666212899e6 0.0
7.398272666212899e6 -5.543695010022147e6 0.0
0.0 0.0 0.0

692559.539102179 1.0428526758381298e7 0.0
1.0428526758381298e7 -6.589268175165523e6 0.0
0.0 0.0 0.0

-2.7748937915025996e6 9.418630511385193e6 0.0
9.418630511385193e6 3.987197274832068e6 0.0
0.0 0.0 0.0

-3.261925903337853e6 9.577568236384157e6 0.0
9.577568236384157e6 -835175.6160544073 0.0
0.0 0.0 0.0

2.4801531350472164e6 7.170097989458313e6 0.0
7.170097989458313e6 -8.70228934977128e6 0.0
0.0 0.0 0.0

3.5389173973475457e6 6.819550981841854e6 0.0
6.819550981841854e6 -1.043023439572201e7 0.0
0.0 0.0 0.0

-3.3793102677500583e6 7.073467227302322e6 0.0
7.073467227302322e6 982993.6434107784 0.0
0.0 0.0 0.0

-5.813836557021872e6 1.069003481765657e7 0.0
1.069003481765657e7 3.1732986212313147e6 0.0
0.0 0.0 0.0

-2.1150710644010818e6 3.4984427030990217e6 0.0
3.4984427030990217e6 2.0345811225123834e6 0.0
0.0 0.0 0.0

-3.634871003774906e6 7.273041791181641e6 0.0
7.273041791181641e6 1.5980690375508885e6 0.0
0.0 0.0 0.0

-4.801490764022082e6 8.584060969690349e6 0.0
8.584060969690349e6 2.549859985716684e6 0.0
0.0 0.0 0.0

652342.5538489476 7.135004411987379e6 0.0
7.135004411987379e6 -5.173118816641226e6 0.0
0.0 0.0 0.0

2.590552132214565e6 5.628347004172868e6 0.0
5.628347004172868e6 -7.918414362325136e6 0.0
0.0 0.0 0.0

-4.239564472638097e6 8.427497677223638e6 0.0
8.427497677223638e6 2.7137075760367205e6 0.0
0.0 0.0 0.0

-9.67924281813606e6 1.189869959169057e7 0.0
1.189869959169057e7 2.537549112513805e7 0.0
0.0 0.0 0.0

-4.519623246928908e6 8.95590069150061e6 0.0
8.95590069150061e6 2.7618248347303895e6 0.0
0.0 0.0 0.0

-4.919786757958794e6 1.1435852246170748e7 0.0
1.1435852246170748e7 1.0182519276464926e6 0.0
0.0 0.0 0.0

-386311.06783044245 8.125808204001572e6 0.0
8.125808204001572e6 -4.783024638433617e6 0.0
0.0 0.0 0.0

-5.766972461315291e6 1.1603666620822364e7 0.0
1.1603666620822364e7 2.7218063630034374e6 0.0
0.0 0.0 0.0

-5.4145339684866145e6 1.0454926283778131e7 0.0
1.0454926283778131e7 3.264027063814458e6 0.0
0.0 0.0 0.0

-1.4400485250964556e6 1.192839959052866e7 0.0
1.192839959052866e7 4.502947559347873e6 0.0
0.0 0.0 0.0

3.1170804839979927e6 4.6690906335770795e6 0.0
4.6690906335770795e6 -6.161480078461823e6 0.0
0.0 0.0 0.0

-473074.7805295981 1.2283048256353242e7 0.0
1.2283048256353242e7 -4.1637632527906783e6 0.0
0.0 0.0 0.0

1.9110232725110403e6 5.052865059153998e6 0.0
5.052865059153998e6 -5.306338026395335e6 0.0
0.0 0.0 0.0

-2.7026659685775507e6 6.705356066609836e6 0.0
6.705356066609836e6 1.3725020811650427e6 0.0
0.0 0.0 0.0

-5.578842826501282e6 9.828019217703337e6 0.0
9.828019217703337e6 3.1895775202415017e6 0.0
0.0 0.0 0.0

-3.2455161066367957e6 9.803316811854998e6 0.0
9.803316811854998e6 -482072.3017534168 0.0
0.0 0.0 0.0

104144.06703321729 6.794042829630271e6 0.0
6.794042829630271e6 -4.618589996716011e6 0.0
0.0 0.0 0.0

676535.171517161 1.0540651211112825e7 0.0
1.0540651211112825e7 -5.603357949017893e6 0.0
0.0 0.0 0.0

-5.148053621194109e6 1.1518565526107071e7 0.0
1.1518565526107071e7 1.4015962997407855e6 0.0
0.0 0.0 0.0

-3.743596055669032e6 2.2496743879948743e6 0.0
2.2496743879948743e6 5.110882529721484e6 0.0
0.0 0.0 0.0

-4.587140425317528e6 7.941347055393996e6 0.0
7.941347055393996e6 4.0274353201155104e6 0.0
0.0 0.0 0.0

-2.2448000218831655e6 5.851790279966227e6 0.0
5.851790279966227e6 1.0822757011285806e6 0.0
0.0 0.0 0.0

-2.666168687644456e6 7.106676787034313e6 0.0
7.106676787034313e6 -338071.5726481973 0.0
0.0 0.0 0.0

-6.100919614579998e6 1.0743435725734264e7 0.0
1.0743435725734264e7 4.580982600662863e6 0.0
0.0 0.0 0.0

-3.15493198025623e6 9.215740759678073e6 0.0
9.215740759678073e6 -403463.81333526224 0.0
0.0 0.0 0.0

-5.996639240641745e6 1.1277347767578198e7 0.0
1.1277347767578198e7 2.936436992554842e6 0.0
0.0 0.0 0.0

-1.6824818191927625e6 4.601839732005396e6 0.0
4.601839732005396e6 -758658.9104441109 0.0
0.0 0.0 0.0

-3.6101469401248717e6 7.432751226875569e6 0.0
7.432751226875569e6 2.3379921358363573e6 0.0
0.0 0.0 0.0

-5.863045526471359e6 1.0905278511269724e7 0.0
1.0905278511269724e7 3.09615779154013e6 0.0
0.0 0.0 0.0

-2.082814247855761e6 1.2416665340534605e7 0.0
1.2416665340534605e7 -2.763398540198317e6 0.0
0.0 0.0 0.0

-1.2758727898920795e6 9.667307499805553e6 0.0
9.667307499805553e6 5.731806083408606e6 0.0
0.0 0.0 0.0

-2.472896021097561e6 7.102644199484471e6 0.0
7.102644199484471e6 307333.9808869978 0.0
0.0 0.0 0.0

-2.2064268199696206e6 1.3883170695830524e7 0.0
1.3883170695830524e7 -2.0846723332714033e6 0.0
0.0 0.0 0.0

-3.179523563528844e6 7.514830112427446e6 0.0
7.514830112427446e6 1.2996179935108584e6 0.0
0.0 0.0 0.0

-4.292496549254298e6 7.836407076489218e6 0.0
7.836407076489218e6 3.3380833895566575e6 0.0
0.0 0.0 0.0

-1.5503394190711149e6 5.0251718173602335e6 0.0
5.0251718173602335e6 -136915.97723507753 0.0
0.0 0.0 0.0

-5.922621950997367e6 1.1086645983653149e7 0.0
1.1086645983653149e7 3.0080969160815207e6 0.0
0.0 0.0 0.0

1.4784957596662375e6 6.468352207363743e6 0.0
6.468352207363743e6 -6.043107081013632e6 0.0
0.0 0.0 0.0

1.225033845036418e6 7.086429183665818e6 0.0
7.086429183665818e6 -5.909701258241998e6 0.0
0.0 0.0 0.0

-6.088270443611551e6 1.1380023689714624e7 0.0
1.1380023689714624e7 4.710250382952511e6 0.0
0.0 0.0 0.0

-606982.5681895837 7.355926882224506e6 0.0
7.355926882224506e6 -3.293813329946676e6 0.0
0.0 0.0 0.0

162367.64412887394 7.062671537323482e6 0.0
7.062671537323482e6 -4.682635480269369e6 0.0
0.0 0.0 0.0

-7.040508291942146e6 1.2328297699622316e7 0.0
1.2328297699622316e7 3.7545399296874357e6 0.0
0.0 0.0 0.0

-5.56738693232466e6 1.156591745942978e7 0.0
1.156591745942978e7 2.288767118161863e6 0.0
0.0 0.0 0.0

-3.7396979787915167e6 1.017321312168717e7 0.0
1.017321312168717e7 -663216.0048593206 0.0
0.0 0.0 0.0

571267.74228608 1.0155690657610752e7 0.0
1.0155690657610752e7 -7.510200559083605e6 0.0
0.0 0.0 0.0

-7.195035790065989e6 1.2000662539936766e7 0.0
1.2000662539936766e7 4.602784207774189e6 0.0
0.0 0.0 0.0

-4.93435946763985e6 8.070071371421038e6 0.0
8.070071371421038e6 4.800528880864708e6 0.0
0.0 0.0 0.0

643829.3343947912 7.220908316780454e6 0.0
7.220908316780454e6 -5.124140924821834e6 0.0
0.0 0.0 0.0

-7.904069471069846e6 1.3796686968151247e7 0.0
1.3796686968151247e7 4.784430726745244e6 0.0
0.0 0.0 0.0

-2.6429002886640234e6 1.1541060253893333e7 0.0
1.1541060253893333e7 2.3506851072226223e6 0.0
0.0 0.0 0.0

-5.372742930425747e6 1.155795853938413e7 0.0
1.155795853938413e7 1.8964360326919341e6 0.0
0.0 0.0 0.0

-238624.66529544117 1.1157228551447535e7 0.0
1.1157228551447535e7 -5.651991487309334e6 0.0
0.0 0.0 0.0

-5.908366945927802e6 1.1482409729578549e7 0.0
1.1482409729578549e7 3.279231147863516e6 0.0
0.0 0.0 0.0

-5.385887301463905e6 1.0948114308972618e7 0.0
1.0948114308972618e7 4.932651839928413e6 0.0
0.0 0.0 0.0

-6.104371263080228e6 1.1611695232001822e7 0.0
1.1611695232001822e7 2.7744985695508826e6 0.0
0.0 0.0 0.0

-7.273034801606764e6 1.601034564453856e7 0.0
1.601034564453856e7 3.1112176364260204e6 0.0
0.0 0.0 0.0

-5.052543215193251e6 6.215249321626498e6 0.0
6.215249321626498e6 5.788219337935839e6 0.0
0.0 0.0 0.0

-79734.09029553714 7.386773676963158e6 0.0
7.386773676963158e6 -4.4755664789034175e6 0.0
0.0 0.0 0.0

-4.0264742011958323e6 5.147168198537313e6 0.0
5.147168198537313e6 4.12655213024703e6 0.0
0.0 0.0 0.0

-3.2807643441408486e6 6.989584512976462e6 0.0
6.989584512976462e6 1.4831282938328814e6 0.0
0.0 0.0 0.0

-1.6706741112896157e6 -1.6953997176459935e6 0.0
-1.6953997176459935e6 2.930372453137153e6 0.0
0.0 0.0 0.0

-2.2187543483734243e6 -578559.2810710014 0.0
-578559.2810710014 2.7305225189319947e6 0.0
0.0 0.0 0.0

-5.597176046768431e6 6.2035731293707825e6 0.0
6.2035731293707825e6 6.784592054513078e6 0.0
0.0 0.0 0.0

2.4178685877007707e6 9.433533702791376e6 0.0
9.433533702791376e6 528072.7786512484 0.0
0.0 0.0 0.0

-6.0049833754175445e6 1.2308720090961155e7 0.0
1.2308720090961155e7 2.468976601813288e6 0.0
0.0 0.0 0.0

-3.8257038809808306e6 1.044722502451111e7 0.0
1.044722502451111e7 -391084.05049252044 0.0
0.0 0.0 0.0

-65204.709969783435 7.714125915648912e6 0.0
7.714125915648912e6 -4.63581764078666e6 0.0
0.0 0.0 0.0

-1.405765883720177e6 1.1792236276967261e7 0.0
1.1792236276967261e7 3.37917719069961e6 0.0
0.0 0.0 0.0

-7.466156289070457e6 1.2051433496914681e7 0.0
1.2051433496914681e7 5.34504819968596e6 0.0
0.0 0.0 0.0

-7.418839171591733e6 1.2529536201767588e7 0.0
1.2529536201767588e7 4.0240390413375213e6 0.0
0.0 0.0 0.0

-7.746557614529226e6 1.2950871495132824e7 0.0
1.2950871495132824e7 4.070663520275407e6 0.0
0.0 0.0 0.0

-4.961305333231235e6 8.7157636567934e6 0.0
8.7157636567934e6 3.1227205606438406e6 0.0
0.0 0.0 0.0

-3.746144704363908e6 7.384565702187253e6 0.0
7.384565702187253e6 1.4514099394748157e6 0.0
0.0 0.0 0.0

-2.3441663340672664e6 5.585415747369882e6 0.0
5.585415747369882e6 42121.17175609036 0.0
0.0 0.0 0.0

-5.598415191891438e6 1.0057362263408255e7 0.0
1.0057362263408255e7 4.114012831647476e6 0.0
0.0 0.0 0.0

-3.1805755119270305e6 7.277319888606099e6 0.0
7.277319888606099e6 1.583599791382082e6 0.0
0.0 0.0 0.0

-6.326050581402823e6 4.993480684592068e6 0.0
4.993480684592068e6 8.826883132578723e6 0.0
0.0 0.0 0.0

-89802.52763576969 8.0870797767961845e6 0.0
8.0870797767961845e6 -4.796987977630835e6 0.0
0.0 0.0 0.0

-5.386563636176368e6 9.172648218095785e6 0.0
9.172648218095785e6 3.4469325306327348e6 0.0
0.0 0.0 0.0

-5.743360195205396e6 4.301320099671686e6 0.0
4.301320099671686e6 8.26226512935536e6 0.0
0.0 0.0 0.0

-3.9779900320469746e6 1.0332992202670522e7 0.0
1.0332992202670522e7 2.986994735583889e6 0.0
0.0 0.0 0.0

-3.3787125655409032e6 7.396015060021931e6 0.0
7.396015060021931e6 646647.2221520734 0.0
0.0 0.0 0.0

-6.20481650205595e6 1.169489497093723e7 0.0
1.169489497093723e7 3.621337383621527e6 0.0
0.0 0.0 0.0

-5.590460754719741e6 1.1269432952571945e7 0.0
1.1269432952571945e7 2.91465659287348e6 0.0
0.0 0.0 0.0

-5.508122711431723e6 1.1035060275234707e7 0.0
1.1035060275234707e7 4.803136081533996e6 0.0
0.0 0.0 0.0

467162.5788861243 1.0381698365408033e7 0.0
1.0381698365408033e7 -6.993272691049546e6 0.0
0.0 0.0 0.0

-5.4943067346291505e6 9.647883947290344e6 0.0
9.647883947290344e6 3.419317708552133e6 0.0
0.0 0.0 0.0

-4.993850407267184e6 8.459659536641536e6 0.0
8.459659536641536e6 4.589358186305143e6 0.0
0.0 0.0 0.0

-3.508388165793889e6 1.0153236975006083e7 0.0
1.0153236975006083e7 -634596.3127102178 0.0
0.0 0.0 0.0

-6.991715591725104e6 1.4060514780858366e7 0.0
1.4060514780858366e7 3.4301214604114513e6 0.0
0.0 0.0 0.0

-5.648258669825654e6 1.1106564570009775e7 0.0
1.1106564570009775e7 4.7718524401599e6 0.0
0.0 0.0 0.0

-3.5980886288742446e6 1.0095122436269417e7 0.0
1.0095122436269417e7 -1.046578424014855e6 0.0
0.0 0.0 0.0

1.1569574647795348e6 7.291755933541955e6 0.0
7.291755933541955e6 -6.098716997759168e6 0.0
0.0 0.0 0.0

-4.551352982397597e6 8.726652376440294e6 0.0
8.726652376440294e6 3.1372770698179677e6 0.0
0.0 0.0 0.0

-3.1818880027499655e6 1.3378494343921822e7 0.0
1.3378494343921822e7 -1.287166756227351e6 0.0
0.0 0.0 0.0

2.5010534769873386e6 4.1489382161635724e6 0.0
4.1489382161635724e6 -4.409413770678296e6 0.0
0.0 0.0 0.0

1.5021981424119817e6 7.609493513919368e6 0.0
7.609493513919368e6 -8.113414266071301e6 0.0
0.0 0.0 0.0

-2.8261263986135176e6 9.785070313894132e6 0.0
9.785070313894132e6 -1.748647472370267e6 0.0
0.0 0.0 0.0

1.1452498171819043e6 9.860397771066409e6 0.0
9.860397771066409e6 2.6995846925432635e6 0.0
0.0 0.0 0.0

878593.2438244782 7.470275330433471e6 0.0
7.470275330433471e6 -6.383355745529161e6 0.0
0.0 0.0 0.0

686223.4654679252 7.823760510374212e6 0.0
7.823760510374212e6 -6.31249744871986e6 0.0
0.0 0.0 0.0

653837.2748133582 8.295755597781052e6 0.0
8.295755597781052e6 -576090.9697383377 0.0
0.0 0.0 0.0

-3.622875312098344e6 2.926749588728745e6 0.0
2.926749588728745e6 4.384480111918109e6 0.0
0.0 0.0 0.0

-2.7163037148427116e6 6.110709971202297e6 0.0
6.110709971202297e6 660599.7825017835 0.0
0.0 0.0 0.0

-1.063742779902471e6 1.0645289525495281e7 0.0
1.0645289525495281e7 -8.776847573165394e6 0.0
0.0 0.0 0.0

-3.9947365629108194e6 7.672910556611648e6 0.0
7.672910556611648e6 1.9738424239323512e6 0.0
0.0 0.0 0.0

-3.286400241705339e6 5.837015188785382e6 0.0
5.837015188785382e6 1.9086245004970774e6 0.0
0.0 0.0 0.0

-1.1488083143732557e6 9.082545534749035e6 0.0
9.082545534749035e6 2.362409262665116e6 0.0
0.0 0.0 0.0

-3.0118889889870808e6 158299.16569462346 0.0
158299.16569462346 3.3005778858185997e6 0.0
0.0 0.0 0.0

-4.718920058825937e6 8.487184299267484e6 0.0
8.487184299267484e6 2.6546223286226573e6 0.0
0.0 0.0 0.0

-6.186385078385206e6 1.0981761962796763e7 0.0
1.0981761962796763e7 4.737668828900223e6 0.0
0.0 0.0 0.0

-1.867121619000685e6 9.741552332998926e6 0.0
9.741552332998926e6 -3.739350416683059e6 0.0
0.0 0.0 0.0

-166974.26494797005 1.7204798703840743e6 0.0
1.7204798703840743e6 -1.3904871039872982e6 0.0
0.0 0.0 0.0

-2.0937874794429643e6 5.200788473043609e6 0.0
5.200788473043609e6 -402327.5575735828 0.0
0.0 0.0 0.0

2.937113417504293e6 7.806444422143134e6 0.0
7.806444422143134e6 -1.1689747957210816e7 0.0
0.0 0.0 0.0

-6.578540628399202e6 1.479405611775894e7 0.0
1.479405611775894e7 2.6775586179926074e6 0.0
0.0 0.0 0.0

-9.708832961031932e6 3.4946460134449145e6 0.0
3.4946460134449145e6 1.3847861523042757e7 0.0
0.0 0.0 0.0

-2.160614155565678e6 8.98518521289892e6 0.0
8.98518521289892e6 -1.53090687766683e6 0.0
0.0 0.0 0.0

-3.6832464359601648e6 5.40936606369834e6 0.0
5.40936606369834e6 2.5579649902286036e6 0.0
0.0 0.0 0.0

-9.077584754244983e6 9.138780620124979e6 0.0
9.138780620124979e6 6.652723222465495e6 0.0
0.0 0.0 0.0

-928580.9845663385 1.1141455241783675e7 0.0
1.1141455241783675e7 -1.1167878075679021e6 0.0
0.0 0.0 0.0

-1.0074657733894188e6 1.0618021472160352e7 0.0
1.0618021472160352e7 1.4893365568677108e6 0.0
0.0 0.0 0.0

1.7474852207872318e6 7.396982794135194e6 0.0
7.396982794135194e6 -8.451560114280239e6 0.0
0.0 0.0 0.0

-4.644193103247694e6 6.225068708888132e6 0.0
6.225068708888132e6 567847.8482228443 0.0
0.0 0.0 0.0

-9.076584470135115e6 1.7160548065543108e7 0.0
1.7160548065543108e7 1.7466678300309023e6 0.0
0.0 0.0 0.0

-4.822176840622878e6 8.98470002387201e6 0.0
8.98470002387201e6 3.5188413330437467e6 0.0
0.0 0.0 0.0

-3.7954357591355387e6 -420986.25697716954 0.0
-420986.25697716954 3.669594547297008e6 0.0
0.0 0.0 0.0

-2.1205512369832927e6 1.0820770496709798e7 0.0
1.0820770496709798e7 2.347695434386672e6 0.0
0.0 0.0 0.0

-7.640360719495771e6 1.1529732695128066e7 0.0
1.1529732695128066e7 5.218280567657579e6 0.0
0.0 0.0 0.0

-1.450680829152952e6 4.659797458877852e6 0.0
4.659797458877852e6 -1.2778151677823686e6 0.0
0.0 0.0 0.0

-4.0736136488362662e6 1.1951022358796466e7 0.0
1.1951022358796466e7 7.35889630659535e6 0.0
0.0 0.0 0.0

-4.282568873963084e6 7.4710508819393e6 0.0
7.4710508819393e6 2.790104085644904e6 0.0
0.0 0.0 0.0

-3.45540346486489e6 7.089076637801393e6 0.0
7.089076637801393e6 1.8501569420989528e6 0.0
0.0 0.0 0.0

-9.68810728711876e6 2.554163619839463e6 0.0
2.554163619839463e6 1.3358088290064503e7 0.0
0.0 0.0 0.0

-2.4788463205482285e6 1.0590077505121203e7 0.0
1.0590077505121203e7 3.4537093898262726e6 0.0
0.0 0.0 0.0

-8.09960855570031e6 1.1545378375555955e7 0.0
1.1545378375555955e7 5.733025904852896e6 0.0
0.0 0.0 0.0

-8.91375681991015e6 1.3781845647576105e7 0.0
1.3781845647576105e7 4.9014938674281705e6 0.0
0.0 0.0 0.0

-5.653554131071737e6 9.54180063968282e6 0.0
9.54180063968282e6 3.840613021916303e6 0.0
0.0 0.0 0.0

3.241742836804793e6 3.2381697309018346e6 0.0
3.2381697309018346e6 -4.878883213289801e6 0.0
0.0 0.0 0.0

452464.3033409803 7.792217869177314e6 0.0
7.792217869177314e6 -5.173611946183721e6 0.0
0.0 0.0 0.0

-209241.84553536563 6.97203069497306e6 0.0
6.97203069497306e6 -4.335594386206767e6 0.0
0.0 0.0 0.0

-4.0556795263052112e6 7.7430113023888385e6 0.0
7.7430113023888385e6 1.9211388752229102e6 0.0
0.0 0.0 0.0

-1.4488169067630472e7 1.9579450971644446e7 0.0
1.9579450971644446e7 5.494713363616669e6 0.0
0.0 0.0 0.0

-1.6630219650761974e6 4.403392669606345e6 0.0
4.403392669606345e6 -722631.5156171193 0.0
0.0 0.0 0.0

-6.2927082710048705e6 1.3209901455032753e7 0.0
1.3209901455032753e7 2.5081037128014327e6 0.0
0.0 0.0 0.0

-3.7292095996680236e6 1.3652738112135295e7 0.0
1.3652738112135295e7 -653694.7650963615 0.0
0.0 0.0 0.0

-1.313750802627183e6 5.0022425321883205e6 0.0
5.0022425321883205e6 -771173.1301159175 0.0
0.0 0.0 0.0

-604637.0628768217 7.626416921334542e6 0.0
7.626416921334542e6 -2.5815578336310587e6 0.0
0.0 0.0 0.0

156277.7207688128 1.0602827199839555e7 0.0
1.0602827199839555e7 5.559454993103436e6 0.0
0.0 0.0 0.0

-766993.4674757479 1.2547862807832163e7 0.0
1.2547862807832163e7 5.222293671798543e6 0.0
0.0 0.0 0.0

-988314.456434346 1.0699316625426697e7 0.0
1.0699316625426697e7 1.1808052179397554e6 0.0
0.0 0.0 0.0

-3.971246237248325e6 7.458220951938086e6 0.0
7.458220951938086e6 2.329649198960729e6 0.0
0.0 0.0 0.0

-1.353934049878899e7 1.8020174183606908e7 0.0
1.8020174183606908e7 5.618621364797304e6 0.0
0.0 0.0 0.0

-1.2867197250086334e7 9.57485762196357e6 0.0
9.57485762196357e6 7.179722324829765e6 0.0
0.0 0.0 0.0

-3.697056361320914e6 7.049435125495121e6 0.0
7.049435125495121e6 2.278288488387281e6 0.0
0.0 0.0 0.0

1.2989492795819258e6 8.981375485220343e6 0.0
8.981375485220343e6 -8.842144248901637e6 0.0
0.0 0.0 0.0

3.138617834917113e6 5.843577141036134e6 0.0
5.843577141036134e6 -8.83567852631942e6 0.0
0.0 0.0 0.0

-1.070768029441432e6 9.579346834378302e6 0.0
9.579346834378302e6 -4.015146835787099e6 0.0
0.0 0.0 0.0

183323.81929685664 7.762645066745779e6 0.0
7.762645066745779e6 -4.9221652514095595e6 0.0
0.0 0.0 0.0

-1.6414644775114185e6 9.985114372813452e6 0.0
9.985114372813452e6 -3.3202644530573604e6 0.0
0.0 0.0 0.0

-1.530804206737006e7 2.1496286252725303e7 0.0
2.1496286252725303e7 3.849866179646855e6 0.0
0.0 0.0 0.0

-4.8097883814342255e6 9.69980724980893e6 0.0
9.69980724980893e6 2.644031006362901e6 0.0
0.0 0.0 0.0

-2.926252264822025e6 1.158772714697965e7 0.0
1.158772714697965e7 -2.7846980485511487e6 0.0
0.0 0.0 0.0

-2.9944598206504667e6 1.0882083812674867e7 0.0
1.0882083812674867e7 -2.595261477447166e6 0.0
0.0 0.0 0.0

417768.6353903569 7.077213159674288e6 0.0
7.077213159674288e6 -4.94538747983162e6 0.0
0.0 0.0 0.0

-5.95610184777508e6 1.0215939145083798e7 0.0
1.0215939145083798e7 4.430972421723681e6 0.0
0.0 0.0 0.0

-1.5967634310175371e6 1.0973166987030832e7 0.0
1.0973166987030832e7 2.4279878629943132e6 0.0
0.0 0.0 0.0

-3.8552185096937395e6 1.168288132970887e7 0.0
1.168288132970887e7 2.6855298744889405e6 0.0
0.0 0.0 0.0

-1.2028027191267531e7 2.233500740365294e6 0.0
2.233500740365294e6 3.171664947270643e7 0.0
0.0 0.0 0.0

-564098.5827971663 3.1630786418437753e6 0.0
3.1630786418437753e6 -231317.68710461596 0.0
0.0 0.0 0.0

-2.4956952564910155e7 3.2892744841215324e7 0.0
3.2892744841215324e7 -1.2807296848365225e7 0.0
0.0 0.0 0.0

-965286.2069917123 1.090449227104419e7 0.0
1.090449227104419e7 2.525441697327418e6 0.0
0.0 0.0 0.0

-1.2574095802229887e7 1.6984473682318732e7 0.0
1.6984473682318732e7 6.1381208611491425e6 0.0
0.0 0.0 0.0

-2.1982139125886466e6 9.189631227656942e6 0.0
9.189631227656942e6 -2.2814552626243043e6 0.0
0.0 0.0 0.0

-1.1749691998755252e6 1.1957663291181235e7 0.0
1.1957663291181235e7 -4.450998759386546e6 0.0
0.0 0.0 0.0

-5.673149496169703e6 1.0254733462764487e7 0.0
1.0254733462764487e7 3.938658767279092e6 0.0
0.0 0.0 0.0

1.3871947033892868e6 4.750959843665066e6 0.0
4.750959843665066e6 -4.670824239654486e6 0.0
0.0 0.0 0.0

3.4906885460547293e6 9.460747968268381e6 0.0
9.460747968268381e6 -2.999489045482829e6 0.0
0.0 0.0 0.0

405120.1374770319 8.078611852913925e6 0.0
8.078611852913925e6 -5.348883246321344e6 0.0
0.0 0.0 0.0

-1.4198066354501802e6 1.317568420696811e7 0.0
1.317568420696811e7 -3.105195407359937e6 0.0
0.0 0.0 0.0

2.1427599981166627e6 7.143441815479587e6 0.0
7.143441815479587e6 -8.062972492334789e6 0.0
0.0 0.0 0.0

-4.589301337673078e6 8.893608600181803e6 0.0
8.893608600181803e6 3.029600439781582e6 0.0
0.0 0.0 0.0

607651.1543885255 7.406376092181369e6 0.0
7.406376092181369e6 -5.298752387628969e6 0.0
0.0 0.0 0.0

-700895.3031101311 5.586496191559561e6 0.0
5.586496191559561e6 -1.9072806597727002e6 0.0
0.0 0.0 0.0

-6.090131360520953e6 1.0615098192726929e7 0.0
1.0615098192726929e7 737513.9859558374 0.0
0.0 0.0 0.0

961848.7979278355 7.665576523807692e6 0.0
7.665576523807692e6 -6.05696859218572e6 0.0
0.0 0.0 0.0

-2.2319675562921697e6 8.368816937543771e6 0.0
8.368816937543771e6 -1.3795952356523853e6 0.0
0.0 0.0 0.0

-3.8301456541995467e6 1.1053031223863756e7 0.0
1.1053031223863756e7 -1.4677721316715262e6 0.0
0.0 0.0 0.0

-3.5729426037444333e6 1.0297386861295326e7 0.0
1.0297386861295326e7 5.312491108333373e6 0.0
0.0 0.0 0.0

1.1967371992624644e6 9.293789395646518e6 0.0
9.293789395646518e6 -4.089038647055313e6 0.0
0.0 0.0 0.0

-3.70084352385551e6 7.33815890465729e6 0.0
7.33815890465729e6 1.558180600077022e6 0.0
0.0 0.0 0.0

-8.860021347499453e6 1.6438705421792322e6 0.0
1.6438705421792322e6 9.977087245223185e6 0.0
0.0 0.0 0.0

-4.0248541596139753e6 1.0348346179702792e7 0.0
1.0348346179702792e7 5.327594023360962e6 0.0
0.0 0.0 0.0

-4.807182790423347e6 7.869364245560087e6 0.0
7.869364245560087e6 3.3281631791325267e6 0.0
0.0 0.0 0.0

-3.9441531844339035e6 1.498979062467201e6 0.0
1.498979062467201e6 4.204434220672213e6 0.0
0.0 0.0 0.0

-4.786030871481461e6 8.853668792120814e6 0.0
8.853668792120814e6 3.6198611633031275e6 0.0
0.0 0.0 0.0

-5.289603123697003e6 1.0723080287322538e7 0.0
1.0723080287322538e7 4.841164161443841e6 0.0
0.0 0.0 0.0

-1.3340935428685388e6 4.511832964738628e6 0.0
4.511832964738628e6 26746.205392302887 0.0
0.0 0.0 0.0

-3.399825124482922e6 1.097684417449828e7 0.0
1.097684417449828e7 -2.0686432069297698e6 0.0
0.0 0.0 0.0

-5.567081434370808e6 1.0003937771639537e7 0.0
1.0003937771639537e7 3.063796065945606e6 0.0
0.0 0.0 0.0

-5.20138829057706e6 8.037441881092749e6 0.0
8.037441881092749e6 3.917905995633708e6 0.0
0.0 0.0 0.0

-9.461492131150788e6 -1.9315082116997747e6 0.0
-1.9315082116997747e6 1.2599897012623012e7 0.0
0.0 0.0 0.0

-2.2803956223028004e6 1.1177078887403322e7 0.0
1.1177078887403322e7 2.081523763001529e6 0.0
0.0 0.0 0.0

-3.355721079163528e6 7.053895342810095e6 0.0
7.053895342810095e6 2.2080582982770083e6 0.0
0.0 0.0 0.0

1.1913373665018617e6 8.84040437276078e6 0.0
8.84040437276078e6 -8.416923372755684e6 0.0
0.0 0.0 0.0

-5.988390018896695e6 1.0180454971034262e7 0.0
1.0180454971034262e7 8.261475264001331e6 0.0
0.0 0.0 0.0

-4.777166916602816e6 6.918467423925508e6 0.0
6.918467423925508e6 5.198334065012667e6 0.0
0.0 0.0 0.0

-199969.94587580976 7.015274410654545e6 0.0
7.015274410654545e6 -4.335200984782879e6 0.0
0.0 0.0 0.0

1.964188327257411e6 5.844619804511375e6 0.0
5.844619804511375e6 -7.324190921620447e6 0.0
0.0 0.0 0.0

-2.9955002457953324e6 1.127363862785994e7 0.0
1.127363862785994e7 4.538601378355257e6 0.0
0.0 0.0 0.0

-4.356621048081571e6 1.1113026202496063e7 0.0
1.1113026202496063e7 6.147717809114233e6 0.0
0.0 0.0 0.0

-2.256428373409592e6 8.987959831940921e6 0.0
8.987959831940921e6 -1.7736196013233303e6 0.0
0.0 0.0 0.0

-5.850946587393582e6 1.1153912097909743e7 0.0
1.1153912097909743e7 4.777319367498515e6 0.0
0.0 0.0 0.0

-1.0438680614241775e7 1.5087197346389662e7 0.0
1.5087197346389662e7 5.453745968637752e6 0.0
0.0 0.0 0.0

-510496.8038944823 1.1389445338049443e7 0.0
1.1389445338049443e7 -5.272321416628562e6 0.0
0.0 0.0 0.0

-782020.5808950521 2.931496813362572e6 0.0
2.931496813362572e6 -41832.656867008336 0.0
0.0 0.0 0.0

846294.354379084 9.468371332951022e6 0.0
9.468371332951022e6 -7.523996452498042e6 0.0
0.0 0.0 0.0

-5.622442932326749e6 9.994910958536116e6 0.0
9.994910958536116e6 4.739712174717715e6 0.0
0.0 0.0 0.0

-4.419824271076356e6 6.350041791740059e6 0.0
6.350041791740059e6 4.778011631996676e6 0.0
0.0 0.0 0.0

-118106.12601120502 9.749692852402756e6 0.0
9.749692852402756e6 -22352.31909149133 0.0
0.0 0.0 0.0

1.90137344251343e6 8.0503865160431275e6 0.0
8.0503865160431275e6 -9.452369448397469e6 0.0
0.0 0.0 0.0

1.001053440530207e6 8.77108859997738e6 0.0
8.77108859997738e6 -7.919899929974655e6 0.0
0.0 0.0 0.0

-9.189197410136893e6 1.8281609622686397e7 0.0
1.8281609622686397e7 938520.7423383277 0.0
0.0 0.0 0.0

-4.78724443656455e6 9.920473159088567e6 0.0
9.920473159088567e6 2.5251731810647002e6 0.0
0.0 0.0 0.0

-5.692002441622339e6 1.035790301293456e7 0.0
1.035790301293456e7 3.830739203908157e6 0.0
0.0 0.0 0.0

-5.177012961859023e6 1.0940983912987424e7 0.0
1.0940983912987424e7 1.6249314040980618e6 0.0
0.0 0.0 0.0

762423.1363827852 5.205886769780982e6 0.0
5.205886769780982e6 -4.263453288651716e6 0.0
0.0 0.0 0.0

458490.89299093396 8.400974334665908e6 0.0
8.400974334665908e6 -5.239274097970244e6 0.0
0.0 0.0 0.0

-5.465176146963101e6 9.719532523249635e6 0.0
9.719532523249635e6 4.35142730356958e6 0.0
0.0 0.0 0.0

-2.4365239380742507e6 1.1772818110931901e7 0.0
1.1772818110931901e7 -2.4940377164699845e6 0.0
0.0 0.0 0.0

-9.814519609596021e6 1.4637644302651064e7 0.0
1.4637644302651064e7 5.270614299634542e6 0.0
0.0 0.0 0.0

-1.4439631950194328e6 4.827451724303111e6 0.0
4.827451724303111e6 -71257.27571646718 0.0
0.0 0.0 0.0

-5.0198524075906845e6 3.4759428594838427e6 0.0
3.4759428594838427e6 5.230160683175392e6 0.0
0.0 0.0 0.0

-9.446788818103133e6 1.4183429745421017e7 0.0
1.4183429745421017e7 5.191654307456525e6 0.0
0.0 0.0 0.0

-4.183882949812171e6 1.1185524119263308e7 0.0
1.1185524119263308e7 -1.0187940316298736e6 0.0
0.0 0.0 0.0

35822.764590688515 7.184892573412105e6 0.0
7.184892573412105e6 -5.110131480456592e6 0.0
0.0 0.0 0.0

-3.8562403948363476e6 7.98958895303756e6 0.0
7.98958895303756e6 2.4193763813518323e6 0.0
0.0 0.0 0.0

2.159731998327522e6 7.836915811866093e6 0.0
7.836915811866093e6 -9.720091979217691e6 0.0
0.0 0.0 0.0

-6.8464249329758445e6 1.2177535830159323e7 0.0
1.2177535830159323e7 4.20581298241013e6 0.0
0.0 0.0 0.0

-2.453681139522413e6 1.1611973707347304e7 0.0
1.1611973707347304e7 1.951779892426651e6 0.0
0.0 0.0 0.0

1.228752150860516e6 9.236698559369994e6 0.0
9.236698559369994e6 -8.943010849805584e6 0.0
0.0 0.0 0.0

-6.222179958164422e6 1.059757650266893e7 0.0
1.059757650266893e7 4.140772028764078e6 0.0
0.0 0.0 0.0

-5.961217652035674e6 2.929114799145823e6 0.0
2.929114799145823e6 6.7799814881800525e6 0.0
0.0 0.0 0.0

-301788.20490391203 6.776754291782283e6 0.0
6.776754291782283e6 -4.639476641991121e6 0.0
0.0 0.0 0.0

-1.895031427725855e6 8.91311587318213e6 0.0
8.91311587318213e6 2.0959939455526501e6 0.0
0.0 0.0 0.0

-5.3977370674320245e6 9.880820773255087e6 0.0
9.880820773255087e6 3.753108843145642e6 0.0
0.0 0.0 0.0

1.0575790403319132e6 9.488513022897838e6 0.0
9.488513022897838e6 -8.840439805120585e6 0.0
0.0 0.0 0.0

-1.623573766892577e7 2.3664339319770027e7 0.0
2.3664339319770027e7 1.327900559476884e6 0.0
0.0 0.0 0.0

-5.20661169175738e6 7.528299881733997e6 0.0
7.528299881733997e6 5.29547705336991e6 0.0
0.0 0.0 0.0

-805824.5858147009 1.1027521817118179e7 0.0
1.1027521817118179e7 -9.150675409266505e6 0.0
0.0 0.0 0.0

-1.2485399872816768e6 4.728097907273851e6 0.0
4.728097907273851e6 -630068.9256467593 0.0
0.0 0.0 0.0

-4.972446698622889e6 8.779083112202909e6 0.0
8.779083112202909e6 3.08415533057102e6 0.0
0.0 0.0 0.0

-5.965121156326218e6 8.55130314135824e6 0.0
8.55130314135824e6 8.754509486872513e6 0.0
0.0 0.0 0.0

-3.517178516392645e6 7.5931308729873095e6 0.0
7.5931308729873095e6 2.0627556604425493e6 0.0
0.0 0.0 0.0

-1.1634762967532897e7 1.0189666535322051e7 0.0
1.0189666535322051e7 2.103992935814633e7 0.0
0.0 0.0 0.0

-4.613920831632354e6 8.790023282394081e6 0.0
8.790023282394081e6 3.123219982041834e6 0.0
0.0 0.0 0.0

533370.0603958359 1.0284086442518106e7 0.0
1.0284086442518106e7 -7.224778441582835e6 0.0
0.0 0.0 0.0

-913827.4530028007 1.1454293208819054e7 0.0
1.1454293208819054e7 -4.404214923922598e6 0.0
0.0 0.0 0.0

3.9973980729808934e7 1.0776236951600837e7 0.0
1.0776236951600837e7 -1.9107007858086023e6 0.0
0.0 0.0 0.0

-3.8979971484611062e6 -751975.4323474979 0.0
-751975.4323474979 3.699670819423169e6 0.0
0.0 0.0 0.0

2.7971492605147064e6 5.753542276675037e6 0.0
5.753542276675037e6 -8.356082995366113e6 0.0
0.0 0.0 0.0

-836094.8352926639 2.709496548447236e6 0.0
2.709496548447236e6 -1.3406808906565867e6 0.0
0.0 0.0 0.0

-4.975774838098771e6 1.0868107499476416e7 0.0
1.0868107499476416e7 1.2572290179164158e6 0.0
0.0 0.0 0.0

-3.8964699825608996e6 -7.423895453871133e6 0.0
-7.423895453871133e6 7.189039810302295e6 0.0
0.0 0.0 0.0

-842893.3406621129 9.892367530423572e6 0.0
9.892367530423572e6 -7.6620929003035035e6 0.0
0.0 0.0 0.0

-3.9116528369957637e6 5.840488442810915e6 0.0
5.840488442810915e6 3.8866631309475526e6 0.0
0.0 0.0 0.0

-5.571416125347384e6 8.262927462244423e6 0.0
8.262927462244423e6 4.510584660657215e6 0.0
0.0 0.0 0.0

3.1822089874420324e6 5.785431866263509e6 0.0
5.785431866263509e6 -9.003284255085813e6 0.0
0.0 0.0 0.0

-1.369479799643014e6 9.625249319526013e6 0.0
9.625249319526013e6 -3.568730443476648e6 0.0
0.0 0.0 0.0

-1.1306032719255941e7 1.550488546053067e7 0.0
1.550488546053067e7 6.328007735565948e6 0.0
0.0 0.0 0.0

-533201.4619386774 7.03410317553687e6 0.0
7.03410317553687e6 -4.349254081101164e6 0.0
0.0 0.0 0.0

-1.5743363976184623e6 1.1837540954718204e7 0.0
1.1837540954718204e7 -265590.49904305476 0.0
0.0 0.0 0.0

-1.0087828246852841e7 3.68004469436799e6 0.0
3.68004469436799e6 5.062178083508644e7 0.0
0.0 0.0 0.0

3.7516060138499057e6 8.67149198369067e6 0.0
8.67149198369067e6 -1.6638387632370409e7 0.0
0.0 0.0 0.0

1.8884028288640073e6 1.1423445863469986e7 0.0
1.1423445863469986e7 -1.2349061294448854e7 0.0
0.0 0.0 0.0

-512885.2059190994 9.433593309082316e6 0.0
9.433593309082316e6 -4.816996497197456e6 0.0
0.0 0.0 0.0

3.1096496595739014e6 7.199112978633636e6 0.0
7.199112978633636e6 -9.97246064013034e6 0.0
0.0 0.0 0.0

-8.95387201788124e6 9.215436922720743e6 0.0
9.215436922720743e6 3.544044313876111e6 0.0
0.0 0.0 0.0

-2.639923650601402e6 1.1766189520224025e7 0.0
1.1766189520224025e7 -3.20323446388248e6 0.0
0.0 0.0 0.0

-4.118064855346705e6 -1.0180464680845876e6 0.0
-1.0180464680845876e6 4.466015337481417e6 0.0
0.0 0.0 0.0

-2.273194703374327e6 5.983097169511589e6 0.0
5.983097169511589e6 424776.5050644289 0.0
0.0 0.0 0.0

-5.6806948671996305e6 1.0525770589003008e7 0.0
1.0525770589003008e7 3.7134332379238303e6 0.0
0.0 0.0 0.0

-5.807572335718954e6 9.844688776352765e6 0.0
9.844688776352765e6 4.157484301264036e6 0.0
0.0 0.0 0.0

-3.5138202941869656e6 7.165714302233764e6 0.0
7.165714302233764e6 1.5925796195354122e6 0.0
0.0 0.0 0.0

-1.4115118498281112e6 4.566662633442992e6 0.0
4.566662633442992e6 77384.39697536733 0.0
0.0 0.0 0.0

3.008625027215477e6 8.845188495030878e6 0.0
8.845188495030878e6 -1.7634930785071473e6 0.0
0.0 0.0 0.0

-4.53683787217821e6 1.1354903261651516e7 0.0
1.1354903261651516e7 -552703.4900933523 0.0
0.0 0.0 0.0

83249.59730473347 4.1485378502164464e6 0.0
4.1485378502164464e6 -3.5271506038636724e6 0.0
0.0 0.0 0.0

-5.706259356718536e6 1.1810790088392865e7 0.0
1.1810790088392865e7 2.2003738846438723e6 0.0
0.0 0.0 0.0

-5.9073324133182075e6 6.402204154944923e6 0.0
6.402204154944923e6 5.561944900329779e6 0.0
0.0 0.0 0.0

-3.5407332767028925e6 7.653908654110914e6 0.0
7.653908654110914e6 2.018997581518723e6 0.0
0.0 0.0 0.0

-4.3403576385183865e6 -1.047025241087479e6 0.0
-1.047025241087479e6 4.821464340391015e6 0.0
0.0 0.0 0.0

3.023183819278215e6 5.824129281820085e6 0.0
5.824129281820085e6 -8.74659560015988e6 0.0
0.0 0.0 0.0

3.228711410906512e6 7.400798602095849e6 0.0
7.400798602095849e6 -1.0259910514029846e7 0.0
0.0 0.0 0.0

-4.22169869663211e6 5.403525951039776e6 0.0
5.403525951039776e6 3.276472270662779e6 0.0
0.0 0.0 0.0

4.0477159003995378e6 7.807825370714958e6 0.0
7.807825370714958e6 -1.4656312477010548e7 0.0
0.0 0.0 0.0

-9.406674352473805e6 -9.00481209611784e6 0.0
-9.00481209611784e6 2.255911605139854e7 0.0
0.0 0.0 0.0

286750.4647787567 7.254731763884237e6 0.0
7.254731763884237e6 -5.359548166229814e6 0.0
0.0 0.0 0.0

1.047566748576421e6 7.275987531358549e6 0.0
7.275987531358549e6 -5.728192801743219e6 0.0
0.0 0.0 0.0

-7.549118992097495e6 1.5459422794653438e7 0.0
1.5459422794653438e7 3.4379371967792036e6 0.0
0.0 0.0 0.0

-7.798544232811832e6 1.15800266107866e7 0.0
1.15800266107866e7 5.817934636992006e6 0.0
0.0 0.0 0.0

-5.361706118194068e6 9.783046382980777e6 0.0
9.783046382980777e6 3.779475058810075e6 0.0
0.0 0.0 0.0

-5.1684938502532765e6 1.1744505414436694e7 0.0
1.1744505414436694e7 1.2585845199409353e6 0.0
0.0 0.0 0.0

-9.751460922988415e6 1.3683885623647511e7 0.0
1.3683885623647511e7 6.55044521213053e6 0.0
0.0 0.0 0.0

-5.850094454582775e6 1.0382061991088362e7 0.0
1.0382061991088362e7 4.440747376303597e6 0.0
0.0 0.0 0.0

-1.1033025100095489e6 1.0888157689546414e7 0.0
1.0888157689546414e7 853874.5674768528 0.0
0.0 0.0 0.0

4.340816994773528e6 6.690909924844236e6 0.0
6.690909924844236e6 -1.2876147761195507e7 0.0
0.0 0.0 0.0

3.399714803095256e6 5.530553209207327e6 0.0
5.530553209207327e6 -9.738258362252902e6 0.0
0.0 0.0 0.0

4.1882218344955305e6 6.194235728195942e6 0.0
6.194235728195942e6 -1.1707920672212247e7 0.0
0.0 0.0 0.0

-5.56786932774174e6 1.064733180501103e7 0.0
1.064733180501103e7 2.7220233310891693e6 0.0
0.0 0.0 0.0

-1.7789441527279345e6 4.86751170689762e6 0.0
4.86751170689762e6 -823655.4680439546 0.0
0.0 0.0 0.0

-4.450951621955461e6 -8.457942018073298e6 0.0
-8.457942018073298e6 8.62786761063566e6 0.0
0.0 0.0 0.0

-3.640955225117295e6 5.817166554367027e6 0.0
5.817166554367027e6 2.4753689528642767e6 0.0
0.0 0.0 0.0

1.1255357045278135e6 5.561760349294892e6 0.0
5.561760349294892e6 -5.243193861308536e6 0.0
0.0 0.0 0.0

-6.632393329729583e6 1.0388522853997542e7 0.0
1.0388522853997542e7 4.412213975199051e6 0.0
0.0 0.0 0.0

-1.0604402745326613e6 9.695942280609204e6 0.0
9.695942280609204e6 -7.593591525537069e6 0.0
0.0 0.0 0.0

-3.3804594223567573e6 364020.2769249308 0.0
364020.2769249308 2.9432175763072884e6 0.0
0.0 0.0 0.0

-1.9862265420121409e6 3.975799808408517e6 0.0
3.975799808408517e6 549925.1467305202 0.0
0.0 0.0 0.0

-9.6685599703952e6 2.0718304746312285e6 0.0
2.0718304746312285e6 1.115998844991478e7 0.0
0.0 0.0 0.0

-4.436763424523994e6 1.0762876799197247e7 0.0
1.0762876799197247e7 4.786747130818032e6 0.0
0.0 0.0 0.0

545677.425948617 8.86432051636824e6 0.0
8.86432051636824e6 -7.114775323737279e6 0.0
0.0 0.0 0.0

4.501989874824041e6 6.468066183850592e6 0.0
6.468066183850592e6 -1.2595748054530233e7 0.0
0.0 0.0 0.0

2.5900717139106537e6 5.620539814640654e6 0.0
5.620539814640654e6 -7.670284325604408e6 0.0
0.0 0.0 0.0

-7.141935728184e6 1.864894080325199e7 0.0
1.864894080325199e7 -2.7424988840352884e6 0.0
0.0 0.0 0.0

-8.70525809559353e6 -9.400517538246786e6 0.0
-9.400517538246786e6 2.041843912276186e7 0.0
0.0 0.0 0.0

2.645816412628697e6 7.610653001799443e6 0.0
7.610653001799443e6 -9.381468771906802e6 0.0
0.0 0.0 0.0

-1.2041913169269737e7 -4.035577719195839e6 0.0
-4.035577719195839e6 3.485752590453368e7 0.0
0.0 0.0 0.0

4.426174123936622e6 7.130240436399584e6 0.0
7.130240436399584e6 -1.3624806093478834e7 0.0
0.0 0.0 0.0

-6.205798116866654e6 1.1181018181449734e7 0.0
1.1181018181449734e7 4.818065757794535e6 0.0
0.0 0.0 0.0

-858522.0097281162 7.328360758566538e6 0.0
7.328360758566538e6 -2.977755839250101e6 0.0
0.0 0.0 0.0

-2.6822019950652816e6 9.354612439763846e6 0.0
9.354612439763846e6 -2.444035652459315e6 0.0
0.0 0.0 0.0

-569523.9376967275 1.037822079616029e7 0.0
1.037822079616029e7 -5.809508029587943e6 0.0
0.0 0.0 0.0

-9.903328303109935e6 -8.376451663186061e6 0.0
-8.376451663186061e6 2.472232966592356e7 0.0
0.0 0.0 0.0

4.246689507024878e6 6.383320727493696e6 0.0
6.383320727493696e6 -1.2018822220815863e7 0.0
0.0 0.0 0.0

-6.115921541261644e6 6.176002137876912e6 0.0
6.176002137876912e6 6.798617537820057e6 0.0
0.0 0.0 0.0

-5.306617143498747e6 6.506612318496727e6 0.0
6.506612318496727e6 4.608487463104695e6 0.0
0.0 0.0 0.0

-7.051391823149994e6 2.984183527082099e6 0.0
2.984183527082099e6 8.14127754474121e6 0.0
0.0 0.0 0.0

-3.468197508080393e6 7.4832810145145785e6 0.0
7.4832810145145785e6 2.0512032136130186e6 0.0
0.0 0.0 0.0

-3.813911231276332e6 1.2022881583282825e7 0.0
1.2022881583282825e7 7.475557888928009e6 0.0
0.0 0.0 0.0

-4.189000022948813e6 1.1607913902359838e7 0.0
1.1607913902359838e7 -152698.90763601917 0.0
0.0 0.0 0.0

-6.271475492451141e6 1.1307553440457854e7 0.0
1.1307553440457854e7 3.366927524093616e6 0.0
0.0 0.0 0.0

-5.279420817194677e6 1.1968905566095063e7 0.0
1.1968905566095063e7 537164.9874485887 0.0
0.0 0.0 0.0

677586.0488102487 7.4630744302740805e6 0.0
7.4630744302740805e6 -5.298332979736252e6 0.0
0.0 0.0 0.0

-6.856197961409463e6 1.1553776640351271e7 0.0
1.1553776640351271e7 4.964678234869024e6 0.0
0.0 0.0 0.0

-1.1792493604572774e6 1.1442421975793079e7 0.0
1.1442421975793079e7 -793745.3376772755 0.0
0.0 0.0 0.0

19424.050949934404 9.257022224185428e6 0.0
9.257022224185428e6 -5.545743251290814e6 0.0
0.0 0.0 0.0

-6.907382425769266e6 4.810163293157565e6 0.0
4.810163293157565e6 1.044688803178488e7 0.0
0.0 0.0 0.0

-4.901345918978894e6 5.138452086668332e6 0.0
5.138452086668332e6 4.352972570311109e6 0.0
0.0 0.0 0.0

731204.3597991918 7.455596611917216e6 0.0
7.455596611917216e6 -6.010135884214443e6 0.0
0.0 0.0 0.0

-3.6106909711743337e6 -3.1710690180187603e6 0.0
-3.1710690180187603e6 5.089362215506595e6 0.0
0.0 0.0 0.0

3.2345031034364873e6 5.74065515017752e6 0.0
5.74065515017752e6 -9.11812485974066e6 0.0
0.0 0.0 0.0

-2.6725099933857294e6 1.0536193643743694e7 0.0
1.0536193643743694e7 4.0392185441115536e6 0.0
0.0 0.0 0.0

-7.569051698849314e6 -9.470156591976086e6 0.0
-9.470156591976086e6 1.808983570644635e7 0.0
0.0 0.0 0.0

3.952919230669321e6 6.0318127629849855e6 0.0
6.0318127629849855e6 -1.1152264349020306e7 0.0
0.0 0.0 0.0

3.2889937656977857e6 5.694836752607138e6 0.0
5.694836752607138e6 -9.284762706519412e6 0.0
0.0 0.0 0.0

-2.4908627812254564e6 -4.0415618957144194e6 0.0
-4.0415618957144194e6 4.077269857268814e6 0.0
0.0 0.0 0.0

-8.54007250722192e6 8.617563818784688e6 0.0
8.617563818784688e6 1.3212632293999676e7 0.0
0.0 0.0 0.0

3.906955249124356e6 5.89482446854432e6 0.0
5.89482446854432e6 -1.0998279936002612e7 0.0
0.0 0.0 0.0

-6.646299152618361e6 -9.63244373960943e6 0.0
-9.63244373960943e6 1.5531450335006973e7 0.0
0.0 0.0 0.0

-3.753683871585645e6 1.044243095318069e7 0.0
1.044243095318069e7 4.4399087686057575e6 0.0
0.0 0.0 0.0

-5.2020040798231615e6 -885780.6074746416 0.0
-885780.6074746416 7.007506054408075e6 0.0
0.0 0.0 0.0

-3.1046346941851974e6 -5.517202804675318e6 0.0
-5.517202804675318e6 5.509800770461654e6 0.0
0.0 0.0 0.0

3.4242165708679315e6 5.609319227116815e6 0.0
5.609319227116815e6 -9.567554247515174e6 0.0
0.0 0.0 0.0

3.7753888453629e6 5.839453605969972e6 0.0
5.839453605969972e6 -1.0735106677873274e7 0.0
0.0 0.0 0.0

-6.685873390347364e6 -9.48383773320292e6 0.0
-9.48383773320292e6 1.4441365529374106e7 0.0
0.0 0.0 0.0

-1.1026100612934121e8 3.275019294162027e7 0.0
3.275019294162027e7 -3.0334824235971384e6 0.0
0.0 0.0 0.0

6.3435755201599464e7 1.1290798860594066e7 0.0
1.1290798860594066e7 -5.7047997638472915e6 0.0
0.0 0.0 0.0

-3.7396639953490454e6 7.359809100942279e6 0.0
7.359809100942279e6 1.9437101373651312e6 0.0
0.0 0.0 0.0

3.594176473191055e6 5.787174001420863e6 0.0
5.787174001420863e6 -1.0438297007257499e7 0.0
0.0 0.0 0.0

-7.013939460571356e6 -9.127032996269012e6 0.0
-9.127032996269012e6 1.3821929940417979e7 0.0
0.0 0.0 0.0

1.2674758368147644e6 8.68608119490256e6 0.0
8.68608119490256e6 -3.489188187294923e6 0.0
0.0 0.0 0.0

-4.791270986876375e6 5.8423601565142805e6 0.0
5.8423601565142805e6 4.0662846199408257e6 0.0
0.0 0.0 0.0

-5.678248134444557e6 1.0712987340809464e7 0.0
1.0712987340809464e7 3.6210052478557136e6 0.0
0.0 0.0 0.0

-2.845578590799877e6 1.0686136099821819e7 0.0
1.0686136099821819e7 4.229462182266035e6 0.0
0.0 0.0 0.0

-6.148608248316074e6 -8.737484977716587e6 0.0
-8.737484977716587e6 1.1572027047718905e7 0.0
0.0 0.0 0.0

3.460900966599775e6 5.685933187424185e6 0.0
5.685933187424185e6 -1.0219289434750434e7 0.0
0.0 0.0 0.0

-4.791135758086327e6 1.1405499214463493e7 0.0
1.1405499214463493e7 6627.24479980045 0.0
0.0 0.0 0.0

-97487.27253494831 1.0859130300969874e7 0.0
1.0859130300969874e7 -1.0231851077217389e7 0.0
0.0 0.0 0.0

-5.888659467108619e6 1.1580998650147837e7 0.0
1.1580998650147837e7 2.3241111379011357e6 0.0
0.0 0.0 0.0

-754198.4217329805 9.529315093800718e6 0.0
9.529315093800718e6 -4.42068075844446e6 0.0
0.0 0.0 0.0

88876.94698486011 9.80607663381577e6 0.0
9.80607663381577e6 -6.7981590677631805e6 0.0
0.0 0.0 0.0

-895002.5271666284 1.1055729174406484e7 0.0
1.1055729174406484e7 81856.98520003207 0.0
0.0 0.0 0.0

-3.8687824182497873e6 1.2687514586111944e7 0.0
1.2687514586111944e7 -1.802944109222814e6 0.0
0.0 0.0 0.0

-2.7672456485289526e6 1.141173671265152e7 0.0
1.141173671265152e7 -2.1343239735799413e6 0.0
0.0 0.0 0.0

162906.6920636925 1.0169394196187962e7 0.0
1.0169394196187962e7 -9.037895376794571e6 0.0
0.0 0.0 0.0

-5.85700353271556e6 1.1301672974889375e7 0.0
1.1301672974889375e7 3.395097277738809e6 0.0
0.0 0.0 0.0

-5.706544811537893e6 9.786915721926447e6 0.0
9.786915721926447e6 3.991289726972622e6 0.0
0.0 0.0 0.0

-4.964984232875923e6 1.2367721481339855e7 0.0
1.2367721481339855e7 2.1089915384053416e6 0.0
0.0 0.0 0.0

147697.31142725563 9.971731990096018e6 0.0
9.971731990096018e6 -6.935150384147788e6 0.0
0.0 0.0 0.0

-3.2730026672593625e6 6.277692209889012e6 0.0
6.277692209889012e6 1.7863304711121772e6 0.0
0.0 0.0 0.0

-283379.73881924513 1.0491173603236847e7 0.0
1.0491173603236847e7 283750.7178343937 0.0
0.0 0.0 0.0

-3.625337299550483e6 6.664021560911751e6 0.0
6.664021560911751e6 2.254378832050753e6 0.0
0.0 0.0 0.0

-2.567424027258021e6 8.906117358412616e6 0.0
8.906117358412616e6 -692700.3374134423 0.0
0.0 0.0 0.0

-5.768773415647628e6 1.1131914988004928e7 0.0
1.1131914988004928e7 3.5016137483120435e6 0.0
0.0 0.0 0.0

687553.8671095208 9.841710430908153e6 0.0
9.841710430908153e6 -8.32341773603628e6 0.0
0.0 0.0 0.0

-3.1368476616409263e6 1.0611335893728076e7 0.0
1.0611335893728076e7 3.8658626679591574e6 0.0
0.0 0.0 0.0

-1.0312130968120763e7 1.3877040837779084e7 0.0
1.3877040837779084e7 7.0550393840911705e6 0.0
0.0 0.0 0.0

-2.849320266182159e6 8.952174191805916e6 0.0
8.952174191805916e6 -739850.0855927127 0.0
0.0 0.0 0.0

-5.295492105726233e6 1.151540870793869e7 0.0
1.151540870793869e7 908620.8429062406 0.0
0.0 0.0 0.0

977447.1463338794 9.508167145182796e6 0.0
9.508167145182796e6 3.272551659416563e6 0.0
0.0 0.0 0.0

-5.727273543488959e6 1.0924206707689723e7 0.0
1.0924206707689723e7 3.5440142927804585e6 0.0
0.0 0.0 0.0

-8.241631833650148e6 2.441793515193919e6 0.0
2.441793515193919e6 4.860757574059622e6 0.0
0.0 0.0 0.0

-6.712046533656992e6 1.1979020187792912e7 0.0
1.1979020187792912e7 4.216590270976974e6 0.0
0.0 0.0 0.0

1.5406408638573268e6 4.986625313354008e6 0.0
4.986625313354008e6 -5.7208739122873545e6 0.0
0.0 0.0 0.0

1.3585767514559662e6 4.873479080150641e6 0.0
4.873479080150641e6 -5.348090448795098e6 0.0
0.0 0.0 0.0

-5.029366228732112e6 1.149702210724659e7 0.0
1.149702210724659e7 621286.2821967478 0.0
0.0 0.0 0.0

-4.384612616135854e6 1.1269584180358917e7 0.0
1.1269584180358917e7 6.342126745718958e6 0.0
0.0 0.0 0.0

-7.141497978154149e6 1.2358281755605198e7 0.0
1.2358281755605198e7 4.53963751267169e6 0.0
0.0 0.0 0.0

-5.571044572725479e6 3.5906179660189315e6 0.0
3.5906179660189315e6 6.161292919347047e6 0.0
0.0 0.0 0.0

-8.85839473185909e6 1.3177214041163431e7 0.0
1.3177214041163431e7 5.994161025982374e6 0.0
0.0 0.0 0.0

-3.0025132602744745e6 1.1222727042694913e7 0.0
1.1222727042694913e7 2.4252843545325766e6 0.0
0.0 0.0 0.0

-931177.3442126063 7.203632929465432e6 0.0
7.203632929465432e6 -896486.2532367139 0.0
0.0 0.0 0.0

1.16939119433001e6 8.787539532207398e6 0.0
8.787539532207398e6 -7.3524004441274665e6 0.0
0.0 0.0 0.0

-6.069044756653702e6 1.0565146850785978e7 0.0
1.0565146850785978e7 3.6662028243051204e6 0.0
0.0 0.0 0.0

-1.4619584641968517e6 1.3053699382926621e6 0.0
1.3053699382926621e6 1.2831869567263592e6 0.0
0.0 0.0 0.0

-1.0168835223162314e7 7.824088908951073e6 0.0
7.824088908951073e6 1.3269870508597285e7 0.0
0.0 0.0 0.0

465502.0998345087 1.016413261167867e7 0.0
1.016413261167867e7 -9.91277544333738e6 0.0
0.0 0.0 0.0

-5.949285913627211e6 3.50543279684704e6 0.0
3.50543279684704e6 8.895551215474958e6 0.0
0.0 0.0 0.0

-872735.7510442764 1.3566871984405583e7 0.0
1.3566871984405583e7 -3.133772063097997e6 0.0
0.0 0.0 0.0

720252.2166828522 8.866065953642413e6 0.0
8.866065953642413e6 -6.532800167088873e6 0.0
0.0 0.0 0.0

-2.765019165041954e6 8.668417407751929e6 0.0
8.668417407751929e6 -712782.3013502237 0.0
0.0 0.0 0.0

-5.683356410651837e6 1.158513915634929e7 0.0
1.158513915634929e7 1.8858280767005808e6 0.0
0.0 0.0 0.0

1.0431787118315815e6 8.902512521050308e6 0.0
8.902512521050308e6 -4.739839891852382e6 0.0
0.0 0.0 0.0

-3.451468517643625e6 5.814233897597557e6 0.0
5.814233897597557e6 3.1202372364814426e6 0.0
0.0 0.0 0.0

-6.542442461145619e6 4.370401417088006e6 0.0
4.370401417088006e6 9.585693536948012e6 0.0
0.0 0.0 0.0

-5.518731639631086e6 1.1526480312183673e7 0.0
1.1526480312183673e7 1.4142185943277113e6 0.0
0.0 0.0 0.0

-3.379500385686004e6 7.322337193128164e6 0.0
7.322337193128164e6 1.969032939712902e6 0.0
0.0 0.0 0.0

3.131225312451373e6 6.358360956030968e6 0.0
6.358360956030968e6 -9.380187961687453e6 0.0
0.0 0.0 0.0

-4.275405461626382e6 7.940745183129162e6 0.0
7.940745183129162e6 2.379204557445852e6 0.0
0.0 0.0 0.0

732085.6901283527 9.545085873181859e6 0.0
9.545085873181859e6 -5.976633208045308e6 0.0
0.0 0.0 0.0

1.0501032979776375e6 8.36779838408554e6 0.0
8.36779838408554e6 -2.398241594206646e6 0.0
0.0 0.0 0.0

-1.7083831274712065e6 1.052032597917273e7 0.0
1.052032597917273e7 -315861.9963409351 0.0
0.0 0.0 0.0

-2.7898833190165977e6 9.188278926820928e6 0.0
9.188278926820928e6 -1.5137928248947442e6 0.0
0.0 0.0 0.0

-154274.81750069 9.949495635705637e6 0.0
9.949495635705637e6 -6.429813891397611e6 0.0
0.0 0.0 0.0

1.330790083201602e6 7.265501595317654e6 0.0
7.265501595317654e6 -7.396591075842686e6 0.0
0.0 0.0 0.0

891481.4633946759 9.251832962553104e6 0.0
9.251832962553104e6 -5.452010704583742e6 0.0
0.0 0.0 0.0

289123.88155972026 7.593999727852301e6 0.0
7.593999727852301e6 -5.502753589219843e6 0.0
0.0 0.0 0.0

832766.1132121552 5.293607115133538e6 0.0
5.293607115133538e6 -4.636639522010705e6 0.0
0.0 0.0 0.0

-6.122384483937219e6 1.0957649384260114e7 0.0
1.0957649384260114e7 3.53901761684143e6 0.0
0.0 0.0 0.0

-1.0906204896245066e6 7.508761744918631e6 0.0
7.508761744918631e6 -3.0573648972328086e6 0.0
0.0 0.0 0.0

-3.778590075148776e6 1.0957663150825325e7 0.0
1.0957663150825325e7 4.152759160709083e6 0.0
0.0 0.0 0.0

-236491.69924302358 1.994760483050218e6 0.0
1.994760483050218e6 -997237.1868152949 0.0
0.0 0.0 0.0

2.0356570547878467e6 9.460864842219796e6 0.0
9.460864842219796e6 -2.84264533323724e6 0.0
0.0 0.0 0.0

-2.5962577280867225e6 9.227814607510809e6 0.0
9.227814607510809e6 1.487259601374215e6 0.0
0.0 0.0 0.0

899561.9929345176 7.281174449074717e6 0.0
7.281174449074717e6 -6.221207486297367e6 0.0
0.0 0.0 0.0

-3.8968434815531194e7 3.5298495035625584e6 0.0
3.5298495035625584e6 1.5925819004076175e7 0.0
0.0 0.0 0.0

-4.946025048760835e6 9.790879838095447e6 0.0
9.790879838095447e6 6.110941579910984e6 0.0
0.0 0.0 0.0

-1.512844859856444e6 1.0512310563330442e7 0.0
1.0512310563330442e7 -3.7701927084598145e6 0.0
0.0 0.0 0.0

-2.320074211270171e6 8.754430860823289e6 0.0
8.754430860823289e6 -2.1546024933902444e6 0.0
0.0 0.0 0.0

717610.2595146568 9.34063933333658e6 0.0
9.34063933333658e6 -6.854856521486126e6 0.0
0.0 0.0 0.0

-824300.7335845847 1.0784459309907543e7 0.0
1.0784459309907543e7 712343.7104866077 0.0
0.0 0.0 0.0

1.4787385623171795e6 8.982745532118231e6 0.0
8.982745532118231e6 -8.2388980419777315e6 0.0
0.0 0.0 0.0

-752953.197977209 1.087565797544518e7 0.0
1.087565797544518e7 1.1331040340548425e6 0.0
0.0 0.0 0.0

-1.541706294681192e6 9.68027851029608e6 0.0
9.68027851029608e6 -4.1654078625245164e6 0.0
0.0 0.0 0.0

1.3655829807277839e6 7.252674832678621e6 0.0
7.252674832678621e6 -6.47149792389352e6 0.0
0.0 0.0 0.0

3.3253401576188626e6 5.907964927310538e6 0.0
5.907964927310538e6 -1.010230215453716e7 0.0
0.0 0.0 0.0

-4.689839228451566e6 1.392567855208021e7 0.0
1.392567855208021e7 -1.065931911689688e6 0.0
0.0 0.0 0.0

1.3633123892148244e6 8.873546907197585e6 0.0
8.873546907197585e6 -7.825169457629546e6 0.0
0.0 0.0 0.0

-6.662484965780635e6 1.1468221747355841e7 0.0
1.1468221747355841e7 4.928781089822544e6 0.0
0.0 0.0 0.0

-3.2290309336565062e6 1.1416836687778024e7 0.0
1.1416836687778024e7 934735.8346864432 0.0
0.0 0.0 0.0

569133.5578913668 7.3194785150928395e6 0.0
7.3194785150928395e6 -5.29621063460605e6 0.0
0.0 0.0 0.0

-1.1235349768344559e7 1.3798800817105431e7 0.0
1.3798800817105431e7 7.620566238907327e6 0.0
0.0 0.0 0.0

1.0275431192699978e6 7.486033702613207e6 0.0
7.486033702613207e6 -5.885272786518983e6 0.0
0.0 0.0 0.0

-6.792960224720572e6 1.1152223189267531e7 0.0
1.1152223189267531e7 1.1258870488312302e7 0.0
0.0 0.0 0.0

-821512.2870914018 1.1285745151240624e7 0.0
1.1285745151240624e7 -418064.8736677293 0.0
0.0 0.0 0.0

-7.331187546701323e6 1.1630061220562393e7 0.0
1.1630061220562393e7 5.210348240336539e6 0.0
0.0 0.0 0.0

-3.1478185983890127e6 6.617362495697082e6 0.0
6.617362495697082e6 2.247001719267083e6 0.0
0.0 0.0 0.0

328496.2924656379 9.254708679757645e6 0.0
9.254708679757645e6 -6.905932151848946e6 0.0
0.0 0.0 0.0

-898649.4822052652 5.825264455491261e6 0.0
5.825264455491261e6 -2.5434048986444008e6 0.0
0.0 0.0 0.0

-2.742994506386744e6 9.425114421246588e6 0.0
9.425114421246588e6 -1.1362500397455818e6 0.0
0.0 0.0 0.0

4.580994752553319e6 9.348310371167036e6 0.0
9.348310371167036e6 -3.8962778748740787e6 0.0
0.0 0.0 0.0

-834563.068593626 1.0889621896123411e7 0.0
1.0889621896123411e7 -4.641116761361163e6 0.0
0.0 0.0 0.0

693451.409518624 6.530965456284948e6 0.0
6.530965456284948e6 -3.927219014227827e6 0.0
0.0 0.0 0.0

74147.4458685643 9.5895262232432e6 0.0
9.5895262232432e6 -6.658236346967009e6 0.0
0.0 0.0 0.0

-2.987255586240151e6 706847.8487697145 0.0
706847.8487697145 3.8779966201746194e6 0.0
0.0 0.0 0.0

-5.149494144496287e6 1.0858813623929255e7 0.0
1.0858813623929255e7 5.046529204031862e6 0.0
0.0 0.0 0.0

-5.22686485133435e6 5.635590156752622e6 0.0
5.635590156752622e6 5.058116140110631e6 0.0
0.0 0.0 0.0

-1.140302580775665e7 8.506162291161317e6 0.0
8.506162291161317e6 5.825485796643751e6 0.0
0.0 0.0 0.0

138959.59152215207 1.0082759079208303e7 0.0
1.0082759079208303e7 -9.184496011602791e6 0.0
0.0 0.0 0.0

-6.042144712933937e6 1.068782839258544e7 0.0
1.068782839258544e7 4.651390345141908e6 0.0
0.0 0.0 0.0

-6.10860972364985e6 1.1312117584755268e7 0.0
1.1312117584755268e7 4.635972589938367e6 0.0
0.0 0.0 0.0

-2.229714167431995e6 1.2329507391694957e7 0.0
1.2329507391694957e7 -3.411510845079271e6 0.0
0.0 0.0 0.0

847281.622185743 9.820554174655776e6 0.0
9.820554174655776e6 -9.578634028456168e6 0.0
0.0 0.0 0.0

-3.170184623388614e6 1.0802524150457673e7 0.0
1.0802524150457673e7 3.626436178098647e6 0.0
0.0 0.0 0.0

-1.0084184708794933e7 -1.026859031050478e6 0.0
-1.026859031050478e6 1.46108613083793e7 0.0
0.0 0.0 0.0

2.0656670203771417e6 3.8803462706656624e6 0.0
3.8803462706656624e6 -4.979556702553259e6 0.0
0.0 0.0 0.0

389628.16472548293 1.026837913540759e7 0.0
1.026837913540759e7 -7.198599200753339e6 0.0
0.0 0.0 0.0

-3.3205710022044177e6 1.2507288039993608e7 0.0
1.2507288039993608e7 -2.379966963084062e6 0.0
0.0 0.0 0.0

-2.8701971229131664e6 9.17704061143826e6 0.0
9.17704061143826e6 -371103.73058921983 0.0
0.0 0.0 0.0

-1.9047026845841429e6 8.424811146740252e6 0.0
8.424811146740252e6 -2.843788500330627e6 0.0
0.0 0.0 0.0

-1.2427702882673785e6 9.971935090401234e6 0.0
9.971935090401234e6 -7.811932055672639e6 0.0
0.0 0.0 0.0

-7.201712561092612e6 3.7471002750590146e6 0.0
3.7471002750590146e6 8.75472538457583e6 0.0
0.0 0.0 0.0

-7.09581581459888e6 1.2491307665427146e7 0.0
1.2491307665427146e7 4.0458934566431404e6 0.0
0.0 0.0 0.0

-1.5112312870202687e7 6.584637769087492e6 0.0
6.584637769087492e6 8.501097324051777e6 0.0
0.0 0.0 0.0

2.206032344802509e6 9.206119849366428e6 0.0
9.206119849366428e6 -2.8619881962901736e6 0.0
0.0 0.0 0.0

628829.0856854809 7.270030960198007e6 0.0
7.270030960198007e6 -5.055041943212399e6 0.0
0.0 0.0 0.0

-2.733479008138532e6 8.895726321692476e6 0.0
8.895726321692476e6 -338660.56860552507 0.0
0.0 0.0 0.0

-8.592867917046223e6 2.6516949382708063e6 0.0
2.6516949382708063e6 1.1955332001645822e7 0.0
0.0 0.0 0.0

-7.538435534315936e6 1.172458681500399e7 0.0
1.172458681500399e7 5.341699278504171e6 0.0
0.0 0.0 0.0

-3.7553522602718584e6 1.0686181619007029e7 0.0
1.0686181619007029e7 4.266471466977446e6 0.0
0.0 0.0 0.0

-6.272571931460302e6 1.1489830582743017e7 0.0
1.1489830582743017e7 3.295560990049682e6 0.0
0.0 0.0 0.0

-1.2366804917193307e6 9.635535241395835e6 0.0
9.635535241395835e6 -4.58020240009138e6 0.0
0.0 0.0 0.0

-1.0213836225810535e7 3.2621605776529405e6 0.0
3.2621605776529405e6 1.2177218859675635e7 0.0
0.0 0.0 0.0

-472603.0146543663 1.0572775955104548e7 0.0
1.0572775955104548e7 -6.000455779849826e6 0.0
0.0 0.0 0.0

-2.657790601480633e6 1.1685809800284281e7 0.0
1.1685809800284281e7 184483.49402697233 0.0
0.0 0.0 0.0

-7.255709509639365e6 1.268874533617744e7 0.0
1.268874533617744e7 4.358990381855762e6 0.0
0.0 0.0 0.0

283359.22578380024 5.682582421394843e6 0.0
5.682582421394843e6 -4.869341575752314e6 0.0
0.0 0.0 0.0

-75543.19289278658 1.1993179716680061e7 0.0
1.1993179716680061e7 -4.53262395139876e6 0.0
0.0 0.0 0.0

-5.8882750008764155e6 1.045750038998096e7 0.0
1.045750038998096e7 4.33366878350376e6 0.0
0.0 0.0 0.0

-3.0993076959321843e6 6.211395682348822e6 0.0
6.211395682348822e6 2.423619753737822e6 0.0
0.0 0.0 0.0

-3.631634721318845e6 1.2473937202674331e7 0.0
1.2473937202674331e7 908444.1199511895 0.0
0.0 0.0 0.0

-7.388105519476422e6 4.878709019940142e6 0.0
4.878709019940142e6 8.661794420630908e6 0.0
0.0 0.0 0.0

-2.572273944790907e6 3.0029926163818305e6 0.0
3.0029926163818305e6 4.348497488376901e6 0.0
0.0 0.0 0.0

-5.651511797317615e6 1.0177160019914089e7 0.0
1.0177160019914089e7 4.0243492339655897e6 0.0
0.0 0.0 0.0

-5.061644530282178e6 4.445696195782937e6 0.0
4.445696195782937e6 4.71878861621956e6 0.0
0.0 0.0 0.0

-5.189487998591008e6 9.006197317567905e6 0.0
9.006197317567905e6 3.519946690404401e6 0.0
0.0 0.0 0.0

-2.553972058524281e6 1.1856698936575275e7 0.0
1.1856698936575275e7 4.720843310604924e6 0.0
0.0 0.0 0.0

1.0029702558650151e6 9.642551665193563e6 0.0
9.642551665193563e6 -9.197467910471918e6 0.0
0.0 0.0 0.0

-419034.23135152296 1.563443615759343e6 0.0
1.563443615759343e6 -944942.4470454981 0.0
0.0 0.0 0.0

-2.9978072982404944e6 1.4743050243580883e7 0.0
1.4743050243580883e7 -2.8234086782619273e6 0.0
0.0 0.0 0.0

-5.202517128137391e6 3.484517886730541e6 0.0
3.484517886730541e6 7.543821274465427e6 0.0
0.0 0.0 0.0

-1.1638406073555327e6 7.553348138707385e6 0.0
7.553348138707385e6 -3.7702310580534223e6 0.0
0.0 0.0 0.0

-2.723909892858547e6 1.0984068289302537e7 0.0
1.0984068289302537e7 2.8670651330618486e6 0.0
0.0 0.0 0.0

-2.461836995015095e6 9.128052936741335e6 0.0
9.128052936741335e6 -1.423626703167193e6 0.0
0.0 0.0 0.0

-5.180288930200903e6 1.0544265444801908e7 0.0
1.0544265444801908e7 5.002686205563283e6 0.0
0.0 0.0 0.0

-444269.5914382987 7.134505930083671e6 0.0
7.134505930083671e6 -3.2215237309605572e6 0.0
0.0 0.0 0.0

-4.416426004738738e6 1.1400591503531003e7 0.0
1.1400591503531003e7 2.4951771943913475e6 0.0
0.0 0.0 0.0

-5.331331807209657e6 9.212311614536019e6 0.0
9.212311614536019e6 3.9600840552528296e6 0.0
0.0 0.0 0.0

-521306.9371724798 1.1947003005702032e7 0.0
1.1947003005702032e7 -4.375438902918916e6 0.0
0.0 0.0 0.0

-6.03186268308165e6 1.030313049934187e7 0.0
1.030313049934187e7 3.8734787618852174e6 0.0
0.0 0.0 0.0

-7.42912305406316e6 1.2640824161736112e7 0.0
1.2640824161736112e7 4.853847721410299e6 0.0
0.0 0.0 0.0

920107.2476795302 9.66900737481898e6 0.0
9.66900737481898e6 -8.569234206111839e6 0.0
0.0 0.0 0.0

3.2573286139408657e6 2.5096693774744207e6 0.0
2.5096693774744207e6 -4.80278175810888e6 0.0
0.0 0.0 0.0

-679945.9081684758 2.207416344974085e6 0.0
2.207416344974085e6 -1.8370169154887863e6 0.0
0.0 0.0 0.0

4.1082669853592915e6 6.84511463402446e6 0.0
6.84511463402446e6 -1.203183568721312e7 0.0
0.0 0.0 0.0

-4.0615091898327707e6 1.1021678134818746e7 0.0
1.1021678134818746e7 -192523.5383008155 0.0
0.0 0.0 0.0

-4.296279203606077e6 1.0511738815332137e7 0.0
1.0511738815332137e7 4.939939620568884e6 0.0
0.0 0.0 0.0

-4.1385393369411216e6 5.889964690426608e6 0.0
5.889964690426608e6 3.0912210370732388e6 0.0
0.0 0.0 0.0

-1.2138829167071957e7 1.3902702293783154e7 0.0
1.3902702293783154e7 8.238787509140534e6 0.0
0.0 0.0 0.0

-8.005928945787016e6 2.305796790594697e6 0.0
2.305796790594697e6 9.116984167237636e6 0.0
0.0 0.0 0.0

-1.3559947824479202e6 2.7828498457859695e7 0.0
2.7828498457859695e7 -4.406106608847791e6 0.0
0.0 0.0 0.0

-2.7741396559196017e6 1.1255150932157842e7 0.0
1.1255150932157842e7 -2.8633588444131697e6 0.0
0.0 0.0 0.0

-243575.17907193466 9.352093398050826e6 0.0
9.352093398050826e6 -5.157241759046649e6 0.0
0.0 0.0 0.0

-4.0691389382316647e6 1.1069110617320227e7 0.0
1.1069110617320227e7 4.0161220886757206e6 0.0
0.0 0.0 0.0

-9.631803743825816e6 3.0854734484873726e6 0.0
3.0854734484873726e6 1.1260897084256856e7 0.0
0.0 0.0 0.0

-3.444661424553776e6 1.1269415062453339e7 0.0
1.1269415062453339e7 -1.132762679545732e6 0.0
0.0 0.0 0.0

523227.4212786133 8.230809311086776e6 0.0
8.230809311086776e6 -1.1791915964534997e6 0.0
0.0 0.0 0.0

2.8066915861970913e6 5.948330359899987e6 0.0
5.948330359899987e6 -8.580413126223473e6 0.0
0.0 0.0 0.0

-1.6761212403807647e6 5.135227310449105e6 0.0
5.135227310449105e6 390493.6441871973 0.0
0.0 0.0 0.0

-1.389956477324028e7 1.4095145037623897e7 0.0
1.4095145037623897e7 9.594329475310821e6 0.0
0.0 0.0 0.0

-4.537774734896796e6 1.0100710812397923e7 0.0
1.0100710812397923e7 5.014550626169171e6 0.0
0.0 0.0 0.0

438818.53940479644 1.0184067379217753e7 0.0
1.0184067379217753e7 -6.89963868355497e6 0.0
0.0 0.0 0.0

2.310370223799325e6 8.65384703002477e6 0.0
8.65384703002477e6 -305913.73242536536 0.0
0.0 0.0 0.0

-1.2110637521677397e6 4.137383664479804e6 0.0
4.137383664479804e6 -267134.89903272997 0.0
0.0 0.0 0.0

-1.7838016231959485e6 5.137744153203344e6 0.0
5.137744153203344e6 -963528.2374910482 0.0
0.0 0.0 0.0

557821.493678438 9.759541037950803e6 0.0
9.759541037950803e6 -6.39257670133195e6 0.0
0.0 0.0 0.0

-1.9276700177461389e6 8.762223262085868e6 0.0
8.762223262085868e6 -2.5529448762781243e6 0.0
0.0 0.0 0.0

-5.568477804021004e6 8.648105465845713e6 0.0
8.648105465845713e6 4.298591939641414e6 0.0
0.0 0.0 0.0

460719.3197864448 1.0128135290499112e7 0.0
1.0128135290499112e7 -7.467139889809868e6 0.0
0.0 0.0 0.0

941654.2248774637 8.952780642752701e6 0.0
8.952780642752701e6 -7.03998886798056e6 0.0
0.0 0.0 0.0

-6.079811794790231e6 1.0957342070246868e7 0.0
1.0957342070246868e7 4.738728681820944e6 0.0
0.0 0.0 0.0

-169853.26978078345 1.0302612749746595e7 0.0
1.0302612749746595e7 -5.707474440979474e6 0.0
0.0 0.0 0.0

-4.584066493152458e6 5.599583515115995e6 0.0
5.599583515115995e6 4.977101135202793e6 0.0
0.0 0.0 0.0

2.723897423783857e6 6.378515016991119e6 0.0
6.378515016991119e6 -5.360572031711904e6 0.0
0.0 0.0 0.0

-1.7260049934317164e7 1.1499437290201746e7 0.0
1.1499437290201746e7 6.02176515562636e6 0.0
0.0 0.0 0.0

1.9351796449304214e6 6.606782189054659e6 0.0
6.606782189054659e6 -5.779904092249515e6 0.0
0.0 0.0 0.0

3.9559735707643456e6 5.863810999805521e6 0.0
5.863810999805521e6 -6.997425866818136e6 0.0
0.0 0.0 0.0

-5.863156092910806e6 1.1484875896071391e7 0.0
1.1484875896071391e7 4.517305548896756e6 0.0
0.0 0.0 0.0

-100679.6424114114 7.318624425928623e6 0.0
7.318624425928623e6 -335598.6340625335 0.0
0.0 0.0 0.0

2.0143270730060148e6 1.0706002564416485e7 0.0
1.0706002564416485e7 -4.699062589712571e6 0.0
0.0 0.0 0.0

-6.471336167531062e6 8.446360445440149e6 0.0
8.446360445440149e6 7.108433410781631e6 0.0
0.0 0.0 0.0

-6.361743604513593e6 9.829368717517383e6 0.0
9.829368717517383e6 7.3569623559704125e6 0.0
0.0 0.0 0.0

-1.9160881890222486e6 1.1489472953896543e7 0.0
1.1489472953896543e7 8.432332899326105e6 0.0
0.0 0.0 0.0

-418174.9129036257 1.0729470892214797e7 0.0
1.0729470892214797e7 -1.3954459190319364e6 0.0
0.0 0.0 0.0

-5.17689293803618e6 1.0687033652406992e7 0.0
1.0687033652406992e7 5.235397703178011e6 0.0
0.0 0.0 0.0

-4.357358504666543e6 8.068696955330318e6 0.0
8.068696955330318e6 2.3434880169904088e6 0.0
0.0 0.0 0.0

463331.48125377204 9.905458066434408e6 0.0
9.905458066434408e6 -6.797357969476194e6 0.0
0.0 0.0 0.0

-6.177177258731941e6 1.0534068948833566e7 0.0
1.0534068948833566e7 4.217398353779508e6 0.0
0.0 0.0 0.0

-7.983802829714078e6 3.154946899129689e6 0.0
3.154946899129689e6 9.527669977579242e6 0.0
0.0 0.0 0.0

-275041.46001100144 1.4193481676151706e7 0.0
1.4193481676151706e7 -4.494556051761818e6 0.0
0.0 0.0 0.0

-2.595755485689666e6 1.1114674555073159e7 0.0
1.1114674555073159e7 -2.2487545655967784e6 0.0
0.0 0.0 0.0

987049.8417568007 6.74554336481197e6 0.0
6.74554336481197e6 -6.021529139876741e6 0.0
0.0 0.0 0.0

-1.4795714672940285e6 1.2898589649715208e7 0.0
1.2898589649715208e7 -3.449762891153099e6 0.0
0.0 0.0 0.0

-5.479736471027947e6 1.1377829123344282e7 0.0
1.1377829123344282e7 2.3657092246670946e6 0.0
0.0 0.0 0.0

-569700.5656613391 6.7493181130862245e6 0.0
6.7493181130862245e6 -1.8990017141783426e6 0.0
0.0 0.0 0.0

3.673991684249217e6 1.3995615573926857e7 0.0
1.3995615573926857e7 1.2246649198458305e7 0.0
0.0 0.0 0.0

-5.244307852868881e6 -3.899393438688329e6 0.0
-3.899393438688329e6 9.810412556872219e6 0.0
0.0 0.0 0.0

-162683.88637959454 8.82260454148482e6 0.0
8.82260454148482e6 -162769.1287851362 0.0
0.0 0.0 0.0

-4.372123705142524e6 -690423.0540561018 0.0
-690423.0540561018 4.271829862590293e6 0.0
0.0 0.0 0.0

-5.75468509728707e6 1.2016226682288667e7 0.0
1.2016226682288667e7 2.0768869426074605e6 0.0
0.0 0.0 0.0

-4.0409696564886915e6 1.3642814801521534e7 0.0
1.3642814801521534e7 -1.692329855333114e6 0.0
0.0 0.0 0.0

-1.3053413657560179e7 1.4103752126634562e7 0.0
1.4103752126634562e7 8.733949480347537e6 0.0
0.0 0.0 0.0

-4.6186521274987385e6 9.211184355080443e6 0.0
9.211184355080443e6 6.73892104034934e6 0.0
0.0 0.0 0.0

-6.6202380318520535e6 2.799807546583867e6 0.0
2.799807546583867e6 9.865610530662183e6 0.0
0.0 0.0 0.0

-6.043541834693467e6 1.2026368592994519e7 0.0
1.2026368592994519e7 2.611806563748631e6 0.0
0.0 0.0 0.0

-5.632843286756484e6 9.430720613583036e6 0.0
9.430720613583036e6 3.9245631276369896e6 0.0
0.0 0.0 0.0

-5.747991424296569e6 9.944868373124521e6 0.0
9.944868373124521e6 3.669768585329031e6 0.0
0.0 0.0 0.0

2.735185123987617e6 7.819013359875043e6 0.0
7.819013359875043e6 -9.895340099885302e6 0.0
0.0 0.0 0.0

-6.015885259606255e6 1.1179180527301157e7 0.0
1.1179180527301157e7 4.7793358447545655e6 0.0
0.0 0.0 0.0

548548.6771742563 1.0163669510402529e7 0.0
1.0163669510402529e7 4.4365861100105615e6 0.0
0.0 0.0 0.0

484998.7215070282 9.0330999945563e6 0.0
9.0330999945563e6 -6.1992269042750755e6 0.0
0.0 0.0 0.0

-1.2139604517811975e7 -4.653175073242357e6 0.0
-4.653175073242357e6 2.3041122331387594e7 0.0
0.0 0.0 0.0

-6.512139417982431e6 1.1958589127244398e7 0.0
1.1958589127244398e7 3.9569911512495116e6 0.0
0.0 0.0 0.0

867009.1949180898 8.973588443873767e6 0.0
8.973588443873767e6 -447971.1107824623 0.0
0.0 0.0 0.0

-3.091280203754697e7 3.1341793518929016e7 0.0
3.1341793518929016e7 -1.0341990670993257e7 0.0
0.0 0.0 0.0

643950.4262992048 5.329170561969226e6 0.0
5.329170561969226e6 -4.6461467962214975e6 0.0
0.0 0.0 0.0

-3.0477092304426e6 9.173405685260031e6 0.0
9.173405685260031e6 -19997.161005708855 0.0
0.0 0.0 0.0

-6.416769008484823e6 1.0217908308856646e7 0.0
1.0217908308856646e7 3.1310140471612397e6 0.0
0.0 0.0 0.0

358371.5855997233 1.1012032451842368e7 0.0
1.1012032451842368e7 -5.873220226413269e6 0.0
0.0 0.0 0.0

-2.4952984383636946e6 1.1418124345172664e7 0.0
1.1418124345172664e7 -3.3650996818723273e6 0.0
0.0 0.0 0.0

3.692236444695876e6 1.0355595768758215e7 0.0
1.0355595768758215e7 -4.965357689014394e6 0.0
0.0 0.0 0.0

-9.035973206272002e6 1.271532656396472e7 0.0
1.271532656396472e7 6.341489463928083e6 0.0
0.0 0.0 0.0

-3.2468764978850735e6 1.1125302913180867e7 0.0
1.1125302913180867e7 745812.9200990037 0.0
0.0 0.0 0.0

3.345898994835491e6 6.565490804872882e6 0.0
6.565490804872882e6 -1.0000309936577238e7 0.0
0.0 0.0 0.0

-1.283358228368592e7 1.2543465815800538e7 0.0
1.2543465815800538e7 1.8275528615283761e6 0.0
0.0 0.0 0.0

-5.198062228635553e6 9.350630142617423e6 0.0
9.350630142617423e6 4.0280546164079364e6 0.0
0.0 0.0 0.0

-3.457293633851011e6 1.3345713780250493e7 0.0
1.3345713780250493e7 -2.2076059666668344e6 0.0
0.0 0.0 0.0

-7.317346950557485e6 1.062170033386554e7 0.0
1.062170033386554e7 1.0197469840618197e7 0.0
0.0 0.0 0.0

3.2735235687981476e6 1.2264622012549669e7 0.0
1.2264622012549669e7 -6.48633890810315e6 0.0
0.0 0.0 0.0

-5.12865064135338e6 1.1292103633530328e7 0.0
1.1292103633530328e7 4.4363919079684615e6 0.0
0.0 0.0 0.0

-2.360181408690792e6 8.952279699539142e6 0.0
8.952279699539142e6 -2.739973014391424e6 0.0
0.0 0.0 0.0

-949573.5479933161 5.6897500431553535e6 0.0
5.6897500431553535e6 3.178190222756575e6 0.0
0.0 0.0 0.0

394764.9944100983 1.1865815509221843e7 0.0
1.1865815509221843e7 -4.628995315751837e6 0.0
0.0 0.0 0.0

-4.939364594528679e6 9.533568663506512e6 0.0
9.533568663506512e6 5.668441699078716e6 0.0
0.0 0.0 0.0

-1.2180198389101598e7 -226230.9515552281 0.0
-226230.9515552281 2.674329338236013e7 0.0
0.0 0.0 0.0

-1.2147816433621032e7 -6.298240011360212e6 0.0
-6.298240011360212e6 2.7913251089550726e7 0.0
0.0 0.0 0.0

-2.9587894225499374e6 9.734000030872548e6 0.0
9.734000030872548e6 -2.151006384642523e6 0.0
0.0 0.0 0.0

68237.6906957631 1.1448801097494803e7 0.0
1.1448801097494803e7 -5.17408264493877e6 0.0
0.0 0.0 0.0

-2.225498785347559e6 1.1600944143339863e7 0.0
1.1600944143339863e7 -3.733205129495595e6 0.0
0.0 0.0 0.0

-3.987472069897683e6 1.1510708426436163e7 0.0
1.1510708426436163e7 508220.31252430496 0.0
0.0 0.0 0.0

3.9686872375714905e6 8.721869952391203e6 0.0
8.721869952391203e6 -15196.235397911398 0.0
0.0 0.0 0.0

-5.148313829680894e6 9.940127347634189e6 0.0
9.940127347634189e6 5.37241567315409e6 0.0
0.0 0.0 0.0

-1.7902583626582744e6 1.1717217453945639e7 0.0
1.1717217453945639e7 -4.1200057954594083e6 0.0
0.0 0.0 0.0

-2.1763798038755436e6 8.729085189259347e6 0.0
8.729085189259347e6 -2.6023253224654756e6 0.0
0.0 0.0 0.0

-554379.407695131 1.5695891818388766e6 0.0
1.5695891818388766e6 503710.6172834884 0.0
0.0 0.0 0.0

1.0725432636389025e6 9.365639843727974e6 0.0
9.365639843727974e6 -8.547768341043517e6 0.0
0.0 0.0 0.0

-5.608702916361912e6 -38119.48958517467 0.0
-38119.48958517467 6.515150606614946e6 0.0
0.0 0.0 0.0

-1.0178070966827954e6 397933.68288701924 0.0
397933.68288701924 1.0198899977908352e6 0.0
0.0 0.0 0.0

-781590.1633844106 437923.0595975409 0.0
437923.0595975409 788540.568348404 0.0
0.0 0.0 0.0

-1.570464941838011e6 5.233136713336385e6 0.0
5.233136713336385e6 -292986.69326535705 0.0
0.0 0.0 0.0

-927360.6337198135 9.555305502755672e6 0.0
9.555305502755672e6 -5.003993282630596e6 0.0
0.0 0.0 0.0

1.4049339598683068e6 9.239559213104304e6 0.0
9.239559213104304e6 -8.351193507462059e6 0.0
0.0 0.0 0.0

-883656.3934141551 1.1389207672333568e7 0.0
1.1389207672333568e7 -690065.8008095068 0.0
0.0 0.0 0.0

-1.2732282957085716e6 1.2338869112703955e7 0.0
1.2338869112703955e7 -4.0329299603624665e6 0.0
0.0 0.0 0.0

2.4441139996605637e6 1.008529281287533e7 0.0
1.008529281287533e7 -4.1345046340404963e6 0.0
0.0 0.0 0.0

-4.8328302972043175e6 1.1237861321191132e7 0.0
1.1237861321191132e7 1.1975834638859276e6 0.0
0.0 0.0 0.0

9.545455740968678e6 1.2693173763649588e7 0.0
1.2693173763649588e7 106070.982015335 0.0
0.0 0.0 0.0

-3.6098363714495716e6 6.491414079016522e6 0.0
6.491414079016522e6 9.12553960536819e6 0.0
0.0 0.0 0.0

1.4493089583376562e6 1.1264436491844317e7 0.0
1.1264436491844317e7 -4.804461826259177e6 0.0
0.0 0.0 0.0

-2.7690785239168378e6 1.3669707062725734e7 0.0
1.3669707062725734e7 -1.6494315495611331e6 0.0
0.0 0.0 0.0

-6.452494953065074e6 1.2031761698000466e7 0.0
1.2031761698000466e7 3.4481964529869994e6 0.0
0.0 0.0 0.0

-325307.59778241 1.0588861207159206e7 0.0
1.0588861207159206e7 -5.504602270320738e6 0.0
0.0 0.0 0.0

-5.723283332657626e6 1.0264307349524816e7 0.0
1.0264307349524816e7 1.6191464016677972e6 0.0
0.0 0.0 0.0

-5.897973883059523e6 1.1572388447550826e7 0.0
1.1572388447550826e7 4.518735327842039e6 0.0
0.0 0.0 0.0

1.339124334759419e6 4.726599087516143e6 0.0
4.726599087516143e6 -4.9459045653001815e6 0.0
0.0 0.0 0.0

-5.595430611441904e6 1.1361518419683347e7 0.0
1.1361518419683347e7 1.9812177527080579e6 0.0
0.0 0.0 0.0

-1.5257793681038167e7 1.40983390146476e7 0.0
1.40983390146476e7 1.0384704931883454e7 0.0
0.0 0.0 0.0

-524052.0185189905 7.045225955151006e6 0.0
7.045225955151006e6 -4.720106247686455e6 0.0
0.0 0.0 0.0

716078.2847440508 9.12043207369975e6 0.0
9.12043207369975e6 -6.6967278473456595e6 0.0
0.0 0.0 0.0

1.2556024371371022e6 9.094061200183632e6 0.0
9.094061200183632e6 -7.976899240743803e6 0.0
0.0 0.0 0.0

1.1894955278716893e6 9.50651716989656e6 0.0
9.50651716989656e6 -8.390501971207576e6 0.0
0.0 0.0 0.0

-6.67335311060456e6 1.7294455676987026e7 0.0
1.7294455676987026e7 1.6260124790345547e6 0.0
0.0 0.0 0.0

-1.3408631797295292e6 1.1752226331149124e7 0.0
1.1752226331149124e7 -4.55422572659048e6 0.0
0.0 0.0 0.0

-1.8747793473504332e6 1.2246596035860902e7 0.0
1.2246596035860902e7 5.244951883746029e6 0.0
0.0 0.0 0.0

-1.390389101755583e7 2.8022158955629114e6 0.0
2.8022158955629114e6 7.457649065416953e6 0.0
0.0 0.0 0.0

-2.252770515988378e7 1.5294075063732438e7 0.0
1.5294075063732438e7 6.541562002127745e6 0.0
0.0 0.0 0.0

3.684570901297394e6 7.447934176172184e6 0.0
7.447934176172184e6 -1.1691062704784384e7 0.0
0.0 0.0 0.0

898055.0510836586 1.170954946911747e7 0.0
1.170954946911747e7 -4.80568819792278e6 0.0
0.0 0.0 0.0

-2.493971017704853e6 1.3229323433187068e7 0.0
1.3229323433187068e7 -2.9601047181033096e6 0.0
0.0 0.0 0.0

1.6831076150104771e6 4.680516450461218e6 0.0
4.680516450461218e6 -4.986682038655176e6 0.0
0.0 0.0 0.0

-5.4814386474766685e6 1.1255962532834832e7 0.0
1.1255962532834832e7 890901.2993764272 0.0
0.0 0.0 0.0

-2.5936689159583603e6 1.0495908663680745e7 0.0
1.0495908663680745e7 3.6946402387427217e6 0.0
0.0 0.0 0.0

-4.877127475094851e6 8.158798486557027e6 0.0
8.158798486557027e6 9.880384569685727e6 0.0
0.0 0.0 0.0

-187425.57923251452 2.425113796253747e6 0.0
2.425113796253747e6 -458118.9531012166 0.0
0.0 0.0 0.0

294251.42727257824 1.0024692935504144e7 0.0
1.0024692935504144e7 -6.449649380698867e6 0.0
0.0 0.0 0.0

528016.5974709864 7.539552751440221e6 0.0
7.539552751440221e6 -5.7637032076309705e6 0.0
0.0 0.0 0.0

519487.27920571226 6.6054718853414375e6 0.0
6.6054718853414375e6 -3.83126884817747e6 0.0
0.0 0.0 0.0

-322557.83372502244 2.4230555988761256e6 0.0
2.4230555988761256e6 -918816.5317966109 0.0
0.0 0.0 0.0

-8.651483836627249e6 1.319912762452853e7 0.0
1.319912762452853e7 3.0653988315615088e7 0.0
0.0 0.0 0.0

-9.829026632345162e6 -1.3442843966528068e6 0.0
-1.3442843966528068e6 1.375584045508311e7 0.0
0.0 0.0 0.0

-6.464352114980917e6 1.360868924450204e7 0.0
1.360868924450204e7 2.631654450357804e6 0.0
0.0 0.0 0.0

-2.9253586234614183e6 8.861848565432863e6 0.0
8.861848565432863e6 47570.79271196935 0.0
0.0 0.0 0.0

540634.6844387583 9.31673116798202e6 0.0
9.31673116798202e6 -6.158374045293826e6 0.0
0.0 0.0 0.0

-2.449923296526927e6 1.26404575304288e7 0.0
1.26404575304288e7 -2.2065476250366936e6 0.0
0.0 0.0 0.0

-6.178022884150152e6 1.0814966912542436e7 0.0
1.0814966912542436e7 4.445830359303435e6 0.0
0.0 0.0 0.0

-1.0022249520520765e7 1.881566704743113e7 0.0
1.881566704743113e7 6.503843347870853e6 0.0
0.0 0.0 0.0

3.5144858060178487e6 4.9316880687302835e6 0.0
4.9316880687302835e6 -5.1725401872465275e6 0.0
0.0 0.0 0.0

-1.1392406862730791e6 1.262066940272874e6 0.0
1.262066940272874e6 -25477.20218269975 0.0
0.0 0.0 0.0

-491235.34466304386 1.0992466661880078e7 0.0
1.0992466661880078e7 -827178.4349514812 0.0
0.0 0.0 0.0

-6.010702372179778e6 1.1322155722602788e7 0.0
1.1322155722602788e7 4.419181957171694e6 0.0
0.0 0.0 0.0

-3.3155264116153596e6 1.0242622110839823e7 0.0
1.0242622110839823e7 4.885012320684825e6 0.0
0.0 0.0 0.0

-4.628478988894291e6 4.997902389158596e6 0.0
4.997902389158596e6 5.433728059263676e6 0.0
0.0 0.0 0.0

484524.88816237217 9.496725222351536e6 0.0
9.496725222351536e6 -6.521467771343069e6 0.0
0.0 0.0 0.0

-6.102045658264476e7 8.288608848266133e6 0.0
8.288608848266133e6 8.338342179927286e6 0.0
0.0 0.0 0.0

-4.844044622185446e6 4.035112935980302e6 0.0
4.035112935980302e6 5.923547692911116e6 0.0
0.0 0.0 0.0

-6.024154227355355e6 1.1507135562475652e7 0.0
1.1507135562475652e7 4.455620296894047e6 0.0
0.0 0.0 0.0

-15979.267636472592 1.0491664145967381e7 0.0
1.0491664145967381e7 -5.88372138535635e6 0.0
0.0 0.0 0.0

811519.7975267097 9.723137648673393e6 0.0
9.723137648673393e6 -8.400381568539808e6 0.0
0.0 0.0 0.0

-9.89861156848343e6 1.7515767730489355e7 0.0
1.7515767730489355e7 6.616699670142053e6 0.0
0.0 0.0 0.0

636511.9415559582 9.890883143406315e6 0.0
9.890883143406315e6 -8.067976155792626e6 0.0
0.0 0.0 0.0

-787766.4987831431 1.163814070779402e7 0.0
1.163814070779402e7 -4.878381320890385e6 0.0
0.0 0.0 0.0

-331538.4850067245 1.096927418955884e7 0.0
1.096927418955884e7 -663300.4793190176 0.0
0.0 0.0 0.0

-8.62058158409373e6 1.4061572791146653e7 0.0
1.4061572791146653e7 5.341866457034098e6 0.0
0.0 0.0 0.0

-5.952631188094276e6 1.1050686041324304e7 0.0
1.1050686041324304e7 4.1239686885058433e6 0.0
0.0 0.0 0.0

249750.23398461053 9.84047831088299e6 0.0
9.84047831088299e6 -6.267119010017459e6 0.0
0.0 0.0 0.0

-2.233747936600576e6 1.084753248419918e7 0.0
1.084753248419918e7 -3.0722780154524017e6 0.0
0.0 0.0 0.0

-5.539280613982009e6 1.043728875008967e7 0.0
1.043728875008967e7 2.8526106889898456e6 0.0
0.0 0.0 0.0

-6.017396857333211e6 1.162425401903168e7 0.0
1.162425401903168e7 4.452300681207873e6 0.0
0.0 0.0 0.0

-3.579246496404486e6 -491041.08259649243 0.0
-491041.08259649243 4.576327197686987e6 0.0
0.0 0.0 0.0

-5.302902676552942e6 8.706306706776546e6 0.0
8.706306706776546e6 5.170306382238697e6 0.0
0.0 0.0 0.0

508319.02670251904 1.0001950167888237e7 0.0
1.0001950167888237e7 -7.750801101442632e6 0.0
0.0 0.0 0.0

5.693291004777363e6 9.795656965435388e6 0.0
9.795656965435388e6 -4.5281905640879115e6 0.0
0.0 0.0 0.0

352739.61873585125 1.0145984459605964e7 0.0
1.0145984459605964e7 -6.639513005693365e6 0.0
0.0 0.0 0.0

919693.2752409603 9.153862644616777e6 0.0
9.153862644616777e6 -4.346953804293464e6 0.0
0.0 0.0 0.0

-7.531739863066055e6 2.2666754654166726e6 0.0
2.2666754654166726e6 1.0849830462142954e7 0.0
0.0 0.0 0.0

-5.266395453649461e6 9.621264506905382e6 0.0
9.621264506905382e6 2.0081490286382155e6 0.0
0.0 0.0 0.0

784572.0074716965 8.703327230024273e6 0.0
8.703327230024273e6 -5.064168228239886e6 0.0
0.0 0.0 0.0

575871.7700841343 1.103058755215141e7 0.0
1.103058755215141e7 -5.743209897196629e6 0.0
0.0 0.0 0.0

-1.8187705903285917e7 1.4535808165237136e7 0.0
1.4535808165237136e7 1.1761842600713968e7 0.0
0.0 0.0 0.0

-2.2095720443967815e7 1.4277475947198374e6 0.0
1.4277475947198374e6 9.700065971198509e6 0.0
0.0 0.0 0.0

-7.30382314897588e6 1.4215493811520768e7 0.0
1.4215493811520768e7 2.2428851741847293e6 0.0
0.0 0.0 0.0

-1.6584762715800494e7 1.4403401761716215e7 0.0
1.4403401761716215e7 1.131728851711154e7 0.0
0.0 0.0 0.0

-4.2229903300728435e6 2.432238489416091e7 0.0
2.432238489416091e7 2.7466327799208546e6 0.0
0.0 0.0 0.0

785501.8136441917 9.692358461427055e6 0.0
9.692358461427055e6 -8.160503604761107e6 0.0
0.0 0.0 0.0

-1.614310810438836e6 9.897367373065999e6 0.0
9.897367373065999e6 -7.43348917819078e6 0.0
0.0 0.0 0.0

-5.513245917390403e6 1.1490953586056823e7 0.0
1.1490953586056823e7 4.230096471879707e6 0.0
0.0 0.0 0.0

-6.340231061318271e6 3.695976702056712e6 0.0
3.695976702056712e6 7.383245340082504e6 0.0
0.0 0.0 0.0

-5.08759996559758e6 1.100684399072777e7 0.0
1.100684399072777e7 1.8306186013430352e6 0.0
0.0 0.0 0.0

-1.0395191732105378e6 8.166611420881818e6 0.0
8.166611420881818e6 752190.6933631157 0.0
0.0 0.0 0.0

-2.4526667604884324e6 9.282104675436001e6 0.0
9.282104675436001e6 -1.9820912214785581e6 0.0
0.0 0.0 0.0

-1.019253399149485e7 2.007699124297587e7 0.0
2.007699124297587e7 5.980144603686212e6 0.0
0.0 0.0 0.0

-2.686666836333861e6 1.2570467419079078e7 0.0
1.2570467419079078e7 -3.008833681617391e6 0.0
0.0 0.0 0.0

1.4667455438946162e6 1.0520211286071545e7 0.0
1.0520211286071545e7 -4.5899826338041425e6 0.0
0.0 0.0 0.0

3.11171688759669e6 5.825453124647713e6 0.0
5.825453124647713e6 -8.967219469456239e6 0.0
0.0 0.0 0.0

-6.084081601674335e6 1.1050772731233029e7 0.0
1.1050772731233029e7 4.582998630303506e6 0.0
0.0 0.0 0.0

-3.1387833247460583e6 7.916644759697194e6 0.0
7.916644759697194e6 975627.3861239268 0.0
0.0 0.0 0.0

-526701.7515910032 7.223086811661937e6 0.0
7.223086811661937e6 -4.026643423837337e6 0.0
0.0 0.0 0.0

944263.4179629628 9.701602547869982e6 0.0
9.701602547869982e6 -8.368888604777746e6 0.0
0.0 0.0 0.0

-3.150715173947543e6 1.101413073950492e7 0.0
1.101413073950492e7 3.568791548681941e6 0.0
0.0 0.0 0.0

-4.423893831176888e6 9.757749249956476e6 0.0
9.757749249956476e6 6.370552455727894e6 0.0
0.0 0.0 0.0

-719222.8535711553 1.0341466529007949e7 0.0
1.0341466529007949e7 -1.804789232075124e6 0.0
0.0 0.0 0.0

-1.7189925689150915e6 1.3528294702016693e7 0.0
1.3528294702016693e7 -2.6620967768572113e6 0.0
0.0 0.0 0.0

-5.946921294205667e6 1.0954839505784852e7 0.0
1.0954839505784852e7 4.757987904406643e6 0.0
0.0 0.0 0.0

-1.0737072296930362e7 -3.3980459460642035e6 0.0
-3.3980459460642035e6 1.9495202784416024e7 0.0
0.0 0.0 0.0

-1.6060105632773996e6 5.49044332473812e6 0.0
5.49044332473812e6 -441417.71113097196 0.0
0.0 0.0 0.0

-359958.5266602791 1.0647910223086054e7 0.0
1.0647910223086054e7 -1.6274687924066032e6 0.0
0.0 0.0 0.0

-5.947104107538564e6 1.1554407669403868e7 0.0
1.1554407669403868e7 4.356477690759392e6 0.0
0.0 0.0 0.0

-5.588032798786942e6 9.898110308811536e6 0.0
9.898110308811536e6 4.885971130744004e6 0.0
0.0 0.0 0.0

339514.3276222865 8.369375655725768e6 0.0
8.369375655725768e6 -5.427445688853081e6 0.0
0.0 0.0 0.0

-6.149175173725836e6 1.1508004373411173e7 0.0
1.1508004373411173e7 3.705930697105116e6 0.0
0.0 0.0 0.0

-9.15465070347694e6 1.4901225238343991e7 0.0
1.4901225238343991e7 5.687517788794184e6 0.0
0.0 0.0 0.0

-4.460403218960935e6 9.145034975848272e6 0.0
9.145034975848272e6 2.346799530548354e6 0.0
0.0 0.0 0.0

226312.61838191282 9.396509386304362e6 0.0
9.396509386304362e6 -5.993915849758076e6 0.0
0.0 0.0 0.0

-6.4361155849952465e6 1.183866339424044e7 0.0
1.183866339424044e7 3.140596337925882e6 0.0
0.0 0.0 0.0

-3.742729299008944e6 1.3036750781975774e7 0.0
1.3036750781975774e7 -1.9387674816362835e6 0.0
0.0 0.0 0.0

-4.4596756386244185e6 1.0843799321529401e7 0.0
1.0843799321529401e7 6.180597473270339e6 0.0
0.0 0.0 0.0

-4.55850282603102e6 8.993619453252122e6 0.0
8.993619453252122e6 2.656965384615469e6 0.0
0.0 0.0 0.0

-6.567546162465276e6 1.1311916590276262e7 0.0
1.1311916590276262e7 4.704707746258676e6 0.0
0.0 0.0 0.0

-6.989036233595269e6 -1.7699406673973636e6 0.0
-1.7699406673973636e6 9.555193714527188e6 0.0
0.0 0.0 0.0

-8.801123413565505e6 1.4440757807754293e7 0.0
1.4440757807754293e7 5.594483766423037e6 0.0
0.0 0.0 0.0

3.0991434060545475e6 5.865873309014677e6 0.0
5.865873309014677e6 -8.850356118038198e6 0.0
0.0 0.0 0.0

-5.600482812717568e6 1.1774524436441641e7 0.0
1.1774524436441641e7 1.24988712214163e6 0.0
0.0 0.0 0.0

-5.042589376721804e6 -1.0082113581656032e6 0.0
-1.0082113581656032e6 7.039980306592605e6 0.0
0.0 0.0 0.0

476948.8595188579 8.073597518576085e6 0.0
8.073597518576085e6 -4.554901029713891e6 0.0
0.0 0.0 0.0

-4.846240469210617e6 1.097231665343663e7 0.0
1.097231665343663e7 2.656738109612108e6 0.0
0.0 0.0 0.0

-1.123921112136208e6 1.1626467182201501e7 0.0
1.1626467182201501e7 -604098.816732045 0.0
0.0 0.0 0.0

-1.775209617429186e6 1.178678251404035e7 0.0
1.178678251404035e7 47331.36557557888 0.0
0.0 0.0 0.0

497812.95092506474 1.043709258032229e7 0.0
1.043709258032229e7 -6.783895434691606e6 0.0
0.0 0.0 0.0

-7.740259561086275e6 4.0143740700336965e6 0.0
4.0143740700336965e6 9.494007688369785e6 0.0
0.0 0.0 0.0

-1.9975411713622087e6 8.389761084562872e6 0.0
8.389761084562872e6 2.324382142847972e6 0.0
0.0 0.0 0.0

1.5215842982983156e6 7.270257594369088e6 0.0
7.270257594369088e6 -6.760701321142558e6 0.0
0.0 0.0 0.0

-2.7878413187619904e6 1.1383445989388809e7 0.0
1.1383445989388809e7 5.116796348361101e6 0.0
0.0 0.0 0.0

-327058.0405367189 1.1603216724902784e7 0.0
1.1603216724902784e7 -1.0373979120239463e7 0.0
0.0 0.0 0.0

-5.039417319082903e6 9.181394286780909e6 0.0
9.181394286780909e6 3.9523534357627807e6 0.0
0.0 0.0 0.0

-6.518768159256738e6 1.172092213179392e7 0.0
1.172092213179392e7 3.6063348379687797e6 0.0
0.0 0.0 0.0

-3.9655134197890796e6 9.039506117085556e6 0.0
9.039506117085556e6 1.0860104995490634e6 0.0
0.0 0.0 0.0

-2.260511551289165e6 1.143347948045797e7 0.0
1.143347948045797e7 -2.58425627921872e6 0.0
0.0 0.0 0.0

272577.81774087786 1.1528830393752173e7 0.0
1.1528830393752173e7 -4.743044588738384e6 0.0
0.0 0.0 0.0

-5.827443820912011e6 1.1300497652357768e7 0.0
1.1300497652357768e7 4.549677082131933e6 0.0
0.0 0.0 0.0

-3.765202301982207e6 1.0929344075928606e7 0.0
1.0929344075928606e7 4.109029186834807e6 0.0
0.0 0.0 0.0

-5.170086276495647e6 9.638837842121316e6 0.0
9.638837842121316e6 6.156440833728619e6 0.0
0.0 0.0 0.0

-266872.00308218924 9.523135811455179e6 0.0
9.523135811455179e6 -7.075864558891429e6 0.0
0.0 0.0 0.0

-663573.2524023952 9.463681866042214e6 0.0
9.463681866042214e6 -5.322573871856632e6 0.0
0.0 0.0 0.0

-2.580424067193915e6 1.1054037765038483e7 0.0
1.1054037765038483e7 2.973601504406543e6 0.0
0.0 0.0 0.0

2.176808004208088e6 8.279915587083639e6 0.0
8.279915587083639e6 -9.437810367996778e6 0.0
0.0 0.0 0.0

-2.1219693275670856e6 1.0784103471833108e7 0.0
1.0784103471833108e7 -643814.6496664833 0.0
0.0 0.0 0.0

-9.50625348738064e6 1.5440972422058718e7 0.0
1.5440972422058718e7 6.007005789957135e6 0.0
0.0 0.0 0.0

-2.254144836852695e6 1.0980606336023802e7 0.0
1.0980606336023802e7 3.5969144043640587e6 0.0
0.0 0.0 0.0

6.550513060720887e6 1.6462227650622917e7 0.0
1.6462227650622917e7 2.1835022448724523e7 0.0
0.0 0.0 0.0

-3.3002199693528344e6 1.2385541286141885e7 0.0
1.2385541286141885e7 -1.1000727520252697e7 0.0
0.0 0.0 0.0

-3.336275529040866e6 7.92258042952544e6 0.0
7.92258042952544e6 315682.7280530662 0.0
0.0 0.0 0.0

-1.7208242897847224e7 9.998560288516147e6 0.0
9.998560288516147e6 1.1898899825114043e7 0.0
0.0 0.0 0.0

-4.794555791214783e6 1.0887783174441453e7 0.0
1.0887783174441453e7 726846.2707606372 0.0
0.0 0.0 0.0

-2.17762828715588e6 1.1235924747132165e7 0.0
1.1235924747132165e7 2.282522244839863e6 0.0
0.0 0.0 0.0

-3.175542537408459e6 1.1141413845204735e7 0.0
1.1141413845204735e7 4.770780540778993e6 0.0
0.0 0.0 0.0

-2.1627734172659502e6 1.3875795934917865e7 0.0
1.3875795934917865e7 1.0103898630769499e7 0.0
0.0 0.0 0.0

1.2011836578894283e6 8.743347859701056e6 0.0
8.743347859701056e6 1.3600791680071966e6 0.0
0.0 0.0 0.0

-885372.8121097165 1.1514720665852042e7 0.0
1.1514720665852042e7 3.070990250194241e6 0.0
0.0 0.0 0.0

-3.0477356449494106e6 1.3595564027725091e7 0.0
1.3595564027725091e7 -2.5689938249811344e6 0.0
0.0 0.0 0.0

-1.4546015543819135e6 1.0772207697911408e7 0.0
1.0772207697911408e7 1.8303506710031922e6 0.0
0.0 0.0 0.0

-2.577494041707077e6 1.0885569608237522e7 0.0
1.0885569608237522e7 3.0442167498266976e6 0.0
0.0 0.0 0.0

-7.321306499737043e6 1.4456368216384163e7 0.0
1.4456368216384163e7 3.6517335623283605e6 0.0
0.0 0.0 0.0

-2.881971396013244e6 9.219976473178854e6 0.0
9.219976473178854e6 3.508788906892376e6 0.0
0.0 0.0 0.0

2.2742008035412417e6 5.394718816090029e6 0.0
5.394718816090029e6 -6.947982376606429e6 0.0
0.0 0.0 0.0

-4.42232347605089e6 7.038791475846277e6 0.0
7.038791475846277e6 3.548304057315491e6 0.0
0.0 0.0 0.0

-3.6985903380945437e6 -825412.8388262634 0.0
-825412.8388262634 4.469591335196355e6 0.0
0.0 0.0 0.0

-4.454574666036305e6 1.0417646273120033e7 0.0
1.0417646273120033e7 4.7944585363729745e6 0.0
0.0 0.0 0.0

-6.560093006558081e6 1.2497152031080235e7 0.0
1.2497152031080235e7 3.2828356493173996e6 0.0
0.0 0.0 0.0

178463.644388553 1.3035945938891986e7 0.0
1.3035945938891986e7 5.816811936825272e6 0.0
0.0 0.0 0.0

-1.2582299019514383e6 1.0966982889977481e7 0.0
1.0966982889977481e7 2.4121030097526615e6 0.0
0.0 0.0 0.0

-6.474247466078263e6 1.1254718251499547e7 0.0
1.1254718251499547e7 4.805316346547414e6 0.0
0.0 0.0 0.0

2.4441860431246143e6 5.4213155275585195e6 0.0
5.4213155275585195e6 -5.007232253106704e6 0.0
0.0 0.0 0.0

-5.827125437297019e6 1.1797895102052597e7 0.0
1.1797895102052597e7 1.781120935970298e6 0.0
0.0 0.0 0.0

849134.9442731452 7.868772272523792e6 0.0
7.868772272523792e6 -5.776726462253772e6 0.0
0.0 0.0 0.0

-6.181525739570171e6 1.1446335766951326e7 0.0
1.1446335766951326e7 3.9519509490806535e6 0.0
0.0 0.0 0.0

-4.36223041747002e6 1.4314494652023582e7 0.0
1.4314494652023582e7 -1.4578060678408914e6 0.0
0.0 0.0 0.0

-3.835160079829389e6 1.1284312033889405e7 0.0
1.1284312033889405e7 931737.0533985449 0.0
0.0 0.0 0.0

4.187796037142887e6 6.099655946370165e6 0.0
6.099655946370165e6 -1.1507075686289659e7 0.0
0.0 0.0 0.0

2.447754653394956e6 9.507981074388932e6 0.0
9.507981074388932e6 -3.0559763007147536e6 0.0
0.0 0.0 0.0

-5.595962955578959e6 1.2829577008847412e7 0.0
1.2829577008847412e7 1.7315280809192532e6 0.0
0.0 0.0 0.0

-3.9594705710775317e6 1.1798850104177887e7 0.0
1.1798850104177887e7 -479757.0694090008 0.0
0.0 0.0 0.0

477840.9681446366 9.78127837950196e6 0.0
9.78127837950196e6 -6.360680225558329e6 0.0
0.0 0.0 0.0

1.3422554997464232e6 5.9050148908731155e6 0.0
5.9050148908731155e6 -6.346322154226394e6 0.0
0.0 0.0 0.0

-5.236258180577125e6 9.43616917012274e6 0.0
9.43616917012274e6 2.931493850101754e6 0.0
0.0 0.0 0.0

1.0965796820589295e6 9.146453832547588e6 0.0
9.146453832547588e6 -8.492387613252023e6 0.0
0.0 0.0 0.0

-5.663662235884184e6 -2.0896194393440594e6 0.0
-2.0896194393440594e6 5.719458044037483e6 0.0
0.0 0.0 0.0

-5.3180307798759015e6 8.989406538300265e6 0.0
8.989406538300265e6 4.935150713069094e6 0.0
0.0 0.0 0.0

-7.108554305085726e6 1.031409192457217e7 0.0
1.031409192457217e7 2.8109630112393145e6 0.0
0.0 0.0 0.0

4.516178615674093e6 8.106135715986258e6 0.0
8.106135715986258e6 -1.3870900254157694e7 0.0
0.0 0.0 0.0

-9.916864706806343e6 7.800701794551272e6 0.0
7.800701794551272e6 1.2062961199875351e7 0.0
0.0 0.0 0.0

-2.684616407500536e6 1.0654870844715148e7 0.0
1.0654870844715148e7 3.899648422765208e6 0.0
0.0 0.0 0.0

-7.133857292052052e6 1.0076882800323116e7 0.0
1.0076882800323116e7 8.388053759864479e6 0.0
0.0 0.0 0.0

-3.1931768962789536e6 8.769217164374307e6 0.0
8.769217164374307e6 429761.5857775039 0.0
0.0 0.0 0.0

-5.252155594144467e6 8.929709757885277e6 0.0
8.929709757885277e6 3.554067985235127e6 0.0
0.0 0.0 0.0

595337.0685310792 9.558977986294288e6 0.0
9.558977986294288e6 -5.956580474229787e6 0.0
0.0 0.0 0.0

-396210.35533137433 9.364942325010644e6 0.0
9.364942325010644e6 -5.67314086621964e6 0.0
0.0 0.0 0.0

2.6596911861541667e6 8.285468003128141e6 0.0
8.285468003128141e6 -1.0647428209003128e7 0.0
0.0 0.0 0.0

-4.120756411672575e6 -896366.0243072474 0.0
-896366.0243072474 5.676916085709617e6 0.0
0.0 0.0 0.0

-3.430153463098331e6 -7.805775221686942e6 0.0
-7.805775221686942e6 1.0450529854435273e7 0.0
0.0 0.0 0.0

-3.7550183937895093e6 1.1202811959082555e7 0.0
1.1202811959082555e7 1.3008492063196816e6 0.0
0.0 0.0 0.0

-2.0089725637914152e6 1.163692042136926e7 0.0
1.163692042136926e7 -3.019101914313077e6 0.0
0.0 0.0 0.0

-6.326806874463247e6 1.10234198313476e7 0.0
1.10234198313476e7 1.0792168396332072e7 0.0
0.0 0.0 0.0

682271.9008561897 9.292984376184512e6 0.0
9.292984376184512e6 -5.390398002390085e6 0.0
0.0 0.0 0.0

-1.9061712217281852e6 1.3309553299670614e7 0.0
1.3309553299670614e7 -3.3103308755431976e6 0.0
0.0 0.0 0.0

-6.011876679610865e6 1.0222069478525566e7 0.0
1.0222069478525566e7 3.9741467166918735e6 0.0
0.0 0.0 0.0

-1.0608783418585763e6 1.2891164978462965e6 0.0
1.2891164978462965e6 817294.7612919234 0.0
0.0 0.0 0.0

-8.152681924429023e6 2.1828074719772883e7 0.0
2.1828074719772883e7 4.333782731149009e6 0.0
0.0 0.0 0.0

587572.0657365934 1.0801561397558935e7 0.0
1.0801561397558935e7 -5.317074691128086e6 0.0
0.0 0.0 0.0

140656.4112572209 1.0518726103951767e7 0.0
1.0518726103951767e7 -1.010204172463764e7 0.0
0.0 0.0 0.0

2.8728528580671507e6 5.93139737346448e6 0.0
5.93139737346448e6 -8.358968654855493e6 0.0
0.0 0.0 0.0

-605771.0822429205 1.0825767393761413e7 0.0
1.0825767393761413e7 -1.3616399447770035e6 0.0
0.0 0.0 0.0

-5.266970208827798e6 8.377379183234874e6 0.0
8.377379183234874e6 5.461122738413598e6 0.0
0.0 0.0 0.0

-1.3085812313413333e7 2.2294130327719063e6 0.0
2.2294130327719063e6 9.059257673730066e6 0.0
0.0 0.0 0.0

-3.0544424182335893e6 1.217137440276529e7 0.0
1.217137440276529e7 1.1819524382437207e6 0.0
0.0 0.0 0.0

-1.0397874852601693e6 1.1043780343705028e7 0.0
1.1043780343705028e7 2.2370443360349042e6 0.0
0.0 0.0 0.0

221548.82137661194 9.578581278963255e6 0.0
9.578581278963255e6 -6.561972947789527e6 0.0
0.0 0.0 0.0

-1.097010093771041e6 2.1905198395428774e6 0.0
2.1905198395428774e6 1.063408642852976e6 0.0
0.0 0.0 0.0

-3.171780030619572e6 9.8629027030054e6 0.0
9.8629027030054e6 -1.7020079807954575e6 0.0
0.0 0.0 0.0

-829467.8701198153 1.119934669513387e7 0.0
1.119934669513387e7 -283662.55098847346 0.0
0.0 0.0 0.0

-1.6843171574031366e6 1.1132459545403168e7 0.0
1.1132459545403168e7 2.041689257080161e6 0.0
0.0 0.0 0.0

-1.4463703043411418e6 1.023660905834216e7 0.0
1.023660905834216e7 -4.5329744730233485e6 0.0
0.0 0.0 0.0

-3.660074714113277e6 1.0330942050186157e7 0.0
1.0330942050186157e7 4.9809040955744935e6 0.0
0.0 0.0 0.0

835910.637314476 8.2281302714672135e6 0.0
8.2281302714672135e6 -2.90583903861461e6 0.0
0.0 0.0 0.0

-1.5990942571560768e6 1.1755292761885792e7 0.0
1.1755292761885792e7 -3.484588365439343e6 0.0
0.0 0.0 0.0

2.1447608489020183e6 1.020828416750463e7 0.0
1.020828416750463e7 -4.004433662004249e6 0.0
0.0 0.0 0.0

773422.8181921798 8.94857398661212e6 0.0
8.94857398661212e6 -7.604292629036644e6 0.0
0.0 0.0 0.0

-5.084408484233754e6 1.0225477968860328e7 0.0
1.0225477968860328e7 5.135498910134142e6 0.0
0.0 0.0 0.0

-1.958657863159192e6 8.690111805569543e6 0.0
8.690111805569543e6 -2.0605118435915154e6 0.0
0.0 0.0 0.0

-2.2397324726616718e7 9.628742458627805e6 0.0
9.628742458627805e6 1.0793584497904668e7 0.0
0.0 0.0 0.0

-6.091516802411833e6 1.2682891249182332e7 0.0
1.2682891249182332e7 1.3791691698717844e7 0.0
0.0 0.0 0.0

3.175353261839974e6 5.7772994359588465e6 0.0
5.7772994359588465e6 -9.171293020847835e6 0.0
0.0 0.0 0.0

-2.0628233075055522e6 -6.21329503900335e6 0.0
-6.21329503900335e6 8.72823836056872e6 0.0
0.0 0.0 0.0

684112.726523682 9.980399802032527e6 0.0
9.980399802032527e6 -9.735475110534184e6 0.0
0.0 0.0 0.0

749061.2740688538 9.886528972301703e6 0.0
9.886528972301703e6 -8.059424538895983e6 0.0
0.0 0.0 0.0

-1.304614614006967e6 1.1601666676166834e7 0.0
1.1601666676166834e7 -317662.892314484 0.0
0.0 0.0 0.0

-1.078079454556103e7 1.10791106127502e7 0.0
1.10791106127502e7 5.424115617332336e6 0.0
0.0 0.0 0.0

-5.718245555970118e6 8.872688869626652e6 0.0
8.872688869626652e6 6.632778881087325e6 0.0
0.0 0.0 0.0

-1.1675453140936466e6 1.1798106131580668e7 0.0
1.1798106131580668e7 -3.973544471083727e6 0.0
0.0 0.0 0.0

-9.426198554364622e6 -9.014216163970968e6 0.0
-9.014216163970968e6 2.1697515088642534e7 0.0
0.0 0.0 0.0

-5.238425713696783e6 7.4452504883499015e6 0.0
7.4452504883499015e6 5.69530150619504e6 0.0
0.0 0.0 0.0

4.750936401636353e6 7.367183216852094e6 0.0
7.367183216852094e6 -1.3799686450725563e7 0.0
0.0 0.0 0.0

-6.792926442486595e6 1.1989400059370924e7 0.0
1.1989400059370924e7 3.9407218254923914e6 0.0
0.0 0.0 0.0

4.59633761096325e6 6.539323026468388e6 0.0
6.539323026468388e6 -1.2933155996180903e7 0.0
0.0 0.0 0.0

-2.0750988031441845e7 1.3617569663956854e7 0.0
1.3617569663956854e7 1.2512828816630289e7 0.0
0.0 0.0 0.0

-1.0231515969102945e7 -8.572508192594403e6 0.0
-8.572508192594403e6 2.3925252192163587e7 0.0
0.0 0.0 0.0

1.130624392628685e6 9.014814295653272e6 0.0
9.014814295653272e6 -7.507402474253155e6 0.0
0.0 0.0 0.0

-6.327321176420894e6 1.0838437742174566e7 0.0
1.0838437742174566e7 2.890990282811135e6 0.0
0.0 0.0 0.0

-1.8800641606348902e7 9.02908683162243e6 0.0
9.02908683162243e6 2.8625131478075217e6 0.0
0.0 0.0 0.0

4.736986737145287e6 6.955668247542708e6 0.0
6.955668247542708e6 -1.3567756636054117e7 0.0
0.0 0.0 0.0

-4.954695270591059e6 9.650798273597535e6 0.0
9.650798273597535e6 2.1940927785363044e6 0.0
0.0 0.0 0.0

-5.703269021710889e6 1.0297785191945741e7 0.0
1.0297785191945741e7 5.11055224677136e6 0.0
0.0 0.0 0.0

-202168.58971803635 9.824577378112225e6 0.0
9.824577378112225e6 6.062184328875733e6 0.0
0.0 0.0 0.0

468418.42869649315 1.0060320738608377e7 0.0
1.0060320738608377e7 -7.455925667934957e6 0.0
0.0 0.0 0.0

532711.3969756956 1.0030349216325343e7 0.0
1.0030349216325343e7 -7.790289661221555e6 0.0
0.0 0.0 0.0

-4.406199337442587e6 1.1562876564753558e7 0.0
1.1562876564753558e7 -858886.694818004 0.0
0.0 0.0 0.0

-7.145933374816665e6 1.2173434915002253e7 0.0
1.2173434915002253e7 4.2513203865233725e6 0.0
0.0 0.0 0.0

-7.545365412170947e6 3.1418655919763083e6 0.0
3.1418655919763083e6 1.1084540959370825e7 0.0
0.0 0.0 0.0

4.410745280939603e6 6.293243565031221e6 0.0
6.293243565031221e6 -1.210138678281809e7 0.0
0.0 0.0 0.0

-1.0447729478578042e7 1.1561086068201153e7 0.0
1.1561086068201153e7 7.600339798521161e6 0.0
0.0 0.0 0.0

1.0168830979761328e6 6.01622042648397e6 0.0
6.01622042648397e6 -5.1518192023006845e6 0.0
0.0 0.0 0.0

513343.0693518729 1.0269248412705652e7 0.0
1.0269248412705652e7 -6.766088013384744e6 0.0
0.0 0.0 0.0

4.456333745573269e6 6.4921693753232565e6 0.0
6.4921693753232565e6 -1.228077981236385e7 0.0
0.0 0.0 0.0

436891.18066123454 1.01125076786178e7 0.0
1.01125076786178e7 -7.52441935261228e6 0.0
0.0 0.0 0.0

-1.0772765652926225e7 1.590477214823512e6 0.0
1.590477214823512e6 1.316670692104835e7 0.0
0.0 0.0 0.0

915447.4942237954 1.3547184889082112e6 0.0
1.3547184889082112e6 -3.4451291967498194e6 0.0
0.0 0.0 0.0

-3.0199937641877844e6 7.218785158234777e6 0.0
7.218785158234777e6 145212.61418646027 0.0
0.0 0.0 0.0

-2.0016941832549078e6 1.127907271618189e7 0.0
1.127907271618189e7 4.042762150819064e6 0.0
0.0 0.0 0.0

3.3432271281901756e6 5.565153259364678e6 0.0
5.565153259364678e6 -9.815719314965937e6 0.0
0.0 0.0 0.0

-5.598912767293988e6 1.1285586709917562e7 0.0
1.1285586709917562e7 4.462603719127948e6 0.0
0.0 0.0 0.0

-4.27739461509007e6 -417094.13866870076 0.0
-417094.13866870076 5.653641013301409e6 0.0
0.0 0.0 0.0

773931.4081150414 8.839506529639928e6 0.0
8.839506529639928e6 -3.2863662699816646e6 0.0
0.0 0.0 0.0

546325.5782993408 9.098080065775275e6 0.0
9.098080065775275e6 -7.267383183849749e6 0.0
0.0 0.0 0.0

-3.725975257012515e6 1.06834658246494e7 0.0
1.06834658246494e7 4.265059624543112e6 0.0
0.0 0.0 0.0

-4.4390007418621555e6 1.1685421712069305e7 0.0
1.1685421712069305e7 6.543932578370992e6 0.0
0.0 0.0 0.0

-690687.3212985347 1.0772781923157271e7 0.0
1.0772781923157271e7 -1.487937423349203e6 0.0
0.0 0.0 0.0

-3.827335866021871e6 1.1418195987129955e7 0.0
1.1418195987129955e7 -654140.4886421955 0.0
0.0 0.0 0.0

-6.067400347211292e6 1.0408964376062324e7 0.0
1.0408964376062324e7 3.7617628067418076e6 0.0
0.0 0.0 0.0

-896782.6601677947 1.1204767485821858e7 0.0
1.1204767485821858e7 -785208.2758201212 0.0
0.0 0.0 0.0

4.264169842892645e6 5.389995166702374e6 0.0
5.389995166702374e6 -1.3191651258394795e6 0.0
0.0 0.0 0.0

-8.304331649007642e6 -9.052436705853282e6 0.0
-9.052436705853282e6 1.9131080642647002e7 0.0
0.0 0.0 0.0

-165778.84536146838 8.856312909145337e6 0.0
8.856312909145337e6 3.1688846671416922e6 0.0
0.0 0.0 0.0

-5.21247947918329e6 -8.162237874216311e6 0.0
-8.162237874216311e6 1.2591178539700512e7 0.0
0.0 0.0 0.0

-860166.2786580158 1.1440081192430431e7 0.0
1.1440081192430431e7 -576436.8719132363 0.0
0.0 0.0 0.0

-1.5017364680616599e7 4.145796526502067e6 0.0
4.145796526502067e6 2.0131124098213445e7 0.0
0.0 0.0 0.0

-2.818398907372933e6 7.277471756778918e6 0.0
7.277471756778918e6 807724.5433847432 0.0
0.0 0.0 0.0

3.591090465190093e6 1.5019870044474297e6 0.0
1.5019870044474297e6 -4.768117071775602e6 0.0
0.0 0.0 0.0

3.2224972620418044e6 1.8548700057354409e6 0.0
1.8548700057354409e6 -4.378475698121189e6 0.0
0.0 0.0 0.0

-1.2581349850330027e6 1.1601757298343465e7 0.0
1.1601757298343465e7 -3.950930005749924e6 0.0
0.0 0.0 0.0

-3.3687576810282003e6 1.1462843105262356e7 0.0
1.1462843105262356e7 317493.38772588153 0.0
0.0 0.0 0.0

-612208.6711143152 1.1857812036506671e7 0.0
1.1857812036506671e7 -4.371703225677968e6 0.0
0.0 0.0 0.0

-9.003975018310077e6 2.6976113999637323e6 0.0
2.6976113999637323e6 1.0383596953453295e7 0.0
0.0 0.0 0.0

385063.33409780543 9.959499819601899e6 0.0
9.959499819601899e6 -6.712238681142797e6 0.0
0.0 0.0 0.0

980501.5016639349 9.006575382674703e6 0.0
9.006575382674703e6 -8.032552682811221e6 0.0
0.0 0.0 0.0

-5.358456875260762e6 1.1410032705990477e7 0.0
1.1410032705990477e7 4.230860063482731e6 0.0
0.0 0.0 0.0

314459.3476672806 9.015379998129288e6 0.0
9.015379998129288e6 -6.766488163657857e6 0.0
0.0 0.0 0.0

-3.8447811302066095e7 1.2312839815755032e7 0.0
1.2312839815755032e7 8.51073580976566e6 0.0
0.0 0.0 0.0

-1.0909692874042792e6 1.0130202822145417e7 0.0
1.0130202822145417e7 -4.958996287386436e6 0.0
0.0 0.0 0.0

-1.0428000276660245e7 1.3692648387915118e7 0.0
1.3692648387915118e7 6.7580847466961555e6 0.0
0.0 0.0 0.0

-290115.00199501065 8.051506378225359e6 0.0
8.051506378225359e6 -539442.1212150196 0.0
0.0 0.0 0.0

-4.6922717068919875e6 9.819830876833668e6 0.0
9.819830876833668e6 5.363610297801291e6 0.0
0.0 0.0 0.0

-3.113219852497273e6 1.0793671015187252e7 0.0
1.0793671015187252e7 969566.7284307566 0.0
0.0 0.0 0.0

-6.2710868482783865e6 1.8333051349195912e7 0.0
1.8333051349195912e7 399474.6167911333 0.0
0.0 0.0 0.0

-2.560720027979785e6 -3.9190335099786436e6 0.0
-3.9190335099786436e6 7.9025225076993415e6 0.0
0.0 0.0 0.0

3.2321882711013057e6 5.7327252205611e6 0.0
5.7327252205611e6 -9.41273545263611e6 0.0
0.0 0.0 0.0

-4.3251852047123145e6 1.1178519323984466e7 0.0
1.1178519323984466e7 189969.0372925289 0.0
0.0 0.0 0.0

-500257.8824684747 2.5545101317359633e6 0.0
2.5545101317359633e6 -944731.4804165447 0.0
0.0 0.0 0.0

4.046742478297055e6 5.961497383079192e6 0.0
5.961497383079192e6 -1.1135943568770561e7 0.0
0.0 0.0 0.0

-7.335212999188426e6 -9.338875983485563e6 0.0
-9.338875983485563e6 1.7688192598181054e7 0.0
0.0 0.0 0.0

-4.240255272536436e6 302566.4728809906 0.0
302566.4728809906 3.934952473119401e6 0.0
0.0 0.0 0.0

349271.9238190991 8.790445826158063e6 0.0
8.790445826158063e6 -4.913432330073035e6 0.0
0.0 0.0 0.0

-1.730546185145494e6 -4.635353515696713e6 0.0
-4.635353515696713e6 8.122013128033308e6 0.0
0.0 0.0 0.0

3.2612209599875542e6 5.692168363853791e6 0.0
5.692168363853791e6 -9.564660760111988e6 0.0
0.0 0.0 0.0

3.9107564885710264e6 5.912486744489343e6 0.0
5.912486744489343e6 -1.077814007364315e7 0.0
0.0 0.0 0.0

-6.613610942052612e6 -9.5724777593049e6 0.0
-9.5724777593049e6 1.6482034172674472e7 0.0
0.0 0.0 0.0

-3.0164127027006014e6 9.401467945026472e6 0.0
9.401467945026472e6 -40967.973299318575 0.0
0.0 0.0 0.0

-1.2607693292264421e6 1.1328566775155332e7 0.0
1.1328566775155332e7 -4.042449235633219e6 0.0
0.0 0.0 0.0

-5.938493676060934e6 1.0615483271566737e7 0.0
1.0615483271566737e7 4.092346687029395e6 0.0
0.0 0.0 0.0

3.7638374766196352e6 5.846778575987591e6 0.0
5.846778575987591e6 -1.0557516665093616e7 0.0
0.0 0.0 0.0

-6.591880906855466e6 -9.409782576264227e6 0.0
-9.409782576264227e6 1.52385181296217e7 0.0
0.0 0.0 0.0

650530.9594796873 8.981875630619697e6 0.0
8.981875630619697e6 -4.626852330345332e6 0.0
0.0 0.0 0.0

487463.55540531967 9.268189172918659e6 0.0
9.268189172918659e6 -6.378145912214979e6 0.0
0.0 0.0 0.0

-5.076377098585671e6 1.135489172050634e7 0.0
1.135489172050634e7 1.4901633871365967e6 0.0
0.0 0.0 0.0

-3.303952269356556e6 8.900377914471604e6 0.0
8.900377914471604e6 10296.982922088355 0.0
0.0 0.0 0.0

-5.89850110045198e6 9.682359749399047e6 0.0
9.682359749399047e6 6.858110363162577e6 0.0
0.0 0.0 0.0

-6.332994603544447e6 -8.715471546440601e6 0.0
-8.715471546440601e6 1.3834365860966979e7 0.0
0.0 0.0 0.0

3.6617674839859563e6 5.750670408084995e6 0.0
5.750670408084995e6 -1.0237865184212167e7 0.0
0.0 0.0 0.0

-6.145673644394794e6 1.4031201971172277e7 0.0
1.4031201971172277e7 632524.8043563724 0.0
0.0 0.0 0.0

-6.452063143491642e6 1.2155683681816893e7 0.0
1.2155683681816893e7 1.2879882794120675e7 0.0
0.0 0.0 0.0

1.1456024148288045e7 2.6594389781281747e7 0.0
2.6594389781281747e7 -2.930628080574641e7 0.0
0.0 0.0 0.0

-455307.2006843095 7.087921300845881e6 0.0
7.087921300845881e6 -3.7453951274877116e6 0.0
0.0 0.0 0.0

-6.608086516511642e6 1.1754363468086595e7 0.0
1.1754363468086595e7 4.0631312714956785e6 0.0
0.0 0.0 0.0

-722762.0029529759 2.8181452857536976e6 0.0
2.8181452857536976e6 -1.2777689661382192e6 0.0
0.0 0.0 0.0

-5.934132814089396e6 1.079098671918176e7 0.0
1.079098671918176e7 4.0159102469572173e6 0.0
0.0 0.0 0.0

3.6653862940401244e6 5.694865021229424e6 0.0
5.694865021229424e6 -6.702201391184455e6 0.0
0.0 0.0 0.0

-1.8840634210422963e6 1.4646008593093554e7 0.0
1.4646008593093554e7 -3.5292742202659645e6 0.0
0.0 0.0 0.0

-2.9490173552614246e6 1.282483755476081e7 0.0
1.282483755476081e7 -1.6106779805845758e6 0.0
0.0 0.0 0.0

-4.45769758482217e6 7.841760514551725e6 0.0
7.841760514551725e6 2.7799260858769314e6 0.0
0.0 0.0 0.0

-857676.7417032855 1.1563504437174013e7 0.0
1.1563504437174013e7 -629152.525696754 0.0
0.0 0.0 0.0

-1.0161610797802636e7 -7.121964813664615e6 0.0
-7.121964813664615e6 2.772399150346127e7 0.0
0.0 0.0 0.0

3.0344608152931826e6 2.402042923764209e6 0.0
2.402042923764209e6 -5.570507072895315e6 0.0
0.0 0.0 0.0

-2.3274597935682014e6 -243323.72842932626 0.0
-243323.72842932626 1.605333549481905e6 0.0
0.0 0.0 0.0

-522720.9735022733 -2.1486443435134427e6 0.0
-2.1486443435134427e6 -88937.84638786418 0.0
0.0 0.0 0.0

-2.692978036474185e6 1.3124207364934826e7 0.0
1.3124207364934826e7 -1.864944328513999e6 0.0
0.0 0.0 0.0

426171.9298601835 1.0397838779666679e7 0.0
1.0397838779666679e7 -9.917070215688057e6 0.0
0.0 0.0 0.0

-2.695229569360094e6 1.1748939950607859e7 0.0
1.1748939950607859e7 4.548394177626633e6 0.0
0.0 0.0 0.0

-1.0805090417104722e6 1.0375983705480104e7 0.0
1.0375983705480104e7 -1.2116497720520557e6 0.0
0.0 0.0 0.0

1.3696007078175147e6 4.892734521394026e6 0.0
4.892734521394026e6 -5.7603824106378695e6 0.0
0.0 0.0 0.0

-730399.6590939313 7.823532066454028e6 0.0
7.823532066454028e6 -4.589830412483834e6 0.0
0.0 0.0 0.0

267320.9694946776 1.1230127642928667e7 0.0
1.1230127642928667e7 -5.540144049465516e6 0.0
0.0 0.0 0.0

680826.0123323603 9.78716526463669e6 0.0
9.78716526463669e6 -8.8046549952101e6 0.0
0.0 0.0 0.0

-5.457983568250617e6 1.1763980995952878e7 0.0
1.1763980995952878e7 1.7644631098204788e6 0.0
0.0 0.0 0.0

-4.347297984283429e6 1.0267296454004208e7 0.0
1.0267296454004208e7 5.258378438929414e6 0.0
0.0 0.0 0.0

43807.29327872745 8.254249797212683e6 0.0
8.254249797212683e6 -4.374675318809663e6 0.0
0.0 0.0 0.0

348052.63758486614 8.664513249243233e6 0.0
8.664513249243233e6 -2.0118175117617766e6 0.0
0.0 0.0 0.0

-451415.22549337265 9.510290522311095e6 0.0
9.510290522311095e6 -7.324981473854643e6 0.0
0.0 0.0 0.0

-1.4598431448982045e7 8.238517038641823e6 0.0
8.238517038641823e6 9.22878434527902e6 0.0
0.0 0.0 0.0

-7.865526802702562e6 1.920194930929164e7 0.0
1.920194930929164e7 2.583491641224937e6 0.0
0.0 0.0 0.0

2.130052300197129e6 1.189922165128311e6 0.0
1.189922165128311e6 -3.041566534449053e6 0.0
0.0 0.0 0.0

1.9042711166228207e6 1.0440506019090059e6 0.0
1.0440506019090059e6 -3.046334210031526e6 0.0
0.0 0.0 0.0

-4.376708667572055e6 1.0699667894200647e7 0.0
1.0699667894200647e7 4.64913257352625e6 0.0
0.0 0.0 0.0

-4.40534040976124e6 1.0662651376159765e7 0.0
1.0662651376159765e7 67336.22673086217 0.0
0.0 0.0 0.0

-7.034270033966798e6 1.218016678808667e7 0.0
1.218016678808667e7 4.6228983296114765e6 0.0
0.0 0.0 0.0

-5.991140661780971e6 1.0970555986583732e7 0.0
1.0970555986583732e7 3.9745642100071716e6 0.0
0.0 0.0 0.0

2.54559126642258e6 8.760314640289085e6 0.0
8.760314640289085e6 680748.4094653991 0.0
0.0 0.0 0.0

1.6593630728813536e6 1.1008715494881876e7 0.0
1.1008715494881876e7 -4.873045570646908e6 0.0
0.0 0.0 0.0

-6.408705935431044e6 1.2457963802459622e7 0.0
1.2457963802459622e7 1.2853567070580512e7 0.0
0.0 0.0 0.0

-1.6735946427270869e7 1.239381969315473e7 0.0
1.239381969315473e7 3.7533094911206234e6 0.0
0.0 0.0 0.0

-4.564528699323399e7 1.6664250509492991e7 0.0
1.6664250509492991e7 2.2567189653310176e7 0.0
0.0 0.0 0.0

-3.9103186679472793e6 7.556231691481413e6 0.0
7.556231691481413e6 1.9805447746921217e6 0.0
0.0 0.0 0.0

-2.762310037534545e6 1.1260652414419813e7 0.0
1.1260652414419813e7 2.946899596083952e6 0.0
0.0 0.0 0.0

925803.1840701788 6.081855176233174e6 0.0
6.081855176233174e6 -5.588275893387076e6 0.0
0.0 0.0 0.0

-4.837472642538376e6 7.67297367346634e6 0.0
7.67297367346634e6 5.074420754402862e6 0.0
0.0 0.0 0.0

112165.53818169149 1.8046524814388521e6 0.0
1.8046524814388521e6 -1.243073986490066e6 0.0
0.0 0.0 0.0

-1.4960304189849491e6 9.242381022007149e6 0.0
9.242381022007149e6 4.738754449299876e6 0.0
0.0 0.0 0.0

822941.6717457967 9.766759072685627e6 0.0
9.766759072685627e6 -8.986590323042182e6 0.0
0.0 0.0 0.0

2.099733495880595e6 6.054716376099462e6 0.0
6.054716376099462e6 -7.050988417427388e6 0.0
0.0 0.0 0.0

2.0466704742116453e6 8.580561588890877e6 0.0
8.580561588890877e6 -776330.3337346701 0.0
0.0 0.0 0.0

-1.010473780038488e7 -984680.8249053892 0.0
-984680.8249053892 4.173483515773446e7 0.0
0.0 0.0 0.0

-6.855776425837096e6 1.160328717206763e7 0.0
1.160328717206763e7 5.00988326516187e6 0.0
0.0 0.0 0.0

-6.815546108820714e6 1.0190628431578208e7 0.0
1.0190628431578208e7 1.7849339194878861e6 0.0
0.0 0.0 0.0

-2.6986936022211937e6 1.2335213742030889e7 0.0
1.2335213742030889e7 -2.1075770297053913e6 0.0
0.0 0.0 0.0

-2.0579027387934988e6 393171.72576325806 0.0
393171.72576325806 2.365421690911618e6 0.0
0.0 0.0 0.0

-968866.1575026946 7.725982715635093e6 0.0
7.725982715635093e6 -110109.29478830702 0.0
0.0 0.0 0.0

-4.017958263364797e6 -1.2747157717551277e6 0.0
-1.2747157717551277e6 6.370341966369171e6 0.0
0.0 0.0 0.0

1.92176176383517e6 9.195008147390876e6 0.0
9.195008147390876e6 -1.3249401174814273e6 0.0
0.0 0.0 0.0

-3.802290641425422e6 9.498142218672615e6 0.0
9.498142218672615e6 1.262143537774019e6 0.0
0.0 0.0 0.0

2.591508098358617e6 5.90839466858472e6 0.0
5.90839466858472e6 -7.845746989366025e6 0.0
0.0 0.0 0.0

-3.7855460315851327e6 9.859783596544271e6 0.0
9.859783596544271e6 675124.4332494489 0.0
0.0 0.0 0.0

1.0405475533775436e6 4.765363485568491e6 0.0
4.765363485568491e6 -4.679813154429954e6 0.0
0.0 0.0 0.0

-326182.6849765149 1.02786053543112e7 0.0
1.02786053543112e7 -6.224454828127358e6 0.0
0.0 0.0 0.0

-1.0221769637874667e7 1.2532069009455929e7 0.0
1.2532069009455929e7 7.557967314294914e6 0.0
0.0 0.0 0.0

-489761.23234308534 6.493598135859308e6 0.0
6.493598135859308e6 -3.0008769980757954e6 0.0
0.0 0.0 0.0

-4.0332605037472877e6 1.1413239418532155e7 0.0
1.1413239418532155e7 -1.3443274089269713e6 0.0
0.0 0.0 0.0

-8.595988806978323e6 1.2570866762660652e7 0.0
1.2570866762660652e7 5.94441589324227e6 0.0
0.0 0.0 0.0

-5.922100913764901e6 1.0529559702410795e7 0.0
1.0529559702410795e7 4.25165845315275e6 0.0
0.0 0.0 0.0

-6.067606848536856e6 1.0740718555625591e7 0.0
1.0740718555625591e7 3.5965649537759293e6 0.0
0.0 0.0 0.0

-8.616017157385254e6 1.3525027811472751e7 0.0
1.3525027811472751e7 5.117368927185858e6 0.0
0.0 0.0 0.0

-2.9735633756681755e6 1.1217453856620386e7 0.0
1.1217453856620386e7 -1.700459181470265e6 0.0
0.0 0.0 0.0

-1.1006754822619002e7 1.3713140874271449e7 0.0
1.3713140874271449e7 7.487463558716849e6 0.0
0.0 0.0 0.0

-2.83621531081631e6 6.611455489752702e6 0.0
6.611455489752702e6 983394.1260527574 0.0
0.0 0.0 0.0

-893718.5402455736 7.802235755774006e6 0.0
7.802235755774006e6 -4.399137656347708e6 0.0
0.0 0.0 0.0

-1.6334752209981768e6 1.8078590480425402e6 0.0
1.8078590480425402e6 316044.6921078013 0.0
0.0 0.0 0.0

-5.597503113142352e6 1.0726022837760359e7 0.0
1.0726022837760359e7 3.439382027434936e6 0.0
0.0 0.0 0.0

-9.362038540254552e6 -5.438542072323797e6 0.0
-5.438542072323797e6 1.4352806412823077e7 0.0
0.0 0.0 0.0

-6.741667633589516e6 1.4179702322703747e7 0.0
1.4179702322703747e7 1.3935512117622653e6 0.0
0.0 0.0 0.0

85559.74229411664 1.0177226313876087e7 0.0
1.0177226313876087e7 -6.075663470961951e6 0.0
0.0 0.0 0.0

-943500.6746069685 8.79712325761892e6 0.0
8.79712325761892e6 680418.1422230344 0.0
0.0 0.0 0.0

-2.103349371853152e6 8.610697625717917e6 0.0
8.610697625717917e6 -2.519920612928939e6 0.0
0.0 0.0 0.0

1.2300504358983287e6 9.39497663563657e6 0.0
9.39497663563657e6 -8.027442941090275e6 0.0
0.0 0.0 0.0

2.954836148147839e6 5.507871277516228e6 0.0
5.507871277516228e6 -5.603775370275635e6 0.0
0.0 0.0 0.0

-2.280533285190132e6 1.3362332086859515e7 0.0
1.3362332086859515e7 -2.2071109044589642e6 0.0
0.0 0.0 0.0

-691157.8258437421 1.129490541011574e7 0.0
1.129490541011574e7 -32208.854611089948 0.0
0.0 0.0 0.0

-3.0377674630719e6 8.936005606150813e6 0.0
8.936005606150813e6 -371927.7490455201 0.0
0.0 0.0 0.0

4.285603523742878e6 6.138953012489821e6 0.0
6.138953012489821e6 -1.1761897888857936e7 0.0
0.0 0.0 0.0

-1.7857908823001343e6 4.012045817710289e6 0.0
4.012045817710289e6 1.2855985229031176e6 0.0
0.0 0.0 0.0

3.8524533585075624e6 6.701590950858492e6 0.0
6.701590950858492e6 -1.1825481483050901e7 0.0
0.0 0.0 0.0

-131231.87983460407 2.276903325141425e6 0.0
2.276903325141425e6 -964961.7152994009 0.0
0.0 0.0 0.0

-3.9742851907003494e6 9.513422744661449e6 0.0
9.513422744661449e6 670962.0601713073 0.0
0.0 0.0 0.0

-670199.1932459028 1.1354717224304732e7 0.0
1.1354717224304732e7 -313347.41304271563 0.0
0.0 0.0 0.0

-267054.1507522536 8.660500858911697e6 0.0
8.660500858911697e6 -589577.9440445452 0.0
0.0 0.0 0.0

-3.7559971579077668e6 7.684636483908169e6 0.0
7.684636483908169e6 2.4079009857944576e6 0.0
0.0 0.0 0.0

-3.2588432674411777e6 -97201.34054004462 0.0
-97201.34054004462 3.3753989599975375e6 0.0
0.0 0.0 0.0

-3.3626431154690394e6 1.399168501787823e7 0.0
1.399168501787823e7 -961565.9862658591 0.0
0.0 0.0 0.0

-5.104747561083657e6 1.0106997355031705e7 0.0
1.0106997355031705e7 6.833756796369549e6 0.0
0.0 0.0 0.0

1.0400425842054049e6 7.328914253999718e6 0.0
7.328914253999718e6 -6.518663112385736e6 0.0
0.0 0.0 0.0

-3.7588429725561766e6 -242067.36590164303 0.0
-242067.36590164303 5.394827084527485e6 0.0
0.0 0.0 0.0

-2.235985106828862e6 8.963126291193051e6 0.0
8.963126291193051e6 3.308445740887322e6 0.0
0.0 0.0 0.0

-8.870781587504715e6 8.74189481172893e6 0.0
8.74189481172893e6 1.4476520403837893e7 0.0
0.0 0.0 0.0

-1.3605424643794394e6 8.955816386694819e6 0.0
8.955816386694819e6 3.766771330857247e6 0.0
0.0 0.0 0.0

614582.7574114553 1.0141649528049603e7 0.0
1.0141649528049603e7 -9.87257735623067e6 0.0
0.0 0.0 0.0

-4.202865949966413e6 9.957193755860388e6 0.0
9.957193755860388e6 5.417896098920619e6 0.0
0.0 0.0 0.0

-1.7756144122549617e6 1.057557936102995e7 0.0
1.057557936102995e7 2.6735877133871485e6 0.0
0.0 0.0 0.0

-1.0801888524809703e6 1.1923531068516374e7 0.0
1.1923531068516374e7 -4.0157990723997033e6 0.0
0.0 0.0 0.0

-1.5935677498914576e6 1.1724846250020208e7 0.0
1.1724846250020208e7 -433740.55765159463 0.0
0.0 0.0 0.0

2.441421858630363e6 7.675027255425637e6 0.0
7.675027255425637e6 -1.0028730523643674e7 0.0
0.0 0.0 0.0

2.722330900394652e6 7.476172629703017e6 0.0
7.476172629703017e6 -1.0422637777060961e7 0.0
0.0 0.0 0.0

-1.7754421590071297e6 8.54693212614817e6 0.0
8.54693212614817e6 -2.4226929473805916e6 0.0
0.0 0.0 0.0

-6.639358864953313e6 6.764306231243136e6 0.0
6.764306231243136e6 9.578183414470838e6 0.0
0.0 0.0 0.0

-1.8019080661329317e6 1.1446997896249631e7 0.0
1.1446997896249631e7 -4.1895179795574676e6 0.0
0.0 0.0 0.0

-1.1470523903476674e7 -3.7310555842551873e6 0.0
-3.7310555842551873e6 2.5805091816353608e7 0.0
0.0 0.0 0.0

170494.28376172134 5.965199618949368e6 0.0
5.965199618949368e6 -5.619989577117031e6 0.0
0.0 0.0 0.0

-6.395222540827047e6 9.654902444381334e6 0.0
9.654902444381334e6 3.824285557352522e7 0.0
0.0 0.0 0.0

4.150421957275932e6 6.126405674355848e6 0.0
6.126405674355848e6 -1.1406720244105974e7 0.0
0.0 0.0 0.0

-3.3382725194439306e6 1.1840544514484791e7 0.0
1.1840544514484791e7 -1.4413069910386268e6 0.0
0.0 0.0 0.0

-2.627450442550091e6 9.095667067573009e6 0.0
9.095667067573009e6 4.249029442441543e6 0.0
0.0 0.0 0.0

-80563.6891292152 1.02929443256408e7 0.0
1.02929443256408e7 -9.221912113015976e6 0.0
0.0 0.0 0.0

-1.6288072877242896e6 6.256544705025349e6 0.0
6.256544705025349e6 2.985542352062517e6 0.0
0.0 0.0 0.0

-1.2666730273346032e6 1.1349308347449098e7 0.0
1.1349308347449098e7 -932231.7449644977 0.0
0.0 0.0 0.0

-3.329226081654132e6 9.30086009452794e6 0.0
9.30086009452794e6 4.36713420780859e6 0.0
0.0 0.0 0.0

-5.601665641088907e6 9.844091925315754e6 0.0
9.844091925315754e6 4.264893537082927e6 0.0
0.0 0.0 0.0

-3.274244150524284e6 1.1183244769823946e7 0.0
1.1183244769823946e7 3.357390919216615e6 0.0
0.0 0.0 0.0

-854072.1465134467 7.274645020117468e6 0.0
7.274645020117468e6 -4.085269857400145e6 0.0
0.0 0.0 0.0

-6.939287787668924e6 5.537790526597811e6 0.0
5.537790526597811e6 8.003082601449542e6 0.0
0.0 0.0 0.0

833712.9170963443 9.915840342969386e6 0.0
9.915840342969386e6 -9.635753947376385e6 0.0
0.0 0.0 0.0

-1.20915880633844e6 1.0771505580460941e7 0.0
1.0771505580460941e7 -845880.9260627022 0.0
0.0 0.0 0.0

-3.3236940845468296e6 1.1618787260521207e7 0.0
1.1618787260521207e7 1.9540421430340235e6 0.0
0.0 0.0 0.0

-394925.9733359171 7.145094439383598e6 0.0
7.145094439383598e6 -3.7601382767377044e6 0.0
0.0 0.0 0.0

-1.4220726987902e7 1.2232474241724792e6 0.0
1.2232474241724792e6 3.881453136013235e7 0.0
0.0 0.0 0.0

152335.02528843423 1.0661435498956658e7 0.0
1.0661435498956658e7 -9.97359213127525e6 0.0
0.0 0.0 0.0

-4.866056337708229e6 9.768864213329514e6 0.0
9.768864213329514e6 7.078744575211717e6 0.0
0.0 0.0 0.0

-7.413219676093679e6 1.241399029339948e7 0.0
1.241399029339948e7 4.462135710040046e6 0.0
0.0 0.0 0.0

809905.4931998998 1.1578866684382549e7 0.0
1.1578866684382549e7 4.982652719888297e6 0.0
0.0 0.0 0.0

-6.2787540630076025e6 1.077968848263958e7 0.0
1.077968848263958e7 1.0051002241639446e7 0.0
0.0 0.0 0.0

-5.047514093435868e6 1.045753901360489e7 0.0
1.045753901360489e7 5.4693773245971e6 0.0
0.0 0.0 0.0

-1.0790478200693678e6 8.3346571316146795e6 0.0
8.3346571316146795e6 -4.181551176272598e6 0.0
0.0 0.0 0.0

-1.7910770068563651e6 1.0364017442176195e7 0.0
1.0364017442176195e7 -894308.3082559858 0.0
0.0 0.0 0.0

-4.954496586738254e6 8.549140588925706e6 0.0
8.549140588925706e6 3.175077065624203e6 0.0
0.0 0.0 0.0

-4.421422820788221e6 8.144170345687902e6 0.0
8.144170345687902e6 3.316120004359755e6 0.0
0.0 0.0 0.0

1.878182616318636e6 5.705548643979503e6 0.0
5.705548643979503e6 -7.135223531033784e6 0.0
0.0 0.0 0.0

-5.822592637289997e6 1.1362588683143701e7 0.0
1.1362588683143701e7 4.57506687578097e6 0.0
0.0 0.0 0.0

-90339.52170176036 7.4443457489686245e6 0.0
7.4443457489686245e6 -3.945349184323394e6 0.0
0.0 0.0 0.0

1.0127122806890602e6 5.318721658200694e6 0.0
5.318721658200694e6 -4.744293292320039e6 0.0
0.0 0.0 0.0

-6.568154141144189e6 1.3336029325978087e7 0.0
1.3336029325978087e7 1.5348333020654162e6 0.0
0.0 0.0 0.0

-3.9052119658983587e6 9.550962425526531e6 0.0
9.550962425526531e6 5.531946108405335e6 0.0
0.0 0.0 0.0

-1.0121265654786818e7 -5.117816012666838e6 0.0
-5.117816012666838e6 1.9239384989535164e7 0.0
0.0 0.0 0.0

233077.58304546413 9.657042808959156e6 0.0
9.657042808959156e6 2.431335045962199e6 0.0
0.0 0.0 0.0

1.0481256083175292e6 9.225683373087417e6 0.0
9.225683373087417e6 464792.0960351438 0.0
0.0 0.0 0.0

156784.93202039972 1.0977852470551502e7 0.0
1.0977852470551502e7 -5.81096837627883e6 0.0
0.0 0.0 0.0

3.0776367438892378e6 5.940203241045122e6 0.0
5.940203241045122e6 -9.205391635950796e6 0.0
0.0 0.0 0.0

-346541.4912145309 1.0357348967239387e7 0.0
1.0357348967239387e7 418751.26983495336 0.0
0.0 0.0 0.0

-65665.99239886622 1.124548626501592e7 0.0
1.124548626501592e7 -5.485179255413406e6 0.0
0.0 0.0 0.0

-1.5605511178899354e6 8.638676046164785e6 0.0
8.638676046164785e6 1.4016699543858222e6 0.0
0.0 0.0 0.0

-1.720320374743993e6 5.185961361456686e6 0.0
5.185961361456686e6 464406.5523145787 0.0
0.0 0.0 0.0

14156.525286654476 2.3082300971452077e6 0.0
2.3082300971452077e6 -883966.3014663653 0.0
0.0 0.0 0.0

-2.91091663649067e6 1.1426561968663521e7 0.0
1.1426561968663521e7 879710.3494174498 0.0
0.0 0.0 0.0

727077.5731520127 9.565263816028493e6 0.0
9.565263816028493e6 -7.00695610179963e6 0.0
0.0 0.0 0.0

127533.90945306234 9.746641169120459e6 0.0
9.746641169120459e6 -6.925291872665057e6 0.0
0.0 0.0 0.0

-1.3328204437820768e7 -2.882182333190204e6 0.0
-2.882182333190204e6 3.806757018369359e7 0.0
0.0 0.0 0.0

-1.172689486044252e7 1.3676960875686768e7 0.0
1.3676960875686768e7 7.883876914291697e6 0.0
0.0 0.0 0.0

1.530881314371839e6 5.062084378112792e6 0.0
5.062084378112792e6 -3.870672594046323e6 0.0
0.0 0.0 0.0

-795950.7667547321 1.1473722523557335e7 0.0
1.1473722523557335e7 -523337.88562695717 0.0
0.0 0.0 0.0

-2.6798116941787214e6 9.225549172747724e6 0.0
9.225549172747724e6 2.9239747685233513e6 0.0
0.0 0.0 0.0

-5.993506624286763e6 6.912955971850703e6 0.0
6.912955971850703e6 8.352493594074424e6 0.0
0.0 0.0 0.0

-5.18321655817589e6 1.0622290973289028e7 0.0
1.0622290973289028e7 2.3579959164732136e6 0.0
0.0 0.0 0.0

11961.312107542646 9.204667152890923e6 0.0
9.204667152890923e6 1.6014799166473122e6 0.0
0.0 0.0 0.0

-2.1313726389094805e6 9.251019880399823e6 0.0
9.251019880399823e6 2.7273293798009353e6 0.0
0.0 0.0 0.0

-455637.17690046807 1.0828042217663012e7 0.0
1.0828042217663012e7 -5.355328157124894e6 0.0
0.0 0.0 0.0

3.0486797519150227e6 6.0985200770777445e6 0.0
6.0985200770777445e6 -6.155613542031302e6 0.0
0.0 0.0 0.0

437103.6445327862 1.0813127546832616e7 0.0
1.0813127546832616e7 -6.185007651182693e6 0.0
0.0 0.0 0.0

-3.178033137734724e6 1.1235905312746774e7 0.0
1.1235905312746774e7 -2.39515493357181e6 0.0
0.0 0.0 0.0

-5.417099340766635e6 1.008013040454325e7 0.0
1.008013040454325e7 3.5177098726880876e6 0.0
0.0 0.0 0.0

-1.5069521363287913e6 1.2440369488607492e7 0.0
1.2440369488607492e7 -3.40138674747122e6 0.0
0.0 0.0 0.0

-1.4896669056587862e6 1.2138983014151445e7 0.0
1.2138983014151445e7 -3.7972212474931115e6 0.0
0.0 0.0 0.0

2.8911863634610986e6 6.172317671115509e6 0.0
6.172317671115509e6 -8.585007946421871e6 0.0
0.0 0.0 0.0

264540.53337110986 8.896603494095199e6 0.0
8.896603494095199e6 67722.68349246202 0.0
0.0 0.0 0.0

-3.627409992103863e6 1.128680897391841e7 0.0
1.128680897391841e7 -1.7579923990109577e6 0.0
0.0 0.0 0.0

-4.103861711151789e6 6.254049576851046e6 0.0
6.254049576851046e6 2.954074479282082e6 0.0
0.0 0.0 0.0

-2.6183148025922373e7 1.583635438454332e7 0.0
1.583635438454332e7 6.091686673358653e6 0.0
0.0 0.0 0.0

1.236175056609629e7 2.1043877482836626e7 0.0
2.1043877482836626e7 4.120598168424182e7 0.0
0.0 0.0 0.0

-4.1290536257622303e6 1.3746442126810472e7 0.0
1.3746442126810472e7 -1.3763541734071158e7 0.0
0.0 0.0 0.0

-4.387157257469075e6 9.992102490352277e6 0.0
9.992102490352277e6 5.60932050002146e6 0.0
0.0 0.0 0.0

-122986.72057063296 9.245215792303236e6 0.0
9.245215792303236e6 -6.025223820992282e6 0.0
0.0 0.0 0.0

-2.9580700238434905e6 1.039755932244763e7 0.0
1.039755932244763e7 276290.0007254863 0.0
0.0 0.0 0.0

-1.0352506920319492e7 1.6349672304365061e7 0.0
1.6349672304365061e7 4.948338913199162e6 0.0
0.0 0.0 0.0

441350.27748681325 1.0185112069720453e7 0.0
1.0185112069720453e7 -7.189115524533909e6 0.0
0.0 0.0 0.0

-2.2742037830954194e6 1.1936935298602706e7 0.0
1.1936935298602706e7 428683.7929262939 0.0
0.0 0.0 0.0

-5.053132120908138e6 6.828702424591504e6 0.0
6.828702424591504e6 4.288480447047954e6 0.0
0.0 0.0 0.0

-4.854981750820101e6 1.0920812635444112e7 0.0
1.0920812635444112e7 1.6242376256004723e6 0.0
0.0 0.0 0.0

663317.3434412801 9.85493862067467e6 0.0
9.85493862067467e6 -8.584647824019827e6 0.0
0.0 0.0 0.0

-1.263992524981854e6 1.1482422625396442e7 0.0
1.1482422625396442e7 -313647.1591987813 0.0
0.0 0.0 0.0

-5.890262622982828e6 1.0157131307789782e7 0.0
1.0157131307789782e7 4.47542154277428e6 0.0
0.0 0.0 0.0

3.849870038660846e6 1.1686281297191003e7 0.0
1.1686281297191003e7 -5.479242938445852e6 0.0
0.0 0.0 0.0

-319308.6890630832 8.291227363118288e6 0.0
8.291227363118288e6 206357.07967492036 0.0
0.0 0.0 0.0

-4.936587542391801e6 1.0133561755736055e7 0.0
1.0133561755736055e7 5.668026732326843e6 0.0
0.0 0.0 0.0

-7.740312120559954e6 9.756884236330578e6 0.0
9.756884236330578e6 1.168118831492574e6 0.0
0.0 0.0 0.0

-868375.539238177 8.48222359963105e6 0.0
8.48222359963105e6 103681.2201628884 0.0
0.0 0.0 0.0

-6.734853144337459e6 1.3765245151303688e7 0.0
1.3765245151303688e7 1.6790173280559564e6 0.0
0.0 0.0 0.0

-1.1173145136990016e6 1.4458425812239014e7 0.0
1.4458425812239014e7 -3.252857946208812e6 0.0
0.0 0.0 0.0

-388439.1014052422 7.984771988256048e6 0.0
7.984771988256048e6 -4.540490625445041e6 0.0
0.0 0.0 0.0

-5.380198128053118e6 8.878908333890432e6 0.0
8.878908333890432e6 7.772922615453754e6 0.0
0.0 0.0 0.0

-357284.56284299074 1.0822091515786301e7 0.0
1.0822091515786301e7 -6.012261959564952e6 0.0
0.0 0.0 0.0

-2.806895531338833e6 7.507651874355856e6 0.0
7.507651874355856e6 631817.2962399817 0.0
0.0 0.0 0.0

-5.258379779454518e6 8.339389119057057e6 0.0
8.339389119057057e6 3.7685123467371487e6 0.0
0.0 0.0 0.0

2.0638138158032445e6 6.404461920774869e6 0.0
6.404461920774869e6 -5.0568507881241515e6 0.0
0.0 0.0 0.0

-703568.9941858691 1.0864224707046358e7 0.0
1.0864224707046358e7 335137.714156669 0.0
0.0 0.0 0.0

-3.7058495446306043e6 1.3969851956718475e7 0.0
1.3969851956718475e7 -2.1030079714274984e6 0.0
0.0 0.0 0.0

2.6964294150776397e6 9.384223757358555e6 0.0
9.384223757358555e6 -1.217410570838996e7 0.0
0.0 0.0 0.0

-3.714283491421637e6 6.304420340757372e6 0.0
6.304420340757372e6 2.351346139076269e6 0.0
0.0 0.0 0.0

-5.420627311735714e6 1.8938667316584595e7 0.0
1.8938667316584595e7 -1.458131011267728e6 0.0
0.0 0.0 0.0

2.955325774170982e6 7.4216008562837085e6 0.0
7.4216008562837085e6 -9.662290655908892e6 0.0
0.0 0.0 0.0

-661937.458693351 1.0895616903443675e7 0.0
1.0895616903443675e7 46035.1101955802 0.0
0.0 0.0 0.0

-3.2040561151496293e6 1.2804852748929735e7 0.0
1.2804852748929735e7 -2.461740671080153e6 0.0
0.0 0.0 0.0

-1.5208664270930625e6 1.5400887663755614e7 0.0
1.5400887663755614e7 7.706756840724103e7 0.0
0.0 0.0 0.0

1.9616498716012947e6 1.3299172832314268e7 0.0
1.3299172832314268e7 -2.180537874637631e7 0.0
0.0 0.0 0.0

4.995503200941023e6 1.1583371350426577e7 0.0
1.1583371350426577e7 3.435538439715777e6 0.0
0.0 0.0 0.0

-3581.2508321981877 1.4169699203778649e7 0.0
1.4169699203778649e7 -4.47228358481011e6 0.0
0.0 0.0 0.0

-117542.37895074999 7.033196517541995e6 0.0
7.033196517541995e6 -3.627422523640083e6 0.0
0.0 0.0 0.0

-2.0515427465762189e6 1.7956924586759914e7 0.0
1.7956924586759914e7 -3.0905987238088716e6 0.0
0.0 0.0 0.0

-2.5211363891946836e6 1.0764047540014973e7 0.0
1.0764047540014973e7 3.3133205083310436e6 0.0
0.0 0.0 0.0

3.5650795043236744e6 1.1364058104593905e7 0.0
1.1364058104593905e7 -5.05958515637158e6 0.0
0.0 0.0 0.0

-5.971513934662424e6 1.0135805563545348e7 0.0
1.0135805563545348e7 4.0709134042338626e6 0.0
0.0 0.0 0.0

-3.8197439853883353e6 7.879037148299559e6 0.0
7.879037148299559e6 2.4229504004497933e6 0.0
0.0 0.0 0.0

3.384491429586953e6 3.0790626186308824e6 0.0
3.0790626186308824e6 -5.309398499826618e6 0.0
0.0 0.0 0.0

-4.8428368134741355e6 1.0081936087365504e7 0.0
1.0081936087365504e7 7.204795600516469e6 0.0
0.0 0.0 0.0

-5.042943315536514e6 1.1708785637540497e7 0.0
1.1708785637540497e7 595620.7345062711 0.0
0.0 0.0 0.0

-4.477070695415652e6 9.857296105971107e6 0.0
9.857296105971107e6 6.0702489145611115e6 0.0
0.0 0.0 0.0

-5.4442470922392355e6 1.1669171736902885e7 0.0
1.1669171736902885e7 4.2335701248271335e6 0.0
0.0 0.0 0.0

-5.608987427223687e6 1.0077575024197757e7 0.0
1.0077575024197757e7 4.0999678604602222e6 0.0
0.0 0.0 0.0

-119026.32112652785 8.45325177791818e6 0.0
8.45325177791818e6 -5.186739769017439e6 0.0
0.0 0.0 0.0

-5.553350351316359e6 1.0028919672778636e7 0.0
1.0028919672778636e7 7.691038318654972e6 0.0
0.0 0.0 0.0

-5.982131956631785e6 1.0648563471758556e7 0.0
1.0648563471758556e7 4.720158267021123e6 0.0
0.0 0.0 0.0

-1.8805179706125164e6 5.737946123622205e6 0.0
5.737946123622205e6 13312.031332735554 0.0
0.0 0.0 0.0

-1.9052577203071274e7 8.8180869436525e6 0.0
8.8180869436525e6 8.250292622849018e6 0.0
0.0 0.0 0.0

-1.1291644414151866e7 -2.0696965419266766e6 0.0
-2.0696965419266766e6 2.1048442393523026e7 0.0
0.0 0.0 0.0

-5.64592263271977e6 1.1607203908841884e7 0.0
1.1607203908841884e7 3.899986031113367e6 0.0
0.0 0.0 0.0

-8.401997073522665e6 1.1496386452801513e7 0.0
1.1496386452801513e7 5.848180447460929e6 0.0
0.0 0.0 0.0

903077.7484911839 9.79346651327924e6 0.0
9.79346651327924e6 -8.089375926753639e6 0.0
0.0 0.0 0.0

-9.665005178847112e6 1.3166023860181678e7 0.0
1.3166023860181678e7 6.363453782831943e6 0.0
0.0 0.0 0.0

-1.2888890053519875e7 1.386852157182754e7 0.0
1.386852157182754e7 8.365900797472385e6 0.0
0.0 0.0 0.0

-1.4548190550799724e7 1.3875593826025544e7 0.0
1.3875593826025544e7 9.26444958975755e6 0.0
0.0 0.0 0.0

-6.034982848771012e6 1.1821367064476237e7 0.0
1.1821367064476237e7 2.2870906030639736e6 0.0
0.0 0.0 0.0

-6.851152530539429e6 3.597386469520197e6 0.0
3.597386469520197e6 1.0191658366361463e7 0.0
0.0 0.0 0.0

2.728628750202619e6 5.736640997483266e6 0.0
5.736640997483266e6 -7.945832430162057e6 0.0
0.0 0.0 0.0

-4.60281436882809e6 9.8071759834933e6 0.0
9.8071759834933e6 5.748086278393592e6 0.0
0.0 0.0 0.0

-7.246115334567394e6 1.3783427994619029e7 0.0
1.3783427994619029e7 2.3722505978209046e6 0.0
0.0 0.0 0.0

-75598.99923131731 1.0128559906375593e7 0.0
1.0128559906375593e7 -6.607436587715665e6 0.0
0.0 0.0 0.0

-5.320811579417825e6 -3.5303192153777746e6 0.0
-3.5303192153777746e6 7.973827613206417e6 0.0
0.0 0.0 0.0

-333965.4882690597 1.1217873849304246e7 0.0
1.1217873849304246e7 -745775.3851493003 0.0
0.0 0.0 0.0

-354465.14296561107 1.150918802524984e7 0.0
1.150918802524984e7 -5.18536753751169e6 0.0
0.0 0.0 0.0

317942.3269337886 1.0742998945763163e7 0.0
1.0742998945763163e7 -6.091301190073226e6 0.0
0.0 0.0 0.0

-100080.84917534143 8.97416771701807e6 0.0
8.97416771701807e6 -6.465808291704614e6 0.0
0.0 0.0 0.0

-176904.60345173383 2.645408565216419e6 0.0
2.645408565216419e6 -897328.0638681663 0.0
0.0 0.0 0.0

1.0318115069391567e6 8.541959845419597e6 0.0
8.541959845419597e6 -3.8514883458168455e6 0.0
0.0 0.0 0.0

911799.3801691604 8.434093567830447e6 0.0
8.434093567830447e6 -112149.88915878441 0.0
0.0 0.0 0.0

5.619608729860486e6 8.667735835556513e6 0.0
8.667735835556513e6 -2.5820684603400854e6 0.0
0.0 0.0 0.0

-1.4442602090726383e7 1.3891150523400083e7 0.0
1.3891150523400083e7 1.016908798295667e7 0.0
0.0 0.0 0.0

-4.110170385616518e6 8.056334390845684e6 0.0
8.056334390845684e6 2.8264137753048623e6 0.0
0.0 0.0 0.0

-404687.7152617215 1.1240615398690883e7 0.0
1.1240615398690883e7 -1.0560291449149188e7 0.0
0.0 0.0 0.0

2.3999710507385554e6 6.978684677977957e6 0.0
6.978684677977957e6 -8.307650942393465e6 0.0
0.0 0.0 0.0

-2.6991366935192836e6 399032.21126892755 0.0
399032.21126892755 2.2168802585482458e6 0.0
0.0 0.0 0.0

-1.2189528321996732e7 8.45584535785943e6 0.0
8.45584535785943e6 7.142596334948214e6 0.0
0.0 0.0 0.0

-7.432001111024086e6 9.782650178714182e6 0.0
9.782650178714182e6 808025.8570018765 0.0
0.0 0.0 0.0

328797.9239752004 9.068778330253147e6 0.0
9.068778330253147e6 -5.639422783807534e6 0.0
0.0 0.0 0.0

-6.947307042389968e6 1.2672358592949301e7 0.0
1.2672358592949301e7 3.049839876625802e6 0.0
0.0 0.0 0.0

3.4295918635349935e6 7.711824716279182e6 0.0
7.711824716279182e6 -1.2512394249496836e7 0.0
0.0 0.0 0.0

613972.7377041224 1.2712906634031031e7 0.0
1.2712906634031031e7 -4.495645405002432e6 0.0
0.0 0.0 0.0

-117501.15818650136 9.345584723495664e6 0.0
9.345584723495664e6 2.179777379960392e6 0.0
0.0 0.0 0.0

210931.78424855298 9.13218225358278e6 0.0
9.13218225358278e6 -5.873058480500673e6 0.0
0.0 0.0 0.0

-4.213718940758059e6 1.0027201573176078e7 0.0
1.0027201573176078e7 1.5167934629587263e6 0.0
0.0 0.0 0.0

-329003.7806634669 7.691290050192606e6 0.0
7.691290050192606e6 -4.192563363053241e6 0.0
0.0 0.0 0.0

64635.38853717595 9.162871034540294e6 0.0
9.162871034540294e6 -6.398255049074421e6 0.0
0.0 0.0 0.0

431652.40088315774 9.55010558506245e6 0.0
9.55010558506245e6 -6.615469471693186e6 0.0
0.0 0.0 0.0

-7.369821382389177e6 1.172844745453761e7 0.0
1.172844745453761e7 5.338253390453162e6 0.0
0.0 0.0 0.0

-1.6126669788491628e6 1.2264754069202196e7 0.0
1.2264754069202196e7 -1.1547496949782943e7 0.0
0.0 0.0 0.0

-3.488444854348606e6 1.739640129228524e7 0.0
1.739640129228524e7 -1.0852917582890536e6 0.0
0.0 0.0 0.0

-3.161401486376855e6 1.4205843970223675e7 0.0
1.4205843970223675e7 -2.550798951380135e6 0.0
0.0 0.0 0.0

-7.996843075050704e6 1.2453096056561686e7 0.0
1.2453096056561686e7 5.4753054123301245e6 0.0
0.0 0.0 0.0

-5.861647579755548e6 1.0737455695266223e7 0.0
1.0737455695266223e7 4.7148668235421935e6 0.0
0.0 0.0 0.0

3.6340837048408194e6 7.476129515957212e6 0.0
7.476129515957212e6 -1.2750707677077118e7 0.0
0.0 0.0 0.0

-4.833521548394343e6 1.1309607643864257e7 0.0
1.1309607643864257e7 4.564266892454555e6 0.0
0.0 0.0 0.0

3.319107652092709e6 6.867776535308889e6 0.0
6.867776535308889e6 -1.1167017726557422e7 0.0
0.0 0.0 0.0

-3.3647935947915595e6 1.016461212208453e7 0.0
1.016461212208453e7 -1.188809503545173e6 0.0
0.0 0.0 0.0

-3.0699068063384597e6 9.908915948991045e6 0.0
9.908915948991045e6 -1.395513574943486e6 0.0
0.0 0.0 0.0

746893.376313929 8.3725487874711985e6 0.0
8.3725487874711985e6 -4.221053827640065e6 0.0
0.0 0.0 0.0

-3.2639906713149566e6 1.095482140706805e7 0.0
1.095482140706805e7 3.476453887163467e6 0.0
0.0 0.0 0.0

-5.510647436504049e6 1.1165693853153564e7 0.0
1.1165693853153564e7 2.0742568759766016e6 0.0
0.0 0.0 0.0

-5.442522592931034e6 9.367694249942433e6 0.0
9.367694249942433e6 4.440878077121643e6 0.0
0.0 0.0 0.0

-4.272423012022732e6 310490.8965798897 0.0
310490.8965798897 5.141121304976177e6 0.0
0.0 0.0 0.0

2.217295580618432e6 6.880856413235907e6 0.0
6.880856413235907e6 -8.8819007253874e6 0.0
0.0 0.0 0.0

1.1779954684307934e6 7.488836074896621e6 0.0
7.488836074896621e6 -7.120694446496828e6 0.0
0.0 0.0 0.0

-8.348983122448653e6 1.396010990194134e7 0.0
1.396010990194134e7 4.736994628888281e6 0.0
0.0 0.0 0.0

-2.308946681198469e6 1.1371203460449547e7 0.0
1.1371203460449547e7 -230245.2262699959 0.0
0.0 0.0 0.0

1.0759750980121419e6 9.619060476179084e6 0.0
9.619060476179084e6 -8.045107879156613e6 0.0
0.0 0.0 0.0

-7.182416741645528e6 9.259263594628865e6 0.0
9.259263594628865e6 1.0152072002888655e7 0.0
0.0 0.0 0.0

-1.1417887333495088e6 3.6496387384420126e6 0.0
3.6496387384420126e6 619547.0554875619 0.0
0.0 0.0 0.0

-1.2398647974210428e6 9.70062434495368e6 0.0
9.70062434495368e6 3.7542864313184395e6 0.0
0.0 0.0 0.0

-1.167573545196705e7 1.0250184820870623e7 0.0
1.0250184820870623e7 8.585262185283061e6 0.0
0.0 0.0 0.0

995226.9459911354 8.635708631111247e6 0.0
8.635708631111247e6 -126968.95309973013 0.0
0.0 0.0 0.0

-743958.7814736291 1.0534902745671429e7 0.0
1.0534902745671429e7 1.0702436438072394e6 0.0
0.0 0.0 0.0

-7.0587467960798275e6 1.172661080023734e7 0.0
1.172661080023734e7 5.090716086263292e6 0.0
0.0 0.0 0.0

-3.807410437755719e6 1.1062099406904433e7 0.0
1.1062099406904433e7 3.9516581493148273e6 0.0
0.0 0.0 0.0

-7.304044486185906e6 1.0078997240797855e7 0.0
1.0078997240797855e7 9.094085460958336e6 0.0
0.0 0.0 0.0

-5.913804841556592e6 1.0507819065431742e7 0.0
1.0507819065431742e7 1.151690730076069e6 0.0
0.0 0.0 0.0

-6.039147091997875e6 1.05310263450568e7 0.0
1.05310263450568e7 1.9665771608411926e6 0.0
0.0 0.0 0.0

-7.202365921403448e6 1.849650330074979e6 0.0
1.849650330074979e6 6.023248604050096e6 0.0
0.0 0.0 0.0

-3.014833032927618e7 1.6157203205806365e7 0.0
1.6157203205806365e7 1.3852787346815212e7 0.0
0.0 0.0 0.0

3.8258648483824353e6 8.5956618070129e6 0.0
8.5956618070129e6 -1.390840984034498e6 0.0
0.0 0.0 0.0

762769.048827163 9.796690327595335e6 0.0
9.796690327595335e6 -8.265016245296997e6 0.0
0.0 0.0 0.0

-5.7059570253586e6 9.804730684418896e6 0.0
9.804730684418896e6 3.76771981532412e6 0.0
0.0 0.0 0.0

-1.4512396322440722e6 1.1283466005231917e7 0.0
1.1283466005231917e7 -4.665777686572376e6 0.0
0.0 0.0 0.0

1.1307706359789032e7 1.0473787570478877e7 0.0
1.0473787570478877e7 -475928.09926278144 0.0
0.0 0.0 0.0

-356561.86839442176 1.602103260527119e6 0.0
1.602103260527119e6 -1.565949654898731e6 0.0
0.0 0.0 0.0

3.5781598640396544e6 5.629380303240472e6 0.0
5.629380303240472e6 -6.21571712785798e6 0.0
0.0 0.0 0.0

-2.5708471406951253e6 1.0929947549704898e7 0.0
1.0929947549704898e7 -3.0336990522522503e6 0.0
0.0 0.0 0.0

546380.4747157076 8.686428869807938e6 0.0
8.686428869807938e6 -3.625584652347562e6 0.0
0.0 0.0 0.0

-9.781669120606478e6 -390667.23301715386 0.0
-390667.23301715386 1.4135503303620748e7 0.0
0.0 0.0 0.0

-2.0701004948324445e6 1.4417252527281813e7 0.0
1.4417252527281813e7 -2.319096036647722e6 0.0
0.0 0.0 0.0

-1.6697536771093741e7 1.4019068196499793e7 0.0
1.4019068196499793e7 1.0729554343964808e7 0.0
0.0 0.0 0.0

3.663396665176926e6 9.578898806190636e6 0.0
9.578898806190636e6 -2.2901026692958344e6 0.0
0.0 0.0 0.0

-877575.8361943312 367527.72155323724 0.0
367527.72155323724 514627.0094184713 0.0
0.0 0.0 0.0

-1.3476781393299844e7 5.416281634678852e6 0.0
5.416281634678852e6 8.900758786196792e6 0.0
0.0 0.0 0.0

-1.0213301696406535e6 7.587722527092622e6 0.0
7.587722527092622e6 -229955.1408388439 0.0
0.0 0.0 0.0

-1.8539864340706e7 1.4380123946161563e7 0.0
1.4380123946161563e7 1.1515662201807458e7 0.0
0.0 0.0 0.0

-5.276111690264943e6 8.095464845316049e6 0.0
8.095464845316049e6 5.75963329131267e6 0.0
0.0 0.0 0.0

1.652899996663428e6 9.992837650377613e6 0.0
9.992837650377613e6 -4.110137784007167e6 0.0
0.0 0.0 0.0

-1.05888139410311e6 9.463582632013183e6 0.0
9.463582632013183e6 -7.417626972404935e6 0.0
0.0 0.0 0.0

236585.91628465685 9.322347905894633e6 0.0
9.322347905894633e6 -6.141765290088562e6 0.0
0.0 0.0 0.0

1.0122069986403186e6 1.2178158069526976e7 0.0
1.2178158069526976e7 -4.239074167646261e6 0.0
0.0 0.0 0.0

-4.760758085979422e6 2.1725524305153996e7 0.0
2.1725524305153996e7 -1.2767659928372141e7 0.0
0.0 0.0 0.0

-152692.98655402556 2.2530103188488777e6 0.0
2.2530103188488777e6 -450387.72579491907 0.0
0.0 0.0 0.0

-9.974269345774679e6 1.5813662885133473e7 0.0
1.5813662885133473e7 4.1869674525178513e6 0.0
0.0 0.0 0.0

-6.404430565056946e6 1.395559402388836e7 0.0
1.395559402388836e7 2.633789108900673e6 0.0
0.0 0.0 0.0

-5.27658341465206e6 -860016.5991200119 0.0
-860016.5991200119 6.700050733792313e6 0.0
0.0 0.0 0.0

2.7473807759231525e6 5.789739779273131e6 0.0
5.789739779273131e6 -7.998544965883718e6 0.0
0.0 0.0 0.0

-6.319139056620438e6 1.1381472057134846e7 0.0
1.1381472057134846e7 4.800069668191398e6 0.0
0.0 0.0 0.0

-2.491143250309691e6 9.566385175345618e6 0.0
9.566385175345618e6 4.604816168780083e6 0.0
0.0 0.0 0.0

-2.363952649971254e6 1.3637959668149804e6 0.0
1.3637959668149804e6 3.5755138341002124e6 0.0
0.0 0.0 0.0

-4.433665445701786e6 6.934935214515311e6 0.0
6.934935214515311e6 3.921925198233638e6 0.0
0.0 0.0 0.0

-3.122490528517799e6 9.681526352480821e6 0.0
9.681526352480821e6 5.191776050999759e6 0.0
0.0 0.0 0.0

-2.2746047193017052e6 8.841574108025692e6 0.0
8.841574108025692e6 -2.64355903120902e6 0.0
0.0 0.0 0.0

239527.26549704978 9.338165329500973e6 0.0
9.338165329500973e6 -6.787261233608897e6 0.0
0.0 0.0 0.0

-6.349809934523152e6 1.289729388788114e7 0.0
1.289729388788114e7 1.700042798807601e6 0.0
0.0 0.0 0.0

-573214.5133673598 1.9546124872415385e6 0.0
1.9546124872415385e6 -947827.7796919355 0.0
0.0 0.0 0.0

-3.100576630047159e6 8.196868247032608e6 0.0
8.196868247032608e6 833202.2975934402 0.0
0.0 0.0 0.0

-6.207434938028132e6 7.335332954629819e6 0.0
7.335332954629819e6 8.78233325723748e6 0.0
0.0 0.0 0.0

-1.0853164037127036e6 7.797835400720314e6 0.0
7.797835400720314e6 -3.425752201111604e6 0.0
0.0 0.0 0.0

-3.372321754435757e6 1.214629925705317e7 0.0
1.214629925705317e7 -2.3199632502817423e6 0.0
0.0 0.0 0.0

-1.0374611825975694e7 1.6752093432937488e7 0.0
1.6752093432937488e7 6.649369251009509e6 0.0
0.0 0.0 0.0

936966.573732791 9.578879901028445e6 0.0
9.578879901028445e6 -8.504606993044315e6 0.0
0.0 0.0 0.0

-2.660345835649058e7 1.3333024571164668e7 0.0
1.3333024571164668e7 1.3566315537922982e7 0.0
0.0 0.0 0.0

4.436209144035494e6 1.894596983746439e6 0.0
1.894596983746439e6 -5.46201445661983e6 0.0
0.0 0.0 0.0

3.409477381715903e6 2.5066141770134764e6 0.0
2.5066141770134764e6 -5.21176896408108e6 0.0
0.0 0.0 0.0

-1.4442515134681484e6 1.1499108394892437e7 0.0
1.1499108394892437e7 3.9890438874682337e6 0.0
0.0 0.0 0.0

-4.0721814953590697e6 1.0637954976312019e7 0.0
1.0637954976312019e7 7.638289394900935e6 0.0
0.0 0.0 0.0

-774374.7410061313 1.1154435999318978e7 0.0
1.1154435999318978e7 359439.714873067 0.0
0.0 0.0 0.0

-3.4527928376142327e6 6.648557835381643e6 0.0
6.648557835381643e6 2.854489903494573e6 0.0
0.0 0.0 0.0

-118015.76331032961 3.2052028068359764e6 0.0
3.2052028068359764e6 -95062.4418132235 0.0
0.0 0.0 0.0

-2.038260550204462e6 1.1429657300834054e7 0.0
1.1429657300834054e7 1.5638365010829316e6 0.0
0.0 0.0 0.0

-6.685339037914691e6 1.2310655116670264e7 0.0
1.2310655116670264e7 3.7831542638372183e6 0.0
0.0 0.0 0.0

919114.4320819792 9.70721011123616e6 0.0
9.70721011123616e6 -8.649670724969463e6 0.0
0.0 0.0 0.0

-2.6386112515183957e6 1.0247487098841418e7 0.0
1.0247487098841418e7 6.489973886055444e6 0.0
0.0 0.0 0.0

3.8615202482723044e6 9.404944291784322e6 0.0
9.404944291784322e6 -1.0271091767056391e6 0.0
0.0 0.0 0.0

-1.993100296687972e7 1.3950780866464457e7 0.0
1.3950780866464457e7 1.3038248006353527e7 0.0
0.0 0.0 0.0

-1.0935263574502517e6 8.377069008837898e6 0.0
8.377069008837898e6 1.6840535422780537e6 0.0
0.0 0.0 0.0

-1.9281234263350475e6 4.838138094332775e6 0.0
4.838138094332775e6 -370289.34981306817 0.0
0.0 0.0 0.0

-5.473738795748361e6 4.159541399361013e6 0.0
4.159541399361013e6 5.823562227385098e6 0.0
0.0 0.0 0.0

-6.515223969206966e6 1.2019234192510735e7 0.0
1.2019234192510735e7 3.227795788095206e6 0.0
0.0 0.0 0.0

-6.238870197397077e6 9.73624642143309e6 0.0
9.73624642143309e6 1.000049365761393e7 0.0
0.0 0.0 0.0

-1.3955574881431997e7 -2.7402446914957054e6 0.0
-2.7402446914957054e6 2.472365006195183e7 0.0
0.0 0.0 0.0

-1.6760371527002486e6 1.077622453308365e7 0.0
1.077622453308365e7 1.938842001862425e6 0.0
0.0 0.0 0.0

-1.7310435971500687e6 1.0136813249757025e7 0.0
1.0136813249757025e7 -7.744845384477073e6 0.0
0.0 0.0 0.0

-3.8406033465085956e6 1.0289119624797273e7 0.0
1.0289119624797273e7 6.57048812808764e6 0.0
0.0 0.0 0.0

-4.708735979273006e6 9.334630096838886e6 0.0
9.334630096838886e6 6.412379693156136e6 0.0
0.0 0.0 0.0

-1.9861352074928093e6 8.49261360949151e6 0.0
8.49261360949151e6 -2.904781327505463e6 0.0
0.0 0.0 0.0

-8.452246757364655e6 1.3205556051826753e7 0.0
1.3205556051826753e7 3.054446984754379e7 0.0
0.0 0.0 0.0

-2.3389462475432274e6 1.4254566015773283e7 0.0
1.4254566015773283e7 -3.242487794321385e6 0.0
0.0 0.0 0.0

-702256.8745050405 1.0663230333587237e7 0.0
1.0663230333587237e7 -5.588381437738845e6 0.0
0.0 0.0 0.0

-972371.5442473027 7.61155460016452e6 0.0
7.61155460016452e6 -2.6249333343027076e6 0.0
0.0 0.0 0.0

3.282127923562351e6 5.956429603827809e6 0.0
5.956429603827809e6 -9.54932581665552e6 0.0
0.0 0.0 0.0

-1.0239771948807832e7 1.575329901909747e7 0.0
1.575329901909747e7 6.7374181714771595e6 0.0
0.0 0.0 0.0

-6.134395067927935e6 4.363912015245525e6 0.0
4.363912015245525e6 6.879340626443727e6 0.0
0.0 0.0 0.0

-1.1750765345489425e6 1.0586891585632341e7 0.0
1.0586891585632341e7 2.074540387471036e6 0.0
0.0 0.0 0.0

-5.164905451915302e6 1.113616718776113e7 0.0
1.113616718776113e7 3.365395435021217e6 0.0
0.0 0.0 0.0

-3.794532333319899e6 9.008946942084927e6 0.0
9.008946942084927e6 816980.8353855279 0.0
0.0 0.0 0.0

-5.3514313227611035e6 6.971964179514654e6 0.0
6.971964179514654e6 5.147356267043722e6 0.0
0.0 0.0 0.0

488378.08037441527 7.784323362404557e6 0.0
7.784323362404557e6 -5.905046330623137e6 0.0
0.0 0.0 0.0

-1.669128926827121e7 1.2080342987835031e7 0.0
1.2080342987835031e7 1.0916760528036457e7 0.0
0.0 0.0 0.0

3.347831656464136e6 8.517551206925375e6 0.0
8.517551206925375e6 1.2339890120290786e6 0.0
0.0 0.0 0.0

-739542.7614550199 3.3065508018502723e6 0.0
3.3065508018502723e6 -503308.28358919756 0.0
0.0 0.0 0.0

-8.0461437136418e6 1.1712887417721698e7 0.0
1.1712887417721698e7 5.594879076014565e6 0.0
0.0 0.0 0.0

-1.5841986945748096e7 3.4919293896099404e6 0.0
3.4919293896099404e6 8.832379214738822e6 0.0
0.0 0.0 0.0

-2.501223352090626e6 1.168738468692355e7 0.0
1.168738468692355e7 110944.18807861488 0.0
0.0 0.0 0.0

-1.979516236940484e7 1.4047994592230093e7 0.0
1.4047994592230093e7 5.070725586399183e6 0.0
0.0 0.0 0.0

-2.0714861423742843e6 1.1961124267911807e7 0.0
1.1961124267911807e7 -81919.25052768504 0.0
0.0 0.0 0.0

-5.12082332390598e6 8.67339540349691e6 0.0
8.67339540349691e6 4.401867157896595e6 0.0
0.0 0.0 0.0

-3.5450631220216723e6 6.183831743634953e6 0.0
6.183831743634953e6 2.995801990283429e6 0.0
0.0 0.0 0.0

-4.1723688135386594e6 7.740488648189823e6 0.0
7.740488648189823e6 2.364498429597215e6 0.0
0.0 0.0 0.0

-5.122193167725729e6 1.1545735495185813e7 0.0
1.1545735495185813e7 4.3236065401408e6 0.0
0.0 0.0 0.0

-7.2930180940113235e6 -1.9560366179543347e6 0.0
-1.9560366179543347e6 1.008877965009837e7 0.0
0.0 0.0 0.0

252656.39522446855 7.994991061144759e6 0.0
7.994991061144759e6 -3.4872630567665203e6 0.0
0.0 0.0 0.0

-516336.22716624045 7.223103311417408e6 0.0
7.223103311417408e6 -4.0307779517563903e6 0.0
0.0 0.0 0.0

-478649.03162573697 9.858340644949155e6 0.0
9.858340644949155e6 -5.154438824227673e6 0.0
0.0 0.0 0.0

-2.175398357389208e6 1.003555305545625e6 0.0
1.003555305545625e6 2.636499353245319e6 0.0
0.0 0.0 0.0

-37626.33204592951 8.154311080978404e6 0.0
8.154311080978404e6 -2.877411370438322e6 0.0
0.0 0.0 0.0

-5.387387821957291e6 1.1340352505670428e7 0.0
1.1340352505670428e7 3.8411053543517655e6 0.0
0.0 0.0 0.0

-3.1394067186957626e6 1.1045949725506296e7 0.0
1.1045949725506296e7 5.003566361952912e6 0.0
0.0 0.0 0.0

-2.1110174044571137e6 1.0584415583839223e7 0.0
1.0584415583839223e7 -3.0647066630409397e6 0.0
0.0 0.0 0.0

-554278.5753858034 1.1016152669512225e7 0.0
1.1016152669512225e7 -417757.68017763685 0.0
0.0 0.0 0.0

-9.541252402710551e6 1.5192733293482836e7 0.0
1.5192733293482836e7 4.297555118326442e6 0.0
0.0 0.0 0.0

-641083.0990379011 1.1709838946203144e7 0.0
1.1709838946203144e7 -4.747598287437593e6 0.0
0.0 0.0 0.0

1.8238754188386966e7 1.191886993315174e7 0.0
1.191886993315174e7 -2.9751614427910224e6 0.0
0.0 0.0 0.0

1.5090074353513762e6 1.0786532929027656e7 0.0
1.0786532929027656e7 -4.3537189735761415e6 0.0
0.0 0.0 0.0

455712.85596361384 1.0232401962362623e7 0.0
1.0232401962362623e7 -7.263236942502549e6 0.0
0.0 0.0 0.0

-1.993004621886714e6 1.2540120492037008e7 0.0
1.2540120492037008e7 -3.556085288617736e6 0.0
0.0 0.0 0.0

-1.5420951150224373e7 6.803616750686049e6 0.0
6.803616750686049e6 8.571931871763624e6 0.0
0.0 0.0 0.0

-5.56613669048698e6 1.1491119396975905e7 0.0
1.1491119396975905e7 3.9274116873579593e6 0.0
0.0 0.0 0.0

4.697030257487487e6 9.821851520052971e6 0.0
9.821851520052971e6 -4.457957195854483e6 0.0
0.0 0.0 0.0

885271.6160858748 9.777812314427303e6 0.0
9.777812314427303e6 -9.390443341272855e6 0.0
0.0 0.0 0.0

-2.104658798238544e6 1.2137486194360618e7 0.0
1.2137486194360618e7 4.577454780977254e6 0.0
0.0 0.0 0.0

1.6870331798557662e6 6.133179464142411e6 0.0
6.133179464142411e6 -6.291013324256958e6 0.0
0.0 0.0 0.0

-1.7904690025824192e6 1.264512180649913e7 0.0
1.264512180649913e7 -2.8915409401749587e6 0.0
0.0 0.0 0.0

3.366891106134811e6 6.55870938535567e6 0.0
6.55870938535567e6 -1.089184203527655e7 0.0
0.0 0.0 0.0

-3.4070734336659727e6 1.1769417312697668e7 0.0
1.1769417312697668e7 -2.0150840817778553e6 0.0
0.0 0.0 0.0

-2.8622052057144125e6 1.4245808189102583e7 0.0
1.4245808189102583e7 -1.5585635794590563e6 0.0
0.0 0.0 0.0

-3.513518913949555e6 9.059215610354587e6 0.0
9.059215610354587e6 794765.4375100012 0.0
0.0 0.0 0.0

-1.0096071724036943e7 1.0611554564755492e7 0.0
1.0611554564755492e7 7.613059502795937e6 0.0
0.0 0.0 0.0

-5.226342048497813e6 9.20020414199278e6 0.0
9.20020414199278e6 6.190415951374492e6 0.0
0.0 0.0 0.0

-2.0157377167794146e6 7.949704478309015e6 0.0
7.949704478309015e6 1.0326726249588482e6 0.0
0.0 0.0 0.0

-2.047415642698998e7 9.192354853533057e6 0.0
9.192354853533057e6 1.2150846995303202e7 0.0
0.0 0.0 0.0

2.451610884350987e6 8.872548158004811e6 0.0
8.872548158004811e6 1.3844068114525531e6 0.0
0.0 0.0 0.0

-2.075925352289827e6 5.377379927614995e6 0.0
5.377379927614995e6 -496987.3296213804 0.0
0.0 0.0 0.0

-7.045186491087424e6 1.1603241776367743e7 0.0
1.1603241776367743e7 5.221096921073455e6 0.0
0.0 0.0 0.0

-2.66247889499786e6 1.2202032275736023e7 0.0
1.2202032275736023e7 232360.6325167775 0.0
0.0 0.0 0.0

-974391.0942603467 7.9104287460891735e6 0.0
7.9104287460891735e6 -3.557185603758591e6 0.0
0.0 0.0 0.0

2.928094526196765e6 5.830798808299526e6 0.0
5.830798808299526e6 -8.414226488442441e6 0.0
0.0 0.0 0.0

675463.4097295273 9.028540752102092e6 0.0
9.028540752102092e6 -5.708105804517102e6 0.0
0.0 0.0 0.0

1.2392168979941772e7 6.665583723812091e6 0.0
6.665583723812091e6 -3.906536999542729e6 0.0
0.0 0.0 0.0

-4.992409094892118e6 9.111605993759794e6 0.0
9.111605993759794e6 7.00751806043026e6 0.0
0.0 0.0 0.0

-6.89094602050458e6 1.162703038243151e7 0.0
1.162703038243151e7 5.035061749164729e6 0.0
0.0 0.0 0.0

-3.0455578578221384e6 -2.94220705240784e6 0.0
-2.94220705240784e6 7.247721415213877e6 0.0
0.0 0.0 0.0

-9.523547508355645e6 1.3462852374918852e7 0.0
1.3462852374918852e7 6.251103715695176e6 0.0
0.0 0.0 0.0

-1.384228944002264e7 5.647574150007002e6 0.0
5.647574150007002e6 7.655330905906425e6 0.0
0.0 0.0 0.0

-1.0114899033473467e6 1.0828743819534898e7 0.0
1.0828743819534898e7 -5.19645636048092e6 0.0
0.0 0.0 0.0

-1.0847285904655058e6 1.1210329799650408e7 0.0
1.1210329799650408e7 3.160389267033982e6 0.0
0.0 0.0 0.0

-312451.268208195 8.418793958854685e6 0.0
8.418793958854685e6 -1.1516632656753552e6 0.0
0.0 0.0 0.0

-5.169953016152789e6 9.543618819487317e6 0.0
9.543618819487317e6 3.555001316343354e6 0.0
0.0 0.0 0.0

-1.1936950986716577e6 7.631444120715361e6 0.0
7.631444120715361e6 -3.941934554125337e6 0.0
0.0 0.0 0.0

844938.0607308797 7.643737907844272e6 0.0
7.643737907844272e6 -5.682875737728375e6 0.0
0.0 0.0 0.0

189405.08491330524 6.499390391825258e6 0.0
6.499390391825258e6 -3.7017414564198107e6 0.0
0.0 0.0 0.0

-6.8558900157954525e6 1.1539496193289427e7 0.0
1.1539496193289427e7 4.994537378416847e6 0.0
0.0 0.0 0.0

-2.44566864269716e6 9.01818357669417e6 0.0
9.01818357669417e6 -2.297436961155567e6 0.0
0.0 0.0 0.0

4.1035289112884076e6 8.454340069982002e6 0.0
8.454340069982002e6 1.3998514473163963e6 0.0
0.0 0.0 0.0

2.9805355538072577e6 5.868368354547404e6 0.0
5.868368354547404e6 -8.4781749860366e6 0.0
0.0 0.0 0.0

-2.2381436280944804e6 1.1100907952274928e7 0.0
1.1100907952274928e7 3.346611922049149e6 0.0
0.0 0.0 0.0

556751.1757974408 6.856512098930998e6 0.0
6.856512098930998e6 -4.39154909855593e6 0.0
0.0 0.0 0.0

-5.930317270386861e6 1.3066732062869538e7 0.0
1.3066732062869538e7 1.9663336791783073e6 0.0
0.0 0.0 0.0

-915133.258630371 1.1069288189916978e7 0.0
1.1069288189916978e7 806199.6132708499 0.0
0.0 0.0 0.0

-1.0304179881142769e7 1.2358727685960473e6 0.0
1.2358727685960473e6 1.375861792976227e7 0.0
0.0 0.0 0.0

-353483.06669744186 2.520433060004903e6 0.0
2.520433060004903e6 -1.044918687111895e6 0.0
0.0 0.0 0.0

-3.7888605703581236e6 1.4589655126784766e7 0.0
1.4589655126784766e7 -2.0947264639788955e6 0.0
0.0 0.0 0.0

-2.0714623799372118e7 619755.3690482072 0.0
619755.3690482072 1.1352498881849656e7 0.0
0.0 0.0 0.0

-175301.94736837037 1.0402579605971942e7 0.0
1.0402579605971942e7 -6.3983240776368e6 0.0
0.0 0.0 0.0

-3.993477817047144e6 7.34565295399971e6 0.0
7.34565295399971e6 5.299167167773038e6 0.0
0.0 0.0 0.0

-4.781058231976652e6 8.567360957662053e6 0.0
8.567360957662053e6 3.777708180073349e6 0.0
0.0 0.0 0.0

-2.330257505097796e7 1.3281635189373991e6 0.0
1.3281635189373991e6 1.1856083301195469e7 0.0
0.0 0.0 0.0

475782.52057340834 1.0038600759187812e7 0.0
1.0038600759187812e7 -7.412594783516589e6 0.0
0.0 0.0 0.0

-1.9913293426931887e6 1.193170300836084e7 0.0
1.193170300836084e7 -2.9938434215487675e6 0.0
0.0 0.0 0.0

1.7555986300592758e6 5.315676460160984e6 0.0
5.315676460160984e6 -4.0786681581373946e6 0.0
0.0 0.0 0.0

-4.279889764786326e6 1.2090661545163592e7 0.0
1.2090661545163592e7 712938.8452535134 0.0
0.0 0.0 0.0

-5.814056571513737e6 1.5415723957589883e7 0.0
1.5415723957589883e7 816865.9402272212 0.0
0.0 0.0 0.0

-7.863871706166932e6 1.2572533576743642e7 0.0
1.2572533576743642e7 5.02498369981306e6 0.0
0.0 0.0 0.0

-4.713935809528976e6 8.89109698926483e6 0.0
8.89109698926483e6 2.0224529070430177e6 0.0
0.0 0.0 0.0

-6.507352729063736e6 5.4453628455604445e6 0.0
5.4453628455604445e6 9.427366126875758e6 0.0
0.0 0.0 0.0

-3.701999930242196e6 1.1551457237875836e7 0.0
1.1551457237875836e7 3.748321091893773e6 0.0
0.0 0.0 0.0

-9.406501302250484e6 1.3186993427073676e7 0.0
1.3186993427073676e7 5.944075880393915e6 0.0
0.0 0.0 0.0

-611673.6199917602 7.024979318126365e6 0.0
7.024979318126365e6 -4.392924421929732e6 0.0
0.0 0.0 0.0

-8.807985064441152e6 1.3002888662882403e7 0.0
1.3002888662882403e7 5.613212284767892e6 0.0
0.0 0.0 0.0

-4.652179925334042e6 1.0719142704753926e7 0.0
1.0719142704753926e7 7.824526048841326e6 0.0
0.0 0.0 0.0

-5.31396175976061e6 4.620643213839213e6 0.0
4.620643213839213e6 6.4550620223290855e6 0.0
0.0 0.0 0.0

2.8358221168460343e6 6.00322596514445e6 0.0
6.00322596514445e6 -8.859347501477152e6 0.0
0.0 0.0 0.0

-6.289518219621545e6 1.1165701169009686e7 0.0
1.1165701169009686e7 3.520241464931319e6 0.0
0.0 0.0 0.0

-5.213349169638371e6 1.13015239047939e7 0.0
1.13015239047939e7 1.0757162623907323e6 0.0
0.0 0.0 0.0

-5.009465168829005e6 1.1670717012691224e7 0.0
1.1670717012691224e7 860442.3175867961 0.0
0.0 0.0 0.0

-2.553117882757305e7 2.2188611715528034e7 0.0
2.2188611715528034e7 -3.3317769405257264e6 0.0
0.0 0.0 0.0

-642138.1263575753 1.1019448905630264e7 0.0
1.1019448905630264e7 -4.893364376049029e6 0.0
0.0 0.0 0.0

-6.111436068690959e6 1.1830143422519086e7 0.0
1.1830143422519086e7 3.0937250498476257e6 0.0
0.0 0.0 0.0

-5.554806727465195e6 8.830825971615892e6 0.0
8.830825971615892e6 4.156116710307952e6 0.0
0.0 0.0 0.0

-1.7280202711364344e7 4.65300501258803e6 0.0
4.65300501258803e6 1.0197852306946952e7 0.0
0.0 0.0 0.0

-213412.33572251102 1.096289658076467e7 0.0
1.096289658076467e7 -1.0390916476134126e6 0.0
0.0 0.0 0.0

-7.293690983819912e6 9.32741894297295e6 0.0
9.32741894297295e6 1.1478981896343851e7 0.0
0.0 0.0 0.0

3.4632288317252696e6 5.598331189251892e6 0.0
5.598331189251892e6 -9.95377550939832e6 0.0
0.0 0.0 0.0

-1.6789105553992543e7 1.0679772075360326e7 0.0
1.0679772075360326e7 1.1196844493232485e7 0.0
0.0 0.0 0.0

-6.607243829619797e6 -1.6970549786549318e6 0.0
-1.6970549786549318e6 8.97011089643068e6 0.0
0.0 0.0 0.0

-8.615129739745617e6 -4.723252524237512e6 0.0
-4.723252524237512e6 1.4086490068776872e7 0.0
0.0 0.0 0.0

-384013.92001466913 1.4976327067515843e6 0.0
1.4976327067515843e6 -1.2018517997396514e6 0.0
0.0 0.0 0.0

-7.314172150319603e6 4.0441940966512007e6 0.0
4.0441940966512007e6 1.1018653182433937e7 0.0
0.0 0.0 0.0

-7.440682993646368e6 7.303452684998831e6 0.0
7.303452684998831e6 8.539644012667244e6 0.0
0.0 0.0 0.0

269456.5830929768 1.0067937485806921e7 0.0
1.0067937485806921e7 -7.10146699108085e6 0.0
0.0 0.0 0.0

-2.1720575794284888e7 1.3278657776994646e7 0.0
1.3278657776994646e7 1.3215106479703996e7 0.0
0.0 0.0 0.0

-5.496937664494827e6 4.937850113597303e6 0.0
4.937850113597303e6 7.729414699489681e6 0.0
0.0 0.0 0.0

935333.2430231124 9.74433546725481e6 0.0
9.74433546725481e6 -9.453969891668452e6 0.0
0.0 0.0 0.0

-1.2005012896002611e7 4.511283752283967e6 0.0
4.511283752283967e6 8.358977228902146e6 0.0
0.0 0.0 0.0

-8.058385677125051e6 -4.928398816472148e6 0.0
-4.928398816472148e6 1.3665767287298959e7 0.0
0.0 0.0 0.0

-1.8039950882412363e6 1.003047996133111e7 0.0
1.003047996133111e7 -3.899533520501162e6 0.0
0.0 0.0 0.0

-501287.76599456416 1.0531148538027631e7 0.0
1.0531148538027631e7 -9.335280655811442e6 0.0
0.0 0.0 0.0

-1.7461540283779944e6 1.1717403836775748e7 0.0
1.1717403836775748e7 -1560.1928821922047 0.0
0.0 0.0 0.0

-1.0184932679933555e7 3.4842749677197835e6 0.0
3.4842749677197835e6 7.475293714557037e6 0.0
0.0 0.0 0.0

9.152695012910182e6 1.3204787082019517e7 0.0
1.3204787082019517e7 1.7985510265009243e6 0.0
0.0 0.0 0.0

-542785.9439182606 6.638135145445869e6 0.0
6.638135145445869e6 -3.8655896653332887e6 0.0
0.0 0.0 0.0

-719641.86082451 9.806791704676367e6 0.0
9.806791704676367e6 -4.609897040366404e6 0.0
0.0 0.0 0.0

370530.8535107495 9.095731778413126e6 0.0
9.095731778413126e6 -6.405166809347411e6 0.0
0.0 0.0 0.0

3.509847472754435e6 5.6810517546516815e6 0.0
5.6810517546516815e6 -9.918260389513787e6 0.0
0.0 0.0 0.0

-5.572463811096381e6 1.2267882965963265e7 0.0
1.2267882965963265e7 1.9220420139775025e6 0.0
0.0 0.0 0.0

310898.035305595 9.88266792093656e6 0.0
9.88266792093656e6 -7.676485316577764e6 0.0
0.0 0.0 0.0

-150641.41590413242 1.171158870250495e7 0.0
1.171158870250495e7 -4.752727221101558e6 0.0
0.0 0.0 0.0

182151.1094414076 8.515545794343144e6 0.0
8.515545794343144e6 -2.4214418664987665e6 0.0
0.0 0.0 0.0

-1.8386375316490885e6 5.553318528483459e6 0.0
5.553318528483459e6 154318.94897740684 0.0
0.0 0.0 0.0

-5.439390576609179e6 9.270309912656426e6 0.0
9.270309912656426e6 3.1342257810168094e6 0.0
0.0 0.0 0.0

-3.796029732199289e6 1.0567748246678347e7 0.0
1.0567748246678347e7 5.790415533054512e6 0.0
0.0 0.0 0.0

2.2011542622803147e6 5.4631150772479e6 0.0
5.4631150772479e6 -7.250948096228012e6 0.0
0.0 0.0 0.0

-6.828099696788866e6 2.0820320092248365e6 0.0
2.0820320092248365e6 3.5913869564806577e6 0.0
0.0 0.0 0.0

-3.6372222578340983e6 9.894105665679589e6 0.0
9.894105665679589e6 6.30109417881432e6 0.0
0.0 0.0 0.0

387956.61526783323 1.0396950272433022e7 0.0
1.0396950272433022e7 -6.678012460286775e6 0.0
0.0 0.0 0.0

1.7816133504578657e7 7.610400065632006e6 0.0
7.610400065632006e6 -4.493681053826032e6 0.0
0.0 0.0 0.0

185474.1227699397 1.0338171028818538e7 0.0
1.0338171028818538e7 -6.282191199690724e6 0.0
0.0 0.0 0.0

-5.57361174950122e6 1.2006214950091882e7 0.0
1.2006214950091882e7 1.0175847670732473e6 0.0
0.0 0.0 0.0

-4.324127830717384e6 9.823880906670274e6 0.0
9.823880906670274e6 1.0593753861514959e6 0.0
0.0 0.0 0.0

-6.642218536631806e6 1.3396492631806329e7 0.0
1.3396492631806329e7 1.5980445000608541e7 0.0
0.0 0.0 0.0

-8.1762128079209775e6 3.5207387760782856e6 0.0
3.5207387760782856e6 1.195247978246279e7 0.0
0.0 0.0 0.0

-5.319008697434833e6 -2.403721081756185e6 0.0
-2.403721081756185e6 8.2091934259420615e6 0.0
0.0 0.0 0.0

-1.084299346543073e7 21235.46507601168 0.0
21235.46507601168 1.3497453769916354e7 0.0
0.0 0.0 0.0

-7.357189171037122e6 1.2234861339636423e7 0.0
1.2234861339636423e7 4.549907196400518e6 0.0
0.0 0.0 0.0

581097.2282637907 8.243034136972387e6 0.0
8.243034136972387e6 -6.204843675230888e6 0.0
0.0 0.0 0.0

-5.785963936932805e6 1.063232684593987e7 0.0
1.063232684593987e7 4.776330538302125e6 0.0
0.0 0.0 0.0

-984045.8214769498 1.1157390140218345e7 0.0
1.1157390140218345e7 -4.477108341534035e6 0.0
0.0 0.0 0.0

-4.583821669921458e6 8.130336466705081e6 0.0
8.130336466705081e6 2.773922475807108e6 0.0
0.0 0.0 0.0

-5.549946070871266e6 1.1508507024721237e7 0.0
1.1508507024721237e7 4.306602786995426e6 0.0
0.0 0.0 0.0

-1.2954268351645477e6 1.4077799684498934e7 0.0
1.4077799684498934e7 -3.8861657206987236e6 0.0
0.0 0.0 0.0

-4.665244931131488e6 1.1057772453421753e7 0.0
1.1057772453421753e7 4.510397297234333e6 0.0
0.0 0.0 0.0

-5.8052265061590895e6 1.0364049753925757e7 0.0
1.0364049753925757e7 4.945534655145153e6 0.0
0.0 0.0 0.0

-161969.79717199272 9.339808541559804e6 0.0
9.339808541559804e6 -6.776352963183785e6 0.0
0.0 0.0 0.0

-5.937804355093503e6 4.717475833381747e6 0.0
4.717475833381747e6 6.455880377293488e6 0.0
0.0 0.0 0.0

-7.233154898485322e6 1.2190563039939554e7 0.0
1.2190563039939554e7 4.94817442865819e6 0.0
0.0 0.0 0.0

1.4711810295095951e6 5.96330970996793e6 0.0
5.96330970996793e6 -6.707214022919788e6 0.0
0.0 0.0 0.0

-1.2521017273416623e7 -4.487423007050195e6 0.0
-4.487423007050195e6 2.4094848413756423e7 0.0
0.0 0.0 0.0

-1.4026795741735795e6 1.1386266833384562e7 0.0
1.1386266833384562e7 -451980.50413068937 0.0
0.0 0.0 0.0

-7.672954699207621e6 1.2373463417993166e7 0.0
1.2373463417993166e7 5.022908270328449e6 0.0
0.0 0.0 0.0

926745.9210650455 9.187644068587486e6 0.0
9.187644068587486e6 -7.192227593244878e6 0.0
0.0 0.0 0.0

-6.195017474856277e6 1.2331571323926976e7 0.0
1.2331571323926976e7 1.7704567200331935e6 0.0
0.0 0.0 0.0

696006.0556721017 7.664302469828505e6 0.0
7.664302469828505e6 -6.174184784401444e6 0.0
0.0 0.0 0.0

-5.133512112977892e6 4.1902788248506975e6 0.0
4.1902788248506975e6 6.971776392848611e6 0.0
0.0 0.0 0.0

-2.5245286188953165e7 1.6671089926636202e7 0.0
1.6671089926636202e7 7.547225090936935e6 0.0
0.0 0.0 0.0

-5.130815969091724e6 1.0421709142173009e7 0.0
1.0421709142173009e7 1.1093332448160995e6 0.0
0.0 0.0 0.0

-5.392852746720101e6 1.1300344248016588e7 0.0
1.1300344248016588e7 4.46506036920912e6 0.0
0.0 0.0 0.0

-376832.8722695884 2.0374997293133577e6 0.0
2.0374997293133577e6 -786868.538929085 0.0
0.0 0.0 0.0

-5.9408364102168875e6 1.03741452951893e7 0.0
1.03741452951893e7 1.0215263012783967e6 0.0
0.0 0.0 0.0

-5.653318421592406e6 1.1522923163906084e7 0.0
1.1522923163906084e7 4.1177238898420557e6 0.0
0.0 0.0 0.0

3.0725279477130123e6 5.951136336886058e6 0.0
5.951136336886058e6 -9.045035725832151e6 0.0
0.0 0.0 0.0

-4.024299533168886e6 7.790631508370743e6 0.0
7.790631508370743e6 2.830953044826749e6 0.0
0.0 0.0 0.0

-3.9412341607495216e6 6.583356290295453e6 0.0
6.583356290295453e6 3.453752310768443e6 0.0
0.0 0.0 0.0

-8.44570679993311e6 1.5469351956881966e7 0.0
1.5469351956881966e7 4.691330031424137e6 0.0
0.0 0.0 0.0

-1.7418721366377876e6 3.1288729001806346e6 0.0
3.1288729001806346e6 42232.36380173126 0.0
0.0 0.0 0.0

-6.71277625504526e6 5.027150218147746e6 0.0
5.027150218147746e6 7.541633997800177e6 0.0
0.0 0.0 0.0

-7.956940610707743e6 1.2727866730887285e7 0.0
1.2727866730887285e7 5.342147077575877e6 0.0
0.0 0.0 0.0

-9.349890624819107e6 -5.328355771852239e6 0.0
-5.328355771852239e6 1.6462652859740026e7 0.0
0.0 0.0 0.0

-485083.2533541954 2.849950485164413e6 0.0
2.849950485164413e6 -181591.25474583296 0.0
0.0 0.0 0.0

1.3962841432166179e6 6.819667574280183e6 0.0
6.819667574280183e6 -6.611536383745451e6 0.0
0.0 0.0 0.0

-5.405952095168919e6 9.611437831340274e6 0.0
9.611437831340274e6 3.5758019487899845e6 0.0
0.0 0.0 0.0

-7.913517824306643e6 4.520326514974958e6 0.0
4.520326514974958e6 9.98410244778306e6 0.0
0.0 0.0 0.0

-1.9063633359782598e6 1.0568284358131738e7 0.0
1.0568284358131738e7 -3.814727266922694e6 0.0
0.0 0.0 0.0

-1.277362747617564e6 1.0218034094046434e7 0.0
1.0218034094046434e7 -3.931343446698666e6 0.0
0.0 0.0 0.0

695070.7755398992 8.239447416288943e6 0.0
8.239447416288943e6 -6.559714217783291e6 0.0
0.0 0.0 0.0

63620.79591753986 1.0258366522839658e7 0.0
1.0258366522839658e7 -6.79501628327712e6 0.0
0.0 0.0 0.0

-1.186817688237974e6 8.169735798360133e6 0.0
8.169735798360133e6 565076.530008625 0.0
0.0 0.0 0.0

-7.74715204332635e6 5.4759663368335795e6 0.0
5.4759663368335795e6 9.021714398485582e6 0.0
0.0 0.0 0.0

-5.799436005706843e6 1.2247538734865531e7 0.0
1.2247538734865531e7 1.1258136083575743e6 0.0
0.0 0.0 0.0

-6.7876320508759245e6 1.1573912842198463e7 0.0
1.1573912842198463e7 5.056647273495235e6 0.0
0.0 0.0 0.0

-7.2839233359908e6 1.2436947239702692e7 0.0
1.2436947239702692e7 4.898300723474428e6 0.0
0.0 0.0 0.0

694801.4392520674 1.7569359810363527e7 0.0
1.7569359810363527e7 2.408890502572068e7 0.0
0.0 0.0 0.0

-5.081559018285973e6 9.579663806219604e6 0.0
9.579663806219604e6 3.5173244860334136e6 0.0
0.0 0.0 0.0

-1.0231780958602133e6 9.883248154789012e6 0.0
9.883248154789012e6 -4.1821677355363276e6 0.0
0.0 0.0 0.0

127645.86777383042 1.044149704720851e7 0.0
1.044149704720851e7 -6.8271106732499795e6 0.0
0.0 0.0 0.0

-612533.943874517 1.004131316961854e7 0.0
1.004131316961854e7 -4.818123790826946e6 0.0
0.0 0.0 0.0

-6.89955370765329e6 1.2815249534640701e7 0.0
1.2815249534640701e7 3.339640749908838e6 0.0
0.0 0.0 0.0

-5.048119824512772e6 8.977161955493443e6 0.0
8.977161955493443e6 2.791830553137173e6 0.0
0.0 0.0 0.0

386361.8738891573 8.036611050187915e6 0.0
8.036611050187915e6 -1.758652609302968e6 0.0
0.0 0.0 0.0

413483.6579775056 1.0528059232298352e7 0.0
1.0528059232298352e7 -6.410915518317803e6 0.0
0.0 0.0 0.0

-2.3878136807750426e6 5.694349660599952e6 0.0
5.694349660599952e6 -33966.113470380194 0.0
0.0 0.0 0.0

-1.1238554863760723e7 1.874092610219546e7 0.0
1.874092610219546e7 2.4465613056559223e6 0.0
0.0 0.0 0.0

3.7796711208395143e6 6.555499420807421e6 0.0
6.555499420807421e6 -1.1468279165491832e7 0.0
0.0 0.0 0.0

1.876109688572994e7 1.1175271961603966e7 0.0
1.1175271961603966e7 -2.388261139587137e6 0.0
0.0 0.0 0.0

5.99574926247751e6 1.7277479343980078e7 0.0
1.7277479343980078e7 -2.144734360339956e7 0.0
0.0 0.0 0.0

-2.0225504458947442e6 1.0873696521618346e7 0.0
1.0873696521618346e7 2.7135789294664883e6 0.0
0.0 0.0 0.0

-1.5321541079681981e6 8.570210961788122e6 0.0
8.570210961788122e6 1.867033113662922e6 0.0
0.0 0.0 0.0

-9.174753747851042e6 9.733041666125162e6 0.0
9.733041666125162e6 2.608136230809173e6 0.0
0.0 0.0 0.0

-2.5525419102325942e7 7.891218690091398e6 0.0
7.891218690091398e6 8.643382818327188e6 0.0
0.0 0.0 0.0

-2.7611725540466206e6 6.432822221729396e6 0.0
6.432822221729396e6 1.0941620662581928e6 0.0
0.0 0.0 0.0

-5.279421564372819e6 1.1323827359802913e7 0.0
1.1323827359802913e7 1.9634044055257305e6 0.0
0.0 0.0 0.0

-513685.03477371763 9.672296495333442e6 0.0
9.672296495333442e6 -4.975439788560072e6 0.0
0.0 0.0 0.0

3.200215278199057e6 7.571230166687111e6 0.0
7.571230166687111e6 -1.0730437618545089e7 0.0
0.0 0.0 0.0

-895286.0432550284 9.813538506266464e6 0.0
9.813538506266464e6 -5.196423151101683e6 0.0
0.0 0.0 0.0

944092.855157529 9.591096200699616e6 0.0
9.591096200699616e6 -9.134722319041172e6 0.0
0.0 0.0 0.0

-4.058909854966703e6 6.724633756631996e6 0.0
6.724633756631996e6 2.8308217503911643e6 0.0
0.0 0.0 0.0

-3.127442887299031e6 1.0783142833332421e7 0.0
1.0783142833332421e7 4.604435414871527e6 0.0
0.0 0.0 0.0

-1.4681120458085444e6 7.438640379360637e6 0.0
7.438640379360637e6 73037.79205753142 0.0
0.0 0.0 0.0

-1.7964925583082791e6 127189.91669258833 0.0
127189.91669258833 2.0334378708632994e6 0.0
0.0 0.0 0.0

-1.0226797891898457e7 -478514.7897216047 0.0
-478514.7897216047 1.268456672450623e7 0.0
0.0 0.0 0.0

-6.140886043126045e6 1.0750573893001571e7 0.0
1.0750573893001571e7 4.469096743499014e6 0.0
0.0 0.0 0.0

-4.421857200613856e6 1.0663023604009204e7 0.0
1.0663023604009204e7 5.859278928783419e6 0.0
0.0 0.0 0.0

-4.467845113516018e6 8.439797282150999e6 0.0
8.439797282150999e6 3.2847927856843174e6 0.0
0.0 0.0 0.0

-303668.24068810104 1.9908434228104833e6 0.0
1.9908434228104833e6 -2.63093306491537e6 0.0
0.0 0.0 0.0

-1.4836941234474687e7 6.161026044939162e6 0.0
6.161026044939162e6 2.5146325768956214e7 0.0
0.0 0.0 0.0

-3.4007174471275923e6 8.797339532349309e6 0.0
8.797339532349309e6 1.0180060490153686e6 0.0
0.0 0.0 0.0

-5.422925385023495e6 1.2189082033391021e7 0.0
1.2189082033391021e7 502254.4658293559 0.0
0.0 0.0 0.0

-4.330829416469177e6 1.075162221946527e7 0.0
1.075162221946527e7 6.072822461771524e6 0.0
0.0 0.0 0.0

-2.1062689405916273e6 5.931929519664716e6 0.0
5.931929519664716e6 498534.04746414593 0.0
0.0 0.0 0.0

-1.5780019968997347e6 1.3915911134133713e7 0.0
1.3915911134133713e7 -2.6920305680751596e6 0.0
0.0 0.0 0.0

-1.2183460305672113e7 -1.9336736566186387e6 0.0
-1.9336736566186387e6 3.0231164570627477e7 0.0
0.0 0.0 0.0

411849.3507682064 1.2875008371359902e7 0.0
1.2875008371359902e7 -3.91991840745511e6 0.0
0.0 0.0 0.0

-7.59805446950786e6 1.2300485572422491e7 0.0
1.2300485572422491e7 5.269166467810404e6 0.0
0.0 0.0 0.0

-414759.57237244444 9.265055549265353e6 0.0
9.265055549265353e6 -7.127349992141662e6 0.0
0.0 0.0 0.0

-4.644915550756363e6 1.0892665955316393e7 0.0
1.0892665955316393e7 4.62520734398004e6 0.0
0.0 0.0 0.0

-8.57647041865766e6 3.591597207561886e6 0.0
3.591597207561886e6 1.0363302197269725e7 0.0
0.0 0.0 0.0

-5.778221010374711e6 1.390212819883159e7 0.0
1.390212819883159e7 1.8241692086980552e6 0.0
0.0 0.0 0.0

3.2743391264994815e6 5.705061731116292e6 0.0
5.705061731116292e6 -5.506177484571479e6 0.0
0.0 0.0 0.0

-1.2179601818512741e7 1.6262894045536783e7 0.0
1.6262894045536783e7 6.117528929298532e6 0.0
0.0 0.0 0.0

889858.6983869193 9.120580335815376e6 0.0
9.120580335815376e6 46617.896960053244 0.0
0.0 0.0 0.0

-4.507671929548981e6 1.0846562242214743e7 0.0
1.0846562242214743e7 812184.3194599056 0.0
0.0 0.0 0.0

2.5801844198882645e6 6.551898808257761e6 0.0
6.551898808257761e6 -9.166698671379454e6 0.0
0.0 0.0 0.0

-1.9331651976927698e6 1.1582415702747997e7 0.0
1.1582415702747997e7 276637.35400843713 0.0
0.0 0.0 0.0

-4.567373903746389e6 1.0322146932870459e7 0.0
1.0322146932870459e7 7.5663260900142435e6 0.0
0.0 0.0 0.0

-6.388246870213937e6 1.1736245532635393e7 0.0
1.1736245532635393e7 4.0386891158041917e6 0.0
0.0 0.0 0.0

-2.6129308758188225e6 1.1712719913569355e7 0.0
1.1712719913569355e7 5.016113433621563e6 0.0
0.0 0.0 0.0

414986.94325931475 1.559695760573022e6 0.0
1.559695760573022e6 -1.9918391475971995e6 0.0
0.0 0.0 0.0

-6.18657828750401e6 1.0393683987391265e7 0.0
1.0393683987391265e7 8.882840122868037e6 0.0
0.0 0.0 0.0

-3.797641870096726e6 1.1420961219445884e7 0.0
1.1420961219445884e7 1.900727994731107e6 0.0
0.0 0.0 0.0

-249224.07324154698 1.3424805307316652e7 0.0
1.3424805307316652e7 -3.723509961549563e6 0.0
0.0 0.0 0.0

-2.4569765932348925e6 1.2778396051254874e7 0.0
1.2778396051254874e7 -3.0852129812667095e6 0.0
0.0 0.0 0.0

-5.153185699103685e6 1.5293766383088358e7 0.0
1.5293766383088358e7 203389.25460344413 0.0
0.0 0.0 0.0

-1.2853680504442018e6 6.824628252685827e6 0.0
6.824628252685827e6 -1.122037988411135e6 0.0
0.0 0.0 0.0

-5.5315379698929405e6 1.1409270378859945e7 0.0
1.1409270378859945e7 4.5435311160574015e6 0.0
0.0 0.0 0.0

-8.032582549854331e6 1.506510020041968e7 0.0
1.506510020041968e7 2.287431980537811e6 0.0
0.0 0.0 0.0

-360997.99732139334 1.0552296325527381e7 0.0
1.0552296325527381e7 -8.872977329328377e6 0.0
0.0 0.0 0.0

-2.2010886340548377e6 5.3171232520636115e6 0.0
5.3171232520636115e6 -67113.50346396375 0.0
0.0 0.0 0.0

-1.7495922587057604e6 8.057315434012463e6 0.0
8.057315434012463e6 1.0838098211712078e6 0.0
0.0 0.0 0.0

-6.784334172112558e6 1.4689833653794054e7 0.0
1.4689833653794054e7 1.0683240649042758e6 0.0
0.0 0.0 0.0

499979.9422724885 1.0608982245281393e7 0.0
1.0608982245281393e7 -6.50435564723758e6 0.0
0.0 0.0 0.0

1.5735269366706582e6 5.649295152374327e6 0.0
5.649295152374327e6 -6.190756045079399e6 0.0
0.0 0.0 0.0

-1.1316836328695873e7 -7.910320703272694e6 0.0
-7.910320703272694e6 2.5972601895679764e7 0.0
0.0 0.0 0.0

1.1196441616946384e6 9.241569443511026e6 0.0
9.241569443511026e6 -7.632965056338687e6 0.0
0.0 0.0 0.0

-2.1105431434155754e6 8.760020328788336e6 0.0
8.760020328788336e6 3.123153245188445e6 0.0
0.0 0.0 0.0

-3.870583470683544e6 7.068267239870755e6 0.0
7.068267239870755e6 3.3112371790689374e6 0.0
0.0 0.0 0.0

-916676.3254239627 1.3698492811395712e7 0.0
1.3698492811395712e7 -4.159305693273596e6 0.0
0.0 0.0 0.0

567515.2021796037 6.172287933445117e6 0.0
6.172287933445117e6 -5.387800588390777e6 0.0
0.0 0.0 0.0

1.8687773351605926e6 1.0589254030672517e7 0.0
1.0589254030672517e7 -4.619534287206544e6 0.0
0.0 0.0 0.0

-2.5910684672177364e6 9.983678053178733e6 0.0
9.983678053178733e6 5.705596701372491e6 0.0
0.0 0.0 0.0

-8.79673649655687e6 1.9437808054185614e7 0.0
1.9437808054185614e7 -1.106959288245363e6 0.0
0.0 0.0 0.0

-1.1211327763925723e6 1.2506204771461774e7 0.0
1.2506204771461774e7 -3.5758311637113113e6 0.0
0.0 0.0 0.0

-7.2274714371611625e6 1.1533352583412923e7 0.0
1.1533352583412923e7 1.2211739571516529e7 0.0
0.0 0.0 0.0

2.7317407624013848e6 5.763099851795243e6 0.0
5.763099851795243e6 -8.155936430872918e6 0.0
0.0 0.0 0.0

-7.658939584675622e6 1.349519880316102e7 0.0
1.349519880316102e7 3.628085523928076e6 0.0
0.0 0.0 0.0

2.492865584723232e6 8.82449260769276e6 0.0
8.82449260769276e6 -1.8685616175120082e6 0.0
0.0 0.0 0.0

-2.600033490657063e7 2.4854520765244397e6 0.0
2.4854520765244397e6 1.0266365241796453e7 0.0
0.0 0.0 0.0

-5.584940446582215e6 1.1641845263389198e7 0.0
1.1641845263389198e7 4.206471268219699e6 0.0
0.0 0.0 0.0

-1.7918207656743994e6 5.141846319824223e6 0.0
5.141846319824223e6 212627.17321320053 0.0
0.0 0.0 0.0

559553.9724873481 1.0107358444582293e7 0.0
1.0107358444582293e7 -7.208864290456992e6 0.0
0.0 0.0 0.0

-2.22121651605908e6 1.1055440441706475e7 0.0
1.1055440441706475e7 2.367335949972456e6 0.0
0.0 0.0 0.0

554077.7804931263 9.845421738222798e6 0.0
9.845421738222798e6 -8.589578333044592e6 0.0
0.0 0.0 0.0

3.406259667365694e6 5.854935028871219e6 0.0
5.854935028871219e6 -9.803461858430117e6 0.0
0.0 0.0 0.0

1.129203717301564e7 1.1036694835516023e7 0.0
1.1036694835516023e7 -861547.6872734698 0.0
0.0 0.0 0.0

-4.995255010679629e7 2.3560731968568083e7 0.0
2.3560731968568083e7 2.431689110143196e6 0.0
0.0 0.0 0.0

-1.2667481616855506e6 1.0989747475170229e7 0.0
1.0989747475170229e7 5.806022919790145e6 0.0
0.0 0.0 0.0

-4.197802006096641e6 1.1783843874051152e7 0.0
1.1783843874051152e7 -1.2730307155511812e6 0.0
0.0 0.0 0.0

-4.518515148006364e6 1.1233594382664865e7 0.0
1.1233594382664865e7 3.9255596485309643e6 0.0
0.0 0.0 0.0

1.4207985012228773e6 5.693970117472856e6 0.0
5.693970117472856e6 -6.08285363348859e6 0.0
0.0 0.0 0.0

-3.997373050809034e6 1.1541626987656215e7 0.0
1.1541626987656215e7 2.5582758893099288e6 0.0
0.0 0.0 0.0

-7.895483505762255e6 1.3859019993550498e7 0.0
1.3859019993550498e7 4.1220569100452857e6 0.0
0.0 0.0 0.0

297596.9898713371 9.996816263055276e6 0.0
9.996816263055276e6 -7.756806385325363e6 0.0
0.0 0.0 0.0

-4.635205746616307e6 1.0800421404827544e7 0.0
1.0800421404827544e7 359408.2535625873 0.0
0.0 0.0 0.0

2.164171797446712e6 5.149457457851479e6 0.0
5.149457457851479e6 -4.55250348343701e6 0.0
0.0 0.0 0.0

-2.6814171958478456e6 9.618546092589734e6 0.0
9.618546092589734e6 6.587761953779463e6 0.0
0.0 0.0 0.0

-3.7022030117510613e6 1.1528879048073547e7 0.0
1.1528879048073547e7 532029.0416590166 0.0
0.0 0.0 0.0

-1.9097486259112135e6 1.0341928554716073e7 0.0
1.0341928554716073e7 -3.0140682792338403e6 0.0
0.0 0.0 0.0

-4.940505852843316e6 1.015123503893107e7 0.0
1.015123503893107e7 1.9557305043405679e6 0.0
0.0 0.0 0.0

555368.2024205211 9.328641138086485e6 0.0
9.328641138086485e6 -7.410589234134032e6 0.0
0.0 0.0 0.0

-9.760151913202062e6 -5.665036875468807e6 0.0
-5.665036875468807e6 1.5106425217399415e7 0.0
0.0 0.0 0.0

-1.189559387653481e6 9.900697796591396e6 0.0
9.900697796591396e6 -4.749228177932498e6 0.0
0.0 0.0 0.0

2.2743918150807405e6 9.535910451129511e6 0.0
9.535910451129511e6 -3.488751974407107e6 0.0
0.0 0.0 0.0

-1.9216405144932729e6 1.1552469964358672e7 0.0
1.1552469964358672e7 -9.87382883624187e6 0.0
0.0 0.0 0.0

1.49382330225258e6 6.537302569630177e6 0.0
6.537302569630177e6 -6.242747406347765e6 0.0
0.0 0.0 0.0

-534939.5454453398 1.073968454217862e7 0.0
1.073968454217862e7 -5.094511539847404e6 0.0
0.0 0.0 0.0

-5.498481420890748e6 1.1519399486790901e7 0.0
1.1519399486790901e7 4.381247981568344e6 0.0
0.0 0.0 0.0

-6.225817402070177e6 1.1791308509253979e7 0.0
1.1791308509253979e7 2.737457636823197e6 0.0
0.0 0.0 0.0

-5.682913887084715e6 1.0157292237825505e7 0.0
1.0157292237825505e7 4.504511846260324e6 0.0
0.0 0.0 0.0

1.0573694148722491e6 8.633700126296977e6 0.0
8.633700126296977e6 652457.4822739162 0.0
0.0 0.0 0.0

-3.203700344310496e7 6.533207381404189e6 0.0
6.533207381404189e6 9.491651163986359e6 0.0
0.0 0.0 0.0

2.937135248155794e6 1.7329294592777877e6 0.0
1.7329294592777877e6 -4.405037768178832e6 0.0
0.0 0.0 0.0

241655.37783350912 7.879624737455631e6 0.0
7.879624737455631e6 -3.575546141067949e6 0.0
0.0 0.0 0.0

4.01806551389458e6 9.965052621605624e6 0.0
9.965052621605624e6 -4.023663653731431e6 0.0
0.0 0.0 0.0

-9.184098674138516e6 1.3378611942272283e7 0.0
1.3378611942272283e7 6.334634774293154e6 0.0
0.0 0.0 0.0

982244.2575860145 9.701521154231867e6 0.0
9.701521154231867e6 -9.297835466303749e6 0.0
0.0 0.0 0.0

-1.7793386599392055e6 1.1630940166933976e7 0.0
1.1630940166933976e7 -483287.78724226455 0.0
0.0 0.0 0.0

-1.881863203560628e6 1.3057774008342907e7 0.0
1.3057774008342907e7 -2.69013755635015e6 0.0
0.0 0.0 0.0

-870884.6882099921 8.610170827161685e6 0.0
8.610170827161685e6 -3.8374770343454387e6 0.0
0.0 0.0 0.0

-1.2849403742291147e6 1.2921410245462557e7 0.0
1.2921410245462557e7 -3.4323190045961943e6 0.0
0.0 0.0 0.0

-640697.7766774717 1.0995763183866486e7 0.0
1.0995763183866486e7 231493.3100036486 0.0
0.0 0.0 0.0

-5.94805842139155e6 1.1784859916197537e7 0.0
1.1784859916197537e7 2.644682576648779e6 0.0
0.0 0.0 0.0

1.1358202792347143e6 7.587254538249557e6 0.0
7.587254538249557e6 -6.2438921111129355e6 0.0
0.0 0.0 0.0

3.065586022885162e6 5.9465168578665815e6 0.0
5.9465168578665815e6 -8.984903211268352e6 0.0
0.0 0.0 0.0

-2.460152687239967e6 696285.5155988269 0.0
696285.5155988269 719951.437880081 0.0
0.0 0.0 0.0

-3.9107728105795095e6 -383362.97182253754 0.0
-383362.97182253754 2.507031311175627e6 0.0
0.0 0.0 0.0

-3.5275417227754397e6 9.342432073586162e6 0.0
9.342432073586162e6 5.139079874748267e6 0.0
0.0 0.0 0.0

-550324.001482429 1.059619411204822e7 0.0
1.059619411204822e7 480472.4979763101 0.0
0.0 0.0 0.0

-989670.8985800423 1.0978912805740878e7 0.0
1.0978912805740878e7 435506.627137504 0.0
0.0 0.0 0.0

2.597636186430504e6 6.242666073198652e6 0.0
6.242666073198652e6 -5.603891233840496e6 0.0
0.0 0.0 0.0

270055.50726724043 1.226848506360761e7 0.0
1.226848506360761e7 -4.4797346773006e6 0.0
0.0 0.0 0.0

2.227889781903398e6 4.0116790952827567e6 0.0
4.0116790952827567e6 -4.031650599698694e6 0.0
0.0 0.0 0.0

-1.4373981204529665e6 1.2771112789447116e7 0.0
1.2771112789447116e7 -3.068380664798717e6 0.0
0.0 0.0 0.0

-6.663540655143463e6 6.025858999407976e6 0.0
6.025858999407976e6 9.764852458633568e6 0.0
0.0 0.0 0.0

-5.202511256115939e6 1.2175787537582075e7 0.0
1.2175787537582075e7 1.2873222991481682e6 0.0
0.0 0.0 0.0

-6.417818818827829e6 1.444058191092781e7 0.0
1.444058191092781e7 2.608024389381385e6 0.0
0.0 0.0 0.0

1.2287186872861376e6 6.743830513911742e6 0.0
6.743830513911742e6 -6.55809722157875e6 0.0
0.0 0.0 0.0

1.2965613098092237e6 6.362421554479432e6 0.0
6.362421554479432e6 -6.648322937647196e6 0.0
0.0 0.0 0.0

4.532872839295384e6 1.0938500763760487e7 0.0
1.0938500763760487e7 -6.329938340019217e6 0.0
0.0 0.0 0.0

-3.128160300907531e6 1.0871691759077275e7 0.0
1.0871691759077275e7 4.502914724388465e6 0.0
0.0 0.0 0.0

-1.5135701165705393e6 9.985791446278354e6 0.0
9.985791446278354e6 -4.323279910453749e6 0.0
0.0 0.0 0.0

-4.33168216797114e6 -2.1481496830941713e6 0.0
-2.1481496830941713e6 5.512267326250788e6 0.0
0.0 0.0 0.0

-8.448790616600407e6 1.2935458292002615e7 0.0
1.2935458292002615e7 5.662788070780172e6 0.0
0.0 0.0 0.0

-5.727340108491198e6 5.155521904664794e6 0.0
5.155521904664794e6 6.837311831513687e6 0.0
0.0 0.0 0.0

-282269.0432505035 2.59621806843171e6 0.0
2.59621806843171e6 -1.0335300412338314e6 0.0
0.0 0.0 0.0

-2.161653871423905e6 8.974294350034464e6 0.0
8.974294350034464e6 -2.254948366367248e6 0.0
0.0 0.0 0.0

3.0449383173690513e6 5.950091840559321e6 0.0
5.950091840559321e6 -8.848254557992214e6 0.0
0.0 0.0 0.0

-7.178241121459996e6 1.1652869295385357e7 0.0
1.1652869295385357e7 5.148497252345925e6 0.0
0.0 0.0 0.0

-4.24627178162155e6 1.078834525596193e7 0.0
1.078834525596193e7 428711.1329255975 0.0
0.0 0.0 0.0

779277.8715675701 9.167797847175607e6 0.0
9.167797847175607e6 -7.736312789326921e6 0.0
0.0 0.0 0.0

5.23725686309685e6 8.798011634915853e6 0.0
8.798011634915853e6 -2.738377394066641e6 0.0
0.0 0.0 0.0

-6.7985674385915715e6 1.163966587377364e7 0.0
1.163966587377364e7 4.964667099852705e6 0.0
0.0 0.0 0.0

-6.453691936648989e6 -1.3425864153817282e6 0.0
-1.3425864153817282e6 7.542053759220801e6 0.0
0.0 0.0 0.0

-2.5207905129760765e6 270865.4302061954 0.0
270865.4302061954 2.619710865260627e6 0.0
0.0 0.0 0.0

2.766893730504989e6 9.576277374008348e6 0.0
9.576277374008348e6 -3.5763255692223106e6 0.0
0.0 0.0 0.0

-3.583328041940393e6 1.162250205015912e7 0.0
1.162250205015912e7 -1.0139474603879331e6 0.0
0.0 0.0 0.0

-3.6438105815255158e6 1.2006729781798763e7 0.0
1.2006729781798763e7 -920100.0754926193 0.0
0.0 0.0 0.0

-1.1117250376227034e7 2166.7683635565677 0.0
2166.7683635565677 2.2071609986418076e7 0.0
0.0 0.0 0.0

4.8034282975783935e6 4.7733633914153e6 0.0
4.7733633914153e6 -6.926287435518982e6 0.0
0.0 0.0 0.0

-2.6950281711614025e6 1.1718910003486132e7 0.0
1.1718910003486132e7 313057.38006272074 0.0
0.0 0.0 0.0

-5.572894921506743e6 1.1300279991629276e7 0.0
1.1300279991629276e7 976877.1559332625 0.0
0.0 0.0 0.0

-1.6652275628107399e7 7.426858307761833e6 0.0
7.426858307761833e6 7.945917783090469e6 0.0
0.0 0.0 0.0

-8.406945163930375e6 1.3584030200711835e7 0.0
1.3584030200711835e7 5.212555688345082e6 0.0
0.0 0.0 0.0

-387610.21186897403 1.0626416937571097e7 0.0
1.0626416937571097e7 -1.1829308301946605e6 0.0
0.0 0.0 0.0

-5.349754483325994e6 -2.1139300188189354e6 0.0
-2.1139300188189354e6 6.589096252787614e6 0.0
0.0 0.0 0.0

4.068344217449157e6 1.0628686701771224e7 0.0
1.0628686701771224e7 -5.704050676874491e6 0.0
0.0 0.0 0.0

-2.5218132696895725e6 9.597965618095042e6 0.0
9.597965618095042e6 -2.0252918680320338e6 0.0
0.0 0.0 0.0

-2.0078373702595115e6 1.2322287732271743e6 0.0
1.2322287732271743e6 2.464189981336126e6 0.0
0.0 0.0 0.0

-5.9552061866316665e6 1.0290138854429428e7 0.0
1.0290138854429428e7 4.279895521847703e6 0.0
0.0 0.0 0.0

-6.088023507171656e6 1.0789752130285533e7 0.0
1.0789752130285533e7 4.482008818477298e6 0.0
0.0 0.0 0.0

105889.3842445194 1.2960235931705423e6 0.0
1.2960235931705423e6 -2.626282077787176e6 0.0
0.0 0.0 0.0

1.506911409341799e6 6.1312142032469185e6 0.0
6.1312142032469185e6 -6.909116036427622e6 0.0
0.0 0.0 0.0

2.665231007114733e6 7.957613411632245e6 0.0
7.957613411632245e6 -1.126128680756988e7 0.0
0.0 0.0 0.0

-2.7770678422979144e6 9.215792977134073e6 0.0
9.215792977134073e6 5.376277951616515e6 0.0
0.0 0.0 0.0

4.0261660702059395e6 4.453890942155938e6 0.0
4.453890942155938e6 -6.163586257015539e6 0.0
0.0 0.0 0.0

517024.0052142753 1.6061840516939308e7 0.0
1.6061840516939308e7 -6.968877224224241e6 0.0
0.0 0.0 0.0

1.8597020833158446e6 5.910467386497156e6 0.0
5.910467386497156e6 -6.531135515575398e6 0.0
0.0 0.0 0.0

444702.9816776195 5.65882179301578e6 0.0
5.65882179301578e6 -4.319856396551464e6 0.0
0.0 0.0 0.0

1.040874737059677e6 6.106206779841493e6 0.0
6.106206779841493e6 -5.663623810546705e6 0.0
0.0 0.0 0.0

-292897.23443428014 1.0958892721125402e7 0.0
1.0958892721125402e7 -767900.7280376396 0.0
0.0 0.0 0.0

-430323.43004134786 1.0691008168847447e7 0.0
1.0691008168847447e7 42527.2720093402 0.0
0.0 0.0 0.0

746013.0624368959 9.843223042694071e6 0.0
9.843223042694071e6 -7.399105786250491e6 0.0
0.0 0.0 0.0

-2.9593452433565147e6 1.723741059178814e7 0.0
1.723741059178814e7 -5.627308365979352e6 0.0
0.0 0.0 0.0

-3.269556287258257e6 1.1381546512595674e6 0.0
1.1381546512595674e6 4.1744666732045384e6 0.0
0.0 0.0 0.0

-5.908084062904334e6 1.08836660689249e7 0.0
1.08836660689249e7 4.851928938081137e6 0.0
0.0 0.0 0.0

-8.27248790469843e6 1.2758797380840441e7 0.0
1.2758797380840441e7 5.310913276097216e6 0.0
0.0 0.0 0.0

-5.408409033707995e6 1.2005608363312412e7 0.0
1.2005608363312412e7 1.6010665029375516e6 0.0
0.0 0.0 0.0

-324658.1524115071 2.346330132641735e6 0.0
2.346330132641735e6 -595654.2299573373 0.0
0.0 0.0 0.0

-858032.1122050377 3.180676223991162e6 0.0
3.180676223991162e6 -969500.601719836 0.0
0.0 0.0 0.0

-2.1545899118406773e6 1.1026861670644943e7 0.0
1.1026861670644943e7 3.9412027007749663e6 0.0
0.0 0.0 0.0

2.1033096667788923e6 1.0723951326562273e6 0.0
1.0723951326562273e6 -3.7065150023210593e6 0.0
0.0 0.0 0.0

-1.815470249841891e6 1.3830379871331304e7 0.0
1.3830379871331304e7 -3.5140157269320344e6 0.0
0.0 0.0 0.0

-3.331388704527037e6 1.1517988525987979e7 0.0
1.1517988525987979e7 -2.0456420025537387e6 0.0
0.0 0.0 0.0

-81297.05086814985 1.0767278302609341e7 0.0
1.0767278302609341e7 -5.702934928622756e6 0.0
0.0 0.0 0.0

-3.8634440961986287e6 9.735087681742774e6 0.0
9.735087681742774e6 1.13948516863775e6 0.0
0.0 0.0 0.0

-5.906679957284558e6 9.961485275705008e6 0.0
9.961485275705008e6 4.0919077945887437e6 0.0
0.0 0.0 0.0

-4.2869315071904715e6 6.765545645588998e6 0.0
6.765545645588998e6 4.444215493440269e6 0.0
0.0 0.0 0.0

-1.689083607466293e7 1.1733114980582163e7 0.0
1.1733114980582163e7 1.1558066051103903e7 0.0
0.0 0.0 0.0

3.3575601513672634e6 4.758904453757087e6 0.0
4.758904453757087e6 -6.177361883883721e6 0.0
0.0 0.0 0.0

-1.3706697156590149e6 9.92408534095507e6 0.0
9.92408534095507e6 -3.7780276065641125e6 0.0
0.0 0.0 0.0

3.95602218419598e6 6.647374349092489e6 0.0
6.647374349092489e6 -1.1376599405205978e7 0.0
0.0 0.0 0.0

-2.9189306279759645e6 1.3048121680904813e7 0.0
1.3048121680904813e7 -2.6517616579236374e6 0.0
0.0 0.0 0.0

-2.5713835111569883e6 6.057368128766003e6 0.0
6.057368128766003e6 554097.4716881005 0.0
0.0 0.0 0.0

-1.1331961335046429e6 9.936340015085122e6 0.0
9.936340015085122e6 -7.458031642993763e6 0.0
0.0 0.0 0.0

4.309541443252199e6 1.1914471543400202e7 0.0
1.1914471543400202e7 2.984644170589958e6 0.0
0.0 0.0 0.0

-1.0547056109085244e6 3.8425147654707953e6 0.0
3.8425147654707953e6 -44669.228178455785 0.0
0.0 0.0 0.0

-3.3206924383887798e6 1.052347706789691e7 0.0
1.052347706789691e7 6.832812871934508e6 0.0
0.0 0.0 0.0

-3.1109128498773808e6 1.067614316589773e7 0.0
1.067614316589773e7 7.371888982888644e6 0.0
0.0 0.0 0.0

-2.53596864430811e6 6.900863912964675e6 0.0
6.900863912964675e6 -2.29777532243303e6 0.0
0.0 0.0 0.0

-8.926128407499742e6 1.5873597673761826e7 0.0
1.5873597673761826e7 2.854249066776743e6 0.0
0.0 0.0 0.0

-4.496625894014659e6 1.1110137995111838e7 0.0
1.1110137995111838e7 -327515.31785423704 0.0
0.0 0.0 0.0

-4.709922566469941e6 8.250888755550235e6 0.0
8.250888755550235e6 3.8985974074108284e6 0.0
0.0 0.0 0.0

3.285684701870894e6 8.718795335381065e6 0.0
8.718795335381065e6 -1.399416400103402e7 0.0
0.0 0.0 0.0

-1.250129544505857e6 3.313529948425401e6 0.0
3.313529948425401e6 -742551.2958416764 0.0
0.0 0.0 0.0

-1.0736179589598053e6 1.0919758267251765e7 0.0
1.0919758267251765e7 -1.3044516525910425e6 0.0
0.0 0.0 0.0

1.256196659423001e6 8.93663371010316e6 0.0
8.93663371010316e6 2.1539316295333533e6 0.0
0.0 0.0 0.0

-6.773610749863232e6 4.98003712410718e6 0.0
4.98003712410718e6 7.119565615324043e6 0.0
0.0 0.0 0.0

-4.7749211361192735e6 1.1131927654240644e7 0.0
1.1131927654240644e7 4.374353369758303e6 0.0
0.0 0.0 0.0

-6.158348952269789e6 1.0870374490351686e7 0.0
1.0870374490351686e7 4.317792324705955e6 0.0
0.0 0.0 0.0

-1.8363855281505797e7 1.169632686303918e7 0.0
1.169632686303918e7 1.168929162309454e7 0.0
0.0 0.0 0.0

1.0424807728366684e6 6.234690942115114e6 0.0
6.234690942115114e6 -4.0881979426911804e6 0.0
0.0 0.0 0.0

-6.263385968108411e6 1.0661965800001955e7 0.0
1.0661965800001955e7 4.025760454446725e6 0.0
0.0 0.0 0.0

-3.9837198037067857e6 1.0716336470133012e7 0.0
1.0716336470133012e7 -567362.6258347278 0.0
0.0 0.0 0.0

-1.2849952349211052e6 1.005814159712664e7 0.0
1.005814159712664e7 6.54542204159333e6 0.0
0.0 0.0 0.0

-5.320224931685235e6 1.1775862066483429e7 0.0
1.1775862066483429e7 711911.6104937866 0.0
0.0 0.0 0.0

2.9488733604030902e6 3.741665201849647e6 0.0
3.741665201849647e6 -5.687859174961729e6 0.0
0.0 0.0 0.0

-2.456585646576017e6 1.0446971012872165e7 0.0
1.0446971012872165e7 -3.1524732386818095e6 0.0
0.0 0.0 0.0

-1.3818158377624257e6 3.1504162782045896e6 0.0
3.1504162782045896e6 1.2719719294350327e6 0.0
0.0 0.0 0.0

1.7075269515351313e6 6.322335358574688e6 0.0
6.322335358574688e6 -6.455741716674464e6 0.0
0.0 0.0 0.0

4.134948068810664e6 7.120148893832542e6 0.0
7.120148893832542e6 -1.1943425803241879e7 0.0
0.0 0.0 0.0

-2.596458154173978e6 9.615895351173567e6 0.0
9.615895351173567e6 4.0274249344025925e6 0.0
0.0 0.0 0.0

-524771.264105262 1.1052129832011137e7 0.0
1.1052129832011137e7 -5.208254516332094e6 0.0
0.0 0.0 0.0

-4.911351794322753e6 8.212179717458492e6 0.0
8.212179717458492e6 3.2378548060805625e6 0.0
0.0 0.0 0.0

1.1687770667621647e6 4.778992628889828e6 0.0
4.778992628889828e6 -4.878934923566019e6 0.0
0.0 0.0 0.0

-202926.54812702467 9.602914345474882e6 0.0
9.602914345474882e6 -5.295982728695603e6 0.0
0.0 0.0 0.0

-262967.65807211306 1.0619390205513172e7 0.0
1.0619390205513172e7 -6.202260558383869e6 0.0
0.0 0.0 0.0

-5.335827183236725e6 8.690223890537754e6 0.0
8.690223890537754e6 3.6638726542744716e6 0.0
0.0 0.0 0.0

-5.269924812967233e6 2.369535581300075e6 0.0
2.369535581300075e6 4.239553451616662e6 0.0
0.0 0.0 0.0

-1.374367039943296e6 1.8481180015214218e6 0.0
1.8481180015214218e6 1.2834619937665677e6 0.0
0.0 0.0 0.0

-812642.0271745239 1.0933035972024333e7 0.0
1.0933035972024333e7 -5.374553760826406e6 0.0
0.0 0.0 0.0

-2.1660180440516663e6 5.654320342948584e6 0.0
5.654320342948584e6 594736.3440993623 0.0
0.0 0.0 0.0

-1.9062542240667026e6 9.884140154376954e6 0.0
9.884140154376954e6 7.873000251465743e6 0.0
0.0 0.0 0.0

-3.808068778511275e6 1.1642098428267282e7 0.0
1.1642098428267282e7 -1.7600950098659664e6 0.0
0.0 0.0 0.0

2.410850996055631e6 4.0172202421793845e6 0.0
4.0172202421793845e6 -4.425235333514936e6 0.0
0.0 0.0 0.0

-9.589518354200512e6 406825.4303626868 0.0
406825.4303626868 1.3673171294701064e7 0.0
0.0 0.0 0.0

-6.609243442303447e6 1.1784729234006673e7 0.0
1.1784729234006673e7 3.9833460462595085e6 0.0
0.0 0.0 0.0

-8.1728566356973555e6 1.120240798336069e7 0.0
1.120240798336069e7 6.230986881919805e6 0.0
0.0 0.0 0.0

-1.5994942407626736e6 4.059004044278567e6 0.0
4.059004044278567e6 -374286.76847195975 0.0
0.0 0.0 0.0

-3.4945775737536345e6 679232.774906679 0.0
679232.774906679 5.289778946211154e6 0.0
0.0 0.0 0.0

766627.886342065 9.365277633844828e6 0.0
9.365277633844828e6 -7.821471614057144e6 0.0
0.0 0.0 0.0

-5.356811811793884e6 9.043984960868653e6 0.0
9.043984960868653e6 4.63498795487655e6 0.0
0.0 0.0 0.0

-1.0248691227338016e7 863793.8980805409 0.0
863793.8980805409 1.4510505593893304e7 0.0
0.0 0.0 0.0

-2.6099871362838466e7 4.181891660774199e6 0.0
4.181891660774199e6 1.2888271450523544e7 0.0
0.0 0.0 0.0

-516382.5461457559 7.795180849134089e6 0.0
7.795180849134089e6 -4.748689682634171e6 0.0
0.0 0.0 0.0

-290519.10955224454 1.0721196012120323e7 0.0
1.0721196012120323e7 -1.215861655539655e6 0.0
0.0 0.0 0.0

2.9370485087352884e6 5.843793976980116e6 0.0
5.843793976980116e6 -8.524825072276665e6 0.0
0.0 0.0 0.0

-7.226981934649678e6 9.03697845874592e6 0.0
9.03697845874592e6 1.0568289244639698e7 0.0
0.0 0.0 0.0

-1.0686525096476767e7 810615.3532254996 0.0
810615.3532254996 1.3045577233176999e7 0.0
0.0 0.0 0.0

1.746497857909217e6 6.420789174927766e6 0.0
6.420789174927766e6 -4.689132033420131e6 0.0
0.0 0.0 0.0

-3.8359950015443983e6 1.0803679433646297e7 0.0
1.0803679433646297e7 -464925.6985193979 0.0
0.0 0.0 0.0

-5.3026449680888215e6 1.0604585868874876e7 0.0
1.0604585868874876e7 2.2668209246684494e6 0.0
0.0 0.0 0.0

-5.204356621617109e6 9.426900273979243e6 0.0
9.426900273979243e6 3.7364785914177755e6 0.0
0.0 0.0 0.0

-7.36051629217501e6 1.1605810670988472e7 0.0
1.1605810670988472e7 5.577063231169322e6 0.0
0.0 0.0 0.0

-3.5771359313834235e6 8.807569107529696e6 0.0
8.807569107529696e6 380499.79093846236 0.0
0.0 0.0 0.0

-7.972429627541693e6 -4.752641878150219e6 0.0
-4.752641878150219e6 1.2833965312347211e7 0.0
0.0 0.0 0.0

-1.2688141270328928e6 1.0894685851987591e7 0.0
1.0894685851987591e7 2.866064787278109e6 0.0
0.0 0.0 0.0

-921720.4076403328 1.0131463806282638e7 0.0
1.0131463806282638e7 -4.389412950666355e6 0.0
0.0 0.0 0.0

-1.0232138310664177e7 7.603967903349073e6 0.0
7.603967903349073e6 7.561401883255794e6 0.0
0.0 0.0 0.0

-125753.81201240758 1.5148526491400641e6 0.0
1.5148526491400641e6 -1.6303701778659164e6 0.0
0.0 0.0 0.0

-7.771509677526444e6 1.2566117548238283e7 0.0
1.2566117548238283e7 5.332497456310717e6 0.0
0.0 0.0 0.0

-320190.9819630903 1.0668620331226785e7 0.0
1.0668620331226785e7 -1.3726538033287555e6 0.0
0.0 0.0 0.0

-7.0596988652321985e6 6.841921719607375e6 0.0
6.841921719607375e6 8.103219823646801e6 0.0
0.0 0.0 0.0

797993.5670449175 8.212992061626387e6 0.0
8.212992061626387e6 -6.2031220385375e6 0.0
0.0 0.0 0.0

-5.15434058531138e6 6.840847867889023e6 0.0
6.840847867889023e6 6.2323125065348465e6 0.0
0.0 0.0 0.0

3.166286858036883e6 3.89795300115232e6 0.0
3.89795300115232e6 -5.253256947165803e6 0.0
0.0 0.0 0.0

1.5962950109736612e6 6.733149174483349e6 0.0
6.733149174483349e6 -6.509644654383596e6 0.0
0.0 0.0 0.0

-1.787897976490967e6 1.167812078683667e7 0.0
1.167812078683667e7 133152.87294458167 0.0
0.0 0.0 0.0

-3.9735417739141136e6 9.339549016556077e6 0.0
9.339549016556077e6 1.4268336694586142e6 0.0
0.0 0.0 0.0

-5.158505755034814e6 1.0624673414883828e7 0.0
1.0624673414883828e7 2.742028002197181e6 0.0
0.0 0.0 0.0

-2.043223565807857e6 1.2915088028632889e7 0.0
1.2915088028632889e7 -3.3032555828227163e6 0.0
0.0 0.0 0.0

1.3551155620248145e6 6.110570600900406e6 0.0
6.110570600900406e6 -5.680458047746667e6 0.0
0.0 0.0 0.0

1.51895080034632e6 4.428077641139274e6 0.0
4.428077641139274e6 -3.5745056624988094e6 0.0
0.0 0.0 0.0

1.3042255756511465e6 6.547111894607471e6 0.0
6.547111894607471e6 -6.873971882775912e6 0.0
0.0 0.0 0.0

1.805301975470222e6 6.427672966780147e6 0.0
6.427672966780147e6 -4.737065638649996e6 0.0
0.0 0.0 0.0

731461.8295035502 1.0702848831519742e7 0.0
1.0702848831519742e7 6.17957658216959e6 0.0
0.0 0.0 0.0

-1.0325497150231186e7 1.3348604723656932e7 0.0
1.3348604723656932e7 7.282517093576673e6 0.0
0.0 0.0 0.0

-4.734251513135029e6 -622266.3574919543 0.0
-622266.3574919543 6.524964415386671e6 0.0
0.0 0.0 0.0

2.97619133416406e6 7.756197592175015e6 0.0
7.756197592175015e6 -1.0346340617043197e7 0.0
0.0 0.0 0.0

-2.253706697368121e6 1.2869339980543638e7 0.0
1.2869339980543638e7 -2.3734951731876587e6 0.0
0.0 0.0 0.0

-1.4387243938410992e6 1.1276670682410283e7 0.0
1.1276670682410283e7 -488596.5932655636 0.0
0.0 0.0 0.0

1.9643937218252048e6 7.186765420937974e6 0.0
7.186765420937974e6 -8.638978937182244e6 0.0
0.0 0.0 0.0

-1.1258622222084446e7 1.2199425700729005e7 0.0
1.2199425700729005e7 8.301101364455856e6 0.0
0.0 0.0 0.0

-3.824204686588503e6 1.0222049199616313e7 0.0
1.0222049199616313e7 7.312389732554095e6 0.0
0.0 0.0 0.0

-2.238938509243045e7 9.154301609703625e6 0.0
9.154301609703625e6 1.1577446591593957e7 0.0
0.0 0.0 0.0

-3.077597290365132e6 1.0464412296993047e7 0.0
1.0464412296993047e7 4.1702410828328393e6 0.0
0.0 0.0 0.0

813034.3603877933 7.878225877117132e6 0.0
7.878225877117132e6 -6.213965731832287e6 0.0
0.0 0.0 0.0

1.8004759710961297e7 1.2425088229076358e7 0.0
1.2425088229076358e7 -4790.300440129824 0.0
0.0 0.0 0.0

-6.2405877315939935e6 9.456993342649557e6 0.0
9.456993342649557e6 1.0513695850711297e7 0.0
0.0 0.0 0.0

-1.8421768970368835e6 3.5528256651665946e6 0.0
3.5528256651665946e6 1.729941315632768e6 0.0
0.0 0.0 0.0

-456486.53546546673 1.0757909728684405e7 0.0
1.0757909728684405e7 92751.04298803891 0.0
0.0 0.0 0.0

434466.3200527211 9.930031142266575e6 0.0
9.930031142266575e6 -7.6534231697749775e6 0.0
0.0 0.0 0.0

748824.1022964346 1.3130997770761464e7 0.0
1.3130997770761464e7 -4.397327167439354e6 0.0
0.0 0.0 0.0

-5.014769369145928e6 9.304074836558733e6 0.0
9.304074836558733e6 3.0798612451478355e6 0.0
0.0 0.0 0.0

-1.011195157954124e7 -73830.71816480342 0.0
-73830.71816480342 1.2191469293603715e7 0.0
0.0 0.0 0.0

-1.1737039608009424e7 1.2491947898394415e7 0.0
1.2491947898394415e7 7.949144969684029e6 0.0
0.0 0.0 0.0

-3.7359638508110996e6 1.1575767710816372e7 0.0
1.1575767710816372e7 1.7892671958215537e6 0.0
0.0 0.0 0.0

-5.275767567880254e6 1.0401760821662642e7 0.0
1.0401760821662642e7 2.3578950335103143e6 0.0
0.0 0.0 0.0

-5.999713379587643e6 1.3592825269466117e7 0.0
1.3592825269466117e7 1.9557903384973896e6 0.0
0.0 0.0 0.0

-6.4897287362867035e6 1.1535489142115718e7 0.0
1.1535489142115718e7 3.655336501600412e6 0.0
0.0 0.0 0.0

-440884.45073846047 1.0970284921348771e7 0.0
1.0970284921348771e7 -1.1053019516979605e6 0.0
0.0 0.0 0.0

-2.0419744147040437e6 1.089993501338227e7 0.0
1.089993501338227e7 2.7371803559293994e6 0.0
0.0 0.0 0.0

1.7322647619334057e6 9.504702749553466e6 0.0
9.504702749553466e6 -3.527704541661916e6 0.0
0.0 0.0 0.0

-661875.5838293983 1.0406184095058901e7 0.0
1.0406184095058901e7 -8.638837727326106e6 0.0
0.0 0.0 0.0

-551477.2537771824 1.1100398326447345e7 0.0
1.1100398326447345e7 -664372.28754225 0.0
0.0 0.0 0.0

-4.1013500143008213e6 9.321335599463653e6 0.0
9.321335599463653e6 891495.0693234219 0.0
0.0 0.0 0.0

-5.454161684490936e6 5.502339129355463e6 0.0
5.502339129355463e6 1.1460282442902707e7 0.0
0.0 0.0 0.0

-2.2412883364318814e6 1.1163829239140926e7 0.0
1.1163829239140926e7 -2.715879730030561e6 0.0
0.0 0.0 0.0

-350797.3667217514 9.543736796185473e6 0.0
9.543736796185473e6 -5.743819139216021e6 0.0
0.0 0.0 0.0

1.471976607335398e6 5.910984056767959e6 0.0
5.910984056767959e6 -5.877123312910402e6 0.0
0.0 0.0 0.0

-6.403201495251575e6 9.601858716130061e6 0.0
9.601858716130061e6 9.804901240865383e6 0.0
0.0 0.0 0.0

-1.879925291838422e6 1.1375799084361346e7 0.0
1.1375799084361346e7 1.8192467507339213e6 0.0
0.0 0.0 0.0

-6.077613155637426e6 6.540506766703111e6 0.0
6.540506766703111e6 7.503303195728304e6 0.0
0.0 0.0 0.0

-4.83325948184859e6 9.190477324519252e6 0.0
9.190477324519252e6 3.312298363212754e6 0.0
0.0 0.0 0.0

-2.513831173080868e6 1.1813631885642009e7 0.0
1.1813631885642009e7 -8852.931303804973 0.0
0.0 0.0 0.0

-6.159170224909505e6 7.016011519690963e6 0.0
7.016011519690963e6 6.163988344448076e6 0.0
0.0 0.0 0.0

-7.078834445878671e6 6.076123972568747e6 0.0
6.076123972568747e6 8.373492450572362e6 0.0
0.0 0.0 0.0

-4.583641359425779e6 6.618849893121993e6 0.0
6.618849893121993e6 3.603824308511252e6 0.0
0.0 0.0 0.0

-1.2541932474093912e6 1.1787536978937425e6 0.0
1.1787536978937425e6 599102.7260058463 0.0
0.0 0.0 0.0

-5.815399394283079e6 1.034080085290093e7 0.0
1.034080085290093e7 4.505858486927858e6 0.0
0.0 0.0 0.0

584536.3662494919 9.874947956890762e6 0.0
9.874947956890762e6 -8.877134451805297e6 0.0
0.0 0.0 0.0

443115.11851104954 9.889293800052533e6 0.0
9.889293800052533e6 -7.483060993309327e6 0.0
0.0 0.0 0.0

-1.6041042812394537e7 9.343265806043373e6 0.0
9.343265806043373e6 6.798319269226338e6 0.0
0.0 0.0 0.0

-9.354557806746034e6 -1.471766563006665e6 0.0
-1.471766563006665e6 1.5542909572952267e7 0.0
0.0 0.0 0.0

613351.1313057938 1.0003599962428985e7 0.0
1.0003599962428985e7 -6.975468122633497e6 0.0
0.0 0.0 0.0

-6.772697360498253e6 1.2127776022799436e7 0.0
1.2127776022799436e7 3.354015111721376e6 0.0
0.0 0.0 0.0

-684298.0831605826 1.068527259254712e7 0.0
1.068527259254712e7 1.5194127678973493e6 0.0
0.0 0.0 0.0

320020.81397803663 1.8460720180826623e6 0.0
1.8460720180826623e6 -625300.2405880346 0.0
0.0 0.0 0.0

-428741.57523735863 1.072179884462666e7 0.0
1.072179884462666e7 -1.4137912563021542e6 0.0
0.0 0.0 0.0

-3.3640825934180925e6 9.968322582704227e6 0.0
9.968322582704227e6 -1.3433338341420938e6 0.0
0.0 0.0 0.0

-2.181125981063069e6 5.3427473144387575e6 0.0
5.3427473144387575e6 278444.39678100706 0.0
0.0 0.0 0.0

3.417527692625824e6 5.627893112048262e6 0.0
5.627893112048262e6 -1.0025258482020155e7 0.0
0.0 0.0 0.0

-147301.24275684124 6.895816806127493e6 0.0
6.895816806127493e6 -3.9099432312015537e6 0.0
0.0 0.0 0.0

-5.36685293090532e6 990812.3833845133 0.0
990812.3833845133 5.738613084514713e6 0.0
0.0 0.0 0.0

-2.1619472313837064e6 1.1881659442997647e7 0.0
1.1881659442997647e7 -3.64548810546352e6 0.0
0.0 0.0 0.0

-1.0925041029145324e6 1.1744872571089065e7 0.0
1.1744872571089065e7 3.49858846826948e6 0.0
0.0 0.0 0.0

104253.38415989652 6.623197341953481e6 0.0
6.623197341953481e6 -3.4055381078549256e6 0.0
0.0 0.0 0.0

-4.025486459064293e6 9.588791069501583e6 0.0
9.588791069501583e6 7.230679546751929e6 0.0
0.0 0.0 0.0

-1.103900839206889e7 1.3290272624450061e7 0.0
1.3290272624450061e7 7.648595968732768e6 0.0
0.0 0.0 0.0

-2.157049186588785e6 3.5666401121290196e6 0.0
3.5666401121290196e6 635511.2809246522 0.0
0.0 0.0 0.0

-2.0001581170367652e6 1.0760993968051579e7 0.0
1.0760993968051579e7 2.97947337266004e6 0.0
0.0 0.0 0.0

573950.6545898109 8.045499283733741e6 0.0
8.045499283733741e6 -6.473153544795496e6 0.0
0.0 0.0 0.0

-7.4246170434692735e6 9.850730396519257e6 0.0
9.850730396519257e6 2.8587030836915406e6 0.0
0.0 0.0 0.0

-315418.4981741768 2.018194882064811e6 0.0
2.018194882064811e6 -1.179950967182206e6 0.0
0.0 0.0 0.0

-4.437003486463887e6 1.1579925867450558e7 0.0
1.1579925867450558e7 791277.9035428439 0.0
0.0 0.0 0.0

4.304970990449757e6 1.1289723850415101e7 0.0
1.1289723850415101e7 3.2557119055194193e6 0.0
0.0 0.0 0.0

-4.143650132353519e6 1.0754804373155795e7 0.0
1.0754804373155795e7 -340126.94804707076 0.0
0.0 0.0 0.0

718770.3073016771 8.010627634366706e6 0.0
8.010627634366706e6 -5.973842825022781e6 0.0
0.0 0.0 0.0

-5.400885852537422e6 1.1278332708615914e7 0.0
1.1278332708615914e7 4.426307269941408e6 0.0
0.0 0.0 0.0

-9.741747590163004e6 -5.320446953608102e6 0.0
-5.320446953608102e6 1.8266702442496944e7 0.0
0.0 0.0 0.0

-2.6530945639768904e6 1.0065611176510392e7 0.0
1.0065611176510392e7 567889.1287003319 0.0
0.0 0.0 0.0

-8.169050451710879e6 1.2729980488380842e7 0.0
1.2729980488380842e7 5.642818837727665e6 0.0
0.0 0.0 0.0

1.058106598649791e6 9.515884682491357e6 0.0
9.515884682491357e6 -8.846591808147047e6 0.0
0.0 0.0 0.0

98640.1389714235 1.079048054887527e7 0.0
1.079048054887527e7 -5.942171429494708e6 0.0
0.0 0.0 0.0

123639.46343760472 1.0583623731619827e7 0.0
1.0583623731619827e7 -6.118496098927351e6 0.0
0.0 0.0 0.0

-8.760093979086682e6 3.8209575986543503e6 0.0
3.8209575986543503e6 1.207180745940034e7 0.0
0.0 0.0 0.0

-5.455693607097969e6 9.563322717287615e6 0.0
9.563322717287615e6 3.5297573475440056e6 0.0
0.0 0.0 0.0

-1.5488971018804863e7 7.051779850028209e6 0.0
7.051779850028209e6 4.419247108325318e7 0.0
0.0 0.0 0.0

6.133266943242793e6 1.024964221811062e7 0.0
1.024964221811062e7 -1.5303163880518556e7 0.0
0.0 0.0 0.0

-1.0560943020356292e7 9.826738322042948e6 0.0
9.826738322042948e6 5.596795590422451e6 0.0
0.0 0.0 0.0

-2.322717742687535e6 1.1104256408523949e7 0.0
1.1104256408523949e7 2.114781821358827e6 0.0
0.0 0.0 0.0

-9.062729925560385e6 1.0305973684574423e7 0.0
1.0305973684574423e7 1.7162761811422454e6 0.0
0.0 0.0 0.0

-652172.1831213223 2.6458228421907225e6 0.0
2.6458228421907225e6 -496641.5748660584 0.0
0.0 0.0 0.0

-5.648321874420469e6 7.908308791331427e6 0.0
7.908308791331427e6 4.697015634997577e6 0.0
0.0 0.0 0.0

-4.373600114555591e6 1.1507565056442484e7 0.0
1.1507565056442484e7 524624.6154869208 0.0
0.0 0.0 0.0

-3.6441215468935827e6 1.1037045542364283e6 0.0
1.1037045542364283e6 5.68927615985602e6 0.0
0.0 0.0 0.0

5.2312549630353395e6 1.1884090205292754e7 0.0
1.1884090205292754e7 3.2436967493706923e6 0.0
0.0 0.0 0.0

-2.6763346128643593e6 1.0842609200504769e7 0.0
1.0842609200504769e7 4.510735080036991e6 0.0
0.0 0.0 0.0

-5.060257495079804e6 8.973248268059015e6 0.0
8.973248268059015e6 4.1868441856869096e6 0.0
0.0 0.0 0.0

-1.8460307499925643e7 9.801967593735557e6 0.0
9.801967593735557e6 1.2388804041945241e7 0.0
0.0 0.0 0.0

1.7354201954830084e6 9.115997426202973e6 0.0
9.115997426202973e6 -1.6286401847502273e6 0.0
0.0 0.0 0.0

2.2255586839933004e6 9.466628486026926e6 0.0
9.466628486026926e6 -3.774554810776568e6 0.0
0.0 0.0 0.0

-5.888736376678215e6 1.1503386039524646e7 0.0
1.1503386039524646e7 4.429145763945021e6 0.0
0.0 0.0 0.0

-2.670150874507689e6 1.172405205675916e7 0.0
1.172405205675916e7 297753.3301457679 0.0
0.0 0.0 0.0

304802.6232852994 8.499691397995992e6 0.0
8.499691397995992e6 -4.0320364524263106e6 0.0
0.0 0.0 0.0

2.0952027828373783e6 1.0284310712187814e7 0.0
1.0284310712187814e7 -4.582657533578816e6 0.0
0.0 0.0 0.0

-3.432989446847026e6 9.37357761255105e6 0.0
9.37357761255105e6 3.9527942349150414e6 0.0
0.0 0.0 0.0

-7.684748573311076e6 1.4865682413014475e7 0.0
1.4865682413014475e7 3.782139394542051e6 0.0
0.0 0.0 0.0

-5.804608462715611e6 1.0486502791628767e7 0.0
1.0486502791628767e7 4.546342429004896e6 0.0
0.0 0.0 0.0

-1.0931716388061924e7 1.3233082857608642e7 0.0
1.3233082857608642e7 7.569400218509242e6 0.0
0.0 0.0 0.0

-109697.69386860123 1.042682209868472e7 0.0
1.042682209868472e7 -9.17869714898328e6 0.0
0.0 0.0 0.0

-253913.41295787273 1.2354362601532774e7 0.0
1.2354362601532774e7 -1.1668364473330187e7 0.0
0.0 0.0 0.0

-1.5861167634006254e6 1.324592122140245e7 0.0
1.324592122140245e7 3.058367297683586e7 0.0
0.0 0.0 0.0

-1.1451901703930486e6 1.16570333277488e7 0.0
1.16570333277488e7 3.838226761927961e6 0.0
0.0 0.0 0.0

2.0349805743216374e6 8.160769293405265e6 0.0
8.160769293405265e6 -9.834533460588992e6 0.0
0.0 0.0 0.0

-8.467905405506786e6 1.464379800793412e7 0.0
1.464379800793412e7 3.4506323029623777e6 0.0
0.0 0.0 0.0

-3.195037740919276e6 1.1465756745475244e7 0.0
1.1465756745475244e7 -1.4864973884405643e6 0.0
0.0 0.0 0.0

-607496.4502884406 1.0885699061062716e7 0.0
1.0885699061062716e7 -1.4128438269521992e6 0.0
0.0 0.0 0.0

-1.4927154563056633e6 1.197435224473885e7 0.0
1.197435224473885e7 -3.5012284857125552e6 0.0
0.0 0.0 0.0

-1.9734561766219404e7 9.931982585810142e6 0.0
9.931982585810142e6 1.2816569698094152e7 0.0
0.0 0.0 0.0

-8.0273538858771045e6 1.2568932446296018e7 0.0
1.2568932446296018e7 5.350940120021645e6 0.0
0.0 0.0 0.0

-6.10082327007149e6 1.1580861550818084e7 0.0
1.1580861550818084e7 4.1790115175732295e6 0.0
0.0 0.0 0.0

3.562676426350863e6 6.13150239118721e6 0.0
6.13150239118721e6 -1.0618902613999365e7 0.0
0.0 0.0 0.0

283552.00141043053 1.3575981180318328e7 0.0
1.3575981180318328e7 -4.4305801944755195e6 0.0
0.0 0.0 0.0

867394.8806028031 9.701978483524503e6 0.0
9.701978483524503e6 -8.628731290205987e6 0.0
0.0 0.0 0.0

-707776.751312022 1.3833800524910437e7 0.0
1.3833800524910437e7 -3.496108787319839e6 0.0
0.0 0.0 0.0

691136.8447309874 8.082598867236955e6 0.0
8.082598867236955e6 -3.4492778585969876e6 0.0
0.0 0.0 0.0

-2.127377638457644e6 1.1030260656069124e7 0.0
1.1030260656069124e7 3.2562383542544013e6 0.0
0.0 0.0 0.0

-6.694459067717101e6 1.1499065813972345e7 0.0
1.1499065813972345e7 4.880264611379754e6 0.0
0.0 0.0 0.0

-2.9842889001260763e6 1.2762797615593795e6 0.0
1.2762797615593795e6 2.2711347952689487e6 0.0
0.0 0.0 0.0

5.083792086085457e6 9.867429854261335e6 0.0
9.867429854261335e6 -4.396012989274645e6 0.0
0.0 0.0 0.0

-2.842924816842725e7 8.79000222095483e6 0.0
8.79000222095483e6 1.2932245605701536e7 0.0
0.0 0.0 0.0

-9.097125770603552e6 4.1655222641012412e6 0.0
4.1655222641012412e6 1.0716649174704565e7 0.0
0.0 0.0 0.0

-3.833836443183222e6 1.1304557810024975e7 0.0
1.1304557810024975e7 1.7009188711352737e6 0.0
0.0 0.0 0.0

2.1528511219433774e6 1.0105422994840747e7 0.0
1.0105422994840747e7 -4.1880608117798306e6 0.0
0.0 0.0 0.0

2.4423198956367397e6 5.81935465417811e6 0.0
5.81935465417811e6 -7.758607862491468e6 0.0
0.0 0.0 0.0

-2.529819794626309e6 1.1217445779106667e7 0.0
1.1217445779106667e7 1.7571882677659085e6 0.0
0.0 0.0 0.0

-7.568494957826615e6 -4.81839706151793e6 0.0
-4.81839706151793e6 1.164896122366501e7 0.0
0.0 0.0 0.0

-1.217078237970028e6 1.3182555828351613e7 0.0
1.3182555828351613e7 -1.5809679495045785e7 0.0
0.0 0.0 0.0

2667.7757263872772 1.8326946388046455e7 0.0
1.8326946388046455e7 4.076700207863651e7 0.0
0.0 0.0 0.0

985254.9800892943 9.178567760292282e6 0.0
9.178567760292282e6 -8.1059975682126805e6 0.0
0.0 0.0 0.0

2.497212774365444e6 4.423285945091784e6 0.0
4.423285945091784e6 -4.720691167463131e6 0.0
0.0 0.0 0.0

-2.3116372851380887e6 1.0506035601394182e7 0.0
1.0506035601394182e7 5.618176775139818e6 0.0
0.0 0.0 0.0

-1.053309021506521e7 -5.325069497583371e6 0.0
-5.325069497583371e6 1.8001149682833277e7 0.0
0.0 0.0 0.0

1.0127771795765515e6 6.781876989448383e6 0.0
6.781876989448383e6 -4.2329602514497405e6 0.0
0.0 0.0 0.0

-7.171799927603709e6 1.5424178547128597e7 0.0
1.5424178547128597e7 1.7439536065436634e6 0.0
0.0 0.0 0.0

-2.0756851003761706e6 1.0381887557764074e7 0.0
1.0381887557764074e7 -3.6210796070127958e6 0.0
0.0 0.0 0.0

-933454.0495611696 1.0928498734402126e7 0.0
1.0928498734402126e7 2.575800125676053e6 0.0
0.0 0.0 0.0

-2.522096693784204e6 1.1735759396954738e7 0.0
1.1735759396954738e7 333628.2609552328 0.0
0.0 0.0 0.0

-1.0066462005305814e7 1.045931261986528e7 0.0
1.045931261986528e7 2.23517817530588e6 0.0
0.0 0.0 0.0

-7.7079047923774365e6 1.2288918044229466e7 0.0
1.2288918044229466e7 5.31503802733667e6 0.0
0.0 0.0 0.0

-680263.0723232303 1.0960953266192457e7 0.0
1.0960953266192457e7 672106.2798676748 0.0
0.0 0.0 0.0

-2.0853681724516754e6 1.1062072885032862e7 0.0
1.1062072885032862e7 2.4029189434609376e6 0.0
0.0 0.0 0.0

-370781.1288395191 9.769655759986794e6 0.0
9.769655759986794e6 -5.55876398803654e6 0.0
0.0 0.0 0.0

-1.6620189134559673e6 1.192431952033353e7 0.0
1.192431952033353e7 -4.1492837692330787e6 0.0
0.0 0.0 0.0

-1.1501248751211412e7 -3.569535851511808e6 0.0
-3.569535851511808e6 1.666774333155321e7 0.0
0.0 0.0 0.0

-1.9024780676460657e7 1.107955475524312e7 0.0
1.107955475524312e7 1.2534059237253547e7 0.0
0.0 0.0 0.0

-1.2076127481758544e7 1.0391608053510405e7 0.0
1.0391608053510405e7 8.378730235080001e6 0.0
0.0 0.0 0.0

-1.5725750694078553e7 6.263087317436409e6 0.0
6.263087317436409e6 9.521740476660453e6 0.0
0.0 0.0 0.0

-494367.50132494024 1.1166429580422569e7 0.0
1.1166429580422569e7 -502773.4854437685 0.0
0.0 0.0 0.0

-3.2986345652535236e6 1.130957358815328e7 0.0
1.130957358815328e7 467670.3732665507 0.0
0.0 0.0 0.0

-1.207567754520359e7 8.397464673615422e6 0.0
8.397464673615422e6 7.021282308645092e6 0.0
0.0 0.0 0.0

1.6026905728705092e6 6.646000705929681e6 0.0
6.646000705929681e6 -4.381330213183602e6 0.0
0.0 0.0 0.0

-1.5430153041123487e6 1.1110820713709872e7 0.0
1.1110820713709872e7 2.873308781855288e6 0.0
0.0 0.0 0.0

2.5675354491949715e6 7.889925226864139e6 0.0
7.889925226864139e6 -9.517589034219863e6 0.0
0.0 0.0 0.0

-7.508494420333187e6 4.60280300041768e6 0.0
4.60280300041768e6 1.1426385697645107e7 0.0
0.0 0.0 0.0

-9.889568000307783e6 -5.494501916658727e6 0.0
-5.494501916658727e6 1.7356071296448186e7 0.0
0.0 0.0 0.0

3.7219419541932405e6 6.210251583556054e6 0.0
6.210251583556054e6 -1.051304841634131e7 0.0
0.0 0.0 0.0

-1.7906896111619376e7 8.147018295121643e6 0.0
8.147018295121643e6 8.777492742905522e6 0.0
0.0 0.0 0.0

-5.611592691194508e6 -2.4459910736956913e6 0.0
-2.4459910736956913e6 7.178064603034892e6 0.0
0.0 0.0 0.0

-5.171067693407409e6 -911745.9567143414 0.0
-911745.9567143414 5.92954790326869e6 0.0
0.0 0.0 0.0

1.4194249026907755e6 6.528963253362793e6 0.0
6.528963253362793e6 -4.858718920171385e6 0.0
0.0 0.0 0.0

-4.6611834681419805e6 152417.81080964569 0.0
152417.81080964569 5.865691442955669e6 0.0
0.0 0.0 0.0

-1.1463643139693823e7 1.9998805258033436e7 0.0
1.9998805258033436e7 1.707157402357237e6 0.0
0.0 0.0 0.0

-5.197241925422253e6 9.333400061786307e6 0.0
9.333400061786307e6 4.295729366813959e6 0.0
0.0 0.0 0.0

3.8931830961970408e6 6.9729620542977005e6 0.0
6.9729620542977005e6 -1.226819560242568e7 0.0
0.0 0.0 0.0

2.7492421781816673e6 6.177575504499864e6 0.0
6.177575504499864e6 -9.103695848455964e6 0.0
0.0 0.0 0.0

-5.368558546831411e6 9.341135585392255e6 0.0
9.341135585392255e6 3.1931556601938857e6 0.0
0.0 0.0 0.0

-1.1059046129744029e7 1.26498111541278e7 0.0
1.26498111541278e7 7.663295372889074e6 0.0
0.0 0.0 0.0

-90949.24350784626 5.9868306964999605e6 0.0
5.9868306964999605e6 3.302332699561837e6 0.0
0.0 0.0 0.0

-3.2609762797568035e6 1.0228003018372575e7 0.0
1.0228003018372575e7 7.227815227428592e6 0.0
0.0 0.0 0.0

134255.802442658 1.3401717511611214e7 0.0
1.3401717511611214e7 -4.820501494126927e6 0.0
0.0 0.0 0.0

-4.742709439194778e6 -3.1212857591451393e6 0.0
-3.1212857591451393e6 9.043612132233636e6 0.0
0.0 0.0 0.0

-1.2468898835758224e7 4.822938446642891e6 0.0
4.822938446642891e6 6.91905091301074e6 0.0
0.0 0.0 0.0

-7.604243719137792e6 1.2134536946315784e7 0.0
1.2134536946315784e7 4.994138104744408e6 0.0
0.0 0.0 0.0

-6.176149014873411e6 1.2611007787455754e7 0.0
1.2611007787455754e7 1.3695244641972829e7 0.0
0.0 0.0 0.0

224945.82213516533 1.3476530403738137e7 0.0
1.3476530403738137e7 -4.225577942230416e6 0.0
0.0 0.0 0.0

-2.400254776222289e6 1.1961883736337684e7 0.0
1.1961883736337684e7 362116.42618242255 0.0
0.0 0.0 0.0

-4.759722736507229e6 1.1036276809574451e7 0.0
1.1036276809574451e7 4.481998890323706e6 0.0
0.0 0.0 0.0

-2.122122520356364e6 1.1458977638549797e7 0.0
1.1458977638549797e7 -650149.84607478 0.0
0.0 0.0 0.0

-2.816049274375768e7 1.2367923920963148e7 0.0
1.2367923920963148e7 6.677532542122463e6 0.0
0.0 0.0 0.0

-5.565469910701035e6 9.12611519445693e6 0.0
9.12611519445693e6 3.962562066062477e6 0.0
0.0 0.0 0.0

-2.1688348761948436e6 1.192183512500038e7 0.0
1.192183512500038e7 -158625.13227002078 0.0
0.0 0.0 0.0

-4.199304626134774e6 1.138551635602215e7 0.0
1.138551635602215e7 4.172384076341984e6 0.0
0.0 0.0 0.0

-407400.7452239258 1.308720040211314e7 0.0
1.308720040211314e7 -4.198101614933102e6 0.0
0.0 0.0 0.0

2.2157477284821994e6 5.852494978603344e6 0.0
5.852494978603344e6 -7.430104706052385e6 0.0
0.0 0.0 0.0

-1.630930778777007e6 1.2659204603101255e7 0.0
1.2659204603101255e7 -3.72445612303961e6 0.0
0.0 0.0 0.0

-2.0550153513198644e7 1.0524863137638556e7 0.0
1.0524863137638556e7 1.16841055863058e7 0.0
0.0 0.0 0.0

-7.416754787247464e6 1.1729269027531674e7 0.0
1.1729269027531674e7 5.334679760690533e6 0.0
0.0 0.0 0.0

-1.5930640964126121e6 1.3024528105795307e6 0.0
1.3024528105795307e6 698277.0146205896 0.0
0.0 0.0 0.0

-1.1326075238684646e6 1.1082730642779883e7 0.0
1.1082730642779883e7 -4.9660324827184575e6 0.0
0.0 0.0 0.0

4.209226310880668e6 9.864497220515614e6 0.0
9.864497220515614e6 -4.400424250202373e6 0.0
0.0 0.0 0.0

-2.5346543198132813e7 1.212069313411869e7 0.0
1.212069313411869e7 8.48698371970983e6 0.0
0.0 0.0 0.0

-448596.2291991187 1.034722767933348e7 0.0
1.034722767933348e7 851500.0325309084 0.0
0.0 0.0 0.0

2.40804812108886e6 7.922051495214093e6 0.0
7.922051495214093e6 -1.0043573674400149e7 0.0
0.0 0.0 0.0

-658368.0621282575 9.713966101620246e6 0.0
9.713966101620246e6 -5.452563158951436e6 0.0
0.0 0.0 0.0

-2.2262488238077327e6 1.1393120360586999e7 0.0
1.1393120360586999e7 2.0223134982720541e6 0.0
0.0 0.0 0.0

-1.1324568608609863e7 1.249728865158841e7 0.0
1.249728865158841e7 7.990319373679809e6 0.0
0.0 0.0 0.0

-5.125821297507786e6 1.1978790276660847e7 0.0
1.1978790276660847e7 1.0874347464992462e6 0.0
0.0 0.0 0.0

3.0518174372304888e6 5.960318829352976e6 0.0
5.960318829352976e6 -8.900356323819501e6 0.0
0.0 0.0 0.0

-3.8262875440260544e6 1.2876009727015538e7 0.0
1.2876009727015538e7 7.942169468949205e6 0.0
0.0 0.0 0.0

-240974.12543991406 7.653156872679242e6 0.0
7.653156872679242e6 -3.7633979800222134e6 0.0
0.0 0.0 0.0

-1.981004022421413e7 1.1978906045790372e7 0.0
1.1978906045790372e7 7.274386348080339e6 0.0
0.0 0.0 0.0

-4.905269224111134e6 385601.7023586598 0.0
385601.7023586598 4.892893498146776e6 0.0
0.0 0.0 0.0

-4.569757566747732e6 511899.3304698512 0.0
511899.3304698512 6.18481368503156e6 0.0
0.0 0.0 0.0

4.133070962602892e6 8.926767234196592e6 0.0
8.926767234196592e6 -2.1001224625617694e6 0.0
0.0 0.0 0.0

-5.217174585248724e6 -1.9668530043022223e6 0.0
-1.9668530043022223e6 9.797133421241809e6 0.0
0.0 0.0 0.0

-321562.2536739422 1.0464066021225238e7 0.0
1.0464066021225238e7 827313.9112306647 0.0
0.0 0.0 0.0

-796625.5884821855 1.2134506338102238e7 0.0
1.2134506338102238e7 3.7814048656619964e6 0.0
0.0 0.0 0.0

-8.685828234578991e6 1.3825053173975801e7 0.0
1.3825053173975801e7 4.587362638609167e6 0.0
0.0 0.0 0.0

-1.3011733337634314e7 -1.1601414926226896e6 0.0
-1.1601414926226896e6 2.0044861962915644e7 0.0
0.0 0.0 0.0

846845.5273242039 9.734646680493739e6 0.0
9.734646680493739e6 -8.618652694509575e6 0.0
0.0 0.0 0.0

950607.7250799008 6.700421731373889e6 0.0
6.700421731373889e6 -4.451637641541323e6 0.0
0.0 0.0 0.0

-2.0894663365305373e6 1.1246945877244998e7 0.0
1.1246945877244998e7 1.5336738944858385e6 0.0
0.0 0.0 0.0

-2.307423557136165e6 1.1975601678787796e7 0.0
1.1975601678787796e7 4.752149771629036e6 0.0
0.0 0.0 0.0

-7.207347507438246e6 -1.433349065286094e6 0.0
-1.433349065286094e6 8.98850635859969e6 0.0
0.0 0.0 0.0

-7.88601403187238e6 2.9340088120011017e6 0.0
2.9340088120011017e6 7.130347703057517e6 0.0
0.0 0.0 0.0

-3.6874017073075906e6 9.080340977211863e6 0.0
9.080340977211863e6 1.026733762315056e6 0.0
0.0 0.0 0.0

-4.150027730766009e6 3.9332771393030025e6 0.0
3.9332771393030025e6 8.771052132167995e6 0.0
0.0 0.0 0.0

1.9732603591913653e6 1.0039840340626793e7 0.0
1.0039840340626793e7 -4.0740852373325625e6 0.0
0.0 0.0 0.0

-4.927474080445573e6 -54661.29527735137 0.0
-54661.29527735137 4.991687285665933e6 0.0
0.0 0.0 0.0

-1.282365355816788e7 -1.5324347983422312e6 0.0
-1.5324347983422312e6 2.2542965063976303e7 0.0
0.0 0.0 0.0

1.9307078134045824e6 9.98830709861302e6 0.0
9.98830709861302e6 -4.159772217588429e6 0.0
0.0 0.0 0.0

-1.8362232510323771e6 1.054544722837395e7 0.0
1.054544722837395e7 -3.4118412277604477e6 0.0
0.0 0.0 0.0

-1.21489649774328e7 -1.1537477156021723e6 0.0
-1.1537477156021723e6 2.32545890196606e7 0.0
0.0 0.0 0.0

771302.776493439 1.2755702107471999e7 0.0
1.2755702107471999e7 -4.5989941026476e6 0.0
0.0 0.0 0.0

-1.665479904866614e6 1.0905073347677713e7 0.0
1.0905073347677713e7 2.665038325779879e6 0.0
0.0 0.0 0.0

-2.4662782125600507e6 5.770637106452825e6 0.0
5.770637106452825e6 483293.2747547395 0.0
0.0 0.0 0.0

-4.279726926773911e6 553636.2097036678 0.0
553636.2097036678 5.326151502831666e6 0.0
0.0 0.0 0.0

-4.023357172838538e6 482906.135503253 0.0
482906.135503253 2.7892061021564454e6 0.0
0.0 0.0 0.0

