# vtk DataFile Version 2.0
phase field modeling fracture
ASCII
DATASET UNSTRUCTURED_GRID
POINTS 2538 float
0.0 0.0 0.0
10.0 0.0 0.0
0.0 10.0 0.0
10.0 10.0 0.0
0.0 4.9995 0.0
0.0 5.0005 0.0
5.0 5.0 0.0
0.9416964895726688 0.0 0.0
1.803581725054446 0.0 0.0
2.592419885431098 0.0 0.0
3.314401822861676 0.0 0.0
3.975193910351406 0.0 0.0
4.579982132660152 0.0 0.0
5.133512780936812 0.0 0.0
5.640130319506143 0.0 0.0
6.103810708661955 0.0 0.0
6.528192895506818 0.0 0.0
6.916607540127679 0.0 0.0
7.272102969376355 0.0 0.0
7.597469242948583 0.0 0.0
7.895259826292669 0.0 0.0
8.167811885738017 0.0 0.0
8.417264413845215 0.0 0.0
8.645575169389538 0.0 0.0
8.854535961159101 0.0 0.0
9.045786767735546 0.0 0.0
9.220828555767493 0.0 0.0
9.38103509633881 0.0 0.0
9.527663687265145 0.0 0.0
9.661865124984566 0.0 0.0
9.784692609918062 0.0 0.0
9.897110148790482 0.0 0.0
10.0 0.09999999999992584 0.0
10.0 0.199999999999856 0.0
10.0 0.2999999999997771 0.0
10.0 0.3999999999996677 0.0
10.0 0.4999999999995511 0.0
10.0 0.5999999999994683 0.0
10.0 0.6999999999993983 0.0
10.0 0.7999999999993286 0.0
10.0 0.8999999999992587 0.0
10.0 0.9999999999991888 0.0
10.0 1.099999999999119 0.0
10.0 1.199999999999033 0.0
10.0 1.299999999998852 0.0
10.0 1.399999999998576 0.0
10.0 1.499999999998284 0.0
10.0 1.599999999997992 0.0
10.0 1.6999999999977 0.0
10.0 1.799999999997408 0.0
10.0 1.899999999997116 0.0
10.0 1.999999999996825 0.0
10.0 2.099999999996533 0.0
10.0 2.199999999996241 0.0
10.0 2.299999999995949 0.0
10.0 2.399999999995657 0.0
10.0 2.499999999995365 0.0
10.0 2.599999999995073 0.0
10.0 2.699999999994782 0.0
10.0 2.79999999999449 0.0
10.0 2.899999999994198 0.0
10.0 2.999999999993906 0.0
10.0 3.099999999993614 0.0
10.0 3.199999999993322 0.0
10.0 3.299999999993029 0.0
10.0 3.399999999992738 0.0
10.0 3.499999999992446 0.0
10.0 3.599999999992154 0.0
10.0 3.699999999991863 0.0
10.0 3.799999999991571 0.0
10.0 3.899999999991278 0.0
10.0 3.999999999991022 0.0
10.0 4.099999999991035 0.0
10.0 4.199999999991187 0.0
10.0 4.299999999991338 0.0
10.0 4.399999999991491 0.0
10.0 4.499999999991642 0.0
10.0 4.599999999991795 0.0
10.0 4.699999999991947 0.0
10.0 4.799999999992099 0.0
10.0 4.89999999999225 0.0
10.0 4.999999999992403 0.0
10.0 5.099999999992555 0.0
10.0 5.199999999992706 0.0
10.0 5.299999999992858 0.0
10.0 5.39999999999301 0.0
10.0 5.499999999993161 0.0
10.0 5.599999999993313 0.0
10.0 5.699999999993466 0.0
10.0 5.799999999993618 0.0
10.0 5.899999999993771 0.0
10.0 5.999999999993922 0.0
10.0 6.099999999994074 0.0
10.0 6.199999999994227 0.0
10.0 6.299999999994378 0.0
10.0 6.39999999999453 0.0
10.0 6.499999999994682 0.0
10.0 6.599999999994833 0.0
10.0 6.699999999994986 0.0
10.0 6.799999999995138 0.0
10.0 6.899999999995289 0.0
10.0 6.999999999995442 0.0
10.0 7.099999999995594 0.0
10.0 7.199999999995747 0.0
10.0 7.299999999995897 0.0
10.0 7.39999999999605 0.0
10.0 7.499999999996202 0.0
10.0 7.599999999996353 0.0
10.0 7.699999999996505 0.0
10.0 7.799999999996658 0.0
10.0 7.899999999996808 0.0
10.0 7.999999999996962 0.0
10.0 8.099999999997113 0.0
10.0 8.199999999997265 0.0
10.0 8.299999999997418 0.0
10.0 8.399999999997569 0.0
10.0 8.499999999997721 0.0
10.0 8.599999999997873 0.0
10.0 8.699999999998024 0.0
10.0 8.799999999998176 0.0
10.0 8.899999999998329 0.0
10.0 8.99999999999848 0.0
10.0 9.099999999998634 0.0
10.0 9.199999999998786 0.0
10.0 9.299999999998937 0.0
10.0 9.399999999999089 0.0
10.0 9.499999999999241 0.0
10.0 9.599999999999392 0.0
10.0 9.699999999999545 0.0
10.0 9.799999999999697 0.0
10.0 9.899999999999848 0.0
9.897110148790565 10.0 0.0
9.784692609918244 10.0 0.0
9.66186512498486 10.0 0.0
9.527663687265571 10.0 0.0
9.381035096339392 10.0 0.0
9.220828555768257 10.0 0.0
9.045786767736512 10.0 0.0
8.854535961160305 10.0 0.0
8.645575169391027 10.0 0.0
8.417264413847017 10.0 0.0
8.167811885740178 10.0 0.0
7.895259826295246 10.0 0.0
7.597469242951631 10.0 0.0
7.272102969379938 10.0 0.0
6.916607540131873 10.0 0.0
6.528192895511704 10.0 0.0
6.103810708667616 10.0 0.0
5.640130319512691 10.0 0.0
5.13351278094435 10.0 0.0
4.579982132668816 10.0 0.0
3.975193910361222 10.0 0.0
3.314401822869852 10.0 0.0
2.592419885437257 10.0 0.0
1.803581725058137 10.0 0.0
0.9416964895740705 10.0 0.0
0.0 9.00010000000243 0.0
0.0 8.000200000005481 0.0
0.0 7.000300000005135 0.0
0.0 6.000400000002569 0.0
0.901790731451151 5.000409820926855 0.0
1.657200899774397 5.000334279910023 0.0
2.289991063707192 5.000271000893629 0.0
2.820065163538221 5.000217993483646 0.0
3.264096435579811 5.000173590356442 0.0
3.636051481595835 5.00013639485184 0.0
3.947629914072366 5.000105237008593 0.0
4.208632181002628 5.0000791367819 0.0
4.427267949625672 5.000057273205037 0.0
4.610414277633563 5.000038958572237 0.0
4.763831845154243 5.000023616815485 0.0
4.892346298799659 5.00001076537012 0.0
4.892346298799748 4.99998923462988 0.0
4.763831845154455 4.999976383184515 0.0
4.610414277633943 4.999961041427763 0.0
4.427267949626277 4.999942726794963 0.0
4.208632181003523 4.9999208632181 0.0
3.94762991407365 4.999894762991407 0.0
3.636051481597624 4.99986360514816 0.0
3.264096435582253 4.999826409643559 0.0
2.820065163541503 4.999782006516354 0.0
2.289991063711534 4.999728999106371 0.0
1.657200899778495 4.999665720089978 0.0
0.9017907314530094 4.999590179073145 0.0
0.0 3.999600000002013 0.0
0.0 2.999700000005187 0.0
0.0 1.99980000000512 0.0
0.0 0.9999000000025537 0.0
9.897889398521345 2.93573355845387 0.0
9.906568249974548 7.060009441434234 0.0
9.913122631074113 3.64016132281653 0.0
9.922462129543863 6.354535290629151 0.0
9.917693659967533 4.354211663134567 0.0
9.909873057440208 5.637584487339942 0.0
9.914183254994697 4.950672966925282 0.0
9.913885043715895 7.666887930262611 0.0
9.91009668007573 2.351889069770817 0.0
9.905135696074536 8.138152454502785 0.0
9.913397459621809 1.849999999997262 0.0
7.099302372137626 0.297750452375005 0.0
7.095143729410097 9.700359990366296 0.0
4.942912558701401 5.095838627899509 0.0
4.315009232304429 5.165022115481685 0.0
4.946182472483878 4.906763777264103 0.0
4.317967462990024 4.825955043772673 0.0
9.916390871492647 8.64999999999792 0.0
9.921504649680616 1.368376469890358 0.0
8.292538149791614 0.206877570318844 0.0
8.292538149793597 9.793122429681448 0.0
5.884594439766573 9.587645267048616 0.0
5.794826292691579 0.3794853783929359 0.0
9.913397459621425 9.049999999998557 0.0
9.908526577714177 0.9568239351922434 0.0
3.456851160380649 5.315740054130451 0.0
3.457889657868442 4.707121019609468 0.0
8.945214200703926 0.1503383337970344 0.0
8.950161364448409 9.8413906539257 0.0
9.913862335499305 4.055887885208452 0.0
9.916697353372683 4.650158482607802 0.0
9.919076340414442 6.049999999994006 0.0
9.906994308667635 5.25749687748192 0.0
9.917490342358025 6.655979201891897 0.0
9.915757520293784 7.343848891656911 0.0
9.910049507471042 3.363474386285078 0.0
9.914471988502868 2.647400064832979 0.0
9.91474124160965 9.337490423485129 0.0
9.916971008170838 0.6499999999994355 0.0
4.307157269264427 9.509674045029644 0.0
4.331527375865619 0.4401616696422582 0.0
9.45434939180249 9.878397030523757 0.0
9.457696120412969 0.1270877537061785 0.0
2.555070293622606 5.422044496190925 0.0
2.566232917480916 4.608001224030952 0.0
3.026511860837692 9.332320638257093 0.0
2.945561971800619 0.5895662714727601 0.0
7.7395404387124 0.2511088946967771 0.0
7.736379255744154 9.745848826372828 0.0
4.687135269408529 5.122111433928926 0.0
4.688420821504113 4.871895064967488 0.0
9.910554884115975 0.3448356354522978 0.0
9.911230082250466 9.65764729394159 0.0
9.921953841410854 6.851023993342036 0.0
9.912065178606017 5.448170483544033 0.0
9.911660025326261 3.861846960030188 0.0
9.914847467973438 3.14501593945607 0.0
9.913397459621425 5.849999999993703 0.0
9.913397459621425 7.849999999996735 0.0
9.906916878988277 2.15455769998631 0.0
9.913397459621425 8.349999999997479 0.0
9.909472363117661 1.640528221515488 0.0
9.913987325695956 1.152857110636247 0.0
9.913397459621425 8.849999999998241 0.0
0.9100099990995943 2.614215977520411 0.0
0.8395284981715456 7.451196254860987 0.0
9.723278867451556 9.898135916635193 0.0
9.723316350887044 0.09841820909386662 0.0
1.385819164827588 4.454539963646463 0.0
1.338343629665047 5.523111536005823 0.0
1.377179700550677 0.6809168304959698 0.0
1.418060461092743 9.285896715136046 0.0
9.91268220142518 0.1457914080939694 0.0
9.906737126737994 9.845745933882352 0.0
0.7108351382691361 6.537941170074089 0.0
1.527735020267026 6.915620208855231 0.0
1.630993885659103 7.838271825205868 0.0
2.232760943566823 7.370850737296832 0.0
2.243414218068206 6.688299277952821 0.0
2.779655053105118 7.021588754814074 0.0
2.80227799359795 7.632420170547022 0.0
3.282022065908813 7.305859666021318 0.0
3.327597298795347 7.857554136825748 0.0
3.743210251018715 7.549183328204379 0.0
3.716353232200752 7.062036086888612 0.0
4.111978858674101 7.27497101169417 0.0
4.104192177581432 6.879858986267289 0.0
4.436230765617037 7.045693351607117 0.0
4.430360014817357 6.703971783962796 0.0
4.732390145036301 6.849841042423394 0.0
5.056161327708878 5.095276573498806 0.0
5.111586796021131 4.999081142133581 0.0
5.169267363407189 5.09444870412406 0.0
5.223795108752053 4.996986220359468 0.0
5.281480803887719 5.092780870372803 0.0
5.335670761900611 4.994887492556936 0.0
5.393485214772442 5.090486192743301 0.0
5.447323082877892 4.992601527033996 0.0
5.505243219343024 5.087953380710069 0.0
5.558739102026105 4.990287787962959 0.0
5.616491581184779 5.085335255235766 0.0
5.669852346908056 4.9879269227514 0.0
5.727502713908907 5.082679981817038 0.0
5.780766004135139 4.988313988715834 0.0
5.838244881129535 5.080480568766611 0.0
5.891357695677371 4.986433849408193 0.0
5.948696036767613 5.077969900389505 0.0
6.001601341641615 4.981313698556656 0.0
6.058851024265095 5.074871552128682 0.0
6.111614020704875 4.978360695880202 0.0
6.168801161530775 5.072044953270978 0.0
6.221368818778567 4.975825765213497 0.0
6.278268309066882 5.066182320461055 0.0
6.330814273567539 4.972837984645718 0.0
6.387565032421376 5.062889771971895 0.0
6.437476667631405 4.971693683589553 0.0
6.496181111585419 5.060210690175857 0.0
6.539454812256072 4.964658165361536 0.0
6.604198202576491 5.056387520850258 0.0
6.648506025747331 4.939374587506267 0.0
6.714026758992516 5.05873885840664 0.0
6.764418045981209 4.959246676066148 0.0
6.8219334571197 5.055299567406268 0.0
6.873708540948134 4.960426349093742 0.0
6.930181428849307 5.053461390218819 0.0
6.981893615341967 4.96435459462232 0.0
7.037791764774784 5.051219747103022 0.0
7.090993561518408 4.96392420322464 0.0
5.504417457283294 4.900897920552702 0.0
7.145434864123609 5.048960634292441 0.0
6.054532384032612 4.883956083938546 0.0
6.738027949040956 4.850032323068674 0.0
7.198432914526514 4.956325226333323 0.0
7.252637187936749 5.046012229327236 0.0
7.30926729605109 4.948903216650376 0.0
7.248106275544042 4.860306312845646 0.0
7.363100274863074 4.849952416808486 0.0
7.365733472701664 5.039519554615095 0.0
7.308483293090149 5.137557220352172 0.0
6.768399513646964 5.145609705119954 0.0
7.422800035311104 5.132251445551834 0.0
7.358273518796229 5.235980394389298 0.0
7.480824155801127 5.227946127939927 0.0
7.302193400058628 4.761917474298247 0.0
7.413570879789824 4.754555110721153 0.0
7.414392998903179 5.334729114426734 0.0
7.352769630272076 4.660405502266205 0.0
7.467556835255426 4.658352623795039 0.0
7.536246869015014 5.328986926716081 0.0
7.478865844607288 5.432598185493195 0.0
7.406396991826072 4.556956233957538 0.0
7.523581002009154 4.552005631348623 0.0
7.597792398573263 5.429506106314967 0.0
7.540511043402902 5.53619421580439 0.0
7.46214474876342 4.452580994318881 0.0
7.5852185078634 4.446021810672608 0.0
7.663329342323453 5.533453399066901 0.0
7.603478967594521 5.643227430483237 0.0
7.513450346818673 4.347641323140766 0.0
7.640744971722214 4.333388343316237 0.0
7.727671715775243 5.642390483050116 0.0
7.667774597993788 5.753188858425915 0.0
7.570065256728661 4.230515669344811 0.0
7.702881065467917 4.218307808529532 0.0
7.638288257073729 4.107994211855027 0.0
7.493362356301017 4.120843902105771 0.0
7.779018500630071 5.521233457321821 0.0
7.794641287388929 5.752364621610818 0.0
7.73369774483611 5.865894287356292 0.0
7.600834531784728 5.867752110500446 0.0
6.233038857278689 5.15645045634683 0.0
7.669727996028819 5.985665563643058 0.0
7.528582452554481 5.987393423295551 0.0
7.598722674572824 6.11001923494443 0.0
7.778305000222867 4.104318908265786 0.0
7.704329019832056 3.987744174608892 0.0
7.838453459801382 4.213322728668484 0.0
7.864495721576461 5.862306066517277 0.0
7.846552353360407 3.98481756181946 0.0
7.769730409703277 3.86544808681145 0.0
5.785249360396857 5.177248808588045 0.0
7.908837087876153 3.861484036275285 0.0
7.834824606222196 3.740586825753288 0.0
7.97685993406276 3.736209527152902 0.0
7.89665098770825 3.615501862931453 0.0
7.753228010315262 3.617800245018972 0.0
7.826063013090472 3.483173292579822 0.0
7.66789744383048 3.48859328808356 0.0
8.042515855796823 3.595394268381807 0.0
7.75200750488492 3.341279823834038 0.0
7.582870318332553 3.346584916806707 0.0
8.120807847415062 3.732493963388337 0.0
8.189783970303546 3.61159165475499 0.0
7.657801000286734 3.200439907646711 0.0
7.486781956172036 3.201402473247712 0.0
7.452595103886905 6.11418616185016 0.0
7.527098033550077 6.243191052852112 0.0
8.260502906807751 3.728437634721859 0.0
8.327629317451398 3.608173631356984 0.0
7.372763970891452 6.247552889754036 0.0
7.456170570815929 6.384992468962936 0.0
7.621837793616884 6.376077080857113 0.0
7.548039512904141 6.520750676893614 0.0
7.717475944451644 6.514856553988943 0.0
7.636658166268699 6.661648164052906 0.0
7.807468267259438 6.664076174524672 0.0
7.718022764310774 6.817938967122142 0.0
7.887785766941087 6.807440365887151 0.0
7.545993589083432 6.815070675854734 0.0
7.809874785067209 6.967537287475282 0.0
7.975643812145337 6.948729406725126 0.0
8.396477808021062 3.725446935061211 0.0
7.565651643157136 3.044354774611752 0.0
7.384328725505071 3.043048915147076 0.0
8.056405351948353 6.802790889114673 0.0
8.14128318237188 6.940027831915737 0.0
8.064621760266059 7.086348792208953 0.0
8.225003598857908 6.805225152373254 0.0
8.463085452993242 3.606998510553562 0.0
8.230426869720718 7.079551841000411 0.0
8.155262284174286 7.224761758176069 0.0
8.530696760758996 3.721683301125054 0.0
8.596669886994064 3.604516769862316 0.0
8.528531058025589 3.490411531312337 0.0
8.320451770844851 7.218191678954744 0.0
8.245273958732774 7.363444652121271 0.0
8.66324687389452 3.717094013035765 0.0
8.600103125209296 3.831913857228569 0.0
8.662131102573216 3.488322280861316 0.0
8.594166125380536 3.374071873435548 0.0
8.411074336066186 7.353871649576861 0.0
8.339644223432472 7.505172120620427 0.0
8.165883718619623 7.513159193685373 0.0
8.483453820080417 7.2082285366806 0.0
8.261200365730348 7.657400951288149 0.0
8.081570576666843 7.670933304838066 0.0
7.471613195794025 2.872548423100142 0.0
7.268733678357991 2.881209199257603 0.0
7.184255506995786 3.084448584600423 0.0
7.065899603697895 2.883902449336828 0.0
6.960163891183182 3.081014635802978 0.0
6.847612128388715 2.885646860602812 0.0
6.739800729737967 3.078895733381448 0.0
8.729373804596847 3.827689165637365 0.0
8.668550856907444 3.938702277545298 0.0
8.72770789162863 3.371798381178293 0.0
8.659764090070603 3.257493349874974 0.0
8.436453928793245 7.648724489148887 0.0
6.619080287792762 2.90880017416788 0.0
6.511740956842646 3.09340654756684 0.0
8.793527829963288 3.935174834810256 0.0
8.736430500996828 4.042719556852617 0.0
7.631260330584174 4.565300771328012 0.0
8.359058396840432 7.801678182761817 0.0
5.339436215072359 5.184870243702279 0.0
4.994031736761993 5.193306795607908 0.0
6.383387675268097 4.87760645722207 0.0
7.29117392392962 6.382172868329505 0.0
6.378196825372041 2.907113079755629 0.0
6.269817199014261 3.12412150658573 0.0
8.793149127377946 3.255386294257182 0.0
8.725774239201558 3.141596687892195 0.0
8.857434600673502 4.041295940541356 0.0
8.802868937128341 4.1471119953668 0.0
8.532045262478793 7.7905977476835 0.0
7.364542641624493 2.699128473342751 0.0
7.571677611088925 2.695732556686516 0.0
6.723058333614999 2.672341359410618 0.0
8.456744924757372 7.94483904450548 0.0
6.140831279784704 2.921247401137864 0.0
6.02419219050745 3.14358702955763 0.0
8.916255604212301 3.934279868822481 0.0
8.859287250884009 3.140226640574265 0.0
8.791092798057303 3.025929352146465 0.0
7.210445465986021 6.245773134960393 0.0
7.120884161792869 6.385155584680196 0.0
7.036931702064287 6.240721609143972 0.0
6.943722280007011 6.3869279517155 0.0
8.920094519678617 4.144837222494242 0.0
8.864374107136287 4.250930406527029 0.0
7.347569838739255 4.463467417508182 0.0
5.90383431757064 2.935113219563906 0.0
5.783476009580765 3.156456199832474 0.0
8.626013191558314 7.935092223505354 0.0
8.687240186957197 7.796697889991163 0.0
5.642059327424706 2.903018174330269 0.0
5.52647853955939 3.162549070310043 0.0
8.555300051897738 8.086169516016518 0.0
8.405624441178524 8.083972416481254 0.0
5.374124307190728 2.945480555950917 0.0
8.935805220807357 3.249260758206028 0.0
8.981625171409894 4.247375537584228 0.0
8.924725364486765 4.352101286657735 0.0
8.807208588134106 4.356163101450244 0.0
8.868277832430604 4.45657124153171 0.0
8.75099635287701 4.460644845248524 0.0
8.812385950597063 4.560891222623518 0.0
8.693833206943118 4.564602972998703 0.0
8.756474732548273 4.665720853686476 0.0
8.63721608225855 4.669394550615355 0.0
8.700108119351134 4.770682016274914 0.0
8.81920502916846 4.767536120893284 0.0
8.76355311338807 4.871451945248518 0.0
8.881442328033694 4.868382238751069 0.0
8.826433523510634 4.97132552240372 0.0
8.943387824985514 4.967694248194483 0.0
8.888718468126953 5.071044784833541 0.0
8.580377663835254 4.774669738817985 0.0
8.770572242937233 5.073880380431421 0.0
8.832915096600454 5.174518948293615 0.0
8.952224483821848 5.170970838320107 0.0
8.897282771771884 5.275476392171722 0.0
7.463928467290875 2.513944501591933 0.0
7.675935950092034 2.509420347143072 0.0
8.924252417741767 3.024418701372628 0.0
8.857265893102921 2.911213535286156 0.0
8.776981063213334 5.27944309004916 0.0
8.840710910770163 5.380165700477552 0.0
8.960876896785969 5.375521424256389 0.0
8.904555918255223 5.482125846038813 0.0
7.567193097677677 2.32750151280277 0.0
7.780880844888839 2.323064027160363 0.0
6.851602118390116 6.234522818184622 0.0
6.758680682687229 6.389359516748128 0.0
6.66345977321418 6.231254850996584 0.0
8.715764716958308 8.079994249772627 0.0
8.65189989696114 8.227534663647639 0.0
9.042229096541828 4.348551764001607 0.0
6.436774206993324 3.316782326998922 0.0
7.590527613340588 5.22651784724799 0.0
9.024366884701616 5.476726561488805 0.0
8.968734351641839 5.583879050892151 0.0
8.845941080047659 5.586406316932274 0.0
8.909881305857882 5.690482454668167 0.0
7.348726871578975 5.44047403999932 0.0
6.567070253986433 6.398115757512583 0.0
6.697077150072261 6.553426749743366 0.0
5.252377383990728 3.187782967482479 0.0
8.988440431820699 2.908621158637298 0.0
8.922541972760119 2.796420836075996 0.0
6.466806010659505 6.229115583261771 0.0
9.033851153821296 5.686506775615425 0.0
8.978340519963718 5.795772485582058 0.0
8.85111463793018 5.798672910287243 0.0
8.922171984280597 5.907237880910408 0.0
8.795190680908043 5.911854068712683 0.0
8.864373398892472 6.019728357749566 0.0
8.991346995940626 6.014539153309398 0.0
8.93374019140187 6.12698887312768 0.0
5.095192648098848 2.952353430985476 0.0
7.672651464908932 2.141715359830917 0.0
7.886266921042761 2.136211284120189 0.0
9.098474286589756 4.245971410451114 0.0
8.813172564986438 8.216887361735234 0.0
8.74802978243154 8.366104673219047 0.0
9.059985162956899 6.120982589539211 0.0
9.00342813739303 6.233245043891739 0.0
4.961413514304496 3.214209167276753 0.0
9.05248113004685 2.794651022570942 0.0
8.986028039118027 2.681341972594222 0.0
5.671890458441996 3.377122473800023 0.0
4.755829262593116 7.184480462344647 0.0
9.158258644940048 4.34465968221255 0.0
4.799687186662534 2.961354824469195 0.0
6.030554747591715 2.726787502996874 0.0
8.938327180212585 8.34758372042188 0.0
8.847392320655468 8.503370672816716 0.0
8.67342124373679 8.518117686968314 0.0
5.234423106934083 2.694925204361751 0.0
8.964923046453565 8.185313058214797 0.0
7.456650986668838 2.134076476407834 0.0
9.111732084821366 2.897226832609386 0.0
6.368055837513985 6.402805870976705 0.0
6.265629899005033 6.226581076317183 0.0
8.736327196352686 6.026404178766982 0.0
9.117473097358854 2.67987006607594 0.0
9.052137415465204 2.565428515518978 0.0
7.781001557847192 1.955874236406257 0.0
7.992134447300669 1.949184538864554 0.0
8.593074792993455 3.143159483125708 0.0
9.1291360203536 6.226877897052981 0.0
9.072154326613617 6.338696745620542 0.0
8.916532550320525 2.566986282201109 0.0
8.984021113721658 2.449252898983242 0.0
9.178032243215632 6.120533546076094 0.0
9.213703592343162 4.244823670856978 0.0
9.11972142641474 2.449071238668887 0.0
9.052853896812186 2.33190758581705 0.0
8.635035926402708 4.462329956179506 0.0
8.773614475966344 8.657865377672689 0.0
8.596400917257634 8.67759750279447 0.0
8.942023339420883 8.644678093589654 0.0
9.19471670675691 6.33096438039349 0.0
9.138460613363325 6.443043552768813 0.0
8.66620319432524 5.916297234509582 0.0
8.606669825267202 6.032658196729024 0.0
9.27222540210304 4.341341907533128 0.0
9.013782808177437 6.451040569407859 0.0
9.08360982569773 6.55729980456602 0.0
7.885622149776354 1.768093045890686 0.0
8.095672144455353 1.768790621151345 0.0
9.208772072925791 6.549717411809656 0.0
9.154272208194383 6.662613503537815 0.0
9.187669783927937 2.334640996932141 0.0
9.122379015831417 2.215832190697178 0.0
6.164077036161143 6.404611236428829 0.0
6.062367614988677 6.224307160647549 0.0
8.987075041759633 2.211477580983978 0.0
9.056972755801603 2.093573581203428 0.0
9.194557288902232 2.096029761809264 0.0
9.131223008370409 1.972713028695079 0.0
8.87381302587057 8.795793668920256 0.0
9.039169086943392 8.781606667490083 0.0
4.662813350519927 3.228118291851354 0.0
4.474181267994617 2.945703616023359 0.0
6.562627723301209 6.075544382232434 0.0
9.326886053211574 4.243083624343211 0.0
9.280374192897945 6.656072830232892 0.0
9.224718905178564 6.766740750539347 0.0
4.703284910421452 6.528907865005451 0.0
8.955136474970331 6.565989985649191 0.0
8.998148826814893 4.865480736169776 0.0
8.99429836796776 1.965972383552685 0.0
9.065669391141741 1.847195105148808 0.0
9.207236162050343 1.853010386995843 0.0
9.143218073349985 1.725630086781897 0.0
8.998867447699345 1.719378449325465 0.0
9.082595782768397 1.592017827427701 0.0
8.92804562738841 1.585238202229766 0.0
9.01637794607019 1.453847302675876 0.0
8.854253119154375 1.446306868730686 0.0
8.941620273019874 1.320083886766936 0.0
8.775393064215876 1.308487027359826 0.0
9.102170347200483 1.324733726345249 0.0
9.013857060361985 1.178821526410403 0.0
7.991031819452564 1.587689878441685 0.0
7.767218744640202 1.595993197647291 0.0
9.191539171305216 1.194087248761656 0.0
9.123965901037613 1.057102462689568 0.0
4.853921953226772 3.470213116851758 0.0
7.496563223334782 3.470157221608763 0.0
8.536691379028115 5.921845852206257 0.0
8.475496498707471 6.037633662010236 0.0
7.978668526342969 2.307231488316941 0.0
9.384721922092124 4.337357165846226 0.0
9.331039180200886 4.435926256444196 0.0
8.546261775564837 6.150267290476958 0.0
8.411727261785726 6.155319300628062 0.0
8.972203609044218 8.930944433074036 0.0
9.133480321468399 8.90955269607895 0.0
9.197778815538276 8.768743880012563 0.0
6.162231825784922 6.05277753404107 0.0
5.962111081146334 6.046949845237622 0.0
9.268727788642101 4.146883230687689 0.0
9.380694211527906 4.144811697563401 0.0
9.323823335199954 4.049557759546529 0.0
9.283324894520613 1.736313094621396 0.0
5.858151623803662 6.22041808248046 0.0
5.759668475561988 6.038806123495502 0.0
7.836860473863919 3.191674397465999 0.0
9.348591928839294 6.75855034547469 0.0
9.293979592221298 6.870213350675044 0.0
9.170543172728557 6.879819332293818 0.0
9.240028263813034 6.983394994050525 0.0
4.347372565145963 3.312731475520695 0.0
4.114183445909965 2.96879678229065 0.0
8.616264880152233 4.042035981070631 0.0
9.403174760076901 6.650407069150438 0.0
4.173860112179449 7.723461240865885 0.0
9.365302975518428 6.973476802087294 0.0
9.312420275675276 7.088420778208979 0.0
9.184876614539778 7.0978133687822 0.0
9.25921281729617 7.204979813006656 0.0
9.12816413817609 7.21569648263899 0.0
9.203944409919862 7.322703303071253 0.0
9.334311975087337 7.311477957762272 0.0
9.280415785210538 7.428795599957155 0.0
9.274060219641907 1.066603180421249 0.0
9.211820491509728 0.9316562593680151 0.0
9.050684011148748 0.9017681241401576 0.0
9.441953732403995 4.432092590771756 0.0
9.394725873909666 4.526051349391942 0.0
9.43453556160865 4.048003950509361 0.0
9.378043599351757 3.952631412328806 0.0
9.289691247910705 8.890746792319852 0.0
9.228148443138926 9.030109127390128 0.0
4.440757888677695 6.389562448928118 0.0
4.689874463978985 6.239329075084555 0.0
4.291519540095677 2.622920583112654 0.0
3.886073352912894 2.632778677714434 0.0
9.344015622314338 1.202401041544343 0.0
8.193292196814806 3.849649660906171 0.0
6.960946604527747 6.07044529864598 0.0
9.347708267319902 8.756364147482309 0.0
6.826423138602714 3.261415861395883 0.0
6.06309517882478 5.884563187328262 0.0
9.4085057714426 7.414123963607981 0.0
9.356416821537886 7.532359471354527 0.0
5.042074134251055 6.938947182785697 0.0
5.063988238156824 7.311205832605263 0.0
3.946666851334923 3.30681624613374 0.0
8.189857914071878 1.939951128540477 0.0
7.880690277686857 1.38928908049477 0.0
7.63766396748483 1.399736360041063 0.0
9.345004233592562 1.857695941115052 0.0
9.440465164139875 7.085860901905448 0.0
7.918332480761888 5.744468010879592 0.0
9.08007135068879 5.372457017512481 0.0
8.78639561093144 3.718391405525285 0.0
9.356843485085705 0.9414458825132457 0.0
9.29705128845331 0.8103081541678832 0.0
9.251825423225316 2.451701826351773 0.0
8.483895366325516 6.270717564685176 0.0
8.346386886249478 6.275973306650227 0.0
9.493299170161215 4.138582531223591 0.0
5.321115649032961 7.117073603021904 0.0
5.354076009109965 7.436189411362466 0.0
5.597984079819928 7.254284331170681 0.0
5.644042313435943 7.564172740776336 0.0
5.383963016128051 7.753854027984002 0.0
5.681168258142109 7.880444993178456 0.0
5.935548099874979 7.687258900444162 0.0
5.979508404301389 7.994332725561488 0.0
6.21936843555201 7.802335560754011 0.0
6.267092590637372 8.104873033518185 0.0
6.498845418385807 7.917606504106031 0.0
6.544600005636809 8.209910620392591 0.0
6.77336078689533 8.027284686082275 0.0
6.814840179123049 8.311778392637773 0.0
6.721304148677048 7.737863326704131 0.0
7.031320924898797 8.1335673274533 0.0
7.077388928622946 8.403901803728003 0.0
5.417471987089176 8.090112295667405 0.0
8.845427688507666 2.446352368201366 0.0
9.318512319918124 2.339233739859646 0.0
9.380241452597096 2.451895615249572 0.0
7.283805558009199 8.237518806365102 0.0
7.329200330160381 8.497045124353782 0.0
7.233272584416691 7.991590926766813 0.0
9.142592248414191 5.471315142785471 0.0
9.196303265878848 5.36738298742727 0.0
9.25795832955665 5.465260877691205 0.0
9.310581303233182 5.36341558704714 0.0
9.371094700882272 5.459458038195667 0.0
9.422767107822985 5.360687090455724 0.0
9.36402660964156 5.264821436196721 0.0
9.474220736978928 5.262802348886269 0.0
9.41680330511366 5.169477108906666 0.0
5.168675939028436 4.895496152382537 0.0
9.482591449057548 5.454699312257291 0.0
9.431567605310825 5.552723344040521 0.0
7.531449703396948 4.741663470323411 0.0
8.517293123442691 4.672601123164268 0.0
8.459978676626639 4.778466809901586 0.0
8.396595115309985 4.67568709170855 0.0
8.338966609235166 4.782101664607259 0.0
8.275355646032752 4.678829956447008 0.0
8.217675280223542 4.785699596769931 0.0
8.28149024865807 4.888803783902183 0.0
8.16019781596952 4.892696417098926 0.0
8.22433278506531 4.995725219088695 0.0
8.102825704443651 4.999629142625341 0.0
8.166887930010795 5.098242831115916 0.0
8.034904900788316 4.896825406879729 0.0
8.15353539905931 4.682103688185489 0.0
8.211891449058882 4.574219757233394 0.0
8.290305306104333 5.094007100958221 0.0
8.225684228618732 5.201525567655179 0.0
9.444618942559746 2.343141375196729 0.0
6.929446520625337 4.868116916840016 0.0
5.737810725167649 4.893891407574175 0.0
8.720389971487277 5.38508368411851 0.0
8.805734920311323 8.951818172412821 0.0
8.905272694453211 9.083303226359831 0.0
6.006155038818204 5.171375272745409 0.0
6.431496448228514 5.152985998213245 0.0
9.052675024457304 7.106590131831544 0.0
7.740007013494393 6.09727525827826 0.0
9.375852260355511 9.013078430361404 0.0
9.32035844773103 9.14584923943073 0.0
6.989707597683965 5.146377438798643 0.0
9.488190206836386 3.951168069367155 0.0
9.432429152094464 3.855725756072153 0.0
5.568386402814275 5.185723849666124 0.0
9.525561551078322 5.166162126187324 0.0
9.465026391994275 5.072601962964018 0.0
9.320357339516937 3.857795423728873 0.0
9.375955927831914 3.759314274140895 0.0
9.261783786753899 3.761412578759438 0.0
9.31820665563318 3.661845422072752 0.0
9.431798673168924 3.660830894813109 0.0
9.374584413615914 3.563138564686839 0.0
9.48759661134647 3.562294297118573 0.0
9.431339678707085 3.464016717943268 0.0
9.417896212887529 1.746970678437863 0.0
8.731705369070733 9.110902182838881 0.0
5.652297951447118 6.21188565774667 0.0
5.569122518069258 6.024400786163834 0.0
8.257007204149394 3.505875091031567 0.0
8.717428603143034 2.925525757227976 0.0
6.882852832747376 8.57686572931064 0.0
6.337330066435714 8.416819098143066 0.0
9.50188906539997 4.521022403818629 0.0
9.453500859905136 4.617181635748691 0.0
9.46806769570129 6.749352117850711 0.0
8.836822104875719 1.72282859852854 0.0
7.481071063421426 5.64593758994851 0.0
5.668814988976305 5.86611128457842 0.0
5.487644760735084 5.847591822776978 0.0
8.993992818065195 7.228173913870249 0.0
7.98322414937693 7.229980191466666 0.0
9.22810751684646 7.54864871395298 0.0
9.304103360459063 7.654622011545798 0.0
9.432787371848761 7.633691049023619 0.0
9.382619818023882 7.759136995934441 0.0
7.239096822516492 4.679179578301165 0.0
9.47692479956498 1.861231395362419 0.0
8.041243110813022 5.095895152648969 0.0
6.190208781188077 7.509864122823853 0.0
9.283062812782122 4.549418667685757 0.0
9.503847665760087 2.450295046295932 0.0
9.443345385250678 2.557904120404248 0.0
9.52009568463353 6.644015937008899 0.0
9.203119005973903 3.662458522935253 0.0
8.406198651282708 5.92630414760378 0.0
8.467263597743843 5.811987729136874 0.0
9.461423029059445 9.128120577356565 0.0
9.408445330070542 9.26024300250086 0.0
9.266505293379728 9.277952925446408 0.0
4.14874709022218 3.631681332690154 0.0
9.437448107949258 0.8198473430736303 0.0
9.376993771693973 0.6910550697058979 0.0
9.22882356848217 0.6931820370818127 0.0
4.451823867195988 6.103664366188579 0.0
4.200031743909027 6.232039028149317 0.0
4.687154754667774 5.975132870483986 0.0
6.268889397098538 6.592235545990395 0.0
7.509366161722768 8.340075462391164 0.0
7.564775703413765 8.59800936579159 0.0
9.542148732924264 3.854614593058991 0.0
7.036231103929761 6.550562550831048 0.0
4.089373665437328 2.268193930262139 0.0
3.642558884866483 2.250386188148396 0.0
3.442182385618804 2.651948803899947 0.0
3.146832503011753 2.222630466765926 0.0
2.948870467975985 2.805088883766417 0.0
9.352005315330274 5.067356449300542 0.0
9.31729677031493 3.462944187594675 0.0
9.37428383619102 3.365546369736205 0.0
9.4883538239391 3.365384871181599 0.0
9.432147665178338 3.267287636377487 0.0
9.25034519267688 7.775848812012313 0.0
9.332091350002502 7.881724023243533 0.0
9.462101000264603 7.86490055671988 0.0
9.413353271651825 7.98561007219363 0.0
8.273592814723814 6.158623919352561 0.0
8.207135014732339 6.280394934566054 0.0
9.541483811580331 5.548224291759592 0.0
9.491365919893726 5.644847811894615 0.0
8.088095771120983 4.577581369371366 0.0
8.14760102783746 4.468303741922308 0.0
9.556217963323956 4.414867468889523 0.0
9.543667331547693 3.266908751519594 0.0
9.489307652535885 3.169908976697059 0.0
9.26285575842982 8.635341362685686 0.0
9.403220742003983 8.621447866627538 0.0
9.326013417886902 8.506778946171965 0.0
9.455477927154853 8.503896705359047 0.0
9.566646674069602 4.611465258087684 0.0
9.499341049870914 0.9352184973273918 0.0
8.683891958597638 1.444705608998412 0.0
8.599973456173778 1.287265568270043 0.0
7.760988189317371 1.175381292562583 0.0
7.50927661322749 1.171223823957793 0.0
7.380927152434357 1.411062577009695 0.0
7.242417847270241 1.170759311509981 0.0
7.107236746116019 1.421234419770886 0.0
6.960799033544566 1.169618322344823 0.0
6.817786081200392 1.434174581170586 0.0
9.48095050141868 8.738557748483624 0.0
9.319762046171894 3.263060331456388 0.0
8.920653400180534 7.117307656029475 0.0
9.452431221190624 6.544166520883111 0.0
9.571407933653493 6.540336592280795 0.0
9.507586285214174 6.443281357841339 0.0
9.575252974749443 5.070210512157044 0.0
5.755172844377253 6.370710487467459 0.0
9.541351959064952 7.969072511059531 0.0
9.354607289792183 9.3921968735401 0.0
9.495213435762107 9.37218405175897 0.0
3.77688136092967 3.643094492921176 0.0
5.460967180339239 6.159077196937325 0.0
8.656589552918996 5.283032675040985 0.0
8.599307076390474 5.387421722684671 0.0
9.584017606465821 5.263931993965828 0.0
9.51536593891754 4.977534386249715 0.0
7.788544970111893 2.70578432810479 0.0
7.381746833264364 8.755477463411431 0.0
7.615969996822885 8.852710176548548 0.0
7.783643411970649 8.691528137204457 0.0
7.845017394185501 8.938777577473743 0.0
8.570520580943368 7.342304222498308 0.0
9.103648004226827 5.781084627507008 0.0
8.338082930126799 5.815990105349368 0.0
8.930848895071895 4.561111316304916 0.0
7.381089602119859 5.983657236035151 0.0
8.42066837692862 6.393608568217351 0.0
8.888256157021065 6.459558428285236 0.0
8.826495664731354 6.575679897210801 0.0
4.22522220414496 5.921354747981145 0.0
3.943296448343383 6.075578573904587 0.0
9.563175937841836 2.554860696349795 0.0
9.505342423182917 2.656889632284623 0.0
6.660863480070611 1.168750929063519 0.0
6.518316961679488 1.436478598119306 0.0
6.683474168246802 1.694104067636375 0.0
6.376799057174731 1.707382100972048 0.0
6.205091481342603 1.443621641108414 0.0
6.058670988071357 1.728841803855816 0.0
5.877457486049096 1.454297236926778 0.0
5.724979192982589 1.756666409586195 0.0
5.529885788012015 1.462283739157555 0.0
9.514953777019835 0.7018468683209754 0.0
8.398665270372675 5.702731562702358 0.0
9.456442249775696 0.5772068858285652 0.0
9.565795671866349 2.345573662774494 0.0
8.830758563027459 9.247271599108435 0.0
8.523580738257648 4.88015211128435 0.0
5.580123316488715 5.701889892660689 0.0
5.398591029446707 5.685938459654249 0.0
5.367686360823392 1.778740548277203 0.0
9.546603444041448 1.754984055696778 0.0
9.489649223089446 1.641312329051244 0.0
9.617973952467912 3.363804764345866 0.0
9.584322830999731 6.729956156156573 0.0
9.597221861144487 3.948534024289882 0.0
9.49401963819799 8.089507968561776 0.0
9.207321074262563 9.416906871900888 0.0
8.27185428346661 4.464932191097996 0.0
8.207416067213774 4.35878753684812 0.0
8.332747746635944 4.354903699457511 0.0
3.990181919126853 3.930792395858886 0.0
8.267392138262498 4.254008221702929 0.0
7.997788712685495 1.196805377512679 0.0
9.600316638269724 5.639973985281733 0.0
9.550939606739425 5.737313319038155 0.0
9.44084303195315 5.74233753256161 0.0
9.50112296154558 5.834555019909565 0.0
8.897429225733994 6.685415510921676 0.0
8.762930941408914 6.695907295903629 0.0
8.654628175336732 9.278157371342388 0.0
8.544676900803436 9.133790942553834 0.0
5.294904777716057 5.855935872688884 0.0
5.216749389964556 5.66865685845661 0.0
9.508453581298625 2.239460033375932 0.0
9.599691370793206 3.169496930704394 0.0
9.546615051106684 3.073514534194011 0.0
7.484714626923596 5.028675123117963 0.0
9.588496050271255 7.850836295555126 0.0
5.153197381012662 1.471340286561097 0.0
9.433168304679345 3.071871997104804 0.0
9.610464706874994 5.829217654498672 0.0
9.561407772947403 5.926179534044419 0.0
8.273381980676042 5.705233340662362 0.0
8.330794188929296 5.594351887246082 0.0
8.207319603076424 5.596747949305344 0.0
7.251338559467102 5.233758892662348 0.0
8.708518799790543 1.130513882092466 0.0
9.590155250193266 0.5878623138195824 0.0
9.389919385420015 5.841079912164009 0.0
7.991397852194216 5.859910582924319 0.0
9.624951589233206 4.975554514425905 0.0
7.240016788025947 2.531866266726309 0.0
7.635666783493215 3.873554782053258 0.0
9.608476620993713 1.863530872936442 0.0
9.365330459496413 8.10677840682376 0.0
8.775076110585598 2.572737931759856 0.0
8.699389445914996 2.444602334375113 0.0
8.625078713232146 2.580891022578613 0.0
8.54447196848446 2.447624719286678 0.0
8.468898498943965 2.586757328881282 0.0
8.62282309213608 2.307826916202421 0.0
9.622102662978762 6.439307895185218 0.0
9.561995355724862 6.35103962032292 0.0
3.898245450818314 1.856155797593496 0.0
9.681759177700954 5.07069253017652 0.0
9.059254996454502 4.963357716933865 0.0
9.113144532326562 4.861710138088372 0.0
9.62140874877204 2.656009146517733 0.0
7.884510615470827 0.9666888912541309 0.0
8.14902661050739 1.005010215149227 0.0
8.491263206618079 8.527197931363634 0.0
8.408859203395778 8.697060715788105 0.0
6.54422152733529 1.954566069381189 0.0
9.563546573097593 2.755667904356369 0.0
9.453065492925557 2.761122255953964 0.0
9.676889098520615 2.755084315170127 0.0
9.678287124781653 2.556838324720633 0.0
2.60254317790297 2.278874965850319 0.0
9.211706272534968 4.050470567310489 0.0
8.526711683538949 5.698821878547752 0.0
8.296604023060945 8.533761944401608 0.0
9.649704314258118 5.543946557831669 0.0
9.651176136337964 3.85122804518279 0.0
9.44590154800397 9.498503704959054 0.0
9.580491248736612 9.476376347552954 0.0
4.3239388803087 3.921156392977062 0.0
9.65737873521736 3.075324100817917 0.0
8.128000846282253 6.160273991836929 0.0
8.06242981852327 6.292371360998262 0.0
8.500465019503922 1.442700595221201 0.0
9.615253212967009 1.649819368149096 0.0
9.561768620580791 1.538553925606111 0.0
9.435477757657937 1.527391516499924 0.0
9.627993450010088 2.242685831452484 0.0
9.5338252733548 0.4673994795805215 0.0
9.398055066504014 0.4589059948533885 0.0
9.669486082509058 5.920177035588319 0.0
9.621072177439727 6.016493814615133 0.0
9.506185962103057 6.018397021409126 0.0
9.196884440497488 7.898824858961557 0.0
9.112591143666748 7.789491461180181 0.0
9.664357762385308 7.950712034233033 0.0
8.46233617997115 2.308903464128035 0.0
8.547917980328803 2.169381684694277 0.0
8.139931430059324 6.410762600521521 0.0
7.672499127532963 9.099143622036436 0.0
7.91372855627271 9.178704612763656 0.0
8.463425076318451 9.290653726808348 0.0
9.643938029094286 9.335632419679458 0.0
9.647017668702574 0.7068996148634754 0.0
6.241662276606473 5.884018212993202 0.0
6.157742245066693 5.73500474100449 0.0
6.318815619949124 5.730068085823802 0.0
6.247706374231452 5.593094310939028 0.0
6.406948541886973 5.593272398468375 0.0
6.092564106310554 5.587409338401505 0.0
8.535507922245372 5.286142900439676 0.0
8.022959839404006 4.471630490587016 0.0
7.963561162854596 4.581393556789843 0.0
9.683487139413305 1.546750704925431 0.0
9.630761777960082 1.435922217091829 0.0
5.121714348989337 7.950140247572198 0.0
5.136464096196084 8.310254432483559 0.0
5.47349124035624 8.455234262268478 0.0
5.176273618280354 8.687190323573228 0.0
4.796664658962938 8.592678692862421 0.0
9.568705729418735 4.887269869750176 0.0
9.462711651199594 4.88832222094458 0.0
9.674903475028225 4.882285174433025 0.0
5.4996067353406 5.546583260717527 0.0
5.663632234555963 5.557613452957074 0.0
6.829408195405585 1.947174574944512 0.0
5.336529198289861 1.127585641139875 0.0
9.672387559812332 6.34138351957329 0.0
4.463988917379896 2.271060678869338 0.0
8.618048281355405 6.263841736419089 0.0
6.480949808711781 5.74815588680617 0.0
6.562207427719153 5.592185077216444 0.0
6.643040463857446 5.721233693378952 0.0
6.712825900331884 5.588664360236 0.0
6.79240375630333 5.711383948285569 0.0
6.86115931532141 5.584697050428064 0.0
6.939210100691576 5.704407337029545 0.0
7.007668476576536 5.580801046893123 0.0
7.084627386867475 5.702817970154801 0.0
6.633257976075473 5.460881327825488 0.0
6.931430743764456 5.461960451448691 0.0
9.682652370938209 6.533133024505995 0.0
8.761108695241376 9.450742747770144 0.0
9.146031326900015 3.764292700000154 0.0
9.089378801805193 3.661317181076136 0.0
9.514354521818781 8.994988681611192 0.0
8.157650730500988 4.262987189670279 0.0
6.329633198899328 5.4647789391701 0.0
2.340685767996258 2.811285337457589 0.0
7.379572471323651 0.9290892725587991 0.0
4.171878172186605 4.222320767259098 0.0
4.4876601621649 4.16473354200826 0.0
5.336389369563535 6.806464508860387 0.0
9.595468321212476 9.108133206829102 0.0
9.645038675267227 8.982113951305912 0.0
8.393140678816192 4.246338342095281 0.0
8.309440721624494 4.155300532283633 0.0
9.418269339704423 1.9925512363779 0.0
9.662781807969623 0.477809346089035 0.0
8.011297869803792 0.7518828483803571 0.0
8.250149975885678 0.7646904662196189 0.0
9.608674873602773 0.3618049194050078 0.0
8.692696069692623 6.582927327365709 0.0
8.628225948401226 6.705702462696891 0.0
8.701883181418305 6.822086652299242 0.0
8.559276855155542 6.829564723911442 0.0
7.069268463354993 5.459534423493629 0.0
2.654575201159115 3.323490466195074 0.0
3.610801136544596 4.044075244426243 0.0
8.263757217166944 5.48730323490738 0.0
8.138838162809126 5.491254533497952 0.0
7.90196833683664 4.477386962763833 0.0
7.987943097943191 3.978756490171551 0.0
9.704623491880403 3.945605151832784 0.0
9.461009573830147 7.301728818091931 0.0
9.532468631193666 7.399916015174975 0.0
9.582688928417856 7.292330983701011 0.0
9.652579613269625 7.387768793572397 0.0
9.699264016151023 7.282867433965265 0.0
9.633305589700536 7.188543855060478 0.0
9.505576100168666 6.961225778216469 0.0
9.43876966151099 6.342441564206569 0.0
4.908483672172518 6.098703904450545 0.0
9.135448256237908 5.269827196966999 0.0
5.905650502271389 2.025036080946255 0.0
9.709890722072377 9.452748507541063 0.0
9.663337613522643 9.572126259365891 0.0
9.603900123387826 7.495180532331903 0.0
9.720147629525837 7.483400774981126 0.0
9.674588415444239 7.588303295299578 0.0
9.653186673863587 4.039274180923234 0.0
9.053164539680804 4.764545162185531 0.0
9.164908495749003 4.763017269285045 0.0
9.226019227262443 4.858029410614327 0.0
8.809947621994619 3.4964384919072 0.0
9.10538997155458 4.665865142902959 0.0
9.331074106432244 5.748993480915537 0.0
9.055854333858068 7.918554535314415 0.0
9.446431573964945 8.209836764658437 0.0
9.573844810886287 8.191100251691205 0.0
9.309704769895653 8.244395007943949 0.0
7.240329561730736 1.676197957122907 0.0
9.543389817573933 3.660019800390455 0.0
9.598599341122098 3.563130123982772 0.0
9.652615161407017 3.658119804270645 0.0
9.706336063693934 3.564815526226687 0.0
8.632284427755456 6.946688912416058 0.0
9.682863230715835 2.349655023034811 0.0
9.571538455120994 2.142369886250143 0.0
8.090821900439733 9.017409120951333 0.0
6.812258669899192 0.9007667548831626 0.0
6.50135254578461 0.8974046495177885 0.0
9.598335906230732 6.246437748035812 0.0
9.719677442549804 6.253968775436637 0.0
8.593026822691716 5.180101360605356 0.0
5.537586126848265 8.836083861509138 0.0
9.688689404995035 2.143487155934306 0.0
2.821389253975936 6.507820864074362 0.0
9.176571289960709 8.507736431357309 0.0
2.918303740542162 8.256728920338826 0.0
3.428955230180972 8.401446814887457 0.0
8.490587404589881 6.715350139132777 0.0
8.86049054904785 7.243279881821806 0.0
8.93696309213556 7.356650230611625 0.0
3.951931175165697 5.78308550088855 0.0
3.65055612573298 5.91672400098539 0.0
3.668142216548471 6.247526235973777 0.0
9.717269848920886 5.821831227352286 0.0
9.708364917734201 3.164198601626433 0.0
8.45581975650687 4.569560863828342 0.0
8.204448312099833 6.040774355519757 0.0
8.65969449127868 5.485991799508151 0.0
9.707534571012967 5.634423933296901 0.0
9.62102991883279 2.849662850313935 0.0
9.144093558002634 3.560383427867003 0.0
8.29763273805118 1.77155302934031 0.0
5.280452715709455 9.01633391004168 0.0
8.984558945859158 6.99932633710603 0.0
8.4157550875812 1.275784953143711 0.0
2.068078118650995 3.355462780535101 0.0
9.205703884756806 5.568274778556933 0.0
9.745857863753141 7.178456670302003 0.0
9.681628895748586 7.081494416756802 0.0
8.875818787971069 6.240744812097083 0.0
7.993733797566922 6.414830952863579 0.0
8.462810157069566 3.377071044664789 0.0
9.29428363519789 4.759591981903337 0.0
7.933956818298286 5.97437536746848 0.0
9.028281726378319 3.558713145763133 0.0
9.083461773461467 3.455531762175701 0.0
9.73231939683535 2.849247643393067 0.0
6.70072305037728 2.192432536215492 0.0
6.423245125077639 2.212870246546939 0.0
4.931537051605536 1.135086496804522 0.0
4.746426561586179 1.500381091957315 0.0
9.707706579932626 7.836419656220658 0.0
8.590593344701457 1.595639668013959 0.0
8.708946574109854 2.1688179918246 0.0
8.634728854549891 2.028564483452208 0.0
9.230357659411311 8.129337203173913 0.0
9.102841374461482 4.452881308250647 0.0
8.472081531214734 5.388993924853032 0.0
4.925996806199801 5.844046944846857 0.0
4.702806345752284 5.745688656289065 0.0
4.884357002239844 5.633237011762874 0.0
4.709628434300812 5.536404116679045 0.0
4.530800966746534 5.627044171217377 0.0
6.040296145349247 6.603808099703576 0.0
6.162203578696918 6.795213950202512 0.0
5.923135943221574 6.824060069869489 0.0
6.046693245732212 7.010423490915212 0.0
6.297337598588478 6.979895528204233 0.0
7.760448385794147 0.7294020304851334 0.0
8.492228348169641 6.958778476405878 0.0
2.89219822877093 1.704113597264478 0.0
2.26178643438086 1.7814602252425 0.0
9.726968895980871 6.009547057102511 0.0
6.63195110828313 0.6072886418835157 0.0
7.984023036954866 7.515675826210831 0.0
7.893857204140559 7.681876703427663 0.0
7.778465117872411 7.537836322197895 0.0
7.998204230811618 7.844922503023499 0.0
7.798554315988981 7.858161805718108 0.0
7.917846202023782 8.03040048103727 0.0
8.547520504556728 2.721261126162116 0.0
8.39253850806587 2.732073315877738 0.0
8.306047241032278 2.59069854402512 0.0
8.233011054235162 2.739783364361515 0.0
8.318836035587811 2.879838477099622 0.0
8.159530874574331 2.888511553151382 0.0
8.245490421394788 3.024568439743106 0.0
9.759103003747676 3.077839427881478 0.0
8.083610090773394 3.033523757291178 0.0
8.174562583800352 3.166768504406541 0.0
6.046769434852523 1.155662270344939 0.0
6.968371001421964 2.176347877216873 0.0
8.324858098380334 3.152966249334499 0.0
8.145556596142626 2.609897633546475 0.0
8.970652052821418 7.804556541250797 0.0
9.033737629244714 7.681328986528639 0.0
9.62347010002576 4.796939565664328 0.0
9.72520380348743 4.790261082613535 0.0
4.882631186210167 5.455006233451049 0.0
4.618356368594037 3.933076284395493 0.0
4.748083507220199 4.151025177732873 0.0
4.641724290430313 4.358202249373887 0.0
4.87055838101999 4.337900676660481 0.0
4.974114446887331 4.149149057174687 0.0
5.081577844806959 4.3240148266423 0.0
5.179521650033781 4.148725180298481 0.0
5.276261408871418 4.316673822529601 0.0
5.369189110897883 4.148362797753505 0.0
5.463892033849439 4.338819369807593 0.0
5.550828466075906 4.146274465971151 0.0
5.646554822352869 4.303571429647391 0.0
5.728109623160046 4.138582010823754 0.0
5.821689108984419 4.291959598724587 0.0
5.906082534948073 4.141649907302701 0.0
5.99655838673762 4.288752711512514 0.0
6.077312859438928 4.141011188943332 0.0
6.164215275138099 4.281164574562373 0.0
6.241782344986693 4.140701084167517 0.0
6.324316420613108 4.277393447415522 0.0
6.40284165425941 4.140026953305852 0.0
6.483655157361099 4.273418937894759 0.0
6.561170698911611 4.136221843106807 0.0
6.63512300179586 4.269917278694155 0.0
6.720306110251473 4.133393659385058 0.0
6.63777078218551 3.99617001426095 0.0
6.802492763973074 3.994355399489989 0.0
6.798834760478153 4.276914787769972 0.0
6.15377608509923 4.000134206628027 0.0
6.548727135071258 4.400510710520637 0.0
6.251479300130713 4.421887359316258 0.0
5.275876048175579 3.979624500657822 0.0
5.910905077162284 4.431174408784691 0.0
6.717070288412452 3.851239795555301 0.0
6.883499045994213 3.852555480300214 0.0
6.96664848901999 3.994033961856844 0.0
7.048208567116626 3.854750001965969 0.0
5.810004974283072 3.982497501655442 0.0
5.586615391658107 4.471070246359201 0.0
6.547331954052155 3.853872077215347 0.0
5.179081233207816 4.485638492900557 0.0
7.126615227065496 3.995337770596979 0.0
7.209459742762513 3.856893463870469 0.0
7.130226097876905 3.713620439679428 0.0
6.63075064074106 3.699684148676045 0.0
6.446985573861992 3.697358756862005 0.0
7.043151422977365 4.131713936060725 0.0
7.198322215260019 4.129850614748363 0.0
7.119378405252723 4.26005098890218 0.0
4.797146270976422 4.525762781577414 0.0
4.608329098388589 4.573584257851931 0.0
7.294442092743627 3.720853338661503 0.0
7.215753312764997 3.571378507508807 0.0
7.049631633956289 3.568047985538775 0.0
7.133765707749521 3.414282375958479 0.0
9.755079417839903 5.539705890434435 0.0
9.698955703441971 5.450920012703194 0.0
9.717604099406742 9.09084770432896 0.0
9.276716006673976 5.847248422342224 0.0
9.339081208926798 5.941174203394446 0.0
9.031261921742963 3.750271483819014 0.0
9.08721978689863 3.853416037308712 0.0
4.801461566647803 7.510704110489921 0.0
8.206553504932042 5.818005960412773 0.0
7.362361315389098 3.863102442315545 0.0
9.492826845316191 2.963845037486267 0.0
9.376710375304633 2.97229517374228 0.0
9.3192743723601 3.070687802230453 0.0
7.915389082113898 6.293241865913004 0.0
6.735006382384437 5.832450056405368 0.0
8.456481836836168 4.35369289249905 0.0
8.517718268476031 4.246675068616396 0.0
5.583512022030555 5.411069060406398 0.0
5.73625200174779 5.422617752052123 0.0
5.81006929286229 5.548584937688919 0.0
5.903438861894402 5.420604003204523 0.0
5.43801870974416 5.402925156167655 0.0
7.022641548594327 5.825217331839047 0.0
7.165095795605366 5.826005223633447 0.0
7.223078558430726 5.690146755650336 0.0
7.841396000338385 4.586693006493787 0.0
7.904793170875705 4.690826189066096 0.0
7.785999820520073 4.696719777099973 0.0
7.846448506395101 4.798518978096564 0.0
7.728149182067156 4.803800941124008 0.0
7.788983823826226 4.904802634695232 0.0
7.672018889153144 4.910077510508749 0.0
7.731996012352178 5.014717724244488 0.0
7.852072803124419 5.00743796185411 0.0
7.779278698005006 5.118909346425974 0.0
8.088113864063853 5.605434545811022 0.0
8.016457362785575 5.494849890158723 0.0
8.072290383394757 5.385594956317259 0.0
7.95068657972964 5.38825563681957 0.0
8.309366678475389 1.438342408757099 0.0
9.748160780780179 1.447794693754379 0.0
9.696454228162398 1.337889922375316 0.0
9.568813761940916 1.329560834053294 0.0
9.638326779791626 1.226729570935787 0.0
8.472132467407484 5.182856496818138 0.0
8.066211547412054 6.53691730655352 0.0
8.217035586462373 6.522976700918602 0.0
3.544839338670893 3.324491119989469 0.0
6.999740002965287 5.347729916247808 0.0
6.874544698914502 5.347027470386579 0.0
4.880451234715014 5.193043717957879 0.0
9.104510033763066 9.313204713465637 0.0
9.0466357104558 9.45359399494339 0.0
9.146803165140184 9.569652364413551 0.0
8.134107047896672 0.5527712356100052 0.0
8.369770412730738 0.5571215815175228 0.0
8.47386979744655 0.7564607169846485 0.0
8.585193608569258 0.5749174254532757 0.0
8.683868132726584 0.75505070091701 0.0
8.787381435061018 0.5813987798627239 0.0
8.697570280442534 0.3771156480326233 0.0
8.530048434259976 5.077280516000916 0.0
7.995091351438729 2.90367515012593 0.0
9.731083608815164 1.662638626153251 0.0
7.260488865351954 4.255073962371814 0.0
9.760728358076392 8.990038509880067 0.0
9.716710396257366 8.884160310398862 0.0
8.794627466210242 7.369659405098349 0.0
8.868068657550866 7.515048014893154 0.0
8.702594597629135 7.510501129643432 0.0
5.132320689147051 0.7610757801158905 0.0
9.755852887652699 3.853180024615871 0.0
9.787424819067885 2.757921105725315 0.0
9.731193479931608 0.3736343090103709 0.0
9.796526908308536 0.489684029254899 0.0
8.226019692057042 2.453349105940535 0.0
4.560989821496479 5.428206018250252 0.0
4.348810639659689 5.517048281386008 0.0
8.785190163106925 7.119142251269924 0.0
9.015515413043023 7.464769766852701 0.0
9.754861440190705 3.659036930324926 0.0
9.7543610723378 4.033687839160082 0.0
9.707881226943384 4.127219992296752 0.0
9.52841017383273 8.309020665649431 0.0
9.65186044414544 8.289498614805698 0.0
9.714051275521857 8.173576484362068 0.0
8.209758892476394 8.715513071423135 0.0
8.097084883671858 8.548851201381087 0.0
8.177989947800599 8.367872862579052 0.0
7.974142434808908 8.36779470623567 0.0
8.409012054919861 2.142624252464372 0.0
7.707002321497132 8.039129945341395 0.0
7.574653123518228 7.83895791570255 0.0
9.229858094382692 5.951357214361815 0.0
9.75307989876696 1.229893222503321 0.0
9.715811155868643 1.128779429890018 0.0
9.597960915003707 1.117058287635912 0.0
9.672063923518955 1.020806103150243 0.0
8.99090422125785 9.593878510105375 0.0
8.133165456134304 9.257620998029804 0.0
7.976779931497633 9.420725324095141 0.0
9.77231778617502 7.927819487779705 0.0
7.957213679655531 4.364530256281665 0.0
9.609903116082736 8.403725680286847 0.0
9.724891358972584 8.388392708395173 0.0
9.687487059868507 8.495935345161797 0.0
9.810055520269009 8.494090598382963 0.0
9.755967487162335 8.599790818513082 0.0
9.645698986824481 8.606121319182705 0.0
9.721376049217765 8.699989876681524 0.0
9.773009257015609 4.884557953188837 0.0
9.830105798750992 4.796546393900876 0.0
9.775335108731761 4.686093304257503 0.0
7.455611517737074 3.730099283949135 0.0
8.906943567829634 0.4197477661467797 0.0
8.980613334153533 0.5814185917581446 0.0
9.081059111759728 0.4263421860552371 0.0
9.821654809259165 3.576985724143072 0.0
9.761309244784803 3.4792267780002 0.0
9.763329553045937 9.353068233045157 0.0
4.463051839136694 1.164440352584939 0.0
8.0213168204867 5.283436382300235 0.0
7.89385412333227 5.290429544753158 0.0
5.806940001023414 8.583716119232427 0.0
5.88977793877374 8.96065112858812 0.0
9.177759062826041 8.25539130897928 0.0
9.626582559276994 2.05283181283147 0.0
9.747673294325121 2.064954301745188 0.0
8.775905508647185 6.951821187702613 0.0
2.3581644273991 6.029034686663493 0.0
9.777798009058461 9.548066962498762 0.0
9.737129197219856 9.662299853506903 0.0
9.615080366030512 9.683349544763068 0.0
3.315839678697904 6.042943273456425 0.0
8.915083018115329 7.937748428923896 0.0
9.489832173860055 4.712364754630572 0.0
8.118313727862493 8.013944064029838 0.0
8.902248750797776 7.67372145952523 0.0
8.954075939212636 3.463080912810881 0.0
9.45247551997678 2.133243108303608 0.0
8.311151553157742 8.899233004613622 0.0
3.28672004268868 6.826745674539142 0.0
9.86008383798735 3.468233656255824 0.0
8.389990589860254 1.947086063498656 0.0
7.144231739553659 5.329544660076687 0.0
9.654500729007207 7.743301971143119 0.0
9.761920842881946 7.740144345898896 0.0
9.692820773976567 0.2651585113981998 0.0
9.690951720399688 6.100517071814821 0.0
9.775704281989471 6.077882312279847 0.0
9.823117117198079 4.115168542267924 0.0
9.764391943581737 4.214465954230587 0.0
9.659455011849253 4.218716850797838 0.0
9.713462125022623 4.30742830316693 0.0
9.849638067150842 4.208845651573708 0.0
6.376241713254513 3.858766051594979 0.0
6.274931849158213 3.701528298009006 0.0
7.097780104117746 1.926449727602711 0.0
2.457742027508782 3.810157622192786 0.0
2.963634206580268 3.740748099915693 0.0
5.065585416063965 5.544355730437482 0.0
9.783560252464587 7.566507987677117 0.0
9.825819294611026 7.470942204664841 0.0
9.799976114123012 1.01659516618323 0.0
9.745559590633832 0.9150866860898854 0.0
8.20473400632469 9.495828670767946 0.0
8.784586030320169 2.054461500762216 0.0
8.758471587067168 1.888286802854785 0.0
0.9188935087347281 8.510730800272478 0.0
9.674192026048217 9.20389587377276 0.0
9.796314981283475 9.185916994648775 0.0
7.206882433199502 5.452024361489832 0.0
9.773927048949279 6.334665846819535 0.0
9.830288393591173 6.225300227041885 0.0
8.25177349297509 3.282767705830209 0.0
8.099233469407428 3.304040153764131 0.0
9.607860512870598 4.315652630490023 0.0
9.403674738018715 8.367349042046314 0.0
7.611756786273919 5.018691202305147 0.0
7.549513964643336 4.923310232561835 0.0
9.80986724662116 0.2915868356190958 0.0
0.7757562810577034 3.504187313079081 0.0
7.659562100664981 4.698467529240196 0.0
6.539424975891206 3.541729955691742 0.0
6.717348880400739 3.55221857686142 0.0
6.836337579501807 2.417476958454302 0.0
7.096480496160066 5.959124656438389 0.0
7.189742782777612 4.377051328076039 0.0
7.051723187622053 4.38470822973091 0.0
7.125489805519186 4.497018383456762 0.0
6.994915621927777 4.501504591168814 0.0
7.056755276274058 4.607929817497045 0.0
6.932937068803914 4.613249390039674 0.0
6.86629288290367 4.50541343988659 0.0
6.80427099775847 4.617607827251794 0.0
6.739195362053689 4.511124964201849 0.0
6.677260697693361 4.624288827143181 0.0
6.996760608675822 4.711715831373894 0.0
6.316045249462968 0.6456945497683586 0.0
7.321834163850416 5.816449323512759 0.0
7.833101485370825 4.390058096386987 0.0
4.996572652976738 4.498711166259074 0.0
5.112334577457371 4.663858846723513 0.0
5.271923064784868 4.629759173373871 0.0
4.93773508827367 4.668006487116195 0.0
5.348137647919096 4.485934621930562 0.0
5.413454827497575 4.62999925573761 0.0
5.356581113747675 4.770594395332836 0.0
5.013422223730484 4.793321773780133 0.0
8.58674425943957 0.9312335381466886 0.0
8.776450596582496 0.9362399987293505 0.0
4.783496233934828 9.486061758876032 0.0
4.544176394620909 9.034071856445296 0.0
4.082330493623582 9.015765881393772 0.0
9.820867469965414 7.285959215547852 0.0
9.852697883440127 7.166089674802766 0.0
9.260999083164238 2.971390964911171 0.0
9.197701900169713 3.073162109379564 0.0
9.31960210441945 2.867465579641856 0.0
6.660951583415121 3.383363199709994 0.0
5.210469976037585 4.761678854423166 0.0
6.740780285297665 4.733615686805694 0.0
6.611362405615225 4.731958642073806 0.0
6.549091884465382 4.629620704100811 0.0
6.491761716522486 4.733409494449344 0.0
6.425259228542098 4.640546096196947 0.0
9.715556659367534 2.986725573570596 0.0
3.710524324925069 9.463213827486557 0.0
4.768537031214573 4.727001037865238 0.0
5.039413681704655 5.378508462165627 0.0
5.188746429211535 5.440476671296013 0.0
5.172214816037712 5.298914527247826 0.0
4.469063601436893 3.667917323494335 0.0
3.799121596584382 4.741629285988305 0.0
3.661085664896249 4.442847704416992 0.0
3.316563386321876 4.380147387454913 0.0
3.802087298647255 5.26743535640985 0.0
9.738116341343215 8.047178982429934 0.0
9.85106076399546 8.021725551312715 0.0
9.837581050304836 2.844176011307251 0.0
9.664579962075123 4.402853107737106 0.0
9.76433159763034 4.39807801415352 0.0
9.718924973226878 4.487825491046641 0.0
9.826405563645343 4.494594135148365 0.0
4.931068003413168 6.359330991212394 0.0
5.130175746947236 6.201075257041828 0.0
5.143884286052002 6.445382329515047 0.0
4.953395875296406 6.628748468717369 0.0
7.833019185167153 5.400347121613631 0.0
7.766636138801143 5.313240048256084 0.0
9.767038723422333 4.578090619166644 0.0
7.315369355237483 3.441501197259575 0.0
9.556068971301514 0.2347811136726856 0.0
5.733871280791703 4.444861510772459 0.0
5.828809543126846 4.569791247698539 0.0
5.986701526182213 4.562881783985375 0.0
5.912543327921148 4.692966271273211 0.0
6.052130330528581 4.682477327897978 0.0
5.773525984744635 4.697697018456535 0.0
6.121646311546238 4.572302645403103 0.0
6.182349700936326 4.67713231096357 0.0
5.846371383601797 4.808939734754761 0.0
5.117807918383606 5.974361363083184 0.0
6.256132501905665 4.575863546153224 0.0
6.324770064521816 9.645040261272253 0.0
7.345522892050965 4.12581088034536 0.0
9.338523512844539 4.854480276600515 0.0
9.286984287289403 4.959628690044808 0.0
5.676298026114105 4.589279806918992 0.0
5.631257891894775 4.722749088404111 0.0
7.970415275563177 5.621040275419208 0.0
9.565118337557308 7.081391220827488 0.0
9.626201005045262 6.980441083020495 0.0
9.733729506193331 6.979928568877979 0.0
9.684556253529976 6.887102896543928 0.0
9.780785815410074 6.890287441101827 0.0
9.740054813822885 6.794211367612523 0.0
6.462628988057306 7.629921412015864 0.0
6.692564520952154 7.473594130811262 0.0
6.927983108788191 7.570982428592125 0.0
6.899878641134941 7.329306734748538 0.0
7.117542472438434 7.416951094809493 0.0
7.089537168123128 7.186691566729968 0.0
7.296585396514727 7.275888419524222 0.0
6.879678873774065 7.097443005287856 0.0
7.063454637059129 6.967740076426161 0.0
7.329105042924355 7.496317641003757 0.0
6.867084781778411 6.878842928865059 0.0
7.494278796275744 7.351949197351029 0.0
7.462564159480594 7.150140034494138 0.0
7.644835001206406 7.21506678718646 0.0
6.682478929414216 7.008358327294905 0.0
6.449199855715812 7.365660640952548 0.0
7.548139855358765 7.57299228324251 0.0
7.008502809092701 7.844601794812628 0.0
7.371739019901781 7.707688433423657 0.0
5.665345294602155 5.290628720253272 0.0
3.987583013016546 4.486920698115711 0.0
8.893480480320447 0.7785000884179994 0.0
9.715485963651112 0.5955299613117169 0.0
9.761785841543585 0.7048670948649375 0.0
9.670304314877074 4.578896619304786 0.0
8.058509626083154 5.744161686650483 0.0
6.181795443628869 5.462040811515966 0.0
6.256771804808641 5.338464817889848 0.0
6.124070400983443 5.352376180901929 0.0
6.399679261813415 5.349186390888865 0.0
6.477776305607503 5.46505688468465 0.0
6.541624525938461 5.346017118512589 0.0
6.673064575428321 5.339051516933525 0.0
6.599301548842115 5.241958624987057 0.0
9.573774011620444 0.815274945835158 0.0
5.86493292693426 5.877588788523632 0.0
5.552663040119136 6.957487930464628 0.0
5.535080960199246 6.663033131707637 0.0
3.708603689392072 0.5979254716153909 0.0
3.31896983256719 1.188583855309964 0.0
3.895664898001925 1.128137111173669 0.0
6.363360407965353 6.032416442205533 0.0
9.445959758065749 1.070139246426051 0.0
9.50632172780449 1.214052376665338 0.0
9.441030033980638 1.325047485624912 0.0
9.295799464644857 1.341410624832976 0.0
9.184164107767781 1.461677744200096 0.0
6.407191016756832 4.407273313799791 0.0
5.544591888593027 0.7652641669375747 0.0
7.883090151006535 2.497506182548758 0.0
8.073420508370992 2.120510489750234 0.0
5.494822040671399 4.732314720081375 0.0
0.8986976806403217 1.464611451578306 0.0
9.536325549598013 6.83286654168725 0.0
5.972289519322897 5.727532110854501 0.0
9.82203607053145 9.443411729566549 0.0
7.263199949874008 7.064207941227515 0.0
7.233659553805083 6.853135694774254 0.0
9.793310082768443 7.072747972018893 0.0
6.734168931095253 9.67499220075154 0.0
6.941134861034159 9.382328333169653 0.0
7.285822522704258 9.443989747444657 0.0
6.576263515512108 9.333035011158342 0.0
7.160560566479093 9.127732577621245 0.0
6.218711947378506 9.298064908857533 0.0
6.432383355119106 8.980985203293491 0.0
6.795390278360442 9.046043538032663 0.0
8.54677014121837 0.1957422484480979 0.0
8.528696320820908 9.804850950580938 0.0
8.42644965647489 9.604735484095604 0.0
8.010239224104339 9.715048083583248 0.0
8.644359648763341 9.628432815860457 0.0
5.344212921686536 5.526744195650314 0.0
9.760936589662048 7.38409687515441 0.0
9.128187788393989 0.1445485608215519 0.0
9.133307661752394 9.854833215426817 0.0
4.867351616228264 3.944459575003425 0.0
5.905323253270366 7.385600364255367 0.0
5.909045412185362 3.361969954191194 0.0
5.80580919758911 3.569999290452344 0.0
5.578230704221431 3.587842862412673 0.0
6.013352753603037 3.550699073477782 0.0
5.936624955014758 3.721630401607248 0.0
5.735413275357409 3.78528948606432 0.0
5.512538847486775 3.794760621907932 0.0
5.360571639388366 3.618649018042938 0.0
5.134141179590394 3.459385929220745 0.0
6.167399567008798 3.367365990358096 0.0
9.766756262206602 8.291756450136036 0.0
5.486063578307141 9.64505925252771 0.0
9.497624614180321 4.328873442170357 0.0
9.811387324954623 1.570516917365688 0.0
9.389210081887331 4.69150887571586 0.0
9.704395728912932 3.754226393630331 0.0
9.808172776193384 3.748784464356272 0.0
6.549660911932182 4.839747932361234 0.0
6.757415124099031 6.077939876843736 0.0
3.805578542126494 8.040840085419626 0.0
4.232580149691158 8.198659880701744 0.0
4.559765382564095 7.87091698350757 0.0
8.3829075948167 0.9495097054886067 0.0
9.8571301061408 1.456307792614791 0.0
2.005900212453279 4.535525273813588 0.0
1.85904408608185 3.956445706785572 0.0
1.979307922430775 5.474327285927505 0.0
4.387923194305381 4.427191306527721 0.0
9.429258370703248 8.873693567695483 0.0
8.99196583083892 4.664567567015693 0.0
3.050357122593155 5.368999067452741 0.0
2.861107385476722 5.785089447130829 0.0
5.005058958272409 3.711196438448062 0.0
9.8972295764837 2.755337284632969 0.0
9.581048890980513 8.853909321617065 0.0
9.668838904423916 1.762418716497425 0.0
9.716576458425756 1.852218615166234 0.0
9.799043132681442 1.780583141193779 0.0
7.661868217848455 2.880323287492419 0.0
6.780136552904057 5.443858690999834 0.0
6.489544866845868 5.913957888434588 0.0
6.880149522020364 4.134257616716107 0.0
6.970134365280068 4.264072319341612 0.0
2.225481516813409 9.348422240784 0.0
1.843418032490818 8.641605249943353 0.0
2.198000805242772 0.6459947140825729 0.0
8.740020306282506 0.1903932731609072 0.0
6.86957996016679 4.720776242956433 0.0
7.430920333506809 0.2702852342693345 0.0
7.302066064947383 0.6134316505458445 0.0
9.305398039877746 4.64854361125207 0.0
4.078151380865065 5.203425462519088 0.0
4.080704120371218 4.778853303303787 0.0
8.052525541571825 5.965483159581719 0.0
6.367194027835946 4.754896037842673 0.0
8.604191121620719 7.648182513679963 0.0
9.546446695207845 9.234701521982952 0.0
9.018652854946867 3.351011585453845 0.0
9.143853648154607 3.350173119015413 0.0
9.067079866763024 3.245174561579149 0.0
8.991492136849105 3.135578770028028 0.0
9.29603967712795 0.1426516429033488 0.0
9.392428271030795 0.2506306237151588 0.0
9.223973843394301 0.2912279164401488 0.0
8.39375191941536 3.018777714002827 0.0
8.4836475746111 2.88135207267795 0.0
8.741089053946197 9.821127577434911 0.0
9.803966507713174 5.448064463539533 0.0
9.748132240148552 5.359371181503531 0.0
9.850258990973547 5.355211921626304 0.0
9.7965346514158 5.266762244994661 0.0
9.84142096963129 5.171050273734619 0.0
9.738843612428232 5.167483913244169 0.0
9.64168976006725 5.359875132194057 0.0
3.335917453809221 5.671837672982919 0.0
6.962669142802881 1.683222554707996 0.0
7.365210844496719 1.887492842536114 0.0
7.517378971174123 1.677983072937792 0.0
8.00383870208024 6.089394601875145 0.0
1.725435941000569 2.759295503019395 0.0
7.907977929549089 5.102827208603365 0.0
8.052861051278896 0.2683271125209605 0.0
9.80169732768395 3.385443381464333 0.0
9.831597648680848 3.28491948963525 0.0
9.736335895866404 3.316207814499244 0.0
9.597256128490281 3.756160701977744 0.0
8.865819925321706 3.366235906378775 0.0
8.489614436807788 1.757152185195495 0.0
8.88089641144391 1.078983279100314 0.0
7.430923851187758 9.724389499796425 0.0
7.584252919312249 9.509430586267927 0.0
9.744026095940516 2.247117754488748 0.0
9.729961521243718 2.659836747108116 0.0
9.790866569780063 2.558993767350471 0.0
9.736606445116795 2.455104424879619 0.0
9.846806182714698 2.452157456754448 0.0
4.518102112052724 5.141350889745285 0.0
4.519880229178207 4.85678334497067 0.0
9.7302407894617 6.434012603549242 0.0
9.787537474544765 6.523591663056312 0.0
9.744262337067932 6.617499601377625 0.0
9.8406238811518 6.41591236129004 0.0
8.914967252734657 3.579360039684312 0.0
9.154797282599406 5.670753066089419 0.0
4.228839454580575 4.612979739018002 0.0
6.095037541675208 4.42126627187728 0.0
9.304166983880842 9.864854494751789 0.0
9.406445527105628 9.759007358529582 0.0
9.256225114941945 9.700832989525724 0.0
9.796206564635622 2.351215649506205 0.0
9.849373673349081 2.25090453834006 0.0
6.332048155295931 3.511675163099286 0.0
9.069679774213784 3.022879178706259 0.0
9.070599961450037 9.055284879641471 0.0
1.808685691036764 6.331557276533421 0.0
7.120156826652838 4.698481230214924 0.0
7.052894345811342 4.799848851879358 0.0
4.739957520484086 5.369107149361242 0.0
9.389197839958292 7.197139943834638 0.0
9.046688232613976 4.560364044038737 0.0
9.162685461967492 4.562194096410666 0.0
4.227377821420887 1.564128177298305 0.0
9.201090975245227 2.794301402811909 0.0
9.251941624303948 2.677556975242327 0.0
9.186758273070138 2.563916005021366 0.0
9.317609833868786 2.560335260954038 0.0
6.57599191748324 2.437689779955877 0.0
6.305556560534859 2.459112595979303 0.0
6.981058048792093 2.642476994448363 0.0
9.886113463139504 6.510498309609482 0.0
9.250462794607717 6.221362629571698 0.0
9.305373999084068 6.108271307139882 0.0
9.390477915810829 6.228015172491477 0.0
9.44452571968143 6.114582165110393 0.0
9.502105740270528 6.197677857389309 0.0
9.31559697209813 6.331647407124485 0.0
9.370938253597153 6.437386206819511 0.0
9.594764406124872 0.1099001288712305 0.0
9.602872681151728 9.894988341116305 0.0
9.622661196143387 8.076680696281343 0.0
9.769069277144705 5.9102532189237 0.0
2.615076109785583 8.807551523115547 0.0
9.658920005405456 5.730890135691177 0.0
9.76063135061807 5.720703211793342 0.0
8.63963723169499 7.177334225227945 0.0
7.841904391869763 6.41346852896409 0.0
7.764520718520185 6.297267738834625 0.0
9.546492996136271 3.465225175657335 0.0
9.25600964352143 2.219157062786616 0.0
7.625057159226293 7.012987957636062 0.0
9.529121062829038 7.730283486008674 0.0
8.329887090625894 3.845190321147069 0.0
8.265841850823831 3.95687001944245 0.0
8.402006523775544 3.947660780406651 0.0
8.128436391670505 3.968543393650448 0.0
8.46705122470662 3.835767362024195 0.0
8.218867047074696 4.063481375518748 0.0
8.089763413611255 4.08062363292928 0.0
7.939578083855268 4.111915744184436 0.0
3.74991304509639 6.615676756107112 0.0
2.627714335615619 1.170993030860914 0.0
7.046129971268607 6.759930788612616 0.0
8.534603732661887 7.486325780553722 0.0
1.569381386467569 2.042794535871475 0.0
6.228703743210918 1.986421863690014 0.0
6.467030855792859 2.67190498312861 0.0
9.272246093269825 1.975478263632296 0.0
8.05269609263041 3.854522845257449 0.0
8.008595521536957 3.177870309354594 0.0
7.929796740504207 3.350600835935766 0.0
8.048703574664067 3.449582532910417 0.0
9.72947480375618 4.973926800124758 0.0
9.784850360535604 5.072865219810449 0.0
9.896036387646596 5.069261557893528 0.0
9.633140953203334 5.168645132864771 0.0
9.558102991128836 7.602453108835212 0.0
7.278758746505716 3.994295887299482 0.0
8.306681733482405 6.936428510427854 0.0
9.487163072013963 3.757777670075558 0.0
9.532950522284125 5.359403698944497 0.0
9.816036650072329 3.927268437107025 0.0
6.173882586235392 8.734645960664665 0.0
7.972518459433741 5.003005338485466 0.0
8.398453459336153 1.601072016988848 0.0
8.97460527296194 4.040886705742754 0.0
9.037941657530773 4.143578781749325 0.0
8.849604200183613 3.828506169652706 0.0
9.545296177100065 4.042698359132156 0.0
8.595941796785514 5.806754902023664 0.0
8.65588412428292 5.694192853853139 0.0
8.723710665131787 5.801528918332044 0.0
6.861288985046249 6.673713222735126 0.0
8.87477249219366 4.664500928777609 0.0
8.72385765226959 3.608276264790996 0.0
7.145228858696953 5.573648565429618 0.0
7.282945121585866 5.558559688509987 0.0
9.224761401603633 1.602363370249125 0.0
9.609115686587552 2.986868833620756 0.0
9.633989947851914 6.628120633848649 0.0
6.046214325132457 5.45615093027661 0.0
9.017014346798927 5.271996636983457 0.0
9.070824864071271 5.168510834798647 0.0
9.189021391555556 5.166867900487267 0.0
9.123328759137758 5.064718588163964 0.0
9.240587446378079 5.06459430516883 0.0
9.250848280531756 5.267364371053135 0.0
5.773050603406019 5.7192906317521 0.0
8.576466432793914 4.3559007860436 0.0
8.634627802680399 4.253467736542067 0.0
8.461790117175607 5.591735227444779 0.0
8.907610717370224 3.713397213891439 0.0
9.80665594564509 5.628066492225966 0.0
8.985935132601089 4.455263493464225 0.0
9.00640209566022 5.067597672073404 0.0
9.833659276096986 6.976519563917422 0.0
8.0283368553477 4.687271895436317 0.0
8.326580191759327 9.127498457128247 0.0
8.650637373791266 5.07513089931925 0.0
8.701067313435203 2.700069743477523 0.0
4.825307249916392 4.884175191874744 0.0
9.418335984190309 6.858444798015129 0.0
3.91434687300816 8.542956908935874 0.0
5.569239724399552 2.064135034637056 0.0
5.234271567762738 2.128974435011933 0.0
5.757920427527626 2.312422707096966 0.0
5.43365689737979 2.427455772745759 0.0
5.673210219624612 2.602111218343444 0.0
7.214258468265766 6.652783071431555 0.0
9.823626269633962 4.30685540664529 0.0
7.96996639420014 4.794005510174826 0.0
7.616003332725032 0.502676560965646 0.0
3.050634530589821 4.659174799474146 0.0
2.870894249800723 4.246924313393336 0.0
5.285393339952368 6.079037173753393 0.0
9.439954241218905 4.23581687956071 0.0
9.67709722097145 4.710772408106511 0.0
7.40767785509217 4.259947873553335 0.0
8.396202587439676 5.486075637998701 0.0
8.323689688705493 5.372061002264632 0.0
8.191312386254125 5.384662546230823 0.0
5.304380054816289 5.369675374029755 0.0
9.093848379546637 4.047647920840374 0.0
7.916313220758624 3.045043876114836 0.0
8.435854831444637 4.144861908356168 0.0
9.060262453079693 0.7340576053322918 0.0
7.053195520344596 5.238809779682351 0.0
9.621762679347093 2.45205452967588 0.0
8.410730269104743 5.287995309529392 0.0
9.655094569234972 3.472720279371932 0.0
7.982140513923982 6.667914768024983 0.0
8.402690325256646 4.883576657130221 0.0
9.17488654147479 4.962006474835693 0.0
9.013188196102961 8.49700148123058 0.0
9.795977244531603 2.156818021002043 0.0
9.893813711206834 9.545820400859157 0.0
7.965349232662289 4.250048884270795 0.0
8.644264557989125 4.874751532150782 0.0
8.215430976121077 1.26077208565765 0.0
8.379717637669398 8.37324652769609 0.0
9.320026533461409 5.559861899725609 0.0
7.885778178744864 0.4977439426642278 0.0
7.547066983926719 5.125166613071239 0.0
7.657542898944819 5.122996245335209 0.0
7.423918840193691 9.000935553397358 0.0
9.854133000712425 5.541931969512857 0.0
9.328508174398952 2.101486405523264 0.0
9.300749600926641 9.530012105354274 0.0
8.130307182491519 5.277079344947874 0.0
8.346752967392757 4.987627363826086 0.0
9.118404185029991 6.007087846617186 0.0
9.048232213728614 5.89431792713258 0.0
9.088340967655858 5.576242562571367 0.0
8.094762487139027 4.789727191449318 0.0
9.915265904493378 5.749591413470928 0.0
9.92169805280126 6.154216704502091 0.0
9.918022441582268 4.549125436287157 0.0
9.919332362905616 4.849536560132457 0.0
9.914800786693318 6.750595509794719 0.0
9.811792900437824 6.703950687575952 0.0
9.900643083988882 3.749855087409844 0.0
9.912423171222734 3.043228996968949 0.0
9.91892875832665 5.949999999993851 0.0
9.913300070218703 3.960831593817277 0.0
7.709347001661226 4.444236534782706 0.0
7.479443107717332 8.071637285053104 0.0
8.839057072155848 6.807845119358974 0.0
8.972330068019902 6.78765448182788 0.0
8.542093772125282 3.941452413628317 0.0
8.279144752968262 5.930387616620717 0.0
9.393455876855919 4.973162505621418 0.0
9.507123333872533 2.855087674515822 0.0
8.77504684283825 2.317347145885344 0.0
8.394133129040345 4.464046960801843 0.0
5.725509852450801 8.210843960481027 0.0
5.62632390239664 3.967637659758752 0.0
7.910815814627989 4.900765971697654 0.0
8.595808444085467 5.590040244353608 0.0
9.705160502006024 0.8106158419444889 0.0
9.82021247904746 0.808810893177099 0.0
9.218352146075844 4.447736986422823 0.0
9.20781892622228 3.858281726888132 0.0
8.713609974387523 5.178241668554946 0.0
3.55755059259364 8.921522400238844 0.0
9.59122926011489 5.452844834281716 0.0
9.70565100407009 9.77887811062354 0.0
9.826938454219809 9.74303055702321 0.0
7.238962096855633 3.278078153406256 0.0
8.575609105166194 4.567807831727537 0.0
8.936449841121737 4.765835458965493 0.0
5.59323463391086 9.248527978398117 0.0
5.280809113285124 4.886132326418428 0.0
9.328132730893216 6.544753806716806 0.0
9.026944889277736 6.67247283515637 0.0
9.81946239021469 3.007926663525007 0.0
8.677633568960493 6.144049349297466 0.0
8.33427489656924 4.571212803519522 0.0
8.55734024448315 6.382535186588269 0.0
8.692399379422756 6.372347713955898 0.0
8.495817478252626 6.503308565233578 0.0
9.905494734661673 2.544078755559835 0.0
6.177101405266569 7.228490244483556 0.0
9.825373011845263 5.807482724503027 0.0
9.808678508609606 8.118683092442964 0.0
8.397717712407108 7.08010313863416 0.0
7.428555529689225 4.935946611338556 0.0
9.575504958128711 6.125633853639113 0.0
9.154066996197898 4.146562596982661 0.0
8.074381802159323 4.337569667261167 0.0
7.018337246891919 8.843475095716133 0.0
7.970627172560641 2.658650028065857 0.0
7.382546388883145 6.723381543491632 0.0
6.822972334933889 4.884555620881615 0.0
8.343732976791593 6.041576709398377 0.0
7.743680217306919 8.423336160305476 0.0
8.505717922983454 1.115022897794028 0.0
9.113973198216474 6.992972408167606 0.0
5.818882632841168 5.300437503812764 0.0
5.951991891717714 5.279516346785062 0.0
9.450183479138845 5.92934813870612 0.0
8.783346541536119 5.48419035750989 0.0
9.38074895894124 5.65076274999803 0.0
9.513658728876734 7.193620441323493 0.0
6.396040948797887 6.776064256962667 0.0
5.389661780244388 4.89715084345563 0.0
4.473247649068957 5.85935163892416 0.0
9.249586607512612 8.37680799459232 0.0
9.103796366487646 8.379197231055114 0.0
6.274057301184156 4.87985402946409 0.0
9.259628836118232 3.561431822636308 0.0
4.037922477011971 5.489409780163391 0.0
5.62712958624254 4.893925433488392 0.0
8.806426003347967 6.133410188141932 0.0
9.53304466499349 9.59279975429444 0.0
9.542890959420024 1.966631379116419 0.0
7.459736176874619 5.863847835420528 0.0
5.937613117200432 4.89232797168023 0.0
6.171611131472617 4.879541833448487 0.0
6.100695199816815 2.291172318314745 0.0
2.315194906726768 8.081958163666464 0.0
6.878489987598286 5.148099521847569 0.0
9.105264414399338 8.639184652727645 0.0
9.20047261316883 3.457820810661327 0.0
9.895329010385955 7.55944047105717 0.0
9.912742873006831 7.76210330502246 0.0
9.37761459375249 3.168397068877758 0.0
8.946121261512507 6.345629828835438 0.0
9.918632496443566 4.449809517365367 0.0
6.848211525651934 5.945010613369067 0.0
9.915721525903255 2.047407395915179 0.0
6.117255841708726 5.163321965161054 0.0
7.276595248786602 5.347247322210079 0.0
6.32682869954104 5.23674259421017 0.0
8.785886448438022 5.692775375342819 0.0
9.099994401883361 6.776698531382792 0.0
9.913397459621638 0.2499999999998165 0.0
9.910352525643928 0.4481571029410266 0.0
9.907850422008579 0.5479735220323012 0.0
9.911983631350465 9.24778487019403 0.0
9.917634740384067 0.7514684821956668 0.0
9.195214232985496 3.254172408378337 0.0
5.000896927376288 1.846006038077654 0.0
9.917172478547403 8.250155740683276 0.0
9.908120476950126 1.742986232208194 0.0
9.914524635720774 1.949567899316728 0.0
9.907358878377153 9.145625165175748 0.0
9.917695944922635 8.949999999998397 0.0
7.648387553139914 5.325741673607362 0.0
9.605343588986079 4.130627398479715 0.0
6.648113233057817 6.774798386229164 0.0
9.910347203087213 8.446729917003672 0.0
9.913623694530468 8.548470085896316 0.0
9.9201245863254 1.536225488581779 0.0
9.906538426683255 1.059019360781604 0.0
9.912867352010919 8.74999999999809 0.0
9.799662981388353 8.79550485462418 0.0
9.831828680383174 5.99966894118311 0.0
9.91414179906643 1.263025320602998 0.0
9.920690092699912 7.240982963665807 0.0
9.385889285950551 2.235126904097426 0.0
9.28133998925606 8.00415195851526 0.0
9.817074723108401 3.172398890123306 0.0
9.482030285089927 7.512954023388035 0.0
6.682432918504054 7.233889573028878 0.0
8.528699633246763 3.260502457553277 0.0
8.91699963742029 2.327016692708648 0.0
9.267676068834481 3.954520684561369 0.0
8.70811637467455 4.974101624783084 0.0
8.18184214270768 7.816666208279135 0.0
9.690393137288163 5.264344933127836 0.0
6.937111790104696 5.245184991960528 0.0
5.895846026722989 5.174232967273284 0.0
8.281683356622615 6.400073017261236 0.0
9.150883172924027 7.444273543454419 0.0
5.430406600793122 3.390815886517273 0.0
5.049583827974758 5.697634876048387 0.0
8.3966710383105 3.495813899905868 0.0
9.007538428392454 8.046563579784266 0.0
4.645155158868719 2.637132843684674 0.0
4.887444326771336 2.30020425915506 0.0
6.483736782775559 4.522536327482678 0.0
7.843169154548308 8.2116075844056 0.0
5.06295551628385 4.901632590583318 0.0
7.201400991012747 5.138239336380897 0.0
8.519791031104612 8.848807089071627 0.0
8.658623737989732 3.031313729049854 0.0
7.585566208322493 3.629882964874684 0.0
8.411818469596405 6.834326722716643 0.0
9.172363528634236 7.669230647622864 0.0
8.85455683341768 2.682483055215344 0.0
9.359398739738925 1.631421337140716 0.0
9.071793864444992 7.337030604117359 0.0
6.968394563521436 3.712808894519514 0.0
7.899236117684646 7.094583340182754 0.0
9.54362864504834 9.781852543872333 0.0
7.151298729743687 7.644795130415299 0.0
5.452218361466201 5.186873761308322 0.0
5.517642289161902 5.293540933999446 0.0
7.802500357665464 5.978295671754199 0.0
6.594850839687122 8.491429270558893 0.0
6.029132431949566 8.294997405201931 0.0
9.31286590869111 0.5672913838331921 0.0
9.25238720319541 0.4415953739444106 0.0
9.550589523211062 4.228044955453704 0.0
8.748611832783206 6.250900951984038 0.0
7.566980108995873 3.995148257893202 0.0
7.426142759241261 3.996743578498081 0.0
6.478912513785404 4.000296412419969 0.0
9.30435638148753 5.168210982711592 0.0
7.542154188520517 5.752525075248498 0.0
7.219033852073297 2.139582470800704 0.0
7.370913620388047 6.545121498197235 0.0
5.226731036024996 5.187572666585561 0.0
8.515591031124366 4.462223215179979 0.0
6.762864307079274 0.3078036604979366 0.0
8.587432696997471 4.977010533175154 0.0
8.703948448756302 8.815629076400704 0.0
8.081003990931544 7.370949680119862 0.0
7.424404567669909 6.949730915714445 0.0
8.578903262311433 8.377992954045473 0.0
7.301258690263783 6.106184350645308 0.0
5.991600556904204 3.99820087171043 0.0
8.203048538477193 1.601044215405025 0.0
7.289972483120081 4.572350254111052 0.0
7.714697186439165 5.420586967696794 0.0
8.918853780709807 1.841796898567452 0.0
9.919941345877513 4.749808449067644 0.0
7.245589454939737 5.94251251443003 0.0
9.258480524497795 3.358952871140391 0.0
3.705877615124628 5.574038727593425 0.0
8.287096858129765 7.962370605242409 0.0
6.799629860952143 3.705385600481528 0.0
4.146753450763018 6.544154457143895 0.0
7.413973555029582 5.545687501585183 0.0
8.466524978378082 4.980481756569235 0.0
7.336312153537934 2.337983522449311 0.0
7.695505222753409 3.747498713679684 0.0
4.898236813123799 4.795853653580084 0.0
4.59779105899602 1.896916774247134 0.0
8.560170375862322 7.072369101894893 0.0
8.386150468360862 2.449771437140704 0.0
8.41200018115259 5.084601315536367 0.0
5.102189912301071 7.621598618277815 0.0
8.336320418935243 6.71651223072348 0.0
5.081745734883095 3.977838926197614 0.0
7.63590698378166 0.9500570055008507 0.0
7.743369677149255 3.051233984704873 0.0
5.357527459690566 0.3809996753407537 0.0
5.967373112873382 0.7731113464301924 0.0
8.169449265206127 6.666271947462212 0.0
5.95122726745053 5.55758205410881 0.0
9.922289489207834 3.53923011719877 0.0
9.39154684476555 2.659037023454942 0.0
7.701415639167884 7.690060291860976 0.0
9.819179654793023 1.329863870021845 0.0
8.358229579054417 6.506108206863729 0.0
9.269720555169467 5.657096143475924 0.0
4.473187658045934 7.435037860084884 0.0
9.65807158077373 3.255496360750368 0.0
9.605155446454205 8.713645566904637 0.0
7.097383547728313 5.141197376985936 0.0
9.812212483832656 1.89920712759492 0.0
9.83875570675407 6.81603549325055 0.0
8.926246869879279 2.079976511571457 0.0
9.166785856141402 9.169070814302419 0.0
8.763479010228052 1.587152667342957 0.0
5.957377924852992 6.404530806530254 0.0
7.14506854375872 6.10342416684208 0.0
5.672595070581394 5.164323323112049 0.0
4.899782787268781 0.3801727265981219 0.0
4.447133848117348 4.673614099606824 0.0
7.044865074789195 3.253639989243549 0.0
9.818461337102992 7.819456450952447 0.0
9.925334577033155 7.954012377173311 0.0
6.352907898232792 1.173665225954276 0.0
7.351721385581032 5.660361289755705 0.0
9.337367583861807 2.76534436379692 0.0
8.693118347802024 4.360254099729149 0.0
9.476812970101324 0.3524826622168163 0.0
7.109868985890334 0.9024224571333925 0.0
7.899106846231403 5.511805431542581 0.0
8.352799544476607 5.187887629361129 0.0
6.957483547582747 0.6176251309213842 0.0
8.099559500483094 1.412323841044818 0.0
9.913030944540278 0.8542404645334569 0.0
9.143075088381442 8.022165366829135 0.0
8.819861450593166 6.356592599428041 0.0
9.319444417409162 1.49938505915629 0.0
6.490262520326714 7.118204362551877 0.0
6.490874470087819 6.582907761235813 0.0
9.82506653058937 0.6146757679104559 0.0
6.803129818897624 4.419048038171804 0.0
9.840901379354312 0.08198751964190581 0.0
9.839740374244226 9.918356239418472 0.0
8.551927134544655 9.449788917425456 0.0
9.92097857388158 3.249999999993177 0.0
5.797087413057367 7.077351493358238 0.0
9.255412859987286 6.433984412022419 0.0
8.668174522249984 1.740767926084485 0.0
9.920991430240607 6.25262219124529 0.0
7.57275248448898 1.94367954756322 0.0
8.052865444445507 8.19900054463639 0.0
8.748697149245206 4.25201068974208 0.0
9.158270227735827 0.5542256343091421 0.0
5.997487767477439 4.787924707603557 0.0
6.119759900601896 4.78043793682227 0.0
4.353034750397793 8.619182743639561 0.0
8.721093521611476 5.588932824583312 0.0
5.717101151444983 1.123034066822819 0.0
9.825602081347064 8.68753399402474 0.0
8.005502510832988 8.7824052910506 0.0
5.548184234622668 6.408009287230429 0.0
5.77830300433981 6.598697187164234 0.0
9.613093825495433 4.50282172481406 0.0
9.928981132641653 9.74928475696928 0.0
6.613628176297015 4.515513362596662 0.0
1.822126723816303 1.297795131355289 0.0
9.514164594137375 1.43081427463862 0.0
4.735494753432723 3.698541604583975 0.0
9.52844959749262 8.615213629960298 0.0
4.660704511759056 0.7947595073298008 0.0
6.82340845160293 5.239926830264399 0.0
7.885938077030673 7.380147032865134 0.0
7.884599891021201 6.09005968568029 0.0
8.846834820720167 9.653276456345532 0.0
8.457777199486827 0.3851010632068662 0.0
6.66485224572131 8.771510767670392 0.0
9.091499342133352 9.708315832477556 0.0
9.824286725109655 4.976315293637262 0.0
7.848197684391786 5.632217046637356 0.0
3.88430598115417 4.225391362015386 0.0
8.776890759183289 2.809688928468134 0.0
7.393884285023409 3.59397875231041 0.0
6.927568893329758 4.396788356869783 0.0
4.96854327720728 2.662368428358774 0.0
9.1480130720193 3.951479613991279 0.0
7.071049729490975 2.38092990636632 0.0
3.40193058782919 1.686321186206593 0.0
7.612042194200681 4.815904436723407 0.0
9.043395868401339 6.888481825015849 0.0
9.098933057562759 8.152197681006806 0.0
6.058682303253315 3.857501492181965 0.0
3.707092669281355 2.986685502034343 0.0
5.113272509841263 5.189455016444592 0.0
6.960565857079232 3.416349532571279 0.0
8.755151527375476 7.649255597361291 0.0
3.393680865444538 3.679982303262531 0.0
3.117424600120088 3.35605258976247 0.0
8.530814041264104 5.488376426140491 0.0
4.820719767306654 5.106646490188182 0.0
9.918899263509473 4.144927088739744 0.0
9.918194630017027 7.447268230913605 0.0
8.461970084137805 3.144844565847669 0.0
9.924415919486059 6.949999999995354 0.0
7.184050152099684 2.72771667662237 0.0
8.834356715215904 7.801565642745232 0.0
8.689015446783005 4.145232831954543 0.0
8.490778532265319 8.234414357968106 0.0
8.63666290918932 2.83060276219705 0.0
4.61028976098935 4.741894230894578 0.0
6.314735925012879 4.003132559161639 0.0
9.20786580425652 4.67001723737971 0.0
7.141401229301469 4.873205425098625 0.0
6.235177809922153 4.774126344778935 0.0
9.12491895896937 3.145675090615719 0.0
9.255747684068178 3.162525801823036 0.0
8.312852272796098 2.290855459722148 0.0
1.449266720542303 3.363629101350872 0.0
9.525687840398492 4.800807314407045 0.0
4.829905263804087 8.14474456977717 0.0
9.09338914689732 7.563794106183232 0.0
5.389401689694107 5.283808684471545 0.0
8.530979415204587 3.029374286908943 0.0
7.901489077080633 6.535344047486632 0.0
9.218572924671975 5.760893551533255 0.0
8.562382833959296 4.143913974026883 0.0
8.62959127904665 8.974877485888243 0.0
9.408442441596518 9.62276529745719 0.0
7.5034765601713 3.869833107932387 0.0
9.842813436634783 6.600620949014236 0.0
9.826116984327193 8.911617279149695 0.0
7.529907780698261 0.7369111006685982 0.0
7.832164962480427 2.905293639437395 0.0
8.39517908433056 3.267417602291069 0.0
9.823014010107707 9.085319632577246 0.0
9.022314123618541 3.944559746338292 0.0
4.243701230676532 5.332574856090426 0.0
9.816740542566388 1.127839952679595 0.0
8.166775715766304 5.693916696568397 0.0
8.865374421689054 8.068986769641638 0.0
8.761145809863661 6.470583506581853 0.0
8.998345275919851 9.209303502026401 0.0
9.698477487436316 6.706902829754045 0.0
6.439032098063426 0.3109134377713525 0.0
7.562681994382136 4.643158005207056 0.0
9.03999088074715 0.2799354672273258 0.0
5.180741540467516 3.805018725608906 0.0
6.243990330956698 2.718077286244967 0.0
9.79416634023361 0.1815240178579244 0.0
9.926540005061975 2.847049370876555 0.0
9.826476210374608 2.670192168078066 0.0
6.365816673179121 4.536333049275508 0.0
5.546353765219417 4.618331215552614 0.0
9.820703096450293 2.000649418331399 0.0
6.884388790679166 3.561583980715254 0.0
7.431303395649604 5.747824222777201 0.0
8.849816832721245 2.19318290395604 0.0
4.185147517585975 5.697469360586313 0.0
9.165905238119013 5.873664931582344 0.0
7.70479478158537 1.788324620089049 0.0
9.627376046933474 0.9196091445437269 0.0
6.657687963328663 5.144792385996769 0.0
9.83245016645186 0.3925568446109945 0.0
7.483092985762584 9.253837199159435 0.0
5.445348362202234 3.977855663863651 0.0
7.476680532833337 4.837183287808616 0.0
9.572749890969304 8.505160319814301 0.0
9.915853314998252 9.437014513917465 0.0
7.679469018350979 7.390484878021194 0.0
9.418139053434402 4.790576000488359 0.0
8.096967733471567 5.865447162201908 0.0
9.829153508938724 8.378494945652118 0.0
9.926595955569645 5.157718300415699 0.0
8.774484245600224 7.939747459426853 0.0
8.629764448155779 6.481031318922794 0.0
8.961169458302376 3.839036702328818 0.0
4.617199205561317 5.256318959792646 0.0
8.480815774219478 4.031210317621497 0.0
9.708341592512763 3.401018043990571 0.0
7.183974816647467 4.77882314543966 0.0
9.821437962294304 7.659391965474772 0.0
8.150320284869602 2.286501016204562 0.0
9.828114434347311 1.684891358832554 0.0
5.349187766238684 6.538177907133678 0.0
8.076053471314525 2.76180604769483 0.0
4.907713691134565 5.29818629967416 0.0
0.6874399366049438 4.328593906714074 0.0
0.6980011780697519 5.702671170050627 0.0
8.263861466707834 8.182284285231713 0.0
5.838783785156478 4.913981390426639 0.0
7.807619472656604 7.235706382002089 0.0
9.388504256318683 6.022122644748753 0.0
9.929839894767033 6.436189192303577 0.0
8.3205848711706 3.39107920408397 0.0
3.240770542267401 4.019899919523968 0.0
8.059047070496568 2.468855909103855 0.0
9.932479519490421 2.449625056415224 0.0
7.737639000139152 4.580708137963557 0.0
8.26141077223695 0.3940397126348397 0.0
9.69568953371801 1.959951226402445 0.0
6.469120930453264 4.892267070266994 0.0
9.167223997255698 0.8102256463122337 0.0
6.236889648241256 0.9291076084031108 0.0
8.306379082772498 5.268830342852036 0.0
6.716089118890225 5.239344620507032 0.0
9.82511981852641 9.282822358664017 0.0
6.68375719572285 4.404998642130821 0.0
8.913754712375674 6.908138360584365 0.0
6.173250048857013 5.251634416326969 0.0
4.235907497612446 1.924052997345291 0.0
5.151007663981651 2.438629730660893 0.0
8.924254300637541 9.3764975797567 0.0
4.438612423541503 5.287968640901957 0.0
8.571203234299599 1.897009944569934 0.0
6.878800676380218 5.821332862798138 0.0
5.710626178601224 4.792560699857408 0.0
7.149510071621283 5.216310009157644 0.0
2.099966541549645 2.334742113488256 0.0
9.93396330620579 5.350566393301629 0.0
7.143046479323961 8.646955109387985 0.0
7.965747313080266 5.193641450105844 0.0
6.3314394693073 5.135050228240639 0.0
7.665821333021348 6.222698255001823 0.0
6.305321657053551 4.659816230868476 0.0
7.833020917089713 5.208837056143474 0.0
9.41455902676429 2.869725681199307 0.0
8.567151507735133 6.598605357295113 0.0
7.405527786978573 4.377085529441429 0.0
6.552969697053132 5.137148974085434 0.0
9.93630620742063 8.042778076596578 0.0
7.166743296019233 4.593171678848165 0.0
6.595561806063966 5.839366735225723 0.0
6.066152182102007 5.262519562574559 0.0
9.834694151277489 0.9093455747994099 0.0
8.98259191950674 7.579732466796592 0.0
6.465071238839505 5.25485771955322 0.0
9.759759896588413 3.236659507608532 0.0
4.775529448101694 5.224235675150505 0.0
9.935991245222917 7.153416415978829 0.0
0.6530736820718381 9.352299998916202 0.0
0.6449439415299687 0.6468300344151556 0.0
7.804690364869245 4.495816547678174 0.0
9.84503784553893 5.70620404704573 0.0
9.83525329400959 3.826992990746767 0.0
9.922964894244684 4.265000406933376 0.0
8.333767638401964 1.121219971446645 0.0
8.876012546033895 7.019147158538482 0.0
8.172413577824324 3.413096916572049 0.0
7.232233017296214 4.478957103028363 0.0
6.214597295185415 3.852860083673202 0.0
9.85013791746415 4.400709747289421 0.0
3.941627380932058 6.342995010255737 0.0
3.097271569675528 8.77391871286929 0.0
9.292917152323044 6.010976049411984 0.0
8.104342196673183 5.184165973282902 0.0
8.994300084006271 3.652611812846807 0.0
9.937157897030163 5.549999999993244 0.0
8.721368888525245 7.274540720770752 0.0
8.920003648712827 0.9516585309368178 0.0
7.910527456030004 8.536826514867816 0.0
9.846441288756814 4.60515911863952 0.0
9.584942233925151 4.712073182517884 0.0
9.642357858573972 6.805672051759494 0.0
9.797024725252207 9.838837222258014 0.0
9.842451438022124 4.018973836958878 0.0
6.112723137676118 3.704473949316424 0.0
7.574641969193845 3.765362276156904 0.0
7.826594968121701 6.200366572362263 0.0
7.762805366733504 9.34009502796868 0.0
9.56854033867856 1.012566255816665 0.0
7.71256563655353 5.219373702836014 0.0
9.68039392238282 8.786964504862018 0.0
5.910362452777086 9.277662068919813 0.0
7.418090653922814 3.326443419100716 0.0
9.857704179097952 4.697553149694669 0.0
8.452469674653342 8.996585816905599 0.0
9.522351366699843 2.057525484575908 0.0
7.802315574700843 9.548878971475935 0.0
9.938875656926385 3.449999999992592 0.0
8.425189037911712 6.608575180629274 0.0
5.925965231566842 2.523669697740033 0.0
6.654918072256329 5.95749128982984 0.0
9.826748589235729 9.631118448471485 0.0
8.6684585637523 7.39633999085442 0.0
9.844673843931567 3.090088625379724 0.0
9.93613850661301 2.250382721159617 0.0
9.218291993658738 2.892108990205171 0.0
9.83502846611296 8.212781989607324 0.0
7.754136409732265 7.104288507262783 0.0
8.510570542791681 2.036933285735889 0.0
7.757745059307245 4.315798612475442 0.0
7.989231770559189 6.201656630465583 0.0
8.068934521422738 4.198631572122605 0.0
4.957478134450373 9.038766150325067 0.0
7.208661142641733 6.501402463831379 0.0
7.299506095906239 4.363561999234681 0.0
8.250303873550486 2.105322217421675 0.0
8.678637541413377 7.053471135702286 0.0
9.761528395137384 6.163503990672834 0.0
9.84494857233395 8.59999999999775 0.0
9.83825138794677 3.672838954969637 0.0
5.121008544047756 5.808127183024784 0.0
8.343911550360986 4.043535893276861 0.0
9.85324441775315 5.899999999993774 0.0
9.51114465213134 8.41035540646284 0.0
6.505812179224195 6.93390566262983 0.0
6.15572847138365 9.023097246950844 0.0
3.352081892333425 3.024853379890529 0.0
6.433163283162099 8.675072413910678 0.0
8.825744236698243 3.624446391299867 0.0
4.883007294861279 7.819620905924936 0.0
5.876659170760434 5.638247433601083 0.0
6.859400040348503 6.510797998354633 0.0
7.946400945409184 3.500317276373196 0.0
7.496830255505493 6.653194511698024 0.0
9.852183479755313 4.891525833556942 0.0
9.77998778436291 2.922486526124376 0.0
6.774672660492365 5.324728659740495 0.0
5.717254072187427 6.824125962512845 0.0
9.713440940838062 4.63793103997539 0.0
8.859858662536796 0.2721395536350836 0.0
8.37556017530946 9.436653414116012 0.0
7.395237381047616 7.885576562773319 0.0
5.4709157802033 4.511152089197594 0.0
9.489749416979361 9.691840729914848 0.0
4.599216022837964 3.46438688931078 0.0
5.572287492757569 4.807021644849729 0.0
9.926499336309957 9.92730688390086 0.0
9.926499336310107 0.07269311609890093 0.0
9.338127766332573 0.3585313952168247 0.0
6.810761948165162 3.414693294319008 0.0
8.166274345037138 5.943611545564389 0.0
5.2892644736731 6.301081312912763 0.0
9.731911074791544 7.649313380659622 0.0
8.90251102352767 9.50983415326544 0.0
8.997881406541017 1.033666784655452 0.0
5.835124768755703 2.738139962594905 0.0
9.665357480775825 6.185331297099201 0.0
7.656532192558493 8.217157287499347 0.0
9.170463887605525 2.975444721032631 0.0
4.208158615905443 0.8648302238584886 0.0
6.97015686031129 5.933674629077266 0.0
6.181941366523793 3.565885175921835 0.0
3.30313590337911 6.393402837735046 0.0
6.447482061767014 4.816169316820496 0.0
8.185341428749446 4.169172087371246 0.0
4.552595724340015 8.298301336212145 0.0
9.84850676569699 8.999999999998423 0.0
9.846941514449377 7.393642828194986 0.0
7.924592433490734 2.788309934035703 0.0
8.154308714226714 8.853640122009672 0.0
8.876629743004642 1.96110242719995 0.0
7.228849192966834 8.90811350348676 0.0
9.852301635085423 8.296637825215246 0.0
5.219795195341889 5.547413133147649 0.0
9.861497117995457 6.901363010201344 0.0
2.953911258021604 6.136007283255669 0.0
6.93158841067062 4.77708273647784 0.0
9.67540418457871 2.912802891506324 0.0
4.194055958522277 4.437353127730132 0.0
6.133959559341536 0.406856611599261 0.0
8.29952795189331 9.309744645643846 0.0
9.843692337952948 1.209647690818311 0.0
5.164986286280336 6.671544079402435 0.0
9.838533350075606 2.081705440779448 0.0
8.301244777513975 6.604088853319459 0.0
5.471494771710784 2.714598185146428 0.0
8.86534684892311 1.208599471795828 0.0
9.940610684232212 1.451558535868664 0.0
9.40896208432968 1.428353940655538 0.0
2.329177605337097 4.238803555614174 0.0
5.980761651517799 7.182207186682233 0.0
9.66541573964336 0.1719254072074424 0.0
7.220979380229172 7.806128737674462 0.0
1.251721227904697 6.151932667911503 0.0
8.104967286191181 6.057912607875576 0.0
6.650768762224724 4.817922869198292 0.0
6.634976350437587 3.213339182992986 0.0
7.034320437500567 4.898219100342838 0.0
9.502772020064167 6.283064492634301 0.0
8.13187938667684 3.518506862055515 0.0
9.855471943454193 2.599999999994991 0.0
9.056747742708522 8.263936599935574 0.0
4.352645795441222 5.724453640019 0.0
3.744263984699181 1.488951698361357 0.0
5.175860134287045 3.6375726667098 0.0
7.736434712114619 6.400417475661193 0.0
9.857658576695343 6.316607183405179 0.0
7.876525261950537 4.304285002335559 0.0
9.856114384785611 7.914602773442983 0.0
9.848334119947063 0.7059644476295188 0.0
9.59694321995579 6.895814046141667 0.0
5.906465212962551 3.869023950643881 0.0
9.840676994268005 9.364956386459765 0.0
5.355015287544095 3.83518170601625 0.0
6.374090407153147 5.855743754257685 0.0
8.227401290513832 5.297819733684674 0.0
5.451235131977493 4.825706629991923 0.0
6.022070213762754 5.355923882747634 0.0
9.845674433677614 6.108401449483281 0.0
9.835067400944396 7.739582406783081 0.0
8.602026805792988 2.941372356914139 0.0
5.059869081004962 5.269480960018243 0.0
5.284714507903736 5.26496663762182 0.0
9.627110479149561 7.660076105040499 0.0
6.820001127809743 4.792514421153957 0.0
5.120512795059439 4.806607659110254 0.0
9.56933817216883 2.911464407429096 0.0
9.74091654291531 9.267545397628387 0.0
9.93006767325302 6.576784040838644 0.0
9.642486276936268 4.650227701598451 0.0
5.185183328569137 9.410919109238325 0.0
9.37052946854105 4.605636695802024 0.0
1.677077220416309 5.871167715901136 0.0
7.345783833404538 3.184020711886284 0.0
5.419239942654976 5.982692039856376 0.0
6.133318300188262 2.551919945731369 0.0
6.187291396343277 4.499077117404439 0.0
1.231465237822878 3.921479198315213 0.0
8.969849937139944 9.699215363213542 0.0
9.218303154263054 6.037447959776716 0.0
CELLS 4886 19544
3 1113 1356 1450
3 1402 231 1659
3 272 269 1414
3 396 394 1777
3 1451 945 1452
3 194 81 1801
3 1847 1501 2104
3 2024 2121 2479
3 1115 1113 1450
3 1124 1413 1844
3 1061 1955 2409
3 307 305 1645
3 1592 1369 1593
3 238 1501 1847
3 1955 1883 2409
3 1808 243 1910
3 1885 978 2362
3 1440 793 2092
3 189 1488 1608
3 353 350 1864
3 2007 2231 2232
3 307 1645 2493
3 1096 1760 2496
3 2178 874 2179
3 621 625 1595
3 1493 1480 1938
3 1655 1268 2137
3 1341 1410 2212
3 243 1808 2360
3 1902 1446 2516
3 1760 1096 1763
3 856 790 2180
3 2008 2046 2105
3 789 1809 2067
3 694 1543 1575
3 1127 1762 1953
3 1748 807 2228
3 1543 1308 1575
3 820 1872 2170
3 1417 954 1998
3 1369 1592 2386
3 272 1414 1787
3 329 333 1998
3 1544 1095 1545
3 2231 1490 2232
3 1342 1683 1790
3 374 377 1797
3 807 1678 2228
3 1665 198 2128
3 141 142 1620
3 325 322 1952
3 231 1402 1654
3 198 1665 2010
3 1890 1307 2387
3 208 1438 1619
3 2016 1970 2156
3 1436 212 2020
3 954 1417 2333
3 1736 1894 2244
3 1491 1750 2143
3 1677 1064 2146
3 1474 1258 1475
3 1500 233 1930
3 1446 2415 2516
3 1700 973 1800
3 2128 2270 2316
3 1316 1315 1593
3 1307 2341 2387
3 2258 1324 2328
3 1083 1507 1508
3 693 1095 1544
3 621 1595 1596
3 667 1571 1872
3 1932 1766 2061
3 393 391 2240
3 1342 1790 2400
3 252 1707 2234
3 931 978 1885
3 1430 1116 1704
3 1411 1109 1714
3 1478 1227 2440
3 1990 195 2297
3 1792 1167 1985
3 1682 444 1975
3 394 397 1777
3 1711 2028 2162
3 1574 856 2180
3 2008 1851 2046
3 736 1493 1938
3 1069 1060 1662
3 1458 455 1754
3 862 691 1705
3 1161 1642 2286
3 1699 1700 1800
3 447 516 1637
3 955 1482 1483
3 2024 206 2121
3 391 1773 2240
3 1072 1412 1893
3 212 1436 2350
3 1566 1365 1568
3 259 1441 1672
3 872 870 1764
3 330 328 1889
3 1539 1161 2286
3 1897 1898 2275
3 1434 1990 2297
3 1109 1411 1730
3 319 307 2493
3 1762 1761 1953
3 1369 1316 1593
3 1540 834 1832
3 1505 652 2442
3 1732 1655 2137
3 921 1712 2295
3 1872 1388 2170
3 1712 921 2125
3 2028 244 2162
3 1506 1570 1680
3 1569 368 1964
3 1571 667 2375
3 1587 2178 2179
3 196 1723 1737
3 524 2016 2156
3 1528 1250 1733
3 1115 1450 1973
3 1938 1480 1971
3 1809 1396 2067
3 1641 249 2299
3 1223 1258 1474
3 1365 1566 2120
3 1981 962 2316
3 1538 353 1864
3 455 1458 1756
3 152 233 1500
3 1116 1430 1703
3 817 652 1505
3 1347 2003 2004
3 1607 1958 2085
3 194 1801 2195
3 1410 1341 2351
3 223 1415 1710
3 197 1511 2346
3 2198 787 2225
3 81 82 1801
3 1438 208 1620
3 1444 522 1823
3 1511 197 1950
3 726 718 1567
3 1637 516 1739
3 1708 2337 2341
3 1280 1649 2124
3 2337 1395 2341
3 1327 1709 2315
3 1225 1227 1478
3 691 624 1705
3 476 2224 2305
3 830 832 2204
3 1750 1491 2403
3 1366 1897 2275
3 2345 1583 2352
3 2054 405 2110
3 1984 2172 2230
3 1846 2198 2225
3 1177 2042 2418
3 2121 1367 2479
3 1527 1531 1541
3 916 1039 1834
3 1413 1124 2467
3 1622 1503 1868
3 249 1641 2019
3 1805 405 2054
3 1761 1007 1953
3 1415 223 2395
3 960 1756 2203
3 368 1569 2135
3 1402 1659 2473
3 941 1433 2471
3 1267 1477 1501
3 260 2002 2265
3 1704 558 2077
3 2224 1886 2305
3 2053 1386 2199
3 1452 945 1952
3 1717 1611 1718
3 1682 1975 2230
3 1760 1762 2496
3 1481 203 2104
3 1264 1266 1670
3 142 236 1620
3 2133 1182 2179
3 1791 1602 2183
3 350 346 1864
3 1412 1072 2393
3 1281 1575 2255
3 1565 1948 2155
3 849 1449 1513
3 1958 396 2085
3 1339 1069 1662
3 834 1540 1917
3 269 267 1414
3 1268 1267 1501
3 1440 2092 2468
3 1399 1981 2316
3 1635 1636 2041
3 1454 252 2234
3 1451 1305 1890
3 1375 1883 1955
3 362 366 1786
3 1484 2410 2528
3 1449 849 1640
3 1267 1474 1477
3 200 1611 1717
3 1054 1581 1582
3 1350 1977 2253
3 190 1390 2118
3 788 1956 2193
3 1709 1327 1888
3 2233 2298 2413
3 1488 189 2355
3 478 1685 1714
3 230 1525 1690
3 1687 478 1688
3 427 429 1756
3 1570 1065 2476
3 1880 1133 1988
3 1649 656 2124
3 1537 209 1614
3 1134 1769 1986
3 1220 1268 1655
3 396 1777 2085
3 1167 1755 1985
3 2229 1744 2296
3 1575 1281 2287
3 127 240 1882
3 377 647 1797
3 954 329 1998
3 220 1697 1698
3 1342 1341 2212
3 1441 264 1672
3 1512 188 2433
3 763 2345 2352
3 1685 1411 1714
3 1805 1188 1951
3 1347 2004 2157
3 1054 1582 1667
3 1333 1617 1674
3 2217 73 2361
3 1539 1036 1917
3 1039 1292 1834
3 208 141 1620
3 1965 1964 2038
3 693 1544 1969
3 1453 239 2279
3 203 1481 2049
3 945 1451 1889
3 680 1459 2134
3 354 2147 2196
3 1405 1932 2061
3 1723 1722 1737
3 1748 1175 1927
3 1532 1528 1733
3 2057 1824 2154
3 1406 1659 1702
3 1948 1186 2155
3 210 1598 2114
3 1685 478 1687
3 1324 1325 2328
3 1526 1250 1527
3 165 166 1509
3 1493 736 2523
3 1526 1527 1541
3 1390 190 2417
3 522 1444 1998
3 1680 1570 1732
3 1017 1442 2525
3 374 1797 2430
3 1507 1083 2197
3 1756 960 2221
3 2270 1400 2316
3 2205 1452 2282
3 1074 1187 1888
3 2158 1245 2200
3 1442 1017 1684
3 864 1116 1703
3 1750 1751 2143
3 1456 516 1492
3 1677 2146 2149
3 2022 1339 2388
3 1602 258 2183
3 678 1594 1595
3 1245 1670 2200
3 972 830 2204
3 2143 983 2342
3 1268 1501 2226
3 1266 1461 1670
3 1487 222 2465
3 1382 2022 2388
3 58 59 1661
3 2147 1543 2196
3 1484 1485 2410
3 628 2053 2199
3 1906 1549 2259
3 364 362 1786
3 1339 2022 2247
3 1636 525 2041
3 625 678 1595
3 678 1593 1594
3 2212 1410 2222
3 1837 1865 2215
3 1699 1800 1801
3 866 864 1703
3 893 1472 1982
3 1735 1736 2244
3 1633 1255 1922
3 126 127 1882
3 681 867 1656
3 1351 1401 2363
3 11 228 1588
3 1127 1953 2454
3 265 266 267
3 1722 1122 1737
3 1389 1691 2069
3 1613 1610 1616
3 1227 1256 2440
3 429 455 1756
3 1535 1177 2418
3 322 324 1952
3 973 1700 1802
3 1964 368 2038
3 1176 1865 1866
3 1096 872 1764
3 1176 1866 1875
3 193 1839 1892
3 156 157 1441
3 615 617 1596
3 686 1520 2480
3 1409 2097 2305
3 2410 1151 2528
3 1427 2217 2361
3 440 1911 2314
3 1744 1743 2296
3 516 1456 1739
3 1939 589 2164
3 690 931 2150
3 1062 1579 1580
3 1054 1580 1581
3 955 1483 1716
3 1064 1677 2248
3 1956 1616 2193
3 1776 1893 2026
3 1398 1115 1973
3 2002 1453 2265
3 1541 1531 1542
3 216 2191 2536
3 1736 1326 1894
3 1065 994 1066
3 1598 2115 2175
3 2314 1911 2358
3 1433 941 2042
3 2115 1209 2175
3 717 1550 1551
3 188 1941 2433
3 267 1132 1414
3 771 1569 2064
3 1157 1545 1546
3 1231 1250 1526
3 1933 240 2181
3 222 1487 2025
3 1525 230 1765
3 1430 1704 2077
3 757 1744 2495
3 264 263 265
3 883 773 1917
3 739 2205 2282
3 1667 1582 2434
3 1744 757 2474
3 239 1453 2002
3 1441 259 2356
3 2005 1443 2012
3 254 1766 1932
3 1509 166 1679
3 1477 1475 1481
3 793 1440 2165
3 1385 1523 2377
3 1481 1475 2523
3 156 1441 2356
3 1066 1220 1655
3 945 325 1952
3 2094 2087 2134
3 1747 1175 1748
3 253 262 263
3 1327 1074 1888
3 718 715 1567
3 2046 1043 2105
3 240 1933 2399
3 1305 1307 1890
3 224 58 1661
3 1195 1566 2285
3 1590 1393 1749
3 1255 1230 1922
3 353 1538 2073
3 358 1999 2325
3 882 1802 2036
3 1024 1020 1604
3 333 522 1998
3 1401 1351 2414
3 1475 1258 1476
3 2310 786 2364
3 328 945 1889
3 807 1748 1927
3 825 724 1912
3 1742 263 2491
3 267 266 1132
3 2077 2102 2203
3 1431 1432 1860
3 1212 1957 2312
3 2097 476 2305
3 1132 1402 2473
3 717 713 1550
3 1746 693 1969
3 1372 1124 1844
3 1256 1541 2269
3 1977 1350 2274
3 2332 1978 2443
3 874 2133 2179
3 1983 1534 2171
3 1157 1544 1545
3 1230 1228 1922
3 1580 1579 1581
3 1565 806 1948
3 1416 1363 2413
3 1287 1995 2398
3 265 263 266
3 1534 1529 2171
3 1604 1834 2428
3 1255 1633 2509
3 1344 1643 1644
3 1332 1388 1571
3 1423 217 2217
3 2191 1057 2451
3 458 447 1637
3 1250 1233 1733
3 472 2212 2222
3 1175 1747 1840
3 1652 256 1653
3 1073 1347 1572
3 200 145 1609
3 683 640 1585
3 1116 862 1705
3 1221 1223 1474
3 1778 801 1803
3 1503 1622 2471
3 1475 1493 2523
3 464 680 2134
3 14 210 2114
3 579 1880 1988
3 1434 1435 1990
3 1447 2310 2364
3 275 274 276
3 2294 1871 2419
3 814 1068 1684
3 1172 1439 2273
3 273 272 274
3 1363 1416 2406
3 1220 1219 1221
3 1060 1656 1662
3 1099 1792 1985
3 2048 1198 2168
3 1241 1245 2323
3 699 723 1753
3 1640 1862 2070
3 910 1018 1584
3 1586 1067 1587
3 1656 867 1662
3 1067 686 2480
3 654 2242 2294
3 1593 1315 1594
3 1880 553 1974
3 236 1717 1718
3 617 621 1596
3 1723 196 2313
3 402 1877 2116
3 273 274 275
3 2202 1869 2252
3 1510 1358 1767
3 193 1892 2373
3 1188 1805 2054
3 1220 1221 1267
3 1066 1218 1219
3 1517 1097 1518
3 1677 1676 1858
3 686 277 1520
3 268 267 269
3 697 857 1592
3 220 1698 1699
3 1802 1700 2036
3 1612 1537 1614
3 929 817 994
3 228 12 2136
3 2110 2116 2482
3 1659 1658 1702
3 1611 1613 2280
3 1344 991 1643
3 683 1585 1604
3 1638 1358 2404
3 1485 1034 2410
3 2214 833 2424
3 271 272 273
3 1482 955 1962
3 1066 1219 1220
3 931 1885 2150
3 1613 1891 2280
3 1189 1589 2204
3 1566 1195 2120
3 726 1567 2490
3 1122 1722 1874
3 1494 319 2493
3 1671 259 1672
3 1267 1221 1474
3 603 528 1591
3 1664 2128 2316
3 1817 1924 2174
3 1626 1660 2111
3 1474 1475 1477
3 1023 1062 1580
3 1957 1599 2312
3 1764 1939 2164
3 1358 1950 2404
3 200 1609 1610
3 1431 1082 1432
3 1778 1803 2521
3 1830 1832 2075
3 1930 233 2369
3 1329 1482 1650
3 757 1959 2522
3 1239 1247 1597
3 758 1978 2332
3 1569 1290 2064
3 216 1694 2191
3 1453 1420 2265
3 1549 1906 2129
3 24 215 1674
3 19 235 1676
3 1621 1057 2191
3 1691 1389 2262
3 1617 1333 2192
3 929 994 1065
3 1769 1672 1986
3 1893 1412 2026
3 1609 1537 1612
3 271 269 272
3 1373 1438 1620
3 217 1423 2381
3 517 330 1889
3 1322 1055 1667
3 1974 553 2499
3 228 2136 2187
3 1589 1189 1788
3 1999 1577 2325
3 2110 405 2116
3 189 1608 1842
3 1055 1050 1667
3 739 1455 2205
3 1865 1176 2215
3 319 1494 2522
3 2474 757 2522
3 1484 227 1485
3 10 11 1588
3 723 809 1753
3 27 230 1689
3 1550 806 1565
3 1179 1180 1217
3 207 1617 2192
3 1433 1217 1502
3 1562 1556 1606
3 1379 2017 2018
3 1245 2158 2323
3 675 1097 1517
3 884 501 1599
3 1020 683 1604
3 1603 1095 1848
3 1001 2057 2154
3 1604 1585 1834
3 1610 1612 1616
3 1764 870 1939
3 2242 1871 2294
3 1669 1264 1670
3 1658 213 1702
3 1995 1646 2398
3 631 539 1600
3 1491 2143 2342
3 1801 1800 2195
3 1200 1199 1693
3 1535 940 1861
3 1534 758 2332
3 914 2258 2328
3 1588 228 2457
3 216 138 1694
3 151 152 1500
3 1133 1880 1974
3 1677 1858 2248
3 1294 1622 1868
3 875 1010 1767
3 1379 2018 2416
3 1279 2202 2252
3 182 256 1652
3 1592 857 2386
3 672 681 1656
3 615 1596 1824
3 1093 1487 1623
3 1823 522 2100
3 1245 1242 1669
3 1582 1581 1583
3 758 1534 2306
3 1975 1984 2230
3 1358 1510 1950
3 1663 1336 1665
3 2102 960 2203
3 366 1087 1786
3 1740 1490 2231
3 21 207 1709
3 145 146 1609
3 2339 765 2384
3 603 1591 1668
3 2081 199 2149
3 1540 1832 1879
3 1721 1723 1947
3 1754 455 1793
3 1751 1753 2119
3 882 1701 1807
3 1540 1539 1917
3 242 1695 1697
3 1521 354 2091
3 1363 2233 2413
3 1584 1018 1925
3 703 1067 1586
3 1177 1178 1179
3 795 916 1834
3 277 276 607
3 1571 1388 1872
3 22 23 1617
3 1097 823 1177
3 25 26 1624
3 419 418 1790
3 1728 1906 2259
3 440 1455 2261
3 1877 1318 2116
3 1488 1156 1608
3 1439 2130 2273
3 1889 1451 1890
3 1614 209 2389
3 1472 893 2094
3 675 821 823
3 23 24 1674
3 1788 1190 2183
3 917 941 1622
3 1763 1096 1764
3 1068 1442 1684
3 1034 1485 2173
3 2172 1533 2230
3 138 139 1694
3 1065 1570 2197
3 607 674 675
3 1536 1248 2268
3 229 135 1734
3 1437 1925 1926
3 680 510 1646
3 147 209 1537
3 26 27 1689
3 1627 705 2163
3 206 1651 2121
3 2409 1785 2462
3 1492 682 2447
3 1223 1225 1258
3 889 1772 2374
3 253 263 264
3 275 276 277
3 1455 739 2261
3 2022 1382 2176
3 150 227 1484
3 639 1019 1591
3 1449 1640 2070
3 1082 833 2214
3 1503 1502 1504
3 144 200 1717
3 1643 991 1713
3 1190 1791 2183
3 1538 1804 2073
3 1256 2269 2440
3 18 19 1676
3 521 531 2000
3 790 849 2180
3 1075 1329 1650
3 1087 1782 1785
3 1066 994 1218
3 270 269 271
3 682 1492 2494
3 185 252 1454
3 253 158 262
3 1629 1632 1633
3 200 1610 1611
3 1477 1481 2104
3 1623 1487 2465
3 1518 1097 1535
3 1414 1132 2460
3 1179 1217 1433
3 177 1506 1680
3 1392 1017 2525
3 1832 834 2075
3 675 823 1097
3 1459 2094 2134
3 1782 1087 1795
3 1838 1730 2372
3 1639 149 2528
3 1617 23 1674
3 2265 1420 2489
3 180 232 1859
3 1527 1250 1528
3 20 21 1709
3 1083 1508 2311
3 903 866 1703
3 1455 440 2314
3 1187 1858 1888
3 1659 1406 2473
3 1446 1902 2166
3 421 1951 2106
3 1598 210 2115
3 154 259 1671
3 1288 1835 2080
3 1832 1831 1879
3 1258 1225 1478
3 1024 1604 2117
3 1263 1429 1739
3 706 705 1627
3 1583 1581 2352
3 407 1805 1951
3 856 1574 2527
3 1701 882 2036
3 1624 26 1689
3 717 1551 1552
3 1385 2377 2391
3 2302 1745 2354
3 1572 1347 2157
3 1036 883 1917
3 1689 1690 1691
3 1664 1665 2128
3 1476 1479 1480
3 1751 2119 2143
3 815 814 1684
3 1790 889 2400
3 1606 1607 2085
3 265 267 268
3 418 889 1790
3 1522 1521 2091
3 135 136 1734
3 1726 1445 1729
3 647 1796 1797
3 1346 1453 2279
3 1293 1827 2117
3 1242 1244 1669
3 1853 1852 1854
3 889 2374 2400
3 1039 1038 1290
3 1524 628 2199
3 1331 1332 1571
3 1291 1290 1569
3 1475 1476 1493
3 1850 1852 1853
3 1490 1740 2456
3 1689 230 1690
3 1256 1526 1541
3 1704 1705 2167
3 1465 1470 1675
3 956 1073 1572
3 1613 1616 1956
3 916 917 1038
3 2014 1522 2091
3 1221 1222 1223
3 1999 763 2352
3 234 10 1588
3 1697 220 2335
3 1527 1528 1529
3 2298 1600 2413
3 1436 2020 2254
3 1642 1161 1678
3 1523 1385 2436
3 1730 1838 2426
3 795 796 916
3 713 711 1550
3 1456 1263 1739
3 999 1336 1663
3 1785 1784 2462
3 409 415 1783
3 607 675 1517
3 1229 1231 1526
3 1958 1855 2078
3 1589 1588 1590
3 1933 261 2380
3 762 1965 2038
3 1756 1458 2203
3 1776 597 1893
3 1794 1072 1893
3 188 1512 2266
3 1774 2339 2384
3 188 1908 1941
3 1010 1510 1767
3 2189 2285 2307
3 773 834 1917
3 1245 1669 1670
3 1248 1597 2268
3 146 1537 1609
3 818 910 1584
3 1641 1313 1651
3 1217 1745 2302
3 1065 1066 1655
3 1597 1247 2047
3 1360 2177 2376
3 1612 1615 1616
3 2126 867 2186
3 1019 683 1020
3 1747 892 1840
3 1092 1093 1623
3 261 1933 2181
3 400 424 1666
3 1516 1903 2377
3 1100 1392 1605
3 247 1738 1881
3 268 1134 1986
3 1177 823 1178
3 884 1599 1957
3 263 262 2491
3 806 1627 1948
3 1227 1229 1256
3 191 1729 2504
3 1636 1635 2502
3 1480 1479 1601
3 1721 1947 2498
3 1924 1146 2174
3 229 1734 1735
3 175 204 1725
3 1179 1178 1180
3 354 1521 2147
3 665 697 1592
3 640 646 1585
3 627 545 1636
3 1882 240 2399
3 1556 1555 1606
3 1373 1620 2394
3 1871 1071 2419
3 548 1628 1629
3 455 436 1793
3 974 1831 1841
3 1844 1413 2392
3 1612 1614 1615
3 209 1639 1937
3 1329 1330 1331
3 1823 2100 2142
3 1097 1177 1535
3 1021 1020 1022
3 825 1912 2455
3 913 1122 1874
3 400 1666 2113
3 1256 1229 1526
3 1419 1418 2450
3 1552 1551 1553
3 1850 1099 1852
3 1629 1631 1632
3 801 685 2029
3 1618 1619 1621
3 265 268 1986
3 1715 2165 2330
3 1531 1529 1534
3 1022 1024 1576
3 658 693 1746
3 703 686 1067
3 1062 1576 1577
3 1023 1022 1062
3 236 1718 2394
3 1688 502 1740
3 1501 1477 2104
3 213 165 1509
3 646 795 1585
3 196 1737 1738
3 379 679 1795
3 639 640 683
3 924 875 1767
3 1752 699 1753
3 207 2192 2315
3 627 1636 1660
3 1217 1180 1745
3 730 728 1833
3 528 561 1591
3 1444 1417 1998
3 252 186 1602
3 1729 1445 2504
3 460 502 1688
3 1418 946 1778
3 1203 1200 1693
3 548 470 1628
3 849 668 1640
3 646 785 795
3 607 276 674
3 14 15 210
3 147 148 209
3 478 460 1688
3 1709 207 2315
3 1157 1546 1608
3 1155 1731 1899
3 1524 1934 2390
3 1775 921 1876
3 1433 1502 1503
3 470 458 1628
3 1223 1224 1225
3 1291 1569 1964
3 871 1056 1826
3 1781 1783 1915
3 1587 1067 2300
3 916 1038 1039
3 1388 1387 1389
3 1611 1610 1613
3 1075 1328 1329
3 1039 1290 1291
3 1538 1265 1804
3 1184 1185 2163
3 597 598 1794
3 1450 1356 2421
3 1835 576 2080
3 1629 1628 1631
3 1331 1330 1332
3 561 639 1591
3 1476 1480 1493
3 705 703 1586
3 639 683 1019
3 1951 1188 2106
3 436 446 1793
3 1472 1297 2142
3 1332 1387 1388
3 1345 984 1720
3 1329 1328 1330
3 1050 1048 1667
3 150 151 227
3 11 12 228
3 557 541 2256
3 1831 974 1879
3 134 229 1766
3 1357 1358 1638
3 1336 1641 2299
3 1650 1482 1962
3 1591 1019 2512
3 1506 1507 1570
3 1803 801 2029
3 1178 823 1972
3 1552 1553 1554
3 1290 1038 1294
3 1028 1313 1641
3 1237 1239 1597
3 993 1017 1100
3 893 2087 2094
3 149 1484 2528
3 1768 1142 1949
3 9 234 1673
3 1554 1553 1555
3 668 632 1640
3 711 806 1550
3 1628 458 1637
3 1098 1829 1830
3 1482 1331 1483
3 531 1818 2000
3 435 419 1790
3 1156 1157 1608
3 1182 1184 2179
3 510 512 1646
3 1231 1233 1250
3 946 841 1778
3 1483 1331 1571
3 1459 680 2458
3 1166 1040 1210
3 892 1657 1820
3 1042 1445 1726
3 1019 1020 1021
3 749 805 1810
3 234 1588 1589
3 1695 242 1892
3 556 1853 2483
3 1018 1572 1573
3 1529 1528 1530
3 1606 1558 1607
3 1761 1759 2308
3 1396 1032 1921
3 1018 956 1572
3 689 1150 1416
3 1827 1293 2515
3 149 150 1484
3 1647 656 1648
3 1543 694 2196
3 399 409 1783
3 545 525 1636
3 268 269 270
3 715 713 717
3 1100 1017 1392
3 1657 892 1747
3 207 22 1617
3 1666 884 2249
3 1671 1672 1769
3 1554 1555 1556
3 146 147 1537
3 1081 1444 1822
3 711 709 806
3 1443 2005 2322
3 660 658 1746
3 1166 1458 1754
3 916 796 917
3 1056 1728 1826
3 1068 1069 1275
3 184 185 1454
3 158 159 262
3 2007 1687 2231
3 805 1708 1810
3 1672 264 1986
3 1561 1562 1563
3 978 1075 1650
3 1590 1588 2457
3 215 25 1624
3 1551 1550 1565
3 1073 1346 1347
3 857 818 1584
3 1648 656 1649
3 675 674 821
3 561 594 639
3 1731 529 1899
3 2303 1454 2535
3 981 903 1040
3 1630 1629 1633
3 993 877 1017
3 724 718 726
3 512 603 1646
3 1676 235 1858
3 814 1060 1068
3 715 717 1567
3 1796 647 1870
3 1715 1171 2165
3 678 1592 1593
3 644 613 1824
3 1690 1525 2145
3 1297 1822 1823
3 271 656 1647
3 1704 1116 1705
3 1225 1226 1227
3 1275 1069 1338
3 910 956 1018
3 1824 1596 2154
3 1403 1100 1605
3 1221 1219 1222
3 1068 1060 1069
3 1901 245 1949
3 1081 1055 1321
3 1751 563 1752
3 1021 1022 1023
3 672 638 681
3 1095 657 1848
3 1235 1237 1248
3 1561 1556 1562
3 1265 1259 1804
3 524 1819 2016
3 978 1650 2362
3 1492 516 2494
3 229 1735 2061
3 185 186 252
3 157 158 253
3 152 153 233
3 9 10 234
3 1527 1529 1531
3 1808 1344 2360
3 1062 1577 1579
3 1509 1679 1977
3 424 454 1666
3 637 638 672
3 981 1040 1166
3 1555 1558 1606
3 751 749 1810
3 1166 1210 1458
3 1651 1313 2121
3 15 16 2260
3 1633 1632 2509
3 2167 1705 2276
3 551 602 2045
3 697 818 857
3 364 1786 1883
3 832 1189 2204
3 1476 1478 1479
3 678 665 1592
3 213 1509 2096
3 1015 888 1124
3 1062 1022 1576
3 679 1782 1795
3 680 1646 1995
3 1101 1100 1403
3 1109 433 1714
3 1248 1237 1597
3 733 730 1833
3 1702 213 2096
3 499 498 1828
3 1418 1778 2521
3 637 600 638
3 1048 1046 1054
3 1577 1576 1578
3 814 766 1060
3 1279 2252 2292
3 474 470 548
3 199 18 1676
3 157 253 1441
3 1048 1054 1667
3 471 472 2290
3 625 665 678
3 795 785 796
3 1264 1265 1266
3 1437 1926 2350
3 1362 2048 2168
3 1394 2337 2371
3 454 884 1666
3 1022 1020 1024
3 751 1810 1923
3 1046 1023 1580
3 1807 1701 1931
3 1618 208 1619
3 566 588 689
3 1828 498 1829
3 501 509 1599
3 1118 780 1775
3 878 817 929
3 1510 1511 1950
3 1618 1621 1694
3 1052 1081 1822
3 1416 1150 1715
3 1239 1241 1247
3 1396 1921 2067
3 1751 1752 1753
3 1264 1259 1265
3 539 566 1600
3 1762 1127 2496
3 1673 1788 2183
3 1555 1557 1558
3 1052 1050 1055
3 725 724 825
3 1142 1770 1771
3 681 853 867
3 454 501 884
3 1346 1420 1453
3 932 1147 1770
3 1546 1545 1547
3 533 582 1818
3 1266 1337 1460
3 1872 820 2318
3 1117 1119 1713
3 1081 1321 1417
3 1253 1259 1264
3 1569 771 2135
3 1052 1055 1081
3 1181 1178 1972
3 709 706 1627
3 1073 1076 1346
3 1098 1828 1829
3 1382 1380 2176
3 1442 1275 1443
3 919 999 1663
3 1789 828 1855
3 877 815 1684
3 509 539 631
3 992 877 993
3 1266 1265 1337
3 2268 1498 2340
3 1130 1032 1396
3 1095 1603 2508
3 886 826 887
3 531 533 1818
3 1131 1400 1881
3 447 437 516
3 2460 1132 2473
3 940 1535 2418
3 768 1873 2037
3 1813 1869 1954
3 1627 2163 2488
3 1497 1495 1645
3 1198 1409 2168
3 724 726 1912
3 1869 987 1954
3 763 1999 2338
3 1010 1170 1374
3 984 976 1720
3 1470 1743 1744
3 689 588 1150
3 1901 1949 2359
3 1640 632 1862
3 274 272 1787
3 563 564 1752
3 994 817 1505
3 737 1807 1931
3 1770 1147 1771
3 1233 1235 1733
3 2450 1418 2521
3 414 410 1821
3 908 1099 1850
3 1227 1228 1229
3 1692 1203 1693
3 1625 216 2194
3 512 528 603
3 1377 1357 1638
3 1465 1464 1470
3 1360 1359 2177
3 1686 2007 2095
3 1336 1028 1641
3 1857 751 1923
3 1758 572 1759
3 553 541 557
3 1171 1715 1811
3 956 1003 1073
3 1467 1465 1675
3 719 718 724
3 1509 1977 2096
3 1734 1625 1736
3 1503 1504 1868
3 592 597 1776
3 180 181 232
3 162 163 231
3 2308 1759 2370
3 1357 1114 1358
3 875 946 1010
3 509 631 1599
3 17 18 199
3 144 145 200
3 1099 906 1792
3 1469 1467 1494
3 605 589 1939
3 1208 1205 1211
3 354 344 2091
3 692 782 804
3 1010 946 1170
3 1463 1462 1464
3 716 715 718
3 714 713 715
3 271 273 656
3 139 1618 1694
3 549 277 686
3 673 672 766
3 1378 1377 1379
3 2007 868 2095
3 999 1028 1336
3 1208 1211 1447
3 601 545 627
3 1119 1643 1713
3 1332 1333 1387
3 910 912 956
3 520 521 2000
3 828 1789 1819
3 277 607 1520
3 1338 1339 2247
3 818 819 910
3 767 766 814
3 712 711 713
3 1494 1467 1675
3 639 594 640
3 2044 557 2256
3 235 20 1709
3 1620 236 2394
3 804 919 962
3 1862 702 2070
3 681 852 853
3 1559 1556 1561
3 1622 941 2471
3 2165 1440 2330
3 612 644 692
3 697 698 818
3 1903 1516 1994
3 371 379 1795
3 428 426 2138
3 1290 1294 2064
3 1384 1904 2432
3 566 689 1600
3 471 452 472
3 1092 1091 1093
3 1002 1131 1719
3 1090 1089 1091
3 875 841 946
3 1758 1760 1763
3 1562 1606 2085
3 1833 1830 2075
3 178 179 214
3 164 165 213
3 769 923 1815
3 692 644 782
3 804 782 919
3 182 183 256
3 160 161 257
3 1329 1331 1482
3 962 1663 1664
3 1177 1179 2042
3 403 405 1805
3 1461 1460 1462
3 140 208 1618
3 1859 232 1860
3 274 1787 2099
3 1381 2126 2186
3 1558 1560 1789
3 430 428 682
3 452 435 1683
3 1487 1156 1488
3 1470 1464 1743
3 597 1794 1893
3 1244 1253 1669
3 962 919 1663
3 258 8 1673
3 1087 1785 1786
3 970 1042 1726
3 199 1677 2149
3 1664 1663 1665
3 1229 1230 1231
3 991 827 1713
3 792 1603 1848
3 1822 1444 1823
3 665 666 697
3 19 20 235
3 142 143 236
3 728 1098 1833
3 532 530 1898
3 1015 1124 1372
3 1546 1547 1548
3 1851 1850 1853
3 1877 393 2240
3 923 1105 1815
3 1090 1091 1092
3 687 686 703
3 1683 435 1790
3 887 826 1961
3 684 663 1089
3 426 1934 2138
3 464 510 680
3 853 854 855
3 568 572 1758
3 1376 1357 1377
3 1205 1203 1692
3 1607 1789 1855
3 710 709 711
3 780 781 1775
3 1434 1103 1435
3 876 815 877
3 766 672 1656
3 1393 1590 2457
3 684 1089 1090
3 530 890 1898
3 926 1920 1943
3 696 414 1821
3 1563 1562 1777
3 1054 1046 1580
3 1398 1973 1974
3 137 216 1625
3 1210 1040 1430
3 1750 563 1751
3 2010 1665 2299
3 1510 1374 1511
3 1777 1562 2085
3 1707 252 1791
3 1932 1404 1933
3 459 438 1814
3 139 140 1618
3 1093 1156 1487
3 231 163 1658
3 699 722 723
3 1545 1095 2508
3 598 612 1794
3 579 554 1880
3 1941 1908 2401
3 1231 1232 1233
3 1831 1829 1841
3 1037 1383 1799
3 177 178 1506
3 636 600 637
3 1036 1539 2286
3 1356 1114 1357
3 1523 1516 2377
3 704 703 705
3 403 402 405
3 648 792 1848
3 723 756 808
3 1388 1389 2170
3 933 932 1770
3 223 1710 1711
3 1779 399 1783
3 1223 1222 1224
3 1028 1029 1313
3 257 161 1654
3 418 412 421
3 734 882 1807
3 693 657 1095
3 1368 1370 1436
3 136 137 1625
3 688 652 817
3 1075 1327 1328
3 540 479 1813
3 398 395 402
3 548 1629 1630
3 574 591 699
3 1469 1494 1495
3 1041 1598 2175
3 167 168 202
3 175 176 204
3 2045 2046 2201
3 186 187 1602
3 886 887 888
3 1253 1254 1259
3 8 9 1673
3 792 655 810
3 843 1145 1960
3 1180 1349 1745
3 1165 1345 1512
3 708 706 709
3 136 1625 1734
3 21 22 207
3 140 141 208
3 625 626 665
3 1093 1094 1156
3 1585 795 1834
3 1117 1713 1806
3 599 579 600
3 810 871 1826
3 1047 1046 1048
3 1292 1291 1293
3 161 162 1654
3 199 1676 1677
3 1260 1282 1804
3 1005 1142 1768
3 1233 1234 1235
3 792 810 922
3 1122 1719 1737
3 976 985 1720
3 1278 1279 2292
3 2390 1934 2531
3 1436 1437 2350
3 270 271 1647
3 1199 966 1846
3 1683 1342 2212
3 656 273 2124
3 699 591 722
3 1977 1139 2096
3 1738 1719 1881
3 1722 985 1874
3 1797 1448 1798
3 162 231 1654
3 632 604 1862
3 252 1602 1791
3 1051 1050 1052
3 1045 1023 1046
3 648 655 792
3 993 1100 1101
3 1321 1055 1322
3 806 709 1627
3 904 903 981
3 1220 1267 1268
3 648 605 655
3 1737 1719 1738
3 385 399 1779
3 506 499 1828
3 1132 266 1402
3 1170 1418 1419
3 1323 2302 2354
3 24 25 215
3 137 138 216
3 721 965 1919
3 1787 1414 2460
3 778 1117 1806
3 723 722 756
3 407 403 1805
3 564 574 1752
3 1049 1048 1050
3 842 841 875
3 1608 1546 1842
3 809 808 899
3 1517 1519 1520
3 1530 1532 1533
3 889 421 1772
3 913 1002 1122
3 1314 1316 1367
3 1017 877 1684
3 841 802 1778
3 1235 1236 1237
3 751 1857 1900
3 1114 924 1767
3 1344 1644 2360
3 1895 1394 2371
3 1518 1535 1861
3 1758 1759 1760
3 1122 1002 1719
3 546 563 1750
3 1056 1726 1727
3 663 660 1746
3 621 622 625
3 1720 985 1721
3 1857 1843 1900
3 808 756 913
3 1056 970 1726
3 27 28 230
3 134 135 229
3 908 906 1099
3 163 164 1658
3 1727 1726 1729
3 7 8 258
3 154 155 259
3 1101 1403 1404
3 808 913 1874
3 1260 1269 1282
3 1389 1387 2262
3 1297 1053 1822
3 1555 1553 1557
3 1463 1464 1465
3 230 28 1765
3 1237 1238 1239
3 554 553 1880
3 775 778 1806
3 985 899 1874
3 1270 1524 2199
3 489 1820 1936
3 692 1072 1794
3 1472 2142 2272
3 1845 496 1929
3 438 431 1814
3 613 615 1824
3 1241 1242 1245
3 1783 415 1915
3 1192 2081 2149
3 178 214 1506
3 1816 988 1817
3 1760 1759 1761
3 1103 1092 1623
3 1512 1345 1661
3 1876 921 2295
3 1165 984 1345
3 978 1074 1075
3 1239 1240 1241
3 542 541 553
3 813 988 1816
3 1148 984 1165
3 871 970 1056
3 472 452 1683
3 1207 1796 1870
3 1167 1166 1754
3 1296 1053 1297
3 966 964 1846
3 976 899 985
3 982 976 984
3 702 1815 2015
3 900 899 976
3 1143 995 1206
3 1576 1024 1827
3 1235 1248 1733
3 1558 1557 1560
3 943 995 1143
3 1920 1144 1943
3 1471 2115 2477
3 29 30 255
3 132 133 254
3 1630 1633 1634
3 1225 1224 1226
3 1925 1573 1926
3 1211 1205 1692
3 725 825 826
3 1113 924 1114
3 600 579 1988
3 717 1552 1567
3 1820 1657 1936
3 674 276 2099
3 395 393 1877
3 572 543 1897
3 1575 1308 2255
3 999 1000 1028
3 1118 1775 1876
3 1797 1798 2430
3 526 546 559
3 867 853 2186
3 1142 1771 1949
3 1068 1275 1442
3 679 385 1779
3 1607 1558 1789
3 580 568 1758
3 1244 1252 1253
3 1760 1761 1762
3 398 402 403
3 1476 1258 1478
3 418 421 889
3 1771 1147 1839
3 164 213 1658
3 1720 1721 2267
3 1668 1591 2512
3 1042 1128 1445
3 1098 1830 1833
3 1102 1092 1103
3 2249 884 2466
3 1104 1103 1434
3 410 416 1821
3 514 513 541
3 580 1758 1763
3 637 673 1741
3 1913 936 1914
3 1394 1395 2337
3 919 920 999
3 577 554 579
3 2111 1660 2263
3 231 1658 1659
3 612 613 644
3 568 543 572
3 770 775 1806
3 1445 1128 1446
3 1546 1548 1842
3 448 460 478
3 810 870 871
3 1789 1560 1819
3 1154 1082 1431
3 873 973 1802
3 379 385 679
3 837 850 921
3 1461 1462 1463
3 1346 1076 1420
3 1088 1344 1808
3 2125 1143 2353
3 931 977 978
3 882 772 1802
3 29 255 1765
3 849 1513 2180
3 1713 827 1806
3 1130 1396 1397
3 681 638 852
3 1417 1321 1873
3 1654 1402 2530
3 502 526 1740
3 1124 888 2177
3 1266 1460 1461
3 515 1175 1840
3 1253 1264 1669
3 479 466 1813
3 1727 1729 1757
3 379 380 385
3 1971 1480 2514
3 1637 1739 2459
3 1207 1205 1208
3 529 519 1899
3 1129 1845 1929
3 224 1661 2267
3 192 1856 2361
3 732 734 1807
3 1184 2163 2435
3 1119 1120 1353
3 415 414 431
3 719 724 725
3 559 546 1750
3 871 872 970
3 1038 917 1622
3 574 699 1752
3 166 167 1679
3 1117 1118 1119
3 1409 1196 2035
3 617 619 621
3 1172 1173 1439
3 1191 1005 1768
3 664 663 684
3 494 493 1841
3 890 529 1731
3 840 802 841
3 493 974 1841
3 385 386 399
3 679 1779 1780
3 371 376 379
3 416 433 1109
3 670 769 1815
3 902 866 903
3 1780 1779 1781
3 480 515 1840
3 970 971 1042
3 433 448 1714
3 28 29 1765
3 1005 949 1142
3 778 780 1117
3 959 1037 1799
3 1073 1003 1076
3 535 532 1898
3 1119 1118 1120
3 658 657 693
3 1378 1379 1380
3 1397 1396 1809
3 1610 1609 1612
3 1819 1560 2016
3 1837 952 1865
3 1719 1131 1881
3 1131 1399 1400
3 1352 1138 2058
3 399 406 409
3 548 1630 2041
3 1275 1338 2251
3 582 1816 1818
3 1835 1836 2144
3 993 1101 1980
3 1699 1698 1700
3 2407 364 2505
3 1189 1190 1788
3 1117 780 1118
3 1830 1829 1831
3 637 672 673
3 692 804 1072
3 1204 1203 1205
3 1374 1170 2139
3 612 692 1794
3 1642 1408 2286
3 723 808 809
3 450 459 1812
3 409 410 414
3 802 801 1778
3 1853 1854 2483
3 1042 1127 1128
3 1199 1846 2225
3 1147 990 1273
3 1383 1384 2432
3 432 431 438
3 1353 1120 1390
3 1093 1091 1094
3 2020 250 2254
3 148 149 1639
3 606 605 648
3 1970 2016 2422
3 2201 2046 2327
3 475 471 513
3 412 407 1951
3 1991 246 2139
3 727 695 728
3 1673 234 1788
3 1554 1556 1559
3 1089 663 1746
3 1846 964 2056
3 923 991 1088
3 409 406 410
3 729 728 730
3 1424 1427 1856
3 1473 1911 2407
3 1376 1377 1378
3 1010 1374 1510
3 853 852 854
3 366 369 1087
3 772 873 1802
3 1219 1218 1626
3 1766 229 2061
3 1088 991 1344
3 922 810 1826
3 518 506 695
3 405 402 2116
3 962 1664 2316
3 913 942 1002
3 932 990 1147
3 629 813 1816
3 876 877 992
3 399 386 406
3 932 845 990
3 1002 1123 1131
3 843 996 1145
3 781 837 1775
3 262 2304 2491
3 431 696 1814
3 1273 1695 1892
3 731 730 732
3 737 732 1807
3 439 438 450
3 1829 498 1841
3 800 685 801
3 767 814 815
3 1060 766 1656
3 673 766 767
3 1403 1605 1882
3 716 718 719
3 1338 1069 1339
3 847 752 1843
3 864 862 1116
3 2302 443 2519
3 923 827 991
3 526 559 1740
3 1911 1473 2358
3 1085 1310 1867
3 809 899 900
3 1227 1226 1228
3 729 730 731
3 1436 1370 1437
3 731 732 737
3 769 827 923
3 456 452 471
3 1433 1503 2471
3 1435 1103 1623
3 385 380 386
3 1141 1787 2460
3 1354 1088 1808
3 657 649 1848
3 415 431 432
3 484 892 1820
3 727 728 729
3 855 854 1450
3 1721 1722 1723
3 1643 1353 1644
3 1145 1916 1960
3 1421 1191 1422
3 466 1812 1813
3 943 944 995
3 1356 1357 1376
3 714 715 716
3 1156 1094 1157
3 598 611 612
3 631 1600 2298
3 590 589 605
3 965 969 1919
3 416 1109 1821
3 242 1697 2335
3 1548 1547 1549
3 550 573 584
3 584 604 632
3 409 414 415
3 712 713 714
3 642 670 702
3 818 698 819
3 1006 1005 1191
3 1624 1689 1691
3 169 170 237
3 173 174 238
3 956 912 1003
3 937 936 1913
3 1317 1025 1875
3 515 540 550
3 973 1799 1800
3 973 959 1799
3 518 695 727
3 910 819 912
3 584 573 604
3 1170 946 1418
3 173 238 1847
3 550 540 573
3 982 984 1148
3 900 976 982
3 441 435 452
3 448 478 1714
3 1849 1648 2173
3 1631 1628 1637
3 1830 1831 1832
3 1383 1216 1384
3 734 772 882
3 949 933 1770
3 1332 1330 1333
3 574 575 591
3 1105 1088 1354
3 702 670 1815
3 498 494 1841
3 827 770 1806
3 873 959 973
3 1390 1391 1415
3 450 438 459
3 950 949 1005
3 351 362 364
3 1313 1029 1314
3 432 438 439
3 837 838 850
3 1273 1274 1695
3 850 851 943
3 911 952 1837
3 1259 1260 1804
3 566 587 588
3 1037 1216 1383
3 1337 1265 1538
3 1087 369 1795
3 810 655 870
3 1559 1561 1566
3 1147 1273 1839
3 732 733 734
3 1662 867 2126
3 890 1731 2241
3 1854 1852 2397
3 515 479 540
3 451 450 466
3 697 666 698
3 1367 1316 1368
3 662 660 663
3 365 355 694
3 1358 1114 1767
3 379 376 380
3 1796 1448 1797
3 179 180 1859
3 790 668 849
3 569 568 580
3 690 860 931
3 466 450 1812
3 431 414 696
3 1973 1133 1974
3 651 649 657
3 467 466 479
3 1288 1289 1835
3 264 265 1986
3 1302 1303 1304
3 592 596 597
3 1873 1321 2037
3 544 543 568
3 275 277 549
3 209 1937 2389
3 539 565 566
3 1485 227 1486
3 2384 2190 2408
3 1781 1779 1783
3 480 479 515
3 689 1416 2413
3 1108 1161 1539
3 1867 1310 1895
3 1300 1301 1302
3 1695 1696 1697
3 633 632 668
3 1304 1451 1452
3 988 911 1837
3 168 169 1724
3 969 1012 1172
3 582 629 1816
3 1843 752 1900
3 629 812 813
3 710 711 712
3 1782 1780 1784
3 536 535 543
3 1089 1746 1969
3 1108 1107 1161
3 1514 1426 1856
3 486 484 1820
3 369 371 1795
3 1817 988 1924
3 493 609 974
3 1422 1191 2023
3 1426 1424 1856
3 842 875 924
3 922 1826 2259
3 989 1361 1886
3 928 1070 1288
3 669 668 790
3 1113 1114 1356
3 1027 847 1843
3 728 695 1098
3 734 735 772
3 975 1107 1108
3 955 859 1962
3 813 911 988
3 1208 1448 1796
3 1101 1405 1980
3 602 676 2045
3 586 581 589
3 546 547 563
3 493 491 609
3 628 1524 2390
3 348 344 354
3 1298 1299 1300
3 509 538 539
3 974 609 975
3 813 891 911
3 871 870 872
3 1355 1354 1423
3 489 486 1820
3 778 779 780
3 1025 1176 1875
3 772 773 873
3 803 1743 2347
3 167 202 1679
3 873 883 959
3 1483 1571 2375
3 427 1756 2221
3 540 1813 1954
3 1202 1200 1203
3 959 1035 1037
3 837 921 1775
3 1304 1305 1451
3 1799 1383 2195
3 604 642 1862
3 1470 1744 2474
3 1854 2397 2453
3 1282 1269 1386
3 1573 1572 2157
3 472 2222 2290
3 1307 1708 2341
3 769 770 827
3 1037 1215 1216
3 791 790 856
3 1053 1052 1822
3 1056 1727 1728
3 1341 1138 1352
3 1300 1299 1301
3 1814 696 1838
3 1198 1196 1409
3 492 491 493
3 439 450 451
3 1171 858 2132
3 1259 1254 1260
3 665 626 666
3 970 872 971
3 258 1602 2357
3 1296 1297 1472
3 490 489 491
3 516 437 2494
3 1298 1027 1299
3 846 845 932
3 501 508 509
3 460 461 502
3 448 449 460
3 482 480 1840
3 1229 1228 1230
3 604 641 642
3 1424 1423 1427
3 502 503 526
3 1028 1000 1029
3 935 933 949
3 1084 1085 1867
3 2028 1711 2353
3 1513 1426 1514
3 892 482 1840
3 852 638 1988
3 402 395 1877
3 738 737 845
3 413 412 418
3 1119 1353 1643
3 526 527 546
3 280 279 281
3 1731 1155 2123
3 1042 971 1127
3 1208 1447 1448
3 433 434 448
3 262 159 2304
3 184 1454 2303
3 1051 1052 1053
3 1816 1817 1818
3 1081 1417 1444
3 781 836 837
3 911 951 952
3 1090 1092 1102
3 202 168 1724
3 1085 1309 1310
3 408 407 412
3 1337 1538 1864
3 1515 1514 1516
3 530 529 890
3 1517 1518 1519
3 549 686 687
3 923 1088 1105
3 404 403 407
3 1835 1289 1836
3 1314 1367 2121
3 1380 1379 2416
3 670 671 769
3 899 808 1874
3 1040 903 1703
3 1596 1595 2154
3 1496 1495 1497
3 636 637 1741
3 1377 1638 2288
3 1288 1070 1289
3 1072 804 1981
3 1129 1334 1845
3 1865 1084 1866
3 792 922 1603
3 1253 1252 1254
3 981 1167 1792
3 1302 1301 1303
3 1641 1651 2019
3 952 953 1084
3 1813 1812 1869
3 732 730 733
3 975 1106 1107
3 1142 949 1770
3 981 1166 1167
3 840 841 842
3 451 466 467
3 1273 990 1274
3 1049 1050 1051
3 1473 2407 2505
3 968 966 1199
3 642 643 670
3 1310 1309 1311
3 422 419 435
3 1063 833 1082
3 919 782 920
3 911 891 951
3 1084 953 1085
3 1763 1764 2164
3 1498 1497 1682
3 515 550 1175
3 1079 937 1913
3 642 702 1862
3 845 737 1931
3 1394 1311 1395
3 1395 1521 1522
3 467 479 480
3 1755 1754 1793
3 1231 1230 1232
3 1557 1553 2030
3 1624 1691 2262
3 584 632 633
3 1094 1091 1969
3 708 709 710
3 1948 1627 2488
3 952 951 953
3 1102 1103 1104
3 1047 1048 1049
3 1310 1311 1394
3 1852 1099 1985
3 143 144 1717
3 813 812 891
3 1944 1044 1945
3 1105 1354 1355
3 1300 1302 1455
3 1914 936 1940
3 1415 1391 1710
3 1299 1027 1843
3 952 1084 1865
3 1695 1274 1696
3 776 774 1928
3 282 281 283
3 2003 1347 2279
3 1206 995 1499
3 1164 1685 1686
3 1551 1565 2030
3 969 1172 1919
3 633 668 669
3 734 733 735
3 1373 1372 1438
3 599 600 636
3 1431 1860 2487
3 1579 1577 1999
3 484 482 892
3 917 940 941
3 2144 1836 2169
3 1866 1084 1867
3 1110 1747 1748
3 998 1171 1811
3 1390 1120 1391
3 644 1824 2057
3 1362 1961 2048
3 944 1283 1825
3 1086 1027 1298
3 679 1780 1782
3 974 975 1879
3 507 506 518
3 1121 1079 1401
3 775 777 778
3 1965 762 2349
3 1045 1046 1047
3 1772 421 2106
3 16 17 2081
3 416 417 433
3 921 850 2125
3 1607 1855 1958
3 649 648 1848
3 1241 1240 1242
3 2012 1443 2251
3 926 928 1920
3 1487 1488 2025
3 1006 1191 1421
3 1355 1423 1424
3 1133 852 1988
3 591 592 1776
3 1299 1843 1857
3 1085 1308 1309
3 490 491 492
3 958 694 1575
3 1384 1216 1385
3 741 915 1878
3 1233 1232 1234
3 669 790 791
3 481 480 482
3 687 703 704
3 492 493 494
3 1634 1633 1922
3 1697 1696 1698
3 1721 985 1722
3 1839 1273 1892
3 772 735 773
3 488 486 489
3 950 1005 1006
3 1513 1514 1515
3 454 500 501
3 873 773 883
3 284 283 285
3 2185 1505 2442
3 959 883 1035
3 543 535 1897
3 1904 1384 2093
3 800 801 802
3 1037 1035 1215
3 1293 1964 1965
3 1239 1238 1240
3 943 1143 2125
3 1782 1784 1785
3 913 756 942
3 488 490 1884
3 1590 1749 2501
3 1235 1234 1236
3 791 856 1408
3 702 2015 2070
3 1108 1539 1540
3 1021 1023 1045
3 695 506 1828
3 1530 1528 1532
3 488 489 490
3 1621 1619 2161
3 704 705 706
3 1304 1303 1305
3 558 1704 2167
3 625 622 626
3 542 553 554
3 604 573 641
3 664 684 685
3 564 571 574
3 1108 1540 1879
3 1856 1427 2361
3 880 1025 1129
3 1395 1311 1521
3 1466 1465 1467
3 915 495 1884
3 1515 1516 1523
3 1237 1236 1238
3 606 648 649
3 999 920 1000
3 676 829 1043
3 2100 794 2142
3 227 151 1500
3 577 579 599
3 153 154 1671
3 1175 550 1927
3 1014 888 1015
3 286 285 287
3 1649 1280 2427
3 1725 204 2137
3 975 609 1106
3 1129 1317 1334
3 1109 1730 2426
3 1468 1467 1469
3 1131 1123 1399
3 1215 2235 2378
3 1976 1149 1989
3 397 395 398
3 746 743 1878
3 1041 1343 1598
3 975 1108 1879
3 741 495 915
3 1167 1754 1755
3 288 287 289
3 743 741 1878
3 1274 990 1931
3 1506 214 1507
3 857 1584 2277
3 2341 1522 2387
3 846 932 933
3 1107 1106 1110
3 584 633 1927
3 290 289 291
3 722 591 1776
3 1544 1094 1969
3 1135 270 1647
3 935 949 950
3 1920 1288 2080
3 754 1896 2108
3 1693 1199 2225
3 292 291 293
3 394 393 395
3 745 743 746
3 1002 942 1123
3 731 737 738
3 294 293 295
3 1018 1573 1925
3 296 295 297
3 298 297 299
3 321 322 325
3 317 320 321
3 314 315 317
3 312 313 314
3 310 311 312
3 308 309 310
3 1898 890 2275
3 306 307 308
3 304 305 306
3 1401 1079 1913
3 300 299 301
3 302 303 304
3 300 301 302
3 302 301 303
3 491 489 1936
3 298 299 300
3 304 303 305
3 306 305 307
3 308 307 309
3 310 309 311
3 312 311 313
3 314 313 315
3 317 315 320
3 321 320 322
3 1301 1299 1857
3 514 541 542
3 296 297 298
3 850 838 851
3 1310 1394 1895
3 294 295 296
3 590 605 606
3 292 293 294
3 651 657 658
3 290 291 292
3 1207 1208 1796
3 835 1976 1989
3 621 619 622
3 746 1878 1896
3 481 482 483
3 1026 847 1027
3 1335 1207 1870
3 1661 59 2266
3 727 729 1155
3 288 289 290
3 1058 776 1928
3 662 663 664
3 495 488 1884
3 1959 319 2522
3 943 851 944
3 1293 1291 1964
3 534 532 535
3 640 645 646
3 2280 1014 2385
3 286 287 288
3 591 575 592
3 521 519 529
3 13 14 2114
3 780 779 781
3 918 908 1850
3 837 836 838
3 209 148 1639
3 754 748 1896
3 745 746 747
3 769 671 770
3 929 1065 2197
3 1278 1058 1279
3 483 482 484
3 1564 1557 2030
3 633 807 1927
3 392 391 393
3 1057 1621 2161
3 569 580 581
3 284 285 286
3 876 992 1894
3 497 494 498
3 1630 1635 2041
3 982 1148 1918
3 612 611 613
3 700 634 1044
3 822 674 2099
3 880 1129 1929
3 432 439 654
3 1039 1291 1292
3 1164 1686 1989
3 1129 1025 1317
3 738 845 846
3 582 583 629
3 278 6 279
3 544 568 569
3 1701 1274 1931
3 747 749 751
3 1085 953 1308
3 928 930 1070
3 747 748 749
3 1421 1422 2415
3 902 903 904
3 1309 1308 1543
3 642 641 643
3 904 981 1792
3 646 784 785
3 536 543 544
3 1204 1205 1207
3 365 694 958
3 71 72 217
3 88 89 1901
3 87 88 193
3 101 102 189
3 85 86 242
3 99 100 241
3 74 75 192
3 91 92 219
3 94 95 191
3 83 84 220
3 97 98 221
3 77 78 218
3 80 81 194
3 89 90 245
3 62 63 244
3 60 61 188
3 64 65 223
3 67 68 190
3 90 91 1909
3 98 99 1905
3 61 62 1908
3 69 70 243
3 68 69 1907
3 70 71 1910
3 410 411 416
3 586 589 590
3 685 684 2029
3 390 389 391
3 1715 1150 1811
3 1924 1837 2215
3 282 283 284
3 496 497 1929
3 233 1671 1769
3 627 2185 2442
3 1567 1552 2062
3 629 630 812
3 424 453 454
3 583 562 1942
3 749 750 805
3 744 743 745
3 1897 535 1898
3 467 480 481
3 504 759 880
3 670 643 671
3 89 245 1901
3 193 88 1901
3 221 98 1905
3 245 90 1909
3 91 219 1909
3 62 244 1908
3 188 61 1908
3 99 241 1905
3 190 68 1907
3 71 217 1910
3 69 243 1907
3 243 70 1910
3 505 499 506
3 475 513 514
3 1945 1044 2071
3 1712 2125 2353
3 339 343 440
3 989 1360 1361
3 764 869 1152
3 778 777 779
3 1686 1685 1687
3 742 741 743
3 979 989 1886
3 729 731 1887
3 926 927 928
3 1305 1306 1307
3 1838 1278 2292
3 747 746 748
3 181 182 1652
3 1886 1361 2305
3 1595 1594 2486
3 597 596 598
3 928 1288 1920
3 1970 824 2156
3 1425 1424 1426
3 497 504 1929
3 748 746 1896
3 745 747 1900
3 998 858 1171
3 563 547 564
3 1155 729 1887
3 634 583 1942
3 1439 1173 1440
3 1026 1027 1086
3 79 80 1904
3 1533 1532 1536
3 1449 1426 1513
3 1106 609 1936
3 1318 1013 1319
3 1098 695 1828
3 492 494 496
3 750 748 754
3 731 738 1887
3 2415 1422 2516
3 533 562 582
3 988 1837 1924
3 1216 1215 1863
3 534 535 536
3 747 751 1900
3 1753 809 2119
3 1183 824 1970
3 740 495 741
3 80 194 1904
3 893 383 2087
3 655 605 1939
3 1884 2034 2082
3 1301 1857 1923
3 1307 1306 1708
3 752 745 1900
3 750 754 755
3 76 77 1903
3 2090 2347 2365
3 255 30 2159
3 132 254 2160
3 448 434 449
3 753 848 926
3 1075 1074 1327
3 487 488 495
3 377 381 647
3 483 484 485
3 755 754 2148
3 1584 1925 2277
3 1186 1183 1970
3 951 891 1281
3 485 484 486
3 546 527 547
3 133 134 1766
3 1786 1785 2409
3 280 281 282
3 460 449 461
3 744 745 752
3 77 218 1903
3 983 1918 2342
3 1708 1306 1810
3 1389 2069 2170
3 487 486 488
3 641 573 1954
3 507 518 519
3 502 461 503
3 519 518 1899
3 1202 1203 1204
3 821 897 1972
3 92 93 1902
3 521 529 530
3 749 748 750
3 2176 1380 2416
3 885 826 886
3 485 486 487
3 371 372 376
3 1289 1070 1871
3 1110 1657 1747
3 753 926 1943
3 700 1044 1944
3 880 881 1025
3 496 1845 2034
3 1072 1981 2393
3 462 464 2134
3 1949 1771 2359
3 1044 634 1942
3 550 584 1927
3 1390 1415 2118
3 526 503 527
3 990 845 1931
3 1009 1213 1214
3 740 742 1144
3 219 92 1902
3 727 1155 1899
3 369 370 371
3 623 690 2150
3 1279 1058 1928
3 1408 2235 2286
3 487 495 740
3 979 1886 2086
3 1305 1303 1306
3 421 412 1951
3 843 844 996
3 633 669 807
3 518 727 1899
3 826 825 1961
3 1657 1106 1936
3 1172 1012 1173
3 740 741 742
3 433 417 434
3 505 506 507
3 1333 1674 2437
3 742 743 744
3 469 458 470
3 1381 1380 1382
3 1293 1965 2515
3 1554 1559 2062
3 553 557 2499
3 1774 389 2339
3 497 498 499
3 483 485 576
3 740 1144 1935
3 773 735 834
3 366 367 369
3 1120 1118 1876
3 1515 1523 1574
3 1319 1013 2039
3 1303 1301 1923
3 457 447 458
3 561 593 594
3 1355 1424 1425
3 609 491 1936
3 204 1732 2137
3 791 1408 1642
3 995 944 1825
3 456 471 475
3 1692 1693 2239
3 580 1763 2164
3 1292 1293 2117
3 441 452 456
3 388 384 389
3 823 821 1972
3 504 880 1929
3 176 177 1680
3 1070 1071 1871
3 15 2260 2477
3 362 363 366
3 2178 2300 2449
3 1035 883 1036
3 2285 1563 2307
3 978 977 1074
3 1090 1102 2029
3 1810 1306 1923
3 496 494 497
3 1306 1303 1923
3 432 654 1915
3 934 933 935
3 356 355 365
3 398 403 404
3 635 701 843
3 1110 1106 1657
3 574 571 575
3 1025 881 1176
3 386 380 786
3 415 432 1915
3 343 347 1911
3 1070 930 1071
3 1688 1740 2231
3 1385 1216 1863
3 1696 1274 1701
3 1645 305 2317
3 880 759 881
3 926 848 927
3 1427 1423 2217
3 1339 1662 2388
3 770 774 775
3 1263 1257 1428
3 1337 1864 2412
3 349 348 355
3 2267 1721 2498
3 753 752 847
3 1375 1086 1473
3 900 982 983
3 332 335 739
3 429 428 430
3 744 752 753
3 1171 2132 2165
3 1425 1426 1449
3 987 641 1954
3 1883 1786 2409
3 427 426 428
3 928 927 930
3 1815 1105 2015
3 1206 1499 1941
3 410 406 411
3 573 540 1954
3 497 499 504
3 528 560 561
3 1933 1404 2399
3 1091 1089 1969
3 1804 1282 2073
3 504 505 759
3 963 924 1113
3 1711 1710 1712
3 881 759 1146
3 968 1199 1200
3 351 352 362
3 848 847 1026
3 521 530 531
3 1884 490 2034
3 1277 957 1966
3 1349 1350 2329
3 676 1043 2045
3 997 1159 1286
3 517 1889 1890
3 781 835 836
3 944 948 1283
3 722 1776 2026
3 507 519 520
3 2040 1352 2058
3 1276 957 1277
3 446 437 447
3 931 860 977
3 361 359 765
3 1248 1536 2534
3 512 523 528
3 408 412 413
3 1368 1369 1370
3 451 2169 2223
3 192 75 1994
3 942 756 2026
3 345 344 348
3 764 1152 1963
3 413 418 419
3 1286 1773 1774
3 770 671 774
3 275 549 2124
3 1497 1645 2461
3 1982 1472 2272
3 422 435 441
3 281 279 736
3 1134 270 1135
3 582 562 583
3 1421 2415 2454
3 485 487 1935
3 2300 1067 2480
3 1578 1576 1827
3 930 927 1061
3 1026 1086 1375
3 922 2259 2379
3 1391 1120 1876
3 1495 1494 2493
3 404 407 408
3 879 2178 2449
3 1700 1698 2036
3 607 1517 1520
3 753 847 848
3 416 411 417
3 1144 742 1943
3 775 776 777
3 754 2108 2148
3 1006 1421 1953
3 585 581 586
3 531 530 532
3 235 1709 1888
3 520 519 521
3 1180 1181 1349
3 1146 759 1967
3 708 710 1921
3 1350 2253 2329
3 436 430 437
3 504 499 505
3 643 641 987
3 336 330 517
3 811 1059 1149
3 1164 1411 1685
3 846 933 934
3 635 843 1960
3 983 982 1918
3 971 872 1096
3 1149 1163 1164
3 169 237 1724
3 1314 1315 1316
3 629 583 630
3 891 812 1916
3 462 463 464
3 487 740 1935
3 798 2084 2189
3 1814 1838 2292
3 1284 1489 1491
3 340 336 2014
3 1670 1461 2200
3 920 782 2057
3 890 2241 2275
3 510 511 512
3 278 279 280
3 839 802 840
3 1858 235 1888
3 1698 1696 2036
3 104 105 222
3 57 58 224
3 1185 1183 1186
3 588 587 623
3 638 600 1988
3 1282 1386 2245
3 811 776 1058
3 816 815 876
3 2034 1845 2082
3 761 636 1741
3 566 565 587
3 174 175 1725
3 347 350 351
3 1469 1495 1496
3 1059 1058 1278
3 811 1149 1976
3 576 485 1935
3 659 658 660
3 859 1153 1962
3 76 1903 1994
3 1821 1109 2426
3 1294 1038 1622
3 733 1833 2075
3 992 993 1980
3 1566 1561 2285
3 525 474 2041
3 464 465 510
3 343 346 347
3 360 893 1982
3 650 649 651
3 896 608 936
3 950 1006 1007
3 1508 1859 1860
3 539 538 565
3 440 343 1911
3 341 340 344
3 221 1905 1906
3 1297 1823 2142
3 759 505 1967
3 1295 1053 1296
3 473 470 474
3 1463 1465 1466
3 1143 1206 2028
3 799 685 800
3 1210 2077 2203
3 509 508 538
3 492 496 2034
3 1553 1551 2030
3 1260 1261 1269
3 1430 1040 1703
3 586 590 1940
3 838 836 868
3 1705 624 2276
3 1749 972 2501
3 742 744 1943
3 804 962 1981
3 1367 1368 2254
3 531 532 533
3 337 336 340
3 1157 1094 1544
3 536 544 1158
3 812 630 1960
3 781 779 835
3 56 57 1947
3 630 583 634
3 1405 1404 1932
3 1281 891 1916
3 339 342 343
3 1411 1163 1730
3 322 323 324
3 344 340 2091
3 1735 1734 1736
3 75 76 1994
3 430 682 2494
3 1907 243 2360
3 589 581 2164
3 694 355 2196
3 744 753 1943
3 775 774 776
3 1210 1430 2077
3 335 338 339
3 1102 1803 2029
3 1078 937 1079
3 870 655 1939
3 505 507 1967
3 357 360 1982
3 1896 1878 2101
3 326 325 328
3 934 935 957
3 585 608 895
3 333 330 336
3 1270 1272 1524
3 688 817 878
3 507 520 1967
3 1428 1257 2074
3 1818 1817 2000
3 896 937 1077
3 934 957 1111
3 329 328 330
3 1499 995 1825
3 944 851 948
3 387 445 462
3 1678 1161 2228
3 777 776 811
3 313 311 757
3 324 331 332
3 848 1026 1955
3 1312 998 1811
3 1321 1322 2037
3 1080 1079 1121
3 1105 1355 2015
3 1645 2317 2461
3 1559 1568 2062
3 332 334 335
3 501 500 508
3 321 325 326
3 394 395 397
3 322 320 323
3 1529 1530 2171
3 1137 797 1138
3 811 1058 1059
3 661 660 662
3 569 581 585
3 183 4 2303
3 5 160 2304
3 1340 1138 1341
3 1660 1626 2185
3 1743 1464 2347
3 1026 1375 1955
3 1149 1059 1163
3 1736 1625 2194
3 1322 1667 2434
3 311 309 1959
3 309 307 319
3 894 700 1944
3 533 534 562
3 1276 1277 1366
3 2190 1706 2408
3 533 532 534
3 1214 1213 1410
3 1164 1163 1411
3 843 701 844
3 1009 1214 2055
3 234 1589 1788
3 2000 1817 2174
3 317 321 2050
3 328 325 945
3 392 393 394
3 588 623 2089
3 1162 958 1681
3 1078 1080 1136
3 927 848 1955
3 1496 1497 1498
3 390 391 392
3 1061 927 1955
3 1283 948 1284
3 635 634 700
3 1244 1251 1252
3 218 78 2093
3 756 722 2026
3 1071 1784 2419
3 1218 1505 2185
3 1284 948 1285
3 1489 1285 1490
3 918 1850 1851
3 684 1090 2029
3 1759 572 2537
3 1691 1690 2446
3 1979 1158 2071
3 606 649 650
3 2045 1043 2046
3 103 104 2025
3 630 634 635
3 360 383 893
3 406 386 2043
3 1909 219 2023
3 1111 957 1276
3 1925 1437 2277
3 1536 2268 2340
3 854 852 1133
3 233 153 1671
3 651 658 659
3 2099 1787 2368
3 1033 1032 1130
3 1015 1372 1373
3 1412 942 2026
3 253 264 1441
3 1531 1534 2332
3 701 700 894
3 106 107 1990
3 2048 1961 2455
3 276 274 2099
3 738 846 1968
3 1325 925 1326
3 896 936 937
3 585 586 608
3 1450 854 1973
3 1361 1360 1362
3 1045 1668 2512
3 303 301 444
3 996 844 997
3 79 1904 2093
3 1989 1686 2095
3 1928 774 2033
3 1942 562 1979
3 287 285 316
3 935 950 1966
3 1466 1467 1468
3 1242 1243 1244
3 1887 738 1968
3 2115 210 2477
3 878 929 1083
3 1326 1736 2194
3 886 888 1014
3 895 608 896
3 289 287 1978
3 821 822 897
3 936 608 1940
3 613 614 615
3 51 52 1996
3 417 411 1160
3 1149 1164 1989
3 386 786 2043
3 285 283 1971
3 1309 1543 2147
3 375 373 2053
3 371 370 372
3 779 777 1976
3 1286 1159 1773
3 2177 887 2376
3 1560 1557 1564
3 1403 1882 2399
3 1727 1757 2246
3 279 6 2049
3 1619 1438 2438
3 291 289 758
3 1781 1915 2294
3 425 401 426
3 349 355 356
3 66 67 2118
3 474 548 2041
3 1686 1687 2007
3 1262 1456 1457
3 1123 942 1412
3 1916 812 1960
3 1355 1425 2015
3 735 733 2075
3 1861 879 2449
3 1284 1285 1489
3 490 492 2034
3 366 363 367
3 980 578 2051
3 906 904 1792
3 534 536 1979
3 842 924 963
3 2051 578 2083
3 1077 937 1078
3 1102 1104 1803
3 894 1944 1946
3 398 404 2060
3 1007 1006 1953
3 369 367 370
3 348 354 2196
3 1078 1079 1080
3 1378 1380 1381
3 1568 1365 2439
3 608 586 1940
3 598 610 611
3 760 636 761
3 869 1137 1351
3 671 643 2033
3 1661 1345 2267
3 938 914 1057
3 783 761 914
3 576 1835 2144
3 388 389 390
3 297 295 318
3 454 453 500
3 1906 1728 2246
3 1439 1440 2468
3 1159 1013 1318
3 764 797 869
3 236 143 1717
3 782 644 2057
3 592 595 596
3 1542 2332 2443
3 1521 1311 2147
3 345 348 349
3 1304 1452 2205
3 1644 1907 2360
3 2146 1125 2149
3 997 844 1013
3 628 375 2053
3 299 297 1984
3 957 935 1966
3 664 685 799
3 301 299 1975
3 362 352 363
3 777 811 1976
3 1942 1979 2071
3 1001 920 2057
3 312 314 768
3 1552 1554 2062
3 615 616 617
3 357 1982 2076
3 800 802 839
3 774 671 2033
3 1749 1169 2105
3 365 958 1162
3 617 618 619
3 283 281 1938
3 1351 1772 2414
3 1525 1765 2489
3 846 934 1968
3 635 700 701
3 555 554 577
3 536 1158 1979
3 1101 1404 1405
3 630 635 1960
3 1811 1150 2089
3 2113 1666 2249
3 172 173 1847
3 107 108 195
3 54 55 196
3 1191 1768 2023
3 1455 1302 2205
3 115 116 2017
3 1387 1333 2437
3 659 661 764
3 1080 1121 1188
3 50 51 2011
3 411 406 2043
3 295 293 1983
3 643 987 2033
3 707 706 708
3 129 130 261
3 32 33 260
3 2159 260 2265
3 449 434 567
3 1314 1029 1315
3 917 796 940
3 378 375 628
3 108 109 1991
3 2370 1759 2537
3 341 344 345
3 997 1013 1159
3 544 569 1993
3 950 1007 1966
3 477 474 525
3 351 350 352
3 1696 1701 2036
3 334 331 803
3 1137 1138 1340
3 562 534 1979
3 109 110 246
3 52 53 247
3 1368 1316 1369
3 659 660 661
3 33 34 2002
3 123 124 2005
3 835 779 1976
3 851 838 1992
3 1530 1533 2172
3 1668 1045 2348
3 1162 1681 1706
3 342 338 468
3 298 300 358
3 765 359 2065
3 725 826 885
3 35 36 2003
3 46 47 2019
3 38 39 2006
3 336 517 2014
3 934 1111 1968
3 116 117 2018
3 650 651 1963
3 223 1711 2162
3 640 594 645
3 1333 1330 2192
3 104 222 2025
3 1603 922 2379
3 963 1113 1115
3 2084 1193 2189
3 564 570 571
3 36 37 2004
3 57 224 1947
3 1542 1601 2269
3 122 123 2012
3 1000 920 1001
3 127 128 240
3 34 35 239
3 383 387 2087
3 1161 1107 2228
3 1781 2294 2419
3 1201 1200 1202
3 124 125 225
3 37 38 226
3 1340 1341 1342
3 869 797 1137
3 839 840 1008
3 1158 544 1993
3 1326 925 1894
3 352 350 353
3 326 329 954
3 1864 2344 2412
3 836 835 2095
3 1051 1053 1295
3 1031 720 1032
3 503 461 787
3 1407 1112 2044
3 661 662 2058
3 838 868 1992
3 112 113 197
3 49 50 198
3 1359 980 1413
3 121 122 211
3 40 41 212
3 48 49 2010
3 113 114 2009
3 1741 673 2131
3 41 42 2020
3 120 121 2013
3 1409 2035 2097
3 1511 1374 2506
3 114 115 248
3 47 48 249
3 42 43 250
3 119 120 251
3 171 6 201
3 6 172 203
3 585 895 1993
3 43 44 2024
3 118 119 2021
3 905 904 906
3 764 661 797
3 337 340 341
3 1413 980 2051
3 117 118 205
3 44 45 206
3 347 346 350
3 1420 1076 1525
3 324 323 331
3 434 417 2031
3 965 967 969
3 716 719 788
3 1260 1254 1261
3 2053 373 2103
3 2069 2068 2170
3 326 328 329
3 1706 996 2408
3 273 275 2124
3 969 1011 1012
3 590 606 2001
3 1718 1611 2280
3 1914 1940 2001
3 915 1884 2082
3 329 330 333
3 620 859 955
3 2168 1409 2305
3 296 298 1997
3 915 2082 2101
3 339 338 342
3 1218 994 1505
3 333 336 337
3 266 263 1742
3 1873 768 2127
3 244 63 2162
3 64 223 2162
3 343 342 346
3 914 761 2258
3 310 312 1987
3 799 800 2055
3 302 304 763
3 1559 1566 1568
3 1598 1343 2114
3 592 575 595
3 341 345 794
3 189 1842 2220
3 767 815 816
3 1003 912 1004
3 839 1008 1009
3 1263 1428 1429
3 564 547 570
3 1845 1334 2082
3 332 331 334
3 901 866 902
3 651 659 1963
3 1009 1112 1213
3 335 334 338
3 569 585 1993
3 1665 1336 2299
3 1945 2071 2153
3 863 862 864
3 907 906 908
3 1849 1486 1930
3 1935 1144 2080
3 967 966 968
3 809 900 2119
3 865 864 866
3 835 1989 2095
3 190 1907 2417
3 333 337 522
3 1110 1748 2228
3 1193 1194 1195
3 94 191 2166
3 473 1854 2453
3 1769 1134 2369
3 948 851 1992
3 237 170 2216
3 420 419 422
3 1448 1447 2364
3 483 576 2144
3 721 1919 2032
3 885 886 1891
3 613 611 614
3 886 1014 1891
3 1160 411 2043
3 1918 1283 2342
3 1651 206 2485
3 1242 1240 1243
3 598 596 610
3 1295 1296 1459
3 1185 1186 1948
3 1425 1449 2070
3 294 296 762
3 1285 948 1992
3 925 876 1894
3 712 714 789
3 603 1668 2398
3 1940 590 2001
3 721 570 964
3 834 735 2075
3 1144 1920 2080
3 2263 1635 2511
3 1204 1207 1335
3 2235 1408 2378
3 965 964 966
3 1990 1435 2218
3 397 398 2060
3 1138 797 2058
3 1787 1141 2368
3 2068 820 2170
3 360 359 361
3 387 462 2087
3 1524 1272 1934
3 819 698 820
3 1197 1196 1198
3 1662 2126 2388
3 78 79 2093
3 1150 588 2089
3 1269 1261 1270
3 1878 915 2101
3 451 467 2169
3 2262 1387 2437
3 1009 1008 1112
3 757 311 1959
3 897 898 1139
3 1854 473 2483
3 2015 1425 2070
3 2082 1334 2101
3 963 1115 1174
3 1047 1049 1287
3 1194 423 1196
3 321 326 2050
3 417 1160 2031
3 854 1133 1973
3 1201 1212 1348
3 705 1586 2163
3 309 319 1959
3 1353 1390 2417
3 427 428 429
3 357 356 359
3 606 650 2001
3 549 1280 2124
3 1213 1112 1407
3 256 2303 2535
3 356 365 2065
3 662 664 2040
3 701 894 2039
3 1325 1371 2451
3 666 626 667
3 1902 93 2166
3 1236 1234 1246
3 800 839 2055
3 1869 1812 2252
3 1197 1364 1365
3 576 1935 2080
3 404 408 798
3 1678 807 2529
3 1560 1564 2016
3 1319 2039 2122
3 425 426 427
3 349 356 357
3 308 310 327
3 1716 622 2484
3 1801 82 2289
3 1768 1949 2420
3 2006 1926 2507
3 351 364 2407
3 420 423 1193
3 659 764 1963
3 292 294 2038
3 840 842 2027
3 736 279 2049
3 372 373 374
3 461 449 2052
3 2189 1195 2285
3 1174 1115 1398
3 367 363 961
3 909 908 918
3 1738 247 2402
3 1007 1761 2308
3 288 290 2135
3 422 441 2035
3 623 624 690
3 537 525 545
3 1953 1421 2454
3 1887 1968 2123
3 861 691 862
3 654 439 2223
3 1136 1080 2054
3 1312 1811 2089
3 575 571 2032
3 383 361 384
3 968 1200 1201
3 797 661 2058
3 1423 1354 2381
3 1180 1178 1181
3 1513 1515 2180
3 72 73 2217
3 462 445 463
3 12 13 2136
3 457 458 469
3 542 554 555
3 599 636 760
3 254 133 1766
3 1130 1397 1937
3 404 798 2060
3 1044 1942 2071
3 690 691 860
3 357 359 360
3 1008 2027 2152
3 1232 1230 1255
3 372 370 373
3 850 943 2125
3 1457 1456 1492
3 1952 324 2282
3 155 2 2356
3 0 7 2357
3 2017 1379 2288
3 918 1851 2008
3 195 1991 2517
3 2090 803 2347
3 1244 1243 1251
3 290 292 368
3 1432 1082 2214
3 1008 840 2027
3 1743 803 2296
3 1013 844 2039
3 365 1162 2065
3 1594 1315 2184
3 387 384 388
3 1508 1860 2311
3 547 527 2056
3 2005 225 2322
3 314 317 2127
3 1853 556 2327
3 201 6 278
3 1907 1644 2417
3 1896 2101 2108
3 646 645 784
3 538 508 558
3 374 375 377
3 1630 1634 1635
3 1579 1999 2352
3 1647 1648 1849
3 1313 1314 2121
3 1179 1433 2042
3 844 701 2039
3 1252 1251 2098
3 816 876 925
3 1922 1228 2281
3 392 394 396
3 1915 654 2294
3 1652 1653 2487
3 429 430 436
3 456 475 476
3 1605 1392 2510
3 126 1882 2284
3 1784 1780 2419
3 500 453 960
3 377 378 381
3 2178 1587 2300
3 1222 1219 1626
3 413 419 420
3 381 382 400
3 2169 1836 2223
3 1906 1905 2129
3 616 614 793
3 1170 1419 2139
3 101 189 2220
3 241 100 2220
3 1968 1111 2123
3 567 434 2031
3 615 614 616
3 1032 720 1921
3 682 428 2138
3 469 470 473
3 339 440 2261
3 1501 238 2226
3 1154 1431 1653
3 446 447 457
3 1251 1243 1257
3 2229 315 2495
3 1201 1202 1212
3 785 784 879
3 464 463 465
3 66 2118 2395
3 324 332 2282
3 286 288 771
3 17 199 2081
3 571 570 721
3 611 610 2092
3 617 616 618
3 1542 1531 2332
3 400 401 424
3 1325 1326 1371
3 1140 1406 1702
3 1323 443 2302
3 1926 1573 2507
3 436 437 446
3 1262 1457 2098
3 67 190 2118
3 1518 1861 2449
3 989 1359 1360
3 1063 1082 1154
3 1757 96 2526
3 969 967 1011
3 868 836 2095
3 1215 1035 2235
3 96 1757 2309
3 261 2160 2380
3 1381 1382 2126
3 1468 1469 2182
3 1334 1317 2108
3 861 863 1064
3 1270 1261 1271
3 360 361 383
3 287 316 1978
3 1856 192 2367
3 1905 241 2129
3 1615 1809 2425
3 528 523 560
3 979 980 989
3 662 2040 2058
3 721 964 965
3 170 171 2216
3 664 799 2040
3 512 511 523
3 1201 1348 2107
3 620 618 858
3 758 289 1978
3 859 858 998
3 424 425 453
3 1616 1615 2193
3 444 301 1975
3 561 560 593
3 965 966 967
3 1798 376 2430
3 340 2014 2091
3 510 465 511
3 107 195 1990
3 1080 1188 2054
3 1153 998 1312
3 1226 1224 1249
3 1012 1011 1363
3 902 904 905
3 842 963 2027
3 268 270 1134
3 865 901 1125
3 2077 558 2102
3 282 284 442
3 1977 1679 2253
3 1496 1498 2047
3 284 286 2063
3 281 736 1938
3 2132 793 2165
3 1674 215 2437
3 2078 1855 2411
3 839 1009 2055
3 1182 824 1183
3 1168 947 1169
3 1289 1871 2242
3 316 285 1971
3 1270 1271 1272
3 1755 1793 2264
3 51 1996 2011
3 383 384 387
3 1146 1924 2215
3 1279 1928 2202
3 619 618 620
3 1194 1196 1197
3 555 578 979
3 1937 1639 2528
3 1262 1257 1263
3 389 384 2339
3 2251 1338 2464
3 1155 1887 2123
3 1151 1937 2528
3 465 463 828
3 1318 1319 2116
3 1687 1688 2231
3 326 954 2050
3 297 318 1984
3 1308 953 2255
3 1846 2056 2198
3 320 315 2229
3 1254 1252 2059
3 760 761 783
3 951 1281 2255
3 1459 1296 2094
3 2288 1638 2470
3 1975 299 1984
3 52 247 1996
3 468 338 2090
3 2140 1511 2506
3 1125 1126 1192
3 593 824 1182
3 720 708 1921
3 704 706 707
3 623 587 624
3 2044 1112 2152
3 1393 1169 1749
3 900 983 2119
3 783 914 938
3 255 2265 2489
3 2039 894 2122
3 317 2050 2127
3 1866 1867 2513
3 374 373 375
3 429 436 455
3 387 388 445
3 1193 423 1194
3 555 577 578
3 1074 977 1187
3 449 567 2052
3 1197 1198 1364
3 2154 1595 2486
3 1486 1849 2173
3 318 295 1983
3 939 1016 1844
3 131 132 2160
3 30 31 2159
3 881 1146 2215
3 1294 1868 2238
3 1300 1455 2314
3 1365 1364 1912
3 783 938 939
3 2061 1735 2441
3 551 545 601
3 2194 216 2536
3 1251 1257 1262
3 888 887 2177
3 1364 1198 2048
3 1498 1682 2340
3 1589 1590 2501
3 60 188 2266
3 1401 1913 2324
3 195 108 1991
3 420 422 423
3 1675 1470 2474
3 258 1673 2183
3 2161 1619 2438
3 1296 1472 2094
3 1808 1910 2381
3 334 803 2090
3 1490 1285 2232
3 523 511 524
3 1240 1238 2074
3 1184 1183 1185
3 39 40 2151
3 473 474 477
3 1461 1463 2200
3 2072 353 2073
3 861 862 863
3 1206 1941 2401
3 958 1575 2287
3 614 611 2092
3 110 111 2140
3 1136 2054 2110
3 645 594 2133
3 260 33 2002
3 673 767 2131
3 989 980 1359
3 1741 2131 2258
3 1317 1875 2148
3 894 1946 2122
3 863 864 865
3 787 461 2052
3 857 2277 2386
3 109 246 1991
3 2017 116 2018
3 1182 1183 1184
3 377 375 378
3 816 925 1324
3 865 866 901
3 1262 1263 1456
3 359 356 2065
3 2129 241 2472
3 283 1938 1971
3 1458 1210 2203
3 1076 1003 2145
3 196 1738 2402
3 1033 1130 1151
3 1188 1121 2106
3 1140 1702 2096
3 549 687 1280
3 1694 1621 2191
3 861 1064 2112
3 1548 1549 2129
3 1784 1071 2462
3 714 716 2066
3 1961 825 2455
3 1447 1211 2250
3 979 578 980
3 905 907 1209
3 381 378 382
3 457 469 552
3 595 575 2032
3 408 413 2084
3 481 483 2144
3 1745 1349 2293
3 1980 1405 2441
3 198 50 2011
3 248 115 2017
3 912 819 2068
3 620 858 859
3 707 708 720
3 821 674 822
3 514 542 2086
3 400 382 401
3 123 2005 2012
3 1772 1351 2374
3 34 239 2002
3 768 314 2127
3 2003 36 2004
3 280 282 2079
3 124 225 2005
3 596 595 2130
3 593 560 824
3 1504 1502 2519
3 239 35 2003
3 1311 1309 2147
3 1318 1877 2240
3 1860 1432 2311
3 1416 1715 2330
3 859 998 1153
3 352 353 2072
3 312 768 1987
3 2027 1174 2152
3 226 38 2006
3 1827 1024 2117
3 1710 1391 2295
3 690 624 691
3 37 226 2004
3 1153 1312 1885
3 853 855 2186
3 1892 242 2373
3 1967 520 2174
3 939 938 1016
3 47 249 2019
3 388 390 2078
3 1991 2139 2517
3 905 906 907
3 571 721 2032
3 1196 423 2035
3 1324 925 1325
3 1151 1130 1937
3 363 352 2072
3 345 349 2076
3 1031 1032 1033
3 214 179 1859
3 211 122 2012
3 602 601 652
3 117 205 2018
3 710 712 2067
3 1602 187 2357
3 520 2000 2174
3 85 242 2335
3 220 84 2335
3 381 400 2113
3 1586 1587 2435
3 424 401 425
3 963 1174 2027
3 860 691 861
3 610 596 2130
3 1958 2078 2431
3 570 547 2056
3 237 2216 2354
3 1211 1692 2219
3 298 358 1997
3 909 947 1041
3 441 456 2097
3 1135 1647 1849
3 1601 1542 2443
3 197 113 2009
3 49 198 2010
3 1911 347 2407
3 1729 191 2309
3 212 41 2020
3 121 211 2013
3 222 105 2218
3 1125 901 1126
3 114 248 2009
3 249 48 2010
3 42 250 2020
3 251 120 2013
3 233 1769 2369
3 1870 647 2113
3 794 345 2076
3 250 43 2024
3 119 251 2021
3 901 902 2141
3 964 570 2056
3 739 335 2261
3 2108 1317 2148
3 577 599 2083
3 205 118 2021
3 44 206 2024
3 1247 1241 2323
3 1894 992 2244
3 6 203 2049
3 1642 1678 2529
3 1417 1873 2333
3 1422 2023 2516
3 341 794 2100
3 73 74 2361
3 1234 1232 2088
3 1261 1254 2059
3 896 1077 2257
3 1921 710 2067
3 125 126 2284
3 220 1699 2289
3 159 5 2304
3 4 184 2303
3 2059 1252 2098
3 1003 1004 2145
3 2328 1325 2451
3 1486 227 1500
3 63 64 2162
3 2081 1192 2260
3 508 500 2102
3 667 1872 2318
3 338 334 2090
3 423 422 2035
3 1192 1126 1471
3 907 908 909
3 1330 1328 2192
3 1972 897 2500
3 2443 316 2514
3 242 86 2373
3 87 193 2373
3 420 1193 2084
3 1473 1086 2358
3 1987 768 2037
3 522 337 2100
3 627 1660 2185
3 1793 446 2264
3 1405 2061 2441
3 1502 1217 2302
3 171 201 2216
3 1158 1993 2153
3 1197 1365 2120
3 1712 1710 2295
3 1121 1401 2414
3 93 94 2166
3 653 652 688
3 622 1716 2452
3 1345 1720 2267
3 477 537 556
3 128 129 2181
3 2331 1295 2458
3 784 645 874
3 1269 1270 2199
3 189 102 2355
3 1041 1168 1343
3 246 110 2140
3 477 525 537
3 755 1895 2371
3 1947 1723 2313
3 1134 1135 2369
3 223 65 2395
3 968 1201 2107
3 1577 1578 2325
3 210 15 2477
3 961 363 2072
3 1581 1579 2352
3 349 357 2076
3 337 341 2100
3 305 303 2317
3 370 367 2103
3 762 296 1997
3 581 580 2164
3 1278 1838 2372
3 1548 2129 2472
3 594 593 2133
3 2021 251 2022
3 2047 1247 2182
3 967 968 2107
3 1169 947 2008
3 481 2144 2169
3 793 614 2092
3 1910 217 2381
3 1251 1262 2098
3 716 788 2066
3 2101 1334 2108
3 2006 39 2151
3 1603 2379 2508
3 1926 2006 2151
3 96 97 2526
3 750 755 2371
3 789 714 2066
3 909 918 947
3 1993 895 2153
3 106 1990 2218
3 1243 1240 2074
3 832 986 1189
3 1283 1284 2342
3 2297 195 2517
3 1043 829 2326
3 767 816 2131
3 602 653 676
3 1004 912 2068
3 2086 1886 2224
3 1124 2177 2467
3 426 401 2531
3 707 720 1030
3 1000 1001 2184
3 1315 1029 2184
3 467 481 2169
3 541 513 2256
3 647 381 2113
3 225 2284 2510
3 2 156 2356
3 187 0 2357
3 40 212 2151
3 2245 1386 2383
3 676 677 829
3 1004 2068 2069
3 1860 232 2487
3 1031 1033 1034
3 829 830 972
3 996 997 2408
3 1195 1194 2120
3 987 1869 2202
3 1410 1213 2222
3 819 820 2068
3 1485 1486 2173
3 1564 2030 2155
3 807 669 2529
3 129 261 2181
3 1525 1076 2145
3 578 577 2083
3 327 310 1987
3 1083 929 2197
3 2131 1324 2258
3 798 408 2084
3 1838 696 2426
3 1486 1500 1930
3 1946 1944 2291
3 2257 1077 2291
3 1512 1661 2266
3 445 388 2078
3 1192 1471 2260
3 2118 1415 2395
3 1466 1468 2158
3 830 677 831
3 211 2012 2251
3 652 601 2442
3 537 545 551
3 558 508 2102
3 198 2011 2128
3 1718 2280 2385
3 500 960 2102
3 1168 1169 1393
3 1127 971 2496
3 95 96 2309
3 2030 1565 2155
3 1919 1172 2273
3 977 860 2112
3 240 128 2181
3 294 762 2038
3 1800 1799 2195
3 712 789 2067
3 972 1749 2326
3 472 1683 2212
3 874 645 2133
3 551 2045 2201
3 2105 1043 2326
3 1957 1212 2301
3 1514 1856 2367
3 565 538 2167
3 373 370 2103
3 355 348 2196
3 1934 1272 2138
3 1934 426 2531
3 1881 1400 2481
3 2046 1851 2327
3 367 961 2103
3 1963 1152 2206
3 201 278 443
3 3 131 2444
3 31 1 2445
3 2035 441 2097
3 503 787 2198
3 1135 1849 1930
3 1534 1983 2306
3 2089 623 2150
3 687 704 2109
3 869 1351 2363
3 1302 1304 2205
3 955 1716 2484
3 1030 720 1031
3 1159 1318 2240
3 1228 1226 2281
3 947 918 2008
3 413 420 2084
3 785 879 2532
3 1041 947 1168
3 1468 2182 2323
3 1246 1234 2088
3 1730 1163 2372
3 542 555 2086
3 1599 631 2312
3 1146 1967 2174
3 1078 1136 2343
3 1515 1574 2180
3 2336 885 2469
3 1257 1243 2074
3 1347 1346 2279
3 2001 650 2206
3 1480 1601 2514
3 1029 1000 2184
3 1956 788 2336
3 1271 1261 2059
3 130 3 2444
3 1 32 2445
3 1570 1507 2197
3 1232 1255 2088
3 791 1642 2529
3 1601 1479 2269
3 1361 1362 2168
3 1634 1922 2281
3 765 2065 2190
3 2071 1158 2153
3 1699 1801 2289
3 832 831 833
3 1864 346 2344
3 456 476 2097
3 1855 828 2411
3 2065 1162 2190
3 1125 1192 2149
3 599 760 2083
3 361 765 2339
3 1731 2123 2241
3 1349 1181 1350
3 1443 1275 2251
3 1819 524 2429
3 1021 1045 2512
3 858 618 2132
3 1999 358 2338
3 368 292 2038
3 290 368 2135
3 803 331 2296
3 1112 1008 2152
3 56 1947 2313
3 555 979 2086
3 1469 1496 2182
3 1011 967 2107
3 248 2017 2288
3 1809 789 2425
3 960 453 2221
3 538 558 2167
3 1858 1187 2248
3 2246 1757 2526
3 902 905 2141
3 1851 1853 2327
3 1224 1222 2111
3 771 288 2135
3 1945 2153 2257
3 1420 1525 2489
3 1399 1123 2393
3 103 2025 2355
3 897 822 898
3 1861 940 2532
3 865 1125 2146
3 1675 2474 2522
3 1573 2157 2507
3 1632 1631 2382
3 551 601 602
3 527 503 2198
3 1708 805 2337
3 1059 1278 2372
3 2056 527 2198
3 860 861 2112
3 1668 2348 2398
3 255 2159 2265
3 1541 1542 2269
3 1428 2074 2227
3 1582 1583 2321
3 389 1774 2503
3 2004 226 2157
3 1777 397 2405
3 1368 1436 2254
3 1061 2409 2462
3 1071 930 2462
3 1126 901 2141
3 1194 1197 2120
3 1452 1952 2282
3 2116 1319 2482
3 105 106 2218
3 1981 1399 2393
3 2119 983 2143
3 444 1682 2461
3 2173 1648 2463
3 616 793 2132
3 1791 1190 2334
3 1826 1728 2259
3 602 652 653
3 1834 1292 2428
3 556 2201 2327
3 1014 1015 2385
3 1995 1287 2331
3 1193 1195 2189
3 816 1324 2131
3 879 1861 2532
3 593 1182 2133
3 1402 266 1742
3 2216 1323 2354
3 1660 1636 2502
3 620 955 2484
3 1162 1706 2190
3 1870 2113 2249
3 204 1680 1732
3 1909 2023 2420
3 217 72 2217
3 376 372 2430
3 905 1209 2141
3 1378 1381 2283
3 1236 1246 2227
3 286 771 2063
3 1635 2263 2502
3 100 101 2220
3 1139 898 1140
3 2114 1343 2136
3 442 284 2063
3 1772 2106 2414
3 1985 1755 2533
3 2192 1328 2315
3 1064 863 2146
3 1631 1637 2459
3 736 2049 2523
3 221 1906 2246
3 318 1983 2171
3 1496 2047 2182
3 1374 2139 2506
3 196 55 2313
3 2087 462 2134
3 676 653 677
3 2304 257 2491
3 1401 2324 2363
3 829 677 830
3 654 2223 2242
3 1187 977 2112
3 1463 1466 2200
3 2023 219 2516
3 1176 881 2215
3 513 471 2290
3 1812 459 2252
3 1386 1269 2199
3 291 758 2306
3 618 616 2132
3 278 280 2210
3 83 220 2289
3 82 83 2289
3 938 1057 2161
3 1189 986 1190
3 788 719 2336
3 1914 2001 2206
3 232 181 1652
3 1567 2062 2490
3 313 757 2495
3 622 619 2484
3 688 878 1320
3 1222 1626 2111
3 282 442 2079
3 1169 2008 2105
3 1966 1007 2308
3 2040 799 2237
3 1744 2229 2495
3 986 833 1063
3 2284 1605 2510
3 887 1961 2376
3 215 1624 2262
3 830 831 832
3 476 475 2224
3 439 451 2223
3 1932 1933 2380
3 2227 1246 2366
3 1212 1202 2301
3 1107 1110 2228
3 249 2010 2299
3 1983 293 2306
3 2055 1214 2237
3 1438 1372 2478
3 824 560 2156
3 2320 1866 2513
3 1351 1137 2374
3 868 2007 2232
3 2063 771 2064
3 1507 214 1508
3 1728 1727 2246
3 1045 1047 2348
3 1139 1140 2096
3 1648 1649 2463
3 1502 2302 2519
3 704 707 2109
3 2343 1136 2396
3 650 1963 2206
3 2153 895 2257
3 396 1958 2431
3 1379 1377 2288
3 2115 1471 2319
3 2033 987 2202
3 2239 1693 2518
3 2025 1488 2355
3 1209 2115 2319
3 523 524 2156
3 783 939 2243
3 376 1798 2497
3 2066 788 2193
3 1984 318 2172
3 425 427 2221
3 203 172 1847
3 446 457 2264
3 1312 2089 2150
3 2138 1272 2211
3 897 1139 2274
3 828 1819 2429
3 1249 1224 2111
3 666 667 2318
3 1371 1326 2194
3 2433 1499 2475
3 1272 1271 2211
3 1367 2254 2479
3 1386 2053 2383
3 2074 1238 2227
3 755 2148 2320
3 2117 1604 2428
3 475 514 2224
3 228 2187 2457
3 1868 1504 2520
3 1626 1218 2185
3 2123 1111 2241
3 1287 1049 2331
3 1280 687 2109
3 459 1814 2292
3 54 196 2402
3 863 865 2146
3 204 176 1680
3 514 2086 2224
3 1646 603 2398
3 112 197 2346
3 358 300 2338
3 1140 898 1141
3 1204 1335 2301
3 1016 2161 2438
3 909 1041 2175
3 1681 2448 2492
3 2252 459 2292
3 1992 868 2232
3 1035 1036 2235
3 1051 1295 2331
3 1836 1289 2242
3 1508 214 1859
3 247 53 2402
3 1016 938 2161
3 1408 856 2378
3 1466 2158 2200
3 725 885 2336
3 855 1450 2421
3 2023 1768 2420
3 1238 1236 2227
3 1679 202 2253
3 2107 1348 2233
3 1653 1431 2487
3 1946 2291 2343
3 2253 202 2329
3 1885 1312 2150
3 378 628 2390
3 2195 1383 2432
3 1520 1519 2480
3 1532 1733 2534
3 308 327 2278
3 953 951 2255
3 1213 1407 2222
3 1561 1563 2285
3 302 763 2338
3 1928 2033 2202
3 763 304 2345
3 832 833 986
3 1352 2040 2237
3 247 1881 2481
3 560 523 2156
3 335 339 2261
3 346 342 2344
3 201 443 1323
3 2301 1335 2466
3 323 320 2229
3 1136 2110 2396
3 1139 1977 2274
3 1809 1615 2423
3 1707 1791 2334
3 46 2019 2485
3 2064 1294 2238
3 1950 197 2404
3 2021 2022 2176
3 1949 245 2420
3 2044 2152 2207
3 1063 1154 1707
3 1012 1363 2406
3 280 2079 2210
3 2237 1214 2351
3 820 698 2318
3 1140 1141 1406
3 205 2021 2176
3 2043 786 2310
3 2145 1004 2446
3 707 1030 2109
3 1406 2460 2473
3 2137 1268 2226
3 16 2081 2260
3 567 2031 2219
3 2112 1064 2248
3 206 45 2485
3 2347 1462 2365
3 1650 1962 2362
3 453 425 2221
3 1209 907 2175
3 1111 1276 2241
3 2448 1145 2492
3 2051 2083 2243
3 59 60 2266
3 1402 1742 2530
3 831 677 2209
3 624 587 2276
3 238 174 1725
3 1011 2107 2233
3 468 2365 2412
3 2337 805 2371
3 254 1932 2380
3 1174 1398 2207
3 2140 111 2346
3 1381 2186 2283
3 1987 2037 2188
3 1740 559 2456
3 1773 391 2503
3 1335 1870 2249
3 1945 2257 2291
3 828 463 2411
3 1246 2088 2208
3 2060 798 2307
3 1773 1159 2240
3 1187 2112 2248
3 1352 2237 2351
3 2037 1322 2188
3 1941 1499 2433
3 2322 225 2510
3 1031 1034 2236
3 327 2188 2321
3 595 2032 2273
3 1464 1462 2347
3 1285 1992 2232
3 799 2055 2237
3 443 278 2210
3 784 874 2178
3 392 396 2431
3 191 95 2309
3 879 784 2178
3 524 511 2429
3 2128 2011 2270
3 895 896 2257
3 2206 1152 2324
3 318 2171 2172
3 2259 1549 2379
3 1214 1410 2351
3 306 308 2278
3 2022 251 2247
3 1757 1729 2309
3 1283 1918 2524
3 996 1706 2492
3 557 2044 2207
3 1798 1448 2364
3 1447 2250 2310
3 559 1750 2403
3 1363 1011 2233
3 1343 1168 2187
3 1407 2044 2256
3 1462 1460 2365
3 1995 2331 2458
3 327 1987 2188
3 2160 254 2380
3 1681 958 2287
3 2031 1160 2250
3 1600 689 2413
3 2219 1692 2239
3 1494 1675 2522
3 1281 1916 2448
3 907 909 2175
3 565 2167 2276
3 2241 1276 2275
3 1978 316 2443
3 2151 212 2350
3 203 1847 2104
3 2049 1481 2523
3 1961 1362 2376
3 2187 1393 2457
3 940 796 2532
3 2293 1349 2329
3 572 1897 2537
3 332 739 2282
3 2052 567 2239
3 1437 1370 2277
3 567 2219 2239
3 667 626 2452
3 1914 2206 2324
3 2243 939 2392
3 2136 1343 2187
3 257 1654 2530
3 1376 1378 2283
3 2076 1982 2272
3 2083 760 2243
3 1944 1945 2291
3 1771 1839 2359
3 1404 1403 2399
3 1875 1866 2320
3 1460 1337 2412
3 760 783 2243
3 1276 1366 2275
3 1428 2227 2366
3 1882 1605 2284
3 1739 1429 2459
3 2321 2188 2434
3 1328 1327 2315
3 798 2189 2307
3 2152 1174 2207
3 2182 1247 2323
3 1516 1514 2367
3 293 291 2306
3 556 537 2201
3 1298 1300 2314
3 1400 1399 2316
3 1649 2236 2463
3 833 831 2424
3 2127 2050 2333
3 1057 914 2328
3 1839 193 2359
3 761 1741 2258
3 1186 1970 2422
3 1429 2366 2382
3 2211 1271 2271
3 1733 1248 2534
3 13 2114 2136
3 2078 390 2431
3 1533 1536 2340
3 1690 2145 2446
3 1277 2308 2370
3 1168 1393 2187
3 1597 2047 2268
3 587 565 2276
3 1908 244 2401
3 225 125 2284
3 610 2130 2468
3 1749 2105 2326
3 1913 1914 2324
3 2366 2208 2382
3 1391 1876 2295
3 457 552 2264
3 653 688 2209
3 1601 2443 2514
3 682 2138 2211
3 992 1980 2244
3 55 56 2313
3 1645 1495 2493
3 473 477 2483
3 202 1724 2329
3 465 828 2429
3 1277 1966 2308
3 1416 2330 2406
3 1912 1364 2455
3 1716 1483 2375
3 2019 1651 2485
3 1725 2137 2226
3 201 1323 2216
3 878 1083 2213
3 2072 2073 2245
3 1563 1777 2405
3 244 2028 2401
3 2016 1564 2422
3 1682 1497 2461
3 1962 1153 2362
3 1298 2314 2358
3 1384 1385 2391
3 688 1320 2209
3 1587 2179 2435
3 786 380 2497
3 1395 1522 2341
3 2032 1919 2273
3 251 2013 2247
3 2219 2031 2250
3 2397 552 2453
3 1765 255 2489
3 2475 1825 2524
3 1202 1204 2301
3 445 2078 2411
3 323 2229 2296
3 1286 2384 2408
3 537 551 2201
3 1724 237 2293
3 84 85 2335
3 1471 1126 2319
3 1635 1634 2511
3 300 302 2338
3 698 666 2318
3 1030 1031 2236
3 2098 1457 2271
3 696 1821 2426
3 1457 1492 2447
3 1956 2336 2469
3 331 323 2296
3 1284 1491 2342
3 2011 1996 2270
3 256 183 2303
3 160 257 2304
3 2204 1589 2501
3 1891 1014 2280
3 719 725 2336
3 1354 1808 2381
3 437 430 2494
3 2377 218 2391
3 2211 2271 2447
3 1407 2256 2290
3 2365 1460 2412
3 2047 1498 2268
3 1825 1283 2524
3 1499 1825 2475
3 1226 1249 2281
3 2051 2243 2392
3 2250 1160 2310
3 111 112 2346
3 304 306 2345
3 1341 1352 2351
3 2166 191 2504
3 2223 1836 2242
3 1996 247 2481
3 1049 1051 2331
3 1086 1298 2358
3 2130 595 2273
3 1249 2111 2263
3 680 1995 2458
3 1511 2140 2346
3 102 103 2355
3 469 473 2453
3 961 2072 2245
3 2073 1282 2245
3 1442 1443 2525
3 74 192 2361
3 2163 1586 2435
3 1519 1518 2449
3 897 2274 2500
3 303 444 2317
3 1615 1614 2423
3 197 2009 2404
3 1634 2281 2511
3 1780 1781 2419
3 1435 1623 2465
3 1286 1774 2384
3 384 361 2339
3 193 1901 2359
3 1165 2433 2475
3 2277 1370 2386
3 677 653 2209
3 1994 1516 2367
3 1479 1478 2440
3 1165 1512 2433
3 1644 1353 2417
3 1711 1712 2353
3 2193 1615 2425
3 1613 1956 2469
3 1440 1173 2330
3 2269 1479 2440
3 222 2218 2465
3 391 389 2503
3 306 2278 2345
3 468 2090 2365
3 221 2246 2526
3 1445 1446 2504
3 939 1844 2392
3 86 87 2373
3 1429 1428 2366
3 2053 2103 2383
3 1348 1212 2312
3 805 750 2371
3 997 1286 2408
3 1152 869 2363
3 2063 2064 2238
3 192 1994 2367
3 1160 2043 2310
3 1926 2151 2350
3 2059 2098 2271
3 1897 1366 2537
3 215 2262 2437
3 1655 1732 2476
3 2415 1128 2454
3 1320 2213 2214
3 7 258 2357
3 259 155 2356
3 2171 1530 2172
3 347 351 2407
3 1077 1078 2343
3 239 2003 2279
3 1446 1128 2415
3 1034 1033 2410
3 601 627 2442
3 1154 1653 2234
3 397 2060 2405
3 2142 794 2272
3 442 2063 2238
3 1863 1215 2378
3 794 2076 2272
3 1883 1375 2505
3 1320 878 2213
3 342 468 2344
3 1903 218 2377
3 380 376 2497
3 1549 1547 2379
3 1148 1165 2475
3 2157 226 2507
3 829 972 2326
3 884 1957 2466
3 2291 1077 2343
3 65 66 2395
3 787 2052 2518
3 2298 1348 2312
3 1946 2343 2396
3 1653 256 2535
3 1842 1548 2472
3 1957 2301 2466
3 1366 1277 2370
3 2213 1432 2214
3 961 2245 2383
3 218 2093 2391
3 1376 2283 2421
3 1873 2127 2333
3 1019 1021 2512
3 1128 1127 2454
3 1104 1434 2450
3 2130 1439 2468
3 2396 2110 2482
3 2186 855 2283
3 1724 2293 2329
3 1163 1059 2372
3 1614 2389 2423
3 53 54 2402
3 1063 1707 2334
3 2283 855 2421
3 1385 1863 2436
3 364 1883 2505
3 517 1890 2387
3 1145 996 2492
3 1047 1287 2348
3 2148 1875 2320
3 205 2176 2416
3 1372 1844 2478
3 1211 2219 2250
3 1141 898 2368
3 245 1909 2420
3 2278 327 2321
3 2389 1397 2423
3 2256 513 2290
3 559 2403 2456
3 1137 1340 2374
3 2093 1384 2391
3 1918 1148 2524
3 1030 2236 2427
3 1867 1895 2513
3 2014 517 2387
3 2271 1457 2447
3 1143 2028 2353
3 1904 194 2432
3 1148 2475 2524
3 1574 1523 2436
3 2213 1083 2311
3 1997 358 2325
3 2139 246 2506
3 1370 1369 2386
3 1271 2059 2271
3 1034 2173 2463
3 1123 1412 2393
3 1578 1827 2515
3 2209 1320 2424
3 2079 1504 2210
3 1361 2168 2305
3 1491 1489 2403
3 238 1725 2226
3 1190 986 2334
3 1547 1545 2508
3 1891 1613 2469
3 1153 1885 2362
3 2208 1632 2382
3 2287 1281 2448
3 1356 1376 2421
3 1965 2349 2515
3 2155 1186 2422
3 1522 2014 2387
3 2158 1468 2323
3 2050 954 2333
3 1397 1809 2423
3 1362 1360 2376
3 1852 1985 2397
3 2069 1691 2446
3 789 2066 2425
3 1895 755 2513
3 1707 1154 2234
3 372 374 2430
3 2225 787 2518
3 2028 1206 2401
3 986 1063 2334
3 1912 726 2439
3 1340 1342 2400
3 1916 1145 2448
3 2236 1649 2427
3 2374 1340 2400
3 2222 1407 2290
3 2324 1152 2363
3 241 2220 2472
3 765 2190 2384
3 2375 667 2452
3 2330 1173 2406
3 1181 1972 2500
3 2126 1382 2388
3 1173 1012 2406
3 315 313 2495
3 1015 1373 2385
3 97 221 2526
3 1937 1397 2389
3 930 1061 2462
3 971 1096 2496
3 45 46 2485
3 669 791 2529
3 1104 2450 2521
3 382 378 2390
3 2191 1371 2536
3 2235 1036 2286
3 831 2209 2424
3 762 1997 2349
3 2379 1547 2508
3 2177 1359 2467
3 2403 1489 2456
3 796 785 2532
3 219 1902 2516
3 1519 2300 2480
3 1065 1655 2476
3 1375 1473 2505
3 1489 1490 2456
3 390 392 2431
3 2247 2013 2464
3 1135 1930 2369
3 2278 1583 2345
3 626 622 2452
3 631 2298 2312
3 2233 1348 2298
3 1398 1974 2499
3 1706 1681 2492
3 261 130 2444
3 32 260 2445
3 822 2099 2368
3 1365 1912 2439
3 941 940 2418
3 1446 2166 2504
3 2106 1121 2414
3 2300 1519 2449
3 1803 1104 2521
3 1732 1570 2476
3 1413 2051 2392
3 2122 1946 2396
3 2238 1868 2520
3 477 556 2483
3 2397 1985 2533
3 463 445 2411
3 2163 1185 2488
3 1126 2141 2319
3 1755 2264 2533
3 972 2204 2501
3 2230 1533 2340
3 1774 1773 2503
3 1997 2325 2349
3 1004 2069 2446
3 2159 31 2445
3 131 2160 2444
3 1371 2191 2451
3 1001 2154 2486
3 1682 2230 2340
3 2103 961 2383
3 1033 1151 2410
3 382 2390 2531
3 1504 2079 2520
3 1583 2278 2321
3 511 465 2429
3 250 2024 2479
3 2208 2088 2509
3 619 620 2484
3 1246 2208 2366
3 2141 1209 2319
3 1359 1413 2467
3 1295 1459 2458
3 2218 1435 2465
3 2281 1249 2511
3 2293 237 2354
3 2207 1398 2499
3 1564 2155 2422
3 552 469 2453
3 1947 224 2498
3 2062 1568 2490
3 2018 205 2416
3 260 2159 2445
3 2160 261 2444
3 2092 610 2468
3 194 2195 2432
3 1432 2213 2311
3 211 2251 2464
3 2378 856 2527
3 1536 1532 2534
3 2364 786 2497
3 2438 1438 2478
3 1185 1948 2488
3 2042 941 2418
3 1582 2321 2434
3 885 1891 2469
3 1364 2048 2455
3 1693 2225 2518
3 401 382 2531
3 1338 2247 2464
3 442 2238 2520
3 1292 2117 2428
3 2274 1350 2500
3 2066 2193 2425
3 2179 1184 2435
3 898 822 2368
3 2436 1863 2527
3 1844 1016 2478
3 2184 1001 2486
3 557 2207 2499
3 2013 211 2464
3 2254 250 2479
3 1350 1181 2500
3 2009 248 2470
3 246 2140 2506
3 1574 2436 2527
3 2139 1419 2517
3 316 1971 2514
3 1319 2122 2482
3 226 2006 2507
3 1400 2270 2481
3 1681 2287 2448
3 2325 1578 2349
3 232 1652 2487
3 1320 2214 2424
3 1632 2208 2509
3 248 2288 2470
3 1406 1141 2460
3 2188 1322 2434
3 2244 1980 2441
3 2088 1255 2509
3 1280 2109 2427
3 2060 2307 2405
3 2236 1034 2463
3 1745 2293 2354
3 2122 2396 2482
3 2109 1030 2427
3 2307 1563 2405
3 1429 2382 2459
3 224 2267 2498
3 682 2211 2447
3 2079 442 2520
3 2348 1287 2398
3 2220 1842 2472
3 1335 2249 2466
3 1249 2263 2511
3 443 2210 2519
3 2385 1373 2394
3 1594 2184 2486
3 2052 2239 2518
3 1568 2439 2490
3 2349 1578 2515
3 2344 468 2412
3 2270 1996 2481
3 1735 2244 2441
3 2260 1471 2477
3 2210 1504 2519
3 1434 2297 2450
3 2297 1419 2450
3 2263 1660 2502
3 2404 2009 2470
3 1718 2385 2394
3 1371 2194 2536
3 2317 444 2461
3 1443 2322 2525
3 1716 2375 2452
3 1863 2378 2527
3 2439 726 2490
3 1057 2328 2451
3 1638 2404 2470
3 1454 2234 2535
3 755 2320 2513
3 2234 1653 2535
3 2264 552 2533
3 1419 2297 2517
3 1392 2322 2510
3 552 2397 2533
3 1798 2364 2497
3 2322 1392 2525
3 2382 1631 2459
3 1016 2438 2478
3 1366 2370 2537
3 1742 2491 2530
3 2491 257 2530
CELL_TYPES 4886
5
5
5
5
5
5
5
5
5
5
5
5
5
5
5
5
5
5
5
5
5
5
5
5
5
5
5
5
5
5
5
5
5
5
5
5
5
5
5
5
5
5
5
5
5
5
5
5
5
5
5
5
5
5
5
5
5
5
5
5
5
5
5
5
5
5
5
5
5
5
5
5
5
5
5
5
5
5
5
5
5
5
5
5
5
5
5
5
5
5
5
5
5
5
5
5
5
5
5
5
5
5
5
5
5
5
5
5
5
5
5
5
5
5
5
5
5
5
5
5
5
5
5
5
5
5
5
5
5
5
5
5
5
5
5
5
5
5
5
5
5
5
5
5
5
5
5
5
5
5
5
5
5
5
5
5
5
5
5
5
5
5
5
5
5
5
5
5
5
5
5
5
5
5
5
5
5
5
5
5
5
5
5
5
5
5
5
5
5
5
5
5
5
5
5
5
5
5
5
5
5
5
5
5
5
5
5
5
5
5
5
5
5
5
5
5
5
5
5
5
5
5
5
5
5
5
5
5
5
5
5
5
5
5
5
5
5
5
5
5
5
5
5
5
5
5
5
5
5
5
5
5
5
5
5
5
5
5
5
5
5
5
5
5
5
5
5
5
5
5
5
5
5
5
5
5
5
5
5
5
5
5
5
5
5
5
5
5
5
5
5
5
5
5
5
5
5
5
5
5
5
5
5
5
5
5
5
5
5
5
5
5
5
5
5
5
5
5
5
5
5
5
5
5
5
5
5
5
5
5
5
5
5
5
5
5
5
5
5
5
5
5
5
5
5
5
5
5
5
5
5
5
5
5
5
5
5
5
5
5
5
5
5
5
5
5
5
5
5
5
5
5
5
5
5
5
5
5
5
5
5
5
5
5
5
5
5
5
5
5
5
5
5
5
5
5
5
5
5
5
5
5
5
5
5
5
5
5
5
5
5
5
5
5
5
5
5
5
5
5
5
5
5
5
5
5
5
5
5
5
5
5
5
5
5
5
5
5
5
5
5
5
5
5
5
5
5
5
5
5
5
5
5
5
5
5
5
5
5
5
5
5
5
5
5
5
5
5
5
5
5
5
5
5
5
5
5
5
5
5
5
5
5
5
5
5
5
5
5
5
5
5
5
5
5
5
5
5
5
5
5
5
5
5
5
5
5
5
5
5
5
5
5
5
5
5
5
5
5
5
5
5
5
5
5
5
5
5
5
5
5
5
5
5
5
5
5
5
5
5
5
5
5
5
5
5
5
5
5
5
5
5
5
5
5
5
5
5
5
5
5
5
5
5
5
5
5
5
5
5
5
5
5
5
5
5
5
5
5
5
5
5
5
5
5
5
5
5
5
5
5
5
5
5
5
5
5
5
5
5
5
5
5
5
5
5
5
5
5
5
5
5
5
5
5
5
5
5
5
5
5
5
5
5
5
5
5
5
5
5
5
5
5
5
5
5
5
5
5
5
5
5
5
5
5
5
5
5
5
5
5
5
5
5
5
5
5
5
5
5
5
5
5
5
5
5
5
5
5
5
5
5
5
5
5
5
5
5
5
5
5
5
5
5
5
5
5
5
5
5
5
5
5
5
5
5
5
5
5
5
5
5
5
5
5
5
5
5
5
5
5
5
5
5
5
5
5
5
5
5
5
5
5
5
5
5
5
5
5
5
5
5
5
5
5
5
5
5
5
5
5
5
5
5
5
5
5
5
5
5
5
5
5
5
5
5
5
5
5
5
5
5
5
5
5
5
5
5
5
5
5
5
5
5
5
5
5
5
5
5
5
5
5
5
5
5
5
5
5
5
5
5
5
5
5
5
5
5
5
5
5
5
5
5
5
5
5
5
5
5
5
5
5
5
5
5
5
5
5
5
5
5
5
5
5
5
5
5
5
5
5
5
5
5
5
5
5
5
5
5
5
5
5
5
5
5
5
5
5
5
5
5
5
5
5
5
5
5
5
5
5
5
5
5
5
5
5
5
5
5
5
5
5
5
5
5
5
5
5
5
5
5
5
5
5
5
5
5
5
5
5
5
5
5
5
5
5
5
5
5
5
5
5
5
5
5
5
5
5
5
5
5
5
5
5
5
5
5
5
5
5
5
5
5
5
5
5
5
5
5
5
5
5
5
5
5
5
5
5
5
5
5
5
5
5
5
5
5
5
5
5
5
5
5
5
5
5
5
5
5
5
5
5
5
5
5
5
5
5
5
5
5
5
5
5
5
5
5
5
5
5
5
5
5
5
5
5
5
5
5
5
5
5
5
5
5
5
5
5
5
5
5
5
5
5
5
5
5
5
5
5
5
5
5
5
5
5
5
5
5
5
5
5
5
5
5
5
5
5
5
5
5
5
5
5
5
5
5
5
5
5
5
5
5
5
5
5
5
5
5
5
5
5
5
5
5
5
5
5
5
5
5
5
5
5
5
5
5
5
5
5
5
5
5
5
5
5
5
5
5
5
5
5
5
5
5
5
5
5
5
5
5
5
5
5
5
5
5
5
5
5
5
5
5
5
5
5
5
5
5
5
5
5
5
5
5
5
5
5
5
5
5
5
5
5
5
5
5
5
5
5
5
5
5
5
5
5
5
5
5
5
5
5
5
5
5
5
5
5
5
5
5
5
5
5
5
5
5
5
5
5
5
5
5
5
5
5
5
5
5
5
5
5
5
5
5
5
5
5
5
5
5
5
5
5
5
5
5
5
5
5
5
5
5
5
5
5
5
5
5
5
5
5
5
5
5
5
5
5
5
5
5
5
5
5
5
5
5
5
5
5
5
5
5
5
5
5
5
5
5
5
5
5
5
5
5
5
5
5
5
5
5
5
5
5
5
5
5
5
5
5
5
5
5
5
5
5
5
5
5
5
5
5
5
5
5
5
5
5
5
5
5
5
5
5
5
5
5
5
5
5
5
5
5
5
5
5
5
5
5
5
5
5
5
5
5
5
5
5
5
5
5
5
5
5
5
5
5
5
5
5
5
5
5
5
5
5
5
5
5
5
5
5
5
5
5
5
5
5
5
5
5
5
5
5
5
5
5
5
5
5
5
5
5
5
5
5
5
5
5
5
5
5
5
5
5
5
5
5
5
5
5
5
5
5
5
5
5
5
5
5
5
5
5
5
5
5
5
5
5
5
5
5
5
5
5
5
5
5
5
5
5
5
5
5
5
5
5
5
5
5
5
5
5
5
5
5
5
5
5
5
5
5
5
5
5
5
5
5
5
5
5
5
5
5
5
5
5
5
5
5
5
5
5
5
5
5
5
5
5
5
5
5
5
5
5
5
5
5
5
5
5
5
5
5
5
5
5
5
5
5
5
5
5
5
5
5
5
5
5
5
5
5
5
5
5
5
5
5
5
5
5
5
5
5
5
5
5
5
5
5
5
5
5
5
5
5
5
5
5
5
5
5
5
5
5
5
5
5
5
5
5
5
5
5
5
5
5
5
5
5
5
5
5
5
5
5
5
5
5
5
5
5
5
5
5
5
5
5
5
5
5
5
5
5
5
5
5
5
5
5
5
5
5
5
5
5
5
5
5
5
5
5
5
5
5
5
5
5
5
5
5
5
5
5
5
5
5
5
5
5
5
5
5
5
5
5
5
5
5
5
5
5
5
5
5
5
5
5
5
5
5
5
5
5
5
5
5
5
5
5
5
5
5
5
5
5
5
5
5
5
5
5
5
5
5
5
5
5
5
5
5
5
5
5
5
5
5
5
5
5
5
5
5
5
5
5
5
5
5
5
5
5
5
5
5
5
5
5
5
5
5
5
5
5
5
5
5
5
5
5
5
5
5
5
5
5
5
5
5
5
5
5
5
5
5
5
5
5
5
5
5
5
5
5
5
5
5
5
5
5
5
5
5
5
5
5
5
5
5
5
5
5
5
5
5
5
5
5
5
5
5
5
5
5
5
5
5
5
5
5
5
5
5
5
5
5
5
5
5
5
5
5
5
5
5
5
5
5
5
5
5
5
5
5
5
5
5
5
5
5
5
5
5
5
5
5
5
5
5
5
5
5
5
5
5
5
5
5
5
5
5
5
5
5
5
5
5
5
5
5
5
5
5
5
5
5
5
5
5
5
5
5
5
5
5
5
5
5
5
5
5
5
5
5
5
5
5
5
5
5
5
5
5
5
5
5
5
5
5
5
5
5
5
5
5
5
5
5
5
5
5
5
5
5
5
5
5
5
5
5
5
5
5
5
5
5
5
5
5
5
5
5
5
5
5
5
5
5
5
5
5
5
5
5
5
5
5
5
5
5
5
5
5
5
5
5
5
5
5
5
5
5
5
5
5
5
5
5
5
5
5
5
5
5
5
5
5
5
5
5
5
5
5
5
5
5
5
5
5
5
5
5
5
5
5
5
5
5
5
5
5
5
5
5
5
5
5
5
5
5
5
5
5
5
5
5
5
5
5
5
5
5
5
5
5
5
5
5
5
5
5
5
5
5
5
5
5
5
5
5
5
5
5
5
5
5
5
5
5
5
5
5
5
5
5
5
5
5
5
5
5
5
5
5
5
5
5
5
5
5
5
5
5
5
5
5
5
5
5
5
5
5
5
5
5
5
5
5
5
5
5
5
5
5
5
5
5
5
5
5
5
5
5
5
5
5
5
5
5
5
5
5
5
5
5
5
5
5
5
5
5
5
5
5
5
5
5
5
5
5
5
5
5
5
5
5
5
5
5
5
5
5
5
5
5
5
5
5
5
5
5
5
5
5
5
5
5
5
5
5
5
5
5
5
5
5
5
5
5
5
5
5
5
5
5
5
5
5
5
5
5
5
5
5
5
5
5
5
5
5
5
5
5
5
5
5
5
5
5
5
5
5
5
5
5
5
5
5
5
5
5
5
5
5
5
5
5
5
5
5
5
5
5
5
5
5
5
5
5
5
5
5
5
5
5
5
5
5
5
5
5
5
5
5
5
5
5
5
5
5
5
5
5
5
5
5
5
5
5
5
5
5
5
5
5
5
5
5
5
5
5
5
5
5
5
5
5
5
5
5
5
5
5
5
5
5
5
5
5
5
5
5
5
5
5
5
5
5
5
5
5
5
5
5
5
5
5
5
5
5
5
5
5
5
5
5
5
5
5
5
5
5
5
5
5
5
5
5
5
5
5
5
5
5
5
5
5
5
5
5
5
5
5
5
5
5
5
5
5
5
5
5
5
5
5
5
5
5
5
5
5
5
5
5
5
5
5
5
5
5
5
5
5
5
5
5
5
5
5
5
5
5
5
5
5
5
5
5
5
5
5
5
5
5
5
5
5
5
5
5
5
5
5
5
5
5
5
5
5
5
5
5
5
5
5
5
5
5
5
5
5
5
5
5
5
5
5
5
5
5
5
5
5
5
5
5
5
5
5
5
5
5
5
5
5
5
5
5
5
5
5
5
5
5
5
5
5
5
5
5
5
5
5
5
5
5
5
5
5
5
5
5
5
5
5
5
5
5
5
5
5
5
5
5
5
5
5
5
5
5
5
5
5
5
5
5
5
5
5
5
5
5
5
5
5
5
5
5
5
5
5
5
5
5
5
5
5
5
5
5
5
5
5
5
5
5
5
5
5
5
5
5
5
5
5
5
5
5
5
5
5
5
5
5
5
5
5
5
5
5
5
5
5
5
5
5
5
5
5
5
5
5
5
5
5
5
5
5
5
5
5
5
5
5
5
5
5
5
5
5
5
5
5
5
5
5
5
5
5
5
5
5
5
5
5
5
5
5
5
5
5
5
5
5
5
5
5
5
5
5
5
5
5
5
5
5
5
5
5
5
5
5
5
5
5
5
5
5
5
5
5
5
5
5
5
5
5
5
5
5
5
5
5
5
5
5
5
5
5
5
5
5
5
5
5
5
5
5
5
5
5
5
5
5
5
5
5
5
5
5
5
5
5
5
5
5
5
5
5
5
5
5
5
5
5
5
5
5
5
5
5
5
5
5
5
5
5
5
5
5
5
5
5
5
5
5
5
5
5
5
5
5
5
5
5
5
5
5
5
5
5
5
5
5
5
5
5
5
5
5
5
5
5
5
5
5
5
5
5
5
5
5
5
5
5
5
5
5
5
5
5
5
5
5
5
5
5
5
5
5
5
5
5
5
5
5
5
5
5
5
5
5
5
5
5
5
5
5
5
5
5
5
5
5
5
5
5
5
5
5
5
5
5
5
5
5
5
5
5
5
5
5
5
5
5
5
5
5
5
5
5
5
5
5
5
5
5
5
5
5
5
5
5
5
5
5
5
5
5
5
5
5
5
5
5
5
5
5
5
5
5
5
5
5
5
5
5
5
5
5
5
5
5
5
5
5
5
5
5
5
5
5
5
5
5
5
5
5
5
5
5
5
5
5
5
5
5
5
5
5
5
5
5
5
5
5
5
5
5
5
5
5
5
5
5
5
5
5
5
5
5
5
5
5
5
5
5
5
5
5
5
5
5
5
5
5
5
5
5
5
5
5
5
5
5
5
5
5
5
5
5
5
5
5
5
5
5
5
5
5
5
5
5
5
5
5
5
5
5
5
5
5
5
5
5
5
5
5
5
5
5
5
5
5
5
5
5
5
5
5
5
5
5
5
5
5
5
5
5
5
5
5
5
5
5
5
5
5
5
5
5
5
5
5
5
5
5
5
5
5
5
5
5
5
5
5
5
5
5
5
5
5
5
5
5
5
5
5
5
5
5
5
5
5
5
5
5
5
5
5
5
5
5
5
5
5
5
5
5
5
5
5
5
5
5
5
5
5
5
5
5
5
5
5
5
5
5
5
5
5
5
5
5
5
5
5
5
5
5
5
5
5
5
5
5
5
5
5
5
5
5
5
5
5
5
5
5
5
5
5
5
5
5
5
5
5
5
5
5
5
5
5
5
5
5
5
5
5
5
5
5
5
5
5
5
5
5
5
5
5
5
5
5
5
5
5
5
5
5
5
5
5
5
5
5
5
5
5
5
5
5
5
5
5
5
5
5
5
5
5
5
5
5
5
5
5
5
5
5
5
5
5
5
5
5
5
5
5
5
5
5
5
5
5
5
5
5
5
5
5
5
5
5
5
5
5
5
5
5
5
5
5
5
5
5
5
5
5
5
5
5
5
5
5
5
5
5
5
5
5
5
5
5
5
5
5
5
5
5
5
5
5
5
5
5
5
5
5
5
5
5
5
5
5
5
5
5
5
5
5
5
5
5
5
5
5
5
5
5
5
5
5
5
5
5
5
5
5
5
5
5
5
5
5
5
5
5
5
5
5
5
5
5
5
5
5
5
5
5
5
5
5
5
5
5
5
5
5
5
5
5
5
5
5
5
5
5
5
5
5
5
5
5
5
5
5
5
5
5
5
5
5
5
5
5
5
5
5
5
5
5
5
5
5
5
5
5
5
5
5
5
5
5
5
5
5
5
5
5
5
5
5
5
5
5
5
5
5
5
5
5
5
5
5
5
5
5
5
5
5
5
5
5
5
5
5
5
5
5
5
5
5
5
5
5
5
5
5
5
5
5
5
5
5
5
5
5
5
5
5
5
5
5
5
5
5
5
5
5
5
5
5
5
5
5
5
5
5
5
5
5
5
5
5
5
5
5
5
5
5
5
5
5
5
5
5
5
5
5
5
5
5
5
5
5
5
5
5
5
5
5
5
5
5
5
5
5
5
5
5
5
5
5
5
5
5
5
5
5
5
5
5
5
5
5
5
5
5
5
5
5
5
5
5
5
5
5
5
5
5
5
5
5
5
5
5
5
5
5
5
5
5
5
5
5
5
5
5
5
5
5
5
5
5
5
5
5
5
5
5
5
5
5
5
5
5
5
5
5
5
5
5
5
5
5
5
5
5
5
5
5
5
5
5
5
5
5
5
5
5
5
5
5
5
5
5
5
5
5
5
5
5
5
5
5
5
5
5
5
5
5
5
5
5
5
5
5
5
5
5
5
5
5
5
5
5
5
5
5
5
5
5
5
5
5
5
5
5
5
5
5
5
5
5
5
5
5
5
5
5
5
5
5
5
5
5
5
5
5
5
5
5
5
5
5
5
5
5
5
5
5
5
5
5
5
5
5
5
5
5
5
5
5
5
5
5
5
5
5
5
5
5
5
5
5
5
5
5
5
5
5
5
5
5
5
5
5
5
5
5
5
5
5
5
5
5
5
5
5
5
5
5
5
5
5
5
5
5
5
5
5
5
5
5
5
5
5
5
5
5
5
5
5
5
5
5
5
5
5
5
5
5
5
5
5
5
5
5
5
5
5
5
5
5
5
5
5
5
5
5
5
5
5
5
5
5
5
5
5
5
5
5
5
5
5
5
5
5
5
5
5
5
5
5
5
5
5
5
5
5
5
5
5
5
5
5
5
5
5
5
5
5
5
5
5
5
5
5
5
5
5
5
5
5
5
5
5
5
5
5
5
5
5
5
5
5
5
5
5
5
5
5
5
5
5
5
5
5
5
5
5
5
5
5
5
5
5
5
5
5
5
5
5
5
5
5
5
5
5
5
5
5
5
5
5
5
5
5
5
5
5
5
5
5
5
5
5
5
5
5
5
5
5
5
5
5
5
5
5
5
5
5
5
5
5
5
5
5
5
5
5
5
5
5
5
5
5
5
5
5
5
5
5
5
5
5
5
5
5
5
5
5
5
5
5
5
5
5
5
5
5
5
5
5
5
5
5
5
5
5
5
5
5
5
5
5
5
5
5
5
5
5
5
5
5
5
5
5
5
5
5
5
5
5
5
5
5
5
5
5
5
5
5
5
5
5
5
5
5
5
5
5
5
5
5
5
5
5
5
5
5
5
5
5
5
5
5
5
5
5
5
5
5
5
5
5
5
5
5
5
5
5
5
5
5
5
5
5
5
5
5
5
5
5
5
5
5
5
5
5
5
5
5
5
5
5
5
5
5
5
5
5
5
5
5
5
5
5
5
5
5
5
5
5
5
5
5
5
5
5
5
5
5
5
5
5
5
5
5
5
5
5
5
5
5
5
5
5
5
5
5
5
5
5
5
5
5
5
5
5
5
5
5
5
5
5
5
5
5
5
5
5
5
5
5
5
5
5
5
5
5
5
5
5
5
5
5
5
5
5
5
5
5
5
5
5
5
5
5
5
5
5
5
5
5
5
5
5
5
5
5
5
5
5
5
5
5
5
5
5
5
5
5
5
5
5
5
5
5
5
5
5
5
5
5
5
5
5
5
5
5
5
5
5
5
5
5
5
5
5
5
5
5
5
5
5
5
5
5
5
5
5
5
5
5
5
5
5
5
5
5
5
5
5
5
5
5
5
5
5
5
5
5
5
5
5
5
5
5
5
5
5
5
5
5
5
5
5
5
5
5
5
5
5
5
5
5
5
5
5
5
5
5
5
5
5
5
5
5
5
5
5
5
5
5
5
5
5
5
5
5
5
5
5
5
5
5
5
5
5
5
5
5
5
5
5
5
5
5
5
5
5
5
5
5
5
5
5
5
5
5
5
5
5
5
5
5
5
5
5
5
5
5
5
5
5
5
5
5
5
5
5
5
5
5
5
5
5
5
5
5
5
5
5
5
5
5
5
5
5
5
5
5
5
5
5
5
5
5
5
5
5
5
5
5
5
5
5
5
5
5
5
5
5
5
5
5
5
5
5
5
5
5
5
5
5
5
5
5
5
5
5
5
5
5
5
5
5
5
5
5
5
5
5
5
5
5
5
5
5
5
5
5
5
5
5
5
5
5
5
5
5
5
5
5
5
5
5
5
5
5
5
5
5
5
5
5
5
5
5
5
5
5
5
5
5
5
5
5
5
5
5
5
5
5
5
5
5
5
5
5
5
5
5
5
5
5
5
5
5
5
5
5
5
5
5
5
5
5
5
5
5
5
5
5
5
5
5
5
5
5
5
5
5
5
5
5
5
5
5
5
5
5
5
5
5
5
5
5
5
5
5
5
5
5
5
5
5
5
5
5
5
5
5
5
5
5
5
5
5
5
5
5
5
5
5
5
5
5
5
5
5
5
5
5
5
5
5
5
5
5
5
5
5
5
5
5
5
5
5
5
5
5
5
5
5
5
5
5
5
5
5
5
5
5
5
5
5
5
5
5
5
5
5
5
5
5
5
5
5
5
5
5
5
5
5
5
5
5
5
5
5
5
5
5
5
5
5
5
5
5
5
5
5
5
5
5
5
5
5
5
5
5
5
5
5
5
5
5
5
5
5
5
5
5
5
5
5
5
5
5
5
5
5
5
5
5
5
5
5
5
5
5
5
5
5
5
5
5
5
5
5
5
5
5
5
5
5
5
5
5
5
5
5
5
5
5
5
5
5
5
5
5
5
5
5
5
5
5
5
5
5
5
5
5
5
5
5
5
5
5
5
5
5
5
5
5
5
5
5
5
5
5
5
5
5
5
5
5
5
5
5
5
5
5
5
5
5
5
5
5
5
5
5
5
5
5
5
5
5
5
5
5
5
5
5
5
5
5
5
5
5
5
5
5
5
5
5
5
5
5
5
5
5
5
5
5
5
5
5
5
5
5
5
5
5
5
5
5
5
5
5
5
5
5
5
5
5
5
5
5
5
5
5
5
5
5
5
5
5
5
5
5
5
5
5
5
5
5
5
5
5
5
5
5
5
5
5
5
5
5
5
5
5
5
5
5
5
5
5
5
5
5
5
5
5
5
5
5
5
5
5
5
5
5
5
5
5
5
5
5
5
5
5
5
5
5
5
5
5
5
5
5
5
5
5
5
5
5
5
5
5
5
5
5
5
5
5
5
5
5
5
5
5
5
5
5
5
5
5
5
5
5
5
5
5
5
5
5
5
5
5
5
5
5
5
5
5
5
5
5
5
5
5
5
5
5
5
5
5
5
5
5
5
5
5
5
5
5
5
5
5
5
5
5
5
5
5
5
5
5
5
5
5
5
5
5
5
5
5
5
5
5
5
5
5
5
5
5
5
5
5
5
5
5
5
5
5
5
5
5
5
5
5
5
5
5
5
5
5
5
5
5
5
5
5
5
5
5
5
5
5
5
5
5
5
5
5
5
5
5
5
5
5
5
5
5
5
5
5
5
5
5
5
5
POINT_DATA 2538
VECTORS disp float
2.0320338920351715e-11 5.3645884076377385e-11 0.0
4.370792130409712e-11 -1.1965247176777238e-10 0.0
0.004899999982067837 4.8901044676920613e-11 0.0
0.0048999999557726845 -1.2230224902365975e-10 0.0
0.00153260623048548 0.0006465961272551346 0.0
0.0035274681587115883 0.00045424183311842454 0.0
0.0024160642335357306 0.00016084151106095495 0.0
6.00593674392703e-12 6.5490571240286205e-12 0.0
1.0657987799875123e-11 1.350620306378622e-11 0.0
1.000342220169466e-11 8.682045781577732e-12 0.0
1.0008330205621513e-11 8.111873898128237e-12 0.0
9.591308285928322e-12 6.231199765726845e-12 0.0
9.110040646002253e-12 4.660178505899048e-12 0.0
8.668486035503413e-12 2.903738735353387e-12 0.0
8.306264702618113e-12 1.0243376143262156e-12 0.0
7.40533269911772e-12 -1.0584348199426134e-12 0.0
7.73983707099864e-12 -2.895338218265221e-12 0.0
7.371338037620486e-12 -4.9634240135516044e-12 0.0
7.277243847718836e-12 -7.15122880568939e-12 0.0
7.379774169366361e-12 -9.320504503658982e-12 0.0
7.226947733777823e-12 -1.140596215020986e-11 0.0
7.52224994349106e-12 -1.3886951093489088e-11 0.0
7.456856663315227e-12 -1.603703618517129e-11 0.0
7.802467247904326e-12 -1.8503319765530348e-11 0.0
7.858392516550603e-12 -2.1337854252825744e-11 0.0
8.134445156749024e-12 -2.3978078300455182e-11 0.0
8.413996485734684e-12 -2.709123824839374e-11 0.0
8.794065295097503e-12 -3.053924464164375e-11 0.0
9.559425954231309e-12 -3.4601620985125736e-11 0.0
9.515255591392222e-12 -3.890125128573266e-11 0.0
1.2782778156407887e-11 -4.835875356506852e-11 0.0
5.3032451225581245e-12 -4.455348506189187e-11 0.0
5.995217626841329e-5 -8.251625798459933e-5 0.0
0.00010323939702677698 -0.00014297158623844961 0.0
0.00014520871151066437 -0.00019589009923058457 0.0
0.00018545536564250293 -0.00024414711879781496 0.0
0.00022453117532804338 -0.0002891057578328406 0.0
0.0002632601181014603 -0.00033181507385800143 0.0
0.00030227387681009836 -0.0003724646321995583 0.0
0.00034119878553022954 -0.0004113528995406793 0.0
0.00038036882327562645 -0.00044880261112868915 0.0
0.00041986688966158363 -0.00048482831972471613 0.0
0.0004597202298123925 -0.0005197143739552284 0.0
0.000500205582199994 -0.0005534885394955576 0.0
0.0005410130530497818 -0.0005861434186851294 0.0
0.0005823560369777267 -0.000617910734083652 0.0
0.0006244645527730912 -0.0006487612309450354 0.0
0.0006668780756930791 -0.0006786390719861705 0.0
0.0007098863598045278 -0.0007077093291739036 0.0
0.0007534677363981969 -0.0007358496367238877 0.0
0.0007975950173576019 -0.0007632052628360639 0.0
0.0008422882007724671 -0.0007897774834116877 0.0
0.0008875999531042223 -0.0008155705576159477 0.0
0.0009334136283930698 -0.0008405572694054551 0.0
0.0009799932420440657 -0.0008648713532234751 0.0
0.0010269175616363414 -0.0008883467644170118 0.0
0.0010746560967020472 -0.0009111261254467523 0.0
0.0011227001659343825 -0.0009330788384908104 0.0
0.0011713755502578188 -0.0009543417408209601 0.0
0.0012205127871006667 -0.0009747620414314321 0.0
0.0012703639758874516 -0.0009945285548498195 0.0
0.0013204920690932725 -0.0010134902344032034 0.0
0.0013713162742431421 -0.0010317596686674878 0.0
0.0014225584048918524 -0.0010491991073892863 0.0
0.001474329346148264 -0.0010659027718490416 0.0
0.00152647177113383 -0.0010818046778385089 0.0
0.0015792613788071525 -0.0010969949181993672 0.0
0.0016322765473563228 -0.00111132912785828 0.0
0.001685778375906448 -0.0011248962497956774 0.0
0.0017396327908280724 -0.0011376075912972318 0.0
0.001793892369717678 -0.0011494985882869976 0.0
0.0018484683902100288 -0.0011606294241049157 0.0
0.0019033284843433355 -0.0011708534319372224 0.0
0.00195853216753053 -0.0011803228532223232 0.0
0.002014013757244644 -0.0011888978365803158 0.0
0.002069661283802324 -0.001196691402028197 0.0
0.002125566104601048 -0.0012035270947676545 0.0
0.002181484556314533 -0.0012095634334250756 0.0
0.002237614520915035 -0.0012147526164498245 0.0
0.0022937734628786267 -0.0012189934795153842 0.0
0.002349947227917684 -0.0012224386083079446 0.0
0.0024062589641796633 -0.0012249287020661833 0.0
0.0024620226999837323 -0.001226316495481405 0.0
0.002518288030413408 -0.0012269834940128103 0.0
0.0025728549573634067 -0.0012262736759453493 0.0
0.002628355776750506 -0.0012246292610456307 0.0
0.002681474974005845 -0.0012216028390619896 0.0
0.0027363263147138655 -0.0012174538876544574 0.0
0.0027898280706681006 -0.001211843549662749 0.0
0.0028436958045020212 -0.0012043547968549181 0.0
0.002897911200384508 -0.0011956695637678919 0.0
0.0029526191650822427 -0.001185404514488958 0.0
0.003007353968364074 -0.0011742179508652344 0.0
0.0030622432355722675 -0.0011618711188245137 0.0
0.003117079192085216 -0.0011487142842649674 0.0
0.0031717857520555514 -0.0011344930543917726 0.0
0.0032263712579175146 -0.0011193816289135354 0.0
0.0032807003375417564 -0.0011036702921323218 0.0
0.003334514051819458 -0.00108706931091191 0.0
0.0033879429720901034 -0.0010698036233213705 0.0
0.0034410763959438146 -0.00105171760499871 0.0
0.003493834787437767 -0.0010328062447931092 0.0
0.0035459816526569967 -0.001013255558476057 0.0
0.003597951797723294 -0.0009928757114745857 0.0
0.00364920132468669 -0.0009717458236438876 0.0
0.0036999729612189037 -0.0009499757742962216 0.0
0.003750432704865528 -0.0009273191811900799 0.0
0.003800138389357185 -0.0009040399209782238 0.0
0.0038494739082227873 -0.0008800139628442375 0.0
0.003898233113841952 -0.0008552359961766537 0.0
0.003946560917757828 -0.0008297177647173345 0.0
0.003994361400125188 -0.0008033432980388191 0.0
0.004041699180450435 -0.0007761604184392665 0.0
0.004088307062595994 -0.0007482908822067424 0.0
0.004134527418284834 -0.0007196257371489803 0.0
0.004180308929717922 -0.0006900912613161404 0.0
0.004225482522219081 -0.0006597022729490804 0.0
0.004270235920360403 -0.0006284907501157721 0.0
0.004314678588053445 -0.0005962520348227959 0.0
0.004358514643552754 -0.0005630202609997014 0.0
0.0044018584194217 -0.0005288462627998071 0.0
0.004445060374463066 -0.0004935437256088152 0.0
0.004488074958882436 -0.0004569461708258553 0.0
0.0045306561279377065 -0.000418970616446757 0.0
0.00457290852959514 -0.0003795473672974121 0.0
0.004615214366885505 -0.0003384031528664492 0.0
0.004658083503214525 -0.00029510042531781885 0.0
0.004700934567107261 -0.00024935694251775026 0.0
0.004744294801692311 -0.0002001590793251957 0.0
0.004790320470775559 -0.0001460321378737977 0.0
0.0048376169241923185 -8.419899404829578e-5 0.0
0.004899999994154835 -4.249425263881619e-11 0.0
0.004899999986537428 -4.7047034221448e-11 0.0
0.004899999990166825 -3.495134477691635e-11 0.0
0.00489999999005123 -3.1439649678484746e-11 0.0
0.0048999999906116235 -2.727612813438675e-11 0.0
0.004899999991060732 -2.3922583643674676e-11 0.0
0.004899999991213996 -2.120313602384543e-11 0.0
0.0048999999915230455 -1.8743302074540312e-11 0.0
0.004899999991587006 -1.641312669400959e-11 0.0
0.00489999999170515 -1.413462865103652e-11 0.0
0.004899999992082794 -1.2290356331705554e-11 0.0
0.004899999991905111 -9.85796076567887e-12 0.0
0.0048999999920665924 -8.047022657152486e-12 0.0
0.004899999992107324 -5.950874584151173e-12 0.0
0.004899999992075914 -3.9519147497228955e-12 0.0
0.004899999991968942 -1.880423742428395e-12 0.0
0.004899999991934563 1.1562650840654287e-13 0.0
0.004899999991187103 2.313657907257448e-12 0.0
0.004899999991633493 4.0441268507049266e-12 0.0
0.0048999999904779405 6.1930249011693416e-12 0.0
0.004899999990459219 7.586615687783545e-12 0.0
0.004899999990026605 9.09489969561809e-12 0.0
0.004899999990417552 9.577868228897527e-12 0.0
0.004899999990093416 1.3616924449006458e-11 0.0
0.004899999994628101 6.88338718662246e-12 0.0
0.004543811330127956 0.00028708327548225305 0.0
0.004228041888147631 0.0004185157886774215 0.0
0.003936496584304661 0.00047264970951598937 0.0
0.003689107330489186 0.0004735484510221011 0.0
0.00351839732013357 0.00030361715570974843 0.0
0.00349345963478977 0.0002229448751070009 0.0
0.003444251601034363 0.00018370681733456654 0.0
0.003384498099256442 0.00016571099547868607 0.0
0.003313130519192467 0.00016230027824860316 0.0
0.0032340762856208206 0.00016462217434008646 0.0
0.003148824478681034 0.00016904545216057948 0.0
0.003059014554481404 0.00017605459608726278 0.0
0.002963010095992055 0.00018185278731540152 0.0
0.0028599848651548266 0.00018538847530823012 0.0
0.002745141982916589 0.00018631944555440918 0.0
0.0026064435676033397 0.0001863133350973092 0.0
0.002229736967263857 0.00020457838503619392 0.0
0.0020988723605378937 0.00021616514692350034 0.0
0.001991009013623212 0.00021893229462755076 0.0
0.0018970392290553494 0.0002199743810598788 0.0
0.0018119448293166147 0.00022102697185101279 0.0
0.0017350202284844118 0.00022313319997237994 0.0
0.0016661424016120483 0.00022791934212676028 0.0
0.0016076187771467973 0.00023767913611038045 0.0
0.0015619390631019653 0.0002588795142760905 0.0
0.0015309304786103462 0.0002973964676622024 0.0
0.0015188062884593353 0.0003636935023026007 0.0
0.0015213770437469906 0.0004762241849208184 0.0
0.0013395209843004216 0.0006501796155702039 0.0
0.0010718684802438168 0.0006055044675559643 0.0
0.0007428937375925086 0.0005024322095255253 0.0
0.00039140806826719365 0.00033055609011168577 0.0
0.0012813189455446595 -0.0009522491923444011 0.0
0.003533797965301851 -0.0009698514657672838 0.0
0.001648999773462416 -0.0010725389298852377 0.0
0.0031530907744782614 -0.0010952763789735269 0.0
0.00204106979504259 -0.001149938133727022 0.0
0.002760046426699702 -0.0011627746841092871 0.0
0.002377312980198705 -0.0011781422893187613 0.0
0.0038420257219676126 -0.0008439134365936711 0.0
0.0009972011623367067 -0.0008363670341294424 0.0
0.00407006710620757 -0.0007199027584614264 0.0
0.0007678215346457071 -0.0007127187450974474 0.0
7.931595455780247e-5 -1.587152086754152e-5 0.0
0.004819615344118987 -1.563751686822104e-5 0.0
0.0026392586107170635 0.0002059163235666154 0.0
0.003026077250109199 0.00020208356479495054 0.0
0.0021949708423022285 0.00021494108507744058 0.0
0.0018331066628616915 0.00024041373950150458 0.0
0.0043026222697951175 -0.0005745797014670019 0.0
0.0005613740530932586 -0.00057653125758951 0.0
5.362400161259615e-5 -2.8941509889998645e-5 0.0
0.004844990915170475 -2.7230432624914966e-5 0.0
0.004783929265429725 3.4932942560267887e-6 0.0
0.00010739641271481168 4.198113607907395e-6 0.0
0.004477911812731469 -0.00043806203441061116 0.0
0.00039261205049440507 -0.0004349091406550602 0.0
0.0032905874602940535 0.0001913298578870327 0.0
0.0016055132810867399 0.0002480812660664594 0.0
3.9503429582917535e-5 -3.1787684441058475e-5 0.0
0.0048567197550589405 -3.109257040849523e-5 0.0
0.0018753304808037132 -0.0011215885999061419 0.0
0.002207345765767746 -0.0011682773270638171 0.0
0.002985467160242534 -0.0011312250222833354 0.0
0.0025505678021380865 -0.0011765517719452177 0.0
0.003317886313221953 -0.0010472197697510056 0.0
0.003679634468135243 -0.0009174697627000433 0.0
0.0015020483709432782 -0.001031076255238257 0.0
0.0011394442571049392 -0.0009031930746167758 0.0
0.004600761947563004 -0.00032886983412963074 0.0
0.00027246942316604903 -0.0003218919721904208 0.0
0.00475207386029133 3.0918179794587073e-5 0.0
0.00013345989753541396 2.6397926975198463e-5 0.0
0.004863822563389538 -3.439539916400277e-5 0.0
3.640753723990646e-5 -3.872167577192951e-5 0.0
0.0034445241836590823 0.00019971081771688829 0.0
0.0014868481482083922 0.00028687787655262204 0.0
0.004693449668266896 5.7413598172673206e-5 0.0
0.00018368249448843632 5.157426974344018e-5 0.0
6.570820773779343e-5 -2.401486429939838e-5 0.0
0.00483236923278378 -2.324587725585027e-5 0.0
0.002831821967400289 0.00021065029615224975 0.0
0.002010073408625182 0.00024015457688877413 0.0
0.0001504182226709712 -0.00018588530675149877 0.0
0.004740286073526989 -0.00018618956071530837 0.0
0.0034219992004886277 -0.0010167580369227845 0.0
0.002656283690180416 -0.0011743659923467492 0.0
0.0017688998812013038 -0.0010994673449687758 0.0
0.0013889607935899007 -0.000997836283220727 0.0
0.0028757402894077264 -0.0011481171393364976 0.0
0.003931578137156038 -0.0007991205949868856 0.0
0.0009048773799179513 -0.0007881120135362569 0.0
0.004167405464981398 -0.0006642012937779696 0.0
0.0006757385584884475 -0.0006530014560031355 0.0
0.00047199432073197954 -0.0005042921772864024 0.0
0.004391056603701239 -0.0005079021479989354 0.0
0.0008988869496600231 0.000357175726689708 0.0
0.004075216687193086 0.0003094619734707407 0.0
0.004864908315265465 -3.890986035056855e-5 0.0
3.185958241571669e-5 -3.909284776247295e-5 0.0
0.001418602444869881 0.0003980294066178914 0.0
0.003561027877280559 0.0002712281144305314 0.0
0.00020619446101157395 8.409822784295839e-5 0.0
0.00468879034874337 8.125237414111303e-5 0.0
6.554112685968973e-5 -8.335040039422092e-5 0.0
0.004828318711374887 -8.590735806640861e-5 0.0
0.0038099303009940435 0.0003557923285282481 0.0
0.0039047252494430877 0.0002739119343768242 0.0
0.004203365503869953 0.00021393607522605295 0.0
0.004035209569744424 0.0002207928272829926 0.0
0.0038068139277691693 0.0002466004610297952 0.0
0.003891444249438054 0.00022740403712317767 0.0
0.004109996532180465 0.00019423760680723469 0.0
0.0039737220855756965 0.0002073659373742744 0.0
0.004180061491280008 0.00017066109714236835 0.0
0.004053616590363405 0.00018287770921670443 0.0
0.003860176871438104 0.0002134632155808382 0.0
0.0039330567202975845 0.00018828038115934322 0.0
0.0037661047900730935 0.0002122708861219802 0.0
0.0038247139239894466 0.00018558494877294593 0.0
0.0036721379994715756 0.00020573399636506843 0.0
0.00372484316619698 0.00017442697435500265 0.0
0.002574924411998425 0.0001396220122188911 0.0
0.002412667198589149 0.00011242178924680352 0.0
0.0025406259073430517 0.00010008655031028129 0.0
0.002409211079560996 8.052990949420843e-5 0.0
0.0025205074678041443 6.986431544886503e-5 0.0
0.0024076935758873493 5.495732795445232e-5 0.0
0.002507505429860255 4.433843570854833e-5 0.0
0.0024058362000033313 3.148103817481396e-5 0.0
0.0024980300428765236 2.1343458796177907e-5 0.0
0.0024041726220772512 9.805603241766798e-6 0.0
0.0024908379312900395 2.3114420389081326e-7 0.0
0.0024029131977102007 -1.0407676419270505e-5 0.0
0.0024853093854339567 -2.0135954341984436e-5 0.0
0.0024041648575425846 -2.9975814068896213e-5 0.0
0.0024810016319922064 -3.961944700757694e-5 0.0
0.0024032659681670616 -4.909451776105486e-5 0.0
0.002477106208875138 -5.855729411286522e-5 0.0
0.002399941926828718 -6.778379717645358e-5 0.0
0.00247329751328821 -7.718166317064183e-5 0.0
0.0023984822921461163 -8.613491821379616e-5 0.0
0.0024701491993444212 -9.564433080278171e-5 0.0
0.0023973505283506583 -0.00010441766335609775 0.0
0.0024650204686298524 -0.00011393176140758836 0.0
0.002395820194816508 -0.00012276155030226286 0.0
0.002462044008698874 -0.00013235069207118207 0.0
0.0023956173321007957 -0.0001407760534999151 0.0
0.002459527337634427 -0.0001508711473128984 0.0
0.002390989545196289 -0.00015819557160722366 0.0
0.002456354637583882 -0.00016950401871790568 0.0
0.0023736872130298197 -0.00017705672104573354 0.0
0.0024576699638415166 -0.00018875634763954244 0.0
0.002388122387964416 -0.00019757214020102088 0.0
0.0024548821745512947 -0.00020809663830575215 0.0
0.002389248969054856 -0.00021746144381161133 0.0
0.0024532244818717954 -0.00022802821754644355 0.0
0.0023922170167440236 -0.00023758316295684597 0.0
0.0024513248597814725 -0.00024831515497126643 0.0
0.0023920516384047484 -0.00025845444495592814 0.0
0.0023174549679737633 2.1974534947977337e-5 0.0
0.002449415813525888 -0.0002692087914896139 0.0
0.0023247568413954133 -7.55748573776749e-5 0.0
0.002312011572875295 -0.00019203578709880975 0.0
0.002387056415919946 -0.0002795914467666712 0.0
0.0024470725367324326 -0.00029069460335336096 0.0
0.0023821982025872147 -0.0003021135070309094 0.0
0.0023230609443003576 -0.00028892015071049846 0.0
0.0023167273025244376 -0.000312587729837034 0.0
0.0024423546402765786 -0.0003141190332479234 0.0
0.002507954334492129 -0.0003018620825497915 0.0
0.002517975107012513 -0.0001979776062390627 0.0
0.002503569296779033 -0.0003259879480787564 0.0
0.002573031093783377 -0.00031140267427712443 0.0
0.0025663533447586404 -0.0003377732171388191 0.0
0.002258160463512774 -0.00029874957414087727 0.0
0.00225422388033915 -0.00032203110978369306 0.0
0.0026378149427197495 -0.0003218750758666 0.0
0.0021919051970134954 -0.0003074129231458379 0.0
0.0021918304745871748 -0.000331919857160678 0.0
0.002632270926566571 -0.0003485899815204304 0.0
0.0027013503452246244 -0.00033390918588753347 0.0
0.0021252227009445454 -0.0003162871676951578 0.0
0.00212361977617464 -0.00034161622744625843 0.0
0.0026972631154133972 -0.00036050578924716166 0.0
0.0027681017618635807 -0.00034493050726451974 0.0
0.002058830394488241 -0.00032521864611633963 0.0
0.0020566577226735954 -0.00035216284494493183 0.0
0.0027638340485833567 -0.000372959885938851 0.0
0.0028363615386331055 -0.00035582668555066946 0.0
0.0019929026330332304 -0.00033282090318226704 0.0
0.0019863181398485554 -0.00036070667401066344 0.0
0.0028329866823795496 -0.00038463682596419265 0.0
0.002905700905159567 -0.0003665238333428147 0.0
0.001920411723644231 -0.0003405201783520568 0.0
0.0019155481256498538 -0.00037013964951438294 0.0
0.0018459268519637675 -0.00035012851773447796 0.0
0.0018503028419924253 -0.0003187610369113432 0.0
0.0027536771771862014 -0.0004006817597940339 0.0
0.002902005054156745 -0.00039652846105624244 0.0
0.0029759643511002663 -0.00037709098822890074 0.0
0.002980885738700206 -0.00034635912739281876 0.0
0.0025330761604937134 -0.00010565311284400153 0.0
0.0030537519957890185 -0.00035639737092550315 0.0
0.0030593130770608093 -0.0003245759275373245 0.0
0.003134254792147519 -0.00033363989347961727 0.0
0.0018468336919269142 -0.0003822639398811418 0.0
0.0017741038195863692 -0.0003588456219246711 0.0
0.0019150820352198089 -0.0004020759086670744 0.0
0.002970177564477218 -0.0004087356051650999 0.0
0.0017758014089870994 -0.0003919686050393567 0.0
0.001702273283855859 -0.0003667416422372567 0.0
0.002563127631497748 -2.8352151257563524e-5 0.0
0.0017035815852482594 -0.0003993267264723012 0.0
0.0016302523535314248 -0.00037368879025749036 0.0
0.0016316722143926601 -0.0004072207101296511 0.0
0.0015593578484833666 -0.0003791379964097481 0.0
0.0015563234672991567 -0.0003464629440842926 0.0
0.0014813434143438762 -0.00035288222322818404 0.0
0.001479326926831553 -0.00031836822842167597 0.0
0.001552093914423354 -0.0004125410278276445 0.0
0.0013989710575541415 -0.0003252629797699001 0.0
0.001396302379835778 -0.00028993226447032033 0.0
0.0016335204595276742 -0.00044283794079403243 0.0
0.001565760677042194 -0.00045090423958284387 0.0
0.001317929677877356 -0.0002940672539567251 0.0
0.001312615622711 -0.00025974855086087587 0.0
0.003141974448526546 -0.0003014961864711072 0.0
0.0032196548324140138 -0.0003101851910797201 0.0
0.0016350263782743714 -0.00047903833001114427 0.0
0.001567965538291392 -0.0004869822395214715 0.0
0.0032282775298497803 -0.00027712343239257275 0.0
0.0033094313946915176 -0.0002861601266212069 0.0
0.003297598266063742 -0.0003224416773205604 0.0
0.003387673404232028 -0.00029648908994686423 0.0
0.0033774821138123404 -0.00033375038356512336 0.0
0.0034674046963214427 -0.00030496899346300584 0.0
0.0034619347374659085 -0.00034211310414261994 0.0
0.00355456035644224 -0.0003095929527413256 0.0
0.0035414830264746573 -0.0003475751138382421 0.0
0.0035600378777810365 -0.00027403331355854493 0.0
0.003635415222147548 -0.000315741804632813 0.0
0.0036176824341373087 -0.0003536484139225076 0.0
0.0016371279081474899 -0.0005160164712572068 0.0
0.0012302236429617113 -0.00026308571504755603 0.0
0.0012233695590125543 -0.000228369576558844 0.0
0.003531618159087111 -0.00038673000324687673 0.0
0.0036052141456127894 -0.000392376466680202 0.0
0.0036898161104751987 -0.0003588295461792045 0.0
0.003525354817789867 -0.00042703968208853625 0.0
0.0015715065768008645 -0.0005242632886425595 0.0
0.0036778995391323786 -0.0003972108411863002 0.0
0.0037604264161084982 -0.00036274485882406305 0.0
0.001638893366797912 -0.0005541358431318634 0.0
0.001574385781120726 -0.0005627003803472453 0.0
0.0015080949626921007 -0.0005315826605657803 0.0
0.0037481525620633592 -0.0004008059247864213 0.0
0.00382939846579136 -0.0003649799492498885 0.0
0.0016402973232267234 -0.0005935015227225243 0.0
0.001704180971917707 -0.0005843969982660637 0.0
0.0015115906207087964 -0.0005703842084959418 0.0
0.0014459376485714001 -0.000538203666144064 0.0
0.003814900007933787 -0.0004033214387508829 0.0
0.0038978256588857157 -0.00036604094497748427 0.0
0.00391144186264965 -0.0003288141898123262 0.0
0.0037333438084440978 -0.00044080922093939077 0.0
0.003979780551892444 -0.0003285067664213336 0.0
0.003995813577785983 -0.0002921942165631344 0.0
0.0011362119622411022 -0.0002316073185018617 0.0
0.0011340397284073384 -0.00019590657016147316 0.0
0.0012384172754518151 -0.00019460324334501122 0.0
0.001128552028085857 -0.0001611794447568968 0.0
0.001228422151922092 -0.00015488474717321614 0.0
0.0011219521257772576 -0.00012521748751541777 0.0
0.001218811501118961 -0.00011720754339343725 0.0
0.0017053822256778842 -0.0006241563163360395 0.0
0.0017677608979529437 -0.0006143145144121604 0.0
0.0014497241288614388 -0.000577351661960494 0.0
0.001384716576263195 -0.0005440128251650113 0.0
0.003965300763410628 -0.00036584345904260354 0.0
0.0011257092749666778 -8.961309303342368e-5 0.0
0.0012170974679635259 -8.009178724144249e-5 0.0
0.0017689731697097437 -0.0006541169650532179 0.0
0.0018299334020321783 -0.0006440768999881724 0.0
0.0021335107873371047 -0.000366186587525289 0.0
0.004046207847665286 -0.0003270158273885145 0.0
0.0026088051345536842 6.2582260301999e-5 0.0
0.002714658726930267 0.0001829984254513462 0.0
0.002326701173883102 -0.0001307752502522313 0.0
0.0033145217322417125 -0.00025232025101255595 0.0
0.0011160145227320534 -5.2032866093642814e-5 0.0
0.001222482655351417 -4.1677447558763834e-5 0.0
0.0013889746015055527 -0.0005834682422083093 0.0
0.0013249410424174557 -0.000549229052743759 0.0
0.0018319961724496175 -0.0006840588213428996 0.0
0.0018924993569531608 -0.0006736054124408059 0.0
0.0040302020274352625 -0.0003639224258148652 0.0
0.0010436423197309247 -0.00019926384575630202 0.0
0.0010484069610317839 -0.00023529385150234885 0.0
0.0010105621587986823 -9.527403058097014e-5 0.0
0.004110402420493209 -0.0003239521022509336 0.0
0.0011140051298965596 -1.607282097645258e-5 0.0
0.001220964269427984 -2.4074121212993747e-6 0.0
0.0017718236552491662 -0.000695177007988003 0.0
0.0013299575675742217 -0.0005892108263992137 0.0
0.0012663126044559355 -0.0005534861903857876 0.0
0.0032338195600195743 -0.00024402883149142292 0.0
0.0033238397704282935 -0.0002182776004790476 0.0
0.0032384614370510284 -0.0002101427303443473 0.0
0.0033335157074116783 -0.00018416403237807877 0.0
0.001893686532635295 -0.0007134536951991358 0.0
0.0019547890831969087 -0.0007014925532551126 0.0
0.0020637960941172913 -0.00030116177164242296 0.0
0.0011116953037041445 1.9064728492397986e-5 0.0
0.001215851831843682 3.570034716986821e-5 0.0
0.004094875256736574 -0.0003596101932220202 0.0
0.004022648021520424 -0.0003967519089099029 0.0
0.0010862133025699482 5.6326921718476075e-5 0.0
0.0012068802598144308 7.50210523294932e-5 0.0
0.0041720953569018265 -0.00031967780698905325 0.0
0.004179822559784483 -0.0002925393855814535 0.0
0.0010971390919848598 9.236263804831515e-5 0.0
0.0013917197356055583 -0.0006274639275054435 0.0
0.001954923819844868 -0.000742449602651596 0.0
0.002015635774840108 -0.0007288080052660245 0.0
0.0020163086799591945 -0.000688263840731855 0.0
0.002077117029122558 -0.0007146227462280698 0.0
0.00207830837657526 -0.0006746344213427422 0.0
0.0021394424058121583 -0.00069991883046711 0.0
0.0021409098366408108 -0.0006599820057918991 0.0
0.0022029863489811553 -0.0006845417578475553 0.0
0.0022048857822704413 -0.0006449094930409911 0.0
0.0022674613992564423 -0.0006683568056958981 0.0
0.002265509972329383 -0.0007090177015660782 0.0
0.0023296830984839874 -0.0006918153737693404 0.0
0.002327398957241082 -0.0007331145148401466 0.0
0.0023912673365124857 -0.0007148645035154784 0.0
0.0023882639011749743 -0.000756862997750059 0.0
0.002452625160194078 -0.0007374508258960675 0.0
0.0022699744362538973 -0.0006291650613613647 0.0
0.002455519088884128 -0.0006957411254606613 0.0
0.0025176347849206263 -0.0007170681383257482 0.0
0.0025139071772003526 -0.0007601673959139795 0.0
0.002579646393702074 -0.0007387572412188388 0.0
0.0009541644875234207 -0.00020145562515281202 0.0
0.0009582712682379089 -0.00023727027734018785 0.0
0.0012716700507147813 -0.0005935915278332113 0.0
0.0012093389838850794 -0.0005572182634151083 0.0
0.0025839582836062525 -0.0006961327557830797 0.0
0.00264584016252074 -0.000716280669294771 0.0
0.0026407240513131075 -0.0007597707105123038 0.0
0.0027079930537048692 -0.0007359552834435414 0.0
0.0008665825619304588 -0.00020245433221530623 0.0
0.0008705771684260516 -0.00023745177741239668 0.0
0.003243765760032149 -0.0001750040641336315 0.0
0.0033449198031347974 -0.00014920792248951045 0.0
0.003252297234500482 -0.00013988992718910764 0.0
0.004158429385108594 -0.00035269275389035725 0.0
0.004232379686041337 -0.0003132280042651201 0.0
0.0020154557430382587 -0.0007710142285853174 0.0
0.001332847504874003 -7.653959384614867e-5 0.0
0.0025642597986349383 -0.0003621902484710609 0.0
0.002701991320953665 -0.0007801842752115405 0.0
0.00276935969134287 -0.0007551513670884345 0.0
0.002773955581141699 -0.0007110031002006582 0.0
0.002836461475589451 -0.0007285795953114211 0.0
0.0027089659281300366 -0.00030583352220234884 0.0
0.0033618256557312195 -0.00011330409312792387 0.0
0.0034476406013256152 -0.00012897154026741367 0.0
0.0012068386443583718 0.00011459393979208343 0.0
0.0012143987868481149 -0.0005969741794462339 0.0
0.00115332167262621 -0.0005598122172266619 0.0
0.003263552427373398 -0.00010352658081852548 0.0
0.0028303537704251784 -0.0007738807119001214 0.0
0.0028985531474214556 -0.0007468339699531639 0.0
0.002904440773395578 -0.0007016404923291004 0.0
0.002967951993995357 -0.0007190396573430514 0.0
0.0029751793434497622 -0.000675090525579202 0.0
0.003037691992837862 -0.0006903009455907303 0.0
0.003029252383614289 -0.0007346874572669856 0.0
0.0030983490815305803 -0.0007044278368753259 0.0
0.0010915957123876173 0.00012595414625736923 0.0
0.0007816864731647109 -0.00020198394499771214 0.0
0.0007850774189799864 -0.00023552122335156406 0.0
0.0019565086965205266 -0.0007850725209362133 0.0
0.004216105978077747 -0.00034721659910464574 0.0
0.0042899174968209445 -0.00030541533477139487 0.0
0.003088476851878582 -0.0007489457860339158 0.0
0.0031567601827142805 -0.0007174701153661309 0.0
0.0012072160540692628 0.00015216767565001343 0.0
0.0011590805438804765 -0.000599652583470654 0.0
0.0010980240288073065 -0.0005610110520316453 0.0
0.0013223036754093345 5.2390707261636204e-5 0.0
0.0038760628945552957 0.00015470304685028704 0.0
0.002015258787882066 -0.0008143501974454802 0.0
0.0010873362479233302 0.00015646515344790128 0.0
0.0010153916974815329 3.047076145144365e-6 0.0
0.004267344363281707 -0.00034713454187151974 0.0
0.004345337177853731 -0.0002968807884822393 0.0
0.004363225814883734 -0.00026369899417064336 0.0
0.000979426298748488 0.00010113559090086101 0.0
0.004189173527002178 -0.0003867519303170014 0.0
0.0007727112285592387 -0.00016904555981352872 0.0
0.0012148581812789808 -0.0006350167716500043 0.0
0.0033781860581822806 -7.635882370702489e-5 0.0
0.0032767300059495133 -6.59632086930681e-5 0.0
0.0030465394458326616 -0.0006471500639530414 0.0
0.0011043968753326426 -0.0006017720027672609 0.0
0.0010435133144799087 -0.0005619528674979269 0.0
0.0006993385379736885 -0.00019978646607453267 0.0
0.0007020271151016069 -0.00023131038962953792 0.0
0.0013203239047458327 -0.0005114819215067796 0.0
0.0031455603959513628 -0.0007620095204683984 0.0
0.003213149011688257 -0.0007290001598124353 0.0
0.0010369684233918518 -0.0005220134252278627 0.0
0.0009822868443637536 -0.0005217883935490577 0.0
0.00308147950210285 -0.0007914020180933457 0.0
0.001958424272755651 -0.000828820426557224 0.0
0.0009899057172726836 -0.0005623278812268275 0.0
0.0009289496421404607 -0.0005210107712253352 0.0
0.0020782040657136873 -0.0006365279810264357 0.0
0.004418665402175018 -0.0002531149299224223 0.0
0.004436931999226654 -0.0002230507071945753 0.0
0.004401503271498537 -0.00028466552667433714 0.0
0.0032003620633405333 -0.0007729387061088713 0.0
0.003267668597959563 -0.0007388306937381469 0.0
0.002982026390094712 -0.0006323060870190028 0.0
0.0030548308573586026 -0.0006052873399790829 0.0
0.002015615947132407 -0.0008586150445273505 0.0
0.0032808245836655056 -0.0006954587556173283 0.0
0.003335721388039515 -0.0007049023311473258 0.0
0.0006183613103803145 -0.0001945150597923695 0.0
0.0006242592513163364 -0.00022510189823835646 0.0
0.0033219494825870973 -0.0007490371764561529 0.0
0.003388850609744879 -0.0007140966178702836 0.0
0.0009383290771400176 -0.0005621945135018798 0.0
0.0008773363123142651 -0.000519628056159859 0.0
0.0033948449912444617 -3.828493255316485e-5 0.0
0.00329245320000884 -2.724099940056657e-5 0.0
0.0008672873775210029 -0.00048031007179877815 0.0
0.000815539680193031 -0.00047728197451378014 0.0
0.0008252361634061676 -0.000517153560508162 0.0
0.0007638327388691245 -0.0004735944217631675 0.0
0.004472026938777933 -0.00024084101201323675 0.0
0.004454341794133337 -0.00027193368024410716 0.0
0.0012019073908343214 0.0001835907381384318 0.0
0.0010720027333146812 0.0001816348618477967 0.0
0.003159136939245053 -0.00012913638572613803 0.0
0.0019602032525751273 -0.0008734606456118864 0.0
0.003374874399885437 -0.0007593671397430144 0.0
0.0034402967005959942 -0.000723000633588283 0.0
0.003574589967866169 0.0001939041185906307 0.0
0.0033495814249298074 -0.0006615725149851743 0.0
0.002325279844054257 -0.0007756927244312454 0.0
0.0007523877354658321 -0.0004356478531227814 0.0
0.0007022903183497216 -0.0004300248611024849 0.0
0.0007139545443571179 -0.000469356104100901 0.0
0.0006523160553797868 -0.0004241187830807362 0.0
0.0006406369393562357 -0.0003869643721623396 0.0
0.0005892225659956412 -0.00037960033882710213 0.0
0.0005771579405698028 -0.00034318809861803954 0.0
0.0005251199664721932 -0.0003339939328585427 0.0
0.0005131097237239229 -0.000299790651910413 0.0
0.0004640986775950693 -0.0002897638891087299 0.0
0.0004512667577655383 -0.0002581493435723627 0.0
0.0004751498178306758 -0.0003228547002623614 0.0
0.0004090585710951141 -0.00027154627760225423 0.0
0.0005431429571068862 -0.00018770374492980724 0.0
0.0005419406640196966 -0.00016047232578298958 0.0
0.00042597046120163164 -0.00030999234558633373 0.0
0.000365659416852432 -0.00026267290349799163 0.0
0.0013221191423004749 0.0001764855801047497 0.0
0.0014631588412134752 -0.00028096743984783764 0.0
0.002989323996399089 -0.0005911053775580836 0.0
0.0030621338214430983 -0.0005648349232391888 0.0
0.000869177889591807 -0.00027062199072642686 0.0
0.0020158446938464826 -0.0009039953125092769 0.0
0.00207172490376746 -0.0008883956403708881 0.0
0.003128056068309295 -0.0005776830298479577 0.0
0.0031358293441003013 -0.0005374877413680874 0.0
0.004523152042439083 -0.00022678889447891898 0.0
0.004502355613515725 -0.0002588195393190281 0.0
0.004435431365676983 -0.00030674116598406354 0.0
0.0031737496582895557 -5.531017187294385e-5 0.0
0.0031885308855983587 -1.6457149790215095e-5 0.0
0.0019034873057342844 -0.0008426957068823112 0.0
0.0019055179724404338 -0.0008874479059957957 0.0
0.0018496768103065811 -0.0008561497694170689 0.0
0.0006665407944319122 -0.0004644880331912643 0.0
0.003309607901414626 1.2695922731203236e-5 0.0
0.003205080981641045 2.468348212754731e-5 0.0
0.0013191921415486043 -0.0003311145685835615 0.0
0.003425035039807424 -0.0007690438730756904 0.0
0.003490530104313776 -0.0007314188385937544 0.0
0.003506431171199554 -0.0006869815709005346 0.0
0.0035562354854599223 -0.00069405554005891 0.0
0.0012264030032122781 0.00021279458807794963 0.0
0.0010714336292690849 0.0002040943643354966 0.0
0.0018268119016142121 -0.000605852320020766 0.0
0.0033610853820540067 -0.0008062847328179577 0.0
0.004114619690507557 0.0001562942041844929 0.0
0.003539536234533216 -0.0007405992451250343 0.0
0.0036056101329887532 -0.0007017919505197191 0.0
0.003622171717886109 -0.0006563067431808467 0.0
0.0036720657553060876 -0.0006628156177039324 0.0
0.0036895209289129 -0.0006177782704645695 0.0
0.00373869323154037 -0.0006232471967249479 0.0
0.0037205833696288544 -0.0006697157155509745 0.0
0.0037863467527478063 -0.0006289840837995999 0.0
0.0003791099434447674 -0.00029391808710293256 0.0
0.00032052731663429005 -0.0002459830785817865 0.0
0.0002998348741760409 -0.00021239511456369278 0.0
0.002071766668321552 -0.0009343498794344249 0.0
0.002125384632337692 -0.0009199906096650797 0.0
0.0018524099640518435 -0.000901082728472507 0.0
0.0017968041865261911 -0.000868819462159707 0.0
0.004480524836206292 -0.000295307356129731 0.0
0.004546225283520766 -0.0002457009788796444 0.0
0.003525936377882988 0.00022194375477656552 0.0
0.003432581306519553 0.00020988662289471305 0.0
0.0009322024643611317 0.00017229704244212771 0.0
0.0009285835826415051 0.00019162162005673507 0.0
0.0004401965471466661 -0.00034634516266728656 0.0
0.001703840720225672 -0.0004703815140530727 0.0
0.003134280409437017 -0.0002043398422564628 0.0
0.004415529862893424 -0.0003453075935082932 0.0
0.0013206644376607237 -0.00014152561860903293 0.0
0.003070503759245496 -4.5230931924631024e-5 0.0
0.0037663003238951978 -0.0006771193097654695 0.0
0.0038317848098444415 -0.0006350765178986945 0.0
0.0037539365267368298 0.00013919754677866746 0.0
0.003924506247449559 0.00012063588785615985 0.0
0.0012046996680236857 0.00023178571132190123 0.0
0.0007039796142641193 -0.0002626942578542277 0.0
0.0004586020216849178 -0.0001512604348705874 0.0
0.00045904130436531923 -0.00012667825046750613 0.0
0.0007255871973080654 -0.0005106737004613555 0.0
0.00359215362211376 -0.0007500168207193702 0.0
0.0028940007145365106 -0.0004273072834904745 0.0
0.002636484328430552 -0.0008046916289785248 0.0
0.0016449161779253795 -0.0006322096605939656 0.0
0.00033409591250087815 -0.00027641290696612527 0.0
0.0002777192723059071 -0.00022766410842267232 0.0
0.0009991328331860566 -0.0006048789274454342 0.0
0.003202623962059842 -0.0005491098907228234 0.0
0.0032109256771262872 -0.0005093963056741218 0.0
0.0019054898406881211 -0.0009339700767750959 0.0
0.0038274382898138494 0.00010036254083600823 0.0
0.003973612485352084 8.685122335853689e-5 0.0
0.003882756112710654 6.343432205958454e-5 0.0
0.004024671127053617 5.283527802520207e-5 0.0
0.004112473657927791 7.39043331014991e-5 0.0
0.004162704939245556 4.323047006111091e-5 0.0
0.0040737733416645085 1.924010947246098e-5 0.0
0.004207534827511158 1.3344400517454832e-5 0.0
0.004119576951771125 -1.256996864006528e-5 0.0
0.004250925234480273 -1.4431525484730309e-5 0.0
0.004165498806909664 -4.253461548259451e-5 0.0
0.004291529043195316 -3.984720610627478e-5 0.0
0.0042087942365989705 -7.032199450395199e-5 0.0
0.004330659182608635 -6.304378124548898e-5 0.0
0.004077622408297101 -7.588687161794945e-5 0.0
0.00425041329785199 -9.490358999137387e-5 0.0
0.004365086492474797 -8.441143683870624e-5 0.0
0.004252256391549126 6.029229599825509e-5 0.0
0.0009734507571853444 -0.0004824736600781675 0.0
0.0009488289682750296 -0.0006052095647903501 0.0
0.0010073648564832658 -0.0006483915621492775 0.0
0.004290477095749334 -0.00011698799198819854 0.0
0.004399381892424506 -0.0001029290932957255 0.0
0.004181658979582726 -0.0001284791967181032 0.0
0.002695822412359809 -0.0008256214983183373 0.0
0.002630911823054417 -0.0008503382916450347 0.0
0.002689108036459106 -0.0008717640896142752 0.0
0.002625886612627487 -0.0008969609476148629 0.0
0.0026823480042251118 -0.0009187747652361869 0.0
0.0026214673314371296 -0.0009444650036105151 0.0
0.002564971803599866 -0.0009218264441155626 0.0
0.0025615538360389363 -0.0009693983264820298 0.0
0.0025065650658450656 -0.000945723672414695 0.0
0.0022708975725211885 0.00010191857197507702 0.0
0.002675961699085924 -0.0009668770782301102 0.0
0.0027360520739905534 -0.0009398457922279655 0.0
0.0022466251432695775 -0.0003475070562259544 0.0
0.0022065446729257233 -0.0006066748188292295 0.0
0.002272392431311214 -0.0005913790712455516 0.0
0.002208143718797282 -0.000569777584753177 0.0
0.002274699022040037 -0.0005549960885058295 0.0
0.0022097615305800514 -0.000534269370026818 0.0
0.0022769568608784485 -0.0005200709942825286 0.0
0.0023421155673196115 -0.0005397530213110624 0.0
0.002344903047063695 -0.0005054404832914786 0.0
0.002410276744131197 -0.0005241177048660708 0.0
0.0024133960533801956 -0.0004903847688295236 0.0
0.002476105288606171 -0.0005079620233350154 0.0
0.0023478031039477136 -0.0004715593494104657 0.0
0.0022114242538594274 -0.000500106273196437 0.0
0.0021439875585064815 -0.0005133780585433893 0.0
0.002472415893605404 -0.0005431111295995357 0.0
0.002541583043958885 -0.0005238337360350596 0.0
0.0009590806814252068 -0.0006492746463374274 0.0
0.002326297876776565 -0.00022714249428889497 0.0
0.0023228340476072118 -2.1254053071586754e-5 0.0
0.0026510197079210964 -0.0006745221505594705 0.0
0.004541393906085803 -0.00019910471473363607 0.0
0.004589826590507636 -0.0001843591140812286 0.0
0.002549865595910063 -6.689519183390635e-5 0.0
0.0025273064163497108 -0.00013921245249803733 0.0
0.003638166172396229 -0.0006124649718552992 0.0
0.003121608718287325 -0.00036663104193986404 0.0
0.004525388836297541 -0.0002807667852016684 0.0
0.004587467018893359 -0.0002314704212624438 0.0
0.002516456514893841 -0.0002388000446637855 0.0
0.0017999925241930308 -0.0009141892804404171 0.0
0.0017446835003416077 -0.0008810875680016299 0.0
0.0025840714284007674 1.2818875394813964e-5 0.0
0.0025030300591362136 -0.0009935381284390536 0.0
0.0024479856661604165 -0.000966948745397184 0.0
0.0017415911392402665 -0.0008362303845961513 0.0
0.0016889753072398042 -0.0008477113758917147 0.0
0.001685656458662189 -0.0008032966874704803 0.0
0.0016328253074740632 -0.0008138617995515457 0.0
0.0016371011146092595 -0.0008588306886751308 0.0
0.0015812124378075105 -0.0008240254238466171 0.0
0.0015859208280002278 -0.0008694937366912388 0.0
0.0015301273236587101 -0.0008338139881815773 0.0
0.0006811013844503635 -0.000506845506062711 0.0
0.004608356848225579 -0.00015951898598977397 0.0
0.003326365319232006 5.4067594750063315e-5 0.0
0.0032190962614279165 6.525802453335025e-5 0.0
0.0015078144414423945 -0.000459146628818511 0.0
0.0012103243005578902 -0.0005186859936446425 0.0
0.004437552534792275 -5.7990012689298856e-5 0.0
0.004378214520842347 -1.7049021900188886e-5 0.0
0.0021243660822657987 -0.0009655857297602887 0.0
0.0021793541591371766 -0.0009497700506617712 0.0
0.003409175365969197 -0.0008168238942346896 0.0
0.0006331452287877418 -0.0003510090302566633 0.0
0.0028410586775501636 -0.0003284517383756378 0.0
0.0031012203890956004 3.52660065255122e-5 0.0
0.003113910936045883 7.580436727993788e-5 0.0
0.003707500406084115 -0.000574481268383652 0.0
0.0037716087120872478 -0.00032540495362213824 0.0
0.003852537374533905 -0.0005886504627516523 0.0
0.003898669507254955 -0.0005924672938149423 0.0
0.003875217062314659 -0.0006419260789444226 0.0
0.003942930640769466 -0.0005973694395671839 0.0
0.0022028435245504273 -0.00028438341872824265 0.0
0.0007369060296751941 -0.0005531987846098035 0.0
0.0024755142333739823 -0.0004738556257479631 0.0
0.003985132487078212 -1.2451330921941803e-5 0.0
0.0021372488395134505 -0.0008753058580438638 0.0
0.001014769002096665 -0.0006925603644220594 0.0
0.0010633114063073167 -0.0006914156374983965 0.0
0.0033470011391543517 -0.0008544280425405005 0.0
0.0016284935115835695 -0.0007702438747044589 0.0
0.0029958204307949142 -0.0005514729389803353 0.0
0.0029233167304593337 -0.0005762382427017188 0.0
0.004566427664476563 -0.00026649454420032124 0.0
0.004627951753413496 -0.00021491113775232143 0.0
0.004646808010119656 -0.0001858278727910426 0.0
0.0013522613222483873 0.000241231709595616 0.0
0.0002914813330887594 -0.0002565845955767772 0.0
0.00023639860253348708 -0.00020605008954118815 0.0
0.00022851643760195067 -0.00018447755376012126 0.0
0.0033873636592646177 0.00023483103815584785 0.0
0.0034737951373559612 0.00023994141554143825 0.0
0.003296541550831099 0.00022285127906572968 0.0
0.0034981173935918902 -4.950113266414109e-5 0.0
0.00432967503330071 -0.0001345266470320844 0.0
0.004436279276944679 -0.00011732935991558 0.0
0.00174844968587701 -0.0009270262220998303 0.0
0.0034279428070398167 -0.0001921490950451265 0.0
0.0007866877512071164 0.00015788729686764497 0.0
0.0007748996865176714 0.00017290410899638593 0.0
0.0009257518542910869 0.00020772285099521107 0.0
0.0007581240673546017 0.00018476463408558755 0.0
0.0009702422542971064 0.0002320476341958708 0.0
0.0024458583646271496 -0.0009183568827262844 0.0
0.0015242172384261443 -0.0007890935429317335 0.0
0.0014744869306778175 -0.0007980420870481803 0.0
0.0014800988881779188 -0.0008432993957983744 0.0
0.0014250827472635913 -0.0008067715936460138 0.0
0.003964400830679811 -0.000550124540395784 0.0
0.004008464451627771 -0.000553889436941606 0.0
0.003986839392555356 -0.0006026289849155784 0.0
0.004050721508965588 -0.000557978881892972 0.0
0.0031424708367416686 -0.0004981888914776531 0.0
0.0032185836707500073 -0.0004710587803481987 0.0
0.0027288700355617094 -0.0009879761185321563 0.0
0.002787622856861918 -0.0009596765308341605 0.0
0.0021452819772635663 -0.00047959756170376055 0.0
0.002077466969987883 -0.0004920647643783259 0.0
0.0020645151802428895 -0.000982714259478132 0.0
0.0014307640837530908 -0.0008517489612801542 0.0
0.0013768371764047676 -0.0008149203423268661 0.0
0.0043697747668316935 -0.00035552930589584407 0.0
0.004349120372146347 -0.0003967244770545075 0.0
0.004305017233152502 -0.00040480402673850164 0.0
0.004289998445234283 -0.0004438089523792655 0.0
0.0021777581458110725 -0.000999031660196216 0.0
0.0003429172016373554 -0.00030597202636298716 0.0
0.0005045453161964615 -0.0002688419680961013 0.0
0.0004354027170336079 -0.00022692714815364767 0.0
0.0003727601594931854 -0.00011641230489993505 0.0
0.0003687789012367716 -9.455383676832566e-5 0.0
0.00046045219294183956 -0.00010234133284992369 0.0
0.00036683683766791636 -7.354601025888797e-5 0.0
0.0004620251380681303 -7.788961192117826e-5 0.0
0.0003653524415057425 -5.3009231373193574e-5 0.0
0.00046523750095598434 -5.358162300940009e-5 0.0
0.004393414541724443 -0.0003871759836287589 0.0
0.0014171183224753784 -0.0007629137176433116 0.0
0.003654461210097386 -0.0005709591847324251 0.0
0.003298269263614078 -0.0008413548850323306 0.0
0.0032854949065738333 -0.0008917156005950798 0.0
0.003237621851114842 -0.0008781324213430619 0.0
0.0024457533075256457 -0.0010160850259520974 0.0
0.00341032105204842 3.798830056653527e-5 0.0
0.004029156887428855 -0.0006080806439377924 0.0
0.00468697429558019 -0.0001667796602181017 0.0
0.00466692727674691 -0.00019633769000217328 0.0
0.001328345339850815 0.00025257114782088617 0.0
0.003315748732667264 9.195442040094152e-5 0.0
0.0025879661616009264 -0.0006552642458857117 0.0
0.0026545075727860573 -0.0006343219421877238 0.0
0.0025599825062523817 -0.0010185837126080414 0.0
0.002391304316042776 -0.0009882496284609598 0.0
0.0010604925689247007 -0.0002765928478502203 0.0
0.0045014814724630165 -8.826533295281318e-5 0.0
0.004535683853444336 -9.879173872940261e-5 0.0
0.004469614071001633 -0.00012921188240433215 0.0
0.0045648770908238686 -0.00010825080713855203 0.0
0.00379877709021016 -0.00044253567438303556 0.0
0.0028851962028627574 -0.0007939916029608944 0.0
0.002929080037427575 -0.0005376606166400924 0.0
0.002140473718564377 -0.0007416348463569397 0.0
0.0030618946035998996 -0.00029298808233928567 0.0
0.0032781517018358364 -0.0005200150134724835 0.0
0.0032935559860819276 -0.0006534917264772616 0.0
0.0033632594341271803 -0.0006199036087805982 0.0
0.0033290941286780824 0.0002479881543805579 0.0
0.003434130321627301 0.00024665150938916547 0.0
0.0010697145848857729 -0.0007359306734913689 0.0
0.0011162035239172634 -0.0007334041049910735 0.0
0.0003645751413741663 -3.270284336088859e-5 0.0
0.00046485164309076826 -2.9562096903761985e-5 0.0
0.0005683313722041214 -5.12211892307675e-5 0.0
0.0005713883950139696 -2.3082130220710358e-5 0.0
0.00046697807629412044 -6.27357141835541e-6 0.0
0.0005782529992784704 4.349131857018525e-6 0.0
0.00047100102638961133 1.615665736752006e-5 0.0
0.000588247722706333 3.137039980832398e-5 0.0
0.00047481520333537806 3.774394963688061e-5 0.0
0.0002508578123131882 -0.00023449840464885024 0.0
0.0028567510900679846 -0.0005609177396047994 0.0
0.00019764861216709252 -0.00018316352895213003 0.0
0.0009686564725357532 -0.0006940443910144845 0.0
0.004657292412084528 -0.00014255524511794625 0.0
0.0023359238761826015 -0.0006128587036968491 0.0
0.002998330536467389 4.527392754724064e-5 0.0
0.003015975954139677 8.894853805163251e-5 0.0
0.0005965985135709884 5.788478362894289e-5 0.0
0.000694627337494428 -0.0005503003955599963 0.0
0.0006398017161821002 -0.0005029154201592774 0.0
0.0014859976405694534 -0.0008972575068480824 0.0
0.0033878338170906077 -0.000868755847140259 0.0
0.0018027413838451435 -0.0009609291073902659 0.0
0.004092120533493781 -0.0005618101137465944 0.0
0.004705922238361816 -0.00014154088630946216 0.0
0.0020765087652236595 -0.000526525898298014 0.0
0.0020103169513606915 -0.0005040595341977195 0.0
0.002009477918947876 -0.0005393236949529944 0.0
0.0014593550625511765 0.0002576003948527082 0.0
0.0019470968997017698 -0.00051580830909279 0.0
0.00038419135137584084 -0.00014104288582174066 0.0
0.0027790577103412673 -0.0010081967163488362 0.0
0.0028377083931786793 -0.0009783814400244819 0.0
0.0028469912244700013 -0.0009307348018047596 0.0
0.0028964419545913105 -0.0009480997002937067 0.0
0.0034203443208464554 -0.0006275311092321514 0.0
0.0034349065379490474 -0.000585455007964439 0.0
0.0046740972890661385 -0.00012203538282971379 0.0
0.004623231394789142 -0.00013802539188627447 0.0
0.003150108232406358 0.0001228224049047158 0.0
0.003037463348417932 0.00013671189247007205 0.0
0.0009141601995722493 -0.0006502118081307571 0.0
0.0013827678736425544 -0.0008601203478863137 0.0
0.0013299001012058334 -0.0008227939432858412 0.0
0.002434778651055852 -0.00033965344318262274 0.0
0.0039666620715108425 -0.00065401523559874 0.0
0.00047980288677643146 5.8547783787553374e-5 0.0
0.00132260216794045 -0.0007774780524944455 0.0
0.002885839132275852 -0.0009964345569475474 0.0
0.0029440307632341866 -0.0009648438073496092 0.0
0.002861130092643973 -0.0005242363755087544 0.0
0.0027899715293648723 -0.0005452119153112831 0.0
0.002793929762662343 -0.0005097147411727062 0.0
0.002572824499889072 -0.0002892865132306321 0.0
0.00037569809466490704 -0.00021324284890846004 0.0
0.00021219548699336521 -0.00021043300908395074 0.0
0.0029071185785105743 -0.0009011674850204779 0.0
0.0029653804514166663 -0.00044077162145942007 0.0
0.0023900589098448874 -0.0010378738044913793 0.0
0.000956573360851629 -0.0001666070339018791 0.0
0.0017034574295786557 -0.0003368265664133425 0.0
0.0007481846248204262 -0.0005988685234505402 0.0
0.004113975640722361 -0.0005140281867651732 0.0
0.0010326195277290762 -0.00048354752222661186 0.0
0.0009652776851970977 -0.0004439083248597293 0.0
0.0010295835280469013 -0.00044546763885858334 0.0
0.0009595965204581273 -0.00040632955171224927 0.0
0.001025637166349428 -0.0004078776687908844 0.0
0.0008947915457540257 -0.00040394704743361627 0.0
0.0032252750087201753 -0.0009287447722197172 0.0
0.0031815942763432246 -0.000913887421295939 0.0
0.0006270178092003313 0.00013531162692627618 0.0
0.002445411428621206 -0.0010654406564127464 0.0
0.002384867985196856 -0.0008001533591907577 0.0
0.0023227310832373373 -0.0008192881057205124 0.0
0.0011233649600264559 -0.0007787397610722782 0.0
0.00029631306059182895 -0.00010430583544914572 0.0
0.00031334867223155766 -0.00013077246688697185 0.0
0.004377067477947114 -0.00023417300539191503 0.0
0.0044535035075670875 -0.00019531481127452128 0.0
0.000676140808433474 -4.525065522959562e-5 0.0
0.0011691644955669604 -0.0007744778974173563 0.0
0.0011650022065456908 -0.0007326782574990432 0.0
0.0011762382961952793 -0.0008204729474239103 0.0
0.0010785397137388923 -0.0007820950802824746 0.0
0.0007701868234841332 0.00020607595449660554 0.0
0.001846779006057539 -0.0008124120871002874 0.0
0.0028513661301601324 -0.0006001893556675596 0.0
0.0043885975300391785 -0.0002063557335287762 0.0
0.002721378710285099 -0.0010375426951909636 0.0
0.0017511628301881633 -0.0009744717704427618 0.0
0.004723254218754401 -0.00014777272427324262 0.0
0.004702549690157468 -0.0001778475010269928 0.0
0.0014918749306193294 0.00024692324372072987 0.0
0.0013372922479802489 -0.0008692628506988889 0.0
0.00314821866327192 -0.0004588207194490481 0.0
0.0032308635077473585 -0.00043245988727843454 0.0
0.0004965592116175277 -0.00023884610335533733 0.0
0.0006537867715575797 -0.0005462405582812427 0.0
0.0006007826843134169 -0.0004988248210084493 0.0
0.0005857009482800484 -0.00045710615104402954 0.0
0.0009243395110189538 -0.0006953074003056763 0.0
0.00016071922697524977 -0.00015821284608660767 0.0
0.0001493319965475839 -0.00013767644688364626 0.0
0.002932334059946978 -0.0010143583735895366 0.0
0.002989875559914227 -0.0009815203051197871 0.0
0.003000184209943799 -0.0009309887216209686 0.0
0.0040301988025278615 -0.0005080731278163742 0.0
0.003984225431425716 -0.0005059576998272457 0.0
0.004007076776306728 -0.0006613638318989787 0.0
0.000888167740974167 -0.0003673969838067901 0.0
0.0008249478496601899 -0.0003654384481379163 0.0
0.003299263763162451 -0.00044303396136753057 0.0
0.004626001995832645 -8.013671517587485e-5 0.0
0.004651563504130583 -8.68534620045693e-5 0.0
0.00468274252165982 -0.0001065248643130356 0.0
0.004635637717498868 -0.00024224153997842214 0.0
0.00026478485099410906 -0.00026548930398481 0.0
0.0030551176002021115 -7.917748893988827e-5 0.0
0.0029593660245438736 -7.117671903139407e-5 0.0
0.0029442442949784843 -0.00010110168724262294 0.0
0.002852803012456418 -9.452230664737865e-5 0.0
0.0028436341621262 -0.00012312185180649978 0.0
0.0028595119118380845 -6.651627166084605e-5 0.0
0.0025916094583492773 -0.0006158998215437761 0.0
0.0020782877156299627 -0.00045896423427283975 0.0
0.0021467783329250506 -0.00044706858723945884 0.0
0.0006147928517708807 -0.0005416418799195868 0.0
0.0005625852115529667 -0.0004927599841783589 0.0
0.004197104670013203 8.773331110227595e-5 0.0
0.004339868296940908 7.098750400349403e-5 0.0
0.004395466043123813 4.478042353962237e-5 0.0
0.004480670117943554 5.248761104891278e-5 0.0
0.004445412435961351 7.419245228958236e-5 0.0
0.0023382557847496997 -0.0010104036425761522 0.0
0.0023385732047362788 -0.0009634911343584843 0.0
0.0023359559753386456 -0.0010590720400832448 0.0
0.002894738715618795 5.3508828309951495e-5 0.0
0.0028798288997261205 1.6493629197704974e-5 0.0
0.000676921612712978 -7.665322322803576e-5 0.0
0.00035437308278582453 3.6591927180918355e-5 0.0
0.0031666807984017157 -0.0009655138163422402 0.0
0.000790801678627519 0.00013998077824915316 0.0
0.003193183490094071 -0.0005897513670359677 0.0
0.002946736157646972 -0.00012995482618554725 0.0
0.0028351474949172796 -0.00015098485270327458 0.0
0.0029197865718945722 -0.00016064560009795907 0.0
0.002826366518715173 -0.00017832991830935192 0.0
0.0029063750391655073 -0.00018849682052939396 0.0
0.002818262804507558 -0.00020581225660339352 0.0
0.002895893773141327 -0.00021633749430179178 0.0
0.002810882269608533 -0.00023367544488747997 0.0
0.0028897158247199327 -0.00024449823510307747 0.0
0.002741134689863152 -0.0001680038941443506 0.0
0.0027327549792983464 -0.00022252651879867976 0.0
0.003271496096180483 -0.000943671362531953 0.0
0.004733494971974865 -9.802216933655478e-5 0.0
0.001682933477898303 -0.0007602853120333654 0.0
0.0016234544540453903 -0.000728796157748735 0.0
0.0045029992831961 -0.0003208721929748774 0.0
0.001950958854228764 -0.00048607548816667905 0.0
0.0027563537870979923 -0.0001142947413258716 0.0
0.0009565879251772042 0.0002553246146196157 0.0
0.0002798473438005957 -6.619482723019545e-5 0.0
0.0015991779966882242 0.00026075827946826855 0.0
0.0016204554851191868 0.00024859925636706924 0.0
0.0036759511624132116 0.00010703491253376732 0.0
0.00454305626998316 -0.00030741700731068877 0.0
0.004482279388329674 -0.0003635825773500275 0.0
0.0019443403983029947 -0.0005514234666830753 0.0
0.0018880926765616312 -0.0005222345478895711 0.0
0.0007924241981090872 -0.0005645673293258809 0.0
0.00017539611832051495 -0.00018399195563349169 0.0
0.00022143053800928103 -8.821143888295092e-5 0.0
0.00022818495154406233 -0.00010582277802673912 0.0
0.00012525907247752698 -0.00013094628344269355 0.0
0.0033751625608970013 -0.0005786796594883029 0.0
0.0034483692621974957 -0.0005451879058366593 0.0
0.003509136365357357 -0.0005511956314100055 0.0
0.0035217656833442007 -0.0005106623328434382 0.0
0.0027276546131854863 -0.00024897499104238466 0.0
0.0011412633284451947 0.00027015146619729626 0.0
0.00145709715798916 0.0002635394977345 0.0
0.002723328611353375 -0.0005291859911627407 0.0
0.00272799465980417 -0.0004940108095470658 0.0
0.00208063053586254 -0.00042832065349104713 0.0
0.0017754348263176124 -0.0004261663405807046 0.0
0.0018055211641205251 -0.0010089910088710776 0.0
0.0037031491256643177 -0.0007185727520483136 0.0
0.0037466083169368186 -0.0007279070588375312 0.0
0.0036861687776190383 -0.0007698005456213393 0.0
0.003728259838256342 -0.0007812545508214903 0.0
0.00366967008270202 -0.0008232555467887445 0.0
0.0036272924037113606 -0.0008115333425797834 0.0
0.0035197348433873756 -0.00079747996021503 0.0
0.0031876691126937755 -0.0008637675354053713 0.0
0.003339367194266376 0.00019063097427854189 0.0
0.0025722211103682913 -0.0008285452831385074 0.0
0.0006988065367994762 1.90355960849623e-5 0.0
0.004678166107289892 -0.00021559470743341263 0.0
0.004734690320102756 -0.00015892580169728693 0.0
0.0037879257575931125 -0.0007381751656281168 0.0
0.0037701618264592827 -0.0007919315450872363 0.0
0.003827618358882255 -0.0007490083868083434 0.0
0.0018554128443875062 -0.0009950270361302205 0.0
0.0022638636486315322 -0.0007939828847260832 0.0
0.0022631983168210786 -0.0008369434653380393 0.0
0.0023203853779423834 -0.0008637844922468979 0.0
0.001521470141484707 -0.0006167077013930546 0.0
0.002204599973570931 -0.0008106212756925707 0.0
0.0028565112134619846 -0.0008849963705288095 0.0
0.0040529610262002354 -0.00046417523695471837 0.0
0.00415435596287141 -0.0005159508572081308 0.0
0.004131678981640135 -0.0005659282301859049 0.0
0.004185006991056338 -0.00046444769581994614 0.0
0.0005670446425358427 -0.00010721854186057876 0.0
0.001641622631396472 -0.0009050493233596088 0.0
0.0015916485666260577 -0.0009164224965932221 0.0
0.00164566862425853 -0.0009522448671692615 0.0
0.0015978975647911362 -0.0009642068435438527 0.0
0.0035822235884623104 -0.0005151363408391167 0.0
0.0009790213708599723 -0.0007402831006860606 0.0
0.0008731258095064879 -0.0006516578108920358 0.0
0.004590172302494197 -0.00011813569045782635 0.0
0.0002695892315881489 -3.263718725864121e-5 0.0
0.00026919621008975227 -1.7307249848976102e-5 0.0
0.0031204555141055796 -0.0009435166107183286 0.0
0.0031141042935806437 -0.000999748326194805 0.0
0.0025240029324703457 -0.000635726473875567 0.0
0.004535557389988932 2.990541660916442e-5 0.0
0.0008824902503020051 -0.000696172513057362 0.0
0.0037078685796297223 0.00023998293548502098 0.0
0.004320098836435906 -0.00036558049642308537 0.0
0.004330233434178944 0.00014736831388481296 0.0
0.004376656971724371 0.00012798845051840852 0.0
0.0034612659579424097 -0.0005058793059084777 0.0
0.003726113329947049 -0.0005336065006000404 0.0
0.0037795088507172957 -0.0005361934609633413 0.0
0.0033151930036524825 0.0002428072297147961 0.0
0.003413198144214982 0.0002396328877121676 0.0
0.003535524324755332 0.0002433554644704239 0.0
0.002873939668335575 -0.0010470582898758922 0.0
0.001386277073751474 -0.0009059349479621217 0.0
0.002142530168743679 -0.0005845060310725026 0.0
0.0030723989750130873 -0.0004871952092702498 0.0
0.002715356523286364 -0.0006512960199251219 0.0
0.0027696891437946156 -0.0010586558810664155 0.0
0.0012200501122790074 -0.0008148756710310565 0.0
0.001569861459179412 -0.0007368738762965705 0.0
0.0006318347921934991 -0.000257511229171493 0.0
0.004596572236123791 3.474784897895511e-5 0.0
0.0035861821805890305 -0.0006086819349702318 0.0
0.0004248515428578455 -0.00019955895541088456 0.0
0.0011293589119899252 0.00030126468036034313 0.0
0.0027531639473805107 -0.0008461315862808005 0.0
0.0036110317114389522 -0.0008655859029383723 0.0
0.0035664703308560435 -0.0008533253563842053 0.0
0.003167894503358953 -0.0006737705133451089 0.0
0.003307136451913933 -0.0004060507482648467 0.0
0.0014428496507545255 -0.0005015850298785941 0.0
0.0022616012245933654 -0.0008886830777151862 0.0
0.0030388971731529677 -0.0004203535538744107 0.0
0.0015642988298394896 -0.0006958749698533071 0.0
0.001509921145777153 -0.0007027886143781349 0.0
0.0012269876859122054 -0.0008616415699991207 0.0
0.0007833566153775019 -7.163732032971256e-5 0.0
0.0007873468686767174 -3.836189451210433e-5 0.0
0.0003597585820354969 5.241531288094079e-5 0.0
0.0004924930183624933 7.931381275173061e-5 0.0
0.003946890316205807 -0.0007071652898938428 0.0
0.0005655207957439946 -0.000279679537024869 0.0
0.0008321850270074394 -0.00040200171167193723 0.0
0.0007625891864430807 -0.00036203673218893854 0.0
0.004138418900757195 -0.0004677395981507125 0.0
0.0020779112335583953 -0.000799722675659684 0.0
0.0026575170119510832 -0.0005939221004153877 0.0
0.0031953336786761234 0.00019808107816655864 0.0
0.003170254682664481 0.00023103155862797355 0.0
0.003074962979647854 0.00021199006192716886 0.0
0.0030489569424892674 0.0002368289391750379 0.0
0.0031356733366630133 0.00024476667626364284 0.0
0.003521512374321709 -7.899127229217337e-6 0.0
0.0036204830605424537 -2.328029984034902e-5 0.0
0.0036513614911068467 1.7503059394951632e-5 0.0
0.0037422662139630085 6.243253311149191e-7 0.0
0.003712994790931713 -4.007268416389889e-5 0.0
0.00021263937517380067 -7.12920064290014e-5 0.0
0.0035972584974638096 -0.000476452142913233 0.0
0.0005648667995791333 0.00014999426312222114 0.0
0.0005877989522746241 0.00017402397613661494 0.0
0.0029775693654735865 -0.0010324232957941715 0.0
0.00017385400096495918 -1.5911887003069668e-5 0.0
0.003921678355582189 -0.0002928107515734044 0.0
0.004009887395947264 -0.0002570349351080991 0.0
0.0039421387601655065 -0.00025233939025959886 0.0
0.004085568026528969 -0.00025561923183393313 0.0
0.004100334085015104 -0.00022136474454754974 0.0
0.0041774707839912 -0.0002202260439494118 0.0
0.0010972122341624908 -0.0004454605059171323 0.0
0.0010962070796228104 -0.0004087313006774576 0.0
0.001020931144192246 -0.0003708223208722577 0.0
0.0010938584454348848 -0.0003726393524645786 0.0
0.001169745746429263 -0.00040911022802325806 0.0
0.0011682198554307905 -0.00037296476203554235 0.0
0.0012433215314584438 -0.00040794625457021724 0.0
0.0013447522792695344 -0.0009141334709034525 0.0
0.0012422034452941667 -0.0003710248367322789 0.0
0.0013172412122800035 -0.0004058352816773509 0.0
0.0003606841633342359 3.8555085030615605e-6 0.0
0.0007814091216040454 -0.00010512924209073224 0.0
0.0013152333392621217 -0.00044149054217729097 0.0
0.0010244858526782955 -0.000338292592443801 0.0
0.004004301611221829 -0.0004640872472903851 0.0
0.003937284103459208 -0.0005047756192263113 0.0
0.0022860274341139045 -0.001032638330512351 0.0
0.0022833205849159496 -0.0010798942746081885 0.0
0.002959188599141961 0.00021723386458308134 0.0
0.0015257839596036094 0.00022646878011373735 0.0
0.0016464635024738975 0.00022350592415889224 0.0
0.0017367206779490354 0.000245690082565456 0.0
0.0017623695730055202 0.00021371424132587917 0.0
0.0016723134754727412 0.00018724154616137529 0.0
0.0017867928345002867 0.00016761222100251605 0.0
0.0016976881615129117 0.00014410808458861522 0.0
0.0018133186512640132 0.00011771094384948296 0.0
0.0017220576558793182 0.0001003976319125732 0.0
0.0018565283708417294 6.977263876646975e-5 0.0
0.0017438423626441218 5.908487516841892e-5 0.0
0.0018577188428387226 2.996075362572094e-5 0.0
0.0017594692646602835 2.139972230046257e-5 0.0
0.0018702335873029992 -6.178349707786091e-6 0.0
0.001779794685205625 -1.5062257715225184e-5 0.0
0.001885257119148816 -4.0522865910902615e-5 0.0
0.0017948583927710874 -4.8265660729615395e-5 0.0
0.0018940666324311066 -7.162644693050872e-5 0.0
0.0018075150746292234 -7.903346076490576e-5 0.0
0.0019028126271551126 -0.00010079169666564422 0.0
0.0018179958484547374 -0.00010860498050893496 0.0
0.00190973894444427 -0.00012945118139194911 0.0
0.0018248522621624088 -0.0001373371842138433 0.0
0.0019152499646248578 -0.00015679164158642048 0.0
0.0018311663160111287 -0.00016644238439036631 0.0
0.001740492805659863 -0.00014478095521787564 0.0
0.0017475443056399096 -0.0001752052549536866 0.0
0.0019270313600347276 -0.0001871857962313771 0.0
0.001711791526675077 -5.573393749277768e-5 0.0
0.0019977546649720067 -0.00014650294292163418 0.0
0.0019960028895376343 -9.427281340967113e-5 0.0
0.0016131928402590354 0.0001234126595010838 0.0
0.0019759035287203945 -3.175740608211647e-5 0.0
0.0016554851236878826 -0.00015230946865823865 0.0
0.0016642138823186234 -0.00018335528977968935 0.0
0.0017545035031700886 -0.000206159420330886 0.0
0.0016725307472991843 -0.00021478861488706148 0.0
0.0016708881640486574 1.1724193880784226e-5 0.0
0.0019674141237354167 3.266143924802986e-5 0.0
0.0016479698664171732 -0.00012123729931977562 0.0
0.0019078351526012097 0.00013791017853403674 0.0
0.0017614570362931667 -0.00023719151006096345 0.0
0.0016799395757155443 -0.00024646528679662683 0.0
0.001591284096475022 -0.000223016301119522 0.0
0.0015603222294797699 -0.00012891121824929497 0.0
0.0015486522093843798 -9.535448061168236e-5 0.0
0.0018434734312827634 -0.00022728359341308332 0.0
0.0018475536427002667 -0.00025777184839535555 0.0
0.0019274636891265767 -0.0002476552017877381 0.0
0.00185631527624938 0.00023476245536200834 0.0
0.0018378433731870288 0.0002544996889652274 0.0
0.0016016697927947118 -0.00025582293767394446 0.0
0.0015112843561392907 -0.00023135724626551955 0.0
0.0015028451391440017 -0.00019934859966158345 0.0
0.0014182681764494376 -0.00020613709966490996 0.0
0.0027137734258981428 -0.0010882905905899762 0.0
0.002665861586007941 -0.0010659546994150728 0.0
0.004520820866935712 -0.0003506822252849364 0.0
0.002916944113900035 -0.0008553921970839558 0.0
0.0029680627473331945 -0.0008712803521847991 0.0
0.0016709997149239925 -0.0007176187601407103 0.0
0.0017310374465517818 -0.0007478428946689541 0.0
0.004017318844827684 0.00013337678914908513 0.0
0.0029335823881092445 -0.0005001802595014874 0.0
0.0016889293418320568 -0.00027779467942245183 0.0
0.0012702297041267806 -0.0007831452803256844 0.0
0.0012679707733317003 -0.0007400285242115718 0.0
0.00131578463488731 -0.0007342781608999333 0.0
0.0032365527061758046 -0.00039600997075746997 0.0
0.0029898756585657886 -0.0001728438271750465 0.0
0.002010256708532842 -0.0005757739178850616 0.0
0.0019464570722033678 -0.0005887165781226405 0.0
0.002774762584385367 2.382078824350063e-5 0.0
0.002766555135570971 -7.414725647139802e-6 0.0
0.0028560704911310126 -1.4609324618941772e-5 0.0
0.002750122413156257 -3.9695163365772867e-5 0.0
0.0027892115564819523 5.724036539698977e-5 0.0
0.0029726178692314593 -0.00022759039393929105 0.0
0.0029678567935605515 -0.0002556639097380733 0.0
0.0028769791471753747 -0.0002726359113295408 0.0
0.0021491558542976316 -0.0004165521324275853 0.0
0.0022159253277280475 -0.000434812623938224 0.0
0.002219097149631919 -0.00040556697531475615 0.0
0.0022847176680157294 -0.0004221321599122482 0.0
0.002287826856026507 -0.00039356582028710806 0.0
0.002353234734866289 -0.0004092570745821975 0.0
0.0023567235218340883 -0.00038147319213986994 0.0
0.0024247372603654733 -0.00039606322390710926 0.0
0.0024195220116189874 -0.0004252731495255957 0.0
0.0024922875298359036 -0.0004072441199639142 0.0
0.0028017615717810754 -0.0004766859927028481 0.0
0.0027324247698156806 -0.0004611460195805761 0.0
0.002661436848676328 -0.00047860041086066453 0.0
0.0026649329115755694 -0.00044666543772788915 0.0
0.0004885944673183657 -0.0002103972914130075 0.0
0.0005782542477477845 -0.0005361186652812787 0.0
0.0005271077099143601 -0.00048580716533124863 0.0
0.0005120964565889307 -0.00044284853712393726 0.0
0.0004752038023678554 -0.0004337677936085394 0.0
0.002527109940173099 -0.0005973264650967919 0.0
0.0033769202061753618 -0.0004138128670319608 0.0
0.003362631347458056 -0.00045307746659886737 0.0
0.0011896548228551539 0.0002442545087117509 0.0
0.0026535900159259493 -0.00023801808607717064 0.0
0.002655707469276808 -0.00021460549995078372 0.0
0.0027595004987745974 0.0002146917175464889 0.0
0.004670799961022504 -0.00015574658057622892 0.0
0.004726500200116377 -0.00011770356039247137 0.0
0.004765339530021697 -9.834173185098629e-5 0.0
0.0001563987550648644 -7.017283796131915e-5 0.0
0.00015943327431567266 -8.278605091863128e-5 0.0
0.00022838354940260698 -0.00012108379629199676 0.0
0.00016740049825010792 -9.8191478550938e-5 0.0
0.0002319662658442118 -0.0001385514114180848 0.0
0.00017280854154495145 -0.000113250273947022 0.0
0.00010463546335422568 -6.854511338821592e-5 0.0
0.0024598359701431425 -0.0006160556830581529 0.0
0.0011702404460043868 -0.0003382256793165734 0.0
0.0006693340534579347 -0.0005906898548406648 0.0
0.001928335868726958 -0.00027569899135008444 0.0
0.004471470352221378 -0.0004002586619612186 0.0
0.004430458269927242 -0.00041959311001471083 0.0
0.003797467616286199 -0.000495149905417682 0.0
0.003866950080756835 -0.0004899776665568482 0.0
0.0038770246633302407 -0.0004484991677698345 0.0
0.00023142090001913014 2.9161648406345615e-5 0.0
0.001756841985794733 -0.0010227636634184746 0.0
0.0011850180743947806 -0.0008683089476180376 0.0
0.0001405504382002509 -0.000155811469751791 0.0
0.00019427419450000058 -0.00021890948166583196 0.0
0.0009492911615505439 -0.00033625396322300825 0.0
0.003026271850381683 0.000240153863880372 0.0
0.003124827744483799 0.00024062115452781754 0.0
0.003665640886775183 -0.0005321277000410944 0.0
0.0038289647073256306 -0.0005396497939703333 0.0
0.0016511448507386464 -0.0009988757734500666 0.0
0.0018562986905639653 -0.001041316726234943 0.0
0.001906569063365496 -0.0010284257997525104 0.0
0.004192085608763665 -0.0005192131568819646 0.0
0.0041691881987121005 -0.0005702759599295316 0.0
0.004107887710668524 -0.0006257702353948904 0.0
0.004468130406840762 -0.00016960022709779755 0.0
0.00440230548411445 -0.0001793644573589512 0.0
0.0043208355606631325 -0.00021434515066394005 0.0
0.004328299361178649 -0.0001872787997507635 0.0
0.0008063411882038259 -0.0003319678251236962 0.0
0.004189284147282976 -0.00018836047127900488 0.0
0.004099613742300546 -0.00018877043909206704 0.0
0.0029803174489237637 -0.000827966736012207 0.0
0.00048733478451413597 -0.00047197063471265846 0.0
0.0004418985868185725 -0.00042778471018090655 0.0
0.00042584970699418375 -0.0003881639676328639 0.0
0.00039357523964999756 -0.00037938923976100206 0.0
0.00477758654277327 -8.326575556763066e-5 0.0
0.004676517889359503 -9.049924968677481e-5 0.0
0.004733094322129613 -6.32673744988589e-5 0.0
0.0039843419136613755 -0.0007136220319428751 0.0
0.0020107649950184612 -0.00043802087069740866 0.0
0.004226786608076997 -0.000523618685840211 0.0
0.00420671283751762 -0.0005721925074166115 0.0
0.004260160900041234 -0.0005269679992314359 0.0
0.004245105426817154 -0.000576632893643223 0.0
0.004299278618166538 -0.0005233005945615921 0.0
0.004315046505931264 -0.00047954461647225447 0.0
0.004348459661118676 -0.0004794724628442856 0.0
0.002338128703535895 -0.0011059928500186168 0.0
0.0022885299964766266 -0.0011310270343824855 0.0
0.002224519107368842 -0.0010996710428543702 0.0
0.0016126379947978612 -0.0002894423234784131 0.0
0.0001209068873384878 -8.78146004736897e-5 0.0
0.00017759906606111962 -0.00012902264037384394 0.0
0.00012655194622237126 -0.00010055856210073363 0.0
0.0016103582588744528 -0.0010193737534431 0.0
0.0015549493219016858 -0.0009776067340366268 0.0
0.004628160011908491 -0.00026972121061513503 0.0
0.00037319118592093244 6.931565846994268e-5 0.0
0.00259645461602601 -0.0004669149501983641 0.0
0.0026025019737525613 -0.0004339251633387591 0.0
0.00444423252130391 2.083761738603641e-5 0.0
0.004580787555138774 1.0745271530224215e-5 0.0
0.004203239511119273 -0.000424696287694412 0.0
0.0008357360159258413 -0.0006513635023127287 0.0
0.0008509177778713256 -0.0007005183408635464 0.0
0.0035757684609236985 -0.0005542816181359257 0.0
0.00359727123832418 0.00023801986358843794 0.0
0.004710727729151378 -0.00019487625419840646 0.0
0.004765622075576201 -0.00013749853317481043 0.0
0.004785975341618934 -0.0001092712862844559 0.0
0.003503080355233992 0.00023694745320234056 0.0
0.004074458798039397 -0.0004243714746515399 0.0
0.0022353842116146984 -0.0009697935681776982 0.0
0.004161203957336062 -0.000253865270849058 0.0
0.003944667637288071 -0.00047074414766888536 0.0
0.0015087039083590042 -0.0006596642572964682 0.0
0.0008602184478087919 -0.0006073808140905219 0.0
0.004539389127034356 -0.0001532786766221676 0.0
0.003790546518089693 0.00022996169867067371 0.0
0.0015544384770845624 -0.0010226198568598485 0.0
0.0007143947957096204 -0.0002995746861954479 0.0
0.002638629132604163 -0.00026639177349280734 0.0
0.00390670492298992 -0.0007058838257346169 0.0
0.003893882036567995 -0.000754004506976864 0.0
9.372510936803388e-5 -0.00010438247861294659 0.0
0.0030312829361721144 -0.0010046475686352181 0.0
0.003011754918333475 -0.0010495586856332174 0.0
0.0019042711185471156 -0.0010821123418487055 0.0
0.0019574253923606865 -0.0010628593080133722 0.0
0.0019561775645192477 -0.0010141617903142032 0.0
0.00200794957575521 -0.0010463326868370806 0.0
0.00195745271737413 -0.001103726552230729 0.0
0.0016405716221497004 -9.017553286119627e-5 0.0
0.0015404680823934507 -6.447073323885907e-5 0.0
0.000672101710901519 -0.0001069876346648586 0.0
0.0012822479017890714 0.00029345033963199717 0.0
0.00129611774467635 0.0002711448423498113 0.0
0.0029810154694146027 0.0001745988108559821 0.0
0.003805504362832999 -0.0008033592626054685 0.0
0.003753178684231315 -0.0008446844561007779 0.0
0.00040478563958471603 -0.00041795919017537493 0.0
0.0003582835113461967 -0.000366012754040467 0.0
0.004755901106359384 -6.366269557881098e-5 0.0
0.0007821009954100906 -0.00040023604641042297 0.0
0.0007038716961864261 -0.0003647491826603679 0.0
0.004423963290917618 0.00019728882310099825 0.0
0.004575059041173951 -0.00029742008944986023 0.0
0.004551985060438774 -0.00034344181145745255 0.0
0.002719555379229115 -0.00027636638605836155 0.0
0.003154200359297412 -0.001016822687156972 0.0
0.0030890793583413035 -0.0010604759259486881 0.0
0.001383410029966617 -0.00043652503861046763 0.0
0.0013899166601977124 -0.0004010400814449679 0.0
0.002009353734914459 -0.0009985905805575766 0.0
0.004232664360858185 -0.00046289170144615533 0.0
0.0024277642077431953 -0.0003680272340876085 0.0
0.0023653764329743562 -0.000353643370971357 0.0
0.0001158016865120931 -0.00013522893203343276 0.0
0.0011861069992803682 0.00045247976527121195 0.0
0.0022194344720134693 -0.0003757445727913011 0.0
0.0014637434015482807 -0.00010470673656196447 0.0
0.0014788818432551643 -0.00013722686879716033 0.0
0.0008904768857104817 -9.970154095027316e-5 0.0
0.0030568527596386446 -0.00023619620632002643 0.0
0.0020045544258743015 -0.00026604227967406204 0.0
0.0020058332130799546 -0.00023913704140196776 0.0
0.002081008191728597 -0.0002571927287980555 0.0
0.002080807563408631 -0.00023200877344138957 0.0
0.002152754122145051 -0.0002467927668887605 0.0
0.0021537570706418392 -0.00022330650621302258 0.0
0.002079903764347509 -0.00020788650671702206 0.0
0.0021536536294432256 -0.00019957342603136292 0.0
0.0020798162795219537 -0.00018467573331974345 0.0
0.0021547940945346247 -0.00017681013027844462 0.0
0.0022211723784550893 -0.00023747971070776474 0.0
0.00018740489817547907 -6.5450075248049166e-6 0.0
0.002956441379718836 -0.0002880922432181266 0.0
0.0020250420398343232 -0.0004082178517191009 0.0
0.0018795400684574468 0.00019121377976562295 0.0
0.0020229679254473616 0.000150448056921324 0.0
0.0020344003617602494 0.00010067557879481756 0.0
0.0019806317858175365 0.00021125017776338302 0.0
0.001940067454157028 9.025383887882092e-5 0.0
0.0020623602816259375 6.153291068706556e-5 0.0
0.0021755596102302852 6.3364306664735e-5 0.0
0.002104467652803231 0.0001826505011831247 0.0
0.00029451689579401935 -0.0001614359725945915 0.0
0.0003021314399041268 -0.0001839217634647383 0.0
0.004747082833927126 2.539221704286175e-5 0.0
0.004598487102261826 5.664011924159279e-5 0.0
0.0045900831855735956 6.848160517849496e-5 0.0
0.0036593235644009725 -0.0008810479050526664 0.0
0.003594265551335811 -0.0009211616000153598 0.0
0.0012611312830266602 -0.0006977642119570442 0.0
0.0013106842885451902 -0.0006909640553279283 0.0
0.001210906135977042 -0.0007019425301142444 0.0
0.001380733561475254 -0.00011870673302943893 0.0
0.002136942415237937 0.00010563976918752494 0.0
0.002231449509939424 -0.00019067712030812288 0.0
0.0022275012010254933 -0.000167679880372276 0.0
0.0021545059641579463 -0.00015429444388568553 0.0
0.0022255667028830087 -0.00014689401533461482 0.0
0.002157709243620313 -0.00013299968473806474 0.0
0.0012953803145551183 -0.000879181719696617 0.0
0.00473528394797024 4.0813194334096846e-5 0.0
0.001969924042738128 0.0002461156314854421 0.0
0.002861858332819357 0.00017759704071215502 0.0
0.002871881642422227 0.00013174932611980097 0.0
0.002754701720984334 0.00012394682297121737 0.0
0.0013905552858255504 0.00022457984835305434 0.0
0.001674966919863094 0.0002434063677261201 0.0
0.0015844704479107874 0.00025701121172821035 0.0
0.0015168026576898614 0.0002629045254029242 0.0
0.0032049960527996985 0.000194905138591135 0.0
0.004045373175968808 -0.0006685509027900589 0.0
0.004020962855678001 -0.0007256559855811013 0.0
0.0012313839617835388 -0.000907332005080582 0.0
0.002060508024518433 -0.001030710680662534 0.0
0.0020607210266620026 -0.0010772611942233025 0.0
0.00211031543764586 -0.0010616564938954987 0.0
0.0021171071648497294 -0.001113845823722319 0.0
0.0034745967652083302 0.00017684546427217243 0.0
0.0033739336729842946 0.0001531577710726049 0.0
0.003503503143659197 0.00014404136772132298 0.0
0.0036085282430052272 0.0001624799960506227 0.0
0.002674508435990923 -0.00041682164772104157 0.0
0.0026188900742558185 -0.0004022168916487931 0.0
0.0021628798550448387 -0.0010900362972557733 0.0
0.0014405047190262875 -0.00024268783800298385 0.0
7.470111684768869e-5 -7.915895420163476e-5 0.0
0.001967092078635631 2.7471791662490427e-6 0.0
0.002069352243127391 -2.37088721864407e-5 0.0
0.0020776675055179977 -5.289556522593677e-5 0.0
0.0021702346956275825 -4.546276961184293e-5 0.0
0.002171005122631625 -6.960894990818899e-5 0.0
0.0021634571443255057 -2.0140824455399232e-5 0.0
0.0020939690138696387 -7.752446339353577e-5 0.0
0.002173768867714173 -9.20086246666857e-5 0.0
0.0022575825044868613 -3.8147898597844456e-5 0.0
0.003246850760130471 0.00016055043629359378 0.0
0.002104163100673671 -0.00010132806307665192 0.0
0.004802039634540249 -4.154603295253538e-6 0.0
0.001849446817658889 -0.0002876071230144466 0.0
0.0023183491018179065 -0.0009097404599030018 0.0
0.0023813774483600466 -0.0008904186547695039 0.0
0.00206804766318596 5.333730194809135e-6 0.0
0.002170254771155537 5.883316704736867e-6 0.0
0.0028141077104871584 -0.0004452895122699353 0.0
0.0035777602750571794 -0.0008014762038974895 0.0
0.0035182937061639975 -0.0008460219166711734 0.0
0.0035078277687463763 -0.000896407340803938 0.0
0.003463114604234251 -0.0008890199585576282 0.0
0.0034558061869862803 -0.0009354575052183574 0.0
0.00340811960598035 -0.0009312878575297019 0.0
0.0040339784086582415 -4.5677778235264355e-5 0.0
0.0039506566768315755 -8.291136563454324e-5 0.0
0.003990777995893954 -0.00011252206717575498 0.0
0.0038694729721176187 -0.00012159699422377525 0.0
0.0039062021474002323 -0.00015100180586873614 0.0
0.003786362363116652 -0.0001615447119026137 0.0
0.00382542012249943 -0.0001909233940838794 0.0
0.003747397633938409 -0.00013128980980216053 0.0
0.0036676120050733014 -0.0001711496780350804 0.0
0.0039387987089836 -0.00017948628503583992 0.0
0.003627048024851044 -0.0001415737666778854 0.0
0.003857622173062427 -0.00021945946069179073 0.0
0.00375096607745008 -0.00023067901956065254 0.0
0.0037784850734668305 -0.00025942461023186207 0.0
0.0037082804288668092 -0.00010274708299876874 0.0
0.0039058294337395516 -5.147733888298216e-5 0.0
0.003969484583567258 -0.00020906632538642702 0.0
0.004119934047992512 -0.00010845359732690818 0.0
0.004042727738990425 -0.00016944911214655415 0.0
0.002666129362293725 -1.0683623744375614e-6 0.0
0.0016582347198170855 0.00025782772768568425 0.0
0.00024626852889283475 -0.00016418578236644378 0.0
0.0002273520143476116 -0.0002410837290475459 0.0
0.00027598624056333063 -0.0002949839127158957 0.0
0.0021610847613600247 -0.0010444226622811524 0.0
0.002890542434354778 -0.00046345231616960693 0.0
0.0027621711483890887 -8.829573766983875e-5 0.0
0.0026677162469470744 -0.00010572726839034403 0.0
0.002684098442842224 -8.227891696117077e-5 0.0
0.0026701532636547363 -0.00013006905755273937 0.0
0.002749923945257787 -0.00014032669313031424 0.0
0.0026633139678970495 -0.0001548421471092162 0.0
0.002654831073453537 -0.00017815474355299416 0.0
0.0025881750833263296 -0.0001669249125839786 0.0
0.00030120786639482346 -0.0002850974742678637 0.0
0.003085631633129146 -6.025868098771834e-6 0.0
0.0037405525568784425 7.394853370522824e-5 0.0
0.003590718679858888 7.961967543479114e-5 0.0
0.0001854920646537369 4.429650247139475e-5 0.0
0.00038446484485077863 9.741875718118289e-5 0.0
0.0003631964757297497 8.157207420784085e-5 0.0
0.003144629747710246 -9.436704863253128e-5 0.0
0.00039338693843784 -0.0003336837188856077 0.0
0.00045822714087794767 -0.0003913710435720365 0.0
0.0004994030392300225 -0.00040482764836082257 0.0
0.0004951845573858608 -0.000371171492095442 0.0
0.0005389425852594833 -0.00037402197867331924 0.0
0.00199517967031911 -0.00012142746808253352 0.0
0.0002298806522630197 1.7827607255511017e-5 0.0
0.0009589836063014476 -0.00027367937287149126 0.0
0.000783571299020633 -0.0002655981432495731 0.0
0.002162520401293894 3.3984882659325755e-5 0.0
0.0004945782751501745 0.00021711972430190967 0.0
0.003447962236306172 -0.000831617461810643 0.0
0.0029701212797031357 -3.633446726774168e-5 0.0
0.004659433630513584 -0.00025193306479951035 0.0
0.003712315246645595 -0.00020063873954756107 0.0
0.003595254006070248 -0.00021007414922880944 0.0
0.0035511477129568734 -0.0009088212184811211 0.0
0.004811796270574961 -1.0531982583116513e-5 0.0
0.004723817284097384 -2.6746530336355144e-5 0.0
0.004743042880351797 -3.524319191346187e-5 0.0
0.004707642316452837 -1.5736802207445762e-5 0.0
0.004639447698680303 -4.908086827841463e-5 0.0
0.004695119971123506 -3.965262751921005e-6 0.0
0.004589655556125612 -1.6186539751653576e-5 0.0
0.004612093723997508 -3.358001139395106e-5 0.0
5.078159270719676e-5 -3.2109333207406884e-5 0.0
0.004847742841522368 -2.9626869909956895e-5 0.0
0.004788234403178489 -5.68900915308238e-5 0.0
0.004823675366134381 -3.13424884977019e-5 0.0
0.004794022322758861 -6.1023870126434455e-5 0.0
0.002906835022522509 9.270626400918032e-5 0.0
0.003715520420024966 -0.0008318892165140538 0.0
3.8594802619139814e-5 -3.456736881544942e-5 0.0
0.004859627310020597 -3.2019123384265396e-5 0.0
0.00155415229477048 0.0001968269371888864 0.0
0.0039350448513332395 2.361170963415123e-5 0.0
0.0013285644554014513 1.2126163467086076e-5 0.0
0.0014335157939415896 2.5876233170700908e-5 0.0
0.0014264995293976554 6.718906967269353e-5 0.0
0.0014371455233134556 -1.105151718722293e-5 0.0
0.001527988368344831 -2.6203633396912285e-6 0.0
0.0015478346133368038 3.3765560591788166e-5 0.0
0.0015337682672399435 7.71846519211362e-5 0.0
0.0014267574624390875 0.00010615184692636847 0.0
0.0013321002112307411 0.00013919514255962228 0.0
0.0013461551537803005 -3.2270657832737537e-5 0.0
0.004157314508862637 -0.0006162435658299293 0.0
0.004798389270457924 9.032270595498895e-6 0.0
0.002013800993833927 -0.0009511023202550459 0.0
0.0006365510307597362 -0.0005946344872823416 0.0
0.0022221326145325858 -0.0009257070064534958 0.0
0.0017004171721940896 -0.0009873662640830201 0.0
0.001702368128239302 -0.001035105876222788 0.0
0.002302128699173421 -0.0001588893216477841 0.0
0.003149320313157008 -0.00016535702460527136 0.0
0.004241814728630134 0.00014671554377315908 0.0
0.0042985395464896 0.00012163897828499043 0.0
0.00416945211208181 0.0001281954603894675 0.0
0.00029685868863403933 -0.00014420464770531843 0.0
0.0005921193033522698 -0.0005785968975643644 0.0
0.0014444838001915908 0.00032884939311125056 0.0
0.0012980553499567639 0.0003365666429880129 0.0
0.0035077184791930094 0.00022745716649098365 0.0
0.001721067173999656 0.00025984950789670504 0.0
0.00445899207690272 -0.0003338490752621778 0.0
0.0022032044379022273 -0.0007679401981275907 0.0
0.0033700741394983263 0.0001921600250587779 0.0
0.0034823710802461966 0.00022288302162187904 0.0
0.0014481212637080052 0.00016678892755644118 0.0
0.0011912586672492716 -0.0009171902740107091 0.0
0.004433361360705458 -0.0003835605423374876 0.0
0.0007079528021150981 -0.0005945671551547253 0.0
0.0007519877208587523 -0.000635434810340182 0.0
0.0007271072785218913 -0.0006479789754929474 0.0
0.0011465639186537312 -0.0002681344254084589 0.0
0.002724658517771393 -0.00019499252349838403 0.0
0.0030578838426456216 -0.00012374365016575088 0.0
0.0018387911771046508 -0.00019630693897975011 0.0
0.0019251795198030066 -0.00021884570469233734 0.0
0.004701922894349665 6.216897104766967e-5 0.0
0.00447126109122815 0.00013327546786094858 0.0
0.00019958866063141237 6.4650454973138e-5 0.0
4.99233677325614e-5 -3.547300907715589e-5 0.0
0.002225155909978201 -0.0002138727202681191 0.0
7.120179548004848e-5 -2.0163828806265202e-5 0.0
0.0001738701958671085 -4.0475121371321875e-5 0.0
0.0021959847718793597 -0.0008889706064079447 0.0
0.003116466813528093 0.0001965654958792144 0.0
0.0017502501308815067 0.00024149337757862645 0.0
0.003029996420044746 -0.00045105477563796677 0.0
0.0022372277228156945 -0.0001259907549372052 0.0
0.003954184330757811 -0.0004027690967692804 0.0
0.004603211996407243 -0.0002528413538833566 0.0
0.0014502861048219485 -0.0006675993258004351 0.0
0.0014553651993768017 -0.0007107027485259112 0.0
0.0013954309566068818 -0.0006702519446305235 0.0
0.0013335173800356139 -0.0006303991387353123 0.0
3.938200854408019e-5 -3.849618386647435e-5 0.0
7.513307585978634e-5 -7.34994672913909e-5 0.0
8.463073265107245e-5 -7.54158659096609e-5 0.0
0.0012459196960605693 -0.00044390264007428614 0.0
0.0011771400709645477 -0.0004500995404468062 0.0
0.004851704286425361 -3.083068673437039e-5 0.0
0.002660133127542209 -0.001117838154024063 0.0
0.0026116053947316657 -0.0010935887314404886 0.0
0.00260640573093015 -0.0011452854919779256 0.0
0.002557424553487687 -0.0011199518805164452 0.0
0.002502235952309252 -0.0011435491820515383 0.0
0.002501099285645009 -0.0010927055011342808 0.0
0.0026149750420946002 -0.0010426065495652652 0.0
0.0033847932340761726 0.00021879850179029096 0.0
0.0005666064079912335 -7.84260394713653e-5 0.0
0.0006596841459956863 -0.0001371530586458993 0.0
0.0005718192733428034 -0.00013846049040801696 0.0
0.003108436747931011 -0.0004313487679255426 0.0
0.0009319205463142056 0.00028743345535869956 0.0
0.002480948051820325 -0.00043919746439771446 0.0
7.01339751302849e-5 -3.201232324520078e-5 0.0
0.0015074409460004595 -0.0009827045488196016 0.0
0.0014564232479535209 -0.0009812931941282402 0.0
0.0014673945846702344 -0.0009423066575166931 0.0
0.0016965970281959475 -0.0009397535237055414 0.0
0.001452128962237123 -0.0006194994168128907 0.0
0.0006325288486673268 -0.0002885739016351612 0.0
0.0003621573474122106 -0.00022766349458679133 0.0
0.004826516096923914 -1.9851284149152846e-5 0.0
0.0047627802420807915 -4.0174071388454927e-5 0.0
0.0009351058909321038 -0.0007419466366388031 0.0
0.0011325907948211682 -0.0008243387303936497 0.0
0.001087510277225199 -0.0008297584366607498 0.0
0.0010333996649281407 -0.000784888761886346 0.0
0.0010400851372364534 -0.0008311511345877109 0.0
0.0029307610954735323 0.00020699892736727438 0.0
0.0019204948181246908 0.00023916598041493343 0.0
0.0032128286247181575 -0.0009809911545276473 0.0
0.003257005435951719 -0.0009973705714861989 0.0
0.003312139507085835 -0.000961274872473148 0.0
0.0031933998256525324 -0.001040853063213627 0.0
0.0015713424700333888 -0.0006598725435420736 0.0
0.0028168772530142087 -0.0008205736018368386 0.0
0.0017507292649662873 0.00025443688004209337 0.0
0.0019845374386657033 -6.584916825856475e-5 0.0
0.004861190528538436 -3.377681797083675e-5 0.0
0.004824457702313073 -6.646626787224332e-5 0.0
0.004808663561881789 -7.298745600027431e-5 0.0
0.0009881815082473117 -0.0007870349304249458 0.0
0.0009450118924068621 -0.0007866080319127496 0.0
0.0014352336480310762 -6.644341046371324e-5 0.0
0.0012779128154568509 -0.0006399988259611027 0.0
0.004568703599483746 -0.00021307535035389787 0.0
0.0037254526005618084 0.00026683931890313925 0.0
0.0022140737289172417 -0.00026105445442683474 0.0
0.0022811411831566092 -0.0002496557942934012 0.0
0.002940003018959625 0.000234733465787926 0.0
0.003655672249569181 -0.0007106278002742457 0.0
0.0021410444649747093 -0.0007840255873833075 0.0
0.0021433388984704784 -0.0008282485317638249 0.0
0.0005178867447417927 0.00010358359201142864 0.0
0.0011669253935523455 -0.000648297608459356 0.0
0.0011109209414810527 -0.000645765069481094 0.0
0.0010504604219484176 -0.0006041031173691428 0.0
0.0010565417810224746 -0.0006472641092571098 0.0
0.0008935661998443465 -6.463985901630609e-5 0.0
0.0008969988751282612 -2.934271224455821e-5 0.0
0.00100346323420833 -0.00013310360691051715 0.0
0.0032415066556669187 -0.0010521579506151122 0.0
0.0031342189921098355 -0.0008065980550998952 0.0
0.0030659768853092914 -0.0008404939628956542 0.0
0.003127454714389959 -0.0008592186864654276 0.0
0.0030590400216677473 -0.0008944151862509785 0.0
0.0031013965989176973 -0.0009083781350947406 0.0
0.0031916781931944737 -0.0008173157754598876 0.0
0.003246191387562316 -0.0008242864091221056 0.0
3.32754278271467e-5 -3.798788689843912e-5 0.0
0.004867242521902281 -3.4050242538728624e-5 0.0
0.004072053335915725 -0.0006135864155980746 0.0
0.0029191914290683492 -0.001064216855947575 0.0
0.004521640274477267 0.00010624674845421366 0.0
0.0028271348872193594 -0.0010277224276101845 0.0
0.0028146115418891536 -0.0010777705728321212 0.0
0.003706849959322921 -0.00048437801754532933 0.0
0.0033119642769992566 -0.00036984829203571694 0.0
0.0032442828258226596 -0.00035989854116391846 0.0
0.001536407781366333 -0.0008812285427971631 0.0
0.0008873327361662221 -0.0005609754000176981 0.0
0.003668742025581019 -0.00027355710971394736 0.0
0.003913494018013007 -0.0006575996957575357 0.0
0.0017047128551387317 -0.0005070567029218937 0.0
0.0017687963972887295 -0.0004974743366974405 0.0
0.0017665138579999423 -0.0005350177251677848 0.0
0.0017725772722435088 -0.0004614426018781731 0.0
0.0017028082459551574 -0.0005452331767368743 0.0
0.0018312625697267516 -0.0004916186876182221 0.0
0.0018389609546934594 -0.0004582112292570009 0.0
0.0018548619244834763 -0.00042170660786662275 0.0
0.003675995573319265 0.0002345170162268139 0.0
0.0003770999748567522 0.00010804116762973757 0.0
0.003550398767883373 -0.0001811635153230611 0.0
0.003876224296073229 -0.00041225673982732316 0.0
0.0006807535448819409 0.00023428472431007185 0.0
0.0006858959613498097 -1.284127803654668e-5 0.0
0.0010024939625075434 -5.744444949223576e-5 0.0
0.0007743376018288283 -0.0005149235614565165 0.0
0.0017031487910188605 -0.00043436967739812223 0.0
0.0013174733635472036 -0.00036803947329779556 0.0
0.001410023607229575 -0.0003655437423816529 0.0
0.0014693748462421613 -0.0004020152725646356 0.0
0.002389346839715309 -0.0010869790942176476 0.0
0.0024463493924688985 -0.0011150107645007902 0.0
0.0024443553672560325 -0.0011707506712828831 0.0
0.0025030531409667833 -0.0010425616885711751 0.0
0.0038466737438346958 -0.0006966588820605569 0.0
0.0017660255308126584 -0.0002675621890380644 0.0
0.003595048825180921 -0.0004324569548755272 0.0
0.0016927178448373785 -0.0008929528648482227 0.0
0.002617773904234616 -0.000992914984474316 0.0
0.0018001928128259686 -0.00105954678403576 0.0
0.004500907399603372 -3.4144553498348727e-6 0.0
0.00241615026761797 -0.00045583709221714647 0.0
0.0005605918866420019 -0.0002483950923514962 0.0
0.0018347272143126696 -0.0007244509387272543 0.0
0.0018956749845195594 -0.0007552635484860674 0.0
0.0017093816130150233 -0.0006632458354293087 0.0
0.0018532955697101439 -0.000947591518758424 0.0
0.0029166975403905125 -0.0006164902132120001 0.0
0.002845398570910906 -0.0006416468147723964 0.0
0.002909961594230887 -0.0006582799101735143 0.0
0.003509434938818612 -0.0001523074395131921 0.0
0.0022026613300655386 -0.0007255765901904185 0.0
0.0015807577909077517 -0.0006016909417265346 0.0
0.002802118095807735 -0.00026078802400080636 0.0
0.002788559703313211 -0.0002890880909678049 0.0
0.0006030624512133129 -0.00041733659069437696 0.0
0.0012889280900334242 -0.0008340579666579009 0.0
0.0033278858584236738 -0.0009067696124492441 0.0
0.002766406646486107 -6.425059210683192e-5 0.0
0.002575565333100297 -0.0007829839801501071 0.0
0.0025108185810000065 -0.0008048053597823758 0.0
0.0025081934609127465 -0.0008511287020464459 0.0
0.002446427314873497 -0.0008255061932683116 0.0
0.0024452152985215687 -0.0008722301741967112 0.0
0.002568653863747797 -0.0008747422231588595 0.0
0.002985523351158373 3.6601963581497985e-6 0.0
0.002013084397570368 -0.0006128037886518705 0.0
0.0019523815540841392 -0.0006255787233289009 0.0
0.002785672807735053 -0.0005845641204520049 0.0
0.001646052128387646 -0.0006714201251715011 0.0
0.002760387828354929 -0.0011082650701624607 0.0
0.0020777419534858867 -0.0007564995452746608 0.0
0.0024493425932965297 -0.000780731040396192 0.0
0.003496665106582926 -0.0009471318102447405 0.0
0.0022142142946311133 -0.00046654514744825506 0.0
0.004626352484305455 -0.00012142386083518447 0.0
0.00245741156245686 -0.0006551495838681974 0.0
0.0010933720188827747 -0.00048255744080413505 0.0
0.0020952733313140417 0.00023529483479097993 0.0
0.0034728238437462416 -0.0007798276701661374 0.0
0.0044255474227786334 0.00010679845244415665 0.0
0.0007124233430719309 5.0416957713457286e-5 0.0
0.0007371447372707299 8.05767028898847e-5 0.0
0.0008202668906276007 3.633521731841094e-5 0.0
0.000865236293458335 7.239195016392136e-5 0.0
0.0009475570813681901 4.922891038379226e-5 0.0
0.003480112795639758 -0.00021986009896059907 0.0
0.0020112882774211195 -0.0010990160767053595 0.0
0.0022820339389088666 -0.00045330628701863314 0.0
0.0001396717442448549 -4.368548387225952e-5 0.0
0.0015414779598922031 0.00026071523689250487 0.0
0.001433952319142679 0.00027716310593389715 0.0
0.0032884080406194757 0.00012643552262732167 0.0
0.001959079173664587 -0.0009194746599012033 0.0
0.002236958177199056 -0.0010541181618050131 0.0
0.0019351755271290168 -0.0003064940381395653 0.0
0.002720261325802024 -0.0005681997864172828 0.0
0.0026490613868406588 -0.0005494788245010794 0.0
0.002659099779313807 -0.0005111832911394673 0.0
0.0027858521228071656 8.988662009436647e-5 0.0
0.0018417966451761498 -0.0007679584726520949 0.0
0.0012425227791457466 -0.0003350275103329426 0.0
0.0018840991253357548 -0.0005581063277656017 0.0
0.0002361570060123485 -0.00017349671261245896 0.0
0.00257868863248726 -0.0002500245057807265 0.0
0.0010237480103401065 -0.0007379128804714701 0.0
0.002594459029821528 -0.0005771814003641358 0.0
0.0015459553880606334 -0.0009288126863155569 0.0
0.003457039459599317 -0.0003818792310849802 0.0
0.002338459557600788 -0.0005755445094000764 0.0
0.002383377701862482 -0.0008451286403812281 0.0
0.004329671967551635 -0.00033103454177519113 0.0
0.0008970618149833799 -0.0007419694879761669 0.0
0.004693646626883027 -0.00023191746995898725 0.0
0.0019399695003337923 -0.0004351198229004589 0.0
0.002332143249922401 -0.0006517206908150983 0.0
0.00041360763155472337 -0.0001727149421238017 0.0
0.004314359151817241 -0.00024270834481574256 0.0
0.0027443777748078144 -0.0008927096199612466 0.0
0.0001382304509626144 -5.309532476483116e-5 0.0
0.0024980112356134936 -0.00035321779471248117 0.0
0.0024958093169809535 -0.00037839701754618465 0.0
0.004593012290816561 -7.255124839444637e-5 0.0
0.0027101699871391284 -0.0011389255063785305 0.0
0.0008366904757426819 -0.0005595738392277144 0.0
0.004744607939625475 -0.0001214280675541119 0.0
0.0025910451772043356 -0.0004963158139932774 0.0
0.002404455480282116 -0.0005596276652730779 0.0
0.0030188270326313416 -0.0007810886419179626 0.0
0.0029552669124637836 -0.0007651199218987212 0.0
0.002761462431816697 -0.0008001612130644011 0.0
0.0022794436440839332 -0.00048621403263166154 0.0
0.0028210269209899518 -0.0011577947118765666 0.0
0.0030428548138447743 -0.0011206809121808911 0.0
0.0021504947645753915 -0.001163389612851547 0.0
0.002320054742400254 -0.0011780504385508041 0.0
0.0033689108801196457 -0.0010301226584803432 0.0
0.0033529937739280014 -0.0009822386100843048 0.0
0.0017075047674167257 -0.0010804168177118829 0.0
0.0013366759839907537 -0.0009788094977830973 0.0
0.0029306076891156517 -0.0011417108352507308 0.0
0.0018229775780267837 -0.0011113747608213285 0.0
0.0020573539870176044 -0.0003806157804169159 0.0
0.004211628316952309 -0.00015410334025543488 0.0
0.003492287704421541 -0.0005930295680847241 0.0
0.003471726861777263 -0.0006365873586565091 0.0
0.0017662347931946061 -0.00057568990293632 0.0
0.0030018978975315733 -0.0005146246334029022 0.0
0.0023891070904060925 -0.0009351935837944958 0.0
0.001215675052941761 -0.000770110885937367 0.0
0.0009068185965166271 -0.000442762642224965 0.0
0.0020770599865791925 -0.0005620276792506045 0.0
0.004299458474808697 3.311804315737196e-5 0.0
0.0016437632504927588 4.9900000277097776e-5 0.0
0.0023505162956604358 -0.0004394344567150696 0.0
0.0027818176737751934 -0.000626732366248118 0.0
0.00031213248348907995 -0.00031750445370625483 0.0
0.000323776594761305 -0.00035114944683705437 0.0
0.0020766318586947097 -0.0008439957065153479 0.0
0.0017378329931515208 -0.0007928975772326319 0.0
0.0025214214513118826 -0.0006757389099372875 0.0
0.004557121205498261 8.49186002301668e-5 0.0
0.00267104001556494 -0.001015533481586736 0.0
0.004818816529926404 -8.385172062404359e-5 0.0
0.004791146724194023 -0.00012006692593001425 0.0
0.0013460668851974532 -0.0002173372143538903 0.0
0.002142150813364444 -0.0006217401590116839 0.0
0.00226451036271504 -0.000750743007338028 0.0
0.004676376483687536 1.6856460699549018e-5 0.0
0.002280888982991362 7.231374860499409e-5 0.0
0.003309395803499991 -0.0007930469553980701 0.0
0.003404031816720092 -0.0006703450172926332 0.0
0.0013127343278419412 -0.0009291929916053869 0.0
0.0031194126952548223 -0.0006187808620737213 0.0
0.0021428526591091186 -0.0005482784407619916 0.0
0.003265846879962577 -0.0005603633848729459 0.0
0.0032537184595958207 -0.000601922621179132 0.0
0.003339243776621139 -0.0005305715514938471 0.0
0.0010887018021467057 -0.0008770824506115906 0.0
0.0038481231493200513 -1.4879116933727615e-5 0.0
0.00285830581365266 -0.001103293533478645 0.0
0.004071540549824704 -0.0006810792738623282 0.0
0.003669226754222152 -0.00043707638138158067 0.0
0.002373672816305752 -0.0003271797285232313 0.0
0.003054911184064064 -0.000948296557495382 0.0
0.0019002546899947576 -0.0007984965133143644 0.0
0.0019955543977786374 -0.000467223444497452 0.0
0.004538418226998114 -5.5817870934794476e-5 0.0
0.0010428527400681649 -0.00030765271625741563 0.0
0.003514082270619059 -0.000248046656736805 0.0
0.0023367066644736415 -0.00020767123089755394 0.0
0.003068646394171103 -0.0005260194721498605 0.0
0.004359521658953968 -0.00015298472774630614 0.0
0.00036318882022897975 -0.00018435378398967632 0.0
0.003572262786144498 -0.000650352745723759 0.0
0.002661936856743703 -2.9574729643090788e-5 0.0
0.0026371662103160222 -5.443630657318021e-5 0.0
0.002953997784662767 -0.0009173709011493784 0.0
0.0027117974911218166 -0.000693143628691782 0.0
0.002796229068701819 -0.0009124039819282993 0.0
0.003641687532920001 -0.0007597175489224312 0.0
0.0035950826923867 -6.43107092758904e-5 0.0
0.0023052754147062 4.62811903833934e-5 0.0
0.0032641628323330798 0.00024193202846211416 0.0
0.004252837895200701 -0.0004156392815007061 0.0
0.004267757971700595 -0.00037782811810007776 0.0
0.0023263564443644297 -0.00011242349002034023 0.0
0.0015752639301507272 -0.0007795451600291508 0.0
0.0031926532389553695 0.00022573260701166204 0.0
0.002317964645064952 -1.1699402925749662e-6 0.0
0.003107851831432831 -0.0006611826947886813 0.0
0.004755037470669698 -0.0001296998384407814 0.0
0.00078992343502473 -0.0006006714657329367 0.0
0.002982563838674513 -0.00031532063595968943 0.0
0.0023281959733856437 -5.609772507897819e-5 0.0
0.002324077532870947 -9.516487700835872e-5 0.0
0.0008164142688990131 -1.766446323768303e-6 0.0
0.004277956971974249 0.0001705933957703632 0.0
0.0025186562454837247 -0.00021800750189821468 0.0
0.004385980088126034 -0.0003182301310095974 0.0
0.0015162030410076674 -0.0007448207626212139 0.0
0.0037906077555536545 -0.0008594516148231591 0.0
0.003888882549877775 -0.0008204979487195943 0.0
0.0013700403652239035 -0.000770987810069018 0.0
0.0032248898036880327 -0.0006856601429359585 0.0
0.0020947817402711317 -0.0011573255365719933 0.0
0.0030585231914124268 -0.00018894309656696545 0.0
0.0008565727074689659 -0.0007652194160790418 0.0
0.0025407228457308504 -8.596260135948187e-5 0.0
0.002648261798413788 -0.00029272981509172245 0.0
0.0025905354329015837 -0.0001201919742316517 0.0
0.002841238908151743 -0.0006851742036539746 0.0
0.0034559690128843456 -0.00067921834018905 0.0
0.00011115999635024045 -0.0001394595807031911 0.0
0.00019223858295739577 -0.00023400526144984544 0.0
0.0002310636908564445 -0.00027658852119666127 0.0
0.004562952396308736 -0.0003634178863330943 0.0
0.00031245856220759704 -0.000362210074740887 0.0
0.0014062875446175331 -0.0007160177627412594 0.0
0.0006231234803575376 8.420618916668915e-5 0.0
0.004120866734178523 -0.000694547575267173 0.0
0.0007202592968515127 -0.0006813425254911414 0.0
0.0008122959989447098 -0.0007395448675329861 0.0
0.0045199690207439296 -0.00040044461070337244 0.0
0.004433984088849633 -0.00047541930410288267 0.0
0.0026286011206300927 -0.0003741196869784611 0.0
0.001904777015088891 -0.0009821187183412336 0.0
0.003579591036078757 -0.00010851050042820972 0.0
0.004211948386452202 -0.0006343753046641724 0.0
0.004257416931215715 -0.0006050854482935211 0.0
0.000632125128618049 -0.0006269186857403689 0.0
0.0004331867186340453 -0.00046983398910579614 0.0
0.004347404153640542 -0.0005408321902219634 0.0
0.004381366661984939 -0.00047930059893339354 0.0
0.0029640583860578817 -0.0010875798803451472 0.0
0.0005171479074743432 -0.0005404244611230133 0.0
0.0036265731040804167 -0.0009415312070941814 0.0
0.0009035659884262284 -0.0006065826920006274 0.0
0.004073178777506137 -0.0005108606200125774 0.0
0.001397026879524708 -0.0009562229336261566 0.0
0.0038093427391348677 -0.0006852808836359418 0.0
0.00382881351299792 -9.194213531687131e-5 0.0
0.0013812747749528764 -0.0005071971089635731 0.0
0.000918957285641215 -0.00048179353909460815 0.0
0.0017940889469294837 -0.0008252265742511787 0.0
0.002393763220919426 -0.0006740793363911949 0.0
0.0040630988205983985 -0.00029142050553246666 0.0
0.0025580289704128026 -0.0010681877377521599 0.0
0.002584704134715819 -0.00022789623297677145 0.0
0.0025558249690291507 -4.782771253801468e-5 0.0
0.003287485482930291 -0.0004811638333560037 0.0
0.003806437474214823 -0.0005840479545805221 0.0
0.001315112972490092 9.217234621821904e-5 0.0
0.003087014445098487 0.00017778705527364707 0.0
0.0015066905675917017 -0.0004953579714217294 0.0
0.004119341562630663 -0.00042557072019732924 0.0
0.0009436524867660457 0.00015092866514371952 0.0
0.0008052408299434264 0.00011476174053482225 0.0
0.002077889607044485 -0.00013945570028740733 0.0
0.0042634750798543975 -0.0001885284189885201 0.0
0.0022488592564853245 0.00014069831011940002 0.0
0.002509239049642219 -0.0002800128387952171 0.0
0.004511851960782849 -0.00018356903163219856 0.0
0.001263385385120154 -0.0005160053597319384 0.0
0.0015580576815396932 -0.0003104665259475934 0.0
0.0035325087881921116 -0.00047107871350019284 0.0
0.00391864526980209 -0.0005475745354725821 0.0
0.001091847003471242 -0.0005225273744200781 0.0
0.000625458031858162 -0.0004611438935057591 0.0
0.003757955416725904 -0.0005791053259067541 0.0
0.0015841997915352914 -0.00019202406812049316 0.0
0.0037019214537751376 -0.00032225032335429343 0.0
0.004828139188230659 -6.817469668429045e-5 0.0
0.004019472718975386 -0.00014093648773431204 0.0
0.002596128711915253 3.692788791756662e-5 0.0
0.002684390691226846 2.9950104337395728e-5 0.0
0.0030451269059080487 -0.0003879623508108253 0.0
0.004406091640766587 -3.7197326832977596e-5 0.0
0.004331728251812205 7.53283803080352e-6 0.0
0.00018530568359734098 -0.00015998685618378206 0.0
0.00013686456309973974 -0.00011784392723503812 0.0
0.001957931657070766 -0.0009663045226111043 0.0
0.0031798853295159266 -0.0006315769853582223 0.0
0.0017750387246614604 -0.0003284666027867437 0.0
0.00177204993866727 -0.0002982393009166355 0.0
0.0017340911789024006 -0.0001158269456212251 0.0
0.0025073958031338545 -0.0008981197342070681 0.0
0.0029085714036901043 -0.00033808069150878105 0.0
0.0007698414803744022 -0.00013635913551946928 0.0
0.003409550085105777 -0.00025803332083573104 0.0
0.00263197605028683 9.338993194066863e-5 0.0
0.0020770372228067204 -0.0005987670605227098 0.0
8.290781936411827e-5 -1.0407544130379987e-5 0.0
0.002396342626656569 -0.0006342007678633657 0.0
0.004489992422105257 -0.00021236259730898592 0.0
0.003841808182918004 -0.00032930648006993706 0.0
0.0036417273116023203 -0.00023939844445122383 0.0
0.004305940107340128 -0.000273434375658868 0.0
0.003142602378718244 -0.00027013831749615486 0.0
0.0016973299398556467 -2.4791346848616252e-5 0.0
0.0005543618523256482 -0.00021869897558238958 0.0
0.0021334451861756533 -0.00029231247582338674 0.0
0.0026895051692774714 -0.00038780811467830327 0.0
0.0006912737823296539 -0.0003926623574668719 0.0
0.002263784459226041 -0.0011746274338789065 0.0
0.003040367470753217 -0.0002668352600005921 0.0
0.0014653895028553003 -0.0007533149668091656 0.0
0.0032916728466326323 0.00022134661641853585 0.0
0.004128350604170594 -0.00028978145738006695 0.0
0.001572175774771807 -0.00016015896740686182 0.0
0.003617983485437489 0.00022792613312251045 0.0
0.0027770264337268666 -0.00031700405008924836 0.0
0.002399250241736354 -0.000595919557624589 0.0
0.0008654188784711882 -0.00016739603109655997 0.0
0.0016302827646513844 -0.0003423907868234214 0.0
0.0020660983936321943 0.0002259983429149302 0.0
0.0006429994596306468 0.00010967572369952386 0.0
0.003655384879501493 -0.00047888019183409965 0.0
0.0009538794768831809 -0.00037023183829818743 0.0
0.0024654512489269004 -0.0005793459078750089 0.0
0.004059821718828242 0.00010359455043116729 0.0
0.003469574695688013 -0.00046484574710260946 0.0
0.0015918952894518705 0.00016204211861737739 0.0
0.00028852473486978077 -8.474465480572176e-5 0.0
0.0012399199867162828 -0.00029918292808880556 0.0
0.00010980314256981916 1.0789193011711915e-5 0.0
0.00022973324471841673 4.7116395357371955e-6 0.0
0.0034482657181539125 -0.00042747192968016007 0.0
0.0028494761825269255 -4.15103519677154e-5 0.0
0.0015956662533541212 -0.0010632225506683815 0.0
0.0011101199383294733 -0.0006914803002546828 0.0
0.0040218284608201735 -0.00022343141786572725 0.0
0.0005353236664265549 -0.0005260991917748975 0.0
0.003346926070574658 -0.0004921404939108316 0.0
0.002804513306491383 -0.0008666492153717477 0.0
0.003991298860887522 0.00015973601528092163 0.0
0.0014310210779194799 -0.0008984084299481412 0.0
0.004368153450956826 -0.000433615481391137 0.0
0.0025120336973498787 -0.0002594369317976841 0.0
0.0007810953115496474 -0.0006845246009944526 0.0
0.0034108044314348314 -0.000977968990220973 0.0
0.0008016207692122623 -0.00043983951986059725 0.0
0.004609168529598582 -0.00019948382089885047 0.0
0.0005695189116692372 -0.0003100549975911338 0.0
0.0034121760414634198 8.560062409406099e-7 0.0
0.003147083718449213 -0.00023862899454298126 0.0
0.002558291894088485 -7.754603007579783e-6 0.0
0.00011191775323470632 1.6628409701138176e-5 0.0
0.001834047265605181 0.0002537708266883631 0.0
0.0013252503660259498 -0.00018003146082048722 0.0
0.003926836049437144 -0.0007610904691225845 0.0
0.003980527111902028 -0.0007785086215720464 0.0
0.0003665627298999468 -1.3700073274800364e-5 0.0
0.002853787619241732 -0.0003002040143945818 0.0
0.0011601444473672096 -0.0006909512256159519 0.0
0.0020171947374495246 -0.0006504299195567923 0.0
0.00011392330943570095 -0.00011215390677502641 0.0
0.0002699767620734895 -4.879965197669923e-5 0.0
0.0027453898307734435 -0.00043054965651738973 0.0
0.0025315882877255955 -0.0005609221918092314 0.0
0.00017600935681916558 -2.761337639627772e-5 0.0
0.0004723504855991313 -0.00017946340041007132 0.0
0.00035230261019469797 -0.0003993533890854335 0.0
0.0040953124463692986 -0.0004664730231040491 0.0
0.0032381959280036654 -0.0006434312117735407 0.0
0.0005648131438350304 -0.0004173932049151521 0.0
0.0037766763222767093 -6.619359172850697e-5 0.0
0.0034776672032269047 -9.003623626293285e-5 0.0
0.00024741747229747396 -0.00027816932215630655 0.0
0.0020204578959175682 -0.00019329820060654096 0.0
2.9789003975041747e-5 -3.855038480383125e-5 0.0
0.004869164720037666 -3.756440418827507e-5 0.0
0.004736605912705682 -8.63205931969597e-5 0.0
0.0014435177175173945 -0.00101837356855983 0.0
0.0037891112683792728 3.861703151942482e-5 0.0
0.003253754090024218 -0.0007815841407371102 0.0
0.000632867941585547 -0.0003195705390733349 0.0
0.003096986769204163 -0.0011080005315045353 0.0
0.00068885360636686 -0.00016899271995967366 0.0
0.0042499855526509315 -0.00021931491895686738 0.0
0.0019534043045040545 -0.0006624920689313474 0.0
0.000173636330251489 -0.00013917991061249027 0.0
0.002248489186718538 -6.36987206587958e-5 0.0
0.00224783358562916 -8.4381169240261e-5 0.0
0.004453155670053757 8.881263731910454e-5 0.0
0.002778404789696022 -0.0006680010324486137 0.0
0.00035040423539669147 1.9672796368392828e-5 0.0
0.004330288202048383 -0.0005242158609534284 0.0
0.004501123152576785 -0.00013990616003285302 0.0
0.003451082313476654 7.748173213809699e-5 0.0
0.0035385813826950274 3.866876832355921e-5 0.0
0.002116233555866076 -0.0010137703313914783 0.0
0.004778409939268669 -0.00014596004253754694 0.0
0.002078361103190201 -0.00016225399956805754 0.0
0.00041950111434407356 0.00013915278897569592 0.0
0.0005503916439153221 -0.0004548731490028043 0.0
0.0014232605577210891 0.0002016797095102622 0.0
0.004332602343205066 -0.00043673704875096846 0.0
0.0002457234686064497 4.208381798109465e-5 0.0
0.0025828258450357076 -0.0002069167130777837 0.0
0.003855791688349414 -0.0002892588826798273 0.0
0.0031125396471078292 -0.00040163286131179307 0.0
0.004799713303138578 -6.452125809345438e-5 0.0
0.00010563741165519164 -6.0098833196034715e-5 0.0
0.004513424451696062 -3.459990838494093e-5 0.0
0.0048139949771864666 -6.33220060349299e-5 0.0
0.002391163540293399 -0.001133259095276777 0.0
0.002823827285928343 -0.000414104550494941 0.0
0.0015547538768470718 0.0002619415997071908 0.0
0.0011530407883064352 -0.0005193349398312513 0.0
0.0015308249127263846 -0.0002681713537994269 0.0
0.0020099668539801017 -0.00021585228062141913 0.0
0.0009598414443261165 0.00012600524219046004 0.0
0.0017885200824156314 -0.000779437691261067 0.0
0.0008790484662375111 -0.00013119277331554138 0.0
0.0005617973882106684 0.00013613405618353997 0.0
0.0022953078454290873 -0.00036670765861173554 0.0
0.003521536690940775 -0.0006440866981493502 0.0
0.0041617794432546856 -0.0004267369628613755 0.0
0.0016172810445945077 -3.114070054622253e-5 0.0
0.0010651190413020224 0.00022124928362504527 0.0
0.0026637460107196767 0.00013117321886966976 0.0
0.0014124661952416113 -0.00017414709213663213 0.0
0.003943907020060215 -0.000438103967553913 0.0
0.0013093353341372767 0.00026011492166600543 0.0
0.0011760139547951972 0.00025530274691368347 0.0
0.0027192708982354524 -0.0006095941461475633 0.0
0.0027352989758500246 0.00021164980547340028 0.0
0.0019246467515250936 -0.0011327843159500085 0.0
0.0037319575553557915 -0.0008963018928681651 0.0
0.0013160503052069288 -0.0004760766777487442 0.0
0.0034743055932939986 -0.0010002212426387478 0.0
0.0010526138413832612 -0.00017095042200870764 0.0
0.004014020632168157 -0.00043034936873107037 0.0
0.0018891014306634088 -0.0006360923116909195 0.0
0.004245318691712581 -0.0002830506647916891 0.0
0.0011574290799357162 -0.0004835408667112588 0.0
0.0019180417105803904 0.00024997735285327174 0.0
0.001725334055148076 -8.578738506862878e-5 0.0
0.0022077738479500965 -0.0008507782968005153 0.0
0.0023311276709452253 -0.0002677307187474884 0.0
0.0022472314272398777 -0.00010380453411566136 0.0
0.001345267926961784 -0.0006762298456579247 0.0
0.0013606346545680618 -0.0007247978868212623 0.0
0.000873284420068379 -0.00033310290712700865 0.0
0.0011226426697223014 0.00035140304870494407 0.0
0.002287391293836005 -0.0009887343229973953 0.0
0.00427610361468276 9.68444162952163e-5 0.0
0.0038726865823001722 -0.0005442805524283632 0.0
0.0026940008308041895 5.891452728050413e-5 0.0
0.0012570747521436162 -0.0004807756373539137 0.0
0.003382429976063269 -0.000374259456179708 0.0
0.0028685540096944338 -0.0008393926256843505 0.0
0.001885897134739627 -0.0005961527671073432 0.0
0.004558590747424407 -0.00017393817038076356 0.0
0.004774537425739532 -0.00010559679724644822 0.0
0.001697399597109869 -0.0003077612587224831 0.0
0.003294221657961382 -0.0010150049039541267 0.0
0.004428947717135344 -0.00045138106949104426 0.0
0.00021474248678692007 -5.985682569335349e-5 0.0
0.0011654425041338836 -0.00030415902276871224 0.0
0.001380091727972753 -0.00047189591957871944 0.0
0.004504940358092832 -0.000389785403818962 0.0
0.0017807652696906848 -0.0007331157750368707 0.0
0.0030901136672879257 0.00021982489781959718 0.0
0.0004517125207813025 -0.0004608996551178194 0.0
0.0028563572968620657 -0.0004948054611582549 0.0
0.004141937264787879 -0.00038724478651993655 0.0
0.0033071073426853997 -0.0006123696460316216 0.0
0.004635443964802354 -0.00016785817572541965 0.0
0.0033648047243852934 -0.0009249308094292697 0.0
8.496730232672357e-5 -5.12831968997015e-6 0.0
0.00218292282894859 -0.0003525903479349538 0.0
7.835926475784394e-5 -6.352774593322378e-5 0.0
0.0015103475398470783 0.00014012132027544838 0.0
0.0010179860127675067 -2.6865756375836422e-5 0.0
6.780197290181084e-5 -8.079024731163178e-5 0.0
0.001238847568066449 -0.0009489574046370432 0.0
0.0011444078398164328 -0.0008681546774337817 0.0
0.002081993491441556 -0.00011924435085853668 0.0
0.0020740096929182947 3.095489673963264e-5 0.0
0.000827457609228814 -0.0007137697022267154 0.0
0.001492073788379707 -0.00016818152402099803 0.0
0.0029086051660739886 -0.00031403326017051715 0.0
0.000850994047806462 -0.0004407062857039371 0.0
0.003236935112594567 0.0002448722507322699 0.0
0.0029378059105522264 -0.000810470407674002 0.0
0.0006232260296314017 -0.00017210754379276492 0.0
0.00034832145604133763 -0.0003334782626867623 0.0
0.0025185348058609186 -0.00017836772389100646 0.0
0.00015966781743281244 -0.0001864811703223828 0.0
0.004680730247519798 -5.6686197730613796e-5 0.0
0.0016306830642590245 8.758411449371694e-5 0.0
0.002308772966446293 -0.0003367629338099658 0.0
0.004277504468575429 -0.00048236249843882603 0.0
0.0046431711053655025 -0.00028794868790179103 0.0
0.003870175211986385 -0.0002492949803746106 0.0
0.002280705970589812 -0.0009415949785456755 0.0
0.00296617545140231 -0.00046807850260264356 0.0
0.004190148796538664 -0.0006184263534344277 0.0
0.0024944475234021882 -0.0011872065512518787 0.0
0.004086522690262261 -0.00039105635109306253 0.0
0.0033199392229082943 -0.0005715984796283596 0.0
0.001718850574462923 -0.0007019165945548095 0.0
0.0029232355007440865 0.0002266741372761806 0.0
0.0018175032436225562 -0.0005639396684736343 0.0
0.0015105320752090237 -0.0009423934927761363 0.0
0.0022683409928427527 -0.00027499173493476044 0.0
0.0038478132770463054 -0.0008004477933275946 0.0
0.0008650832408934486 -0.0003002761245930729 0.0
0.0006876398140867994 -0.0006332754259616575 0.0
0.0035376183832783506 0.00011063547335371869 0.0
0.001099317093564984 -0.00034070869832075593 0.0
0.0028379603301412993 0.00021401565068661474 0.0
0.0014038193839202347 0.0005056028233396612 0.0
0.0036196344136405064 0.00034831865266474687 0.0
0.004233141500217372 -0.0002536885756274943 0.0
0.0023429696132791365 -3.921846669351279e-5 0.0
0.0037826151247621676 -0.00028909331593920934 0.0
0.003011094132718752 -0.0008825914745878375 0.0
0.0031971482860769875 -0.001088057321381281 0.0
0.0014456894554090566 -0.00046488335161619 0.0
0.0014065374065121924 0.00026724907079621606 0.0
0.0009508100674400866 -0.0003043152714359371 0.0
0.0010453667734056705 -0.0008686177761763779 0.0
0.002144468938269069 -0.00039136214810357435 0.0
0.00010788699075145628 -5.43421785361222e-5 0.0
0.0007988342896786824 -0.0006546059898794321 0.0
0.0023385094122340337 -0.00014563714425801016 0.0
0.0002701860180041282 -0.00020698126059384833 0.0
0.0002811286867415605 -5.566688770286653e-6 0.0
0.002583557443865224 -0.0005463078559058884 0.0
0.0025841631566643573 -0.00018755920758681914 0.0
0.00458988565345814 -0.000317236602203632 0.0
0.0020066462933663706 -0.00017103809523233703 0.0
0.00354213221395198 -0.0006009977364843823 0.0
0.0026062567570631825 -9.369936209450249e-5 0.0
0.000653713384778902 0.00012766770871618712 0.0
0.0008665048491638982 9.959488838740308e-5 0.0
0.004702260252258794 -0.00012421858040173478 0.0
0.0030079895075555236 0.00022305931014988847 0.0
0.0006991300282026083 -0.00032681942184867644 0.0
0.0029759322825685993 -0.00020019988787008415 0.0
0.0022356055869293956 -1.2998011706828656e-5 0.0
0.002562290278069162 -0.0002689848762825729 0.0
0.0007847119326989768 0.0002312859034220434 0.0
0.0026019832783758614 -0.0011889905582071134 0.0
0.004462216020073657 -7.613768936765452e-5 0.0
0.0025391514357037525 -0.000453418246850751 0.0
0.0025155995434739437 -0.00012233798507045132 0.0
0.0032019754688663044 -0.0003420741783748083 0.0
0.0021665688444989996 -0.00011283853357522599 0.0
0.0025502591214312236 -0.00041974763093618285 0.0
0.0012175136208695122 -0.000737254217145349 0.0
0.0033907866031362417 -0.0005404899244164902 0.0
0.0020094888054745137 -0.00031050308333258086 0.0
0.0025142647782706623 -0.00016019003563041157 0.0
0.004021564729912865 -0.0007605023519548947 0.0
0.002145016114381868 -0.0002679469506432018 0.0
0.0030017343981544402 -0.00014680120788399027 0.0
0.002618617378758892 -7.505351404301436e-5 0.0
0.0003655319185008798 -0.00039231756670883106 0.0
0.003890398776232611 -0.0005096258501968616 0.0
0.002600188255135281 -0.00014343746343924914 0.0
0.0014270155252722166 -0.0009405540521677613 0.0
0.0028343291877964104 0.00022558525894619043 0.0
0.0035798148618442715 -0.0009674611709704416 0.0
0.004709294502431742 0.00010468800662132775 0.0
0.0001996548701267961 0.00011527711279357458 0.0
0.002091194788089202 -0.0004049986200134229 0.0
0.00280124644978114 -0.001122521070644993 0.0
0.0017462360963011179 -0.001057566055161062 0.0
0.0019915725756803736 -0.001145510714701786 0.0
0.00036145544250515014 -0.00016566198569370455 0.0
0.003605115209063872 -0.0005732605467879395 0.0
0.0014530077530261563 -0.00042911259259849615 0.0
0.00207153607618525 -0.0002779562239606435 0.0
0.0016261123352990126 -6.0150331482370997e-5 0.0
0.0020649088962808324 -0.001119243362062044 0.0
0.003547277072103726 0.0002409679092253144 0.0
0.004507569947049375 0.00010311373666391863 0.0
0.003011010046480516 -0.0008462317598757113 0.0
0.002531674278944995 -0.0004902598088826117 0.0
0.0016150938425430164 -0.0006946243706607621 0.0
0.0027109133629272825 -0.00118319623098181 0.0
0.0037528598712378075 -0.0004909649199762637 0.0
0.00031384124865051964 -0.00020575880382690592 0.0
0.004402739368605211 -0.00015956119394095318 0.0
0.0021802113023721374 -0.0011303958361970077 0.0
0.0022363985855508106 -0.0010118628327126036 0.0
0.003423372611192937 -0.0008828604695944838 0.0
0.004836775274475367 -7.01492279896337e-5 0.0
0.001851892163051471 -0.001082142465797579 0.0
0.0015311366957436315 -3.480001336374435e-5 0.0
0.0016372499699383453 -0.0003168752673937033 0.0
0.0031826810915958357 -0.00038078687524627117 0.0
0.00470791279001434 -6.22337312427008e-5 0.0
0.00038058318968805827 -0.0003478523663407984 0.0
0.0025583282419782117 -0.0003905405801646014 0.0
0.004392072644493627 -0.0004376066501991294 0.0
0.004686675730893784 6.13329668306693e-6 0.0
0.0013794109186688287 -0.00025518076469157317 0.0
0.0022327158978561828 -0.0011406379142144868 0.0
0.004573219512407312 -0.0001522406249008577 0.0
0.000830044578566201 -0.0006147339896405828 0.0
0.004774007109379633 -4.349459008650067e-5 0.0
0.001549316498782991 -0.0010585277349406544 0.0
0.0034034881119109745 -0.0005000144246948036 0.0
0.0009177306130530722 1.7990171529934627e-5 0.0
0.00307665200122302 -0.00015212763834562517 0.0
0.0047405836603538806 -0.00017233436162469686 0.0
0.0038204473139380624 -0.00045847387470600445 0.0
0.001356323593446791 -0.0009551917691964549 0.0
0.0009516761335152857 -0.0008241467666128467 0.0
0.001218046923670249 -0.0006701729155312411 0.0
0.00411268311516519 -0.0006674555292896786 0.0
0.003713494392915045 -0.0002913151264350995 0.0
0.0007609690412439815 -0.00033697518344834174 0.0
0.0019773137299576174 -0.0003872382320770816 0.0
0.0031781302671693187 -0.0004204328722834094 0.0
0.0019101471401792084 -0.00045924154864823854 0.0
0.0046025663460378145 4.461852366991076e-5 0.0
0.0033903083051210706 -0.0002284725352817008 0.0
0.0019985402153576428 -0.0002878987385739263 0.0
0.0007826109958978957 -0.0002958182332686135 0.0
0.0036374950991533857 -0.0005128293403940296 0.0
0.0030604827814962594 -0.0010321240109172922 0.0
0.0042887937658163625 -0.0005594919864964152 0.0
0.0016627864625627727 -0.0010400518712249391 0.0
0.003145845618621302 0.0001613795074483218 0.0
0.0018219302342257588 -0.0005250694218934738 0.0
0.0029074285001720896 -0.0011095440378733547 0.0
0.004240752501407082 -0.0004869314326342144 0.0
0.0036764380776097352 -7.635762699041723e-5 0.0
0.0046030215520724135 -2.1344308690172662e-6 0.0
0.0010664501203715192 0.0002337751697752972 0.0
0.004477764370091317 -2.105746079242871e-5 0.0
0.0015933589451115288 -0.0006354753835520921 0.0
0.00414533061483174 0.00011069481887490787 0.0
0.002915048180865931 -2.2507645548252847e-5 0.0
0.0034130167913332143 -0.000161277137911686 0.0
0.0014949073277166999 -0.0003818859750749353 0.0
0.0034681542987816446 -0.0002763178839800738 0.0
0.0023430013600774322 -0.001145173177496463 0.0
0.001266917191308496 -0.0008959882400341416 0.0
0.0026424797815827864 -0.00019662234470021146 0.0
0.0036635278613512336 5.025972880597406e-5 0.0
0.002195737779763104 -0.0010678621116875981 0.0
7.432961952056243e-5 -5.483605593323106e-5 0.0
0.004734313536392027 -7.943973084901788e-5 0.0
0.004127476203509906 -0.00015839055837690846 0.0
0.0019797052692317484 5.6700566002269226e-5 0.0
0.004796691179919457 -9.255515467935283e-5 0.0
0.001306429434596698 0.00020231147225747737 0.0
0.0022370893839672784 1.2964463567448815e-5 0.0
0.004867098082881913 -4.230710678064213e-5 0.0
3.164890182693973e-5 -4.2586514917047255e-5 0.0
0.00011061276194990992 -0.00010165654288509786 0.0
0.001405169641404572 -0.0001469547304436835 0.0
0.003013180061657032 -0.00048251201356031725 0.0
0.0034143745907176115 0.00012405133476260324 0.0
0.003852088732379973 -0.0007611398195882669 0.0
0.0047505464789138275 -9.539057323943986e-5 0.0
0.0003496813497194813 -0.00023562183049592603 0.0
0.0010148913939921104 2.9479998420413043e-5 0.0
0.0030806532565995108 -0.0009823876019682768 0.0
0.00427172293974544 -0.00016361390212782996 0.0
0.0012584846723779272 -0.0006668765197385317 0.0
0.00027202122587432337 5.592183649640081e-5 0.0
0.003045604797921592 -0.00021265182268476553 0.0
0.0014566936716394136 -4.196901785680551e-5 0.0
0.0036270511792353133 0.0002397989643772276 0.0
0.0022833866858012197 -0.00014094264159354928 0.0
0.0018942996462387107 -0.0004886699934258666 0.0
0.004335313993792024 0.00010179314700181924 0.0
0.0044645861764225905 -0.0004298039503268278 0.0
0.003711797831897808 -0.0008717700804742758 0.0
0.001107689970521797 -0.000311765611899106 0.0
0.004525220056755094 -0.0001452518334290138 0.0
0.0007435363731905251 -0.0004054259254197051 0.0
0.004560528882471126 -6.644549998240761e-5 0.0
0.004149764120216309 -0.0006518875692394525 0.0
0.0029478425663821716 0.00012908744202106792 0.0
0.0034542223495730696 -0.0009752443911100207 0.0
0.003574827292950097 0.0002354507429759889 0.0
0.002264343809438731 -0.0002263407093497477 0.0
0.0012553372084411155 -0.0008489032455289117 0.0
0.0016829501857245702 0.00025754742659145216 0.0
0.00011462448190130191 -8.908344030767971e-7 0.0
0.004692095531759291 -9.3545736298652e-5 0.0
0.00048804021653756416 -0.0004971034790644287 0.0
0.003617673575751631 0.00013383542450563334 0.0
0.000865905144008668 -0.0007413469513110126 0.0
0.0034064846525511863 -0.00046736491261975733 0.0
0.0009939370445930997 7.507757903587224e-5 0.0
0.00041407279674653824 -0.00025268357384005335 0.0
0.0005982084127763312 -0.0006097013796619664 0.0
0.0005408959964325901 -0.00042369230808825026 0.0
0.0013903315919618767 0.0003054017818572721 0.0
0.003832826840056862 1.2331466012686996e-5 0.0
5.683594940320653e-5 -6.465150103413253e-5 0.0
0.004095122944583025 -0.0001399116318637453 0.0
0.0036989679761435224 0.0003022614275189435 0.0
0.0030859495316007896 -0.0004594148672351996 0.0
0.0022883997822868473 -0.0001760952460501468 0.0
0.0012863389101165023 -0.00010598897775591641 0.0
0.0023474175233064616 -0.00024714108320098114 0.0
0.003149052571625668 -0.0008979098492037294 0.0
0.0015110464538875198 -0.0004283989875110359 0.0
0.001112068843869575 -0.0008667361532776365 0.0
0.0042183679924638305 -0.0003920675301043395 0.0
0.003217280341946059 0.00024645722751820924 0.0
0.0004913927624929581 0.00011216264228786073 0.0
0.0014237835933954793 0.00013705947437220705 0.0
0.0033078632157150997 -0.00034634481663290047 0.0
0.003137352289585917 -0.001063765188591859 0.0
0.001972142458021354 -0.00041543974793518983 0.0
0.003968967772579393 -0.0007553803864898341 0.0
0.00028630395583747147 -0.0003213602768557718 0.0
0.003476126007332523 -0.0008476381883988739 0.0
0.0016118150206020211 -2.510867538899447e-6 0.0
0.004622834695109094 -0.00029039386001556875 0.0
0.0015419306813309027 0.00010758339356509695 0.0
0.0030264567086187733 -0.00010528327284845691 0.0
0.0026030275115926905 -0.0005230818876084708 0.0
0.0022417984585186273 3.672729639585748e-5 0.0
0.0026923536489998913 -6.419991203545788e-5 0.0
0.003023226421781088 -0.00108305702873498 0.0
0.0038858933990209214 -0.0007881940627233324 0.0
0.0012135658034585005 -0.0004889013112430418 0.0
0.0027614696883881762 0.00016344827798934152 0.0
0.0026957283066761845 8.46891746771044e-5 0.0
0.003868416700863598 -0.0007129591455647463 0.0
0.0022733772383788874 -0.00020608331028742563 0.0
0.002156932916158999 0.00013182729598863762 0.0
0.0012481307756045878 -0.0008048447691322784 0.0
0.004594413900349854 -0.0002951608129189635 0.0
0.0032739416233564887 -0.0010669530889345833 0.0
0.0022014354500614034 -0.0010353812070677437 0.0
0.004725697354425796 2.2392782419163305e-5 0.0
0.0021714216191406283 -0.0009140332115677357 0.0
0.0036115393351416466 0.0002622654664905209 0.0
0.0012982444027342043 -0.0002312587668321783 0.0
0.0032123692042581057 9.734082402243435e-5 0.0
0.0009359988503536634 -8.642481378882347e-6 0.0
0.0020460698412361755 -8.618778288322542e-5 0.0
0.001285671302580967 0.0004049756996511902 0.0
0.004812346324786423 -6.057238521114635e-5 0.0
0.003030789726002029 -0.0008152491314453972 0.0
SCALARS damage float 1
LOOKUP_TABLE damage
0.23981557525912567
0.05224994150886373
0.23605484995840856
0.08312440176893063
0.9623240230104605
0.9601128140439039
0.00820998339654445
0.38237901841120575
0.37313506876602764
0.3711279303792995
0.38649710837237816
0.400850234324778
0.42319184928287595
0.44525588263565413
0.4611367188579224
0.4773512026965596
0.4764618692953647
0.47535561329229287
0.4666042814305698
0.44948814506197826
0.43233492936767975
0.4194747948005054
0.3981625526978107
0.37288447796158447
0.3562072390144352
0.33230397624365365
0.30282173628117975
0.27703578499711395
0.24333128055964373
0.21095275844560774
0.17480546341750824
0.13588173983462626
0.04260769511109426
0.08322674460440907
0.09374150955268588
0.10962771038597602
0.12120757755091828
0.13037209407263037
0.14095999808702592
0.1491951029708601
0.15780777358286058
0.16660281070045932
0.1737613510821809
0.18226364548168178
0.1909388434355824
0.19711508383217607
0.2041097533629633
0.2119330795772898
0.2209203048570673
0.23139239694420607
0.23790942745860647
0.24659085856605087
0.2552637567236591
0.26691098589370904
0.27196063299417433
0.2863726123461766
0.29323477793401775
0.30693222279889804
0.316387533660301
0.3327146769035582
0.33802193607983905
0.35662133973099797
0.36882873958347284
0.38568407296773777
0.39781112058292484
0.41708162631245455
0.4285937192874744
0.44529500460393967
0.46486390212279666
0.49005456011992504
0.5130721750044679
0.5343972818857018
0.5583420915712825
0.5894351947965545
0.612149310124778
0.6419889235477835
0.6759192358527086
0.7003597713505058
0.7374186657287257
0.767310864655258
0.7979159918269796
0.8343950545176902
0.8633516976908134
0.875715669576792
0.9054883196706734
0.9114824380602122
0.9236044020855301
0.9158638528958588
0.8937518862335327
0.865560655316863
0.8379062942645239
0.8045788128055613
0.7787729602924699
0.7513628362933413
0.7304074892809972
0.7031887281421542
0.6909312710199369
0.6686009266619586
0.6455769812925773
0.6295810452155307
0.6105062285594228
0.6002871324171943
0.5771851910943856
0.570515740071872
0.5564903637113598
0.5432294685970508
0.5330205218918047
0.5137715628890083
0.5068447202305095
0.4953703212136836
0.48321861909948693
0.468288975764463
0.4667313477448788
0.44791840315640186
0.44089668446130753
0.4270960168972283
0.41740256419045124
0.4077016440517983
0.39322016457026165
0.38295733681442556
0.3739852599425004
0.36103126979814637
0.34578691777188597
0.33063567335234506
0.3187531128475593
0.30334402575724023
0.2896144589697341
0.25712326147149517
0.23105034424299212
0.21631588874412433
0.13068129467890655
0.1712045007735459
0.22208133882767905
0.279726486899981
0.3181399597612944
0.3415893598054175
0.36236638338727234
0.378206323374691
0.38979724116633635
0.39851917734263276
0.4097923727427191
0.4172871791657138
0.42403374777550523
0.43041940451951
0.4362540875554974
0.4374505355313367
0.4337171537505755
0.42598258270647915
0.4191974626869222
0.39867880945955136
0.389515102752107
0.37692002506959293
0.3662897688602031
0.37200039307296
0.37888400076121925
0.445068330075
0.29765609690192674
0.6691450280447239
0.9492179688483834
0.9962430034546338
0.9756729914327954
0.8922812556654189
0.7368806695515582
0.626088550317928
0.5038832683232083
0.4057223392085083
0.31369075611399233
0.2574187773939586
0.19246430074540616
0.1356964966879004
0.0788939260527984
0.05642315875725493
0.007108423241412708
0.027717080317053156
0.05440798576817184
0.09266200259192932
0.1433757311736565
0.2157482712530852
0.3104419656290976
0.445440211407192
0.6093011851554907
0.8212375597900408
1.0021717309874922
1.0093183339972962
1.0051638989492602
0.924627378750577
0.7729043555561564
0.47460444400406654
0.3507090485283339
0.6084987741190692
0.4610157903014835
0.729770047267058
0.6232201223720182
0.9057226874797689
0.8024660587313225
0.5261124028650813
0.28368610928397997
0.47068893355681934
0.23758357716866574
0.45051274403709246
0.4310683458440502
0.2652186526561692
0.30146916972297166
0.01825318015999281
0.11577251416316597
0.41174387961976244
0.19799805486781952
0.39348281344276154
0.4094312539809517
0.4093095720936496
0.45832340601111937
0.363758793895146
0.1629942694888454
0.5623309722980491
0.30789268436537875
0.33026900902400136
0.3753516952093718
0.5436334413770643
0.7123751297485035
0.8051807439245365
0.875976318705131
0.6763146935302438
0.5623524000331855
0.4124945993824468
0.3141746119730631
0.3174912686815989
0.13593094715329562
0.3693278477031577
0.4242411069223264
0.32420920352887445
0.2353536894401178
0.7357196793565091
0.5735989918653301
0.3635828996041687
0.3737670744353292
0.4290990625842556
0.4280684102703597
0.2286336842719107
0.05183442308400817
0.10323239650805785
0.25815013184808416
0.6337352468640168
0.9087607162162596
0.49946302435422474
0.37738967721348293
0.8582036211301816
0.5004240934799913
0.264595087716735
0.44568028921110736
0.21933851777998034
0.18016211212975503
0.3861892633164739
0.6445400507914335
0.6084777231414393
0.25656789341157066
0.16734358408892847
0.9329142556394076
0.9185499714812263
0.3353554690356472
0.39669935414235513
0.07754877200661221
0.20270917806043853
0.8692789260398571
0.572160955697781
0.4219502179655339
0.44206599648400074
0.5438825095378943
0.42486794453781923
0.3795194167025605
0.3664572482196026
0.34583303952315236
0.3350250104972298
0.3459356124652643
0.32817793532410994
0.3385599266818621
0.3274821251457778
0.3377864707246796
0.33944509206599005
0.14483038968770304
0.05119887303171204
0.13109609972635566
0.06802034801576073
0.12609023591219687
0.09015261768248063
0.1317184065263199
0.10775204262406873
0.13891813363868685
0.12068301297321575
0.14330854823609368
0.1330884333851664
0.15392620098043533
0.14319233131754489
0.1606984991468556
0.1533621128273195
0.16763092380420463
0.160469772905105
0.173390775146151
0.16830427927891112
0.17947418093585193
0.17626253819273335
0.18522473109399137
0.1829276751441083
0.19264745773433384
0.1913837775418635
0.19952130303180615
0.19763324551182732
0.20565006423980625
0.20311818800750542
0.21205764550196227
0.21216383402881708
0.21971364498858284
0.21992392508263414
0.2266915860822547
0.22734085240043922
0.23413402260836869
0.23557829754699783
0.102712868972509
0.2419898636403544
0.15895070957759969
0.20813969065014168
0.2437376782227242
0.2504981317460716
0.2526644938972487
0.24605005377618702
0.2552225895063781
0.2595534662838693
0.2577086953372132
0.2197121535003101
0.2671758991396677
0.265234854135167
0.27445539111336703
0.24871660753210192
0.25833021514801935
0.2726823874747678
0.2520968072804387
0.26190755125328485
0.2832159548590369
0.2818339370592398
0.256621041634569
0.26646222781291407
0.29273932666944225
0.2917845755865286
0.26101419590654573
0.270880025770001
0.30322774565148986
0.30251223967060503
0.26460206848318907
0.27561624111212374
0.3144233877141287
0.31374929073505065
0.2689423694494943
0.28174006732984197
0.2747715813152673
0.26353328947644905
0.3153195331150703
0.3262257864813369
0.32516405466807435
0.31246276725232586
0.19007832662503282
0.3247727951482433
0.31200349288887247
0.32452397452964066
0.28766082231198736
0.2811056118583243
0.29235961859900955
0.33871146942579605
0.2919428813514591
0.2852123382982543
0.1749108424971188
0.2957240731952409
0.28917985768032595
0.2991340523359056
0.29256955161439174
0.2831915580326163
0.2861992467182444
0.27946926997354815
0.30214299132734057
0.2847105156886223
0.2768057323904956
0.3102091425632609
0.31194841381904076
0.28156119608771235
0.2759997253141972
0.3141018969884552
0.3263198691923122
0.32060187760911957
0.32112865282667824
0.3169431199371116
0.33034022092447063
0.3407093598921629
0.34358510810485704
0.35809388251853674
0.35837733497641566
0.37363631652970525
0.37212380063535394
0.38866763127141074
0.35982949242097884
0.38521420505421045
0.4039050138244849
0.3309001351535867
0.2812298182486067
0.27653805443004964
0.40837221838602006
0.4244283412727897
0.4176750524473786
0.43400014599659253
0.33083368519301887
0.43945576567961775
0.43007965133982
0.3414356289665521
0.3414356894838975
0.33110153270631903
0.45260276874376276
0.4417712996229391
0.35354917850000733
0.3544070202717553
0.34048578386270245
0.3297543603379348
0.46171188766560595
0.451441592033253
0.4291116864095489
0.47465304765201977
0.43642156854120034
0.4185040693893351
0.28224824506270807
0.2793031640331902
0.27119308945387033
0.27898194495193757
0.26806307785045175
0.27701701871798956
0.2647998689910871
0.3673549811511011
0.3682678906906007
0.3377413824107209
0.32749999177101585
0.45715968452277916
0.27851170025348354
0.2657941548242686
0.38210145684204644
0.3832543559447539
0.27533596208333017
0.4428729079903079
0.1839513895367556
0.6139869402832613
0.18445632577726792
0.32173709557942076
0.2805822373447748
0.2669102558008029
0.33589627357573587
0.32590492846220287
0.39758310435319955
0.4001160686976515
0.4632582831420105
0.2872600970824037
0.28832531693904506
0.29116201735568364
0.44577880708493384
0.28703420439788985
0.27066454174319426
0.3952208835125579
0.3319547469541389
0.3219510032377334
0.3088034031930023
0.31605323486469133
0.30301584546937976
0.3146334922924739
0.4150951366673003
0.4173515447611875
0.25068491890563593
0.29205532009205765
0.2824195870513605
0.46685714287242625
0.48300400399247934
0.3077898726905204
0.2924976199770029
0.4508101759293324
0.4315827848017315
0.3165429863355987
0.3435113539452982
0.4345664841223673
0.43630521197655786
0.4182176325504407
0.4373993433927823
0.41800465947507565
0.4372541543554227
0.4166058812253069
0.43525564431502833
0.413442948364044
0.43163332786224656
0.4555326931610826
0.4516270499536608
0.47777236106868787
0.4730129374429494
0.5014942627792798
0.495675976916006
0.4093183716669658
0.46634697393057584
0.48820052460476243
0.5204321325920674
0.5121081150687982
0.2921509278734824
0.2920893106695903
0.3279079634039704
0.3181814286370167
0.47971909747476427
0.5027286510185982
0.5381959664112898
0.5279842701911922
0.2974415530186044
0.2954816476359573
0.3019063243623414
0.3167563618856812
0.30512279145101084
0.47053449656316365
0.4530759071496186
0.45567940403310536
0.24915406638056745
0.28543677078498014
0.5668315803621368
0.55563555381753
0.5170894565605957
0.5445391330862911
0.27165112717314027
0.3248313139250787
0.3352485558019445
0.3030130362690054
0.3229807794139925
0.3137686383302462
0.3118650434459129
0.5855385480225289
0.5740640292806968
0.5323007373784462
0.5625035760166097
0.5218155693640947
0.549726948110505
0.5927377202516372
0.5775169184386209
0.3221047227616745
0.30090332981229706
0.29744383274789743
0.4533598380040862
0.47377038287898043
0.4571429561382821
0.6174551632165824
0.603037097368568
0.3036577021762984
0.31920651051976356
0.30930460851427977
0.26626414300179874
0.33226040053593414
0.4758640778857331
0.3192685351868098
0.3060512294503896
0.47825109560324575
0.4550499242217146
0.43318721434735113
0.3324771233837462
0.4916139949726162
0.3067938331833642
0.3252926990139675
0.3408475322145169
0.3284982115134859
0.5114849680592578
0.31205707172708247
0.30310665399849573
0.30364171041313825
0.29848296817687947
0.31903472713529446
0.6423637076884785
0.6214243418498934
0.300611994775746
0.29530194119592906
0.6594552192000186
0.47134598242786213
0.2962787963255086
0.2888168381012165
0.3995897515744125
0.43233029792164235
0.41355036186176297
0.4541520274210382
0.6588773122071794
0.6372809721268974
0.4862282287526464
0.4772919162119028
0.49536209617330507
0.602744308298693
0.616176638488697
0.3069374282919825
0.29850720759003585
0.6485149913067768
0.6262610885517864
0.2886334116679128
0.2813002300275914
0.3633818377180562
0.35361878618707826
0.2823097162368604
0.2753285188211244
0.2723547788024188
0.2665653536542521
0.43027929243058605
0.45107734531679206
0.29989136578742737
0.31395216171747337
0.29181639651576574
0.49044324836060915
0.6574583370167895
0.6346459422058971
0.35106336024277496
0.5835854618288576
0.5053499823180044
0.27032053504305387
0.26235356367236146
0.25818695134037817
0.2532642110101841
0.2586248983406319
0.24976412938793355
0.2571258484837509
0.24842380615178647
0.25948501073820973
0.2502605927817813
0.2646023637585779
0.23869023774861078
0.24410717391813905
0.3080907898984844
0.3186090199431759
0.22446577158285044
0.23103194522931422
0.28961348602604237
0.27129069358195307
0.4545813320463435
0.4472317034760324
0.29366447690270786
0.5160688541194958
0.520212593753694
0.46869125872306294
0.43991299641095405
0.4274778367180136
0.44439773270193894
0.462680314741555
0.315459705988043
0.34358232532376265
0.4665871139827026
0.4841900188134262
0.46175030521265953
0.24790345062785865
0.38603797159172215
0.382891983891909
0.28745171902927114
0.6633299564470544
0.6405871663411993
0.6144974328079607
0.6213228308369383
0.28431444067044725
0.30172964236891003
0.368880152044453
0.6843213218821975
0.3254144335268499
0.6446208093435286
0.6257647969343428
0.6008599383240637
0.6063356851945902
0.5821260108350134
0.587671193868206
0.6079487197629831
0.5899516307079753
0.21505000891712944
0.21764074143927306
0.24011626140016934
0.5421177241609835
0.5499205234200915
0.4774052174197887
0.4555094699119424
0.4502586409635969
0.4337236382324192
0.35078783099206196
0.36231374418876255
0.327256727168537
0.3192711262932383
0.21250690839614464
0.3187129755277668
0.2897592183690862
0.4642332656820074
0.25707944532155763
0.29907020043889343
0.6054671355210516
0.5895155093584851
0.3498410332993318
0.3390214094643756
0.27788979234613753
0.29418735384940686
0.321205312569
0.3335384759370681
0.2533282784367739
0.6441121072012628
0.3409927039605625
0.5773394415393301
0.36502289710569885
0.20184769935775101
0.20666305624103656
0.29739528703788837
0.46059064197256355
0.43289690668559805
0.5007130695111727
0.35517736671349354
0.34713973963607536
0.35851567163245285
0.3542484925780945
0.3450799682154879
0.3522395289366818
0.36084439635868987
0.35761726415444073
0.36707354644886486
0.36890028658832585
0.37315574170392957
0.37539969827091857
0.380461756260758
0.3808420823130327
0.37667215451453
0.3839569682883121
0.38724193262169404
0.346704188145992
0.29375150402662553
0.2891957619951152
0.2979980096172916
0.3902933531864964
0.39150793518245647
0.3870369680430565
0.6094867960570814
0.6200468555003925
0.655124507496449
0.6659122614111119
0.7035977904128469
0.7139780163102099
0.6744675413622855
0.7207947791114684
0.67897915889577
0.04756102390669487
0.7549500362300086
0.7433499894425366
0.26928659077250455
0.3929912546219152
0.3883622644567616
0.3736239356962485
0.3686735982273154
0.3553523845110129
0.3503559572230359
0.3632179673482876
0.3449366487188458
0.3580693065094582
0.3389345803584327
0.351770817663312
0.32788549277101997
0.33810282824790644
0.34322867600929075
0.371115623836121
0.3648034135948038
0.28927111708938785
0.22088231853626322
0.13020800562885693
0.47092468372332447
0.40624214318643476
0.40073632852983787
0.18075965012381592
0.20122306014148142
0.5751683933038972
0.3380744632577593
0.4370841865715069
0.4211589241931549
0.23420060786936991
0.4699743038716999
0.44857056042404275
0.17214028452388944
0.7208968284659515
0.6764470051155453
0.4350955261083339
0.42937197973188046
0.41623367436213904
0.4116364872774372
0.4232616667365566
0.40582310468374555
0.4174478054624789
0.3997321962375896
0.24408761042476215
0.3886839248238248
0.42842260935616994
0.42994131996700347
0.313884681319483
0.31473859218194195
0.3852850302589069
0.37259925931281623
0.5734269334186454
0.5800643115155951
0.6841648496067414
0.2658752686952588
0.2915803642044316
0.37156288288452805
0.4360228374390111
0.5573185598355375
0.41080344061461205
0.5723972210961195
0.5717008464680301
0.5833009649049868
0.5670032264434696
0.24236102018830996
0.2514114316139036
0.3338183682954701
0.3698819801488715
0.5282882852835411
0.298824072837231
0.3075919997295618
0.7047731307849805
0.3995468144274256
0.42646006334662695
0.43331624723853035
0.419339159857902
0.40422150783334854
0.40355805482950985
0.2535632617916845
0.1873292766620864
0.19408364034472741
0.21887326910752702
0.3760499860118909
0.37315912971180626
0.3848473079553896
0.3657432809419954
0.39159824016001843
0.39448988389716716
0.462182290593862
0.3277044026081219
0.3416591743010584
0.3381190173242459
0.3152439029178805
0.33330438560785064
0.32944547503614896
0.6368013733989286
0.3900493636887859
0.38349090608152686
0.3930733514038659
0.3778919661806644
0.556430948109544
0.5536086229478531
0.5585329693173307
0.5444631793649899
0.4131612592989831
0.40758873630222514
0.7954114692727497
0.7797441291054199
0.32683918410365176
0.3320600290408844
0.5611031030938303
0.3847686542724202
0.3702449313307169
0.4766700217342707
0.47883300179940663
0.49126117962773735
0.4886516491133514
0.6064568717426605
0.18516149601278767
0.271289829478883
0.27834775914195137
0.34035918030919354
0.35372997244611065
0.34281901004062865
0.36722695862924004
0.355134266151244
0.3799771903296265
0.36721838665594053
0.46247839058122503
0.36896121854894837
0.5489557052227462
0.7053387472474167
0.726374735142554
0.7267765819789999
0.7172953189962084
0.41520410131279817
0.543215542638984
0.3873570269859695
0.38317334214489823
0.25438530646751145
0.43577861000718676
0.45070870353950965
0.4418699441296225
0.7663234568513916
0.6726117732065457
0.28953230383185047
0.39292828351370096
0.3956848299838671
0.39215954795105806
0.39349825798421234
0.4843830960581117
0.6182225020829153
0.40719095173991066
0.4591438755999542
0.30147896950174274
0.45283476232889963
0.5683466225085353
0.5510218074299216
0.4221930701619929
0.42712588423230535
0.3084590933004904
0.3183858212946867
0.39148529649395963
0.37894392343164063
0.3539459225345076
0.36509251519855135
0.38859250769586084
0.374375695435727
0.3954437116447562
0.3809310869157561
0.39955261560329514
0.17433877898562483
0.4138994431163078
0.1819745917527593
0.289199503569556
0.38471082178613986
0.40412155278506995
0.356335641768325
0.4412702415778306
0.3836166567614393
0.2401873129901218
0.23392564287814008
0.4014229049464087
0.7003785330194227
0.48338576750923895
0.5302750201922187
0.38014535839314373
0.347476735650214
0.33568781632010863
0.35102374163548533
0.21945787521162502
0.3400305724735338
0.32401635505709986
0.8277616652986334
0.8087961955724877
0.7636255179179573
0.7892846113914952
0.56534595043883
0.5348076923162132
0.38031085558002814
0.38598530638989026
0.4894906710286655
0.523816615044192
0.28014361519913156
0.3763734346973697
0.3626457163172281
0.27022089098365965
0.5552709157038505
0.39728424881550106
0.3567054468331594
0.826139647873901
0.8043817999275412
0.3925247415292124
0.39679624906464017
0.3752003209360913
0.2567356849372149
0.27324545357000696
0.15985893728864783
0.7434811474018282
0.3530545554049143
0.7104676280780771
0.2932571170934518
0.27578875152659815
0.24602619554366234
0.5319897835503451
0.2992084597787389
0.29341291359359944
0.29812254029232704
0.293242703301764
0.2963275963691882
0.28894166267038074
0.7472383469834043
0.7480760212615527
0.35182200042353107
0.7573911093252377
0.5315640493915728
0.5336439931511213
0.3182826628765394
0.3472448831320759
0.32576588208260643
0.4143907998715935
0.4029816281693907
0.3419025234326536
0.32854768098126463
0.3269598770772739
0.32955990316175054
0.30872507056664855
0.3402709493307528
0.4453101795304668
0.44049259415955766
0.4056394467166304
0.8423232239420433
0.4762151909274672
0.3666412824611578
0.3586383231473523
0.22343396179412062
0.3660713052486819
0.3898115720955997
0.38713980086178335
0.28377745221546874
0.2293249002444117
0.22303138035666026
0.22876009200283265
0.2801674196062726
0.168346322157628
0.19783113183298479
0.8322767961930515
0.8089616745302852
0.7770012295939057
0.5404230879049909
0.5384558735051335
0.5333279730188566
0.2899269269743603
0.286688056265154
0.4036456675888922
0.3982657289776481
0.3961004594425881
0.3856295956041087
0.3688664266589622
0.1581137660224459
0.2831362711707527
0.266146179010779
0.2582511837633022
0.24169570154776193
0.24153196108229075
0.24588239435826523
0.42371666156656235
0.3169661036271738
0.3115214460322355
0.21871899790027496
0.2121707395225925
0.3369251660182882
0.3398951019125565
0.3523887023228342
0.35220796614970096
0.3429542763226317
0.6697541144448554
0.6366540155306789
0.7033681910821613
0.32541073314243524
0.28429751064419506
0.3326303630820223
0.41809156636375133
0.7645774272932333
0.35181269216053807
0.4915862794619726
0.2579765798782227
0.24173283547046834
0.2557735858828208
0.24501137599581482
0.2573683017618271
0.24996096282476207
0.2621841310278355
0.25678328804689116
0.26866424474343054
0.23253813770887682
0.2459237335076241
0.7341653325908577
0.3737648925640775
0.40378899439073995
0.38872479376186003
0.430896588468262
0.3285250439145112
0.22538024724406205
0.37805819160008153
0.3807402390652068
0.18443934281487467
0.19568829784189146
0.3664010895453754
0.40638856134254225
0.4147763631580042
0.3542156014737916
0.34090512644958293
0.2610475956203244
0.14445168714067003
0.3549296062912519
0.3340564412323456
0.15543475120862896
0.5206085600949228
0.5054346312566904
0.5186277134027848
0.4914924898081494
0.2533799310255507
0.36032100162772135
0.23728811057024715
0.3810994131222245
0.360542931744404
0.304603907600155
0.3035786860023302
0.49952690664045685
0.620375582794876
0.6104603526514737
0.6237629758307631
0.6072528910450876
0.615863354991709
0.636133290114708
0.6633982680549698
0.7230378065470953
0.3894199837133371
0.58695139554751
0.3581401010127272
0.33802036860409346
0.32753291345224694
0.5974744468305581
0.5880329056423771
0.5822291158165737
0.5093669293189365
0.5056922298827949
0.5349809208121742
0.5615962662922466
0.3516513030701416
0.5067611040152136
0.7143119425244229
0.5225810971306203
0.5202348528516021
0.5137614943211216
0.5165057615737526
0.3362625704719701
0.43528715474044216
0.4265745290647532
0.44471783739297155
0.4364530742043347
0.5044396385226854
0.2884948674004973
0.27189835538793333
0.3926468876887326
0.4096372438519651
0.4199967949769181
0.7685320213818483
0.7774166777378048
0.4317212818190709
0.36530804257095817
0.2699120288088869
0.49697013627608344
0.48635491764937616
0.3567881792586085
0.34168218256491373
0.47637169602862256
0.5335801852795342
0.5403412515470755
0.5086822169711606
0.5222378266066988
0.4340705477337347
0.853395225814135
0.3793455443386653
0.37790560927457534
0.3979681409103029
0.46097289072730785
0.8651791810095681
0.3372273193136549
0.3840554059900682
0.2898360504697754
0.36072401685565847
0.5703234360745165
0.29304985339558715
0.4488417003355886
0.6433931624097694
0.6244000828141802
0.6481775752392286
0.5626410386048881
0.3827793591215844
0.3217870110162036
0.5617423587933662
0.3525728819223862
0.37256646229530843
0.3691605567800338
0.34041132087976606
0.3215648890997295
0.32995335185421865
0.4094885359692705
0.39043311158795113
0.5412481155293989
0.277308210602948
0.2834500047352452
0.280509750903924
0.5236745173421097
0.4789368333771068
0.4137606480390848
0.4262110261045624
0.40911883343311833
0.4614831494290081
0.4561366322174928
0.45335378408041543
0.38521480140701225
0.3802203542329317
0.38858811544021876
0.37641521963428426
0.3775097103797997
0.37547010654594987
0.4779981395383686
0.34651865913977564
0.36530776277696597
0.8287894165333274
0.43636238404272987
0.4114771852324882
0.40607031789775944
0.39768766903800806
0.41147001306747216
0.40243217931662895
0.4043606455413691
0.3008038954279225
0.2985306215883508
0.294717890715719
0.295892135278799
0.3005165122321018
0.2956117274217877
0.30072543864368884
0.369456434808963
0.2960500784421865
0.30060224425991144
0.41414069492075134
0.31510635391625064
0.30682062872220456
0.29371527100432665
0.5196192768219341
0.5358921747367223
0.6701402865983256
0.7001921199831879
0.515350855472856
0.23845729124081314
0.21897490863294283
0.16923491485211536
0.19764419882546555
0.22691986416660329
0.19149194217764318
0.20828721035239178
0.16538902504905895
0.18540197640275105
0.14925270016388503
0.1763684456265481
0.15183414174588672
0.17368424339953215
0.1576012832501896
0.17452121714595134
0.16566867960223763
0.1794194509772898
0.1735438436302955
0.18604514525737673
0.18271539594714648
0.19367511478676946
0.19218311445872427
0.2023075800110461
0.2017145909358684
0.2112427690588451
0.2123444619913398
0.22085889456519917
0.21259859105351772
0.19304457344141002
0.19307318004981697
0.17308003393982518
0.22619439518344658
0.15097200319386347
0.22293070030118858
0.23046570888316642
0.2300498526695625
0.23896084356868552
0.1920924390907703
0.12972119354989578
0.21551016085782826
0.14084313480492436
0.23968170183948098
0.24805062481967546
0.24753419006337443
0.2266841876511483
0.22287093407065947
0.23135605421228783
0.24173092088715517
0.23449391473379366
0.1502300429357369
0.11583417863934137
0.2559970093483413
0.25607151574744696
0.248888543462367
0.25765597790979705
0.878315103442797
0.8500881876177672
0.3890442009005678
0.6939498318976346
0.7257068133428974
0.392178466440149
0.40756226767071113
0.32978702442115515
0.3846418881811464
0.2572784340460124
0.3487447364217841
0.3455965963709092
0.3507479734128096
0.36793769049031677
0.2668067662816747
0.36699816123838686
0.369475395431551
0.2491710730080095
0.22885405014530633
0.26008740853270085
0.2215131950487218
0.2796426709241717
0.2738786438424742
0.2800495987412033
0.27499276282620516
0.298964516300005
0.30771521478421754
0.2941826992735063
0.302943890032683
0.28955830863305165
0.29851571562625734
0.28558051746942137
0.29422955454164207
0.307712504453846
0.30205836325609886
0.3567388235637632
0.34308554751913595
0.3463183627409289
0.3308261612774494
0.294347664335255
0.20766066324747343
0.20215166067710882
0.20608948693143164
0.1961859203902347
0.4075387989926449
0.39888906090585297
0.4203083469213705
0.2794109666602437
0.24390791120304947
0.236899607224748
0.6687980462774478
0.3864934810882868
0.3704210799969372
0.3583478010130461
0.3652872657032249
0.3427512463935709
0.3157008366155627
0.31876965253951645
0.29186463314504313
0.2920838308521848
0.32719782440754863
0.41407271375373167
0.29247151597324794
0.22671771110479338
0.24476210472539708
0.39382473904230464
0.4138978190607018
0.5179660159359678
0.5210537349022271
0.4988895279251351
0.429423494564182
0.48554851264562227
0.3304434337497952
0.12726068817326994
0.1273300882339324
0.2920641740576476
0.514176702673534
0.5404318917855221
0.5257262651726059
0.5486565598707636
0.4534490619173794
0.5184329268297347
0.5339749201250177
0.5084160147223514
0.4956801416406636
0.5009358141022568
0.3926771868629502
0.4019524526949531
0.4056088799774128
0.3976823362523406
0.28836568274854896
0.39682124470064845
0.3938158490795251
0.6845004185795774
0.19089256655169917
0.1835145452495249
0.19196796206161937
0.17941585358651957
0.36200296436320584
0.3930969215113933
0.40198848058798714
0.5211393551346205
0.30776074389548835
0.48691131965237233
0.47380510071953896
0.46545732827044695
0.4498049792302709
0.4459998280968936
0.4586561747242762
0.43766472707302134
0.7341427140111727
0.7269982090847937
0.6805181906685913
0.26430247146007224
0.2909008684856694
0.26437328070891614
0.2621648857215007
0.44519430224509043
0.4269252225817395
0.34098065048435383
0.39788483486571713
0.3360373842252132
0.32022914213485687
0.3612294602142331
0.3751875847747361
0.5090514228212546
0.26263772922653555
0.2594503020826922
0.5299811808377412
0.7145744042270707
0.31079699679948225
0.29287592525353545
0.31262063518512606
0.553652744410121
0.503463341923845
0.6056746929447423
0.41316491441357217
0.5168897641976321
0.35948472076254084
0.27244465916685356
0.390080845500098
0.39972574683036216
0.42623470769592287
0.28641159514871245
0.2520123805422202
0.5563536989817834
0.5478932257263255
0.1377142473595799
0.8107483618840715
0.8188589952642596
0.5440407033685221
0.5570198159925048
0.54242019019868
0.570516886200722
0.5673320568807416
0.20932150176040726
0.2182920173681053
0.3255924674973676
0.4119642024011739
0.32492085008239896
0.5481099031770147
0.5643357080852104
0.5699322472150216
0.1717178454441434
0.16587227364635204
0.3945623073225131
0.27782132103316964
0.2740381947539014
0.4321543632719266
0.38280200817660004
0.36578031609310224
0.26170533757745784
0.7676687998889987
0.7834652251907692
0.30697106716364114
0.30013324923702084
0.5514335106545157
0.505292780534792
0.28158383756924815
0.2736545858896882
0.10949130019572799
0.8822848173604627
0.28069869298294575
0.23650621970461477
0.23869351659383367
0.30346981576719273
0.28604759927973167
0.23783814838151032
0.22835530051770397
0.2321620942187179
0.2233604564394068
0.22756293113674556
0.21821698128080091
0.2139753234597691
0.20918788295017332
0.20450667919459398
0.20019698942192732
0.2243871330594484
0.4401366561396054
0.28879624661674014
0.2953205402905281
0.16276444306814802
0.10353203076989025
0.09713835292772233
0.1251969730940786
0.12767118171083677
0.10331691786378364
0.08388354777584044
0.07932109298123592
0.2898476944995719
0.27074082569792446
0.37921120634409033
0.34953934357869054
0.34533805639208187
0.5978947448473637
0.6115786729733275
0.341391446448189
0.3456761201597037
0.3351984097142275
0.24566142247057368
0.06826781089641638
0.20511225310521214
0.19612335298921021
0.19085162155206922
0.18722442859330496
0.18162149429545302
0.3560595901650196
0.3632168332353789
0.0813153583553173
0.6148807025654607
0.4886971905446484
0.3740586102100145
0.25856515770760397
0.22717601379475233
0.21605614242633225
0.2845952817373156
0.47475809877319375
0.5132596293853743
0.49673558633998355
0.3391579935260401
0.5802573646907504
0.5998549401575073
0.6144125432646037
0.6391972575312932
0.37490728632109893
0.40484588418558215
0.3781238882387984
0.35758035729111576
0.3168721356694248
0.306190541255231
0.6450106313650292
0.26404576512574507
0.1832794939527756
0.1401425989178849
0.13716797957823834
0.1490370734130158
0.1417974914084728
0.1532307680061254
0.12880438476286582
0.16144020399616243
0.1636277026879044
0.13723096723959763
0.4532274135163532
0.17058664393017703
0.42357323738016484
0.2524828617713359
0.594577797351882
0.5952580106472555
0.12437988214922058
0.11490783628944387
0.34184155929334126
0.6528536897342666
0.6620807748432083
0.657587838150236
0.6743882724962671
0.6640195399599023
0.6876031724759224
0.3739829383605463
0.3748835370128649
0.3780074030363074
0.37254230858080095
0.3755642251949041
0.3662053985768996
0.37241609717130986
0.3634102691529411
0.35475173396352133
0.3804206705447345
0.352282670521502
0.38117504236402405
0.3723751838555874
0.38230704586413283
0.36411259258074585
0.3747920530150204
0.3909515090491515
0.38254072447461607
0.386907689781255
0.19990520463985784
0.17778972540292962
0.2633733980108528
0.14274908991270963
0.1473794868626781
0.6252657844191584
0.3585230234377685
0.22492332129328424
0.2113328510955429
0.2092798969643743
0.2148449884494568
0.22877039724647197
0.22021610407089684
0.22559592530517955
0.21601536919872238
0.17223735048739774
0.32814076056049324
0.3676472233216268
0.3892097250767016
0.39466267115490805
0.3660654498969967
0.38668013495841075
0.29665467123200323
0.19929222160016216
0.20168807391230767
0.214032673880232
0.22486652329315118
0.2378235677651425
0.18320774564680792
0.43663506736496477
0.291628349425398
0.2936848343401715
0.10016612899739429
0.4828142297198195
0.6830062055739102
0.279003525885982
0.3161686315181607
0.3614969702194398
0.3496651380808487
0.6324844711483903
0.42750058679629405
0.4079030150545117
0.40940604449910223
0.4007069979264449
0.40113176226546654
0.39039009582078554
0.38939009700412575
0.39689454414175673
0.3710085590258026
0.3990020672020411
0.3915403033719835
0.41645514334116857
0.3820845120863995
0.3904442676598614
0.5950295427569977
0.2984981465571362
0.36259585422313323
0.25083337591093946
0.36522837293994315
0.2553168144454881
0.23898460149264447
0.2488990804290953
0.23388590751207025
0.21746163502825003
0.21706676758042315
0.22945359968352164
0.25973328897122794
0.2881758779235969
0.24894853799351838
0.4782154903544786
0.3983686334563671
0.5350787507283319
0.2159819836350112
0.5793689522695697
0.46527064803299817
0.47519180153262125
0.19336572872323046
0.2892269963602501
0.33179881087485996
0.3301687939022517
0.3277754638572565
0.3106480491253039
0.20552012397707298
0.7488893744305827
0.5975535900746676
0.823516291164125
0.14649085947345714
0.44981210659124177
0.4823734060506164
0.6341626363939065
0.692180569345393
0.2691496323287539
0.3286450176373319
0.43964009085624467
0.2366429172210604
0.24190838497057196
0.2338244760456265
0.28463467455311325
0.23789249537126472
0.2765321599103041
0.22098161224929017
0.22341459174076583
0.386122957623263
0.38639446974055036
0.3499892842112481
0.3529829483183428
0.21442851140911284
0.44039815046052305
0.40952056327923436
0.5498110155187057
0.38734223150143404
0.15833329387070183
0.3675420810482261
0.17879763432161702
0.47766072769490786
0.39521650768683525
0.35545878050727747
0.36531406110735404
0.3507936169830112
0.33767200959928345
0.26980886674420523
0.2241982184055124
0.2557995350256476
0.3048754251576536
0.30480170187447986
0.3894410902060352
0.8886989322026709
0.8541022310548502
0.8820322042608159
0.8500910242707163
0.8336132936892819
0.8054136190441565
0.8097035987589063
0.6564420238401292
0.3438229076867491
0.31699282911359045
0.32348094841834724
0.36688621557711615
0.47550889526819085
0.3170641295354588
0.4043800527187602
0.414280790699678
0.39985569382003633
0.40087264789811
0.4540882848732333
0.34713453827144614
0.2827808640422514
0.25650363080755234
0.43044700303134353
0.4112987281958132
0.27820520773370694
0.3186071322418644
0.30793274457377867
0.29766493070390954
0.29471869743175166
0.2560614649329528
0.07782272097947053
0.7484032274160597
0.7317053210140376
0.715814039281258
0.7418228189857126
0.3669249596648413
0.630487485013902
0.1389833361627661
0.16177242593766816
0.3491452441258885
0.3334675443281726
0.3495372144619166
0.2867306730902043
0.2744920685966968
0.23196262672823367
0.33523200696076466
0.4225204862481229
0.7357388296426973
0.23342054944697238
0.2298398580455395
0.5146096682456244
0.6250677784096694
0.4811714388463127
0.5052319504500484
0.3779624853981454
0.32254775112888767
0.31438406214558423
0.30526756779002717
0.30665221377003393
0.30851011187267435
0.31353089238778076
0.2896592279845923
0.7096916935663592
0.6852429636128607
0.7056490564750506
0.7236995697702704
0.7491621819981245
0.7607299686873087
0.6951621325860086
0.7010793973430145
0.2079656744553994
0.29841128618875484
0.5253761310828331
0.8480686882459965
0.3572145782457485
0.8468693898251445
0.8742737072478477
0.49941894399483333
0.3653306143674871
0.35198251706943806
0.4085031559550734
0.280251347986545
0.3733026502832676
0.5720322449093626
0.33044963772788166
0.32834568588605656
0.3416207144437506
0.31554232831921314
0.34193754158560397
0.3270482766537584
0.314763045409209
0.3011471704575954
0.3700657615526107
0.35263139973067964
0.341481431774004
0.474003989765141
0.4078910727747383
0.35107057698215005
0.29458107205002626
0.26410060033129973
0.3067103128276461
0.2947130270021869
0.29241157187563804
0.29908611857437456
0.7481761882097387
0.7962447596326815
0.828439078039806
0.7646931979428206
0.5869558189803702
0.2497773109026265
0.4503656515855321
0.4418881307971532
0.763009352891542
0.5051856902706993
0.3694668280609801
0.3227504799209469
0.2873672086114578
0.4136016862323502
0.43264889831182546
0.3783669492272784
0.49296673256495005
0.46211475623743903
0.47118326798972376
0.4950672804825931
0.3380514138000501
0.4582522775534865
0.3501105917163674
0.26409428790388556
0.2722324124114653
0.24265707547629473
0.35594576380555665
0.7175255327828468
0.22683556810370747
0.5478655618142696
0.5559497190044445
0.5944518899691968
0.5613838599308008
0.5979874239164252
0.6292562998614756
0.308270828942662
0.3839770867479634
0.38487495606351296
0.4219264841326258
0.3768227769198774
0.8905375870843334
0.45766856174637177
0.5271626344699224
0.6413959760605934
0.32209900063406177
0.38751634698267556
0.4390668669351172
0.3033866989636578
0.03578840990492185
0.6649625488419459
0.33595846407425034
0.3657635636293561
0.3660025131939992
0.34758271919353423
0.347560742883433
0.3279083714791099
0.33729741417989834
0.5903307556571193
0.3174459831247754
0.4050306078064702
0.41194443676082476
0.36790626633062373
0.44090098473332356
0.5090199666112933
0.6656153217196444
0.25656354046235413
0.40406097417107617
0.38726473787057747
0.36524741485809525
0.32793203663639003
0.4291845541065217
0.2909730552811584
0.35459011016235803
0.2424276513950173
0.24193927678603863
0.2987051519916085
0.40048059152676874
0.42014962994560423
0.39397003946980114
0.38279917613873105
0.5644350531606322
0.47435962410410826
0.26806110434186187
0.28692944261024395
0.30643813739932896
0.4270055748926118
0.3076855298545521
0.41591906221633096
0.6924248094264819
0.38526588171282855
0.27770137660607536
0.2892625946270373
0.3948606739642119
0.9034112779754099
0.2709337682883746
0.3682695331275154
0.3521319004527816
0.3771334881120623
0.6377340548703763
0.6060310194973041
0.5974436505488536
0.33310007088883264
0.8836147790844261
0.7769205825262456
0.681170184551471
0.7769846698115838
0.6524354351781332
0.6916637494687641
0.47882498009223606
0.3638409839797495
0.8325158453645343
0.5232719890492127
0.28334987388207833
0.3932449577966923
0.547686319259697
0.5767188265279883
0.35496756294862825
0.4027322253814252
0.6338289528393634
0.3364548383071466
0.2881323937546271
0.3638613740678906
0.35538672637219054
0.19737304340200393
0.31240656341334644
0.45032659728494906
0.16051524458737587
0.15329060694130847
0.501339153646409
0.42177091971249614
0.45861334838679274
0.34280820714424726
0.8053255667564984
0.2800719379674734
0.25191504199368986
0.26683287792149085
0.3966374477350738
0.48071332714528053
0.37790667190654753
0.06692241821572631
0.6785957235258429
0.5960790196054797
0.3594626847240577
0.5011703336068947
0.3602341458479286
0.4815965723966304
0.5141635489690004
0.4721799123590254
0.30150274798055804
0.373739031045367
0.8691308452383839
0.49304473298940565
0.4628774410837855
0.26273487969262604
0.7818727734475708
0.4494633320764892
0.3209593629538617
0.3922293505284968
0.2919105120464373
0.34711618432360025
0.21513662660885566
0.4199316068488035
0.3977666795444877
0.2925903919375426
0.5951551943796725
0.19932569587110188
0.19546251390750038
0.7675577298582972
0.4929556918999547
0.7294748845695288
0.6369698652908102
0.36667621367716874
0.08744762689897473
0.3960460691917191
0.503442609549025
0.4921145102998855
0.1751226792904288
0.39536640174496956
0.5832207905273765
0.1178116732847218
0.5371766472228239
0.3453107811534476
0.25709213413270515
0.30165491954536994
0.14901583099013407
0.16794018315576809
0.3355731490341828
0.3904141707983358
0.22709294275846456
0.47030741606675897
0.3798682219179718
0.5409812932499416
0.5132084427995414
0.3633916808248488
0.5849267556992539
0.6485675983610796
0.27714049950395236
0.25414547800572346
0.18505509933505945
0.2626063751169484
0.20298454487959472
0.5059124815533627
0.6059096558735144
0.09212343385636532
0.1123859601395055
0.12676453921289746
0.33291260891878327
0.14433186592146294
0.3601988277329426
0.37835301946531963
0.4569457012940753
0.22677274846812442
0.24652105529653953
0.3521155759111672
0.3736633417416888
0.2940100353744896
0.5169441569144493
0.3532955838417505
0.4368600094123509
0.4216388777580845
0.2091535286609511
0.17271365314993287
0.4020932620326419
0.4124758707169288
0.8335102944509118
0.1881076333678113
0.5818201898929284
0.28043898740106854
0.5388908904863885
0.3816984207048252
0.5977321288679878
0.3705256292418323
0.3202195526344573
0.2885321105735551
0.44088448530430013
0.4461791451326353
0.42397425442158304
0.8101776207605598
0.23479938617046708
0.17627297470675818
0.42684685831162344
0.5701065941201021
0.28084695996365383
0.5100491924478706
0.3220751374792265
0.5074280178811659
0.3334251064957864
0.35607209544984475
0.18639925343498967
0.4013971735751944
0.035107670914419915
0.24929868325126048
0.395816274470776
0.31730103733234316
0.273798413130612
0.464338370736928
0.5559340428511964
0.3057991764152451
0.23817964932514196
0.5640914619209841
0.24005989412117082
0.3995438319863898
0.31732946744953816
0.3829218075854221
0.17441148585747218
0.2125963925998553
0.3379406485595811
0.37894319626081835
0.3658654101915699
0.20793129966108173
0.228441975522255
0.525820530530547
0.5252667892688252
0.2699204816997752
0.25970878976638134
0.20444384554757097
0.6354517352417594
0.30258414982542603
0.31020551208757424
0.33449200592410605
0.21260056875704905
0.381157809982827
0.4632688913780575
0.42093921661431993
0.4088182550463039
0.4205018704360897
0.3590026116343733
0.4312315344045966
0.3037835085006571
0.18981219925457457
0.29750495611215116
0.24599176748091026
0.3041664816162283
0.2668732533327234
0.740271683968513
0.2919990782224693
0.37438524056328687
0.6232382136423371
0.4278450633336647
0.23310012193030147
0.3514167814306928
0.281432120339097
0.398099078681083
0.29887679225489366
0.280551164221756
0.0701851680581189
0.3681632406172926
0.486912487536903
0.29243671017088546
0.3918217187502048
0.3395138406130665
0.4513055146203543
0.2461182988380423
0.36174332439106716
0.28540560602149345
0.45524664894735944
0.4351381400139736
0.4185082604734433
0.24908185468066235
0.438755675731094
0.31538333214220027
0.39725370995495835
0.19714724051099317
0.4446198306772112
0.6793760037081169
0.3262544055693193
0.38812009147349136
0.4525064912808198
0.24084788779219996
0.2438953300917933
0.6667488491828173
0.2769350811974821
0.41307666956959
0.26754977949059994
0.38482713870176166
0.29676636839406234
0.165766796994885
0.4416768503453929
0.1036047953672987
0.260533503747202
0.5255286386726904
0.48554146156418077
0.4016329018178198
0.2820531444083822
0.32280703807275873
0.4005547179030413
0.18884737063369034
0.3927782570170959
0.3284510958187321
0.38534802029434967
0.42568591062586447
0.30914080800042354
0.1549910515545954
0.5253577388177814
0.5484224872877898
0.23126321299868055
0.37163630692645805
0.34756018036829
0.13456932044919107
0.21163930380635307
0.11754118789114433
0.20864604127918057
0.3809326995967691
0.3952018190547804
0.3731269537531256
0.6705300849312468
0.2736082435747904
0.755877636931813
0.31106056818293343
0.4076494445368934
0.4011245513751765
0.23776151841744944
0.14959480291035243
0.16025039593538307
0.33771863104352556
0.48235528910556075
0.4157529216596807
0.4240507346646756
0.39364396701754356
0.4083188411492171
0.39840657518883293
0.591219148703591
0.22089103104561683
0.19566363124172878
0.36563780609475144
0.2173620644968726
0.2686632228021178
0.4717675761868643
0.41636182392070914
0.22791473651509256
0.4039269463154592
0.352362486675379
0.37103477411663555
0.35272114961379175
0.381135882906501
0.35522858411667385
0.779088601608166
0.32755859982889535
0.19684704577161655
0.3108653181388704
0.2644709052431351
0.21847018560026663
0.33682173677086286
0.42517376041493415
0.3012159153515779
0.352372845697076
0.2779142747163206
0.5872565449780964
0.5110847811865423
0.20364104164728195
0.30047381668852335
0.2871573842504482
0.25211845385332493
0.4973524634446713
0.27241005666830354
0.3041695594056054
0.4309986003486715
0.25042967725060444
0.5687578619182709
0.5524916540712085
0.31216662786053756
0.6231285681576954
0.2840119927119446
0.5003974004374384
0.384718422798702
0.4332809360268661
0.30777581055021386
0.07767755738955454
0.19821579555989663
0.5272571741696563
0.23727428681934482
0.16966343169680828
0.34771160746721946
0.3556785081496751
0.2905764508987442
0.6309829997226347
0.6376578609118329
0.3378725601593417
0.5551272943266033
0.2296417145526571
0.3120217112054738
0.37841729819158787
0.6654587545099104
0.3692268512766835
0.3944934841389425
0.3457377370067639
0.2666771163406325
0.7105800481448503
0.3955060326839432
0.3828701713087614
0.28956836448003354
0.31360001965186757
0.37431609617672557
0.4100762572155014
0.5273782914903413
0.1795375269552446
0.37357780726169426
0.48877715101037233
0.5350692138811993
0.39826309393316117
0.7057593995279173
0.4707488909259604
0.2707472945631719
0.2923230899963434
0.25254723906801674
0.2974139386301373
0.11107409204329284
0.3390289500684961
0.32033348817133284
0.17749606635554058
0.1118976168618807
0.25446998487115324
0.24318739561555047
0.2936272684427593
0.2826231165872726
0.500138019922175
0.6482015877835583
0.3108153105066022
0.17326889378493265
0.2128258922300883
0.11385665046601079
0.4046785679835697
0.20683717397527754
0.26619095982778807
0.478114894872718
0.30031369286274634
0.391542357626704
0.6046181808293494
0.36991848324914045
0.45969861942377527
0.8538161873740544
0.4856695772492775
0.5021556539369558
0.3924128380736768
0.5011049077403591
0.35386035325221676
0.41485605927355623
0.23944690529131213
0.5471140663469295
0.2920819033449463
0.2253671917137622
0.3937873047860237
0.29324077570266166
0.581159326186592
0.9612948929468796
0.96945664415085
0.41741477436016267
0.14362362286716743
0.3947282032513688
0.7456237186009852
0.7085603397205535
0.31399471024578657
0.2794567066604247
0.2920498559280788
0.29291292536075025
0.2888948274892431
0.36757237530022613
0.25240171629488045
0.18941993162940624
0.22708405339200538
0.4217514021688706
0.37982034250233215
0.22129951892965063
0.34282232778564947
0.2015364438663
0.5597942668311057
0.19776775089595974
0.35995322178861217
0.34856151552052256
0.3734844799284572
0.5056203986428689
0.28094625368351384
0.26866829208681714
0.12263571817089924
0.24737600278693497
0.36728277221880734
0.8967824654481535
0.39277443968158005
0.32693895530406186
0.19306676314398155
0.3369816824166199
0.17399889904618054
0.3105981109884733
0.3355351336129447
0.49044343215226843
0.25660515142753726
0.206828564729177
0.47389516424385875
0.23659944134398
0.26770643450567716
0.19599234525375675
0.16148703462424074
0.5368511143641418
0.2101586816068668
0.3872655890152291
0.5364745137209889
0.5906973272840942
0.32006265027867914
0.34250440591407794
0.29431194122189885
0.8914946059532759
0.48652174964594996
0.5956177822730588
0.3040308795316606
0.5500011132087834
0.30654718656211105
0.24164981983659498
0.20616894034557098
0.6200933863507775
0.38232808297381604
0.35115449795476755
0.7083986925083385
0.34447584967009004
0.37984154623827593
0.9172157697104747
0.5086330927335554
0.2539209800652425
0.39804687160235347
0.6819069605484709
0.6362592831061816
0.6928637486051116
0.24318341730343435
0.5222964686796038
0.21773486101317815
0.2732022667026583
0.3515451865134736
0.40358900945024573
0.18408366504023488
0.2971554345640751
0.4356554547218791
0.3916124015191619
0.27107950465085956
0.7041328802881306
0.392390530107194
0.2672323466577491
0.4049658115665219
0.423761417832015
0.46345095137488534
0.3248700245931418
0.27759048902506983
0.2825882192085664
0.4982369972187418
0.3712014516005006
0.2722370070788001
0.3319268882106764
0.47506043842372564
0.3880961190542306
0.2852350614754524
0.2863964745792618
0.36970488252917155
0.3155394434365236
0.352760617269177
0.32615401110867476
0.24637408042204173
0.2895843433000419
0.5077126824130949
0.7986121477243314
0.4309790128598791
0.46444265064576473
0.46741404669327563
0.33989760650654016
0.8536462816848094
0.49387538746487253
0.36830200899775895
0.38181955569608633
0.2998769014552388
0.3779387645074355
0.3617899702094348
0.33140162545454604
0.26958676754216426
0.3264721822143517
0.29568389118345295
0.34990677378611523
0.7659206873894375
0.34917770216841654
0.22932211279344009
0.38167047579812674
0.6468613982175956
0.31633613791219395
0.38648341882792037
0.38962090479981354
0.12303240036840762
0.33791780260617177
0.28092747964294595
0.10808416990910923
0.13734864301431907
0.06424382870679578
0.22037671570234435
0.24877777904676945
0.3847460199122837
0.4113044384889205
0.5611787087606027
0.37920990178730757
0.24415353763431813
0.31361038951344744
0.7870612709781802
0.3969949840794278
0.3351197750069412
0.3988944012427864
0.2787596463281912
0.23062861055212605
0.45952706287287753
0.18612233555386667
0.32790766501424246
0.3283368904567676
0.37949142969017435
0.5773688569498063
0.29120234838920067
0.3961690975597734
0.2746588875524916
0.39462261970743884
0.4618042074945553
0.5145689439506304
0.6488727650853906
0.5681327356314715
0.21984486242569776
0.3479662802073217
0.15295041977124488
0.4661166562108188
0.38895398010268567
0.1856573773804785
0.3712420524302595
0.25999784607732795
0.4396675634183122
0.32953247754605486
0.2567957730412086
0.20240808951789246
0.22567022520271438
0.478321850894117
0.37700771214418444
0.16363238233530916
0.38533770742295287
0.8224785093968688
0.3794294285021143
0.1989204780499488
0.2573329666198251
0.23035455947101385
0.7430939429819629
0.3072645816762056
0.3123724585275259
0.5016955897213942
0.4544100109930774
0.3656648991231189
0.2753055361381726
0.3539509241806107
0.7647604801848024
0.29638397850283343
0.5108805144260242
0.14239792466637607
0.6798299669502939
0.20054879217728677
0.32799700974995444
0.23752664956040748
0.2737789820255057
0.36883728012024786
0.09264520758481044
0.21072450962075878
0.8078470705557209
0.5346452075186433
0.31160616810924757
0.532270932290202
0.2563090110891287
0.5743596721487819
0.21278552303271298
0.05406677059409445
0.3462018365554072
0.36774528295808107
0.6891844180988412
0.6388375450643538
0.38353411337259946
0.5581028873670393
0.8480346093273893
0.27105171712985776
0.464107474447695
0.3155579719213724
0.16538222718237872
0.8252644540365673
0.3781851286712133
0.6794435005650356
CELL_DATA 4886
TENSORS stress float
-7.187633386404315e6 1.0118395075426366e7 0.0
1.0118395075426366e7 4.693279283031577e7 0.0
0.0 0.0 0.0

-2.3576188148269344e7 1.6253727504459912e7 0.0
1.6253727504459912e7 5.589463924226853e6 0.0
0.0 0.0 0.0

-1.3460043513742466e7 2.8411854027379617e7 0.0
2.8411854027379617e7 -1.3494849768332545e7 0.0
0.0 0.0 0.0

-3.4303220601926567e6 2.7507276371570457e7 0.0
2.7507276371570457e7 1.6081058075158466e7 0.0
0.0 0.0 0.0

-1.1137956062402274e6 3.32873738985389e7 0.0
3.32873738985389e7 -1.2964282381355944e6 0.0
0.0 0.0 0.0

1.2158309239766407e6 2.5406876689801137e6 0.0
2.5406876689801137e6 -3.5135360671737604e6 0.0
0.0 0.0 0.0

8.546317869294822e7 3.9127846698064536e7 0.0
3.9127846698064536e7 2.246607931778748e7 0.0
0.0 0.0 0.0

987751.8003888354 3.0245024957415066e6 0.0
3.0245024957415066e6 -6.320898777841002e7 0.0
0.0 0.0 0.0

-6.639503939106733e6 1.1955642576871177e7 0.0
1.1955642576871177e7 4.83856365811006e7 0.0
0.0 0.0 0.0

4.0196075942680193e6 2.3153063976831693e7 0.0
2.3153063976831693e7 3.022051085826113e7 0.0
0.0 0.0 0.0

96892.74316049973 2.6593521715006903e7 0.0
2.6593521715006903e7 -9.355953827806078e6 0.0
0.0 0.0 0.0

829357.3471533377 4.130279297836967e7 0.0
4.130279297836967e7 -1.4998950419495015e6 0.0
0.0 0.0 0.0

-166460.80892478675 1.115897089509018e7 0.0
1.115897089509018e7 -5.760444124517883e7 0.0
0.0 0.0 0.0

1.2130665335139866e8 4.3198304579679884e7 0.0
4.3198304579679884e7 2.48122139202722e7 0.0
0.0 0.0 0.0

589099.7574277325 2.751207013501195e7 0.0
2.751207013501195e7 -9.302657795836965e6 0.0
0.0 0.0 0.0

2.717863614669809e6 3.9527401839972027e6 0.0
3.9527401839972027e6 -2.1606190496157102e7 0.0
0.0 0.0 0.0

-5.429869764883403e6 2.19450455847984e7 0.0
2.19450455847984e7 -2.910826531784631e7 0.0
0.0 0.0 0.0

-1.0902375996848978e6 1.7132340618730035e7 0.0
1.7132340618730035e7 -3.868366678440394e7 0.0
0.0 0.0 0.0

-7.80227933072184e6 407051.21990593226 0.0
407051.21990593226 3.697356818899293e7 0.0
0.0 0.0 0.0

1.8316192851613658e6 3.1222944070824273e7 0.0
3.1222944070824273e7 -8.654817366801975e6 0.0
0.0 0.0 0.0

1.7169353426847458e6 1.3621804572934704e7 0.0
1.3621804572934704e7 -2.702209298881851e7 0.0
0.0 0.0 0.0

2.7522888900240166e6 4.076552935301204e7 0.0
4.076552935301204e7 -1.4006646418378814e6 0.0
0.0 0.0 0.0

-9.405005085942322e6 1.163807737566675e7 0.0
1.163807737566675e7 2.3822740526633758e7 0.0
0.0 0.0 0.0

-1.9176329001435257e7 2.96347465818561e7 0.0
2.96347465818561e7 -1.3647015506090717e6 0.0
0.0 0.0 0.0

-2.012211879753366e6 1.4975842366159234e7 0.0
1.4975842366159234e7 -5.143765413013463e7 0.0
0.0 0.0 0.0

3.69783294161134e7 5.849844498817188e7 0.0
5.849844498817188e7 -1.0501205415595578e7 0.0
0.0 0.0 0.0

5.7442448787841514e7 2.95906311795398e7 0.0
2.95906311795398e7 1.2750269573143883e7 0.0
0.0 0.0 0.0

-5.8332005127932485e6 1.9676156459369484e7 0.0
1.9676156459369484e7 3.3308789203768082e7 0.0
0.0 0.0 0.0

2.7712252893589865e6 3.928964554768186e6 0.0
3.928964554768186e6 -2.2130733192502186e7 0.0
0.0 0.0 0.0

-8.734163245075632e6 -997332.5871049354 0.0
-997332.5871049354 2.1104032448098354e7 0.0
0.0 0.0 0.0

-9.777463405405397e6 1.3285308183617147e7 0.0
1.3285308183617147e7 2.186526305437982e7 0.0
0.0 0.0 0.0

1.105810410957897e6 1.0251129192908091e7 0.0
1.0251129192908091e7 -1.0330603882110655e7 0.0
0.0 0.0 0.0

3.8081754348919606e6 2.6526160327786967e7 0.0
2.6526160327786967e7 1.1776171854998272e7 0.0
0.0 0.0 0.0

-217756.67478194565 2.3454458439811427e7 0.0
2.3454458439811427e7 247400.59923794866 0.0
0.0 0.0 0.0

-2.6818132269601314e6 2.9207022361338053e7 0.0
2.9207022361338053e7 6.579128419617673e6 0.0
0.0 0.0 0.0

-1.0765086430260003e7 1.0203051405954575e7 0.0
1.0203051405954575e7 2.0785894387962695e7 0.0
0.0 0.0 0.0

-150242.45414446807 1.5149879095315864e7 0.0
1.5149879095315864e7 -8.690376538832856e6 0.0
0.0 0.0 0.0

-1.9229674652684336e6 2.877398230227354e7 0.0
2.877398230227354e7 7.3408766836967785e6 0.0
0.0 0.0 0.0

-7.324094611373343e6 1.8750210752673212e7 0.0
1.8750210752673212e7 -5.435674871234498e7 0.0
0.0 0.0 0.0

-2.705465902448914e6 3.5962150119647175e7 0.0
3.5962150119647175e7 2.0624560413744594e6 0.0
0.0 0.0 0.0

-1.3507593169337958e6 1.1266576585542759e7 0.0
1.1266576585542759e7 -6.28022224660403e7 0.0
0.0 0.0 0.0

-1.666033116708304e7 3.04571157257634e7 0.0
3.04571157257634e7 -1.461320192992582e7 0.0
0.0 0.0 0.0

-2.5015076100821355e6 3.496343816805049e7 0.0
3.496343816805049e7 1.9406070837763096e6 0.0
0.0 0.0 0.0

-9.312118039901005e6 7.656365128093474e6 0.0
7.656365128093474e6 3.328279536167249e7 0.0
0.0 0.0 0.0

1.0123714211455397e6 1.3447602943897566e7 0.0
1.3447602943897566e7 -2.9701576170096368e7 0.0
0.0 0.0 0.0

-4.483894824309077e6 2.0944827003873404e7 0.0
2.0944827003873404e7 3.0925715807586536e7 0.0
0.0 0.0 0.0

1.9909345534617957e6 2.6234560698256966e7 0.0
2.6234560698256966e7 -1.5112895349908406e7 0.0
0.0 0.0 0.0

-1.109653161528608e6 1.4499342928571172e7 0.0
1.4499342928571172e7 -9.787830731551675e6 0.0
0.0 0.0 0.0

1.459935211632967e6 3.0084466830966175e6 0.0
3.0084466830966175e6 -5.215188551265193e7 0.0
0.0 0.0 0.0

7.252230665184847e6 2.0603914313909218e7 0.0
2.0603914313909218e7 2.4174101782669835e7 0.0
0.0 0.0 0.0

35546.96230651175 3.4861384356815286e7 0.0
3.4861384356815286e7 -279158.63022753154 0.0
0.0 0.0 0.0

-1.6454474613504551e7 1.3757730490590384e7 0.0
1.3757730490590384e7 4.847919648542369e6 0.0
0.0 0.0 0.0

1.5079846258702017e6 3.072025425778267e6 0.0
3.072025425778267e6 -5.42410213338853e7 0.0
0.0 0.0 0.0

-941621.8148710049 3.2002745293361206e7 0.0
3.2002745293361206e7 1.5396438395042368e6 0.0
0.0 0.0 0.0

8.404293142037936e6 2.042011077124917e7 0.0
2.042011077124917e7 2.9079040426233634e7 0.0
0.0 0.0 0.0

-9.754987434304873e6 3.107871655797917e7 0.0
3.107871655797917e7 6.515962506123302e6 0.0
0.0 0.0 0.0

674298.343624983 3.928590809114436e6 0.0
3.928590809114436e6 -6.950108257944253e7 0.0
0.0 0.0 0.0

-1.7419803299981225e6 3.630176078285532e7 0.0
3.630176078285532e7 2.1771935882504685e6 0.0
0.0 0.0 0.0

9.246407220813036e6 2.199927759449771e7 0.0
2.199927759449771e7 5.534954986595968e7 0.0
0.0 0.0 0.0

1.6520676081712134e6 1.2185334231007213e7 0.0
1.2185334231007213e7 -3.3164574124642994e7 0.0
0.0 0.0 0.0

-3.66944320996732e6 2.1310216562441308e7 0.0
2.1310216562441308e7 -1.4556114287537396e7 0.0
0.0 0.0 0.0

4.2818376724868625e7 3.2965473160613704e7 0.0
3.2965473160613704e7 4.8240354322170485e6 0.0
0.0 0.0 0.0

-5.610680767029764e6 2.4634399522116385e7 0.0
2.4634399522116385e7 -1.7448787524417274e7 0.0
0.0 0.0 0.0

-9.575400076151114e6 2.210491810295299e6 0.0
2.210491810295299e6 2.1968470383713394e7 0.0
0.0 0.0 0.0

-547106.0823406089 7.405291564059612e6 0.0
7.405291564059612e6 219791.65091738323 0.0
0.0 0.0 0.0

1.2585935623631068e6 4.623117694560234e6 0.0
4.623117694560234e6 -5.075196339194495e7 0.0
0.0 0.0 0.0

521300.30783574283 9.607871730677579e6 0.0
9.607871730677579e6 -5.72036025613384e7 0.0
0.0 0.0 0.0

-1.8461992962886803e6 3.1437038870414842e7 0.0
3.1437038870414842e7 560982.1773787866 0.0
0.0 0.0 0.0

5.424702482731249e6 2.1775329282952186e7 0.0
2.1775329282952186e7 4.5090867806835055e7 0.0
0.0 0.0 0.0

3.0145789603290338e7 2.2085298970062643e7 0.0
2.2085298970062643e7 6.134176005665533e6 0.0
0.0 0.0 0.0

-1.0098251247741863e7 9.529215768777952e6 0.0
9.529215768777952e6 3.0631909083271e7 0.0
0.0 0.0 0.0

-908587.8185608834 1.5128418654803202e7 0.0
1.5128418654803202e7 -4.7557254590820886e7 0.0
0.0 0.0 0.0

-6.692863190743063e6 2.0199337900794476e7 0.0
2.0199337900794476e7 -4.975983261884842e7 0.0
0.0 0.0 0.0

1.1862526568473324e7 2.1679389973857034e7 0.0
2.1679389973857034e7 7.334622538330352e7 0.0
0.0 0.0 0.0

-3.088101209187896e6 2.7693598988594677e7 0.0
2.7693598988594677e7 1.5522397998108499e7 0.0
0.0 0.0 0.0

-4.820740600508889e6 2.136980047816477e7 0.0
2.136980047816477e7 3.029646448531441e7 0.0
0.0 0.0 0.0

892547.662361254 1.634362721155784e7 0.0
1.634362721155784e7 1.2616995601718051e7 0.0
0.0 0.0 0.0

-4.262762364646799e6 2.1617598128212273e7 0.0
2.1617598128212273e7 -2.8605599466951687e7 0.0
0.0 0.0 0.0

-1.0253329974749242e6 2.3545564121313304e7 0.0
2.3545564121313304e7 -1.4119538745973228e7 0.0
0.0 0.0 0.0

670211.578471534 1.7206853899689715e7 0.0
1.7206853899689715e7 -2.3437593613389548e7 0.0
0.0 0.0 0.0

3.471277567253655e7 3.443440389189027e7 0.0
3.443440389189027e7 -2.638528112024458e6 0.0
0.0 0.0 0.0

-7.503560129631802e6 581891.5992608002 0.0
581891.5992608002 4.355216400905442e7 0.0
0.0 0.0 0.0

2.559085952920731e6 2.4480183814176988e7 0.0
2.4480183814176988e7 -1.7524842611561317e6 0.0
0.0 0.0 0.0

2.869338732298324e6 4.296569982338405e7 0.0
4.296569982338405e7 -2.4978435341907744e6 0.0
0.0 0.0 0.0

-3.3787423585066795e6 2.759073281681699e7 0.0
2.759073281681699e7 1.6196074811018044e7 0.0
0.0 0.0 0.0

2.3147892499128953e6 3.2663021913072667e6 0.0
3.2663021913072667e6 -3.153264837640621e7 0.0
0.0 0.0 0.0

409501.94882390695 9.086855819503436e6 0.0
9.086855819503436e6 -1.1786189456589352e7 0.0
0.0 0.0 0.0

3.613406543036972e6 2.5144663138342477e7 0.0
2.5144663138342477e7 1.0814690016841201e7 0.0
0.0 0.0 0.0

3.1506488684214845e7 6.0226291576445505e7 0.0
6.0226291576445505e7 -1.319173788321907e7 0.0
0.0 0.0 0.0

-5.294162040925771e6 1.0941085018895125e7 0.0
1.0941085018895125e7 5.9212543869882636e7 0.0
0.0 0.0 0.0

2.724587310051473e6 2.649698394757905e7 0.0
2.649698394757905e7 -7.98355806688754e6 0.0
0.0 0.0 0.0

-2.8256476221641353e6 2.4018010044678878e7 0.0
2.4018010044678878e7 -1.7836356884626385e7 0.0
0.0 0.0 0.0

-1.0303939233977189e6 1.320452727420997e7 0.0
1.320452727420997e7 -7.995727174273134e6 0.0
0.0 0.0 0.0

-2.2946911676339223e6 6.064197851645926e6 0.0
6.064197851645926e6 -1.7246469891361888e6 0.0
0.0 0.0 0.0

8.809695305564983e6 2.7609941960921943e7 0.0
2.7609941960921943e7 -3.985734905604707e6 0.0
0.0 0.0 0.0

-6.003217134495879e6 2.1201567374221127e7 0.0
2.1201567374221127e7 -3.9923722262703925e7 0.0
0.0 0.0 0.0

925125.8295474052 3.012914868624654e6 0.0
3.012914868624654e6 -6.3044638609110996e7 0.0
0.0 0.0 0.0

-3.731481491006242e6 2.8385011669573054e7 0.0
2.8385011669573054e7 1.3989596380581867e7 0.0
0.0 0.0 0.0

747411.8585490063 1.050275872884288e7 0.0
1.050275872884288e7 -4.468189057036839e7 0.0
0.0 0.0 0.0

667759.7906846032 3.9226775915266774e6 0.0
3.9226775915266774e6 -7.029054526224327e7 0.0
0.0 0.0 0.0

-2.451196349824887e6 2.6044022259736393e7 0.0
2.6044022259736393e7 1.7608056981963918e7 0.0
0.0 0.0 0.0

-6.948742579428607e6 2.2060701713071257e7 0.0
2.2060701713071257e7 -2.5214217568241723e7 0.0
0.0 0.0 0.0

-9.428533203541994e6 1.1805507565279018e7 0.0
1.1805507565279018e7 2.6307735576734506e7 0.0
0.0 0.0 0.0

-936479.1942862594 3.398379292125615e7 0.0
3.398379292125615e7 1.5961686039477007e6 0.0
0.0 0.0 0.0

-542733.7747910533 1.3448684359804975e7 0.0
1.3448684359804975e7 -5.311396049960667e6 0.0
0.0 0.0 0.0

-3.9627478791932054e6 1.7040032204426307e7 0.0
1.7040032204426307e7 1.651922990634057e7 0.0
0.0 0.0 0.0

-7.21548121710079e6 748051.4544130473 0.0
748051.4544130473 4.384922830422282e7 0.0
0.0 0.0 0.0

1.3087087133643813e6 1.755431526420405e7 0.0
1.755431526420405e7 -2.1736729374703627e7 0.0
0.0 0.0 0.0

1.919027380760333e6 4.0301192257742375e7 0.0
4.0301192257742375e7 -1.6728746756133796e6 0.0
0.0 0.0 0.0

-9.203252995783342e6 1.0978900387866458e7 0.0
1.0978900387866458e7 2.209659466713421e7 0.0
0.0 0.0 0.0

-887361.5524101891 9.6839890785354e6 0.0
9.6839890785354e6 -6.19693083626523e7 0.0
0.0 0.0 0.0

-2.656595798638405e6 1.4642371560620485e7 0.0
1.4642371560620485e7 -2.718824151227571e6 0.0
0.0 0.0 0.0

1.4867847351081708e7 2.8269609199128713e7 0.0
2.8269609199128713e7 1.641520883718374e7 0.0
0.0 0.0 0.0

5.820262542717532e7 3.054406259919446e7 0.0
3.054406259919446e7 1.233154421044173e7 0.0
0.0 0.0 0.0

2.374660672941381e6 6.717806802868338e6 0.0
6.717806802868338e6 -2.8495458591756243e7 0.0
0.0 0.0 0.0

-8.557089123165958e6 2.0907378635913018e7 0.0
2.0907378635913018e7 -5.100508025480435e7 0.0
0.0 0.0 0.0

2.0305588607111163e6 6.60425502796182e6 0.0
6.60425502796182e6 -3.0004490936518364e7 0.0
0.0 0.0 0.0

2.554658448375877e6 3.3366569323312e6 0.0
3.3366569323312e6 -3.2837366867466904e7 0.0
0.0 0.0 0.0

4.8083544499938615e7 1.851255059722137e7 0.0
1.851255059722137e7 3.1944088142400626e6 0.0
0.0 0.0 0.0

-1.4834234144538706e7 4.88929244804571e7 0.0
4.88929244804571e7 3.8476659163793568e6 0.0
0.0 0.0 0.0

-5.791151321463564e6 1.9201151343707003e7 0.0
1.9201151343707003e7 -4.563210336600532e7 0.0
0.0 0.0 0.0

-1.5509212968563128e7 2.8883127232392628e7 0.0
2.8883127232392628e7 -4.707013118759831e6 0.0
0.0 0.0 0.0

2.2442241183238253e6 3.3887729960973547e6 0.0
3.3887729960973547e6 -4.344067492148528e7 0.0
0.0 0.0 0.0

-1.0258136976341974e7 3.0840205763013925e7 0.0
3.0840205763013925e7 7.386320096757059e6 0.0
0.0 0.0 0.0

1.5409251241034232e7 4.1177419299876615e7 0.0
4.1177419299876615e7 -5.841628756564494e6 0.0
0.0 0.0 0.0

-6.932137210884232e6 1.3356540373319166e7 0.0
1.3356540373319166e7 4.511127961519905e7 0.0
0.0 0.0 0.0

2.2245516730504863e7 5.85423475080322e7 0.0
5.85423475080322e7 -8.214580728638083e6 0.0
0.0 0.0 0.0

-1.2119143069601583e6 2.4743361117928576e7 0.0
2.4743361117928576e7 -1.0899031297949445e6 0.0
0.0 0.0 0.0

1.3370352696990669e6 2.9488437492902004e6 0.0
2.9488437492902004e6 -5.560951023951582e7 0.0
0.0 0.0 0.0

4.3484348711958334e7 2.581986064611825e7 0.0
2.581986064611825e7 1.1592078129712876e7 0.0
0.0 0.0 0.0

-1.5450754538704967e6 2.5247126114246324e7 0.0
2.5247126114246324e7 1.807883632526988e7 0.0
0.0 0.0 0.0

770457.7931205705 6.978025769449607e6 0.0
6.978025769449607e6 -4.955922426974382e7 0.0
0.0 0.0 0.0

3.0979452856721533e6 3.188602646369028e7 0.0
3.188602646369028e7 -7.569959447898931e6 0.0
0.0 0.0 0.0

2.939137081647724e6 2.5490532073203612e7 0.0
2.5490532073203612e7 -9.196540752868293e6 0.0
0.0 0.0 0.0

-4.95763937313409e6 2.3070529933712296e7 0.0
2.3070529933712296e7 -1.7950788319745794e7 0.0
0.0 0.0 0.0

-1.1695095829997985e6 2.474358612300653e7 0.0
2.474358612300653e7 -1.2149994094469007e7 0.0
0.0 0.0 0.0

1.8878017126801062e7 2.9245839604384307e7 0.0
2.9245839604384307e7 1.627290383675232e7 0.0
0.0 0.0 0.0

-1.1001186430531181e6 7.782938555210394e6 0.0
7.782938555210394e6 -8.711171623804596e7 0.0
0.0 0.0 0.0

-5.321997436499066e6 2.9347542557641655e7 0.0
2.9347542557641655e7 1.3107918726469703e7 0.0
0.0 0.0 0.0

681235.8484101136 4.847124124503942e6 0.0
4.847124124503942e6 -2.738307824586498e6 0.0
0.0 0.0 0.0

-6.1159651646765955e6 1.8011513689495523e7 0.0
1.8011513689495523e7 3.418154657714931e7 0.0
0.0 0.0 0.0

2.9117496119683627e6 3.9427279402970173e6 0.0
3.9427279402970173e6 -2.839842029278744e7 0.0
0.0 0.0 0.0

-6.285121222957104e6 -217180.4237517992 0.0
-217180.4237517992 5.2169321538147636e7 0.0
0.0 0.0 0.0

1.1498095717392992e6 1.8662124753317636e7 0.0
1.8662124753317636e7 -2.682034787430888e7 0.0
0.0 0.0 0.0

197848.25000927714 2.0974468764201324e6 0.0
2.0974468764201324e6 -2.7162323554318096e6 0.0
0.0 0.0 0.0

6.725602865646067e6 2.161501395228978e7 0.0
2.161501395228978e7 2.7770046807949714e7 0.0
0.0 0.0 0.0

-2.7499969763777684e6 3.515232858315704e7 0.0
3.515232858315704e7 4.638999918649897e6 0.0
0.0 0.0 0.0

-7.153999164626576e6 1.3908976853183254e6 0.0
1.3908976853183254e6 5.001477501494965e7 0.0
0.0 0.0 0.0

-1.0414442683284725e6 2.5152361818222657e7 0.0
2.5152361818222657e7 1.1060183728183832e7 0.0
0.0 0.0 0.0

9.36156290288765e6 2.944736397852349e7 0.0
2.944736397852349e7 -5.311800834727211e6 0.0
0.0 0.0 0.0

-1.8186252304940897e6 3.029589800967586e7 0.0
3.029589800967586e7 346164.6268763369 0.0
0.0 0.0 0.0

-7.3404013227725625e6 2.6551002424875394e7 0.0
2.6551002424875394e7 -1.4025780319270208e7 0.0
0.0 0.0 0.0

-1.168177753209849e6 3.0412335968847655e7 0.0
3.0412335968847655e7 2.4836545927972547e6 0.0
0.0 0.0 0.0

-8.72366628507544e6 2.0941475385626078e7 0.0
2.0941475385626078e7 -2.7640584154525314e7 0.0
0.0 0.0 0.0

2.9105159299242117e7 3.3583007803776674e7 0.0
3.3583007803776674e7 -2.580028740818087e6 0.0
0.0 0.0 0.0

-2.7424490337587795e6 2.255500544245197e7 0.0
2.255500544245197e7 -1.9568425617572673e7 0.0
0.0 0.0 0.0

-1.3788374168447424e6 2.3086476709155742e7 0.0
2.3086476709155742e7 3.0924057730076805e7 0.0
0.0 0.0 0.0

7.94940143939514e6 2.646171686661262e7 0.0
2.646171686661262e7 1.7832629095047813e7 0.0
0.0 0.0 0.0

1.2861993444031756e6 1.2324955407217804e7 0.0
1.2324955407217804e7 -3.1933004216179546e7 0.0
0.0 0.0 0.0

-5.543688780723777e6 1.6259865264805356e7 0.0
1.6259865264805356e7 1.5483798283413628e7 0.0
0.0 0.0 0.0

-3.7532872775728684e6 4.158684165243855e7 0.0
4.158684165243855e7 1.3857960278674853e6 0.0
0.0 0.0 0.0

-3.7772402549388297e6 2.4110271755565964e7 0.0
2.4110271755565964e7 2.0675913161691535e7 0.0
0.0 0.0 0.0

6.543406382010742e6 4.470744991280199e7 0.0
4.470744991280199e7 -2.074291204578247e6 0.0
0.0 0.0 0.0

439392.35051259026 1.8177124040282816e7 0.0
1.8177124040282816e7 -2.8683879844572283e7 0.0
0.0 0.0 0.0

-3.2159469470196147e7 3.3058789417483374e7 0.0
3.3058789417483374e7 -1.4444163243057117e7 0.0
0.0 0.0 0.0

1.4596451199436001e6 5.129921804680748e6 0.0
5.129921804680748e6 -6.1955206672994755e7 0.0
0.0 0.0 0.0

2.0063275366140142e7 4.499016881143948e7 0.0
4.499016881143948e7 -5.499486743331704e6 0.0
0.0 0.0 0.0

-2.466282075332088e7 4.015300731610249e7 0.0
4.015300731610249e7 6.78709136159745e6 0.0
0.0 0.0 0.0

3.707329715890102e6 2.2974190659130435e7 0.0
2.2974190659130435e7 2.730746282244455e7 0.0
0.0 0.0 0.0

-4.555035555812522e7 4.047592850709335e7 0.0
4.047592850709335e7 5.336846644497514e6 0.0
0.0 0.0 0.0

1.6001066006330177e6 3.0381058810689487e6 0.0
3.0381058810689487e6 -5.74641488680651e7 0.0
0.0 0.0 0.0

-3.1187030157561144e6 2.36851249112486e7 0.0
2.36851249112486e7 2.2422344599744957e7 0.0
0.0 0.0 0.0

-1.0048850295718743e7 1.0817648079172429e7 0.0
1.0817648079172429e7 1.9094800098671485e7 0.0
0.0 0.0 0.0

2.404244049338829e6 2.7707439860484786e6 0.0
2.7707439860484786e6 -2.9997731295390975e7 0.0
0.0 0.0 0.0

1.6918019309221464e6 2.532933150980303e7 0.0
2.532933150980303e7 -1.16423671166354e7 0.0
0.0 0.0 0.0

-9.236184502447769e6 5.0997611197387844e7 0.0
5.0997611197387844e7 5.662084430443789e6 0.0
0.0 0.0 0.0

-1.7050570946396314e7 2.1214294039709948e7 0.0
2.1214294039709948e7 2.644158472190872e6 0.0
0.0 0.0 0.0

-4.681825804717098e7 3.362952783072734e7 0.0
3.362952783072734e7 -2.9567304448511396e6 0.0
0.0 0.0 0.0

6.203403933557525e7 3.1334250448765274e7 0.0
3.1334250448765274e7 2.4317400837069377e7 0.0
0.0 0.0 0.0

-1.0653742382916488e7 1.949478693649883e7 0.0
1.949478693649883e7 -1.1063042724086434e8 0.0
0.0 0.0 0.0

-174224.41804927588 2.389753677884235e7 0.0
2.389753677884235e7 -1.5584134601587089e7 0.0
0.0 0.0 0.0

-827919.5277304053 2.2358119300165467e7 0.0
2.2358119300165467e7 3.1357452620803684e7 0.0
0.0 0.0 0.0

3.03363694432973e6 2.902084137984086e7 0.0
2.902084137984086e7 -1.1374398682358444e7 0.0
0.0 0.0 0.0

-72661.3568589242 3.383461937476083e7 0.0
3.383461937476083e7 -401252.39746740035 0.0
0.0 0.0 0.0

4.931176062883004e6 2.038287643830642e7 0.0
2.038287643830642e7 1.5792066973079115e7 0.0
0.0 0.0 0.0

5.699529861849123e6 4.353849339974602e7 0.0
4.353849339974602e7 -2.033695833596586e6 0.0
0.0 0.0 0.0

-9.637939581974946e6 1.1734589447284674e7 0.0
1.1734589447284674e7 2.226228112860151e7 0.0
0.0 0.0 0.0

8.219617433686657e7 4.872401184870083e7 0.0
4.872401184870083e7 3.713818441429455e7 0.0
0.0 0.0 0.0

4.26471508988918e6 3.392224861520674e7 0.0
3.392224861520674e7 -7.397634743778339e6 0.0
0.0 0.0 0.0

6.399896970847094e6 1.9165719113744054e7 0.0
1.9165719113744054e7 2.2464860002858773e7 0.0
0.0 0.0 0.0

-1.4811782637863794e7 3.09345950686168e7 0.0
3.09345950686168e7 1.6104464535471443e6 0.0
0.0 0.0 0.0

2.753675497179291e6 2.1447356642086126e7 0.0
2.1447356642086126e7 2.1929432642043624e7 0.0
0.0 0.0 0.0

2.5521211349428813e6 3.1813848682337474e7 0.0
3.1813848682337474e7 -7.026732229396353e6 0.0
0.0 0.0 0.0

1.1672918982225172e6 9.246432099258764e6 0.0
9.246432099258764e6 -4.377041634062923e7 0.0
0.0 0.0 0.0

-2.3106813886902123e6 2.771242723075316e7 0.0
2.771242723075316e7 7.9277729587499555e6 0.0
0.0 0.0 0.0

-8.089877464903071e6 2.787092068837885e7 0.0
2.787092068837885e7 4.42960443939035e6 0.0
0.0 0.0 0.0

817448.7497912636 9.106026128931995e6 0.0
9.106026128931995e6 -1.4724515193339108e7 0.0
0.0 0.0 0.0

-3.653849944772289e6 2.845237613687951e7 0.0
2.845237613687951e7 1.3990778981650459e7 0.0
0.0 0.0 0.0

-4.937177549359903e6 7.953575605419277e6 0.0
7.953575605419277e6 6.342227263013201e7 0.0
0.0 0.0 0.0

-1.2238521512184094e6 1.3927588425312065e7 0.0
1.3927588425312065e7 -1.5629223080802748e6 0.0
0.0 0.0 0.0

-1.4606219931439888e7 2.8360105689466037e7 0.0
2.8360105689466037e7 -1.383992173813763e7 0.0
0.0 0.0 0.0

5.774484083664252e7 3.895765741813928e7 0.0
3.895765741813928e7 2.5945052344164588e7 0.0
0.0 0.0 0.0

-524952.8763844818 1.7589445502118982e7 0.0
1.7589445502118982e7 -3.772738572443456e7 0.0
0.0 0.0 0.0

1.6745302445604168e6 7.0955726257674135e6 0.0
7.0955726257674135e6 -4.657288918029627e7 0.0
0.0 0.0 0.0

1.416785851223068e7 2.7152029357273996e7 0.0
2.7152029357273996e7 6.986127805728354e6 0.0
0.0 0.0 0.0

-350111.4514604509 1.4358884280280473e7 0.0
1.4358884280280473e7 1.7333495338958323e7 0.0
0.0 0.0 0.0

-592636.8050159747 3.237370791670556e7 0.0
3.237370791670556e7 400733.52251021285 0.0
0.0 0.0 0.0

-98088.63897927571 2.769196825880776e7 0.0
2.769196825880776e7 -8.78309380940539e6 0.0
0.0 0.0 0.0

907703.5565738557 2.8048459701760933e7 0.0
2.8048459701760933e7 -1.1114349247231064e7 0.0
0.0 0.0 0.0

-1.5563043516614686e6 2.379885215707903e7 0.0
2.379885215707903e7 -1.0364653206015075e7 0.0
0.0 0.0 0.0

1.6581167101508938e6 1.0123063282359423e7 0.0
1.0123063282359423e7 -1.31997584028502e7 0.0
0.0 0.0 0.0

4.848229185145005e7 3.5140569438631274e7 0.0
3.5140569438631274e7 2.345656121878934e7 0.0
0.0 0.0 0.0

4.0313786207155995e6 2.1614372779469345e7 0.0
2.1614372779469345e7 1.3958896587684285e7 0.0
0.0 0.0 0.0

-4.335856913594003e6 4.026335171154028e7 0.0
4.026335171154028e7 3.8623332081211368e6 0.0
0.0 0.0 0.0

-4.844575579064545e7 2.838836491648263e7 0.0
2.838836491648263e7 3.4673209638615362e6 0.0
0.0 0.0 0.0

2.8876443263717815e6 3.567902576709412e6 0.0
3.567902576709412e6 -2.6439704458780356e7 0.0
0.0 0.0 0.0

1.2943484295214189e6 2.4085032195878852e7 0.0
2.4085032195878852e7 9.010438975706005e6 0.0
0.0 0.0 0.0

-6.6623822317055585e6 1.99829335460534e7 0.0
1.99829335460534e7 -2.6449361389311623e7 0.0
0.0 0.0 0.0

-553429.2641271669 2.1355936104126982e7 0.0
2.1355936104126982e7 -2.6982122019635666e7 0.0
0.0 0.0 0.0

-8.038526961370403e6 -342725.62402400543 0.0
-342725.62402400543 3.5889805233110495e7 0.0
0.0 0.0 0.0

776607.2330163121 1.6463829775956893e7 0.0
1.6463829775956893e7 -2.533238001070254e7 0.0
0.0 0.0 0.0

-1.4410331568059895e7 2.0285179152323704e7 0.0
2.0285179152323704e7 -6.751138386527798e7 0.0
0.0 0.0 0.0

904799.0681664161 1.5676290761824464e7 0.0
1.5676290761824464e7 -2.6911628532059863e7 0.0
0.0 0.0 0.0

3.6943086748510264e6 2.622064391650266e7 0.0
2.622064391650266e7 -1.0538417068276929e7 0.0
0.0 0.0 0.0

4.477943967570209e7 2.7945861435744822e7 0.0
2.7945861435744822e7 1.0546924145299772e7 0.0
0.0 0.0 0.0

-3.791849356092112e6 1.7402864978198804e7 0.0
1.7402864978198804e7 4.627644133714086e7 0.0
0.0 0.0 0.0

-7.481120787497073e6 2.7913608525543123e7 0.0
2.7913608525543123e7 -1.477500599743298e7 0.0
0.0 0.0 0.0

547838.7670451339 2.229377879483273e7 0.0
2.229377879483273e7 1.1569378166422867e6 0.0
0.0 0.0 0.0

-8.107786537726978e6 2.509871932176562e7 0.0
2.509871932176562e7 -1.8965647723202825e7 0.0
0.0 0.0 0.0

4.565473269596999e7 3.488534034966311e7 0.0
3.488534034966311e7 2.0430649633449953e7 0.0
0.0 0.0 0.0

-4.37357684144579e6 2.8554612320862897e7 0.0
2.8554612320862897e7 1.47994441460823e7 0.0
0.0 0.0 0.0

3.158602129798441e6 2.590267922904329e7 0.0
2.590267922904329e7 -3.033975714863997e6 0.0
0.0 0.0 0.0

1.4164360386976618e6 3.6506341559502885e7 0.0
3.6506341559502885e7 -1.7859189509291342e6 0.0
0.0 0.0 0.0

-2.132441905392453e6 2.7627083989770953e7 0.0
2.7627083989770953e7 8.987482454151057e6 0.0
0.0 0.0 0.0

-3.299376622453969e6 2.799540877416483e6 0.0
2.799540877416483e6 9.341088781848899e7 0.0
0.0 0.0 0.0

1.5777750611211602e6 2.5391612179865435e7 0.0
2.5391612179865435e7 -1.688823439714898e7 0.0
0.0 0.0 0.0

-1.5833674734271253e6 3.540175778099428e7 0.0
3.540175778099428e7 2.6768977759277616e6 0.0
0.0 0.0 0.0

-1.7105251595655647e6 4.029371349582706e6 0.0
4.029371349582706e6 4.2093236727909325e6 0.0
0.0 0.0 0.0

-5.145622490856191e6 1.9616269120091673e7 0.0
1.9616269120091673e7 3.2786386150862582e7 0.0
0.0 0.0 0.0

-4.721228921635398e6 2.1171442633230265e7 0.0
2.1171442633230265e7 -1.847460887594034e7 0.0
0.0 0.0 0.0

1.8965582921056282e6 3.5612672751392024e6 0.0
3.5612672751392024e6 -3.750280905016828e7 0.0
0.0 0.0 0.0

-1.9926209145823382e6 4.223976158544508e7 0.0
4.223976158544508e7 2.363410537367312e6 0.0
0.0 0.0 0.0

1.5630902369722314e6 1.6863976608278528e7 0.0
1.6863976608278528e7 -2.2986434144857243e7 0.0
0.0 0.0 0.0

-3.5344550494716875e6 2.29439951933104e7 0.0
2.29439951933104e7 2.450874821922429e7 0.0
0.0 0.0 0.0

276734.68611826375 6.97565896001964e6 0.0
6.97565896001964e6 -8.074127247936213e7 0.0
0.0 0.0 0.0

-5.274609882098367e6 3.978753520328172e7 0.0
3.978753520328172e7 3.2573338298319974e6 0.0
0.0 0.0 0.0

-1.1203146909406193e7 2.0877152215971496e7 0.0
2.0877152215971496e7 -3.9805519950146265e7 0.0
0.0 0.0 0.0

3.0326329971026853e6 2.2859764623136246e6 0.0
2.2859764623136246e6 -1.6723904677416053e7 0.0
0.0 0.0 0.0

-969968.6784094332 1.2891149144990345e7 0.0
1.2891149144990345e7 -3.525865749579023e6 0.0
0.0 0.0 0.0

-2.1651904950765394e7 4.033593805376105e7 0.0
4.033593805376105e7 5.862362451912731e6 0.0
0.0 0.0 0.0

8.3052669088040665e6 1.9092475072769918e7 0.0
1.9092475072769918e7 2.6559943885102797e7 0.0
0.0 0.0 0.0

-1.0871517564390523e7 4.7921207767731614e7 0.0
4.7921207767731614e7 3.535772943921405e6 0.0
0.0 0.0 0.0

-8.983681812919704e6 9.16533022542401e6 0.0
9.16533022542401e6 3.44752602040118e7 0.0
0.0 0.0 0.0

-1.1164721123463996e6 1.0721446329699222e7 0.0
1.0721446329699222e7 -8.994972419941083e7 0.0
0.0 0.0 0.0

1.0580529334474808e8 3.5386524010644004e7 0.0
3.5386524010644004e7 1.2808076229897399e7 0.0
0.0 0.0 0.0

-541669.7677410044 3.3426172155963223e7 0.0
3.3426172155963223e7 550614.544073385 0.0
0.0 0.0 0.0

-6.714711840592517e6 3.427303719638138e7 0.0
3.427303719638138e7 7.743636036054323e6 0.0
0.0 0.0 0.0

-1.9193370090517886e6 3.057170799138941e7 0.0
3.057170799138941e7 5.923684990295533e6 0.0
0.0 0.0 0.0

1.2123289348623404e7 2.317082585734349e7 0.0
2.317082585734349e7 7.397876380317308e7 0.0
0.0 0.0 0.0

1.3955754268508088e6 3.969141961780106e6 0.0
3.969141961780106e6 -4.4303467537108086e7 0.0
0.0 0.0 0.0

51987.00601199269 1.5746648592948554e7 0.0
1.5746648592948554e7 -9.966335071643744e6 0.0
0.0 0.0 0.0

1.2611182016043171e7 4.09763967687215e7 0.0
4.09763967687215e7 -5.358569609465648e6 0.0
0.0 0.0 0.0

-624891.1697236933 1.2765338813689496e7 0.0
1.2765338813689496e7 -5.002111885637077e7 0.0
0.0 0.0 0.0

-2.5594195663033336e7 2.4211385199894093e7 0.0
2.4211385199894093e7 2.1363287412555683e6 0.0
0.0 0.0 0.0

-7.971235745068112e6 2.8283132354058143e7 0.0
2.8283132354058143e7 2.933889069449501e6 0.0
0.0 0.0 0.0

718491.108242343 2.3050144420008875e7 0.0
2.3050144420008875e7 5.337700005549743e6 0.0
0.0 0.0 0.0

1.6010520662017204e6 1.6080667095886324e7 0.0
1.6080667095886324e7 -2.4693383456241738e7 0.0
0.0 0.0 0.0

6.281603969744721e6 2.2040239539137337e7 0.0
2.2040239539137337e7 4.839212363026478e7 0.0
0.0 0.0 0.0

1.9504794159152888e7 4.137240202884156e7 0.0
4.137240202884156e7 -6.172792180855284e6 0.0
0.0 0.0 0.0

-5.324532379986908e7 5.797518319816248e6 0.0
5.797518319816248e6 4.919956851676799e6 0.0
0.0 0.0 0.0

6.304795183754003e7 5.7110531749963544e7 0.0
5.7110531749963544e7 -9.219884543977909e6 0.0
0.0 0.0 0.0

1.8637293566188436e7 4.1686648809249826e7 0.0
4.1686648809249826e7 -6.632624953500811e6 0.0
0.0 0.0 0.0

2.534755802573465e6 3.6321543180158385e6 0.0
3.6321543180158385e6 -2.5383477907672312e7 0.0
0.0 0.0 0.0

-3.221150050364404e6 3.54380086743786e7 0.0
3.54380086743786e7 2.8300198988685412e6 0.0
0.0 0.0 0.0

5.360571042581424e7 1.9207628413559336e7 0.0
1.9207628413559336e7 3.729037829482071e6 0.0
0.0 0.0 0.0

-3.712888002802614e6 1.014459978787107e7 0.0
1.014459978787107e7 6.887896173882452e7 0.0
0.0 0.0 0.0

1.611224052204852e6 2.57135199795139e7 0.0
2.57135199795139e7 -1.6266173026810326e7 0.0
0.0 0.0 0.0

3.372370270760727e7 2.3452834212563686e7 0.0
2.3452834212563686e7 6.705027368412806e6 0.0
0.0 0.0 0.0

2.6641983860627646e6 2.6266314612159256e7 0.0
2.6266314612159256e7 -1.2675059370556934e7 0.0
0.0 0.0 0.0

1.728485332581859e6 4.746040447916768e6 0.0
4.746040447916768e6 -4.787078792476457e7 0.0
0.0 0.0 0.0

225484.6634944321 3.322207936417624e7 0.0
3.322207936417624e7 -1.5069484028101554e6 0.0
0.0 0.0 0.0

-5.922134510603103e6 2.052430970588624e7 0.0
2.052430970588624e7 -2.3720726220376536e7 0.0
0.0 0.0 0.0

4.812645631744174e6 3.603027694863986e7 0.0
3.603027694863986e7 -6.021405013967358e6 0.0
0.0 0.0 0.0

-1.8328810707492344e6 1.3133156567295294e7 0.0
1.3133156567295294e7 7.116444999203984e7 0.0
0.0 0.0 0.0

-1.360351149599534e6 2.3115433545536645e7 0.0
2.3115433545536645e7 -1.2429618216064563e7 0.0
0.0 0.0 0.0

1.1548193216950689e6 1.190512905690881e7 0.0
1.190512905690881e7 -3.448185866251972e7 0.0
0.0 0.0 0.0

7.36527139485452e6 2.967682702123423e7 0.0
2.967682702123423e7 -6.901605935732149e6 0.0
0.0 0.0 0.0

-4.0436363855611472e6 2.2548221206338506e7 0.0
2.2548221206338506e7 -1.2026487922271503e7 0.0
0.0 0.0 0.0

-5.252081219701927e6 5.186492270099389e6 0.0
5.186492270099389e6 6.3351495122866854e7 0.0
0.0 0.0 0.0

5.095784089722497e6 2.2874597424404312e7 0.0
2.2874597424404312e7 2.809634467932863e7 0.0
0.0 0.0 0.0

-932481.1797423214 1.2310302852567093e7 0.0
1.2310302852567093e7 -5.418133677356134e7 0.0
0.0 0.0 0.0

5.87058807498898e6 3.5646718522644185e7 0.0
3.5646718522644185e7 -5.764181218854109e6 0.0
0.0 0.0 0.0

5.635579943426323e6 2.682103390850574e7 0.0
2.682103390850574e7 1.7122242012710918e7 0.0
0.0 0.0 0.0

1.921277312417565e6 1.0614993321393758e7 0.0
1.0614993321393758e7 -3.387103347819526e7 0.0
0.0 0.0 0.0

8.007154099990083e7 3.425020644328056e7 0.0
3.425020644328056e7 1.8710321628799632e7 0.0
0.0 0.0 0.0

4.753992513307272e6 3.4800570494595766e7 0.0
3.4800570494595766e7 -5.968713252479054e6 0.0
0.0 0.0 0.0

-7.610321983369304e6 -83285.50457358935 0.0
-83285.50457358935 3.974479364445265e7 0.0
0.0 0.0 0.0

-6.522505823294129e6 5.588514283692302e6 0.0
5.588514283692302e6 5.930356416936765e7 0.0
0.0 0.0 0.0

2.164831156827364e6 1.532197579985361e6 0.0
1.532197579985361e6 -4.019115187398757e7 0.0
0.0 0.0 0.0

-2.594159508609373e6 3.0015768790545337e7 0.0
3.0015768790545337e7 5.191477419471087e6 0.0
0.0 0.0 0.0

-2.20758965915265e6 2.2847520593956415e7 0.0
2.2847520593956415e7 -1.1473939838296548e7 0.0
0.0 0.0 0.0

3.009590522370997e6 2.824933299930977e7 0.0
2.824933299930977e7 -1.288252854917637e7 0.0
0.0 0.0 0.0

-8.87839193653582e6 2.8959724412512756e6 0.0
2.8959724412512756e6 3.052996289192446e7 0.0
0.0 0.0 0.0

1.4096282683896865e6 2.8639161172791366e7 0.0
2.8639161172791366e7 -9.186972882355317e6 0.0
0.0 0.0 0.0

-5.746777492859274e6 5.061435999682252e6 0.0
5.061435999682252e6 6.3324994461514086e7 0.0
0.0 0.0 0.0

1.3649909454035208e7 2.5532419438412305e7 0.0
2.5532419438412305e7 8.87305503513886e6 0.0
0.0 0.0 0.0

-1.4355548057395536e6 1.5042699775522016e7 0.0
1.5042699775522016e7 -5.171871492069247e7 0.0
0.0 0.0 0.0

-182815.63467280194 1.2370520241885625e7 0.0
1.2370520241885625e7 -5.463438429268692e7 0.0
0.0 0.0 0.0

-5.173325696038229e6 1.9138619606179673e7 0.0
1.9138619606179673e7 3.4858139290095374e7 0.0
0.0 0.0 0.0

-1.5853693779878123e6 2.4784656140627325e7 0.0
2.4784656140627325e7 6.803010621979443e6 0.0
0.0 0.0 0.0

-6661.048893648738 5.194342476876751e6 0.0
5.194342476876751e6 -358681.7610583423 0.0
0.0 0.0 0.0

-1.7506116309826898e6 2.4369474903935667e7 0.0
2.4369474903935667e7 -1.0447633905237481e7 0.0
0.0 0.0 0.0

-3.787428004071363e6 3.294852975522372e7 0.0
3.294852975522372e7 8.13091950559388e6 0.0
0.0 0.0 0.0

1.0839393026363513e7 2.295694810084542e7 0.0
2.295694810084542e7 6.049680049772726e7 0.0
0.0 0.0 0.0

1.9780549560020916e7 2.9306534777787365e7 0.0
2.9306534777787365e7 -906131.3828647695 0.0
0.0 0.0 0.0

-2.8078424808274694e6 2.3752496461257935e6 0.0
2.3752496461257935e6 9.064461285578945e7 0.0
0.0 0.0 0.0

-4.354778943926491e6 1.299426616418699e7 0.0
1.299426616418699e7 5.653412285154494e7 0.0
0.0 0.0 0.0

-5.7548833552920725e6 1.93550389658642e7 0.0
1.93550389658642e7 2.7966411103421092e7 0.0
0.0 0.0 0.0

3.325335911364502e6 2.2807183469598327e7 0.0
2.2807183469598327e7 1.4812067646463953e7 0.0
0.0 0.0 0.0

-1.0205453117015623e7 7.277101027482565e6 0.0
7.277101027482565e6 2.2388720127200603e7 0.0
0.0 0.0 0.0

-1.3422698045553435e7 2.4743498024852898e7 0.0
2.4743498024852898e7 -1.1626935762843044e7 0.0
0.0 0.0 0.0

2.1873844679017514e6 5.255077929275162e6 0.0
5.255077929275162e6 -4.220081840581298e7 0.0
0.0 0.0 0.0

-1.1101871651712917e7 2.036028229134623e7 0.0
2.036028229134623e7 -5.6850586998443514e7 0.0
0.0 0.0 0.0

2.9698303944159457e6 2.153136786466606e7 0.0
2.153136786466606e7 9.465780375551322e6 0.0
0.0 0.0 0.0

2.6259188823067687e7 3.679144528293001e7 0.0
3.679144528293001e7 -5.41171447287094e6 0.0
0.0 0.0 0.0

3.39765937071039e6 2.704865093452897e7 0.0
2.704865093452897e7 -9.239285822961153e6 0.0
0.0 0.0 0.0

-3.1857151224530056e7 3.1928696506139867e7 0.0
3.1928696506139867e7 -1.1285465430155545e7 0.0
0.0 0.0 0.0

-500553.80163830426 3.467474679999153e7 0.0
3.467474679999153e7 -1.949846894243066e6 0.0
0.0 0.0 0.0

-2.7812679342804616e6 8.312333436029491e6 0.0
8.312333436029491e6 -1.2138044347149488e6 0.0
0.0 0.0 0.0

-7.136186566789575e6 4.9153903943976454e7 0.0
4.9153903943976454e7 5.433462012173583e6 0.0
0.0 0.0 0.0

-1.5149205065951818e6 2.550295553734172e7 0.0
2.550295553734172e7 5.213398605970767e6 0.0
0.0 0.0 0.0

-1.044941980024911e7 1.1909167734335085e7 0.0
1.1909167734335085e7 2.292444833391748e7 0.0
0.0 0.0 0.0

-2.2218156955242474e6 2.555158526628895e7 0.0
2.555158526628895e7 2.810065579427898e6 0.0
0.0 0.0 0.0

-7.865837160720845e6 1.4832747072132134e6 0.0
1.4832747072132134e6 9.98660680493582e6 0.0
0.0 0.0 0.0

-368363.30577330664 1.1390589226900648e7 0.0
1.1390589226900648e7 -2.6399640544001136e7 0.0
0.0 0.0 0.0

-897358.935195405 1.583849184475435e7 0.0
1.583849184475435e7 -4.440460870031948e7 0.0
0.0 0.0 0.0

-1.4577930027132545e7 2.744908930876848e7 0.0
2.744908930876848e7 -1.2090684952230213e7 0.0
0.0 0.0 0.0

-1.4884976119784769e6 2.3314060902192984e7 0.0
2.3314060902192984e7 2.882645863831305e7 0.0
0.0 0.0 0.0

-1.662499091315267e6 2.269013217127328e7 0.0
2.269013217127328e7 -8.368809986573502e6 0.0
0.0 0.0 0.0

2.8109459483956145e6 4.1816926287700464e6 0.0
4.1816926287700464e6 -1.695712599016887e7 0.0
0.0 0.0 0.0

374410.2339171448 3.1065652270126924e7 0.0
3.1065652270126924e7 -6.007896313049374e6 0.0
0.0 0.0 0.0

918336.2605419683 3.629208261118098e7 0.0
3.629208261118098e7 -3.2621925236748615e6 0.0
0.0 0.0 0.0

9.611355685227174e6 2.9060029041992556e7 0.0
2.9060029041992556e7 -5.901197440940369e6 0.0
0.0 0.0 0.0

-9.1379490556126e6 1.4852299255553858e7 0.0
1.4852299255553858e7 2.4237178346370112e7 0.0
0.0 0.0 0.0

-3.575849872482892e6 2.179856199259169e7 0.0
2.179856199259169e7 -2.578528192937254e7 0.0
0.0 0.0 0.0

-7.86082396237886e6 4.1756266317220576e7 0.0
4.1756266317220576e7 3.6313610346014304e6 0.0
0.0 0.0 0.0

-6.478286115468247e6 4.07810434090807e7 0.0
4.07810434090807e7 3.42598783340367e6 0.0
0.0 0.0 0.0

-4.762764600586906e6 1.910747210210972e7 0.0
1.910747210210972e7 -4.167118536945303e7 0.0
0.0 0.0 0.0

-5.258178622167822e6 2.2251755541119482e7 0.0
2.2251755541119482e7 -1.555611856509119e7 0.0
0.0 0.0 0.0

1.7553085593476696e6 2.2569925121660426e7 0.0
2.2569925121660426e7 7.669319948500042e6 0.0
0.0 0.0 0.0

733631.7574616447 1.1276011279709905e7 0.0
1.1276011279709905e7 -4.221693468339365e7 0.0
0.0 0.0 0.0

-5.925867983195737e6 1.4309038881485915e7 0.0
1.4309038881485915e7 4.64104542341526e7 0.0
0.0 0.0 0.0

-3.38593977495227e6 1.4766397168650914e7 0.0
1.4766397168650914e7 -9.34747169423995e7 0.0
0.0 0.0 0.0

1.6305542324461978e7 4.6407726766287684e7 0.0
4.6407726766287684e7 -7.358480689193069e6 0.0
0.0 0.0 0.0

1.038192374929281e7 2.0552028090787243e7 0.0
2.0552028090787243e7 4.3390471234059e7 0.0
0.0 0.0 0.0

8.301219055271061e6 2.1681432503379155e7 0.0
2.1681432503379155e7 5.490576245112326e7 0.0
0.0 0.0 0.0

3.396344177354802e7 3.0516658755680077e7 0.0
3.0516658755680077e7 1.6025919335039819e7 0.0
0.0 0.0 0.0

-125628.54917012504 2.3745118783112265e7 0.0
2.3745118783112265e7 4.0218739931144286e6 0.0
0.0 0.0 0.0

465941.48618985526 3.0464245642210975e7 0.0
3.0464245642210975e7 -5.655666748029837e6 0.0
0.0 0.0 0.0

-3.984108200408364e7 3.2784650521941245e7 0.0
3.2784650521941245e7 -1.2940453563253809e7 0.0
0.0 0.0 0.0

-85437.13020544237 2.2624746818462014e7 0.0
2.2624746818462014e7 1.5507305346098493e6 0.0
0.0 0.0 0.0

-4.599119112321448e6 2.693111056759815e7 0.0
2.693111056759815e7 6.849980007093884e6 0.0
0.0 0.0 0.0

2.6542765776188076e6 3.755956345921109e6 0.0
3.755956345921109e6 -3.4678207458661765e7 0.0
0.0 0.0 0.0

-1.563218389488197e7 2.6741213023510687e7 0.0
2.6741213023510687e7 -9.659561716215152e6 0.0
0.0 0.0 0.0

-1.9360800782752763e7 5.166373508015286e7 0.0
5.166373508015286e7 6.314743101645536e6 0.0
0.0 0.0 0.0

-8.68866434894357e6 4.696128213987851e6 0.0
4.696128213987851e6 3.424549983068861e7 0.0
0.0 0.0 0.0

1.9015400420621898e7 3.796776453336116e7 0.0
3.796776453336116e7 -5.506627884139761e6 0.0
0.0 0.0 0.0

-860423.717710454 1.2420776519734897e7 0.0
1.2420776519734897e7 9.854707875882863e7 0.0
0.0 0.0 0.0

-7.686101792712914e6 -32900.09612020391 0.0
-32900.09612020391 3.957021816944595e7 0.0
0.0 0.0 0.0

-1.821584353721035e7 2.310175638931089e7 0.0
2.310175638931089e7 -7.372156797778976e7 0.0
0.0 0.0 0.0

-349330.59111289866 2.5013971938551787e7 0.0
2.5013971938551787e7 -1.3705062422601322e7 0.0
0.0 0.0 0.0

1.0137638554433648e6 3.748670231650974e7 0.0
3.748670231650974e7 -1.6769012060954995e6 0.0
0.0 0.0 0.0

-9.686729296460778e6 2.2353161605658483e7 0.0
2.2353161605658483e7 -1.5101653103442812e7 0.0
0.0 0.0 0.0

-1.137570853277379e6 1.226884646337206e7 0.0
1.226884646337206e7 -1.5948986688593985e6 0.0
0.0 0.0 0.0

-363612.2374535955 3.297635586987977e7 0.0
3.297635586987977e7 -3.2661867805142985e6 0.0
0.0 0.0 0.0

-3.868226141418298e6 3.940480455206796e7 0.0
3.940480455206796e7 3.214672147743009e6 0.0
0.0 0.0 0.0

1.4766310751918817e6 3.77769244650553e7 0.0
3.77769244650553e7 -2.2112290801519193e6 0.0
0.0 0.0 0.0

-5.735039227894288e6 1.3634243485395456e7 0.0
1.3634243485395456e7 -1.0106941467290981e8 0.0
0.0 0.0 0.0

-7.521830077422204e6 2.2967717459293935e7 0.0
2.2967717459293935e7 -2.687350437436607e7 0.0
0.0 0.0 0.0

-4.3135407336517945e6 3.9333171953029106e6 0.0
3.9333171953029106e6 7.45950333683189e7 0.0
0.0 0.0 0.0

1.883193006806554e7 2.618909440962346e7 0.0
2.618909440962346e7 8.250897446093316e7 0.0
0.0 0.0 0.0

-6.086116384158722e7 5.632059845532715e6 0.0
5.632059845532715e6 4.632831808125112e6 0.0
0.0 0.0 0.0

5.646066670474904e7 3.701404345981588e7 0.0
3.701404345981588e7 1.3409749190930892e7 0.0
0.0 0.0 0.0

-990930.1439196803 1.8872797272141825e7 0.0
1.8872797272141825e7 -3.6378210550941825e7 0.0
0.0 0.0 0.0

1.9555240673745507e6 6.009198221246237e6 0.0
6.009198221246237e6 -9.715799304950286e6 0.0
0.0 0.0 0.0

7.58158376626921e7 3.501817118594086e7 0.0
3.501817118594086e7 1.9459186669288017e6 0.0
0.0 0.0 0.0

2.078819110263992e6 1.3088636328332014e7 0.0
1.3088636328332014e7 -3.3255277681189574e7 0.0
0.0 0.0 0.0

4.224935281892005e7 3.1109162648578115e7 0.0
3.1109162648578115e7 1.750680449498336e7 0.0
0.0 0.0 0.0

-1.036350536798877e6 3.431133723171318e7 0.0
3.431133723171318e7 -1.1724020609629585e6 0.0
0.0 0.0 0.0

-5.571838649083006e6 3.35100304539378e7 0.0
3.35100304539378e7 8.074073645925976e6 0.0
0.0 0.0 0.0

-1.1829000852850396e6 1.633983072274176e7 0.0
1.633983072274176e7 -1.0894474384852866e7 0.0
0.0 0.0 0.0

-6.874211033418772e6 1.623902504969378e7 0.0
1.623902504969378e7 -9.89378009853929e6 0.0
0.0 0.0 0.0

-7.562993215041025e6 2.186138791742568e7 0.0
2.186138791742568e7 -2.5672554678478297e7 0.0
0.0 0.0 0.0

-1.9026771029274669e6 2.577607008731635e7 0.0
2.577607008731635e7 1.0678417248242596e7 0.0
0.0 0.0 0.0

5.323996500824015e6 2.5683663725527447e7 0.0
2.5683663725527447e7 1.3250397668959318e7 0.0
0.0 0.0 0.0

-1.1444287548751123e6 1.0863784270092089e7 0.0
1.0863784270092089e7 9.317014680286868e7 0.0
0.0 0.0 0.0

-1.5363112925292314e6 3.1890172169603456e7 0.0
3.1890172169603456e7 -416579.65007202886 0.0
0.0 0.0 0.0

2.1117560735501703e6 1.4989387522391554e6 0.0
1.4989387522391554e6 -4.037958886547296e7 0.0
0.0 0.0 0.0

-2.494473007248251e6 2.6310684712953277e7 0.0
2.6310684712953277e7 1.840050810058298e7 0.0
0.0 0.0 0.0

3.4631664205305926e6 2.55974298129871e7 0.0
2.55974298129871e7 1.5108062466037463e7 0.0
0.0 0.0 0.0

1.8477938378533017e7 3.1888735474421162e7 0.0
3.1888735474421162e7 -3.485441665562503e6 0.0
0.0 0.0 0.0

2.5057477904225877e6 3.106102528206313e7 0.0
3.106102528206313e7 -9.30960851024998e6 0.0
0.0 0.0 0.0

-5.300229957256814e6 4.4577285380556226e7 0.0
4.4577285380556226e7 2.0795372294076593e6 0.0
0.0 0.0 0.0

-3.797034207245457e6 9.265888075908238e6 0.0
9.265888075908238e6 1.1048609992750983e6 0.0
0.0 0.0 0.0

-1.5627054525525602e7 4.037578222656058e7 0.0
4.037578222656058e7 5.77619283722027e6 0.0
0.0 0.0 0.0

-1.998555372081073e6 3.4895472277405284e7 0.0
3.4895472277405284e7 3.715295143518021e6 0.0
0.0 0.0 0.0

-5.497686778565876e6 2.068818199274834e7 0.0
2.068818199274834e7 2.7850332848023612e7 0.0
0.0 0.0 0.0

4.676091887318665e7 3.1438510646207694e7 0.0
3.1438510646207694e7 3.9292800042852983e6 0.0
0.0 0.0 0.0

1.4147162432683501e6 2.345611069594642e7 0.0
2.345611069594642e7 -1.782335473205437e7 0.0
0.0 0.0 0.0

-1.4962600235668551e6 3.391079200615468e7 0.0
3.391079200615468e7 -251900.9833992281 0.0
0.0 0.0 0.0

-1.04308961204192e6 1.4753301577935262e7 0.0
1.4753301577935262e7 -1.1393188620994981e7 0.0
0.0 0.0 0.0

-390353.9686303865 2.507616579923673e7 0.0
2.507616579923673e7 1.707328262151818e7 0.0
0.0 0.0 0.0

-1.0841910216731614e7 1.7467861135719467e7 0.0
1.7467861135719467e7 -6.452776630228137e6 0.0
0.0 0.0 0.0

-1.516327642939974e7 2.5596291391501732e7 0.0
2.5596291391501732e7 -9.764000339946557e6 0.0
0.0 0.0 0.0

779261.5451660864 2.459277798132214e7 0.0
2.459277798132214e7 -1.3594588814648997e7 0.0
0.0 0.0 0.0

1.4861705963239705e7 1.8532683402621977e7 0.0
1.8532683402621977e7 5.240443239199668e6 0.0
0.0 0.0 0.0

102517.85321213212 2.262967698827984e7 0.0
2.262967698827984e7 -2.2766088514151916e7 0.0
0.0 0.0 0.0

-1.2110525937056653e6 2.2953718420950368e7 0.0
2.2953718420950368e7 2.880754265730569e7 0.0
0.0 0.0 0.0

-2.0393256544814765e7 2.4428039950520538e7 0.0
2.4428039950520538e7 -4.115648022734186e6 0.0
0.0 0.0 0.0

-3.3312493003899753e6 2.5540516470211726e7 0.0
2.5540516470211726e7 4.410312967246521e6 0.0
0.0 0.0 0.0

-9.919352672795065e6 1.0492769153301379e7 0.0
1.0492769153301379e7 3.1929650038053364e7 0.0
0.0 0.0 0.0

4.996959567484762e6 2.2190686033935912e7 0.0
2.2190686033935912e7 2.7108885018378578e7 0.0
0.0 0.0 0.0

2.2542939465669766e7 4.19117864047702e7 0.0
4.19117864047702e7 -7.189038423217612e6 0.0
0.0 0.0 0.0

-5.151709254337121e7 3.3402992329957206e7 0.0
3.3402992329957206e7 -3.0543278757883236e6 0.0
0.0 0.0 0.0

1.511141528316895e7 5.287531628556828e7 0.0
5.287531628556828e7 -3.761371385659633e6 0.0
0.0 0.0 0.0

-1.7536477996868733e7 2.954061109540442e7 0.0
2.954061109540442e7 -863245.5648302017 0.0
0.0 0.0 0.0

9.253720230377872e6 4.764487166776227e7 0.0
4.764487166776227e7 -2.4751745441735107e6 0.0
0.0 0.0 0.0

-1.0065795288044304e7 6.53716774935057e6 0.0
6.53716774935057e6 3.1360800817872703e7 0.0
0.0 0.0 0.0

2.2596955635307148e7 3.033701549636041e7 0.0
3.033701549636041e7 -1.0486552022985388e6 0.0
0.0 0.0 0.0

-5.213880967862783e6 4.125757877745418e7 0.0
4.125757877745418e7 4.170350418630085e6 0.0
0.0 0.0 0.0

-6.509889024181306e6 2.664078987920803e7 0.0
2.664078987920803e7 1.0974634943065238e6 0.0
0.0 0.0 0.0

-910751.7104502302 2.1006397347944006e7 0.0
2.1006397347944006e7 -2.9645618524248444e7 0.0
0.0 0.0 0.0

-8.224664837252111e6 3.644118617622057e7 0.0
3.644118617622057e7 6.646208585035637e6 0.0
0.0 0.0 0.0

-9.286796259926591e6 2.1824637377428427e7 0.0
2.1824637377428427e7 -1.0505540646028599e7 0.0
0.0 0.0 0.0

8.246792822072133e6 4.666652529745613e7 0.0
4.666652529745613e7 -4.781678082991523e6 0.0
0.0 0.0 0.0

-1.9496042151190948e7 4.067061126074461e7 0.0
4.067061126074461e7 6.737179885036917e6 0.0
0.0 0.0 0.0

1.5946339897893857e7 3.0693652871993553e7 0.0
3.0693652871993553e7 -2.960131820702321e6 0.0
0.0 0.0 0.0

2.8135447061667666e6 6.114764873477761e6 0.0
6.114764873477761e6 -2.2226870708735578e7 0.0
0.0 0.0 0.0

-8.702048279423032e6 2.136724876261681e7 0.0
2.136724876261681e7 -4.550998473210402e7 0.0
0.0 0.0 0.0

2.662868012840254e6 4.061357005011739e6 0.0
4.061357005011739e6 -1.870632851268715e7 0.0
0.0 0.0 0.0

8.335308839192681e6 2.1063932142737314e7 0.0
2.1063932142737314e7 4.077742372064757e7 0.0
0.0 0.0 0.0

8.612867342633178e6 2.8188133940319676e7 0.0
2.8188133940319676e7 -3.342730204046911e6 0.0
0.0 0.0 0.0

1.5035296105922867e7 3.838277108254117e7 0.0
3.838277108254117e7 -5.783209814563643e6 0.0
0.0 0.0 0.0

-5.137342649052709e6 2.0410663128381886e7 0.0
2.0410663128381886e7 3.2987557724220414e7 0.0
0.0 0.0 0.0

-159436.48880681396 1.7213079503992096e7 0.0
1.7213079503992096e7 -9.572353637638163e6 0.0
0.0 0.0 0.0

3.0012775455932175e6 1.0537761725949744e7 0.0
1.0537761725949744e7 3.996264828568439e6 0.0
0.0 0.0 0.0

-1.937122790356923e6 1.2828360854853828e7 0.0
1.2828360854853828e7 -7.724701777065149e7 0.0
0.0 0.0 0.0

3.3616879442782393e6 1.944470789476765e7 0.0
1.944470789476765e7 9.408825649850577e6 0.0
0.0 0.0 0.0

-1.8426159964335337e7 3.577647098717773e7 0.0
3.577647098717773e7 5.072026608253441e6 0.0
0.0 0.0 0.0

-1.9306951297214967e6 2.2884958426110987e7 0.0
2.2884958426110987e7 -1.6164710676510688e7 0.0
0.0 0.0 0.0

3.617208033738795e7 3.0010143041795474e7 0.0
3.0010143041795474e7 1.6800948313031696e7 0.0
0.0 0.0 0.0

-8.271837541786764e6 9.008559947193567e6 0.0
9.008559947193567e6 4.1299131062058054e7 0.0
0.0 0.0 0.0

-4.0589045212381475e7 3.738797768614715e7 0.0
3.738797768614715e7 -727202.4546925742 0.0
0.0 0.0 0.0

4.537455125774338e7 4.4491317900485046e7 0.0
4.4491317900485046e7 -8.507931782166662e6 0.0
0.0 0.0 0.0

-6.053919485043708e6 3.349891006308485e7 0.0
3.349891006308485e7 8.840701731993528e6 0.0
0.0 0.0 0.0

140113.45496637712 2.0756466832676023e7 0.0
2.0756466832676023e7 3.478543366255101e6 0.0
0.0 0.0 0.0

-3.184186571567161e6 1.919880527387608e7 0.0
1.919880527387608e7 4.273439447840126e7 0.0
0.0 0.0 0.0

-8.028146567343477e6 1.1144136600578395e6 0.0
1.1144136600578395e6 4.0903557937181145e7 0.0
0.0 0.0 0.0

706487.3552242247 2.2918021695140053e7 0.0
2.2918021695140053e7 -1.960677442287948e7 0.0
0.0 0.0 0.0

-1.4134256421259535e7 3.045658351745339e7 0.0
3.045658351745339e7 -1.5856467882849604e7 0.0
0.0 0.0 0.0

483170.8142154105 2.344031348484029e7 0.0
2.344031348484029e7 -1.2504438402932733e7 0.0
0.0 0.0 0.0

-2.2391208372347318e6 1.361389184490074e7 0.0
1.361389184490074e7 6.575512918780058e7 0.0
0.0 0.0 0.0

-272469.42957409844 1.7546232514477182e7 0.0
1.7546232514477182e7 -3.54678362060177e7 0.0
0.0 0.0 0.0

-1.3560894215203514e7 3.0161435136352934e7 0.0
3.0161435136352934e7 -1.6088525401552236e7 0.0
0.0 0.0 0.0

-1.1301040547752902e6 2.0394868747252356e7 0.0
2.0394868747252356e7 -2.955442089544465e7 0.0
0.0 0.0 0.0

3.715091701033861e7 2.9252288348627336e7 0.0
2.9252288348627336e7 1.855110645067355e7 0.0
0.0 0.0 0.0

-4.1366624436351433e6 1.1820506515558923e7 0.0
1.1820506515558923e7 6.04660790107466e7 0.0
0.0 0.0 0.0

2.2435320964059886e6 2.5686787630311422e7 0.0
2.5686787630311422e7 -402257.36700503924 0.0
0.0 0.0 0.0

-330881.6562205134 2.459475980633875e7 0.0
2.459475980633875e7 2.3366365977997806e7 0.0
0.0 0.0 0.0

7.021807733898872e6 3.668326469394781e7 0.0
3.668326469394781e7 -5.738715922199611e6 0.0
0.0 0.0 0.0

1.7188575724906456e6 1.165628537194774e7 0.0
1.165628537194774e7 -3.65136363844373e7 0.0
0.0 0.0 0.0

1.615649690870801e6 1.0859525064936057e7 0.0
1.0859525064936057e7 -1.4378912790714758e7 0.0
0.0 0.0 0.0

-1.9835801374444552e6 1.346789015093528e7 0.0
1.346789015093528e7 -6.6788183692062184e7 0.0
0.0 0.0 0.0

-1.3683871282519717e7 2.821341280646445e7 0.0
2.821341280646445e7 -6.218278030477823e6 0.0
0.0 0.0 0.0

-5.737365597332008e6 1.1707891658011539e7 0.0
1.1707891658011539e7 5.497379009520097e7 0.0
0.0 0.0 0.0

-1.2371774979328353e7 2.788797158802499e7 0.0
2.788797158802499e7 -1.1321707258710375e7 0.0
0.0 0.0 0.0

387334.0520159574 2.2086693082376234e7 0.0
2.2086693082376234e7 -1.3018339920231767e7 0.0
0.0 0.0 0.0

-569698.0499804616 1.025948709102274e7 0.0
1.025948709102274e7 -5.821715861413403e7 0.0
0.0 0.0 0.0

-4.129240060245363e6 1.7847087624998923e7 0.0
1.7847087624998923e7 4.314745099499355e7 0.0
0.0 0.0 0.0

5.089222488433167e6 2.1420104616050158e7 0.0
2.1420104616050158e7 1.802323556780964e7 0.0
0.0 0.0 0.0

-1.9437449382408056e6 1.5461015099918578e7 0.0
1.5461015099918578e7 -4.8069567320203476e7 0.0
0.0 0.0 0.0

1.5865501086466722e6 2.416078552596195e6 0.0
2.416078552596195e6 -4.518019997703297e7 0.0
0.0 0.0 0.0

-2.7500888608675124e6 2.5646059010078635e7 0.0
2.5646059010078635e7 1.86927617906281e7 0.0
0.0 0.0 0.0

-1.1600685524542456e7 2.8668326638295587e7 0.0
2.8668326638295587e7 -1.5424640520506877e7 0.0
0.0 0.0 0.0

1.0100075415475881e6 1.5940698535198579e7 0.0
1.5940698535198579e7 -1.680493100791733e7 0.0
0.0 0.0 0.0

-7.013929271156404e6 4.932850755545965e6 0.0
4.932850755545965e6 4.999480413038364e7 0.0
0.0 0.0 0.0

-5.427913187089099e6 588949.7598728621 0.0
588949.7598728621 1.138786718062141e7 0.0
0.0 0.0 0.0

-4.231288823449963e6 2.341249084371386e7 0.0
2.341249084371386e7 2.259248216838759e7 0.0
0.0 0.0 0.0

3.9542667840044186e7 3.299659993423638e7 0.0
3.299659993423638e7 2.3762569113497656e7 0.0
0.0 0.0 0.0

3.029097404548514e7 2.9624943115837358e7 0.0
2.9624943115837358e7 1.7573123276209384e7 0.0
0.0 0.0 0.0

-2.1783571665583663e7 2.8906146192761287e7 0.0
2.8906146192761287e7 -1.450316868850375e7 0.0
0.0 0.0 0.0

-5.646640139497023e6 2.014426480542755e7 0.0
2.014426480542755e7 -1.6225322325456176e7 0.0
0.0 0.0 0.0

-1.2858184846871281e7 2.9314244856383134e7 0.0
2.9314244856383134e7 -1.3127042890459334e7 0.0
0.0 0.0 0.0

-1.224081452142262e7 2.6915334943833172e7 0.0
2.6915334943833172e7 -1.446236004672924e7 0.0
0.0 0.0 0.0

-1.7862618779504783e6 1.4258079483874708e7 0.0
1.4258079483874708e7 -5.9040302054015055e7 0.0
0.0 0.0 0.0

-2.7078362095081653e6 4.4662159480025135e6 0.0
4.4662159480025135e6 487104.66423903697 0.0
0.0 0.0 0.0

-1.6083688631144278e6 8.268146039792015e6 0.0
8.268146039792015e6 2.701499720452431e6 0.0
0.0 0.0 0.0

1.753425076315655e6 2.097896701648267e7 0.0
2.097896701648267e7 2.4882072234775834e6 0.0
0.0 0.0 0.0

2.6583236450261474e7 2.9629020235037334e7 0.0
2.9629020235037334e7 1.5645456821361978e7 0.0
0.0 0.0 0.0

2.1454200928414627e6 2.2162739583165385e7 0.0
2.2162739583165385e7 1.133446400061277e7 0.0
0.0 0.0 0.0

-3.292543589440055e6 2.4673604698926244e7 0.0
2.4673604698926244e7 1.9382701750008136e7 0.0
0.0 0.0 0.0

-2.9622048533737905e7 1.599903303851588e7 0.0
1.599903303851588e7 6.800108612123564e6 0.0
0.0 0.0 0.0

4.1219383212404405e6 2.149692903203051e7 0.0
2.149692903203051e7 1.380111279333203e7 0.0
0.0 0.0 0.0

1.8369825465041073e6 6.783419681229728e6 0.0
6.783419681229728e6 -2.3242172913267083e7 0.0
0.0 0.0 0.0

-1.82873663146408e7 3.828286008829792e7 0.0
3.828286008829792e7 6.304103237586342e6 0.0
0.0 0.0 0.0

-6.580817978537966e6 2.6849651962635852e6 0.0
2.6849651962635852e6 5.27980509316736e7 0.0
0.0 0.0 0.0

-2.3998572650274765e6 2.4747648624079034e7 0.0
2.4747648624079034e7 -1.1927960781243315e7 0.0
0.0 0.0 0.0

1.2479946557917906e7 2.6010951234344393e7 0.0
2.6010951234344393e7 1.3560216431261221e7 0.0
0.0 0.0 0.0

-1.0711208493208213e7 2.830686426177181e7 0.0
2.830686426177181e7 -1.543102693449507e7 0.0
0.0 0.0 0.0

-4.913146474306727e6 1.9937288919921428e7 0.0
1.9937288919921428e7 -3.775176687565156e7 0.0
0.0 0.0 0.0

3.164277057739435e7 3.1323589791923933e7 0.0
3.1323589791923933e7 2.133518587727824e7 0.0
0.0 0.0 0.0

-4.5760690460656965e6 2.2517768595095295e7 0.0
2.2517768595095295e7 -2.6814149954158418e7 0.0
0.0 0.0 0.0

3.1107280661052284e6 2.2758167898127418e7 0.0
2.2758167898127418e7 1.5957557772957888e7 0.0
0.0 0.0 0.0

6.797551159373569e6 2.5452298841561515e7 0.0
2.5452298841561515e7 1.8406979051192995e7 0.0
0.0 0.0 0.0

-2.472105527093771e6 2.5385585741681483e7 0.0
2.5385585741681483e7 1.9807581671954248e7 0.0
0.0 0.0 0.0

-2.3558011768401572e6 2.5649404155987173e7 0.0
2.5649404155987173e7 1.3415085975773405e7 0.0
0.0 0.0 0.0

1.3337885145370774e6 5.851579944826096e6 0.0
5.851579944826096e6 -4.30953101829793e7 0.0
0.0 0.0 0.0

2.429543466517735e6 3.965704189800436e7 0.0
3.965704189800436e7 -2.4414913248831076e6 0.0
0.0 0.0 0.0

-8.109564981783763e6 2.4221768042617504e7 0.0
2.4221768042617504e7 -2.0765304104390915e7 0.0
0.0 0.0 0.0

4.463041976824804e7 2.78139998066602e7 0.0
2.78139998066602e7 1.9029511706536468e7 0.0
0.0 0.0 0.0

-1.1034318743517878e7 3.4885987433916e7 0.0
3.4885987433916e7 6.890220452007008e6 0.0
0.0 0.0 0.0

1.4986749794072825e6 4.774674504699547e6 0.0
4.774674504699547e6 -5.021766488629767e7 0.0
0.0 0.0 0.0

-1.706663034590825e6 2.2616064290433694e7 0.0
2.2616064290433694e7 8.800567397165662e6 0.0
0.0 0.0 0.0

2.318172760599881e7 2.650169056430915e7 0.0
2.650169056430915e7 1.2997160947025014e7 0.0
0.0 0.0 0.0

5.670061784476267e7 2.6059542010441687e7 0.0
2.6059542010441687e7 1.6470500572385574e7 0.0
0.0 0.0 0.0

-7.385605068637948e6 4.079854502917311e7 0.0
4.079854502917311e7 5.19986784667035e6 0.0
0.0 0.0 0.0

690320.2723560482 2.383465355098572e7 0.0
2.383465355098572e7 -2.11527239931688e7 0.0
0.0 0.0 0.0

-8.62848338682806e6 1.4017817407248173e7 0.0
1.4017817407248173e7 2.579642133224555e7 0.0
0.0 0.0 0.0

-7.17264251320437e6 2.9302003857436017e6 0.0
2.9302003857436017e6 5.091810569421829e7 0.0
0.0 0.0 0.0

2.963788449097463e6 2.1830126310767725e7 0.0
2.1830126310767725e7 9.539465172568077e6 0.0
0.0 0.0 0.0

1.7725534079250555e7 2.144052123191606e7 0.0
2.144052123191606e7 1.1678963632483315e7 0.0
0.0 0.0 0.0

-8.465116445988245e6 6.649302470729017e6 0.0
6.649302470729017e6 3.983782081775687e7 0.0
0.0 0.0 0.0

-3.0190495025857775e6 1.5482994960203791e7 0.0
1.5482994960203791e7 -727106.2721583012 0.0
0.0 0.0 0.0

-5.3113255968322065e6 2.4632425264354303e7 0.0
2.4632425264354303e7 -1.8285144580169562e7 0.0
0.0 0.0 0.0

-6.3255040674347505e6 2.040166481582394e7 0.0
2.040166481582394e7 -3.5225357231129795e7 0.0
0.0 0.0 0.0

1.1079676565980986e6 3.870511731644741e7 0.0
3.870511731644741e7 -1.9261342133512595e6 0.0
0.0 0.0 0.0

8.204813542357177e6 3.751639707702676e7 0.0
3.751639707702676e7 -6.022643111422339e6 0.0
0.0 0.0 0.0

7.564424137825888e6 5.134518624859899e7 0.0
5.134518624859899e7 -4.289160033551726e6 0.0
0.0 0.0 0.0

-1.9305398760495313e7 4.771862517307718e7 0.0
4.771862517307718e7 7.174641517528141e6 0.0
0.0 0.0 0.0

1.1174279562469114e7 2.2049954449601565e7 0.0
2.2049954449601565e7 4.103688173694694e7 0.0
0.0 0.0 0.0

-1.0665136942553576e7 2.0454697807664376e7 0.0
2.0454697807664376e7 -9.764560028402078e7 0.0
0.0 0.0 0.0

-9.583106726982176e6 2.262995621242305e6 0.0
2.262995621242305e6 2.920451316472543e7 0.0
0.0 0.0 0.0

-1.3010990539544733e7 1.8586840828817856e7 0.0
1.8586840828817856e7 -4.367528049933784e7 0.0
0.0 0.0 0.0

-5.969037570080904e6 1.882457858104386e7 0.0
1.882457858104386e7 -1.8904159032703776e7 0.0
0.0 0.0 0.0

9.227934236151315e6 2.251419904306774e7 0.0
2.251419904306774e7 3.920475002220916e7 0.0
0.0 0.0 0.0

-1.2648151563450703e7 2.117355428800621e7 0.0
2.117355428800621e7 -5.15783409477838e7 0.0
0.0 0.0 0.0

-9.788582765738824e6 1.9347664362936806e7 0.0
1.9347664362936806e7 -3.6332402939803936e7 0.0
0.0 0.0 0.0

2.60184600327212e7 2.9259275081304718e7 0.0
2.9259275081304718e7 1.3850870178775828e7 0.0
0.0 0.0 0.0

-7.043018357029389e6 2.4728774043450497e7 0.0
2.4728774043450497e7 -1.8401662389717262e7 0.0
0.0 0.0 0.0

1.4196159544646274e6 1.0664586980904026e7 0.0
1.0664586980904026e7 -4.14104308703728e7 0.0
0.0 0.0 0.0

1.8816626618475125e6 2.2043644984175745e7 0.0
2.2043644984175745e7 5.204008413068706e6 0.0
0.0 0.0 0.0

-1.2274545070340866e7 2.912115996444901e7 0.0
2.912115996444901e7 -1.6012528544448074e7 0.0
0.0 0.0 0.0

7.135995069252723e6 2.0691599426137764e7 0.0
2.0691599426137764e7 2.471970530969634e7 0.0
0.0 0.0 0.0

2.6945221272359937e6 4.0370451478231177e6 0.0
4.0370451478231177e6 -1.9249857469359055e7 0.0
0.0 0.0 0.0

-1.8576205652016324e6 3.3513736965394128e7 0.0
3.3513736965394128e7 817773.7283080205 0.0
0.0 0.0 0.0

-4.752934347802697e6 3.844088560054124e7 0.0
3.844088560054124e7 3.0719125962655256e6 0.0
0.0 0.0 0.0

-4.669835150389431e6 1.8220116479608424e7 0.0
1.8220116479608424e7 4.182153412940041e7 0.0
0.0 0.0 0.0

2.7164678233062206e6 2.376794878672205e7 0.0
2.376794878672205e7 1.177949802835224e7 0.0
0.0 0.0 0.0

6.140533109970891e6 2.5673990593101874e7 0.0
2.5673990593101874e7 1.932629521048265e7 0.0
0.0 0.0 0.0

-5.128543439880338e6 4.3647644645977646e7 0.0
4.3647644645977646e7 3.4751921489395504e6 0.0
0.0 0.0 0.0

-2.8825140475365575e6 2.438315385442721e7 0.0
2.438315385442721e7 2.0201968755429193e7 0.0
0.0 0.0 0.0

-8.731608090589173e6 635026.1024427551 0.0
635026.1024427551 3.3519697714537606e7 0.0
0.0 0.0 0.0

-4.164178951730365e6 3.808592521330601e7 0.0
3.808592521330601e7 4.737405142645345e6 0.0
0.0 0.0 0.0

490604.2228636183 3.257779693596485e7 0.0
3.257779693596485e7 -2.686823283003134e6 0.0
0.0 0.0 0.0

-2.390607640329383e6 2.4937231248675637e7 0.0
2.4937231248675637e7 4.1391253840356264e6 0.0
0.0 0.0 0.0

2.132765857749791e6 3.9213283801761486e7 0.0
3.9213283801761486e7 -2.557655798067142e6 0.0
0.0 0.0 0.0

2.0370751396263768e6 3.8270445492214635e7 0.0
3.8270445492214635e7 -2.0131826276695856e6 0.0
0.0 0.0 0.0

-2.8009204930359637e6 2.3931788701983534e7 0.0
2.3931788701983534e7 -1.3116394401037086e7 0.0
0.0 0.0 0.0

4.88463547622126e6 2.386354178521983e7 0.0
2.386354178521983e7 1.6282118674800197e7 0.0
0.0 0.0 0.0

1.085587730568979e6 1.0396677546632972e7 0.0
1.0396677546632972e7 -3.859188405935591e7 0.0
0.0 0.0 0.0

-1.702689715843293e7 1.9399906221282326e7 0.0
1.9399906221282326e7 -6.2541170160521165e7 0.0
0.0 0.0 0.0

-5.837642875961005e6 2.7082095535131343e7 0.0
2.7082095535131343e7 4.006552645881863e6 0.0
0.0 0.0 0.0

-4.851646244093582e7 4.039234241829424e7 0.0
4.039234241829424e7 -2.019418209678355e7 0.0
0.0 0.0 0.0

-1.0006480784136012e7 2.0852588856700335e7 0.0
2.0852588856700335e7 -3.4381473376352675e7 0.0
0.0 0.0 0.0

-5.381105859934582e7 3.962627275773747e7 0.0
3.962627275773747e7 -1.2091797080680894e7 0.0
0.0 0.0 0.0

-3.664280219022481e6 2.750679199997621e7 0.0
2.750679199997621e7 1.3849120554475626e7 0.0
0.0 0.0 0.0

-5.982348507126447e6 1.3457106441560532e6 0.0
1.3457106441560532e6 5.857330115759481e7 0.0
0.0 0.0 0.0

5.98363562680919e6 3.646860846231482e7 0.0
3.646860846231482e7 -5.705529695645556e6 0.0
0.0 0.0 0.0

-2.21093003266458e7 3.1600353880868867e7 0.0
3.1600353880868867e7 -1.520703176668717e7 0.0
0.0 0.0 0.0

753218.1102909278 2.4672612103295855e7 0.0
2.4672612103295855e7 -1.9031120627395768e7 0.0
0.0 0.0 0.0

-1.533671243054468e7 3.837057241563497e7 0.0
3.837057241563497e7 6.044733275210118e6 0.0
0.0 0.0 0.0

-9.56341200077903e6 1.033648341129358e7 0.0
1.033648341129358e7 3.105312371700811e7 0.0
0.0 0.0 0.0

194205.81373786367 1.1829751758852143e7 0.0
1.1829751758852143e7 -4.908869328368704e7 0.0
0.0 0.0 0.0

-1.956102238855526e7 3.775791884207431e7 0.0
3.775791884207431e7 5.4692731584374225e6 0.0
0.0 0.0 0.0

2.209960960667212e6 2.2885892896643773e7 0.0
2.2885892896643773e7 7.757994450289307e6 0.0
0.0 0.0 0.0

-1.0113470294602398e7 1.277139380310187e7 0.0
1.277139380310187e7 2.4219769437813185e7 0.0
0.0 0.0 0.0

-372215.6104176459 2.2472422496511478e7 0.0
2.2472422496511478e7 -1.3677817753375618e7 0.0
0.0 0.0 0.0

5.771085903557481e6 3.4459136917160474e7 0.0
3.4459136917160474e7 -6.557373229829593e6 0.0
0.0 0.0 0.0

-3.1729915613932338e7 1.6600744868438324e7 0.0
1.6600744868438324e7 6.481871028937349e6 0.0
0.0 0.0 0.0

-8.158537743480535e6 3.540605388446244e7 0.0
3.540605388446244e7 7.456876231121451e6 0.0
0.0 0.0 0.0

-487124.0533180451 2.3414097896538377e7 0.0
2.3414097896538377e7 -2.280199748680962e7 0.0
0.0 0.0 0.0

1.3255736366726607e6 1.0714803646381622e7 0.0
1.0714803646381622e7 -3.392467524319754e7 0.0
0.0 0.0 0.0

-921576.261922691 5.383405312457038e6 0.0
5.383405312457038e6 -3.471444724502531e6 0.0
0.0 0.0 0.0

962383.8430886082 2.079742976798704e7 0.0
2.079742976798704e7 -2.5124978826133315e7 0.0
0.0 0.0 0.0

-2.9321024994832393e7 3.122886824478656e7 0.0
3.122886824478656e7 -7.332036285182919e6 0.0
0.0 0.0 0.0

1.1015672599024875e7 5.10330493722619e7 0.0
5.10330493722619e7 -3.262285524217592e6 0.0
0.0 0.0 0.0

4.495328733447848e6 2.1377836793634158e7 0.0
2.1377836793634158e7 4.450188362807492e7 0.0
0.0 0.0 0.0

4.141795713898422e6 2.415319230376674e7 0.0
2.415319230376674e7 1.4449231440206544e7 0.0
0.0 0.0 0.0

1.1654327272302346e7 1.941073637383359e7 0.0
1.941073637383359e7 4.039560285246401e7 0.0
0.0 0.0 0.0

-5.0131306779355835e6 2.360430530454752e7 0.0
2.360430530454752e7 -1.6710436029578507e7 0.0
0.0 0.0 0.0

-4.759310893186264e6 1.779020435488601e7 0.0
1.779020435488601e7 4.323250857095148e7 0.0
0.0 0.0 0.0

-4.471012285549326e6 2.1731122391173128e7 0.0
2.1731122391173128e7 -1.807015495632091e7 0.0
0.0 0.0 0.0

-3.3435579832093876e7 4.229360031106168e7 0.0
4.229360031106168e7 7.026222380514678e6 0.0
0.0 0.0 0.0

-7.339025687162202e6 6.460345144232437e6 0.0
6.460345144232437e6 4.7429593207960226e7 0.0
0.0 0.0 0.0

-5.8493546482522935e6 1.2688155782243956e6 0.0
1.2688155782243956e6 5.927339046737782e7 0.0
0.0 0.0 0.0

296855.15731392335 1.5701487065575413e7 0.0
1.5701487065575413e7 -1.9319476588424474e7 0.0
0.0 0.0 0.0

3.642902854002056e6 4.911599471535968e6 0.0
4.911599471535968e6 -499850.2257958071 0.0
0.0 0.0 0.0

-1.1062099395416528e6 1.1402716921704793e7 0.0
1.1402716921704793e7 -6.201994649212368e7 0.0
0.0 0.0 0.0

-4.485178383138042e6 1.5133564275293265e7 0.0
1.5133564275293265e7 5.20407774092258e7 0.0
0.0 0.0 0.0

-1.1677769573993795e6 1.4507815597671472e7 0.0
1.4507815597671472e7 -4.7599602302141346e7 0.0
0.0 0.0 0.0

-7.885710612527084e6 2.475804395651764e6 0.0
2.475804395651764e6 3.912754228298382e7 0.0
0.0 0.0 0.0

-3.4567429034667574e6 3.4656539710058056e7 0.0
3.4656539710058056e7 3.855241846748205e6 0.0
0.0 0.0 0.0

6.921746676325933e6 3.51651575359144e7 0.0
3.51651575359144e7 -6.409218601431163e6 0.0
0.0 0.0 0.0

-4.7390937209406905e6 4.082230944183746e7 0.0
4.082230944183746e7 2.247504582876848e6 0.0
0.0 0.0 0.0

6.666163776362229e6 4.939832012457392e7 0.0
4.939832012457392e7 -2.543501761970614e6 0.0
0.0 0.0 0.0

3.100893901586808e6 4.404844545918295e7 0.0
4.404844545918295e7 -2.988169111525732e6 0.0
0.0 0.0 0.0

-7.176057769782405e6 2.8798873735669567e6 0.0
2.8798873735669567e6 4.892414346885833e7 0.0
0.0 0.0 0.0

947987.4061874337 5.237613728775917e6 0.0
5.237613728775917e6 -5.394768933499294e7 0.0
0.0 0.0 0.0

1.343652459516636e6 2.5831866944065463e7 0.0
2.5831866944065463e7 -1.3454459108542077e7 0.0
0.0 0.0 0.0

1.4890890090499474e6 2.7748126597457927e7 0.0
2.7748126597457927e7 -1.0596654475198198e7 0.0
0.0 0.0 0.0

1.5361037316959035e6 1.412200309820381e7 0.0
1.412200309820381e7 -2.7710283099809363e7 0.0
0.0 0.0 0.0

-8.892304267253553e6 1.8500432975709338e7 0.0
1.8500432975709338e7 -2.823924269271735e7 0.0
0.0 0.0 0.0

2.136614133311598e6 2.0876119072871022e7 0.0
2.0876119072871022e7 7.1220469274355285e6 0.0
0.0 0.0 0.0

-3.5907606646305155e6 2.985159839521046e7 0.0
2.985159839521046e7 1.0551983997096337e7 0.0
0.0 0.0 0.0

-1.1975571551609274e7 3.636157575793623e7 0.0
3.636157575793623e7 6.504390876790438e6 0.0
0.0 0.0 0.0

-3.299960959221851e6 2.1844348275671426e7 0.0
2.1844348275671426e7 -9.88950856470862e6 0.0
0.0 0.0 0.0

-1.4498474845146737e6 1.5525910341545941e7 0.0
1.5525910341545941e7 -1.5060841998130258e6 0.0
0.0 0.0 0.0

1.7015135531294867e6 3.15292097026912e6 0.0
3.15292097026912e6 -4.30861212043227e7 0.0
0.0 0.0 0.0

4.241720702048086e6 2.5512666512041543e7 0.0
2.5512666512041543e7 -6.324923972403216e6 0.0
0.0 0.0 0.0

1.0935684084412158e6 1.1211799970721897e7 0.0
1.1211799970721897e7 -3.654352421684886e7 0.0
0.0 0.0 0.0

-4.612449815157318e6 1.0238746811969656e7 0.0
1.0238746811969656e7 3.4904618857434373e6 0.0
0.0 0.0 0.0

-2.1323563759549637e6 1.3838949226231528e7 0.0
1.3838949226231528e7 -4.851347485609891e6 0.0
0.0 0.0 0.0

-5.647937818846403e6 2.8954642354453118e6 0.0
2.8954642354453118e6 5.280358961391823e6 0.0
0.0 0.0 0.0

-1.790960762581502e6 3.13088931305833e7 0.0
3.13088931305833e7 4.654822974586133e6 0.0
0.0 0.0 0.0

-619712.8596468391 2.1534724634598438e7 0.0
2.1534724634598438e7 -2.715715554731e7 0.0
0.0 0.0 0.0

-2.0763608934202865e6 1.0971170831950175e7 0.0
1.0971170831950175e7 -7.185508511153916e7 0.0
0.0 0.0 0.0

-1.0744454956156373e7 2.710130970042929e7 0.0
2.710130970042929e7 -8.831623909740362e6 0.0
0.0 0.0 0.0

-3.6185175611156195e7 3.6250841456533946e7 0.0
3.6250841456533946e7 -1.892117972550688e7 0.0
0.0 0.0 0.0

-2.4542125464565024e7 3.656443020371054e7 0.0
3.656443020371054e7 4.316329361488124e6 0.0
0.0 0.0 0.0

-1.5398645345004832e7 3.0409271731098697e7 0.0
3.0409271731098697e7 -1.5347189839279737e7 0.0
0.0 0.0 0.0

-7.15272653845996e6 1.903107679782526e7 0.0
1.903107679782526e7 -4.819065544514071e7 0.0
0.0 0.0 0.0

-1.0815742103873475e7 1.995622121297887e7 0.0
1.995622121297887e7 -3.605247468876004e7 0.0
0.0 0.0 0.0

-2.8376025009800635e7 3.331040800241451e7 0.0
3.331040800241451e7 -1.6075810821953412e7 0.0
0.0 0.0 0.0

-1.5767472421409944e7 2.053863504571589e7 0.0
2.053863504571589e7 -5.255824246940302e7 0.0
0.0 0.0 0.0

-4.02343732291957e6 2.27733569060653e7 0.0
2.27733569060653e7 2.6976332641949676e7 0.0
0.0 0.0 0.0

-9.940809823168313e6 3.161457928232382e6 0.0
3.161457928232382e6 2.692118304488129e7 0.0
0.0 0.0 0.0

553279.2220454765 3.2139188133367263e7 0.0
3.2139188133367263e7 -4.6095386150730755e6 0.0
0.0 0.0 0.0

-3.36161523177535e6 2.6323279604125213e7 0.0
2.6323279604125213e7 1.6602374461332912e7 0.0
0.0 0.0 0.0

-8.972646841586426e6 1.8842491451324832e6 0.0
1.8842491451324832e6 3.433178622224185e7 0.0
0.0 0.0 0.0

62302.757548220456 1.721286118198772e7 0.0
1.721286118198772e7 -3.5003016009824574e7 0.0
0.0 0.0 0.0

-1.5092668849063774e6 3.288917622820339e7 0.0
3.288917622820339e7 -328067.2198010093 0.0
0.0 0.0 0.0

711293.2092886721 2.1713468487509064e7 0.0
2.1713468487509064e7 -2.0221244405937039e6 0.0
0.0 0.0 0.0

-5.146414034054533e6 3.363919161527183e7 0.0
3.363919161527183e7 7.223328846684485e6 0.0
0.0 0.0 0.0

-2.606503665267612e7 3.374752023210296e7 0.0
3.374752023210296e7 -1.747483132546608e7 0.0
0.0 0.0 0.0

-1.2284459239940133e7 2.017013622274597e7 0.0
2.017013622274597e7 -4.094819764489061e7 0.0
0.0 0.0 0.0

6.594459450006915e6 2.4800507009213127e7 0.0
2.4800507009213127e7 2.0735314704614572e7 0.0
0.0 0.0 0.0

-3.7136489819075525e7 3.70111349904942e7 0.0
3.70111349904942e7 2.526163135660868e6 0.0
0.0 0.0 0.0

-8.82014456293521e6 1.2998570588012377e7 0.0
1.2998570588012377e7 2.4909117772901237e7 0.0
0.0 0.0 0.0

-4.1111741026979424e6 1.2298002527090779e7 0.0
1.2298002527090779e7 6.4073545415166825e7 0.0
0.0 0.0 0.0

-3.258717337725681e6 2.401159754847097e7 0.0
2.401159754847097e7 -1.311590621349045e7 0.0
0.0 0.0 0.0

5.808022423386628e6 4.3720616011164114e7 0.0
4.3720616011164114e7 -4.07562730257595e6 0.0
0.0 0.0 0.0

1.136447607933879e7 2.0769294865285307e7 0.0
2.0769294865285307e7 3.788158713518598e7 0.0
0.0 0.0 0.0

3.380761088439329e7 2.5307861155596003e7 0.0
2.5307861155596003e7 7.33310550497201e6 0.0
0.0 0.0 0.0

-2.0288020347846217e7 3.188398606023044e7 0.0
3.188398606023044e7 -1.6388850232356979e7 0.0
0.0 0.0 0.0

8.43053914729639e6 4.0230880594887614e7 0.0
4.0230880594887614e7 -5.559557209336787e6 0.0
0.0 0.0 0.0

1.559364559149179e7 2.0314516156940013e7 0.0
2.0314516156940013e7 5.786011497518155e7 0.0
0.0 0.0 0.0

604238.8128874935 7.868069205695879e6 0.0
7.868069205695879e6 -6.96430059898614e7 0.0
0.0 0.0 0.0

-7.655627882052103e6 3.4152288963156454e7 0.0
3.4152288963156454e7 8.190953124274345e6 0.0
0.0 0.0 0.0

1.1028679733309678e6 2.011263680888362e7 0.0
2.011263680888362e7 495287.60141758475 0.0
0.0 0.0 0.0

-1.779305100355159e7 2.1236238951346505e7 0.0
2.1236238951346505e7 -5.931017159341705e7 0.0
0.0 0.0 0.0

-8.559122151402386e6 2.7595029783969812e7 0.0
2.7595029783969812e7 -3.316556535814946e6 0.0
0.0 0.0 0.0

1.3250443103921004e6 3.1366563408813546e6 0.0
3.1366563408813546e6 -5.9861563396079384e7 0.0
0.0 0.0 0.0

119052.8850696492 2.610345251263381e7 0.0
2.610345251263381e7 -1.113367715019155e7 0.0
0.0 0.0 0.0

6.758587307149714e6 2.913416435162229e7 0.0
2.913416435162229e7 -8.68084486320308e6 0.0
0.0 0.0 0.0

3.3468987504592463e7 3.034572807173711e7 0.0
3.034572807173711e7 4.341998741361143e6 0.0
0.0 0.0 0.0

-4.9640234743728135e6 2.109257148254925e7 0.0
2.109257148254925e7 2.786036375780618e7 0.0
0.0 0.0 0.0

-2.751276371486833e6 1.7630469351785984e7 0.0
1.7630469351785984e7 -1.1720972726606127e7 0.0
0.0 0.0 0.0

-1.2918322164950887e7 2.8569028212081987e7 0.0
2.8569028212081987e7 -1.5407693801226687e7 0.0
0.0 0.0 0.0

78874.48414875194 3.241811250899691e7 0.0
3.241811250899691e7 -4.069968093410279e6 0.0
0.0 0.0 0.0

-5.419765062537201e6 4.087656185342548e6 0.0
4.087656185342548e6 6.2795769946566865e7 0.0
0.0 0.0 0.0

-2.674256226284279e6 2.1917987815988164e7 0.0
2.1917987815988164e7 -1.1818714189310655e7 0.0
0.0 0.0 0.0

-1.3525732501063138e7 3.674704559361305e7 0.0
3.674704559361305e7 6.44865375818726e6 0.0
0.0 0.0 0.0

810620.5624544201 9.868274290293686e6 0.0
9.868274290293686e6 -1.58760410681307e7 0.0
0.0 0.0 0.0

1.4467854512991346e7 2.4799638974227607e7 0.0
2.4799638974227607e7 1.4973713152861265e7 0.0
0.0 0.0 0.0

-5.753144133906197e7 3.9614788258127354e7 0.0
3.9614788258127354e7 1.8612721282358058e6 0.0
0.0 0.0 0.0

4.413505932943401e6 1.9264146260438863e7 0.0
1.9264146260438863e7 1.3769824764102062e7 0.0
0.0 0.0 0.0

2.626999237717049e6 7.824074005229721e6 0.0
7.824074005229721e6 -2.1611218744841248e7 0.0
0.0 0.0 0.0

6.945786090270728e6 2.3492259013372388e7 0.0
2.3492259013372388e7 2.4600542827709213e7 0.0
0.0 0.0 0.0

3.6164524168473016e6 3.1647321931718495e7 0.0
3.1647321931718495e7 -8.344633177068304e6 0.0
0.0 0.0 0.0

3.010739292430463e7 4.104308121777565e7 0.0
4.104308121777565e7 -6.077737247086378e6 0.0
0.0 0.0 0.0

-4.91881349547401e6 2.0264001854644094e7 0.0
2.0264001854644094e7 -1.6396045194995213e7 0.0
0.0 0.0 0.0

-2.054523788264839e6 2.0354303179305248e7 0.0
2.0354303179305248e7 1.1273724170386989e7 0.0
0.0 0.0 0.0

246001.872051117 1.003198336757389e7 0.0
1.003198336757389e7 -1.3111016969392946e7 0.0
0.0 0.0 0.0

-7.075788584068622e6 2.2114160726348206e7 0.0
2.2114160726348206e7 -3.3040379790059846e7 0.0
0.0 0.0 0.0

1.2116332001589434e6 2.6532936905053057e7 0.0
2.6532936905053057e7 -1.1495271271627069e7 0.0
0.0 0.0 0.0

2.4823806926238716e7 3.0105194952888023e7 0.0
3.0105194952888023e7 1.846255923752991e7 0.0
0.0 0.0 0.0

-9.820469939970337e6 2.748268588065658e7 0.0
2.748268588065658e7 -1.5941479628952263e7 0.0
0.0 0.0 0.0

5.929328549295658e6 2.8873501515508514e7 0.0
2.8873501515508514e7 -7.880092220599591e6 0.0
0.0 0.0 0.0

-7.889072033536787e6 5.467137837697605e6 0.0
5.467137837697605e6 1.171755435098234e7 0.0
0.0 0.0 0.0

527793.6832116409 8.327690265100634e6 0.0
8.327690265100634e6 -4.8917743247464495e6 0.0
0.0 0.0 0.0

1.5350103216897497e7 2.82713651509568e7 0.0
2.82713651509568e7 -410710.5060385298 0.0
0.0 0.0 0.0

3.838304312827077e6 2.0491495799461465e7 0.0
2.0491495799461465e7 1.1414046476152726e7 0.0
0.0 0.0 0.0

7.690251411006452e7 3.079562359985551e7 0.0
3.079562359985551e7 2.288763638612145e7 0.0
0.0 0.0 0.0

-8.545970827187138e6 1.9377292528216569e6 0.0
1.9377292528216569e6 3.821979735279045e7 0.0
0.0 0.0 0.0

-2.4786687165851597e7 3.1411435129089296e7 0.0
3.1411435129089296e7 -1.223422491263885e7 0.0
0.0 0.0 0.0

-1.88432016382775e7 2.8344259859196983e7 0.0
2.8344259859196983e7 -1.0237276746194288e7 0.0
0.0 0.0 0.0

-4.550770668149443e7 3.321494136389597e7 0.0
3.321494136389597e7 -1.91111094200852e7 0.0
0.0 0.0 0.0

5.0959750038587295e7 6.857620393111052e6 0.0
6.857620393111052e6 -857554.0410285965 0.0
0.0 0.0 0.0

-2.9532498096673377e6 1.0989429405874884e7 0.0
1.0989429405874884e7 7.35174373100712e7 0.0
0.0 0.0 0.0

-1.7022328210337893e6 1.4743876796240333e7 0.0
1.4743876796240333e7 490182.0875677796 0.0
0.0 0.0 0.0

-2.3932174864467073e7 3.0540808428020287e7 0.0
3.0540808428020287e7 -1.6749347709208403e7 0.0
0.0 0.0 0.0

-5.337175586045017e6 3.3747180814745754e7 0.0
3.3747180814745754e7 8.486344485658282e6 0.0
0.0 0.0 0.0

572476.1516866498 2.5981814669765383e7 0.0
2.5981814669765383e7 -1.3307115044784164e7 0.0
0.0 0.0 0.0

790186.5529023958 1.6776405761427192e7 0.0
1.6776405761427192e7 -2.073878586009527e7 0.0
0.0 0.0 0.0

-253270.31593319727 2.1764919459262036e7 0.0
2.1764919459262036e7 -7.922027624048074e6 0.0
0.0 0.0 0.0

-1.0945814568339154e7 1.8352018158937566e7 0.0
1.8352018158937566e7 -3.833845470511387e7 0.0
0.0 0.0 0.0

-1.3732923765314179e7 2.1789126627369538e7 0.0
2.1789126627369538e7 -8.372462474546199e7 0.0
0.0 0.0 0.0

1.9249017133815996e7 5.956710720259908e6 0.0
5.956710720259908e6 -2.055534652933511e6 0.0
0.0 0.0 0.0

1.5058632695870386e7 4.130355962411909e7 0.0
4.130355962411909e7 -6.039048880379582e6 0.0
0.0 0.0 0.0

-7.866151508860062e6 2.0105759556837793e7 0.0
2.0105759556837793e7 -2.6220505751847435e7 0.0
0.0 0.0 0.0

2.5327060958611026e7 2.0910323326443296e7 0.0
2.0910323326443296e7 5.580239049645217e6 0.0
0.0 0.0 0.0

-695494.6852053544 2.32641781798424e7 0.0
2.32641781798424e7 -8.63203675474951e6 0.0
0.0 0.0 0.0

706365.6345391104 3.1514418875716142e7 0.0
3.1514418875716142e7 -4.220017364074099e6 0.0
0.0 0.0 0.0

-6.369776993518461e6 2.190860608369276e7 0.0
2.190860608369276e7 -2.158967908197487e7 0.0
0.0 0.0 0.0

-2.470921437248726e7 2.3713543872174986e7 0.0
2.3713543872174986e7 -910861.8623155085 0.0
0.0 0.0 0.0

-8.989964641529392e6 -925439.8265695736 0.0
-925439.8265695736 2.226822521659191e7 0.0
0.0 0.0 0.0

-3.9326409215701763e6 2.226933137814178e7 0.0
2.226933137814178e7 2.6548764168149147e7 0.0
0.0 0.0 0.0

-364766.6507915219 2.1707398457245085e7 0.0
2.1707398457245085e7 2.8957470400370834e6 0.0
0.0 0.0 0.0

-8.474257968049478e6 2.18491561179933e7 0.0
2.18491561179933e7 -2.3628330781147238e7 0.0
0.0 0.0 0.0

-197070.46972040646 2.313632530010495e7 0.0
2.313632530010495e7 -8.902449961694412e6 0.0
0.0 0.0 0.0

-2.7218559404962724e6 1.6192668029621013e7 0.0
1.6192668029621013e7 -2.612322197611412e6 0.0
0.0 0.0 0.0

3.884097347348357e7 2.9734580368076857e7 0.0
2.9734580368076857e7 3.143728193906538e6 0.0
0.0 0.0 0.0

-1.4238711099343605e7 4.089529412549539e7 0.0
4.089529412549539e7 6.486129134627054e6 0.0
0.0 0.0 0.0

1.06084697703368e7 3.0170381954550155e7 0.0
3.0170381954550155e7 -5.603768758000358e6 0.0
0.0 0.0 0.0

-7.044992168590607e6 2.609646750177361e7 0.0
2.609646750177361e7 -5.305110495134856e6 0.0
0.0 0.0 0.0

-3.335519062566364e6 4.1328792200470485e7 0.0
4.1328792200470485e7 3.040342467204257e6 0.0
0.0 0.0 0.0

-3.940423890505503e6 2.396889783400694e7 0.0
2.396889783400694e7 2.2635922093108e7 0.0
0.0 0.0 0.0

921212.7475013505 9.19464356139491e6 0.0
9.19464356139491e6 -9.756678554079872e6 0.0
0.0 0.0 0.0

-2.5586215397816133e6 9.165923555223564e6 0.0
9.165923555223564e6 5.229728636857834e6 0.0
0.0 0.0 0.0

-1.5172534329826264e7 1.8898340668451395e7 0.0
1.8898340668451395e7 -5.57508110904886e7 0.0
0.0 0.0 0.0

-3.73879397392905e6 2.618832242092987e7 0.0
2.618832242092987e7 7.309559148077589e6 0.0
0.0 0.0 0.0

1.2036525407837196e6 5.806379137600348e6 0.0
5.806379137600348e6 -9.856995986311523e6 0.0
0.0 0.0 0.0

-7.113284255702487e7 4.148054889357988e7 0.0
4.148054889357988e7 -1.4014923297987122e7 0.0
0.0 0.0 0.0

-2.34065422144429e6 1.0236684026316646e7 0.0
1.0236684026316646e7 -8.336705024178173e7 0.0
0.0 0.0 0.0

-2.1041281228525923e6 1.219533364406947e7 0.0
1.219533364406947e7 -4.8523250012292415e6 0.0
0.0 0.0 0.0

-1.3906180509747256e7 1.9920280072767977e7 0.0
1.9920280072767977e7 -5.91985239442508e7 0.0
0.0 0.0 0.0

1.2593870869522355e6 4.832799263839427e6 0.0
4.832799263839427e6 -5.273833827810179e7 0.0
0.0 0.0 0.0

3.65752156933853e7 4.677339663072994e7 0.0
4.677339663072994e7 -8.783917552961128e6 0.0
0.0 0.0 0.0

1.912478120142633e6 1.1619451964889897e7 0.0
1.1619451964889897e7 -3.415691795551627e7 0.0
0.0 0.0 0.0

-2.1421204392200783e6 1.5885200548487343e7 0.0
1.5885200548487343e7 5.989221255171964e7 0.0
0.0 0.0 0.0

-4.739643683053421e6 2.124548710835799e7 0.0
2.124548710835799e7 2.8404998608668704e7 0.0
0.0 0.0 0.0

-4.104063152334838e6 2.849087497883345e7 0.0
2.849087497883345e7 1.3022646718630876e7 0.0
0.0 0.0 0.0

-1.0907211322558884e7 2.5921031662445232e7 0.0
2.5921031662445232e7 -1.3968159169008108e7 0.0
0.0 0.0 0.0

-3.9023516415188704e6 2.2079630068555456e7 0.0
2.2079630068555456e7 2.9159040982809305e7 0.0
0.0 0.0 0.0

-2.287013482592006e6 3.1386029750292473e7 0.0
3.1386029750292473e7 2.711977776249812e6 0.0
0.0 0.0 0.0

1.6478840072730174e7 2.2089843312817257e7 0.0
2.2089843312817257e7 5.49294687779737e7 0.0
0.0 0.0 0.0

-1.0086454988641582e7 2.451374748321186e6 0.0
2.451374748321186e6 2.331294394532834e7 0.0
0.0 0.0 0.0

1.817980107981746e6 2.5344102259787638e7 0.0
2.5344102259787638e7 -1.6818973737381402e7 0.0
0.0 0.0 0.0

-5.583537417230222e6 1.478631051943941e7 0.0
1.478631051943941e7 -9.348319213608983e7 0.0
0.0 0.0 0.0

-1.2637264749272875e7 4.353937897954995e7 0.0
4.353937897954995e7 6.4482792059441395e6 0.0
0.0 0.0 0.0

6.622059859382087e6 3.392635801677864e7 0.0
3.392635801677864e7 -7.466298588879845e6 0.0
0.0 0.0 0.0

5.099438674978104e6 2.6043527170948017e7 0.0
2.6043527170948017e7 4.206084024879161e6 0.0
0.0 0.0 0.0

-4.623321338680746e6 2.1166147203508276e7 0.0
2.1166147203508276e7 3.0244593746085886e7 0.0
0.0 0.0 0.0

-2.671830561414346e7 4.347144475185185e7 0.0
4.347144475185185e7 7.220578706359237e6 0.0
0.0 0.0 0.0

3.312079074019422e6 2.8735451086425375e7 0.0
2.8735451086425375e7 -1.17097568372753e7 0.0
0.0 0.0 0.0

-7.305886268340174e6 1.9856375717149034e7 0.0
1.9856375717149034e7 -4.317843793616932e7 0.0
0.0 0.0 0.0

-2.1243131224697106e7 4.721522475235084e7 0.0
4.721522475235084e7 6.505982717071231e6 0.0
0.0 0.0 0.0

5.0140133835852936e7 4.329722177922222e7 0.0
4.329722177922222e7 -8.868970835090864e6 0.0
0.0 0.0 0.0

4.1096891717086527e6 2.4745900964149017e7 0.0
2.4745900964149017e7 5.609977477793628e6 0.0
0.0 0.0 0.0

1.3598543773462474e6 1.3955322092390742e7 0.0
1.3955322092390742e7 -3.0031684894412283e7 0.0
0.0 0.0 0.0

-1.6879004808545846e7 2.230693288667391e7 0.0
2.230693288667391e7 -6.453686872070618e7 0.0
0.0 0.0 0.0

2.443911096251583e7 4.125161790858717e7 0.0
4.125161790858717e7 -6.246653876327077e6 0.0
0.0 0.0 0.0

-834828.3699523341 2.3550824551238805e7 0.0
2.3550824551238805e7 -1.783059267719379e7 0.0
0.0 0.0 0.0

2.1775145544093535e6 3.743173727261558e7 0.0
3.743173727261558e7 -3.8634850785854757e6 0.0
0.0 0.0 0.0

-4.2290548885329105e6 1.3628596574245019e7 0.0
1.3628596574245019e7 -7.848089969684407e7 0.0
0.0 0.0 0.0

2.198158404508467e6 2.3402962511507284e7 0.0
2.3402962511507284e7 1.0779905157589873e7 0.0
0.0 0.0 0.0

-3.0925767082078427e7 3.88045889238407e7 0.0
3.88045889238407e7 5.748052943459354e6 0.0
0.0 0.0 0.0

-1.5748457782371182e6 3.1995589816000734e7 0.0
3.1995589816000734e7 3.5871947552128043e6 0.0
0.0 0.0 0.0

3.494329581021965e7 2.6444666965331852e7 0.0
2.6444666965331852e7 1.4713576923212942e7 0.0
0.0 0.0 0.0

-4.534280782346188e6 4.2585252914972246e7 0.0
4.2585252914972246e7 1.554583230713175e6 0.0
0.0 0.0 0.0

5.110425316702079e6 2.3114104273238976e7 0.0
2.3114104273238976e7 1.7724422994025532e7 0.0
0.0 0.0 0.0

-3.6509587421714645e6 2.891778024297823e6 0.0
2.891778024297823e6 2.378906235925507e6 0.0
0.0 0.0 0.0

1.5627550860124584e7 4.4120966011082076e7 0.0
4.4120966011082076e7 -5.206960842476956e6 0.0
0.0 0.0 0.0

-463531.4649617793 2.2548609961019464e7 0.0
2.2548609961019464e7 -2.5099245820949752e7 0.0
0.0 0.0 0.0

1.1199110638032071e6 3.972194691324417e6 0.0
3.972194691324417e6 -6.618272584841653e7 0.0
0.0 0.0 0.0

-692139.130068097 1.3350445148966279e7 0.0
1.3350445148966279e7 -8.060798313288243e6 0.0
0.0 0.0 0.0

1.4002652438797657e6 7.403398676978026e6 0.0
7.403398676978026e6 -1.0158337551334575e7 0.0
0.0 0.0 0.0

1.028692961160847e6 1.7948737691870064e7 0.0
1.7948737691870064e7 -2.0500446223118223e7 0.0
0.0 0.0 0.0

-2.701241600218188e7 3.638024601104819e7 0.0
3.638024601104819e7 4.577236166325314e6 0.0
0.0 0.0 0.0

-3.922226724483271e6 2.6349655580858458e7 0.0
2.6349655580858458e7 3.9754774430674235e6 0.0
0.0 0.0 0.0

8.814161577650975e6 3.074018886310336e7 0.0
3.074018886310336e7 -6.471325317538263e6 0.0
0.0 0.0 0.0

1.627477125513032e6 6.5714138085986525e6 0.0
6.5714138085986525e6 -5.156700352513904e7 0.0
0.0 0.0 0.0

759279.7173143835 2.5894849354544625e7 0.0
2.5894849354544625e7 -1.1085127458491012e7 0.0
0.0 0.0 0.0

154185.17624431849 2.1416007207984805e7 0.0
2.1416007207984805e7 -1.7472152191875655e7 0.0
0.0 0.0 0.0

-1.8997172360843394e7 2.9353243125474095e7 0.0
2.9353243125474095e7 -1.569920268828139e7 0.0
0.0 0.0 0.0

2.180073121187998e7 3.7747344791766815e7 0.0
3.7747344791766815e7 -5.964255566014062e6 0.0
0.0 0.0 0.0

-5.437347112678222e6 3.0230522561469737e7 0.0
3.0230522561469737e7 1.2136287720353102e7 0.0
0.0 0.0 0.0

4.715589804585523e6 2.43354188314528e7 0.0
2.43354188314528e7 1.684366466978272e7 0.0
0.0 0.0 0.0

7.712970720668018e6 2.0802471975023486e7 0.0
2.0802471975023486e7 9.571338056801052e7 0.0
0.0 0.0 0.0

-5.459952197974618e6 4.7567634805399045e7 0.0
4.7567634805399045e7 4.1640899521023915e6 0.0
0.0 0.0 0.0

2.1682818918713364e6 2.6303643911387306e7 0.0
2.6303643911387306e7 -1.0648935688267628e7 0.0
0.0 0.0 0.0

1.2589554685566612e6 1.2520937795666547e7 0.0
1.2520937795666547e7 -4.0013591104513444e7 0.0
0.0 0.0 0.0

1.2153049391896557e6 1.1442481723765574e7 0.0
1.1442481723765574e7 -4.237636602713469e7 0.0
0.0 0.0 0.0

2.5982490973766968e6 2.9913005635222523e6 0.0
2.9913005635222523e6 -3.648861166318737e7 0.0
0.0 0.0 0.0

-3.2117483251563124e6 2.938308441797109e7 0.0
2.938308441797109e7 1.2497145999404505e7 0.0
0.0 0.0 0.0

2.2025049572218824e6 3.263329926749793e6 0.0
3.263329926749793e6 -3.621670787032728e7 0.0
0.0 0.0 0.0

-7.868486764280733e6 5.056247647175013e6 0.0
5.056247647175013e6 4.60758758693396e7 0.0
0.0 0.0 0.0

-2.8150949731834754e6 2.6269692071365196e7 0.0
2.6269692071365196e7 1.936776832910345e7 0.0
0.0 0.0 0.0

-2.6439999854406584e6 1.3007001649373455e7 0.0
1.3007001649373455e7 -2.8415204796648924e6 0.0
0.0 0.0 0.0

5.312536351811101e6 3.4742892044954725e7 0.0
3.4742892044954725e7 -7.058202560566811e6 0.0
0.0 0.0 0.0

1.0456939692500308e7 3.9509205523158394e7 0.0
3.9509205523158394e7 -4.903042573612388e6 0.0
0.0 0.0 0.0

2.2550985567240375e6 1.974193365010201e7 0.0
1.974193365010201e7 4.983437300109986e6 0.0
0.0 0.0 0.0

-3.2517817521252967e6 1.3819727556399975e7 0.0
1.3819727556399975e7 -6.734707016413952e7 0.0
0.0 0.0 0.0

1.6791841184037924e6 4.561247596889587e6 0.0
4.561247596889587e6 -5.700715876569683e7 0.0
0.0 0.0 0.0

-6.629299146299203e7 4.627738338789436e7 0.0
4.627738338789436e7 -1.972302453017008e7 0.0
0.0 0.0 0.0

3.442012164857232e7 3.1263671342159405e7 0.0
3.1263671342159405e7 1.639305311076849e7 0.0
0.0 0.0 0.0

8.702516429583352e6 3.88334676457692e7 0.0
3.88334676457692e7 -4.901629797728101e6 0.0
0.0 0.0 0.0

1.843431223160712e6 2.2894531041743364e7 0.0
2.2894531041743364e7 2.538982451238059e7 0.0
0.0 0.0 0.0

1.8985192780365802e6 2.172481368456458e7 0.0
2.172481368456458e7 5.071287130112056e6 0.0
0.0 0.0 0.0

-6.465527257074624e6 1.0120627582624437e7 0.0
1.0120627582624437e7 5.3941997803859115e7 0.0
0.0 0.0 0.0

-1.4961635919741336e7 3.845898340017409e7 0.0
3.845898340017409e7 6.167230004466747e6 0.0
0.0 0.0 0.0

-1.3790719716827115e6 1.7766245578179576e7 0.0
1.7766245578179576e7 -1.0450066249174653e7 0.0
0.0 0.0 0.0

-9.129948400381558e6 4.09822873797046e6 0.0
4.09822873797046e6 3.633522639157414e7 0.0
0.0 0.0 0.0

2.748747574671127e6 1.492064379593643e7 0.0
1.492064379593643e7 1.1206119018926334e8 0.0
0.0 0.0 0.0

1.9354471137633799e6 2.6194437857003607e7 0.0
2.6194437857003607e7 -1.5403718089422315e7 0.0
0.0 0.0 0.0

2.2681797228496796e6 4.572161797770924e6 0.0
4.572161797770924e6 -1.0907731499818306e7 0.0
0.0 0.0 0.0

-3.332094579144016e6 1.0732471499227691e7 0.0
1.0732471499227691e7 7.630860341016439e7 0.0
0.0 0.0 0.0

2.023669847911112e6 3.3509184496794785e6 0.0
3.3509184496794785e6 -4.6526679661946416e7 0.0
0.0 0.0 0.0

-8.344651276239267e6 2.6008911035110455e7 0.0
2.6008911035110455e7 -1.6860001864521816e7 0.0
0.0 0.0 0.0

-3.0705419555187676e7 3.1823802961236097e7 0.0
3.1823802961236097e7 -1.808943544104983e7 0.0
0.0 0.0 0.0

462626.12587648723 2.3464375665119186e7 0.0
2.3464375665119186e7 -2.058018335730668e7 0.0
0.0 0.0 0.0

-2.319594592009545e6 1.3337527918064917e7 0.0
1.3337527918064917e7 -910877.2157652476 0.0
0.0 0.0 0.0

-7.227934684217806e6 2.7354928048790593e7 0.0
2.7354928048790593e7 796917.9967286265 0.0
0.0 0.0 0.0

2.6991476740950324e7 3.6554392236071154e7 0.0
3.6554392236071154e7 -5.194576859851988e6 0.0
0.0 0.0 0.0

-8.642419951629963e6 -1.0651722959407493e6 0.0
-1.0651722959407493e6 2.4181658587560356e7 0.0
0.0 0.0 0.0

1.6520539821111966e7 2.5707123611043222e7 0.0
2.5707123611043222e7 1.0267034207201848e7 0.0
0.0 0.0 0.0

2.6419390955908746e7 4.8343824230098e7 0.0
4.8343824230098e7 -8.503311729421092e6 0.0
0.0 0.0 0.0

2.3576693152407203e6 3.3412013982644393e6 0.0
3.3412013982644393e6 -4.100491194788477e7 0.0
0.0 0.0 0.0

-2.529465352438006e6 2.279406507429023e7 0.0
2.279406507429023e7 6.043603274245758e6 0.0
0.0 0.0 0.0

1.5705957129064295e7 2.3491796988507725e7 0.0
2.3491796988507725e7 6.0796223186287105e7 0.0
0.0 0.0 0.0

8.328989639697339e7 9.13136037165509e6 0.0
9.13136037165509e6 -142048.49152790755 0.0
0.0 0.0 0.0

-3.930381210969582e7 3.4577602154857606e7 0.0
3.4577602154857606e7 -1.8143363824391637e7 0.0
0.0 0.0 0.0

-2.476218227311762e6 3.0758793692524284e7 0.0
3.0758793692524284e7 3.902014936686289e6 0.0
0.0 0.0 0.0

-2.6467791634649e6 1.4126337367535705e7 0.0
1.4126337367535705e7 -5.858282538805308e7 0.0
0.0 0.0 0.0

-2.0177523154775444e7 3.5727629935448974e7 0.0
3.5727629935448974e7 5.209695052632949e6 0.0
0.0 0.0 0.0

1.445319837220073e7 2.614597140453619e7 0.0
2.614597140453619e7 1.2287785926854838e7 0.0
0.0 0.0 0.0

-959521.517227754 1.0126495932490045e7 0.0
1.0126495932490045e7 9.107213282482494e7 0.0
0.0 0.0 0.0

-4.966547701469571e6 2.829989893924655e7 0.0
2.829989893924655e7 1.3160471349537505e7 0.0
0.0 0.0 0.0

5.673093727698064e6 2.1352493523711205e7 0.0
2.1352493523711205e7 2.410200294100118e7 0.0
0.0 0.0 0.0

-305540.7711815061 2.3724770676571243e7 0.0
2.3724770676571243e7 -1.2847486261678694e7 0.0
0.0 0.0 0.0

1.2072017095617782e7 2.796715696287499e7 0.0
2.796715696287499e7 -129054.62773273326 0.0
0.0 0.0 0.0

4.03507393721147e6 2.7135451499299765e7 0.0
2.7135451499299765e7 -6.989781277796805e6 0.0
0.0 0.0 0.0

-2.6826191463765074e6 1.7723867011742253e7 0.0
1.7723867011742253e7 -2.391819615614519e6 0.0
0.0 0.0 0.0

4.300952754775885e6 2.2267900479100768e7 0.0
2.2267900479100768e7 3.0459511744289283e7 0.0
0.0 0.0 0.0

1.5255807439899826e6 2.30587187903888e7 0.0
2.30587187903888e7 3.5269012215156467e6 0.0
0.0 0.0 0.0

228433.22359830188 2.2503341841802165e7 0.0
2.2503341841802165e7 -4.819377021949062e6 0.0
0.0 0.0 0.0

-7.462662941695779e6 2.0264199556394e7 0.0
2.0264199556394e7 -3.780622322559649e7 0.0
0.0 0.0 0.0

-3.019823518199152e6 3.43669396677823e7 0.0
3.43669396677823e7 5.610456959685278e6 0.0
0.0 0.0 0.0

-2.6979550202671427e7 3.000429425330946e7 0.0
3.000429425330946e7 -1.6254879507106032e7 0.0
0.0 0.0 0.0

-1.2741449581403008e7 4.0059792513841815e7 0.0
4.0059792513841815e7 5.708974736570181e6 0.0
0.0 0.0 0.0

401834.7518059574 2.441265226687082e7 0.0
2.441265226687082e7 1.749497004893062e7 0.0
0.0 0.0 0.0

2.0563504996377323e6 7.070873515893212e6 0.0
7.070873515893212e6 -4.102283921383099e7 0.0
0.0 0.0 0.0

1.78563493360072e6 2.540166609717006e7 0.0
2.540166609717006e7 -1.6744569382779343e7 0.0
0.0 0.0 0.0

2.286308916151513e7 3.72858414539105e7 0.0
3.72858414539105e7 -5.225049363007464e6 0.0
0.0 0.0 0.0

-8.244744835413165e6 4.1065072079908666e6 0.0
4.1065072079908666e6 4.240282953305688e7 0.0
0.0 0.0 0.0

-4.978370040646501e6 2.7540394356524773e7 0.0
2.7540394356524773e7 9.469245219627349e6 0.0
0.0 0.0 0.0

2.8790882836318463e6 2.5814907315779705e7 0.0
2.5814907315779705e7 3.4682540477362163e6 0.0
0.0 0.0 0.0

1.324477370169023e7 2.937768199003966e7 0.0
2.937768199003966e7 -2.4013799467985975e6 0.0
0.0 0.0 0.0

-8.3383995222138e6 1.0552147336450942e7 0.0
1.0552147336450942e7 3.935082664988635e7 0.0
0.0 0.0 0.0

8.843355131636782e6 2.036328489147086e7 0.0
2.036328489147086e7 3.3556098265474334e7 0.0
0.0 0.0 0.0

-1.045167455777546e7 2.534456619579804e7 0.0
2.534456619579804e7 -1.6906299190304127e7 0.0
0.0 0.0 0.0

-1.264792736868428e6 2.0182316287909657e7 0.0
2.0182316287909657e7 -3.3067997660485335e7 0.0
0.0 0.0 0.0

1.3924551725184415e7 4.7145022371682e7 0.0
4.7145022371682e7 -4.1558211871011266e6 0.0
0.0 0.0 0.0

-1.2449636306750145e7 4.189007747793762e7 0.0
4.189007747793762e7 5.082961712952965e6 0.0
0.0 0.0 0.0

-8.772029471568193e6 1.186619914013367e7 0.0
1.186619914013367e7 3.379420761414429e7 0.0
0.0 0.0 0.0

-1.2022536464480584e7 2.7983335479119763e7 0.0
2.7983335479119763e7 -9.099384311208803e6 0.0
0.0 0.0 0.0

-9.388620323106961e6 4.275022663998861e7 0.0
4.275022663998861e7 3.979028876341628e6 0.0
0.0 0.0 0.0

-1.0232647458134674e7 4.113409267220894e7 0.0
4.113409267220894e7 4.8091474335849e6 0.0
0.0 0.0 0.0

5.635412790354124e6 2.028757055660701e7 0.0
2.028757055660701e7 2.0115575185654107e7 0.0
0.0 0.0 0.0

1.6134489072321784e6 1.5882870016841471e7 0.0
1.5882870016841471e7 -2.6959422532140087e7 0.0
0.0 0.0 0.0

7.682095114441243e7 4.502019558585418e7 0.0
4.502019558585418e7 3.4633433082729906e7 0.0
0.0 0.0 0.0

-4.672691256714724e7 5.054119960763874e6 0.0
5.054119960763874e6 5.6449262446911875e6 0.0
0.0 0.0 0.0

-2.263920980711202e7 3.462518554289482e7 0.0
3.462518554289482e7 3.420257528067448e6 0.0
0.0 0.0 0.0

1.4241445925698485e6 3.0061828353225784e6 0.0
3.0061828353225784e6 -4.6194171430577986e7 0.0
0.0 0.0 0.0

588867.8622824382 2.50699652550574e7 0.0
2.50699652550574e7 -1.4827615765835885e7 0.0
0.0 0.0 0.0

-1.6857395309693664e7 3.6386233607249625e7 0.0
3.6386233607249625e7 6.033419311138889e6 0.0
0.0 0.0 0.0

-8.248318931650305e6 7.791268642001854e6 0.0
7.791268642001854e6 4.457176813765262e7 0.0
0.0 0.0 0.0

823606.9199582916 1.209172119025168e7 0.0
1.209172119025168e7 -3.7216858101899005e7 0.0
0.0 0.0 0.0

-8.954754875584569e6 1.957326534835134e7 0.0
1.957326534835134e7 -3.101899475571735e7 0.0
0.0 0.0 0.0

1.4760635424473673e7 2.7480004197300293e7 0.0
2.7480004197300293e7 1.2868284949450308e7 0.0
0.0 0.0 0.0

-5.162734731955248e7 3.7828267184942335e7 0.0
3.7828267184942335e7 -1.7239182969189215e7 0.0
0.0 0.0 0.0

-3.5646178947778586e6 1.5601372744597176e7 0.0
1.5601372744597176e7 3.314603619533675e6 0.0
0.0 0.0 0.0

-1.2750504798716523e7 3.5071443125679344e7 0.0
3.5071443125679344e7 6.569859325492578e6 0.0
0.0 0.0 0.0

-2.238982700098491e6 3.5953137948457435e7 0.0
3.5953137948457435e7 3.69600850091778e6 0.0
0.0 0.0 0.0

-6.419669477451815e6 8.373305749763539e6 0.0
8.373305749763539e6 2.2919250818294495e7 0.0
0.0 0.0 0.0

-8.928943261448959e6 1.5185373420448233e6 0.0
1.5185373420448233e6 2.526604236920687e7 0.0
0.0 0.0 0.0

793264.9310767055 1.6337416338685097e7 0.0
1.6337416338685097e7 -2.770173239219931e7 0.0
0.0 0.0 0.0

-7.903157405574925e6 6.44611286462893e6 0.0
6.44611286462893e6 4.387520352267843e7 0.0
0.0 0.0 0.0

505555.31159443036 2.077942748308387e7 0.0
2.077942748308387e7 -2.505553054929605e7 0.0
0.0 0.0 0.0

1.229997609231428e7 2.6296672038902063e7 0.0
2.6296672038902063e7 1.5781206641966496e6 0.0
0.0 0.0 0.0

334447.7250671806 1.0763512551635921e7 0.0
1.0763512551635921e7 -1.426533269901824e7 0.0
0.0 0.0 0.0

-2.3757241023001928e7 3.459127395209653e7 0.0
3.459127395209653e7 3.442524053637228e6 0.0
0.0 0.0 0.0

-1.6850542545288853e7 2.9610359302497637e7 0.0
2.9610359302497637e7 -1.5882786841629842e7 0.0
0.0 0.0 0.0

729404.9557809689 2.176964447106e7 0.0
2.176964447106e7 2.431351147938011e6 0.0
0.0 0.0 0.0

-558564.8791323686 2.1652515497998796e7 0.0
2.1652515497998796e7 -1.8618840051174564e6 0.0
0.0 0.0 0.0

1.540394467155965e6 1.679098655388903e7 0.0
1.679098655388903e7 -2.5340695133406952e7 0.0
0.0 0.0 0.0

-7.9493035627438305e6 2.0608420976737134e7 0.0
2.0608420976737134e7 -3.0291519543393333e7 0.0
0.0 0.0 0.0

-9.433657465381691e6 3.471109515231635e6 0.0
3.471109515231635e6 3.2441806406961203e7 0.0
0.0 0.0 0.0

-2.7412419073208175e6 1.686396113620899e7 0.0
1.686396113620899e7 1.0524905418942377e7 0.0
0.0 0.0 0.0

3.3237588560329424e6 2.8300361469911158e7 0.0
2.8300361469911158e7 -1.1900525509064864e7 0.0
0.0 0.0 0.0

1.75661988315982e6 8.064817270914339e6 0.0
8.064817270914339e6 -2.822737671324346e7 0.0
0.0 0.0 0.0

-5.218940994192034e7 3.361410884686376e7 0.0
3.361410884686376e7 -9.156992425850544e6 0.0
0.0 0.0 0.0

9.612398456013598e6 2.7637516792151034e7 0.0
2.7637516792151034e7 -598686.1685632332 0.0
0.0 0.0 0.0

3.427801772125914e7 2.6182027774058953e7 0.0
2.6182027774058953e7 8.41761757485323e6 0.0
0.0 0.0 0.0

-1.3750237365739238e7 4.72318974253289e7 0.0
4.72318974253289e7 6.573988882446964e6 0.0
0.0 0.0 0.0

-9.690605582189616e6 6.945928543755962e6 0.0
6.945928543755962e6 2.796155045175803e7 0.0
0.0 0.0 0.0

-780.7803314141929 2.2257666703071106e7 0.0
2.2257666703071106e7 -1.5905591698576974e7 0.0
0.0 0.0 0.0

-1.4284709792137742e7 2.7682938063296136e7 0.0
2.7682938063296136e7 -8.428641251232821e6 0.0
0.0 0.0 0.0

-2.65435942296952e7 3.921633203094644e7 0.0
3.921633203094644e7 5.2932030436587855e6 0.0
0.0 0.0 0.0

-1.0582761708074253e7 2.131803649922065e7 0.0
2.131803649922065e7 -4.826018888942613e7 0.0
0.0 0.0 0.0

3.1302961192928725e6 2.260114201671439e7 0.0
2.260114201671439e7 1.245890033420095e7 0.0
0.0 0.0 0.0

-7.188995774153761e6 2.0388966420085024e7 0.0
2.0388966420085024e7 -3.2866788777825397e7 0.0
0.0 0.0 0.0

-2.0496049767404377e7 4.378031429531554e7 0.0
4.378031429531554e7 6.745696039552889e6 0.0
0.0 0.0 0.0

3.3407995550937694e6 3.1933098652711146e7 0.0
3.1933098652711146e7 -8.766069625135433e6 0.0
0.0 0.0 0.0

-1.0035935898049103e7 2.8457545396726474e7 0.0
2.8457545396726474e7 -1.253987282997619e6 0.0
0.0 0.0 0.0

868667.1653756145 1.3484635369337175e7 0.0
1.3484635369337175e7 -4.069457412671513e7 0.0
0.0 0.0 0.0

-6.746645034489889e6 1.0219588175895154e7 0.0
1.0219588175895154e7 5.0486369956927426e7 0.0
0.0 0.0 0.0

-1.2003085155250195e6 2.2360666898681693e7 0.0
2.2360666898681693e7 -1.0152118242471669e7 0.0
0.0 0.0 0.0

1.3305026508554598e7 2.7532153292864963e7 0.0
2.7532153292864963e7 -663570.8552402398 0.0
0.0 0.0 0.0

-8.885597606287114e6 2.164817524254433e7 0.0
2.164817524254433e7 -3.997222911089395e7 0.0
0.0 0.0 0.0

-1.4206123369483566e7 3.4698679210137725e7 0.0
3.4698679210137725e7 5.968412542969744e6 0.0
0.0 0.0 0.0

4.0117594038035914e7 4.553592865374317e7 0.0
4.553592865374317e7 -6.858441605102124e6 0.0
0.0 0.0 0.0

-1.0026035257785438e7 2.769565665165438e7 0.0
2.769565665165438e7 -6.2661284499131255e6 0.0
0.0 0.0 0.0

-1.506206837313446e7 3.641668960835118e7 0.0
3.641668960835118e7 5.886466176784227e6 0.0
0.0 0.0 0.0

-4.504999378326111e6 2.2762241278398726e7 0.0
2.2762241278398726e7 2.442276216146249e7 0.0
0.0 0.0 0.0

5.719368533441374e6 2.621282782398599e7 0.0
2.621282782398599e7 -5.44816624410287e6 0.0
0.0 0.0 0.0

-3.917940848424836e6 3.4354875694778234e7 0.0
3.4354875694778234e7 6.476325813089558e6 0.0
0.0 0.0 0.0

-8.913088951809026e6 1.9829340654350534e7 0.0
1.9829340654350534e7 -4.621482022562153e7 0.0
0.0 0.0 0.0

1.6257743853596617e6 5.2104822431406025e6 0.0
5.2104822431406025e6 -3.9057208437562294e7 0.0
0.0 0.0 0.0

-8.733535312620625e6 2.178111085761662e7 0.0
2.178111085761662e7 -3.497133667690565e7 0.0
0.0 0.0 0.0

-6.044819980404864e6 3.8539495267322175e7 0.0
3.8539495267322175e7 4.0488302427644785e6 0.0
0.0 0.0 0.0

-4.1575625996457236e6 2.3206874709303893e7 0.0
2.3206874709303893e7 -1.385854201945535e7 0.0
0.0 0.0 0.0

3.954279418107484e6 2.332357828584475e7 0.0
2.332357828584475e7 1.3180931924199784e7 0.0
0.0 0.0 0.0

-4.632775801783092e6 1.9478009281535067e7 0.0
1.9478009281535067e7 3.718034867561637e7 0.0
0.0 0.0 0.0

-1.5418264482984112e6 1.7073810506639294e7 0.0
1.7073810506639294e7 -1.3069874609471324e6 0.0
0.0 0.0 0.0

1.74917268122951e7 2.0978170785560127e7 0.0
2.0978170785560127e7 6.5602060101805724e7 0.0
0.0 0.0 0.0

-7.50554153255203e6 4.862351300727132e6 0.0
4.862351300727132e6 5.001367711584911e7 0.0
0.0 0.0 0.0

937213.6082710698 4.591090337009344e6 0.0
4.591090337009344e6 -5.635011581993802e7 0.0
0.0 0.0 0.0

-6.081410841275858e6 2.1853405313897073e7 0.0
2.1853405313897073e7 -3.555047806205311e7 0.0
0.0 0.0 0.0

-1.3063899725233939e7 3.676888855629617e7 0.0
3.676888855629617e7 6.174777679006583e6 0.0
0.0 0.0 0.0

4.00899398075784e7 1.69948988301847e7 0.0
1.69948988301847e7 2.0679424743436854e6 0.0
0.0 0.0 0.0

-9.170039470116073e6 9.030005233798586e6 0.0
9.030005233798586e6 3.7534949736374e7 0.0
0.0 0.0 0.0

-3.371540846504847e7 3.641139854007118e7 0.0
3.641139854007118e7 -1.8164876821065053e7 0.0
0.0 0.0 0.0

-4.009124314467819e6 2.68009089425508e7 0.0
2.68009089425508e7 9.9725397266558e6 0.0
0.0 0.0 0.0

-2.672429062864872e7 4.326142375077535e7 0.0
4.326142375077535e7 6.839108886627123e6 0.0
0.0 0.0 0.0

690994.7496647015 5.245093440463809e6 0.0
5.245093440463809e6 -5.8039554033454835e7 0.0
0.0 0.0 0.0

1.0378607491533792e7 3.782924845618462e7 0.0
3.782924845618462e7 -5.570991394039132e6 0.0
0.0 0.0 0.0

-914872.5815801397 1.5281058520155337e7 0.0
1.5281058520155337e7 7.077906151707461e7 0.0
0.0 0.0 0.0

-4.2054908239441365e6 3.291613828008512e7 0.0
3.291613828008512e7 8.879044309168546e6 0.0
0.0 0.0 0.0

-2.12012557618365e6 2.1635091462945472e7 0.0
2.1635091462945472e7 -8.498660130526679e6 0.0
0.0 0.0 0.0

-8.867721431869343e6 3.606872328587051e6 0.0
3.606872328587051e6 1.7880631728865072e7 0.0
0.0 0.0 0.0

6.650206610800336e6 2.30656975190959e7 0.0
2.30656975190959e7 2.0738725916735645e7 0.0
0.0 0.0 0.0

-5.120703705122646e6 2.8018515281618766e7 0.0
2.8018515281618766e7 1.1548114888360348e7 0.0
0.0 0.0 0.0

1.2085959040889377e6 1.1767347057204956e7 0.0
1.1767347057204956e7 -1.2714342956482295e7 0.0
0.0 0.0 0.0

-4.541450713487241e6 2.57481500711289e7 0.0
2.57481500711289e7 1.0965369083260153e6 0.0
0.0 0.0 0.0

1.099524384501238e7 2.703907988689391e7 0.0
2.703907988689391e7 -1.4605652512397864e6 0.0
0.0 0.0 0.0

-1.9794057141678813e6 1.7158550760151185e7 0.0
1.7158550760151185e7 2.511692383042792e6 0.0
0.0 0.0 0.0

-6.0224181683282275e6 1.9869245483913444e7 0.0
1.9869245483913444e7 -4.029329681606272e7 0.0
0.0 0.0 0.0

-2.97256013448149e6 2.1221383035244502e7 0.0
2.1221383035244502e7 9.78901174667443e6 0.0
0.0 0.0 0.0

-3.50537875595513e6 2.2230699585819248e7 0.0
2.2230699585819248e7 2.9222966168592326e7 0.0
0.0 0.0 0.0

-8.439766302898908e6 3.1914461856652154e6 0.0
3.1914461856652154e6 3.601148086404903e7 0.0
0.0 0.0 0.0

-1.5317180032988975e7 2.8542084129069217e7 0.0
2.8542084129069217e7 -481168.744918596 0.0
0.0 0.0 0.0

-9.023120327171344e6 3.458254980596746e7 0.0
3.458254980596746e7 7.530949386193134e6 0.0
0.0 0.0 0.0

1.79148585891603e7 3.8335189574765526e7 0.0
3.8335189574765526e7 -6.0659266278248895e6 0.0
0.0 0.0 0.0

-8.66177751752723e6 8.489800324232513e6 0.0
8.489800324232513e6 4.100576081469602e7 0.0
0.0 0.0 0.0

-7.334379848814447e6 2.1057694962355163e7 0.0
2.1057694962355163e7 -4.206174567987726e7 0.0
0.0 0.0 0.0

-5.879380815995807e6 3.458641392321426e7 0.0
3.458641392321426e7 7.751498212371768e6 0.0
0.0 0.0 0.0

1.1896256486838297e6 2.432459393026149e7 0.0
2.432459393026149e7 -8.978584125488319e6 0.0
0.0 0.0 0.0

-1.7425258158540884e6 1.8642592963862643e7 0.0
1.8642592963862643e7 -8.669052098440556e6 0.0
0.0 0.0 0.0

-9.581831694500925e6 4.3290762053705705e6 0.0
4.3290762053705705e6 2.5649069718447775e7 0.0
0.0 0.0 0.0

-1.272673402815054e7 3.841469558903826e7 0.0
3.841469558903826e7 6.196510283354673e6 0.0
0.0 0.0 0.0

-846511.31903686 2.9025640685619503e7 0.0
2.9025640685619503e7 172944.26233378536 0.0
0.0 0.0 0.0

5.187742421641947e6 2.5042670040667877e7 0.0
2.5042670040667877e7 1.8165419991627753e7 0.0
0.0 0.0 0.0

-4.328916395959923e6 2.2613505930918804e6 0.0
2.2613505930918804e6 9.671719875440313e6 0.0
0.0 0.0 0.0

6.925235430068135e6 2.5622824360170055e7 0.0
2.5622824360170055e7 6.897685552086082e6 0.0
0.0 0.0 0.0

-2.1304470248119608e6 1.0517790987205457e7 0.0
1.0517790987205457e7 -7.689648760080393e7 0.0
0.0 0.0 0.0

1.0688111648277294e7 4.388368154169691e7 0.0
4.388368154169691e7 -5.459897797864816e6 0.0
0.0 0.0 0.0

-5.76018214218172e6 2.920957540574748e7 0.0
2.920957540574748e7 1.2292437884140272e7 0.0
0.0 0.0 0.0

-9.332698280019108e6 1.3214342160330158e7 0.0
1.3214342160330158e7 1.918575125364127e7 0.0
0.0 0.0 0.0

-2.0473137650828005e6 2.4963282208464038e7 0.0
2.4963282208464038e7 -4.381997658315891e6 0.0
0.0 0.0 0.0

-2.219434229546763e6 1.329300664953468e7 0.0
1.329300664953468e7 -7.188533406518939e7 0.0
0.0 0.0 0.0

-1.686239361613175e6 2.094834818203427e7 0.0
2.094834818203427e7 -2.9585883763915293e7 0.0
0.0 0.0 0.0

-1.3471806189465154e7 4.414916924722067e7 0.0
4.414916924722067e7 4.665647844314422e6 0.0
0.0 0.0 0.0

-3.2576122707160995e6 2.2887687924711466e7 0.0
2.2887687924711466e7 -1.0858708960788773e7 0.0
0.0 0.0 0.0

-6.887294321078241e6 2.7312743224757466e7 0.0
2.7312743224757466e7 -1.5828950553587131e7 0.0
0.0 0.0 0.0

-2.040603296305616e6 2.975528496157827e7 0.0
2.975528496157827e7 7.297186234908249e6 0.0
0.0 0.0 0.0

1.058554357865299e6 2.233096915315759e7 0.0
2.233096915315759e7 -1.6019532084539676e7 0.0
0.0 0.0 0.0

1.1646947481630238e7 2.72080641806531e7 0.0
2.72080641806531e7 1.064931367611985e7 0.0
0.0 0.0 0.0

-1.0426086956310246e7 2.764207468917498e7 0.0
2.764207468917498e7 -1.6153700577697447e7 0.0
0.0 0.0 0.0

-2.8725881937885787e6 2.6185428774256635e7 0.0
2.6185428774256635e7 7.204716908043604e6 0.0
0.0 0.0 0.0

-2.0405828180099688e6 1.1315917389299398e7 0.0
1.1315917389299398e7 7.721638500818151e7 0.0
0.0 0.0 0.0

-566286.7197725591 1.8073817323412336e7 0.0
1.8073817323412336e7 -7.757638177118967e6 0.0
0.0 0.0 0.0

-9.943881876806604e6 1.847857407125524e7 0.0
1.847857407125524e7 -3.326461558390364e7 0.0
0.0 0.0 0.0

1.396111177212107e6 2.467745702836076e7 0.0
2.467745702836076e7 -1.857394253778015e7 0.0
0.0 0.0 0.0

-7.309714911829431e6 2.4167494225397103e7 0.0
2.4167494225397103e7 -2.0674847027328216e7 0.0
0.0 0.0 0.0

-3.863769249471898e6 2.72666502149021e7 0.0
2.72666502149021e7 1.2147018104793651e7 0.0
0.0 0.0 0.0

771720.8548820241 2.1228920235336255e7 0.0
2.1228920235336255e7 2.5724027956001796e6 0.0
0.0 0.0 0.0

-3.085924988659384e6 3.614966612051372e7 0.0
3.614966612051372e7 4.66618703017749e6 0.0
0.0 0.0 0.0

-4.985872467006278e6 2.6588704401099212e7 0.0
2.6588704401099212e7 748700.3986057027 0.0
0.0 0.0 0.0

-4.66466366550272e6 4.169354057041078e6 0.0
4.169354057041078e6 7.511695143600099e7 0.0
0.0 0.0 0.0

-9.443724223722199e6 1.3044878061752362e7 0.0
1.3044878061752362e7 3.1406204940096393e7 0.0
0.0 0.0 0.0

2.5246485380476704e6 2.4896087386961326e7 0.0
2.4896087386961326e7 -7.563179932809763e6 0.0
0.0 0.0 0.0

-3.119571342618653e7 3.443116900848425e7 0.0
3.443116900848425e7 1.4080399460391756e6 0.0
0.0 0.0 0.0

-1.0411658303863274e7 5.149403911653288e6 0.0
5.149403911653288e6 2.5334701490066916e7 0.0
0.0 0.0 0.0

-5.095589345952749e6 9.734929804868007e6 0.0
9.734929804868007e6 6.335305018369478e7 0.0
0.0 0.0 0.0

-2.947603515908433e6 3.1818949443214284e6 0.0
3.1818949443214284e6 8.051642140423301e6 0.0
0.0 0.0 0.0

-3.822748266170006e6 6.341143377159747e6 0.0
6.341143377159747e6 -1.3265907577006703e6 0.0
0.0 0.0 0.0

1.068976240637578e6 1.4191236942412207e7 0.0
1.4191236942412207e7 -2.8030734987932865e7 0.0
0.0 0.0 0.0

-1.6932914774952454e6 2.956134906361221e7 0.0
2.956134906361221e7 -809387.77942124 0.0
0.0 0.0 0.0

-8.45568250005045e6 2.3528635840321355e7 0.0
2.3528635840321355e7 -2.1007558847929563e7 0.0
0.0 0.0 0.0

-3.0649286450029556e6 2.6666751753899157e7 0.0
2.6666751753899157e7 1.6109587725667492e7 0.0
0.0 0.0 0.0

-6.056893687565664e6 2.0735145907514017e7 0.0
2.0735145907514017e7 -3.025360426630854e7 0.0
0.0 0.0 0.0

3.458715490667095e6 2.4622608436242037e7 0.0
2.4622608436242037e7 1.6340833806179855e7 0.0
0.0 0.0 0.0

-1.4175332397144223e7 1.866896683425092e7 0.0
1.866896683425092e7 -4.953181731212216e7 0.0
0.0 0.0 0.0

-5.018548890888864e6 2.649527494752526e7 0.0
2.649527494752526e7 4.327948888590501e6 0.0
0.0 0.0 0.0

-4.389377706180442e6 1.381939857214966e7 0.0
1.381939857214966e7 -8.483877258687815e7 0.0
0.0 0.0 0.0

-1.8265577987343557e6 1.3906982632346379e7 0.0
1.3906982632346379e7 -6.260551042943163e7 0.0
0.0 0.0 0.0

-5.762147875884018e6 2.6201248277598184e7 0.0
2.6201248277598184e7 -1.5148367564572513e7 0.0
0.0 0.0 0.0

-2.1722093103600528e7 3.107964156119596e7 0.0
3.107964156119596e7 -1.613101909334502e7 0.0
0.0 0.0 0.0

-1.5127224216173746e7 3.47475003981431e7 0.0
3.47475003981431e7 5.939494376019191e6 0.0
0.0 0.0 0.0

-3.7061901653774097e6 1.765172677675597e7 0.0
1.765172677675597e7 9.0541578372235e6 0.0
0.0 0.0 0.0

-1.4725933833654397e6 8.70326703734359e6 0.0
8.70326703734359e6 9.260609402466018e6 0.0
0.0 0.0 0.0

597645.612093268 2.3858426466223743e7 0.0
2.3858426466223743e7 -7.111183260066737e6 0.0
0.0 0.0 0.0

1.4808195359364765e7 2.8612041565472126e7 0.0
2.8612041565472126e7 -219586.67690982204 0.0
0.0 0.0 0.0

487477.63915507495 1.5949370315523582e7 0.0
1.5949370315523582e7 7.175775939205505e7 0.0
0.0 0.0 0.0

-981340.1820868142 2.5475897860162515e7 0.0
2.5475897860162515e7 1.3841209390685065e7 0.0
0.0 0.0 0.0

-9.382106787814658e6 3.456964069780349e7 0.0
3.456964069780349e7 7.538336285584707e6 0.0
0.0 0.0 0.0

-5.628415600395619e6 2.1258860320237372e7 0.0
2.1258860320237372e7 -1.9083256966907013e7 0.0
0.0 0.0 0.0

-4.016762046020046e6 1.33062937156328e7 0.0
1.33062937156328e7 5.9827367567490175e7 0.0
0.0 0.0 0.0

-2.1736496636979072e6 2.5239660472369988e7 0.0
2.5239660472369988e7 7.840241392033499e6 0.0
0.0 0.0 0.0

1.1660851072008386e6 2.449659595401282e7 0.0
2.449659595401282e7 -1.8432089605091583e7 0.0
0.0 0.0 0.0

-2.1247036275771875e6 1.9374586913828988e7 0.0
1.9374586913828988e7 -3.534880470200026e7 0.0
0.0 0.0 0.0

-1.495768110274911e6 1.231845023948813e7 0.0
1.231845023948813e7 -5.911346117988806e7 0.0
0.0 0.0 0.0

-549547.4919270035 1.338598557636942e7 0.0
1.338598557636942e7 -4.6931037595600665e7 0.0
0.0 0.0 0.0

-1.4447463781769816e7 2.21953062552062e7 0.0
2.21953062552062e7 -6.929393895499487e7 0.0
0.0 0.0 0.0

-3.554951960202199e6 3.5246022489884816e7 0.0
3.5246022489884816e7 5.571834811473414e6 0.0
0.0 0.0 0.0

-7.638237549168812e6 2.6989435105116565e7 0.0
2.6989435105116565e7 -1.6146983210518723e7 0.0
0.0 0.0 0.0

-1.7866178842015006e6 2.4431305565630477e7 0.0
2.4431305565630477e7 -1.5598029575206047e7 0.0
0.0 0.0 0.0

3.1947949111403987e7 2.9011808796688136e7 0.0
2.9011808796688136e7 2.4122551705263434e6 0.0
0.0 0.0 0.0

-4.294702959888238e6 7.388720677807227e6 0.0
7.388720677807227e6 6.791753724462381e7 0.0
0.0 0.0 0.0

-3.7097510819074437e6 1.3668536204272656e7 0.0
1.3668536204272656e7 -7.250090331268778e7 0.0
0.0 0.0 0.0

-98331.38052568026 1.386917573952972e7 0.0
1.386917573952972e7 -4.6870451680497006e7 0.0
0.0 0.0 0.0

-857783.6164700128 1.123208955386103e7 0.0
1.123208955386103e7 8.436479532887186e7 0.0
0.0 0.0 0.0

2.958382354370635e7 2.9409560835137084e7 0.0
2.9409560835137084e7 1.936858789112977e7 0.0
0.0 0.0 0.0

-3.634452918328747e6 1.0963580142296966e7 0.0
1.0963580142296966e7 6.4893381882591635e7 0.0
0.0 0.0 0.0

-8.50888743971172e6 -547299.1799765134 0.0
-547299.1799765134 1.4673737155932315e7 0.0
0.0 0.0 0.0

-4.118769109329589e6 3.742515797394654e7 0.0
3.742515797394654e7 2.983318178287566e6 0.0
0.0 0.0 0.0

866908.4453166928 1.3004990859241832e7 0.0
1.3004990859241832e7 -3.518085486204405e7 0.0
0.0 0.0 0.0

-9.843866365988705e6 3.9863887173443705e7 0.0
3.9863887173443705e7 6.092778040680762e6 0.0
0.0 0.0 0.0

-3.3040702639193684e6 1.5940583412774632e7 0.0
1.5940583412774632e7 5.314244155143842e7 0.0
0.0 0.0 0.0

-1.0142423678135002e7 1.1152933843675582e7 0.0
1.1152933843675582e7 2.9065083797313653e7 0.0
0.0 0.0 0.0

1.2412335560129082e7 3.825223478031055e7 0.0
3.825223478031055e7 -5.731077690603501e6 0.0
0.0 0.0 0.0

-3.9680626274357177e6 2.7604980157716192e7 0.0
2.7604980157716192e7 1.5472879841762163e7 0.0
0.0 0.0 0.0

4.47491259589425e6 3.2449901052821796e7 0.0
3.2449901052821796e7 -7.9406487107354775e6 0.0
0.0 0.0 0.0

-7.945620906105079e6 3.1078455185969666e7 0.0
3.1078455185969666e7 8.1146425700438395e6 0.0
0.0 0.0 0.0

-5.577238530671916e6 2.2194424723986868e7 0.0
2.2194424723986868e7 -3.201324580328506e7 0.0
0.0 0.0 0.0

8.034601008340852e6 2.874012231815479e7 0.0
2.874012231815479e7 -7.240186830100302e6 0.0
0.0 0.0 0.0

1.2721307761558726e7 2.15773076132948e7 0.0
2.15773076132948e7 6.245887886722759e7 0.0
0.0 0.0 0.0

-4.350270024396862e6 7.676009208047445e6 0.0
7.676009208047445e6 1.931143225009309e7 0.0
0.0 0.0 0.0

-1.6715777430074764e6 9.713195430150617e6 0.0
9.713195430150617e6 -1.1329340277307509e7 0.0
0.0 0.0 0.0

-5.669654704685932e6 2.379658137907316e7 0.0
2.379658137907316e7 -1.889884865462555e7 0.0
0.0 0.0 0.0

5.767800692019151e6 2.396579066873481e7 0.0
2.396579066873481e7 1.9226002302198526e7 0.0
0.0 0.0 0.0

1.3058092345683357e7 4.493852244547881e7 0.0
4.493852244547881e7 -6.400928221166734e6 0.0
0.0 0.0 0.0

2.9949396040477855e6 5.555535768898834e6 0.0
5.555535768898834e6 -2.1251694114291977e7 0.0
0.0 0.0 0.0

-6.079739615764361e6 4.23434300349079e7 0.0
4.23434300349079e7 4.536467412179857e6 0.0
0.0 0.0 0.0

-5.1813931275720775e7 1.995491283662404e7 0.0
1.995491283662404e7 5.716158165763523e6 0.0
0.0 0.0 0.0

1.6705595419909665e6 2.515217859946852e7 0.0
2.515217859946852e7 -1.666237520203225e7 0.0
0.0 0.0 0.0

-2.8913684771619067e6 1.7814717679885548e7 0.0
1.7814717679885548e7 4.858511345350525e7 0.0
0.0 0.0 0.0

621305.9902533325 2.5409072185684286e7 0.0
2.5409072185684286e7 -7.381247362340443e6 0.0
0.0 0.0 0.0

-4.5932919480906e6 2.8311863523630384e7 0.0
2.8311863523630384e7 1.1663255240756692e7 0.0
0.0 0.0 0.0

-1.5108134682464337e6 2.8900333753929514e7 0.0
2.8900333753929514e7 -2.0177147202429543e6 0.0
0.0 0.0 0.0

1.3871164982836894e6 2.5815286039495487e7 0.0
2.5815286039495487e7 -9.0988467214455e6 0.0
0.0 0.0 0.0

605559.500322938 4.222492053177223e6 0.0
4.222492053177223e6 -6.088766371645204e7 0.0
0.0 0.0 0.0

-1.0875398364142936e6 2.102175346999676e7 0.0
2.102175346999676e7 -3.6251333135242597e6 0.0
0.0 0.0 0.0

1.654856800520084e7 3.026260782496175e7 0.0
3.026260782496175e7 -2.789290588440095e6 0.0
0.0 0.0 0.0

-2.0771519369607698e6 2.3800386632083688e7 0.0
2.3800386632083688e7 -1.8290552227791183e7 0.0
0.0 0.0 0.0

9.442212882623099e6 2.6969345149654165e7 0.0
2.6969345149654165e7 1.3871881141498659e7 0.0
0.0 0.0 0.0

-2.9310889925951585e6 1.4015717715770345e7 0.0
1.4015717715770345e7 -6.278625920000068e7 0.0
0.0 0.0 0.0

754946.901207034 2.823523140874031e7 0.0
2.823523140874031e7 -1.0031612577752197e7 0.0
0.0 0.0 0.0

6.722387616205042e6 2.653123670428195e7 0.0
2.653123670428195e7 1.7827779972479764e7 0.0
0.0 0.0 0.0

3.825385962394704e7 3.718864240191181e7 0.0
3.718864240191181e7 -3.3292995182395168e6 0.0
0.0 0.0 0.0

-1.3924704169462603e6 1.4279071167655623e7 0.0
1.4279071167655623e7 -5.436915457298957e7 0.0
0.0 0.0 0.0

-4.172643471685415e7 1.8289695178473003e7 0.0
1.8289695178473003e7 6.201896235157777e6 0.0
0.0 0.0 0.0

4.243412910115732e6 2.227858556716084e7 0.0
2.227858556716084e7 2.3444062646770507e7 0.0
0.0 0.0 0.0

-8.846753311855037e6 4.16473452666972e7 0.0
4.16473452666972e7 5.60990021978224e6 0.0
0.0 0.0 0.0

1.2542500742480094e6 2.5661190933322445e7 0.0
2.5661190933322445e7 -1.2779874882272726e7 0.0
0.0 0.0 0.0

-7.836770419171324e6 3.531724844076074e7 0.0
3.531724844076074e7 7.211188460920694e6 0.0
0.0 0.0 0.0

-995974.6470202059 1.4876756847737197e7 0.0
1.4876756847737197e7 7.643500902165116e7 0.0
0.0 0.0 0.0

1.3435146001588963e6 1.8451856392728224e7 0.0
1.8451856392728224e7 -2.1884744230314724e7 0.0
0.0 0.0 0.0

9.782692759552987e6 3.812048781194635e7 0.0
3.812048781194635e7 -6.048654682149347e6 0.0
0.0 0.0 0.0

-2.368430347324471e6 1.4783675409806259e7 0.0
1.4783675409806259e7 4.692895987758396e6 0.0
0.0 0.0 0.0

-3.8132560640274286e7 1.7438525204388555e7 0.0
1.7438525204388555e7 6.023400333086783e6 0.0
0.0 0.0 0.0

-2.8122801016967753e6 1.9349661595293142e7 0.0
1.9349661595293142e7 1.3245509664195296e6 0.0
0.0 0.0 0.0

-8.735997034718623e6 6.685538609406405e6 0.0
6.685538609406405e6 4.122838580230598e7 0.0
0.0 0.0 0.0

-1.9732513265052643e6 1.8291815528967947e7 0.0
1.8291815528967947e7 4.927894532865457e7 0.0
0.0 0.0 0.0

-7.156559379379262e6 3.941593911203938e7 0.0
3.941593911203938e7 4.208459591680715e6 0.0
0.0 0.0 0.0

-7.784850260464966e6 4.333581148428466e7 0.0
4.333581148428466e7 4.894656132013172e6 0.0
0.0 0.0 0.0

-2.6499986949998103e6 1.4275404596378861e7 0.0
1.4275404596378861e7 6.108266967192674e7 0.0
0.0 0.0 0.0

1.0323426707271384e6 1.6481596348191462e7 0.0
1.6481596348191462e7 -1.7795581010383803e7 0.0
0.0 0.0 0.0

1.0193954140506586e7 2.7160737089301486e7 0.0
2.7160737089301486e7 2.7075139587052325e6 0.0
0.0 0.0 0.0

-4.767841518817307e6 1.8975564718859274e7 0.0
1.8975564718859274e7 -1.4207830265600655e7 0.0
0.0 0.0 0.0

914932.1448673327 1.0534323606601328e7 0.0
1.0534323606601328e7 -1.8055651827504873e7 0.0
0.0 0.0 0.0

-5.0816758216436645e6 3.9010914563721076e7 0.0
3.9010914563721076e7 4.744503329304991e6 0.0
0.0 0.0 0.0

-4.382906010511817e6 2.1000309077724602e7 0.0
2.1000309077724602e7 3.3141889111472145e7 0.0
0.0 0.0 0.0

-2.306915353018647e6 1.459504027490885e7 0.0
1.459504027490885e7 -5.486336472757876e7 0.0
0.0 0.0 0.0

-2.717472970450935e7 3.3059452268119134e7 0.0
3.3059452268119134e7 970303.0383470468 0.0
0.0 0.0 0.0

4.701381609846576e6 3.364040157925741e7 0.0
3.364040157925741e7 -6.936640717364213e6 0.0
0.0 0.0 0.0

-440595.72456666455 6.259618430112954e6 0.0
6.259618430112954e6 -7.285379914283454e7 0.0
0.0 0.0 0.0

-8773.272208735347 2.362822600465826e7 0.0
2.362822600465826e7 2.496172431468846e7 0.0
0.0 0.0 0.0

-1.2779806931321006e6 2.918405957353368e7 0.0
2.918405957353368e7 2.340903938364065e6 0.0
0.0 0.0 0.0

1.2642435284981998e6 2.536973873507269e7 0.0
2.536973873507269e7 -1.698689076420069e7 0.0
0.0 0.0 0.0

-1.1972203361694872e7 4.03666241218537e7 0.0
4.03666241218537e7 6.194925588219357e6 0.0
0.0 0.0 0.0

-590150.2459438664 2.952485060302517e7 0.0
2.952485060302517e7 -999898.6372104527 0.0
0.0 0.0 0.0

-8.61084492086425e6 4.032238568929269e7 0.0
4.032238568929269e7 4.454013726352558e6 0.0
0.0 0.0 0.0

-3.3771382563195503e6 1.0040504326248119e7 0.0
1.0040504326248119e7 7.6009526613015635e6 0.0
0.0 0.0 0.0

8.864726029362304e6 2.1665372285197366e7 0.0
2.1665372285197366e7 3.1680276442690197e7 0.0
0.0 0.0 0.0

-1.7273120397135e6 2.1849847210011512e7 0.0
2.1849847210011512e7 -2.6313102430891667e7 0.0
0.0 0.0 0.0

-1.892385663768968e6 1.8671987900879174e7 0.0
1.8671987900879174e7 2.496788848039691e6 0.0
0.0 0.0 0.0

250324.88875701185 2.35954640519965e7 0.0
2.35954640519965e7 -2.018154764456133e7 0.0
0.0 0.0 0.0

1.5472215974759944e6 9.01319988138497e6 0.0
9.01319988138497e6 -2.6537248195909165e7 0.0
0.0 0.0 0.0

1.94081033562623e7 2.840994716289326e7 0.0
2.840994716289326e7 1.3661830930475578e7 0.0
0.0 0.0 0.0

-6.568760654564548e6 2.148771778482362e6 0.0
2.148771778482362e6 5.099611118282787e7 0.0
0.0 0.0 0.0

9.95933374701279e6 2.1784596597476803e7 0.0
2.1784596597476803e7 3.617121066949647e7 0.0
0.0 0.0 0.0

-4.562820611267053e6 3.6614770078868575e7 0.0
3.6614770078868575e7 3.9815612472075624e6 0.0
0.0 0.0 0.0

-1.5760563421884775e6 2.1361616819012657e7 0.0
2.1361616819012657e7 -3.019966201743177e7 0.0
0.0 0.0 0.0

8.65998938835352e6 3.727438385905625e7 0.0
3.727438385905625e7 -5.654271938543148e6 0.0
0.0 0.0 0.0

-1.331362470872947e6 2.3738272283430256e7 0.0
2.3738272283430256e7 -3.493073486263407e6 0.0
0.0 0.0 0.0

1.690011557666216e6 1.2533578188974598e7 0.0
1.2533578188974598e7 -3.442732040584459e7 0.0
0.0 0.0 0.0

4.25928581153938e6 3.2692696721902024e7 0.0
3.2692696721902024e7 -8.312262206348618e6 0.0
0.0 0.0 0.0

-1.1166920972557263e6 2.2362280173271913e7 0.0
2.2362280173271913e7 -2.4163319249087457e7 0.0
0.0 0.0 0.0

-1.0394899209285019e7 9.98588486357372e6 0.0
9.98588486357372e6 2.2070713619410846e7 0.0
0.0 0.0 0.0

6.788083946897815e6 2.4231126500498205e7 0.0
2.4231126500498205e7 2.2280249281997055e7 0.0
0.0 0.0 0.0

-6.174425087601353e6 2.896078522585484e7 0.0
2.896078522585484e7 1.1007574535449643e7 0.0
0.0 0.0 0.0

-5.280717540633073e6 3.759360643998025e7 0.0
3.759360643998025e7 3.959034462144864e6 0.0
0.0 0.0 0.0

791998.2624070263 2.3971534585236687e7 0.0
2.3971534585236687e7 1.4963094249289628e7 0.0
0.0 0.0 0.0

-8.394624376056556e6 5.8051412694376735e6 0.0
5.8051412694376735e6 1.6856068577836864e7 0.0
0.0 0.0 0.0

-5.733800919388317e6 1.3075668669892238e7 0.0
1.3075668669892238e7 5.157234846884696e7 0.0
0.0 0.0 0.0

967758.7889905628 2.4296535243588287e7 0.0
2.4296535243588287e7 -1.841587380760953e7 0.0
0.0 0.0 0.0

-5.521823592363067e6 1.742692811502721e7 0.0
1.742692811502721e7 -8.444508878788853e7 0.0
0.0 0.0 0.0

-7.109615941863621e6 7.696385554532889e6 0.0
7.696385554532889e6 1.5013199768032964e7 0.0
0.0 0.0 0.0

-9.743303590590807e6 4.933176896039183e6 0.0
4.933176896039183e6 3.0720000668784894e7 0.0
0.0 0.0 0.0

-3.001265678781655e6 2.1714658207846265e7 0.0
2.1714658207846265e7 1.1333101747987337e7 0.0
0.0 0.0 0.0

3.901910239404763e6 3.3963933351249754e7 0.0
3.3963933351249754e7 -6.199755507554726e6 0.0
0.0 0.0 0.0

-6.792344580121441e6 1.9433479241457637e7 0.0
1.9433479241457637e7 -5.397708233824803e7 0.0
0.0 0.0 0.0

2.465275567616109e6 8.584316093378818e6 0.0
8.584316093378818e6 -2.280629978301153e7 0.0
0.0 0.0 0.0

-2.636112249392354e6 3.6963454363633685e7 0.0
3.6963454363633685e7 3.6823467478217296e6 0.0
0.0 0.0 0.0

5.411452797301866e6 3.3174409727325916e7 0.0
3.3174409727325916e7 -7.545489082440242e6 0.0
0.0 0.0 0.0

-1.3247884308995444e7 5.0832225305646054e7 0.0
5.0832225305646054e7 4.445907796835103e6 0.0
0.0 0.0 0.0

-3.618005618185723e6 3.709027043578852e7 0.0
3.709027043578852e7 4.705236032154258e6 0.0
0.0 0.0 0.0

-3.567519711439983e7 3.491587803506207e7 0.0
3.491587803506207e7 -1.6165997402542483e7 0.0
0.0 0.0 0.0

-6.10978764347999e6 2.6817699040362213e7 0.0
2.6817699040362213e7 -2.4478815764634074e6 0.0
0.0 0.0 0.0

-5.915830621688802e6 1.7333379425944757e7 0.0
1.7333379425944757e7 -7.771722654801664e7 0.0
0.0 0.0 0.0

-3.001758696670901e6 1.787332047232921e7 0.0
1.787332047232921e7 1.2859567321688798e6 0.0
0.0 0.0 0.0

-6.630879548525173e6 4.302627181835411e6 0.0
4.302627181835411e6 5.8341299006086014e7 0.0
0.0 0.0 0.0

-4.747158656293482e6 8.131874590937495e6 0.0
8.131874590937495e6 6.777409462022881e7 0.0
0.0 0.0 0.0

611474.5698376074 7.377569615435933e6 0.0
7.377569615435933e6 -5.271734257139213e7 0.0
0.0 0.0 0.0

-5.611033453441113e6 3.046114556105612e7 0.0
3.046114556105612e7 1.0616495555810029e7 0.0
0.0 0.0 0.0

-219149.9040491283 1.6346585822878603e7 0.0
1.6346585822878603e7 6.6218524784813926e7 0.0
0.0 0.0 0.0

-442420.5715663042 2.2964071952605933e7 0.0
2.2964071952605933e7 -2.210874028773387e7 0.0
0.0 0.0 0.0

2.0301817973538227e6 1.854461079924773e7 0.0
1.854461079924773e7 6.413189810321706e7 0.0
0.0 0.0 0.0

3.3661454935409566e6 3.3131479983336274e7 0.0
3.3131479983336274e7 -7.736883580560666e6 0.0
0.0 0.0 0.0

6.448851835738156e6 4.082605799169032e7 0.0
4.082605799169032e7 -4.681199079288766e6 0.0
0.0 0.0 0.0

-840442.2150357619 2.356435284386109e7 0.0
2.356435284386109e7 -6.020869422755365e6 0.0
0.0 0.0 0.0

-9.722147428952836e6 8.007285569018932e6 0.0
8.007285569018932e6 2.9537782702377386e7 0.0
0.0 0.0 0.0

2.5614052286827737e6 2.3080471029266447e7 0.0
2.3080471029266447e7 1.907993217050103e7 0.0
0.0 0.0 0.0

-2.0886843272611639e6 2.088602872090787e7 0.0
2.088602872090787e7 1.2805024995007558e7 0.0
0.0 0.0 0.0

1.263279375880234e6 4.946172559162935e6 0.0
4.946172559162935e6 -4.814570246310033e7 0.0
0.0 0.0 0.0

7.417886669342705e6 2.8438407706198283e7 0.0
2.8438407706198283e7 -5.5850065276768785e6 0.0
0.0 0.0 0.0

-1.900657224943922e7 2.525627425732099e7 0.0
2.525627425732099e7 -3.068369204673979e6 0.0
0.0 0.0 0.0

-3.1768531942050494e7 2.9668024682180498e7 0.0
2.9668024682180498e7 -1.1372090596301336e7 0.0
0.0 0.0 0.0

-2.540606604597505e6 3.792131001127072e7 0.0
3.792131001127072e7 1.0681557186223655e6 0.0
0.0 0.0 0.0

-83023.2098972639 1.5834024732019143e7 0.0
1.5834024732019143e7 -1.6701763204662545e7 0.0
0.0 0.0 0.0

-8.739149618033929e6 2.641272451878721e7 0.0
2.641272451878721e7 -2.2287576051337547e6 0.0
0.0 0.0 0.0

4.24796406260048e6 4.096138812520867e7 0.0
4.096138812520867e7 -2.3369100347959646e6 0.0
0.0 0.0 0.0

-804642.9873068854 2.365432019972793e7 0.0
2.365432019972793e7 2.5991215850073e7 0.0
0.0 0.0 0.0

-401085.4455632493 2.4579144530217055e7 0.0
2.4579144530217055e7 1.4477937603717221e7 0.0
0.0 0.0 0.0

978727.5121533163 1.5258827086191567e7 0.0
1.5258827086191567e7 -1.5761779258169718e7 0.0
0.0 0.0 0.0

-2.4094949568319316e6 4.3474473232416466e7 0.0
4.3474473232416466e7 1.9467303649943015e6 0.0
0.0 0.0 0.0

-8.072903022710927e6 3.986270863808039e6 0.0
3.986270863808039e6 4.480611200658526e7 0.0
0.0 0.0 0.0

2.325510053758066e6 6.34577847220258e6 0.0
6.34577847220258e6 -3.725162040982422e7 0.0
0.0 0.0 0.0

2.1620991324850325e6 3.680924816169268e7 0.0
3.680924816169268e7 -2.4352277665365227e6 0.0
0.0 0.0 0.0

-1.8289021447217828e6 2.2294995222762134e7 0.0
2.2294995222762134e7 -2.7013308015892018e7 0.0
0.0 0.0 0.0

-7.596113828113121e6 -101895.92564665263 0.0
-101895.92564665263 1.4208184806057958e7 0.0
0.0 0.0 0.0

356072.9381462373 1.150226394737548e7 0.0
1.150226394737548e7 -1.5429749250963492e7 0.0
0.0 0.0 0.0

-1.4342139564888049e7 2.9436784729407594e7 0.0
2.9436784729407594e7 -1.4129485619748337e7 0.0
0.0 0.0 0.0

1.4905259733326212e6 1.4180680567661375e7 0.0
1.4180680567661375e7 -3.3175080178992856e7 0.0
0.0 0.0 0.0

1.895182224607908e7 2.9375548314157687e7 0.0
2.9375548314157687e7 1.6661732257826727e7 0.0
0.0 0.0 0.0

-5.30386692013927e6 1.1135005457879597e7 0.0
1.1135005457879597e7 5.785739531960458e6 0.0
0.0 0.0 0.0

-9.646620777038999e6 5.954952248581057e6 0.0
5.954952248581057e6 1.2416834109332945e7 0.0
0.0 0.0 0.0

1.498575378125007e7 3.839993074168924e7 0.0
3.839993074168924e7 -5.807969370054023e6 0.0
0.0 0.0 0.0

-8.006204111412812e6 4.48837690036229e6 0.0
4.48837690036229e6 4.331618422794587e7 0.0
0.0 0.0 0.0

1.141271208065302e6 2.0150584577388395e7 0.0
2.0150584577388395e7 -1.844692884302191e7 0.0
0.0 0.0 0.0

2.5386628847018257e6 2.4298022156771697e7 0.0
2.4298022156771697e7 3.884773578045918e6 0.0
0.0 0.0 0.0

2.5659929012971077e7 3.2100375274159018e7 0.0
3.2100375274159018e7 -1.7010432064176835e6 0.0
0.0 0.0 0.0

1.090279293810553e6 2.1464595653086502e7 0.0
2.1464595653086502e7 -2.3051401962326616e7 0.0
0.0 0.0 0.0

1.2917350847542014e7 2.248446721915649e7 0.0
2.248446721915649e7 4.781340218240404e7 0.0
0.0 0.0 0.0

-1.0743385577721488e7 3.4953517210446976e7 0.0
3.4953517210446976e7 6.984837446034727e6 0.0
0.0 0.0 0.0

-6.239673144452795e6 4.375742291293975e6 0.0
4.375742291293975e6 5.415520627809475e7 0.0
0.0 0.0 0.0

3.211023916829723e6 3.697312534635213e7 0.0
3.697312534635213e7 -3.1212071435162826e6 0.0
0.0 0.0 0.0

2.6777682998699043e6 2.3804436132788002e7 0.0
2.3804436132788002e7 2.649026903581422e7 0.0
0.0 0.0 0.0

1.1060219631931912e6 1.3450428417887423e7 0.0
1.3450428417887423e7 -2.72424949149284e7 0.0
0.0 0.0 0.0

1.604934373736307e6 5.420213886265507e6 0.0
5.420213886265507e6 -5.431381291492169e7 0.0
0.0 0.0 0.0

-1.240546436575136e6 2.933022195265239e7 0.0
2.933022195265239e7 -3.120794042578389e6 0.0
0.0 0.0 0.0

-6.88755402559689e6 1.5143592999877881e7 0.0
1.5143592999877881e7 2.1544993061066587e7 0.0
0.0 0.0 0.0

-3.825609855695201e6 1.9345292271485798e7 0.0
1.9345292271485798e7 4.056348936861174e7 0.0
0.0 0.0 0.0

-2.165166520252467e6 2.0871903364043154e7 0.0
2.0871903364043154e7 -3.258735583915921e7 0.0
0.0 0.0 0.0

-5.181883479833029e6 1.672265716979851e7 0.0
1.672265716979851e7 -7.222576651544619e7 0.0
0.0 0.0 0.0

3.814928624365211e6 3.79105253857888e7 0.0
3.79105253857888e7 -3.130952978091412e6 0.0
0.0 0.0 0.0

35062.82112225378 2.4297156871791743e7 0.0
2.4297156871791743e7 1.1564626401764821e7 0.0
0.0 0.0 0.0

-4.75486637182005e7 1.8754783958257183e7 0.0
1.8754783958257183e7 5.3837963255815655e6 0.0
0.0 0.0 0.0

1.408443455217078e7 2.295205656023322e7 0.0
2.295205656023322e7 5.3482734687964775e7 0.0
0.0 0.0 0.0

-4.265019319411097e7 4.20950192624789e7 0.0
4.20950192624789e7 5.384048541772181e6 0.0
0.0 0.0 0.0

403806.0039375685 1.296350549418689e7 0.0
1.296350549418689e7 -4.068131731864728e7 0.0
0.0 0.0 0.0

1.1245463298414694e7 6.239526845835618e6 0.0
6.239526845835618e6 -1.5039269861805514e6 0.0
0.0 0.0 0.0

-2.0865105552395687e7 2.8881045829853364e6 0.0
2.8881045829853364e6 5.596012722589982e6 0.0
0.0 0.0 0.0

-7.295264845689237e6 1.3866734413049804e7 0.0
1.3866734413049804e7 1.9672609494298663e7 0.0
0.0 0.0 0.0

-6.754485548552234e6 5.836908440562874e6 0.0
5.836908440562874e6 5.151153887587959e7 0.0
0.0 0.0 0.0

-8.383691004468054e6 6.690381494137463e6 0.0
6.690381494137463e6 4.337170137634223e7 0.0
0.0 0.0 0.0

140462.0999318445 2.3998283077974755e7 0.0
2.3998283077974755e7 -2.0860353326273166e7 0.0
0.0 0.0 0.0

-3.514599258998593e6 2.049107405462667e7 0.0
2.049107405462667e7 -1.17153306868722e7 0.0
0.0 0.0 0.0

3.440944847637201e6 2.063621055609782e7 0.0
2.063621055609782e7 1.1469816099887557e7 0.0
0.0 0.0 0.0

1.9365291954643093e6 2.4072253282779865e7 0.0
2.4072253282779865e7 283992.3280162766 0.0
0.0 0.0 0.0

4.497746072392537e6 3.884953137877003e7 0.0
3.884953137877003e7 -3.0578760401653806e6 0.0
0.0 0.0 0.0

-8.3700145863168035e6 1.4642262040211719e7 0.0
1.4642262040211719e7 2.6886602130314555e7 0.0
0.0 0.0 0.0

767707.3969620066 2.2354271315095928e7 0.0
2.2354271315095928e7 -2.146020332442292e7 0.0
0.0 0.0 0.0

-2.6513113441898567e6 3.1747038451863993e7 0.0
3.1747038451863993e7 3.9314454587331936e6 0.0
0.0 0.0 0.0

215521.24567580037 1.034244948465001e7 0.0
1.034244948465001e7 -4.843640079800804e7 0.0
0.0 0.0 0.0

-7.527815475473452e6 5.345803474257028e6 0.0
5.345803474257028e6 4.629620538937352e7 0.0
0.0 0.0 0.0

3.6006177147293407e6 3.6011287792914554e7 0.0
3.6011287792914554e7 -4.183617607956455e6 0.0
0.0 0.0 0.0

-773065.4952075607 2.44700450195758e7 0.0
2.44700450195758e7 8.168021455895637e6 0.0
0.0 0.0 0.0

-1.6495688631116457e6 2.474584195690216e7 0.0
2.474584195690216e7 4.846891153135316e6 0.0
0.0 0.0 0.0

-9.547793160001606e6 2.8712442347841762e7 0.0
2.8712442347841762e7 -1.616766517810283e7 0.0
0.0 0.0 0.0

1.0295302208344294e7 1.929382986186948e7 0.0
1.929382986186948e7 3.56241395041403e7 0.0
0.0 0.0 0.0

-1.1522223425549537e7 2.735972659794323e7 0.0
2.735972659794323e7 -1.386091148791859e7 0.0
0.0 0.0 0.0

-2.634615203977052e6 1.7245479650435824e7 0.0
1.7245479650435824e7 5.212671024492581e7 0.0
0.0 0.0 0.0

-6.953973007531915e6 4.28393708005894e6 0.0
4.28393708005894e6 5.412680248226538e7 0.0
0.0 0.0 0.0

1.866508029470453e6 1.289565896706489e7 0.0
1.289565896706489e7 -2.6319761107315578e7 0.0
0.0 0.0 0.0

563969.1170936227 6.334548923258477e6 0.0
6.334548923258477e6 -5.548620980036335e7 0.0
0.0 0.0 0.0

1.4553126761667188e6 2.3036936492046352e7 0.0
2.3036936492046352e7 -1.966690217476075e7 0.0
0.0 0.0 0.0

1.2088501686673451e7 2.7890759215610616e7 0.0
2.7890759215610616e7 1.3990086172376417e7 0.0
0.0 0.0 0.0

1.7713990044572214e6 7.576863751588206e6 0.0
7.576863751588206e6 -2.4427319641562857e7 0.0
0.0 0.0 0.0

-1.056060453249025e7 2.1297051184051044e7 0.0
2.1297051184051044e7 -4.235125226699469e7 0.0
0.0 0.0 0.0

-4.581409530707579e6 1.635907068426601e7 0.0
1.635907068426601e7 -6.7056885553704046e7 0.0
0.0 0.0 0.0

-2.948737719983977e6 2.061719013989343e7 0.0
2.061719013989343e7 8.247736201894904e6 0.0
0.0 0.0 0.0

-7.4706985032133665e6 3.0976829662611563e7 0.0
3.0976829662611563e7 9.998947333523404e6 0.0
0.0 0.0 0.0

-1.5046810944854109e7 2.8289958756818105e7 0.0
2.8289958756818105e7 -1.474332531612574e7 0.0
0.0 0.0 0.0

-4.906787995496038e6 4.870845294127196e6 0.0
4.870845294127196e6 6.6277335367666215e7 0.0
0.0 0.0 0.0

-3.952170662665589e6 1.6208743116085354e7 0.0
1.6208743116085354e7 -6.2554975436416805e7 0.0
0.0 0.0 0.0

-2.3500167875976004e6 1.6529745804303098e7 0.0
1.6529745804303098e7 5.576417624853764e7 0.0
0.0 0.0 0.0

-2.70968559876806e6 2.497548137226703e7 0.0
2.497548137226703e7 1.488835139874868e6 0.0
0.0 0.0 0.0

2.6555738610943635e6 3.8355661231697135e7 0.0
3.8355661231697135e7 -3.830968373083126e6 0.0
0.0 0.0 0.0

-1.7036800671561107e7 3.404692545696738e7 0.0
3.404692545696738e7 4.841788644128883e6 0.0
0.0 0.0 0.0

-4.726817784154372e6 1.851358251630434e7 0.0
1.851358251630434e7 3.9982501759229794e7 0.0
0.0 0.0 0.0

-7.161171892512819e6 1.8609088647178877e7 0.0
1.8609088647178877e7 -2.3706455916872427e7 0.0
0.0 0.0 0.0

6.725772413426792e6 2.1395523826222423e7 0.0
2.1395523826222423e7 2.1325489184298504e7 0.0
0.0 0.0 0.0

498311.87305208854 8.173127581703856e6 0.0
8.173127581703856e6 -5.026331599394902e7 0.0
0.0 0.0 0.0

777401.1588879274 1.0611776299186239e7 0.0
1.0611776299186239e7 -1.706224325663248e7 0.0
0.0 0.0 0.0

-4.656245751770381e6 1.410667421517338e7 0.0
1.410667421517338e7 5.28827010030469e7 0.0
0.0 0.0 0.0

-3.040715502610516e6 2.6587200689786028e7 0.0
2.6587200689786028e7 1.4604664467119643e7 0.0
0.0 0.0 0.0

-4.196358477006238e7 3.467811803347781e7 0.0
3.467811803347781e7 -1.4346147958977148e6 0.0
0.0 0.0 0.0

-1.483703397758944e6 1.8623846483447168e7 0.0
1.8623846483447168e7 -3.589038251651098e7 0.0
0.0 0.0 0.0

-120378.25403280742 1.2256128823163826e7 0.0
1.2256128823163826e7 -4.6458686582511276e7 0.0
0.0 0.0 0.0

-3.295900267787222e6 1.6231862220090328e7 0.0
1.6231862220090328e7 -5.832827893237085e7 0.0
0.0 0.0 0.0

2.4566298768545827e6 4.504870061704567e6 0.0
4.504870061704567e6 -1.2092141748666286e7 0.0
0.0 0.0 0.0

1.5507718178168423e6 2.5920784246435877e7 0.0
2.5920784246435877e7 -1.3477841340006288e7 0.0
0.0 0.0 0.0

4.073652045309096e6 2.8213701745985862e7 0.0
2.8213701745985862e7 -1.0607987969858717e7 0.0
0.0 0.0 0.0

-2.708614643081185e7 4.747541306245371e7 0.0
4.747541306245371e7 7.687168965382995e6 0.0
0.0 0.0 0.0

1.219819421135065e6 4.713969954641384e6 0.0
4.713969954641384e6 -5.768222503452641e6 0.0
0.0 0.0 0.0

-1.1493845660635438e6 2.281769206987226e7 0.0
2.281769206987226e7 -2.4768416596011013e7 0.0
0.0 0.0 0.0

-3.618631306950694e6 2.103985824690164e7 0.0
2.103985824690164e7 3.3274884048256185e7 0.0
0.0 0.0 0.0

-8.503290162810544e6 5.54616400577234e6 0.0
5.54616400577234e6 3.818435969604701e7 0.0
0.0 0.0 0.0

1.183086918207448e6 5.740008886496846e6 0.0
5.740008886496846e6 -4.600496353493985e7 0.0
0.0 0.0 0.0

-8.732073202883353e6 8.435750615602806e6 0.0
8.435750615602806e6 3.739804013687223e7 0.0
0.0 0.0 0.0

-7.567542480775407e6 8.176915893435842e6 0.0
8.176915893435842e6 4.511081846238735e7 0.0
0.0 0.0 0.0

-8.057397907607246e6 1.4114247773825394e7 0.0
1.4114247773825394e7 2.325881050602321e7 0.0
0.0 0.0 0.0

-4.648681535821685e6 2.8385874780967377e7 0.0
2.8385874780967377e7 1.433624589412239e7 0.0
0.0 0.0 0.0

-2.039946267640616e6 1.5586850887489598e7 0.0
1.5586850887489598e7 2.54840054809812e6 0.0
0.0 0.0 0.0

3.108954639824629e7 6.547953654583029e6 0.0
6.547953654583029e6 -1.2544780641826577e6 0.0
0.0 0.0 0.0

-4.0896516745061904e7 4.9717716066193925e6 0.0
4.9717716066193925e6 5.365761667657334e6 0.0
0.0 0.0 0.0

2.1733276671849955e6 9.785366698365718e6 0.0
9.785366698365718e6 -1.8553662970272068e7 0.0
0.0 0.0 0.0

803405.9698611982 1.1769207559408244e7 0.0
1.1769207559408244e7 -4.5719518643045105e7 0.0
0.0 0.0 0.0

1.2048165464884136e6 9.675686311944028e6 0.0
9.675686311944028e6 -4.742725279153907e7 0.0
0.0 0.0 0.0

-15281.133971167845 2.8118325167051456e6 0.0
2.8118325167051456e6 2.2301810233218013e6 0.0
0.0 0.0 0.0

-5.457972207039778e6 179250.62460999878 0.0
179250.62460999878 3.8075595256104255e6 0.0
0.0 0.0 0.0

-7.341252569086617e6 2.164825003480991e7 0.0
2.164825003480991e7 -3.748201884904466e7 0.0
0.0 0.0 0.0

814820.4861173332 6.25047751942222e6 0.0
6.25047751942222e6 -5.1909438277637206e7 0.0
0.0 0.0 0.0

-3.7415524580818e7 3.1276580666931223e7 0.0
3.1276580666931223e7 -1.6661250411074817e7 0.0
0.0 0.0 0.0

-3.6928347073784648e6 2.4758890793341856e7 0.0
2.4758890793341856e7 2.0512596867955934e7 0.0
0.0 0.0 0.0

3.8274890300990706e6 3.500009178149804e7 0.0
3.500009178149804e7 -5.167397982692821e6 0.0
0.0 0.0 0.0

9.010525952495832e6 1.9205157265948363e7 0.0
1.9205157265948363e7 3.1102238590988085e7 0.0
0.0 0.0 0.0

1.850479319477864e7 1.305192261839758e7 0.0
1.305192261839758e7 2.123670898189332e6 0.0
0.0 0.0 0.0

-1.8282607529386636e7 3.1305982138083633e7 0.0
3.1305982138083633e7 -1.5460659535096541e7 0.0
0.0 0.0 0.0

-5.565845603764482e6 8.357796384638359e6 0.0
8.357796384638359e6 5.797133547980306e7 0.0
0.0 0.0 0.0

-6.977849314470962e6 2.992901813801151e7 0.0
2.992901813801151e7 1.0531930707820626e7 0.0
0.0 0.0 0.0

4.994180537553748e6 2.8409788057813253e7 0.0
2.8409788057813253e7 -8.967609877023011e6 0.0
0.0 0.0 0.0

-3.560367649327835e6 2.1646468855170395e7 0.0
2.1646468855170395e7 3.1234816323121183e7 0.0
0.0 0.0 0.0

-7.970139533093015e6 1.557757581975038e6 0.0
1.557757581975038e6 3.815848592861757e7 0.0
0.0 0.0 0.0

1.6319391740020483e6 3.645598993347614e7 0.0
3.645598993347614e7 -3.9250940738486564e6 0.0
0.0 0.0 0.0

329060.55793280713 1.2097026955447264e7 0.0
1.2097026955447264e7 -4.327942278698604e7 0.0
0.0 0.0 0.0

6.547208852282435e6 3.379601730745415e7 0.0
3.379601730745415e7 -7.258362711766338e6 0.0
0.0 0.0 0.0

1.525625261150632e6 7.676429279541798e6 0.0
7.676429279541798e6 -4.947604894328141e7 0.0
0.0 0.0 0.0

8.453086968407001e6 2.207591194932171e7 0.0
2.207591194932171e7 2.4864889942074757e7 0.0
0.0 0.0 0.0

467881.89172432804 2.6792275381560877e7 0.0
2.6792275381560877e7 -1.1715224332245275e7 0.0
0.0 0.0 0.0

-1.072708240065155e7 5.878619936980249e6 0.0
5.878619936980249e6 2.291614730430543e7 0.0
0.0 0.0 0.0

-4.0893435044487994e6 2.0244661893789135e7 0.0
2.0244661893789135e7 -1.1935834531664781e7 0.0
0.0 0.0 0.0

1.8025403136762679e6 5.436787515687633e6 0.0
5.436787515687633e6 -5.066183026160199e7 0.0
0.0 0.0 0.0

2.1792682667278334e7 3.4030816993925035e7 0.0
3.4030816993925035e7 -3.824092508257241e6 0.0
0.0 0.0 0.0

1.5550374069955721e6 8.567632397529565e6 0.0
8.567632397529565e6 -2.2799103170364715e7 0.0
0.0 0.0 0.0

-1.0370257651335236e7 1.0410423392711608e7 0.0
1.0410423392711608e7 2.774430863287101e7 0.0
0.0 0.0 0.0

-3.93275507832151e6 3.563013933555848e7 0.0
3.563013933555848e7 3.8847757127285656e6 0.0
0.0 0.0 0.0

-3.011159972795164e6 1.6285064533650056e7 0.0
1.6285064533650056e7 -5.4251870932693146e7 0.0
0.0 0.0 0.0

-6.3056189077252215e6 2.0128625180945814e7 0.0
2.0128625180945814e7 -2.101872935028338e7 0.0
0.0 0.0 0.0

6.030641390506571e6 2.0469572891384695e7 0.0
2.0469572891384695e7 2.0102138329864673e7 0.0
0.0 0.0 0.0

-2.206701843514909e6 1.638244634138841e7 0.0
1.638244634138841e7 4.5344533844672805e6 0.0
0.0 0.0 0.0

-4.002339072852255e6 1.8810895563761752e7 0.0
1.8810895563761752e7 1.2539654090131681e7 0.0
0.0 0.0 0.0

4.656084599868171e6 2.3112909313911106e7 0.0
2.3112909313911106e7 2.658970398612445e7 0.0
0.0 0.0 0.0

-8.74063211033102e6 3.2872582442665705e6 0.0
3.2872582442665705e6 3.3216560493029114e7 0.0
0.0 0.0 0.0

3.714020120594075e6 2.6094941992843512e7 0.0
2.6094941992843512e7 6.909593339665559e6 0.0
0.0 0.0 0.0

-3.5833114363769097e6 2.75562205725054e7 0.0
2.75562205725054e7 1.5349442313514054e7 0.0
0.0 0.0 0.0

1.4365177703734674e6 8.809976508693999e6 0.0
8.809976508693999e6 -2.0089184306573663e7 0.0
0.0 0.0 0.0

-9.532775481434636e6 6.919294720643985e6 0.0
6.919294720643985e6 3.535849980601849e7 0.0
0.0 0.0 0.0

-9.496796430651292e6 2.6803593723853163e7 0.0
2.6803593723853163e7 -1.1508329831689572e7 0.0
0.0 0.0 0.0

-4.1124876198806297e6 2.2292352304562002e7 0.0
2.2292352304562002e7 2.937627092574991e7 0.0
0.0 0.0 0.0

1.3908248372251913e6 2.4287745612564985e7 0.0
2.4287745612564985e7 2.1078972841391087e7 0.0
0.0 0.0 0.0

-8.60966371003516e6 1.1198532892570538e7 0.0
1.1198532892570538e7 3.6560562189441405e7 0.0
0.0 0.0 0.0

4.1742673812863985e6 2.7775477802126735e7 0.0
2.7775477802126735e7 -1.1834548141436677e7 0.0
0.0 0.0 0.0

-7.569351169052262e6 3.405803783730968e7 0.0
3.405803783730968e7 7.988197148631541e6 0.0
0.0 0.0 0.0

-5.510928068827622e6 1.235410965501658e7 0.0
1.235410965501658e7 5.220201513875242e7 0.0
0.0 0.0 0.0

-7.601130268297317e6 1.6078762661828822e7 0.0
1.6078762661828822e7 1.9660836836541116e7 0.0
0.0 0.0 0.0

-7.243819207802225e6 5.836906393953331e6 0.0
5.836906393953331e6 5.109549996459122e7 0.0
0.0 0.0 0.0

655043.6081196042 2.1584213914742295e7 0.0
2.1584213914742295e7 -2.3239538503445808e7 0.0
0.0 0.0 0.0

-6.305388553395684e6 3.015024581072983e7 0.0
3.015024581072983e7 1.1507714207023852e7 0.0
0.0 0.0 0.0

-3.7753577519248086e6 2.5168878657519195e7 0.0
2.5168878657519195e7 -1.8024201200389075e6 0.0
0.0 0.0 0.0

2.2943350263422e6 9.948350869693484e6 0.0
9.948350869693484e6 -2.4936081061698046e7 0.0
0.0 0.0 0.0

-7.572821294688689e6 2.291351547043497e6 0.0
2.291351547043497e6 4.2391554384367384e7 0.0
0.0 0.0 0.0

1.1167095120232105e6 1.8850344355657913e7 0.0
1.8850344355657913e7 5.9572975729822315e7 0.0
0.0 0.0 0.0

-3.129180197881568e6 1.5141336897107199e7 0.0
1.5141336897107199e7 5.676752343059566e7 0.0
0.0 0.0 0.0

3.471257968361071e6 2.426091615796049e7 0.0
2.426091615796049e7 1.4383995252869947e7 0.0
0.0 0.0 0.0

-9.57323534626309e6 9.771794877803033e6 0.0
9.771794877803033e6 3.462200061139472e7 0.0
0.0 0.0 0.0

-2.98890667676068e6 1.796944914642934e7 0.0
1.796944914642934e7 1.4124743420939377e7 0.0
0.0 0.0 0.0

-266678.76593644335 2.5259475407308303e7 0.0
2.5259475407308303e7 -6.881452122263698e6 0.0
0.0 0.0 0.0

392672.2963281134 1.9342405280085314e7 0.0
1.9342405280085314e7 -1.972897692812131e7 0.0
0.0 0.0 0.0

-3.8387707390973726e6 2.7550813831756108e7 0.0
2.7550813831756108e7 1.6539281144240782e7 0.0
0.0 0.0 0.0

-6.091398496729505e6 3.9877770938423e7 0.0
3.9877770938423e7 4.929183510477036e6 0.0
0.0 0.0 0.0

-5.92892149525152e6 1.6067940992789248e7 0.0
1.6067940992789248e7 4.3387892898780264e7 0.0
0.0 0.0 0.0

1.277911568080938e7 1.9626531259337153e7 0.0
1.9626531259337153e7 4.5493730046578504e7 0.0
0.0 0.0 0.0

112144.60865018982 2.5292252315161593e7 0.0
2.5292252315161593e7 -1.0611320353018135e7 0.0
0.0 0.0 0.0

1.6631444144827202e6 1.3432610931700313e7 0.0
1.3432610931700313e7 -3.2588163615582112e7 0.0
0.0 0.0 0.0

1.3272991782784313e6 2.967510768716271e6 0.0
2.967510768716271e6 -5.468574983402726e7 0.0
0.0 0.0 0.0

-7.300969592030833e6 2.375646762237156e6 0.0
2.375646762237156e6 4.7569353592822984e7 0.0
0.0 0.0 0.0

-3.3736184504059274e6 2.745491553127693e7 0.0
2.745491553127693e7 1.5142185359553853e7 0.0
0.0 0.0 0.0

1.3681743747674813e6 1.944561176886174e7 0.0
1.944561176886174e7 1.9719990435069557e7 0.0
0.0 0.0 0.0

4.918926110383876e6 1.940375740150206e7 0.0
1.940375740150206e7 8.397002496296053e7 0.0
0.0 0.0 0.0

46349.70457864087 1.829572392395007e7 0.0
1.829572392395007e7 -1.8115537388980277e7 0.0
0.0 0.0 0.0

1.0009882048657706e7 2.059851503766597e7 0.0
2.059851503766597e7 3.3366273840506677e7 0.0
0.0 0.0 0.0

-8.988544941289106e6 2.896567213756161e6 0.0
2.896567213756161e6 3.553711966653666e7 0.0
0.0 0.0 0.0

-2.6807921501785357e7 3.40255758343339e6 0.0
3.40255758343339e6 7.187129263575425e6 0.0
0.0 0.0 0.0

886571.2255611606 1.125430073722946e7 0.0
1.125430073722946e7 -3.9293200814016566e7 0.0
0.0 0.0 0.0

-1.0199974355823968e7 7.89188924842942e6 0.0
7.89188924842942e6 3.042962628364951e7 0.0
0.0 0.0 0.0

-28840.302300009876 1.3038766579991963e7 0.0
1.3038766579991963e7 -4.37656272015339e7 0.0
0.0 0.0 0.0

-2.548956141813945e6 1.9353740260944955e7 0.0
1.9353740260944955e7 4.298933127653364e7 0.0
0.0 0.0 0.0

2.5568521063723154e6 3.3026777528390596e6 0.0
3.3026777528390596e6 -3.379115545971355e7 0.0
0.0 0.0 0.0

1.8119903492039565e7 3.53333163765137e7 0.0
3.53333163765137e7 -4.904104432826088e6 0.0
0.0 0.0 0.0

-1.7661868403229183e6 1.7896070361145813e7 0.0
1.7896070361145813e7 631761.6223786246 0.0
0.0 0.0 0.0

609105.1459006828 7.659831378744831e6 0.0
7.659831378744831e6 -3.8168518286721786e6 0.0
0.0 0.0 0.0

4.3988980536050625e7 6.927897623363113e6 0.0
6.927897623363113e6 -737009.3104084898 0.0
0.0 0.0 0.0

-901981.1582887452 1.99919088296829e7 0.0
1.99919088296829e7 4.5074724013490394e7 0.0
0.0 0.0 0.0

-1.623791423086797e6 1.282280562693743e7 0.0
1.282280562693743e7 -6.572188987107976e6 0.0
0.0 0.0 0.0

-7.82508479535014e6 7.35734940124622e6 0.0
7.35734940124622e6 4.808239956465924e7 0.0
0.0 0.0 0.0

1.506842127024117e6 6.061110718992114e6 0.0
6.061110718992114e6 -1.1821656367191825e7 0.0
0.0 0.0 0.0

-8.287209208432516e6 2.635099062312567e7 0.0
2.635099062312567e7 -8.507091968861345e6 0.0
0.0 0.0 0.0

-2.855060514631397e6 2.489557701661992e7 0.0
2.489557701661992e7 2.0680987391731724e7 0.0
0.0 0.0 0.0

-9.288746565896958e6 1.1887696180770572e7 0.0
1.1887696180770572e7 2.971799910500589e7 0.0
0.0 0.0 0.0

1.0250818144463524e6 9.472928320973797e6 0.0
9.472928320973797e6 -4.068785469928404e7 0.0
0.0 0.0 0.0

-9.29396191858898e6 1.9593127037081417e7 0.0
1.9593127037081417e7 -5.175954773679258e7 0.0
0.0 0.0 0.0

-9.002599400695171e6 9.053402921463206e6 0.0
9.053402921463206e6 1.2664847259654483e7 0.0
0.0 0.0 0.0

2.124751097742459e6 3.5557933655344974e6 0.0
3.5557933655344974e6 -3.06129282580346e7 0.0
0.0 0.0 0.0

206101.87718102802 2.2674431535453375e7 0.0
2.2674431535453375e7 -1.6564599293821193e7 0.0
0.0 0.0 0.0

2.8518366321275663e7 2.8312629544438437e7 0.0
2.8312629544438437e7 1.1910306583833853e7 0.0
0.0 0.0 0.0

1.4367851795669086e6 6.694986637311978e6 0.0
6.694986637311978e6 -5.532246243993849e7 0.0
0.0 0.0 0.0

-1.3395742027181892e7 1.392384825133598e6 0.0
1.392384825133598e6 6.616486557803338e6 0.0
0.0 0.0 0.0

-3.625163557721356e6 2.2621010711872272e7 0.0
2.2621010711872272e7 2.684735302656625e7 0.0
0.0 0.0 0.0

-2.5715046996854157e6 1.1240954076208496e7 0.0
1.1240954076208496e7 5.046128185012244e6 0.0
0.0 0.0 0.0

-9.147638705793856e6 1.0885956354816927e7 0.0
1.0885956354816927e7 3.2667110764958426e7 0.0
0.0 0.0 0.0

989312.1977004856 7.268390922943233e6 0.0
7.268390922943233e6 -6.405388275660463e7 0.0
0.0 0.0 0.0

1.4542923734123476e7 2.139325942078122e7 0.0
2.139325942078122e7 4.847641303079883e7 0.0
0.0 0.0 0.0

1.4423630332100073e7 2.893565800939193e7 0.0
2.893565800939193e7 1.6147215363747148e7 0.0
0.0 0.0 0.0

-7.782323789476225e6 2.185752194317439e7 0.0
2.185752194317439e7 -3.0401702230048094e7 0.0
0.0 0.0 0.0

-423609.80794721656 1.6638443272958579e7 0.0
1.6638443272958579e7 -1.5116517932147274e7 0.0
0.0 0.0 0.0

-2.8543145003857017e6 2.5887022684396908e7 0.0
2.5887022684396908e7 1.9083748109611407e7 0.0
0.0 0.0 0.0

1.5134529364535946e7 2.6472689608337253e7 0.0
2.6472689608337253e7 2.3730488081591213e6 0.0
0.0 0.0 0.0

682766.2758801058 1.2933329802933922e7 0.0
1.2933329802933922e7 -3.783124877656708e7 0.0
0.0 0.0 0.0

3.2000255970156253e6 3.932013288891675e7 0.0
3.932013288891675e7 -3.7946329504721514e6 0.0
0.0 0.0 0.0

344924.2754058456 2.2753984137953628e7 0.0
2.2753984137953628e7 5.391736554716468e6 0.0
0.0 0.0 0.0

-8.72286803450095e7 8.464129289443694e6 0.0
8.464129289443694e6 1.9700497750545181e6 0.0
0.0 0.0 0.0

7.799039969487977e7 9.088987356771173e6 0.0
9.088987356771173e6 505387.0023907982 0.0
0.0 0.0 0.0

6.988027848594554e6 2.631973674321152e7 0.0
2.631973674321152e7 1.1928910863482846e7 0.0
0.0 0.0 0.0

-3.3849980248187073e6 1.0493285896082286e7 0.0
1.0493285896082286e7 3.3363162341408953e7 0.0
0.0 0.0 0.0

2.7112484461673815e6 2.3796522619992092e7 0.0
2.3796522619992092e7 2.1774108585030515e7 0.0
0.0 0.0 0.0

5.070220291273631e6 3.21150107096823e7 0.0
3.21150107096823e7 -8.758010061636161e6 0.0
0.0 0.0 0.0

6.598608964825772e6 2.376640622820952e7 0.0
2.376640622820952e7 2.1995363769275505e7 0.0
0.0 0.0 0.0

-9.512046232565625e6 1.094964523430797e7 0.0
1.094964523430797e7 2.872170932596074e7 0.0
0.0 0.0 0.0

-2.0486900034529753e6 2.563985764748706e7 0.0
2.563985764748706e7 1.3484321106046762e7 0.0
0.0 0.0 0.0

-6.191900063598531e7 4.3997137231067e7 0.0
4.3997137231067e7 -1.7079154817540694e7 0.0
0.0 0.0 0.0

1.6379160105303228e6 4.294728076012312e6 0.0
4.294728076012312e6 -3.842073896137825e7 0.0
0.0 0.0 0.0

-4.831162325460437e6 2.5433137094113708e7 0.0
2.5433137094113708e7 -4.99307671934952e6 0.0
0.0 0.0 0.0

1.3868023221777027e7 1.9885661626219556e7 0.0
1.9885661626219556e7 5.117696020812905e7 0.0
0.0 0.0 0.0

-9.22396006387602e6 1.993895462581457e7 0.0
1.993895462581457e7 -3.0746533371488605e7 0.0
0.0 0.0 0.0

8.678621840701725e6 2.045396857716039e7 0.0
2.045396857716039e7 2.892874047826787e7 0.0
0.0 0.0 0.0

-2.5134413185954913e6 1.6655841105922192e7 0.0
1.6655841105922192e7 -5.0868290088359885e7 0.0
0.0 0.0 0.0

-8.426329418955944e6 4.265318715177738e6 0.0
4.265318715177738e6 3.72864452779751e7 0.0
0.0 0.0 0.0

-2.2339286094068594e7 3.755058668327218e7 0.0
3.755058668327218e7 5.931418712208025e6 0.0
0.0 0.0 0.0

1.4813190578307575e6 9.28254930559181e6 0.0
9.28254930559181e6 -2.3914074370369025e7 0.0
0.0 0.0 0.0

-1.2282613464016598e6 2.042628486338629e7 0.0
2.042628486338629e7 4.231071236974612e7 0.0
0.0 0.0 0.0

-1.0713788185595635e7 8.32929804238367e6 0.0
8.32929804238367e6 2.518748877156554e7 0.0
0.0 0.0 0.0

-6.7822143668409195e6 3.859531530491063e7 0.0
3.859531530491063e7 5.62489672226508e6 0.0
0.0 0.0 0.0

-1.5914246408443479e7 4.387909703316863e7 0.0
4.387909703316863e7 6.353344705853686e6 0.0
0.0 0.0 0.0

-1.3683288913696587e7 1.609153477436661e6 0.0
1.609153477436661e6 6.225900997087041e6 0.0
0.0 0.0 0.0

-4.288053036508892e6 2.1607627520451687e7 0.0
2.1607627520451687e7 -1.4507955785369078e7 0.0
0.0 0.0 0.0

4.1044502834190917e6 3.127177846140943e7 0.0
3.127177846140943e7 -9.01858560931277e6 0.0
0.0 0.0 0.0

-1.0632363256261993e7 5.020390757341759e6 0.0
5.020390757341759e6 1.5565506246234158e7 0.0
0.0 0.0 0.0

1.4769640603770923e7 3.608060447533947e7 0.0
3.608060447533947e7 -5.61683703691788e6 0.0
0.0 0.0 0.0

-1.058498491756929e7 9.42492376479569e6 0.0
9.42492376479569e6 2.6544163705159344e7 0.0
0.0 0.0 0.0

1.3025139425068423e6 4.867108111299238e6 0.0
4.867108111299238e6 -4.51984104200739e7 0.0
0.0 0.0 0.0

1.491832241813643e6 5.993368065364121e6 0.0
5.993368065364121e6 -4.01492111659537e7 0.0
0.0 0.0 0.0

392096.5162164038 1.6292965082265187e7 0.0
1.6292965082265187e7 -2.0212746809227318e7 0.0
0.0 0.0 0.0

3.58077775829723e6 2.7587874508328322e7 0.0
2.7587874508328322e7 -1.2995970922918836e7 0.0
0.0 0.0 0.0

1.0121465685701258e6 6.427470935914686e6 0.0
6.427470935914686e6 -6.804454423791772e7 0.0
0.0 0.0 0.0

-8.71967955764126e6 2.785506008287041e7 0.0
2.785506008287041e7 -1.6742387074814849e7 0.0
0.0 0.0 0.0

345198.35370674357 1.885108952915197e7 0.0
1.885108952915197e7 -2.8787482054323614e7 0.0
0.0 0.0 0.0

-4.943588497141607e6 2.1072638816735536e7 0.0
2.1072638816735536e7 3.132066294460795e7 0.0
0.0 0.0 0.0

-8.493012306434829e6 2.746089655086073e7 0.0
2.746089655086073e7 -1.5418050974254915e7 0.0
0.0 0.0 0.0

1.4965167400123235e6 1.2508679579129899e7 0.0
1.2508679579129899e7 -3.716654759114268e7 0.0
0.0 0.0 0.0

-4.115022417878688e7 2.9756909554816086e7 0.0
2.9756909554816086e7 1.0568721174596231e6 0.0
0.0 0.0 0.0

1.2472904517920539e6 3.8778550343841272e6 0.0
3.8778550343841272e6 -4.73683935447495e7 0.0
0.0 0.0 0.0

2.19752342505897e6 6.221689640723098e6 0.0
6.221689640723098e6 -4.012463483048761e7 0.0
0.0 0.0 0.0

1.8281580751319416e6 2.495021537376791e7 0.0
2.495021537376791e7 -1.7013877945122097e7 0.0
0.0 0.0 0.0

-1.8552079065883458e7 1.8107003476567303e6 0.0
1.8107003476567303e6 7.343964780234396e6 0.0
0.0 0.0 0.0

1.2098161883652853e6 1.2472642357040439e7 0.0
1.2472642357040439e7 -1.3919840540266339e7 0.0
0.0 0.0 0.0

2.4106660883242516e6 2.0910342159943774e7 0.0
2.0910342159943774e7 2.524681057469695e7 0.0
0.0 0.0 0.0

-4.819461700641075e6 3.696046733298762e7 0.0
3.696046733298762e7 5.646121443210643e6 0.0
0.0 0.0 0.0

-8.216736696253748e6 3.925484377624991e7 0.0
3.925484377624991e7 5.8327084210159965e6 0.0
0.0 0.0 0.0

-1.0166914730448252e7 1.2080243143323233e7 0.0
1.2080243143323233e7 2.660601930391945e7 0.0
0.0 0.0 0.0

1.4918706213354543e6 1.6147897839924745e7 0.0
1.6147897839924745e7 7.817105139995107e7 0.0
0.0 0.0 0.0

-2.993399422870636e6 3.796068021136674e7 0.0
3.796068021136674e7 3.843390030616271e6 0.0
0.0 0.0 0.0

-5.8197674249719465e6 2.59014748689966e7 0.0
2.59014748689966e7 -2.1241278545587924e6 0.0
0.0 0.0 0.0

25439.593072279822 2.5027332035666004e7 0.0
2.5027332035666004e7 -5.342802395986129e6 0.0
0.0 0.0 0.0

5.127705417549978e7 3.1266339431803588e7 0.0
3.1266339431803588e7 2.0523916508536063e7 0.0
0.0 0.0 0.0

-8.898684291425712e6 1.3269958909104945e7 0.0
1.3269958909104945e7 2.8358600577862512e7 0.0
0.0 0.0 0.0

2.1298890227188226e6 4.257789582032801e6 0.0
4.257789582032801e6 -4.429594528207287e7 0.0
0.0 0.0 0.0

1.1006320699819783e6 2.3573504273582716e7 0.0
2.3573504273582716e7 -1.514082705326154e7 0.0
0.0 0.0 0.0

-1.9236252125448734e6 1.9386559818826154e7 0.0
1.9386559818826154e7 4.285024707290025e6 0.0
0.0 0.0 0.0

-1.595200470015988e7 2.2830095849678345e7 0.0
2.2830095849678345e7 -2.454390747595484e6 0.0
0.0 0.0 0.0

-7.354729628960591e6 3.8877774919431168e6 0.0
3.8877774919431168e6 4.5433229176811025e7 0.0
0.0 0.0 0.0

-9.900464501572053e7 5.894894061123217e7 0.0
5.894894061123217e7 -2.589650660069891e7 0.0
0.0 0.0 0.0

-1.3941153209377853e7 2.0212573211211506e7 0.0
2.0212573211211506e7 -4.647051166019712e7 0.0
0.0 0.0 0.0

1.2925204377092302e7 2.0990243465271823e7 0.0
2.0990243465271823e7 4.308401566760103e7 0.0
0.0 0.0 0.0

143735.3155138977 1.7467005686885033e7 0.0
1.7467005686885033e7 -3.292310585901925e7 0.0
0.0 0.0 0.0

-1.8356842595688444e7 2.8758775751916353e7 0.0
2.8758775751916353e7 -1.0051159937156843e7 0.0
0.0 0.0 0.0

2.201121948113733e6 1.025031095616931e7 0.0
1.025031095616931e7 -2.233203071983879e7 0.0
0.0 0.0 0.0

1.7091404713257141e6 1.075794782793499e7 0.0
1.075794782793499e7 -3.851631109617286e7 0.0
0.0 0.0 0.0

-3.049870902669452e6 2.4060785218300264e7 0.0
2.4060785218300264e7 2.2790763764789492e7 0.0
0.0 0.0 0.0

705711.918800924 1.3752987117168274e7 0.0
1.3752987117168274e7 -3.5750465863572314e7 0.0
0.0 0.0 0.0

-5.618161107014362e6 3.779816600747107e7 0.0
3.779816600747107e7 5.64636902676012e6 0.0
0.0 0.0 0.0

-8.475727707760489e6 9.540185659256587e6 0.0
9.540185659256587e6 4.215405511968349e7 0.0
0.0 0.0 0.0

-8.20664414387211e6 1.9760927133986112e6 0.0
1.9760927133986112e6 3.513195444626235e7 0.0
0.0 0.0 0.0

1.209481021070201e6 8.578658434706667e6 0.0
8.578658434706667e6 -3.9856557745519824e7 0.0
0.0 0.0 0.0

-1.7587655497155886e7 2.811724384576347e7 0.0
2.811724384576347e7 -1.3666647302686263e7 0.0
0.0 0.0 0.0

8.780622467702001e6 4.2922661302484185e7 0.0
4.2922661302484185e7 -4.898841774656413e6 0.0
0.0 0.0 0.0

-4.404294216762047e6 2.158728597329979e7 0.0
2.158728597329979e7 2.8502757373088323e7 0.0
0.0 0.0 0.0

1.1994882196890041e6 6.69363200662224e6 0.0
6.69363200662224e6 -4.400406673594333e7 0.0
0.0 0.0 0.0

1.030790897515066e6 7.152499745193197e6 0.0
7.152499745193197e6 -5.936330640863519e7 0.0
0.0 0.0 0.0

-1.8620254206586927e6 1.5021882161377812e7 0.0
1.5021882161377812e7 6.460300213238439e7 0.0
0.0 0.0 0.0

-7.925022669632038e6 9.731912673097624e6 0.0
9.731912673097624e6 4.27842449226778e7 0.0
0.0 0.0 0.0

1.2198819190912843e7 3.627387913998269e7 0.0
3.627387913998269e7 -6.0393884605798535e6 0.0
0.0 0.0 0.0

-456543.5809790238 2.8836034272428945e7 0.0
2.8836034272428945e7 -2.2870471894900943e6 0.0
0.0 0.0 0.0

-7.021805865007009e6 7.52058007200663e6 0.0
7.52058007200663e6 4.9029618403599754e7 0.0
0.0 0.0 0.0

2.129423041740967e6 5.1179221318733925e6 0.0
5.1179221318733925e6 -2.3667776939303525e7 0.0
0.0 0.0 0.0

-2.0112639630205922e6 2.8709256384766676e7 0.0
2.8709256384766676e7 1.4049692327662837e6 0.0
0.0 0.0 0.0

-2.4709176928869404e7 2.8973025535856344e7 0.0
2.8973025535856344e7 -1.1865016873821877e7 0.0
0.0 0.0 0.0

-8.981547195258796e6 1.4278725637887698e7 0.0
1.4278725637887698e7 2.022530072554973e7 0.0
0.0 0.0 0.0

2.013007131007962e6 6.096955349572194e6 0.0
6.096955349572194e6 -4.310752428915892e7 0.0
0.0 0.0 0.0

846190.5860372726 1.378893108399885e7 0.0
1.378893108399885e7 -3.3166666205437902e7 0.0
0.0 0.0 0.0

-1.0365494352647806e7 3.846461633710482e6 0.0
3.846461633710482e6 2.422494939460182e7 0.0
0.0 0.0 0.0

-8.48823843562896e6 1.2747891685172733e7 0.0
1.2747891685172733e7 3.478387887472243e7 0.0
0.0 0.0 0.0

-2.3041106880620196e6 1.6973393272919424e7 0.0
1.6973393272919424e7 -4.724776140892454e7 0.0
0.0 0.0 0.0

2.289111995594483e6 5.380642175014094e6 0.0
5.380642175014094e6 -3.924302515022703e7 0.0
0.0 0.0 0.0

-1.1253195595158874e6 2.8583538744546596e7 0.0
2.8583538744546596e7 -4.448963878838997e6 0.0
0.0 0.0 0.0

1.9266194440064915e6 8.920159247884778e6 0.0
8.920159247884778e6 -3.981877387853013e7 0.0
0.0 0.0 0.0

-9.621690989521256e6 5.665016311949705e6 0.0
5.665016311949705e6 2.671918263448944e7 0.0
0.0 0.0 0.0

-2.008907349104527e7 2.2036574948574573e7 0.0
2.2036574948574573e7 -6.6963581783299714e7 0.0
0.0 0.0 0.0

1.86494333834241e7 2.2884957019545067e7 0.0
2.2884957019545067e7 6.216478049265334e7 0.0
0.0 0.0 0.0

1.4494600245452048e6 2.529683730674601e7 0.0
2.529683730674601e7 2.0545169109164022e6 0.0
0.0 0.0 0.0

-3.0278402220775142e7 4.121428799989599e6 0.0
4.121428799989599e6 6.218890829172039e6 0.0
0.0 0.0 0.0

-9.137929190774964e6 2.3286811617665733e6 0.0
2.3286811617665733e6 2.694949143229395e7 0.0
0.0 0.0 0.0

8.143341441082042e6 2.329375843734801e7 0.0
2.329375843734801e7 2.7144467871920418e7 0.0
0.0 0.0 0.0

-7.502135382917423e6 2.2751465254414327e7 0.0
2.2751465254414327e7 -2.5007114435487688e7 0.0
0.0 0.0 0.0

2.089896535524454e6 1.642181188684505e7 0.0
1.642181188684505e7 8.503715310456882e7 0.0
0.0 0.0 0.0

1.2139526053312663e6 7.666866007501343e6 0.0
7.666866007501343e6 -4.19327144499546e7 0.0
0.0 0.0 0.0

3.786930381364126e6 3.0336537016543344e7 0.0
3.0336537016543344e7 -1.0413270295328256e7 0.0
0.0 0.0 0.0

-1.1054939613413498e7 1.9939710432208713e7 0.0
1.9939710432208713e7 -5.029559142655743e7 0.0
0.0 0.0 0.0

-4.75331711482684e6 3.563081748918442e7 0.0
3.563081748918442e7 5.002649889330511e6 0.0
0.0 0.0 0.0

-5.004668041819364e6 2.7829057953016233e7 0.0
2.7829057953016233e7 9.789683602980034e6 0.0
0.0 0.0 0.0

2.644949216300658e6 3.640535416321001e7 0.0
3.640535416321001e7 -4.806037977296635e6 0.0
0.0 0.0 0.0

-1.828407921267689e7 1.9916714654872995e7 0.0
1.9916714654872995e7 -7.030766050947134e7 0.0
0.0 0.0 0.0

1.0052911390822105e7 3.619701808001695e7 0.0
3.619701808001695e7 -6.305110411276812e6 0.0
0.0 0.0 0.0

-3.271547215147773e6 1.9819739293963633e7 0.0
1.9819739293963633e7 4.041394319980453e7 0.0
0.0 0.0 0.0

1.2404429610460037e6 1.089701568080224e7 0.0
1.089701568080224e7 -2.336857364614687e7 0.0
0.0 0.0 0.0

1.350654442657262e6 6.812980327827333e6 0.0
6.812980327827333e6 -4.1041622333213516e7 0.0
0.0 0.0 0.0

3.840005543036215e6 2.8837859442437727e7 0.0
2.8837859442437727e7 -1.1838723138904367e7 0.0
0.0 0.0 0.0

-2.003249439649264e6 1.9523791816607997e7 0.0
1.9523791816607997e7 -6.893826976536885e6 0.0
0.0 0.0 0.0

336049.2520152498 1.1095746473165493e7 0.0
1.1095746473165493e7 -4.580267404450057e7 0.0
0.0 0.0 0.0

-3.7546588964263913e6 3.371346358105614e7 0.0
3.371346358105614e7 6.196930636156663e6 0.0
0.0 0.0 0.0

-1.572695020808868e6 2.215857820522804e7 0.0
2.215857820522804e7 922720.0913425353 0.0
0.0 0.0 0.0

846864.9993194276 1.9196372528614163e7 0.0
1.9196372528614163e7 -1.6752576716373729e7 0.0
0.0 0.0 0.0

-190948.37636940926 1.4863979703632297e7 0.0
1.4863979703632297e7 -4.406160034370117e7 0.0
0.0 0.0 0.0

6.870460430314292e6 3.53731327832378e7 0.0
3.53731327832378e7 -6.734316300000917e6 0.0
0.0 0.0 0.0

849659.8507674383 2.186756466745482e7 0.0
2.186756466745482e7 -1.526165029855343e7 0.0
0.0 0.0 0.0

-2.8720303743160595e6 2.05765069148358e7 0.0
2.05765069148358e7 -7.586709719997903e6 0.0
0.0 0.0 0.0

3.850923502957434e7 6.270538622127295e6 0.0
6.270538622127295e6 -1.3481838462930564e6 0.0
0.0 0.0 0.0

-1.7309907660240643e6 2.3202775668707892e7 0.0
2.3202775668707892e7 1.0200930647259563e7 0.0
0.0 0.0 0.0

-8.499626503584925e6 1.3387948523709217e7 0.0
1.3387948523709217e7 2.2048809783508502e7 0.0
0.0 0.0 0.0

-7.97733779354948e6 3.7673253371000816e6 0.0
3.7673253371000816e6 4.0288252422762305e7 0.0
0.0 0.0 0.0

2.475038744103782e6 3.6944670409677317e6 0.0
3.6944670409677317e6 -3.744629450385542e7 0.0
0.0 0.0 0.0

2.2891876356852297e6 6.961934825967743e6 0.0
6.961934825967743e6 -2.711334721211312e7 0.0
0.0 0.0 0.0

2.4238648011490237e6 5.517903804340952e6 0.0
5.517903804340952e6 -3.6323052786363654e7 0.0
0.0 0.0 0.0

-6.7008915616574865e6 2.242552043009912e7 0.0
2.242552043009912e7 -2.838412591201382e7 0.0
0.0 0.0 0.0

8.314444431170517e6 3.586093423554763e7 0.0
3.586093423554763e7 -6.52425848534987e6 0.0
0.0 0.0 0.0

-3.4770860444228556e6 2.0156886676881697e7 0.0
2.0156886676881697e7 3.747933425542117e7 0.0
0.0 0.0 0.0

-2.5575592317619235e6 2.393997352994022e7 0.0
2.393997352994022e7 8.903471123924261e6 0.0
0.0 0.0 0.0

1.6222449075661842e6 6.1714458497584155e6 0.0
6.1714458497584155e6 -3.7397739166358106e7 0.0
0.0 0.0 0.0

-1.0810674728948621e7 7.125040427839948e6 0.0
7.125040427839948e6 2.407788230284775e7 0.0
0.0 0.0 0.0

-4.303873108733742e6 2.163523615125675e7 0.0
2.163523615125675e7 3.1183853034283854e7 0.0
0.0 0.0 0.0

1.5173865997370053e6 2.44690774853288e7 0.0
2.44690774853288e7 -1.844901031824345e7 0.0
0.0 0.0 0.0

2.0505031775877038e6 2.5911401628923316e7 0.0
2.5911401628923316e7 -6.128962387195722e6 0.0
0.0 0.0 0.0

-4.418297536077764e6 3.505010931568525e7 0.0
3.505010931568525e7 6.622408157962689e6 0.0
0.0 0.0 0.0

962236.2643648647 1.870129184401514e7 0.0
1.870129184401514e7 -2.8579527282630473e7 0.0
0.0 0.0 0.0

2.1865452059885897e6 7.186743043890277e6 0.0
7.186743043890277e6 -3.819711662653143e7 0.0
0.0 0.0 0.0

1.5260625845790952e6 6.960340126342521e6 0.0
6.960340126342521e6 -3.8227325923518136e7 0.0
0.0 0.0 0.0

1.1414934604174318e6 9.700831753049487e6 0.0
9.700831753049487e6 -1.858131681887528e7 0.0
0.0 0.0 0.0

1.3607708102643434e6 7.741412105129412e6 0.0
7.741412105129412e6 -3.9090214910222895e7 0.0
0.0 0.0 0.0

2.6385006309809405e6 6.101884837038651e6 0.0
6.101884837038651e6 -3.1582514824669324e7 0.0
0.0 0.0 0.0

-1.0813095418685298e7 4.247935773093146e7 0.0
4.247935773093146e7 5.97020331199074e6 0.0
0.0 0.0 0.0

1.2323662265865736e7 3.839294095289593e7 0.0
3.839294095289593e7 -5.979047187153921e6 0.0
0.0 0.0 0.0

-5.855628800459951e6 2.8965890215068247e7 0.0
2.8965890215068247e7 9.68611933321331e6 0.0
0.0 0.0 0.0

1.6957273751336522e6 6.805490207242139e6 0.0
6.805490207242139e6 -3.271651875466714e7 0.0
0.0 0.0 0.0

-1.2766187358022563e6 2.4504141411987733e7 0.0
2.4504141411987733e7 -8.078299351313979e6 0.0
0.0 0.0 0.0

-1.6775055186726463e6 2.143833420285962e7 0.0
2.143833420285962e7 -356324.54098133347 0.0
0.0 0.0 0.0

-2.618973636419612e7 2.49012422685427e7 0.0
2.49012422685427e7 -8.729913894901095e7 0.0
0.0 0.0 0.0

2.5185343531456754e7 2.6499612104614664e7 0.0
2.6499612104614664e7 8.395116480401482e7 0.0
0.0 0.0 0.0

1.8063660287754215e7 2.6955060704204865e7 0.0
2.6955060704204865e7 2.673618778709139e6 0.0
0.0 0.0 0.0

2.6887420891431153e7 2.9484469237945132e7 0.0
2.9484469237945132e7 3.185991431721825e6 0.0
0.0 0.0 0.0

-952130.1199334376 7.775480046213646e6 0.0
7.775480046213646e6 -7.482217956355993e7 0.0
0.0 0.0 0.0

1.286873801396883e6 2.227108220506966e7 0.0
2.227108220506966e7 -2.1357334631755885e7 0.0
0.0 0.0 0.0

831102.9461793471 2.4565636964581e7 0.0
2.4565636964581e7 1.7828819543979604e7 0.0
0.0 0.0 0.0

-7.963220282529261e6 9.034771300463848e6 0.0
9.034771300463848e6 4.559976783186152e7 0.0
0.0 0.0 0.0

-2.2432839367661458e6 1.8847292880647607e7 0.0
1.8847292880647607e7 4.598445960473514e7 0.0
0.0 0.0 0.0

-3.3645008566519916e6 2.675313424025575e7 0.0
2.675313424025575e7 9.823053669206358e6 0.0
0.0 0.0 0.0

-926104.6800020513 1.8943545525448162e7 0.0
1.8943545525448162e7 -5.946162540668e6 0.0
0.0 0.0 0.0

-1.8842649784250863e7 3.1876868473804966e7 0.0
3.1876868473804966e7 -1.628348603339408e7 0.0
0.0 0.0 0.0

-2.9786145143931527e6 2.677155030419626e7 0.0
2.677155030419626e7 1.721836819960347e7 0.0
0.0 0.0 0.0

-6.083845179789496e6 1.715212197268033e7 0.0
1.715212197268033e7 1.7761212212832887e7 0.0
0.0 0.0 0.0

-2.115316060573491e6 2.794136280217313e7 0.0
2.794136280217313e7 6.8228863300955715e6 0.0
0.0 0.0 0.0

1.3414998907472715e6 7.788467682173729e6 0.0
7.788467682173729e6 -5.272856521741046e7 0.0
0.0 0.0 0.0

2.5303397753332853e6 8.312641012550634e6 0.0
8.312641012550634e6 -2.5459825775176488e7 0.0
0.0 0.0 0.0

1.1239389459589347e6 2.506359968893698e7 0.0
2.506359968893698e7 -1.6218784830423562e7 0.0
0.0 0.0 0.0

839016.3712101895 1.4692425334175643e7 0.0
1.4692425334175643e7 -3.1366228003676884e7 0.0
0.0 0.0 0.0

-5.316893820373468e6 1.1193159790599441e7 0.0
1.1193159790599441e7 5.524822884621643e7 0.0
0.0 0.0 0.0

-9.917863702929258e6 3.6511476838098406e6 0.0
3.6511476838098406e6 1.4127317664854165e7 0.0
0.0 0.0 0.0

-3.165261596286852e6 9.949088205153132e6 0.0
9.949088205153132e6 6.992491066630377e7 0.0
0.0 0.0 0.0

376274.6585473763 2.390148283244131e7 0.0
2.390148283244131e7 -1.5664574751366977e7 0.0
0.0 0.0 0.0

-5.235605298013169e6 2.936969430835104e7 0.0
2.936969430835104e7 1.1165052393483195e7 0.0
0.0 0.0 0.0

-6.747244933108917e6 1.5937169011916697e7 0.0
1.5937169011916697e7 2.2581256404517353e7 0.0
0.0 0.0 0.0

6.264275353061784e6 3.260779131004033e7 0.0
3.260779131004033e7 -8.1813203841088135e6 0.0
0.0 0.0 0.0

-9.944545816584943e6 1.2003731672778467e7 0.0
1.2003731672778467e7 2.0095524709414773e7 0.0
0.0 0.0 0.0

-3.419277163082391e6 2.5841444696931392e7 0.0
2.5841444696931392e7 1.9015420139191553e7 0.0
0.0 0.0 0.0

3.6545290073390275e7 3.6496823024368785e7 0.0
3.6496823024368785e7 -4.405962126133585e6 0.0
0.0 0.0 0.0

-4.546828951323606e6 2.253986783076275e7 0.0
2.253986783076275e7 2.668133466364816e7 0.0
0.0 0.0 0.0

-7.29566004620048e6 4.714837514831205e6 0.0
4.714837514831205e6 1.44466280841441e7 0.0
0.0 0.0 0.0

-3.600426983118537e7 4.132008766618281e6 0.0
4.132008766618281e6 6.464798468677364e6 0.0
0.0 0.0 0.0

1.7215693419625703e6 4.423767810344211e6 0.0
4.423767810344211e6 -4.0888955534927994e7 0.0
0.0 0.0 0.0

-1.0541934066181595e7 3.68981822984602e7 0.0
3.68981822984602e7 6.943331832780402e6 0.0
0.0 0.0 0.0

-1.085893756518134e7 4.433063135348979e6 0.0
4.433063135348979e6 2.1274188584434815e7 0.0
0.0 0.0 0.0

-3.184192907366246e6 1.6346912958452508e7 0.0
1.6346912958452508e7 1.2782236687391782e6 0.0
0.0 0.0 0.0

-9.001096846833248e6 5.195872204346714e6 0.0
5.195872204346714e6 3.744161989659696e7 0.0
0.0 0.0 0.0

844304.7090446074 2.44301041129991e7 0.0
2.44301041129991e7 -1.8572477191019736e7 0.0
0.0 0.0 0.0

-8.572737488192003e6 3.593427020921613e6 0.0
3.593427020921613e6 3.96036673263061e7 0.0
0.0 0.0 0.0

465026.5279180771 1.9683182282658424e7 0.0
1.9683182282658424e7 -2.0827155692555353e7 0.0
0.0 0.0 0.0

-3.3801085200455897e6 2.094061906995156e7 0.0
2.094061906995156e7 3.5274493406951986e7 0.0
0.0 0.0 0.0

-8.576227557722121e6 1.5194446515822804e7 0.0
1.5194446515822804e7 2.1434526398421846e7 0.0
0.0 0.0 0.0

-604832.2515444122 1.956331544142854e7 0.0
1.956331544142854e7 4.8052247500381894e7 0.0
0.0 0.0 0.0

-6.504334849062514e6 1.9064488837644234e7 0.0
1.9064488837644234e7 2.5206357200547047e7 0.0
0.0 0.0 0.0

-2.0135800606311667e6 2.9792406282091208e7 0.0
2.9792406282091208e7 1.3039695242130905e6 0.0
0.0 0.0 0.0

1.2435566923892908e6 8.745009205827847e6 0.0
8.745009205827847e6 -5.014769770689273e7 0.0
0.0 0.0 0.0

-1.5059377561595906e6 2.084124338247904e7 0.0
2.084124338247904e7 3.981776030059615e7 0.0
0.0 0.0 0.0

1.921394711345219e7 2.6814373835965894e7 0.0
2.6814373835965894e7 1.1873319554799732e7 0.0
0.0 0.0 0.0

-2.3413292362204015e7 1.5701809219893994e7 0.0
1.5701809219893994e7 7.041856711630624e6 0.0
0.0 0.0 0.0

350340.3614577539 1.3743185254045632e7 0.0
1.3743185254045632e7 -4.3636754617211044e7 0.0
0.0 0.0 0.0

-5.212787585940046e6 1.6700049106146334e7 0.0
1.6700049106146334e7 2.0679769377577312e7 0.0
0.0 0.0 0.0

2.021288033112511e6 1.1178681763194552e7 0.0
1.1178681763194552e7 -2.0797999849132687e7 0.0
0.0 0.0 0.0

-9.39809901207507e6 2.954879073308528e6 0.0
2.954879073308528e6 2.4006355124001663e7 0.0
0.0 0.0 0.0

-9.210548973329417e6 2.267754889071499e6 0.0
2.267754889071499e6 3.16871789848884e7 0.0
0.0 0.0 0.0

692221.0061542988 1.713558355306683e7 0.0
1.713558355306683e7 -2.5886886091992225e7 0.0
0.0 0.0 0.0

-9.653886391360778e6 1.0036205018141478e7 0.0
1.0036205018141478e7 2.7621075037555605e7 0.0
0.0 0.0 0.0

-6.414462221719238e6 3.013389132315954e7 0.0
3.013389132315954e7 9.574633208597515e6 0.0
0.0 0.0 0.0

9.891818226315437e6 1.946485742800425e7 0.0
1.946485742800425e7 8.370372711727604e6 0.0
0.0 0.0 0.0

-1.0535333225428485e6 9.394962678262068e6 0.0
9.394962678262068e6 394898.1008876142 0.0
0.0 0.0 0.0

1.2472684874334326e6 2.4754825293320157e7 0.0
2.4754825293320157e7 -1.4316487519286782e7 0.0
0.0 0.0 0.0

1.5954531623623092e6 8.621431597382288e6 0.0
8.621431597382288e6 -2.9329138755154446e7 0.0
0.0 0.0 0.0

3.075184732567999e6 3.535207479983351e7 0.0
3.535207479983351e7 -5.744290794735454e6 0.0
0.0 0.0 0.0

-8.547670190138679e6 1.834513202679395e7 0.0
1.834513202679395e7 -8.587228555100557e7 0.0
0.0 0.0 0.0

1.9609860419586962e6 6.004359391379796e6 0.0
6.004359391379796e6 -2.19696710398013e7 0.0
0.0 0.0 0.0

1.867923391280245e6 5.928158673189301e6 0.0
5.928158673189301e6 -3.1929933726747695e7 0.0
0.0 0.0 0.0

-5.689130842023876e6 2.263371406432728e7 0.0
2.263371406432728e7 -2.548039272291552e7 0.0
0.0 0.0 0.0

-1.8593738318799657e6 1.034296744479547e7 0.0
1.034296744479547e7 2.7457066948213344e6 0.0
0.0 0.0 0.0

-2.074496761359275e7 2.087577225798701e7 0.0
2.087577225798701e7 -8.045266943196519e7 0.0
0.0 0.0 0.0

1.6843301255698176e6 9.320398979442595e6 0.0
9.320398979442595e6 -1.1937350702753374e7 0.0
0.0 0.0 0.0

2.298032246231282e6 9.554662314979997e6 0.0
9.554662314979997e6 -2.122457657013441e7 0.0
0.0 0.0 0.0

-990223.8721013186 2.4114513198426355e7 0.0
2.4114513198426355e7 -3.510629044531916e6 0.0
0.0 0.0 0.0

-4.58675268397877e6 1.6061014996283501e7 0.0
1.6061014996283501e7 4.8688167756190754e7 0.0
0.0 0.0 0.0

-3.0067842841263907e6 3.7251814174037114e7 0.0
3.7251814174037114e7 2.052033813561052e6 0.0
0.0 0.0 0.0

-1.1844899101641124e7 1.2405142707478669e7 0.0
1.2405142707478669e7 6.7483983412451865e6 0.0
0.0 0.0 0.0

853433.4498102777 1.5442571660863137e7 0.0
1.5442571660863137e7 -2.9453257738876782e7 0.0
0.0 0.0 0.0

3.4471600304557635e6 2.3647663197030183e7 0.0
2.3647663197030183e7 2.530015730553918e7 0.0
0.0 0.0 0.0

3.2567824282146683e6 3.430239613218082e7 0.0
3.430239613218082e7 -6.748768046528876e6 0.0
0.0 0.0 0.0

-969894.766060893 1.6912366576560043e7 0.0
1.6912366576560043e7 -1.2224109088783728e7 0.0
0.0 0.0 0.0

5.329487820006053e6 3.338847837983372e7 0.0
3.338847837983372e7 -7.885535951010602e6 0.0
0.0 0.0 0.0

498914.5457764864 1.752527333409101e7 0.0
1.752527333409101e7 -1.3738620399118863e7 0.0
0.0 0.0 0.0

-9.366103195288898e6 907893.8877002823 0.0
907893.8877002823 2.4971055252330646e7 0.0
0.0 0.0 0.0

607125.3722980572 2.420086827129994e7 0.0
2.420086827129994e7 -1.6315972098725937e7 0.0
0.0 0.0 0.0

2.1927992371258777e7 5.7997964809477635e7 0.0
5.7997964809477635e7 -7.911969430676468e6 0.0
0.0 0.0 0.0

1.0074551230574701e7 2.8971881584104292e7 0.0
2.8971881584104292e7 -4.169408885703277e6 0.0
0.0 0.0 0.0

1.353551511126752e6 2.341664940679576e7 0.0
2.341664940679576e7 -1.9938910913857665e7 0.0
0.0 0.0 0.0

-2.365609981800127e6 1.8352664668994315e7 0.0
1.8352664668994315e7 1.0106663125260094e7 0.0
0.0 0.0 0.0

-2.382481863439247e6 2.2782203712372996e7 0.0
2.2782203712372996e7 -125744.36796120577 0.0
0.0 0.0 0.0

2.279908725392945e6 3.1503504319698745e6 0.0
3.1503504319698745e6 -3.9641895015362985e7 0.0
0.0 0.0 0.0

2.7308618474733587e6 4.2719181546622105e6 0.0
4.2719181546622105e6 -1.5032113650445957e7 0.0
0.0 0.0 0.0

-4.271754132202811e6 1.2206079454726767e7 0.0
1.2206079454726767e7 3.4634240043009007e6 0.0
0.0 0.0 0.0

-1.2675744020114262e7 2.733927206515168e7 0.0
2.733927206515168e7 -2.966302558570227e6 0.0
0.0 0.0 0.0

1.891929579470683e6 6.551922566300937e6 0.0
6.551922566300937e6 -2.617032523118604e7 0.0
0.0 0.0 0.0

116632.25774356723 2.0093195761407558e7 0.0
2.0093195761407558e7 -1.826354676488609e7 0.0
0.0 0.0 0.0

255448.41989027057 2.485678350054494e7 0.0
2.485678350054494e7 1.441088636889244e7 0.0
0.0 0.0 0.0

1.6159326329301596e6 1.4221666213066842e7 0.0
1.4221666213066842e7 -3.0609639596986383e7 0.0
0.0 0.0 0.0

-9.776883405216817e6 8.824217233975157e6 0.0
8.824217233975157e6 2.6529745886823375e7 0.0
0.0 0.0 0.0

-3.368976785540855e7 3.723463867116834e7 0.0
3.723463867116834e7 2.9752411174286064e6 0.0
0.0 0.0 0.0

1.4735239571967497e6 1.3358666998136116e7 0.0
1.3358666998136116e7 -3.511871364581024e7 0.0
0.0 0.0 0.0

-6.783698817954578e7 6.816075326876847e6 0.0
6.816075326876847e6 3.2701484167197086e6 0.0
0.0 0.0 0.0

1.6349214400545377e6 8.300684497288524e6 0.0
8.300684497288524e6 -2.5533886943989154e7 0.0
0.0 0.0 0.0

-1.7485280357721392e6 2.3651016346823666e7 0.0
2.3651016346823666e7 2.632304867656891e7 0.0
0.0 0.0 0.0

-2.0149638404590115e6 1.7294263934290253e7 0.0
1.7294263934290253e7 -4.440721105922658e7 0.0
0.0 0.0 0.0

-137154.65654935688 1.8766337148176417e7 0.0
1.8766337148176417e7 -3.3073998815709673e7 0.0
0.0 0.0 0.0

-9.411531119326305e6 5.07685599288257e6 0.0
5.07685599288257e6 1.9711292789754495e7 0.0
0.0 0.0 0.0

-9.263326519340716e6 1.2393376873467227e7 0.0
1.2393376873467227e7 3.407014926744162e7 0.0
0.0 0.0 0.0

-2.6040669995820317e6 1.919954513902032e7 0.0
1.919954513902032e7 -2.1442604649367426e6 0.0
0.0 0.0 0.0

-2.8502129378340347e6 1.742749377864846e7 0.0
1.742749377864846e7 1.2331359664124798e7 0.0
0.0 0.0 0.0

-8.61528125637442e6 1.1135068801848024e7 0.0
1.1135068801848024e7 3.970339578860775e7 0.0
0.0 0.0 0.0

-1.58921189620775e6 1.858447798105822e7 0.0
1.858447798105822e7 -1.111630671625752e6 0.0
0.0 0.0 0.0

444754.05306081474 2.3032339678502727e7 0.0
2.3032339678502727e7 -1.722697755283113e7 0.0
0.0 0.0 0.0

1.0450615274191769e6 2.4440817164647684e7 0.0
2.4440817164647684e7 -1.358119356902258e7 0.0
0.0 0.0 0.0

923511.9924355661 2.5277752242534585e7 0.0
2.5277752242534585e7 -1.5428774156810386e7 0.0
0.0 0.0 0.0

578357.5445680721 1.879458956947203e7 0.0
1.879458956947203e7 -2.244191103997836e7 0.0
0.0 0.0 0.0

1.068218738467507e6 1.0455322570295554e7 0.0
1.0455322570295554e7 -1.9672440422523238e7 0.0
0.0 0.0 0.0

-1.184755267403516e6 2.4493611958141074e7 0.0
2.4493611958141074e7 -6.854036316441891e6 0.0
0.0 0.0 0.0

80272.09824262466 2.35507346619263e7 0.0
2.35507346619263e7 -1.5022698477151547e7 0.0
0.0 0.0 0.0

13304.567449801136 1.780657972840819e7 0.0
1.780657972840819e7 -1.0862606536001215e7 0.0
0.0 0.0 0.0

-9.700678035861928e6 7.58450809811845e6 0.0
7.58450809811845e6 2.5429830342654645e7 0.0
0.0 0.0 0.0

613176.645674767 1.7990600503531296e7 0.0
1.7990600503531296e7 -2.4169370520672023e7 0.0
0.0 0.0 0.0

-2.2790632276423804e7 2.3290666864489913e7 0.0
2.3290666864489913e7 -7.596877403532282e7 0.0
0.0 0.0 0.0

-9.025975021882445e6 7.0560240065229405e6 0.0
7.0560240065229405e6 1.844359269745896e7 0.0
0.0 0.0 0.0

1.4118626696188739e6 9.960716670218593e6 0.0
9.960716670218593e6 -2.4945070968713056e7 0.0
0.0 0.0 0.0

-1.125520264630694e6 8.545122765539614e6 0.0
8.545122765539614e6 -5.244695210537358e6 0.0
0.0 0.0 0.0

-6.9166637762243785e6 1.7275215875273276e7 0.0
1.7275215875273276e7 -7.773004858029823e7 0.0
0.0 0.0 0.0

-3.118587241627859e6 1.844848696510469e7 0.0
1.844848696510469e7 1.5916352062368609e7 0.0
0.0 0.0 0.0

2.579908991027115e6 7.612453092252075e6 0.0
7.612453092252075e6 -2.4431478614911947e7 0.0
0.0 0.0 0.0

-9.82593368828441e6 1.2158797463249376e7 0.0
1.2158797463249376e7 3.022616437402269e7 0.0
0.0 0.0 0.0

-5.7486059815597385e6 4.035302080675634e6 0.0
4.035302080675634e6 5.817991185752171e7 0.0
0.0 0.0 0.0

426630.9633328469 2.310845455392783e7 0.0
2.310845455392783e7 -2.565451850405058e6 0.0
0.0 0.0 0.0

2.796086948969273e6 2.0664584790031135e7 0.0
2.0664584790031135e7 7.05762756664352e6 0.0
0.0 0.0 0.0

-8.627447258310948e6 3.051581685642222e7 0.0
3.051581685642222e7 8.884282300026404e6 0.0
0.0 0.0 0.0

-2.381463723701235e6 2.5525509661196858e7 0.0
2.5525509661196858e7 5.527841614074683e6 0.0
0.0 0.0 0.0

2.0245219339123815e6 5.208797950965588e6 0.0
5.208797950965588e6 -4.518479166552782e7 0.0
0.0 0.0 0.0

2.097905590967918e6 6.06123899431437e6 0.0
6.06123899431437e6 -4.578997990829767e7 0.0
0.0 0.0 0.0

-6.6619852253584955e6 1.7436751394806363e7 0.0
1.7436751394806363e7 3.404340625541077e7 0.0
0.0 0.0 0.0

371396.9344963012 2.183255729011577e7 0.0
2.183255729011577e7 -1.8194090964736503e7 0.0
0.0 0.0 0.0

1.2832925171559615e7 2.7378796681459494e7 0.0
2.7378796681459494e7 3.2355085429671244e6 0.0
0.0 0.0 0.0

-5.63255946659093e6 6.28912798552122e6 0.0
6.28912798552122e6 6.6457868490725175e7 0.0
0.0 0.0 0.0

-1.8642753651920361e6 2.2278361249187123e7 0.0
2.2278361249187123e7 1.2187470342342116e7 0.0
0.0 0.0 0.0

-948736.5296454951 2.149922279231152e7 0.0
2.149922279231152e7 -1.172790783116503e7 0.0
0.0 0.0 0.0

2.8224835268098973e6 1.8792235521856673e7 0.0
1.8792235521856673e7 6.9729441606941e7 0.0
0.0 0.0 0.0

-1.0246952349354371e6 5.871526119956736e6 0.0
5.871526119956736e6 2.4659671887330557e6 0.0
0.0 0.0 0.0

634888.0169896465 2.911514670477703e7 0.0
2.911514670477703e7 -8.947367742094304e6 0.0
0.0 0.0 0.0

7.482418165981036e6 2.4782852982536726e7 0.0
2.4782852982536726e7 2.064545169282201e7 0.0
0.0 0.0 0.0

2.332892937418011e6 9.308576104726497e6 0.0
9.308576104726497e6 -2.3898613887717895e7 0.0
0.0 0.0 0.0

-2.9280869847168205e6 1.704333614069191e7 0.0
1.704333614069191e7 -638544.5445156116 0.0
0.0 0.0 0.0

-1.6610293949757107e6 1.779149690874643e7 0.0
1.779149690874643e7 5.290115107350198e7 0.0
0.0 0.0 0.0

1.1518999688655045e6 1.072246830955113e7 0.0
1.072246830955113e7 -4.5219844852220036e7 0.0
0.0 0.0 0.0

1.16913546615801e6 2.268460202781006e7 0.0
2.268460202781006e7 -2.1644564058990203e7 0.0
0.0 0.0 0.0

-7.18838141792356e6 2.7795865315842815e6 0.0
2.7795865315842815e6 4.720726286776183e7 0.0
0.0 0.0 0.0

851554.915454831 1.2610605962260976e7 0.0
1.2610605962260976e7 -4.310260885844788e7 0.0
0.0 0.0 0.0

-135924.11394826137 1.2109301475406336e7 0.0
1.2109301475406336e7 -6.945251831250925e6 0.0
0.0 0.0 0.0

1.9175112588720657e6 9.885924118492542e6 0.0
9.885924118492542e6 -3.775795003747775e7 0.0
0.0 0.0 0.0

-88926.31108078547 1.7781887284090582e7 0.0
1.7781887284090582e7 -1.7176868478516635e7 0.0
0.0 0.0 0.0

317331.9849670585 2.0560127605121043e7 0.0
2.0560127605121043e7 -1.9104675790099632e7 0.0
0.0 0.0 0.0

-8.919879260289231e6 9.874473237088665e6 0.0
9.874473237088665e6 3.8740452758862674e7 0.0
0.0 0.0 0.0

5.710148365908388e6 2.5480098863151073e7 0.0
2.5480098863151073e7 6.601615809545973e6 0.0
0.0 0.0 0.0

-1.0077334868235277e7 6.357386765187822e6 0.0
6.357386765187822e6 2.424765866866382e7 0.0
0.0 0.0 0.0

1.1074894064380135e6 1.946011197594226e7 0.0
1.946011197594226e7 -2.6867591779042996e7 0.0
0.0 0.0 0.0

-6.073599105130816e6 6.681789805231733e6 0.0
6.681789805231733e6 1.2697559690714607e7 0.0
0.0 0.0 0.0

201472.98024864262 6.081862514873687e6 0.0
6.081862514873687e6 -6.863154209737204e6 0.0
0.0 0.0 0.0

-42732.676360626705 1.9629874903506786e7 0.0
1.9629874903506786e7 -1.7449781070393864e7 0.0
0.0 0.0 0.0

2.7751178649532795e6 5.688036695047862e6 0.0
5.688036695047862e6 -2.4880191542379238e7 0.0
0.0 0.0 0.0

-9.596684458888333e6 5.795117171528034e6 0.0
5.795117171528034e6 3.428613120319765e7 0.0
0.0 0.0 0.0

590717.8445110507 3.5542049259395623e6 0.0
3.5542049259395623e6 -6.756409928681867e7 0.0
0.0 0.0 0.0

-1.6778411909802153e6 2.2021166236068454e7 0.0
2.2021166236068454e7 -5.592803382521988e6 0.0
0.0 0.0 0.0

-9.460189480989227e6 1.42610718807442e7 0.0
1.42610718807442e7 2.6472884269226987e7 0.0
0.0 0.0 0.0

-9.89561449562719e6 2.9315804559968438e7 0.0
2.9315804559968438e7 6.123903006586587e6 0.0
0.0 0.0 0.0

5.336144790466e6 2.6237992653086133e7 0.0
2.6237992653086133e7 1.1558193898718169e7 0.0
0.0 0.0 0.0

-3.3773093437999003e6 2.1596196282156054e7 0.0
2.1596196282156054e7 3.3206453096628986e7 0.0
0.0 0.0 0.0

-3.2751523983460944e6 2.329436366515951e7 0.0
2.329436366515951e7 2.483430104575594e7 0.0
0.0 0.0 0.0

-7.153391703410232e6 504407.85170392797 0.0
504407.85170392797 4.721088882769247e7 0.0
0.0 0.0 0.0

-2.2979739338866505e6 1.7111613716602586e7 0.0
1.7111613716602586e7 6.444113132474833e6 0.0
0.0 0.0 0.0

6.900016990656698e6 2.494209652755707e7 0.0
2.494209652755707e7 2.0334812393853743e7 0.0
0.0 0.0 0.0

-4.0382440328522483e6 2.748417815768268e7 0.0
2.748417815768268e7 1.3978973553162893e7 0.0
0.0 0.0 0.0

-9.609569875848735e6 1.146756261118525e7 0.0
1.146756261118525e7 3.2983450209197637e7 0.0
0.0 0.0 0.0

390396.4174776841 1.7456985508450717e7 0.0
1.7456985508450717e7 -3.0647909153121114e7 0.0
0.0 0.0 0.0

1.7074560530612934e6 7.866264995121535e6 0.0
7.866264995121535e6 -2.1612771814297523e7 0.0
0.0 0.0 0.0

1.134095207480397e6 2.1480166118540134e7 0.0
2.1480166118540134e7 -1.7631563028647114e7 0.0
0.0 0.0 0.0

-2.560507531433594e6 1.5560039772711232e7 0.0
1.5560039772711232e7 6.6864107842966365e6 0.0
0.0 0.0 0.0

2.8596114197261212e6 5.726241643915582e6 0.0
5.726241643915582e6 -1.525858003570858e7 0.0
0.0 0.0 0.0

521244.37261657696 2.987723702593067e7 0.0
2.987723702593067e7 -7.623972514054373e6 0.0
0.0 0.0 0.0

-6.042957794349294e6 5.640573098844687e6 0.0
5.640573098844687e6 5.556905232699107e7 0.0
0.0 0.0 0.0

-7.134464576975666e6 3.8493136448485544e6 0.0
3.8493136448485544e6 4.87321696385645e7 0.0
0.0 0.0 0.0

-5.905045150556732e6 1.4219750932547592e7 0.0
1.4219750932547592e7 4.849187595760473e7 0.0
0.0 0.0 0.0

845456.7704944303 2.7121488711747795e7 0.0
2.7121488711747795e7 -1.2519885493713023e7 0.0
0.0 0.0 0.0

-3.0117666763150706e6 1.0332247312366415e7 0.0
1.0332247312366415e7 -1.1039692369324043e6 0.0
0.0 0.0 0.0

2.3902446955210276e7 2.9057421829141796e7 0.0
2.9057421829141796e7 1.894389232728073e7 0.0
0.0 0.0 0.0

1.7399919831090465e7 2.4690784480178222e7 0.0
2.4690784480178222e7 6.903427922492331e7 0.0
0.0 0.0 0.0

2.702398179657908e6 7.053091462282113e6 0.0
7.053091462282113e6 -2.03107746813043e7 0.0
0.0 0.0 0.0

-9.653225412525123e6 8.2006879831011845e6 0.0
8.2006879831011845e6 2.9112426460554734e7 0.0
0.0 0.0 0.0

-2.0741554879653505e6 1.85950780941604e7 0.0
1.85950780941604e7 6.211769120259672e6 0.0
0.0 0.0 0.0

-3.437391465798186e6 2.557107956865042e7 0.0
2.557107956865042e7 1.8823241345661238e7 0.0
0.0 0.0 0.0

1.7107308004565127e6 6.656274637578887e6 0.0
6.656274637578887e6 -4.920208718313904e7 0.0
0.0 0.0 0.0

1.902618615217667e6 7.919565395747376e6 0.0
7.919565395747376e6 -4.189162458770512e7 0.0
0.0 0.0 0.0

-8.403947653641004e6 7.974490176992547e6 0.0
7.974490176992547e6 1.053748868865184e7 0.0
0.0 0.0 0.0

-1.7781184699561e6 2.3626294506976914e7 0.0
2.3626294506976914e7 1.1625877645724066e7 0.0
0.0 0.0 0.0

2.701907612050183e6 1.9120287219126295e7 0.0
1.9120287219126295e7 6.484808825854267e7 0.0
0.0 0.0 0.0

1.1935468285367396e6 2.2732897950734533e7 0.0
2.2732897950734533e7 -1.6754496778530806e7 0.0
0.0 0.0 0.0

-5.489280968774218e6 9.352795868334508e6 0.0
9.352795868334508e6 1.2651770076971903e7 0.0
0.0 0.0 0.0

1.9183782951011285e6 6.938116057301592e6 0.0
6.938116057301592e6 -4.391941812205508e7 0.0
0.0 0.0 0.0

-2.8669202251019552e6 2.646192003280374e7 0.0
2.646192003280374e7 1.2126237293188978e7 0.0
0.0 0.0 0.0

1.4557914209968895e6 9.633102909028664e6 0.0
9.633102909028664e6 -2.7760843135772735e7 0.0
0.0 0.0 0.0

-8.569497385323087e6 1.0530252717940118e7 0.0
1.0530252717940118e7 -499902.3451369433 0.0
0.0 0.0 0.0

158551.86746280268 1.8776129147006787e7 0.0
1.8776129147006787e7 -1.907202835000991e7 0.0
0.0 0.0 0.0

-7.5175114688500855e6 3.6096717405972118e6 0.0
3.6096717405972118e6 7.572454801170157e6 0.0
0.0 0.0 0.0

-2.855903399897892e6 1.3920122998242265e7 0.0
1.3920122998242265e7 6.957533735459076e6 0.0
0.0 0.0 0.0

-3.129150063235657e6 1.2101441218054818e7 0.0
1.2101441218054818e7 7.284240080232472e6 0.0
0.0 0.0 0.0

-199988.6299359249 1.9085919983695608e7 0.0
1.9085919983695608e7 -1.6576642145678822e7 0.0
0.0 0.0 0.0

-2.796553802880112e6 1.8561974988297366e7 0.0
1.8561974988297366e7 -501239.09157633863 0.0
0.0 0.0 0.0

-8.988406608674368e6 1.1692265580568066e7 0.0
1.1692265580568066e7 3.686781214936753e7 0.0
0.0 0.0 0.0

-778637.2689778246 1.6738796040397177e7 0.0
1.6738796040397177e7 6.102665670394495e7 0.0
0.0 0.0 0.0

-4.2738530670707e6 1.4137663992924282e7 0.0
1.4137663992924282e7 5.553816098980813e7 0.0
0.0 0.0 0.0

-1.2791839833114669e6 1.729513849988888e7 0.0
1.729513849988888e7 5.6783542391505525e7 0.0
0.0 0.0 0.0

-3.251096005403202e6 9.242513632131202e6 0.0
9.242513632131202e6 8.174754135254513e7 0.0
0.0 0.0 0.0

-446189.9217899111 2.5104214098097976e7 0.0
2.5104214098097976e7 1.1072355489541339e7 0.0
0.0 0.0 0.0

-5.800684371279884e6 7.653733798516167e6 0.0
7.653733798516167e6 6.298484325921065e7 0.0
0.0 0.0 0.0

-1.0021967750482977e6 2.7789071878331028e7 0.0
2.7789071878331028e7 -5.834425088176204e6 0.0
0.0 0.0 0.0

-2.3623635876341946e6 2.4243818029785383e7 0.0
2.4243818029785383e7 -1.4127439281949144e7 0.0
0.0 0.0 0.0

-7.135447132307972e7 4.4197950916664414e7 0.0
4.4197950916664414e7 -1.6145864572880657e7 0.0
0.0 0.0 0.0

2.3960492806768715e6 8.845891271060808e6 0.0
8.845891271060808e6 -2.0062648165490896e7 0.0
0.0 0.0 0.0

1.6393659400344752e6 1.5148789937395226e7 0.0
1.5148789937395226e7 -2.900349122988879e7 0.0
0.0 0.0 0.0

971465.263937233 3.0132576936624564e7 0.0
3.0132576936624564e7 -6.389964585428471e6 0.0
0.0 0.0 0.0

-1.4718031784903759e6 2.812250114015296e7 0.0
2.812250114015296e7 4.846406512128075e6 0.0
0.0 0.0 0.0

2.0661742818996701e6 8.981558715203028e6 0.0
8.981558715203028e6 -3.708418899864032e7 0.0
0.0 0.0 0.0

2.485578420902803e7 3.1903405496320542e7 0.0
3.1903405496320542e7 -2.0296791305773258e6 0.0
0.0 0.0 0.0

-4.086438541901001e6 1.478043930516212e7 0.0
1.478043930516212e7 5.493120959721593e6 0.0
0.0 0.0 0.0

-498227.9529789053 7.010630745866597e6 0.0
7.010630745866597e6 -6.895490102062501e7 0.0
0.0 0.0 0.0

-4.642342112792522e6 1.3068324324187726e7 0.0
1.3068324324187726e7 5.644071406880419e6 0.0
0.0 0.0 0.0

1.364240889551512e6 9.547897267053232e6 0.0
9.547897267053232e6 -2.1205585948235624e7 0.0
0.0 0.0 0.0

-3.369680350431232e6 2.211758720109936e7 0.0
2.211758720109936e7 3.1152775495882064e7 0.0
0.0 0.0 0.0

-4.663319818304969e7 3.699468714012698e7 0.0
3.699468714012698e7 -1.760142008285081e6 0.0
0.0 0.0 0.0

-8.463782733866764e6 2.6235851948100193e6 0.0
2.6235851948100193e6 3.8934411705750465e7 0.0
0.0 0.0 0.0

1.2953419481484834e6 2.3904004365657214e7 0.0
2.3904004365657214e7 -1.5842419291369522e7 0.0
0.0 0.0 0.0

-2.1420242835086495e7 3.09032167967326e7 0.0
3.09032167967326e7 -1.123368733860657e7 0.0
0.0 0.0 0.0

2.7798560806722892e6 6.285955437282013e6 0.0
6.285955437282013e6 -1.943509880295711e7 0.0
0.0 0.0 0.0

-8.97005515948173e6 1.2652126237844711e7 0.0
1.2652126237844711e7 3.109402691699387e7 0.0
0.0 0.0 0.0

827717.8190027699 2.0546813517322976e7 0.0
2.0546813517322976e7 -1.6014494532378921e7 0.0
0.0 0.0 0.0

-683940.5542025047 1.9501676561944313e7 0.0
1.9501676561944313e7 -7.333557206125882e6 0.0
0.0 0.0 0.0

-3.634774004685239e6 1.6365680581855116e7 0.0
1.6365680581855116e7 5.306687166206057e6 0.0
0.0 0.0 0.0

-6.63498613830686e6 1.2641397374726273e7 0.0
1.2641397374726273e7 4.8393990280180745e7 0.0
0.0 0.0 0.0

2.3416810435147453e6 4.385545130929626e6 0.0
4.385545130929626e6 -4.123966275328951e7 0.0
0.0 0.0 0.0

2.0461063101896625e6 5.847961213872716e6 0.0
5.847961213872716e6 -2.4684158158622622e7 0.0
0.0 0.0 0.0

-2.771799283452877e6 2.607303264385275e7 0.0
2.607303264385275e7 1.1095342680129178e7 0.0
0.0 0.0 0.0

-1.08292290565043e7 4.375161053586038e6 0.0
4.375161053586038e6 1.8115243126369067e7 0.0
0.0 0.0 0.0

-253135.9548152238 1.7202781715004306e7 0.0
1.7202781715004306e7 -1.6216465619185196e7 0.0
0.0 0.0 0.0

2.3666026598705184e6 7.818600455293507e6 0.0
7.818600455293507e6 -3.0955155276784584e7 0.0
0.0 0.0 0.0

-6.7154980535937585e6 7.111369463500208e6 0.0
7.111369463500208e6 5.2454874035876274e7 0.0
0.0 0.0 0.0

-1.2194067442275449e6 2.5376636480206575e7 0.0
2.5376636480206575e7 7.696930595134384e6 0.0
0.0 0.0 0.0

-9.498189935449116e6 4.625278751294571e6 0.0
4.625278751294571e6 3.333685023785709e7 0.0
0.0 0.0 0.0

370015.88795094937 1.4441132833653051e7 0.0
1.4441132833653051e7 -4.11784613566639e7 0.0
0.0 0.0 0.0

-668645.0111243101 2.215479213198473e7 0.0
2.215479213198473e7 -2.461095429456684e7 0.0
0.0 0.0 0.0

-8.845550688774811e6 1.5475183571827982e7 0.0
1.5475183571827982e7 2.528354938839456e7 0.0
0.0 0.0 0.0

444499.30516204797 1.8684553641007084e7 0.0
1.8684553641007084e7 -3.083577748640927e7 0.0
0.0 0.0 0.0

1.1892442375420192e6 1.9248972898953993e7 0.0
1.9248972898953993e7 -2.016839183470073e7 0.0
0.0 0.0 0.0

-2.7041957043819283e6 2.3881254150726274e6 0.0
2.3881254150726274e6 5.809341621378938e6 0.0
0.0 0.0 0.0

-9.811957967059793e6 3.6984517721673814e6 0.0
3.6984517721673814e6 2.975193333766582e7 0.0
0.0 0.0 0.0

-340048.50814532395 1.4608272624410782e7 0.0
1.4608272624410782e7 -1.4487125947865568e7 0.0
0.0 0.0 0.0

3054.0005669370294 1.3107472008447466e7 0.0
1.3107472008447466e7 -1.4957436345472235e7 0.0
0.0 0.0 0.0

1.041007170697161e6 2.1012765739375494e7 0.0
2.1012765739375494e7 -1.6819984875800908e7 0.0
0.0 0.0 0.0

-2.294421155284541e6 2.5609028971972812e7 0.0
2.5609028971972812e7 4.314018802672917e6 0.0
0.0 0.0 0.0

774953.8215246573 1.13571091068626e7 0.0
1.13571091068626e7 -1.8118836559709556e7 0.0
0.0 0.0 0.0

-4.481546062540803e6 1.6077673328304095e7 0.0
1.6077673328304095e7 -6.242885291460955e7 0.0
0.0 0.0 0.0

-1.0732566417062178e7 6.418277534061593e6 0.0
6.418277534061593e6 1.7321630774298534e7 0.0
0.0 0.0 0.0

-1.5429904952285066e7 2.170427470819073e7 0.0
2.170427470819073e7 -5.68839849378132e7 0.0
0.0 0.0 0.0

-1.511221396302428e8 1.891000439604408e7 0.0
1.891000439604408e7 -4.713719723804332e6 0.0
0.0 0.0 0.0

1.4286497923262742e8 2.010375440241762e7 0.0
2.010375440241762e7 7.521637821717642e6 0.0
0.0 0.0 0.0

-6.09529993720977e6 1.6543598465241196e7 0.0
1.6543598465241196e7 -7.20722962855294e7 0.0
0.0 0.0 0.0

-5.167080968036633e6 1.9586511133179974e7 0.0
1.9586511133179974e7 2.6005137198595613e7 0.0
0.0 0.0 0.0

-2.2639269783040048e6 2.4813678311410643e7 0.0
2.4813678311410643e7 1.4162512103046582e6 0.0
0.0 0.0 0.0

-614295.7331913603 1.6050450428686362e7 0.0
1.6050450428686362e7 -1.3986086952958552e7 0.0
0.0 0.0 0.0

-1.6245116659792338e6 7.487012381842411e6 0.0
7.487012381842411e6 -3.361457453504099e6 0.0
0.0 0.0 0.0

-113731.43462377542 8.502907382781066e6 0.0
8.502907382781066e6 -1.8638806501464746e6 0.0
0.0 0.0 0.0

-3.268470809828195e6 1.7883590443458337e7 0.0
1.7883590443458337e7 5.111903278562018e6 0.0
0.0 0.0 0.0

-5.271747977651427e6 1.6267591028694265e7 0.0
1.6267591028694265e7 -6.699618247727911e7 0.0
0.0 0.0 0.0

862688.7411319278 1.4012653139089765e7 0.0
1.4012653139089765e7 -1.3523192698919535e7 0.0
0.0 0.0 0.0

-8.504465590102559e6 5.67029537753315e6 0.0
5.67029537753315e6 4.253135173179953e7 0.0
0.0 0.0 0.0

1.1840764272135437e8 2.502494129542044e7 0.0
2.502494129542044e7 387343.0520872846 0.0
0.0 0.0 0.0

557364.6260057352 1.5493022141923415e7 0.0
1.5493022141923415e7 -1.3087676973043285e7 0.0
0.0 0.0 0.0

2.3474155906946603e6 7.298474715159943e6 0.0
7.298474715159943e6 -3.55043525608244e7 0.0
0.0 0.0 0.0

2.203463149634838e6 8.121203113366493e6 0.0
8.121203113366493e6 -3.6305724473428294e7 0.0
0.0 0.0 0.0

-3.3788006676606163e6 2.2661949686645105e7 0.0
2.2661949686645105e7 2.9143022305473734e7 0.0
0.0 0.0 0.0

1.4638728315318981e6 1.7563564499523066e7 0.0
1.7563564499523066e7 -2.3460492341857664e7 0.0
0.0 0.0 0.0

-4.8220421273083305e6 2.608391074174864e7 0.0
2.608391074174864e7 -1.5404725426531231e7 0.0
0.0 0.0 0.0

1.0610628486653488e7 2.8670726251351062e7 0.0
2.8670726251351062e7 -2.448534902225873e6 0.0
0.0 0.0 0.0

-1.7720639882327025e6 1.6340976673500191e7 0.0
1.6340976673500191e7 552299.4208615104 0.0
0.0 0.0 0.0

1.3458578807330935e6 6.759389310174254e6 0.0
6.759389310174254e6 -5.71351639512037e6 0.0
0.0 0.0 0.0

-3.7160391389816334e6 1.128019165434757e7 0.0
1.128019165434757e7 1.2332878988705133e6 0.0
0.0 0.0 0.0

-7.811469379619066e6 8.777057244453445e6 0.0
8.777057244453445e6 1.6822570981315356e7 0.0
0.0 0.0 0.0

-8.867528470043506e6 1.985638877713779e7 0.0
1.985638877713779e7 -4.041131460348956e7 0.0
0.0 0.0 0.0

1.2304195496891625e6 1.4181543036889622e7 0.0
1.4181543036889622e7 -3.570842064292936e7 0.0
0.0 0.0 0.0

1.7035325196159445e6 6.993075061821752e6 0.0
6.993075061821752e6 -2.056062156709253e7 0.0
0.0 0.0 0.0

1.8900323834027397e6 1.07077125456782e7 0.0
1.07077125456782e7 -1.701943441970296e7 0.0
0.0 0.0 0.0

-1.7285855952959699e6 1.93757844977802e7 0.0
1.93757844977802e7 736759.450279448 0.0
0.0 0.0 0.0

1.293029728687874e6 1.0231708329892572e7 0.0
1.0231708329892572e7 -2.2306208481374186e7 0.0
0.0 0.0 0.0

-2.1506604488142505e6 9.381869626791196e6 0.0
9.381869626791196e6 -3.26293313163071e6 0.0
0.0 0.0 0.0

2.9055055092785824e6 4.802244488420226e6 0.0
4.802244488420226e6 -2.6439359926570397e7 0.0
0.0 0.0 0.0

734135.1414436735 1.8631395053524204e7 0.0
1.8631395053524204e7 -1.5843767502420753e7 0.0
0.0 0.0 0.0

-1.0557779699768081e7 8.3383968619722e6 0.0
8.3383968619722e6 1.6179565692994487e7 0.0
0.0 0.0 0.0

873217.6091804006 2.9083537465742443e7 0.0
2.9083537465742443e7 -9.885955452433994e6 0.0
0.0 0.0 0.0

276998.9775622785 6.424578736858383e6 0.0
6.424578736858383e6 -5.955794462444925e7 0.0
0.0 0.0 0.0

664960.5955633428 2.0003029609446846e7 0.0
2.0003029609446846e7 -1.517660999513439e7 0.0
0.0 0.0 0.0

2.2958223322749343e6 9.755229472581342e6 0.0
9.755229472581342e6 -2.7512217776725214e7 0.0
0.0 0.0 0.0

-4.678381075284829e6 5.535497782501271e6 0.0
5.535497782501271e6 1.0540766413438406e7 0.0
0.0 0.0 0.0

2.356223764021244e6 8.823161616778271e6 0.0
8.823161616778271e6 -2.9270446633438267e7 0.0
0.0 0.0 0.0

-1.6376441630227626e6 2.533013545447745e7 0.0
2.533013545447745e7 8.044112788701795e6 0.0
0.0 0.0 0.0

4.0429663470230806e6 3.148432138166783e7 0.0
3.148432138166783e7 -9.323358670956396e6 0.0
0.0 0.0 0.0

-1.9196432241753628e6 2.31645767028511e7 0.0
2.31645767028511e7 -2.4129724547254413e7 0.0
0.0 0.0 0.0

-357960.0973236766 7.639419177330122e6 0.0
7.639419177330122e6 -7.049765526633771e6 0.0
0.0 0.0 0.0

3.8602479173600534e6 3.2792229644143146e7 0.0
3.2792229644143146e7 -7.235464201488122e6 0.0
0.0 0.0 0.0

1.5482519353822274e6 2.6821893298212565e7 0.0
2.6821893298212565e7 -1.2037550500764403e7 0.0
0.0 0.0 0.0

-1.045866353855019e7 1.1183320322760383e7 0.0
1.1183320322760383e7 2.5425617758495316e7 0.0
0.0 0.0 0.0

-3.1424294431577325e6 2.694637177124111e7 0.0
2.694637177124111e7 1.6532951344691716e7 0.0
0.0 0.0 0.0

-8.511527278188683e6 4.992533878225152e6 0.0
4.992533878225152e6 1.018595466115066e7 0.0
0.0 0.0 0.0

-2.5443508058435516e6 1.3105840556387214e7 0.0
1.3105840556387214e7 4.848894249361513e6 0.0
0.0 0.0 0.0

-5.088798107251953e6 1.0167688362657234e7 0.0
1.0167688362657234e7 5.908335280728542e7 0.0
0.0 0.0 0.0

-4.4705737589160055e6 1.6695274879729886e7 0.0
1.6695274879729886e7 1.1240592898587814e7 0.0
0.0 0.0 0.0

5.045133076728656e6 2.496708321904075e7 0.0
2.496708321904075e7 3.354175491622864e6 0.0
0.0 0.0 0.0

349874.68965849327 1.6954595190031454e7 0.0
1.6954595190031454e7 -1.2570047514319612e7 0.0
0.0 0.0 0.0

-383517.7618237948 1.856951277094816e7 0.0
1.856951277094816e7 -1.5569839017135112e7 0.0
0.0 0.0 0.0

-4.144824861682756e6 1.6072434453815324e7 0.0
1.6072434453815324e7 -5.8210106604259215e7 0.0
0.0 0.0 0.0

-213268.35944519937 6.957395711637412e6 0.0
6.957395711637412e6 -6.356649075912808e7 0.0
0.0 0.0 0.0

-9.058398488528723e6 1.3888182556946818e7 0.0
1.3888182556946818e7 3.245885213079638e7 0.0
0.0 0.0 0.0

-2.3241771711421837e6 2.995954339038298e7 0.0
2.995954339038298e7 8.350136637562714e6 0.0
0.0 0.0 0.0

-7.946489929808887e6 6.0099941289465595e6 0.0
6.0099941289465595e6 4.714178569594919e7 0.0
0.0 0.0 0.0

1.3628985930289626e6 2.5011944790448863e7 0.0
2.5011944790448863e7 -1.5004033967301644e7 0.0
0.0 0.0 0.0

1.0634342607709235e6 2.4286508476045955e7 0.0
2.4286508476045955e7 -1.823087605388589e7 0.0
0.0 0.0 0.0

2.012082996267768e7 6.304769100258885e6 0.0
6.304769100258885e6 -1.5052486229738211e6 0.0
0.0 0.0 0.0

1.1787489940062515e6 1.1034696426748846e7 0.0
1.1034696426748846e7 -1.162443091944454e7 0.0
0.0 0.0 0.0

-7.366746762626666e6 1.680223445818249e7 0.0
1.680223445818249e7 2.1040759799268723e7 0.0
0.0 0.0 0.0

-4.501635168511985e6 2.3093376621616594e7 0.0
2.3093376621616594e7 -2.3408453593102355e7 0.0
0.0 0.0 0.0

615473.475292759 1.811391594303498e7 0.0
1.811391594303498e7 -1.483883306722212e7 0.0
0.0 0.0 0.0

1.0027376180751789e6 1.9714266156872984e7 0.0
1.9714266156872984e7 -1.766077572765169e7 0.0
0.0 0.0 0.0

-5.014970005061097e6 1.5803169579994008e7 0.0
1.5803169579994008e7 4.647452139765992e7 0.0
0.0 0.0 0.0

-9.46370273527845e6 1.3717007654343935e7 0.0
1.3717007654343935e7 2.8964315451110315e7 0.0
0.0 0.0 0.0

-581700.3578608232 1.8028915249877617e7 0.0
1.8028915249877617e7 -1.4546767464718753e7 0.0
0.0 0.0 0.0

-891724.1466961256 2.2744886915151186e7 0.0
2.2744886915151186e7 -1.1282840157410135e7 0.0
0.0 0.0 0.0

-7.229578525856517e6 2.33102794944527e7 0.0
2.33102794944527e7 -1.5363614836036107e7 0.0
0.0 0.0 0.0

-921646.7446200176 3.152903262990955e7 0.0
3.152903262990955e7 -2.6680780298603303e6 0.0
0.0 0.0 0.0

899693.9541264735 1.4301272750079816e7 0.0
1.4301272750079816e7 -3.836475440211688e7 0.0
0.0 0.0 0.0

-2.0442611865035247e6 3.776169064478889e7 0.0
3.776169064478889e7 2.814675675682875e6 0.0
0.0 0.0 0.0

-6.252415867685092e6 1.7623142906090535e7 0.0
1.7623142906090535e7 1.903332158306037e7 0.0
0.0 0.0 0.0

-1.1610149430907436e7 2.9322908330358338e7 0.0
2.9322908330358338e7 -1.4244941220840707e7 0.0
0.0 0.0 0.0

55780.866113393335 2.1635299199209295e7 0.0
2.1635299199209295e7 -2.23157744850253e6 0.0
0.0 0.0 0.0

-1.1873587267356124e6 2.3595667631174322e7 0.0
2.3595667631174322e7 -2.2153444682280146e7 0.0
0.0 0.0 0.0

-3.1599222860820037e6 2.3271363885470822e7 0.0
2.3271363885470822e7 -1.406104656423195e7 0.0
0.0 0.0 0.0

-3.2363563282030523e6 2.879467946075928e7 0.0
2.879467946075928e7 1.1137605862383153e7 0.0
0.0 0.0 0.0

933527.5722545395 2.3172713342897426e7 0.0
2.3172713342897426e7 -1.440599190659225e7 0.0
0.0 0.0 0.0

-779558.4534469498 1.748975999513741e7 0.0
1.748975999513741e7 -1.3429624309655592e7 0.0
0.0 0.0 0.0

-1.0673491229854487e6 2.1770108681385554e7 0.0
2.1770108681385554e7 -2.7259944815219518e7 0.0
0.0 0.0 0.0

-1.8787989896053711e6 1.4479737103165964e7 0.0
1.4479737103165964e7 -6.76652749390582e6 0.0
0.0 0.0 0.0

-2.0936951657850146e6 2.8249368063975353e7 0.0
2.8249368063975353e7 2.764431970140554e6 0.0
0.0 0.0 0.0

-706938.3574969491 3.0834295249626044e7 0.0
3.0834295249626044e7 -3.9792913641425427e6 0.0
0.0 0.0 0.0

-3.225783607874803e6 4.639172556086599e6 0.0
4.639172556086599e6 7.857406303081689e6 0.0
0.0 0.0 0.0

-54764.72523086518 1.2408055621655595e7 0.0
1.2408055621655595e7 -1.3752286445476543e7 0.0
0.0 0.0 0.0

-153379.0765163267 3.281898719407678e7 0.0
3.281898719407678e7 -523896.6792412682 0.0
0.0 0.0 0.0

-2.4419211861961144e6 2.4757245417448364e7 0.0
2.4757245417448364e7 7.126854365690382e6 0.0
0.0 0.0 0.0

-1.1271460950708318e8 1.1746811119013814e7 0.0
1.1746811119013814e7 -704523.405253984 0.0
0.0 0.0 0.0

26173.957860171795 1.9358359735748302e7 0.0
1.9358359735748302e7 -3.099350226627063e7 0.0
0.0 0.0 0.0

-2.758680376528419e6 2.30745794953855e7 0.0
2.30745794953855e7 1.0786361304559007e7 0.0
0.0 0.0 0.0

-311962.8882123644 2.8103375740266297e7 0.0
2.8103375740266297e7 -3.6347728915673327e6 0.0
0.0 0.0 0.0

-2.640391375026015e6 2.439375692906025e7 0.0
2.439375692906025e7 1.029053664572158e7 0.0
0.0 0.0 0.0

-3.1058939016061537e6 2.588785636116008e7 0.0
2.588785636116008e7 1.0019957822482307e6 0.0
0.0 0.0 0.0

930691.058658334 2.5271926029095873e7 0.0
2.5271926029095873e7 -1.2315771142720278e7 0.0
0.0 0.0 0.0

-5.053102031507678e6 1.8495250147593994e7 0.0
1.8495250147593994e7 1.6615032342586435e7 0.0
0.0 0.0 0.0

-8.854756265417859e6 1.0150609434808344e7 0.0
1.0150609434808344e7 3.557101449241102e7 0.0
0.0 0.0 0.0

-862766.3422996546 1.5311071880671244e7 0.0
1.5311071880671244e7 -5.2296777514831275e6 0.0
0.0 0.0 0.0

2.517288010353352e6 6.5301216673074225e6 0.0
6.5301216673074225e6 -1.376704353105925e7 0.0
0.0 0.0 0.0

-1.766435959490301e6 2.0059076914436314e7 0.0
2.0059076914436314e7 -8.2367005154968845e6 0.0
0.0 0.0 0.0

900828.0519143036 2.62147591077737e7 0.0
2.62147591077737e7 -1.3954461031479554e7 0.0
0.0 0.0 0.0

-2.528905486544777e6 2.3440714612072345e7 0.0
2.3440714612072345e7 7.4565930594285065e6 0.0
0.0 0.0 0.0

-2.4739432049838235e6 1.835048145924491e7 0.0
1.835048145924491e7 -3.9970681205733167e6 0.0
0.0 0.0 0.0

-9.145487329818945e6 3.0655209274430205e6 0.0
3.0655209274430205e6 2.056641530905266e7 0.0
0.0 0.0 0.0

1.7338969862738186e6 6.386862048393191e6 0.0
6.386862048393191e6 -1.6372103878783245e7 0.0
0.0 0.0 0.0

-7.367746022397244e6 9.303289215869771e6 0.0
9.303289215869771e6 4.632624831386548e7 0.0
0.0 0.0 0.0

-1.0451294589551164e7 6.2777932031510435e6 0.0
6.2777932031510435e6 2.643329285086231e7 0.0
0.0 0.0 0.0

363494.1114586778 2.2705450161888536e7 0.0
2.2705450161888536e7 3.0425289877738923e7 0.0
0.0 0.0 0.0

-786924.1665148512 2.397598736592773e7 0.0
2.397598736592773e7 -1.077762988354519e7 0.0
0.0 0.0 0.0

-233212.7083356157 1.1626148998597538e7 0.0
1.1626148998597538e7 -1.2572228429061987e7 0.0
0.0 0.0 0.0

-6.789486640938442e6 8.945338070603082e6 0.0
8.945338070603082e6 4.991161789391504e7 0.0
0.0 0.0 0.0

51068.516179471975 2.849972558695077e7 0.0
2.849972558695077e7 -4.725718378768925e6 0.0
0.0 0.0 0.0

-3.2528917582052695e6 1.715184979318371e7 0.0
1.715184979318371e7 3.2272158398867063e6 0.0
0.0 0.0 0.0

-2.0499836561626086e6 1.2220208714330826e7 0.0
1.2220208714330826e7 2.6841475136636896e6 0.0
0.0 0.0 0.0

-2.1180408774746875e6 1.5960331531952623e7 0.0
1.5960331531952623e7 -6.306335577378646e6 0.0
0.0 0.0 0.0

-4.841489095307463e6 2.102758737428206e7 0.0
2.102758737428206e7 -3.677249821225654e7 0.0
0.0 0.0 0.0

-1.6712344035162027e6 2.4506121806932323e7 0.0
2.4506121806932323e7 9.76975782956787e6 0.0
0.0 0.0 0.0

1.5980779714962766e6 2.4217120667336788e7 0.0
2.4217120667336788e7 -1.821421557178705e7 0.0
0.0 0.0 0.0

5.129591912402533e6 1.9815719942614555e7 0.0
1.9815719942614555e7 7.652453396826872e7 0.0
0.0 0.0 0.0

7.6259159407164445e6 2.7801438097466014e7 0.0
2.7801438097466014e7 1.52062341174963e7 0.0
0.0 0.0 0.0

-8.069736791855216e6 1.6491994170549925e7 0.0
1.6491994170549925e7 2.3877423926284555e7 0.0
0.0 0.0 0.0

1.477833531711826e6 1.5016592017176375e7 0.0
1.5016592017176375e7 -3.1181386969519287e7 0.0
0.0 0.0 0.0

-1.3831999800734473e6 1.9195786201849777e7 0.0
1.9195786201849777e7 -2.693173964778254e6 0.0
0.0 0.0 0.0

3.282021668060936e6 2.7917451133128747e7 0.0
2.7917451133128747e7 -1.3041405897190845e7 0.0
0.0 0.0 0.0

-2.159868447232477e6 3.1547451307743672e7 0.0
3.1547451307743672e7 5.816937179050373e6 0.0
0.0 0.0 0.0

-540143.001269971 3.005821631796555e7 0.0
3.005821631796555e7 -5.107655300611468e6 0.0
0.0 0.0 0.0

-446006.81990845315 2.4140566880152244e7 0.0
2.4140566880152244e7 -2.020142832960123e7 0.0
0.0 0.0 0.0

-1.329079278056042e6 1.7740305209582563e7 0.0
1.7740305209582563e7 -2.991850562692125e6 0.0
0.0 0.0 0.0

-2.491054595124212e6 2.522440371139815e7 0.0
2.522440371139815e7 8.527523731823443e6 0.0
0.0 0.0 0.0

-1.0755545700763956e7 1.025010166375178e7 0.0
1.025010166375178e7 2.3877413948630035e7 0.0
0.0 0.0 0.0

1.8916147586653074e6 6.173649685038615e6 0.0
6.173649685038615e6 -1.9198297084172085e7 0.0
0.0 0.0 0.0

-964889.7183965319 2.0364847717365067e7 0.0
2.0364847717365067e7 -5.591355030054957e6 0.0
0.0 0.0 0.0

2.1319245959146908e6 1.0928801528089952e7 0.0
1.0928801528089952e7 -2.33845214984675e7 0.0
0.0 0.0 0.0

-1.4695659341884137e6 2.4811433970582876e7 0.0
2.4811433970582876e7 4.0661818119806782e6 0.0
0.0 0.0 0.0

-1.3479709132647028e6 1.1340359469501883e7 0.0
1.1340359469501883e7 429754.16940543335 0.0
0.0 0.0 0.0

1.3265100985067433e6 3.550835708783907e7 0.0
3.550835708783907e7 -4.19542764875643e6 0.0
0.0 0.0 0.0

-7.385163121499544e7 6.6376678444934245e6 0.0
6.6376678444934245e6 3.697333094590131e6 0.0
0.0 0.0 0.0

-666792.5424146081 1.0386574871395461e7 0.0
1.0386574871395461e7 -1.7283847472348972e6 0.0
0.0 0.0 0.0

-5.670988171199415e6 1.9662752622851644e7 0.0
1.9662752622851644e7 -4.578377363215134e7 0.0
0.0 0.0 0.0

2.405429100500314e6 2.665894879671115e7 0.0
2.665894879671115e7 -1.1190545411518896e7 0.0
0.0 0.0 0.0

638894.577139507 1.6089939181703674e7 0.0
1.6089939181703674e7 -1.423342593531939e7 0.0
0.0 0.0 0.0

935116.5410965104 2.1964013964673016e7 0.0
2.1964013964673016e7 -2.337164472724074e7 0.0
0.0 0.0 0.0

27834.827027781168 9.536736424748532e6 0.0
9.536736424748532e6 -3.7172797790389536e6 0.0
0.0 0.0 0.0

2.4302640130030196e6 8.90443965772544e6 0.0
8.90443965772544e6 -2.6575095344042424e7 0.0
0.0 0.0 0.0

-1.1712677312990963e6 3.220765635789516e7 0.0
3.220765635789516e7 -1.4867174968913847e6 0.0
0.0 0.0 0.0

-604486.799606818 6.760079366606388e6 0.0
6.760079366606388e6 -5.125698066511549e6 0.0
0.0 0.0 0.0

381197.5995509811 1.2215631906379234e7 0.0
1.2215631906379234e7 -1.657183959524618e7 0.0
0.0 0.0 0.0

1.5098427661741446e6 3.7215242220782325e7 0.0
3.7215242220782325e7 -3.1222382044213754e6 0.0
0.0 0.0 0.0

5.809081426903078e6 2.6222107527051054e7 0.0
2.6222107527051054e7 2.024652774028578e6 0.0
0.0 0.0 0.0

3.7068805044349586e6 3.014879544633621e7 0.0
3.014879544633621e7 -1.0169284191755062e7 0.0
0.0 0.0 0.0

117903.03996376693 9.550356107850669e6 0.0
9.550356107850669e6 -7.548402731691432e7 0.0
0.0 0.0 0.0

-4.416261781456811e6 1.983067496182394e7 0.0
1.983067496182394e7 3.5232245154483e7 0.0
0.0 0.0 0.0

-972049.7447823469 3.0896428474162474e7 0.0
3.0896428474162474e7 1.4458365180514918e6 0.0
0.0 0.0 0.0

2.0825658890208676e6 1.0495129719912218e7 0.0
1.0495129719912218e7 -1.9696730620066263e7 0.0
0.0 0.0 0.0

604583.5994921571 8.599183252502274e6 0.0
8.599183252502274e6 -5.550197111729945e6 0.0
0.0 0.0 0.0

-360649.0957232341 1.0866551124276424e7 0.0
1.0866551124276424e7 -1.131596722047613e7 0.0
0.0 0.0 0.0

-4.135558778946392e6 3.60905479105469e7 0.0
3.60905479105469e7 5.65592881830686e6 0.0
0.0 0.0 0.0

-9.225573145108443e6 3.7275127986121774e6 0.0
3.7275127986121774e6 2.821921456505748e7 0.0
0.0 0.0 0.0

-6.6596561192296e6 1.8298017797333777e7 0.0
1.8298017797333777e7 3.210975461363559e7 0.0
0.0 0.0 0.0

68136.2739343762 3.03519733931738e7 0.0
3.03519733931738e7 -3.1921462378642894e6 0.0
0.0 0.0 0.0

996547.1909783101 1.840834358918015e7 0.0
1.840834358918015e7 -1.8490346028337292e7 0.0
0.0 0.0 0.0

-1.146998110918601e6 2.4581679939749416e7 0.0
2.4581679939749416e7 2.4151239894468088e7 0.0
0.0 0.0 0.0

-2.413532078979412e6 1.97979334886794e7 0.0
1.97979334886794e7 -3.694853594821352e6 0.0
0.0 0.0 0.0

507500.99128012825 1.9449684388664506e7 0.0
1.9449684388664506e7 -1.425446062529655e7 0.0
0.0 0.0 0.0

-2.5306424445832986e6 1.896478030215861e7 0.0
1.896478030215861e7 -3.797011538972623e7 0.0
0.0 0.0 0.0

5.004037764024077e6 3.197419590939893e7 0.0
3.197419590939893e7 -8.53200436209111e6 0.0
0.0 0.0 0.0

-3.537484816721212e6 1.6409747562014775e7 0.0
1.6409747562014775e7 -5.4460646774255715e7 0.0
0.0 0.0 0.0

-1.0918750600813929e7 9.053497449239172e6 0.0
9.053497449239172e6 2.2640340228612468e7 0.0
0.0 0.0 0.0

7.463187166930881e6 2.4155807187893923e7 0.0
2.4155807187893923e7 3.019228409891655e7 0.0
0.0 0.0 0.0

-4.752675054618485e6 3.463602508323758e7 0.0
3.463602508323758e7 6.094675393034293e6 0.0
0.0 0.0 0.0

-2.2103703722995557e6 2.037346286310416e7 0.0
2.037346286310416e7 -5.140158749198515e6 0.0
0.0 0.0 0.0

6.822038717852406e6 2.789815317215554e7 0.0
2.789815317215554e7 -6.188455350308637e6 0.0
0.0 0.0 0.0

293225.4833603406 2.9650613208401445e7 0.0
2.9650613208401445e7 -4.447983325504086e6 0.0
0.0 0.0 0.0

-7.390548417729303e6 1.0634729532078194e7 0.0
1.0634729532078194e7 1.045491679778175e7 0.0
0.0 0.0 0.0

242114.5714443149 2.4699702632854696e7 0.0
2.4699702632854696e7 -1.8394611440352853e7 0.0
0.0 0.0 0.0

1.46089362316834e6 1.7428486989346974e7 0.0
1.7428486989346974e7 -2.5955305012727443e7 0.0
0.0 0.0 0.0

1.3699614677151553e6 1.8192682103408284e7 0.0
1.8192682103408284e7 -2.4157498934387323e7 0.0
0.0 0.0 0.0

-1.1290465993894031e6 1.8338119762583952e7 0.0
1.8338119762583952e7 -1.1712950913905075e7 0.0
0.0 0.0 0.0

2.2017409223406505e7 3.3702913438522376e7 0.0
3.3702913438522376e7 -4.265345224895673e6 0.0
0.0 0.0 0.0

1.215987519079159e6 1.315944506402493e7 0.0
1.315944506402493e7 -1.5095244332410794e7 0.0
0.0 0.0 0.0

1.9952474159330362e6 5.512937213897553e6 0.0
5.512937213897553e6 -1.805466837268346e7 0.0
0.0 0.0 0.0

1.4913222581906132e6 1.6602130630320039e7 0.0
1.6602130630320039e7 -2.761750214099143e7 0.0
0.0 0.0 0.0

287903.1230793409 7.489065370102974e6 0.0
7.489065370102974e6 -5.646702961223826e7 0.0
0.0 0.0 0.0

-9.468210987740595e6 1.0056577079481296e7 0.0
1.0056577079481296e7 1.4584154857050668e7 0.0
0.0 0.0 0.0

-2.2689757071427098e6 2.7463479823821705e7 0.0
2.7463479823821705e7 3.8871919539861945e6 0.0
0.0 0.0 0.0

2.372901007469816e6 4.852665906597393e6 0.0
4.852665906597393e6 -3.2051125227354474e7 0.0
0.0 0.0 0.0

1.3289605719400197e6 7.337653346051827e6 0.0
7.337653346051827e6 -1.504861506722917e7 0.0
0.0 0.0 0.0

-340527.5876671029 1.8651215483852588e7 0.0
1.8651215483852588e7 -9.113741476106895e6 0.0
0.0 0.0 0.0

-3.5031955718220025e6 1.667855838310545e7 0.0
1.667855838310545e7 4.9604018931512386e7 0.0
0.0 0.0 0.0

-3.3965931881835153e6 2.666857330753098e7 0.0
2.666857330753098e7 1.708472931529336e7 0.0
0.0 0.0 0.0

-5.816024413866405e6 1.1979118771260424e7 0.0
1.1979118771260424e7 8.0302230395298265e6 0.0
0.0 0.0 0.0

-3.865527409140464e6 2.355561508447923e7 0.0
2.355561508447923e7 2.5014112625351373e7 0.0
0.0 0.0 0.0

2.7678119930507736e6 6.803763036543075e6 0.0
6.803763036543075e6 -2.3230421619596403e7 0.0
0.0 0.0 0.0

1.3942751069876347e6 1.581261529384852e7 0.0
1.581261529384852e7 -2.956809196182291e7 0.0
0.0 0.0 0.0

1.5249838301103425e6 8.167286081417586e7 0.0
8.167286081417586e7 8.874254768499065e6 0.0
0.0 0.0 0.0

-4.351454518101464e6 1.6104055188004632e7 0.0
1.6104055188004632e7 9.37240066058569e6 0.0
0.0 0.0 0.0

-1.0819990305623427e7 7.510457166117564e6 0.0
7.510457166117564e6 2.1667537147788566e7 0.0
0.0 0.0 0.0

799375.5300836181 2.3178788867229518e7 0.0
2.3178788867229518e7 -1.9841811692029458e7 0.0
0.0 0.0 0.0

1.3401669442232996e6 1.900131261860334e7 0.0
1.900131261860334e7 -2.2550263697741866e7 0.0
0.0 0.0 0.0

252826.1680182186 4.108415797893508e6 0.0
4.108415797893508e6 2.4014640924517843e6 0.0
0.0 0.0 0.0

-4.239632233394662e6 2.4112398411750714e6 0.0
2.4112398411750714e6 6.700917882286026e6 0.0
0.0 0.0 0.0

-5.541952698894979e6 3.653725913857967e7 0.0
3.653725913857967e7 4.980306604219431e6 0.0
0.0 0.0 0.0

-2.69989714355329e6 2.2600983285250586e7 0.0
2.2600983285250586e7 9.272844911468359e6 0.0
0.0 0.0 0.0

-3.5671060635420764e6 3.647020390517665e7 0.0
3.647020390517665e7 2.8944900575396814e6 0.0
0.0 0.0 0.0

2.1917036607387867e6 1.0704788853651207e7 0.0
1.0704788853651207e7 -2.599865296950503e7 0.0
0.0 0.0 0.0

-2.413133775991527e6 2.6010928434995204e7 0.0
2.6010928434995204e7 6.8688444015436955e6 0.0
0.0 0.0 0.0

-8.442219644106101e6 6.6642803386216825e6 0.0
6.6642803386216825e6 3.934185413578619e7 0.0
0.0 0.0 0.0

-9.143494353988916e7 8.47431369018604e6 0.0
8.47431369018604e6 2.787611777080089e6 0.0
0.0 0.0 0.0

-2.310316826715682e6 2.869189257983192e7 0.0
2.869189257983192e7 3.8800657305621095e6 0.0
0.0 0.0 0.0

-3.6513086277782014e6 2.4260955414781116e7 0.0
2.4260955414781116e7 2.3018477747277714e7 0.0
0.0 0.0 0.0

2.711595142099081e6 3.2266027906300746e7 0.0
3.2266027906300746e7 -8.094509433219466e6 0.0
0.0 0.0 0.0

1.4593597942965534e6 6.563958158894802e6 0.0
6.563958158894802e6 -1.3477742511022968e7 0.0
0.0 0.0 0.0

-3.863088233559055e6 1.821440578049638e7 0.0
1.821440578049638e7 1.0822751070433563e7 0.0
0.0 0.0 0.0

-1.961395959096906e7 3.0198934547121424e7 0.0
3.0198934547121424e7 -1.1750506376199093e7 0.0
0.0 0.0 0.0

-9.96250357938911e6 2.829280519036084e7 0.0
2.829280519036084e7 -1.1874742783639807e7 0.0
0.0 0.0 0.0

2.5458022452328363e6 8.0762608395545725e6 0.0
8.0762608395545725e6 -1.8861719317559216e7 0.0
0.0 0.0 0.0

-3.5424769981655097e6 2.503409879864825e7 0.0
2.503409879864825e7 2.1009029419862088e7 0.0
0.0 0.0 0.0

-10728.704883682542 2.2252988353299156e7 0.0
2.2252988353299156e7 -1.0519248289299859e7 0.0
0.0 0.0 0.0

216675.15173120797 5.312271266562969e6 0.0
5.312271266562969e6 -6.21197614150026e7 0.0
0.0 0.0 0.0

-6.609062832907535e6 3.403878925327664e6 0.0
3.403878925327664e6 5.7232590830346845e7 0.0
0.0 0.0 0.0

1.8319618271276979e6 1.1409726773431651e7 0.0
1.1409726773431651e7 -1.816393649515393e7 0.0
0.0 0.0 0.0

2.0713865088413227e6 8.055023368731096e6 0.0
8.055023368731096e6 -3.9022435596776895e7 0.0
0.0 0.0 0.0

-590265.4988496574 2.4924185529197875e7 0.0
2.4924185529197875e7 -8.843219030971467e6 0.0
0.0 0.0 0.0

-1.1465191566917785e6 1.3894069767339613e7 0.0
1.3894069767339613e7 -5.13944472197091e7 0.0
0.0 0.0 0.0

3.7772440804574294e6 4.032190493217108e7 0.0
4.032190493217108e7 -3.839413196421548e6 0.0
0.0 0.0 0.0

-23786.64097607322 1.9799508013691306e7 0.0
1.9799508013691306e7 4.840294424963607e7 0.0
0.0 0.0 0.0

-7.156104766423643e6 3.384416894480448e6 0.0
3.384416894480448e6 5.286290648713444e7 0.0
0.0 0.0 0.0

59901.863495083526 2.351730815499952e7 0.0
2.351730815499952e7 -1.003744212952286e7 0.0
0.0 0.0 0.0

744425.0723296814 8.996688795687083e6 0.0
8.996688795687083e6 -4.7395170979035765e7 0.0
0.0 0.0 0.0

-1.4789665645138978e6 2.3495633374726843e7 0.0
2.3495633374726843e7 992211.3518273009 0.0
0.0 0.0 0.0

-2.278304143050726e6 2.6239366142436363e7 0.0
2.6239366142436363e7 3.918285283685527e6 0.0
0.0 0.0 0.0

-9.612360173211003e6 9.355917253512882e6 0.0
9.355917253512882e6 3.019797013201277e7 0.0
0.0 0.0 0.0

6.043825563994773e6 3.2548449277846392e7 0.0
3.2548449277846392e7 -8.068990624268405e6 0.0
0.0 0.0 0.0

1.4112772735555575e6 2.5515599112886947e7 0.0
2.5515599112886947e7 -4.077167228566767e6 0.0
0.0 0.0 0.0

-73150.1014155643 3.1087847357051935e7 0.0
3.1087847357051935e7 -1.952573805893154e6 0.0
0.0 0.0 0.0

1.05235742652243e6 2.7778948521904917e6 0.0
2.7778948521904917e6 -5.905005524343332e7 0.0
0.0 0.0 0.0

-2.3622500181660173e6 2.6769479581289414e7 0.0
2.6769479581289414e7 5.283496419718676e6 0.0
0.0 0.0 0.0

712678.396688329 1.6666218807479195e7 0.0
1.6666218807479195e7 -1.5332854965174016e7 0.0
0.0 0.0 0.0

-3.912403352931368e6 1.396668902244047e7 0.0
1.396668902244047e7 3.41970110859205e6 0.0
0.0 0.0 0.0

-1.0032883384904395e6 1.6896562823868126e7 0.0
1.6896562823868126e7 -4.884503761218357e6 0.0
0.0 0.0 0.0

-1.0179051726509355e7 7.179122120733984e6 0.0
7.179122120733984e6 1.4468361316993263e7 0.0
0.0 0.0 0.0

1.9305999399802384e6 2.43660748012674e7 0.0
2.43660748012674e7 -5.530718278054904e6 0.0
0.0 0.0 0.0

-7.490837178974396e6 1.0959038881651659e7 0.0
1.0959038881651659e7 4.386225941496196e7 0.0
0.0 0.0 0.0

347832.33500242885 1.8924508019357108e7 0.0
1.8924508019357108e7 -1.3188994532021433e7 0.0
0.0 0.0 0.0

-7.415705782286979e6 7.016825564400942e6 0.0
7.016825564400942e6 8.084286836565132e6 0.0
0.0 0.0 0.0

-6.365448441052363e6 3.739661778565453e7 0.0
3.739661778565453e7 5.020362867787584e6 0.0
0.0 0.0 0.0

1.2583534270660053e6 2.9560885286232732e7 0.0
2.9560885286232732e7 -7.194566079190994e6 0.0
0.0 0.0 0.0

782075.8762283996 2.0036471798576154e7 0.0
2.0036471798576154e7 -2.69154570878269e7 0.0
0.0 0.0 0.0

1.5334657676783279e6 1.228401810262219e7 0.0
1.228401810262219e7 -1.664918492939989e7 0.0
0.0 0.0 0.0

-1.526362809778277e6 2.9245016495216306e7 0.0
2.9245016495216306e7 4.710510042594444e6 0.0
0.0 0.0 0.0

-3.368078085839512e6 2.3282768316777058e7 0.0
2.3282768316777058e7 2.7062198627998926e7 0.0
0.0 0.0 0.0

9.139603322069736e6 2.360747558207041e7 0.0
2.360747558207041e7 1.3157146486682087e7 0.0
0.0 0.0 0.0

170955.1184430942 9.36827938844919e6 0.0
9.36827938844919e6 -5.108255496405904e7 0.0
0.0 0.0 0.0

-1.6840305876319334e6 2.57547008763866e7 0.0
2.57547008763866e7 9.346534834404664e6 0.0
0.0 0.0 0.0

-1.5944980268081082e6 2.735910617405843e7 0.0
2.735910617405843e7 6.171005063166007e6 0.0
0.0 0.0 0.0

-9.460925575412901e6 1.422802828666729e7 0.0
1.422802828666729e7 2.3068096282004178e7 0.0
0.0 0.0 0.0

4.615555757247207e6 4.136346741069207e7 0.0
4.136346741069207e7 -3.857681763785394e6 0.0
0.0 0.0 0.0

200039.51951646945 1.6365812568125522e7 0.0
1.6365812568125522e7 -1.1354361822990261e7 0.0
0.0 0.0 0.0

-5.683575187582519e6 2.0416372111238185e7 0.0
2.0416372111238185e7 2.4398837118898693e7 0.0
0.0 0.0 0.0

1.578295783318854e6 1.1590259391003225e7 0.0
1.1590259391003225e7 -1.5528848134457191e7 0.0
0.0 0.0 0.0

-4.0701068748651096e6 1.084593007788835e7 0.0
1.084593007788835e7 9.944719701117858e6 0.0
0.0 0.0 0.0

-1.3614826097192096e6 2.9802499519583795e7 0.0
2.9802499519583795e7 3.492827847937018e6 0.0
0.0 0.0 0.0

-1.4790437153561125e6 3.095283581133236e7 0.0
3.095283581133236e7 3.476700102853901e6 0.0
0.0 0.0 0.0

193749.09157355456 1.837860883428452e7 0.0
1.837860883428452e7 -1.204687444041189e7 0.0
0.0 0.0 0.0

3.4567707422894523e6 2.644250639145573e7 0.0
2.644250639145573e7 -5.192280885026011e6 0.0
0.0 0.0 0.0

1.894973124527609e7 3.503881541830371e7 0.0
3.503881541830371e7 -5.392892124669497e6 0.0
0.0 0.0 0.0

-6.38451746156934e6 2.8431816199546117e7 0.0
2.8431816199546117e7 9.248438487729786e6 0.0
0.0 0.0 0.0

-1.2836302620276438e7 1.955869904910823e7 0.0
1.955869904910823e7 -5.308269922420571e7 0.0
0.0 0.0 0.0

825523.0882975603 1.3352559682134634e7 0.0
1.3352559682134634e7 -1.228094867341691e7 0.0
0.0 0.0 0.0

-8.74724970110709e6 7.272949210711441e6 0.0
7.272949210711441e6 3.6360876071454786e7 0.0
0.0 0.0 0.0

-4.0634863911674814e6 2.6139542075910408e7 0.0
2.6139542075910408e7 -2.246980278014335e6 0.0
0.0 0.0 0.0

-7.95187414962607e6 2.6866157376189925e7 0.0
2.6866157376189925e7 -1.6392875103199305e6 0.0
0.0 0.0 0.0

-1.6670121036161017e6 2.6523441996691234e7 0.0
2.6523441996691234e7 7.645037016354377e6 0.0
0.0 0.0 0.0

-8.002321797756873e6 4.858425611582515e6 0.0
4.858425611582515e6 4.118510014158218e7 0.0
0.0 0.0 0.0

-7.456400911697254e6 3.8231149858119585e7 0.0
3.8231149858119585e7 5.064452229844473e6 0.0
0.0 0.0 0.0

-2.1386157193165454e6 2.9319844960796982e7 0.0
2.9319844960796982e7 2.652486570634787e6 0.0
0.0 0.0 0.0

3.6047656325530238e6 2.458622817673984e7 0.0
2.458622817673984e7 1.7128934381981585e6 0.0
0.0 0.0 0.0

4.749004154730841e6 2.050940432062481e7 0.0
2.050940432062481e7 1.5830013932559192e7 0.0
0.0 0.0 0.0

-1.7496408912900616e6 2.4911058363276206e7 0.0
2.4911058363276206e7 1.1090530771300806e7 0.0
0.0 0.0 0.0

-3.785605041199335e6 2.2180978623962697e7 0.0
2.2180978623962697e7 1.7630468804096192e7 0.0
0.0 0.0 0.0

2.6146745956650423e6 7.268942378526087e6 0.0
7.268942378526087e6 -1.7628472418958005e7 0.0
0.0 0.0 0.0

354051.4141404829 3.147260211579606e7 0.0
3.147260211579606e7 -2.9871989093599813e6 0.0
0.0 0.0 0.0

-6.071531568203095e6 1.8307651163575776e7 0.0
1.8307651163575776e7 2.680251580702876e7 0.0
0.0 0.0 0.0

1.9940709690284375e6 4.418095197799319e6 0.0
4.418095197799319e6 -2.9210049565355007e7 0.0
0.0 0.0 0.0

-770868.172719824 2.897066946792483e7 0.0
2.897066946792483e7 -5.500800731933227e6 0.0
0.0 0.0 0.0

-1.5210957597348457e6 2.60868848077684e7 0.0
2.60868848077684e7 6.455223299615625e6 0.0
0.0 0.0 0.0

-6.133572155003957e6 6.048009122542148e6 0.0
6.048009122542148e6 5.558139606282609e6 0.0
0.0 0.0 0.0

787697.1748192441 1.3312627755720636e7 0.0
1.3312627755720636e7 -2.124639320266867e7 0.0
0.0 0.0 0.0

3.504055993353001e6 7.144838793106773e7 0.0
7.144838793106773e7 6.254165576843367e6 0.0
0.0 0.0 0.0

-704475.5934734456 8.470321841655962e6 0.0
8.470321841655962e6 -8.874249835497712e7 0.0
0.0 0.0 0.0

1.8016018552479576e6 5.854293127414551e6 0.0
5.854293127414551e6 -3.443052903840421e7 0.0
0.0 0.0 0.0

1.6256890122722648e6 1.523493888160793e7 0.0
1.523493888160793e7 -2.405107251261414e7 0.0
0.0 0.0 0.0

-6.338183639130766e6 2.7801692138270147e7 0.0
2.7801692138270147e7 6.890144696231578e6 0.0
0.0 0.0 0.0

-158774.9345493 1.815891365140242e7 0.0
1.815891365140242e7 -3.3159537574249297e7 0.0
0.0 0.0 0.0

776438.0860942719 1.2666576594212666e7 0.0
1.2666576594212666e7 -1.1049280812519407e7 0.0
0.0 0.0 0.0

-3.617163302118009e6 1.3078859655725846e7 0.0
1.3078859655725846e7 1.2734960656568804e6 0.0
0.0 0.0 0.0

5.905132022176118e6 2.2567802557002604e7 0.0
2.2567802557002604e7 2.6894677831435658e7 0.0
0.0 0.0 0.0

-462817.7501913272 2.00571872623935e7 0.0
2.00571872623935e7 4.52019488906415e7 0.0
0.0 0.0 0.0

1.7595018866182294e7 1.7135016515525978e7 0.0
1.7135016515525978e7 7.7169384598633945e6 0.0
0.0 0.0 0.0

-6.771959379762876e6 4.311711095852425e7 0.0
4.311711095852425e7 2.701595544521994e6 0.0
0.0 0.0 0.0

-1.4754548563394637e6 1.9188801811463553e7 0.0
1.9188801811463553e7 -9.977003775050933e6 0.0
0.0 0.0 0.0

-3.769111161044799e7 3.1653738272478614e7 0.0
3.1653738272478614e7 -3.92439045996272e6 0.0
0.0 0.0 0.0

16989.972511385102 2.104159072253748e7 0.0
2.104159072253748e7 -1.1011744817359256e7 0.0
0.0 0.0 0.0

-1.5705064516226721e6 2.690744035469364e7 0.0
2.690744035469364e7 4.924141782173947e6 0.0
0.0 0.0 0.0

-379817.0982203237 1.6618617679211758e7 0.0
1.6618617679211758e7 -8.177357740614118e6 0.0
0.0 0.0 0.0

-2.7910061417896627e6 2.0082450326677382e7 0.0
2.0082450326677382e7 -3.44846018932434e7 0.0
0.0 0.0 0.0

2.03480329006158e6 5.49602475804991e6 0.0
5.49602475804991e6 -2.7616884582856867e7 0.0
0.0 0.0 0.0

275577.38558750786 1.2891115644875804e7 0.0
1.2891115644875804e7 -4.623900185684289e7 0.0
0.0 0.0 0.0

801480.7764086183 2.4429877278291367e7 0.0
2.4429877278291367e7 2.233257650654753e7 0.0
0.0 0.0 0.0

2.1977202548681665e6 8.434152284812704e6 0.0
8.434152284812704e6 -3.1858380898220863e7 0.0
0.0 0.0 0.0

-336539.017978003 2.924151153347139e7 0.0
2.924151153347139e7 -6.404481844231863e6 0.0
0.0 0.0 0.0

286111.74119309057 2.478575488769261e7 0.0
2.478575488769261e7 -1.4145784170508686e7 0.0
0.0 0.0 0.0

-2.462125614004935e6 1.6851400109222148e7 0.0
1.6851400109222148e7 -4.35338740383686e6 0.0
0.0 0.0 0.0

-2.9597377031992655e6 1.934212528224283e7 0.0
1.934212528224283e7 4.924092354815507e6 0.0
0.0 0.0 0.0

-5.3353951936618965e6 2.1008221122350376e7 0.0
2.1008221122350376e7 2.5293049387128916e7 0.0
0.0 0.0 0.0

1.9605457783554e6 1.1844756663036618e7 0.0
1.1844756663036618e7 -2.1839339874340508e7 0.0
0.0 0.0 0.0

-8.279176031113904e6 4.675243623921482e7 0.0
4.675243623921482e7 2.8663042776928777e6 0.0
0.0 0.0 0.0

-8.799893704908006e6 3.889469269952213e7 0.0
3.889469269952213e7 5.283478517205456e6 0.0
0.0 0.0 0.0

-4.779133747516638e6 2.203892462860218e7 0.0
2.203892462860218e7 2.6192362134889778e7 0.0
0.0 0.0 0.0

-2.2293805430680932e6 2.0719454251583863e7 0.0
2.0719454251583863e7 -7.431267844409712e6 0.0
0.0 0.0 0.0

1.2954647751635453e6 1.9786287370199885e7 0.0
1.9786287370199885e7 -2.0851740257834386e7 0.0
0.0 0.0 0.0

2.4581545770495143e6 8.118046502056279e6 0.0
8.118046502056279e6 -2.8412225626054145e7 0.0
0.0 0.0 0.0

-4.51697439608754e6 2.9439455058194544e7 0.0
2.9439455058194544e7 1.2208395585175825e7 0.0
0.0 0.0 0.0

-9.887544184314335e6 1.286610641425808e7 0.0
1.286610641425808e7 2.7769189194784194e7 0.0
0.0 0.0 0.0

8.355218928764607e6 3.570420506078871e7 0.0
3.570420506078871e7 -6.276343458182411e6 0.0
0.0 0.0 0.0

-5.180164132652149e6 3.826481330331404e6 0.0
3.826481330331404e6 7.024910768891549e7 0.0
0.0 0.0 0.0

-969149.9867180702 2.4885535457594395e7 0.0
2.4885535457594395e7 -9.199929407355439e6 0.0
0.0 0.0 0.0

-7.844833341245515e6 42782.83208539073 0.0
42782.83208539073 3.7119306510422364e7 0.0
0.0 0.0 0.0

-9.696206665508758e6 6.6170629423184525e6 0.0
6.6170629423184525e6 2.07072527265255e7 0.0
0.0 0.0 0.0

2.706029931473245e6 6.387684187089254e6 0.0
6.387684187089254e6 -1.6591442514698332e7 0.0
0.0 0.0 0.0

-4.690667787986839e6 1.695620938698918e7 0.0
1.695620938698918e7 4.557982204103219e7 0.0
0.0 0.0 0.0

1.2392262340749968e6 1.3395368550863352e7 0.0
1.3395368550863352e7 -3.779802538969815e7 0.0
0.0 0.0 0.0

-111308.29943835991 2.9272253816292025e7 0.0
2.9272253816292025e7 -3.3721366565820775e6 0.0
0.0 0.0 0.0

-1.6678607089582006e6 2.851748664100514e7 0.0
2.851748664100514e7 6.071743066316865e6 0.0
0.0 0.0 0.0

-1.3807314447673792e6 2.062265412070584e7 0.0
2.062265412070584e7 -2.425357624714524e6 0.0
0.0 0.0 0.0

-2.052032859387327e6 2.8869372639647514e7 0.0
2.8869372639647514e7 8.68482155851426e6 0.0
0.0 0.0 0.0

517040.7554047904 6.697510519133598e6 0.0
6.697510519133598e6 -8.539210175146062e6 0.0
0.0 0.0 0.0

-1.8850280862948275e6 2.4433178887875386e7 0.0
2.4433178887875386e7 -4.1372347734161015e6 0.0
0.0 0.0 0.0

1.6336821610483367e7 3.5937978304845296e7 0.0
3.5937978304845296e7 -5.837356730329349e6 0.0
0.0 0.0 0.0

549742.4706991008 1.1762839366533106e7 0.0
1.1762839366533106e7 -1.0000819119659014e7 0.0
0.0 0.0 0.0

-128728.91585634975 1.9212525114521597e7 0.0
1.9212525114521597e7 -1.035780789102087e7 0.0
0.0 0.0 0.0

-8.548916243289338e6 2.7561430452084564e7 0.0
2.7561430452084564e7 -8.90915643455957e6 0.0
0.0 0.0 0.0

-1.5602751242819494e6 2.001277166249626e7 0.0
2.001277166249626e7 -900316.8001553551 0.0
0.0 0.0 0.0

1.7375663077207923e7 2.942319858891465e7 0.0
2.942319858891465e7 -546847.3696243968 0.0
0.0 0.0 0.0

-4.728295800909335e6 5.016883121152376e6 0.0
5.016883121152376e6 2.6896351367267203e6 0.0
0.0 0.0 0.0

1.437987418884132e6 4.982546546534188e6 0.0
4.982546546534188e6 -4.214940306159723e7 0.0
0.0 0.0 0.0

-5.909761072880207e6 3.326321758428738e6 0.0
3.326321758428738e6 1.2884565721976189e7 0.0
0.0 0.0 0.0

-3.1236641927812067e6 1.2149594025828019e7 0.0
1.2149594025828019e7 -886193.0808064524 0.0
0.0 0.0 0.0

-1.9848882606441004e6 2.092287428601345e7 0.0
2.092287428601345e7 -6.508515282649465e6 0.0
0.0 0.0 0.0

-9.461533597620318e6 8.215435052367513e6 0.0
8.215435052367513e6 1.992806456651859e7 0.0
0.0 0.0 0.0

2.2341771322016837e6 7.515792973343644e6 0.0
7.515792973343644e6 -1.2084565368834743e7 0.0
0.0 0.0 0.0

1.0048796142953187e6 2.537404026155419e7 0.0
2.537404026155419e7 -1.6686172832402725e7 0.0
0.0 0.0 0.0

-2.4261148142388053e6 1.1251075113877773e7 0.0
1.1251075113877773e7 -3.152383657091138e6 0.0
0.0 0.0 0.0

2.0765306194853433e6 6.394630407816885e7 0.0
6.394630407816885e7 3.7998095183192953e6 0.0
0.0 0.0 0.0

1.8748867487189423e7 2.8182588881122477e7 0.0
2.8182588881122477e7 1.576843291467328e7 0.0
0.0 0.0 0.0

-1.642632726943567e6 1.0308886423275866e7 0.0
1.0308886423275866e7 -4.972231842089297e6 0.0
0.0 0.0 0.0

-4.015303810305156e6 1.75108038851331e7 0.0
1.75108038851331e7 1.8363433581540793e7 0.0
0.0 0.0 0.0

1.52367648607312e6 4.580865439167201e6 0.0
4.580865439167201e6 -7.024071876329418e6 0.0
0.0 0.0 0.0

-7.993803052825151e6 1.1545532911962513e7 0.0
1.1545532911962513e7 4.070179847616377e7 0.0
0.0 0.0 0.0

-910405.3140563844 9.369435130749531e6 0.0
9.369435130749531e6 -6.797241378991837e6 0.0
0.0 0.0 0.0

-1.1198349075225616e7 4.604556480230552e7 0.0
4.604556480230552e7 5.141570792269494e6 0.0
0.0 0.0 0.0

9.950325390503984e6 3.61132551962156e7 0.0
3.61132551962156e7 -6.149116004013648e6 0.0
0.0 0.0 0.0

2.539884558004236e6 7.139145926278963e6 0.0
7.139145926278963e6 -3.0024319480888486e7 0.0
0.0 0.0 0.0

202065.5856073331 2.5537348756313913e7 0.0
2.5537348756313913e7 -1.2610959060789777e7 0.0
0.0 0.0 0.0

1.0416486132640317e6 8.530631042008894e6 0.0
8.530631042008894e6 -4.284013981272761e7 0.0
0.0 0.0 0.0

-2.1378255749088433e6 2.176657161257243e7 0.0
2.176657161257243e7 -4.803750158469183e6 0.0
0.0 0.0 0.0

4.693975142276247e6 2.5082092499736197e7 0.0
2.5082092499736197e7 1.5926360269065235e7 0.0
0.0 0.0 0.0

1.3848360445817178e7 3.632304348325676e7 0.0
3.632304348325676e7 -5.97067771805196e6 0.0
0.0 0.0 0.0

513027.9794419622 1.117145997140764e7 0.0
1.117145997140764e7 -8.515621287280656e6 0.0
0.0 0.0 0.0

1.973038735497972e6 9.923620693284787e6 0.0
9.923620693284787e6 -1.5905823157816844e7 0.0
0.0 0.0 0.0

-921635.7728502605 1.4678204275743028e7 0.0
1.4678204275743028e7 -3.620762325077212e6 0.0
0.0 0.0 0.0

-1.0823321462129172e7 3.943218358389372e7 0.0
3.943218358389372e7 5.395524788900637e6 0.0
0.0 0.0 0.0

-2.9929979049199466e6 1.864515653874093e7 0.0
1.864515653874093e7 3.1316239490467086e6 0.0
0.0 0.0 0.0

1.2418545457192918e7 4.331598655974599e7 0.0
4.331598655974599e7 -4.571410773985562e6 0.0
0.0 0.0 0.0

-1.1733160529806458e6 2.1202754626398306e7 0.0
2.1202754626398306e7 -3.861757102928534e6 0.0
0.0 0.0 0.0

8.624878240624843e6 2.2275638295779496e7 0.0
2.2275638295779496e7 3.4676975567551345e7 0.0
0.0 0.0 0.0

-7.309044698604253e6 2.7131389996436268e7 0.0
2.7131389996436268e7 -5.781580052133232e6 0.0
0.0 0.0 0.0

-321047.76267099695 3.1736955467486e7 0.0
3.1736955467486e7 -735467.3430064465 0.0
0.0 0.0 0.0

-1.289826225385441e6 2.461370236943193e7 0.0
2.461370236943193e7 -1.6493409372925702e7 0.0
0.0 0.0 0.0

-3.271854104003459e6 1.6597799926630381e7 0.0
1.6597799926630381e7 -5.083434637603954e7 0.0
0.0 0.0 0.0

-2.6824019360040035e6 1.9863975318442766e7 0.0
1.9863975318442766e7 4.046199987254574e7 0.0
0.0 0.0 0.0

81413.22056138609 1.3774461072527165e7 0.0
1.3774461072527165e7 -1.609755132646142e7 0.0
0.0 0.0 0.0

-8.345380486389281e6 1.2138470403830951e7 0.0
1.2138470403830951e7 3.7521925504582115e7 0.0
0.0 0.0 0.0

1.2477150436369833e6 1.497993401616479e7 0.0
1.497993401616479e7 -3.371146163026476e7 0.0
0.0 0.0 0.0

-2.3924394949440667e6 1.5300940776153702e7 0.0
1.5300940776153702e7 -4.610932840061241e6 0.0
0.0 0.0 0.0

2.503777911753497e6 4.228366038330206e6 0.0
4.228366038330206e6 -1.6397936517600242e7 0.0
0.0 0.0 0.0

-2.3458392584551987e6 2.3474974777486917e7 0.0
2.3474974777486917e7 1.4516435075769746e6 0.0
0.0 0.0 0.0

-2.211816160466289e6 3.0374997094876695e7 0.0
3.0374997094876695e7 2.566146889805632e6 0.0
0.0 0.0 0.0

3.2944164435989587e6 3.730154388431125e7 0.0
3.730154388431125e7 -4.692587655132177e6 0.0
0.0 0.0 0.0

-2.02425037264443e6 2.3114865162360914e7 0.0
2.3114865162360914e7 -4.460168617404257e6 0.0
0.0 0.0 0.0

2.2383391740283757e6 6.596942742395906e6 0.0
6.596942742395906e6 -1.0831245433299785e7 0.0
0.0 0.0 0.0

1.1727991714276828e7 3.633924771067244e7 0.0
3.633924771067244e7 -6.120476756587785e6 0.0
0.0 0.0 0.0

-8.602096470090952e6 1.405984072614738e7 0.0
1.405984072614738e7 2.948870353052719e7 0.0
0.0 0.0 0.0

221594.57750255615 8.490406749190506e6 0.0
8.490406749190506e6 -5.375414322178552e7 0.0
0.0 0.0 0.0

6.225167452494335e6 2.7492796758522052e7 0.0
2.7492796758522052e7 1.5499289340561884e7 0.0
0.0 0.0 0.0

-3.5977827777196146e6 3.389156607866482e7 0.0
3.389156607866482e7 4.871060630803954e6 0.0
0.0 0.0 0.0

-3.682150793179743e6 2.258376657940155e7 0.0
2.258376657940155e7 -1.5217542019949086e7 0.0
0.0 0.0 0.0

-849959.6595206745 2.0417977239178874e7 0.0
2.0417977239178874e7 4.233911297225052e7 0.0
0.0 0.0 0.0

-6.290963993020797e6 2.338431478635873e7 0.0
2.338431478635873e7 -2.0969880250671957e7 0.0
0.0 0.0 0.0

-815164.6392375887 1.542835690223315e7 0.0
1.542835690223315e7 -1.2750676666652424e7 0.0
0.0 0.0 0.0

3.8705075034711626e6 2.3249832213212498e7 0.0
2.3249832213212498e7 2.2619294292785116e7 0.0
0.0 0.0 0.0

1.8892385679011412e6 5.91915864137135e7 0.0
5.91915864137135e7 2.9084429156198497e6 0.0
0.0 0.0 0.0

-5.611720717748367e6 2.7191318913371664e7 0.0
2.7191318913371664e7 -1.3034504203460723e7 0.0
0.0 0.0 0.0

7.89778359638488e7 2.5062829611540362e7 0.0
2.5062829611540362e7 7.239657772427563e6 0.0
0.0 0.0 0.0

-2.2022368767408384e6 1.748368100621939e7 0.0
1.748368100621939e7 -5.838714231712182e6 0.0
0.0 0.0 0.0

-2.2771730947437724e6 2.4110716141014274e7 0.0
2.4110716141014274e7 -43939.31775202742 0.0
0.0 0.0 0.0

655460.046096121 1.7705175728679273e7 0.0
1.7705175728679273e7 -2.105231150852437e7 0.0
0.0 0.0 0.0

3.9143929078938174e6 3.8182112527544826e7 0.0
3.8182112527544826e7 -4.7117608906324245e6 0.0
0.0 0.0 0.0

1.0680623658402134e6 6.6364681019987045e6 0.0
6.6364681019987045e6 -4.6779526779850446e7 0.0
0.0 0.0 0.0

-670679.4371301415 1.0007933806810634e7 0.0
1.0007933806810634e7 -8.249731754288072e6 0.0
0.0 0.0 0.0

951378.3525915286 1.368886119513932e7 0.0
1.368886119513932e7 -2.469833681703488e7 0.0
0.0 0.0 0.0

-3.288832156209016e6 2.6750158636054143e7 0.0
2.6750158636054143e7 1.7547743087041028e7 0.0
0.0 0.0 0.0

-1.75067803538903e6 2.570669103055897e7 0.0
2.570669103055897e7 -3.8454336405045264e6 0.0
0.0 0.0 0.0

780919.1899834524 2.3970415845248528e7 0.0
2.3970415845248528e7 7.392924922431724e6 0.0
0.0 0.0 0.0

-1.1966274487556147e6 1.6202099385295816e7 0.0
1.6202099385295816e7 -3.2935848897255464e6 0.0
0.0 0.0 0.0

-1.0474490101659009e6 2.3901212878050175e7 0.0
2.3901212878050175e7 -3.243657914511779e6 0.0
0.0 0.0 0.0

3.3935185031591635e6 2.491373354994118e7 0.0
2.491373354994118e7 -4.335235620399225e6 0.0
0.0 0.0 0.0

2.382330807772413e6 5.57906182854701e7 0.0
5.57906182854701e7 2.6500856055254797e6 0.0
0.0 0.0 0.0

-926552.263549008 2.518410815685361e7 0.0
2.518410815685361e7 -2.965898936490384e6 0.0
0.0 0.0 0.0

-4.464588319589762e6 8.44500000931355e6 0.0
8.44500000931355e6 1.0294174819603102e7 0.0
0.0 0.0 0.0

3.715252823224851e7 1.6118944803267e7 0.0
1.6118944803267e7 2.9204567955443356e6 0.0
0.0 0.0 0.0

-1.8076471518899836e6 1.1474555891906207e7 0.0
1.1474555891906207e7 -6.7044630429306716e7 0.0
0.0 0.0 0.0

-1.2485775935869375e6 3.152145255904249e7 0.0
3.152145255904249e7 2.5348311911287336e6 0.0
0.0 0.0 0.0

-6.1937433383317785e6 1.0312566552955491e7 0.0
1.0312566552955491e7 1.459438593685595e7 0.0
0.0 0.0 0.0

-1.815423329702123e6 1.6679379282339456e7 0.0
1.6679379282339456e7 -7.567404102436888e6 0.0
0.0 0.0 0.0

-480117.29567497503 1.3958137479360774e7 0.0
1.3958137479360774e7 -1.3260480259908594e7 0.0
0.0 0.0 0.0

2.125883975544777e6 5.2931936958134525e7 0.0
5.2931936958134525e7 1.574372320236321e6 0.0
0.0 0.0 0.0

692642.0636945236 1.2109455177929733e7 0.0
1.2109455177929733e7 -3.997813514760914e7 0.0
0.0 0.0 0.0

-9.882796553296592e6 7.622257743454648e6 0.0
7.622257743454648e6 3.2425700126157366e7 0.0
0.0 0.0 0.0

-7.135280614850741e6 2.629202886125289e7 0.0
2.629202886125289e7 -1.7028879950812932e7 0.0
0.0 0.0 0.0

-8.344117094185059e6 9.854088791668575e6 0.0
9.854088791668575e6 1.8444782251316372e7 0.0
0.0 0.0 0.0

-1.1080076424865255e6 2.3633726654422864e7 0.0
2.3633726654422864e7 -9.678967776560081e6 0.0
0.0 0.0 0.0

-1.9879147239329766e6 2.588694222517082e7 0.0
2.588694222517082e7 -1.166506248446627e6 0.0
0.0 0.0 0.0

485781.2480327785 1.947827427945978e7 0.0
1.947827427945978e7 -2.6632504235998426e7 0.0
0.0 0.0 0.0

1.5221305174347158e6 5.054765064743765e7 0.0
5.054765064743765e7 1.086018253928231e6 0.0
0.0 0.0 0.0

-3.514397927370037e6 2.765214655525358e7 0.0
2.765214655525358e7 1.5810553397607476e7 0.0
0.0 0.0 0.0

-792309.427177403 2.6428966274885774e7 0.0
2.6428966274885774e7 -2.727090093808279e6 0.0
0.0 0.0 0.0

1.0113501483835839e6 7.584441057712637e6 0.0
7.584441057712637e6 -4.494766434012772e7 0.0
0.0 0.0 0.0

-3.541414502730294e6 1.2866489635901e7 0.0
1.2866489635901e7 9.409345600157244e6 0.0
0.0 0.0 0.0

1.7422665803460297e6 4.8679043600882575e7 0.0
4.8679043600882575e7 1.0696559004917745e6 0.0
0.0 0.0 0.0

-337018.90073702857 1.0352794812200127e7 0.0
1.0352794812200127e7 -7.088734964390224e7 0.0
0.0 0.0 0.0

1.7872230443929855e6 4.71244252637345e7 0.0
4.71244252637345e7 855648.1773923568 0.0
0.0 0.0 0.0

1.6059438478987115e6 4.569086487470064e7 0.0
4.569086487470064e7 516965.210789627 0.0
0.0 0.0 0.0

-982853.3681998363 3.528600892068793e7 0.0
3.528600892068793e7 -956042.1839057289 0.0
0.0 0.0 0.0

-919822.761170568 3.6210091998589225e7 0.0
3.6210091998589225e7 -801015.9865898595 0.0
0.0 0.0 0.0

-919074.1119584619 3.713052637708088e7 0.0
3.713052637708088e7 -710244.8072852456 0.0
0.0 0.0 0.0

-899584.2952267993 3.8007360088039935e7 0.0
3.8007360088039935e7 -710522.2682943323 0.0
0.0 0.0 0.0

-909317.1365933592 3.889810153904995e7 0.0
3.889810153904995e7 -631293.240461801 0.0
0.0 0.0 0.0

-939636.4854481716 3.983795301321772e7 0.0
3.983795301321772e7 -723054.1677731908 0.0
0.0 0.0 0.0

-4.776543142880856e6 1.729770136005849e7 0.0
1.729770136005849e7 1.3087313102388183e7 0.0
0.0 0.0 0.0

-806252.5394013424 4.077252181796772e7 0.0
4.077252181796772e7 -605062.2311575653 0.0
0.0 0.0 0.0

-988396.8047651096 4.176097061562052e7 0.0
4.176097061562052e7 -594874.6658601392 0.0
0.0 0.0 0.0

-5.070715936579118e6 2.0061235023297466e7 0.0
2.0061235023297466e7 2.684243840874967e7 0.0
0.0 0.0 0.0

1.412576124635681e6 4.440920336204241e7 0.0
4.440920336204241e7 473141.5617847683 0.0
0.0 0.0 0.0

-1.221857908134103e6 4.269002969714806e7 0.0
4.269002969714806e7 -556013.3499199034 0.0
0.0 0.0 0.0

-1.113722923503476e6 4.384674085412807e7 0.0
4.384674085412807e7 -389424.92121957836 0.0
0.0 0.0 0.0

1.3039565642430258e6 4.328889914432513e7 0.0
4.328889914432513e7 381588.46980899695 0.0
0.0 0.0 0.0

-1.1802150627977632e6 1.9792901060402885e7 0.0
1.9792901060402885e7 -4.1824808897583135e6 0.0
0.0 0.0 0.0

-1.439552810534297e6 4.507423474487076e7 0.0
4.507423474487076e7 -450168.5626623603 0.0
0.0 0.0 0.0

883315.3198422762 4.217933804944697e7 0.0
4.217933804944697e7 119317.7688609084 0.0
0.0 0.0 0.0

1.1689764847091353e6 4.1185825627263345e7 0.0
4.1185825627263345e7 143391.00612460022 0.0
0.0 0.0 0.0

886379.9835513382 4.03373094392562e7 0.0
4.03373094392562e7 75355.26849444662 0.0
0.0 0.0 0.0

580980.2883439851 3.9335477722864725e7 0.0
3.9335477722864725e7 53752.53292375969 0.0
0.0 0.0 0.0

508418.53607605275 3.8473132330788024e7 0.0
3.8473132330788024e7 13634.990640064934 0.0
0.0 0.0 0.0

227060.80150058036 3.756916678588543e7 0.0
3.756916678588543e7 -20160.73572644526 0.0
0.0 0.0 0.0

223668.5000494325 3.6697538500902854e7 0.0
3.6697538500902854e7 -31624.956136054505 0.0
0.0 0.0 0.0

143983.41298325415 3.579513117106525e7 0.0
3.579513117106525e7 -146689.11069656606 0.0
0.0 0.0 0.0

-915287.4253208844 2.9737079505421374e7 0.0
2.9737079505421374e7 -4.148911741434437e6 0.0
0.0 0.0 0.0

-2.6729616451946124e6 2.046266690001992e7 0.0
2.046266690001992e7 3.794077948706663e7 0.0
0.0 0.0 0.0

-1.8757996704981576e6 4.634459446738662e7 0.0
4.634459446738662e7 -366492.2066190158 0.0
0.0 0.0 0.0

1.4777590336301886e6 9.427863314504173e6 0.0
9.427863314504173e6 -3.0229551333452016e7 0.0
0.0 0.0 0.0

-1.3811488612676247e6 2.87351322526232e7 0.0
2.87351322526232e7 3.5140459560605967e6 0.0
0.0 0.0 0.0

-2.5104847984994357e6 4.789296056197154e7 0.0
4.789296056197154e7 -161393.3525532952 0.0
0.0 0.0 0.0

-8.06760957534988e6 1.5280560177467441e7 0.0
1.5280560177467441e7 2.7986318928304326e7 0.0
0.0 0.0 0.0

-3.4073614222719637e6 4.967443253658249e7 0.0
4.967443253658249e7 -228580.97284509218 0.0
0.0 0.0 0.0

-8.618189605392069e6 1.3467797925535386e7 0.0
1.3467797925535386e7 3.201206791183232e7 0.0
0.0 0.0 0.0

-4.518806033102586e6 5.1661518150413185e7 0.0
5.1661518150413185e7 -350479.12743972405 0.0
0.0 0.0 0.0

952271.9739030031 2.3460035122493174e7 0.0
2.3460035122493174e7 -1.9951013668580323e7 0.0
0.0 0.0 0.0

1.7967365250796825e6 1.3143443966344304e7 0.0
1.3143443966344304e7 -2.3825268674261127e7 0.0
0.0 0.0 0.0

-2.7633593060270194e6 1.6862212145521034e7 0.0
1.6862212145521034e7 -4.701697816705186e7 0.0
0.0 0.0 0.0

-1.0228271402791747e6 2.5935052047588095e7 0.0
2.5935052047588095e7 -1.4913784557422714e6 0.0
0.0 0.0 0.0

-1.2194273326213746e6 1.9715166121648766e7 0.0
1.9715166121648766e7 -1.1166096805611366e7 0.0
0.0 0.0 0.0

-627368.4324506151 2.8127247962914743e7 0.0
2.8127247962914743e7 -6.894495306323506e6 0.0
0.0 0.0 0.0

940559.1189523907 2.372799406267375e7 0.0
2.372799406267375e7 -1.9950494741577975e7 0.0
0.0 0.0 0.0

2.2834882428601533e6 1.6307363905119305e6 0.0
1.6307363905119305e6 -3.8182083600645036e7 0.0
0.0 0.0 0.0

-2.6612525116012334e6 1.6231062443420991e7 0.0
1.6231062443420991e7 8.640912524966206e6 0.0
0.0 0.0 0.0

-5.70049532463919e6 5.4132571236067265e7 0.0
5.4132571236067265e7 55706.1561852505 0.0
0.0 0.0 0.0

1.5669157811742024e6 1.4261105816879751e7 0.0
1.4261105816879751e7 -1.9740437407978732e7 0.0
0.0 0.0 0.0

-8.149808961566607e6 1.3631006630058207e7 0.0
1.3631006630058207e7 3.575410215541058e7 0.0
0.0 0.0 0.0

-1.1246971137875381e6 2.2576852033803932e7 0.0
2.2576852033803932e7 -3.5530222639304083e6 0.0
0.0 0.0 0.0

1.7118156571274558e6 3.90987574628699e7 0.0
3.90987574628699e7 -1.7786016826416813e6 0.0
0.0 0.0 0.0

1.5458296603357252e6 8.456703269386804e6 0.0
8.456703269386804e6 -3.196001851137223e7 0.0
0.0 0.0 0.0

-1.6117802474498656e7 4.644705458166685e7 0.0
4.644705458166685e7 5.406329201015456e6 0.0
0.0 0.0 0.0

-4.12430472001719e6 1.9382401162609953e7 0.0
1.9382401162609953e7 1.4260808556683898e7 0.0
0.0 0.0 0.0

-2.0591260605540413e7 3.2974447145062145e7 0.0
3.2974447145062145e7 2.858697614918206e6 0.0
0.0 0.0 0.0

4.191610819414201e6 2.2681399816399496e7 0.0
2.2681399816399496e7 1.974061305426248e7 0.0
0.0 0.0 0.0

-8.410966552119873e6 5.7557383709549725e7 0.0
5.7557383709549725e7 351199.54657426244 0.0
0.0 0.0 0.0

454109.6641450431 1.3762478840899386e7 0.0
1.3762478840899386e7 -3.8373089529365584e7 0.0
0.0 0.0 0.0

-3.3171151050162073e6 1.917223572595137e7 0.0
1.917223572595137e7 8.679921171382714e6 0.0
0.0 0.0 0.0

1.8671280132756515e6 2.2169034163954772e7 0.0
2.2169034163954772e7 6.223760520905407e6 0.0
0.0 0.0 0.0

1.3306569562074393e6 1.0633091522540757e7 0.0
1.0633091522540757e7 -2.603671653346785e7 0.0
0.0 0.0 0.0

2.0161376290604642e6 2.554110533355353e7 0.0
2.554110533355353e7 5.633782755334756e6 0.0
0.0 0.0 0.0

1.4229375317178704e6 1.0404391768232087e7 0.0
1.0404391768232087e7 -2.8557536376314335e7 0.0
0.0 0.0 0.0

-179052.7193735605 2.0593742026959747e7 0.0
2.0593742026959747e7 -3.7080841642526984e6 0.0
0.0 0.0 0.0

-1.1137745877043665e6 2.6612499953812167e7 0.0
2.6612499953812167e7 -55552.079585103376 0.0
0.0 0.0 0.0

-1.6034426798956536e6 2.6939974053351194e7 0.0
2.6939974053351194e7 -3.580057997769718e6 0.0
0.0 0.0 0.0

1.0452839405726623e6 1.1150297338271894e7 0.0
1.1150297338271894e7 -2.075771252538605e7 0.0
0.0 0.0 0.0

3.572273895923882e7 2.8987163413384937e7 0.0
2.8987163413384937e7 1.3378463655958919e7 0.0
0.0 0.0 0.0

1.2868305620887242e6 1.5628297337037105e7 0.0
1.5628297337037105e7 -1.9178831626438607e7 0.0
0.0 0.0 0.0

-431066.1567072859 2.0060804173112877e7 0.0
2.0060804173112877e7 -8.63303628481986e6 0.0
0.0 0.0 0.0

-6.308332293274917e6 2.831265444015687e7 0.0
2.831265444015687e7 7.682486633293219e6 0.0
0.0 0.0 0.0

367791.328246464 1.424753714585579e7 0.0
1.424753714585579e7 -1.060922853435037e7 0.0
0.0 0.0 0.0

-3.887750881734114e6 2.860002948370316e7 0.0
2.860002948370316e7 1.3984202274634156e7 0.0
0.0 0.0 0.0

7.672373354680385e6 2.1011950486772887e7 0.0
2.1011950486772887e7 3.649200030486746e7 0.0
0.0 0.0 0.0

-6.611523620797431e6 1.6591549442069393e7 0.0
1.6591549442069393e7 2.3705718567894638e7 0.0
0.0 0.0 0.0

-1.241635496552859e7 6.14779257612566e7 0.0
6.14779257612566e7 -42300.96521765413 0.0
0.0 0.0 0.0

5.06951576151596e6 2.1067122591997597e7 0.0
2.1067122591997597e7 5.7935985442238815e7 0.0
0.0 0.0 0.0

-2.660012151207892e6 2.0016279108449463e7 0.0
2.0016279108449463e7 -357382.8291379089 0.0
0.0 0.0 0.0

1.6109254409427214e7 2.5678643659835964e7 0.0
2.5678643659835964e7 6.189481653792005e6 0.0
0.0 0.0 0.0

1.571309139174372e6 7.804366736021236e6 0.0
7.804366736021236e6 -3.634571362763106e7 0.0
0.0 0.0 0.0

-479242.18577781506 1.407868624894986e7 0.0
1.407868624894986e7 -4.415365749255128e7 0.0
0.0 0.0 0.0

-3.281198411370105e6 2.3061952127375573e7 0.0
2.3061952127375573e7 1.5525651327006198e7 0.0
0.0 0.0 0.0

-1.9982605758931827e7 3.1093836429891758e7 0.0
3.1093836429891758e7 -1.52164245846001e7 0.0
0.0 0.0 0.0

-1.588299742038098e6 2.2850451356755663e7 0.0
2.2850451356755663e7 2.5143115369035816e6 0.0
0.0 0.0 0.0

-217664.7191959191 2.040574566463105e7 0.0
2.040574566463105e7 -1.583262512659663e7 0.0
0.0 0.0 0.0

-2.0835036605110817e7 4.378572512351676e7 0.0
4.378572512351676e7 6.750041374887438e6 0.0
0.0 0.0 0.0

939012.3239371199 1.429354185168534e7 0.0
1.429354185168534e7 -2.5585717359294046e7 0.0
0.0 0.0 0.0

-1.5057586489549195e6 2.4162962250035577e7 0.0
2.4162962250035577e7 2.5211631536328564e6 0.0
0.0 0.0 0.0

-4.653627946637046e6 1.1653066917836213e7 0.0
1.1653066917836213e7 1.204099323591746e7 0.0
0.0 0.0 0.0

-1.9572250450545019e6 2.2703327699456766e7 0.0
2.2703327699456766e7 1.3611539862304231e7 0.0
0.0 0.0 0.0

-1.4861138114306806e6 9.565487940193471e7 0.0
9.565487940193471e7 6.134583437743733e6 0.0
0.0 0.0 0.0

-5.433135965004709e6 1.7346940832480114e7 0.0
1.7346940832480114e7 2.1907979783772312e7 0.0
0.0 0.0 0.0

-5.802656751050328e6 8.863604038364712e6 0.0
8.863604038364712e6 5.764731572528882e6 0.0
0.0 0.0 0.0

-743811.5651272126 2.8373224359759875e7 0.0
2.8373224359759875e7 -1.0962949258953615e6 0.0
0.0 0.0 0.0

-2.27777743823222e6 2.7891720223161798e7 0.0
2.7891720223161798e7 5.236922953252438e6 0.0
0.0 0.0 0.0

192035.99796384573 2.4792186188491683e7 0.0
2.4792186188491683e7 -9.486526077164125e6 0.0
0.0 0.0 0.0

-1.6859188851108975e6 2.7681265070892338e7 0.0
2.7681265070892338e7 -2.1653100045897267e6 0.0
0.0 0.0 0.0

-1.0038224392761994e7 4.461238535497385e6 0.0
4.461238535497385e6 2.1238937537606657e7 0.0
0.0 0.0 0.0

-32589.322737298906 2.3401413816626664e7 0.0
2.3401413816626664e7 -4.923395580541711e6 0.0
0.0 0.0 0.0

-2.4416908169730175e6 2.9013928378456116e7 0.0
2.9013928378456116e7 5.220962707681007e6 0.0
0.0 0.0 0.0

434803.8514314797 1.2906228641810106e7 0.0
1.2906228641810106e7 -1.7661248252925947e7 0.0
0.0 0.0 0.0

1.2003993431333583e6 2.3972323923590433e7 0.0
2.3972323923590433e7 -3.4047018472779384e6 0.0
0.0 0.0 0.0

-2.4190153970161803e7 3.1546732870744675e7 0.0
3.1546732870744675e7 -59556.27736298926 0.0
0.0 0.0 0.0

-4.1531737169502378e6 1.809202461737331e7 0.0
1.809202461737331e7 1.980307187654538e7 0.0
0.0 0.0 0.0

751692.1014125627 2.2693135917909317e7 0.0
2.2693135917909317e7 -2.1613464450964987e7 0.0
0.0 0.0 0.0

-2.863915630668068e6 2.9462678008219477e7 0.0
2.9462678008219477e7 7.667948610428912e6 0.0
0.0 0.0 0.0

2.949634049664679e6 2.2329174896825007e6 0.0
2.2329174896825007e6 -1.956312544970007e7 0.0
0.0 0.0 0.0

-6.695597648808052e6 -4.258318880144685e6 0.0
-4.258318880144685e6 1.2968826321022246e7 0.0
0.0 0.0 0.0

-5.10835880152463e6 -3.7136422777530244e6 0.0
-3.7136422777530244e6 9.688168342977444e6 0.0
0.0 0.0 0.0

-7.504263177037951e6 -2.0589217519576412e6 0.0
-2.0589217519576412e6 3.6850093680888735e7 0.0
0.0 0.0 0.0

-3.853392597893579e6 -1.8327869958547915e6 0.0
-1.8327869958547915e6 4.896826187901402e6 0.0
0.0 0.0 0.0

-7.633693275220906e6 -2.314982481311373e6 0.0
-2.314982481311373e6 3.388192866268196e7 0.0
0.0 0.0 0.0

3.1696977469323296e6 2.4455711397401607e6 0.0
2.4455711397401607e6 -1.4636221571667561e7 0.0
0.0 0.0 0.0

-7.5089641836028565e6 -4.080583272228515e6 0.0
-4.080583272228515e6 2.0120437992372528e7 0.0
0.0 0.0 0.0

-8.132571286893725e6 -3.238134453939127e6 0.0
-3.238134453939127e6 2.6002688360236503e7 0.0
0.0 0.0 0.0

-1.6717427287895123e6 601078.8531304024 0.0
601078.8531304024 918113.3162860824 0.0
0.0 0.0 0.0

-7.863918819632035e6 -2.5693161736139413e6 0.0
-2.5693161736139413e6 3.0842786794846937e7 0.0
0.0 0.0 0.0

2.6275461460907394e6 2.6491209626252e6 0.0
2.6491209626252e6 -9.590102205679234e6 0.0
0.0 0.0 0.0

1.3522297319037388e6 2.480039333425089e6 0.0
2.480039333425089e6 -4.574518596904752e6 0.0
0.0 0.0 0.0

-6.802067339777306e6 -4.390642977250051e6 0.0
-4.390642977250051e6 1.5329845972035913e7 0.0
0.0 0.0 0.0

2.497315794787299e6 1.6802961093770328e6 0.0
1.6802961093770328e6 -3.4129682705247834e7 0.0
0.0 0.0 0.0

2.473113034286462e6 1.6053875352587004e6 0.0
1.6053875352587004e6 -3.718142519658134e7 0.0
0.0 0.0 0.0

2.655689505956592e6 1.6951326729412847e6 0.0
1.6951326729412847e6 -3.1007105127248812e7 0.0
0.0 0.0 0.0

3.1060287397481166e6 1.9851565905509102e6 0.0
1.9851565905509102e6 -2.6202435252933558e7 0.0
0.0 0.0 0.0

-7.715112356359355e6 -4.2448682368149115e6 0.0
-4.2448682368149115e6 1.821556485087898e7 0.0
0.0 0.0 0.0

-7.612732700044656e6 -2.428669974701884e6 0.0
-2.428669974701884e6 3.224755537098552e7 0.0
0.0 0.0 0.0

2.4768001075060014e6 1.6967934968256871e6 0.0
1.6967934968256871e6 -3.579582849644145e7 0.0
0.0 0.0 0.0

2.834848643578047e6 2.123293275487871e6 0.0
2.123293275487871e6 -2.2931539386487547e7 0.0
0.0 0.0 0.0

2.950612405030228e6 2.0837102382255497e6 0.0
2.0837102382255497e6 -2.453749928166538e7 0.0
0.0 0.0 0.0

3.0904286327463677e6 2.1493045040499475e6 0.0
2.1493045040499475e6 -2.1334543046090838e7 0.0
0.0 0.0 0.0

1.1904005452229679e6 2.0626007180081934e7 0.0
2.0626007180081934e7 -1.9314732945261583e7 0.0
0.0 0.0 0.0

-7.324703970195757e6 1.629191762198188e7 0.0
1.629191762198188e7 2.6495202951079242e7 0.0
0.0 0.0 0.0

-9.255391171451366e6 1.0763156440168416e7 0.0
1.0763156440168416e7 3.574685295349503e7 0.0
0.0 0.0 0.0

-4.1006687048543533e6 2.96221638959366e7 0.0
2.96221638959366e7 1.245444321713258e7 0.0
0.0 0.0 0.0

-2.25059473905206e6 2.0463169978224415e7 0.0
2.0463169978224415e7 -3.1891988430094667e7 0.0
0.0 0.0 0.0

-2.444270172092169e6 2.417713868695344e7 0.0
2.417713868695344e7 5.729988557480261e6 0.0
0.0 0.0 0.0

-1.8815319203573894e7 6.717529147410284e7 0.0
6.717529147410284e7 -360495.0389131401 0.0
0.0 0.0 0.0

-2.517618877992185e6 2.142045442370042e7 0.0
2.142045442370042e7 -229740.5222420832 0.0
0.0 0.0 0.0

-6.603057500294812e6 2.483069210741664e7 0.0
2.483069210741664e7 -1.93869965216695e7 0.0
0.0 0.0 0.0

1.4941869552031646e7 2.8203487440450598e7 0.0
2.8203487440450598e7 1.5897343941262176e7 0.0
0.0 0.0 0.0

-2.8806581923943628e6 2.5739106976227537e7 0.0
2.5739106976227537e7 1.0725605243567422e7 0.0
0.0 0.0 0.0

-1.8777378835056834e6 2.401420569712075e7 0.0
2.401420569712075e7 1.295457423636281e7 0.0
0.0 0.0 0.0

1.7452170655018026e6 2.6088594702883523e7 0.0
2.6088594702883523e7 -1.513974677376724e7 0.0
0.0 0.0 0.0

-2.2637766442559864e6 2.177697002410517e7 0.0
2.177697002410517e7 1.5727700386690728e7 0.0
0.0 0.0 0.0

-1.7238297328094807e6 2.8401022064751748e7 0.0
2.8401022064751748e7 -902106.7355362441 0.0
0.0 0.0 0.0

-1.5031734462564772e6 2.6165835908362694e7 0.0
2.6165835908362694e7 -5.035134366460188e6 0.0
0.0 0.0 0.0

-4.941705575260915e6 1.7899174087332062e7 0.0
1.7899174087332062e7 1.504315665837711e7 0.0
0.0 0.0 0.0

-903255.9063016111 1.888005509606656e7 0.0
1.888005509606656e7 -1.2848967359583767e7 0.0
0.0 0.0 0.0

-1.6857007760223674e6 2.2170250160900448e7 0.0
2.2170250160900448e7 4.111751721480602e6 0.0
0.0 0.0 0.0

763637.9654205553 1.2039407273744924e7 0.0
1.2039407273744924e7 -1.91870393190426e7 0.0
0.0 0.0 0.0

-6.693020594055078e6 -4.331814979931076e6 0.0
-4.331814979931076e6 1.5034803924474461e7 0.0
0.0 0.0 0.0

-5.773494996447842e6 -3.7167992412338546e6 0.0
-3.7167992412338546e6 1.2890470121561402e7 0.0
0.0 0.0 0.0

-7.815900973917797e6 -2.6042115859342045e6 0.0
-2.6042115859342045e6 3.0550463843853433e7 0.0
0.0 0.0 0.0

-7.364646528125082e6 -4.097107485710418e6 0.0
-4.097107485710418e6 1.7300606041419894e7 0.0
0.0 0.0 0.0

-7.729508645931168e6 -4.267766136094041e6 0.0
-4.267766136094041e6 1.88311039781581e7 0.0
0.0 0.0 0.0

2.411185253102096e6 1.6257765106242541e6 0.0
1.6257765106242541e6 -3.432319404687016e7 0.0
0.0 0.0 0.0

2.3356947015796695e6 1.5856696009814942e6 0.0
1.5856696009814942e6 -3.558597978237599e7 0.0
0.0 0.0 0.0

-7.627535214633044e6 -2.423361135304682e6 0.0
-2.423361135304682e6 3.239391244747372e7 0.0
0.0 0.0 0.0

2.826849585641265e6 2.0200439896257906e6 0.0
2.0200439896257906e6 -2.5187741256370623e7 0.0
0.0 0.0 0.0

3.0784717267470965e6 2.2718860520143486e6 0.0
2.2718860520143486e6 -1.9950246936880436e7 0.0
0.0 0.0 0.0

2.9222621503491458e6 2.156534345442312e6 0.0
2.156534345442312e6 -2.300544435177086e7 0.0
0.0 0.0 0.0

3.0299737298556883e6 2.1106521113885385e6 0.0
2.1106521113885385e6 -2.143327437717143e7 0.0
0.0 0.0 0.0

-2.7834913605274353e6 2.008582885991915e7 0.0
2.008582885991915e7 3.0717457352509284e6 0.0
0.0 0.0 0.0

-2.7600074863640107e6 2.1035311286223203e7 0.0
2.1035311286223203e7 3.5461412812801234e7 0.0
0.0 0.0 0.0

-2.9542448241523085e6 2.1337187612501666e7 0.0
2.1337187612501666e7 1.9216174930370472e7 0.0
0.0 0.0 0.0

2.6538326489227694e6 6.3026462472346425e6 0.0
6.3026462472346425e6 -2.968120321366129e7 0.0
0.0 0.0 0.0

797355.4121665556 3.192076434500741e7 0.0
3.192076434500741e7 -5.954562029502139e6 0.0
0.0 0.0 0.0

1.1789988766626474e6 2.3787792050117806e7 0.0
2.3787792050117806e7 2.7845147644094825e7 0.0
0.0 0.0 0.0

-7.267335752747854e6 1.797839128570972e7 0.0
1.797839128570972e7 2.9083532426155347e7 0.0
0.0 0.0 0.0

1.1859258691926943e6 1.1553472376935795e7 0.0
1.1553472376935795e7 -2.439947836901436e7 0.0
0.0 0.0 0.0

947854.568486629 1.487280287594539e7 0.0
1.487280287594539e7 -2.628980641161212e7 0.0
0.0 0.0 0.0

-1.6641992574970808e6 2.4915147723521534e7 0.0
2.4915147723521534e7 -5.3612443033320205e6 0.0
0.0 0.0 0.0

471509.003501134 2.3218048209380727e7 0.0
2.3218048209380727e7 3.117948658784565e7 0.0
0.0 0.0 0.0

-3.0660489368757964e6 1.4628118929405823e7 0.0
1.4628118929405823e7 8.990110056269415e6 0.0
0.0 0.0 0.0

81129.97700233664 2.5651169526731525e7 0.0
2.5651169526731525e7 -7.994037191557723e6 0.0
0.0 0.0 0.0

-685027.0058122423 3.1313193765004802e7 0.0
3.1313193765004802e7 394367.55173253076 0.0
0.0 0.0 0.0

989249.5551523017 1.6936116907648873e7 0.0
1.6936116907648873e7 -1.8826135632842932e7 0.0
0.0 0.0 0.0

-899147.0123543702 2.7158636922322456e7 0.0
2.7158636922322456e7 -1.2860741458128404e6 0.0
0.0 0.0 0.0

3.967228336385477e6 5.364739676530586e6 0.0
5.364739676530586e6 462468.26831754635 0.0
0.0 0.0 0.0

-132597.86286567524 2.3663364158471428e7 0.0
2.3663364158471428e7 2.8989754841224715e7 0.0
0.0 0.0 0.0

-469832.99247316644 1.262209402057951e7 0.0
1.262209402057951e7 -5.2895076941440426e7 0.0
0.0 0.0 0.0

59786.71861908957 1.3838065883996166e7 0.0
1.3838065883996166e7 -4.12388975613819e7 0.0
0.0 0.0 0.0

-75994.74953600578 2.440754916956325e7 0.0
2.440754916956325e7 -8.443788258734478e6 0.0
0.0 0.0 0.0

-1.2010724518448835e7 3.028958824045713e7 0.0
3.028958824045713e7 5.286760877566058e6 0.0
0.0 0.0 0.0

2.465454312552885e6 7.327422148172269e6 0.0
7.327422148172269e6 -1.4899893117158541e7 0.0
0.0 0.0 0.0

-1.689225193307523e6 2.1511586828758094e7 0.0
2.1511586828758094e7 2.5150284844804946e6 0.0
0.0 0.0 0.0

-1.829971739208464e6 2.6448741768848028e7 0.0
2.6448741768848028e7 -2.3797614489707863e6 0.0
0.0 0.0 0.0

-624968.8247203286 2.7655027337220453e7 0.0
2.7655027337220453e7 -2.4744538737653433e6 0.0
0.0 0.0 0.0

-2.7820930913069528e6 2.048886502583928e7 0.0
2.048886502583928e7 -3.5180204673066996e7 0.0
0.0 0.0 0.0

692024.0236539841 1.4547871848853031e7 0.0
1.4547871848853031e7 -3.375624117852915e7 0.0
0.0 0.0 0.0

-4.211811008747297e6 1.5479203118139429e7 0.0
1.5479203118139429e7 7.494631067591329e6 0.0
0.0 0.0 0.0

-3.179622144705124e6 2.2634465805908944e7 0.0
2.2634465805908944e7 1.422084144546108e7 0.0
0.0 0.0 0.0

-722665.1824013088 1.836832052662725e7 0.0
1.836832052662725e7 -3.588405301805152e7 0.0
0.0 0.0 0.0

387878.42065138556 2.884995317857426e7 0.0
2.884995317857426e7 -5.7717498457695125e6 0.0
0.0 0.0 0.0

1.9386021869148943e6 2.5407288083515367e6 0.0
2.5407288083515367e6 -6.308676929041637e6 0.0
0.0 0.0 0.0

1.0031109175339086e7 4.2497894529732116e7 0.0
4.2497894529732116e7 -4.236900980937231e6 0.0
0.0 0.0 0.0

2.113930244303384e6 8.382579791342228e6 0.0
8.382579791342228e6 -1.3505956694809552e7 0.0
0.0 0.0 0.0

-1.1125196925777476e6 1.833953781977579e7 0.0
1.833953781977579e7 -4.503676259531285e6 0.0
0.0 0.0 0.0

-3.2507733077089107e6 2.612484483081451e7 0.0
2.612484483081451e7 1.5832623254544578e7 0.0
0.0 0.0 0.0

-2.0671066288067834e6 1.7906866144140143e7 0.0
1.7906866144140143e7 4.399306684443005e6 0.0
0.0 0.0 0.0

-2.495444255190408e6 2.0624227157007214e7 0.0
2.0624227157007214e7 -1.9294651740539493e6 0.0
0.0 0.0 0.0

-1.8945467336015154e6 2.7135583650199197e7 0.0
2.7135583650199197e7 -975217.4161913681 0.0
0.0 0.0 0.0

-4.930817249344285e6 1.3823962437411964e7 0.0
1.3823962437411964e7 7.753698200290199e6 0.0
0.0 0.0 0.0

-9.628356397659793e6 2.057786729983597e6 0.0
2.057786729983597e6 2.0308403980454285e7 0.0
0.0 0.0 0.0

-2.1442977892655805e6 2.133061870771963e7 0.0
2.133061870771963e7 1.4315088595935818e7 0.0
0.0 0.0 0.0

-1.6476525303554577e6 2.4001201866503205e7 0.0
2.4001201866503205e7 8.405964645326417e6 0.0
0.0 0.0 0.0

-267317.0142039163 8.402105976439998e6 0.0
8.402105976439998e6 -8.381319241124259e6 0.0
0.0 0.0 0.0

-3.2216200469668917e6 1.9001015621230062e7 0.0
1.9001015621230062e7 1.7420927395285334e7 0.0
0.0 0.0 0.0

-1.4334963919013494e6 2.8168434952569842e7 0.0
2.8168434952569842e7 -3.3441432819279204e6 0.0
0.0 0.0 0.0

1.9184039677366596e6 1.0819415683449786e7 0.0
1.0819415683449786e7 -3.588360577316939e7 0.0
0.0 0.0 0.0

-1.1062560356957505e7 3.0615567888339445e7 0.0
3.0615567888339445e7 4.404753034922407e6 0.0
0.0 0.0 0.0

-1.810050049103686e6 2.362157866317091e7 0.0
2.362157866317091e7 -5.716671033844514e6 0.0
0.0 0.0 0.0

1.6442580603406224e6 2.633295160806335e6 0.0
2.633295160806335e6 -5.112831054259823e6 0.0
0.0 0.0 0.0

-4.999576757247258e6 3.2638914175314404e7 0.0
3.2638914175314404e7 8.454185984034846e6 0.0
0.0 0.0 0.0

-9.766489748504054e6 1.3492324460624332e7 0.0
1.3492324460624332e7 2.5357553024464235e7 0.0
0.0 0.0 0.0

-2.2133614218688654e6 2.258125401810798e7 0.0
2.258125401810798e7 -3.1608645867508943e6 0.0
0.0 0.0 0.0

-282175.67348628514 2.997472779004343e7 0.0
2.997472779004343e7 -2.1055504989288766e6 0.0
0.0 0.0 0.0

-1.593189825623461e6 3.075313010768459e7 0.0
3.075313010768459e7 -564372.2150257062 0.0
0.0 0.0 0.0

-1.3260178514172232e6 2.739313281004904e7 0.0
2.739313281004904e7 -4.744280163241619e6 0.0
0.0 0.0 0.0

-1.206921348990243e6 2.7230368381818254e7 0.0
2.7230368381818254e7 1.2967847240317096e6 0.0
0.0 0.0 0.0

2.8337706750599896e6 2.5689223833856843e6 0.0
2.5689223833856843e6 -1.1222546112317596e7 0.0
0.0 0.0 0.0

1.7241021352535458e6 3.463158324602864e7 0.0
3.463158324602864e7 -5.182673498424566e6 0.0
0.0 0.0 0.0

-2.1830988753068626e7 2.2064597005955383e7 0.0
2.2064597005955383e7 -9.294479835107514e7 0.0
0.0 0.0 0.0

2.1906132394932475e7 2.2999287338730574e7 0.0
2.2999287338730574e7 9.034327620498432e7 0.0
0.0 0.0 0.0

671886.8099267827 1.8540491102546565e7 0.0
1.8540491102546565e7 -2.4716410162329003e7 0.0
0.0 0.0 0.0

-115487.85780587723 2.6481160829458665e7 0.0
2.6481160829458665e7 -6.504257383051486e6 0.0
0.0 0.0 0.0

-6.394360805708154e6 2.0489741569553673e7 0.0
2.0489741569553673e7 -2.8261659521204706e7 0.0
0.0 0.0 0.0

-1.913314292228282e6 2.2292193902698528e7 0.0
2.2292193902698528e7 -6.1081525062322635e6 0.0
0.0 0.0 0.0

2.189293976527947e6 2.6289652183837704e7 0.0
2.6289652183837704e7 -1.5437151680189598e7 0.0
0.0 0.0 0.0

-1.523094215207648e6 2.0578624665190563e7 0.0
2.0578624665190563e7 -9.469723555720307e6 0.0
0.0 0.0 0.0

-1.980140155284741e6 2.660097625173572e7 0.0
2.660097625173572e7 246818.679639983 0.0
0.0 0.0 0.0

-417777.70233002305 1.1010850115591936e7 0.0
1.1010850115591936e7 -6.631754344035235e7 0.0
0.0 0.0 0.0

-1.1687015720353838e7 2.8847939823210422e7 0.0
2.8847939823210422e7 3.56316784069713e6 0.0
0.0 0.0 0.0

-2.450609531175938e6 2.6431591649848074e7 0.0
2.6431591649848074e7 8.23641792410898e6 0.0
0.0 0.0 0.0

-736437.143964197 2.0909552048367e7 0.0
2.0909552048367e7 -6.929800241259741e6 0.0
0.0 0.0 0.0

718701.954859674 1.538511585936801e7 0.0
1.538511585936801e7 -3.177077599531528e7 0.0
0.0 0.0 0.0

2.137923329339609e7 2.3995478812802386e7 0.0
2.3995478812802386e7 7.126411040374725e7 0.0
0.0 0.0 0.0

986148.9118568427 2.7125381183248464e7 0.0
2.7125381183248464e7 -1.0424963770218067e7 0.0
0.0 0.0 0.0

-3.196994788704741e7 7.614944258988753e7 0.0
7.614944258988753e7 488028.8910780959 0.0
0.0 0.0 0.0

681677.8110237848 1.7718608945573885e7 0.0
1.7718608945573885e7 -2.64103351945981e7 0.0
0.0 0.0 0.0

-513598.9208954938 2.6891956915432483e7 0.0
2.6891956915432483e7 -3.909172932331754e6 0.0
0.0 0.0 0.0

2.636434404928924e6 2.626936717793973e6 0.0
2.626936717793973e6 -1.0271949730673186e7 0.0
0.0 0.0 0.0

1.4442934748328235e6 9.359329758180346e6 0.0
9.359329758180346e6 -3.516033210024334e7 0.0
0.0 0.0 0.0

-746810.3995629093 3.0212111999501232e7 0.0
3.0212111999501232e7 313705.2778630417 0.0
0.0 0.0 0.0

-1.0431917588016406e7 2.096027959488736e7 0.0
2.096027959488736e7 -5.4086745278565794e7 0.0
0.0 0.0 0.0

-957414.3684097484 2.1756075895817585e7 0.0
2.1756075895817585e7 -5.221908656357627e6 0.0
0.0 0.0 0.0

911880.8911707113 1.4660607319783812e7 0.0
1.4660607319783812e7 -1.4682099646979073e7 0.0
0.0 0.0 0.0

-2.064386363778717e6 1.922508992505577e7 0.0
1.922508992505577e7 7.973128757220792e6 0.0
0.0 0.0 0.0

775846.0666538738 1.696061066487713e7 0.0
1.696061066487713e7 -2.819366718249831e7 0.0
0.0 0.0 0.0

-3.2764249307605196e6 1.854031856064019e7 0.0
1.854031856064019e7 6.927288735838217e6 0.0
0.0 0.0 0.0

567572.500842588 2.195205174618095e7 0.0
2.195205174618095e7 -2.331888646255312e7 0.0
0.0 0.0 0.0

-3.2603193009050503e7 3.536251898717714e7 0.0
3.536251898717714e7 -1.6162106346192222e7 0.0
0.0 0.0 0.0

-7.975187127829411e6 -3.7955910537907933e6 0.0
-3.7955910537907933e6 2.2301107943053138e7 0.0
0.0 0.0 0.0

-2.387288094010292e6 1.8896255706558842e7 0.0
1.8896255706558842e7 1.1866016124352762e7 0.0
0.0 0.0 0.0

-992157.1877007439 2.7822155853689726e7 0.0
2.7822155853689726e7 115128.24508562806 0.0
0.0 0.0 0.0

-5.495027384364363e6 3.099645852111639e6 0.0
3.099645852111639e6 6.093990600013551e7 0.0
0.0 0.0 0.0

2.0509169514554199e6 2.3983780385394517e7 0.0
2.3983780385394517e7 1.8467927735374857e7 0.0
0.0 0.0 0.0

-1.7511439712780598e6 2.1434447039553005e7 0.0
2.1434447039553005e7 -7.789175340577389e6 0.0
0.0 0.0 0.0

1.7397065304419724e6 2.615121510653024e7 0.0
2.615121510653024e7 -1.4223903932220533e7 0.0
0.0 0.0 0.0

-583744.3454289837 2.314791675448783e7 0.0
2.314791675448783e7 -1.21916304419159e7 0.0
0.0 0.0 0.0

-1.6373152006357252e6 1.7198504647440873e7 0.0
1.7198504647440873e7 -9.088855740971448e6 0.0
0.0 0.0 0.0

-1.1029941830300207e6 2.5742259915025473e7 0.0
2.5742259915025473e7 -7.661849056454932e6 0.0
0.0 0.0 0.0

-2.5277617519565597e6 2.2587704179593835e7 0.0
2.2587704179593835e7 1.8269816988111444e7 0.0
0.0 0.0 0.0

-1.571627199027762e6 2.3482701887717634e7 0.0
2.3482701887717634e7 4.0358029372713007e6 0.0
0.0 0.0 0.0

-2.38023803322932e6 2.2017437882046036e7 0.0
2.2017437882046036e7 -1.7572192772539298e6 0.0
0.0 0.0 0.0

1.3113954187277947e6 9.280984583066652e6 0.0
9.280984583066652e6 -4.581430143809988e7 0.0
0.0 0.0 0.0

-6.451905071699391e6 3.332370783304181e7 0.0
3.332370783304181e7 8.556526995012261e6 0.0
0.0 0.0 0.0

-8.069699587518229e6 2.7914437351366268e6 0.0
2.7914437351366268e6 1.555989754491065e7 0.0
0.0 0.0 0.0

-2.3921724122301303e6 2.2194038851659823e7 0.0
2.2194038851659823e7 1.7045667373954527e7 0.0
0.0 0.0 0.0

457435.3268731842 1.4886354377016792e7 0.0
1.4886354377016792e7 -1.1892352764629738e7 0.0
0.0 0.0 0.0

2.45355882167645e6 3.377120805349352e6 0.0
3.377120805349352e6 -2.7881873420274574e7 0.0
0.0 0.0 0.0

732049.4049999006 1.6126702272642402e7 0.0
1.6126702272642402e7 -3.006987759521699e7 0.0
0.0 0.0 0.0

-6.786737386631897e6 9.709225074963847e6 0.0
9.709225074963847e6 8.183567386291782e6 0.0
0.0 0.0 0.0

-6.964754335296022e6 1.7203857321171675e7 0.0
1.7203857321171675e7 3.5803798894341215e7 0.0
0.0 0.0 0.0

-1.5574959993041353e6 2.4091102601246797e7 0.0
2.4091102601246797e7 -6.9224444765098225e6 0.0
0.0 0.0 0.0

-7.9048434609525325e6 -3.901959346868036e6 0.0
-3.901959346868036e6 2.0898206270013932e7 0.0
0.0 0.0 0.0

-3.6898564644949837e6 1.7044126333280623e7 0.0
1.7044126333280623e7 7.2102991444225805e6 0.0
0.0 0.0 0.0

1.818066265012227e6 2.7013807964129772e7 0.0
2.7013807964129772e7 -1.271172796407289e7 0.0
0.0 0.0 0.0

-3.6501718681948325e6 2.3012409179633223e7 0.0
2.3012409179633223e7 -2.4892047273254123e7 0.0
0.0 0.0 0.0

534308.8197842184 1.4813795942212384e7 0.0
1.4813795942212384e7 -2.0669022478578012e7 0.0
0.0 0.0 0.0

-1.0787439639743934e6 1.159314009619364e7 0.0
1.159314009619364e7 -7.908994292784762e6 0.0
0.0 0.0 0.0

-908827.028789254 2.3100797059799563e7 0.0
2.3100797059799563e7 -4.854942911487855e6 0.0
0.0 0.0 0.0

-404935.7377226278 2.2102444258012395e7 0.0
2.2102444258012395e7 3.390799074562338e7 0.0
0.0 0.0 0.0

-1.320626189796025e6 3.1134291508656792e7 0.0
3.1134291508656792e7 -1.6530448476288086e6 0.0
0.0 0.0 0.0

-4.167241091364026e6 2.3206276518380817e7 0.0
2.3206276518380817e7 2.4705749612550315e7 0.0
0.0 0.0 0.0

-2.1735218769063093e6 2.5978157113039542e7 0.0
2.5978157113039542e7 1.4486003558591053e7 0.0
0.0 0.0 0.0

-381061.07334927376 1.3197338964101227e7 0.0
1.3197338964101227e7 -1.1924859825201005e7 0.0
0.0 0.0 0.0

-2.3331705586009873e6 1.7756857180550277e7 0.0
1.7756857180550277e7 8.300150685579619e6 0.0
0.0 0.0 0.0

1.331532851888612e6 2.360747875789505e7 0.0
2.360747875789505e7 1.8500314910255466e7 0.0
0.0 0.0 0.0

-1.952954056181256e6 1.809028239011902e7 0.0
1.809028239011902e7 -7.282271931728353e6 0.0
0.0 0.0 0.0

-605029.0215136241 1.8763227773254417e7 0.0
1.8763227773254417e7 -3.3079534362088777e7 0.0
0.0 0.0 0.0

-813711.9927702363 2.4400539267200146e7 0.0
2.4400539267200146e7 -4.506954283277865e6 0.0
0.0 0.0 0.0

611903.3152066618 1.9323590403270785e7 0.0
1.9323590403270785e7 -2.306394835073344e7 0.0
0.0 0.0 0.0

-1.9136671438310528e6 2.0043069057740867e7 0.0
2.0043069057740867e7 5.998757096585092e6 0.0
0.0 0.0 0.0

-1.1487010627048006e7 1.9882550263218407e7 0.0
1.9882550263218407e7 -4.047427808354164e7 0.0
0.0 0.0 0.0

-677969.9459106484 2.5662713126838643e7 0.0
2.5662713126838643e7 -4.19983850653123e6 0.0
0.0 0.0 0.0

9.76026373110284e6 2.5972189240307827e7 0.0
2.5972189240307827e7 677542.9928962216 0.0
0.0 0.0 0.0

-5.536257578603432e6 5.475140733364043e6 0.0
5.475140733364043e6 5.963802772836744e7 0.0
0.0 0.0 0.0

-1.0938805633699754e7 4.57761482094908e7 0.0
4.57761482094908e7 4.940492692407936e6 0.0
0.0 0.0 0.0

-3.068868353553541e6 2.6316727339409906e7 0.0
2.6316727339409906e7 1.265883007160021e7 0.0
0.0 0.0 0.0

-4.652849152854139e6 1.8004642523315318e7 0.0
1.8004642523315318e7 3.975976420081035e7 0.0
0.0 0.0 0.0

-3.5245633723422806e6 2.9656549641544584e7 0.0
2.9656549641544584e7 1.147084348956869e7 0.0
0.0 0.0 0.0

-1.7971295087888013e6 2.0120547824213684e7 0.0
2.0120547824213684e7 2.4996782922940725e6 0.0
0.0 0.0 0.0

-503945.4625331531 2.141003735992787e7 0.0
2.141003735992787e7 -8.165157548868177e6 0.0
0.0 0.0 0.0

-650867.0321805219 2.357631347725408e7 0.0
2.357631347725408e7 -6.08523948744828e6 0.0
0.0 0.0 0.0

-1.6580230578888948e6 1.3078919198912999e7 0.0
1.3078919198912999e7 495836.09132514766 0.0
0.0 0.0 0.0

1.8955804620859185e6 2.792257917425603e7 0.0
2.792257917425603e7 -1.1329755945242947e7 0.0
0.0 0.0 0.0

1.7551447711669207e6 7.311013636237668e6 0.0
7.311013636237668e6 -2.722363736087833e7 0.0
0.0 0.0 0.0

982390.3437438104 7.527174675729504e6 0.0
7.527174675729504e6 -1.2262354453196254e7 0.0
0.0 0.0 0.0

-2.488411872554902e6 2.530831746623205e7 0.0
2.530831746623205e7 1.7379179366062928e7 0.0
0.0 0.0 0.0

-1.0716351211740032e6 3.046226338281782e7 0.0
3.046226338281782e7 -2.924922483058536e6 0.0
0.0 0.0 0.0

8.61815820750214e6 2.6429362425932035e7 0.0
2.6429362425932035e7 -2.0909549050372588e6 0.0
0.0 0.0 0.0

-1.5447771260298407e7 3.2644545246165466e7 0.0
3.2644545246165466e7 4.6666215886743115e6 0.0
0.0 0.0 0.0

1.5585691927778702e6 7.132320058646491e6 0.0
7.132320058646491e6 -1.7869100584636495e7 0.0
0.0 0.0 0.0

-2.2384263022050634e6 1.8942598151539672e7 0.0
1.8942598151539672e7 -5.494618054758694e6 0.0
0.0 0.0 0.0

6.338308976674872e7 2.1090260252410218e7 0.0
2.1090260252410218e7 4.402996166614965e6 0.0
0.0 0.0 0.0

-776307.5185519545 1.2016008500658354e7 0.0
1.2016008500658354e7 -9.600119691510199e6 0.0
0.0 0.0 0.0

1.5696196864118278e6 7.553526597537364e6 0.0
7.553526597537364e6 -3.3651482857537165e7 0.0
0.0 0.0 0.0

-2.8423977915508263e6 2.1562210241811216e7 0.0
2.1562210241811216e7 3.3208514394308522e7 0.0
0.0 0.0 0.0

719555.3316548187 2.0611090371592194e7 0.0
2.0611090371592194e7 -2.4662402226329878e7 0.0
0.0 0.0 0.0

-7.730151659935603e6 1.496919555855155e7 0.0
1.496919555855155e7 2.4244020729998603e7 0.0
0.0 0.0 0.0

-1.7302570087689653e7 4.341895117426121e7 0.0
4.341895117426121e7 5.698379276287676e6 0.0
0.0 0.0 0.0

-2.8869804701306447e6 2.207854853709758e7 0.0
2.207854853709758e7 3.113146374092376e7 0.0
0.0 0.0 0.0

-4.37954134861906e6 3.0632465841000244e7 0.0
3.0632465841000244e7 1.0994432295842387e7 0.0
0.0 0.0 0.0

-2.7832037195931084e7 3.261207037993649e7 0.0
3.261207037993649e7 -1.5392758540146269e7 0.0
0.0 0.0 0.0

-2.4920788523634993e6 2.2149417119963456e7 0.0
2.2149417119963456e7 1.4219543443139237e6 0.0
0.0 0.0 0.0

5.897633483084929e7 7.728274962086468e6 0.0
7.728274962086468e6 109876.9970042631 0.0
0.0 0.0 0.0

308086.11743338546 2.4069245863707025e7 0.0
2.4069245863707025e7 -1.1011030332281891e7 0.0
0.0 0.0 0.0

-1.924151293184845e6 2.0623749374463376e7 0.0
2.0623749374463376e7 -804014.4201241954 0.0
0.0 0.0 0.0

1.9189432968522655e6 2.8799943219514135e7 0.0
2.8799943219514135e7 -9.906794140443321e6 0.0
0.0 0.0 0.0

-1.8706951219432153e7 2.8126434294764657e7 0.0
2.8126434294764657e7 -8.096657421531264e6 0.0
0.0 0.0 0.0

-440393.42403520213 1.1279437081830254e7 0.0
1.1279437081830254e7 -3.372640104061596e6 0.0
0.0 0.0 0.0

-2.881513262847012e6 2.5886991506335303e7 0.0
2.5886991506335303e7 1.836287331618951e7 0.0
0.0 0.0 0.0

-5.3239818649192145e6 2.1075973061493266e7 0.0
2.1075973061493266e7 -2.6282888348458275e7 0.0
0.0 0.0 0.0

-9.348556286787057e6 8.025590904714761e6 0.0
8.025590904714761e6 3.64353595196089e7 0.0
0.0 0.0 0.0

-1.4093425049040094e6 3.0040262043200847e7 0.0
3.0040262043200847e7 -1.8487890869779126e6 0.0
0.0 0.0 0.0

-1.656106866407651e6 2.0788501988369357e7 0.0
2.0788501988369357e7 838988.1841797364 0.0
0.0 0.0 0.0

-441862.5912694904 3.066024764664724e7 0.0
3.066024764664724e7 -875725.1600194277 0.0
0.0 0.0 0.0

599811.3370629372 2.1304443873552732e7 0.0
2.1304443873552732e7 -1.4513014079585306e7 0.0
0.0 0.0 0.0

-6.715778436070793e6 1.1203516154395094e7 0.0
1.1203516154395094e7 1.635459969757887e7 0.0
0.0 0.0 0.0

-3.1160508888681107e6 3.0484759787337437e7 0.0
3.0484759787337437e7 7.456362901446395e6 0.0
0.0 0.0 0.0

-2.9082053760424396e6 2.507407807070234e7 0.0
2.507407807070234e7 2.1086002879661314e7 0.0
0.0 0.0 0.0

-2.1293246165217552e6 2.473941520454781e7 0.0
2.473941520454781e7 1.5319251146060124e7 0.0
0.0 0.0 0.0

-814683.2405295093 1.7497946805711955e7 0.0
1.7497946805711955e7 -6.315958421341111e6 0.0
0.0 0.0 0.0

482585.95021352917 1.4527869213372374e7 0.0
1.4527869213372374e7 -3.625666093748552e7 0.0
0.0 0.0 0.0

-2.2982502126862537e6 2.413115525875392e7 0.0
2.413115525875392e7 2.9100834714802513e6 0.0
0.0 0.0 0.0

680673.9245638987 2.332973137771969e7 0.0
2.332973137771969e7 -1.7771477485352356e7 0.0
0.0 0.0 0.0

-64697.585010662675 2.094782021925809e7 0.0
2.094782021925809e7 -1.6663904375261473e7 0.0
0.0 0.0 0.0

762963.2402979066 3.092189695064102e7 0.0
3.092189695064102e7 -7.253639167902586e6 0.0
0.0 0.0 0.0

-479480.3876757631 2.4417110258651968e7 0.0
2.4417110258651968e7 -1.154973129169639e7 0.0
0.0 0.0 0.0

1.0014972405184377e6 1.494987010050181e7 0.0
1.494987010050181e7 -2.8796708359388076e7 0.0
0.0 0.0 0.0

1.299188152136282e6 7.660447152673207e6 0.0
7.660447152673207e6 -7.186864919483857e6 0.0
0.0 0.0 0.0

-3.4109804772074684e6 7.5659435644014e6 0.0
7.5659435644014e6 7.913169639297953e6 0.0
0.0 0.0 0.0

2.278928354657912e6 4.1728680854038104e7 0.0
4.1728680854038104e7 -983190.9859424399 0.0
0.0 0.0 0.0

-2.436185321853641e6 2.281855543969321e7 0.0
2.281855543969321e7 2.9952119753670413e6 0.0
0.0 0.0 0.0

-816600.6121967242 2.6122953409568656e7 0.0
2.6122953409568656e7 -8.762086899939174e6 0.0
0.0 0.0 0.0

2.9061175563647095e6 4.228744798587471e6 0.0
4.228744798587471e6 -1.68809145548559e7 0.0
0.0 0.0 0.0

-5.776295526137404e6 8.05523629439631e6 0.0
8.05523629439631e6 6.035501592910639e7 0.0
0.0 0.0 0.0

1.0312265379681177e6 1.1796051991195885e7 0.0
1.1796051991195885e7 -2.1798537006892547e7 0.0
0.0 0.0 0.0

1.0079259575990353e7 3.176796173431537e7 0.0
3.176796173431537e7 -6.594192231591092e6 0.0
0.0 0.0 0.0

3.0869378328803806e6 3.307904426746759e7 0.0
3.307904426746759e7 -6.605013722374974e6 0.0
0.0 0.0 0.0

-3.1276909553824053e6 3.127010212807714e7 0.0
3.127010212807714e7 6.211483825337876e6 0.0
0.0 0.0 0.0

1.8648406755076516e6 3.547790055141613e6 0.0
3.547790055141613e6 -4.0107268826683216e7 0.0
0.0 0.0 0.0

-191113.70772407227 2.7316409111003872e7 0.0
2.7316409111003872e7 -5.047027391347881e6 0.0
0.0 0.0 0.0

688957.4847490676 2.910785861617119e7 0.0
2.910785861617119e7 -6.820014975320022e6 0.0
0.0 0.0 0.0

1.3409628245588653e6 8.60284324675719e6 0.0
8.60284324675719e6 -3.708395726457847e7 0.0
0.0 0.0 0.0

215461.895014534 3.3396586057540942e7 0.0
3.3396586057540942e7 -3.874935166725087e6 0.0
0.0 0.0 0.0

4.943157200012412e6 2.7098517043644216e7 0.0
2.7098517043644216e7 -9.247042989234474e6 0.0
0.0 0.0 0.0

-1.216157902883627e6 2.658413083219327e7 0.0
2.658413083219327e7 -6.184311997021178e6 0.0
0.0 0.0 0.0

-1.79407747790882e6 1.967597858605475e7 0.0
1.967597858605475e7 -3.5801834876349516e7 0.0
0.0 0.0 0.0

1.2444511399253504e6 8.178061889131884e6 0.0
8.178061889131884e6 -1.6317752919405596e7 0.0
0.0 0.0 0.0

156740.21598164085 1.4401469546077924e7 0.0
1.4401469546077924e7 -1.7205575353533924e7 0.0
0.0 0.0 0.0

368554.11505754245 2.7370792665586866e7 0.0
2.7370792665586866e7 -9.711419590736248e6 0.0
0.0 0.0 0.0

3.9011282163323094e6 2.692184339213494e7 0.0
2.692184339213494e7 -1.1355179310229583e7 0.0
0.0 0.0 0.0

-598561.6189161609 2.5188319369823027e7 0.0
2.5188319369823027e7 -1.0141591192368483e7 0.0
0.0 0.0 0.0

2.2543863514301553e6 9.032012360743202e6 0.0
9.032012360743202e6 -1.7415876575547703e7 0.0
0.0 0.0 0.0

2.5282845826820172e6 5.029353039553131e6 0.0
5.029353039553131e6 -3.327418079316946e7 0.0
0.0 0.0 0.0

452251.9399972027 2.0943691816149134e7 0.0
2.0943691816149134e7 -1.98202789784159e7 0.0
0.0 0.0 0.0

-204095.4563472215 1.5228497079123197e7 0.0
1.5228497079123197e7 -1.5603798882208256e7 0.0
0.0 0.0 0.0

-2.6410319758079704e6 2.0770297528830983e7 0.0
2.0770297528830983e7 1.3753601888693469e6 0.0
0.0 0.0 0.0

-1.281814006996953e7 3.3151640855376605e7 0.0
3.3151640855376605e7 6.134572260437812e6 0.0
0.0 0.0 0.0

3.9806825906864293e6 1.738003275876265e7 0.0
1.738003275876265e7 9.467892331555122e7 0.0
0.0 0.0 0.0

-9.813909058278594e6 8.707925842463484e6 0.0
8.707925842463484e6 3.3539466058062427e7 0.0
0.0 0.0 0.0

3.2019373814269914e6 3.077135594558372e7 0.0
3.077135594558372e7 -9.85370285166838e6 0.0
0.0 0.0 0.0

-2.5853768150158445e6 2.1473953655636515e7 0.0
2.1473953655636515e7 3.037761418754946e6 0.0
0.0 0.0 0.0

-6.994336805880098e6 1.0552104255221654e7 0.0
1.0552104255221654e7 4.7382763226021685e7 0.0
0.0 0.0 0.0

2.628277099169053e6 5.063348087541892e6 0.0
5.063348087541892e6 -2.930584891292376e7 0.0
0.0 0.0 0.0

-1.634966480491644e6 2.2779233785199013e7 0.0
2.2779233785199013e7 5.675554363043047e6 0.0
0.0 0.0 0.0

283627.92118488625 2.0093446553500045e7 0.0
2.0093446553500045e7 -2.6988788194340624e7 0.0
0.0 0.0 0.0

1.9347874531446248e6 2.977741751710842e7 0.0
2.977741751710842e7 -8.680157366800783e6 0.0
0.0 0.0 0.0

183319.29443745548 2.7668925184657305e7 0.0
2.7668925184657305e7 -6.139491387255172e6 0.0
0.0 0.0 0.0

-3.368794926811492e6 1.975597939814729e7 0.0
1.975597939814729e7 1.033953002346009e7 0.0
0.0 0.0 0.0

-1.33375721551335e6 2.200460313473301e7 0.0
2.200460313473301e7 -2.1744940080043664e6 0.0
0.0 0.0 0.0

-8.229250941105707e6 1.3133462321853984e7 0.0
1.3133462321853984e7 1.611328685735402e7 0.0
0.0 0.0 0.0

-6.000170366028049e7 3.2931904190737173e7 0.0
3.2931904190737173e7 136330.93063042313 0.0
0.0 0.0 0.0

7.521114246798554e6 2.6676140693972863e7 0.0
2.6676140693972863e7 1.44611064512847e7 0.0
0.0 0.0 0.0

-2.6516106364097903e6 2.736193957307444e7 0.0
2.736193957307444e7 1.4575045139297012e7 0.0
0.0 0.0 0.0

-943338.8333620534 3.299472373721292e7 0.0
3.299472373721292e7 1.5425770512627529e6 0.0
0.0 0.0 0.0

1.257472852532044e6 1.1315435939450392e7 0.0
1.1315435939450392e7 -2.6984504751202807e7 0.0
0.0 0.0 0.0

1.4977433589287475e6 9.167424694662547e6 0.0
9.167424694662547e6 -3.291101973945169e7 0.0
0.0 0.0 0.0

1.4873685591250826e6 1.1606565198659118e7 0.0
1.1606565198659118e7 -3.921219446737995e7 0.0
0.0 0.0 0.0

-2.946626499232194e6 1.9993051364748392e7 0.0
1.9993051364748392e7 6.64108171852602e6 0.0
0.0 0.0 0.0

-7.755552862101881e6 1.6596367811035767e7 0.0
1.6596367811035767e7 3.289826836501061e7 0.0
0.0 0.0 0.0

-5.79876294927318e6 1.3978480679606922e7 0.0
1.3978480679606922e7 1.74335100141664e7 0.0
0.0 0.0 0.0

7.169922296121928e6 2.6838036391052477e7 0.0
2.6838036391052477e7 -4.593335554919941e6 0.0
0.0 0.0 0.0

-4.32672992569788e6 2.162079320843442e7 0.0
2.162079320843442e7 -2.399759565877735e7 0.0
0.0 0.0 0.0

-3.756677454835777e6 3.0757975606152866e7 0.0
3.0757975606152866e7 9.347198082148068e6 0.0
0.0 0.0 0.0

1.1054256591485297e7 4.044991491918418e7 0.0
4.044991491918418e7 -4.791837903295346e6 0.0
0.0 0.0 0.0

-1.0619027424927143e7 3.33825331276085e7 0.0
3.33825331276085e7 7.251344221640636e6 0.0
0.0 0.0 0.0

-3.104969966696387e6 2.3584418761636317e7 0.0
2.3584418761636317e7 2.5082829283678327e7 0.0
0.0 0.0 0.0

-442548.9801014103 8.07591374051756e6 0.0
8.07591374051756e6 -6.515319770545542e7 0.0
0.0 0.0 0.0

217684.86185106356 2.0195963807878286e7 0.0
2.0195963807878286e7 -1.2668051461332526e7 0.0
0.0 0.0 0.0

2.9395528579126038e6 2.5826970265466957e6 0.0
2.5826970265466957e6 -1.3536363472981341e7 0.0
0.0 0.0 0.0

1.7387085129668023e6 9.800872329439765e6 0.0
9.800872329439765e6 -4.060805626256096e7 0.0
0.0 0.0 0.0

-3.0534736615975285e6 3.203731271186987e7 0.0
3.203731271186987e7 5.025504609177293e6 0.0
0.0 0.0 0.0

-7.033364495179178e6 1.7098579521301787e7 0.0
1.7098579521301787e7 3.0708619514566764e7 0.0
0.0 0.0 0.0

-3.3060073129459377e6 2.2915259010321956e7 0.0
2.2915259010321956e7 2.7222284519804724e7 0.0
0.0 0.0 0.0

-2.9287838695858214e6 2.8337352223314956e7 0.0
2.8337352223314956e7 1.3618527215109646e7 0.0
0.0 0.0 0.0

1.8023081647200482e6 1.208054413470983e7 0.0
1.208054413470983e7 -1.9271187811976023e7 0.0
0.0 0.0 0.0

-9.696095123767078e6 2.7664374294903323e7 0.0
2.7664374294903323e7 -1.4844613844867414e7 0.0
0.0 0.0 0.0

3.0490485464006653e6 4.139342702312547e7 0.0
4.139342702312547e7 -3.0128911446259124e6 0.0
0.0 0.0 0.0

-4.435660349097668e6 3.338008032687448e7 0.0
3.338008032687448e7 6.813423311273332e6 0.0
0.0 0.0 0.0

-2.844608304027118e6 2.2619040717882756e7 0.0
2.2619040717882756e7 2.910730917050264e7 0.0
0.0 0.0 0.0

-4.846022959820068e6 8.311120989427319e7 0.0
8.311120989427319e7 -1.261791895835636e7 0.0
0.0 0.0 0.0

-7.643794261148814e6 2.670270848725268e7 0.0
2.670270848725268e7 -1.7366274509334598e7 0.0
0.0 0.0 0.0

-3.079681633931878e6 2.218503283183329e7 0.0
2.218503283183329e7 1.2816754848789904e7 0.0
0.0 0.0 0.0

-1.0783143246145312e7 5.054573676432275e6 0.0
5.054573676432275e6 1.960777440007605e7 0.0
0.0 0.0 0.0

-719661.6070784424 2.2269646907225545e7 0.0
2.2269646907225545e7 -6.494186443205781e6 0.0
0.0 0.0 0.0

-1.527882208539961e7 2.862064494355766e7 0.0
2.862064494355766e7 -8.608430753363887e6 0.0
0.0 0.0 0.0

-1.1385782590518428e7 4.356550263688452e7 0.0
4.356550263688452e7 4.461766156104149e6 0.0
0.0 0.0 0.0

297154.8759334753 2.5942616569115695e7 0.0
2.5942616569115695e7 -8.924099743454428e6 0.0
0.0 0.0 0.0

-296716.3284562775 2.8384475870119106e7 0.0
2.8384475870119106e7 -7.876126929653631e6 0.0
0.0 0.0 0.0

-9.454650457872557e6 6.280383891564972e6 0.0
6.280383891564972e6 3.0225830613736283e7 0.0
0.0 0.0 0.0

2.6193490554142557e6 6.454048623605965e6 0.0
6.454048623605965e6 -2.58661250286618e7 0.0
0.0 0.0 0.0

3.649287264684329e6 4.008051405982518e7 0.0
4.008051405982518e7 -2.211925954988659e6 0.0
0.0 0.0 0.0

-2.9896051064316817e6 2.4313715737589285e7 0.0
2.4313715737589285e7 2.3118760750198647e7 0.0
0.0 0.0 0.0

-2.0886233100270938e7 3.0410437178078737e7 0.0
3.0410437178078737e7 -5.125246441443266e6 0.0
0.0 0.0 0.0

-3.5478745994417258e6 6.954853018318895e6 0.0
6.954853018318895e6 750493.4041748387 0.0
0.0 0.0 0.0

-1.718853157082675e7 3.0351288059172176e7 0.0
3.0351288059172176e7 -1.4031782222423024e7 0.0
0.0 0.0 0.0

-882260.5878731683 2.6945094648953643e7 0.0
2.6945094648953643e7 -7.268415794211087e6 0.0
0.0 0.0 0.0

540584.8512337506 2.013885536345869e7 0.0
2.013885536345869e7 -2.141631571652353e7 0.0
0.0 0.0 0.0

-557204.4425261307 2.4850454862490024e7 0.0
2.4850454862490024e7 -5.719724720295577e6 0.0
0.0 0.0 0.0

1.0037233445639247e6 1.2438466372229328e7 0.0
1.2438466372229328e7 -2.280700105881601e7 0.0
0.0 0.0 0.0

-1.247715403611435e6 2.6042941194285326e7 0.0
2.6042941194285326e7 1.2398236873610835e6 0.0
0.0 0.0 0.0

-1.0839163021785319e7 7.4926331751428945e6 0.0
7.4926331751428945e6 1.8883128801879596e7 0.0
0.0 0.0 0.0

-6.424644772744287e6 1.7153848747797992e7 0.0
1.7153848747797992e7 2.488778228356999e7 0.0
0.0 0.0 0.0

-2.440582185687853e6 1.9434589374440607e7 0.0
1.9434589374440607e7 1.350206844168685e7 0.0
0.0 0.0 0.0

-7.466586952346429e6 2.120049874829129e7 0.0
2.120049874829129e7 -2.348717087202782e7 0.0
0.0 0.0 0.0

-2.05457983704717e6 1.9793083559941337e7 0.0
1.9793083559941337e7 9.654115902823541e6 0.0
0.0 0.0 0.0

-4.788346149155372e7 3.699720495565116e7 0.0
3.699720495565116e7 -1.079866836503203e7 0.0
0.0 0.0 0.0

-2.552403702750723e6 2.2131519802918077e7 0.0
2.2131519802918077e7 4.602871647204462e6 0.0
0.0 0.0 0.0

-2.985334345128582e6 2.474844840384322e7 0.0
2.474844840384322e7 -4.51348568776469e6 0.0
0.0 0.0 0.0

-6.752321018548985e7 3.2027235614766788e7 0.0
3.2027235614766788e7 -1.9840900682067424e6 0.0
0.0 0.0 0.0

5.956249983957572e6 2.7154571061170224e7 0.0
2.7154571061170224e7 -7.154357825741591e6 0.0
0.0 0.0 0.0

-1.7954080863782445e6 2.0808090261107445e7 0.0
2.0808090261107445e7 4.1925970528982207e6 0.0
0.0 0.0 0.0

1.2293049610693976e6 1.3797580664214248e7 0.0
1.3797580664214248e7 -1.6227756572268425e7 0.0
0.0 0.0 0.0

-1.326874217208161e6 3.3521129379230384e7 0.0
3.3521129379230384e7 2.5870037843517708e6 0.0
0.0 0.0 0.0

813625.8261939166 1.4519338757400567e7 0.0
1.4519338757400567e7 -2.3130745127873715e7 0.0
0.0 0.0 0.0

783811.4993142262 1.5722169543460531e7 0.0
1.5722169543460531e7 -2.4858588731108263e7 0.0
0.0 0.0 0.0

-7.821892670846529e6 1.1506850011420827e7 0.0
1.1506850011420827e7 1.2523291358356677e7 0.0
0.0 0.0 0.0

-2.855105232378564e6 2.5215571109849222e7 0.0
2.5215571109849222e7 1.2796862241397167e7 0.0
0.0 0.0 0.0

2.1553243396758456e6 8.94505169227658e6 0.0
8.94505169227658e6 -3.44968039667107e7 0.0
0.0 0.0 0.0

-9.998711649745064e6 1.0679080847032411e7 0.0
1.0679080847032411e7 2.537467398025376e7 0.0
0.0 0.0 0.0

814777.7152586523 1.5092654329684922e7 0.0
1.5092654329684922e7 -2.403168507605979e7 0.0
0.0 0.0 0.0

-1.1354227238312104e8 1.3088186794533541e7 0.0
1.3088186794533541e7 2.0285226655926332e6 0.0
0.0 0.0 0.0

-115985.80376020446 7.9178183422585875e6 0.0
7.9178183422585875e6 -6.0529980791637346e7 0.0
0.0 0.0 0.0

-2.837820213726381e6 2.3518674362567805e7 0.0
2.3518674362567805e7 1.2189707098825673e7 0.0
0.0 0.0 0.0

-2.6351794457353544e6 2.5682200979576625e7 0.0
2.5682200979576625e7 9.773888531517297e6 0.0
0.0 0.0 0.0

-5.992393448007248e6 3.2317622253064834e7 0.0
3.2317622253064834e7 9.837613198361319e6 0.0
0.0 0.0 0.0

-1.6733792383738137e6 2.2785481653173868e7 0.0
2.2785481653173868e7 -7.335746370007914e6 0.0
0.0 0.0 0.0

-2.934466143955957e6 2.5406905287661593e7 0.0
2.5406905287661593e7 2.133834399430924e7 0.0
0.0 0.0 0.0

387384.72876792867 1.7595168783438936e7 0.0
1.7595168783438936e7 -1.9674007135319628e7 0.0
0.0 0.0 0.0

1.226086548638666e6 1.1567559770593513e7 0.0
1.1567559770593513e7 -3.2639018506686904e7 0.0
0.0 0.0 0.0

-1.6757839481217286e6 3.2917773606582735e7 0.0
3.2917773606582735e7 3.5940568981377985e6 0.0
0.0 0.0 0.0

3.9899404375444953e6 3.516125837543246e7 0.0
3.516125837543246e7 -6.564437091067903e6 0.0
0.0 0.0 0.0

824596.7552708015 1.081079628079983e7 0.0
1.081079628079983e7 -4.824884372415802e7 0.0
0.0 0.0 0.0

-3.6703425456448104e6 1.646398014562033e7 0.0
1.646398014562033e7 1.4578993392074835e7 0.0
0.0 0.0 0.0

-8.768854548350675e6 3.3234486463722177e7 0.0
3.3234486463722177e7 8.176140729258316e6 0.0
0.0 0.0 0.0

-5.881674024228092e7 8.996024243040925e7 0.0
8.996024243040925e7 -1.3037757917855307e6 0.0
0.0 0.0 0.0

-7.543252972158546e6 1.2604488334891148e7 0.0
1.2604488334891148e7 4.150968213000358e7 0.0
0.0 0.0 0.0

-6.334475451949124e6 1.9799071948671993e7 0.0
1.9799071948671993e7 -2.1137231562622212e7 0.0
0.0 0.0 0.0

-2.190405920160308e6 6.682037626752383e6 0.0
6.682037626752383e6 5.2285792959250435e6 0.0
0.0 0.0 0.0

-6.961732003446603e6 -1.7886554252832541e6 0.0
-1.7886554252832541e6 4.145157909428866e7 0.0
0.0 0.0 0.0

2.2416697848230433e6 1.4990095115251394e6 0.0
1.4990095115251394e6 -4.185330372500059e7 0.0
0.0 0.0 0.0

-9.566828685623929e6 2.916496660183829e7 0.0
2.916496660183829e7 2.25001609484332e6 0.0
0.0 0.0 0.0

-2.2281964771201015e6 2.2100248296644084e7 0.0
2.2100248296644084e7 -2.518890439270425e7 0.0
0.0 0.0 0.0

-3.0450951399169583e6 1.8509825824229397e7 0.0
1.8509825824229397e7 4.5476598382012784e7 0.0
0.0 0.0 0.0

3.035118543584747e6 2.9710808724802233e7 0.0
2.9710808724802233e7 -1.0954850762919348e7 0.0
0.0 0.0 0.0

818351.9555723211 1.3935483914168127e7 0.0
1.3935483914168127e7 -2.2169982856543973e7 0.0
0.0 0.0 0.0

1.6929528376841657e6 1.8941771450887028e7 0.0
1.8941771450887028e7 5.975605229384125e7 0.0
0.0 0.0 0.0

-1.4209637378792425e6 2.2767330266334638e7 0.0
2.2767330266334638e7 -553821.4166697222 0.0
0.0 0.0 0.0

1.674960596224742e6 2.119243124168833e7 0.0
2.119243124168833e7 4.4191654044245444e7 0.0
0.0 0.0 0.0

-1.561597706955229e6 2.2562022872838516e7 0.0
2.2562022872838516e7 -2.3119926234280664e7 0.0
0.0 0.0 0.0

1.0368135096795948e8 1.2491891808320858e7 0.0
1.2491891808320858e7 3.5584921259780824e6 0.0
0.0 0.0 0.0

1.9361771755033266e6 3.0733842439307082e7 0.0
3.0733842439307082e7 -7.50934871295037e6 0.0
0.0 0.0 0.0

5.305178746510218e6 3.982237725996017e7 0.0
3.982237725996017e7 -3.071134387756956e6 0.0
0.0 0.0 0.0

715118.4814183721 1.5338422526865415e7 0.0
1.5338422526865415e7 -2.149831927787141e7 0.0
0.0 0.0 0.0

1.6668356182403956e6 1.3995956674130758e7 0.0
1.3995956674130758e7 -2.2288725769311484e7 0.0
0.0 0.0 0.0

-1.490004641055317e6 2.1925240963872347e7 0.0
2.1925240963872347e7 -8.986621420105025e6 0.0
0.0 0.0 0.0

-8.274716912261074e6 1.4237984278034354e7 0.0
1.4237984278034354e7 3.30309298197666e7 0.0
0.0 0.0 0.0

-4.235632912864158e6 2.0288379611150824e7 0.0
2.0288379611150824e7 -3.5616591370424315e7 0.0
0.0 0.0 0.0

2.834936127981621e6 2.5397153733195965e6 0.0
2.5397153733195965e6 -1.2010048072281837e7 0.0
0.0 0.0 0.0

636774.5660125976 1.867452398369735e7 0.0
1.867452398369735e7 -2.1370098776268672e7 0.0
0.0 0.0 0.0

-3.4172730033374e7 4.2235892580251805e7 0.0
4.2235892580251805e7 7.1328668038637955e6 0.0
0.0 0.0 0.0

-3.3976559116634363e6 1.4758478959812647e7 0.0
1.4758478959812647e7 1.261796370662261e6 0.0
0.0 0.0 0.0

4.0123125132171325e6 1.918366206777034e7 0.0
1.918366206777034e7 7.0333633963602e7 0.0
0.0 0.0 0.0

-2.6945674201059053e6 2.582138820194974e7 0.0
2.582138820194974e7 1.7368315879237678e7 0.0
0.0 0.0 0.0

1.1000849887082566e7 2.6948594701368608e7 0.0
2.6948594701368608e7 6.290899152759406e6 0.0
0.0 0.0 0.0

-7.170871598378034e6 3.286439526987756e7 0.0
3.286439526987756e7 8.973681571698155e6 0.0
0.0 0.0 0.0

1.9902549219265557e6 3.1624730388553586e7 0.0
3.1624730388553586e7 -6.206516230990319e6 0.0
0.0 0.0 0.0

-4.438466136783624e6 3.266945959823353e7 0.0
3.266945959823353e7 7.681787138017244e6 0.0
0.0 0.0 0.0

-8.23707749400779e6 1.4764113413143637e7 0.0
1.4764113413143637e7 3.0452797810924184e7 0.0
0.0 0.0 0.0

-5.277260625702471e6 1.9055391563892614e7 0.0
1.9055391563892614e7 2.509258932426455e7 0.0
0.0 0.0 0.0

-1.0770770484686045e7 9.434651338472145e6 0.0
9.434651338472145e6 1.7723924946012728e7 0.0
0.0 0.0 0.0

2.5309185760955162e7 1.4126212518154738e7 0.0
1.4126212518154738e7 1.6252833920178227e6 0.0
0.0 0.0 0.0

-829207.5699354149 2.3043184412211165e7 0.0
2.3043184412211165e7 -2.1235744678539973e7 0.0
0.0 0.0 0.0

1.3439040378548398e6 3.1458882710664812e7 0.0
3.1458882710664812e7 -5.38293442514538e6 0.0
0.0 0.0 0.0

-2.8681189767068657e6 3.2727667467754968e7 0.0
3.2727667467754968e7 3.8879468609508327e6 0.0
0.0 0.0 0.0

-8.556141821247758e6 -228788.55940496046 0.0
-228788.55940496046 3.050453992142265e7 0.0
0.0 0.0 0.0

-4.0383887124899067e6 3.478553781994581e7 0.0
3.478553781994581e7 4.943125553616509e6 0.0
0.0 0.0 0.0

-1.7586682402546436e6 2.143292343492753e7 0.0
2.143292343492753e7 5.822115894316487e6 0.0
0.0 0.0 0.0

-5.625376712023131e6 3.5481222477110185e7 0.0
3.5481222477110185e7 5.95811475870629e6 0.0
0.0 0.0 0.0

1.0462054110554496e7 2.559302503323777e7 0.0
2.559302503323777e7 3.925427055990617e6 0.0
0.0 0.0 0.0

4.252577567533184e6 3.6894465268095076e7 0.0
3.6894465268095076e7 -4.042503645634611e6 0.0
0.0 0.0 0.0

2.0119782917728573e6 5.096094392764211e6 0.0
5.096094392764211e6 -3.326482564941075e7 0.0
0.0 0.0 0.0

-7.944008136205042e6 1.3036470439395696e7 0.0
1.3036470439395696e7 3.857933198729641e7 0.0
0.0 0.0 0.0

899240.695288477 2.5589259275154736e7 0.0
2.5589259275154736e7 -1.1814305290359009e7 0.0
0.0 0.0 0.0

-103744.39343914017 2.364300799852546e7 0.0
2.364300799852546e7 -1.935853368893768e7 0.0
0.0 0.0 0.0

-1.5100160591448867e6 2.1403186653936997e7 0.0
2.1403186653936997e7 -714933.1733506223 0.0
0.0 0.0 0.0

-5.157355815086464e6 2.723529439292542e7 0.0
2.723529439292542e7 7.30474958704382e6 0.0
0.0 0.0 0.0

4.513070619466331e6 3.0846962552385524e7 0.0
3.0846962552385524e7 -9.548532423423842e6 0.0
0.0 0.0 0.0

-180609.25031941105 2.372152544670773e7 0.0
2.372152544670773e7 -1.0532603370186575e7 0.0
0.0 0.0 0.0

-7.770025268651752e6 1.7119012930669356e7 0.0
1.7119012930669356e7 2.490434142782041e7 0.0
0.0 0.0 0.0

2.0778382143264506e6 1.1359425306736792e7 0.0
1.1359425306736792e7 -2.6959671500168975e7 0.0
0.0 0.0 0.0

-1.8752069376225295e6 2.3749632612282895e7 0.0
2.3749632612282895e7 -2.0504871654987272e7 0.0
0.0 0.0 0.0

4.352869627318228e6 2.6233415360223886e7 0.0
2.6233415360223886e7 1.6387500593995312e7 0.0
0.0 0.0 0.0

-1.3997544017387177e6 2.535388705105613e7 0.0
2.535388705105613e7 -6.541164012804911e6 0.0
0.0 0.0 0.0

1.5563497766914032e6 8.560132226083785e6 0.0
8.560132226083785e6 -4.6674563863694236e7 0.0
0.0 0.0 0.0

1.4456597364233658e6 6.23629471488892e6 0.0
6.23629471488892e6 -6.256221118325193e7 0.0
0.0 0.0 0.0

-3.3852962632191414e6 2.031103685613368e7 0.0
2.031103685613368e7 1.1929814905974088e7 0.0
0.0 0.0 0.0

-2.604946350531956e6 3.3382925377811972e7 0.0
3.3382925377811972e7 2.838136638087167e6 0.0
0.0 0.0 0.0

-8.908470596826483e6 6.079377143914103e6 0.0
6.079377143914103e6 3.521504484223503e7 0.0
0.0 0.0 0.0

-5.161552745595935e6 1.9056421611378755e7 0.0
1.9056421611378755e7 1.8065598366777215e7 0.0
0.0 0.0 0.0

-2.71817432834617e6 2.4787473796620466e7 0.0
2.4787473796620466e7 1.1621696424285654e7 0.0
0.0 0.0 0.0

2.0206005845414186e6 1.16284778612398e7 0.0
1.16284778612398e7 -2.4414540436982103e7 0.0
0.0 0.0 0.0

2.1106597278219685e6 1.370715283023253e6 0.0
1.370715283023253e6 -4.327222816988511e7 0.0
0.0 0.0 0.0

-2.0541072848982923e6 2.3106537368972003e7 0.0
2.3106537368972003e7 1.4949674133456523e7 0.0
0.0 0.0 0.0

7.204290219872199e6 2.0925062414059125e7 0.0
2.0925062414059125e7 8.559252415449144e7 0.0
0.0 0.0 0.0

-1.7962138328182688e6 2.6131415253397923e7 0.0
2.6131415253397923e7 1.0459195322347745e7 0.0
0.0 0.0 0.0

1.7409170291558732e6 3.238240736093465e7 0.0
3.238240736093465e7 -5.217830638919199e6 0.0
0.0 0.0 0.0

795713.0085290847 1.6367435955492096e7 0.0
1.6367435955492096e7 -2.2910314769556914e7 0.0
0.0 0.0 0.0

614838.0866318352 3.5217539074143276e7 0.0
3.5217539074143276e7 -1.1023271203927123e6 0.0
0.0 0.0 0.0

-1.943918358361899e6 3.2262354099987894e7 0.0
3.2262354099987894e7 4.651672966164837e6 0.0
0.0 0.0 0.0

1.2151925492021505e7 2.084800985310884e7 0.0
2.084800985310884e7 5.469821535845601e7 0.0
0.0 0.0 0.0

2.854651524864101e6 2.5692226521044946e6 0.0
2.5692226521044946e6 -1.2814990021450844e7 0.0
0.0 0.0 0.0

6.391989171581499e6 2.8014269203508124e7 0.0
2.8014269203508124e7 -8.332119042279249e6 0.0
0.0 0.0 0.0

2.6919941216076855e6 3.8842675367624476e6 0.0
3.8842675367624476e6 -2.3515678265385635e7 0.0
0.0 0.0 0.0

-7.523281518789705e6 1.5683455531296486e7 0.0
1.5683455531296486e7 2.5386215626523763e7 0.0
0.0 0.0 0.0

-2.84166995224584e6 3.027213007157316e7 0.0
3.027213007157316e7 6.428207492042545e6 0.0
0.0 0.0 0.0

-397337.4214814799 2.6095609133160993e7 0.0
2.6095609133160993e7 -5.380737617433515e6 0.0
0.0 0.0 0.0

1.7711900694928644e6 1.2733013975836795e7 0.0
1.2733013975836795e7 -2.029312297961133e7 0.0
0.0 0.0 0.0

210044.99873414543 2.414229238319508e7 0.0
2.414229238319508e7 -1.2291699642883152e7 0.0
0.0 0.0 0.0

1.4859761664148783e6 3.319222630865504e7 0.0
3.319222630865504e7 -4.1957211005430715e6 0.0
0.0 0.0 0.0

-8.28515574704274e6 7.796611205030316e6 0.0
7.796611205030316e6 4.0537672533665024e7 0.0
0.0 0.0 0.0

-4.350522704896133e6 2.0789044769465335e7 0.0
2.0789044769465335e7 2.4997551224951375e7 0.0
0.0 0.0 0.0

-9.195311408354057e6 1.2541043062256012e7 0.0
1.2541043062256012e7 2.7289939489853565e7 0.0
0.0 0.0 0.0

-2.7276797308024904e6 2.075886103027165e7 0.0
2.075886103027165e7 4.763015003420005e6 0.0
0.0 0.0 0.0

-3.2996393358993554e6 3.2028067204723407e7 0.0
3.2028067204723407e7 8.69331454092913e6 0.0
0.0 0.0 0.0

-1.9519300685163722e6 2.519432100746288e7 0.0
2.519432100746288e7 -2.6362076788479243e6 0.0
0.0 0.0 0.0

-1.5289307628524336e6 3.4906556998848364e7 0.0
3.4906556998848364e7 -92478.03175183601 0.0
0.0 0.0 0.0

-8.101249122476616e6 1.2291016394767232e7 0.0
1.2291016394767232e7 1.4436868898740083e7 0.0
0.0 0.0 0.0

-5.365761023442278e6 1.8492445884499222e7 0.0
1.8492445884499222e7 2.4125460060806867e7 0.0
0.0 0.0 0.0

-2.3125032253259476e6 3.397263181609427e7 0.0
3.397263181609427e7 1.880152955050131e6 0.0
0.0 0.0 0.0

4.0656754587672916e6 2.9290272653791163e7 0.0
2.9290272653791163e7 -1.082216915502995e7 0.0
0.0 0.0 0.0

1.9985012862325683e7 2.9031714737897612e7 0.0
2.9031714737897612e7 1.5424467267250398e7 0.0
0.0 0.0 0.0

-1.8615757863315684e6 2.0642096886029717e7 0.0
2.0642096886029717e7 7.669824110040514e6 0.0
0.0 0.0 0.0

1.018021291548634e7 3.3359192320210002e7 0.0
3.3359192320210002e7 -6.652399438297464e6 0.0
0.0 0.0 0.0

-1.8454203274629442e6 2.1789324617111925e7 0.0
2.1789324617111925e7 1.0691450530418016e7 0.0
0.0 0.0 0.0

-4.433084043156277e6 2.029768078088257e7 0.0
2.029768078088257e7 2.4125835111150384e7 0.0
0.0 0.0 0.0

-5.544800981052578e6 1.3156165777540077e7 0.0
1.3156165777540077e7 1.5792057537119579e7 0.0
0.0 0.0 0.0

-1.9619457390263798e6 3.4466235967951864e7 0.0
3.4466235967951864e7 819288.3767796664 0.0
0.0 0.0 0.0

2.4919513333174437e6 6.858179401880715e6 0.0
6.858179401880715e6 -3.2565987625035066e7 0.0
0.0 0.0 0.0

2.29695938875651e6 9.498432913493993e6 0.0
9.498432913493993e6 -3.020370711450307e7 0.0
0.0 0.0 0.0

-5.01391841202407e6 3.163967553998383e7 0.0
3.163967553998383e7 1.055068624470159e7 0.0
0.0 0.0 0.0

-395627.70875660004 1.4769103482161554e7 0.0
1.4769103482161554e7 -7.604274220966187e6 0.0
0.0 0.0 0.0

1.734390779313472e6 1.338698515616736e7 0.0
1.338698515616736e7 -2.1277575141832612e7 0.0
0.0 0.0 0.0

95441.4850996639 3.829284992582483e7 0.0
3.829284992582483e7 -1.42546842042826e6 0.0
0.0 0.0 0.0

1.0215189446187546e6 3.459463270743689e7 0.0
3.459463270743689e7 -2.0976596985781137e6 0.0
0.0 0.0 0.0

-486297.41949073365 2.7254776892659906e7 0.0
2.7254776892659906e7 -8.280353632763014e6 0.0
0.0 0.0 0.0

-3.118591174873314e6 2.1504953702412862e7 0.0
2.1504953702412862e7 -3.1720611341948844e7 0.0
0.0 0.0 0.0

-3.535247408685567e6 3.825708396949282e7 0.0
3.825708396949282e7 2.0514723043045125e6 0.0
0.0 0.0 0.0

-4.214072752822425e6 2.124064140300959e7 0.0
2.124064140300959e7 2.5650601100165784e7 0.0
0.0 0.0 0.0

1.5365211079765325e6 8.032400688773791e6 0.0
8.032400688773791e6 -1.891916876435676e7 0.0
0.0 0.0 0.0

2.998045160911614e6 4.205207671777445e7 0.0
4.205207671777445e7 -1.6147894940577163e6 0.0
0.0 0.0 0.0

-2.9656214291706644e6 2.6732225206150334e7 0.0
2.6732225206150334e7 1.4723842959434513e7 0.0
0.0 0.0 0.0

1.297111298706269e6 3.39202369294115e7 0.0
3.39202369294115e7 -3.049007531508821e6 0.0
0.0 0.0 0.0

652240.9994912688 2.426089507673713e7 0.0
2.426089507673713e7 -1.765707945127939e7 0.0
0.0 0.0 0.0

-473058.1237217476 3.540421455402395e7 0.0
3.540421455402395e7 700986.8972830586 0.0
0.0 0.0 0.0

-3.1183461459910907e6 2.679036093669889e7 0.0
2.679036093669889e7 1.7614094796121728e7 0.0
0.0 0.0 0.0

-362544.00359592144 3.562757886195798e7 0.0
3.562757886195798e7 -1.7597122884916924e6 0.0
0.0 0.0 0.0

1.1584732309183564e7 4.553470921052856e7 0.0
4.553470921052856e7 -3.514825729180908e6 0.0
0.0 0.0 0.0

-6.333308788923673e6 1.8315354303342592e7 0.0
1.8315354303342592e7 3.223586613467509e7 0.0
0.0 0.0 0.0

1.527887165517955e6 1.4842825109336711e7 0.0
1.4842825109336711e7 -2.072100450218568e7 0.0
0.0 0.0 0.0

-7.881236526577104e6 1.4978970275931608e7 0.0
1.4978970275931608e7 3.398490905468327e7 0.0
0.0 0.0 0.0

-7.170236751424675e6 1.7414910095690366e7 0.0
1.7414910095690366e7 2.222388907533409e7 0.0
0.0 0.0 0.0

-1.6481550651842777e6 -749666.4854349258 0.0
-749666.4854349258 2.8194940616464578e6 0.0
0.0 0.0 0.0

-1.206453007691667e6 -1.9833093637743876e6 0.0
-1.9833093637743876e6 2.67487086798746e6 0.0
0.0 0.0 0.0

-5.907798528920464e6 1.8862726399704374e7 0.0
1.8862726399704374e7 3.2875119881032687e7 0.0
0.0 0.0 0.0

1.851855677710985e7 2.7957605418864843e7 0.0
2.7957605418864843e7 1.5745448222856889e7 0.0
0.0 0.0 0.0

2.7444884438087405e6 3.607078029033657e7 0.0
3.607078029033657e7 -3.3510694087457065e6 0.0
0.0 0.0 0.0

479000.1105099027 2.8034117063416082e7 0.0
2.8034117063416082e7 -7.312856748947532e6 0.0
0.0 0.0 0.0

1.4853241387754474e6 1.5405855124255246e7 0.0
1.5405855124255246e7 -2.1755943718340613e7 0.0
0.0 0.0 0.0

1.1043481114778731e7 2.0633393785635646e7 0.0
2.0633393785635646e7 4.880126400706036e7 0.0
0.0 0.0 0.0

-3.3288967656390257e6 3.890864337068781e7 0.0
3.890864337068781e7 3.4346419035413573e6 0.0
0.0 0.0 0.0

139656.11137482285 3.913153009897827e7 0.0
3.913153009897827e7 -1.436934319307015e6 0.0
0.0 0.0 0.0

614879.6200242362 4.0003434284046486e7 0.0
4.0003434284046486e7 -1.469056978033501e6 0.0
0.0 0.0 0.0

-3.3891014382510865e6 2.3457176485996988e7 0.0
2.3457176485996988e7 1.669425387193944e7 0.0
0.0 0.0 0.0

-3.4763897258307403e6 2.0801587399353027e7 0.0
2.0801587399353027e7 1.3495469435824182e7 0.0
0.0 0.0 0.0

-6.8738381955792215e6 1.4952211182477722e7 0.0
1.4952211182477722e7 1.5670815095197367e7 0.0
0.0 0.0 0.0

-2.530077079931179e6 2.8302310052690335e7 0.0
2.8302310052690335e7 1.2212303217492104e7 0.0
0.0 0.0 0.0

-2.482799181212483e6 1.990249210723216e7 0.0
1.990249210723216e7 1.5079537835943066e7 0.0
0.0 0.0 0.0

-6.043408023685601e6 1.7720086115431473e7 0.0
1.7720086115431473e7 3.658747605790402e7 0.0
0.0 0.0 0.0

1.5391943386457823e6 1.6090592523706168e7 0.0
1.6090592523706168e7 -2.2502783723410197e7 0.0
0.0 0.0 0.0

-2.993429722702519e6 2.558170955682964e7 0.0
2.558170955682964e7 1.3866321916799335e7 0.0
0.0 0.0 0.0

-6.68123783936554e6 1.6078500380630393e7 0.0
1.6078500380630393e7 3.8263429532395035e7 0.0
0.0 0.0 0.0

6.243712167323633e6 2.4326675732975304e7 0.0
2.4326675732975304e7 1.9373114400759503e7 0.0
0.0 0.0 0.0

-2.6934761971867937e6 2.2037118071433898e7 0.0
2.2037118071433898e7 7.840152814214861e6 0.0
0.0 0.0 0.0

-441189.9702940183 3.629909168416085e7 0.0
3.629909168416085e7 776828.9586497598 0.0
0.0 0.0 0.0

-475361.9683551056 3.445476503848996e7 0.0
3.445476503848996e7 629499.8555107077 0.0
0.0 0.0 0.0

-3.2910857781675095e6 2.7688285667589813e7 0.0
2.7688285667589813e7 1.5861908822909357e7 0.0
0.0 0.0 0.0

-2.7158981966333278e6 2.2683014181726445e7 0.0
2.2683014181726445e7 -2.6143480453895357e7 0.0
0.0 0.0 0.0

-2.8246898641185462e6 2.8698512330705713e7 0.0
2.8698512330705713e7 9.21960080955714e6 0.0
0.0 0.0 0.0

-3.713061042199443e6 2.1960822650083557e7 0.0
2.1960822650083557e7 2.3811363224971693e7 0.0
0.0 0.0 0.0

134148.6101296642 2.6845998406947225e7 0.0
2.6845998406947225e7 -7.632636523185299e6 0.0
0.0 0.0 0.0

6.3380366649838155e6 4.0812421136470094e7 0.0
4.0812421136470094e7 -3.078389909519992e6 0.0
0.0 0.0 0.0

-3.661357200584719e6 2.8733297463388126e7 0.0
2.8733297463388126e7 1.4193276353742363e7 0.0
0.0 0.0 0.0

-244335.9196290956 2.6420198483107507e7 0.0
2.6420198483107507e7 -9.643714375891564e6 0.0
0.0 0.0 0.0

2.0502439181481823e6 1.0262216262960328e7 0.0
1.0262216262960328e7 -3.118376425147162e7 0.0
0.0 0.0 0.0

-2.1909934276037104e6 2.3479165232201446e7 0.0
2.3479165232201446e7 1.61742637592619e7 0.0
0.0 0.0 0.0

7.236480401462456e6 3.2976316871241383e7 0.0
3.2976316871241383e7 -7.602939285737066e6 0.0
0.0 0.0 0.0

2.425470367711356e6 2.726889042673785e6 0.0
2.726889042673785e6 -8.56577767103176e6 0.0
0.0 0.0 0.0

847799.427392358 1.0372838651470196e7 0.0
1.0372838651470196e7 -4.149959094496904e7 0.0
0.0 0.0 0.0

612631.213906745 2.4715676357446484e7 0.0
2.4715676357446484e7 -1.1835899542581934e7 0.0
0.0 0.0 0.0

1.8984341314131573e7 2.9123768503705174e7 0.0
2.9123768503705174e7 1.7567016945568077e7 0.0
0.0 0.0 0.0

1.2921453425168283e6 1.0779551652148398e7 0.0
1.0779551652148398e7 -3.2009779341688987e7 0.0
0.0 0.0 0.0

1.208881071128741e6 1.231566453284067e7 0.0
1.231566453284067e7 -3.098894648616382e7 0.0
0.0 0.0 0.0

3.090117688418841e6 2.455545744548626e7 0.0
2.455545744548626e7 7.511049325299412e6 0.0
0.0 0.0 0.0

-8.560756359896138e6 9.535570781248273e6 0.0
9.535570781248273e6 3.838296399733541e7 0.0
0.0 0.0 0.0

-7.59471675749213e6 1.5589886861297688e7 0.0
1.5589886861297688e7 1.873503645024519e7 0.0
0.0 0.0 0.0

-1.3432402772437498e7 2.179144378570055e7 0.0
2.179144378570055e7 -6.212074272315716e7 0.0
0.0 0.0 0.0

-4.274055338754924e6 2.0428849266779717e7 0.0
2.0428849266779717e7 1.7197022525510862e7 0.0
0.0 0.0 0.0

-9.015062053055098e6 1.5015529013675714e7 0.0
1.5015529013675714e7 2.7637833809036277e7 0.0
0.0 0.0 0.0

5.273163413882342e6 2.70007392912164e7 0.0
2.70007392912164e7 1.387667674328157e7 0.0
0.0 0.0 0.0

-7.178136795139555e6 -1.9775372045667164e6 0.0
-1.9775372045667164e6 4.010633462280999e7 0.0
0.0 0.0 0.0

-2.943284334000564e6 2.3937178910695337e7 0.0
2.3937178910695337e7 1.3506086620429248e7 0.0
0.0 0.0 0.0

-3.8782780162412426e6 3.2027265954685267e7 0.0
3.2027265954685267e7 9.411435062492333e6 0.0
0.0 0.0 0.0

552468.344976278 2.2182114820023544e7 0.0
2.2182114820023544e7 -1.8850491548501402e7 0.0
0.0 0.0 0.0

-8.669515267808061e6 -962496.7876128346 0.0
-962496.7876128346 1.8536421084096257e7 0.0
0.0 0.0 0.0

-6.799007516859334e6 1.4205042589839013e7 0.0
1.4205042589839013e7 1.3960968194512408e7 0.0
0.0 0.0 0.0

-1.3347954567763917e6 8.801128619086122e6 0.0
8.801128619086122e6 -7.093064298123227e7 0.0
0.0 0.0 0.0

9.682979867427941e6 4.121984596659397e7 0.0
4.121984596659397e7 -3.931613204766813e6 0.0
0.0 0.0 0.0

-4.716272559696931e6 1.4979194845171148e7 0.0
1.4979194845171148e7 4.961278903588687e7 0.0
0.0 0.0 0.0

-6.973407262955372e6 2.297824045070364e7 0.0
2.297824045070364e7 -2.0299860610623006e7 0.0
0.0 0.0 0.0

-9.11621162414397e6 1.4463750773717316e7 0.0
1.4463750773717316e7 3.0032211087412763e7 0.0
0.0 0.0 0.0

-1.8046899362777185e7 3.0688353715714306e7 0.0
3.0688353715714306e7 -1.3506282967058334e7 0.0
0.0 0.0 0.0

-1.9445147642852438e6 2.445510465287706e7 0.0
2.445510465287706e7 -6.716493559820608e6 0.0
0.0 0.0 0.0

5.602756954282825e6 2.169297113634172e7 0.0
2.169297113634172e7 2.414187190789734e7 0.0
0.0 0.0 0.0

849212.0686309207 9.451317571726993e6 0.0
9.451317571726993e6 -4.369188471401392e7 0.0
0.0 0.0 0.0

-6.41308535426151e6 1.9810708804347925e7 0.0
1.9810708804347925e7 -2.2026241189005952e7 0.0
0.0 0.0 0.0

1.1368549566965047e7 4.797261183322553e7 0.0
4.797261183322553e7 -5.395032058334454e6 0.0
0.0 0.0 0.0

-2.33899621199294e6 2.383569459275974e7 0.0
2.383569459275974e7 1.728453090716621e7 0.0
0.0 0.0 0.0

-6.970597668820906e6 -1.471888683050977e6 0.0
-1.471888683050977e6 4.446734112308876e7 0.0
0.0 0.0 0.0

187473.6109936796 2.37444768057699e7 0.0
2.37444768057699e7 2.138373266832199e7 0.0
0.0 0.0 0.0

-1.5313667083948724e7 2.96841365361346e7 0.0
2.96841365361346e7 -1.5150818988057315e7 0.0
0.0 0.0 0.0

-6.208151930048795e6 1.2744731219780134e7 0.0
1.2744731219780134e7 1.0147963770436546e7 0.0
0.0 0.0 0.0

6.756958842754006e6 2.1522321903007235e7 0.0
2.1522321903007235e7 5.129201773995699e7 0.0
0.0 0.0 0.0

-5.832864255196018e6 1.991363609001467e7 0.0
1.991363609001467e7 2.351831345160716e7 0.0
0.0 0.0 0.0

-6.967075534786024e6 1.798857459156533e7 0.0
1.798857459156533e7 2.3331496842291385e7 0.0
0.0 0.0 0.0

-5.763362564533696e6 1.313468405270482e7 0.0
1.313468405270482e7 4.9171827042208016e7 0.0
0.0 0.0 0.0

745280.5174626913 2.3145578668723438e7 0.0
2.3145578668723438e7 2.7004880152041145e7 0.0
0.0 0.0 0.0

-1.1753438754513824e7 3.771434646213268e7 0.0
3.771434646213268e7 5.869584082521418e6 0.0
0.0 0.0 0.0

698185.5022530702 4.308284434784362e7 0.0
4.308284434784362e7 -1.6191876814162207e6 0.0
0.0 0.0 0.0

-2.9648379927518535e6 2.6735820755424846e7 0.0
2.6735820755424846e7 1.3115889210070593e7 0.0
0.0 0.0 0.0

2.0878243385791727e6 2.5957219656112273e6 0.0
2.5957219656112273e6 -6.886364592045447e6 0.0
0.0 0.0 0.0

1.7723412331086071e6 1.3761239696027538e7 0.0
1.3761239696027538e7 -2.4770680449074954e7 0.0
0.0 0.0 0.0

1.531922442329714e6 1.3599894384464815e7 0.0
1.3599894384464815e7 -1.8776260757218868e7 0.0
0.0 0.0 0.0

-3.5592293889226345e6 2.1288365150608115e7 0.0
2.1288365150608115e7 1.4971228585056191e7 0.0
0.0 0.0 0.0

-34335.79501089291 5.938956446784476e7 0.0
5.938956446784476e7 -3.5475543134186906e6 0.0
0.0 0.0 0.0

-9.792416170538563e6 1.1048485779917507e7 0.0
1.1048485779917507e7 1.6317799047778428e7 0.0
0.0 0.0 0.0

4.996691329389336e6 3.773972843329863e7 0.0
3.773972843329863e7 -4.0097054676987454e6 0.0
0.0 0.0 0.0

7.872804881178979e6 3.4279334262217835e7 0.0
3.4279334262217835e7 -6.929327145796418e6 0.0
0.0 0.0 0.0

-3.887746616788988e6 1.3560376133041447e7 0.0
1.3560376133041447e7 1.142262102532373e7 0.0
0.0 0.0 0.0

-320334.7653240361 2.2834066220438708e7 0.0
2.2834066220438708e7 1.5382010265488345e6 0.0
0.0 0.0 0.0

2.710883721506406e7 2.7744408593978863e7 0.0
2.7744408593978863e7 1.289569263151017e7 0.0
0.0 0.0 0.0

1.1710866275792718e7 2.278015863220515e7 0.0
2.278015863220515e7 5.018888340167933e7 0.0
0.0 0.0 0.0

3.6773255018221075e6 2.2519696059459228e7 0.0
2.2519696059459228e7 1.9744657740797583e7 0.0
0.0 0.0 0.0

-5.957523034569289e6 1.935888333777956e7 0.0
1.935888333777956e7 2.2583324578555875e7 0.0
0.0 0.0 0.0

694081.8263305548 5.52237276087535e7 0.0
5.52237276087535e7 -2.880582102411536e6 0.0
0.0 0.0 0.0

-2.615126558804154e7 3.24503891373692e7 0.0
3.24503891373692e7 -1.3592071761757512e7 0.0
0.0 0.0 0.0

-6.730520969262622e6 1.8556254104079757e7 0.0
1.8556254104079757e7 2.431433169556725e7 0.0
0.0 0.0 0.0

-1.0011270979875382e6 1.510794554305836e7 0.0
1.510794554305836e7 -4.44496330791229e7 0.0
0.0 0.0 0.0

1.7608091955615133e6 1.2797877938217607e6 0.0
1.2797877938217607e6 -5.105790565004949e7 0.0
0.0 0.0 0.0

1.246406529947117e6 2.104514052329424e7 0.0
2.104514052329424e7 -1.9960876868922878e7 0.0
0.0 0.0 0.0

1.6216747620472275e6 1.460883631835013e7 0.0
1.460883631835013e7 -2.3254006563992623e7 0.0
0.0 0.0 0.0

1.3354068382626483e6 2.305892874599472e7 0.0
2.305892874599472e7 -1.7339224660018947e7 0.0
0.0 0.0 0.0

-754702.8988452952 6.459711456335543e7 0.0
6.459711456335543e7 -5.765294312538316e6 0.0
0.0 0.0 0.0

-1.8091636921915119e6 2.95921772534598e7 0.0
2.95921772534598e7 5.902276769972682e6 0.0
0.0 0.0 0.0

2.0783864009200698e6 2.734330882218582e7 0.0
2.734330882218582e7 -1.3819146726596784e7 0.0
0.0 0.0 0.0

1.2332771774759265e6 2.632194569962887e7 0.0
2.632194569962887e7 -1.4481280441847175e7 0.0
0.0 0.0 0.0

1.8681778817327553e6 1.2507992928284874e7 0.0
1.2507992928284874e7 -2.284804949325749e7 0.0
0.0 0.0 0.0

-3.468287569271622e6 2.8108553097949095e7 0.0
2.8108553097949095e7 1.3253744469103767e7 0.0
0.0 0.0 0.0

1.9653168488826593e6 2.419493620188266e7 0.0
2.419493620188266e7 2.4040005851265084e7 0.0
0.0 0.0 0.0

-7.611344715765906e6 2.9469002631953616e7 0.0
2.9469002631953616e7 9.08927537637422e6 0.0
0.0 0.0 0.0

-519091.8626158461 1.0057766414338257e7 0.0
1.0057766414338257e7 9.072760288857268e7 0.0
0.0 0.0 0.0

-8.444094452808559e6 686367.6215782202 0.0
686367.6215782202 2.849011061188512e7 0.0
0.0 0.0 0.0

-8.468052732277622e6 9.651505302210727e7 0.0
9.651505302210727e7 -1.7204734689179588e7 0.0
0.0 0.0 0.0

6.642298770710543e6 2.180382377315892e7 0.0
2.180382377315892e7 3.1339065915398184e7 0.0
0.0 0.0 0.0

1.022845959640823e6 5.239941228067299e7 0.0
5.239941228067299e7 -2.1186637053493406e6 0.0
0.0 0.0 0.0

709612.1618596585 2.263031382557368e7 0.0
2.263031382557368e7 -1.36674871484756e7 0.0
0.0 0.0 0.0

2.870330441097426e6 2.6499544633667897e7 0.0
2.6499544633667897e7 -1.3086056119666671e7 0.0
0.0 0.0 0.0

-2.5635572241645376e6 3.0909530758401874e7 0.0
3.0909530758401874e7 8.112475666392732e6 0.0
0.0 0.0 0.0

2.9732268571739756e6 1.784397263279164e6 0.0
1.784397263279164e6 -2.777645126072312e7 0.0
0.0 0.0 0.0

1.315005425174333e7 2.570618213307105e7 0.0
2.570618213307105e7 5.1339331421431275e6 0.0
0.0 0.0 0.0

1.7183773361144941e6 1.4493437290631227e7 0.0
1.4493437290631227e7 -2.5646155201033775e7 0.0
0.0 0.0 0.0

7.911744422685201e6 3.093912643343843e7 0.0
3.093912643343843e7 -7.4742319808092015e6 0.0
0.0 0.0 0.0

1.6725445053727124e6 8.797237254679002e6 0.0
8.797237254679002e6 -4.269418124025997e7 0.0
0.0 0.0 0.0

-1.8864407581732087e6 2.5280816282274798e7 0.0
2.5280816282274798e7 1.238972073947518e7 0.0
0.0 0.0 0.0

2.3616396394489156e6 8.22214791244982e6 0.0
8.22214791244982e6 -1.6214375843544826e7 0.0
0.0 0.0 0.0

-2.0519141814586842e6 1.3938509719196802e7 0.0
1.3938509719196802e7 2.624901900513814e6 0.0
0.0 0.0 0.0

-2.328238139612175e7 2.8929409229414966e7 0.0
2.8929409229414966e7 -8.459144284986608e6 0.0
0.0 0.0 0.0

1.9425618863387555e6 1.1849054316123787e7 0.0
1.1849054316123787e7 -3.0231256993241303e7 0.0
0.0 0.0 0.0

-2.3288740168169746e6 2.1208075070577815e7 0.0
2.1208075070577815e7 -3.4092776809702176e6 0.0
0.0 0.0 0.0

1.3395037683917629e6 2.8168985700909406e7 0.0
2.8168985700909406e7 -1.1728060138135675e7 0.0
0.0 0.0 0.0

1.4705719269833472e6 2.211093652601739e7 0.0
2.211093652601739e7 3.492833991984645e7 0.0
0.0 0.0 0.0

771454.7206026652 2.514317490827774e7 0.0
2.514317490827774e7 -1.6484963426958076e6 0.0
0.0 0.0 0.0

-4.19891670868934e6 1.992449559231367e7 0.0
1.992449559231367e7 1.5777486775114393e7 0.0
0.0 0.0 0.0

-8.147608561431633e6 1.0733044360209366e7 0.0
1.0733044360209366e7 4.309120326041348e7 0.0
0.0 0.0 0.0

1.9911733099132385e6 2.256284253434105e7 0.0
2.256284253434105e7 3.55429504848494e7 0.0
0.0 0.0 0.0

-4.990174734026392e6 2.116940724481676e7 0.0
2.116940724481676e7 2.2586560261710137e7 0.0
0.0 0.0 0.0

-8.927832232024554e6 6.118590158928873e6 0.0
6.118590158928873e6 3.848728996602698e7 0.0
0.0 0.0 0.0

-2.7294927945499225e6 2.2997370668741453e7 0.0
2.2997370668741453e7 1.926780296804541e7 0.0
0.0 0.0 0.0

-3.2984755502508674e6 2.596623161629825e7 0.0
2.596623161629825e7 1.942388269636923e7 0.0
0.0 0.0 0.0

-9.654688475246653e6 9.576327429363191e6 0.0
9.576327429363191e6 2.1426938711649187e7 0.0
0.0 0.0 0.0

1.3157684675879711e6 2.7254981483902358e7 0.0
2.7254981483902358e7 -1.3101912428160341e7 0.0
0.0 0.0 0.0

-2.757322331034155e6 3.1039560172385707e7 0.0
3.1039560172385707e7 5.149400793108908e6 0.0
0.0 0.0 0.0

-4.829119442174022e6 2.1683043335072882e7 0.0
2.1683043335072882e7 2.3380269499310963e7 0.0
0.0 0.0 0.0

-6.836262975066613e6 5.644643278567061e6 0.0
5.644643278567061e6 5.517559908213716e7 0.0
0.0 0.0 0.0

-1.305946305141206e6 2.5565173015557904e7 0.0
2.5565173015557904e7 1.5953821856154138e7 0.0
0.0 0.0 0.0

-6.258787712981001e6 1.7749311831797425e7 0.0
1.7749311831797425e7 2.586816629474396e7 0.0
0.0 0.0 0.0

-285425.829384163 1.4733202123977358e7 0.0
1.4733202123977358e7 -4.16298490349024e7 0.0
0.0 0.0 0.0

1.6097024523957074e6 2.1010712025131956e7 0.0
2.1010712025131956e7 4.3963931209266946e7 0.0
0.0 0.0 0.0

-5.9600062001172155e6 1.910331124280478e7 0.0
1.910331124280478e7 3.034206257183094e7 0.0
0.0 0.0 0.0

1.5242497555670757e6 1.293255010153866e7 0.0
1.293255010153866e7 -1.7764291400684197e7 0.0
0.0 0.0 0.0

1.7214874356123265e6 3.3424957553111967e6 0.0
3.3424957553111967e6 -3.989044659338457e7 0.0
0.0 0.0 0.0

5.601748411682416e6 2.1582336957162183e7 0.0
2.1582336957162183e7 3.976383659509959e7 0.0
0.0 0.0 0.0

3.7047317549989857e6 2.1587968738176476e7 0.0
2.1587968738176476e7 4.205250231145186e7 0.0
0.0 0.0 0.0

-273726.6640893263 2.1851587810288504e7 0.0
2.1851587810288504e7 -9.353828409823747e6 0.0
0.0 0.0 0.0

-3.9816726986526195e6 2.980474553681043e7 0.0
2.980474553681043e7 1.2722234538575122e7 0.0
0.0 0.0 0.0

950537.7259420973 4.686721744825529e7 0.0
4.686721744825529e7 -1.8794336363855142e6 0.0
0.0 0.0 0.0

1.4343371916475352e6 2.497188570655981e7 0.0
2.497188570655981e7 -1.6018046052577442e7 0.0
0.0 0.0 0.0

-8.889944863029987e6 1.8903021286662205e6 0.0
1.8903021286662205e6 2.9682344711744774e7 0.0
0.0 0.0 0.0

-548951.3650171757 1.7490556275276255e7 0.0
1.7490556275276255e7 -3.5474548059462965e7 0.0
0.0 0.0 0.0

-2.5867620266883792e6 2.63966333949309e7 0.0
2.63966333949309e7 1.6262007997979125e7 0.0
0.0 0.0 0.0

-6.618094717882602e6 1.774624981028101e7 0.0
1.774624981028101e7 3.1458896610125e7 0.0
0.0 0.0 0.0

5.5208468614025405e6 1.918923006733309e7 0.0
1.918923006733309e7 1.8102863775329802e7 0.0
0.0 0.0 0.0

-180425.52332483418 1.148694881197649e7 0.0
1.148694881197649e7 -4.92605525445671e7 0.0
0.0 0.0 0.0

163353.36180096678 1.4580495588937623e7 0.0
1.4580495588937623e7 -3.8800731377379045e7 0.0
0.0 0.0 0.0

1.3750202815587156e7 5.035087025248681e7 0.0
5.035087025248681e7 -6.081347821361079e6 0.0
0.0 0.0 0.0

-1.628836057866271e6 3.030086217544635e7 0.0
3.030086217544635e7 4.642361245639997e6 0.0
0.0 0.0 0.0

-2.499349529484805e6 3.170838542878926e7 0.0
3.170838542878926e7 6.8920536264342815e6 0.0
0.0 0.0 0.0

-785834.2705510119 3.260560280625195e7 0.0
3.260560280625195e7 -2.5018694542622888e6 0.0
0.0 0.0 0.0

3.0453281770952316e6 4.247456153045049e6 0.0
4.247456153045049e6 -2.268376459579797e7 0.0
0.0 0.0 0.0

-3.115479074947472e6 2.1244353113657426e7 0.0
2.1244353113657426e7 -1.0028235825837968e7 0.0
0.0 0.0 0.0

-2.387991128465886e6 2.6208204890729968e7 0.0
2.6208204890729968e7 1.5466895473266024e7 0.0
0.0 0.0 0.0

2.6934437728067944e6 2.807853096219264e7 0.0
2.807853096219264e7 -1.2605995737192083e7 0.0
0.0 0.0 0.0

925303.6835438632 4.542253188021357e7 0.0
4.542253188021357e7 -1.7017056648709457e6 0.0
0.0 0.0 0.0

-7.0739419479255965e6 1.2117587893541064e7 0.0
1.2117587893541064e7 1.7986617613101017e7 0.0
0.0 0.0 0.0

-8.85176479411569e6 1.3238877006769374e7 0.0
1.3238877006769374e7 3.516180578193486e7 0.0
0.0 0.0 0.0

810463.3484445992 4.425813605227869e7 0.0
4.425813605227869e7 -1.5026188543268815e6 0.0
0.0 0.0 0.0

1.3576331338163018e6 2.9129873863167122e7 0.0
2.9129873863167122e7 -1.046038535717395e7 0.0
0.0 0.0 0.0

984903.5473898789 1.3072255509568421e7 0.0
1.3072255509568421e7 -2.37615487107089e7 0.0
0.0 0.0 0.0

-2.7773656766809523e6 2.0888989265941754e7 0.0
2.0888989265941754e7 1.7925222566785786e7 0.0
0.0 0.0 0.0

-187818.27930991724 1.0563484307865404e7 0.0
1.0563484307865404e7 -5.184970195155052e7 0.0
0.0 0.0 0.0

-438785.65421370254 3.802338366695212e7 0.0
3.802338366695212e7 824600.8874024827 0.0
0.0 0.0 0.0

-3.90972742490572e6 2.7198303378797423e7 0.0
2.7198303378797423e7 1.20816424043116e7 0.0
0.0 0.0 0.0

-1.669662768307425e6 1.6139669034549465e7 0.0
1.6139669034549465e7 -4.48659890461306e7 0.0
0.0 0.0 0.0

-3.835227809206266e6 3.2429930207342725e7 0.0
3.2429930207342725e7 7.0004807401486775e6 0.0
0.0 0.0 0.0

-8.507751063807152e6 1.280963233271381e7 0.0
1.280963233271381e7 3.7893025804910235e7 0.0
0.0 0.0 0.0

772971.5563186631 1.2665720018330593e7 0.0
1.2665720018330593e7 -2.023115557844728e7 0.0
0.0 0.0 0.0

3.548806225444779e6 2.6114546966894243e7 0.0
2.6114546966894243e7 1.344273391922932e7 0.0
0.0 0.0 0.0

-2.25639463824083e6 2.9061116943819843e7 0.0
2.9061116943819843e7 9.760982466631956e6 0.0
0.0 0.0 0.0

-2.4737247154947743e6 1.7311240883545037e7 0.0
1.7311240883545037e7 -4.44281808465715e7 0.0
0.0 0.0 0.0

-1.0834966713808333e6 7.172372898070836e7 0.0
7.172372898070836e7 -9.098837690239506e6 0.0
0.0 0.0 0.0

-5.365255396651976e6 2.064176740487755e7 0.0
2.064176740487755e7 2.7312336278666195e7 0.0
0.0 0.0 0.0

-1.5849253763569396e7 2.0989212744653635e7 0.0
2.0989212744653635e7 -7.497690404042101e7 0.0
0.0 0.0 0.0

-5.112960497537558e6 1.2434687515576256e7 0.0
1.2434687515576256e7 1.3975634084662732e7 0.0
0.0 0.0 0.0

-3.064879943097854e6 2.4334972198278133e7 0.0
2.4334972198278133e7 1.4687948731588796e7 0.0
0.0 0.0 0.0

-1.1296283288670927e6 2.074839746709121e7 0.0
2.074839746709121e7 3.97230808531656e7 0.0
0.0 0.0 0.0

-3.3476516068836953e6 1.952226162852498e7 0.0
1.952226162852498e7 1.881444762579452e7 0.0
0.0 0.0 0.0

3.941150712856751e6 1.9494459397882957e7 0.0
1.9494459397882957e7 7.599967588404672e7 0.0
0.0 0.0 0.0

-1.9796858310193373e6 2.437948363157561e7 0.0
2.437948363157561e7 1.419616123255014e7 0.0
0.0 0.0 0.0

-2.4571818957145987e6 2.190461765721346e7 0.0
2.190461765721346e7 -2.940430966609879e7 0.0
0.0 0.0 0.0

1.542560912181138e6 2.551154412028051e7 0.0
2.551154412028051e7 -1.6909714978918254e7 0.0
0.0 0.0 0.0

2.0973982042014524e8 3.7037647378760554e7 0.0
3.7037647378760554e7 2.031279515025588e7 0.0
0.0 0.0 0.0

-6.841971508601198e6 -1.4030956421592375e6 0.0
-1.4030956421592375e6 4.599932481528816e7 0.0
0.0 0.0 0.0

1.9779988861862961e6 1.2843108989795381e6 0.0
1.2843108989795381e6 -4.635742272128144e7 0.0
0.0 0.0 0.0

-1.0143937003830794e7 3.0014288022252363e6 0.0
3.0014288022252363e6 1.719985126022198e7 0.0
0.0 0.0 0.0

-476676.7177731721 3.185967152496691e7 0.0
3.185967152496691e7 -3.6199847164474027e6 0.0
0.0 0.0 0.0

-5.776867369070165e6 -871583.3156336207 0.0
-871583.3156336207 5.9044916523475826e7 0.0
0.0 0.0 0.0

-1.051941275263393e7 2.0090656470683854e7 0.0
2.0090656470683854e7 -4.4664216565859266e7 0.0
0.0 0.0 0.0

-7.462027320048777e6 1.6145463580730822e7 0.0
1.6145463580730822e7 3.2323889014244836e7 0.0
0.0 0.0 0.0

-4.713730850003891e6 2.216131740666049e7 0.0
2.216131740666049e7 2.4011694421007104e7 0.0
0.0 0.0 0.0

1.6422182402546592e6 1.2329008917235832e6 0.0
1.2329008917235832e6 -5.265177567932593e7 0.0
0.0 0.0 0.0

1.238277116675321e6 2.1866724960930154e7 0.0
2.1866724960930154e7 -1.8345582068862665e7 0.0
0.0 0.0 0.0

950240.0046744886 4.855672747515925e7 0.0
4.855672747515925e7 -1.5382414023353965e6 0.0
0.0 0.0 0.0

467208.3723215675 1.3541096034138635e7 0.0
1.3541096034138635e7 -1.875048781382462e7 0.0
0.0 0.0 0.0

-5.17298631931876e6 2.6423274142382048e7 0.0
2.6423274142382048e7 -5.394767762342187e6 0.0
0.0 0.0 0.0

2.2108692324287817e6 1.0121432745614687e7 0.0
1.0121432745614687e7 1.243295484206948e8 0.0
0.0 0.0 0.0

-4.036288493997164e6 9.644914010337751e6 0.0
9.644914010337751e6 -1.2212154305598211e8 0.0
0.0 0.0 0.0

-8.777955131839927e6 2.0018008109138455e7 0.0
2.0018008109138455e7 -1.0386573585801332e8 0.0
0.0 0.0 0.0

1.2757966125273407e6 1.9488977480948742e7 0.0
1.9488977480948742e7 -2.3176731133124456e7 0.0
0.0 0.0 0.0

1.0641766250481792e6 8.016632147772075e6 0.0
8.016632147772075e6 -5.64878758259833e7 0.0
0.0 0.0 0.0

-3.1266001204372086e7 3.4697686334687866e7 0.0
3.4697686334687866e7 988333.9708139077 0.0
0.0 0.0 0.0

2.4887319367020624e6 2.7247747911088504e7 0.0
2.7247747911088504e7 -1.4119152105447233e7 0.0
0.0 0.0 0.0

-6.653068835145468e6 -1.3948130546677106e6 0.0
-1.3948130546677106e6 4.7560012684545174e7 0.0
0.0 0.0 0.0

-6.520768520261367e6 1.5052639131822694e7 0.0
1.5052639131822694e7 1.9496631562796205e7 0.0
0.0 0.0 0.0

-2.33818347301737e6 3.2473382057668097e7 0.0
3.2473382057668097e7 5.706333400929188e6 0.0
0.0 0.0 0.0

-3.2133682096940987e6 2.7011488689374086e7 0.0
2.7011488689374086e7 1.4019730958290001e7 0.0
0.0 0.0 0.0

-6.218295258014551e6 1.8235170390783206e7 0.0
1.8235170390783206e7 2.0295331307696134e7 0.0
0.0 0.0 0.0

-8.676569083899174e6 1.0870043344961865e7 0.0
1.0870043344961865e7 2.0090647792783096e7 0.0
0.0 0.0 0.0

1.0967478650798395e7 2.555821637319688e7 0.0
2.555821637319688e7 7.31829323870266e6 0.0
0.0 0.0 0.0

1.2815193073652177e6 3.013782039443954e7 0.0
3.013782039443954e7 -9.260534130155321e6 0.0
0.0 0.0 0.0

-4.79318592687029e6 7.88589715997179e6 0.0
7.88589715997179e6 3.292375456433272e6 0.0
0.0 0.0 0.0

1.6504374947185656e6 3.4889569889857076e7 0.0
3.4889569889857076e7 -2.90363395918669e6 0.0
0.0 0.0 0.0

-6.545539058513276e6 1.9247786322340585e7 0.0
1.9247786322340585e7 3.038016107054691e7 0.0
0.0 0.0 0.0

-2.621602206522786e6 2.041157329459645e7 0.0
2.041157329459645e7 1.6546306144632947e7 0.0
0.0 0.0 0.0

-6.474673263880029e6 -1.3351709592542432e6 0.0
-1.3351709592542432e6 4.909406093935527e7 0.0
0.0 0.0 0.0

1.7470793021262735e6 1.2842776823970089e6 0.0
1.2842776823970089e6 -4.944929978856754e7 0.0
0.0 0.0 0.0

866401.0710678622 8.388360186067602e6 0.0
8.388360186067602e6 -6.0376146326496534e7 0.0
0.0 0.0 0.0

-8.69949287339026e6 1.5238041470639639e7 0.0
1.5238041470639639e7 3.1013001653338112e7 0.0
0.0 0.0 0.0

-1.7373168917623572e6 5.662678523392248e6 0.0
5.662678523392248e6 -1.063582210518822e8 0.0
0.0 0.0 0.0

-4.235823976655416e6 414824.8719445172 0.0
414824.8719445172 7.757575110538922e7 0.0
0.0 0.0 0.0

1.1257817820338178e6 1.2219232418432534e7 0.0
1.2219232418432534e7 -2.5361542258172162e7 0.0
0.0 0.0 0.0

2.1774499194942657e6 1.0432277530232625e7 0.0
1.0432277530232625e7 -2.8554699723861735e7 0.0
0.0 0.0 0.0

9.361674964575727e6 4.424036208066607e7 0.0
4.424036208066607e7 -3.4234444644912696e6 0.0
0.0 0.0 0.0

-9.192886865260813e6 3.760438569093122e7 0.0
3.760438569093122e7 6.646315593103306e6 0.0
0.0 0.0 0.0

-2.3561798036511005e6 2.825845435452998e7 0.0
2.825845435452998e7 1.109994209354883e7 0.0
0.0 0.0 0.0

2.1130357423788575e6 3.3314382898586735e7 0.0
3.3314382898586735e7 -4.965041590834432e6 0.0
0.0 0.0 0.0

-919748.7849537986 4.492128418197027e7 0.0
4.492128418197027e7 1.3694097421742617e6 0.0
0.0 0.0 0.0

-2.9329306416855813e6 3.0180538298505772e7 0.0
3.0180538298505772e7 1.0329976164935628e7 0.0
0.0 0.0 0.0

1.9393742024987238e6 2.3407474511764143e7 0.0
2.3407474511764143e7 1.5736490517041713e7 0.0
0.0 0.0 0.0

-139066.66949862614 2.778267843396055e6 0.0
2.778267843396055e6 -8.995899807099709e7 0.0
0.0 0.0 0.0

1.4979793294737525e6 1.1672387232165101e6 0.0
1.1672387232165101e6 -5.930628828360609e7 0.0
0.0 0.0 0.0

641067.2758153193 1.6725159270256325e6 0.0
1.6725159270256325e6 -7.758421449955443e7 0.0
0.0 0.0 0.0

-2.2049655286304466e6 3.3011538331783786e7 0.0
3.3011538331783786e7 1.8020421949890899e6 0.0
0.0 0.0 0.0

-6.581271862767236e6 1.3495376706879219e7 0.0
1.3495376706879219e7 1.2117673686682085e7 0.0
0.0 0.0 0.0

-5.4822482335932255e6 -741158.4221370035 0.0
-741158.4221370035 6.077837119651042e7 0.0
0.0 0.0 0.0

-8.641896497601252e6 1.5682310125448328e7 0.0
1.5682310125448328e7 2.867147552900868e7 0.0
0.0 0.0 0.0

2.6394830871261097e6 3.4615236383327567e6 0.0
3.4615236383327567e6 -3.0775863998740397e7 0.0
0.0 0.0 0.0

-1.782667336033239e7 3.413902489738337e7 0.0
3.413902489738337e7 4.709147457300696e6 0.0
0.0 0.0 0.0

-9.986431390835552e6 2.154018599834434e7 0.0
2.154018599834434e7 -3.762925884184388e7 0.0
0.0 0.0 0.0

-7.180930582989048e6 -1.8952886895958881e6 0.0
-1.8952886895958881e6 3.948836040315984e7 0.0
0.0 0.0 0.0

-1.0337780323863132e7 7.461578490437716e6 0.0
7.461578490437716e6 2.76764476650709e7 0.0
0.0 0.0 0.0

-7.664627649264943e6 1.1987412074732939e7 0.0
1.1987412074732939e7 4.403880293095587e7 0.0
0.0 0.0 0.0

-2.5613868683328684e6 2.465761710215281e7 0.0
2.465761710215281e7 2.2898860188334845e7 0.0
0.0 0.0 0.0

525779.2778495494 1.5298378664469298e7 0.0
1.5298378664469298e7 -3.421749732365994e7 0.0
0.0 0.0 0.0

572852.7232957594 2.238966434265073e6 0.0
2.238966434265073e6 -8.524677623339713e7 0.0
0.0 0.0 0.0

2.0336276330199204e6 1.3681111784862778e6 0.0
1.3681111784862778e6 -4.181736231339358e7 0.0
0.0 0.0 0.0

2.0693421721434224e7 4.7509411664479814e7 0.0
4.7509411664479814e7 -7.534686821224458e6 0.0
0.0 0.0 0.0

-4.536089460162781e6 226284.21289207542 0.0
226284.21289207542 7.459028192003146e7 0.0
0.0 0.0 0.0

903034.5609795898 9.9019287726156e6 0.0
9.9019287726156e6 -5.0885808299411796e7 0.0
0.0 0.0 0.0

-3.1037980332188606e6 3.192955863973395e6 0.0
3.192955863973395e6 9.746458697481662e7 0.0
0.0 0.0 0.0

-279457.157450255 3.7474915221755165e6 0.0
3.7474915221755165e6 -9.659787628178404e7 0.0
0.0 0.0 0.0

-4.420302912395411e6 3.1895011084875803e7 0.0
3.1895011084875803e7 1.0057531616376316e7 0.0
0.0 0.0 0.0

-1.6365650859897486e6 1.5129563817805955e7 0.0
1.5129563817805955e7 -7.772758472614824e6 0.0
0.0 0.0 0.0

-181706.22993333265 2.3092935324659802e7 0.0
2.3092935324659802e7 -1.4498125021187142e7 0.0
0.0 0.0 0.0

327997.9555999264 2.1237223866687413e7 0.0
2.1237223866687413e7 -2.5103009133641936e7 0.0
0.0 0.0 0.0

-3.7869629295540825e6 737157.43804596 0.0
737157.43804596 8.115233998258984e7 0.0
0.0 0.0 0.0

456079.92779806256 1.987118405506222e6 0.0
1.987118405506222e6 -8.116229270482653e7 0.0
0.0 0.0 0.0

-5.651298312084369e6 2.0049109786161277e7 0.0
2.0049109786161277e7 3.1200267539182555e7 0.0
0.0 0.0 0.0

-6.963875931921853e6 1.8669332133474305e7 0.0
1.8669332133474305e7 2.9686104885701958e7 0.0
0.0 0.0 0.0

-8.066737550263144e6 1.3801475501201164e7 0.0
1.3801475501201164e7 3.877223633528082e7 0.0
0.0 0.0 0.0

-4.326912701354817e6 1.870774143991082e7 0.0
1.870774143991082e7 2.1056890053635385e7 0.0
0.0 0.0 0.0

7.958521278316753e6 2.214373446593369e7 0.0
2.214373446593369e7 5.214413017324467e7 0.0
0.0 0.0 0.0

2.5611977486295444e6 3.0881168269559175e7 0.0
3.0881168269559175e7 -8.088173463319819e6 0.0
0.0 0.0 0.0

-2.1093364522107104e6 3.540368807882077e7 0.0
3.540368807882077e7 921717.41997611 0.0
0.0 0.0 0.0

2.390923035313806e6 3.280518996316489e7 0.0
3.280518996316489e7 -6.892599121192822e6 0.0
0.0 0.0 0.0

1.9686197060413864e6 1.2289782676739454e7 0.0
1.2289782676739454e7 -2.5366185030887872e7 0.0
0.0 0.0 0.0

-5.09675080631366e6 3.586373053310893e7 0.0
3.586373053310893e7 6.5286756323862905e6 0.0
0.0 0.0 0.0

-3.0413898581333845e6 2.5319553103481825e7 0.0
2.5319553103481825e7 -7.454970921905708e6 0.0
0.0 0.0 0.0

1.3688552227550596e6 1.8014696724214002e7 0.0
1.8014696724214002e7 -2.64590149573517e7 0.0
0.0 0.0 0.0

-5.457427057954691e6 1.7783284180057537e7 0.0
1.7783284180057537e7 3.9447772148697615e7 0.0
0.0 0.0 0.0

-8.226859319556778e6 1.5943635895155009e7 0.0
1.5943635895155009e7 3.197611065663193e7 0.0
0.0 0.0 0.0

1.3320510996165872e6 1.1066914765466113e7 0.0
1.1066914765466113e7 -2.95521554908819e7 0.0
0.0 0.0 0.0

-6.149679993267465e6 -1.1437429089744464e6 0.0
-1.1437429089744464e6 5.389416846701068e7 0.0
0.0 0.0 0.0

1.529387126770202e6 1.249422958039227e6 0.0
1.249422958039227e6 -5.425243608646717e7 0.0
0.0 0.0 0.0

2.1990069247709857e6 2.2502133443143386e7 0.0
2.2502133443143386e7 3.1124993920375947e7 0.0
0.0 0.0 0.0

-4.658956322120156e6 61118.32941082443 0.0
61118.32941082443 7.179742266923268e7 0.0
0.0 0.0 0.0

756705.380506251 1.4846996720715961e6 0.0
1.4846996720715961e6 -7.182440557794675e7 0.0
0.0 0.0 0.0

1.4459943586455658e6 1.3220484236408134e6 0.0
1.3220484236408134e6 -5.584681679252583e7 0.0
0.0 0.0 0.0

-5.982831400254022e6 -1.0057193129294355e6 0.0
-1.0057193129294355e6 5.553544069542596e7 0.0
0.0 0.0 0.0

484461.73393554613 1.953333085429481e7 0.0
1.953333085429481e7 5.203602441331467e7 0.0
0.0 0.0 0.0

987280.2653310411 1.369301461564842e6 0.0
1.369301461564842e6 -6.947592438145703e7 0.0
0.0 0.0 0.0

-4.828159985029623e6 -204428.87472270406 0.0
-204428.87472270406 6.915662638639572e7 0.0
0.0 0.0 0.0

-1.49727969230129e6 2.3887944330606177e7 0.0
2.3887944330606177e7 2.6578693357260745e7 0.0
0.0 0.0 0.0

-6.8029005434095e6 1.7172579285347383e6 0.0
1.7172579285347383e6 4.9134019565512806e7 0.0
0.0 0.0 0.0

-5.872500047743864e6 -896450.4571712597 0.0
-896450.4571712597 5.73072016511217e7 0.0
0.0 0.0 0.0

1.6388045020585954e6 1.2874173526621682e6 0.0
1.2874173526621682e6 -5.764887302504715e7 0.0
0.0 0.0 0.0

1.0483445597099587e6 1.3846703293706442e6 0.0
1.3846703293706442e6 -6.723382771280672e7 0.0
0.0 0.0 0.0

-5.053799511582416e6 -439055.2519182065 0.0
-439055.2519182065 6.683185654604184e7 0.0
0.0 0.0 0.0

-3.669218355631851e8 7.992016829534389e7 0.0
7.992016829534389e7 -4.419644186983223e7 0.0
0.0 0.0 0.0

3.57568974235578e8 7.431667026409157e7 0.0
7.431667026409157e7 3.811991681192094e7 0.0
0.0 0.0 0.0

-6.09149408147983e6 1.880429977173862e7 0.0
1.880429977173862e7 2.148577687654267e7 0.0
0.0 0.0 0.0

935983.6588103548 1.2468139581883966e6 0.0
1.2468139581883966e6 -6.5028963281637125e7 0.0
0.0 0.0 0.0

-5.3494803982502e6 -537148.9711180669 0.0
-537148.9711180669 6.485870352656364e7 0.0
0.0 0.0 0.0

599334.7887086235 2.3533791818702504e7 0.0
2.3533791818702504e7 -1.2749017988226546e6 0.0
0.0 0.0 0.0

-7.817874967111947e6 1.70688590076619e7 0.0
1.70688590076619e7 3.0458489372959066e7 0.0
0.0 0.0 0.0

-2.0794577148411816e6 3.3208454270703968e7 0.0
3.3208454270703968e7 4.632768082877146e6 0.0
0.0 0.0 0.0

2.9901455996330082e6 2.3176328183515772e7 0.0
2.3176328183515772e7 3.2092504992101237e7 0.0
0.0 0.0 0.0

-5.464104234487735e6 -582899.0483982683 0.0
-582899.0483982683 6.283819931551157e7 0.0
0.0 0.0 0.0

1.1958803434789032e6 1.0963805918480773e6 0.0
1.0963805918480773e6 -6.317586669415534e7 0.0
0.0 0.0 0.0

1.2840989972892432e6 3.1082906539035995e7 0.0
3.1082906539035995e7 -8.105074470166274e6 0.0
0.0 0.0 0.0

-1.1786261270311605e7 2.088463673080547e7 0.0
2.088463673080547e7 -7.651137286450768e7 0.0
0.0 0.0 0.0

79237.6853024665 3.5004455577068925e7 0.0
3.5004455577068925e7 -2.761889957121496e6 0.0
0.0 0.0 0.0

1.3022279092124281e6 2.0275132565883636e7 0.0
2.0275132565883636e7 -2.1538408666263733e7 0.0
0.0 0.0 0.0

-40520.93542580679 1.8759753893926922e7 0.0
1.8759753893926922e7 -3.094942810244746e7 0.0
0.0 0.0 0.0

391801.3666857979 2.379780447552047e7 0.0
2.379780447552047e7 8.896978438604606e6 0.0
0.0 0.0 0.0

4.696507452938138e6 3.0928146071785055e7 0.0
3.0928146071785055e7 -9.678234580627685e6 0.0
0.0 0.0 0.0

2.6123821905133342e6 2.8069747577593535e7 0.0
2.8069747577593535e7 -1.2472331883482307e7 0.0
0.0 0.0 0.0

-8.761443191777699e6 1.9469497409522597e7 0.0
1.9469497409522597e7 -5.902556810058847e7 0.0
0.0 0.0 0.0

-1.0140445570370875e6 3.495281398673614e7 0.0
3.495281398673614e7 1.6163639101910964e6 0.0
0.0 0.0 0.0

-2.753744208978897e6 2.7620237347117487e7 0.0
2.7620237347117487e7 1.1916744751303172e7 0.0
0.0 0.0 0.0

-1.0560115493283719e7 2.9145239614294805e7 0.0
2.9145239614294805e7 -1.5463175929916e7 0.0
0.0 0.0 0.0

-398944.45945868455 1.9356272544049647e7 0.0
1.9356272544049647e7 -3.0993671766638495e7 0.0
0.0 0.0 0.0

-8.4692406422077e6 1.614500866937691e7 0.0
1.614500866937691e7 2.629713496015232e7 0.0
0.0 0.0 0.0

4.1120798783132955e6 2.2250521482291475e7 0.0
2.2250521482291475e7 1.681436941599446e7 0.0
0.0 0.0 0.0

-7.462087122202525e6 1.7674520701087058e7 0.0
1.7674520701087058e7 2.5853435836733155e7 0.0
0.0 0.0 0.0

-1.2447723106627045e6 2.3354155996234894e7 0.0
2.3354155996234894e7 -1.9394477376956863e6 0.0
0.0 0.0 0.0

-1.4003137318668333e6 3.447560054678447e7 0.0
3.447560054678447e7 2.7107586196839837e6 0.0
0.0 0.0 0.0

-3.814038745952841e6 1.9595745748110823e7 0.0
1.9595745748110823e7 -3.9998983396875575e7 0.0
0.0 0.0 0.0

-700233.6677344143 2.4011287588093225e7 0.0
2.4011287588093225e7 2.6351231647077568e7 0.0
0.0 0.0 0.0

-1.200703917367445e6 4.619520218397116e7 0.0
4.619520218397116e7 1.921706720804676e6 0.0
0.0 0.0 0.0

-2.0762637266974067e6 2.3908756834985543e7 0.0
2.3908756834985543e7 -2.903862554861131e6 0.0
0.0 0.0 0.0

951410.0709582921 3.2758703483658865e7 0.0
3.2758703483658865e7 -5.827634501135747e6 0.0
0.0 0.0 0.0

2.437937990700149e7 2.954911648473209e7 0.0
2.954911648473209e7 1.6777539893228136e7 0.0
0.0 0.0 0.0

-1.8045904455791393e6 3.388115195861372e7 0.0
3.388115195861372e7 3.622324144769644e6 0.0
0.0 0.0 0.0

-1.0685283127155453e7 1.877802183315542e7 0.0
1.877802183315542e7 -4.680416659137767e6 0.0
0.0 0.0 0.0

-1.196387242238859e6 3.752807922976919e7 0.0
3.752807922976919e7 1.6172055661519393e6 0.0
0.0 0.0 0.0

2.485468553405121e6 1.5792749302406495e6 0.0
1.5792749302406495e6 -3.2590793083752673e7 0.0
0.0 0.0 0.0

2.606575945052838e6 1.6471182544226001e6 0.0
1.6471182544226001e6 -3.12410779872663e7 0.0
0.0 0.0 0.0

1.23018568897562e6 3.195154788937851e7 0.0
3.195154788937851e7 -6.73416539317157e6 0.0
0.0 0.0 0.0

4.593572796430366e6 2.2208641744761687e7 0.0
2.2208641744761687e7 4.292287321891689e7 0.0
0.0 0.0 0.0

-439084.06509251375 3.887547648916214e7 0.0
3.887547648916214e7 940855.6166088642 0.0
0.0 0.0 0.0

-8.316908720403433e6 1.4201005146955254e7 0.0
1.4201005146955254e7 3.610641440241003e7 0.0
0.0 0.0 0.0

-696817.5891229559 4.281352520372745e7 0.0
4.281352520372745e7 1.1709042974519315e6 0.0
0.0 0.0 0.0

-2.271639516822841e6 2.5803688766544323e7 0.0
2.5803688766544323e7 1.5398992652798992e7 0.0
0.0 0.0 0.0

574116.4223490311 2.2157858357606377e7 0.0
2.2157858357606377e7 6.543720816208109e6 0.0
0.0 0.0 0.0

898931.9346798845 1.5013023722572835e7 0.0
1.5013023722572835e7 -3.6220010480590716e7 0.0
0.0 0.0 0.0

-3.3245220461736466e6 3.2987840021753356e7 0.0
3.2987840021753356e7 4.878992667854127e6 0.0
0.0 0.0 0.0

-7.843616988624392e6 -280514.0405349695 0.0
-280514.0405349695 3.568243400604663e7 0.0
0.0 0.0 0.0

415270.32065424696 1.890420883350912e7 0.0
1.890420883350912e7 5.5327828863876715e7 0.0
0.0 0.0 0.0

-7.854277617094984e6 1.9035576609035604e7 0.0
1.9035576609035604e7 -6.630056873387682e7 0.0
0.0 0.0 0.0

-6.9254456740570795e6 1.4929598431353947e7 0.0
1.4929598431353947e7 4.025828901850358e7 0.0
0.0 0.0 0.0

1.0527611223415934e7 3.200243841185572e7 0.0
3.200243841185572e7 -6.259315408155312e6 0.0
0.0 0.0 0.0

1.2633148099532072e6 1.5746465636930164e7 0.0
1.5746465636930164e7 -3.1802691614113066e7 0.0
0.0 0.0 0.0

-2.262285755145073e6 2.3373244896977037e7 0.0
2.3373244896977037e7 -1.6024439883729587e6 0.0
0.0 0.0 0.0

490624.4026929138 3.433728433084406e7 0.0
3.433728433084406e7 -3.741498784939671e6 0.0
0.0 0.0 0.0

-1.1303364450399815e6 2.279459829056678e7 0.0
2.279459829056678e7 -6.559297652999491e6 0.0
0.0 0.0 0.0

-7.875111935960645e6 1.5439068988032538e7 0.0
1.5439068988032538e7 3.1436368795011487e7 0.0
0.0 0.0 0.0

-6.155025976514526e6 1.6925627544886146e7 0.0
1.6925627544886146e7 3.8864640620552264e7 0.0
0.0 0.0 0.0

756291.3451266778 3.3564187683133274e7 0.0
3.3564187683133274e7 -4.798246300239556e6 0.0
0.0 0.0 0.0

-5.441703523164398e6 1.7938917435350373e7 0.0
1.7938917435350373e7 2.3050653013822924e7 0.0
0.0 0.0 0.0

1.6383385207297876e6 4.754173325609984e6 0.0
4.754173325609984e6 -5.3167861584167406e7 0.0
0.0 0.0 0.0

-4.336499960370388e6 2.0895983207178008e7 0.0
2.0895983207178008e7 1.852205869421568e7 0.0
0.0 0.0 0.0

-2.5322643309587445e6 2.2524408612898186e7 0.0
2.2524408612898186e7 -1.4139773604108706e7 0.0
0.0 0.0 0.0

1.19879776083756e6 2.3758615655934446e7 0.0
2.3758615655934446e7 2.338925703971424e6 0.0
0.0 0.0 0.0

-4.849705705660225e6 2.5381992321790077e7 0.0
2.5381992321790077e7 -1.6390396493745044e7 0.0
0.0 0.0 0.0

-1.3971396278766934e6 2.3228447099226635e7 0.0
2.3228447099226635e7 -8.530280363887167e6 0.0
0.0 0.0 0.0

120856.52047438174 1.9417974860249955e7 0.0
1.9417974860249955e7 -2.89267080230633e7 0.0
0.0 0.0 0.0

1.1971627949502636e6 9.460517307787549e6 0.0
9.460517307787549e6 -3.787728711765876e7 0.0
0.0 0.0 0.0

-1.9115646186699853e6 2.2661594714570682e7 0.0
2.2661594714570682e7 -1.0321259695720607e7 0.0
0.0 0.0 0.0

1.099281301743744e6 1.2858807798729023e7 0.0
1.2858807798729023e7 -2.627265288833224e7 0.0
0.0 0.0 0.0

2.8416317061529253e6 3.8163526631503874e6 0.0
3.8163526631503874e6 -2.465007184133385e7 0.0
0.0 0.0 0.0

-2.8497485497268103e6 3.436535475775563e7 0.0
3.436535475775563e7 2.829832252342143e6 0.0
0.0 0.0 0.0

-1.4904193097801742e6 1.5745682553278288e7 0.0
1.5745682553278288e7 -9.551588225914907e6 0.0
0.0 0.0 0.0

-2.2843231741464417e6 2.4760353844554357e7 0.0
2.4760353844554357e7 2.2350784212445814e7 0.0
0.0 0.0 0.0

-8.007943542247929e6 -3.362811329954952e6 0.0
-3.362811329954952e6 2.4286436346101236e7 0.0
0.0 0.0 0.0

6.475524781422889e6 2.562212547498437e7 0.0
2.562212547498437e7 3.9596094163815016e6 0.0
0.0 0.0 0.0

-6.493695381381246e6 2.5576264793934353e7 0.0
2.5576264793934353e7 -1.821919648927438e7 0.0
0.0 0.0 0.0

1.408481694250267e6 1.0093662181379454e7 0.0
1.0093662181379454e7 -3.1159101377750974e7 0.0
0.0 0.0 0.0

-1.3727374006174505e8 2.3776537959279478e7 0.0
2.3776537959279478e7 2.815741736921862e6 0.0
0.0 0.0 0.0

-2.873756217681939e6 2.3249006642851356e7 0.0
2.3249006642851356e7 2.7031560679520328e7 0.0
0.0 0.0 0.0

1.5329975361808734e6 2.3818383458446857e7 0.0
2.3818383458446857e7 -1.8068752382464074e7 0.0
0.0 0.0 0.0

-1.2528433518505627e6 2.106349478896259e7 0.0
2.106349478896259e7 -1.0619408983566426e7 0.0
0.0 0.0 0.0

680985.2409178428 1.7246028191631395e7 0.0
1.7246028191631395e7 -3.2577531627411563e7 0.0
0.0 0.0 0.0

3.0165659753247155e6 2.2885447302788023e7 0.0
2.2885447302788023e7 1.635508616248715e7 0.0
0.0 0.0 0.0

-155949.33313689753 1.5526253307874689e7 0.0
1.5526253307874689e7 -4.145824805614978e7 0.0
0.0 0.0 0.0

3.0758235780427046e6 2.3315783104678374e7 0.0
2.3315783104678374e7 1.911106048766978e7 0.0
0.0 0.0 0.0

563427.879761531 2.133299416415215e7 0.0
2.133299416415215e7 -2.0416015563185792e7 0.0
0.0 0.0 0.0

2.1344700085313786e6 9.826884799089136e6 0.0
9.826884799089136e6 -3.3368432573182806e7 0.0
0.0 0.0 0.0

906236.5387224071 2.3372332945665163e6 0.0
2.3372332945665163e6 -6.155702223417965e7 0.0
0.0 0.0 0.0

8.060169230463692e6 3.434107173549464e7 0.0
3.434107173549464e7 -7.050607018324951e6 0.0
0.0 0.0 0.0

489512.40302289464 1.519740025934311e7 0.0
1.519740025934311e7 -3.8827914629473194e7 0.0
0.0 0.0 0.0

-5.19840250544449e6 3.478054133215967e7 0.0
3.478054133215967e7 7.347904347019515e6 0.0
0.0 0.0 0.0

-1.021391565306313e7 2.755054649032026e7 0.0
2.755054649032026e7 1.7837556024684072e6 0.0
0.0 0.0 0.0

2.0468057791962447e6 9.201095070162026e6 0.0
9.201095070162026e6 -1.4755871261718063e7 0.0
0.0 0.0 0.0

-1.7808967832473922e6 4.753506837001557e7 0.0
4.753506837001557e7 2.3638919473311827e6 0.0
0.0 0.0 0.0

2.060247682369955e6 1.1157253020607824e7 0.0
1.1157253020607824e7 -2.941455125232086e7 0.0
0.0 0.0 0.0

4.73825759995045e6 2.0725775259229958e7 0.0
2.0725775259229958e7 5.7521369092474654e7 0.0
0.0 0.0 0.0

-1.0722151825792207e6 2.4108033741435375e7 0.0
2.4108033741435375e7 2.3523135980302654e6 0.0
0.0 0.0 0.0

-9.527080809650706e6 3.60138711257963e7 0.0
3.60138711257963e7 7.188964014736924e6 0.0
0.0 0.0 0.0

-7.074263453801261e6 1.6903603536981612e7 0.0
1.6903603536981612e7 2.741409440094103e7 0.0
0.0 0.0 0.0

409327.0951463338 1.676412273052417e7 0.0
1.676412273052417e7 -3.259023265694e7 0.0
0.0 0.0 0.0

-3.0746824031517883e6 1.3854358560598522e7 0.0
1.3854358560598522e7 -793852.4900368585 0.0
0.0 0.0 0.0

-376632.3442106012 2.4013265809346966e7 0.0
2.4013265809346966e7 -7.288809625686169e6 0.0
0.0 0.0 0.0

1.9630048669040468e7 2.670431394756278e7 0.0
2.670431394756278e7 6.2514545906184735e6 0.0
0.0 0.0 0.0

1.2911257741600703e6 2.3740909779044893e7 0.0
2.3740909779044893e7 -2.0044197942269057e7 0.0
0.0 0.0 0.0

442763.2809463213 1.0811949075006345e7 0.0
1.0811949075006345e7 -6.825773411275371e6 0.0
0.0 0.0 0.0

210203.11013305373 1.8104185714549396e7 0.0
1.8104185714549396e7 -3.0824913423477273e7 0.0
0.0 0.0 0.0

-7.2688581537135225e6 117074.26173384732 0.0
117074.26173384732 4.3107527122851886e7 0.0
0.0 0.0 0.0

-2.991133162005717e6 2.594772262350776e7 0.0
2.594772262350776e7 1.9404973268265046e7 0.0
0.0 0.0 0.0

-7.348634562375328e6 1.764939386926912e7 0.0
1.764939386926912e7 3.1307874105276573e7 0.0
0.0 0.0 0.0

-2.3072955422668338e7 3.0992626653230425e7 0.0
3.0992626653230425e7 -1.1706598961249698e7 0.0
0.0 0.0 0.0

-8.080944015829219e6 2.005928519344658e7 0.0
2.005928519344658e7 -5.626435365869675e7 0.0
0.0 0.0 0.0

-3.3624854661975093e6 3.111454395746703e7 0.0
3.111454395746703e7 9.922569298045544e6 0.0
0.0 0.0 0.0

-5.452851965196798e6 3.2485228616778117e7 0.0
3.2485228616778117e7 9.167422697255502e6 0.0
0.0 0.0 0.0

4.1423627722740453e6 2.83404506236903e7 0.0
2.83404506236903e7 -1.1881364305757243e7 0.0
0.0 0.0 0.0

-5.655029651089694e6 1.817193222964746e7 0.0
1.817193222964746e7 -5.8007307179689825e7 0.0
0.0 0.0 0.0

-1.3930015270796996e6 2.411827072872742e7 0.0
2.411827072872742e7 2.356881217768112e7 0.0
0.0 0.0 0.0

-5.797901693557814e6 7.822744871131665e6 0.0
7.822744871131665e6 5.783264305606959e7 0.0
0.0 0.0 0.0

2.15063839553144e6 2.615968969595682e6 0.0
2.615968969595682e6 -7.836534612442456e6 0.0
0.0 0.0 0.0

-2.278242769495857e6 2.1408258582204197e7 0.0
2.1408258582204197e7 -2.8617142009243786e7 0.0
0.0 0.0 0.0

4.2880670813389355e6 2.9832063816673167e7 0.0
2.9832063816673167e7 -1.0692918771967256e7 0.0
0.0 0.0 0.0

-1.1400681965196996e6 2.4656919648962256e7 0.0
2.4656919648962256e7 -1.7030516809453839e6 0.0
0.0 0.0 0.0

-675117.6165047758 1.9372568044187013e7 0.0
1.9372568044187013e7 -1.3902089566917421e7 0.0
0.0 0.0 0.0

-1.1966153815281617e7 2.104658071813365e7 0.0
2.104658071813365e7 -4.57778319891384e7 0.0
0.0 0.0 0.0

-7.218334858291041e6 1.6035821653270243e7 0.0
1.6035821653270243e7 3.766453338107241e7 0.0
0.0 0.0 0.0

1.4217403442204243e6 3.870414501090017e7 0.0
3.870414501090017e7 -796660.3924866932 0.0
0.0 0.0 0.0

-3.2645583612201203e7 3.1865778864855934e7 0.0
3.1865778864855934e7 -7.093446459187111e6 0.0
0.0 0.0 0.0

7.028135343297561e6 2.6286889762059815e7 0.0
2.6286889762059815e7 4.299491380381789e6 0.0
0.0 0.0 0.0

1.2045256580587234e6 8.961637929339333e6 0.0
8.961637929339333e6 -1.7445284441069804e7 0.0
0.0 0.0 0.0

-1.3271426757782907e6 2.4091322028173078e7 0.0
2.4091322028173078e7 -446082.50851237075 0.0
0.0 0.0 0.0

-6.678074563111668e6 1.3217646388137655e7 0.0
1.3217646388137655e7 4.554006927975855e7 0.0
0.0 0.0 0.0

-7.269391254191296e6 3.7257195706992485e7 0.0
3.7257195706992485e7 6.26098571161291e6 0.0
0.0 0.0 0.0

-1.9807194926280929e6 2.412705201197204e7 0.0
2.412705201197204e7 2.4191844289559968e7 0.0
0.0 0.0 0.0

-1.5359481184414304e6 3.582601918718365e7 0.0
3.582601918718365e7 34204.432757356495 0.0
0.0 0.0 0.0

610093.2425879054 2.0560891628774147e7 0.0
2.0560891628774147e7 -2.1989290735064987e7 0.0
0.0 0.0 0.0

-5.9196036949222665e6 1.524108744216219e7 0.0
1.524108744216219e7 4.55866413904985e7 0.0
0.0 0.0 0.0

35401.5151328519 2.169527478785706e7 0.0
2.169527478785706e7 -2.496524087874921e7 0.0
0.0 0.0 0.0

-9.574212633322991e6 2.6742111016025737e7 0.0
2.6742111016025737e7 -5.75899088659141e6 0.0
0.0 0.0 0.0

1.3703632704711999e6 3.950938226088781e7 0.0
3.950938226088781e7 -967345.0918091168 0.0
0.0 0.0 0.0

2.264041060083667e6 5.125267473091673e6 0.0
5.125267473091673e6 -2.613550816523754e7 0.0
0.0 0.0 0.0

3.8300769985034554e6 2.7687495982940845e7 0.0
2.7687495982940845e7 -1.0187381692047574e7 0.0
0.0 0.0 0.0

-2.9203910857887976e6 3.106245398382379e7 0.0
3.106245398382379e7 9.045290790582374e6 0.0
0.0 0.0 0.0

-7.736812684983129e6 1.5920643564632472e7 0.0
1.5920643564632472e7 2.894540625670639e7 0.0
0.0 0.0 0.0

-8.354067698710114e6 2.8351649966865696e7 0.0
2.8351649966865696e7 -1.3695220653016381e7 0.0
0.0 0.0 0.0

-6.252276063192181e6 1.801934294367559e7 0.0
1.801934294367559e7 3.6341619603865534e7 0.0
0.0 0.0 0.0

-3.323698949946951e6 7.431213079508249e6 0.0
7.431213079508249e6 5.6649973657558765e6 0.0
0.0 0.0 0.0

-2.5830120628027213e6 3.009543963943625e7 0.0
3.009543963943625e7 9.330021062179234e6 0.0
0.0 0.0 0.0

-8.627572692185394e6 1.4702644319046818e7 0.0
1.4702644319046818e7 3.349919785821951e7 0.0
0.0 0.0 0.0

-3.139106331565832e6 2.4671657523925677e7 0.0
2.4671657523925677e7 1.5815309496680183e7 0.0
0.0 0.0 0.0

7.921040147366941e6 2.174439865303255e7 0.0
2.174439865303255e7 4.592322147048393e7 0.0
0.0 0.0 0.0

-4.2838802450113185e6 1.8105056100025196e7 0.0
1.8105056100025196e7 -5.0674423050412096e7 0.0
0.0 0.0 0.0

-7.989275964784858e6 -3.7931615628446317e6 0.0
-3.7931615628446317e6 2.2514844014667638e7 0.0
0.0 0.0 0.0

1.3972347549118614e7 3.422244061502058e7 0.0
3.422244061502058e7 -5.523056828643829e6 0.0
0.0 0.0 0.0

-7.408817689552354e6 1.3991164006444966e7 0.0
1.3991164006444966e7 3.9461401769854195e7 0.0
0.0 0.0 0.0

63031.891019967385 1.6430449654497901e7 0.0
1.6430449654497901e7 -1.7636804672880378e7 0.0
0.0 0.0 0.0

-1.3315663189847562e6 2.4471551331693307e7 0.0
2.4471551331693307e7 2.0442161361591753e7 0.0
0.0 0.0 0.0

-471709.21701259306 2.2719273274648204e7 0.0
2.2719273274648204e7 -7.720670653276026e6 0.0
0.0 0.0 0.0

-3.3124708633989217e6 2.5252605574554358e7 0.0
2.5252605574554358e7 2.133189908006381e7 0.0
0.0 0.0 0.0

-406425.3278913102 1.3523811605603563e7 0.0
1.3523811605603563e7 -9.029508105207833e6 0.0
0.0 0.0 0.0

-7.327471541582378e6 2.9474791081672076e7 0.0
2.9474791081672076e7 7.88541103198477e6 0.0
0.0 0.0 0.0

-3.1157592187527427e6 2.491591972691704e7 0.0
2.491591972691704e7 1.6778002684710182e7 0.0
0.0 0.0 0.0

3.1931771255969713e6 2.7357977693225328e7 0.0
2.7357977693225328e7 -1.2064302958900074e7 0.0
0.0 0.0 0.0

-3.458157419896431e6 3.147151294611353e7 0.0
3.147151294611353e7 7.202068042611251e6 0.0
0.0 0.0 0.0

-409308.87327336724 3.980202053370545e7 0.0
3.980202053370545e7 1.0601297784903527e6 0.0
0.0 0.0 0.0

-3.588103794602655e6 1.8188574915489726e7 0.0
1.8188574915489726e7 -4.37569514956322e7 0.0
0.0 0.0 0.0

511493.5964127604 2.40834333555198e6 0.0
2.40834333555198e6 -155265.9058043619 0.0
0.0 0.0 0.0

-9.894077064191252e6 1.9544008256793297e6 0.0
1.9544008256793297e6 1.5294040570075631e7 0.0
0.0 0.0 0.0

543783.4517930448 4.452884348288083e6 0.0
4.452884348288083e6 -7.627751070096856e7 0.0
0.0 0.0 0.0

1.509943140988703e6 2.9653509671896778e7 0.0
2.9653509671896778e7 -7.937253222506774e6 0.0
0.0 0.0 0.0

-2.434420005634792e6 2.4017798723523326e7 0.0
2.4017798723523326e7 2.471966274620957e7 0.0
0.0 0.0 0.0

-8.231475545454081e6 1.6377555089841723e7 0.0
1.6377555089841723e7 2.9588729341849066e7 0.0
0.0 0.0 0.0

-2.555387424061873e6 4.9031745193264596e7 0.0
4.9031745193264596e7 2.7426203869440104e6 0.0
0.0 0.0 0.0

-8.125706450688286e6 1.2293964064576592e7 0.0
1.2293964064576592e7 4.0779429097145885e7 0.0
0.0 0.0 0.0

5.8502116864109054e7 8.92068670025486e7 0.0
8.92068670025486e7 -3.268647699064642e6 0.0
0.0 0.0 0.0

1.6428255033164565e6 2.648609896092797e7 0.0
2.648609896092797e7 -1.475400968091193e7 0.0
0.0 0.0 0.0

1.3063636089154202e6 1.8730349613697022e7 0.0
1.8730349613697022e7 -2.478075393766665e7 0.0
0.0 0.0 0.0

-2.6360607151546245e6 2.5346611725119885e7 0.0
2.5346611725119885e7 2.037306029942269e7 0.0
0.0 0.0 0.0

-6.967507399175996e6 1.464433874724562e7 0.0
1.464433874724562e7 4.261551944452569e7 0.0
0.0 0.0 0.0

2.328901592505612e6 2.8887151762042444e7 0.0
2.8887151762042444e7 -1.0620626856203906e7 0.0
0.0 0.0 0.0

1.8352553903935913e6 2.4036319949052602e7 0.0
2.4036319949052602e7 5.839878251746188e6 0.0
0.0 0.0 0.0

1.4285140966016334e6 2.3068405619590417e6 0.0
2.3068405619590417e6 -4.830447347388515e7 0.0
0.0 0.0 0.0

-8.60416998010812e6 1.2032903565954924e7 0.0
1.2032903565954924e7 2.1222328605740793e7 0.0
0.0 0.0 0.0

-4.454320855106587e6 5.320853239967466e7 0.0
5.320853239967466e7 4.408760897352253e6 0.0
0.0 0.0 0.0

-2.577994303795416e6 2.3649329498344794e7 0.0
2.3649329498344794e7 2.6950004819499977e7 0.0
0.0 0.0 0.0

-2.9339667200588854e6 2.2206378773059066e7 0.0
2.2206378773059066e7 -2.3614660100930236e7 0.0
0.0 0.0 0.0

1.1303600770124877e7 2.588056575067877e7 0.0
2.588056575067877e7 1.0549838583989862e7 0.0
0.0 0.0 0.0

-1.0226994008435935e7 7.35396308239856e6 0.0
7.35396308239856e6 2.158200336992628e7 0.0
0.0 0.0 0.0

-5.184226664977612e6 1.4508680430112243e7 0.0
1.4508680430112243e7 9.739913029296994e6 0.0
0.0 0.0 0.0

-3.059596289950391e6 2.2300506141755365e7 0.0
2.2300506141755365e7 -1.79598626353203e7 0.0
0.0 0.0 0.0

421110.63664021157 2.0764364186662436e7 0.0
2.0764364186662436e7 -1.3685482638331337e7 0.0
0.0 0.0 0.0

-4.285974153324238e6 2.291844054573128e7 0.0
2.291844054573128e7 2.2171368261557363e7 0.0
0.0 0.0 0.0

-2.9171025165456254e6 2.100491612486335e7 0.0
2.100491612486335e7 -3.0938487887300335e7 0.0
0.0 0.0 0.0

947345.7651670203 1.5762791152067363e7 0.0
1.5762791152067363e7 -3.417931633133117e7 0.0
0.0 0.0 0.0

-3.838439743017258e6 3.1085701132182367e7 0.0
3.1085701132182367e7 1.0591705144269045e7 0.0
0.0 0.0 0.0

671864.2172948094 2.1280828880873147e7 0.0
2.1280828880873147e7 -2.5209917050366104e7 0.0
0.0 0.0 0.0

-7.100103892418649e6 1.6778912969052266e7 0.0
1.6778912969052266e7 3.3156311183246627e7 0.0
0.0 0.0 0.0

2.973958217626523e6 5.655638186609304e6 0.0
5.655638186609304e6 -1.832020743073492e7 0.0
0.0 0.0 0.0

-4.4671007209294476e7 3.952596572449959e7 0.0
3.952596572449959e7 -1.932881000138642e7 0.0
0.0 0.0 0.0

946776.8888996607 8.311557370192897e6 0.0
8.311557370192897e6 -1.3432887639875557e7 0.0
0.0 0.0 0.0

3.1956172045886274e6 2.3210851937306495e6 0.0
2.3210851937306495e6 -1.7980157408831403e7 0.0
0.0 0.0 0.0

-5.894198642310478e6 3.2209925253637385e7 0.0
3.2209925253637385e7 9.619600900893254e6 0.0
0.0 0.0 0.0

2.8838953399319495e6 2.2645120401514478e7 0.0
2.2645120401514478e7 9.6129849982437e6 0.0
0.0 0.0 0.0

7.481627403522932e6 2.7101749311967604e7 0.0
2.7101749311967604e7 -1.1220347214481095e6 0.0
0.0 0.0 0.0

-1.7662579901511874e6 2.1214438904438604e7 0.0
2.1214438904438604e7 3.720281603270394e7 0.0
0.0 0.0 0.0

1.0804570890347604e6 2.1484375081979662e7 0.0
2.1484375081979662e7 4.156777725720087e7 0.0
0.0 0.0 0.0

1.7071984089369666e7 2.1390686925567847e7 0.0
2.1390686925567847e7 7.55406998418623e7 0.0
0.0 0.0 0.0

86774.95024163183 2.2689373756215096e7 0.0
2.2689373756215096e7 -5.077078636230471e6 0.0
0.0 0.0 0.0

-2.856576368912494e6 2.5202902877211906e7 0.0
2.5202902877211906e7 2.1240179806433097e7 0.0
0.0 0.0 0.0

-3.6798790367171615e6 2.175176978315763e7 0.0
2.175176978315763e7 1.6354697097593611e7 0.0
0.0 0.0 0.0

-3.5301966761895223e6 2.209622172141556e7 0.0
2.209622172141556e7 -2.182131126233921e7 0.0
0.0 0.0 0.0

-3.896737249319095e6 3.1657457961610913e7 0.0
3.1657457961610913e7 8.083291050978284e6 0.0
0.0 0.0 0.0

-7.488660221288588e6 1.4761121558909727e7 0.0
1.4761121558909727e7 3.957494471580185e7 0.0
0.0 0.0 0.0

1.9770769502822146e7 3.213242565861788e7 0.0
3.213242565861788e7 -3.0882621016439404e6 0.0
0.0 0.0 0.0

2.1104589577018125e6 2.7146038788330313e7 0.0
2.7146038788330313e7 -1.3285750521226302e7 0.0
0.0 0.0 0.0

1.5876723711704072e6 7.730576573692165e6 0.0
7.730576573692165e6 -3.105794534656561e7 0.0
0.0 0.0 0.0

8.122237625114741e6 2.9545483736190204e7 0.0
2.9545483736190204e7 -7.485462074205927e6 0.0
0.0 0.0 0.0

427561.7562653959 3.426652058985562e7 0.0
3.426652058985562e7 -1.2858310550633494e6 0.0
0.0 0.0 0.0

-1.0656944137561092e7 2.26488354209366e7 0.0
2.26488354209366e7 -3.552315601714406e7 0.0
0.0 0.0 0.0

1.175066830531524e7 2.3743584586780217e7 0.0
2.3743584586780217e7 3.91689044848199e7 0.0
0.0 0.0 0.0

-6.238322688565854e6 1.3173773859399508e6 0.0
1.3173773859399508e6 5.592312454246955e7 0.0
0.0 0.0 0.0

2.956602773863035e6 2.5956789383013647e7 0.0
2.5956789383013647e7 8.940502976554168e6 0.0
0.0 0.0 0.0

-6.990888526939414e6 413302.94966854574 0.0
413302.94966854574 4.592222426645142e7 0.0
0.0 0.0 0.0

2.36210720012427e6 3.511122874216282e7 0.0
3.511122874216282e7 -3.6286974212572277e6 0.0
0.0 0.0 0.0

7.636274798727443e6 3.2955289863697655e7 0.0
3.2955289863697655e7 -7.591588176367653e6 0.0
0.0 0.0 0.0

-3.5592047803372284e6 5.084232682043469e7 0.0
5.084232682043469e7 2.993213488975292e6 0.0
0.0 0.0 0.0

1.3172910665498396e7 2.2987439077692192e7 0.0
2.2987439077692192e7 9.467888066035025e6 0.0
0.0 0.0 0.0

-7.0964392323447205e6 1.3601290901666375e7 0.0
1.3601290901666375e7 4.2404139326261885e7 0.0
0.0 0.0 0.0

1.9257651068665474e6 3.585244016388685e7 0.0
3.585244016388685e7 -2.55348669822186e6 0.0
0.0 0.0 0.0

-3.0939630816237703e6 2.587138835673335e7 0.0
2.587138835673335e7 1.4950074005980097e7 0.0
0.0 0.0 0.0

-3.1046685953214597e6 2.9687190790887825e7 0.0
2.9687190790887825e7 8.701336736912383e6 0.0
0.0 0.0 0.0

468470.1950832978 1.045293749594426e7 0.0
1.045293749594426e7 -5.4683983791572966e7 0.0
0.0 0.0 0.0

-4.301296286044225e6 3.0877683636901297e7 0.0
3.0877683636901297e7 1.134342761914708e7 0.0
0.0 0.0 0.0

2.176578103045956e7 1.958409874072944e7 0.0
1.958409874072944e7 5.392466527752247e6 0.0
0.0 0.0 0.0

1.2884964006980844e6 1.6526371698296687e7 0.0
1.6526371698296687e7 -2.997205818483003e7 0.0
0.0 0.0 0.0

-4.257353873371746e6 4.156947875463567e6 0.0
4.156947875463567e6 7.80334880859508e7 0.0
0.0 0.0 0.0

-453239.41681387863 3.715744575095618e7 0.0
3.715744575095618e7 839711.6514906876 0.0
0.0 0.0 0.0

5.235996302675406e6 2.628081682262068e7 0.0
2.628081682262068e7 8.94297678727112e6 0.0
0.0 0.0 0.0

-1.1463168795970374e8 1.0858414734264767e8 0.0
1.0858414734264767e8 -9.99192869080165e6 0.0
0.0 0.0 0.0

2.3697283204471115e6 4.014379146133126e6 0.0
4.014379146133126e6 -2.4960078298730433e7 0.0
0.0 0.0 0.0

-1.2197043400865514e6 2.537326515620256e7 0.0
2.537326515620256e7 -262421.6826554885 0.0
0.0 0.0 0.0

-2.0767284722794052e7 3.316498051747069e7 0.0
3.316498051747069e7 2.562924940061668e6 0.0
0.0 0.0 0.0

-287801.12173352577 2.4744769303182475e7 0.0
2.4744769303182475e7 -1.7553984562569957e7 0.0
0.0 0.0 0.0

1.8168647385899117e6 2.6373253210191935e7 0.0
2.6373253210191935e7 -1.5323077714299599e7 0.0
0.0 0.0 0.0

1.6023445209059311e7 2.785671188667639e7 0.0
2.785671188667639e7 3.0219879010701175e6 0.0
0.0 0.0 0.0

-3.993682838173894e6 4.255006774326443e7 0.0
4.255006774326443e7 3.4137483028845303e6 0.0
0.0 0.0 0.0

-5.358937466663824e6 2.5737096335179716e7 0.0
2.5737096335179716e7 -1.6125229603001075e7 0.0
0.0 0.0 0.0

1.3616379932191744e6 5.643857554907381e6 0.0
5.643857554907381e6 -5.844364558301215e7 0.0
0.0 0.0 0.0

-4.156919244513575e7 3.577832516297847e7 0.0
3.577832516297847e7 -1.2626461858543506e7 0.0
0.0 0.0 0.0

-2.283543880353988e6 2.5042422174072903e7 0.0
2.5042422174072903e7 1.6388776458090663e7 0.0
0.0 0.0 0.0

7.089198447749022e6 3.1696869216502853e7 0.0
3.1696869216502853e7 -8.1816497998214485e6 0.0
0.0 0.0 0.0

3.892373388816148e6 2.09377618458743e7 0.0
2.09377618458743e7 5.409596113436581e7 0.0
0.0 0.0 0.0

2.0923892514226124e7 3.037545627514429e7 0.0
3.037545627514429e7 -1.218620608049714e6 0.0
0.0 0.0 0.0

-3.9310131533081206e6 2.855656740412658e7 0.0
2.855656740412658e7 1.4562444151191588e7 0.0
0.0 0.0 0.0

-214598.8713177899 2.17520837851004e7 0.0
2.17520837851004e7 -1.5301325387570556e7 0.0
0.0 0.0 0.0

1.17848936317654e7 1.3140019822045999e7 0.0
1.3140019822045999e7 4.357565447557133e6 0.0
0.0 0.0 0.0

4.8217656993179675e6 2.775710085680022e7 0.0
2.775710085680022e7 -8.191871980328333e6 0.0
0.0 0.0 0.0

-2.4491700372437686e6 2.2597282201361373e7 0.0
2.2597282201361373e7 3.092554772592736e7 0.0
0.0 0.0 0.0

-2.6572149366797693e6 7.979273575755904e6 0.0
7.979273575755904e6 8.154042530319163e7 0.0
0.0 0.0 0.0

-3.95007640251093e6 1.9603628396494542e6 0.0
1.9603628396494542e6 8.525832548494783e7 0.0
0.0 0.0 0.0

-13343.576962963678 2.4349002658694275e7 0.0
2.4349002658694275e7 -1.3544578297511838e7 0.0
0.0 0.0 0.0

1.4715747356244326e6 2.593897589741585e7 0.0
2.593897589741585e7 -1.4540457986347312e7 0.0
0.0 0.0 0.0

2.000674963093252e6 2.6296422458613668e7 0.0
2.6296422458613668e7 -1.5418635418816365e7 0.0
0.0 0.0 0.0

-1.745570799923258e7 2.897999659212043e7 0.0
2.897999659212043e7 -5.273330736131273e6 0.0
0.0 0.0 0.0

2.849476094151543e7 2.7327151268460765e7 0.0
2.7327151268460765e7 1.5887454561568953e7 0.0
0.0 0.0 0.0

-3.330730996724272e6 2.3914234784142595e7 0.0
2.3914234784142595e7 2.523159174354821e7 0.0
0.0 0.0 0.0

2.2408805954276705e6 2.6203523659281418e7 0.0
2.6203523659281418e7 -1.5278511670726549e7 0.0
0.0 0.0 0.0

-709596.131644763 2.06554361587838e7 0.0
2.06554361587838e7 -1.3392126347752078e7 0.0
0.0 0.0 0.0

-8.400620181384826e6 -302416.25116931804 0.0
-302416.25116931804 3.1128770548243802e7 0.0
0.0 0.0 0.0

-1.4022367752266582e6 1.6733942194386758e7 0.0
1.6733942194386758e7 -4.17953840764345e7 0.0
0.0 0.0 0.0

-7.946733607784348e6 3.051972594373803e6 0.0
3.051972594373803e6 4.409206190441315e7 0.0
0.0 0.0 0.0

-7.4486933072533235e6 -2.1548002784772385e6 0.0
-2.1548002784772385e6 3.499447668027092e7 0.0
0.0 0.0 0.0

-7.5309629551258795e6 -2.374434264349873e6 0.0
-2.374434264349873e6 3.395022586357411e7 0.0
0.0 0.0 0.0

-4.1692577143285396e6 1.4238683438063504e7 0.0
1.4238683438063504e7 1.3291844876536082e7 0.0
0.0 0.0 0.0

647650.9433078663 1.9769946007839914e7 0.0
1.9769946007839914e7 -2.3623128836515494e7 0.0
0.0 0.0 0.0

-738704.6964263096 1.6594189658927735e7 0.0
1.6594189658927735e7 -4.15706502483736e7 0.0
0.0 0.0 0.0

-2.146094528879927e6 2.4319968437703405e7 0.0
2.4319968437703405e7 -6.804118683646453e6 0.0
0.0 0.0 0.0

5.012800758735318e6 2.7908998211485356e7 0.0
2.7908998211485356e7 -1.012903349256667e7 0.0
0.0 0.0 0.0

8.03074292829659e6 2.6822465381735783e7 0.0
2.6822465381735783e7 1.9884617955860817e6 0.0
0.0 0.0 0.0

1.1079273094381238e6 3.2317321657310482e7 0.0
3.2317321657310482e7 -4.4218249569191e6 0.0
0.0 0.0 0.0

7.825794102941829e7 3.4900873768677436e7 0.0
3.4900873768677436e7 1.1950763149654819e7 0.0
0.0 0.0 0.0

1.2560186158376288e7 1.7978188030896883e7 0.0
1.7978188030896883e7 1.1132214217385748e7 0.0
0.0 0.0 0.0

6.636332529507786e6 2.7446255815037504e7 0.0
2.7446255815037504e7 -3.768849292381042e6 0.0
0.0 0.0 0.0

8.624098744208321e6 3.3244715096303467e7 0.0
3.3244715096303467e7 -7.138548259963535e6 0.0
0.0 0.0 0.0

851925.0933705368 3.7006873404248714e7 0.0
3.7006873404248714e7 -798790.8816449918 0.0
0.0 0.0 0.0

682485.858641345 2.2402805492320236e7 0.0
2.2402805492320236e7 -2.3480263888352994e7 0.0
0.0 0.0 0.0

-2.3536939606523577e7 3.2081136644248575e7 0.0
3.2081136644248575e7 -643017.2037517028 0.0
0.0 0.0 0.0

-6.99718600543781e6 3.2866579921886936e7 0.0
3.2866579921886936e7 8.956753069120347e6 0.0
0.0 0.0 0.0

2.693289629666103e6 1.6169315809385492e6 0.0
1.6169315809385492e6 -2.863418427591514e7 0.0
0.0 0.0 0.0

-107286.4163724723 3.4058137810395576e7 0.0
3.4058137810395576e7 -2.928049957414863e6 0.0
0.0 0.0 0.0

-7.214793333400254e6 5.531000150923149e7 0.0
5.531000150923149e7 4.804382665625296e6 0.0
0.0 0.0 0.0

-3.3923474601864065e6 1.926986290345429e7 0.0
1.926986290345429e7 -9.529592025649432e6 0.0
0.0 0.0 0.0

1.0162197021474186e6 1.652253364339735e7 0.0
1.652253364339735e7 -3.2209046308190785e7 0.0
0.0 0.0 0.0

-117944.1082976535 1.6114653270486383e7 0.0
1.6114653270486383e7 -3.922091730617744e7 0.0
0.0 0.0 0.0

-1.6798780225567222e6 1.7763308085320625e7 0.0
1.7763308085320625e7 -4.158098997952706e7 0.0
0.0 0.0 0.0

1.800241981939444e7 4.870195807359437e7 0.0
4.870195807359437e7 -5.013757623495214e6 0.0
0.0 0.0 0.0

2.279836173738635e6 2.5976607612928458e7 0.0
2.5976607612928458e7 -1.5062953675438501e7 0.0
0.0 0.0 0.0

9.40535197840986e6 2.2496317492668428e7 0.0
2.2496317492668428e7 4.696000784731545e7 0.0
0.0 0.0 0.0

-2.995959054996884e7 2.5966607262030452e7 0.0
2.5966607262030452e7 1.085466757498756e6 0.0
0.0 0.0 0.0

-8.28527305030841e7 4.383926652077591e7 0.0
4.383926652077591e7 -1.1663517093566263e7 0.0
0.0 0.0 0.0

591406.610261403 7.348800955517625e6 0.0
7.348800955517625e6 -7.416051680287872e7 0.0
0.0 0.0 0.0

5.480704774562169e6 2.7738862879449524e7 0.0
2.7738862879449524e7 -6.151185917482914e6 0.0
0.0 0.0 0.0

7.729062250787227e6 3.066523553841259e7 0.0
3.066523553841259e7 -7.931534568506751e6 0.0
0.0 0.0 0.0

2.7355648663281705e6 1.747856163006803e6 0.0
1.747856163006803e6 -2.6915034705803946e7 0.0
0.0 0.0 0.0

-2.3261174202710498e7 3.0073027589164644e7 0.0
3.0073027589164644e7 -8.504631327892665e6 0.0
0.0 0.0 0.0

1.291965842786097e6 2.2727129782077342e7 0.0
2.2727129782077342e7 2.8937080568567734e7 0.0
0.0 0.0 0.0

1.2418008214705458e7 2.2080786943599593e7 0.0
2.2080786943599593e7 1.5619398472871736e7 0.0
0.0 0.0 0.0

-7.731876234677061e6 -2.421092549133201e6 0.0
-2.421092549133201e6 2.938375268254275e7 0.0
0.0 0.0 0.0

215629.28772881255 1.9985522867951334e7 0.0
1.9985522867951334e7 -2.898140059551014e7 0.0
0.0 0.0 0.0

1.2467520464246292e6 1.1998782676210811e7 0.0
1.1998782676210811e7 -2.794149465560374e7 0.0
0.0 0.0 0.0

248389.3633062744 1.0283174741546907e7 0.0
1.0283174741546907e7 -5.266402881573868e6 0.0
0.0 0.0 0.0

-8.630815402972488e6 -2.195559319482531e6 0.0
-2.195559319482531e6 2.612236696456173e7 0.0
0.0 0.0 0.0

9.86107476060509e6 2.223576869363464e7 0.0
2.223576869363464e7 1.037537064637439e8 0.0
0.0 0.0 0.0

-6.417647791299794e6 6.89256212165751e6 0.0
6.89256212165751e6 5.633044554077421e7 0.0
0.0 0.0 0.0

5.887974903754731e6 3.8644380437035576e7 0.0
3.8644380437035576e7 -3.988013421347685e6 0.0
0.0 0.0 0.0

-1.3669509263740857e6 2.477704173837564e7 0.0
2.477704173837564e7 999813.449044217 0.0
0.0 0.0 0.0

-3.4861694376662523e6 2.193310182023372e7 0.0
2.193310182023372e7 -1.6050148836569354e7 0.0
0.0 0.0 0.0

4.855889449865692e6 3.033497185137333e7 0.0
3.033497185137333e7 -9.850254661741635e6 0.0
0.0 0.0 0.0

-4.288261569735155e6 3.173473408808253e7 0.0
3.173473408808253e7 8.92775538882102e6 0.0
0.0 0.0 0.0

1.122122406794265e7 5.734598192255039e7 0.0
5.734598192255039e7 -793484.994326612 0.0
0.0 0.0 0.0

2.613134227219371e6 4.398409032405177e6 0.0
4.398409032405177e6 -1.381239012863444e7 0.0
0.0 0.0 0.0

-8.57937814748761e6 -250179.46191566376 0.0
-250179.46191566376 3.1709704336758852e7 0.0
0.0 0.0 0.0

-108797.30007586279 2.3178703073169027e7 0.0
2.3178703073169027e7 3.1190263448335687e6 0.0
0.0 0.0 0.0

-1.1448405364723904e7 3.3627139606854804e7 0.0
3.3627139606854804e7 6.877687653854671e6 0.0
0.0 0.0 0.0

843019.3927062862 2.237086044243944e7 0.0
2.237086044243944e7 3.2670670202358816e7 0.0
0.0 0.0 0.0

-7.463060992737755e6 1.5709162010032762e7 0.0
1.5709162010032762e7 3.48458801441001e7 0.0
0.0 0.0 0.0

809365.2113519609 1.798299488498818e7 0.0
1.798299488498818e7 -3.064975831937166e7 0.0
0.0 0.0 0.0

-2.2152102251717922e8 3.718904586593335e7 0.0
3.718904586593335e7 -1.8939836034757547e7 0.0
0.0 0.0 0.0

-7.785060019962847e6 1.4435455829592163e7 0.0
1.4435455829592163e7 3.672580605964463e7 0.0
0.0 0.0 0.0

-9.685956460739e6 3.360557121694766e7 0.0
3.360557121694766e7 7.58865870143066e6 0.0
0.0 0.0 0.0

410546.62957679294 2.1799495985582896e7 0.0
2.1799495985582896e7 -2.515752361823997e7 0.0
0.0 0.0 0.0

-2.9618717862950433e6 1.8648951460418012e7 0.0
1.8648951460418012e7 -4.0741874409465805e7 0.0
0.0 0.0 0.0

8.687237259827211e6 5.400853243042282e7 0.0
5.400853243042282e7 -553544.5936047994 0.0
0.0 0.0 0.0

-3.3117963890984748e6 1.975671283692205e7 0.0
1.975671283692205e7 -3.701590994304367e7 0.0
0.0 0.0 0.0

2.170585297426508e6 2.5725532134600352e7 0.0
2.5725532134600352e7 -1.4520679417385757e7 0.0
0.0 0.0 0.0

1.2848995881402e6 2.366567243109842e7 0.0
2.366567243109842e7 6.17880648374867e6 0.0
0.0 0.0 0.0

3.449876916837709e6 4.368146281680839e7 0.0
4.368146281680839e7 -687936.6022112027 0.0
0.0 0.0 0.0

-1.3496484561301103e7 3.3367558828828253e7 0.0
3.3367558828828253e7 5.800032195020201e6 0.0
0.0 0.0 0.0

614597.8278325349 1.9362491328385927e7 0.0
1.9362491328385927e7 -2.886521690209878e7 0.0
0.0 0.0 0.0

1.7064877177125523e6 2.547044516370367e7 0.0
2.547044516370367e7 -1.594176270888452e7 0.0
0.0 0.0 0.0

-2.437745148935995e6 3.24230311250609e7 0.0
3.24230311250609e7 2.8676004099032804e6 0.0
0.0 0.0 0.0

-8.213192821158735e6 3.3307985879140526e7 0.0
3.3307985879140526e7 8.267243685002951e6 0.0
0.0 0.0 0.0

-6.813150966516793e6 -1.583341127446249e6 0.0
-1.583341127446249e6 4.4721382255783245e7 0.0
0.0 0.0 0.0

-3.654248760893084e6 2.2418282891258772e7 0.0
2.2418282891258772e7 2.4424276689269155e7 0.0
0.0 0.0 0.0

-3.5720321463907724e6 2.0619425627588794e7 0.0
2.0619425627588794e7 -3.340980027327511e7 0.0
0.0 0.0 0.0

2.788986578200239e7 2.6387320050451063e7 0.0
2.6387320050451063e7 6.578796824570519e6 0.0
0.0 0.0 0.0

-370445.4504977502 2.043392257210187e7 0.0
2.043392257210187e7 -2.905878077054052e7 0.0
0.0 0.0 0.0

-510838.01652325253 2.4593986426470667e7 0.0
2.4593986426470667e7 -3.1733066933949515e6 0.0
0.0 0.0 0.0

-7.077911438882882e6 1.2107806892326174e7 0.0
1.2107806892326174e7 4.473834506388604e7 0.0
0.0 0.0 0.0

-9.033528226560304e6 2.635073362777455e7 0.0
2.635073362777455e7 -1.721168505691772e7 0.0
0.0 0.0 0.0

-2.1901247516916455e6 2.2133703836145516e7 0.0
2.2133703836145516e7 -8.343061369123146e6 0.0
0.0 0.0 0.0

152513.64603974763 2.5300777262215663e7 0.0
2.5300777262215663e7 -1.477553675197305e7 0.0
0.0 0.0 0.0

-1.673716384936849e7 6.0934486519302875e7 0.0
6.0934486519302875e7 7.685174756668821e6 0.0
0.0 0.0 0.0

-6.545160560191514e7 2.113751836527825e7 0.0
2.113751836527825e7 2.306997338343423e6 0.0
0.0 0.0 0.0

5.666533350643842e6 3.993243028628043e7 0.0
3.993243028628043e7 -4.680197510077914e6 0.0
0.0 0.0 0.0

-1.0709023820034012e7 5.7939183932940364e7 0.0
5.7939183932940364e7 6.353941682498785e6 0.0
0.0 0.0 0.0

3.841173583170413e7 7.60010840604227e7 0.0
7.60010840604227e7 -1.364024553538071e6 0.0
0.0 0.0 0.0

-1.828080350862328e6 1.8152025233105313e7 0.0
1.8152025233105313e7 -3.857772580146959e7 0.0
0.0 0.0 0.0

-1.2210968044492038e7 2.061744510737554e7 0.0
2.061744510737554e7 -4.4590622354609266e7 0.0
0.0 0.0 0.0

-4.921030106493365e6 3.0405366030739814e7 0.0
3.0405366030739814e7 1.1377576017989231e7 0.0
0.0 0.0 0.0

-7.835648672920508e6 1.5164852347569862e7 0.0
1.5164852347569862e7 3.692221518534623e7 0.0
0.0 0.0 0.0

-1.3946093463758461e7 2.9524628096167546e7 0.0
2.9524628096167546e7 2.704541512096761e6 0.0
0.0 0.0 0.0

2.069168997635361e6 2.4083597891259853e7 0.0
2.4083597891259853e7 1.0532413611046478e7 0.0
0.0 0.0 0.0

248270.28294495586 2.2793475385224625e7 0.0
2.2793475385224625e7 -1.1630029020256815e7 0.0
0.0 0.0 0.0

1.4260112754097514e7 6.141699841588739e7 0.0
6.141699841588739e7 -1.2511778480015304e6 0.0
0.0 0.0 0.0

4.65012036336638e6 2.923830553282214e7 0.0
2.923830553282214e7 -1.0727796262983814e7 0.0
0.0 0.0 0.0

4.703663833094223e6 2.5530589330378536e7 0.0
2.5530589330378536e7 -3.433135355231096e6 0.0
0.0 0.0 0.0

1.6181788455930874e6 1.1929484508485948e6 0.0
1.1929484508485948e6 -5.093079924343137e7 0.0
0.0 0.0 0.0

-4.745214555330154e6 3.165950669774945e7 0.0
3.165950669774945e7 9.668094271465493e6 0.0
0.0 0.0 0.0

-1.629892917677151e6 2.341223058226712e7 0.0
2.341223058226712e7 7.078192587100886e6 0.0
0.0 0.0 0.0

1.2450027870025365e6 1.5041872149715254e7 0.0
1.5041872149715254e7 -1.820809619900096e7 0.0
0.0 0.0 0.0

-2.771165820016289e6 1.8864022370671067e7 0.0
1.8864022370671067e7 -4.110248506720706e7 0.0
0.0 0.0 0.0

-1.609385016045995e6 2.512628929794302e7 0.0
2.512628929794302e7 2.224983455429956e7 0.0
0.0 0.0 0.0

6957.892880376428 2.176109481808122e7 0.0
2.176109481808122e7 3.619326711328362e7 0.0
0.0 0.0 0.0

-1.3382631286345087e6 2.185988927778126e7 0.0
2.185988927778126e7 -5.645198817920081e6 0.0
0.0 0.0 0.0

9.081719676359031e6 3.20549926916378e7 0.0
3.20549926916378e7 -7.013596769357873e6 0.0
0.0 0.0 0.0

-3.837688642220577e6 3.0196872003555328e7 0.0
3.0196872003555328e7 1.181397762230672e7 0.0
0.0 0.0 0.0

-4.583157016404171e6 4.443537368969109e6 0.0
4.443537368969109e6 6.990269313672376e7 0.0
0.0 0.0 0.0

-3.2385100515966327e6 1.5273453944723632e7 0.0
1.5273453944723632e7 1.092687332560856e7 0.0
0.0 0.0 0.0

-246440.18224189198 2.314984481397407e7 0.0
2.314984481397407e7 -7.726727311279367e6 0.0
0.0 0.0 0.0

-6.736627434177001e6 3.1735382193313736e7 0.0
3.1735382193313736e7 9.923656676658992e6 0.0
0.0 0.0 0.0

-2.682484474121657e6 2.557969873113485e7 0.0
2.557969873113485e7 1.822694122797963e7 0.0
0.0 0.0 0.0

1.6928152216255404e6 1.527514961522735e7 0.0
1.527514961522735e7 -2.6234043384687345e7 0.0
0.0 0.0 0.0

-1.0692331377485283e6 3.582623923895372e7 0.0
3.582623923895372e7 1.590100394626643e6 0.0
0.0 0.0 0.0

4.391314229350168e6 4.609674759817688e7 0.0
4.609674759817688e7 -772494.5061640299 0.0
0.0 0.0 0.0

-1.7079456583823422e6 2.7700656461089972e7 0.0
2.7700656461089972e7 7.290348283087627e6 0.0
0.0 0.0 0.0

1.1850749037533365e6 1.7986101165602487e7 0.0
1.7986101165602487e7 -2.8438132939265456e7 0.0
0.0 0.0 0.0

-254658.17042494827 3.653052817240608e7 0.0
3.653052817240608e7 -1.5465420047105073e6 0.0
0.0 0.0 0.0

5.819838767284596e6 3.140527819626194e7 0.0
3.140527819626194e7 -8.94809691854431e6 0.0
0.0 0.0 0.0

3.5225598646175023e6 2.2237720313023172e7 0.0
2.2237720313023172e7 4.0416577347197264e7 0.0
0.0 0.0 0.0

-1.7605630245090676e6 2.6797275925186824e7 0.0
2.6797275925186824e7 8.826725210350728e6 0.0
0.0 0.0 0.0

-5.590972136430025e6 3.446920509978276e7 0.0
3.446920509978276e7 6.879892226319989e6 0.0
0.0 0.0 0.0

-6.300375034410641e6 2.150157871453532e6 0.0
2.150157871453532e6 5.537536205175266e7 0.0
0.0 0.0 0.0

3.7892719557324904e6 4.4789111873494916e7 0.0
4.4789111873494916e7 -673948.6618002891 0.0
0.0 0.0 0.0

1.6739492893602196e6 1.2402724041786494e6 0.0
1.2402724041786494e6 -4.948299133775509e7 0.0
0.0 0.0 0.0

1.3367815311098692e6 3.367307527206938e7 0.0
3.367307527206938e7 -5.546457516960928e6 0.0
0.0 0.0 0.0

-6.599648339057494e6 86260.81645720992 0.0
86260.81645720992 4.8994395593957484e7 0.0
0.0 0.0 0.0

-2.272772198485028e6 2.143018251482089e7 0.0
2.143018251482089e7 -6.056832288240957e6 0.0
0.0 0.0 0.0

-1.323290349155875e7 3.1611795346874263e7 0.0
3.1611795346874263e7 4.176845232941012e6 0.0
0.0 0.0 0.0

-3.3916415302424002e6 2.5748042365222823e7 0.0
2.5748042365222823e7 -4.979371556938255e6 0.0
0.0 0.0 0.0

-5.908924626175206e6 2.5781647610217415e7 0.0
2.5781647610217415e7 -7.974105095810728e6 0.0
0.0 0.0 0.0

-2.654050556266577e6 2.335343214173305e7 0.0
2.335343214173305e7 -2.3048202064473428e7 0.0
0.0 0.0 0.0

-6.517517732484201e6 1.6848789333522953e7 0.0
1.6848789333522953e7 3.8315303254555464e7 0.0
0.0 0.0 0.0

3.077349380145587e6 2.462525571484547e7 0.0
2.462525571484547e7 1.3464622365230236e7 0.0
0.0 0.0 0.0

1.9862995239726268e6 9.839410649519065e6 0.0
9.839410649519065e6 -3.5306026478999585e7 0.0
0.0 0.0 0.0

5.891440265170001e6 2.2752600645375933e7 0.0
2.2752600645375933e7 3.884818827590159e7 0.0
0.0 0.0 0.0

-1.538038285250477e7 2.233775160574145e7 0.0
2.233775160574145e7 -8.894931860004853e7 0.0
0.0 0.0 0.0

-2.4667733861484015e6 2.4165850946064815e7 0.0
2.4165850946064815e7 1.8276605603155263e7 0.0
0.0 0.0 0.0

-1.4932358646286805e6 3.6704258797206804e7 0.0
3.6704258797206804e7 139083.25650496018 0.0
0.0 0.0 0.0

-2.1347935837051217e6 2.706405429801292e7 0.0
2.706405429801292e7 2.856637305633908e6 0.0
0.0 0.0 0.0

2.401022201933505e6 2.7217200819209836e7 0.0
2.7217200819209836e7 -1.3620550366734833e7 0.0
0.0 0.0 0.0

4.4913658009021e6 2.6275569661973123e7 0.0
2.6275569661973123e7 -7.981768706796324e6 0.0
0.0 0.0 0.0

-5.1806744359128615e6 3.149749215687534e7 0.0
3.149749215687534e7 1.0311503623716677e7 0.0
0.0 0.0 0.0

-2.256219766334432e6 2.50466899439285e7 0.0
2.50466899439285e7 2.2793959675888635e7 0.0
0.0 0.0 0.0

62357.8538074065 2.2040282029040758e7 0.0
2.2040282029040758e7 3.657418396358639e7 0.0
0.0 0.0 0.0

-6.390917592902323e6 2.254270320259142e7 0.0
2.254270320259142e7 -2.371165061618443e7 0.0
0.0 0.0 0.0

643894.8647604547 1.901530251221763e7 0.0
1.901530251221763e7 -2.523558795394156e7 0.0
0.0 0.0 0.0

-876243.8993880162 2.511022071140034e7 0.0
2.511022071140034e7 2.1373828142878216e7 0.0
0.0 0.0 0.0

-404480.7532013301 1.2253559742776765e7 0.0
1.2253559742776765e7 -5.054432978812519e7 0.0
0.0 0.0 0.0

-4.0935935437939186e6 2.4490287165090658e7 0.0
2.4490287165090658e7 -1.5397701629975973e7 0.0
0.0 0.0 0.0

5.19543235869954e6 4.765589244950273e7 0.0
4.765589244950273e7 -635548.252567833 0.0
0.0 0.0 0.0

5.015087891488612e6 2.1983524973877527e7 0.0
2.1983524973877527e7 3.3306680429578237e7 0.0
0.0 0.0 0.0

3.0336331224108387e7 2.9052362376339436e7 0.0
2.9052362376339436e7 1.0112105890706101e8 0.0
0.0 0.0 0.0

-3.100205690308863e7 2.7948904566271223e7 0.0
2.7948904566271223e7 -1.0334014532129122e8 0.0
0.0 0.0 0.0

-2.4213528358768253e6 2.3515540057523135e7 0.0
2.3515540057523135e7 4.420664854341015e6 0.0
0.0 0.0 0.0

-3.621306932542988e7 4.6940342147208124e7 0.0
4.6940342147208124e7 8.202296271129519e6 0.0
0.0 0.0 0.0

-221060.9618049024 3.1115730547226973e7 0.0
3.1115730547226973e7 -4.862571672782024e6 0.0
0.0 0.0 0.0

-747567.9206914455 2.5487957030779596e7 0.0
2.5487957030779596e7 1.8338973536625445e7 0.0
0.0 0.0 0.0

4.638910915948894e6 2.192166653581392e7 0.0
2.192166653581392e7 3.766760997468042e7 0.0
0.0 0.0 0.0

1.2730126329659877e7 2.3560298292461704e7 0.0
2.3560298292461704e7 6.564449364138225e7 0.0
0.0 0.0 0.0

1.1728934726808446e7 2.6645280047943737e7 0.0
2.6645280047943737e7 1.3290050231087206e7 0.0
0.0 0.0 0.0

1.1196061843897518e7 2.1002885848521873e7 0.0
2.1002885848521873e7 4.378369377397913e7 0.0
0.0 0.0 0.0

8.49109443325441e6 3.181410275082434e7 0.0
3.181410275082434e7 -7.389788760801431e6 0.0
0.0 0.0 0.0

3.235339991215321e6 2.2872395554531805e7 0.0
2.2872395554531805e7 2.2509051205623124e7 0.0
0.0 0.0 0.0

-578247.4045578744 2.4075209359792326e7 0.0
2.4075209359792326e7 2.2745863155847758e7 0.0
0.0 0.0 0.0

7.332366315859536e6 4.184779899046744e7 0.0
4.184779899046744e7 -3.0405108436001115e6 0.0
0.0 0.0 0.0

5.134964656839923e6 2.5846769700574733e7 0.0
2.5846769700574733e7 1.6864832297109067e7 0.0
0.0 0.0 0.0

2.2406551429857295e6 1.491887281094583e6 0.0
1.491887281094583e6 -3.786099243598367e7 0.0
0.0 0.0 0.0

-6.157858501882417e6 1.9582355135965865e7 0.0
1.9582355135965865e7 2.613870868943564e7 0.0
0.0 0.0 0.0

-6.664614774454955e6 -1.5789329140797977e6 0.0
-1.5789329140797977e6 4.595792573528621e7 0.0
0.0 0.0 0.0

-2.6900853752641026e6 2.4237162359435994e7 0.0
2.4237162359435994e7 2.504897529633891e7 0.0
0.0 0.0 0.0

2.680863054764342e6 3.7737458814543806e7 0.0
3.7737458814543806e7 -2.3513885155628286e6 0.0
0.0 0.0 0.0

8.223397676910677e6 2.475515544824389e7 0.0
2.475515544824389e7 2.3101125140711527e7 0.0
0.0 0.0 0.0

7.396749477948486e6 2.1079893512188353e7 0.0
2.1079893512188353e7 3.2086673351977445e7 0.0
0.0 0.0 0.0

-4.380340239938701e6 3.395055865249286e7 0.0
3.395055865249286e7 7.716692691176776e6 0.0
0.0 0.0 0.0

2.89136713161382e6 4.1375195673063234e6 0.0
4.1375195673063234e6 -1.9765143101661053e7 0.0
0.0 0.0 0.0

1.0461856862252161e6 3.451942775811547e7 0.0
3.451942775811547e7 -4.518326971623551e6 0.0
0.0 0.0 0.0

1.9897986280885749e6 1.2733028121448494e7 0.0
1.2733028121448494e7 -2.845633269822505e7 0.0
0.0 0.0 0.0

-9.777349419991223e6 3.218442172576649e7 0.0
3.218442172576649e7 7.8488647429227475e6 0.0
0.0 0.0 0.0

9.71011396927566e6 3.459268952007334e7 0.0
3.459268952007334e7 -6.633903781982897e6 0.0
0.0 0.0 0.0

-1.2931613990320478e7 2.7912729771034595e7 0.0
2.7912729771034595e7 293303.2216550233 0.0
0.0 0.0 0.0

938284.0542864352 1.5508644945879634e6 0.0
1.5508644945879634e6 -7.461793795978895e7 0.0
0.0 0.0 0.0

8.642180278042061e6 2.679114724532224e7 0.0
2.679114724532224e7 5.203767367278069e6 0.0
0.0 0.0 0.0

4.6388786941299e6 3.586024627642434e7 0.0
3.586024627642434e7 -4.945802636641331e6 0.0
0.0 0.0 0.0

2.9775269910562946e6 3.0777939304265503e7 0.0
3.0777939304265503e7 -8.869041797138786e6 0.0
0.0 0.0 0.0

-3.462105543824246e6 2.3628549423407625e7 0.0
2.3628549423407625e7 -1.5944357699844386e7 0.0
0.0 0.0 0.0

1.9588083328915518e6 4.386090648060025e6 0.0
4.386090648060025e6 -3.4807321789127424e7 0.0
0.0 0.0 0.0

-2.6844344705577577e6 2.8516203568686545e7 0.0
2.8516203568686545e7 8.118147834707875e6 0.0
0.0 0.0 0.0

-866231.7810602468 1.5767781834650503e7 0.0
1.5767781834650503e7 -4.183651947257154e7 0.0
0.0 0.0 0.0

-6.594208696349379e6 -1.311733097309187e6 0.0
-1.311733097309187e6 5.077067074803591e7 0.0
0.0 0.0 0.0

-3.1870861996850586e6 2.314249806803063e7 0.0
2.314249806803063e7 2.244043505848834e7 0.0
0.0 0.0 0.0

-1.8272226313596923e7 3.1712364833808172e7 0.0
3.1712364833808172e7 2.8213361091598365e6 0.0
0.0 0.0 0.0

-35335.07357584685 6.664055836881652e6 0.0
6.664055836881652e6 -1.0721638414563422e8 0.0
0.0 0.0 0.0

-149693.95825609565 1.916926873548949e7 0.0
1.916926873548949e7 5.152134363247555e7 0.0
0.0 0.0 0.0

2.126152360798699e6 2.35085427962155e7 0.0
2.35085427962155e7 3.0043441694961816e7 0.0
0.0 0.0 0.0

2.267162474353675e6 2.1009044576071985e7 0.0
2.1009044576071985e7 4.6966911568418175e7 0.0
0.0 0.0 0.0

-1.4620017800411815e6 2.5368435814268857e7 0.0
2.5368435814268857e7 2.317937679961494e6 0.0
0.0 0.0 0.0

-3.461464721600296e6 2.3812143433806956e7 0.0
2.3812143433806956e7 1.772303388417591e7 0.0
0.0 0.0 0.0

-2.9119417425260204e6 2.3795808450045288e7 0.0
2.3795808450045288e7 -1.2188532714394756e7 0.0
0.0 0.0 0.0

652733.2409814559 1.8254968158120047e7 0.0
1.8254968158120047e7 -2.680211208341357e7 0.0
0.0 0.0 0.0

-633775.0718032531 1.167725143468017e7 0.0
1.167725143468017e7 -6.317144482175685e7 0.0
0.0 0.0 0.0

-6.6041623820969965e6 -1.4501256475111544e6 0.0
-1.4501256475111544e6 4.741347575463552e7 0.0
0.0 0.0 0.0

-5.71089588038148e6 -902823.4209241344 0.0
-902823.4209241344 5.884281285897317e7 0.0
0.0 0.0 0.0

-1.1895422939633152e7 2.993395414780472e7 0.0
2.993395414780472e7 1.686130826936096e6 0.0
0.0 0.0 0.0

2.4948682497623144e6 2.718407156125306e7 0.0
2.718407156125306e7 -1.4008480710599706e7 0.0
0.0 0.0 0.0

3.9632070702576675e6 2.0856640015157912e7 0.0
2.0856640015157912e7 5.400983879231977e7 0.0
0.0 0.0 0.0

-2.222659026353696e6 2.390583222916566e7 0.0
2.390583222916566e7 -8.407094879785782e6 0.0
0.0 0.0 0.0

9.181563755839081e6 3.0535002365350507e7 0.0
3.0535002365350507e7 -6.84740680695992e6 0.0
0.0 0.0 0.0

-3.4361061283895588e6 3.064904319796028e7 0.0
3.064904319796028e7 8.409165235144459e6 0.0
0.0 0.0 0.0

-8.0635405018348005e6 -578414.4009446593 0.0
-578414.4009446593 3.276191346562866e7 0.0
0.0 0.0 0.0

2.184579135094928e7 6.727779425432223e7 0.0
6.727779425432223e7 -1.6554844873987408e6 0.0
0.0 0.0 0.0

1.5503618623342388e6 2.4806989085798003e7 0.0
2.4806989085798003e7 -1.067617139904694e7 0.0
0.0 0.0 0.0

-9.532452735766819e6 1.9960546233318474e7 0.0
1.9960546233318474e7 -7.127905843358567e7 0.0
0.0 0.0 0.0

2.2208607624098286e6 2.683106741327968e6 0.0
2.683106741327968e6 -4.568264247565936e7 0.0
0.0 0.0 0.0

-867933.4741851024 2.3332584216703434e7 0.0
2.3332584216703434e7 -8.106667430588822e6 0.0
0.0 0.0 0.0

-4.185777155954551e6 2.1788645166639812e7 0.0
2.1788645166639812e7 2.6098225894534744e7 0.0
0.0 0.0 0.0

-3.2511906497822497e7 2.691687151261337e7 0.0
2.691687151261337e7 1.6268102395911105e6 0.0
0.0 0.0 0.0

-8.356734679379018e6 2.6717410403813984e7 0.0
2.6717410403813984e7 -1.3098108394679023e7 0.0
0.0 0.0 0.0

9.599077704823442e6 2.038934872485648e7 0.0
2.038934872485648e7 3.812243209390121e7 0.0
0.0 0.0 0.0

-4.527666820939613e6 2.303732822412441e7 0.0
2.303732822412441e7 -1.7747787464929737e7 0.0
0.0 0.0 0.0

-8.588381390923863e6 1.8207194400447982e6 0.0
1.8207194400447982e6 3.209518397750565e7 0.0
0.0 0.0 0.0

-163287.62885604473 2.497933377789317e7 0.0
2.497933377789317e7 -1.2053352227936914e7 0.0
0.0 0.0 0.0

-278283.6314453613 2.4058290972895227e7 0.0
2.4058290972895227e7 5.22030672512341e6 0.0
0.0 0.0 0.0

392434.0371948406 2.488382251884108e7 0.0
2.488382251884108e7 2.008699057206557e7 0.0
0.0 0.0 0.0

677255.6734544439 2.207302094451838e7 0.0
2.207302094451838e7 -2.1211678638832137e7 0.0
0.0 0.0 0.0

1.2597498702559937e6 2.2920905142697696e7 0.0
2.2920905142697696e7 3.3446145036831044e7 0.0
0.0 0.0 0.0

105444.82964115971 2.314472988009393e7 0.0
2.314472988009393e7 515972.87552530726 0.0
0.0 0.0 0.0

2.5817637424319824e6 2.7131036286430206e7 0.0
2.7131036286430206e7 -1.4187373758196017e7 0.0
0.0 0.0 0.0

7.475504997445514e6 2.5877827236396108e7 0.0
2.5877827236396108e7 -514898.9331861022 0.0
0.0 0.0 0.0

231388.58153411373 1.5327469302489307e7 0.0
1.5327469302489307e7 -3.67116770654785e7 0.0
0.0 0.0 0.0

-3.2813613005232364e6 2.4539138798123874e7 0.0
2.4539138798123874e7 2.326313850834064e7 0.0
0.0 0.0 0.0

-196645.95455008745 2.057283955984674e7 0.0
2.057283955984674e7 -9.84046183721929e6 0.0
0.0 0.0 0.0

-6.493081243154554e7 3.772102423246717e7 0.0
3.772102423246717e7 -4.1167523978024013e6 0.0
0.0 0.0 0.0

8.609955573950596e6 2.1817526798203714e7 0.0
2.1817526798203714e7 6.786419521239921e7 0.0
0.0 0.0 0.0

1.561645400479842e6 1.189891191352283e6 0.0
1.189891191352283e6 -5.244249631789343e7 0.0
0.0 0.0 0.0

-5.869288365623198e6 -890520.5101794814 0.0
-890520.5101794814 5.6953441026817255e7 0.0
0.0 0.0 0.0

-6.634342502324924e6 1.8553286804560754e7 0.0
1.8553286804560754e7 -6.184108598937347e7 0.0
0.0 0.0 0.0

-3.3127129609512817e6 2.01604120115325e7 0.0
2.01604120115325e7 -3.762751972447065e7 0.0
0.0 0.0 0.0

-3.926966287086075e6 2.513556803590702e7 0.0
2.513556803590702e7 -7.48499073315393e6 0.0
0.0 0.0 0.0

-2.4641494778993003e7 3.359592874683851e7 0.0
3.359592874683851e7 -1.6749515618576637e7 0.0
0.0 0.0 0.0

-1.9451411192270312e6 2.169703454004071e7 0.0
2.169703454004071e7 3.518448978430668e7 0.0
0.0 0.0 0.0

2.5296209264584836e6 2.697937690839064e7 0.0
2.697937690839064e7 -1.4167607159019701e7 0.0
0.0 0.0 0.0

-4.548407846371435e6 222682.00601207087 0.0
222682.00601207087 7.496202778197326e7 0.0
0.0 0.0 0.0

-5.17580305247112e6 2.0507916142338544e7 0.0
2.0507916142338544e7 2.95918899273168e7 0.0
0.0 0.0 0.0

310977.388624236 4.293171457697981e6 0.0
4.293171457697981e6 -9.998871532553221e7 0.0
0.0 0.0 0.0

-1.6225955539948817e6 3.759527101126609e7 0.0
3.759527101126609e7 158227.6191708385 0.0
0.0 0.0 0.0

579112.7375872098 2.280046494006198e6 0.0
2.280046494006198e6 -8.696762218838263e7 0.0
0.0 0.0 0.0

-2.9710488916642632e7 6.259417038816827e7 0.0
6.259417038816827e7 9.771992460250612e6 0.0
0.0 0.0 0.0

-4.409694243296891e6 491902.6746128413 0.0
491902.6746128413 7.828093169559915e7 0.0
0.0 0.0 0.0

451022.675960917 1.5814840673691228e7 0.0
1.5814840673691228e7 -3.669044622098658e7 0.0
0.0 0.0 0.0

-1.3876634436186165e7 3.1295970563427262e7 0.0
3.1295970563427262e7 4.691510560369568e6 0.0
0.0 0.0 0.0

-5.914398868435015e7 3.8408718982503265e7 0.0
3.8408718982503265e7 -5.58003077452714e6 0.0
0.0 0.0 0.0

435391.61538745835 3.1801545570773357e6 0.0
3.1801545570773357e6 -9.315793667723556e7 0.0
0.0 0.0 0.0

-2.318570978148127e6 2.9732468896536175e7 0.0
2.9732468896536175e7 3.899868962442117e6 0.0
0.0 0.0 0.0

-2.706412531436285e6 2.658265716230176e7 0.0
2.658265716230176e7 1.7012558179966804e7 0.0
0.0 0.0 0.0

2.355219004643521e7 2.073306415365547e7 0.0
2.073306415365547e7 8.638261955373203e6 0.0
0.0 0.0 0.0

-1.5838076907216217e6 1.9835663754673917e7 0.0
1.9835663754673917e7 -3.2468098227838293e7 0.0
0.0 0.0 0.0

-3.9695793339643637e6 2.1180791217763532e7 0.0
2.1180791217763532e7 -3.423083636158048e7 0.0
0.0 0.0 0.0

1.86168033113043e6 3.014251658010464e7 0.0
3.014251658010464e7 -9.894127961963765e6 0.0
0.0 0.0 0.0

-1.7604133676497662e6 3.842277844452788e7 0.0
3.842277844452788e7 232358.6349903068 0.0
0.0 0.0 0.0

-6.515080783995252e6 1.4605571989648953e7 0.0
1.4605571989648953e7 4.318348035934084e7 0.0
0.0 0.0 0.0

800229.0138770863 1.6944502719263826e6 0.0
1.6944502719263826e6 -7.874342038821727e7 0.0
0.0 0.0 0.0

-1.5465563778589383e7 4.247056786864071e7 0.0
4.247056786864071e7 5.131279490927667e6 0.0
0.0 0.0 0.0

2.8229861410330962e6 5.766954460802192e6 0.0
5.766954460802192e6 -2.7510216845641956e7 0.0
0.0 0.0 0.0

-3.264604455140634e6 2.356534717227936e7 0.0
2.356534717227936e7 -2.148174764529941e7 0.0
0.0 0.0 0.0

723682.7834850922 2.104882738901291e6 0.0
2.104882738901291e6 -8.202596269775777e7 0.0
0.0 0.0 0.0

-4.1001519763005683e6 2.1987241283844102e7 0.0
2.1987241283844102e7 -3.0661367952581685e7 0.0
0.0 0.0 0.0

-6.588304260316718e6 1.1385336827865118e7 0.0
1.1385336827865118e7 5.08944633567722e7 0.0
0.0 0.0 0.0

-6.70460865424983e6 747104.3939746952 0.0
747104.3939746952 7.1438791342844255e6 0.0
0.0 0.0 0.0

-2.707238405104735e6 2.142346496271668e7 0.0
2.142346496271668e7 6.339515146968972e6 0.0
0.0 0.0 0.0

6.191880805335896e6 2.2927469203309793e7 0.0
2.2927469203309793e7 3.472978327890344e7 0.0
0.0 0.0 0.0

1.2954129455754235e6 1.0472766650616673e6 0.0
1.0472766650616673e6 -5.8082945353434525e7 0.0
0.0 0.0 0.0

-4.616373288019722e6 3.0423834950513016e7 0.0
3.0423834950513016e7 1.1575712129132774e7 0.0
0.0 0.0 0.0

-7.104895309488818e6 458837.39733969356 0.0
458837.39733969356 4.5566536228705384e7 0.0
0.0 0.0 0.0

237597.56157136266 2.4767040316405512e7 0.0
2.4767040316405512e7 498148.0760469695 0.0
0.0 0.0 0.0

314612.35759886727 1.6054449481687969e7 0.0
1.6054449481687969e7 -3.463587391368519e7 0.0
0.0 0.0 0.0

-1.8839527276418712e6 2.446738370051204e7 0.0
2.446738370051204e7 2.465450267582053e7 0.0
0.0 0.0 0.0

6.179498861035353e6 2.186440110337318e7 0.0
2.186440110337318e7 4.8179537228529e7 0.0
0.0 0.0 0.0

-1.341055318400936e6 2.3362014647888467e7 0.0
2.3362014647888467e7 -5.71890371542378e6 0.0
0.0 0.0 0.0

2.422670606347427e6 2.9826802935178105e7 0.0
2.9826802935178105e7 -9.368122368049895e6 0.0
0.0 0.0 0.0

-3.4501217891653664e6 3.2256018014088087e7 0.0
3.2256018014088087e7 6.008743381895444e6 0.0
0.0 0.0 0.0

-1.8380083770316713e6 2.4132848828674573e7 0.0
2.4132848828674573e7 -9.113856352090178e6 0.0
0.0 0.0 0.0

2.8455906432489347e7 6.026937224912384e6 0.0
6.026937224912384e6 -1.8676369689990506e6 0.0
0.0 0.0 0.0

-4.810985630941287e6 152014.03822309934 0.0
152014.03822309934 7.180887837521607e7 0.0
0.0 0.0 0.0

1.2368118980967557e7 2.7472088966265615e7 0.0
2.7472088966265615e7 1.5373428805149376e7 0.0
0.0 0.0 0.0

-5.5534703732419275e6 -705275.6085198636 0.0
-705275.6085198636 6.092076684916298e7 0.0
0.0 0.0 0.0

-2.0905868690466385e6 2.4558510375316773e7 0.0
2.4558510375316773e7 -1.350704599467298e6 0.0
0.0 0.0 0.0

-5.909483811838567e6 1.231405236907293e7 0.0
1.231405236907293e7 3.7224724389229804e7 0.0
0.0 0.0 0.0

-1.8516633149622148e6 2.1235168885009866e7 0.0
2.1235168885009866e7 9.228049153835129e6 0.0
0.0 0.0 0.0

-1.5940687933765433e6 -389320.19436295587 0.0
-389320.19436295587 4.4457492609017715e6 0.0
0.0 0.0 0.0

-1.6342741417726367e6 839561.3215003065 0.0
839561.3215003065 4.411945630825924e6 0.0
0.0 0.0 0.0

2.0774865718226088e6 2.6314317271875475e7 0.0
2.6314317271875475e7 -1.5459579037180426e7 0.0
0.0 0.0 0.0

-1.2341865694411524e7 2.7681083100149285e7 0.0
2.7681083100149285e7 -5.737303709597163e6 0.0
0.0 0.0 0.0

2.5166952160361176e6 2.6856810865501944e7 0.0
2.6856810865501944e7 -1.378166446206031e7 0.0
0.0 0.0 0.0

-7.678207050949926e6 1.3373312776051069e7 0.0
1.3373312776051069e7 4.164616872595302e7 0.0
0.0 0.0 0.0

-4.0473636982824663e6 2.3416990147612333e7 0.0
2.3416990147612333e7 -1.9744317202754013e7 0.0
0.0 0.0 0.0

-158345.01385859214 1.5413367491329212e7 0.0
1.5413367491329212e7 -3.91662647790312e7 0.0
0.0 0.0 0.0

-4.245078588215015e6 2.9558242193745468e7 0.0
2.9558242193745468e7 1.2603553058446286e7 0.0
0.0 0.0 0.0

585457.6706474945 1.604471347160436e7 0.0
1.604471347160436e7 -3.2279816376058623e7 0.0
0.0 0.0 0.0

-1.3539722482752064e8 4.715068396815409e7 0.0
4.715068396815409e7 -1.5211746192686059e7 0.0
0.0 0.0 0.0

701720.3811742766 2.1294972730097186e7 0.0
2.1294972730097186e7 -2.279532925495126e7 0.0
0.0 0.0 0.0

-3.8991718056438584e6 4.553506298602864e7 0.0
4.553506298602864e7 906315.2774532915 0.0
0.0 0.0 0.0

1.303906958271244e6 2.3698293120539956e7 0.0
2.3698293120539956e7 7.363839509593933e6 0.0
0.0 0.0 0.0

-2.4236789834797084e6 2.3093863063448105e7 0.0
2.3093863063448105e7 2.8948526163290255e7 0.0
0.0 0.0 0.0

-6.326351834282675e6 2.657182503917834e7 0.0
2.657182503917834e7 -1.685039553009495e7 0.0
0.0 0.0 0.0

2.178561461675667e7 5.1177517611483596e7 0.0
5.1177517611483596e7 -6.104825253714388e6 0.0
0.0 0.0 0.0

-6.112417516053408e6 -1.153752804410153e6 0.0
-1.153752804410153e6 5.376987125142516e7 0.0
0.0 0.0 0.0

1.4641576625852138e6 1.2155670731346002e6 0.0
1.2155670731346002e6 -5.4015883486019194e7 0.0
0.0 0.0 0.0

1.5287371044998872e6 3.0592193770586472e7 0.0
3.0592193770586472e7 -6.726066102792164e6 0.0
0.0 0.0 0.0

-8.91951611798208e6 -1.054475887893527e6 0.0
-1.054475887893527e6 2.513870406139079e7 0.0
0.0 0.0 0.0

1.0549328345297165e6 1.40323993860102e6 0.0
1.40323993860102e6 -6.95147737524797e7 0.0
0.0 0.0 0.0

-4.937600301641215e6 -157251.941258549 0.0
-157251.941258549 6.948687162109701e7 0.0
0.0 0.0 0.0

-7.070254358155424e6 -1.7230762354239053e6 0.0
-1.7230762354239053e6 4.131579143513723e7 0.0
0.0 0.0 0.0

-2.4026914362987e6 2.338448396700924e7 0.0
2.338448396700924e7 -6.3068207522375155e6 0.0
0.0 0.0 0.0

-5.979025859472524e6 -1.0026115840504441e6 0.0
-1.0026115840504441e6 5.54026104635441e7 0.0
0.0 0.0 0.0

1.388488099499736e6 1.2888519031474479e6 0.0
1.2888519031474479e6 -5.601139205422078e7 0.0
0.0 0.0 0.0

1.1630587508157939e6 1.4614958102943404e6 0.0
1.4614958102943404e6 -6.696295366358239e7 0.0
0.0 0.0 0.0

-5.081298645720426e6 -431334.02498714597 0.0
-431334.02498714597 6.722662067667818e7 0.0
0.0 0.0 0.0

-6.820942591211828e6 2.460009487846181e7 0.0
2.460009487846181e7 -1.8726567239019997e7 0.0
0.0 0.0 0.0

1.8106957149364697e6 2.5472709670079153e7 0.0
2.5472709670079153e7 -1.6919566707441684e7 0.0
0.0 0.0 0.0

-2.821790949481175e6 3.264392058782839e7 0.0
3.264392058782839e7 6.623359272332117e6 0.0
0.0 0.0 0.0

1.1430095591984987e6 1.323632466108321e6 0.0
1.323632466108321e6 -6.514178058046853e7 0.0
0.0 0.0 0.0

-5.243811308156833e6 -599014.0231054921 0.0
-599014.0231054921 6.475870036427806e7 0.0
0.0 0.0 0.0

-1.5104483534766904e6 2.4018786693450317e7 0.0
2.4018786693450317e7 -4.713971228611163e6 0.0
0.0 0.0 0.0

1.1129735389754176e6 1.7264460649141036e7 0.0
1.7264460649141036e7 -3.041020739005811e7 0.0
0.0 0.0 0.0

1.0344258466341626e6 3.3054278817873746e7 0.0
3.3054278817873746e7 -3.332697444830261e6 0.0
0.0 0.0 0.0

-2.134061825741994e6 2.532527949053934e7 0.0
2.532527949053934e7 81449.80859418865 0.0
0.0 0.0 0.0

536287.9216243271 2.172967063635492e7 0.0
2.172967063635492e7 3.9020511995243214e7 0.0
0.0 0.0 0.0

-5.403474414593842e6 -612296.1345786595 0.0
-612296.1345786595 6.269214855431392e7 0.0
0.0 0.0 0.0

1.251091813494496e6 1.2271388493043287e6 0.0
1.2271388493043287e6 -6.262332933400695e7 0.0
0.0 0.0 0.0

6.97296980761482e6 3.6957465195821755e7 0.0
3.6957465195821755e7 -6.014436347266568e6 0.0
0.0 0.0 0.0

6.557285074626839e6 2.144446960439677e7 0.0
2.144446960439677e7 6.289394720021545e7 0.0
0.0 0.0 0.0

1.0753686666592748e8 1.0830432770168713e8 0.0
1.0830432770168713e8 -9.334914054658666e6 0.0
0.0 0.0 0.0

-724623.167534349 1.3336778079756618e7 0.0
1.3336778079756618e7 -9.354797605866041e6 0.0
0.0 0.0 0.0

-1.9223293031744272e6 3.691891139324196e7 0.0
3.691891139324196e7 2.198291127741569e6 0.0
0.0 0.0 0.0

-9.920806751750715e6 2.149342186837527e6 0.0
2.149342186837527e6 1.8741876485341266e7 0.0
0.0 0.0 0.0

-2.627202401655103e6 3.3448636708720226e7 0.0
3.3448636708720226e7 5.595597791411523e6 0.0
0.0 0.0 0.0

2.9703217917859405e6 2.3509648265144103e6 0.0
2.3509648265144103e6 -1.625887017844959e7 0.0
0.0 0.0 0.0

1.6692987218090385e7 3.343276721446961e7 0.0
3.343276721446961e7 -4.5690953387563955e6 0.0
0.0 0.0 0.0

5.476303497946743e6 3.1395207052403234e7 0.0
3.1395207052403234e7 -8.92568705420829e6 0.0
0.0 0.0 0.0

-5.114217088374799e6 2.0659826488642275e7 0.0
2.0659826488642275e7 2.1663300397975713e7 0.0
0.0 0.0 0.0

-2.264057204195003e6 2.552230165803153e7 0.0
2.552230165803153e7 -1.815403970223146e6 0.0
0.0 0.0 0.0

-3.0234829915684015e6 1.5054171913329647e6 0.0
1.5054171913329647e6 8.569841019973898e7 0.0
0.0 0.0 0.0

-357392.6832930611 3.8600816724698297e6 0.0
3.8600816724698297e6 1.1496085186460786e6 0.0
0.0 0.0 0.0

-5.447342889447813e6 -732362.753699249 0.0
-732362.753699249 2.2275068848662116e6 0.0
0.0 0.0 0.0

9294.980968499556 -1.1917062759460348e6 0.0
-1.1917062759460348e6 -713980.845658747 0.0
0.0 0.0 0.0

6.4776479447057415e6 3.178944386280957e7 0.0
3.178944386280957e7 -8.316844419046391e6 0.0
0.0 0.0 0.0

-8.921110210247492e6 1.9006842750765435e7 0.0
1.9006842750765435e7 -6.991523395672661e7 0.0
0.0 0.0 0.0

7.453879770758557e6 2.1727230392597325e7 0.0
2.1727230392597325e7 4.30233125430244e7 0.0
0.0 0.0 0.0

-4.0900186772092157e6 2.428426419686362e7 0.0
2.428426419686362e7 -1.543131878896189e7 0.0
0.0 0.0 0.0

2.6875889044110384e6 1.6867528813622969e6 0.0
1.6867528813622969e6 -3.2601052248254955e7 0.0
0.0 0.0 0.0

-2.4487814125207625e6 2.197041209215293e7 0.0
2.197041209215293e7 -5.857251854574889e6 0.0
0.0 0.0 0.0

618457.8778100898 2.5324552366526093e7 0.0
2.5324552366526093e7 -1.596984966693291e7 0.0
0.0 0.0 0.0

-5.740566237299832e6 1.8477101169979446e7 0.0
1.8477101169979446e7 -4.9732964765722685e7 0.0
0.0 0.0 0.0

1.961942348438518e6 3.413988061702969e7 0.0
3.413988061702969e7 -3.913269459067316e6 0.0
0.0 0.0 0.0

-2.3305694440151285e6 2.3502014942363083e7 0.0
2.3502014942363083e7 2.6757623275924835e7 0.0
0.0 0.0 0.0

-1.9505146251466442e6 2.2711356795433473e7 0.0
2.2711356795433473e7 -4.426861257937892e6 0.0
0.0 0.0 0.0

808188.6979233657 2.500306389474172e7 0.0
2.500306389474172e7 4.0859811641420173e6 0.0
0.0 0.0 0.0

-8.306520857664224e6 2.0003306318174716e7 0.0
2.0003306318174716e7 -3.4820238144658044e7 0.0
0.0 0.0 0.0

-3.205143859824074e7 3.450306588644543e7 0.0
3.450306588644543e7 -1.1530548655243337e7 0.0
0.0 0.0 0.0

1.965634524763494e7 5.5974759067369625e7 0.0
5.5974759067369625e7 -4.445896323656065e6 0.0
0.0 0.0 0.0

-4.1225897976440885e6 -1.8161429964614639e6 0.0
-1.8161429964614639e6 9.445878344406005e6 0.0
0.0 0.0 0.0

-4.0411342835119623e6 -2.6935960970381093e6 0.0
-2.6935960970381093e6 8.93927119776938e6 0.0
0.0 0.0 0.0

-2.83902267779419e6 2.4820138781463265e7 0.0
2.4820138781463265e7 2.3273915992226966e7 0.0
0.0 0.0 0.0

-65830.21364643285 2.9368098759951573e7 0.0
2.9368098759951573e7 -7.177303318641134e6 0.0
0.0 0.0 0.0

-1.2925047729741922e6 3.838866205528563e7 0.0
3.838866205528563e7 1.797771011060478e6 0.0
0.0 0.0 0.0

-2.3482989772084253e6 3.4179445589387335e7 0.0
3.4179445589387335e7 4.6188439217096185e6 0.0
0.0 0.0 0.0

1.810696532757131e7 2.67475688674314e7 0.0
2.67475688674314e7 1.3868276631827973e7 0.0
0.0 0.0 0.0

5.202917692948859e6 2.704274247027594e7 0.0
2.704274247027594e7 -4.681676709103167e6 0.0
0.0 0.0 0.0

9.162135308173547e6 2.1107839615903687e7 0.0
2.1107839615903687e7 7.015399968720374e7 0.0
0.0 0.0 0.0

-5.949772329520096e7 3.5955765936397545e7 0.0
3.5955765936397545e7 -2.216936413682537e7 0.0
0.0 0.0 0.0

-1.4423276802367628e8 5.352864393334341e7 0.0
5.352864393334341e7 549807.7093856484 0.0
0.0 0.0 0.0

-5.183424675183858e6 1.960829491520152e7 0.0
1.960829491520152e7 1.9390758242672183e7 0.0
0.0 0.0 0.0

-1.829950112815071e6 2.5779635530211333e7 0.0
2.5779635530211333e7 1.9739667742769398e7 0.0
0.0 0.0 0.0

2.0186452728050444e6 5.351193802849697e6 0.0
5.351193802849697e6 -2.9778247597897347e7 0.0
0.0 0.0 0.0

-4.792185959265491e6 2.0611156187048845e7 0.0
2.0611156187048845e7 2.6987293118716598e7 0.0
0.0 0.0 0.0

-7.702999915233145e6 -3.5264604175908947e6 0.0
-3.5264604175908947e6 2.4002769144555125e7 0.0
0.0 0.0 0.0

1.437246900556153e7 2.8445293775480743e7 0.0
2.8445293775480743e7 1.5913783178474754e7 0.0
0.0 0.0 0.0

-4.255697012965916e6 1.8953462599738736e7 0.0
1.8953462599738736e7 -4.731463706826914e7 0.0
0.0 0.0 0.0

2.4370309122895114e6 4.670320765966827e6 0.0
4.670320765966827e6 -3.817906868453473e7 0.0
0.0 0.0 0.0

8.908301823615333e6 2.5604751619844873e7 0.0
2.5604751619844873e7 9.012036362808216e6 0.0
0.0 0.0 0.0

311335.93628477305 5.593533782284783e6 0.0
5.593533782284783e6 1.083472836829666e8 0.0
0.0 0.0 0.0

-5.974514566114729e6 3.5510012557191744e7 0.0
3.5510012557191744e7 7.207568612063596e6 0.0
0.0 0.0 0.0

-2.13723062788237e7 3.0397147965288907e7 0.0
3.0397147965288907e7 -464383.95660828333 0.0
0.0 0.0 0.0

3.8893302349545783e6 2.975965546120754e7 0.0
2.975965546120754e7 -1.0594768596152537e7 0.0
0.0 0.0 0.0

-7.33745158532927e6 -2.127975598145277e6 0.0
-2.127975598145277e6 3.754185089430349e7 0.0
0.0 0.0 0.0

1.2025493491403582e6 2.3159574772862267e7 0.0
2.3159574772862267e7 8.683319835506808e6 0.0
0.0 0.0 0.0

-6.37496434401292e6 -1.3977196064563575e6 0.0
-1.3977196064563575e6 4.9218693409847155e7 0.0
0.0 0.0 0.0

8.99063835839837e6 2.683651307542633e7 0.0
2.683651307542633e7 9.023426026863694e6 0.0
0.0 0.0 0.0

-1.3996410360407839e6 2.7948781505804908e7 0.0
2.7948781505804908e7 2.1097491616563834e6 0.0
0.0 0.0 0.0

2.403387481350111e6 2.8269790341914347e6 0.0
2.8269790341914347e6 -4.255574185543837e7 0.0
0.0 0.0 0.0

-6.821264224323713e6 2.539201453110777e7 0.0
2.539201453110777e7 -1.810849618807563e7 0.0
0.0 0.0 0.0

2.764723602224838e6 1.8416957184404118e6 0.0
1.8416957184404118e6 -2.9094795748835452e7 0.0
0.0 0.0 0.0

79107.23491519131 2.063561396279822e7 0.0
2.063561396279822e7 -2.7053695724480942e7 0.0
0.0 0.0 0.0

-7.949342376532732e6 4.43953313122583e7 0.0
4.43953313122583e7 3.328150692362636e6 0.0
0.0 0.0 0.0

-386558.53745881334 2.0532296413228948e7 0.0
2.0532296413228948e7 -332783.6050813805 0.0
0.0 0.0 0.0

1.8296042361862496e6 2.9147064382725578e7 0.0
2.9147064382725578e7 -1.1041929877563344e7 0.0
0.0 0.0 0.0

-5.670578796556886e6 4.195335423785568e7 0.0
4.195335423785568e7 2.510858810085026e6 0.0
0.0 0.0 0.0

-2.8930623629638674e6 3.1868560750622686e7 0.0
3.1868560750622686e7 7.848020156006197e6 0.0
0.0 0.0 0.0

-3.09422176564427e6 3.3698208355175e7 0.0
3.3698208355175e7 3.8464048732424956e6 0.0
0.0 0.0 0.0

490040.1169893407 4.226388582685783e7 0.0
4.226388582685783e7 -1.2621988846751691e6 0.0
0.0 0.0 0.0

2.245957708173247e6 2.801733063607745e7 0.0
2.801733063607745e7 -1.1948268937278617e7 0.0
0.0 0.0 0.0

-4.786618846475634e6 4.682164911331082e7 0.0
4.682164911331082e7 1.2454895687257366e6 0.0
0.0 0.0 0.0

-8.279992403728822e6 1.5912386359372383e7 0.0
1.5912386359372383e7 2.2660178711517684e7 0.0
0.0 0.0 0.0

701135.7545083351 1.6708112601849746e7 0.0
1.6708112601849746e7 -2.0992295699342657e7 0.0
0.0 0.0 0.0

-9.2286963924451e6 1.3360662707858863e6 0.0
1.3360662707858863e6 3.113379720266305e7 0.0
0.0 0.0 0.0

-1.5475388279817844e7 3.2764405701996066e7 0.0
3.2764405701996066e7 4.472830304678886e6 0.0
0.0 0.0 0.0

-5.457803606675584e6 2.067880907088154e6 0.0
2.067880907088154e6 6.465775056333557e7 0.0
0.0 0.0 0.0

6.430957982543262e6 3.8512367419692256e7 0.0
3.8512367419692256e7 -5.428204101648259e6 0.0
0.0 0.0 0.0

454919.4019865468 2.0622696098801684e7 0.0
2.0622696098801684e7 -2.7058298222403962e7 0.0
0.0 0.0 0.0

2.3613385109323896e6 2.564311588859213e7 0.0
2.564311588859213e7 1.0540009533191077e7 0.0
0.0 0.0 0.0

-959473.3073148923 2.0196309493365865e7 0.0
2.0196309493365865e7 -1.2275663272158058e7 0.0
0.0 0.0 0.0

-542077.4521935731 1.7238322957493562e7 0.0
1.7238322957493562e7 -3.901744911008011e7 0.0
0.0 0.0 0.0

2.703430854163778e6 4.0104640362535375e6 0.0
4.0104640362535375e6 -2.0089485477007087e7 0.0
0.0 0.0 0.0

7.684114180299432e6 3.200874134072302e7 0.0
3.200874134072302e7 -7.687284229296699e6 0.0
0.0 0.0 0.0

212484.50613982417 2.4758173739071596e7 0.0
2.4758173739071596e7 8.200597612199094e6 0.0
0.0 0.0 0.0

-2.0985048156445194e6 2.463115906749834e7 0.0
2.463115906749834e7 -1.388091183822363e6 0.0
0.0 0.0 0.0

868391.2467966899 1.4714390107968838e6 0.0
1.4714390107968838e6 -7.53716207496003e7 0.0
0.0 0.0 0.0

-9.498471303922776e6 7.537470737362853e6 0.0
7.537470737362853e6 3.0973069878576405e7 0.0
0.0 0.0 0.0

467259.7772203125 4.442449463479123e6 0.0
4.442449463479123e6 -7.514498474053371e7 0.0
0.0 0.0 0.0

-8.039520292619331e6 -2.608182198477423e6 0.0
-2.608182198477423e6 2.9010817474558696e7 0.0
0.0 0.0 0.0

-1.886786070458947e6 2.7867752195686143e7 0.0
2.7867752195686143e7 269915.7701398652 0.0
0.0 0.0 0.0

-611075.3825601176 2.487532286533775e7 0.0
2.487532286533775e7 4.747369327039939e6 0.0
0.0 0.0 0.0

1.471498960077349e6 2.5261237347840372e7 0.0
2.5261237347840372e7 7.597163539162313e6 0.0
0.0 0.0 0.0

-4.439922043225299e6 1.9252198383384824e7 0.0
1.9252198383384824e7 2.2202106892862666e7 0.0
0.0 0.0 0.0

-6.959052683182703e6 -1.497497846228862e6 0.0
-1.497497846228862e6 4.232209114391934e7 0.0
0.0 0.0 0.0

9.359945799059428e6 3.4607238691391505e7 0.0
3.4607238691391505e7 -6.633566570865176e6 0.0
0.0 0.0 0.0

8.834666805472981e6 2.5723124287939247e7 0.0
2.5723124287939247e7 1.9074036571075927e7 0.0
0.0 0.0 0.0

1.3624843419172838e6 9.94540006379818e6 0.0
9.94540006379818e6 -3.3310379418254077e7 0.0
0.0 0.0 0.0

-6.973598820540408e6 230358.8579119711 0.0
230358.8579119711 4.510215450686338e7 0.0
0.0 0.0 0.0

6.191356115983042e6 2.626820215918542e7 0.0
2.626820215918542e7 1.5305331696815044e7 0.0
0.0 0.0 0.0

1.122181461273592e6 1.93098117024684e7 0.0
1.93098117024684e7 5.5879848361979224e7 0.0
0.0 0.0 0.0

1.0314413752911074e7 2.758942291580828e7 0.0
2.758942291580828e7 1.5491138157859672e7 0.0
0.0 0.0 0.0

-7.665234459969055e6 1.8406002776176214e7 0.0
1.8406002776176214e7 -6.5417486891050026e7 0.0
0.0 0.0 0.0

-854652.9732287973 2.2818814398534756e7 0.0
2.2818814398534756e7 3.255457128318396e7 0.0
0.0 0.0 0.0

3.256995810351573e6 2.233243097788523e7 0.0
2.233243097788523e7 2.655947566067045e7 0.0
0.0 0.0 0.0

3.4246066885386715e6 2.752321894293368e7 0.0
2.752321894293368e7 -1.309997217727415e7 0.0
0.0 0.0 0.0

-4.5281388343451135e6 2.611581950821526e7 0.0
2.611581950821526e7 -7.914632143894773e6 0.0
0.0 0.0 0.0

-117659.69567988068 9.659116891378457e6 0.0
9.659116891378457e6 -5.456187343205469e7 0.0
0.0 0.0 0.0

-49555.62462372333 8.63579590434646e6 0.0
8.63579590434646e6 -5.748307989569682e7 0.0
0.0 0.0 0.0

43822.139260348864 1.9725638823581457e7 0.0
1.9725638823581457e7 -1.1533574074328694e7 0.0
0.0 0.0 0.0

-3.7455372567344382e6 1.986461698958607e7 0.0
1.986461698958607e7 3.771058929327006e7 0.0
0.0 0.0 0.0

1.658404763485482e6 2.545737016350371e7 0.0
2.545737016350371e7 -1.6863802375089884e7 0.0
0.0 0.0 0.0

-3.2628931865409873e6 4.782684242536011e6 0.0
4.782684242536011e6 8.207160086555517e7 0.0
0.0 0.0 0.0

-5.462114218474744e6 1.7828858068463538e7 0.0
1.7828858068463538e7 -5.906102182067911e7 0.0
0.0 0.0 0.0

3.5503482530782e6 1.8356228483567283e7 0.0
1.8356228483567283e7 6.718292355082245e7 0.0
0.0 0.0 0.0

965350.134695217 1.571178657392657e6 0.0
1.571178657392657e6 -7.23461224051609e7 0.0
0.0 0.0 0.0

2.793417087220197e6 2.946155297504675e7 0.0
2.946155297504675e7 -1.07705211285584e7 0.0
0.0 0.0 0.0

8.505171779435162e6 2.7196649381473135e7 0.0
2.7196649381473135e7 1.5922929207757587e7 0.0
0.0 0.0 0.0

-9.590087091514476e6 2.022541033427629e7 0.0
2.022541033427629e7 -6.010278023754849e7 0.0
0.0 0.0 0.0

1.5887728750788532e7 1.2298683384899747e7 0.0
1.2298683384899747e7 1.3932810956917834e6 0.0
0.0 0.0 0.0

-2.9421496332494956e6 2.518345748349675e7 0.0
2.518345748349675e7 -9.723314322078723e6 0.0
0.0 0.0 0.0

7.177115600279171e6 2.660590615842973e7 0.0
2.660590615842973e7 1.6494248019923007e7 0.0
0.0 0.0 0.0

-2.658342159405729e6 2.7223659108387623e7 0.0
2.7223659108387623e7 1.3813487606793538e7 0.0
0.0 0.0 0.0

-2.0961551471006274e6 2.559354877650611e7 0.0
2.559354877650611e7 2.0121888863735646e7 0.0
0.0 0.0 0.0

235225.66783230286 1.501017810037192e7 0.0
1.501017810037192e7 -1.8296148168112602e7 0.0
0.0 0.0 0.0

-6.052214319457611e6 1.902013588242357e7 0.0
1.902013588242357e7 3.466215853935488e7 0.0
0.0 0.0 0.0

-6.523289126714226e6 1.7892075604712866e7 0.0
1.7892075604712866e7 -6.086847508204588e7 0.0
0.0 0.0 0.0

-3.4492938466040185e6 2.5021589763350405e7 0.0
2.5021589763350405e7 -1.4425842362564905e7 0.0
0.0 0.0 0.0

-7.923854504481064e6 2.858627364507204e7 0.0
2.858627364507204e7 7.197975166753214e6 0.0
0.0 0.0 0.0

178203.82467217324 1.3279268262422012e7 0.0
1.3279268262422012e7 -9.944667551583797e6 0.0
0.0 0.0 0.0

-2.844137823562786e6 7.296966695334476e6 0.0
7.296966695334476e6 1.0601339106551059e8 0.0
0.0 0.0 0.0

-1.059023090668454e7 1.9709726884035915e7 0.0
1.9709726884035915e7 -7.501563025079876e7 0.0
0.0 0.0 0.0

527897.0548021812 2.1496048337872554e7 0.0
2.1496048337872554e7 3.873468378335278e7 0.0
0.0 0.0 0.0

-1.8117408353975592e6 3.93052383792121e7 0.0
3.93052383792121e7 284812.2474477644 0.0
0.0 0.0 0.0

2.5944343871233206e7 2.7118697159762997e7 0.0
2.7118697159762997e7 9.824294970490498e6 0.0
0.0 0.0 0.0

3.1464381585324705e6 2.1008350489777803e7 0.0
2.1008350489777803e7 5.0525922938713215e7 0.0
0.0 0.0 0.0

-2.8052800324954456e6 2.4498205043188557e7 0.0
2.4498205043188557e7 2.3226199643719796e7 0.0
0.0 0.0 0.0

394677.993041642 1.805630954780379e7 0.0
1.805630954780379e7 -2.0380547690118104e7 0.0
0.0 0.0 0.0

-4.1738920746160722e6 2.386116435456243e7 0.0
2.386116435456243e7 -1.6542921313848756e7 0.0
0.0 0.0 0.0

-3.8067891932223635e6 2.2611127589010507e7 0.0
2.2611127589010507e7 1.8665734614685487e7 0.0
0.0 0.0 0.0

-3.754348103431645e6 2.100128164823004e7 0.0
2.100128164823004e7 2.216300169521937e7 0.0
0.0 0.0 0.0

1.7961859889182858e6 2.7477518579744427e6 0.0
2.7477518579744427e6 -3.923906059013526e7 0.0
0.0 0.0 0.0

-4.704400091984834e6 3.0546352063382603e7 0.0
3.0546352063382603e7 1.1759488258582536e7 0.0
0.0 0.0 0.0

-2.354159487920998e6 2.0939847892687827e7 0.0
2.0939847892687827e7 -3.87253445194113e6 0.0
0.0 0.0 0.0

3.2157568364328668e6 3.171045988119559e6 0.0
3.171045988119559e6 -2.7735088479318768e7 0.0
0.0 0.0 0.0

4.471366718555969e6 3.705827233657537e7 0.0
3.705827233657537e7 -5.504385561122661e6 0.0
0.0 0.0 0.0

9.700334034535006e6 2.7226556026955973e7 0.0
2.7226556026955973e7 1.6933955105939887e7 0.0
0.0 0.0 0.0

-4.344239295027554e6 3.1959918386170203e6 0.0
3.1959918386170203e6 7.244758358439198e7 0.0
0.0 0.0 0.0

1.3574399585813409e7 2.90312495899785e7 0.0
2.90312495899785e7 1.578060029296852e7 0.0
0.0 0.0 0.0

9.39258627602841e6 2.72475149260187e7 0.0
2.72475149260187e7 1.243897981397014e7 0.0
0.0 0.0 0.0

276478.90767256543 2.419855297243785e7 0.0
2.419855297243785e7 -1.6670847078618608e7 0.0
0.0 0.0 0.0

1.3458197045534067e6 2.9450386178641724e6 0.0
2.9450386178641724e6 -5.255888143340818e7 0.0
0.0 0.0 0.0

4.98679690226279e6 2.127337587306218e7 0.0
2.127337587306218e7 1.8001052574307244e7 0.0
0.0 0.0 0.0

1.1223542049116073e6 2.4793276380949426e7 0.0
2.4793276380949426e7 -1.4915555919915613e7 0.0
0.0 0.0 0.0

2.429028733474018e6 2.5213830616724595e7 0.0
2.5213830616724595e7 1.216267071860345e7 0.0
0.0 0.0 0.0

-1.0139425282731157e7 9.925667691124983e6 0.0
9.925667691124983e6 2.4057738017657444e7 0.0
0.0 0.0 0.0

-7.605282385696104e6 -2.927131199574766e6 0.0
-2.927131199574766e6 2.794126624080638e7 0.0
0.0 0.0 0.0

-6.337460334500108e6 2.777573106820562e7 0.0
2.777573106820562e7 4.869641684728217e6 0.0
0.0 0.0 0.0

229438.9742376972 1.7982273602382123e7 0.0
1.7982273602382123e7 -3.290016217203172e7 0.0
0.0 0.0 0.0

-5.190847643634268e6 2.2941881565533746e7 0.0
2.2941881565533746e7 -2.1677199149891574e7 0.0
0.0 0.0 0.0

-3.023218995207019e6 3.4292917779359855e6 0.0
3.4292917779359855e6 1.0255300480673756e8 0.0
0.0 0.0 0.0

-6.21396042296131e6 4.82335919837866e7 0.0
4.82335919837866e7 1.495744498101702e6 0.0
0.0 0.0 0.0

358951.2906680349 6.587538862061481e6 0.0
6.587538862061481e6 -1.9457930428846725e6 0.0
0.0 0.0 0.0

-1.830391712719372e6 2.5132478572688382e7 0.0
2.5132478572688382e7 1.5513925827918313e6 0.0
0.0 0.0 0.0

5.170258851000901e6 2.623335596970659e7 0.0
2.623335596970659e7 1.5105825982008917e7 0.0
0.0 0.0 0.0

-4.398792652701268e6 2.044293748334555e7 0.0
2.044293748334555e7 3.309812759715646e7 0.0
0.0 0.0 0.0

-1.7779823627858236e7 3.2064970368807927e7 0.0
3.2064970368807927e7 2.2852291648864895e6 0.0
0.0 0.0 0.0

7.218127196217784e6 2.723627900690623e7 0.0
2.723627900690623e7 1.334307285375995e7 0.0
0.0 0.0 0.0

4.2868395376602765e6 2.6938515223177776e7 0.0
2.6938515223177776e7 1.4278110621497173e7 0.0
0.0 0.0 0.0

876406.5902777547 2.3362061889579326e7 0.0
2.3362061889579326e7 -2.1753350021841064e7 0.0
0.0 0.0 0.0

1.7935521202817e6 5.809896093554509e6 0.0
5.809896093554509e6 -1.5059368996859891e7 0.0
0.0 0.0 0.0

-1.0648639661101857e6 2.4195939670811772e7 0.0
2.4195939670811772e7 -1.927941749353179e7 0.0
0.0 0.0 0.0

1.6849407710599443e6 2.7299032725116547e7 0.0
2.7299032725116547e7 -1.3521002042164456e7 0.0
0.0 0.0 0.0

-2.2565509333125954e6 3.074616084455779e7 0.0
3.074616084455779e7 7.075447212981999e6 0.0
0.0 0.0 0.0

4.134373428846545e6 2.876952056878326e7 0.0
2.876952056878326e7 -1.0829071205938742e7 0.0
0.0 0.0 0.0

3.1086103868367113e6 2.764171752014505e7 0.0
2.764171752014505e7 -1.1974267535399597e7 0.0
0.0 0.0 0.0

1.9130155186161753e6 4.208510674935768e6 0.0
4.208510674935768e6 -4.702934339037797e7 0.0
0.0 0.0 0.0

5.165084757189959e6 2.631827522216657e7 0.0
2.631827522216657e7 9.601189772706047e6 0.0
0.0 0.0 0.0

1.7500321010335623e6 2.81803165121111e7 0.0
2.81803165121111e7 -1.2196859383265788e7 0.0
0.0 0.0 0.0

-7.757128547499916e6 1.736040520043829e7 0.0
1.736040520043829e7 2.8165976491771176e7 0.0
0.0 0.0 0.0

-1.1895925437358451e8 3.7208837998746626e7 0.0
3.7208837998746626e7 -2.1347929317576572e7 0.0
0.0 0.0 0.0

3.837322504379022e7 3.481637886646652e7 0.0
3.481637886646652e7 1.27910998840079e8 0.0
0.0 0.0 0.0

-3.862665294578766e7 3.3490455592205815e7 0.0
3.3490455592205815e7 -1.2875575865935907e8 0.0
0.0 0.0 0.0

-2.181708707307739e6 2.2964840635429904e7 0.0
2.2964840635429904e7 2.881428994431941e7 0.0
0.0 0.0 0.0

652711.3660981767 1.7530621630715095e7 0.0
1.7530621630715095e7 -2.847983487851739e7 0.0
0.0 0.0 0.0

-5.221428920489202e6 2.5083494311806094e7 0.0
2.5083494311806094e7 -1.7089475559962917e7 0.0
0.0 0.0 0.0

4.881209542599656e6 4.9167768574336454e7 0.0
4.9167768574336454e7 -3.1138669785918454e6 0.0
0.0 0.0 0.0

-2.9087154742988404e6 2.1707570701255534e7 0.0
2.1707570701255534e7 -2.7333663277900446e7 0.0
0.0 0.0 0.0

-7.129150281085218e6 2.6181055479426727e7 0.0
2.6181055479426727e7 -1.0706822516310921e7 0.0
0.0 0.0 0.0

-6.460927848332927e6 1.941121458178039e7 0.0
1.941121458178039e7 2.8635232323958553e7 0.0
0.0 0.0 0.0

146668.29895269708 3.2137556061519e7 0.0
3.2137556061519e7 -1.7315937766915713e6 0.0
0.0 0.0 0.0

-4.499400650026638e6 1.9925832932325505e7 0.0
1.9925832932325505e7 -4.347413233171725e7 0.0
0.0 0.0 0.0

-3.1278439247940276e6 2.4947240144602977e7 0.0
2.4947240144602977e7 -9.64740450463245e6 0.0
0.0 0.0 0.0

-3.363380283428926e6 2.7226399391003296e7 0.0
2.7226399391003296e7 1.4875361545081103e7 0.0
0.0 0.0 0.0

2.610388702431616e7 2.8058637261567242e7 0.0
2.8058637261567242e7 2.5156010138151906e6 0.0
0.0 0.0 0.0

2.2867753686544774e6 2.4431313857169982e7 0.0
2.4431313857169982e7 9.181893272676628e6 0.0
0.0 0.0 0.0

-2.8347888028994426e6 2.3792728503402412e7 0.0
2.3792728503402412e7 2.505882038141969e7 0.0
0.0 0.0 0.0

-2.6393715586312927e7 3.046134320844476e7 0.0
3.046134320844476e7 -3.614712356247899e6 0.0
0.0 0.0 0.0

1.4140114316500898e6 2.485332902908428e7 0.0
2.485332902908428e7 9.116743104813283e6 0.0
0.0 0.0 0.0

5.421195751986109e6 3.779861076628498e7 0.0
3.779861076628498e7 -5.292511437347979e6 0.0
0.0 0.0 0.0

1.4626149714314967e7 3.4133908839476995e7 0.0
3.4133908839476995e7 -5.656227641069434e6 0.0
0.0 0.0 0.0

1.390040476985545e6 1.6731397571661286e7 0.0
1.6731397571661286e7 -2.1351155067225754e7 0.0
0.0 0.0 0.0

-1.446309281217238e6 2.1188532340610135e7 0.0
2.1188532340610135e7 3.718756774409864e7 0.0
0.0 0.0 0.0

-157914.72335219383 2.2780038162350588e7 0.0
2.2780038162350588e7 -2.2597105908140212e7 0.0
0.0 0.0 0.0

-1.7400758372429367e6 2.202725761332095e7 0.0
2.202725761332095e7 7.325549341105939e6 0.0
0.0 0.0 0.0

-4.292715282713503e6 2.2369985210619196e7 0.0
2.2369985210619196e7 2.1597208709049236e7 0.0
0.0 0.0 0.0

1.7531226390528926e6 8.484288354960345e6 0.0
8.484288354960345e6 -1.0796962982170155e7 0.0
0.0 0.0 0.0

2.4519641245649895e6 2.303492851911286e7 0.0
2.303492851911286e7 1.338615653214171e7 0.0
0.0 0.0 0.0

9.146323467682976e6 3.3147638512110036e7 0.0
3.3147638512110036e7 -7.017776307451647e6 0.0
0.0 0.0 0.0

-2.375044995473966e6 1.335623388222828e7 0.0
1.335623388222828e7 -8.412730077707076e7 0.0
0.0 0.0 0.0

-8.149402057579426e6 1.6767329327923968e7 0.0
1.6767329327923968e7 2.727400474067328e7 0.0
0.0 0.0 0.0

3.0234652574637715e7 5.304454729182372e7 0.0
5.304454729182372e7 -6.966557066934306e6 0.0
0.0 0.0 0.0

1.070689431318093e6 8.97663324349038e6 0.0
8.97663324349038e6 -5.3596811327728756e7 0.0
0.0 0.0 0.0

1.5162738688539143e6 2.3013066420019068e7 0.0
2.3013066420019068e7 1.0555769261439035e7 0.0
0.0 0.0 0.0

5.236992476628122e6 3.0283731498793166e7 0.0
3.0283731498793166e7 -9.771761415770471e6 0.0
0.0 0.0 0.0

1.8299071314755112e7 2.820711643874139e7 0.0
2.820711643874139e7 1.7388746488597062e8 0.0
0.0 0.0 0.0

-1.8726772937867686e7 2.790980381973418e7 0.0
2.790980381973418e7 -1.7065030854574162e8 0.0
0.0 0.0 0.0

3.888595332024686e7 2.5276839085809804e7 0.0
2.5276839085809804e7 8.133994125151556e6 0.0
0.0 0.0 0.0

1.67790338167944e7 3.3264371983223867e7 0.0
3.3264371983223867e7 -4.866595801882244e6 0.0
0.0 0.0 0.0

172649.9687930504 1.2528881141882513e7 0.0
1.2528881141882513e7 -8.661282702794105e6 0.0
0.0 0.0 0.0

3.0347539578859713e7 4.713237495377083e7 0.0
4.713237495377083e7 -7.023529135214394e6 0.0
0.0 0.0 0.0

344571.322743115 2.4152119868107732e7 0.0
2.4152119868107732e7 2.5672526829123933e7 0.0
0.0 0.0 0.0

2.160744223564262e7 2.755684696773649e7 0.0
2.755684696773649e7 2.4761792925884537e6 0.0
0.0 0.0 0.0

-3.385805163346332e6 2.976050164070247e7 0.0
2.976050164070247e7 9.692692280965906e6 0.0
0.0 0.0 0.0

-3.4998301784680802e6 2.004447637572657e7 0.0
2.004447637572657e7 2.0100494204425488e7 0.0
0.0 0.0 0.0

-1.1444764382965225e6 4.101336285851407e6 0.0
4.101336285851407e6 -2.0426976258695656e6 0.0
0.0 0.0 0.0

1.0366541877274767e7 2.6608687470370825e7 0.0
2.6608687470370825e7 1.751354627184965e7 0.0
0.0 0.0 0.0

1.7653505939423307e6 3.2119045144498773e7 0.0
3.2119045144498773e7 -7.112827339475427e6 0.0
0.0 0.0 0.0

-1.9886156488207486e6 2.2547324032901037e7 0.0
2.2547324032901037e7 3.0955008541271217e7 0.0
0.0 0.0 0.0

-6.464245633263478e6 3.0971255470847562e7 0.0
3.0971255470847562e7 1.0862107719799979e7 0.0
0.0 0.0 0.0

-2.537035162965217e6 2.9201214565338586e7 0.0
2.9201214565338586e7 1.0724545624269268e7 0.0
0.0 0.0 0.0

-3.1849070693002758e6 2.2595030465625428e7 0.0
2.2595030465625428e7 -8.075484014551084e6 0.0
0.0 0.0 0.0

1.0318961469260603e6 2.1237867259562578e7 0.0
2.1237867259562578e7 4.1265539343279354e7 0.0
0.0 0.0 0.0

-3.3449751771464907e6 3.0226089050487254e7 0.0
3.0226089050487254e7 1.1181741041415349e7 0.0
0.0 0.0 0.0

-3.4447729222469414e6 1.5871274729774553e7 0.0
1.5871274729774553e7 1.278211452538286e7 0.0
0.0 0.0 0.0

-5.3337271699791715e7 4.002053202250623e7 0.0
4.002053202250623e7 -1.1117848506688999e7 0.0
0.0 0.0 0.0

-3.8917081238693334e6 6.308250602242758e6 0.0
6.308250602242758e6 7.230079347963202e7 0.0
0.0 0.0 0.0

-8.910866392949097e6 3.1422917334017474e7 0.0
3.1422917334017474e7 8.764918063927598e6 0.0
0.0 0.0 0.0

-1.0194883243476292e7 3.827472388374728e7 0.0
3.827472388374728e7 6.405287795248354e6 0.0
0.0 0.0 0.0

-2.289395974700451e6 1.9262007902583428e7 0.0
1.9262007902583428e7 -3.844973333378987e7 0.0
0.0 0.0 0.0

-2.9573812482269024e6 4.380612048369313e7 0.0
4.380612048369313e7 1.822510410834149e6 0.0
0.0 0.0 0.0

-8.230162186376121e6 4.99463400971658e7 0.0
4.99463400971658e7 1.5908894656290398e6 0.0
0.0 0.0 0.0

-1.041255518046295e7 5.1599124613719374e7 0.0
5.1599124613719374e7 2.2026632352802134e6 0.0
0.0 0.0 0.0

669843.6141762813 3.52661519047855e7 0.0
3.52661519047855e7 -3.473659970549043e6 0.0
0.0 0.0 0.0

-6.343331700088413e6 1.5845761988271e7 0.0
1.5845761988271e7 4.101296374562022e7 0.0
0.0 0.0 0.0

1.9288157388636116e6 1.269684116963322e6 0.0
1.269684116963322e6 -4.3847778079484165e7 0.0
0.0 0.0 0.0

-417822.2198207751 2.2433995718828823e7 0.0
2.2433995718828823e7 3.447343898953876e7 0.0
0.0 0.0 0.0

4.755435288142277e6 3.905821532929279e7 0.0
3.905821532929279e7 -4.636180749702845e6 0.0
0.0 0.0 0.0

-131751.93659445643 1.9971965767311845e7 0.0
1.9971965767311845e7 -2.8938444229427736e7 0.0
0.0 0.0 0.0

-5.964829473831113e6 1.003592616211867e6 0.0
1.003592616211867e6 5.7080205562346436e7 0.0
0.0 0.0 0.0

451287.7674291848 2.45941206117532e7 0.0
2.45941206117532e7 1.928374051991118e6 0.0
0.0 0.0 0.0

1.8102437281251103e6 2.5443340304506123e7 0.0
2.5443340304506123e7 -1.3493004624853263e7 0.0
0.0 0.0 0.0

-431069.81961391866 2.3590591853908945e7 0.0
2.3590591853908945e7 -1.83885999615327e7 0.0
0.0 0.0 0.0

-5.530997222092567e6 2.065423641726749e7 0.0
2.065423641726749e7 -1.9324938122350607e7 0.0
0.0 0.0 0.0

-8.796001155076398e6 -840148.3192114286 0.0
-840148.3192114286 2.6415175144213945e7 0.0
0.0 0.0 0.0

-504433.8782370268 2.294249294755012e7 0.0
2.294249294755012e7 -2.8249552714791102e6 0.0
0.0 0.0 0.0

5.040061927196034e6 2.5092400490424022e7 0.0
2.5092400490424022e7 8.696055974797986e6 0.0
0.0 0.0 0.0

2.8399856576962266e7 2.5984306857128378e7 0.0
2.5984306857128378e7 1.1556910415495206e7 0.0
0.0 0.0 0.0

-1.1560210036198715e7 5.447683815523247e7 0.0
5.447683815523247e7 3.361109122059538e6 0.0
0.0 0.0 0.0

-3.669289032059625e6 2.0524698737683494e7 0.0
2.0524698737683494e7 2.12737821531836e7 0.0
0.0 0.0 0.0

-1.4191947016581414e7 2.1807738953096084e7 0.0
2.1807738953096084e7 -8.383988346259095e7 0.0
0.0 0.0 0.0

1.720140937201826e6 7.878084586331153e6 0.0
7.878084586331153e6 -4.459850254030622e7 0.0
0.0 0.0 0.0

-7.260682015756797e6 -1.9836643353850534e6 0.0
-1.9836643353850534e6 3.805324586033816e7 0.0
0.0 0.0 0.0

-2.8848654134193476e7 3.429933653757744e7 0.0
3.429933653757744e7 -1.3994573683563657e7 0.0
0.0 0.0 0.0

-2.716627859535787e7 3.094668643638324e7 0.0
3.094668643638324e7 -6.720473812377563e6 0.0
0.0 0.0 0.0

-3.1768678118051374e6 2.3270624497925658e7 0.0
2.3270624497925658e7 -1.0135176466435496e7 0.0
0.0 0.0 0.0

1.6863881099363677e6 3.824907761280435e7 0.0
3.824907761280435e7 -3.2272163216341515e6 0.0
0.0 0.0 0.0

-1.0632178141965643e6 7.472415654137365e6 0.0
7.472415654137365e6 -7.966503177692504e7 0.0
0.0 0.0 0.0

1.3754282594208913e7 2.9083576742620636e7 0.0
2.9083576742620636e7 -2.7132921509278137e6 0.0
0.0 0.0 0.0

9.664572743416052e6 2.7884510481118068e7 0.0
2.7884510481118068e7 1.500264564995301e7 0.0
0.0 0.0 0.0

1.333224413676083e6 1.7298879618760902e7 0.0
1.7298879618760902e7 -2.816621926194614e7 0.0
0.0 0.0 0.0

-1.0175334175508401e6 2.9681626340179924e7 0.0
2.9681626340179924e7 1.407078775930768e6 0.0
0.0 0.0 0.0

1.2957391325019049e6 1.6042715929087346e7 0.0
1.6042715929087346e7 -2.0210726255135372e7 0.0
0.0 0.0 0.0

553132.4631589409 1.6829823765280135e7 0.0
1.6829823765280135e7 -3.04529919278957e7 0.0
0.0 0.0 0.0

-4.0057138380335877e6 2.1779901290761475e7 0.0
2.1779901290761475e7 -1.983992463955442e7 0.0
0.0 0.0 0.0

-1.0415002359123737e7 3.700509373576375e7 0.0
3.700509373576375e7 6.360898273842279e6 0.0
0.0 0.0 0.0

-2.1381843262584224e7 2.625705978942341e7 0.0
2.625705978942341e7 -9.678346887878557e7 0.0
0.0 0.0 0.0

2.5339253932306003e7 4.609614280372191e7 0.0
4.609614280372191e7 -5.900677705701398e6 0.0
0.0 0.0 0.0

1.0896747193152916e7 3.3121652162481472e7 0.0
3.3121652162481472e7 -6.312885873818112e6 0.0
0.0 0.0 0.0

-2.8992750646251123e6 4.034054673376171e7 0.0
4.034054673376171e7 2.7816619508489086e6 0.0
0.0 0.0 0.0

-3.9403436057556197e6 2.9398659044742312e7 0.0
2.9398659044742312e7 1.2923024057095375e7 0.0
0.0 0.0 0.0

-876438.0950234011 6.085578883496785e6 0.0
6.085578883496785e6 -8.342177224278827e7 0.0
0.0 0.0 0.0

-3.4771201019946793e6 2.6770805836528327e7 0.0
2.6770805836528327e7 1.798156711920191e7 0.0
0.0 0.0 0.0

42910.280143879354 5.798638475228484e6 0.0
5.798638475228484e6 -6.720395532621118e7 0.0
0.0 0.0 0.0

621042.3913128395 2.643249555732045e7 0.0
2.643249555732045e7 -9.964647424051233e6 0.0
0.0 0.0 0.0

407855.7031871537 2.5302719708513286e7 0.0
2.5302719708513286e7 -1.040114396752031e7 0.0
0.0 0.0 0.0

-1.5206953964971355e6 2.230499839166171e7 0.0
2.230499839166171e7 -4.510934402493081e6 0.0
0.0 0.0 0.0

-1.7656787442267416e6 2.4683857116869837e7 0.0
2.4683857116869837e7 2.1566856725305278e7 0.0
0.0 0.0 0.0

-651255.9246956011 3.3639925065260075e7 0.0
3.3639925065260075e7 -2.213228924323335e6 0.0
0.0 0.0 0.0

-3.0237273441834208e6 2.4988545389151867e7 0.0
2.4988545389151867e7 1.7632105767731406e7 0.0
0.0 0.0 0.0

-6.912340881499829e6 -1.5851232283129648e6 0.0
-1.5851232283129648e6 4.323948394768391e7 0.0
0.0 0.0 0.0

942178.1906807683 7.410156414086839e6 0.0
7.410156414086839e6 -4.7023909302262664e7 0.0
0.0 0.0 0.0

1.2338618226558622e6 1.0306287542194773e7 0.0
1.0306287542194773e7 -3.607364653102959e7 0.0
0.0 0.0 0.0

3.4542522626662534e6 4.249529294350962e7 0.0
4.249529294350962e7 -2.1694375476148734e6 0.0
0.0 0.0 0.0

-4.260358858530438e6 2.508747594218873e7 0.0
2.508747594218873e7 -1.4518400007216468e7 0.0
0.0 0.0 0.0

-1.3169514975402262e6 1.8271095517816536e7 0.0
1.8271095517816536e7 -3.875680209260799e7 0.0
0.0 0.0 0.0

5.8033990991725465e6 2.323111419633519e7 0.0
2.323111419633519e7 1.9285929433952168e7 0.0
0.0 0.0 0.0

-9.256665702581117e6 4.921476990865754e6 0.0
4.921476990865754e6 2.949280229903636e7 0.0
0.0 0.0 0.0

1.0691730051186867e7 2.8656786145303134e7 0.0
2.8656786145303134e7 1.6163123302163798e7 0.0
0.0 0.0 0.0

-1.8885380727628518e7 4.09437726395433e7 0.0
4.09437726395433e7 6.919851825249649e6 0.0
0.0 0.0 0.0

7.015162805780161e6 2.5824861272722255e7 0.0
2.5824861272722255e7 9.698094295151746e6 0.0
0.0 0.0 0.0

4.8312424670627e6 2.175745516876104e7 0.0
2.175745516876104e7 2.0787096250179313e7 0.0
0.0 0.0 0.0

-7.203512391750383e6 3.612152882180399e7 0.0
3.612152882180399e7 6.803171127006572e6 0.0
0.0 0.0 0.0

-2.4957295745782396e6 2.55789449620407e7 0.0
2.55789449620407e7 2.0824598411059294e7 0.0
0.0 0.0 0.0

2.8896987010033857e6 2.0712761870233756e7 0.0
2.0712761870233756e7 5.014334556139413e7 0.0
0.0 0.0 0.0

-2.628316703120113e7 3.1625513108026553e7 0.0
3.1625513108026553e7 -4.31555796941581e6 0.0
0.0 0.0 0.0

-1.6179066602939755e7 3.03285762263559e7 0.0
3.03285762263559e7 2.119020374253612e6 0.0
0.0 0.0 0.0

-1.3884292888127323e7 1.973388418912959e7 0.0
1.973388418912959e7 -3.305650127545575e6 0.0
0.0 0.0 0.0

-1.0898704305650775e8 4.337871287123376e7 0.0
4.337871287123376e7 -1.4946445632799026e7 0.0
0.0 0.0 0.0

1.7553540116855234e7 2.5759652052503403e7 0.0
2.5759652052503403e7 1.0492032202970825e7 0.0
0.0 0.0 0.0

-3.803568031028822e6 1.9569289491527e7 0.0
1.9569289491527e7 -3.997025701188617e7 0.0
0.0 0.0 0.0

-3.13028552377274e6 2.8806232328908857e7 0.0
2.8806232328908857e7 1.0187057214021472e7 0.0
0.0 0.0 0.0

1.2836395966464058e6 2.464783387252015e7 0.0
2.464783387252015e7 -1.8426300587777317e7 0.0
0.0 0.0 0.0

6.0702231263102844e7 2.0903587337867443e7 0.0
2.0903587337867443e7 4.264061734199302e6 0.0
0.0 0.0 0.0

-8.514297726996623e6 -890082.6679330479 0.0
-890082.6679330479 1.723771432550595e7 0.0
0.0 0.0 0.0

3.0279929767919453e6 2.213768171027163e6 0.0
2.213768171027163e6 -1.8325848201109827e7 0.0
0.0 0.0 0.0

1.126118397796249e6 2.5545687792541217e7 0.0
2.5545687792541217e7 -1.562271453910178e7 0.0
0.0 0.0 0.0

-817377.8942277852 2.410982572936273e7 0.0
2.410982572936273e7 -998896.4362956637 0.0
0.0 0.0 0.0

-5.944617623953089e6 6.87362123885195e6 0.0
6.87362123885195e6 5.658760868625456e7 0.0
0.0 0.0 0.0

1.2629486800418328e7 3.460979069750174e7 0.0
3.460979069750174e7 -6.09764407297841e6 0.0
0.0 0.0 0.0

-1.7695140619974744e7 5.6459650139191434e7 0.0
5.6459650139191434e7 4.0005815657722997e6 0.0
0.0 0.0 0.0

1.6656232417073356e7 2.6922743190069582e7 0.0
2.6922743190069582e7 9.615787741553416e6 0.0
0.0 0.0 0.0

-7.449118707316522e6 -2.2020684553862847e6 0.0
-2.2020684553862847e6 3.558798479900296e7 0.0
0.0 0.0 0.0

-3.1365342699924346e7 3.2221315995694548e7 0.0
3.2221315995694548e7 -6.683093392567672e6 0.0
0.0 0.0 0.0

1.5448036341498701e6 2.3390465725183442e7 0.0
2.3390465725183442e7 8.610774118354004e6 0.0
0.0 0.0 0.0

-2.4487900429647893e7 5.924385513128865e7 0.0
5.924385513128865e7 5.13343634094606e6 0.0
0.0 0.0 0.0

-4.593168721875532e6 2.1256534329283755e7 0.0
2.1256534329283755e7 2.799087874676997e7 0.0
0.0 0.0 0.0

3.5598532256537857e6 2.5407067125675503e7 0.0
2.5407067125675503e7 -1.0556476824800805e6 0.0
0.0 0.0 0.0

-9.29019470856321e6 2.1386438944120485e7 0.0
2.1386438944120485e7 -3.2864492326251496e7 0.0
0.0 0.0 0.0

-3.9745247265898343e6 2.3251569237972494e7 0.0
2.3251569237972494e7 -1.38846177231098e7 0.0
0.0 0.0 0.0

1.2205604347713327e7 2.8598864510091323e7 0.0
2.8598864510091323e7 -3.469358364643899e6 0.0
0.0 0.0 0.0

5.147150278048974e7 5.83802996533371e7 0.0
5.83802996533371e7 -1.1262871024723329e7 0.0
0.0 0.0 0.0

-8.71308240941981e6 -160053.177555959 0.0
-160053.177555959 2.8075629526024755e7 0.0
0.0 0.0 0.0

4.224458688447603e6 4.694379233202812e7 0.0
4.694379233202812e7 -3.473748369564519e6 0.0
0.0 0.0 0.0

6.995422086786146e6 3.948555548137487e7 0.0
3.948555548137487e7 -3.9903211309440327e6 0.0
0.0 0.0 0.0

-7.542727895357864e6 1.92242606010969e6 0.0
1.92242606010969e6 4.6159200810152486e7 0.0
0.0 0.0 0.0

1.8891236513692476e6 1.3612207290655712e6 0.0
1.3612207290655712e6 -4.4465960292274386e7 0.0
0.0 0.0 0.0

-5.106034070312091e6 3.2682879530865964e7 0.0
3.2682879530865964e7 9.501412112636453e6 0.0
0.0 0.0 0.0

8.671145524187686e6 2.8173942847094245e7 0.0
2.8173942847094245e7 1.6270824295082055e7 0.0
0.0 0.0 0.0

-4.613712163232109e6 8.017746477918261e6 0.0
8.017746477918261e6 5.432699761022448e6 0.0
0.0 0.0 0.0

-5.867701545176882e6 1.937128894366907e7 0.0
1.937128894366907e7 2.8420057364905566e7 0.0
0.0 0.0 0.0

7.0966039370535e6 2.7587935723362517e7 0.0
2.7587935723362517e7 1.6565583063147875e7 0.0
0.0 0.0 0.0

-484575.07646388933 2.118752909041568e7 0.0
2.118752909041568e7 -1.4387351323992217e7 0.0
0.0 0.0 0.0

-4.933059051338057e6 2.127261476951232e7 0.0
2.127261476951232e7 -2.1788577839985073e7 0.0
0.0 0.0 0.0

3.7689253539260016e6 3.61964611656218e7 0.0
3.61964611656218e7 -5.474799860823272e6 0.0
0.0 0.0 0.0

-8.763612396959305e6 -940196.2933202953 0.0
-940196.2933202953 2.0099755067293864e7 0.0
0.0 0.0 0.0

-1.5241700983189205e6 2.4120860422468387e7 0.0
2.4120860422468387e7 5.492649492209851e6 0.0
0.0 0.0 0.0

-3.6604011122507155e6 2.0407824593569238e7 0.0
2.0407824593569238e7 3.539591379893561e7 0.0
0.0 0.0 0.0

806430.238825947 1.7286878715836376e7 0.0
1.7286878715836376e7 -1.6402457697698835e7 0.0
0.0 0.0 0.0

3.401026097709091e6 2.9264502808330227e7 0.0
2.9264502808330227e7 -1.1643625980641458e7 0.0
0.0 0.0 0.0

5.946664759544334e6 5.168558333019147e7 0.0
5.168558333019147e7 -729999.1765358225 0.0
0.0 0.0 0.0

-2.150731465754457e6 1.7689291385318737e7 0.0
1.7689291385318737e7 -4.147852463756423e7 0.0
0.0 0.0 0.0

-5.681630815257361e7 5.9490614151031226e7 0.0
5.9490614151031226e7 7.2985974517891295e6 0.0
0.0 0.0 0.0

178839.0336188939 1.579228952600952e6 0.0
1.579228952600952e6 112778.99851251219 0.0
0.0 0.0 0.0

-288369.7035897025 1.8926893614171748e6 0.0
1.8926893614171748e6 -1.4205079738827304e6 0.0
0.0 0.0 0.0

7.858187723025475e6 2.2892511121366303e7 0.0
2.2892511121366303e7 3.718574257900033e7 0.0
0.0 0.0 0.0

7.2532599472842645e6 2.5643129014973722e7 0.0
2.5643129014973722e7 1.8881783749050587e7 0.0
0.0 0.0 0.0

712445.3030716972 2.4481446595312353e7 0.0
2.4481446595312353e7 1.162015893761664e7 0.0
0.0 0.0 0.0

-6.785428307844257e6 1.745902793412308e7 0.0
1.745902793412308e7 2.832493010540533e7 0.0
0.0 0.0 0.0

1.0726883375539627e7 6.166153462560358e6 0.0
6.166153462560358e6 -1.5417947834419915e6 0.0
0.0 0.0 0.0

-2.1968074680670286e6 2.6570916091837335e7 0.0
2.6570916091837335e7 1.2380706283583628e7 0.0
0.0 0.0 0.0

887218.9356166229 3.790299019385097e7 0.0
3.790299019385097e7 -816419.7003712212 0.0
0.0 0.0 0.0

-3.382468321397733e6 1.8813111249076158e7 0.0
1.8813111249076158e7 -4.422822095348694e7 0.0
0.0 0.0 0.0

1.5162503920379236e7 2.8186044803269655e7 0.0
2.8186044803269655e7 1.3987000425883729e7 0.0
0.0 0.0 0.0

2.3324364950397916e7 2.7669383551915754e7 0.0
2.7669383551915754e7 1.5224748606261412e7 0.0
0.0 0.0 0.0

-3.3497278360604934e7 6.160629366407807e7 0.0
6.160629366407807e7 8.264889842224469e6 0.0
0.0 0.0 0.0

3.3438900211720094e6 2.4833977642996002e7 0.0
2.4833977642996002e7 1.210568683341997e7 0.0
0.0 0.0 0.0

-9.605121787016926e6 1.2133043640862733e7 0.0
1.2133043640862733e7 1.784807710423717e7 0.0
0.0 0.0 0.0

-8.123443701757731e6 1.54832000777462e7 0.0
1.54832000777462e7 3.441443070068823e7 0.0
0.0 0.0 0.0

467811.2317573725 3.691352291942764e7 0.0
3.691352291942764e7 -2.1072119106288585e6 0.0
0.0 0.0 0.0

1.062936020443055e7 2.5034652925289556e7 0.0
2.5034652925289556e7 1.79985037969369e7 0.0
0.0 0.0 0.0

-4.876673107265491e6 5.852043648296082e6 0.0
5.852043648296082e6 7.965381922715247e7 0.0
0.0 0.0 0.0

1.9948903466542764e6 2.329931745804609e7 0.0
2.329931745804609e7 2.163341501356734e7 0.0
0.0 0.0 0.0

-1.4095741587949261e7 2.108968857044421e7 0.0
2.108968857044421e7 -4.9931779396504536e7 0.0
0.0 0.0 0.0

7.53411363328836e6 2.722167100415388e7 0.0
2.722167100415388e7 1.6807693344522834e7 0.0
0.0 0.0 0.0

-1.840920552269604e6 2.1900371549540244e7 0.0
2.1900371549540244e7 3.286564839230597e7 0.0
0.0 0.0 0.0

-443604.3067341475 1.986427701988624e7 0.0
1.986427701988624e7 -1.4921660833485104e7 0.0
0.0 0.0 0.0

9.918991051668257e6 2.206970807805035e7 0.0
2.206970807805035e7 9.723331970582649e7 0.0
0.0 0.0 0.0

1.2903481725434206e7 3.2766444108535647e7 0.0
3.2766444108535647e7 -5.481303889159738e6 0.0
0.0 0.0 0.0

386302.6589237498 2.2278592026297018e7 0.0
2.2278592026297018e7 -2.317600951994999e7 0.0
0.0 0.0 0.0

-614560.1916872896 1.6036203185870627e7 0.0
1.6036203185870627e7 -6.514860281894569e6 0.0
0.0 0.0 0.0

1.4863741262443922e6 3.0453710025732117e6 0.0
3.0453710025732117e6 -5.592177981429817e7 0.0
0.0 0.0 0.0

5.525607025285263e6 4.911684513596357e7 0.0
4.911684513596357e7 -478399.1931407233 0.0
0.0 0.0 0.0

-7.511154907600537e6 1.6255497748535505e7 0.0
1.6255497748535505e7 3.529409757645349e7 0.0
0.0 0.0 0.0

5.986121830764176e6 2.135728939717385e7 0.0
2.135728939717385e7 2.7884060914519183e7 0.0
0.0 0.0 0.0

-1.1610084164852165e7 3.210985719491706e7 0.0
3.210985719491706e7 5.962607643105702e6 0.0
0.0 0.0 0.0

-1.6633857398145038e6 2.684908713791547e7 0.0
2.684908713791547e7 3.0047116974642677e6 0.0
0.0 0.0 0.0

-5.916389064086866e6 1.9941633113395657e7 0.0
1.9941633113395657e7 2.885253663934654e7 0.0
0.0 0.0 0.0

1.163517018566262e6 1.2650820101903722e7 0.0
1.2650820101903722e7 -2.88539263762496e7 0.0
0.0 0.0 0.0

-1.6829382610385466e7 5.221599615207211e7 0.0
5.221599615207211e7 7.251475953664277e6 0.0
0.0 0.0 0.0

3.2359087435305715e7 1.4824537571310503e7 0.0
1.4824537571310503e7 1.4716247651053239e6 0.0
0.0 0.0 0.0

-9.859604893660229e6 2.0005802757913584e6 0.0
2.0005802757913584e6 2.5949962382322267e7 0.0
0.0 0.0 0.0

-9.117779892991746e6 3.766758933911121e7 0.0
3.766758933911121e7 6.071475424938569e6 0.0
0.0 0.0 0.0

-3.584577831128671e7 2.786584853919822e7 0.0
2.786584853919822e7 1.1077917274113875e6 0.0
0.0 0.0 0.0

-5.414938437199645e6 2.6571482133094605e7 0.0
2.6571482133094605e7 -1.4122570826245924e7 0.0
0.0 0.0 0.0

-7.035358676592778e7 4.1355254192016125e7 0.0
4.1355254192016125e7 -7.127339642633194e6 0.0
0.0 0.0 0.0

-6.339104326231531e6 2.6823889505644925e7 0.0
2.6823889505644925e7 -8.3553137431887435e6 0.0
0.0 0.0 0.0

-3.2784353887684196e6 2.2637513703957472e7 0.0
2.2637513703957472e7 2.196945050361715e7 0.0
0.0 0.0 0.0

-7.429216034406269e6 1.6491596455007602e7 0.0
1.6491596455007602e7 2.9874322673023507e7 0.0
0.0 0.0 0.0

-5.157971189060421e6 2.0109196546149805e7 0.0
2.0109196546149805e7 2.0613110343674626e7 0.0
0.0 0.0 0.0

-4.909246329142722e6 2.9236083875210255e7 0.0
2.9236083875210255e7 1.3570164933875173e7 0.0
0.0 0.0 0.0

-6.0846030733543895e6 3.130467638051906e6 0.0
3.130467638051906e6 5.6750644085459866e7 0.0
0.0 0.0 0.0

-543417.5849367499 2.2767415657407824e7 0.0
2.2767415657407824e7 -1.4025131235335197e6 0.0
0.0 0.0 0.0

1.231428375262064e6 1.4420484969986143e7 0.0
1.4420484969986143e7 -1.729941819592333e7 0.0
0.0 0.0 0.0

833189.8861920955 2.009893386160481e7 0.0
2.009893386160481e7 -2.4199948335109156e7 0.0
0.0 0.0 0.0

-7.349245133730218e6 -564885.7491875774 0.0
-564885.7491875774 3.86796949204659e7 0.0
0.0 0.0 0.0

-1.431515504600237e6 2.324559152240931e7 0.0
2.324559152240931e7 860957.9473921241 0.0
0.0 0.0 0.0

-9.709735054052377e6 3.237094899766789e7 0.0
3.237094899766789e7 7.30055628358602e6 0.0
0.0 0.0 0.0

4.614789620594892e6 2.2798973328402806e7 0.0
2.2798973328402806e7 3.6603961791054204e7 0.0
0.0 0.0 0.0

1.1069137082436178e6 2.4609656815782074e7 0.0
2.4609656815782074e7 -1.6215677832110513e7 0.0
0.0 0.0 0.0

890360.3528149456 2.3343884716742896e7 0.0
2.3343884716742896e7 6.168232584334837e6 0.0
0.0 0.0 0.0

3.6259912856437443e6 4.533215825092434e7 0.0
4.533215825092434e7 -3.083595664700946e6 0.0
0.0 0.0 0.0

2.980328954670041e6 2.613108332989782e7 0.0
2.613108332989782e7 -1.2632906395113954e7 0.0
0.0 0.0 0.0

1.3739015497989523e8 4.8713577056782074e7 0.0
4.8713577056782074e7 3.5973061134963334e6 0.0
0.0 0.0 0.0

6.6783187244450115e6 2.6062577692830846e7 0.0
2.6062577692830846e7 -2.9047551383955153e6 0.0
0.0 0.0 0.0

-3.438987129678988e6 2.232195887588808e7 0.0
2.232195887588808e7 -2.8296084211449385e7 0.0
0.0 0.0 0.0

4.873648490826905e6 2.856964922323259e7 0.0
2.856964922323259e7 -1.051748411129357e7 0.0
0.0 0.0 0.0

-3.727460063114131e7 3.505512703348821e7 0.0
3.505512703348821e7 -8.867968363070562e6 0.0
0.0 0.0 0.0

-6.953041322925266e6 3.1149377328165054e7 0.0
3.1149377328165054e7 9.360272554412471e6 0.0
0.0 0.0 0.0

2.3571402918509867e7 2.77066042471267e7 0.0
2.77066042471267e7 8.862296705395373e6 0.0
0.0 0.0 0.0

-5.157913454841651e6 1.8039397574206673e7 0.0
1.8039397574206673e7 -5.405051545845479e7 0.0
0.0 0.0 0.0

9.410596208436258e6 2.149361837270677e7 0.0
2.149361837270677e7 4.844749999713526e7 0.0
0.0 0.0 0.0

2.557662033456089e6 5.609700984971961e6 0.0
5.609700984971961e6 -3.399174258390814e7 0.0
0.0 0.0 0.0

5.085964108172828e6 2.9747669943907414e7 0.0
2.9747669943907414e7 -9.93136883325614e6 0.0
0.0 0.0 0.0

338042.9438643977 4.675258272289431e6 0.0
4.675258272289431e6 -6.53168739013919e7 0.0
0.0 0.0 0.0

2.96965344041223e6 2.8905724115105893e7 0.0
2.8905724115105893e7 -1.1979246969462842e7 0.0
0.0 0.0 0.0

1.094577537964869e7 3.4744867127060875e7 0.0
3.4744867127060875e7 -6.392574492563365e6 0.0
0.0 0.0 0.0

-1.3528653498296672e6 2.660275678618877e7 0.0
2.660275678618877e7 2.4119319554175828e6 0.0
0.0 0.0 0.0

-1.7987297202420495e7 4.049248286240899e7 0.0
4.049248286240899e7 5.544585123077086e6 0.0
0.0 0.0 0.0

-2.138484713718731e6 2.212165261188702e7 0.0
2.212165261188702e7 3.309625694004388e7 0.0
0.0 0.0 0.0

2.439702352845086e6 2.3325032864832994e7 0.0
2.3325032864832994e7 1.3430946658720266e7 0.0
0.0 0.0 0.0

-4.782355173600946e7 4.551167379818947e7 0.0
4.551167379818947e7 7.452580230584392e6 0.0
0.0 0.0 0.0

2.316726288736031e7 2.7838243880450338e7 0.0
2.7838243880450338e7 1.5991190187983377e7 0.0
0.0 0.0 0.0

-5.31665195589333e6 1.5146695060092883e7 0.0
1.5146695060092883e7 1.1665405464782313e7 0.0
0.0 0.0 0.0

-7.281016387097998e6 3.700965949173696e7 0.0
3.700965949173696e7 5.932857484340256e6 0.0
0.0 0.0 0.0

-7.422273051485175e6 2.7378422949009325e7 0.0
2.7378422949009325e7 -1.1175601944371335e7 0.0
0.0 0.0 0.0

961085.9595313948 1.788930126610271e7 0.0
1.788930126610271e7 -1.7460431527219877e7 0.0
0.0 0.0 0.0

1.788159970689904e6 1.160186599176198e6 0.0
1.160186599176198e6 -4.682232449231128e7 0.0
0.0 0.0 0.0

-2.874176291846669e6 2.202950641143028e7 0.0
2.202950641143028e7 -1.2124665740614753e7 0.0
0.0 0.0 0.0

6.625570528487924e7 7.892770578857061e6 0.0
7.892770578857061e6 -447473.5576399341 0.0
0.0 0.0 0.0

-1.6486360880537014e6 2.1518470937223796e7 0.0
2.1518470937223796e7 3.496274716197524e7 0.0
0.0 0.0 0.0

-9.616173255153945e6 3.5883264258278094e7 0.0
3.5883264258278094e7 6.897836682201833e6 0.0
0.0 0.0 0.0

-6.313035758491188e6 -975574.0115335651 0.0
-975574.0115335651 5.1497979774884716e7 0.0
0.0 0.0 0.0

-2.865268740412401e6 4.448801815389223e7 0.0
4.448801815389223e7 656025.3093719066 0.0
0.0 0.0 0.0

-2.855237950485052e7 3.040435751837845e7 0.0
3.040435751837845e7 -6.510712864845833e6 0.0
0.0 0.0 0.0

671444.1590968156 2.299999305598444e7 0.0
2.299999305598444e7 -2.1555233049809832e7 0.0
0.0 0.0 0.0

7.425563760518551e6 2.2691961823233135e7 0.0
2.2691961823233135e7 3.3244524804523095e7 0.0
0.0 0.0 0.0

570269.8528109347 2.455814789156314e7 0.0
2.455814789156314e7 5.95612047466654e6 0.0
0.0 0.0 0.0

-2.2791877327567157e6 2.741652268903114e7 0.0
2.741652268903114e7 1.1300439118828822e7 0.0
0.0 0.0 0.0

214622.91890169308 1.7019826738025054e7 0.0
1.7019826738025054e7 -1.8664766400375135e7 0.0
0.0 0.0 0.0

1.989349719165003e6 1.2057268280698016e7 0.0
1.2057268280698016e7 -2.783434840340157e7 0.0
0.0 0.0 0.0

-1.37313001152967e6 1.1075260208976507e7 0.0
1.1075260208976507e7 -6.465117612597106e6 0.0
0.0 0.0 0.0

-6.424137776839697e6 3.62990360363018e7 0.0
3.62990360363018e7 5.890618917068038e6 0.0
0.0 0.0 0.0

-636625.324415342 2.189657668639163e7 0.0
2.189657668639163e7 -1.2808691090678634e7 0.0
0.0 0.0 0.0

2.6795927570319243e7 1.4398988115092454e7 0.0
1.4398988115092454e7 1.3112152482771901e6 0.0
0.0 0.0 0.0

1.7756636236216296e6 1.3600993414121626e6 0.0
1.3600993414121626e6 -4.745836932593321e7 0.0
0.0 0.0 0.0

6.050402136135381e6 2.158459637057309e7 0.0
2.158459637057309e7 3.5023609048929065e7 0.0
0.0 0.0 0.0

-368571.71604597475 1.062551202314939e7 0.0
1.062551202314939e7 -9.525346940472841e6 0.0
0.0 0.0 0.0

5.4243639687349545e6 3.663107591915942e7 0.0
3.663107591915942e7 -4.803422744184921e6 0.0
0.0 0.0 0.0

1.2115750374803175e6 2.4157968821915064e7 0.0
2.4157968821915064e7 1.5144142198557552e7 0.0
0.0 0.0 0.0

-6.576809064558167e6 1.0131957625461062e7 0.0
1.0131957625461062e7 5.099044951777575e7 0.0
0.0 0.0 0.0

-8.83212651007586e6 2.094021996089806e6 0.0
2.094021996089806e6 1.8846416747997012e7 0.0
0.0 0.0 0.0

1.1694653857208049e7 3.45760341559003e7 0.0
3.45760341559003e7 -6.167644096416419e6 0.0
0.0 0.0 0.0

-6.725933936700934e7 2.1502157954508614e7 0.0
2.1502157954508614e7 4.698737042562012e6 0.0
0.0 0.0 0.0

-162348.1647453215 2.1054626224497188e7 0.0
2.1054626224497188e7 -2.6925598156531554e7 0.0
0.0 0.0 0.0

8.79703290001677e6 1.486047866839674e7 0.0
1.486047866839674e7 3.994813938556731e6 0.0
0.0 0.0 0.0

-3.2461464679430854e6 2.2242172984238084e7 0.0
2.2242172984238084e7 2.129308738338461e7 0.0
0.0 0.0 0.0

-7.304691121979216e7 2.0768681461687494e7 0.0
2.0768681461687494e7 3.1129530371651202e6 0.0
0.0 0.0 0.0

-3.57764099069707e6 2.142174186302257e7 0.0
2.142174186302257e7 -2.9800792769566968e7 0.0
0.0 0.0 0.0

2.8252827134382045e6 2.7843190591853015e7 0.0
2.7843190591853015e7 -1.2926549430718742e7 0.0
0.0 0.0 0.0

1.0387426890033456e6 6.058499778834261e6 0.0
6.058499778834261e6 -4.0232402069032616e6 0.0
0.0 0.0 0.0

-1.5373542588373551e7 2.9364502022950124e7 0.0
2.9364502022950124e7 -1.1236142015371436e7 0.0
0.0 0.0 0.0

1.1447238260165488e7 4.081631610053438e7 0.0
4.081631610053438e7 -5.600554455543508e6 0.0
0.0 0.0 0.0

-1.935515749930971e6 4.0264131335101105e7 0.0
4.0264131335101105e7 366649.128502985 0.0
0.0 0.0 0.0

-2.516243362058029e6 2.71649868908705e7 0.0
2.71649868908705e7 6.569826045072485e6 0.0
0.0 0.0 0.0

-5.312738310069537e6 1.85157508314964e7 0.0
1.85157508314964e7 3.7034604947891556e7 0.0
0.0 0.0 0.0

-3.235153112208627e6 2.6968608006633632e7 0.0
2.6968608006633632e7 1.7707671695752475e7 0.0
0.0 0.0 0.0

-2.654434849446322e6 4.3183422881472684e7 0.0
4.3183422881472684e7 534737.3696187217 0.0
0.0 0.0 0.0

514352.4892034754 1.4184828105859144e7 0.0
1.4184828105859144e7 -1.974637970263858e7 0.0
0.0 0.0 0.0

-2.547091952212789e6 4.225716404128737e7 0.0
4.225716404128737e7 393312.43865160993 0.0
0.0 0.0 0.0

8.161669127974525e6 2.598007819523952e7 0.0
2.598007819523952e7 1.6516751209950112e7 0.0
0.0 0.0 0.0

-7.112175327276599e6 1.6313981783648673e7 0.0
1.6313981783648673e7 3.5605551817553274e7 0.0
0.0 0.0 0.0

1.2716566688808184e6 3.005456879796784e6 0.0
3.005456879796784e6 -4.8975465743784204e7 0.0
0.0 0.0 0.0

-1.1679068563948072e7 3.1871617718617264e7 0.0
3.1871617718617264e7 6.466733764497983e6 0.0
0.0 0.0 0.0

437205.56477388483 3.2700357219047032e7 0.0
3.2700357219047032e7 -4.956329609395757e6 0.0
0.0 0.0 0.0

2.312540509541197e6 3.249399669854517e7 0.0
3.249399669854517e7 -5.920273433264798e6 0.0
0.0 0.0 0.0

-9.313048064276192e7 5.407764638652123e7 0.0
5.407764638652123e7 -4.571771362296666e7 0.0
0.0 0.0 0.0

1.1559303821658585e6 2.395731647330202e7 0.0
2.395731647330202e7 -1.9994759709475253e7 0.0
0.0 0.0 0.0

773119.0457027022 3.614866242785963e7 0.0
3.614866242785963e7 -957668.7385471917 0.0
0.0 0.0 0.0

-3.8037002365058707e6 2.3560671676109955e7 0.0
2.3560671676109955e7 2.0357395068286322e7 0.0
0.0 0.0 0.0

-4.042396107709467e7 3.0097238159546133e7 0.0
3.0097238159546133e7 1.4825257065650728e6 0.0
0.0 0.0 0.0

1.3194645103100205e6 2.3366175965611164e7 0.0
2.3366175965611164e7 646409.3083151306 0.0
0.0 0.0 0.0

6.4100900161149e6 2.2845994751402084e7 0.0
2.2845994751402084e7 1.9058398561798964e7 0.0
0.0 0.0 0.0

1.2133838300324567e6 1.010992585953207e6 0.0
1.010992585953207e6 -6.018413723213601e7 0.0
0.0 0.0 0.0

-2.543837898038035e7 4.8034004672641896e7 0.0
4.8034004672641896e7 8.493806751945669e6 0.0
0.0 0.0 0.0

-6.122006366709188e6 797918.1200992083 0.0
797918.1200992083 5.274635533325911e7 0.0
0.0 0.0 0.0

-5.893047354648728e6 2.1009306284669884e6 0.0
2.1009306284669884e6 6.141625001646689e7 0.0
0.0 0.0 0.0

-8.39616750348387e6 -476758.619411202 0.0
-476758.619411202 1.757378489066701e7 0.0
0.0 0.0 0.0

-5.695755502766086e6 1.673021820289331e7 0.0
1.673021820289331e7 4.156374321053676e7 0.0
0.0 0.0 0.0

6.483326636674866e6 2.0534805192718327e7 0.0
2.0534805192718327e7 1.3127082394423638e7 0.0
0.0 0.0 0.0

-740094.0119988769 1.9986630073569123e7 0.0
1.9986630073569123e7 -3.130133949154509e7 0.0
0.0 0.0 0.0

-4.865898067317606e7 6.240208712983392e7 0.0
6.240208712983392e7 1.1847773381220132e7 0.0
0.0 0.0 0.0

-6.540951512490014e6 1.6931873404162772e7 0.0
1.6931873404162772e7 3.6305961507375196e7 0.0
0.0 0.0 0.0

-5.500293646784376e6 1.748397499655204e7 0.0
1.748397499655204e7 -5.685405630298722e7 0.0
0.0 0.0 0.0

-2.7113699229313694e7 2.9887661453539953e7 0.0
2.9887661453539953e7 -6.011333088047655e6 0.0
0.0 0.0 0.0

-5.400007614447508e6 1.7067578132773642e6 0.0
1.7067578132773642e6 6.290571586077181e7 0.0
0.0 0.0 0.0

652912.3522529416 2.2517311850330222e7 0.0
2.2517311850330222e7 -1.930654596330829e7 0.0
0.0 0.0 0.0

-1.1439247489674907e7 2.1003243715080366e7 0.0
2.1003243715080366e7 -6.457246579708448e7 0.0
0.0 0.0 0.0

-4.94533642820139e6 2.5641520317881852e7 0.0
2.5641520317881852e7 -1.0127895165609853e7 0.0
0.0 0.0 0.0

-2.3247741560895927e7 2.7392211429220397e7 0.0
2.7392211429220397e7 -5.301451120751264e6 0.0
0.0 0.0 0.0

6.789614242920744e7 3.544114923150239e7 0.0
3.544114923150239e7 1.5023133251633188e7 0.0
0.0 0.0 0.0

-2.222866505260897e6 1.966941915102045e7 0.0
1.966941915102045e7 -4.912429104253128e6 0.0
0.0 0.0 0.0

1.279719429138665e6 2.0740396000695102e7 0.0
2.0740396000695102e7 -2.2102186068352498e7 0.0
0.0 0.0 0.0

-4.283299680488257e6 2.13700053791436e7 0.0
2.13700053791436e7 -1.81252811995324e7 0.0
0.0 0.0 0.0

1.3561543514123894e6 1.2640843488173464e6 0.0
1.2640843488173464e6 -6.079281171749956e7 0.0
0.0 0.0 0.0

3.1518805558121568e6 3.516385813751462e7 0.0
3.516385813751462e7 -4.347900426401827e6 0.0
0.0 0.0 0.0

-5.148192784787814e6 2.0664889854687296e7 0.0
2.0664889854687296e7 -3.308405567453328e7 0.0
0.0 0.0 0.0

2.325411210768586e6 2.6548567508065682e7 0.0
2.6548567508065682e7 -1.3288786205403782e7 0.0
0.0 0.0 0.0

-245880.07836995414 2.4402006771508414e7 0.0
2.4402006771508414e7 2.575421186238588e6 0.0
0.0 0.0 0.0

-4.406128738143039e6 1.4898706366524134e7 0.0
1.4898706366524134e7 1.5043630134640127e7 0.0
0.0 0.0 0.0

-2.6263174076795164e6 2.7049245962532803e7 0.0
2.7049245962532803e7 1.0735195854723144e7 0.0
0.0 0.0 0.0

2.253462658077866e6 2.204325694735352e7 0.0
2.204325694735352e7 3.74234745351365e7 0.0
0.0 0.0 0.0

2.285001814083524e6 1.5874927860346104e6 0.0
1.5874927860346104e6 -3.884752629275127e7 0.0
0.0 0.0 0.0

-1.700973948480008e7 1.775451092391966e7 0.0
1.775451092391966e7 -795298.8217456182 0.0
0.0 0.0 0.0

9.583376663887866e6 2.8024662288989667e7 0.0
2.8024662288989667e7 1.6241291036768313e7 0.0
0.0 0.0 0.0

-2.242186704469134e6 2.2606698962398976e7 0.0
2.2606698962398976e7 -2.157459830055085e7 0.0
0.0 0.0 0.0

1.0340759518943352e8 1.4267007985804824e7 0.0
1.4267007985804824e7 273438.24193389714 0.0
0.0 0.0 0.0

-3209.4332830756903 2.1181394383174345e7 0.0
2.1181394383174345e7 -2.70731521099991e7 0.0
0.0 0.0 0.0

2.0283717052292838e6 3.370206242624877e7 0.0
3.370206242624877e7 -6.147201009218855e6 0.0
0.0 0.0 0.0

-1.9274202770136178e6 2.90614103043675e7 0.0
2.90614103043675e7 218748.954084013 0.0
0.0 0.0 0.0

1.2007091166511366e7 2.2157881722016793e7 0.0
2.2157881722016793e7 8.215758495214011e7 0.0
0.0 0.0 0.0

-5.904721327254914e6 1.5549308889422037e7 0.0
1.5549308889422037e7 4.3792596759539396e7 0.0
0.0 0.0 0.0

-6.250280446545295e6 -1.5103610455166402e6 0.0
-1.5103610455166402e6 5.093817484371582e7 0.0
0.0 0.0 0.0

-6.947381766833551e6 8.529789596121034e6 0.0
8.529789596121034e6 5.316253864710906e7 0.0
0.0 0.0 0.0

-2.730036960901163e6 3.881707624689904e7 0.0
3.881707624689904e7 1.1468540150672682e6 0.0
0.0 0.0 0.0

1.2371494906855319e6 1.3874381146537066e7 0.0
1.3874381146537066e7 -3.0229214999945886e7 0.0
0.0 0.0 0.0

-3.112897198516839e6 2.851744419085564e7 0.0
2.851744419085564e7 1.3399385370222379e7 0.0
0.0 0.0 0.0

1.405455887259882e6 2.466316199245206e7 0.0
2.466316199245206e7 -1.8461777648718238e7 0.0
0.0 0.0 0.0

-4.414357019817427e6 2.1353418200788766e7 0.0
2.1353418200788766e7 1.9671943696530383e7 0.0
0.0 0.0 0.0

-6.11858320304307e6 3.1707460239305742e7 0.0
3.1707460239305742e7 9.908872516318489e6 0.0
0.0 0.0 0.0

1.500003176059015e7 3.213396209757618e7 0.0
3.213396209757618e7 -4.616144066169053e6 0.0
0.0 0.0 0.0

-3.1028089069764633e6 2.6089803071289193e7 0.0
2.6089803071289193e7 1.964671633363979e7 0.0
0.0 0.0 0.0

-2.8414814035166353e6 2.747488650797796e7 0.0
2.747488650797796e7 1.5294315746967245e7 0.0
0.0 0.0 0.0

-5.510022699962836e6 2.250396522799973e7 0.0
2.250396522799973e7 -1.9778804671524562e7 0.0
0.0 0.0 0.0

-7.223523217550483e6 1.7120190964456595e7 0.0
1.7120190964456595e7 3.362515319903691e7 0.0
0.0 0.0 0.0

-2.2604984982520384e6 3.8654900934590295e7 0.0
3.8654900934590295e7 2.6567437517517544e6 0.0
0.0 0.0 0.0

1.8739400673660524e6 4.846688073489868e6 0.0
4.846688073489868e6 -3.615023299847474e7 0.0
0.0 0.0 0.0

-4.454250288662702e6 4.263069681402818e6 0.0
4.263069681402818e6 7.812520559276429e7 0.0
0.0 0.0 0.0

-2.771494197136068e6 2.4877835917051196e7 0.0
2.4877835917051196e7 -1.175942674751605e7 0.0
0.0 0.0 0.0

-2.8804224036836936e6 3.974041085145173e7 0.0
3.974041085145173e7 1.226984965706586e6 0.0
0.0 0.0 0.0

558682.4630946461 1.6538389024751084e7 0.0
1.6538389024751084e7 -3.4590248317325644e7 0.0
0.0 0.0 0.0

2.1135415093496153e6 3.553373256740429e7 0.0
3.553373256740429e7 -4.912017705292573e6 0.0
0.0 0.0 0.0

1.2692120468858033e6 1.1743631532722708e7 0.0
1.1743631532722708e7 -3.03838168636136e7 0.0
0.0 0.0 0.0

-7.282594577715775e6 1.5257668815506006e7 0.0
1.5257668815506006e7 3.755884817788636e7 0.0
0.0 0.0 0.0

-7.422791604892549e7 5.767930020724379e7 0.0
5.767930020724379e7 1.1834278759026524e7 0.0
0.0 0.0 0.0

-1.8690498156340126e7 3.079877171868977e7 0.0
3.079877171868977e7 -1.6049105036711367e6 0.0
0.0 0.0 0.0

-3.755641520734776e6 2.848367668391545e7 0.0
2.848367668391545e7 1.4427702524573304e7 0.0
0.0 0.0 0.0

-8.130893958748493e6 -3.235684060534649e6 0.0
-3.235684060534649e6 2.5883086509177312e7 0.0
0.0 0.0 0.0

-2.21879805490055e7 2.9144925028329354e7 0.0
2.9144925028329354e7 -4.1679016401724145e6 0.0
0.0 0.0 0.0

-8.362147094083946e6 3.237472585234599e7 0.0
3.237472585234599e7 8.277831470687736e6 0.0
0.0 0.0 0.0

1.6064367472424414e6 2.859632179543711e6 0.0
2.859632179543711e6 -5.0265259497137226e7 0.0
0.0 0.0 0.0

-4.46784394044654e6 1.976846309722897e7 0.0
1.976846309722897e7 2.3230103853380397e7 0.0
0.0 0.0 0.0

-6.583129972198267e6 1.798104736127914e7 0.0
1.798104736127914e7 2.9125004855672643e7 0.0
0.0 0.0 0.0

7.700150785695589e6 4.60672752854757e7 0.0
4.60672752854757e7 -2.16521648248385e6 0.0
0.0 0.0 0.0

-1.0190060533867285e7 4.825098865565275e6 0.0
4.825098865565275e6 2.786399737102577e7 0.0
0.0 0.0 0.0

-6.665198026184263e6 1.8078545913540766e7 0.0
1.8078545913540766e7 3.4675329251399666e7 0.0
0.0 0.0 0.0

-298838.3254224025 4.075584531916692e7 0.0
4.075584531916692e7 1.0855746728905374e6 0.0
0.0 0.0 0.0

-5.384152482453223e6 2.0452543610110849e6 0.0
2.0452543610110849e6 6.52313112328386e7 0.0
0.0 0.0 0.0

-8.166536305566279e6 -1.1692547038222526e6 0.0
-1.1692547038222526e6 2.7850602845343906e7 0.0
0.0 0.0 0.0

1.797590777137382e6 8.283038755398017e6 0.0
8.283038755398017e6 -3.3994573557956435e7 0.0
0.0 0.0 0.0

-2.5695097631341377e6 2.750703095085279e7 0.0
2.750703095085279e7 1.1986391756079275e7 0.0
0.0 0.0 0.0

-5.614732119621303e6 1.7586532756617192e7 0.0
1.7586532756617192e7 3.903270243855606e7 0.0
0.0 0.0 0.0

952144.8315867102 2.3909512592163e7 0.0
2.3909512592163e7 -1.8151651671992276e7 0.0
0.0 0.0 0.0

1.4141582200201862e6 2.2689995767479707e7 0.0
2.2689995767479707e7 -1.9261659352012206e7 0.0
0.0 0.0 0.0

1.163104625166757e6 1.3482353274864513e7 0.0
1.3482353274864513e7 -3.250061380157323e7 0.0
0.0 0.0 0.0

-388491.7317645438 2.052408970573042e7 0.0
2.052408970573042e7 -2.914002625319707e7 0.0
0.0 0.0 0.0

1.9243986483335951e6 2.430892336921288e7 0.0
2.430892336921288e7 1.044871455712159e7 0.0
0.0 0.0 0.0

-5.518137566829532e6 1.8734353708377443e7 0.0
1.8734353708377443e7 3.67986403993866e7 0.0
0.0 0.0 0.0

2.4094305707667754e6 3.448907118826575e7 0.0
3.448907118826575e7 -5.966410053573564e6 0.0
0.0 0.0 0.0

-6.968805018577776e6 3.5873250794104464e7 0.0
3.5873250794104464e7 6.697632228690552e6 0.0
0.0 0.0 0.0

-1.3279231576120476e6 3.9301205431451894e7 0.0
3.9301205431451894e7 1.8992524454777082e6 0.0
0.0 0.0 0.0

2.1063108351597562e7 2.783372250496352e7 0.0
2.783372250496352e7 9.53346613818745e7 0.0
0.0 0.0 0.0

-2.0080205938231316e6 2.8094579255413808e7 0.0
2.8094579255413808e7 1.0198435769402372e7 0.0
0.0 0.0 0.0

1.3195336843979927e6 2.1501974680624127e7 0.0
2.1501974680624127e7 -2.0474929514987767e7 0.0
0.0 0.0 0.0

-1.2693928510535462e6 2.1585770331835292e7 0.0
2.1585770331835292e7 -2.7112468437083624e7 0.0
0.0 0.0 0.0

1.2358257750822948e6 2.113843260058757e7 0.0
2.113843260058757e7 -2.2549672661472414e7 0.0
0.0 0.0 0.0

3.158067727225667e6 3.875855360836573e7 0.0
3.875855360836573e7 -2.4637700345591493e6 0.0
0.0 0.0 0.0

-2.4851290025276267e6 2.666559543548374e7 0.0
2.666559543548374e7 9.526036316021629e6 0.0
0.0 0.0 0.0

701363.448169421 2.3356409526922923e7 0.0
2.3356409526922923e7 4.0578229752205857e6 0.0
0.0 0.0 0.0

-1.2725481486105137e6 2.316881490276812e7 0.0
2.316881490276812e7 -2.0506279476272337e7 0.0
0.0 0.0 0.0

-5.373888534775483e6 1.5746533667133696e7 0.0
1.5746533667133696e7 1.3497558325149948e7 0.0
0.0 0.0 0.0

9.324055510118347e6 5.422187128249126e7 0.0
5.422187128249126e7 -5.624814813228525e6 0.0
0.0 0.0 0.0

537415.1800972745 4.119435866468129e6 0.0
4.119435866468129e6 -7.218266368262699e7 0.0
0.0 0.0 0.0

1.4335820145716077e8 5.486655708524155e7 0.0
5.486655708524155e7 3.715390359245962e7 0.0
0.0 0.0 0.0

6.3710749544363685e7 5.566141700465661e7 0.0
5.566141700465661e7 -1.6994044726154495e7 0.0
0.0 0.0 0.0

737217.8078796817 2.3696781122804925e7 0.0
2.3696781122804925e7 2.3970378910750486e7 0.0
0.0 0.0 0.0

2.988505120396673e6 2.4703789143501814e7 0.0
2.4703789143501814e7 1.3394001484782252e7 0.0
0.0 0.0 0.0

-3.26913463110122e7 3.1194956815313824e7 0.0
3.1194956815313824e7 -2.467527681484176e6 0.0
0.0 0.0 0.0

-7.998360444052595e7 3.906286432317049e7 0.0
3.906286432317049e7 -5.940506385608964e6 0.0
0.0 0.0 0.0

-5.609018418292607e6 1.6021151381958127e7 0.0
1.6021151381958127e7 1.945873729584985e7 0.0
0.0 0.0 0.0

764688.4112119885 3.363594458621007e7 0.0
3.363594458621007e7 -2.211291124919118e6 0.0
0.0 0.0 0.0

1.1569839723380394e6 1.99333995757736e7 0.0
1.99333995757736e7 -2.370077414579186e7 0.0
0.0 0.0 0.0

382759.7510514483 8.874155607978454e6 0.0
8.874155607978454e6 -6.520424193418701e7 0.0
0.0 0.0 0.0

653697.0266742203 2.020855454137028e7 0.0
2.020855454137028e7 -2.413069799124545e7 0.0
0.0 0.0 0.0

-4.523678298774632e6 1.767199356710114e7 0.0
1.767199356710114e7 -5.0125120884684294e7 0.0
0.0 0.0 0.0

-7.147498007574508e6 1.8231311858621687e7 0.0
1.8231311858621687e7 2.6745548097675238e7 0.0
0.0 0.0 0.0

3.626968774714755e6 2.2046180542260554e7 0.0
2.2046180542260554e7 3.5444494883901976e7 0.0
0.0 0.0 0.0

1.4679359039090013e6 2.2643524095265437e7 0.0
2.2643524095265437e7 9.951918474485075e6 0.0
0.0 0.0 0.0

-1.2259442014472537e7 1.1159417506071951e7 0.0
1.1159417506071951e7 3.902576142118399e6 0.0
0.0 0.0 0.0

-7.169068435689654e6 7.020432085591341e6 0.0
7.020432085591341e6 5.231975992305256e7 0.0
0.0 0.0 0.0

-3.2684297731552892e6 3.272897906067631e7 0.0
3.272897906067631e7 7.521098292382222e6 0.0
0.0 0.0 0.0

2.6064907399349194e6 2.2440087918149695e7 0.0
2.2440087918149695e7 3.796991158925192e7 0.0
0.0 0.0 0.0

-3.0647417962793987e6 2.1783907638164524e7 0.0
2.1783907638164524e7 2.034021131312928e7 0.0
0.0 0.0 0.0

-9.145650087186605e6 2.7783780818254845e6 0.0
2.7783780818254845e6 1.163893504441901e7 0.0
0.0 0.0 0.0

-757162.6026903242 1.4674177219857423e7 0.0
1.4674177219857423e7 8.284276758438642e7 0.0
0.0 0.0 0.0

-1.451226254068378e6 2.5937318439332243e7 0.0
2.5937318439332243e7 3.463788822736512e6 0.0
0.0 0.0 0.0

2.6273920186667037e6 3.3435917458755396e7 0.0
3.3435917458755396e7 -7.033779518144414e6 0.0
0.0 0.0 0.0

2.8504574834917393e6 2.1723116183393236e7 0.0
2.1723116183393236e7 3.969071122123762e7 0.0
0.0 0.0 0.0

-4.643042502632627e6 1.563057137905603e7 0.0
1.563057137905603e7 1.6747406006323447e7 0.0
0.0 0.0 0.0

1.1551430959322069e7 3.3204998970971167e7 0.0
3.3204998970971167e7 -6.133204413028599e6 0.0
0.0 0.0 0.0

-2.350835690805264e6 6.241235479680405e6 0.0
6.241235479680405e6 8.796027437383106e7 0.0
0.0 0.0 0.0

1.1247504799135242e7 3.0376459685816046e7 0.0
3.0376459685816046e7 -5.3004671917880885e6 0.0
0.0 0.0 0.0

-2.4007642163182935e6 3.951205239989194e7 0.0
3.951205239989194e7 2.8152505898827305e6 0.0
0.0 0.0 0.0

-7.70190705617752e6 2.003169312697022e7 0.0
2.003169312697022e7 -3.04258095188734e7 0.0
0.0 0.0 0.0

-2.7783148286075313e6 2.5229848164901037e7 0.0
2.5229848164901037e7 2.0975757486302003e7 0.0
0.0 0.0 0.0

-6.757979774104869e6 1.5694918602513356e7 0.0
1.5694918602513356e7 4.041395867305015e7 0.0
0.0 0.0 0.0

7.218317592352249e6 3.814615629180934e7 0.0
3.814615629180934e7 -4.850191961092307e6 0.0
0.0 0.0 0.0

2.594747428896089e6 5.899794688734871e6 0.0
5.899794688734871e6 -1.2357102221416319e7 0.0
0.0 0.0 0.0

599327.8007220812 5.0372714465991095e7 0.0
5.0372714465991095e7 -1.966890274483018e6 0.0
0.0 0.0 0.0

7.019023888080742e6 2.671013219170323e7 0.0
2.671013219170323e7 1.0700478160428416e7 0.0
0.0 0.0 0.0

381732.6820655167 3.0639477662208103e7 0.0
3.0639477662208103e7 -4.237726543274774e6 0.0
0.0 0.0 0.0

1.1177144117124937e6 5.810166193143838e6 0.0
5.810166193143838e6 -4.938541110267479e7 0.0
0.0 0.0 0.0

-3.8250201409955476e6 2.5812907562875602e7 0.0
2.5812907562875602e7 -1.3679091883850535e7 0.0
0.0 0.0 0.0

1.0531691053053636e7 2.7267665855167266e7 0.0
2.7267665855167266e7 1.5689158419468211e7 0.0
0.0 0.0 0.0

-1.0326112338341064e6 3.6683814945192486e7 0.0
3.6683814945192486e7 1.6833276610207912e6 0.0
0.0 0.0 0.0

7.329186330062259e6 2.2597923858855605e7 0.0
2.2597923858855605e7 4.102796679434534e7 0.0
0.0 0.0 0.0

-6.546544457296496e6 1.0674896694608568e6 0.0
1.0674896694608568e6 1.415900666077843e7 0.0
0.0 0.0 0.0

2.2208246784419753e6 2.0845719780486386e7 0.0
2.0845719780486386e7 4.6749650494700044e7 0.0
0.0 0.0 0.0

-9.190754680039348e6 2.9776921038842738e7 0.0
2.9776921038842738e7 4.997190269211526e6 0.0
0.0 0.0 0.0

1.2063346620130554e7 3.1495256664045725e7 0.0
3.1495256664045725e7 -5.321335022135183e6 0.0
0.0 0.0 0.0

5.682673025251551e6 2.955522540530468e7 0.0
2.955522540530468e7 -9.633472778579341e6 0.0
0.0 0.0 0.0

1.2444874556937981e7 4.044046423786746e7 0.0
4.044046423786746e7 -5.504533196721578e6 0.0
0.0 0.0 0.0

1.2332368277327775e6 2.1415515185450252e7 0.0
2.1415515185450252e7 7.541285761233753e6 0.0
0.0 0.0 0.0

-4.502036574247225e6 2.9553049585098583e7 0.0
2.9553049585098583e7 1.3088500650704088e7 0.0
0.0 0.0 0.0

7.058235788157674e6 4.185135691029038e7 0.0
4.185135691029038e7 -4.877407916277962e6 0.0
0.0 0.0 0.0

-1.1572966168971771e7 1.995783718709924e7 0.0
1.995783718709924e7 -6.46231027070352e7 0.0
0.0 0.0 0.0

-7.893171094445105e6 1.3827924463786682e7 0.0
1.3827924463786682e7 1.755239163805319e7 0.0
0.0 0.0 0.0

2.1022239203048223e6 2.3718882743670598e7 0.0
2.3718882743670598e7 1.1882737998971436e7 0.0
0.0 0.0 0.0

7.418987492630789e6 3.932800142985843e7 0.0
3.932800142985843e7 -5.677110068091251e6 0.0
0.0 0.0 0.0

-1.8254880600709133e6 2.372389364709741e7 0.0
2.372389364709741e7 -2.126102925945117e7 0.0
0.0 0.0 0.0

2.528338317315867e6 3.2299428781747343e6 0.0
3.2299428781747343e6 -3.438746376300241e7 0.0
0.0 0.0 0.0

-4.250731250233356e6 849334.2602352913 0.0
849334.2602352913 8.188963832138126e7 0.0
0.0 0.0 0.0

69815.16163143516 1.6622991435156085e7 0.0
1.6622991435156085e7 -3.707862548998132e7 0.0
0.0 0.0 0.0

4.194661310926277e6 2.5598869370515037e7 0.0
2.5598869370515037e7 1.4852746573357636e7 0.0
0.0 0.0 0.0

-5.883694379490383e6 1.887236576822891e7 0.0
1.887236576822891e7 2.7704273985971272e7 0.0
0.0 0.0 0.0

1.3518275622445386e7 3.0908596016452435e7 0.0
3.0908596016452435e7 -4.392021530984133e6 0.0
0.0 0.0 0.0

1.8688766003311407e6 6.321826464397557e6 0.0
6.321826464397557e6 -2.846762155140253e7 0.0
0.0 0.0 0.0

5.84204240732235e6 2.676968535441448e7 0.0
2.676968535441448e7 -1.9312651945658554e6 0.0
0.0 0.0 0.0

1.1491508155293584e7 2.8576344012353484e7 0.0
2.8576344012353484e7 1.5926891255268196e7 0.0
0.0 0.0 0.0

1.7396317670344897e7 5.296556787674713e7 0.0
5.296556787674713e7 -8.197940426622534e6 0.0
0.0 0.0 0.0

5.267653769277428e6 2.9146055342561256e7 0.0
2.9146055342561256e7 -9.659504116825443e6 0.0
0.0 0.0 0.0

6.417573758763175e6 2.104176871236802e7 0.0
2.104176871236802e7 6.2539436535979755e7 0.0
0.0 0.0 0.0

2.0403837128973939e6 1.3671399026955797e6 0.0
1.3671399026955797e6 -4.4946606945746064e7 0.0
0.0 0.0 0.0

2.2335034785288563e6 4.055314371331482e7 0.0
4.055314371331482e7 -2.9489206616637725e6 0.0
0.0 0.0 0.0

8.362111274626888e6 2.5320217494900443e7 0.0
2.5320217494900443e7 6.397490658350062e6 0.0
0.0 0.0 0.0

-8.70694336453329e7 2.5393589973927505e7 0.0
2.5393589973927505e7 66065.54857453704 0.0
0.0 0.0 0.0

-7.651092681861082e6 3.2230556253076397e7 0.0
3.2230556253076397e7 9.138454004751258e6 0.0
0.0 0.0 0.0

-7.417879556301385e6 1.294061505044942e7 0.0
1.294061505044942e7 1.9099342654272683e7 0.0
0.0 0.0 0.0

-855913.645320477 2.053980801228319e7 0.0
2.053980801228319e7 -3.1550072911911927e7 0.0
0.0 0.0 0.0

-719780.2983979955 2.441546722796664e7 0.0
2.441546722796664e7 1.9862462233206455e7 0.0
0.0 0.0 0.0

-5.279571836535335e6 2.017187884000666e7 0.0
2.017187884000666e7 -4.3938694122858614e7 0.0
0.0 0.0 0.0

1.7110578874454051e6 2.6576759670085227e6 0.0
2.6576759670085227e6 -5.900737725854029e7 0.0
0.0 0.0 0.0

7.806239712288715e7 2.561171782731699e7 0.0
2.561171782731699e7 6.508016554196242e6 0.0
0.0 0.0 0.0

-1.5345225970431122e8 5.6520798175255395e7 0.0
5.6520798175255395e7 -3.328571966627863e7 0.0
0.0 0.0 0.0

1.974954441327398e7 2.600500690578926e7 0.0
2.600500690578926e7 9.924336964673407e6 0.0
0.0 0.0 0.0

2.4693631724664555e6 3.0004674604426946e7 0.0
3.0004674604426946e7 -1.0487636266829386e7 0.0
0.0 0.0 0.0

-2.9281717246653438e6 2.6619424706246294e7 0.0
2.6619424706246294e7 1.7042191276992626e7 0.0
0.0 0.0 0.0

2.2864551399913635e6 3.202823381336095e6 0.0
3.202823381336095e6 -3.357954135019993e7 0.0
0.0 0.0 0.0

-8.896235195742529e6 2.9908185980527315e7 0.0
2.9908185980527315e7 7.279007001963144e6 0.0
0.0 0.0 0.0

5.214336110842273e6 4.179227882668626e7 0.0
4.179227882668626e7 -2.3733899838215606e6 0.0
0.0 0.0 0.0

-5.096102334727335e6 2.1753568492162272e7 0.0
2.1753568492162272e7 -3.3251256753433403e7 0.0
0.0 0.0 0.0

-76416.31753794523 3.0251729426604424e7 0.0
3.0251729426604424e7 -5.9764874501021495e6 0.0
0.0 0.0 0.0

1.8192148868770003e6 5.975579660331431e6 0.0
5.975579660331431e6 -7.458246592135698e6 0.0
0.0 0.0 0.0

1.5630528903422873e7 2.818076119767188e7 0.0
2.818076119767188e7 1.5558326297385234e7 0.0
0.0 0.0 0.0

-1.5625694428774128e7 2.8291405782064464e7 0.0
2.8291405782064464e7 -3.4336498730399334e6 0.0
0.0 0.0 0.0

1.4133407479560915e6 2.4153940953655586e7 0.0
2.4153940953655586e7 -1.6307707843857432e7 0.0
0.0 0.0 0.0

-2.0147683246715965e6 3.0936249155089557e7 0.0
3.0936249155089557e7 1.5247718770997259e6 0.0
0.0 0.0 0.0

51738.947012703866 1.679329445565803e7 0.0
1.679329445565803e7 -3.497647802976267e7 0.0
0.0 0.0 0.0

-5.391661858799279e6 2.2154406040487615e6 0.0
2.2154406040487615e6 6.6838064622194335e7 0.0
0.0 0.0 0.0

663175.9555832092 2.0951471420253616e7 0.0
2.0951471420253616e7 -2.243142537442743e7 0.0
0.0 0.0 0.0

6.255358858032115e6 2.539150645232957e7 0.0
2.539150645232957e7 1.1148065431573342e6 0.0
0.0 0.0 0.0

-2.0569667188676972e7 2.4116252381826907e7 0.0
2.4116252381826907e7 -8.243073686497596e7 0.0
0.0 0.0 0.0

2.35125811699453e6 7.333972776226217e6 0.0
7.333972776226217e6 -3.317901710477949e7 0.0
0.0 0.0 0.0

1.0781660542905536e6 2.3064863998815592e7 0.0
2.3064863998815592e7 -2.1745677350453336e7 0.0
0.0 0.0 0.0

-5.650073837336449e6 3.1225225322333284e7 0.0
3.1225225322333284e7 1.0767213687060246e7 0.0
0.0 0.0 0.0

238650.1952884629 3.594933609344033e7 0.0
3.594933609344033e7 -2.602724363518539e6 0.0
0.0 0.0 0.0

-2.621576584798606e6 2.823910818223762e7 0.0
2.823910818223762e7 1.3149061981807657e7 0.0
0.0 0.0 0.0

9.050889042597681e6 2.6174676865122713e7 0.0
2.6174676865122713e7 1.1580876343626183e7 0.0
0.0 0.0 0.0

-1.0948285813489789e8 3.3634346848546475e7 0.0
3.3634346848546475e7 -5.066748689431544e6 0.0
0.0 0.0 0.0

-2.455455434971057e6 232166.63344060283 0.0
232166.63344060283 2.5521931689342856e6 0.0
0.0 0.0 0.0

-1.8557397466744767e6 2.181619107440773e7 0.0
2.181619107440773e7 -2.4081203191118944e6 0.0
0.0 0.0 0.0

1.8842183968425922e7 2.6271866322562616e7 0.0
2.6271866322562616e7 5.986709849252437e6 0.0
0.0 0.0 0.0

-578507.3933951334 4.384653183705906e7 0.0
4.384653183705906e7 1.3996075706510646e6 0.0
0.0 0.0 0.0

-4.625610499160994e6 1.8015881212671373e7 0.0
1.8015881212671373e7 -5.393551258011012e7 0.0
0.0 0.0 0.0

-4.258754994372363e6 2.5854866991435096e7 0.0
2.5854866991435096e7 -1.00816543141099e7 0.0
0.0 0.0 0.0

6.746848035288474e6 3.0912246975228988e7 0.0
3.0912246975228988e7 -8.321516925412754e6 0.0
0.0 0.0 0.0

1.100993603936838e6 1.90057514442552e7 0.0
1.90057514442552e7 -1.9196291520055536e7 0.0
0.0 0.0 0.0

6.508113741396833e6 2.9867480478816047e7 0.0
2.9867480478816047e7 -8.089470520039692e6 0.0
0.0 0.0 0.0

1.3572382177103977e6 2.396029025432987e7 0.0
2.396029025432987e7 1.2351952472811379e7 0.0
0.0 0.0 0.0

1.2026464239941498e6 3.5532830870007925e7 0.0
3.5532830870007925e7 -1.9341128410239334e6 0.0
0.0 0.0 0.0

1.8724233837308548e6 1.1162074991876014e7 0.0
1.1162074991876014e7 -3.2006267583371993e7 0.0
0.0 0.0 0.0

1.544178928169109e6 2.821427820689005e6 0.0
2.821427820689005e6 -5.100478740449692e7 0.0
0.0 0.0 0.0

-2.0525344823821427e6 1.8202194923680243e6 0.0
1.8202194923680243e6 535027.9154218404 0.0
0.0 0.0 0.0

-1.016437907261949e7 1.2610028534754992e6 0.0
1.2610028534754992e6 3.2030050081659644e6 0.0
0.0 0.0 0.0

5.330393334658896e6 2.564188220251826e7 0.0
2.564188220251826e7 1.7921386213703383e7 0.0
0.0 0.0 0.0

4.0305067519967374e6 2.2079057993075788e7 0.0
2.2079057993075788e7 1.6606938392826824e7 0.0
0.0 0.0 0.0

1.1107814378114082e6 2.364767278508329e7 0.0
2.364767278508329e7 1.2311327819230149e7 0.0
0.0 0.0 0.0

2.154041146867713e6 5.398301166043433e6 0.0
5.398301166043433e6 -2.089755623642219e7 0.0
0.0 0.0 0.0

6.114301551747963e6 2.8384873483825356e7 0.0
2.8384873483825356e7 -7.308674753580648e6 0.0
0.0 0.0 0.0

2.0755420194532452e6 4.4219596451349035e6 0.0
4.4219596451349035e6 -9.166526980157783e6 0.0
0.0 0.0 0.0

5.77029737254739e6 2.9957455419905506e7 0.0
2.9957455419905506e7 -9.033218255931944e6 0.0
0.0 0.0 0.0

-4.540823943978028e6 1.923731259394733e7 0.0
1.923731259394733e7 3.747609193080613e7 0.0
0.0 0.0 0.0

3.307284969441658e6 3.414605194582036e7 0.0
3.414605194582036e7 -5.454591280979015e6 0.0
0.0 0.0 0.0

8.228031629866777e6 4.035001790810251e7 0.0
4.035001790810251e7 -3.9488395086990152e6 0.0
0.0 0.0 0.0

1.6522390070192795e6 8.170012054414543e6 0.0
8.170012054414543e6 -3.44467080813166e7 0.0
0.0 0.0 0.0

1.6576795508982427e6 6.478330181729379e6 0.0
6.478330181729379e6 -3.534247804638645e7 0.0
0.0 0.0 0.0

2.274629929726786e7 2.8700597162225742e7 0.0
2.8700597162225742e7 2.9496952852323083e6 0.0
0.0 0.0 0.0

3.5291273740364127e6 2.2903648242542308e7 0.0
2.2903648242542308e7 3.414390054750751e7 0.0
0.0 0.0 0.0

606059.1502499776 2.174985280298874e7 0.0
2.174985280298874e7 -2.0858876853076737e7 0.0
0.0 0.0 0.0

-6.0695471620330885e6 -1.2818607130793466e6 0.0
-1.2818607130793466e6 5.254489505040863e7 0.0
0.0 0.0 0.0

-499236.46473642957 4.170580583295891e7 0.0
4.170580583295891e7 1.058874494480907e6 0.0
0.0 0.0 0.0

-6.331483656876443e6 1.8138781688175533e7 0.0
1.8138781688175533e7 3.4602082152125716e7 0.0
0.0 0.0 0.0

-8.81620606979229e6 -956333.9102737702 0.0
-956333.9102737702 2.3953813182278212e7 0.0
0.0 0.0 0.0

177109.26401914982 2.1499933625601653e7 0.0
2.1499933625601653e7 -1.2152802466905743e7 0.0
0.0 0.0 0.0

1.7545028939041495e6 2.9274679527161643e6 0.0
2.9274679527161643e6 -4.9098129386839405e7 0.0
0.0 0.0 0.0

-6.050414098837942e6 3.663454696580825e7 0.0
3.663454696580825e7 6.393974445567954e6 0.0
0.0 0.0 0.0

642035.3201342735 2.9856292923331134e7 0.0
2.9856292923331134e7 -5.436459732247667e6 0.0
0.0 0.0 0.0

-32778.4114299193 1.6144405810539672e7 0.0
1.6144405810539672e7 -3.715847119334892e7 0.0
0.0 0.0 0.0

2.387954269226669e7 2.5600043367918853e7 0.0
2.5600043367918853e7 9.721722367164355e6 0.0
0.0 0.0 0.0

-6.935986059120866e6 3.502287562218821e7 0.0
3.502287562218821e7 7.515405382129839e6 0.0
0.0 0.0 0.0

-7.050614067279637e6 203707.34266137533 0.0
203707.34266137533 5.015587381349736e7 0.0
0.0 0.0 0.0

-7.413664514517661e6 -1.974202228060759e6 0.0
-1.974202228060759e6 3.85355946485817e7 0.0
0.0 0.0 0.0

8.293350609165939e6 2.584694883644949e7 0.0
2.584694883644949e7 1.8145962266576965e6 0.0
0.0 0.0 0.0

2.72960427892168e6 2.9740089392739393e7 0.0
2.9740089392739393e7 -1.009775185632526e7 0.0
0.0 0.0 0.0

3.3438580008137105e6 3.0562089879484467e7 0.0
3.0562089879484467e7 -9.563982666338436e6 0.0
0.0 0.0 0.0

-2.857586353245832e6 8.69844843078165e6 0.0
8.69844843078165e6 7.373981754321408e7 0.0
0.0 0.0 0.0

3.073680830431481e6 2.350724817933559e6 0.0
2.350724817933559e6 -1.5225813836708501e7 0.0
0.0 0.0 0.0

-1.1609969474284166e7 2.8325329307790954e7 0.0
2.8325329307790954e7 -3.57903266645777e6 0.0
0.0 0.0 0.0

-1.9888785376373526e7 2.843299101877266e7 0.0
2.843299101877266e7 -1.1574287102402404e7 0.0
0.0 0.0 0.0

-4.0733101553660825e7 3.4840001660443805e7 0.0
3.4840001660443805e7 -9.702614416986765e6 0.0
0.0 0.0 0.0

2.556054648567301e6 4.249414411436229e7 0.0
4.249414411436229e7 -705297.092452819 0.0
0.0 0.0 0.0

884438.0721515464 2.1868493010121983e7 0.0
2.1868493010121983e7 1.2270316393819698e6 0.0
0.0 0.0 0.0

-6.513059278264713e6 811944.1753083173 0.0
811944.1753083173 5.310274505425102e7 0.0
0.0 0.0 0.0

1.936188583387387e7 2.818434148939219e7 0.0
2.818434148939219e7 2.7131983728434616e6 0.0
0.0 0.0 0.0

764706.2430824507 2.399455016375957e7 0.0
2.399455016375957e7 -1.2973277668142224e7 0.0
0.0 0.0 0.0

-7.592663328611156e6 1.561017938388305e6 0.0
1.561017938388305e6 4.114342967027316e7 0.0
0.0 0.0 0.0

-3.489052132927828e6 2.89009393933019e7 0.0
2.89009393933019e7 1.161627358754637e7 0.0
0.0 0.0 0.0

-4.050280650708384e6 3.0824131343829717e7 0.0
3.0824131343829717e7 1.0188684894067746e7 0.0
0.0 0.0 0.0

-7.724671711940217e6 89790.24385925742 0.0
89790.24385925742 1.1832382801268324e7 0.0
0.0 0.0 0.0

1.7450700605749749e6 5.4301593453995e6 0.0
5.4301593453995e6 -3.692120966201784e7 0.0
0.0 0.0 0.0

-1.3305514997675978e6 9.82545493248381e6 0.0
9.82545493248381e6 -6.65554034626977e7 0.0
0.0 0.0 0.0

1.1505301219030242e7 2.794234885971799e7 0.0
2.794234885971799e7 1.6216152695955843e7 0.0
0.0 0.0 0.0

2.3566280917019546e6 4.495504124952447e6 0.0
4.495504124952447e6 -1.3355408802208774e7 0.0
0.0 0.0 0.0

3.050018575281587e7 3.988030699947207e7 0.0
3.988030699947207e7 -7.491163854613448e6 0.0
0.0 0.0 0.0

2.5780623732454907e6 4.575836070982463e6 0.0
4.575836070982463e6 -3.538297610928715e7 0.0
0.0 0.0 0.0

2.931133534188602e6 5.1919205664540045e6 0.0
5.1919205664540045e6 -2.3603306166738577e7 0.0
0.0 0.0 0.0

2.138038090945663e6 4.870904791153626e6 0.0
4.870904791153626e6 -3.091957627492201e7 0.0
0.0 0.0 0.0

1.405275319828862e6 2.3135103447474927e7 0.0
2.3135103447474927e7 3.5729501643813835e6 0.0
0.0 0.0 0.0

2.7497201515229624e6 2.2276284132664405e7 0.0
2.2276284132664405e7 1.2394188672067678e7 0.0
0.0 0.0 0.0

-683344.6787427291 1.919443222919755e7 0.0
1.919443222919755e7 -3.3436857771898616e7 0.0
0.0 0.0 0.0

2.9273691473790094e7 4.107741930593633e7 0.0
4.107741930593633e7 -5.96019871718437e6 0.0
0.0 0.0 0.0

-7.606780962452678e6 72819.77842783248 0.0
72819.77842783248 4.1045052052983254e7 0.0
0.0 0.0 0.0

-3.6070463396558557e6 2.9071549750718944e7 0.0
2.9071549750718944e7 1.3504238206580887e7 0.0
0.0 0.0 0.0

-2.0997272138995826e6 4.123784723427185e7 0.0
4.123784723427185e7 367472.6094820377 0.0
0.0 0.0 0.0

2.6622370732516283e6 3.427233376454791e7 0.0
3.427233376454791e7 -4.617539624677295e6 0.0
0.0 0.0 0.0

-7.914418660965256e6 -749085.1990622237 0.0
-749085.1990622237 2.995234014802359e7 0.0
0.0 0.0 0.0

-9.822581495469784e6 1.4886913872537485e6 0.0
1.4886913872537485e6 2.1855852946643908e7 0.0
0.0 0.0 0.0

4.841392320267964e6 2.314198089524433e7 0.0
2.314198089524433e7 3.3016705968555685e7 0.0
0.0 0.0 0.0

-4.303589418690816e6 -2.2797018612905703e6 0.0
-2.2797018612905703e6 7.006825989468398e6 0.0
0.0 0.0 0.0

1.1940697054422801e7 3.14502352261561e7 0.0
3.14502352261561e7 -5.388506401771822e6 0.0
0.0 0.0 0.0

2.1021065879102023e6 2.8165187731968593e7 0.0
2.8165187731968593e7 -1.238992369168083e7 0.0
0.0 0.0 0.0

487056.2637386117 2.2873558892062265e7 0.0
2.2873558892062265e7 -2.323753176992179e7 0.0
0.0 0.0 0.0

-1.0520043629006166e6 2.844790684938387e7 0.0
2.844790684938387e7 1.347286765825212e6 0.0
0.0 0.0 0.0

-3.2847632044011084e6 2.785568733761388e7 0.0
2.785568733761388e7 1.24389759749044e7 0.0
0.0 0.0 0.0

-6.305628836685749e6 1.846555293170906e7 0.0
1.846555293170906e7 2.984278943481349e7 0.0
0.0 0.0 0.0

-2.669302320766753e7 5.264427252830954e7 0.0
5.264427252830954e7 7.328775708072934e6 0.0
0.0 0.0 0.0

2.61844432871659e6 4.41386391378438e6 0.0
4.41386391378438e6 -1.3679425818930134e7 0.0
0.0 0.0 0.0

1.301955699201447e6 2.2270250671586666e7 0.0
2.2270250671586666e7 -1.8927740712650567e7 0.0
0.0 0.0 0.0

861553.2870475501 4.315872007622221e6 0.0
4.315872007622221e6 -7.17553618578525e7 0.0
0.0 0.0 0.0

6.447221565176338e6 3.057333042107947e7 0.0
3.057333042107947e7 -8.885471683486212e6 0.0
0.0 0.0 0.0

-5.886405203037189e6 1.5926954656598404e7 0.0
1.5926954656598404e7 1.7801388842951026e7 0.0
0.0 0.0 0.0

-1.2141011031707527e7 1.9526333855449494e7 0.0
1.9526333855449494e7 -4.693782348760489e7 0.0
0.0 0.0 0.0

4.585885160992727e7 2.7250431589236867e7 0.0
2.7250431589236867e7 9.7862976019416e6 0.0
0.0 0.0 0.0

-9.728748817438573e6 5.136610870623185e6 0.0
5.136610870623185e6 2.359062885748108e7 0.0
0.0 0.0 0.0

1.517134212659556e7 2.6023125785841394e7 0.0
2.6023125785841394e7 1.1494245974564113e7 0.0
0.0 0.0 0.0

9.073707459778234e6 1.9723930049860112e7 0.0
1.9723930049860112e7 3.379518962565217e7 0.0
0.0 0.0 0.0

-9.657025097585926e6 1.938209022864128e7 0.0
1.938209022864128e7 -3.1390741038514607e7 0.0
0.0 0.0 0.0

6.84344471706374e6 4.499021204842685e7 0.0
4.499021204842685e7 -4.474999226694981e6 0.0
0.0 0.0 0.0

801572.1945716036 3.0052112262785967e7 0.0
3.0052112262785967e7 -8.568637970915837e6 0.0
0.0 0.0 0.0

-3.7801050108510703e6 2.1468593907202978e7 0.0
2.1468593907202978e7 2.3063876874010295e7 0.0
0.0 0.0 0.0

-2.384409223407507e6 9.827147017469391e6 0.0
9.827147017469391e6 -9.397001933172749e7 0.0
0.0 0.0 0.0

-1.0350522111675298e7 2.779943722130119e6 0.0
2.779943722130119e6 2.0504376706809387e7 0.0
0.0 0.0 0.0

-2.0613361495602236e6 2.350506974858917e7 0.0
2.350506974858917e7 -1.0656151873157538e7 0.0
0.0 0.0 0.0

1.4648845668598967e7 2.7198691527339343e7 0.0
2.7198691527339343e7 1.4719501732851904e7 0.0
0.0 0.0 0.0

5.238422086963803e6 1.5782246246796332e7 0.0
1.5782246246796332e7 7.711450189349274e6 0.0
0.0 0.0 0.0

-3.174981323911139e6 2.6665159033822402e7 0.0
2.6665159033822402e7 1.7906306348643996e7 0.0
0.0 0.0 0.0

-3.2607330232634996e6 3.3541296949727006e7 0.0
3.3541296949727006e7 6.39190981056689e6 0.0
0.0 0.0 0.0

-2.314236844125764e7 5.363895721213656e7 0.0
5.363895721213656e7 8.759008055845661e6 0.0
0.0 0.0 0.0

728201.383769318 9.175919810022775e6 0.0
9.175919810022775e6 -7.062925045435576e6 0.0
0.0 0.0 0.0

-3.8226773565936615e6 3.3149653675607976e7 0.0
3.3149653675607976e7 5.819009391533091e6 0.0
0.0 0.0 0.0

703372.836822086 2.859670218859772e7 0.0
2.859670218859772e7 -8.37892510175864e6 0.0
0.0 0.0 0.0

2.1286654246076714e7 2.7459744842186067e7 0.0
2.7459744842186067e7 1.3944311983697642e7 0.0
0.0 0.0 0.0

1.543199972982339e6 3.285761579351359e7 0.0
3.285761579351359e7 -6.5303201019791905e6 0.0
0.0 0.0 0.0

2.0001886922601936e6 4.543124018640591e6 0.0
4.543124018640591e6 -1.0397378440510875e7 0.0
0.0 0.0 0.0

999387.6782276919 2.4454080723593816e7 0.0
2.4454080723593816e7 -1.6816171483108718e7 0.0
0.0 0.0 0.0

-9.22064359449176e6 4.669153145475748e6 0.0
4.669153145475748e6 3.140292673062689e7 0.0
0.0 0.0 0.0

2.477812608381942e6 6.360910885622931e6 0.0
6.360910885622931e6 -3.455185290246807e7 0.0
0.0 0.0 0.0

804084.6360455938 5.338802151842376e6 0.0
5.338802151842376e6 -7.777540455896853e7 0.0
0.0 0.0 0.0

5.023792638186784e6 2.6908681740768455e7 0.0
2.6908681740768455e7 1.590861285654298e7 0.0
0.0 0.0 0.0

1.1816177947212737e6 2.430007058746596e7 0.0
2.430007058746596e7 -1.997037606105442e7 0.0
0.0 0.0 0.0

-4.337389650186539e6 2.184928920977105e7 0.0
2.184928920977105e7 2.0678950732410204e7 0.0
0.0 0.0 0.0

2.7491998124087956e6 1.7558632290888233e6 0.0
1.7558632290888233e6 -2.9555720778065078e7 0.0
0.0 0.0 0.0

1.2724474896133337e6 1.9266787326167222e7 0.0
1.9266787326167222e7 -2.519649169640453e7 0.0
0.0 0.0 0.0

-185489.29851193912 2.196071251488899e7 0.0
2.196071251488899e7 -2.4783260503541216e7 0.0
0.0 0.0 0.0

-3.9012744097603e6 2.3050995434106022e7 0.0
2.3050995434106022e7 1.9605869900006764e7 0.0
0.0 0.0 0.0

2.5462725777713954e6 1.058466805129642e7 0.0
1.058466805129642e7 4.531185417749194e6 0.0
0.0 0.0 0.0

-8.298665363990655e6 964347.073825008 0.0
964347.073825008 3.395115097297673e7 0.0
0.0 0.0 0.0

551444.1983888913 2.3275755564982727e7 0.0
2.3275755564982727e7 -2.1067017944718137e7 0.0
0.0 0.0 0.0

-6.057172581238847e6 1.4589281895190097e7 0.0
1.4589281895190097e7 1.8768947741945624e7 0.0
0.0 0.0 0.0

1.959668316650056e7 2.4838667909022443e7 0.0
2.4838667909022443e7 1.243481840561729e7 0.0
0.0 0.0 0.0

2.340870844514244e6 2.9031020289350737e7 0.0
2.9031020289350737e7 -1.157012543783094e7 0.0
0.0 0.0 0.0

2.232444517543287e6 4.546850884650169e6 0.0
4.546850884650169e6 -8.777589911309611e6 0.0
0.0 0.0 0.0

-6.004978168234039e6 8.2038384576579e6 0.0
8.2038384576579e6 5.369515338971803e7 0.0
0.0 0.0 0.0

-2.1002838741879934e6 3.711290960246233e7 0.0
3.711290960246233e7 1.0049802572194329e6 0.0
0.0 0.0 0.0

-1.2201066902817499e7 3.833240741290579e7 0.0
3.833240741290579e7 6.108316602514059e6 0.0
0.0 0.0 0.0

-1.1197136616823805e7 6.557716814962605e6 0.0
6.557716814962605e6 2.05799624800181e7 0.0
0.0 0.0 0.0

-7.729894969416123e6 3.4465016550961e6 0.0
3.4465016550961e6 4.310037536548909e7 0.0
0.0 0.0 0.0

-488890.14332070947 1.6941674048079055e7 0.0
1.6941674048079055e7 -3.751768988547614e7 0.0
0.0 0.0 0.0

-2.9144592889062995e6 2.3690117074187238e7 0.0
2.3690117074187238e7 2.028342185520281e7 0.0
0.0 0.0 0.0

-5.96547107577141e6 9.538726492970124e6 0.0
9.538726492970124e6 5.44148266186633e7 0.0
0.0 0.0 0.0

-8.390304571868949e7 2.6303447682184014e7 0.0
2.6303447682184014e7 1.4937053488199897e6 0.0
0.0 0.0 0.0

718858.3801688738 1.5796121264270606e7 0.0
1.5796121264270606e7 -2.2385268023361553e7 0.0
0.0 0.0 0.0

1.222002956420181e6 2.3147765921874605e7 0.0
2.3147765921874605e7 537871.1859893997 0.0
0.0 0.0 0.0

1.8837836668501515e6 1.307923165260119e6 0.0
1.307923165260119e6 -4.80630325361487e7 0.0
0.0 0.0 0.0

7.497520380146302e6 2.281773989719052e7 0.0
2.281773989719052e7 1.829541113728996e7 0.0
0.0 0.0 0.0

-7.120053710528426e6 9.88584364732782e6 0.0
9.88584364732782e6 5.0597289658889726e7 0.0
0.0 0.0 0.0

687843.1165133207 7.600028845261083e6 0.0
7.600028845261083e6 -9.552131725813761e6 0.0
0.0 0.0 0.0

798970.3163484847 2.8649626426278617e7 0.0
2.8649626426278617e7 -8.391063955364387e6 0.0
0.0 0.0 0.0

-1.8378871426131218e6 3.2509893102422554e7 0.0
3.2509893102422554e7 731031.8322677811 0.0
0.0 0.0 0.0

-2.289139212227077e6 2.67125003259239e7 0.0
2.67125003259239e7 1.252940074708734e7 0.0
0.0 0.0 0.0

-8.520311888305474e6 3.7561488936618544e7 0.0
3.7561488936618544e7 6.041902689222731e6 0.0
0.0 0.0 0.0

-2.0251139195716283e6 2.595403482181721e7 0.0
2.595403482181721e7 1.3602886915117127e6 0.0
0.0 0.0 0.0

-5.958351423660465e6 1.571246873360854e6 0.0
1.571246873360854e6 5.993046337464921e7 0.0
0.0 0.0 0.0

5.394840947255196e6 2.266858458293814e7 0.0
2.266858458293814e7 3.0333263408834793e7 0.0
0.0 0.0 0.0

1.3407940198008372e6 2.1898781748769514e7 0.0
2.1898781748769514e7 -2.095578351904533e7 0.0
0.0 0.0 0.0

-2.436863085927051e7 3.2396192239750933e7 0.0
3.2396192239750933e7 -1.1562970533576213e7 0.0
0.0 0.0 0.0

-8.587244834732193e6 -749159.6857408009 0.0
-749159.6857408009 1.6455310277296577e7 0.0
0.0 0.0 0.0

-1.4399032991672838e6 4.024586507936383e7 0.0
4.024586507936383e7 2.0177948861584552e6 0.0
0.0 0.0 0.0

390949.1527652602 2.215150957979109e7 0.0
2.215150957979109e7 -2.1987612307432247e6 0.0
0.0 0.0 0.0

-4.412147143684607e6 2.029755497166509e7 0.0
2.029755497166509e7 3.517026545803836e7 0.0
0.0 0.0 0.0

1.8740429557278082e6 1.3795174535188992e7 0.0
1.3795174535188992e7 -3.0245327698679343e7 0.0
0.0 0.0 0.0

-5.481035533329679e6 1.9714816408086702e7 0.0
1.9714816408086702e7 3.1102035713840768e7 0.0
0.0 0.0 0.0

1.6483680366828637e6 4.696401638216622e6 0.0
4.696401638216622e6 -8.446483805734277e6 0.0
0.0 0.0 0.0

2.318469552312659e6 8.109868354537047e6 0.0
8.109868354537047e6 -3.396497023711097e7 0.0
0.0 0.0 0.0

-4.1415595630942965e6 2.575759250219239e7 0.0
2.575759250219239e7 -1.1948602822563771e7 0.0
0.0 0.0 0.0

-1.5700731101486755e6 2.7696841677071918e7 0.0
2.7696841677071918e7 3.6535230045944755e6 0.0
0.0 0.0 0.0

-1.2906419469996095e6 3.2538715701299865e7 0.0
3.2538715701299865e7 2.559571793791203e6 0.0
0.0 0.0 0.0

6.855895505756005e6 2.9666697930699386e7 0.0
2.9666697930699386e7 -8.566159836862182e6 0.0
0.0 0.0 0.0

2.6886154816656467e6 5.325329482806357e6 0.0
5.325329482806357e6 -3.0816926368598882e7 0.0
0.0 0.0 0.0

1.0314300695746974e6 4.653149469749907e6 0.0
4.653149469749907e6 -5.02765151690411e6 0.0
0.0 0.0 0.0

1.4507737184811924e6 7.137063255434552e6 0.0
7.137063255434552e6 -3.620362945135588e7 0.0
0.0 0.0 0.0

1.681901683373624e6 7.538278198267616e6 0.0
7.538278198267616e6 -9.930960838370012e6 0.0
0.0 0.0 0.0

2.6239283318660874e7 2.5110232172375806e7 0.0
2.5110232172375806e7 1.1073323865305956e7 0.0
0.0 0.0 0.0

-3.3754657369162436e6 4.512356548532978e7 0.0
4.512356548532978e7 2.885043217101596e6 0.0
0.0 0.0 0.0

-6.787576589286745e6 277485.2729990511 0.0
277485.2729990511 4.804877184503807e7 0.0
0.0 0.0 0.0

227906.22962220386 9.75255122503696e6 0.0
9.75255122503696e6 -6.130993738330303e7 0.0
0.0 0.0 0.0

5.726186131475734e6 3.070899912560425e7 0.0
3.070899912560425e7 -9.09458937132182e6 0.0
0.0 0.0 0.0

-3.149623001872654e6 2.564644593258789e7 0.0
2.564644593258789e7 -1.360495475528992e7 0.0
0.0 0.0 0.0

828856.2817480154 8.565317958653038e6 0.0
8.565317958653038e6 -4.571475496349196e7 0.0
0.0 0.0 0.0

-9.27993922945824e6 4.432754770351661e7 0.0
4.432754770351661e7 5.584222497243751e6 0.0
0.0 0.0 0.0

1.187301279430484e7 2.7488644562806766e7 0.0
2.7488644562806766e7 1.434998197627138e7 0.0
0.0 0.0 0.0

-5.058904936989704e7 4.9376335302462086e7 0.0
4.9376335302462086e7 7.28346971120267e6 0.0
0.0 0.0 0.0

-322015.6037919428 2.31138116447579e7 0.0
2.31138116447579e7 2.8265868702495214e7 0.0
0.0 0.0 0.0

1.5498648914478123e6 1.2456888006194517e7 0.0
1.2456888006194517e7 -3.120408802670237e7 0.0
0.0 0.0 0.0

1.032090392847543e8 3.261449973258329e7 0.0
3.261449973258329e7 1.4244914048322544e7 0.0
0.0 0.0 0.0

8.475174286305826e6 2.4551307654899362e7 0.0
2.4551307654899362e7 2.0904363578433175e7 0.0
0.0 0.0 0.0

-9.40194176049695e6 5.889493640176653e6 0.0
5.889493640176653e6 3.2445878361499183e7 0.0
0.0 0.0 0.0

3.1268038876962597e6 2.2930273732876707e7 0.0
2.2930273732876707e7 1.3017655596803444e7 0.0
0.0 0.0 0.0

-4.366407822971192e6 2.1053701081743952e7 0.0
2.1053701081743952e7 -3.218220334152805e7 0.0
0.0 0.0 0.0

1.3778765589291599e7 3.0976522033395544e7 0.0
3.0976522033395544e7 -4.279793681510193e6 0.0
0.0 0.0 0.0

-2.3123414209811566e6 2.7359172731967922e7 0.0
2.7359172731967922e7 1.0157878631878328e7 0.0
0.0 0.0 0.0

-7.246211639216319e6 8.253260796181391e6 0.0
8.253260796181391e6 4.947109540091599e7 0.0
0.0 0.0 0.0

-8.428700745647674e6 4.5459690595803395e7 0.0
4.5459690595803395e7 4.1328687236415846e6 0.0
0.0 0.0 0.0

-9.681459142730195e6 2.878277179534975e7 0.0
2.878277179534975e7 5.342022929002607e6 0.0
0.0 0.0 0.0

-2.1064782294962984e6 3.2029109700372376e7 0.0
3.2029109700372376e7 1.7207766033910494e6 0.0
0.0 0.0 0.0

5.907966662836695e6 3.7511578802595146e7 0.0
3.7511578802595146e7 -4.853530797312692e6 0.0
0.0 0.0 0.0

-2.0456930453674728e6 3.6235482755840756e7 0.0
3.6235482755840756e7 955758.4277965744 0.0
0.0 0.0 0.0

194162.95028079615 2.348365982132754e7 0.0
2.348365982132754e7 332127.16113173426 0.0
0.0 0.0 0.0

1.3941418634873629e6 2.424230700280049e7 0.0
2.424230700280049e7 2.463651687189413e7 0.0
0.0 0.0 0.0

3.7361998067401727e6 2.5934382797580186e7 0.0
2.5934382797580186e7 1.4224286802880191e6 0.0
0.0 0.0 0.0

-1.207480717241953e7 2.0850116788349133e7 0.0
2.0850116788349133e7 -5.7353771375641674e7 0.0
0.0 0.0 0.0

153715.04802005133 2.3405666877403304e7 0.0
2.3405666877403304e7 3.0740434662038917e6 0.0
0.0 0.0 0.0

-2.0025550427544643e6 2.768633567052695e7 0.0
2.768633567052695e7 1.953651922833838e6 0.0
0.0 0.0 0.0

7.8861931737898225e6 1.8645046985167667e7 0.0
1.8645046985167667e7 1.621440416844707e7 0.0
0.0 0.0 0.0

1.8482863584918855e6 2.6362931989446748e7 0.0
2.6362931989446748e7 -1.4563772969636133e7 0.0
0.0 0.0 0.0

636789.8923936076 1.8748432461647876e7 0.0
1.8748432461647876e7 -2.6786412739942428e7 0.0
0.0 0.0 0.0

2.6032727236788087e6 4.538252181614778e6 0.0
4.538252181614778e6 -3.231318209049185e7 0.0
0.0 0.0 0.0

7.0598970495755775e6 2.408726809380413e7 0.0
2.408726809380413e7 1.6468609794562494e7 0.0
0.0 0.0 0.0

-1.102930960436142e6 2.576034046078317e7 0.0
2.576034046078317e7 1.6120205563439468e7 0.0
0.0 0.0 0.0

-5.176928580509249e6 2.010125801435981e7 0.0
2.010125801435981e7 3.12327887938658e7 0.0
0.0 0.0 0.0

-1.990934104935544e6 2.6370540617483657e7 0.0
2.6370540617483657e7 1.1559191754760979e7 0.0
0.0 0.0 0.0

-5.9174307351123e6 2.5991825958773777e7 0.0
2.5991825958773777e7 -1.2337635608262992e7 0.0
0.0 0.0 0.0

-5.480365644558869e6 2.0456833862050883e7 0.0
2.0456833862050883e7 2.9294274201966763e7 0.0
0.0 0.0 0.0

-5.271369176859502e6 1.9705977339712568e7 0.0
1.9705977339712568e7 3.4981657956834145e7 0.0
0.0 0.0 0.0

-6.829582974725602e6 1.864753180811261e7 0.0
1.864753180811261e7 2.7573538245362278e7 0.0
0.0 0.0 0.0

-8.120717496735537e6 -438284.90831573063 0.0
-438284.90831573063 3.364838540477626e7 0.0
0.0 0.0 0.0

-2.8174587375873765e6 2.924848549831584e7 0.0
2.924848549831584e7 1.1824906198577687e7 0.0
0.0 0.0 0.0

-5.663268025354663e6 1.97033859390473e7 0.0
1.97033859390473e7 -4.807124213324278e7 0.0
0.0 0.0 0.0

-1.171886890759375e6 1.9085127362440053e7 0.0
1.9085127362440053e7 -3.3324404909105577e7 0.0
0.0 0.0 0.0

-4.067847306054497e7 3.767726100753268e7 0.0
3.767726100753268e7 -1.5570198886491798e7 0.0
0.0 0.0 0.0

-5.0957023979707025e6 6.806846299311839e6 0.0
6.806846299311839e6 6.102186105845653e7 0.0
0.0 0.0 0.0

-385314.16745045036 1.9855745234568544e7 0.0
1.9855745234568544e7 -3.1122901120485e7 0.0
0.0 0.0 0.0

-216638.14706466853 3.7459745469988994e7 0.0
3.7459745469988994e7 -1.495485811950195e6 0.0
0.0 0.0 0.0

4.961019374009533e6 2.2574803173516773e7 0.0
2.2574803173516773e7 2.3380082964172468e7 0.0
0.0 0.0 0.0

-7.897470554001933e6 -2.7415382501880247e6 0.0
-2.7415382501880247e6 2.912804143201104e7 0.0
0.0 0.0 0.0

-423442.92359511956 2.31716813148847e7 0.0
2.31716813148847e7 -2.6123999975075764e6 0.0
0.0 0.0 0.0

-331369.37262147106 2.5609686604423843e7 0.0
2.5609686604423843e7 -1.0821225815288102e7 0.0
0.0 0.0 0.0

-1.0976537791123748e7 1.0757750621482298e7 0.0
1.0757750621482298e7 2.2114682342436455e7 0.0
0.0 0.0 0.0

1.338120299927678e6 1.1560490394401303e6 0.0
1.1560490394401303e6 -6.129955763299154e7 0.0
0.0 0.0 0.0

-360937.2102249651 1.2280430962918593e7 0.0
1.2280430962918593e7 -1.0871846835790308e7 0.0
0.0 0.0 0.0

-8.95517211678032e6 4.722334525582188e6 0.0
4.722334525582188e6 3.983225390083315e7 0.0
0.0 0.0 0.0

2.7631041801700536e6 2.7041071568242736e7 0.0
2.7041071568242736e7 -1.4037960021684198e7 0.0
0.0 0.0 0.0

9.411750311880298e6 2.1628751297740396e7 0.0
2.1628751297740396e7 4.411213633912698e7 0.0
0.0 0.0 0.0

-321860.9818328123 1.1794207224583847e7 0.0
1.1794207224583847e7 -5.143705695233207e6 0.0
0.0 0.0 0.0

1.2459184501293734e7 2.7532574899919804e7 0.0
2.7532574899919804e7 1.6332566980168752e7 0.0
0.0 0.0 0.0

-4.31614841537349e6 4.628219885450797e7 0.0
4.628219885450797e7 3.1840971472933264e6 0.0
0.0 0.0 0.0

-1.0293321786854822e7 6.229807185596898e6 0.0
6.229807185596898e6 2.9079233238025393e7 0.0
0.0 0.0 0.0

2.3292293763751695e6 2.310012814418729e7 0.0
2.310012814418729e7 2.785150835364662e7 0.0
0.0 0.0 0.0

921584.7025330104 1.2839146844423171e7 0.0
1.2839146844423171e7 -3.1797274895220634e7 0.0
0.0 0.0 0.0

-2.7472209965675198e7 3.324581654852683e7 0.0
3.324581654852683e7 703973.415006442 0.0
0.0 0.0 0.0

-8.831736855852526e6 -914473.6789728779 0.0
-914473.6789728779 2.042523398579228e7 0.0
0.0 0.0 0.0

-1.6288525439727452e7 2.786719819689939e7 0.0
2.786719819689939e7 -1.113918292536576e7 0.0
0.0 0.0 0.0

4.638380146171128e7 2.9103674157559045e7 0.0
2.9103674157559045e7 1.0701184406239333e7 0.0
0.0 0.0 0.0

149227.98641050234 2.8823713649670545e7 0.0
2.8823713649670545e7 -8.298220641978845e6 0.0
0.0 0.0 0.0

1.6780329977593403e6 1.3207173671989238e7 0.0
1.3207173671989238e7 -2.940411844489927e7 0.0
0.0 0.0 0.0

-4.333030299176696e6 2.942579617340724e7 0.0
2.942579617340724e7 1.298119789784309e7 0.0
0.0 0.0 0.0

-5.119054388461087e6 2.107566532867217e6 0.0
2.107566532867217e6 6.796957938926207e7 0.0
0.0 0.0 0.0

-6.094935563100679e6 2.56829138621771e7 0.0
2.56829138621771e7 -1.7694577753904182e7 0.0
0.0 0.0 0.0

-1.5789139218500315e6 4.119569178778332e7 0.0
4.119569178778332e7 2.104930253478769e6 0.0
0.0 0.0 0.0

-3.6957490044409446e6 1.7792351937580537e7 0.0
1.7792351937580537e7 -4.681937845128947e7 0.0
0.0 0.0 0.0

78407.53113265801 2.3148325126663115e7 0.0
2.3148325126663115e7 -2.3098028233319595e7 0.0
0.0 0.0 0.0

-58267.13882284332 2.224039082530684e7 0.0
2.224039082530684e7 -2.512212414890472e7 0.0
0.0 0.0 0.0

-5.271491523313459e6 1.6346362441836841e7 0.0
1.6346362441836841e7 4.3830318762696154e7 0.0
0.0 0.0 0.0

-2.5788002035048394e6 2.7839454465658735e7 0.0
2.7839454465658735e7 1.0617119914546724e7 0.0
0.0 0.0 0.0

-4.567873678994335e6 1.420602475314883e7 0.0
1.420602475314883e7 1.2205355394977608e8 0.0
0.0 0.0 0.0

3.02198708976686e6 1.4401279726694752e7 0.0
1.4401279726694752e7 -1.2249655056343688e8 0.0
0.0 0.0 0.0

-2.3183920898627937e7 3.2615802732029013e7 0.0
3.2615802732029013e7 -1.540974542355325e7 0.0
0.0 0.0 0.0

-1.548424497338782e6 2.4725209032887567e7 0.0
2.4725209032887567e7 1.7372794422373448e7 0.0
0.0 0.0 0.0

-3.360036623092781e7 3.388086353989045e7 0.0
3.388086353989045e7 -5.930938173435932e6 0.0
0.0 0.0 0.0

-8.6402720212168e6 -892198.165208268 0.0
-892198.165208268 2.4018207117013674e7 0.0
0.0 0.0 0.0

-5.0647555373817645e6 2.1585160492131982e7 0.0
2.1585160492131982e7 2.578989990944142e7 0.0
0.0 0.0 0.0

-1.8216229346451096e7 2.9584836002109118e7 0.0
2.9584836002109118e7 -8.955588826791449e6 0.0
0.0 0.0 0.0

-7.896297977949424e6 6.008039849387866e6 0.0
6.008039849387866e6 4.221000345205302e7 0.0
0.0 0.0 0.0

4.345461488098939e7 2.6186471362601485e7 0.0
2.6186471362601485e7 9.706266832644958e6 0.0
0.0 0.0 0.0

2.9978282832745565e6 2.2577967723151732e7 0.0
2.2577967723151732e7 3.368014866093391e7 0.0
0.0 0.0 0.0

-2.7975209257090967e6 2.335150087331716e7 0.0
2.335150087331716e7 2.0020309629186027e7 0.0
0.0 0.0 0.0

-3.2449015534025736e7 4.845871381127279e7 0.0
4.845871381127279e7 1.0111697167888677e7 0.0
0.0 0.0 0.0

6.937139037917329e6 2.650877772604139e7 0.0
2.650877772604139e7 7.590349014781058e6 0.0
0.0 0.0 0.0

5.037110621971913e6 2.5257521973201755e7 0.0
2.5257521973201755e7 -584736.8252995368 0.0
0.0 0.0 0.0

-5.580839562394702e6 3.1252737043332122e7 0.0
3.1252737043332122e7 1.0810555377002573e7 0.0
0.0 0.0 0.0

-1.0633175874901455e7 2.7542931474300794e7 0.0
2.7542931474300794e7 -1.0204738825174733e6 0.0
0.0 0.0 0.0

-1.4350641824503057e6 2.3462989698533688e7 0.0
2.3462989698533688e7 -2.7386588637045873e6 0.0
0.0 0.0 0.0

4.942316068495622e6 2.6320473881373644e7 0.0
2.6320473881373644e7 -2.8773582562361974e6 0.0
0.0 0.0 0.0

6.195236025852652e6 2.6135786684651043e7 0.0
2.6135786684651043e7 1.6741354008905131e7 0.0
0.0 0.0 0.0

8.0207991273269e6 4.306411822189045e7 0.0
4.306411822189045e7 -3.0470009700870495e6 0.0
0.0 0.0 0.0

-3.4386937573989714e6 2.886375015718927e7 0.0
2.886375015718927e7 1.2651608427208615e7 0.0
0.0 0.0 0.0

-6.846258486761559e6 4.5689605358905025e7 0.0
4.5689605358905025e7 2.2265732144684144e6 0.0
0.0 0.0 0.0

-1.0296073359282255e7 1.996614116694537e7 0.0
1.996614116694537e7 -6.2842070792144e7 0.0
0.0 0.0 0.0

-2.127071559380618e7 2.3272846023596328e7 0.0
2.3272846023596328e7 -1.1496950132468586e8 0.0
0.0 0.0 0.0

2.056072402707067e7 2.4240893012170244e7 0.0
2.4240893012170244e7 1.1366360198847891e8 0.0
0.0 0.0 0.0

9.718785794823272e6 2.2140754470800024e7 0.0
2.2140754470800024e7 4.2131959182169974e7 0.0
0.0 0.0 0.0

-682539.1188349873 1.1791692325879697e7 0.0
1.1791692325879697e7 -5.275087750386359e7 0.0
0.0 0.0 0.0

4.775062679777447e6 4.245682787553389e7 0.0
4.245682787553389e7 -3.859215363141489e6 0.0
0.0 0.0 0.0

2.677893502304133e6 2.883393691913016e7 0.0
2.883393691913016e7 -1.1257365508513613e7 0.0
0.0 0.0 0.0

-1.5846603956841535e6 2.436449191420022e7 0.0
2.436449191420022e7 -9.12983194822988e6 0.0
0.0 0.0 0.0

2.826402364131063e6 2.763746201935369e7 0.0
2.763746201935369e7 -1.3101454650313271e7 0.0
0.0 0.0 0.0

-4.139595137169769e7 5.229882256860087e7 0.0
5.229882256860087e7 1.188915232993916e7 0.0
0.0 0.0 0.0

-3.303993336041886e6 4.070314876750376e7 0.0
4.070314876750376e7 1.3600915519905253e6 0.0
0.0 0.0 0.0

-8.060117433198166e6 3.208512081527826e7 0.0
3.208512081527826e7 8.917109257909086e6 0.0
0.0 0.0 0.0

989568.5546589941 3.3000442150338953e6 0.0
3.3000442150338953e6 -6.51950178457952e7 0.0
0.0 0.0 0.0

1.496020562880084e7 3.2031959190282162e7 0.0
3.2031959190282162e7 -4.754948478852262e6 0.0
0.0 0.0 0.0

-3.428693998809211e6 1.8492415162467398e7 0.0
1.8492415162467398e7 -4.3555528515664004e7 0.0
0.0 0.0 0.0

1.3329750286508203e7 3.2709106063484207e7 0.0
3.2709106063484207e7 -5.488035315534936e6 0.0
0.0 0.0 0.0

-713786.9021097086 2.253974210688131e7 0.0
2.253974210688131e7 -1.4594646449031641e6 0.0
0.0 0.0 0.0

3.328490518211128e6 2.3913903180050652e7 0.0
2.3913903180050652e7 2.8889828511969212e7 0.0
0.0 0.0 0.0

-6.463167805361656e6 3.5178974379035816e7 0.0
3.5178974379035816e7 6.724992298462655e6 0.0
0.0 0.0 0.0

-7.850589220893603e6 296101.58269156754 0.0
296101.58269156754 4.016472042549541e7 0.0
0.0 0.0 0.0

2.353690023019613e7 2.6276050217248786e7 0.0
2.6276050217248786e7 5.805299240886469e6 0.0
0.0 0.0 0.0

-9.552875060807908e7 3.490409692685543e7 0.0
3.490409692685543e7 -2.7616100204026215e6 0.0
0.0 0.0 0.0

-6.031599206114022e6 1.6715895256459456e7 0.0
1.6715895256459456e7 4.102767672382174e7 0.0
0.0 0.0 0.0

-7.684548633941599e6 2.8708546395902764e7 0.0
2.8708546395902764e7 5.911815005786933e6 0.0
0.0 0.0 0.0

6.333166062549129e6 2.6557047778870173e7 0.0
2.6557047778870173e7 783389.1594980699 0.0
0.0 0.0 0.0

2.298187881934773e6 2.969780944424881e6 0.0
2.969780944424881e6 -4.210246331318208e7 0.0
0.0 0.0 0.0

-2.412403201852734e6 2.5634705418461695e7 0.0
2.5634705418461695e7 1.3468435377561744e7 0.0
0.0 0.0 0.0

-5.8662694001908e6 1.4504829643588723e6 0.0
1.4504829643588723e6 6.067434221156743e7 0.0
0.0 0.0 0.0

-2.1967059417892836e7 2.8276979616666086e7 0.0
2.8276979616666086e7 -1.222788078541106e8 0.0
0.0 0.0 0.0

2.0619331873181093e7 2.9303366715074725e7 0.0
2.9303366715074725e7 1.185584155333158e8 0.0
0.0 0.0 0.0

-492032.7998674568 1.6092561081400827e7 0.0
1.6092561081400827e7 -3.915259004769973e7 0.0
0.0 0.0 0.0

200168.36247021263 4.934949055263038e6 0.0
4.934949055263038e6 -5.182815060020488e6 0.0
0.0 0.0 0.0

1.736211180165509e7 2.276233007543669e7 0.0
2.276233007543669e7 7.226956577707186e6 0.0
0.0 0.0 0.0

-5.320274760511477e6 2.855231371560591e6 0.0
2.855231371560591e6 6.847524695628159e7 0.0
0.0 0.0 0.0

528897.2963849949 9.49626584905764e6 0.0
9.49626584905764e6 -8.744115437092286e6 0.0
0.0 0.0 0.0

9.955171143095043e6 4.072232314776387e7 0.0
4.072232314776387e7 -4.898969920228398e6 0.0
0.0 0.0 0.0

785902.8604100505 2.3658480500467792e7 0.0
2.3658480500467792e7 -1.8017368497061428e7 0.0
0.0 0.0 0.0

7.063750047564574e6 2.2583870824669216e7 0.0
2.2583870824669216e7 2.9693118718231723e7 0.0
0.0 0.0 0.0

-8.43999042158244e6 2.838744848543473e7 0.0
2.838744848543473e7 211597.65096397372 0.0
0.0 0.0 0.0

-3.972796681485046e7 3.1307271347905066e7 0.0
3.1307271347905066e7 -1.0058579781235663e7 0.0
0.0 0.0 0.0

-3.9508096170556275e6 3.9957010644549526e7 0.0
3.9957010644549526e7 2.1991603934343206e6 0.0
0.0 0.0 0.0

2.369847830516575e6 2.366756939024741e7 0.0
2.366756939024741e7 1.5826098974150792e7 0.0
0.0 0.0 0.0

-16530.825591288507 2.4916297575914323e7 0.0
2.4916297575914323e7 2.0399010992973823e7 0.0
0.0 0.0 0.0

1.0411894976569861e6 1.9903325918652978e7 0.0
1.9903325918652978e7 -2.5734879212415494e7 0.0
0.0 0.0 0.0

2.918334257787468e6 2.674994374638305e7 0.0
2.674994374638305e7 -1.3778953803927118e7 0.0
0.0 0.0 0.0

-5.740172143137101e6 4.657093536349397e6 0.0
4.657093536349397e6 6.610801414214125e7 0.0
0.0 0.0 0.0

-3.512819375534217e7 5.32981694048264e7 0.0
5.32981694048264e7 8.660032200154219e6 0.0
0.0 0.0 0.0

-1.6750631396138282e7 4.0979000632233866e7 0.0
4.0979000632233866e7 6.194838234086652e6 0.0
0.0 0.0 0.0

-3.984760460658074e7 3.493925825230268e7 0.0
3.493925825230268e7 -6.344868775284482e6 0.0
0.0 0.0 0.0

384304.73569615604 2.4248876542544827e7 0.0
2.4248876542544827e7 5.446415162942458e6 0.0
0.0 0.0 0.0

-1.2400535924982755e7 2.916947654930812e7 0.0
2.916947654930812e7 -2.0540185299450473e6 0.0
0.0 0.0 0.0

-2.4036399021352522e7 3.1487252098008513e7 0.0
3.1487252098008513e7 -1.147806301348759e7 0.0
0.0 0.0 0.0

1.4087128458432695e6 8.484151130159244e6 0.0
8.484151130159244e6 -8.272856675762255e6 0.0
0.0 0.0 0.0

6.1094070883601885e6 2.27701726631687e7 0.0
2.27701726631687e7 3.0572677955575384e7 0.0
0.0 0.0 0.0

502211.94447212294 1.0816907501792427e7 0.0
1.0816907501792427e7 -5.17809646674348e7 0.0
0.0 0.0 0.0

-4.844162829486497e6 1.7608832202008847e7 0.0
1.7608832202008847e7 4.213866300722572e7 0.0
0.0 0.0 0.0

-4.826711045981888e6 2.456729008876342e6 0.0
2.456729008876342e6 6.981225399665275e7 0.0
0.0 0.0 0.0

1.3592813729461841e6 3.6129871490756823e6 0.0
3.6129871490756823e6 -6.4174222490854256e7 0.0
0.0 0.0 0.0

-4.4788231189361155e7 3.5039901720474795e7 0.0
3.5039901720474795e7 -7.830358446269464e6 0.0
0.0 0.0 0.0

-6.269451652047768e6 746100.2125721346 0.0
746100.2125721346 5.5487839096679784e7 0.0
0.0 0.0 0.0

-7.051006526392236e6 369677.74447892496 0.0
369677.74447892496 4.8494545744822696e7 0.0
0.0 0.0 0.0

519331.85460403794 8.131312375560678e6 0.0
8.131312375560678e6 -1.094868428722908e7 0.0
0.0 0.0 0.0

-7.182982895639287e6 1.9322699439607763e6 0.0
1.9322699439607763e6 4.635314647450484e7 0.0
0.0 0.0 0.0

1.33552722798218e7 5.7143821668146595e7 0.0
5.7143821668146595e7 -5.490679919795547e6 0.0
0.0 0.0 0.0

-2.6036250205677757e6 2.4528668382905267e7 0.0
2.4528668382905267e7 1.8983712156245533e7 0.0
0.0 0.0 0.0

129143.84748948738 4.873393437963689e6 0.0
4.873393437963689e6 -7.899878570533875e7 0.0
0.0 0.0 0.0

1.165466595271457e6 4.1222105972859706e6 0.0
4.1222105972859706e6 -4.9966419229104266e7 0.0
0.0 0.0 0.0

-2.6367326756443903e6 2.7627116759768672e7 0.0
2.7627116759768672e7 9.555908683820626e6 0.0
0.0 0.0 0.0

-6.5604622496745875e6 4.4821106005860515e7 0.0
4.4821106005860515e7 4.0024492413066984e6 0.0
0.0 0.0 0.0

9.867543977134176e6 1.2118968389009537e7 0.0
1.2118968389009537e7 2.5069205347444555e6 0.0
0.0 0.0 0.0

1.6314674866229398e7 2.6978551857686203e7 0.0
2.6978551857686203e7 1.4746794249081975e7 0.0
0.0 0.0 0.0

1.5099289337319933e7 3.0319256509018425e7 0.0
3.0319256509018425e7 -3.137631148205106e6 0.0
0.0 0.0 0.0

-6.454671120155197e6 1.0135332794633522e6 0.0
1.0135332794633522e6 5.448433708686211e7 0.0
0.0 0.0 0.0

-2.382518870659939e7 2.7915472634069584e7 0.0
2.7915472634069584e7 -5.42465919836304e6 0.0
0.0 0.0 0.0

-3.74816462124189e6 3.90236014344991e7 0.0
3.90236014344991e7 2.0504137073994651e6 0.0
0.0 0.0 0.0

7.807592597412065e6 2.139650685102581e7 0.0
2.139650685102581e7 6.72638775471313e7 0.0
0.0 0.0 0.0

1.7800289743323606e7 3.098655538655306e7 0.0
3.098655538655306e7 -3.1339561563888686e6 0.0
0.0 0.0 0.0

-6.247417024807455e6 2.600204078557403e7 0.0
2.600204078557403e7 -1.2350377913827183e7 0.0
0.0 0.0 0.0

-2.883555730757828e6 2.5936449612339653e7 0.0
2.5936449612339653e7 1.931992032750138e7 0.0
0.0 0.0 0.0

-4.534772897990671e6 2.537215556357471e7 0.0
2.537215556357471e7 -1.2184026261774033e7 0.0
0.0 0.0 0.0

-9.142317517302538e7 4.836589945514284e7 0.0
4.836589945514284e7 -1.4491673090609903e7 0.0
0.0 0.0 0.0

-3.5045386560799284e6 2.4200255167718012e7 0.0
2.4200255167718012e7 1.8469372432382144e7 0.0
0.0 0.0 0.0

-5.530971535108399e6 2.664836692583874e7 0.0
2.664836692583874e7 -1.045743620309875e7 0.0
0.0 0.0 0.0

-3.2424613443393027e6 2.6865888841905374e7 0.0
2.6865888841905374e7 1.8234291350269772e7 0.0
0.0 0.0 0.0

1.228564712033385e7 2.9801433610446e7 0.0
2.9801433610446e7 -4.312718115369428e6 0.0
0.0 0.0 0.0

1.8501558111187518e6 2.9289626308332835e6 0.0
2.9289626308332835e6 -4.0809774765714034e7 0.0
0.0 0.0 0.0

5.800441316804516e6 2.882670379922452e7 0.0
2.882670379922452e7 -9.041092855464248e6 0.0
0.0 0.0 0.0

-3.4139754734062396e7 5.302593516684014e7 0.0
5.302593516684014e7 7.906047739268731e6 0.0
0.0 0.0 0.0

-8.35401479501656e6 3.6622759627790734e7 0.0
3.6622759627790734e7 7.0072760184141295e6 0.0
0.0 0.0 0.0

-8.413258129763102e6 -189235.33767275853 0.0
-189235.33767275853 3.2773066373464823e7 0.0
0.0 0.0 0.0

952319.2856294122 2.3918550963551e7 0.0
2.3918550963551e7 -1.9908557984579895e7 0.0
0.0 0.0 0.0

1.967804876849586e7 2.7189297990133747e7 0.0
2.7189297990133747e7 7.235787393848038e6 0.0
0.0 0.0 0.0

-7.94145053920339e7 4.0458300033841945e7 0.0
4.0458300033841945e7 -671326.9311842024 0.0
0.0 0.0 0.0

6.05728718725657e6 2.117502571795062e7 0.0
2.117502571795062e7 2.1343157061263416e7 0.0
0.0 0.0 0.0

-330853.1446802467 1.0504465030642588e7 0.0
1.0504465030642588e7 -5.462590650472301e7 0.0
0.0 0.0 0.0

603625.3375604115 1.9523671467922717e7 0.0
1.9523671467922717e7 -2.5600591099871505e7 0.0
0.0 0.0 0.0

-2.0327707314115958e6 2.5988462195974626e7 0.0
2.5988462195974626e7 1.560123264109839e7 0.0
0.0 0.0 0.0

-9.76709929936141e6 4.520602113748955e7 0.0
4.520602113748955e7 3.6884950521854344e6 0.0
0.0 0.0 0.0

2.5514125405379166e6 3.3372869327685952e7 0.0
3.3372869327685952e7 -5.666178738862625e6 0.0
0.0 0.0 0.0

1.6425478565727975e6 2.836319908336918e6 0.0
2.836319908336918e6 -4.909833451915962e7 0.0
0.0 0.0 0.0

1.043107295894919e7 2.1789936109403647e7 0.0
2.1789936109403647e7 6.0329908389688574e7 0.0
0.0 0.0 0.0

-940307.695065073 2.2182001504442733e7 0.0
2.2182001504442733e7 -2.3928378581711445e6 0.0
0.0 0.0 0.0

-6.165403318037511e7 4.738344614767576e7 0.0
4.738344614767576e7 1.0217874741706792e7 0.0
0.0 0.0 0.0

-8.273623263425164e6 2.611062139258068e6 0.0
2.611062139258068e6 4.162130954049386e7 0.0
0.0 0.0 0.0

-7.411761122632086e6 2.2365015506978864e6 0.0
2.2365015506978864e6 4.422793282217361e7 0.0
0.0 0.0 0.0

1.896058238852155e7 2.696448991293025e7 0.0
2.696448991293025e7 1.030214516733251e7 0.0
0.0 0.0 0.0

-6.181398969937388e6 628011.7504674328 0.0
628011.7504674328 5.410798498803723e7 0.0
0.0 0.0 0.0

5.008111204489986e6 2.193244956770159e7 0.0
2.193244956770159e7 2.0686249418676205e7 0.0
0.0 0.0 0.0

1.129095932303172e7 2.2280415384155545e7 0.0
2.2280415384155545e7 4.494951493218164e7 0.0
0.0 0.0 0.0

2.3434979755937043e6 4.223858059913287e7 0.0
4.223858059913287e7 -1.9031090948765287e6 0.0
0.0 0.0 0.0

-4.699867532708678e6 7.794157696381397e6 0.0
7.794157696381397e6 7.2231617882725e7 0.0
0.0 0.0 0.0

-4.373061805835113e6 1.8513873053324863e7 0.0
1.8513873053324863e7 -4.510944169758787e7 0.0
0.0 0.0 0.0

32247.722670881543 9.183958974348329e6 0.0
9.183958974348329e6 -9.385157595659945e6 0.0
0.0 0.0 0.0

-1.4654958640835313e6 2.539374142385916e7 0.0
2.539374142385916e7 1.3722732043248812e7 0.0
0.0 0.0 0.0

7.206622145840263e6 2.2329264227077067e7 0.0
2.2329264227077067e7 4.3212471848077565e7 0.0
0.0 0.0 0.0

-7.12788702843469e6 2.577898305978616e6 0.0
2.577898305978616e6 5.280330023557381e7 0.0
0.0 0.0 0.0

-5.265775701558687e6 1.0503694414489867e7 0.0
1.0503694414489867e7 6.572637477017278e6 0.0
0.0 0.0 0.0

-1.8328707190017966e6 2.6845128283071365e7 0.0
2.6845128283071365e7 2.0435116405524914e6 0.0
0.0 0.0 0.0

4.192927840174694e6 1.3972473359105501e7 0.0
1.3972473359105501e7 1.1725258678556474e7 0.0
0.0 0.0 0.0

5.861326497271214e6 2.551490121154661e7 0.0
2.551490121154661e7 -1.4203850419699515e6 0.0
0.0 0.0 0.0

-7.877794849444885e6 2.089251538178631e6 0.0
2.089251538178631e6 4.402623794056893e7 0.0
0.0 0.0 0.0

-3.910538911503859e6 7.661643706760056e6 0.0
7.661643706760056e6 7.657846421555954e7 0.0
0.0 0.0 0.0

4.8137327674680995e6 2.6226554464770425e7 0.0
2.6226554464770425e7 -154353.40495507326 0.0
0.0 0.0 0.0

1.6975281388048818e6 2.452635028435935e7 0.0
2.452635028435935e7 -1.6964269904864807e7 0.0
0.0 0.0 0.0

-3.5805479286791086e6 7.47373541211031e6 0.0
7.47373541211031e6 7.581521020134452e7 0.0
0.0 0.0 0.0

1.169509462464158e7 2.9960761021517653e7 0.0
2.9960761021517653e7 -4.121351095560426e6 0.0
0.0 0.0 0.0

6.011507473812101e6 2.1615376439900286e7 0.0
2.1615376439900286e7 3.1453270191035654e7 0.0
0.0 0.0 0.0

-6.807028956521938e6 1.5173228633541321e7 0.0
1.5173228633541321e7 1.7275920846672546e7 0.0
0.0 0.0 0.0

-5.764600683329785e6 1.4153476546650352e7 0.0
1.4153476546650352e7 4.464714796022364e6 0.0
0.0 0.0 0.0

-1.2046475834180824e7 1.096594434323642e7 0.0
1.096594434323642e7 4.393926718003435e6 0.0
0.0 0.0 0.0

