# vtk DataFile Version 2.0
phase field modeling fracture
ASCII
DATASET UNSTRUCTURED_GRID
POINTS 2538 float
0.0 0.0 0.0
10.0 0.0 0.0
0.0 10.0 0.0
10.0 10.0 0.0
0.0 4.9995 0.0
0.0 5.0005 0.0
5.0 5.0 0.0
0.9416964895726688 0.0 0.0
1.803581725054446 0.0 0.0
2.592419885431098 0.0 0.0
3.314401822861676 0.0 0.0
3.975193910351406 0.0 0.0
4.579982132660152 0.0 0.0
5.133512780936812 0.0 0.0
5.640130319506143 0.0 0.0
6.103810708661955 0.0 0.0
6.528192895506818 0.0 0.0
6.916607540127679 0.0 0.0
7.272102969376355 0.0 0.0
7.597469242948583 0.0 0.0
7.895259826292669 0.0 0.0
8.167811885738017 0.0 0.0
8.417264413845215 0.0 0.0
8.645575169389538 0.0 0.0
8.854535961159101 0.0 0.0
9.045786767735546 0.0 0.0
9.220828555767493 0.0 0.0
9.38103509633881 0.0 0.0
9.527663687265145 0.0 0.0
9.661865124984566 0.0 0.0
9.784692609918062 0.0 0.0
9.897110148790482 0.0 0.0
10.0 0.09999999999992584 0.0
10.0 0.199999999999856 0.0
10.0 0.2999999999997771 0.0
10.0 0.3999999999996677 0.0
10.0 0.4999999999995511 0.0
10.0 0.5999999999994683 0.0
10.0 0.6999999999993983 0.0
10.0 0.7999999999993286 0.0
10.0 0.8999999999992587 0.0
10.0 0.9999999999991888 0.0
10.0 1.099999999999119 0.0
10.0 1.199999999999033 0.0
10.0 1.299999999998852 0.0
10.0 1.399999999998576 0.0
10.0 1.499999999998284 0.0
10.0 1.599999999997992 0.0
10.0 1.6999999999977 0.0
10.0 1.799999999997408 0.0
10.0 1.899999999997116 0.0
10.0 1.999999999996825 0.0
10.0 2.099999999996533 0.0
10.0 2.199999999996241 0.0
10.0 2.299999999995949 0.0
10.0 2.399999999995657 0.0
10.0 2.499999999995365 0.0
10.0 2.599999999995073 0.0
10.0 2.699999999994782 0.0
10.0 2.79999999999449 0.0
10.0 2.899999999994198 0.0
10.0 2.999999999993906 0.0
10.0 3.099999999993614 0.0
10.0 3.199999999993322 0.0
10.0 3.299999999993029 0.0
10.0 3.399999999992738 0.0
10.0 3.499999999992446 0.0
10.0 3.599999999992154 0.0
10.0 3.699999999991863 0.0
10.0 3.799999999991571 0.0
10.0 3.899999999991278 0.0
10.0 3.999999999991022 0.0
10.0 4.099999999991035 0.0
10.0 4.199999999991187 0.0
10.0 4.299999999991338 0.0
10.0 4.399999999991491 0.0
10.0 4.499999999991642 0.0
10.0 4.599999999991795 0.0
10.0 4.699999999991947 0.0
10.0 4.799999999992099 0.0
10.0 4.89999999999225 0.0
10.0 4.999999999992403 0.0
10.0 5.099999999992555 0.0
10.0 5.199999999992706 0.0
10.0 5.299999999992858 0.0
10.0 5.39999999999301 0.0
10.0 5.499999999993161 0.0
10.0 5.599999999993313 0.0
10.0 5.699999999993466 0.0
10.0 5.799999999993618 0.0
10.0 5.899999999993771 0.0
10.0 5.999999999993922 0.0
10.0 6.099999999994074 0.0
10.0 6.199999999994227 0.0
10.0 6.299999999994378 0.0
10.0 6.39999999999453 0.0
10.0 6.499999999994682 0.0
10.0 6.599999999994833 0.0
10.0 6.699999999994986 0.0
10.0 6.799999999995138 0.0
10.0 6.899999999995289 0.0
10.0 6.999999999995442 0.0
10.0 7.099999999995594 0.0
10.0 7.199999999995747 0.0
10.0 7.299999999995897 0.0
10.0 7.39999999999605 0.0
10.0 7.499999999996202 0.0
10.0 7.599999999996353 0.0
10.0 7.699999999996505 0.0
10.0 7.799999999996658 0.0
10.0 7.899999999996808 0.0
10.0 7.999999999996962 0.0
10.0 8.099999999997113 0.0
10.0 8.199999999997265 0.0
10.0 8.299999999997418 0.0
10.0 8.399999999997569 0.0
10.0 8.499999999997721 0.0
10.0 8.599999999997873 0.0
10.0 8.699999999998024 0.0
10.0 8.799999999998176 0.0
10.0 8.899999999998329 0.0
10.0 8.99999999999848 0.0
10.0 9.099999999998634 0.0
10.0 9.199999999998786 0.0
10.0 9.299999999998937 0.0
10.0 9.399999999999089 0.0
10.0 9.499999999999241 0.0
10.0 9.599999999999392 0.0
10.0 9.699999999999545 0.0
10.0 9.799999999999697 0.0
10.0 9.899999999999848 0.0
9.897110148790565 10.0 0.0
9.784692609918244 10.0 0.0
9.66186512498486 10.0 0.0
9.527663687265571 10.0 0.0
9.381035096339392 10.0 0.0
9.220828555768257 10.0 0.0
9.045786767736512 10.0 0.0
8.854535961160305 10.0 0.0
8.645575169391027 10.0 0.0
8.417264413847017 10.0 0.0
8.167811885740178 10.0 0.0
7.895259826295246 10.0 0.0
7.597469242951631 10.0 0.0
7.272102969379938 10.0 0.0
6.916607540131873 10.0 0.0
6.528192895511704 10.0 0.0
6.103810708667616 10.0 0.0
5.640130319512691 10.0 0.0
5.13351278094435 10.0 0.0
4.579982132668816 10.0 0.0
3.975193910361222 10.0 0.0
3.314401822869852 10.0 0.0
2.592419885437257 10.0 0.0
1.803581725058137 10.0 0.0
0.9416964895740705 10.0 0.0
0.0 9.00010000000243 0.0
0.0 8.000200000005481 0.0
0.0 7.000300000005135 0.0
0.0 6.000400000002569 0.0
0.901790731451151 5.000409820926855 0.0
1.657200899774397 5.000334279910023 0.0
2.289991063707192 5.000271000893629 0.0
2.820065163538221 5.000217993483646 0.0
3.264096435579811 5.000173590356442 0.0
3.636051481595835 5.00013639485184 0.0
3.947629914072366 5.000105237008593 0.0
4.208632181002628 5.0000791367819 0.0
4.427267949625672 5.000057273205037 0.0
4.610414277633563 5.000038958572237 0.0
4.763831845154243 5.000023616815485 0.0
4.892346298799659 5.00001076537012 0.0
4.892346298799748 4.99998923462988 0.0
4.763831845154455 4.999976383184515 0.0
4.610414277633943 4.999961041427763 0.0
4.427267949626277 4.999942726794963 0.0
4.208632181003523 4.9999208632181 0.0
3.94762991407365 4.999894762991407 0.0
3.636051481597624 4.99986360514816 0.0
3.264096435582253 4.999826409643559 0.0
2.820065163541503 4.999782006516354 0.0
2.289991063711534 4.999728999106371 0.0
1.657200899778495 4.999665720089978 0.0
0.9017907314530094 4.999590179073145 0.0
0.0 3.999600000002013 0.0
0.0 2.999700000005187 0.0
0.0 1.99980000000512 0.0
0.0 0.9999000000025537 0.0
9.897889398521345 2.93573355845387 0.0
9.906568249974548 7.060009441434234 0.0
9.913122631074113 3.64016132281653 0.0
9.922462129543863 6.354535290629151 0.0
9.917693659967533 4.354211663134567 0.0
9.909873057440208 5.637584487339942 0.0
9.914183254994697 4.950672966925282 0.0
9.913885043715895 7.666887930262611 0.0
9.91009668007573 2.351889069770817 0.0
9.905135696074536 8.138152454502785 0.0
9.913397459621809 1.849999999997262 0.0
7.099302372137626 0.297750452375005 0.0
7.095143729410097 9.700359990366296 0.0
4.942912558701401 5.095838627899509 0.0
4.315009232304429 5.165022115481685 0.0
4.946182472483878 4.906763777264103 0.0
4.317967462990024 4.825955043772673 0.0
9.916390871492647 8.64999999999792 0.0
9.921504649680616 1.368376469890358 0.0
8.292538149791614 0.206877570318844 0.0
8.292538149793597 9.793122429681448 0.0
5.884594439766573 9.587645267048616 0.0
5.794826292691579 0.3794853783929359 0.0
9.913397459621425 9.049999999998557 0.0
9.908526577714177 0.9568239351922434 0.0
3.456851160380649 5.315740054130451 0.0
3.457889657868442 4.707121019609468 0.0
8.945214200703926 0.1503383337970344 0.0
8.950161364448409 9.8413906539257 0.0
9.913862335499305 4.055887885208452 0.0
9.916697353372683 4.650158482607802 0.0
9.919076340414442 6.049999999994006 0.0
9.906994308667635 5.25749687748192 0.0
9.917490342358025 6.655979201891897 0.0
9.915757520293784 7.343848891656911 0.0
9.910049507471042 3.363474386285078 0.0
9.914471988502868 2.647400064832979 0.0
9.91474124160965 9.337490423485129 0.0
9.916971008170838 0.6499999999994355 0.0
4.307157269264427 9.509674045029644 0.0
4.331527375865619 0.4401616696422582 0.0
9.45434939180249 9.878397030523757 0.0
9.457696120412969 0.1270877537061785 0.0
2.555070293622606 5.422044496190925 0.0
2.566232917480916 4.608001224030952 0.0
3.026511860837692 9.332320638257093 0.0
2.945561971800619 0.5895662714727601 0.0
7.7395404387124 0.2511088946967771 0.0
7.736379255744154 9.745848826372828 0.0
4.687135269408529 5.122111433928926 0.0
4.688420821504113 4.871895064967488 0.0
9.910554884115975 0.3448356354522978 0.0
9.911230082250466 9.65764729394159 0.0
9.921953841410854 6.851023993342036 0.0
9.912065178606017 5.448170483544033 0.0
9.911660025326261 3.861846960030188 0.0
9.914847467973438 3.14501593945607 0.0
9.913397459621425 5.849999999993703 0.0
9.913397459621425 7.849999999996735 0.0
9.906916878988277 2.15455769998631 0.0
9.913397459621425 8.349999999997479 0.0
9.909472363117661 1.640528221515488 0.0
9.913987325695956 1.152857110636247 0.0
9.913397459621425 8.849999999998241 0.0
0.9100099990995943 2.614215977520411 0.0
0.8395284981715456 7.451196254860987 0.0
9.723278867451556 9.898135916635193 0.0
9.723316350887044 0.09841820909386662 0.0
1.385819164827588 4.454539963646463 0.0
1.338343629665047 5.523111536005823 0.0
1.377179700550677 0.6809168304959698 0.0
1.418060461092743 9.285896715136046 0.0
9.91268220142518 0.1457914080939694 0.0
9.906737126737994 9.845745933882352 0.0
0.7108351382691361 6.537941170074089 0.0
1.527735020267026 6.915620208855231 0.0
1.630993885659103 7.838271825205868 0.0
2.232760943566823 7.370850737296832 0.0
2.243414218068206 6.688299277952821 0.0
2.779655053105118 7.021588754814074 0.0
2.80227799359795 7.632420170547022 0.0
3.282022065908813 7.305859666021318 0.0
3.327597298795347 7.857554136825748 0.0
3.743210251018715 7.549183328204379 0.0
3.716353232200752 7.062036086888612 0.0
4.111978858674101 7.27497101169417 0.0
4.104192177581432 6.879858986267289 0.0
4.436230765617037 7.045693351607117 0.0
4.430360014817357 6.703971783962796 0.0
4.732390145036301 6.849841042423394 0.0
5.056161327708878 5.095276573498806 0.0
5.111586796021131 4.999081142133581 0.0
5.169267363407189 5.09444870412406 0.0
5.223795108752053 4.996986220359468 0.0
5.281480803887719 5.092780870372803 0.0
5.335670761900611 4.994887492556936 0.0
5.393485214772442 5.090486192743301 0.0
5.447323082877892 4.992601527033996 0.0
5.505243219343024 5.087953380710069 0.0
5.558739102026105 4.990287787962959 0.0
5.616491581184779 5.085335255235766 0.0
5.669852346908056 4.9879269227514 0.0
5.727502713908907 5.082679981817038 0.0
5.780766004135139 4.988313988715834 0.0
5.838244881129535 5.080480568766611 0.0
5.891357695677371 4.986433849408193 0.0
5.948696036767613 5.077969900389505 0.0
6.001601341641615 4.981313698556656 0.0
6.058851024265095 5.074871552128682 0.0
6.111614020704875 4.978360695880202 0.0
6.168801161530775 5.072044953270978 0.0
6.221368818778567 4.975825765213497 0.0
6.278268309066882 5.066182320461055 0.0
6.330814273567539 4.972837984645718 0.0
6.387565032421376 5.062889771971895 0.0
6.437476667631405 4.971693683589553 0.0
6.496181111585419 5.060210690175857 0.0
6.539454812256072 4.964658165361536 0.0
6.604198202576491 5.056387520850258 0.0
6.648506025747331 4.939374587506267 0.0
6.714026758992516 5.05873885840664 0.0
6.764418045981209 4.959246676066148 0.0
6.8219334571197 5.055299567406268 0.0
6.873708540948134 4.960426349093742 0.0
6.930181428849307 5.053461390218819 0.0
6.981893615341967 4.96435459462232 0.0
7.037791764774784 5.051219747103022 0.0
7.090993561518408 4.96392420322464 0.0
5.504417457283294 4.900897920552702 0.0
7.145434864123609 5.048960634292441 0.0
6.054532384032612 4.883956083938546 0.0
6.738027949040956 4.850032323068674 0.0
7.198432914526514 4.956325226333323 0.0
7.252637187936749 5.046012229327236 0.0
7.30926729605109 4.948903216650376 0.0
7.248106275544042 4.860306312845646 0.0
7.363100274863074 4.849952416808486 0.0
7.365733472701664 5.039519554615095 0.0
7.308483293090149 5.137557220352172 0.0
6.768399513646964 5.145609705119954 0.0
7.422800035311104 5.132251445551834 0.0
7.358273518796229 5.235980394389298 0.0
7.480824155801127 5.227946127939927 0.0
7.302193400058628 4.761917474298247 0.0
7.413570879789824 4.754555110721153 0.0
7.414392998903179 5.334729114426734 0.0
7.352769630272076 4.660405502266205 0.0
7.467556835255426 4.658352623795039 0.0
7.536246869015014 5.328986926716081 0.0
7.478865844607288 5.432598185493195 0.0
7.406396991826072 4.556956233957538 0.0
7.523581002009154 4.552005631348623 0.0
7.597792398573263 5.429506106314967 0.0
7.540511043402902 5.53619421580439 0.0
7.46214474876342 4.452580994318881 0.0
7.5852185078634 4.446021810672608 0.0
7.663329342323453 5.533453399066901 0.0
7.603478967594521 5.643227430483237 0.0
7.513450346818673 4.347641323140766 0.0
7.640744971722214 4.333388343316237 0.0
7.727671715775243 5.642390483050116 0.0
7.667774597993788 5.753188858425915 0.0
7.570065256728661 4.230515669344811 0.0
7.702881065467917 4.218307808529532 0.0
7.638288257073729 4.107994211855027 0.0
7.493362356301017 4.120843902105771 0.0
7.779018500630071 5.521233457321821 0.0
7.794641287388929 5.752364621610818 0.0
7.73369774483611 5.865894287356292 0.0
7.600834531784728 5.867752110500446 0.0
6.233038857278689 5.15645045634683 0.0
7.669727996028819 5.985665563643058 0.0
7.528582452554481 5.987393423295551 0.0
7.598722674572824 6.11001923494443 0.0
7.778305000222867 4.104318908265786 0.0
7.704329019832056 3.987744174608892 0.0
7.838453459801382 4.213322728668484 0.0
7.864495721576461 5.862306066517277 0.0
7.846552353360407 3.98481756181946 0.0
7.769730409703277 3.86544808681145 0.0
5.785249360396857 5.177248808588045 0.0
7.908837087876153 3.861484036275285 0.0
7.834824606222196 3.740586825753288 0.0
7.97685993406276 3.736209527152902 0.0
7.89665098770825 3.615501862931453 0.0
7.753228010315262 3.617800245018972 0.0
7.826063013090472 3.483173292579822 0.0
7.66789744383048 3.48859328808356 0.0
8.042515855796823 3.595394268381807 0.0
7.75200750488492 3.341279823834038 0.0
7.582870318332553 3.346584916806707 0.0
8.120807847415062 3.732493963388337 0.0
8.189783970303546 3.61159165475499 0.0
7.657801000286734 3.200439907646711 0.0
7.486781956172036 3.201402473247712 0.0
7.452595103886905 6.11418616185016 0.0
7.527098033550077 6.243191052852112 0.0
8.260502906807751 3.728437634721859 0.0
8.327629317451398 3.608173631356984 0.0
7.372763970891452 6.247552889754036 0.0
7.456170570815929 6.384992468962936 0.0
7.621837793616884 6.376077080857113 0.0
7.548039512904141 6.520750676893614 0.0
7.717475944451644 6.514856553988943 0.0
7.636658166268699 6.661648164052906 0.0
7.807468267259438 6.664076174524672 0.0
7.718022764310774 6.817938967122142 0.0
7.887785766941087 6.807440365887151 0.0
7.545993589083432 6.815070675854734 0.0
7.809874785067209 6.967537287475282 0.0
7.975643812145337 6.948729406725126 0.0
8.396477808021062 3.725446935061211 0.0
7.565651643157136 3.044354774611752 0.0
7.384328725505071 3.043048915147076 0.0
8.056405351948353 6.802790889114673 0.0
8.14128318237188 6.940027831915737 0.0
8.064621760266059 7.086348792208953 0.0
8.225003598857908 6.805225152373254 0.0
8.463085452993242 3.606998510553562 0.0
8.230426869720718 7.079551841000411 0.0
8.155262284174286 7.224761758176069 0.0
8.530696760758996 3.721683301125054 0.0
8.596669886994064 3.604516769862316 0.0
8.528531058025589 3.490411531312337 0.0
8.320451770844851 7.218191678954744 0.0
8.245273958732774 7.363444652121271 0.0
8.66324687389452 3.717094013035765 0.0
8.600103125209296 3.831913857228569 0.0
8.662131102573216 3.488322280861316 0.0
8.594166125380536 3.374071873435548 0.0
8.411074336066186 7.353871649576861 0.0
8.339644223432472 7.505172120620427 0.0
8.165883718619623 7.513159193685373 0.0
8.483453820080417 7.2082285366806 0.0
8.261200365730348 7.657400951288149 0.0
8.081570576666843 7.670933304838066 0.0
7.471613195794025 2.872548423100142 0.0
7.268733678357991 2.881209199257603 0.0
7.184255506995786 3.084448584600423 0.0
7.065899603697895 2.883902449336828 0.0
6.960163891183182 3.081014635802978 0.0
6.847612128388715 2.885646860602812 0.0
6.739800729737967 3.078895733381448 0.0
8.729373804596847 3.827689165637365 0.0
8.668550856907444 3.938702277545298 0.0
8.72770789162863 3.371798381178293 0.0
8.659764090070603 3.257493349874974 0.0
8.436453928793245 7.648724489148887 0.0
6.619080287792762 2.90880017416788 0.0
6.511740956842646 3.09340654756684 0.0
8.793527829963288 3.935174834810256 0.0
8.736430500996828 4.042719556852617 0.0
7.631260330584174 4.565300771328012 0.0
8.359058396840432 7.801678182761817 0.0
5.339436215072359 5.184870243702279 0.0
4.994031736761993 5.193306795607908 0.0
6.383387675268097 4.87760645722207 0.0
7.29117392392962 6.382172868329505 0.0
6.378196825372041 2.907113079755629 0.0
6.269817199014261 3.12412150658573 0.0
8.793149127377946 3.255386294257182 0.0
8.725774239201558 3.141596687892195 0.0
8.857434600673502 4.041295940541356 0.0
8.802868937128341 4.1471119953668 0.0
8.532045262478793 7.7905977476835 0.0
7.364542641624493 2.699128473342751 0.0
7.571677611088925 2.695732556686516 0.0
6.723058333614999 2.672341359410618 0.0
8.456744924757372 7.94483904450548 0.0
6.140831279784704 2.921247401137864 0.0
6.02419219050745 3.14358702955763 0.0
8.916255604212301 3.934279868822481 0.0
8.859287250884009 3.140226640574265 0.0
8.791092798057303 3.025929352146465 0.0
7.210445465986021 6.245773134960393 0.0
7.120884161792869 6.385155584680196 0.0
7.036931702064287 6.240721609143972 0.0
6.943722280007011 6.3869279517155 0.0
8.920094519678617 4.144837222494242 0.0
8.864374107136287 4.250930406527029 0.0
7.347569838739255 4.463467417508182 0.0
5.90383431757064 2.935113219563906 0.0
5.783476009580765 3.156456199832474 0.0
8.626013191558314 7.935092223505354 0.0
8.687240186957197 7.796697889991163 0.0
5.642059327424706 2.903018174330269 0.0
5.52647853955939 3.162549070310043 0.0
8.555300051897738 8.086169516016518 0.0
8.405624441178524 8.083972416481254 0.0
5.374124307190728 2.945480555950917 0.0
8.935805220807357 3.249260758206028 0.0
8.981625171409894 4.247375537584228 0.0
8.924725364486765 4.352101286657735 0.0
8.807208588134106 4.356163101450244 0.0
8.868277832430604 4.45657124153171 0.0
8.75099635287701 4.460644845248524 0.0
8.812385950597063 4.560891222623518 0.0
8.693833206943118 4.564602972998703 0.0
8.756474732548273 4.665720853686476 0.0
8.63721608225855 4.669394550615355 0.0
8.700108119351134 4.770682016274914 0.0
8.81920502916846 4.767536120893284 0.0
8.76355311338807 4.871451945248518 0.0
8.881442328033694 4.868382238751069 0.0
8.826433523510634 4.97132552240372 0.0
8.943387824985514 4.967694248194483 0.0
8.888718468126953 5.071044784833541 0.0
8.580377663835254 4.774669738817985 0.0
8.770572242937233 5.073880380431421 0.0
8.832915096600454 5.174518948293615 0.0
8.952224483821848 5.170970838320107 0.0
8.897282771771884 5.275476392171722 0.0
7.463928467290875 2.513944501591933 0.0
7.675935950092034 2.509420347143072 0.0
8.924252417741767 3.024418701372628 0.0
8.857265893102921 2.911213535286156 0.0
8.776981063213334 5.27944309004916 0.0
8.840710910770163 5.380165700477552 0.0
8.960876896785969 5.375521424256389 0.0
8.904555918255223 5.482125846038813 0.0
7.567193097677677 2.32750151280277 0.0
7.780880844888839 2.323064027160363 0.0
6.851602118390116 6.234522818184622 0.0
6.758680682687229 6.389359516748128 0.0
6.66345977321418 6.231254850996584 0.0
8.715764716958308 8.079994249772627 0.0
8.65189989696114 8.227534663647639 0.0
9.042229096541828 4.348551764001607 0.0
6.436774206993324 3.316782326998922 0.0
7.590527613340588 5.22651784724799 0.0
9.024366884701616 5.476726561488805 0.0
8.968734351641839 5.583879050892151 0.0
8.845941080047659 5.586406316932274 0.0
8.909881305857882 5.690482454668167 0.0
7.348726871578975 5.44047403999932 0.0
6.567070253986433 6.398115757512583 0.0
6.697077150072261 6.553426749743366 0.0
5.252377383990728 3.187782967482479 0.0
8.988440431820699 2.908621158637298 0.0
8.922541972760119 2.796420836075996 0.0
6.466806010659505 6.229115583261771 0.0
9.033851153821296 5.686506775615425 0.0
8.978340519963718 5.795772485582058 0.0
8.85111463793018 5.798672910287243 0.0
8.922171984280597 5.907237880910408 0.0
8.795190680908043 5.911854068712683 0.0
8.864373398892472 6.019728357749566 0.0
8.991346995940626 6.014539153309398 0.0
8.93374019140187 6.12698887312768 0.0
5.095192648098848 2.952353430985476 0.0
7.672651464908932 2.141715359830917 0.0
7.886266921042761 2.136211284120189 0.0
9.098474286589756 4.245971410451114 0.0
8.813172564986438 8.216887361735234 0.0
8.74802978243154 8.366104673219047 0.0
9.059985162956899 6.120982589539211 0.0
9.00342813739303 6.233245043891739 0.0
4.961413514304496 3.214209167276753 0.0
9.05248113004685 2.794651022570942 0.0
8.986028039118027 2.681341972594222 0.0
5.671890458441996 3.377122473800023 0.0
4.755829262593116 7.184480462344647 0.0
9.158258644940048 4.34465968221255 0.0
4.799687186662534 2.961354824469195 0.0
6.030554747591715 2.726787502996874 0.0
8.938327180212585 8.34758372042188 0.0
8.847392320655468 8.503370672816716 0.0
8.67342124373679 8.518117686968314 0.0
5.234423106934083 2.694925204361751 0.0
8.964923046453565 8.185313058214797 0.0
7.456650986668838 2.134076476407834 0.0
9.111732084821366 2.897226832609386 0.0
6.368055837513985 6.402805870976705 0.0
6.265629899005033 6.226581076317183 0.0
8.736327196352686 6.026404178766982 0.0
9.117473097358854 2.67987006607594 0.0
9.052137415465204 2.565428515518978 0.0
7.781001557847192 1.955874236406257 0.0
7.992134447300669 1.949184538864554 0.0
8.593074792993455 3.143159483125708 0.0
9.1291360203536 6.226877897052981 0.0
9.072154326613617 6.338696745620542 0.0
8.916532550320525 2.566986282201109 0.0
8.984021113721658 2.449252898983242 0.0
9.178032243215632 6.120533546076094 0.0
9.213703592343162 4.244823670856978 0.0
9.11972142641474 2.449071238668887 0.0
9.052853896812186 2.33190758581705 0.0
8.635035926402708 4.462329956179506 0.0
8.773614475966344 8.657865377672689 0.0
8.596400917257634 8.67759750279447 0.0
8.942023339420883 8.644678093589654 0.0
9.19471670675691 6.33096438039349 0.0
9.138460613363325 6.443043552768813 0.0
8.66620319432524 5.916297234509582 0.0
8.606669825267202 6.032658196729024 0.0
9.27222540210304 4.341341907533128 0.0
9.013782808177437 6.451040569407859 0.0
9.08360982569773 6.55729980456602 0.0
7.885622149776354 1.768093045890686 0.0
8.095672144455353 1.768790621151345 0.0
9.208772072925791 6.549717411809656 0.0
9.154272208194383 6.662613503537815 0.0
9.187669783927937 2.334640996932141 0.0
9.122379015831417 2.215832190697178 0.0
6.164077036161143 6.404611236428829 0.0
6.062367614988677 6.224307160647549 0.0
8.987075041759633 2.211477580983978 0.0
9.056972755801603 2.093573581203428 0.0
9.194557288902232 2.096029761809264 0.0
9.131223008370409 1.972713028695079 0.0
8.87381302587057 8.795793668920256 0.0
9.039169086943392 8.781606667490083 0.0
4.662813350519927 3.228118291851354 0.0
4.474181267994617 2.945703616023359 0.0
6.562627723301209 6.075544382232434 0.0
9.326886053211574 4.243083624343211 0.0
9.280374192897945 6.656072830232892 0.0
9.224718905178564 6.766740750539347 0.0
4.703284910421452 6.528907865005451 0.0
8.955136474970331 6.565989985649191 0.0
8.998148826814893 4.865480736169776 0.0
8.99429836796776 1.965972383552685 0.0
9.065669391141741 1.847195105148808 0.0
9.207236162050343 1.853010386995843 0.0
9.143218073349985 1.725630086781897 0.0
8.998867447699345 1.719378449325465 0.0
9.082595782768397 1.592017827427701 0.0
8.92804562738841 1.585238202229766 0.0
9.01637794607019 1.453847302675876 0.0
8.854253119154375 1.446306868730686 0.0
8.941620273019874 1.320083886766936 0.0
8.775393064215876 1.308487027359826 0.0
9.102170347200483 1.324733726345249 0.0
9.013857060361985 1.178821526410403 0.0
7.991031819452564 1.587689878441685 0.0
7.767218744640202 1.595993197647291 0.0
9.191539171305216 1.194087248761656 0.0
9.123965901037613 1.057102462689568 0.0
4.853921953226772 3.470213116851758 0.0
7.496563223334782 3.470157221608763 0.0
8.536691379028115 5.921845852206257 0.0
8.475496498707471 6.037633662010236 0.0
7.978668526342969 2.307231488316941 0.0
9.384721922092124 4.337357165846226 0.0
9.331039180200886 4.435926256444196 0.0
8.546261775564837 6.150267290476958 0.0
8.411727261785726 6.155319300628062 0.0
8.972203609044218 8.930944433074036 0.0
9.133480321468399 8.90955269607895 0.0
9.197778815538276 8.768743880012563 0.0
6.162231825784922 6.05277753404107 0.0
5.962111081146334 6.046949845237622 0.0
9.268727788642101 4.146883230687689 0.0
9.380694211527906 4.144811697563401 0.0
9.323823335199954 4.049557759546529 0.0
9.283324894520613 1.736313094621396 0.0
5.858151623803662 6.22041808248046 0.0
5.759668475561988 6.038806123495502 0.0
7.836860473863919 3.191674397465999 0.0
9.348591928839294 6.75855034547469 0.0
9.293979592221298 6.870213350675044 0.0
9.170543172728557 6.879819332293818 0.0
9.240028263813034 6.983394994050525 0.0
4.347372565145963 3.312731475520695 0.0
4.114183445909965 2.96879678229065 0.0
8.616264880152233 4.042035981070631 0.0
9.403174760076901 6.650407069150438 0.0
4.173860112179449 7.723461240865885 0.0
9.365302975518428 6.973476802087294 0.0
9.312420275675276 7.088420778208979 0.0
9.184876614539778 7.0978133687822 0.0
9.25921281729617 7.204979813006656 0.0
9.12816413817609 7.21569648263899 0.0
9.203944409919862 7.322703303071253 0.0
9.334311975087337 7.311477957762272 0.0
9.280415785210538 7.428795599957155 0.0
9.274060219641907 1.066603180421249 0.0
9.211820491509728 0.9316562593680151 0.0
9.050684011148748 0.9017681241401576 0.0
9.441953732403995 4.432092590771756 0.0
9.394725873909666 4.526051349391942 0.0
9.43453556160865 4.048003950509361 0.0
9.378043599351757 3.952631412328806 0.0
9.289691247910705 8.890746792319852 0.0
9.228148443138926 9.030109127390128 0.0
4.440757888677695 6.389562448928118 0.0
4.689874463978985 6.239329075084555 0.0
4.291519540095677 2.622920583112654 0.0
3.886073352912894 2.632778677714434 0.0
9.344015622314338 1.202401041544343 0.0
8.193292196814806 3.849649660906171 0.0
6.960946604527747 6.07044529864598 0.0
9.347708267319902 8.756364147482309 0.0
6.826423138602714 3.261415861395883 0.0
6.06309517882478 5.884563187328262 0.0
9.4085057714426 7.414123963607981 0.0
9.356416821537886 7.532359471354527 0.0
5.042074134251055 6.938947182785697 0.0
5.063988238156824 7.311205832605263 0.0
3.946666851334923 3.30681624613374 0.0
8.189857914071878 1.939951128540477 0.0
7.880690277686857 1.38928908049477 0.0
7.63766396748483 1.399736360041063 0.0
9.345004233592562 1.857695941115052 0.0
9.440465164139875 7.085860901905448 0.0
7.918332480761888 5.744468010879592 0.0
9.08007135068879 5.372457017512481 0.0
8.78639561093144 3.718391405525285 0.0
9.356843485085705 0.9414458825132457 0.0
9.29705128845331 0.8103081541678832 0.0
9.251825423225316 2.451701826351773 0.0
8.483895366325516 6.270717564685176 0.0
8.346386886249478 6.275973306650227 0.0
9.493299170161215 4.138582531223591 0.0
5.321115649032961 7.117073603021904 0.0
5.354076009109965 7.436189411362466 0.0
5.597984079819928 7.254284331170681 0.0
5.644042313435943 7.564172740776336 0.0
5.383963016128051 7.753854027984002 0.0
5.681168258142109 7.880444993178456 0.0
5.935548099874979 7.687258900444162 0.0
5.979508404301389 7.994332725561488 0.0
6.21936843555201 7.802335560754011 0.0
6.267092590637372 8.104873033518185 0.0
6.498845418385807 7.917606504106031 0.0
6.544600005636809 8.209910620392591 0.0
6.77336078689533 8.027284686082275 0.0
6.814840179123049 8.311778392637773 0.0
6.721304148677048 7.737863326704131 0.0
7.031320924898797 8.1335673274533 0.0
7.077388928622946 8.403901803728003 0.0
5.417471987089176 8.090112295667405 0.0
8.845427688507666 2.446352368201366 0.0
9.318512319918124 2.339233739859646 0.0
9.380241452597096 2.451895615249572 0.0
7.283805558009199 8.237518806365102 0.0
7.329200330160381 8.497045124353782 0.0
7.233272584416691 7.991590926766813 0.0
9.142592248414191 5.471315142785471 0.0
9.196303265878848 5.36738298742727 0.0
9.25795832955665 5.465260877691205 0.0
9.310581303233182 5.36341558704714 0.0
9.371094700882272 5.459458038195667 0.0
9.422767107822985 5.360687090455724 0.0
9.36402660964156 5.264821436196721 0.0
9.474220736978928 5.262802348886269 0.0
9.41680330511366 5.169477108906666 0.0
5.168675939028436 4.895496152382537 0.0
9.482591449057548 5.454699312257291 0.0
9.431567605310825 5.552723344040521 0.0
7.531449703396948 4.741663470323411 0.0
8.517293123442691 4.672601123164268 0.0
8.459978676626639 4.778466809901586 0.0
8.396595115309985 4.67568709170855 0.0
8.338966609235166 4.782101664607259 0.0
8.275355646032752 4.678829956447008 0.0
8.217675280223542 4.785699596769931 0.0
8.28149024865807 4.888803783902183 0.0
8.16019781596952 4.892696417098926 0.0
8.22433278506531 4.995725219088695 0.0
8.102825704443651 4.999629142625341 0.0
8.166887930010795 5.098242831115916 0.0
8.034904900788316 4.896825406879729 0.0
8.15353539905931 4.682103688185489 0.0
8.211891449058882 4.574219757233394 0.0
8.290305306104333 5.094007100958221 0.0
8.225684228618732 5.201525567655179 0.0
9.444618942559746 2.343141375196729 0.0
6.929446520625337 4.868116916840016 0.0
5.737810725167649 4.893891407574175 0.0
8.720389971487277 5.38508368411851 0.0
8.805734920311323 8.951818172412821 0.0
8.905272694453211 9.083303226359831 0.0
6.006155038818204 5.171375272745409 0.0
6.431496448228514 5.152985998213245 0.0
9.052675024457304 7.106590131831544 0.0
7.740007013494393 6.09727525827826 0.0
9.375852260355511 9.013078430361404 0.0
9.32035844773103 9.14584923943073 0.0
6.989707597683965 5.146377438798643 0.0
9.488190206836386 3.951168069367155 0.0
9.432429152094464 3.855725756072153 0.0
5.568386402814275 5.185723849666124 0.0
9.525561551078322 5.166162126187324 0.0
9.465026391994275 5.072601962964018 0.0
9.320357339516937 3.857795423728873 0.0
9.375955927831914 3.759314274140895 0.0
9.261783786753899 3.761412578759438 0.0
9.31820665563318 3.661845422072752 0.0
9.431798673168924 3.660830894813109 0.0
9.374584413615914 3.563138564686839 0.0
9.48759661134647 3.562294297118573 0.0
9.431339678707085 3.464016717943268 0.0
9.417896212887529 1.746970678437863 0.0
8.731705369070733 9.110902182838881 0.0
5.652297951447118 6.21188565774667 0.0
5.569122518069258 6.024400786163834 0.0
8.257007204149394 3.505875091031567 0.0
8.717428603143034 2.925525757227976 0.0
6.882852832747376 8.57686572931064 0.0
6.337330066435714 8.416819098143066 0.0
9.50188906539997 4.521022403818629 0.0
9.453500859905136 4.617181635748691 0.0
9.46806769570129 6.749352117850711 0.0
8.836822104875719 1.72282859852854 0.0
7.481071063421426 5.64593758994851 0.0
5.668814988976305 5.86611128457842 0.0
5.487644760735084 5.847591822776978 0.0
8.993992818065195 7.228173913870249 0.0
7.98322414937693 7.229980191466666 0.0
9.22810751684646 7.54864871395298 0.0
9.304103360459063 7.654622011545798 0.0
9.432787371848761 7.633691049023619 0.0
9.382619818023882 7.759136995934441 0.0
7.239096822516492 4.679179578301165 0.0
9.47692479956498 1.861231395362419 0.0
8.041243110813022 5.095895152648969 0.0
6.190208781188077 7.509864122823853 0.0
9.283062812782122 4.549418667685757 0.0
9.503847665760087 2.450295046295932 0.0
9.443345385250678 2.557904120404248 0.0
9.52009568463353 6.644015937008899 0.0
9.203119005973903 3.662458522935253 0.0
8.406198651282708 5.92630414760378 0.0
8.467263597743843 5.811987729136874 0.0
9.461423029059445 9.128120577356565 0.0
9.408445330070542 9.26024300250086 0.0
9.266505293379728 9.277952925446408 0.0
4.14874709022218 3.631681332690154 0.0
9.437448107949258 0.8198473430736303 0.0
9.376993771693973 0.6910550697058979 0.0
9.22882356848217 0.6931820370818127 0.0
4.451823867195988 6.103664366188579 0.0
4.200031743909027 6.232039028149317 0.0
4.687154754667774 5.975132870483986 0.0
6.268889397098538 6.592235545990395 0.0
7.509366161722768 8.340075462391164 0.0
7.564775703413765 8.59800936579159 0.0
9.542148732924264 3.854614593058991 0.0
7.036231103929761 6.550562550831048 0.0
4.089373665437328 2.268193930262139 0.0
3.642558884866483 2.250386188148396 0.0
3.442182385618804 2.651948803899947 0.0
3.146832503011753 2.222630466765926 0.0
2.948870467975985 2.805088883766417 0.0
9.352005315330274 5.067356449300542 0.0
9.31729677031493 3.462944187594675 0.0
9.37428383619102 3.365546369736205 0.0
9.4883538239391 3.365384871181599 0.0
9.432147665178338 3.267287636377487 0.0
9.25034519267688 7.775848812012313 0.0
9.332091350002502 7.881724023243533 0.0
9.462101000264603 7.86490055671988 0.0
9.413353271651825 7.98561007219363 0.0
8.273592814723814 6.158623919352561 0.0
8.207135014732339 6.280394934566054 0.0
9.541483811580331 5.548224291759592 0.0
9.491365919893726 5.644847811894615 0.0
8.088095771120983 4.577581369371366 0.0
8.14760102783746 4.468303741922308 0.0
9.556217963323956 4.414867468889523 0.0
9.543667331547693 3.266908751519594 0.0
9.489307652535885 3.169908976697059 0.0
9.26285575842982 8.635341362685686 0.0
9.403220742003983 8.621447866627538 0.0
9.326013417886902 8.506778946171965 0.0
9.455477927154853 8.503896705359047 0.0
9.566646674069602 4.611465258087684 0.0
9.499341049870914 0.9352184973273918 0.0
8.683891958597638 1.444705608998412 0.0
8.599973456173778 1.287265568270043 0.0
7.760988189317371 1.175381292562583 0.0
7.50927661322749 1.171223823957793 0.0
7.380927152434357 1.411062577009695 0.0
7.242417847270241 1.170759311509981 0.0
7.107236746116019 1.421234419770886 0.0
6.960799033544566 1.169618322344823 0.0
6.817786081200392 1.434174581170586 0.0
9.48095050141868 8.738557748483624 0.0
9.319762046171894 3.263060331456388 0.0
8.920653400180534 7.117307656029475 0.0
9.452431221190624 6.544166520883111 0.0
9.571407933653493 6.540336592280795 0.0
9.507586285214174 6.443281357841339 0.0
9.575252974749443 5.070210512157044 0.0
5.755172844377253 6.370710487467459 0.0
9.541351959064952 7.969072511059531 0.0
9.354607289792183 9.3921968735401 0.0
9.495213435762107 9.37218405175897 0.0
3.77688136092967 3.643094492921176 0.0
5.460967180339239 6.159077196937325 0.0
8.656589552918996 5.283032675040985 0.0
8.599307076390474 5.387421722684671 0.0
9.584017606465821 5.263931993965828 0.0
9.51536593891754 4.977534386249715 0.0
7.788544970111893 2.70578432810479 0.0
7.381746833264364 8.755477463411431 0.0
7.615969996822885 8.852710176548548 0.0
7.783643411970649 8.691528137204457 0.0
7.845017394185501 8.938777577473743 0.0
8.570520580943368 7.342304222498308 0.0
9.103648004226827 5.781084627507008 0.0
8.338082930126799 5.815990105349368 0.0
8.930848895071895 4.561111316304916 0.0
7.381089602119859 5.983657236035151 0.0
8.42066837692862 6.393608568217351 0.0
8.888256157021065 6.459558428285236 0.0
8.826495664731354 6.575679897210801 0.0
4.22522220414496 5.921354747981145 0.0
3.943296448343383 6.075578573904587 0.0
9.563175937841836 2.554860696349795 0.0
9.505342423182917 2.656889632284623 0.0
6.660863480070611 1.168750929063519 0.0
6.518316961679488 1.436478598119306 0.0
6.683474168246802 1.694104067636375 0.0
6.376799057174731 1.707382100972048 0.0
6.205091481342603 1.443621641108414 0.0
6.058670988071357 1.728841803855816 0.0
5.877457486049096 1.454297236926778 0.0
5.724979192982589 1.756666409586195 0.0
5.529885788012015 1.462283739157555 0.0
9.514953777019835 0.7018468683209754 0.0
8.398665270372675 5.702731562702358 0.0
9.456442249775696 0.5772068858285652 0.0
9.565795671866349 2.345573662774494 0.0
8.830758563027459 9.247271599108435 0.0
8.523580738257648 4.88015211128435 0.0
5.580123316488715 5.701889892660689 0.0
5.398591029446707 5.685938459654249 0.0
5.367686360823392 1.778740548277203 0.0
9.546603444041448 1.754984055696778 0.0
9.489649223089446 1.641312329051244 0.0
9.617973952467912 3.363804764345866 0.0
9.584322830999731 6.729956156156573 0.0
9.597221861144487 3.948534024289882 0.0
9.49401963819799 8.089507968561776 0.0
9.207321074262563 9.416906871900888 0.0
8.27185428346661 4.464932191097996 0.0
8.207416067213774 4.35878753684812 0.0
8.332747746635944 4.354903699457511 0.0
3.990181919126853 3.930792395858886 0.0
8.267392138262498 4.254008221702929 0.0
7.997788712685495 1.196805377512679 0.0
9.600316638269724 5.639973985281733 0.0
9.550939606739425 5.737313319038155 0.0
9.44084303195315 5.74233753256161 0.0
9.50112296154558 5.834555019909565 0.0
8.897429225733994 6.685415510921676 0.0
8.762930941408914 6.695907295903629 0.0
8.654628175336732 9.278157371342388 0.0
8.544676900803436 9.133790942553834 0.0
5.294904777716057 5.855935872688884 0.0
5.216749389964556 5.66865685845661 0.0
9.508453581298625 2.239460033375932 0.0
9.599691370793206 3.169496930704394 0.0
9.546615051106684 3.073514534194011 0.0
7.484714626923596 5.028675123117963 0.0
9.588496050271255 7.850836295555126 0.0
5.153197381012662 1.471340286561097 0.0
9.433168304679345 3.071871997104804 0.0
9.610464706874994 5.829217654498672 0.0
9.561407772947403 5.926179534044419 0.0
8.273381980676042 5.705233340662362 0.0
8.330794188929296 5.594351887246082 0.0
8.207319603076424 5.596747949305344 0.0
7.251338559467102 5.233758892662348 0.0
8.708518799790543 1.130513882092466 0.0
9.590155250193266 0.5878623138195824 0.0
9.389919385420015 5.841079912164009 0.0
7.991397852194216 5.859910582924319 0.0
9.624951589233206 4.975554514425905 0.0
7.240016788025947 2.531866266726309 0.0
7.635666783493215 3.873554782053258 0.0
9.608476620993713 1.863530872936442 0.0
9.365330459496413 8.10677840682376 0.0
8.775076110585598 2.572737931759856 0.0
8.699389445914996 2.444602334375113 0.0
8.625078713232146 2.580891022578613 0.0
8.54447196848446 2.447624719286678 0.0
8.468898498943965 2.586757328881282 0.0
8.62282309213608 2.307826916202421 0.0
9.622102662978762 6.439307895185218 0.0
9.561995355724862 6.35103962032292 0.0
3.898245450818314 1.856155797593496 0.0
9.681759177700954 5.07069253017652 0.0
9.059254996454502 4.963357716933865 0.0
9.113144532326562 4.861710138088372 0.0
9.62140874877204 2.656009146517733 0.0
7.884510615470827 0.9666888912541309 0.0
8.14902661050739 1.005010215149227 0.0
8.491263206618079 8.527197931363634 0.0
8.408859203395778 8.697060715788105 0.0
6.54422152733529 1.954566069381189 0.0
9.563546573097593 2.755667904356369 0.0
9.453065492925557 2.761122255953964 0.0
9.676889098520615 2.755084315170127 0.0
9.678287124781653 2.556838324720633 0.0
2.60254317790297 2.278874965850319 0.0
9.211706272534968 4.050470567310489 0.0
8.526711683538949 5.698821878547752 0.0
8.296604023060945 8.533761944401608 0.0
9.649704314258118 5.543946557831669 0.0
9.651176136337964 3.85122804518279 0.0
9.44590154800397 9.498503704959054 0.0
9.580491248736612 9.476376347552954 0.0
4.3239388803087 3.921156392977062 0.0
9.65737873521736 3.075324100817917 0.0
8.128000846282253 6.160273991836929 0.0
8.06242981852327 6.292371360998262 0.0
8.500465019503922 1.442700595221201 0.0
9.615253212967009 1.649819368149096 0.0
9.561768620580791 1.538553925606111 0.0
9.435477757657937 1.527391516499924 0.0
9.627993450010088 2.242685831452484 0.0
9.5338252733548 0.4673994795805215 0.0
9.398055066504014 0.4589059948533885 0.0
9.669486082509058 5.920177035588319 0.0
9.621072177439727 6.016493814615133 0.0
9.506185962103057 6.018397021409126 0.0
9.196884440497488 7.898824858961557 0.0
9.112591143666748 7.789491461180181 0.0
9.664357762385308 7.950712034233033 0.0
8.46233617997115 2.308903464128035 0.0
8.547917980328803 2.169381684694277 0.0
8.139931430059324 6.410762600521521 0.0
7.672499127532963 9.099143622036436 0.0
7.91372855627271 9.178704612763656 0.0
8.463425076318451 9.290653726808348 0.0
9.643938029094286 9.335632419679458 0.0
9.647017668702574 0.7068996148634754 0.0
6.241662276606473 5.884018212993202 0.0
6.157742245066693 5.73500474100449 0.0
6.318815619949124 5.730068085823802 0.0
6.247706374231452 5.593094310939028 0.0
6.406948541886973 5.593272398468375 0.0
6.092564106310554 5.587409338401505 0.0
8.535507922245372 5.286142900439676 0.0
8.022959839404006 4.471630490587016 0.0
7.963561162854596 4.581393556789843 0.0
9.683487139413305 1.546750704925431 0.0
9.630761777960082 1.435922217091829 0.0
5.121714348989337 7.950140247572198 0.0
5.136464096196084 8.310254432483559 0.0
5.47349124035624 8.455234262268478 0.0
5.176273618280354 8.687190323573228 0.0
4.796664658962938 8.592678692862421 0.0
9.568705729418735 4.887269869750176 0.0
9.462711651199594 4.88832222094458 0.0
9.674903475028225 4.882285174433025 0.0
5.4996067353406 5.546583260717527 0.0
5.663632234555963 5.557613452957074 0.0
6.829408195405585 1.947174574944512 0.0
5.336529198289861 1.127585641139875 0.0
9.672387559812332 6.34138351957329 0.0
4.463988917379896 2.271060678869338 0.0
8.618048281355405 6.263841736419089 0.0
6.480949808711781 5.74815588680617 0.0
6.562207427719153 5.592185077216444 0.0
6.643040463857446 5.721233693378952 0.0
6.712825900331884 5.588664360236 0.0
6.79240375630333 5.711383948285569 0.0
6.86115931532141 5.584697050428064 0.0
6.939210100691576 5.704407337029545 0.0
7.007668476576536 5.580801046893123 0.0
7.084627386867475 5.702817970154801 0.0
6.633257976075473 5.460881327825488 0.0
6.931430743764456 5.461960451448691 0.0
9.682652370938209 6.533133024505995 0.0
8.761108695241376 9.450742747770144 0.0
9.146031326900015 3.764292700000154 0.0
9.089378801805193 3.661317181076136 0.0
9.514354521818781 8.994988681611192 0.0
8.157650730500988 4.262987189670279 0.0
6.329633198899328 5.4647789391701 0.0
2.340685767996258 2.811285337457589 0.0
7.379572471323651 0.9290892725587991 0.0
4.171878172186605 4.222320767259098 0.0
4.4876601621649 4.16473354200826 0.0
5.336389369563535 6.806464508860387 0.0
9.595468321212476 9.108133206829102 0.0
9.645038675267227 8.982113951305912 0.0
8.393140678816192 4.246338342095281 0.0
8.309440721624494 4.155300532283633 0.0
9.418269339704423 1.9925512363779 0.0
9.662781807969623 0.477809346089035 0.0
8.011297869803792 0.7518828483803571 0.0
8.250149975885678 0.7646904662196189 0.0
9.608674873602773 0.3618049194050078 0.0
8.692696069692623 6.582927327365709 0.0
8.628225948401226 6.705702462696891 0.0
8.701883181418305 6.822086652299242 0.0
8.559276855155542 6.829564723911442 0.0
7.069268463354993 5.459534423493629 0.0
2.654575201159115 3.323490466195074 0.0
3.610801136544596 4.044075244426243 0.0
8.263757217166944 5.48730323490738 0.0
8.138838162809126 5.491254533497952 0.0
7.90196833683664 4.477386962763833 0.0
7.987943097943191 3.978756490171551 0.0
9.704623491880403 3.945605151832784 0.0
9.461009573830147 7.301728818091931 0.0
9.532468631193666 7.399916015174975 0.0
9.582688928417856 7.292330983701011 0.0
9.652579613269625 7.387768793572397 0.0
9.699264016151023 7.282867433965265 0.0
9.633305589700536 7.188543855060478 0.0
9.505576100168666 6.961225778216469 0.0
9.43876966151099 6.342441564206569 0.0
4.908483672172518 6.098703904450545 0.0
9.135448256237908 5.269827196966999 0.0
5.905650502271389 2.025036080946255 0.0
9.709890722072377 9.452748507541063 0.0
9.663337613522643 9.572126259365891 0.0
9.603900123387826 7.495180532331903 0.0
9.720147629525837 7.483400774981126 0.0
9.674588415444239 7.588303295299578 0.0
9.653186673863587 4.039274180923234 0.0
9.053164539680804 4.764545162185531 0.0
9.164908495749003 4.763017269285045 0.0
9.226019227262443 4.858029410614327 0.0
8.809947621994619 3.4964384919072 0.0
9.10538997155458 4.665865142902959 0.0
9.331074106432244 5.748993480915537 0.0
9.055854333858068 7.918554535314415 0.0
9.446431573964945 8.209836764658437 0.0
9.573844810886287 8.191100251691205 0.0
9.309704769895653 8.244395007943949 0.0
7.240329561730736 1.676197957122907 0.0
9.543389817573933 3.660019800390455 0.0
9.598599341122098 3.563130123982772 0.0
9.652615161407017 3.658119804270645 0.0
9.706336063693934 3.564815526226687 0.0
8.632284427755456 6.946688912416058 0.0
9.682863230715835 2.349655023034811 0.0
9.571538455120994 2.142369886250143 0.0
8.090821900439733 9.017409120951333 0.0
6.812258669899192 0.9007667548831626 0.0
6.50135254578461 0.8974046495177885 0.0
9.598335906230732 6.246437748035812 0.0
9.719677442549804 6.253968775436637 0.0
8.593026822691716 5.180101360605356 0.0
5.537586126848265 8.836083861509138 0.0
9.688689404995035 2.143487155934306 0.0
2.821389253975936 6.507820864074362 0.0
9.176571289960709 8.507736431357309 0.0
2.918303740542162 8.256728920338826 0.0
3.428955230180972 8.401446814887457 0.0
8.490587404589881 6.715350139132777 0.0
8.86049054904785 7.243279881821806 0.0
8.93696309213556 7.356650230611625 0.0
3.951931175165697 5.78308550088855 0.0
3.65055612573298 5.91672400098539 0.0
3.668142216548471 6.247526235973777 0.0
9.717269848920886 5.821831227352286 0.0
9.708364917734201 3.164198601626433 0.0
8.45581975650687 4.569560863828342 0.0
8.204448312099833 6.040774355519757 0.0
8.65969449127868 5.485991799508151 0.0
9.707534571012967 5.634423933296901 0.0
9.62102991883279 2.849662850313935 0.0
9.144093558002634 3.560383427867003 0.0
8.29763273805118 1.77155302934031 0.0
5.280452715709455 9.01633391004168 0.0
8.984558945859158 6.99932633710603 0.0
8.4157550875812 1.275784953143711 0.0
2.068078118650995 3.355462780535101 0.0
9.205703884756806 5.568274778556933 0.0
9.745857863753141 7.178456670302003 0.0
9.681628895748586 7.081494416756802 0.0
8.875818787971069 6.240744812097083 0.0
7.993733797566922 6.414830952863579 0.0
8.462810157069566 3.377071044664789 0.0
9.29428363519789 4.759591981903337 0.0
7.933956818298286 5.97437536746848 0.0
9.028281726378319 3.558713145763133 0.0
9.083461773461467 3.455531762175701 0.0
9.73231939683535 2.849247643393067 0.0
6.70072305037728 2.192432536215492 0.0
6.423245125077639 2.212870246546939 0.0
4.931537051605536 1.135086496804522 0.0
4.746426561586179 1.500381091957315 0.0
9.707706579932626 7.836419656220658 0.0
8.590593344701457 1.595639668013959 0.0
8.708946574109854 2.1688179918246 0.0
8.634728854549891 2.028564483452208 0.0
9.230357659411311 8.129337203173913 0.0
9.102841374461482 4.452881308250647 0.0
8.472081531214734 5.388993924853032 0.0
4.925996806199801 5.844046944846857 0.0
4.702806345752284 5.745688656289065 0.0
4.884357002239844 5.633237011762874 0.0
4.709628434300812 5.536404116679045 0.0
4.530800966746534 5.627044171217377 0.0
6.040296145349247 6.603808099703576 0.0
6.162203578696918 6.795213950202512 0.0
5.923135943221574 6.824060069869489 0.0
6.046693245732212 7.010423490915212 0.0
6.297337598588478 6.979895528204233 0.0
7.760448385794147 0.7294020304851334 0.0
8.492228348169641 6.958778476405878 0.0
2.89219822877093 1.704113597264478 0.0
2.26178643438086 1.7814602252425 0.0
9.726968895980871 6.009547057102511 0.0
6.63195110828313 0.6072886418835157 0.0
7.984023036954866 7.515675826210831 0.0
7.893857204140559 7.681876703427663 0.0
7.778465117872411 7.537836322197895 0.0
7.998204230811618 7.844922503023499 0.0
7.798554315988981 7.858161805718108 0.0
7.917846202023782 8.03040048103727 0.0
8.547520504556728 2.721261126162116 0.0
8.39253850806587 2.732073315877738 0.0
8.306047241032278 2.59069854402512 0.0
8.233011054235162 2.739783364361515 0.0
8.318836035587811 2.879838477099622 0.0
8.159530874574331 2.888511553151382 0.0
8.245490421394788 3.024568439743106 0.0
9.759103003747676 3.077839427881478 0.0
8.083610090773394 3.033523757291178 0.0
8.174562583800352 3.166768504406541 0.0
6.046769434852523 1.155662270344939 0.0
6.968371001421964 2.176347877216873 0.0
8.324858098380334 3.152966249334499 0.0
8.145556596142626 2.609897633546475 0.0
8.970652052821418 7.804556541250797 0.0
9.033737629244714 7.681328986528639 0.0
9.62347010002576 4.796939565664328 0.0
9.72520380348743 4.790261082613535 0.0
4.882631186210167 5.455006233451049 0.0
4.618356368594037 3.933076284395493 0.0
4.748083507220199 4.151025177732873 0.0
4.641724290430313 4.358202249373887 0.0
4.87055838101999 4.337900676660481 0.0
4.974114446887331 4.149149057174687 0.0
5.081577844806959 4.3240148266423 0.0
5.179521650033781 4.148725180298481 0.0
5.276261408871418 4.316673822529601 0.0
5.369189110897883 4.148362797753505 0.0
5.463892033849439 4.338819369807593 0.0
5.550828466075906 4.146274465971151 0.0
5.646554822352869 4.303571429647391 0.0
5.728109623160046 4.138582010823754 0.0
5.821689108984419 4.291959598724587 0.0
5.906082534948073 4.141649907302701 0.0
5.99655838673762 4.288752711512514 0.0
6.077312859438928 4.141011188943332 0.0
6.164215275138099 4.281164574562373 0.0
6.241782344986693 4.140701084167517 0.0
6.324316420613108 4.277393447415522 0.0
6.40284165425941 4.140026953305852 0.0
6.483655157361099 4.273418937894759 0.0
6.561170698911611 4.136221843106807 0.0
6.63512300179586 4.269917278694155 0.0
6.720306110251473 4.133393659385058 0.0
6.63777078218551 3.99617001426095 0.0
6.802492763973074 3.994355399489989 0.0
6.798834760478153 4.276914787769972 0.0
6.15377608509923 4.000134206628027 0.0
6.548727135071258 4.400510710520637 0.0
6.251479300130713 4.421887359316258 0.0
5.275876048175579 3.979624500657822 0.0
5.910905077162284 4.431174408784691 0.0
6.717070288412452 3.851239795555301 0.0
6.883499045994213 3.852555480300214 0.0
6.96664848901999 3.994033961856844 0.0
7.048208567116626 3.854750001965969 0.0
5.810004974283072 3.982497501655442 0.0
5.586615391658107 4.471070246359201 0.0
6.547331954052155 3.853872077215347 0.0
5.179081233207816 4.485638492900557 0.0
7.126615227065496 3.995337770596979 0.0
7.209459742762513 3.856893463870469 0.0
7.130226097876905 3.713620439679428 0.0
6.63075064074106 3.699684148676045 0.0
6.446985573861992 3.697358756862005 0.0
7.043151422977365 4.131713936060725 0.0
7.198322215260019 4.129850614748363 0.0
7.119378405252723 4.26005098890218 0.0
4.797146270976422 4.525762781577414 0.0
4.608329098388589 4.573584257851931 0.0
7.294442092743627 3.720853338661503 0.0
7.215753312764997 3.571378507508807 0.0
7.049631633956289 3.568047985538775 0.0
7.133765707749521 3.414282375958479 0.0
9.755079417839903 5.539705890434435 0.0
9.698955703441971 5.450920012703194 0.0
9.717604099406742 9.09084770432896 0.0
9.276716006673976 5.847248422342224 0.0
9.339081208926798 5.941174203394446 0.0
9.031261921742963 3.750271483819014 0.0
9.08721978689863 3.853416037308712 0.0
4.801461566647803 7.510704110489921 0.0
8.206553504932042 5.818005960412773 0.0
7.362361315389098 3.863102442315545 0.0
9.492826845316191 2.963845037486267 0.0
9.376710375304633 2.97229517374228 0.0
9.3192743723601 3.070687802230453 0.0
7.915389082113898 6.293241865913004 0.0
6.735006382384437 5.832450056405368 0.0
8.456481836836168 4.35369289249905 0.0
8.517718268476031 4.246675068616396 0.0
5.583512022030555 5.411069060406398 0.0
5.73625200174779 5.422617752052123 0.0
5.81006929286229 5.548584937688919 0.0
5.903438861894402 5.420604003204523 0.0
5.43801870974416 5.402925156167655 0.0
7.022641548594327 5.825217331839047 0.0
7.165095795605366 5.826005223633447 0.0
7.223078558430726 5.690146755650336 0.0
7.841396000338385 4.586693006493787 0.0
7.904793170875705 4.690826189066096 0.0
7.785999820520073 4.696719777099973 0.0
7.846448506395101 4.798518978096564 0.0
7.728149182067156 4.803800941124008 0.0
7.788983823826226 4.904802634695232 0.0
7.672018889153144 4.910077510508749 0.0
7.731996012352178 5.014717724244488 0.0
7.852072803124419 5.00743796185411 0.0
7.779278698005006 5.118909346425974 0.0
8.088113864063853 5.605434545811022 0.0
8.016457362785575 5.494849890158723 0.0
8.072290383394757 5.385594956317259 0.0
7.95068657972964 5.38825563681957 0.0
8.309366678475389 1.438342408757099 0.0
9.748160780780179 1.447794693754379 0.0
9.696454228162398 1.337889922375316 0.0
9.568813761940916 1.329560834053294 0.0
9.638326779791626 1.226729570935787 0.0
8.472132467407484 5.182856496818138 0.0
8.066211547412054 6.53691730655352 0.0
8.217035586462373 6.522976700918602 0.0
3.544839338670893 3.324491119989469 0.0
6.999740002965287 5.347729916247808 0.0
6.874544698914502 5.347027470386579 0.0
4.880451234715014 5.193043717957879 0.0
9.104510033763066 9.313204713465637 0.0
9.0466357104558 9.45359399494339 0.0
9.146803165140184 9.569652364413551 0.0
8.134107047896672 0.5527712356100052 0.0
8.369770412730738 0.5571215815175228 0.0
8.47386979744655 0.7564607169846485 0.0
8.585193608569258 0.5749174254532757 0.0
8.683868132726584 0.75505070091701 0.0
8.787381435061018 0.5813987798627239 0.0
8.697570280442534 0.3771156480326233 0.0
8.530048434259976 5.077280516000916 0.0
7.995091351438729 2.90367515012593 0.0
9.731083608815164 1.662638626153251 0.0
7.260488865351954 4.255073962371814 0.0
9.760728358076392 8.990038509880067 0.0
9.716710396257366 8.884160310398862 0.0
8.794627466210242 7.369659405098349 0.0
8.868068657550866 7.515048014893154 0.0
8.702594597629135 7.510501129643432 0.0
5.132320689147051 0.7610757801158905 0.0
9.755852887652699 3.853180024615871 0.0
9.787424819067885 2.757921105725315 0.0
9.731193479931608 0.3736343090103709 0.0
9.796526908308536 0.489684029254899 0.0
8.226019692057042 2.453349105940535 0.0
4.560989821496479 5.428206018250252 0.0
4.348810639659689 5.517048281386008 0.0
8.785190163106925 7.119142251269924 0.0
9.015515413043023 7.464769766852701 0.0
9.754861440190705 3.659036930324926 0.0
9.7543610723378 4.033687839160082 0.0
9.707881226943384 4.127219992296752 0.0
9.52841017383273 8.309020665649431 0.0
9.65186044414544 8.289498614805698 0.0
9.714051275521857 8.173576484362068 0.0
8.209758892476394 8.715513071423135 0.0
8.097084883671858 8.548851201381087 0.0
8.177989947800599 8.367872862579052 0.0
7.974142434808908 8.36779470623567 0.0
8.409012054919861 2.142624252464372 0.0
7.707002321497132 8.039129945341395 0.0
7.574653123518228 7.83895791570255 0.0
9.229858094382692 5.951357214361815 0.0
9.75307989876696 1.229893222503321 0.0
9.715811155868643 1.128779429890018 0.0
9.597960915003707 1.117058287635912 0.0
9.672063923518955 1.020806103150243 0.0
8.99090422125785 9.593878510105375 0.0
8.133165456134304 9.257620998029804 0.0
7.976779931497633 9.420725324095141 0.0
9.77231778617502 7.927819487779705 0.0
7.957213679655531 4.364530256281665 0.0
9.609903116082736 8.403725680286847 0.0
9.724891358972584 8.388392708395173 0.0
9.687487059868507 8.495935345161797 0.0
9.810055520269009 8.494090598382963 0.0
9.755967487162335 8.599790818513082 0.0
9.645698986824481 8.606121319182705 0.0
9.721376049217765 8.699989876681524 0.0
9.773009257015609 4.884557953188837 0.0
9.830105798750992 4.796546393900876 0.0
9.775335108731761 4.686093304257503 0.0
7.455611517737074 3.730099283949135 0.0
8.906943567829634 0.4197477661467797 0.0
8.980613334153533 0.5814185917581446 0.0
9.081059111759728 0.4263421860552371 0.0
9.821654809259165 3.576985724143072 0.0
9.761309244784803 3.4792267780002 0.0
9.763329553045937 9.353068233045157 0.0
4.463051839136694 1.164440352584939 0.0
8.0213168204867 5.283436382300235 0.0
7.89385412333227 5.290429544753158 0.0
5.806940001023414 8.583716119232427 0.0
5.88977793877374 8.96065112858812 0.0
9.177759062826041 8.25539130897928 0.0
9.626582559276994 2.05283181283147 0.0
9.747673294325121 2.064954301745188 0.0
8.775905508647185 6.951821187702613 0.0
2.3581644273991 6.029034686663493 0.0
9.777798009058461 9.548066962498762 0.0
9.737129197219856 9.662299853506903 0.0
9.615080366030512 9.683349544763068 0.0
3.315839678697904 6.042943273456425 0.0
8.915083018115329 7.937748428923896 0.0
9.489832173860055 4.712364754630572 0.0
8.118313727862493 8.013944064029838 0.0
8.902248750797776 7.67372145952523 0.0
8.954075939212636 3.463080912810881 0.0
9.45247551997678 2.133243108303608 0.0
8.311151553157742 8.899233004613622 0.0
3.28672004268868 6.826745674539142 0.0
9.86008383798735 3.468233656255824 0.0
8.389990589860254 1.947086063498656 0.0
7.144231739553659 5.329544660076687 0.0
9.654500729007207 7.743301971143119 0.0
9.761920842881946 7.740144345898896 0.0
9.692820773976567 0.2651585113981998 0.0
9.690951720399688 6.100517071814821 0.0
9.775704281989471 6.077882312279847 0.0
9.823117117198079 4.115168542267924 0.0
9.764391943581737 4.214465954230587 0.0
9.659455011849253 4.218716850797838 0.0
9.713462125022623 4.30742830316693 0.0
9.849638067150842 4.208845651573708 0.0
6.376241713254513 3.858766051594979 0.0
6.274931849158213 3.701528298009006 0.0
7.097780104117746 1.926449727602711 0.0
2.457742027508782 3.810157622192786 0.0
2.963634206580268 3.740748099915693 0.0
5.065585416063965 5.544355730437482 0.0
9.783560252464587 7.566507987677117 0.0
9.825819294611026 7.470942204664841 0.0
9.799976114123012 1.01659516618323 0.0
9.745559590633832 0.9150866860898854 0.0
8.20473400632469 9.495828670767946 0.0
8.784586030320169 2.054461500762216 0.0
8.758471587067168 1.888286802854785 0.0
0.9188935087347281 8.510730800272478 0.0
9.674192026048217 9.20389587377276 0.0
9.796314981283475 9.185916994648775 0.0
7.206882433199502 5.452024361489832 0.0
9.773927048949279 6.334665846819535 0.0
9.830288393591173 6.225300227041885 0.0
8.25177349297509 3.282767705830209 0.0
8.099233469407428 3.304040153764131 0.0
9.607860512870598 4.315652630490023 0.0
9.403674738018715 8.367349042046314 0.0
7.611756786273919 5.018691202305147 0.0
7.549513964643336 4.923310232561835 0.0
9.80986724662116 0.2915868356190958 0.0
0.7757562810577034 3.504187313079081 0.0
7.659562100664981 4.698467529240196 0.0
6.539424975891206 3.541729955691742 0.0
6.717348880400739 3.55221857686142 0.0
6.836337579501807 2.417476958454302 0.0
7.096480496160066 5.959124656438389 0.0
7.189742782777612 4.377051328076039 0.0
7.051723187622053 4.38470822973091 0.0
7.125489805519186 4.497018383456762 0.0
6.994915621927777 4.501504591168814 0.0
7.056755276274058 4.607929817497045 0.0
6.932937068803914 4.613249390039674 0.0
6.86629288290367 4.50541343988659 0.0
6.80427099775847 4.617607827251794 0.0
6.739195362053689 4.511124964201849 0.0
6.677260697693361 4.624288827143181 0.0
6.996760608675822 4.711715831373894 0.0
6.316045249462968 0.6456945497683586 0.0
7.321834163850416 5.816449323512759 0.0
7.833101485370825 4.390058096386987 0.0
4.996572652976738 4.498711166259074 0.0
5.112334577457371 4.663858846723513 0.0
5.271923064784868 4.629759173373871 0.0
4.93773508827367 4.668006487116195 0.0
5.348137647919096 4.485934621930562 0.0
5.413454827497575 4.62999925573761 0.0
5.356581113747675 4.770594395332836 0.0
5.013422223730484 4.793321773780133 0.0
8.58674425943957 0.9312335381466886 0.0
8.776450596582496 0.9362399987293505 0.0
4.783496233934828 9.486061758876032 0.0
4.544176394620909 9.034071856445296 0.0
4.082330493623582 9.015765881393772 0.0
9.820867469965414 7.285959215547852 0.0
9.852697883440127 7.166089674802766 0.0
9.260999083164238 2.971390964911171 0.0
9.197701900169713 3.073162109379564 0.0
9.31960210441945 2.867465579641856 0.0
6.660951583415121 3.383363199709994 0.0
5.210469976037585 4.761678854423166 0.0
6.740780285297665 4.733615686805694 0.0
6.611362405615225 4.731958642073806 0.0
6.549091884465382 4.629620704100811 0.0
6.491761716522486 4.733409494449344 0.0
6.425259228542098 4.640546096196947 0.0
9.715556659367534 2.986725573570596 0.0
3.710524324925069 9.463213827486557 0.0
4.768537031214573 4.727001037865238 0.0
5.039413681704655 5.378508462165627 0.0
5.188746429211535 5.440476671296013 0.0
5.172214816037712 5.298914527247826 0.0
4.469063601436893 3.667917323494335 0.0
3.799121596584382 4.741629285988305 0.0
3.661085664896249 4.442847704416992 0.0
3.316563386321876 4.380147387454913 0.0
3.802087298647255 5.26743535640985 0.0
9.738116341343215 8.047178982429934 0.0
9.85106076399546 8.021725551312715 0.0
9.837581050304836 2.844176011307251 0.0
9.664579962075123 4.402853107737106 0.0
9.76433159763034 4.39807801415352 0.0
9.718924973226878 4.487825491046641 0.0
9.826405563645343 4.494594135148365 0.0
4.931068003413168 6.359330991212394 0.0
5.130175746947236 6.201075257041828 0.0
5.143884286052002 6.445382329515047 0.0
4.953395875296406 6.628748468717369 0.0
7.833019185167153 5.400347121613631 0.0
7.766636138801143 5.313240048256084 0.0
9.767038723422333 4.578090619166644 0.0
7.315369355237483 3.441501197259575 0.0
9.556068971301514 0.2347811136726856 0.0
5.733871280791703 4.444861510772459 0.0
5.828809543126846 4.569791247698539 0.0
5.986701526182213 4.562881783985375 0.0
5.912543327921148 4.692966271273211 0.0
6.052130330528581 4.682477327897978 0.0
5.773525984744635 4.697697018456535 0.0
6.121646311546238 4.572302645403103 0.0
6.182349700936326 4.67713231096357 0.0
5.846371383601797 4.808939734754761 0.0
5.117807918383606 5.974361363083184 0.0
6.256132501905665 4.575863546153224 0.0
6.324770064521816 9.645040261272253 0.0
7.345522892050965 4.12581088034536 0.0
9.338523512844539 4.854480276600515 0.0
9.286984287289403 4.959628690044808 0.0
5.676298026114105 4.589279806918992 0.0
5.631257891894775 4.722749088404111 0.0
7.970415275563177 5.621040275419208 0.0
9.565118337557308 7.081391220827488 0.0
9.626201005045262 6.980441083020495 0.0
9.733729506193331 6.979928568877979 0.0
9.684556253529976 6.887102896543928 0.0
9.780785815410074 6.890287441101827 0.0
9.740054813822885 6.794211367612523 0.0
6.462628988057306 7.629921412015864 0.0
6.692564520952154 7.473594130811262 0.0
6.927983108788191 7.570982428592125 0.0
6.899878641134941 7.329306734748538 0.0
7.117542472438434 7.416951094809493 0.0
7.089537168123128 7.186691566729968 0.0
7.296585396514727 7.275888419524222 0.0
6.879678873774065 7.097443005287856 0.0
7.063454637059129 6.967740076426161 0.0
7.329105042924355 7.496317641003757 0.0
6.867084781778411 6.878842928865059 0.0
7.494278796275744 7.351949197351029 0.0
7.462564159480594 7.150140034494138 0.0
7.644835001206406 7.21506678718646 0.0
6.682478929414216 7.008358327294905 0.0
6.449199855715812 7.365660640952548 0.0
7.548139855358765 7.57299228324251 0.0
7.008502809092701 7.844601794812628 0.0
7.371739019901781 7.707688433423657 0.0
5.665345294602155 5.290628720253272 0.0
3.987583013016546 4.486920698115711 0.0
8.893480480320447 0.7785000884179994 0.0
9.715485963651112 0.5955299613117169 0.0
9.761785841543585 0.7048670948649375 0.0
9.670304314877074 4.578896619304786 0.0
8.058509626083154 5.744161686650483 0.0
6.181795443628869 5.462040811515966 0.0
6.256771804808641 5.338464817889848 0.0
6.124070400983443 5.352376180901929 0.0
6.399679261813415 5.349186390888865 0.0
6.477776305607503 5.46505688468465 0.0
6.541624525938461 5.346017118512589 0.0
6.673064575428321 5.339051516933525 0.0
6.599301548842115 5.241958624987057 0.0
9.573774011620444 0.815274945835158 0.0
5.86493292693426 5.877588788523632 0.0
5.552663040119136 6.957487930464628 0.0
5.535080960199246 6.663033131707637 0.0
3.708603689392072 0.5979254716153909 0.0
3.31896983256719 1.188583855309964 0.0
3.895664898001925 1.128137111173669 0.0
6.363360407965353 6.032416442205533 0.0
9.445959758065749 1.070139246426051 0.0
9.50632172780449 1.214052376665338 0.0
9.441030033980638 1.325047485624912 0.0
9.295799464644857 1.341410624832976 0.0
9.184164107767781 1.461677744200096 0.0
6.407191016756832 4.407273313799791 0.0
5.544591888593027 0.7652641669375747 0.0
7.883090151006535 2.497506182548758 0.0
8.073420508370992 2.120510489750234 0.0
5.494822040671399 4.732314720081375 0.0
0.8986976806403217 1.464611451578306 0.0
9.536325549598013 6.83286654168725 0.0
5.972289519322897 5.727532110854501 0.0
9.82203607053145 9.443411729566549 0.0
7.263199949874008 7.064207941227515 0.0
7.233659553805083 6.853135694774254 0.0
9.793310082768443 7.072747972018893 0.0
6.734168931095253 9.67499220075154 0.0
6.941134861034159 9.382328333169653 0.0
7.285822522704258 9.443989747444657 0.0
6.576263515512108 9.333035011158342 0.0
7.160560566479093 9.127732577621245 0.0
6.218711947378506 9.298064908857533 0.0
6.432383355119106 8.980985203293491 0.0
6.795390278360442 9.046043538032663 0.0
8.54677014121837 0.1957422484480979 0.0
8.528696320820908 9.804850950580938 0.0
8.42644965647489 9.604735484095604 0.0
8.010239224104339 9.715048083583248 0.0
8.644359648763341 9.628432815860457 0.0
5.344212921686536 5.526744195650314 0.0
9.760936589662048 7.38409687515441 0.0
9.128187788393989 0.1445485608215519 0.0
9.133307661752394 9.854833215426817 0.0
4.867351616228264 3.944459575003425 0.0
5.905323253270366 7.385600364255367 0.0
5.909045412185362 3.361969954191194 0.0
5.80580919758911 3.569999290452344 0.0
5.578230704221431 3.587842862412673 0.0
6.013352753603037 3.550699073477782 0.0
5.936624955014758 3.721630401607248 0.0
5.735413275357409 3.78528948606432 0.0
5.512538847486775 3.794760621907932 0.0
5.360571639388366 3.618649018042938 0.0
5.134141179590394 3.459385929220745 0.0
6.167399567008798 3.367365990358096 0.0
9.766756262206602 8.291756450136036 0.0
5.486063578307141 9.64505925252771 0.0
9.497624614180321 4.328873442170357 0.0
9.811387324954623 1.570516917365688 0.0
9.389210081887331 4.69150887571586 0.0
9.704395728912932 3.754226393630331 0.0
9.808172776193384 3.748784464356272 0.0
6.549660911932182 4.839747932361234 0.0
6.757415124099031 6.077939876843736 0.0
3.805578542126494 8.040840085419626 0.0
4.232580149691158 8.198659880701744 0.0
4.559765382564095 7.87091698350757 0.0
8.3829075948167 0.9495097054886067 0.0
9.8571301061408 1.456307792614791 0.0
2.005900212453279 4.535525273813588 0.0
1.85904408608185 3.956445706785572 0.0
1.979307922430775 5.474327285927505 0.0
4.387923194305381 4.427191306527721 0.0
9.429258370703248 8.873693567695483 0.0
8.99196583083892 4.664567567015693 0.0
3.050357122593155 5.368999067452741 0.0
2.861107385476722 5.785089447130829 0.0
5.005058958272409 3.711196438448062 0.0
9.8972295764837 2.755337284632969 0.0
9.581048890980513 8.853909321617065 0.0
9.668838904423916 1.762418716497425 0.0
9.716576458425756 1.852218615166234 0.0
9.799043132681442 1.780583141193779 0.0
7.661868217848455 2.880323287492419 0.0
6.780136552904057 5.443858690999834 0.0
6.489544866845868 5.913957888434588 0.0
6.880149522020364 4.134257616716107 0.0
6.970134365280068 4.264072319341612 0.0
2.225481516813409 9.348422240784 0.0
1.843418032490818 8.641605249943353 0.0
2.198000805242772 0.6459947140825729 0.0
8.740020306282506 0.1903932731609072 0.0
6.86957996016679 4.720776242956433 0.0
7.430920333506809 0.2702852342693345 0.0
7.302066064947383 0.6134316505458445 0.0
9.305398039877746 4.64854361125207 0.0
4.078151380865065 5.203425462519088 0.0
4.080704120371218 4.778853303303787 0.0
8.052525541571825 5.965483159581719 0.0
6.367194027835946 4.754896037842673 0.0
8.604191121620719 7.648182513679963 0.0
9.546446695207845 9.234701521982952 0.0
9.018652854946867 3.351011585453845 0.0
9.143853648154607 3.350173119015413 0.0
9.067079866763024 3.245174561579149 0.0
8.991492136849105 3.135578770028028 0.0
9.29603967712795 0.1426516429033488 0.0
9.392428271030795 0.2506306237151588 0.0
9.223973843394301 0.2912279164401488 0.0
8.39375191941536 3.018777714002827 0.0
8.4836475746111 2.88135207267795 0.0
8.741089053946197 9.821127577434911 0.0
9.803966507713174 5.448064463539533 0.0
9.748132240148552 5.359371181503531 0.0
9.850258990973547 5.355211921626304 0.0
9.7965346514158 5.266762244994661 0.0
9.84142096963129 5.171050273734619 0.0
9.738843612428232 5.167483913244169 0.0
9.64168976006725 5.359875132194057 0.0
3.335917453809221 5.671837672982919 0.0
6.962669142802881 1.683222554707996 0.0
7.365210844496719 1.887492842536114 0.0
7.517378971174123 1.677983072937792 0.0
8.00383870208024 6.089394601875145 0.0
1.725435941000569 2.759295503019395 0.0
7.907977929549089 5.102827208603365 0.0
8.052861051278896 0.2683271125209605 0.0
9.80169732768395 3.385443381464333 0.0
9.831597648680848 3.28491948963525 0.0
9.736335895866404 3.316207814499244 0.0
9.597256128490281 3.756160701977744 0.0
8.865819925321706 3.366235906378775 0.0
8.489614436807788 1.757152185195495 0.0
8.88089641144391 1.078983279100314 0.0
7.430923851187758 9.724389499796425 0.0
7.584252919312249 9.509430586267927 0.0
9.744026095940516 2.247117754488748 0.0
9.729961521243718 2.659836747108116 0.0
9.790866569780063 2.558993767350471 0.0
9.736606445116795 2.455104424879619 0.0
9.846806182714698 2.452157456754448 0.0
4.518102112052724 5.141350889745285 0.0
4.519880229178207 4.85678334497067 0.0
9.7302407894617 6.434012603549242 0.0
9.787537474544765 6.523591663056312 0.0
9.744262337067932 6.617499601377625 0.0
9.8406238811518 6.41591236129004 0.0
8.914967252734657 3.579360039684312 0.0
9.154797282599406 5.670753066089419 0.0
4.228839454580575 4.612979739018002 0.0
6.095037541675208 4.42126627187728 0.0
9.304166983880842 9.864854494751789 0.0
9.406445527105628 9.759007358529582 0.0
9.256225114941945 9.700832989525724 0.0
9.796206564635622 2.351215649506205 0.0
9.849373673349081 2.25090453834006 0.0
6.332048155295931 3.511675163099286 0.0
9.069679774213784 3.022879178706259 0.0
9.070599961450037 9.055284879641471 0.0
1.808685691036764 6.331557276533421 0.0
7.120156826652838 4.698481230214924 0.0
7.052894345811342 4.799848851879358 0.0
4.739957520484086 5.369107149361242 0.0
9.389197839958292 7.197139943834638 0.0
9.046688232613976 4.560364044038737 0.0
9.162685461967492 4.562194096410666 0.0
4.227377821420887 1.564128177298305 0.0
9.201090975245227 2.794301402811909 0.0
9.251941624303948 2.677556975242327 0.0
9.186758273070138 2.563916005021366 0.0
9.317609833868786 2.560335260954038 0.0
6.57599191748324 2.437689779955877 0.0
6.305556560534859 2.459112595979303 0.0
6.981058048792093 2.642476994448363 0.0
9.886113463139504 6.510498309609482 0.0
9.250462794607717 6.221362629571698 0.0
9.305373999084068 6.108271307139882 0.0
9.390477915810829 6.228015172491477 0.0
9.44452571968143 6.114582165110393 0.0
9.502105740270528 6.197677857389309 0.0
9.31559697209813 6.331647407124485 0.0
9.370938253597153 6.437386206819511 0.0
9.594764406124872 0.1099001288712305 0.0
9.602872681151728 9.894988341116305 0.0
9.622661196143387 8.076680696281343 0.0
9.769069277144705 5.9102532189237 0.0
2.615076109785583 8.807551523115547 0.0
9.658920005405456 5.730890135691177 0.0
9.76063135061807 5.720703211793342 0.0
8.63963723169499 7.177334225227945 0.0
7.841904391869763 6.41346852896409 0.0
7.764520718520185 6.297267738834625 0.0
9.546492996136271 3.465225175657335 0.0
9.25600964352143 2.219157062786616 0.0
7.625057159226293 7.012987957636062 0.0
9.529121062829038 7.730283486008674 0.0
8.329887090625894 3.845190321147069 0.0
8.265841850823831 3.95687001944245 0.0
8.402006523775544 3.947660780406651 0.0
8.128436391670505 3.968543393650448 0.0
8.46705122470662 3.835767362024195 0.0
8.218867047074696 4.063481375518748 0.0
8.089763413611255 4.08062363292928 0.0
7.939578083855268 4.111915744184436 0.0
3.74991304509639 6.615676756107112 0.0
2.627714335615619 1.170993030860914 0.0
7.046129971268607 6.759930788612616 0.0
8.534603732661887 7.486325780553722 0.0
1.569381386467569 2.042794535871475 0.0
6.228703743210918 1.986421863690014 0.0
6.467030855792859 2.67190498312861 0.0
9.272246093269825 1.975478263632296 0.0
8.05269609263041 3.854522845257449 0.0
8.008595521536957 3.177870309354594 0.0
7.929796740504207 3.350600835935766 0.0
8.048703574664067 3.449582532910417 0.0
9.72947480375618 4.973926800124758 0.0
9.784850360535604 5.072865219810449 0.0
9.896036387646596 5.069261557893528 0.0
9.633140953203334 5.168645132864771 0.0
9.558102991128836 7.602453108835212 0.0
7.278758746505716 3.994295887299482 0.0
8.306681733482405 6.936428510427854 0.0
9.487163072013963 3.757777670075558 0.0
9.532950522284125 5.359403698944497 0.0
9.816036650072329 3.927268437107025 0.0
6.173882586235392 8.734645960664665 0.0
7.972518459433741 5.003005338485466 0.0
8.398453459336153 1.601072016988848 0.0
8.97460527296194 4.040886705742754 0.0
9.037941657530773 4.143578781749325 0.0
8.849604200183613 3.828506169652706 0.0
9.545296177100065 4.042698359132156 0.0
8.595941796785514 5.806754902023664 0.0
8.65588412428292 5.694192853853139 0.0
8.723710665131787 5.801528918332044 0.0
6.861288985046249 6.673713222735126 0.0
8.87477249219366 4.664500928777609 0.0
8.72385765226959 3.608276264790996 0.0
7.145228858696953 5.573648565429618 0.0
7.282945121585866 5.558559688509987 0.0
9.224761401603633 1.602363370249125 0.0
9.609115686587552 2.986868833620756 0.0
9.633989947851914 6.628120633848649 0.0
6.046214325132457 5.45615093027661 0.0
9.017014346798927 5.271996636983457 0.0
9.070824864071271 5.168510834798647 0.0
9.189021391555556 5.166867900487267 0.0
9.123328759137758 5.064718588163964 0.0
9.240587446378079 5.06459430516883 0.0
9.250848280531756 5.267364371053135 0.0
5.773050603406019 5.7192906317521 0.0
8.576466432793914 4.3559007860436 0.0
8.634627802680399 4.253467736542067 0.0
8.461790117175607 5.591735227444779 0.0
8.907610717370224 3.713397213891439 0.0
9.80665594564509 5.628066492225966 0.0
8.985935132601089 4.455263493464225 0.0
9.00640209566022 5.067597672073404 0.0
9.833659276096986 6.976519563917422 0.0
8.0283368553477 4.687271895436317 0.0
8.326580191759327 9.127498457128247 0.0
8.650637373791266 5.07513089931925 0.0
8.701067313435203 2.700069743477523 0.0
4.825307249916392 4.884175191874744 0.0
9.418335984190309 6.858444798015129 0.0
3.91434687300816 8.542956908935874 0.0
5.569239724399552 2.064135034637056 0.0
5.234271567762738 2.128974435011933 0.0
5.757920427527626 2.312422707096966 0.0
5.43365689737979 2.427455772745759 0.0
5.673210219624612 2.602111218343444 0.0
7.214258468265766 6.652783071431555 0.0
9.823626269633962 4.30685540664529 0.0
7.96996639420014 4.794005510174826 0.0
7.616003332725032 0.502676560965646 0.0
3.050634530589821 4.659174799474146 0.0
2.870894249800723 4.246924313393336 0.0
5.285393339952368 6.079037173753393 0.0
9.439954241218905 4.23581687956071 0.0
9.67709722097145 4.710772408106511 0.0
7.40767785509217 4.259947873553335 0.0
8.396202587439676 5.486075637998701 0.0
8.323689688705493 5.372061002264632 0.0
8.191312386254125 5.384662546230823 0.0
5.304380054816289 5.369675374029755 0.0
9.093848379546637 4.047647920840374 0.0
7.916313220758624 3.045043876114836 0.0
8.435854831444637 4.144861908356168 0.0
9.060262453079693 0.7340576053322918 0.0
7.053195520344596 5.238809779682351 0.0
9.621762679347093 2.45205452967588 0.0
8.410730269104743 5.287995309529392 0.0
9.655094569234972 3.472720279371932 0.0
7.982140513923982 6.667914768024983 0.0
8.402690325256646 4.883576657130221 0.0
9.17488654147479 4.962006474835693 0.0
9.013188196102961 8.49700148123058 0.0
9.795977244531603 2.156818021002043 0.0
9.893813711206834 9.545820400859157 0.0
7.965349232662289 4.250048884270795 0.0
8.644264557989125 4.874751532150782 0.0
8.215430976121077 1.26077208565765 0.0
8.379717637669398 8.37324652769609 0.0
9.320026533461409 5.559861899725609 0.0
7.885778178744864 0.4977439426642278 0.0
7.547066983926719 5.125166613071239 0.0
7.657542898944819 5.122996245335209 0.0
7.423918840193691 9.000935553397358 0.0
9.854133000712425 5.541931969512857 0.0
9.328508174398952 2.101486405523264 0.0
9.300749600926641 9.530012105354274 0.0
8.130307182491519 5.277079344947874 0.0
8.346752967392757 4.987627363826086 0.0
9.118404185029991 6.007087846617186 0.0
9.048232213728614 5.89431792713258 0.0
9.088340967655858 5.576242562571367 0.0
8.094762487139027 4.789727191449318 0.0
9.915265904493378 5.749591413470928 0.0
9.92169805280126 6.154216704502091 0.0
9.918022441582268 4.549125436287157 0.0
9.919332362905616 4.849536560132457 0.0
9.914800786693318 6.750595509794719 0.0
9.811792900437824 6.703950687575952 0.0
9.900643083988882 3.749855087409844 0.0
9.912423171222734 3.043228996968949 0.0
9.91892875832665 5.949999999993851 0.0
9.913300070218703 3.960831593817277 0.0
7.709347001661226 4.444236534782706 0.0
7.479443107717332 8.071637285053104 0.0
8.839057072155848 6.807845119358974 0.0
8.972330068019902 6.78765448182788 0.0
8.542093772125282 3.941452413628317 0.0
8.279144752968262 5.930387616620717 0.0
9.393455876855919 4.973162505621418 0.0
9.507123333872533 2.855087674515822 0.0
8.77504684283825 2.317347145885344 0.0
8.394133129040345 4.464046960801843 0.0
5.725509852450801 8.210843960481027 0.0
5.62632390239664 3.967637659758752 0.0
7.910815814627989 4.900765971697654 0.0
8.595808444085467 5.590040244353608 0.0
9.705160502006024 0.8106158419444889 0.0
9.82021247904746 0.808810893177099 0.0
9.218352146075844 4.447736986422823 0.0
9.20781892622228 3.858281726888132 0.0
8.713609974387523 5.178241668554946 0.0
3.55755059259364 8.921522400238844 0.0
9.59122926011489 5.452844834281716 0.0
9.70565100407009 9.77887811062354 0.0
9.826938454219809 9.74303055702321 0.0
7.238962096855633 3.278078153406256 0.0
8.575609105166194 4.567807831727537 0.0
8.936449841121737 4.765835458965493 0.0
5.59323463391086 9.248527978398117 0.0
5.280809113285124 4.886132326418428 0.0
9.328132730893216 6.544753806716806 0.0
9.026944889277736 6.67247283515637 0.0
9.81946239021469 3.007926663525007 0.0
8.677633568960493 6.144049349297466 0.0
8.33427489656924 4.571212803519522 0.0
8.55734024448315 6.382535186588269 0.0
8.692399379422756 6.372347713955898 0.0
8.495817478252626 6.503308565233578 0.0
9.905494734661673 2.544078755559835 0.0
6.177101405266569 7.228490244483556 0.0
9.825373011845263 5.807482724503027 0.0
9.808678508609606 8.118683092442964 0.0
8.397717712407108 7.08010313863416 0.0
7.428555529689225 4.935946611338556 0.0
9.575504958128711 6.125633853639113 0.0
9.154066996197898 4.146562596982661 0.0
8.074381802159323 4.337569667261167 0.0
7.018337246891919 8.843475095716133 0.0
7.970627172560641 2.658650028065857 0.0
7.382546388883145 6.723381543491632 0.0
6.822972334933889 4.884555620881615 0.0
8.343732976791593 6.041576709398377 0.0
7.743680217306919 8.423336160305476 0.0
8.505717922983454 1.115022897794028 0.0
9.113973198216474 6.992972408167606 0.0
5.818882632841168 5.300437503812764 0.0
5.951991891717714 5.279516346785062 0.0
9.450183479138845 5.92934813870612 0.0
8.783346541536119 5.48419035750989 0.0
9.38074895894124 5.65076274999803 0.0
9.513658728876734 7.193620441323493 0.0
6.396040948797887 6.776064256962667 0.0
5.389661780244388 4.89715084345563 0.0
4.473247649068957 5.85935163892416 0.0
9.249586607512612 8.37680799459232 0.0
9.103796366487646 8.379197231055114 0.0
6.274057301184156 4.87985402946409 0.0
9.259628836118232 3.561431822636308 0.0
4.037922477011971 5.489409780163391 0.0
5.62712958624254 4.893925433488392 0.0
8.806426003347967 6.133410188141932 0.0
9.53304466499349 9.59279975429444 0.0
9.542890959420024 1.966631379116419 0.0
7.459736176874619 5.863847835420528 0.0
5.937613117200432 4.89232797168023 0.0
6.171611131472617 4.879541833448487 0.0
6.100695199816815 2.291172318314745 0.0
2.315194906726768 8.081958163666464 0.0
6.878489987598286 5.148099521847569 0.0
9.105264414399338 8.639184652727645 0.0
9.20047261316883 3.457820810661327 0.0
9.895329010385955 7.55944047105717 0.0
9.912742873006831 7.76210330502246 0.0
9.37761459375249 3.168397068877758 0.0
8.946121261512507 6.345629828835438 0.0
9.918632496443566 4.449809517365367 0.0
6.848211525651934 5.945010613369067 0.0
9.915721525903255 2.047407395915179 0.0
6.117255841708726 5.163321965161054 0.0
7.276595248786602 5.347247322210079 0.0
6.32682869954104 5.23674259421017 0.0
8.785886448438022 5.692775375342819 0.0
9.099994401883361 6.776698531382792 0.0
9.913397459621638 0.2499999999998165 0.0
9.910352525643928 0.4481571029410266 0.0
9.907850422008579 0.5479735220323012 0.0
9.911983631350465 9.24778487019403 0.0
9.917634740384067 0.7514684821956668 0.0
9.195214232985496 3.254172408378337 0.0
5.000896927376288 1.846006038077654 0.0
9.917172478547403 8.250155740683276 0.0
9.908120476950126 1.742986232208194 0.0
9.914524635720774 1.949567899316728 0.0
9.907358878377153 9.145625165175748 0.0
9.917695944922635 8.949999999998397 0.0
7.648387553139914 5.325741673607362 0.0
9.605343588986079 4.130627398479715 0.0
6.648113233057817 6.774798386229164 0.0
9.910347203087213 8.446729917003672 0.0
9.913623694530468 8.548470085896316 0.0
9.9201245863254 1.536225488581779 0.0
9.906538426683255 1.059019360781604 0.0
9.912867352010919 8.74999999999809 0.0
9.799662981388353 8.79550485462418 0.0
9.831828680383174 5.99966894118311 0.0
9.91414179906643 1.263025320602998 0.0
9.920690092699912 7.240982963665807 0.0
9.385889285950551 2.235126904097426 0.0
9.28133998925606 8.00415195851526 0.0
9.817074723108401 3.172398890123306 0.0
9.482030285089927 7.512954023388035 0.0
6.682432918504054 7.233889573028878 0.0
8.528699633246763 3.260502457553277 0.0
8.91699963742029 2.327016692708648 0.0
9.267676068834481 3.954520684561369 0.0
8.70811637467455 4.974101624783084 0.0
8.18184214270768 7.816666208279135 0.0
9.690393137288163 5.264344933127836 0.0
6.937111790104696 5.245184991960528 0.0
5.895846026722989 5.174232967273284 0.0
8.281683356622615 6.400073017261236 0.0
9.150883172924027 7.444273543454419 0.0
5.430406600793122 3.390815886517273 0.0
5.049583827974758 5.697634876048387 0.0
8.3966710383105 3.495813899905868 0.0
9.007538428392454 8.046563579784266 0.0
4.645155158868719 2.637132843684674 0.0
4.887444326771336 2.30020425915506 0.0
6.483736782775559 4.522536327482678 0.0
7.843169154548308 8.2116075844056 0.0
5.06295551628385 4.901632590583318 0.0
7.201400991012747 5.138239336380897 0.0
8.519791031104612 8.848807089071627 0.0
8.658623737989732 3.031313729049854 0.0
7.585566208322493 3.629882964874684 0.0
8.411818469596405 6.834326722716643 0.0
9.172363528634236 7.669230647622864 0.0
8.85455683341768 2.682483055215344 0.0
9.359398739738925 1.631421337140716 0.0
9.071793864444992 7.337030604117359 0.0
6.968394563521436 3.712808894519514 0.0
7.899236117684646 7.094583340182754 0.0
9.54362864504834 9.781852543872333 0.0
7.151298729743687 7.644795130415299 0.0
5.452218361466201 5.186873761308322 0.0
5.517642289161902 5.293540933999446 0.0
7.802500357665464 5.978295671754199 0.0
6.594850839687122 8.491429270558893 0.0
6.029132431949566 8.294997405201931 0.0
9.31286590869111 0.5672913838331921 0.0
9.25238720319541 0.4415953739444106 0.0
9.550589523211062 4.228044955453704 0.0
8.748611832783206 6.250900951984038 0.0
7.566980108995873 3.995148257893202 0.0
7.426142759241261 3.996743578498081 0.0
6.478912513785404 4.000296412419969 0.0
9.30435638148753 5.168210982711592 0.0
7.542154188520517 5.752525075248498 0.0
7.219033852073297 2.139582470800704 0.0
7.370913620388047 6.545121498197235 0.0
5.226731036024996 5.187572666585561 0.0
8.515591031124366 4.462223215179979 0.0
6.762864307079274 0.3078036604979366 0.0
8.587432696997471 4.977010533175154 0.0
8.703948448756302 8.815629076400704 0.0
8.081003990931544 7.370949680119862 0.0
7.424404567669909 6.949730915714445 0.0
8.578903262311433 8.377992954045473 0.0
7.301258690263783 6.106184350645308 0.0
5.991600556904204 3.99820087171043 0.0
8.203048538477193 1.601044215405025 0.0
7.289972483120081 4.572350254111052 0.0
7.714697186439165 5.420586967696794 0.0
8.918853780709807 1.841796898567452 0.0
9.919941345877513 4.749808449067644 0.0
7.245589454939737 5.94251251443003 0.0
9.258480524497795 3.358952871140391 0.0
3.705877615124628 5.574038727593425 0.0
8.287096858129765 7.962370605242409 0.0
6.799629860952143 3.705385600481528 0.0
4.146753450763018 6.544154457143895 0.0
7.413973555029582 5.545687501585183 0.0
8.466524978378082 4.980481756569235 0.0
7.336312153537934 2.337983522449311 0.0
7.695505222753409 3.747498713679684 0.0
4.898236813123799 4.795853653580084 0.0
4.59779105899602 1.896916774247134 0.0
8.560170375862322 7.072369101894893 0.0
8.386150468360862 2.449771437140704 0.0
8.41200018115259 5.084601315536367 0.0
5.102189912301071 7.621598618277815 0.0
8.336320418935243 6.71651223072348 0.0
5.081745734883095 3.977838926197614 0.0
7.63590698378166 0.9500570055008507 0.0
7.743369677149255 3.051233984704873 0.0
5.357527459690566 0.3809996753407537 0.0
5.967373112873382 0.7731113464301924 0.0
8.169449265206127 6.666271947462212 0.0
5.95122726745053 5.55758205410881 0.0
9.922289489207834 3.53923011719877 0.0
9.39154684476555 2.659037023454942 0.0
7.701415639167884 7.690060291860976 0.0
9.819179654793023 1.329863870021845 0.0
8.358229579054417 6.506108206863729 0.0
9.269720555169467 5.657096143475924 0.0
4.473187658045934 7.435037860084884 0.0
9.65807158077373 3.255496360750368 0.0
9.605155446454205 8.713645566904637 0.0
7.097383547728313 5.141197376985936 0.0
9.812212483832656 1.89920712759492 0.0
9.83875570675407 6.81603549325055 0.0
8.926246869879279 2.079976511571457 0.0
9.166785856141402 9.169070814302419 0.0
8.763479010228052 1.587152667342957 0.0
5.957377924852992 6.404530806530254 0.0
7.14506854375872 6.10342416684208 0.0
5.672595070581394 5.164323323112049 0.0
4.899782787268781 0.3801727265981219 0.0
4.447133848117348 4.673614099606824 0.0
7.044865074789195 3.253639989243549 0.0
9.818461337102992 7.819456450952447 0.0
9.925334577033155 7.954012377173311 0.0
6.352907898232792 1.173665225954276 0.0
7.351721385581032 5.660361289755705 0.0
9.337367583861807 2.76534436379692 0.0
8.693118347802024 4.360254099729149 0.0
9.476812970101324 0.3524826622168163 0.0
7.109868985890334 0.9024224571333925 0.0
7.899106846231403 5.511805431542581 0.0
8.352799544476607 5.187887629361129 0.0
6.957483547582747 0.6176251309213842 0.0
8.099559500483094 1.412323841044818 0.0
9.913030944540278 0.8542404645334569 0.0
9.143075088381442 8.022165366829135 0.0
8.819861450593166 6.356592599428041 0.0
9.319444417409162 1.49938505915629 0.0
6.490262520326714 7.118204362551877 0.0
6.490874470087819 6.582907761235813 0.0
9.82506653058937 0.6146757679104559 0.0
6.803129818897624 4.419048038171804 0.0
9.840901379354312 0.08198751964190581 0.0
9.839740374244226 9.918356239418472 0.0
8.551927134544655 9.449788917425456 0.0
9.92097857388158 3.249999999993177 0.0
5.797087413057367 7.077351493358238 0.0
9.255412859987286 6.433984412022419 0.0
8.668174522249984 1.740767926084485 0.0
9.920991430240607 6.25262219124529 0.0
7.57275248448898 1.94367954756322 0.0
8.052865444445507 8.19900054463639 0.0
8.748697149245206 4.25201068974208 0.0
9.158270227735827 0.5542256343091421 0.0
5.997487767477439 4.787924707603557 0.0
6.119759900601896 4.78043793682227 0.0
4.353034750397793 8.619182743639561 0.0
8.721093521611476 5.588932824583312 0.0
5.717101151444983 1.123034066822819 0.0
9.825602081347064 8.68753399402474 0.0
8.005502510832988 8.7824052910506 0.0
5.548184234622668 6.408009287230429 0.0
5.77830300433981 6.598697187164234 0.0
9.613093825495433 4.50282172481406 0.0
9.928981132641653 9.74928475696928 0.0
6.613628176297015 4.515513362596662 0.0
1.822126723816303 1.297795131355289 0.0
9.514164594137375 1.43081427463862 0.0
4.735494753432723 3.698541604583975 0.0
9.52844959749262 8.615213629960298 0.0
4.660704511759056 0.7947595073298008 0.0
6.82340845160293 5.239926830264399 0.0
7.885938077030673 7.380147032865134 0.0
7.884599891021201 6.09005968568029 0.0
8.846834820720167 9.653276456345532 0.0
8.457777199486827 0.3851010632068662 0.0
6.66485224572131 8.771510767670392 0.0
9.091499342133352 9.708315832477556 0.0
9.824286725109655 4.976315293637262 0.0
7.848197684391786 5.632217046637356 0.0
3.88430598115417 4.225391362015386 0.0
8.776890759183289 2.809688928468134 0.0
7.393884285023409 3.59397875231041 0.0
6.927568893329758 4.396788356869783 0.0
4.96854327720728 2.662368428358774 0.0
9.1480130720193 3.951479613991279 0.0
7.071049729490975 2.38092990636632 0.0
3.40193058782919 1.686321186206593 0.0
7.612042194200681 4.815904436723407 0.0
9.043395868401339 6.888481825015849 0.0
9.098933057562759 8.152197681006806 0.0
6.058682303253315 3.857501492181965 0.0
3.707092669281355 2.986685502034343 0.0
5.113272509841263 5.189455016444592 0.0
6.960565857079232 3.416349532571279 0.0
8.755151527375476 7.649255597361291 0.0
3.393680865444538 3.679982303262531 0.0
3.117424600120088 3.35605258976247 0.0
8.530814041264104 5.488376426140491 0.0
4.820719767306654 5.106646490188182 0.0
9.918899263509473 4.144927088739744 0.0
9.918194630017027 7.447268230913605 0.0
8.461970084137805 3.144844565847669 0.0
9.924415919486059 6.949999999995354 0.0
7.184050152099684 2.72771667662237 0.0
8.834356715215904 7.801565642745232 0.0
8.689015446783005 4.145232831954543 0.0
8.490778532265319 8.234414357968106 0.0
8.63666290918932 2.83060276219705 0.0
4.61028976098935 4.741894230894578 0.0
6.314735925012879 4.003132559161639 0.0
9.20786580425652 4.67001723737971 0.0
7.141401229301469 4.873205425098625 0.0
6.235177809922153 4.774126344778935 0.0
9.12491895896937 3.145675090615719 0.0
9.255747684068178 3.162525801823036 0.0
8.312852272796098 2.290855459722148 0.0
1.449266720542303 3.363629101350872 0.0
9.525687840398492 4.800807314407045 0.0
4.829905263804087 8.14474456977717 0.0
9.09338914689732 7.563794106183232 0.0
5.389401689694107 5.283808684471545 0.0
8.530979415204587 3.029374286908943 0.0
7.901489077080633 6.535344047486632 0.0
9.218572924671975 5.760893551533255 0.0
8.562382833959296 4.143913974026883 0.0
8.62959127904665 8.974877485888243 0.0
9.408442441596518 9.62276529745719 0.0
7.5034765601713 3.869833107932387 0.0
9.842813436634783 6.600620949014236 0.0
9.826116984327193 8.911617279149695 0.0
7.529907780698261 0.7369111006685982 0.0
7.832164962480427 2.905293639437395 0.0
8.39517908433056 3.267417602291069 0.0
9.823014010107707 9.085319632577246 0.0
9.022314123618541 3.944559746338292 0.0
4.243701230676532 5.332574856090426 0.0
9.816740542566388 1.127839952679595 0.0
8.166775715766304 5.693916696568397 0.0
8.865374421689054 8.068986769641638 0.0
8.761145809863661 6.470583506581853 0.0
8.998345275919851 9.209303502026401 0.0
9.698477487436316 6.706902829754045 0.0
6.439032098063426 0.3109134377713525 0.0
7.562681994382136 4.643158005207056 0.0
9.03999088074715 0.2799354672273258 0.0
5.180741540467516 3.805018725608906 0.0
6.243990330956698 2.718077286244967 0.0
9.79416634023361 0.1815240178579244 0.0
9.926540005061975 2.847049370876555 0.0
9.826476210374608 2.670192168078066 0.0
6.365816673179121 4.536333049275508 0.0
5.546353765219417 4.618331215552614 0.0
9.820703096450293 2.000649418331399 0.0
6.884388790679166 3.561583980715254 0.0
7.431303395649604 5.747824222777201 0.0
8.849816832721245 2.19318290395604 0.0
4.185147517585975 5.697469360586313 0.0
9.165905238119013 5.873664931582344 0.0
7.70479478158537 1.788324620089049 0.0
9.627376046933474 0.9196091445437269 0.0
6.657687963328663 5.144792385996769 0.0
9.83245016645186 0.3925568446109945 0.0
7.483092985762584 9.253837199159435 0.0
5.445348362202234 3.977855663863651 0.0
7.476680532833337 4.837183287808616 0.0
9.572749890969304 8.505160319814301 0.0
9.915853314998252 9.437014513917465 0.0
7.679469018350979 7.390484878021194 0.0
9.418139053434402 4.790576000488359 0.0
8.096967733471567 5.865447162201908 0.0
9.829153508938724 8.378494945652118 0.0
9.926595955569645 5.157718300415699 0.0
8.774484245600224 7.939747459426853 0.0
8.629764448155779 6.481031318922794 0.0
8.961169458302376 3.839036702328818 0.0
4.617199205561317 5.256318959792646 0.0
8.480815774219478 4.031210317621497 0.0
9.708341592512763 3.401018043990571 0.0
7.183974816647467 4.77882314543966 0.0
9.821437962294304 7.659391965474772 0.0
8.150320284869602 2.286501016204562 0.0
9.828114434347311 1.684891358832554 0.0
5.349187766238684 6.538177907133678 0.0
8.076053471314525 2.76180604769483 0.0
4.907713691134565 5.29818629967416 0.0
0.6874399366049438 4.328593906714074 0.0
0.6980011780697519 5.702671170050627 0.0
8.263861466707834 8.182284285231713 0.0
5.838783785156478 4.913981390426639 0.0
7.807619472656604 7.235706382002089 0.0
9.388504256318683 6.022122644748753 0.0
9.929839894767033 6.436189192303577 0.0
8.3205848711706 3.39107920408397 0.0
3.240770542267401 4.019899919523968 0.0
8.059047070496568 2.468855909103855 0.0
9.932479519490421 2.449625056415224 0.0
7.737639000139152 4.580708137963557 0.0
8.26141077223695 0.3940397126348397 0.0
9.69568953371801 1.959951226402445 0.0
6.469120930453264 4.892267070266994 0.0
9.167223997255698 0.8102256463122337 0.0
6.236889648241256 0.9291076084031108 0.0
8.306379082772498 5.268830342852036 0.0
6.716089118890225 5.239344620507032 0.0
9.82511981852641 9.282822358664017 0.0
6.68375719572285 4.404998642130821 0.0
8.913754712375674 6.908138360584365 0.0
6.173250048857013 5.251634416326969 0.0
4.235907497612446 1.924052997345291 0.0
5.151007663981651 2.438629730660893 0.0
8.924254300637541 9.3764975797567 0.0
4.438612423541503 5.287968640901957 0.0
8.571203234299599 1.897009944569934 0.0
6.878800676380218 5.821332862798138 0.0
5.710626178601224 4.792560699857408 0.0
7.149510071621283 5.216310009157644 0.0
2.099966541549645 2.334742113488256 0.0
9.93396330620579 5.350566393301629 0.0
7.143046479323961 8.646955109387985 0.0
7.965747313080266 5.193641450105844 0.0
6.3314394693073 5.135050228240639 0.0
7.665821333021348 6.222698255001823 0.0
6.305321657053551 4.659816230868476 0.0
7.833020917089713 5.208837056143474 0.0
9.41455902676429 2.869725681199307 0.0
8.567151507735133 6.598605357295113 0.0
7.405527786978573 4.377085529441429 0.0
6.552969697053132 5.137148974085434 0.0
9.93630620742063 8.042778076596578 0.0
7.166743296019233 4.593171678848165 0.0
6.595561806063966 5.839366735225723 0.0
6.066152182102007 5.262519562574559 0.0
9.834694151277489 0.9093455747994099 0.0
8.98259191950674 7.579732466796592 0.0
6.465071238839505 5.25485771955322 0.0
9.759759896588413 3.236659507608532 0.0
4.775529448101694 5.224235675150505 0.0
9.935991245222917 7.153416415978829 0.0
0.6530736820718381 9.352299998916202 0.0
0.6449439415299687 0.6468300344151556 0.0
7.804690364869245 4.495816547678174 0.0
9.84503784553893 5.70620404704573 0.0
9.83525329400959 3.826992990746767 0.0
9.922964894244684 4.265000406933376 0.0
8.333767638401964 1.121219971446645 0.0
8.876012546033895 7.019147158538482 0.0
8.172413577824324 3.413096916572049 0.0
7.232233017296214 4.478957103028363 0.0
6.214597295185415 3.852860083673202 0.0
9.85013791746415 4.400709747289421 0.0
3.941627380932058 6.342995010255737 0.0
3.097271569675528 8.77391871286929 0.0
9.292917152323044 6.010976049411984 0.0
8.104342196673183 5.184165973282902 0.0
8.994300084006271 3.652611812846807 0.0
9.937157897030163 5.549999999993244 0.0
8.721368888525245 7.274540720770752 0.0
8.920003648712827 0.9516585309368178 0.0
7.910527456030004 8.536826514867816 0.0
9.846441288756814 4.60515911863952 0.0
9.584942233925151 4.712073182517884 0.0
9.642357858573972 6.805672051759494 0.0
9.797024725252207 9.838837222258014 0.0
9.842451438022124 4.018973836958878 0.0
6.112723137676118 3.704473949316424 0.0
7.574641969193845 3.765362276156904 0.0
7.826594968121701 6.200366572362263 0.0
7.762805366733504 9.34009502796868 0.0
9.56854033867856 1.012566255816665 0.0
7.71256563655353 5.219373702836014 0.0
9.68039392238282 8.786964504862018 0.0
5.910362452777086 9.277662068919813 0.0
7.418090653922814 3.326443419100716 0.0
9.857704179097952 4.697553149694669 0.0
8.452469674653342 8.996585816905599 0.0
9.522351366699843 2.057525484575908 0.0
7.802315574700843 9.548878971475935 0.0
9.938875656926385 3.449999999992592 0.0
8.425189037911712 6.608575180629274 0.0
5.925965231566842 2.523669697740033 0.0
6.654918072256329 5.95749128982984 0.0
9.826748589235729 9.631118448471485 0.0
8.6684585637523 7.39633999085442 0.0
9.844673843931567 3.090088625379724 0.0
9.93613850661301 2.250382721159617 0.0
9.218291993658738 2.892108990205171 0.0
9.83502846611296 8.212781989607324 0.0
7.754136409732265 7.104288507262783 0.0
8.510570542791681 2.036933285735889 0.0
7.757745059307245 4.315798612475442 0.0
7.989231770559189 6.201656630465583 0.0
8.068934521422738 4.198631572122605 0.0
4.957478134450373 9.038766150325067 0.0
7.208661142641733 6.501402463831379 0.0
7.299506095906239 4.363561999234681 0.0
8.250303873550486 2.105322217421675 0.0
8.678637541413377 7.053471135702286 0.0
9.761528395137384 6.163503990672834 0.0
9.84494857233395 8.59999999999775 0.0
9.83825138794677 3.672838954969637 0.0
5.121008544047756 5.808127183024784 0.0
8.343911550360986 4.043535893276861 0.0
9.85324441775315 5.899999999993774 0.0
9.51114465213134 8.41035540646284 0.0
6.505812179224195 6.93390566262983 0.0
6.15572847138365 9.023097246950844 0.0
3.352081892333425 3.024853379890529 0.0
6.433163283162099 8.675072413910678 0.0
8.825744236698243 3.624446391299867 0.0
4.883007294861279 7.819620905924936 0.0
5.876659170760434 5.638247433601083 0.0
6.859400040348503 6.510797998354633 0.0
7.946400945409184 3.500317276373196 0.0
7.496830255505493 6.653194511698024 0.0
9.852183479755313 4.891525833556942 0.0
9.77998778436291 2.922486526124376 0.0
6.774672660492365 5.324728659740495 0.0
5.717254072187427 6.824125962512845 0.0
9.713440940838062 4.63793103997539 0.0
8.859858662536796 0.2721395536350836 0.0
8.37556017530946 9.436653414116012 0.0
7.395237381047616 7.885576562773319 0.0
5.4709157802033 4.511152089197594 0.0
9.489749416979361 9.691840729914848 0.0
4.599216022837964 3.46438688931078 0.0
5.572287492757569 4.807021644849729 0.0
9.926499336309957 9.92730688390086 0.0
9.926499336310107 0.07269311609890093 0.0
9.338127766332573 0.3585313952168247 0.0
6.810761948165162 3.414693294319008 0.0
8.166274345037138 5.943611545564389 0.0
5.2892644736731 6.301081312912763 0.0
9.731911074791544 7.649313380659622 0.0
8.90251102352767 9.50983415326544 0.0
8.997881406541017 1.033666784655452 0.0
5.835124768755703 2.738139962594905 0.0
9.665357480775825 6.185331297099201 0.0
7.656532192558493 8.217157287499347 0.0
9.170463887605525 2.975444721032631 0.0
4.208158615905443 0.8648302238584886 0.0
6.97015686031129 5.933674629077266 0.0
6.181941366523793 3.565885175921835 0.0
3.30313590337911 6.393402837735046 0.0
6.447482061767014 4.816169316820496 0.0
8.185341428749446 4.169172087371246 0.0
4.552595724340015 8.298301336212145 0.0
9.84850676569699 8.999999999998423 0.0
9.846941514449377 7.393642828194986 0.0
7.924592433490734 2.788309934035703 0.0
8.154308714226714 8.853640122009672 0.0
8.876629743004642 1.96110242719995 0.0
7.228849192966834 8.90811350348676 0.0
9.852301635085423 8.296637825215246 0.0
5.219795195341889 5.547413133147649 0.0
9.861497117995457 6.901363010201344 0.0
2.953911258021604 6.136007283255669 0.0
6.93158841067062 4.77708273647784 0.0
9.67540418457871 2.912802891506324 0.0
4.194055958522277 4.437353127730132 0.0
6.133959559341536 0.406856611599261 0.0
8.29952795189331 9.309744645643846 0.0
9.843692337952948 1.209647690818311 0.0
5.164986286280336 6.671544079402435 0.0
9.838533350075606 2.081705440779448 0.0
8.301244777513975 6.604088853319459 0.0
5.471494771710784 2.714598185146428 0.0
8.86534684892311 1.208599471795828 0.0
9.940610684232212 1.451558535868664 0.0
9.40896208432968 1.428353940655538 0.0
2.329177605337097 4.238803555614174 0.0
5.980761651517799 7.182207186682233 0.0
9.66541573964336 0.1719254072074424 0.0
7.220979380229172 7.806128737674462 0.0
1.251721227904697 6.151932667911503 0.0
8.104967286191181 6.057912607875576 0.0
6.650768762224724 4.817922869198292 0.0
6.634976350437587 3.213339182992986 0.0
7.034320437500567 4.898219100342838 0.0
9.502772020064167 6.283064492634301 0.0
8.13187938667684 3.518506862055515 0.0
9.855471943454193 2.599999999994991 0.0
9.056747742708522 8.263936599935574 0.0
4.352645795441222 5.724453640019 0.0
3.744263984699181 1.488951698361357 0.0
5.175860134287045 3.6375726667098 0.0
7.736434712114619 6.400417475661193 0.0
9.857658576695343 6.316607183405179 0.0
7.876525261950537 4.304285002335559 0.0
9.856114384785611 7.914602773442983 0.0
9.848334119947063 0.7059644476295188 0.0
9.59694321995579 6.895814046141667 0.0
5.906465212962551 3.869023950643881 0.0
9.840676994268005 9.364956386459765 0.0
5.355015287544095 3.83518170601625 0.0
6.374090407153147 5.855743754257685 0.0
8.227401290513832 5.297819733684674 0.0
5.451235131977493 4.825706629991923 0.0
6.022070213762754 5.355923882747634 0.0
9.845674433677614 6.108401449483281 0.0
9.835067400944396 7.739582406783081 0.0
8.602026805792988 2.941372356914139 0.0
5.059869081004962 5.269480960018243 0.0
5.284714507903736 5.26496663762182 0.0
9.627110479149561 7.660076105040499 0.0
6.820001127809743 4.792514421153957 0.0
5.120512795059439 4.806607659110254 0.0
9.56933817216883 2.911464407429096 0.0
9.74091654291531 9.267545397628387 0.0
9.93006767325302 6.576784040838644 0.0
9.642486276936268 4.650227701598451 0.0
5.185183328569137 9.410919109238325 0.0
9.37052946854105 4.605636695802024 0.0
1.677077220416309 5.871167715901136 0.0
7.345783833404538 3.184020711886284 0.0
5.419239942654976 5.982692039856376 0.0
6.133318300188262 2.551919945731369 0.0
6.187291396343277 4.499077117404439 0.0
1.231465237822878 3.921479198315213 0.0
8.969849937139944 9.699215363213542 0.0
9.218303154263054 6.037447959776716 0.0
CELLS 4886 19544
3 1113 1356 1450
3 1402 231 1659
3 272 269 1414
3 396 394 1777
3 1451 945 1452
3 194 81 1801
3 1847 1501 2104
3 2024 2121 2479
3 1115 1113 1450
3 1124 1413 1844
3 1061 1955 2409
3 307 305 1645
3 1592 1369 1593
3 238 1501 1847
3 1955 1883 2409
3 1808 243 1910
3 1885 978 2362
3 1440 793 2092
3 189 1488 1608
3 353 350 1864
3 2007 2231 2232
3 307 1645 2493
3 1096 1760 2496
3 2178 874 2179
3 621 625 1595
3 1493 1480 1938
3 1655 1268 2137
3 1341 1410 2212
3 243 1808 2360
3 1902 1446 2516
3 1760 1096 1763
3 856 790 2180
3 2008 2046 2105
3 789 1809 2067
3 694 1543 1575
3 1127 1762 1953
3 1748 807 2228
3 1543 1308 1575
3 820 1872 2170
3 1417 954 1998
3 1369 1592 2386
3 272 1414 1787
3 329 333 1998
3 1544 1095 1545
3 2231 1490 2232
3 1342 1683 1790
3 374 377 1797
3 807 1678 2228
3 1665 198 2128
3 141 142 1620
3 325 322 1952
3 231 1402 1654
3 198 1665 2010
3 1890 1307 2387
3 208 1438 1619
3 2016 1970 2156
3 1436 212 2020
3 954 1417 2333
3 1736 1894 2244
3 1491 1750 2143
3 1677 1064 2146
3 1474 1258 1475
3 1500 233 1930
3 1446 2415 2516
3 1700 973 1800
3 2128 2270 2316
3 1316 1315 1593
3 1307 2341 2387
3 2258 1324 2328
3 1083 1507 1508
3 693 1095 1544
3 621 1595 1596
3 667 1571 1872
3 1932 1766 2061
3 393 391 2240
3 1342 1790 2400
3 252 1707 2234
3 931 978 1885
3 1430 1116 1704
3 1411 1109 1714
3 1478 1227 2440
3 1990 195 2297
3 1792 1167 1985
3 1682 444 1975
3 394 397 1777
3 1711 2028 2162
3 1574 856 2180
3 2008 1851 2046
3 736 1493 1938
3 1069 1060 1662
3 1458 455 1754
3 862 691 1705
3 1161 1642 2286
3 1699 1700 1800
3 447 516 1637
3 955 1482 1483
3 2024 206 2121
3 391 1773 2240
3 1072 1412 1893
3 212 1436 2350
3 1566 1365 1568
3 259 1441 1672
3 872 870 1764
3 330 328 1889
3 1539 1161 2286
3 1897 1898 2275
3 1434 1990 2297
3 1109 1411 1730
3 319 307 2493
3 1762 1761 1953
3 1369 1316 1593
3 1540 834 1832
3 1505 652 2442
3 1732 1655 2137
3 921 1712 2295
3 1872 1388 2170
3 1712 921 2125
3 2028 244 2162
3 1506 1570 1680
3 1569 368 1964
3 1571 667 2375
3 1587 2178 2179
3 196 1723 1737
3 524 2016 2156
3 1528 1250 1733
3 1115 1450 1973
3 1938 1480 1971
3 1809 1396 2067
3 1641 249 2299
3 1223 1258 1474
3 1365 1566 2120
3 1981 962 2316
3 1538 353 1864
3 455 1458 1756
3 152 233 1500
3 1116 1430 1703
3 817 652 1505
3 1347 2003 2004
3 1607 1958 2085
3 194 1801 2195
3 1410 1341 2351
3 223 1415 1710
3 197 1511 2346
3 2198 787 2225
3 81 82 1801
3 1438 208 1620
3 1444 522 1823
3 1511 197 1950
3 726 718 1567
3 1637 516 1739
3 1708 2337 2341
3 1280 1649 2124
3 2337 1395 2341
3 1327 1709 2315
3 1225 1227 1478
3 691 624 1705
3 476 2224 2305
3 830 832 2204
3 1750 1491 2403
3 1366 1897 2275
3 2345 1583 2352
3 2054 405 2110
3 1984 2172 2230
3 1846 2198 2225
3 1177 2042 2418
3 2121 1367 2479
3 1527 1531 1541
3 916 1039 1834
3 1413 1124 2467
3 1622 1503 1868
3 249 1641 2019
3 1805 405 2054
3 1761 1007 1953
3 1415 223 2395
3 960 1756 2203
3 368 1569 2135
3 1402 1659 2473
3 941 1433 2471
3 1267 1477 1501
3 260 2002 2265
3 1704 558 2077
3 2224 1886 2305
3 2053 1386 2199
3 1452 945 1952
3 1717 1611 1718
3 1682 1975 2230
3 1760 1762 2496
3 1481 203 2104
3 1264 1266 1670
3 142 236 1620
3 2133 1182 2179
3 1791 1602 2183
3 350 346 1864
3 1412 1072 2393
3 1281 1575 2255
3 1565 1948 2155
3 849 1449 1513
3 1958 396 2085
3 1339 1069 1662
3 834 1540 1917
3 269 267 1414
3 1268 1267 1501
3 1440 2092 2468
3 1399 1981 2316
3 1635 1636 2041
3 1454 252 2234
3 1451 1305 1890
3 1375 1883 1955
3 362 366 1786
3 1484 2410 2528
3 1449 849 1640
3 1267 1474 1477
3 200 1611 1717
3 1054 1581 1582
3 1350 1977 2253
3 190 1390 2118
3 788 1956 2193
3 1709 1327 1888
3 2233 2298 2413
3 1488 189 2355
3 478 1685 1714
3 230 1525 1690
3 1687 478 1688
3 427 429 1756
3 1570 1065 2476
3 1880 1133 1988
3 1649 656 2124
3 1537 209 1614
3 1134 1769 1986
3 1220 1268 1655
3 396 1777 2085
3 1167 1755 1985
3 2229 1744 2296
3 1575 1281 2287
3 127 240 1882
3 377 647 1797
3 954 329 1998
3 220 1697 1698
3 1342 1341 2212
3 1441 264 1672
3 1512 188 2433
3 763 2345 2352
3 1685 1411 1714
3 1805 1188 1951
3 1347 2004 2157
3 1054 1582 1667
3 1333 1617 1674
3 2217 73 2361
3 1539 1036 1917
3 1039 1292 1834
3 208 141 1620
3 1965 1964 2038
3 693 1544 1969
3 1453 239 2279
3 203 1481 2049
3 945 1451 1889
3 680 1459 2134
3 354 2147 2196
3 1405 1932 2061
3 1723 1722 1737
3 1748 1175 1927
3 1532 1528 1733
3 2057 1824 2154
3 1406 1659 1702
3 1948 1186 2155
3 210 1598 2114
3 1685 478 1687
3 1324 1325 2328
3 1526 1250 1527
3 165 166 1509
3 1493 736 2523
3 1526 1527 1541
3 1390 190 2417
3 522 1444 1998
3 1680 1570 1732
3 1017 1442 2525
3 374 1797 2430
3 1507 1083 2197
3 1756 960 2221
3 2270 1400 2316
3 2205 1452 2282
3 1074 1187 1888
3 2158 1245 2200
3 1442 1017 1684
3 864 1116 1703
3 1750 1751 2143
3 1456 516 1492
3 1677 2146 2149
3 2022 1339 2388
3 1602 258 2183
3 678 1594 1595
3 1245 1670 2200
3 972 830 2204
3 2143 983 2342
3 1268 1501 2226
3 1266 1461 1670
3 1487 222 2465
3 1382 2022 2388
3 58 59 1661
3 2147 1543 2196
3 1484 1485 2410
3 628 2053 2199
3 1906 1549 2259
3 364 362 1786
3 1339 2022 2247
3 1636 525 2041
3 625 678 1595
3 678 1593 1594
3 2212 1410 2222
3 1837 1865 2215
3 1699 1800 1801
3 866 864 1703
3 893 1472 1982
3 1735 1736 2244
3 1633 1255 1922
3 126 127 1882
3 681 867 1656
3 1351 1401 2363
3 11 228 1588
3 1127 1953 2454
3 265 266 267
3 1722 1122 1737
3 1389 1691 2069
3 1613 1610 1616
3 1227 1256 2440
3 429 455 1756
3 1535 1177 2418
3 322 324 1952
3 973 1700 1802
3 1964 368 2038
3 1176 1865 1866
3 1096 872 1764
3 1176 1866 1875
3 193 1839 1892
3 156 157 1441
3 615 617 1596
3 686 1520 2480
3 1409 2097 2305
3 2410 1151 2528
3 1427 2217 2361
3 440 1911 2314
3 1744 1743 2296
3 516 1456 1739
3 1939 589 2164
3 690 931 2150
3 1062 1579 1580
3 1054 1580 1581
3 955 1483 1716
3 1064 1677 2248
3 1956 1616 2193
3 1776 1893 2026
3 1398 1115 1973
3 2002 1453 2265
3 1541 1531 1542
3 216 2191 2536
3 1736 1326 1894
3 1065 994 1066
3 1598 2115 2175
3 2314 1911 2358
3 1433 941 2042
3 2115 1209 2175
3 717 1550 1551
3 188 1941 2433
3 267 1132 1414
3 771 1569 2064
3 1157 1545 1546
3 1231 1250 1526
3 1933 240 2181
3 222 1487 2025
3 1525 230 1765
3 1430 1704 2077
3 757 1744 2495
3 264 263 265
3 883 773 1917
3 739 2205 2282
3 1667 1582 2434
3 1744 757 2474
3 239 1453 2002
3 1441 259 2356
3 2005 1443 2012
3 254 1766 1932
3 1509 166 1679
3 1477 1475 1481
3 793 1440 2165
3 1385 1523 2377
3 1481 1475 2523
3 156 1441 2356
3 1066 1220 1655
3 945 325 1952
3 2094 2087 2134
3 1747 1175 1748
3 253 262 263
3 1327 1074 1888
3 718 715 1567
3 2046 1043 2105
3 240 1933 2399
3 1305 1307 1890
3 224 58 1661
3 1195 1566 2285
3 1590 1393 1749
3 1255 1230 1922
3 353 1538 2073
3 358 1999 2325
3 882 1802 2036
3 1024 1020 1604
3 333 522 1998
3 1401 1351 2414
3 1475 1258 1476
3 2310 786 2364
3 328 945 1889
3 807 1748 1927
3 825 724 1912
3 1742 263 2491
3 267 266 1132
3 2077 2102 2203
3 1431 1432 1860
3 1212 1957 2312
3 2097 476 2305
3 1132 1402 2473
3 717 713 1550
3 1746 693 1969
3 1372 1124 1844
3 1256 1541 2269
3 1977 1350 2274
3 2332 1978 2443
3 874 2133 2179
3 1983 1534 2171
3 1157 1544 1545
3 1230 1228 1922
3 1580 1579 1581
3 1565 806 1948
3 1416 1363 2413
3 1287 1995 2398
3 265 263 266
3 1534 1529 2171
3 1604 1834 2428
3 1255 1633 2509
3 1344 1643 1644
3 1332 1388 1571
3 1423 217 2217
3 2191 1057 2451
3 458 447 1637
3 1250 1233 1733
3 472 2212 2222
3 1175 1747 1840
3 1652 256 1653
3 1073 1347 1572
3 200 145 1609
3 683 640 1585
3 1116 862 1705
3 1221 1223 1474
3 1778 801 1803
3 1503 1622 2471
3 1475 1493 2523
3 464 680 2134
3 14 210 2114
3 579 1880 1988
3 1434 1435 1990
3 1447 2310 2364
3 275 274 276
3 2294 1871 2419
3 814 1068 1684
3 1172 1439 2273
3 273 272 274
3 1363 1416 2406
3 1220 1219 1221
3 1060 1656 1662
3 1099 1792 1985
3 2048 1198 2168
3 1241 1245 2323
3 699 723 1753
3 1640 1862 2070
3 910 1018 1584
3 1586 1067 1587
3 1656 867 1662
3 1067 686 2480
3 654 2242 2294
3 1593 1315 1594
3 1880 553 1974
3 236 1717 1718
3 617 621 1596
3 1723 196 2313
3 402 1877 2116
3 273 274 275
3 2202 1869 2252
3 1510 1358 1767
3 193 1892 2373
3 1188 1805 2054
3 1220 1221 1267
3 1066 1218 1219
3 1517 1097 1518
3 1677 1676 1858
3 686 277 1520
3 268 267 269
3 697 857 1592
3 220 1698 1699
3 1802 1700 2036
3 1612 1537 1614
3 929 817 994
3 228 12 2136
3 2110 2116 2482
3 1659 1658 1702
3 1611 1613 2280
3 1344 991 1643
3 683 1585 1604
3 1638 1358 2404
3 1485 1034 2410
3 2214 833 2424
3 271 272 273
3 1482 955 1962
3 1066 1219 1220
3 931 1885 2150
3 1613 1891 2280
3 1189 1589 2204
3 1566 1195 2120
3 726 1567 2490
3 1122 1722 1874
3 1494 319 2493
3 1671 259 1672
3 1267 1221 1474
3 603 528 1591
3 1664 2128 2316
3 1817 1924 2174
3 1626 1660 2111
3 1474 1475 1477
3 1023 1062 1580
3 1957 1599 2312
3 1764 1939 2164
3 1358 1950 2404
3 200 1609 1610
3 1431 1082 1432
3 1778 1803 2521
3 1830 1832 2075
3 1930 233 2369
3 1329 1482 1650
3 757 1959 2522
3 1239 1247 1597
3 758 1978 2332
3 1569 1290 2064
3 216 1694 2191
3 1453 1420 2265
3 1549 1906 2129
3 24 215 1674
3 19 235 1676
3 1621 1057 2191
3 1691 1389 2262
3 1617 1333 2192
3 929 994 1065
3 1769 1672 1986
3 1893 1412 2026
3 1609 1537 1612
3 271 269 272
3 1373 1438 1620
3 217 1423 2381
3 517 330 1889
3 1322 1055 1667
3 1974 553 2499
3 228 2136 2187
3 1589 1189 1788
3 1999 1577 2325
3 2110 405 2116
3 189 1608 1842
3 1055 1050 1667
3 739 1455 2205
3 1865 1176 2215
3 319 1494 2522
3 2474 757 2522
3 1484 227 1485
3 10 11 1588
3 723 809 1753
3 27 230 1689
3 1550 806 1565
3 1179 1180 1217
3 207 1617 2192
3 1433 1217 1502
3 1562 1556 1606
3 1379 2017 2018
3 1245 2158 2323
3 675 1097 1517
3 884 501 1599
3 1020 683 1604
3 1603 1095 1848
3 1001 2057 2154
3 1604 1585 1834
3 1610 1612 1616
3 1764 870 1939
3 2242 1871 2294
3 1669 1264 1670
3 1658 213 1702
3 1995 1646 2398
3 631 539 1600
3 1491 2143 2342
3 1801 1800 2195
3 1200 1199 1693
3 1535 940 1861
3 1534 758 2332
3 914 2258 2328
3 1588 228 2457
3 216 138 1694
3 151 152 1500
3 1133 1880 1974
3 1677 1858 2248
3 1294 1622 1868
3 875 1010 1767
3 1379 2018 2416
3 1279 2202 2252
3 182 256 1652
3 1592 857 2386
3 672 681 1656
3 615 1596 1824
3 1093 1487 1623
3 1823 522 2100
3 1245 1242 1669
3 1582 1581 1583
3 758 1534 2306
3 1975 1984 2230
3 1358 1510 1950
3 1663 1336 1665
3 2102 960 2203
3 366 1087 1786
3 1740 1490 2231
3 21 207 1709
3 145 146 1609
3 2339 765 2384
3 603 1591 1668
3 2081 199 2149
3 1540 1832 1879
3 1721 1723 1947
3 1754 455 1793
3 1751 1753 2119
3 882 1701 1807
3 1540 1539 1917
3 242 1695 1697
3 1521 354 2091
3 1363 2233 2413
3 1584 1018 1925
3 703 1067 1586
3 1177 1178 1179
3 795 916 1834
3 277 276 607
3 1571 1388 1872
3 22 23 1617
3 1097 823 1177
3 25 26 1624
3 419 418 1790
3 1728 1906 2259
3 440 1455 2261
3 1877 1318 2116
3 1488 1156 1608
3 1439 2130 2273
3 1889 1451 1890
3 1614 209 2389
3 1472 893 2094
3 675 821 823
3 23 24 1674
3 1788 1190 2183
3 917 941 1622
3 1763 1096 1764
3 1068 1442 1684
3 1034 1485 2173
3 2172 1533 2230
3 138 139 1694
3 1065 1570 2197
3 607 674 675
3 1536 1248 2268
3 229 135 1734
3 1437 1925 1926
3 680 510 1646
3 147 209 1537
3 26 27 1689
3 1627 705 2163
3 206 1651 2121
3 2409 1785 2462
3 1492 682 2447
3 1223 1225 1258
3 889 1772 2374
3 253 263 264
3 275 276 277
3 1455 739 2261
3 2022 1382 2176
3 150 227 1484
3 639 1019 1591
3 1449 1640 2070
3 1082 833 2214
3 1503 1502 1504
3 144 200 1717
3 1643 991 1713
3 1190 1791 2183
3 1538 1804 2073
3 1256 2269 2440
3 18 19 1676
3 521 531 2000
3 790 849 2180
3 1075 1329 1650
3 1087 1782 1785
3 1066 994 1218
3 270 269 271
3 682 1492 2494
3 185 252 1454
3 253 158 262
3 1629 1632 1633
3 200 1610 1611
3 1477 1481 2104
3 1623 1487 2465
3 1518 1097 1535
3 1414 1132 2460
3 1179 1217 1433
3 177 1506 1680
3 1392 1017 2525
3 1832 834 2075
3 675 823 1097
3 1459 2094 2134
3 1782 1087 1795
3 1838 1730 2372
3 1639 149 2528
3 1617 23 1674
3 2265 1420 2489
3 180 232 1859
3 1527 1250 1528
3 20 21 1709
3 1083 1508 2311
3 903 866 1703
3 1455 440 2314
3 1187 1858 1888
3 1659 1406 2473
3 1446 1902 2166
3 421 1951 2106
3 1598 210 2115
3 154 259 1671
3 1288 1835 2080
3 1832 1831 1879
3 1258 1225 1478
3 1024 1604 2117
3 1263 1429 1739
3 706 705 1627
3 1583 1581 2352
3 407 1805 1951
3 856 1574 2527
3 1701 882 2036
3 1624 26 1689
3 717 1551 1552
3 1385 2377 2391
3 2302 1745 2354
3 1572 1347 2157
3 1036 883 1917
3 1689 1690 1691
3 1664 1665 2128
3 1476 1479 1480
3 1751 2119 2143
3 815 814 1684
3 1790 889 2400
3 1606 1607 2085
3 265 267 268
3 418 889 1790
3 1522 1521 2091
3 135 136 1734
3 1726 1445 1729
3 647 1796 1797
3 1346 1453 2279
3 1293 1827 2117
3 1242 1244 1669
3 1853 1852 1854
3 889 2374 2400
3 1039 1038 1290
3 1524 628 2199
3 1331 1332 1571
3 1291 1290 1569
3 1475 1476 1493
3 1850 1852 1853
3 1490 1740 2456
3 1689 230 1690
3 1256 1526 1541
3 1704 1705 2167
3 1465 1470 1675
3 956 1073 1572
3 1613 1616 1956
3 916 917 1038
3 2014 1522 2091
3 1221 1222 1223
3 1999 763 2352
3 234 10 1588
3 1697 220 2335
3 1527 1528 1529
3 2298 1600 2413
3 1436 2020 2254
3 1642 1161 1678
3 1523 1385 2436
3 1730 1838 2426
3 795 796 916
3 713 711 1550
3 1456 1263 1739
3 999 1336 1663
3 1785 1784 2462
3 409 415 1783
3 607 675 1517
3 1229 1231 1526
3 1958 1855 2078
3 1589 1588 1590
3 1933 261 2380
3 762 1965 2038
3 1756 1458 2203
3 1776 597 1893
3 1794 1072 1893
3 188 1512 2266
3 1774 2339 2384
3 188 1908 1941
3 1010 1510 1767
3 2189 2285 2307
3 773 834 1917
3 1245 1669 1670
3 1248 1597 2268
3 146 1537 1609
3 818 910 1584
3 1641 1313 1651
3 1217 1745 2302
3 1065 1066 1655
3 1597 1247 2047
3 1360 2177 2376
3 1612 1615 1616
3 2126 867 2186
3 1019 683 1020
3 1747 892 1840
3 1092 1093 1623
3 261 1933 2181
3 400 424 1666
3 1516 1903 2377
3 1100 1392 1605
3 247 1738 1881
3 268 1134 1986
3 1177 823 1178
3 884 1599 1957
3 263 262 2491
3 806 1627 1948
3 1227 1229 1256
3 191 1729 2504
3 1636 1635 2502
3 1480 1479 1601
3 1721 1947 2498
3 1924 1146 2174
3 229 1734 1735
3 175 204 1725
3 1179 1178 1180
3 354 1521 2147
3 665 697 1592
3 640 646 1585
3 627 545 1636
3 1882 240 2399
3 1556 1555 1606
3 1373 1620 2394
3 1871 1071 2419
3 548 1628 1629
3 455 436 1793
3 974 1831 1841
3 1844 1413 2392
3 1612 1614 1615
3 209 1639 1937
3 1329 1330 1331
3 1823 2100 2142
3 1097 1177 1535
3 1021 1020 1022
3 825 1912 2455
3 913 1122 1874
3 400 1666 2113
3 1256 1229 1526
3 1419 1418 2450
3 1552 1551 1553
3 1850 1099 1852
3 1629 1631 1632
3 801 685 2029
3 1618 1619 1621
3 265 268 1986
3 1715 2165 2330
3 1531 1529 1534
3 1022 1024 1576
3 658 693 1746
3 703 686 1067
3 1062 1576 1577
3 1023 1022 1062
3 236 1718 2394
3 1688 502 1740
3 1501 1477 2104
3 213 165 1509
3 646 795 1585
3 196 1737 1738
3 379 679 1795
3 639 640 683
3 924 875 1767
3 1752 699 1753
3 207 2192 2315
3 627 1636 1660
3 1217 1180 1745
3 730 728 1833
3 528 561 1591
3 1444 1417 1998
3 252 186 1602
3 1729 1445 2504
3 460 502 1688
3 1418 946 1778
3 1203 1200 1693
3 548 470 1628
3 849 668 1640
3 646 785 795
3 607 276 674
3 14 15 210
3 147 148 209
3 478 460 1688
3 1709 207 2315
3 1157 1546 1608
3 1155 1731 1899
3 1524 1934 2390
3 1775 921 1876
3 1433 1502 1503
3 470 458 1628
3 1223 1224 1225
3 1291 1569 1964
3 871 1056 1826
3 1781 1783 1915
3 1587 1067 2300
3 916 1038 1039
3 1388 1387 1389
3 1611 1610 1613
3 1075 1328 1329
3 1039 1290 1291
3 1538 1265 1804
3 1184 1185 2163
3 597 598 1794
3 1450 1356 2421
3 1835 576 2080
3 1629 1628 1631
3 1331 1330 1332
3 561 639 1591
3 1476 1480 1493
3 705 703 1586
3 639 683 1019
3 1951 1188 2106
3 436 446 1793
3 1472 1297 2142
3 1332 1387 1388
3 1345 984 1720
3 1329 1328 1330
3 1050 1048 1667
3 150 151 227
3 11 12 228
3 557 541 2256
3 1831 974 1879
3 134 229 1766
3 1357 1358 1638
3 1336 1641 2299
3 1650 1482 1962
3 1591 1019 2512
3 1506 1507 1570
3 1803 801 2029
3 1178 823 1972
3 1552 1553 1554
3 1290 1038 1294
3 1028 1313 1641
3 1237 1239 1597
3 993 1017 1100
3 893 2087 2094
3 149 1484 2528
3 1768 1142 1949
3 9 234 1673
3 1554 1553 1555
3 668 632 1640
3 711 806 1550
3 1628 458 1637
3 1098 1829 1830
3 1482 1331 1483
3 531 1818 2000
3 435 419 1790
3 1156 1157 1608
3 1182 1184 2179
3 510 512 1646
3 1231 1233 1250
3 946 841 1778
3 1483 1331 1571
3 1459 680 2458
3 1166 1040 1210
3 892 1657 1820
3 1042 1445 1726
3 1019 1020 1021
3 749 805 1810
3 234 1588 1589
3 1695 242 1892
3 556 1853 2483
3 1018 1572 1573
3 1529 1528 1530
3 1606 1558 1607
3 1761 1759 2308
3 1396 1032 1921
3 1018 956 1572
3 689 1150 1416
3 1827 1293 2515
3 149 150 1484
3 1647 656 1648
3 1543 694 2196
3 399 409 1783
3 545 525 1636
3 268 269 270
3 715 713 717
3 1100 1017 1392
3 1657 892 1747
3 207 22 1617
3 1666 884 2249
3 1671 1672 1769
3 1554 1555 1556
3 146 147 1537
3 1081 1444 1822
3 711 709 806
3 1443 2005 2322
3 660 658 1746
3 1166 1458 1754
3 916 796 917
3 1056 1728 1826
3 1068 1069 1275
3 184 185 1454
3 158 159 262
3 2007 1687 2231
3 805 1708 1810
3 1672 264 1986
3 1561 1562 1563
3 978 1075 1650
3 1590 1588 2457
3 215 25 1624
3 1551 1550 1565
3 1073 1346 1347
3 857 818 1584
3 1648 656 1649
3 675 674 821
3 561 594 639
3 1731 529 1899
3 2303 1454 2535
3 981 903 1040
3 1630 1629 1633
3 993 877 1017
3 724 718 726
3 512 603 1646
3 1676 235 1858
3 814 1060 1068
3 715 717 1567
3 1796 647 1870
3 1715 1171 2165
3 678 1592 1593
3 644 613 1824
3 1690 1525 2145
3 1297 1822 1823
3 271 656 1647
3 1704 1116 1705
3 1225 1226 1227
3 1275 1069 1338
3 910 956 1018
3 1824 1596 2154
3 1403 1100 1605
3 1221 1219 1222
3 1068 1060 1069
3 1901 245 1949
3 1081 1055 1321
3 1751 563 1752
3 1021 1022 1023
3 672 638 681
3 1095 657 1848
3 1235 1237 1248
3 1561 1556 1562
3 1265 1259 1804
3 524 1819 2016
3 978 1650 2362
3 1492 516 2494
3 229 1735 2061
3 185 186 252
3 157 158 253
3 152 153 233
3 9 10 234
3 1527 1529 1531
3 1808 1344 2360
3 1062 1577 1579
3 1509 1679 1977
3 424 454 1666
3 637 638 672
3 981 1040 1166
3 1555 1558 1606
3 751 749 1810
3 1166 1210 1458
3 1651 1313 2121
3 15 16 2260
3 1633 1632 2509
3 2167 1705 2276
3 551 602 2045
3 697 818 857
3 364 1786 1883
3 832 1189 2204
3 1476 1478 1479
3 678 665 1592
3 213 1509 2096
3 1015 888 1124
3 1062 1022 1576
3 679 1782 1795
3 680 1646 1995
3 1101 1100 1403
3 1109 433 1714
3 1248 1237 1597
3 733 730 1833
3 1702 213 2096
3 499 498 1828
3 1418 1778 2521
3 637 600 638
3 1048 1046 1054
3 1577 1576 1578
3 814 766 1060
3 1279 2252 2292
3 474 470 548
3 199 18 1676
3 157 253 1441
3 1048 1054 1667
3 471 472 2290
3 625 665 678
3 795 785 796
3 1264 1265 1266
3 1437 1926 2350
3 1362 2048 2168
3 1394 2337 2371
3 454 884 1666
3 1022 1020 1024
3 751 1810 1923
3 1046 1023 1580
3 1807 1701 1931
3 1618 208 1619
3 566 588 689
3 1828 498 1829
3 501 509 1599
3 1118 780 1775
3 878 817 929
3 1510 1511 1950
3 1618 1621 1694
3 1052 1081 1822
3 1416 1150 1715
3 1239 1241 1247
3 1396 1921 2067
3 1751 1752 1753
3 1264 1259 1265
3 539 566 1600
3 1762 1127 2496
3 1673 1788 2183
3 1555 1557 1558
3 1052 1050 1055
3 725 724 825
3 1142 1770 1771
3 681 853 867
3 454 501 884
3 1346 1420 1453
3 932 1147 1770
3 1546 1545 1547
3 533 582 1818
3 1266 1337 1460
3 1872 820 2318
3 1117 1119 1713
3 1081 1321 1417
3 1253 1259 1264
3 1569 771 2135
3 1052 1055 1081
3 1181 1178 1972
3 709 706 1627
3 1073 1076 1346
3 1098 1828 1829
3 1382 1380 2176
3 1442 1275 1443
3 919 999 1663
3 1789 828 1855
3 877 815 1684
3 509 539 631
3 992 877 993
3 1266 1265 1337
3 2268 1498 2340
3 1130 1032 1396
3 1095 1603 2508
3 886 826 887
3 531 533 1818
3 1131 1400 1881
3 447 437 516
3 2460 1132 2473
3 940 1535 2418
3 768 1873 2037
3 1813 1869 1954
3 1627 2163 2488
3 1497 1495 1645
3 1198 1409 2168
3 724 726 1912
3 1869 987 1954
3 763 1999 2338
3 1010 1170 1374
3 984 976 1720
3 1470 1743 1744
3 689 588 1150
3 1901 1949 2359
3 1640 632 1862
3 274 272 1787
3 563 564 1752
3 994 817 1505
3 737 1807 1931
3 1770 1147 1771
3 1233 1235 1733
3 2450 1418 2521
3 414 410 1821
3 908 1099 1850
3 1227 1228 1229
3 1692 1203 1693
3 1625 216 2194
3 512 528 603
3 1377 1357 1638
3 1465 1464 1470
3 1360 1359 2177
3 1686 2007 2095
3 1336 1028 1641
3 1857 751 1923
3 1758 572 1759
3 553 541 557
3 1171 1715 1811
3 956 1003 1073
3 1467 1465 1675
3 719 718 724
3 1509 1977 2096
3 1734 1625 1736
3 1503 1504 1868
3 592 597 1776
3 180 181 232
3 162 163 231
3 2308 1759 2370
3 1357 1114 1358
3 875 946 1010
3 509 631 1599
3 17 18 199
3 144 145 200
3 1099 906 1792
3 1469 1467 1494
3 605 589 1939
3 1208 1205 1211
3 354 344 2091
3 692 782 804
3 1010 946 1170
3 1463 1462 1464
3 716 715 718
3 714 713 715
3 271 273 656
3 139 1618 1694
3 549 277 686
3 673 672 766
3 1378 1377 1379
3 2007 868 2095
3 999 1028 1336
3 1208 1211 1447
3 601 545 627
3 1119 1643 1713
3 1332 1333 1387
3 910 912 956
3 520 521 2000
3 828 1789 1819
3 277 607 1520
3 1338 1339 2247
3 818 819 910
3 767 766 814
3 712 711 713
3 1494 1467 1675
3 639 594 640
3 2044 557 2256
3 235 20 1709
3 1620 236 2394
3 804 919 962
3 1862 702 2070
3 681 852 853
3 1559 1556 1561
3 1622 941 2471
3 2165 1440 2330
3 612 644 692
3 697 698 818
3 1903 1516 1994
3 371 379 1795
3 428 426 2138
3 1290 1294 2064
3 1384 1904 2432
3 566 689 1600
3 471 452 472
3 1092 1091 1093
3 1002 1131 1719
3 1090 1089 1091
3 875 841 946
3 1758 1760 1763
3 1562 1606 2085
3 1833 1830 2075
3 178 179 214
3 164 165 213
3 769 923 1815
3 692 644 782
3 804 782 919
3 182 183 256
3 160 161 257
3 1329 1331 1482
3 962 1663 1664
3 1177 1179 2042
3 403 405 1805
3 1461 1460 1462
3 140 208 1618
3 1859 232 1860
3 274 1787 2099
3 1381 2126 2186
3 1558 1560 1789
3 430 428 682
3 452 435 1683
3 1487 1156 1488
3 1470 1464 1743
3 597 1794 1893
3 1244 1253 1669
3 962 919 1663
3 258 8 1673
3 1087 1785 1786
3 970 1042 1726
3 199 1677 2149
3 1664 1663 1665
3 1229 1230 1231
3 991 827 1713
3 792 1603 1848
3 1822 1444 1823
3 665 666 697
3 19 20 235
3 142 143 236
3 728 1098 1833
3 532 530 1898
3 1015 1124 1372
3 1546 1547 1548
3 1851 1850 1853
3 1877 393 2240
3 923 1105 1815
3 1090 1091 1092
3 687 686 703
3 1683 435 1790
3 887 826 1961
3 684 663 1089
3 426 1934 2138
3 464 510 680
3 853 854 855
3 568 572 1758
3 1376 1357 1377
3 1205 1203 1692
3 1607 1789 1855
3 710 709 711
3 780 781 1775
3 1434 1103 1435
3 876 815 877
3 766 672 1656
3 1393 1590 2457
3 684 1089 1090
3 530 890 1898
3 926 1920 1943
3 696 414 1821
3 1563 1562 1777
3 1054 1046 1580
3 1398 1973 1974
3 137 216 1625
3 1210 1040 1430
3 1750 563 1751
3 2010 1665 2299
3 1510 1374 1511
3 1777 1562 2085
3 1707 252 1791
3 1932 1404 1933
3 459 438 1814
3 139 140 1618
3 1093 1156 1487
3 231 163 1658
3 699 722 723
3 1545 1095 2508
3 598 612 1794
3 579 554 1880
3 1941 1908 2401
3 1231 1232 1233
3 1831 1829 1841
3 1037 1383 1799
3 177 178 1506
3 636 600 637
3 1036 1539 2286
3 1356 1114 1357
3 1523 1516 2377
3 704 703 705
3 403 402 405
3 648 792 1848
3 723 756 808
3 1388 1389 2170
3 933 932 1770
3 223 1710 1711
3 1779 399 1783
3 1223 1222 1224
3 1028 1029 1313
3 257 161 1654
3 418 412 421
3 734 882 1807
3 693 657 1095
3 1368 1370 1436
3 136 137 1625
3 688 652 817
3 1075 1327 1328
3 540 479 1813
3 398 395 402
3 548 1629 1630
3 574 591 699
3 1469 1494 1495
3 1041 1598 2175
3 167 168 202
3 175 176 204
3 2045 2046 2201
3 186 187 1602
3 886 887 888
3 1253 1254 1259
3 8 9 1673
3 792 655 810
3 843 1145 1960
3 1180 1349 1745
3 1165 1345 1512
3 708 706 709
3 136 1625 1734
3 21 22 207
3 140 141 208
3 625 626 665
3 1093 1094 1156
3 1585 795 1834
3 1117 1713 1806
3 599 579 600
3 810 871 1826
3 1047 1046 1048
3 1292 1291 1293
3 161 162 1654
3 199 1676 1677
3 1260 1282 1804
3 1005 1142 1768
3 1233 1234 1235
3 792 810 922
3 1122 1719 1737
3 976 985 1720
3 1278 1279 2292
3 2390 1934 2531
3 1436 1437 2350
3 270 271 1647
3 1199 966 1846
3 1683 1342 2212
3 656 273 2124
3 699 591 722
3 1977 1139 2096
3 1738 1719 1881
3 1722 985 1874
3 1797 1448 1798
3 162 231 1654
3 632 604 1862
3 252 1602 1791
3 1051 1050 1052
3 1045 1023 1046
3 648 655 792
3 993 1100 1101
3 1321 1055 1322
3 806 709 1627
3 904 903 981
3 1220 1267 1268
3 648 605 655
3 1737 1719 1738
3 385 399 1779
3 506 499 1828
3 1132 266 1402
3 1170 1418 1419
3 1323 2302 2354
3 24 25 215
3 137 138 216
3 721 965 1919
3 1787 1414 2460
3 778 1117 1806
3 723 722 756
3 407 403 1805
3 564 574 1752
3 1049 1048 1050
3 842 841 875
3 1608 1546 1842
3 809 808 899
3 1517 1519 1520
3 1530 1532 1533
3 889 421 1772
3 913 1002 1122
3 1314 1316 1367
3 1017 877 1684
3 841 802 1778
3 1235 1236 1237
3 751 1857 1900
3 1114 924 1767
3 1344 1644 2360
3 1895 1394 2371
3 1518 1535 1861
3 1758 1759 1760
3 1122 1002 1719
3 546 563 1750
3 1056 1726 1727
3 663 660 1746
3 621 622 625
3 1720 985 1721
3 1857 1843 1900
3 808 756 913
3 1056 970 1726
3 27 28 230
3 134 135 229
3 908 906 1099
3 163 164 1658
3 1727 1726 1729
3 7 8 258
3 154 155 259
3 1101 1403 1404
3 808 913 1874
3 1260 1269 1282
3 1389 1387 2262
3 1297 1053 1822
3 1555 1553 1557
3 1463 1464 1465
3 230 28 1765
3 1237 1238 1239
3 554 553 1880
3 775 778 1806
3 985 899 1874
3 1270 1524 2199
3 489 1820 1936
3 692 1072 1794
3 1472 2142 2272
3 1845 496 1929
3 438 431 1814
3 613 615 1824
3 1241 1242 1245
3 1783 415 1915
3 1192 2081 2149
3 178 214 1506
3 1816 988 1817
3 1760 1759 1761
3 1103 1092 1623
3 1512 1345 1661
3 1876 921 2295
3 1165 984 1345
3 978 1074 1075
3 1239 1240 1241
3 542 541 553
3 813 988 1816
3 1148 984 1165
3 871 970 1056
3 472 452 1683
3 1207 1796 1870
3 1167 1166 1754
3 1296 1053 1297
3 966 964 1846
3 976 899 985
3 982 976 984
3 702 1815 2015
3 900 899 976
3 1143 995 1206
3 1576 1024 1827
3 1235 1248 1733
3 1558 1557 1560
3 943 995 1143
3 1920 1144 1943
3 1471 2115 2477
3 29 30 255
3 132 133 254
3 1630 1633 1634
3 1225 1224 1226
3 1925 1573 1926
3 1211 1205 1692
3 725 825 826
3 1113 924 1114
3 600 579 1988
3 717 1552 1567
3 1820 1657 1936
3 674 276 2099
3 395 393 1877
3 572 543 1897
3 1575 1308 2255
3 999 1000 1028
3 1118 1775 1876
3 1797 1798 2430
3 526 546 559
3 867 853 2186
3 1142 1771 1949
3 1068 1275 1442
3 679 385 1779
3 1607 1558 1789
3 580 568 1758
3 1244 1252 1253
3 1760 1761 1762
3 398 402 403
3 1476 1258 1478
3 418 421 889
3 1771 1147 1839
3 164 213 1658
3 1720 1721 2267
3 1668 1591 2512
3 1042 1128 1445
3 1098 1830 1833
3 1102 1092 1103
3 2249 884 2466
3 1104 1103 1434
3 410 416 1821
3 514 513 541
3 580 1758 1763
3 637 673 1741
3 1913 936 1914
3 1394 1395 2337
3 919 920 999
3 577 554 579
3 2111 1660 2263
3 231 1658 1659
3 612 613 644
3 568 543 572
3 770 775 1806
3 1445 1128 1446
3 1546 1548 1842
3 448 460 478
3 810 870 871
3 1789 1560 1819
3 1154 1082 1431
3 873 973 1802
3 379 385 679
3 837 850 921
3 1461 1462 1463
3 1346 1076 1420
3 1088 1344 1808
3 2125 1143 2353
3 931 977 978
3 882 772 1802
3 29 255 1765
3 849 1513 2180
3 1713 827 1806
3 1130 1396 1397
3 681 638 852
3 1417 1321 1873
3 1654 1402 2530
3 502 526 1740
3 1124 888 2177
3 1266 1460 1461
3 515 1175 1840
3 1253 1264 1669
3 479 466 1813
3 1727 1729 1757
3 379 380 385
3 1971 1480 2514
3 1637 1739 2459
3 1207 1205 1208
3 529 519 1899
3 1129 1845 1929
3 224 1661 2267
3 192 1856 2361
3 732 734 1807
3 1184 2163 2435
3 1119 1120 1353
3 415 414 431
3 719 724 725
3 559 546 1750
3 871 872 970
3 1038 917 1622
3 574 699 1752
3 166 167 1679
3 1117 1118 1119
3 1409 1196 2035
3 617 619 621
3 1172 1173 1439
3 1191 1005 1768
3 664 663 684
3 494 493 1841
3 890 529 1731
3 840 802 841
3 493 974 1841
3 385 386 399
3 679 1779 1780
3 371 376 379
3 416 433 1109
3 670 769 1815
3 902 866 903
3 1780 1779 1781
3 480 515 1840
3 970 971 1042
3 433 448 1714
3 28 29 1765
3 1005 949 1142
3 778 780 1117
3 959 1037 1799
3 1073 1003 1076
3 535 532 1898
3 1119 1118 1120
3 658 657 693
3 1378 1379 1380
3 1397 1396 1809
3 1610 1609 1612
3 1819 1560 2016
3 1837 952 1865
3 1719 1131 1881
3 1131 1399 1400
3 1352 1138 2058
3 399 406 409
3 548 1630 2041
3 1275 1338 2251
3 582 1816 1818
3 1835 1836 2144
3 993 1101 1980
3 1699 1698 1700
3 2407 364 2505
3 1189 1190 1788
3 1117 780 1118
3 1830 1829 1831
3 637 672 673
3 692 804 1072
3 1204 1203 1205
3 1374 1170 2139
3 612 692 1794
3 1642 1408 2286
3 723 808 809
3 450 459 1812
3 409 410 414
3 802 801 1778
3 1853 1854 2483
3 1042 1127 1128
3 1199 1846 2225
3 1147 990 1273
3 1383 1384 2432
3 432 431 438
3 1353 1120 1390
3 1093 1091 1094
3 2020 250 2254
3 148 149 1639
3 606 605 648
3 1970 2016 2422
3 2201 2046 2327
3 475 471 513
3 412 407 1951
3 1991 246 2139
3 727 695 728
3 1673 234 1788
3 1554 1556 1559
3 1089 663 1746
3 1846 964 2056
3 923 991 1088
3 409 406 410
3 729 728 730
3 1424 1427 1856
3 1473 1911 2407
3 1376 1377 1378
3 1010 1374 1510
3 853 852 854
3 366 369 1087
3 772 873 1802
3 1219 1218 1626
3 1766 229 2061
3 1088 991 1344
3 922 810 1826
3 518 506 695
3 405 402 2116
3 962 1664 2316
3 913 942 1002
3 932 990 1147
3 629 813 1816
3 876 877 992
3 399 386 406
3 932 845 990
3 1002 1123 1131
3 843 996 1145
3 781 837 1775
3 262 2304 2491
3 431 696 1814
3 1273 1695 1892
3 731 730 732
3 737 732 1807
3 439 438 450
3 1829 498 1841
3 800 685 801
3 767 814 815
3 1060 766 1656
3 673 766 767
3 1403 1605 1882
3 716 718 719
3 1338 1069 1339
3 847 752 1843
3 864 862 1116
3 2302 443 2519
3 923 827 991
3 526 559 1740
3 1911 1473 2358
3 1085 1310 1867
3 809 899 900
3 1227 1226 1228
3 729 730 731
3 1436 1370 1437
3 731 732 737
3 769 827 923
3 456 452 471
3 1433 1503 2471
3 1435 1103 1623
3 385 380 386
3 1141 1787 2460
3 1354 1088 1808
3 657 649 1848
3 415 431 432
3 484 892 1820
3 727 728 729
3 855 854 1450
3 1721 1722 1723
3 1643 1353 1644
3 1145 1916 1960
3 1421 1191 1422
3 466 1812 1813
3 943 944 995
3 1356 1357 1376
3 714 715 716
3 1156 1094 1157
3 598 611 612
3 631 1600 2298
3 590 589 605
3 965 969 1919
3 416 1109 1821
3 242 1697 2335
3 1548 1547 1549
3 550 573 584
3 584 604 632
3 409 414 415
3 712 713 714
3 642 670 702
3 818 698 819
3 1006 1005 1191
3 1624 1689 1691
3 169 170 237
3 173 174 238
3 956 912 1003
3 937 936 1913
3 1317 1025 1875
3 515 540 550
3 973 1799 1800
3 973 959 1799
3 518 695 727
3 910 819 912
3 584 573 604
3 1170 946 1418
3 173 238 1847
3 550 540 573
3 982 984 1148
3 900 976 982
3 441 435 452
3 448 478 1714
3 1849 1648 2173
3 1631 1628 1637
3 1830 1831 1832
3 1383 1216 1384
3 734 772 882
3 949 933 1770
3 1332 1330 1333
3 574 575 591
3 1105 1088 1354
3 702 670 1815
3 498 494 1841
3 827 770 1806
3 873 959 973
3 1390 1391 1415
3 450 438 459
3 950 949 1005
3 351 362 364
3 1313 1029 1314
3 432 438 439
3 837 838 850
3 1273 1274 1695
3 850 851 943
3 911 952 1837
3 1259 1260 1804
3 566 587 588
3 1037 1216 1383
3 1337 1265 1538
3 1087 369 1795
3 810 655 870
3 1559 1561 1566
3 1147 1273 1839
3 732 733 734
3 1662 867 2126
3 890 1731 2241
3 1854 1852 2397
3 515 479 540
3 451 450 466
3 697 666 698
3 1367 1316 1368
3 662 660 663
3 365 355 694
3 1358 1114 1767
3 379 376 380
3 1796 1448 1797
3 179 180 1859
3 790 668 849
3 569 568 580
3 690 860 931
3 466 450 1812
3 431 414 696
3 1973 1133 1974
3 651 649 657
3 467 466 479
3 1288 1289 1835
3 264 265 1986
3 1302 1303 1304
3 592 596 597
3 1873 1321 2037
3 544 543 568
3 275 277 549
3 209 1937 2389
3 539 565 566
3 1485 227 1486
3 2384 2190 2408
3 1781 1779 1783
3 480 479 515
3 689 1416 2413
3 1108 1161 1539
3 1867 1310 1895
3 1300 1301 1302
3 1695 1696 1697
3 633 632 668
3 1304 1451 1452
3 988 911 1837
3 168 169 1724
3 969 1012 1172
3 582 629 1816
3 1843 752 1900
3 629 812 813
3 710 711 712
3 1782 1780 1784
3 536 535 543
3 1089 1746 1969
3 1108 1107 1161
3 1514 1426 1856
3 486 484 1820
3 369 371 1795
3 1817 988 1924
3 493 609 974
3 1422 1191 2023
3 1426 1424 1856
3 842 875 924
3 922 1826 2259
3 989 1361 1886
3 928 1070 1288
3 669 668 790
3 1113 1114 1356
3 1027 847 1843
3 728 695 1098
3 734 735 772
3 975 1107 1108
3 955 859 1962
3 813 911 988
3 1208 1448 1796
3 1101 1405 1980
3 602 676 2045
3 586 581 589
3 546 547 563
3 493 491 609
3 628 1524 2390
3 348 344 354
3 1298 1299 1300
3 509 538 539
3 974 609 975
3 813 891 911
3 871 870 872
3 1355 1354 1423
3 489 486 1820
3 778 779 780
3 1025 1176 1875
3 772 773 873
3 803 1743 2347
3 167 202 1679
3 873 883 959
3 1483 1571 2375
3 427 1756 2221
3 540 1813 1954
3 1202 1200 1203
3 959 1035 1037
3 837 921 1775
3 1304 1305 1451
3 1799 1383 2195
3 604 642 1862
3 1470 1744 2474
3 1854 2397 2453
3 1282 1269 1386
3 1573 1572 2157
3 472 2222 2290
3 1307 1708 2341
3 769 770 827
3 1037 1215 1216
3 791 790 856
3 1053 1052 1822
3 1056 1727 1728
3 1341 1138 1352
3 1300 1299 1301
3 1814 696 1838
3 1198 1196 1409
3 492 491 493
3 439 450 451
3 1171 858 2132
3 1259 1254 1260
3 665 626 666
3 970 872 971
3 258 1602 2357
3 1296 1297 1472
3 490 489 491
3 516 437 2494
3 1298 1027 1299
3 846 845 932
3 501 508 509
3 460 461 502
3 448 449 460
3 482 480 1840
3 1229 1228 1230
3 604 641 642
3 1424 1423 1427
3 502 503 526
3 1028 1000 1029
3 935 933 949
3 1084 1085 1867
3 2028 1711 2353
3 1513 1426 1514
3 892 482 1840
3 852 638 1988
3 402 395 1877
3 738 737 845
3 413 412 418
3 1119 1353 1643
3 526 527 546
3 280 279 281
3 1731 1155 2123
3 1042 971 1127
3 1208 1447 1448
3 433 434 448
3 262 159 2304
3 184 1454 2303
3 1051 1052 1053
3 1816 1817 1818
3 1081 1417 1444
3 781 836 837
3 911 951 952
3 1090 1092 1102
3 202 168 1724
3 1085 1309 1310
3 408 407 412
3 1337 1538 1864
3 1515 1514 1516
3 530 529 890
3 1517 1518 1519
3 549 686 687
3 923 1088 1105
3 404 403 407
3 1835 1289 1836
3 1314 1367 2121
3 1380 1379 2416
3 670 671 769
3 899 808 1874
3 1040 903 1703
3 1596 1595 2154
3 1496 1495 1497
3 636 637 1741
3 1377 1638 2288
3 1288 1070 1289
3 1072 804 1981
3 1129 1334 1845
3 1865 1084 1866
3 792 922 1603
3 1253 1252 1254
3 981 1167 1792
3 1302 1301 1303
3 1641 1651 2019
3 952 953 1084
3 1813 1812 1869
3 732 730 733
3 975 1106 1107
3 1142 949 1770
3 981 1166 1167
3 840 841 842
3 451 466 467
3 1273 990 1274
3 1049 1050 1051
3 1473 2407 2505
3 968 966 1199
3 642 643 670
3 1310 1309 1311
3 422 419 435
3 1063 833 1082
3 919 782 920
3 911 891 951
3 1084 953 1085
3 1763 1764 2164
3 1498 1497 1682
3 515 550 1175
3 1079 937 1913
3 642 702 1862
3 845 737 1931
3 1394 1311 1395
3 1395 1521 1522
3 467 479 480
3 1755 1754 1793
3 1231 1230 1232
3 1557 1553 2030
3 1624 1691 2262
3 584 632 633
3 1094 1091 1969
3 708 709 710
3 1948 1627 2488
3 952 951 953
3 1102 1103 1104
3 1047 1048 1049
3 1310 1311 1394
3 1852 1099 1985
3 143 144 1717
3 813 812 891
3 1944 1044 1945
3 1105 1354 1355
3 1300 1302 1455
3 1914 936 1940
3 1415 1391 1710
3 1299 1027 1843
3 952 1084 1865
3 1695 1274 1696
3 776 774 1928
3 282 281 283
3 2003 1347 2279
3 1206 995 1499
3 1164 1685 1686
3 1551 1565 2030
3 969 1172 1919
3 633 668 669
3 734 733 735
3 1373 1372 1438
3 599 600 636
3 1431 1860 2487
3 1579 1577 1999
3 484 482 892
3 917 940 941
3 2144 1836 2169
3 1866 1084 1867
3 1110 1747 1748
3 998 1171 1811
3 1390 1120 1391
3 644 1824 2057
3 1362 1961 2048
3 944 1283 1825
3 1086 1027 1298
3 679 1780 1782
3 974 975 1879
3 507 506 518
3 1121 1079 1401
3 775 777 778
3 1965 762 2349
3 1045 1046 1047
3 1772 421 2106
3 16 17 2081
3 416 417 433
3 921 850 2125
3 1607 1855 1958
3 649 648 1848
3 1241 1240 1242
3 2012 1443 2251
3 926 928 1920
3 1487 1488 2025
3 1006 1191 1421
3 1355 1423 1424
3 1133 852 1988
3 591 592 1776
3 1299 1843 1857
3 1085 1308 1309
3 490 491 492
3 958 694 1575
3 1384 1216 1385
3 741 915 1878
3 1233 1232 1234
3 669 790 791
3 481 480 482
3 687 703 704
3 492 493 494
3 1634 1633 1922
3 1697 1696 1698
3 1721 985 1722
3 1839 1273 1892
3 772 735 773
3 488 486 489
3 950 1005 1006
3 1513 1514 1515
3 454 500 501
3 873 773 883
3 284 283 285
3 2185 1505 2442
3 959 883 1035
3 543 535 1897
3 1904 1384 2093
3 800 801 802
3 1037 1035 1215
3 1293 1964 1965
3 1239 1238 1240
3 943 1143 2125
3 1782 1784 1785
3 913 756 942
3 488 490 1884
3 1590 1749 2501
3 1235 1234 1236
3 791 856 1408
3 702 2015 2070
3 1108 1539 1540
3 1021 1023 1045
3 695 506 1828
3 1530 1528 1532
3 488 489 490
3 1621 1619 2161
3 704 705 706
3 1304 1303 1305
3 558 1704 2167
3 625 622 626
3 542 553 554
3 604 573 641
3 664 684 685
3 564 571 574
3 1108 1540 1879
3 1856 1427 2361
3 880 1025 1129
3 1395 1311 1521
3 1466 1465 1467
3 915 495 1884
3 1515 1516 1523
3 1237 1236 1238
3 606 648 649
3 999 920 1000
3 676 829 1043
3 2100 794 2142
3 227 151 1500
3 577 579 599
3 153 154 1671
3 1175 550 1927
3 1014 888 1015
3 286 285 287
3 1649 1280 2427
3 1725 204 2137
3 975 609 1106
3 1129 1317 1334
3 1109 1730 2426
3 1468 1467 1469
3 1131 1123 1399
3 1215 2235 2378
3 1976 1149 1989
3 397 395 398
3 746 743 1878
3 1041 1343 1598
3 975 1108 1879
3 741 495 915
3 1167 1754 1755
3 288 287 289
3 743 741 1878
3 1274 990 1931
3 1506 214 1507
3 857 1584 2277
3 2341 1522 2387
3 846 932 933
3 1107 1106 1110
3 584 633 1927
3 290 289 291
3 722 591 1776
3 1544 1094 1969
3 1135 270 1647
3 935 949 950
3 1920 1288 2080
3 754 1896 2108
3 1693 1199 2225
3 292 291 293
3 394 393 395
3 745 743 746
3 1002 942 1123
3 731 737 738
3 294 293 295
3 1018 1573 1925
3 296 295 297
3 298 297 299
3 321 322 325
3 317 320 321
3 314 315 317
3 312 313 314
3 310 311 312
3 308 309 310
3 1898 890 2275
3 306 307 308
3 304 305 306
3 1401 1079 1913
3 300 299 301
3 302 303 304
3 300 301 302
3 302 301 303
3 491 489 1936
3 298 299 300
3 304 303 305
3 306 305 307
3 308 307 309
3 310 309 311
3 312 311 313
3 314 313 315
3 317 315 320
3 321 320 322
3 1301 1299 1857
3 514 541 542
3 296 297 298
3 850 838 851
3 1310 1394 1895
3 294 295 296
3 590 605 606
3 292 293 294
3 651 657 658
3 290 291 292
3 1207 1208 1796
3 835 1976 1989
3 621 619 622
3 746 1878 1896
3 481 482 483
3 1026 847 1027
3 1335 1207 1870
3 1661 59 2266
3 727 729 1155
3 288 289 290
3 1058 776 1928
3 662 663 664
3 495 488 1884
3 1959 319 2522
3 943 851 944
3 1293 1291 1964
3 534 532 535
3 640 645 646
3 2280 1014 2385
3 286 287 288
3 591 575 592
3 521 519 529
3 13 14 2114
3 780 779 781
3 918 908 1850
3 837 836 838
3 209 148 1639
3 754 748 1896
3 745 746 747
3 769 671 770
3 929 1065 2197
3 1278 1058 1279
3 483 482 484
3 1564 1557 2030
3 633 807 1927
3 392 391 393
3 1057 1621 2161
3 569 580 581
3 284 285 286
3 876 992 1894
3 497 494 498
3 1630 1635 2041
3 982 1148 1918
3 612 611 613
3 700 634 1044
3 822 674 2099
3 880 1129 1929
3 432 439 654
3 1039 1291 1292
3 1164 1686 1989
3 1129 1025 1317
3 738 845 846
3 582 583 629
3 278 6 279
3 544 568 569
3 1701 1274 1931
3 747 749 751
3 1085 953 1308
3 928 930 1070
3 747 748 749
3 1421 1422 2415
3 902 903 904
3 1309 1308 1543
3 642 641 643
3 904 981 1792
3 646 784 785
3 536 543 544
3 1204 1205 1207
3 365 694 958
3 71 72 217
3 88 89 1901
3 87 88 193
3 101 102 189
3 85 86 242
3 99 100 241
3 74 75 192
3 91 92 219
3 94 95 191
3 83 84 220
3 97 98 221
3 77 78 218
3 80 81 194
3 89 90 245
3 62 63 244
3 60 61 188
3 64 65 223
3 67 68 190
3 90 91 1909
3 98 99 1905
3 61 62 1908
3 69 70 243
3 68 69 1907
3 70 71 1910
3 410 411 416
3 586 589 590
3 685 684 2029
3 390 389 391
3 1715 1150 1811
3 1924 1837 2215
3 282 283 284
3 496 497 1929
3 233 1671 1769
3 627 2185 2442
3 1567 1552 2062
3 629 630 812
3 424 453 454
3 583 562 1942
3 749 750 805
3 744 743 745
3 1897 535 1898
3 467 480 481
3 504 759 880
3 670 643 671
3 89 245 1901
3 193 88 1901
3 221 98 1905
3 245 90 1909
3 91 219 1909
3 62 244 1908
3 188 61 1908
3 99 241 1905
3 190 68 1907
3 71 217 1910
3 69 243 1907
3 243 70 1910
3 505 499 506
3 475 513 514
3 1945 1044 2071
3 1712 2125 2353
3 339 343 440
3 989 1360 1361
3 764 869 1152
3 778 777 779
3 1686 1685 1687
3 742 741 743
3 979 989 1886
3 729 731 1887
3 926 927 928
3 1305 1306 1307
3 1838 1278 2292
3 747 746 748
3 181 182 1652
3 1886 1361 2305
3 1595 1594 2486
3 597 596 598
3 928 1288 1920
3 1970 824 2156
3 1425 1424 1426
3 497 504 1929
3 748 746 1896
3 745 747 1900
3 998 858 1171
3 563 547 564
3 1155 729 1887
3 634 583 1942
3 1439 1173 1440
3 1026 1027 1086
3 79 80 1904
3 1533 1532 1536
3 1449 1426 1513
3 1106 609 1936
3 1318 1013 1319
3 1098 695 1828
3 492 494 496
3 750 748 754
3 731 738 1887
3 2415 1422 2516
3 533 562 582
3 988 1837 1924
3 1216 1215 1863
3 534 535 536
3 747 751 1900
3 1753 809 2119
3 1183 824 1970
3 740 495 741
3 80 194 1904
3 893 383 2087
3 655 605 1939
3 1884 2034 2082
3 1301 1857 1923
3 1307 1306 1708
3 752 745 1900
3 750 754 755
3 76 77 1903
3 2090 2347 2365
3 255 30 2159
3 132 254 2160
3 448 434 449
3 753 848 926
3 1075 1074 1327
3 487 488 495
3 377 381 647
3 483 484 485
3 755 754 2148
3 1584 1925 2277
3 1186 1183 1970
3 951 891 1281
3 485 484 486
3 546 527 547
3 133 134 1766
3 1786 1785 2409
3 280 281 282
3 460 449 461
3 744 745 752
3 77 218 1903
3 983 1918 2342
3 1708 1306 1810
3 1389 2069 2170
3 487 486 488
3 641 573 1954
3 507 518 519
3 502 461 503
3 519 518 1899
3 1202 1203 1204
3 821 897 1972
3 92 93 1902
3 521 529 530
3 749 748 750
3 2176 1380 2416
3 885 826 886
3 485 486 487
3 371 372 376
3 1289 1070 1871
3 1110 1657 1747
3 753 926 1943
3 700 1044 1944
3 880 881 1025
3 496 1845 2034
3 1072 1981 2393
3 462 464 2134
3 1949 1771 2359
3 1044 634 1942
3 550 584 1927
3 1390 1415 2118
3 526 503 527
3 990 845 1931
3 1009 1213 1214
3 740 742 1144
3 219 92 1902
3 727 1155 1899
3 369 370 371
3 623 690 2150
3 1279 1058 1928
3 1408 2235 2286
3 487 495 740
3 979 1886 2086
3 1305 1303 1306
3 421 412 1951
3 843 844 996
3 633 669 807
3 518 727 1899
3 826 825 1961
3 1657 1106 1936
3 1172 1012 1173
3 740 741 742
3 433 417 434
3 505 506 507
3 1333 1674 2437
3 742 743 744
3 469 458 470
3 1381 1380 1382
3 1293 1965 2515
3 1554 1559 2062
3 553 557 2499
3 1774 389 2339
3 497 498 499
3 483 485 576
3 740 1144 1935
3 773 735 834
3 366 367 369
3 1120 1118 1876
3 1515 1523 1574
3 1319 1013 2039
3 1303 1301 1923
3 457 447 458
3 561 593 594
3 1355 1424 1425
3 609 491 1936
3 204 1732 2137
3 791 1408 1642
3 995 944 1825
3 456 471 475
3 1692 1693 2239
3 580 1763 2164
3 1292 1293 2117
3 441 452 456
3 388 384 389
3 823 821 1972
3 504 880 1929
3 176 177 1680
3 1070 1071 1871
3 15 2260 2477
3 362 363 366
3 2178 2300 2449
3 1035 883 1036
3 2285 1563 2307
3 978 977 1074
3 1090 1102 2029
3 1810 1306 1923
3 496 494 497
3 1306 1303 1923
3 432 654 1915
3 934 933 935
3 356 355 365
3 398 403 404
3 635 701 843
3 1110 1106 1657
3 574 571 575
3 1025 881 1176
3 386 380 786
3 415 432 1915
3 343 347 1911
3 1070 930 1071
3 1688 1740 2231
3 1385 1216 1863
3 1696 1274 1701
3 1645 305 2317
3 880 759 881
3 926 848 927
3 1427 1423 2217
3 1339 1662 2388
3 770 774 775
3 1263 1257 1428
3 1337 1864 2412
3 349 348 355
3 2267 1721 2498
3 753 752 847
3 1375 1086 1473
3 900 982 983
3 332 335 739
3 429 428 430
3 744 752 753
3 1171 2132 2165
3 1425 1426 1449
3 987 641 1954
3 1883 1786 2409
3 427 426 428
3 928 927 930
3 1815 1105 2015
3 1206 1499 1941
3 410 406 411
3 573 540 1954
3 497 499 504
3 528 560 561
3 1933 1404 2399
3 1091 1089 1969
3 1804 1282 2073
3 504 505 759
3 963 924 1113
3 1711 1710 1712
3 881 759 1146
3 968 1199 1200
3 351 352 362
3 848 847 1026
3 521 530 531
3 1884 490 2034
3 1277 957 1966
3 1349 1350 2329
3 676 1043 2045
3 997 1159 1286
3 517 1889 1890
3 781 835 836
3 944 948 1283
3 722 1776 2026
3 507 519 520
3 2040 1352 2058
3 1276 957 1277
3 446 437 447
3 931 860 977
3 361 359 765
3 1248 1536 2534
3 512 523 528
3 408 412 413
3 1368 1369 1370
3 451 2169 2223
3 192 75 1994
3 942 756 2026
3 345 344 348
3 764 1152 1963
3 413 418 419
3 1286 1773 1774
3 770 671 774
3 275 549 2124
3 1497 1645 2461
3 1982 1472 2272
3 422 435 441
3 281 279 736
3 1134 270 1135
3 582 562 583
3 1421 2415 2454
3 485 487 1935
3 2300 1067 2480
3 1578 1576 1827
3 930 927 1061
3 1026 1086 1375
3 922 2259 2379
3 1391 1120 1876
3 1495 1494 2493
3 404 407 408
3 879 2178 2449
3 1700 1698 2036
3 607 1517 1520
3 753 847 848
3 416 411 417
3 1144 742 1943
3 775 776 777
3 754 2108 2148
3 1006 1421 1953
3 585 581 586
3 531 530 532
3 235 1709 1888
3 520 519 521
3 1180 1181 1349
3 1146 759 1967
3 708 710 1921
3 1350 2253 2329
3 436 430 437
3 504 499 505
3 643 641 987
3 336 330 517
3 811 1059 1149
3 1164 1411 1685
3 846 933 934
3 635 843 1960
3 983 982 1918
3 971 872 1096
3 1149 1163 1164
3 169 237 1724
3 1314 1315 1316
3 629 583 630
3 891 812 1916
3 462 463 464
3 487 740 1935
3 798 2084 2189
3 1814 1838 2292
3 1284 1489 1491
3 340 336 2014
3 1670 1461 2200
3 920 782 2057
3 890 2241 2275
3 510 511 512
3 278 279 280
3 839 802 840
3 1858 235 1888
3 1698 1696 2036
3 104 105 222
3 57 58 224
3 1185 1183 1186
3 588 587 623
3 638 600 1988
3 1282 1386 2245
3 811 776 1058
3 816 815 876
3 2034 1845 2082
3 761 636 1741
3 566 565 587
3 174 175 1725
3 347 350 351
3 1469 1495 1496
3 1059 1058 1278
3 811 1149 1976
3 576 485 1935
3 659 658 660
3 859 1153 1962
3 76 1903 1994
3 1821 1109 2426
3 1294 1038 1622
3 733 1833 2075
3 992 993 1980
3 1566 1561 2285
3 525 474 2041
3 464 465 510
3 343 346 347
3 360 893 1982
3 650 649 651
3 896 608 936
3 950 1006 1007
3 1508 1859 1860
3 539 538 565
3 440 343 1911
3 341 340 344
3 221 1905 1906
3 1297 1823 2142
3 759 505 1967
3 1295 1053 1296
3 473 470 474
3 1463 1465 1466
3 1143 1206 2028
3 799 685 800
3 1210 2077 2203
3 509 508 538
3 492 496 2034
3 1553 1551 2030
3 1260 1261 1269
3 1430 1040 1703
3 586 590 1940
3 838 836 868
3 1705 624 2276
3 1749 972 2501
3 742 744 1943
3 804 962 1981
3 1367 1368 2254
3 531 532 533
3 337 336 340
3 1157 1094 1544
3 536 544 1158
3 812 630 1960
3 781 779 835
3 56 57 1947
3 630 583 634
3 1405 1404 1932
3 1281 891 1916
3 339 342 343
3 1411 1163 1730
3 322 323 324
3 344 340 2091
3 1735 1734 1736
3 75 76 1994
3 430 682 2494
3 1907 243 2360
3 589 581 2164
3 694 355 2196
3 744 753 1943
3 775 774 776
3 1210 1430 2077
3 335 338 339
3 1102 1803 2029
3 1078 937 1079
3 870 655 1939
3 505 507 1967
3 357 360 1982
3 1896 1878 2101
3 326 325 328
3 934 935 957
3 585 608 895
3 333 330 336
3 1270 1272 1524
3 688 817 878
3 507 520 1967
3 1428 1257 2074
3 1818 1817 2000
3 896 937 1077
3 934 957 1111
3 329 328 330
3 1499 995 1825
3 944 851 948
3 387 445 462
3 1678 1161 2228
3 777 776 811
3 313 311 757
3 324 331 332
3 848 1026 1955
3 1312 998 1811
3 1321 1322 2037
3 1080 1079 1121
3 1105 1355 2015
3 1645 2317 2461
3 1559 1568 2062
3 332 334 335
3 501 500 508
3 321 325 326
3 394 395 397
3 322 320 323
3 1529 1530 2171
3 1137 797 1138
3 811 1058 1059
3 661 660 662
3 569 581 585
3 183 4 2303
3 5 160 2304
3 1340 1138 1341
3 1660 1626 2185
3 1743 1464 2347
3 1026 1375 1955
3 1149 1059 1163
3 1736 1625 2194
3 1322 1667 2434
3 311 309 1959
3 309 307 319
3 894 700 1944
3 533 534 562
3 1276 1277 1366
3 2190 1706 2408
3 533 532 534
3 1214 1213 1410
3 1164 1163 1411
3 843 701 844
3 1009 1214 2055
3 234 1589 1788
3 2000 1817 2174
3 317 321 2050
3 328 325 945
3 392 393 394
3 588 623 2089
3 1162 958 1681
3 1078 1080 1136
3 927 848 1955
3 1496 1497 1498
3 390 391 392
3 1061 927 1955
3 1283 948 1284
3 635 634 700
3 1244 1251 1252
3 218 78 2093
3 756 722 2026
3 1071 1784 2419
3 1218 1505 2185
3 1284 948 1285
3 1489 1285 1490
3 918 1850 1851
3 684 1090 2029
3 1759 572 2537
3 1691 1690 2446
3 1979 1158 2071
3 606 649 650
3 2045 1043 2046
3 103 104 2025
3 630 634 635
3 360 383 893
3 406 386 2043
3 1909 219 2023
3 1111 957 1276
3 1925 1437 2277
3 1536 2268 2340
3 854 852 1133
3 233 153 1671
3 651 658 659
3 2099 1787 2368
3 1033 1032 1130
3 1015 1372 1373
3 1412 942 2026
3 253 264 1441
3 1531 1534 2332
3 701 700 894
3 106 107 1990
3 2048 1961 2455
3 276 274 2099
3 738 846 1968
3 1325 925 1326
3 896 936 937
3 585 586 608
3 1450 854 1973
3 1361 1360 1362
3 1045 1668 2512
3 303 301 444
3 996 844 997
3 79 1904 2093
3 1989 1686 2095
3 1928 774 2033
3 1942 562 1979
3 287 285 316
3 935 950 1966
3 1466 1467 1468
3 1242 1243 1244
3 1887 738 1968
3 2115 210 2477
3 878 929 1083
3 1326 1736 2194
3 886 888 1014
3 895 608 896
3 289 287 1978
3 821 822 897
3 936 608 1940
3 613 614 615
3 51 52 1996
3 417 411 1160
3 1149 1164 1989
3 386 786 2043
3 285 283 1971
3 1309 1543 2147
3 375 373 2053
3 371 370 372
3 779 777 1976
3 1286 1159 1773
3 2177 887 2376
3 1560 1557 1564
3 1403 1882 2399
3 1727 1757 2246
3 279 6 2049
3 1619 1438 2438
3 291 289 758
3 1781 1915 2294
3 425 401 426
3 349 355 356
3 66 67 2118
3 474 548 2041
3 1686 1687 2007
3 1262 1456 1457
3 1123 942 1412
3 1916 812 1960
3 1355 1425 2015
3 735 733 2075
3 1861 879 2449
3 1284 1285 1489
3 490 492 2034
3 366 363 367
3 980 578 2051
3 906 904 1792
3 534 536 1979
3 842 924 963
3 2051 578 2083
3 1077 937 1078
3 1102 1104 1803
3 894 1944 1946
3 398 404 2060
3 1007 1006 1953
3 369 367 370
3 348 354 2196
3 1078 1079 1080
3 1378 1380 1381
3 1568 1365 2439
3 608 586 1940
3 598 610 611
3 760 636 761
3 869 1137 1351
3 671 643 2033
3 1661 1345 2267
3 938 914 1057
3 783 761 914
3 576 1835 2144
3 388 389 390
3 297 295 318
3 454 453 500
3 1906 1728 2246
3 1439 1440 2468
3 1159 1013 1318
3 764 797 869
3 236 143 1717
3 782 644 2057
3 592 595 596
3 1542 2332 2443
3 1521 1311 2147
3 345 348 349
3 1304 1452 2205
3 1644 1907 2360
3 2146 1125 2149
3 997 844 1013
3 628 375 2053
3 299 297 1984
3 957 935 1966
3 664 685 799
3 301 299 1975
3 362 352 363
3 777 811 1976
3 1942 1979 2071
3 1001 920 2057
3 312 314 768
3 1552 1554 2062
3 615 616 617
3 357 1982 2076
3 800 802 839
3 774 671 2033
3 1749 1169 2105
3 365 958 1162
3 617 618 619
3 283 281 1938
3 1351 1772 2414
3 1525 1765 2489
3 846 934 1968
3 635 700 701
3 555 554 577
3 536 1158 1979
3 1101 1404 1405
3 630 635 1960
3 1811 1150 2089
3 2113 1666 2249
3 172 173 1847
3 107 108 195
3 54 55 196
3 1191 1768 2023
3 1455 1302 2205
3 115 116 2017
3 1387 1333 2437
3 659 661 764
3 1080 1121 1188
3 50 51 2011
3 411 406 2043
3 295 293 1983
3 643 987 2033
3 707 706 708
3 129 130 261
3 32 33 260
3 2159 260 2265
3 449 434 567
3 1314 1029 1315
3 917 796 940
3 378 375 628
3 108 109 1991
3 2370 1759 2537
3 341 344 345
3 997 1013 1159
3 544 569 1993
3 950 1007 1966
3 477 474 525
3 351 350 352
3 1696 1701 2036
3 334 331 803
3 1137 1138 1340
3 562 534 1979
3 109 110 246
3 52 53 247
3 1368 1316 1369
3 659 660 661
3 33 34 2002
3 123 124 2005
3 835 779 1976
3 851 838 1992
3 1530 1533 2172
3 1668 1045 2348
3 1162 1681 1706
3 342 338 468
3 298 300 358
3 765 359 2065
3 725 826 885
3 35 36 2003
3 46 47 2019
3 38 39 2006
3 336 517 2014
3 934 1111 1968
3 116 117 2018
3 650 651 1963
3 223 1711 2162
3 640 594 645
3 1333 1330 2192
3 104 222 2025
3 1603 922 2379
3 963 1113 1115
3 2084 1193 2189
3 564 570 571
3 36 37 2004
3 57 224 1947
3 1542 1601 2269
3 122 123 2012
3 1000 920 1001
3 127 128 240
3 34 35 239
3 383 387 2087
3 1161 1107 2228
3 1781 2294 2419
3 1201 1200 1202
3 124 125 225
3 37 38 226
3 1340 1341 1342
3 869 797 1137
3 839 840 1008
3 1158 544 1993
3 1326 925 1894
3 352 350 353
3 326 329 954
3 1864 2344 2412
3 836 835 2095
3 1051 1053 1295
3 1031 720 1032
3 503 461 787
3 1407 1112 2044
3 661 662 2058
3 838 868 1992
3 112 113 197
3 49 50 198
3 1359 980 1413
3 121 122 211
3 40 41 212
3 48 49 2010
3 113 114 2009
3 1741 673 2131
3 41 42 2020
3 120 121 2013
3 1409 2035 2097
3 1511 1374 2506
3 114 115 248
3 47 48 249
3 42 43 250
3 119 120 251
3 171 6 201
3 6 172 203
3 585 895 1993
3 43 44 2024
3 118 119 2021
3 905 904 906
3 764 661 797
3 337 340 341
3 1413 980 2051
3 117 118 205
3 44 45 206
3 347 346 350
3 1420 1076 1525
3 324 323 331
3 434 417 2031
3 965 967 969
3 716 719 788
3 1260 1254 1261
3 2053 373 2103
3 2069 2068 2170
3 326 328 329
3 1706 996 2408
3 273 275 2124
3 969 1011 1012
3 590 606 2001
3 1718 1611 2280
3 1914 1940 2001
3 915 1884 2082
3 329 330 333
3 620 859 955
3 2168 1409 2305
3 296 298 1997
3 915 2082 2101
3 339 338 342
3 1218 994 1505
3 333 336 337
3 266 263 1742
3 1873 768 2127
3 244 63 2162
3 64 223 2162
3 343 342 346
3 914 761 2258
3 310 312 1987
3 799 800 2055
3 302 304 763
3 1559 1566 1568
3 1598 1343 2114
3 592 575 595
3 341 345 794
3 189 1842 2220
3 767 815 816
3 1003 912 1004
3 839 1008 1009
3 1263 1428 1429
3 564 547 570
3 1845 1334 2082
3 332 331 334
3 901 866 902
3 651 659 1963
3 1009 1112 1213
3 335 334 338
3 569 585 1993
3 1665 1336 2299
3 1945 2071 2153
3 863 862 864
3 907 906 908
3 1849 1486 1930
3 1935 1144 2080
3 967 966 968
3 809 900 2119
3 865 864 866
3 835 1989 2095
3 190 1907 2417
3 333 337 522
3 1110 1748 2228
3 1193 1194 1195
3 94 191 2166
3 473 1854 2453
3 1769 1134 2369
3 948 851 1992
3 237 170 2216
3 420 419 422
3 1448 1447 2364
3 483 576 2144
3 721 1919 2032
3 885 886 1891
3 613 611 614
3 886 1014 1891
3 1160 411 2043
3 1918 1283 2342
3 1651 206 2485
3 1242 1240 1243
3 598 596 610
3 1295 1296 1459
3 1185 1186 1948
3 1425 1449 2070
3 294 296 762
3 1285 948 1992
3 925 876 1894
3 712 714 789
3 603 1668 2398
3 1940 590 2001
3 721 570 964
3 834 735 2075
3 1144 1920 2080
3 2263 1635 2511
3 1204 1207 1335
3 2235 1408 2378
3 965 964 966
3 1990 1435 2218
3 397 398 2060
3 1138 797 2058
3 1787 1141 2368
3 2068 820 2170
3 360 359 361
3 387 462 2087
3 1524 1272 1934
3 819 698 820
3 1197 1196 1198
3 1662 2126 2388
3 78 79 2093
3 1150 588 2089
3 1269 1261 1270
3 1878 915 2101
3 451 467 2169
3 2262 1387 2437
3 1009 1008 1112
3 757 311 1959
3 897 898 1139
3 1854 473 2483
3 2015 1425 2070
3 2082 1334 2101
3 963 1115 1174
3 1047 1049 1287
3 1194 423 1196
3 321 326 2050
3 417 1160 2031
3 854 1133 1973
3 1201 1212 1348
3 705 1586 2163
3 309 319 1959
3 1353 1390 2417
3 427 428 429
3 357 356 359
3 606 650 2001
3 549 1280 2124
3 1213 1112 1407
3 256 2303 2535
3 356 365 2065
3 662 664 2040
3 701 894 2039
3 1325 1371 2451
3 666 626 667
3 1902 93 2166
3 1236 1234 1246
3 800 839 2055
3 1869 1812 2252
3 1197 1364 1365
3 576 1935 2080
3 404 408 798
3 1678 807 2529
3 1560 1564 2016
3 1319 2039 2122
3 425 426 427
3 349 356 357
3 308 310 327
3 1716 622 2484
3 1801 82 2289
3 1768 1949 2420
3 2006 1926 2507
3 351 364 2407
3 420 423 1193
3 659 764 1963
3 292 294 2038
3 840 842 2027
3 736 279 2049
3 372 373 374
3 461 449 2052
3 2189 1195 2285
3 1174 1115 1398
3 367 363 961
3 909 908 918
3 1738 247 2402
3 1007 1761 2308
3 288 290 2135
3 422 441 2035
3 623 624 690
3 537 525 545
3 1953 1421 2454
3 1887 1968 2123
3 861 691 862
3 654 439 2223
3 1136 1080 2054
3 1312 1811 2089
3 575 571 2032
3 383 361 384
3 968 1200 1201
3 797 661 2058
3 1423 1354 2381
3 1180 1178 1181
3 1513 1515 2180
3 72 73 2217
3 462 445 463
3 12 13 2136
3 457 458 469
3 542 554 555
3 599 636 760
3 254 133 1766
3 1130 1397 1937
3 404 798 2060
3 1044 1942 2071
3 690 691 860
3 357 359 360
3 1008 2027 2152
3 1232 1230 1255
3 372 370 373
3 850 943 2125
3 1457 1456 1492
3 1952 324 2282
3 155 2 2356
3 0 7 2357
3 2017 1379 2288
3 918 1851 2008
3 195 1991 2517
3 2090 803 2347
3 1244 1243 1251
3 290 292 368
3 1432 1082 2214
3 1008 840 2027
3 1743 803 2296
3 1013 844 2039
3 365 1162 2065
3 1594 1315 2184
3 387 384 388
3 1508 1860 2311
3 547 527 2056
3 2005 225 2322
3 314 317 2127
3 1853 556 2327
3 201 6 278
3 1907 1644 2417
3 1896 2101 2108
3 646 645 784
3 538 508 558
3 374 375 377
3 1630 1634 1635
3 1579 1999 2352
3 1647 1648 1849
3 1313 1314 2121
3 1179 1433 2042
3 844 701 2039
3 1252 1251 2098
3 816 876 925
3 1922 1228 2281
3 392 394 396
3 1915 654 2294
3 1652 1653 2487
3 429 430 436
3 456 475 476
3 1605 1392 2510
3 126 1882 2284
3 1784 1780 2419
3 500 453 960
3 377 378 381
3 2178 1587 2300
3 1222 1219 1626
3 413 419 420
3 381 382 400
3 2169 1836 2223
3 1906 1905 2129
3 616 614 793
3 1170 1419 2139
3 101 189 2220
3 241 100 2220
3 1968 1111 2123
3 567 434 2031
3 615 614 616
3 1032 720 1921
3 682 428 2138
3 469 470 473
3 339 440 2261
3 1501 238 2226
3 1154 1431 1653
3 446 447 457
3 1251 1243 1257
3 2229 315 2495
3 1201 1202 1212
3 785 784 879
3 464 463 465
3 66 2118 2395
3 324 332 2282
3 286 288 771
3 17 199 2081
3 571 570 721
3 611 610 2092
3 617 616 618
3 1542 1531 2332
3 400 401 424
3 1325 1326 1371
3 1140 1406 1702
3 1323 443 2302
3 1926 1573 2507
3 436 437 446
3 1262 1457 2098
3 67 190 2118
3 1518 1861 2449
3 989 1359 1360
3 1063 1082 1154
3 1757 96 2526
3 969 967 1011
3 868 836 2095
3 1215 1035 2235
3 96 1757 2309
3 261 2160 2380
3 1381 1382 2126
3 1468 1469 2182
3 1334 1317 2108
3 861 863 1064
3 1270 1261 1271
3 360 361 383
3 287 316 1978
3 1856 192 2367
3 1905 241 2129
3 1615 1809 2425
3 528 523 560
3 979 980 989
3 662 2040 2058
3 721 964 965
3 170 171 2216
3 664 799 2040
3 512 511 523
3 1201 1348 2107
3 620 618 858
3 758 289 1978
3 859 858 998
3 424 425 453
3 1616 1615 2193
3 444 301 1975
3 561 560 593
3 965 966 967
3 1798 376 2430
3 340 2014 2091
3 510 465 511
3 107 195 1990
3 1080 1188 2054
3 1153 998 1312
3 1226 1224 1249
3 1012 1011 1363
3 902 904 905
3 842 963 2027
3 268 270 1134
3 865 901 1125
3 2077 558 2102
3 282 284 442
3 1977 1679 2253
3 1496 1498 2047
3 284 286 2063
3 281 736 1938
3 2132 793 2165
3 1674 215 2437
3 2078 1855 2411
3 839 1009 2055
3 1182 824 1183
3 1168 947 1169
3 1289 1871 2242
3 316 285 1971
3 1270 1271 1272
3 1755 1793 2264
3 51 1996 2011
3 383 384 387
3 1146 1924 2215
3 1279 1928 2202
3 619 618 620
3 1194 1196 1197
3 555 578 979
3 1937 1639 2528
3 1262 1257 1263
3 389 384 2339
3 2251 1338 2464
3 1155 1887 2123
3 1151 1937 2528
3 465 463 828
3 1318 1319 2116
3 1687 1688 2231
3 326 954 2050
3 297 318 1984
3 1308 953 2255
3 1846 2056 2198
3 320 315 2229
3 1254 1252 2059
3 760 761 783
3 951 1281 2255
3 1459 1296 2094
3 2288 1638 2470
3 1975 299 1984
3 52 247 1996
3 468 338 2090
3 2140 1511 2506
3 1125 1126 1192
3 593 824 1182
3 720 708 1921
3 704 706 707
3 623 587 624
3 2044 1112 2152
3 1393 1169 1749
3 900 983 2119
3 783 914 938
3 255 2265 2489
3 2039 894 2122
3 317 2050 2127
3 1866 1867 2513
3 374 373 375
3 429 436 455
3 387 388 445
3 1193 423 1194
3 555 577 578
3 1074 977 1187
3 449 567 2052
3 1197 1198 1364
3 2154 1595 2486
3 1486 1849 2173
3 318 295 1983
3 939 1016 1844
3 131 132 2160
3 30 31 2159
3 881 1146 2215
3 1294 1868 2238
3 1300 1455 2314
3 1365 1364 1912
3 783 938 939
3 2061 1735 2441
3 551 545 601
3 2194 216 2536
3 1251 1257 1262
3 888 887 2177
3 1364 1198 2048
3 1498 1682 2340
3 1589 1590 2501
3 60 188 2266
3 1401 1913 2324
3 195 108 1991
3 420 422 423
3 1675 1470 2474
3 258 1673 2183
3 2161 1619 2438
3 1296 1472 2094
3 1808 1910 2381
3 334 803 2090
3 1490 1285 2232
3 523 511 524
3 1240 1238 2074
3 1184 1183 1185
3 39 40 2151
3 473 474 477
3 1461 1463 2200
3 2072 353 2073
3 861 862 863
3 1206 1941 2401
3 958 1575 2287
3 614 611 2092
3 110 111 2140
3 1136 2054 2110
3 645 594 2133
3 260 33 2002
3 673 767 2131
3 989 980 1359
3 1741 2131 2258
3 1317 1875 2148
3 894 1946 2122
3 863 864 865
3 787 461 2052
3 857 2277 2386
3 109 246 1991
3 2017 116 2018
3 1182 1183 1184
3 377 375 378
3 816 925 1324
3 865 866 901
3 1262 1263 1456
3 359 356 2065
3 2129 241 2472
3 283 1938 1971
3 1458 1210 2203
3 1076 1003 2145
3 196 1738 2402
3 1033 1130 1151
3 1188 1121 2106
3 1140 1702 2096
3 549 687 1280
3 1694 1621 2191
3 861 1064 2112
3 1548 1549 2129
3 1784 1071 2462
3 714 716 2066
3 1961 825 2455
3 1447 1211 2250
3 979 578 980
3 905 907 1209
3 381 378 382
3 457 469 552
3 595 575 2032
3 408 413 2084
3 481 483 2144
3 1745 1349 2293
3 1980 1405 2441
3 198 50 2011
3 248 115 2017
3 912 819 2068
3 620 858 859
3 707 708 720
3 821 674 822
3 514 542 2086
3 400 382 401
3 123 2005 2012
3 1772 1351 2374
3 34 239 2002
3 768 314 2127
3 2003 36 2004
3 280 282 2079
3 124 225 2005
3 596 595 2130
3 593 560 824
3 1504 1502 2519
3 239 35 2003
3 1311 1309 2147
3 1318 1877 2240
3 1860 1432 2311
3 1416 1715 2330
3 859 998 1153
3 352 353 2072
3 312 768 1987
3 2027 1174 2152
3 226 38 2006
3 1827 1024 2117
3 1710 1391 2295
3 690 624 691
3 37 226 2004
3 1153 1312 1885
3 853 855 2186
3 1892 242 2373
3 1967 520 2174
3 939 938 1016
3 47 249 2019
3 388 390 2078
3 1991 2139 2517
3 905 906 907
3 571 721 2032
3 1196 423 2035
3 1324 925 1325
3 1151 1130 1937
3 363 352 2072
3 345 349 2076
3 1031 1032 1033
3 214 179 1859
3 211 122 2012
3 602 601 652
3 117 205 2018
3 710 712 2067
3 1602 187 2357
3 520 2000 2174
3 85 242 2335
3 220 84 2335
3 381 400 2113
3 1586 1587 2435
3 424 401 425
3 963 1174 2027
3 860 691 861
3 610 596 2130
3 1958 2078 2431
3 570 547 2056
3 237 2216 2354
3 1211 1692 2219
3 298 358 1997
3 909 947 1041
3 441 456 2097
3 1135 1647 1849
3 1601 1542 2443
3 197 113 2009
3 49 198 2010
3 1911 347 2407
3 1729 191 2309
3 212 41 2020
3 121 211 2013
3 222 105 2218
3 1125 901 1126
3 114 248 2009
3 249 48 2010
3 42 250 2020
3 251 120 2013
3 233 1769 2369
3 1870 647 2113
3 794 345 2076
3 250 43 2024
3 119 251 2021
3 901 902 2141
3 964 570 2056
3 739 335 2261
3 2108 1317 2148
3 577 599 2083
3 205 118 2021
3 44 206 2024
3 1247 1241 2323
3 1894 992 2244
3 6 203 2049
3 1642 1678 2529
3 1417 1873 2333
3 1422 2023 2516
3 341 794 2100
3 73 74 2361
3 1234 1232 2088
3 1261 1254 2059
3 896 1077 2257
3 1921 710 2067
3 125 126 2284
3 220 1699 2289
3 159 5 2304
3 4 184 2303
3 2059 1252 2098
3 1003 1004 2145
3 2328 1325 2451
3 1486 227 1500
3 63 64 2162
3 2081 1192 2260
3 508 500 2102
3 667 1872 2318
3 338 334 2090
3 423 422 2035
3 1192 1126 1471
3 907 908 909
3 1330 1328 2192
3 1972 897 2500
3 2443 316 2514
3 242 86 2373
3 87 193 2373
3 420 1193 2084
3 1473 1086 2358
3 1987 768 2037
3 522 337 2100
3 627 1660 2185
3 1793 446 2264
3 1405 2061 2441
3 1502 1217 2302
3 171 201 2216
3 1158 1993 2153
3 1197 1365 2120
3 1712 1710 2295
3 1121 1401 2414
3 93 94 2166
3 653 652 688
3 622 1716 2452
3 1345 1720 2267
3 477 537 556
3 128 129 2181
3 2331 1295 2458
3 784 645 874
3 1269 1270 2199
3 189 102 2355
3 1041 1168 1343
3 246 110 2140
3 477 525 537
3 755 1895 2371
3 1947 1723 2313
3 1134 1135 2369
3 223 65 2395
3 968 1201 2107
3 1577 1578 2325
3 210 15 2477
3 961 363 2072
3 1581 1579 2352
3 349 357 2076
3 337 341 2100
3 305 303 2317
3 370 367 2103
3 762 296 1997
3 581 580 2164
3 1278 1838 2372
3 1548 2129 2472
3 594 593 2133
3 2021 251 2022
3 2047 1247 2182
3 967 968 2107
3 1169 947 2008
3 481 2144 2169
3 793 614 2092
3 1910 217 2381
3 1251 1262 2098
3 716 788 2066
3 2101 1334 2108
3 2006 39 2151
3 1603 2379 2508
3 1926 2006 2151
3 96 97 2526
3 750 755 2371
3 789 714 2066
3 909 918 947
3 1993 895 2153
3 106 1990 2218
3 1243 1240 2074
3 832 986 1189
3 1283 1284 2342
3 2297 195 2517
3 1043 829 2326
3 767 816 2131
3 602 653 676
3 1004 912 2068
3 2086 1886 2224
3 1124 2177 2467
3 426 401 2531
3 707 720 1030
3 1000 1001 2184
3 1315 1029 2184
3 467 481 2169
3 541 513 2256
3 647 381 2113
3 225 2284 2510
3 2 156 2356
3 187 0 2357
3 40 212 2151
3 2245 1386 2383
3 676 677 829
3 1004 2068 2069
3 1860 232 2487
3 1031 1033 1034
3 829 830 972
3 996 997 2408
3 1195 1194 2120
3 987 1869 2202
3 1410 1213 2222
3 819 820 2068
3 1485 1486 2173
3 1564 2030 2155
3 807 669 2529
3 129 261 2181
3 1525 1076 2145
3 578 577 2083
3 327 310 1987
3 1083 929 2197
3 2131 1324 2258
3 798 408 2084
3 1838 696 2426
3 1486 1500 1930
3 1946 1944 2291
3 2257 1077 2291
3 1512 1661 2266
3 445 388 2078
3 1192 1471 2260
3 2118 1415 2395
3 1466 1468 2158
3 830 677 831
3 211 2012 2251
3 652 601 2442
3 537 545 551
3 558 508 2102
3 198 2011 2128
3 1718 2280 2385
3 500 960 2102
3 1168 1169 1393
3 1127 971 2496
3 95 96 2309
3 2030 1565 2155
3 1919 1172 2273
3 977 860 2112
3 240 128 2181
3 294 762 2038
3 1800 1799 2195
3 712 789 2067
3 972 1749 2326
3 472 1683 2212
3 874 645 2133
3 551 2045 2201
3 2105 1043 2326
3 1957 1212 2301
3 1514 1856 2367
3 565 538 2167
3 373 370 2103
3 355 348 2196
3 1934 1272 2138
3 1934 426 2531
3 1881 1400 2481
3 2046 1851 2327
3 367 961 2103
3 1963 1152 2206
3 201 278 443
3 3 131 2444
3 31 1 2445
3 2035 441 2097
3 503 787 2198
3 1135 1849 1930
3 1534 1983 2306
3 2089 623 2150
3 687 704 2109
3 869 1351 2363
3 1302 1304 2205
3 955 1716 2484
3 1030 720 1031
3 1159 1318 2240
3 1228 1226 2281
3 947 918 2008
3 413 420 2084
3 785 879 2532
3 1041 947 1168
3 1468 2182 2323
3 1246 1234 2088
3 1730 1163 2372
3 542 555 2086
3 1599 631 2312
3 1146 1967 2174
3 1078 1136 2343
3 1515 1574 2180
3 2336 885 2469
3 1257 1243 2074
3 1347 1346 2279
3 2001 650 2206
3 1480 1601 2514
3 1029 1000 2184
3 1956 788 2336
3 1271 1261 2059
3 130 3 2444
3 1 32 2445
3 1570 1507 2197
3 1232 1255 2088
3 791 1642 2529
3 1601 1479 2269
3 1361 1362 2168
3 1634 1922 2281
3 765 2065 2190
3 2071 1158 2153
3 1699 1801 2289
3 832 831 833
3 1864 346 2344
3 456 476 2097
3 1855 828 2411
3 2065 1162 2190
3 1125 1192 2149
3 599 760 2083
3 361 765 2339
3 1731 2123 2241
3 1349 1181 1350
3 1443 1275 2251
3 1819 524 2429
3 1021 1045 2512
3 858 618 2132
3 1999 358 2338
3 368 292 2038
3 290 368 2135
3 803 331 2296
3 1112 1008 2152
3 56 1947 2313
3 555 979 2086
3 1469 1496 2182
3 1011 967 2107
3 248 2017 2288
3 1809 789 2425
3 960 453 2221
3 538 558 2167
3 1858 1187 2248
3 2246 1757 2526
3 902 905 2141
3 1851 1853 2327
3 1224 1222 2111
3 771 288 2135
3 1945 2153 2257
3 1420 1525 2489
3 1399 1123 2393
3 103 2025 2355
3 897 822 898
3 1861 940 2532
3 865 1125 2146
3 1675 2474 2522
3 1573 2157 2507
3 1632 1631 2382
3 551 601 602
3 527 503 2198
3 1708 805 2337
3 1059 1278 2372
3 2056 527 2198
3 860 861 2112
3 1668 2348 2398
3 255 2159 2265
3 1541 1542 2269
3 1428 2074 2227
3 1582 1583 2321
3 389 1774 2503
3 2004 226 2157
3 1777 397 2405
3 1368 1436 2254
3 1061 2409 2462
3 1071 930 2462
3 1126 901 2141
3 1194 1197 2120
3 1452 1952 2282
3 2116 1319 2482
3 105 106 2218
3 1981 1399 2393
3 2119 983 2143
3 444 1682 2461
3 2173 1648 2463
3 616 793 2132
3 1791 1190 2334
3 1826 1728 2259
3 602 652 653
3 1834 1292 2428
3 556 2201 2327
3 1014 1015 2385
3 1995 1287 2331
3 1193 1195 2189
3 816 1324 2131
3 879 1861 2532
3 593 1182 2133
3 1402 266 1742
3 2216 1323 2354
3 1660 1636 2502
3 620 955 2484
3 1162 1706 2190
3 1870 2113 2249
3 204 1680 1732
3 1909 2023 2420
3 217 72 2217
3 376 372 2430
3 905 1209 2141
3 1378 1381 2283
3 1236 1246 2227
3 286 771 2063
3 1635 2263 2502
3 100 101 2220
3 1139 898 1140
3 2114 1343 2136
3 442 284 2063
3 1772 2106 2414
3 1985 1755 2533
3 2192 1328 2315
3 1064 863 2146
3 1631 1637 2459
3 736 2049 2523
3 221 1906 2246
3 318 1983 2171
3 1496 2047 2182
3 1374 2139 2506
3 196 55 2313
3 2087 462 2134
3 676 653 677
3 2304 257 2491
3 1401 2324 2363
3 829 677 830
3 654 2223 2242
3 1187 977 2112
3 1463 1466 2200
3 2023 219 2516
3 1176 881 2215
3 513 471 2290
3 1812 459 2252
3 1386 1269 2199
3 291 758 2306
3 618 616 2132
3 278 280 2210
3 83 220 2289
3 82 83 2289
3 938 1057 2161
3 1189 986 1190
3 788 719 2336
3 1914 2001 2206
3 232 181 1652
3 1567 2062 2490
3 313 757 2495
3 622 619 2484
3 688 878 1320
3 1222 1626 2111
3 282 442 2079
3 1169 2008 2105
3 1966 1007 2308
3 2040 799 2237
3 1744 2229 2495
3 986 833 1063
3 2284 1605 2510
3 887 1961 2376
3 215 1624 2262
3 830 831 832
3 476 475 2224
3 439 451 2223
3 1932 1933 2380
3 2227 1246 2366
3 1212 1202 2301
3 1107 1110 2228
3 249 2010 2299
3 1983 293 2306
3 2055 1214 2237
3 1438 1372 2478
3 824 560 2156
3 2320 1866 2513
3 1351 1137 2374
3 868 2007 2232
3 2063 771 2064
3 1507 214 1508
3 1728 1727 2246
3 1045 1047 2348
3 1139 1140 2096
3 1648 1649 2463
3 1502 2302 2519
3 704 707 2109
3 2343 1136 2396
3 650 1963 2206
3 2153 895 2257
3 396 1958 2431
3 1379 1377 2288
3 2115 1471 2319
3 2033 987 2202
3 2239 1693 2518
3 2025 1488 2355
3 1209 2115 2319
3 523 524 2156
3 783 939 2243
3 376 1798 2497
3 2066 788 2193
3 1984 318 2172
3 425 427 2221
3 203 172 1847
3 446 457 2264
3 1312 2089 2150
3 2138 1272 2211
3 897 1139 2274
3 828 1819 2429
3 1249 1224 2111
3 666 667 2318
3 1371 1326 2194
3 2433 1499 2475
3 1272 1271 2211
3 1367 2254 2479
3 1386 2053 2383
3 2074 1238 2227
3 755 2148 2320
3 2117 1604 2428
3 475 514 2224
3 228 2187 2457
3 1868 1504 2520
3 1626 1218 2185
3 2123 1111 2241
3 1287 1049 2331
3 1280 687 2109
3 459 1814 2292
3 54 196 2402
3 863 865 2146
3 204 176 1680
3 514 2086 2224
3 1646 603 2398
3 112 197 2346
3 358 300 2338
3 1140 898 1141
3 1204 1335 2301
3 1016 2161 2438
3 909 1041 2175
3 1681 2448 2492
3 2252 459 2292
3 1992 868 2232
3 1035 1036 2235
3 1051 1295 2331
3 1836 1289 2242
3 1508 214 1859
3 247 53 2402
3 1016 938 2161
3 1408 856 2378
3 1466 2158 2200
3 725 885 2336
3 855 1450 2421
3 2023 1768 2420
3 1238 1236 2227
3 1679 202 2253
3 2107 1348 2233
3 1653 1431 2487
3 1946 2291 2343
3 2253 202 2329
3 1885 1312 2150
3 378 628 2390
3 2195 1383 2432
3 1520 1519 2480
3 1532 1733 2534
3 308 327 2278
3 953 951 2255
3 1213 1407 2222
3 1561 1563 2285
3 302 763 2338
3 1928 2033 2202
3 763 304 2345
3 832 833 986
3 1352 2040 2237
3 247 1881 2481
3 560 523 2156
3 335 339 2261
3 346 342 2344
3 201 443 1323
3 2301 1335 2466
3 323 320 2229
3 1136 2110 2396
3 1139 1977 2274
3 1809 1615 2423
3 1707 1791 2334
3 46 2019 2485
3 2064 1294 2238
3 1950 197 2404
3 2021 2022 2176
3 1949 245 2420
3 2044 2152 2207
3 1063 1154 1707
3 1012 1363 2406
3 280 2079 2210
3 2237 1214 2351
3 820 698 2318
3 1140 1141 1406
3 205 2021 2176
3 2043 786 2310
3 2145 1004 2446
3 707 1030 2109
3 1406 2460 2473
3 2137 1268 2226
3 16 2081 2260
3 567 2031 2219
3 2112 1064 2248
3 206 45 2485
3 2347 1462 2365
3 1650 1962 2362
3 453 425 2221
3 1209 907 2175
3 1111 1276 2241
3 2448 1145 2492
3 2051 2083 2243
3 59 60 2266
3 1402 1742 2530
3 831 677 2209
3 624 587 2276
3 238 174 1725
3 1011 2107 2233
3 468 2365 2412
3 2337 805 2371
3 254 1932 2380
3 1174 1398 2207
3 2140 111 2346
3 1381 2186 2283
3 1987 2037 2188
3 1740 559 2456
3 1773 391 2503
3 1335 1870 2249
3 1945 2257 2291
3 828 463 2411
3 1246 2088 2208
3 2060 798 2307
3 1773 1159 2240
3 1187 2112 2248
3 1352 2237 2351
3 2037 1322 2188
3 1941 1499 2433
3 2322 225 2510
3 1031 1034 2236
3 327 2188 2321
3 595 2032 2273
3 1464 1462 2347
3 1285 1992 2232
3 799 2055 2237
3 443 278 2210
3 784 874 2178
3 392 396 2431
3 191 95 2309
3 879 784 2178
3 524 511 2429
3 2128 2011 2270
3 895 896 2257
3 2206 1152 2324
3 318 2171 2172
3 2259 1549 2379
3 1214 1410 2351
3 306 308 2278
3 2022 251 2247
3 1757 1729 2309
3 1283 1918 2524
3 996 1706 2492
3 557 2044 2207
3 1798 1448 2364
3 1447 2250 2310
3 559 1750 2403
3 1363 1011 2233
3 1343 1168 2187
3 1407 2044 2256
3 1462 1460 2365
3 1995 2331 2458
3 327 1987 2188
3 2160 254 2380
3 1681 958 2287
3 2031 1160 2250
3 1600 689 2413
3 2219 1692 2239
3 1494 1675 2522
3 1281 1916 2448
3 907 909 2175
3 565 2167 2276
3 2241 1276 2275
3 1978 316 2443
3 2151 212 2350
3 203 1847 2104
3 2049 1481 2523
3 1961 1362 2376
3 2187 1393 2457
3 940 796 2532
3 2293 1349 2329
3 572 1897 2537
3 332 739 2282
3 2052 567 2239
3 1437 1370 2277
3 567 2219 2239
3 667 626 2452
3 1914 2206 2324
3 2243 939 2392
3 2136 1343 2187
3 257 1654 2530
3 1376 1378 2283
3 2076 1982 2272
3 2083 760 2243
3 1944 1945 2291
3 1771 1839 2359
3 1404 1403 2399
3 1875 1866 2320
3 1460 1337 2412
3 760 783 2243
3 1276 1366 2275
3 1428 2227 2366
3 1882 1605 2284
3 1739 1429 2459
3 2321 2188 2434
3 1328 1327 2315
3 798 2189 2307
3 2152 1174 2207
3 2182 1247 2323
3 1516 1514 2367
3 293 291 2306
3 556 537 2201
3 1298 1300 2314
3 1400 1399 2316
3 1649 2236 2463
3 833 831 2424
3 2127 2050 2333
3 1057 914 2328
3 1839 193 2359
3 761 1741 2258
3 1186 1970 2422
3 1429 2366 2382
3 2211 1271 2271
3 1733 1248 2534
3 13 2114 2136
3 2078 390 2431
3 1533 1536 2340
3 1690 2145 2446
3 1277 2308 2370
3 1168 1393 2187
3 1597 2047 2268
3 587 565 2276
3 1908 244 2401
3 225 125 2284
3 610 2130 2468
3 1749 2105 2326
3 1913 1914 2324
3 2366 2208 2382
3 1391 1876 2295
3 457 552 2264
3 653 688 2209
3 1601 2443 2514
3 682 2138 2211
3 992 1980 2244
3 55 56 2313
3 1645 1495 2493
3 473 477 2483
3 202 1724 2329
3 465 828 2429
3 1277 1966 2308
3 1416 2330 2406
3 1912 1364 2455
3 1716 1483 2375
3 2019 1651 2485
3 1725 2137 2226
3 201 1323 2216
3 878 1083 2213
3 2072 2073 2245
3 1563 1777 2405
3 244 2028 2401
3 2016 1564 2422
3 1682 1497 2461
3 1962 1153 2362
3 1298 2314 2358
3 1384 1385 2391
3 688 1320 2209
3 1587 2179 2435
3 786 380 2497
3 1395 1522 2341
3 2032 1919 2273
3 251 2013 2247
3 2219 2031 2250
3 2397 552 2453
3 1765 255 2489
3 2475 1825 2524
3 1202 1204 2301
3 445 2078 2411
3 323 2229 2296
3 1286 2384 2408
3 537 551 2201
3 1724 237 2293
3 84 85 2335
3 1471 1126 2319
3 1635 1634 2511
3 300 302 2338
3 698 666 2318
3 1030 1031 2236
3 2098 1457 2271
3 696 1821 2426
3 1457 1492 2447
3 1956 2336 2469
3 331 323 2296
3 1284 1491 2342
3 2011 1996 2270
3 256 183 2303
3 160 257 2304
3 2204 1589 2501
3 1891 1014 2280
3 719 725 2336
3 1354 1808 2381
3 437 430 2494
3 2377 218 2391
3 2211 2271 2447
3 1407 2256 2290
3 2365 1460 2412
3 2047 1498 2268
3 1825 1283 2524
3 1499 1825 2475
3 1226 1249 2281
3 2051 2243 2392
3 2250 1160 2310
3 111 112 2346
3 304 306 2345
3 1341 1352 2351
3 2166 191 2504
3 2223 1836 2242
3 1996 247 2481
3 1049 1051 2331
3 1086 1298 2358
3 2130 595 2273
3 1249 2111 2263
3 680 1995 2458
3 1511 2140 2346
3 102 103 2355
3 469 473 2453
3 961 2072 2245
3 2073 1282 2245
3 1442 1443 2525
3 74 192 2361
3 2163 1586 2435
3 1519 1518 2449
3 897 2274 2500
3 303 444 2317
3 1615 1614 2423
3 197 2009 2404
3 1634 2281 2511
3 1780 1781 2419
3 1435 1623 2465
3 1286 1774 2384
3 384 361 2339
3 193 1901 2359
3 1165 2433 2475
3 2277 1370 2386
3 677 653 2209
3 1994 1516 2367
3 1479 1478 2440
3 1165 1512 2433
3 1644 1353 2417
3 1711 1712 2353
3 2193 1615 2425
3 1613 1956 2469
3 1440 1173 2330
3 2269 1479 2440
3 222 2218 2465
3 391 389 2503
3 306 2278 2345
3 468 2090 2365
3 221 2246 2526
3 1445 1446 2504
3 939 1844 2392
3 86 87 2373
3 1429 1428 2366
3 2053 2103 2383
3 1348 1212 2312
3 805 750 2371
3 997 1286 2408
3 1152 869 2363
3 2063 2064 2238
3 192 1994 2367
3 1160 2043 2310
3 1926 2151 2350
3 2059 2098 2271
3 1897 1366 2537
3 215 2262 2437
3 1655 1732 2476
3 2415 1128 2454
3 1320 2213 2214
3 7 258 2357
3 259 155 2356
3 2171 1530 2172
3 347 351 2407
3 1077 1078 2343
3 239 2003 2279
3 1446 1128 2415
3 1034 1033 2410
3 601 627 2442
3 1154 1653 2234
3 397 2060 2405
3 2142 794 2272
3 442 2063 2238
3 1863 1215 2378
3 794 2076 2272
3 1883 1375 2505
3 1320 878 2213
3 342 468 2344
3 1903 218 2377
3 380 376 2497
3 1549 1547 2379
3 1148 1165 2475
3 2157 226 2507
3 829 972 2326
3 884 1957 2466
3 2291 1077 2343
3 65 66 2395
3 787 2052 2518
3 2298 1348 2312
3 1946 2343 2396
3 1653 256 2535
3 1842 1548 2472
3 1957 2301 2466
3 1366 1277 2370
3 2213 1432 2214
3 961 2245 2383
3 218 2093 2391
3 1376 2283 2421
3 1873 2127 2333
3 1019 1021 2512
3 1128 1127 2454
3 1104 1434 2450
3 2130 1439 2468
3 2396 2110 2482
3 2186 855 2283
3 1724 2293 2329
3 1163 1059 2372
3 1614 2389 2423
3 53 54 2402
3 1063 1707 2334
3 2283 855 2421
3 1385 1863 2436
3 364 1883 2505
3 517 1890 2387
3 1145 996 2492
3 1047 1287 2348
3 2148 1875 2320
3 205 2176 2416
3 1372 1844 2478
3 1211 2219 2250
3 1141 898 2368
3 245 1909 2420
3 2278 327 2321
3 2389 1397 2423
3 2256 513 2290
3 559 2403 2456
3 1137 1340 2374
3 2093 1384 2391
3 1918 1148 2524
3 1030 2236 2427
3 1867 1895 2513
3 2014 517 2387
3 2271 1457 2447
3 1143 2028 2353
3 1904 194 2432
3 1148 2475 2524
3 1574 1523 2436
3 2213 1083 2311
3 1997 358 2325
3 2139 246 2506
3 1370 1369 2386
3 1271 2059 2271
3 1034 2173 2463
3 1123 1412 2393
3 1578 1827 2515
3 2209 1320 2424
3 2079 1504 2210
3 1361 2168 2305
3 1491 1489 2403
3 238 1725 2226
3 1190 986 2334
3 1547 1545 2508
3 1891 1613 2469
3 1153 1885 2362
3 2208 1632 2382
3 2287 1281 2448
3 1356 1376 2421
3 1965 2349 2515
3 2155 1186 2422
3 1522 2014 2387
3 2158 1468 2323
3 2050 954 2333
3 1397 1809 2423
3 1362 1360 2376
3 1852 1985 2397
3 2069 1691 2446
3 789 2066 2425
3 1895 755 2513
3 1707 1154 2234
3 372 374 2430
3 2225 787 2518
3 2028 1206 2401
3 986 1063 2334
3 1912 726 2439
3 1340 1342 2400
3 1916 1145 2448
3 2236 1649 2427
3 2374 1340 2400
3 2222 1407 2290
3 2324 1152 2363
3 241 2220 2472
3 765 2190 2384
3 2375 667 2452
3 2330 1173 2406
3 1181 1972 2500
3 2126 1382 2388
3 1173 1012 2406
3 315 313 2495
3 1015 1373 2385
3 97 221 2526
3 1937 1397 2389
3 930 1061 2462
3 971 1096 2496
3 45 46 2485
3 669 791 2529
3 1104 2450 2521
3 382 378 2390
3 2191 1371 2536
3 2235 1036 2286
3 831 2209 2424
3 762 1997 2349
3 2379 1547 2508
3 2177 1359 2467
3 2403 1489 2456
3 796 785 2532
3 219 1902 2516
3 1519 2300 2480
3 1065 1655 2476
3 1375 1473 2505
3 1489 1490 2456
3 390 392 2431
3 2247 2013 2464
3 1135 1930 2369
3 2278 1583 2345
3 626 622 2452
3 631 2298 2312
3 2233 1348 2298
3 1398 1974 2499
3 1706 1681 2492
3 261 130 2444
3 32 260 2445
3 822 2099 2368
3 1365 1912 2439
3 941 940 2418
3 1446 2166 2504
3 2106 1121 2414
3 2300 1519 2449
3 1803 1104 2521
3 1732 1570 2476
3 1413 2051 2392
3 2122 1946 2396
3 2238 1868 2520
3 477 556 2483
3 2397 1985 2533
3 463 445 2411
3 2163 1185 2488
3 1126 2141 2319
3 1755 2264 2533
3 972 2204 2501
3 2230 1533 2340
3 1774 1773 2503
3 1997 2325 2349
3 1004 2069 2446
3 2159 31 2445
3 131 2160 2444
3 1371 2191 2451
3 1001 2154 2486
3 1682 2230 2340
3 2103 961 2383
3 1033 1151 2410
3 382 2390 2531
3 1504 2079 2520
3 1583 2278 2321
3 511 465 2429
3 250 2024 2479
3 2208 2088 2509
3 619 620 2484
3 1246 2208 2366
3 2141 1209 2319
3 1359 1413 2467
3 1295 1459 2458
3 2218 1435 2465
3 2281 1249 2511
3 2293 237 2354
3 2207 1398 2499
3 1564 2155 2422
3 552 469 2453
3 1947 224 2498
3 2062 1568 2490
3 2018 205 2416
3 260 2159 2445
3 2160 261 2444
3 2092 610 2468
3 194 2195 2432
3 1432 2213 2311
3 211 2251 2464
3 2378 856 2527
3 1536 1532 2534
3 2364 786 2497
3 2438 1438 2478
3 1185 1948 2488
3 2042 941 2418
3 1582 2321 2434
3 885 1891 2469
3 1364 2048 2455
3 1693 2225 2518
3 401 382 2531
3 1338 2247 2464
3 442 2238 2520
3 1292 2117 2428
3 2274 1350 2500
3 2066 2193 2425
3 2179 1184 2435
3 898 822 2368
3 2436 1863 2527
3 1844 1016 2478
3 2184 1001 2486
3 557 2207 2499
3 2013 211 2464
3 2254 250 2479
3 1350 1181 2500
3 2009 248 2470
3 246 2140 2506
3 1574 2436 2527
3 2139 1419 2517
3 316 1971 2514
3 1319 2122 2482
3 226 2006 2507
3 1400 2270 2481
3 1681 2287 2448
3 2325 1578 2349
3 232 1652 2487
3 1320 2214 2424
3 1632 2208 2509
3 248 2288 2470
3 1406 1141 2460
3 2188 1322 2434
3 2244 1980 2441
3 2088 1255 2509
3 1280 2109 2427
3 2060 2307 2405
3 2236 1034 2463
3 1745 2293 2354
3 2122 2396 2482
3 2109 1030 2427
3 2307 1563 2405
3 1429 2382 2459
3 224 2267 2498
3 682 2211 2447
3 2079 442 2520
3 2348 1287 2398
3 2220 1842 2472
3 1335 2249 2466
3 1249 2263 2511
3 443 2210 2519
3 2385 1373 2394
3 1594 2184 2486
3 2052 2239 2518
3 1568 2439 2490
3 2349 1578 2515
3 2344 468 2412
3 2270 1996 2481
3 1735 2244 2441
3 2260 1471 2477
3 2210 1504 2519
3 1434 2297 2450
3 2297 1419 2450
3 2263 1660 2502
3 2404 2009 2470
3 1718 2385 2394
3 1371 2194 2536
3 2317 444 2461
3 1443 2322 2525
3 1716 2375 2452
3 1863 2378 2527
3 2439 726 2490
3 1057 2328 2451
3 1638 2404 2470
3 1454 2234 2535
3 755 2320 2513
3 2234 1653 2535
3 2264 552 2533
3 1419 2297 2517
3 1392 2322 2510
3 552 2397 2533
3 1798 2364 2497
3 2322 1392 2525
3 2382 1631 2459
3 1016 2438 2478
3 1366 2370 2537
3 1742 2491 2530
3 2491 257 2530
CELL_TYPES 4886
5
5
5
5
5
5
5
5
5
5
5
5
5
5
5
5
5
5
5
5
5
5
5
5
5
5
5
5
5
5
5
5
5
5
5
5
5
5
5
5
5
5
5
5
5
5
5
5
5
5
5
5
5
5
5
5
5
5
5
5
5
5
5
5
5
5
5
5
5
5
5
5
5
5
5
5
5
5
5
5
5
5
5
5
5
5
5
5
5
5
5
5
5
5
5
5
5
5
5
5
5
5
5
5
5
5
5
5
5
5
5
5
5
5
5
5
5
5
5
5
5
5
5
5
5
5
5
5
5
5
5
5
5
5
5
5
5
5
5
5
5
5
5
5
5
5
5
5
5
5
5
5
5
5
5
5
5
5
5
5
5
5
5
5
5
5
5
5
5
5
5
5
5
5
5
5
5
5
5
5
5
5
5
5
5
5
5
5
5
5
5
5
5
5
5
5
5
5
5
5
5
5
5
5
5
5
5
5
5
5
5
5
5
5
5
5
5
5
5
5
5
5
5
5
5
5
5
5
5
5
5
5
5
5
5
5
5
5
5
5
5
5
5
5
5
5
5
5
5
5
5
5
5
5
5
5
5
5
5
5
5
5
5
5
5
5
5
5
5
5
5
5
5
5
5
5
5
5
5
5
5
5
5
5
5
5
5
5
5
5
5
5
5
5
5
5
5
5
5
5
5
5
5
5
5
5
5
5
5
5
5
5
5
5
5
5
5
5
5
5
5
5
5
5
5
5
5
5
5
5
5
5
5
5
5
5
5
5
5
5
5
5
5
5
5
5
5
5
5
5
5
5
5
5
5
5
5
5
5
5
5
5
5
5
5
5
5
5
5
5
5
5
5
5
5
5
5
5
5
5
5
5
5
5
5
5
5
5
5
5
5
5
5
5
5
5
5
5
5
5
5
5
5
5
5
5
5
5
5
5
5
5
5
5
5
5
5
5
5
5
5
5
5
5
5
5
5
5
5
5
5
5
5
5
5
5
5
5
5
5
5
5
5
5
5
5
5
5
5
5
5
5
5
5
5
5
5
5
5
5
5
5
5
5
5
5
5
5
5
5
5
5
5
5
5
5
5
5
5
5
5
5
5
5
5
5
5
5
5
5
5
5
5
5
5
5
5
5
5
5
5
5
5
5
5
5
5
5
5
5
5
5
5
5
5
5
5
5
5
5
5
5
5
5
5
5
5
5
5
5
5
5
5
5
5
5
5
5
5
5
5
5
5
5
5
5
5
5
5
5
5
5
5
5
5
5
5
5
5
5
5
5
5
5
5
5
5
5
5
5
5
5
5
5
5
5
5
5
5
5
5
5
5
5
5
5
5
5
5
5
5
5
5
5
5
5
5
5
5
5
5
5
5
5
5
5
5
5
5
5
5
5
5
5
5
5
5
5
5
5
5
5
5
5
5
5
5
5
5
5
5
5
5
5
5
5
5
5
5
5
5
5
5
5
5
5
5
5
5
5
5
5
5
5
5
5
5
5
5
5
5
5
5
5
5
5
5
5
5
5
5
5
5
5
5
5
5
5
5
5
5
5
5
5
5
5
5
5
5
5
5
5
5
5
5
5
5
5
5
5
5
5
5
5
5
5
5
5
5
5
5
5
5
5
5
5
5
5
5
5
5
5
5
5
5
5
5
5
5
5
5
5
5
5
5
5
5
5
5
5
5
5
5
5
5
5
5
5
5
5
5
5
5
5
5
5
5
5
5
5
5
5
5
5
5
5
5
5
5
5
5
5
5
5
5
5
5
5
5
5
5
5
5
5
5
5
5
5
5
5
5
5
5
5
5
5
5
5
5
5
5
5
5
5
5
5
5
5
5
5
5
5
5
5
5
5
5
5
5
5
5
5
5
5
5
5
5
5
5
5
5
5
5
5
5
5
5
5
5
5
5
5
5
5
5
5
5
5
5
5
5
5
5
5
5
5
5
5
5
5
5
5
5
5
5
5
5
5
5
5
5
5
5
5
5
5
5
5
5
5
5
5
5
5
5
5
5
5
5
5
5
5
5
5
5
5
5
5
5
5
5
5
5
5
5
5
5
5
5
5
5
5
5
5
5
5
5
5
5
5
5
5
5
5
5
5
5
5
5
5
5
5
5
5
5
5
5
5
5
5
5
5
5
5
5
5
5
5
5
5
5
5
5
5
5
5
5
5
5
5
5
5
5
5
5
5
5
5
5
5
5
5
5
5
5
5
5
5
5
5
5
5
5
5
5
5
5
5
5
5
5
5
5
5
5
5
5
5
5
5
5
5
5
5
5
5
5
5
5
5
5
5
5
5
5
5
5
5
5
5
5
5
5
5
5
5
5
5
5
5
5
5
5
5
5
5
5
5
5
5
5
5
5
5
5
5
5
5
5
5
5
5
5
5
5
5
5
5
5
5
5
5
5
5
5
5
5
5
5
5
5
5
5
5
5
5
5
5
5
5
5
5
5
5
5
5
5
5
5
5
5
5
5
5
5
5
5
5
5
5
5
5
5
5
5
5
5
5
5
5
5
5
5
5
5
5
5
5
5
5
5
5
5
5
5
5
5
5
5
5
5
5
5
5
5
5
5
5
5
5
5
5
5
5
5
5
5
5
5
5
5
5
5
5
5
5
5
5
5
5
5
5
5
5
5
5
5
5
5
5
5
5
5
5
5
5
5
5
5
5
5
5
5
5
5
5
5
5
5
5
5
5
5
5
5
5
5
5
5
5
5
5
5
5
5
5
5
5
5
5
5
5
5
5
5
5
5
5
5
5
5
5
5
5
5
5
5
5
5
5
5
5
5
5
5
5
5
5
5
5
5
5
5
5
5
5
5
5
5
5
5
5
5
5
5
5
5
5
5
5
5
5
5
5
5
5
5
5
5
5
5
5
5
5
5
5
5
5
5
5
5
5
5
5
5
5
5
5
5
5
5
5
5
5
5
5
5
5
5
5
5
5
5
5
5
5
5
5
5
5
5
5
5
5
5
5
5
5
5
5
5
5
5
5
5
5
5
5
5
5
5
5
5
5
5
5
5
5
5
5
5
5
5
5
5
5
5
5
5
5
5
5
5
5
5
5
5
5
5
5
5
5
5
5
5
5
5
5
5
5
5
5
5
5
5
5
5
5
5
5
5
5
5
5
5
5
5
5
5
5
5
5
5
5
5
5
5
5
5
5
5
5
5
5
5
5
5
5
5
5
5
5
5
5
5
5
5
5
5
5
5
5
5
5
5
5
5
5
5
5
5
5
5
5
5
5
5
5
5
5
5
5
5
5
5
5
5
5
5
5
5
5
5
5
5
5
5
5
5
5
5
5
5
5
5
5
5
5
5
5
5
5
5
5
5
5
5
5
5
5
5
5
5
5
5
5
5
5
5
5
5
5
5
5
5
5
5
5
5
5
5
5
5
5
5
5
5
5
5
5
5
5
5
5
5
5
5
5
5
5
5
5
5
5
5
5
5
5
5
5
5
5
5
5
5
5
5
5
5
5
5
5
5
5
5
5
5
5
5
5
5
5
5
5
5
5
5
5
5
5
5
5
5
5
5
5
5
5
5
5
5
5
5
5
5
5
5
5
5
5
5
5
5
5
5
5
5
5
5
5
5
5
5
5
5
5
5
5
5
5
5
5
5
5
5
5
5
5
5
5
5
5
5
5
5
5
5
5
5
5
5
5
5
5
5
5
5
5
5
5
5
5
5
5
5
5
5
5
5
5
5
5
5
5
5
5
5
5
5
5
5
5
5
5
5
5
5
5
5
5
5
5
5
5
5
5
5
5
5
5
5
5
5
5
5
5
5
5
5
5
5
5
5
5
5
5
5
5
5
5
5
5
5
5
5
5
5
5
5
5
5
5
5
5
5
5
5
5
5
5
5
5
5
5
5
5
5
5
5
5
5
5
5
5
5
5
5
5
5
5
5
5
5
5
5
5
5
5
5
5
5
5
5
5
5
5
5
5
5
5
5
5
5
5
5
5
5
5
5
5
5
5
5
5
5
5
5
5
5
5
5
5
5
5
5
5
5
5
5
5
5
5
5
5
5
5
5
5
5
5
5
5
5
5
5
5
5
5
5
5
5
5
5
5
5
5
5
5
5
5
5
5
5
5
5
5
5
5
5
5
5
5
5
5
5
5
5
5
5
5
5
5
5
5
5
5
5
5
5
5
5
5
5
5
5
5
5
5
5
5
5
5
5
5
5
5
5
5
5
5
5
5
5
5
5
5
5
5
5
5
5
5
5
5
5
5
5
5
5
5
5
5
5
5
5
5
5
5
5
5
5
5
5
5
5
5
5
5
5
5
5
5
5
5
5
5
5
5
5
5
5
5
5
5
5
5
5
5
5
5
5
5
5
5
5
5
5
5
5
5
5
5
5
5
5
5
5
5
5
5
5
5
5
5
5
5
5
5
5
5
5
5
5
5
5
5
5
5
5
5
5
5
5
5
5
5
5
5
5
5
5
5
5
5
5
5
5
5
5
5
5
5
5
5
5
5
5
5
5
5
5
5
5
5
5
5
5
5
5
5
5
5
5
5
5
5
5
5
5
5
5
5
5
5
5
5
5
5
5
5
5
5
5
5
5
5
5
5
5
5
5
5
5
5
5
5
5
5
5
5
5
5
5
5
5
5
5
5
5
5
5
5
5
5
5
5
5
5
5
5
5
5
5
5
5
5
5
5
5
5
5
5
5
5
5
5
5
5
5
5
5
5
5
5
5
5
5
5
5
5
5
5
5
5
5
5
5
5
5
5
5
5
5
5
5
5
5
5
5
5
5
5
5
5
5
5
5
5
5
5
5
5
5
5
5
5
5
5
5
5
5
5
5
5
5
5
5
5
5
5
5
5
5
5
5
5
5
5
5
5
5
5
5
5
5
5
5
5
5
5
5
5
5
5
5
5
5
5
5
5
5
5
5
5
5
5
5
5
5
5
5
5
5
5
5
5
5
5
5
5
5
5
5
5
5
5
5
5
5
5
5
5
5
5
5
5
5
5
5
5
5
5
5
5
5
5
5
5
5
5
5
5
5
5
5
5
5
5
5
5
5
5
5
5
5
5
5
5
5
5
5
5
5
5
5
5
5
5
5
5
5
5
5
5
5
5
5
5
5
5
5
5
5
5
5
5
5
5
5
5
5
5
5
5
5
5
5
5
5
5
5
5
5
5
5
5
5
5
5
5
5
5
5
5
5
5
5
5
5
5
5
5
5
5
5
5
5
5
5
5
5
5
5
5
5
5
5
5
5
5
5
5
5
5
5
5
5
5
5
5
5
5
5
5
5
5
5
5
5
5
5
5
5
5
5
5
5
5
5
5
5
5
5
5
5
5
5
5
5
5
5
5
5
5
5
5
5
5
5
5
5
5
5
5
5
5
5
5
5
5
5
5
5
5
5
5
5
5
5
5
5
5
5
5
5
5
5
5
5
5
5
5
5
5
5
5
5
5
5
5
5
5
5
5
5
5
5
5
5
5
5
5
5
5
5
5
5
5
5
5
5
5
5
5
5
5
5
5
5
5
5
5
5
5
5
5
5
5
5
5
5
5
5
5
5
5
5
5
5
5
5
5
5
5
5
5
5
5
5
5
5
5
5
5
5
5
5
5
5
5
5
5
5
5
5
5
5
5
5
5
5
5
5
5
5
5
5
5
5
5
5
5
5
5
5
5
5
5
5
5
5
5
5
5
5
5
5
5
5
5
5
5
5
5
5
5
5
5
5
5
5
5
5
5
5
5
5
5
5
5
5
5
5
5
5
5
5
5
5
5
5
5
5
5
5
5
5
5
5
5
5
5
5
5
5
5
5
5
5
5
5
5
5
5
5
5
5
5
5
5
5
5
5
5
5
5
5
5
5
5
5
5
5
5
5
5
5
5
5
5
5
5
5
5
5
5
5
5
5
5
5
5
5
5
5
5
5
5
5
5
5
5
5
5
5
5
5
5
5
5
5
5
5
5
5
5
5
5
5
5
5
5
5
5
5
5
5
5
5
5
5
5
5
5
5
5
5
5
5
5
5
5
5
5
5
5
5
5
5
5
5
5
5
5
5
5
5
5
5
5
5
5
5
5
5
5
5
5
5
5
5
5
5
5
5
5
5
5
5
5
5
5
5
5
5
5
5
5
5
5
5
5
5
5
5
5
5
5
5
5
5
5
5
5
5
5
5
5
5
5
5
5
5
5
5
5
5
5
5
5
5
5
5
5
5
5
5
5
5
5
5
5
5
5
5
5
5
5
5
5
5
5
5
5
5
5
5
5
5
5
5
5
5
5
5
5
5
5
5
5
5
5
5
5
5
5
5
5
5
5
5
5
5
5
5
5
5
5
5
5
5
5
5
5
5
5
5
5
5
5
5
5
5
5
5
5
5
5
5
5
5
5
5
5
5
5
5
5
5
5
5
5
5
5
5
5
5
5
5
5
5
5
5
5
5
5
5
5
5
5
5
5
5
5
5
5
5
5
5
5
5
5
5
5
5
5
5
5
5
5
5
5
5
5
5
5
5
5
5
5
5
5
5
5
5
5
5
5
5
5
5
5
5
5
5
5
5
5
5
5
5
5
5
5
5
5
5
5
5
5
5
5
5
5
5
5
5
5
5
5
5
5
5
5
5
5
5
5
5
5
5
5
5
5
5
5
5
5
5
5
5
5
5
5
5
5
5
5
5
5
5
5
5
5
5
5
5
5
5
5
5
5
5
5
5
5
5
5
5
5
5
5
5
5
5
5
5
5
5
5
5
5
5
5
5
5
5
5
5
5
5
5
5
5
5
5
5
5
5
5
5
5
5
5
5
5
5
5
5
5
5
5
5
5
5
5
5
5
5
5
5
5
5
5
5
5
5
5
5
5
5
5
5
5
5
5
5
5
5
5
5
5
5
5
5
5
5
5
5
5
5
5
5
5
5
5
5
5
5
5
5
5
5
5
5
5
5
5
5
5
5
5
5
5
5
5
5
5
5
5
5
5
5
5
5
5
5
5
5
5
5
5
5
5
5
5
5
5
5
5
5
5
5
5
5
5
5
5
5
5
5
5
5
5
5
5
5
5
5
5
5
5
5
5
5
5
5
5
5
5
5
5
5
5
5
5
5
5
5
5
5
5
5
5
5
5
5
5
5
5
5
5
5
5
5
5
5
5
5
5
5
5
5
5
5
5
5
5
5
5
5
5
5
5
5
5
5
5
5
5
5
5
5
5
5
5
5
5
5
5
5
5
5
5
5
5
5
5
5
5
5
5
5
5
5
5
5
5
5
5
5
5
5
5
5
5
5
5
5
5
5
5
5
5
5
5
5
5
5
5
5
5
5
5
5
5
5
5
5
5
5
5
5
5
5
5
5
5
5
5
5
5
5
5
5
5
5
5
5
5
5
5
5
5
5
5
5
5
5
5
5
5
5
5
5
5
5
5
5
5
5
5
5
5
5
5
5
5
5
5
5
5
5
5
5
5
5
5
5
5
5
5
5
5
5
5
5
5
5
5
5
5
5
5
5
5
5
5
5
5
5
5
5
5
5
5
5
5
5
5
5
5
5
5
5
5
5
5
5
5
5
5
5
5
5
5
5
5
5
5
5
5
5
5
5
5
5
5
5
5
5
5
5
5
5
5
5
5
5
5
5
5
5
5
5
5
5
5
5
5
5
5
5
5
5
5
5
5
5
5
5
5
5
5
5
5
5
5
5
5
5
5
5
5
5
5
5
5
5
5
5
5
5
5
5
5
5
5
5
5
5
5
5
5
5
5
5
5
5
5
5
5
5
5
5
5
5
5
5
5
5
5
5
5
5
5
5
5
5
5
5
5
5
5
5
5
5
5
5
5
5
5
5
5
5
5
5
5
5
5
5
5
5
5
5
5
5
5
5
5
5
5
5
5
5
5
5
5
5
5
5
5
5
5
5
5
5
5
5
5
5
5
5
5
5
5
5
5
5
5
5
5
5
5
5
5
5
5
5
5
5
5
5
5
5
5
5
5
5
5
5
5
5
5
5
5
5
5
5
5
5
5
5
5
5
5
5
5
5
5
5
5
5
5
5
5
5
5
5
5
5
5
5
5
5
5
5
5
5
5
5
5
5
5
5
5
5
5
5
5
5
5
5
5
5
5
5
5
5
5
5
5
5
5
5
5
5
5
5
5
5
5
5
5
5
5
5
5
5
5
5
5
5
5
5
5
5
5
5
5
5
5
5
5
5
5
5
5
5
5
5
5
5
5
5
5
5
5
5
5
5
5
5
5
5
5
5
5
5
5
5
5
5
5
5
5
5
5
5
5
5
5
5
5
5
5
5
5
5
5
5
5
5
5
5
5
5
5
5
5
5
5
5
5
5
5
5
5
5
5
5
5
5
5
5
5
5
5
5
5
5
5
5
5
5
5
5
5
5
5
5
5
5
5
5
5
5
5
5
5
5
5
5
5
5
5
5
5
5
5
5
5
5
5
5
5
5
5
5
5
5
5
5
5
5
5
5
5
5
5
5
5
5
5
5
5
5
5
5
5
5
5
5
5
5
5
5
5
5
5
5
5
5
5
5
5
5
5
5
5
5
5
5
5
5
5
5
5
5
5
5
5
5
5
5
5
5
5
5
5
5
5
5
5
5
5
5
5
5
5
5
5
5
5
5
5
5
5
5
5
5
5
5
5
5
5
5
5
5
5
5
5
5
5
5
5
5
5
5
5
5
5
5
5
5
5
5
5
5
5
5
5
5
5
5
5
5
5
5
5
5
5
5
5
5
5
5
5
5
5
5
5
5
5
5
5
5
5
5
5
5
5
5
5
5
5
5
5
5
5
5
5
5
5
5
5
5
5
5
5
5
5
5
5
5
5
5
5
5
5
5
5
5
5
5
5
5
5
5
5
5
5
5
5
5
5
5
5
5
5
5
5
5
5
5
5
5
5
5
5
5
5
5
5
5
5
5
5
5
5
5
5
5
5
5
5
5
5
5
5
5
5
5
5
5
5
5
5
5
5
5
5
5
5
5
5
5
5
5
5
5
5
5
5
5
5
5
5
5
5
5
5
5
5
5
5
5
5
5
5
5
5
5
5
5
5
5
5
5
5
5
5
5
5
5
5
5
5
5
5
5
5
5
5
5
5
5
5
5
5
5
5
5
5
5
5
5
5
5
5
5
5
5
5
5
5
5
5
5
5
5
5
5
5
5
5
5
5
5
5
5
5
5
5
5
5
5
5
5
5
5
5
5
5
5
5
5
5
5
5
5
5
5
5
5
5
5
5
5
5
5
5
5
5
5
5
5
5
5
5
5
5
5
5
5
5
5
5
5
5
5
5
5
5
5
5
5
5
5
5
5
5
5
5
5
5
5
5
5
5
5
5
5
5
5
5
5
5
5
5
5
5
5
5
5
5
5
5
5
5
5
5
5
5
5
5
5
5
5
5
5
5
5
5
5
5
5
5
5
5
5
5
5
5
5
5
5
5
5
5
5
5
5
5
5
5
5
5
5
5
5
5
5
5
5
5
5
5
5
5
5
5
5
5
5
5
5
5
5
5
5
5
5
5
5
5
5
5
5
5
5
5
5
5
5
5
5
5
5
5
5
5
5
5
5
5
5
5
5
5
5
5
5
5
5
5
5
5
5
5
5
5
5
5
5
5
5
5
5
5
5
5
5
5
5
5
5
5
5
5
5
5
5
5
5
5
5
5
5
5
5
5
5
5
5
5
5
5
5
5
5
5
5
5
5
5
5
5
5
5
5
5
5
5
5
5
5
5
5
5
5
5
5
5
5
5
5
5
5
5
5
5
5
5
5
5
5
5
5
5
5
5
5
5
5
5
5
5
5
5
5
5
5
5
5
5
5
5
5
5
5
5
5
5
5
5
5
5
5
5
5
5
5
5
5
5
5
5
5
5
5
5
5
5
5
5
5
5
5
5
5
5
5
5
5
5
5
5
5
5
5
5
5
5
5
5
5
5
5
5
5
5
5
5
5
5
5
5
5
5
5
5
5
5
5
5
5
5
5
5
5
5
5
5
5
5
5
5
5
5
5
5
5
5
5
5
5
5
5
5
5
5
5
5
5
5
5
5
5
5
5
5
5
5
5
5
5
5
5
5
5
5
5
5
5
5
5
5
5
5
5
5
5
5
5
5
5
5
5
5
5
5
5
5
5
5
5
5
5
5
5
5
5
5
5
5
5
5
5
5
5
5
5
5
5
5
5
5
5
5
5
5
5
5
5
5
5
5
5
5
5
5
5
5
5
5
5
5
5
5
5
5
5
5
5
5
5
5
5
5
5
5
5
5
5
5
5
5
5
5
5
5
5
5
5
5
5
5
5
5
5
5
5
5
5
5
5
5
5
5
5
5
5
5
5
5
5
5
5
5
5
5
5
5
5
5
5
5
5
5
5
5
5
5
5
5
5
5
5
5
5
5
5
5
5
5
5
5
5
5
5
5
5
5
5
5
5
5
5
5
5
5
5
5
5
5
5
5
5
5
5
5
5
5
5
5
5
5
5
5
5
5
5
5
5
5
5
5
5
5
5
5
5
5
5
5
5
5
5
5
5
5
5
5
5
5
5
5
5
5
5
5
5
5
5
5
5
5
5
5
5
5
5
5
5
5
5
5
5
5
5
5
5
5
5
5
5
5
5
5
5
5
5
5
5
5
5
5
5
5
5
5
5
5
5
5
5
5
5
5
5
5
5
5
5
5
5
5
5
5
5
5
5
5
5
5
5
5
5
5
5
5
5
5
5
5
5
5
5
5
5
5
5
5
5
5
5
5
5
5
5
5
5
5
5
5
5
5
5
5
5
5
5
5
5
5
5
5
5
5
5
5
5
5
5
5
5
5
5
5
5
5
5
5
5
5
5
5
5
5
5
5
5
5
5
5
5
5
5
5
5
5
5
5
5
5
5
5
5
5
5
5
5
5
5
5
5
5
5
5
5
5
5
5
5
5
5
5
5
5
5
5
5
5
5
5
5
5
5
5
5
5
5
5
5
5
5
5
5
5
5
5
5
5
5
5
5
5
5
5
5
5
5
5
5
5
5
5
5
5
5
5
5
5
5
5
POINT_DATA 2538
VECTORS disp float
1.2757490991728975e-11 1.932687277668904e-11 0.0
3.775117674216213e-12 -9.847093461371705e-12 0.0
0.0014999999999857194 2.5180500709181987e-12 0.0
0.0014999999776501981 -4.871685845487272e-11 0.0
0.000704326014080044 0.00033704562558341977 0.0
0.0011522331386504539 -5.929700203478007e-6 0.0
0.0008600895223335745 -4.8659587708194945e-5 0.0
-1.7617860312474335e-12 -3.7313770744892084e-12 0.0
1.5460127973197353e-12 9.426466932911665e-13 0.0
8.394837695564912e-13 -1.0932922919653687e-12 0.0
8.508812856441377e-13 -8.162635937550778e-13 0.0
3.810116099458807e-13 -7.761321366894646e-13 0.0
4.5305019136061093e-13 -1.0953182286682716e-12 0.0
3.2598993431721723e-13 -1.1712476276552127e-12 0.0
2.741705370900341e-13 -1.475371094160562e-12 0.0
1.4722068634162912e-13 -1.75067104559998e-12 0.0
2.9804630145730863e-13 -2.1080043017966657e-12 0.0
2.8847564392674923e-13 -2.3828601482606047e-12 0.0
3.5629496368450913e-13 -2.630786577238016e-12 0.0
4.1250585213854063e-13 -2.8336755850645113e-12 0.0
3.9690709089595846e-13 -2.8966626818041985e-12 0.0
5.162645366850205e-13 -3.092543295278486e-12 0.0
4.900715291578086e-13 -3.0763104327944717e-12 0.0
5.095695248045975e-13 -3.2046777430894924e-12 0.0
6.104466263971943e-13 -3.2677608328331664e-12 0.0
5.743230420143815e-13 -3.3134095083407148e-12 0.0
6.17526237223741e-13 -3.4271081599343807e-12 0.0
6.876793527749446e-13 -3.558385496515187e-12 0.0
7.212386961384068e-13 -3.716388347253182e-12 0.0
6.749881415886176e-13 -3.962886715716836e-12 0.0
1.0243391400571614e-12 -4.450561149672531e-12 0.0
2.4815175456909307e-13 -3.7609612926509245e-12 0.0
2.0143477781076726e-5 -9.212599333577066e-6 0.0
3.61104171200986e-5 -1.6746848337392645e-5 0.0
5.197404965116153e-5 -2.3536096440041062e-5 0.0
6.71753025014392e-5 -2.9990030862628296e-5 0.0
8.165460748886248e-5 -3.6142164500323784e-5 0.0
9.574152658532911e-5 -4.220947397307954e-5 0.0
0.00010972780159305302 -4.79917653797399e-5 0.0
0.00012333296646700195 -5.363442328428403e-5 0.0
0.00013673164516716537 -5.918248655078725e-5 0.0
0.00015000463058171182 -6.453937613215315e-5 0.0
0.00016306801785368353 -6.98043673098224e-5 0.0
0.00017613434625125222 -7.492390571221343e-5 0.0
0.0001891541585846604 -7.989420635234829e-5 0.0
0.00020199310019356097 -8.470521154020663e-5 0.0
0.00021494600045377337 -8.948528202622274e-5 0.0
0.00022780523129229915 -9.422905546915325e-5 0.0
0.00024073482507422345 -9.894207155246234e-5 0.0
0.00025371197048432246 -0.00010356023182260455 0.0
0.00026662165140907233 -0.00010814928265070228 0.0
0.0002795197991097566 -0.00011271889792659237 0.0
0.00029251211866634545 -0.00011721193177961375 0.0
0.00030536864760627653 -0.00012165603104902101 0.0
0.00031838773060424025 -0.00012593437503733627 0.0
0.0003312797292271537 -0.00013012463432944202 0.0
0.0003443602919671046 -0.0001341879699116902 0.0
0.0003573120449193904 -0.00013809756466035412 0.0
0.00037033009272212396 -0.00014193928719820602 0.0
0.000383275175532549 -0.00014551203393570444 0.0
0.0003964588054955816 -0.00014896755778257792 0.0
0.00040937455512619393 -0.00015227224612499707 0.0
0.00042248209586135305 -0.00015534067478262682 0.0
0.00043553794208784974 -0.0001580992795741995 0.0
0.0004484754978720488 -0.0001606186565424999 0.0
0.000461168850033019 -0.00016284062862356597 0.0
0.00047416361568048684 -0.00016511574747194485 0.0
0.0004872744559505088 -0.0001675871972248082 0.0
0.0005005620287410716 -0.00017063857191458462 0.0
0.0005154335866847807 -0.000173931729943248 0.0
0.0005305315176919378 -0.00017775314702168308 0.0
0.0005463765177581756 -0.00018167847671062573 0.0
0.0005623199422149271 -0.00018584111715569122 0.0
0.0005772782021892138 -0.0001906473138123569 0.0
0.0005919036858173206 -0.00019478208223732657 0.0
0.0006046112181050665 -0.00019938406422826213 0.0
0.0006181691243758829 -0.00020278161377058985 0.0
0.0006311523748644438 -0.00020630507608570108 0.0
0.0006442426956126826 -0.0002095820630730016 0.0
0.0006581912416567498 -0.00021191887762209445 0.0
0.0006713777638735525 -0.00021483493385580514 0.0
0.000685921543151353 -0.0002168947867211612 0.0
0.0006991969580675154 -0.000219582792370931 0.0
0.0007128317898334343 -0.00022231608930216177 0.0
0.000725093780864128 -0.00022518796573060842 0.0
0.0007385169629866677 -0.0002271250896983384 0.0
0.0007511094695329788 -0.00022911517104678877 0.0
0.0007649172280795188 -0.00023055318938740895 0.0
0.0007790031030898389 -0.00023172258065439557 0.0
0.0007937782747139612 -0.0002326224155940413 0.0
0.0008093304292603762 -0.00023344068538337127 0.0
0.0008257139128473528 -0.00023399701938077867 0.0
0.000842622386833974 -0.00023447620099597798 0.0
0.0008598911850335899 -0.00023486091594902077 0.0
0.0008776797411761771 -0.0002352849348611831 0.0
0.0008953488042942378 -0.00023561502481715704 0.0
0.0009129756646046174 -0.0002360807845855825 0.0
0.0009300373473440372 -0.00023655351607313496 0.0
0.0009461219983990371 -0.000236830401635836 0.0
0.0009617427779249064 -0.00023697625969556528 0.0
0.0009776061343654005 -0.00023674426047055766 0.0
0.0009938774364629838 -0.00023620444418915302 0.0
0.001009652196262775 -0.00023525432695700252 0.0
0.0010259322552938603 -0.00023385843554712512 0.0
0.0010416320869089074 -0.00023246856433368124 0.0
0.001056919143758067 -0.00023090752658324302 0.0
0.0010719744341463628 -0.0002292040342937031 0.0
0.0010848661293954343 -0.00022749731840596642 0.0
0.0010968910452357277 -0.0002251308135127409 0.0
0.0011091622238275747 -0.00022312058343155875 0.0
0.00112170549668307 -0.00022106305525779952 0.0
0.0011334453598774203 -0.0002182087569860117 0.0
0.001147164525769026 -0.00021588182104230236 0.0
0.0011607226386732563 -0.0002139981037179366 0.0
0.0011749012701204624 -0.00021249468795059366 0.0
0.0011887102412863042 -0.00021005988037849045 0.0
0.001201497535421469 -0.00020641780703536947 0.0
0.0012144754780039244 -0.00020190677185337105 0.0
0.0012288055735689561 -0.00019580649981309334 0.0
0.0012435397782427778 -0.00018874109452978182 0.0
0.0012581678145812782 -0.0001818313252229846 0.0
0.0012732557325105052 -0.00017454687205749683 0.0
0.001289163130514541 -0.00016588296055955405 0.0
0.0013049755126503953 -0.00015587220760830716 0.0
0.001321529921082303 -0.0001446356868422597 0.0
0.0013390425966678839 -0.00013228794038098096 0.0
0.0013584877308624912 -0.00011835052117603678 0.0
0.0013796404952807926 -0.00010248998796032633 0.0
0.0014028004962742284 -8.439686108403736e-5 0.0
0.0014300760354323536 -6.318348498693953e-5 0.0
0.0014605368063157797 -3.752440537253767e-5 0.0
0.0015000000000438924 -1.6480126849192513e-12 0.0
0.0014999999964247922 -5.4467700610978496e-12 0.0
0.001499999998857973 -3.82083744652168e-13 0.0
0.001499999998172836 -6.671370767237332e-13 0.0
0.0014999999985882459 -1.7105550394712898e-14 0.0
0.0014999999986035782 3.2329488926066123e-13 0.0
0.0014999999986241223 4.3994971369905514e-13 0.0
0.0014999999987767338 5.558943278894979e-13 0.0
0.0014999999988088834 6.574431693355434e-13 0.0
0.0014999999989075917 7.158699889226588e-13 0.0
0.001499999998969138 7.799934530654205e-13 0.0
0.001499999999026673 9.1178127102851e-13 0.0
0.0014999999990225807 1.0182687951446273e-12 0.0
0.0014999999990312274 1.1477063899678747e-12 0.0
0.0014999999990178779 1.2646231994129196e-12 0.0
0.001499999999010064 1.3858230403339177e-12 0.0
0.0014999999989876128 1.480990038273982e-12 0.0
0.0014999999989797983 1.6208105835105844e-12 0.0
0.0014999999990239583 1.709007643452185e-12 0.0
0.0014999999990275553 1.7277928526411942e-12 0.0
0.0014999999990950466 1.6877089566351567e-12 0.0
0.0014999999991252015 1.5691063276726305e-12 0.0
0.0014999999993370596 1.4861673304105112e-12 0.0
0.0014999999995836902 1.6342012473978984e-12 0.0
0.0014999999996987022 1.2169240845528574e-12 0.0
0.0014105848045875304 2.451417237312175e-5 0.0
0.0013314621992364607 3.0080882502211424e-5 0.0
0.0012542805883929353 1.8868748607138108e-5 0.0
0.0011864654204922476 6.160990023816863e-6 0.0
0.0011349986619436617 -4.144476719294969e-5 0.0
0.0011254055270839755 -6.508660859528381e-5 0.0
0.0011211591713576683 -9.495811870124837e-5 0.0
0.0011111931081327923 -0.00011386476207406624 0.0
0.0010975828963295914 -0.00012639670797622645 0.0
0.0010801356755586492 -0.00013319779697030734 0.0
0.0010593574770058982 -0.00013575794535580936 0.0
0.0010361886180063201 -0.00013150517471735308 0.0
0.0010104100134843224 -0.00012325072384280396 0.0
0.0009825290329141762 -0.00011150839582958884 0.0
0.0009511319256035039 -9.69021168257156e-5 0.0
0.0009141124631302682 -7.935659320873603e-5 0.0
0.0008286294576528032 -1.108397706955961e-5 0.0
0.0008051714452375702 1.1112702670961897e-5 0.0
0.0007847412199710195 2.8999900822984418e-5 0.0
0.0007659581918353563 4.6423643351563266e-5 0.0
0.000747944474895928 6.380952028669769e-5 0.0
0.0007317314706715663 8.19674755684772e-5 0.0
0.00071686911936364 0.0001015434914603001 0.0
0.0007041881615654542 0.00012086124436695398 0.0
0.0006957043122789737 0.00014607172328231276 0.0
0.0006890595999669848 0.0001737454430725562 0.0
0.0006919897617043644 0.00021575097188565237 0.0
0.0006909790615181623 0.000263291433675406 0.0
0.0006251972020799353 0.00033511916839618376 0.0
0.0005308918757280258 0.0003274555637699002 0.0
0.00041720706310158006 0.0002857431555640353 0.0
0.00026613204088271034 0.00019731028668840643 0.0
0.00039931560919531845 -0.0001436676941667938 0.0
0.001004315102626431 -0.0002214152366814958 0.0
0.0004909560148937309 -0.00016282249585103053 0.0
0.0008872989743865929 -0.00022417302512807303 0.0
0.000595800721839654 -0.00018975143365236837 0.0
0.0007697495970038983 -0.0002188240336275549 0.0
0.0006774712140262488 -0.00020580872582157914 0.0
0.0010948340213970068 -0.00021550090093880835 0.0
0.00032296699873750144 -0.00012334703379125272 0.0
0.0011540736498595998 -0.00019968330575685064 0.0
0.00025781483066800035 -0.00010154439957406293 0.0
2.8014800014523022e-5 -6.940866926173929e-6 0.0
0.0014629019313809213 1.0239524810166615e-6 0.0
0.0008995153050447238 -5.131441161625552e-5 0.0
0.0010071345192223821 -0.00011438998879903282 0.0
0.0007991175222281583 -1.8996888111569548e-5 0.0
0.0007281780511589183 6.274060168230549e-5 0.0
0.0012255580143182335 -0.00017905411805460564 0.0
0.00019583325169880762 -7.900622932512642e-5 0.0
2.2923390630879193e-5 -5.823379624407051e-6 0.0
0.0014737349608334427 -8.32903306032748e-7 0.0
0.001447656142274054 2.8623688774051587e-6 0.0
3.201534828604383e-5 -4.158762176473556e-6 0.0
0.0012861054527294438 -0.00014641007485268964 0.0
0.00014147605321677203 -5.719850741100871e-5 0.0
0.0010777113565275534 -0.00011791689661785281 0.0
0.0006749540813562138 0.00011524864755848817 0.0
1.8145894527094832e-5 -4.450354331485794e-6 0.0
0.0014780074312074692 -1.3965482882404406e-6 0.0
0.0005526376756306823 -0.00017624215114001653 0.0
0.0006357414611024525 -0.0001995165815707918 0.0
0.0008340840298886795 -0.00022231180802243376 0.0
0.0007178182527654808 -0.00021293060989831635 0.0
0.0009391084345978086 -0.00022450767385407804 0.0
0.0010494919654621133 -0.0002196726499303147 0.0
0.0004556467195735448 -0.00015612952091416686 0.0
0.00036167796514892836 -0.0001349384707956154 0.0
0.0013348038825839572 -0.00011550196840242083 0.0
9.997731148807808e-5 -4.03208271413807e-5 0.0
0.001438748816376171 3.469102156078924e-6 0.0
4.439316402115523e-5 5.781547165488427e-7 0.0
0.0014815338514051622 -2.2826911034184514e-6 0.0
1.671404341775949e-5 -4.20267863201625e-6 0.0
0.0011204270272517163 -9.673534300063334e-5 0.0
0.000654063727800649 0.0001599246498523535 0.0
0.0014239358696317567 2.6022759835445184e-6 0.0
7.342847259234059e-5 4.434836446042287e-6 0.0
2.5953404415124138e-5 -6.682045019176403e-6 0.0
0.0014685321278029896 4.1950470955640345e-10 0.0
0.0009546622187654796 -9.047844155659128e-5 0.0
0.0007658279294022144 2.7090250675296428e-5 0.0
5.5575053020338156e-5 -2.1128785811933473e-5 0.0
0.0014027029222455308 -6.608658290480505e-5 0.0
0.0009701767182749262 -0.0002249991449128602 0.0
0.0007434777048778069 -0.00021727944292993217 0.0
0.0005223889588177778 -0.00016903700042585277 0.0
0.0004272123254807184 -0.00015090262867867697 0.0
0.0008013346523685749 -0.0002205922738097587 0.0
0.0011172758565808323 -0.00021095106503798205 0.0
0.0002971527555265853 -0.00011493448817526087 0.0
0.0011835834553182987 -0.00019391228521067986 0.0
0.00023052095870615047 -9.143574467116046e-5 0.0
0.00016747040863942855 -6.78177485981322e-5 0.0
0.0012550727171681724 -0.00016337104481105335 0.0
0.0004555286872920835 0.00018256947734090172 0.0
0.001273271469413155 -6.207234241217332e-6 0.0
0.0014812303015373344 -5.279922973831439e-6 0.0
1.389438683464973e-5 -3.808685405450874e-6 0.0
0.0006467036724407943 0.00023172442692916614 0.0
0.0011457755629369793 -4.889595622697931e-5 0.0
9.967095886301842e-5 1.3997890661753387e-5 0.0
0.0014345577214604785 3.7310979752514118e-6 0.0
2.42651613970494e-5 -8.42406746966467e-6 0.0
0.0014556594678090812 -2.6862237638819858e-5 0.0
0.00121184132737821 -1.6371904821831633e-5 0.0
0.001218077929748324 -2.698050315599744e-5 0.0
0.0012899178976737448 -1.1044145505937907e-5 0.0
0.0012319809607493825 -2.3964097095083685e-5 0.0
0.0011750771629395883 -4.6050631228929276e-5 0.0
0.0011784824848864509 -3.741078953269072e-5 0.0
0.0012373481821428174 -1.86817670672391e-5 0.0
0.0011853722459761818 -2.5384995319816186e-5 0.0
0.0012469630539626612 -1.146995794109971e-5 0.0
0.0011978632241652985 -1.3993635826717485e-5 0.0
0.0011416080985840683 -2.7875972892127544e-5 0.0
0.0011523880209303482 -1.4156720037448168e-5 0.0
0.0011049819939108613 -2.540123695175089e-5 0.0
0.0011130888068602476 -1.2304858244657396e-5 0.0
0.0010716166908705076 -2.120243270284619e-5 0.0
0.0010791842439564071 -8.345983444781354e-6 0.0
0.0008850368321268019 -4.7113564368987634e-5 0.0
0.0008481157605355099 -5.5453619608247955e-5 0.0
0.0008683719894631985 -4.9016909757788797e-5 0.0
0.0008363870758990912 -5.789868498662134e-5 0.0
0.0008546669003719408 -5.1922232939567404e-5 0.0
0.0008263376987967232 -5.9409373118252684e-5 0.0
0.0008422572705539904 -5.3110961122013755e-5 0.0
0.0008163716207766955 -6.008849959743227e-5 0.0
0.0008307646912826401 -5.395673801368066e-5 0.0
0.0008066135225812812 -6.0891528819042115e-5 0.0
0.0008201863765250177 -5.495673553405907e-5 0.0
0.0007974760798135264 -6.132213689357497e-5 0.0
0.0008104751242524463 -5.585990395671792e-5 0.0
0.0007894039286145343 -6.124573524903277e-5 0.0
0.0008015098874229868 -5.597221622799862e-5 0.0
0.0007811836740774723 -6.11341315018559e-5 0.0
0.0007931336161635104 -5.6272615357707274e-5 0.0
0.0007728781757774658 -6.144750519866942e-5 0.0
0.000785256433694035 -5.679234462382444e-5 0.0
0.0007656879702106293 -6.121724975793853e-5 0.0
0.0007780452316040999 -5.6903111970769246e-5 0.0
0.0007589907663509881 -6.10524599705713e-5 0.0
0.0007707630522233887 -5.714797367479212e-5 0.0
0.0007524825974193894 -6.116168511333536e-5 0.0
0.0007642579064307027 -5.767386975348288e-5 0.0
0.000746787080480188 -6.14673552449659e-5 0.0
0.0007581237880089017 -5.825292539017001e-5 0.0
0.0007404837678685169 -6.216086929582651e-5 0.0
0.0007521099770741429 -5.913976887329115e-5 0.0
0.000731128800391674 -6.374482412438843e-5 0.0
0.000747315372796263 -6.010548187407519e-5 0.0
0.0007291713158927367 -6.37409241370932e-5 0.0
0.0007420534457872501 -6.123920286102513e-5 0.0
0.00072470113370849 -6.479087256928361e-5 0.0
0.0007372334076841779 -6.267489489238562e-5 0.0
0.0007209588706330761 -6.597669650608117e-5 0.0
0.0007325785158634348 -6.428689372521185e-5 0.0
0.0007167005993462209 -6.74816040587166e-5 0.0
0.0007891933837461624 -6.516626005247771e-5 0.0
0.0007281434361667152 -6.612854004821412e-5 0.0
0.000752385172373257 -6.542307546604174e-5 0.0
0.0007128264743572905 -6.698987242328692e-5 0.0
0.0007115905411964474 -6.94358220893868e-5 0.0
0.0007238280713909931 -6.825793159607514e-5 0.0
0.0007066299669695394 -7.165119185259338e-5 0.0
0.000694816955711365 -7.251347714691081e-5 0.0
0.0006894599380187675 -7.474991465153275e-5 0.0
0.0007189614912601558 -7.077736636935115e-5 0.0
0.0007364037075567218 -6.71782007105996e-5 0.0
0.0007588990437935141 -5.768254310660969e-5 0.0
0.0007317021739510151 -6.998360213664785e-5 0.0
0.0007503665183670538 -6.589307701551856e-5 0.0
0.0007449866822086364 -6.928019307474386e-5 0.0
0.0006777242307548783 -7.544375140807278e-5 0.0
0.0006731346883440759 -7.745812636137413e-5 0.0
0.0007643135437039916 -6.486126145450102e-5 0.0
0.0006603666418129545 -7.81029628489273e-5 0.0
0.0006566670933135013 -8.001458694698294e-5 0.0
0.0007593455337113965 -6.850617449788913e-5 0.0
0.0007779509906015096 -6.42416994861264e-5 0.0
0.0006427575620070667 -8.056749371756647e-5 0.0
0.0006387585330969434 -8.244589688955217e-5 0.0
0.0007735321123851166 -6.807356512955632e-5 0.0
0.0007927357247886137 -6.355746857908222e-5 0.0
0.0006250625933358139 -8.274555847112478e-5 0.0
0.0006208556369164796 -8.475205311934831e-5 0.0
0.000788249251638776 -6.783761364682003e-5 0.0
0.0008081748898757797 -6.297949013371663e-5 0.0
0.0006073796939992979 -8.47003635426298e-5 0.0
0.0006021376497378324 -8.671626183978987e-5 0.0
0.0008039647154526058 -6.758744928685863e-5 0.0
0.000824202110073712 -6.252834986541603e-5 0.0
0.0005878544524700921 -8.645150535796641e-5 0.0
0.000583053024605648 -8.844679429630862e-5 0.0
0.0005673030677438246 -8.80346500669616e-5 0.0
0.0005723529946610338 -8.621823117893368e-5 0.0
0.0007826598487475003 -7.233392167852286e-5 0.0
0.0008199486064681318 -6.758800779234165e-5 0.0
0.0008409037720112547 -6.225489022218638e-5 0.0
0.0008456808355374808 -5.6901852049573776e-5 0.0
0.0007879899241621314 -5.304518860288474e-5 0.0
0.0008633981424833606 -5.644673722332901e-5 0.0
0.0008685291900390081 -5.0816147234666065e-5 0.0
0.0008872217690806177 -5.012765146735089e-5 0.0
0.0005639804774967912 -9.013218949478618e-5 0.0
0.0005473702292928194 -8.930173490078484e-5 0.0
0.0005795561404758076 -9.084859368193446e-5 0.0
0.0008361133091068339 -6.789980290703214e-5 0.0
0.00054441631399418 -9.145671211481318e-5 0.0
0.0005273843150809136 -9.030297254058903e-5 0.0
0.0008214956926123618 -5.0079262468936714e-5 0.0
0.0005247026180860993 -9.2315495923097e-5 0.0
0.0005074226985649341 -9.087117458147833e-5 0.0
0.0005049986813751373 -9.292925966237117e-5 0.0
0.0004878733589783055 -9.104594731315998e-5 0.0
0.0004897901139836976 -8.927056453977362e-5 0.0
0.00046846414739376866 -8.918800186471731e-5 0.0
0.0004706776468154051 -8.741426521577603e-5 0.0
0.0004834105452541981 -9.30750199536456e-5 0.0
0.0004472832019714473 -8.688085907932198e-5 0.0
0.0004492594702641501 -8.525846376875317e-5 0.0
0.0005028604634826716 -9.539466294747375e-5 0.0
0.00048443733525069406 -9.584507050461476e-5 0.0
0.0004260980336313558 -8.419267104464837e-5 0.0
0.00042695860860628685 -8.260502077346852e-5 0.0
0.0008929210690729352 -4.445090391688771e-5 0.0
0.0009127366163538836 -4.365933216614241e-5 0.0
0.0005008783488235369 -9.82196527933859e-5 0.0
0.0004829188584541759 -9.862486441251268e-5 0.0
0.0009186625266196264 -3.785394925897498e-5 0.0
0.0009398023847597876 -3.7095933432408173e-5 0.0
0.0009329014693045185 -4.382956631099726e-5 0.0
0.0009606918381377212 -3.699741095110359e-5 0.0
0.0009544291158110545 -4.424100397997257e-5 0.0
0.0009829234007394552 -3.6947155149391995e-5 0.0
0.0009782511944334503 -4.445709640767977e-5 0.0
0.0010083432922668848 -3.640557619305549e-5 0.0
0.0010014728562598998 -4.453135630005983e-5 0.0
0.0010126445133243234 -2.957400174716477e-5 0.0
0.0010323672963686976 -3.66067818912212e-5 0.0
0.0010242583201949722 -4.525031174412707e-5 0.0
0.0004993221907223376 -0.00010134255548225514 0.0
0.00040208617353652647 -8.100775610144922e-5 0.0
0.00040213007244624274 -7.922756165269502e-5 0.0
0.000995555785889652 -5.380582887803942e-5 0.0
0.0010176375899624778 -5.494501343714476e-5 0.0
0.0010464031627230395 -4.6173325490409995e-5 0.0
0.0009909053075924609 -6.390482896767848e-5 0.0
0.0004819714163764339 -0.00010173887582994505 0.0
0.0010400236351304072 -5.643540207688194e-5 0.0
0.0010686237508757599 -4.7269246419860046e-5 0.0
0.0004979205932064371 -0.00010479256799035913 0.0
0.000481059598960667 -0.0001052237094844002 0.0
0.0004652018470299292 -0.00010185262502096788 0.0
0.0010623184848693769 -5.826587743333945e-5 0.0
0.0010908351951366298 -4.853928455746804e-5 0.0
0.0004966412130385047 -0.00010862941218233722 0.0
0.0005131587784283176 -0.00010795913666442733 0.0
0.00046464410631202603 -0.00010536345870174704 0.0
0.0004486064922562857 -0.00010169936524674592 0.0
0.0010837394891816436 -6.03495087269818e-5 0.0
0.001113273119296448 -4.9977048579319915e-5 0.0
0.001119910433826176 -3.93951110746503e-5 0.0
0.00105541386439496 -7.058716483768378e-5 0.0
0.00114263342860357 -4.024427070606475e-5 0.0
0.001149727484723374 -3.1186505005812e-5 0.0
0.00037515562984797944 -7.707508235986874e-5 0.0
0.00037616300690399067 -7.521030307339824e-5 0.0
0.00040892287005983477 -7.787979978759191e-5 0.0
0.0003761378718680283 -7.289916818179394e-5 0.0
0.00040823862781140806 -7.52731007759789e-5 0.0
0.0003754025625119565 -6.988054605579154e-5 0.0
0.0004072319370917687 -7.189992031506791e-5 0.0
0.0005118511221252421 -0.00011205795951987478 0.0
0.000528025776980551 -0.00011119037124317766 0.0
0.0004483028061472656 -0.00010524653368837529 0.0
0.0004320791129222932 -0.00010128587272932826 0.0
0.0011355647540882527 -5.1653973192625006e-5 0.0
0.00037768161909282143 -6.610736823511273e-5 0.0
0.0004083072036235752 -6.779466646702215e-5 0.0
0.0005268454342856277 -0.00011556283172686665 0.0
0.0005427196669699881 -0.00011460607498256965 0.0
0.0006380305753570758 -8.425810829325578e-5 0.0
0.00116504127535317 -4.12175124229595e-5 0.0
0.0008646411671047415 -4.472891982296494e-5 0.0
0.000908397018714662 -4.3220106859635476e-5 0.0
0.0007338508772660327 -6.482340107287112e-5 0.0
0.0009446010108687039 -3.1443724309213e-5 0.0
0.0003750154597889706 -6.045864879113843e-5 0.0
0.00041157340673444846 -6.216552004383121e-5 0.0
0.0004320432536443174 -0.00010488360365721695 0.0
0.0004157631534255321 -0.00010068900773815853 0.0
0.0005419350725783299 -0.00011927682510245487 0.0
0.0005576627983892323 -0.00011822594073873653 0.0
0.0011572233087424996 -5.307273351277341e-5 0.0
0.00034780775035254014 -7.254161974659134e-5 0.0
0.00034801786397836926 -7.449758591611486e-5 0.0
0.0003394198629628923 -6.300504597269929e-5 0.0
0.00118699774007069 -4.207500540986838e-5 0.0
0.00037448524286276384 -5.31868759800071e-5 0.0
0.00041179536606947574 -5.397724459299909e-5 0.0
0.0005262895059824869 -0.00012031520119488981 0.0
0.00041605915032732734 -0.00010437430544958705 0.0
0.0003996242500355736 -9.987981205476695e-5 0.0
0.0009238664577683312 -3.259659410841727e-5 0.0
0.0009506251864430154 -2.614455137922717e-5 0.0
0.0009289717256708729 -2.7695840478621628e-5 0.0
0.0009567185564756599 -2.1189322592046537e-5 0.0
0.0005568293682457355 -0.0001231242405473508 0.0
0.0005725227371273817 -0.00012183328162398086 0.0
0.0006299072268448661 -8.114765858227154e-5 0.0
0.00037324800087417927 -4.3952942044281485e-5 0.0
0.0004099605611983831 -4.335086014973659e-5 0.0
0.0011793071054757992 -5.438260037803407e-5 0.0
0.0011525000529191763 -6.557981110854519e-5 0.0
0.00036311875811728873 -3.063929966940424e-5 0.0
0.00040627859300159915 -2.9226812998944195e-5 0.0
0.001208549834807842 -4.309093828618797e-5 0.0
0.0012126210464526964 -3.4876951601576796e-5 0.0
0.0003661601660103718 -1.6828675459364272e-5 0.0
0.00043168313024273113 -0.00010913355731710163 0.0
0.0005715425982714899 -0.00012710667991855894 0.0
0.0005869402963749326 -0.0001255311455718351 0.0
0.0005881779093670691 -0.00012025743931906477 0.0
0.0006024398171698996 -0.00012378305859172777 0.0
0.0006038479122862184 -0.0001185287499681669 0.0
0.0006181093048223621 -0.00012187835574916641 0.0
0.0006196316775309821 -0.00011656401132938375 0.0
0.0006340230172224216 -0.0001197938702933369 0.0
0.0006356881565840039 -0.00011444291483795833 0.0
0.0006500880837559155 -0.0001175055014958581 0.0
0.0006485890848329422 -0.00012324771728488963 0.0
0.0006644230068222566 -0.00012080799659827618 0.0
0.0006630284214842648 -0.00012690235304988764 0.0
0.0006786096107621384 -0.0001242953785148776 0.0
0.0006772076287951808 -0.00013076000627429193 0.0
0.000692712797611782 -0.00012795519159319613 0.0
0.0006519441092710909 -0.00011212157888503184 0.0
0.0006942018412475174 -0.0001214303101045043 0.0
0.0007083234222632633 -0.00012486387077119854 0.0
0.0007067266439905333 -0.00013187673124878736 0.0
0.0007224034289484775 -0.00012859098940879346 0.0
0.0003198007812136873 -6.942647051811446e-5 0.0
0.0003202399316817607 -7.134420749202289e-5 0.0
0.00040015416316167347 -0.00010356208273858345 0.0
0.0003838284577192423 -9.887065304651528e-5 0.0
0.0007243006936994572 -0.00012153213390606854 0.0
0.0007383621816812365 -0.00012497062083292477 0.0
0.0007363539244771544 -0.00013244358351511762 0.0
0.0007526591563695436 -0.00012857359275971516 0.0
0.0002924155244386332 -6.591470898637863e-5 0.0
0.00029319806861118183 -6.778538526263327e-5 0.0
0.0009344751444089031 -2.3009396772002785e-5 0.0
0.0009632899120811491 -1.6571476888378174e-5 0.0
0.0009406782723681257 -1.8611228761215234e-5 0.0
0.001201329724530571 -5.516085927900455e-5 0.0
0.0012296254102621901 -4.3682501791655705e-5 0.0
0.0005859833367288572 -0.0001311929274087271 0.0
0.00044746481401180925 -7.061221698128402e-5 0.0
0.0007413264743617701 -7.237658315072638e-5 0.0
0.0007505158444635183 -0.00013645255627382978 0.0
0.0007670774071244592 -0.00013236047969068652 0.0
0.0007690822213257056 -0.0001243254563019493 0.0
0.0007841361759802142 -0.00012783152472173483 0.0
0.0007837718701130151 -6.021624935215618e-5 0.0
0.0009711322266730079 -1.1850715766324705e-5 0.0
0.0009920827733804608 -1.1067635258055416e-5 0.0
0.00040595501878744566 -1.2537859583344134e-5 0.0
0.00038439942248700524 -0.0001025710098413993 0.0
0.0003682022744713717 -9.766490267569779e-5 0.0
0.0009475807072698154 -1.4196507604954671e-5 0.0
0.0007818822506751317 -0.0001363718178382728 0.0
0.0007996833793880525 -0.00013183583431728563 0.0
0.0008020583451682319 -0.00012306039861549568 0.0
0.0008185022857891273 -0.00012702347895452343 0.0
0.0008213652593969745 -0.00011823627725125006 0.0
0.0008381178966548816 -0.00012190727545878665 0.0
0.000835199038380775 -0.0001311580141037215 0.0
0.0008552337773051361 -0.00012591445445359149 0.0
0.00036411867043641214 -1.30669404419414e-6 0.0
0.0002659137745518511 -6.208719786304225e-5 0.0
0.0002668267409250914 -6.381748127951036e-5 0.0
0.0005710802729756476 -0.0001327690722196551 0.0
0.0012211470038004067 -5.6882696225976036e-5 0.0
0.001249758533157642 -4.4168134142103365e-5 0.0
0.0008522838832267393 -0.00013557934472618034 0.0
0.0008725783428707903 -0.00013030833628886106 0.0
0.00040693210083738324 5.496443605323788e-6 0.0
0.0003690690651648028 -0.00010140684038404315 0.0
0.00035266197332876117 -9.622806167346735e-5 0.0
0.0004483500487242432 -4.255273131065005e-5 0.0
0.0011227808776782752 -2.3014465260339983e-6 0.0
0.0005851896915491861 -0.0001371573858303912 0.0
0.0003641452808979477 1.4236626936659871e-5 0.0
0.00033979995243169217 -4.4542212707916854e-5 0.0
0.001238035393847392 -6.121592832169991e-5 0.0
0.0012688987803029324 -4.4816034903214975e-5 0.0
0.0012778582783701672 -3.359361149778145e-5 0.0
0.00032389490826234557 -7.0870523121356855e-6 0.0
0.0012084792062951883 -7.325783855493108e-5 0.0
0.0002629796204947782 -5.987817402718154e-5 0.0
0.0003838857476488311 -0.00010620124998036968 0.0
0.0009785363529569646 -7.340567158184243e-6 0.0
0.000954868154163169 -9.823885013933128e-6 0.0
0.0008415624759207023 -0.0001129984202584898 0.0
0.0003537946018825742 -0.00010013032159158639 0.0
0.0003372620769663084 -9.466104633084444e-5 0.0
0.00024020017000571958 -5.7917085990932305e-5 0.0
0.00024119005352467467 -5.943559899852212e-5 0.0
0.00041568808905880395 -9.743930180054812e-5 0.0
0.0008696995908786138 -0.00014037780233741264 0.0
0.0008900501365843341 -0.00013500031422662657 0.0
0.00033606775229747167 -9.103502017329419e-5 0.0
0.00032042516826675925 -8.917915848640952e-5 0.0
0.0008506404301119232 -0.00014493929910007063 0.0
0.0005708594444551508 -0.00013872339830123728 0.0
0.0003220387171009768 -9.292015604504276e-5 0.0
0.00030509808017781866 -8.718030652117672e-5 0.0
0.0006051052884979369 -0.00011368868604888356 0.0
0.001297317878917018 -3.311242590622508e-5 0.0
0.0013058589840574185 -2.5059970482634852e-5 0.0
0.0012877127336664894 -4.4004077856242924e-5 0.0
0.0008871633087516366 -0.00014531489081091032 0.0
0.0009075127253084527 -0.00013990767092471828 0.0
0.0008245065164214804 -0.00010975960808732433 0.0
0.0008452388739058126 -0.00010441752360848117 0.0
0.0005846937785054969 -0.00014338236357666422 0.0
0.0009105721712175448 -0.00012930652345972051 0.0
0.0009281198105184708 -0.00013436038207517785 0.0
0.0002149910645098148 -5.326312067273856e-5 0.0
0.00021715802431855052 -5.4910624256538356e-5 0.0
0.0009253212692572458 -0.00014554289838389866 0.0
0.0009453219497380493 -0.00013983076546893433 0.0
0.00030730916316502654 -9.109548372108651e-5 0.0
0.00029017811523763886 -8.50781936859259e-5 0.0
0.0009855071699760819 -3.2834175805259554e-6 0.0
0.0009622285417218244 -5.578672797337446e-6 0.0
0.00028773740428156497 -8.149113028633842e-5 0.0
0.00027262138347833667 -7.907594063163196e-5 0.0
0.00027504129372628457 -8.274604404280031e-5 0.0
0.00025741834928805403 -7.647229642740428e-5 0.0
0.0013156712487829075 -3.179687958454072e-5 0.0
0.0013050574058639883 -4.305022554704442e-5 0.0
0.00040790488882073614 2.323348485464365e-5 0.0
0.0003625626898205374 2.9912951039546317e-5 0.0
0.000919291878863829 -2.1006172960843458e-5 0.0
0.0005707793413333495 -0.00014488458410950105 0.0
0.0009427476218657042 -0.00015157698266336547 0.0
0.0009620902818390267 -0.00014550845757350058 0.0
0.0010408839951811745 -1.629918708740698e-5 0.0
0.0009314761668509617 -0.00012331274870274492 0.0
0.0006619010230084001 -0.00013336399092956 0.0
0.00025443813028721136 -7.309137823039962e-5 0.0
0.00023956551029592361 -7.022052445491701e-5 0.0
0.00024265653503636783 -7.383055080365116e-5 0.0
0.000224566740757027 -6.726232892798142e-5 0.0
0.00022138406356585465 -6.403568863662347e-5 0.0
0.00020576436108576748 -6.067942484923967e-5 0.0
0.00020235821619498816 -5.7687894730719464e-5 0.0
0.00018633079211259615 -5.394716682765234e-5 0.0
0.00018282588227269228 -5.1377783028273e-5 0.0
0.00016753015689498007 -4.7587877415965245e-5 0.0
0.00016358927085105172 -4.531835189232662e-5 0.0
0.00017077454349824004 -5.0106483870566517e-5 0.0
0.0001501329412096097 -4.2856103256234744e-5 0.0
0.00019140009266151558 -4.8543537262299136e-5 0.0
0.00019021604511462606 -4.724712668640274e-5 0.0
0.00015518529924854994 -4.6094504013485376e-5 0.0
0.0001360709911854173 -3.9292833921038536e-5 0.0
0.0004512148133669738 1.2157730171374832e-5 0.0
0.00046943682732883386 -8.557194235608864e-5 0.0
0.0008281165923397531 -0.00010166005495964297 0.0
0.0008490022019532076 -9.617675336483801e-5 0.0
0.0002921759047902828 -6.920655035764013e-5 0.0
0.0005843395936253094 -0.00014985024402810736 0.0
0.0005983836538147718 -0.00014825927382780077 0.0
0.0008667441264338008 -9.880582390593446e-5 0.0
0.0008707753743500562 -9.028008124595729e-5 0.0
0.0013334033576864492 -2.9920608343793327e-5 0.0
0.0013209323817340447 -4.208477056382486e-5 0.0
0.0012928954220587086 -5.882443053206141e-5 0.0
0.0009324458501603778 -1.2997642750923287e-5 0.0
0.0009405867486257789 -8.730996699800483e-6 0.0
0.0005569090988517256 -0.0001400576861602975 0.0
0.0005569978735595526 -0.00014605814255339928 0.0
0.0005430906737762908 -0.00014117052971864596 0.0
0.00022848802594192154 -7.119264689957927e-5 0.0
0.0009690979116982837 -2.1337366889415827e-6 0.0
0.0009484106351637676 -5.187734137477386e-6 0.0
0.0004240048495221626 -8.591221402933827e-5 0.0
0.0009592496974278357 -0.0001575368174495759 0.0
0.0009786477754362395 -0.00015128397356579983 0.0
0.000981981097820902 -0.00013925601542271265 0.0
0.000998419383923952 -0.00014482665419138457 0.0
0.0004232167023969625 4.2033729006749656e-5 0.0
0.00037011520488342166 4.604210738823329e-5 0.0
0.0005434247865617207 -0.00011035501246305336 0.0
0.0009406070189145697 -0.00016346237266837548 0.0
0.001208342093963958 -4.266548464666961e-6 0.0
0.0009950706336038539 -0.00015751752303908275 0.0
0.0010149614042003377 -0.0001509360911401814 0.0
0.0010185417303604086 -0.00013791604853545273 0.0
0.001035146830013452 -0.00014394394835900878 0.0
0.001039373108652714 -0.00013035853910805197 0.0
0.0010553838011068439 -0.00013622213421347703 0.0
0.0010511163845109024 -0.00015038436951242835 0.0
0.0010707836496733534 -0.00014242642903120143 0.0
0.0001400437724977216 -4.18512585597026e-5 0.0
0.00012114542889666522 -3.5037871384512815e-5 0.0
0.00011463147286536586 -3.204864429254556e-5 0.0
0.0005982394665123542 -0.00015508143157491673 0.0
0.000611668458069332 -0.00015376370116060444 0.0
0.0005434466698204502 -0.00014696694680661185 0.0
0.0005294401391967349 -0.00014203763868212004 0.0
0.0013071286753343566 -5.8942706486524616e-5 0.0
0.0013356122915095477 -4.132822886124192e-5 0.0
0.0010378634238317403 -3.12714040976721e-5 0.0
0.0010104063767682075 -2.5234751738418614e-5 0.0
0.00031535184857778005 3.201205787085835e-5 0.0
0.0003240396493266765 4.548986352462826e-5 0.0
0.00015930293173245687 -4.935150387620175e-5 0.0
0.000519301655411811 -9.751909677802582e-5 0.0
0.0009031161644334249 -3.060768780140598e-5 0.0
0.001280317944918742 -7.701986071142032e-5 0.0
0.0004387037362702556 -7.647515501472739e-5 0.0
0.0009118001954933402 -1.7064050181185228e-5 0.0
0.0010660053266689435 -0.00015709732709314768 0.0
0.0010852000349599032 -0.00014888145558216725 0.0
0.0010833721410555576 -1.6634620679638938e-7 0.0
0.0011345381265461247 3.7077915622680165e-6 0.0
0.00042766645289586897 6.248224396904445e-5 0.0
0.0002417240860268174 -6.09165762025307e-5 0.0
0.0001637060702413204 -4.165542497944289e-5 0.0
0.00016253247279882188 -4.049890213476489e-5 0.0
0.0002457591844086031 -7.797547454961615e-5 0.0
0.001012856616636301 -0.00016440112087239318 0.0
0.0008148222685251329 -7.299455106759855e-5 0.0
0.0007348075452968828 -0.0001403114225046748 0.0
0.0004964095495604241 -0.00011259847309672813 0.0
0.00012510245972316452 -3.771017497880211e-5 0.0
0.0001065698000178993 -3.0918041742769036e-5 0.0
0.00032418817436634574 -9.713514000006154e-5 0.0
0.000889211807039579 -9.2811842985171e-5 0.0
0.0008934967401902846 -8.402095769375164e-5 0.0
0.0005567720486892083 -0.00015207906754194863 0.0
0.0011032538379920991 4.7916601813942325e-6 0.0
0.0011484668068226349 6.84521935369655e-6 0.0
0.0011193186746146818 7.188786779856802e-6 0.0
0.001164122679112016 8.416802668774866e-6 0.0
0.0011940985264683123 8.240577518128225e-6 0.0
0.0012102494058219195 9.075696172504224e-6 0.0
0.001179977877470718 8.783110255877962e-6 0.0
0.0012253867356225832 8.915319188001332e-6 0.0
0.0011953485019285772 8.076050716151683e-6 0.0
0.0012405033713783183 8.013540191131358e-6 0.0
0.00121106821549086 6.456525960449384e-6 0.0
0.0012549562291637381 6.479055919340342e-6 0.0
0.001226043263717111 4.230932609592389e-6 0.0
0.0012690306292305604 4.489877021909236e-6 0.0
0.0011816231314823722 3.6172198264809474e-6 0.0
0.0012405889800831537 1.5578220912531027e-6 0.0
0.001281615492857905 2.020579204386808e-6 0.0
0.0012422118658731555 8.851854985351086e-6 0.0
0.00031855327693166636 -8.574332101109686e-5 0.0
0.0003099061316491429 -9.547616567818511e-5 0.0
0.00032613882215492987 -0.0001016707064763842 0.0
0.0012547970043959998 -1.3916344511755074e-6 0.0
0.001294276111179774 -6.165105123455627e-7 0.0
0.0012166535503176786 -2.2898551378817398e-6 0.0
0.0007485946608222165 -0.00014466281678380652 0.0
0.0007331830069234517 -0.00014843572429957785 0.0
0.0007467862188206327 -0.00015312461508225906 0.0
0.0007318926130462098 -0.0001568977958268872 0.0
0.0007451981714999058 -0.0001619279388009655 0.0
0.0007309443727938366 -0.00016575221471018664 0.0
0.0007177067825004437 -0.00016058618585125618 0.0
0.0007170519303027642 -0.0001694034123151191 0.0
0.0007042530246577515 -0.00016404993685172604 0.0
0.0008039284992262473 -5.854592703196118e-5 0.0
0.0007439451038630099 -0.00017122776935952943 0.0
0.0007582589904614838 -0.00016717104856667176 0.0
0.0006677260213185922 -7.991079859427487e-5 0.0
0.0006375128028597073 -0.00010943668543247838 0.0
0.0006540113757126424 -0.00010706484922342914 0.0
0.0006395561746866389 -0.00010474944502492209 0.0
0.000656296037250939 -0.00010233477105762869 0.0
0.000641841698305425 -0.00010038761110688474 0.0
0.0006588106357403732 -9.793946068049e-5 0.0
0.0006731969890327942 -9.970672941347904e-5 0.0
0.0006759335751436343 -9.526830688920599e-5 0.0
0.000690287914579557 -9.68452533532738e-5 0.0
0.0006932331566629489 -9.23357783428758e-5 0.0
0.0007069175989813138 -9.373609098252158e-5 0.0
0.0006790355812162157 -9.10123936944409e-5 0.0
0.0006443828330022044 -9.635204080981393e-5 0.0
0.0006272108653580835 -9.863201123574819e-5 0.0
0.0007039171138862952 -9.871041115920668e-5 0.0
0.0007214214250065113 -9.505325040967948e-5 0.0
0.0003125026544230462 -0.0001002734333787476 0.0
0.0007077440368416715 -6.809282426881423e-5 0.0
0.000773252793493451 -6.602762934841345e-5 0.0
0.0007406428426896021 -0.00011791378290245354 0.0
0.0013432464003998398 -2.2604109853327853e-5 0.0
0.0013608654025243925 -2.041602384143105e-5 0.0
0.000804704727989843 -5.152114081836692e-5 0.0
0.0007764323657990926 -5.412989693726457e-5 0.0
0.0010224463200261317 -0.00012480026977942235 0.0
0.0008802741095524398 -5.6442732976846596e-5 0.0
0.0013220402889033583 -5.831184775296756e-5 0.0
0.0013499732011620124 -4.057260184526722e-5 0.0
0.0007497254729004032 -6.0727518278531044e-5 0.0
0.0005299209187782774 -0.00014759561194546244 0.0
0.0005162399033439774 -0.00014270335696625768 0.0
0.0008414433839070961 -4.7313568493463404e-5 0.0
0.0007036672234537006 -0.0001728436187209557 0.0
0.0006908018031405052 -0.00016691785852343492 0.0
0.0005159199324545439 -0.00013723325075347303 0.0
0.0005028242724892521 -0.0001378713160549189 0.0
0.0005025521473834899 -0.0001325310391065533 0.0
0.0004895454073018643 -0.00013308014550106619 0.0
0.0004901202052768589 -0.00013836253926498187 0.0
0.0004769156156612167 -0.00013350419106334283 0.0
0.0004776452854094753 -0.00013871607723997512 0.0
0.0004643095350557177 -0.00013377743017219796 0.0
0.00023254294074968288 -7.568407336563277e-5 0.0
0.0013702554046187744 -1.5444107806545825e-5 0.0
0.0009749030638080461 -6.07531256088027e-7 0.0
0.0009541414762196964 -3.3979727486089097e-6 0.0
0.0004685988631621618 -9.608931058916629e-5 0.0
0.0003850444134511482 -9.56769476561796e-5 0.0
0.0013082217680535147 4.1492370569995495e-6 0.0
0.001286202047236926 7.4451997899678e-6 0.0
0.0006114670615092095 -0.00016069265705432912 0.0
0.0006252263877959811 -0.00015928767352188568 0.0
0.0009565510611550004 -0.0001695675660284478 0.0
0.0002194302710951859 -6.139722449717052e-5 0.0
0.0008128271002961907 -5.8669318331466564e-5 0.0
0.0009295867980327776 -8.90198982087652e-6 0.0
0.0009363912027482074 -7.350603745159436e-6 0.0
0.0010444593606191769 -0.00011658420500887768 0.0
0.0010745466326610906 -3.793528342530013e-5 0.0
0.0010908982852940517 -0.00013353019001168228 0.0
0.0011056119647208653 -0.0001394258695988854 0.0
0.0010990867321689767 -0.0001556366190252576 0.0
0.0011197408354557496 -0.00014580960152544363 0.0
0.0006668778894668431 -7.617630337775594e-5 0.0
0.0002488080368626836 -8.254611017240355e-5 0.0
0.0007091898597763854 -8.913976236088754e-5 0.0
0.0011512630532335604 7.589041933632556e-6 0.0
0.0006148079204674992 -0.00014702294552072334 0.0
0.0003279572711236122 -0.00010661919367067646 0.0
0.0003415053803472022 -0.0001078321118404984 0.0
0.0009386078544991558 -0.00017533612663441417 0.0
0.00048907517244079 -0.00012793365470623388 0.0
0.000831849965794291 -9.394785957716432e-5 0.0
0.0008115464945914516 -9.921572765282251e-5 0.0
0.0013361845884248783 -5.844852452795525e-5 0.0
0.0013650174521673258 -3.958356967232967e-5 0.0
0.0013778969594805273 -2.5758219086327645e-5 0.0
0.00048104284357964434 6.0176008394433465e-5 0.0
0.00011052210563631634 -3.3488453588360484e-5 0.0
9.209426312050846e-5 -2.664048061356406e-5 0.0
8.997957641583936e-5 -2.5162250167225928e-5 0.0
0.001012614720366241 -4.307661867992385e-5 0.0
0.0010389923474173357 -4.831047274641103e-5 0.0
0.0009867141860221194 -3.5465510330901175e-5 0.0
0.0010105643586365619 -1.4999324965760065e-6 0.0
0.0012688204236989008 -4.325096245190796e-6 0.0
0.0013079821919824643 -3.191829341469172e-6 0.0
0.00051685253035046 -0.00014801977907460726 0.0
0.0009812967095031591 -1.9509582676538487e-5 0.0
0.0002679673792087261 3.068678827602078e-5 0.0
0.00027515964340133544 4.0552969370186105e-5 0.0
0.00033837673563910105 5.836803718668582e-5 0.0
0.000284772279948165 4.831831177432744e-5 0.0
0.0003775289806910091 7.685088164887542e-5 0.0
0.0006901261585960519 -0.00015822357157521628 0.0
0.0004632678163402133 -0.00012864025451285604 0.0
0.0004506578288028562 -0.000128794406016096 0.0
0.00045173801067744843 -0.00013389248519465955 0.0
0.00043794037525865054 -0.00012880223108483136 0.0
0.0011265138682886255 -0.00012890511891867988 0.0
0.001140512769629144 -0.00013486938111460008 0.0
0.001133277299971554 -0.00015218788048102075 0.0
0.0011534726104936825 -0.00014056578571676798 0.0
0.0008749062957027655 -8.203813771924293e-5 0.0
0.0008980360957216335 -7.564516443632877e-5 0.0
0.0007570467813321824 -0.0001768775071899059 0.0
0.0007713779846470554 -0.0001725983708551016 0.0
0.0006298557142422278 -9.491046250942994e-5 0.0
0.0006124154028775231 -9.702719883281747e-5 0.0
0.0005965471774603419 -0.00016180864003637472 0.0
0.00043910544217851263 -0.00013385671985942794 0.0
0.0004253381853134268 -0.00012871835168546436 0.0
0.0012663307200516695 -7.663326415888399e-5 0.0
0.001254183084692313 -9.536267182285714e-5 0.0
0.0012411332678130137 -9.453997171477578e-5 0.0
0.0012318336531774471 -0.00011161390935570543 0.0
0.0006251538912017095 -0.0001671058740158397 0.0
0.00012733395047519812 -4.032329632456216e-5 0.0
0.00018025035712095636 -4.9408010591154024e-5 0.0
0.00015846257336810362 -4.296954551764656e-5 0.0
0.000134707552376904 -3.435487720157754e-5 0.0
0.0001316345554288192 -3.290993633641399e-5 0.0
0.00016134988141476824 -3.902169593968495e-5 0.0
0.00012887416500074388 -3.10958512129023e-5 0.0
0.00015973754958591792 -3.690008572815039e-5 0.0
0.00012583964655974914 -2.8655374031969584e-5 0.0
0.00015825173329109686 -3.392135035348503e-5 0.0
0.0012677134715705475 -9.634904959761666e-5 0.0
0.0004362504264817496 -0.0001238474627120398 0.0
0.0010271355987878773 -0.0001119350470060282 0.0
0.0009221700725480103 -0.000168654552785352 0.0
0.0009207644685201937 -0.00018089100749793595 0.0
0.0009042783864346235 -0.0001742821661775732 0.0
0.0006906446186941114 -0.00017587304635288887 0.0
0.0009926025117342895 1.1970697512864513e-6 0.0
0.0011456020463289003 -0.00015801667752578753 0.0
0.0013941301808862454 -2.3508118168144617e-5 0.0
0.0013798563538429838 -3.783564669647548e-5 0.0
0.0004884607475632271 8.15484941924144e-5 0.0
0.0009739067830587414 -1.8063093805390028e-6 0.0
0.00072637895360272 -0.0001148880086078151 0.0
0.0007427964391913681 -0.00011121941014352015 0.0
0.0007170311107043741 -0.00017888948691943481 0.0
0.0006776569687935561 -0.0001696818788193513 0.0
0.00035019298574778915 -7.68180673693172e-5 0.0
0.0013326383349903572 -1.099697708410451e-7 0.0
0.0013457575477912847 -2.202083457752634e-6 0.0
0.0013204266554453041 -5.7327234227253895e-6 0.0
0.0013569634150735867 -4.394897499402185e-6 0.0
0.0010764135387097329 -7.317189860679016e-5 0.0
0.0007957331728342499 -0.00014095876949142666 0.0
0.00081520423690132 -9.203247351630421e-5 0.0
0.0006173835009163967 -0.00012761383174774853 0.0
0.0008730683440676069 -4.566739969727503e-5 0.0
0.0009123950775745059 -8.650779599314298e-5 0.0
0.0009140620220188039 -0.00011906115426194986 0.0
0.0009353814350830513 -0.00011270008750284239 0.0
0.0010179063854775844 -6.36890755170818e-5 0.0
0.0010469618161263754 -6.499538615533596e-5 0.0
0.0003430381073201932 -0.00011297335169873752 0.0
0.0003558721666645909 -0.00011382538369300729 0.0
0.000122689681683082 -2.5375469118275405e-5 0.0
0.00015529735706890498 -2.954693759676942e-5 0.0
0.0001917651942316964 -3.842128938349579e-5 0.0
0.00019005704629019503 -3.2880483891238457e-5 0.0
0.00015310365895305288 -2.402244466072116e-5 0.0
0.0001895759760400688 -2.585057909752833e-5 0.0
0.00015180995867182707 -1.7346702025447333e-5 0.0
0.00019046166312294675 -1.7361234600992636e-5 0.0
0.00015118778557136935 -9.885926046887254e-6 0.0
9.620825368835615e-5 -2.9301713304389753e-5 0.0
0.0007954232558071652 -9.704714683867292e-5 0.0
7.812814295652827e-5 -2.2509383873849897e-5 0.0
0.00031500858569122515 -0.00010550956674277307 0.0
0.0013892085073642438 -1.3124063617075875e-5 0.0
0.0006683289166453001 -0.00010959456816377675 0.0
0.0009136398147614529 -1.4109099716129144e-5 0.0
0.0009232063606610282 -1.2190933831363846e-5 0.0
0.00019173066734899904 -7.79557760257996e-6 0.0
0.00023631481113006397 -8.063099467833599e-5 0.0
0.00022017585583059435 -7.35366680926355e-5 0.0
0.00045288374897927016 -0.000139918596508854 0.0
0.0009524112118940888 -0.00018197780645924858 0.0
0.0005304293967819545 -0.0001528521088096036 0.0
0.0011654477811265881 -0.00014561571104071416 0.0
0.0014057889335707255 -1.5021354028216408e-5 0.0
0.0006099342755389233 -0.00010074706388053862 0.0
0.0005950494912723321 -9.893580189075656e-5 0.0
0.000592666877268104 -0.00010266077829980864 0.0
0.000538980112845919 7.799101017535855e-5 0.0
0.0005785243761519104 -0.00010062801595139386 0.0
0.0001399014027308713 -3.6189290647492234e-5 0.0
0.0007701878862759089 -0.000182930499865684 0.0
0.0007849717730460112 -0.00017839979052757828 0.0
0.0007863877871645918 -0.00016818540347294562 0.0
0.0008003221797775749 -0.00017377082455075825 0.0
0.000953048028832063 -0.00011702254546893992 0.0
0.0009574464218466923 -0.00010580119232375783 0.0
0.0013976194575119007 -9.746037774239907e-6 0.0
0.0013777449607167544 -1.159022515116715e-5 0.0
0.0009461657684790323 -8.39572224641449e-6 0.0
0.0009318905928229473 -1.4665520117553555e-5 0.0
0.0002997411481573928 -9.897288793157699e-5 0.0
0.00042658614002517544 -0.00013387482567446519 0.0
0.00041294176651716496 -0.00012863737544310623 0.0
0.0007134694903446723 -7.369219061684802e-5 0.0
0.0011271934729841036 -0.0001686999994597363 0.0
0.00015231121136281934 -2.3102772110933623e-6 0.0
0.00041131394505662395 -0.00012346746516362047 0.0
0.0007988987855773246 -0.00018461857414132007 0.0
0.0008146690610883709 -0.0001797529739623513 0.0
0.0007987433557142378 -9.049038757306924e-5 0.0
0.0007797665947697816 -9.508437856382067e-5 0.0
0.0007830387537919916 -8.902174011054213e-5 0.0
0.0007538150677181598 -6.336477200918374e-5 0.0
0.0001394663854417185 -3.8096664213515246e-5 0.0
8.215034455938674e-5 -2.524256142520655e-5 0.0
0.0008021951907899159 -0.00016363436902775972 0.0
0.0008318500037504117 -7.370397335376458e-5 0.0
0.0006778262425404844 -0.00017866931012064846 0.0
0.00032120022979917616 -6.749698680507012e-5 0.0
0.000530839613627423 -8.852619473818929e-5 0.0
0.0002519153638062483 -8.785278977306986e-5 0.0
0.0011746978841251613 -0.00012778210163432937 0.0
0.0003355862013482961 -8.787008299902826e-5 0.0
0.00031695173250417276 -8.265502914415768e-5 0.0
0.00033559903484661096 -8.4985229284921e-5 0.0
0.00031615767768328255 -7.995747934947573e-5 0.0
0.0003354567631230911 -8.23997959399262e-5 0.0
0.00029710789801409073 -7.730356725321535e-5 0.0
0.0009029305404677784 -0.00018647416735218238 0.0
0.0008876461585994733 -0.0001799606769644405 0.0
0.00021540735013502246 2.516474221240484e-5 0.0
0.0006911109778382204 -0.000185283685432344 0.0
0.000675940850169941 -0.00013759445179014563 0.0
0.0006608894259057052 -0.00014016198443113627 0.0
0.0003576099026871638 -0.00011925167039518358 0.0
0.00010973242627280888 -2.8348656643067574e-5 0.0
0.00011706912411529115 -3.0681379749104104e-5 0.0
0.001284327008439451 -2.570146470420219e-5 0.0
0.0013131068972829492 -1.872650338408799e-5 0.0
0.00022693091949125608 -4.20923446092472e-5 0.0
0.00037012958686807336 -0.00011975091584935374 0.0
0.00036925006898794763 -0.000114936813557844 0.0
0.0003718507890680975 -0.00012540787600060003 0.0
0.0003453023062321248 -0.0001186863635622442 0.0
0.00031140766613188276 5.984879727376696e-5 0.0
0.0005428856243077857 -0.00013546709087386609 0.0
0.0007920648234622787 -0.00010413204226924981 0.0
0.001289399632054126 -1.9188972160339473e-5 0.0
0.0007561632876226244 -0.00018739913495138995 0.0
0.0005172790242256209 -0.00015297604308551116 0.0
0.0014090783254936622 -2.11909894772303e-5 0.0
0.0013941871567010068 -3.6600236956549273e-5 0.0
0.0005349863475680312 5.4419448168143766e-5 0.0
0.0004145644379455897 -0.00013417534824895506 0.0
0.0008792349742524594 -7.388659526161272e-5 0.0
0.0009043346486691717 -6.725732449189213e-5 0.0
0.0001776595291303654 -4.762732507837354e-5 0.0
0.00022417488075391907 -7.854089713078572e-5 0.0
0.00020838667798200652 -7.140671227478505e-5 0.0
0.0002040282370640487 -6.665836321062026e-5 0.0
0.0003024920809039508 -0.00010442880073747044 0.0
6.43771448729893e-5 -1.8508905255248715e-5 0.0
6.119285930179058e-5 -1.6730371696026853e-5 0.0
0.0008131951339752983 -0.00019121490922912636 0.0
0.0008292250253821447 -0.0001861062968120169 0.0
0.0008302202019335314 -0.00017425686102495215 0.0
0.0011485312052658056 -0.00011717781621606226 0.0
0.0011336582901198473 -0.00011178123899011186 0.0
0.0011383869673833994 -0.00017464217626984114 0.0
0.0002959132592213105 -7.481685569775776e-5 0.0
0.0002770701516373552 -7.200805580976854e-5 0.0
0.0009229848216129068 -6.875814202398641e-5 0.0
0.0013813125854366904 -1.4331195032950207e-6 0.0
0.0013913813628662706 -3.1813984023243692e-6 0.0
0.0014024016251122805 -7.4005657829093836e-6 0.0
0.0013596553710170328 -6.128886735950856e-5 0.0
9.993312358127712e-5 -3.273840273414899e-5 0.0
0.0009029848426243939 -2.071395597889518e-5 0.0
0.0008842204187845706 -2.5108625523945803e-5 0.0
0.0008751334329638837 -2.852883724049272e-5 0.0
0.0008568675129033503 -3.301686236593232e-5 0.0
0.0008487023433219374 -3.568378290329041e-5 0.0
0.0008645613700252036 -3.056006505620535e-5 0.0
0.0007286343946324013 -0.00010859369729224294 0.0
0.0006151114962053215 -9.36507984924675e-5 0.0
0.0006328109884344651 -9.15222599165815e-5 0.0
0.000212462408671904 -7.648867825248002e-5 0.0
0.0001967316103635561 -6.909802924508635e-5 0.0
0.0012245033712024191 7.66791477184749e-6 0.0
0.0012752322035946898 8.459834861436744e-6 0.0
0.0012940655647035802 8.613695297257703e-6 0.0
0.0013277463345971552 8.167177727836954e-6 0.0
0.0013167425284634664 7.426668499966453e-6 0.0
0.00066511680817491 -0.00017255979968393496 0.0
0.000664844545013378 -0.00016438298080423159 0.0
0.0006651316595018585 -0.00018122964089574124 0.0
0.0008999182558048864 -2.065765553743024e-5 0.0
0.000888890996378823 -2.3678745038029235e-5 0.0
0.00022927936501884107 -4.723483900887982e-5 0.0
0.0001106923393727493 -4.86103972793715e-6 0.0
0.0008853941115635255 -0.00019212440003358024 0.0
0.00026283573316711925 2.0714361677977774e-5 0.0
0.0008849834486212311 -0.00010181704930353481 0.0
0.0008701718958706614 -3.084928258123243e-5 0.0
0.0008410626110627222 -3.8192209553927585e-5 0.0
0.0008583498844364553 -3.480850942619597e-5 0.0
0.0008336100561929646 -4.0889911060612254e-5 0.0
0.0008502470687577881 -3.8134875578020086e-5 0.0
0.00082650619973223 -4.3960258190950024e-5 0.0
0.0008429999334344456 -4.168227619971255e-5 0.0
0.0008198123566340103 -4.731016753228879e-5 0.0
0.0008369613774478764 -4.530410224103992e-5 0.0
0.0008163743121054548 -4.426737737954219e-5 0.0
0.0008033909721932605 -4.955758713564196e-5 0.0
0.0009189790442779372 -0.00019342648050455234 0.0
0.0014219374348348323 -6.9606262267495835e-6 0.0
0.0005025726013527969 -0.00012739550811112802 0.0
0.0004885511617736677 -0.00012311679360121392 0.0
0.001308427795358445 -7.826290532377026e-5 0.0
0.0005814984161966219 -9.771961187069456e-5 0.0
0.0008319397917082753 -3.988179464169838e-5 0.0
0.0004059797708087249 0.00010062187053662911 0.0
0.00010034390565328044 -2.512908775276145e-5 0.0
0.0005971427423646277 7.221057217563114e-5 0.0
0.0005848422656144473 4.580792202663509e-5 0.0
0.0010600834261528355 2.7133135856906596e-6 0.0
0.0013217815670383344 -7.909306026941623e-5 0.0
0.0012959563434303235 -9.967265690624731e-5 0.0
0.0005757763058375445 -0.00010430498492371305 0.0
0.0005632837355417429 -0.00010158856469962742 0.0
0.00026506091214381514 -8.584558333823549e-5 0.0
6.833432030933738e-5 -2.1211136470591322e-5 0.0
8.469036327062752e-5 -2.200718222510919e-5 0.0
8.831049609925338e-5 -2.3217648081621532e-5 0.0
5.071377138581245e-5 -1.459510704065657e-5 0.0
0.000939330219297144 -0.00010218983833733664 0.0
0.0009621490902640671 -9.504006517873554e-5 0.0
0.0009807509782044698 -9.853458925619007e-5 0.0
0.0009856041989737155 -8.710246482574209e-5 0.0
0.0007974103427578347 -5.2568285599628564e-5 0.0
0.00046599619359025335 0.0001151858301497291 0.0
0.0005631069827589862 0.00010084708502573674 0.0
0.0007645046008430646 -9.331088730754971e-5 0.0
0.0007680220493145385 -8.754241902512907e-5 0.0
0.0006183505393065122 -9.075146924767915e-5 0.0
0.0005412371462500283 -9.386197892082179e-5 0.0
0.0005310843583163911 -0.00015769685441333989 0.0
0.0010476212864178002 -0.00016455008265439216 0.0
0.0010618474725680946 -0.00017164914328278511 0.0
0.0010446706488677789 -0.00017851357417759595 0.0
0.0010586013612424556 -0.00018592941007474677 0.0
0.001042021454834706 -0.00019239659611274335 0.0
0.0010276805772210303 -0.00018521215593592279 0.0
0.000991451204500459 -0.00017232159521864251 0.0
0.0008870548316595073 -0.00016761912893676598 0.0
0.000986012698791424 -1.8098156532521942e-5 0.0
0.0007196265342454315 -0.00014394112682003708 0.0
0.0002293811408521667 -2.652400724078545e-5 0.0
0.0013775105980016707 -5.71713107595431e-5 0.0
0.001407757301401365 -3.5342726171071484e-5 0.0
0.001075069654740332 -0.00017906783509295742 0.0
0.001072201923140441 -0.0001934991451134238 0.0
0.0010879348160257399 -0.00018697245658034394 0.0
0.0005440456072802598 -0.00015772532068182327 0.0
0.0006468003591612636 -0.00013579685691369296 0.0
0.0006462729381716432 -0.00014242217231168438 0.0
0.0006601393172029996 -0.00014728996648010156 0.0
0.0004657424070880772 -0.00010992429274226963 0.0
0.0006320653708190662 -0.00013791685469921114 0.0
0.0007883226039430341 -0.00015879983297400628 0.0
0.0011579306382602053 -9.875211778303702e-5 0.0
0.0011863822954443432 -0.0001318854823314494 0.0
0.0011764354511369592 -0.00015060371556770624 0.0
0.0012000934464934658 -0.00011174988502107253 0.0
0.00019558801027718938 -4.531826480802439e-5 0.0
0.0004908216411056849 -0.00014355919540219982 0.0
0.00047863129613075987 -0.0001438635346922991 0.0
0.0004913926058305375 -0.00014852917004943618 0.0
0.0004796396085511725 -0.00014906300033685994 0.0
0.0010042869114717922 -9.011253224389262e-5 0.0
0.0003178034698777017 -0.00011123987346492702 0.0
0.0002879842646968272 -9.78842380659318e-5 0.0
0.0013665157814617955 -6.7849885224496575e-6 0.0
9.180413984040198e-5 -2.041887740099924e-5 0.0
8.883038096925994e-5 -1.7520618846243874e-5 0.0
0.0008690873356054424 -0.000183781494593615 0.0
0.0008697683392391943 -0.00019757794435149899 0.0
0.0007120098552241355 -0.00011203980961816486 0.0
0.0013473089122543003 7.5127551050589505e-6 0.0
0.00029058564651249355 -0.00010334540872531985 0.0
0.001138032418350569 -5.6383352682503e-5 0.0
0.0012511083366294588 -7.626312725762777e-5 0.0
0.0013026182940608488 -6.8609346498024e-6 0.0
0.0013091151200525124 -2.514187657107297e-6 0.0
0.0009672850319708784 -8.462995403832529e-5 0.0
0.001050469517215071 -0.00010333273553323118 0.0
0.001067536350235397 -0.00010765734470460754 0.0
0.0010362612259003441 -8.290449617968145e-5 0.0
0.0010638721273831904 -8.174720343507186e-5 0.0
0.0010740393778420727 -6.271965562145007e-5 0.0
0.0007974198717790969 -0.000196258054328332 0.0
0.0004271532621358197 -0.00013933693351408756 0.0
0.00062296122732116 -0.00010701143794781097 0.0
0.000856494816456493 -8.059325026815226e-5 0.0
0.0007566899978295083 -0.0001138180170725135 0.0
0.0007691642889963254 -0.0001941510334640403 0.0
0.00038368990087101347 -0.00012560580636676791 0.0
0.0004752615616575125 -0.00012338178919788338 0.0
0.00021959933964332728 -5.672894325685867e-5 0.0
0.0013722123996934266 6.753801381111203e-6 0.0
0.0010054501473429466 -0.00012018146428958098 0.0
0.00015473005697381483 -4.1220096125030273e-5 0.0
0.0004931514128379975 0.00014202196285560036 0.0
0.000762228592936603 -0.00014920421503253033 0.0
0.0010250897607162457 -0.00019883203910295812 0.0
0.0010098069508574633 -0.00019160878720552368 0.0
0.0008759528990870502 -0.00012048005470289799 0.0
0.0009280528853608791 -6.057659482326693e-5 0.0
0.0004492271946190324 -9.862752395796775e-5 0.0
0.0006456818856582727 -0.00015060473350674434 0.0
0.0008529706409918785 -6.837569051601269e-5 0.0
0.0004746254588530698 -0.00011877398051620313 0.0
0.000460884762888666 -0.00011879705165938187 0.0
0.0003853154734926019 -0.00013138544902390086 0.0
0.0002639607941621791 -5.108996638974908e-5 0.0
0.0002636058447734513 -4.534592305683029e-5 0.0
0.00011312071742032042 5.242904679292054e-7 0.0
0.00015798653290450575 5.311426393713628e-6 0.0
0.0011215244149262223 -0.00018472651641720988 0.0
0.00019913053443412567 -5.377771669842683e-5 0.0
0.00027860402965780215 -7.451092937913954e-5 0.0
0.00025847305338044666 -6.890728612472843e-5 0.0
0.0011855683039236943 -0.00010904168033179883 0.0
0.0006009124972966854 -0.00013550721372300868 0.0
0.0007451838644347936 -0.00010460259846819088 0.0
0.0009618445408284856 -2.3952033306564856e-5 0.0
0.0009697145845825059 -4.452678037913748e-5 0.0
0.0009488154934705587 -3.420800211734978e-5 0.0
0.0009582036738078623 -5.5467331330229924e-5 0.0
0.0009793188799258924 -6.482606709163354e-5 0.0
0.0010181944089580307 1.9642151010154645e-6 0.0
0.0010437647275274072 2.9697010831484276e-6 0.0
0.001052637195316819 5.183516347928659e-6 0.0
0.0010779167659855393 5.901703113155434e-6 0.0
0.0010691722566742784 3.3116574580252107e-6 0.0
7.999209512110784e-5 -2.0580985299824683e-5 0.0
0.0010102549177120079 -7.884581276221302e-5 0.0
0.00022016853589234056 3.233063511018087e-5 0.0
0.0002506023885161226 4.326935622525823e-5 0.0
0.0008276481186112441 -0.0001979620752580843 0.0
5.7607170763302e-5 -1.222039561603038e-5 0.0
0.0011249916279596223 -3.076156706424846e-5 0.0
0.001155807592906035 -2.3519128717560715e-5 0.0
0.0011333903533904733 -2.230589309756974e-5 0.0
0.0011813959194490057 -2.3852259919522904e-5 0.0
0.0011873925287287574 -1.7018205003533157e-5 0.0
0.0012139666090040546 -1.7570346610809688e-5 0.0
0.00035509722320635695 -8.712111054436105e-5 0.0
0.00035593486904911975 -8.473120129288817e-5 0.0
0.00033516645859308215 -8.007895932649684e-5 0.0
0.00035647688580011413 -8.25515674475113e-5 0.0
0.0003771061797756582 -8.68371051489151e-5 0.0
0.00037808920998490497 -8.471722946790192e-5 0.0
0.0003981756445212054 -8.858616823913833e-5 0.0
0.00041621278896701206 -0.00013976533223445265 0.0
0.00039955586119112113 -8.642852287669075e-5 0.0
0.00041918972728850724 -8.997137519015181e-5 0.0
0.00011587651700782224 -1.6262851895514707e-5 0.0
0.0002645332260992557 -5.525785534700917e-5 0.0
0.0004169847738683321 -9.225906265540895e-5 0.0
0.00033725588046747384 -7.849141357601246e-5 0.0
0.0011420823266677337 -9.447837016747061e-5 0.0
0.0011185059265015065 -0.00010719539003945857 0.0
0.0006524621211954007 -0.00017530031371659 0.0
0.0006523097480076344 -0.0001837908817218651 0.0
0.0009375815457457483 -4.1592240236243155e-5 0.0
0.0005372746205079084 3.173204589656502e-5 0.0
0.000583707624081889 2.1158028588066006e-5 0.0
0.0006289223544750774 3.32516313297406e-5 0.0
0.0006281988671772748 6.906755772234484e-6 0.0
0.0005876670455291788 -2.748589282756138e-6 0.0
0.0006315855889527196 -1.9653206924903884e-5 0.0
0.0005939058181365109 -2.553677887918511e-5 0.0
0.0006372600264487459 -4.232658418308673e-5 0.0
0.0006002322011878607 -4.4268013182648214e-5 0.0
0.0006479244190968973 -5.8683168348025055e-5 0.0
0.0006044177312375194 -5.751909919532379e-5 0.0
0.0006417327919364944 -6.668140199482514e-5 0.0
0.0006052253074572605 -6.596079271128207e-5 0.0
0.0006392315171076842 -7.200356004370361e-5 0.0
0.0006065183455656294 -7.194598140362074e-5 0.0
0.0006368375920393302 -7.530897036269337e-5 0.0
0.0006054318664111411 -7.552051749137597e-5 0.0
0.0006324624822509504 -7.703911880466907e-5 0.0
0.0006034097644534752 -7.763441572473778e-5 0.0
0.0006282624072597342 -7.80690110190551e-5 0.0
0.0006005955994513222 -7.897487085415824e-5 0.0
0.0006235642055426638 -7.867730997703432e-5 0.0
0.0005966876813686808 -7.989051075001762e-5 0.0
0.0006189013540737673 -7.919810717229282e-5 0.0
0.0005926376445831045 -8.071338654094714e-5 0.0
0.0005698018310589612 -8.068682890930664e-5 0.0
0.0005664773635064167 -8.171439187272578e-5 0.0
0.0006155689389146215 -7.974472513275678e-5 0.0
0.000576482745120302 -7.540553752989287e-5 0.0
0.0006446514005772488 -7.731770373619264e-5 0.0
0.0006578444113124927 -7.66230118180875e-5 0.0
0.0005595089039857169 -2.9904796441987038e-5 0.0
0.0006683258541078396 -7.453921858912714e-5 0.0
0.0005425889585034328 -8.10510563828045e-5 0.0
0.0005403661743095361 -8.23126728176647e-5 0.0
0.0005631588789559429 -8.266587013301018e-5 0.0
0.0005380235597988942 -8.345072540533943e-5 0.0
0.0005721992566415789 -6.557700515698191e-5 0.0
0.000681116629369008 -6.818766301140107e-5 0.0
0.0005451481720535105 -7.953011053142702e-5 0.0
0.0006771271140494307 -3.8960850269083284e-5 0.0
0.000560070115052076 -8.367600110565553e-5 0.0
0.0005355903888555528 -8.461775017557213e-5 0.0
0.0005131200942528989 -8.384101728352739e-5 0.0
0.0005163199952119486 -7.930139135088672e-5 0.0
0.0005169625319857896 -7.685607394258054e-5 0.0
0.0005846311778774948 -8.231712256723314e-5 0.0
0.0005806062572645825 -8.339529326436651e-5 0.0
0.0006038372271308541 -8.160882665782234e-5 0.0
0.0006727737667260884 1.5034530074136322e-5 0.0
0.0006815887491872021 3.8967677137811705e-5 0.0
0.0005120234083398236 -8.512561312594338e-5 0.0
0.0004885649323840983 -8.380998727500296e-5 0.0
0.000489668133017049 -8.242688705980284e-5 0.0
0.00046334634802312736 -8.178154799913786e-5 0.0
0.0007555724897694193 -0.00019877439673721662 0.0
0.0007429914487862687 -0.00019177079109218703 0.0
0.0013084324153477024 -0.00010111058946055074 0.0
0.0008042618088638296 -0.00015412104351201567 0.0
0.0008188368670705115 -0.00015905030965536392 0.0
0.0005005069331890401 -0.00012227557491461792 0.0
0.000514749359332041 -0.00012633856762376975 0.0
0.0011668182939767575 2.3109817309488844e-6 0.0
0.0008188247959491421 -8.508183219954965e-5 0.0
0.0005339411513904471 -8.586369418641175e-5 0.0
0.00039732356622520896 -0.00012295430213386777 0.0
0.0003970499995365161 -0.00011821841706108924 0.0
0.00040986593517366814 -0.00011867857278721465 0.0
0.0009090125782842843 -5.966392161188837e-5 0.0
0.0008724409760240895 -3.27789342719392e-5 0.0
0.0005909509503184547 -0.00010668199385745927 0.0
0.0005744616832856839 -0.00010836590762265757 0.0
0.0008746663630626682 -3.12668899733765e-5 0.0
0.0008639508925821919 -3.380325701724985e-5 0.0
0.0008770741239861522 -2.7740404122916296e-5 0.0
0.0008513551756770936 -3.681258408350142e-5 0.0
0.0008863233649396612 -2.8722875830701584e-5 0.0
0.000859734432780861 -3.986676583911939e-5 0.0
0.0008543971444447392 -4.364591152247386e-5 0.0
0.0008295375085974351 -4.9430039595034695e-5 0.0
0.0006362232323466404 -8.846071140575373e-5 0.0
0.0006506173673486552 -8.909477791474155e-5 0.0
0.0006542395496887526 -8.600567495746671e-5 0.0
0.0006682707199236356 -8.641824922722043e-5 0.0
0.0006719303902711253 -8.334169995364626e-5 0.0
0.0006858353909020231 -8.35703405371019e-5 0.0
0.0006896777260437157 -8.038927022051013e-5 0.0
0.0007042031759373226 -8.034582592689238e-5 0.0
0.000700007010529449 -8.400444660612597e-5 0.0
0.0007190949112978447 -8.006070506736898e-5 0.0
0.0007874106156863124 -8.332764132976982e-5 0.0
0.0007717154236257649 -8.225678167736614e-5 0.0
0.0007531508898803418 -8.63916259389924e-5 0.0
0.0007566412613892577 -8.15043797188196e-5 0.0
0.00017484456256616025 -4.600507315686385e-5 0.0
0.00020138043787668592 -7.446433610476317e-5 0.0
0.0001857035535512187 -6.685384863622377e-5 0.0
0.00018129588471498366 -6.16970426850096e-5 0.0
0.0001695657776647021 -5.909932673457978e-5 0.0
0.000714229149507065 -0.00010617287758155617 0.0
0.000947579145516201 -6.144162820294089e-5 0.0
0.0009406707935943354 -7.064672081610528e-5 0.0
0.00043953188383852196 8.128384258582991e-5 0.0
0.0007819209010667622 -5.4612015489048424e-5 0.0
0.0007870033137302403 -5.237064430282294e-5 0.0
0.0009214956700136013 -5.5978791857530215e-5 0.0
0.001391557509704747 -1.6418655233915697e-5 0.0
0.0014169150297706416 -1.00039005811188e-5 0.0
0.0014337394645241163 -7.615209976976075e-6 0.0
6.194622410034483e-5 -1.616851058747039e-5 0.0
6.420274614042339e-5 -1.6719895602294678e-5 0.0
8.93319768665699e-5 -2.3563394010656873e-5 0.0
6.798384125891523e-5 -1.7695884894604778e-5 0.0
9.126776847401089e-5 -2.4248647117634586e-5 0.0
7.045945730136247e-5 -1.850422077074735e-5 0.0
4.4689096111716335e-5 -1.1402740155121822e-5 0.0
0.0006976029852488752 -0.00010939846380515257 0.0
0.00038020391454222506 -8.298376292845311e-5 0.0
0.0002286894891820744 -8.398661626846774e-5 0.0
0.0005992592129004105 -8.276197054085961e-5 0.0
0.001287825412748622 -0.00011973862935468638 0.0
0.0012738514645238724 -0.00012176985714151741 0.0
0.0010740849048457622 -9.341879879493282e-5 0.0
0.0010963577159158583 -9.573353698182881e-5 0.0
0.0011013511251105822 -7.91835054307307e-5 0.0
7.11497749327368e-5 -2.0134841521210723e-6 0.0
0.0005184707954903515 -0.00015790862196498324 0.0
0.00037401411572144435 -0.00013149093526452991 0.0
5.4831394011547256e-5 -1.7310190497898735e-5 0.0
7.338170255315505e-5 -2.555183370286312e-5 0.0
0.0003148752260043144 -7.563193724625895e-5 0.0
0.0009704131395660355 -7.603258049435943e-5 0.0
0.0009945137245625615 -8.455463704525272e-5 0.0
0.0010307010834832173 -9.931749749617187e-5 0.0
0.001083494529002719 -0.00011273884832445286 0.0
0.0004922212429760808 -0.00015359331239042084 0.0
0.0005445443421276951 -0.00016251670735326288 0.0
0.0005572841301453428 -0.00016266188031708765 0.0
0.00119683755160899 -0.00013655626074355302 0.0
0.001186455986242257 -0.00015556664038413908 0.0
0.001166705520406823 -0.00017104961217906855 0.0
0.0013193162769043257 -1.341393188705731e-5 0.0
0.0012949741476335549 -1.3600021535099157e-5 0.0
0.001264822744913937 -1.9066954656401843e-5 0.0
0.0012679374727925592 -1.3431892507454998e-5 0.0
0.00027206293308750656 -6.928876965897608e-5 0.0
0.0012186713280017507 -1.164923867404869e-5 0.0
0.0011878231689337012 -1.1150168280391387e-5 0.0
0.0008216611034320216 -0.00014994995915317813 0.0
0.00017304335440340048 -6.391005555860258e-5 0.0
0.00015863677412256355 -5.72225853756427e-5 0.0
0.0001539291691429146 -5.2213426723870794e-5 0.0
0.00014312677847463874 -4.9957950773482795e-5 0.0
0.0014403710148239745 -5.776532451971211e-6 0.0
0.0014010369511766288 -4.430723990760049e-6 0.0
0.0014249948655357004 -1.9088156558116524e-6 0.0
0.0011314297273343243 -0.00018976535044483062 0.0
0.0006003035699598583 -9.260339782536601e-5 0.0
0.0012056287453263129 -0.00014174311105529826 0.0
0.001196525676483992 -0.00016032372085291493 0.0
0.0012148507137628032 -0.00014723115426070794 0.0
0.0012078716509887316 -0.00016855057541742094 0.0
0.0012270181854977026 -0.00015201660470675298 0.0
0.0012348132082575564 -0.00013211564804605625 0.0
0.0012451399740090968 -0.00013825334738833424 0.0
0.0006663958342548394 -0.00019023297120710387 0.0
0.0006544266170997341 -0.00019382841620170383 0.0
0.0006386130048998161 -0.00018595723216689096 0.0
0.0005112057202870875 -8.656834471196666e-5 0.0
5.13469809650101e-5 -1.3181667088866085e-5 0.0
7.237231100492263e-5 -1.919207085317399e-5 0.0
5.35505374670543e-5 -1.3878736500775545e-5 0.0
0.00048193402855055574 -0.0001556592834303776 0.0
0.00046909471208823666 -0.0001501201274810558 0.0
0.001351831761822749 -7.980362692750699e-5 0.0
0.00012083513419643545 5.9295369427489695e-6 0.0
0.0007385019300592261 -8.59219882143161e-5 0.0
0.0007428047142716157 -8.105475205085323e-5 0.0
0.0013113142138397402 8.114208066842361e-6 0.0
0.001363963081122632 6.599107763867601e-6 0.0
0.0012096566680554575 -9.429740202231787e-5 0.0
0.0002772110082750526 -9.670411165285413e-5 0.0
0.0002815778886822363 -0.00010286979174293339 0.0
0.0010016649570887574 -0.00010212228137207434 0.0
0.0011434916083528496 -7.371779301849546e-5 0.0
0.0013911162519286125 -5.5423772928742116e-5 0.0
0.0014224137842276004 -3.2941702726848366e-5 0.0
0.001438051605893442 -1.7270530455917753e-5 0.0
0.0010909149757148836 -7.914070367907446e-5 0.0
0.0011676092536920786 -8.16502529916496e-5 0.0
0.0006395626783943753 -0.0001636004852935603 0.0
0.001207446427544408 -2.4521230737097473e-5 0.0
0.001122337556470461 -9.281208302724253e-5 0.0
0.0004614058832704616 -0.00011416768718496828 0.0
0.0002844866981036063 -9.262612948163286e-5 0.0
0.0013460186587636077 -1.2098581500067831e-5 0.0
0.0011381136505622554 -4.2133555964742734e-5 0.0
0.00046850080061296205 -0.00015541509715554384 0.0
0.00024465809198446933 -6.316832557104833e-5 0.0
0.000773248573007778 -5.8211781386146524e-5 0.0
0.0011099284274428767 -0.00018074822787267475 0.0
0.001106950426459208 -0.00019491303258041372 0.0
3.8136912993249276e-5 -1.100836444812488e-5 0.0
0.0008432989710067693 -0.00019403168353232858 0.0
0.0008390998895483541 -0.00020393871285842756 0.0
0.00055850266921993 -0.00017036730669467193 0.0
0.0005713849189172763 -0.00016962565214126036 0.0
0.0005696166034275851 -0.00016264818304491087 0.0
0.0005832258875835728 -0.00016902930044259968 0.0
0.0005733949794041902 -0.00017654466070325667 0.0
0.0005476042009706232 -7.755020725755976e-5 0.0
0.0005179427731978919 -7.383000015714971e-5 0.0
0.0002293076761415349 -5.049447391871221e-5 0.0
0.0005410439112450036 0.00014392937910161837 0.0
0.0005201156064117054 0.00011843574110266222 0.0
0.0009297965003949036 -2.3497850683065652e-5 0.0
0.0010835437178489994 -0.00020058684618017047 0.0
0.0010693485476622744 -0.0002068530599372127 0.0
0.00014614334086272262 -5.4983448936253446e-5 0.0
0.00013102247524285918 -4.729673441345636e-5 0.0
0.0014342039304626431 -2.6509835823462265e-6 0.0
0.000263746151121524 -7.206697368497325e-5 0.0
0.00024077336225239584 -6.605090610030174e-5 0.0
0.0013659380533083928 3.2898860048531524e-6 0.0
0.0013320049744079306 -8.10699902815726e-5 0.0
0.0013183033630578347 -0.00010600314545873411 0.0
0.000790878900651265 -5.609004554628552e-5 0.0
0.0008837815963869957 -0.00020431005793466168 0.0
0.0008644124480410371 -0.000211044138334425 0.0
0.0004361327088773324 -9.307345101304524e-5 0.0
0.00043982095909937566 -9.083354786433383e-5 0.0
0.0005826097186015665 -0.00016244543907279044 0.0
0.001213745139497524 -0.00011516039429977369 0.0
0.0007081306357902345 -7.702503313262967e-5 0.0
0.0006951449497602786 -7.722903081135995e-5 0.0
4.4602960109840065e-5 -1.45373478224824e-5 0.0
0.0005710835581500183 0.00024212091733054076 0.0
0.0006576426142883886 -8.31723623000612e-5 0.0
0.00048824462997015193 -7.627915121822484e-5 0.0
0.0004894648738955489 -7.88770115673722e-5 0.0
0.00029999111472141823 -5.9103568998266276e-5 0.0
0.000879311697212117 -3.766649030564457e-5 0.0
0.0006207574811998307 -8.069852242959299e-5 0.0
0.0006260482025462927 -7.953435164790185e-5 0.0
0.0006418395826279152 -7.832783388657787e-5 0.0
0.0006467416862123258 -7.722186508394764e-5 0.0
0.0006617884451478007 -7.565850180331463e-5 0.0
0.000667006846669149 -7.442748707820977e-5 0.0
0.0006517846314013104 -7.625041652837791e-5 0.0
0.0006724207801978704 -7.355964699550813e-5 0.0
0.000657202229116258 -7.565304535300887e-5 0.0
0.0006783801635238771 -7.298335425267888e-5 0.0
0.0006805051390200096 -7.272984879757116e-5 0.0
5.981825578522408e-5 -1.1023916584243821e-5 0.0
0.0008469357758756159 -4.859236254426303e-5 0.0
0.0006066749201434307 -8.988236779261715e-5 0.0
0.000672346808568916 -1.3383838173087042e-5 0.0
0.0007245047451716168 -3.925022825941165e-5 0.0
0.0007204055341493625 -5.576857803948341e-5 0.0
0.0007169272562997289 -8.957866973613783e-6 0.0
0.0006826702404490052 -5.58774478064328e-5 0.0
0.0007214092140124449 -6.448072293160051e-5 0.0
0.0007613664502595067 -6.469260888144397e-5 0.0
0.0007612104738735038 -2.9346782984881907e-5 0.0
0.00011239842430013294 -3.011496315433916e-5 0.0
0.00011532537235088866 -3.134554775261657e-5 0.0
0.0014347810699568983 3.965871091275656e-6 0.0
0.0013766202627998993 5.809371107042901e-6 0.0
0.0013768378640192983 4.286731790971676e-6 0.0
0.0010415093355801426 -0.00020756174711133435 0.0
0.0010221247335465927 -0.00021291454208416613 0.0
0.0003956363269937623 -0.0001136120578563655 0.0
0.00040897947086731266 -0.00011403482775520684 0.0
0.0003819705835240604 -0.00011288932523659737 0.0
0.0004598527658294095 -7.595813887315861e-5 0.0
0.0007598011668977027 -5.659863205055567e-5 0.0
0.0006938363253932609 -7.03904555160356e-5 0.0
0.0006989147313297352 -6.997740787354787e-5 0.0
0.0006843990423367931 -7.271874850118402e-5 0.0
0.000704376225165227 -6.988384433718044e-5 0.0
0.0006912658362196369 -7.247645280954419e-5 0.0
0.0004033785895860908 -0.00013470637021702035 0.0
0.0014353162790494874 3.010871959602595e-6 0.0
0.0007284101370241826 1.9062717566275172e-5 0.0
0.0009193679499205586 -3.107877351553759e-5 0.0
0.0009124992023210174 -2.3033598475070463e-5 0.0
0.0009001953792695953 -3.0694591174813226e-5 0.0
0.0004860215563766749 3.9887782048789984e-5 0.0
0.0006891702551593201 9.730121322707723e-5 0.0
0.0006362655646589262 0.00010464377948506929 0.0
0.000622950919387369 0.00012083138119084047 0.0
0.001054169776193208 -0.0001207840416302493 0.0
0.0011486724288878552 -0.00018019606793753058 0.0
0.0011413576585676108 -0.000197233442341198 0.0
0.00038629713423908027 -0.00013720321570462795 0.0
0.0005963090996905339 -0.0001685522786595748 0.0
0.0005979781269470005 -0.0001766451141362559 0.0
0.0006096044246917462 -0.00017561844392218953 0.0
0.0006127688543670562 -0.00018540913528541082 0.0
0.0010132358778716126 -1.1419995800243883e-5 0.0
0.0009886352072500362 -7.493876015778593e-6 0.0
0.0010171613077468496 -3.8143048193001544e-6 0.0
0.0010449783458677127 -6.161163350766634e-6 0.0
0.0007617542724042707 -7.685412683044937e-5 0.0
0.0007498612954732766 -7.619258023581853e-5 0.0
0.000622984237527834 -0.00018238621649388297 0.0
0.0004664784848984973 -8.363697972228782e-5 0.0
3.20761333879818e-5 -8.559041921361306e-6 0.0
0.0006740974968766668 -7.181736752555165e-5 0.0
0.0007000222982425196 -7.345892714944282e-5 0.0
0.0006938392650312973 -7.42477749937573e-5 0.0
0.000723007310062498 -7.208648671926824e-5 0.0
0.000715076861354737 -7.194954503130481e-5 0.0
0.0007295880154913933 -7.180250154700552e-5 0.0
0.0006910429998157636 -7.41284786281197e-5 0.0
0.0007083789700705585 -7.163656541320867e-5 0.0
0.0007495167881438354 -6.91559345731155e-5 0.0
0.0009648972959572816 -1.1718186511407766e-5 0.0
0.0006864251541537281 -7.406904502009406e-5 0.0
0.0014553552527929283 2.1596952509932048e-6 0.0
0.0005764871627608112 -8.465650460537521e-5 0.0
0.0006597082831061346 -0.0001548942484127274 0.0
0.0006748519422134933 -0.00015250140709517526 0.0
0.000708011742731814 -7.168957660483029e-5 0.0
0.0007404710923435615 -7.048322863141788e-5 0.0
0.0007931446261662322 -7.790840363844286e-5 0.0
0.001010820464489488 -0.00017810722550664552 0.0
0.0009935397891213628 -0.00018567983053225455 0.0
0.0009926191597190073 -0.00019863337392248912 0.0
0.0009776876021339094 -0.00019307478943594871 0.0
0.0009775354330562778 -0.0002051600184298832 0.0
0.0009620582926265439 -0.00020027153515713954 0.0
0.0011672000929561549 5.930474535103723e-6 0.0
0.0011404034499172813 2.406980005332719e-6 0.0
0.0011530111170730227 -4.970798844251552e-7 0.0
0.0011143148779937373 -2.4260294807055856e-6 0.0
0.001125167811641524 -5.916745906730691e-6 0.0
0.0010873658259094813 -8.496604477651166e-6 0.0
0.0010983412540902938 -1.2314067401474013e-5 0.0
0.0010766750385532993 -5.051745438747246e-6 0.0
0.0010511736409172284 -1.1489478046535427e-5 0.0
0.0011348750094169753 -9.797973957098527e-6 0.0
0.0010409068600200505 -8.283622924737446e-6 0.0
0.001107386550936576 -1.6620499997305223e-5 0.0
0.001073272558021213 -1.9432421028059367e-5 0.0
0.0010803804488327396 -2.426668000320226e-5 0.0
0.0010660870415189366 -2.339906900353874e-6 0.0
0.0011264493999869768 4.762757013422887e-6 0.0
0.001143874105175848 -1.4379420492829493e-5 0.0
0.001195672548070108 2.802457913439521e-7 0.0
0.0011691182135633075 -7.929509902428914e-6 0.0
0.0008492494646491586 -4.1283468113238864e-5 0.0
0.0006497031336706488 8.806583942137913e-5 0.0
9.657729823585376e-5 -2.6110856469511244e-5 0.0
8.619302538999041e-5 -2.8862837087705202e-5 0.0
0.00010276609995601079 -3.6531130671274155e-5 0.0
0.0006216638752884485 -0.00017424628391655994 0.0
0.0008106737636130851 -7.929411344686704e-5 0.0
0.0008396760863856702 -3.794110103104861e-5 0.0
0.0008156360028978267 -4.465973852674781e-5 0.0
0.000825819020672336 -4.2716002464346194e-5 0.0
0.0008096274932513762 -4.5630693947542925e-5 0.0
0.0008244689238443565 -4.1863504029551984e-5 0.0
0.0008020232220752396 -4.737725382041326e-5 0.0
0.0007946922469954372 -4.9385717792586154e-5 0.0
0.0007824072915200462 -5.206083867993372e-5 0.0
0.00011293959629019669 -3.625535844461371e-5 0.0
0.0009210931836698904 -1.2778322919821613e-5 0.0
0.0010774310948759083 5.4947204253919585e-6 0.0
0.0010369272973609386 3.4717494172088658e-6 0.0
6.611200498392916e-5 3.3299940397092397e-6 0.0
0.00014430395817519406 1.456766338129906e-5 0.0
0.0001262002590556192 1.1300767825242667e-5 0.0
0.000920596368766649 -1.8024816972991115e-5 0.0
0.0001440596943422353 -4.552663875424549e-5 0.0
0.00016457492432147061 -5.409530957983189e-5 0.0
0.00017761786009038455 -5.7550138046581114e-5 0.0
0.00017661633360346104 -5.452384491228997e-5 0.0
0.00019029357048801562 -5.739582300458961e-5 0.0
0.00065035156767767 -7.700365722472748e-5 0.0
7.043919508733609e-5 -5.710402461759701e-6 0.0
0.00031946442091355086 -7.301494447108863e-5 0.0
0.0002660935519331911 -6.50573514096469e-5 0.0
0.0007474876745445028 -6.829623297106347e-5 0.0
0.0002795898358791961 8.79025352073329e-5 0.0
0.0009698192375000497 -0.00017634237563874958 0.0
0.0008931975218684069 -2.1861102448873915e-5 0.0
0.0013643821356774174 -7.914327127051312e-5 0.0
0.0010630019799957706 -1.5096924170959863e-5 0.0
0.001027519654180427 -1.8421043357856194e-5 0.0
0.0010074184505733327 -0.0002056532790096652 0.0
0.0014594894338868444 1.5593437083421956e-6 0.0
0.0014214659974991508 2.416745150145201e-6 0.0
0.0014296496453528244 1.2477364099482716e-6 0.0
0.0014147111668667116 3.495664001917067e-6 0.0
0.0013867356940722667 2.128448199675879e-6 0.0
0.0014098080261803923 4.353536840935382e-6 0.0
0.0013666459641509538 5.435432606937073e-6 0.0
0.0013756180537821087 3.963516826428349e-6 0.0
2.2461097166944582e-5 -5.629396594769434e-6 0.0
0.0014745267557195805 -1.0799640257168233e-6 0.0
0.0014478086594238646 -2.6738489649531254e-6 0.0
0.0014643566870064814 -5.169251295758042e-7 0.0
0.001449488930725658 -3.219906001732374e-6 0.0
0.0009096325259442694 -1.8681794045011915e-5 0.0
0.001057083693378123 -0.00019935575729405919 0.0
1.7923061228509172e-5 -4.419356761766501e-6 0.0
0.0014792808365145342 -1.4533142855083902e-6 0.0
0.0005420160141447487 1.0019276976205228e-5 0.0
0.0011353193727514155 8.080402713422679e-6 0.0
0.0004499563548540893 -5.4480719824860376e-5 0.0
0.00048800440185864526 -5.4849371143170196e-5 0.0
0.0004868252796152278 -4.2242133032485296e-5 0.0
0.00048731083657431066 -6.319504081403696e-5 0.0
0.0005199954212418744 -6.427051185508853e-5 0.0
0.0005299680922640468 -5.706181302650349e-5 0.0
0.000527184280684143 -4.357413184819139e-5 0.0
0.0004877236629312235 -2.741125990255347e-5 0.0
0.0004527404071849348 -7.748998376847372e-6 0.0
0.0004544750837356831 -6.448179229584285e-5 0.0
0.0011806518392865827 -0.00017210280976179826 0.0
0.0014547928661783327 2.7818515614060337e-6 0.0
0.0005836506991050927 -0.0001564182722397621 0.0
0.0002188811616362713 -8.323497388072083e-5 0.0
0.0006359754410503406 -0.00015608995467048133 0.0
0.0005045223358129546 -0.0001531326039055818 0.0
0.000504603948343849 -0.00015836341405604923 0.0
0.0007194250544538893 -6.665048304504601e-5 0.0
0.0009120743337087589 -2.5340092128766646e-5 0.0
0.0012573722544875386 -4.01404396419475e-6 0.0
0.0012695255278743238 2.2931374029736754e-6 0.0
0.0012203454652293835 2.906226171596598e-6 0.0
0.00011248651492665593 -2.9825555743136704e-5 0.0
0.0002054382418401289 -7.99723910948949e-5 0.0
0.0006487627316160351 0.0001865319275465294 0.0
0.0005797833919963935 0.0001838453289534663 0.0
0.0011380204970771748 -7.674785620795351e-5 0.0
0.0006425600593642301 5.903091578914655e-5 0.0
0.0012940212053924533 -7.737950383175909e-5 0.0
0.0006322936913142738 -0.0001315934783066755 0.0
0.0010997839919009954 -0.00011042148343732569 0.0
0.0011144413025855019 -8.950004744984618e-5 0.0
0.0004980365655189922 -2.646866670551717e-7 0.0
0.000375567540268525 -0.00013774463710477177 0.0
0.001279286290444158 -0.0001012228749593123 0.0
0.00024012044118125407 -8.583623063503139e-5 0.0
0.00025297923801377776 -9.199727516219303e-5 0.0
0.0002457198248792022 -9.254570583739525e-5 0.0
0.0003765712652376367 -7.90900187566823e-5 0.0
0.0008069149006964293 -4.7297421288696546e-5 0.0
0.0008961832009683327 -2.4840768010046695e-5 0.0
0.0005890001131020771 -8.144547576023946e-5 0.0
0.0006085980878364594 -8.061440887751367e-5 0.0
0.0014324021854909407 1.7939158607872763e-6 0.0
0.001364061442839566 -2.2452961243561204e-6 0.0
8.751170385240997e-5 5.663974870581143e-6 0.0
2.24557027586757e-5 -5.609615456913321e-6 0.0
0.0006867111824995053 -7.145283725951566e-5 0.0
2.6732591573387635e-5 -6.856894816224261e-6 0.0
6.28736206783892e-5 -1.5815935345700242e-5 0.0
0.0006294437860193575 -0.00014980262056077853 0.0
0.0010313386777015573 -0.00012063133013105545 0.0
0.0007067609487304955 7.975935177531696e-5 0.0
0.0008479394641056281 -7.431074435075314e-5 0.0
0.000713703053220758 -6.917628376010418e-5 0.0
0.0011294404414597561 -6.446290344532943e-5 0.0
0.0013488999186006192 -5.885485911477464e-5 0.0
0.0004462121649084542 -0.00011414450399168242 0.0
0.00044679275671843607 -0.00011882792203987256 0.0
0.0004318218803836428 -0.00011351168052862925 0.0
0.00041612358540735385 -0.00010835321098785066 0.0
1.8224458930980194e-5 -4.538748048413016e-6 0.0
3.29218107357898e-5 -8.506362677632131e-6 0.0
3.716978896417476e-5 -9.488685375251572e-6 0.0
0.0003974720083235856 -9.097786991175222e-5 0.0
0.000377795148758593 -8.970549748283124e-5 0.0
0.0014759512989942752 -1.2205646178308526e-6 0.0
0.0007428421491153114 -0.0002035364820683368 0.0
0.0007304729568656917 -0.0001960264348387585 0.0
0.0007304794583334217 -0.0002078903067134063 0.0
0.0007178927755439326 -0.00020003248781863114 0.0
0.000705620569217526 -0.000203150940920314 0.0
0.0007042928242270609 -0.0001922444246835647 0.0
0.0007303165004066577 -0.00018510939698526295 0.0
0.0010834614080377203 -9.878403217363968e-5 0.0
0.0001934848540635728 -4.2318371291225233e-5 0.0
0.00022652388854955957 -5.237238085616774e-5 0.0
0.00019874741681833564 -4.781322884474709e-5 0.0
0.0008706044866638608 -6.908924238110525e-5 0.0
0.0004288525986664759 0.00012693757211369895 0.0
0.0007133395448960376 -8.444987170038725e-5 0.0
2.8946698997092487e-5 -7.396464051445126e-6 0.0
0.0004574865611224215 -0.00015013319761203055 0.0
0.0004446828221350855 -0.00014949231277520118 0.0
0.00044786968270176756 -0.00014484038391932865 0.0
0.0005039251404477881 -0.00014826124169036722 0.0
0.00044775462380188474 -0.00010929234252128421 0.0
0.00021971346496405626 -5.815646824815776e-5 0.0
0.00013514687359531533 -3.75970259468689e-5 0.0
0.0014659699777050108 4.966213413066339e-7 0.0
0.001438056880935596 2.3636150039128747e-7 0.0
0.00030549593937875005 -0.00011027404141539727 0.0
0.0003599780156276614 -0.00012504996917406805 0.0
0.0003476909489202512 -0.00012480143398996285 0.0
0.00033287043536551206 -0.0001180091476399414 0.0
0.0003347455169918809 -0.0001238408570603658 0.0
0.0009811626093131772 -0.00010437210679415296 0.0
0.0007483721758960642 4.463111627110153e-5 0.0
0.0009015374448500895 -0.000199029709314073 0.0
0.0009170515553817056 -0.00020639084166006625 0.0
0.0009330392967058851 -0.00020099363554134772 0.0
0.0008980838917505578 -0.0002130962749543653 0.0
0.00047717560522545475 -0.00011492030590447565 0.0
0.0007780793103630922 -0.00014519649619990066 0.0
0.000681097497144601 7.227599704112098e-5 0.0
0.0006619395862234653 -7.607854453150653e-5 0.0
0.001480079978629208 -1.7810259332838318e-6 0.0
0.0014611615407802041 -5.389305374960742e-6 0.0
0.001453731887017528 -4.871944853683507e-6 0.0
0.0003203631962492269 -0.00011715553476302377 0.0
0.0003083744511763221 -0.0001159506467142735 0.0
0.0004825010352973513 -7.190485450079421e-5 0.0
0.00040096849662758034 -0.00010814852130865351 0.0
0.001349384755491818 -2.825255657381848e-5 0.0
0.0011786126896427098 -5.1381428363096176e-5 0.0
0.0006739271561318792 -7.433130067651139e-5 0.0
0.0006922709248244432 -7.116918114026182e-5 0.0
0.0009482808537704039 -6.325229491983033e-5 0.0
0.001031837759006365 -0.00015779468558701769 0.0
0.0006167508974808862 -0.0001336227408387518 0.0
0.0006167254744157215 -0.00014008482690164046 0.0
0.00017206028158025063 1.5045807749749817e-5 0.0
0.0003705173011064466 -0.00010630917709269229 0.0
0.00035507483531920403 -0.00010450442481486765 0.0
0.00033866916420136376 -9.870768865730225e-5 0.0
0.00033993461942780035 -0.0001030579062603192 0.0
0.0003003383614395968 -5.4394691514581025e-5 0.0
0.00030031062177389477 -4.780580328149762e-5 0.0
0.0003367128526435578 -6.67035991001092e-5 0.0
0.0009147069888030818 -0.00021958562178927275 0.0
0.0008672977727751701 -0.00015053905960330126 0.0
0.000847072324038568 -0.00015568395276959146 0.0
0.0008671779938691116 -0.00016311830305243424 0.0
0.0008469720993823801 -0.00016828680604015966 0.0
0.0008611528061058875 -0.0001739961349713196 0.0
0.0008861016250611203 -0.00015603502519344825 0.0
0.0009042559223523476 -0.00016096854764075476 0.0
1.4963659891400279e-5 -3.893423885765511e-6 0.0
0.001483287760307286 -2.7413339025996827e-6 0.0
0.0011574827439462174 -0.0001636227968467005 0.0
0.0008112678946110819 -0.00020261819951106102 0.0
0.0013695256989450194 -3.137593511929239e-8 0.0
0.0007836173486612401 -0.00018937706242004855 0.0
0.0007819696895178241 -0.00020081947729849712 0.0
0.0010448750042750224 -8.472541618233264e-5 0.0
0.00093255901017189 -5.2882632347063193e-5 0.0
0.0009144752404723994 -5.22141521800949e-5 0.0
0.0004654978284407673 -0.00013911570771674544 0.0
0.00029265993508237516 -8.910234845233833e-5 0.0
0.001045403626899128 -2.7898499893695218e-5 0.0
0.0011114178519692694 -0.0001650968250748345 0.0
0.0005172175780138383 -0.00010064511269546503 0.0
0.0005343188740833686 -9.971166339031094e-5 0.0
0.0005314943615738621 -0.00010317175879766415 0.0
0.0005377404139457355 -9.663714668629458e-5 0.0
0.0005146425239432928 -0.00010413921634855265 0.0
0.0005507676181127154 -9.899991292859284e-5 0.0
0.0005551381348180999 -9.604572144365467e-5 0.0
0.0005622562839361261 -9.295739777814721e-5 0.0
0.0010951990103116671 -4.4218302788524934e-5 0.0
0.00015845104344449254 1.6792952472730056e-5 0.0
0.001016489735909452 -1.5099568146501051e-5 0.0
0.0011033821985128474 -6.509372849687455e-5 0.0
0.00032555128464571383 8.686463551828048e-5 0.0
0.00022766616503249818 -3.5269601179982434e-5 0.0
0.0003367283413513778 -5.723892132299145e-5 0.0
0.00026012775484628967 -8.041800471598895e-5 0.0
0.0005217082562062654 -9.47425757170744e-5 0.0
0.00042127473646385064 -8.775184451310962e-5 0.0
0.00044761637589174017 -8.907843316316182e-5 0.0
0.00046164214577409604 -9.18638358974334e-5 0.0
0.0006783297761421381 -0.00018793579212960298 0.0
0.000692056949946388 -0.00019511592905957565 0.0
0.000692958941591408 -0.0002067436877053691 0.0
0.0007041122792422369 -0.0001822578357436238 0.0
0.001091844560391424 -0.00017161392517857902 0.0
0.0005567428275905887 -8.483280413366661e-5 0.0
0.0010119393151991403 -6.572651004487297e-5 0.0
0.0005033249107389797 -0.00014317208779076972 0.0
0.0007303977674852631 -0.00017510320639478594 0.0
0.0005299693426024016 -0.00016300961673659694 0.0
0.0013321205293168898 7.03565359513328e-6 0.0
0.0006965152797387559 -8.78693916753774e-5 0.0
0.00019758376100717482 -5.211835590402516e-5 0.0
0.0005415308122594746 -0.00012418911535400215 0.0
0.0005563599290628231 -0.0001284565339205127 0.0
0.0005115179738094617 -0.00011632676588013355 0.0
0.0005435179111909715 -0.00015257722139565426 0.0
0.0008079661990257574 -0.00010679538367375051 0.0
0.0007888430008057354 -0.00011168858567158162 0.0
0.0008046867872435013 -0.00011473612934548907 0.0
0.001006996547122283 -1.2166522344642944e-5 0.0
0.0006329491483802951 -0.00012550674230351507 0.0
0.0004812694291558178 -0.00010906029270670617 0.0
0.0008132134323803611 -5.0874052168443354e-5 0.0
0.000805521282040074 -5.5011922389138396e-5 0.0
0.0002096624577174301 -6.416745066905506e-5 0.0
0.00040196306783359787 -0.00012918400469663657 0.0
0.0009352644457633163 -0.0001877342334088277 0.0
0.0008469873396101586 -3.6362771614616096e-5 0.0
0.0007208096449708056 -0.0001360652305023349 0.0
0.0007055192940020182 -0.00013931367699441315 0.0
0.000704644557288705 -0.00014723429879484961 0.0
0.0006903438382404447 -0.0001422515396375363 0.0
0.0006899357519635259 -0.00015017447216374697 0.0
0.0007185957807598181 -0.00015209123958852275 0.0
0.0009036379835012033 -1.7427908560769094e-5 0.0
0.0005899992409597629 -0.00011096588385577831 0.0
0.0005743943969698859 -0.00011257675535847777 0.0
0.0007765527644301211 -0.00010189653342612161 0.0
0.0004955063984535286 -0.00011680011077636996 0.0
0.0007683140042844942 -0.00020573087599906658 0.0
0.0006016437679240504 -0.00012946722243641366 0.0
0.0006913698459044349 -0.00013488892282260872 0.0
0.000991283247098764 -0.0002117513376163989 0.0
0.0006475042049577705 -9.254920991035116e-5 0.0
0.0013801331858275872 -8.545805533438757e-6 0.0
0.0006957114698311617 -0.00011523104533962491 0.0
0.0003530157451054093 -8.967858979595921e-5 0.0
0.0007806829056917062 8.116321917157971e-6 0.0
0.0009752010806354524 -0.00016387669435509282 0.0
0.0013185164752603858 2.2712165201299147e-6 0.0
0.00023176191501398345 -1.5929707220950926e-5 0.0
0.0002392056715083322 -4.982152044585917e-6 0.0
0.000270093508374429 -2.6024100411756984e-5 0.0
0.00028397111596787945 -1.4181891158352004e-5 0.0
0.00031414898243444146 -2.6949880407626708e-5 0.0
0.000993576726457407 -2.227809591411746e-5 0.0
0.0005863199227908295 -0.00017859658749843767 0.0
0.0006648314085679172 -8.996313615007828e-5 0.0
5.279286757378195e-5 -1.355655267332734e-5 0.0
0.0006617329112847387 0.00013405106574617141 0.0
0.0006029234766761559 0.00013754929720512547 0.0
0.0009699524529472528 -5.4279643099619274e-6 0.0
0.000570173276951329 -0.00015117130481881973 0.0
0.0006408693339908023 -0.00017796386790262683 0.0
0.000596321609944194 -8.421364513935919e-5 0.0
0.0007615004970624067 -9.977642231521561e-5 0.0
0.0007454513863982779 -9.755769509004475e-5 0.0
0.0007502262059514276 -9.139469320266931e-5 0.0
0.0008947163106439696 -2.8017779785670493e-5 0.0
0.0005423695673646767 -0.00012971349660034691 0.0
0.00040154107440173894 -8.454751188549477e-5 0.0
0.0005602557924010662 -0.00010522919751660102 0.0
9.299260645127327e-5 -2.548893936273397e-5 0.0
0.0007620974664390894 -5.904686609936059e-5 0.0
0.00033028100955823824 -0.00011207671860634171 0.0
0.0007310196361728223 -0.00010253347750577662 0.0
0.0004674469390921204 -0.00014441351350920624 0.0
0.0009735859300834305 -5.327649152516087e-5 0.0
0.0006705046874579162 -0.00010448360962487408 0.0
0.0006753471913842284 -0.0001449086274981031 0.0
0.0012593439795703135 -5.936981437820751e-5 0.0
0.00029476696951603155 -0.00010918468012356205 0.0
0.0013784322513813439 -8.000187272286478e-5 0.0
0.0005828293154383727 -9.320202589863559e-5 0.0
0.0006660969456326757 -0.00011504962806500562 0.0
0.00015050209313361088 -3.9492681897766145e-5 0.0
0.0012617767970248153 -2.571425370044629e-5 0.0
0.0007600475588697107 -0.00015801131855290015 0.0
5.392614333342064e-5 -1.3898728155255094e-5 0.0
0.0007266644281260346 -7.327558034345373e-5 0.0
0.0007230660874279059 -7.637832382367754e-5 0.0
0.0013682180034771969 3.1975229953780416e-7 0.0
0.0007562056358818886 -0.00021090989624081193 0.0
0.0002780145833790052 -8.705482411177859e-5 0.0
0.0014223761506577893 -1.2554485908508209e-5 0.0
0.0007349988288438183 -9.029506960536329e-5 0.0
0.0006869499062469313 -0.00010173951308663272 0.0
0.0008321538979596721 -0.00014086998493962523 0.0
0.000814547173336104 -0.00013624643959269587 0.0
0.0007645601457383365 -0.00014064841488418847 0.0
0.0006616542571939157 -9.383267721367914e-5 0.0
0.000786118464468898 -0.00022030564220853617 0.0
0.0008519611503340311 -0.0002231330614904993 0.0
0.0006224052911776823 -0.00019659651432999526 0.0
0.0006630008635014622 -0.00020463073714954531 0.0
0.0009541355944459107 -0.00022420159301570028 0.0
0.0009470374934957371 -0.00020975261195096314 0.0
0.0005056843599717452 -0.00016456172237188645 0.0
0.00041367484987510155 -0.00014784048279691198 0.0
0.0008174717992382977 -0.00022183244550728163 0.0
0.00053769915999771 -0.00017258764278489896 0.0
0.0006176198844909021 -8.700749662555238e-5 0.0
0.0012268805409448831 -6.163420617576305e-6 0.0
0.0009752691661009002 -0.00011024073349138645 0.0
0.0009693721255943839 -0.00012218752157343575 0.0
0.0005293389086438687 -0.00010718037988938408 0.0
0.0008357169980183793 -8.684209470324604e-5 0.0
0.0006768296705219856 -0.00016032165923252946 0.0
0.0003827332740899866 -0.0001202698770248279 0.0
0.00029989809140923114 -8.03334743451316e-5 0.0
0.0006080850619714351 -0.00010475251746398613 0.0
0.0012581405238541274 8.965501348327031e-6 0.0
0.0005664317321488488 -5.6247204853965604e-5 0.0
0.0006823331351737795 -8.710006140101982e-5 0.0
0.0007736961552105972 -0.00010927109032578058 0.0
0.00011570383273167886 -4.013884676576714e-5 0.0
0.00011876614154004559 -4.4711129253973965e-5 0.0
0.0006000101839159455 -0.00014182681251988276 0.0
0.0005155923837771324 -0.00013188561384566683 0.0
0.0007101773838825969 -0.00011828263237643815 0.0
0.0013694559150838192 2.3319990915484395e-6 0.0
0.0007433089342465673 -0.0001810238173012767 0.0
0.0014547505550523026 -1.406022687921795e-5 0.0
0.0014344713394515843 -3.271785875437917e-5 0.0
0.00044036668186961565 -8.116375603888344e-5 0.0
0.0006212886534068138 -0.00011164044553903833 0.0
0.0006475457834503344 -0.00012931660125741775 0.0
0.001403119509070945 5.392116622464741e-6 0.0
0.0007975920698528574 -6.246060783937412e-5 0.0
0.0009232905540642857 -0.00015660885949002996 0.0
0.0009487396686441627 -0.0001283595432429924 0.0
0.0004076642552056355 -0.0001412202198520836 0.0
0.0008628602706703469 -0.00010754610840490576 0.0
0.0006248672084722462 -0.00010266343060219392 0.0
0.0009072038872656111 -9.579477437046415e-5 0.0
0.0009024845160298217 -0.00010541946204302682 0.0
0.000929949505347265 -8.944573022527744e-5 0.0
0.00034803737756490885 -0.00013056370660112298 0.0
0.001108800530810236 6.524338962932399e-6 0.0
0.0007949530623104215 -0.00020898519918884404 0.0
0.0011555100546423028 -0.0001871449288224077 0.0
0.0010349477055771055 -6.803496415289551e-5 0.0
0.0007007663915570722 -7.431897629439124e-5 0.0
0.0008481460072479436 -0.00018131674682060343 0.0
0.0005567137515043532 -0.00013415175233029883 0.0
0.0005940812099622329 -9.543407196794522e-5 0.0
0.0013466860368480473 3.1327247591854323e-6 0.0
0.0003437692864846194 -7.764467972570493e-5 0.0
0.0010010774358262414 -2.6009197467716344e-5 0.0
0.0007147429581702086 -6.658704513426444e-5 0.0
0.0008529053442565531 -8.834124887268015e-5 0.0
0.0012795643209727184 -7.655113661032931e-6 0.0
0.0001349930863127736 -3.618768716279474e-5 0.0
0.001002017739929393 -0.00013245112691930767 0.0
0.0008387197573796822 -4.271880830933745e-5 0.0
0.0008259847780337249 -4.527762465948896e-5 0.0
0.0008159486042577208 -0.00016897567214596283 0.0
0.0007545519559216696 -0.00012106301152831085 0.0
0.0007729998325714879 -0.00016300732001908762 0.0
0.0010297103584955708 -0.00017148867695826673 0.0
0.0010356792248311748 -6.784289601822393e-7 0.0
0.0007953728670874807 -6.406907718881547e-5 0.0
0.0009944720596204804 -5.5271237734192934e-5 0.0
0.0012251718804179089 -9.464486461780435e-5 0.0
0.0012343608130539136 -7.708966291852404e-5 0.0
0.0007398334092520622 -6.482570642400851e-5 0.0
0.00047596995873517477 -0.00012831159480416996 0.0
0.0010259307913075453 -0.00010075089239328428 0.0
0.0007799936294333409 -6.587222552053388e-5 0.0
0.0008585370581065529 -0.00011659455883543854 0.0
0.001423054796216105 -1.9543492695521065e-5 0.0
0.0002641441767524602 -8.950951024078963e-5 0.0
0.0008499547321930961 -5.1816033172895244e-5 0.0
0.0007605999348406116 -6.576376828146602e-5 0.0
0.0007451853007383576 -6.507377396258969e-5 0.0
0.00027119982116571997 -3.784740581958338e-5 0.0
0.0012971952479797102 -9.174296998995766e-6 0.0
0.0007545910492142454 -5.898726806258777e-5 0.0
0.0012773762464209962 -5.8836973156524627e-5 0.0
0.0004618078617432975 -0.0001235291773741515 0.0
0.0010811598701656732 -0.00021477570122637162 0.0
0.001106334862225315 -0.00021305851220103483 0.0
0.00042388072145738636 -0.00012377553965051027 0.0
0.0008931502956089276 -0.00012481707205816393 0.0
0.0006093360909374048 -0.00019323811851355092 0.0
0.0008865176528604971 -3.16962692674281e-5 0.0
0.0002834559206531517 -0.00011062078469030382 0.0
0.0007961648604938293 -5.247274017222169e-5 0.0
0.0007711931564597876 -6.085209537382165e-5 0.0
0.0007955216079680713 -4.9833145271875965e-5 0.0
0.0007863801438557071 -0.00011972325906929971 0.0
0.0009654912935687205 -0.00013382265720393862 0.0
4.0979157804595293e-5 -1.5153443450604754e-5 0.0
7.103263834444064e-5 -2.776581841839928e-5 0.0
8.517110420438862e-5 -3.378139950410717e-5 0.0
0.0013193103083538314 -0.00012564092181983216 0.0
0.00011405044617070896 -4.62647770944794e-5 0.0
0.0004339792615430173 -0.00011853380136613148 0.0
0.00020084295148097087 1.6584269433430878e-6 0.0
0.0011689946306140354 -0.00019805745106891856 0.0
0.00024380413052458251 -9.623368204168104e-5 0.0
0.00027071653728812025 -0.000106177659597733 0.0
0.0013024802022511472 -0.00013559957067091252 0.0
0.0012697211185546111 -0.00015634533841218178 0.0
0.0007553191645621204 -7.204716768699379e-5 0.0
0.0005565981026184873 -0.00015768121960126747 0.0
0.001029227648329302 -5.369794577133621e-6 0.0
0.0011972708440982176 -0.00018941290477828368 0.0
0.0012107664134192644 -0.00018495975055872132 0.0
0.00021740349550860132 -8.697603195954811e-5 0.0
0.00015490767268225137 -6.255692142379619e-5 0.0
0.0012407454212031662 -0.0001709661429326358 0.0
0.0012545813497874118 -0.00014479928135888585 0.0
0.0008257247986033923 -0.0002105019859774097 0.0
0.00018193362176007773 -7.341137708734802e-5 0.0
0.0010333771352848582 -0.00022157131519141336 0.0
0.00029696149542790784 -9.40562694604508e-5 0.0
0.0011622101121554252 -0.00012268156366330066 0.0
0.0004295772887976746 -0.00014571659151426568 0.0
0.0010797555232391585 -0.0001640117144670206 0.0
0.0011024120176485832 4.671206062616279e-7 0.0
0.000432432550885068 -9.818941914803866e-5 0.0
0.00030277575613521876 -8.366186622399108e-5 0.0
0.0005292444872663467 -0.0001365281880300975 0.0
0.0006801323474692736 -0.00011817614765677766 0.0
0.001172441750289476 -3.1860633796913345e-5 0.0
0.0007171271528690856 -0.00018883856835141165 0.0
0.0007678356113188636 -5.675554329809942e-5 0.0
0.0008127261183129806 -5.071333113436525e-5 0.0
0.0009170819379825765 -7.746383440804815e-5 0.0
0.0010764044995938053 -0.00012775387455586816 0.0
0.00044582730380996626 -2.7692731640586815e-5 0.0
0.0009432570167484054 -2.03908994826818e-5 0.0
0.000466438748062759 -9.883148512106074e-5 0.0
0.0011822328514471449 -8.607223492826292e-5 0.0
0.0003140356522612015 1.8897742814876793e-5 0.0
0.00026360039415767813 7.212280673257595e-6 0.0
0.0006684179555652989 -7.511229188031561e-5 0.0
0.0012447586043331446 -1.2577660266638627e-5 0.0
0.0008070742669940298 -5.03552830582533e-5 0.0
0.0007403307788696056 -6.483496521050237e-5 0.0
0.0013345063823367836 -1.796622067358103e-5 0.0
0.0003998617273240847 -9.666813136151087e-5 0.0
0.0004936242637262839 -8.746392057137565e-5 0.0
0.0009904699783136316 -7.61820614203609e-5 0.0
0.0011117916726363214 -0.0001234399990347887 0.0
0.0003516623852855749 -9.279069199790422e-5 0.0
0.00021611724214060896 -6.890366338487827e-5 0.0
0.0010607671363672853 -0.00012201145951174997 0.0
0.0005151221337666908 -8.257589860653063e-5 0.0
0.0010526847435996774 -3.7519501695562573e-5 0.0
0.001462168262930442 -6.962280060091173e-6 0.0
0.0011620571495754336 -4.013695244901292e-6 0.0
0.0008528890972785702 -4.5834782364203555e-5 0.0
0.0008628300974591412 -3.849999121854433e-5 0.0
0.0008577533739247817 -6.231977642389933e-5 0.0
0.001296468753576491 6.047643501819162e-6 0.0
0.0012693254050242064 8.474379499040515e-6 0.0
7.45496036180478e-5 -2.0619902592918412e-5 0.0
5.71533396169711e-5 -1.5188505871092185e-5 0.0
0.0005698050085061524 -0.00015721335854110646 0.0
0.000880053556599492 -0.00011107691332352325 0.0
0.0005510938988373184 -8.754237347340874e-5 0.0
0.0005541024879973699 -8.610501876805868e-5 0.0
0.0005731150284853521 -7.949957939149899e-5 0.0
0.0007043769244116829 -0.0001554871196168514 0.0
0.0008283705775646502 -5.788168797428146e-5 0.0
0.0002615964683095853 -5.7556763664075657e-5 0.0
0.0009703425711604625 -2.9897916091095535e-5 0.0
0.0008782831727569378 -4.1991270387694587e-5 0.0
0.0006063353437919659 -0.00010906971183689486 0.0
2.7568473180601314e-5 -6.330635047627629e-6 0.0
0.000681936183968668 -0.00011234077743100488 0.0
0.0013248042939557872 -2.4323125472272648e-5 0.0
0.0010969493584756407 -3.895697002709971e-5 0.0
0.0010393894405723331 -2.2345822187334715e-5 0.0
0.0012574871547673609 -3.3953026070255795e-5 0.0
0.0008968320818754105 -3.945344469090978e-5 0.0
0.0005764382542722639 -7.189817205537358e-5 0.0
0.0001954329317343528 -5.0510167754456243e-5 0.0
0.0006486077039268237 -7.876502974588576e-5 0.0
0.0007684504259691703 -7.221004963896168e-5 0.0
0.00023666024744118438 -6.711225023128172e-5 0.0
0.0006499364099103231 -0.00020212590644345618 0.0
0.0008709728615295194 -4.249458753661005e-5 0.0
0.0004487966071463434 -0.00012366232754907111 0.0
0.0010553328790179218 -0.00010228315193181096 0.0
0.001194832322614038 -3.272014956600384e-5 0.0
0.0005157934071992942 -8.108781726884833e-5 0.0
0.0010680632151973402 -3.653599942229119e-5 0.0
0.000798656806177683 -5.9250714009556155e-5 0.0
0.0006840571250756279 -0.00010685344338419922 0.0
0.00029225994423855324 -6.389189559378482e-5 0.0
0.0005103594237875074 -8.91618608447834e-5 0.0
0.0007558837514341157 -4.273972870584359e-6 0.0
0.0002101822836776582 1.2330551116148633e-5 0.0
0.0010284677970804597 -8.109165969798869e-5 0.0
0.00031536580551740014 -7.760542407592605e-5 0.0
0.0007004505958911793 -0.00010398626455239792 0.0
0.0011781254771871337 6.196129202280019e-6 0.0
0.0009716917819208676 -7.391256267964736e-5 0.0
0.0005534722660955634 -1.102338053009938e-5 0.0
0.00010532967589616583 -2.6908437882415048e-5 0.0
0.00040281077686485297 -8.282670101299294e-5 0.0
3.2774483899537704e-5 -2.472337426548719e-6 0.0
7.17324015735884e-5 -9.818701366966676e-6 0.0
0.0009676566666958367 -6.413108275091736e-5 0.0
0.0008684762248553383 -2.9756713246223114e-5 0.0
0.0004781755120056779 -0.0001608633217856534 0.0
0.00035447801209130455 -0.00010912896789610028 0.0
0.0011608777268068812 -1.7001841715122256e-5 0.0
0.000187996139096532 -7.191792932705613e-5 0.0
0.0009339309288876798 -8.016930936272052e-5 0.0
0.000774874168787479 -0.00015399913160570118 0.0
0.0011631256309818858 -3.9987654697406614e-6 0.0
0.00043886259632654016 -0.00013910012033102872 0.0
0.0012549266260424262 -0.00011678414785070428 0.0
0.0007446813632087827 -6.271328708084146e-5 0.0
0.0002615474271474994 -9.86972636612303e-5 0.0
0.0009650435638677943 -0.00021321770227042958 0.0
0.0002689861674237942 -7.566285777814542e-5 0.0
0.00136392109447712 -2.6728790491572555e-5 0.0
0.0002002460532650796 -5.5467622511940876e-5 0.0
0.0009917762112879528 6.23133442539546e-8 0.0
0.000901932492463143 -3.4702712635478644e-5 0.0
0.0008288445714677499 -5.005764212364441e-5 0.0
3.467473760005762e-5 -9.032929866688321e-7 0.0
0.000701905859248555 5.487446572129989e-5 0.0
0.0004370347548252614 -7.897809575012124e-5 0.0
0.0011159099352463166 -0.0001997315490735295 0.0
0.0011303457570044665 -0.00020967058871924416 0.0
0.00012047020705245812 -2.1369203229855218e-5 0.0
0.0008198314430271772 -5.409079593912204e-5 0.0
0.00036823342476747725 -0.00011045456265272007 0.0
0.0005895951045572596 -0.00011550890874112686 0.0
4.7602786770442276e-5 -1.2897809629402714e-5 0.0
9.465494289230932e-5 -2.272027399564367e-5 0.0
0.0007776236315768684 -7.717761588901558e-5 0.0
0.0007169851817871759 -0.00010065790299820008 0.0
6.08948340205301e-5 -1.4436249875441619e-5 0.0
0.00016908606882390373 -4.372500773430792e-5 0.0
0.00012780233604958832 -5.18230405243074e-5 0.0
0.0011716545227233625 -0.0001040939449319817 0.0
0.0008972468740067815 -0.00011499403510596255 0.0
0.00019792172013708534 -6.208493545459125e-5 0.0
0.0010871754407392662 2.3259152057849188e-6 0.0
0.0010028950285573713 -5.894310930996424e-6 0.0
9.205994398452143e-5 -3.390749276438685e-5 0.0
0.00063956167604127 -7.752727830707158e-5 0.0
1.2328912019315742e-5 -3.5205186286080026e-6 0.0
0.0014828299032618912 -7.265425404116833e-6 0.0
0.0014245541008213408 -5.441795973023701e-6 0.0
0.0004410569562624063 -0.00015410159087953643 0.0
0.0010912047120183663 6.8819481059998e-6 0.0
0.0009046764191553815 -0.00015028514158848814 0.0
0.00021962686029985024 -5.97078881191789e-5 0.0
0.0008691070748844643 -0.00022341561630986602 0.0
0.0002365458856848672 -5.582058856627607e-5 0.0
0.0012394093877300138 -1.8498169311804124e-5 0.0
0.0005733427129849363 -0.00011697584950181599 0.0
7.084817775126886e-5 -1.904932023033327e-5 0.0
0.0007377649886411101 -6.922282728331376e-5 0.0
0.0007302566182858496 -6.885317338638115e-5 0.0
0.0013236484883917764 5.173834448833913e-6 0.0
0.0007713658851270988 -0.00011659259083461975 0.0
0.0001103719768063474 -1.0615556626991043e-5 0.0
0.0012364883444420291 -0.000158218076046097 0.0
0.0013321360912634341 -8.347409149342761e-6 0.0
0.0010026957306028125 1.5755530944419942e-6 0.0
0.0010233631038814458 3.815593476557862e-6 0.0
0.0006099146305564001 -0.00016778295724771794 0.0
0.0014240874788569832 -5.3106666099579956e-5 0.0
0.000662509296211422 -7.539151288737655e-5 0.0
0.00020281489923032673 2.664519914181548e-5 0.0
0.0001931701286002637 -6.475525433576385e-5 0.0
0.000492498503802473 2.1130071409408415e-5 0.0
0.0012444403543208208 -0.0001131506980492224 0.0
7.770771441686937e-5 1.3351615605860056e-6 0.0
0.0007718132634323024 -5.52038535371064e-5 0.0
0.0011035884266470297 -2.9829723736781366e-5 0.0
0.0008743520541022417 -6.325239705257972e-5 0.0
0.0014511507665297867 -3.64750918721065e-6 0.0
4.435179640193456e-5 -1.1343604977104894e-5 0.0
0.001336872700247262 5.2305020022614354e-6 0.0
0.0014569863717862944 -3.7904639155876202e-6 0.0
0.0006795480734215484 -0.0001970906035648451 0.0
0.0007985526459250151 -7.257039710573357e-5 0.0
0.00059711278414577 9.054208197234912e-5 0.0
0.00036903178843884934 -9.42520349957633e-5 0.0
0.0004902223905258997 -8.543984596595378e-5 0.0
0.0006318040339930969 -7.8652313503228e-5 0.0
0.0003174590753650264 5.274826605012406e-6 0.0
0.0005285622822407794 -0.00013071128391127396 0.0
0.00029652282345321676 -6.180688593530211e-5 0.0
0.00020422780313083586 2.7880214804094566e-5 0.0
0.000676851885390645 -8.043108078510322e-5 0.0
0.0009855005356739577 -0.0001272717139044358 0.0
0.001196217462489276 -9.106628837331705e-5 0.0
0.000548196080510717 -7.116645189114691e-5 0.0
0.0003811389014545437 6.237473595254353e-5 0.0
0.0008926358160633915 -3.835681217319113e-5 0.0
0.00046469929749057694 -8.017715049988502e-5 0.0
0.0011238788048658344 -7.874759507862651e-5 0.0
0.000500975079688191 9.950322771205464e-5 0.0
0.0004558620827012555 9.668850099260621e-5 0.0
0.0007592614630112626 -0.00010671074626888616 0.0
0.0009292973785573784 -7.559967371259077e-5 0.0
0.0005660763237351382 -0.0001805194128646757 0.0
0.001065194271032176 -0.00021865690973988552 0.0
0.00041579020509520257 -9.468748141136295e-5 0.0
0.0009862183238894253 -0.0002248022997776747 0.0
0.00035150610451755533 -7.121564111517832e-5 0.0
0.001147290518053023 -7.982808859806786e-5 0.0
0.0005580802045414594 -0.00011377837859369953 0.0
0.0012358805545408312 -3.439791722325875e-5 0.0
0.000371201289672437 -9.158406002650812e-5 0.0
0.000726036289332873 3.82086560516454e-5 0.0
0.0005757731963159591 -7.780297936167078e-5 0.0
0.0006325113100865593 -0.00014405676869821943 0.0
0.000700552643693671 -7.054963179893544e-5 0.0
0.0007234448948250217 -6.859157362352878e-5 0.0
0.0004184572850164848 -0.00011317180725036913 0.0
0.00042185941025961763 -0.00011862036975904334 0.0
0.00029219011686216795 -7.236092834815374e-5 0.0
0.0005220382301945935 0.0001840106342023114 0.0
0.0006524313461003274 -0.00016779264218276887 0.0
0.0012547003718283393 6.74668052189268e-6 0.0
0.001097116875775191 -0.00011804797804201331 0.0
0.0008738825158841154 -3.710479810621985e-5 0.0
0.0003992634858621268 -9.378034314828855e-5 0.0
0.0009523340181354573 -5.258501688566796e-5 0.0
0.0007912588097384455 -0.00014975983796551405 0.0
0.0005588833508653521 -0.00010929331885092206 0.0
0.0013517408700157905 -1.731069822941442e-5 0.0
0.0014353992978863204 -1.1069995440328054e-5 0.0
0.0005325297178806654 -8.706996988969518e-5 0.0
0.0009299978980820004 -0.00021386809642515343 0.0
0.0012700551547671333 -0.0001400979507566139 0.0
7.90449225773544e-5 -2.0163272468077665e-5 0.0
0.0003804515938903556 -8.118205716544695e-5 0.0
0.00043355379044811683 -9.549522893598107e-5 0.0
0.001298658189873392 -0.00012252171985091371 0.0
0.0005275709205662079 -0.00012492800147635447 0.0
0.0010078015510553585 -0.00010351052906141642 0.0
0.000161361897437595 -6.159527715422951e-5 0.0
0.0007996375125771315 -8.543012775632725e-5 0.0
0.0011929076322112326 -6.947772338830667e-5 0.0
0.0009183358826511641 -0.00010909135815408384 0.0
0.00137817398426956 -1.788968888004358e-5 0.0
0.000947976324552157 -0.00019524396626947196 0.0
2.6880742527950144e-5 -5.3514630485702075e-6 0.0
0.0006517219351126561 -8.195390272846749e-5 0.0
3.466618047180237e-5 -8.708060216935407e-6 0.0
0.0005205373766297373 -1.6897184091166926e-5 0.0
0.00034142669888776177 -5.203579825765529e-5 0.0
2.721794771155315e-5 -8.042461146506603e-6 0.0
0.00038814089033975 -0.00014254268882227586 0.0
0.0003630523945830105 -0.00013071182180477776 0.0
0.0006751392301746498 -7.494484726188459e-5 0.0
0.0007172585832356776 -6.91106179408948e-5 0.0
0.0002749445443550004 -0.0001036664112394343 0.0
0.000490015247821769 -8.083714967785049e-5 0.0
0.000831515877960425 -5.4162778587425246e-5 0.0
0.0002835387017061038 -7.788492387248469e-5 0.0
0.0010132158293469748 -7.937718340631984e-5 0.0
0.0008097142427368766 -0.0001452214587298137 0.0
0.0002160203939719414 -5.250655647240665e-5 0.0
0.0001284255044131413 -4.3204874721715615e-5 0.0
0.00076384157412689 -5.6378522191190125e-5 0.0
6.0265316324216515e-5 -2.1136961771495014e-5 0.0
0.0014036504006891153 3.9607143561560114e-7 0.0
0.0005643090828571099 -4.4447553571023496e-5 0.0
0.0006840067170278037 -7.719862339256401e-5 0.0
0.0012238693660325125 -0.0001285420249127265 0.0
0.0013534230509652818 -0.00010248606229375362 0.0
0.0011101666038287783 -2.1870567138297092e-5 0.0
0.0006505533939985459 -0.00015970065240149487 0.0
0.0008297786019099732 -7.867609752424158e-5 0.0
0.0011903890872124062 -0.00017777472864845812 0.0
0.0007053931922861626 -0.00021238739118396128 0.0
0.0011741266871816633 -6.708819021762902e-5 0.0
0.0009229160501382767 -9.922592314111573e-5 0.0
0.0005127931678116182 -0.00012077342279382061 0.0
0.0009622873083962687 -8.482354168511538e-5 0.0
0.0005430070202421039 -0.00010596319388407132 0.0
0.0004586028620101046 -0.00014547502544741484 0.0
0.0006843005714337079 -7.334559323150791e-5 0.0
0.0010952610377758338 -0.00020396004901221404 0.0
0.00029037949475648356 -7.040767200215046e-5 0.0
0.00023408190527988423 -8.944361153028972e-5 0.0
0.0010240878570501868 6.09218561511064e-7 0.0
0.00035926399644880115 -8.107038941326453e-5 0.0
0.0009258221010895352 -4.624967400749959e-5 0.0
0.0006484853811656031 0.0002681876190118596 0.0
0.0011672353223481325 -1.9419304139644518e-5 0.0
0.0012326333400433727 -2.6057415898049227e-5 0.0
0.0007708862702604706 -6.478949146135355e-5 0.0
0.001080164954043732 -3.004179324387382e-5 0.0
0.000831740814139165 -0.00016326453090002431 0.0
0.0009016002574920733 -0.00022559288784052518 0.0
0.00045168461151299784 -9.587364870363055e-5 0.0
0.0005618027100189821 0.00011617849116435344 0.0
0.00031616875703340387 -7.412837836098468e-5 0.0
0.00033623923106509236 -0.00012840681096936316 0.0
0.0006377561835976018 -8.620684465124822e-5 0.0
4.440718671385201e-5 -1.141112134318094e-5 0.0
0.0002666085136189748 -9.582168209311612e-5 0.0
0.000732016457007556 -6.458672946794543e-5 0.0
0.00010443808912782307 -2.9439317406635166e-5 0.0
9.070685636835651e-5 -1.5213925912218538e-5 0.0
0.0007300603363667167 -9.786327068861289e-5 0.0
0.0007765148592644909 -5.363798392790457e-5 0.0
0.0013332606556236924 -0.00010101511962894014 0.0
0.0006411305060257975 -7.756036199469065e-5 0.0
0.000991231038617554 -0.0001152148884302808 0.0
0.0008069159680826801 -4.822810709757933e-5 0.0
0.0002187064305186382 2.076089411973276e-5 0.0
0.0002842205326047773 -2.4169608024646685e-6 0.0
0.0014072008109257152 -1.0490317615338042e-5 0.0
0.0009857248583559082 -9.663098016123439e-5 0.0
0.0002397451505233044 -6.370808638191011e-5 0.0
0.0008647668345861301 -3.641745584791141e-5 0.0
0.0007527758924897368 -6.951369771637056e-5 0.0
0.0007547901776340716 -6.15906179861222e-5 0.0
0.00034329548225920883 8.301726533799895e-5 0.0
0.000730862749574223 -0.00021800168853604304 0.0
0.001317639367190967 1.9309990992396295e-6 0.0
0.0007259541982365619 -8.515699262987478e-5 0.0
0.0007790106906011322 -5.433613848763583e-5 0.0
0.0009045821443998784 -4.981988572944684e-5 0.0
0.0006997469843302424 -7.203780726106049e-5 0.0
0.0007316551884252831 -8.030822984694717e-5 0.0
0.0003834494554378598 -0.00011676981506020889 0.0
0.0009449321341801523 -9.260239757986499e-5 0.0
0.000614804231844761 -8.290574012958556e-5 0.0
0.0007676484168802447 -5.5621940828472774e-5 0.0
0.0011408153689363588 -0.00020766746627398503 0.0
0.0006557669792792593 -7.698782336138875e-5 0.0
0.0008795163136498413 -2.9607936222722943e-5 0.0
0.0008155518673930567 -4.7047117286465207e-5 0.0
0.0001328419506553441 -5.0893490735779956e-5 0.0
0.0011032825866005677 -0.00010548908119046229 0.0
0.0007910963344329816 -5.015321581716097e-5 0.0
0.00043747620261028555 -0.0001441373869212635 0.0
0.0009392010152282405 -6.98183573617839e-5 0.0
0.0010192091187832715 -0.00022473439004893142 0.0
0.0014471600492884193 4.7294194629936e-6 0.0
0.0001143301051445085 3.4262578118407386e-5 0.0
0.0006232625604067119 -8.846994952815456e-5 0.0
0.0007797322631512819 -0.00021098115518858218 0.0
0.0005155806886830564 -0.00016176167733244324 0.0
0.0005843359419677857 -0.00018607190047424427 0.0
0.0001338693936077047 -3.544321545207262e-5 0.0
0.0010111332999136254 -0.00010980672437476641 0.0
0.00045557413003772325 -9.347955291718569e-5 0.0
0.0006357118668205206 -7.964852733366974e-5 0.0
0.000547303029184199 -7.471894165015103e-5 0.0
0.0006005580124618113 -0.00018442195942407742 0.0
0.0010635749563350665 -5.138319318702079e-5 0.0
0.0013584072535835765 -6.639003870114952e-7 0.0
0.0008307895801324078 -0.00015492934135309764 0.0
0.0007213006616763656 -9.041058132984277e-5 0.0
0.00048722481726587484 -0.0001191860495153864 0.0
0.0007575255912925975 -0.00022160086562796814 0.0
0.0010597200017670636 -8.93836866919633e-5 0.0
0.00011926952893489236 -3.298219439624745e-5 0.0
0.0012953911894458844 -9.698311772215008e-6 0.0
0.0006282374548861898 -0.00019080326245824803 0.0
0.0006402281794064226 -0.0001705767144661496 0.0
0.0009645404711752813 -0.00018838021457690392 0.0
0.0014633626702757955 -1.4508463184268522e-5 0.0
0.000544812370967416 -0.00016831829137845233 0.0
0.0005180753838696789 -6.97855979009106e-5 0.0
0.0005149226092010866 -8.773180493621435e-5 0.0
0.0008954644158421873 -5.767048310604125e-5 0.0
0.001414780207168286 -1.0142124079196205e-6 0.0
0.00013937258378664294 -4.6138758482205135e-5 0.0
0.0007366057915679058 -7.622246853157002e-5 0.0
0.0012616865619002576 -0.00012382225374876416 0.0
0.0014069993923517927 4.814690463441721e-6 0.0
0.0004471684917512877 -8.348941567438665e-5 0.0
0.0006414541554735307 -0.0001940503400854305 0.0
0.001358631865540861 -1.3027803807151687e-5 0.0
0.0002756906056910472 -9.243244527555591e-5 0.0
0.0014428391640148093 -4.5686920443255263e-7 0.0
0.0004669079967992875 -0.0001598787100623232 0.0
0.0009503062615620085 -8.244344133423574e-5 0.0
0.00030509820427518245 -3.611144610073412e-5 0.0
0.0008963307782357314 -2.682431653762131e-5 0.0
0.0014052493954771175 -5.1734584828016685e-5 0.0
0.001083062820109535 -8.037437581586199e-5 0.0
0.0004189518160075947 -0.0001450812558253878 0.0
0.00031036637277013764 -0.00012048023443382504 0.0
0.0003842879250399463 -0.00010977960102832664 0.0
0.001166244907399292 -0.00018647758114875756 0.0
0.0010582292675399537 -3.092866958067054e-5 0.0
0.00025831011892036855 -6.742839400069538e-5 0.0
0.0005968742737233912 -8.884290012933279e-5 0.0
0.0008906579514824213 -6.566414881538996e-5 0.0
0.0005732480385043328 -9.558977712663954e-5 0.0
0.0013757839190832266 6.547630384380294e-6 0.0
0.0009676892784102923 -2.5808762464520243e-5 0.0
0.0006155588630852034 -8.197084297476935e-5 0.0
0.0002654433747594718 -6.64187945115342e-5 0.0
0.0010218265730949072 -9.142645025608447e-5 0.0
0.0008539089536282466 -0.00020240673913006485 0.0
0.0012219788632338757 -0.00016820844442716522 0.0
0.0004945746157902646 -0.00015869885537593605 0.0
0.0009496183104561699 -1.48693866563137e-5 0.0
0.0005462681267903514 -0.0001021138965387058 0.0
0.0008094188909565361 -0.00021284860237245407 0.0
0.0012131280021933574 -0.00012680228914765883 0.0
0.0010578885231847716 -1.7477219069979006e-7 0.0
0.0013724786773937079 5.822406962252974e-6 0.0
0.0003974047206681333 7.612800528325903e-5 0.0
0.0013233275148673911 6.405201805404194e-6 0.0
0.00048338021881707725 -0.00011253748435460336 0.0
0.0012087828840640525 5.360499430599135e-6 0.0
0.0008851829547014102 -2.3862376358698427e-5 0.0
0.000980060071239388 -1.595337623856072e-5 0.0
0.0004700284582047581 -9.082915143780631e-5 0.0
0.0009855249842818728 -3.17240446523055e-5 0.0
0.0006683093472484387 -0.00019800553813739783 0.0
0.0003957615961050839 -0.00013633573427519467 0.0
0.0007877781682392146 -5.145961499207247e-5 0.0
0.001056081702884209 5.308482304754854e-6 0.0
0.0006307440150556876 -0.0001793428786889244 0.0
3.2785968879882206e-5 -8.21038577970698e-6 0.0
0.0014244002286510381 -4.504549606661054e-6 0.0
0.0011977800330162075 -6.404450768906779e-6 0.0
0.0006906319549413222 -6.412162863697446e-5 0.0
0.0014459605437762552 -1.0286231814133044e-5 0.0
0.00044926411781843773 2.9120820083143567e-5 0.0
0.0007629444084388146 -6.838439525741932e-5 0.0
0.0014804010631231268 -1.2701886526743582e-5 0.0
1.2036690274905477e-5 -3.81708734336404e-6 0.0
4.70027307421331e-5 -1.2352400398370458e-5 0.0
0.000464986245050067 -7.838822592146584e-5 0.0
0.0008409687278578961 -8.053644367434875e-5 0.0
0.0009957534214213874 -2.6212037985441378e-6 0.0
0.0010953506068006906 -0.00019309345151990106 0.0
0.0014287009461024208 -6.888695460314468e-6 0.0
0.00013101983166966723 -3.685300755310962e-5 0.0
0.0003386634639915033 -3.65012140564611e-5 0.0
0.0008580751349872933 -0.00019128894662179383 0.0
0.0012479745255634747 -8.248160843543879e-6 0.0
0.0003953148317250161 -0.00011043490634957001 0.0
8.994334616078361e-5 4.109051140387454e-6 0.0
0.0008798856390610541 -3.510977517650199e-5 0.0
0.0004917820115756938 -6.902292197846776e-5 0.0
0.0011044262891679688 -6.16833599160237e-5 0.0
0.0007202273916165895 -6.720757981637466e-5 0.0
0.0005670407662541361 -9.839202417346967e-5 0.0
0.0012788027413763853 5.569099483489308e-6 0.0
0.0012826063127958488 -0.0001364969417914663 0.0
0.0010578477412027823 -0.00021001499610272703 0.0
0.00036288491177533585 -7.994979237192243e-5 0.0
0.0013411689165295823 -1.0226673437294394e-5 0.0
0.00025215845266961695 -7.05981496892104e-5 0.0
0.0013554530705159366 1.5957832354936852e-6 0.0
0.0011778040010112152 -0.00018541489403685037 0.0
0.000920025049094312 -1.883540578802643e-5 0.0
0.0009787760937719633 -0.0002160492123569154 0.0
0.0011150768370555874 -7.461771552326218e-5 0.0
0.000693281618632602 -7.051166949102729e-5 0.0
0.00039293620204866527 -0.00013034342830722486 0.0
0.0006423444618316661 7.301988954416905e-5 0.0
3.5123785339795686e-5 -6.02384609046317e-6 0.0
0.0014070297107670203 -5.627229822813079e-6 0.0
0.00017292233857853893 -6.710036658186448e-5 0.0
0.0010455098770007602 -9.182256727135769e-7 0.0
0.0002859409921073666 -0.00010816881830643893 0.0
0.0009528914548991747 -7.428007764766378e-5 0.0
0.000329677993003274 -1.9005741218680003e-5 0.0
0.00015180719792252869 -4.244113991495018e-5 0.0
0.00020705324927862786 -8.397680714914233e-5 0.0
0.00019044562157727833 -6.140400174946746e-5 0.0
0.0006094666378446469 0.00016535225429222021 0.0
0.001104380414661859 6.928750072527994e-6 0.0
2.4225101922910076e-5 -6.5951806911370215e-6 0.0
0.001187073264981557 -3.7396132022485626e-6 0.0
0.0011850322128190306 -3.3156141509993785e-5 0.0
0.0008622592028696004 -7.494236113532203e-5 0.0
0.0007114130392967684 -6.759495635271279e-5 0.0
0.0004300213441811746 -7.257266743393146e-5 0.0
0.0007084552944432511 -6.842483657348542e-5 0.0
0.0008761103041362724 -0.00017405462327015878 0.0
0.0004712825718291537 -9.398072977846737e-5 0.0
0.0003543052068884447 -0.00012988412374387165 0.0
0.0012177364282325745 -7.91934499940627e-5 0.0
0.0009990249074743112 -7.021705313810009e-5 0.0
0.00017143532276028814 1.9024418119017344e-5 0.0
0.00048752725456675735 -1.3607689901410184e-5 0.0
0.000933533191302882 -4.820859354975803e-5 0.0
0.0008804812268138073 -0.00021499492144682616 0.0
0.0005927445202203308 -9.122860499240059e-5 0.0
0.001127172116461148 -0.00020157475039028896 0.0
0.00010553561052921853 -4.0213331615786835e-5 0.0
0.0009798121780675787 -0.00018283766437474729 0.0
0.0005495784517404335 -6.657873986731291e-5 0.0
0.0013467153984910677 -9.418537246979914e-5 0.0
0.0005314560283998699 -3.2554732405255917e-5 0.0
0.0008922709610906464 -2.475812124378691e-5 0.0
0.000736066500339471 -9.405738655306339e-5 0.0
0.0007730744622263297 -6.679046389883629e-5 0.0
0.0008331178904355174 -4.165976292495597e-5 0.0
0.0008441400763462188 -0.00021269660535119713 0.0
0.0011053401752305302 -0.00020401674509982063 0.0
0.0003867945067769747 -9.342849765426983e-5 0.0
0.0009080487329035774 -3.4886838824984724e-5 0.0
0.000882587319890508 -3.658239723162857e-5 0.0
0.0010991862638761844 -0.00017949851350267196 0.0
0.0007000979970578197 -6.926884697470378e-5 0.0
0.0007727602126846178 -5.0085983741915726e-5 0.0
0.0003912779250706653 -0.00012499914258372425 0.0
0.0013381415224313885 -8.602883878804671e-5 0.0
0.0009260202915040383 -0.00022611876297953408 0.0
0.000631620979109692 -0.00017381824746362325 0.0
0.0014247434117330147 4.384854504683885e-6 0.0
0.0006232212174369739 -0.00015348519868964817 0.0
0.0011589404400653186 -5.987767068016709e-5 0.0
0.0004246821179383938 -8.102342019943959e-5 0.0
0.0009549157675126826 -4.675977418339599e-6 0.0
0.00031270624044702584 -4.447410755208302e-5 0.0
0.000674475516805332 -7.563920316640355e-5 0.0
0.0005971665350426235 0.00022654902440769084 0.0
0.0014568717287169392 -3.7193100702958034e-6 0.0
0.0008360046723447428 -0.0001486546650953889 0.0
SCALARS damage float 1
LOOKUP_TABLE damage
0.7776118865458366
0.847339503476225
0.9575151255745853
0.49183010213455314
0.9978292439944066
0.9994441223765329
0.5120598888039332
0.9308263628930267
0.9247703984412906
0.9320216543559352
0.9394987922898443
0.9437099765339989
0.9488341757606601
0.9538789624417653
0.9546510365521625
0.9526858989243544
0.9495843156462284
0.946818823415615
0.9439258267673132
0.9406661771397749
0.9377154963015859
0.9364074743644788
0.9335191617166485
0.9308228559408895
0.9288142382989077
0.9263801115422644
0.9227511957409744
0.9193550440165275
0.9149412141793251
0.9104835951103665
0.9036956510734854
0.8945535152300733
0.8384363506120283
0.8827888501562696
0.8875629714324277
0.8933907978209499
0.8984906039188868
0.9021845013982851
0.9045523932725527
0.9058804178358605
0.9080353590363986
0.9106119656519335
0.91193680103518
0.9116759418746995
0.9158533367565402
0.9160458982332442
0.9026398896639171
0.9067490476279507
0.9100188150537146
0.9148911536668414
0.916840843501139
0.9211145095442046
0.9229002946526705
0.9302681331395545
0.9278283727249668
0.9329724776651074
0.9330277108213104
0.9366555961392863
0.939213264483661
0.9437895551116517
0.9431684499088445
0.947514468668781
0.9492506113548753
0.9528423845919043
0.9543701392982625
0.9522202636223663
0.943814109270003
0.9348179476551745
0.9332620074884331
0.9166367341513281
0.9331632104009503
0.9364343217459397
0.9339501196205625
0.9580403831418739
0.965873817883846
0.9705108085271902
0.9754378519942947
0.9752409430256952
0.9804565503740987
0.9791777848933247
0.9786515498312883
0.9809537573100489
0.9816356062971306
0.9791243566911011
0.9824515341621615
0.9846958475798578
0.9922169008518149
0.9928776466152681
0.9950625983144211
0.9940245957572112
0.9937983973205864
0.9941218382987393
0.9941998950724918
0.9944545173979444
0.9939036364185291
0.9951602584318961
0.9944803197824434
0.9952749124686964
0.9959642187948528
0.9962276157598252
0.9960801393531
0.9957657285568988
0.9958554649022661
0.9947399236234256
0.9952066301482375
0.996109036349789
0.9956441616880742
0.9969679906028394
0.996869896396523
0.9973147805546227
0.9968586407976345
0.9953540647557513
0.9972664651643572
0.9941475486960053
0.9862851624169998
0.9745405975813581
0.969379877473331
0.9657099299473816
0.9600058626068749
0.956001123155161
0.9502674142865397
0.9391613359078858
0.921588153246732
0.8950035229296822
0.8782289251887953
0.8584900900868442
0.8346384310378686
0.7844076565696899
0.7374628801275808
0.7281754812357295
0.5580954625798584
0.7118818229502819
0.7833143092096008
0.8404568724643127
0.862663891029559
0.8759558939702019
0.8835246985606213
0.8895508851225323
0.8937437217060259
0.897306425193637
0.9009364322089235
0.903268325798355
0.904160784693115
0.9044049650344075
0.9039945390676494
0.9029358960446939
0.9016845068860222
0.9001061190003078
0.8998127388125094
0.9043300156761009
0.9078985433121585
0.9168158239008021
0.925981116642116
0.9368975747370134
0.9519283561245112
0.9669661052230142
0.9721472727669194
0.9948859845530623
0.9969261054372636
0.9986950926066606
0.9982971700343082
0.9999490884366694
0.9949126486710574
0.9867126558684788
0.9716567888606512
0.9466538397590147
0.9135581057002127
0.8777882595519444
0.8365935199551945
0.7756505476345557
0.7014825563165998
0.6376699217143869
0.4204915489742485
0.587717615358459
0.6894441719747758
0.7602131937048157
0.816945933665166
0.8726731057919334
0.9072071263571263
0.9404955532147454
0.970020335739654
0.9819831423024294
0.9937870592979428
0.9957804791162596
0.9989513359526005
0.9947309704900995
0.9544303213858879
0.8156870740236489
0.9430495633132933
0.9945335377833568
0.9430750593224229
0.9925432374568477
0.9663911138331195
0.9915346908954819
0.9813227190710736
0.9980347018377074
0.9275719338008815
0.9934549409777753
0.910898396032952
0.9364522517740308
0.9016587176469318
0.8279362768728343
0.8614068578729077
0.5240516934689984
0.8137385450558384
0.9657817079975176
0.9116347561980767
0.9288607019002828
0.9028713912910613
0.9008583994314654
0.9471488502130644
0.9381967238649485
0.9050622370001951
0.9540889098395023
0.9166374887756802
0.9225605245915355
0.8920325187803931
0.9282296504989108
0.9798580380250297
0.992120470431158
0.9805562892796298
0.9942818984982545
0.9953207093564727
0.9522892674002548
0.9356673073467452
0.877954104509241
0.8983132446278149
0.9183231041287164
0.9507558186109779
0.8681950610138868
0.9104236887694599
0.9901042827294394
0.9739139216213515
0.9417702085181014
0.922819880219699
0.9330907606050848
0.9037175916341548
0.7782767904896859
0.7274324306443773
0.8846761647719366
0.7780049618596798
0.9953310031896027
0.9876082695049119
0.9231101666238276
0.948103265824948
0.9909728910250756
0.9978182345809745
0.9218209220462213
0.9833845845000057
0.9058754607039728
0.9071373726756679
0.955831400711215
0.9696240938706435
0.9923074957805113
0.8351104099319429
0.8987193405653499
0.9946765830265661
0.9986652515553974
0.8948532999337936
0.9661841485963741
0.8685946788854674
0.7242966795219075
0.998679683958171
0.9932970551126353
0.9835354468076206
0.9860777645128292
0.9867199109231842
0.9839719141689947
0.9752831175875334
0.9712078953252483
0.9617928090983496
0.9569001856653905
0.9660267012267013
0.9505820565749398
0.95831650690612
0.9431338577976347
0.9509535900636741
0.934461177248276
0.9690296599330659
0.7995484449934854
0.9253516497866169
0.8318957890757255
0.9347604369084356
0.8739512979095809
0.9406930698576277
0.9017884233418483
0.9453929551369252
0.9149665970801434
0.9477568477341556
0.925753633594318
0.94959421224485
0.9295930598135251
0.9495190276657921
0.9348650605299527
0.9505372343895924
0.9346697149718186
0.9475870285966468
0.9351252236622597
0.9463945659289603
0.9371997470101595
0.947312865999243
0.9396045448610213
0.9484288486840055
0.941089937288147
0.9486172645495696
0.9421155900000429
0.9495980877786961
0.9414053104811242
0.9478795679012075
0.9433388244657783
0.9480323107308308
0.9458545963897693
0.9492143006942014
0.9460842107291798
0.9495629331655786
0.9475685644155447
0.8587087939474164
0.9507170116888091
0.919262295265592
0.9375265025700348
0.9487165090099
0.9516606358401006
0.9496881790874796
0.9466438317630029
0.9478234015642686
0.9524260541280329
0.9533638446420245
0.9497488750406119
0.9540788884875671
0.9541511009777253
0.9547736991936856
0.9443251530615405
0.9456607570070911
0.9544727751502219
0.941562916138908
0.9431360682587736
0.9554670322219018
0.9551696156444034
0.9386605092270127
0.9412032998804335
0.9561769466110964
0.9557222197818142
0.9353957640491148
0.9377174860365738
0.9568345730044073
0.9565469581500764
0.9319764312417178
0.9338872204189876
0.9578013518602649
0.9574708078482389
0.9276962367405036
0.9312756610324038
0.9243874976846735
0.9201360981901038
0.958060575718447
0.9588486157433407
0.9583266732204845
0.9565549970296169
0.9514487069438972
0.9577453362042867
0.9550698558763557
0.9561140250514115
0.9285119670899457
0.9226752580610637
0.9336401431017781
0.9597380533440281
0.9255250991686366
0.9195999788652308
0.9547006467908612
0.9228906576429614
0.917565428399857
0.9215877758733851
0.9156986161189461
0.9115014619213347
0.9092827416102256
0.9053535442892735
0.9201699269352667
0.9052790058861586
0.9005357399047375
0.9253304653653444
0.9242192741936677
0.9003584466677093
0.8955689109442047
0.9536228727984157
0.9541261171044734
0.9280893736017304
0.9264034128986188
0.9518159533581332
0.9521740493151679
0.9554651826156698
0.952022222855439
0.956863689697677
0.9525284748236945
0.9577551688964764
0.9527394192879672
0.95885427823089
0.9473295711392435
0.9519865033034928
0.9597046834171078
0.9303980894378084
0.8957974881962781
0.8909250932968991
0.9645302232828834
0.9664591395430591
0.9612677160660182
0.9706263322423571
0.9290310920327696
0.9688665366613747
0.9631842503547678
0.9328275239078272
0.9317143304177918
0.9280265851412726
0.9711749661406953
0.9654263650703687
0.9354846643660868
0.9368294256769714
0.930306525534319
0.9260797445188494
0.9730964423637544
0.9678340474275438
0.9545759631611069
0.976454338951615
0.9568722663306911
0.9440972061831561
0.8920401718713056
0.8882970120337612
0.8859950006975538
0.8849056456929879
0.8794309728926103
0.8799478736974976
0.8742801714260977
0.939092533968812
0.9407131839745384
0.9284642723650839
0.9242352096052915
0.9700757209174792
0.8767161635931942
0.8696649159355648
0.9424841853402429
0.9447735142222963
0.9434294590560107
0.95782852896529
0.9399940400109766
0.9579265581545987
0.9317704104356379
0.949272286137018
0.8750947168232878
0.8681990347076045
0.9268106642663955
0.9230177676606307
0.9463465747260467
0.948533528341179
0.970957276270736
0.8911719864813893
0.8951186308623151
0.882898113998043
0.9583200012132698
0.8771938926822864
0.8679774521796618
0.9439867594591718
0.925031816058872
0.9214090784915686
0.9497156206077598
0.948395423954469
0.9489637804539556
0.9476182673203736
0.9499422052329008
0.9519025674710454
0.9321825630998369
0.8790588998984377
0.8742286633957451
0.9717628272808577
0.9786341265824889
0.8921115802371947
0.8864032812466991
0.9615437983479826
0.945951894972741
0.9061918870179411
0.9288952179533075
0.9533257993505835
0.9547731951620434
0.9534264963126609
0.9559474707279015
0.9547797771122825
0.9571155482109
0.9560956357634843
0.9581854753906254
0.9572906417039863
0.9590651631277977
0.9598455820802583
0.9606784335813244
0.961444550733873
0.9624014303559254
0.9632799778794723
0.9639638777979914
0.9582899761898358
0.963029347127394
0.9642423770192589
0.9652551868115168
0.9652805711232824
0.8935982787489896
0.8973969455013104
0.9236420820383461
0.9206164392424822
0.9643562778251341
0.9651159301329157
0.9660673930916207
0.9659157389993248
0.8963672890286555
0.8996754796202205
0.9490153850972655
0.9480465357612554
0.9500147265698239
0.9734223007284009
0.963518084914206
0.9560632254274533
0.8629480654573745
0.9557254555832271
0.9669260356008184
0.9668451706379434
0.9661230941194437
0.9673509163950936
0.9540007868360832
0.9494032946047493
0.9466277127484067
0.9031386873758531
0.9227072677106157
0.9196532684892736
0.9525393228142365
0.9680486716869313
0.9688724668431726
0.9681159442058882
0.9700402750385626
0.9689301759387048
0.9708768892116818
0.9719269543266348
0.972840430783121
0.9211458692409378
0.8995726312855663
0.9013632321216828
0.9547494547057587
0.9748872637545438
0.9667291203347702
0.9735271866051799
0.9748961932417519
0.9194872290178399
0.922088369695589
0.918897524038545
0.8654566875114281
0.9289500776786388
0.9571685782891822
0.9343040829936214
0.8864576701258865
0.9767543761604814
0.9690130257704214
0.9514622587509095
0.9193926529706433
0.9787318405730445
0.8977979117122354
0.9237821253026551
0.9514418688351948
0.9551758276692138
0.9698044444038232
0.9208516062661255
0.9177827591624154
0.9022535332280628
0.9037856778592004
0.9204749519025599
0.9754376938497792
0.9764672680158972
0.9158388049165815
0.9150670357747258
0.9745877976453267
0.9556965665209669
0.9163008611604445
0.9140710434130833
0.953586946103575
0.9546326143129028
0.9358169080495164
0.969894020855602
0.9770494735991768
0.978303313111019
0.9678666485497593
0.9687697919009426
0.957967418727754
0.977623968031104
0.9794982436222943
0.9047566040953808
0.9061731055060663
0.9812338553453884
0.9818714744125584
0.9151170388665854
0.9130001672379603
0.9529824417507743
0.9580292009935076
0.9122745351236458
0.911468176096694
0.9120405049004164
0.910891497702355
0.9568715238304117
0.9691607286086998
0.9354082444243282
0.9447624786093745
0.9520357390602987
0.955584878901178
0.9839587536872075
0.9842015652349577
0.9424370189915995
0.9786768347850192
0.9622856761653162
0.9104932613948812
0.9098369168671079
0.9105504108015174
0.9089030347104937
0.908188079623874
0.9077205579821308
0.9077984805213172
0.9073904728040243
0.9078826523719342
0.9072875879589496
0.9082713479372209
0.9063891913486946
0.9070987472072712
0.9066634290324866
0.9056739001030316
0.9044644066641947
0.9055250298642994
0.9218922088031637
0.9006978943724621
0.9668974730988728
0.9679116509729258
0.9020905744540608
0.9568729402220254
0.9588130921737567
0.969766688131703
0.9688883058553094
0.9587074368148064
0.9657507156038327
0.9669813032974823
0.959803873344007
0.9644347219215552
0.9528549339672424
0.951123241771484
0.9496413891844079
0.9090896342859062
0.9583552609933225
0.9656795378947208
0.9049668866132209
0.9860100810964834
0.986304248674942
0.9845377996356306
0.9866542465259264
0.9440637892467525
0.9504576026772281
0.9428866119506321
0.9854981356021064
0.9437071844112941
0.9882610872479715
0.9888790860499891
0.9871108665907148
0.9897127028736434
0.9881769370902144
0.990498678069636
0.9922028964786793
0.9927169203482925
0.9035389300641735
0.9037671376001025
0.9065059019295727
0.9564719501698604
0.9601812473187207
0.9473700726609042
0.945196609699639
0.9602768987370962
0.960103612413386
0.9608198444338539
0.9498343225994437
0.9497208040324584
0.9536019990463335
0.9027607642960465
0.9298155642547418
0.9496802027308219
0.9615147571008118
0.8758363487854917
0.9630560426478687
0.9944711952984798
0.9937445211761907
0.9242766841843446
0.9205436755747683
0.9505037503881211
0.9057260817203799
0.9082506554216101
0.9084574523066606
0.9108986396735049
0.9904564766321301
0.9603457878321711
0.9673277205199133
0.937492040427773
0.9016150799135946
0.9025511584159215
0.9177705000813834
0.9707768907027479
0.9697904382486084
0.948357359045302
0.9195576420895709
0.9164447076777154
0.9179951825578693
0.9146850473048135
0.915095079160654
0.9110170222011201
0.9133202956309698
0.9089816144176625
0.9130764528289874
0.908012669088586
0.9125586383508739
0.9076839803080475
0.9124939761031203
0.9076864461660313
0.9179019340564705
0.911777738011618
0.9078469691199433
0.9112293772292992
0.9132397970475595
0.9166391210007147
0.9192913135170784
0.912116566827187
0.9080883089712972
0.9159304878312069
0.9682735732101275
0.9689645132938689
0.9699684087615592
0.9711118944243067
0.9720040291755376
0.9735971328387018
0.9726100609888397
0.9750025470476452
0.9735065926532835
0.6758808693967978
0.9747436621286321
0.9733176449798144
0.9469905610103028
0.9563803136899474
0.9575422578250739
0.9554544152359937
0.9566903485976329
0.9543951167987859
0.9556822169464926
0.9577079187756702
0.9568417143732113
0.9587521648790727
0.9577935764336596
0.9592105672032418
0.9560622317431234
0.9531334290981894
0.9514276501544798
0.9600816726316503
0.9603492347358595
0.9182485723920535
0.9418495221728943
0.8929634328678135
0.9643246585602401
0.9391469682053788
0.9390795129406769
0.9541538697546882
0.951532073118408
0.9853286215110029
0.9591265602508706
0.9536084877631322
0.9538784295599049
0.9510224924649096
0.9436848306107745
0.9407495552563946
0.9548711833253287
0.9755444716511824
0.9740149411966468
0.9425351479902636
0.9405071077307426
0.9416986365515586
0.9406982631216103
0.9405945333204503
0.9400400102073422
0.9418423057718179
0.9406723989709634
0.9105207820162768
0.9239356331539772
0.9556131848678157
0.9624061804171234
0.9227784288926525
0.9187095431692041
0.9040720211190784
0.9044845452990009
0.9591968630851101
0.9619936978230336
0.9872088679182487
0.9079354128954535
0.9551160328951855
0.9702451673345668
0.9682909293905521
0.9864763888630453
0.953565736834859
0.9915059126755841
0.9913804138102671
0.9938320473555189
0.9914881604137984
0.939837060549759
0.9122802510111208
0.9582812780239217
0.9190184157555747
0.9601439647599314
0.9210804462517707
0.9221323505016417
0.9866083184815272
0.9408368288302983
0.9658902360310836
0.965106301932341
0.9448507858271897
0.9448844342568254
0.950844236579696
0.9432029927121227
0.8993399293970652
0.9004692435231347
0.9044032041042315
0.9631606111675858
0.9713111685704974
0.9520137733311671
0.9471489113599796
0.9123223013311256
0.9090802120584943
0.9412074601382963
0.9456554589116122
0.9483737244776718
0.9489046639673062
0.9519568528609287
0.9413603084287878
0.9543401647572497
0.971582486853066
0.9388935215609601
0.9381333209688997
0.940564094576268
0.9375108011110935
0.9888391965456723
0.9884804011117834
0.9912154104569884
0.9870856718445024
0.967718832707931
0.9680805431195071
0.9761297319798647
0.9749799510673735
0.9497184876475632
0.9482221989373082
0.9559232998569656
0.9392401166506489
0.936399843013909
0.9676891017451952
0.9671462106084587
0.9725563134806924
0.9728905627468325
0.9656782595281149
0.8987367391581942
0.908286080127244
0.9089361030869478
0.9115969630721545
0.9125073536903419
0.9080652936590647
0.913330324011454
0.9084678842070211
0.9144943126884969
0.90980008663548
0.9626613384348566
0.9351406365878157
0.9833628732388716
0.9843588203214169
0.9858979020087566
0.9833535786988655
0.976173989960599
0.9484185356798212
0.9901284345400392
0.944589324547412
0.9324561602385006
0.9418660376500876
0.9467411645661622
0.9635638229711753
0.9634935980902842
0.9771307667781103
0.9739411781717378
0.8989877755953289
0.9051423842533524
0.9067950500832903
0.9101723859570445
0.907747419636569
0.9791246323830963
0.9696707908426908
0.9641403926958093
0.95807049309213
0.9530227713079705
0.9715491085247088
0.9770494182852596
0.9779472130420326
0.9585407662498939
0.9639785441749623
0.9244343000447883
0.9254958095974392
0.9166903710297565
0.9128557673418178
0.9052884036821314
0.9088440515652781
0.9175402200620293
0.9142382507540638
0.9236653640526472
0.921500855610698
0.9303977090495745
0.8979361382836858
0.9639065186117747
0.8992887457442242
0.920350716527465
0.9212650558435046
0.9592113070273489
0.9740523454112657
0.9736450209623715
0.9292999678363377
0.9114567596241643
0.9097346222218111
0.9426766140569606
0.9880135929646154
0.9449253479790881
0.9857774498833213
0.9336989569259712
0.9495548196053335
0.9461869112086146
0.9474054858472969
0.9254422760489538
0.9438183881015926
0.9109305215922233
0.9777705955423242
0.9767946970269996
0.9748228165262862
0.9764892821979809
0.9792845990064358
0.9783743319131595
0.9137957881723553
0.9168915374639834
0.959070852000649
0.9637222267896722
0.9175082352263121
0.9385667074233314
0.9353818949962085
0.9532827312904332
0.9933652608503462
0.9364938679859649
0.9334852953441967
0.9790817852143411
0.9782969104642272
0.9632979947651032
0.962923224679726
0.9621672352372843
0.9534859413836115
0.9092099372059577
0.896123432570131
0.9746489775052082
0.9611392206955511
0.9761890016411853
0.889998335047663
0.9165656864897154
0.9120964115873015
0.982954529175789
0.914104025617512
0.9118167126055745
0.9125817573722309
0.9101869981353573
0.9102672669787514
0.9099097063339782
0.9851867871146825
0.9829596319928583
0.9441347543784853
0.9784036338547978
0.9643916516065614
0.9633215482322556
0.9273370249724022
0.9148301093526292
0.9134067948350503
0.9338606413417662
0.9249834573120445
0.9008298023046439
0.9286178460811303
0.9267074371570798
0.9309381812775767
0.9269101136033899
0.9427254128478988
0.950182661978274
0.9646873408902836
0.9246954785236084
0.9791670774542494
0.9429204172790269
0.9345681077816045
0.9219794107994351
0.9306463453937738
0.9377560788312143
0.9657609683479819
0.9655639894429601
0.9084548419889307
0.9095966424855312
0.9077496733781004
0.90817173938435
0.9197249779360968
0.8971985801149245
0.9017025468376493
0.9815340786476455
0.9802817713950825
0.9765472383259631
0.9866278858003664
0.9868040054717021
0.9924735223311585
0.9083910586438182
0.9089315026986001
0.9677552515348306
0.9044727545141317
0.9061837885270053
0.909960653751725
0.9162256593466828
0.8955139099899541
0.9592156662908402
0.9589455949053634
0.9564832901172252
0.9565667667613706
0.9533714431125542
0.9585757965850344
0.9626697678431562
0.9465506597560988
0.9481006221793775
0.9076324868157675
0.905529408265551
0.9174564961202132
0.9138520249058115
0.9076380732625726
0.9107696187537135
0.9194625994992608
0.973267729075822
0.9708134531161652
0.9763343525593704
0.9736422441710405
0.9707702380795983
0.898826109420849
0.9384712274396747
0.9857398959969454
0.945312569865389
0.9718600660984206
0.9535808280256837
0.9517323275673144
0.9519175718604883
0.9514239665632469
0.9513478214974689
0.9514661142447015
0.9508394540696966
0.951238701669304
0.9508693123009321
0.9518165316775965
0.9511152825242527
0.9873224260227804
0.9076901421208516
0.9420020256958477
0.9403594917298257
0.9492301726039467
0.9428155857709795
0.9548852408232842
0.9674209708265032
0.9181975868145362
0.9144572113714349
0.9210315346372999
0.9247377012246265
0.9374932794060377
0.9435711097719743
0.9455806558959493
0.9417049188988692
0.9128433972512959
0.8929793025468512
0.9187131782578609
0.9164372565964259
0.8941642022145702
0.9770514791708951
0.9773117604946149
0.97873988657659
0.9767002834795726
0.9517588985963036
0.9698460531669403
0.9191049551591088
0.9617916976597544
0.9611090572312023
0.9454005680621071
0.9283784856934146
0.9434832982273332
0.9938535709999997
0.9961756145992204
0.9953998793813614
0.9973695188903281
0.9960309869842814
0.9942379437058678
0.9897333456946811
0.9804000833482421
0.9398331706692509
0.9679817603500696
0.911028378218038
0.8954515440790342
0.9007552030592592
0.9974721638421823
0.9981410869888554
0.9980694769269747
0.9495095755835777
0.961345056254184
0.9625098730675687
0.9645289294025016
0.9328484005113036
0.9607112751875215
0.9731339297613641
0.985119927290286
0.9820422172651897
0.9847960926183223
0.9801505155768365
0.9037808936361454
0.9426382141103375
0.9441538825552945
0.9443734716790483
0.9468581089240734
0.9790851791755918
0.9226197968477089
0.9169222506443264
0.9104986071531121
0.9221157750083001
0.9244690347548644
0.9825997753414183
0.9864446027338557
0.9625901706495515
0.9061292075795015
0.9177704986032276
0.9829568252724221
0.9735225771239513
0.9646871361351342
0.9518072913344732
0.9752776395419344
0.9843259460403465
0.9868707149353966
0.9419672809276047
0.9557009496960831
0.9720447533134736
0.9830682815115932
0.9409890833982536
0.953901319817889
0.9660811831510315
0.9643881599971963
0.9813916959925911
0.9315811743330935
0.9386221574072551
0.9070902107667332
0.9071766170131759
0.9833072253295896
0.9096869911375903
0.9761299479079454
0.9693622111352939
0.9944017794744687
0.9927842331253443
0.9740299784453476
0.9644326747114077
0.923605422528963
0.9635799818527707
0.9612307935641881
0.9375001117771372
0.9356453903450174
0.9353334782855441
0.8936421568242906
0.8949167520840673
0.9422099235968762
0.9434024380184887
0.9952302610380237
0.9081657219172361
0.909454379536582
0.90858639241383
0.9823285941186237
0.9578828864554068
0.9626032533622236
0.9477981812931376
0.9540257260503141
0.94702167580926
0.9418730545857402
0.9464492181194223
0.9451931564502194
0.9396201413266124
0.9354785964454619
0.9301728437322997
0.9355729074991784
0.9200297820711318
0.9768795166340053
0.9498987027465932
0.9573710981454272
0.983856258686527
0.9302888847100064
0.9434483766198866
0.9360934436290408
0.936087684021055
0.9345281886822843
0.928755199206274
0.9261710208469032
0.9124515504272884
0.9104910158888202
0.9076657278371826
0.9080008513846457
0.9105418678521804
0.9074291190657946
0.9110628218978712
0.9404092522738864
0.9084009728927656
0.9121457065657297
0.9266098502277454
0.8940299110892235
0.9148773163699716
0.9050411064325442
0.9850315744976856
0.9869030030488207
0.9751412222298894
0.9781390206310899
0.9477042064165409
0.9233677366811088
0.9097232304333253
0.9058332738990095
0.8845896810292508
0.8801984734347158
0.8324782675566604
0.8355792935051898
0.7882202489535829
0.8064895174311001
0.7821563012819125
0.8019306362783777
0.7962419611469346
0.8111566780237244
0.8162963948583956
0.8242149475245587
0.8356686520380943
0.8368348125694954
0.8499845928162464
0.8511896631368995
0.8642415456066856
0.8640957835587187
0.8765245336236492
0.8753971923224367
0.8872934920830746
0.8857703112532704
0.8741951384956101
0.8840888291194939
0.8987685862048886
0.8419762770240939
0.8914152403399028
0.8697659291262047
0.8434760201803285
0.8334201392068079
0.8745682644914851
0.8835587660446463
0.8929514535702654
0.8918343405978596
0.8255706438993841
0.7864937569468892
0.864590294816203
0.7694509051197783
0.9006690722255501
0.8991172204555786
0.8909321930910139
0.8673312875399402
0.857597960030453
0.9029412035722668
0.9099545985349481
0.9133082963245299
0.883414627815106
0.8673411481817342
0.8979806323450639
0.8914941843527512
0.8846636770037192
0.885824697170545
0.982962168599236
0.9803483393372153
0.933054627185072
0.9731529747192069
0.9746023685724113
0.9421295370429263
0.9435082864476295
0.926425070431471
0.9633667686642808
0.905781348195409
0.9320141327427149
0.9306582673645081
0.9314907251896415
0.962802339597922
0.9506962452747179
0.9489279686801242
0.9473087319449078
0.9647115958826405
0.9650035322109108
0.9681851031197516
0.9631615711625005
0.9652104142358284
0.9502861389377314
0.9512088335521869
0.9520062547669835
0.9472851236474663
0.9510908178397361
0.9495242834607712
0.9526940574087706
0.9514457841352683
0.953955817488087
0.9529565447118944
0.9552578618833387
0.9561131019989774
0.9566366078042084
0.9613097659030447
0.9601329344660688
0.9600857475223092
0.959177497533128
0.9084271505675069
0.9057268257521098
0.9043979391001868
0.9036789027249226
0.902191487384976
0.9617710707499785
0.9657351179377109
0.9693362562002628
0.9493170992312341
0.9515035846436702
0.9513108344684624
0.9022339569956151
0.9351270362230348
0.9141238036821411
0.9094352698425172
0.9215033043394395
0.9189264009612899
0.9143495559790481
0.9168521015552996
0.9123588552822395
0.9137689007231072
0.9192972069633235
0.9613335497890073
0.9048104391146115
0.9089009843250448
0.9182538251351324
0.9413605968261718
0.9492867893131414
0.9855854802380891
0.9864028428086595
0.9843225516959845
0.9440979250366978
0.9398187292663671
0.9347933542754169
0.887407880753615
0.8886494130151362
0.9049638832745632
0.9027790906865931
0.9069581704148306
0.9820713411256242
0.9891295815022941
0.9440617990144948
0.9393782339644705
0.9467109855297221
0.9802832006971538
0.9829315220055951
0.987496310902653
0.9179127201339818
0.9193099123287448
0.9242104742428316
0.9188201827261885
0.9076246854298069
0.9213702667090833
0.9244664474665334
0.9738171944252124
0.902911499710932
0.9009661855864578
0.9011275524128696
0.9002240156283735
0.9027472546813174
0.907672237859184
0.9042324990256233
0.9946223918919253
0.9424607913094043
0.9782954659441698
0.9830722284703777
0.9770685061021096
0.9796456438893014
0.9740942796480966
0.9712538725106364
0.9670242388058263
0.9787683504894684
0.9801940602641281
0.9767020455344656
0.9047439484645268
0.914733615652764
0.9103424978260289
0.911250636905007
0.9460310076874529
0.9458387850721808
0.893959690247022
0.9485889414938071
0.9593782960439037
0.9585600861195237
0.9040788484909531
0.9023077636303095
0.979399328135498
0.9161945056793711
0.9163799457358416
0.98067237956968
0.9883387536125603
0.8659817255079006
0.873203173079666
0.9031397751233505
0.9669011908024733
0.9822073797950028
0.9657687508095821
0.9327930859490353
0.9854483663747944
0.9344245480501341
0.9154584874632223
0.9161269062551525
0.9795403086528714
0.945043071894579
0.9069105205763012
0.95244459311958
0.9959313915417621
0.9978743194604239
0.8894069864406138
0.9833389204022143
0.9861707474610476
0.9366653789136155
0.9472218090092577
0.9481989987886827
0.9537641656546735
0.9457045762816196
0.8552795996779515
0.8506384508346375
0.8988075563713048
0.963591268608825
0.9533112207790081
0.953295114275135
0.9987135134442354
0.9967622987116351
0.900595605769577
0.898750764901621
0.9038329622443483
0.9100000279037624
0.9087282787479979
0.9789492299723874
0.927264803117551
0.9257037321449634
0.9527089272561332
0.9873828597589118
0.9890278239315899
0.9164387418718436
0.9136738637540447
0.9535433297234801
0.9775640674892524
0.9541716490166201
0.9518584812587857
0.8805156427067414
0.9952821497549733
0.9477575342551683
0.8638794151175161
0.8715325476030295
0.8888444037195793
0.9500836035735613
0.9220509224209894
0.9173707120644964
0.9264411733685946
0.923264736727239
0.9310999302988663
0.9280864042960203
0.9195985473597951
0.92295532991225
0.912407217070959
0.9189069038832833
0.9366511181165706
0.9317968168211993
0.9527570184011965
0.9415118858703944
0.8284624004476809
0.7130747928919381
0.7199980839905984
0.8264313065149885
0.7630956796309603
0.756723638995841
0.7592390398997657
0.7115116045656059
0.9110179950230913
0.9096307694951057
0.9116978705925057
0.919210825103961
0.926164076437248
0.995030152243313
0.9942366193669047
0.9292363251436354
0.9299160355848786
0.927957551097065
0.8700961778238394
0.6758855431498818
0.929860884513069
0.9247772684274363
0.9130648870544893
0.922154520342023
0.9067563679052351
0.9374284085266074
0.927940906099391
0.833157915496081
0.9586811091064997
0.9695193112539298
0.9634154672583612
0.9346860028694295
0.8899075699711921
0.8989237627141013
0.9184574044661076
0.9258978245794202
0.9923118902970934
0.9934936210912897
0.9383880059414532
0.9588170186110252
0.9653918208218409
0.9705290953809848
0.9733358003276837
0.9343846377412844
0.9354835324488432
0.9300558113986533
0.9282473013107879
0.958259728588552
0.9574414974876071
0.9755794729779766
0.893978955520677
0.8996591884648584
0.8089447781466218
0.83439092859761
0.8540905429233899
0.8679903321166087
0.8817768042490812
0.8504674082800752
0.8742940800931873
0.8958117326516156
0.8881122607881449
0.944460667423374
0.8866540350165403
0.8994718628283784
0.9159271981538099
0.9669182171095143
0.9682775972641284
0.8097060079978095
0.8276161801542485
0.9602115180419021
0.9919782876907319
0.9913537684502337
0.9919495382876322
0.9907474958602631
0.9916280025825851
0.9902395032372971
0.9185021217140661
0.923870145090841
0.923182168044608
0.929347089228512
0.9283216962154389
0.9335608878382222
0.9331798674916426
0.9343326015532258
0.9381682701244205
0.928853030767277
0.9391689032744128
0.9347655442182827
0.9387731081701335
0.9409077505930239
0.9362764055938089
0.9250109113027263
0.9309228762221305
0.9179751693431023
0.9249951596461343
0.9595531414996104
0.877775593759684
0.9094305668625546
0.8928898823113272
0.8941247972541634
0.9723266813674284
0.9618105070987484
0.9581428223368007
0.9558708912628087
0.9580236347723129
0.9535725339805164
0.9526239862328973
0.9524242936289032
0.9522067764540496
0.9516878956641062
0.8971886443202683
0.9677718190856988
0.924292875141376
0.9302473217635467
0.9395295246622954
0.9435534757077759
0.9504534250792216
0.9556658069460228
0.9013807952360425
0.9014442564202495
0.9042239205614804
0.904855499300263
0.9062563844784556
0.8815696205574778
0.9401169052326532
0.9001815431374489
0.903464600281623
0.797401060518996
0.9082132997963566
0.9885057814094119
0.9634571106942764
0.867412910251163
0.9378822437453251
0.9418091397197732
0.9932771367747295
0.9004684800648851
0.8996699028896729
0.9005429324749399
0.8991994882370742
0.9007678800534028
0.8998308028659183
0.8994412531278287
0.899619509381425
0.9265796841769202
0.9004747934820532
0.9023244134731785
0.9036068548080052
0.9008679714248682
0.9759688981036659
0.9968814343154102
0.9188763720212949
0.883912159524189
0.9061551942833104
0.9187150996051129
0.857800358142558
0.846051628681494
0.8535659313293075
0.8470482735419785
0.8369469131174394
0.8337068915619045
0.8385686812098083
0.8672501170631564
0.9016618247022405
0.8574029809724266
0.9861513270368194
0.9020560666122746
0.9549816341793235
0.9061031862973185
0.963677182205163
0.942574708162166
0.9462106815167525
0.9321526668161758
0.9503974415974988
0.9492734980759359
0.9367056657174173
0.9320375380158807
0.9125745766286137
0.9056666299619799
0.9852704168403633
0.982595224746401
0.9968742568605052
0.8884968626450978
0.9555778975870903
0.9598695084061671
0.9754566348527582
0.9766520217119796
0.9032063162379023
0.9392183061099418
0.9546051157214729
0.9114484539396248
0.9113838234654974
0.9077001185034071
0.8963076458785246
0.9518449234375951
0.9524971733047691
0.8945864065859936
0.9065074417717228
0.9565118706634365
0.9678745541715227
0.8914353300406255
0.9249972995469983
0.9327601112159103
0.9347886875477733
0.9253208864384933
0.9619167891540013
0.9008600867540116
0.8503454820654409
0.9626409374999435
0.9201246151522409
0.977958697246377
0.9314580099997821
0.9322995200107298
0.9341202513412534
0.930612539944398
0.9270043262480976
0.9151286229609326
0.9062091653182869
0.9105860057509515
0.9134847879809537
0.9134993067690428
0.8965825014254791
0.9848483730392076
0.981632782000906
0.983311911747511
0.980924667533461
0.978926323821379
0.9789299121031522
0.9780599136181437
0.9621144213198992
0.903676113442382
0.899673167933574
0.903849991465097
0.9628698443949186
0.9675691870634933
0.9575619539780978
0.9298038519750005
0.9462883256626871
0.9474810894907673
0.9442529317637722
0.9422742684511564
0.9306415289154062
0.9077645705732897
0.9080137936756042
0.9028333288216184
0.9018733209383878
0.9214104882134072
0.9303546284563282
0.9298669738456372
0.9257398338924306
0.9276212997470241
0.8246369089369414
0.770622352475143
0.9873439829879544
0.9889825807751463
0.9887803112836593
0.9898958182867934
0.9370522908759648
0.9693789504764961
0.8501136232702993
0.8537271371418788
0.8807748786062023
0.8884383083283444
0.8964223423586164
0.9248523312549181
0.9219219835913092
0.8546425339912408
0.9266113575625157
0.9581333143696851
0.9932815028328589
0.9384017020214308
0.942610827157264
0.9166420140607682
0.9913380860832942
0.9589693583650041
0.9596668662783295
0.9505973629663058
0.9238781782777294
0.921511605876524
0.9191380786316034
0.9203827041145457
0.8880405514077421
0.8874204016762827
0.8855338530992976
0.9921178090466242
0.9763439488771574
0.974924907902209
0.9770276587894857
0.9752619022365361
0.9778783556561745
0.9781576472341987
0.9815087438600194
0.9062077869513581
0.8628935723559493
0.9890251062382898
0.9848656041509082
0.9573417526822372
0.9801214818483714
0.9845552973112404
0.9807668975228854
0.9613419842570864
0.9597730241384123
0.9428237107204603
0.9141120422354927
0.945402241334872
0.9941117241119266
0.9323522542707724
0.9338076621964826
0.9364064894405769
0.9312052391241815
0.9344994723495648
0.9363819899441137
0.9343025710932992
0.9317209092821798
0.9734647319395718
0.9335471667472787
0.9419416379519244
0.9767643311215605
0.9697010964844266
0.9045791408874525
0.8811162669215883
0.9118758984691646
0.9265520792779595
0.9090135549438679
0.9101645918770135
0.9160437670408624
0.9791146615926832
0.9800836385688666
0.9807228762463134
0.9777230926934214
0.9963602684570236
0.9074620659402539
0.9729170939004679
0.9402129039668417
0.9759888931023653
0.9303597653781349
0.9016344462427343
0.9569729762867896
0.9080132971613064
0.9481133472590456
0.9515654559903743
0.9404559236395683
0.9470733169446228
0.9660650034898446
0.9656055250970017
0.9670762580968155
0.9430865680348575
0.959053622800588
0.9335901023820973
0.9520317243395521
0.9531602968586236
0.9075230633547134
0.9354325727661055
0.9875565956885899
0.9600519683377641
0.9664309168142662
0.9666035830313988
0.9684999261753149
0.9666324201051819
0.9689008823418774
0.970038076803323
0.9698594320953824
0.9505459490410345
0.9488063111856725
0.9637230102473985
0.9399104078944737
0.9859147595580672
0.9570127744440604
0.9650724344232374
0.9928409654331031
0.9518976044627777
0.9119592822682691
0.9621634794713475
0.9146332434916554
0.7361396558347195
0.9875605999271752
0.9398603381186054
0.9198651245036774
0.9293332288127688
0.9077972720332775
0.9169926480402193
0.9009909196934166
0.9448143024562408
0.9563396297683389
0.9539172885454686
0.9256933631436345
0.949798462592634
0.9470933478096691
0.9447845435657355
0.9531834589005994
0.9756119374505557
0.9239793185223449
0.9627051732703474
0.9619224557020364
0.9608683510546464
0.965296543323676
0.9495546501248572
0.9049465620877418
0.9435439247729263
0.9072447942304305
0.9520801892656203
0.9234705087201271
0.9620978631967375
0.9454337920797008
0.963323033398645
0.9585053329333332
0.9660543502840943
0.9752516587526807
0.9194490300621028
0.8351203063492485
0.9373829709438067
0.9599177379892089
0.9102814751500465
0.9326846729448568
0.9709353268371718
0.9244067299765047
0.9548894805460888
0.9556980049438963
0.9029075218118392
0.9879633654367908
0.913129990893068
0.9293600861755729
0.9597850229499
0.9594265142693058
0.9726638223608486
0.970671613427203
0.9679203751067555
0.9546684102214895
0.9918423073843775
0.9928448061441878
0.9764932482741508
0.9816459180290904
0.9952961332260788
0.9915530509054192
0.9333786140630621
0.9455452330128833
0.9910055657498319
0.931168805576082
0.9405265327195432
0.9170427585008577
0.9794670191582241
0.9803676439195154
0.938707114688461
0.9650386180231475
0.9711866061169023
0.9292231019120736
0.9111511372891811
0.950887909544249
0.9066482871147086
0.819966094704047
0.9551192367718583
0.9645166132979773
0.8964125252332114
0.8975747532616959
0.9585588433425164
0.9435137412221101
0.9633716942962113
0.9372498003426014
0.9771468061475407
0.8756866614941133
0.8234039521185424
0.8896143009721795
0.9550237730024617
0.9606105834179558
0.9034178226491828
0.7493161532798632
0.9830848704038379
0.9801608362401169
0.9408365939595972
0.9707414210286104
0.9527547891765004
0.9726926061979921
0.9740384581839708
0.9734086856699098
0.932321722120373
0.9264349503948639
0.9870363674973113
0.9903959220425399
0.9744455400159053
0.9508779157095526
0.9792888552460765
0.9526206104258544
0.9441717320952562
0.9015267861650298
0.9022551684887414
0.9452758812449104
0.941363896628568
0.9669868330868563
0.9140241686730268
0.9104093899602703
0.9849000162477363
0.9596337781905953
0.9582287682128775
0.9758146857414064
0.9651673171778986
0.97281675933014
0.9929398568475272
0.9417069899398981
0.820155256242214
0.9580584278681904
0.9767249959778933
0.9771869534119026
0.9287599073113545
0.9395526080754797
0.92159766025723
0.8802123877298272
0.9718398258931934
0.9210855880790505
0.9144361507965324
0.9544161901858538
0.9157303408119181
0.9242168633124541
0.8986095214685685
0.9733900292061582
0.9499676145297227
0.9724567579097759
0.937393982353287
0.9972766278087949
0.9978688370033146
0.9342450361947171
0.9759872014028963
0.9734517778049251
0.9497717728349125
0.9171977457613772
0.9517466167245634
0.9533372393917847
0.9542066391509084
0.9665754161842813
0.9820326478828889
0.8800395836422783
0.888606799450638
0.8948000563607383
0.8990466719820671
0.9006942413334573
0.9331102492880283
0.9362276674496105
0.9918684782555275
0.9069343276128142
0.9157837574759533
0.9213051504148454
0.9476552335604532
0.9564856540130641
0.9480770052693659
0.9417804260941532
0.977325694014365
0.9710776357597837
0.9051007886038519
0.906710540380273
0.9622533806036555
0.9597686974955827
0.9871410012158163
0.9082685222779908
0.9948611233509973
0.9155794795762557
0.9847806275982496
0.9439124835593883
0.9956535584387574
0.9300396427076518
0.9215505297386606
0.9128434699047945
0.9467302218857984
0.9615921821559796
0.9436238077061776
0.9790949490875234
0.9512325172174962
0.9545422019952943
0.9703437604415708
0.9906786994171382
0.8818729423551693
0.9516366016311498
0.9254761753664504
0.9818775755234874
0.9415583072978071
0.9373786612533201
0.8981662423639074
0.9208701745669835
0.5232689878545936
0.9525346051436359
0.923933158431153
0.9195688204047194
0.906825896187094
0.9747428703491566
0.9889813460800141
0.9165810453178708
0.9085654035289611
0.9887203070395508
0.8839566457846642
0.9530463554200289
0.8937991285710749
0.924500390864439
0.9506574171562792
0.9580310659049575
0.9596844103057277
0.9043242584855018
0.9046096086416475
0.9029947676318181
0.9059663877323256
0.9512530298240318
0.9729530160050737
0.9178284484035558
0.9130356508414355
0.8639416968838668
0.9709528532165792
0.9559703462935611
0.895477341644258
0.9483152702175318
0.9342964001104564
0.952247689324447
0.9402503766203765
0.9608067181914376
0.937111776090895
0.9537975179261468
0.9423188065717281
0.9474107876126225
0.9516190553388022
0.832045085250469
0.9073865298070162
0.9364471140884701
0.9572024592709744
0.9092403737401995
0.9818074449841507
0.9513151660314625
0.9361836960082083
0.9438110309316722
0.9431053150457108
0.8759090283090547
0.9656133830456511
0.9544970188868529
0.960096391417372
0.8929840071597794
0.9146982448303766
0.8222854095932103
0.9417600735022998
0.9784950021409317
0.9075332604354598
0.9605910538090761
0.918846160676151
0.9740058722615984
0.8767863639160722
0.9159545553300552
0.9001028950026372
0.9505340879097207
0.9352153914096785
0.9687406580489315
0.9632096106798915
0.9428707571249674
0.9227611385154739
0.9305980255791507
0.9045418234537836
0.9717595646461318
0.9708864225585876
0.9376288917721916
0.940624598919028
0.9669706898631903
0.9514158774137542
0.9117333695082853
0.9928724572498226
0.9109903126478809
0.9546463889603057
0.9081997635391913
0.9518747693192763
0.9498634678862138
0.9540375082431978
0.9516345517327149
0.8344734388804115
0.8818860443077472
0.9973094813861858
0.9957183176678944
0.920843541881676
0.9535540208254247
0.9248557108685591
0.951954185777257
0.9006761422151665
0.9196214871324103
0.9591438977257541
0.9612063691267507
0.9278152317873007
0.9086218151341954
0.9034418601732069
0.9843946467338087
0.9751182209694408
0.9066653698295524
0.9315581614583354
0.9467293408076016
0.8914229524508752
0.9094763617438665
0.8842557728897067
0.7797490510991107
0.9058043379687483
0.9515158494015853
0.9240703805407997
0.9798204118078067
0.9079038742878847
0.9921683326910639
0.9015771060817734
0.9256489622739198
0.9503849122056205
0.9073701748325286
0.8992990306125314
0.9072442749956312
0.9278273603524595
0.9654083410830328
0.9322046723077024
0.9693565161464108
0.9128029559047565
0.9387853407633155
0.9394771279640812
0.9637202974310497
0.738315200561344
0.9062437491279594
0.9263290935767768
0.9059908764156954
0.9232402333814838
0.9694479866543612
0.9437270973662135
0.9509501165526133
0.9450092109732374
0.961033439287482
0.8999560660640453
0.9220282802997778
0.9007967953132286
0.8922347490536292
0.9803312368049422
0.9591737809251913
0.9010228895625049
0.9178005649485211
0.8991264404031092
0.9133186501267945
0.9306926299391705
0.9467739192809665
0.8904355834184952
0.9488275741829043
0.9506367594043279
0.9826334545269556
0.9817164995533288
0.8380036299885574
0.9538860323405274
0.9401527329142134
0.8802505703853246
0.9831872367564394
0.9395045701743138
0.9552708343742554
0.9634095730407543
0.7228225610194793
0.9423784337466911
0.9951129870410176
0.9173450214050813
0.9947362808784269
0.8881781704617207
0.982814992658105
0.9467823399171292
0.9463768879173626
0.9158556315569409
0.8040620930417818
0.8536369687217443
0.9609987459927607
0.9457448073681017
0.915143278344973
0.9299766830282175
0.9320561275737075
0.9061250570650189
0.9833321548224095
0.971083105885465
0.9230228720798833
0.9893697631150786
0.9533400895480231
0.9169238654458961
0.9618683547611836
0.9713431584740639
0.945030429413779
0.9253960362111501
0.9167639721511909
0.9113068180264363
0.9907907004084593
0.9515567270490777
0.9202662251384305
0.9015407251879963
0.9190620431895121
0.9370168994257433
0.9458420364109491
0.8960840321424672
0.9013295201703322
0.9627864837719502
0.9783682446087508
0.9761583552139036
0.9385068888523003
0.9888434561096998
0.9432676727189935
0.944594430248698
0.9155337780478027
0.8705879813370371
0.8820250517676618
0.8803558116611211
0.9416401463816945
0.934193818342
0.8918580286414715
0.7862363190866278
0.9151370566882204
0.8780874938859996
0.9544978550121914
0.9110455452873397
0.9317388625011931
0.9713708794994446
0.9033226929134177
0.897765697983961
0.950981081269409
0.8826906018921183
0.9019467084287566
0.8232021298016164
0.9492887176555822
0.9736224715535685
0.8554411581365017
0.9389061327344556
0.9671941613265065
0.9625567833440272
0.9863783675281073
0.9796714554658917
0.9785865622210748
0.9749377850053371
0.9423803314042937
0.8609991558049127
0.9408507265437795
0.9455830994194777
0.9433889291227827
0.9990998382395105
0.9042228499102543
0.9046855617435204
0.9305554584329472
0.9052055088415034
0.9443005425753895
0.9974582373739145
0.9987425398593651
0.9334369523185515
0.9123867941298045
0.9458248795023013
0.9749679247103245
0.9938421666731969
0.9210692574899416
0.9298044568953688
0.9024831075472339
0.9311266857360967
0.9456351059304212
0.9231257041244848
0.9141975311166799
0.9340064971166894
0.9052063356832952
0.9275964160534766
0.9615865513086373
0.9517998937714461
0.902527973620555
0.8991971061355167
0.981419129912129
0.955505876824394
0.9439040669699723
0.9270496594934831
0.9167950155446797
0.8688633191983927
0.9080430446285926
0.950339020351225
0.8671401681436943
0.9526307263251153
0.9539164190084195
0.9818315194838364
0.9048534912285001
0.9587003192897067
0.9521203704578101
0.9572510365396603
0.9034585824930992
0.9577331334162261
0.9280578003169413
0.9759475414791868
0.9297369480028437
0.950571262221197
0.9948615976609669
0.9337889600052207
0.9521300627944892
0.9570874365495647
0.9000674395277345
0.987643391956935
0.9523373757489647
0.9427173792297996
0.8643040110871045
0.9949367783565711
0.962924553854977
0.815951314442483
0.9450865530883792
0.9879101747901734
0.9367521340032794
0.9586951948307668
0.9108224265142285
0.982254383882996
0.9184747696197716
0.929937996997985
0.8473474546800032
0.970557367253453
0.9754306013227007
0.9541025930516104
0.9748482709701587
0.9593233818990502
0.9400828211008713
0.9923999712447759
0.9833933365363813
0.9076965420483929
0.9146684437448407
0.9779162795375885
0.9716648262960158
0.9891844477196238
0.8343571591380636
0.9227258486433453
0.8441757673607061
0.9120516110827909
0.9603913001873217
0.9037649920463819
0.8998379347384889
0.9566673078699364
0.9581819034691617
0.9006435007343007
0.8957379750282191
0.9795025862797957
0.9183905257449477
0.9162110784482015
0.9021228313335043
0.9488514134625845
0.974121926220361
0.8954994853042935
0.9504308596646659
0.8453023379848601
0.9839332377392671
0.9427793493183979
0.9249651793141757
0.9261853050168738
0.9893277749730116
0.94708164825781
0.9082843028348188
0.9359786281401897
0.9629413634875663
0.9387757955840599
0.9136608360879431
0.9469166986312914
0.9250696983158786
0.9052818065324798
0.9803559620513506
0.9861464790793152
0.9717817956647415
0.946540376691479
0.9518785366604617
0.9386824986088613
0.9871610536591927
0.9759693386715876
0.9374743135413973
0.8996331118097777
0.9491702103319115
0.9018436658080866
0.9359838566534311
0.923934727096663
0.9654665418593156
0.9464240676199746
0.9142053854141646
0.9489844845134283
0.9814093368349202
0.9387312723564688
0.9524127464931162
0.9296070051493682
0.9738714849909875
0.9183442607141737
0.905624208783511
0.9201655373799712
0.7779825158658173
0.9138466382610071
0.9315820000942989
0.8447175874245025
0.6185091192794154
0.8576543986173846
0.9047120621475213
0.8755333759643271
0.9641605278577137
0.9370674848121939
0.9983762434225857
0.909314636835663
0.9070766234373955
0.8906183772877019
0.9842502658107533
0.9168071279491753
0.927199179984973
0.9420108622529457
0.9503078930803149
0.8519013689120248
0.9765315464771757
0.9295521311592566
0.9400689682509735
0.9270065913255163
0.9440183431594767
0.9950174460061002
0.902938258591125
0.9146248498465082
0.9105614714996779
0.9032361598745403
0.988121542077196
0.9712266224205515
0.9932004441211856
0.9723434967270218
0.9393383177718764
0.9353906776396056
0.8853116216721898
0.9435551708886414
0.9085186124668131
0.9028871566475827
0.925639791546517
0.9169821631488655
0.9726488287726782
0.9093884960466764
0.9078798137009734
0.9080357981685319
0.9071496208066072
0.9653168816635201
0.9250693832962581
0.8957792009817552
0.9207485568579985
0.9984719868166614
0.9643146853132787
0.932993109665508
0.8692838345629978
0.9442900428529222
0.9800705714465847
0.9205028006571232
0.932998861251445
0.9804212414654531
0.9418126573805885
0.9561564147670111
0.8864668228064781
0.9584288915930597
0.989196730688916
0.9371789900607677
0.9969110514003462
0.894561974605356
0.9902491976512161
0.8313197289712873
0.8852050918034107
0.8510188787925937
0.9569698491918098
0.960703557746951
0.8254083563448189
0.9589784399050074
0.9893808313077055
0.9985580056252843
0.9172637731257066
0.9687554635890658
0.9451755890354588
0.9969555803340157
0.9379230317822648
0.6304005928301363
0.9330733173471116
0.914758590535209
0.9936381986301582
0.9726547101808042
0.9074710330974978
0.9623265494795387
0.9982129869031752
0.8921849882590718
0.9581802249906565
0.8902947042432986
0.8720299568621938
0.9908287489149294
0.9010596126453517
0.9741620702136873
CELL_DATA 4886
TENSORS stress float
-9.17005085566701e6 1.3257584838754039e6 0.0
1.3257584838754039e6 1.090679992936004e7 0.0
0.0 0.0 0.0

-8.087391188433867e6 572732.9126377719 0.0
572732.9126377719 4.15803033921693e6 0.0
0.0 0.0 0.0

-7.71698496331929e6 8.627375569934294e6 0.0
8.627375569934294e6 4.703765403287655e6 0.0
0.0 0.0 0.0

-4.527678198468514e6 1.0504925710489288e7 0.0
1.0504925710489288e7 3.540247827273996e6 0.0
0.0 0.0 0.0

-5.340916468981791e6 1.0061192559827436e7 0.0
1.0061192559827436e7 2.061512010065093e6 0.0
0.0 0.0 0.0

3.0514539379869727e6 1.4860186156514834e6 0.0
1.4860186156514834e6 -4.1678767647110415e6 0.0
0.0 0.0 0.0

9.211161730923722e6 1.0765087062965197e7 0.0
1.0765087062965197e7 1.6112215768572553e6 0.0
0.0 0.0 0.0

2.932696145168673e6 6.1466778511887835e6 0.0
6.1466778511887835e6 -9.22685956175208e6 0.0
0.0 0.0 0.0

-8.615578091364184e6 2.152830962849868e6 0.0
2.152830962849868e6 1.1632041777616277e7 0.0
0.0 0.0 0.0

-1.635517304444424e6 1.0390284079997517e7 0.0
1.0390284079997517e7 2.827894694613919e6 0.0
0.0 0.0 0.0

-3.428525026907141e6 9.618114161238354e6 0.0
9.618114161238354e6 -604101.1852374178 0.0
0.0 0.0 0.0

-8.125455182828572e6 1.2183884556723619e7 0.0
1.2183884556723619e7 4.647775149344813e6 0.0
0.0 0.0 0.0

2.1714610107274572e6 7.926723840523307e6 0.0
7.926723840523307e6 -8.788543849785315e6 0.0
0.0 0.0 0.0

1.653825276555511e7 1.280085674197405e7 0.0
1.280085674197405e7 914384.9507985124 0.0
0.0 0.0 0.0

-3.7640293434022916e6 9.890397291408818e6 0.0
9.890397291408818e6 -732051.4829204404 0.0
0.0 0.0 0.0

3.498622707798069e6 5.203495697525392e6 0.0
5.203495697525392e6 -5.837598059138726e6 0.0
0.0 0.0 0.0

100906.23671908444 9.47000148779456e6 0.0
9.47000148779456e6 -6.605229915794306e6 0.0
0.0 0.0 0.0

603183.1550679002 9.101561256254282e6 0.0
9.101561256254282e6 -7.065686231226355e6 0.0
0.0 0.0 0.0

-1.3238189171044137e6 1.9431512756833294e6 0.0
1.9431512756833294e6 1.6097118524752513e6 0.0
0.0 0.0 0.0

-4.734013969924917e6 1.1171893775904806e7 0.0
1.1171893775904806e7 -86964.64324408048 0.0
0.0 0.0 0.0

202999.96723108995 7.631774742919855e6 0.0
7.631774742919855e6 -4.83523637638941e6 0.0
0.0 0.0 0.0

-7.666628522507803e6 1.2230686883412955e7 0.0
1.2230686883412955e7 4.0308504686262463e6 0.0
0.0 0.0 0.0

-1.4082487673322682e6 6.016319364824898e6 0.0
6.016319364824898e6 23366.31281329057 0.0
0.0 0.0 0.0

-4.521340297438262e6 1.0584269438207103e7 0.0
1.0584269438207103e7 935877.8613689281 0.0
0.0 0.0 0.0

1.2450183092719666e6 8.702154192089252e6 0.0
8.702154192089252e6 -8.3739829784148205e6 0.0
0.0 0.0 0.0

-2.857572524533962e6 1.9525540364710245e7 0.0
1.9525540364710245e7 -4.1286484134201794e6 0.0
0.0 0.0 0.0

4.86943315826225e6 1.0842343245796092e7 0.0
1.0842343245796092e7 2.6519844969826597e6 0.0
0.0 0.0 0.0

-5.928427030526416e6 5.370304697522655e6 0.0
5.370304697522655e6 6.312976386832666e6 0.0
0.0 0.0 0.0

2.9189685046769464e6 5.024321857244356e6 0.0
5.024321857244356e6 -4.769352810666797e6 0.0
0.0 0.0 0.0

-572700.1555334572 2.933517429667524e6 0.0
2.933517429667524e6 -900527.0936284666 0.0
0.0 0.0 0.0

-1.6835437817483682e6 6.377549034877042e6 0.0
6.377549034877042e6 -430830.66563797096 0.0
0.0 0.0 0.0

635586.6569479746 5.918864578894977e6 0.0
5.918864578894977e6 -4.33090458322144e6 0.0
0.0 0.0 0.0

-915340.4427569265 8.534972481394222e6 0.0
8.534972481394222e6 884934.8630553166 0.0
0.0 0.0 0.0

-593617.3998104716 1.0855451896916123e7 0.0
1.0855451896916123e7 -677704.5447374884 0.0
0.0 0.0 0.0

-5.050032534157452e6 9.107562673250493e6 0.0
9.107562673250493e6 2.658486972813815e6 0.0
0.0 0.0 0.0

-1.3947148762489858e6 5.650134183908715e6 0.0
5.650134183908715e6 -680484.1858844885 0.0
0.0 0.0 0.0

-883316.5221389374 6.741277086655982e6 0.0
6.741277086655982e6 -2.6942840140244146e6 0.0
0.0 0.0 0.0

-4.683900646575118e6 9.112084363961084e6 0.0
9.112084363961084e6 2.5568653065773365e6 0.0
0.0 0.0 0.0

395101.3531282954 9.453377712015005e6 0.0
9.453377712015005e6 -7.890510208931579e6 0.0
0.0 0.0 0.0

-6.350386736398232e6 1.0598044899925474e7 0.0
1.0598044899925474e7 3.5738932768983617e6 0.0
0.0 0.0 0.0

1.9748318215349144e6 8.0015444495427925e6 0.0
8.0015444495427925e6 -9.428253334644293e6 0.0
0.0 0.0 0.0

-7.826134097781523e6 8.697157578205043e6 0.0
8.697157578205043e6 5.1643535120096e6 0.0
0.0 0.0 0.0

-6.060660160516612e6 1.0347704077359209e7 0.0
1.0347704077359209e7 3.313564323823979e6 0.0
0.0 0.0 0.0

-1.5139060236617299e6 4.1370572106512245e6 0.0
4.1370572106512245e6 1.0062342837041357e6 0.0
0.0 0.0 0.0

38854.61753468844 7.739915865200415e6 0.0
7.739915865200415e6 -5.2837523589867195e6 0.0
0.0 0.0 0.0

-5.452054994138714e6 6.704065199062834e6 0.0
6.704065199062834e6 6.882786431957241e6 0.0
0.0 0.0 0.0

-2.009853164055593e6 1.081811784972715e7 0.0
1.081811784972715e7 -2.619861911645374e6 0.0
0.0 0.0 0.0

-706393.0862181599 6.570287945256127e6 0.0
6.570287945256127e6 -3.025873593758101e6 0.0
0.0 0.0 0.0

2.7895183340760893e6 6.142615855481976e6 0.0
6.142615855481976e6 -8.410645990214836e6 0.0
0.0 0.0 0.0

119609.7195501339 9.621950448115498e6 0.0
9.621950448115498e6 398699.20589828974 0.0
0.0 0.0 0.0

-5.619643095408684e6 1.047547185642023e7 0.0
1.047547185642023e7 2.7309700281663993e6 0.0
0.0 0.0 0.0

-4.327141310861908e6 -252487.25709831587 0.0
-252487.25709831587 4.195568671200781e6 0.0
0.0 0.0 0.0

2.847567315195467e6 6.117132726444346e6 0.0
6.117132726444346e6 -8.577273675877202e6 0.0
0.0 0.0 0.0

-4.795757648920816e6 9.73007139254725e6 0.0
9.73007139254725e6 2.2675427813160983e6 0.0
0.0 0.0 0.0

-542374.3783592451 1.0053933064864205e7 0.0
1.0053933064864205e7 1.2750468403410302e6 0.0
0.0 0.0 0.0

-4.270314621095413e6 1.0694614417554088e7 0.0
1.0694614417554088e7 2.30091988299663e6 0.0
0.0 0.0 0.0

3.004566730835618e6 6.322903907516439e6 0.0
6.322903907516439e6 -9.779039585296318e6 0.0
0.0 0.0 0.0

-6.27963819858551e6 1.0686003754720695e7 0.0
1.0686003754720695e7 3.875522724319574e6 0.0
0.0 0.0 0.0

-4.0557219995863126e6 1.1943951909135219e7 0.0
1.1943951909135219e7 6.715911098263286e6 0.0
0.0 0.0 0.0

703855.5265226332 7.677466335288565e6 0.0
7.677466335288565e6 -5.839238153310636e6 0.0
0.0 0.0 0.0

261999.01970573305 8.475933486669715e6 0.0
8.475933486669715e6 -5.519503118330788e6 0.0
0.0 0.0 0.0

6.549499677905096e6 1.0701626133901384e7 0.0
1.0701626133901384e7 -9.15528415388117e6 0.0
0.0 0.0 0.0

-1.4644346868119414e6 9.533813498902926e6 0.0
9.533813498902926e6 -210027.9723938564 0.0
0.0 0.0 0.0

-750440.0559715367 3.797202322929472e6 0.0
3.797202322929472e6 -653928.485694201 0.0
0.0 0.0 0.0

357406.02466579643 2.8755778874039347e6 0.0
2.8755778874039347e6 -3.065455952848864e6 0.0
0.0 0.0 0.0

2.3874575925228936e6 6.301022613517702e6 0.0
6.301022613517702e6 -8.2753217216287e6 0.0
0.0 0.0 0.0

2.3913385841556448e6 7.522967488119532e6 0.0
7.522967488119532e6 -8.839612669148749e6 0.0
0.0 0.0 0.0

-4.934596777006235e6 9.508492159538636e6 0.0
9.508492159538636e6 1.849211859126468e6 0.0
0.0 0.0 0.0

-4.403793489639424e6 1.0731786559244154e7 0.0
1.0731786559244154e7 5.709148076143745e6 0.0
0.0 0.0 0.0

2.2251872094031493e6 1.0224470926802453e7 0.0
1.0224470926802453e7 3.8292667989653125e6 0.0
0.0 0.0 0.0

-1.868831686839345e6 4.353552914462288e6 0.0
4.353552914462288e6 684271.4208525347 0.0
0.0 0.0 0.0

1.3957431820856105e6 8.61664445648409e6 0.0
8.61664445648409e6 -7.925421479628885e6 0.0
0.0 0.0 0.0

271833.9382670587 9.459653895577857e6 0.0
9.459653895577857e6 -7.818741520984234e6 0.0
0.0 0.0 0.0

-5.285511354594432e6 1.2763781290953444e7 0.0
1.2763781290953444e7 1.0349439451233324e7 0.0
0.0 0.0 0.0

-5.039563847504846e6 1.000465455207569e7 0.0
1.000465455207569e7 4.0406813081567194e6 0.0
0.0 0.0 0.0

-5.624665479502454e6 6.305087336258937e6 0.0
6.305087336258937e6 5.734086650348758e6 0.0
0.0 0.0 0.0

-8.367962289670719e6 3.857084046879479e6 0.0
3.857084046879479e6 9.190726667409195e6 0.0
0.0 0.0 0.0

269932.03907925636 9.412111124605749e6 0.0
9.412111124605749e6 -6.525219359820951e6 0.0
0.0 0.0 0.0

434655.33614639123 9.963556176166013e6 0.0
9.963556176166013e6 -5.253098236415177e6 0.0
0.0 0.0 0.0

-819830.4694137598 8.085816151569094e6 0.0
8.085816151569094e6 -4.1291335562621816e6 0.0
0.0 0.0 0.0

1.1746818147336366e6 1.4313047948319832e7 0.0
1.4313047948319832e7 -5.460497068097849e6 0.0
0.0 0.0 0.0

-2.339370681867821e6 294211.0698251215 0.0
294211.0698251215 2.3022362609434417e6 0.0
0.0 0.0 0.0

1.3870519468063319e6 9.221873343673283e6 0.0
9.221873343673283e6 -3.6424904549677176e6 0.0
0.0 0.0 0.0

-8.921598518709082e6 1.3207361301168459e7 0.0
1.3207361301168459e7 4.3983314097041795e6 0.0
0.0 0.0 0.0

-4.34751676218103e6 1.0455824326869776e7 0.0
1.0455824326869776e7 3.4890298848514603e6 0.0
0.0 0.0 0.0

797453.1882654626 5.477939164772152e6 0.0
5.477939164772152e6 -4.882476386108998e6 0.0
0.0 0.0 0.0

872768.3173020598 5.238060078184439e6 0.0
5.238060078184439e6 -5.102135688349397e6 0.0
0.0 0.0 0.0

-272569.11897882645 8.026763764244185e6 0.0
8.026763764244185e6 704225.502516552 0.0
0.0 0.0 0.0

-8.2611279716604855e6 2.1797985896919906e7 0.0
2.1797985896919906e7 -7.705743856321417e6 0.0
0.0 0.0 0.0

-1.1408973923658064e7 1.1013954884488941e6 0.0
1.1013954884488941e6 1.4469896098221377e7 0.0
0.0 0.0 0.0

836126.2908370709 1.0742744761164386e7 0.0
1.0742744761164386e7 -4.585486096457109e6 0.0
0.0 0.0 0.0

384422.56298528076 9.82050994883172e6 0.0
9.82050994883172e6 -5.751466980129808e6 0.0
0.0 0.0 0.0

-469523.2641174549 5.920547256859757e6 0.0
5.920547256859757e6 -3.3776132707461584e6 0.0
0.0 0.0 0.0

441469.4405746388 2.135554164776965e6 0.0
2.135554164776965e6 -4.066666743924033e6 0.0
0.0 0.0 0.0

325507.75933661126 1.176639558552355e7 0.0
1.176639558552355e7 -4.0513083901659204e6 0.0
0.0 0.0 0.0

227318.90696897544 9.457959293187195e6 0.0
9.457959293187195e6 -7.2678564438709235e6 0.0
0.0 0.0 0.0

2.810922941632873e6 6.106712199514162e6 0.0
6.106712199514162e6 -9.07056992572147e6 0.0
0.0 0.0 0.0

-5.129176064646635e6 9.94157824284799e6 0.0
9.94157824284799e6 3.6667711295495825e6 0.0
0.0 0.0 0.0

1.3260390006019506e6 7.611292160898054e6 0.0
7.611292160898054e6 -7.55078279586381e6 0.0
0.0 0.0 0.0

3.175225607730123e6 6.430915088447936e6 0.0
6.430915088447936e6 -9.936474694138184e6 0.0
0.0 0.0 0.0

-2.4904300427994644e6 1.088072364445586e7 0.0
1.088072364445586e7 2.186851361852479e6 0.0
0.0 0.0 0.0

-3.2001987031191518e6 7.0894847764526075e6 0.0
7.0894847764526075e6 13604.434681185521 0.0
0.0 0.0 0.0

-1.4453983257037217e6 5.831716595702393e6 0.0
5.831716595702393e6 58040.0602007836 0.0
0.0 0.0 0.0

-5.438592914646575e6 1.0210920143742396e7 0.0
1.0210920143742396e7 2.894629987349523e6 0.0
0.0 0.0 0.0

-233043.98711827782 5.864909840670542e6 0.0
5.864909840670542e6 -2.5526919475246873e6 0.0
0.0 0.0 0.0

-2.3242231812947528e6 6.811444142790183e6 0.0
6.811444142790183e6 467578.8849831261 0.0
0.0 0.0 0.0

-1.867382073225875e6 420164.2244635296 0.0
420164.2244635296 2.4526355282290727e6 0.0
0.0 0.0 0.0

-860881.7300137421 7.887866911088479e6 0.0
7.887866911088479e6 -3.8096764053053055e6 0.0
0.0 0.0 0.0

-7.419075938603563e6 1.2063833753139235e7 0.0
1.2063833753139235e7 4.0969548438001843e6 0.0
0.0 0.0 0.0

-1.2532913310226358e6 5.781175580649487e6 0.0
5.781175580649487e6 -327961.7540149793 0.0
0.0 0.0 0.0

2.1565065099099767e6 7.717669008309847e6 0.0
7.717669008309847e6 -9.477787881572636e6 0.0
0.0 0.0 0.0

-1.0397643184760618e6 5.45299599942537e6 0.0
5.45299599942537e6 -2.2435663222552566e6 0.0
0.0 0.0 0.0

112248.76455249032 9.086320686310152e6 0.0
9.086320686310152e6 2.9378965952096046e6 0.0
0.0 0.0 0.0

6.856484125346791e6 1.1777939746093417e7 0.0
1.1777939746093417e7 2.5470653135190373e6 0.0
0.0 0.0 0.0

549147.8834992929 6.029623357257582e6 0.0
6.029623357257582e6 -4.726200613594434e6 0.0
0.0 0.0 0.0

-82040.60692920536 9.549407925516084e6 0.0
9.549407925516084e6 -7.742685564165559e6 0.0
0.0 0.0 0.0

725748.6890508055 6.249763838251702e6 0.0
6.249763838251702e6 -5.175485741740577e6 0.0
0.0 0.0 0.0

980262.6062353246 5.427428490882822e6 0.0
5.427428490882822e6 -5.092473747881408e6 0.0
0.0 0.0 0.0

7.815001704255344e6 9.395060418844406e6 0.0
9.395060418844406e6 552595.3575093867 0.0
0.0 0.0 0.0

-1.3157535416778188e7 1.1381364800519997e7 0.0
1.1381364800519997e7 8.734286944421794e6 0.0
0.0 0.0 0.0

478924.01812423253 9.337021541384615e6 0.0
9.337021541384615e6 -7.561088554554076e6 0.0
0.0 0.0 0.0

-4.0129519144655704e6 1.0507727519340433e7 0.0
1.0507727519340433e7 318404.9395602818 0.0
0.0 0.0 0.0

2.276298100019896e6 5.944447129214995e6 0.0
5.944447129214995e6 -7.1359354115150245e6 0.0
0.0 0.0 0.0

-5.0812311418874245e6 1.070687044894778e7 0.0
1.070687044894778e7 2.6454138716737693e6 0.0
0.0 0.0 0.0

-4.722376567280995e6 1.5327789633494517e7 0.0
1.5327789633494517e7 -54137.6181873614 0.0
0.0 0.0 0.0

-9.475451437859833e6 2.4146107135896706e6 0.0
2.4146107135896706e6 1.129754012587188e7 0.0
0.0 0.0 0.0

-1.0147592399428241e7 2.0445527208400477e7 0.0
2.0445527208400477e7 -1.2386293957445219e6 0.0
0.0 0.0 0.0

-696052.395409876 1.0905141977595702e7 0.0
1.0905141977595702e7 -741956.5979878943 0.0
0.0 0.0 0.0

2.745938900437674e6 6.071120996743762e6 0.0
6.071120996743762e6 -8.567749201754365e6 0.0
0.0 0.0 0.0

7.563311118339986e6 8.647552651245328e6 0.0
8.647552651245328e6 -4.425105131616319e6 0.0
0.0 0.0 0.0

-2.6452700186771797e6 1.0641121684656076e7 0.0
1.0641121684656076e7 2.204090890036461e6 0.0
0.0 0.0 0.0

1.9462445583685623e6 6.872455255145512e6 0.0
6.872455255145512e6 -8.127993824914511e6 0.0
0.0 0.0 0.0

-4.444450491351224e6 1.1389759782065792e7 0.0
1.1389759782065792e7 280820.69306660444 0.0
0.0 0.0 0.0

211172.7156453519 1.086141086096292e7 0.0
1.086141086096292e7 -4.5077725828374885e6 0.0
0.0 0.0 0.0

-1.5352989659240718e6 9.06256607629283e6 0.0
9.06256607629283e6 -1.3663350486107636e6 0.0
0.0 0.0 0.0

653808.5711618955 9.96906081325703e6 0.0
9.96906081325703e6 -5.250007985083704e6 0.0
0.0 0.0 0.0

54313.12968703534 8.710101153344903e6 0.0
8.710101153344903e6 3.27429620218919e6 0.0
0.0 0.0 0.0

2.8419329620089727e6 7.739217545958382e6 0.0
7.739217545958382e6 -1.1410371138971148e7 0.0
0.0 0.0 0.0

-4.241080809655646e6 1.0946738750881774e7 0.0
1.0946738750881774e7 3.1386998183413055e6 0.0
0.0 0.0 0.0

1.685155623560298e6 2.239024611754575e6 0.0
2.239024611754575e6 -4.246734404466552e6 0.0
0.0 0.0 0.0

-5.250374399339318e6 4.827596340110956e6 0.0
4.827596340110956e6 6.795602237428287e6 0.0
0.0 0.0 0.0

492807.9601680329 5.164342880634668e6 0.0
5.164342880634668e6 -4.18643263139472e6 0.0
0.0 0.0 0.0

-5.608711578254596e6 -437042.67177493445 0.0
-437042.67177493445 6.4066484719758555e6 0.0
0.0 0.0 0.0

-351056.5870731666 9.115725265590776e6 0.0
9.115725265590776e6 -4.884740338251606e6 0.0
0.0 0.0 0.0

2.788372929351453e6 1.3235010092915015e6 0.0
1.3235010092915015e6 -4.539499420717679e6 0.0
0.0 0.0 0.0

-387717.66121431964 1.0080917804469645e7 0.0
1.0080917804469645e7 1.2875593335460168e6 0.0
0.0 0.0 0.0

-6.157599215253578e6 1.0537294889747469e7 0.0
1.0537294889747469e7 3.991071175815032e6 0.0
0.0 0.0 0.0

-6.096177233072322e6 -815417.5425908108 0.0
-815417.5425908108 6.851254402843121e6 0.0
0.0 0.0 0.0

-1.5545974207872981e6 1.0848044408160442e7 0.0
1.0848044408160442e7 656425.6731652848 0.0
0.0 0.0 0.0

507260.8038409541 1.2130495194440695e7 0.0
1.2130495194440695e7 -4.043508252103132e6 0.0
0.0 0.0 0.0

-4.59175722616488e6 9.235550628351273e6 0.0
9.235550628351273e6 1.503182435652801e6 0.0
0.0 0.0 0.0

-3.547605644588565e6 1.1657549677938068e7 0.0
1.1657549677938068e7 1.4558387432363823e6 0.0
0.0 0.0 0.0

-4.430980368296944e6 9.291073329256108e6 0.0
9.291073329256108e6 2.0037785132065413e6 0.0
0.0 0.0 0.0

-903077.2715817506 8.751281092245748e6 0.0
8.751281092245748e6 -6.393187033164979e6 0.0
0.0 0.0 0.0

2.8366660984014967e6 1.347736908871584e7 0.0
1.347736908871584e7 -8.211337406079687e6 0.0
0.0 0.0 0.0

249190.48160551838 9.773582532273704e6 0.0
9.773582532273704e6 -5.82355075119345e6 0.0
0.0 0.0 0.0

-3.53974900907176e6 9.639700698599659e6 0.0
9.639700698599659e6 4.452979115492638e6 0.0
0.0 0.0 0.0

-3.9823801239005206e6 9.228172664085196e6 0.0
9.228172664085196e6 4.7777983064506445e6 0.0
0.0 0.0 0.0

494998.9121213441 7.781697799272665e6 0.0
7.781697799272665e6 -5.621454636325641e6 0.0
0.0 0.0 0.0

-2.396783845267468e6 6.504646497037186e6 0.0
6.504646497037186e6 159298.5858172389 0.0
0.0 0.0 0.0

-8.248004367936028e6 1.169436527338812e7 0.0
1.169436527338812e7 5.249328193027001e6 0.0
0.0 0.0 0.0

-4.957313748945127e6 8.388391984983933e6 0.0
8.388391984983933e6 3.5897407967429105e6 0.0
0.0 0.0 0.0

-8.481601726499079e6 1.3899765287935328e7 0.0
1.3899765287935328e7 4.639940015818955e6 0.0
0.0 0.0 0.0

-448063.2650973501 9.173586548640793e6 0.0
9.173586548640793e6 -5.312438885145593e6 0.0
0.0 0.0 0.0

-9.059942508851353e6 1.0577428193612907e7 0.0
1.0577428193612907e7 832275.7557454882 0.0
0.0 0.0 0.0

2.879344756822236e6 6.524533675908676e6 0.0
6.524533675908676e6 -9.03796928702752e6 0.0
0.0 0.0 0.0

-4.761309997738775e6 1.6167037077422453e7 0.0
1.6167037077422453e7 251590.23394127213 0.0
0.0 0.0 0.0

-1.0527873784072764e7 8.651844328724002e6 0.0
8.651844328724002e6 7.55658391320265e6 0.0
0.0 0.0 0.0

-1.8079661109639052e6 1.0281045667697927e7 0.0
1.0281045667697927e7 2.403405669568045e6 0.0
0.0 0.0 0.0

-1.4178366354014857e7 8.473298624611845e6 0.0
8.473298624611845e6 7.928819277684103e6 0.0
0.0 0.0 0.0

2.7683122829961283e6 6.079413190855709e6 0.0
6.079413190855709e6 -8.73168816540176e6 0.0
0.0 0.0 0.0

-4.671891281239532e6 8.365988520911056e6 0.0
8.365988520911056e6 4.584436253663902e6 0.0
0.0 0.0 0.0

-1.3019464013891483e6 5.4870784494427545e6 0.0
5.4870784494427545e6 -714025.5807720495 0.0
0.0 0.0 0.0

523625.0962305472 5.013933157134989e6 0.0
5.013933157134989e6 -4.384217453528123e6 0.0
0.0 0.0 0.0

-51987.36117883632 1.1000622053005835e7 0.0
1.1000622053005835e7 -4.652290448200149e6 0.0
0.0 0.0 0.0

-1.3740855779902767e7 1.1435864040059863e7 0.0
1.1435864040059863e7 9.678239443859113e6 0.0
0.0 0.0 0.0

-8.116982303103293e6 427943.8330415295 0.0
427943.8330415295 6.5535922229794245e6 0.0
0.0 0.0 0.0

-1.2029026861864908e7 9.674102296675185e6 0.0
9.674102296675185e6 3.418215899683754e6 0.0
0.0 0.0 0.0

6.352866899479518e6 8.756596689649533e6 0.0
8.756596689649533e6 1.1637019810055317e6 0.0
0.0 0.0 0.0

894141.8526728926 1.058357752200488e7 0.0
1.058357752200488e7 -1.261587853200083e7 0.0
0.0 0.0 0.0

261884.54449496674 1.0312147780831635e7 0.0
1.0312147780831635e7 -5.239005679340831e6 0.0
0.0 0.0 0.0

-3.452934373724702e6 9.542578336375289e6 0.0
9.542578336375289e6 4.563925958672881e6 0.0
0.0 0.0 0.0

-2.92484107676442e6 1.152492949865563e7 0.0
1.152492949865563e7 -1.6428560952809295e6 0.0
0.0 0.0 0.0

-5.325437698180617e6 1.0257645767391544e7 0.0
1.0257645767391544e7 2.4144798245391906e6 0.0
0.0 0.0 0.0

-126407.42987288562 9.731231692833124e6 0.0
9.731231692833124e6 -246601.88244592727 0.0
0.0 0.0 0.0

-8.352441722824434e6 1.3354071061014721e7 0.0
1.3354071061014721e7 4.564970615476752e6 0.0
0.0 0.0 0.0

-1.3917162262022658e6 5.984344840929727e6 0.0
5.984344840929727e6 -402465.08131400857 0.0
0.0 0.0 0.0

9.409234846064556e6 1.1370905310676381e7 0.0
1.1370905310676381e7 -4.834004645836461e6 0.0
0.0 0.0 0.0

-5.413256980198331e6 1.2271761585403245e7 0.0
1.2271761585403245e7 241487.63472932298 0.0
0.0 0.0 0.0

-198654.9200049991 9.44785352466124e6 0.0
9.44785352466124e6 160769.6017357972 0.0
0.0 0.0 0.0

-4.1145432340796534e6 1.0355301357400041e7 0.0
1.0355301357400041e7 1.2829372909345967e6 0.0
0.0 0.0 0.0

-8.400992734368121e6 6.94945573661146e6 0.0
6.94945573661146e6 9.906572735570977e6 0.0
0.0 0.0 0.0

-4.682867440119839e6 1.0996341475223526e7 0.0
1.0996341475223526e7 412268.989695722 0.0
0.0 0.0 0.0

1.5784920948952455e6 7.258918432183458e6 0.0
7.258918432183458e6 -7.262103146909079e6 0.0
0.0 0.0 0.0

-4.569537191337537e6 8.834129933833223e6 0.0
8.834129933833223e6 2.280798451815076e6 0.0
0.0 0.0 0.0

-2.5382718881036295e6 1.121813768690535e7 0.0
1.121813768690535e7 857719.9985844245 0.0
0.0 0.0 0.0

1.3028151952492003e6 6.352211103268963e6 0.0
6.352211103268963e6 -5.1221962743218765e6 0.0
0.0 0.0 0.0

-4.442225531904247e6 1.0752708247976717e7 0.0
1.0752708247976717e7 3.17894000936299e6 0.0
0.0 0.0 0.0

-1.0572262073754363e7 -357605.19066191535 0.0
-357605.19066191535 1.6562209774722012e7 0.0
0.0 0.0 0.0

-495852.5239926834 5.321879838382744e6 0.0
5.321879838382744e6 -2.0518240277706548e6 0.0
0.0 0.0 0.0

-6.8942906274997145e6 7.87393706679017e6 0.0
7.87393706679017e6 4.931292678325118e6 0.0
0.0 0.0 0.0

5.456936432920451e6 1.1821792159815641e7 0.0
1.1821792159815641e7 2.0514062895725844e6 0.0
0.0 0.0 0.0

622365.7148805093 9.06368357139863e6 0.0
9.06368357139863e6 -6.846930394590667e6 0.0
0.0 0.0 0.0

2.0552907633193382e6 6.712662499352116e6 0.0
6.712662499352116e6 -7.701452651413933e6 0.0
0.0 0.0 0.0

3.1716910316267377e6 9.083406347127145e6 0.0
9.083406347127145e6 -3.224442997452141e6 0.0
0.0 0.0 0.0

-6.70645733250903e6 3.6964411185036763e6 0.0
3.6964411185036763e6 9.11814849998336e6 0.0
0.0 0.0 0.0

-4.86020535987951e6 9.86573049040774e6 0.0
9.86573049040774e6 2.1542501119108805e6 0.0
0.0 0.0 0.0

-3.7827863880901295e6 9.84628188292729e6 0.0
9.84628188292729e6 -420720.2066492643 0.0
0.0 0.0 0.0

-3.8693733967064633e6 1.0454822726566212e7 0.0
1.0454822726566212e7 -950645.2289240244 0.0
0.0 0.0 0.0

-456246.5645829278 1.0132749965023795e7 0.0
1.0132749965023795e7 -1.2943376660073544e6 0.0
0.0 0.0 0.0

185733.47120479355 6.6995214376477515e6 0.0
6.6995214376477515e6 -4.645929164765602e6 0.0
0.0 0.0 0.0

6.127195383279955e6 9.980607626646958e6 0.0
9.980607626646958e6 -3.069548831405016e6 0.0
0.0 0.0 0.0

-158020.62020963588 9.85922967732802e6 0.0
9.85922967732802e6 -434967.47395161464 0.0
0.0 0.0 0.0

-7.880855917748145e6 1.1482862259290969e7 0.0
1.1482862259290969e7 5.170101510770318e6 0.0
0.0 0.0 0.0

-1.6837566805170015e7 2.3100962320520002e6 0.0
2.3100962320520002e6 1.034313614294365e7 0.0
0.0 0.0 0.0

665862.5220667059 5.115789074222476e6 0.0
5.115789074222476e6 -4.791853874990167e6 0.0
0.0 0.0 0.0

-453281.1362656817 1.0725459924819373e7 0.0
1.0725459924819373e7 -313765.4407245425 0.0
0.0 0.0 0.0

-441096.102067054 8.580201793230658e6 0.0
8.580201793230658e6 -6.159513788677939e6 0.0
0.0 0.0 0.0

-247272.2701481057 1.003263098249133e7 0.0
1.003263098249133e7 -5.720345592242917e6 0.0
0.0 0.0 0.0

-1.6764262917655297e6 1.7005218019917181e6 0.0
1.7005218019917181e6 1.2463989761587353e6 0.0
0.0 0.0 0.0

-587042.4905897947 8.136521914240926e6 0.0
8.136521914240926e6 -4.504494301128863e6 0.0
0.0 0.0 0.0

-686317.8561314589 1.0114899282917548e7 0.0
1.0114899282917548e7 -7.584579047831632e6 0.0
0.0 0.0 0.0

-366704.90749227 8.109984503055335e6 0.0
8.109984503055335e6 -4.82208976498329e6 0.0
0.0 0.0 0.0

-343498.4223548984 1.13591386855654e7 0.0
1.13591386855654e7 -4.251957313171499e6 0.0
0.0 0.0 0.0

3.9051551582784257e6 1.0652923958562788e7 0.0
1.0652923958562788e7 3.3729255210881997e6 0.0
0.0 0.0 0.0

-8.614438326733267e6 4.484986221983064e6 0.0
4.484986221983064e6 1.2185361202195007e7 0.0
0.0 0.0 0.0

-3.6652357821046626e6 1.1456433656498931e7 0.0
1.1456433656498931e7 1.5299303277621006e6 0.0
0.0 0.0 0.0

-314926.12606597476 1.0026624326532498e7 0.0
1.0026624326532498e7 -1.309881279279024e6 0.0
0.0 0.0 0.0

-4.1423688250510194e6 8.402701386012688e6 0.0
8.402701386012688e6 1.260106749634576e6 0.0
0.0 0.0 0.0

3.6645464618245726e6 1.139046685452677e7 0.0
1.139046685452677e7 3.352348289409576e6 0.0
0.0 0.0 0.0

-4.1115973339002402e6 1.084271498630813e7 0.0
1.084271498630813e7 3.23312724720425e6 0.0
0.0 0.0 0.0

1.569304466109345e6 9.757878231246559e6 0.0
9.757878231246559e6 -4.303227478158462e6 0.0
0.0 0.0 0.0

-6.288940579979518e6 1.1021654411458397e7 0.0
1.1021654411458397e7 2.8854602338219155e6 0.0
0.0 0.0 0.0

-4.7684713834198695e6 8.993616229853746e6 0.0
8.993616229853746e6 2.7251244040118996e6 0.0
0.0 0.0 0.0

-1.2447431465279149e7 -5.014250687405296e6 0.0
-5.014250687405296e6 3.046751684394182e7 0.0
0.0 0.0 0.0

-2.204601100656334e6 1.0804871037053749e7 0.0
1.0804871037053749e7 -3.2805587220303714e6 0.0
0.0 0.0 0.0

-6.007882214801821e6 1.0525598306757046e7 0.0
1.0525598306757046e7 3.7035267598488578e6 0.0
0.0 0.0 0.0

1.2311938353366982e6 1.3536143987962068e6 0.0
1.3536143987962068e6 -3.039887120428266e6 0.0
0.0 0.0 0.0

-4.959315342360081e6 5.7276395748233665e6 0.0
5.7276395748233665e6 6.80355243981398e6 0.0
0.0 0.0 0.0

-2.58788687723789e6 6.8162273664880665e6 0.0
6.8162273664880665e6 1.828348190675316e6 0.0
0.0 0.0 0.0

1.2519964583026776e6 5.65542034917218e6 0.0
5.65542034917218e6 -6.026922591608653e6 0.0
0.0 0.0 0.0

-8.559603891104458e6 1.1843729042327872e7 0.0
1.1843729042327872e7 5.693986890665521e6 0.0
0.0 0.0 0.0

-498410.3581228114 7.996705103911037e6 0.0
7.996705103911037e6 -4.075020830942928e6 0.0
0.0 0.0 0.0

-4.698781672052821e6 8.088373009429146e6 0.0
8.088373009429146e6 4.812038411700373e6 0.0
0.0 0.0 0.0

3.1616954678557003e6 7.542779962817894e6 0.0
7.542779962817894e6 -1.0402645215469865e7 0.0
0.0 0.0 0.0

-7.582837177526477e6 1.1286358547887852e7 0.0
1.1286358547887852e7 5.0571388234492345e6 0.0
0.0 0.0 0.0

-1.334272953104542e6 9.158337132993808e6 0.0
9.158337132993808e6 -6.639959198191098e6 0.0
0.0 0.0 0.0

5.005765891894472e6 4.244915856790315e6 0.0
4.244915856790315e6 -7.098837959744621e6 0.0
0.0 0.0 0.0

-267432.33104086795 5.384991339955942e6 0.0
5.384991339955942e6 -2.4526310404753927e6 0.0
0.0 0.0 0.0

-1.2203356948949203e7 8.895912005944004e6 0.0
8.895912005944004e6 7.365642464958505e6 0.0
0.0 0.0 0.0

-166936.87687312937 9.543706946099294e6 0.0
9.543706946099294e6 524381.3430522385 0.0
0.0 0.0 0.0

-1.16226571600791e7 1.1770731807911702e7 0.0
1.1770731807911702e7 7.932250538873823e6 0.0
0.0 0.0 0.0

-1.7277739975119065e6 4.1439963265347513e6 0.0
4.1439963265347513e6 1.221707497494215e6 0.0
0.0 0.0 0.0

2.921528573846345e6 8.711057675087143e6 0.0
8.711057675087143e6 -1.062845713089609e7 0.0
0.0 0.0 0.0

1.4090292457665784e7 8.688485310600119e6 0.0
8.688485310600119e6 -9.723393626159864e6 0.0
0.0 0.0 0.0

-5.207351571642225e6 1.0102959847640218e7 0.0
1.0102959847640218e7 2.4861989750093026e6 0.0
0.0 0.0 0.0

-6.10414961167606e6 1.0888034251089642e7 0.0
1.0888034251089642e7 4.1341160410365174e6 0.0
0.0 0.0 0.0

-4.985032986301996e6 9.448298836799031e6 0.0
9.448298836799031e6 2.8919519075154746e6 0.0
0.0 0.0 0.0

-4.327047515240137e6 1.3232773596575728e7 0.0
1.3232773596575728e7 1.347288619711971e7 0.0
0.0 0.0 0.0

1.933393521185272e6 6.016380362655715e6 0.0
6.016380362655715e6 -7.2554001331256e6 0.0
0.0 0.0 0.0

-1.0612807660477743e6 6.935482895395459e6 0.0
6.935482895395459e6 -2.646593654761322e6 0.0
0.0 0.0 0.0

-6.752771415946277e6 1.5289954804045651e7 0.0
1.5289954804045651e7 557033.5193127766 0.0
0.0 0.0 0.0

1.38743188573631e6 8.169532080610852e6 0.0
8.169532080610852e6 -8.356306060142683e6 0.0
0.0 0.0 0.0

-9.995824081349432e6 750220.7279631669 0.0
750220.7279631669 7.511693379185232e6 0.0
0.0 0.0 0.0

-2.909512766940786e6 1.0862059493435223e7 0.0
1.0862059493435223e7 679354.3853797923 0.0
0.0 0.0 0.0

-737511.0244392882 7.293637222749312e6 0.0
7.293637222749312e6 -1.528906542196922e6 0.0
0.0 0.0 0.0

-241374.34398966935 8.030770117962272e6 0.0
8.030770117962272e6 -4.381650678245895e6 0.0
0.0 0.0 0.0

-3.526184439935663e6 1.1512817681937464e7 0.0
1.1512817681937464e7 6.456814443340263e6 0.0
0.0 0.0 0.0

-3.5278974574355283e6 1.5686064455945987e7 0.0
1.5686064455945987e7 -1.3334241210439443e6 0.0
0.0 0.0 0.0

-1.1259300711767431e7 -4.917426882442638e6 0.0
-4.917426882442638e6 6.930642692210504e6 0.0
0.0 0.0 0.0

2.4711019105621623e6 1.8692820637074128e7 0.0
1.8692820637074128e7 -8.064966978513852e6 0.0
0.0 0.0 0.0

-5.442036435213134e6 1.6409886406574156e7 0.0
1.6409886406574156e7 -2.420784622338276e6 0.0
0.0 0.0 0.0

525845.0634288308 5.1011333819371825e6 0.0
5.1011333819371825e6 -3.9655387570016994e6 0.0
0.0 0.0 0.0

-6.268596449628603e6 1.050424676799765e7 0.0
1.050424676799765e7 3.6373203959467425e6 0.0
0.0 0.0 0.0

6.786409890428288e6 9.54086580149886e6 0.0
9.54086580149886e6 217524.2747054277 0.0
0.0 0.0 0.0

-1.2317720106285844e7 849176.168026763 0.0
849176.168026763 1.8139184818428606e7 0.0
0.0 0.0 0.0

-2.5416120134204393e6 1.0651624715835528e7 0.0
1.0651624715835528e7 -2.8313852477542274e6 0.0
0.0 0.0 0.0

1.6771795203454415e6 1.0391094855678389e7 0.0
1.0391094855678389e7 3.617941587743732e6 0.0
0.0 0.0 0.0

58179.39893305092 1.107905435239971e7 0.0
1.107905435239971e7 -4.507391124134576e6 0.0
0.0 0.0 0.0

2.476789723116161e6 6.2954383845994e6 0.0
6.2954383845994e6 -7.853888861863798e6 0.0
0.0 0.0 0.0

-5.155353780181868e6 1.0190437742445888e7 0.0
1.0190437742445888e7 1.956017255843245e6 0.0
0.0 0.0 0.0

-195103.57520535053 8.771010508350084e6 0.0
8.771010508350084e6 -6.147555862616782e6 0.0
0.0 0.0 0.0

-5.985838774063734e6 1.2581091027099818e7 0.0
1.2581091027099818e7 1.3620556740055634e6 0.0
0.0 0.0 0.0

-1.130148919632002e7 3.406094468981117e6 0.0
3.406094468981117e6 1.9945787025596395e7 0.0
0.0 0.0 0.0

633110.1783065675 9.49132164177538e6 0.0
9.49132164177538e6 -5.214163777014384e6 0.0
0.0 0.0 0.0

662458.0552321726 7.737033864458002e6 0.0
7.737033864458002e6 -6.128608576805763e6 0.0
0.0 0.0 0.0

-731058.0889466892 1.2431319714949574e7 0.0
1.2431319714949574e7 -3.530058445435043e6 0.0
0.0 0.0 0.0

-196161.40976183978 8.491647901510792e6 0.0
8.491647901510792e6 -5.412997597263279e6 0.0
0.0 0.0 0.0

-9.594134237592999e6 -2.369093034923844e6 0.0
-2.369093034923844e6 1.4965627838679701e7 0.0
0.0 0.0 0.0

-6.306035650014384e6 1.1197753873210207e7 0.0
1.1197753873210207e7 1.0202337658689303e7 0.0
0.0 0.0 0.0

1.737827934096564e6 8.158054532196946e6 0.0
8.158054532196946e6 -8.727338427121382e6 0.0
0.0 0.0 0.0

-5.323206916656684e6 1.2440197468620762e7 0.0
1.2440197468620762e7 1.0990322205849944e6 0.0
0.0 0.0 0.0

-3.362391937397048e6 9.275817598041557e6 0.0
9.275817598041557e6 4.799294484664878e6 0.0
0.0 0.0 0.0

973941.7028844687 7.364825096820416e6 0.0
7.364825096820416e6 -5.910867656862772e6 0.0
0.0 0.0 0.0

8.545445863467468e6 1.0949134013386073e7 0.0
1.0949134013386073e7 1.9442598738572602e6 0.0
0.0 0.0 0.0

-5.172648404784799e6 1.2072603113710038e7 0.0
1.2072603113710038e7 1.0919071608755924e6 0.0
0.0 0.0 0.0

-1.5477587594653605e6 1.5906728810656683e6 0.0
1.5906728810656683e6 1.4416155644941381e6 0.0
0.0 0.0 0.0

-1.0264861100115338e7 -1.903865897334551e6 0.0
-1.903865897334551e6 1.2988226500587419e7 0.0
0.0 0.0 0.0

1.7632209582630447e6 5.338265366966846e6 0.0
5.338265366966846e6 -6.616527187534004e6 0.0
0.0 0.0 0.0

-5.12454286444477e6 9.196088856444549e6 0.0
9.196088856444549e6 2.581123689886377e6 0.0
0.0 0.0 0.0

-1.1038717297096779e6 1.0182872081911966e7 0.0
1.0182872081911966e7 -1.3421241608200162e6 0.0
0.0 0.0 0.0

-3.044250196523001e6 1.1440297674263425e7 0.0
1.1440297674263425e7 -2.244441953622305e6 0.0
0.0 0.0 0.0

-665674.6902027704 2.712293059234999e6 0.0
2.712293059234999e6 469809.69247435866 0.0
0.0 0.0 0.0

-3.7217506153755155e6 1.0391788685513917e7 0.0
1.0391788685513917e7 -481157.79197372845 0.0
0.0 0.0 0.0

-1.0384272508331593e7 -2.9790131602669223e6 0.0
-2.9790131602669223e6 1.3570001423951093e7 0.0
0.0 0.0 0.0

3.1851745792896375e6 8.456869037662629e6 0.0
8.456869037662629e6 -1.640658150572789e6 0.0
0.0 0.0 0.0

1.4729692184992344e6 8.650492779180562e6 0.0
8.650492779180562e6 -8.315992806166396e6 0.0
0.0 0.0 0.0

2.0139956209976715e6 8.090885498149842e6 0.0
8.090885498149842e6 -8.668006319088085e6 0.0
0.0 0.0 0.0

-5.595001530153763e6 5.450335988197926e6 0.0
5.450335988197926e6 7.654213393155206e6 0.0
0.0 0.0 0.0

-3.441983423259028e6 7.900311471255559e6 0.0
7.900311471255559e6 1.3752060098274031e6 0.0
0.0 0.0 0.0

1.319457909613432e6 1.9812808309128024e6 0.0
1.9812808309128024e6 -3.841168352365055e6 0.0
0.0 0.0 0.0

672384.4196337415 9.498104748322481e6 0.0
9.498104748322481e6 -5.20364791038879e6 0.0
0.0 0.0 0.0

-6.029537728666803e6 1.043580006107843e7 0.0
1.043580006107843e7 4.0616318625622652e6 0.0
0.0 0.0 0.0

-2.4642085176876877e6 1.3020370118345765e7 0.0
1.3020370118345765e7 7.542745508914011e6 0.0
0.0 0.0 0.0

1.5610106066824174e6 1.2296926965426957e7 0.0
1.2296926965426957e7 -4.4763357490685545e6 0.0
0.0 0.0 0.0

-1.076218827811722e7 -6.244434366080748e6 0.0
-6.244434366080748e6 2.8492409947951276e7 0.0
0.0 0.0 0.0

-9.986791508604158e6 2.6089051401099963e6 0.0
2.6089051401099963e6 1.4895055209537942e7 0.0
0.0 0.0 0.0

-3.6118342039005975e6 6.412466048143247e6 0.0
6.412466048143247e6 3.283926351846986e6 0.0
0.0 0.0 0.0

-1.4327804168090275e6 7.979205157741954e6 0.0
7.979205157741954e6 381730.2656887709 0.0
0.0 0.0 0.0

-1.130050685967174e6 4.841521952650525e6 0.0
4.841521952650525e6 -208142.00067685972 0.0
0.0 0.0 0.0

-7.767071276189972e6 6.054214426292827e6 0.0
6.054214426292827e6 4.129268433091828e6 0.0
0.0 0.0 0.0

2.0668564015360307e6 6.202356524821575e6 0.0
6.202356524821575e6 -6.951920594914616e6 0.0
0.0 0.0 0.0

-389306.419373272 9.752877137614926e6 0.0
9.752877137614926e6 -7.53384554612512e6 0.0
0.0 0.0 0.0

-189855.4886980975 1.0149001783418026e7 0.0
1.0149001783418026e7 -593288.2374614473 0.0
0.0 0.0 0.0

-1.1761174931280836e6 1.5556999159051739e7 0.0
1.5556999159051739e7 -6.294066216409714e6 0.0
0.0 0.0 0.0

386115.3280211538 1.1294371920851137e7 0.0
1.1294371920851137e7 -4.3544729311753325e6 0.0
0.0 0.0 0.0

-8.780434900736805e6 1.0867140137103986e7 0.0
1.0867140137103986e7 1.350627163921718e6 0.0
0.0 0.0 0.0

-5.737473742034534e6 1.0449477435700031e7 0.0
1.0449477435700031e7 2.349041607063929e6 0.0
0.0 0.0 0.0

-361229.59305953165 3.05044468224839e6 0.0
3.05044468224839e6 -3.326461964122634e6 0.0
0.0 0.0 0.0

-1.2453698904674444e7 1.2015432041899955e7 0.0
1.2015432041899955e7 8.436209497297088e6 0.0
0.0 0.0 0.0

-3.470574599941413e6 8.016867772536333e6 0.0
8.016867772536333e6 1.2736004163430487e6 0.0
0.0 0.0 0.0

-1.6032237308872384e6 6.032173958639793e6 0.0
6.032173958639793e6 -395616.33704045013 0.0
0.0 0.0 0.0

-3.613118091838335e6 7.951105992306443e6 0.0
7.951105992306443e6 710851.281568368 0.0
0.0 0.0 0.0

-416664.29079927225 1.1599811953999451e6 0.0
1.1599811953999451e6 -1.988774192652747e6 0.0
0.0 0.0 0.0

-1.783662287912262e6 4.0821491321033253e6 0.0
4.0821491321033253e6 -1.6485520575321268e6 0.0
0.0 0.0 0.0

1.2121401774963262e6 8.737762916228669e6 0.0
8.737762916228669e6 -7.589003870404336e6 0.0
0.0 0.0 0.0

-4.396853997500258e6 1.1750446871299254e7 0.0
1.1750446871299254e7 1.2796204095429708e6 0.0
0.0 0.0 0.0

-3.330225162876644e6 9.910323812314028e6 0.0
9.910323812314028e6 4.20175552587253e6 0.0
0.0 0.0 0.0

-797219.2806996389 1.0223844440591512e7 0.0
1.0223844440591512e7 -1.4290217071653565e6 0.0
0.0 0.0 0.0

4.55714987164293e6 4.1462181047046133e6 0.0
4.1462181047046133e6 -7.224262735043137e6 0.0
0.0 0.0 0.0

-4.769667796462845e6 1.0223549249978773e7 0.0
1.0223549249978773e7 561832.3040517778 0.0
0.0 0.0 0.0

-6.327266821640106e6 1.1106398049929066e7 0.0
1.1106398049929066e7 2.6179415924003227e6 0.0
0.0 0.0 0.0

-764172.9128200202 1.2454834302506771e7 0.0
1.2454834302506771e7 -3.5630578107405584e6 0.0
0.0 0.0 0.0

-1.9024897384466561e6 6.299473107992093e6 0.0
6.299473107992093e6 164202.88167164102 0.0
0.0 0.0 0.0

272668.8519824627 9.554271555620456e6 0.0
9.554271555620456e6 -6.337288683127767e6 0.0
0.0 0.0 0.0

-8.408859446510095e6 1.1448199141049543e7 0.0
1.1448199141049543e7 5.793499375343289e6 0.0
0.0 0.0 0.0

-7.936278004509032e6 1.1427348503972894e7 0.0
1.1427348503972894e7 5.33546193095564e6 0.0
0.0 0.0 0.0

482924.56295653526 9.278397039108433e6 0.0
9.278397039108433e6 -7.390161411316295e6 0.0
0.0 0.0 0.0

-203422.244361168 8.712209086177329e6 0.0
8.712209086177329e6 -5.786741903284835e6 0.0
0.0 0.0 0.0

-367115.60411032324 1.0470204557223827e7 0.0
1.0470204557223827e7 -507219.130349063 0.0
0.0 0.0 0.0

1.1330470073244013e6 7.7843677734992e6 0.0
7.7843677734992e6 -7.264134764610426e6 0.0
0.0 0.0 0.0

-8.213303444581363e6 2.7969429235123955e6 0.0
2.7969429235123955e6 1.1904896606127335e7 0.0
0.0 0.0 0.0

2.2861109988622013e6 9.697670868218662e6 0.0
9.697670868218662e6 -1.0316091575379768e7 0.0
0.0 0.0 0.0

-7.453807339017475e6 1.7149959852662854e7 0.0
1.7149959852662854e7 -979656.7944450872 0.0
0.0 0.0 0.0

-863570.5026272292 1.0855167774547245e7 0.0
1.0855167774547245e7 2.8323537648592666e6 0.0
0.0 0.0 0.0

-3.666907435471663e6 1.1858664028797299e7 0.0
1.1858664028797299e7 6.749015947833024e6 0.0
0.0 0.0 0.0

906000.0011976318 9.648581551157646e6 0.0
9.648581551157646e6 3.9855089632583833e6 0.0
0.0 0.0 0.0

-381510.68937411386 7.814404594662316e6 0.0
7.814404594662316e6 -1.9357271267350249e6 0.0
0.0 0.0 0.0

-4.437545671781155e6 1.011674052756737e7 0.0
1.011674052756737e7 706632.7534536214 0.0
0.0 0.0 0.0

-1.0210800834151246e7 9.281988905279584e6 0.0
9.281988905279584e6 1.7937343117765356e6 0.0
0.0 0.0 0.0

289316.96586929215 7.576057074786648e6 0.0
7.576057074786648e6 -2.6269331902681557e6 0.0
0.0 0.0 0.0

-1.7644484629183603e6 1.1205329430211717e7 0.0
1.1205329430211717e7 633873.0383811299 0.0
0.0 0.0 0.0

1.3816898411126754e6 5.648538322093023e6 0.0
5.648538322093023e6 -5.584325478123299e6 0.0
0.0 0.0 0.0

-8.735950876542509e6 6.125120242923961e6 0.0
6.125120242923961e6 4.8466397481661085e6 0.0
0.0 0.0 0.0

-1.4679441618775679e7 1.0703445159513678e7 0.0
1.0703445159513678e7 1.0307928236424487e7 0.0
0.0 0.0 0.0

-1.221680537838657e6 3.446860644798715e6 0.0
3.446860644798715e6 1.1104907820263437e6 0.0
0.0 0.0 0.0

-3.968766592328608e6 1.5618383561745761e7 0.0
1.5618383561745761e7 -2.7839032604321064e6 0.0
0.0 0.0 0.0

-1.3780764180089574e7 3.470764172537023e6 0.0
3.470764172537023e6 3.2368887652466178e7 0.0
0.0 0.0 0.0

-1.6541482553294972e6 1.6293436468600868e6 0.0
1.6293436468600868e6 1.9011388879903462e6 0.0
0.0 0.0 0.0

-1.505923877145146e6 1.04558514522596e7 0.0
1.04558514522596e7 -8.080468911614567e6 0.0
0.0 0.0 0.0

592033.0843982443 1.0340663157791669e7 0.0
1.0340663157791669e7 -5.204498208542482e6 0.0
0.0 0.0 0.0

-6.7239056144355945e6 1.1283266876241945e7 0.0
1.1283266876241945e7 3.162196751491355e6 0.0
0.0 0.0 0.0

-6.04504326482855e6 5.702987508556017e6 0.0
5.702987508556017e6 1.8068068187071662e6 0.0
0.0 0.0 0.0

-355202.24693486886 4.834301554724368e6 0.0
4.834301554724368e6 -2.379717509001216e6 0.0
0.0 0.0 0.0

-5.230354576516279e6 1.020601811722772e7 0.0
1.020601811722772e7 1.6624601960004335e6 0.0
0.0 0.0 0.0

-7.564391356811216e6 1.1332311775688315e7 0.0
1.1332311775688315e7 4.859469248397614e6 0.0
0.0 0.0 0.0

-6.611333161711698e6 1.1354862084854169e7 0.0
1.1354862084854169e7 3.281990870576234e6 0.0
0.0 0.0 0.0

1.7495515562789338e6 9.467681199125143e6 0.0
9.467681199125143e6 -1.2266285534889815e7 0.0
0.0 0.0 0.0

-1.7415563755709184e6 7.130307906298221e6 0.0
7.130307906298221e6 -255480.9073511128 0.0
0.0 0.0 0.0

-1.0779898088031512e7 -4.538118420714452e6 0.0
-4.538118420714452e6 1.8321345261668283e7 0.0
0.0 0.0 0.0

28745.30051703658 1.556440583369834e7 0.0
1.556440583369834e7 1.5416356879373768e7 0.0
0.0 0.0 0.0

-1.768460968366957e7 -4.480215500709273e6 0.0
-4.480215500709273e6 7.584568330707046e6 0.0
0.0 0.0 0.0

7.457747627400971e6 1.1360175270381598e7 0.0
1.1360175270381598e7 -9.18159540165907e6 0.0
0.0 0.0 0.0

623675.7456558435 9.35045902901873e6 0.0
9.35045902901873e6 -6.735478475961786e6 0.0
0.0 0.0 0.0

2.110640849608581e6 3.546092745112776e6 0.0
3.546092745112776e6 -4.485085535736157e6 0.0
0.0 0.0 0.0

1.028581051669028e7 1.1436880340845846e7 0.0
1.1436880340845846e7 -9.96962162192585e6 0.0
0.0 0.0 0.0

300166.81218419864 5.454352565903277e6 0.0
5.454352565903277e6 -1.25288130652189e6 0.0
0.0 0.0 0.0

2.3476319085710314e6 9.574832334684206e6 0.0
9.574832334684206e6 3.3322669575141193e6 0.0
0.0 0.0 0.0

-5.663982305722083e6 1.028352576981259e7 0.0
1.028352576981259e7 2.3940955337387626e6 0.0
0.0 0.0 0.0

-5.918952264340706e6 1.0707167172708325e7 0.0
1.0707167172708325e7 4.0445291029957416e6 0.0
0.0 0.0 0.0

-1.311280514712356e6 6.962423945897498e6 0.0
6.962423945897498e6 -2.6888096272698822e6 0.0
0.0 0.0 0.0

-4.602319105806807e6 3.954316151206066e6 0.0
3.954316151206066e6 1.3919782814987504e6 0.0
0.0 0.0 0.0

-677510.2288119725 8.899483916537354e6 0.0
8.899483916537354e6 -6.354740635640023e6 0.0
0.0 0.0 0.0

-1.3819493251217767e6 1.1036132011061728e7 0.0
1.1036132011061728e7 668550.2474344864 0.0
0.0 0.0 0.0

-982039.4284198732 8.10426894271786e6 0.0
8.10426894271786e6 1.8535224862631485e6 0.0
0.0 0.0 0.0

-1.3429906469805943e7 2.9187064136771443e6 0.0
2.9187064136771443e6 3.0031926379380725e7 0.0
0.0 0.0 0.0

-4.95394807461338e6 9.666046555885836e6 0.0
9.666046555885836e6 1.757130510825181e6 0.0
0.0 0.0 0.0

2.0611198558423435e6 5.5316877187985005e6 0.0
5.5316877187985005e6 -6.497372099145311e6 0.0
0.0 0.0 0.0

-3.071923899989233e6 1.0697108810166223e7 0.0
1.0697108810166223e7 2.7365759137359136e6 0.0
0.0 0.0 0.0

-2.644866928049079e6 8.277060809694063e6 0.0
8.277060809694063e6 2.5265903073357604e6 0.0
0.0 0.0 0.0

1.1699179135981086e6 1.3095755347171823e7 0.0
1.3095755347171823e7 -5.233857805984163e6 0.0
0.0 0.0 0.0

-4.658120413239214e6 1.1454247568983026e7 0.0
1.1454247568983026e7 -452708.3642510165 0.0
0.0 0.0 0.0

-9.75902293055049e6 1.201566814056381e7 0.0
1.201566814056381e7 6.45230668984712e6 0.0
0.0 0.0 0.0

-764083.9635637285 3.253383353877608e6 0.0
3.253383353877608e6 -2.797483916786422e6 0.0
0.0 0.0 0.0

-9.033933972098812e6 1.0617560136304919e7 0.0
1.0617560136304919e7 6.385267661295073e6 0.0
0.0 0.0 0.0

-5.928079293890521e6 1.0427059779539878e7 0.0
1.0427059779539878e7 3.7026308636780865e6 0.0
0.0 0.0 0.0

-3.9607375312523535e6 6.732131980455889e6 0.0
6.732131980455889e6 3.134071724946499e6 0.0
0.0 0.0 0.0

4.53892968585998e6 1.2739851200600315e7 0.0
1.2739851200600315e7 -7.418657249454951e6 0.0
0.0 0.0 0.0

-1.8210434730113442e6 9.754040566922072e6 0.0
9.754040566922072e6 -2.9059594948199675e6 0.0
0.0 0.0 0.0

-5.57748846504947e6 1.0141651782198794e7 0.0
1.0141651782198794e7 2.461631158529368e6 0.0
0.0 0.0 0.0

-990519.0914989818 6.672985474028271e6 0.0
6.672985474028271e6 -2.9990474046959328e6 0.0
0.0 0.0 0.0

-1.476143437423253e6 1.0792166459332615e7 0.0
1.0792166459332615e7 1.305345346555403e6 0.0
0.0 0.0 0.0

-4.852960717471609e6 1.0541378361816783e6 0.0
1.0541378361816783e6 3.0522352692841785e6 0.0
0.0 0.0 0.0

-6.509354398508901e6 5.302143633137733e6 0.0
5.302143633137733e6 5.327062863917828e6 0.0
0.0 0.0 0.0

153756.03855431755 1.06024437185018e7 0.0
1.06024437185018e7 -4.934174903367869e6 0.0
0.0 0.0 0.0

-2.3368050380830895e6 8.74307816405333e6 0.0
8.74307816405333e6 5.151633031243741e6 0.0
0.0 0.0 0.0

-742539.3098890003 1.0437764379102757e7 0.0
1.0437764379102757e7 -4.999329609671422e6 0.0
0.0 0.0 0.0

-3.520641187419189e6 9.609707123465518e6 0.0
9.609707123465518e6 4.063712326493932e6 0.0
0.0 0.0 0.0

-9.136387766098551e6 2.488659732733497e6 0.0
2.488659732733497e6 6.376249532900107e6 0.0
0.0 0.0 0.0

-1.6207709084115648e6 1.1022220493296653e7 0.0
1.1022220493296653e7 137400.5102745148 0.0
0.0 0.0 0.0

-2.152458911071329e6 4.235951650709527e6 0.0
4.235951650709527e6 1.1127600987211862e6 0.0
0.0 0.0 0.0

-1.4398374129552178e6 1.018316099998404e7 0.0
1.018316099998404e7 1.9909549961456838e6 0.0
0.0 0.0 0.0

-4.634547441968484e6 1.6773308065642415e7 0.0
1.6773308065642415e7 -3.881347297730407e6 0.0
0.0 0.0 0.0

-1.779258530324026e7 4.380158754383646e6 0.0
4.380158754383646e6 8.719458804554611e6 0.0
0.0 0.0 0.0

-8.82013499813227e6 1.7133570819753483e7 0.0
1.7133570819753483e7 3.7442271676973403e6 0.0
0.0 0.0 0.0

-5.150443485528687e6 1.0000811112742536e7 0.0
1.0000811112742536e7 907439.2464056262 0.0
0.0 0.0 0.0

-8.952932924267627e6 1.49027605451188e7 0.0
1.49027605451188e7 4.45956128831909e6 0.0
0.0 0.0 0.0

-1.621534282422415e6 3.841604513734096e6 0.0
3.841604513734096e6 492070.2934087422 0.0
0.0 0.0 0.0

1.255773395697308e6 1.3058108059158595e7 0.0
1.3058108059158595e7 -5.173878116034317e6 0.0
0.0 0.0 0.0

-8.32968652306574e6 1.1565598457593817e7 0.0
1.1565598457593817e7 5.541163874273846e6 0.0
0.0 0.0 0.0

-2.2483576048496985e6 1.0989478232183432e7 0.0
1.0989478232183432e7 162248.4743289199 0.0
0.0 0.0 0.0

-21104.846024786588 9.86925256517059e6 0.0
9.86925256517059e6 -6.052857604981393e6 0.0
0.0 0.0 0.0

-6.645964801428841e6 1.0945635358850053e7 0.0
1.0945635358850053e7 4.5733148090994535e6 0.0
0.0 0.0 0.0

-5.305521825747814e6 5.107116183865684e6 0.0
5.107116183865684e6 4.828750684804851e6 0.0
0.0 0.0 0.0

-9.184536771970883e6 1.5647914215061301e7 0.0
1.5647914215061301e7 2.679174341962433e6 0.0
0.0 0.0 0.0

-9.7140769450317e6 9.87701442633194e6 0.0
9.87701442633194e6 6.763877442036888e6 0.0
0.0 0.0 0.0

856505.20009898 1.2865290468386281e7 0.0
1.2865290468386281e7 -5.175861190718752e6 0.0
0.0 0.0 0.0

334152.6985129195 6.560737812747602e6 0.0
6.560737812747602e6 -4.1935332811232363e6 0.0
0.0 0.0 0.0

-245556.82361833844 9.510157811768077e6 0.0
9.510157811768077e6 -7.409338848052139e6 0.0
0.0 0.0 0.0

4.3773231247595325e6 4.336976933180669e6 0.0
4.336976933180669e6 -7.245637638518126e6 0.0
0.0 0.0 0.0

-2.0299104827537613e6 1.0996304400917029e7 0.0
1.0996304400917029e7 3.3134374671573415e6 0.0
0.0 0.0 0.0

1.3655873341684928e6 1.1292261353374409e7 0.0
1.1292261353374409e7 -4.464704285783085e6 0.0
0.0 0.0 0.0

-5.149726675681527e6 1.5276217198043453e7 0.0
1.5276217198043453e7 -1.466986018519928e6 0.0
0.0 0.0 0.0

-6.15328271825748e6 5.91015038827111e6 0.0
5.91015038827111e6 6.9596549781028945e6 0.0
0.0 0.0 0.0

-1.3529170018009623e6 7.213847985077427e6 0.0
7.213847985077427e6 -2.318058650008889e6 0.0
0.0 0.0 0.0

-1.2047625026230686e6 3.5633533593959105e6 0.0
3.5633533593959105e6 4.421468143178563e6 0.0
0.0 0.0 0.0

2.0894431929166005e6 8.66154594280443e6 0.0
8.66154594280443e6 -9.88470759006853e6 0.0
0.0 0.0 0.0

-113384.23477879594 9.465095196802832e6 0.0
9.465095196802832e6 -859644.6097061251 0.0
0.0 0.0 0.0

-8.98467353072626e6 9.384965533979394e6 0.0
9.384965533979394e6 4.715713662478024e6 0.0
0.0 0.0 0.0

441243.0133977472 9.684548944061954e6 0.0
9.684548944061954e6 -5.552998796667396e6 0.0
0.0 0.0 0.0

5.402860583519237e6 9.347934274855224e6 0.0
9.347934274855224e6 -3.6183357334811348e6 0.0
0.0 0.0 0.0

-3.0282745998829156e6 2.0569208419764014e6 0.0
2.0569208419764014e6 3.7712292357807197e6 0.0
0.0 0.0 0.0

-1.2615213888663836e7 7.513432281670519e6 0.0
7.513432281670519e6 3.637495575941881e6 0.0
0.0 0.0 0.0

694253.9264690978 1.7648002224724725e7 0.0
1.7648002224724725e7 -1.3744510785885481e7 0.0
0.0 0.0 0.0

-6.095712180962883e6 1.0819375765421335e7 0.0
1.0819375765421335e7 4.0459628428158346e6 0.0
0.0 0.0 0.0

-934918.6686880705 6.235691588882447e6 0.0
6.235691588882447e6 -2.1552043647559956e6 0.0
0.0 0.0 0.0

-8.662912345465306e6 5.803593039573249e6 0.0
5.803593039573249e6 9.652278280955352e6 0.0
0.0 0.0 0.0

-2.058850264893753e6 1.2902867658179677e6 0.0
1.2902867658179677e6 1.3232745903274189e6 0.0
0.0 0.0 0.0

-1.9259554655880535e6 9.858723225938281e6 0.0
9.858723225938281e6 -3.42647503809781e6 0.0
0.0 0.0 0.0

-6.337969161601344e6 1.1435113272381403e7 0.0
1.1435113272381403e7 3.214481665127228e6 0.0
0.0 0.0 0.0

-2.633563095471511e6 9.15771720039494e6 0.0
9.15771720039494e6 -1.7574771637159777e6 0.0
0.0 0.0 0.0

-1.0595754921586378e7 3.467403409812953e6 0.0
3.467403409812953e6 1.8099880670041036e7 0.0
0.0 0.0 0.0

274897.5216770298 9.16954929400675e6 0.0
9.16954929400675e6 -6.596175845390758e6 0.0
0.0 0.0 0.0

-6.441114590623023e6 1.0791720368703537e7 0.0
1.0791720368703537e7 3.6823519098424586e6 0.0
0.0 0.0 0.0

102033.71094038268 9.714125738783153e6 0.0
9.714125738783153e6 -5.977632826153912e6 0.0
0.0 0.0 0.0

3.679990365576264e6 8.597018927068975e6 0.0
8.597018927068975e6 951105.138319213 0.0
0.0 0.0 0.0

-1.0212840469383877e7 2.0330590396183224e6 0.0
2.0330590396183224e6 1.5795426711223353e7 0.0
0.0 0.0 0.0

1.346060386617647e6 9.11434343191537e6 0.0
9.11434343191537e6 -3.7718368559969105e6 0.0
0.0 0.0 0.0

-2.3704120058890497e6 1.0477846129796391e7 0.0
1.0477846129796391e7 2.5531538915449893e6 0.0
0.0 0.0 0.0

-5.22129944969809e6 1.3127617267457698e7 0.0
1.3127617267457698e7 1.1405198531986594e6 0.0
0.0 0.0 0.0

1.1068468387704226e6 7.7389705068258e6 0.0
7.7389705068258e6 -6.3005227360510435e6 0.0
0.0 0.0 0.0

17593.751265005907 6.510417140735517e6 0.0
6.510417140735517e6 -4.314565024440689e6 0.0
0.0 0.0 0.0

1.8428399435715228e6 8.570228298048964e6 0.0
8.570228298048964e6 -9.202654782830667e6 0.0
0.0 0.0 0.0

-3.2135894161892454e6 1.1304332980516065e7 0.0
1.1304332980516065e7 309487.90299116075 0.0
0.0 0.0 0.0

-1.1013696172290292e7 1.5187161293895612e6 0.0
1.5187161293895612e6 1.3595967469122695e7 0.0
0.0 0.0 0.0

-3.6578121224478427e6 1.1277259037450852e7 0.0
1.1277259037450852e7 745853.1107540261 0.0
0.0 0.0 0.0

-2.33246616887365e6 8.864539014598968e6 0.0
8.864539014598968e6 -1.990671572509376e6 0.0
0.0 0.0 0.0

2.0600584914032095e6 7.768395425522065e6 0.0
7.768395425522065e6 -9.220726519823357e6 0.0
0.0 0.0 0.0

-7.614035090046194e6 4.716442885984058e6 0.0
4.716442885984058e6 1.1078683333173083e7 0.0
0.0 0.0 0.0

-150496.36352257096 9.825091626848567e6 0.0
9.825091626848567e6 -35241.51212642786 0.0
0.0 0.0 0.0

1.060281742678627e6 8.730262924140038e6 0.0
8.730262924140038e6 -8.10162303199338e6 0.0
0.0 0.0 0.0

2.0912505151970047e6 5.881628083695795e6 0.0
5.881628083695795e6 -7.232340149542821e6 0.0
0.0 0.0 0.0

-4.775023492515066e6 9.365096406048002e6 0.0
9.365096406048002e6 4.137329689253129e6 0.0
0.0 0.0 0.0

-6.038333710990954e6 1.1243647722709764e7 0.0
1.1243647722709764e7 3.7798845392039795e6 0.0
0.0 0.0 0.0

-997332.3259090682 7.568114476156116e6 0.0
7.568114476156116e6 -3.313367729819928e6 0.0
0.0 0.0 0.0

-6.085969086275888e6 249378.22104155098 0.0
249378.22104155098 7.641258252158577e6 0.0
0.0 0.0 0.0

-39972.97525162849 946107.2007901116 0.0
946107.2007901116 -1.6445760013502706e6 0.0
0.0 0.0 0.0

-4.991422255233882e6 8.067417796794313e6 0.0
8.067417796794313e6 3.7684680964332046e6 0.0
0.0 0.0 0.0

3.9550307753090854e6 9.940857065122247e6 0.0
9.940857065122247e6 829289.5883279978 0.0
0.0 0.0 0.0

1.9615113370137836e6 8.833367606922857e6 0.0
8.833367606922857e6 2.1055680693106186e6 0.0
0.0 0.0 0.0

-6.859147851585031e6 1.1172339541608827e7 0.0
1.1172339541608827e7 2.4170077382959435e6 0.0
0.0 0.0 0.0

-500457.47173703485 8.091173800388055e6 0.0
8.091173800388055e6 -5.546190283396383e6 0.0
0.0 0.0 0.0

-4.444126027342155e6 1.1797981315442123e7 0.0
1.1797981315442123e7 1.2328235163677821e6 0.0
0.0 0.0 0.0

-7.15770472861756e6 8.049457601412879e6 0.0
8.049457601412879e6 3.935149547008796e6 0.0
0.0 0.0 0.0

1.6395636237499076e6 8.621342977659274e6 0.0
8.621342977659274e6 -8.833641181130229e6 0.0
0.0 0.0 0.0

783956.7463854735 1.110533102179401e6 0.0
1.110533102179401e6 -4.382303685654201e6 0.0
0.0 0.0 0.0

-102804.35720378847 3.0370774339995217e6 0.0
3.0370774339995217e6 -2.4634558339209957e6 0.0
0.0 0.0 0.0

-181792.2908912312 9.935234727544105e6 0.0
9.935234727544105e6 -1.20686250935065e6 0.0
0.0 0.0 0.0

58531.938254534965 9.253109608367577e6 0.0
9.253109608367577e6 4.510330121853348e6 0.0
0.0 0.0 0.0

-1.5196823880901963e6 7.2582458816052275e6 0.0
7.2582458816052275e6 -489518.02176930854 0.0
0.0 0.0 0.0

-4.778409468442706e6 8.496773365375675e6 0.0
8.496773365375675e6 3.324909048601971e6 0.0
0.0 0.0 0.0

-1.0952703048825014e7 -173422.108479977 0.0
-173422.108479977 5.999000100791544e6 0.0
0.0 0.0 0.0

-209991.4311545453 1.007016765860259e7 0.0
1.007016765860259e7 -218569.80925173766 0.0
0.0 0.0 0.0

361379.9272470169 6.898984427434775e6 0.0
6.898984427434775e6 -4.690352391004428e6 0.0
0.0 0.0 0.0

-8.558546094868831e6 9.648731118887708e6 0.0
9.648731118887708e6 6.222286880062209e6 0.0
0.0 0.0 0.0

-7.106788425062469e6 -443539.032392117 0.0
-443539.032392117 9.080975853172004e6 0.0
0.0 0.0 0.0

-951410.46804892 1.0418966006798677e7 0.0
1.0418966006798677e7 -810470.7994066984 0.0
0.0 0.0 0.0

-4.544715664006714e6 9.755714814550318e6 0.0
9.755714814550318e6 7.410268452923672e6 0.0
0.0 0.0 0.0

-6.099656753297289e6 1.056867930376988e7 0.0
1.056867930376988e7 3.6497818779754397e6 0.0
0.0 0.0 0.0

320943.3428403544 9.35966028957728e6 0.0
9.35966028957728e6 -7.099717885322861e6 0.0
0.0 0.0 0.0

2.2736005872187107e6 9.836963981072696e6 0.0
9.836963981072696e6 2.6925791943911016e6 0.0
0.0 0.0 0.0

144867.79919561 9.603143089353247e6 0.0
9.603143089353247e6 -6.412140769266495e6 0.0
0.0 0.0 0.0

-451660.6211497986 1.0358679947880093e7 0.0
1.0358679947880093e7 207593.75876040506 0.0
0.0 0.0 0.0

-4.0664499373191013e6 9.009706036262084e6 0.0
9.009706036262084e6 4.387713777363016e6 0.0
0.0 0.0 0.0

-3.0315670904612252e6 1.0706983253056582e7 0.0
1.0706983253056582e7 2.8672435749012595e6 0.0
0.0 0.0 0.0

-1.9264760495963516e6 1.0996781321304893e7 0.0
1.0996781321304893e7 1.214748262705576e6 0.0
0.0 0.0 0.0

1.6470487987450059e6 6.350584675528097e6 0.0
6.350584675528097e6 -7.183263548768787e6 0.0
0.0 0.0 0.0

-7.629223020112455e6 1.2177960588341177e7 0.0
1.2177960588341177e7 3.5354435091113634e6 0.0
0.0 0.0 0.0

-1.847344854506127e6 7.650175087137868e6 0.0
7.650175087137868e6 909365.1999018177 0.0
0.0 0.0 0.0

6.108011722404905e6 8.107133798696433e6 0.0
8.107133798696433e6 -790912.3352587183 0.0
0.0 0.0 0.0

-6.953831925797945e6 1.0542674075386958e7 0.0
1.0542674075386958e7 4.082189296004101e6 0.0
0.0 0.0 0.0

2.5503286751608006e6 6.409768679207314e6 0.0
6.409768679207314e6 -8.197466930134391e6 0.0
0.0 0.0 0.0

-3.097454925356904e6 7.463016092975997e6 0.0
7.463016092975997e6 1.1594395761735756e6 0.0
0.0 0.0 0.0

4.010462120092418e6 8.106617934491598e6 0.0
8.106617934491598e6 -1.334665371288516e6 0.0
0.0 0.0 0.0

8.733304346734174e6 8.185842869299659e6 0.0
8.185842869299659e6 -4.267690664573839e6 0.0
0.0 0.0 0.0

-8.462041082821632e6 1.1348220661577519e7 0.0
1.1348220661577519e7 5.614599655655224e6 0.0
0.0 0.0 0.0

-355247.1181843055 1.060051348218257e7 0.0
1.060051348218257e7 -4.754098597395759e6 0.0
0.0 0.0 0.0

-1.6812088207124653e6 6.246755516069927e6 0.0
6.246755516069927e6 234258.78894247802 0.0
0.0 0.0 0.0

-6.752820439373283e6 -1.2418943780061998e6 0.0
-1.2418943780061998e6 7.389120945773901e6 0.0
0.0 0.0 0.0

-182230.8120898022 9.917137061778706e6 0.0
9.917137061778706e6 -812701.1947735755 0.0
0.0 0.0 0.0

-2.00287743445674e6 7.7521578027240215e6 0.0
7.7521578027240215e6 7.589713376769768e6 0.0
0.0 0.0 0.0

-2.576992146855265e6 1.3201857262861137e6 0.0
1.3201857262861137e6 3.4440838605568223e6 0.0
0.0 0.0 0.0

-1.3534162021648386e6 5.411169824780894e6 0.0
5.411169824780894e6 -1.8634320175166784e6 0.0
0.0 0.0 0.0

-2.455342808349416e6 9.241770929306747e6 0.0
9.241770929306747e6 546062.8432664375 0.0
0.0 0.0 0.0

89429.51079462469 9.2692433799196e6 0.0
9.2692433799196e6 -6.886685016724792e6 0.0
0.0 0.0 0.0

-7.061454599786811e6 1.160304534443886e7 0.0
1.160304534443886e7 3.7709113877080916e6 0.0
0.0 0.0 0.0

-6.177598678588541e6 1.3878457478923453e7 0.0
1.3878457478923453e7 456981.857284751 0.0
0.0 0.0 0.0

-1.1077594508613179e7 1.6692874267762726e7 0.0
1.6692874267762726e7 3.6320597890637405e6 0.0
0.0 0.0 0.0

-1.4853060560132992e7 1.0241454380069803e7 0.0
1.0241454380069803e7 9.807561572162755e6 0.0
0.0 0.0 0.0

-63579.29424255516 1.0998145569609828e7 0.0
1.0998145569609828e7 2.606345590375469e6 0.0
0.0 0.0 0.0

718808.9934666576 1.0591035148494752e7 0.0
1.0591035148494752e7 -1.1090464167644689e7 0.0
0.0 0.0 0.0

-1.1801831807575861e6 2.3594296744331075e6 0.0
2.3594296744331075e6 -219298.46051920688 0.0
0.0 0.0 0.0

-1.4442774517783495e6 9.169599881626068e6 0.0
9.169599881626068e6 -6.339816451938292e6 0.0
0.0 0.0 0.0

-887885.0752061274 7.7057758132142965e6 0.0
7.7057758132142965e6 -5.469582978360822e6 0.0
0.0 0.0 0.0

-1.000267228410173e6 1.10870586350806e7 0.0
1.10870586350806e7 3.339383157857133e6 0.0
0.0 0.0 0.0

-1.0168744238299662e6 9.63458993219545e6 0.0
9.63458993219545e6 -7.250040214649079e6 0.0
0.0 0.0 0.0

-855444.2410531666 8.987886993690912e6 0.0
8.987886993690912e6 -6.411463160526819e6 0.0
0.0 0.0 0.0

226858.09107930586 1.0259228355105534e7 0.0
1.0259228355105534e7 4.8203893939531455e6 0.0
0.0 0.0 0.0

-2.6369328421437377e6 8.182414973335082e6 0.0
8.182414973335082e6 1.7145943022106094e6 0.0
0.0 0.0 0.0

1.4721697409423143e6 7.591775675498159e6 0.0
7.591775675498159e6 -6.99503246770343e6 0.0
0.0 0.0 0.0

-222370.541006457 9.970038581812328e6 0.0
9.970038581812328e6 -1.0986361135236395e6 0.0
0.0 0.0 0.0

-5.81796981030258e6 9.796519655913902e6 0.0
9.796519655913902e6 3.8442914047999475e6 0.0
0.0 0.0 0.0

-487114.0585460117 9.936028997152554e6 0.0
9.936028997152554e6 913401.0607491918 0.0
0.0 0.0 0.0

4.565736081700521e6 4.4871030463144705e6 0.0
4.4871030463144705e6 -6.530112145197216e6 0.0
0.0 0.0 0.0

-5.505325727432991e6 1.0010512973333148e7 0.0
1.0010512973333148e7 2.5197887755425856e6 0.0
0.0 0.0 0.0

-7.19315339326871e6 1.1140127712692512e7 0.0
1.1140127712692512e7 4.617194691386999e6 0.0
0.0 0.0 0.0

-7.7565493561895415e6 4.49508778128297e6 0.0
4.49508778128297e6 1.0126459339584032e7 0.0
0.0 0.0 0.0

-1.1644957956339377e6 7.527313854925149e6 0.0
7.527313854925149e6 480333.12568204536 0.0
0.0 0.0 0.0

-3.1583823866627095e6 9.501398445266863e6 0.0
9.501398445266863e6 5.279467804529636e6 0.0
0.0 0.0 0.0

-9.87256992285129e6 1.1632371027098235e7 0.0
1.1632371027098235e7 6.395205011165312e6 0.0
0.0 0.0 0.0

-4.665576248076452e6 8.617074758071754e6 0.0
8.617074758071754e6 4.299019715303692e6 0.0
0.0 0.0 0.0

-1.6230538361250132e6 1.9493109118423664e6 0.0
1.9493109118423664e6 566033.9599953846 0.0
0.0 0.0 0.0

-7.139437409240465e6 1.1129975231110256e7 0.0
1.1129975231110256e7 4.793357592921967e6 0.0
0.0 0.0 0.0

-4.999362661864106e6 1.0166653653898723e7 0.0
1.0166653653898723e7 1.5204505610468667e6 0.0
0.0 0.0 0.0

-3.615683029016746e6 7.796403307851509e6 0.0
7.796403307851509e6 780286.6914528962 0.0
0.0 0.0 0.0

-7.208053733480056e6 1.1900946419267617e7 0.0
1.1900946419267617e7 3.6445492511103605e6 0.0
0.0 0.0 0.0

-6.88454639098839e6 1.1573628668952297e7 0.0
1.1573628668952297e7 3.2135495834461367e6 0.0
0.0 0.0 0.0

-715365.2280695684 1.0038698610628989e7 0.0
1.0038698610628989e7 -1.1170868044657821e6 0.0
0.0 0.0 0.0

367202.9639058628 8.505305502508715e6 0.0
8.505305502508715e6 1.2240103537331247e6 0.0
0.0 0.0 0.0

1.0080879315192592e6 7.485033137763617e6 0.0
7.485033137763617e6 -6.720577153201702e6 0.0
0.0 0.0 0.0

-1.4495068336034692e6 9.890733272010434e6 0.0
9.890733272010434e6 -6.922686525092225e6 0.0
0.0 0.0 0.0

-1.80741680844183e6 1.126755844064966e7 0.0
1.126755844064966e7 425078.3159404425 0.0
0.0 0.0 0.0

-1.6922703127057448e7 1.2548931471032362e7 0.0
1.2548931471032362e7 3.0171486759918714e6 0.0
0.0 0.0 0.0

-1.2791544159828974e6 8.968539003908958e6 0.0
8.968539003908958e6 -6.472689291414173e6 0.0
0.0 0.0 0.0

-1.5295241944117442e7 1.2182997404269423e7 0.0
1.2182997404269423e7 1.9347771547461376e6 0.0
0.0 0.0 0.0

-3.647859425144174e6 1.084560827698138e7 0.0
1.084560827698138e7 2.462711915924052e6 0.0
0.0 0.0 0.0

-6.044141437152496e6 -3.8867151688406346e6 0.0
-3.8867151688406346e6 8.129339979292512e6 0.0
0.0 0.0 0.0

-6.248964652038025e6 1.2941616590866342e7 0.0
1.2941616590866342e7 1.2550030195754482e6 0.0
0.0 0.0 0.0

-7.818254106540828e6 1.1894676831292607e7 0.0
1.1894676831292607e7 1.972734347870645e6 0.0
0.0 0.0 0.0

-414015.57969705015 1.079896844828287e7 0.0
1.079896844828287e7 -4.625915939827599e6 0.0
0.0 0.0 0.0

-9.22088770108673e6 1.0058558443130903e7 0.0
1.0058558443130903e7 5.562728970907753e6 0.0
0.0 0.0 0.0

-1.6863593027280248e6 4.765951193011849e6 0.0
4.765951193011849e6 762986.4150836627 0.0
0.0 0.0 0.0

1.7665233251265883e6 7.877835402925665e6 0.0
7.877835402925665e6 -8.039080692869723e6 0.0
0.0 0.0 0.0

-9.97053048781457e6 9.238601805331383e6 0.0
9.238601805331383e6 5.674389496203843e6 0.0
0.0 0.0 0.0

-210404.25107788388 1.0293267464151215e7 0.0
1.0293267464151215e7 -768001.1107103319 0.0
0.0 0.0 0.0

-1.6704083553633292e6 5.932192709263837e6 0.0
5.932192709263837e6 -106535.6031007602 0.0
0.0 0.0 0.0

-2.5536090299272845e6 8.9037604516798e6 0.0
8.9037604516798e6 -2.0195188463761015e6 0.0
0.0 0.0 0.0

-4.656108522433886e6 1.2503252525838561e7 0.0
1.2503252525838561e7 603271.4499382433 0.0
0.0 0.0 0.0

-8.727737604235377e6 -1.102347860175481e6 0.0
-1.102347860175481e6 7.317200392399871e6 0.0
0.0 0.0 0.0

-6.707736064424504e6 1.090103709784442e7 0.0
1.090103709784442e7 4.390078618851805e6 0.0
0.0 0.0 0.0

28946.34817997669 1.0381104962201802e7 0.0
1.0381104962201802e7 -5.335463030934367e6 0.0
0.0 0.0 0.0

675684.8519289701 7.425346404926726e6 0.0
7.425346404926726e6 -5.961987128706822e6 0.0
0.0 0.0 0.0

1.2545198663176664e6 2.257250295276325e6 0.0
2.257250295276325e6 -4.1361118384447875e6 0.0
0.0 0.0 0.0

-497868.2298507652 9.738628010923801e6 0.0
9.738628010923801e6 -4.736176417549251e6 0.0
0.0 0.0 0.0

-6.841903669303926e6 1.0274851174079023e7 0.0
1.0274851174079023e7 850617.4432781152 0.0
0.0 0.0 0.0

-8.695365952168532e6 1.6456184030362893e7 0.0
1.6456184030362893e7 4.356001514039707e6 0.0
0.0 0.0 0.0

-4.1567095183917386e6 1.077597464133478e7 0.0
1.077597464133478e7 5.7904541546493685e6 0.0
0.0 0.0 0.0

-1.3264875713365006e6 7.873098816766929e6 0.0
7.873098816766929e6 1.1199591598610035e6 0.0
0.0 0.0 0.0

-231498.89619476622 1.0384940994938187e7 0.0
1.0384940994938187e7 1.4984309162459406e6 0.0
0.0 0.0 0.0

-369828.69102663046 9.269372118468702e6 0.0
9.269372118468702e6 -1.2327622729990995e6 0.0
0.0 0.0 0.0

-9.01137549886963e6 4.395079646525606e6 0.0
4.395079646525606e6 1.0792714475629045e7 0.0
0.0 0.0 0.0

-60384.08304873109 8.619172848464811e6 0.0
8.619172848464811e6 -5.891832345074334e6 0.0
0.0 0.0 0.0

-1.599802756692849e7 7.4573330314275315e6 0.0
7.4573330314275315e6 8.174582413205283e6 0.0
0.0 0.0 0.0

-5.365692489940965e6 815102.007343975 0.0
815102.007343975 7.382180058934288e6 0.0
0.0 0.0 0.0

-6.739236076164415e6 -3.3617125515889823e6 0.0
-3.3617125515889823e6 1.1383031549653685e7 0.0
0.0 0.0 0.0

-1.0667147965809396e6 7.35989272731253e6 0.0
7.35989272731253e6 -3.6471488593083643e6 0.0
0.0 0.0 0.0

-1.2775978005624665e6 1.0174512123698263e6 0.0
1.0174512123698263e6 1.1099181499035452e6 0.0
0.0 0.0 0.0

2.1122402978280475e6 8.099926348829372e6 0.0
8.099926348829372e6 -9.325293984308593e6 0.0
0.0 0.0 0.0

-1.0740449912614593e7 3.516342149493749e6 0.0
3.516342149493749e6 1.313862815029243e7 0.0
0.0 0.0 0.0

1.1414947583690453e6 8.543276688256595e6 0.0
8.543276688256595e6 -8.044279192872345e6 0.0
0.0 0.0 0.0

-1.3003815882631983e6 2.2187375104835182e6 0.0
2.2187375104835182e6 1.0788944257338112e6 0.0
0.0 0.0 0.0

-6.156650962906197e6 1.033306643829386e7 0.0
1.033306643829386e7 3.6648954365523034e6 0.0
0.0 0.0 0.0

-4.594656320306475e6 1.2931435053029105e7 0.0
1.2931435053029105e7 478146.21094548586 0.0
0.0 0.0 0.0

-7.884901221135437e6 1.1467548622262783e7 0.0
1.1467548622262783e7 5.163601009160906e6 0.0
0.0 0.0 0.0

-1.1088477771809649e7 1.5601665609135887e7 0.0
1.5601665609135887e7 5.044039038643157e6 0.0
0.0 0.0 0.0

-9.306021619942635e6 1.3594499820720855e7 0.0
1.3594499820720855e7 4.161607877338094e6 0.0
0.0 0.0 0.0

-5.819639447464118e6 -689193.1175265423 0.0
-689193.1175265423 7.242556472246393e6 0.0
0.0 0.0 0.0

2.389360658592927e6 6.541778403647226e6 0.0
6.541778403647226e6 -8.608172883537535e6 0.0
0.0 0.0 0.0

321858.07802329166 1.0909114531942725e7 0.0
1.0909114531942725e7 -4.796517469002651e6 0.0
0.0 0.0 0.0

-3.4680677564054113e6 1.0389653964690298e7 0.0
1.0389653964690298e7 -915585.7017715755 0.0
0.0 0.0 0.0

151913.01495583798 7.881912887400868e6 0.0
7.881912887400868e6 -4.867303149662189e6 0.0
0.0 0.0 0.0

-1.2094477684284723e6 8.348357590867414e6 0.0
8.348357590867414e6 -5.924355141186885e6 0.0
0.0 0.0 0.0

-316342.5079191101 9.588069322935423e6 0.0
9.588069322935423e6 -1.0544750398084703e6 0.0
0.0 0.0 0.0

-5.415179299938412e6 9.953855747947842e6 0.0
9.953855747947842e6 3.5880763805625937e6 0.0
0.0 0.0 0.0

-6.906723572217616e6 1.073330988125242e7 0.0
1.073330988125242e7 4.689408778838438e6 0.0
0.0 0.0 0.0

-639859.1471670857 7.862980545719708e6 0.0
7.862980545719708e6 -5.1043193807604555e6 0.0
0.0 0.0 0.0

-821136.363890645 5.783938886864612e6 0.0
5.783938886864612e6 -1.8152520791884537e6 0.0
0.0 0.0 0.0

1.9327432013235958e6 5.886750726468505e6 0.0
5.886750726468505e6 -6.998941371011037e6 0.0
0.0 0.0 0.0

760165.262939096 1.0588503897218399e7 0.0
1.0588503897218399e7 -4.292578736569872e6 0.0
0.0 0.0 0.0

852323.4780055527 7.645161514711578e6 0.0
7.645161514711578e6 -6.419867694397792e6 0.0
0.0 0.0 0.0

-925983.4118881556 3.6388481067090454e6 0.0
3.6388481067090454e6 -2.1858015815964867e6 0.0
0.0 0.0 0.0

-766562.0267732886 5.560091264248402e6 0.0
5.560091264248402e6 -2.723571591204347e6 0.0
0.0 0.0 0.0

175881.55255114846 683898.1802539838 0.0
683898.1802539838 -3.2444024195052977e6 0.0
0.0 0.0 0.0

-5.009831648413009e6 9.561564384281307e6 0.0
9.561564384281307e6 2.797498534585338e6 0.0
0.0 0.0 0.0

11140.710955929942 9.987068092726683e6 0.0
9.987068092726683e6 -5.629144682351797e6 0.0
0.0 0.0 0.0

2.15414117491726e6 8.15888352183276e6 0.0
8.15888352183276e6 -1.0096768899290703e7 0.0
0.0 0.0 0.0

-3.111849028900716e6 1.1238609951534579e7 0.0
1.1238609951534579e7 482539.1497777193 0.0
0.0 0.0 0.0

-1.2847065160699174e7 1.1755137905328294e7 0.0
1.1755137905328294e7 2.8147250211160798e6 0.0
0.0 0.0 0.0

-1.1159254680679867e7 8.49399480226091e6 0.0
8.49399480226091e6 5.271775045265125e6 0.0
0.0 0.0 0.0

-6.046118130462075e6 1.1879246273944743e7 0.0
1.1879246273944743e7 2.5620545187691483e6 0.0
0.0 0.0 0.0

298107.35989671247 9.389995486386117e6 0.0
9.389995486386117e6 -7.495698554318375e6 0.0
0.0 0.0 0.0

-1.8962119720330597e6 8.826794786682526e6 0.0
8.826794786682526e6 -6.320706630377617e6 0.0
0.0 0.0 0.0

-1.0083382864036396e7 1.1876392131607573e7 0.0
1.1876392131607573e7 2.441820002969944e6 0.0
0.0 0.0 0.0

-2.0158341848834283e6 9.53795013091876e6 0.0
9.53795013091876e6 -6.71944744748907e6 0.0
0.0 0.0 0.0

-5.130626173207606e6 8.087282715803096e6 0.0
8.087282715803096e6 5.1562373366576955e6 0.0
0.0 0.0 0.0

-960055.3839523213 2.843291857499409e6 0.0
2.843291857499409e6 -543129.109878341 0.0
0.0 0.0 0.0

-4.932194611289759e6 1.024754354006901e7 0.0
1.024754354006901e7 984589.510161424 0.0
0.0 0.0 0.0

-4.9447507197836265e6 9.34567411721145e6 0.0
9.34567411721145e6 3.572916931296445e6 0.0
0.0 0.0 0.0

-1.5749576025418183e6 2.4643740594443083e6 0.0
2.4643740594443083e6 658267.3476000851 0.0
0.0 0.0 0.0

549984.7143000136 9.030602483213108e6 0.0
9.030602483213108e6 -6.3909889876915775e6 0.0
0.0 0.0 0.0

-5.273127831460747e6 9.878219106317047e6 0.0
9.878219106317047e6 2.0920925433959172e6 0.0
0.0 0.0 0.0

-327119.71092017676 1.0009273796898274e7 0.0
1.0009273796898274e7 -1.375604216318537e6 0.0
0.0 0.0 0.0

-5.973532253589369e6 1.0523156589885151e7 0.0
1.0523156589885151e7 3.9881414956409656e6 0.0
0.0 0.0 0.0

-1.0832238428389493e7 1.1038071064669512e7 0.0
1.1038071064669512e7 4.385630191237938e6 0.0
0.0 0.0 0.0

-1.9426344002719934e6 9.072598389971863e6 0.0
9.072598389971863e6 -6.475448322744059e6 0.0
0.0 0.0 0.0

-4.9743619269468505e6 9.558692314899264e6 0.0
9.558692314899264e6 6.466592367035501e6 0.0
0.0 0.0 0.0

-1.0227180678401157e7 8.849782864668867e6 0.0
8.849782864668867e6 4.399213795884812e6 0.0
0.0 0.0 0.0

-1.5059342902735164e6 6.262695221954726e6 0.0
6.262695221954726e6 85831.95596567442 0.0
0.0 0.0 0.0

-1.2805528047092777e7 2.3496388864828944e6 0.0
2.3496388864828944e6 1.657417255627035e7 0.0
0.0 0.0 0.0

-1.7499387981849436e6 1.048213512176538e7 0.0
1.048213512176538e7 -682199.0492288407 0.0
0.0 0.0 0.0

-8.85197503821224e6 1.4301424424803946e7 0.0
1.4301424424803946e7 3.2017742761123753e6 0.0
0.0 0.0 0.0

449911.848198074 1.0342007735989057e7 0.0
1.0342007735989057e7 1.49970626322982e6 0.0
0.0 0.0 0.0

1.523842916563488e6 1.0509513589927724e7 0.0
1.0509513589927724e7 3.584897848159769e6 0.0
0.0 0.0 0.0

-8.087493047863436e6 1.1463940242994525e7 0.0
1.1463940242994525e7 3.3591592432045722e6 0.0
0.0 0.0 0.0

-6.728707204621138e6 1.4208373158430016e7 0.0
1.4208373158430016e7 1.3107395990191135e6 0.0
0.0 0.0 0.0

211488.52784903825 1.1137534772634568e7 0.0
1.1137534772634568e7 3.242185125131026e6 0.0
0.0 0.0 0.0

2.833969578215036e6 7.303549384418337e6 0.0
7.303549384418337e6 -9.715255813973112e6 0.0
0.0 0.0 0.0

-6.366685008582385e6 1.0852120482116668e7 0.0
1.0852120482116668e7 4.0485239434805736e6 0.0
0.0 0.0 0.0

-209835.28706098397 9.666126320966795e6 0.0
9.666126320966795e6 -1.3722848886005029e6 0.0
0.0 0.0 0.0

-2.0978228027101024e6 9.827306357431209e6 0.0
9.827306357431209e6 -6.9927429676281465e6 0.0
0.0 0.0 0.0

-2.126779406541235e6 1.1409689235973869e7 0.0
1.1409689235973869e7 37113.33484465303 0.0
0.0 0.0 0.0

2.9235074243131257e6 6.040726109371797e6 0.0
6.040726109371797e6 -8.797568240394825e6 0.0
0.0 0.0 0.0

-3.3592846140158055e6 9.739388136356158e6 0.0
9.739388136356158e6 -1.0884452996462847e6 0.0
0.0 0.0 0.0

-1.2555624696139232e6 1.215266503300928e7 0.0
1.215266503300928e7 -3.1452095175552526e6 0.0
0.0 0.0 0.0

5.374770867747128e6 1.0772203129258577e7 0.0
1.0772203129258577e7 -8.009009744819891e6 0.0
0.0 0.0 0.0

-4.6788643271450605e6 6.519511914215981e6 0.0
6.519511914215981e6 4.757398353429475e6 0.0
0.0 0.0 0.0

-2.711086658860891e6 4.959942413686578e6 0.0
4.959942413686578e6 2.985877392655984e6 0.0
0.0 0.0 0.0

-5.754553473746469e6 1.170663202678559e7 0.0
1.170663202678559e7 3.377220439586627e6 0.0
0.0 0.0 0.0

-4.952951685335113e6 1.025375411776129e7 0.0
1.025375411776129e7 1.3512299445982813e6 0.0
0.0 0.0 0.0

-8.938639703830436e6 -2.3021391420356003e6 0.0
-2.3021391420356003e6 1.3433651867705015e7 0.0
0.0 0.0 0.0

-948345.8036823131 9.750019917918935e6 0.0
9.750019917918935e6 -1.774481631760914e6 0.0
0.0 0.0 0.0

-7.166589158841084e6 1.0215876719686516e7 0.0
1.0215876719686516e7 4.981712494390478e6 0.0
0.0 0.0 0.0

181831.08784175268 6.4550770496957125e6 0.0
6.4550770496957125e6 -4.392659717453786e6 0.0
0.0 0.0 0.0

-3.914545011281268e6 8.362748210535259e6 0.0
8.362748210535259e6 8.684082972392604e6 0.0
0.0 0.0 0.0

-1.5640383680330403e7 1.000024313886487e7 0.0
1.000024313886487e7 5.360241662607421e6 0.0
0.0 0.0 0.0

-107861.09528608574 9.404124103305105e6 0.0
9.404124103305105e6 -552291.924445504 0.0
0.0 0.0 0.0

210619.64651767537 6.924735719087448e6 0.0
6.924735719087448e6 -4.64980436404444e6 0.0
0.0 0.0 0.0

-7.11361151112413e6 8.431151889112711e6 0.0
8.431151889112711e6 1.1506822898806933e7 0.0
0.0 0.0 0.0

-4.1428872402141322e6 1.1680799317168467e7 0.0
1.1680799317168467e7 -88617.781114646 0.0
0.0 0.0 0.0

-480862.575798276 1.577306542423298e7 0.0
1.577306542423298e7 -3.6515957902666386e6 0.0
0.0 0.0 0.0

-1.672687617905809e6 7.608085439921267e6 0.0
7.608085439921267e6 -5.575625508193949e6 0.0
0.0 0.0 0.0

-2.7662527065046863e6 7.0902474735627035e6 0.0
7.0902474735627035e6 903507.2468453938 0.0
0.0 0.0 0.0

577529.5973647705 5.991500423074085e6 0.0
5.991500423074085e6 -4.654827109848039e6 0.0
0.0 0.0 0.0

-217365.4246477557 9.34301497493353e6 0.0
9.34301497493353e6 -6.815491237404141e6 0.0
0.0 0.0 0.0

-3.1710982143993336e6 1.0041745855604805e7 0.0
1.0041745855604805e7 -1.267033350955469e6 0.0
0.0 0.0 0.0

998064.1726174013 9.791921323993873e6 0.0
9.791921323993873e6 3.6795675146188205e6 0.0
0.0 0.0 0.0

-5.7132288748547975e6 9.715333071828049e6 0.0
9.715333071828049e6 3.133697267198113e6 0.0
0.0 0.0 0.0

-856683.302980292 1.2250110057926755e7 0.0
1.2250110057926755e7 -3.7505453010658724e6 0.0
0.0 0.0 0.0

-3.5089941809111163e6 -1.1110367062781868e6 0.0
-1.1110367062781868e6 8.11219513761086e6 0.0
0.0 0.0 0.0

-2.1172143226506794e6 2.3493826424502414e6 0.0
2.3493826424502414e6 2.6838807596828835e6 0.0
0.0 0.0 0.0

1.3500138506889984e6 1.19803627718332e7 0.0
1.19803627718332e7 -4.500721655937883e6 0.0
0.0 0.0 0.0

-92963.66136463339 9.784828376384908e6 0.0
9.784828376384908e6 -627220.3041306286 0.0
0.0 0.0 0.0

9.683029426072866e6 7.909912104169357e6 0.0
7.909912104169357e6 -3.25962940849865e6 0.0
0.0 0.0 0.0

-1.3073249472630501e6 2.226455728143194e6 0.0
2.226455728143194e6 1.0932631648453334e6 0.0
0.0 0.0 0.0

-7.150018468738588e6 1.130700271350997e7 0.0
1.130700271350997e7 1.142478615763797e6 0.0
0.0 0.0 0.0

-8.4022775978739e6 5.806780967006168e6 0.0
5.806780967006168e6 6.4999127405758295e6 0.0
0.0 0.0 0.0

-1.3512718355445826e7 1.0983477145134188e7 0.0
1.0983477145134188e7 4.0792659926244533e6 0.0
0.0 0.0 0.0

7.997031824276677e6 6.196041143650015e6 0.0
6.196041143650015e6 -2.6982965646021934e6 0.0
0.0 0.0 0.0

-1.2540900621319856e7 923342.1436143512 0.0
923342.1436143512 1.982671828841216e7 0.0
0.0 0.0 0.0

-845816.5941985868 5.260882396487663e6 0.0
5.260882396487663e6 -1.6372273358155403e6 0.0
0.0 0.0 0.0

-9.253664768421363e6 1.1338819022590447e7 0.0
1.1338819022590447e7 4.851000242810777e6 0.0
0.0 0.0 0.0

-6.148903064379463e6 1.0787781137795089e7 0.0
1.0787781137795089e7 4.2163283081152495e6 0.0
0.0 0.0 0.0

-3.294951138965757e6 9.99281788345574e6 0.0
9.99281788345574e6 -1.6552345200065193e6 0.0
0.0 0.0 0.0

-982570.4560461864 7.532912215075827e6 0.0
7.532912215075827e6 -3.526142865932864e6 0.0
0.0 0.0 0.0

-394278.93574830994 9.863469768167153e6 0.0
9.863469768167153e6 -1.5993617121510394e6 0.0
0.0 0.0 0.0

-1.21790763794752e6 8.896652183094773e6 0.0
8.896652183094773e6 -6.188236118932503e6 0.0
0.0 0.0 0.0

-244530.52180915372 1.0591372303445576e7 0.0
1.0591372303445576e7 -9.076812643292855e6 0.0
0.0 0.0 0.0

1.0329425884115966e6 3.827324006252442e6 0.0
3.827324006252442e6 148300.99020496773 0.0
0.0 0.0 0.0

-6.2506013514877185e6 1.585829832080833e7 0.0
1.585829832080833e7 -882570.7652922056 0.0
0.0 0.0 0.0

-1.8174783739984545e6 8.2983381069031535e6 0.0
8.2983381069031535e6 -6.058261538611725e6 0.0
0.0 0.0 0.0

-239556.29973109788 9.88364347833176e6 0.0
9.88364347833176e6 4.315014767425594e6 0.0
0.0 0.0 0.0

858394.5396450835 9.222860827632666e6 0.0
9.222860827632666e6 -4.748240786122005e6 0.0
0.0 0.0 0.0

-4.60230480720149e6 1.0184474184911275e7 0.0
1.0184474184911275e7 1.1051398914553768e6 0.0
0.0 0.0 0.0

-577431.1670365101 8.778837889488358e6 0.0
8.778837889488358e6 -6.138547972461653e6 0.0
0.0 0.0 0.0

-1.0819957834492631e7 1.2873898725545022e6 0.0
1.2873898725545022e6 5.314799134764667e6 0.0
0.0 0.0 0.0

-412643.64495999005 2.999561973559758e6 0.0
2.999561973559758e6 -892280.7787397638 0.0
0.0 0.0 0.0

-4.712434539687492e6 7.835467768851471e6 0.0
7.835467768851471e6 5.14962003903755e6 0.0
0.0 0.0 0.0

-409884.90679044457 6.988337300104467e6 0.0
6.988337300104467e6 -2.1634413456805237e6 0.0
0.0 0.0 0.0

-2.5104955078383563e6 7.3125784948951695e6 0.0
7.3125784948951695e6 -1.573360318901183e6 0.0
0.0 0.0 0.0

-2.5101898167264927e6 8.607277516665982e6 0.0
8.607277516665982e6 -1.2692450342824818e6 0.0
0.0 0.0 0.0

-1.2621428094752573e6 5.904610505575799e6 0.0
5.904610505575799e6 -1.9889831751905805e6 0.0
0.0 0.0 0.0

4.629519121934965e6 1.1888634498626778e7 0.0
1.1888634498626778e7 -6.130091262067868e6 0.0
0.0 0.0 0.0

-9.985961338974385e6 1.0537642315438783e7 0.0
1.0537642315438783e7 6.690107013910194e6 0.0
0.0 0.0 0.0

-1.2846932269468214e6 1.2950731960118372e7 0.0
1.2950731960118372e7 -3.4943597581824595e6 0.0
0.0 0.0 0.0

-2.0307881829746529e6 1.1339415858306617e7 0.0
1.1339415858306617e7 144976.1035765612 0.0
0.0 0.0 0.0

-8.2359697832443975e6 1.1597972925751325e7 0.0
1.1597972925751325e7 5.37343173487171e6 0.0
0.0 0.0 0.0

-4.957517703443829e6 8.4856440341375e6 0.0
8.4856440341375e6 4.0977932398366183e6 0.0
0.0 0.0 0.0

984531.0344725717 5.212591354592329e6 0.0
5.212591354592329e6 -4.45996012162881e6 0.0
0.0 0.0 0.0

-488460.34572427714 3.4428432953905175e6 0.0
3.4428432953905175e6 -1.8723221801720348e6 0.0
0.0 0.0 0.0

-1.3530795890215435e6 9.614819911843896e6 0.0
9.614819911843896e6 -6.6570699120579995e6 0.0
0.0 0.0 0.0

-2.1158101497127665e6 1.09480589612352e7 0.0
1.09480589612352e7 605262.6417583894 0.0
0.0 0.0 0.0

1.7083358789810739e6 3.558637907038617e6 0.0
3.558637907038617e6 -4.200745558755511e6 0.0
0.0 0.0 0.0

-2.1168332003927205e7 1.2902148255180966e7 0.0
1.2902148255180966e7 9.31791714122488e6 0.0
0.0 0.0 0.0

2.41022876739373e6 8.240662479457108e6 0.0
8.240662479457108e6 -1.1012756951470068e7 0.0
0.0 0.0 0.0

-581143.765117934 5.1051726072021425e6 0.0
5.1051726072021425e6 -3.051257418952501e6 0.0
0.0 0.0 0.0

-904209.9968767923 9.850144992672013e6 0.0
9.850144992672013e6 -7.1758363297500815e6 0.0
0.0 0.0 0.0

2.513260112963643e6 6.419566411956579e6 0.0
6.419566411956579e6 -8.570650821768956e6 0.0
0.0 0.0 0.0

-288348.61627353705 1.7335475450118512e7 0.0
1.7335475450118512e7 -5.364446098712464e6 0.0
0.0 0.0 0.0

962790.5676807249 7.6258942574776495e6 0.0
7.6258942574776495e6 -6.007230218382291e6 0.0
0.0 0.0 0.0

-1.1956724097547058e7 4.834020591279318e6 0.0
4.834020591279318e6 1.5162342944308361e7 0.0
0.0 0.0 0.0

-4.655462897166928e6 6.741471210517598e6 0.0
6.741471210517598e6 5.240158108044574e6 0.0
0.0 0.0 0.0

-4.0953219704185696e6 1.0832731328988777e7 0.0
1.0832731328988777e7 2.781285549136576e6 0.0
0.0 0.0 0.0

-5.755356825056794e6 7.1378424796015145e6 0.0
7.1378424796015145e6 4.441922306459746e6 0.0
0.0 0.0 0.0

-4.823736286008198e6 7.790717081913987e6 0.0
7.790717081913987e6 5.892648289755564e6 0.0
0.0 0.0 0.0

-5.16078547692645e6 9.4668709470952e6 0.0
9.4668709470952e6 2.400386351224347e6 0.0
0.0 0.0 0.0

868917.4523275635 1.1338218043448573e7 0.0
1.1338218043448573e7 2.896391571560518e6 0.0
0.0 0.0 0.0

-674115.672479273 3.834111558507826e6 0.0
3.834111558507826e6 -824406.0580894887 0.0
0.0 0.0 0.0

-1.690384922534473e6 1.0693645513335112e7 0.0
1.0693645513335112e7 -3.1161620871726912e6 0.0
0.0 0.0 0.0

1.7440762285221997e6 9.435780453069521e6 0.0
9.435780453069521e6 -1.1355134978598652e7 0.0
0.0 0.0 0.0

-1.1213079857803544e7 1.0613411771978088e7 0.0
1.0613411771978088e7 7.677500340180401e6 0.0
0.0 0.0 0.0

-4.913126647476307e6 1.3041484004288398e7 0.0
1.3041484004288398e7 -578360.0442263497 0.0
0.0 0.0 0.0

1.7141749791142782e6 8.746565784810543e6 0.0
8.746565784810543e6 -2.5819301346500004e6 0.0
0.0 0.0 0.0

-4.474857424242636e6 6.626463055659615e6 0.0
6.626463055659615e6 5.437016153279618e6 0.0
0.0 0.0 0.0

-1.2595218623159816e7 8.938049165206762e6 0.0
8.938049165206762e6 9.063674162597995e6 0.0
0.0 0.0 0.0

-2.4400105197778023e6 1.1598749274964506e7 0.0
1.1598749274964506e7 -2.1091357548510996e6 0.0
0.0 0.0 0.0

84953.26670791488 9.356343748238198e6 0.0
9.356343748238198e6 -7.169864452639095e6 0.0
0.0 0.0 0.0

-1.3492802150841609e7 1.0277564614398746e7 0.0
1.0277564614398746e7 9.626368149832353e6 0.0
0.0 0.0 0.0

5.313730433219034e6 1.5531965860727986e7 0.0
1.5531965860727986e7 -1.0512760395944463e7 0.0
0.0 0.0 0.0

1.4021439301477498e6 8.23791041564852e6 0.0
8.23791041564852e6 -1.6120244487384688e6 0.0
0.0 0.0 0.0

109529.02371920226 7.850810573935514e6 0.0
7.850810573935514e6 -5.362617636580377e6 0.0
0.0 0.0 0.0

-1.5824106201548276e6 1.0129074548356544e7 0.0
1.0129074548356544e7 -7.583766488301538e6 0.0
0.0 0.0 0.0

-2.0233042960212566e6 1.5842501909803668e7 0.0
1.5842501909803668e7 -2.5318878716657874e6 0.0
0.0 0.0 0.0

412940.5333508805 1.0087810256923582e7 0.0
1.0087810256923582e7 -5.530046532575868e6 0.0
0.0 0.0 0.0

-6.702867967663287e6 1.1757217083179416e7 0.0
1.1757217083179416e7 2.529304081771885e6 0.0
0.0 0.0 0.0

1.6620068132617539e6 8.885983019425297e6 0.0
8.885983019425297e6 -1.020795290001505e7 0.0
0.0 0.0 0.0

-341094.8233937634 1.0517528919469604e7 0.0
1.0517528919469604e7 -331743.6698055238 0.0
0.0 0.0 0.0

-1.0631436627544241e7 8.172354852450709e6 0.0
8.172354852450709e6 6.7940525807180675e6 0.0
0.0 0.0 0.0

-5.051042227333104e6 9.704259826979045e6 0.0
9.704259826979045e6 2.7293545011150157e6 0.0
0.0 0.0 0.0

5.656892816511765e6 8.0636269286133e6 0.0
8.0636269286133e6 -2.017111726649601e6 0.0
0.0 0.0 0.0

-8.943063619885078e6 1.1823315862882271e7 0.0
1.1823315862882271e7 5.636210715983682e6 0.0
0.0 0.0 0.0

-1.9575879002707708e6 8.940076088644786e6 0.0
8.940076088644786e6 726986.3627264044 0.0
0.0 0.0 0.0

1.4087656482094338e6 1.1362602735384044e6 0.0
1.1362602735384044e6 -3.4122591611531023e6 0.0
0.0 0.0 0.0

-5.684177623316194e6 1.5591312287185121e7 0.0
1.5591312287185121e7 1.1184537901012313e6 0.0
0.0 0.0 0.0

60701.54833061411 1.0175790576009508e7 0.0
1.0175790576009508e7 -5.495823796780259e6 0.0
0.0 0.0 0.0

3.078169684951436e6 6.301054369783337e6 0.0
6.301054369783337e6 -9.443452607407631e6 0.0
0.0 0.0 0.0

-302705.6771272491 6.0518866663121935e6 0.0
6.0518866663121935e6 -2.893276013427102e6 0.0
0.0 0.0 0.0

1.654349894202992e6 4.401888275962098e6 0.0
4.401888275962098e6 -4.790743343599837e6 0.0
0.0 0.0 0.0

-1.1483863327331846e6 7.844412517732153e6 0.0
7.844412517732153e6 -3.5309416497594155e6 0.0
0.0 0.0 0.0

-8.510420474600263e6 8.596623970523158e6 0.0
8.596623970523158e6 5.13799693750553e6 0.0
0.0 0.0 0.0

-1.3628839783431566e6 1.1266265356991014e7 0.0
1.1266265356991014e7 130769.2916554804 0.0
0.0 0.0 0.0

-792799.9974502509 1.2778653252801944e7 0.0
1.2778653252801944e7 -3.227666430451215e6 0.0
0.0 0.0 0.0

2.4542010768653145e6 6.757492917947241e6 0.0
6.757492917947241e6 -8.218598951797309e6 0.0
0.0 0.0 0.0

-3.180298737446185e6 9.725996062573392e6 0.0
9.725996062573392e6 -1.2687016848545838e6 0.0
0.0 0.0 0.0

-2.2324253135206336e6 8.74202609204224e6 0.0
8.74202609204224e6 -2.761502648180224e6 0.0
0.0 0.0 0.0

-7.237493606596636e6 1.1545165845068218e7 0.0
1.1545165845068218e7 3.602712750376117e6 0.0
0.0 0.0 0.0

-921686.5663548256 1.5155379579329574e7 0.0
1.5155379579329574e7 -3.6522404161674427e6 0.0
0.0 0.0 0.0

-4.695805495733304e6 1.0928790119281359e7 0.0
1.0928790119281359e7 3.3745418606136953e6 0.0
0.0 0.0 0.0

-3.0528159670957653e6 8.924957115729723e6 0.0
8.924957115729723e6 2.369038199543178e6 0.0
0.0 0.0 0.0

-9.210177522764748e6 1.1698164159170387e7 0.0
1.1698164159170387e7 2.762083660661377e7 0.0
0.0 0.0 0.0

-1.1445093639653536e7 1.2043343254479036e7 0.0
1.2043343254479036e7 7.522038180749596e6 0.0
0.0 0.0 0.0

544453.439398834 1.0903029268061873e7 0.0
1.0903029268061873e7 -4.630501214120593e6 0.0
0.0 0.0 0.0

1.2780648545425325e6 8.005108786580202e6 0.0
8.005108786580202e6 -6.878113821292161e6 0.0
0.0 0.0 0.0

1.4758381637881962e6 7.7795475422359025e6 0.0
7.7795475422359025e6 -7.169403449252953e6 0.0
0.0 0.0 0.0

1.5297619684525712e6 5.564209443913971e6 0.0
5.564209443913971e6 -5.890090449362211e6 0.0
0.0 0.0 0.0

-5.295943662646449e6 1.0035224943890823e7 0.0
1.0035224943890823e7 3.905701929183294e6 0.0
0.0 0.0 0.0

1.1983933326860024e6 5.543381182685123e6 0.0
5.543381182685123e6 -5.794383786005346e6 0.0
0.0 0.0 0.0

-6.142715142062537e6 431736.1291168533 0.0
431736.1291168533 6.888033895328699e6 0.0
0.0 0.0 0.0

-3.643854305702677e6 1.0556981974527106e7 0.0
1.0556981974527106e7 3.2626292132297605e6 0.0
0.0 0.0 0.0

-871603.8891327837 4.9625985505212275e6 0.0
4.9625985505212275e6 -2.5306738613557536e6 0.0
0.0 0.0 0.0

-5.51541716328936e6 1.2765813914112141e7 0.0
1.2765813914112141e7 231591.6027744359 0.0
0.0 0.0 0.0

-5.788126974512981e6 1.393382765144627e7 0.0
1.393382765144627e7 1.391411533206758e6 0.0
0.0 0.0 0.0

-155243.43409284754 9.551685345602255e6 0.0
9.551685345602255e6 -1.1412599522745095e6 0.0
0.0 0.0 0.0

1.6086633391224588e6 8.767349056334162e6 0.0
8.767349056334162e6 -9.499669551173272e6 0.0
0.0 0.0 0.0

2.855492470703416e6 6.288153662787382e6 0.0
6.288153662787382e6 -8.609487120968103e6 0.0
0.0 0.0 0.0

-2.083821890023795e7 1.3817620963289505e7 0.0
1.3817620963289505e7 3.596464145890588e6 0.0
0.0 0.0 0.0

1.590260664514299e6 1.0801443769898819e7 0.0
1.0801443769898819e7 4.475900578088971e6 0.0
0.0 0.0 0.0

-5.840974433275749e6 1.3573257571641397e7 0.0
1.3573257571641397e7 1.7142430511387372e6 0.0
0.0 0.0 0.0

-1.7587669090383141e6 1.0194228435399363e7 0.0
1.0194228435399363e7 2.259704523457377e6 0.0
0.0 0.0 0.0

-215502.2799576774 1.0239296757598823e7 0.0
1.0239296757598823e7 -896104.4856755831 0.0
0.0 0.0 0.0

-1.0300381496349134e7 986466.252250179 0.0
986466.252250179 1.2701457838396428e7 0.0
0.0 0.0 0.0

-8.0481397793770945e6 1.0242129523912545e7 0.0
1.0242129523912545e7 5.7720779284151e6 0.0
0.0 0.0 0.0

-1.6203002961646363e6 7.26281509505235e6 0.0
7.26281509505235e6 -2.3897064017120455e6 0.0
0.0 0.0 0.0

-1.4946567904332662e6 2.3430147718807035e6 0.0
2.3430147718807035e6 872929.6068489254 0.0
0.0 0.0 0.0

-1.1707345153979184e7 6.625939683601984e6 0.0
6.625939683601984e6 4.105725486520893e7 0.0
0.0 0.0 0.0

-920121.5334163408 1.125336035208806e7 0.0
1.125336035208806e7 -3.772916229090915e6 0.0
0.0 0.0 0.0

3.4270616162668103e6 2.394658686464994e6 0.0
2.394658686464994e6 -4.948300938462786e6 0.0
0.0 0.0 0.0

-1.3576197123898976e7 1.4357476159321205e6 0.0
1.4357476159321205e6 2.1469973216391526e7 0.0
0.0 0.0 0.0

2.542565370596686e6 6.017279345762655e6 0.0
6.017279345762655e6 -7.639744614158217e6 0.0
0.0 0.0 0.0

-3.6790005539772054e6 8.229803114055123e6 0.0
8.229803114055123e6 2.748018147825524e6 0.0
0.0 0.0 0.0

-1.1559829510321453e7 1.093778524848942e7 0.0
1.093778524848942e7 5.420965164836144e6 0.0
0.0 0.0 0.0

-792876.9169784962 1.0656452839932369e7 0.0
1.0656452839932369e7 -4.843136799456306e6 0.0
0.0 0.0 0.0

-2.2527220755265243e6 2.1968464023203757e6 0.0
2.1968464023203757e6 2.3930129080795394e6 0.0
0.0 0.0 0.0

-1.9520352634388024e6 1.1379613177233744e7 0.0
1.1379613177233744e7 203276.86253074964 0.0
0.0 0.0 0.0

962551.7061555611 1.466472674383582e7 0.0
1.466472674383582e7 -5.009453310297385e6 0.0
0.0 0.0 0.0

-18319.92883703776 2.9699401236184784e6 0.0
2.9699401236184784e6 -946187.3562065467 0.0
0.0 0.0 0.0

3.530572053015881e6 8.780090269135248e6 0.0
8.780090269135248e6 -1.9453264813953065e6 0.0
0.0 0.0 0.0

-6.265426222079687e6 1.8806912523949765e7 0.0
1.8806912523949765e7 -4.594086623511455e6 0.0
0.0 0.0 0.0

1.9305761007919614e6 5.754253728556369e6 0.0
5.754253728556369e6 -6.848208132042578e6 0.0
0.0 0.0 0.0

-3.272587396244979e6 7.268050451289958e6 0.0
7.268050451289958e6 590465.7888323404 0.0
0.0 0.0 0.0

570537.4661123261 1.2854801896172237e7 0.0
1.2854801896172237e7 5.848803056577541e6 0.0
0.0 0.0 0.0

1.3523230996550746e7 6.716704887543493e6 0.0
6.716704887543493e6 -4.225109252634681e6 0.0
0.0 0.0 0.0

-1.4537083693099907e7 1.1027673567987835e7 0.0
1.1027673567987835e7 6.687694091858928e6 0.0
0.0 0.0 0.0

-5.13576299665956e6 9.311419443561476e6 0.0
9.311419443561476e6 2.475015781149266e6 0.0
0.0 0.0 0.0

1.4609077663334268e6 8.661561989276573e6 0.0
8.661561989276573e6 -8.880759172353664e6 0.0
0.0 0.0 0.0

-7.445592471254751e6 9.35535393334319e6 0.0
9.35535393334319e6 4.714799890687275e6 0.0
0.0 0.0 0.0

2.4541820848406223e6 8.227961738076762e6 0.0
8.227961738076762e6 -37931.59642730199 0.0
0.0 0.0 0.0

-1.2253852719019894e7 1.0331177988302957e6 0.0
1.0331177988302957e6 2.8054548135994744e7 0.0
0.0 0.0 0.0

-3.3237401352468114e6 1.1099110223324383e7 0.0
1.1099110223324383e7 2.447822755314385e6 0.0
0.0 0.0 0.0

-474811.6278981285 9.97587159845707e6 0.0
9.97587159845707e6 905124.2696735571 0.0
0.0 0.0 0.0

-2.8496234219145738e6 9.191500587370707e6 0.0
9.191500587370707e6 -1.7131502942039222e6 0.0
0.0 0.0 0.0

2.369524875464715e6 1.0792142082752634e7 0.0
1.0792142082752634e7 -4.8106123023505565e6 0.0
0.0 0.0 0.0

731285.2159017106 1.1063636914256494e7 0.0
1.1063636914256494e7 -4.381827879805734e6 0.0
0.0 0.0 0.0

-1.5405055133601069e6 6.327955480542991e6 0.0
6.327955480542991e6 -1.6716165138419024e6 0.0
0.0 0.0 0.0

-2.0513327769931601e6 1.017540309379611e7 0.0
1.017540309379611e7 2.7426952683466915e6 0.0
0.0 0.0 0.0

-228676.9347785773 1.034142075354597e7 0.0
1.034142075354597e7 -1.0121902987900663e6 0.0
0.0 0.0 0.0

-249845.9830589229 9.983109254537376e6 0.0
9.983109254537376e6 -1.4334783813885003e6 0.0
0.0 0.0 0.0

-63701.92420322914 9.250782200180525e6 0.0
9.250782200180525e6 -6.911718975814214e6 0.0
0.0 0.0 0.0

-6.040546294262108e6 1.0423684259732932e7 0.0
1.0423684259732932e7 3.9838999302247274e6 0.0
0.0 0.0 0.0

-8.472237922234308e6 1.0594435719306093e7 0.0
1.0594435719306093e7 2.6886725210176753e6 0.0
0.0 0.0 0.0

-8.478592236253832e6 1.0783153526655585e7 0.0
1.0783153526655585e7 6.077066850777236e6 0.0
0.0 0.0 0.0

-1.6504350483228662e6 1.0632304992729325e7 0.0
1.0632304992729325e7 1.301541147173583e6 0.0
0.0 0.0 0.0

1.811143014125791e6 6.588568592546823e6 0.0
6.588568592546823e6 -6.780201862373737e6 0.0
0.0 0.0 0.0

-1.55851803287856e6 1.1143746337438356e7 0.0
1.1143746337438356e7 -3.9279577741751503e6 0.0
0.0 0.0 0.0

-2.619997271076846e6 1.5759269695420114e7 0.0
1.5759269695420114e7 -4.5910001494780565e6 0.0
0.0 0.0 0.0

-3.680465617579259e6 336326.5712986686 0.0
336326.5712986686 3.557387109422097e6 0.0
0.0 0.0 0.0

-2.276111304124455e6 1.1172151963438759e7 0.0
1.1172151963438759e7 1.29555795968488e6 0.0
0.0 0.0 0.0

1.181133063564518e6 8.732177363321438e6 0.0
8.732177363321438e6 -2.71906659949141e6 0.0
0.0 0.0 0.0

1.6369776702197306e6 1.1954228549743919e7 0.0
1.1954228549743919e7 -4.589396185087735e6 0.0
0.0 0.0 0.0

-2.9405871916163005e6 2.684323318256776e6 0.0
2.684323318256776e6 3.4380691884200703e6 0.0
0.0 0.0 0.0

-938974.1118936985 1.0278950384375047e7 0.0
1.0278950384375047e7 1.6761270089274398e6 0.0
0.0 0.0 0.0

-6.2164377308247825e6 7.339895879376029e6 0.0
7.339895879376029e6 2.3015092885291353e6 0.0
0.0 0.0 0.0

473448.66585541377 9.578150781474082e6 0.0
9.578150781474082e6 -6.431328971469698e6 0.0
0.0 0.0 0.0

-7.245651742555097e6 1.5719823027060008e7 0.0
1.5719823027060008e7 2.742476770738685e6 0.0
0.0 0.0 0.0

-9.121410120397573e6 1.0885815418945981e7 0.0
1.0885815418945981e7 6.542290551859897e6 0.0
0.0 0.0 0.0

-2.163137879332386e6 4.582795489930908e6 0.0
4.582795489930908e6 1.5554787656674022e6 0.0
0.0 0.0 0.0

-3.239544252257275e6 1.1633783606717851e7 0.0
1.1633783606717851e7 495071.77905597095 0.0
0.0 0.0 0.0

-9.130694190619763e6 1.1307787038962044e7 0.0
1.1307787038962044e7 6.438441928209299e6 0.0
0.0 0.0 0.0

-8.488486358423483e6 1.1124639747340882e7 0.0
1.1124639747340882e7 6.008839210466582e6 0.0
0.0 0.0 0.0

-267182.8319395102 9.732426746887904e6 0.0
9.732426746887904e6 156969.75739296767 0.0
0.0 0.0 0.0

-18972.38494323753 8.276266187336666e6 0.0
8.276266187336666e6 -4.779983146329397e6 0.0
0.0 0.0 0.0

8.3794290152301565e6 1.1285727869854433e7 0.0
1.1285727869854433e7 -742520.1116921264 0.0
0.0 0.0 0.0

-1.340659633689475e7 -4.005124377575747e6 0.0
-4.005124377575747e6 5.472838901976706e6 0.0
0.0 0.0 0.0

-9.096781282537669e6 8.790729040581215e6 0.0
8.790729040581215e6 3.8548786023518476e6 0.0
0.0 0.0 0.0

2.17079429209471e6 5.930677613937161e6 0.0
5.930677613937161e6 -7.488357774302322e6 0.0
0.0 0.0 0.0

-3.0182419408130753e6 9.83146762782009e6 0.0
9.83146762782009e6 -2.0636726844328179e6 0.0
0.0 0.0 0.0

-7.431350521386385e6 9.758594188902877e6 0.0
9.758594188902877e6 5.24671341249246e6 0.0
0.0 0.0 0.0

-7.113727752549045e6 859677.470778117 0.0
859677.470778117 7.848005240801167e6 0.0
0.0 0.0 0.0

717979.8501933981 7.896568769547476e6 0.0
7.896568769547476e6 -6.550180914122152e6 0.0
0.0 0.0 0.0

-885009.9313652928 8.814809081060523e6 0.0
8.814809081060523e6 -6.270545105476354e6 0.0
0.0 0.0 0.0

2.3288420287193093e6 8.85079048500306e6 0.0
8.85079048500306e6 -667239.9249903968 0.0
0.0 0.0 0.0

-1.7533456337408744e7 1.1756521424553026e7 0.0
1.1756521424553026e7 8.09367964248897e6 0.0
0.0 0.0 0.0

-1.6529415683329813e6 5.246088913936927e6 0.0
5.246088913936927e6 -1.2774152363434043e6 0.0
0.0 0.0 0.0

-6.346331145384919e6 1.0396262171609132e7 0.0
1.0396262171609132e7 4.316016939958459e6 0.0
0.0 0.0 0.0

-6.257108192021823e6 1.0703291737281429e7 0.0
1.0703291737281429e7 4.032488472020736e6 0.0
0.0 0.0 0.0

-8.004971671204489e6 -1.2658541186340568e6 0.0
-1.2658541186340568e6 1.4402762015833601e7 0.0
0.0 0.0 0.0

-460407.57722365373 3.755222602564637e6 0.0
3.755222602564637e6 -713514.2360555993 0.0
0.0 0.0 0.0

-415511.75450195535 8.417523520773696e6 0.0
8.417523520773696e6 -5.000182514528823e6 0.0
0.0 0.0 0.0

-3.7034023519903976e6 1.214644194107829e6 0.0
1.214644194107829e6 5.548307399465428e6 0.0
0.0 0.0 0.0

-878445.4188223078 9.808043619317656e6 0.0
9.808043619317656e6 -4.829123570957193e6 0.0
0.0 0.0 0.0

2.5763699326725546e6 1.0121697373525867e7 0.0
1.0121697373525867e7 -3.736100500102781e6 0.0
0.0 0.0 0.0

204656.20978251193 6.399396876682308e6 0.0
6.399396876682308e6 -4.031820114056461e6 0.0
0.0 0.0 0.0

-6.953859095128794e6 9.116792210528933e6 0.0
9.116792210528933e6 3.4227698006418548e6 0.0
0.0 0.0 0.0

-7.625072553660985e6 1.1170665795982232e7 0.0
1.1170665795982232e7 4.3777039716588985e6 0.0
0.0 0.0 0.0

-722568.074192038 6.489628333486844e6 0.0
6.489628333486844e6 -2.4085600647818563e6 0.0
0.0 0.0 0.0

-457682.4265023623 9.764530839163572e6 0.0
9.764530839163572e6 -1.5256080995767226e6 0.0
0.0 0.0 0.0

-264526.79504988366 8.356992380223498e6 0.0
8.356992380223498e6 -4.476485074354425e6 0.0
0.0 0.0 0.0

-994110.5005503079 8.799555562659962e6 0.0
8.799555562659962e6 -6.307157187533305e6 0.0
0.0 0.0 0.0

-1.5427132879859633e6 3.0388975521918703e6 0.0
3.0388975521918703e6 506895.4858224384 0.0
0.0 0.0 0.0

-1.9326599399566106e6 5.935556883861922e6 0.0
5.935556883861922e6 19276.92475103296 0.0
0.0 0.0 0.0

-1.9842570115689668e6 1.1720323177587874e7 0.0
1.1720323177587874e7 -2.6699103268797817e6 0.0
0.0 0.0 0.0

298489.37795885163 6.43286905295214e6 0.0
6.43286905295214e6 -4.957948643397856e6 0.0
0.0 0.0 0.0

-1.4328869984294413e7 8.64658841599212e6 0.0
8.64658841599212e6 3.6645212964063613e6 0.0
0.0 0.0 0.0

2.1009577363547115e6 1.0645812119249819e7 0.0
1.0645812119249819e7 -4.634468022138465e6 0.0
0.0 0.0 0.0

6.241323134594666e6 9.11874818016359e6 0.0
9.11874818016359e6 -4.565067400808944e6 0.0
0.0 0.0 0.0

-1.3015487234013721e7 1.0774187393664708e7 0.0
1.0774187393664708e7 8.87290937003213e6 0.0
0.0 0.0 0.0

-974802.6344427904 4.329936732100572e6 0.0
4.329936732100572e6 162211.75149952993 0.0
0.0 0.0 0.0

-2.505959522527831e6 8.956103269645123e6 0.0
8.956103269645123e6 -2.391640284134021e6 0.0
0.0 0.0 0.0

-3.9337648565775394e6 1.1000943302357692e7 0.0
1.1000943302357692e7 482072.84869159176 0.0
0.0 0.0 0.0

-1.3129392323984448e7 8.125704801342808e6 0.0
8.125704801342808e6 6.777612227208987e6 0.0
0.0 0.0 0.0

-643084.1759154035 9.524989017095504e6 0.0
9.524989017095504e6 -7.387592488244434e6 0.0
0.0 0.0 0.0

-228140.7244207947 1.0215849597184055e7 0.0
1.0215849597184055e7 -378727.91798840655 0.0
0.0 0.0 0.0

-184139.37204047712 9.122442563198412e6 0.0
9.122442563198412e6 -6.633641359604357e6 0.0
0.0 0.0 0.0

-1.3580382863072928e7 9.219742247314272e6 0.0
9.219742247314272e6 8.622627333557352e6 0.0
0.0 0.0 0.0

-4.802476432274199e6 1.1820270754154665e7 0.0
1.1820270754154665e7 -318360.7452222102 0.0
0.0 0.0 0.0

-2.785468388987762e6 1.0975594759147387e7 0.0
1.0975594759147387e7 260900.29796518816 0.0
0.0 0.0 0.0

1.211925650114384e6 8.241383486046764e6 0.0
8.241383486046764e6 -7.0117453418222945e6 0.0
0.0 0.0 0.0

-9.615608159946121e6 931483.5064175511 0.0
931483.5064175511 1.1681771278933285e7 0.0
0.0 0.0 0.0

-2.5761363383427006e6 8.385272660511333e6 0.0
8.385272660511333e6 -1.6337430487086307e6 0.0
0.0 0.0 0.0

1.6470584031343872e6 1.1359832837358778e7 0.0
1.1359832837358778e7 -4.0616173166160258e6 0.0
0.0 0.0 0.0

-482225.80613970826 9.373869002016233e6 0.0
9.373869002016233e6 -7.104334912073856e6 0.0
0.0 0.0 0.0

-7.445165247787125e6 1.022369850878778e7 0.0
1.022369850878778e7 4.0161325488201007e6 0.0
0.0 0.0 0.0

-3.6626192368626837e6 1.859541843893086e7 0.0
1.859541843893086e7 -7.340883952973405e6 0.0
0.0 0.0 0.0

-2.5212193234522166e6 1.1492923161822725e7 0.0
1.1492923161822725e7 192599.04913295456 0.0
0.0 0.0 0.0

-8.36441405456087e6 1.0094337747701623e7 0.0
1.0094337747701623e7 4.721709780672165e6 0.0
0.0 0.0 0.0

-5.078272721089997e6 7.694920475318159e6 0.0
7.694920475318159e6 3.9801432687181816e6 0.0
0.0 0.0 0.0

693665.6933200932 1.1017465477617856e7 0.0
1.1017465477617856e7 -4.289106100360866e6 0.0
0.0 0.0 0.0

-6.153516183634285e6 1.0554607569705175e7 0.0
1.0554607569705175e7 4.0742649597320748e6 0.0
0.0 0.0 0.0

-171543.08840572042 9.383782135398302e6 0.0
9.383782135398302e6 -7.1627386850939095e6 0.0
0.0 0.0 0.0

1.3099733736674436e6 6.114171235685525e6 0.0
6.114171235685525e6 -6.394356931240508e6 0.0
0.0 0.0 0.0

-563067.580646683 9.261235417416139e6 0.0
9.261235417416139e6 -6.850142915673121e6 0.0
0.0 0.0 0.0

-7.248859298330348e6 1.1105348119803319e7 0.0
1.1105348119803319e7 4.83801496143934e6 0.0
0.0 0.0 0.0

-466489.50003574375 9.609178122843465e6 0.0
9.609178122843465e6 -1.5549649257223494e6 0.0
0.0 0.0 0.0

86604.92025136748 7.7581919461333845e6 0.0
7.7581919461333845e6 288682.9880954045 0.0
0.0 0.0 0.0

-7.027954593012005e6 5.917783653075973e6 0.0
5.917783653075973e6 8.052234556885779e6 0.0
0.0 0.0 0.0

-1.1479353728240356e6 6.227114858160584e6 0.0
6.227114858160584e6 -1.5277286674056738e6 0.0
0.0 0.0 0.0

243993.8427983455 1.1509907104639892e7 0.0
1.1509907104639892e7 4.497881885920707e6 0.0
0.0 0.0 0.0

-8.038236347096698e6 -249095.73854433832 0.0
-249095.73854433832 8.74105363839724e6 0.0
0.0 0.0 0.0

2.5644998279590514e6 6.445812226499922e6 0.0
6.445812226499922e6 -8.76202179221269e6 0.0
0.0 0.0 0.0

112178.15312451264 9.479712382952854e6 0.0
9.479712382952854e6 -6.977006603890188e6 0.0
0.0 0.0 0.0

-7.970422550789766e6 1.0366115760434859e7 0.0
1.0366115760434859e7 4.955542892460853e6 0.0
0.0 0.0 0.0

3.9659379303137483e6 9.073228219371453e6 0.0
9.073228219371453e6 951496.2466877165 0.0
0.0 0.0 0.0

-3.099802562396502e6 2.2549771516688857e6 0.0
2.2549771516688857e6 2.936471883657016e6 0.0
0.0 0.0 0.0

-1.3274225985796168e7 1.059575582158139e7 0.0
1.059575582158139e7 4.853169007404327e6 0.0
0.0 0.0 0.0

-2.687929380977708e6 1.0900173499010792e7 0.0
1.0900173499010792e7 1.2596698848351722e6 0.0
0.0 0.0 0.0

-1.4935595174467878e7 8.539883732780213e6 0.0
8.539883732780213e6 8.559853377347171e6 0.0
0.0 0.0 0.0

2.527559850158014e6 6.574143072539177e6 0.0
6.574143072539177e6 -9.038037343425114e6 0.0
0.0 0.0 0.0

-4.770610290824647e6 1.402864838255184e7 0.0
1.402864838255184e7 663201.7030159626 0.0
0.0 0.0 0.0

-1.268144957439705e7 5.055488648804916e6 0.0
5.055488648804916e6 1.880692577011157e7 0.0
0.0 0.0 0.0

-6.016258141485767e6 1.0609322037308978e7 0.0
1.0609322037308978e7 4.115587924136701e6 0.0
0.0 0.0 0.0

-736480.3165394615 9.792315275197195e6 0.0
9.792315275197195e6 -1.7158854839103855e6 0.0
0.0 0.0 0.0

-595421.8969089425 3.0477925204870156e6 0.0
3.0477925204870156e6 -727901.38347182 0.0
0.0 0.0 0.0

-1.447853333480488e6 9.91732906860785e6 0.0
9.91732906860785e6 1.19345600877763e6 0.0
0.0 0.0 0.0

-2.8419667437578486e6 1.1126295137456331e7 0.0
1.1126295137456331e7 1.9138219048431162e6 0.0
0.0 0.0 0.0

-231045.26732538757 6.481594340037943e6 0.0
6.481594340037943e6 -3.9098802939633816e6 0.0
0.0 0.0 0.0

-1.665758226321917e6 1.1109638184410434e7 0.0
1.1109638184410434e7 -24411.55685435969 0.0
0.0 0.0 0.0

1.5273070962406206e6 1.1055411615836317e7 0.0
1.1055411615836317e7 -4.0356126260675294e6 0.0
0.0 0.0 0.0

-1.3821100164280348e6 5.818626519667458e6 0.0
5.818626519667458e6 -995542.6762299371 0.0
0.0 0.0 0.0

260354.11604971346 9.313224016041502e6 0.0
9.313224016041502e6 -7.1906865521763945e6 0.0
0.0 0.0 0.0

-3.1850932629150585e6 7.186485067221804e6 0.0
7.186485067221804e6 767116.7071970317 0.0
0.0 0.0 0.0

-4.85688173657989e6 8.003813154026401e6 0.0
8.003813154026401e6 6.167593336749726e6 0.0
0.0 0.0 0.0

-1.3374310485387263e6 2.939323652732165e6 0.0
2.939323652732165e6 1.2731614681139486e6 0.0
0.0 0.0 0.0

-4.246423141724762e6 1.0546948852110498e7 0.0
1.0546948852110498e7 875272.0559716646 0.0
0.0 0.0 0.0

-5.945955931138219e6 1.0825194225328825e7 0.0
1.0825194225328825e7 4.0665859091933756e6 0.0
0.0 0.0 0.0

-2.5388124289258486e6 1.5093820914668985e7 0.0
1.5093820914668985e7 -1.9675746164500234e6 0.0
0.0 0.0 0.0

-4.841501365237713e6 1.5024817377832585e6 0.0
1.5024817377832585e6 5.080304981358594e6 0.0
0.0 0.0 0.0

20480.561026694253 9.409466765746458e6 0.0
9.409466765746458e6 -7.3395398558269e6 0.0
0.0 0.0 0.0

-6.3525791474782955e6 1.082795460156017e7 0.0
1.082795460156017e7 4.320576428212368e6 0.0
0.0 0.0 0.0

787479.1871987805 1.0008928740423657e7 0.0
1.0008928740423657e7 -4.697183843981408e6 0.0
0.0 0.0 0.0

-1.7611042285303958e6 7.349321820515726e6 0.0
7.349321820515726e6 -2.0858064170458766e6 0.0
0.0 0.0 0.0

-892543.3650834297 4.377347306018199e6 0.0
4.377347306018199e6 -189796.29014880143 0.0
0.0 0.0 0.0

-8.668140426667698e6 1.038730683006038e7 0.0
1.038730683006038e7 5.548908768046944e6 0.0
0.0 0.0 0.0

-3.9134257387892017e6 9.091294558475133e6 0.0
9.091294558475133e6 1.1186047265409934e6 0.0
0.0 0.0 0.0

-1.225789630580601e6 9.500531325116131e6 0.0
9.500531325116131e6 3.220435586069342e6 0.0
0.0 0.0 0.0

562477.381611573 936397.6037463938 0.0
936397.6037463938 -1.9535996408283524e6 0.0
0.0 0.0 0.0

1.807077696974744e6 8.328255022989492e6 0.0
8.328255022989492e6 -1.5152988041201625e6 0.0
0.0 0.0 0.0

2.2963249873067327e6 8.156979943192583e6 0.0
8.156979943192583e6 -1.0455601086282015e7 0.0
0.0 0.0 0.0

-7.993574817125133e6 1.5596187408262618e7 0.0
1.5596187408262618e7 1.1904015543153929e6 0.0
0.0 0.0 0.0

-3.8862116926305196e6 1.106739163491042e7 0.0
1.106739163491042e7 2.7543763849727362e6 0.0
0.0 0.0 0.0

-1.8133735750736897e6 6.095606803442194e6 0.0
6.095606803442194e6 -429372.5171535296 0.0
0.0 0.0 0.0

-913445.9763114491 1.0976797511529487e7 0.0
1.0976797511529487e7 -701163.4088788652 0.0
0.0 0.0 0.0

1.8938009528129431e6 8.632806397889365e6 0.0
8.632806397889365e6 -9.562358176702766e6 0.0
0.0 0.0 0.0

76466.25856147264 9.807115356788531e6 0.0
9.807115356788531e6 -6.247643039349371e6 0.0
0.0 0.0 0.0

-1.1553992833519192e7 1.1107913248325037e7 0.0
1.1107913248325037e7 7.616702903306167e6 0.0
0.0 0.0 0.0

-508788.5515489684 9.76156334529108e6 0.0
9.76156334529108e6 -1.6959618341646679e6 0.0
0.0 0.0 0.0

-3.576923270263552e6 1.0873952946239598e7 0.0
1.0873952946239598e7 1.437350432297736e6 0.0
0.0 0.0 0.0

-4.97741730455449e6 9.355076438241173e6 0.0
9.355076438241173e6 2.9547185097265216e6 0.0
0.0 0.0 0.0

-1.9907964699044102e6 9.002835987187136e6 0.0
9.002835987187136e6 -2.3472330547688757e6 0.0
0.0 0.0 0.0

2.169668506369367e6 8.8430822538766e6 0.0
8.8430822538766e6 -1.2961386524716038e6 0.0
0.0 0.0 0.0

-5.084500456618214e6 9.015036795565164e6 0.0
9.015036795565164e6 3.469124878507225e6 0.0
0.0 0.0 0.0

-1.348707891559833e6 1.1164850097081676e7 0.0
1.1164850097081676e7 366546.1013384191 0.0
0.0 0.0 0.0

-1.2224597422661863e7 2.4431621264273436e6 0.0
2.4431621264273436e6 2.302529950573822e7 0.0
0.0 0.0 0.0

-1.5059610196773321e6 7.297261285046276e6 0.0
7.297261285046276e6 -2.0104534518163805e6 0.0
0.0 0.0 0.0

-1.1900511839877395e6 8.631021657430638e6 0.0
8.631021657430638e6 -6.044993313258227e6 0.0
0.0 0.0 0.0

-1.1827662044289568e6 1.0935655029124318e7 0.0
1.0935655029124318e7 -4.319477828725576e6 0.0
0.0 0.0 0.0

-3.0993043646807144e6 8.225423367134111e6 0.0
8.225423367134111e6 12508.623576873448 0.0
0.0 0.0 0.0

-3.173375016912787e6 1.0914954788265625e7 0.0
1.0914954788265625e7 1.886009473087179e6 0.0
0.0 0.0 0.0

-401164.9069808932 9.67493173403359e6 0.0
9.67493173403359e6 -1.3372163918716407e6 0.0
0.0 0.0 0.0

-6.434364920559657e6 1.0784897768488416e7 0.0
1.0784897768488416e7 4.222564030595738e6 0.0
0.0 0.0 0.0

-1.4626089558240063e6 1.1396737341645528e7 0.0
1.1396737341645528e7 -39954.97103096498 0.0
0.0 0.0 0.0

-1.1307723783319723e7 -4.1658518492771657e6 0.0
-4.1658518492771657e6 2.0849608378955863e7 0.0
0.0 0.0 0.0

-2.6235222807709146e6 4.636776260916193e6 0.0
4.636776260916193e6 1.5465088388465075e6 0.0
0.0 0.0 0.0

773378.497944515 1.0291963382351503e7 0.0
1.0291963382351503e7 -4.489013272588138e6 0.0
0.0 0.0 0.0

-1.1348643909143303e7 7.873139620267058e6 0.0
7.873139620267058e6 4.1120024273811225e6 0.0
0.0 0.0 0.0

-963527.3168627578 3.7738813067745375e6 0.0
3.7738813067745375e6 -641288.3292080557 0.0
0.0 0.0 0.0

-1.2236372658257712e7 389296.95220902795 0.0
389296.95220902795 1.5897390337960228e7 0.0
0.0 0.0 0.0

-1.5880174822300698e6 -1.5901067239014076e6 0.0
-1.5901067239014076e6 1.0564689680138205e6 0.0
0.0 0.0 0.0

-2.588187990641236e6 2.039389232044022e6 0.0
2.039389232044022e6 1.7653495000550807e6 0.0
0.0 0.0 0.0

-96089.22580055543 7.771329606887089e6 0.0
7.771329606887089e6 -5.063207782700532e6 0.0
0.0 0.0 0.0

-4.303121368401959e6 9.154002758190377e6 0.0
9.154002758190377e6 1.0896218999233649e6 0.0
0.0 0.0 0.0

-4.650401735433305e6 7.499718778007361e6 0.0
7.499718778007361e6 863663.9957045706 0.0
0.0 0.0 0.0

-3.6754865313379737e6 1.0709250811515175e7 0.0
1.0709250811515175e7 2.7323539639641885e6 0.0
0.0 0.0 0.0

-12585.949149241205 9.204708477358343e6 0.0
9.204708477358343e6 -6.562209478452335e6 0.0
0.0 0.0 0.0

-2.302027036997053e6 8.533628424879191e6 0.0
8.533628424879191e6 2.878822151622035e6 0.0
0.0 0.0 0.0

-1.402262097694077e6 9.361110381102946e6 0.0
9.361110381102946e6 -6.446004871787256e6 0.0
0.0 0.0 0.0

-2.154059392831314e6 1.0990218563178558e7 0.0
1.0990218563178558e7 358573.0364193433 0.0
0.0 0.0 0.0

1.7865628485820927e6 9.105295688154053e6 0.0
9.105295688154053e6 -1.056843130183009e7 0.0
0.0 0.0 0.0

1.7518758759962395e6 8.608424043656234e6 0.0
8.608424043656234e6 -8.97428886415395e6 0.0
0.0 0.0 0.0

-3.377141636876857e6 1.1159374873226212e7 0.0
1.1159374873226212e7 1.4023736279927355e6 0.0
0.0 0.0 0.0

-9.966699075209633e6 1.0489569603452757e7 0.0
1.0489569603452757e7 5.657773268292746e6 0.0
0.0 0.0 0.0

-6.294383863199844e6 1.0025367172813833e7 0.0
1.0025367172813833e7 4.2899242873498965e6 0.0
0.0 0.0 0.0

-2.387149633141777e6 6.054819796040876e6 0.0
6.054819796040876e6 -132976.04282676638 0.0
0.0 0.0 0.0

-4.072887970661812e6 2.584580449084417e6 0.0
2.584580449084417e6 3.8702440701191705e6 0.0
0.0 0.0 0.0

1.0282137860911519e6 9.43989594982687e6 0.0
9.43989594982687e6 -4.505236171906201e6 0.0
0.0 0.0 0.0

2.694740387162302e6 1.1084796746936169e7 0.0
1.1084796746936169e7 -5.019071113591261e6 0.0
0.0 0.0 0.0

-1.0932214909276973e7 6.015439147537685e6 0.0
6.015439147537685e6 2.018538865058575e7 0.0
0.0 0.0 0.0

-1.3849148255610303e6 1.095373330485952e7 0.0
1.095373330485952e7 906944.66266929 0.0
0.0 0.0 0.0

-6.603344992586683e6 1.0770613685702905e7 0.0
1.0770613685702905e7 4.024553794397168e6 0.0
0.0 0.0 0.0

-909077.523592317 8.276986647906847e6 0.0
8.276986647906847e6 -5.852675479000822e6 0.0
0.0 0.0 0.0

-1.170048768386626e7 2.7762252233037557e6 0.0
2.7762252233037557e6 1.5113898807889361e7 0.0
0.0 0.0 0.0

-1.6155043853317837e6 1.0903749670735719e7 0.0
1.0903749670735719e7 417738.22994362214 0.0
0.0 0.0 0.0

-1.8650676674398137e6 1.0706766622812556e7 0.0
1.0706766622812556e7 -3.7194423973980546e6 0.0
0.0 0.0 0.0

337037.0722850207 9.462799540082565e6 0.0
9.462799540082565e6 -6.80360245046279e6 0.0
0.0 0.0 0.0

1.8273252030083193e6 8.246418093654363e6 0.0
8.246418093654363e6 -9.201682192844916e6 0.0
0.0 0.0 0.0

1.1861482643258963e6 8.295967946752391e6 0.0
8.295967946752391e6 -7.957681054570548e6 0.0
0.0 0.0 0.0

-826405.9383071242 1.0248664304659331e7 0.0
1.0248664304659331e7 -8.181164719563239e6 0.0
0.0 0.0 0.0

-6.299317602015045e6 1.0662395399726406e7 0.0
1.0662395399726406e7 4.1618376457614703e6 0.0
0.0 0.0 0.0

-4.499046282924523e6 1.0729564301583746e7 0.0
1.0729564301583746e7 2.3254848791989796e6 0.0
0.0 0.0 0.0

450416.8036112285 1.0106224483836727e7 0.0
1.0106224483836727e7 -5.498865163759362e6 0.0
0.0 0.0 0.0

4.1045709704815033e6 1.1759932047971863e7 0.0
1.1759932047971863e7 -5.640024630745921e6 0.0
0.0 0.0 0.0

-1.0912760023832586e7 -878377.5308042581 0.0
-878377.5308042581 1.821412571189099e7 0.0
0.0 0.0 0.0

1.6404337926566862e6 8.799392532203395e6 0.0
8.799392532203395e6 -9.803992293042831e6 0.0
0.0 0.0 0.0

1.5711530070473785e6 8.378318550633378e6 0.0
8.378318550633378e6 -7.821838977356395e6 0.0
0.0 0.0 0.0

-1.1993696771966146e7 2.3050117527917037e6 0.0
2.3050117527917037e6 2.6216454106018353e7 0.0
0.0 0.0 0.0

3.8057593329953877e6 9.196063579069754e6 0.0
9.196063579069754e6 -239353.28741349187 0.0
0.0 0.0 0.0

-1.0422336593278743e7 1.5726637527756642e6 0.0
1.5726637527756642e6 1.7442916884304266e7 0.0
0.0 0.0 0.0

-499300.9026474926 1.7083885773585958e6 0.0
1.7083885773585958e6 -1.202011584847303e6 0.0
0.0 0.0 0.0

-6.824579230559075e6 1.0957168785688424e7 0.0
1.0957168785688424e7 4.25617283549902e6 0.0
0.0 0.0 0.0

500273.801071669 8.035851231688555e6 0.0
8.035851231688555e6 -6.256900551892571e6 0.0
0.0 0.0 0.0

-8.573396737939682e6 1.1020893743971432e7 0.0
1.1020893743971432e7 5.724797995108282e6 0.0
0.0 0.0 0.0

-9.749318881622706e6 4.230841367436824e6 0.0
4.230841367436824e6 1.410742621741255e7 0.0
0.0 0.0 0.0

-1.9989864632107518e6 4.819079421857502e6 0.0
4.819079421857502e6 781100.0149610308 0.0
0.0 0.0 0.0

-4.3110052500827545e6 1.4425687376117764e7 0.0
1.4425687376117764e7 75892.17818266363 0.0
0.0 0.0 0.0

-3.2926517964285566e6 1.1028857854603458e7 0.0
1.1028857854603458e7 2.7069720138513893e6 0.0
0.0 0.0 0.0

-4.156666943871306e6 1.2013045231233709e7 0.0
1.2013045231233709e7 -23446.657894589705 0.0
0.0 0.0 0.0

-4.692976332138985e6 1.0746310804837108e7 0.0
1.0746310804837108e7 2.7673671287893327e6 0.0
0.0 0.0 0.0

107663.66662724782 9.475586446991904e6 0.0
9.475586446991904e6 -6.762916458177717e6 0.0
0.0 0.0 0.0

-398522.8548290818 1.2012670275031839e7 0.0
1.2012670275031839e7 -3.5279177737377402e6 0.0
0.0 0.0 0.0

-2.8006102883665655e6 1.2520702795730105e7 0.0
1.2520702795730105e7 5.722636951001463e6 0.0
0.0 0.0 0.0

-4.865633125330866e6 -2.1420177751009515e6 0.0
-2.1420177751009515e6 6.883626035170445e6 0.0
0.0 0.0 0.0

-3.4004813349684686e6 3.176750589587937e6 0.0
3.176750589587937e6 1.222506643627756e6 0.0
0.0 0.0 0.0

-256977.5073065892 8.763318490533965e6 0.0
8.763318490533965e6 -856591.495395752 0.0
0.0 0.0 0.0

495969.45752374246 9.580507351365102e6 0.0
9.580507351365102e6 1.6532315145548559e6 0.0
0.0 0.0 0.0

-7.996959316338715e6 1.6323950172037583e7 0.0
1.6323950172037583e7 50423.882219616324 0.0
0.0 0.0 0.0

1.0328107020808235e6 6.887997019125538e6 0.0
6.887997019125538e6 -4.33252217975275e6 0.0
0.0 0.0 0.0

-9.00622309025745e6 1.1553350673691357e7 0.0
1.1553350673691357e7 6.024794132997679e6 0.0
0.0 0.0 0.0

-1.5041951889557617e7 -1.1030352951665237e6 0.0
-1.1030352951665237e6 9.875425664368253e6 0.0
0.0 0.0 0.0

-1.0746147741139606e6 1.1104440851544784e7 0.0
1.1104440851544784e7 -4.343554684740134e6 0.0
0.0 0.0 0.0

-1.0119853607922291e7 5.303618432069148e6 0.0
5.303618432069148e6 1.1694415299777972e7 0.0
0.0 0.0 0.0

968290.3962574254 9.926472212655284e6 0.0
9.926472212655284e6 -4.8149304535215255e6 0.0
0.0 0.0 0.0

-3.7003588803459685e6 1.0902773354186628e7 0.0
1.0902773354186628e7 2.2471486156242704e6 0.0
0.0 0.0 0.0

-4.035881831270413e6 9.085654785859236e6 0.0
9.085654785859236e6 710853.9485965008 0.0
0.0 0.0 0.0

825676.4682979665 1.0474666990869302e7 0.0
1.0474666990869302e7 -4.81397624588117e6 0.0
0.0 0.0 0.0

2.678790107260162e6 6.395855275032355e6 0.0
6.395855275032355e6 -9.135189792946858e6 0.0
0.0 0.0 0.0

-1.1348610780304444e6 6.650562932955745e6 0.0
6.650562932955745e6 -3.7828704970351066e6 0.0
0.0 0.0 0.0

1.6541720744209518e6 1.231946416417533e7 0.0
1.231946416417533e7 -4.420257254264876e6 0.0
0.0 0.0 0.0

233343.37540443428 1.0149609476152584e7 0.0
1.0149609476152584e7 -5.610662173196502e6 0.0
0.0 0.0 0.0

887.869060131954 8.248063861154091e6 0.0
8.248063861154091e6 1.7560746626508092e6 0.0
0.0 0.0 0.0

1.5476092733127186e6 8.748108436340922e6 0.0
8.748108436340922e6 -9.190262529005231e6 0.0
0.0 0.0 0.0

-3.9040249076957107e6 1.0252867693319395e7 0.0
1.0252867693319395e7 -814093.5831593166 0.0
0.0 0.0 0.0

-3.5409411620173818e6 1.000512669115471e7 0.0
1.000512669115471e7 5.843553870988532e6 0.0
0.0 0.0 0.0

-639479.5799364757 1.572208553390988e7 0.0
1.572208553390988e7 -6.558612164267211e6 0.0
0.0 0.0 0.0

1.594848453937537e6 8.516603232150057e6 0.0
8.516603232150057e6 -8.459595800348327e6 0.0
0.0 0.0 0.0

-1.1571424959598433e7 -1.4052304193264102e6 0.0
-1.4052304193264102e6 8.605917014779583e6 0.0
0.0 0.0 0.0

-1.1311104679286466e6 1.0244772223579483e7 0.0
1.0244772223579483e7 1.3873414131692667e6 0.0
0.0 0.0 0.0

-9.20803736662086e6 1.1155745459294358e7 0.0
1.1155745459294358e7 6.15592961142738e6 0.0
0.0 0.0 0.0

-2.8557688677373026e6 9.899296833749216e6 0.0
9.899296833749216e6 -1.5405716663277568e6 0.0
0.0 0.0 0.0

-6.2884286512171235e6 1.089512461228665e7 0.0
1.089512461228665e7 4.296669995854571e6 0.0
0.0 0.0 0.0

-1.3837101358275775e7 4.999680550113648e6 0.0
4.999680550113648e6 2.0779905446077913e7 0.0
0.0 0.0 0.0

-812331.761774854 8.372382839187015e6 0.0
8.372382839187015e6 -3.7897941624510577e6 0.0
0.0 0.0 0.0

-6.061040565490004e6 1.4450298080170643e7 0.0
1.4450298080170643e7 23855.89543191041 0.0
0.0 0.0 0.0

-1.2471067103655427e6 5.093235099486904e6 0.0
5.093235099486904e6 -1.0376502059213575e6 0.0
0.0 0.0 0.0

-1.3668286744717728e7 -416482.78301261406 0.0
-416482.78301261406 6.999460316945782e6 0.0
0.0 0.0 0.0

-2.0901680927513975e6 6.3664859044109285e6 0.0
6.3664859044109285e6 -906897.087238475 0.0
0.0 0.0 0.0

-3.973374116225186e6 773275.3415509611 0.0
773275.3415509611 4.205889494677339e6 0.0
0.0 0.0 0.0

-8.784800204061689e6 5.934169885217446e6 0.0
5.934169885217446e6 1.2623280923016893e7 0.0
0.0 0.0 0.0

-7.59312879983742e6 1.1251607382089784e7 0.0
1.1251607382089784e7 5.131016713278832e6 0.0
0.0 0.0 0.0

-1.0021627205939107e7 1.142114507315235e7 0.0
1.142114507315235e7 6.707678244499158e6 0.0
0.0 0.0 0.0

-1.0103643212171271e7 3.635322791112245e6 0.0
3.635322791112245e6 1.6284095583216617e7 0.0
0.0 0.0 0.0

-1.0809097304713486e6 7.5277081891949475e6 0.0
7.5277081891949475e6 -3.2772139529089704e6 0.0
0.0 0.0 0.0

2.491218741796111e6 9.836647449093316e6 0.0
9.836647449093316e6 -4.1460949263425805e6 0.0
0.0 0.0 0.0

-697984.5635437402 7.286121655371822e6 0.0
7.286121655371822e6 -5.076130764543794e6 0.0
0.0 0.0 0.0

-1.7724225523118726e6 4.054391201247841e6 0.0
4.054391201247841e6 1.7945682313404768e6 0.0
0.0 0.0 0.0

-7.581957300816108e6 1.1294101845094724e7 0.0
1.1294101845094724e7 5.052054681269606e6 0.0
0.0 0.0 0.0

-6.080635711139008e6 6.839814308255478e6 0.0
6.839814308255478e6 6.6676681437386405e6 0.0
0.0 0.0 0.0

1.3577015373099213e6 8.671377879781345e6 0.0
8.671377879781345e6 -8.693750005711963e6 0.0
0.0 0.0 0.0

-9.209625197749764e6 8.625682861587007e6 0.0
8.625682861587007e6 2.757448360325977e6 0.0
0.0 0.0 0.0

-4.636769576295757e6 1.2081345084398547e7 0.0
1.2081345084398547e7 524512.0486806617 0.0
0.0 0.0 0.0

2.7712000676317615e6 7.069507620852359e6 0.0
7.069507620852359e6 -1.0202716240151329e7 0.0
0.0 0.0 0.0

-2.3277525379002923e6 1.0342667931553405e7 0.0
1.0342667931553405e7 2.76822293001028e6 0.0
0.0 0.0 0.0

-4.1204566662115473e6 9.005733996986084e6 0.0
9.005733996986084e6 1.6303392988798544e6 0.0
0.0 0.0 0.0

-682531.9843799012 1.103746254832623e7 0.0
1.103746254832623e7 -4.22602762925728e6 0.0
0.0 0.0 0.0

-9.225014760049568e6 1.0782658603322865e7 0.0
1.0782658603322865e7 6.162621197588922e6 0.0
0.0 0.0 0.0

-4.0365225076313177e6 9.282522985135213e6 0.0
9.282522985135213e6 1.0463752954367113e6 0.0
0.0 0.0 0.0

-7.965072395990364e6 1.1274717686779015e7 0.0
1.1274717686779015e7 5.495568720653471e6 0.0
0.0 0.0 0.0

-691377.0750549459 3.6170964515136727e6 0.0
3.6170964515136727e6 -1.404553214450808e6 0.0
0.0 0.0 0.0

-164203.1447531142 1.02886600324178e7 0.0
1.02886600324178e7 1.694867146405033e6 0.0
0.0 0.0 0.0

24215.533043503063 9.967811666210437e6 0.0
9.967811666210437e6 -6.031151447323893e6 0.0
0.0 0.0 0.0

-1.6618708495997733e6 6.252428748068559e6 0.0
6.252428748068559e6 -744320.3893874204 0.0
0.0 0.0 0.0

-565470.6726647312 1.0639730055313423e7 0.0
1.0639730055313423e7 -5.055630868054076e6 0.0
0.0 0.0 0.0

160732.2535303873 6.44199761034135e6 0.0
6.44199761034135e6 -4.73379481820922e6 0.0
0.0 0.0 0.0

-1.1785937641496458e6 9.968165603428045e6 0.0
9.968165603428045e6 5.561014811946983e6 0.0
0.0 0.0 0.0

-4.982156468440298e6 -831383.8411311707 0.0
-831383.8411311707 6.9607279356625015e6 0.0
0.0 0.0 0.0

-138183.57873016666 1.0600399041170599e7 0.0
1.0600399041170599e7 2.1858258480886114e6 0.0
0.0 0.0 0.0

-6.615606959626101e6 1.0801625913236758e7 0.0
1.0801625913236758e7 4.219084763858149e6 0.0
0.0 0.0 0.0

311074.11161406385 9.787386363206869e6 0.0
9.787386363206869e6 -6.212283603853812e6 0.0
0.0 0.0 0.0

-5.041676266192092e6 1.3569524616541114e7 0.0
1.3569524616541114e7 950006.145815541 0.0
0.0 0.0 0.0

-764071.1875816562 1.093708694517245e7 0.0
1.093708694517245e7 -640052.8540673865 0.0
0.0 0.0 0.0

874071.3672826316 7.889669745630088e6 0.0
7.889669745630088e6 -6.027050751431427e6 0.0
0.0 0.0 0.0

-4.884793250566501e6 1.2196908227672113e7 0.0
1.2196908227672113e7 -314627.8813161999 0.0
0.0 0.0 0.0

-131929.91126483888 1.0197083657698348e7 0.0
1.0197083657698348e7 -5.746430057083327e6 0.0
0.0 0.0 0.0

-1.3844751714326618e6 5.652380855651324e6 0.0
5.652380855651324e6 -393558.1444988474 0.0
0.0 0.0 0.0

-4.758163836997153e6 1.1673362600049814e7 0.0
1.1673362600049814e7 4.1018501339178737e6 0.0
0.0 0.0 0.0

-3.395674058370415e6 1.1100910833208533e7 0.0
1.1100910833208533e7 2.2729723326493357e6 0.0
0.0 0.0 0.0

-6.902167459463386e6 1.0976440631235573e7 0.0
1.0976440631235573e7 4.532563245027743e6 0.0
0.0 0.0 0.0

-1.292977290568864e6 1.0603436534936976e7 0.0
1.0603436534936976e7 755321.1801710301 0.0
0.0 0.0 0.0

-421921.2169529578 3.042276624133964e6 0.0
3.042276624133964e6 -781012.5181611946 0.0
0.0 0.0 0.0

-1.0658716358153608e7 2.2701850421636794e6 0.0
2.2701850421636794e6 1.2943430797571234e7 0.0
0.0 0.0 0.0

-804321.1423633979 1.0856153855759198e7 0.0
1.0856153855759198e7 -4.708012839146257e6 0.0
0.0 0.0 0.0

1.4964607881352948e6 9.80847225573369e6 0.0
9.80847225573369e6 -9.860252129568143e6 0.0
0.0 0.0 0.0

-624340.3937342121 3.390288176280398e6 0.0
3.390288176280398e6 -854943.3085081428 0.0
0.0 0.0 0.0

-1.450183074176459e6 3.425183933240309e6 0.0
3.425183933240309e6 349658.6593962419 0.0
0.0 0.0 0.0

-3.416062301340202e6 7.535235904061863e6 0.0
7.535235904061863e6 1.0982972157572315e6 0.0
0.0 0.0 0.0

-5.064780074475524e6 1.1768132368552491e7 0.0
1.1768132368552491e7 966823.3778954493 0.0
0.0 0.0 0.0

358790.2595962719 9.45254464765151e6 0.0
9.45254464765151e6 -8.036223198213414e6 0.0
0.0 0.0 0.0

124968.2545406078 6.628711486660428e6 0.0
6.628711486660428e6 -4.600062498774637e6 0.0
0.0 0.0 0.0

-6.614512666352878e6 1.0932952694324827e7 0.0
1.0932952694324827e7 4.279856111386595e6 0.0
0.0 0.0 0.0

-4.1434648827676475e6 1.2390873767046174e7 0.0
1.2390873767046174e7 -29181.28295391216 0.0
0.0 0.0 0.0

-1.4975696118373076e7 1.1095879708962755e7 0.0
1.1095879708962755e7 9.260704801746994e6 0.0
0.0 0.0 0.0

-6.754474138501106e6 1.0991659707548397e7 0.0
1.0991659707548397e7 4.484809652305668e6 0.0
0.0 0.0 0.0

-1.4963730004673827e7 9.265847230024304e6 0.0
9.265847230024304e6 7.530469016025273e6 0.0
0.0 0.0 0.0

-1.7116232409023144e6 1.1475212726262726e7 0.0
1.1475212726262726e7 -53303.29337275133 0.0
0.0 0.0 0.0

1.135404885970126e6 9.631106079513183e6 0.0
9.631106079513183e6 -9.439074133705787e6 0.0
0.0 0.0 0.0

-1.8283371968823464e6 5.951562576678318e6 0.0
5.951562576678318e6 -1.1923476303507783e6 0.0
0.0 0.0 0.0

-9.175314360777766e6 -1.8401927098636397e6 0.0
-1.8401927098636397e6 1.2106477112613715e7 0.0
0.0 0.0 0.0

-1.2075063606940558e7 -1.0299785977452197e6 0.0
-1.0299785977452197e6 1.7336994137465127e7 0.0
0.0 0.0 0.0

2.0738547900853525e6 6.983198420339597e6 0.0
6.983198420339597e6 -8.548231848052561e6 0.0
0.0 0.0 0.0

-4.743646648570776e6 1.0847155554722454e7 0.0
1.0847155554722454e7 3.05830068709511e6 0.0
0.0 0.0 0.0

-1.0590753704357266e7 5.807802746181461e6 0.0
5.807802746181461e6 1.8486349454573005e7 0.0
0.0 0.0 0.0

-335326.3158175179 1.041919768055838e7 0.0
1.041919768055838e7 -5.397336435102312e6 0.0
0.0 0.0 0.0

-1.0917607873602673e7 7.834732210562047e6 0.0
7.834732210562047e6 1.5333433742621137e7 0.0
0.0 0.0 0.0

-5.282155425055664e6 1.1874391546121038e7 0.0
1.1874391546121038e7 206877.04687234177 0.0
0.0 0.0 0.0

-7.674392489586452e6 1.3756888064994123e7 0.0
1.3756888064994123e7 2.419391938348422e6 0.0
0.0 0.0 0.0

-688792.6035805074 1.0751980431722961e7 0.0
1.0751980431722961e7 -770962.4025203058 0.0
0.0 0.0 0.0

-1.4881538519184114e6 4.209586448796719e6 0.0
4.209586448796719e6 459313.4463885991 0.0
0.0 0.0 0.0

-1.117396546908405e6 1.0402188584468989e7 0.0
1.0402188584468989e7 1.0255158900542322e6 0.0
0.0 0.0 0.0

-3.0458430331215374e6 7.467963195548377e6 0.0
7.467963195548377e6 1.1772154779813988e6 0.0
0.0 0.0 0.0

2.1390036811350444e6 6.353129484668813e6 0.0
6.353129484668813e6 -7.943926564079932e6 0.0
0.0 0.0 0.0

603404.8492525867 1.1722449593250733e7 0.0
1.1722449593250733e7 -4.0852663644056814e6 0.0
0.0 0.0 0.0

-9.978612581718337e6 3.1532405830621826e6 0.0
3.1532405830621826e6 6.86506650643543e6 0.0
0.0 0.0 0.0

-8.574666762591619e6 9.453475373636566e6 0.0
9.453475373636566e6 1.341512733285556e6 0.0
0.0 0.0 0.0

-6.895534158861596e6 1.1049455753242325e7 0.0
1.1049455753242325e7 4.04860446472198e6 0.0
0.0 0.0 0.0

-1.1571913225415163e6 7.444920489202319e6 0.0
7.444920489202319e6 -3.3972774163835994e6 0.0
0.0 0.0 0.0

-2.426367364676856e6 1.1156414798141895e7 0.0
1.1156414798141895e7 222246.5564395974 0.0
0.0 0.0 0.0

-7.575893016037561e6 1.2683011367968377e7 0.0
1.2683011367968377e7 3.853224693531281e6 0.0
0.0 0.0 0.0

-2.7752888542531575e6 1.0236855964336742e7 0.0
1.0236855964336742e7 3.3455848588791126e6 0.0
0.0 0.0 0.0

-1.6070018187539985e6 1.06863738682351e7 0.0
1.06863738682351e7 993628.8367824745 0.0
0.0 0.0 0.0

-811670.1030883726 7.385107203529083e6 0.0
7.385107203529083e6 -3.318214240597263e6 0.0
0.0 0.0 0.0

-9.060547844003418e6 1.1851124068506025e7 0.0
1.1851124068506025e7 6.085087246031743e6 0.0
0.0 0.0 0.0

-5.407855538750455e6 144306.46054991125 0.0
144306.46054991125 6.012216542602267e6 0.0
0.0 0.0 0.0

1.5872562228322332e6 6.301218650741299e6 0.0
6.301218650741299e6 -6.098746237714895e6 0.0
0.0 0.0 0.0

-6.418114153337162e6 1.1259627535894416e7 0.0
1.1259627535894416e7 2.9372162835224904e6 0.0
0.0 0.0 0.0

240126.44525586953 9.948051215540264e6 0.0
9.948051215540264e6 -6.000721098186327e6 0.0
0.0 0.0 0.0

-732859.4572190087 1.5792471360408152e6 0.0
1.5792471360408152e6 -1.304301714363268e6 0.0
0.0 0.0 0.0

-276879.3612853391 6.335782084521217e6 0.0
6.335782084521217e6 -3.968548717649906e6 0.0
0.0 0.0 0.0

-7.853255886731226e6 9.604649372604162e6 0.0
9.604649372604162e6 5.334057004147148e6 0.0
0.0 0.0 0.0

630328.0961512674 8.247011974655197e6 0.0
8.247011974655197e6 -5.897804571138992e6 0.0
0.0 0.0 0.0

-916.7917529474944 9.566849023757821e6 0.0
9.566849023757821e6 3.9601339112268593e6 0.0
0.0 0.0 0.0

-1.2251786259089645e6 3.8492783706763494e6 0.0
3.8492783706763494e6 -1.7770216632071151e6 0.0
0.0 0.0 0.0

-776634.5255491375 2.7640505462997695e6 0.0
2.7640505462997695e6 -1.750753610157905e6 0.0
0.0 0.0 0.0

-3.6069344528879435e6 1.4753042818846988e7 0.0
1.4753042818846988e7 -721873.1095177718 0.0
0.0 0.0 0.0

-3.1976914268839713e6 733185.5447942294 0.0
733185.5447942294 4.395028598325064e6 0.0
0.0 0.0 0.0

-1.3791194555067928e6 8.468186519265601e6 0.0
8.468186519265601e6 -2.940514943073217e6 0.0
0.0 0.0 0.0

1.201717020065514e6 8.156134383084874e6 0.0
8.156134383084874e6 -2.0399190276348903e6 0.0
0.0 0.0 0.0

472082.4078375057 1.3962502782015182e7 0.0
1.3962502782015182e7 -5.514371275418435e6 0.0
0.0 0.0 0.0

-726975.1854470549 9.833032070777263e6 0.0
9.833032070777263e6 -4.322104121402826e6 0.0
0.0 0.0 0.0

133893.54675285995 1.168298292999865e7 0.0
1.168298292999865e7 3.316750488823396e6 0.0
0.0 0.0 0.0

-6.112983943704138e6 1.0648836166896528e7 0.0
1.0648836166896528e7 4.1921521333298013e6 0.0
0.0 0.0 0.0

-7.819684904930573e6 -300484.8305481243 0.0
-300484.8305481243 9.461649541834615e6 0.0
0.0 0.0 0.0

-6.233149839616219e6 1.1615132984415423e7 0.0
1.1615132984415423e7 2.7387187742506657e6 0.0
0.0 0.0 0.0

-1.7211477440366386e6 1.0331728981294375e7 0.0
1.0331728981294375e7 2.4124363878826695e6 0.0
0.0 0.0 0.0

-90785.72052755463 7.454903274995787e6 0.0
7.454903274995787e6 -4.950976141524895e6 0.0
0.0 0.0 0.0

2.6781784959613155e6 6.553034051156163e6 0.0
6.553034051156163e6 -8.514967662048638e6 0.0
0.0 0.0 0.0

-4.1529271195048653e6 9.281328505997583e6 0.0
9.281328505997583e6 657498.8574682472 0.0
0.0 0.0 0.0

-2.176766375031405e6 6.878607036424691e6 0.0
6.878607036424691e6 296245.53279523144 0.0
0.0 0.0 0.0

-6.512944850248549e6 6.051880932340135e6 0.0
6.051880932340135e6 9.74979642907079e6 0.0
0.0 0.0 0.0

425141.7364197662 9.637195171894569e6 0.0
9.637195171894569e6 -6.491526968721097e6 0.0
0.0 0.0 0.0

1.1297157242268329e6 9.333024783011805e6 0.0
9.333024783011805e6 -9.242680269031694e6 0.0
0.0 0.0 0.0

-6.450274380529651e6 1.1981423156082207e7 0.0
1.1981423156082207e7 2.8994129606129737e6 0.0
0.0 0.0 0.0

-1.2052171965405368e6 1.0736845017302714e7 0.0
1.0736845017302714e7 434807.03263119445 0.0
0.0 0.0 0.0

-1.6493812207753407e7 -334301.9017227432 0.0
-334301.9017227432 8.48401157799353e6 0.0
0.0 0.0 0.0

240827.4860189301 1.22286910476037e7 0.0
1.22286910476037e7 4.020986088779416e6 0.0
0.0 0.0 0.0

-1.6988401311585136e7 6.813304872619699e6 0.0
6.813304872619699e6 5.944252237889151e6 0.0
0.0 0.0 0.0

897678.9171396336 8.178016445914269e6 0.0
8.178016445914269e6 -7.141535494846905e6 0.0
0.0 0.0 0.0

2.651726927628513e6 3.5356180614480646e6 0.0
3.5356180614480646e6 488674.1359365664 0.0
0.0 0.0 0.0

-2.931792867637289e6 -1.9681735057397187e6 0.0
-1.9681735057397187e6 2.760861286931169e6 0.0
0.0 0.0 0.0

-1.9056920181858062e6 6.230273267414737e6 0.0
6.230273267414737e6 120311.82568655396 0.0
0.0 0.0 0.0

-7.421548289186735e6 330854.3944008902 0.0
330854.3944008902 9.63468056873895e6 0.0
0.0 0.0 0.0

-5.720174707066707e6 869594.7386748048 0.0
869594.7386748048 6.038160895092905e6 0.0
0.0 0.0 0.0

-177495.3166047365 1.0581874872811824e7 0.0
1.0581874872811824e7 -4.97610475307326e6 0.0
0.0 0.0 0.0

-1.5369897708058464e6 7.2375526501056785e6 0.0
7.2375526501056785e6 -5.123299363202221e6 0.0
0.0 0.0 0.0

-225314.5983276021 9.523753209589247e6 0.0
9.523753209589247e6 -751048.6861263799 0.0
0.0 0.0 0.0

1.376627282524489e6 8.55134077731254e6 0.0
8.55134077731254e6 -3.0529220053788796e6 0.0
0.0 0.0 0.0

-6.734374269803542e6 1.2341806944748849e7 0.0
1.2341806944748849e7 3.0940193345336528e6 0.0
0.0 0.0 0.0

-1.8162663622168824e6 6.003797308823816e6 0.0
6.003797308823816e6 560310.7102375068 0.0
0.0 0.0 0.0

-1.4510223114633446e6 1.002415114639224e7 0.0
1.002415114639224e7 -4.0684149672660716e6 0.0
0.0 0.0 0.0

-5.418639149827085e6 9.588332645476412e6 0.0
9.588332645476412e6 2.7973236911815293e6 0.0
0.0 0.0 0.0

1.4818830028225328e6 7.595449007975738e6 0.0
7.595449007975738e6 -8.105193180149061e6 0.0
0.0 0.0 0.0

-4.270529744751861e6 462254.1057841758 0.0
462254.1057841758 6.525494281660992e6 0.0
0.0 0.0 0.0

-5.775180972022326e6 1.1707252564961689e7 0.0
1.1707252564961689e7 2.1129546149708787e6 0.0
0.0 0.0 0.0

-1.2022782292460091e6 1.0814445263235178e7 0.0
1.0814445263235178e7 154473.48416275484 0.0
0.0 0.0 0.0

-1.1800249244187954e6 1.0951680486506233e7 0.0
1.0951680486506233e7 -66821.56052182033 0.0
0.0 0.0 0.0

-4.766269353669905e6 1.100416742917181e7 0.0
1.100416742917181e7 2.581220748774606e6 0.0
0.0 0.0 0.0

-349446.9078558869 1.011254013873124e7 0.0
1.011254013873124e7 1.138330039097912e6 0.0
0.0 0.0 0.0

-4.283840762788336e6 1.1818793004234664e7 0.0
1.1818793004234664e7 2.0241018122769317e6 0.0
0.0 0.0 0.0

-1.0567891221871082e7 5.138341358069733e6 0.0
5.138341358069733e6 1.2764189936610317e7 0.0
0.0 0.0 0.0

-7.9541323749182895e6 -1.663551994193648e6 0.0
-1.663551994193648e6 9.927322876135329e6 0.0
0.0 0.0 0.0

272914.7076139783 7.333847293738168e6 0.0
7.333847293738168e6 -4.763964553433995e6 0.0
0.0 0.0 0.0

2.2706991346155778e6 6.782280661154947e6 0.0
6.782280661154947e6 -8.829177782199658e6 0.0
0.0 0.0 0.0

-1.292551158179002e6 1.0014699794064505e7 0.0
1.0014699794064505e7 -3.5185338855747944e6 0.0
0.0 0.0 0.0

1.1484634574518264e6 8.89867495163225e6 0.0
8.89867495163225e6 564636.5140384536 0.0
0.0 0.0 0.0

221977.08949224558 6.649241042148978e6 0.0
6.649241042148978e6 -4.568755539136834e6 0.0
0.0 0.0 0.0

-771377.078537199 9.357007076298876e6 0.0
9.357007076298876e6 -7.047050305530557e6 0.0
0.0 0.0 0.0

1.1533321260230471e6 9.177114657784397e6 0.0
9.177114657784397e6 -8.982962696836846e6 0.0
0.0 0.0 0.0

-2.92859793227592e6 6.826066373907212e6 0.0
6.826066373907212e6 404181.7140286482 0.0
0.0 0.0 0.0

-4.607576321692481e6 1.1009761882808678e7 0.0
1.1009761882808678e7 3.078842649708288e6 0.0
0.0 0.0 0.0

-5.686542208316647e6 1.1851935972431095e7 0.0
1.1851935972431095e7 2.6736849351450545e6 0.0
0.0 0.0 0.0

-1.0102947220005412e7 -2.2269812295634844e6 0.0
-2.2269812295634844e6 1.6804834257287562e7 0.0
0.0 0.0 0.0

1.2304265272629135e6 9.099805072850341e6 0.0
9.099805072850341e6 -8.790416186073696e6 0.0
0.0 0.0 0.0

-1.0928668829854092e7 4.83875139744443e6 0.0
4.83875139744443e6 1.3744107759367747e7 0.0
0.0 0.0 0.0

-1.199102494267089e6 1.1080254810081389e7 0.0
1.1080254810081389e7 -208385.01311909492 0.0
0.0 0.0 0.0

-6.991523800775539e6 1.210690683053068e7 0.0
1.210690683053068e7 2.7266296171766967e6 0.0
0.0 0.0 0.0

-7.884877509240999e6 9.634074275324257e6 0.0
9.634074275324257e6 3.6995414847793593e6 0.0
0.0 0.0 0.0

-6.536448147967454e6 5.168899650601751e6 0.0
5.168899650601751e6 9.915333043616002e6 0.0
0.0 0.0 0.0

-963550.5334969771 8.068254928954966e6 0.0
8.068254928954966e6 -5.709180360271214e6 0.0
0.0 0.0 0.0

-15822.507769055737 9.888388557324834e6 0.0
9.888388557324834e6 346318.70800466626 0.0
0.0 0.0 0.0

1.7863730669232248e6 7.076795731292496e6 0.0
7.076795731292496e6 -8.259277092136687e6 0.0
0.0 0.0 0.0

37829.72952261916 6.56383734821972e6 0.0
6.56383734821972e6 -4.279152254771009e6 0.0
0.0 0.0 0.0

-9.86392632818016e6 3.0573064366185544e6 0.0
3.0573064366185544e6 1.3939982185606537e7 0.0
0.0 0.0 0.0

-3.1744802729542097e6 1.0831254159855096e7 0.0
1.0831254159855096e7 2.1493481023399057e6 0.0
0.0 0.0 0.0

-1.256768061627657e7 7.934264081939982e6 0.0
7.934264081939982e6 3.143269258977144e6 0.0
0.0 0.0 0.0

334586.77563069295 9.384245536556266e6 0.0
9.384245536556266e6 -6.771737302274123e6 0.0
0.0 0.0 0.0

1.230964289419192e6 8.035578441392111e6 0.0
8.035578441392111e6 -7.8918059447225295e6 0.0
0.0 0.0 0.0

1.2508429834709931e6 9.0255749524585e6 0.0
9.0255749524585e6 -8.591795298320847e6 0.0
0.0 0.0 0.0

3.610375356890623e6 2.318831966883558e6 0.0
2.318831966883558e6 -5.804775251621114e6 0.0
0.0 0.0 0.0

-2.70538493784029e6 1.008166650641342e7 0.0
1.008166650641342e7 -1.6671287442407194e6 0.0
0.0 0.0 0.0

-936566.4634339787 1.193677036370794e7 0.0
1.193677036370794e7 -3.455857368715545e6 0.0
0.0 0.0 0.0

-1.4601971168340508e7 9.901712308240764e6 0.0
9.901712308240764e6 1.0350225302873561e7 0.0
0.0 0.0 0.0

1.1572395320214874e6 2.5774116532887816e6 0.0
2.5774116532887816e6 -3.3276787329187393e6 0.0
0.0 0.0 0.0

152887.5686488503 1.0163544024528299e7 0.0
1.0163544024528299e7 -5.679183787232078e6 0.0
0.0 0.0 0.0

-5.286459106545192e6 7.293658099460105e6 0.0
7.293658099460105e6 7.310251731021253e6 0.0
0.0 0.0 0.0

-1.6643589639746526e6 2.701670526036723e6 0.0
2.701670526036723e6 1.295744951160627e6 0.0
0.0 0.0 0.0

1.8856532253062571e6 6.457349984410144e6 0.0
6.457349984410144e6 -7.592546631397559e6 0.0
0.0 0.0 0.0

-2.0171504854697294e6 3.0731096954597184e6 0.0
3.0731096954597184e6 1.5187906229347414e6 0.0
0.0 0.0 0.0

-4.4454060281842975e6 1.2811618348346076e6 0.0
1.2811618348346076e6 6.674964792753741e6 0.0
0.0 0.0 0.0

-1.8064391944959508e6 6.611185793393207e6 0.0
6.611185793393207e6 121975.87068947032 0.0
0.0 0.0 0.0

-3.772036446163195e6 1.099867487517742e7 0.0
1.099867487517742e7 2.9379905706381667e6 0.0
0.0 0.0 0.0

-1.1576077892457738e6 5.365996279696392e6 0.0
5.365996279696392e6 -1.215029853314403e6 0.0
0.0 0.0 0.0

6.487390344259818e6 5.423469787896277e6 0.0
5.423469787896277e6 -1.0956803210154753e6 0.0
0.0 0.0 0.0

-7.801935780131806e6 -4.046011254389919e6 0.0
-4.046011254389919e6 5.267034890430191e6 0.0
0.0 0.0 0.0

205317.45294122142 7.28380097439694e6 0.0
7.28380097439694e6 -4.735500931645442e6 0.0
0.0 0.0 0.0

1.6458955534673673e6 7.856557105801907e6 0.0
7.856557105801907e6 -7.616632573088124e6 0.0
0.0 0.0 0.0

1.9036654892850686e6 7.35301557930001e6 0.0
7.35301557930001e6 -7.736035154087134e6 0.0
0.0 0.0 0.0

425962.02760704124 1.4983913728888922e6 0.0
1.4983913728888922e6 533401.6808505527 0.0
0.0 0.0 0.0

-2.0069000591964824e6 -5708.056934068405 0.0
-5708.056934068405 1.7744115691422187e6 0.0
0.0 0.0 0.0

-111457.68689967599 9.383262324721426e6 0.0
9.383262324721426e6 -7.078637013067403e6 0.0
0.0 0.0 0.0

2.156536965019865e6 6.736265431441357e6 0.0
6.736265431441357e6 -8.49021529115231e6 0.0
0.0 0.0 0.0

-1.1450871105348276e7 1.1093505036618825e7 0.0
1.1093505036618825e7 3.5272379427733887e6 0.0
0.0 0.0 0.0

-4.977512027181545e6 8.824777751103895e6 0.0
8.824777751103895e6 3.774430564289961e6 0.0
0.0 0.0 0.0

-5.438732628707615e6 1.1722390608930351e7 0.0
1.1722390608930351e7 1.510453816463797e6 0.0
0.0 0.0 0.0

-352404.5817837698 9.808441350860244e6 0.0
9.808441350860244e6 854387.3995222857 0.0
0.0 0.0 0.0

1.198633631415524e6 6.711818388537667e6 0.0
6.711818388537667e6 3.4630286471631685e6 0.0
0.0 0.0 0.0

-8.518214645708656e6 9.969439011889305e6 0.0
9.969439011889305e6 4.735671149694765e6 0.0
0.0 0.0 0.0

-9.763147034392605e6 428496.7725572184 0.0
428496.7725572184 1.3881961046656344e7 0.0
0.0 0.0 0.0

-4.032271042966183e6 1.1060019071938975e7 0.0
1.1060019071938975e7 2.683899077500115e6 0.0
0.0 0.0 0.0

-536591.5209799245 1.1992787712863352e7 0.0
1.1992787712863352e7 -3.7377547429712988e6 0.0
0.0 0.0 0.0

-5.171725669328058e6 7.742106866680987e6 0.0
7.742106866680987e6 6.720815124114156e6 0.0
0.0 0.0 0.0

-1.3915495105279423e6 2.198698829165472e6 0.0
2.198698829165472e6 1.5746186255751015e6 0.0
0.0 0.0 0.0

-6.502275247054281e6 1.1445977936120655e7 0.0
1.1445977936120655e7 2.4663761930268924e6 0.0
0.0 0.0 0.0

1.101833155411426e6 7.992892694913693e6 0.0
7.992892694913693e6 -7.472863047692748e6 0.0
0.0 0.0 0.0

-4.0304268415473737e6 1.2787483690859482e7 0.0
1.2787483690859482e7 -182340.90500632022 0.0
0.0 0.0 0.0

2.2117540831799847e6 6.967581538543233e6 0.0
6.967581538543233e6 -8.091679923279704e6 0.0
0.0 0.0 0.0

-976802.7243700271 1.0101639502005484e7 0.0
1.0101639502005484e7 2.624559306648865e6 0.0
0.0 0.0 0.0

-3.4975299024309306e6 1.0110267970656754e7 0.0
1.0110267970656754e7 -1.195452213088308e6 0.0
0.0 0.0 0.0

-1.0573140214572267e6 4.670122282766666e6 0.0
4.670122282766666e6 -711428.2023663351 0.0
0.0 0.0 0.0

-125674.10872944654 7.815033454164928e6 0.0
7.815033454164928e6 -5.106535804918835e6 0.0
0.0 0.0 0.0

2.5313623733499916e6 6.511660558107705e6 0.0
6.511660558107705e6 -8.143892017759144e6 0.0
0.0 0.0 0.0

-1.233363680451111e6 1.4596328107771304e7 0.0
1.4596328107771304e7 -4.379203652624621e6 0.0
0.0 0.0 0.0

244397.78958855057 6.897680020358232e6 0.0
6.897680020358232e6 -4.606455585403827e6 0.0
0.0 0.0 0.0

-1.7929069762702244e6 4.764741771482028e6 0.0
4.764741771482028e6 350488.80176903016 0.0
0.0 0.0 0.0

-6.385071422244382e6 1.0585956261688612e7 0.0
1.0585956261688612e7 3.940758309752184e6 0.0
0.0 0.0 0.0

1.187499402748025e6 8.927146974019445e6 0.0
8.927146974019445e6 -8.311751783578283e6 0.0
0.0 0.0 0.0

-1.7545145562230265e6 7.950398138650813e6 0.0
7.950398138650813e6 -5.848381819155658e6 0.0
0.0 0.0 0.0

-108.57718937324113 9.524274222458847e6 0.0
9.524274222458847e6 -361.93312623038827 0.0
0.0 0.0 0.0

-1.425264957703503e6 5.535905540767259e6 0.0
5.535905540767259e6 -825577.9729158878 0.0
0.0 0.0 0.0

-2.8225617071993975e6 6.836419238426741e6 0.0
6.836419238426741e6 483093.39296601084 0.0
0.0 0.0 0.0

-1.04190205830631e6 1.0408855514396915e7 0.0
1.0408855514396915e7 1.9945644457577914e6 0.0
0.0 0.0 0.0

-1.0985141750972648e6 2.9821080774649107e6 0.0
2.9821080774649107e6 1.0234541474553794e6 0.0
0.0 0.0 0.0

800193.2797630812 8.59435603151207e6 0.0
8.59435603151207e6 -1.352076630161161e6 0.0
0.0 0.0 0.0

-5.030155096513418e6 9.837551414640965e6 0.0
9.837551414640965e6 3.6602943838132145e6 0.0
0.0 0.0 0.0

511033.19478004123 7.365074495118637e6 0.0
7.365074495118637e6 -4.608652576042526e6 0.0
0.0 0.0 0.0

-1.9346992455397975e6 2.7936561179921683e6 0.0
2.7936561179921683e6 1.1631471331123947e6 0.0
0.0 0.0 0.0

-3.124302786376401e6 1.153961455006153e7 0.0
1.153961455006153e7 1.0080412074623401e6 0.0
0.0 0.0 0.0

-5.48088185885663e6 7.70795668659422e6 0.0
7.70795668659422e6 5.691218192602887e6 0.0
0.0 0.0 0.0

-1.308424801078243e6 1.0615727354333423e7 0.0
1.0615727354333423e7 1.5080528695007917e6 0.0
0.0 0.0 0.0

-2.4567113271234306e6 3.5087939992467826e6 0.0
3.5087939992467826e6 2.1838437962977244e6 0.0
0.0 0.0 0.0

-1.689434262884118e6 1.1837737393646779e7 0.0
1.1837737393646779e7 -3.3641728422766216e6 0.0
0.0 0.0 0.0

-5.8585698740246985e6 1.0872830594120437e7 0.0
1.0872830594120437e7 4.005440922892898e6 0.0
0.0 0.0 0.0

-9.70316987503573e6 2.28330410488593e6 0.0
2.28330410488593e6 1.31723472418694e7 0.0
0.0 0.0 0.0

-2.319596791644362e6 6.938698782395198e6 0.0
6.938698782395198e6 199961.1722585057 0.0
0.0 0.0 0.0

-8.847488597150557e6 -540378.1719223252 0.0
-540378.1719223252 1.0313844703067143e7 0.0
0.0 0.0 0.0

-1.152044064738904e6 9.932678318510808e6 0.0
9.932678318510808e6 -4.479462907631048e6 0.0
0.0 0.0 0.0

-4.40896114625317e6 1.1026088797679663e7 0.0
1.1026088797679663e7 3.082617564151367e6 0.0
0.0 0.0 0.0

-1.298419372393507e6 1.1225201283224644e7 0.0
1.1225201283224644e7 -222387.39026970137 0.0
0.0 0.0 0.0

393704.4593064517 6.497267245021991e6 0.0
6.497267245021991e6 -4.653625713293341e6 0.0
0.0 0.0 0.0

-1.5264647108515266e6 1.457255491429943e6 0.0
1.457255491429943e6 1.5862830382741387e6 0.0
0.0 0.0 0.0

-1.0742178165445447e7 7.729671250477467e6 0.0
7.729671250477467e6 1.3817114294135433e7 0.0
0.0 0.0 0.0

-1.0029581600801313e7 4.0068571137594157e6 0.0
4.0068571137594157e6 1.5074483572487373e7 0.0
0.0 0.0 0.0

-2.7459496076595895e6 8.240547946611177e6 0.0
8.240547946611177e6 2.164878723597645e6 0.0
0.0 0.0 0.0

-2.6361814652183196e6 3.0973153466490163e6 0.0
3.0973153466490163e6 1.6333663924329411e6 0.0
0.0 0.0 0.0

-2.390493152689061e6 6.756702594306108e6 0.0
6.756702594306108e6 552912.3484923096 0.0
0.0 0.0 0.0

-3.007764088164809e6 8.923557886281999e6 0.0
8.923557886281999e6 -661863.2841814 0.0
0.0 0.0 0.0

-1.6533808426241623e6 8.25482257687828e6 0.0
8.25482257687828e6 -3.278117613138127e6 0.0
0.0 0.0 0.0

-3.754619127572761e6 1.0866857631750407e7 0.0
1.0866857631750407e7 3.135825718394633e6 0.0
0.0 0.0 0.0

-7.948791416163692e6 1.1367871192565445e7 0.0
1.1367871192565445e7 5.307535714865422e6 0.0
0.0 0.0 0.0

-8.798757618789144e6 3.3985999063777216e6 0.0
3.3985999063777216e6 1.09036130863286e7 0.0
0.0 0.0 0.0

-121135.30406638538 1.0745551477829786e7 0.0
1.0745551477829786e7 1.8452897469107388e6 0.0
0.0 0.0 0.0

775105.4969957552 1.0207934956369018e7 0.0
1.0207934956369018e7 -5.048883566814063e6 0.0
0.0 0.0 0.0

643894.0662648098 8.031564310249094e6 0.0
8.031564310249094e6 -5.777096484721915e6 0.0
0.0 0.0 0.0

2.8354176082560504e6 6.126009309790147e6 0.0
6.126009309790147e6 -8.685839715702998e6 0.0
0.0 0.0 0.0

-4.963147010083473e6 -565526.7201970528 0.0
-565526.7201970528 6.410765441495549e6 0.0
0.0 0.0 0.0

-4.0649477712973393e6 1.0729163473040245e7 0.0
1.0729163473040245e7 2.9947793074124465e6 0.0
0.0 0.0 0.0

-8.489247169639058e6 5.8517448948126e6 0.0
5.8517448948126e6 1.218155757241079e7 0.0
0.0 0.0 0.0

-1.1724396352221528e7 1.0555939261095548e7 0.0
1.0555939261095548e7 2.2656983335980672e7 0.0
0.0 0.0 0.0

-1.6415568768790688e6 7.925791728476688e6 0.0
7.925791728476688e6 -3.1416413254326764e6 0.0
0.0 0.0 0.0

364882.36179940007 1.0040941749487309e7 0.0
1.0040941749487309e7 1.2162748275596867e6 0.0
0.0 0.0 0.0

-1.4211100607017884e6 2.5866468296282883e6 0.0
2.5866468296282883e6 756919.6196389279 0.0
0.0 0.0 0.0

-7.625093598913861e6 -2.2742768447743948e6 0.0
-2.2742768447743948e6 2.697600382250548e6 0.0
0.0 0.0 0.0

942138.8110216903 7.739018509993197e6 0.0
7.739018509993197e6 -6.849552659993228e6 0.0
0.0 0.0 0.0

-1.6548706780131375e6 4.138290445615293e6 0.0
4.138290445615293e6 498701.53438318265 0.0
0.0 0.0 0.0

1.0513999748589685e6 8.203585263527634e6 0.0
8.203585263527634e6 -7.553887435671658e6 0.0
0.0 0.0 0.0

-7.104193993809678e6 6.312609675628129e6 0.0
6.312609675628129e6 1.0451353686741857e7 0.0
0.0 0.0 0.0

1.2298474689655476e6 5.587384511720814e6 0.0
5.587384511720814e6 -5.322322414382307e6 0.0
0.0 0.0 0.0

-2.8862818524186197e6 1.4848499461909028e7 0.0
1.4848499461909028e7 -3.087954746608194e6 0.0
0.0 0.0 0.0

-1.388479618331885e6 6.192538277107665e6 0.0
6.192538277107665e6 -1.1349732338195993e6 0.0
0.0 0.0 0.0

889330.819593962 3.6089474888986005e6 0.0
3.6089474888986005e6 -3.4908880318070743e6 0.0
0.0 0.0 0.0

8.947865976048037e6 5.734570177111715e6 0.0
5.734570177111715e6 -1.964750252345515e6 0.0
0.0 0.0 0.0

-8.393934442065394e6 7.47325597886677e6 0.0
7.47325597886677e6 8.985539329590758e6 0.0
0.0 0.0 0.0

-602781.7169657715 5.62117300327676e6 0.0
5.62117300327676e6 -3.163802926220126e6 0.0
0.0 0.0 0.0

-9.080030924062908e6 447265.41772816784 0.0
447265.41772816784 1.0010612581269085e7 0.0
0.0 0.0 0.0

2.2469583344939062e6 3.160064640488523e6 0.0
3.160064640488523e6 -5.630926998590232e6 0.0
0.0 0.0 0.0

-2.4389704705468137e6 1.1444081493256515e7 0.0
1.1444081493256515e7 436273.00960717385 0.0
0.0 0.0 0.0

-4.719644336963693e6 9.17286375374014e6 0.0
9.17286375374014e6 4.385059117639395e6 0.0
0.0 0.0 0.0

-1.7190787321679639e6 5.100463314726865e6 0.0
5.100463314726865e6 782119.4598798179 0.0
0.0 0.0 0.0

1.1896248732660841e6 7.278336342738285e6 0.0
7.278336342738285e6 -7.00886026663224e6 0.0
0.0 0.0 0.0

-30293.671927941497 9.510022312240897e6 0.0
9.510022312240897e6 -7.500225730819158e6 0.0
0.0 0.0 0.0

-1.1366415041754763e6 3.698207511276754e6 0.0
3.698207511276754e6 -1.3768853891956205e6 0.0
0.0 0.0 0.0

466338.860050244 5.3770293456191365e6 0.0
5.3770293456191365e6 -4.720494287975742e6 0.0
0.0 0.0 0.0

-2.5157263083534827e6 9.112269858356653e6 0.0
9.112269858356653e6 -2.4893585457497835e6 0.0
0.0 0.0 0.0

4.904344463525107e6 9.322734294088284e6 0.0
9.322734294088284e6 -4.220094266052735e6 0.0
0.0 0.0 0.0

2.7158435958488365e6 6.798914550600582e6 0.0
6.798914550600582e6 -8.627413601123866e6 0.0
0.0 0.0 0.0

-1.7961891510080807e6 -767189.5522436681 0.0
-767189.5522436681 398060.8450953434 0.0
0.0 0.0 0.0

-4.681398554800078e6 8.10324154018698e6 0.0
8.10324154018698e6 5.346095594737319e6 0.0
0.0 0.0 0.0

-786077.8646590901 4.062293042421981e6 0.0
4.062293042421981e6 -1.5394900644171122e6 0.0
0.0 0.0 0.0

-1.9064372608675435e6 4.697212714288178e6 0.0
4.697212714288178e6 1.1915713293657885e6 0.0
0.0 0.0 0.0

2.798498498714501e6 7.028395894788959e6 0.0
7.028395894788959e6 -9.297890817727942e6 0.0
0.0 0.0 0.0

660088.6120255766 1.0978969446720578e7 0.0
1.0978969446720578e7 2.2002954516627127e6 0.0
0.0 0.0 0.0

-1.3612585114933648e6 9.338401497567693e6 0.0
9.338401497567693e6 4.566223739105158e6 0.0
0.0 0.0 0.0

-514210.0504542955 9.125964147176772e6 0.0
9.125964147176772e6 -6.6160082392891245e6 0.0
0.0 0.0 0.0

-1.3682863653288675e6 7.419420065704738e6 0.0
7.419420065704738e6 -3.085402070565188e6 0.0
0.0 0.0 0.0

-4.734288428926714e6 9.676140155737571e6 0.0
9.676140155737571e6 4.304293186902611e6 0.0
0.0 0.0 0.0

2.858445824991444e6 1.0330009459058905e7 0.0
1.0330009459058905e7 -3.9393742200897937e6 0.0
0.0 0.0 0.0

703811.282829863 8.118878991839201e6 0.0
8.118878991839201e6 -6.6856554994385475e6 0.0
0.0 0.0 0.0

-7.391058299927706e6 1.2452586746031871e7 0.0
1.2452586746031871e7 2.9352671282324307e6 0.0
0.0 0.0 0.0

-313079.54162403644 7.398644203436057e6 0.0
7.398644203436057e6 -1.37045585156589e6 0.0
0.0 0.0 0.0

-2.0679909464471065e7 -4.795060810991938e6 0.0
-4.795060810991938e6 9.678055089634053e6 0.0
0.0 0.0 0.0

1.521448393172476e7 6.606045328359335e6 0.0
6.606045328359335e6 -4.2016573959222855e6 0.0
0.0 0.0 0.0

46147.95678768429 8.191977911579854e6 0.0
8.191977911579854e6 845063.770145134 0.0
0.0 0.0 0.0

-8.048474274095589e6 -1.260223384479829e6 0.0
-1.260223384479829e6 1.5273800327112637e7 0.0
0.0 0.0 0.0

-1.0343987099273609e6 1.0521531643925045e7 0.0
1.0521531643925045e7 1.407348204894361e6 0.0
0.0 0.0 0.0

-4.418133167111798e6 1.2463119909090485e7 0.0
1.2463119909090485e7 -939822.3343025018 0.0
0.0 0.0 0.0

578098.8020928522 1.0420625990209926e7 0.0
1.0420625990209926e7 1.9269966040813546e6 0.0
0.0 0.0 0.0

-1.447001762875605e6 5.007246909752441e6 0.0
5.007246909752441e6 512166.6917081396 0.0
0.0 0.0 0.0

-4.533482315585082e6 8.937313304773545e6 0.0
8.937313304773545e6 2.729173503077323e6 0.0
0.0 0.0 0.0

-2.015987998409285e7 1.0118913450039832e7 0.0
1.0118913450039832e7 6.605510358896488e6 0.0
0.0 0.0 0.0

1.27440620970944e6 5.875420242519089e6 0.0
5.875420242519089e6 -6.249272686751442e6 0.0
0.0 0.0 0.0

-1.528635289446132e6 1.1317675379262285e7 0.0
1.1317675379262285e7 -51239.415582476766 0.0
0.0 0.0 0.0

-78313.07917173544 1.0956794931635808e7 0.0
1.0956794931635808e7 2.291925718152139e6 0.0
0.0 0.0 0.0

-1.855971611269257e6 8.523580881433886e6 0.0
8.523580881433886e6 -6.186571967562875e6 0.0
0.0 0.0 0.0

265455.2618163183 9.76610243116644e6 0.0
9.76610243116644e6 884851.0372046499 0.0
0.0 0.0 0.0

1.193952138038856e6 8.938864459956644e6 0.0
8.938864459956644e6 -8.156560012587727e6 0.0
0.0 0.0 0.0

-1.418224297494213e6 2.9171740725518293e6 0.0
2.9171740725518293e6 1.165095052343573e6 0.0
0.0 0.0 0.0

-8.533503988095857e6 9.071348286560968e6 0.0
9.071348286560968e6 5.896176216671477e6 0.0
0.0 0.0 0.0

120191.3554379791 6.583958773020487e6 0.0
6.583958773020487e6 -4.528018042895788e6 0.0
0.0 0.0 0.0

-7.612533349589638e6 7.595422542038549e6 0.0
7.595422542038549e6 8.131983334894509e6 0.0
0.0 0.0 0.0

-1.280913505014452e6 4.643366958972445e6 0.0
4.643366958972445e6 -448055.0756030236 0.0
0.0 0.0 0.0

-7.606560677931409e6 1.1194129301480975e7 0.0
1.1194129301480975e7 5.097834825637185e6 0.0
0.0 0.0 0.0

-1.232636151209699e7 9.999325935517743e6 0.0
9.999325935517743e6 7.955509817756215e6 0.0
0.0 0.0 0.0

-981186.6893329218 -1.233302642295796e6 0.0
-1.233302642295796e6 1.2009844715671742e6 0.0
0.0 0.0 0.0

-668606.0328572679 8.09494161468671e6 0.0
8.09494161468671e6 -5.570264630142574e6 0.0
0.0 0.0 0.0

-3.6515395230173897e6 1.1881816163761685e7 0.0
1.1881816163761685e7 -575891.5550032059 0.0
0.0 0.0 0.0

-1.079846861616173e6 3.3630592701411624e6 0.0
3.3630592701411624e6 -1.239886282784243e6 0.0
0.0 0.0 0.0

-3.9971799719063574e6 1.4832605355368527e7 0.0
1.4832605355368527e7 -2.062253100456497e6 0.0
0.0 0.0 0.0

-1.575809695968049e6 4.622483524458585e6 0.0
4.622483524458585e6 -28753.92271951941 0.0
0.0 0.0 0.0

1.9108117543815016e6 6.213447550642084e6 0.0
6.213447550642084e6 -7.471044388027698e6 0.0
0.0 0.0 0.0

1.408575855517319e6 6.2884728432547115e6 0.0
6.2884728432547115e6 -6.7005141911712205e6 0.0
0.0 0.0 0.0

-1.1396371346603986e6 7.380309220211241e6 0.0
7.380309220211241e6 -3.6333851256926223e6 0.0
0.0 0.0 0.0

-2.0056206977442922e6 1.1615161270734156e7 0.0
1.1615161270734156e7 -3.0870026035240446e6 0.0
0.0 0.0 0.0

2.927344367377652e6 6.899420427883777e6 0.0
6.899420427883777e6 -9.57931695895961e6 0.0
0.0 0.0 0.0

-4.421627716802742e6 1.0195200285519175e7 0.0
1.0195200285519175e7 2.524669423315945e6 0.0
0.0 0.0 0.0

-407078.5010881438 9.38150697605323e6 0.0
9.38150697605323e6 -5.409076143403829e6 0.0
0.0 0.0 0.0

-5.795987619644603e6 6.298762695217679e6 0.0
6.298762695217679e6 6.078948640567036e6 0.0
0.0 0.0 0.0

-4.707240849850554e6 1.1389403184626084e7 0.0
1.1389403184626084e7 2.458907607187026e6 0.0
0.0 0.0 0.0

1.0786134904594398e6 7.972034126631095e6 0.0
7.972034126631095e6 -6.4558378168260455e6 0.0
0.0 0.0 0.0

-1.4475218236654192e7 2.439882411315271e6 0.0
2.439882411315271e6 9.083460430589434e6 0.0
0.0 0.0 0.0

2.182056514054341e6 6.110869851375033e6 0.0
6.110869851375033e6 -7.783801350687066e6 0.0
0.0 0.0 0.0

1.8231070336193675e6 6.337784903688399e6 0.0
6.337784903688399e6 -6.598097261941096e6 0.0
0.0 0.0 0.0

-1.946128361499878e6 1.0344889045585653e7 0.0
1.0344889045585653e7 -2.94406874188698e6 0.0
0.0 0.0 0.0

-5.287932474299272e6 -1.2828448385523506e6 0.0
-1.2828448385523506e6 1.7443582750509018e6 0.0
0.0 0.0 0.0

-356163.52827153704 6.5229261539993035e6 0.0
6.5229261539993035e6 -3.67845653171379e6 0.0
0.0 0.0 0.0

-8.577651682288907e6 6.193386025310432e6 0.0
6.193386025310432e6 1.4040162190280974e7 0.0
0.0 0.0 0.0

-6.879391729350928e6 1.097968329451469e7 0.0
1.097968329451469e7 4.607896488453805e6 0.0
0.0 0.0 0.0

-8.007426486925604e6 1.1207866271996466e7 0.0
1.1207866271996466e7 5.358425625903649e6 0.0
0.0 0.0 0.0

-1.8578084185104312e6 5.162976242700356e6 0.0
5.162976242700356e6 268654.1830240025 0.0
0.0 0.0 0.0

-1.096885812033036e7 6.420835615962012e6 0.0
6.420835615962012e6 2.273428036969932e7 0.0
0.0 0.0 0.0

-6.919186878459525e6 1.1156911342653632e7 0.0
1.1156911342653632e7 4.610153855751117e6 0.0
0.0 0.0 0.0

-1.806152378981902e6 1.1236859435717177e7 0.0
1.1236859435717177e7 -18515.220703697298 0.0
0.0 0.0 0.0

965053.5508632374 9.395421388687674e6 0.0
9.395421388687674e6 -4.573835318673616e6 0.0
0.0 0.0 0.0

3.9601622993360297e6 9.388322275254257e6 0.0
9.388322275254257e6 2.6215256685244553e6 0.0
0.0 0.0 0.0

-1.731528226744812e6 5.460424246555954e6 0.0
5.460424246555954e6 697479.4286468226 0.0
0.0 0.0 0.0

2.34142061375571e6 6.079945592590254e6 0.0
6.079945592590254e6 -7.260172142161832e6 0.0
0.0 0.0 0.0

-2.2787968079459127e6 9.36413395637219e6 0.0
9.36413395637219e6 -2.090366922846945e6 0.0
0.0 0.0 0.0

-1.9220870052524668e6 6.371478400016457e6 0.0
6.371478400016457e6 -346448.31633356935 0.0
0.0 0.0 0.0

-8.710124024429463e6 2.601492929591054e6 0.0
2.601492929591054e6 5.604600439105218e6 0.0
0.0 0.0 0.0

-3.0857409062973405e6 548585.541491617 0.0
548585.541491617 5.490782997121127e6 0.0
0.0 0.0 0.0

-2.8366334949478965e7 1.744849636318403e7 0.0
1.744849636318403e7 2.321433379000442e6 0.0
0.0 0.0 0.0

-1.9517959117157985e6 9.284644553996492e6 0.0
9.284644553996492e6 -6.505986246465535e6 0.0
0.0 0.0 0.0

580546.5706128527 1.0666054652338332e7 0.0
1.0666054652338332e7 1.9351557673522595e6 0.0
0.0 0.0 0.0

25293.70885783201 9.135135292898605e6 0.0
9.135135292898605e6 -6.112007726032738e6 0.0
0.0 0.0 0.0

-9.782615600494143e6 7.067024971913917e6 0.0
7.067024971913917e6 6.211793359386843e6 0.0
0.0 0.0 0.0

81213.4087816705 6.564041249468086e6 0.0
6.564041249468086e6 -4.55975153133169e6 0.0
0.0 0.0 0.0

1.3153466544474498e6 7.54847764036034e6 0.0
7.54847764036034e6 -6.551332113419311e6 0.0
0.0 0.0 0.0

-4.69745118960102e6 8.87962552303998e6 0.0
8.87962552303998e6 4.698949182004635e6 0.0
0.0 0.0 0.0

485770.83590825135 8.259766155175537e6 0.0
8.259766155175537e6 -6.381089123541724e6 0.0
0.0 0.0 0.0

-7.237893251762193e6 1.1079078082170347e7 0.0
1.1079078082170347e7 4.8807518461928405e6 0.0
0.0 0.0 0.0

-6.378190284456544e6 1.5075951174486273e6 0.0
1.5075951174486273e6 6.784988452911341e6 0.0
0.0 0.0 0.0

-1.1483266973084612e6 2.572223367988199e6 0.0
2.572223367988199e6 1.3451800885426167e6 0.0
0.0 0.0 0.0

1.1973548265648363e6 7.015733668572699e6 0.0
7.015733668572699e6 -6.822154872434685e6 0.0
0.0 0.0 0.0

-5.509265167435026e6 1.1471806034406532e7 0.0
1.1471806034406532e7 1.7735305134777229e6 0.0
0.0 0.0 0.0

-8.143523033640873e6 1.4917472783945415e7 0.0
1.4917472783945415e7 1.928887119585115e6 0.0
0.0 0.0 0.0

-4.799680560285099e6 7.233018316325672e6 0.0
7.233018316325672e6 5.561957112906485e6 0.0
0.0 0.0 0.0

1.6368185834869365e6 6.59198019726306e6 0.0
6.59198019726306e6 -7.362399375358049e6 0.0
0.0 0.0 0.0

2.6650372570837555e6 6.972016593504002e6 0.0
6.972016593504002e6 -8.90801714304611e6 0.0
0.0 0.0 0.0

-1.2642105289894786e7 4.6089117359842155e6 0.0
4.6089117359842155e6 1.692934667770544e7 0.0
0.0 0.0 0.0

-3.8318660329676275e6 1.819346318826907e6 0.0
1.819346318826907e6 5.580281715125856e6 0.0
0.0 0.0 0.0

-4.710999380912826e6 1.4497403423457934e7 0.0
1.4497403423457934e7 -1.2743369254961908e6 0.0
0.0 0.0 0.0

-3.852677129262479e6 9.251118554590873e6 0.0
9.251118554590873e6 680122.8969250377 0.0
0.0 0.0 0.0

-6.698367581041746e6 851043.3039815578 0.0
851043.3039815578 9.283444822123624e6 0.0
0.0 0.0 0.0

373970.7410978228 6.220277306836605e6 0.0
6.220277306836605e6 -4.671217161309149e6 0.0
0.0 0.0 0.0

-4.28305771401269e6 8.80724783532768e6 0.0
8.80724783532768e6 1.1663081676959402e6 0.0
0.0 0.0 0.0

-6.884994460258662e6 1.0269531569837058e7 0.0
1.0269531569837058e7 1.3685504471829957e6 0.0
0.0 0.0 0.0

-1.8886441252959992e6 6.498000588116291e6 0.0
6.498000588116291e6 -200891.9157031423 0.0
0.0 0.0 0.0

2.0334485090295551e6 6.427095012073451e6 0.0
6.427095012073451e6 -7.107769066902863e6 0.0
0.0 0.0 0.0

246107.27044130745 8.132275983892085e6 0.0
8.132275983892085e6 -5.8941163183262e6 0.0
0.0 0.0 0.0

-738651.3496981013 3.915457864778578e6 0.0
3.915457864778578e6 -810161.6825618683 0.0
0.0 0.0 0.0

-2.5326102724633366e6 4.257340908595589e6 0.0
4.257340908595589e6 2.0537060676368119e6 0.0
0.0 0.0 0.0

1.085683282822851e6 8.94994898777111e6 0.0
8.94994898777111e6 -7.830177459504829e6 0.0
0.0 0.0 0.0

1.8040805260827765e6 6.11295630610264e6 0.0
6.11295630610264e6 -6.432204781265907e6 0.0
0.0 0.0 0.0

-3.967045528017247e6 9.269284199668223e6 0.0
9.269284199668223e6 292111.9534862153 0.0
0.0 0.0 0.0

1.596616899180971e6 7.061091800411035e6 0.0
7.061091800411035e6 -6.6676221739989575e6 0.0
0.0 0.0 0.0

-907085.5683540582 4.446090748241484e6 0.0
4.446090748241484e6 -111152.71085469541 0.0
0.0 0.0 0.0

-2.1803787972007133e6 1.011659695953106e7 0.0
1.011659695953106e7 -7.26792947658446e6 0.0
0.0 0.0 0.0

1.2376918762238757e6 1.1681234503611805e7 0.0
1.1681234503611805e7 4.1256414761301116e6 0.0
0.0 0.0 0.0

901846.6948080594 8.632424009219307e6 0.0
8.632424009219307e6 -2.9516139649054585e6 0.0
0.0 0.0 0.0

-4.959285998311354e6 -3.0781685293947747e6 0.0
-3.0781685293947747e6 3.9041472749385713e6 0.0
0.0 0.0 0.0

-614171.4852534053 3.640626788603925e6 0.0
3.640626788603925e6 -304652.47718175617 0.0
0.0 0.0 0.0

1.3554350093161422e6 1.125981439031117e7 0.0
1.125981439031117e7 4.518114139144079e6 0.0
0.0 0.0 0.0

-344496.92449418287 7.049430427426331e6 0.0
7.049430427426331e6 -1.1483229926857413e6 0.0
0.0 0.0 0.0

-1.1282149765131587e7 7.329049086878755e6 0.0
7.329049086878755e6 2.565860494822683e7 0.0
0.0 0.0 0.0

1.4093908713565343e6 6.800061472819546e6 0.0
6.800061472819546e6 -7.105739961535551e6 0.0
0.0 0.0 0.0

-3.907067930373301e6 1.1867961558985554e7 0.0
1.1867961558985554e7 -1.4368397454913608e6 0.0
0.0 0.0 0.0

-552622.9926432667 9.54522855975434e6 0.0
9.54522855975434e6 -7.0780615512302015e6 0.0
0.0 0.0 0.0

-6.4420149220464295e6 1.0676918341753265e7 0.0
1.0676918341753265e7 4.156849701094726e6 0.0
0.0 0.0 0.0

-3.256719487394983e6 1.0917312374472287e7 0.0
1.0917312374472287e7 1.6720248090418074e6 0.0
0.0 0.0 0.0

-6.418112289206201e6 1.174987834172751e7 0.0
1.174987834172751e7 2.0682217158378316e6 0.0
0.0 0.0 0.0

-1.3755952840678114e6 1.0129670351636766e7 0.0
1.0129670351636766e7 -7.250088665494224e6 0.0
0.0 0.0 0.0

-5.1588550147714345e6 1.4116687800605413e7 0.0
1.4116687800605413e7 -652466.7816895758 0.0
0.0 0.0 0.0

-7.601121460186416e6 6.352936837584672e6 0.0
6.352936837584672e6 8.773984311298907e6 0.0
0.0 0.0 0.0

-72590.27795442403 6.508913021143369e6 0.0
6.508913021143369e6 -4.464564218664713e6 0.0
0.0 0.0 0.0

1.400873982063964e6 6.537346840712837e6 0.0
6.537346840712837e6 -6.908928614323345e6 0.0
0.0 0.0 0.0

-2.959486674153108e6 1.1791898177193271e7 0.0
1.1791898177193271e7 -2.4097409890893777e6 0.0
0.0 0.0 0.0

-1.8815346504395502e6 7.407850138562034e6 0.0
7.407850138562034e6 -1.7721107675574073e6 0.0
0.0 0.0 0.0

1.3140043669936066e6 7.7564852293268265e6 0.0
7.7564852293268265e6 -7.756770984163381e6 0.0
0.0 0.0 0.0

-6.083587702881815e6 1.0304047117327075e7 0.0
1.0304047117327075e7 3.9667583575184457e6 0.0
0.0 0.0 0.0

-2.3001960147589394e6 7.336741472232519e6 0.0
7.336741472232519e6 -298070.1340060892 0.0
0.0 0.0 0.0

-1.5764385885383452e6 8.17707165631877e6 0.0
8.17707165631877e6 -2.7654542502495204e6 0.0
0.0 0.0 0.0

1.3041088901972282e6 8.53831206297728e6 0.0
8.53831206297728e6 -7.49655587123538e6 0.0
0.0 0.0 0.0

-5.538728675588635e6 1.3176360027553419e7 0.0
1.3176360027553419e7 94689.59904062911 0.0
0.0 0.0 0.0

-2.0762359191315912e6 8.851296204051696e6 0.0
8.851296204051696e6 -2.267047447444775e6 0.0
0.0 0.0 0.0

26444.47043182561 7.475735653233154e6 0.0
7.475735653233154e6 -4.458426923378987e6 0.0
0.0 0.0 0.0

5.325496190219839e6 5.734811112318147e6 0.0
5.734811112318147e6 -1.5579078957445621e6 0.0
0.0 0.0 0.0

-3.3963053653354454e6 7.815780967037993e6 0.0
7.815780967037993e6 1.4927409855903815e6 0.0
0.0 0.0 0.0

-1.7373419718667327e6 6.411593574545388e6 0.0
6.411593574545388e6 -49284.517385632615 0.0
0.0 0.0 0.0

-1.4315083813766192e6 1.9173896621075196e6 0.0
1.9173896621075196e6 1.209642235066785e6 0.0
0.0 0.0 0.0

1.640330823294694e6 5.7418968677062495e6 0.0
5.7418968677062495e6 -6.040140937559038e6 0.0
0.0 0.0 0.0

544835.6889485561 6.053374537531052e6 0.0
6.053374537531052e6 -4.562600536612315e6 0.0
0.0 0.0 0.0

1.4674219156183377e6 6.0973977575840615e6 0.0
6.0973977575840615e6 -5.8722165972989015e6 0.0
0.0 0.0 0.0

-261658.86075229244 9.225932507875517e6 0.0
9.225932507875517e6 -6.570025236956011e6 0.0
0.0 0.0 0.0

-5.385867181879224e6 1.3660759009216413e7 0.0
1.3660759009216413e7 -217472.3070289269 0.0
0.0 0.0 0.0

-6.682368650177887e6 6.712747303899181e6 0.0
6.712747303899181e6 7.624180806393889e6 0.0
0.0 0.0 0.0

-3.834191618064446e6 7.891501704573172e6 0.0
7.891501704573172e6 1.404339300767964e6 0.0
0.0 0.0 0.0

1.155106878622468e6 6.311078983657635e6 0.0
6.311078983657635e6 -6.220987295171223e6 0.0
0.0 0.0 0.0

-1.1364706915297215e6 4.719856888172648e6 0.0
4.719856888172648e6 -605560.2037811861 0.0
0.0 0.0 0.0

-5.67954219248729e6 7.235368395385378e6 0.0
7.235368395385378e6 5.973842968826359e6 0.0
0.0 0.0 0.0

-1.3696003324572637e6 1.0564343243457226e7 0.0
1.0564343243457226e7 -3.5244537196238153e6 0.0
0.0 0.0 0.0

1.1424249514210236e6 1.0171900845842859e7 0.0
1.0171900845842859e7 -4.644580189796393e6 0.0
0.0 0.0 0.0

-6.38507245682513e6 1.07421232647277e7 0.0
1.07421232647277e7 4.298414024146469e6 0.0
0.0 0.0 0.0

-58963.84478930128 9.279981632574895e6 0.0
9.279981632574895e6 -5.259631409632355e6 0.0
0.0 0.0 0.0

1.5861142845428213e6 6.539707174672203e6 0.0
6.539707174672203e6 -6.2905557813684335e6 0.0
0.0 0.0 0.0

1.242481957408072e6 6.519981846715028e6 0.0
6.519981846715028e6 -6.445162055161208e6 0.0
0.0 0.0 0.0

385443.8634744291 7.020963496041307e6 0.0
7.020963496041307e6 -4.443668162686402e6 0.0
0.0 0.0 0.0

1.2075594461775422e6 6.75675240493447e6 0.0
6.75675240493447e6 -6.638094817890526e6 0.0
0.0 0.0 0.0

1.055873685598162e6 6.151482237387955e6 0.0
6.151482237387955e6 -5.070008798711112e6 0.0
0.0 0.0 0.0

-1.0099090284338519e7 1.088772022544381e7 0.0
1.088772022544381e7 6.7846251342117265e6 0.0
0.0 0.0 0.0

-5.587059424837734e6 1.489119389811019e7 0.0
1.489119389811019e7 -650569.4040529854 0.0
0.0 0.0 0.0

-3.852693584313682e6 1.0867525731520891e7 0.0
1.0867525731520891e7 2.07341182015791e6 0.0
0.0 0.0 0.0

716593.2958063073 6.4024789628120065e6 0.0
6.4024789628120065e6 -5.474445541548242e6 0.0
0.0 0.0 0.0

-3.0338192610890823e6 8.707096337463273e6 0.0
8.707096337463273e6 -1.0083351964942508e6 0.0
0.0 0.0 0.0

-322495.8425512635 7.119438230703477e6 0.0
7.119438230703477e6 -2.959215035784986e6 0.0
0.0 0.0 0.0

-2.551578392443334e6 1.0859767737045372e7 0.0
1.0859767737045372e7 -8.505263204305276e6 0.0
0.0 0.0 0.0

3.417555455544961e6 1.417400919380725e7 0.0
1.417400919380725e7 1.1391864724978128e7 0.0
0.0 0.0 0.0

2.9149560929946406e6 1.0777983484151164e7 0.0
1.0777983484151164e7 -4.325699013190905e6 0.0
0.0 0.0 0.0

4.593416006160317e6 1.07556676405554e7 0.0
1.07556676405554e7 -7.229365291649085e6 0.0
0.0 0.0 0.0

2.6413691620919127e6 7.472024844618767e6 0.0
7.472024844618767e6 -1.038066223383445e7 0.0
0.0 0.0 0.0

-990275.010728949 9.927683324944023e6 0.0
9.927683324944023e6 -3.936025345931998e6 0.0
0.0 0.0 0.0

-1.1783091291692453e6 1.0718797861885507e7 0.0
1.0718797861885507e7 1.1316557071705835e6 0.0
0.0 0.0 0.0

-8.326432645657929e6 1.0595536533155371e6 0.0
1.0595536533155371e6 9.394833288578983e6 0.0
0.0 0.0 0.0

-8.077102432596393e6 6.082653533795259e6 0.0
6.082653533795259e6 1.1530013939002324e7 0.0
0.0 0.0 0.0

-1.76431210301194e6 1.1128213045145733e7 0.0
1.1128213045145733e7 876476.1120185159 0.0
0.0 0.0 0.0

-1.6424065289491396e6 7.351160705597793e6 0.0
7.351160705597793e6 -1.690137968323592e6 0.0
0.0 0.0 0.0

-8.160591161985539e6 1.0858300898878293e7 0.0
1.0858300898878293e7 4.1907140514790793e6 0.0
0.0 0.0 0.0

-4.8815541649527345e6 9.848957903127879e6 0.0
9.848957903127879e6 4.158533590384528e6 0.0
0.0 0.0 0.0

-2.5357060956021803e6 6.974207410169637e6 0.0
6.974207410169637e6 398047.15013444726 0.0
0.0 0.0 0.0

-4.639530051978455e6 8.773081112808732e6 0.0
8.773081112808732e6 2.3776153048694804e6 0.0
0.0 0.0 0.0

2.4336425733829653e6 7.024851001078789e6 0.0
7.024851001078789e6 -8.3743842197925905e6 0.0
0.0 0.0 0.0

440312.403067935 6.321263602662038e6 0.0
6.321263602662038e6 -4.546096117156601e6 0.0
0.0 0.0 0.0

-2.272426055776648e6 1.0417434272788482e7 0.0
1.0417434272788482e7 -2.6858743391959537e6 0.0
0.0 0.0 0.0

54951.40301457187 8.258285950369747e6 0.0
8.258285950369747e6 -5.628602040021662e6 0.0
0.0 0.0 0.0

-9.848360088026227e6 1.8400054117813476e6 0.0
1.8400054117813476e6 1.3667615856689285e7 0.0
0.0 0.0 0.0

-967914.2951945757 2.5488685680138394e6 0.0
2.5488685680138394e6 -1.430303957479755e6 0.0
0.0 0.0 0.0

-1.1009850178276744e7 924414.4439235277 0.0
924414.4439235277 1.9548655437199518e7 0.0
0.0 0.0 0.0

-2.7684357817995735e6 9.466419034639478e6 0.0
9.466419034639478e6 -2.2380200253189597e6 0.0
0.0 0.0 0.0

-4.2374283644039715e6 1.0885919449491043e7 0.0
1.0885919449491043e7 2.6614683269914705e6 0.0
0.0 0.0 0.0

-2.258095276307556e6 7.05533685378772e6 0.0
7.05533685378772e6 359989.6436642448 0.0
0.0 0.0 0.0

-4.308665479808578e6 1.2845493651251197e7 0.0
1.2845493651251197e7 -1.1107982860174617e6 0.0
0.0 0.0 0.0

-1.470599706072024e6 5.95129770969487e6 0.0
5.95129770969487e6 -640301.1235289776 0.0
0.0 0.0 0.0

-4.92751231362033e6 9.436383364454618e6 0.0
9.436383364454618e6 3.9257540840854594e6 0.0
0.0 0.0 0.0

3.6555990105835004e6 1.3808668746454282e7 0.0
1.3808668746454282e7 -9.347373440403342e6 0.0
0.0 0.0 0.0

-5.184360630066838e6 7.68748389472685e6 0.0
7.68748389472685e6 4.7370998003816465e6 0.0
0.0 0.0 0.0

-143202.5688498971 2.36178419464452e6 0.0
2.36178419464452e6 -1.0808602417249908e6 0.0
0.0 0.0 0.0

-1.0400623142148666e7 -3.185226864661755e6 0.0
-3.185226864661755e6 3.9416075800935645e6 0.0
0.0 0.0 0.0

1.5299848766807555e6 5.973191268607152e6 0.0
5.973191268607152e6 -6.658711311489128e6 0.0
0.0 0.0 0.0

-7.577538120952122e6 1.063229857560695e7 0.0
1.063229857560695e7 5.114166907423979e6 0.0
0.0 0.0 0.0

-1.0976014985767344e6 4.330499450866754e6 0.0
4.330499450866754e6 -855273.7838987998 0.0
0.0 0.0 0.0

-1.6125198405204506e6 5.516934275270443e6 0.0
5.516934275270443e6 -1.4471103074182877e6 0.0
0.0 0.0 0.0

-1.5773054469159287e6 1.9728682017083005e6 0.0
1.9728682017083005e6 1.1239351182313035e6 0.0
0.0 0.0 0.0

-952980.2078173226 1.0776752370154977e7 0.0
1.0776752370154977e7 -4.169039922009881e6 0.0
0.0 0.0 0.0

-1.9043031734300614e6 1.6835302888528793e6 0.0
1.6835302888528793e6 1.1715809775167753e6 0.0
0.0 0.0 0.0

-1.5702397533537508e6 8.474657017428694e6 0.0
8.474657017428694e6 -3.577613509451237e6 0.0
0.0 0.0 0.0

-6.153853307735408e6 7.309844295960416e6 0.0
7.309844295960416e6 6.876751954066917e6 0.0
0.0 0.0 0.0

-1.9810356895659915e6 6.736911168856953e6 0.0
6.736911168856953e6 -84128.47233113332 0.0
0.0 0.0 0.0

-9.085210890221499e6 7.410257164897445e6 0.0
7.410257164897445e6 9.970816126840994e6 0.0
0.0 0.0 0.0

-3.0687895610386455e6 6.562923565361395e6 0.0
6.562923565361395e6 1.807237241531305e6 0.0
0.0 0.0 0.0

-4.582236022190673e6 9.07460501602053e6 0.0
9.07460501602053e6 1.548430351574773e6 0.0
0.0 0.0 0.0

2.1584627704772814e6 7.199068840825251e6 0.0
7.199068840825251e6 -8.140381096231682e6 0.0
0.0 0.0 0.0

-6.659960515276045e6 7.828929472881128e6 0.0
7.828929472881128e6 7.324532510869853e6 0.0
0.0 0.0 0.0

3.404452921815257e6 8.90116129976287e6 0.0
8.90116129976287e6 -2.0789419001717742e6 0.0
0.0 0.0 0.0

-6.143749908191467e6 -483405.2358622013 0.0
-483405.2358622013 6.085670198596322e6 0.0
0.0 0.0 0.0

1.3528853168577598e6 8.304984355575659e6 0.0
8.304984355575659e6 -7.385819495935294e6 0.0
0.0 0.0 0.0

-2.4899011923824283e6 7.21979034643735e6 0.0
7.21979034643735e6 542640.231579544 0.0
0.0 0.0 0.0

-51241.09936907189 6.726671092340253e6 0.0
6.726671092340253e6 -4.419452537491862e6 0.0
0.0 0.0 0.0

-727577.93905427 4.116457258691903e6 0.0
4.116457258691903e6 -487511.87531568 0.0
0.0 0.0 0.0

-1.4453636723558865e6 2.542625814433003e6 0.0
2.542625814433003e6 360332.7386382458 0.0
0.0 0.0 0.0

-681461.7010909835 8.467916274460169e6 0.0
8.467916274460169e6 -4.619795917125177e6 0.0
0.0 0.0 0.0

-1.2218777356100758e6 5.0912580257083075e6 0.0
5.0912580257083075e6 177496.477419363 0.0
0.0 0.0 0.0

-4.44013156588897e6 1.0847828482418412e7 0.0
1.0847828482418412e7 2.5951841142250327e6 0.0
0.0 0.0 0.0

-5.781878310606685e6 7.310741731773346e6 0.0
7.310741731773346e6 6.559444257537645e6 0.0
0.0 0.0 0.0

-24441.740402845317 3.561723432721529e6 0.0
3.561723432721529e6 -2.5944953319015605e6 0.0
0.0 0.0 0.0

-2.547731397816329e6 9.700031658704877e6 0.0
9.700031658704877e6 -1.8688194006462167e6 0.0
0.0 0.0 0.0

544380.858136022 6.719121059332997e6 0.0
6.719121059332997e6 -5.168530307063874e6 0.0
0.0 0.0 0.0

-5.979361556571045e6 1.1822637015545454e7 0.0
1.1822637015545454e7 1.3954128139953944e6 0.0
0.0 0.0 0.0

835625.2159710512 9.992071908698993e6 0.0
9.992071908698993e6 -1.0155765927725464e7 0.0
0.0 0.0 0.0

1.2603209679047528e6 7.077827268164243e6 0.0
7.077827268164243e6 -4.934491973006431e6 0.0
0.0 0.0 0.0

664739.4694465573 6.141131032968735e6 0.0
6.141131032968735e6 -5.30069248268818e6 0.0
0.0 0.0 0.0

-41748.80054833391 9.40676223602887e6 0.0
9.40676223602887e6 -6.41540418019377e6 0.0
0.0 0.0 0.0

-417348.87164357014 3.754228567797745e6 0.0
3.754228567797745e6 -2.0551011214120355e6 0.0
0.0 0.0 0.0

-1.549089157396615e6 1.046071394981075e7 0.0
1.046071394981075e7 -7.87364719943803e6 0.0
0.0 0.0 0.0

1.3019946451490992e6 6.003357721497073e6 0.0
6.003357721497073e6 -4.775504064663229e6 0.0
0.0 0.0 0.0

78469.42294455809 6.838196187711438e6 0.0
6.838196187711438e6 -4.699567334922262e6 0.0
0.0 0.0 0.0

-750636.8304483888 1.068530221916335e7 0.0
1.068530221916335e7 -973217.3866975679 0.0
0.0 0.0 0.0

-1.03414970981475e7 3.8369901482434277e6 0.0
3.8369901482434277e6 1.2380125053426418e7 0.0
0.0 0.0 0.0

-6.691741217746453e6 1.0884186330149027e7 0.0
1.0884186330149027e7 4.0655266817202405e6 0.0
0.0 0.0 0.0

-5.004666103138666e6 344376.0656265014 0.0
344376.0656265014 3.0943663857018985e6 0.0
0.0 0.0 0.0

-170722.68778772466 8.320350930592648e6 0.0
8.320350930592648e6 -5.290035662130317e6 0.0
0.0 0.0 0.0

-1.214322494547586e6 1.0472839316265812e7 0.0
1.0472839316265812e7 1.9389341203893637e6 0.0
0.0 0.0 0.0

-5.62640782985187e6 1.1885573162629912e7 0.0
1.1885573162629912e7 799697.6348132736 0.0
0.0 0.0 0.0

-1.4640525480817992e6 7.163075796753223e6 0.0
7.163075796753223e6 -2.6799989196322924e6 0.0
0.0 0.0 0.0

-4.950021391354609e6 1.2624635975687586e7 0.0
1.2624635975687586e7 -393592.2704620897 0.0
0.0 0.0 0.0

-1.3009340435484762e6 7.660004289288888e6 0.0
7.660004289288888e6 -2.7127265239522485e6 0.0
0.0 0.0 0.0

-353429.03550555673 3.197143712195378e6 0.0
3.197143712195378e6 -901808.5230031274 0.0
0.0 0.0 0.0

-2.70586679500876e6 9.712512701153796e6 0.0
9.712512701153796e6 -2.4004390812125816e6 0.0
0.0 0.0 0.0

-7.659031114492863e6 1.9175417931352835e7 0.0
1.9175417931352835e7 231222.26868314156 0.0
0.0 0.0 0.0

-85983.78280169796 1.2364803484883578e7 0.0
1.2364803484883578e7 -4.20886494585261e6 0.0
0.0 0.0 0.0

-1.1906113262274647e6 1.0256709165449908e7 0.0
1.0256709165449908e7 -3.7280849613432437e6 0.0
0.0 0.0 0.0

-2.190768243179642e6 6.34471291539813e6 0.0
6.34471291539813e6 280762.4788053642 0.0
0.0 0.0 0.0

-2.70551735909835e6 7.418403306777119e6 0.0
7.418403306777119e6 -410766.97072469216 0.0
0.0 0.0 0.0

1.7446708097498901e6 5.731019913635749e6 0.0
5.731019913635749e6 -6.501472987630478e6 0.0
0.0 0.0 0.0

4.613257230938635e6 2.7376715941325882e6 0.0
2.7376715941325882e6 -7.987638392987047e6 0.0
0.0 0.0 0.0

-1.2164055132756243e6 4.247993752421122e6 0.0
4.247993752421122e6 -1.8359408706335083e6 0.0
0.0 0.0 0.0

-3.2446389302481175e6 1.1027506167429844e7 0.0
1.1027506167429844e7 307489.68709555804 0.0
0.0 0.0 0.0

29702.797531540506 6.202593770733309e6 0.0
6.202593770733309e6 -4.52673820461875e6 0.0
0.0 0.0 0.0

-1.990521857683914e6 8.36392688325891e6 0.0
8.36392688325891e6 -2.9594941846054364e6 0.0
0.0 0.0 0.0

-1.0678544975108935e6 1.0835535755510239e7 0.0
1.0835535755510239e7 710001.228867684 0.0
0.0 0.0 0.0

390559.2252916526 8.121202013925142e6 0.0
8.121202013925142e6 -5.412375924437374e6 0.0
0.0 0.0 0.0

-1.1391282711080918e6 5.172347343648237e6 0.0
5.172347343648237e6 32875.00775617309 0.0
0.0 0.0 0.0

-1.3757037611013614e7 7.134106741369902e6 0.0
7.134106741369902e6 5.307636279425674e6 0.0
0.0 0.0 0.0

857524.9065737189 8.125786669237049e6 0.0
8.125786669237049e6 -6.171465947782139e6 0.0
0.0 0.0 0.0

-1.5295978415448926e7 -4.9627325024806615e6 0.0
-4.9627325024806615e6 8.197995479210311e6 0.0
0.0 0.0 0.0

128741.48637014511 6.475574227198954e6 0.0
6.475574227198954e6 -4.56436347238736e6 0.0
0.0 0.0 0.0

-3.35515521932894e6 1.0023705408663735e7 0.0
1.0023705408663735e7 3.866933610678184e6 0.0
0.0 0.0 0.0

1.0064244815802565e6 8.98756081506067e6 0.0
8.98756081506067e6 -7.580453290094711e6 0.0
0.0 0.0 0.0

421995.7114386463 9.375210008335926e6 0.0
9.375210008335926e6 -6.212342143950756e6 0.0
0.0 0.0 0.0

-782837.1626216634 3.7688061996962912e6 0.0
3.7688061996962912e6 -581435.9657431061 0.0
0.0 0.0 0.0

-3.140711487220955e6 3.551264761078654e6 0.0
3.551264761078654e6 2.2696358545776946e6 0.0
0.0 0.0 0.0

-1.8362033392580436e6 6.708966582544607e6 0.0
6.708966582544607e6 -1.368983313098336e6 0.0
0.0 0.0 0.0

-2.158160666586809e6 6.342174277825737e6 0.0
6.342174277825737e6 328127.4145306237 0.0
0.0 0.0 0.0

-5.438507603944847e6 2.0189180911582506e6 0.0
2.0189180911582506e6 5.622922407294704e6 0.0
0.0 0.0 0.0

-1.4739225796060138e6 6.62236684937059e6 0.0
6.62236684937059e6 -1.2479684205344091e6 0.0
0.0 0.0 0.0

-2.446484961239462e6 9.349657961376464e6 0.0
9.349657961376464e6 -2.6473851205220665e6 0.0
0.0 0.0 0.0

-2.6178050718353707e6 9.545317547013616e6 0.0
9.545317547013616e6 -1.7566914420842421e6 0.0
0.0 0.0 0.0

-2.8879604140525293e6 1.0065917215578252e7 0.0
1.0065917215578252e7 -2.273415329020729e6 0.0
0.0 0.0 0.0

-1.2323268736357647e6 8.478160054931913e6 0.0
8.478160054931913e6 -3.9331280003362526e6 0.0
0.0 0.0 0.0

194606.90260032145 7.087508176127085e6 0.0
7.087508176127085e6 -4.373903306316427e6 0.0
0.0 0.0 0.0

750086.8130025722 9.212791463631291e6 0.0
9.212791463631291e6 -4.766831671497372e6 0.0
0.0 0.0 0.0

-2.8012009436664972e6 9.314060698312044e6 0.0
9.314060698312044e6 -2.1333708959828387e6 0.0
0.0 0.0 0.0

-1.4483620064702444e6 7.407499401953357e6 0.0
7.407499401953357e6 -2.3138407487658174e6 0.0
0.0 0.0 0.0

-1.0126261268844169e6 5.111614370411334e6 0.0
5.111614370411334e6 -69586.80892906405 0.0
0.0 0.0 0.0

-948807.0977856019 8.501864659487473e6 0.0
8.501864659487473e6 -4.292403889235297e6 0.0
0.0 0.0 0.0

-2.3358391386008305e6 1.0473606386728931e7 0.0
1.0473606386728931e7 -7.786130232245892e6 0.0
0.0 0.0 0.0

-740160.7490530665 3.8402691778191365e6 0.0
3.8402691778191365e6 -567719.9721350574 0.0
0.0 0.0 0.0

81929.53326084465 6.458789272957889e6 0.0
6.458789272957889e6 -4.550732738917066e6 0.0
0.0 0.0 0.0

205699.34970960114 3.9141430256562997e6 0.0
3.9141430256562997e6 -3.977890313967595e6 0.0
0.0 0.0 0.0

969894.306388217 9.690404692015124e6 0.0
9.690404692015124e6 -9.530605596746098e6 0.0
0.0 0.0 0.0

-2.646294077626016e6 7.12324278068455e6 0.0
7.12324278068455e6 826037.661649981 0.0
0.0 0.0 0.0

167481.9200614062 6.327805025636845e6 0.0
6.327805025636845e6 -4.3234198849507095e6 0.0
0.0 0.0 0.0

-2.288126647601881e6 4.772427896884968e6 0.0
4.772427896884968e6 1.1054434186774963e6 0.0
0.0 0.0 0.0

-7.528049056284171e6 -1.517963959107406e6 0.0
-1.517963959107406e6 1.132957242741024e7 0.0
0.0 0.0 0.0

-425616.19583221746 1.0649501228259379e7 0.0
1.0649501228259379e7 -869448.8901383635 0.0
0.0 0.0 0.0

-109430.74660207352 9.86186144161185e6 0.0
9.86186144161185e6 -949413.200134247 0.0
0.0 0.0 0.0

-4.326165878755586e6 1.103300830372803e7 0.0
1.103300830372803e7 2.615684221223764e6 0.0
0.0 0.0 0.0

-3.912733674158357e6 7.999702594443949e6 0.0
7.999702594443949e6 1.2392443095223373e6 0.0
0.0 0.0 0.0

2.2966785730023384e6 6.339848447397812e6 0.0
6.339848447397812e6 -7.407472249845316e6 0.0
0.0 0.0 0.0

2.307862443951025e6 6.544442900270065e6 0.0
6.544442900270065e6 -7.547910022270176e6 0.0
0.0 0.0 0.0

-3.9005068316672854e6 4.9236357067860495e6 0.0
4.9236357067860495e6 4.319093708558785e6 0.0
0.0 0.0 0.0

-2.1587931973034334e6 8.987957238416735e6 0.0
8.987957238416735e6 -2.904935922210725e6 0.0
0.0 0.0 0.0

2.9394557322972864e6 9.925529561308136e6 0.0
9.925529561308136e6 -4.42743127475936e6 0.0
0.0 0.0 0.0

-1.1834200832559746e7 -2.2569584297487857e6 0.0
-2.2569584297487857e6 1.6477685309378449e7 0.0
0.0 0.0 0.0

-3.3516056168305012e6 7.810592303012314e6 0.0
7.810592303012314e6 1.489661903052451e6 0.0
0.0 0.0 0.0

-2.381570730444338e6 8.349444091666878e6 0.0
8.349444091666878e6 -1.9653483914805301e6 0.0
0.0 0.0 0.0

-1.149944987920438e7 8.396203230131166e6 0.0
8.396203230131166e6 1.731033740460688e7 0.0
0.0 0.0 0.0

713942.063618968 2.0309556926431493e6 0.0
2.0309556926431493e6 -3.1867259659426785e6 0.0
0.0 0.0 0.0

-4.1071009888653103e6 1.0279077481082605e7 0.0
1.0279077481082605e7 -419343.19003536564 0.0
0.0 0.0 0.0

-4.712412726333933e6 9.131900325893853e6 0.0
9.131900325893853e6 5.70366410829413e6 0.0
0.0 0.0 0.0

208023.7194557686 6.47087576728055e6 0.0
6.47087576728055e6 -4.574244590914732e6 0.0
0.0 0.0 0.0

-1.5596202873912922e6 5.875727710569158e6 0.0
5.875727710569158e6 -1.5944738163324324e6 0.0
0.0 0.0 0.0

-9.317163726932429e6 5.903155009509713e6 0.0
5.903155009509713e6 1.3836360250116995e7 0.0
0.0 0.0 0.0

1.6536355675114002e6 7.610055022291152e6 0.0
7.610055022291152e6 -7.528033732103646e6 0.0
0.0 0.0 0.0

-880022.4644058989 1.0163937750220023e7 0.0
1.0163937750220023e7 -4.1365889442955093e6 0.0
0.0 0.0 0.0

-4.343329110393992e6 19791.610896365317 0.0
19791.610896365317 6.031330163269041e6 0.0
0.0 0.0 0.0

1.4152996091684257e6 8.025505428054223e6 0.0
8.025505428054223e6 -7.278171202129653e6 0.0
0.0 0.0 0.0

176670.35938401462 5.703285322219775e6 0.0
5.703285322219775e6 -3.0659310432279124e6 0.0
0.0 0.0 0.0

1.3743528709011716e6 7.283211110362386e6 0.0
7.283211110362386e6 -6.393334287620451e6 0.0
0.0 0.0 0.0

-1.52858706236538e6 7.892965082546691e6 0.0
7.892965082546691e6 -3.1318104048128254e6 0.0
0.0 0.0 0.0

-1.8952604829259717e6 8.602514097002264e6 0.0
8.602514097002264e6 -3.142587001903962e6 0.0
0.0 0.0 0.0

-3.9790123085760637e6 2.1460980834158673e6 0.0
2.1460980834158673e6 4.382955024070129e6 0.0
0.0 0.0 0.0

1.6989821730605816e6 8.639865008195702e6 0.0
8.639865008195702e6 -1.653330863713593e6 0.0
0.0 0.0 0.0

-1.109721953161946e6 4.779465572844661e6 0.0
4.779465572844661e6 -163094.4351282501 0.0
0.0 0.0 0.0

-276663.11705066403 9.40657243550411e6 0.0
9.40657243550411e6 -4.9795521561680455e6 0.0
0.0 0.0 0.0

-323968.0553498805 2.7240537934013796e6 0.0
2.7240537934013796e6 -1.19435864159202e6 0.0
0.0 0.0 0.0

1.1121697122506388e6 3.6318207071912093e6 0.0
3.6318207071912093e6 -3.9866915742728547e6 0.0
0.0 0.0 0.0

-1.9506331673799595e6 8.263191497156713e6 0.0
8.263191497156713e6 -2.8915261321494337e6 0.0
0.0 0.0 0.0

50472.96177884773 5.788430916611582e6 0.0
5.788430916611582e6 -3.9234303227351103e6 0.0
0.0 0.0 0.0

-1.7157486370332646e6 3.1049907828441565e6 0.0
3.1049907828441565e6 830811.8906622137 0.0
0.0 0.0 0.0

2.9344110657552094e6 6.229285773285267e6 0.0
6.229285773285267e6 -9.528992382881489e6 0.0
0.0 0.0 0.0

-516758.59629927913 9.797330329085557e6 0.0
9.797330329085557e6 -1.722528596220007e6 0.0
0.0 0.0 0.0

-2.1766188544140407e6 5.551691355204996e6 0.0
5.551691355204996e6 588773.2433174214 0.0
0.0 0.0 0.0

-4.390668605855357e6 1.0724910562877519e7 0.0
1.0724910562877519e7 1.898390559366855e6 0.0
0.0 0.0 0.0

244096.4632252252 8.496932631454954e6 0.0
8.496932631454954e6 715016.9637286505 0.0
0.0 0.0 0.0

-5.748782492999375e6 7.84584648734174e6 0.0
7.84584648734174e6 6.327242988289799e6 0.0
0.0 0.0 0.0

-4.6970005044806525e6 8.573688218491511e6 0.0
8.573688218491511e6 4.968727188886661e6 0.0
0.0 0.0 0.0

-4.0101488164229626e6 -117592.66887484676 0.0
-117592.66887484676 3.7801991165892654e6 0.0
0.0 0.0 0.0

-1.6750521884745369e6 5.725324804053806e6 0.0
5.725324804053806e6 -465798.08403577865 0.0
0.0 0.0 0.0

-388355.69521684176 1.0903180381300695e7 0.0
1.0903180381300695e7 4.12991530807608e6 0.0
0.0 0.0 0.0

-2.805023104065747e6 1.1102333248248788e7 0.0
1.1102333248248788e7 2.148157251649198e6 0.0
0.0 0.0 0.0

-2.571920827675438e6 3.8777235539256623e6 0.0
3.8777235539256623e6 1.5417891953912624e6 0.0
0.0 0.0 0.0

-218915.32088475837 9.053301570449887e6 0.0
9.053301570449887e6 -5.634088715891271e6 0.0
0.0 0.0 0.0

594083.2826529809 7.298979111184523e6 0.0
7.298979111184523e6 -4.642311684631968e6 0.0
0.0 0.0 0.0

-1.6557891099982131e6 8.865359572696766e6 0.0
8.865359572696766e6 -2.721849450554754e6 0.0
0.0 0.0 0.0

-1.472211967082414e6 5.298215920364122e6 0.0
5.298215920364122e6 -688519.1672185021 0.0
0.0 0.0 0.0

4.368939837821037e6 4.352048335215973e6 0.0
4.352048335215973e6 -7.336050617594182e6 0.0
0.0 0.0 0.0

-4.228865659954372e6 1.0245741342554724e7 0.0
1.0245741342554724e7 57395.232924806885 0.0
0.0 0.0 0.0

-8.476931232877925e6 -200841.9579990601 0.0
-200841.9579990601 1.1202747371056218e7 0.0
0.0 0.0 0.0

-5.101294846775958e6 238626.9682504481 0.0
238626.9682504481 6.99413406412242e6 0.0
0.0 0.0 0.0

-1.0401018881443948e7 2.735438853337721e6 0.0
2.735438853337721e6 1.2380103810389224e7 0.0
0.0 0.0 0.0

-3.621560533818744e6 1.0360629657901062e7 0.0
1.0360629657901062e7 -1.4192483051326694e6 0.0
0.0 0.0 0.0

-677530.6074701877 3.772204461234328e6 0.0
3.772204461234328e6 -2.9201753411973543e6 0.0
0.0 0.0 0.0

2.3312841442375653e6 9.230216860843781e6 0.0
9.230216860843781e6 1.3959188384211303e6 0.0
0.0 0.0 0.0

614786.1111955196 1.4153659216504356e7 0.0
1.4153659216504356e7 8.453280158960493e6 0.0
0.0 0.0 0.0

368080.206769265 7.280075107045449e6 0.0
7.280075107045449e6 -4.60633374621596e6 0.0
0.0 0.0 0.0

-1.1380616199447345e6 4.3823369763435535e6 0.0
4.3823369763435535e6 395851.55098510685 0.0
0.0 0.0 0.0

-1.911327177805104e6 6.135264663629749e6 0.0
6.135264663629749e6 -219632.41017269425 0.0
0.0 0.0 0.0

-4.935285749317044e6 9.161915002846712e6 0.0
9.161915002846712e6 3.6644285802983874e6 0.0
0.0 0.0 0.0

2.2883531682724347e6 6.780960924511303e6 0.0
6.780960924511303e6 -8.077751243007687e6 0.0
0.0 0.0 0.0

1.795183265948813e6 6.827551733245577e6 0.0
6.827551733245577e6 -6.958188274965724e6 0.0
0.0 0.0 0.0

-942293.494969541 3.073754907052856e6 0.0
3.073754907052856e6 -1.7801949935799378e6 0.0
0.0 0.0 0.0

-3.684878508286528e6 8.145050148745666e6 0.0
8.145050148745666e6 1.8147045795521573e6 0.0
0.0 0.0 0.0

-9.539674430356313e6 8.842099497245202e6 0.0
8.842099497245202e6 1.6618005093361672e7 0.0
0.0 0.0 0.0

-1.898968138814216e6 9.244368437696883e6 0.0
9.244368437696883e6 -2.4954090332350167e6 0.0
0.0 0.0 0.0

-769777.5154072493 3.6483676783911977e6 0.0
3.6483676783911977e6 -938943.6813873139 0.0
0.0 0.0 0.0

2.0162324090994657e6 6.661161746507867e6 0.0
6.661161746507867e6 -7.238232082602121e6 0.0
0.0 0.0 0.0

-4.756100987177168e6 8.982180445285577e6 0.0
8.982180445285577e6 2.6638303406629097e6 0.0
0.0 0.0 0.0

282333.29908172763 6.656073939623804e6 0.0
6.656073939623804e6 -5.010538057427862e6 0.0
0.0 0.0 0.0

-2.220919338558128e6 1.9583248661424937e6 0.0
1.9583248661424937e6 149814.03661471873 0.0
0.0 0.0 0.0

-1.7091919489660012e6 7.994383294316141e6 0.0
7.994383294316141e6 -3.218788123659914e6 0.0
0.0 0.0 0.0

-162369.59017707605 1.4170298176316218e6 0.0
1.4170298176316218e6 -2.695444789917617e6 0.0
0.0 0.0 0.0

-1.2720478129714283e6 4.823297474826442e6 0.0
4.823297474826442e6 -902645.8016692458 0.0
0.0 0.0 0.0

-1.0082381497153225e6 4.268255269128131e6 0.0
4.268255269128131e6 -1.1438102418635485e6 0.0
0.0 0.0 0.0

-1.8193963023649845e6 8.179407881911208e6 0.0
8.179407881911208e6 -2.8797978428775235e6 0.0
0.0 0.0 0.0

-1.8255872498930437e6 6.308586132258322e6 0.0
6.308586132258322e6 -1.300864478708217e6 0.0
0.0 0.0 0.0

-3.902574848075091e6 2.6341850414319197e6 0.0
2.6341850414319197e6 3.8672887507687393e6 0.0
0.0 0.0 0.0

-9.889310858177215e6 5.691233231214232e6 0.0
5.691233231214232e6 1.6403716605827088e7 0.0
0.0 0.0 0.0

-1.1000336772936914e7 3.0106883464180646e6 0.0
3.0106883464180646e6 1.3880811423194502e7 0.0
0.0 0.0 0.0

-9.689867479569703e6 5.851216892200474e6 0.0
5.851216892200474e6 1.5069032460059868e7 0.0
0.0 0.0 0.0

-1.4016987182381835e7 137478.77003311436 0.0
137478.77003311436 2.343997753050527e7 0.0
0.0 0.0 0.0

-1.0104516382862576e6 1.092951337039287e7 0.0
1.092951337039287e7 401928.9208648547 0.0
0.0 0.0 0.0

-1.1748800344531823e7 -1.073654155463444e6 0.0
-1.073654155463444e6 1.5269262887482602e7 0.0
0.0 0.0 0.0

-3.7763742508965726e6 9.271996203219742e6 0.0
9.271996203219742e6 -114272.9138977211 0.0
0.0 0.0 0.0

522980.9721652621 9.700722577062735e6 0.0
9.700722577062735e6 -5.526967031443561e6 0.0
0.0 0.0 0.0

-1.969374264007983e7 1.2679124326694187e7 0.0
1.2679124326694187e7 1.8047156627342813e6 0.0
0.0 0.0 0.0

207947.311692029 7.19266717687546e6 0.0
7.19266717687546e6 -4.807980407395728e6 0.0
0.0 0.0 0.0

179763.61049786326 8.230058270686416e6 0.0
8.230058270686416e6 -5.178195208026518e6 0.0
0.0 0.0 0.0

-4.394069585680977e6 1.0086397415040141e7 0.0
1.0086397415040141e7 294322.107190107 0.0
0.0 0.0 0.0

-4.1104951278507314e6 8.734018433532102e6 0.0
8.734018433532102e6 1.8682191253149535e6 0.0
0.0 0.0 0.0

1.3790575539866192e6 7.018138552042697e6 0.0
7.018138552042697e6 -6.215821962347612e6 0.0
0.0 0.0 0.0

3.08093740362182e6 1.2630030266101943e7 0.0
1.2630030266101943e7 -6.913358782783225e6 0.0
0.0 0.0 0.0

-1.6893809659188387e6 4.983891160064416e6 0.0
4.983891160064416e6 -1.1553469098591823e6 0.0
0.0 0.0 0.0

2.6106425003477293e6 7.146014966174825e6 0.0
7.146014966174825e6 -9.959823187694034e6 0.0
0.0 0.0 0.0

-1.4734390612600094e6 4.459235046757692e6 0.0
4.459235046757692e6 -1.4479123775449207e6 0.0
0.0 0.0 0.0

260354.0808639403 7.006152667825869e6 0.0
7.006152667825869e6 -4.493474447140846e6 0.0
0.0 0.0 0.0

-5.331770908320732e6 8.093049636563705e6 0.0
8.093049636563705e6 5.768580048506795e6 0.0
0.0 0.0 0.0

-1.2294045140464608e7 9.147323995956814e6 0.0
9.147323995956814e6 2.443133161055359e6 0.0
0.0 0.0 0.0

-1.6011029090073407e6 1.756800766044345e6 0.0
1.756800766044345e6 1.005546341416531e6 0.0
0.0 0.0 0.0

-2.1570752617042176e6 9.602346214154448e6 0.0
9.602346214154448e6 -2.2465586313779657e6 0.0
0.0 0.0 0.0

-9.086658994599955e6 6.585559064687547e6 0.0
6.585559064687547e6 6.621346472842895e6 0.0
0.0 0.0 0.0

1.3682579011108484e6 7.1628438820883e6 0.0
7.1628438820883e6 -4.675508346409445e6 0.0
0.0 0.0 0.0

-2.0201860432589413e6 5.141325326257626e6 0.0
5.141325326257626e6 1.191694923058108e6 0.0
0.0 0.0 0.0

-1.8397746837600581e6 8.514476598624479e6 0.0
8.514476598624479e6 -2.4981631642789766e6 0.0
0.0 0.0 0.0

-1.7938954348834401e6 7.590549634906992e6 0.0
7.590549634906992e6 -1.7129122811406727e6 0.0
0.0 0.0 0.0

-1.891944100198447e6 5.435283243485305e6 0.0
5.435283243485305e6 -897221.2051223274 0.0
0.0 0.0 0.0

-1.0042786992503818e7 2.1677356937740976e6 0.0
2.1677356937740976e6 1.2060920563803207e7 0.0
0.0 0.0 0.0

2.0608825793036679e6 6.00095357830112e6 0.0
6.00095357830112e6 -6.8259286257999735e6 0.0
0.0 0.0 0.0

225657.0532068892 6.289775696560521e6 0.0
6.289775696560521e6 -4.433947016910262e6 0.0
0.0 0.0 0.0

-4.633579725847843e6 8.799220945966156e6 0.0
8.799220945966156e6 2.388586909187855e6 0.0
0.0 0.0 0.0

-1.1109328765333893e6 4.049169961584863e6 0.0
4.049169961584863e6 -1.0211253728770416e6 0.0
0.0 0.0 0.0

-1.4270868249604364e6 7.731330694664081e6 0.0
7.731330694664081e6 -3.1399849116069204e6 0.0
0.0 0.0 0.0

942977.1348953196 6.593975704821508e6 0.0
6.593975704821508e6 -5.149957554863058e6 0.0
0.0 0.0 0.0

-8.917052829496715e6 171792.41565279177 0.0
171792.41565279177 1.101070388342866e7 0.0
0.0 0.0 0.0

-995816.525540005 1.1053984256007176e7 0.0
1.1053984256007176e7 121004.71936820145 0.0
0.0 0.0 0.0

-1.4925162233776243e6 3.2804895008985517e6 0.0
3.2804895008985517e6 621295.9415637464 0.0
0.0 0.0 0.0

1.1330548319409355e6 8.440740418092322e6 0.0
8.440740418092322e6 -7.118038309836026e6 0.0
0.0 0.0 0.0

-310719.0464503472 1.0218096017460523e7 0.0
1.0218096017460523e7 -5.584180206005498e6 0.0
0.0 0.0 0.0

-2.1498378564626537e6 6.057901104609483e6 0.0
6.057901104609483e6 509865.74195860024 0.0
0.0 0.0 0.0

196056.5985787711 9.355635310824618e6 0.0
9.355635310824618e6 -5.740944749188234e6 0.0
0.0 0.0 0.0

-1.0544694865359026e6 8.360176579033637e6 0.0
8.360176579033637e6 -3.3915073334849896e6 0.0
0.0 0.0 0.0

1.300032976947671e6 770002.9669526358 0.0
770002.9669526358 -3.600127930734229e6 0.0
0.0 0.0 0.0

-1.3829469638239548e6 2.953692341813003e6 0.0
2.953692341813003e6 64003.99201595952 0.0
0.0 0.0 0.0

-1.0202945866918359e6 6.798915369954565e6 0.0
6.798915369954565e6 -3.2839285594558567e6 0.0
0.0 0.0 0.0

-704198.314604345 6.505642416066756e6 0.0
6.505642416066756e6 -3.617416186982324e6 0.0
0.0 0.0 0.0

-1.724175150402301e6 8.61041516983178e6 0.0
8.61041516983178e6 -2.5726009168007e6 0.0
0.0 0.0 0.0

-1.0435161393795547e6 1.115588631822725e7 0.0
1.115588631822725e7 -112658.26030799287 0.0
0.0 0.0 0.0

-83217.12697164807 6.8186370110352645e6 0.0
6.8186370110352645e6 -4.224213771169791e6 0.0
0.0 0.0 0.0

1.1478748959271829e6 9.151279476798201e6 0.0
9.151279476798201e6 -8.864725425202666e6 0.0
0.0 0.0 0.0

-1.1236354273345503e6 4.0144623094529067e6 0.0
4.0144623094529067e6 -1.0062217209175539e6 0.0
0.0 0.0 0.0

-1.5163532501148651e6 9.845943278885428e6 0.0
9.845943278885428e6 -7.22417299106832e6 0.0
0.0 0.0 0.0

-3.756743665193083e7 -341277.8117889212 0.0
-341277.8117889212 1.1216066376075517e7 0.0
0.0 0.0 0.0

2.5563477016430024e7 8.630611871456334e6 0.0
8.630611871456334e6 -3.551453401109617e6 0.0
0.0 0.0 0.0

1.0093768415066125e6 9.387389847517105e6 0.0
9.387389847517105e6 -9.323892514447391e6 0.0
0.0 0.0 0.0

-3.1636735567273293e6 6.93479736803482e6 0.0
6.93479736803482e6 2.2945612072549323e6 0.0
0.0 0.0 0.0

-3.2966802087614546e6 7.796836984405746e6 0.0
7.796836984405746e6 272103.48593050335 0.0
0.0 0.0 0.0

-1.301480885037029e6 7.103118414885593e6 0.0
7.103118414885593e6 -3.0025638286105827e6 0.0
0.0 0.0 0.0

110011.38215530082 3.0952836837248155e6 0.0
3.0952836837248155e6 -3.8510279180710427e6 0.0
0.0 0.0 0.0

438924.61071100994 3.5837893910291507e6 0.0
3.5837893910291507e6 -3.155278558996203e6 0.0
0.0 0.0 0.0

-2.113694226990947e6 5.852147259003569e6 0.0
5.852147259003569e6 -652939.5738594258 0.0
0.0 0.0 0.0

1.1045303666264531e6 9.265855722832559e6 0.0
9.265855722832559e6 -9.103104753989339e6 0.0
0.0 0.0 0.0

-671416.8892296043 6.751300778992277e6 0.0
6.751300778992277e6 -3.2260827428500066e6 0.0
0.0 0.0 0.0

-4.577575639734397e6 870401.5071109828 0.0
870401.5071109828 5.004575130402564e6 0.0
0.0 0.0 0.0

1.5783824550995797e7 9.409477513791416e6 0.0
9.409477513791416e6 -4.372905434642462e6 0.0
0.0 0.0 0.0

-970251.2875060575 7.035539350570803e6 0.0
7.035539350570803e6 -2.9078858799636653e6 0.0
0.0 0.0 0.0

1.4019033898959982e6 6.498641733641201e6 0.0
6.498641733641201e6 -5.912762181492764e6 0.0
0.0 0.0 0.0

1.3860661502734264e6 6.762760907897855e6 0.0
6.762760907897855e6 -6.043363691857721e6 0.0
0.0 0.0 0.0

-5.1750711249025585e6 8.401931105280712e6 0.0
8.401931105280712e6 5.383266234515617e6 0.0
0.0 0.0 0.0

-536722.905478052 8.371381314820437e6 0.0
8.371381314820437e6 -4.0984716382015664e6 0.0
0.0 0.0 0.0

-2.1228845386422058e6 1.058687233356492e7 0.0
1.058687233356492e7 406045.4029880882 0.0
0.0 0.0 0.0

1.3169221426955822e6 1.1713168059280401e7 0.0
1.1713168059280401e7 -4.618588798642542e6 0.0
0.0 0.0 0.0

-1.0826946094638582e6 5.735833102806527e6 0.0
5.735833102806527e6 -1.3892701025014787e6 0.0
0.0 0.0 0.0

1.198340763382479e6 3.7729334695572373e6 0.0
3.7729334695572373e6 -3.726198993903014e6 0.0
0.0 0.0 0.0

-1.0284006016323876e6 3.950468893948602e6 0.0
3.950468893948602e6 -2.357466512256769e6 0.0
0.0 0.0 0.0

-862528.8504993619 3.998063610322654e6 0.0
3.998063610322654e6 -609683.5781289035 0.0
0.0 0.0 0.0

-379262.9603064277 9.19759351436418e6 0.0
9.19759351436418e6 -6.809193059670269e6 0.0
0.0 0.0 0.0

832588.7277928037 8.34126323578902e6 0.0
8.34126323578902e6 -6.309283517909501e6 0.0
0.0 0.0 0.0

1.0600140018372454e6 7.433485153882628e6 0.0
7.433485153882628e6 -5.108450004776342e6 0.0
0.0 0.0 0.0

131504.19337093877 6.96367058907264e6 0.0
6.96367058907264e6 -4.533914078579658e6 0.0
0.0 0.0 0.0

-1.692376585374075e6 6.602220963110573e6 0.0
6.602220963110573e6 -861133.5067552107 0.0
0.0 0.0 0.0

51179.25743481936 6.697088324334645e6 0.0
6.697088324334645e6 -4.468261579789239e6 0.0
0.0 0.0 0.0

-282688.0718431573 3.7778154690710558e6 0.0
3.7778154690710558e6 -3.446893572657601e6 0.0
0.0 0.0 0.0

315290.13387204125 5.408102493317067e6 0.0
5.408102493317067e6 -4.31648412464028e6 0.0
0.0 0.0 0.0

-1.530952552080403e6 8.113784823459223e6 0.0
8.113784823459223e6 -2.7847839962735497e6 0.0
0.0 0.0 0.0

-1.2770360954173547e6 4.153564471569242e6 0.0
4.153564471569242e6 -1.098309970431077e6 0.0
0.0 0.0 0.0

-4.217345400690854e6 1.0492204933292892e7 0.0
1.0492204933292892e7 -637259.9233672526 0.0
0.0 0.0 0.0

2.503976909653328e6 6.889613336992179e6 0.0
6.889613336992179e6 -9.274018863899034e6 0.0
0.0 0.0 0.0

-1.8255660351600507e6 8.42287882818749e6 0.0
8.42287882818749e6 -2.5127914366765376e6 0.0
0.0 0.0 0.0

690687.2959179096 6.845654499614943e6 0.0
6.845654499614943e6 -4.966926091188714e6 0.0
0.0 0.0 0.0

3107.325538178615 2.1486016385080037e6 0.0
2.1486016385080037e6 -1.5832524793858596e6 0.0
0.0 0.0 0.0

832814.055661957 6.807544707904683e6 0.0
6.807544707904683e6 -5.097756083831414e6 0.0
0.0 0.0 0.0

-3.757706417056419e6 8.164074641707486e6 0.0
8.164074641707486e6 1.7281344930761673e6 0.0
0.0 0.0 0.0

-4.409888147656345e6 1.2063023253587514e7 0.0
1.2063023253587514e7 -870604.0635354979 0.0
0.0 0.0 0.0

218989.18232993456 1.0086987012822138e7 0.0
1.0086987012822138e7 -5.840164736240716e6 0.0
0.0 0.0 0.0

642189.1878446944 4.0987951639588717e6 0.0
4.0987951639588717e6 -4.217510437222941e6 0.0
0.0 0.0 0.0

-4.575373007088879e6 1.1718823090712411e7 0.0
1.1718823090712411e7 464574.0848761725 0.0
0.0 0.0 0.0

-3.0933313791335225e6 1.0244349090092834e7 0.0
1.0244349090092834e7 -1.2779019224991007e6 0.0
0.0 0.0 0.0

-1.5955747915474125e6 5.266546588493781e6 0.0
5.266546588493781e6 -111686.19898562774 0.0
0.0 0.0 0.0

-2.9140595481716283e6 1.0982394614681803e7 0.0
1.0982394614681803e7 2.4569933753856905e6 0.0
0.0 0.0 0.0

-527651.2865909348 2.0265793459075098e6 0.0
2.0265793459075098e6 -2.189650790705015e6 0.0
0.0 0.0 0.0

-1.058558446465198e6 4.619166159846142e6 0.0
4.619166159846142e6 -1.2787298564498061e6 0.0
0.0 0.0 0.0

-9.85989748473163e6 1.0916161179054314e6 0.0
1.0916161179054314e6 1.4165570892270802e7 0.0
0.0 0.0 0.0

-2.3805859629845745e6 6.040050616922937e6 0.0
6.040050616922937e6 -81363.41904765915 0.0
0.0 0.0 0.0

1.7524528032005494e6 8.829694448253734e6 0.0
8.829694448253734e6 -2.508638057133733e6 0.0
0.0 0.0 0.0

-1.2328244195753606e6 7.343620487404645e6 0.0
7.343620487404645e6 -2.6257665263504814e6 0.0
0.0 0.0 0.0

-1.711674017890568e6 8.032219401265165e6 0.0
8.032219401265165e6 -2.860176752533807e6 0.0
0.0 0.0 0.0

1.0721364343839386e6 9.043800267899143e6 0.0
9.043800267899143e6 -8.632393483559888e6 0.0
0.0 0.0 0.0

2.4803617060384713e6 7.088180777619499e6 0.0
7.088180777619499e6 -9.497199198690226e6 0.0
0.0 0.0 0.0

-3.1044776402112665e6 4.292733804204857e6 0.0
4.292733804204857e6 2.110025199677932e6 0.0
0.0 0.0 0.0

-5.191002720982941e6 9.57115247943121e6 0.0
9.57115247943121e6 3.2355625449335705e6 0.0
0.0 0.0 0.0

-7.713293606206259e6 359849.1369369027 0.0
359849.1369369027 8.580451338210681e6 0.0
0.0 0.0 0.0

-2.458711662940432e6 9.926277358359948e6 0.0
9.926277358359948e6 -2.0560235756596024e6 0.0
0.0 0.0 0.0

-1.9656766884228277e6 1.046970961235852e7 0.0
1.046970961235852e7 -3.426441503563262e6 0.0
0.0 0.0 0.0

3.989578417146382e6 4.299070941200623e6 0.0
4.299070941200623e6 568490.35519387 0.0
0.0 0.0 0.0

117067.81991091557 6.308148975164944e6 0.0
6.308148975164944e6 -4.21657200267475e6 0.0
0.0 0.0 0.0

-2.3867170454473644e6 7.063161064413403e6 0.0
7.063161064413403e6 359598.95243643003 0.0
0.0 0.0 0.0

169014.59458082682 9.612250446126124e6 0.0
9.612250446126124e6 -6.225955170351003e6 0.0
0.0 0.0 0.0

-1.4220245328371336e6 7.974129785184638e6 0.0
7.974129785184638e6 -2.779045746619191e6 0.0
0.0 0.0 0.0

-1.5148316185103762e6 8.263544343768818e6 0.0
8.263544343768818e6 -2.8153346907818196e6 0.0
0.0 0.0 0.0

-8.386302640315769e6 3.4805678010321027e6 0.0
3.4805678010321027e6 1.2267931662831118e7 0.0
0.0 0.0 0.0

-2.346107159070121e6 5.2088548835456325e6 0.0
5.2088548835456325e6 1.1175155397978495e6 0.0
0.0 0.0 0.0

-1.6326981032807017e6 7.732662597582881e6 0.0
7.732662597582881e6 -2.8174667701355224e6 0.0
0.0 0.0 0.0

-2.6481014221514724e6 8.643428499438507e6 0.0
8.643428499438507e6 -1.7236512427788228e6 0.0
0.0 0.0 0.0

-3.6409193736841986e6 6.884266188987338e6 0.0
6.884266188987338e6 3.180424843998706e6 0.0
0.0 0.0 0.0

-4.794271084414337e6 9.747404791292353e6 0.0
9.747404791292353e6 1.3105032484534197e6 0.0
0.0 0.0 0.0

1.0157961543943533e6 8.418467192378286e6 0.0
8.418467192378286e6 -6.727204285531012e6 0.0
0.0 0.0 0.0

-6.80473441066267e6 1.1086321778364265e7 0.0
1.1086321778364265e7 4.336342303750225e6 0.0
0.0 0.0 0.0

-2.6533354646760356e6 7.224025525986625e6 0.0
7.224025525986625e6 558087.8073366653 0.0
0.0 0.0 0.0

-4.870680671271846e6 1.2028272120333944e7 0.0
1.2028272120333944e7 1.8124688315730863e6 0.0
0.0 0.0 0.0

-381635.3506534207 9.995415917769799e6 0.0
9.995415917769799e6 -1.3946167230659032e6 0.0
0.0 0.0 0.0

174898.97455478762 1.032317537963089e7 0.0
1.032317537963089e7 -5.548051058535188e6 0.0
0.0 0.0 0.0

-1.4293960630889814e6 1.0099611716915544e7 0.0
1.0099611716915544e7 -1.0716482396401258e6 0.0
0.0 0.0 0.0

-5.174948323184175e6 9.675345639379218e6 0.0
9.675345639379218e6 3.378493836132407e6 0.0
0.0 0.0 0.0

-2.3523383846029243e6 9.199139201717794e6 0.0
9.199139201717794e6 -1.9893582623273216e6 0.0
0.0 0.0 0.0

-1.573776894946184e6 7.419818229384049e6 0.0
7.419818229384049e6 -2.7362859579897705e6 0.0
0.0 0.0 0.0

177929.58354937797 9.976698505355902e6 0.0
9.976698505355902e6 -5.855502506487368e6 0.0
0.0 0.0 0.0

-709543.5303475288 6.109314788495686e6 0.0
6.109314788495686e6 -2.9117467992872465e6 0.0
0.0 0.0 0.0

-4.240369585705728e6 8.681399430501327e6 0.0
8.681399430501327e6 1.438796908042217e6 0.0
0.0 0.0 0.0

-4.574248683982242e6 9.742776265984902e6 0.0
9.742776265984902e6 846870.9779821187 0.0
0.0 0.0 0.0

488604.561670444 1.4852765376962423e6 0.0
1.4852765376962423e6 -2.1045280524943843e6 0.0
0.0 0.0 0.0

-354520.52514180564 6.336277130013146e6 0.0
6.336277130013146e6 -3.6445562438145936e6 0.0
0.0 0.0 0.0

-4.974730834607242e6 1.0038757114704838e7 0.0
1.0038757114704838e7 2.0523195945440268e6 0.0
0.0 0.0 0.0

-3.88516505659707e6 7.914122450865043e6 0.0
7.914122450865043e6 1.3221356885611652e6 0.0
0.0 0.0 0.0

-2.7368688166826822e7 -3.4615064632650986e6 0.0
-3.4615064632650986e6 1.0267219852604005e7 0.0
0.0 0.0 0.0

236922.5809403474 9.513016692244614e6 0.0
9.513016692244614e6 -5.88571741054454e6 0.0
0.0 0.0 0.0

-3.7410602536278395e6 7.874029730663906e6 0.0
7.874029730663906e6 1.418470321444743e6 0.0
0.0 0.0 0.0

-3.656099617063119e6 9.243530870782021e6 0.0
9.243530870782021e6 298968.6336630627 0.0
0.0 0.0 0.0

-4.0717630178733757e6 8.211304575726307e6 0.0
8.211304575726307e6 1.7347085563468216e6 0.0
0.0 0.0 0.0

-1.1040608803628385e6 1.129286088073037e7 0.0
1.129286088073037e7 -269895.028679964 0.0
0.0 0.0 0.0

-2.910798388819329e6 9.710157879695274e6 0.0
9.710157879695274e6 -1.5345777241232297e6 0.0
0.0 0.0 0.0

-2.8534113375073164e6 7.242496589677284e6 0.0
7.242496589677284e6 663225.8029247605 0.0
0.0 0.0 0.0

-2.0565369761832142e6 3.8327696642801794e6 0.0
3.8327696642801794e6 1.5323517497888063e6 0.0
0.0 0.0 0.0

-836462.070426719 6.37440775461369e6 0.0
6.37440775461369e6 -2.326352434144003e6 0.0
0.0 0.0 0.0

4.020867561126147e6 4.578607453882609e6 0.0
4.578607453882609e6 -5.82897666226139e6 0.0
0.0 0.0 0.0

-2.0494954888239624e6 7.647958280123821e6 0.0
7.647958280123821e6 -1.7958142820586823e6 0.0
0.0 0.0 0.0

-3.2687689798492165e6 1.0218473365189932e7 0.0
1.0218473365189932e7 -1.8559432054027747e6 0.0
0.0 0.0 0.0

-3.568197899700239e6 7.57304431506494e6 0.0
7.57304431506494e6 993237.2209338113 0.0
0.0 0.0 0.0

-1.6071604862402375e6 6.739931368795852e6 0.0
6.739931368795852e6 -1.7323034321296795e6 0.0
0.0 0.0 0.0

-660461.6344809828 3.8084958133094558e6 0.0
3.8084958133094558e6 -605395.4993045139 0.0
0.0 0.0 0.0

3.6144576539753308e6 4.316011067229366e6 0.0
4.316011067229366e6 -7.171951195182566e6 0.0
0.0 0.0 0.0

-5.8772007608978655e6 1.4249924346678357e6 0.0
1.4249924346678357e6 8.642438380497888e6 0.0
0.0 0.0 0.0

-1.192637492088449e6 3.808376893387736e6 0.0
3.808376893387736e6 -391550.171172416 0.0
0.0 0.0 0.0

-2.7329581886033323e6 9.88180130477158e6 0.0
9.88180130477158e6 3.833892947852899e6 0.0
0.0 0.0 0.0

-2.9226178551293868e6 8.93437809196426e6 0.0
8.93437809196426e6 -1.4667293496475671e6 0.0
0.0 0.0 0.0

-160900.88397136494 6.143358866367049e6 0.0
6.143358866367049e6 -3.832620097590193e6 0.0
0.0 0.0 0.0

-7.8906741094567e6 1.1044841394646647e6 0.0
1.1044841394646647e6 1.088833089215449e7 0.0
0.0 0.0 0.0

-3.7536039545915253e6 9.498187954751467e6 0.0
9.498187954751467e6 237517.01566967834 0.0
0.0 0.0 0.0

-1.8510290436506104e6 5.6740462761996025e6 0.0
5.6740462761996025e6 -1.0362755051074837e6 0.0
0.0 0.0 0.0

-753253.1239489706 4.368320765765498e6 0.0
4.368320765765498e6 -1.7215711529453667e6 0.0
0.0 0.0 0.0

-1.091684185568852e6 6.434081147247765e6 0.0
6.434081147247765e6 -2.4071553006512076e6 0.0
0.0 0.0 0.0

317133.26562693855 9.455413087441675e6 0.0
9.455413087441675e6 -7.048001243176539e6 0.0
0.0 0.0 0.0

-3.7209385491557773e6 8.159266061801434e6 0.0
8.159266061801434e6 1.8060376025001463e6 0.0
0.0 0.0 0.0

-1.5047229980703872e6 1.0349720716920413e7 0.0
1.0349720716920413e7 -3.279117086824557e6 0.0
0.0 0.0 0.0

-9.73121857441049e6 1.0405176925894797e7 0.0
1.0405176925894797e7 2.068010697999108e7 0.0
0.0 0.0 0.0

-1.1818698076757418e6 8.780079623296173e6 0.0
8.780079623296173e6 2.6093864544871906e6 0.0
0.0 0.0 0.0

-2.2036706031416655e6 6.593416219424128e6 0.0
6.593416219424128e6 504807.9336351495 0.0
0.0 0.0 0.0

382107.8777654818 8.371696175698192e6 0.0
8.371696175698192e6 -5.507236611543784e6 0.0
0.0 0.0 0.0

-1.602242259006367e6 7.004269630091382e6 0.0
7.004269630091382e6 -1.3293292907021828e6 0.0
0.0 0.0 0.0

-2.5922915322359693e6 1.1589000395233808e7 0.0
1.1589000395233808e7 -2.6733310027184403e6 0.0
0.0 0.0 0.0

-5.275373314032201e6 9.715058614007762e6 0.0
9.715058614007762e6 3.17117196511198e6 0.0
0.0 0.0 0.0

-4.418398092294853e6 9.743063612033034e6 0.0
9.743063612033034e6 565846.2243392561 0.0
0.0 0.0 0.0

37737.87303464627 1.052976238889858e7 0.0
1.052976238889858e7 -5.225563705433174e6 0.0
0.0 0.0 0.0

-1.289675422754384e6 6.663832436483428e6 0.0
6.663832436483428e6 -1.6246961491406485e6 0.0
0.0 0.0 0.0

-4.144281678663121e6 8.234399304664913e6 0.0
8.234399304664913e6 1.7121709437305385e6 0.0
0.0 0.0 0.0

-1.3957419604242283e6 5.468261171621649e6 0.0
5.468261171621649e6 -509421.67702557007 0.0
0.0 0.0 0.0

3.3347951568973437e6 6.039529868576133e6 0.0
6.039529868576133e6 -6.337045803587808e6 0.0
0.0 0.0 0.0

-1.933435055461132e6 7.644849392309986e6 0.0
7.644849392309986e6 -1.408543381228724e6 0.0
0.0 0.0 0.0

142186.25188170676 6.501883553657457e6 0.0
6.501883553657457e6 -4.481909518555812e6 0.0
0.0 0.0 0.0

-3.1211223382177195e6 7.8508496575955e6 0.0
7.8508496575955e6 850733.376025534 0.0
0.0 0.0 0.0

-362762.24728931405 4.234001240520636e6 0.0
4.234001240520636e6 -2.233077978200952e6 0.0
0.0 0.0 0.0

-6.102660613439818e6 1.1171929287503643e7 0.0
1.1171929287503643e7 2.1259929579232256e6 0.0
0.0 0.0 0.0

-2.08360358545124e7 -4.670611886595867e6 0.0
-4.670611886595867e6 9.460306078164611e6 0.0
0.0 0.0 0.0

-14294.004893436912 4.252068360542182e6 0.0
4.252068360542182e6 -2.7339962025812054e6 0.0
0.0 0.0 0.0

451142.8060031156 9.361836890865637e6 0.0
9.361836890865637e6 -7.578778325407747e6 0.0
0.0 0.0 0.0

-271263.2129270744 1.1391766706629794e7 0.0
1.1391766706629794e7 -4.269675819255538e6 0.0
0.0 0.0 0.0

-1.0230688431363346e6 7.342372811510755e6 0.0
7.342372811510755e6 -2.9721916810878552e6 0.0
0.0 0.0 0.0

-629002.1514510942 1.0028694283687131e7 0.0
1.0028694283687131e7 -4.506091723410923e6 0.0
0.0 0.0 0.0

371271.4236447278 4.405472300596129e6 0.0
4.405472300596129e6 -3.226928085482563e6 0.0
0.0 0.0 0.0

642963.3546597669 6.533827214939916e6 0.0
6.533827214939916e6 -4.8201879445298845e6 0.0
0.0 0.0 0.0

-5.0047329873443125e6 9.808882148599366e6 0.0
9.808882148599366e6 1.6872306370937696e6 0.0
0.0 0.0 0.0

670028.6819360764 3.236447467594639e6 0.0
3.236447467594639e6 -4.013640854653874e6 0.0
0.0 0.0 0.0

-432329.4890651847 6.575189421924093e6 0.0
6.575189421924093e6 -3.9650852300414788e6 0.0
0.0 0.0 0.0

-6.749264599525049e6 1.136315894170943e7 0.0
1.136315894170943e7 2.781853150548354e6 0.0
0.0 0.0 0.0

1.9258122544823447e6 9.257270667082692e6 0.0
9.257270667082692e6 -3.375960260898008e6 0.0
0.0 0.0 0.0

-3.205849788441767e6 1.1693249410018198e7 0.0
1.1693249410018198e7 -1.1498137502603007e6 0.0
0.0 0.0 0.0

2.8158677386912205e6 7.90182492366628e6 0.0
7.90182492366628e6 -1.0092440845499497e7 0.0
0.0 0.0 0.0

-5.79973132403443e6 5.988388716652656e6 0.0
5.988388716652656e6 8.164605469172124e6 0.0
0.0 0.0 0.0

-4.494633050012827e6 9.444543073050218e6 0.0
9.444543073050218e6 1.932341213169253e6 0.0
0.0 0.0 0.0

32846.877356542274 6.967040049018139e6 0.0
6.967040049018139e6 -4.553090276685337e6 0.0
0.0 0.0 0.0

527285.2465844702 4.538369746024107e6 0.0
4.538369746024107e6 -3.531454200396066e6 0.0
0.0 0.0 0.0

121878.33364329976 5.872867662303615e6 0.0
5.872867662303615e6 -4.100609358664135e6 0.0
0.0 0.0 0.0

-6.560440361535279e6 1.085552118145008e7 0.0
1.085552118145008e7 4.379987720918495e6 0.0
0.0 0.0 0.0

-627576.835222513 3.484811248123211e6 0.0
3.484811248123211e6 -81200.79638168185 0.0
0.0 0.0 0.0

-4.5571295875464585e6 4.908664503624484e6 0.0
4.908664503624484e6 4.530454941237613e6 0.0
0.0 0.0 0.0

-4.320370794744717e6 9.693857516085437e6 0.0
9.693857516085437e6 916395.9221153497 0.0
0.0 0.0 0.0

-1.2852260157480256e6 7.922285344138359e6 0.0
7.922285344138359e6 -3.1132619411474257e6 0.0
0.0 0.0 0.0

-2.8384275528424373e6 1.0338433845389128e7 0.0
1.0338433845389128e7 3.0567935769136995e6 0.0
0.0 0.0 0.0

-1.911201109926867e6 7.076084133595947e6 0.0
7.076084133595947e6 -1.430031854041459e6 0.0
0.0 0.0 0.0

-1.7086929400237817e6 8.265995766204824e6 0.0
8.265995766204824e6 -2.519464513793747e6 0.0
0.0 0.0 0.0

474853.9660083372 9.351575601261599e6 0.0
9.351575601261599e6 -7.075210548624418e6 0.0
0.0 0.0 0.0

-3.640985551404789e6 1.224589308597747e7 0.0
1.224589308597747e7 -601878.5123536774 0.0
0.0 0.0 0.0

1.0902393198466399e6 9.031791756880132e6 0.0
9.031791756880132e6 -8.45485926573154e6 0.0
0.0 0.0 0.0

-1.3203811004768761e6 5.42170983661201e6 0.0
5.42170983661201e6 -648805.3254396128 0.0
0.0 0.0 0.0

-1.5996250281550232e6 1.3859155865819478e7 0.0
1.3859155865819478e7 1.4573453713849101e7 0.0
0.0 0.0 0.0

-6.254237874131897e6 1.0559534609019408e7 0.0
1.0559534609019408e7 4.1004037091341307e6 0.0
0.0 0.0 0.0

-2.0337009823962536e6 7.407370154259647e6 0.0
7.407370154259647e6 -1.4635383015693102e6 0.0
0.0 0.0 0.0

-345968.6873536402 1.2057171396270199e7 0.0
1.2057171396270199e7 -3.9670823044066527e6 0.0
0.0 0.0 0.0

-4.107926138884823e6 9.735813050478937e6 0.0
9.735813050478937e6 554080.7259353257 0.0
0.0 0.0 0.0

-1.295789263512856e6 3.9219475786453695e6 0.0
3.9219475786453695e6 -1.392526841661214e6 0.0
0.0 0.0 0.0

-118435.70417544409 1.074253651626581e7 0.0
1.074253651626581e7 -4.897740372070814e6 0.0
0.0 0.0 0.0

-269903.74399271933 8.65811133104087e6 0.0
8.65811133104087e6 -4.615058412279145e6 0.0
0.0 0.0 0.0

-539721.0132864258 8.699333325764125e6 0.0
8.699333325764125e6 -4.240983818980301e6 0.0
0.0 0.0 0.0

-1.7529466486717723e6 7.474310488967989e6 0.0
7.474310488967989e6 -2.4113545163013185e6 0.0
0.0 0.0 0.0

1.2993114281215628e6 1.3812906151070077e7 0.0
1.3812906151070077e7 -5.313557580552226e6 0.0
0.0 0.0 0.0

-406994.02525794774 6.784233892925057e6 0.0
6.784233892925057e6 -3.638069626854853e6 0.0
0.0 0.0 0.0

4.567804101117263e6 5.043294075292611e6 0.0
5.043294075292611e6 -7.0650830360055845e6 0.0
0.0 0.0 0.0

-48248.69579576282 8.562134092224656e6 0.0
8.562134092224656e6 -4.907172419012024e6 0.0
0.0 0.0 0.0

2.243231452158836e6 7.052649146384612e6 0.0
7.052649146384612e6 -9.001480088672146e6 0.0
0.0 0.0 0.0

-1.4153603763579675e6 4.284317830196021e6 0.0
4.284317830196021e6 -1.0855573895726125e6 0.0
0.0 0.0 0.0

-4.20943525337342e6 8.443524565494278e6 0.0
8.443524565494278e6 1.4610961836952146e6 0.0
0.0 0.0 0.0

710317.2476388363 5.836822564208002e6 0.0
5.836822564208002e6 -5.028328414923932e6 0.0
0.0 0.0 0.0

2.777304517199442e6 5.10876858139864e6 0.0
5.10876858139864e6 -6.662726326644613e6 0.0
0.0 0.0 0.0

-1.6364549033920611e6 7.509889526909824e6 0.0
7.509889526909824e6 -2.026331831936309e6 0.0
0.0 0.0 0.0

-9.277569072362006e6 4.302678551830007e6 0.0
4.302678551830007e6 1.3087253525156613e7 0.0
0.0 0.0 0.0

-4.912584057755127e6 9.63073117539726e6 0.0
9.63073117539726e6 3.7194793503402844e6 0.0
0.0 0.0 0.0

-1.4430252608008424e6 4.21832308799914e6 0.0
4.21832308799914e6 -1.3691251919290544e6 0.0
0.0 0.0 0.0

-5.082072122050825e6 8.469173560581569e6 0.0
8.469173560581569e6 4.68002687903499e6 0.0
0.0 0.0 0.0

113674.86277955375 6.427264714099353e6 0.0
6.427264714099353e6 -4.229292824990436e6 0.0
0.0 0.0 0.0

129331.27271453221 8.474369468909094e6 0.0
8.474369468909094e6 -5.281174336549582e6 0.0
0.0 0.0 0.0

-1.6594709693975879e7 1.9403294235873345e7 0.0
1.9403294235873345e7 1.0976041364921547e7 0.0
0.0 0.0 0.0

-2.1467517942531654e6 5.630155274056891e6 0.0
5.630155274056891e6 -419011.93914795446 0.0
0.0 0.0 0.0

-1.2256151783256552e6 5.025377358588535e6 0.0
5.025377358588535e6 -729373.1657538266 0.0
0.0 0.0 0.0

-1.7899890058049061e6 1.0117877194258595e7 0.0
1.0117877194258595e7 -3.642400626748111e6 0.0
0.0 0.0 0.0

-786444.9211427841 8.73134163488895e6 0.0
8.73134163488895e6 -3.924746313522473e6 0.0
0.0 0.0 0.0

-765962.4791716201 1.4317465241283767e6 0.0
1.4317465241283767e6 607026.3220485869 0.0
0.0 0.0 0.0

-982489.7820251782 -1.096001666343405e6 0.0
-1.096001666343405e6 3.7362812993542515e6 0.0
0.0 0.0 0.0

-6.623482743854899e6 1.084911337785559e7 0.0
1.084911337785559e7 4.398921689662816e6 0.0
0.0 0.0 0.0

-3.5061334579101633e6 7.53731094421639e6 0.0
7.53731094421639e6 1.0693572986697943e6 0.0
0.0 0.0 0.0

-6.517484531395364e6 1.074440741548883e7 0.0
1.074440741548883e7 3.962313268223018e6 0.0
0.0 0.0 0.0

494803.491016658 6.793405952759119e6 0.0
6.793405952759119e6 -4.789204744824386e6 0.0
0.0 0.0 0.0

-4.171298841643819e6 8.232420553048359e6 0.0
8.232420553048359e6 1.645218517386369e6 0.0
0.0 0.0 0.0

-1.962632896113139e6 2.3088444730299762e6 0.0
2.3088444730299762e6 1.5069747747576497e6 0.0
0.0 0.0 0.0

-2.4829166373399578e7 -4.285474153578952e6 0.0
-4.285474153578952e6 1.1510971484061552e7 0.0
0.0 0.0 0.0

-4.564156047646324e6 8.779384044999085e6 0.0
8.779384044999085e6 1.8336838588985435e6 0.0
0.0 0.0 0.0

-4.87773585307796e6 8.886024656132855e6 0.0
8.886024656132855e6 4.390219733082941e6 0.0
0.0 0.0 0.0

-5.020532437976516e6 1.149507289166161e7 0.0
1.149507289166161e7 92692.28092033695 0.0
0.0 0.0 0.0

2.319384373072366e6 3.9232492341117747e6 0.0
3.9232492341117747e6 -6.019746046269947e6 0.0
0.0 0.0 0.0

-2.5870467459457982e6 6.458622294548508e6 0.0
6.458622294548508e6 186459.2060396896 0.0
0.0 0.0 0.0

-5.588510363634431e6 1.1442432141939316e7 0.0
1.1442432141939316e7 995248.5550439979 0.0
0.0 0.0 0.0

-3.5118450475299284e6 1.1857994657137504e7 0.0
1.1857994657137504e7 844221.0196864568 0.0
0.0 0.0 0.0

524186.5127396395 7.544097677489781e6 0.0
7.544097677489781e6 -4.933903678341363e6 0.0
0.0 0.0 0.0

-4.97737985404579e6 9.197443844623065e6 0.0
9.197443844623065e6 4.131838815433936e6 0.0
0.0 0.0 0.0

-2.307259714595367e6 8.569846512175731e6 0.0
8.569846512175731e6 -1.6069763204263453e6 0.0
0.0 0.0 0.0

2.6579507416820275e6 6.68908300620938e6 0.0
6.68908300620938e6 -9.328592009315476e6 0.0
0.0 0.0 0.0

-8.356379141948367e6 -2.3185421721398006e6 0.0
-2.3185421721398006e6 1.0139343109606039e7 0.0
0.0 0.0 0.0

-48578.330051318975 7.107862874085271e6 0.0
7.107862874085271e6 -4.3397299445062345e6 0.0
0.0 0.0 0.0

1.5965441379623832e6 6.801083513564909e6 0.0
6.801083513564909e6 -6.481341821474988e6 0.0
0.0 0.0 0.0

839072.1083582835 9.732690308586277e6 0.0
9.732690308586277e6 -4.986033721258155e6 0.0
0.0 0.0 0.0

1.374598575424172e6 8.436987849801278e6 0.0
8.436987849801278e6 -8.494129719062079e6 0.0
0.0 0.0 0.0

-7.802803349053312e6 1.2917668435763113e7 0.0
1.2917668435763113e7 3.07183667265484e6 0.0
0.0 0.0 0.0

-7.627495439365688e6 8.080782874812706e6 0.0
8.080782874812706e6 1.0943282374731323e7 0.0
0.0 0.0 0.0

-6.52081442909533e6 -1.3669423332648124e6 0.0
-1.3669423332648124e6 8.343339990551045e6 0.0
0.0 0.0 0.0

-2.599147501530673e6 8.863311696223598e6 0.0
8.863311696223598e6 -1.3623779462539032e6 0.0
0.0 0.0 0.0

1.6738316301884162e6 7.280486326728287e6 0.0
7.280486326728287e6 -7.932974934459515e6 0.0
0.0 0.0 0.0

-2.6103931416194006e6 7.677587160505183e6 0.0
7.677587160505183e6 -4311.542513156659 0.0
0.0 0.0 0.0

-3.911226334022901e6 8.120758341833321e6 0.0
8.120758341833321e6 1.1304856640456608e6 0.0
0.0 0.0 0.0

-1.4052086870387185e6 4.582325427175762e6 0.0
4.582325427175762e6 656847.0701460324 0.0
0.0 0.0 0.0

-3.5220588222186905e6 1.2605354958423099e7 0.0
1.2605354958423099e7 -741281.3190415287 0.0
0.0 0.0 0.0

1.1967736683554105e6 9.527148650682535e6 0.0
9.527148650682535e6 -4.41122905177627e6 0.0
0.0 0.0 0.0

-4.445010442525897e6 9.752825423034368e6 0.0
9.752825423034368e6 1.27637296604898e6 0.0
0.0 0.0 0.0

2.7233352241806346e6 6.061653337425022e6 0.0
6.061653337425022e6 -8.876656972870857e6 0.0
0.0 0.0 0.0

-4.229867927180876e6 8.340516497764606e6 0.0
8.340516497764606e6 1.5331631293679497e6 0.0
0.0 0.0 0.0

-1.1497431363275903e6 7.65962928175765e6 0.0
7.65962928175765e6 -3.0353635670701605e6 0.0
0.0 0.0 0.0

-1.462194527263414e6 4.777034155024841e6 0.0
4.777034155024841e6 -1.5278368544752346e6 0.0
0.0 0.0 0.0

-1.1408755700215641e6 6.713388654359501e6 0.0
6.713388654359501e6 -1.9933404408740513e6 0.0
0.0 0.0 0.0

-1.0675259946998095e6 3.421067763398771e6 0.0
3.421067763398771e6 -1.4196982291676712e6 0.0
0.0 0.0 0.0

1.149472864401301e6 9.636575084122634e6 0.0
9.636575084122634e6 -4.2726771496381555e6 0.0
0.0 0.0 0.0

-4.929711465332232e6 1.9543999622113786e6 0.0
1.9543999622113786e6 7.486778678725758e6 0.0
0.0 0.0 0.0

-1.59260069487504e6 7.976485289073099e6 0.0
7.976485289073099e6 -2.453426744332299e6 0.0
0.0 0.0 0.0

-663834.0363076143 2.559529110731325e6 0.0
2.559529110731325e6 -2.2751469415350044e6 0.0
0.0 0.0 0.0

-6.903128787624854e6 1.0945993025241848e7 0.0
1.0945993025241848e7 4.67675964400577e6 0.0
0.0 0.0 0.0

-4.0139434156332705e6 1.0212260669739293e7 0.0
1.0212260669739293e7 -41735.45898940484 0.0
0.0 0.0 0.0

-264928.7997979459 9.605752109090155e6 0.0
9.605752109090155e6 -5.055281340024441e6 0.0
0.0 0.0 0.0

-163731.3072083369 6.942263962109214e6 0.0
6.942263962109214e6 -4.026331258157861e6 0.0
0.0 0.0 0.0

-4.399249093877266e6 9.015376410456361e6 0.0
9.015376410456361e6 2.1808493163679186e6 0.0
0.0 0.0 0.0

-4.8871629518657e6 8.69463852818615e6 0.0
8.69463852818615e6 4.770346174321152e6 0.0
0.0 0.0 0.0

-6.524154807612814e6 8.183122491146289e6 0.0
8.183122491146289e6 8.454941890323795e6 0.0
0.0 0.0 0.0

1.706029320355487e6 7.36398655024976e6 0.0
7.36398655024976e6 -8.39667268802106e6 0.0
0.0 0.0 0.0

-4.0273060271503446e6 8.477217216626987e6 0.0
8.477217216626987e6 2.0833539319271198e6 0.0
0.0 0.0 0.0

-4.0636365120146386e6 8.593159015804913e6 0.0
8.593159015804913e6 1.907414681362705e6 0.0
0.0 0.0 0.0

-1.824320410940555e6 6.444883354883045e6 0.0
6.444883354883045e6 -193329.13806237635 0.0
0.0 0.0 0.0

-8.005777428702234e6 1.3277867551540662e7 0.0
1.3277867551540662e7 3.2921758459996963e6 0.0
0.0 0.0 0.0

-1.1827552032193472e6 7.113545662033884e6 0.0
7.113545662033884e6 -2.60849849087849e6 0.0
0.0 0.0 0.0

-3.6786140459409966e6 6.965280145739541e6 0.0
6.965280145739541e6 2.3291382472163993e6 0.0
0.0 0.0 0.0

-86316.30334122991 6.645593345025858e6 0.0
6.645593345025858e6 -4.150824068742599e6 0.0
0.0 0.0 0.0

-990011.8109392569 4.000998367774333e6 0.0
4.000998367774333e6 -1.0149063783139379e6 0.0
0.0 0.0 0.0

-4.413354569250381e6 9.14049662272858e6 0.0
9.14049662272858e6 2.0849121708976894e6 0.0
0.0 0.0 0.0

-4.742753625419381e6 9.422042142295077e6 0.0
9.422042142295077e6 2.365815048811866e6 0.0
0.0 0.0 0.0

-1.5014664423047006e6 7.662203210214574e6 0.0
7.662203210214574e6 -2.360233662222842e6 0.0
0.0 0.0 0.0

1.2246683533001365e6 1.0389942666256722e7 0.0
1.0389942666256722e7 -4.507913285106502e6 0.0
0.0 0.0 0.0

-493199.10967623664 1.4330116602326984e7 0.0
1.4330116602326984e7 -3.9640182944863588e6 0.0
0.0 0.0 0.0

-2.9135842183485013e6 1.1140724186509702e7 0.0
1.1140724186509702e7 1.7218696204201388e6 0.0
0.0 0.0 0.0

-911910.1134253433 9.632896471291855e6 0.0
9.632896471291855e6 -6.897022436865575e6 0.0
0.0 0.0 0.0

-594585.6538334363 6.576273341022417e6 0.0
6.576273341022417e6 -3.2724177729488607e6 0.0
0.0 0.0 0.0

-1.6692979250616715e6 3.4141951112724855e6 0.0
3.4141951112724855e6 1.256121405808296e6 0.0
0.0 0.0 0.0

-1.2924176548010067e6 1.1384494990383217e7 0.0
1.1384494990383217e7 -280357.4437460541 0.0
0.0 0.0 0.0

-2.4001898067916017e6 1.1110824713055998e7 0.0
1.1110824713055998e7 180824.94119186082 0.0
0.0 0.0 0.0

-4.0799023418809352e6 8.479566940064678e6 0.0
8.479566940064678e6 2.0102053264841267e6 0.0
0.0 0.0 0.0

-1.6049559308341008e6 1.723876833807834e6 0.0
1.723876833807834e6 1.2552141515394936e6 0.0
0.0 0.0 0.0

-7.217014414392693e6 1.1062145168749802e7 0.0
1.1062145168749802e7 4.910542672344532e6 0.0
0.0 0.0 0.0

-4.549995357143733e6 8.935184951557787e6 0.0
8.935184951557787e6 1.692861601298809e6 0.0
0.0 0.0 0.0

1.6373607605481227e6 8.655697746319396e6 0.0
8.655697746319396e6 -2.812366369685852e6 0.0
0.0 0.0 0.0

-118806.04817487679 9.497801925098179e6 0.0
9.497801925098179e6 -396020.14286561357 0.0
0.0 0.0 0.0

-3.999993292481321e6 8.47127856489779e6 0.0
8.47127856489779e6 2.130726799160684e6 0.0
0.0 0.0 0.0

-3.779916890138825e6 8.153064900287961e6 0.0
8.153064900287961e6 1.8385758532212893e6 0.0
0.0 0.0 0.0

1.1128068218763075e6 7.21440028818699e6 0.0
7.21440028818699e6 -4.824914883911469e6 0.0
0.0 0.0 0.0

-4.605763505554692e6 9.967045110636361e6 0.0
9.967045110636361e6 1.1918401157465067e6 0.0
0.0 0.0 0.0

-2.70868385350035e6 6.555037952440571e6 0.0
6.555037952440571e6 1.7235402627634192e6 0.0
0.0 0.0 0.0

202898.21765735094 5.461430811856415e6 0.0
5.461430811856415e6 -4.759459744498241e6 0.0
0.0 0.0 0.0

-4.100196079541265e6 9.520943119362328e6 0.0
9.520943119362328e6 225748.5886789714 0.0
0.0 0.0 0.0

-3.7495373094318216e6 8.244796724745139e6 0.0
8.244796724745139e6 1.6596228638280148e6 0.0
0.0 0.0 0.0

-404455.44806797564 1.96710439017401e6 0.0
1.96710439017401e6 -2.901970326312292e6 0.0
0.0 0.0 0.0

-539867.1795070817 6.843314683240569e6 0.0
6.843314683240569e6 -4.133348530720863e6 0.0
0.0 0.0 0.0

-1.4145848236156117e7 1.7691057983254716e7 0.0
1.7691057983254716e7 9.702614236849137e6 0.0
0.0 0.0 0.0

3.2611019898396493e6 8.125372977393997e6 0.0
8.125372977393997e6 -1.1193825446967456e7 0.0
0.0 0.0 0.0

876981.0253346437 6.191247875612873e6 0.0
6.191247875612873e6 -5.658886687881945e6 0.0
0.0 0.0 0.0

-179073.97777693206 7.645158597451212e6 0.0
7.645158597451212e6 -4.299810282993952e6 0.0
0.0 0.0 0.0

-2.3302237618150543e6 1.1194466341397883e7 0.0
1.1194466341397883e7 1.0337875377936569e6 0.0
0.0 0.0 0.0

58844.87726862449 9.317513816162767e6 0.0
9.317513816162767e6 -6.224750997707447e6 0.0
0.0 0.0 0.0

-319304.4249283825 6.3603009335569795e6 0.0
6.3603009335569795e6 -3.533967391729896e6 0.0
0.0 0.0 0.0

-1.2758002590567227e6 4.543606838564256e6 0.0
4.543606838564256e6 -1.9915952984110974e6 0.0
0.0 0.0 0.0

-717112.4989313512 1.0362743571661446e7 0.0
1.0362743571661446e7 1.6604369073826128e6 0.0
0.0 0.0 0.0

-7.013130859758854e6 8.041378257217646e6 0.0
8.041378257217646e6 9.835785572474075e6 0.0
0.0 0.0 0.0

-896224.7503294228 7.95879446242178e6 0.0
7.95879446242178e6 6.617051110617776e6 0.0
0.0 0.0 0.0

-8.991734797692508e6 1.156929035237836e7 0.0
1.156929035237836e7 6.08449113191449e6 0.0
0.0 0.0 0.0

-1.9124695539053706e6 7.567367423091108e6 0.0
7.567367423091108e6 -2.1085367650270886e6 0.0
0.0 0.0 0.0

-1.0678782037925558e7 8.537121651723051e6 0.0
8.537121651723051e6 2.5858369434129638e6 0.0
0.0 0.0 0.0

-2.0301602961048144e6 8.286716691880365e6 0.0
8.286716691880365e6 -1.8671873586452347e6 0.0
0.0 0.0 0.0

-3.824359407105484e6 8.378256237211261e6 0.0
8.378256237211261e6 1.512198034381516e6 0.0
0.0 0.0 0.0

-1.2019442337443219e6 7.001033687384081e6 0.0
7.001033687384081e6 -2.318796418313318e6 0.0
0.0 0.0 0.0

320350.2078931299 9.523781224958401e6 0.0
9.523781224958401e6 -6.813817037167673e6 0.0
0.0 0.0 0.0

-86972.81218801253 5.581621183066952e6 0.0
5.581621183066952e6 -4.594107710524486e6 0.0
0.0 0.0 0.0

1.5749038631594102e6 8.130514222094549e6 0.0
8.130514222094549e6 -7.713272099073838e6 0.0
0.0 0.0 0.0

-1.8318808964017485e6 1.0515369111415448e7 0.0
1.0515369111415448e7 2.037630546651965e6 0.0
0.0 0.0 0.0

982642.1117745489 6.775882221504047e6 0.0
6.775882221504047e6 -5.363834665774523e6 0.0
0.0 0.0 0.0

-4.215055706157554e6 9.763996855297532e6 0.0
9.763996855297532e6 184268.25374404457 0.0
0.0 0.0 0.0

-3.033302972678222e6 9.659765710402738e6 0.0
9.659765710402738e6 -1.9140691796398696e6 0.0
0.0 0.0 0.0

-1.301779375386313e6 6.377490661922052e6 0.0
6.377490661922052e6 -2.055991004176372e6 0.0
0.0 0.0 0.0

-2.370410015398932e6 6.254607238231394e6 0.0
6.254607238231394e6 -391650.0967839665 0.0
0.0 0.0 0.0

-4.038273139784686e6 6.987814225294892e6 0.0
6.987814225294892e6 2.883486255822537e6 0.0
0.0 0.0 0.0

-44599.30332305096 6.603261898813124e6 0.0
6.603261898813124e6 -4.311286244754155e6 0.0
0.0 0.0 0.0

-1.1185552292301873e7 1.1978123306439674e7 0.0
1.1978123306439674e7 7.443987791800702e6 0.0
0.0 0.0 0.0

-7.610176639049705e6 1.1118141261229808e7 0.0
1.1118141261229808e7 5.238475280663023e6 0.0
0.0 0.0 0.0

-5.04330898537199e6 7.361129096453278e6 0.0
7.361129096453278e6 4.386453354904272e6 0.0
0.0 0.0 0.0

-1.3560734127983614e6 6.889624835701821e6 0.0
6.889624835701821e6 -4.520244692900998e6 0.0
0.0 0.0 0.0

-1.0367842736370323e6 8.728301012926305e6 0.0
8.728301012926305e6 -3.532302015720908e6 0.0
0.0 0.0 0.0

783604.4441929776 6.556275847353616e6 0.0
6.556275847353616e6 -4.857965286429734e6 0.0
0.0 0.0 0.0

-4.600404150919058e6 1.081253801487811e7 0.0
1.081253801487811e7 3.0807402606395017e6 0.0
0.0 0.0 0.0

-2.1511526030407418e6 5.178170163349337e6 0.0
5.178170163349337e6 711766.0616813698 0.0
0.0 0.0 0.0

-4.371448956289259e6 1.3341918995958673e7 0.0
1.3341918995958673e7 280753.8214753866 0.0
0.0 0.0 0.0

-1.0602624017865935e7 -4.211885381001512e6 0.0
-4.211885381001512e6 1.750458428531006e7 0.0
0.0 0.0 0.0

-3.135094358117259e6 8.953979412982719e6 0.0
8.953979412982719e6 -1.0882740388816122e6 0.0
0.0 0.0 0.0

-1.5947500055379448e6 1.7350184274045385e6 0.0
1.7350184274045385e6 1.1999312450658176e6 0.0
0.0 0.0 0.0

-889297.6142523454 4.503629630721877e6 0.0
4.503629630721877e6 -496903.54410171846 0.0
0.0 0.0 0.0

3.4013808227625554e6 5.731595684256067e6 0.0
5.731595684256067e6 -5.817790204389801e6 0.0
0.0 0.0 0.0

-9.760532859118897e6 4.0629263906951803e6 0.0
4.0629263906951803e6 1.152523876588871e7 0.0
0.0 0.0 0.0

1.05960617313781e6 8.199023201660378e6 0.0
8.199023201660378e6 -6.596223124913001e6 0.0
0.0 0.0 0.0

-3.9851336549235126e6 9.47958752217608e6 0.0
9.47958752217608e6 620595.5684755826 0.0
0.0 0.0 0.0

-4.425406153646401e6 8.908127972402953e6 0.0
8.908127972402953e6 2.264523372772845e6 0.0
0.0 0.0 0.0

-1.911958904180101e6 7.332763015882165e6 0.0
7.332763015882165e6 -1.0400200988813814e6 0.0
0.0 0.0 0.0

-4.9564439179249825e6 9.316125480558768e6 0.0
9.316125480558768e6 2.9665035193942967e6 0.0
0.0 0.0 0.0

1.0094973460174243e6 3.309784611746852e6 0.0
3.309784611746852e6 -4.606027894894168e6 0.0
0.0 0.0 0.0

-2.923909950080799e6 8.2444912621073155e6 0.0
8.2444912621073155e6 -569453.8723387183 0.0
0.0 0.0 0.0

-1.882030121162993e6 1.450909267064058e7 0.0
1.450909267064058e7 -2.564403053826881e6 0.0
0.0 0.0 0.0

-122028.95270478865 6.158582659923346e6 0.0
6.158582659923346e6 -3.7084124674719507e6 0.0
0.0 0.0 0.0

-1.715063443523453e6 7.71133962163876e6 0.0
7.71133962163876e6 -2.0460679665142042e6 0.0
0.0 0.0 0.0

-2.6296624660766185e6 1.1654441923412224e7 0.0
1.1654441923412224e7 324249.9815696102 0.0
0.0 0.0 0.0

-1.778511618481488e6 6.980168311917135e6 0.0
6.980168311917135e6 -960542.9773389655 0.0
0.0 0.0 0.0

2.585992155950385e6 1.1611537513562886e7 0.0
1.1611537513562886e7 -5.737140050218773e6 0.0
0.0 0.0 0.0

80534.47425309685 1.6873689215519105e6 0.0
1.6873689215519105e6 -3.5433709706860804e6 0.0
0.0 0.0 0.0

1.6390162097716085e6 6.100159964677457e6 0.0
6.100159964677457e6 -6.985157630485276e6 0.0
0.0 0.0 0.0

219697.56630441477 1.5373074134609124e6 0.0
1.5373074134609124e6 -1.3964672160075034e6 0.0
0.0 0.0 0.0

-970180.9967630631 4.391002940675838e6 0.0
4.391002940675838e6 -2.452718542680888e6 0.0
0.0 0.0 0.0

-2.1782708813826973e6 7.698380944094605e6 0.0
7.698380944094605e6 -1.4833224324379128e6 0.0
0.0 0.0 0.0

-1.0116944060336282e6 4.46839548758765e6 0.0
4.46839548758765e6 -358589.0666446253 0.0
0.0 0.0 0.0

3.1647743728548875e6 4.527149992837091e6 0.0
4.527149992837091e6 -5.118958948611962e6 0.0
0.0 0.0 0.0

-298761.84491968225 1.0965232901668087e7 0.0
1.0965232901668087e7 -4.540187538251109e6 0.0
0.0 0.0 0.0

-580235.0371786683 4.427834698236567e6 0.0
4.427834698236567e6 -2.9955277218901324e6 0.0
0.0 0.0 0.0

-1.4107042540936217e7 1.6394875979345053e7 0.0
1.6394875979345053e7 9.510199172081273e6 0.0
0.0 0.0 0.0

1.211071136857275e6 8.5744238313526e6 0.0
8.5744238313526e6 1.8313612122846867e6 0.0
0.0 0.0 0.0

-204267.02698497532 4.541001708612485e6 0.0
4.541001708612485e6 -3.413157655234923e6 0.0
0.0 0.0 0.0

-2.5895354443994914e6 7.196106796109928e6 0.0
7.196106796109928e6 717171.4562353374 0.0
0.0 0.0 0.0

2.3079646935882946e6 1.9496710143063734e6 0.0
1.9496710143063734e6 -4.460100817602074e6 0.0
0.0 0.0 0.0

-3.6529354292329843e6 2.5616542020543236e6 0.0
2.5616542020543236e6 4.884791167824245e6 0.0
0.0 0.0 0.0

219138.7301538519 4.747693273642745e6 0.0
4.747693273642745e6 -3.8776947599021005e6 0.0
0.0 0.0 0.0

-1.19415929697721e7 1.1149396009846937e7 0.0
1.1149396009846937e7 7.704628025629364e6 0.0
0.0 0.0 0.0

-4.0777162003375855e6 1.3754552210677661e7 0.0
1.3754552210677661e7 -92902.45435567573 0.0
0.0 0.0 0.0

890604.1083708708 6.402253230090779e6 0.0
6.402253230090779e6 -4.890097750453412e6 0.0
0.0 0.0 0.0

-3.2310361182139954e6 9.78387165067437e6 0.0
9.78387165067437e6 -1.5181942845328716e6 0.0
0.0 0.0 0.0

1.4035541442593648e6 7.0556708913181955e6 0.0
7.0556708913181955e6 -7.312896516031275e6 0.0
0.0 0.0 0.0

-2.335564557741746e6 7.705037329382852e6 0.0
7.705037329382852e6 -1.1685371609395694e6 0.0
0.0 0.0 0.0

-2.646892251729948e6 8.256709915714702e6 0.0
8.256709915714702e6 2.575990815871735e6 0.0
0.0 0.0 0.0

-2.807883745319381e6 1.4415040899582759e7 0.0
1.4415040899582759e7 -1.4148669719936317e6 0.0
0.0 0.0 0.0

277734.4913004362 5.997792015408292e6 0.0
5.997792015408292e6 -3.6322005671332898e6 0.0
0.0 0.0 0.0

247924.2043028758 6.813362369398321e6 0.0
6.813362369398321e6 -4.7792694276490975e6 0.0
0.0 0.0 0.0

-535732.158091931 5.880989832393108e6 0.0
5.880989832393108e6 -2.2679879525792636e6 0.0
0.0 0.0 0.0

-8.044187539059127e6 1.1005402954672463e7 0.0
1.1005402954672463e7 5.6255950840973025e6 0.0
0.0 0.0 0.0

-2.0854354393139416e6 6.085314354779677e6 0.0
6.085314354779677e6 -790005.235689245 0.0
0.0 0.0 0.0

-6.283704739158042e6 1.507238824623523e7 0.0
1.507238824623523e7 2.010275167494711e6 0.0
0.0 0.0 0.0

-2.065380763177362e6 7.649556962076349e6 0.0
7.649556962076349e6 -1.0950206071085085e6 0.0
0.0 0.0 0.0

-779654.9725214175 1.0737258219133154e7 0.0
1.0737258219133154e7 2.676697998943788e6 0.0
0.0 0.0 0.0

-2.0874900943277811e6 1.154399793930989e7 0.0
1.154399793930989e7 49528.08795619116 0.0
0.0 0.0 0.0

-4.668129212559384e6 9.782829481029782e6 0.0
9.782829481029782e6 1.7196476686755165e6 0.0
0.0 0.0 0.0

239621.91941698268 1.0394483017502088e7 0.0
1.0394483017502088e7 -5.325578298353226e6 0.0
0.0 0.0 0.0

974903.5484220795 8.960491457694683e6 0.0
8.960491457694683e6 -8.1998719316942375e6 0.0
0.0 0.0 0.0

-6.158413641377026e6 6.754024586325338e6 0.0
6.754024586325338e6 9.386563973825565e6 0.0
0.0 0.0 0.0

-799371.617830739 6.813696820882456e6 0.0
6.813696820882456e6 -3.6612247209584313e6 0.0
0.0 0.0 0.0

-3.009190377965012e6 3.1863075062692203e6 0.0
3.1863075062692203e6 3.105143916454864e6 0.0
0.0 0.0 0.0

610028.5144963108 8.479761604996622e6 0.0
8.479761604996622e6 -6.016614819221855e6 0.0
0.0 0.0 0.0

-985569.5357864163 5.973185916333272e6 0.0
5.973185916333272e6 -2.3989542899988196e6 0.0
0.0 0.0 0.0

5.770359298475139e6 3.68097074513548e6 0.0
3.68097074513548e6 -7.480458897519433e6 0.0
0.0 0.0 0.0

-2.966652044569986e6 7.4515703745843675e6 0.0
7.4515703745843675e6 -17711.147528378642 0.0
0.0 0.0 0.0

-4.855146105015368e6 9.196508447742753e6 0.0
9.196508447742753e6 2.0092132246782589e6 0.0
0.0 0.0 0.0

-6.667835860845618e6 1.2130139068443445e7 0.0
1.2130139068443445e7 2.1278473070548144e6 0.0
0.0 0.0 0.0

-2.625424651456781e6 7.980344954659968e6 0.0
7.980344954659968e6 -865888.9358554288 0.0
0.0 0.0 0.0

2.770041839761996e6 3.674391292428465e6 0.0
3.674391292428465e6 -4.63688432357163e6 0.0
0.0 0.0 0.0

-3.542276018076217e6 1.4120343502409086e7 0.0
1.4120343502409086e7 -694442.048603269 0.0
0.0 0.0 0.0

-2.019875312560053e6 5.493387684221642e6 0.0
5.493387684221642e6 1.1521868639434802e6 0.0
0.0 0.0 0.0

1.98499635242242e6 7.243010584834084e6 0.0
7.243010584834084e6 -8.70057946287748e6 0.0
0.0 0.0 0.0

-1.997469058698349e6 8.864614643232007e6 0.0
8.864614643232007e6 3.198533168003001e6 0.0
0.0 0.0 0.0

-6.041734152067726e6 1.0224784182762045e7 0.0
1.0224784182762045e7 3.6759296076323558e6 0.0
0.0 0.0 0.0

-1.2403043845034186e6 9.508940868643798e6 0.0
9.508940868643798e6 -1.6174582426118797e6 0.0
0.0 0.0 0.0

-6.1675929589597415e6 8.047643399577948e6 0.0
8.047643399577948e6 8.845394478245849e6 0.0
0.0 0.0 0.0

-181528.76953801958 7.9803703551706895e6 0.0
7.9803703551706895e6 -605095.69002639 0.0
0.0 0.0 0.0

-1.1631120529980622e6 6.868357241103387e6 0.0
6.868357241103387e6 -2.9620058666111333e6 0.0
0.0 0.0 0.0

-833218.7924514844 1.0412984347544221e7 0.0
1.0412984347544221e7 1.3255054192114396e6 0.0
0.0 0.0 0.0

-1.3856515168530341e7 1.5061976454304073e7 0.0
1.5061976454304073e7 9.408874273825312e6 0.0
0.0 0.0 0.0

-2.5003113540693456e6 1.1402795816468913e7 0.0
1.1402795816468913e7 760119.5996757238 0.0
0.0 0.0 0.0

1.2912968429907067e7 1.087541856430828e7 0.0
1.087541856430828e7 -448675.6424023295 0.0
0.0 0.0 0.0

-1.4158015986167882e6 6.773932544059983e6 0.0
6.773932544059983e6 -2.0778925974893614e6 0.0
0.0 0.0 0.0

-3.0244601729062675e6 7.756751863149319e6 0.0
7.756751863149319e6 -111301.39668297011 0.0
0.0 0.0 0.0

-1.044606696583948e6 7.917528032468024e6 0.0
7.917528032468024e6 -3.536144214410119e6 0.0
0.0 0.0 0.0

-6.957192416099587e6 1.2527418393325118e7 0.0
1.2527418393325118e7 2.2595952724165963e6 0.0
0.0 0.0 0.0

1.858662184446808e6 6.690043457594128e6 0.0
6.690043457594128e6 -7.761223203201349e6 0.0
0.0 0.0 0.0

-48374.33569278545 4.914169441931132e6 0.0
4.914169441931132e6 -4.1016579246971933e6 0.0
0.0 0.0 0.0

-363987.12911941577 7.031360400133105e6 0.0
7.031360400133105e6 -4.491019055010578e6 0.0
0.0 0.0 0.0

-4.602649181450956e6 9.985319476704288e6 0.0
9.985319476704288e6 3.725920988521962e6 0.0
0.0 0.0 0.0

-3.2317095886069452e6 8.511359034019837e6 0.0
8.511359034019837e6 -273477.16282601247 0.0
0.0 0.0 0.0

-807116.4710670167 7.7331232721714685e6 0.0
7.7331232721714685e6 -799916.9013424814 0.0
0.0 0.0 0.0

-965321.6790380966 6.300346738031598e6 0.0
6.300346738031598e6 -1.9466542500979684e6 0.0
0.0 0.0 0.0

-2.653582282408132e6 8.20414002512668e6 0.0
8.20414002512668e6 -523046.6227981876 0.0
0.0 0.0 0.0

1.2381367429187123e6 9.910063094800677e6 0.0
9.910063094800677e6 -4.125651277217961e6 0.0
0.0 0.0 0.0

-1.2967257844833981e7 1.4445788606577959e7 0.0
1.4445788606577959e7 8.903664326832674e6 0.0
0.0 0.0 0.0

-2.947216490073277e6 8.467466247034352e6 0.0
8.467466247034352e6 -222640.1283455541 0.0
0.0 0.0 0.0

-480210.932368438 3.192500564657551e6 0.0
3.192500564657551e6 -1.3199001474697194e6 0.0
0.0 0.0 0.0

5.457606394601174e6 8.69145629162595e6 0.0
8.69145629162595e6 1.5794011212517621e6 0.0
0.0 0.0 0.0

2.090403296614544e6 8.210318111070474e6 0.0
8.210318111070474e6 -9.733097599919507e6 0.0
0.0 0.0 0.0

-4.768349265350427e6 9.593519281185474e6 0.0
9.593519281185474e6 2.3504223530235225e6 0.0
0.0 0.0 0.0

-1.0338091467884966e6 4.217866192687291e6 0.0
4.217866192687291e6 -629420.4037523984 0.0
0.0 0.0 0.0

-1.2500943337560275e6 6.805131405542249e6 0.0
6.805131405542249e6 -2.368487935088804e6 0.0
0.0 0.0 0.0

-842702.8870960106 6.58801375071132e6 0.0
6.58801375071132e6 -3.26956843701601e6 0.0
0.0 0.0 0.0

-1.2353499705625376e7 1.4026464824106203e7 0.0
1.4026464824106203e7 7.763889409092277e6 0.0
0.0 0.0 0.0

920202.1729997727 7.96693506907026e6 0.0
7.96693506907026e6 -6.9874147421179e6 0.0
0.0 0.0 0.0

-1.7727039850931051e6 3.792155552132264e6 0.0
3.792155552132264e6 769716.4994775273 0.0
0.0 0.0 0.0

-4.254263508895783e6 9.899660965427117e6 0.0
9.899660965427117e6 1.6442480505265098e6 0.0
0.0 0.0 0.0

-1.1453594706759711e6 4.676867222039571e6 0.0
4.676867222039571e6 -346395.40878077305 0.0
0.0 0.0 0.0

-2.8492214468049966e6 8.676953394179555e6 0.0
8.676953394179555e6 -1.3788027348891022e6 0.0
0.0 0.0 0.0

-3.3269463274231246e6 8.28030388494295e6 0.0
8.28030388494295e6 142745.2663574682 0.0
0.0 0.0 0.0

-603301.9882513969 9.482227894070111e6 0.0
9.482227894070111e6 -5.031081944893836e6 0.0
0.0 0.0 0.0

-1.1987273613532329e7 1.3676966791831546e7 0.0
1.3676966791831546e7 7.602665762502933e6 0.0
0.0 0.0 0.0

-4.793125318774982e6 1.0167155974047007e7 0.0
1.0167155974047007e7 3.6455123740112362e6 0.0
0.0 0.0 0.0

-3.2386513221074287e6 8.733337013460893e6 0.0
8.733337013460893e6 66974.57856748556 0.0
0.0 0.0 0.0

1.616603041272406e6 6.857205800514921e6 0.0
6.857205800514921e6 -7.54782165124417e6 0.0
0.0 0.0 0.0

-1.2622509854378686e6 4.604733418026964e6 0.0
4.604733418026964e6 -794186.7536407327 0.0
0.0 0.0 0.0

-1.1277865534126416e7 1.3257741694078643e7 0.0
1.3257741694078643e7 7.284481442743861e6 0.0
0.0 0.0 0.0

2.508971319219169e6 7.914341855669464e6 0.0
7.914341855669464e6 -9.708824687005688e6 0.0
0.0 0.0 0.0

-1.0219758812333964e7 1.3299110920327947e7 0.0
1.3299110920327947e7 6.472655861035589e6 0.0
0.0 0.0 0.0

-9.629780712525018e6 1.3025300602679076e7 0.0
1.3025300602679076e7 6.0122223214169275e6 0.0
0.0 0.0 0.0

-5.975385226235596e6 1.0484582390931027e7 0.0
1.0484582390931027e7 2.7498157928038677e6 0.0
0.0 0.0 0.0

-6.260815248216536e6 1.0689518087193897e7 0.0
1.0689518087193897e7 3.0671834221008355e6 0.0
0.0 0.0 0.0

-6.574987986741965e6 1.0942730367734704e7 0.0
1.0942730367734704e7 3.329237355273899e6 0.0
0.0 0.0 0.0

-6.884106147874499e6 1.116022747328791e7 0.0
1.116022747328791e7 3.6763726888041706e6 0.0
0.0 0.0 0.0

-7.179168169729643e6 1.1333694448943218e7 0.0
1.1333694448943218e7 3.942333660339689e6 0.0
0.0 0.0 0.0

-7.50255491223916e6 1.1596959710687524e7 0.0
1.1596959710687524e7 4.095400159421296e6 0.0
0.0 0.0 0.0

-2.55393057786759e6 6.4868771974099865e6 0.0
6.4868771974099865e6 172348.2152290789 0.0
0.0 0.0 0.0

-7.998122942740614e6 1.168531454544524e7 0.0
1.168531454544524e7 4.747741536386518e6 0.0
0.0 0.0 0.0

-8.484672093546718e6 1.1932360123749785e7 0.0
1.1932360123749785e7 5.011764708394747e6 0.0
0.0 0.0 0.0

-3.509646601984538e6 6.9569815970603805e6 0.0
6.9569815970603805e6 2.9192095555548035e6 0.0
0.0 0.0 0.0

-9.238128904116502e6 1.2698248216620224e7 0.0
1.2698248216620224e7 5.848465300366951e6 0.0
0.0 0.0 0.0

-8.94407302645829e6 1.2192296485633364e7 0.0
1.2192296485633364e7 5.158486177827623e6 0.0
0.0 0.0 0.0

-9.285257393219035e6 1.2427537390684454e7 0.0
1.2427537390684454e7 5.411506815208915e6 0.0
0.0 0.0 0.0

-8.695844728598353e6 1.2374988382151188e7 0.0
1.2374988382151188e7 5.444246790554907e6 0.0
0.0 0.0 0.0

-1.7665888633584923e6 7.348480899691766e6 0.0
7.348480899691766e6 -1.3812447786671151e6 0.0
0.0 0.0 0.0

-9.814080046439476e6 1.2818160750446718e7 0.0
1.2818160750446718e7 5.688741609918848e6 0.0
0.0 0.0 0.0

-8.55940867796473e6 1.2120153197630608e7 0.0
1.2120153197630608e7 5.239828270874395e6 0.0
0.0 0.0 0.0

-8.205243107391909e6 1.1925664672213072e7 0.0
1.1925664672213072e7 4.961107477616475e6 0.0
0.0 0.0 0.0

-7.519729136102883e6 1.1861039475250354e7 0.0
1.1861039475250354e7 4.471341538312547e6 0.0
0.0 0.0 0.0

-7.25792761058153e6 1.1514300959469214e7 0.0
1.1514300959469214e7 4.223549349717768e6 0.0
0.0 0.0 0.0

-6.891070940136385e6 1.1319892153492127e7 0.0
1.1319892153492127e7 3.9446504863141757e6 0.0
0.0 0.0 0.0

-6.577664214947103e6 1.1138336783528563e7 0.0
1.1138336783528563e7 3.678269323836313e6 0.0
0.0 0.0 0.0

-6.26108328224461e6 1.0887776242987245e7 0.0
1.0887776242987245e7 3.394211596607937e6 0.0
0.0 0.0 0.0

-5.926179422127907e6 1.0674751060228413e7 0.0
1.0674751060228413e7 3.0687157381470413e6 0.0
0.0 0.0 0.0

-4.274342437271465e6 9.499338436794534e6 0.0
9.499338436794534e6 616267.1500108552 0.0
0.0 0.0 0.0

-5.673446140399246e6 7.331970942472233e6 0.0
7.331970942472233e6 8.486746496145884e6 0.0
0.0 0.0 0.0

-1.0428809915938504e7 1.30350629867342e7 0.0
1.30350629867342e7 6.060104650968236e6 0.0
0.0 0.0 0.0

582948.3910897223 6.953866322476476e6 0.0
6.953866322476476e6 -5.329254741450739e6 0.0
0.0 0.0 0.0

-4.089926742030423e6 8.897970501790876e6 0.0
8.897970501790876e6 1.7704115061488026e6 0.0
0.0 0.0 0.0

-1.1234193486541556e7 1.3063276220366148e7 0.0
1.3063276220366148e7 6.980421740233972e6 0.0
0.0 0.0 0.0

-2.0201382645529844e6 5.861365045096481e6 0.0
5.861365045096481e6 1.0349047867198372e6 0.0
0.0 0.0 0.0

-1.2227034708036289e7 1.3389419458502555e7 0.0
1.3389419458502555e7 7.140794695446015e6 0.0
0.0 0.0 0.0

-2.243414805347791e6 5.107424787454331e6 0.0
5.107424787454331e6 1.537552454274186e6 0.0
0.0 0.0 0.0

-1.3240911254130129e7 1.382555306254841e7 0.0
1.382555306254841e7 7.4561236193160685e6 0.0
0.0 0.0 0.0

-1.6697635193760248e6 1.0356014467177749e7 0.0
1.0356014467177749e7 -3.840535884420874e6 0.0
0.0 0.0 0.0

33609.056982757524 6.929209556929788e6 0.0
6.929209556929788e6 -4.3343923256340735e6 0.0
0.0 0.0 0.0

906492.1274335072 9.002954919135626e6 0.0
9.002954919135626e6 -7.910536247170635e6 0.0
0.0 0.0 0.0

-3.1144109480613694e6 8.491672493556995e6 0.0
8.491672493556995e6 127142.37981743726 0.0
0.0 0.0 0.0

-2.030070569434124e6 7.783356213362748e6 0.0
7.783356213362748e6 -2.1493925172711005e6 0.0
0.0 0.0 0.0

-3.8871823211129066e6 9.526788222080873e6 0.0
9.526788222080873e6 -216625.2003084917 0.0
0.0 0.0 0.0

-1.5247122361776559e6 1.0584207916379573e7 0.0
1.0584207916379573e7 -4.061094982562879e6 0.0
0.0 0.0 0.0

1.7789323819362996e6 5.385087430645034e6 0.0
5.385087430645034e6 -6.00711180451345e6 0.0
0.0 0.0 0.0

-1.705509291188007e6 5.579603748257065e6 0.0
5.579603748257065e6 -336779.6232987572 0.0
0.0 0.0 0.0

-1.4171659596756153e7 1.3924806812060231e7 0.0
1.3924806812060231e7 8.088341231027751e6 0.0
0.0 0.0 0.0

-499937.7703846133 7.045184443885106e6 0.0
7.045184443885106e6 -3.8113907773911688e6 0.0
0.0 0.0 0.0

-2.9567737694724556e6 3.9894069636588683e6 0.0
3.9894069636588683e6 2.8458170958441524e6 0.0
0.0 0.0 0.0

-2.3580923239603234e6 7.93639888502349e6 0.0
7.93639888502349e6 -815530.055279163 0.0
0.0 0.0 0.0

-7.440547955618123e6 1.1792026143053586e7 0.0
1.1792026143053586e7 3.641676618775463e6 0.0
0.0 0.0 0.0

705312.5679323138 6.830931673590043e6 0.0
6.830931673590043e6 -5.523535643140426e6 0.0
0.0 0.0 0.0

-1.2101353566714594e7 1.0736278208503349e7 0.0
1.0736278208503349e7 8.628899505826674e6 0.0
0.0 0.0 0.0

-3.018830814638526e6 7.1947318970385315e6 0.0
7.1947318970385315e6 738346.0786220124 0.0
0.0 0.0 0.0

-7.939687512332964e6 9.176141755094003e6 0.0
9.176141755094003e6 2.9968693138010697e6 0.0
0.0 0.0 0.0

-485751.43747096666 1.0298493853382532e7 0.0
1.0298493853382532e7 674745.310801299 0.0
0.0 0.0 0.0

-1.546155536465049e7 1.4641259271588974e7 0.0
1.4641259271588974e7 8.75049613426422e6 0.0
0.0 0.0 0.0

682554.9520035773 8.336194382823519e6 0.0
8.336194382823519e6 -6.81091248362215e6 0.0
0.0 0.0 0.0

-2.6208882463073507e6 6.457078344560216e6 0.0
6.457078344560216e6 120116.02227477974 0.0
0.0 0.0 0.0

-427851.2343108791 6.61710302759825e6 0.0
6.61710302759825e6 -1.4261707128462342e6 0.0
0.0 0.0 0.0

68813.04157584067 6.549338455547701e6 0.0
6.549338455547701e6 -4.729601342151302e6 0.0
0.0 0.0 0.0

470887.51041444356 8.420389550413946e6 0.0
8.420389550413946e6 -1.6972781176854097e6 0.0
0.0 0.0 0.0

391725.93148654536 6.952895498429122e6 0.0
6.952895498429122e6 -5.134755670344182e6 0.0
0.0 0.0 0.0

-400530.95262967417 9.71635045803885e6 0.0
9.71635045803885e6 -1.6119156465832323e6 0.0
0.0 0.0 0.0

-3.3114566395985717e6 8.524796567842474e6 0.0
8.524796567842474e6 511485.5418927211 0.0
0.0 0.0 0.0

-3.5409804752248344e6 8.77596613575466e6 0.0
8.77596613575466e6 17846.570027103648 0.0
0.0 0.0 0.0

-57616.1511663741 6.843220625325734e6 0.0
6.843220625325734e6 -4.339383246446738e6 0.0
0.0 0.0 0.0

1.7913744540650286e6 1.0353171282307785e7 0.0
1.0353171282307785e7 4.491451522874116e6 0.0
0.0 0.0 0.0

-806798.9223020808 7.292530084523373e6 0.0
7.292530084523373e6 -3.4955055728815016e6 0.0
0.0 0.0 0.0

-1.9063271265255036e6 7.807349706353184e6 0.0
7.807349706353184e6 -1.7426506108179651e6 0.0
0.0 0.0 0.0

-3.370157906768345e6 1.0899049178649979e7 0.0
1.0899049178649979e7 1.4774203789532457e6 0.0
0.0 0.0 0.0

-744486.7213654686 6.654400840948292e6 0.0
6.654400840948292e6 -2.9934525072515956e6 0.0
0.0 0.0 0.0

-4.899642539865491e6 1.0256754105019568e7 0.0
1.0256754105019568e7 3.5869609419478867e6 0.0
0.0 0.0 0.0

-1.8256713753694454e6 1.0697022828641305e7 0.0
1.0697022828641305e7 2.698832931085867e6 0.0
0.0 0.0 0.0

-2.337386001068879e6 7.040354559274525e6 0.0
7.040354559274525e6 538685.4341241488 0.0
0.0 0.0 0.0

-1.7071018943580512e7 1.5729746789981399e7 0.0
1.5729746789981399e7 8.472300914568745e6 0.0
0.0 0.0 0.0

-7.265723930660306e6 1.066692506149167e7 0.0
1.066692506149167e7 1.0108346323207797e7 0.0
0.0 0.0 0.0

-2.1094727896009656e6 6.704209053331275e6 0.0
6.704209053331275e6 -1.0035810381451079e6 0.0
0.0 0.0 0.0

3.676932017482264e6 9.220162186885571e6 0.0
9.220162186885571e6 -3.005172258884671e6 0.0
0.0 0.0 0.0

1.1055422206690004e6 6.676243906175903e6 0.0
6.676243906175903e6 -6.206144758612717e6 0.0
0.0 0.0 0.0

982110.5131587172 8.455977550613735e6 0.0
8.455977550613735e6 -7.618320699009836e6 0.0
0.0 0.0 0.0

-3.9412042459871257e6 8.3472953043900775e6 0.0
8.3472953043900775e6 1.9007746136091538e6 0.0
0.0 0.0 0.0

-1.0022500329875972e7 9.579013424388215e6 0.0
9.579013424388215e6 5.953800422795486e6 0.0
0.0 0.0 0.0

-2.5589029363435796e6 7.37473350913794e6 0.0
7.37473350913794e6 84142.25762058306 0.0
0.0 0.0 0.0

-2.1170914531984795e6 8.485602104354905e6 0.0
8.485602104354905e6 -2.5927364908052725e6 0.0
0.0 0.0 0.0

-1.1657394041998612e7 9.406217186193774e6 0.0
9.406217186193774e6 8.930596615063269e6 0.0
0.0 0.0 0.0

-346458.5642303347 7.441724146023368e6 0.0
7.441724146023368e6 -4.63084283274733e6 0.0
0.0 0.0 0.0

-2.8778016022433625e6 7.7128577516015805e6 0.0
7.7128577516015805e6 387016.56222015154 0.0
0.0 0.0 0.0

-1.2154465711469268e6 4.409350258301753e6 0.0
4.409350258301753e6 -674798.432755258 0.0
0.0 0.0 0.0

-3.6103984744099807e6 8.127318050826761e6 0.0
8.127318050826761e6 1.7618239859130185e6 0.0
0.0 0.0 0.0

-1.9578272131868683e7 2.0235640344416503e7 0.0
2.0235640344416503e7 4.4993846999044465e6 0.0
0.0 0.0 0.0

-2.5945772068056376e6 7.316508930460141e6 0.0
7.316508930460141e6 714538.4128539845 0.0
0.0 0.0 0.0

-779127.9070448574 3.042817503622064e6 0.0
3.042817503622064e6 -2.2940524013763764e6 0.0
0.0 0.0 0.0

-3.7289571576465005e6 9.039268226585388e6 0.0
9.039268226585388e6 754333.1211060947 0.0
0.0 0.0 0.0

-4.450236356411994e6 8.620383863837266e6 0.0
8.620383863837266e6 1.9085403169296018e6 0.0
0.0 0.0 0.0

-2.889388494450986e6 9.165285878911102e6 0.0
9.165285878911102e6 -1.0989292071026033e6 0.0
0.0 0.0 0.0

-3.7543402910896735e6 8.809030002974378e6 0.0
8.809030002974378e6 402463.856154297 0.0
0.0 0.0 0.0

-871842.5406510073 4.236662932053413e6 0.0
4.236662932053413e6 -567278.0180923173 0.0
0.0 0.0 0.0

1.0348903387069011e6 8.863533514564896e6 0.0
8.863533514564896e6 -4.1388742303362293e6 0.0
0.0 0.0 0.0

-4.8278121040823655e6 8.937507339622164e6 0.0
8.937507339622164e6 2.2630843531674575e6 0.0
0.0 0.0 0.0

-500048.5787432584 6.922534965541835e6 0.0
6.922534965541835e6 -3.970775161033951e6 0.0
0.0 0.0 0.0

1.2229139333316165e6 9.02639431209014e6 0.0
9.02639431209014e6 -3.8677249272512067e6 0.0
0.0 0.0 0.0

-7.443612002003561e6 9.03870532440159e6 0.0
9.03870532440159e6 1.7092516357953642e6 0.0
0.0 0.0 0.0

-2.758547707303661e6 7.462108176750757e6 0.0
7.462108176750757e6 890384.888179934 0.0
0.0 0.0 0.0

-1.351363554313402e6 1.0265637089874765e7 0.0
1.0265637089874765e7 -4.273275828933903e6 0.0
0.0 0.0 0.0

-5.205964205806969e6 9.342928828562263e6 0.0
9.342928828562263e6 2.9448971308790557e6 0.0
0.0 0.0 0.0

4.0150513356911005e6 5.331855179390155e6 0.0
5.331855179390155e6 -7.120765489417978e6 0.0
0.0 0.0 0.0

-43795.76750079531 595917.3449196471 0.0
595917.3449196471 -1.8128086095420173e6 0.0
0.0 0.0 0.0

354942.605764991 449368.7476090256 0.0
449368.7476090256 -2.2322997522473494e6 0.0
0.0 0.0 0.0

-1.6583947009701882e6 427779.70135802473 0.0
427779.70135802473 1.4027160540048308e6 0.0
0.0 0.0 0.0

1.4499676969811528e6 235243.7855783351 0.0
235243.7855783351 -3.545172387797853e6 0.0
0.0 0.0 0.0

-803983.1403412384 514489.2369360559 0.0
514489.2369360559 222803.5079119011 0.0
0.0 0.0 0.0

4.954985791446269e6 2.74176950825394e6 0.0
2.74176950825394e6 -7.717468244428499e6 0.0
0.0 0.0 0.0

-87482.90551737661 1.6712367919326471e6 0.0
1.6712367919326471e6 -984608.1020540452 0.0
0.0 0.0 0.0

-170470.980041531 2.3891948214831413e6 0.0
2.3891948214831413e6 -711321.2059583742 0.0
0.0 0.0 0.0

2.9833846490221843e6 304059.8486938587 0.0
304059.8486938587 -4.848737462190202e6 0.0
0.0 0.0 0.0

-361103.6869943296 998064.9554669377 0.0
998064.9554669377 -662102.2314989105 0.0
0.0 0.0 0.0

3.0548610602370077e6 2.2830581039477275e6 0.0
2.2830581039477275e6 -5.637515656535534e6 0.0
0.0 0.0 0.0

1.9105487921875648e6 2.161135856539883e6 0.0
2.161135856539883e6 -3.546541093054491e6 0.0
0.0 0.0 0.0

18035.892471534433 914242.3601382314 0.0
914242.3601382314 -1.6311288109106098e6 0.0
0.0 0.0 0.0

1.1415214638459668e6 4.91202311450498e6 0.0
4.91202311450498e6 -5.17475314400535e6 0.0
0.0 0.0 0.0

1.6059339303280571e6 5.053045181976655e6 0.0
5.053045181976655e6 -6.1275965057572415e6 0.0
0.0 0.0 0.0

699293.6643334266 4.719018088338119e6 0.0
4.719018088338119e6 -4.23415606284625e6 0.0
0.0 0.0 0.0

2.1746450334066534e6 4.917382078744026e6 0.0
4.917382078744026e6 -5.450355869545058e6 0.0
0.0 0.0 0.0

-230258.06602504844 1.3244634924530482e6 0.0
1.3244634924530482e6 -1.1817454146179236e6 0.0
0.0 0.0 0.0

-380398.6703023589 547291.9975748715 0.0
547291.9975748715 -405835.7205486313 0.0
0.0 0.0 0.0

1.4048421815278206e6 5.024998161636168e6 0.0
5.024998161636168e6 -5.715404660822042e6 0.0
0.0 0.0 0.0

3.4071356485274998e6 5.293664652385494e6 0.0
5.293664652385494e6 -6.6206934623212805e6 0.0
0.0 0.0 0.0

2.89842591872932e6 5.463802205638711e6 0.0
5.463802205638711e6 -5.716788281724874e6 0.0
0.0 0.0 0.0

3.676052386163716e6 5.48688145726074e6 0.0
5.48688145726074e6 -6.747843662063877e6 0.0
0.0 0.0 0.0

-1.3406104523410737e6 8.74350781035509e6 0.0
8.74350781035509e6 -3.1467773200546606e6 0.0
0.0 0.0 0.0

-2.1252390616740594e6 6.346150409221825e6 0.0
6.346150409221825e6 900622.9327943992 0.0
0.0 0.0 0.0

-3.145280888704747e6 2.7677406600820175e6 0.0
2.7677406600820175e6 2.5807553132264987e6 0.0
0.0 0.0 0.0

-5.069013593016893e6 1.0347254331119193e7 0.0
1.0347254331119193e7 3.6545701796702025e6 0.0
0.0 0.0 0.0

195186.61579651758 9.661290975480523e6 0.0
9.661290975480523e6 -6.521752904399799e6 0.0
0.0 0.0 0.0

-3.6018675793265896e6 7.650940166513355e6 0.0
7.650940166513355e6 902287.9356865997 0.0
0.0 0.0 0.0

-1.860325065485209e7 1.7040156094836026e7 0.0
1.7040156094836026e7 8.70252074374611e6 0.0
0.0 0.0 0.0

-2.4029865210396308e6 7.0724084436712405e6 0.0
7.0724084436712405e6 -710244.4515970581 0.0
0.0 0.0 0.0

-1.5615167334702902e6 8.563554882568171e6 0.0
8.563554882568171e6 363922.93029220554 0.0
0.0 0.0 0.0

1.0748615338358395e6 8.915990172438748e6 0.0
8.915990172438748e6 1.2619087163857596e6 0.0
0.0 0.0 0.0

-2.1386778051067074e6 1.0848127353534736e7 0.0
1.0848127353534736e7 1.014469667617018e6 0.0
0.0 0.0 0.0

-3.9416768605635697e6 8.442843281112606e6 0.0
8.442843281112606e6 2.1010445800808324e6 0.0
0.0 0.0 0.0

-542559.5291262262 1.1209580823274063e7 0.0
1.1209580823274063e7 -4.184338708175878e6 0.0
0.0 0.0 0.0

-3.5185984994751974e6 8.113874666940602e6 0.0
8.113874666940602e6 1.6756006817879733e6 0.0
0.0 0.0 0.0

-3.96200100073593e6 8.892554739852406e6 0.0
8.892554739852406e6 747837.047662385 0.0
0.0 0.0 0.0

-3.3541484210141613e6 8.758220504495274e6 0.0
8.758220504495274e6 -325462.3256093913 0.0
0.0 0.0 0.0

-2.722868909495921e6 6.84266670056484e6 0.0
6.84266670056484e6 449758.6559660031 0.0
0.0 0.0 0.0

-1.8390133017362317e6 7.736618496716357e6 0.0
7.736618496716357e6 -2.4683399803483654e6 0.0
0.0 0.0 0.0

-2.5112703249453628e6 7.135655611337248e6 0.0
7.135655611337248e6 199395.55433592433 0.0
0.0 0.0 0.0

-201670.1920130921 7.009080752219942e6 0.0
7.009080752219942e6 -4.1610023337544445e6 0.0
0.0 0.0 0.0

-309299.5095037375 727726.0399608371 0.0
727726.0399608371 -1.1925222754485845e6 0.0
0.0 0.0 0.0

-99242.5355660537 576411.9212172168 0.0
576411.9212172168 -1.3409299109892435e6 0.0
0.0 0.0 0.0

-7667.024890654211 770130.5357504421 0.0
770130.5357504421 -201363.38302563276 0.0
0.0 0.0 0.0

-476585.7950018855 1.1969974712689596e6 0.0
1.1969974712689596e6 -1.0097449319932077e6 0.0
0.0 0.0 0.0

-475400.7703910994 1.4536878788976239e6 0.0
1.4536878788976239e6 -1.0578895591662857e6 0.0
0.0 0.0 0.0

1.3254472147661967e6 5.0364754966939315e6 0.0
5.0364754966939315e6 -5.29914634781031e6 0.0
0.0 0.0 0.0

1.4918014313441117e6 5.0804367782058725e6 0.0
5.0804367782058725e6 -5.547633102558356e6 0.0
0.0 0.0 0.0

-575973.2600172951 644590.4608966215 0.0
644590.4608966215 398389.20570554613 0.0
0.0 0.0 0.0

2.0916474546876445e6 4.836474466012935e6 0.0
4.836474466012935e6 -4.21143955063261e6 0.0
0.0 0.0 0.0

3.9092778500868035e6 5.327854730993063e6 0.0
5.327854730993063e6 -6.412588453905316e6 0.0
0.0 0.0 0.0

3.15405241418184e6 5.290980288185003e6 0.0
5.290980288185003e6 -5.511087888329471e6 0.0
0.0 0.0 0.0

3.3428010091247424e6 5.421216832974764e6 0.0
5.421216832974764e6 -5.8936855272523565e6 0.0
0.0 0.0 0.0

-2.3631525054213754e6 6.485925462339359e6 0.0
6.485925462339359e6 -509458.93108638027 0.0
0.0 0.0 0.0

-5.373671309466034e6 7.82897912956394e6 0.0
7.82897912956394e6 7.588912152862391e6 0.0
0.0 0.0 0.0

-3.5301191119114766e6 8.136012452090641e6 0.0
8.136012452090641e6 1.8246445887133314e6 0.0
0.0 0.0 0.0

823362.8265652847 6.140171280443986e6 0.0
6.140171280443986e6 -4.708064948836514e6 0.0
0.0 0.0 0.0

-4.926573422300527e6 1.0440528425845463e7 0.0
1.0440528425845463e7 755971.7507340531 0.0
0.0 0.0 0.0

-2.282537395310755e6 1.0221299196624234e7 0.0
1.0221299196624234e7 2.97601737544451e6 0.0
0.0 0.0 0.0

-3.5550081039140457e6 5.85686460293505e6 0.0
5.85686460293505e6 2.5134206100334423e6 0.0
0.0 0.0 0.0

-105261.49478021404 6.523886207871375e6 0.0
6.523886207871375e6 -4.50739679452735e6 0.0
0.0 0.0 0.0

-304396.7953100116 7.765410712052164e6 0.0
7.765410712052164e6 -4.724590376950756e6 0.0
0.0 0.0 0.0

-3.0602233809415027e6 8.498057575038766e6 0.0
8.498057575038766e6 -608351.3942841572 0.0
0.0 0.0 0.0

-2.9654983438991737e6 9.904484999590918e6 0.0
9.904484999590918e6 3.8590375115780607e6 0.0
0.0 0.0 0.0

-1.494234800469963e6 5.129695993601111e6 0.0
5.129695993601111e6 -565009.3662669668 0.0
0.0 0.0 0.0

-3.100195586171009e6 9.175256044492887e6 0.0
9.175256044492887e6 -737897.607986237 0.0
0.0 0.0 0.0

-4.558452843022116e6 9.618588693483884e6 0.0
9.618588693483884e6 1.8564633330243712e6 0.0
0.0 0.0 0.0

-1.1115988341623615e6 7.534794692788684e6 0.0
7.534794692788684e6 -3.2543947469215877e6 0.0
0.0 0.0 0.0

-3.415006671920168e6 8.76974519275621e6 0.0
8.76974519275621e6 440811.9086738655 0.0
0.0 0.0 0.0

-157188.27980346663 1.7896297206133318e6 0.0
1.7896297206133318e6 2.569043919460159e6 0.0
0.0 0.0 0.0

-2.82098064962421e6 1.0068465902069757e7 0.0
1.0068465902069757e7 3.5830481085926127e6 0.0
0.0 0.0 0.0

1.7660542181169004e6 8.072450514799821e6 0.0
8.072450514799821e6 -8.542184208267655e6 0.0
0.0 0.0 0.0

861712.6411227956 8.39292453776088e6 0.0
8.39292453776088e6 -7.245269172855605e6 0.0
0.0 0.0 0.0

-2.787193739427072e6 8.903220166835492e6 0.0
8.903220166835492e6 -1.0125411797190362e6 0.0
0.0 0.0 0.0

-4.9889882298028935e6 1.0533083806814589e7 0.0
1.0533083806814589e7 2.032981127584458e6 0.0
0.0 0.0 0.0

2.9235928539942023e6 5.536224563111591e6 0.0
5.536224563111591e6 -5.261753198808602e6 0.0
0.0 0.0 0.0

-2.2537819318926292e6 7.0259635855758935e6 0.0
7.0259635855758935e6 -198821.23023870133 0.0
0.0 0.0 0.0

-3.4349054279598827e6 8.537318810751904e6 0.0
8.537318810751904e6 87162.1024362999 0.0
0.0 0.0 0.0

-3.5317295527897896e6 9.005449024908299e6 0.0
9.005449024908299e6 368856.2036014593 0.0
0.0 0.0 0.0

495916.89385751355 9.507183819470825e6 0.0
9.507183819470825e6 -6.794695933506892e6 0.0
0.0 0.0 0.0

214400.55749470345 8.355865162779846e6 0.0
8.355865162779846e6 -6.064936714748609e6 0.0
0.0 0.0 0.0

-1.906935169003634e6 5.2731195830947785e6 0.0
5.2731195830947785e6 -784121.8782506962 0.0
0.0 0.0 0.0

-3.7947896729802e6 8.15172296100621e6 0.0
8.15172296100621e6 1.637508011080888e6 0.0
0.0 0.0 0.0

323122.25423801364 9.321355136363944e6 0.0
9.321355136363944e6 -6.664651459264665e6 0.0
0.0 0.0 0.0

-3.873702470661696e6 9.768761171549577e6 0.0
9.768761171549577e6 156727.58830285026 0.0
0.0 0.0 0.0

2.7703787116885264e6 1.8161906094644805e6 0.0
1.8161906094644805e6 -5.000998853911086e6 0.0
0.0 0.0 0.0

-7.066837832433181e6 1.4457723386471255e7 0.0
1.4457723386471255e7 2.6562126593502345e6 0.0
0.0 0.0 0.0

1.9299945875442931e6 6.260292203558344e6 0.0
6.260292203558344e6 -5.032565186010454e6 0.0
0.0 0.0 0.0

-1.45507302765725e6 7.032382366078418e6 0.0
7.032382366078418e6 -1.6759182682574287e6 0.0
0.0 0.0 0.0

-4.89866874383705e6 9.149261486292284e6 0.0
9.149261486292284e6 3.2517383514621407e6 0.0
0.0 0.0 0.0

-1.6502984320612974e6 5.957139280212541e6 0.0
5.957139280212541e6 -599166.6904969984 0.0
0.0 0.0 0.0

-2.137372552882053e6 7.062814742790915e6 0.0
7.062814742790915e6 -1.075917690246264e6 0.0
0.0 0.0 0.0

-3.679867293334255e6 8.574600431110522e6 0.0
8.574600431110522e6 475127.63360758824 0.0
0.0 0.0 0.0

-1.6805737592989146e6 4.780016264832198e6 0.0
4.780016264832198e6 -1.074688832636658e6 0.0
0.0 0.0 0.0

-872406.36732129 3.724507707484866e6 0.0
3.724507707484866e6 -789726.9248322917 0.0
0.0 0.0 0.0

-3.2874114743365142e6 7.804417485222184e6 0.0
7.804417485222184e6 1.4480033598289632e6 0.0
0.0 0.0 0.0

-3.432526689553563e6 7.823628886320508e6 0.0
7.823628886320508e6 1.448092952830424e6 0.0
0.0 0.0 0.0

234921.98632661672 4.184555107778212e6 0.0
4.184555107778212e6 -4.314690986035047e6 0.0
0.0 0.0 0.0

-2.899029900379358e6 7.498517251749057e6 0.0
7.498517251749057e6 1.0315160467807057e6 0.0
0.0 0.0 0.0

-3.8522770444069803e6 9.04004749955426e6 0.0
9.04004749955426e6 341684.38786548213 0.0
0.0 0.0 0.0

1.1745966442765333e6 7.493706999788283e6 0.0
7.493706999788283e6 -6.166373225144667e6 0.0
0.0 0.0 0.0

-3.9126870241757426e6 1.057793978380329e7 0.0
1.057793978380329e7 1.7145695485737429e6 0.0
0.0 0.0 0.0

-2.762641718728161e6 8.237217284499902e6 0.0
8.237217284499902e6 -896749.3779699684 0.0
0.0 0.0 0.0

1.8984209325206447e6 2.1734040920703807e6 0.0
2.1734040920703807e6 -2.9363711546927844e6 0.0
0.0 0.0 0.0

-5.8082690719285235e6 1.051508963718403e7 0.0
1.051508963718403e7 3.9029896172694326e6 0.0
0.0 0.0 0.0

-1.8528591054540856e6 5.6979734841989875e6 0.0
5.6979734841989875e6 194747.33491555369 0.0
0.0 0.0 0.0

-2.5234949702390595e6 7.70883151706564e6 0.0
7.70883151706564e6 -834594.7994851102 0.0
0.0 0.0 0.0

-4.1677293044316173e6 9.483364277537456e6 0.0
9.483364277537456e6 978171.5109751918 0.0
0.0 0.0 0.0

-4.640098393580985e6 9.41016337017075e6 0.0
9.41016337017075e6 1.4625060665244318e6 0.0
0.0 0.0 0.0

-3.6539252058681166e6 9.023064453713696e6 0.0
9.023064453713696e6 -44814.59031690471 0.0
0.0 0.0 0.0

-3.5427938427663324e6 8.565409927599184e6 0.0
8.565409927599184e6 936422.5100952752 0.0
0.0 0.0 0.0

3.4192609775663977e6 2.5591770111886943e6 0.0
2.5591770111886943e6 -6.021146336948701e6 0.0
0.0 0.0 0.0

-5.821241976394679e6 1.1225503933217261e7 0.0
1.1225503933217261e7 1.5812644002454292e6 0.0
0.0 0.0 0.0

-1.140589203032308e6 1.0947650435720753e7 0.0
1.0947650435720753e7 -8.485968402988093e6 0.0
0.0 0.0 0.0

92410.23540786467 1.2881757420047464e7 0.0
1.2881757420047464e7 1.3902383368041571e7 0.0
0.0 0.0 0.0

-931169.4194236915 8.815720122683965e6 0.0
8.815720122683965e6 -4.419088266054598e6 0.0
0.0 0.0 0.0

-3.3020492550583645e6 9.191856405550448e6 0.0
9.191856405550448e6 -396340.64277126535 0.0
0.0 0.0 0.0

-149670.61358569702 8.941274225759849e6 0.0
8.941274225759849e6 -6.327010366724669e6 0.0
0.0 0.0 0.0

-2.4679203052054946e6 7.975088796315729e6 0.0
7.975088796315729e6 -1.1940690443944354e6 0.0
0.0 0.0 0.0

-1.7291720683252064e6 1.100145031695313e7 0.0
1.100145031695313e7 -2.971119922061135e6 0.0
0.0 0.0 0.0

-2.194391045057919e6 7.868693460531403e6 0.0
7.868693460531403e6 -1.828354724307717e6 0.0
0.0 0.0 0.0

-3.565807731447864e6 8.33645933018648e6 0.0
8.33645933018648e6 536747.4612971975 0.0
0.0 0.0 0.0

2.3474448097931454e6 7.985096481230557e6 0.0
7.985096481230557e6 -9.396320686219858e6 0.0
0.0 0.0 0.0

-4.0083528503373694e6 1.0699337868107721e7 0.0
1.0699337868107721e7 1.3009166172717456e6 0.0
0.0 0.0 0.0

-4.392458383530094e6 8.511793358013874e6 0.0
8.511793358013874e6 2.0416315558896235e6 0.0
0.0 0.0 0.0

-2.0776981140146237e6 7.881788501817972e6 0.0
7.881788501817972e6 -1.4417828116206885e6 0.0
0.0 0.0 0.0

-386.8385368050076 8.50644433420205e6 0.0
8.50644433420205e6 -5.717600059470883e6 0.0
0.0 0.0 0.0

1.7212124498977738e6 1.224203882931548e7 0.0
1.224203882931548e7 5.737371429466276e6 0.0
0.0 0.0 0.0

-3.5025220344574293e6 1.0009610755733307e7 0.0
1.0009610755733307e7 -1.0021394401501837e6 0.0
0.0 0.0 0.0

-2.0890851932699658e7 1.8252487190936815e7 0.0
1.8252487190936815e7 9.19024601645425e6 0.0
0.0 0.0 0.0

-691088.9058059561 8.75119207350559e6 0.0
8.75119207350559e6 -4.75031826236106e6 0.0
0.0 0.0 0.0

-3.364011379471812e6 8.977244944010777e6 0.0
8.977244944010777e6 11230.46306703589 0.0
0.0 0.0 0.0

3.4112395572911105e6 2.510673351008937e6 0.0
2.510673351008937e6 -5.018521342539715e6 0.0
0.0 0.0 0.0

897203.6666915286 7.132268939923654e6 0.0
7.132268939923654e6 -6.147551870959914e6 0.0
0.0 0.0 0.0

-4.21787649634433e6 9.374690405183906e6 0.0
9.374690405183906e6 1.5023009183128201e6 0.0
0.0 0.0 0.0

-408415.32209312404 9.63477631257107e6 0.0
9.63477631257107e6 -7.692712695421216e6 0.0
0.0 0.0 0.0

-2.220377296252459e6 7.928247776037997e6 0.0
7.928247776037997e6 -1.132504845904126e6 0.0
0.0 0.0 0.0

-721702.5535115217 7.054165310892089e6 0.0
7.054165310892089e6 -3.2745711718680835e6 0.0
0.0 0.0 0.0

-2.1851678643925e6 6.398335836411438e6 0.0
6.398335836411438e6 173135.7146602443 0.0
0.0 0.0 0.0

-416554.9564342648 8.690540430143077e6 0.0
8.690540430143077e6 -5.107276518546881e6 0.0
0.0 0.0 0.0

-2.3900207199478894e6 6.108543238615077e6 0.0
6.108543238615077e6 -259256.30653533555 0.0
0.0 0.0 0.0

-1.038947559271761e6 1.0131421141829805e7 0.0
1.0131421141829805e7 -4.655654000207139e6 0.0
0.0 0.0 0.0

-1.3494160830333708e7 8.839306348260196e6 0.0
8.839306348260196e6 6.766857585491635e6 0.0
0.0 0.0 0.0

-186828.18314166187 1.9353934390293034e6 0.0
1.9353934390293034e6 -825478.3610268714 0.0
0.0 0.0 0.0

-2.458094212505196e6 6.734375737432247e6 0.0
6.734375737432247e6 587125.0060514032 0.0
0.0 0.0 0.0

-3.61851432173098e6 8.81189317686246e6 0.0
8.81189317686246e6 855839.6599126011 0.0
0.0 0.0 0.0

-7.655234676237744e6 -2.229342260141395e6 0.0
-2.229342260141395e6 1.247834790680233e7 0.0
0.0 0.0 0.0

-923866.3348653507 1.061738816149736e7 0.0
1.061738816149736e7 962530.8855999219 0.0
0.0 0.0 0.0

-2.3339313522022683e6 7.93470116267657e6 0.0
7.93470116267657e6 -1.5138396653843406e6 0.0
0.0 0.0 0.0

-2.6064511113885585e6 1.0298453321763271e7 0.0
1.0298453321763271e7 -1.946975893159999e6 0.0
0.0 0.0 0.0

-2.7112239813702554e6 8.903941047229867e6 0.0
8.903941047229867e6 -1.7350227043857141e6 0.0
0.0 0.0 0.0

-1.4550470089149766e6 7.0444725019542165e6 0.0
7.0444725019542165e6 -2.3853958659214266e6 0.0
0.0 0.0 0.0

-3.315504834601044e6 8.975713888394387e6 0.0
8.975713888394387e6 -735272.7051810678 0.0
0.0 0.0 0.0

-3.837371184340534e6 8.417725295411417e6 0.0
8.417725295411417e6 2.2181058643948194e6 0.0
0.0 0.0 0.0

-2.8093252826883513e6 7.487788786470967e6 0.0
7.487788786470967e6 499682.5735620387 0.0
0.0 0.0 0.0

-2.444427092414684e6 7.402232164332466e6 0.0
7.402232164332466e6 -784919.159259404 0.0
0.0 0.0 0.0

1.7122519257978653e6 7.206435131467235e6 0.0
7.206435131467235e6 -7.629297658171731e6 0.0
0.0 0.0 0.0

-5.697853859546111e6 1.0831288672106393e7 0.0
1.0831288672106393e7 3.9193495630372013e6 0.0
0.0 0.0 0.0

-407501.2728783429 2.238904272500255e6 0.0
2.238904272500255e6 -881159.5223805907 0.0
0.0 0.0 0.0

-3.6920138102416783e6 8.327341373814846e6 0.0
8.327341373814846e6 1.9098589003783816e6 0.0
0.0 0.0 0.0

-908240.6767216657 6.836087948806538e6 0.0
6.836087948806538e6 -2.9188578903526333e6 0.0
0.0 0.0 0.0

719194.178850932 5.122980705513925e6 0.0
5.122980705513925e6 -4.515142815002658e6 0.0
0.0 0.0 0.0

-204610.64576695208 8.571976196835058e6 0.0
8.571976196835058e6 -5.430685139674387e6 0.0
0.0 0.0 0.0

-1.0415150771692608e6 3.4770757966369893e6 0.0
3.4770757966369893e6 -1.790063368139255e6 0.0
0.0 0.0 0.0

-6.229812366608346e6 4.066357660708294e6 0.0
4.066357660708294e6 6.75817554442099e6 0.0
0.0 0.0 0.0

-2.907177675890762e6 8.47731693506412e6 0.0
8.47731693506412e6 -944732.4979528406 0.0
0.0 0.0 0.0

-380840.36633793224 1.8310179488053173e6 0.0
1.8310179488053173e6 -946947.0444120136 0.0
0.0 0.0 0.0

-2.1333864182156054e6 5.70669180645062e6 0.0
5.70669180645062e6 -522550.68103062373 0.0
0.0 0.0 0.0

-2.9302574802324004e6 1.0458105681444379e7 0.0
1.0458105681444379e7 -1.4828921579129477e6 0.0
0.0 0.0 0.0

245682.87930159783 9.813936235378796e6 0.0
9.813936235378796e6 -6.184455347577894e6 0.0
0.0 0.0 0.0

-871293.4157299158 7.100703954413593e6 0.0
7.100703954413593e6 -3.864030701893333e6 0.0
0.0 0.0 0.0

-331358.3672891373 5.416045620280264e6 0.0
5.416045620280264e6 -3.614268261194268e6 0.0
0.0 0.0 0.0

-2.5049155141745172e6 8.198619167553492e6 0.0
8.198619167553492e6 -850564.2058012113 0.0
0.0 0.0 0.0

-3.580649199658042e6 9.4489676030819e6 0.0
9.4489676030819e6 5.041828179253225e6 0.0
0.0 0.0 0.0

-4.709080153091296e6 9.554165121544668e6 0.0
9.554165121544668e6 1.382974621955892e6 0.0
0.0 0.0 0.0

-4.940152422956038e6 8.223128366164563e6 0.0
8.223128366164563e6 4.409376372635387e6 0.0
0.0 0.0 0.0

-4.643182492288612e6 9.158554985793129e6 0.0
9.158554985793129e6 3.023040403985407e6 0.0
0.0 0.0 0.0

-534951.9814844031 6.307551225347819e6 0.0
6.307551225347819e6 -3.3694100642906018e6 0.0
0.0 0.0 0.0

-1.9313725218516574e6 5.992653397560486e6 0.0
5.992653397560486e6 -97440.70007603767 0.0
0.0 0.0 0.0

-1.3952942357356823e6 1.0510427585779233e7 0.0
1.0510427585779233e7 1.1938160065018544e6 0.0
0.0 0.0 0.0

-1.5717044945280934e6 7.107416483724497e6 0.0
7.107416483724497e6 -2.0720260460821227e6 0.0
0.0 0.0 0.0

111729.46062039793 9.429401455380542e6 0.0
9.429401455380542e6 -6.300506473854437e6 0.0
0.0 0.0 0.0

-2.7927536346028843e6 8.456849412607593e6 0.0
8.456849412607593e6 -558015.8341511526 0.0
0.0 0.0 0.0

-1.2001785034966716e6 8.843806463767393e6 0.0
8.843806463767393e6 -4.0944876374275265e6 0.0
0.0 0.0 0.0

-2.1913138575986526e6 6.544064336493018e6 0.0
6.544064336493018e6 46373.429601124604 0.0
0.0 0.0 0.0

-1.1054027414325387e6 9.198869997783303e6 0.0
9.198869997783303e6 -6.5578961867306065e6 0.0
0.0 0.0 0.0

-3.078619084849039e6 8.715452636164278e6 0.0
8.715452636164278e6 -272860.8708121057 0.0
0.0 0.0 0.0

2.2872288809273364e6 9.983143459231356e6 0.0
9.983143459231356e6 -3.698136734146673e6 0.0
0.0 0.0 0.0

-8.473930201686092e6 -1.266498983700013e6 0.0
-1.266498983700013e6 1.2772039125409944e7 0.0
0.0 0.0 0.0

-1.1337877159450844e7 1.124621003004038e7 0.0
1.124621003004038e7 7.9080990127524175e6 0.0
0.0 0.0 0.0

-2.6840635735561037e6 1.0884114757542811e7 0.0
1.0884114757542811e7 1.5391629567759233e6 0.0
0.0 0.0 0.0

-6.949454243401266e6 4.754583601157427e6 0.0
4.754583601157427e6 9.07228533191603e6 0.0
0.0 0.0 0.0

-5.352870570896477e6 1.0091628315490447e7 0.0
1.0091628315490447e7 3.6707875235471935e6 0.0
0.0 0.0 0.0

-1.9560121106282857e6 6.652409219934935e6 0.0
6.652409219934935e6 -477278.9707015023 0.0
0.0 0.0 0.0

-2.1827772398463776e6 8.095574552993771e6 0.0
8.095574552993771e6 -1.471666759492135e6 0.0
0.0 0.0 0.0

-2.6234146892783153e6 8.43138238051005e6 0.0
8.43138238051005e6 -882730.5636994869 0.0
0.0 0.0 0.0

-660099.2806739742 4.776318165288041e6 0.0
4.776318165288041e6 -1.8964891583069188e6 0.0
0.0 0.0 0.0

-3.306046784422701e6 1.0601480148627028e7 0.0
1.0601480148627028e7 -1.0614421253530798e6 0.0
0.0 0.0 0.0

43877.13324834942 6.185651812543407e6 0.0
6.185651812543407e6 -4.7550306464114385e6 0.0
0.0 0.0 0.0

1.2794269197906966e6 4.302469439455756e6 0.0
4.302469439455756e6 -5.614304080045157e6 0.0
0.0 0.0 0.0

-4.627525040212308e6 9.034791190818636e6 0.0
9.034791190818636e6 3.4356117413352802e6 0.0
0.0 0.0 0.0

-4.460493642740076e6 9.527246930603528e6 0.0
9.527246930603528e6 928652.9678363088 0.0
0.0 0.0 0.0

1.3946744038068769e6 1.0731908911024904e7 0.0
1.0731908911024904e7 -3.972767933336278e6 0.0
0.0 0.0 0.0

-6.702122218050377e6 9.947898329437647e6 0.0
9.947898329437647e6 2.922766146455938e6 0.0
0.0 0.0 0.0

2.649908271760149e6 6.070032904489476e6 0.0
6.070032904489476e6 -6.367040537465228e6 0.0
0.0 0.0 0.0

-1.72708557378826e6 7.096029187474791e6 0.0
7.096029187474791e6 -1.7660674507141812e6 0.0
0.0 0.0 0.0

7.583997354542497e6 9.913068162713636e6 0.0
9.913068162713636e6 -307409.8329552654 0.0
0.0 0.0 0.0

-146536.1579642482 5.994292715651348e6 0.0
5.994292715651348e6 -3.6970287370202686e6 0.0
0.0 0.0 0.0

793465.4927535283 6.627607570277244e6 0.0
6.627607570277244e6 -5.643967400495743e6 0.0
0.0 0.0 0.0

-4.986368716074656e6 8.212768387690243e6 0.0
8.212768387690243e6 6.871217122617348e6 0.0
0.0 0.0 0.0

-1.0014636323391864e6 9.666668856042854e6 0.0
9.666668856042854e6 -4.606442337309986e6 0.0
0.0 0.0 0.0

-1.8836797594628073e6 6.69617394629508e6 0.0
6.69617394629508e6 238427.5928849479 0.0
0.0 0.0 0.0

-1.1672332803606402e7 1.012309630140859e7 0.0
1.012309630140859e7 8.054129345898543e6 0.0
0.0 0.0 0.0

-4.872320170274427e6 8.497178421259675e6 0.0
8.497178421259675e6 6.351561786693318e6 0.0
0.0 0.0 0.0

-5.329600076789941e6 1.042529937233929e7 0.0
1.042529937233929e7 3.735799390366986e6 0.0
0.0 0.0 0.0

-1.23903954035192e7 1.003545849231181e7 0.0
1.003545849231181e7 7.363591850023327e6 0.0
0.0 0.0 0.0

-2.6681907665155632e6 7.114929854335595e6 0.0
7.114929854335595e6 -319715.73180692224 0.0
0.0 0.0 0.0

1.1546293739609506e7 6.214526888838427e6 0.0
6.214526888838427e6 -2.914497550347308e6 0.0
0.0 0.0 0.0

-2.7841149828390554e6 9.150155898495605e6 0.0
9.150155898495605e6 -1.4598909913595472e6 0.0
0.0 0.0 0.0

-936551.7775243488 6.455673201864679e6 0.0
6.455673201864679e6 -3.206612288390884e6 0.0
0.0 0.0 0.0

-3.707655371536433e6 1.065829349938795e7 0.0
1.065829349938795e7 -620439.3634280724 0.0
0.0 0.0 0.0

-4.829854580896063e6 1.059090666588252e7 0.0
1.059090666588252e7 678801.1842630508 0.0
0.0 0.0 0.0

-36042.8094654883 4.922505917105303e6 0.0
4.922505917105303e6 -2.7676650901584825e6 0.0
0.0 0.0 0.0

-3.7541647487246124e6 1.04818839392416e7 0.0
1.04818839392416e7 3.112648181192984e6 0.0
0.0 0.0 0.0

86830.31781932712 9.09951984463493e6 0.0
9.09951984463493e6 -6.3722508117537815e6 0.0
0.0 0.0 0.0

-2.7300094669731865e6 2.269168945210708e6 0.0
2.269168945210708e6 1.842077895318073e6 0.0
0.0 0.0 0.0

-4.371648555922618e6 9.31957310055795e6 0.0
9.31957310055795e6 1.0052713990898533e6 0.0
0.0 0.0 0.0

-1.9939636108243056e6 6.979402011145365e6 0.0
6.979402011145365e6 -579667.2576196381 0.0
0.0 0.0 0.0

-4.328956205304254e6 9.546757462426882e6 0.0
9.546757462426882e6 1.3629534316337442e6 0.0
0.0 0.0 0.0

-2.1181332212123764e6 8.729400186180623e6 0.0
8.729400186180623e6 -2.2453660159346005e6 0.0
0.0 0.0 0.0

-1.2682692424908052e6 4.778250308557956e6 0.0
4.778250308557956e6 -365430.5336443921 0.0
0.0 0.0 0.0

-5.446985522349064e6 9.606816622618962e6 0.0
9.606816622618962e6 3.1987322893142435e6 0.0
0.0 0.0 0.0

-4.713942861788608e6 9.513448892895067e6 0.0
9.513448892895067e6 4.608254251454246e6 0.0
0.0 0.0 0.0

-4.348778816817794e6 8.86081170924358e6 0.0
8.86081170924358e6 2.6595973149722624e6 0.0
0.0 0.0 0.0

-1.338634435894202e6 7.054208542500787e6 0.0
7.054208542500787e6 -1.9962341215765856e6 0.0
0.0 0.0 0.0

462761.8885072558 8.468123023926038e6 0.0
8.468123023926038e6 -6.507371209861785e6 0.0
0.0 0.0 0.0

-3.2682671398654506e6 7.581312506175878e6 0.0
7.581312506175878e6 376246.0820290493 0.0
0.0 0.0 0.0

-2.3345489377491134e6 9.59018612361868e6 0.0
9.59018612361868e6 -2.836624568506713e6 0.0
0.0 0.0 0.0

-2.240472328381931e6 8.611245307189673e6 0.0
8.611245307189673e6 -2.6314441195609113e6 0.0
0.0 0.0 0.0

-4.6778307218843065e6 1.0490887729686286e7 0.0
1.0490887729686286e7 305026.8828977768 0.0
0.0 0.0 0.0

-2.9905940844889088e6 9.19626597174327e6 0.0
9.19626597174327e6 -1.4567180083869193e6 0.0
0.0 0.0 0.0

-155856.66776645486 8.085604785494377e6 0.0
8.085604785494377e6 -5.152931158326566e6 0.0
0.0 0.0 0.0

1.138879557547928e6 3.8755483510732544e6 0.0
3.8755483510732544e6 -3.8357379022054416e6 0.0
0.0 0.0 0.0

-102477.91902419575 2.713670043019006e6 0.0
2.713670043019006e6 -1.7567039298289737e6 0.0
0.0 0.0 0.0

-8.4146178597085e6 1.2482837208978083e7 0.0
1.2482837208978083e7 4.626423396654105e6 0.0
0.0 0.0 0.0

-2.9561122984379632e6 7.2229348486635955e6 0.0
7.2229348486635955e6 84464.03091903217 0.0
0.0 0.0 0.0

-3.4227504988263347e6 9.228948608141838e6 0.0
9.228948608141838e6 -808323.1836990956 0.0
0.0 0.0 0.0

4.554225371331555e6 4.308607260753644e6 0.0
4.308607260753644e6 -6.514024710767133e6 0.0
0.0 0.0 0.0

-1.0707157385294262e7 -1.3459005284852004e6 0.0
-1.3459005284852004e6 1.3741852599622615e7 0.0
0.0 0.0 0.0

-224804.09163787123 6.677221929435971e6 0.0
6.677221929435971e6 -4.327162599275577e6 0.0
0.0 0.0 0.0

-2.6122255274221255e6 1.338734785081935e7 0.0
1.338734785081935e7 -2.681980698749767e6 0.0
0.0 0.0 0.0

-4.822550749236951e6 1.1468692187242808e7 0.0
1.1468692187242808e7 747235.7098875397 0.0
0.0 0.0 0.0

-5.538248315720731e6 9.644709865178015e6 0.0
9.644709865178015e6 3.1756231440678774e6 0.0
0.0 0.0 0.0

1.7403676585919238e6 5.833625584395143e6 0.0
5.833625584395143e6 -6.495960297530914e6 0.0
0.0 0.0 0.0

-3.475368289146557e6 9.222084221060917e6 0.0
9.222084221060917e6 -53574.04354511481 0.0
0.0 0.0 0.0

-4.091330065721856e6 9.941943384946723e6 0.0
9.941943384946723e6 35206.5641042362 0.0
0.0 0.0 0.0

1.0235911340809404e6 6.959935736625495e6 0.0
6.959935736625495e6 -6.361463823767088e6 0.0
0.0 0.0 0.0

-5.313700975818524e6 1.0451218454079408e7 0.0
1.0451218454079408e7 1.5802311490709241e6 0.0
0.0 0.0 0.0

-592915.225019942 1.1633621811675092e7 0.0
1.1633621811675092e7 -3.9554931781644667e6 0.0
0.0 0.0 0.0

-3.4831334621160156e6 9.002252136076115e6 0.0
9.002252136076115e6 -392553.3956266687 0.0
0.0 0.0 0.0

577037.5834897491 9.444405321679544e6 0.0
9.444405321679544e6 -6.771902609802127e6 0.0
0.0 0.0 0.0

1.59263156322924e6 6.015565016784335e6 0.0
6.015565016784335e6 -6.00963420591992e6 0.0
0.0 0.0 0.0

-847166.0984979393 7.171111573037127e6 0.0
7.171111573037127e6 -3.689958620491896e6 0.0
0.0 0.0 0.0

-3.582346127918405e6 1.0015767052523399e7 0.0
1.0015767052523399e7 -611661.226280225 0.0
0.0 0.0 0.0

-1.0740694562671056e6 1.1676742266535657e7 0.0
1.1676742266535657e7 -3.9490879573501647e6 0.0
0.0 0.0 0.0

-3.2179146456699357e6 9.210402980454242e6 0.0
9.210402980454242e6 -1.1409107536546555e6 0.0
0.0 0.0 0.0

424622.04746072297 7.21742789578451e6 0.0
7.21742789578451e6 -4.856824479026072e6 0.0
0.0 0.0 0.0

1.177720998705276e6 5.948156897941331e6 0.0
5.948156897941331e6 -5.311482222327305e6 0.0
0.0 0.0 0.0

-1.833189395209137e6 8.856733130452842e6 0.0
8.856733130452842e6 -3.3124129957884345e6 0.0
0.0 0.0 0.0

-1.0992062964405604e6 7.109810473307325e6 0.0
7.109810473307325e6 -3.34427882740936e6 0.0
0.0 0.0 0.0

-2.373085963653043e6 6.752377911680541e6 0.0
6.752377911680541e6 -615424.9855117481 0.0
0.0 0.0 0.0

-6.619643327521418e6 1.0340982164008318e7 0.0
1.0340982164008318e7 3.398498448274298e6 0.0
0.0 0.0 0.0

-1.0892654111292327e7 8.523114641390394e6 0.0
8.523114641390394e6 3.0768374142619245e7 0.0
0.0 0.0 0.0

-2.0473162001469894e6 3.5222353207181e6 0.0
3.5222353207181e6 1.1096540093461368e6 0.0
0.0 0.0 0.0

-4.370014493563295e6 1.1693431580196412e7 0.0
1.1693431580196412e7 -844522.7481057077 0.0
0.0 0.0 0.0

-2.647397630334232e6 6.865055923969444e6 0.0
6.865055923969444e6 -214941.742810425 0.0
0.0 0.0 0.0

-7.134969597379832e6 1.8103012349262186e6 0.0
1.8103012349262186e6 1.0384308774770616e7 0.0
0.0 0.0 0.0

514011.8862673119 5.668586549846008e6 0.0
5.668586549846008e6 -4.478509667793065e6 0.0
0.0 0.0 0.0

-2.782915301725435e6 7.302149379625753e6 0.0
7.302149379625753e6 649168.2084535414 0.0
0.0 0.0 0.0

-642815.7012194452 9.705113697033701e6 0.0
9.705113697033701e6 -5.2059876379984e6 0.0
0.0 0.0 0.0

-3.9982348238745863e6 1.0726707942689344e7 0.0
1.0726707942689344e7 -207592.2078073707 0.0
0.0 0.0 0.0

-3.5650636543809627e6 9.464143261809126e6 0.0
9.464143261809126e6 -132006.69497574458 0.0
0.0 0.0 0.0

-2.8708871399120125e6 6.818613969569811e6 0.0
6.818613969569811e6 482067.92898837465 0.0
0.0 0.0 0.0

-2.2152491307122326e6 7.644699929030226e6 0.0
7.644699929030226e6 -752051.2367527122 0.0
0.0 0.0 0.0

-1.8987148542005129e6 5.578169267925604e6 0.0
5.578169267925604e6 -480026.95427573076 0.0
0.0 0.0 0.0

-2.0241880832576092e7 5.160661963094295e6 0.0
5.160661963094295e6 1.0308581883010708e7 0.0
0.0 0.0 0.0

-1.1942528489469346e6 8.226701758584035e6 0.0
8.226701758584035e6 2.3741189304631064e6 0.0
0.0 0.0 0.0

-5.069939890473763e6 9.610150695392704e6 0.0
9.610150695392704e6 3.6131274326343355e6 0.0
0.0 0.0 0.0

-5.111924521772329e6 9.971509009125693e6 0.0
9.971509009125693e6 2.6141626079095462e6 0.0
0.0 0.0 0.0

105962.42479739175 6.866259546505752e6 0.0
6.866259546505752e6 -4.895801676114489e6 0.0
0.0 0.0 0.0

762800.1134807558 7.015439369679167e6 0.0
7.015439369679167e6 -5.707161265882655e6 0.0
0.0 0.0 0.0

1.2893996030438566e6 7.788602671121701e6 0.0
7.788602671121701e6 -6.71303720899103e6 0.0
0.0 0.0 0.0

-2.6456032206293344e6 6.515012601238235e6 0.0
6.515012601238235e6 7010.493081615772 0.0
0.0 0.0 0.0

-4.314250810191137e6 4.526207518867897e6 0.0
4.526207518867897e6 3.789171945403874e6 0.0
0.0 0.0 0.0

-1.8674739334143605e6 5.968718554932327e6 0.0
5.968718554932327e6 80396.01020219736 0.0
0.0 0.0 0.0

479054.0448894729 1.1289179763608493e7 0.0
1.1289179763608493e7 -4.017376441669855e6 0.0
0.0 0.0 0.0

228741.33501254278 9.310182931518937e6 0.0
9.310182931518937e6 -6.265279143720863e6 0.0
0.0 0.0 0.0

-5.632139520187965e6 1.0006681965646183e7 0.0
1.0006681965646183e7 3.643705465080981e6 0.0
0.0 0.0 0.0

-6.525224235034471e6 1.4701684021012768e7 0.0
1.4701684021012768e7 1.3328439462025645e6 0.0
0.0 0.0 0.0

-6.294624385437107e6 1.065193940142378e7 0.0
1.065193940142378e7 3.5867592549889013e6 0.0
0.0 0.0 0.0

-4.62460574435561e6 8.848499723549936e6 0.0
8.848499723549936e6 5.2510603380162595e6 0.0
0.0 0.0 0.0

2.436825142612301e6 7.345955052470749e6 0.0
7.345955052470749e6 -9.701421217387341e6 0.0
0.0 0.0 0.0

-1.8763528409223e6 8.2621046373381065e6 0.0
8.2621046373381065e6 -2.2002013917578734e6 0.0
0.0 0.0 0.0

3.9073675249016755e6 3.3870886873281756e6 0.0
3.3870886873281756e6 -5.931211536694601e6 0.0
0.0 0.0 0.0

1.5390696789037152e6 7.330884454443247e6 0.0
7.330884454443247e6 -6.827904155705945e6 0.0
0.0 0.0 0.0

-5.618257747156167e6 9.745581517094199e6 0.0
9.745581517094199e6 3.1375292882617544e6 0.0
0.0 0.0 0.0

-2.898421373393772e6 5.846296633551246e6 0.0
5.846296633551246e6 2.456134894886014e6 0.0
0.0 0.0 0.0

-4.755646967907442e6 8.518396796763543e6 0.0
8.518396796763543e6 5.754329336931892e6 0.0
0.0 0.0 0.0

-5.164479695322316e6 9.840901202750955e6 0.0
9.840901202750955e6 3.7821558120726086e6 0.0
0.0 0.0 0.0

-174609.3600147916 6.928550714063323e6 0.0
6.928550714063323e6 -4.199944553713159e6 0.0
0.0 0.0 0.0

-4.578606352690882e6 1.1847806844900245e7 0.0
1.1847806844900245e7 2.456809076714295e6 0.0
0.0 0.0 0.0

-8.113336657359606e6 1.2688830521736335e7 0.0
1.2688830521736335e7 3.842093713201624e6 0.0
0.0 0.0 0.0

-5.986722552604259e6 1.035109029141129e7 0.0
1.035109029141129e7 3.8724606229883647e6 0.0
0.0 0.0 0.0

-4.555007275044702e6 8.724734596152555e6 0.0
8.724734596152555e6 5.872811637320053e6 0.0
0.0 0.0 0.0

-2.0254286338516813e7 2.702725043076678e7 0.0
2.702725043076678e7 -2.4704977851682715e6 0.0
0.0 0.0 0.0

-3.526499783797158e6 9.400096813110383e6 0.0
9.400096813110383e6 2.0839360521343618e6 0.0
0.0 0.0 0.0

-3.6382968205777295e6 7.863195236994754e6 0.0
7.863195236994754e6 1.3793805767372672e6 0.0
0.0 0.0 0.0

-1.0720439340484433e6 4.366797810392041e6 0.0
4.366797810392041e6 -868596.7639402077 0.0
0.0 0.0 0.0

-2.3508702564420253e6 8.162104202626522e6 0.0
8.162104202626522e6 -1.1638897523548221e6 0.0
0.0 0.0 0.0

-3.7980319715254633e6 1.1360937955911292e7 0.0
1.1360937955911292e7 567192.4043966096 0.0
0.0 0.0 0.0

-1.00122345592906e7 1.1116580893240444e7 0.0
1.1116580893240444e7 7.16252245089603e6 0.0
0.0 0.0 0.0

-3.205591920700613e6 9.443843725304404e6 0.0
9.443843725304404e6 -755998.8514085651 0.0
0.0 0.0 0.0

-3.9961314996317257e6 9.736243802742323e6 0.0
9.736243802742323e6 -240682.50222587143 0.0
0.0 0.0 0.0

-978992.554541236 3.775815119568596e6 0.0
3.775815119568596e6 488516.0640583132 0.0
0.0 0.0 0.0

278944.8492686746 5.823542675592266e6 0.0
5.823542675592266e6 -4.180042491962621e6 0.0
0.0 0.0 0.0

-7.151573162454575e6 1.2367292037151845e7 0.0
1.2367292037151845e7 3.7244780727858553e6 0.0
0.0 0.0 0.0

-4.732551671985766e6 9.25296141116955e6 0.0
9.25296141116955e6 4.932280904143859e6 0.0
0.0 0.0 0.0

-4.773349114019714e6 1.0509388641555177e7 0.0
1.0509388641555177e7 416808.65973493946 0.0
0.0 0.0 0.0

-235038.23916095588 2.270107965939737e6 0.0
2.270107965939737e6 -3.548994118101107e6 0.0
0.0 0.0 0.0

-5.867385368321395e6 1.186995651736934e7 0.0
1.186995651736934e7 1.5823691298652422e6 0.0
0.0 0.0 0.0

-3.5984206728796116e6 9.246460023559123e6 0.0
9.246460023559123e6 -470419.06268694333 0.0
0.0 0.0 0.0

-1.5048981549846139e6 8.846603382092541e6 0.0
8.846603382092541e6 -3.708793516719642e6 0.0
0.0 0.0 0.0

-2.9123743753736094e6 8.691742595013032e6 0.0
8.691742595013032e6 -601482.307937087 0.0
0.0 0.0 0.0

-336027.6392664192 6.631445484578978e6 0.0
6.631445484578978e6 -4.343186155030428e6 0.0
0.0 0.0 0.0

-3.19646230074845e6 8.281933095418313e6 0.0
8.281933095418313e6 584620.0267855227 0.0
0.0 0.0 0.0

-1.1838677099230976e6 4.674260578053443e6 0.0
4.674260578053443e6 -816887.6662589114 0.0
0.0 0.0 0.0

-2.415203067655223e6 6.87825815074513e6 0.0
6.87825815074513e6 870947.0398216537 0.0
0.0 0.0 0.0

-2.7332712658556756e6 7.115136573813402e6 0.0
7.115136573813402e6 882823.9675925198 0.0
0.0 0.0 0.0

-1.1476976548681876e6 8.514419622400852e6 0.0
8.514419622400852e6 -6.114029458330848e6 0.0
0.0 0.0 0.0

-2.4732891922900206e6 6.726140977312923e6 0.0
6.726140977312923e6 544416.8611157357 0.0
0.0 0.0 0.0

-1.811551182471666e7 8.980490138674818e6 0.0
8.980490138674818e6 8.498704897126911e6 0.0
0.0 0.0 0.0

-2.964442609685639e6 7.03291025060062e6 0.0
7.03291025060062e6 189428.2678719093 0.0
0.0 0.0 0.0

-1.0823928747450416e6 1.1166678228863783e7 0.0
1.1166678228863783e7 -379815.8247163338 0.0
0.0 0.0 0.0

-2.0406381582033105e7 3.4921330023851185e6 0.0
3.4921330023851185e6 8.500543786597583e6 0.0
0.0 0.0 0.0

-9415.449362973217 1.154823141470407e7 0.0
1.154823141470407e7 -4.0747762353827427e6 0.0
0.0 0.0 0.0

-2.211298487219897e6 6.765229140210534e6 0.0
6.765229140210534e6 -78034.2018402213 0.0
0.0 0.0 0.0

-491085.82780175365 7.128208315267955e6 0.0
7.128208315267955e6 -3.636059020559701e6 0.0
0.0 0.0 0.0

-5.362068494174423e6 1.0103626895360498e7 0.0
1.0103626895360498e7 2.98704606800375e6 0.0
0.0 0.0 0.0

-615040.8330538154 7.022413799880804e6 0.0
7.022413799880804e6 -4.228856376088417e6 0.0
0.0 0.0 0.0

-537767.7666639917 7.757888653823667e6 0.0
7.757888653823667e6 -4.47099274199576e6 0.0
0.0 0.0 0.0

-1.5036590128021827e6 4.45825564566955e6 0.0
4.45825564566955e6 -1.0276117209284515e6 0.0
0.0 0.0 0.0

-4.454948623066648e6 8.714791658476563e6 0.0
8.714791658476563e6 2.335415257465612e6 0.0
0.0 0.0 0.0

1.1836400447273373e6 6.921521054149323e6 0.0
6.921521054149323e6 -5.807419972600709e6 0.0
0.0 0.0 0.0

-1.4854471843900569e6 5.81397694826582e6 0.0
5.81397694826582e6 31726.116016177984 0.0
0.0 0.0 0.0

-598520.491979026 7.352322578553145e6 0.0
7.352322578553145e6 -4.358123655672861e6 0.0
0.0 0.0 0.0

-3.0063602064622257e7 -2.0061608228446678e6 0.0
-2.0061608228446678e6 1.3493651967955144e7 0.0
0.0 0.0 0.0

2.3820583711452973e6 7.268757285486683e6 0.0
7.268757285486683e6 -9.355699962053463e6 0.0
0.0 0.0 0.0

-3.9476642093702815e6 8.178431513817711e6 0.0
8.178431513817711e6 1.7043444126997357e6 0.0
0.0 0.0 0.0

-4.403891559040522e6 8.538417739627453e6 0.0
8.538417739627453e6 2.046083281049666e6 0.0
0.0 0.0 0.0

-5.732216194590674e6 1.0834467690377507e7 0.0
1.0834467690377507e7 3.8053175120816436e6 0.0
0.0 0.0 0.0

-2.6182567943174536e6 8.212226005293969e6 0.0
8.212226005293969e6 -1.2323504780614495e6 0.0
0.0 0.0 0.0

-4.0392662111461256e6 1.0085108986412365e7 0.0
1.0085108986412365e7 3.6700626430755435e6 0.0
0.0 0.0 0.0

-1.3618766965615596e6 7.681846793126988e6 0.0
7.681846793126988e6 -3.458087083862148e6 0.0
0.0 0.0 0.0

518362.0010119914 7.553656103728058e6 0.0
7.553656103728058e6 -5.69918972515616e6 0.0
0.0 0.0 0.0

-5.340363660898393e6 9.951730086214537e6 0.0
9.951730086214537e6 3.0430258034158414e6 0.0
0.0 0.0 0.0

-5.806574169091065e6 1.225308932267779e7 0.0
1.225308932267779e7 839714.1155142165 0.0
0.0 0.0 0.0

1.8659137977455356e6 7.621001301631535e6 0.0
7.621001301631535e6 -7.899910502703314e6 0.0
0.0 0.0 0.0

-2.115861745568216e6 6.365376216107175e6 0.0
6.365376216107175e6 340980.1081415636 0.0
0.0 0.0 0.0

-6.076858391907432e6 1.0826559566338215e7 0.0
1.0826559566338215e7 3.6300503852581275e6 0.0
0.0 0.0 0.0

-2.680049245010391e7 2.184034191405269e7 0.0
2.184034191405269e7 7.425717754616184e6 0.0
0.0 0.0 0.0

-4.364831197968584e6 2.5819778458339833e6 0.0
2.5819778458339833e6 6.405941156803092e6 0.0
0.0 0.0 0.0

-495286.3821568785 8.304077254624513e6 0.0
8.304077254624513e6 -5.789138069320835e6 0.0
0.0 0.0 0.0

121793.21890881413 2.5211148285662304e6 0.0
2.5211148285662304e6 -2.308052202585305e6 0.0
0.0 0.0 0.0

-1.9883901826794595e6 700157.5553514239 0.0
700157.5553514239 2.525558446071873e6 0.0
0.0 0.0 0.0

2.1043634611042826e6 5.534852963696683e6 0.0
5.534852963696683e6 -7.052136037399322e6 0.0
0.0 0.0 0.0

-3.0890824694653973e6 1.0805809463229267e7 0.0
1.0805809463229267e7 801787.7320546275 0.0
0.0 0.0 0.0

144523.4801430949 9.906886079636127e6 0.0
9.906886079636127e6 -6.09357589782418e6 0.0
0.0 0.0 0.0

-9.47972927393548e6 5.46021075407218e6 0.0
5.46021075407218e6 1.060018800518574e7 0.0
0.0 0.0 0.0

-3.9053819266744014e6 1.1546618648896266e7 0.0
1.1546618648896266e7 -1.306160327142694e6 0.0
0.0 0.0 0.0

-614042.5334772818 6.881303137725006e6 0.0
6.881303137725006e6 -4.1570430225711227e6 0.0
0.0 0.0 0.0

-8.935219613835435e6 8.218658587734835e6 0.0
8.218658587734835e6 1.4617075451307835e7 0.0
0.0 0.0 0.0

-2.3926987674884517e6 7.647201492318505e6 0.0
7.647201492318505e6 -384938.27003060776 0.0
0.0 0.0 0.0

-6.275386270661301e6 9.38419578719018e6 0.0
9.38419578719018e6 7.098005502592028e6 0.0
0.0 0.0 0.0

68173.59121173597 1.0092145178632144e7 0.0
1.0092145178632144e7 -5.841235100338868e6 0.0
0.0 0.0 0.0

1.930382839946222e7 7.234266155501077e6 0.0
7.234266155501077e6 -4.012955163064752e6 0.0
0.0 0.0 0.0

-4.354606899247201e6 1.0738887010410653e7 0.0
1.0738887010410653e7 151181.72712487122 0.0
0.0 0.0 0.0

-6.998005939241331e6 1.2713950008665085e7 0.0
1.2713950008665085e7 3.370801186575738e6 0.0
0.0 0.0 0.0

-880924.918154771 7.151965679413049e6 0.0
7.151965679413049e6 -3.910985021861041e6 0.0
0.0 0.0 0.0

-236943.6104891426 6.922305537516212e6 0.0
6.922305537516212e6 -4.076013658937027e6 0.0
0.0 0.0 0.0

-2.4706633360909172e6 8.156335245867173e6 0.0
8.156335245867173e6 -1.562733617894279e6 0.0
0.0 0.0 0.0

-2.570274307580153e6 4.990705635148192e6 0.0
4.990705635148192e6 1.9997886679338883e6 0.0
0.0 0.0 0.0

345073.33993780054 9.40759528460872e6 0.0
9.40759528460872e6 -6.973234781078361e6 0.0
0.0 0.0 0.0

3.727768045575505e6 2.745654908171074e6 0.0
2.745654908171074e6 -5.762744746513788e6 0.0
0.0 0.0 0.0

-1.3476115003419542e6 8.186657120967385e6 0.0
8.186657120967385e6 -3.7095734716645353e6 0.0
0.0 0.0 0.0

-1.3047740415062431e7 8.263957893589742e6 0.0
8.263957893589742e6 9.117544219397184e6 0.0
0.0 0.0 0.0

-1.4482663326507309e6 5.051652520431291e6 0.0
5.051652520431291e6 -1.7010999457099023e6 0.0
0.0 0.0 0.0

-9.404137147444442e6 9.27198172168171e6 0.0
9.27198172168171e6 1.8582273216311216e7 0.0
0.0 0.0 0.0

-3.2929112602388356e6 1.061131793117916e7 0.0
1.061131793117916e7 2.6035324023210905e6 0.0
0.0 0.0 0.0

2.619998510878603e6 9.081561618321719e6 0.0
9.081561618321719e6 -3.1473871196253276e6 0.0
0.0 0.0 0.0

-5.923906223962296e6 1.0851054703985754e7 0.0
1.0851054703985754e7 3.780575300430442e6 0.0
0.0 0.0 0.0

-4.578761269450126e6 1.0747054555831393e7 0.0
1.0747054555831393e7 665280.4035844319 0.0
0.0 0.0 0.0

-5.867442919856794e6 1.0328974970674993e7 0.0
1.0328974970674993e7 3.8278750924524907e6 0.0
0.0 0.0 0.0

-2.33466432639081e6 5.497322740863956e6 0.0
5.497322740863956e6 1.5020800734170282e6 0.0
0.0 0.0 0.0

-2.9445101592095178e6 6.979428049352947e6 0.0
6.979428049352947e6 1.7747362786515532e6 0.0
0.0 0.0 0.0

-1.4468069255933268e6 4.762244203830804e6 0.0
4.762244203830804e6 -871047.900883768 0.0
0.0 0.0 0.0

1.1764646410855763e6 7.791342468651408e6 0.0
7.791342468651408e6 2.162694242797468e6 0.0
0.0 0.0 0.0

-69059.39302063198 1.032252967570775e7 0.0
1.032252967570775e7 -5.535893777691323e6 0.0
0.0 0.0 0.0

-4.513489913536423e6 1.0399281256571762e7 0.0
1.0399281256571762e7 864599.9993119962 0.0
0.0 0.0 0.0

-5.656075579748354e6 9.847225658953823e6 0.0
9.847225658953823e6 3.0842788881429867e6 0.0
0.0 0.0 0.0

-702261.4188668707 1.4464094609147096e6 0.0
1.4464094609147096e6 -359236.7032622405 0.0
0.0 0.0 0.0

-6.24231622499265e6 1.0470414403629337e7 0.0
1.0470414403629337e7 3.925362952926913e6 0.0
0.0 0.0 0.0

-2.479390336660692e6 6.930572345932144e6 0.0
6.930572345932144e6 324597.97754983336 0.0
0.0 0.0 0.0

-6.39950302893746e6 1.0762686844823102e7 0.0
1.0762686844823102e7 4.260459140849179e6 0.0
0.0 0.0 0.0

2.789816454560578e6 9.16219115518729e6 0.0
9.16219115518729e6 -3.0102294451072896e6 0.0
0.0 0.0 0.0

-6.136544072148759e6 1.1956406485346917e7 0.0
1.1956406485346917e7 2.3939647140880395e6 0.0
0.0 0.0 0.0

817902.8676742562 5.94623970685669e6 0.0
5.94623970685669e6 -5.407752106938578e6 0.0
0.0 0.0 0.0

-3.572405149150409e6 3.101158108632101e6 0.0
3.101158108632101e6 4.457826546791221e6 0.0
0.0 0.0 0.0

613311.1289584355 1.0631180839161782e7 0.0
1.0631180839161782e7 -4.921884769636508e6 0.0
0.0 0.0 0.0

-232843.85995103093 1.0550766798179885e7 0.0
1.0550766798179885e7 -5.245037240533639e6 0.0
0.0 0.0 0.0

-2.0866473346991744e6 7.321598375278183e6 0.0
7.321598375278183e6 -673433.3001426312 0.0
0.0 0.0 0.0

-2.7346939782251054e6 1.0919663480750434e7 0.0
1.0919663480750434e7 943319.8438517802 0.0
0.0 0.0 0.0

-3.1345296698961165e6 1.2058722908496907e7 0.0
1.2058722908496907e7 -1.1648778773891944e6 0.0
0.0 0.0 0.0

720471.5970666374 9.771655572156096e6 0.0
9.771655572156096e6 -4.936443514359664e6 0.0
0.0 0.0 0.0

-2.4323635958200544e6 6.379149572058531e6 0.0
6.379149572058531e6 887399.7221516183 0.0
0.0 0.0 0.0

516860.65077385237 7.088614750212153e6 0.0
7.088614750212153e6 -4.909358843493209e6 0.0
0.0 0.0 0.0

467068.88932518335 1.0019067041290471e7 0.0
1.0019067041290471e7 -5.816366982265421e6 0.0
0.0 0.0 0.0

-2.653976478944141e6 8.917938794576261e6 0.0
8.917938794576261e6 3.5205203483662372e6 0.0
0.0 0.0 0.0

-3.1942142878639325e6 8.7379067169914e6 0.0
8.7379067169914e6 -664021.3495127484 0.0
0.0 0.0 0.0

1.9624164456642494e6 7.119163923385425e6 0.0
7.119163923385425e6 -7.665496512672261e6 0.0
0.0 0.0 0.0

2.907754571174212e6 6.791097400155464e6 0.0
6.791097400155464e6 -9.12726793940629e6 0.0
0.0 0.0 0.0

-3.0920372091511083e6 7.190113595680338e6 0.0
7.190113595680338e6 789271.3427951878 0.0
0.0 0.0 0.0

-5.684766592653979e6 9.97766267961136e6 0.0
9.97766267961136e6 3.025569780802177e6 0.0
0.0 0.0 0.0

-1.4530043654008373e6 3.621909985319562e6 0.0
3.621909985319562e6 1.0521515847257585e6 0.0
0.0 0.0 0.0

-2.9844743342094193e6 7.490376869974217e6 0.0
7.490376869974217e6 868796.6281417375 0.0
0.0 0.0 0.0

-4.296551232585074e6 8.491094823113598e6 0.0
8.491094823113598e6 2.0478007765612334e6 0.0
0.0 0.0 0.0

224642.41877679108 6.682164413899337e6 0.0
6.682164413899337e6 -4.515104944719484e6 0.0
0.0 0.0 0.0

2.147572789289558e6 5.610207940416165e6 0.0
5.610207940416165e6 -7.174917660561557e6 0.0
0.0 0.0 0.0

-3.8374102560958965e6 8.402465477491923e6 0.0
8.402465477491923e6 1.999467456175539e6 0.0
0.0 0.0 0.0

-9.704587301267104e6 1.1482329499263769e7 0.0
1.1482329499263769e7 2.379083176535903e7 0.0
0.0 0.0 0.0

-4.283221998662617e6 8.759940481731698e6 0.0
8.759940481731698e6 2.373025857156977e6 0.0
0.0 0.0 0.0

-4.875602279419333e6 1.0629291320793923e7 0.0
1.0629291320793923e7 1.071462928062521e6 0.0
0.0 0.0 0.0

-741532.5277390762 7.6095934748459235e6 0.0
7.6095934748459235e6 -4.0384789593302985e6 0.0
0.0 0.0 0.0

-5.717673692174222e6 1.064029249860099e7 0.0
1.064029249860099e7 2.6453379389973194e6 0.0
0.0 0.0 0.0

-5.3038042571059475e6 9.818385537637984e6 0.0
9.818385537637984e6 3.0989561706062574e6 0.0
0.0 0.0 0.0

-1.684018585835938e6 1.1748282343072593e7 0.0
1.1748282343072593e7 3.97180688269029e6 0.0
0.0 0.0 0.0

3.238338122937747e6 3.01904794080928e6 0.0
3.01904794080928e6 -5.82359764777155e6 0.0
0.0 0.0 0.0

-640592.3921588255 1.1948361024238706e7 0.0
1.1948361024238706e7 -3.6873012951367544e6 0.0
0.0 0.0 0.0

2.735168356499787e6 5.106354219771083e6 0.0
5.106354219771083e6 -5.585694459492968e6 0.0
0.0 0.0 0.0

-2.0121212269042751e6 6.59441801658181e6 0.0
6.59441801658181e6 473221.1752321706 0.0
0.0 0.0 0.0

-5.311652442698464e6 9.385862673753655e6 0.0
9.385862673753655e6 2.9322876168425484e6 0.0
0.0 0.0 0.0

-3.194825413758353e6 8.95309314994033e6 0.0
8.95309314994033e6 -327443.3091132054 0.0
0.0 0.0 0.0

-255605.01662879204 6.814325975912948e6 0.0
6.814325975912948e6 -4.1039977642744347e6 0.0
0.0 0.0 0.0

431874.47083157045 1.0233046018262004e7 0.0
1.0233046018262004e7 -5.023998393069816e6 0.0
0.0 0.0 0.0

-5.099558600901659e6 1.064899692595884e7 0.0
1.064899692595884e7 1.419289978447904e6 0.0
0.0 0.0 0.0

-2.489295968282661e6 2.17811644626594e6 0.0
2.17811644626594e6 2.8240407249895725e6 0.0
0.0 0.0 0.0

-3.5989314252246693e6 7.343302646577203e6 0.0
7.343302646577203e6 2.846226879986323e6 0.0
0.0 0.0 0.0

-1.5444820339727364e6 5.603178797629371e6 0.0
5.603178797629371e6 326720.78697859764 0.0
0.0 0.0 0.0

-2.650561349103477e6 6.654714090397558e6 0.0
6.654714090397558e6 -109852.35422103095 0.0
0.0 0.0 0.0

-5.803011890499242e6 1.0231289903698772e7 0.0
1.0231289903698772e7 3.9831983911121907e6 0.0
0.0 0.0 0.0

-3.110189001059933e6 8.260475490246253e6 0.0
8.260475490246253e6 -226641.60244403197 0.0
0.0 0.0 0.0

-5.90857641944409e6 1.0362395502611935e7 0.0
1.0362395502611935e7 2.8283916603046935e6 0.0
0.0 0.0 0.0

-1.7509408600008136e6 4.993652213597177e6 0.0
4.993652213597177e6 -714871.8627832364 0.0
0.0 0.0 0.0

-2.802799598599767e6 7.138587328885462e6 0.0
7.138587328885462e6 1.3347334514414507e6 0.0
0.0 0.0 0.0

-5.753090887477823e6 1.0117067753874417e7 0.0
1.0117067753874417e7 2.9663504432182964e6 0.0
0.0 0.0 0.0

-2.166647248338051e6 1.1954051589820774e7 0.0
1.1954051589820774e7 -2.29462612778405e6 0.0
0.0 0.0 0.0

-1.360714150946574e6 8.983877228377929e6 0.0
8.983877228377929e6 5.214846276912459e6 0.0
0.0 0.0 0.0

-2.476664269832649e6 6.791325840479112e6 0.0
6.791325840479112e6 450129.5798138939 0.0
0.0 0.0 0.0

-2.328122552347693e6 1.3466506758599732e7 0.0
1.3466506758599732e7 -1.7522916280458265e6 0.0
0.0 0.0 0.0

-3.0857004005427454e6 7.446144455231725e6 0.0
7.446144455231725e6 1.192090453552921e6 0.0
0.0 0.0 0.0

-3.35234098051174e6 7.323549358401569e6 0.0
7.323549358401569e6 2.2580025029155104e6 0.0
0.0 0.0 0.0

-1.6609419640272947e6 5.422554854222982e6 0.0
5.422554854222982e6 -86570.34491175995 0.0
0.0 0.0 0.0

-5.82666423088371e6 1.0230487845984757e7 0.0
1.0230487845984757e7 2.8894673852523244e6 0.0
0.0 0.0 0.0

1.1100404281280062e6 6.398873683639698e6 0.0
6.398873683639698e6 -5.286861397793352e6 0.0
0.0 0.0 0.0

894944.6515692798 6.983912961624054e6 0.0
6.983912961624054e6 -5.270357894921369e6 0.0
0.0 0.0 0.0

-5.627783898401612e6 1.072390885125141e7 0.0
1.072390885125141e7 3.8720913621548573e6 0.0
0.0 0.0 0.0

-717529.3889057043 6.495045458143342e6 0.0
6.495045458143342e6 -2.8982621657116027e6 0.0
0.0 0.0 0.0

-257035.7749617016 6.80975767406126e6 0.0
6.80975767406126e6 -4.0543045164131983e6 0.0
0.0 0.0 0.0

-6.993025313067949e6 1.1332438254377214e7 0.0
1.1332438254377214e7 3.6074029915927947e6 0.0
0.0 0.0 0.0

-5.522568142987269e6 1.0610989384877551e7 0.0
1.0610989384877551e7 2.2436833527798317e6 0.0
0.0 0.0 0.0

-3.6795221885856204e6 9.469276931989422e6 0.0
9.469276931989422e6 -515551.8937940961 0.0
0.0 0.0 0.0

371165.63675702736 9.662134786295697e6 0.0
9.662134786295697e6 -6.555839801493613e6 0.0
0.0 0.0 0.0

-7.016427322801394e6 1.1125082089929255e7 0.0
1.1125082089929255e7 4.284440164070674e6 0.0
0.0 0.0 0.0

-3.9131148382990398e6 7.390149298760201e6 0.0
7.390149298760201e6 3.526468535065585e6 0.0
0.0 0.0 0.0

843191.8519231507 7.229835581068569e6 0.0
7.229835581068569e6 -4.826682729320226e6 0.0
0.0 0.0 0.0

-7.934792254855292e6 1.273219293449471e7 0.0
1.273219293449471e7 4.659552263124961e6 0.0
0.0 0.0 0.0

-2.439955960249581e6 1.1039839999538174e7 0.0
1.1039839999538174e7 1.9042633072653953e6 0.0
0.0 0.0 0.0

-5.328155524161276e6 1.0638438449206408e7 0.0
1.0638438449206408e7 1.8821300169759819e6 0.0
0.0 0.0 0.0

-433226.6278944332 1.0787692242437933e7 0.0
1.0787692242437933e7 -4.956138698588634e6 0.0
0.0 0.0 0.0

-5.8455787914359905e6 1.055508295315466e7 0.0
1.055508295315466e7 3.151411124087876e6 0.0
0.0 0.0 0.0

-4.685014916731717e6 1.0189268512660014e7 0.0
1.0189268512660014e7 3.998110311067557e6 0.0
0.0 0.0 0.0

-6.043397131040071e6 1.0653276701875847e7 0.0
1.0653276701875847e7 2.6852466257644854e6 0.0
0.0 0.0 0.0

-7.486190412752051e6 1.5099021015839031e7 0.0
1.5099021015839031e7 3.2411897190371817e6 0.0
0.0 0.0 0.0

-3.94966193298956e6 5.5267209978437815e6 0.0
5.5267209978437815e6 4.1682994433213742e6 0.0
0.0 0.0 0.0

-493897.8859531005 7.092655900190323e6 0.0
7.092655900190323e6 -3.818812385379185e6 0.0
0.0 0.0 0.0

-2.997507785970222e6 4.676393844826609e6 0.0
4.676393844826609e6 2.6206106141677815e6 0.0
0.0 0.0 0.0

-2.471629981588395e6 7.014084454549355e6 0.0
7.014084454549355e6 603922.721423388 0.0
0.0 0.0 0.0

-2.0127815623275852e6 -1.0560618276284256e6 0.0
-1.0560618276284256e6 3.162264565498357e6 0.0
0.0 0.0 0.0

-2.8849782905361364e6 75267.24279442197 0.0
75267.24279442197 3.1216434741036207e6 0.0
0.0 0.0 0.0

-4.542590096596153e6 5.510594305712852e6 0.0
5.510594305712852e6 5.253817067986896e6 0.0
0.0 0.0 0.0

2.323110486095437e6 8.924277034571996e6 0.0
8.924277034571996e6 158334.41183771752 0.0
0.0 0.0 0.0

-5.991723331001395e6 1.1410030326061066e7 0.0
1.1410030326061066e7 2.429225332461931e6 0.0
0.0 0.0 0.0

-3.808525312013303e6 9.736493814193102e6 0.0
9.736493814193102e6 -257386.06160644128 0.0
0.0 0.0 0.0

-455592.6970810654 7.23719550830961e6 0.0
7.23719550830961e6 -3.8957970353997536e6 0.0
0.0 0.0 0.0

-1.626697756140729e6 1.1539610298743414e7 0.0
1.1539610298743414e7 3.031322131295722e6 0.0
0.0 0.0 0.0

-7.3316952738869e6 1.1197003136043891e7 0.0
1.1197003136043891e7 4.944977938867414e6 0.0
0.0 0.0 0.0

-7.369461690158019e6 1.1524820500208443e7 0.0
1.1524820500208443e7 3.8526220997384554e6 0.0
0.0 0.0 0.0

-7.709073920213193e6 1.1930593193241328e7 0.0
1.1930593193241328e7 3.892379007340548e6 0.0
0.0 0.0 0.0

-4.081571518066881e6 8.453327284688879e6 0.0
8.453327284688879e6 2.1851322060744762e6 0.0
0.0 0.0 0.0

-3.32346742968612e6 7.532795964430182e6 0.0
7.532795964430182e6 1.0524736776015048e6 0.0
0.0 0.0 0.0

-2.1809501916538626e6 6.094536307370199e6 0.0
6.094536307370199e6 -119025.62379445671 0.0
0.0 0.0 0.0

-5.100527400674207e6 9.680932472356834e6 0.0
9.680932472356834e6 3.3014658424208416e6 0.0
0.0 0.0 0.0

-2.962972205232299e6 7.465902092977009e6 0.0
7.465902092977009e6 1.133945388261543e6 0.0
0.0 0.0 0.0

-5.560583214674978e6 4.560839452146525e6 0.0
4.560839452146525e6 7.500061757960845e6 0.0
0.0 0.0 0.0

-438049.52731018455 7.562896923617812e6 0.0
7.562896923617812e6 -4.0353944916704874e6 0.0
0.0 0.0 0.0

-4.621831218321784e6 8.898259176066998e6 0.0
8.898259176066998e6 2.617494315789449e6 0.0
0.0 0.0 0.0

-4.814289308988381e6 3.9426612204749756e6 0.0
3.9426612204749756e6 6.647290158989849e6 0.0
0.0 0.0 0.0

-3.97514467713684e6 9.960120584346373e6 0.0
9.960120584346373e6 2.6529555954351947e6 0.0
0.0 0.0 0.0

-3.240333188630109e6 7.2028886133372495e6 0.0
7.2028886133372495e6 699457.9041612344 0.0
0.0 0.0 0.0

-6.139793088501684e6 1.0758999487541743e7 0.0
1.0758999487541743e7 3.454915060388748e6 0.0
0.0 0.0 0.0

-5.524279192948066e6 1.0348796830238845e7 0.0
1.0348796830238845e7 2.8188142097424217e6 0.0
0.0 0.0 0.0

-4.817835410284547e6 1.0296889236588994e7 0.0
1.0296889236588994e7 3.86476635485396e6 0.0
0.0 0.0 0.0

256187.85684647108 9.912922230664123e6 0.0
9.912922230664123e6 -6.107854377426906e6 0.0
0.0 0.0 0.0

-5.062030055611422e6 9.324627272865018e6 0.0
9.324627272865018e6 2.935083255760705e6 0.0
0.0 0.0 0.0

-3.9901456687865267e6 7.80060791990697e6 0.0
7.80060791990697e6 3.377838926644437e6 0.0
0.0 0.0 0.0

-3.456429986532625e6 9.44232573092727e6 0.0
9.44232573092727e6 -475596.34524616424 0.0
0.0 0.0 0.0

-7.069891024996455e6 1.3124382967364727e7 0.0
1.3124382967364727e7 3.3944990754388254e6 0.0
0.0 0.0 0.0

-5.011161670235716e6 1.0410253033184376e7 0.0
1.0410253033184376e7 3.829050606589448e6 0.0
0.0 0.0 0.0

-3.591718051148289e6 9.508817858878898e6 0.0
9.508817858878898e6 -864152.0609048477 0.0
0.0 0.0 0.0

823955.570372533 7.187152264487555e6 0.0
7.187152264487555e6 -5.436109410542433e6 0.0
0.0 0.0 0.0

-4.0064075421335837e6 8.591070692177907e6 0.0
8.591070692177907e6 2.2553907437325735e6 0.0
0.0 0.0 0.0

-3.2479430967584634e6 1.2933699394092714e7 0.0
1.2933699394092714e7 -996551.8676455162 0.0
0.0 0.0 0.0

2.2745510628294563e6 2.66439949782022e6 0.0
2.66439949782022e6 -3.8563195361543642e6 0.0
0.0 0.0 0.0

1.1331768991764244e6 7.544603872845044e6 0.0
7.544603872845044e6 -7.161382548682691e6 0.0
0.0 0.0 0.0

-2.91091034993402e6 9.465161546751838e6 0.0
9.465161546751838e6 -1.5001798662321314e6 0.0
0.0 0.0 0.0

1.1178400329178772e6 9.272080517443346e6 0.0
9.272080517443346e6 2.2345632739756033e6 0.0
0.0 0.0 0.0

566448.2406162941 7.315308149190485e6 0.0
7.315308149190485e6 -5.6390763772900775e6 0.0
0.0 0.0 0.0

353196.5034513194 7.585442865774091e6 0.0
7.585442865774091e6 -5.547847379431882e6 0.0
0.0 0.0 0.0

638605.1843401494 7.969129547689548e6 0.0
7.969129547689548e6 -762083.193614315 0.0
0.0 0.0 0.0

-2.5079633236393197e6 2.7412854647137146e6 0.0
2.7412854647137146e6 2.4484194682108858e6 0.0
0.0 0.0 0.0

-2.284943908885272e6 6.656949242938843e6 0.0
6.656949242938843e6 116071.89777729637 0.0
0.0 0.0 0.0

-895464.1239789145 1.007143511678938e7 0.0
1.007143511678938e7 -7.713478253620088e6 0.0
0.0 0.0 0.0

-3.3030294177969336e6 7.77470615823424e6 0.0
7.77470615823424e6 1.2133375456085077e6 0.0
0.0 0.0 0.0

-2.4502318196324054e6 5.579190068975463e6 0.0
5.579190068975463e6 1.0532794550410877e6 0.0
0.0 0.0 0.0

-1.0409109910206607e6 8.554864157079414e6 0.0
8.554864157079414e6 1.927496485605196e6 0.0
0.0 0.0 0.0

-1.8841985403973279e6 711921.8808719149 0.0
711921.8808719149 2.214482864765592e6 0.0
0.0 0.0 0.0

-4.102598534780957e6 8.424036750176752e6 0.0
8.424036750176752e6 1.987993843245986e6 0.0
0.0 0.0 0.0

-5.815926514972706e6 1.0437852025822183e7 0.0
1.0437852025822183e7 4.02388528896658e6 0.0
0.0 0.0 0.0

-2.078814238469909e6 9.23397261440413e6 0.0
9.23397261440413e6 -3.0942511090049e6 0.0
0.0 0.0 0.0

-307890.4205427456 2.570378854608992e6 0.0
2.570378854608992e6 -1.0119216822470762e6 0.0
0.0 0.0 0.0

-2.0572428314858733e6 5.605958382149288e6 0.0
5.605958382149288e6 -384894.78628972283 0.0
0.0 0.0 0.0

2.392511017807072e6 7.647497153651403e6 0.0
7.647497153651403e6 -1.0146854309635019e7 0.0
0.0 0.0 0.0

-6.721894045468582e6 1.3953843206278946e7 0.0
1.3953843206278946e7 2.751305997791998e6 0.0
0.0 0.0 0.0

-9.200859046517909e6 3.2251378902410883e6 0.0
3.2251378902410883e6 1.3130305878535122e7 0.0
0.0 0.0 0.0

-2.0602697118574271e6 8.416323436813878e6 0.0
8.416323436813878e6 -1.2749436407237002e6 0.0
0.0 0.0 0.0

-2.6803361966179176e6 5.160112845870515e6 0.0
5.160112845870515e6 1.5166578127460654e6 0.0
0.0 0.0 0.0

-8.937269202737818e6 8.103158453017423e6 0.0
8.103158453017423e6 6.453545958403082e6 0.0
0.0 0.0 0.0

-1.0021590763868415e6 1.0750955548642024e7 0.0
1.0750955548642024e7 -856374.1375663767 0.0
0.0 0.0 0.0

-951571.2289583544 1.0171371477645578e7 0.0
1.0171371477645578e7 1.2021862372505013e6 0.0
0.0 0.0 0.0

1.3477995478882152e6 7.341527511547215e6 0.0
7.341527511547215e6 -7.464623937598751e6 0.0
0.0 0.0 0.0

-4.315092247377197e6 6.019693727212347e6 0.0
6.019693727212347e6 661375.0488236037 0.0
0.0 0.0 0.0

-9.308050384950617e6 1.6256256304004477e7 0.0
1.6256256304004477e7 1.9991967019697241e6 0.0
0.0 0.0 0.0

-4.1315673409496527e6 8.682084445621742e6 0.0
8.682084445621742e6 2.5156186338616936e6 0.0
0.0 0.0 0.0

-2.0716314794227437e6 58801.01913393097 0.0
58801.01913393097 2.7919423316482133e6 0.0
0.0 0.0 0.0

-1.9253689022887093e6 1.0437033458513897e7 0.0
1.0437033458513897e7 1.9272080855055673e6 0.0
0.0 0.0 0.0

-7.679033838534668e6 1.0549239655510869e7 0.0
1.0549239655510869e7 5.167138721411084e6 0.0
0.0 0.0 0.0

-1.6646027127866882e6 4.614220220473741e6 0.0
4.614220220473741e6 -1.0081940228295072e6 0.0
0.0 0.0 0.0

-4.0179232006799914e6 1.145117713775725e7 0.0
1.145117713775725e7 6.736063644633109e6 0.0
0.0 0.0 0.0

-3.3019764860156e6 7.002837842543618e6 0.0
7.002837842543618e6 1.7779141995856925e6 0.0
0.0 0.0 0.0

-2.5820422697340352e6 6.856666456866185e6 0.0
6.856666456866185e6 938596.1772285091 0.0
0.0 0.0 0.0

-9.097744590942446e6 2.4739285680644186e6 0.0
2.4739285680644186e6 1.2539177781093825e7 0.0
0.0 0.0 0.0

-2.194925439121022e6 1.0161065881929168e7 0.0
1.0161065881929168e7 2.9108766303105e6 0.0
0.0 0.0 0.0

-7.748477263435724e6 1.0753138450606804e7 0.0
1.0753138450606804e7 5.125426937743013e6 0.0
0.0 0.0 0.0

-8.89622445787603e6 1.2668466741826613e7 0.0
1.2668466741826613e7 4.748783521747107e6 0.0
0.0 0.0 0.0

-4.899595267690093e6 9.192369565865638e6 0.0
9.192369565865638e6 2.995954084921886e6 0.0
0.0 0.0 0.0

2.894816032634994e6 1.919908117703297e6 0.0
1.919908117703297e6 -4.284537872080555e6 0.0
0.0 0.0 0.0

80353.58811556222 7.330629716630707e6 0.0
7.330629716630707e6 -4.454297781283943e6 0.0
0.0 0.0 0.0

-456372.67619133904 7.082447472381066e6 0.0
7.082447472381066e6 -3.863973970571635e6 0.0
0.0 0.0 0.0

-3.4898215190075263e6 7.851242005512242e6 0.0
7.851242005512242e6 1.3090242725347392e6 0.0
0.0 0.0 0.0

-1.4731721458484827e7 1.8374819732834585e7 0.0
1.8374819732834585e7 5.890601738347547e6 0.0
0.0 0.0 0.0

-1.6189167821439863e6 4.937878231417407e6 0.0
4.937878231417407e6 -787214.2613842229 0.0
0.0 0.0 0.0

-6.298106524321903e6 1.2364550142835118e7 0.0
1.2364550142835118e7 2.4964942583061145e6 0.0
0.0 0.0 0.0

-3.7731310152493445e6 1.316750534146905e7 0.0
1.316750534146905e7 -424922.38180040463 0.0
0.0 0.0 0.0

-1.464266812707015e6 4.984015777648496e6 0.0
4.984015777648496e6 -459300.29331648943 0.0
0.0 0.0 0.0

-585154.5165395014 7.379829468223866e6 0.0
7.379829468223866e6 -2.656984184220513e6 0.0
0.0 0.0 0.0

-264771.7964886385 1.0001938148215521e7 0.0
1.0001938148215521e7 5.209838863327157e6 0.0
0.0 0.0 0.0

-1.0412782350824047e6 1.210059411277867e7 0.0
1.210059411277867e7 4.772634857098806e6 0.0
0.0 0.0 0.0

-888855.4534257981 1.0295904469951633e7 0.0
1.0295904469951633e7 896931.0019014613 0.0
0.0 0.0 0.0

-3.0354529230265385e6 7.138083232468743e6 0.0
7.138083232468743e6 1.360705968076238e6 0.0
0.0 0.0 0.0

-1.3764677714403667e7 1.6799984644795485e7 0.0
1.6799984644795485e7 5.807788344271987e6 0.0
0.0 0.0 0.0

-1.2563620201991424e7 8.457199167752845e6 0.0
8.457199167752845e6 6.909240796471036e6 0.0
0.0 0.0 0.0

-2.7948398601191747e6 6.650838962043705e6 0.0
6.650838962043705e6 1.341527108515045e6 0.0
0.0 0.0 0.0

945084.2852846221 8.670430666665725e6 0.0
8.670430666665725e6 -7.698694020693477e6 0.0
0.0 0.0 0.0

2.8351867414778983e6 6.134959280391604e6 0.0
6.134959280391604e6 -8.135511683633854e6 0.0
0.0 0.0 0.0

-1.2961755762539483e6 9.083478926363751e6 0.0
9.083478926363751e6 -3.3288758627792164e6 0.0
0.0 0.0 0.0

-199030.15150786308 7.233155606146476e6 0.0
7.233155606146476e6 -4.1742501795734707e6 0.0
0.0 0.0 0.0

-1.8323459995593603e6 9.470557522833059e6 0.0
9.470557522833059e6 -2.6895565055149086e6 0.0
0.0 0.0 0.0

-1.5444695782232007e7 2.0415850214998152e7 0.0
2.0415850214998152e7 4.331193498403443e6 0.0
0.0 0.0 0.0

-4.689052833467123e6 9.187714032641366e6 0.0
9.187714032641366e6 2.5344332753500934e6 0.0
0.0 0.0 0.0

-3.017571273614748e6 1.1103330611305313e7 0.0
1.1103330611305313e7 -2.289495125259637e6 0.0
0.0 0.0 0.0

-3.1198708062521014e6 1.0420748234435314e7 0.0
1.0420748234435314e7 -2.1067536784333996e6 0.0
0.0 0.0 0.0

-27141.06880112854 6.66782840057328e6 0.0
6.66782840057328e6 -4.272720564610584e6 0.0
0.0 0.0 0.0

-5.203787622705703e6 9.679900363129823e6 0.0
9.679900363129823e6 3.497261333557835e6 0.0
0.0 0.0 0.0

-1.4344566622875351e6 1.052734267906477e7 0.0
1.052734267906477e7 1.9600935968458797e6 0.0
0.0 0.0 0.0

-3.509365643093544e6 1.1064897603730358e7 0.0
1.1064897603730358e7 2.14577787377613e6 0.0
0.0 0.0 0.0

-1.2005611840160508e7 1.7965052590879963e6 0.0
1.7965052590879963e6 2.9873424876161728e7 0.0
0.0 0.0 0.0

-354268.587911127 2.696149433736567e6 0.0
2.696149433736567e6 -292011.6691629732 0.0
0.0 0.0 0.0

-2.4168045584648054e7 3.1669398981134515e7 0.0
3.1669398981134515e7 -1.1619166671912933e7 0.0
0.0 0.0 0.0

-973423.7282494676 1.0412960389005076e7 0.0
1.0412960389005076e7 2.274205651971801e6 0.0
0.0 0.0 0.0

-1.2828405473653633e7 1.5769083725396419e7 0.0
1.5769083725396419e7 6.233519161924548e6 0.0
0.0 0.0 0.0

-2.3639091089683953e6 9.023707067857418e6 0.0
9.023707067857418e6 -1.9414362730617844e6 0.0
0.0 0.0 0.0

-1.2933094051543258e6 1.1582516436045619e7 0.0
1.1582516436045619e7 -3.8748458559153564e6 0.0
0.0 0.0 0.0

-5.438336626539293e6 9.803771954409651e6 0.0
9.803771954409651e6 3.4997473068291843e6 0.0
0.0 0.0 0.0

1.5705763220124326e6 4.916197278787265e6 0.0
4.916197278787265e6 -4.471726609131586e6 0.0
0.0 0.0 0.0

3.268747812505834e6 9.180502014022158e6 0.0
9.180502014022158e6 -2.9488613781208536e6 0.0
0.0 0.0 0.0

53871.69856269052 7.673384403263935e6 0.0
7.673384403263935e6 -4.616340828497701e6 0.0
0.0 0.0 0.0

-1.5534463346933532e6 1.276630669803932e7 0.0
1.276630669803932e7 -2.6798262378687174e6 0.0
0.0 0.0 0.0

1.7001890472940872e6 7.098491998731555e6 0.0
7.098491998731555e6 -7.092780936508723e6 0.0
0.0 0.0 0.0

-4.264660808410571e6 8.752447260072486e6 0.0
8.752447260072486e6 2.4518224239256177e6 0.0
0.0 0.0 0.0

783420.4070065792 7.028055926641708e6 0.0
7.028055926641708e6 -4.968263458207281e6 0.0
0.0 0.0 0.0

-969249.8720094501 4.88786099710547e6 0.0
4.88786099710547e6 -1.4481547081950824e6 0.0
0.0 0.0 0.0

-5.9295716958889e6 1.0132051883395253e7 0.0
1.0132051883395253e7 696992.173838998 0.0
0.0 0.0 0.0

618037.4550708423 7.474535633590152e6 0.0
7.474535633590152e6 -5.372236133274517e6 0.0
0.0 0.0 0.0

-2.218617719725571e6 7.39918603053394e6 0.0
7.39918603053394e6 -1.1298768333416937e6 0.0
0.0 0.0 0.0

-3.8626204747986947e6 1.0681515975608826e7 0.0
1.0681515975608826e7 -1.141801444587843e6 0.0
0.0 0.0 0.0

-3.085115976163363e6 9.725436396797797e6 0.0
9.725436396797797e6 4.595214688362214e6 0.0
0.0 0.0 0.0

1.029608577847054e6 9.007700929970328e6 0.0
9.007700929970328e6 -3.899769930256739e6 0.0
0.0 0.0 0.0

-3.171872784121195e6 7.543510496743982e6 0.0
7.543510496743982e6 981896.5191606698 0.0
0.0 0.0 0.0

-7.705862378299042e6 1.808795344313557e6 0.0
1.808795344313557e6 8.372593877089913e6 0.0
0.0 0.0 0.0

-3.5241662036922053e6 9.76366884880694e6 0.0
9.76366884880694e6 4.595930193480239e6 0.0
0.0 0.0 0.0

-3.7726931492471797e6 7.3478801914057005e6 0.0
7.3478801914057005e6 2.2546280589412185e6 0.0
0.0 0.0 0.0

-2.4593885143271754e6 1.5121383456907936e6 0.0
1.5121383456907936e6 2.0457713646816625e6 0.0
0.0 0.0 0.0

-3.974419328806199e6 8.448117445491608e6 0.0
8.448117445491608e6 2.553317574965424e6 0.0
0.0 0.0 0.0

-4.648674130905192e6 9.897649866241446e6 0.0
9.897649866241446e6 3.860982126089746e6 0.0
0.0 0.0 0.0

-1.22688350135284e6 5.215614129136288e6 0.0
5.215614129136288e6 -202509.89843621422 0.0
0.0 0.0 0.0

-3.484682146457615e6 1.0578879189841926e7 0.0
1.0578879189841926e7 -1.6527671411872045e6 0.0
0.0 0.0 0.0

-5.371149692625108e6 9.475754746231033e6 0.0
9.475754746231033e6 2.8802809714114787e6 0.0
0.0 0.0 0.0

-4.134886465023591e6 7.417671799365817e6 0.0
7.417671799365817e6 2.768382901437956e6 0.0
0.0 0.0 0.0

-8.912642378909543e6 -1.434340944069395e6 0.0
-1.434340944069395e6 1.1379320451091789e7 0.0
0.0 0.0 0.0

-2.127083315653478e6 1.0726462372187844e7 0.0
1.0726462372187844e7 1.6952282527439347e6 0.0
0.0 0.0 0.0

-2.5181366305102846e6 6.661143836046926e6 0.0
6.661143836046926e6 1.2710135978518706e6 0.0
0.0 0.0 0.0

832337.8530950635 8.576367755923526e6 0.0
8.576367755923526e6 -7.327539608093152e6 0.0
0.0 0.0 0.0

-5.490260057980852e6 9.617619596525487e6 0.0
9.617619596525487e6 7.470185660344586e6 0.0
0.0 0.0 0.0

-3.687847135250016e6 6.228077146441962e6 0.0
6.228077146441962e6 3.6852427821694613e6 0.0
0.0 0.0 0.0

-335082.9247646135 7.149987237177038e6 0.0
7.149987237177038e6 -3.9329282905724337e6 0.0
0.0 0.0 0.0

1.5142174973107912e6 5.759202714291679e6 0.0
5.759202714291679e6 -6.464761864702636e6 0.0
0.0 0.0 0.0

-2.906200641584092e6 1.0690888207820024e7 0.0
1.0690888207820024e7 4.1764265840333663e6 0.0
0.0 0.0 0.0

-4.069401905875723e6 1.0505091636826195e7 0.0
1.0505091636826195e7 5.559974673405939e6 0.0
0.0 0.0 0.0

-2.24538206292012e6 8.313140141729661e6 0.0
8.313140141729661e6 -1.5212560008084755e6 0.0
0.0 0.0 0.0

-5.281369175599877e6 1.0498783833713692e7 0.0
1.0498783833713692e7 3.863388130121012e6 0.0
0.0 0.0 0.0

-1.050853876168919e7 1.3906604432096882e7 0.0
1.3906604432096882e7 5.366283264188116e6 0.0
0.0 0.0 0.0

-681392.2047423406 1.1025029127263611e7 0.0
1.1025029127263611e7 -4.6212459480720945e6 0.0
0.0 0.0 0.0

-564204.9633829922 2.580706502898008e6 0.0
2.580706502898008e6 -40626.920322623075 0.0
0.0 0.0 0.0

514413.7056264528 9.107278330248658e6 0.0
9.107278330248658e6 -6.523472290846559e6 0.0
0.0 0.0 0.0

-4.8374446644496815e6 9.410566589409899e6 0.0
9.410566589409899e6 3.691233104314146e6 0.0
0.0 0.0 0.0

-3.3530204891401473e6 5.760086192087608e6 0.0
5.760086192087608e6 3.27009307840389e6 0.0
0.0 0.0 0.0

-122202.55481062795 9.391372304352231e6 0.0
9.391372304352231e6 -207986.56704155824 0.0
0.0 0.0 0.0

1.4514059429087313e6 7.866954393550336e6 0.0
7.866954393550336e6 -8.270239986044302e6 0.0
0.0 0.0 0.0

658255.835015621 8.533211163860908e6 0.0
8.533211163860908e6 -6.90719398694517e6 0.0
0.0 0.0 0.0

-9.454281302257683e6 1.7402071170384385e7 0.0
1.7402071170384385e7 1.3052504518609624e6 0.0
0.0 0.0 0.0

-4.694822378532132e6 9.304294333679868e6 0.0
9.304294333679868e6 2.461873162112645e6 0.0
0.0 0.0 0.0

-5.512094907918219e6 9.845769416155234e6 0.0
9.845769416155234e6 3.4856017622643197e6 0.0
0.0 0.0 0.0

-5.111061494779873e6 9.994615080465674e6 0.0
9.994615080465674e6 1.6241456151889272e6 0.0
0.0 0.0 0.0

879671.3361904894 5.3892503002675e6 0.0
5.3892503002675e6 -3.800671452275209e6 0.0
0.0 0.0 0.0

316228.0946864006 8.166180634404859e6 0.0
8.166180634404859e6 -4.9099922116146805e6 0.0
0.0 0.0 0.0

-4.776047228197606e6 9.267830920085777e6 0.0
9.267830920085777e6 3.3611453077310426e6 0.0
0.0 0.0 0.0

-2.5269791155920634e6 1.1285705600389315e7 0.0
1.1285705600389315e7 -2.0034543837604392e6 0.0
0.0 0.0 0.0

-9.862786302293612e6 1.3483884831452796e7 0.0
1.3483884831452796e7 5.142320626156223e6 0.0
0.0 0.0 0.0

-1.5181694257824111e6 5.370288234254307e6 0.0
5.370288234254307e6 -124519.97725647979 0.0
0.0 0.0 0.0

-3.8393544112801277e6 3.11291643114594e6 0.0
3.11291643114594e6 3.508351812324455e6 0.0
0.0 0.0 0.0

-9.457148814417772e6 1.3045019672098808e7 0.0
1.3045019672098808e7 5.034496202524306e6 0.0
0.0 0.0 0.0

-4.166866989280654e6 1.0772617626637638e7 0.0
1.0772617626637638e7 -781345.044250913 0.0
0.0 0.0 0.0

-353744.9326191277 6.736047494632133e6 0.0
6.736047494632133e6 -4.373292643430708e6 0.0
0.0 0.0 0.0

-3.3726582108612857e6 8.037426108529872e6 0.0
8.037426108529872e6 1.571443877910378e6 0.0
0.0 0.0 0.0

1.677526787204369e6 7.656641663758401e6 0.0
7.656641663758401e6 -8.515150993243398e6 0.0
0.0 0.0 0.0

-6.786292591752215e6 1.120535194489154e7 0.0
1.120535194489154e7 3.9946892545356066e6 0.0
0.0 0.0 0.0

-2.2650932514084983e6 1.1113182141208928e7 0.0
1.1113182141208928e7 1.5676074818417993e6 0.0
0.0 0.0 0.0

905839.7016288899 8.868598983978586e6 0.0
8.868598983978586e6 -7.787229297741443e6 0.0
0.0 0.0 0.0

-5.882726989866576e6 1.0094020226303225e7 0.0
1.0094020226303225e7 3.683859565091402e6 0.0
0.0 0.0 0.0

-4.74647502356175e6 2.6793031602625414e6 0.0
2.6793031602625414e6 4.956181291800172e6 0.0
0.0 0.0 0.0

-407948.88432725286 6.904984119023336e6 0.0
6.904984119023336e6 -4.1396476859417404e6 0.0
0.0 0.0 0.0

-1.7848022252578111e6 8.457467895808645e6 0.0
8.457467895808645e6 1.701824365141882e6 0.0
0.0 0.0 0.0

-5.110593782731942e6 9.536407886990502e6 0.0
9.536407886990502e6 3.2314522460371167e6 0.0
0.0 0.0 0.0

784413.3931792746 9.06897886747547e6 0.0
9.06897886747547e6 -7.707968431258452e6 0.0
0.0 0.0 0.0

-1.6200009360003851e7 2.2605393146766804e7 0.0
2.2605393146766804e7 2.0481715339779807e6 0.0
0.0 0.0 0.0

-4.07946405715913e6 6.758014027034079e6 0.0
6.758014027034079e6 3.9320220833852e6 0.0
0.0 0.0 0.0

-686990.7949640928 1.0413839925483925e7 0.0
1.0413839925483925e7 -7.943311833466168e6 0.0
0.0 0.0 0.0

-1.4307380128507684e6 4.911489432250274e6 0.0
4.911489432250274e6 -360906.7913144287 0.0
0.0 0.0 0.0

-4.216251855152018e6 8.600793183522169e6 0.0
8.600793183522169e6 2.2591394746501893e6 0.0
0.0 0.0 0.0

-5.135906350603966e6 8.11858645252403e6 0.0
8.11858645252403e6 7.828298648790943e6 0.0
0.0 0.0 0.0

-3.0700074255138887e6 7.74752273748393e6 0.0
7.74752273748393e6 1.234150039876011e6 0.0
0.0 0.0 0.0

-1.1668496271825343e7 9.678485094712673e6 0.0
9.678485094712673e6 1.9581822619581655e7 0.0
0.0 0.0 0.0

-4.182323810615272e6 8.678658356118163e6 0.0
8.678658356118163e6 2.3808056969943964e6 0.0
0.0 0.0 0.0

310994.42846227204 9.800812089764493e6 0.0
9.800812089764493e6 -6.288511600787993e6 0.0
0.0 0.0 0.0

-1.0698379512882533e6 1.1048125522616602e7 0.0
1.1048125522616602e7 -3.762646953756979e6 0.0
0.0 0.0 0.0

3.577092689843507e7 1.043417062437521e7 0.0
1.043417062437521e7 -2.4310830966159813e6 0.0
0.0 0.0 0.0

-3.3517688145501167e6 -52041.62140465823 0.0
-52041.62140465823 3.7274791420757147e6 0.0
0.0 0.0 0.0

2.3960179663332915e6 5.842778115978144e6 0.0
5.842778115978144e6 -7.661713194322949e6 0.0
0.0 0.0 0.0

-903136.7815340689 3.3668050425586966e6 0.0
3.3668050425586966e6 -1.0651508250195927e6 0.0
0.0 0.0 0.0

-4.905053336518138e6 9.941189432130728e6 0.0
9.941189432130728e6 1.284508008990537e6 0.0
0.0 0.0 0.0

-3.9359281246010433e6 -6.418668776976761e6 0.0
-6.418668776976761e6 6.103368248870878e6 0.0
0.0 0.0 0.0

-727568.667126727 9.37530940034433e6 0.0
9.37530940034433e6 -6.842235106294831e6 0.0
0.0 0.0 0.0

-2.92621805993292e6 5.367499793645818e6 0.0
5.367499793645818e6 2.5064193931573033e6 0.0
0.0 0.0 0.0

-4.485963131264348e6 7.548500752395528e6 0.0
7.548500752395528e6 3.2933877731763087e6 0.0
0.0 0.0 0.0

2.8970146650505215e6 6.1088707457337575e6 0.0
6.1088707457337575e6 -8.270126152291635e6 0.0
0.0 0.0 0.0

-1.586609130675639e6 9.10950684233376e6 0.0
9.10950684233376e6 -2.9090882393328655e6 0.0
0.0 0.0 0.0

-1.1434511989473585e7 1.4259483768081322e7 0.0
1.4259483768081322e7 6.352749726353771e6 0.0
0.0 0.0 0.0

-573743.6754914938 7.145927571253714e6 0.0
7.145927571253714e6 -3.9128911405745354e6 0.0
0.0 0.0 0.0

-1.6778135457810226e6 1.1448450778233424e7 0.0
1.1448450778233424e7 -134193.34563120117 0.0
0.0 0.0 0.0

-1.0533265367084038e7 3.1551250756801385e6 0.0
3.1551250756801385e6 4.815817961866288e7 0.0
0.0 0.0 0.0

3.061145031838936e6 8.548269845168272e6 0.0
8.548269845168272e6 -1.4150154498089748e7 0.0
0.0 0.0 0.0

1.5623431764560174e6 1.0839777742544336e7 0.0
1.0839777742544336e7 -1.0467868796764268e7 0.0
0.0 0.0 0.0

-775705.4576673963 9.026125182397487e6 0.0
9.026125182397487e6 -4.078118549546108e6 0.0
0.0 0.0 0.0

2.569312386342622e6 7.128820068211246e6 0.0
7.128820068211246e6 -8.803620896277055e6 0.0
0.0 0.0 0.0

-8.392402409931535e6 8.73167908102649e6 0.0
8.73167908102649e6 2.747795740044757e6 0.0
0.0 0.0 0.0

-2.7272969669546736e6 1.129442300453201e7 0.0
1.129442300453201e7 -2.687117436511307e6 0.0
0.0 0.0 0.0

-3.2663066086172005e6 -102618.11556176085 0.0
-102618.11556176085 3.040568179772689e6 0.0
0.0 0.0 0.0

-2.021659492174544e6 6.582224084785885e6 0.0
6.582224084785885e6 -30476.947071905248 0.0
0.0 0.0 0.0

-5.54039396931373e6 9.94694154246478e6 0.0
9.94694154246478e6 3.4511500497772954e6 0.0
0.0 0.0 0.0

-4.984994948280295e6 9.360864703644548e6 0.0
9.360864703644548e6 3.210258352545253e6 0.0
0.0 0.0 0.0

-2.76552010661599e6 7.312506597506636e6 0.0
7.312506597506636e6 746750.8706688613 0.0
0.0 0.0 0.0

-1.392407513498204e6 5.207876319447824e6 0.0
5.207876319447824e6 -97162.83834977407 0.0
0.0 0.0 0.0

2.8654937055895254e6 8.514917086199112e6 0.0
8.514917086199112e6 -1.8421757534380802e6 0.0
0.0 0.0 0.0

-4.485969354909666e6 1.0845217214101184e7 0.0
1.0845217214101184e7 -385397.2165589605 0.0
0.0 0.0 0.0

-408043.8784926503 2.8095577393173217e6 0.0
2.8095577393173217e6 -2.7792611683521187e6 0.0
0.0 0.0 0.0

-5.679324836781494e6 1.0882321834765721e7 0.0
1.0882321834765721e7 2.1648340197487487e6 0.0
0.0 0.0 0.0

-4.854412221961029e6 5.655419434095071e6 0.0
5.655419434095071e6 4.0693138837108193e6 0.0
0.0 0.0 0.0

-3.1961594924923354e6 7.804765804197643e6 0.0
7.804765804197643e6 1.35635235281407e6 0.0
0.0 0.0 0.0

-3.318012520060003e6 -246893.95415214341 0.0
-246893.95415214341 3.1196525914907977e6 0.0
0.0 0.0 0.0

2.6741495278565283e6 6.003911310770787e6 0.0
6.003911310770787e6 -8.085953680491505e6 0.0
0.0 0.0 0.0

2.6514574694882683e6 7.315070043563573e6 0.0
7.315070043563573e6 -8.991310729704626e6 0.0
0.0 0.0 0.0

-3.0948846338950275e6 5.026435338931959e6 0.0
5.026435338931959e6 2.0355465080403688e6 0.0
0.0 0.0 0.0

3.2970562455481533e6 7.77227140829282e6 0.0
7.77227140829282e6 -1.2589379331643118e7 0.0
0.0 0.0 0.0

-8.633009232572855e6 -8.994253377297191e6 0.0
-8.994253377297191e6 1.9883138762236428e7 0.0
0.0 0.0 0.0

-135547.77046732674 6.754260810362731e6 0.0
6.754260810362731e6 -4.623188273722012e6 0.0
0.0 0.0 0.0

707730.624353748 7.084624502735031e6 0.0
7.084624502735031e6 -5.11289090608089e6 0.0
0.0 0.0 0.0

-7.713358340063825e6 1.4524447036484687e7 0.0
1.4524447036484687e7 3.510741045420834e6 0.0
0.0 0.0 0.0

-7.476782025487818e6 1.0803078782871978e7 0.0
1.0803078782871978e7 5.199534058306424e6 0.0
0.0 0.0 0.0

-4.975950516368368e6 9.459124134902934e6 0.0
9.459124134902934e6 3.1379150465428396e6 0.0
0.0 0.0 0.0

-5.128316663270436e6 1.0938552221810112e7 0.0
1.0938552221810112e7 1.2887388505154888e6 0.0
0.0 0.0 0.0

-9.71206710996145e6 1.2465761540761106e7 0.0
1.2465761540761106e7 6.196917813260916e6 0.0
0.0 0.0 0.0

-5.46922853501681e6 9.940565100450156e6 0.0
9.940565100450156e6 3.748721013413267e6 0.0
0.0 0.0 0.0

-1.0073414489320507e6 1.051981530572174e7 0.0
1.051981530572174e7 614226.2793339211 0.0
0.0 0.0 0.0

3.58157032094194e6 6.687244426704137e6 0.0
6.687244426704137e6 -1.1229796179121565e7 0.0
0.0 0.0 0.0

2.9278881086641806e6 5.820274326619743e6 0.0
5.820274326619743e6 -8.609180453290028e6 0.0
0.0 0.0 0.0

3.430045120320073e6 6.140332181507075e6 0.0
6.140332181507075e6 -1.0256302273000501e7 0.0
0.0 0.0 0.0

-5.468967130762392e6 9.870215855153294e6 0.0
9.870215855153294e6 2.633757004209562e6 0.0
0.0 0.0 0.0

-1.87951043293582e6 5.092161712412635e6 0.0
5.092161712412635e6 -647578.3087678956 0.0
0.0 0.0 0.0

-4.604229762321376e6 -7.179396351404274e6 0.0
-7.179396351404274e6 7.640801435296368e6 0.0
0.0 0.0 0.0

-2.690105149580184e6 5.533087886204397e6 0.0
5.533087886204397e6 1.4916213144204705e6 0.0
0.0 0.0 0.0

642492.5844816249 5.28463433124855e6 0.0
5.28463433124855e6 -4.55344463440398e6 0.0
0.0 0.0 0.0

-6.169424949309099e6 9.629110791568108e6 0.0
9.629110791568108e6 3.670533282287525e6 0.0
0.0 0.0 0.0

-953915.1367167244 9.194035428724935e6 0.0
9.194035428724935e6 -6.800525192831279e6 0.0
0.0 0.0 0.0

-1.894844741164891e6 780889.8831518469 0.0
780889.8831518469 1.7235809337574735e6 0.0
0.0 0.0 0.0

-1.462169644268076e6 4.058769099522243e6 0.0
4.058769099522243e6 -27386.292175020615 0.0
0.0 0.0 0.0

-8.94629401438771e6 2.2430707846272215e6 0.0
2.2430707846272215e6 1.0007075274820166e7 0.0
0.0 0.0 0.0

-3.930195543040571e6 1.0074732176371088e7 0.0
1.0074732176371088e7 4.0403735194550715e6 0.0
0.0 0.0 0.0

222628.49224469298 8.594473674046556e6 0.0
8.594473674046556e6 -6.192687014972383e6 0.0
0.0 0.0 0.0

3.730662887134799e6 6.435664896903709e6 0.0
6.435664896903709e6 -1.1015420079380207e7 0.0
0.0 0.0 0.0

2.176607839364995e6 5.581551521786136e6 0.0
5.581551521786136e6 -6.813879856363745e6 0.0
0.0 0.0 0.0

-7.459416412540597e6 1.7987608357164413e7 0.0
1.7987608357164413e7 -2.258920664525982e6 0.0
0.0 0.0 0.0

-7.877317662715442e6 -9.1894722006277e6 0.0
-9.1894722006277e6 1.7658310603648447e7 0.0
0.0 0.0 0.0

2.1182850264630034e6 7.473461635088457e6 0.0
7.473461635088457e6 -8.237261819757108e6 0.0
0.0 0.0 0.0

-1.211413492263425e7 -4.691552244483326e6 0.0
-4.691552244483326e6 3.255201327566745e7 0.0
0.0 0.0 0.0

3.643356952600044e6 7.134418092472054e6 0.0
7.134418092472054e6 -1.1814861759406246e7 0.0
0.0 0.0 0.0

-5.78165243557178e6 1.0580938680141846e7 0.0
1.0580938680141846e7 4.022929989204626e6 0.0
0.0 0.0 0.0

-921631.1430466871 6.470107658946001e6 0.0
6.470107658946001e6 -2.63286467705496e6 0.0
0.0 0.0 0.0

-2.7310092445185576e6 9.156171198567223e6 0.0
9.156171198567223e6 -2.089265915105135e6 0.0
0.0 0.0 0.0

-781765.5944592042 9.991373170617096e6 0.0
9.991373170617096e6 -5.003184303262627e6 0.0
0.0 0.0 0.0

-9.151519370952543e6 -8.63742186910668e6 0.0
-8.63742186910668e6 2.195003711113072e7 0.0
0.0 0.0 0.0

3.48629481332011e6 6.330384352052017e6 0.0
6.330384352052017e6 -1.0518694369332109e7 0.0
0.0 0.0 0.0

-5.350231587011203e6 5.371467850995133e6 0.0
5.371467850995133e6 5.41247291336555e6 0.0
0.0 0.0 0.0

-4.1345222729645497e6 5.870844087426858e6 0.0
5.870844087426858e6 3.1745935444113957e6 0.0
0.0 0.0 0.0

-5.8412972918407675e6 2.8057752150005205e6 0.0
2.8057752150005205e6 6.391294245820226e6 0.0
0.0 0.0 0.0

-2.9023426985084824e6 7.566601658280738e6 0.0
7.566601658280738e6 1.1061931399285716e6 0.0
0.0 0.0 0.0

-3.906874959380403e6 1.1491023848407114e7 0.0
1.1491023848407114e7 6.7958067453351e6 0.0
0.0 0.0 0.0

-4.2054122186465245e6 1.1081459705100065e7 0.0
1.1081459705100065e7 -11412.461254292168 0.0
0.0 0.0 0.0

-6.150536874793154e6 1.0437735018523436e7 0.0
1.0437735018523436e7 3.2115457686652346e6 0.0
0.0 0.0 0.0

-5.24986896207688e6 1.1312947693375515e7 0.0
1.1312947693375515e7 620635.6367743041 0.0
0.0 0.0 0.0

297039.90746148815 7.0322974934317805e6 0.0
7.0322974934317805e6 -4.62332229075423e6 0.0
0.0 0.0 0.0

-6.618891506060876e6 1.0875958123064127e7 0.0
1.0875958123064127e7 4.411687507739631e6 0.0
0.0 0.0 0.0

-1.2772359700669379e6 1.1050976969012361e7 0.0
1.1050976969012361e7 -537842.435846477 0.0
0.0 0.0 0.0

-278875.22587384284 8.905788235749707e6 0.0
8.905788235749707e6 -4.753658264948459e6 0.0
0.0 0.0 0.0

-6.234865967949951e6 4.53459646598259e6 0.0
4.53459646598259e6 9.346908622497527e6 0.0
0.0 0.0 0.0

-3.69592995945911e6 4.643268536183295e6 0.0
4.643268536183295e6 2.858078911103255e6 0.0
0.0 0.0 0.0

389077.50124049885 7.2037655646180725e6 0.0
7.2037655646180725e6 -5.299423402631321e6 0.0
0.0 0.0 0.0

-2.7807878328105686e6 -2.122887721578606e6 0.0
-2.122887721578606e6 2.933198298884436e6 0.0
0.0 0.0 0.0

2.9431157047101553e6 6.101929700900526e6 0.0
6.101929700900526e6 -8.2951669448069045e6 0.0
0.0 0.0 0.0

-2.3315918599847984e6 9.991661980355674e6 0.0
9.991661980355674e6 3.464632451354567e6 0.0
0.0 0.0 0.0

-6.7126700784831885e6 -8.907742493110135e6 0.0
-8.907742493110135e6 1.5314021972328547e7 0.0
0.0 0.0 0.0

3.190227110516619e6 5.981795852308931e6 0.0
5.981795852308931e6 -9.756711029583465e6 0.0
0.0 0.0 0.0

2.9568996775592826e6 6.05289024982878e6 0.0
6.05289024982878e6 -8.349250637041451e6 0.0
0.0 0.0 0.0

-2.0883373336791834e6 -3.1973712187058036e6 0.0
-3.1973712187058036e6 2.3803303345810324e6 0.0
0.0 0.0 0.0

-8.120329085864028e6 8.185993153660036e6 0.0
8.185993153660036e6 1.2285114668688226e7 0.0
0.0 0.0 0.0

3.129128726090737e6 5.859609688138353e6 0.0
5.859609688138353e6 -9.591243737516081e6 0.0
0.0 0.0 0.0

-5.903398138283003e6 -8.809540650329573e6 0.0
-8.809540650329573e6 1.2797886889474344e7 0.0
0.0 0.0 0.0

-3.424735082506534e6 9.910818155773759e6 0.0
9.910818155773759e6 3.7552851391388606e6 0.0
0.0 0.0 0.0

-4.375234455505988e6 -349609.67782977165 0.0
-349609.67782977165 5.513821604146564e6 0.0
0.0 0.0 0.0

-2.90608446326481e6 -4.80184805777934e6 0.0
-4.80184805777934e6 3.9977898052075887e6 0.0
0.0 0.0 0.0

3.0211947324267733e6 5.949261254117933e6 0.0
5.949261254117933e6 -8.51967374692233e6 0.0
0.0 0.0 0.0

3.022956748979198e6 5.85427112199904e6 0.0
5.85427112199904e6 -9.332189780097604e6 0.0
0.0 0.0 0.0

-6.150899508683628e6 -8.213397354665234e6 0.0
-8.213397354665234e6 1.1974268760934342e7 0.0
0.0 0.0 0.0

-1.0091490617553887e8 3.0586726543606576e7 0.0
3.0586726543606576e7 -1.8428580621600412e6 0.0
0.0 0.0 0.0

5.652340415349355e7 1.0482125926311804e7 0.0
1.0482125926311804e7 -6.378922752608854e6 0.0
0.0 0.0 0.0

-2.8740576146031963e6 7.268963917714655e6 0.0
7.268963917714655e6 1.0159685994651964e6 0.0
0.0 0.0 0.0

2.883056094773512e6 5.853569315519932e6 0.0
5.853569315519932e6 -9.07568445185845e6 0.0
0.0 0.0 0.0

-6.8756173183241e6 -7.476974423785467e6 0.0
-7.476974423785467e6 1.2068125371093877e7 0.0
0.0 0.0 0.0

1.095521698224162e6 8.455936253049813e6 0.0
8.455936253049813e6 -3.34943939098295e6 0.0
0.0 0.0 0.0

-3.604367018607542e6 5.34593992078158e6 0.0
5.34593992078158e6 2.693219226539197e6 0.0
0.0 0.0 0.0

-5.5649950949632535e6 1.0057972362901682e7 0.0
1.0057972362901682e7 3.4074913488820205e6 0.0
0.0 0.0 0.0

-2.5072684179269886e6 1.009655976640327e7 0.0
1.009655976640327e7 3.5938239369460642e6 0.0
0.0 0.0 0.0

-6.275599636579804e6 -7.195800361187152e6 0.0
-7.195800361187152e6 1.0317864189563598e7 0.0
0.0 0.0 0.0

2.706949212536617e6 5.782213780561645e6 0.0
5.782213780561645e6 -8.809925611978991e6 0.0
0.0 0.0 0.0

-4.722877421057091e6 1.0786527802549804e7 0.0
1.0786527802549804e7 125852.88921085373 0.0
0.0 0.0 0.0

-73542.55226394301 1.0252061439055756e7 0.0
1.0252061439055756e7 -8.854967568773557e6 0.0
0.0 0.0 0.0

-5.830511193025024e6 1.0630024544971611e7 0.0
1.0630024544971611e7 2.2679417049315134e6 0.0
0.0 0.0 0.0

-1.0006191964529424e6 9.082419368646663e6 0.0
9.082419368646663e6 -3.712422444198939e6 0.0
0.0 0.0 0.0

-186380.94768117717 9.438294471980989e6 0.0
9.438294471980989e6 -5.868092144365933e6 0.0
0.0 0.0 0.0

-870270.2897704544 1.070105014247909e7 0.0
1.070105014247909e7 -13156.121127519466 0.0
0.0 0.0 0.0

-3.896726219733378e6 1.2245017278312832e7 0.0
1.2245017278312832e7 -1.4549055349097576e6 0.0
0.0 0.0 0.0

-2.866994356695123e6 1.0943337752099529e7 0.0
1.0943337752099529e7 -1.677838169033638e6 0.0
0.0 0.0 0.0

171587.459946475 9.651888850806374e6 0.0
9.651888850806374e6 -7.937894582693816e6 0.0
0.0 0.0 0.0

-5.776754525950143e6 1.0427170139466103e7 0.0
1.0427170139466103e7 3.2444462014053664e6 0.0
0.0 0.0 0.0

-5.077563510988325e6 9.424612979237879e6 0.0
9.424612979237879e6 3.2208443860931713e6 0.0
0.0 0.0 0.0

-4.9613354929262195e6 1.1592398745552674e7 0.0
1.1592398745552674e7 2.40834090666651e6 0.0
0.0 0.0 0.0

-119396.94317926979 9.57718549805518e6 0.0
9.57718549805518e6 -5.987515055761403e6 0.0
0.0 0.0 0.0

-2.4507077780218143e6 5.943496225061015e6 0.0
5.943496225061015e6 946154.1914072239 0.0
0.0 0.0 0.0

-272483.6971560253 1.0125919613671588e7 0.0
1.0125919613671588e7 75162.13909362939 0.0
0.0 0.0 0.0

-2.729735838163167e6 6.268611225697071e6 0.0
6.268611225697071e6 1.3431902068282706e6 0.0
0.0 0.0 0.0

-2.5135588154349686e6 7.935750351214702e6 0.0
7.935750351214702e6 -473311.1108166554 0.0
0.0 0.0 0.0

-5.676999626921454e6 1.0325456952764353e7 0.0
1.0325456952764353e7 3.3402044813469974e6 0.0
0.0 0.0 0.0

498300.2928099008 9.35445219237719e6 0.0
9.35445219237719e6 -7.298300267406315e6 0.0
0.0 0.0 0.0

-2.8191656702002254e6 1.0139031923898675e7 0.0
1.0139031923898675e7 3.244151302343346e6 0.0
0.0 0.0 0.0

-1.0279370584025322e7 1.2622912810248788e7 0.0
1.2622912810248788e7 6.651267509658944e6 0.0
0.0 0.0 0.0

-2.812421376177733e6 7.991199569004412e6 0.0
7.991199569004412e6 -536347.1684158618 0.0
0.0 0.0 0.0

-5.232821010832849e6 1.0715420998324292e7 0.0
1.0715420998324292e7 948196.9535551921 0.0
0.0 0.0 0.0

840043.0565993128 8.903141314633047e6 0.0
8.903141314633047e6 2.8366271173611595e6 0.0
0.0 0.0 0.0

-5.626042784228996e6 1.0190422943577662e7 0.0
1.0190422943577662e7 3.3625360344972317e6 0.0
0.0 0.0 0.0

-7.765221777460415e6 2.2963910183847602e6 0.0
2.2963910183847602e6 4.507060512778286e6 0.0
0.0 0.0 0.0

-6.627424090385561e6 1.1054558833187114e7 0.0
1.1054558833187114e7 3.9843415035797893e6 0.0
0.0 0.0 0.0

1.132813952843489e6 4.902112790535463e6 0.0
4.902112790535463e6 -4.967336183025261e6 0.0
0.0 0.0 0.0

990710.2888078832 4.8179858517110385e6 0.0
4.8179858517110385e6 -4.569108355569964e6 0.0
0.0 0.0 0.0

-4.965603515636478e6 1.077956524763091e7 0.0
1.077956524763091e7 698776.2493681903 0.0
0.0 0.0 0.0

-4.218218709005507e6 1.068242508073187e7 0.0
1.068242508073187e7 5.768511092426866e6 0.0
0.0 0.0 0.0

-7.07592257603153e6 1.1373820043505475e7 0.0
1.1373820043505475e7 4.280875985155743e6 0.0
0.0 0.0 0.0

-4.498648169027874e6 3.2043320424281154e6 0.0
3.2043320424281154e6 4.465029317276834e6 0.0
0.0 0.0 0.0

-8.808727370842151e6 1.2032510666448591e7 0.0
1.2032510666448591e7 5.644699241038661e6 0.0
0.0 0.0 0.0

-2.7687387072648252e6 1.0735500778160289e7 0.0
1.0735500778160289e7 1.9795266234847982e6 0.0
0.0 0.0 0.0

-869743.3555044064 6.95556431558976e6 0.0
6.95556431558976e6 -1.0772240643849527e6 0.0
0.0 0.0 0.0

798920.682463001 8.559091619260635e6 0.0
8.559091619260635e6 -6.4295890857096175e6 0.0
0.0 0.0 0.0

-5.852910485229703e6 9.986341459539618e6 0.0
9.986341459539618e6 3.399978305536634e6 0.0
0.0 0.0 0.0

-1.2693509403380633e6 1.6669368115908352e6 0.0
1.6669368115908352e6 1.1851915218353993e6 0.0
0.0 0.0 0.0

-9.872452786245402e6 7.373207169106477e6 0.0
7.373207169106477e6 1.23016253298621e7 0.0
0.0 0.0 0.0

404267.02601597644 9.646711244218899e6 0.0
9.646711244218899e6 -8.625754879340703e6 0.0
0.0 0.0 0.0

-4.991960447668951e6 3.3462137508022054e6 0.0
3.3462137508022054e6 7.138813329230761e6 0.0
0.0 0.0 0.0

-1.0439388221163959e6 1.3190208884498253e7 0.0
1.3190208884498253e7 -2.7408080562553187e6 0.0
0.0 0.0 0.0

376704.74751114775 8.593614921876647e6 0.0
8.593614921876647e6 -5.678808289273193e6 0.0
0.0 0.0 0.0

-2.75367578268521e6 7.726900031209383e6 0.0
7.726900031209383e6 -490007.712243696 0.0
0.0 0.0 0.0

-5.624496988038562e6 1.0667130053977065e7 0.0
1.0667130053977065e7 1.866712762705883e6 0.0
0.0 0.0 0.0

837478.2904705659 8.675516915582003e6 0.0
8.675516915582003e6 -4.439642709992409e6 0.0
0.0 0.0 0.0

-2.569102510174994e6 5.471145001039836e6 0.0
5.471145001039836e6 1.9437528565100257e6 0.0
0.0 0.0 0.0

-5.804950174878595e6 4.097865903791392e6 0.0
4.097865903791392e6 8.194550360179417e6 0.0
0.0 0.0 0.0

-5.463454161284963e6 1.0659151995815242e7 0.0
1.0659151995815242e7 1.4274825852687256e6 0.0
0.0 0.0 0.0

-2.701154915465586e6 7.275717071903654e6 0.0
7.275717071903654e6 981009.2391205833 0.0
0.0 0.0 0.0

2.636445479958544e6 6.450359455521964e6 0.0
6.450359455521964e6 -8.464849334320955e6 0.0
0.0 0.0 0.0

-3.430866458472844e6 7.858793592212187e6 0.0
7.858793592212187e6 1.477214388931464e6 0.0
0.0 0.0 0.0

507681.7462916495 9.245892819257017e6 0.0
9.245892819257017e6 -5.431000315736411e6 0.0
0.0 0.0 0.0

950190.2700177545 8.113981328329078e6 0.0
8.113981328329078e6 -2.403441035256257e6 0.0
0.0 0.0 0.0

-1.6911059620083342e6 9.967714361772941e6 0.0
9.967714361772941e6 120625.57022581599 0.0
0.0 0.0 0.0

-2.747374873025918e6 8.434573415628154e6 0.0
8.434573415628154e6 -1.2966048036082387e6 0.0
0.0 0.0 0.0

-413414.4750214126 9.579387833865795e6 0.0
9.579387833865795e6 -5.543738859227883e6 0.0
0.0 0.0 0.0

995016.2748535108 7.2264173696088595e6 0.0
7.2264173696088595e6 -6.560064054215392e6 0.0
0.0 0.0 0.0

668905.6009572961 8.994993527096784e6 0.0
8.994993527096784e6 -5.019076243690434e6 0.0
0.0 0.0 0.0

-122384.28450368764 7.1337795958916275e6 0.0
7.1337795958916275e6 -4.779168459244943e6 0.0
0.0 0.0 0.0

840411.275004939 5.404741262478768e6 0.0
5.404741262478768e6 -4.403270310896823e6 0.0
0.0 0.0 0.0

-5.97773222482354e6 1.0227660493788408e7 0.0
1.0227660493788408e7 3.3433786017552796e6 0.0
0.0 0.0 0.0

-1.1401942161776093e6 6.742027127447876e6 0.0
6.742027127447876e6 -2.728884413765227e6 0.0
0.0 0.0 0.0

-3.3827503717014166e6 1.0360609754772805e7 0.0
1.0360609754772805e7 3.5013253735188125e6 0.0
0.0 0.0 0.0

-25909.434449178516 2.4183558182598967e6 0.0
2.4183558182598967e6 -1.0697582520509723e6 0.0
0.0 0.0 0.0

1.854277396029841e6 9.180418979955476e6 0.0
9.180418979955476e6 -2.8233480394010344e6 0.0
0.0 0.0 0.0

-2.533001945433309e6 8.66564258976947e6 0.0
8.66564258976947e6 1.668692493860846e6 0.0
0.0 0.0 0.0

586238.4121370309 7.13606642616405e6 0.0
7.13606642616405e6 -5.512051603720324e6 0.0
0.0 0.0 0.0

-3.549468792262629e7 2.248516609782497e6 0.0
2.248516609782497e6 1.5791625806782002e7 0.0
0.0 0.0 0.0

-4.40467601701675e6 9.078522885445049e6 0.0
9.078522885445049e6 5.347254261585275e6 0.0
0.0 0.0 0.0

-1.6796402834406714e6 1.0031038879777757e7 0.0
1.0031038879777757e7 -3.1391398813081332e6 0.0
0.0 0.0 0.0

-2.3070882373654936e6 8.089811353140908e6 0.0
8.089811353140908e6 -1.8855760250989725e6 0.0
0.0 0.0 0.0

383170.29271864914 9.024423385041457e6 0.0
9.024423385041457e6 -5.938641948359146e6 0.0
0.0 0.0 0.0

-751764.0277127526 1.0409339911714846e7 0.0
1.0409339911714846e7 481997.6293756431 0.0
0.0 0.0 0.0

1.096459331568441e6 8.69416581579757e6 0.0
8.69416581579757e6 -7.182256819667914e6 0.0
0.0 0.0 0.0

-701384.5447063718 1.0481472146967141e7 0.0
1.0481472146967141e7 831601.7099655757 0.0
0.0 0.0 0.0

-1.7510873528259764e6 9.189805774403088e6 0.0
9.189805774403088e6 -3.4888290401526187e6 0.0
0.0 0.0 0.0

1.0283983033692068e6 7.181750095868899e6 0.0
7.181750095868899e6 -5.748028963024684e6 0.0
0.0 0.0 0.0

2.689752782392208e6 6.004121089231766e6 0.0
6.004121089231766e6 -8.814866618635645e6 0.0
0.0 0.0 0.0

-4.700904744602986e6 1.3436846572004154e7 0.0
1.3436846572004154e7 -833122.0842298899 0.0
0.0 0.0 0.0

972636.5214103688 8.626045954564465e6 0.0
8.626045954564465e6 -6.835043662384611e6 0.0
0.0 0.0 0.0

-6.383721621912494e6 1.0820708689092312e7 0.0
1.0820708689092312e7 4.315850212783257e6 0.0
0.0 0.0 0.0

-3.058127354649881e6 1.0934573180387272e7 0.0
1.0934573180387272e7 766864.6548508981 0.0
0.0 0.0 0.0

555084.2734734751 6.719857036234581e6 0.0
6.719857036234581e6 -4.963406783215989e6 0.0
0.0 0.0 0.0

-1.1211298861199755e7 1.2444910886220027e7 0.0
1.2444910886220027e7 7.208057538897029e6 0.0
0.0 0.0 0.0

686585.3144508942 7.302092717420376e6 0.0
7.302092717420376e6 -5.239679376598487e6 0.0
0.0 0.0 0.0

-6.511132194915181e6 1.0679777613076577e7 0.0
1.0679777613076577e7 1.023850370727623e7 0.0
0.0 0.0 0.0

-850783.2051964259 1.0925663157673376e7 0.0
1.0925663157673376e7 -381363.30617546954 0.0
0.0 0.0 0.0

-6.987453404896436e6 1.0859578368378345e7 0.0
1.0859578368378345e7 4.52300857899381e6 0.0
0.0 0.0 0.0

-2.330309178307877e6 6.230068724172284e6 0.0
6.230068724172284e6 1.3359806661588692e6 0.0
0.0 0.0 0.0

22360.492031555856 8.941319609992743e6 0.0
8.941319609992743e6 -5.985280552898146e6 0.0
0.0 0.0 0.0

-1.1687731011049682e6 4.921837587975351e6 0.0
4.921837587975351e6 -2.1101710220623002e6 0.0
0.0 0.0 0.0

-2.718427877385866e6 8.658121585550452e6 0.0
8.658121585550452e6 -940073.2764485041 0.0
0.0 0.0 0.0

4.3495884285579985e6 9.024609217359556e6 0.0
9.024609217359556e6 -3.88392947626293e6 0.0
0.0 0.0 0.0

-1.0173295046380906e6 1.0480655053548615e7 0.0
1.0480655053548615e7 -3.9449380817293804e6 0.0
0.0 0.0 0.0

470681.9007354246 5.314322271436086e6 0.0
5.314322271436086e6 -3.3870514118617084e6 0.0
0.0 0.0 0.0

-209240.40583740524 9.244230910761898e6 0.0
9.244230910761898e6 -5.7480783121489e6 0.0
0.0 0.0 0.0

-1.374940830594459e6 1.15656723954662e6 0.0
1.15656723954662e6 1.392404289501845e6 0.0
0.0 0.0 0.0

-4.462640522135753e6 1.0071067795735957e7 0.0
1.0071067795735957e7 4.123559817632365e6 0.0
0.0 0.0 0.0

-4.088351798379329e6 5.015105536793754e6 0.0
5.015105536793754e6 3.5255598257258665e6 0.0
0.0 0.0 0.0

-1.0962633431208998e7 7.495222334482213e6 0.0
7.495222334482213e6 5.610823769486295e6 0.0
0.0 0.0 0.0

150765.21656268556 9.570797974757217e6 0.0
9.570797974757217e6 -8.06968780556226e6 0.0
0.0 0.0 0.0

-5.665192804500332e6 1.0190637176053772e7 0.0
1.0190637176053772e7 3.9473645930460887e6 0.0
0.0 0.0 0.0

-5.623288658283666e6 1.0684272463646783e7 0.0
1.0684272463646783e7 3.883312949569216e6 0.0
0.0 0.0 0.0

-2.3180308974910094e6 1.1892446188607253e7 0.0
1.1892446188607253e7 -2.922906643792435e6 0.0
0.0 0.0 0.0

720611.3017789708 9.35625930215844e6 0.0
9.35625930215844e6 -8.378017775124952e6 0.0
0.0 0.0 0.0

-2.8690827301116595e6 1.0343864307363924e7 0.0
1.0343864307363924e7 3.0596278493738137e6 0.0
0.0 0.0 0.0

-9.588227651153997e6 -826528.887863421 0.0
-826528.887863421 1.3374915370631631e7 0.0
0.0 0.0 0.0

1.9013353050991998e6 2.447177439141077e6 0.0
2.447177439141077e6 -4.1032285066463132e6 0.0
0.0 0.0 0.0

156398.94675362483 9.80680775854779e6 0.0
9.80680775854779e6 -6.296725012662965e6 0.0
0.0 0.0 0.0

-3.37400844191665e6 1.205018046888946e7 0.0
1.205018046888946e7 -1.9711505236564549e6 0.0
0.0 0.0 0.0

-2.808650501722221e6 8.211244830349392e6 0.0
8.211244830349392e6 -176133.90704101324 0.0
0.0 0.0 0.0

-1.9043445644274212e6 8.03382446598804e6 0.0
8.03382446598804e6 -2.534380415681039e6 0.0
0.0 0.0 0.0

-1.0793908964071597e6 9.446591421870217e6 0.0
9.446591421870217e6 -6.975159452179177e6 0.0
0.0 0.0 0.0

-6.389325556885172e6 3.462051615757491e6 0.0
3.462051615757491e6 7.3568866294046715e6 0.0
0.0 0.0 0.0

-7.078014746737475e6 1.14851456081702e7 0.0
1.14851456081702e7 3.882748575204852e6 0.0
0.0 0.0 0.0

-1.4439323455941109e7 5.603551803283613e6 0.0
5.603551803283613e6 8.142850667135711e6 0.0
0.0 0.0 0.0

2.0680523958739631e6 8.861628295137953e6 0.0
8.861628295137953e6 -2.847389797005113e6 0.0
0.0 0.0 0.0

671620.428586862 6.876273831913418e6 0.0
6.876273831913418e6 -4.685154081311992e6 0.0
0.0 0.0 0.0

-2.6914507765416754e6 7.951024596443503e6 0.0
7.951024596443503e6 -122077.11431228649 0.0
0.0 0.0 0.0

-7.443969852108838e6 2.690185882050374e6 0.0
2.690185882050374e6 1.071700548757335e7 0.0
0.0 0.0 0.0

-7.2725477132180575e6 1.097768867287636e7 0.0
1.097768867287636e7 4.771932692154771e6 0.0
0.0 0.0 0.0

-3.39248293717296e6 1.0137431149832722e7 0.0
1.0137431149832722e7 3.628466918559633e6 0.0
0.0 0.0 0.0

-6.1858965619392935e6 1.0569381780590585e7 0.0
1.0569381780590585e7 3.1535207382575274e6 0.0
0.0 0.0 0.0

-1.4536682251431972e6 9.190363905623715e6 0.0
9.190363905623715e6 -3.8758702621346177e6 0.0
0.0 0.0 0.0

-9.665749644264353e6 3.047155842730826e6 0.0
3.047155842730826e6 1.1590361885012507e7 0.0
0.0 0.0 0.0

-684188.5275921792 1.0179321837621108e7 0.0
1.0179321837621108e7 -5.181203272362221e6 0.0
0.0 0.0 0.0

-2.709838604295705e6 1.1258777457567543e7 0.0
1.1258777457567543e7 233659.62704759778 0.0
0.0 0.0 0.0

-7.233966653884307e6 1.167404118769923e7 0.0
1.167404118769923e7 4.1732704711346007e6 0.0
0.0 0.0 0.0

13930.816542782355 5.623587762762211e6 0.0
5.623587762762211e6 -4.342353082783539e6 0.0
0.0 0.0 0.0

-257919.98729411117 1.164509831476403e7 0.0
1.164509831476403e7 -3.9864499018903025e6 0.0
0.0 0.0 0.0

-5.58813225454544e6 9.997425147515588e6 0.0
9.997425147515588e6 3.759140825248328e6 0.0
0.0 0.0 0.0

-2.30875058340937e6 5.883511052077122e6 0.0
5.883511052077122e6 1.471099169047777e6 0.0
0.0 0.0 0.0

-3.731608127143354e6 1.1873600816748116e7 0.0
1.1873600816748116e7 1.2468559506905533e6 0.0
0.0 0.0 0.0

-6.7427093857102115e6 4.454600048160888e6 0.0
4.454600048160888e6 7.653105032587994e6 0.0
0.0 0.0 0.0

-2.7506775788793704e6 3.2226143539913143e6 0.0
3.2226143539913143e6 4.413814472220165e6 0.0
0.0 0.0 0.0

-5.351988203973012e6 9.77061906560883e6 0.0
9.77061906560883e6 3.477071870817344e6 0.0
0.0 0.0 0.0

-3.864615012416403e6 3.9782947312452532e6 0.0
3.9782947312452532e6 3.1066107043904522e6 0.0
0.0 0.0 0.0

-4.326762913763452e6 8.660352690546785e6 0.0
8.660352690546785e6 2.5780370272001703e6 0.0
0.0 0.0 0.0

-2.618168022943141e6 1.1366711963060455e7 0.0
1.1366711963060455e7 4.314645345967286e6 0.0
0.0 0.0 0.0

833130.6121763433 9.192869324041173e6 0.0
9.192869324041173e6 -8.053533465454813e6 0.0
0.0 0.0 0.0

-390880.4522933756 2.057996551519077e6 0.0
2.057996551519077e6 -903332.027777635 0.0
0.0 0.0 0.0

-3.133958088740745e6 1.4319630751759e7 0.0
1.4319630751759e7 -2.5002340676854737e6 0.0
0.0 0.0 0.0

-4.1366364620593535e6 3.2277735807922496e6 0.0
3.2277735807922496e6 5.695177202895263e6 0.0
0.0 0.0 0.0

-1.2325880610476253e6 7.605050853654892e6 0.0
7.605050853654892e6 -3.3413464590204256e6 0.0
0.0 0.0 0.0

-2.49084065022764e6 1.055107798060198e7 0.0
1.055107798060198e7 2.3981240046835076e6 0.0
0.0 0.0 0.0

-2.4483785901386193e6 8.375729452911905e6 0.0
8.375729452911905e6 -1.207956767791927e6 0.0
0.0 0.0 0.0

-4.584677647272972e6 9.69874429105396e6 0.0
9.69874429105396e6 4.039352397419547e6 0.0
0.0 0.0 0.0

-547482.257827509 6.30714165290722e6 0.0
6.30714165290722e6 -2.829109174953263e6 0.0
0.0 0.0 0.0

-4.0573723929332616e6 1.0792774154115265e7 0.0
1.0792774154115265e7 1.9933679421107154e6 0.0
0.0 0.0 0.0

-4.410663315670449e6 8.70096275126847e6 0.0
8.70096275126847e6 2.9432546265745014e6 0.0
0.0 0.0 0.0

-684449.3787361818 1.157708385165164e7 0.0
1.157708385165164e7 -3.799339219195028e6 0.0
0.0 0.0 0.0

-5.686434125293219e6 9.839767388967477e6 0.0
9.839767388967477e6 3.450391797898916e6 0.0
0.0 0.0 0.0

-7.363744407867608e6 1.163311379610656e7 0.0
1.163311379610656e7 4.549511680380344e6 0.0
0.0 0.0 0.0

717656.4761187742 9.213593453319175e6 0.0
9.213593453319175e6 -7.512175882686035e6 0.0
0.0 0.0 0.0

2.9617596906584464e6 1.302885298311189e6 0.0
1.302885298311189e6 -3.8198160799616785e6 0.0
0.0 0.0 0.0

-946355.5878063808 2.697321792872786e6 0.0
2.697321792872786e6 -1.276466562779524e6 0.0
0.0 0.0 0.0

3.3754045376408133e6 6.758434105743377e6 0.0
6.758434105743377e6 -1.0451121435019888e7 0.0
0.0 0.0 0.0

-4.0499230342397876e6 1.0431821449809998e7 0.0
1.0431821449809998e7 -57556.128304374404 0.0
0.0 0.0 0.0

-3.8365791970802867e6 9.865366920966761e6 0.0
9.865366920966761e6 4.2203891431789035e6 0.0
0.0 0.0 0.0

-3.066829854468978e6 5.514960452348261e6 0.0
5.514960452348261e6 1.945243553456796e6 0.0
0.0 0.0 0.0

-1.2092245168373268e7 1.2501252528653136e7 0.0
1.2501252528653136e7 7.766071331066503e6 0.0
0.0 0.0 0.0

-6.598899923634741e6 2.311338181442418e6 0.0
2.311338181442418e6 7.235245525730146e6 0.0
0.0 0.0 0.0

-2.0090884546707436e6 2.6576228531051762e7 0.0
2.6576228531051762e7 -3.2568242185952e6 0.0
0.0 0.0 0.0

-2.8863249483028348e6 1.0769452757393325e7 0.0
1.0769452757393325e7 -2.340741545306499e6 0.0
0.0 0.0 0.0

-523561.6644348296 8.974230769155473e6 0.0
8.974230769155473e6 -4.391699373118358e6 0.0
0.0 0.0 0.0

-3.632894017089133e6 1.0442274935430754e7 0.0
1.0442274935430754e7 3.349638815269447e6 0.0
0.0 0.0 0.0

-8.657095820499446e6 3.054705933029177e6 0.0
3.054705933029177e6 1.0203095431019092e7 0.0
0.0 0.0 0.0

-3.5344611330184713e6 1.088117854165216e7 0.0
1.088117854165216e7 -833102.2027804571 0.0
0.0 0.0 0.0

505775.57812799193 7.938308007943971e6 0.0
7.938308007943971e6 -1.318168033775856e6 0.0
0.0 0.0 0.0

2.457226561881618e6 6.015036058749809e6 0.0
6.015036058749809e6 -7.638226201143483e6 0.0
0.0 0.0 0.0

-1.514471467246937e6 5.844566715307402e6 0.0
5.844566715307402e6 -7495.4331713503925 0.0
0.0 0.0 0.0

-1.3942806636604581e7 1.2487597970402623e7 0.0
1.2487597970402623e7 9.151010382946108e6 0.0
0.0 0.0 0.0

-4.137248183512234e6 9.476783235021092e6 0.0
9.476783235021092e6 4.256678811516568e6 0.0
0.0 0.0 0.0

219619.6955287936 9.764950344558828e6 0.0
9.764950344558828e6 -6.106109100758993e6 0.0
0.0 0.0 0.0

2.255412864579265e6 8.241068780986484e6 0.0
8.241068780986484e6 -515708.41857503855 0.0
0.0 0.0 0.0

-1.0234980681605835e6 4.811834374890358e6 0.0
4.811834374890358e6 -499187.2645466244 0.0
0.0 0.0 0.0

-1.9017118922638805e6 5.149598669012633e6 0.0
5.149598669012633e6 -717481.2923412657 0.0
0.0 0.0 0.0

338433.4771188365 9.413324339925563e6 0.0
9.413324339925563e6 -5.748975245171374e6 0.0
0.0 0.0 0.0

-2.018174937943065e6 8.569975615970027e6 0.0
8.569975615970027e6 -2.258822230388796e6 0.0
0.0 0.0 0.0

-4.516829162947889e6 7.959333412254427e6 0.0
7.959333412254427e6 3.135883980504232e6 0.0
0.0 0.0 0.0

234894.31429572636 9.653487903284531e6 0.0
9.653487903284531e6 -6.5423603239643285e6 0.0
0.0 0.0 0.0

586355.2482597756 8.690104665123407e6 0.0
8.690104665123407e6 -6.135929734551259e6 0.0
0.0 0.0 0.0

-5.632667589802397e6 1.0402134018987447e7 0.0
1.0402134018987447e7 3.9319038579669865e6 0.0
0.0 0.0 0.0

-415526.1858796419 9.912085137930043e6 0.0
9.912085137930043e6 -4.891759244423045e6 0.0
0.0 0.0 0.0

-3.487296196376669e6 5.020503231988209e6 0.0
5.020503231988209e6 3.3640734368014056e6 0.0
0.0 0.0 0.0

3.7417055266022086e6 5.851270227338395e6 0.0
5.851270227338395e6 -6.025027477224059e6 0.0
0.0 0.0 0.0

-1.6537741245476447e7 1.0166640487762935e7 0.0
1.0166640487762935e7 6.016433819029157e6 0.0
0.0 0.0 0.0

1.7125067948347055e6 5.114914513603773e6 0.0
5.114914513603773e6 -6.052536123157244e6 0.0
0.0 0.0 0.0

4.863225840158132e6 4.410725834167974e6 0.0
4.410725834167974e6 -8.153425561287316e6 0.0
0.0 0.0 0.0

-5.362544757487416e6 1.0809481108635081e7 0.0
1.0809481108635081e7 3.7100438784200763e6 0.0
0.0 0.0 0.0

-156659.64242641872 7.015988491203967e6 0.0
7.015988491203967e6 -522198.65505798487 0.0
0.0 0.0 0.0

1.7776282093216977e6 1.042578721506057e7 0.0
1.042578721506057e7 -4.417528871619301e6 0.0
0.0 0.0 0.0

-5.60914790656346e6 8.103590058165613e6 0.0
8.103590058165613e6 6.226888122345462e6 0.0
0.0 0.0 0.0

-5.822948237401784e6 9.307153204818087e6 0.0
9.307153204818087e6 6.661462428034191e6 0.0
0.0 0.0 0.0

-2.2000455053483066e6 1.1474654555410173e7 0.0
1.1474654555410173e7 7.042937543742511e6 0.0
0.0 0.0 0.0

-464049.4727130527 1.0352574562478755e7 0.0
1.0352574562478755e7 -1.1455637000072303e6 0.0
0.0 0.0 0.0

-4.503965317847917e6 9.890491938089201e6 0.0
9.890491938089201e6 4.350116788794457e6 0.0
0.0 0.0 0.0

-3.6271144097381206e6 8.068220884005928e6 0.0
8.068220884005928e6 1.551570376472861e6 0.0
0.0 0.0 0.0

261169.29130727449 9.512486682832554e6 0.0
9.512486682832554e6 -6.067091018339163e6 0.0
0.0 0.0 0.0

-5.752967126880237e6 1.0055157090308575e7 0.0
1.0055157090308575e7 3.6690313455273076e6 0.0
0.0 0.0 0.0

-6.909892954428323e6 3.022639300659847e6 0.0
3.022639300659847e6 7.984650543615295e6 0.0
0.0 0.0 0.0

-525622.2019478771 1.3860444635865007e7 0.0
1.3860444635865007e7 -4.142429449591127e6 0.0
0.0 0.0 0.0

-2.719599646986008e6 1.0647922417897502e7 0.0
1.0647922417897502e7 -1.7676640385957216e6 0.0
0.0 0.0 0.0

663497.9894994623 6.649560520143319e6 0.0
6.649560520143319e6 -5.354234903520087e6 0.0
0.0 0.0 0.0

-1.6147996313697717e6 1.2515424106303029e7 0.0
1.2515424106303029e7 -3.016196427312621e6 0.0
0.0 0.0 0.0

-5.426672320385102e6 1.041833705534766e7 0.0
1.041833705534766e7 2.318541165127402e6 0.0
0.0 0.0 0.0

-481441.70300721016 6.275453915620732e6 0.0
6.275453915620732e6 -1.6048054734992152e6 0.0
0.0 0.0 0.0

3.4925228261001934e6 1.3596496096308507e7 0.0
1.3596496096308507e7 1.1641753032475956e7 0.0
0.0 0.0 0.0

-4.922850629582469e6 -3.0501458850001614e6 0.0
-3.0501458850001614e6 8.377906301400678e6 0.0
0.0 0.0 0.0

-122890.88592451715 8.41781567656978e6 0.0
8.41781567656978e6 -420787.8750465986 0.0
0.0 0.0 0.0

-3.2718133138756785e6 -222330.50698657185 0.0
-222330.50698657185 3.852613801182528e6 0.0
0.0 0.0 0.0

-5.734209282240635e6 1.112829031116487e7 0.0
1.112829031116487e7 2.0564669159164529e6 0.0
0.0 0.0 0.0

-4.064912142280906e6 1.3195846366008962e7 0.0
1.3195846366008962e7 -1.4005912405703976e6 0.0
0.0 0.0 0.0

-1.3054388247916475e7 1.2629065712328719e7 0.0
1.2629065712328719e7 8.284829294169806e6 0.0
0.0 0.0 0.0

-4.591543913024155e6 8.554057311553007e6 0.0
8.554057311553007e6 6.511572670983631e6 0.0
0.0 0.0 0.0

-5.403507559643317e6 2.7912827728692074e6 0.0
2.7912827728692074e6 7.942173717419302e6 0.0
0.0 0.0 0.0

-6.023003550377682e6 1.1084451181148611e7 0.0
1.1084451181148611e7 2.549639835172476e6 0.0
0.0 0.0 0.0

-4.77010769507014e6 9.001816168848852e6 0.0
9.001816168848852e6 2.9739469026106875e6 0.0
0.0 0.0 0.0

-5.309514315830612e6 9.574902471766429e6 0.0
9.574902471766429e6 3.1802594328509136e6 0.0
0.0 0.0 0.0

2.2268682272142186e6 7.6557355680180285e6 0.0
7.6557355680180285e6 -8.69721132504657e6 0.0
0.0 0.0 0.0

-5.51999402112142e6 1.0561441301109381e7 0.0
1.0561441301109381e7 3.916964560343982e6 0.0
0.0 0.0 0.0

103288.18474501953 9.760967651276547e6 0.0
9.760967651276547e6 4.471881117948711e6 0.0
0.0 0.0 0.0

155097.85928950273 8.732666838076554e6 0.0
8.732666838076554e6 -5.361257233570826e6 0.0
0.0 0.0 0.0

-1.1812085865928829e7 -4.578331308025259e6 0.0
-4.578331308025259e6 2.050612032915771e7 0.0
0.0 0.0 0.0

-6.4450884211471435e6 1.1005143544069355e7 0.0
1.1005143544069355e7 3.7514463732810267e6 0.0
0.0 0.0 0.0

832135.7486034629 8.562326146290157e6 0.0
8.562326146290157e6 -673361.5160696215 0.0
0.0 0.0 0.0

-2.810211281587624e7 2.8714105876206502e7 0.0
2.8714105876206502e7 -9.555058449071577e6 0.0
0.0 0.0 0.0

769142.1834580803 5.32984077593595e6 0.0
5.32984077593595e6 -4.175215824754846e6 0.0
0.0 0.0 0.0

-2.995937117988281e6 8.237847327280469e6 0.0
8.237847327280469e6 170199.61935418122 0.0
0.0 0.0 0.0

-5.996508281077646e6 9.5288274109676e6 0.0
9.5288274109676e6 2.4641646853746045e6 0.0
0.0 0.0 0.0

132989.39967460162 1.062206885184546e7 0.0
1.062206885184546e7 -5.137539607093629e6 0.0
0.0 0.0 0.0

-2.591361805643091e6 1.09432061669066e7 0.0
1.09432061669066e7 -2.822191906263018e6 0.0
0.0 0.0 0.0

3.4650635029926933e6 1.004271532951993e7 0.0
1.004271532951993e7 -4.838542608760628e6 0.0
0.0 0.0 0.0

-8.835230635471378e6 1.1682177570486864e7 0.0
1.1682177570486864e7 5.845494839178096e6 0.0
0.0 0.0 0.0

-3.2849849559886474e6 1.0515086535116516e7 0.0
1.0515086535116516e7 1.0402659531486107e6 0.0
0.0 0.0 0.0

2.7844721286241715e6 6.5716445795802865e6 0.0
6.5716445795802865e6 -8.83377833689438e6 0.0
0.0 0.0 0.0

-1.2495652324758952e7 1.1828692549442058e7 0.0
1.1828692549442058e7 1.8245252402179167e6 0.0
0.0 0.0 0.0

-4.49651057814765e6 8.962489788535096e6 0.0
8.962489788535096e6 3.0187764074688796e6 0.0
0.0 0.0 0.0

-3.505142081606031e6 1.2909326365823006e7 0.0
1.2909326365823006e7 -1.8557146012178687e6 0.0
0.0 0.0 0.0

-7.02108102401472e6 1.013627009691325e7 0.0
1.013627009691325e7 9.250597998936158e6 0.0
0.0 0.0 0.0

3.0018407640926903e6 1.1977993625082374e7 0.0
1.1977993625082374e7 -6.203954174730278e6 0.0
0.0 0.0 0.0

-4.538953384086687e6 1.0544741500144823e7 0.0
1.0544741500144823e7 3.508390942152468e6 0.0
0.0 0.0 0.0

-2.429822701991148e6 8.816999626893211e6 0.0
8.816999626893211e6 -2.3552641105319713e6 0.0
0.0 0.0 0.0

-1.0420831649544486e6 5.534035191325345e6 0.0
5.534035191325345e6 3.135596883850108e6 0.0
0.0 0.0 0.0

190127.12038364843 1.1542708166662382e7 0.0
1.1542708166662382e7 -4.1106534609561358e6 0.0
0.0 0.0 0.0

-4.466497083497275e6 9.068909697915584e6 0.0
9.068909697915584e6 4.940455772113573e6 0.0
0.0 0.0 0.0

-1.1978589421607524e7 -440807.5480554582 0.0
-440807.5480554582 2.4876678243252687e7 0.0
0.0 0.0 0.0

-1.1703163882787455e7 -6.75757432717409e6 0.0
-6.75757432717409e6 2.5744523481443316e7 0.0
0.0 0.0 0.0

-2.9932793998664753e6 9.481289184144998e6 0.0
9.481289184144998e6 -1.8222573062591515e6 0.0
0.0 0.0 0.0

-132950.3245800198 1.1085477486173501e7 0.0
1.1085477486173501e7 -4.521735179620014e6 0.0
0.0 0.0 0.0

-2.3178761255902066e6 1.1154058003739662e7 0.0
1.1154058003739662e7 -3.1774306432166575e6 0.0
0.0 0.0 0.0

-3.955368185281049e6 1.1018411819166113e7 0.0
1.1018411819166113e7 403817.75689851516 0.0
0.0 0.0 0.0

3.765071612029164e6 8.241576704588409e6 0.0
8.241576704588409e6 -306329.84595630015 0.0
0.0 0.0 0.0

-4.648726992408305e6 9.13472282718858e6 0.0
9.13472282718858e6 4.505952975718017e6 0.0
0.0 0.0 0.0

-1.893366417478059e6 1.1301731639919208e7 0.0
1.1301731639919208e7 -3.5429687433942156e6 0.0
0.0 0.0 0.0

-2.1627646050599916e6 8.33607152215273e6 0.0
8.33607152215273e6 -2.3148872659994876e6 0.0
0.0 0.0 0.0

-737119.108449719 1.5365245632803983e6 0.0
1.5365245632803983e6 413654.8470218165 0.0
0.0 0.0 0.0

751826.4086833112 8.989709421078684e6 0.0
8.989709421078684e6 -7.433466063491811e6 0.0
0.0 0.0 0.0

-4.486570141585026e6 299499.3922155603 0.0
299499.3922155603 5.114228428744129e6 0.0
0.0 0.0 0.0

-1.1102538965752518e6 675288.5454582878 0.0
675288.5454582878 807455.4206460112 0.0
0.0 0.0 0.0

-1.0704363369690585e6 622826.4797096592 0.0
622826.4797096592 843512.2394392901 0.0
0.0 0.0 0.0

-1.684307397811183e6 5.446323913370948e6 0.0
5.446323913370948e6 -133869.86136146786 0.0
0.0 0.0 0.0

-1.1633510792902324e6 9.149484395268483e6 0.0
9.149484395268483e6 -4.26909884356587e6 0.0
0.0 0.0 0.0

1.05441242971816e6 8.892022000362126e6 0.0
8.892022000362126e6 -7.280115028154462e6 0.0
0.0 0.0 0.0

-973859.6118098875 1.1025165094967755e7 0.0
1.1025165094967755e7 -443004.5854392196 0.0
0.0 0.0 0.0

-1.39422268100016e6 1.1970880793547308e7 0.0
1.1970880793547308e7 -3.53198674638386e6 0.0
0.0 0.0 0.0

2.2413871298374115e6 9.786821289387928e6 0.0
9.786821289387928e6 -4.0029285094900676e6 0.0
0.0 0.0 0.0

-4.765557936907194e6 1.036599904284594e7 0.0
1.036599904284594e7 1.234816591691842e6 0.0
0.0 0.0 0.0

8.313156122912144e6 1.2233822867523834e7 0.0
1.2233822867523834e7 68789.88570404565 0.0
0.0 0.0 0.0

-3.7382209935110626e6 6.050978312320517e6 0.0
6.050978312320517e6 9.020908324150113e6 0.0
0.0 0.0 0.0

1.2040528894899064e6 1.0978424199319154e7 0.0
1.0978424199319154e7 -4.413899882617701e6 0.0
0.0 0.0 0.0

-2.8555418885830115e6 1.3234923504248105e7 0.0
1.3234923504248105e7 -1.338690731282687e6 0.0
0.0 0.0 0.0

-6.410687446422644e6 1.1054010176210728e7 0.0
1.1054010176210728e7 3.3154428177577825e6 0.0
0.0 0.0 0.0

-548305.8745508027 1.0188465677756306e7 0.0
1.0188465677756306e7 -4.717569275947665e6 0.0
0.0 0.0 0.0

-5.441178390280852e6 9.693460488134423e6 0.0
9.693460488134423e6 1.1262148484126288e6 0.0
0.0 0.0 0.0

-5.417967592870327e6 1.0863643802040402e7 0.0
1.0863643802040402e7 3.7430149273925945e6 0.0
0.0 0.0 0.0

1.3966634095014369e6 4.78659238286513e6 0.0
4.78659238286513e6 -4.261434294640014e6 0.0
0.0 0.0 0.0

-5.533115613802781e6 1.0416499572279315e7 0.0
1.0416499572279315e7 1.9513979802889798e6 0.0
0.0 0.0 0.0

-1.5239013512534847e7 1.2369125249061977e7 0.0
1.2369125249061977e7 9.95783665231477e6 0.0
0.0 0.0 0.0

-544160.6373856395 6.85612779620704e6 0.0
6.85612779620704e6 -4.522933445733348e6 0.0
0.0 0.0 0.0

376468.1354408737 8.828386018975303e6 0.0
8.828386018975303e6 -5.810818194904015e6 0.0
0.0 0.0 0.0

885300.411217398 8.792083657722231e6 0.0
8.792083657722231e6 -6.953216718509616e6 0.0
0.0 0.0 0.0

896739.2101568705 9.099522279938031e6 0.0
9.099522279938031e6 -7.318673309381813e6 0.0
0.0 0.0 0.0

-6.982487922766255e6 1.6433109902652675e7 0.0
1.6433109902652675e7 1.9763197838523309e6 0.0
0.0 0.0 0.0

-1.4620040757213188e6 1.137012504783643e7 0.0
1.137012504783643e7 -3.955737530314618e6 0.0
0.0 0.0 0.0

-2.089457066345279e6 1.1739558257244445e7 0.0
1.1739558257244445e7 4.797808810592803e6 0.0
0.0 0.0 0.0

-1.2892995080009622e7 2.189807130007058e6 0.0
2.189807130007058e6 6.852945824440891e6 0.0
0.0 0.0 0.0

-2.119917146870303e7 1.4098325923262518e7 0.0
1.4098325923262518e7 6.329089405798454e6 0.0
0.0 0.0 0.0

3.013423227622958e6 7.313318116195256e6 0.0
7.313318116195256e6 -1.0130989792967526e7 0.0
0.0 0.0 0.0

672832.7588374002 1.141093986300806e7 0.0
1.141093986300806e7 -4.334671979406107e6 0.0
0.0 0.0 0.0

-2.584632780744834e6 1.280754734091973e7 0.0
1.280754734091973e7 -2.55800086093782e6 0.0
0.0 0.0 0.0

2.028458389794544e6 4.734141443104452e6 0.0
4.734141443104452e6 -4.483674276202419e6 0.0
0.0 0.0 0.0

-5.4816564301430145e6 1.0740787439841965e7 0.0
1.0740787439841965e7 803647.2120889821 0.0
0.0 0.0 0.0

-2.2743469392639603e6 1.0027190161655612e7 0.0
1.0027190161655612e7 3.1335020961622237e6 0.0
0.0 0.0 0.0

-4.885325244143134e6 7.543382198474563e6 0.0
7.543382198474563e6 9.464151830262419e6 0.0
0.0 0.0 0.0

-46450.80849145763 1.945053413333043e6 0.0
1.945053413333043e6 -488436.9597445259 0.0
0.0 0.0 0.0

12679.006838587811 9.637502024297107e6 0.0
9.637502024297107e6 -5.55070888212512e6 0.0
0.0 0.0 0.0

149630.33605440776 7.17581504189651e6 0.0
7.17581504189651e6 -5.047979166493539e6 0.0
0.0 0.0 0.0

223614.79763534153 5.099588332757774e6 0.0
5.099588332757774e6 -3.2545983815355906e6 0.0
0.0 0.0 0.0

-60219.379181388504 2.444052629297505e6 0.0
2.444052629297505e6 -945827.4546339076 0.0
0.0 0.0 0.0

-9.13473120505016e6 1.307231479575509e7 0.0
1.307231479575509e7 2.8635377407291003e7 0.0
0.0 0.0 0.0

-9.2789668522037e6 -1.0195276795380922e6 0.0
-1.0195276795380922e6 1.2478937015756015e7 0.0
0.0 0.0 0.0

-6.495428379044039e6 1.2763683045299778e7 0.0
1.2763683045299778e7 2.6292242780854343e6 0.0
0.0 0.0 0.0

-2.897632919292023e6 7.9867098124164e6 0.0
7.9867098124164e6 249103.36301658198 0.0
0.0 0.0 0.0

345636.81627115794 9.004195264167167e6 0.0
9.004195264167167e6 -5.600219274319509e6 0.0
0.0 0.0 0.0

-2.5341122479183553e6 1.2185038146300916e7 0.0
1.2185038146300916e7 -1.7926483316028947e6 0.0
0.0 0.0 0.0

-5.688512570210401e6 1.0297946848626237e7 0.0
1.0297946848626237e7 3.771111898461378e6 0.0
0.0 0.0 0.0

-1.030400842904268e7 1.7652127980744537e7 0.0
1.7652127980744537e7 6.8296940499050245e6 0.0
0.0 0.0 0.0

4.059409076150983e6 3.2191239084511595e6 0.0
3.2191239084511595e6 -5.443724937403793e6 0.0
0.0 0.0 0.0

-1.0945210065549754e6 1.3532317900178463e6 0.0
1.3532317900178463e6 113791.96372800338 0.0
0.0 0.0 0.0

-512479.25251525047 1.0649125851878459e7 0.0
1.0649125851878459e7 -789372.7412326542 0.0
0.0 0.0 0.0

-5.575257088381171e6 1.0552078958788635e7 0.0
1.0552078958788635e7 3.717174985754178e6 0.0
0.0 0.0 0.0

-2.881436400820663e6 9.753180464885855e6 0.0
9.753180464885855e6 4.184600315140739e6 0.0
0.0 0.0 0.0

-3.5004459088726696e6 4.452854981085037e6 0.0
4.452854981085037e6 3.720082815851396e6 0.0
0.0 0.0 0.0

168529.05659327097 9.164142360650927e6 0.0
9.164142360650927e6 -5.631334490284623e6 0.0
0.0 0.0 0.0

-5.494042264509173e7 6.572994770986299e6 0.0
6.572994770986299e6 8.906531529283565e6 0.0
0.0 0.0 0.0

-3.687373194821866e6 3.610215587453583e6 0.0
3.610215587453583e6 4.124509029416497e6 0.0
0.0 0.0 0.0

-5.576411839404586e6 1.0751698621061258e7 0.0
1.0751698621061258e7 3.7263654446961973e6 0.0
0.0 0.0 0.0

-259190.5988418674 1.009183643155386e7 0.0
1.009183643155386e7 -5.0523281149785565e6 0.0
0.0 0.0 0.0

574737.3880051035 9.263542886332808e6 0.0
9.263542886332808e6 -7.33804971833863e6 0.0
0.0 0.0 0.0

-1.0137761347529557e7 1.6326279909537455e7 0.0
1.6326279909537455e7 6.765814620052237e6 0.0
0.0 0.0 0.0

419103.3890353255 9.408532335363168e6 0.0
9.408532335363168e6 -7.060183169174164e6 0.0
0.0 0.0 0.0

-936501.6435354347 1.127630017005708e7 0.0
1.127630017005708e7 -4.269155415394144e6 0.0
0.0 0.0 0.0

-332475.3326959811 1.060799443812588e7 0.0
1.060799443812588e7 -687214.2265039881 0.0
0.0 0.0 0.0

-8.705177826951519e6 1.2935230496938253e7 0.0
1.2935230496938253e7 5.169212674718279e6 0.0
0.0 0.0 0.0

-5.529753370056402e6 1.0285885068902483e7 0.0
1.0285885068902483e7 3.445281272338797e6 0.0
0.0 0.0 0.0

-40545.98760256544 9.475444781734271e6 0.0
9.475444781734271e6 -5.38770313143414e6 0.0
0.0 0.0 0.0

-2.370453643958371e6 1.0339051721146964e7 0.0
1.0339051721146964e7 -2.4958341018224587e6 0.0
0.0 0.0 0.0

-5.424842048589579e6 9.736450358006002e6 0.0
9.736450358006002e6 2.7434810286302334e6 0.0
0.0 0.0 0.0

-5.5573967988217035e6 1.0884006979318833e7 0.0
1.0884006979318833e7 3.695514261444533e6 0.0
0.0 0.0 0.0

-2.269057969712224e6 183414.46860809284 0.0
183414.46860809284 2.371603173617462e6 0.0
0.0 0.0 0.0

-4.290688596359591e6 7.953149466866547e6 0.0
7.953149466866547e6 3.8938155960066e6 0.0
0.0 0.0 0.0

305563.91175959073 9.516469413043486e6 0.0
9.516469413043486e6 -6.803698850770916e6 0.0
0.0 0.0 0.0

5.41493803406457e6 9.526358590710629e6 0.0
9.526358590710629e6 -4.470572187627579e6 0.0
0.0 0.0 0.0

76660.79889589571 9.732200784303272e6 0.0
9.732200784303272e6 -5.725688978517674e6 0.0
0.0 0.0 0.0

772717.2107890586 8.87891237468829e6 0.0
8.87891237468829e6 -4.123864037921473e6 0.0
0.0 0.0 0.0

-6.060308321582935e6 2.3040714614803777e6 0.0
2.3040714614803777e6 9.155012183464028e6 0.0
0.0 0.0 0.0

-5.155181113821989e6 8.92301320382094e6 0.0
8.92301320382094e6 2.0135795876673611e6 0.0
0.0 0.0 0.0

607082.5519579784 8.470973813582253e6 0.0
8.470973813582253e6 -4.744560444668322e6 0.0
0.0 0.0 0.0

337224.0602084652 1.066945104879658e7 0.0
1.066945104879658e7 -5.059347027544122e6 0.0
0.0 0.0 0.0

-1.8039802278260995e7 1.283649031626333e7 0.0
1.283649031626333e7 1.1330514098963022e7 0.0
0.0 0.0 0.0

-2.0241277731882676e7 712401.8360868093 0.0
712401.8360868093 9.077747777887799e6 0.0
0.0 0.0 0.0

-7.345467778249798e6 1.3364739000892282e7 0.0
1.3364739000892282e7 2.2649626935076914e6 0.0
0.0 0.0 0.0

-1.6541803468603574e7 1.267931145133996e7 0.0
1.267931145133996e7 1.0839286868863977e7 0.0
0.0 0.0 0.0

-4.66740238795355e6 2.3262772126186028e7 0.0
2.3262772126186028e7 3.447432607319943e6 0.0
0.0 0.0 0.0

496343.9292853144 9.264332728724135e6 0.0
9.264332728724135e6 -7.092545620810608e6 0.0
0.0 0.0 0.0

-1.4293633757716103e6 9.365920683623126e6 0.0
9.365920683623126e6 -6.663976516850108e6 0.0
0.0 0.0 0.0

-4.983525875160097e6 1.0793498816306762e7 0.0
1.0793498816306762e7 3.404753727901722e6 0.0
0.0 0.0 0.0

-5.387754703947281e6 3.3448539585555214e6 0.0
3.3448539585555214e6 5.780127484708007e6 0.0
0.0 0.0 0.0

-4.714724704812388e6 1.0430061060545215e7 0.0
1.0430061060545215e7 1.4734585375597784e6 0.0
0.0 0.0 0.0

-935042.4724794289 7.81737786880794e6 0.0
7.81737786880794e6 468582.4309257089 0.0
0.0 0.0 0.0

-2.467813570534039e6 8.861956517852401e6 0.0
8.861956517852401e6 -1.7307704552098908e6 0.0
0.0 0.0 0.0

-1.049018924947844e7 1.8958818397663683e7 0.0
1.8958818397663683e7 6.539769064760065e6 0.0
0.0 0.0 0.0

-2.760620111411861e6 1.2121331948897742e7 0.0
1.2121331948897742e7 -2.559680483603662e6 0.0
0.0 0.0 0.0

1.210923773749204e6 1.0279235468032649e7 0.0
1.0279235468032649e7 -4.23929677157589e6 0.0
0.0 0.0 0.0

2.839028344595322e6 6.1376431553778555e6 0.0
6.1376431553778555e6 -8.108204081627844e6 0.0
0.0 0.0 0.0

-5.557104621641211e6 1.0470305471269444e7 0.0
1.0470305471269444e7 3.815344445541581e6 0.0
0.0 0.0 0.0

-3.1069743134851754e6 7.536088699865656e6 0.0
7.536088699865656e6 1.0585524803601676e6 0.0
0.0 0.0 0.0

-792468.815843315 7.284237727279931e6 0.0
7.284237727279931e6 -3.535452127068788e6 0.0
0.0 0.0 0.0

715129.3749224939 9.248147497897292e6 0.0
9.248147497897292e6 -7.316918242107268e6 0.0
0.0 0.0 0.0

-2.881967977417494e6 1.0463344650259705e7 0.0
1.0463344650259705e7 2.9464076795149734e6 0.0
0.0 0.0 0.0

-3.8248243176301178e6 9.282427107895238e6 0.0
9.282427107895238e6 5.5303418767580055e6 0.0
0.0 0.0 0.0

-715968.7531376889 9.984689916032365e6 0.0
9.984689916032365e6 -1.5405010736045677e6 0.0
0.0 0.0 0.0

-1.8482718543203129e6 1.3124618072029078e7 0.0
1.3124618072029078e7 -2.279193163142775e6 0.0
0.0 0.0 0.0

-5.418722913184743e6 1.0373308637997523e7 0.0
1.0373308637997523e7 3.871413647453436e6 0.0
0.0 0.0 0.0

-1.036972809833778e7 -2.9114315908660833e6 0.0
-2.9114315908660833e6 1.7539730899450526e7 0.0
0.0 0.0 0.0

-1.6987113335576593e6 5.486769719071526e6 0.0
5.486769719071526e6 -217196.16021009284 0.0
0.0 0.0 0.0

-397320.6137112988 1.0247245399657913e7 0.0
1.0247245399657913e7 -1.3156920063178309e6 0.0
0.0 0.0 0.0

-5.478552536786804e6 1.0844704158671847e7 0.0
1.0844704158671847e7 3.542646461031831e6 0.0
0.0 0.0 0.0

-4.724518072894123e6 9.228136326236304e6 0.0
9.228136326236304e6 3.7826897060568435e6 0.0
0.0 0.0 0.0

843.6672626344953 8.004066986916604e6 0.0
8.004066986916604e6 -4.675861082512796e6 0.0
0.0 0.0 0.0

-6.0731006220488055e6 1.062278824484886e7 0.0
1.062278824484886e7 3.5266046893252046e6 0.0
0.0 0.0 0.0

-9.317042968136068e6 1.3745054452956336e7 0.0
1.3745054452956336e7 5.563749648262314e6 0.0
0.0 0.0 0.0

-4.333373582980615e6 8.762413749347448e6 0.0
8.762413749347448e6 2.2131558421571488e6 0.0
0.0 0.0 0.0

-78509.92677183705 9.062459198596802e6 0.0
9.062459198596802e6 -5.156089914309726e6 0.0
0.0 0.0 0.0

-6.373311935476604e6 1.087149598054927e7 0.0
1.087149598054927e7 3.0244918988693855e6 0.0
0.0 0.0 0.0

-3.776827532551173e6 1.2595495458670212e7 0.0
1.2595495458670212e7 -1.5921070708454745e6 0.0
0.0 0.0 0.0

-4.177306438816404e6 1.0227065964742288e7 0.0
1.0227065964742288e7 5.588575358278394e6 0.0
0.0 0.0 0.0

-4.412720244771477e6 8.723679489405558e6 0.0
8.723679489405558e6 2.4076963211250976e6 0.0
0.0 0.0 0.0

-6.203431778041155e6 1.0687434745197115e7 0.0
1.0687434745197115e7 4.1284981868498316e6 0.0
0.0 0.0 0.0

-5.897024642649997e6 -1.257382289900291e6 0.0
-1.257382289900291e6 7.940156926172299e6 0.0
0.0 0.0 0.0

-8.92038144980915e6 1.3303580284606723e7 0.0
1.3303580284606723e7 5.43942762968928e6 0.0
0.0 0.0 0.0

2.8601716756259818e6 6.1151848077849075e6 0.0
6.1151848077849075e6 -8.023478588287307e6 0.0
0.0 0.0 0.0

-5.537032924401916e6 1.0965390704268783e7 0.0
1.0965390704268783e7 1.2834123971694158e6 0.0
0.0 0.0 0.0

-4.075645772221545e6 -407876.4246930471 0.0
-407876.4246930471 5.5959394261514805e6 0.0
0.0 0.0 0.0

363347.0241116702 7.869726750010683e6 0.0
7.869726750010683e6 -4.36236956884668e6 0.0
0.0 0.0 0.0

-4.536743148893619e6 1.0287740416289026e7 0.0
1.0287740416289026e7 2.134363645719615e6 0.0
0.0 0.0 0.0

-1.2100141407834964e6 1.1246104423211375e7 0.0
1.1246104423211375e7 -443864.32867524 0.0
0.0 0.0 0.0

-1.890666248168759e6 1.1400239539342573e7 0.0
1.1400239539342573e7 242969.1059103494 0.0
0.0 0.0 0.0

287104.99186696624 9.993260898220696e6 0.0
9.993260898220696e6 -5.953961125426449e6 0.0
0.0 0.0 0.0

-6.888359122482979e6 3.734887193088121e6 0.0
3.734887193088121e6 8.419531102414103e6 0.0
0.0 0.0 0.0

-1.8597594344932775e6 7.979543255479961e6 0.0
7.979543255479961e6 1.9755631306660848e6 0.0
0.0 0.0 0.0

1.168156058681768e6 7.223700104152064e6 0.0
7.223700104152064e6 -5.981862375960997e6 0.0
0.0 0.0 0.0

-2.748617386908901e6 1.0744820492286658e7 0.0
1.0744820492286658e7 4.664970094551418e6 0.0
0.0 0.0 0.0

-261748.5488347737 1.0930093880083594e7 0.0
1.0930093880083594e7 -8.912206989345908e6 0.0
0.0 0.0 0.0

-4.230133850127377e6 8.706550280318925e6 0.0
8.706550280318925e6 2.8835052779052127e6 0.0
0.0 0.0 0.0

-6.426274808747812e6 1.0787903263433283e7 0.0
1.0787903263433283e7 3.431702373864996e6 0.0
0.0 0.0 0.0

-3.925449548765992e6 8.363379961744105e6 0.0
8.363379961744105e6 1.1783353349146696e6 0.0
0.0 0.0 0.0

-2.3671055659617046e6 1.09413864029622e7 0.0
1.09413864029622e7 -2.0714554016838875e6 0.0
0.0 0.0 0.0

70625.08583334205 1.1238086632887864e7 0.0
1.1238086632887864e7 -4.24488722188999e6 0.0
0.0 0.0 0.0

-5.290111647297292e6 1.0657498655014269e7 0.0
1.0657498655014269e7 3.7289309289204758e6 0.0
0.0 0.0 0.0

-3.4397733445860236e6 1.0289753182006344e7 0.0
1.0289753182006344e7 3.391345397772911e6 0.0
0.0 0.0 0.0

-4.454399230918996e6 9.171466386808239e6 0.0
9.171466386808239e6 5.335336122071236e6 0.0
0.0 0.0 0.0

-330143.0272924951 9.102726915952895e6 0.0
9.102726915952895e6 -6.344225217832366e6 0.0
0.0 0.0 0.0

-916665.2686643325 9.082904361800725e6 0.0
9.082904361800725e6 -4.553980313619407e6 0.0
0.0 0.0 0.0

-2.361424693829752e6 1.0583079694171008e7 0.0
1.0583079694171008e7 2.4498948263004096e6 0.0
0.0 0.0 0.0

1.728502565396503e6 8.044199916131129e6 0.0
8.044199916131129e6 -8.241331737423589e6 0.0
0.0 0.0 0.0

-2.1459082803494213e6 1.0253811453837398e7 0.0
1.0253811453837398e7 -236200.34664229013 0.0
0.0 0.0 0.0

-9.710409754922267e6 1.4257426526185255e7 0.0
1.4257426526185255e7 5.914311951170765e6 0.0
0.0 0.0 0.0

-2.0878829540136708e6 1.0366955068532074e7 0.0
1.0366955068532074e7 3.211985691327735e6 0.0
0.0 0.0 0.0

5.867434025704882e6 1.6177313934143068e7 0.0
1.6177313934143068e7 1.9558091956764158e7 0.0
0.0 0.0 0.0

-2.831186528131755e6 1.156734392657715e7 0.0
1.156734392657715e7 -9.437283824102957e6 0.0
0.0 0.0 0.0

-3.285381989885586e6 7.419021793549899e6 0.0
7.419021793549899e6 482035.79747992125 0.0
0.0 0.0 0.0

-1.6397623592313293e7 9.186050190522514e6 0.0
9.186050190522514e6 1.1224240620726917e7 0.0
0.0 0.0 0.0

-4.726238350564158e6 1.001297533555659e7 0.0
1.001297533555659e7 784518.466001211 0.0
0.0 0.0 0.0

-2.0134700368285293e6 1.0788473969966229e7 0.0
1.0788473969966229e7 1.8530698741813893e6 0.0
0.0 0.0 0.0

-2.9466176262879996e6 1.0493000319421614e7 0.0
1.0493000319421614e7 4.324183222797413e6 0.0
0.0 0.0 0.0

-2.3214998031795914e6 1.3504077304998059e7 0.0
1.3504077304998059e7 9.031534408174992e6 0.0
0.0 0.0 0.0

1.206350206066722e6 8.238264422675501e6 0.0
8.238264422675501e6 1.0274235560773802e6 0.0
0.0 0.0 0.0

-1.1532757259765223e6 1.1190446764097936e7 0.0
1.1190446764097936e7 2.871943008203691e6 0.0
0.0 0.0 0.0

-3.1200879436024968e6 1.3174154058036137e7 0.0
1.3174154058036137e7 -2.2129806531890277e6 0.0
0.0 0.0 0.0

-1.2845983739565578e6 1.0332944213486077e7 0.0
1.0332944213486077e7 1.470586190776697e6 0.0
0.0 0.0 0.0

-2.344307119406094e6 1.0470123805623677e7 0.0
1.0470123805623677e7 2.5480157402136666e6 0.0
0.0 0.0 0.0

-7.4391259677517e6 1.3508889524762291e7 0.0
1.3508889524762291e7 3.6486413101089243e6 0.0
0.0 0.0 0.0

-2.8834646656107577e6 8.752302063719524e6 0.0
8.752302063719524e6 3.1158723626866024e6 0.0
0.0 0.0 0.0

1.804456624304255e6 5.257879174404983e6 0.0
5.257879174404983e6 -6.1002384207171e6 0.0
0.0 0.0 0.0

-3.36326758280335e6 6.524172966199429e6 0.0
6.524172966199429e6 2.412105973966333e6 0.0
0.0 0.0 0.0

-3.339363161716217e6 -47106.65060936528 0.0
-47106.65060936528 3.8378229328824864e6 0.0
0.0 0.0 0.0

-4.0604196635029903e6 9.728259003571441e6 0.0
9.728259003571441e6 4.0085075064276033e6 0.0
0.0 0.0 0.0

-6.552341090072552e6 1.1524965515535247e7 0.0
1.1524965515535247e7 3.1847815304077375e6 0.0
0.0 0.0 0.0

138139.39947747323 1.2583610794721933e7 0.0
1.2583610794721933e7 5.440839311221742e6 0.0
0.0 0.0 0.0

-1.2928396498930552e6 1.0457214957560007e7 0.0
1.0457214957560007e7 2.169957159017654e6 0.0
0.0 0.0 0.0

-6.20551270236343e6 1.0644324050092073e7 0.0
1.0644324050092073e7 4.219311857282599e6 0.0
0.0 0.0 0.0

3.6028669921102156e6 5.164468054557929e6 0.0
5.164468054557929e6 -5.475538813463462e6 0.0
0.0 0.0 0.0

-5.769531661723002e6 1.0920169997609671e7 0.0
1.0920169997609671e7 1.7771831107019922e6 0.0
0.0 0.0 0.0

493334.88197501283 7.603444067310157e6 0.0
7.603444067310157e6 -5.083311297396666e6 0.0
0.0 0.0 0.0

-5.729075786077978e6 1.072418893520844e7 0.0
1.072418893520844e7 3.2252110911721387e6 0.0
0.0 0.0 0.0

-4.403486863412684e6 1.3837830420139754e7 0.0
1.3837830420139754e7 -1.1980899233662733e6 0.0
0.0 0.0 0.0

-3.6116517753103054e6 1.0787555304800821e7 0.0
1.0787555304800821e7 767087.834264724 0.0
0.0 0.0 0.0

3.4131289140443522e6 6.042844536557114e6 0.0
6.042844536557114e6 -1.0072187858801296e7 0.0
0.0 0.0 0.0

2.3055941824559364e6 9.150604871212607e6 0.0
9.150604871212607e6 -3.076838192403825e6 0.0
0.0 0.0 0.0

-5.587057639656385e6 1.2067154102552954e7 0.0
1.2067154102552954e7 1.7550344787736451e6 0.0
0.0 0.0 0.0

-3.999984055928371e6 1.1347097460929744e7 0.0
1.1347097460929744e7 -282475.0323184461 0.0
0.0 0.0 0.0

305680.7015558139 9.428073176995944e6 0.0
9.428073176995944e6 -5.72701295091149e6 0.0
0.0 0.0 0.0

911225.5501047284 5.806085177665428e6 0.0
5.806085177665428e6 -5.569368729099325e6 0.0
0.0 0.0 0.0

-4.888612936850857e6 9.10338774122977e6 0.0
9.10338774122977e6 2.6071029349597413e6 0.0
0.0 0.0 0.0

753220.0402985965 8.824340177286888e6 0.0
8.824340177286888e6 -7.384972834346861e6 0.0
0.0 0.0 0.0

-4.88605755214599e6 -1.1179860125554898e6 0.0
-1.1179860125554898e6 4.242779277922065e6 0.0
0.0 0.0 0.0

-4.328146018858479e6 8.27354186398552e6 0.0
8.27354186398552e6 3.7285826656745314e6 0.0
0.0 0.0 0.0

-6.590224132927937e6 9.65360231848878e6 0.0
9.65360231848878e6 2.2703715506577725e6 0.0
0.0 0.0 0.0

3.731762674498746e6 8.052217748599929e6 0.0
8.052217748599929e6 -1.1719539508382391e7 0.0
0.0 0.0 0.0

-9.524434387349233e6 7.3650175619664e6 0.0
7.3650175619664e6 1.1127381034396205e7 0.0
0.0 0.0 0.0

-2.3513035129079483e6 1.0138366886893142e7 0.0
1.0138366886893142e7 3.2758557356489394e6 0.0
0.0 0.0 0.0

-6.725112041641984e6 9.600284014890965e6 0.0
9.600284014890965e6 7.59230851569836e6 0.0
0.0 0.0 0.0

-3.171457937647063e6 8.0012163926167e6 0.0
8.0012163926167e6 612083.1084553138 0.0
0.0 0.0 0.0

-4.304744755276177e6 8.487739327983981e6 0.0
8.487739327983981e6 2.536264124780112e6 0.0
0.0 0.0 0.0

421294.2754450515 9.246148807434589e6 0.0
9.246148807434589e6 -5.431432640093867e6 0.0
0.0 0.0 0.0

-664127.2734236033 9.006891280540595e6 0.0
9.006891280540595e6 -4.874181485565442e6 0.0
0.0 0.0 0.0

2.1769297345018033e6 8.069344485042542e6 0.0
8.069344485042542e6 -9.274278523833632e6 0.0
0.0 0.0 0.0

-3.132742376615256e6 -115303.08804189465 0.0
-115303.08804189465 4.0433324319773894e6 0.0
0.0 0.0 0.0

-3.7437508917651996e6 -6.630981649011133e6 0.0
-6.630981649011133e6 9.047139011866825e6 0.0
0.0 0.0 0.0

-3.6019052674109507e6 1.0615233939771177e7 0.0
1.0615233939771177e7 990476.6601876109 0.0
0.0 0.0 0.0

-2.110905532120344e6 1.1155952282125289e7 0.0
1.1155952282125289e7 -2.485979711827868e6 0.0
0.0 0.0 0.0

-6.015206258705313e6 1.0510512115760822e7 0.0
1.0510512115760822e7 9.815039494598817e6 0.0
0.0 0.0 0.0

527292.4179659989 9.010093022792736e6 0.0
9.010093022792736e6 -4.997021761661762e6 0.0
0.0 0.0 0.0

-2.0319434268759075e6 1.2917639636158451e7 0.0
1.2917639636158451e7 -2.914440587225906e6 0.0
0.0 0.0 0.0

-5.5783794189908e6 9.795155127833799e6 0.0
9.795155127833799e6 3.452126843994242e6 0.0
0.0 0.0 0.0

-1.1428058662017253e6 1.4592209806201495e6 0.0
1.4592209806201495e6 683596.7494300585 0.0
0.0 0.0 0.0

-8.451156358626451e6 2.0831632981869645e7 0.0
2.0831632981869645e7 4.948825353360502e6 0.0
0.0 0.0 0.0

346865.8553935257 1.0508018858916007e7 0.0
1.0508018858916007e7 -4.761893177364812e6 0.0
0.0 0.0 0.0

123145.50138863828 9.952534878144938e6 0.0
9.952534878144938e6 -8.759904457176609e6 0.0
0.0 0.0 0.0

2.468307747097206e6 5.982386037259713e6 0.0
5.982386037259713e6 -7.5995828521641735e6 0.0
0.0 0.0 0.0

-668531.4486403472 1.0431138633071017e7 0.0
1.0431138633071017e7 -1.0563459296393176e6 0.0
0.0 0.0 0.0

-4.235773046074983e6 7.5834007070738e6 0.0
7.5834007070738e6 4.1199100114824697e6 0.0
0.0 0.0 0.0

-1.192060523254755e7 1.5289397985243646e6 0.0
1.5289397985243646e6 8.62442129010984e6 0.0
0.0 0.0 0.0

-3.2499198147168206e6 1.1699184780283153e7 0.0
1.1699184780283153e7 1.4465428418249576e6 0.0
0.0 0.0 0.0

-1.2206197923047524e6 1.0641837609761767e7 0.0
1.0641837609761767e7 2.071097527723379e6 0.0
0.0 0.0 0.0

81545.57304161577 9.211018876401056e6 0.0
9.211018876401056e6 -5.919176182197462e6 0.0
0.0 0.0 0.0

-959490.1069229807 2.4067627731282497e6 0.0
2.4067627731282497e6 755051.200600246 0.0
0.0 0.0 0.0

-3.1421104826837643e6 9.510382112482848e6 0.0
9.510382112482848e6 -1.4442094141273163e6 0.0
0.0 0.0 0.0

-841134.2630275929 1.0835182833544549e7 0.0
1.0835182833544549e7 -299204.3447072711 0.0
0.0 0.0 0.0

-1.5325324021740067e6 1.0735546814729545e7 0.0
1.0735546814729545e7 1.630937567913209e6 0.0
0.0 0.0 0.0

-1.620287388248046e6 9.80905407837754e6 0.0
9.80905407837754e6 -3.8450598886364037e6 0.0
0.0 0.0 0.0

-3.1612572882140977e6 9.815097304371314e6 0.0
9.815097304371314e6 4.249162652125256e6 0.0
0.0 0.0 0.0

742258.5487634792 7.999348856386123e6 0.0
7.999348856386123e6 -2.870740478050921e6 0.0
0.0 0.0 0.0

-1.70950025973346e6 1.1307866628091868e7 0.0
1.1307866628091868e7 -2.930321944189415e6 0.0
0.0 0.0 0.0

1.9034906616842598e6 9.965043995858038e6 0.0
9.965043995858038e6 -3.7572625556081543e6 0.0
0.0 0.0 0.0

443012.24327820214 8.679984005443169e6 0.0
8.679984005443169e6 -6.6187978133894475e6 0.0
0.0 0.0 0.0

-4.544818861105619e6 9.380790457185088e6 0.0
9.380790457185088e6 4.2117920908740945e6 0.0
0.0 0.0 0.0

-1.9716544302522396e6 8.02150457158048e6 0.0
8.02150457158048e6 -1.783911220145534e6 0.0
0.0 0.0 0.0

-2.1116956649242155e7 8.2038757250953e6 0.0
8.2038757250953e6 1.0367852693236394e7 0.0
0.0 0.0 0.0

-6.04791015868157e6 1.2231119505694304e7 0.0
1.2231119505694304e7 1.2429130717497762e7 0.0
0.0 0.0 0.0

2.915765933392186e6 6.118865972877009e6 0.0
6.118865972877009e6 -8.319419691549845e6 0.0
0.0 0.0 0.0

-2.2245771535293707e6 -5.284096776431718e6 0.0
-5.284096776431718e6 7.314353788442286e6 0.0
0.0 0.0 0.0

589493.3922245633 9.497093825562572e6 0.0
9.497093825562572e6 -8.498979792171925e6 0.0
0.0 0.0 0.0

553605.8515417553 9.403905129290033e6 0.0
9.403905129290033e6 -7.050836550772356e6 0.0
0.0 0.0 0.0

-1.409549327809041e6 1.122288029098754e7 0.0
1.122288029098754e7 -101657.55211990548 0.0
0.0 0.0 0.0

-1.056104835986245e7 9.895081147192288e6 0.0
9.895081147192288e6 5.420425493759951e6 0.0
0.0 0.0 0.0

-5.022254296305902e6 8.533710080625981e6 0.0
8.533710080625981e6 5.815472539658889e6 0.0
0.0 0.0 0.0

-1.2948826038264823e6 1.1382592125622457e7 0.0
1.1382592125622457e7 -3.397800019389341e6 0.0
0.0 0.0 0.0

-8.476411924446601e6 -8.891776753211083e6 0.0
-8.891776753211083e6 1.952084032504482e7 0.0
0.0 0.0 0.0

-4.180043402020543e6 6.631081231942378e6 0.0
6.631081231942378e6 4.190208514853953e6 0.0
0.0 0.0 0.0

3.959408486121729e6 7.356951888638203e6 0.0
7.356951888638203e6 -1.1769672582237186e7 0.0
0.0 0.0 0.0

-6.701515408401983e6 1.102817821769881e7 0.0
1.102817821769881e7 3.7467076787294014e6 0.0
0.0 0.0 0.0

3.854161229938591e6 6.52314793024691e6 0.0
6.52314793024691e6 -1.1186553045462774e7 0.0
0.0 0.0 0.0

-2.0281266783316735e7 1.1969083057334809e7 0.0
1.1969083057334809e7 1.2033540215557124e7 0.0
0.0 0.0 0.0

-9.255984590185419e6 -8.690800984228363e6 0.0
-8.690800984228363e6 2.159953756568598e7 0.0
0.0 0.0 0.0

762680.3500912399 8.7463462170275e6 0.0
8.7463462170275e6 -6.545959176169442e6 0.0
0.0 0.0 0.0

-5.862699647480288e6 1.0167772509318361e7 0.0
1.0167772509318361e7 2.344258932487914e6 0.0
0.0 0.0 0.0

-1.77065167374829e7 8.715422222882276e6 0.0
8.715422222882276e6 2.6808857072517304e6 0.0
0.0 0.0 0.0

3.971820489374212e6 6.94614727213226e6 0.0
6.94614727213226e6 -1.1679058220904686e7 0.0
0.0 0.0 0.0

-4.846958915203027e6 9.05287440629668e6 0.0
9.05287440629668e6 2.1537322211378673e6 0.0
0.0 0.0 0.0

-4.8963267952317465e6 9.605831973538475e6 0.0
9.605831973538475e6 4.062041065150382e6 0.0
0.0 0.0 0.0

-646279.9868710011 9.414446662606688e6 0.0
9.414446662606688e6 5.929693301604909e6 0.0
0.0 0.0 0.0

204627.29021507688 9.611821692291087e6 0.0
9.611821692291087e6 -6.476135290903132e6 0.0
0.0 0.0 0.0

370016.9007453099 9.531029133439923e6 0.0
9.531029133439923e6 -6.82155459118053e6 0.0
0.0 0.0 0.0

-4.37924788924818e6 1.1125753893397346e7 0.0
1.1125753893397346e7 -640006.5200401321 0.0
0.0 0.0 0.0

-7.044775550082856e6 1.1207973928323463e7 0.0
1.1207973928323463e7 4.022259687983862e6 0.0
0.0 0.0 0.0

-6.437140817007706e6 3.130006846747354e6 0.0
3.130006846747354e6 9.517990198575683e6 0.0
0.0 0.0 0.0

3.645231596492998e6 6.241060931751844e6 0.0
6.241060931751844e6 -1.054727239866945e7 0.0
0.0 0.0 0.0

-9.995327713561773e6 1.0693524628907312e7 0.0
1.0693524628907312e7 6.988743681937359e6 0.0
0.0 0.0 0.0

541681.2180579419 5.698069877218489e6 0.0
5.698069877218489e6 -4.437795085353442e6 0.0
0.0 0.0 0.0

324840.092909195 9.846207489021955e6 0.0
9.846207489021955e6 -5.978761248709277e6 0.0
0.0 0.0 0.0

3.703398331993991e6 6.4480137033899035e6 0.0
6.4480137033899035e6 -1.0667307549563814e7 0.0
0.0 0.0 0.0

274159.01581622986 9.615581313870685e6 0.0
9.615581313870685e6 -6.605557996776469e6 0.0
0.0 0.0 0.0

-1.0294561553452156e7 1.6029962316046762e6 0.0
1.6029962316046762e6 1.2272112843448628e7 0.0
0.0 0.0 0.0

-162050.82948720013 740266.0828337934 0.0
740266.0828337934 -2.2425291239177277e6 0.0
0.0 0.0 0.0

-2.954852016646193e6 6.896807372828407e6 0.0
6.896807372828407e6 301307.5913294231 0.0
0.0 0.0 0.0

-1.9634550588029725e6 1.064575792544933e7 0.0
1.064575792544933e7 3.6246203929690234e6 0.0
0.0 0.0 0.0

2.886111554484197e6 5.860388002412811e6 0.0
5.860388002412811e6 -8.755810861928789e6 0.0
0.0 0.0 0.0

-5.018246559922873e6 1.0609216677534787e7 0.0
1.0609216677534787e7 3.5899681389607694e6 0.0
0.0 0.0 0.0

-3.46727286929109e6 220072.57815598632 0.0
220072.57815598632 4.514693919390194e6 0.0
0.0 0.0 0.0

682713.6664329683 8.552041415763063e6 0.0
8.552041415763063e6 -3.226496220668798e6 0.0
0.0 0.0 0.0

227101.1244432591 8.803804293918628e6 0.0
8.803804293918628e6 -6.3138358158426145e6 0.0
0.0 0.0 0.0

-3.411068273566095e6 1.0092312543648154e7 0.0
1.0092312543648154e7 3.566695796609832e6 0.0
0.0 0.0 0.0

-4.404986442889907e6 1.1148186655456135e7 0.0
1.1148186655456135e7 5.924562590569379e6 0.0
0.0 0.0 0.0

-734010.408971922 1.0382016239729665e7 0.0
1.0382016239729665e7 -1.2324401515598893e6 0.0
0.0 0.0 0.0

-3.8784800488879625e6 1.0989261698242348e7 0.0
1.0989261698242348e7 -441733.52180481516 0.0
0.0 0.0 0.0

-5.783563772054778e6 9.887796564781973e6 0.0
9.887796564781973e6 3.427078506290745e6 0.0
0.0 0.0 0.0

-989464.7247971017 1.0814977933891367e7 0.0
1.0814977933891367e7 -469614.0878272926 0.0
0.0 0.0 0.0

3.524827822788053e6 5.205270644987404e6 0.0
5.205270644987404e6 -1.0562475455061472e6 0.0
0.0 0.0 0.0

-7.188956289346469e6 -8.657804270514559e6 0.0
-8.657804270514559e6 1.6918201458509084e7 0.0
0.0 0.0 0.0

-117012.43500161998 8.286813973310072e6 0.0
8.286813973310072e6 2.705324183451106e6 0.0
0.0 0.0 0.0

-5.567074854060303e6 -6.754730470638545e6 0.0
-6.754730470638545e6 1.124259538363591e7 0.0
0.0 0.0 0.0

-913449.9533088707 1.107907892291859e7 0.0
1.107907892291859e7 -476693.44781048584 0.0
0.0 0.0 0.0

-1.5317228229869664e7 3.8279574367156657e6 0.0
3.8279574367156657e6 2.0029389642067295e7 0.0
0.0 0.0 0.0

-2.781603208468162e6 7.098926865535564e6 0.0
7.098926865535564e6 844024.779774298 0.0
0.0 0.0 0.0

2.27292269845476e6 761044.4466094846 0.0
761044.4466094846 -3.358814027301428e6 0.0
0.0 0.0 0.0

2.3523147038885625e6 939798.944211551 0.0
939798.944211551 -3.05131447689748e6 0.0
0.0 0.0 0.0

-1.3914309156447104e6 1.1177429996085132e7 0.0
1.1177429996085132e7 -3.3570999174268404e6 0.0
0.0 0.0 0.0

-3.3907958384862714e6 1.0986575830178367e7 0.0
1.0986575830178367e7 306285.3978357583 0.0
0.0 0.0 0.0

-766332.8891256049 1.1476576916282522e7 0.0
1.1476576916282522e7 -3.773321467420289e6 0.0
0.0 0.0 0.0

-7.930713933695217e6 2.736609296976632e6 0.0
2.736609296976632e6 8.868780445235841e6 0.0
0.0 0.0 0.0

217312.64774172264 9.562750144336756e6 0.0
9.562750144336756e6 -5.987991261096738e6 0.0
0.0 0.0 0.0

639983.349091013 8.723483717857013e6 0.0
8.723483717857013e6 -6.990252891193816e6 0.0
0.0 0.0 0.0

-4.791297788032224e6 1.070099996844275e7 0.0
1.070099996844275e7 3.3849630619333237e6 0.0
0.0 0.0 0.0

1277.2793819115032 8.719433769943055e6 0.0
8.719433769943055e6 -5.873114037866822e6 0.0
0.0 0.0 0.0

-3.508567963076332e7 1.0330655994484996e7 0.0
1.0330655994484996e7 8.724728654796684e6 0.0
0.0 0.0 0.0

-1.2900493049218978e6 9.731588078816447e6 0.0
9.731588078816447e6 -4.232115117940697e6 0.0
0.0 0.0 0.0

-1.0255949221136328e7 1.246204970286663e7 0.0
1.246204970286663e7 6.3896034732203055e6 0.0
0.0 0.0 0.0

-236691.59132031645 7.757009925501159e6 0.0
7.757009925501159e6 -740680.2827898063 0.0
0.0 0.0 0.0

-4.278712070767651e6 9.278034100634359e6 0.0
9.278034100634359e6 4.627035160701081e6 0.0
0.0 0.0 0.0

-3.054025164106447e6 1.0163943182870913e7 0.0
1.0163943182870913e7 1.3001424185264877e6 0.0
0.0 0.0 0.0

-6.615641617054166e6 1.7505273356389396e7 0.0
1.7505273356389396e7 894259.4430218404 0.0
0.0 0.0 0.0

-1.7829361716757705e6 -2.868254384087267e6 0.0
-2.868254384087267e6 6.074787069204379e6 0.0
0.0 0.0 0.0

2.9211888720736625e6 6.083102716686612e6 0.0
6.083102716686612e6 -8.55098408718108e6 0.0
0.0 0.0 0.0

-4.303255077694216e6 1.0481705891241945e7 0.0
1.0481705891241945e7 286586.77447988256 0.0
0.0 0.0 0.0

-406678.1958588225 2.785241223613807e6 0.0
2.785241223613807e6 -1.0884019331120152e6 0.0
0.0 0.0 0.0

3.266950423617073e6 5.925734050793047e6 0.0
5.925734050793047e6 -9.720506563600421e6 0.0
0.0 0.0 0.0

-6.347569015471481e6 -8.682321742734192e6 0.0
-8.682321742734192e6 1.5607738281800568e7 0.0
0.0 0.0 0.0

-2.042713713100777e6 769296.2563795613 0.0
769296.2563795613 2.0214273854461364e6 0.0
0.0 0.0 0.0

259914.73014621367 8.527362755111214e6 0.0
8.527362755111214e6 -4.64560828352458e6 0.0
0.0 0.0 0.0

-1.3193862953950418e6 -3.7964358756560353e6 0.0
-3.7964358756560353e6 6.433988804614404e6 0.0
0.0 0.0 0.0

2.893475946444219e6 6.023166481380097e6 0.0
6.023166481380097e6 -8.63406930355322e6 0.0
0.0 0.0 0.0

3.1054852339374004e6 5.896300202230688e6 0.0
5.896300202230688e6 -9.409798030893898e6 0.0
0.0 0.0 0.0

-5.636036447823232e6 -8.580334608841855e6 0.0
-8.580334608841855e6 1.459736926951938e7 0.0
0.0 0.0 0.0

-2.9198695591388564e6 8.810535027536452e6 0.0
8.810535027536452e6 270759.575347192 0.0
0.0 0.0 0.0

-1.4048003239577308e6 1.0898952240178114e7 0.0
1.0898952240178114e7 -3.419307654504563e6 0.0
0.0 0.0 0.0

-5.752622738808932e6 1.0069221400033358e7 0.0
1.0069221400033358e7 3.718839361369902e6 0.0
0.0 0.0 0.0

2.986053454966471e6 5.877808407649001e6 0.0
5.877808407649001e6 -9.243512802164394e6 0.0
0.0 0.0 0.0

-5.960011585786416e6 -8.061394588537504e6 0.0
-8.061394588537504e6 1.3665484202696212e7 0.0
0.0 0.0 0.0

531645.5813074191 8.718198100118354e6 0.0
8.718198100118354e6 -4.3805874154179115e6 0.0
0.0 0.0 0.0

164510.1839446039 8.953578540183287e6 0.0
8.953578540183287e6 -5.513402717350404e6 0.0
0.0 0.0 0.0

-5.035468287194456e6 1.0445340747770095e7 0.0
1.0445340747770095e7 1.497105916061717e6 0.0
0.0 0.0 0.0

-3.2939736392257805e6 8.0397421296710335e6 0.0
8.0397421296710335e6 187321.53997253487 0.0
0.0 0.0 0.0

-5.222521747831723e6 9.164078635868723e6 0.0
9.164078635868723e6 6.0843349991090465e6 0.0
0.0 0.0 0.0

-6.421986295132002e6 -7.1938433861008305e6 0.0
-7.1938433861008305e6 1.2532693935200278e7 0.0
0.0 0.0 0.0

2.9302607429839605e6 5.823165855983647e6 0.0
5.823165855983647e6 -8.98370083805097e6 0.0
0.0 0.0 0.0

-6.164535017479436e6 1.3371475630239323e7 0.0
1.3371475630239323e7 735804.2054533996 0.0
0.0 0.0 0.0

-6.250646423714574e6 1.1719382249244988e7 0.0
1.1719382249244988e7 1.1716760120108176e7 0.0
0.0 0.0 0.0

1.027402300052831e7 2.491422927190596e7 0.0
2.491422927190596e7 -2.8738503457279567e7 0.0
0.0 0.0 0.0

-596622.5581165232 6.24272927079071e6 0.0
6.24272927079071e6 -3.3335282415520675e6 0.0
0.0 0.0 0.0

-6.489618838280704e6 1.0890385805322096e7 0.0
1.0890385805322096e7 3.8377305840947577e6 0.0
0.0 0.0 0.0

-724163.0456835583 3.5696490676860246e6 0.0
3.5696490676860246e6 -1.1162362645559302e6 0.0
0.0 0.0 0.0

-5.778993870164057e6 1.018604876561568e7 0.0
1.018604876561568e7 3.708889665728391e6 0.0
0.0 0.0 0.0

4.2604156044982e6 3.9979046919490676e6 0.0
3.9979046919490676e6 -6.991412168590072e6 0.0
0.0 0.0 0.0

-2.0697602983660137e6 1.4264975680244206e7 0.0
1.4264975680244206e7 -3.1823045077179004e6 0.0
0.0 0.0 0.0

-3.0218145260771676e6 1.2382169301617114e7 0.0
1.2382169301617114e7 -1.261043407355384e6 0.0
0.0 0.0 0.0

-3.4817058414458483e6 7.451252429836447e6 0.0
7.451252429836447e6 1.7623694809498521e6 0.0
0.0 0.0 0.0

-927293.5010939705 1.1192573015912175e7 0.0
1.1192573015912175e7 -529604.8625035582 0.0
0.0 0.0 0.0

-9.571379969628809e6 -7.569724863118935e6 0.0
-7.569724863118935e6 2.500342441898322e7 0.0
0.0 0.0 0.0

1.9948830997854553e6 1.1673465787768636e6 0.0
1.1673465787768636e6 -4.920770736514184e6 0.0
0.0 0.0 0.0

-2.048264315158689e6 211193.78193785623 0.0
211193.78193785623 1.8039005888935e6 0.0
0.0 0.0 0.0

-751309.4797548892 -1.4729857241087868e6 0.0
-1.4729857241087868e6 159937.12651855603 0.0
0.0 0.0 0.0

-2.775329452780896e6 1.2686001434813807e7 0.0
1.2686001434813807e7 -1.5091209937842274e6 0.0
0.0 0.0 0.0

368220.3251272822 9.86690818342153e6 0.0
9.86690818342153e6 -8.626394184756126e6 0.0
0.0 0.0 0.0

-2.771561393628904e6 1.1241288967021093e7 0.0
1.1241288967021093e7 4.185111694633918e6 0.0
0.0 0.0 0.0

-1.0502729156682882e6 9.859263630618904e6 0.0
9.859263630618904e6 -730825.4131923777 0.0
0.0 0.0 0.0

980425.2444777412 4.834194150477147e6 0.0
4.834194150477147e6 -4.744626363267741e6 0.0
0.0 0.0 0.0

-708355.8348559823 7.57154993504657e6 0.0
7.57154993504657e6 -4.427809755892687e6 0.0
0.0 0.0 0.0

53181.45099413069 1.0860757537423195e7 0.0
1.0860757537423195e7 -4.843882010858255e6 0.0
0.0 0.0 0.0

582709.4724577726 9.31770758061751e6 0.0
9.31770758061751e6 -7.747501316883188e6 0.0
0.0 0.0 0.0

-5.427406890110938e6 1.088776935504377e7 0.0
1.088776935504377e7 1.763863962974565e6 0.0
0.0 0.0 0.0

-3.9136541169666164e6 9.672636982058812e6 0.0
9.672636982058812e6 4.5433262546477085e6 0.0
0.0 0.0 0.0

21552.364157224772 8.012661215481425e6 0.0
8.012661215481425e6 -4.21967800502846e6 0.0
0.0 0.0 0.0

325872.18935478746 8.347935294005729e6 0.0
8.347935294005729e6 -2.1022543507453585e6 0.0
0.0 0.0 0.0

-432806.84773097 9.035787072037838e6 0.0
9.035787072037838e6 -6.571908377116972e6 0.0
0.0 0.0 0.0

-1.4152485050863136e7 7.064035207209278e6 0.0
7.064035207209278e6 8.905256591508234e6 0.0
0.0 0.0 0.0

-8.187398115851644e6 1.8289960403983828e7 0.0
1.8289960403983828e7 3.1180361553166257e6 0.0
0.0 0.0 0.0

693178.8878329505 628619.8829857338 0.0
628619.8829857338 -1.9612369857901526e6 0.0
0.0 0.0 0.0

488447.2484331636 525670.380704492 0.0
525670.380704492 -1.884868410253351e6 0.0
0.0 0.0 0.0

-3.951856216517274e6 9.965371939732352e6 0.0
9.965371939732352e6 3.823907656643221e6 0.0
0.0 0.0 0.0

-4.3218707717391895e6 9.916723430819428e6 0.0
9.916723430819428e6 190000.79732663953 0.0
0.0 0.0 0.0

-6.947207583968941e6 1.1244582122239966e7 0.0
1.1244582122239966e7 4.34280642669428e6 0.0
0.0 0.0 0.0

-5.85894584502694e6 1.029328579746338e7 0.0
1.029328579746338e7 3.708940852567871e6 0.0
0.0 0.0 0.0

2.466394919392509e6 8.279285066811677e6 0.0
8.279285066811677e6 374801.40129011066 0.0
0.0 0.0 0.0

1.4025493891600238e6 1.0736509132516695e7 0.0
1.0736509132516695e7 -4.460798556344892e6 0.0
0.0 0.0 0.0

-6.298364027691591e6 1.2168828658272376e7 0.0
1.2168828658272376e7 1.16196235900745e7 0.0
0.0 0.0 0.0

-1.6080382683629576e7 1.1510150381584287e7 0.0
1.1510150381584287e7 3.9451996164480746e6 0.0
0.0 0.0 0.0

-4.2179972101093635e7 1.4765664731801571e7 0.0
1.4765664731801571e7 2.322296445122271e7 0.0
0.0 0.0 0.0

-3.109107614422214e6 7.583386568041975e6 0.0
7.583386568041975e6 1.1080581983148605e6 0.0
0.0 0.0 0.0

-2.529240826666238e6 1.0735340536907664e7 0.0
1.0735340536907664e7 2.4076073548338637e6 0.0
0.0 0.0 0.0

458183.8756009226 5.817501909415046e6 0.0
5.817501909415046e6 -4.932362837669335e6 0.0
0.0 0.0 0.0

-3.7789266849947684e6 6.954008926804663e6 0.0
6.954008926804663e6 3.7408230288061993e6 0.0
0.0 0.0 0.0

123327.2806703471 2.3230742946409406e6 0.0
2.3230742946409406e6 -811039.6401245933 0.0
0.0 0.0 0.0

-1.4431203189737315e6 8.629758035102936e6 0.0
8.629758035102936e6 4.202442505693983e6 0.0
0.0 0.0 0.0

655830.915272654 9.288342546981907e6 0.0
9.288342546981907e6 -7.870608470864624e6 0.0
0.0 0.0 0.0

1.667491596551824e6 5.977513927418709e6 0.0
5.977513927418709e6 -6.179531355234944e6 0.0
0.0 0.0 0.0

1.9771454844899122e6 8.195067596134823e6 0.0
8.195067596134823e6 -956110.8552497245 0.0
0.0 0.0 0.0

-1.0288705517887952e7 -1.5862037885189394e6 0.0
-1.5862037885189394e6 3.934014053854911e7 0.0
0.0 0.0 0.0

-6.579212471530091e6 1.091152934884901e7 0.0
1.091152934884901e7 4.394229741171256e6 0.0
0.0 0.0 0.0

-6.316871343287215e6 9.629385503309276e6 0.0
9.629385503309276e6 1.4270216963387788e6 0.0
0.0 0.0 0.0

-2.7795662281841827e6 1.1870365463022888e7 0.0
1.1870365463022888e7 -1.6878891276212423e6 0.0
0.0 0.0 0.0

-1.9786473978400428e6 760088.3397447309 0.0
760088.3397447309 1.9776985074252638e6 0.0
0.0 0.0 0.0

-893207.9935763301 7.445405740715406e6 0.0
7.445405740715406e6 -339322.07349634863 0.0
0.0 0.0 0.0

-3.221297716534866e6 -336437.0408736627 0.0
-336437.0408736627 4.54077546345935e6 0.0
0.0 0.0 0.0

1.8448351510116307e6 8.778074141111987e6 0.0
8.778074141111987e6 -1.522710720885601e6 0.0
0.0 0.0 0.0

-3.781031204442276e6 8.710748613375464e6 0.0
8.710748613375464e6 1.3521797004878102e6 0.0
0.0 0.0 0.0

2.151956821382665e6 5.8897729357398255e6 0.0
5.8897729357398255e6 -7.0315405430215355e6 0.0
0.0 0.0 0.0

-3.6883995450304155e6 9.260736124627983e6 0.0
9.260736124627983e6 897307.1092376979 0.0
0.0 0.0 0.0

762353.6902615263 4.686553332212854e6 0.0
4.686553332212854e6 -4.044199257419801e6 0.0
0.0 0.0 0.0

-559946.1339319791 9.893012761403713e6 0.0
9.893012761403713e6 -5.370007859713098e6 0.0
0.0 0.0 0.0

-9.913113422575718e6 1.1452755091580812e7 0.0
1.1452755091580812e7 7.052096105176631e6 0.0
0.0 0.0 0.0

-469018.28573580406 6.295021312125325e6 0.0
6.295021312125325e6 -3.0376892494249744e6 0.0
0.0 0.0 0.0

-4.0519501306165173e6 1.1019072391276266e7 0.0
1.1019072391276266e7 -1.0391776295399854e6 0.0
0.0 0.0 0.0

-8.3403550956677925e6 1.1569942424678095e7 0.0
1.1569942424678095e7 5.504706125112336e6 0.0
0.0 0.0 0.0

-5.6800312950958535e6 1.00340401154895e7 0.0
1.00340401154895e7 3.7789138418994644e6 0.0
0.0 0.0 0.0

-5.896918372912502e6 1.0089554603534888e7 0.0
1.0089554603534888e7 3.3729090060575567e6 0.0
0.0 0.0 0.0

-8.590246577323908e6 1.2437931394391257e7 0.0
1.2437931394391257e7 4.942459044031787e6 0.0
0.0 0.0 0.0

-3.0912264577955552e6 1.0805467848912422e7 0.0
1.0805467848912422e7 -1.3062829763014852e6 0.0
0.0 0.0 0.0

-1.0818173865701865e7 1.2410482175745603e7 0.0
1.2410482175745603e7 7.155165254755883e6 0.0
0.0 0.0 0.0

-2.0753828911884078e6 6.754505670203701e6 0.0
6.754505670203701e6 148769.13335194055 0.0
0.0 0.0 0.0

-1.1347188183420033e6 7.444100755668111e6 0.0
7.444100755668111e6 -3.6941681813143846e6 0.0
0.0 0.0 0.0

-1.3416274559795812e6 2.1142905422766446e6 0.0
2.1142905422766446e6 173267.8884853226 0.0
0.0 0.0 0.0

-5.236608409135953e6 1.000411299279076e7 0.0
1.000411299279076e7 2.8021166700312607e6 0.0
0.0 0.0 0.0

-9.096299419769503e6 -4.351969269704906e6 0.0
-4.351969269704906e6 1.2673551364785383e7 0.0
0.0 0.0 0.0

-6.761755468226943e6 1.3414527704377644e7 0.0
1.3414527704377644e7 1.457551119792643e6 0.0
0.0 0.0 0.0

-178135.71734845568 9.789994705541348e6 0.0
9.789994705541348e6 -5.216144811024016e6 0.0
0.0 0.0 0.0

-862721.1245352015 8.3881327543973e6 0.0
8.3881327543973e6 354190.30252744886 0.0
0.0 0.0 0.0

-2.1009546338636368e6 8.042988060644559e6 0.0
8.042988060644559e6 -2.223305169081946e6 0.0
0.0 0.0 0.0

887474.8489279915 9.037292868951997e6 0.0
9.037292868951997e6 -6.989475491311176e6 0.0
0.0 0.0 0.0

3.7493953174982374e6 5.047609185450192e6 0.0
5.047609185450192e6 -6.456238125542215e6 0.0
0.0 0.0 0.0

-2.381117913998502e6 1.2934591770476473e7 0.0
1.2934591770476473e7 -1.8399497925289785e6 0.0
0.0 0.0 0.0

-696322.8722666337 1.0920539355811883e7 0.0
1.0920539355811883e7 -120966.881151422 0.0
0.0 0.0 0.0

-3.021131380388152e6 8.0043007683470175e6 0.0
8.0043007683470175e6 -177000.25839355274 0.0
0.0 0.0 0.0

3.5177420801781644e6 6.08929408579525e6 0.0
6.08929408579525e6 -1.0264218440520499e7 0.0
0.0 0.0 0.0

-1.2736856470998602e6 4.114423652705906e6 0.0
4.114423652705906e6 603010.401487845 0.0
0.0 0.0 0.0

3.1412628772144886e6 6.625499261942347e6 0.0
6.625499261942347e6 -1.0313984777609402e7 0.0
0.0 0.0 0.0

-135625.92061361557 1.7672335220312472e6 0.0
1.7672335220312472e6 -986150.7512865498 0.0
0.0 0.0 0.0

-3.920740700935173e6 8.661177274173591e6 0.0
8.661177274173591e6 789489.3875064331 0.0
0.0 0.0 0.0

-700916.6473022886 1.0980148814132502e7 0.0
1.0980148814132502e7 -329171.49214584695 0.0
0.0 0.0 0.0

-225394.0319323389 8.30496301377643e6 0.0
8.30496301377643e6 -817352.2928368953 0.0
0.0 0.0 0.0

-3.0363977287626388e6 7.536861436325411e6 0.0
7.536861436325411e6 1.3920225209808757e6 0.0
0.0 0.0 0.0

-1.23728198161192e6 543444.5707723073 0.0
543444.5707723073 1.0993778048081745e6 0.0
0.0 0.0 0.0

-3.4312382587772505e6 1.3518019537239054e7 0.0
1.3518019537239054e7 -705116.4013463082 0.0
0.0 0.0 0.0

-4.955161341861897e6 9.562923078007111e6 0.0
9.562923078007111e6 6.362499507448158e6 0.0
0.0 0.0 0.0

734802.0237441952 7.2448797212921735e6 0.0
7.2448797212921735e6 -5.77521053894753e6 0.0
0.0 0.0 0.0

-1.9292769823927672e6 132208.18396156616 0.0
132208.18396156616 3.5806930795897273e6 0.0
0.0 0.0 0.0

-2.0902319805350958e6 8.469930581133083e6 0.0
8.469930581133083e6 2.8630872266582735e6 0.0
0.0 0.0 0.0

-8.488632243055057e6 8.293105416844387e6 0.0
8.293105416844387e6 1.3522688380455168e7 0.0
0.0 0.0 0.0

-1.2601088417684634e6 8.3813862613195e6 0.0
8.3813862613195e6 3.260094091886081e6 0.0
0.0 0.0 0.0

530488.3017233587 9.641434048963595e6 0.0
9.641434048963595e6 -8.610767656431807e6 0.0
0.0 0.0 0.0

-3.697187121505977e6 9.544851331032198e6 0.0
9.544851331032198e6 4.67253748319699e6 0.0
0.0 0.0 0.0

-1.585517743526891e6 1.0096650549153712e7 0.0
1.0096650549153712e7 2.2436529630105607e6 0.0
0.0 0.0 0.0

-1.2168218250834201e6 1.152270054447645e7 0.0
1.152270054447645e7 -3.4561325339185833e6 0.0
0.0 0.0 0.0

-1.7106369133574734e6 1.132330188089091e7 0.0
1.132330188089091e7 -215351.43513090716 0.0
0.0 0.0 0.0

1.9419462595364912e6 7.512147207835598e6 0.0
7.512147207835598e6 -8.808932987093447e6 0.0
0.0 0.0 0.0

2.2148399080943856e6 7.351991626272206e6 0.0
7.351991626272206e6 -9.164383254521687e6 0.0
0.0 0.0 0.0

-1.7782576746808845e6 7.968501986319306e6 0.0
7.968501986319306e6 -2.108691073463467e6 0.0
0.0 0.0 0.0

-6.054112461297005e6 6.447157890569779e6 0.0
6.447157890569779e6 8.734357228112644e6 0.0
0.0 0.0 0.0

-1.910389408893928e6 1.1026418917555476e7 0.0
1.1026418917555476e7 -3.5902825064978274e6 0.0
0.0 0.0 0.0

-1.1217282033228377e7 -3.863542765217903e6 0.0
-3.863542765217903e6 2.3323713991997883e7 0.0
0.0 0.0 0.0

93123.59008893557 5.565463674768185e6 0.0
5.565463674768185e6 -4.875387226429913e6 0.0
0.0 0.0 0.0

-6.695965214436717e6 9.336648416251888e6 0.0
9.336648416251888e6 3.7457210507882155e7 0.0
0.0 0.0 0.0

3.37342463109747e6 6.0713928743448565e6 0.0
6.0713928743448565e6 -9.957847444183245e6 0.0
0.0 0.0 0.0

-3.43800071452966e6 1.1403104937111657e7 0.0
1.1403104937111657e7 -1.0851931200021133e6 0.0
0.0 0.0 0.0

-2.4660595684334664e6 8.546205947346233e6 0.0
8.546205947346233e6 3.7340711877853735e6 0.0
0.0 0.0 0.0

-35235.18466655072 9.758501282894915e6 0.0
9.758501282894915e6 -8.096443461613026e6 0.0
0.0 0.0 0.0

-1.8670846012217046e6 6.015332544174712e6 0.0
6.015332544174712e6 3.12595984138889e6 0.0
0.0 0.0 0.0

-1.3528874820705014e6 1.0933733639024151e7 0.0
1.0933733639024151e7 -607658.8918981729 0.0
0.0 0.0 0.0

-3.1544416450623814e6 8.809982945341054e6 0.0
8.809982945341054e6 3.8716080623022597e6 0.0
0.0 0.0 0.0

-5.0101418218990825e6 9.467742198219832e6 0.0
9.467742198219832e6 3.37331843857456e6 0.0
0.0 0.0 0.0

-3.000164409282228e6 1.0601411776622456e7 0.0
1.0601411776622456e7 2.718232933892078e6 0.0
0.0 0.0 0.0

-909920.9103434621 7.360239677984249e6 0.0
7.360239677984249e6 -3.651459299092879e6 0.0
0.0 0.0 0.0

-6.333248995623227e6 4.955467353263591e6 0.0
4.955467353263591e6 6.893274503580074e6 0.0
0.0 0.0 0.0

712071.7849593204 9.44432776208743e6 0.0
9.44432776208743e6 -8.417464681907441e6 0.0
0.0 0.0 0.0

-1.2375312583284369e6 1.027455577504256e7 0.0
1.027455577504256e7 -368622.4718594815 0.0
0.0 0.0 0.0

-3.063208604993219e6 1.106902601515739e7 0.0
1.106902601515739e7 1.569595318546585e6 0.0
0.0 0.0 0.0

-515008.0945913901 6.323827967074694e6 0.0
6.323827967074694e6 -3.3271559807584514e6 0.0
0.0 0.0 0.0

-1.4643642562424123e7 698033.9496476784 0.0
698033.9496476784 3.670899582028929e7 0.0
0.0 0.0 0.0

127501.79425783455 1.0098952230592608e7 0.0
1.0098952230592608e7 -8.653928524199646e6 0.0
0.0 0.0 0.0

-4.184503718062123e6 9.198944802485906e6 0.0
9.198944802485906e6 6.242620087107647e6 0.0
0.0 0.0 0.0

-7.296195936639231e6 1.1430769833081637e7 0.0
1.1430769833081637e7 4.197025255599857e6 0.0
0.0 0.0 0.0

396955.89288608544 1.0939182832587218e7 0.0
1.0939182832587218e7 4.813278488215934e6 0.0
0.0 0.0 0.0

-5.921202313100821e6 1.0275054603390913e7 0.0
1.0275054603390913e7 9.119808928356323e6 0.0
0.0 0.0 0.0

-4.410865644306719e6 9.667659398398459e6 0.0
9.667659398398459e6 4.628544636787211e6 0.0
0.0 0.0 0.0

-1.405991248989569e6 7.896333714983022e6 0.0
7.896333714983022e6 -3.5085778808136573e6 0.0
0.0 0.0 0.0

-1.784454514874617e6 9.813879189241333e6 0.0
9.813879189241333e6 -492916.00515498535 0.0
0.0 0.0 0.0

-3.9798695190579016e6 8.178441235657097e6 0.0
8.178441235657097e6 2.165750647021648e6 0.0
0.0 0.0 0.0

-3.533063154884956e6 7.7145715622373875e6 0.0
7.7145715622373875e6 2.235901482578206e6 0.0
0.0 0.0 0.0

1.4118366376621868e6 5.607120086999644e6 0.0
5.607120086999644e6 -6.272369209983757e6 0.0
0.0 0.0 0.0

-5.298758628748133e6 1.0688369059717499e7 0.0
1.0688369059717499e7 3.7046585622843034e6 0.0
0.0 0.0 0.0

-123921.03501704615 7.244040045279634e6 0.0
7.244040045279634e6 -3.8756389229247076e6 0.0
0.0 0.0 0.0

582684.9685150122 5.08913425186342e6 0.0
5.08913425186342e6 -4.33201965353349e6 0.0
0.0 0.0 0.0

-6.553635999136025e6 1.2561350224024937e7 0.0
1.2561350224024937e7 1.5623104574965634e6 0.0
0.0 0.0 0.0

-3.713795073684738e6 8.979261082647664e6 0.0
8.979261082647664e6 4.995031530243723e6 0.0
0.0 0.0 0.0

-9.702948180250335e6 -4.5471285291243205e6 0.0
-4.5471285291243205e6 1.6848861367451526e7 0.0
0.0 0.0 0.0

255142.87106782477 9.042906336640358e6 0.0
9.042906336640358e6 1.9897272836028347e6 0.0
0.0 0.0 0.0

1.0320576190819092e6 8.723944679264646e6 0.0
8.723944679264646e6 128436.73615728528 0.0
0.0 0.0 0.0

-59452.72368217306 1.0618283927861439e7 0.0
1.0618283927861439e7 -5.125627431374649e6 0.0
0.0 0.0 0.0

2.6799751770998775e6 6.061010330137484e6 0.0
6.061010330137484e6 -8.3884264439364085e6 0.0
0.0 0.0 0.0

-328184.7577654963 9.989780500672951e6 0.0
9.989780500672951e6 213784.0871210202 0.0
0.0 0.0 0.0

-266638.3209826478 1.0899226489901798e7 0.0
1.0899226489901798e7 -4.844193599416375e6 0.0
0.0 0.0 0.0

-1.4966808912276456e6 8.24326362312006e6 0.0
8.24326362312006e6 1.050240153308299e6 0.0
0.0 0.0 0.0

-1.3029542270648768e6 5.688850764362425e6 0.0
5.688850764362425e6 -121938.69016107672 0.0
0.0 0.0 0.0

92510.27645636734 2.386116134349521e6 0.0
2.386116134349521e6 -903766.453915193 0.0
0.0 0.0 0.0

-2.754142512795519e6 1.092879145608102e7 0.0
1.092879145608102e7 672537.2355389491 0.0
0.0 0.0 0.0

397780.43870285014 9.217659215284556e6 0.0
9.217659215284556e6 -6.065176319643725e6 0.0
0.0 0.0 0.0

8625.741161452373 9.344501466998378e6 0.0
9.344501466998378e6 -6.193883905354988e6 0.0
0.0 0.0 0.0

-1.350253936443307e7 -3.4494597756536338e6 0.0
-3.4494597756536338e6 3.596776250099148e7 0.0
0.0 0.0 0.0

-1.1443106760501102e7 1.2312092352512756e7 0.0
1.2312092352512756e7 7.468199527596152e6 0.0
0.0 0.0 0.0

846161.790792891 2.873075281142289e6 0.0
2.873075281142289e6 -3.504901074782262e6 0.0
0.0 0.0 0.0

-836491.6399728543 1.1107537503436709e7 0.0
1.1107537503436709e7 -485861.37614591955 0.0
0.0 0.0 0.0

-2.524844719177939e6 8.744216179500306e6 0.0
8.744216179500306e6 2.495575413395806e6 0.0
0.0 0.0 0.0

-5.3680005691794325e6 6.278590516769216e6 0.0
6.278590516769216e6 7.504547904099709e6 0.0
0.0 0.0 0.0

-4.880104449829847e6 9.95689224380478e6 0.0
9.95689224380478e6 1.8226907877739207e6 0.0
0.0 0.0 0.0

53886.968114542775 8.668896439044701e6 0.0
8.668896439044701e6 1.2005710010163046e6 0.0
0.0 0.0 0.0

-1.9826279787283544e6 8.749340453814065e6 0.0
8.749340453814065e6 2.298174019196879e6 0.0
0.0 0.0 0.0

-658726.6220859009 1.0427278290725518e7 0.0
1.0427278290725518e7 -4.596959268770658e6 0.0
0.0 0.0 0.0

3.2087947430079863e6 4.227564342501059e6 0.0
4.227564342501059e6 -6.394432051375691e6 0.0
0.0 0.0 0.0

202488.16285105795 1.040185873510798e7 0.0
1.040185873510798e7 -5.414056973156491e6 0.0
0.0 0.0 0.0

-3.280714528736848e6 1.0775187457340842e7 0.0
1.0775187457340842e7 -1.9295373076718715e6 0.0
0.0 0.0 0.0

-5.243496430263211e6 9.609371254574992e6 0.0
9.609371254574992e6 3.2150877434398397e6 0.0
0.0 0.0 0.0

-1.6116168141084532e6 1.2007958293349864e7 0.0
1.2007958293349864e7 -2.8955057566835377e6 0.0
0.0 0.0 0.0

-1.5912811436951226e6 1.171956974622989e7 0.0
1.171956974622989e7 -3.2530979445623653e6 0.0
0.0 0.0 0.0

2.464907431325345e6 6.190493793638625e6 0.0
6.190493793638625e6 -7.693114907196442e6 0.0
0.0 0.0 0.0

274262.30066970596 8.46070241974227e6 0.0
8.46070241974227e6 -187591.12510641044 0.0
0.0 0.0 0.0

-3.6936740169099215e6 1.0872547579148335e7 0.0
1.0872547579148335e7 -1.3651917578003544e6 0.0
0.0 0.0 0.0

-3.067639565851819e6 5.862896739973451e6 0.0
5.862896739973451e6 1.8807956200270792e6 0.0
0.0 0.0 0.0

-2.3744150485108644e7 1.5013395153410545e7 0.0
1.5013395153410545e7 5.561921387324168e6 0.0
0.0 0.0 0.0

1.1520795865178954e7 2.0739343189217817e7 0.0
2.0739343189217817e7 3.840279798210406e7 0.0
0.0 0.0 0.0

-3.4621597177721234e6 1.2737090858895278e7 0.0
1.2737090858895278e7 -1.154055524527093e7 0.0
0.0 0.0 0.0

-3.954064066507479e6 9.463339378143396e6 0.0
9.463339378143396e6 4.890959475233524e6 0.0
0.0 0.0 0.0

-407050.49334875843 8.904194795175565e6 0.0
8.904194795175565e6 -5.193511771169866e6 0.0
0.0 0.0 0.0

-2.935191417513373e6 9.813267510953335e6 0.0
9.813267510953335e6 602448.8878135129 0.0
0.0 0.0 0.0

-1.0551991601164322e7 1.5254453868911006e7 0.0
1.5254453868911006e7 5.137121881115744e6 0.0
0.0 0.0 0.0

220300.04151878133 9.73358333077667e6 0.0
9.73358333077667e6 -6.328150506398707e6 0.0
0.0 0.0 0.0

-2.432569777014024e6 1.152484513480292e7 0.0
1.152484513480292e7 682227.5317153675 0.0
0.0 0.0 0.0

-3.912096842997834e6 6.235012222489982e6 0.0
6.235012222489982e6 2.936513127865736e6 0.0
0.0 0.0 0.0

-4.795316671397369e6 9.966608546999259e6 0.0
9.966608546999259e6 1.6389794729322826e6 0.0
0.0 0.0 0.0

514858.30854377383 9.355191253913617e6 0.0
9.355191253913617e6 -7.5259902571617e6 0.0
0.0 0.0 0.0

-1.3857263920545704e6 1.1090259421745194e7 0.0
1.1090259421745194e7 -647.9996130904765 0.0
0.0 0.0 0.0

-5.071256506998991e6 9.54453849543566e6 0.0
9.54453849543566e6 3.473705516846873e6 0.0
0.0 0.0 0.0

3.535882449123395e6 1.1446151922087915e7 0.0
1.1446151922087915e7 -5.27825119403427e6 0.0
0.0 0.0 0.0

-250232.73082263515 7.946402961881205e6 0.0
7.946402961881205e6 -50176.42809199961 0.0
0.0 0.0 0.0

-4.347998267268964e6 9.375224422385324e6 0.0
9.375224422385324e6 4.874263100233646e6 0.0
0.0 0.0 0.0

-7.258434844032561e6 9.295747326500405e6 0.0
9.295747326500405e6 873776.615292564 0.0
0.0 0.0 0.0

-811352.9816302324 8.13525341893418e6 0.0
8.13525341893418e6 -177045.6341283277 0.0
0.0 0.0 0.0

-6.745880389543684e6 1.2998318266016949e7 0.0
1.2998318266016949e7 1.7199198708829996e6 0.0
0.0 0.0 0.0

-1.2974844565903791e6 1.406467690266626e7 0.0
1.406467690266626e7 -2.8840142301113983e6 0.0
0.0 0.0 0.0

-721185.2534456458 7.5129143948793085e6 0.0
7.5129143948793085e6 -3.791306352627893e6 0.0
0.0 0.0 0.0

-4.71837764951968e6 8.517949416158957e6 0.0
8.517949416158957e6 6.853592456677571e6 0.0
0.0 0.0 0.0

-559198.7511903758 1.042338964053015e7 0.0
1.042338964053015e7 -5.219730794113266e6 0.0
0.0 0.0 0.0

-2.7923549095085557e6 7.1604402009118255e6 0.0
7.1604402009118255e6 747309.9758421815 0.0
0.0 0.0 0.0

-4.212956976826605e6 7.752468217323912e6 0.0
7.752468217323912e6 2.653612455938445e6 0.0
0.0 0.0 0.0

2.0196996085413345e6 4.905769060258545e6 0.0
4.905769060258545e6 -4.6864533236892335e6 0.0
0.0 0.0 0.0

-654835.9452054759 1.0506320269283319e7 0.0
1.0506320269283319e7 162250.87112295866 0.0
0.0 0.0 0.0

-3.7555073719016463e6 1.3532323021902189e7 0.0
1.3532323021902189e7 -1.7914578991381465e6 0.0
0.0 0.0 0.0

2.178766522064195e6 9.03645019537758e6 0.0
9.03645019537758e6 -1.0464414518794095e7 0.0
0.0 0.0 0.0

-2.7818297551263194e6 5.953258063032196e6 0.0
5.953258063032196e6 1.4192544877200546e6 0.0
0.0 0.0 0.0

-5.892005686726281e6 1.815498022279175e7 0.0
1.815498022279175e7 -858730.2884042886 0.0
0.0 0.0 0.0

2.4146644143603267e6 7.310495517617853e6 0.0
7.310495517617853e6 -8.510255397892218e6 0.0
0.0 0.0 0.0

-639814.295941568 1.05504354450435e7 0.0
1.05504354450435e7 -71536.09258524634 0.0
0.0 0.0 0.0

-3.260674576377817e6 1.2355995671285821e7 0.0
1.2355995671285821e7 -2.0584419479985647e6 0.0
0.0 0.0 0.0

-2.433704782681212e6 1.5101806600400517e7 0.0
1.5101806600400517e7 7.431860187630922e7 0.0
0.0 0.0 0.0

1.7188694936827542e6 1.2481045027387217e7 0.0
1.2481045027387217e7 -1.790951812487647e7 0.0
0.0 0.0 0.0

3.9901111493096966e6 1.0996819347455863e7 0.0
1.0996819347455863e7 3.432729525323849e6 0.0
0.0 0.0 0.0

-233120.99595072703 1.3813113090512922e7 0.0
1.3813113090512922e7 -4.0801799967110497e6 0.0
0.0 0.0 0.0

-234637.15279360744 6.15203187297987e6 0.0
6.15203187297987e6 -3.1887082807635656e6 0.0
0.0 0.0 0.0

-2.409706869197251e6 1.737229865215363e7 0.0
1.737229865215363e7 -2.515109290036751e6 0.0
0.0 0.0 0.0

-2.243091423989744e6 1.0323526983982008e7 0.0
1.0323526983982008e7 2.7508631101823635e6 0.0
0.0 0.0 0.0

3.269493816662778e6 1.1122532866947476e7 0.0
1.1122532866947476e7 -4.879962599359958e6 0.0
0.0 0.0 0.0

-5.442302386928566e6 9.727236767054986e6 0.0
9.727236767054986e6 3.4318130649575363e6 0.0
0.0 0.0 0.0

-3.215373141927802e6 7.848832925311858e6 0.0
7.848832925311858e6 1.4588924374477812e6 0.0
0.0 0.0 0.0

2.3835159147484507e6 1.6831040749741525e6 0.0
1.6831040749741525e6 -4.282361569348235e6 0.0
0.0 0.0 0.0

-4.681610548488482e6 9.46098041242336e6 0.0
9.46098041242336e6 6.701225474058924e6 0.0
0.0 0.0 0.0

-4.967466566664118e6 1.1050739722570619e7 0.0
1.1050739722570619e7 692755.1125795662 0.0
0.0 0.0 0.0

-4.045352215166558e6 9.387135613292888e6 0.0
9.387135613292888e6 5.329709323695164e6 0.0
0.0 0.0 0.0

-4.949701104992802e6 1.0964765875508437e7 0.0
1.0964765875508437e7 3.3983874637237396e6 0.0
0.0 0.0 0.0

-5.227208673429189e6 9.704685419842012e6 0.0
9.704685419842012e6 3.4217107245643307e6 0.0
0.0 0.0 0.0

-162877.5967805346 8.190424934074748e6 0.0
8.190424934074748e6 -4.89409925002879e6 0.0
0.0 0.0 0.0

-4.912385086989626e6 9.414915671563368e6 0.0
9.414915671563368e6 6.896978563805907e6 0.0
0.0 0.0 0.0

-5.521735391054534e6 1.0140034208087113e7 0.0
1.0140034208087113e7 3.9139019201174467e6 0.0
0.0 0.0 0.0

-1.914648628080338e6 5.912934616074981e6 0.0
5.912934616074981e6 83821.5467386127 0.0
0.0 0.0 0.0

-1.785951250267426e7 7.500402598468734e6 0.0
7.500402598468734e6 7.981766745726596e6 0.0
0.0 0.0 0.0

-1.1009475154482992e7 -1.8594029941673053e6 0.0
-1.8594029941673053e6 1.9067552631623756e7 0.0
0.0 0.0 0.0

-5.1639199996236265e6 1.0905613931111032e7 0.0
1.0905613931111032e7 3.1551611095306952e6 0.0
0.0 0.0 0.0

-8.071821522227598e6 1.0690969526186662e7 0.0
1.0690969526186662e7 5.21268280143066e6 0.0
0.0 0.0 0.0

657259.5486723376 9.338555431886977e6 0.0
9.338555431886977e6 -7.056789807239709e6 0.0
0.0 0.0 0.0

-9.508180409721786e6 1.2021219104503384e7 0.0
1.2021219104503384e7 5.971699415619653e6 0.0
0.0 0.0 0.0

-1.2568810841980917e7 1.2418911801026126e7 0.0
1.2418911801026126e7 7.95604418049054e6 0.0
0.0 0.0 0.0

-1.4235036001757909e7 1.233856587836696e7 0.0
1.233856587836696e7 8.900997657945713e6 0.0
0.0 0.0 0.0

-5.977821828092344e6 1.0891709684170524e7 0.0
1.0891709684170524e7 2.244097181324888e6 0.0
0.0 0.0 0.0

-6.014783174982691e6 3.4889641369779953e6 0.0
3.4889641369779953e6 8.649743498933781e6 0.0
0.0 0.0 0.0

2.336220335985753e6 5.750286008999616e6 0.0
5.750286008999616e6 -7.096503112876553e6 0.0
0.0 0.0 0.0

-3.9821396992156543e6 9.386995995620096e6 0.0
9.386995995620096e6 4.95641890149703e6 0.0
0.0 0.0 0.0

-7.270730531541705e6 1.2933916334462797e7 0.0
1.2933916334462797e7 2.3771531789494287e6 0.0
0.0 0.0 0.0

-326574.2437387996 9.73841974705923e6 0.0
9.73841974705923e6 -5.705151546714591e6 0.0
0.0 0.0 0.0

-4.616430830809686e6 -2.8667668592122383e6 0.0
-2.8667668592122383e6 6.797213229209864e6 0.0
0.0 0.0 0.0

-368671.2943794095 1.084345110275921e7 0.0
1.084345110275921e7 -686452.25562986 0.0
0.0 0.0 0.0

-531084.7303828417 1.1161393991610086e7 0.0
1.1161393991610086e7 -4.576568927547948e6 0.0
0.0 0.0 0.0

88179.95209854445 1.0364560627662068e7 0.0
1.0364560627662068e7 -5.366729562531395e6 0.0
0.0 0.0 0.0

-200753.26045019017 8.630670731890181e6 0.0
8.630670731890181e6 -5.904504589485187e6 0.0
0.0 0.0 0.0

-111223.43702849688 2.186629575016827e6 0.0
2.186629575016827e6 -957794.678603633 0.0
0.0 0.0 0.0

871218.0861893129 8.323740765714561e6 0.0
8.323740765714561e6 -3.685093408346502e6 0.0
0.0 0.0 0.0

886795.4833502589 8.07330515198316e6 0.0
8.07330515198316e6 -321868.88606617536 0.0
0.0 0.0 0.0

5.361830627391504e6 8.306790357577019e6 0.0
8.306790357577019e6 -2.6769508081982182e6 0.0
0.0 0.0 0.0

-1.4226279008837285e7 1.2210548168768069e7 0.0
1.2210548168768069e7 9.82219618092214e6 0.0
0.0 0.0 0.0

-3.3558317657215702e6 7.8147549310294995e6 0.0
7.8147549310294995e6 1.7892517915874075e6 0.0
0.0 0.0 0.0

-340357.33684418024 1.0599150083179215e7 0.0
1.0599150083179215e7 -9.103928109760828e6 0.0
0.0 0.0 0.0

1.9196643654435491e6 6.939145545183721e6 0.0
6.939145545183721e6 -7.317513612189196e6 0.0
0.0 0.0 0.0

-1.8234976013920426e6 772423.459953246 0.0
772423.459953246 1.4427569655058673e6 0.0
0.0 0.0 0.0

-1.1722361594363078e7 7.342967083752179e6 0.0
7.342967083752179e6 6.921220817241539e6 0.0
0.0 0.0 0.0

-7.1500569051063005e6 9.286706256587844e6 0.0
9.286706256587844e6 649090.4194396306 0.0
0.0 0.0 0.0

212887.40041915234 8.776286602315683e6 0.0
8.776286602315683e6 -5.225073958191142e6 0.0
0.0 0.0 0.0

-6.914808852508636e6 1.169143133646151e7 0.0
1.169143133646151e7 2.9556199989706455e6 0.0
0.0 0.0 0.0

2.79108184562092e6 7.54674963699133e6 0.0
7.54674963699133e6 -1.0846824867845079e7 0.0
0.0 0.0 0.0

372549.50704099913 1.2419217670396956e7 0.0
1.2419217670396956e7 -4.14436431359642e6 0.0
0.0 0.0 0.0

-68812.00354202744 8.76469794223863e6 0.0
8.76469794223863e6 1.7390619234074377e6 0.0
0.0 0.0 0.0

-102750.45875317836 8.801951532636316e6 0.0
8.801951532636316e6 -5.056780807945478e6 0.0
0.0 0.0 0.0

-4.1554661351101017e6 9.16720037070003e6 0.0
9.16720037070003e6 1.5798785582663566e6 0.0
0.0 0.0 0.0

-751109.9310331121 7.353189737096134e6 0.0
7.353189737096134e6 -3.537858213594274e6 0.0
0.0 0.0 0.0

-231538.68287446979 8.84503038623721e6 0.0
8.84503038623721e6 -5.532166098748465e6 0.0
0.0 0.0 0.0

243247.73678018106 9.192648010170856e6 0.0
9.192648010170856e6 -5.954496058036421e6 0.0
0.0 0.0 0.0

-7.01631494315169e6 1.096583854784561e7 0.0
1.096583854784561e7 4.715751773491446e6 0.0
0.0 0.0 0.0

-1.3396152350193919e6 1.147890359201479e7 0.0
1.147890359201479e7 -9.87957104228865e6 0.0
0.0 0.0 0.0

-3.824016770834822e6 1.6752980188967137e7 0.0
1.6752980188967137e7 -640798.6810350363 0.0
0.0 0.0 0.0

-3.247254510755519e6 1.3782916633401336e7 0.0
1.3782916633401336e7 -2.2140198011319605e6 0.0
0.0 0.0 0.0

-7.840037353027024e6 1.1494623548958909e7 0.0
1.1494623548958909e7 5.083882853982689e6 0.0
0.0 0.0 0.0

-5.236111774641631e6 1.0165961566903304e7 0.0
1.0165961566903304e7 3.8038965993763185e6 0.0
0.0 0.0 0.0

2.9615595744978148e6 7.350487550448808e6 0.0
7.350487550448808e6 -1.1094713212864803e7 0.0
0.0 0.0 0.0

-4.233890789789691e6 1.0554886259349788e7 0.0
1.0554886259349788e7 3.6903661889516134e6 0.0
0.0 0.0 0.0

2.7218688417952815e6 6.825503709268223e6 0.0
6.825503709268223e6 -9.749826346391035e6 0.0
0.0 0.0 0.0

-3.3976915982853295e6 9.652540076728748e6 0.0
9.652540076728748e6 -1.0059030047661598e6 0.0
0.0 0.0 0.0

-3.0895556381939226e6 9.436642420905087e6 0.0
9.436642420905087e6 -1.187559673107645e6 0.0
0.0 0.0 0.0

611476.4792406282 8.159971354179032e6 0.0
8.159971354179032e6 -4.037009777330732e6 0.0
0.0 0.0 0.0

-2.9595965806749896e6 1.044223475976761e7 0.0
1.044223475976761e7 2.9132258392795343e6 0.0
0.0 0.0 0.0

-5.445580448715362e6 1.0215180535071185e7 0.0
1.0215180535071185e7 2.040145092804281e6 0.0
0.0 0.0 0.0

-4.484665469950296e6 8.717172808745978e6 0.0
8.717172808745978e6 3.37347808455361e6 0.0
0.0 0.0 0.0

-1.9899641994900752e6 818669.0603291937 0.0
818669.0603291937 2.8099953192215813e6 0.0
0.0 0.0 0.0

1.7500443658974161e6 6.830830660757396e6 0.0
6.830830660757396e6 -7.843855171549217e6 0.0
0.0 0.0 0.0

861029.0434062844 7.420716881085813e6 0.0
7.420716881085813e6 -6.306525963811564e6 0.0
0.0 0.0 0.0

-8.400269162033308e6 1.290893759029174e7 0.0
1.290893759029174e7 4.649355604787782e6 0.0
0.0 0.0 0.0

-2.39094390730264e6 1.085286429186884e7 0.0
1.085286429186884e7 143051.9175484809 0.0
0.0 0.0 0.0

776731.6992617687 9.208182480630115e6 0.0
9.208182480630115e6 -7.00365284877696e6 0.0
0.0 0.0 0.0

-7.160696232990092e6 8.649167970891383e6 0.0
8.649167970891383e6 9.862767787749656e6 0.0
0.0 0.0 0.0

-755169.2442524703 3.454468338813601e6 0.0
3.454468338813601e6 348541.25105214166 0.0
0.0 0.0 0.0

-1.1496701443483967e6 9.072129679728128e6 0.0
9.072129679728128e6 3.243522550927946e6 0.0
0.0 0.0 0.0

-1.1200841027290542e7 9.461461307359137e6 0.0
9.461461307359137e6 7.946316583389958e6 0.0
0.0 0.0 0.0

989767.9825925942 8.224556403521716e6 0.0
8.224556403521716e6 -346559.67039557686 0.0
0.0 0.0 0.0

-685797.0668926521 1.0131920379931685e7 0.0
1.0131920379931685e7 810886.9286841345 0.0
0.0 0.0 0.0

-6.766212270801032e6 1.100386067592911e7 0.0
1.100386067592911e7 4.477560076857311e6 0.0
0.0 0.0 0.0

-3.4586234920135736e6 1.0390619054542681e7 0.0
1.0390619054542681e7 3.209971073486848e6 0.0
0.0 0.0 0.0

-6.9418341727363765e6 9.612984296543498e6 0.0
9.612984296543498e6 8.209411337871946e6 0.0
0.0 0.0 0.0

-5.701502918575567e6 9.962970573999288e6 0.0
9.962970573999288e6 842807.7572680148 0.0
0.0 0.0 0.0

-5.6046795982905235e6 9.924661172774779e6 0.0
9.924661172774779e6 1.5749442042149245e6 0.0
0.0 0.0 0.0

-6.580521111206571e6 1.6368788386593282e6 0.0
1.6368788386593282e6 5.743690079660555e6 0.0
0.0 0.0 0.0

-2.8225332008744717e7 1.4406840987077313e7 0.0
1.4406840987077313e7 1.4079800715072103e7 0.0
0.0 0.0 0.0

3.6425447086767424e6 8.1987279977024775e6 0.0
8.1987279977024775e6 -1.5575983590736387e6 0.0
0.0 0.0 0.0

581914.4267086517 9.318442890523171e6 0.0
9.318442890523171e6 -7.247698546957502e6 0.0
0.0 0.0 0.0

-5.1501953870852785e6 9.461929868955944e6 0.0
9.461929868955944e6 3.146478047900617e6 0.0
0.0 0.0 0.0

-1.5850676064668729e6 1.0882158695792636e7 0.0
1.0882158695792636e7 -4.017311951105814e6 0.0
0.0 0.0 0.0

1.0056513246221654e7 1.0104389248125847e7 0.0
1.0104389248125847e7 -201270.9932332849 0.0
0.0 0.0 0.0

-696733.4564739435 2.3302774284457746e6 0.0
2.3302774284457746e6 -1.2135437647601767e6 0.0
0.0 0.0 0.0

5.113311558495535e6 4.573586911886983e6 0.0
4.573586911886983e6 -7.061820834984947e6 0.0
0.0 0.0 0.0

-2.7123012308490546e6 1.0431850724919712e7 0.0
1.0431850724919712e7 -2.491671595003128e6 0.0
0.0 0.0 0.0

470138.7429253459 8.421034392858453e6 0.0
8.421034392858453e6 -3.532971873517424e6 0.0
0.0 0.0 0.0

-9.38831174311757e6 -39360.809952617026 0.0
-39360.809952617026 1.273923649559271e7 0.0
0.0 0.0 0.0

-2.209490819226642e6 1.3987813374860313e7 0.0
1.3987813374860313e7 -1.984479047041329e6 0.0
0.0 0.0 0.0

-1.6290518007570824e7 1.2290416913322378e7 0.0
1.2290416913322378e7 1.0249642511319727e7 0.0
0.0 0.0 0.0

3.5104358343908964e6 9.231258824537992e6 0.0
9.231258824537992e6 -2.4297766897733947e6 0.0
0.0 0.0 0.0

-1.029735772250718e6 637559.4942598962 0.0
637559.4942598962 770711.8311340462 0.0
0.0 0.0 0.0

-1.2706827107711487e7 4.457600382558246e6 0.0
4.457600382558246e6 8.573244793654542e6 0.0
0.0 0.0 0.0

-1.0057108572480386e6 7.305843854309481e6 0.0
7.305843854309481e6 -466295.77831632935 0.0
0.0 0.0 0.0

-1.815740851103367e7 1.2648538440416103e7 0.0
1.2648538440416103e7 1.1023783393777251e7 0.0
0.0 0.0 0.0

-4.254663225381695e6 7.274710727510921e6 0.0
7.274710727510921e6 4.331714406446155e6 0.0
0.0 0.0 0.0

1.4220095876555017e6 9.73948772369209e6 0.0
9.73948772369209e6 -3.881766775457958e6 0.0
0.0 0.0 0.0

-979392.702374134 8.992149290874034e6 0.0
8.992149290874034e6 -6.657594396946629e6 0.0
0.0 0.0 0.0

102646.57515193918 8.997828889523016e6 0.0
8.997828889523016e6 -5.604676738940112e6 0.0
0.0 0.0 0.0

772214.6488887593 1.1884202185366489e7 0.0
1.1884202185366489e7 -3.8639228292625113e6 0.0
0.0 0.0 0.0

-5.404007353814532e6 2.1162772474345222e7 0.0
2.1162772474345222e7 -1.1936024120526664e7 0.0
0.0 0.0 0.0

-202852.4633669322 1.8580678684886214e6 0.0
1.8580678684886214e6 -542406.3658510832 0.0
0.0 0.0 0.0

-1.0120687191631516e7 1.4736790364587849e7 0.0
1.4736790364587849e7 4.222431168794506e6 0.0
0.0 0.0 0.0

-6.451090606967519e6 1.311044175392938e7 0.0
1.311044175392938e7 2.646267278087959e6 0.0
0.0 0.0 0.0

-4.3897265348783415e6 -399005.43213926593 0.0
-399005.43213926593 5.535166126835067e6 0.0
0.0 0.0 0.0

2.3647774243689915e6 5.868259545812879e6 0.0
5.868259545812879e6 -7.155458003255695e6 0.0
0.0 0.0 0.0

-5.926935728081412e6 1.0733707273835601e7 0.0
1.0733707273835601e7 4.02196135620489e6 0.0
0.0 0.0 0.0

-2.3417175005193218e6 8.96485613329929e6 0.0
8.96485613329929e6 4.0608960742384335e6 0.0
0.0 0.0 0.0

-2.377614938657903e6 1.5041552985197322e6 0.0
1.5041552985197322e6 3.1748051487286477e6 0.0
0.0 0.0 0.0

-3.4359800598075027e6 6.380654520633879e6 0.0
6.380654520633879e6 2.6512277138011847e6 0.0
0.0 0.0 0.0

-2.9540069126922926e6 9.11454548738553e6 0.0
9.11454548738553e6 4.648718619452682e6 0.0
0.0 0.0 0.0

-2.276668457228425e6 8.633616128930405e6 0.0
8.633616128930405e6 -2.336068831521692e6 0.0
0.0 0.0 0.0

94042.4179539755 8.965310376839666e6 0.0
8.965310376839666e6 -6.128426374952768e6 0.0
0.0 0.0 0.0

-6.319747947708729e6 1.2126593530240504e7 0.0
1.2126593530240504e7 1.7366067365093194e6 0.0
0.0 0.0 0.0

-658309.0487685688 2.776789395882002e6 0.0
2.776789395882002e6 -833674.8501552411 0.0
0.0 0.0 0.0

-3.089059298339744e6 7.672417125329102e6 0.0
7.672417125329102e6 964120.2045041726 0.0
0.0 0.0 0.0

-5.685531232004188e6 6.917951583586682e6 0.0
6.917951583586682e6 8.009926192300055e6 0.0
0.0 0.0 0.0

-1.2846606406863043e6 7.829489438432886e6 0.0
7.829489438432886e6 -3.032446438857705e6 0.0
0.0 0.0 0.0

-3.4267733847859944e6 1.1686896220439576e7 0.0
1.1686896220439576e7 -1.8968525874239402e6 0.0
0.0 0.0 0.0

-1.0620822849088537e7 1.555397402123721e7 0.0
1.555397402123721e7 6.723790961995316e6 0.0
0.0 0.0 0.0

654058.4380425019 9.155181169765394e6 0.0
9.155181169765394e6 -7.407385519632596e6 0.0
0.0 0.0 0.0

-2.5336354549206674e7 1.178520733980478e7 0.0
1.178520733980478e7 1.2944930866518293e7 0.0
0.0 0.0 0.0

3.949548942661636e6 850615.9600270637 0.0
850615.9600270637 -4.567495236463887e6 0.0
0.0 0.0 0.0

3.208655711138006e6 1.2947350368850317e6 0.0
1.2947350368850317e6 -4.503997149099483e6 0.0
0.0 0.0 0.0

-1.5352743674172647e6 1.0898922103748962e7 0.0
1.0898922103748962e7 3.6748633100250163e6 0.0
0.0 0.0 0.0

-3.996506542570313e6 1.0079871480893737e7 0.0
1.0079871480893737e7 7.14347954311081e6 0.0
0.0 0.0 0.0

-746649.1322817275 1.0785643092781618e7 0.0
1.0785643092781618e7 193256.02071654116 0.0
0.0 0.0 0.0

-2.5962596258937614e6 6.232305491384305e6 0.0
6.232305491384305e6 1.8259828639736034e6 0.0
0.0 0.0 0.0

-313404.9914274394 3.0989071984033445e6 0.0
3.0989071984033445e6 235137.44823493465 0.0
0.0 0.0 0.0

-1.9230790540284186e6 1.0981696983653668e7 0.0
1.0981696983653668e7 1.2539116760457954e6 0.0
0.0 0.0 0.0

-6.648187690459415e6 1.1320074141392771e7 0.0
1.1320074141392771e7 3.6277724474835903e6 0.0
0.0 0.0 0.0

720655.5647708774 9.24653660433208e6 0.0
9.24653660433208e6 -7.56687779482046e6 0.0
0.0 0.0 0.0

-2.6196043421555236e6 9.564764018594384e6 0.0
9.564764018594384e6 5.979088474198954e6 0.0
0.0 0.0 0.0

3.6735173540448765e6 8.934523103004461e6 0.0
8.934523103004461e6 -1.3323450632271874e6 0.0
0.0 0.0 0.0

-1.957812577428706e7 1.228154954037895e7 0.0
1.228154954037895e7 1.2528704767522983e7 0.0
0.0 0.0 0.0

-971463.6254823644 7.9700656348995725e6 0.0
7.9700656348995725e6 1.3413482712082495e6 0.0
0.0 0.0 0.0

-1.7274820307356846e6 5.513938464983667e6 0.0
5.513938464983667e6 -628676.8215656532 0.0
0.0 0.0 0.0

-4.391377842296947e6 3.683631361027613e6 0.0
3.683631361027613e6 4.1639350173475295e6 0.0
0.0 0.0 0.0

-6.466065630656269e6 1.104598970277125e7 0.0
1.104598970277125e7 3.1133492028981354e6 0.0
0.0 0.0 0.0

-6.13237439134723e6 8.992545409759337e6 0.0
8.992545409759337e6 9.689791321553227e6 0.0
0.0 0.0 0.0

-1.3778201734827092e7 -2.995481258241886e6 0.0
-2.995481258241886e6 2.2825479940119907e7 0.0
0.0 0.0 0.0

-1.487307158321862e6 1.0366557309389777e7 0.0
1.0366557309389777e7 1.555208890377018e6 0.0
0.0 0.0 0.0

-1.520293322652331e6 9.585463766594404e6 0.0
9.585463766594404e6 -6.902373133208855e6 0.0
0.0 0.0 0.0

-3.686249520229914e6 9.698517419156106e6 0.0
9.698517419156106e6 6.005029294132439e6 0.0
0.0 0.0 0.0

-4.254173856478164e6 8.926365679488339e6 0.0
8.926365679488339e6 5.630515490001928e6 0.0
0.0 0.0 0.0

-1.9930257385091581e6 8.317017467681421e6 0.0
8.317017467681421e6 -2.5815706105543785e6 0.0
0.0 0.0 0.0

-8.586019849029401e6 1.2855496320511317e7 0.0
1.2855496320511317e7 2.8718870018964108e7 0.0
0.0 0.0 0.0

-2.4739337917872984e6 1.3855232973429995e7 0.0
1.3855232973429995e7 -2.888313378424851e6 0.0
0.0 0.0 0.0

-896639.793112224 1.0269594022937492e7 0.0
1.0269594022937492e7 -4.820123212975461e6 0.0
0.0 0.0 0.0

-1.0083140318885543e6 6.747307523047348e6 0.0
6.747307523047348e6 -2.2852181961450493e6 0.0
0.0 0.0 0.0

2.828920456762332e6 6.124585569572979e6 0.0
6.124585569572979e6 -8.649946277885038e6 0.0
0.0 0.0 0.0

-1.0554980661806403e7 1.4525125702689284e7 0.0
1.4525125702689284e7 6.774140207793165e6 0.0
0.0 0.0 0.0

-5.218778750027057e6 3.8855071212378438e6 0.0
3.8855071212378438e6 5.311385467767736e6 0.0
0.0 0.0 0.0

-1.1433262638958253e6 1.0094865413680041e7 0.0
1.0094865413680041e7 1.7836381132685267e6 0.0
0.0 0.0 0.0

-4.78738007083953e6 1.0420721176181674e7 0.0
1.0420721176181674e7 2.7497905305946562e6 0.0
0.0 0.0 0.0

-3.728836943013712e6 8.314648323234558e6 0.0
8.314648323234558e6 961497.0505965205 0.0
0.0 0.0 0.0

-4.287451542367634e6 6.231167848685976e6 0.0
6.231167848685976e6 3.72556135556738e6 0.0
0.0 0.0 0.0

131704.59761226038 7.460580016177514e6 0.0
7.460580016177514e6 -5.162328030251205e6 0.0
0.0 0.0 0.0

-1.6303951948707834e7 1.082494734181299e7 0.0
1.082494734181299e7 1.0330611143865759e7 0.0
0.0 0.0 0.0

2.5458163327328316e6 8.220607705003428e6 0.0
8.220607705003428e6 1.4658598489899319e6 0.0
0.0 0.0 0.0

-601589.124552407 2.9425006303789676e6 0.0
2.9425006303789676e6 -772747.1534835591 0.0
0.0 0.0 0.0

-7.751055057264e6 1.0941749566407362e7 0.0
1.0941749566407362e7 5.00523019306773e6 0.0
0.0 0.0 0.0

-1.4860439799747976e7 2.722726364752341e6 0.0
2.722726364752341e6 8.317759425045846e6 0.0
0.0 0.0 0.0

-2.553163650647782e6 1.1138923689474914e7 0.0
1.1138923689474914e7 507869.2091298688 0.0
0.0 0.0 0.0

-1.880690952547463e7 1.3012323159892354e7 0.0
1.3012323159892354e7 4.504807395114239e6 0.0
0.0 0.0 0.0

-2.2126534807165083e6 1.1549085064608743e7 0.0
1.1549085064608743e7 112466.35136191559 0.0
0.0 0.0 0.0

-4.1475082474866835e6 8.053720325691508e6 0.0
8.053720325691508e6 3.2336140639951536e6 0.0
0.0 0.0 0.0

-2.6645897127419678e6 5.819694482008149e6 0.0
5.819694482008149e6 1.8957462555024507e6 0.0
0.0 0.0 0.0

-3.258113930083645e6 7.548333063757246e6 0.0
7.548333063757246e6 1.4052764987343564e6 0.0
0.0 0.0 0.0

-4.56701791500176e6 1.0827676548435375e7 0.0
1.0827676548435375e7 3.428665104509848e6 0.0
0.0 0.0 0.0

-6.443210905566256e6 -1.429038075871956e6 0.0
-1.429038075871956e6 8.66197959688433e6 0.0
0.0 0.0 0.0

228369.67614734895 7.760120284576982e6 0.0
7.760120284576982e6 -3.439424359742058e6 0.0
0.0 0.0 0.0

-671594.597259572 7.32246384884843e6 0.0
7.32246384884843e6 -3.610322917616026e6 0.0
0.0 0.0 0.0

-722711.4503211896 9.477590815644827e6 0.0
9.477590815644827e6 -4.387403767731723e6 0.0
0.0 0.0 0.0

-1.57793178463317e6 1.522824151328841e6 0.0
1.522824151328841e6 1.8536122301832514e6 0.0
0.0 0.0 0.0

-48828.927196909906 7.913241365716097e6 0.0
7.913241365716097e6 -2.8992807070016963e6 0.0
0.0 0.0 0.0

-4.97321944525601e6 1.0608726292391805e7 0.0
1.0608726292391805e7 3.159909230467257e6 0.0
0.0 0.0 0.0

-2.9448615692451354e6 1.0373643595538594e7 0.0
1.0373643595538594e7 4.463562930952317e6 0.0
0.0 0.0 0.0

-2.2554344960373645e6 1.0079557316299174e7 0.0
1.0079557316299174e7 -2.4901636182921473e6 0.0
0.0 0.0 0.0

-561792.820017738 1.0662240385238182e7 0.0
1.0662240385238182e7 -442888.8233450927 0.0
0.0 0.0 0.0

-9.665175861805381e6 1.4123905014247404e7 0.0
1.4123905014247404e7 4.273895829840483e6 0.0
0.0 0.0 0.0

-799580.4290763766 1.136527748688399e7 0.0
1.136527748688399e7 -4.158926411935138e6 0.0
0.0 0.0 0.0

1.586084617459946e7 1.1419044720066551e7 0.0
1.1419044720066551e7 -3.302738480315376e6 0.0
0.0 0.0 0.0

1.259312086263483e6 1.0539829368521774e7 0.0
1.0539829368521774e7 -3.99864442045458e6 0.0
0.0 0.0 0.0

267730.81017912505 9.751469167685771e6 0.0
9.751469167685771e6 -6.356217359545691e6 0.0
0.0 0.0 0.0

-2.0860438760788334e6 1.2123099039410071e7 0.0
1.2123099039410071e7 -3.0746684379209667e6 0.0
0.0 0.0 0.0

-1.4624677413306281e7 5.737383951235171e6 0.0
5.737383951235171e6 8.254816752932576e6 0.0
0.0 0.0 0.0

-5.09989934666252e6 1.0791335088692883e7 0.0
1.0791335088692883e7 3.1778046716839876e6 0.0
0.0 0.0 0.0

4.448792804773778e6 9.460437971617253e6 0.0
9.460437971617253e6 -4.552357038600627e6 0.0
0.0 0.0 0.0

735201.701573608 9.30640782158884e6 0.0
9.30640782158884e6 -8.212283869474895e6 0.0
0.0 0.0 0.0

-2.254352313257499e6 1.1741284661746839e7 0.0
1.1741284661746839e7 4.201843456237519e6 0.0
0.0 0.0 0.0

1.2881759028095237e6 6.054898221982565e6 0.0
6.054898221982565e6 -5.488733306953781e6 0.0
0.0 0.0 0.0

-1.891039654496715e6 1.2202280808983022e7 0.0
1.2202280808983022e7 -2.4325676235662317e6 0.0
0.0 0.0 0.0

2.769707376764148e6 6.556510485056621e6 0.0
6.556510485056621e6 -9.544094499272618e6 0.0
0.0 0.0 0.0

-3.4722726046757237e6 1.1309573937296038e7 0.0
1.1309573937296038e7 -1.5818704420377286e6 0.0
0.0 0.0 0.0

-2.9629657338235704e6 1.3790051713167071e7 0.0
1.3790051713167071e7 -1.2666011783366278e6 0.0
0.0 0.0 0.0

-3.4651970220662067e6 8.289620018381988e6 0.0
8.289620018381988e6 929583.6581973964 0.0
0.0 0.0 0.0

-9.653860011058599e6 9.797257929017577e6 0.0
9.797257929017577e6 7.024747600881951e6 0.0
0.0 0.0 0.0

-4.676524578970125e6 8.80549577601928e6 0.0
8.80549577601928e6 5.435983206091192e6 0.0
0.0 0.0 0.0

-1.9490581851105676e6 7.616756004112781e6 0.0
7.616756004112781e6 783593.1579639666 0.0
0.0 0.0 0.0

-1.9566845333583858e7 8.559318741123235e6 0.0
8.559318741123235e6 1.1471914031905413e7 0.0
0.0 0.0 0.0

2.322683709491332e6 8.359670053395297e6 0.0
8.359670053395297e6 1.0197257710257135e6 0.0
0.0 0.0 0.0

-2.0933611775482642e6 5.596053447734892e6 0.0
5.596053447734892e6 -365082.1101857102 0.0
0.0 0.0 0.0

-6.735404524458829e6 1.0870372341872308e7 0.0
1.0870372341872308e7 4.67341422609562e6 0.0
0.0 0.0 0.0

-2.8215349506323826e6 1.174550979590865e7 0.0
1.174550979590865e7 499989.9635595153 0.0
0.0 0.0 0.0

-1.2920634517880115e6 7.86403666041641e6 0.0
7.86403666041641e6 -3.065295041657641e6 0.0
0.0 0.0 0.0

2.5859730323753585e6 5.958341998061365e6 0.0
5.958341998061365e6 -7.587834309695482e6 0.0
0.0 0.0 0.0

479843.57464082655 8.760713755704502e6 0.0
8.760713755704502e6 -5.253304762436996e6 0.0
0.0 0.0 0.0

1.0948254417659499e7 6.661550948977632e6 0.0
6.661550948977632e6 -3.6390092111461917e6 0.0
0.0 0.0 0.0

-4.466854040946601e6 8.756813969223574e6 0.0
8.756813969223574e6 6.156898974299359e6 0.0
0.0 0.0 0.0

-6.504136280953397e6 1.0870506969892446e7 0.0
1.0870506969892446e7 4.3660535464893235e6 0.0
0.0 0.0 0.0

-2.1638154376502433e6 -1.9374811792527584e6 0.0
-1.9374811792527584e6 5.776999819872189e6 0.0
0.0 0.0 0.0

-9.393819028780773e6 1.2248937101370286e7 0.0
1.2248937101370286e7 5.908287227618039e6 0.0
0.0 0.0 0.0

-1.314870261129001e7 4.738029591774034e6 0.0
4.738029591774034e6 7.274491180697638e6 0.0
0.0 0.0 0.0

-1.183173863970931e6 1.0431730049264412e7 0.0
1.0431730049264412e7 -4.472186843875454e6 0.0
0.0 0.0 0.0

-1.1271331674381974e6 1.0631859140588326e7 0.0
1.0631859140588326e7 2.846633712108097e6 0.0
0.0 0.0 0.0

-278979.8539259834 8.111418631721791e6 0.0
8.111418631721791e6 -1.3306564976125262e6 0.0
0.0 0.0 0.0

-4.800810722206949e6 9.269500949182292e6 0.0
9.269500949182292e6 2.9272534197448487e6 0.0
0.0 0.0 0.0

-1.3372089254533194e6 7.609296550377171e6 0.0
7.609296550377171e6 -3.4037085754915136e6 0.0
0.0 0.0 0.0

492574.8180326398 7.3633575630931305e6 0.0
7.3633575630931305e6 -5.022404180059473e6 0.0
0.0 0.0 0.0

-218882.34015350405 5.185672205555006e6 0.0
5.185672205555006e6 -3.39996436098193e6 0.0
0.0 0.0 0.0

-6.550768271950353e6 1.0840212601838252e7 0.0
1.0840212601838252e7 4.472521912698995e6 0.0
0.0 0.0 0.0

-2.4379242872756547e6 8.613631638425253e6 0.0
8.613631638425253e6 -2.024736761120271e6 0.0
0.0 0.0 0.0

3.381805061947158e6 8.173903906249137e6 0.0
8.173903906249137e6 1.6216972049420993e6 0.0
0.0 0.0 0.0

2.631255999789758e6 6.05717239186976e6 0.0
6.05717239186976e6 -7.635534205555705e6 0.0
0.0 0.0 0.0

-2.157547312008367e6 1.0514189230992183e7 0.0
1.0514189230992183e7 3.044742319383575e6 0.0
0.0 0.0 0.0

243479.76564592659 5.774073849191942e6 0.0
5.774073849191942e6 -4.156628874137832e6 0.0
0.0 0.0 0.0

-5.94835567034533e6 1.2293469172183901e7 0.0
1.2293469172183901e7 1.9997111741862842e6 0.0
0.0 0.0 0.0

-857732.4609805169 1.0698540467122536e7 0.0
1.0698540467122536e7 557739.7144852807 0.0
0.0 0.0 0.0

-1.0010376524231337e7 1.4445719408055646e6 0.0
1.4445719408055646e6 1.2811713328304566e7 0.0
0.0 0.0 0.0

-634039.2839981972 3.1763344366141194e6 0.0
3.1763344366141194e6 -718110.9110845255 0.0
0.0 0.0 0.0

-3.8741995429076646e6 1.4132100230480999e7 0.0
1.4132100230480999e7 -1.8013391014828724e6 0.0
0.0 0.0 0.0

-1.8578518493412253e7 -217348.56920115277 0.0
-217348.56920115277 1.078438668005008e7 0.0
0.0 0.0 0.0

-407508.6928434479 1.0001663404932952e7 0.0
1.0001663404932952e7 -5.529982102773422e6 0.0
0.0 0.0 0.0

-3.962584343118066e6 7.118487735752194e6 0.0
7.118487735752194e6 5.281660917225486e6 0.0
0.0 0.0 0.0

-3.8898133721786467e6 8.072132765062558e6 0.0
8.072132765062558e6 2.6624772295780014e6 0.0
0.0 0.0 0.0

-2.151735963652804e7 505596.5608656138 0.0
505596.5608656138 1.1260871312165715e7 0.0
0.0 0.0 0.0

274832.72749093827 9.56994380047109e6 0.0
9.56994380047109e6 -6.537019857182974e6 0.0
0.0 0.0 0.0

-2.081555072804818e6 1.1461573202070463e7 0.0
1.1461573202070463e7 -2.473617180764903e6 0.0
0.0 0.0 0.0

1.2923829039292387e6 3.093521148537405e6 0.0
3.093521148537405e6 -3.7929502957222844e6 0.0
0.0 0.0 0.0

-4.411177459380988e6 1.1548773264142402e7 0.0
1.1548773264142402e7 815687.6659001745 0.0
0.0 0.0 0.0

-5.941645055070844e6 1.4692816195713723e7 0.0
1.4692816195713723e7 1.0533390039944032e6 0.0
0.0 0.0 0.0

-7.738760291061169e6 1.1538047839519044e7 0.0
1.1538047839519044e7 4.763812791938832e6 0.0
0.0 0.0 0.0

-4.498331738171992e6 8.53973710882615e6 0.0
8.53973710882615e6 1.9363583275434389e6 0.0
0.0 0.0 0.0

-5.875448560902969e6 5.039236857977027e6 0.0
5.039236857977027e6 8.437465758155495e6 0.0
0.0 0.0 0.0

-3.3335451216269974e6 1.088128494282192e7 0.0
1.088128494282192e7 3.016283853860303e6 0.0
0.0 0.0 0.0

-9.269984234886248e6 1.2028462717148716e7 0.0
1.2028462717148716e7 5.61931122791218e6 0.0
0.0 0.0 0.0

-738222.6506603179 7.106614316310341e6 0.0
7.106614316310341e6 -3.8804962032294846e6 0.0
0.0 0.0 0.0

-8.659717146291316e6 1.1883020777532931e7 0.0
1.1883020777532931e7 5.294974027782939e6 0.0
0.0 0.0 0.0

-4.54282725613959e6 1.008463217332695e7 0.0
1.008463217332695e7 7.298634401764395e6 0.0
0.0 0.0 0.0

-4.215175564865008e6 4.104818913900066e6 0.0
4.104818913900066e6 4.743000873827592e6 0.0
0.0 0.0 0.0

2.4530962559754336e6 6.037665813027811e6 0.0
6.037665813027811e6 -7.94195582194151e6 0.0
0.0 0.0 0.0

-5.833978383261743e6 1.045861919918196e7 0.0
1.045861919918196e7 2.8724391680585584e6 0.0
0.0 0.0 0.0

-5.147570544819287e6 1.0438021620206894e7 0.0
1.0438021620206894e7 1.102897295200054e6 0.0
0.0 0.0 0.0

-4.989185904516649e6 1.0946634537787123e7 0.0
1.0946634537787123e7 926003.4625092417 0.0
0.0 0.0 0.0

-2.383039738774042e7 2.0312984695425987e7 0.0
2.0312984695425987e7 -2.3170515756573407e6 0.0
0.0 0.0 0.0

-827961.5985957483 1.0613643403581267e7 0.0
1.0613643403581267e7 -4.183149949832841e6 0.0
0.0 0.0 0.0

-6.066348291624436e6 1.0860158052317383e7 0.0
1.0860158052317383e7 2.986997738209084e6 0.0
0.0 0.0 0.0

-4.538575850295205e6 8.184042718750968e6 0.0
8.184042718750968e6 3.0328732727416595e6 0.0
0.0 0.0 0.0

-1.6336911596475903e7 3.764309464380254e6 0.0
3.764309464380254e6 9.708954308981888e6 0.0
0.0 0.0 0.0

-238286.87436611298 1.0605239745407157e7 0.0
1.0605239745407157e7 -938614.1137172716 0.0
0.0 0.0 0.0

-7.150357387745533e6 8.640552417952674e6 0.0
8.640552417952674e6 1.0922541572208207e7 0.0
0.0 0.0 0.0

2.9051251347857607e6 5.816952136011461e6 0.0
5.816952136011461e6 -8.794102607492665e6 0.0
0.0 0.0 0.0

-1.6254886808928812e7 9.795658232945122e6 0.0
9.795658232945122e6 1.0563350863646492e7 0.0
0.0 0.0 0.0

-5.793513801805434e6 -1.073764698789673e6 0.0
-1.073764698789673e6 7.481453457471799e6 0.0
0.0 0.0 0.0

-8.328744277502069e6 -3.6594723050337653e6 0.0
-3.6594723050337653e6 1.2721255962494077e7 0.0
0.0 0.0 0.0

-935205.2836742115 2.0548421364421758e6 0.0
2.0548421364421758e6 -756750.7252057046 0.0
0.0 0.0 0.0

-6.444048707726303e6 3.889474507881147e6 0.0
3.889474507881147e6 9.793392785772886e6 0.0
0.0 0.0 0.0

-7.235984926311595e6 6.816440970789631e6 0.0
6.816440970789631e6 8.31556360986759e6 0.0
0.0 0.0 0.0

10770.617288421607 9.64381130382552e6 0.0
9.64381130382552e6 -6.14192364717475e6 0.0
0.0 0.0 0.0

-2.092257183761228e7 1.1703870917915704e7 0.0
1.1703870917915704e7 1.2572391930087421e7 0.0
0.0 0.0 0.0

-4.511395728043431e6 4.453596401313901e6 0.0
4.453596401313901e6 6.156310136522197e6 0.0
0.0 0.0 0.0

786547.4456592174 9.28964980577645e6 0.0
9.28964980577645e6 -8.268588349972271e6 0.0
0.0 0.0 0.0

-1.1165889791245606e7 3.6901200452390434e6 0.0
3.6901200452390434e6 8.0091973121744525e6 0.0
0.0 0.0 0.0

-7.977088994030176e6 -3.780514695128617e6 0.0
-3.780514695128617e6 1.2380737401641436e7 0.0
0.0 0.0 0.0

-1.986512655339618e6 9.534770191237722e6 0.0
9.534770191237722e6 -3.252473142679022e6 0.0
0.0 0.0 0.0

-404382.67928574746 9.967634554577552e6 0.0
9.967634554577552e6 -8.165517098010101e6 0.0
0.0 0.0 0.0

-1.889003138036549e6 1.1311446268446703e7 0.0
1.1311446268446703e7 266246.3435191362 0.0
0.0 0.0 0.0

-9.32592456840773e6 2.8298239254031563e6 0.0
2.8298239254031563e6 7.167046823937147e6 0.0
0.0 0.0 0.0

8.035873615731239e6 1.253026414779623e7 0.0
1.253026414779623e7 1.743560376274908e6 0.0
0.0 0.0 0.0

-544305.8406522581 6.469921225528171e6 0.0
6.469921225528171e6 -3.789110597702861e6 0.0
0.0 0.0 0.0

-955542.8301434398 9.389112689999197e6 0.0
9.389112689999197e6 -3.8935952936515347e6 0.0
0.0 0.0 0.0

207318.32164374832 8.763602931329573e6 0.0
8.763602931329573e6 -5.815647781446785e6 0.0
0.0 0.0 0.0

2.714731568098779e6 5.792223533764572e6 0.0
5.792223533764572e6 -8.680012851741869e6 0.0
0.0 0.0 0.0

-5.557937614924721e6 1.1436009465422755e7 0.0
1.1436009465422755e7 1.9210243216386677e6 0.0
0.0 0.0 0.0

185763.66709280387 9.396169120299501e6 0.0
9.396169120299501e6 -6.806033911854861e6 0.0
0.0 0.0 0.0

-331134.9664020104 1.135223293430709e7 0.0
1.135223293430709e7 -4.140594908117096e6 0.0
0.0 0.0 0.0

163532.52772851486 8.232011251116585e6 0.0
8.232011251116585e6 -2.477447255497631e6 0.0
0.0 0.0 0.0

-1.8653532056048068e6 5.9208063863697415e6 0.0
5.9208063863697415e6 112492.09512654296 0.0
0.0 0.0 0.0

-4.918907382097503e6 9.053072194065282e6 0.0
9.053072194065282e6 2.595332110011916e6 0.0
0.0 0.0 0.0

-3.319868618546598e6 9.907536868288178e6 0.0
9.907536868288178e6 5.100216483301701e6 0.0
0.0 0.0 0.0

1.7220163073128802e6 5.329480104477722e6 0.0
5.329480104477722e6 -6.394442801588376e6 0.0
0.0 0.0 0.0

-5.956835715737009e6 2.027870366941945e6 0.0
2.027870366941945e6 3.4099780238708346e6 0.0
0.0 0.0 0.0

-3.4645996172285145e6 9.283830276793452e6 0.0
9.283830276793452e6 5.715703406338584e6 0.0
0.0 0.0 0.0

161361.89842988807 9.983703617621848e6 0.0
9.983703617621848e6 -5.908633158782264e6 0.0
0.0 0.0 0.0

1.5793239814214379e7 7.684742017140529e6 0.0
7.684742017140529e6 -4.456271553450922e6 0.0
0.0 0.0 0.0

-76360.2300872237 9.930166908632256e6 0.0
9.930166908632256e6 -5.407531293107081e6 0.0
0.0 0.0 0.0

-5.51031639318419e6 1.1267428017644798e7 0.0
1.1267428017644798e7 1.0695546905631418e6 0.0
0.0 0.0 0.0

-4.271770630226362e6 8.970211279681489e6 0.0
8.970211279681489e6 1.1400761197070174e6 0.0
0.0 0.0 0.0

-7.093282162242514e6 1.3194273130426088e7 0.0
1.3194273130426088e7 1.4339170371966474e7 0.0
0.0 0.0 0.0

-7.066735880531736e6 3.3888117901593684e6 0.0
3.3888117901593684e6 1.079678198016784e7 0.0
0.0 0.0 0.0

-4.786778628207948e6 -1.2852194479851988e6 0.0
-1.2852194479851988e6 6.508924305892778e6 0.0
0.0 0.0 0.0

-1.0251932241456393e7 235291.66465036964 0.0
235291.66465036964 1.2354853188165959e7 0.0
0.0 0.0 0.0

-7.217641652779808e6 1.1302918007668506e7 0.0
1.1302918007668506e7 4.25959002241948e6 0.0
0.0 0.0 0.0

251197.14325008262 7.9616671418803735e6 0.0
7.9616671418803735e6 -5.405959033448636e6 0.0
0.0 0.0 0.0

-5.089681348141332e6 9.98436374582807e6 0.0
9.98436374582807e6 3.8289250705016456e6 0.0
0.0 0.0 0.0

-1.146565043256788e6 1.0745425973292828e7 0.0
1.0745425973292828e7 -3.8079085185568295e6 0.0
0.0 0.0 0.0

-3.638954734455251e6 7.847468113388059e6 0.0
7.847468113388059e6 1.7824486281977352e6 0.0
0.0 0.0 0.0

-5.049819801199519e6 1.0802980796457399e7 0.0
1.0802980796457399e7 3.500108770372956e6 0.0
0.0 0.0 0.0

-1.4799636894309605e6 1.3713815067970848e7 0.0
1.3713815067970848e7 -3.5288080242163665e6 0.0
0.0 0.0 0.0

-4.1544983012042604e6 1.027381002617232e7 0.0
1.027381002617232e7 3.617725738417004e6 0.0
0.0 0.0 0.0

-5.070549267357331e6 9.740328442822954e6 0.0
9.740328442822954e6 3.9461984056840083e6 0.0
0.0 0.0 0.0

-237528.39089125884 8.96496190707994e6 0.0
8.96496190707994e6 -6.122185181146664e6 0.0
0.0 0.0 0.0

-4.975974069473168e6 4.1646707791178916e6 0.0
4.1646707791178916e6 4.890203945416389e6 0.0
0.0 0.0 0.0

-7.11326177735229e6 1.1300464276799576e7 0.0
1.1300464276799576e7 4.60880569184345e6 0.0
0.0 0.0 0.0

1.0577953719334004e6 5.879539122781641e6 0.0
5.879539122781641e6 -5.910746201958427e6 0.0
0.0 0.0 0.0

-1.2070244858452214e7 -4.506425326891236e6 0.0
-4.506425326891236e6 2.2105604558911927e7 0.0
0.0 0.0 0.0

-1.5266450951368324e6 1.0964271486026326e7 0.0
1.0964271486026326e7 -86332.75181875861 0.0
0.0 0.0 0.0

-7.521635364106068e6 1.1400779177475497e7 0.0
1.1400779177475497e7 4.7236340768816285e6 0.0
0.0 0.0 0.0

574370.6075951755 8.892098162049005e6 0.0
8.892098162049005e6 -6.252837730205284e6 0.0
0.0 0.0 0.0

-6.146124936593406e6 1.150084354468268e7 0.0
1.150084354468268e7 1.7723030778315496e6 0.0
0.0 0.0 0.0

362916.43890137156 7.42447826008211e6 0.0
7.42447826008211e6 -5.431946102881907e6 0.0
0.0 0.0 0.0

-4.060464406880082e6 3.7662457298446577e6 0.0
3.7662457298446577e6 5.227094180065573e6 0.0
0.0 0.0 0.0

-2.3517129776284438e7 1.5438483756613856e7 0.0
1.5438483756613856e7 6.332123172094336e6 0.0
0.0 0.0 0.0

-4.903892305061426e6 9.867062131485961e6 0.0
9.867062131485961e6 775878.6664299814 0.0
0.0 0.0 0.0

-4.779225297946522e6 1.0580929779983925e7 0.0
1.0580929779983925e7 3.5837094472043663e6 0.0
0.0 0.0 0.0

-22238.242628293432 2.3063549535884196e6 0.0
2.3063549535884196e6 -863156.5157422404 0.0
0.0 0.0 0.0

-5.668088602579606e6 9.90739762534895e6 0.0
9.90739762534895e6 821507.6196625489 0.0
0.0 0.0 0.0

-5.194732794739057e6 1.0786282508145725e7 0.0
1.0786282508145725e7 3.377228447147538e6 0.0
0.0 0.0 0.0

2.694009286652463e6 6.062348088796022e6 0.0
6.062348088796022e6 -8.133265517556084e6 0.0
0.0 0.0 0.0

-3.174999174391955e6 7.421608287030431e6 0.0
7.421608287030431e6 1.7865218298125253e6 0.0
0.0 0.0 0.0

-2.995842506064288e6 6.12464472812887e6 0.0
6.12464472812887e6 2.2768170468481733e6 0.0
0.0 0.0 0.0

-8.642469401814349e6 1.4411725152543012e7 0.0
1.4411725152543012e7 4.6965268867478855e6 0.0
0.0 0.0 0.0

-1.326474430349018e6 3.272369912635389e6 0.0
3.272369912635389e6 -326189.213402904 0.0
0.0 0.0 0.0

-5.95990218601834e6 4.444424137831642e6 0.0
4.444424137831642e6 6.096298335196599e6 0.0
0.0 0.0 0.0

-7.911299398917351e6 1.1663027771606494e7 0.0
1.1663027771606494e7 5.033414793038549e6 0.0
0.0 0.0 0.0

-8.937268766463917e6 -4.352814751412239e6 0.0
-4.352814751412239e6 1.4761330206105925e7 0.0
0.0 0.0 0.0

-222561.98111476965 2.7905669806927415e6 0.0
2.7905669806927415e6 -345844.82294629957 0.0
0.0 0.0 0.0

1.0551401757888873e6 6.774558512922115e6 0.0
6.774558512922115e6 -5.88032341999757e6 0.0
0.0 0.0 0.0

-4.907349969684517e6 9.326916729282968e6 0.0
9.326916729282968e6 2.889816139537339e6 0.0
0.0 0.0 0.0

-6.966538111329997e6 4.244795707670129e6 0.0
4.244795707670129e6 9.064855710763646e6 0.0
0.0 0.0 0.0

-2.0361005679494767e6 1.0091149971521229e7 0.0
1.0091149971521229e7 -3.1984588295916743e6 0.0
0.0 0.0 0.0

-1.4716545011703281e6 9.748964485804785e6 0.0
9.748964485804785e6 -3.2737570579135246e6 0.0
0.0 0.0 0.0

362484.52907362627 7.997409423671186e6 0.0
7.997409423671186e6 -5.757002563517238e6 0.0
0.0 0.0 0.0

-183868.91873640567 9.845245480234442e6 0.0
9.845245480234442e6 -5.875946341537666e6 0.0
0.0 0.0 0.0

-1.1423312170598176e6 7.850059166392618e6 0.0
7.850059166392618e6 275721.36660684744 0.0
0.0 0.0 0.0

-7.040743101056337e6 5.090868030861462e6 0.0
5.090868030861462e6 8.212339201057936e6 0.0
0.0 0.0 0.0

-5.735437270843506e6 1.1500469820464374e7 0.0
1.1500469820464374e7 1.1680567662609003e6 0.0
0.0 0.0 0.0

-6.447496973737445e6 1.0863011605809407e7 0.0
1.0863011605809407e7 4.462834091790452e6 0.0
0.0 0.0 0.0

-7.187180780893307e6 1.148225562436505e7 0.0
1.148225562436505e7 4.571082633269802e6 0.0
0.0 0.0 0.0

315887.245292237 1.7354850254407085e7 0.0
1.7354850254407085e7 2.2205691036315344e7 0.0
0.0 0.0 0.0

-4.795504842790285e6 9.2791742529484e6 0.0
9.2791742529484e6 3.000714442187822e6 0.0
0.0 0.0 0.0

-1.2418220551439708e6 9.426401633253142e6 0.0
9.426401633253142e6 -3.496777029858548e6 0.0
0.0 0.0 0.0

-106013.8744239409 1.0010467291966582e7 0.0
1.0010467291966582e7 -5.9381546637052065e6 0.0
0.0 0.0 0.0

-843597.8594517366 9.640624456880897e6 0.0
9.640624456880897e6 -4.088295498297922e6 0.0
0.0 0.0 0.0

-6.914754606360153e6 1.1827220308167454e7 0.0
1.1827220308167454e7 3.2404149953379235e6 0.0
0.0 0.0 0.0

-4.656719221085021e6 8.771873210421603e6 0.0
8.771873210421603e6 2.400169007653079e6 0.0
0.0 0.0 0.0

366423.14494669146 7.782052196216964e6 0.0
7.782052196216964e6 -1.8539774858499572e6 0.0
0.0 0.0 0.0

176780.41966829984 1.0127949370275268e7 0.0
1.0127949370275268e7 -5.641268556625918e6 0.0
0.0 0.0 0.0

-2.3174649543552552e6 6.055237415978306e6 0.0
6.055237415978306e6 -79646.69444717118 0.0
0.0 0.0 0.0

-1.1470375210214717e7 1.777685913790978e7 0.0
1.777685913790978e7 2.841225385539745e6 0.0
0.0 0.0 0.0

3.0739746321367137e6 6.488243156216022e6 0.0
6.488243156216022e6 -9.999539857812975e6 0.0
0.0 0.0 0.0

1.6480819977763338e7 1.0408534514129084e7 0.0
1.0408534514129084e7 -2.8406238409447e6 0.0
0.0 0.0 0.0

5.521358779791627e6 1.6679151032868715e7 0.0
1.6679151032868715e7 -2.0691354476430647e7 0.0
0.0 0.0 0.0

-1.8154638002680591e6 1.0463483721740765e7 0.0
1.0463483721740765e7 2.23869984786643e6 0.0
0.0 0.0 0.0

-1.4924919272337896e6 8.218881030543232e6 0.0
8.218881030543232e6 1.5475865838938975e6 0.0
0.0 0.0 0.0

-8.542151346817782e6 9.2582452267508e6 0.0
9.2582452267508e6 2.0469699958008989e6 0.0
0.0 0.0 0.0

-2.357075697915744e7 6.494634941574396e6 0.0
6.494634941574396e6 8.376990713847138e6 0.0
0.0 0.0 0.0

-2.4717996036668736e6 6.927327570768842e6 0.0
6.927327570768842e6 469555.7722106514 0.0
0.0 0.0 0.0

-5.229911463906761e6 1.037628606690258e7 0.0
1.037628606690258e7 1.944054432617502e6 0.0
0.0 0.0 0.0

-764485.7950679354 9.281160689689824e6 0.0
9.281160689689824e6 -4.224554170493318e6 0.0
0.0 0.0 0.0

2.615219984577306e6 7.442978693868488e6 0.0
7.442978693868488e6 -9.333017887704127e6 0.0
0.0 0.0 0.0

-1.120551367073305e6 9.42387752935336e6 0.0
9.42387752935336e6 -4.447774189990827e6 0.0
0.0 0.0 0.0

760078.8486906844 9.143268243053606e6 0.0
9.143268243053606e6 -7.994401307421484e6 0.0
0.0 0.0 0.0

-3.060131141609876e6 6.287245436596646e6 0.0
6.287245436596646e6 1.814937496632488e6 0.0
0.0 0.0 0.0

-2.8049790795830237e6 1.0131127203384273e7 0.0
1.0131127203384273e7 4.0972876267145053e6 0.0
0.0 0.0 0.0

-1.398348705525555e6 7.145358102548305e6 0.0
7.145358102548305e6 -147355.31369393307 0.0
0.0 0.0 0.0

-1.2275238050783286e6 268171.1536653419 0.0
268171.1536653419 1.6311776034996808e6 0.0
0.0 0.0 0.0

-9.737273192013565e6 -109915.31709963176 0.0
-109915.31709963176 1.1602966404728271e7 0.0
0.0 0.0 0.0

-5.902942373694461e6 1.0219289930707593e7 0.0
1.0219289930707593e7 3.9784503382257936e6 0.0
0.0 0.0 0.0

-3.9983290493608387e6 1.0023776263073616e7 0.0
1.0023776263073616e7 5.191694626470334e6 0.0
0.0 0.0 0.0

-3.673436669689456e6 8.11337375294956e6 0.0
8.11337375294956e6 2.226202678813085e6 0.0
0.0 0.0 0.0

-774773.8992324711 1.9308532342983328e6 0.0
1.9308532342983328e6 -1.7182956504660458e6 0.0
0.0 0.0 0.0

-1.4939072926554117e7 5.669446212453151e6 0.0
5.669446212453151e6 2.340306960925934e7 0.0
0.0 0.0 0.0

-3.4127594390054094e6 8.1156223664554255e6 0.0
8.1156223664554255e6 1.1356751127059981e6 0.0
0.0 0.0 0.0

-5.358665698821248e6 1.1534942236320227e7 0.0
1.1534942236320227e7 587601.6060157013 0.0
0.0 0.0 0.0

-3.9064915092305914e6 1.0089849469267648e7 0.0
1.0089849469267648e7 5.435191248827338e6 0.0
0.0 0.0 0.0

-2.015905743141899e6 6.395222711458368e6 0.0
6.395222711458368e6 272732.16143257986 0.0
0.0 0.0 0.0

-1.7377585580440196e6 1.3517566180710679e7 0.0
1.3517566180710679e7 -2.33571450165298e6 0.0
0.0 0.0 0.0

-1.2093672004594013e7 -2.2253980109649277e6 0.0
-2.2253980109649277e6 2.805876493553995e7 0.0
0.0 0.0 0.0

200726.7866863287 1.2532173063027253e7 0.0
1.2532173063027253e7 -3.511023054806064e6 0.0
0.0 0.0 0.0

-7.471317932111258e6 1.1368684917633675e7 0.0
1.1368684917633675e7 4.889864705677332e6 0.0
0.0 0.0 0.0

-437235.1873461227 8.822301497373493e6 0.0
8.822301497373493e6 -6.407797062188711e6 0.0
0.0 0.0 0.0

-4.093294340186799e6 1.0174880151723284e7 0.0
1.0174880151723284e7 3.8504569508886933e6 0.0
0.0 0.0 0.0

-7.484520090871396e6 3.437240074597853e6 0.0
3.437240074597853e6 9.180825637211144e6 0.0
0.0 0.0 0.0

-5.802678696504519e6 1.3142192411623368e7 0.0
1.3142192411623368e7 1.87975948321426e6 0.0
0.0 0.0 0.0

3.500277267855494e6 3.6144960973987454e6 0.0
3.6144960973987454e6 -5.583516029333538e6 0.0
0.0 0.0 0.0

-1.237430172096155e7 1.503980075056369e7 0.0
1.503980075056369e7 6.110446831589168e6 0.0
0.0 0.0 0.0

879171.30029861 8.664654980980067e6 0.0
8.664654980980067e6 -241249.39139438 0.0
0.0 0.0 0.0

-4.443830402400397e6 9.96421131637952e6 0.0
9.96421131637952e6 877885.6154988268 0.0
0.0 0.0 0.0

2.131218415209817e6 6.5159870662834495e6 0.0
6.5159870662834495e6 -8.180784732860364e6 0.0
0.0 0.0 0.0

-2.059724199648309e6 1.1104514511977222e7 0.0
1.1104514511977222e7 654273.7235908853 0.0
0.0 0.0 0.0

-4.432451813763259e6 9.682725294318635e6 0.0
9.682725294318635e6 7.010507825125059e6 0.0
0.0 0.0 0.0

-6.307984344454696e6 1.083507419989066e7 0.0
1.083507419989066e7 3.8153165286483318e6 0.0
0.0 0.0 0.0

-2.6711906961719696e6 1.1123857056636767e7 0.0
1.1123857056636767e7 4.62033992835084e6 0.0
0.0 0.0 0.0

-237446.69186573685 1.5021715081384007e6 0.0
1.5021715081384007e6 -1.0940740058142706e6 0.0
0.0 0.0 0.0

-5.790056634706676e6 9.889794808137145e6 0.0
9.889794808137145e6 8.050408706238233e6 0.0
0.0 0.0 0.0

-3.551553802857314e6 1.0825905675726486e7 0.0
1.0825905675726486e7 1.5045167021063557e6 0.0
0.0 0.0 0.0

-451350.41365589167 1.3067420577326424e7 0.0
1.3067420577326424e7 -3.321432885070012e6 0.0
0.0 0.0 0.0

-2.5405140352423936e6 1.2344129328575028e7 0.0
1.2344129328575028e7 -2.6416876566959596e6 0.0
0.0 0.0 0.0

-5.274238061237856e6 1.4579464432034371e7 0.0
1.4579464432034371e7 381491.9594642052 0.0
0.0 0.0 0.0

-1.242824517763738e6 6.549043754326979e6 0.0
6.549043754326979e6 -1.268531787732719e6 0.0
0.0 0.0 0.0

-4.9656019268637365e6 1.0710519406458728e7 0.0
1.0710519406458728e7 3.6472712178590856e6 0.0
0.0 0.0 0.0

-8.124849100165861e6 1.420884881031997e7 0.0
1.420884881031997e7 2.3859514095807206e6 0.0
0.0 0.0 0.0

-285062.473196195 1.0003321750479264e7 0.0
1.0003321750479264e7 -7.7790491121456865e6 0.0
0.0 0.0 0.0

-1.9601634055522224e6 5.979950763868983e6 0.0
5.979950763868983e6 -334101.379533655 0.0
0.0 0.0 0.0

-1.6553031036137538e6 7.727975940536352e6 0.0
7.727975940536352e6 798644.8087963769 0.0
0.0 0.0 0.0

-6.822461528170608e6 1.3925170704131754e7 0.0
1.3925170704131754e7 1.173478214042049e6 0.0
0.0 0.0 0.0

279674.9473424093 1.0182327604169501e7 0.0
1.0182327604169501e7 -5.699612610664664e6 0.0
0.0 0.0 0.0

1.1602328259495115e6 5.548474273666832e6 0.0
5.548474273666832e6 -5.380336361143176e6 0.0
0.0 0.0 0.0

-1.0537654605058895e7 -8.239954756120213e6 0.0
-8.239954756120213e6 2.3654674027235426e7 0.0
0.0 0.0 0.0

757364.4699099045 8.927095402151167e6 0.0
8.927095402151167e6 -6.6438278596119415e6 0.0
0.0 0.0 0.0

-1.9542378520241308e6 8.297013752902063e6 0.0
8.297013752902063e6 2.6940253085199157e6 0.0
0.0 0.0 0.0

-2.959693568486206e6 6.563436304823762e6 0.0
6.563436304823762e6 2.197576622292891e6 0.0
0.0 0.0 0.0

-1.1082038232589993e6 1.3352347195440529e7 0.0
1.3352347195440529e7 -3.7827099652803503e6 0.0
0.0 0.0 0.0

90299.7467896191 5.903082814190346e6 0.0
5.903082814190346e6 -4.773344837279935e6 0.0
0.0 0.0 0.0

1.6191137648241497e6 1.0309229185876736e7 0.0
1.0309229185876736e7 -4.312134511803946e6 0.0
0.0 0.0 0.0

-2.464974305025562e6 9.346388731067989e6 0.0
9.346388731067989e6 5.139271468024233e6 0.0
0.0 0.0 0.0

-9.09497830418521e6 1.8588128871736336e7 0.0
1.8588128871736336e7 -578011.3918996151 0.0
0.0 0.0 0.0

-1.24936300889901e6 1.2095783079895627e7 0.0
1.2095783079895627e7 -3.085954015211033e6 0.0
0.0 0.0 0.0

-7.072350233413827e6 1.1074967939353207e7 0.0
1.1074967939353207e7 1.1020870518526796e7 0.0
0.0 0.0 0.0

2.3066983674116344e6 5.807699828638583e6 0.0
5.807699828638583e6 -7.434661654296835e6 0.0
0.0 0.0 0.0

-7.651577001343413e6 1.248434145449199e7 0.0
1.248434145449199e7 3.527630111079929e6 0.0
0.0 0.0 0.0

2.354710647095795e6 8.504931389949597e6 0.0
8.504931389949597e6 -1.9316458625541814e6 0.0
0.0 0.0 0.0

-2.355268685852906e7 1.417665499090949e6 0.0
1.417665499090949e6 9.915386329067968e6 0.0
0.0 0.0 0.0

-5.109467919511487e6 1.0912597319223037e7 0.0
1.0912597319223037e7 3.42426449638211e6 0.0
0.0 0.0 0.0

-1.7094474291468535e6 5.807552464255334e6 0.0
5.807552464255334e6 -46514.95710696839 0.0
0.0 0.0 0.0

296966.2352343581 9.665512448735487e6 0.0
9.665512448735487e6 -6.2451904956288785e6 0.0
0.0 0.0 0.0

-2.0341802754395348e6 1.0662113874442419e7 0.0
1.0662113874442419e7 1.947309218015695e6 0.0
0.0 0.0 0.0

459097.2494418062 9.355253521059467e6 0.0
9.355253521059467e6 -7.557671823167931e6 0.0
0.0 0.0 0.0

2.7168514952821494e6 6.001382227058868e6 0.0
6.001382227058868e6 -8.722275971695919e6 0.0
0.0 0.0 0.0

9.786474868515732e6 1.0720098856740655e7 0.0
1.0720098856740655e7 -747221.9211398959 0.0
0.0 0.0 0.0

-4.656118806989732e7 2.1532287920475177e7 0.0
2.1532287920475177e7 2.937157509265233e6 0.0
0.0 0.0 0.0

-1.401065174272482e6 1.0448208176823227e7 0.0
1.0448208176823227e7 5.562616482306265e6 0.0
0.0 0.0 0.0

-4.209571628042932e6 1.137445994660767e7 0.0
1.137445994660767e7 -984059.6445637264 0.0
0.0 0.0 0.0

-4.0102100765163964e6 1.0510103684123352e7 0.0
1.0510103684123352e7 3.152426521201875e6 0.0
0.0 0.0 0.0

1.0465082885636555e6 5.584123062470054e6 0.0
5.584123062470054e6 -5.31550014356281e6 0.0
0.0 0.0 0.0

-3.6713373858553683e6 1.0928820807040509e7 0.0
1.0928820807040509e7 2.0491370087701625e6 0.0
0.0 0.0 0.0

-8.001477045262439e6 1.2827664553277101e7 0.0
1.2827664553277101e7 4.055050575121066e6 0.0
0.0 0.0 0.0

188810.83863812638 9.496963465833979e6 0.0
9.496963465833979e6 -6.827456084036691e6 0.0
0.0 0.0 0.0

-4.576567619004138e6 9.991053669524547e6 0.0
9.991053669524547e6 444481.861475107 0.0
0.0 0.0 0.0

1.844053832744077e6 3.117103049981472e6 0.0
3.117103049981472e6 -4.289070522729571e6 0.0
0.0 0.0 0.0

-2.6661204915752695e6 8.985893212176213e6 0.0
8.985893212176213e6 6.045224781624615e6 0.0
0.0 0.0 0.0

-3.6163245270878673e6 1.1036924909751544e7 0.0
1.1036924909751544e7 424268.30088301934 0.0
0.0 0.0 0.0

-2.077258513378967e6 9.82810540715995e6 0.0
9.82810540715995e6 -2.4195259097048827e6 0.0
0.0 0.0 0.0

-4.878231083327375e6 9.373463069067886e6 0.0
9.373463069067886e6 1.9494490258033443e6 0.0
0.0 0.0 0.0

241748.1002208921 9.004461331483554e6 0.0
9.004461331483554e6 -6.428758352113404e6 0.0
0.0 0.0 0.0

-9.32787020205151e6 -4.717249152832616e6 0.0
-4.717249152832616e6 1.3064049785086494e7 0.0
0.0 0.0 0.0

-1.3948331384140574e6 9.485159675488725e6 0.0
9.485159675488725e6 -4.0376129479677677e6 0.0
0.0 0.0 0.0

2.0579140311973125e6 9.283449835392397e6 0.0
9.283449835392397e6 -3.3286530239034034e6 0.0
0.0 0.0 0.0

-1.6505681629031915e6 1.0861181820484022e7 0.0
1.0861181820484022e7 -8.538783958698468e6 0.0
0.0 0.0 0.0

1.1439861973334611e6 6.487100865523531e6 0.0
6.487100865523531e6 -5.479352336710057e6 0.0
0.0 0.0 0.0

-740365.3522423956 1.0336650435304228e7 0.0
1.0336650435304228e7 -4.3531849838592475e6 0.0
0.0 0.0 0.0

-4.979016813147646e6 1.082882247521736e7 0.0
1.082882247521736e7 3.532977440662588e6 0.0
0.0 0.0 0.0

-6.169451908706707e6 1.0830918202093953e7 0.0
1.0830918202093953e7 2.6595071434683474e6 0.0
0.0 0.0 0.0

-5.105167813297373e6 9.700435326762525e6 0.0
9.700435326762525e6 3.612865096043893e6 0.0
0.0 0.0 0.0

1.0615088571440084e6 8.172230174005123e6 0.0
8.172230174005123e6 372986.65444416314 0.0
0.0 0.0 0.0

-2.9162491594725862e7 5.078913782297799e6 0.0
5.078913782297799e6 9.316245396150865e6 0.0
0.0 0.0 0.0

2.1129996338803545e6 813550.9058476655 0.0
813550.9058476655 -3.240348045282091e6 0.0
0.0 0.0 0.0

182745.23542569298 7.681153516856756e6 0.0
7.681153516856756e6 -3.50851239645428e6 0.0
0.0 0.0 0.0

3.770432757302194e6 9.696263396743162e6 0.0
9.696263396743162e6 -4.012509150808352e6 0.0
0.0 0.0 0.0

-9.138473814851128e6 1.2188143519619582e7 0.0
1.2188143519619582e7 5.964827470238367e6 0.0
0.0 0.0 0.0

825594.5225690352 9.248055917458514e6 0.0
9.248055917458514e6 -8.13866036031737e6 0.0
0.0 0.0 0.0

-1.9077304978425053e6 1.1211508633939471e7 0.0
1.1211508633939471e7 -169370.5237273915 0.0
0.0 0.0 0.0

-1.98999410429186e6 1.2626369714782182e7 0.0
1.2626369714782182e7 -2.273529646855358e6 0.0
0.0 0.0 0.0

-1.1905919045493319e6 8.1752706200764505e6 0.0
8.1752706200764505e6 -3.15961728660967e6 0.0
0.0 0.0 0.0

-1.4104682098756302e6 1.2513998194027305e7 0.0
1.2513998194027305e7 -2.9750766945454674e6 0.0
0.0 0.0 0.0

-605757.7838232341 1.0626015978622964e7 0.0
1.0626015978622964e7 66323.66135232686 0.0
0.0 0.0 0.0

-5.910203406739065e6 1.0824526646354154e7 0.0
1.0824526646354154e7 2.5738515986494096e6 0.0
0.0 0.0 0.0

796798.6190196846 7.458770038084796e6 0.0
7.458770038084796e6 -5.550671909761531e6 0.0
0.0 0.0 0.0

2.6858190019245525e6 6.057122999757081e6 0.0
6.057122999757081e6 -8.151584854124224e6 0.0
0.0 0.0 0.0

-2.602085743217658e6 1.081455156566098e6 0.0
1.081455156566098e6 1.210492230880801e6 0.0
0.0 0.0 0.0

-3.6459744362671627e6 -88674.25254031984 0.0
-88674.25254031984 2.826273450018929e6 0.0
0.0 0.0 0.0

-3.4212149719648613e6 8.836252272369836e6 0.0
8.836252272369836e6 4.640634422145806e6 0.0
0.0 0.0 0.0

-505766.7167870855 1.0222440460476153e7 0.0
1.0222440460476153e7 278367.805590259 0.0
0.0 0.0 0.0

-929588.5512072707 1.0622644601169445e7 0.0
1.0622644601169445e7 267839.50538941263 0.0
0.0 0.0 0.0

3.8588309405572605e6 6.2713797176056495e6 0.0
6.2713797176056495e6 -6.268697356343256e6 0.0
0.0 0.0 0.0

82987.89803010435 1.1939542916063242e7 0.0
1.1939542916063242e7 -3.9816659497678867e6 0.0
0.0 0.0 0.0

2.1882962170962472e6 2.3791828289745855e6 0.0
2.3791828289745855e6 -3.6877843937648996e6 0.0
0.0 0.0 0.0

-1.5481793456761013e6 1.2344926480294362e7 0.0
1.2344926480294362e7 -2.613583601476541e6 0.0
0.0 0.0 0.0

-6.08939150884408e6 5.642387369186954e6 0.0
5.642387369186954e6 8.935516629753655e6 0.0
0.0 0.0 0.0

-5.182067331515848e6 1.1427501268213654e7 0.0
1.1427501268213654e7 1.3251611281916322e6 0.0
0.0 0.0 0.0

-6.4990897796755675e6 1.360075436429305e7 0.0
1.360075436429305e7 2.642970792106067e6 0.0
0.0 0.0 0.0

900384.1328638126 6.706218625098813e6 0.0
6.706218625098813e6 -5.813033112512129e6 0.0
0.0 0.0 0.0

930500.0450854488 6.308937047925906e6 0.0
6.308937047925906e6 -5.884283552157463e6 0.0
0.0 0.0 0.0

4.270550725708986e6 1.062911897691477e7 0.0
1.062911897691477e7 -6.208968635169591e6 0.0
0.0 0.0 0.0

-2.8343206330924896e6 1.0220307348922508e7 0.0
1.0220307348922508e7 3.8950706370519833e6 0.0
0.0 0.0 0.0

-1.6963161114669081e6 9.530024440602401e6 0.0
9.530024440602401e6 -3.6431016030646213e6 0.0
0.0 0.0 0.0

-3.645807477708981e6 -975357.9434121375 0.0
-975357.9434121375 3.560129644098569e6 0.0
0.0 0.0 0.0

-8.399505044970892e6 1.1836138203310153e7 0.0
1.1836138203310153e7 5.326377920632756e6 0.0
0.0 0.0 0.0

-4.758317049441566e6 4.5448785587546155e6 0.0
4.5448785587546155e6 5.229090175016345e6 0.0
0.0 0.0 0.0

-196063.6835767596 3.0803172657632967e6 0.0
3.0803172657632967e6 -1.1456108757458979e6 0.0
0.0 0.0 0.0

-2.169036812742389e6 8.571218682639208e6 0.0
8.571218682639208e6 -1.9828127466326207e6 0.0
0.0 0.0 0.0

2.678919523470435e6 6.030022493050892e6 0.0
6.030022493050892e6 -8.094969687416775e6 0.0
0.0 0.0 0.0

-6.929607190020377e6 1.0932407929229079e7 0.0
1.0932407929229079e7 4.593526711577011e6 0.0
0.0 0.0 0.0

-4.206218080086928e6 9.973677322007101e6 0.0
9.973677322007101e6 516962.88417203864 0.0
0.0 0.0 0.0

452883.77376581356 8.859959291362375e6 0.0
8.859959291362375e6 -6.720451855062302e6 0.0
0.0 0.0 0.0

4.990227014201086e6 8.479282137652354e6 0.0
8.479282137652354e6 -2.825347364782346e6 0.0
0.0 0.0 0.0

-6.477101705503189e6 1.0934272255980885e7 0.0
1.0934272255980885e7 4.302374342488984e6 0.0
0.0 0.0 0.0

-5.481941096956054e6 -733146.8111951022 0.0
-733146.8111951022 6.131850546157652e6 0.0
0.0 0.0 0.0

-2.0349230552709568e6 776770.3257154837 0.0
776770.3257154837 2.1813059031731226e6 0.0
0.0 0.0 0.0

2.5578258819338093e6 9.310611909570778e6 0.0
9.310611909570778e6 -3.43020274473842e6 0.0
0.0 0.0 0.0

-3.6593073138345187e6 1.121453399533137e7 0.0
1.121453399533137e7 -730003.229069307 0.0
0.0 0.0 0.0

-3.714298166126763e6 1.1584728998075126e7 0.0
1.1584728998075126e7 -648911.6025117903 0.0
0.0 0.0 0.0

-1.0884144293319708e7 -107087.36129313786 0.0
-107087.36129313786 2.031881729192639e7 0.0
0.0 0.0 0.0

5.4519338731668135e6 2.995629943407361e6 0.0
2.995629943407361e6 -7.699031950481176e6 0.0
0.0 0.0 0.0

-2.6880975600799783e6 1.124326493741708e7 0.0
1.124326493741708e7 240276.38902365929 0.0
0.0 0.0 0.0

-5.616362000480336e6 1.0797276319142133e7 0.0
1.0797276319142133e7 1.0811843524311504e6 0.0
0.0 0.0 0.0

-1.5844383990320928e7 6.298152416396879e6 0.0
6.298152416396879e6 7.661302584908066e6 0.0
0.0 0.0 0.0

-8.453810370268896e6 1.2493855928554034e7 0.0
1.2493855928554034e7 5.023523807803148e6 0.0
0.0 0.0 0.0

-408695.6186477112 1.0285705310519725e7 0.0
1.0285705310519725e7 -1.0930865146425571e6 0.0
0.0 0.0 0.0

-4.214331080637926e6 -1.4520103613849042e6 0.0
-1.4520103613849042e6 4.973912599226999e6 0.0
0.0 0.0 0.0

3.8284138666223665e6 1.0329013605780007e7 0.0
1.0329013605780007e7 -5.5726550881365705e6 0.0
0.0 0.0 0.0

-2.6654326567907436e6 9.373342562226735e6 0.0
9.373342562226735e6 -1.70971964721289e6 0.0
0.0 0.0 0.0

-1.1771377534077482e6 1.697175688968338e6 0.0
1.697175688968338e6 1.0131928234643559e6 0.0
0.0 0.0 0.0

-5.270327897058198e6 9.791717022887692e6 0.0
9.791717022887692e6 3.43996631869448e6 0.0
0.0 0.0 0.0

-5.508739209134664e6 1.0256795742517872e7 0.0
1.0256795742517872e7 3.710809922663977e6 0.0
0.0 0.0 0.0

-317710.60472746927 1.3605578371800573e6 0.0
1.3605578371800573e6 -1.5042394717183108e6 0.0
0.0 0.0 0.0

1.1037812545920308e6 6.058087136113253e6 0.0
6.058087136113253e6 -6.117202510536981e6 0.0
0.0 0.0 0.0

2.179690418325512e6 7.787511396591942e6 0.0
7.787511396591942e6 -9.801739885997122e6 0.0
0.0 0.0 0.0

-2.6441463012992265e6 8.624054716716696e6 0.0
8.624054716716696e6 4.815384860690412e6 0.0
0.0 0.0 0.0

4.094837050685507e6 2.6884339267463204e6 0.0
2.6884339267463204e6 -6.060932499955593e6 0.0
0.0 0.0 0.0

202237.21984863188 1.5659631628117362e7 0.0
1.5659631628117362e7 -6.395437086245016e6 0.0
0.0 0.0 0.0

1.4304404301497948e6 5.820158214068312e6 0.0
5.820158214068312e6 -5.702211849826596e6 0.0
0.0 0.0 0.0

85474.12532618712 5.867729848249422e6 0.0
5.867729848249422e6 -3.6966691218722216e6 0.0
0.0 0.0 0.0

606989.262521477 5.881917396400414e6 0.0
5.881917396400414e6 -4.958448630375656e6 0.0
0.0 0.0 0.0

-314699.7852290717 1.0604310265557831e7 0.0
1.0604310265557831e7 -730337.1418620362 0.0
0.0 0.0 0.0

-410074.15483385115 1.0346347040020004e7 0.0
1.0346347040020004e7 -94681.84144358308 0.0
0.0 0.0 0.0

446599.9293225319 9.430622826271927e6 0.0
9.430622826271927e6 -6.414743761287687e6 0.0
0.0 0.0 0.0

-3.317712597900712e6 1.6770498291247359e7 0.0
1.6770498291247359e7 -5.144443185091545e6 0.0
0.0 0.0 0.0

-1.6468781588234832e6 1.6230360213693231e6 0.0
1.6230360213693231e6 2.0876607791221868e6 0.0
0.0 0.0 0.0

-5.258628220796727e6 1.0249441278162884e7 0.0
1.0249441278162884e7 3.897621357399405e6 0.0
0.0 0.0 0.0

-8.1299316817479e6 1.168480801486714e7 0.0
1.168480801486714e7 5.011156420692558e6 0.0
0.0 0.0 0.0

-5.3847216073086355e6 1.1184329483689718e7 0.0
1.1184329483689718e7 1.6154813376055143e6 0.0
0.0 0.0 0.0

-235337.68341158243 1.8639666499432349e6 0.0
1.8639666499432349e6 -479245.9208443583 0.0
0.0 0.0 0.0

-612221.4407513429 3.6748144743407206e6 0.0
3.6748144743407206e6 -1.126187400623425e6 0.0
0.0 0.0 0.0

-2.019793101888206e6 1.0386055596906668e7 0.0
1.0386055596906668e7 3.4443159140260587e6 0.0
0.0 0.0 0.0

757710.0523699719 543206.6836235924 0.0
543206.6836235924 -2.6487236655331687e6 0.0
0.0 0.0 0.0

-1.9675200370335472e6 1.3454361596485509e7 0.0
1.3454361596485509e7 -3.1248045345041202e6 0.0
0.0 0.0 0.0

-3.4252477463951944e6 1.1057843221867545e7 0.0
1.1057843221867545e7 -1.6209198440647242e6 0.0
0.0 0.0 0.0

-308842.99780618004 1.0362330321087644e7 0.0
1.0362330321087644e7 -4.900985334385337e6 0.0
0.0 0.0 0.0

-3.814114395509864e6 8.87354038509263e6 0.0
8.87354038509263e6 1.2382323457041467e6 0.0
0.0 0.0 0.0

-5.181644393392358e6 9.546032203186132e6 0.0
9.546032203186132e6 3.2440296796720866e6 0.0
0.0 0.0 0.0

-3.257677731108198e6 6.200074323564473e6 0.0
6.200074323564473e6 3.045569753264712e6 0.0
0.0 0.0 0.0

-1.6280187126349475e7 1.0484946598849092e7 0.0
1.0484946598849092e7 1.0939745611625258e7 0.0
0.0 0.0 0.0

3.563466748696056e6 2.925181798758949e6 0.0
2.925181798758949e6 -6.022557014609624e6 0.0
0.0 0.0 0.0

-1.5702747455839515e6 9.4241000971296e6 0.0
9.4241000971296e6 -3.116748814921246e6 0.0
0.0 0.0 0.0

3.2367967567488486e6 6.576152498178122e6 0.0
6.576152498178122e6 -9.885954455946643e6 0.0
0.0 0.0 0.0

-2.987317996894639e6 1.2609747593957122e7 0.0
1.2609747593957122e7 -2.2491810703673284e6 0.0
0.0 0.0 0.0

-2.2618951089311354e6 6.598945262932719e6 0.0
6.598945262932719e6 202812.50669060985 0.0
0.0 0.0 0.0

-982491.6339977689 9.41330030476212e6 0.0
9.41330030476212e6 -6.662880629164742e6 0.0
0.0 0.0 0.0

3.4139422263050657e6 1.1271911367777916e7 0.0
1.1271911367777916e7 3.0146013817796577e6 0.0
0.0 0.0 0.0

-874854.8753924547 4.450293867228955e6 0.0
4.450293867228955e6 -285588.49633562984 0.0
0.0 0.0 0.0

-3.3278049722105395e6 9.874457989686375e6 0.0
9.874457989686375e6 6.41979755695501e6 0.0
0.0 0.0 0.0

-3.478664007598238e6 1.0350401904881686e7 0.0
1.0350401904881686e7 6.8426195188484145e6 0.0
0.0 0.0 0.0

-2.413995586597728e6 6.441829081386468e6 0.0
6.441829081386468e6 -2.0182123337413175e6 0.0
0.0 0.0 0.0

-9.080451410972185e6 1.4931158549976578e7 0.0
1.4931158549976578e7 2.940640961134121e6 0.0
0.0 0.0 0.0

-4.422070127494866e6 1.0517756176423213e7 0.0
1.0517756176423213e7 -189627.2666465065 0.0
0.0 0.0 0.0

-3.756354977197418e6 7.68336424614458e6 0.0
7.68336424614458e6 2.7543951893394636e6 0.0
0.0 0.0 0.0

2.6595133443635246e6 8.498306378842914e6 0.0
8.498306378842914e6 -1.2064841893210795e7 0.0
0.0 0.0 0.0

-965576.1229248052 3.933162836603344e6 0.0
3.933162836603344e6 -958614.2473379015 0.0
0.0 0.0 0.0

-1.1510448153825453e6 1.0508171735012414e7 0.0
1.0508171735012414e7 -932798.1403543148 0.0
0.0 0.0 0.0

1.2564024776453786e6 8.405517601404186e6 0.0
8.405517601404186e6 1.7666322802298304e6 0.0
0.0 0.0 0.0

-6.840541940537892e6 4.712282130283394e6 0.0
4.712282130283394e6 7.188392074335842e6 0.0
0.0 0.0 0.0

-4.216087137417493e6 1.0351165850734377e7 0.0
1.0351165850734377e7 3.4656613262010682e6 0.0
0.0 0.0 0.0

-5.953799907467026e6 1.0292331590151457e7 0.0
1.0292331590151457e7 3.912475882049451e6 0.0
0.0 0.0 0.0

-1.8020454354197692e7 1.0467308059895016e7 0.0
1.0467308059895016e7 1.114456117088113e7 0.0
0.0 0.0 0.0

701379.8950689773 4.589901588866287e6 0.0
4.589901588866287e6 -3.618640005526616e6 0.0
0.0 0.0 0.0

-5.985830124541029e6 1.0109287119149301e7 0.0
1.0109287119149301e7 3.6599686877042125e6 0.0
0.0 0.0 0.0

-3.981826536739451e6 1.0106328206296736e7 0.0
1.0106328206296736e7 -431395.12997345347 0.0
0.0 0.0 0.0

-1.5172489140346171e6 9.38674878537791e6 0.0
9.38674878537791e6 6.077877825382732e6 0.0
0.0 0.0 0.0

-5.251833921932874e6 1.1047120888244266e7 0.0
1.1047120888244266e7 773212.8389149555 0.0
0.0 0.0 0.0

2.856294720721027e6 2.127404202897753e6 0.0
2.127404202897753e6 -5.197988083997681e6 0.0
0.0 0.0 0.0

-2.611475744471634e6 9.939775683583478e6 0.0
9.939775683583478e6 -2.5712998933121823e6 0.0
0.0 0.0 0.0

-1.0028093569184146e6 3.3457116251709335e6 0.0
3.3457116251709335e6 721745.4882097507 0.0
0.0 0.0 0.0

1.3276093236585746e6 6.260574744569498e6 0.0
6.260574744569498e6 -5.644321774163477e6 0.0
0.0 0.0 0.0

3.4168146930114077e6 7.029055955977074e6 0.0
7.029055955977074e6 -1.0346944207809519e7 0.0
0.0 0.0 0.0

-2.4346002152079046e6 9.102223175124684e6 0.0
9.102223175124684e6 3.5601152116162498e6 0.0
0.0 0.0 0.0

-709671.654920067 1.0653054840490479e7 0.0
1.0653054840490479e7 -4.483380751364975e6 0.0
0.0 0.0 0.0

-3.893385089784839e6 7.7589838149004765e6 0.0
7.7589838149004765e6 2.1885055015863813e6 0.0
0.0 0.0 0.0

1.2262542086484083e6 4.836908551790175e6 0.0
4.836908551790175e6 -4.182361434173819e6 0.0
0.0 0.0 0.0

-473932.08681320946 9.232904434093866e6 0.0
9.232904434093866e6 -4.516042457889612e6 0.0
0.0 0.0 0.0

-480848.05618415587 1.0216939361486424e7 0.0
1.0216939361486424e7 -5.369293991536892e6 0.0
0.0 0.0 0.0

-4.318472056074991e6 8.161018382502169e6 0.0
8.161018382502169e6 2.588668158698627e6 0.0
0.0 0.0 0.0

-5.373019771516752e6 2.5303637705843383e6 0.0
2.5303637705843383e6 4.366974176467057e6 0.0
0.0 0.0 0.0

-1.1086213708445618e6 2.1481714993941733e6 0.0
2.1481714993941733e6 1.0402823627687166e6 0.0
0.0 0.0 0.0

-991195.4429641659 1.0533797100934606e7 0.0
1.0533797100934606e7 -4.648689804344458e6 0.0
0.0 0.0 0.0

-2.0406502290624997e6 6.256706520817835e6 0.0
6.256706520817835e6 226395.24471069244 0.0
0.0 0.0 0.0

-2.149553796634539e6 9.228601257710267e6 0.0
9.228601257710267e6 7.607570328666435e6 0.0
0.0 0.0 0.0

-3.855953613673478e6 1.1218103258435994e7 0.0
1.1218103258435994e7 -1.3861978838593857e6 0.0
0.0 0.0 0.0

2.2819971259630686e6 2.3916705115133245e6 0.0
2.3916705115133245e6 -3.8310017575093843e6 0.0
0.0 0.0 0.0

-9.338224343601529e6 746280.0805992911 0.0
746280.0805992911 1.2521486628557883e7 0.0
0.0 0.0 0.0

-6.514656595193234e6 1.0876308248370612e7 0.0
1.0876308248370612e7 3.7722227397380844e6 0.0
0.0 0.0 0.0

-7.787049203099228e6 1.0394203233305693e7 0.0
1.0394203233305693e7 5.605166822383095e6 0.0
0.0 0.0 0.0

-1.2607001505077777e6 4.684530978909337e6 0.0
4.684530978909337e6 -724040.8901397936 0.0
0.0 0.0 0.0

-2.0106653835111537e6 933058.1203945517 0.0
933058.1203945517 2.268428650852137e6 0.0
0.0 0.0 0.0

449144.9264147631 9.017115675847258e6 0.0
9.017115675847258e6 -6.787814068626409e6 0.0
0.0 0.0 0.0

-4.393645054075333e6 8.3834385728657525e6 0.0
8.3834385728657525e6 3.4999319261260508e6 0.0
0.0 0.0 0.0

-9.935519988438364e6 1.0512034134890875e6 0.0
1.0512034134890875e6 1.3298293734379657e7 0.0
0.0 0.0 0.0

-2.4103011512510493e7 3.0157286917075105e6 0.0
3.0157286917075105e6 1.2382210631972669e7 0.0
0.0 0.0 0.0

-880821.3045641473 7.318175211397755e6 0.0
7.318175211397755e6 -4.010123586848006e6 0.0
0.0 0.0 0.0

-306649.49658000655 1.0351549855545834e7 0.0
1.0351549855545834e7 -1.1072636600247505e6 0.0
0.0 0.0 0.0

2.5535304257109994e6 6.001977363943703e6 0.0
6.001977363943703e6 -7.790628848946037e6 0.0
0.0 0.0 0.0

-7.054388739077339e6 8.390829823399587e6 0.0
8.390829823399587e6 1.0115432510656208e7 0.0
0.0 0.0 0.0

-1.0291640539787963e7 1.0286437952317415e6 0.0
1.0286437952317415e6 1.2108699486820634e7 0.0
0.0 0.0 0.0

1.3701370190769394e6 4.479461568898028e6 0.0
4.479461568898028e6 -4.543141928267469e6 0.0
0.0 0.0 0.0

-3.774249499115051e6 1.0227726029550854e7 0.0
1.0227726029550854e7 -316510.8660148082 0.0
0.0 0.0 0.0

-5.226502401744004e6 9.762270620458733e6 0.0
9.762270620458733e6 2.226950442113183e6 0.0
0.0 0.0 0.0

-4.74889511353532e6 9.171648066715868e6 0.0
9.171648066715868e6 3.022180972398491e6 0.0
0.0 0.0 0.0

-7.0385608339481065e6 1.0848994630515836e7 0.0
1.0848994630515836e7 5.007051950354845e6 0.0
0.0 0.0 0.0

-3.5426073782202075e6 8.052771476221359e6 0.0
8.052771476221359e6 540240.9268691149 0.0
0.0 0.0 0.0

-7.944032999490302e6 -3.654416153685467e6 0.0
-3.654416153685467e6 1.1573647766734019e7 0.0
0.0 0.0 0.0

-1.204122022566955e6 1.0343622063851282e7 0.0
1.0343622063851282e7 2.4952888946548477e6 0.0
0.0 0.0 0.0

-1.1356217328091266e6 9.703465940451981e6 0.0
9.703465940451981e6 -3.6972055206835633e6 0.0
0.0 0.0 0.0

-9.781195371561028e6 6.567877359018193e6 0.0
6.567877359018193e6 7.275660755486459e6 0.0
0.0 0.0 0.0

-387619.6604233379 2.188894387597093e6 0.0
2.188894387597093e6 -1.1260824985828404e6 0.0
0.0 0.0 0.0

-7.673441543384312e6 1.1561690838815182e7 0.0
1.1561690838815182e7 4.983090928674124e6 0.0
0.0 0.0 0.0

-332188.63894744794 1.031719638217497e7 0.0
1.031719638217497e7 -1.204348723208872e6 0.0
0.0 0.0 0.0

-6.469414837304998e6 6.425508473186706e6 0.0
6.425508473186706e6 7.340925575424709e6 0.0
0.0 0.0 0.0

449391.255913157 7.952025273243273e6 0.0
7.952025273243273e6 -5.44623370773853e6 0.0
0.0 0.0 0.0

-4.143819878486109e6 6.061353466428783e6 0.0
6.061353466428783e6 4.690117316020905e6 0.0
0.0 0.0 0.0

2.864252590547638e6 2.3314262786474447e6 0.0
2.3314262786474447e6 -4.639989520645427e6 0.0
0.0 0.0 0.0

1.2443325320918614e6 6.683758423993061e6 0.0
6.683758423993061e6 -5.743428434173641e6 0.0
0.0 0.0 0.0

-1.9393658325042846e6 1.125081197098735e7 0.0
1.125081197098735e7 490863.11301550176 0.0
0.0 0.0 0.0

-3.929336419576104e6 8.642132062621133e6 0.0
8.642132062621133e6 1.495453524435793e6 0.0
0.0 0.0 0.0

-5.083116579915277e6 9.837900110409806e6 0.0
9.837900110409806e6 2.671115019726389e6 0.0
0.0 0.0 0.0

-2.1472609241420077e6 1.2500585918582372e7 0.0
1.2500585918582372e7 -2.8645710870913784e6 0.0
0.0 0.0 0.0

966990.3854907227 5.929453415401649e6 0.0
5.929453415401649e6 -4.913236601675028e6 0.0
0.0 0.0 0.0

1.2285712765711392e6 2.6302728328792793e6 0.0
2.6302728328792793e6 -3.0752208539492236e6 0.0
0.0 0.0 0.0

954037.2818501228 6.496583627968068e6 0.0
6.496583627968068e6 -6.111783742881061e6 0.0
0.0 0.0 0.0

1.633381250287252e6 4.508761293718659e6 0.0
4.508761293718659e6 -4.449107882994205e6 0.0
0.0 0.0 0.0

204756.40389942983 1.0155074899289543e7 0.0
1.0155074899289543e7 5.971418590972281e6 0.0
0.0 0.0 0.0

-1.0171336816031436e7 1.2188659120193837e7 0.0
1.2188659120193837e7 6.816983170271877e6 0.0
0.0 0.0 0.0

-3.8973833186962167e6 64004.67923196873 0.0
64004.67923196873 5.109357982971443e6 0.0
0.0 0.0 0.0

2.4396572710717437e6 7.619433411027995e6 0.0
7.619433411027995e6 -9.03661582723828e6 0.0
0.0 0.0 0.0

-2.3457484534954852e6 1.242535560898135e7 0.0
1.242535560898135e7 -1.9617612308855923e6 0.0
0.0 0.0 0.0

-1.5155129387358306e6 1.0791844030157175e7 0.0
1.0791844030157175e7 -54508.64127446839 0.0
0.0 0.0 0.0

1.5346934332559002e6 7.13472216817127e6 0.0
7.13472216817127e6 -7.629911840982731e6 0.0
0.0 0.0 0.0

-1.092844176959291e7 1.1221440330697546e7 0.0
1.1221440330697546e7 7.698384659695237e6 0.0
0.0 0.0 0.0

-3.713232766927398e6 9.58175104664138e6 0.0
9.58175104664138e6 6.766718034023707e6 0.0
0.0 0.0 0.0

-2.1604885079688426e7 8.1052546474027615e6 0.0
8.1052546474027615e6 1.0814018047279725e7 0.0
0.0 0.0 0.0

-2.748315652958e6 1.0040622618004384e7 0.0
1.0040622618004384e7 3.553924345303064e6 0.0
0.0 0.0 0.0

466972.9262329419 7.6858172675046865e6 0.0
7.6858172675046865e6 -5.483970261562795e6 0.0
0.0 0.0 0.0

1.6082630287723763e7 1.1987102714620357e7 0.0
1.1987102714620357e7 -32161.48373044934 0.0
0.0 0.0 0.0

-6.205759216565787e6 8.814473583560005e6 0.0
8.814473583560005e6 1.0201971157461036e7 0.0
0.0 0.0 0.0

-1.2913437930536543e6 3.749032573519809e6 0.0
3.749032573519809e6 929661.0943422895 0.0
0.0 0.0 0.0

-425727.18733248196 1.03925080029156e7 0.0
1.03925080029156e7 -59525.93555831285 0.0
0.0 0.0 0.0

263377.36209037434 9.448395227943214e6 0.0
9.448395227943214e6 -6.752780715467917e6 0.0
0.0 0.0 0.0

511713.65037565446 1.2808692938759493e7 0.0
1.2808692938759493e7 -4.006291348481307e6 0.0
0.0 0.0 0.0

-4.69639463584892e6 9.062364839178018e6 0.0
9.062364839178018e6 2.642009753222684e6 0.0
0.0 0.0 0.0

-9.78219422804868e6 233129.41396684657 0.0
233129.41396684657 1.1324152505000882e7 0.0
0.0 0.0 0.0

-1.1412809223679908e7 1.1419409358413445e7 0.0
1.1419409358413445e7 7.409914969569935e6 0.0
0.0 0.0 0.0

-3.453751644492796e6 1.1021536048129376e7 0.0
1.1021536048129376e7 1.441523546708456e6 0.0
0.0 0.0 0.0

-5.194067865676029e6 9.627611855699351e6 0.0
9.627611855699351e6 2.3087606326865787e6 0.0
0.0 0.0 0.0

-5.999057882142454e6 1.2824354251646468e7 0.0
1.2824354251646468e7 1.9993221823277804e6 0.0
0.0 0.0 0.0

-6.376953323222032e6 1.0655640911200352e7 0.0
1.0655640911200352e7 3.4691289780206163e6 0.0
0.0 0.0 0.0

-465560.3262299427 1.0612065825274972e7 0.0
1.0612065825274972e7 -1.0048576507308099e6 0.0
0.0 0.0 0.0

-1.8108199849054315e6 1.0456966464362098e7 0.0
1.0456966464362098e7 2.232807694252156e6 0.0
0.0 0.0 0.0

1.5513270038543355e6 9.213639540015183e6 0.0
9.213639540015183e6 -3.4062001958405315e6 0.0
0.0 0.0 0.0

-535948.5142917708 9.858631764088748e6 0.0
9.858631764088748e6 -7.62554112105157e6 0.0
0.0 0.0 0.0

-587606.091553879 1.0747969057083696e7 0.0
1.0747969057083696e7 -627424.0436252971 0.0
0.0 0.0 0.0

-4.011178371548945e6 8.565891835441409e6 0.0
8.565891835441409e6 1.0116523993639655e6 0.0
0.0 0.0 0.0

-5.664206732278902e6 5.1275245013545025e6 0.0
5.1275245013545025e6 1.106406230692273e7 0.0
0.0 0.0 0.0

-2.361048044713966e6 1.0664496439999357e7 0.0
1.0664496439999357e7 -2.1727154071468865e6 0.0
0.0 0.0 0.0

-610367.8507446842 9.183508089356527e6 0.0
9.183508089356527e6 -4.93585676665725e6 0.0
0.0 0.0 0.0

1.0412896160430943e6 5.78429693399375e6 0.0
5.78429693399375e6 -5.135910972393764e6 0.0
0.0 0.0 0.0

-6.40057610417676e6 8.856315996037131e6 0.0
8.856315996037131e6 9.485152464038335e6 0.0
0.0 0.0 0.0

-1.7492210490669513e6 1.0953909322957855e7 0.0
1.0953909322957855e7 1.449059491494969e6 0.0
0.0 0.0 0.0

-5.142422761179337e6 5.808992881980534e6 0.0
5.808992881980534e6 6.234756135757297e6 0.0
0.0 0.0 0.0

-4.495892826294034e6 8.981964081657708e6 0.0
8.981964081657708e6 2.7360957821098287e6 0.0
0.0 0.0 0.0

-2.6414978200904806e6 1.1344637327320829e7 0.0
1.1344637327320829e7 337570.37094180903 0.0
0.0 0.0 0.0

-5.303323886577141e6 6.182716339278636e6 0.0
6.182716339278636e6 4.808013299182173e6 0.0
0.0 0.0 0.0

-6.501037668120848e6 5.562206587109353e6 0.0
5.562206587109353e6 7.572407543289081e6 0.0
0.0 0.0 0.0

-3.456876673857596e6 6.134850753571677e6 0.0
6.134850753571677e6 2.4221442237476828e6 0.0
0.0 0.0 0.0

-1.2030340218605818e6 1.4493128506743745e6 0.0
1.4493128506743745e6 750343.5989881826 0.0
0.0 0.0 0.0

-5.3387897507417705e6 9.89735670507176e6 0.0
9.89735670507176e6 3.7052923830180033e6 0.0
0.0 0.0 0.0

486240.7570005893 9.377801853778638e6 0.0
9.377801853778638e6 -7.778155793011137e6 0.0
0.0 0.0 0.0

165396.43332432304 9.472420378626794e6 0.0
9.472420378626794e6 -6.491371715579621e6 0.0
0.0 0.0 0.0

-1.5344093960886294e7 8.0588872228048295e6 0.0
8.0588872228048295e6 6.645967447819743e6 0.0
0.0 0.0 0.0

-8.885350182588145e6 -1.1941535506750143e6 0.0
-1.1941535506750143e6 1.403499123042646e7 0.0
0.0 0.0 0.0

322229.23481488926 9.589151277622582e6 0.0
9.589151277622582e6 -6.0305196442602575e6 0.0
0.0 0.0 0.0

-6.7155880968979215e6 1.1148066492598373e7 0.0
1.1148066492598373e7 3.2181686768484022e6 0.0
0.0 0.0 0.0

-656463.5361819614 1.0260157494176438e7 0.0
1.0260157494176438e7 1.2107236125555132e6 0.0
0.0 0.0 0.0

328158.8726731238 1.346061712533814e6 0.0
1.346061712533814e6 -538711.3832915977 0.0
0.0 0.0 0.0

-417991.06928314926 1.0343118908460598e7 0.0
1.0343118908460598e7 -1.2341417678269295e6 0.0
0.0 0.0 0.0

-3.308010042016155e6 9.474420917000873e6 0.0
9.474420917000873e6 -1.1266604656315672e6 0.0
0.0 0.0 0.0

-1.6217643342816771e6 5.8506298209035825e6 0.0
5.8506298209035825e6 -406955.2735243858 0.0
0.0 0.0 0.0

2.8366418535836623e6 5.828165750608557e6 0.0
5.828165750608557e6 -8.709148415988583e6 0.0
0.0 0.0 0.0

-286789.6225097744 6.058253901956709e6 0.0
6.058253901956709e6 -3.4943533068013554e6 0.0
0.0 0.0 0.0

-3.537862259668314e6 1.11631993068063e6 0.0
1.11631993068063e6 2.8700977602007836e6 0.0
0.0 0.0 0.0

-2.256740404881873e6 1.1441403197569603e7 0.0
1.1441403197569603e7 -3.107907524263296e6 0.0
0.0 0.0 0.0

-1.2615136817904108e6 1.1314367950236367e7 0.0
1.1314367950236367e7 3.2345221317733303e6 0.0
0.0 0.0 0.0

-120721.86043971928 5.432683441940754e6 0.0
5.432683441940754e6 -2.8781283099493184e6 0.0
0.0 0.0 0.0

-3.908068929950179e6 8.971670043469997e6 0.0
8.971670043469997e6 6.6848155567110535e6 0.0
0.0 0.0 0.0

-1.0870674725213591e7 1.208503529005462e7 0.0
1.208503529005462e7 7.185419150411832e6 0.0
0.0 0.0 0.0

-1.531433343630134e6 3.7631076948230546e6 0.0
3.7631076948230546e6 92004.33881548361 0.0
0.0 0.0 0.0

-1.7755962733268768e6 1.0252767492053341e7 0.0
1.0252767492053341e7 2.4878572225660756e6 0.0
0.0 0.0 0.0

242380.3272669476 7.809295991360275e6 0.0
7.809295991360275e6 -5.675816832344629e6 0.0
0.0 0.0 0.0

-6.951921691620025e6 9.271983656282227e6 0.0
9.271983656282227e6 2.141731292782367e6 0.0
0.0 0.0 0.0

-407862.2377138992 2.844649906593996e6 0.0
2.844649906593996e6 -1.0213487718434281e6 0.0
0.0 0.0 0.0

-4.515492355834947e6 1.107931474367581e7 0.0
1.107931474367581e7 899407.2289256111 0.0
0.0 0.0 0.0

3.386576199575002e6 1.0568558364680676e7 0.0
1.0568558364680676e7 3.2450832639026684e6 0.0
0.0 0.0 0.0

-4.060525494337313e6 1.0108351266222965e7 0.0
1.0108351266222965e7 -192107.57109477115 0.0
0.0 0.0 0.0

367917.4517602378 7.757487353088186e6 0.0
7.757487353088186e6 -5.234558030270714e6 0.0
0.0 0.0 0.0

-4.795473774259404e6 1.0564176147554575e7 0.0
1.0564176147554575e7 3.5200533581048055e6 0.0
0.0 0.0 0.0

-9.211055598494798e6 -4.437041500620011e6 0.0
-4.437041500620011e6 1.6409836987328202e7 0.0
0.0 0.0 0.0

-2.5994674437362887e6 9.491739173003657e6 0.0
9.491739173003657e6 894705.9864486642 0.0
0.0 0.0 0.0

-8.057833867079705e6 1.16991184369719e7 0.0
1.16991184369719e7 5.264652614258712e6 0.0
0.0 0.0 0.0

856879.5517609958 9.07811042999845e6 0.0
9.07811042999845e6 -7.752139801612601e6 0.0
0.0 0.0 0.0

-130401.47816148913 1.0375137856054546e7 0.0
1.0375137856054546e7 -5.12794232923059e6 0.0
0.0 0.0 0.0

-122583.240874395 1.0168328614899307e7 0.0
1.0168328614899307e7 -5.272225022003206e6 0.0
0.0 0.0 0.0

-7.652661227661907e6 3.586020511280175e6 0.0
3.586020511280175e6 1.1156604728382416e7 0.0
0.0 0.0 0.0

-4.948130353979588e6 9.266463529889314e6 0.0
9.266463529889314e6 2.935785774653433e6 0.0
0.0 0.0 0.0

-1.6316918072645146e7 6.747834454471389e6 0.0
6.747834454471389e6 4.1974916852116704e7 0.0
0.0 0.0 0.0

5.149321250153346e6 9.929138282168975e6 0.0
9.929138282168975e6 -1.2826026649115115e7 0.0
0.0 0.0 0.0

-1.0248329887570376e7 8.715095526567986e6 0.0
8.715095526567986e6 5.505285790390882e6 0.0
0.0 0.0 0.0

-2.1390032705186727e6 1.069638542931491e7 0.0
1.069638542931491e7 1.732394711040841e6 0.0
0.0 0.0 0.0

-8.79531778040516e6 9.77824208467634e6 0.0
9.77824208467634e6 1.4150303996709827e6 0.0
0.0 0.0 0.0

-475500.3276731606 3.1379279382940573e6 0.0
3.1379279382940573e6 -666631.490407827 0.0
0.0 0.0 0.0

-4.560678306078713e6 7.150317919600138e6 0.0
7.150317919600138e6 3.4135440811429066e6 0.0
0.0 0.0 0.0

-4.422533059995126e6 1.0974170104490655e7 0.0
1.0974170104490655e7 520088.49157150043 0.0
0.0 0.0 0.0

-2.257727878890369e6 1.2849359179581515e6 0.0
1.2849359179581515e6 3.001180776117877e6 0.0
0.0 0.0 0.0

4.278250175620508e6 1.129572201011186e7 0.0
1.129572201011186e7 3.2302678943692143e6 0.0
0.0 0.0 0.0

-2.35594842906544e6 1.020609591636798e7 0.0
1.020609591636798e7 3.9242921607523477e6 0.0
0.0 0.0 0.0

-4.1483802515773587e6 8.414818530351128e6 0.0
8.414818530351128e6 3.0710119706152575e6 0.0
0.0 0.0 0.0

-1.801094318239046e7 8.89612708529497e6 0.0
8.89612708529497e6 1.1721981873207457e7 0.0
0.0 0.0 0.0

1.6456075043771914e6 8.7137031448501e6 0.0
8.7137031448501e6 -1.7813172896243832e6 0.0
0.0 0.0 0.0

1.9884787300412017e6 9.212708861107754e6 0.0
9.212708861107754e6 -3.54776588723439e6 0.0
0.0 0.0 0.0

-5.3987316587719945e6 1.0813595374770459e7 0.0
1.0813595374770459e7 3.588683316113784e6 0.0
0.0 0.0 0.0

-2.593872800415842e6 1.1258295331299914e7 0.0
1.1258295331299914e7 218718.92023730057 0.0
0.0 0.0 0.0

246332.77226382634 8.248563289142286e6 0.0
8.248563289142286e6 -3.9060085625864696e6 0.0
0.0 0.0 0.0

1.8408752433456178e6 1.001496560008365e7 0.0
1.001496560008365e7 -4.249439778222598e6 0.0
0.0 0.0 0.0

-3.270845514908754e6 8.901024129066477e6 0.0
8.901024129066477e6 3.4591342233817545e6 0.0
0.0 0.0 0.0

-7.832528464886013e6 1.3911377176685214e7 0.0
1.3911377176685214e7 3.811828903126263e6 0.0
0.0 0.0 0.0

-5.117567944907083e6 9.906485218872724e6 0.0
9.906485218872724e6 3.643408419983981e6 0.0
0.0 0.0 0.0

-1.0684150888576098e7 1.2048486548699247e7 0.0
1.2048486548699247e7 7.139241135208967e6 0.0
0.0 0.0 0.0

-61056.52130108513 9.887156208635502e6 0.0
9.887156208635502e6 -8.04733469414373e6 0.0
0.0 0.0 0.0

-161539.39913769532 1.1627725625278434e7 0.0
1.1627725625278434e7 -9.840373812258545e6 0.0
0.0 0.0 0.0

-2.31876832604881e6 1.3114941627108384e7 0.0
1.3114941627108384e7 2.7987880703689255e7 0.0
0.0 0.0 0.0

-1.3708664784490773e6 1.1172848631005343e7 0.0
1.1172848631005343e7 3.6031184327799566e6 0.0
0.0 0.0 0.0

1.5917503532255995e6 7.931524681547258e6 0.0
7.931524681547258e6 -8.610041977485657e6 0.0
0.0 0.0 0.0

-8.535528272779414e6 1.3684211750758406e7 0.0
1.3684211750758406e7 3.4639069182814257e6 0.0
0.0 0.0 0.0

-3.28882020622774e6 1.104077854705562e7 0.0
1.104077854705562e7 -1.1100860992093773e6 0.0
0.0 0.0 0.0

-650302.6041931773 1.0457524895185184e7 0.0
1.0457524895185184e7 -1.074977784125723e6 0.0
0.0 0.0 0.0

-1.5951947337640966e6 1.1537893678531284e7 0.0
1.1537893678531284e7 -2.957668565655058e6 0.0
0.0 0.0 0.0

-1.918119493037182e7 8.885649532117536e6 0.0
8.885649532117536e6 1.2041855535284933e7 0.0
0.0 0.0 0.0

-7.859819023271945e6 1.1558870113616895e7 0.0
1.1558870113616895e7 5.005360048141794e6 0.0
0.0 0.0 0.0

-5.644387939831389e6 1.085560760263359e7 0.0
1.085560760263359e7 3.4086279629948335e6 0.0
0.0 0.0 0.0

2.9146130889037135e6 6.159717981165712e6 0.0
6.159717981165712e6 -9.265972518247908e6 0.0
0.0 0.0 0.0

55157.01416355721 1.3236503019436937e7 0.0
1.3236503019436937e7 -4.0440420006272355e6 0.0
0.0 0.0 0.0

651143.3625663142 9.239498714447038e6 0.0
9.239498714447038e6 -7.538721353122924e6 0.0
0.0 0.0 0.0

-901445.6172012218 1.3461101935926449e7 0.0
1.3461101935926449e7 -3.1197993235993637e6 0.0
0.0 0.0 0.0

603996.8211717682 7.8643634615799105e6 0.0
7.8643634615799105e6 -3.3690629943510797e6 0.0
0.0 0.0 0.0

-1.886108380992691e6 1.0468880404192513e7 0.0
1.0468880404192513e7 2.7087618446837505e6 0.0
0.0 0.0 0.0

-6.359303611716917e6 1.0830551308524206e7 0.0
1.0830551308524206e7 4.30021341542059e6 0.0
0.0 0.0 0.0

-1.192308383716877e6 1.5877915731421125e6 0.0
1.5877915731421125e6 930202.845687787 0.0
0.0 0.0 0.0

4.807795793802547e6 9.60203250410032e6 0.0
9.60203250410032e6 -4.324619082952239e6 0.0
0.0 0.0 0.0

-2.625397261486455e7 7.2366505120739695e6 0.0
7.2366505120739695e6 1.2589067654564612e7 0.0
0.0 0.0 0.0

-7.99992865776314e6 3.956556534745977e6 0.0
3.956556534745977e6 9.75063965721394e6 0.0
0.0 0.0 0.0

-3.5660344591561523e6 1.075985670375115e7 0.0
1.075985670375115e7 1.3510408711362507e6 0.0
0.0 0.0 0.0

1.9325129043967198e6 9.81711628611458e6 0.0
9.81711628611458e6 -4.022711401366532e6 0.0
0.0 0.0 0.0

1.9913243060327447e6 5.748442115172028e6 0.0
5.748442115172028e6 -6.905976248736535e6 0.0
0.0 0.0 0.0

-2.3553799717855128e6 1.0789144754244613e7 0.0
1.0789144754244613e7 1.431000281637545e6 0.0
0.0 0.0 0.0

-7.43225284806177e6 -3.7795737182895844e6 0.0
-3.7795737182895844e6 1.047342913289892e7 0.0
0.0 0.0 0.0

-976797.3636758169 1.2277743281832978e7 0.0
1.2277743281832978e7 -1.3295782358267581e7 0.0
0.0 0.0 0.0

-597598.1291293949 1.8111278421209708e7 0.0
1.8111278421209708e7 3.854876010184975e7 0.0
0.0 0.0 0.0

645972.0452640275 8.853460750312708e6 0.0
8.853460750312708e6 -7.043639758674648e6 0.0
0.0 0.0 0.0

2.0302540202272541e6 2.6354874744275743e6 0.0
2.6354874744275743e6 -4.051681291464486e6 0.0
0.0 0.0 0.0

-2.4518406635387223e6 1.0007975387451308e7 0.0
1.0007975387451308e7 5.512098693595518e6 0.0
0.0 0.0 0.0

-9.932217429777298e6 -4.67253723223563e6 0.0
-4.67253723223563e6 1.6228683766195383e7 0.0
0.0 0.0 0.0

768430.2514571352 5.380918917722972e6 0.0
5.380918917722972e6 -3.8273491517488942e6 0.0
0.0 0.0 0.0

-7.303440176509559e6 1.4679717603840612e7 0.0
1.4679717603840612e7 1.916918379554247e6 0.0
0.0 0.0 0.0

-2.2349254803090505e6 9.879159228910169e6 0.0
9.879159228910169e6 -3.0081384216742152e6 0.0
0.0 0.0 0.0

-977703.6483418789 1.0413503066661494e7 0.0
1.0413503066661494e7 2.2485692995919012e6 0.0
0.0 0.0 0.0

-2.468042720519647e6 1.1231774704533264e7 0.0
1.1231774704533264e7 211132.2160624615 0.0
0.0 0.0 0.0

-9.81554469274193e6 9.991058924507227e6 0.0
9.991058924507227e6 2.060855679734359e6 0.0
0.0 0.0 0.0

-7.534326486154877e6 1.1347652257787904e7 0.0
1.1347652257787904e7 4.946083944581215e6 0.0
0.0 0.0 0.0

-639992.2140347571 1.0583287548511183e7 0.0
1.0583287548511183e7 434102.52227009775 0.0
0.0 0.0 0.0

-1.9013302088743034e6 1.063466058146101e7 0.0
1.063466058146101e7 1.956472404312109e6 0.0
0.0 0.0 0.0

-625589.0600856256 9.397467724397738e6 0.0
9.397467724397738e6 -4.759825934424317e6 0.0
0.0 0.0 0.0

-1.7684248236734e6 1.1515200323663408e7 0.0
1.1515200323663408e7 -3.588680282540151e6 0.0
0.0 0.0 0.0

-1.1052065980685744e7 -3.046696538864385e6 0.0
-3.046696538864385e6 1.5033428103071582e7 0.0
0.0 0.0 0.0

-1.839467634044366e7 9.86074085764075e6 0.0
9.86074085764075e6 1.198877702257726e7 0.0
0.0 0.0 0.0

-1.1654106923395354e7 9.579009865601603e6 0.0
9.579009865601603e6 7.810964543599767e6 0.0
0.0 0.0 0.0

-1.4943796885360908e7 5.159090833461118e6 0.0
5.159090833461118e6 9.180981557328274e6 0.0
0.0 0.0 0.0

-509795.069791557 1.0799690697970461e7 0.0
1.0799690697970461e7 -521325.998169386 0.0
0.0 0.0 0.0

-3.2412992597980364e6 1.0770450339312138e7 0.0
1.0770450339312138e7 319334.9401505962 0.0
0.0 0.0 0.0

-1.1715719832453342e7 7.3488479668336725e6 0.0
7.3488479668336725e6 6.708045564217324e6 0.0
0.0 0.0 0.0

1.3846716955466566e6 4.905549720109337e6 0.0
4.905549720109337e6 -3.944983295759092e6 0.0
0.0 0.0 0.0

-1.503924511595685e6 1.052329538750445e7 0.0
1.052329538750445e7 2.481203689063617e6 0.0
0.0 0.0 0.0

2.0640667050723014e6 7.709649876046672e6 0.0
7.709649876046672e6 -8.341990393123943e6 0.0
0.0 0.0 0.0

-6.564974090327397e6 4.361217989790617e6 0.0
4.361217989790617e6 1.0401647064003153e7 0.0
0.0 0.0 0.0

-9.463747459572595e6 -4.7026465965086315e6 0.0
-4.7026465965086315e6 1.5123144842493141e7 0.0
0.0 0.0 0.0

3.025082065557167e6 6.2146256242831275e6 0.0
6.2146256242831275e6 -9.190847017787479e6 0.0
0.0 0.0 0.0

-1.7003573781188328e7 6.994900294778248e6 0.0
6.994900294778248e6 8.47542038288594e6 0.0
0.0 0.0 0.0

-4.711716070299389e6 -1.9101277077989292e6 0.0
-1.9101277077989292e6 5.606215164837262e6 0.0
0.0 0.0 0.0

-4.226182401203211e6 -293932.4899228528 0.0
-293932.4899228528 4.2386689257986415e6 0.0
0.0 0.0 0.0

1.0660382258486275e6 4.780679643275187e6 0.0
4.780679643275187e6 -4.906206273956913e6 0.0
0.0 0.0 0.0

-2.7880129751503067e6 285624.8363543739 0.0
285624.8363543739 4.72730282884917e6 0.0
0.0 0.0 0.0

-1.1775209773087641e7 1.907066139818132e7 0.0
1.907066139818132e7 2.274228143195477e6 0.0
0.0 0.0 0.0

-4.334411070825876e6 8.720411258977048e6 0.0
8.720411258977048e6 3.18783992912394e6 0.0
0.0 0.0 0.0

3.1776660663522887e6 6.878271350515308e6 0.0
6.878271350515308e6 -1.0698361212350495e7 0.0
0.0 0.0 0.0

2.334975662697734e6 6.175170496254525e6 0.0
6.175170496254525e6 -8.2041920390657475e6 0.0
0.0 0.0 0.0

-4.945049874468002e6 9.08168635408527e6 0.0
9.08168635408527e6 2.7419290441270513e6 0.0
0.0 0.0 0.0

-1.0814583167639818e7 1.1558762443501716e7 0.0
1.1558762443501716e7 7.13711819313323e6 0.0
0.0 0.0 0.0

-342093.29953544214 5.799908198764015e6 0.0
5.799908198764015e6 3.340975174984196e6 0.0
0.0 0.0 0.0

-3.2956158659561593e6 9.57598353709408e6 0.0
9.57598353709408e6 6.723453032987574e6 0.0
0.0 0.0 0.0

-97492.30970866373 1.3089264354678221e7 0.0
1.3089264354678221e7 -4.4634133028297555e6 0.0
0.0 0.0 0.0

-4.139248054336169e6 -2.4741746981703653e6 0.0
-2.4741746981703653e6 7.419797644764246e6 0.0
0.0 0.0 0.0

-1.1803855605934627e7 4.105958760762896e6 0.0
4.105958760762896e6 6.546951107383847e6 0.0
0.0 0.0 0.0

-7.425084910345936e6 1.123678621889388e7 0.0
1.123678621889388e7 4.669548249995049e6 0.0
0.0 0.0 0.0

-5.975335043732684e6 1.2244212500317752e7 0.0
1.2244212500317752e7 1.2453301327168006e7 0.0
0.0 0.0 0.0

-25414.186718649464 1.3157386685487935e7 0.0
1.3157386685487935e7 -3.875711335167571e6 0.0
0.0 0.0 0.0

-2.5700089587426633e6 1.1521346600128919e7 0.0
1.1521346600128919e7 660622.0520060475 0.0
0.0 0.0 0.0

-4.167270340692439e6 1.0296282052322652e7 0.0
1.0296282052322652e7 3.662922308921666e6 0.0
0.0 0.0 0.0

-2.215970990398591e6 1.1001660871070141e7 0.0
1.1001660871070141e7 -282444.4380579098 0.0
0.0 0.0 0.0

-2.602747219464197e7 1.0590636783592226e7 0.0
1.0590636783592226e7 6.628811018218596e6 0.0
0.0 0.0 0.0

-4.589538404342359e6 8.538971132363737e6 0.0
8.538971132363737e6 2.893352464542559e6 0.0
0.0 0.0 0.0

-2.3070783277958394e6 1.148599713210982e7 0.0
1.148599713210982e7 115170.0570374236 0.0
0.0 0.0 0.0

-3.7382110714099593e6 1.0635045004285311e7 0.0
1.0635045004285311e7 3.346398237761356e6 0.0
0.0 0.0 0.0

-611941.3409474705 1.2752638480589936e7 0.0
1.2752638480589936e7 -3.807676001701574e6 0.0
0.0 0.0 0.0

1.7642218966449224e6 5.778153617616377e6 0.0
5.778153617616377e6 -6.555501597773521e6 0.0
0.0 0.0 0.0

-1.7390565572554255e6 1.2253133495793976e7 0.0
1.2253133495793976e7 -3.2588760825213315e6 0.0
0.0 0.0 0.0

-2.013980471472828e7 9.346182115584986e6 0.0
9.346182115584986e6 1.1264333260592785e7 0.0
0.0 0.0 0.0

-7.115256091063973e6 1.0977911954746582e7 0.0
1.0977911954746582e7 4.693600060404688e6 0.0
0.0 0.0 0.0

-1.4797087316546664e6 1.6088877191650353e6 0.0
1.6088877191650353e6 435631.7866612385 0.0
0.0 0.0 0.0

-1.2869614892657227e6 1.068380451897886e7 0.0
1.068380451897886e7 -4.270729849102144e6 0.0
0.0 0.0 0.0

3.969558352521479e6 9.521785556557786e6 0.0
9.521785556557786e6 -4.450073832404076e6 0.0
0.0 0.0 0.0

-2.353700926847052e7 1.1523653058678644e7 0.0
1.1523653058678644e7 7.365450631347785e6 0.0
0.0 0.0 0.0

-441610.02407835476 9.953772220384704e6 0.0
9.953772220384704e6 612795.1252948889 0.0
0.0 0.0 0.0

1.92791919466963e6 7.730661757043891e6 0.0
7.730661757043891e6 -8.792303159157358e6 0.0
0.0 0.0 0.0

-899952.7002604569 9.34009604232184e6 0.0
9.34009604232184e6 -4.668660260045094e6 0.0
0.0 0.0 0.0

-2.0671707536641785e6 1.0952323916437346e7 0.0
1.0952323916437346e7 1.6342652256005947e6 0.0
0.0 0.0 0.0

-1.0988976324671539e7 1.1413805285636298e7 0.0
1.1413805285636298e7 7.437638450272786e6 0.0
0.0 0.0 0.0

-5.07925746220102e6 1.1241760925284129e7 0.0
1.1241760925284129e7 1.1358096498298605e6 0.0
0.0 0.0 0.0

2.7066530025891997e6 6.047289530339084e6 0.0
6.047289530339084e6 -8.035079481583253e6 0.0
0.0 0.0 0.0

-3.9509899230014305e6 1.2552319431112273e7 0.0
1.2552319431112273e7 7.07916391665438e6 0.0
0.0 0.0 0.0

-228289.32532833435 7.421629347504553e6 0.0
7.421629347504553e6 -3.716809406153881e6 0.0
0.0 0.0 0.0

-1.8685641356247254e7 1.1255676219505483e7 0.0
1.1255676219505483e7 6.015066973870998e6 0.0
0.0 0.0 0.0

-2.590945101585827e6 747256.4601547226 0.0
747256.4601547226 1.9857972410664253e6 0.0
0.0 0.0 0.0

-2.1357937866981234e6 712298.9160092674 0.0
712298.9160092674 3.528253748645236e6 0.0
0.0 0.0 0.0

3.958345400763707e6 8.534634940203158e6 0.0
8.534634940203158e6 -2.242935889485987e6 0.0
0.0 0.0 0.0

-4.056858779801452e6 -1.339934534471484e6 0.0
-1.339934534471484e6 7.987767708193161e6 0.0
0.0 0.0 0.0

-318598.3789780935 1.008208891609137e7 0.0
1.008208891609137e7 581825.8603092498 0.0
0.0 0.0 0.0

-1.0723823013945785e6 1.1731473738668352e7 0.0
1.1731473738668352e7 3.503691993621762e6 0.0
0.0 0.0 0.0

-8.73043270954373e6 1.2764972156352658e7 0.0
1.2764972156352658e7 4.456022722678854e6 0.0
0.0 0.0 0.0

-1.2697030940930303e7 -1.2795165984214228e6 0.0
-1.2795165984214228e6 1.8256142937974446e7 0.0
0.0 0.0 0.0

683315.5270438078 9.271051124289492e6 0.0
9.271051124289492e6 -7.579416373679588e6 0.0
0.0 0.0 0.0

505618.599455049 5.162090565709774e6 0.0
5.162090565709774e6 -4.341615037315348e6 0.0
0.0 0.0 0.0

-1.9548591402924978e6 1.083242986587795e7 0.0
1.083242986587795e7 1.2347084806372102e6 0.0
0.0 0.0 0.0

-2.35067239094098e6 1.1397726731925102e7 0.0
1.1397726731925102e7 4.36797193836174e6 0.0
0.0 0.0 0.0

-6.168747167320283e6 -905663.7454683398 0.0
-905663.7454683398 7.201217250442469e6 0.0
0.0 0.0 0.0

-7.64348334660037e6 3.0046332602828145e6 0.0
3.0046332602828145e6 6.9757785882098805e6 0.0
0.0 0.0 0.0

-3.6822295293070306e6 8.333889589096088e6 0.0
8.333889589096088e6 1.1209989077206496e6 0.0
0.0 0.0 0.0

-4.36572528105232e6 3.882205140767461e6 0.0
3.882205140767461e6 8.41616804225428e6 0.0
0.0 0.0 0.0

1.7199501687427345e6 9.795869799856331e6 0.0
9.795869799856331e6 -3.791725592805059e6 0.0
0.0 0.0 0.0

-3.2736442387791765e6 381627.6953337636 0.0
381627.6953337636 3.1018489122767765e6 0.0
0.0 0.0 0.0

-1.2634649615724068e7 -1.7726694755262095e6 0.0
-1.7726694755262095e6 2.0593965874469664e7 0.0
0.0 0.0 0.0

1.7001330741091059e6 9.701920472658578e6 0.0
9.701920472658578e6 -3.9508621517020324e6 0.0
0.0 0.0 0.0

-1.9911880876733873e6 1.0038293491310054e7 0.0
1.0038293491310054e7 -2.8028493221296e6 0.0
0.0 0.0 0.0

-1.1809459192501023e7 -1.2854004141628724e6 0.0
-1.2854004141628724e6 2.1536136111591455e7 0.0
0.0 0.0 0.0

547015.4051821833 1.2432612470390497e7 0.0
1.2432612470390497e7 -4.193544793133293e6 0.0
0.0 0.0 0.0

-1.58107658196904e6 1.0354502342196697e7 0.0
1.0354502342196697e7 2.391413101536521e6 0.0
0.0 0.0 0.0

-2.228320908188964e6 6.338088884835086e6 0.0
6.338088884835086e6 120806.44077075389 0.0
0.0 0.0 0.0

-4.1069575746973334e6 622818.9904855079 0.0
622818.9904855079 4.894462875934748e6 0.0
0.0 0.0 0.0

-3.6797487808921365e6 649812.8435380108 0.0
649812.8435380108 2.4990365022846274e6 0.0
0.0 0.0 0.0

